    1C
    1UUSER                                                              
    1UDATE              27.october.2022                                 
    1UTIME              00:17:09                                        
    1UHOST                                                              
    1UPGM               CalculiX                                        
    1UVERSION           Version 2.17                             
    1UCOMPILETIME       Thu Jul 23 21:43:50 CEST 2020                    
    1UDIR                                                               
    1UDBN                                                               
    1UMAT    1SOLIDMATERIAL                                             
    2C                          4209                                     1
 -1         1 5.60996E+01 2.63636E+01 0.00000E+00
 -1         2 5.85018E+01 2.10854E+01 0.00000E+00
 -1         3 1.50000E+02 0.00000E+00 0.00000E+00
 -1         4 1.50000E+02 5.00000E+01 0.00000E+00
 -1         5 0.00000E+00 0.00000E+00 0.00000E+00
 -1         6 0.00000E+00 5.00000E+01 0.00000E+00
 -1         7 0.00000E+00 4.70500E+01 0.00000E+00
 -1         8 0.00000E+00 4.41000E+01 0.00000E+00
 -1         9 0.00000E+00 4.11500E+01 0.00000E+00
 -1        10 0.00000E+00 3.82000E+01 0.00000E+00
 -1        11 0.00000E+00 3.52500E+01 0.00000E+00
 -1        12 0.00000E+00 3.23500E+01 0.00000E+00
 -1        13 0.00000E+00 2.94000E+01 0.00000E+00
 -1        14 0.00000E+00 2.64500E+01 0.00000E+00
 -1        15 0.00000E+00 2.35000E+01 0.00000E+00
 -1        16 0.00000E+00 2.05500E+01 0.00000E+00
 -1        17 0.00000E+00 1.76000E+01 0.00000E+00
 -1        18 0.00000E+00 1.47000E+01 0.00000E+00
 -1        19 0.00000E+00 1.17500E+01 0.00000E+00
 -1        20 0.00000E+00 8.80000E+00 0.00000E+00
 -1        21 0.00000E+00 5.85000E+00 0.00000E+00
 -1        22 0.00000E+00 2.90000E+00 0.00000E+00
 -1        23 3.15000E+00 5.00000E+01 0.00000E+00
 -1        24 6.15000E+00 5.00000E+01 0.00000E+00
 -1        25 9.15000E+00 5.00000E+01 0.00000E+00
 -1        26 1.21500E+01 5.00000E+01 0.00000E+00
 -1        27 1.51500E+01 5.00000E+01 0.00000E+00
 -1        28 1.81500E+01 5.00000E+01 0.00000E+00
 -1        29 2.11500E+01 5.00000E+01 0.00000E+00
 -1        30 2.41500E+01 5.00000E+01 0.00000E+00
 -1        31 2.71500E+01 5.00000E+01 0.00000E+00
 -1        32 3.01500E+01 5.00000E+01 0.00000E+00
 -1        33 3.31500E+01 5.00000E+01 0.00000E+00
 -1        34 3.61500E+01 5.00000E+01 0.00000E+00
 -1        35 3.91500E+01 5.00000E+01 0.00000E+00
 -1        36 4.21500E+01 5.00000E+01 0.00000E+00
 -1        37 4.51500E+01 5.00000E+01 0.00000E+00
 -1        38 4.81500E+01 5.00000E+01 0.00000E+00
 -1        39 5.11500E+01 5.00000E+01 0.00000E+00
 -1        40 5.41500E+01 5.00000E+01 0.00000E+00
 -1        41 5.71500E+01 5.00000E+01 0.00000E+00
 -1        42 6.01500E+01 5.00000E+01 0.00000E+00
 -1        43 6.31500E+01 5.00000E+01 0.00000E+00
 -1        44 6.61500E+01 5.00000E+01 0.00000E+00
 -1        45 6.91500E+01 5.00000E+01 0.00000E+00
 -1        46 7.21500E+01 5.00000E+01 0.00000E+00
 -1        47 7.51500E+01 5.00000E+01 0.00000E+00
 -1        48 7.81500E+01 5.00000E+01 0.00000E+00
 -1        49 8.11500E+01 5.00000E+01 0.00000E+00
 -1        50 8.41500E+01 5.00000E+01 0.00000E+00
 -1        51 8.71500E+01 5.00000E+01 0.00000E+00
 -1        52 9.01500E+01 5.00000E+01 0.00000E+00
 -1        53 9.31500E+01 5.00000E+01 0.00000E+00
 -1        54 9.61500E+01 5.00000E+01 0.00000E+00
 -1        55 9.91500E+01 5.00000E+01 0.00000E+00
 -1        56 1.02150E+02 5.00000E+01 0.00000E+00
 -1        57 1.05150E+02 5.00000E+01 0.00000E+00
 -1        58 1.08150E+02 5.00000E+01 0.00000E+00
 -1        59 1.11150E+02 5.00000E+01 0.00000E+00
 -1        60 1.14150E+02 5.00000E+01 0.00000E+00
 -1        61 1.17150E+02 5.00000E+01 0.00000E+00
 -1        62 1.20150E+02 5.00000E+01 0.00000E+00
 -1        63 1.23150E+02 5.00000E+01 0.00000E+00
 -1        64 1.26150E+02 5.00000E+01 0.00000E+00
 -1        65 1.29150E+02 5.00000E+01 0.00000E+00
 -1        66 1.32150E+02 5.00000E+01 0.00000E+00
 -1        67 1.35150E+02 5.00000E+01 0.00000E+00
 -1        68 1.38150E+02 5.00000E+01 0.00000E+00
 -1        69 1.41150E+02 5.00000E+01 0.00000E+00
 -1        70 1.44150E+02 5.00000E+01 0.00000E+00
 -1        71 1.47150E+02 5.00000E+01 0.00000E+00
 -1        72 3.15000E+00 0.00000E+00 0.00000E+00
 -1        73 6.15000E+00 0.00000E+00 0.00000E+00
 -1        74 9.15000E+00 0.00000E+00 0.00000E+00
 -1        75 1.21500E+01 0.00000E+00 0.00000E+00
 -1        76 1.51500E+01 0.00000E+00 0.00000E+00
 -1        77 1.81500E+01 0.00000E+00 0.00000E+00
 -1        78 2.11500E+01 0.00000E+00 0.00000E+00
 -1        79 2.41500E+01 0.00000E+00 0.00000E+00
 -1        80 2.71500E+01 0.00000E+00 0.00000E+00
 -1        81 3.01500E+01 0.00000E+00 0.00000E+00
 -1        82 3.31500E+01 0.00000E+00 0.00000E+00
 -1        83 3.61500E+01 0.00000E+00 0.00000E+00
 -1        84 3.91500E+01 0.00000E+00 0.00000E+00
 -1        85 4.21500E+01 0.00000E+00 0.00000E+00
 -1        86 4.51500E+01 0.00000E+00 0.00000E+00
 -1        87 4.81500E+01 0.00000E+00 0.00000E+00
 -1        88 5.11500E+01 0.00000E+00 0.00000E+00
 -1        89 5.41500E+01 0.00000E+00 0.00000E+00
 -1        90 5.71500E+01 0.00000E+00 0.00000E+00
 -1        91 6.01500E+01 0.00000E+00 0.00000E+00
 -1        92 6.31500E+01 0.00000E+00 0.00000E+00
 -1        93 6.61500E+01 0.00000E+00 0.00000E+00
 -1        94 6.91500E+01 0.00000E+00 0.00000E+00
 -1        95 7.21500E+01 0.00000E+00 0.00000E+00
 -1        96 7.51500E+01 0.00000E+00 0.00000E+00
 -1        97 7.81500E+01 0.00000E+00 0.00000E+00
 -1        98 8.11500E+01 0.00000E+00 0.00000E+00
 -1        99 8.41500E+01 0.00000E+00 0.00000E+00
 -1       100 8.71500E+01 0.00000E+00 0.00000E+00
 -1       101 9.01500E+01 0.00000E+00 0.00000E+00
 -1       102 9.31500E+01 0.00000E+00 0.00000E+00
 -1       103 9.61500E+01 0.00000E+00 0.00000E+00
 -1       104 9.91500E+01 0.00000E+00 0.00000E+00
 -1       105 1.02150E+02 0.00000E+00 0.00000E+00
 -1       106 1.05150E+02 0.00000E+00 0.00000E+00
 -1       107 1.08150E+02 0.00000E+00 0.00000E+00
 -1       108 1.11150E+02 0.00000E+00 0.00000E+00
 -1       109 1.14150E+02 0.00000E+00 0.00000E+00
 -1       110 1.17150E+02 0.00000E+00 0.00000E+00
 -1       111 1.20150E+02 0.00000E+00 0.00000E+00
 -1       112 1.23150E+02 0.00000E+00 0.00000E+00
 -1       113 1.26150E+02 0.00000E+00 0.00000E+00
 -1       114 1.29150E+02 0.00000E+00 0.00000E+00
 -1       115 1.32150E+02 0.00000E+00 0.00000E+00
 -1       116 1.35150E+02 0.00000E+00 0.00000E+00
 -1       117 1.38150E+02 0.00000E+00 0.00000E+00
 -1       118 1.41150E+02 0.00000E+00 0.00000E+00
 -1       119 1.44150E+02 0.00000E+00 0.00000E+00
 -1       120 1.47150E+02 0.00000E+00 0.00000E+00
 -1       121 1.50000E+02 2.95000E+00 0.00000E+00
 -1       122 1.50000E+02 5.90000E+00 0.00000E+00
 -1       123 1.50000E+02 8.85000E+00 0.00000E+00
 -1       124 1.50000E+02 1.18000E+01 0.00000E+00
 -1       125 1.50000E+02 1.47500E+01 0.00000E+00
 -1       126 1.50000E+02 1.76500E+01 0.00000E+00
 -1       127 1.50000E+02 2.06000E+01 0.00000E+00
 -1       128 1.50000E+02 2.35500E+01 0.00000E+00
 -1       129 1.50000E+02 2.65000E+01 0.00000E+00
 -1       130 1.50000E+02 2.94500E+01 0.00000E+00
 -1       131 1.50000E+02 3.24000E+01 0.00000E+00
 -1       132 1.50000E+02 3.53000E+01 0.00000E+00
 -1       133 1.50000E+02 3.82500E+01 0.00000E+00
 -1       134 1.50000E+02 4.12000E+01 0.00000E+00
 -1       135 1.50000E+02 4.41500E+01 0.00000E+00
 -1       136 1.50000E+02 4.71000E+01 0.00000E+00
 -1       137 5.83442E+01 1.96085E+01 0.00000E+00
 -1       138 5.78362E+01 1.81062E+01 0.00000E+00
 -1       139 5.70857E+01 1.68640E+01 0.00000E+00
 -1       140 5.60826E+01 1.57924E+01 0.00000E+00
 -1       141 5.48156E+01 1.49194E+01 0.00000E+00
 -1       142 5.34422E+01 1.43597E+01 0.00000E+00
 -1       143 5.18133E+01 1.40923E+01 0.00000E+00
 -1       144 5.04150E+01 1.41702E+01 0.00000E+00
 -1       145 4.89767E+01 1.45567E+01 0.00000E+00
 -1       146 4.75257E+01 1.53242E+01 0.00000E+00
 -1       147 4.64517E+01 1.62381E+01 0.00000E+00
 -1       148 4.55182E+01 1.74527E+01 0.00000E+00
 -1       149 4.49086E+01 1.87338E+01 0.00000E+00
 -1       150 4.45673E+01 2.01298E+01 0.00000E+00
 -1       151 4.45324E+01 2.17395E+01 0.00000E+00
 -1       152 4.48013E+01 2.31111E+01 0.00000E+00
 -1       153 4.54239E+01 2.45580E+01 0.00000E+00
 -1       154 4.62922E+01 2.57610E+01 0.00000E+00
 -1       155 4.75785E+01 2.68826E+01 0.00000E+00
 -1       156 4.88822E+01 2.75768E+01 0.00000E+00
 -1       157 5.03539E+01 2.79906E+01 0.00000E+00
 -1       158 5.19322E+01 2.80721E+01 0.00000E+00
 -1       159 5.34266E+01 2.78155E+01 0.00000E+00
 -1       160 5.49090E+01 2.72001E+01 0.00000E+00
 -1       161 5.71282E+01 2.52499E+01 0.00000E+00
 -1       162 5.78659E+01 2.40004E+01 0.00000E+00
 -1       163 5.83397E+01 2.25830E+01 0.00000E+00
 -1       164 2.59800E+00 4.55750E+01 0.00000E+00
 -1       165 2.59800E+00 4.26250E+01 0.00000E+00
 -1       166 2.59800E+00 3.96750E+01 0.00000E+00
 -1       167 2.59800E+00 3.67250E+01 0.00000E+00
 -1       168 2.59800E+00 3.38250E+01 0.00000E+00
 -1       169 2.59800E+00 3.08750E+01 0.00000E+00
 -1       170 2.59800E+00 2.79250E+01 0.00000E+00
 -1       171 2.59800E+00 2.49750E+01 0.00000E+00
 -1       172 2.59800E+00 2.20250E+01 0.00000E+00
 -1       173 2.59800E+00 1.90750E+01 0.00000E+00
 -1       174 2.59800E+00 1.61750E+01 0.00000E+00
 -1       175 2.59800E+00 1.32250E+01 0.00000E+00
 -1       176 2.59800E+00 1.02750E+01 0.00000E+00
 -1       177 2.59800E+00 7.32500E+00 0.00000E+00
 -1       178 2.59800E+00 4.37500E+00 0.00000E+00
 -1       179 2.87400E+00 2.18750E+00 0.00000E+00
 -1       180 4.65000E+00 4.74020E+01 0.00000E+00
 -1       181 7.65000E+00 4.74020E+01 0.00000E+00
 -1       182 1.06500E+01 4.74020E+01 0.00000E+00
 -1       183 1.36500E+01 4.74020E+01 0.00000E+00
 -1       184 1.66500E+01 4.74020E+01 0.00000E+00
 -1       185 1.96500E+01 4.74020E+01 0.00000E+00
 -1       186 2.26500E+01 4.74020E+01 0.00000E+00
 -1       187 2.56500E+01 4.74020E+01 0.00000E+00
 -1       188 2.86500E+01 4.74020E+01 0.00000E+00
 -1       189 3.16500E+01 4.74020E+01 0.00000E+00
 -1       190 3.46500E+01 4.74020E+01 0.00000E+00
 -1       191 3.76500E+01 4.74020E+01 0.00000E+00
 -1       192 4.06500E+01 4.74020E+01 0.00000E+00
 -1       193 4.36500E+01 4.74020E+01 0.00000E+00
 -1       194 4.66500E+01 4.74020E+01 0.00000E+00
 -1       195 4.96500E+01 4.74020E+01 0.00000E+00
 -1       196 5.26500E+01 4.74020E+01 0.00000E+00
 -1       197 5.56500E+01 4.74020E+01 0.00000E+00
 -1       198 5.86500E+01 4.74020E+01 0.00000E+00
 -1       199 6.16500E+01 4.74020E+01 0.00000E+00
 -1       200 6.46500E+01 4.74020E+01 0.00000E+00
 -1       201 6.76500E+01 4.74020E+01 0.00000E+00
 -1       202 7.06500E+01 4.74020E+01 0.00000E+00
 -1       203 7.36500E+01 4.74020E+01 0.00000E+00
 -1       204 7.66500E+01 4.74020E+01 0.00000E+00
 -1       205 7.96500E+01 4.74020E+01 0.00000E+00
 -1       206 8.26500E+01 4.74020E+01 0.00000E+00
 -1       207 8.56500E+01 4.74020E+01 0.00000E+00
 -1       208 8.86500E+01 4.74020E+01 0.00000E+00
 -1       209 9.16500E+01 4.74020E+01 0.00000E+00
 -1       210 9.46500E+01 4.74020E+01 0.00000E+00
 -1       211 9.76500E+01 4.74020E+01 0.00000E+00
 -1       212 1.00650E+02 4.74020E+01 0.00000E+00
 -1       213 1.03650E+02 4.74020E+01 0.00000E+00
 -1       214 1.06650E+02 4.74020E+01 0.00000E+00
 -1       215 1.09650E+02 4.74020E+01 0.00000E+00
 -1       216 1.12650E+02 4.74020E+01 0.00000E+00
 -1       217 1.15650E+02 4.74020E+01 0.00000E+00
 -1       218 1.18650E+02 4.74020E+01 0.00000E+00
 -1       219 1.21650E+02 4.74020E+01 0.00000E+00
 -1       220 1.24650E+02 4.74020E+01 0.00000E+00
 -1       221 1.27650E+02 4.74020E+01 0.00000E+00
 -1       222 1.30650E+02 4.74020E+01 0.00000E+00
 -1       223 1.33650E+02 4.74020E+01 0.00000E+00
 -1       224 1.36650E+02 4.74020E+01 0.00000E+00
 -1       225 1.39650E+02 4.74020E+01 0.00000E+00
 -1       226 1.42650E+02 4.74020E+01 0.00000E+00
 -1       227 1.45650E+02 4.74020E+01 0.00000E+00
 -1       228 5.87400E+00 2.18750E+00 0.00000E+00
 -1       229 8.87400E+00 2.18750E+00 0.00000E+00
 -1       230 1.18740E+01 2.18750E+00 0.00000E+00
 -1       231 1.48740E+01 2.18750E+00 0.00000E+00
 -1       232 1.78740E+01 2.18750E+00 0.00000E+00
 -1       233 2.08740E+01 2.18750E+00 0.00000E+00
 -1       234 2.38740E+01 2.18750E+00 0.00000E+00
 -1       235 2.68740E+01 2.18750E+00 0.00000E+00
 -1       236 2.98740E+01 2.18750E+00 0.00000E+00
 -1       237 3.28740E+01 2.18750E+00 0.00000E+00
 -1       238 3.58740E+01 2.18750E+00 0.00000E+00
 -1       239 3.88740E+01 2.18750E+00 0.00000E+00
 -1       240 4.18740E+01 2.18750E+00 0.00000E+00
 -1       241 4.48740E+01 2.18750E+00 0.00000E+00
 -1       242 4.78740E+01 2.18750E+00 0.00000E+00
 -1       243 5.08740E+01 2.18750E+00 0.00000E+00
 -1       244 5.38740E+01 2.18750E+00 0.00000E+00
 -1       245 5.68740E+01 2.18750E+00 0.00000E+00
 -1       246 5.98740E+01 2.18750E+00 0.00000E+00
 -1       247 6.28740E+01 2.18750E+00 0.00000E+00
 -1       248 6.58740E+01 2.18750E+00 0.00000E+00
 -1       249 6.88740E+01 2.18750E+00 0.00000E+00
 -1       250 7.18740E+01 2.18750E+00 0.00000E+00
 -1       251 7.48740E+01 2.18750E+00 0.00000E+00
 -1       252 7.78740E+01 2.18750E+00 0.00000E+00
 -1       253 8.08740E+01 2.18750E+00 0.00000E+00
 -1       254 8.38740E+01 2.18750E+00 0.00000E+00
 -1       255 8.68740E+01 2.18750E+00 0.00000E+00
 -1       256 8.98740E+01 2.18750E+00 0.00000E+00
 -1       257 9.28740E+01 2.18750E+00 0.00000E+00
 -1       258 9.58740E+01 2.18750E+00 0.00000E+00
 -1       259 9.88740E+01 2.18750E+00 0.00000E+00
 -1       260 1.01874E+02 2.18750E+00 0.00000E+00
 -1       261 1.04874E+02 2.18750E+00 0.00000E+00
 -1       262 1.07874E+02 2.18750E+00 0.00000E+00
 -1       263 1.10874E+02 2.18750E+00 0.00000E+00
 -1       264 1.13874E+02 2.18750E+00 0.00000E+00
 -1       265 1.16874E+02 2.18750E+00 0.00000E+00
 -1       266 1.19874E+02 2.18750E+00 0.00000E+00
 -1       267 1.22874E+02 2.18750E+00 0.00000E+00
 -1       268 1.25874E+02 2.18750E+00 0.00000E+00
 -1       269 1.28874E+02 2.18750E+00 0.00000E+00
 -1       270 1.31874E+02 2.18750E+00 0.00000E+00
 -1       271 1.34874E+02 2.18750E+00 0.00000E+00
 -1       272 1.37874E+02 2.18750E+00 0.00000E+00
 -1       273 1.40874E+02 2.18750E+00 0.00000E+00
 -1       274 1.43874E+02 2.18750E+00 0.00000E+00
 -1       275 1.46874E+02 2.18750E+00 0.00000E+00
 -1       276 1.47402E+02 4.42500E+00 0.00000E+00
 -1       277 1.47402E+02 7.37500E+00 0.00000E+00
 -1       278 1.47402E+02 1.03250E+01 0.00000E+00
 -1       279 1.47402E+02 1.32750E+01 0.00000E+00
 -1       280 1.47402E+02 1.61750E+01 0.00000E+00
 -1       281 1.47402E+02 1.91250E+01 0.00000E+00
 -1       282 1.47402E+02 2.20750E+01 0.00000E+00
 -1       283 1.47402E+02 2.50250E+01 0.00000E+00
 -1       284 1.47402E+02 2.79750E+01 0.00000E+00
 -1       285 1.47402E+02 3.09250E+01 0.00000E+00
 -1       286 1.47402E+02 3.38250E+01 0.00000E+00
 -1       287 1.47402E+02 3.67750E+01 0.00000E+00
 -1       288 1.47402E+02 3.97250E+01 0.00000E+00
 -1       289 1.47402E+02 4.26750E+01 0.00000E+00
 -1       290 1.46526E+02 4.50385E+01 0.00000E+00
 -1       291 5.97952E+01 2.02005E+01 0.00000E+00
 -1       292 5.94768E+01 1.83885E+01 0.00000E+00
 -1       293 5.84986E+01 1.68582E+01 0.00000E+00
 -1       294 5.75305E+01 1.54424E+01 0.00000E+00
 -1       295 5.61369E+01 1.43575E+01 0.00000E+00
 -1       296 5.46497E+01 1.33617E+01 0.00000E+00
 -1       297 5.28784E+01 1.26989E+01 0.00000E+00
 -1       298 5.10467E+01 1.29208E+01 0.00000E+00
 -1       299 4.93595E+01 1.31117E+01 0.00000E+00
 -1       300 4.75275E+01 1.35725E+01 0.00000E+00
 -1       301 4.62030E+01 1.48578E+01 0.00000E+00
 -1       302 4.48908E+01 1.60044E+01 0.00000E+00
 -1       303 4.41186E+01 1.75723E+01 0.00000E+00
 -1       304 4.33974E+01 1.91041E+01 0.00000E+00
 -1       305 4.30027E+01 2.09011E+01 0.00000E+00
 -1       306 4.34771E+01 2.26585E+01 0.00000E+00
 -1       307 4.37680E+01 2.44131E+01 0.00000E+00
 -1       308 4.47392E+01 2.59672E+01 0.00000E+00
 -1       309 4.59183E+01 2.74882E+01 0.00000E+00
 -1       310 4.76606E+01 2.82999E+01 0.00000E+00
 -1       311 4.92445E+01 2.91121E+01 0.00000E+00
 -1       312 5.10718E+01 2.94095E+01 0.00000E+00
 -1       313 5.29129E+01 2.93039E+01 0.00000E+00
 -1       314 5.47611E+01 2.89371E+01 0.00000E+00
 -1       315 5.62495E+01 2.78424E+01 0.00000E+00
 -1       316 5.75661E+01 2.66862E+01 0.00000E+00
 -1       317 5.85411E+01 2.52416E+01 0.00000E+00
 -1       318 5.93321E+01 2.37026E+01 0.00000E+00
 -1       319 5.97094E+01 2.19737E+01 0.00000E+00
 -1       320 5.19600E+00 4.11500E+01 0.00000E+00
 -1       321 5.19600E+00 4.41000E+01 0.00000E+00
 -1       322 5.19600E+00 3.52750E+01 0.00000E+00
 -1       323 5.19600E+00 3.23250E+01 0.00000E+00
 -1       324 5.19600E+00 2.93750E+01 0.00000E+00
 -1       325 5.19600E+00 2.64250E+01 0.00000E+00
 -1       326 5.19600E+00 2.34750E+01 0.00000E+00
 -1       327 5.19600E+00 2.05250E+01 0.00000E+00
 -1       328 5.19600E+00 1.76250E+01 0.00000E+00
 -1       329 5.19600E+00 1.46750E+01 0.00000E+00
 -1       330 5.19600E+00 1.17250E+01 0.00000E+00
 -1       331 5.19600E+00 8.77500E+00 0.00000E+00
 -1       332 5.19600E+00 5.82500E+00 0.00000E+00
 -1       333 5.53500E+00 4.00625E+00 0.00000E+00
 -1       334 8.53500E+00 4.00625E+00 0.00000E+00
 -1       335 9.15000E+00 4.48040E+01 0.00000E+00
 -1       336 1.21500E+01 4.48040E+01 0.00000E+00
 -1       337 1.51500E+01 4.48040E+01 0.00000E+00
 -1       338 1.81500E+01 4.48040E+01 0.00000E+00
 -1       339 2.11500E+01 4.48040E+01 0.00000E+00
 -1       340 2.41500E+01 4.48040E+01 0.00000E+00
 -1       341 2.71500E+01 4.48040E+01 0.00000E+00
 -1       342 3.01500E+01 4.48040E+01 0.00000E+00
 -1       343 3.31500E+01 4.48040E+01 0.00000E+00
 -1       344 3.61500E+01 4.48040E+01 0.00000E+00
 -1       345 3.91500E+01 4.48040E+01 0.00000E+00
 -1       346 4.21500E+01 4.48040E+01 0.00000E+00
 -1       347 4.51500E+01 4.48040E+01 0.00000E+00
 -1       348 4.81500E+01 4.48040E+01 0.00000E+00
 -1       349 5.11500E+01 4.48040E+01 0.00000E+00
 -1       350 5.41500E+01 4.48040E+01 0.00000E+00
 -1       351 5.71500E+01 4.48040E+01 0.00000E+00
 -1       352 6.01500E+01 4.48040E+01 0.00000E+00
 -1       353 6.31500E+01 4.48040E+01 0.00000E+00
 -1       354 6.61500E+01 4.48040E+01 0.00000E+00
 -1       355 6.91500E+01 4.48040E+01 0.00000E+00
 -1       356 7.21500E+01 4.48040E+01 0.00000E+00
 -1       357 7.51500E+01 4.48040E+01 0.00000E+00
 -1       358 7.81500E+01 4.48040E+01 0.00000E+00
 -1       359 8.11500E+01 4.48040E+01 0.00000E+00
 -1       360 8.41500E+01 4.48040E+01 0.00000E+00
 -1       361 8.71500E+01 4.48040E+01 0.00000E+00
 -1       362 9.01500E+01 4.48040E+01 0.00000E+00
 -1       363 9.31500E+01 4.48040E+01 0.00000E+00
 -1       364 9.61500E+01 4.48040E+01 0.00000E+00
 -1       365 9.91500E+01 4.48040E+01 0.00000E+00
 -1       366 1.02150E+02 4.48040E+01 0.00000E+00
 -1       367 1.05150E+02 4.48040E+01 0.00000E+00
 -1       368 1.08150E+02 4.48040E+01 0.00000E+00
 -1       369 1.11150E+02 4.48040E+01 0.00000E+00
 -1       370 1.14150E+02 4.48040E+01 0.00000E+00
 -1       371 1.17150E+02 4.48040E+01 0.00000E+00
 -1       372 1.20150E+02 4.48040E+01 0.00000E+00
 -1       373 1.23150E+02 4.48040E+01 0.00000E+00
 -1       374 1.26150E+02 4.48040E+01 0.00000E+00
 -1       375 1.29150E+02 4.48040E+01 0.00000E+00
 -1       376 1.32150E+02 4.48040E+01 0.00000E+00
 -1       377 1.35150E+02 4.48040E+01 0.00000E+00
 -1       378 1.38150E+02 4.48040E+01 0.00000E+00
 -1       379 1.41150E+02 4.48040E+01 0.00000E+00
 -1       380 1.43838E+02 4.49212E+01 0.00000E+00
 -1       381 1.15350E+01 4.00625E+00 0.00000E+00
 -1       382 1.45350E+01 4.00625E+00 0.00000E+00
 -1       383 1.75350E+01 4.00625E+00 0.00000E+00
 -1       384 2.05350E+01 4.00625E+00 0.00000E+00
 -1       385 2.35350E+01 4.00625E+00 0.00000E+00
 -1       386 2.65350E+01 4.00625E+00 0.00000E+00
 -1       387 2.95350E+01 4.00625E+00 0.00000E+00
 -1       388 3.25350E+01 4.00625E+00 0.00000E+00
 -1       389 3.55350E+01 4.00625E+00 0.00000E+00
 -1       390 3.85350E+01 4.00625E+00 0.00000E+00
 -1       391 4.15350E+01 4.00625E+00 0.00000E+00
 -1       392 4.45350E+01 4.00625E+00 0.00000E+00
 -1       393 4.75350E+01 4.00625E+00 0.00000E+00
 -1       394 5.05350E+01 4.00625E+00 0.00000E+00
 -1       395 5.35350E+01 4.00625E+00 0.00000E+00
 -1       396 5.65350E+01 4.00625E+00 0.00000E+00
 -1       397 5.95350E+01 4.00625E+00 0.00000E+00
 -1       398 6.25350E+01 4.00625E+00 0.00000E+00
 -1       399 6.55350E+01 4.00625E+00 0.00000E+00
 -1       400 6.85350E+01 4.00625E+00 0.00000E+00
 -1       401 7.15350E+01 4.00625E+00 0.00000E+00
 -1       402 7.45350E+01 4.00625E+00 0.00000E+00
 -1       403 7.75350E+01 4.00625E+00 0.00000E+00
 -1       404 8.05350E+01 4.00625E+00 0.00000E+00
 -1       405 8.35350E+01 4.00625E+00 0.00000E+00
 -1       406 8.65350E+01 4.00625E+00 0.00000E+00
 -1       407 8.95350E+01 4.00625E+00 0.00000E+00
 -1       408 9.25350E+01 4.00625E+00 0.00000E+00
 -1       409 9.55350E+01 4.00625E+00 0.00000E+00
 -1       410 9.85350E+01 4.00625E+00 0.00000E+00
 -1       411 1.01535E+02 4.00625E+00 0.00000E+00
 -1       412 1.04535E+02 4.00625E+00 0.00000E+00
 -1       413 1.07535E+02 4.00625E+00 0.00000E+00
 -1       414 1.10535E+02 4.00625E+00 0.00000E+00
 -1       415 1.13535E+02 4.00625E+00 0.00000E+00
 -1       416 1.16535E+02 4.00625E+00 0.00000E+00
 -1       417 1.19535E+02 4.00625E+00 0.00000E+00
 -1       418 1.22535E+02 4.00625E+00 0.00000E+00
 -1       419 1.25535E+02 4.00625E+00 0.00000E+00
 -1       420 1.28535E+02 4.00625E+00 0.00000E+00
 -1       421 1.31535E+02 4.00625E+00 0.00000E+00
 -1       422 1.34535E+02 4.00625E+00 0.00000E+00
 -1       423 1.37535E+02 4.00625E+00 0.00000E+00
 -1       424 1.40535E+02 4.00625E+00 0.00000E+00
 -1       425 1.43535E+02 4.00625E+00 0.00000E+00
 -1       426 1.45469E+02 4.21562E+00 0.00000E+00
 -1       427 1.44804E+02 1.18000E+01 0.00000E+00
 -1       428 1.44804E+02 8.85000E+00 0.00000E+00
 -1       429 1.45136E+02 6.53281E+00 0.00000E+00
 -1       430 1.44804E+02 1.47000E+01 0.00000E+00
 -1       431 1.44804E+02 1.76500E+01 0.00000E+00
 -1       432 1.44804E+02 2.06000E+01 0.00000E+00
 -1       433 1.44804E+02 2.35500E+01 0.00000E+00
 -1       434 1.44804E+02 2.65000E+01 0.00000E+00
 -1       435 1.44804E+02 2.94500E+01 0.00000E+00
 -1       436 1.44804E+02 3.23500E+01 0.00000E+00
 -1       437 1.44804E+02 3.53000E+01 0.00000E+00
 -1       438 1.44804E+02 3.82500E+01 0.00000E+00
 -1       439 1.44804E+02 4.12000E+01 0.00000E+00
 -1       440 6.00799E+01 1.69252E+01 0.00000E+00
 -1       441 6.12143E+01 2.11578E+01 0.00000E+00
 -1       442 6.09951E+01 1.90557E+01 0.00000E+00
 -1       443 5.92920E+01 1.52768E+01 0.00000E+00
 -1       444 5.76814E+01 1.38111E+01 0.00000E+00
 -1       445 5.19600E+00 3.82125E+01 0.00000E+00
 -1       446 5.43064E+01 1.15809E+01 0.00000E+00
 -1       447 5.17966E+01 1.14399E+01 0.00000E+00
 -1       448 5.01095E+01 1.16308E+01 0.00000E+00
 -1       449 4.80660E+01 1.18413E+01 0.00000E+00
 -1       450 4.57876E+01 1.31045E+01 0.00000E+00
 -1       451 4.44754E+01 1.42512E+01 0.00000E+00
 -1       452 4.31164E+01 1.61046E+01 0.00000E+00
 -1       453 4.23952E+01 1.76364E+01 0.00000E+00
 -1       454 4.16885E+01 1.96706E+01 0.00000E+00
 -1       455 4.19885E+01 2.21176E+01 0.00000E+00
 -1       456 4.22794E+01 2.38722E+01 0.00000E+00
 -1       457 4.30833E+01 2.59215E+01 0.00000E+00
 -1       458 4.42381E+01 2.75732E+01 0.00000E+00
 -1       459 4.62421E+01 2.90690E+01 0.00000E+00
 -1       460 4.78259E+01 2.98812E+01 0.00000E+00
 -1       461 4.98827E+01 3.09537E+01 0.00000E+00
 -1       462 5.20666E+01 3.06508E+01 0.00000E+00
 -1       463 5.41709E+01 3.08028E+01 0.00000E+00
 -1       464 5.63726E+01 2.95689E+01 0.00000E+00
 -1       465 5.77631E+01 2.82382E+01 0.00000E+00
 -1       466 5.93363E+01 2.68296E+01 0.00000E+00
 -1       467 6.00894E+01 2.50647E+01 0.00000E+00
 -1       468 6.10327E+01 2.31680E+01 0.00000E+00
 -1       469 5.62544E+01 1.25737E+01 0.00000E+00
 -1       470 6.15982E+01 1.75925E+01 0.00000E+00
 -1       471 4.45619E+01 2.91540E+01 0.00000E+00
 -1       472 5.32246E+01 1.03218E+01 0.00000E+00
 -1       473 4.63261E+01 1.13733E+01 0.00000E+00
 -1       474 4.06744E+01 2.08871E+01 0.00000E+00
 -1       475 1.00350E+01 6.60425E+00 0.00000E+00
 -1       476 7.79400E+00 3.08500E+01 0.00000E+00
 -1       477 7.79400E+00 3.38000E+01 0.00000E+00
 -1       478 7.79400E+00 2.49500E+01 0.00000E+00
 -1       479 7.79400E+00 2.20000E+01 0.00000E+00
 -1       480 7.79400E+00 1.91000E+01 0.00000E+00
 -1       481 7.79400E+00 1.61500E+01 0.00000E+00
 -1       482 7.79400E+00 1.32000E+01 0.00000E+00
 -1       483 7.79400E+00 1.02500E+01 0.00000E+00
 -1       484 1.30350E+01 6.60425E+00 0.00000E+00
 -1       485 1.06500E+01 4.22060E+01 0.00000E+00
 -1       486 5.79817E+01 1.20232E+01 0.00000E+00
 -1       487 1.36500E+01 4.22060E+01 0.00000E+00
 -1       488 1.66500E+01 4.22060E+01 0.00000E+00
 -1       489 1.96500E+01 4.22060E+01 0.00000E+00
 -1       490 2.26500E+01 4.22060E+01 0.00000E+00
 -1       491 2.56500E+01 4.22060E+01 0.00000E+00
 -1       492 2.86500E+01 4.22060E+01 0.00000E+00
 -1       493 3.16500E+01 4.22060E+01 0.00000E+00
 -1       494 3.46500E+01 4.22060E+01 0.00000E+00
 -1       495 3.76500E+01 4.22060E+01 0.00000E+00
 -1       496 4.06500E+01 4.22060E+01 0.00000E+00
 -1       497 4.36500E+01 4.22060E+01 0.00000E+00
 -1       498 4.66500E+01 4.22060E+01 0.00000E+00
 -1       499 4.96500E+01 4.22060E+01 0.00000E+00
 -1       500 5.26500E+01 4.22060E+01 0.00000E+00
 -1       501 5.56500E+01 4.22060E+01 0.00000E+00
 -1       502 5.86500E+01 4.22060E+01 0.00000E+00
 -1       503 6.16500E+01 4.22060E+01 0.00000E+00
 -1       504 6.46500E+01 4.22060E+01 0.00000E+00
 -1       505 6.76500E+01 4.22060E+01 0.00000E+00
 -1       506 7.06500E+01 4.22060E+01 0.00000E+00
 -1       507 7.36500E+01 4.22060E+01 0.00000E+00
 -1       508 7.66500E+01 4.22060E+01 0.00000E+00
 -1       509 7.96500E+01 4.22060E+01 0.00000E+00
 -1       510 8.26500E+01 4.22060E+01 0.00000E+00
 -1       511 8.56500E+01 4.22060E+01 0.00000E+00
 -1       512 8.86500E+01 4.22060E+01 0.00000E+00
 -1       513 9.16500E+01 4.22060E+01 0.00000E+00
 -1       514 9.46500E+01 4.22060E+01 0.00000E+00
 -1       515 9.76500E+01 4.22060E+01 0.00000E+00
 -1       516 1.00650E+02 4.22060E+01 0.00000E+00
 -1       517 1.03650E+02 4.22060E+01 0.00000E+00
 -1       518 1.06650E+02 4.22060E+01 0.00000E+00
 -1       519 1.09650E+02 4.22060E+01 0.00000E+00
 -1       520 1.12650E+02 4.22060E+01 0.00000E+00
 -1       521 1.15650E+02 4.22060E+01 0.00000E+00
 -1       522 1.18650E+02 4.22060E+01 0.00000E+00
 -1       523 1.21650E+02 4.22060E+01 0.00000E+00
 -1       524 1.24650E+02 4.22060E+01 0.00000E+00
 -1       525 1.27650E+02 4.22060E+01 0.00000E+00
 -1       526 1.30650E+02 4.22060E+01 0.00000E+00
 -1       527 1.33650E+02 4.22060E+01 0.00000E+00
 -1       528 1.36650E+02 4.22060E+01 0.00000E+00
 -1       529 1.39650E+02 4.22060E+01 0.00000E+00
 -1       530 1.90350E+01 6.60425E+00 0.00000E+00
 -1       531 2.20350E+01 6.60425E+00 0.00000E+00
 -1       532 2.50350E+01 6.60425E+00 0.00000E+00
 -1       533 2.80350E+01 6.60425E+00 0.00000E+00
 -1       534 3.10350E+01 6.60425E+00 0.00000E+00
 -1       535 3.40350E+01 6.60425E+00 0.00000E+00
 -1       536 3.70350E+01 6.60425E+00 0.00000E+00
 -1       537 4.00350E+01 6.60425E+00 0.00000E+00
 -1       538 4.30350E+01 6.60425E+00 0.00000E+00
 -1       539 4.60350E+01 6.60425E+00 0.00000E+00
 -1       540 4.90350E+01 6.60425E+00 0.00000E+00
 -1       541 5.20350E+01 6.60425E+00 0.00000E+00
 -1       542 5.50350E+01 6.60425E+00 0.00000E+00
 -1       543 5.80350E+01 6.60425E+00 0.00000E+00
 -1       544 6.10350E+01 6.60425E+00 0.00000E+00
 -1       545 6.40350E+01 6.60425E+00 0.00000E+00
 -1       546 6.70350E+01 6.60425E+00 0.00000E+00
 -1       547 7.00350E+01 6.60425E+00 0.00000E+00
 -1       548 7.30350E+01 6.60425E+00 0.00000E+00
 -1       549 7.60350E+01 6.60425E+00 0.00000E+00
 -1       550 7.90350E+01 6.60425E+00 0.00000E+00
 -1       551 8.20350E+01 6.60425E+00 0.00000E+00
 -1       552 8.50350E+01 6.60425E+00 0.00000E+00
 -1       553 8.80350E+01 6.60425E+00 0.00000E+00
 -1       554 9.10350E+01 6.60425E+00 0.00000E+00
 -1       555 9.40350E+01 6.60425E+00 0.00000E+00
 -1       556 9.70350E+01 6.60425E+00 0.00000E+00
 -1       557 1.00035E+02 6.60425E+00 0.00000E+00
 -1       558 1.03035E+02 6.60425E+00 0.00000E+00
 -1       559 1.06035E+02 6.60425E+00 0.00000E+00
 -1       560 1.09035E+02 6.60425E+00 0.00000E+00
 -1       561 1.12035E+02 6.60425E+00 0.00000E+00
 -1       562 1.15035E+02 6.60425E+00 0.00000E+00
 -1       563 1.18035E+02 6.60425E+00 0.00000E+00
 -1       564 1.21035E+02 6.60425E+00 0.00000E+00
 -1       565 1.24035E+02 6.60425E+00 0.00000E+00
 -1       566 1.27035E+02 6.60425E+00 0.00000E+00
 -1       567 1.30035E+02 6.60425E+00 0.00000E+00
 -1       568 1.33035E+02 6.60425E+00 0.00000E+00
 -1       569 1.36035E+02 6.60425E+00 0.00000E+00
 -1       570 1.39035E+02 6.60425E+00 0.00000E+00
 -1       571 1.42035E+02 6.60425E+00 0.00000E+00
 -1       572 1.42206E+02 1.61750E+01 0.00000E+00
 -1       573 1.42206E+02 1.91250E+01 0.00000E+00
 -1       574 1.42206E+02 1.03250E+01 0.00000E+00
 -1       575 1.42206E+02 1.32500E+01 0.00000E+00
 -1       576 1.42206E+02 2.20750E+01 0.00000E+00
 -1       577 1.42206E+02 2.50250E+01 0.00000E+00
 -1       578 1.42206E+02 2.79750E+01 0.00000E+00
 -1       579 1.42206E+02 3.08750E+01 0.00000E+00
 -1       580 1.42206E+02 3.38250E+01 0.00000E+00
 -1       581 1.42206E+02 3.67750E+01 0.00000E+00
 -1       582 1.42206E+02 3.97250E+01 0.00000E+00
 -1       583 6.29773E+01 1.99115E+01 0.00000E+00
 -1       584 6.13845E+01 1.52891E+01 0.00000E+00
 -1       585 1.60350E+01 6.60425E+00 0.00000E+00
 -1       586 6.26648E+01 2.23022E+01 0.00000E+00
 -1       587 7.92300E+00 4.16780E+01 0.00000E+00
 -1       588 6.19467E+01 2.48055E+01 0.00000E+00
 -1       589 4.05800E+01 1.81456E+01 0.00000E+00
 -1       590 4.89292E+01 1.01966E+01 0.00000E+00
 -1       591 7.79400E+00 2.79000E+01 0.00000E+00
 -1       592 5.06163E+01 1.00057E+01 0.00000E+00
 -1       593 4.40029E+01 1.23863E+01 0.00000E+00
 -1       594 4.25478E+01 1.42628E+01 0.00000E+00
 -1       595 4.12040E+01 1.61400E+01 0.00000E+00
 -1       596 4.21177E+01 2.78261E+01 0.00000E+00
 -1       597 4.06899E+01 2.32344E+01 0.00000E+00
 -1       598 5.11987E+01 3.24181E+01 0.00000E+00
 -1       599 4.11627E+01 2.54926E+01 0.00000E+00
 -1       600 4.63660E+01 3.07775E+01 0.00000E+00
 -1       601 4.80613E+01 3.19382E+01 0.00000E+00
 -1       602 5.33030E+01 3.25701E+01 0.00000E+00
 -1       603 5.61102E+01 3.16820E+01 0.00000E+00
 -1       604 5.81378E+01 3.00216E+01 0.00000E+00
 -1       605 5.97110E+01 2.86130E+01 0.00000E+00
 -1       606 6.11936E+01 2.65704E+01 0.00000E+00
 -1       607 5.62114E+01 1.02506E+01 0.00000E+00
 -1       608 7.61550E+00 6.21462E+00 0.00000E+00
 -1       609 5.95923E+01 1.34888E+01 0.00000E+00
 -1       610 7.79400E+00 3.67375E+01 0.00000E+00
 -1       611 5.52423E+01 3.34493E+01 0.00000E+00
 -1       612 4.93774E+01 3.34026E+01 0.00000E+00
 -1       613 6.35803E+01 1.84483E+01 0.00000E+00
 -1       614 3.95659E+01 1.93622E+01 0.00000E+00
 -1       615 4.24415E+01 2.94069E+01 0.00000E+00
 -1       616 4.71892E+01 9.72864E+00 0.00000E+00
 -1       617 4.46859E+01 3.08626E+01 0.00000E+00
 -1       618 1.41678E+02 4.22645E+01 0.00000E+00
 -1       619 1.03920E+01 2.05500E+01 0.00000E+00
 -1       620 1.03920E+01 2.35000E+01 0.00000E+00
 -1       621 1.03920E+01 1.46750E+01 0.00000E+00
 -1       622 1.03920E+01 1.17250E+01 0.00000E+00
 -1       623 1.15350E+01 9.20225E+00 0.00000E+00
 -1       624 5.99414E+01 1.14875E+01 0.00000E+00
 -1       625 6.39543E+01 2.40268E+01 0.00000E+00
 -1       626 5.21470E+01 8.29479E+00 0.00000E+00
 -1       627 1.51500E+01 3.96080E+01 0.00000E+00
 -1       628 1.81500E+01 3.96080E+01 0.00000E+00
 -1       629 2.11500E+01 3.96080E+01 0.00000E+00
 -1       630 2.41500E+01 3.96080E+01 0.00000E+00
 -1       631 2.71500E+01 3.96080E+01 0.00000E+00
 -1       632 3.01500E+01 3.96080E+01 0.00000E+00
 -1       633 3.31500E+01 3.96080E+01 0.00000E+00
 -1       634 3.61500E+01 3.96080E+01 0.00000E+00
 -1       635 3.91500E+01 3.96080E+01 0.00000E+00
 -1       636 4.21500E+01 3.96080E+01 0.00000E+00
 -1       637 4.51500E+01 3.96080E+01 0.00000E+00
 -1       638 4.81500E+01 3.96080E+01 0.00000E+00
 -1       639 5.11500E+01 3.96080E+01 0.00000E+00
 -1       640 5.41500E+01 3.96080E+01 0.00000E+00
 -1       641 5.71500E+01 3.96080E+01 0.00000E+00
 -1       642 6.01500E+01 3.96080E+01 0.00000E+00
 -1       643 6.31500E+01 3.96080E+01 0.00000E+00
 -1       644 6.61500E+01 3.96080E+01 0.00000E+00
 -1       645 6.91500E+01 3.96080E+01 0.00000E+00
 -1       646 7.21500E+01 3.96080E+01 0.00000E+00
 -1       647 7.51500E+01 3.96080E+01 0.00000E+00
 -1       648 7.81500E+01 3.96080E+01 0.00000E+00
 -1       649 8.11500E+01 3.96080E+01 0.00000E+00
 -1       650 8.41500E+01 3.96080E+01 0.00000E+00
 -1       651 8.71500E+01 3.96080E+01 0.00000E+00
 -1       652 9.01500E+01 3.96080E+01 0.00000E+00
 -1       653 9.31500E+01 3.96080E+01 0.00000E+00
 -1       654 9.61500E+01 3.96080E+01 0.00000E+00
 -1       655 9.91500E+01 3.96080E+01 0.00000E+00
 -1       656 1.02150E+02 3.96080E+01 0.00000E+00
 -1       657 1.05150E+02 3.96080E+01 0.00000E+00
 -1       658 1.08150E+02 3.96080E+01 0.00000E+00
 -1       659 1.11150E+02 3.96080E+01 0.00000E+00
 -1       660 1.14150E+02 3.96080E+01 0.00000E+00
 -1       661 1.17150E+02 3.96080E+01 0.00000E+00
 -1       662 1.20150E+02 3.96080E+01 0.00000E+00
 -1       663 1.23150E+02 3.96080E+01 0.00000E+00
 -1       664 1.26150E+02 3.96080E+01 0.00000E+00
 -1       665 1.29150E+02 3.96080E+01 0.00000E+00
 -1       666 1.32150E+02 3.96080E+01 0.00000E+00
 -1       667 1.35150E+02 3.96080E+01 0.00000E+00
 -1       668 1.38150E+02 3.96080E+01 0.00000E+00
 -1       669 2.35350E+01 9.20225E+00 0.00000E+00
 -1       670 1.39206E+02 1.03250E+01 0.00000E+00
 -1       671 2.05350E+01 9.20225E+00 0.00000E+00
 -1       672 2.95350E+01 9.20225E+00 0.00000E+00
 -1       673 3.25350E+01 9.20225E+00 0.00000E+00
 -1       674 3.55350E+01 9.20225E+00 0.00000E+00
 -1       675 3.85350E+01 9.20225E+00 0.00000E+00
 -1       676 4.15350E+01 9.20225E+00 0.00000E+00
 -1       677 6.29414E+01 1.14875E+01 0.00000E+00
 -1       678 6.59414E+01 1.14875E+01 0.00000E+00
 -1       679 6.89414E+01 1.14875E+01 0.00000E+00
 -1       680 7.19414E+01 1.14875E+01 0.00000E+00
 -1       681 7.49414E+01 1.14875E+01 0.00000E+00
 -1       682 7.79414E+01 1.14875E+01 0.00000E+00
 -1       683 8.09414E+01 1.14875E+01 0.00000E+00
 -1       684 8.39414E+01 1.14875E+01 0.00000E+00
 -1       685 8.69414E+01 1.14875E+01 0.00000E+00
 -1       686 8.99414E+01 1.14875E+01 0.00000E+00
 -1       687 9.29414E+01 1.14875E+01 0.00000E+00
 -1       688 9.59414E+01 1.14875E+01 0.00000E+00
 -1       689 9.89414E+01 1.14875E+01 0.00000E+00
 -1       690 1.01941E+02 1.14875E+01 0.00000E+00
 -1       691 1.04941E+02 1.14875E+01 0.00000E+00
 -1       692 1.07941E+02 1.14875E+01 0.00000E+00
 -1       693 1.10941E+02 1.14875E+01 0.00000E+00
 -1       694 1.13941E+02 1.14875E+01 0.00000E+00
 -1       695 1.16941E+02 1.14875E+01 0.00000E+00
 -1       696 1.19941E+02 1.14875E+01 0.00000E+00
 -1       697 1.22941E+02 1.14875E+01 0.00000E+00
 -1       698 1.25941E+02 1.14875E+01 0.00000E+00
 -1       699 1.28941E+02 1.14875E+01 0.00000E+00
 -1       700 1.31941E+02 1.14875E+01 0.00000E+00
 -1       701 1.34941E+02 1.14875E+01 0.00000E+00
 -1       702 6.19414E+01 1.29425E+01 0.00000E+00
 -1       703 1.39608E+02 2.35500E+01 0.00000E+00
 -1       704 5.82106E+01 3.21788E+01 0.00000E+00
 -1       705 1.39608E+02 1.76500E+01 0.00000E+00
 -1       706 1.39608E+02 2.65000E+01 0.00000E+00
 -1       707 1.39608E+02 2.06000E+01 0.00000E+00
 -1       708 1.39608E+02 2.94000E+01 0.00000E+00
 -1       709 1.39608E+02 3.23500E+01 0.00000E+00
 -1       710 1.39608E+02 3.53000E+01 0.00000E+00
 -1       711 6.33667E+01 1.61449E+01 0.00000E+00
 -1       712 1.07220E+01 3.94717E+01 0.00000E+00
 -1       713 3.98978E+01 2.73724E+01 0.00000E+00
 -1       714 1.75350E+01 9.20225E+00 0.00000E+00
 -1       715 2.65350E+01 9.20225E+00 0.00000E+00
 -1       716 1.03920E+01 1.76125E+01 0.00000E+00
 -1       717 1.45350E+01 9.20225E+00 0.00000E+00
 -1       718 4.02088E+01 1.40080E+01 0.00000E+00
 -1       719 3.92476E+01 2.47150E+01 0.00000E+00
 -1       720 3.90944E+01 1.65835E+01 0.00000E+00
 -1       721 3.89670E+01 2.20721E+01 0.00000E+00
 -1       722 1.03920E+01 3.23250E+01 0.00000E+00
 -1       723 1.40178E+02 3.96665E+01 0.00000E+00
 -1       724 4.62448E+01 3.27731E+01 0.00000E+00
 -1       725 4.95893E+01 8.48021E+00 0.00000E+00
 -1       726 4.42780E+01 9.84688E+00 0.00000E+00
 -1       727 6.45217E+01 2.13291E+01 0.00000E+00
 -1       728 5.21031E+01 3.45390E+01 0.00000E+00
 -1       729 6.01802E+01 3.07199E+01 0.00000E+00
 -1       730 6.33017E+01 2.64269E+01 0.00000E+00
 -1       731 4.16639E+01 1.21315E+01 0.00000E+00
 -1       732 6.17725E+01 2.85500E+01 0.00000E+00
 -1       733 1.03920E+01 3.52625E+01 0.00000E+00
 -1       734 1.03920E+01 2.64500E+01 0.00000E+00
 -1       735 5.73428E+01 3.39461E+01 0.00000E+00
 -1       736 5.40425E+01 3.54182E+01 0.00000E+00
 -1       737 1.39608E+02 1.47250E+01 0.00000E+00
 -1       738 6.51247E+01 1.98659E+01 0.00000E+00
 -1       739 4.75608E+01 3.42375E+01 0.00000E+00
 -1       740 1.38879E+02 3.74540E+01 0.00000E+00
 -1       741 4.02216E+01 2.89532E+01 0.00000E+00
 -1       742 3.80802E+01 1.78000E+01 0.00000E+00
 -1       743 1.03920E+01 2.93875E+01 0.00000E+00
 -1       744 6.64190E+01 2.31366E+01 0.00000E+00
 -1       745 1.29900E+01 1.32000E+01 0.00000E+00
 -1       746 6.39288E+01 2.84908E+01 0.00000E+00
 -1       747 1.96500E+01 3.70100E+01 0.00000E+00
 -1       748 2.26500E+01 3.70100E+01 0.00000E+00
 -1       749 2.56500E+01 3.70100E+01 0.00000E+00
 -1       750 2.86500E+01 3.70100E+01 0.00000E+00
 -1       751 3.16500E+01 3.70100E+01 0.00000E+00
 -1       752 3.46500E+01 3.70100E+01 0.00000E+00
 -1       753 3.76500E+01 3.70100E+01 0.00000E+00
 -1       754 4.06500E+01 3.70100E+01 0.00000E+00
 -1       755 4.36500E+01 3.70100E+01 0.00000E+00
 -1       756 4.66500E+01 3.70100E+01 0.00000E+00
 -1       757 4.96500E+01 3.70100E+01 0.00000E+00
 -1       758 5.86500E+01 3.70550E+01 0.00000E+00
 -1       759 6.16500E+01 3.70550E+01 0.00000E+00
 -1       760 6.46500E+01 3.70550E+01 0.00000E+00
 -1       761 6.76500E+01 3.70550E+01 0.00000E+00
 -1       762 7.06500E+01 3.70550E+01 0.00000E+00
 -1       763 7.36500E+01 3.70550E+01 0.00000E+00
 -1       764 7.66500E+01 3.70550E+01 0.00000E+00
 -1       765 7.96500E+01 3.70550E+01 0.00000E+00
 -1       766 8.26500E+01 3.70550E+01 0.00000E+00
 -1       767 8.56500E+01 3.70550E+01 0.00000E+00
 -1       768 8.86500E+01 3.70550E+01 0.00000E+00
 -1       769 9.16500E+01 3.70550E+01 0.00000E+00
 -1       770 9.46500E+01 3.70550E+01 0.00000E+00
 -1       771 9.76500E+01 3.70550E+01 0.00000E+00
 -1       772 1.00650E+02 3.70550E+01 0.00000E+00
 -1       773 1.03650E+02 3.70550E+01 0.00000E+00
 -1       774 1.06650E+02 3.70550E+01 0.00000E+00
 -1       775 1.09650E+02 3.70550E+01 0.00000E+00
 -1       776 1.12650E+02 3.70550E+01 0.00000E+00
 -1       777 1.15650E+02 3.70550E+01 0.00000E+00
 -1       778 1.18650E+02 3.70550E+01 0.00000E+00
 -1       779 1.21650E+02 3.70550E+01 0.00000E+00
 -1       780 1.24650E+02 3.70550E+01 0.00000E+00
 -1       781 1.27650E+02 3.70550E+01 0.00000E+00
 -1       782 1.30650E+02 3.70550E+01 0.00000E+00
 -1       783 1.33650E+02 3.70550E+01 0.00000E+00
 -1       784 1.36264E+02 3.72545E+01 0.00000E+00
 -1       785 2.20350E+01 1.18003E+01 0.00000E+00
 -1       786 3.93162E+01 1.18134E+01 0.00000E+00
 -1       787 3.40350E+01 1.18003E+01 0.00000E+00
 -1       788 3.10350E+01 1.18003E+01 0.00000E+00
 -1       789 1.37625E+01 1.12011E+01 0.00000E+00
 -1       790 1.37757E+02 1.34128E+01 0.00000E+00
 -1       791 7.04414E+01 1.40855E+01 0.00000E+00
 -1       792 7.34414E+01 1.40855E+01 0.00000E+00
 -1       793 7.64414E+01 1.40855E+01 0.00000E+00
 -1       794 7.94414E+01 1.40855E+01 0.00000E+00
 -1       795 8.24414E+01 1.40855E+01 0.00000E+00
 -1       796 8.54414E+01 1.40855E+01 0.00000E+00
 -1       797 8.84414E+01 1.40855E+01 0.00000E+00
 -1       798 9.14414E+01 1.40855E+01 0.00000E+00
 -1       799 9.44414E+01 1.40855E+01 0.00000E+00
 -1       800 9.74414E+01 1.40855E+01 0.00000E+00
 -1       801 1.00441E+02 1.40855E+01 0.00000E+00
 -1       802 1.03441E+02 1.40855E+01 0.00000E+00
 -1       803 1.06441E+02 1.40855E+01 0.00000E+00
 -1       804 1.09441E+02 1.40855E+01 0.00000E+00
 -1       805 1.12441E+02 1.40855E+01 0.00000E+00
 -1       806 1.15441E+02 1.40855E+01 0.00000E+00
 -1       807 1.18441E+02 1.40855E+01 0.00000E+00
 -1       808 1.21441E+02 1.40855E+01 0.00000E+00
 -1       809 1.24441E+02 1.40855E+01 0.00000E+00
 -1       810 1.27441E+02 1.40855E+01 0.00000E+00
 -1       811 1.30441E+02 1.40855E+01 0.00000E+00
 -1       812 1.33441E+02 1.40855E+01 0.00000E+00
 -1       813 1.37010E+02 2.79500E+01 0.00000E+00
 -1       814 1.37010E+02 2.50000E+01 0.00000E+00
 -1       815 6.05155E+01 3.32315E+01 0.00000E+00
 -1       816 6.55150E+01 1.71073E+01 0.00000E+00
 -1       817 1.37010E+02 3.09000E+01 0.00000E+00
 -1       818 1.37010E+02 3.38500E+01 0.00000E+00
 -1       819 1.90350E+01 1.18003E+01 0.00000E+00
 -1       820 3.79237E+01 1.45481E+01 0.00000E+00
 -1       821 6.74414E+01 1.40855E+01 0.00000E+00
 -1       822 3.71009E+01 2.02386E+01 0.00000E+00
 -1       823 4.38768E+01 3.31140E+01 0.00000E+00
 -1       824 6.46914E+01 1.35140E+01 0.00000E+00
 -1       825 6.57664E+01 2.55367E+01 0.00000E+00
 -1       826 3.66756E+01 1.18068E+01 0.00000E+00
 -1       827 3.77439E+01 2.64911E+01 0.00000E+00
 -1       828 6.23591E+01 3.06496E+01 0.00000E+00
 -1       829 1.66500E+01 3.70100E+01 0.00000E+00
 -1       830 1.35210E+01 3.61362E+01 0.00000E+00
 -1       831 4.16324E+01 3.16583E+01 0.00000E+00
 -1       832 1.29900E+01 2.20250E+01 0.00000E+00
 -1       833 3.67352E+01 2.36453E+01 0.00000E+00
 -1       834 1.29900E+01 2.49750E+01 0.00000E+00
 -1       835 1.29900E+01 1.61375E+01 0.00000E+00
 -1       836 1.29900E+01 1.90812E+01 0.00000E+00
 -1       837 1.35210E+01 3.31987E+01 0.00000E+00
 -1       838 3.80677E+01 2.80719E+01 0.00000E+00
 -1       839 2.80350E+01 1.18003E+01 0.00000E+00
 -1       840 6.70221E+01 2.16734E+01 0.00000E+00
 -1       841 3.69096E+01 1.57646E+01 0.00000E+00
 -1       842 1.37010E+02 1.91250E+01 0.00000E+00
 -1       843 2.50350E+01 1.18003E+01 0.00000E+00
 -1       844 1.37010E+02 2.20625E+01 0.00000E+00
 -1       845 6.63935E+01 2.76007E+01 0.00000E+00
 -1       846 1.63988E+01 1.15007E+01 0.00000E+00
 -1       847 1.36637E+02 3.55523E+01 0.00000E+00
 -1       848 1.35210E+01 3.02612E+01 0.00000E+00
 -1       849 4.51929E+01 3.45784E+01 0.00000E+00
 -1       850 1.34412E+02 2.64750E+01 0.00000E+00
 -1       851 2.41500E+01 3.44120E+01 0.00000E+00
 -1       852 2.71500E+01 3.44120E+01 0.00000E+00
 -1       853 3.01500E+01 3.44120E+01 0.00000E+00
 -1       854 3.31500E+01 3.44120E+01 0.00000E+00
 -1       855 3.61500E+01 3.44120E+01 0.00000E+00
 -1       856 3.91500E+01 3.44120E+01 0.00000E+00
 -1       857 6.85150E+01 1.71073E+01 0.00000E+00
 -1       858 6.31500E+01 3.44571E+01 0.00000E+00
 -1       859 6.61500E+01 3.44571E+01 0.00000E+00
 -1       860 6.91500E+01 3.44571E+01 0.00000E+00
 -1       861 7.21500E+01 3.44571E+01 0.00000E+00
 -1       862 7.51500E+01 3.44571E+01 0.00000E+00
 -1       863 7.81500E+01 3.44571E+01 0.00000E+00
 -1       864 8.11500E+01 3.44571E+01 0.00000E+00
 -1       865 8.41500E+01 3.44571E+01 0.00000E+00
 -1       866 8.71500E+01 3.44571E+01 0.00000E+00
 -1       867 9.01500E+01 3.44571E+01 0.00000E+00
 -1       868 9.31500E+01 3.44571E+01 0.00000E+00
 -1       869 9.61500E+01 3.44571E+01 0.00000E+00
 -1       870 9.91500E+01 3.44571E+01 0.00000E+00
 -1       871 1.02150E+02 3.44571E+01 0.00000E+00
 -1       872 1.05150E+02 3.44571E+01 0.00000E+00
 -1       873 1.08150E+02 3.44571E+01 0.00000E+00
 -1       874 1.11150E+02 3.44571E+01 0.00000E+00
 -1       875 1.14150E+02 3.44571E+01 0.00000E+00
 -1       876 1.17150E+02 3.44571E+01 0.00000E+00
 -1       877 1.20150E+02 3.44571E+01 0.00000E+00
 -1       878 1.23150E+02 3.44571E+01 0.00000E+00
 -1       879 1.26150E+02 3.44571E+01 0.00000E+00
 -1       880 1.29150E+02 3.44571E+01 0.00000E+00
 -1       881 1.32150E+02 3.44571E+01 0.00000E+00
 -1       882 6.48022E+01 3.07759E+01 0.00000E+00
 -1       883 2.11500E+01 3.44120E+01 0.00000E+00
 -1       884 3.53071E+01 2.57532E+01 0.00000E+00
 -1       885 3.43797E+01 2.16695E+01 0.00000E+00
 -1       886 7.79414E+01 1.66835E+01 0.00000E+00
 -1       887 6.82328E+01 2.49186E+01 0.00000E+00
 -1       888 7.49414E+01 1.66835E+01 0.00000E+00
 -1       889 7.19414E+01 1.66835E+01 0.00000E+00
 -1       890 8.09414E+01 1.66835E+01 0.00000E+00
 -1       891 8.39414E+01 1.66835E+01 0.00000E+00
 -1       892 8.69414E+01 1.66835E+01 0.00000E+00
 -1       893 8.99414E+01 1.66835E+01 0.00000E+00
 -1       894 9.29414E+01 1.66835E+01 0.00000E+00
 -1       895 9.59414E+01 1.66835E+01 0.00000E+00
 -1       896 9.89414E+01 1.66835E+01 0.00000E+00
 -1       897 1.01941E+02 1.66835E+01 0.00000E+00
 -1       898 1.04941E+02 1.66835E+01 0.00000E+00
 -1       899 1.07941E+02 1.66835E+01 0.00000E+00
 -1       900 1.10941E+02 1.66835E+01 0.00000E+00
 -1       901 1.13941E+02 1.66835E+01 0.00000E+00
 -1       902 1.16941E+02 1.66835E+01 0.00000E+00
 -1       903 1.19941E+02 1.66835E+01 0.00000E+00
 -1       904 1.22941E+02 1.66835E+01 0.00000E+00
 -1       905 1.25941E+02 1.66835E+01 0.00000E+00
 -1       906 1.28941E+02 1.66835E+01 0.00000E+00
 -1       907 1.31941E+02 1.66835E+01 0.00000E+00
 -1       908 1.34412E+02 3.23750E+01 0.00000E+00
 -1       909 1.37010E+02 1.61875E+01 0.00000E+00
 -1       910 2.35350E+01 1.43982E+01 0.00000E+00
 -1       911 3.89606E+01 3.13314E+01 0.00000E+00
 -1       912 2.05350E+01 1.43982E+01 0.00000E+00
 -1       913 3.25350E+01 1.43982E+01 0.00000E+00
 -1       914 3.53770E+01 1.81304E+01 0.00000E+00
 -1       915 1.34412E+02 1.76563E+01 0.00000E+00
 -1       916 6.77685E+01 1.93903E+01 0.00000E+00
 -1       917 1.32555E+01 2.76181E+01 0.00000E+00
 -1       918 4.14565E+01 3.43875E+01 0.00000E+00
 -1       919 1.81500E+01 3.44120E+01 0.00000E+00
 -1       920 1.34412E+02 2.94250E+01 0.00000E+00
 -1       921 1.55880E+01 1.46687E+01 0.00000E+00
 -1       922 3.29516E+01 2.37774E+01 0.00000E+00
 -1       923 3.56309E+01 2.73340E+01 0.00000E+00
 -1       924 1.34394E+02 3.50047E+01 0.00000E+00
 -1       925 1.55880E+01 2.35000E+01 0.00000E+00
 -1       926 2.95350E+01 1.43982E+01 0.00000E+00
 -1       927 1.59934E+01 1.30847E+01 0.00000E+00
 -1       928 1.58355E+01 3.38054E+01 0.00000E+00
 -1       929 2.65350E+01 1.43982E+01 0.00000E+00
 -1       930 1.55880E+01 2.05562E+01 0.00000E+00
 -1       931 1.58355E+01 3.08679E+01 0.00000E+00
 -1       932 1.34412E+02 2.35375E+01 0.00000E+00
 -1       933 3.54723E+01 1.37824E+01 0.00000E+00
 -1       934 1.75351E+01 1.43983E+01 0.00000E+00
 -1       935 1.34412E+02 2.05938E+01 0.00000E+00
 -1       936 6.88359E+01 2.34554E+01 0.00000E+00
 -1       937 1.55880E+01 1.76125E+01 0.00000E+00
 -1       938 2.56500E+01 3.18140E+01 0.00000E+00
 -1       939 2.86500E+01 3.18140E+01 0.00000E+00
 -1       940 3.16500E+01 3.18140E+01 0.00000E+00
 -1       941 3.46500E+01 3.18140E+01 0.00000E+00
 -1       942 1.58535E+01 2.61431E+01 0.00000E+00
 -1       943 7.06500E+01 3.18591E+01 0.00000E+00
 -1       944 7.36500E+01 3.18591E+01 0.00000E+00
 -1       945 7.66500E+01 3.18591E+01 0.00000E+00
 -1       946 7.96500E+01 3.18591E+01 0.00000E+00
 -1       947 8.26500E+01 3.18591E+01 0.00000E+00
 -1       948 8.56500E+01 3.18591E+01 0.00000E+00
 -1       949 8.86500E+01 3.18591E+01 0.00000E+00
 -1       950 9.16500E+01 3.18591E+01 0.00000E+00
 -1       951 9.46500E+01 3.18591E+01 0.00000E+00
 -1       952 9.76500E+01 3.18591E+01 0.00000E+00
 -1       953 1.00650E+02 3.18591E+01 0.00000E+00
 -1       954 1.03650E+02 3.18591E+01 0.00000E+00
 -1       955 1.06650E+02 3.18591E+01 0.00000E+00
 -1       956 1.09650E+02 3.18591E+01 0.00000E+00
 -1       957 1.12650E+02 3.18591E+01 0.00000E+00
 -1       958 1.15650E+02 3.18591E+01 0.00000E+00
 -1       959 1.18650E+02 3.18591E+01 0.00000E+00
 -1       960 1.21650E+02 3.18591E+01 0.00000E+00
 -1       961 1.24650E+02 3.18591E+01 0.00000E+00
 -1       962 1.27650E+02 3.18591E+01 0.00000E+00
 -1       963 1.30650E+02 3.18591E+01 0.00000E+00
 -1       964 2.26500E+01 3.18140E+01 0.00000E+00
 -1       965 1.31941E+02 1.96210E+01 0.00000E+00
 -1       966 3.60519E+01 3.03761E+01 0.00000E+00
 -1       967 7.94414E+01 1.92815E+01 0.00000E+00
 -1       968 7.34414E+01 1.92815E+01 0.00000E+00
 -1       969 8.54414E+01 1.92815E+01 0.00000E+00
 -1       970 8.84414E+01 1.92815E+01 0.00000E+00
 -1       971 9.14414E+01 1.92815E+01 0.00000E+00
 -1       972 9.44414E+01 1.92815E+01 0.00000E+00
 -1       973 9.74414E+01 1.92815E+01 0.00000E+00
 -1       974 1.00441E+02 1.92815E+01 0.00000E+00
 -1       975 1.03441E+02 1.92815E+01 0.00000E+00
 -1       976 1.06441E+02 1.92815E+01 0.00000E+00
 -1       977 1.09441E+02 1.92815E+01 0.00000E+00
 -1       978 1.12441E+02 1.92815E+01 0.00000E+00
 -1       979 1.15441E+02 1.92815E+01 0.00000E+00
 -1       980 1.18441E+02 1.92815E+01 0.00000E+00
 -1       981 1.21441E+02 1.92815E+01 0.00000E+00
 -1       982 1.24441E+02 1.92815E+01 0.00000E+00
 -1       983 1.27441E+02 1.92815E+01 0.00000E+00
 -1       984 1.29691E+02 1.94513E+01 0.00000E+00
 -1       985 3.24210E+01 1.92075E+01 0.00000E+00
 -1       986 2.20350E+01 1.69963E+01 0.00000E+00
 -1       987 3.39560E+01 1.62643E+01 0.00000E+00
 -1       988 6.75806E+01 3.01820E+01 0.00000E+00
 -1       989 6.94199E+01 2.74999E+01 0.00000E+00
 -1       990 2.50350E+01 1.69963E+01 0.00000E+00
 -1       991 1.90351E+01 1.69963E+01 0.00000E+00
 -1       992 7.06049E+01 1.93359E+01 0.00000E+00
 -1       993 7.64414E+01 1.92815E+01 0.00000E+00
 -1       994 1.96500E+01 3.18140E+01 0.00000E+00
 -1       995 8.24414E+01 1.92815E+01 0.00000E+00
 -1       996 1.77428E+01 3.13409E+01 0.00000E+00
 -1       997 3.09929E+01 2.13154E+01 0.00000E+00
 -1       998 1.31814E+02 2.79500E+01 0.00000E+00
 -1       999 1.83057E+01 2.45619E+01 0.00000E+00
 -1      1000 3.09560E+01 1.62643E+01 0.00000E+00
 -1      1001 3.29239E+01 2.70649E+01 0.00000E+00
 -1      1002 2.80350E+01 1.69963E+01 0.00000E+00
 -1      1003 1.31814E+02 2.50125E+01 0.00000E+00
 -1      1004 1.83057E+01 2.16182E+01 0.00000E+00
 -1      1005 7.08413E+01 2.52826E+01 0.00000E+00
 -1      1006 6.97204E+01 2.13956E+01 0.00000E+00
 -1      1007 1.58445E+01 2.85055E+01 0.00000E+00
 -1      1008 8.09414E+01 2.18795E+01 0.00000E+00
 -1      1009 9.29414E+01 2.18795E+01 0.00000E+00
 -1      1010 8.99414E+01 2.18795E+01 0.00000E+00
 -1      1011 3.01500E+01 2.92160E+01 0.00000E+00
 -1      1012 7.21500E+01 2.92611E+01 0.00000E+00
 -1      1013 7.79414E+01 2.18795E+01 0.00000E+00
 -1      1014 7.51500E+01 2.92611E+01 0.00000E+00
 -1      1015 7.81500E+01 2.92611E+01 0.00000E+00
 -1      1016 8.11500E+01 2.92611E+01 0.00000E+00
 -1      1017 8.41500E+01 2.92611E+01 0.00000E+00
 -1      1018 8.71500E+01 2.92611E+01 0.00000E+00
 -1      1019 9.01500E+01 2.92611E+01 0.00000E+00
 -1      1020 9.31500E+01 2.92611E+01 0.00000E+00
 -1      1021 9.61500E+01 2.92611E+01 0.00000E+00
 -1      1022 9.91500E+01 2.92611E+01 0.00000E+00
 -1      1023 1.02150E+02 2.92611E+01 0.00000E+00
 -1      1024 1.05150E+02 2.92611E+01 0.00000E+00
 -1      1025 1.08150E+02 2.92611E+01 0.00000E+00
 -1      1026 1.11150E+02 2.92611E+01 0.00000E+00
 -1      1027 1.14150E+02 2.92611E+01 0.00000E+00
 -1      1028 1.17150E+02 2.92611E+01 0.00000E+00
 -1      1029 1.20150E+02 2.92611E+01 0.00000E+00
 -1      1030 1.23150E+02 2.92611E+01 0.00000E+00
 -1      1031 1.26150E+02 2.92611E+01 0.00000E+00
 -1      1032 1.28982E+02 2.86055E+01 0.00000E+00
 -1      1033 1.32052E+02 2.14944E+01 0.00000E+00
 -1      1034 3.05524E+01 2.54010E+01 0.00000E+00
 -1      1035 2.71500E+01 2.92160E+01 0.00000E+00
 -1      1036 7.49414E+01 2.18795E+01 0.00000E+00
 -1      1037 8.69414E+01 2.18795E+01 0.00000E+00
 -1      1038 9.59414E+01 2.18795E+01 0.00000E+00
 -1      1039 9.89414E+01 2.18795E+01 0.00000E+00
 -1      1040 1.01941E+02 2.18795E+01 0.00000E+00
 -1      1041 1.04941E+02 2.18795E+01 0.00000E+00
 -1      1042 1.07941E+02 2.18795E+01 0.00000E+00
 -1      1043 1.10941E+02 2.18795E+01 0.00000E+00
 -1      1044 1.13941E+02 2.18795E+01 0.00000E+00
 -1      1045 1.16941E+02 2.18795E+01 0.00000E+00
 -1      1046 1.19941E+02 2.18795E+01 0.00000E+00
 -1      1047 1.22941E+02 2.18795E+01 0.00000E+00
 -1      1048 1.25941E+02 2.18795E+01 0.00000E+00
 -1      1049 2.41500E+01 2.92160E+01 0.00000E+00
 -1      1050 7.17259E+01 2.32229E+01 0.00000E+00
 -1      1051 2.05351E+01 1.95943E+01 0.00000E+00
 -1      1052 2.11500E+01 2.92160E+01 0.00000E+00
 -1      1053 8.39414E+01 2.18795E+01 0.00000E+00
 -1      1054 1.82967E+01 2.69243E+01 0.00000E+00
 -1      1055 2.35351E+01 1.95943E+01 0.00000E+00
 -1      1056 7.35714E+01 2.70438E+01 0.00000E+00
 -1      1057 1.28982E+02 2.56680E+01 0.00000E+00
 -1      1058 7.44559E+01 2.49840E+01 0.00000E+00
 -1      1059 2.65351E+01 1.95943E+01 0.00000E+00
 -1      1060 1.28191E+02 2.20493E+01 0.00000E+00
 -1      1061 1.77687E+01 1.98618E+01 0.00000E+00
 -1      1062 1.80197E+01 2.91326E+01 0.00000E+00
 -1      1063 2.09037E+01 2.30900E+01 0.00000E+00
 -1      1064 2.08947E+01 2.54524E+01 0.00000E+00
 -1      1065 9.74414E+01 2.44775E+01 0.00000E+00
 -1      1066 9.44414E+01 2.44775E+01 0.00000E+00
 -1      1067 2.93627E+01 1.88936E+01 0.00000E+00
 -1      1068 7.94414E+01 2.44775E+01 0.00000E+00
 -1      1069 7.65714E+01 2.70438E+01 0.00000E+00
 -1      1070 7.95714E+01 2.70438E+01 0.00000E+00
 -1      1071 8.25714E+01 2.70438E+01 0.00000E+00
 -1      1072 8.55714E+01 2.70438E+01 0.00000E+00
 -1      1073 8.85714E+01 2.70438E+01 0.00000E+00
 -1      1074 9.15714E+01 2.70438E+01 0.00000E+00
 -1      1075 9.45714E+01 2.70438E+01 0.00000E+00
 -1      1076 9.75714E+01 2.70438E+01 0.00000E+00
 -1      1077 1.00571E+02 2.70438E+01 0.00000E+00
 -1      1078 1.03571E+02 2.70438E+01 0.00000E+00
 -1      1079 1.06571E+02 2.70438E+01 0.00000E+00
 -1      1080 1.09571E+02 2.70438E+01 0.00000E+00
 -1      1081 1.12571E+02 2.70438E+01 0.00000E+00
 -1      1082 1.15571E+02 2.70438E+01 0.00000E+00
 -1      1083 1.18571E+02 2.70438E+01 0.00000E+00
 -1      1084 1.21571E+02 2.70438E+01 0.00000E+00
 -1      1085 1.24571E+02 2.70438E+01 0.00000E+00
 -1      1086 1.26777E+02 2.63559E+01 0.00000E+00
 -1      1087 2.75524E+01 2.54010E+01 0.00000E+00
 -1      1088 2.84576E+01 2.21473E+01 0.00000E+00
 -1      1089 7.69486E+01 2.47308E+01 0.00000E+00
 -1      1090 2.26500E+01 2.66180E+01 0.00000E+00
 -1      1091 2.51012E+01 2.60095E+01 0.00000E+00
 -1      1092 2.42951E+01 2.29046E+01 0.00000E+00
 -1      1093 1.26871E+02 2.45551E+01 0.00000E+00
 -1      1094 0.00000E+00 4.85250E+01 0.00000E+00
 -1      1095 0.00000E+00 4.55750E+01 0.00000E+00
 -1      1096 0.00000E+00 4.26250E+01 0.00000E+00
 -1      1097 0.00000E+00 3.96750E+01 0.00000E+00
 -1      1098 0.00000E+00 3.67250E+01 0.00000E+00
 -1      1099 0.00000E+00 3.38000E+01 0.00000E+00
 -1      1100 0.00000E+00 3.08750E+01 0.00000E+00
 -1      1101 0.00000E+00 2.79250E+01 0.00000E+00
 -1      1102 0.00000E+00 2.49750E+01 0.00000E+00
 -1      1103 0.00000E+00 2.20250E+01 0.00000E+00
 -1      1104 0.00000E+00 1.90750E+01 0.00000E+00
 -1      1105 0.00000E+00 1.61500E+01 0.00000E+00
 -1      1106 0.00000E+00 1.32250E+01 0.00000E+00
 -1      1107 0.00000E+00 1.02750E+01 0.00000E+00
 -1      1108 0.00000E+00 7.32500E+00 0.00000E+00
 -1      1109 0.00000E+00 4.37500E+00 0.00000E+00
 -1      1110 0.00000E+00 1.45000E+00 0.00000E+00
 -1      1111 1.57500E+00 5.00000E+01 0.00000E+00
 -1      1112 4.65000E+00 5.00000E+01 0.00000E+00
 -1      1113 7.65000E+00 5.00000E+01 0.00000E+00
 -1      1114 1.06500E+01 5.00000E+01 0.00000E+00
 -1      1115 1.36500E+01 5.00000E+01 0.00000E+00
 -1      1116 1.66500E+01 5.00000E+01 0.00000E+00
 -1      1117 1.96500E+01 5.00000E+01 0.00000E+00
 -1      1118 2.26500E+01 5.00000E+01 0.00000E+00
 -1      1119 2.56500E+01 5.00000E+01 0.00000E+00
 -1      1120 2.86500E+01 5.00000E+01 0.00000E+00
 -1      1121 3.16500E+01 5.00000E+01 0.00000E+00
 -1      1122 3.46500E+01 5.00000E+01 0.00000E+00
 -1      1123 3.76500E+01 5.00000E+01 0.00000E+00
 -1      1124 4.06500E+01 5.00000E+01 0.00000E+00
 -1      1125 4.36500E+01 5.00000E+01 0.00000E+00
 -1      1126 4.66500E+01 5.00000E+01 0.00000E+00
 -1      1127 4.96500E+01 5.00000E+01 0.00000E+00
 -1      1128 5.26500E+01 5.00000E+01 0.00000E+00
 -1      1129 5.56500E+01 5.00000E+01 0.00000E+00
 -1      1130 5.86500E+01 5.00000E+01 0.00000E+00
 -1      1131 6.16500E+01 5.00000E+01 0.00000E+00
 -1      1132 6.46500E+01 5.00000E+01 0.00000E+00
 -1      1133 6.76500E+01 5.00000E+01 0.00000E+00
 -1      1134 7.06500E+01 5.00000E+01 0.00000E+00
 -1      1135 7.36500E+01 5.00000E+01 0.00000E+00
 -1      1136 7.66500E+01 5.00000E+01 0.00000E+00
 -1      1137 7.96500E+01 5.00000E+01 0.00000E+00
 -1      1138 8.26500E+01 5.00000E+01 0.00000E+00
 -1      1139 8.56500E+01 5.00000E+01 0.00000E+00
 -1      1140 8.86500E+01 5.00000E+01 0.00000E+00
 -1      1141 9.16500E+01 5.00000E+01 0.00000E+00
 -1      1142 9.46500E+01 5.00000E+01 0.00000E+00
 -1      1143 9.76500E+01 5.00000E+01 0.00000E+00
 -1      1144 1.00650E+02 5.00000E+01 0.00000E+00
 -1      1145 1.03650E+02 5.00000E+01 0.00000E+00
 -1      1146 1.06650E+02 5.00000E+01 0.00000E+00
 -1      1147 1.09650E+02 5.00000E+01 0.00000E+00
 -1      1148 1.12650E+02 5.00000E+01 0.00000E+00
 -1      1149 1.15650E+02 5.00000E+01 0.00000E+00
 -1      1150 1.18650E+02 5.00000E+01 0.00000E+00
 -1      1151 1.21650E+02 5.00000E+01 0.00000E+00
 -1      1152 1.24650E+02 5.00000E+01 0.00000E+00
 -1      1153 1.27650E+02 5.00000E+01 0.00000E+00
 -1      1154 1.30650E+02 5.00000E+01 0.00000E+00
 -1      1155 1.33650E+02 5.00000E+01 0.00000E+00
 -1      1156 1.36650E+02 5.00000E+01 0.00000E+00
 -1      1157 1.39650E+02 5.00000E+01 0.00000E+00
 -1      1158 1.42650E+02 5.00000E+01 0.00000E+00
 -1      1159 1.45650E+02 5.00000E+01 0.00000E+00
 -1      1160 1.48575E+02 5.00000E+01 0.00000E+00
 -1      1161 1.57500E+00 0.00000E+00 0.00000E+00
 -1      1162 4.65000E+00 0.00000E+00 0.00000E+00
 -1      1163 7.65000E+00 0.00000E+00 0.00000E+00
 -1      1164 1.06500E+01 0.00000E+00 0.00000E+00
 -1      1165 1.36500E+01 0.00000E+00 0.00000E+00
 -1      1166 1.66500E+01 0.00000E+00 0.00000E+00
 -1      1167 1.96500E+01 0.00000E+00 0.00000E+00
 -1      1168 2.26500E+01 0.00000E+00 0.00000E+00
 -1      1169 2.56500E+01 0.00000E+00 0.00000E+00
 -1      1170 2.86500E+01 0.00000E+00 0.00000E+00
 -1      1171 3.16500E+01 0.00000E+00 0.00000E+00
 -1      1172 3.46500E+01 0.00000E+00 0.00000E+00
 -1      1173 3.76500E+01 0.00000E+00 0.00000E+00
 -1      1174 4.06500E+01 0.00000E+00 0.00000E+00
 -1      1175 4.36500E+01 0.00000E+00 0.00000E+00
 -1      1176 4.66500E+01 0.00000E+00 0.00000E+00
 -1      1177 4.96500E+01 0.00000E+00 0.00000E+00
 -1      1178 5.26500E+01 0.00000E+00 0.00000E+00
 -1      1179 5.56500E+01 0.00000E+00 0.00000E+00
 -1      1180 5.86500E+01 0.00000E+00 0.00000E+00
 -1      1181 6.16500E+01 0.00000E+00 0.00000E+00
 -1      1182 6.46500E+01 0.00000E+00 0.00000E+00
 -1      1183 6.76500E+01 0.00000E+00 0.00000E+00
 -1      1184 7.06500E+01 0.00000E+00 0.00000E+00
 -1      1185 7.36500E+01 0.00000E+00 0.00000E+00
 -1      1186 7.66500E+01 0.00000E+00 0.00000E+00
 -1      1187 7.96500E+01 0.00000E+00 0.00000E+00
 -1      1188 8.26500E+01 0.00000E+00 0.00000E+00
 -1      1189 8.56500E+01 0.00000E+00 0.00000E+00
 -1      1190 8.86500E+01 0.00000E+00 0.00000E+00
 -1      1191 9.16500E+01 0.00000E+00 0.00000E+00
 -1      1192 9.46500E+01 0.00000E+00 0.00000E+00
 -1      1193 9.76500E+01 0.00000E+00 0.00000E+00
 -1      1194 1.00650E+02 0.00000E+00 0.00000E+00
 -1      1195 1.03650E+02 0.00000E+00 0.00000E+00
 -1      1196 1.06650E+02 0.00000E+00 0.00000E+00
 -1      1197 1.09650E+02 0.00000E+00 0.00000E+00
 -1      1198 1.12650E+02 0.00000E+00 0.00000E+00
 -1      1199 1.15650E+02 0.00000E+00 0.00000E+00
 -1      1200 1.18650E+02 0.00000E+00 0.00000E+00
 -1      1201 1.21650E+02 0.00000E+00 0.00000E+00
 -1      1202 1.24650E+02 0.00000E+00 0.00000E+00
 -1      1203 1.27650E+02 0.00000E+00 0.00000E+00
 -1      1204 1.30650E+02 0.00000E+00 0.00000E+00
 -1      1205 1.33650E+02 0.00000E+00 0.00000E+00
 -1      1206 1.36650E+02 0.00000E+00 0.00000E+00
 -1      1207 1.39650E+02 0.00000E+00 0.00000E+00
 -1      1208 1.42650E+02 0.00000E+00 0.00000E+00
 -1      1209 1.45650E+02 0.00000E+00 0.00000E+00
 -1      1210 1.48575E+02 0.00000E+00 0.00000E+00
 -1      1211 1.50000E+02 1.47500E+00 0.00000E+00
 -1      1212 1.50000E+02 4.42500E+00 0.00000E+00
 -1      1213 1.50000E+02 7.37500E+00 0.00000E+00
 -1      1214 1.50000E+02 1.03250E+01 0.00000E+00
 -1      1215 1.50000E+02 1.32750E+01 0.00000E+00
 -1      1216 1.50000E+02 1.62000E+01 0.00000E+00
 -1      1217 1.50000E+02 1.91250E+01 0.00000E+00
 -1      1218 1.50000E+02 2.20750E+01 0.00000E+00
 -1      1219 1.50000E+02 2.50250E+01 0.00000E+00
 -1      1220 1.50000E+02 2.79750E+01 0.00000E+00
 -1      1221 1.50000E+02 3.09250E+01 0.00000E+00
 -1      1222 1.50000E+02 3.38500E+01 0.00000E+00
 -1      1223 1.50000E+02 3.67750E+01 0.00000E+00
 -1      1224 1.50000E+02 3.97250E+01 0.00000E+00
 -1      1225 1.50000E+02 4.26750E+01 0.00000E+00
 -1      1226 1.50000E+02 4.56250E+01 0.00000E+00
 -1      1227 1.50000E+02 4.85500E+01 0.00000E+00
 -1      1228 5.84623E+01 2.03428E+01 0.00000E+00
 -1      1229 5.81329E+01 1.88429E+01 0.00000E+00
 -1      1230 5.74932E+01 1.74656E+01 0.00000E+00
 -1      1231 5.66123E+01 1.63018E+01 0.00000E+00
 -1      1232 5.54731E+01 1.53210E+01 0.00000E+00
 -1      1233 5.41438E+01 1.46031E+01 0.00000E+00
 -1      1234 5.26357E+01 1.41778E+01 0.00000E+00
 -1      1235 5.11122E+01 1.40962E+01 0.00000E+00
 -1      1236 4.96855E+01 1.43251E+01 0.00000E+00
 -1      1237 4.82286E+01 1.48978E+01 0.00000E+00
 -1      1238 4.69656E+01 1.57540E+01 0.00000E+00
 -1      1239 4.59516E+01 1.68197E+01 0.00000E+00
 -1      1240 4.51808E+01 1.80778E+01 0.00000E+00
 -1      1241 4.47020E+01 1.94230E+01 0.00000E+00
 -1      1242 4.45034E+01 2.09337E+01 0.00000E+00
 -1      1243 4.46325E+01 2.24320E+01 0.00000E+00
 -1      1244 4.50717E+01 2.38521E+01 0.00000E+00
 -1      1245 4.58261E+01 2.51826E+01 0.00000E+00
 -1      1246 4.69011E+01 2.63611E+01 0.00000E+00
 -1      1247 4.82120E+01 2.72642E+01 0.00000E+00
 -1      1248 4.96067E+01 2.78240E+01 0.00000E+00
 -1      1249 5.11407E+01 2.80761E+01 0.00000E+00
 -1      1250 5.26863E+01 2.79844E+01 0.00000E+00
 -1      1251 5.41855E+01 2.75505E+01 0.00000E+00
 -1      1252 5.55261E+01 2.68129E+01 0.00000E+00
 -1      1253 5.66441E+01 2.58347E+01 0.00000E+00
 -1      1254 5.75295E+01 2.46443E+01 0.00000E+00
 -1      1255 5.81407E+01 2.33044E+01 0.00000E+00
 -1      1256 5.84611E+01 2.18386E+01 0.00000E+00
 -1      1257 1.57500E+00 4.85250E+01 0.00000E+00
 -1      1258 1.29900E+00 4.48375E+01 0.00000E+00
 -1      1259 1.29900E+00 4.63125E+01 0.00000E+00
 -1      1260 1.29900E+00 4.18875E+01 0.00000E+00
 -1      1261 1.29900E+00 4.33625E+01 0.00000E+00
 -1      1262 2.59800E+00 4.41000E+01 0.00000E+00
 -1      1263 1.29900E+00 3.89375E+01 0.00000E+00
 -1      1264 1.29900E+00 4.04125E+01 0.00000E+00
 -1      1265 2.59800E+00 4.11500E+01 0.00000E+00
 -1      1266 1.29900E+00 3.59875E+01 0.00000E+00
 -1      1267 1.29900E+00 3.74625E+01 0.00000E+00
 -1      1268 2.59800E+00 3.82000E+01 0.00000E+00
 -1      1269 1.29900E+00 3.30875E+01 0.00000E+00
 -1      1270 1.29900E+00 3.45375E+01 0.00000E+00
 -1      1271 2.59800E+00 3.52750E+01 0.00000E+00
 -1      1272 1.29900E+00 3.01375E+01 0.00000E+00
 -1      1273 1.29900E+00 3.16125E+01 0.00000E+00
 -1      1274 2.59800E+00 3.23500E+01 0.00000E+00
 -1      1275 1.29900E+00 2.71875E+01 0.00000E+00
 -1      1276 1.29900E+00 2.86625E+01 0.00000E+00
 -1      1277 2.59800E+00 2.94000E+01 0.00000E+00
 -1      1278 1.29900E+00 2.42375E+01 0.00000E+00
 -1      1279 1.29900E+00 2.57125E+01 0.00000E+00
 -1      1280 2.59800E+00 2.64500E+01 0.00000E+00
 -1      1281 1.29900E+00 2.12875E+01 0.00000E+00
 -1      1282 1.29900E+00 2.27625E+01 0.00000E+00
 -1      1283 2.59800E+00 2.35000E+01 0.00000E+00
 -1      1284 1.29900E+00 1.83375E+01 0.00000E+00
 -1      1285 1.29900E+00 1.98125E+01 0.00000E+00
 -1      1286 2.59800E+00 2.05500E+01 0.00000E+00
 -1      1287 1.29900E+00 1.54375E+01 0.00000E+00
 -1      1288 1.29900E+00 1.68875E+01 0.00000E+00
 -1      1289 2.59800E+00 1.76250E+01 0.00000E+00
 -1      1290 1.29900E+00 1.24875E+01 0.00000E+00
 -1      1291 1.29900E+00 1.39625E+01 0.00000E+00
 -1      1292 2.59800E+00 1.47000E+01 0.00000E+00
 -1      1293 1.29900E+00 9.53750E+00 0.00000E+00
 -1      1294 1.29900E+00 1.10125E+01 0.00000E+00
 -1      1295 2.59800E+00 1.17500E+01 0.00000E+00
 -1      1296 1.29900E+00 6.58750E+00 0.00000E+00
 -1      1297 1.29900E+00 8.06250E+00 0.00000E+00
 -1      1298 2.59800E+00 8.80000E+00 0.00000E+00
 -1      1299 1.29900E+00 3.63750E+00 0.00000E+00
 -1      1300 1.29900E+00 5.11250E+00 0.00000E+00
 -1      1301 2.59800E+00 5.85000E+00 0.00000E+00
 -1      1302 1.43700E+00 1.09375E+00 0.00000E+00
 -1      1303 1.43700E+00 2.54375E+00 0.00000E+00
 -1      1304 2.73600E+00 3.28125E+00 0.00000E+00
 -1      1305 3.01200E+00 1.09375E+00 0.00000E+00
 -1      1306 3.90000E+00 4.87010E+01 0.00000E+00
 -1      1307 5.40000E+00 4.87010E+01 0.00000E+00
 -1      1308 6.90000E+00 4.87010E+01 0.00000E+00
 -1      1309 8.40000E+00 4.87010E+01 0.00000E+00
 -1      1310 6.15000E+00 4.74020E+01 0.00000E+00
 -1      1311 9.90000E+00 4.87010E+01 0.00000E+00
 -1      1312 1.14000E+01 4.87010E+01 0.00000E+00
 -1      1313 9.15000E+00 4.74020E+01 0.00000E+00
 -1      1314 1.29000E+01 4.87010E+01 0.00000E+00
 -1      1315 1.44000E+01 4.87010E+01 0.00000E+00
 -1      1316 1.21500E+01 4.74020E+01 0.00000E+00
 -1      1317 1.59000E+01 4.87010E+01 0.00000E+00
 -1      1318 1.74000E+01 4.87010E+01 0.00000E+00
 -1      1319 1.51500E+01 4.74020E+01 0.00000E+00
 -1      1320 1.89000E+01 4.87010E+01 0.00000E+00
 -1      1321 2.04000E+01 4.87010E+01 0.00000E+00
 -1      1322 1.81500E+01 4.74020E+01 0.00000E+00
 -1      1323 2.19000E+01 4.87010E+01 0.00000E+00
 -1      1324 2.34000E+01 4.87010E+01 0.00000E+00
 -1      1325 2.11500E+01 4.74020E+01 0.00000E+00
 -1      1326 2.49000E+01 4.87010E+01 0.00000E+00
 -1      1327 2.64000E+01 4.87010E+01 0.00000E+00
 -1      1328 2.41500E+01 4.74020E+01 0.00000E+00
 -1      1329 2.79000E+01 4.87010E+01 0.00000E+00
 -1      1330 2.94000E+01 4.87010E+01 0.00000E+00
 -1      1331 2.71500E+01 4.74020E+01 0.00000E+00
 -1      1332 3.09000E+01 4.87010E+01 0.00000E+00
 -1      1333 3.24000E+01 4.87010E+01 0.00000E+00
 -1      1334 3.01500E+01 4.74020E+01 0.00000E+00
 -1      1335 3.39000E+01 4.87010E+01 0.00000E+00
 -1      1336 3.54000E+01 4.87010E+01 0.00000E+00
 -1      1337 3.31500E+01 4.74020E+01 0.00000E+00
 -1      1338 3.69000E+01 4.87010E+01 0.00000E+00
 -1      1339 3.84000E+01 4.87010E+01 0.00000E+00
 -1      1340 3.61500E+01 4.74020E+01 0.00000E+00
 -1      1341 3.99000E+01 4.87010E+01 0.00000E+00
 -1      1342 4.14000E+01 4.87010E+01 0.00000E+00
 -1      1343 3.91500E+01 4.74020E+01 0.00000E+00
 -1      1344 4.29000E+01 4.87010E+01 0.00000E+00
 -1      1345 4.44000E+01 4.87010E+01 0.00000E+00
 -1      1346 4.21500E+01 4.74020E+01 0.00000E+00
 -1      1347 4.59000E+01 4.87010E+01 0.00000E+00
 -1      1348 4.74000E+01 4.87010E+01 0.00000E+00
 -1      1349 4.51500E+01 4.74020E+01 0.00000E+00
 -1      1350 4.89000E+01 4.87010E+01 0.00000E+00
 -1      1351 5.04000E+01 4.87010E+01 0.00000E+00
 -1      1352 4.81500E+01 4.74020E+01 0.00000E+00
 -1      1353 5.19000E+01 4.87010E+01 0.00000E+00
 -1      1354 5.34000E+01 4.87010E+01 0.00000E+00
 -1      1355 5.11500E+01 4.74020E+01 0.00000E+00
 -1      1356 5.49000E+01 4.87010E+01 0.00000E+00
 -1      1357 5.64000E+01 4.87010E+01 0.00000E+00
 -1      1358 5.41500E+01 4.74020E+01 0.00000E+00
 -1      1359 5.79000E+01 4.87010E+01 0.00000E+00
 -1      1360 5.94000E+01 4.87010E+01 0.00000E+00
 -1      1361 5.71500E+01 4.74020E+01 0.00000E+00
 -1      1362 6.09000E+01 4.87010E+01 0.00000E+00
 -1      1363 6.24000E+01 4.87010E+01 0.00000E+00
 -1      1364 6.01500E+01 4.74020E+01 0.00000E+00
 -1      1365 6.39000E+01 4.87010E+01 0.00000E+00
 -1      1366 6.54000E+01 4.87010E+01 0.00000E+00
 -1      1367 6.31500E+01 4.74020E+01 0.00000E+00
 -1      1368 6.69000E+01 4.87010E+01 0.00000E+00
 -1      1369 6.84000E+01 4.87010E+01 0.00000E+00
 -1      1370 6.61500E+01 4.74020E+01 0.00000E+00
 -1      1371 6.99000E+01 4.87010E+01 0.00000E+00
 -1      1372 7.14000E+01 4.87010E+01 0.00000E+00
 -1      1373 6.91500E+01 4.74020E+01 0.00000E+00
 -1      1374 7.29000E+01 4.87010E+01 0.00000E+00
 -1      1375 7.44000E+01 4.87010E+01 0.00000E+00
 -1      1376 7.21500E+01 4.74020E+01 0.00000E+00
 -1      1377 7.59000E+01 4.87010E+01 0.00000E+00
 -1      1378 7.74000E+01 4.87010E+01 0.00000E+00
 -1      1379 7.51500E+01 4.74020E+01 0.00000E+00
 -1      1380 7.89000E+01 4.87010E+01 0.00000E+00
 -1      1381 8.04000E+01 4.87010E+01 0.00000E+00
 -1      1382 7.81500E+01 4.74020E+01 0.00000E+00
 -1      1383 8.19000E+01 4.87010E+01 0.00000E+00
 -1      1384 8.34000E+01 4.87010E+01 0.00000E+00
 -1      1385 8.11500E+01 4.74020E+01 0.00000E+00
 -1      1386 8.49000E+01 4.87010E+01 0.00000E+00
 -1      1387 8.64000E+01 4.87010E+01 0.00000E+00
 -1      1388 8.41500E+01 4.74020E+01 0.00000E+00
 -1      1389 8.79000E+01 4.87010E+01 0.00000E+00
 -1      1390 8.94000E+01 4.87010E+01 0.00000E+00
 -1      1391 8.71500E+01 4.74020E+01 0.00000E+00
 -1      1392 9.09000E+01 4.87010E+01 0.00000E+00
 -1      1393 9.24000E+01 4.87010E+01 0.00000E+00
 -1      1394 9.01500E+01 4.74020E+01 0.00000E+00
 -1      1395 9.39000E+01 4.87010E+01 0.00000E+00
 -1      1396 9.54000E+01 4.87010E+01 0.00000E+00
 -1      1397 9.31500E+01 4.74020E+01 0.00000E+00
 -1      1398 9.69000E+01 4.87010E+01 0.00000E+00
 -1      1399 9.84000E+01 4.87010E+01 0.00000E+00
 -1      1400 9.61500E+01 4.74020E+01 0.00000E+00
 -1      1401 9.99000E+01 4.87010E+01 0.00000E+00
 -1      1402 1.01400E+02 4.87010E+01 0.00000E+00
 -1      1403 9.91500E+01 4.74020E+01 0.00000E+00
 -1      1404 1.02900E+02 4.87010E+01 0.00000E+00
 -1      1405 1.04400E+02 4.87010E+01 0.00000E+00
 -1      1406 1.02150E+02 4.74020E+01 0.00000E+00
 -1      1407 1.05900E+02 4.87010E+01 0.00000E+00
 -1      1408 1.07400E+02 4.87010E+01 0.00000E+00
 -1      1409 1.05150E+02 4.74020E+01 0.00000E+00
 -1      1410 1.08900E+02 4.87010E+01 0.00000E+00
 -1      1411 1.10400E+02 4.87010E+01 0.00000E+00
 -1      1412 1.08150E+02 4.74020E+01 0.00000E+00
 -1      1413 1.11900E+02 4.87010E+01 0.00000E+00
 -1      1414 1.13400E+02 4.87010E+01 0.00000E+00
 -1      1415 1.11150E+02 4.74020E+01 0.00000E+00
 -1      1416 1.14900E+02 4.87010E+01 0.00000E+00
 -1      1417 1.16400E+02 4.87010E+01 0.00000E+00
 -1      1418 1.14150E+02 4.74020E+01 0.00000E+00
 -1      1419 1.17900E+02 4.87010E+01 0.00000E+00
 -1      1420 1.19400E+02 4.87010E+01 0.00000E+00
 -1      1421 1.17150E+02 4.74020E+01 0.00000E+00
 -1      1422 1.20900E+02 4.87010E+01 0.00000E+00
 -1      1423 1.22400E+02 4.87010E+01 0.00000E+00
 -1      1424 1.20150E+02 4.74020E+01 0.00000E+00
 -1      1425 1.23900E+02 4.87010E+01 0.00000E+00
 -1      1426 1.25400E+02 4.87010E+01 0.00000E+00
 -1      1427 1.23150E+02 4.74020E+01 0.00000E+00
 -1      1428 1.26900E+02 4.87010E+01 0.00000E+00
 -1      1429 1.28400E+02 4.87010E+01 0.00000E+00
 -1      1430 1.26150E+02 4.74020E+01 0.00000E+00
 -1      1431 1.29900E+02 4.87010E+01 0.00000E+00
 -1      1432 1.31400E+02 4.87010E+01 0.00000E+00
 -1      1433 1.29150E+02 4.74020E+01 0.00000E+00
 -1      1434 1.32900E+02 4.87010E+01 0.00000E+00
 -1      1435 1.34400E+02 4.87010E+01 0.00000E+00
 -1      1436 1.32150E+02 4.74020E+01 0.00000E+00
 -1      1437 1.35900E+02 4.87010E+01 0.00000E+00
 -1      1438 1.37400E+02 4.87010E+01 0.00000E+00
 -1      1439 1.35150E+02 4.74020E+01 0.00000E+00
 -1      1440 1.38900E+02 4.87010E+01 0.00000E+00
 -1      1441 1.40400E+02 4.87010E+01 0.00000E+00
 -1      1442 1.38150E+02 4.74020E+01 0.00000E+00
 -1      1443 1.41900E+02 4.87010E+01 0.00000E+00
 -1      1444 1.43400E+02 4.87010E+01 0.00000E+00
 -1      1445 1.41150E+02 4.74020E+01 0.00000E+00
 -1      1446 1.44900E+02 4.87010E+01 0.00000E+00
 -1      1447 1.46400E+02 4.87010E+01 0.00000E+00
 -1      1448 1.44150E+02 4.74020E+01 0.00000E+00
 -1      1449 1.48575E+02 4.85500E+01 0.00000E+00
 -1      1450 1.47825E+02 4.72510E+01 0.00000E+00
 -1      1451 6.01200E+00 1.09375E+00 0.00000E+00
 -1      1452 4.51200E+00 1.09375E+00 0.00000E+00
 -1      1453 4.37400E+00 2.18750E+00 0.00000E+00
 -1      1454 9.01200E+00 1.09375E+00 0.00000E+00
 -1      1455 7.51200E+00 1.09375E+00 0.00000E+00
 -1      1456 7.37400E+00 2.18750E+00 0.00000E+00
 -1      1457 1.20120E+01 1.09375E+00 0.00000E+00
 -1      1458 1.05120E+01 1.09375E+00 0.00000E+00
 -1      1459 1.03740E+01 2.18750E+00 0.00000E+00
 -1      1460 1.50120E+01 1.09375E+00 0.00000E+00
 -1      1461 1.35120E+01 1.09375E+00 0.00000E+00
 -1      1462 1.33740E+01 2.18750E+00 0.00000E+00
 -1      1463 1.80120E+01 1.09375E+00 0.00000E+00
 -1      1464 1.65120E+01 1.09375E+00 0.00000E+00
 -1      1465 1.63740E+01 2.18750E+00 0.00000E+00
 -1      1466 2.10120E+01 1.09375E+00 0.00000E+00
 -1      1467 1.95120E+01 1.09375E+00 0.00000E+00
 -1      1468 1.93740E+01 2.18750E+00 0.00000E+00
 -1      1469 2.40120E+01 1.09375E+00 0.00000E+00
 -1      1470 2.25120E+01 1.09375E+00 0.00000E+00
 -1      1471 2.23740E+01 2.18750E+00 0.00000E+00
 -1      1472 2.70120E+01 1.09375E+00 0.00000E+00
 -1      1473 2.55120E+01 1.09375E+00 0.00000E+00
 -1      1474 2.53740E+01 2.18750E+00 0.00000E+00
 -1      1475 3.00120E+01 1.09375E+00 0.00000E+00
 -1      1476 2.85120E+01 1.09375E+00 0.00000E+00
 -1      1477 2.83740E+01 2.18750E+00 0.00000E+00
 -1      1478 3.30120E+01 1.09375E+00 0.00000E+00
 -1      1479 3.15120E+01 1.09375E+00 0.00000E+00
 -1      1480 3.13740E+01 2.18750E+00 0.00000E+00
 -1      1481 3.60120E+01 1.09375E+00 0.00000E+00
 -1      1482 3.45120E+01 1.09375E+00 0.00000E+00
 -1      1483 3.43740E+01 2.18750E+00 0.00000E+00
 -1      1484 3.90120E+01 1.09375E+00 0.00000E+00
 -1      1485 3.75120E+01 1.09375E+00 0.00000E+00
 -1      1486 3.73740E+01 2.18750E+00 0.00000E+00
 -1      1487 4.20120E+01 1.09375E+00 0.00000E+00
 -1      1488 4.05120E+01 1.09375E+00 0.00000E+00
 -1      1489 4.03740E+01 2.18750E+00 0.00000E+00
 -1      1490 4.50120E+01 1.09375E+00 0.00000E+00
 -1      1491 4.35120E+01 1.09375E+00 0.00000E+00
 -1      1492 4.33740E+01 2.18750E+00 0.00000E+00
 -1      1493 4.80120E+01 1.09375E+00 0.00000E+00
 -1      1494 4.65120E+01 1.09375E+00 0.00000E+00
 -1      1495 4.63740E+01 2.18750E+00 0.00000E+00
 -1      1496 5.10120E+01 1.09375E+00 0.00000E+00
 -1      1497 4.95120E+01 1.09375E+00 0.00000E+00
 -1      1498 4.93740E+01 2.18750E+00 0.00000E+00
 -1      1499 5.40120E+01 1.09375E+00 0.00000E+00
 -1      1500 5.25120E+01 1.09375E+00 0.00000E+00
 -1      1501 5.23740E+01 2.18750E+00 0.00000E+00
 -1      1502 5.70120E+01 1.09375E+00 0.00000E+00
 -1      1503 5.55120E+01 1.09375E+00 0.00000E+00
 -1      1504 5.53740E+01 2.18750E+00 0.00000E+00
 -1      1505 6.00120E+01 1.09375E+00 0.00000E+00
 -1      1506 5.85120E+01 1.09375E+00 0.00000E+00
 -1      1507 5.83740E+01 2.18750E+00 0.00000E+00
 -1      1508 6.30120E+01 1.09375E+00 0.00000E+00
 -1      1509 6.15120E+01 1.09375E+00 0.00000E+00
 -1      1510 6.13740E+01 2.18750E+00 0.00000E+00
 -1      1511 6.60120E+01 1.09375E+00 0.00000E+00
 -1      1512 6.45120E+01 1.09375E+00 0.00000E+00
 -1      1513 6.43740E+01 2.18750E+00 0.00000E+00
 -1      1514 6.90120E+01 1.09375E+00 0.00000E+00
 -1      1515 6.75120E+01 1.09375E+00 0.00000E+00
 -1      1516 6.73740E+01 2.18750E+00 0.00000E+00
 -1      1517 7.20120E+01 1.09375E+00 0.00000E+00
 -1      1518 7.05120E+01 1.09375E+00 0.00000E+00
 -1      1519 7.03740E+01 2.18750E+00 0.00000E+00
 -1      1520 7.50120E+01 1.09375E+00 0.00000E+00
 -1      1521 7.35120E+01 1.09375E+00 0.00000E+00
 -1      1522 7.33740E+01 2.18750E+00 0.00000E+00
 -1      1523 7.80120E+01 1.09375E+00 0.00000E+00
 -1      1524 7.65120E+01 1.09375E+00 0.00000E+00
 -1      1525 7.63740E+01 2.18750E+00 0.00000E+00
 -1      1526 8.10120E+01 1.09375E+00 0.00000E+00
 -1      1527 7.95120E+01 1.09375E+00 0.00000E+00
 -1      1528 7.93740E+01 2.18750E+00 0.00000E+00
 -1      1529 8.40120E+01 1.09375E+00 0.00000E+00
 -1      1530 8.25120E+01 1.09375E+00 0.00000E+00
 -1      1531 8.23740E+01 2.18750E+00 0.00000E+00
 -1      1532 8.70120E+01 1.09375E+00 0.00000E+00
 -1      1533 8.55120E+01 1.09375E+00 0.00000E+00
 -1      1534 8.53740E+01 2.18750E+00 0.00000E+00
 -1      1535 9.00120E+01 1.09375E+00 0.00000E+00
 -1      1536 8.85120E+01 1.09375E+00 0.00000E+00
 -1      1537 8.83740E+01 2.18750E+00 0.00000E+00
 -1      1538 9.30120E+01 1.09375E+00 0.00000E+00
 -1      1539 9.15120E+01 1.09375E+00 0.00000E+00
 -1      1540 9.13740E+01 2.18750E+00 0.00000E+00
 -1      1541 9.60120E+01 1.09375E+00 0.00000E+00
 -1      1542 9.45120E+01 1.09375E+00 0.00000E+00
 -1      1543 9.43740E+01 2.18750E+00 0.00000E+00
 -1      1544 9.90120E+01 1.09375E+00 0.00000E+00
 -1      1545 9.75120E+01 1.09375E+00 0.00000E+00
 -1      1546 9.73740E+01 2.18750E+00 0.00000E+00
 -1      1547 1.02012E+02 1.09375E+00 0.00000E+00
 -1      1548 1.00512E+02 1.09375E+00 0.00000E+00
 -1      1549 1.00374E+02 2.18750E+00 0.00000E+00
 -1      1550 1.05012E+02 1.09375E+00 0.00000E+00
 -1      1551 1.03512E+02 1.09375E+00 0.00000E+00
 -1      1552 1.03374E+02 2.18750E+00 0.00000E+00
 -1      1553 1.08012E+02 1.09375E+00 0.00000E+00
 -1      1554 1.06512E+02 1.09375E+00 0.00000E+00
 -1      1555 1.06374E+02 2.18750E+00 0.00000E+00
 -1      1556 1.11012E+02 1.09375E+00 0.00000E+00
 -1      1557 1.09512E+02 1.09375E+00 0.00000E+00
 -1      1558 1.09374E+02 2.18750E+00 0.00000E+00
 -1      1559 1.14012E+02 1.09375E+00 0.00000E+00
 -1      1560 1.12512E+02 1.09375E+00 0.00000E+00
 -1      1561 1.12374E+02 2.18750E+00 0.00000E+00
 -1      1562 1.17012E+02 1.09375E+00 0.00000E+00
 -1      1563 1.15512E+02 1.09375E+00 0.00000E+00
 -1      1564 1.15374E+02 2.18750E+00 0.00000E+00
 -1      1565 1.20012E+02 1.09375E+00 0.00000E+00
 -1      1566 1.18512E+02 1.09375E+00 0.00000E+00
 -1      1567 1.18374E+02 2.18750E+00 0.00000E+00
 -1      1568 1.23012E+02 1.09375E+00 0.00000E+00
 -1      1569 1.21512E+02 1.09375E+00 0.00000E+00
 -1      1570 1.21374E+02 2.18750E+00 0.00000E+00
 -1      1571 1.26012E+02 1.09375E+00 0.00000E+00
 -1      1572 1.24512E+02 1.09375E+00 0.00000E+00
 -1      1573 1.24374E+02 2.18750E+00 0.00000E+00
 -1      1574 1.29012E+02 1.09375E+00 0.00000E+00
 -1      1575 1.27512E+02 1.09375E+00 0.00000E+00
 -1      1576 1.27374E+02 2.18750E+00 0.00000E+00
 -1      1577 1.32012E+02 1.09375E+00 0.00000E+00
 -1      1578 1.30512E+02 1.09375E+00 0.00000E+00
 -1      1579 1.30374E+02 2.18750E+00 0.00000E+00
 -1      1580 1.35012E+02 1.09375E+00 0.00000E+00
 -1      1581 1.33512E+02 1.09375E+00 0.00000E+00
 -1      1582 1.33374E+02 2.18750E+00 0.00000E+00
 -1      1583 1.38012E+02 1.09375E+00 0.00000E+00
 -1      1584 1.36512E+02 1.09375E+00 0.00000E+00
 -1      1585 1.36374E+02 2.18750E+00 0.00000E+00
 -1      1586 1.41012E+02 1.09375E+00 0.00000E+00
 -1      1587 1.39512E+02 1.09375E+00 0.00000E+00
 -1      1588 1.39374E+02 2.18750E+00 0.00000E+00
 -1      1589 1.44012E+02 1.09375E+00 0.00000E+00
 -1      1590 1.42512E+02 1.09375E+00 0.00000E+00
 -1      1591 1.42374E+02 2.18750E+00 0.00000E+00
 -1      1592 1.47012E+02 1.09375E+00 0.00000E+00
 -1      1593 1.45512E+02 1.09375E+00 0.00000E+00
 -1      1594 1.45374E+02 2.18750E+00 0.00000E+00
 -1      1595 1.48575E+02 1.47500E+00 0.00000E+00
 -1      1596 1.48701E+02 5.16250E+00 0.00000E+00
 -1      1597 1.48701E+02 3.68750E+00 0.00000E+00
 -1      1598 1.48701E+02 8.11250E+00 0.00000E+00
 -1      1599 1.48701E+02 6.63750E+00 0.00000E+00
 -1      1600 1.47402E+02 5.90000E+00 0.00000E+00
 -1      1601 1.48701E+02 1.10625E+01 0.00000E+00
 -1      1602 1.48701E+02 9.58750E+00 0.00000E+00
 -1      1603 1.47402E+02 8.85000E+00 0.00000E+00
 -1      1604 1.48701E+02 1.40125E+01 0.00000E+00
 -1      1605 1.48701E+02 1.25375E+01 0.00000E+00
 -1      1606 1.47402E+02 1.18000E+01 0.00000E+00
 -1      1607 1.48701E+02 1.69125E+01 0.00000E+00
 -1      1608 1.48701E+02 1.54625E+01 0.00000E+00
 -1      1609 1.47402E+02 1.47250E+01 0.00000E+00
 -1      1610 1.48701E+02 1.98625E+01 0.00000E+00
 -1      1611 1.48701E+02 1.83875E+01 0.00000E+00
 -1      1612 1.47402E+02 1.76500E+01 0.00000E+00
 -1      1613 1.48701E+02 2.28125E+01 0.00000E+00
 -1      1614 1.48701E+02 2.13375E+01 0.00000E+00
 -1      1615 1.47402E+02 2.06000E+01 0.00000E+00
 -1      1616 1.48701E+02 2.57625E+01 0.00000E+00
 -1      1617 1.48701E+02 2.42875E+01 0.00000E+00
 -1      1618 1.47402E+02 2.35500E+01 0.00000E+00
 -1      1619 1.48701E+02 2.87125E+01 0.00000E+00
 -1      1620 1.48701E+02 2.72375E+01 0.00000E+00
 -1      1621 1.47402E+02 2.65000E+01 0.00000E+00
 -1      1622 1.48701E+02 3.16625E+01 0.00000E+00
 -1      1623 1.48701E+02 3.01875E+01 0.00000E+00
 -1      1624 1.47402E+02 2.94500E+01 0.00000E+00
 -1      1625 1.48701E+02 3.45625E+01 0.00000E+00
 -1      1626 1.48701E+02 3.31125E+01 0.00000E+00
 -1      1627 1.47402E+02 3.23750E+01 0.00000E+00
 -1      1628 1.48701E+02 3.75125E+01 0.00000E+00
 -1      1629 1.48701E+02 3.60375E+01 0.00000E+00
 -1      1630 1.47402E+02 3.53000E+01 0.00000E+00
 -1      1631 1.48701E+02 4.04625E+01 0.00000E+00
 -1      1632 1.48701E+02 3.89875E+01 0.00000E+00
 -1      1633 1.47402E+02 3.82500E+01 0.00000E+00
 -1      1634 1.48701E+02 4.34125E+01 0.00000E+00
 -1      1635 1.48701E+02 4.19375E+01 0.00000E+00
 -1      1636 1.47402E+02 4.12000E+01 0.00000E+00
 -1      1637 1.48263E+02 4.60692E+01 0.00000E+00
 -1      1638 1.48263E+02 4.45942E+01 0.00000E+00
 -1      1639 1.46964E+02 4.38568E+01 0.00000E+00
 -1      1640 1.46088E+02 4.62202E+01 0.00000E+00
 -1      1641 5.90697E+01 1.99045E+01 0.00000E+00
 -1      1642 5.91485E+01 2.06430E+01 0.00000E+00
 -1      1643 5.86565E+01 1.82474E+01 0.00000E+00
 -1      1644 5.89105E+01 1.89985E+01 0.00000E+00
 -1      1645 5.77922E+01 1.68611E+01 0.00000E+00
 -1      1646 5.81674E+01 1.74822E+01 0.00000E+00
 -1      1647 5.68065E+01 1.56174E+01 0.00000E+00
 -1      1648 5.73081E+01 1.61532E+01 0.00000E+00
 -1      1649 5.54762E+01 1.46385E+01 0.00000E+00
 -1      1650 5.61098E+01 1.50749E+01 0.00000E+00
 -1      1651 5.40460E+01 1.38607E+01 0.00000E+00
 -1      1652 5.47326E+01 1.41406E+01 0.00000E+00
 -1      1653 5.23459E+01 1.33956E+01 0.00000E+00
 -1      1654 5.31603E+01 1.35293E+01 0.00000E+00
 -1      1655 5.07308E+01 1.35455E+01 0.00000E+00
 -1      1656 5.14300E+01 1.35065E+01 0.00000E+00
 -1      1657 4.91681E+01 1.38342E+01 0.00000E+00
 -1      1658 4.98873E+01 1.36410E+01 0.00000E+00
 -1      1659 4.75266E+01 1.44484E+01 0.00000E+00
 -1      1660 4.82521E+01 1.40646E+01 0.00000E+00
 -1      1661 4.63273E+01 1.55479E+01 0.00000E+00
 -1      1662 4.68643E+01 1.50910E+01 0.00000E+00
 -1      1663 4.52045E+01 1.67286E+01 0.00000E+00
 -1      1664 4.56712E+01 1.61212E+01 0.00000E+00
 -1      1665 4.45136E+01 1.81531E+01 0.00000E+00
 -1      1666 4.48184E+01 1.75125E+01 0.00000E+00
 -1      1667 4.39824E+01 1.96170E+01 0.00000E+00
 -1      1668 4.41530E+01 1.89190E+01 0.00000E+00
 -1      1669 4.37675E+01 2.13203E+01 0.00000E+00
 -1      1670 4.37850E+01 2.05155E+01 0.00000E+00
 -1      1671 4.41392E+01 2.28848E+01 0.00000E+00
 -1      1672 4.40047E+01 2.21990E+01 0.00000E+00
 -1      1673 4.45959E+01 2.44856E+01 0.00000E+00
 -1      1674 4.42846E+01 2.37621E+01 0.00000E+00
 -1      1675 4.55157E+01 2.58641E+01 0.00000E+00
 -1      1676 4.50815E+01 2.52626E+01 0.00000E+00
 -1      1677 4.67484E+01 2.71854E+01 0.00000E+00
 -1      1678 4.61053E+01 2.66246E+01 0.00000E+00
 -1      1679 4.82714E+01 2.79383E+01 0.00000E+00
 -1      1680 4.76196E+01 2.75913E+01 0.00000E+00
 -1      1681 4.97992E+01 2.85514E+01 0.00000E+00
 -1      1682 4.90633E+01 2.83444E+01 0.00000E+00
 -1      1683 5.15020E+01 2.87408E+01 0.00000E+00
 -1      1684 5.07129E+01 2.87001E+01 0.00000E+00
 -1      1685 5.31697E+01 2.85597E+01 0.00000E+00
 -1      1686 5.24225E+01 2.86880E+01 0.00000E+00
 -1      1687 5.48351E+01 2.80686E+01 0.00000E+00
 -1      1688 5.40939E+01 2.83763E+01 0.00000E+00
 -1      1689 5.61745E+01 2.71030E+01 0.00000E+00
 -1      1690 5.55793E+01 2.75213E+01 0.00000E+00
 -1      1691 5.73471E+01 2.59680E+01 0.00000E+00
 -1      1692 5.68328E+01 2.65249E+01 0.00000E+00
 -1      1693 5.82035E+01 2.46210E+01 0.00000E+00
 -1      1694 5.78346E+01 2.52457E+01 0.00000E+00
 -1      1695 5.88359E+01 2.31428E+01 0.00000E+00
 -1      1696 5.85990E+01 2.38515E+01 0.00000E+00
 -1      1697 5.91056E+01 2.15295E+01 0.00000E+00
 -1      1698 5.90245E+01 2.22783E+01 0.00000E+00
 -1      1699 5.68337E+01 1.49000E+01 0.00000E+00
 -1      1700 5.80146E+01 1.61503E+01 0.00000E+00
 -1      1701 1.48437E+02 2.56875E+00 0.00000E+00
 -1      1702 1.47138E+02 3.30625E+00 0.00000E+00
 -1      1703 5.96360E+01 1.92945E+01 0.00000E+00
 -1      1704 5.89877E+01 1.76233E+01 0.00000E+00
 -1      1705 5.97523E+01 2.10871E+01 0.00000E+00
 -1      1706 5.53933E+01 1.38596E+01 0.00000E+00
 -1      1707 5.37641E+01 1.30303E+01 0.00000E+00
 -1      1708 5.19626E+01 1.28098E+01 0.00000E+00
 -1      1709 5.02031E+01 1.30162E+01 0.00000E+00
 -1      1710 4.84435E+01 1.33421E+01 0.00000E+00
 -1      1711 4.68653E+01 1.42151E+01 0.00000E+00
 -1      1712 4.55469E+01 1.54311E+01 0.00000E+00
 -1      1713 4.45047E+01 1.67884E+01 0.00000E+00
 -1      1714 4.37580E+01 1.83382E+01 0.00000E+00
 -1      1715 4.32000E+01 2.00026E+01 0.00000E+00
 -1      1716 4.32399E+01 2.17798E+01 0.00000E+00
 -1      1717 4.36225E+01 2.35358E+01 0.00000E+00
 -1      1718 4.42536E+01 2.51902E+01 0.00000E+00
 -1      1719 4.53287E+01 2.67277E+01 0.00000E+00
 -1      1720 4.67894E+01 2.78940E+01 0.00000E+00
 -1      1721 4.84525E+01 2.87060E+01 0.00000E+00
 -1      1722 5.01582E+01 2.92608E+01 0.00000E+00
 -1      1723 5.19924E+01 2.93567E+01 0.00000E+00
 -1      1724 5.38370E+01 2.91205E+01 0.00000E+00
 -1      1725 5.55053E+01 2.83898E+01 0.00000E+00
 -1      1726 5.69078E+01 2.72643E+01 0.00000E+00
 -1      1727 5.80536E+01 2.59639E+01 0.00000E+00
 -1      1728 5.89366E+01 2.44721E+01 0.00000E+00
 -1      1729 5.95207E+01 2.28381E+01 0.00000E+00
 -1      1730 2.87400E+00 4.77875E+01 0.00000E+00
 -1      1731 3.89700E+00 4.04125E+01 0.00000E+00
 -1      1732 3.89700E+00 4.18875E+01 0.00000E+00
 -1      1733 3.89700E+00 4.33625E+01 0.00000E+00
 -1      1734 3.89700E+00 4.48375E+01 0.00000E+00
 -1      1735 5.19600E+00 4.26250E+01 0.00000E+00
 -1      1736 3.89700E+00 3.45500E+01 0.00000E+00
 -1      1737 3.89700E+00 3.60000E+01 0.00000E+00
 -1      1738 3.89700E+00 3.16000E+01 0.00000E+00
 -1      1739 3.89700E+00 3.30750E+01 0.00000E+00
 -1      1740 5.19600E+00 3.38000E+01 0.00000E+00
 -1      1741 3.89700E+00 2.86500E+01 0.00000E+00
 -1      1742 3.89700E+00 3.01250E+01 0.00000E+00
 -1      1743 5.19600E+00 3.08500E+01 0.00000E+00
 -1      1744 3.89700E+00 2.57000E+01 0.00000E+00
 -1      1745 3.89700E+00 2.71750E+01 0.00000E+00
 -1      1746 5.19600E+00 2.79000E+01 0.00000E+00
 -1      1747 3.89700E+00 2.27500E+01 0.00000E+00
 -1      1748 3.89700E+00 2.42250E+01 0.00000E+00
 -1      1749 5.19600E+00 2.49500E+01 0.00000E+00
 -1      1750 3.89700E+00 1.98000E+01 0.00000E+00
 -1      1751 3.89700E+00 2.12750E+01 0.00000E+00
 -1      1752 5.19600E+00 2.20000E+01 0.00000E+00
 -1      1753 3.89700E+00 1.69000E+01 0.00000E+00
 -1      1754 3.89700E+00 1.83500E+01 0.00000E+00
 -1      1755 5.19600E+00 1.90750E+01 0.00000E+00
 -1      1756 3.89700E+00 1.39500E+01 0.00000E+00
 -1      1757 3.89700E+00 1.54250E+01 0.00000E+00
 -1      1758 5.19600E+00 1.61500E+01 0.00000E+00
 -1      1759 3.89700E+00 1.10000E+01 0.00000E+00
 -1      1760 3.89700E+00 1.24750E+01 0.00000E+00
 -1      1761 5.19600E+00 1.32000E+01 0.00000E+00
 -1      1762 3.89700E+00 8.05000E+00 0.00000E+00
 -1      1763 3.89700E+00 9.52500E+00 0.00000E+00
 -1      1764 5.19600E+00 1.02500E+01 0.00000E+00
 -1      1765 3.89700E+00 5.10000E+00 0.00000E+00
 -1      1766 3.89700E+00 6.57500E+00 0.00000E+00
 -1      1767 5.19600E+00 7.30000E+00 0.00000E+00
 -1      1768 4.20450E+00 3.09687E+00 0.00000E+00
 -1      1769 4.06650E+00 4.19063E+00 0.00000E+00
 -1      1770 5.36550E+00 4.91563E+00 0.00000E+00
 -1      1771 5.70450E+00 3.09687E+00 0.00000E+00
 -1      1772 3.62400E+00 4.64885E+01 0.00000E+00
 -1      1773 8.70450E+00 3.09687E+00 0.00000E+00
 -1      1774 7.20450E+00 3.09687E+00 0.00000E+00
 -1      1775 7.03500E+00 4.00625E+00 0.00000E+00
 -1      1776 4.92300E+00 4.57510E+01 0.00000E+00
 -1      1777 8.40000E+00 4.61030E+01 0.00000E+00
 -1      1778 9.90000E+00 4.61030E+01 0.00000E+00
 -1      1779 1.14000E+01 4.61030E+01 0.00000E+00
 -1      1780 1.29000E+01 4.61030E+01 0.00000E+00
 -1      1781 1.06500E+01 4.48040E+01 0.00000E+00
 -1      1782 1.44000E+01 4.61030E+01 0.00000E+00
 -1      1783 1.59000E+01 4.61030E+01 0.00000E+00
 -1      1784 1.36500E+01 4.48040E+01 0.00000E+00
 -1      1785 1.74000E+01 4.61030E+01 0.00000E+00
 -1      1786 1.89000E+01 4.61030E+01 0.00000E+00
 -1      1787 1.66500E+01 4.48040E+01 0.00000E+00
 -1      1788 2.04000E+01 4.61030E+01 0.00000E+00
 -1      1789 2.19000E+01 4.61030E+01 0.00000E+00
 -1      1790 1.96500E+01 4.48040E+01 0.00000E+00
 -1      1791 2.34000E+01 4.61030E+01 0.00000E+00
 -1      1792 2.49000E+01 4.61030E+01 0.00000E+00
 -1      1793 2.26500E+01 4.48040E+01 0.00000E+00
 -1      1794 2.64000E+01 4.61030E+01 0.00000E+00
 -1      1795 2.79000E+01 4.61030E+01 0.00000E+00
 -1      1796 2.56500E+01 4.48040E+01 0.00000E+00
 -1      1797 2.94000E+01 4.61030E+01 0.00000E+00
 -1      1798 3.09000E+01 4.61030E+01 0.00000E+00
 -1      1799 2.86500E+01 4.48040E+01 0.00000E+00
 -1      1800 3.24000E+01 4.61030E+01 0.00000E+00
 -1      1801 3.39000E+01 4.61030E+01 0.00000E+00
 -1      1802 3.16500E+01 4.48040E+01 0.00000E+00
 -1      1803 3.54000E+01 4.61030E+01 0.00000E+00
 -1      1804 3.69000E+01 4.61030E+01 0.00000E+00
 -1      1805 3.46500E+01 4.48040E+01 0.00000E+00
 -1      1806 3.84000E+01 4.61030E+01 0.00000E+00
 -1      1807 3.99000E+01 4.61030E+01 0.00000E+00
 -1      1808 3.76500E+01 4.48040E+01 0.00000E+00
 -1      1809 4.14000E+01 4.61030E+01 0.00000E+00
 -1      1810 4.29000E+01 4.61030E+01 0.00000E+00
 -1      1811 4.06500E+01 4.48040E+01 0.00000E+00
 -1      1812 4.44000E+01 4.61030E+01 0.00000E+00
 -1      1813 4.59000E+01 4.61030E+01 0.00000E+00
 -1      1814 4.36500E+01 4.48040E+01 0.00000E+00
 -1      1815 4.74000E+01 4.61030E+01 0.00000E+00
 -1      1816 4.89000E+01 4.61030E+01 0.00000E+00
 -1      1817 4.66500E+01 4.48040E+01 0.00000E+00
 -1      1818 5.04000E+01 4.61030E+01 0.00000E+00
 -1      1819 5.19000E+01 4.61030E+01 0.00000E+00
 -1      1820 4.96500E+01 4.48040E+01 0.00000E+00
 -1      1821 5.34000E+01 4.61030E+01 0.00000E+00
 -1      1822 5.49000E+01 4.61030E+01 0.00000E+00
 -1      1823 5.26500E+01 4.48040E+01 0.00000E+00
 -1      1824 5.64000E+01 4.61030E+01 0.00000E+00
 -1      1825 5.79000E+01 4.61030E+01 0.00000E+00
 -1      1826 5.56500E+01 4.48040E+01 0.00000E+00
 -1      1827 5.94000E+01 4.61030E+01 0.00000E+00
 -1      1828 6.09000E+01 4.61030E+01 0.00000E+00
 -1      1829 5.86500E+01 4.48040E+01 0.00000E+00
 -1      1830 6.24000E+01 4.61030E+01 0.00000E+00
 -1      1831 6.39000E+01 4.61030E+01 0.00000E+00
 -1      1832 6.16500E+01 4.48040E+01 0.00000E+00
 -1      1833 6.54000E+01 4.61030E+01 0.00000E+00
 -1      1834 6.69000E+01 4.61030E+01 0.00000E+00
 -1      1835 6.46500E+01 4.48040E+01 0.00000E+00
 -1      1836 6.84000E+01 4.61030E+01 0.00000E+00
 -1      1837 6.99000E+01 4.61030E+01 0.00000E+00
 -1      1838 6.76500E+01 4.48040E+01 0.00000E+00
 -1      1839 7.14000E+01 4.61030E+01 0.00000E+00
 -1      1840 7.29000E+01 4.61030E+01 0.00000E+00
 -1      1841 7.06500E+01 4.48040E+01 0.00000E+00
 -1      1842 7.44000E+01 4.61030E+01 0.00000E+00
 -1      1843 7.59000E+01 4.61030E+01 0.00000E+00
 -1      1844 7.36500E+01 4.48040E+01 0.00000E+00
 -1      1845 7.74000E+01 4.61030E+01 0.00000E+00
 -1      1846 7.89000E+01 4.61030E+01 0.00000E+00
 -1      1847 7.66500E+01 4.48040E+01 0.00000E+00
 -1      1848 8.04000E+01 4.61030E+01 0.00000E+00
 -1      1849 8.19000E+01 4.61030E+01 0.00000E+00
 -1      1850 7.96500E+01 4.48040E+01 0.00000E+00
 -1      1851 8.34000E+01 4.61030E+01 0.00000E+00
 -1      1852 8.49000E+01 4.61030E+01 0.00000E+00
 -1      1853 8.26500E+01 4.48040E+01 0.00000E+00
 -1      1854 8.64000E+01 4.61030E+01 0.00000E+00
 -1      1855 8.79000E+01 4.61030E+01 0.00000E+00
 -1      1856 8.56500E+01 4.48040E+01 0.00000E+00
 -1      1857 8.94000E+01 4.61030E+01 0.00000E+00
 -1      1858 9.09000E+01 4.61030E+01 0.00000E+00
 -1      1859 8.86500E+01 4.48040E+01 0.00000E+00
 -1      1860 9.24000E+01 4.61030E+01 0.00000E+00
 -1      1861 9.39000E+01 4.61030E+01 0.00000E+00
 -1      1862 9.16500E+01 4.48040E+01 0.00000E+00
 -1      1863 9.54000E+01 4.61030E+01 0.00000E+00
 -1      1864 9.69000E+01 4.61030E+01 0.00000E+00
 -1      1865 9.46500E+01 4.48040E+01 0.00000E+00
 -1      1866 9.84000E+01 4.61030E+01 0.00000E+00
 -1      1867 9.99000E+01 4.61030E+01 0.00000E+00
 -1      1868 9.76500E+01 4.48040E+01 0.00000E+00
 -1      1869 1.01400E+02 4.61030E+01 0.00000E+00
 -1      1870 1.02900E+02 4.61030E+01 0.00000E+00
 -1      1871 1.00650E+02 4.48040E+01 0.00000E+00
 -1      1872 1.04400E+02 4.61030E+01 0.00000E+00
 -1      1873 1.05900E+02 4.61030E+01 0.00000E+00
 -1      1874 1.03650E+02 4.48040E+01 0.00000E+00
 -1      1875 1.07400E+02 4.61030E+01 0.00000E+00
 -1      1876 1.08900E+02 4.61030E+01 0.00000E+00
 -1      1877 1.06650E+02 4.48040E+01 0.00000E+00
 -1      1878 1.10400E+02 4.61030E+01 0.00000E+00
 -1      1879 1.11900E+02 4.61030E+01 0.00000E+00
 -1      1880 1.09650E+02 4.48040E+01 0.00000E+00
 -1      1881 1.13400E+02 4.61030E+01 0.00000E+00
 -1      1882 1.14900E+02 4.61030E+01 0.00000E+00
 -1      1883 1.12650E+02 4.48040E+01 0.00000E+00
 -1      1884 1.16400E+02 4.61030E+01 0.00000E+00
 -1      1885 1.17900E+02 4.61030E+01 0.00000E+00
 -1      1886 1.15650E+02 4.48040E+01 0.00000E+00
 -1      1887 1.19400E+02 4.61030E+01 0.00000E+00
 -1      1888 1.20900E+02 4.61030E+01 0.00000E+00
 -1      1889 1.18650E+02 4.48040E+01 0.00000E+00
 -1      1890 1.22400E+02 4.61030E+01 0.00000E+00
 -1      1891 1.23900E+02 4.61030E+01 0.00000E+00
 -1      1892 1.21650E+02 4.48040E+01 0.00000E+00
 -1      1893 1.25400E+02 4.61030E+01 0.00000E+00
 -1      1894 1.26900E+02 4.61030E+01 0.00000E+00
 -1      1895 1.24650E+02 4.48040E+01 0.00000E+00
 -1      1896 1.28400E+02 4.61030E+01 0.00000E+00
 -1      1897 1.29900E+02 4.61030E+01 0.00000E+00
 -1      1898 1.27650E+02 4.48040E+01 0.00000E+00
 -1      1899 1.31400E+02 4.61030E+01 0.00000E+00
 -1      1900 1.32900E+02 4.61030E+01 0.00000E+00
 -1      1901 1.30650E+02 4.48040E+01 0.00000E+00
 -1      1902 1.34400E+02 4.61030E+01 0.00000E+00
 -1      1903 1.35900E+02 4.61030E+01 0.00000E+00
 -1      1904 1.33650E+02 4.48040E+01 0.00000E+00
 -1      1905 1.37400E+02 4.61030E+01 0.00000E+00
 -1      1906 1.38900E+02 4.61030E+01 0.00000E+00
 -1      1907 1.36650E+02 4.48040E+01 0.00000E+00
 -1      1908 1.40400E+02 4.61030E+01 0.00000E+00
 -1      1909 1.41900E+02 4.61030E+01 0.00000E+00
 -1      1910 1.39650E+02 4.48040E+01 0.00000E+00
 -1      1911 1.43244E+02 4.61616E+01 0.00000E+00
 -1      1912 1.44744E+02 4.61616E+01 0.00000E+00
 -1      1913 1.45182E+02 4.49799E+01 0.00000E+00
 -1      1914 1.42494E+02 4.48626E+01 0.00000E+00
 -1      1915 1.17045E+01 3.09687E+00 0.00000E+00
 -1      1916 1.02045E+01 3.09687E+00 0.00000E+00
 -1      1917 1.00350E+01 4.00625E+00 0.00000E+00
 -1      1918 1.47045E+01 3.09687E+00 0.00000E+00
 -1      1919 1.32045E+01 3.09687E+00 0.00000E+00
 -1      1920 1.30350E+01 4.00625E+00 0.00000E+00
 -1      1921 1.77045E+01 3.09687E+00 0.00000E+00
 -1      1922 1.62045E+01 3.09687E+00 0.00000E+00
 -1      1923 1.60350E+01 4.00625E+00 0.00000E+00
 -1      1924 2.07045E+01 3.09687E+00 0.00000E+00
 -1      1925 1.92045E+01 3.09687E+00 0.00000E+00
 -1      1926 1.90350E+01 4.00625E+00 0.00000E+00
 -1      1927 2.37045E+01 3.09687E+00 0.00000E+00
 -1      1928 2.22045E+01 3.09687E+00 0.00000E+00
 -1      1929 2.20350E+01 4.00625E+00 0.00000E+00
 -1      1930 2.67045E+01 3.09687E+00 0.00000E+00
 -1      1931 2.52045E+01 3.09687E+00 0.00000E+00
 -1      1932 2.50350E+01 4.00625E+00 0.00000E+00
 -1      1933 2.97045E+01 3.09687E+00 0.00000E+00
 -1      1934 2.82045E+01 3.09687E+00 0.00000E+00
 -1      1935 2.80350E+01 4.00625E+00 0.00000E+00
 -1      1936 3.27045E+01 3.09687E+00 0.00000E+00
 -1      1937 3.12045E+01 3.09687E+00 0.00000E+00
 -1      1938 3.10350E+01 4.00625E+00 0.00000E+00
 -1      1939 3.57045E+01 3.09687E+00 0.00000E+00
 -1      1940 3.42045E+01 3.09687E+00 0.00000E+00
 -1      1941 3.40350E+01 4.00625E+00 0.00000E+00
 -1      1942 3.87045E+01 3.09687E+00 0.00000E+00
 -1      1943 3.72045E+01 3.09687E+00 0.00000E+00
 -1      1944 3.70350E+01 4.00625E+00 0.00000E+00
 -1      1945 4.17045E+01 3.09687E+00 0.00000E+00
 -1      1946 4.02045E+01 3.09687E+00 0.00000E+00
 -1      1947 4.00350E+01 4.00625E+00 0.00000E+00
 -1      1948 4.47045E+01 3.09687E+00 0.00000E+00
 -1      1949 4.32045E+01 3.09687E+00 0.00000E+00
 -1      1950 4.30350E+01 4.00625E+00 0.00000E+00
 -1      1951 4.77045E+01 3.09687E+00 0.00000E+00
 -1      1952 4.62045E+01 3.09687E+00 0.00000E+00
 -1      1953 4.60350E+01 4.00625E+00 0.00000E+00
 -1      1954 5.07045E+01 3.09687E+00 0.00000E+00
 -1      1955 4.92045E+01 3.09687E+00 0.00000E+00
 -1      1956 4.90350E+01 4.00625E+00 0.00000E+00
 -1      1957 5.37045E+01 3.09687E+00 0.00000E+00
 -1      1958 5.22045E+01 3.09687E+00 0.00000E+00
 -1      1959 5.20350E+01 4.00625E+00 0.00000E+00
 -1      1960 5.67045E+01 3.09687E+00 0.00000E+00
 -1      1961 5.52045E+01 3.09687E+00 0.00000E+00
 -1      1962 5.50350E+01 4.00625E+00 0.00000E+00
 -1      1963 5.97045E+01 3.09687E+00 0.00000E+00
 -1      1964 5.82045E+01 3.09687E+00 0.00000E+00
 -1      1965 5.80350E+01 4.00625E+00 0.00000E+00
 -1      1966 6.27045E+01 3.09687E+00 0.00000E+00
 -1      1967 6.12045E+01 3.09687E+00 0.00000E+00
 -1      1968 6.10350E+01 4.00625E+00 0.00000E+00
 -1      1969 6.57045E+01 3.09687E+00 0.00000E+00
 -1      1970 6.42045E+01 3.09687E+00 0.00000E+00
 -1      1971 6.40350E+01 4.00625E+00 0.00000E+00
 -1      1972 6.87045E+01 3.09687E+00 0.00000E+00
 -1      1973 6.72045E+01 3.09687E+00 0.00000E+00
 -1      1974 6.70350E+01 4.00625E+00 0.00000E+00
 -1      1975 7.17045E+01 3.09687E+00 0.00000E+00
 -1      1976 7.02045E+01 3.09687E+00 0.00000E+00
 -1      1977 7.00350E+01 4.00625E+00 0.00000E+00
 -1      1978 7.47045E+01 3.09687E+00 0.00000E+00
 -1      1979 7.32045E+01 3.09687E+00 0.00000E+00
 -1      1980 7.30350E+01 4.00625E+00 0.00000E+00
 -1      1981 7.77045E+01 3.09687E+00 0.00000E+00
 -1      1982 7.62045E+01 3.09687E+00 0.00000E+00
 -1      1983 7.60350E+01 4.00625E+00 0.00000E+00
 -1      1984 8.07045E+01 3.09687E+00 0.00000E+00
 -1      1985 7.92045E+01 3.09687E+00 0.00000E+00
 -1      1986 7.90350E+01 4.00625E+00 0.00000E+00
 -1      1987 8.37045E+01 3.09687E+00 0.00000E+00
 -1      1988 8.22045E+01 3.09687E+00 0.00000E+00
 -1      1989 8.20350E+01 4.00625E+00 0.00000E+00
 -1      1990 8.67045E+01 3.09687E+00 0.00000E+00
 -1      1991 8.52045E+01 3.09687E+00 0.00000E+00
 -1      1992 8.50350E+01 4.00625E+00 0.00000E+00
 -1      1993 8.97045E+01 3.09687E+00 0.00000E+00
 -1      1994 8.82045E+01 3.09687E+00 0.00000E+00
 -1      1995 8.80350E+01 4.00625E+00 0.00000E+00
 -1      1996 9.27045E+01 3.09687E+00 0.00000E+00
 -1      1997 9.12045E+01 3.09687E+00 0.00000E+00
 -1      1998 9.10350E+01 4.00625E+00 0.00000E+00
 -1      1999 9.57045E+01 3.09687E+00 0.00000E+00
 -1      2000 9.42045E+01 3.09687E+00 0.00000E+00
 -1      2001 9.40350E+01 4.00625E+00 0.00000E+00
 -1      2002 9.87045E+01 3.09687E+00 0.00000E+00
 -1      2003 9.72045E+01 3.09687E+00 0.00000E+00
 -1      2004 9.70350E+01 4.00625E+00 0.00000E+00
 -1      2005 1.01704E+02 3.09687E+00 0.00000E+00
 -1      2006 1.00204E+02 3.09687E+00 0.00000E+00
 -1      2007 1.00035E+02 4.00625E+00 0.00000E+00
 -1      2008 1.04704E+02 3.09687E+00 0.00000E+00
 -1      2009 1.03204E+02 3.09687E+00 0.00000E+00
 -1      2010 1.03035E+02 4.00625E+00 0.00000E+00
 -1      2011 1.07704E+02 3.09687E+00 0.00000E+00
 -1      2012 1.06204E+02 3.09687E+00 0.00000E+00
 -1      2013 1.06035E+02 4.00625E+00 0.00000E+00
 -1      2014 1.10704E+02 3.09687E+00 0.00000E+00
 -1      2015 1.09204E+02 3.09687E+00 0.00000E+00
 -1      2016 1.09035E+02 4.00625E+00 0.00000E+00
 -1      2017 1.13704E+02 3.09687E+00 0.00000E+00
 -1      2018 1.12204E+02 3.09687E+00 0.00000E+00
 -1      2019 1.12035E+02 4.00625E+00 0.00000E+00
 -1      2020 1.16704E+02 3.09687E+00 0.00000E+00
 -1      2021 1.15204E+02 3.09687E+00 0.00000E+00
 -1      2022 1.15035E+02 4.00625E+00 0.00000E+00
 -1      2023 1.19704E+02 3.09687E+00 0.00000E+00
 -1      2024 1.18204E+02 3.09687E+00 0.00000E+00
 -1      2025 1.18035E+02 4.00625E+00 0.00000E+00
 -1      2026 1.22704E+02 3.09687E+00 0.00000E+00
 -1      2027 1.21204E+02 3.09687E+00 0.00000E+00
 -1      2028 1.21035E+02 4.00625E+00 0.00000E+00
 -1      2029 1.25704E+02 3.09687E+00 0.00000E+00
 -1      2030 1.24204E+02 3.09687E+00 0.00000E+00
 -1      2031 1.24035E+02 4.00625E+00 0.00000E+00
 -1      2032 1.28704E+02 3.09687E+00 0.00000E+00
 -1      2033 1.27204E+02 3.09687E+00 0.00000E+00
 -1      2034 1.27035E+02 4.00625E+00 0.00000E+00
 -1      2035 1.31704E+02 3.09687E+00 0.00000E+00
 -1      2036 1.30204E+02 3.09687E+00 0.00000E+00
 -1      2037 1.30035E+02 4.00625E+00 0.00000E+00
 -1      2038 1.34704E+02 3.09687E+00 0.00000E+00
 -1      2039 1.33204E+02 3.09687E+00 0.00000E+00
 -1      2040 1.33035E+02 4.00625E+00 0.00000E+00
 -1      2041 1.37704E+02 3.09687E+00 0.00000E+00
 -1      2042 1.36204E+02 3.09687E+00 0.00000E+00
 -1      2043 1.36035E+02 4.00625E+00 0.00000E+00
 -1      2044 1.40704E+02 3.09687E+00 0.00000E+00
 -1      2045 1.39204E+02 3.09687E+00 0.00000E+00
 -1      2046 1.39035E+02 4.00625E+00 0.00000E+00
 -1      2047 1.43704E+02 3.09687E+00 0.00000E+00
 -1      2048 1.42204E+02 3.09687E+00 0.00000E+00
 -1      2049 1.42035E+02 4.00625E+00 0.00000E+00
 -1      2050 1.46171E+02 3.20156E+00 0.00000E+00
 -1      2051 1.44671E+02 3.20156E+00 0.00000E+00
 -1      2052 1.44502E+02 4.11094E+00 0.00000E+00
 -1      2053 1.46435E+02 4.32031E+00 0.00000E+00
 -1      2054 1.46103E+02 1.25375E+01 0.00000E+00
 -1      2055 1.46103E+02 1.10625E+01 0.00000E+00
 -1      2056 1.46103E+02 9.58750E+00 0.00000E+00
 -1      2057 1.46103E+02 8.11250E+00 0.00000E+00
 -1      2058 1.44804E+02 1.03250E+01 0.00000E+00
 -1      2059 1.46269E+02 6.95391E+00 0.00000E+00
 -1      2060 1.46269E+02 5.47891E+00 0.00000E+00
 -1      2061 1.45302E+02 5.37422E+00 0.00000E+00
 -1      2062 1.44970E+02 7.69141E+00 0.00000E+00
 -1      2063 1.46103E+02 1.54375E+01 0.00000E+00
 -1      2064 1.46103E+02 1.39875E+01 0.00000E+00
 -1      2065 1.44804E+02 1.32500E+01 0.00000E+00
 -1      2066 1.46103E+02 1.83875E+01 0.00000E+00
 -1      2067 1.46103E+02 1.69125E+01 0.00000E+00
 -1      2068 1.44804E+02 1.61750E+01 0.00000E+00
 -1      2069 1.46103E+02 2.13375E+01 0.00000E+00
 -1      2070 1.46103E+02 1.98625E+01 0.00000E+00
 -1      2071 1.44804E+02 1.91250E+01 0.00000E+00
 -1      2072 1.46103E+02 2.42875E+01 0.00000E+00
 -1      2073 1.46103E+02 2.28125E+01 0.00000E+00
 -1      2074 1.44804E+02 2.20750E+01 0.00000E+00
 -1      2075 1.46103E+02 2.72375E+01 0.00000E+00
 -1      2076 1.46103E+02 2.57625E+01 0.00000E+00
 -1      2077 1.44804E+02 2.50250E+01 0.00000E+00
 -1      2078 1.46103E+02 3.01875E+01 0.00000E+00
 -1      2079 1.46103E+02 2.87125E+01 0.00000E+00
 -1      2080 1.44804E+02 2.79750E+01 0.00000E+00
 -1      2081 1.46103E+02 3.30875E+01 0.00000E+00
 -1      2082 1.46103E+02 3.16375E+01 0.00000E+00
 -1      2083 1.44804E+02 3.09000E+01 0.00000E+00
 -1      2084 1.46103E+02 3.60375E+01 0.00000E+00
 -1      2085 1.46103E+02 3.45625E+01 0.00000E+00
 -1      2086 1.44804E+02 3.38250E+01 0.00000E+00
 -1      2087 1.46103E+02 3.89875E+01 0.00000E+00
 -1      2088 1.46103E+02 3.75125E+01 0.00000E+00
 -1      2089 1.44804E+02 3.67750E+01 0.00000E+00
 -1      2090 1.46103E+02 4.19375E+01 0.00000E+00
 -1      2091 1.46103E+02 4.04625E+01 0.00000E+00
 -1      2092 1.44804E+02 3.97250E+01 0.00000E+00
 -1      2093 5.92893E+01 1.68917E+01 0.00000E+00
 -1      2094 5.97783E+01 1.76569E+01 0.00000E+00
 -1      2095 6.05047E+01 2.06792E+01 0.00000E+00
 -1      2096 6.04618E+01 2.15657E+01 0.00000E+00
 -1      2097 6.02360E+01 1.87221E+01 0.00000E+00
 -1      2098 6.03951E+01 1.96281E+01 0.00000E+00
 -1      2099 5.84112E+01 1.53596E+01 0.00000E+00
 -1      2100 5.88953E+01 1.60675E+01 0.00000E+00
 -1      2101 5.69092E+01 1.40843E+01 0.00000E+00
 -1      2102 5.76059E+01 1.46268E+01 0.00000E+00
 -1      2103 3.89700E+00 3.74688E+01 0.00000E+00
 -1      2104 3.89700E+00 3.89437E+01 0.00000E+00
 -1      2105 5.19600E+00 3.96813E+01 0.00000E+00
 -1      2106 5.19600E+00 3.67438E+01 0.00000E+00
 -1      2107 5.35924E+01 1.21399E+01 0.00000E+00
 -1      2108 5.44781E+01 1.24713E+01 0.00000E+00
 -1      2109 5.14217E+01 1.21803E+01 0.00000E+00
 -1      2110 5.23375E+01 1.20694E+01 0.00000E+00
 -1      2111 4.97345E+01 1.23712E+01 0.00000E+00
 -1      2112 5.05781E+01 1.22758E+01 0.00000E+00
 -1      2113 5.09531E+01 1.15353E+01 0.00000E+00
 -1      2114 4.77968E+01 1.27069E+01 0.00000E+00
 -1      2115 4.87128E+01 1.24765E+01 0.00000E+00
 -1      2116 4.59953E+01 1.39811E+01 0.00000E+00
 -1      2117 4.66576E+01 1.33385E+01 0.00000E+00
 -1      2118 4.46831E+01 1.51278E+01 0.00000E+00
 -1      2119 4.53392E+01 1.45545E+01 0.00000E+00
 -1      2120 4.51315E+01 1.36778E+01 0.00000E+00
 -1      2121 4.36175E+01 1.68385E+01 0.00000E+00
 -1      2122 4.40036E+01 1.60545E+01 0.00000E+00
 -1      2123 4.28963E+01 1.83703E+01 0.00000E+00
 -1      2124 4.32569E+01 1.76044E+01 0.00000E+00
 -1      2125 4.27558E+01 1.68705E+01 0.00000E+00
 -1      2126 4.23456E+01 2.02858E+01 0.00000E+00
 -1      2127 4.25430E+01 1.93873E+01 0.00000E+00
 -1      2128 4.27328E+01 2.23881E+01 0.00000E+00
 -1      2129 4.24956E+01 2.15094E+01 0.00000E+00
 -1      2130 4.30237E+01 2.41427E+01 0.00000E+00
 -1      2131 4.28782E+01 2.32654E+01 0.00000E+00
 -1      2132 4.21339E+01 2.29949E+01 0.00000E+00
 -1      2133 4.39112E+01 2.59443E+01 0.00000E+00
 -1      2134 4.34256E+01 2.51673E+01 0.00000E+00
 -1      2135 4.50782E+01 2.75307E+01 0.00000E+00
 -1      2136 4.44886E+01 2.67702E+01 0.00000E+00
 -1      2137 4.69513E+01 2.86844E+01 0.00000E+00
 -1      2138 4.60802E+01 2.82786E+01 0.00000E+00
 -1      2139 4.85352E+01 2.94967E+01 0.00000E+00
 -1      2140 4.77433E+01 2.90905E+01 0.00000E+00
 -1      2141 4.70340E+01 2.94751E+01 0.00000E+00
 -1      2142 5.04773E+01 3.01816E+01 0.00000E+00
 -1      2143 4.95636E+01 3.00329E+01 0.00000E+00
 -1      2144 5.24898E+01 2.99773E+01 0.00000E+00
 -1      2145 5.15692E+01 3.00301E+01 0.00000E+00
 -1      2146 5.44660E+01 2.98699E+01 0.00000E+00
 -1      2147 5.35419E+01 3.00533E+01 0.00000E+00
 -1      2148 5.63110E+01 2.87057E+01 0.00000E+00
 -1      2149 5.55668E+01 2.92530E+01 0.00000E+00
 -1      2150 5.76646E+01 2.74622E+01 0.00000E+00
 -1      2151 5.70063E+01 2.80403E+01 0.00000E+00
 -1      2152 5.89387E+01 2.60356E+01 0.00000E+00
 -1      2153 5.84512E+01 2.67579E+01 0.00000E+00
 -1      2154 5.97108E+01 2.43836E+01 0.00000E+00
 -1      2155 5.93152E+01 2.51531E+01 0.00000E+00
 -1      2156 6.03710E+01 2.25708E+01 0.00000E+00
 -1      2157 6.01824E+01 2.34353E+01 0.00000E+00
 -1      2158 5.54520E+01 1.29677E+01 0.00000E+00
 -1      2159 5.61956E+01 1.34656E+01 0.00000E+00
 -1      2160 5.84867E+01 1.45439E+01 0.00000E+00
 -1      2161 6.42300E+00 4.57510E+01 0.00000E+00
 -1      2162 5.69679E+01 1.31924E+01 0.00000E+00
 -1      2163 5.52804E+01 1.20773E+01 0.00000E+00
 -1      2164 7.17300E+00 4.44520E+01 0.00000E+00
 -1      2165 6.05375E+01 1.79905E+01 0.00000E+00
 -1      2166 6.12967E+01 1.83241E+01 0.00000E+00
 -1      2167 6.08390E+01 1.72589E+01 0.00000E+00
 -1      2168 6.11047E+01 2.01068E+01 0.00000E+00
 -1      2169 1.45665E+02 4.31193E+01 0.00000E+00
 -1      2170 5.96859E+01 1.61010E+01 0.00000E+00
 -1      2171 6.11235E+01 2.21629E+01 0.00000E+00
 -1      2172 6.05611E+01 2.41163E+01 0.00000E+00
 -1      2173 5.97128E+01 2.59471E+01 0.00000E+00
 -1      2174 5.85497E+01 2.75339E+01 0.00000E+00
 -1      2175 5.70678E+01 2.89036E+01 0.00000E+00
 -1      2176 5.52717E+01 3.01859E+01 0.00000E+00
 -1      2177 5.31187E+01 3.07268E+01 0.00000E+00
 -1      2178 4.88543E+01 3.04174E+01 0.00000E+00
 -1      2179 4.52401E+01 2.83211E+01 0.00000E+00
 -1      2180 4.44000E+01 2.83636E+01 0.00000E+00
 -1      2181 4.54020E+01 2.91115E+01 0.00000E+00
 -1      2182 4.26813E+01 2.48968E+01 0.00000E+00
 -1      2183 4.20419E+01 1.86535E+01 0.00000E+00
 -1      2184 4.37959E+01 1.51779E+01 0.00000E+00
 -1      2185 4.90877E+01 1.17360E+01 0.00000E+00
 -1      2186 5.30515E+01 1.15104E+01 0.00000E+00
 -1      2187 5.37655E+01 1.09514E+01 0.00000E+00
 -1      2188 5.25106E+01 1.08809E+01 0.00000E+00
 -1      2189 4.69268E+01 1.24729E+01 0.00000E+00
 -1      2190 4.71960E+01 1.16073E+01 0.00000E+00
 -1      2191 4.60568E+01 1.22389E+01 0.00000E+00
 -1      2192 4.18385E+01 2.08941E+01 0.00000E+00
 -1      2193 4.11814E+01 2.02788E+01 0.00000E+00
 -1      2194 4.13314E+01 2.15024E+01 0.00000E+00
 -1      2195 4.36607E+01 2.67473E+01 0.00000E+00
 -1      2196 5.09746E+01 3.08022E+01 0.00000E+00
 -1      2197 1.07850E+01 5.30525E+00 0.00000E+00
 -1      2198 9.28500E+00 5.30525E+00 0.00000E+00
 -1      2199 6.49500E+00 3.01125E+01 0.00000E+00
 -1      2200 6.49500E+00 3.15875E+01 0.00000E+00
 -1      2201 6.49500E+00 3.30625E+01 0.00000E+00
 -1      2202 6.49500E+00 3.45375E+01 0.00000E+00
 -1      2203 7.79400E+00 3.23250E+01 0.00000E+00
 -1      2204 6.49500E+00 2.42125E+01 0.00000E+00
 -1      2205 6.49500E+00 2.56875E+01 0.00000E+00
 -1      2206 6.49500E+00 2.12625E+01 0.00000E+00
 -1      2207 6.49500E+00 2.27375E+01 0.00000E+00
 -1      2208 7.79400E+00 2.34750E+01 0.00000E+00
 -1      2209 6.49500E+00 1.83625E+01 0.00000E+00
 -1      2210 6.49500E+00 1.98125E+01 0.00000E+00
 -1      2211 7.79400E+00 2.05500E+01 0.00000E+00
 -1      2212 6.49500E+00 1.54125E+01 0.00000E+00
 -1      2213 6.49500E+00 1.68875E+01 0.00000E+00
 -1      2214 7.79400E+00 1.76250E+01 0.00000E+00
 -1      2215 6.49500E+00 1.24625E+01 0.00000E+00
 -1      2216 6.49500E+00 1.39375E+01 0.00000E+00
 -1      2217 7.79400E+00 1.46750E+01 0.00000E+00
 -1      2218 6.49500E+00 9.51250E+00 0.00000E+00
 -1      2219 6.49500E+00 1.09875E+01 0.00000E+00
 -1      2220 7.79400E+00 1.17250E+01 0.00000E+00
 -1      2221 1.37850E+01 5.30525E+00 0.00000E+00
 -1      2222 1.22850E+01 5.30525E+00 0.00000E+00
 -1      2223 1.15350E+01 6.60425E+00 0.00000E+00
 -1      2224 9.90000E+00 4.35050E+01 0.00000E+00
 -1      2225 1.14000E+01 4.35050E+01 0.00000E+00
 -1      2226 5.71180E+01 1.22984E+01 0.00000E+00
 -1      2227 5.78316E+01 1.29171E+01 0.00000E+00
 -1      2228 1.29000E+01 4.35050E+01 0.00000E+00
 -1      2229 1.44000E+01 4.35050E+01 0.00000E+00
 -1      2230 1.21500E+01 4.22060E+01 0.00000E+00
 -1      2231 1.59000E+01 4.35050E+01 0.00000E+00
 -1      2232 1.74000E+01 4.35050E+01 0.00000E+00
 -1      2233 1.51500E+01 4.22060E+01 0.00000E+00
 -1      2234 1.89000E+01 4.35050E+01 0.00000E+00
 -1      2235 2.04000E+01 4.35050E+01 0.00000E+00
 -1      2236 1.81500E+01 4.22060E+01 0.00000E+00
 -1      2237 2.19000E+01 4.35050E+01 0.00000E+00
 -1      2238 2.34000E+01 4.35050E+01 0.00000E+00
 -1      2239 2.11500E+01 4.22060E+01 0.00000E+00
 -1      2240 2.49000E+01 4.35050E+01 0.00000E+00
 -1      2241 2.64000E+01 4.35050E+01 0.00000E+00
 -1      2242 2.41500E+01 4.22060E+01 0.00000E+00
 -1      2243 2.79000E+01 4.35050E+01 0.00000E+00
 -1      2244 2.94000E+01 4.35050E+01 0.00000E+00
 -1      2245 2.71500E+01 4.22060E+01 0.00000E+00
 -1      2246 3.09000E+01 4.35050E+01 0.00000E+00
 -1      2247 3.24000E+01 4.35050E+01 0.00000E+00
 -1      2248 3.01500E+01 4.22060E+01 0.00000E+00
 -1      2249 3.39000E+01 4.35050E+01 0.00000E+00
 -1      2250 3.54000E+01 4.35050E+01 0.00000E+00
 -1      2251 3.31500E+01 4.22060E+01 0.00000E+00
 -1      2252 3.69000E+01 4.35050E+01 0.00000E+00
 -1      2253 3.84000E+01 4.35050E+01 0.00000E+00
 -1      2254 3.61500E+01 4.22060E+01 0.00000E+00
 -1      2255 3.99000E+01 4.35050E+01 0.00000E+00
 -1      2256 4.14000E+01 4.35050E+01 0.00000E+00
 -1      2257 3.91500E+01 4.22060E+01 0.00000E+00
 -1      2258 4.29000E+01 4.35050E+01 0.00000E+00
 -1      2259 4.44000E+01 4.35050E+01 0.00000E+00
 -1      2260 4.21500E+01 4.22060E+01 0.00000E+00
 -1      2261 4.59000E+01 4.35050E+01 0.00000E+00
 -1      2262 4.74000E+01 4.35050E+01 0.00000E+00
 -1      2263 4.51500E+01 4.22060E+01 0.00000E+00
 -1      2264 4.89000E+01 4.35050E+01 0.00000E+00
 -1      2265 5.04000E+01 4.35050E+01 0.00000E+00
 -1      2266 4.81500E+01 4.22060E+01 0.00000E+00
 -1      2267 5.19000E+01 4.35050E+01 0.00000E+00
 -1      2268 5.34000E+01 4.35050E+01 0.00000E+00
 -1      2269 5.11500E+01 4.22060E+01 0.00000E+00
 -1      2270 5.49000E+01 4.35050E+01 0.00000E+00
 -1      2271 5.64000E+01 4.35050E+01 0.00000E+00
 -1      2272 5.41500E+01 4.22060E+01 0.00000E+00
 -1      2273 5.79000E+01 4.35050E+01 0.00000E+00
 -1      2274 5.94000E+01 4.35050E+01 0.00000E+00
 -1      2275 5.71500E+01 4.22060E+01 0.00000E+00
 -1      2276 6.09000E+01 4.35050E+01 0.00000E+00
 -1      2277 6.24000E+01 4.35050E+01 0.00000E+00
 -1      2278 6.01500E+01 4.22060E+01 0.00000E+00
 -1      2279 6.39000E+01 4.35050E+01 0.00000E+00
 -1      2280 6.54000E+01 4.35050E+01 0.00000E+00
 -1      2281 6.31500E+01 4.22060E+01 0.00000E+00
 -1      2282 6.69000E+01 4.35050E+01 0.00000E+00
 -1      2283 6.84000E+01 4.35050E+01 0.00000E+00
 -1      2284 6.61500E+01 4.22060E+01 0.00000E+00
 -1      2285 6.99000E+01 4.35050E+01 0.00000E+00
 -1      2286 7.14000E+01 4.35050E+01 0.00000E+00
 -1      2287 6.91500E+01 4.22060E+01 0.00000E+00
 -1      2288 7.29000E+01 4.35050E+01 0.00000E+00
 -1      2289 7.44000E+01 4.35050E+01 0.00000E+00
 -1      2290 7.21500E+01 4.22060E+01 0.00000E+00
 -1      2291 7.59000E+01 4.35050E+01 0.00000E+00
 -1      2292 7.74000E+01 4.35050E+01 0.00000E+00
 -1      2293 7.51500E+01 4.22060E+01 0.00000E+00
 -1      2294 7.89000E+01 4.35050E+01 0.00000E+00
 -1      2295 8.04000E+01 4.35050E+01 0.00000E+00
 -1      2296 7.81500E+01 4.22060E+01 0.00000E+00
 -1      2297 8.19000E+01 4.35050E+01 0.00000E+00
 -1      2298 8.34000E+01 4.35050E+01 0.00000E+00
 -1      2299 8.11500E+01 4.22060E+01 0.00000E+00
 -1      2300 8.49000E+01 4.35050E+01 0.00000E+00
 -1      2301 8.64000E+01 4.35050E+01 0.00000E+00
 -1      2302 8.41500E+01 4.22060E+01 0.00000E+00
 -1      2303 8.79000E+01 4.35050E+01 0.00000E+00
 -1      2304 8.94000E+01 4.35050E+01 0.00000E+00
 -1      2305 8.71500E+01 4.22060E+01 0.00000E+00
 -1      2306 9.09000E+01 4.35050E+01 0.00000E+00
 -1      2307 9.24000E+01 4.35050E+01 0.00000E+00
 -1      2308 9.01500E+01 4.22060E+01 0.00000E+00
 -1      2309 9.39000E+01 4.35050E+01 0.00000E+00
 -1      2310 9.54000E+01 4.35050E+01 0.00000E+00
 -1      2311 9.31500E+01 4.22060E+01 0.00000E+00
 -1      2312 9.69000E+01 4.35050E+01 0.00000E+00
 -1      2313 9.84000E+01 4.35050E+01 0.00000E+00
 -1      2314 9.61500E+01 4.22060E+01 0.00000E+00
 -1      2315 9.99000E+01 4.35050E+01 0.00000E+00
 -1      2316 1.01400E+02 4.35050E+01 0.00000E+00
 -1      2317 9.91500E+01 4.22060E+01 0.00000E+00
 -1      2318 1.02900E+02 4.35050E+01 0.00000E+00
 -1      2319 1.04400E+02 4.35050E+01 0.00000E+00
 -1      2320 1.02150E+02 4.22060E+01 0.00000E+00
 -1      2321 1.05900E+02 4.35050E+01 0.00000E+00
 -1      2322 1.07400E+02 4.35050E+01 0.00000E+00
 -1      2323 1.05150E+02 4.22060E+01 0.00000E+00
 -1      2324 1.08900E+02 4.35050E+01 0.00000E+00
 -1      2325 1.10400E+02 4.35050E+01 0.00000E+00
 -1      2326 1.08150E+02 4.22060E+01 0.00000E+00
 -1      2327 1.11900E+02 4.35050E+01 0.00000E+00
 -1      2328 1.13400E+02 4.35050E+01 0.00000E+00
 -1      2329 1.11150E+02 4.22060E+01 0.00000E+00
 -1      2330 1.14900E+02 4.35050E+01 0.00000E+00
 -1      2331 1.16400E+02 4.35050E+01 0.00000E+00
 -1      2332 1.14150E+02 4.22060E+01 0.00000E+00
 -1      2333 1.17900E+02 4.35050E+01 0.00000E+00
 -1      2334 1.19400E+02 4.35050E+01 0.00000E+00
 -1      2335 1.17150E+02 4.22060E+01 0.00000E+00
 -1      2336 1.20900E+02 4.35050E+01 0.00000E+00
 -1      2337 1.22400E+02 4.35050E+01 0.00000E+00
 -1      2338 1.20150E+02 4.22060E+01 0.00000E+00
 -1      2339 1.23900E+02 4.35050E+01 0.00000E+00
 -1      2340 1.25400E+02 4.35050E+01 0.00000E+00
 -1      2341 1.23150E+02 4.22060E+01 0.00000E+00
 -1      2342 1.26900E+02 4.35050E+01 0.00000E+00
 -1      2343 1.28400E+02 4.35050E+01 0.00000E+00
 -1      2344 1.26150E+02 4.22060E+01 0.00000E+00
 -1      2345 1.29900E+02 4.35050E+01 0.00000E+00
 -1      2346 1.31400E+02 4.35050E+01 0.00000E+00
 -1      2347 1.29150E+02 4.22060E+01 0.00000E+00
 -1      2348 1.32900E+02 4.35050E+01 0.00000E+00
 -1      2349 1.34400E+02 4.35050E+01 0.00000E+00
 -1      2350 1.32150E+02 4.22060E+01 0.00000E+00
 -1      2351 1.35900E+02 4.35050E+01 0.00000E+00
 -1      2352 1.37400E+02 4.35050E+01 0.00000E+00
 -1      2353 1.35150E+02 4.22060E+01 0.00000E+00
 -1      2354 1.38900E+02 4.35050E+01 0.00000E+00
 -1      2355 1.40400E+02 4.35050E+01 0.00000E+00
 -1      2356 1.38150E+02 4.22060E+01 0.00000E+00
 -1      2357 1.97850E+01 5.30525E+00 0.00000E+00
 -1      2358 1.82850E+01 5.30525E+00 0.00000E+00
 -1      2359 2.27850E+01 5.30525E+00 0.00000E+00
 -1      2360 2.12850E+01 5.30525E+00 0.00000E+00
 -1      2361 2.05350E+01 6.60425E+00 0.00000E+00
 -1      2362 2.57850E+01 5.30525E+00 0.00000E+00
 -1      2363 2.42850E+01 5.30525E+00 0.00000E+00
 -1      2364 2.35350E+01 6.60425E+00 0.00000E+00
 -1      2365 2.87850E+01 5.30525E+00 0.00000E+00
 -1      2366 2.72850E+01 5.30525E+00 0.00000E+00
 -1      2367 2.65350E+01 6.60425E+00 0.00000E+00
 -1      2368 3.17850E+01 5.30525E+00 0.00000E+00
 -1      2369 3.02850E+01 5.30525E+00 0.00000E+00
 -1      2370 2.95350E+01 6.60425E+00 0.00000E+00
 -1      2371 3.47850E+01 5.30525E+00 0.00000E+00
 -1      2372 3.32850E+01 5.30525E+00 0.00000E+00
 -1      2373 3.25350E+01 6.60425E+00 0.00000E+00
 -1      2374 3.77850E+01 5.30525E+00 0.00000E+00
 -1      2375 3.62850E+01 5.30525E+00 0.00000E+00
 -1      2376 3.55350E+01 6.60425E+00 0.00000E+00
 -1      2377 4.07850E+01 5.30525E+00 0.00000E+00
 -1      2378 3.92850E+01 5.30525E+00 0.00000E+00
 -1      2379 3.85350E+01 6.60425E+00 0.00000E+00
 -1      2380 4.37850E+01 5.30525E+00 0.00000E+00
 -1      2381 4.22850E+01 5.30525E+00 0.00000E+00
 -1      2382 4.15350E+01 6.60425E+00 0.00000E+00
 -1      2383 4.67850E+01 5.30525E+00 0.00000E+00
 -1      2384 4.52850E+01 5.30525E+00 0.00000E+00
 -1      2385 4.45350E+01 6.60425E+00 0.00000E+00
 -1      2386 4.97850E+01 5.30525E+00 0.00000E+00
 -1      2387 4.82850E+01 5.30525E+00 0.00000E+00
 -1      2388 4.75350E+01 6.60425E+00 0.00000E+00
 -1      2389 5.27850E+01 5.30525E+00 0.00000E+00
 -1      2390 5.12850E+01 5.30525E+00 0.00000E+00
 -1      2391 5.05350E+01 6.60425E+00 0.00000E+00
 -1      2392 5.57850E+01 5.30525E+00 0.00000E+00
 -1      2393 5.42850E+01 5.30525E+00 0.00000E+00
 -1      2394 5.35350E+01 6.60425E+00 0.00000E+00
 -1      2395 5.87850E+01 5.30525E+00 0.00000E+00
 -1      2396 5.72850E+01 5.30525E+00 0.00000E+00
 -1      2397 5.65350E+01 6.60425E+00 0.00000E+00
 -1      2398 6.17850E+01 5.30525E+00 0.00000E+00
 -1      2399 6.02850E+01 5.30525E+00 0.00000E+00
 -1      2400 5.95350E+01 6.60425E+00 0.00000E+00
 -1      2401 6.47850E+01 5.30525E+00 0.00000E+00
 -1      2402 6.32850E+01 5.30525E+00 0.00000E+00
 -1      2403 6.25350E+01 6.60425E+00 0.00000E+00
 -1      2404 6.77850E+01 5.30525E+00 0.00000E+00
 -1      2405 6.62850E+01 5.30525E+00 0.00000E+00
 -1      2406 6.55350E+01 6.60425E+00 0.00000E+00
 -1      2407 7.07850E+01 5.30525E+00 0.00000E+00
 -1      2408 6.92850E+01 5.30525E+00 0.00000E+00
 -1      2409 6.85350E+01 6.60425E+00 0.00000E+00
 -1      2410 7.37850E+01 5.30525E+00 0.00000E+00
 -1      2411 7.22850E+01 5.30525E+00 0.00000E+00
 -1      2412 7.15350E+01 6.60425E+00 0.00000E+00
 -1      2413 7.67850E+01 5.30525E+00 0.00000E+00
 -1      2414 7.52850E+01 5.30525E+00 0.00000E+00
 -1      2415 7.45350E+01 6.60425E+00 0.00000E+00
 -1      2416 7.97850E+01 5.30525E+00 0.00000E+00
 -1      2417 7.82850E+01 5.30525E+00 0.00000E+00
 -1      2418 7.75350E+01 6.60425E+00 0.00000E+00
 -1      2419 8.27850E+01 5.30525E+00 0.00000E+00
 -1      2420 8.12850E+01 5.30525E+00 0.00000E+00
 -1      2421 8.05350E+01 6.60425E+00 0.00000E+00
 -1      2422 8.57850E+01 5.30525E+00 0.00000E+00
 -1      2423 8.42850E+01 5.30525E+00 0.00000E+00
 -1      2424 8.35350E+01 6.60425E+00 0.00000E+00
 -1      2425 8.87850E+01 5.30525E+00 0.00000E+00
 -1      2426 8.72850E+01 5.30525E+00 0.00000E+00
 -1      2427 8.65350E+01 6.60425E+00 0.00000E+00
 -1      2428 9.17850E+01 5.30525E+00 0.00000E+00
 -1      2429 9.02850E+01 5.30525E+00 0.00000E+00
 -1      2430 8.95350E+01 6.60425E+00 0.00000E+00
 -1      2431 9.47850E+01 5.30525E+00 0.00000E+00
 -1      2432 9.32850E+01 5.30525E+00 0.00000E+00
 -1      2433 9.25350E+01 6.60425E+00 0.00000E+00
 -1      2434 9.77850E+01 5.30525E+00 0.00000E+00
 -1      2435 9.62850E+01 5.30525E+00 0.00000E+00
 -1      2436 9.55350E+01 6.60425E+00 0.00000E+00
 -1      2437 1.00785E+02 5.30525E+00 0.00000E+00
 -1      2438 9.92850E+01 5.30525E+00 0.00000E+00
 -1      2439 9.85350E+01 6.60425E+00 0.00000E+00
 -1      2440 1.03785E+02 5.30525E+00 0.00000E+00
 -1      2441 1.02285E+02 5.30525E+00 0.00000E+00
 -1      2442 1.01535E+02 6.60425E+00 0.00000E+00
 -1      2443 1.06785E+02 5.30525E+00 0.00000E+00
 -1      2444 1.05285E+02 5.30525E+00 0.00000E+00
 -1      2445 1.04535E+02 6.60425E+00 0.00000E+00
 -1      2446 1.09785E+02 5.30525E+00 0.00000E+00
 -1      2447 1.08285E+02 5.30525E+00 0.00000E+00
 -1      2448 1.07535E+02 6.60425E+00 0.00000E+00
 -1      2449 1.12785E+02 5.30525E+00 0.00000E+00
 -1      2450 1.11285E+02 5.30525E+00 0.00000E+00
 -1      2451 1.10535E+02 6.60425E+00 0.00000E+00
 -1      2452 1.15785E+02 5.30525E+00 0.00000E+00
 -1      2453 1.14285E+02 5.30525E+00 0.00000E+00
 -1      2454 1.13535E+02 6.60425E+00 0.00000E+00
 -1      2455 1.18785E+02 5.30525E+00 0.00000E+00
 -1      2456 1.17285E+02 5.30525E+00 0.00000E+00
 -1      2457 1.16535E+02 6.60425E+00 0.00000E+00
 -1      2458 1.21785E+02 5.30525E+00 0.00000E+00
 -1      2459 1.20285E+02 5.30525E+00 0.00000E+00
 -1      2460 1.19535E+02 6.60425E+00 0.00000E+00
 -1      2461 1.24785E+02 5.30525E+00 0.00000E+00
 -1      2462 1.23285E+02 5.30525E+00 0.00000E+00
 -1      2463 1.22535E+02 6.60425E+00 0.00000E+00
 -1      2464 1.27785E+02 5.30525E+00 0.00000E+00
 -1      2465 1.26285E+02 5.30525E+00 0.00000E+00
 -1      2466 1.25535E+02 6.60425E+00 0.00000E+00
 -1      2467 1.30785E+02 5.30525E+00 0.00000E+00
 -1      2468 1.29285E+02 5.30525E+00 0.00000E+00
 -1      2469 1.28535E+02 6.60425E+00 0.00000E+00
 -1      2470 1.33785E+02 5.30525E+00 0.00000E+00
 -1      2471 1.32285E+02 5.30525E+00 0.00000E+00
 -1      2472 1.31535E+02 6.60425E+00 0.00000E+00
 -1      2473 1.36785E+02 5.30525E+00 0.00000E+00
 -1      2474 1.35285E+02 5.30525E+00 0.00000E+00
 -1      2475 1.34535E+02 6.60425E+00 0.00000E+00
 -1      2476 1.39785E+02 5.30525E+00 0.00000E+00
 -1      2477 1.38285E+02 5.30525E+00 0.00000E+00
 -1      2478 1.37535E+02 6.60425E+00 0.00000E+00
 -1      2479 1.42785E+02 5.30525E+00 0.00000E+00
 -1      2480 1.41285E+02 5.30525E+00 0.00000E+00
 -1      2481 1.40535E+02 6.60425E+00 0.00000E+00
 -1      2482 1.44336E+02 5.26953E+00 0.00000E+00
 -1      2483 1.43505E+02 1.69125E+01 0.00000E+00
 -1      2484 1.43505E+02 1.54375E+01 0.00000E+00
 -1      2485 1.43505E+02 1.98625E+01 0.00000E+00
 -1      2486 1.43505E+02 1.83875E+01 0.00000E+00
 -1      2487 1.42206E+02 1.76500E+01 0.00000E+00
 -1      2488 1.43505E+02 1.10625E+01 0.00000E+00
 -1      2489 1.43505E+02 9.58750E+00 0.00000E+00
 -1      2490 1.43505E+02 1.39750E+01 0.00000E+00
 -1      2491 1.43505E+02 1.25250E+01 0.00000E+00
 -1      2492 1.42206E+02 1.17875E+01 0.00000E+00
 -1      2493 1.42206E+02 1.47125E+01 0.00000E+00
 -1      2494 1.43505E+02 2.28125E+01 0.00000E+00
 -1      2495 1.43505E+02 2.13375E+01 0.00000E+00
 -1      2496 1.42206E+02 2.06000E+01 0.00000E+00
 -1      2497 1.43505E+02 2.57625E+01 0.00000E+00
 -1      2498 1.43505E+02 2.42875E+01 0.00000E+00
 -1      2499 1.42206E+02 2.35500E+01 0.00000E+00
 -1      2500 1.43505E+02 2.87125E+01 0.00000E+00
 -1      2501 1.43505E+02 2.72375E+01 0.00000E+00
 -1      2502 1.42206E+02 2.65000E+01 0.00000E+00
 -1      2503 1.43505E+02 3.16125E+01 0.00000E+00
 -1      2504 1.43505E+02 3.01625E+01 0.00000E+00
 -1      2505 1.42206E+02 2.94250E+01 0.00000E+00
 -1      2506 1.43505E+02 3.45625E+01 0.00000E+00
 -1      2507 1.43505E+02 3.30875E+01 0.00000E+00
 -1      2508 1.42206E+02 3.23500E+01 0.00000E+00
 -1      2509 1.43505E+02 3.75125E+01 0.00000E+00
 -1      2510 1.43505E+02 3.60375E+01 0.00000E+00
 -1      2511 1.42206E+02 3.53000E+01 0.00000E+00
 -1      2512 1.43505E+02 4.04625E+01 0.00000E+00
 -1      2513 1.43505E+02 3.89875E+01 0.00000E+00
 -1      2514 1.42206E+02 3.82500E+01 0.00000E+00
 -1      2515 6.19862E+01 1.94836E+01 0.00000E+00
 -1      2516 6.20958E+01 2.05347E+01 0.00000E+00
 -1      2517 6.03383E+01 1.52829E+01 0.00000E+00
 -1      2518 6.07322E+01 1.61072E+01 0.00000E+00
 -1      2519 1.67850E+01 5.30525E+00 0.00000E+00
 -1      2520 1.52850E+01 5.30525E+00 0.00000E+00
 -1      2521 1.75350E+01 6.60425E+00 0.00000E+00
 -1      2522 1.44321E+02 4.30606E+01 0.00000E+00
 -1      2523 6.19395E+01 2.17300E+01 0.00000E+00
 -1      2524 6.18487E+01 2.27351E+01 0.00000E+00
 -1      2525 6.55950E+00 4.28890E+01 0.00000E+00
 -1      2526 8.53650E+00 4.32410E+01 0.00000E+00
 -1      2527 9.28650E+00 4.19420E+01 0.00000E+00
 -1      2528 6.55950E+00 4.14140E+01 0.00000E+00
 -1      2529 6.14897E+01 2.39868E+01 0.00000E+00
 -1      2530 6.10180E+01 2.49351E+01 0.00000E+00
 -1      2531 4.11343E+01 1.89081E+01 0.00000E+00
 -1      2532 4.14876E+01 1.78910E+01 0.00000E+00
 -1      2533 4.84976E+01 1.10190E+01 0.00000E+00
 -1      2534 4.95193E+01 1.09137E+01 0.00000E+00
 -1      2535 6.49500E+00 2.71625E+01 0.00000E+00
 -1      2536 6.49500E+00 2.86375E+01 0.00000E+00
 -1      2537 7.79400E+00 2.93750E+01 0.00000E+00
 -1      2538 7.79400E+00 2.64250E+01 0.00000E+00
 -1      2539 5.03629E+01 1.08183E+01 0.00000E+00
 -1      2540 5.12065E+01 1.07228E+01 0.00000E+00
 -1      2541 4.97727E+01 1.01012E+01 0.00000E+00
 -1      2542 4.42391E+01 1.33188E+01 0.00000E+00
 -1      2543 4.48953E+01 1.27454E+01 0.00000E+00
 -1      2544 4.28321E+01 1.51837E+01 0.00000E+00
 -1      2545 4.35116E+01 1.42570E+01 0.00000E+00
 -1      2546 4.17996E+01 1.68882E+01 0.00000E+00
 -1      2547 4.21602E+01 1.61223E+01 0.00000E+00
 -1      2548 4.31779E+01 2.76996E+01 0.00000E+00
 -1      2549 4.26005E+01 2.68738E+01 0.00000E+00
 -1      2550 4.14846E+01 2.35533E+01 0.00000E+00
 -1      2551 4.13392E+01 2.26760E+01 0.00000E+00
 -1      2552 5.16327E+01 3.15344E+01 0.00000E+00
 -1      2553 5.05407E+01 3.16859E+01 0.00000E+00
 -1      2554 4.21230E+01 2.57070E+01 0.00000E+00
 -1      2555 4.17210E+01 2.46824E+01 0.00000E+00
 -1      2556 4.70960E+01 3.03294E+01 0.00000E+00
 -1      2557 4.63041E+01 2.99233E+01 0.00000E+00
 -1      2558 4.89720E+01 3.14459E+01 0.00000E+00
 -1      2559 4.79436E+01 3.09097E+01 0.00000E+00
 -1      2560 5.37369E+01 3.16864E+01 0.00000E+00
 -1      2561 5.26848E+01 3.16104E+01 0.00000E+00
 -1      2562 5.22509E+01 3.24941E+01 0.00000E+00
 -1      2563 5.62414E+01 3.06255E+01 0.00000E+00
 -1      2564 5.51405E+01 3.12424E+01 0.00000E+00
 -1      2565 5.79504E+01 2.91299E+01 0.00000E+00
 -1      2566 5.72552E+01 2.97953E+01 0.00000E+00
 -1      2567 5.95236E+01 2.77213E+01 0.00000E+00
 -1      2568 5.87370E+01 2.84256E+01 0.00000E+00
 -1      2569 5.89244E+01 2.93173E+01 0.00000E+00
 -1      2570 6.06415E+01 2.58175E+01 0.00000E+00
 -1      2571 6.02649E+01 2.67000E+01 0.00000E+00
 -1      2572 6.15701E+01 2.56880E+01 0.00000E+00
 -1      2573 5.52589E+01 1.09158E+01 0.00000E+00
 -1      2574 5.62329E+01 1.14122E+01 0.00000E+00
 -1      2575 8.07525E+00 5.11044E+00 0.00000E+00
 -1      2576 6.57525E+00 5.11044E+00 0.00000E+00
 -1      2577 6.40575E+00 6.01981E+00 0.00000E+00
 -1      2578 8.82525E+00 6.40944E+00 0.00000E+00
 -1      2579 5.86368E+01 1.36500E+01 0.00000E+00
 -1      2580 5.94421E+01 1.43828E+01 0.00000E+00
 -1      2581 5.87870E+01 1.27560E+01 0.00000E+00
 -1      2582 5.19205E+01 1.01638E+01 0.00000E+00
 -1      2583 7.79400E+00 3.52687E+01 0.00000E+00
 -1      2584 6.49500E+00 3.60062E+01 0.00000E+00
 -1      2585 6.49500E+00 3.74750E+01 0.00000E+00
 -1      2586 1.45350E+01 6.60425E+00 0.00000E+00
 -1      2587 6.40575E+00 7.49481E+00 0.00000E+00
 -1      2588 6.04523E+01 2.75917E+01 0.00000E+00
 -1      2589 6.23057E+01 2.35538E+01 0.00000E+00
 -1      2590 5.47066E+01 3.21261E+01 0.00000E+00
 -1      2591 5.42727E+01 3.30097E+01 0.00000E+00
 -1      2592 5.56763E+01 3.25657E+01 0.00000E+00
 -1      2593 6.14914E+01 1.64408E+01 0.00000E+00
 -1      2594 4.96300E+01 3.21781E+01 0.00000E+00
 -1      2595 4.87194E+01 3.26704E+01 0.00000E+00
 -1      2596 5.02881E+01 3.29104E+01 0.00000E+00
 -1      2597 1.43586E+02 6.56853E+00 0.00000E+00
 -1      2598 6.04884E+01 1.43890E+01 0.00000E+00
 -1      2599 1.43419E+02 7.72713E+00 0.00000E+00
 -1      2600 4.72137E+01 3.13579E+01 0.00000E+00
 -1      2601 6.28210E+01 2.11068E+01 0.00000E+00
 -1      2602 6.22877E+01 1.87520E+01 0.00000E+00
 -1      2603 6.32788E+01 1.91799E+01 0.00000E+00
 -1      2604 6.25893E+01 1.80204E+01 0.00000E+00
 -1      2605 4.16402E+01 2.66593E+01 0.00000E+00
 -1      2606 7.70475E+00 8.23231E+00 0.00000E+00
 -1      2607 6.55950E+00 3.99453E+01 0.00000E+00
 -1      2608 4.09263E+01 2.43635E+01 0.00000E+00
 -1      2609 4.06272E+01 1.95164E+01 0.00000E+00
 -1      2610 4.00729E+01 1.87539E+01 0.00000E+00
 -1      2611 4.01201E+01 2.01246E+01 0.00000E+00
 -1      2612 4.08920E+01 1.71428E+01 0.00000E+00
 -1      2613 4.33398E+01 2.84900E+01 0.00000E+00
 -1      2614 4.22796E+01 2.86165E+01 0.00000E+00
 -1      2615 4.35017E+01 2.92804E+01 0.00000E+00
 -1      2616 4.76276E+01 1.07850E+01 0.00000E+00
 -1      2617 4.80592E+01 9.96264E+00 0.00000E+00
 -1      2618 4.67576E+01 1.05510E+01 0.00000E+00
 -1      2619 4.54640E+01 2.99658E+01 0.00000E+00
 -1      2620 4.46239E+01 3.00083E+01 0.00000E+00
 -1      2621 4.55260E+01 3.08201E+01 0.00000E+00
 -1      2622 4.51645E+01 1.18798E+01 0.00000E+00
 -1      2623 5.70966E+01 1.11369E+01 0.00000E+00
 -1      2624 4.18759E+01 1.52014E+01 0.00000E+00
 -1      2625 5.47180E+01 1.02862E+01 0.00000E+00
 -1      2626 4.32754E+01 1.33246E+01 0.00000E+00
 -1      2627 4.06821E+01 2.20607E+01 0.00000E+00
 -1      2628 1.42758E+02 4.35929E+01 0.00000E+00
 -1      2629 1.43241E+02 4.17323E+01 0.00000E+00
 -1      2630 1.41942E+02 4.09948E+01 0.00000E+00
 -1      2631 1.41414E+02 4.35342E+01 0.00000E+00
 -1      2632 1.42120E+02 8.46463E+00 0.00000E+00
 -1      2633 5.71240E+01 3.08518E+01 0.00000E+00
 -1      2634 1.40664E+02 4.22352E+01 0.00000E+00
 -1      2635 9.09300E+00 1.98250E+01 0.00000E+00
 -1      2636 9.09300E+00 2.12750E+01 0.00000E+00
 -1      2637 9.09300E+00 2.27500E+01 0.00000E+00
 -1      2638 9.09300E+00 2.42250E+01 0.00000E+00
 -1      2639 1.03920E+01 2.20250E+01 0.00000E+00
 -1      2640 9.09300E+00 1.39375E+01 0.00000E+00
 -1      2641 9.09300E+00 1.54125E+01 0.00000E+00
 -1      2642 9.09300E+00 1.09875E+01 0.00000E+00
 -1      2643 9.09300E+00 1.24625E+01 0.00000E+00
 -1      2644 1.03920E+01 1.32000E+01 0.00000E+00
 -1      2645 1.22850E+01 7.90325E+00 0.00000E+00
 -1      2646 1.07850E+01 7.90325E+00 0.00000E+00
 -1      2647 7.85850E+00 3.92077E+01 0.00000E+00
 -1      2648 5.89615E+01 1.17554E+01 0.00000E+00
 -1      2649 5.97668E+01 1.24882E+01 0.00000E+00
 -1      2650 8.91450E+00 8.42712E+00 0.00000E+00
 -1      2651 6.33096E+01 2.31645E+01 0.00000E+00
 -1      2652 6.29505E+01 2.44161E+01 0.00000E+00
 -1      2653 5.13816E+01 9.15027E+00 0.00000E+00
 -1      2654 5.26858E+01 9.30832E+00 0.00000E+00
 -1      2655 1.44000E+01 4.09070E+01 0.00000E+00
 -1      2656 1.59000E+01 4.09070E+01 0.00000E+00
 -1      2657 1.74000E+01 4.09070E+01 0.00000E+00
 -1      2658 1.89000E+01 4.09070E+01 0.00000E+00
 -1      2659 1.66500E+01 3.96080E+01 0.00000E+00
 -1      2660 2.04000E+01 4.09070E+01 0.00000E+00
 -1      2661 2.19000E+01 4.09070E+01 0.00000E+00
 -1      2662 1.96500E+01 3.96080E+01 0.00000E+00
 -1      2663 2.34000E+01 4.09070E+01 0.00000E+00
 -1      2664 2.49000E+01 4.09070E+01 0.00000E+00
 -1      2665 2.26500E+01 3.96080E+01 0.00000E+00
 -1      2666 2.64000E+01 4.09070E+01 0.00000E+00
 -1      2667 2.79000E+01 4.09070E+01 0.00000E+00
 -1      2668 2.56500E+01 3.96080E+01 0.00000E+00
 -1      2669 2.94000E+01 4.09070E+01 0.00000E+00
 -1      2670 3.09000E+01 4.09070E+01 0.00000E+00
 -1      2671 2.86500E+01 3.96080E+01 0.00000E+00
 -1      2672 3.24000E+01 4.09070E+01 0.00000E+00
 -1      2673 3.39000E+01 4.09070E+01 0.00000E+00
 -1      2674 3.16500E+01 3.96080E+01 0.00000E+00
 -1      2675 3.54000E+01 4.09070E+01 0.00000E+00
 -1      2676 3.69000E+01 4.09070E+01 0.00000E+00
 -1      2677 3.46500E+01 3.96080E+01 0.00000E+00
 -1      2678 3.84000E+01 4.09070E+01 0.00000E+00
 -1      2679 3.99000E+01 4.09070E+01 0.00000E+00
 -1      2680 3.76500E+01 3.96080E+01 0.00000E+00
 -1      2681 4.14000E+01 4.09070E+01 0.00000E+00
 -1      2682 4.29000E+01 4.09070E+01 0.00000E+00
 -1      2683 4.06500E+01 3.96080E+01 0.00000E+00
 -1      2684 4.44000E+01 4.09070E+01 0.00000E+00
 -1      2685 4.59000E+01 4.09070E+01 0.00000E+00
 -1      2686 4.36500E+01 3.96080E+01 0.00000E+00
 -1      2687 4.74000E+01 4.09070E+01 0.00000E+00
 -1      2688 4.89000E+01 4.09070E+01 0.00000E+00
 -1      2689 4.66500E+01 3.96080E+01 0.00000E+00
 -1      2690 5.04000E+01 4.09070E+01 0.00000E+00
 -1      2691 5.19000E+01 4.09070E+01 0.00000E+00
 -1      2692 4.96500E+01 3.96080E+01 0.00000E+00
 -1      2693 5.34000E+01 4.09070E+01 0.00000E+00
 -1      2694 5.49000E+01 4.09070E+01 0.00000E+00
 -1      2695 5.26500E+01 3.96080E+01 0.00000E+00
 -1      2696 5.64000E+01 4.09070E+01 0.00000E+00
 -1      2697 5.79000E+01 4.09070E+01 0.00000E+00
 -1      2698 5.56500E+01 3.96080E+01 0.00000E+00
 -1      2699 5.94000E+01 4.09070E+01 0.00000E+00
 -1      2700 6.09000E+01 4.09070E+01 0.00000E+00
 -1      2701 5.86500E+01 3.96080E+01 0.00000E+00
 -1      2702 6.24000E+01 4.09070E+01 0.00000E+00
 -1      2703 6.39000E+01 4.09070E+01 0.00000E+00
 -1      2704 6.16500E+01 3.96080E+01 0.00000E+00
 -1      2705 6.54000E+01 4.09070E+01 0.00000E+00
 -1      2706 6.69000E+01 4.09070E+01 0.00000E+00
 -1      2707 6.46500E+01 3.96080E+01 0.00000E+00
 -1      2708 6.84000E+01 4.09070E+01 0.00000E+00
 -1      2709 6.99000E+01 4.09070E+01 0.00000E+00
 -1      2710 6.76500E+01 3.96080E+01 0.00000E+00
 -1      2711 7.14000E+01 4.09070E+01 0.00000E+00
 -1      2712 7.29000E+01 4.09070E+01 0.00000E+00
 -1      2713 7.06500E+01 3.96080E+01 0.00000E+00
 -1      2714 7.44000E+01 4.09070E+01 0.00000E+00
 -1      2715 7.59000E+01 4.09070E+01 0.00000E+00
 -1      2716 7.36500E+01 3.96080E+01 0.00000E+00
 -1      2717 7.74000E+01 4.09070E+01 0.00000E+00
 -1      2718 7.89000E+01 4.09070E+01 0.00000E+00
 -1      2719 7.66500E+01 3.96080E+01 0.00000E+00
 -1      2720 8.04000E+01 4.09070E+01 0.00000E+00
 -1      2721 8.19000E+01 4.09070E+01 0.00000E+00
 -1      2722 7.96500E+01 3.96080E+01 0.00000E+00
 -1      2723 8.34000E+01 4.09070E+01 0.00000E+00
 -1      2724 8.49000E+01 4.09070E+01 0.00000E+00
 -1      2725 8.26500E+01 3.96080E+01 0.00000E+00
 -1      2726 8.64000E+01 4.09070E+01 0.00000E+00
 -1      2727 8.79000E+01 4.09070E+01 0.00000E+00
 -1      2728 8.56500E+01 3.96080E+01 0.00000E+00
 -1      2729 8.94000E+01 4.09070E+01 0.00000E+00
 -1      2730 9.09000E+01 4.09070E+01 0.00000E+00
 -1      2731 8.86500E+01 3.96080E+01 0.00000E+00
 -1      2732 9.24000E+01 4.09070E+01 0.00000E+00
 -1      2733 9.39000E+01 4.09070E+01 0.00000E+00
 -1      2734 9.16500E+01 3.96080E+01 0.00000E+00
 -1      2735 9.54000E+01 4.09070E+01 0.00000E+00
 -1      2736 9.69000E+01 4.09070E+01 0.00000E+00
 -1      2737 9.46500E+01 3.96080E+01 0.00000E+00
 -1      2738 9.84000E+01 4.09070E+01 0.00000E+00
 -1      2739 9.99000E+01 4.09070E+01 0.00000E+00
 -1      2740 9.76500E+01 3.96080E+01 0.00000E+00
 -1      2741 1.01400E+02 4.09070E+01 0.00000E+00
 -1      2742 1.02900E+02 4.09070E+01 0.00000E+00
 -1      2743 1.00650E+02 3.96080E+01 0.00000E+00
 -1      2744 1.04400E+02 4.09070E+01 0.00000E+00
 -1      2745 1.05900E+02 4.09070E+01 0.00000E+00
 -1      2746 1.03650E+02 3.96080E+01 0.00000E+00
 -1      2747 1.07400E+02 4.09070E+01 0.00000E+00
 -1      2748 1.08900E+02 4.09070E+01 0.00000E+00
 -1      2749 1.06650E+02 3.96080E+01 0.00000E+00
 -1      2750 1.10400E+02 4.09070E+01 0.00000E+00
 -1      2751 1.11900E+02 4.09070E+01 0.00000E+00
 -1      2752 1.09650E+02 3.96080E+01 0.00000E+00
 -1      2753 1.13400E+02 4.09070E+01 0.00000E+00
 -1      2754 1.14900E+02 4.09070E+01 0.00000E+00
 -1      2755 1.12650E+02 3.96080E+01 0.00000E+00
 -1      2756 1.16400E+02 4.09070E+01 0.00000E+00
 -1      2757 1.17900E+02 4.09070E+01 0.00000E+00
 -1      2758 1.15650E+02 3.96080E+01 0.00000E+00
 -1      2759 1.19400E+02 4.09070E+01 0.00000E+00
 -1      2760 1.20900E+02 4.09070E+01 0.00000E+00
 -1      2761 1.18650E+02 3.96080E+01 0.00000E+00
 -1      2762 1.22400E+02 4.09070E+01 0.00000E+00
 -1      2763 1.23900E+02 4.09070E+01 0.00000E+00
 -1      2764 1.21650E+02 3.96080E+01 0.00000E+00
 -1      2765 1.25400E+02 4.09070E+01 0.00000E+00
 -1      2766 1.26900E+02 4.09070E+01 0.00000E+00
 -1      2767 1.24650E+02 3.96080E+01 0.00000E+00
 -1      2768 1.28400E+02 4.09070E+01 0.00000E+00
 -1      2769 1.29900E+02 4.09070E+01 0.00000E+00
 -1      2770 1.27650E+02 3.96080E+01 0.00000E+00
 -1      2771 1.31400E+02 4.09070E+01 0.00000E+00
 -1      2772 1.32900E+02 4.09070E+01 0.00000E+00
 -1      2773 1.30650E+02 3.96080E+01 0.00000E+00
 -1      2774 1.34400E+02 4.09070E+01 0.00000E+00
 -1      2775 1.35900E+02 4.09070E+01 0.00000E+00
 -1      2776 1.33650E+02 3.96080E+01 0.00000E+00
 -1      2777 1.37400E+02 4.09070E+01 0.00000E+00
 -1      2778 1.38900E+02 4.09070E+01 0.00000E+00
 -1      2779 1.36650E+02 3.96080E+01 0.00000E+00
 -1      2780 2.42850E+01 7.90325E+00 0.00000E+00
 -1      2781 2.27850E+01 7.90325E+00 0.00000E+00
 -1      2782 1.40706E+02 1.03250E+01 0.00000E+00
 -1      2783 1.40620E+02 8.46463E+00 0.00000E+00
 -1      2784 1.39120E+02 8.46463E+00 0.00000E+00
 -1      2785 2.12850E+01 7.90325E+00 0.00000E+00
 -1      2786 1.97850E+01 7.90325E+00 0.00000E+00
 -1      2787 2.20350E+01 9.20225E+00 0.00000E+00
 -1      2788 3.02850E+01 7.90325E+00 0.00000E+00
 -1      2789 2.87850E+01 7.90325E+00 0.00000E+00
 -1      2790 3.32850E+01 7.90325E+00 0.00000E+00
 -1      2791 3.17850E+01 7.90325E+00 0.00000E+00
 -1      2792 3.10350E+01 9.20225E+00 0.00000E+00
 -1      2793 3.62850E+01 7.90325E+00 0.00000E+00
 -1      2794 3.47850E+01 7.90325E+00 0.00000E+00
 -1      2795 3.40350E+01 9.20225E+00 0.00000E+00
 -1      2796 3.92850E+01 7.90325E+00 0.00000E+00
 -1      2797 3.77850E+01 7.90325E+00 0.00000E+00
 -1      2798 3.70350E+01 9.20225E+00 0.00000E+00
 -1      2799 4.22850E+01 7.90325E+00 0.00000E+00
 -1      2800 4.07850E+01 7.90325E+00 0.00000E+00
 -1      2801 4.00350E+01 9.20225E+00 0.00000E+00
 -1      2802 4.81121E+01 8.16644E+00 0.00000E+00
 -1      2803 4.66121E+01 8.16644E+00 0.00000E+00
 -1      2804 5.71232E+01 8.42743E+00 0.00000E+00
 -1      2805 5.56232E+01 8.42743E+00 0.00000E+00
 -1      2806 6.04882E+01 9.04589E+00 0.00000E+00
 -1      2807 5.89882E+01 9.04589E+00 0.00000E+00
 -1      2808 6.34882E+01 9.04589E+00 0.00000E+00
 -1      2809 6.19882E+01 9.04589E+00 0.00000E+00
 -1      2810 6.14414E+01 1.14875E+01 0.00000E+00
 -1      2811 6.64882E+01 9.04589E+00 0.00000E+00
 -1      2812 6.49882E+01 9.04589E+00 0.00000E+00
 -1      2813 6.44414E+01 1.14875E+01 0.00000E+00
 -1      2814 6.94882E+01 9.04589E+00 0.00000E+00
 -1      2815 6.79882E+01 9.04589E+00 0.00000E+00
 -1      2816 6.74414E+01 1.14875E+01 0.00000E+00
 -1      2817 7.24882E+01 9.04589E+00 0.00000E+00
 -1      2818 7.09882E+01 9.04589E+00 0.00000E+00
 -1      2819 7.04414E+01 1.14875E+01 0.00000E+00
 -1      2820 7.54882E+01 9.04589E+00 0.00000E+00
 -1      2821 7.39882E+01 9.04589E+00 0.00000E+00
 -1      2822 7.34414E+01 1.14875E+01 0.00000E+00
 -1      2823 7.84882E+01 9.04589E+00 0.00000E+00
 -1      2824 7.69882E+01 9.04589E+00 0.00000E+00
 -1      2825 7.64414E+01 1.14875E+01 0.00000E+00
 -1      2826 8.14882E+01 9.04589E+00 0.00000E+00
 -1      2827 7.99882E+01 9.04589E+00 0.00000E+00
 -1      2828 7.94414E+01 1.14875E+01 0.00000E+00
 -1      2829 8.44882E+01 9.04589E+00 0.00000E+00
 -1      2830 8.29882E+01 9.04589E+00 0.00000E+00
 -1      2831 8.24414E+01 1.14875E+01 0.00000E+00
 -1      2832 8.74882E+01 9.04589E+00 0.00000E+00
 -1      2833 8.59882E+01 9.04589E+00 0.00000E+00
 -1      2834 8.54414E+01 1.14875E+01 0.00000E+00
 -1      2835 9.04882E+01 9.04589E+00 0.00000E+00
 -1      2836 8.89882E+01 9.04589E+00 0.00000E+00
 -1      2837 8.84414E+01 1.14875E+01 0.00000E+00
 -1      2838 9.34882E+01 9.04589E+00 0.00000E+00
 -1      2839 9.19882E+01 9.04589E+00 0.00000E+00
 -1      2840 9.14414E+01 1.14875E+01 0.00000E+00
 -1      2841 9.64882E+01 9.04589E+00 0.00000E+00
 -1      2842 9.49882E+01 9.04589E+00 0.00000E+00
 -1      2843 9.44414E+01 1.14875E+01 0.00000E+00
 -1      2844 9.94882E+01 9.04589E+00 0.00000E+00
 -1      2845 9.79882E+01 9.04589E+00 0.00000E+00
 -1      2846 9.74414E+01 1.14875E+01 0.00000E+00
 -1      2847 1.02488E+02 9.04589E+00 0.00000E+00
 -1      2848 1.00988E+02 9.04589E+00 0.00000E+00
 -1      2849 1.00441E+02 1.14875E+01 0.00000E+00
 -1      2850 1.05488E+02 9.04589E+00 0.00000E+00
 -1      2851 1.03988E+02 9.04589E+00 0.00000E+00
 -1      2852 1.03441E+02 1.14875E+01 0.00000E+00
 -1      2853 1.08488E+02 9.04589E+00 0.00000E+00
 -1      2854 1.06988E+02 9.04589E+00 0.00000E+00
 -1      2855 1.06441E+02 1.14875E+01 0.00000E+00
 -1      2856 1.11488E+02 9.04589E+00 0.00000E+00
 -1      2857 1.09988E+02 9.04589E+00 0.00000E+00
 -1      2858 1.09441E+02 1.14875E+01 0.00000E+00
 -1      2859 1.14488E+02 9.04589E+00 0.00000E+00
 -1      2860 1.12988E+02 9.04589E+00 0.00000E+00
 -1      2861 1.12441E+02 1.14875E+01 0.00000E+00
 -1      2862 1.17488E+02 9.04589E+00 0.00000E+00
 -1      2863 1.15988E+02 9.04589E+00 0.00000E+00
 -1      2864 1.15441E+02 1.14875E+01 0.00000E+00
 -1      2865 1.20488E+02 9.04589E+00 0.00000E+00
 -1      2866 1.18988E+02 9.04589E+00 0.00000E+00
 -1      2867 1.18441E+02 1.14875E+01 0.00000E+00
 -1      2868 1.23488E+02 9.04589E+00 0.00000E+00
 -1      2869 1.21988E+02 9.04589E+00 0.00000E+00
 -1      2870 1.21441E+02 1.14875E+01 0.00000E+00
 -1      2871 1.26488E+02 9.04589E+00 0.00000E+00
 -1      2872 1.24988E+02 9.04589E+00 0.00000E+00
 -1      2873 1.24441E+02 1.14875E+01 0.00000E+00
 -1      2874 1.29488E+02 9.04589E+00 0.00000E+00
 -1      2875 1.27988E+02 9.04589E+00 0.00000E+00
 -1      2876 1.27441E+02 1.14875E+01 0.00000E+00
 -1      2877 1.32488E+02 9.04589E+00 0.00000E+00
 -1      2878 1.30988E+02 9.04589E+00 0.00000E+00
 -1      2879 1.30441E+02 1.14875E+01 0.00000E+00
 -1      2880 1.35488E+02 9.04589E+00 0.00000E+00
 -1      2881 1.33988E+02 9.04589E+00 0.00000E+00
 -1      2882 1.33441E+02 1.14875E+01 0.00000E+00
 -1      2883 1.37620E+02 8.46463E+00 0.00000E+00
 -1      2884 6.07668E+01 1.32157E+01 0.00000E+00
 -1      2885 6.16630E+01 1.41158E+01 0.00000E+00
 -1      2886 1.40907E+02 2.42875E+01 0.00000E+00
 -1      2887 1.40907E+02 2.28125E+01 0.00000E+00
 -1      2888 5.81742E+01 3.11002E+01 0.00000E+00
 -1      2889 5.71604E+01 3.19304E+01 0.00000E+00
 -1      2890 1.40907E+02 1.83875E+01 0.00000E+00
 -1      2891 1.40907E+02 1.69125E+01 0.00000E+00
 -1      2892 1.40907E+02 2.72375E+01 0.00000E+00
 -1      2893 1.40907E+02 2.57625E+01 0.00000E+00
 -1      2894 1.39608E+02 2.50250E+01 0.00000E+00
 -1      2895 1.40907E+02 2.13375E+01 0.00000E+00
 -1      2896 1.40907E+02 1.98625E+01 0.00000E+00
 -1      2897 1.39608E+02 1.91250E+01 0.00000E+00
 -1      2898 1.39608E+02 2.20750E+01 0.00000E+00
 -1      2899 1.40907E+02 3.01375E+01 0.00000E+00
 -1      2900 1.40907E+02 2.86875E+01 0.00000E+00
 -1      2901 1.39608E+02 2.79500E+01 0.00000E+00
 -1      2902 1.40907E+02 3.30875E+01 0.00000E+00
 -1      2903 1.40907E+02 3.16125E+01 0.00000E+00
 -1      2904 1.39608E+02 3.08750E+01 0.00000E+00
 -1      2905 1.40907E+02 3.60375E+01 0.00000E+00
 -1      2906 1.40907E+02 3.45625E+01 0.00000E+00
 -1      2907 1.39608E+02 3.38250E+01 0.00000E+00
 -1      2908 6.23756E+01 1.57170E+01 0.00000E+00
 -1      2909 6.24824E+01 1.68687E+01 0.00000E+00
 -1      2910 6.34735E+01 1.72966E+01 0.00000E+00
 -1      2911 9.32250E+00 4.05749E+01 0.00000E+00
 -1      2912 1.06860E+01 4.08389E+01 0.00000E+00
 -1      2913 1.21860E+01 4.08389E+01 0.00000E+00
 -1      2914 9.25800E+00 3.81046E+01 0.00000E+00
 -1      2915 4.10077E+01 2.75993E+01 0.00000E+00
 -1      2916 4.05302E+01 2.64325E+01 0.00000E+00
 -1      2917 1.82850E+01 7.90325E+00 0.00000E+00
 -1      2918 1.67850E+01 7.90325E+00 0.00000E+00
 -1      2919 1.90350E+01 9.20225E+00 0.00000E+00
 -1      2920 2.72850E+01 7.90325E+00 0.00000E+00
 -1      2921 2.57850E+01 7.90325E+00 0.00000E+00
 -1      2922 2.50350E+01 9.20225E+00 0.00000E+00
 -1      2923 2.80350E+01 9.20225E+00 0.00000E+00
 -1      2924 9.09300E+00 1.68813E+01 0.00000E+00
 -1      2925 9.09300E+00 1.83563E+01 0.00000E+00
 -1      2926 1.03920E+01 1.90812E+01 0.00000E+00
 -1      2927 1.03920E+01 1.61437E+01 0.00000E+00
 -1      2928 1.52850E+01 7.90325E+00 0.00000E+00
 -1      2929 1.37850E+01 7.90325E+00 0.00000E+00
 -1      2930 1.30350E+01 9.20225E+00 0.00000E+00
 -1      2931 1.60350E+01 9.20225E+00 0.00000E+00
 -1      2932 4.07064E+01 1.50740E+01 0.00000E+00
 -1      2933 4.13783E+01 1.41354E+01 0.00000E+00
 -1      2934 4.02051E+01 2.51038E+01 0.00000E+00
 -1      2935 3.99687E+01 2.39747E+01 0.00000E+00
 -1      2936 3.98372E+01 1.73646E+01 0.00000E+00
 -1      2937 4.01492E+01 1.63618E+01 0.00000E+00
 -1      2938 3.98285E+01 2.26532E+01 0.00000E+00
 -1      2939 3.98207E+01 2.14796E+01 0.00000E+00
 -1      2940 5.41298E+01 8.46305E+00 0.00000E+00
 -1      2941 9.09300E+00 3.15875E+01 0.00000E+00
 -1      2942 9.09300E+00 3.30625E+01 0.00000E+00
 -1      2943 1.40928E+02 4.09655E+01 0.00000E+00
 -1      2944 1.41192E+02 3.96958E+01 0.00000E+00
 -1      2945 1.39914E+02 4.09362E+01 0.00000E+00
 -1      2946 4.71530E+01 3.23557E+01 0.00000E+00
 -1      2947 4.63054E+01 3.17753E+01 0.00000E+00
 -1      2948 4.92592E+01 9.33843E+00 0.00000E+00
 -1      2949 5.01028E+01 9.24298E+00 0.00000E+00
 -1      2950 4.41404E+01 1.11166E+01 0.00000E+00
 -1      2951 4.53020E+01 1.06101E+01 0.00000E+00
 -1      2952 6.37495E+01 2.06203E+01 0.00000E+00
 -1      2953 6.35932E+01 2.18157E+01 0.00000E+00
 -1      2954 5.27031E+01 3.35545E+01 0.00000E+00
 -1      2955 5.16509E+01 3.34785E+01 0.00000E+00
 -1      2956 5.99456E+01 2.96664E+01 0.00000E+00
 -1      2957 5.91590E+01 3.03708E+01 0.00000E+00
 -1      2958 6.26242E+01 2.56162E+01 0.00000E+00
 -1      2959 6.22477E+01 2.64986E+01 0.00000E+00
 -1      2960 4.21059E+01 1.31972E+01 0.00000E+00
 -1      2961 4.28334E+01 1.22589E+01 0.00000E+00
 -1      2962 4.09364E+01 1.30697E+01 0.00000E+00
 -1      2963 6.14830E+01 2.75602E+01 0.00000E+00
 -1      2964 6.07417E+01 2.85815E+01 0.00000E+00
 -1      2965 9.09300E+00 3.45313E+01 0.00000E+00
 -1      2966 9.09300E+00 3.60000E+01 0.00000E+00
 -1      2967 1.03920E+01 3.37938E+01 0.00000E+00
 -1      2968 1.03920E+01 2.49750E+01 0.00000E+00
 -1      2969 9.09300E+00 2.57000E+01 0.00000E+00
 -1      2970 9.09300E+00 2.71750E+01 0.00000E+00
 -1      2971 3.96516E+01 1.52957E+01 0.00000E+00
 -1      2972 3.95727E+01 2.60437E+01 0.00000E+00
 -1      2973 9.66450E+00 9.72612E+00 0.00000E+00
 -1      2974 6.42380E+01 2.26779E+01 0.00000E+00
 -1      2975 5.67265E+01 3.28141E+01 0.00000E+00
 -1      2976 5.62926E+01 3.36977E+01 0.00000E+00
 -1      2977 5.77767E+01 3.30624E+01 0.00000E+00
 -1      2978 5.07403E+01 3.39708E+01 0.00000E+00
 -1      2979 5.46424E+01 3.44338E+01 0.00000E+00
 -1      2980 5.36727E+01 3.39942E+01 0.00000E+00
 -1      2981 5.30728E+01 3.49786E+01 0.00000E+00
 -1      2982 1.39164E+02 3.96372E+01 0.00000E+00
 -1      2983 6.26540E+01 1.45437E+01 0.00000E+00
 -1      2984 4.36565E+01 8.22557E+00 0.00000E+00
 -1      2985 4.29065E+01 9.52457E+00 0.00000E+00
 -1      2986 4.51565E+01 8.22557E+00 0.00000E+00
 -1      2987 5.08122E+01 7.54223E+00 0.00000E+00
 -1      2988 4.93122E+01 7.54223E+00 0.00000E+00
 -1      2989 5.35910E+01 7.44952E+00 0.00000E+00
 -1      2990 5.20910E+01 7.44952E+00 0.00000E+00
 -1      2991 1.37074E+02 1.09063E+01 0.00000E+00
 -1      2992 6.09414E+01 1.22150E+01 0.00000E+00
 -1      2993 6.36280E+01 2.52268E+01 0.00000E+00
 -1      2994 1.39608E+02 1.61875E+01 0.00000E+00
 -1      2995 1.40907E+02 1.54500E+01 0.00000E+00
 -1      2996 1.40907E+02 1.39875E+01 0.00000E+00
 -1      2997 1.40706E+02 1.17875E+01 0.00000E+00
 -1      2998 6.09764E+01 2.96349E+01 0.00000E+00
 -1      2999 6.40510E+01 1.98887E+01 0.00000E+00
 -1      3000 6.48232E+01 2.05975E+01 0.00000E+00
 -1      3001 6.43525E+01 1.91571E+01 0.00000E+00
 -1      3002 1.41192E+02 3.82207E+01 0.00000E+00
 -1      3003 1.29360E+01 3.95399E+01 0.00000E+00
 -1      3004 5.08681E+01 8.38750E+00 0.00000E+00
 -1      3005 4.29709E+01 1.09892E+01 0.00000E+00
 -1      3006 4.84691E+01 3.38201E+01 0.00000E+00
 -1      3007 4.78111E+01 3.30879E+01 0.00000E+00
 -1      3008 4.69028E+01 3.35053E+01 0.00000E+00
 -1      3009 4.83893E+01 9.10442E+00 0.00000E+00
 -1      3010 3.92664E+01 2.07171E+01 0.00000E+00
 -1      3011 1.39529E+02 3.85602E+01 0.00000E+00
 -1      3012 1.40542E+02 3.71145E+01 0.00000E+00
 -1      3013 1.39243E+02 3.63770E+01 0.00000E+00
 -1      3014 1.38514E+02 3.85310E+01 0.00000E+00
 -1      3015 5.91954E+01 3.14493E+01 0.00000E+00
 -1      3016 4.35637E+01 3.01347E+01 0.00000E+00
 -1      3017 4.57336E+01 9.78776E+00 0.00000E+00
 -1      3018 4.13315E+01 2.91801E+01 0.00000E+00
 -1      3019 4.11696E+01 2.83897E+01 0.00000E+00
 -1      3020 4.00597E+01 2.81628E+01 0.00000E+00
 -1      3021 4.54653E+01 3.18178E+01 0.00000E+00
 -1      3022 3.91073E+01 2.33935E+01 0.00000E+00
 -1      3023 5.80764E+01 1.08691E+01 0.00000E+00
 -1      3024 3.93301E+01 1.79728E+01 0.00000E+00
 -1      3025 3.85873E+01 1.71918E+01 0.00000E+00
 -1      3026 3.88230E+01 1.85811E+01 0.00000E+00
 -1      3027 9.09300E+00 2.86437E+01 0.00000E+00
 -1      3028 9.09300E+00 3.01187E+01 0.00000E+00
 -1      3029 1.03920E+01 3.08563E+01 0.00000E+00
 -1      3030 1.03920E+01 2.79188E+01 0.00000E+00
 -1      3031 1.09635E+01 1.04636E+01 0.00000E+00
 -1      3032 6.25371E+01 2.74884E+01 0.00000E+00
 -1      3033 6.54703E+01 2.22329E+01 0.00000E+00
 -1      3034 6.51867E+01 2.35817E+01 0.00000E+00
 -1      3035 1.16910E+01 1.24625E+01 0.00000E+00
 -1      3036 1.16910E+01 1.39375E+01 0.00000E+00
 -1      3037 6.36152E+01 2.74588E+01 0.00000E+00
 -1      3038 6.28506E+01 2.85204E+01 0.00000E+00
 -1      3039 1.89000E+01 3.83090E+01 0.00000E+00
 -1      3040 2.04000E+01 3.83090E+01 0.00000E+00
 -1      3041 2.19000E+01 3.83090E+01 0.00000E+00
 -1      3042 2.34000E+01 3.83090E+01 0.00000E+00
 -1      3043 2.11500E+01 3.70100E+01 0.00000E+00
 -1      3044 2.49000E+01 3.83090E+01 0.00000E+00
 -1      3045 2.64000E+01 3.83090E+01 0.00000E+00
 -1      3046 2.41500E+01 3.70100E+01 0.00000E+00
 -1      3047 2.79000E+01 3.83090E+01 0.00000E+00
 -1      3048 2.94000E+01 3.83090E+01 0.00000E+00
 -1      3049 2.71500E+01 3.70100E+01 0.00000E+00
 -1      3050 3.09000E+01 3.83090E+01 0.00000E+00
 -1      3051 3.24000E+01 3.83090E+01 0.00000E+00
 -1      3052 3.01500E+01 3.70100E+01 0.00000E+00
 -1      3053 3.39000E+01 3.83090E+01 0.00000E+00
 -1      3054 3.54000E+01 3.83090E+01 0.00000E+00
 -1      3055 3.31500E+01 3.70100E+01 0.00000E+00
 -1      3056 3.69000E+01 3.83090E+01 0.00000E+00
 -1      3057 3.84000E+01 3.83090E+01 0.00000E+00
 -1      3058 3.61500E+01 3.70100E+01 0.00000E+00
 -1      3059 3.99000E+01 3.83090E+01 0.00000E+00
 -1      3060 4.14000E+01 3.83090E+01 0.00000E+00
 -1      3061 3.91500E+01 3.70100E+01 0.00000E+00
 -1      3062 4.29000E+01 3.83090E+01 0.00000E+00
 -1      3063 4.44000E+01 3.83090E+01 0.00000E+00
 -1      3064 4.21500E+01 3.70100E+01 0.00000E+00
 -1      3065 4.59000E+01 3.83090E+01 0.00000E+00
 -1      3066 4.74000E+01 3.83090E+01 0.00000E+00
 -1      3067 4.51500E+01 3.70100E+01 0.00000E+00
 -1      3068 4.89000E+01 3.83090E+01 0.00000E+00
 -1      3069 5.04000E+01 3.83090E+01 0.00000E+00
 -1      3070 4.81500E+01 3.70100E+01 0.00000E+00
 -1      3071 5.25962E+01 3.75131E+01 0.00000E+00
 -1      3072 5.40962E+01 3.75131E+01 0.00000E+00
 -1      3073 5.55962E+01 3.75131E+01 0.00000E+00
 -1      3074 5.79000E+01 3.83315E+01 0.00000E+00
 -1      3075 5.94000E+01 3.83315E+01 0.00000E+00
 -1      3076 6.09000E+01 3.83315E+01 0.00000E+00
 -1      3077 6.24000E+01 3.83315E+01 0.00000E+00
 -1      3078 6.01500E+01 3.70550E+01 0.00000E+00
 -1      3079 6.39000E+01 3.83315E+01 0.00000E+00
 -1      3080 6.54000E+01 3.83315E+01 0.00000E+00
 -1      3081 6.31500E+01 3.70550E+01 0.00000E+00
 -1      3082 6.69000E+01 3.83315E+01 0.00000E+00
 -1      3083 6.84000E+01 3.83315E+01 0.00000E+00
 -1      3084 6.61500E+01 3.70550E+01 0.00000E+00
 -1      3085 6.99000E+01 3.83315E+01 0.00000E+00
 -1      3086 7.14000E+01 3.83315E+01 0.00000E+00
 -1      3087 6.91500E+01 3.70550E+01 0.00000E+00
 -1      3088 7.29000E+01 3.83315E+01 0.00000E+00
 -1      3089 7.44000E+01 3.83315E+01 0.00000E+00
 -1      3090 7.21500E+01 3.70550E+01 0.00000E+00
 -1      3091 7.59000E+01 3.83315E+01 0.00000E+00
 -1      3092 7.74000E+01 3.83315E+01 0.00000E+00
 -1      3093 7.51500E+01 3.70550E+01 0.00000E+00
 -1      3094 7.89000E+01 3.83315E+01 0.00000E+00
 -1      3095 8.04000E+01 3.83315E+01 0.00000E+00
 -1      3096 7.81500E+01 3.70550E+01 0.00000E+00
 -1      3097 8.19000E+01 3.83315E+01 0.00000E+00
 -1      3098 8.34000E+01 3.83315E+01 0.00000E+00
 -1      3099 8.11500E+01 3.70550E+01 0.00000E+00
 -1      3100 8.49000E+01 3.83315E+01 0.00000E+00
 -1      3101 8.64000E+01 3.83315E+01 0.00000E+00
 -1      3102 8.41500E+01 3.70550E+01 0.00000E+00
 -1      3103 8.79000E+01 3.83315E+01 0.00000E+00
 -1      3104 8.94000E+01 3.83315E+01 0.00000E+00
 -1      3105 8.71500E+01 3.70550E+01 0.00000E+00
 -1      3106 9.09000E+01 3.83315E+01 0.00000E+00
 -1      3107 9.24000E+01 3.83315E+01 0.00000E+00
 -1      3108 9.01500E+01 3.70550E+01 0.00000E+00
 -1      3109 9.39000E+01 3.83315E+01 0.00000E+00
 -1      3110 9.54000E+01 3.83315E+01 0.00000E+00
 -1      3111 9.31500E+01 3.70550E+01 0.00000E+00
 -1      3112 9.69000E+01 3.83315E+01 0.00000E+00
 -1      3113 9.84000E+01 3.83315E+01 0.00000E+00
 -1      3114 9.61500E+01 3.70550E+01 0.00000E+00
 -1      3115 9.99000E+01 3.83315E+01 0.00000E+00
 -1      3116 1.01400E+02 3.83315E+01 0.00000E+00
 -1      3117 9.91500E+01 3.70550E+01 0.00000E+00
 -1      3118 1.02900E+02 3.83315E+01 0.00000E+00
 -1      3119 1.04400E+02 3.83315E+01 0.00000E+00
 -1      3120 1.02150E+02 3.70550E+01 0.00000E+00
 -1      3121 1.05900E+02 3.83315E+01 0.00000E+00
 -1      3122 1.07400E+02 3.83315E+01 0.00000E+00
 -1      3123 1.05150E+02 3.70550E+01 0.00000E+00
 -1      3124 1.08900E+02 3.83315E+01 0.00000E+00
 -1      3125 1.10400E+02 3.83315E+01 0.00000E+00
 -1      3126 1.08150E+02 3.70550E+01 0.00000E+00
 -1      3127 1.11900E+02 3.83315E+01 0.00000E+00
 -1      3128 1.13400E+02 3.83315E+01 0.00000E+00
 -1      3129 1.11150E+02 3.70550E+01 0.00000E+00
 -1      3130 1.14900E+02 3.83315E+01 0.00000E+00
 -1      3131 1.16400E+02 3.83315E+01 0.00000E+00
 -1      3132 1.14150E+02 3.70550E+01 0.00000E+00
 -1      3133 1.17900E+02 3.83315E+01 0.00000E+00
 -1      3134 1.19400E+02 3.83315E+01 0.00000E+00
 -1      3135 1.17150E+02 3.70550E+01 0.00000E+00
 -1      3136 1.20900E+02 3.83315E+01 0.00000E+00
 -1      3137 1.22400E+02 3.83315E+01 0.00000E+00
 -1      3138 1.20150E+02 3.70550E+01 0.00000E+00
 -1      3139 1.23900E+02 3.83315E+01 0.00000E+00
 -1      3140 1.25400E+02 3.83315E+01 0.00000E+00
 -1      3141 1.23150E+02 3.70550E+01 0.00000E+00
 -1      3142 1.26900E+02 3.83315E+01 0.00000E+00
 -1      3143 1.28400E+02 3.83315E+01 0.00000E+00
 -1      3144 1.26150E+02 3.70550E+01 0.00000E+00
 -1      3145 1.29900E+02 3.83315E+01 0.00000E+00
 -1      3146 1.31400E+02 3.83315E+01 0.00000E+00
 -1      3147 1.29150E+02 3.70550E+01 0.00000E+00
 -1      3148 1.32900E+02 3.83315E+01 0.00000E+00
 -1      3149 1.34400E+02 3.83315E+01 0.00000E+00
 -1      3150 1.32150E+02 3.70550E+01 0.00000E+00
 -1      3151 1.35707E+02 3.84313E+01 0.00000E+00
 -1      3152 1.37207E+02 3.84313E+01 0.00000E+00
 -1      3153 1.37572E+02 3.73543E+01 0.00000E+00
 -1      3154 1.34957E+02 3.71548E+01 0.00000E+00
 -1      3155 2.27850E+01 1.05013E+01 0.00000E+00
 -1      3156 2.12850E+01 1.05013E+01 0.00000E+00
 -1      3157 3.97625E+01 1.29107E+01 0.00000E+00
 -1      3158 4.04900E+01 1.19724E+01 0.00000E+00
 -1      3159 3.47850E+01 1.05013E+01 0.00000E+00
 -1      3160 3.32850E+01 1.05013E+01 0.00000E+00
 -1      3161 3.17850E+01 1.05013E+01 0.00000E+00
 -1      3162 3.02850E+01 1.05013E+01 0.00000E+00
 -1      3163 3.25350E+01 1.18003E+01 0.00000E+00
 -1      3164 4.04256E+01 1.05078E+01 0.00000E+00
 -1      3165 3.89256E+01 1.05078E+01 0.00000E+00
 -1      3166 1.26488E+01 1.02017E+01 0.00000E+00
 -1      3167 1.20772E+01 1.14631E+01 0.00000E+00
 -1      3168 1.33763E+01 1.22006E+01 0.00000E+00
 -1      3169 1.41488E+01 1.02017E+01 0.00000E+00
 -1      3170 1.38481E+02 1.18689E+01 0.00000E+00
 -1      3171 1.36349E+02 1.24502E+01 0.00000E+00
 -1      3172 6.24414E+01 1.22150E+01 0.00000E+00
 -1      3173 7.11914E+01 1.27865E+01 0.00000E+00
 -1      3174 6.96914E+01 1.27865E+01 0.00000E+00
 -1      3175 7.41914E+01 1.27865E+01 0.00000E+00
 -1      3176 7.26914E+01 1.27865E+01 0.00000E+00
 -1      3177 7.19414E+01 1.40855E+01 0.00000E+00
 -1      3178 7.71914E+01 1.27865E+01 0.00000E+00
 -1      3179 7.56914E+01 1.27865E+01 0.00000E+00
 -1      3180 7.49414E+01 1.40855E+01 0.00000E+00
 -1      3181 8.01914E+01 1.27865E+01 0.00000E+00
 -1      3182 7.86914E+01 1.27865E+01 0.00000E+00
 -1      3183 7.79414E+01 1.40855E+01 0.00000E+00
 -1      3184 8.31914E+01 1.27865E+01 0.00000E+00
 -1      3185 8.16914E+01 1.27865E+01 0.00000E+00
 -1      3186 8.09414E+01 1.40855E+01 0.00000E+00
 -1      3187 8.61914E+01 1.27865E+01 0.00000E+00
 -1      3188 8.46914E+01 1.27865E+01 0.00000E+00
 -1      3189 8.39414E+01 1.40855E+01 0.00000E+00
 -1      3190 8.91914E+01 1.27865E+01 0.00000E+00
 -1      3191 8.76914E+01 1.27865E+01 0.00000E+00
 -1      3192 8.69414E+01 1.40855E+01 0.00000E+00
 -1      3193 9.21914E+01 1.27865E+01 0.00000E+00
 -1      3194 9.06914E+01 1.27865E+01 0.00000E+00
 -1      3195 8.99414E+01 1.40855E+01 0.00000E+00
 -1      3196 9.51914E+01 1.27865E+01 0.00000E+00
 -1      3197 9.36914E+01 1.27865E+01 0.00000E+00
 -1      3198 9.29414E+01 1.40855E+01 0.00000E+00
 -1      3199 9.81914E+01 1.27865E+01 0.00000E+00
 -1      3200 9.66914E+01 1.27865E+01 0.00000E+00
 -1      3201 9.59414E+01 1.40855E+01 0.00000E+00
 -1      3202 1.01191E+02 1.27865E+01 0.00000E+00
 -1      3203 9.96914E+01 1.27865E+01 0.00000E+00
 -1      3204 9.89414E+01 1.40855E+01 0.00000E+00
 -1      3205 1.04191E+02 1.27865E+01 0.00000E+00
 -1      3206 1.02691E+02 1.27865E+01 0.00000E+00
 -1      3207 1.01941E+02 1.40855E+01 0.00000E+00
 -1      3208 1.07191E+02 1.27865E+01 0.00000E+00
 -1      3209 1.05691E+02 1.27865E+01 0.00000E+00
 -1      3210 1.04941E+02 1.40855E+01 0.00000E+00
 -1      3211 1.10191E+02 1.27865E+01 0.00000E+00
 -1      3212 1.08691E+02 1.27865E+01 0.00000E+00
 -1      3213 1.07941E+02 1.40855E+01 0.00000E+00
 -1      3214 1.13191E+02 1.27865E+01 0.00000E+00
 -1      3215 1.11691E+02 1.27865E+01 0.00000E+00
 -1      3216 1.10941E+02 1.40855E+01 0.00000E+00
 -1      3217 1.16191E+02 1.27865E+01 0.00000E+00
 -1      3218 1.14691E+02 1.27865E+01 0.00000E+00
 -1      3219 1.13941E+02 1.40855E+01 0.00000E+00
 -1      3220 1.19191E+02 1.27865E+01 0.00000E+00
 -1      3221 1.17691E+02 1.27865E+01 0.00000E+00
 -1      3222 1.16941E+02 1.40855E+01 0.00000E+00
 -1      3223 1.22191E+02 1.27865E+01 0.00000E+00
 -1      3224 1.20691E+02 1.27865E+01 0.00000E+00
 -1      3225 1.19941E+02 1.40855E+01 0.00000E+00
 -1      3226 1.25191E+02 1.27865E+01 0.00000E+00
 -1      3227 1.23691E+02 1.27865E+01 0.00000E+00
 -1      3228 1.22941E+02 1.40855E+01 0.00000E+00
 -1      3229 1.28191E+02 1.27865E+01 0.00000E+00
 -1      3230 1.26691E+02 1.27865E+01 0.00000E+00
 -1      3231 1.25941E+02 1.40855E+01 0.00000E+00
 -1      3232 1.31191E+02 1.27865E+01 0.00000E+00
 -1      3233 1.29691E+02 1.27865E+01 0.00000E+00
 -1      3234 1.28941E+02 1.40855E+01 0.00000E+00
 -1      3235 1.34191E+02 1.27865E+01 0.00000E+00
 -1      3236 1.32691E+02 1.27865E+01 0.00000E+00
 -1      3237 1.31941E+02 1.40855E+01 0.00000E+00
 -1      3238 1.38309E+02 2.86750E+01 0.00000E+00
 -1      3239 1.38309E+02 2.72250E+01 0.00000E+00
 -1      3240 5.08766E+01 3.57745E+01 0.00000E+00
 -1      3241 4.95137E+01 3.52063E+01 0.00000E+00
 -1      3242 1.38309E+02 2.57500E+01 0.00000E+00
 -1      3243 1.38309E+02 2.42750E+01 0.00000E+00
 -1      3244 1.37010E+02 2.64750E+01 0.00000E+00
 -1      3245 6.03479E+01 3.19757E+01 0.00000E+00
 -1      3246 5.93631E+01 3.27051E+01 0.00000E+00
 -1      3247 6.44408E+01 1.66261E+01 0.00000E+00
 -1      3248 6.45476E+01 1.77778E+01 0.00000E+00
 -1      3249 4.15995E+01 1.06669E+01 0.00000E+00
 -1      3250 1.05570E+01 3.73671E+01 0.00000E+00
 -1      3251 1.38309E+02 3.16250E+01 0.00000E+00
 -1      3252 1.38309E+02 3.01500E+01 0.00000E+00
 -1      3253 1.37010E+02 2.94250E+01 0.00000E+00
 -1      3254 1.38309E+02 3.45750E+01 0.00000E+00
 -1      3255 1.38309E+02 3.31000E+01 0.00000E+00
 -1      3256 1.37010E+02 3.23750E+01 0.00000E+00
 -1      3257 1.97850E+01 1.05013E+01 0.00000E+00
 -1      3258 1.82850E+01 1.05013E+01 0.00000E+00
 -1      3259 2.05350E+01 1.18003E+01 0.00000E+00
 -1      3260 3.85091E+01 1.55658E+01 0.00000E+00
 -1      3261 3.90663E+01 1.42780E+01 0.00000E+00
 -1      3262 6.81914E+01 1.27865E+01 0.00000E+00
 -1      3263 6.66914E+01 1.27865E+01 0.00000E+00
 -1      3264 6.89414E+01 1.40855E+01 0.00000E+00
 -1      3265 3.80340E+01 2.11553E+01 0.00000E+00
 -1      3266 3.83334E+01 1.98004E+01 0.00000E+00
 -1      3267 4.50608E+01 3.29436E+01 0.00000E+00
 -1      3268 4.42813E+01 3.19883E+01 0.00000E+00
 -1      3269 6.53164E+01 1.25008E+01 0.00000E+00
 -1      3270 6.38164E+01 1.25008E+01 0.00000E+00
 -1      3271 6.33164E+01 1.32282E+01 0.00000E+00
 -1      3272 6.60664E+01 1.37998E+01 0.00000E+00
 -1      3273 6.48604E+01 2.47817E+01 0.00000E+00
 -1      3274 6.45341E+01 2.59818E+01 0.00000E+00
 -1      3275 6.60927E+01 2.43367E+01 0.00000E+00
 -1      3276 3.76053E+01 1.05045E+01 0.00000E+00
 -1      3277 3.61053E+01 1.05045E+01 0.00000E+00
 -1      3278 3.53553E+01 1.18035E+01 0.00000E+00
 -1      3279 3.79959E+01 1.18101E+01 0.00000E+00
 -1      3280 3.88209E+01 2.69318E+01 0.00000E+00
 -1      3281 3.84958E+01 2.56030E+01 0.00000E+00
 -1      3282 6.20658E+01 2.95998E+01 0.00000E+00
 -1      3283 6.12697E+01 3.06847E+01 0.00000E+00
 -1      3284 1.59000E+01 3.83090E+01 0.00000E+00
 -1      3285 1.74000E+01 3.83090E+01 0.00000E+00
 -1      3286 1.81500E+01 3.70100E+01 0.00000E+00
 -1      3287 1.21215E+01 3.78040E+01 0.00000E+00
 -1      3288 1.43355E+01 3.78721E+01 0.00000E+00
 -1      3289 1.50855E+01 3.65731E+01 0.00000E+00
 -1      3290 1.19565E+01 3.56994E+01 0.00000E+00
 -1      3291 4.31591E+01 3.12605E+01 0.00000E+00
 -1      3292 4.20370E+01 3.05326E+01 0.00000E+00
 -1      3293 4.27546E+01 3.23862E+01 0.00000E+00
 -1      3294 1.16910E+01 2.12875E+01 0.00000E+00
 -1      3295 1.16910E+01 2.27625E+01 0.00000E+00
 -1      3296 3.79914E+01 2.41801E+01 0.00000E+00
 -1      3297 3.78511E+01 2.28587E+01 0.00000E+00
 -1      3298 1.16910E+01 2.42375E+01 0.00000E+00
 -1      3299 1.16910E+01 2.57125E+01 0.00000E+00
 -1      3300 1.29900E+01 2.35000E+01 0.00000E+00
 -1      3301 1.29900E+01 1.46687E+01 0.00000E+00
 -1      3302 1.16910E+01 1.54063E+01 0.00000E+00
 -1      3303 1.16910E+01 1.68750E+01 0.00000E+00
 -1      3304 6.31439E+01 2.95702E+01 0.00000E+00
 -1      3305 6.14373E+01 3.19405E+01 0.00000E+00
 -1      3306 5.89291E+01 3.35888E+01 0.00000E+00
 -1      3307 1.16910E+01 1.83469E+01 0.00000E+00
 -1      3308 1.16910E+01 1.98156E+01 0.00000E+00
 -1      3309 1.29900E+01 2.05531E+01 0.00000E+00
 -1      3310 1.29900E+01 1.76094E+01 0.00000E+00
 -1      3311 1.35599E+02 1.37492E+01 0.00000E+00
 -1      3312 1.19565E+01 3.27619E+01 0.00000E+00
 -1      3313 1.19565E+01 3.42306E+01 0.00000E+00
 -1      3314 1.35210E+01 3.46675E+01 0.00000E+00
 -1      3315 5.63462E+01 3.62366E+01 0.00000E+00
 -1      3316 3.89828E+01 2.77222E+01 0.00000E+00
 -1      3317 3.79058E+01 2.72815E+01 0.00000E+00
 -1      3318 3.91446E+01 2.85126E+01 0.00000E+00
 -1      3319 3.86199E+01 1.31807E+01 0.00000E+00
 -1      3320 3.72396E+01 2.50682E+01 0.00000E+00
 -1      3321 2.95350E+01 1.18003E+01 0.00000E+00
 -1      3322 2.87850E+01 1.05013E+01 0.00000E+00
 -1      3323 2.72850E+01 1.05013E+01 0.00000E+00
 -1      3324 6.57719E+01 2.15013E+01 0.00000E+00
 -1      3325 6.67206E+01 2.24050E+01 0.00000E+00
 -1      3326 6.60734E+01 2.07697E+01 0.00000E+00
 -1      3327 3.74949E+01 1.67823E+01 0.00000E+00
 -1      3328 3.80020E+01 1.61741E+01 0.00000E+00
 -1      3329 3.74167E+01 1.51563E+01 0.00000E+00
 -1      3330 3.75905E+01 1.90193E+01 0.00000E+00
 -1      3331 1.38309E+02 1.98625E+01 0.00000E+00
 -1      3332 1.38309E+02 1.83875E+01 0.00000E+00
 -1      3333 2.57850E+01 1.05013E+01 0.00000E+00
 -1      3334 2.42850E+01 1.05013E+01 0.00000E+00
 -1      3335 2.65350E+01 1.18003E+01 0.00000E+00
 -1      3336 4.86054E+01 3.56237E+01 0.00000E+00
 -1      3337 1.38309E+02 2.28062E+01 0.00000E+00
 -1      3338 1.38309E+02 2.13312E+01 0.00000E+00
 -1      3339 1.37010E+02 2.05938E+01 0.00000E+00
 -1      3340 1.37010E+02 2.35313E+01 0.00000E+00
 -1      3341 6.40290E+01 1.48295E+01 0.00000E+00
 -1      3342 6.53199E+01 1.84866E+01 0.00000E+00
 -1      3343 4.09270E+01 3.03058E+01 0.00000E+00
 -1      3344 6.60799E+01 2.65687E+01 0.00000E+00
 -1      3345 6.48476E+01 2.70138E+01 0.00000E+00
 -1      3346 6.51611E+01 2.80458E+01 0.00000E+00
 -1      3347 1.39981E+02 1.33314E+01 0.00000E+00
 -1      3348 3.69181E+01 2.19419E+01 0.00000E+00
 -1      3349 1.69669E+01 1.03515E+01 0.00000E+00
 -1      3350 1.54669E+01 1.03515E+01 0.00000E+00
 -1      3351 1.50806E+01 1.13509E+01 0.00000E+00
 -1      3352 1.77169E+01 1.16505E+01 0.00000E+00
 -1      3353 1.37758E+02 3.65031E+01 0.00000E+00
 -1      3354 1.38123E+02 3.54261E+01 0.00000E+00
 -1      3355 1.36824E+02 3.47011E+01 0.00000E+00
 -1      3356 1.36451E+02 3.64034E+01 0.00000E+00
 -1      3357 6.51032E+01 1.53106E+01 0.00000E+00
 -1      3358 2.35350E+01 1.18003E+01 0.00000E+00
 -1      3359 1.19565E+01 2.98244E+01 0.00000E+00
 -1      3360 1.19565E+01 3.12931E+01 0.00000E+00
 -1      3361 1.35210E+01 3.17300E+01 0.00000E+00
 -1      3362 4.57188E+01 3.36758E+01 0.00000E+00
 -1      3363 4.45348E+01 3.38462E+01 0.00000E+00
 -1      3364 4.63768E+01 3.44080E+01 0.00000E+00
 -1      3365 1.35711E+02 2.72125E+01 0.00000E+00
 -1      3366 1.35711E+02 2.57375E+01 0.00000E+00
 -1      3367 5.56926E+01 3.46822E+01 0.00000E+00
 -1      3368 5.18462E+01 3.62141E+01 0.00000E+00
 -1      3369 6.64782E+01 1.55964E+01 0.00000E+00
 -1      3370 2.34000E+01 3.57110E+01 0.00000E+00
 -1      3371 2.49000E+01 3.57110E+01 0.00000E+00
 -1      3372 2.64000E+01 3.57110E+01 0.00000E+00
 -1      3373 2.79000E+01 3.57110E+01 0.00000E+00
 -1      3374 2.56500E+01 3.44120E+01 0.00000E+00
 -1      3375 2.94000E+01 3.57110E+01 0.00000E+00
 -1      3376 3.09000E+01 3.57110E+01 0.00000E+00
 -1      3377 2.86500E+01 3.44120E+01 0.00000E+00
 -1      3378 3.24000E+01 3.57110E+01 0.00000E+00
 -1      3379 3.39000E+01 3.57110E+01 0.00000E+00
 -1      3380 3.16500E+01 3.44120E+01 0.00000E+00
 -1      3381 3.54000E+01 3.57110E+01 0.00000E+00
 -1      3382 3.69000E+01 3.57110E+01 0.00000E+00
 -1      3383 3.46500E+01 3.44120E+01 0.00000E+00
 -1      3384 3.84000E+01 3.57110E+01 0.00000E+00
 -1      3385 3.99000E+01 3.57110E+01 0.00000E+00
 -1      3386 3.76500E+01 3.44120E+01 0.00000E+00
 -1      3387 4.44214E+01 3.57942E+01 0.00000E+00
 -1      3388 4.59214E+01 3.57942E+01 0.00000E+00
 -1      3389 4.71054E+01 3.56237E+01 0.00000E+00
 -1      3390 6.79782E+01 1.55964E+01 0.00000E+00
 -1      3391 6.70150E+01 1.71073E+01 0.00000E+00
 -1      3392 6.94782E+01 1.55964E+01 0.00000E+00
 -1      3393 6.24000E+01 3.57561E+01 0.00000E+00
 -1      3394 6.39000E+01 3.57561E+01 0.00000E+00
 -1      3395 6.54000E+01 3.57561E+01 0.00000E+00
 -1      3396 6.69000E+01 3.57561E+01 0.00000E+00
 -1      3397 6.46500E+01 3.44571E+01 0.00000E+00
 -1      3398 6.84000E+01 3.57561E+01 0.00000E+00
 -1      3399 6.99000E+01 3.57561E+01 0.00000E+00
 -1      3400 6.76500E+01 3.44571E+01 0.00000E+00
 -1      3401 7.14000E+01 3.57561E+01 0.00000E+00
 -1      3402 7.29000E+01 3.57561E+01 0.00000E+00
 -1      3403 7.06500E+01 3.44571E+01 0.00000E+00
 -1      3404 7.44000E+01 3.57561E+01 0.00000E+00
 -1      3405 7.59000E+01 3.57561E+01 0.00000E+00
 -1      3406 7.36500E+01 3.44571E+01 0.00000E+00
 -1      3407 7.74000E+01 3.57561E+01 0.00000E+00
 -1      3408 7.89000E+01 3.57561E+01 0.00000E+00
 -1      3409 7.66500E+01 3.44571E+01 0.00000E+00
 -1      3410 8.04000E+01 3.57561E+01 0.00000E+00
 -1      3411 8.19000E+01 3.57561E+01 0.00000E+00
 -1      3412 7.96500E+01 3.44571E+01 0.00000E+00
 -1      3413 8.34000E+01 3.57561E+01 0.00000E+00
 -1      3414 8.49000E+01 3.57561E+01 0.00000E+00
 -1      3415 8.26500E+01 3.44571E+01 0.00000E+00
 -1      3416 8.64000E+01 3.57561E+01 0.00000E+00
 -1      3417 8.79000E+01 3.57561E+01 0.00000E+00
 -1      3418 8.56500E+01 3.44571E+01 0.00000E+00
 -1      3419 8.94000E+01 3.57561E+01 0.00000E+00
 -1      3420 9.09000E+01 3.57561E+01 0.00000E+00
 -1      3421 8.86500E+01 3.44571E+01 0.00000E+00
 -1      3422 9.24000E+01 3.57561E+01 0.00000E+00
 -1      3423 9.39000E+01 3.57561E+01 0.00000E+00
 -1      3424 9.16500E+01 3.44571E+01 0.00000E+00
 -1      3425 9.54000E+01 3.57561E+01 0.00000E+00
 -1      3426 9.69000E+01 3.57561E+01 0.00000E+00
 -1      3427 9.46500E+01 3.44571E+01 0.00000E+00
 -1      3428 9.84000E+01 3.57561E+01 0.00000E+00
 -1      3429 9.99000E+01 3.57561E+01 0.00000E+00
 -1      3430 9.76500E+01 3.44571E+01 0.00000E+00
 -1      3431 1.01400E+02 3.57561E+01 0.00000E+00
 -1      3432 1.02900E+02 3.57561E+01 0.00000E+00
 -1      3433 1.00650E+02 3.44571E+01 0.00000E+00
 -1      3434 1.04400E+02 3.57561E+01 0.00000E+00
 -1      3435 1.05900E+02 3.57561E+01 0.00000E+00
 -1      3436 1.03650E+02 3.44571E+01 0.00000E+00
 -1      3437 1.07400E+02 3.57561E+01 0.00000E+00
 -1      3438 1.08900E+02 3.57561E+01 0.00000E+00
 -1      3439 1.06650E+02 3.44571E+01 0.00000E+00
 -1      3440 1.10400E+02 3.57561E+01 0.00000E+00
 -1      3441 1.11900E+02 3.57561E+01 0.00000E+00
 -1      3442 1.09650E+02 3.44571E+01 0.00000E+00
 -1      3443 1.13400E+02 3.57561E+01 0.00000E+00
 -1      3444 1.14900E+02 3.57561E+01 0.00000E+00
 -1      3445 1.12650E+02 3.44571E+01 0.00000E+00
 -1      3446 1.16400E+02 3.57561E+01 0.00000E+00
 -1      3447 1.17900E+02 3.57561E+01 0.00000E+00
 -1      3448 1.15650E+02 3.44571E+01 0.00000E+00
 -1      3449 1.19400E+02 3.57561E+01 0.00000E+00
 -1      3450 1.20900E+02 3.57561E+01 0.00000E+00
 -1      3451 1.18650E+02 3.44571E+01 0.00000E+00
 -1      3452 1.22400E+02 3.57561E+01 0.00000E+00
 -1      3453 1.23900E+02 3.57561E+01 0.00000E+00
 -1      3454 1.21650E+02 3.44571E+01 0.00000E+00
 -1      3455 1.25400E+02 3.57561E+01 0.00000E+00
 -1      3456 1.26900E+02 3.57561E+01 0.00000E+00
 -1      3457 1.24650E+02 3.44571E+01 0.00000E+00
 -1      3458 1.28400E+02 3.57561E+01 0.00000E+00
 -1      3459 1.29900E+02 3.57561E+01 0.00000E+00
 -1      3460 1.27650E+02 3.44571E+01 0.00000E+00
 -1      3461 1.31400E+02 3.57561E+01 0.00000E+00
 -1      3462 1.32900E+02 3.57561E+01 0.00000E+00
 -1      3463 1.30650E+02 3.44571E+01 0.00000E+00
 -1      3464 6.43655E+01 2.96334E+01 0.00000E+00
 -1      3465 6.35807E+01 3.07127E+01 0.00000E+00
 -1      3466 2.04000E+01 3.57110E+01 0.00000E+00
 -1      3467 2.19000E+01 3.57110E+01 0.00000E+00
 -1      3468 2.26500E+01 3.44120E+01 0.00000E+00
 -1      3469 3.65255E+01 2.61222E+01 0.00000E+00
 -1      3470 3.60212E+01 2.46992E+01 0.00000E+00
 -1      3471 3.55575E+01 2.26574E+01 0.00000E+00
 -1      3472 3.57403E+01 2.09541E+01 0.00000E+00
 -1      3473 7.86914E+01 1.53845E+01 0.00000E+00
 -1      3474 7.71914E+01 1.53845E+01 0.00000E+00
 -1      3475 6.73259E+01 2.40276E+01 0.00000E+00
 -1      3476 6.69996E+01 2.52277E+01 0.00000E+00
 -1      3477 7.56914E+01 1.53845E+01 0.00000E+00
 -1      3478 7.41914E+01 1.53845E+01 0.00000E+00
 -1      3479 7.64414E+01 1.66835E+01 0.00000E+00
 -1      3480 7.26914E+01 1.53845E+01 0.00000E+00
 -1      3481 7.11914E+01 1.53845E+01 0.00000E+00
 -1      3482 7.34414E+01 1.66835E+01 0.00000E+00
 -1      3483 8.16914E+01 1.53845E+01 0.00000E+00
 -1      3484 8.01914E+01 1.53845E+01 0.00000E+00
 -1      3485 7.94414E+01 1.66835E+01 0.00000E+00
 -1      3486 8.46914E+01 1.53845E+01 0.00000E+00
 -1      3487 8.31914E+01 1.53845E+01 0.00000E+00
 -1      3488 8.24414E+01 1.66835E+01 0.00000E+00
 -1      3489 8.76914E+01 1.53845E+01 0.00000E+00
 -1      3490 8.61914E+01 1.53845E+01 0.00000E+00
 -1      3491 8.54414E+01 1.66835E+01 0.00000E+00
 -1      3492 9.06914E+01 1.53845E+01 0.00000E+00
 -1      3493 8.91914E+01 1.53845E+01 0.00000E+00
 -1      3494 8.84414E+01 1.66835E+01 0.00000E+00
 -1      3495 9.36914E+01 1.53845E+01 0.00000E+00
 -1      3496 9.21914E+01 1.53845E+01 0.00000E+00
 -1      3497 9.14414E+01 1.66835E+01 0.00000E+00
 -1      3498 9.66914E+01 1.53845E+01 0.00000E+00
 -1      3499 9.51914E+01 1.53845E+01 0.00000E+00
 -1      3500 9.44414E+01 1.66835E+01 0.00000E+00
 -1      3501 9.96914E+01 1.53845E+01 0.00000E+00
 -1      3502 9.81914E+01 1.53845E+01 0.00000E+00
 -1      3503 9.74414E+01 1.66835E+01 0.00000E+00
 -1      3504 1.02691E+02 1.53845E+01 0.00000E+00
 -1      3505 1.01191E+02 1.53845E+01 0.00000E+00
 -1      3506 1.00441E+02 1.66835E+01 0.00000E+00
 -1      3507 1.05691E+02 1.53845E+01 0.00000E+00
 -1      3508 1.04191E+02 1.53845E+01 0.00000E+00
 -1      3509 1.03441E+02 1.66835E+01 0.00000E+00
 -1      3510 1.08691E+02 1.53845E+01 0.00000E+00
 -1      3511 1.07191E+02 1.53845E+01 0.00000E+00
 -1      3512 1.06441E+02 1.66835E+01 0.00000E+00
 -1      3513 1.11691E+02 1.53845E+01 0.00000E+00
 -1      3514 1.10191E+02 1.53845E+01 0.00000E+00
 -1      3515 1.09441E+02 1.66835E+01 0.00000E+00
 -1      3516 1.14691E+02 1.53845E+01 0.00000E+00
 -1      3517 1.13191E+02 1.53845E+01 0.00000E+00
 -1      3518 1.12441E+02 1.66835E+01 0.00000E+00
 -1      3519 1.17691E+02 1.53845E+01 0.00000E+00
 -1      3520 1.16191E+02 1.53845E+01 0.00000E+00
 -1      3521 1.15441E+02 1.66835E+01 0.00000E+00
 -1      3522 1.20691E+02 1.53845E+01 0.00000E+00
 -1      3523 1.19191E+02 1.53845E+01 0.00000E+00
 -1      3524 1.18441E+02 1.66835E+01 0.00000E+00
 -1      3525 1.23691E+02 1.53845E+01 0.00000E+00
 -1      3526 1.22191E+02 1.53845E+01 0.00000E+00
 -1      3527 1.21441E+02 1.66835E+01 0.00000E+00
 -1      3528 1.26691E+02 1.53845E+01 0.00000E+00
 -1      3529 1.25191E+02 1.53845E+01 0.00000E+00
 -1      3530 1.24441E+02 1.66835E+01 0.00000E+00
 -1      3531 1.29691E+02 1.53845E+01 0.00000E+00
 -1      3532 1.28191E+02 1.53845E+01 0.00000E+00
 -1      3533 1.27441E+02 1.66835E+01 0.00000E+00
 -1      3534 1.32691E+02 1.53845E+01 0.00000E+00
 -1      3535 1.31191E+02 1.53845E+01 0.00000E+00
 -1      3536 1.30441E+02 1.66835E+01 0.00000E+00
 -1      3537 1.35711E+02 3.31125E+01 0.00000E+00
 -1      3538 1.35711E+02 3.16375E+01 0.00000E+00
 -1      3539 1.38309E+02 1.69188E+01 0.00000E+00
 -1      3540 1.38309E+02 1.54563E+01 0.00000E+00
 -1      3541 2.42850E+01 1.30992E+01 0.00000E+00
 -1      3542 2.27850E+01 1.30992E+01 0.00000E+00
 -1      3543 4.02965E+01 3.14948E+01 0.00000E+00
 -1      3544 3.95911E+01 3.01423E+01 0.00000E+00
 -1      3545 2.12850E+01 1.30992E+01 0.00000E+00
 -1      3546 1.97850E+01 1.30992E+01 0.00000E+00
 -1      3547 2.20350E+01 1.43982E+01 0.00000E+00
 -1      3548 3.32850E+01 1.30992E+01 0.00000E+00
 -1      3549 3.17850E+01 1.30992E+01 0.00000E+00
 -1      3550 3.62389E+01 1.91845E+01 0.00000E+00
 -1      3551 3.67286E+01 1.79652E+01 0.00000E+00
 -1      3552 1.37010E+02 1.76563E+01 0.00000E+00
 -1      3553 1.35711E+02 1.83906E+01 0.00000E+00
 -1      3554 1.35711E+02 1.69219E+01 0.00000E+00
 -1      3555 6.66418E+01 1.82488E+01 0.00000E+00
 -1      3556 6.64466E+01 1.96281E+01 0.00000E+00
 -1      3557 6.73953E+01 2.05319E+01 0.00000E+00
 -1      3558 6.81418E+01 1.82488E+01 0.00000E+00
 -1      3559 1.18237E+01 2.70341E+01 0.00000E+00
 -1      3560 1.18237E+01 2.85028E+01 0.00000E+00
 -1      3561 1.33883E+01 2.89397E+01 0.00000E+00
 -1      3562 1.31228E+01 2.62966E+01 0.00000E+00
 -1      3563 6.27546E+01 3.25533E+01 0.00000E+00
 -1      3564 6.18327E+01 3.38443E+01 0.00000E+00
 -1      3565 4.26667E+01 3.37507E+01 0.00000E+00
 -1      3566 4.15445E+01 3.30229E+01 0.00000E+00
 -1      3567 1.74000E+01 3.57110E+01 0.00000E+00
 -1      3568 1.89000E+01 3.57110E+01 0.00000E+00
 -1      3569 1.96500E+01 3.44120E+01 0.00000E+00
 -1      3570 5.79964E+01 3.55006E+01 0.00000E+00
 -1      3571 5.95827E+01 3.51433E+01 0.00000E+00
 -1      3572 3.72997E+01 1.31774E+01 0.00000E+00
 -1      3573 6.10827E+01 3.51433E+01 0.00000E+00
 -1      3574 1.35711E+02 3.01625E+01 0.00000E+00
 -1      3575 1.35711E+02 2.86875E+01 0.00000E+00
 -1      3576 1.34412E+02 2.79500E+01 0.00000E+00
 -1      3577 1.34412E+02 3.09000E+01 0.00000E+00
 -1      3578 1.42890E+01 1.39344E+01 0.00000E+00
 -1      3579 1.42890E+01 1.54031E+01 0.00000E+00
 -1      3580 3.41293E+01 2.47653E+01 0.00000E+00
 -1      3581 3.48434E+01 2.37113E+01 0.00000E+00
 -1      3582 3.36656E+01 2.27234E+01 0.00000E+00
 -1      3583 4.03033E+01 3.43997E+01 0.00000E+00
 -1      3584 4.10533E+01 3.56987E+01 0.00000E+00
 -1      3585 4.25533E+01 3.56987E+01 0.00000E+00
 -1      3586 7.02282E+01 1.68954E+01 0.00000E+00
 -1      3587 3.68493E+01 2.77029E+01 0.00000E+00
 -1      3588 3.66874E+01 2.69125E+01 0.00000E+00
 -1      3589 3.54690E+01 2.65436E+01 0.00000E+00
 -1      3590 3.85141E+01 2.97017E+01 0.00000E+00
 -1      3591 6.55978E+01 2.91883E+01 0.00000E+00
 -1      3592 1.34022E+02 3.60299E+01 0.00000E+00
 -1      3593 1.35329E+02 3.61296E+01 0.00000E+00
 -1      3594 1.35515E+02 3.52785E+01 0.00000E+00
 -1      3595 1.33272E+02 3.47309E+01 0.00000E+00
 -1      3596 1.42890E+01 2.27625E+01 0.00000E+00
 -1      3597 1.42890E+01 2.42375E+01 0.00000E+00
 -1      3598 3.02850E+01 1.30992E+01 0.00000E+00
 -1      3599 2.87850E+01 1.30992E+01 0.00000E+00
 -1      3600 3.10350E+01 1.43982E+01 0.00000E+00
 -1      3601 1.48779E+01 1.21429E+01 0.00000E+00
 -1      3602 1.44917E+01 1.31424E+01 0.00000E+00
 -1      3603 1.57907E+01 1.38767E+01 0.00000E+00
 -1      3604 1.61961E+01 1.22927E+01 0.00000E+00
 -1      3605 1.46783E+01 3.49708E+01 0.00000E+00
 -1      3606 1.62428E+01 3.54077E+01 0.00000E+00
 -1      3607 1.69928E+01 3.41087E+01 0.00000E+00
 -1      3608 1.46783E+01 3.35021E+01 0.00000E+00
 -1      3609 3.48783E+01 1.98999E+01 0.00000E+00
 -1      3610 6.73131E+01 2.62596E+01 0.00000E+00
 -1      3611 3.61433E+01 1.69475E+01 0.00000E+00
 -1      3612 2.72850E+01 1.30992E+01 0.00000E+00
 -1      3613 2.57850E+01 1.30992E+01 0.00000E+00
 -1      3614 2.80350E+01 1.43982E+01 0.00000E+00
 -1      3615 1.33927E+02 1.58709E+01 0.00000E+00
 -1      3616 1.33177E+02 1.71699E+01 0.00000E+00
 -1      3617 1.42890E+01 1.98188E+01 0.00000E+00
 -1      3618 1.42890E+01 2.12906E+01 0.00000E+00
 -1      3619 1.55880E+01 2.20281E+01 0.00000E+00
 -1      3620 1.37383E+02 1.48002E+01 0.00000E+00
 -1      3621 1.38682E+02 1.40689E+01 0.00000E+00
 -1      3622 1.46783E+01 3.05646E+01 0.00000E+00
 -1      3623 1.46783E+01 3.20333E+01 0.00000E+00
 -1      3624 1.58355E+01 3.23366E+01 0.00000E+00
 -1      3625 1.35711E+02 2.42687E+01 0.00000E+00
 -1      3626 1.35711E+02 2.28000E+01 0.00000E+00
 -1      3627 1.34412E+02 2.50063E+01 0.00000E+00
 -1      3628 3.66980E+01 1.41652E+01 0.00000E+00
 -1      3629 3.60739E+01 1.27946E+01 0.00000E+00
 -1      3630 3.47536E+01 1.27913E+01 0.00000E+00
 -1      3631 3.61909E+01 1.47735E+01 0.00000E+00
 -1      3632 4.03912E+01 3.30352E+01 0.00000E+00
 -1      3633 3.90553E+01 3.28717E+01 0.00000E+00
 -1      3634 2.50350E+01 1.43982E+01 0.00000E+00
 -1      3635 1.90350E+01 1.43983E+01 0.00000E+00
 -1      3636 1.82850E+01 1.30993E+01 0.00000E+00
 -1      3637 6.39761E+01 3.26165E+01 0.00000E+00
 -1      3638 1.35711E+02 2.13281E+01 0.00000E+00
 -1      3639 1.35711E+02 1.98594E+01 0.00000E+00
 -1      3640 1.34412E+02 1.91250E+01 0.00000E+00
 -1      3641 1.35702E+02 3.44273E+01 0.00000E+00
 -1      3642 3.40036E+01 1.40903E+01 0.00000E+00
 -1      3643 1.69669E+01 1.29495E+01 0.00000E+00
 -1      3644 6.79290E+01 2.25644E+01 0.00000E+00
 -1      3645 6.76275E+01 2.32960E+01 0.00000E+00
 -1      3646 6.85344E+01 2.41870E+01 0.00000E+00
 -1      3647 1.35226E+02 1.51365E+01 0.00000E+00
 -1      3648 1.34403E+02 3.36898E+01 0.00000E+00
 -1      3649 1.42890E+01 1.68750E+01 0.00000E+00
 -1      3650 1.42890E+01 1.83469E+01 0.00000E+00
 -1      3651 1.55880E+01 1.90844E+01 0.00000E+00
 -1      3652 4.33247E+01 3.44830E+01 0.00000E+00
 -1      3653 6.54761E+01 3.26165E+01 0.00000E+00
 -1      3654 2.49000E+01 3.31130E+01 0.00000E+00
 -1      3655 2.64000E+01 3.31130E+01 0.00000E+00
 -1      3656 2.79000E+01 3.31130E+01 0.00000E+00
 -1      3657 2.94000E+01 3.31130E+01 0.00000E+00
 -1      3658 2.71500E+01 3.18140E+01 0.00000E+00
 -1      3659 3.09000E+01 3.31130E+01 0.00000E+00
 -1      3660 3.24000E+01 3.31130E+01 0.00000E+00
 -1      3661 3.01500E+01 3.18140E+01 0.00000E+00
 -1      3662 3.39000E+01 3.31130E+01 0.00000E+00
 -1      3663 3.54000E+01 3.31130E+01 0.00000E+00
 -1      3664 3.31500E+01 3.18140E+01 0.00000E+00
 -1      3665 3.75553E+01 3.28717E+01 0.00000E+00
 -1      3666 1.55880E+01 1.61406E+01 0.00000E+00
 -1      3667 1.57207E+01 2.48216E+01 0.00000E+00
 -1      3668 1.44218E+01 2.55591E+01 0.00000E+00
 -1      3669 1.45545E+01 2.68806E+01 0.00000E+00
 -1      3670 6.99000E+01 3.31581E+01 0.00000E+00
 -1      3671 7.14000E+01 3.31581E+01 0.00000E+00
 -1      3672 7.29000E+01 3.31581E+01 0.00000E+00
 -1      3673 7.44000E+01 3.31581E+01 0.00000E+00
 -1      3674 7.21500E+01 3.18591E+01 0.00000E+00
 -1      3675 7.59000E+01 3.31581E+01 0.00000E+00
 -1      3676 7.74000E+01 3.31581E+01 0.00000E+00
 -1      3677 7.51500E+01 3.18591E+01 0.00000E+00
 -1      3678 7.89000E+01 3.31581E+01 0.00000E+00
 -1      3679 8.04000E+01 3.31581E+01 0.00000E+00
 -1      3680 7.81500E+01 3.18591E+01 0.00000E+00
 -1      3681 8.19000E+01 3.31581E+01 0.00000E+00
 -1      3682 8.34000E+01 3.31581E+01 0.00000E+00
 -1      3683 8.11500E+01 3.18591E+01 0.00000E+00
 -1      3684 8.49000E+01 3.31581E+01 0.00000E+00
 -1      3685 8.64000E+01 3.31581E+01 0.00000E+00
 -1      3686 8.41500E+01 3.18591E+01 0.00000E+00
 -1      3687 8.79000E+01 3.31581E+01 0.00000E+00
 -1      3688 8.94000E+01 3.31581E+01 0.00000E+00
 -1      3689 8.71500E+01 3.18591E+01 0.00000E+00
 -1      3690 9.09000E+01 3.31581E+01 0.00000E+00
 -1      3691 9.24000E+01 3.31581E+01 0.00000E+00
 -1      3692 9.01500E+01 3.18591E+01 0.00000E+00
 -1      3693 9.39000E+01 3.31581E+01 0.00000E+00
 -1      3694 9.54000E+01 3.31581E+01 0.00000E+00
 -1      3695 9.31500E+01 3.18591E+01 0.00000E+00
 -1      3696 9.69000E+01 3.31581E+01 0.00000E+00
 -1      3697 9.84000E+01 3.31581E+01 0.00000E+00
 -1      3698 9.61500E+01 3.18591E+01 0.00000E+00
 -1      3699 9.99000E+01 3.31581E+01 0.00000E+00
 -1      3700 1.01400E+02 3.31581E+01 0.00000E+00
 -1      3701 9.91500E+01 3.18591E+01 0.00000E+00
 -1      3702 1.02900E+02 3.31581E+01 0.00000E+00
 -1      3703 1.04400E+02 3.31581E+01 0.00000E+00
 -1      3704 1.02150E+02 3.18591E+01 0.00000E+00
 -1      3705 1.05900E+02 3.31581E+01 0.00000E+00
 -1      3706 1.07400E+02 3.31581E+01 0.00000E+00
 -1      3707 1.05150E+02 3.18591E+01 0.00000E+00
 -1      3708 1.08900E+02 3.31581E+01 0.00000E+00
 -1      3709 1.10400E+02 3.31581E+01 0.00000E+00
 -1      3710 1.08150E+02 3.18591E+01 0.00000E+00
 -1      3711 1.11900E+02 3.31581E+01 0.00000E+00
 -1      3712 1.13400E+02 3.31581E+01 0.00000E+00
 -1      3713 1.11150E+02 3.18591E+01 0.00000E+00
 -1      3714 1.14900E+02 3.31581E+01 0.00000E+00
 -1      3715 1.16400E+02 3.31581E+01 0.00000E+00
 -1      3716 1.14150E+02 3.18591E+01 0.00000E+00
 -1      3717 1.17900E+02 3.31581E+01 0.00000E+00
 -1      3718 1.19400E+02 3.31581E+01 0.00000E+00
 -1      3719 1.17150E+02 3.18591E+01 0.00000E+00
 -1      3720 1.20900E+02 3.31581E+01 0.00000E+00
 -1      3721 1.22400E+02 3.31581E+01 0.00000E+00
 -1      3722 1.20150E+02 3.18591E+01 0.00000E+00
 -1      3723 1.23900E+02 3.31581E+01 0.00000E+00
 -1      3724 1.25400E+02 3.31581E+01 0.00000E+00
 -1      3725 1.23150E+02 3.18591E+01 0.00000E+00
 -1      3726 1.26900E+02 3.31581E+01 0.00000E+00
 -1      3727 1.28400E+02 3.31581E+01 0.00000E+00
 -1      3728 1.26150E+02 3.18591E+01 0.00000E+00
 -1      3729 1.29900E+02 3.31581E+01 0.00000E+00
 -1      3730 1.31400E+02 3.31581E+01 0.00000E+00
 -1      3731 1.29150E+02 3.18591E+01 0.00000E+00
 -1      3732 1.33281E+02 3.34160E+01 0.00000E+00
 -1      3733 2.19000E+01 3.31130E+01 0.00000E+00
 -1      3734 2.34000E+01 3.31130E+01 0.00000E+00
 -1      3735 2.41500E+01 3.18140E+01 0.00000E+00
 -1      3736 1.33177E+02 1.86386E+01 0.00000E+00
 -1      3737 1.31941E+02 1.81523E+01 0.00000E+00
 -1      3738 1.33177E+02 2.01074E+01 0.00000E+00
 -1      3739 3.75062E+01 3.08537E+01 0.00000E+00
 -1      3740 3.70598E+01 2.92240E+01 0.00000E+00
 -1      3741 8.01914E+01 1.79825E+01 0.00000E+00
 -1      3742 7.86914E+01 1.79825E+01 0.00000E+00
 -1      3743 7.41914E+01 1.79825E+01 0.00000E+00
 -1      3744 7.26914E+01 1.79825E+01 0.00000E+00
 -1      3745 8.61914E+01 1.79825E+01 0.00000E+00
 -1      3746 8.46914E+01 1.79825E+01 0.00000E+00
 -1      3747 8.91914E+01 1.79825E+01 0.00000E+00
 -1      3748 8.76914E+01 1.79825E+01 0.00000E+00
 -1      3749 8.69414E+01 1.92815E+01 0.00000E+00
 -1      3750 9.21914E+01 1.79825E+01 0.00000E+00
 -1      3751 9.06914E+01 1.79825E+01 0.00000E+00
 -1      3752 8.99414E+01 1.92815E+01 0.00000E+00
 -1      3753 9.51914E+01 1.79825E+01 0.00000E+00
 -1      3754 9.36914E+01 1.79825E+01 0.00000E+00
 -1      3755 9.29414E+01 1.92815E+01 0.00000E+00
 -1      3756 9.81914E+01 1.79825E+01 0.00000E+00
 -1      3757 9.66914E+01 1.79825E+01 0.00000E+00
 -1      3758 9.59414E+01 1.92815E+01 0.00000E+00
 -1      3759 1.01191E+02 1.79825E+01 0.00000E+00
 -1      3760 9.96914E+01 1.79825E+01 0.00000E+00
 -1      3761 9.89414E+01 1.92815E+01 0.00000E+00
 -1      3762 1.04191E+02 1.79825E+01 0.00000E+00
 -1      3763 1.02691E+02 1.79825E+01 0.00000E+00
 -1      3764 1.01941E+02 1.92815E+01 0.00000E+00
 -1      3765 1.07191E+02 1.79825E+01 0.00000E+00
 -1      3766 1.05691E+02 1.79825E+01 0.00000E+00
 -1      3767 1.04941E+02 1.92815E+01 0.00000E+00
 -1      3768 1.10191E+02 1.79825E+01 0.00000E+00
 -1      3769 1.08691E+02 1.79825E+01 0.00000E+00
 -1      3770 1.07941E+02 1.92815E+01 0.00000E+00
 -1      3771 1.13191E+02 1.79825E+01 0.00000E+00
 -1      3772 1.11691E+02 1.79825E+01 0.00000E+00
 -1      3773 1.10941E+02 1.92815E+01 0.00000E+00
 -1      3774 1.16191E+02 1.79825E+01 0.00000E+00
 -1      3775 1.14691E+02 1.79825E+01 0.00000E+00
 -1      3776 1.13941E+02 1.92815E+01 0.00000E+00
 -1      3777 1.19191E+02 1.79825E+01 0.00000E+00
 -1      3778 1.17691E+02 1.79825E+01 0.00000E+00
 -1      3779 1.16941E+02 1.92815E+01 0.00000E+00
 -1      3780 1.22191E+02 1.79825E+01 0.00000E+00
 -1      3781 1.20691E+02 1.79825E+01 0.00000E+00
 -1      3782 1.19941E+02 1.92815E+01 0.00000E+00
 -1      3783 1.25191E+02 1.79825E+01 0.00000E+00
 -1      3784 1.23691E+02 1.79825E+01 0.00000E+00
 -1      3785 1.22941E+02 1.92815E+01 0.00000E+00
 -1      3786 1.28191E+02 1.79825E+01 0.00000E+00
 -1      3787 1.26691E+02 1.79825E+01 0.00000E+00
 -1      3788 1.25941E+02 1.92815E+01 0.00000E+00
 -1      3789 1.30816E+02 1.80674E+01 0.00000E+00
 -1      3790 1.29316E+02 1.80674E+01 0.00000E+00
 -1      3791 1.28566E+02 1.93664E+01 0.00000E+00
 -1      3792 1.30816E+02 1.95362E+01 0.00000E+00
 -1      3793 3.34004E+01 2.04385E+01 0.00000E+00
 -1      3794 3.38990E+01 1.86689E+01 0.00000E+00
 -1      3795 2.27850E+01 1.56973E+01 0.00000E+00
 -1      3796 2.12850E+01 1.56973E+01 0.00000E+00
 -1      3797 3.54328E+01 1.60145E+01 0.00000E+00
 -1      3798 3.47141E+01 1.50234E+01 0.00000E+00
 -1      3799 3.32455E+01 1.53313E+01 0.00000E+00
 -1      3800 3.46665E+01 1.71973E+01 0.00000E+00
 -1      3801 6.69870E+01 2.88913E+01 0.00000E+00
 -1      3802 6.61914E+01 3.04789E+01 0.00000E+00
 -1      3803 6.88264E+01 2.62092E+01 0.00000E+00
 -1      3804 6.79067E+01 2.75503E+01 0.00000E+00
 -1      3805 6.85003E+01 2.88409E+01 0.00000E+00
 -1      3806 2.57850E+01 1.56973E+01 0.00000E+00
 -1      3807 2.42850E+01 1.56973E+01 0.00000E+00
 -1      3808 2.35350E+01 1.69963E+01 0.00000E+00
 -1      3809 1.97850E+01 1.56973E+01 0.00000E+00
 -1      3810 1.82851E+01 1.56973E+01 0.00000E+00
 -1      3811 2.05350E+01 1.69963E+01 0.00000E+00
 -1      3812 7.12731E+01 1.80097E+01 0.00000E+00
 -1      3813 6.95600E+01 1.82216E+01 0.00000E+00
 -1      3814 6.91867E+01 1.93631E+01 0.00000E+00
 -1      3815 7.20231E+01 1.93087E+01 0.00000E+00
 -1      3816 7.71914E+01 1.79825E+01 0.00000E+00
 -1      3817 7.56914E+01 1.79825E+01 0.00000E+00
 -1      3818 7.49414E+01 1.92815E+01 0.00000E+00
 -1      3819 6.68653E+01 3.23195E+01 0.00000E+00
 -1      3820 1.89000E+01 3.31130E+01 0.00000E+00
 -1      3821 2.04000E+01 3.31130E+01 0.00000E+00
 -1      3822 2.11500E+01 3.18140E+01 0.00000E+00
 -1      3823 8.31914E+01 1.79825E+01 0.00000E+00
 -1      3824 8.16914E+01 1.79825E+01 0.00000E+00
 -1      3825 8.39414E+01 1.92815E+01 0.00000E+00
 -1      3826 1.67891E+01 3.25732E+01 0.00000E+00
 -1      3827 1.79464E+01 3.28765E+01 0.00000E+00
 -1      3828 1.86964E+01 3.15775E+01 0.00000E+00
 -1      3829 1.67891E+01 3.11044E+01 0.00000E+00
 -1      3830 1.32531E+02 3.21170E+01 0.00000E+00
 -1      3831 3.19722E+01 2.25464E+01 0.00000E+00
 -1      3832 3.26863E+01 2.14924E+01 0.00000E+00
 -1      3833 3.17070E+01 2.02614E+01 0.00000E+00
 -1      3834 1.33113E+02 2.86875E+01 0.00000E+00
 -1      3835 1.33113E+02 2.72125E+01 0.00000E+00
 -1      3836 3.31885E+01 1.77359E+01 0.00000E+00
 -1      3837 6.83653E+01 3.23195E+01 0.00000E+00
 -1      3838 7.79414E+01 1.92815E+01 0.00000E+00
 -1      3839 3.58414E+01 2.88550E+01 0.00000E+00
 -1      3840 1.69469E+01 2.40310E+01 0.00000E+00
 -1      3841 1.70796E+01 2.53525E+01 0.00000E+00
 -1      3842 6.91153E+01 3.10205E+01 0.00000E+00
 -1      3843 8.09414E+01 1.92815E+01 0.00000E+00
 -1      3844 3.17455E+01 1.53313E+01 0.00000E+00
 -1      3845 3.02455E+01 1.53313E+01 0.00000E+00
 -1      3846 3.24560E+01 1.62643E+01 0.00000E+00
 -1      3847 1.34412E+02 2.20656E+01 0.00000E+00
 -1      3848 3.42774E+01 2.71994E+01 0.00000E+00
 -1      3849 3.41155E+01 2.64090E+01 0.00000E+00
 -1      3850 2.87850E+01 1.56973E+01 0.00000E+00
 -1      3851 2.72850E+01 1.56973E+01 0.00000E+00
 -1      3852 2.65350E+01 1.69963E+01 0.00000E+00
 -1      3853 1.31814E+02 2.64813E+01 0.00000E+00
 -1      3854 1.33113E+02 2.57437E+01 0.00000E+00
 -1      3855 1.33113E+02 2.42750E+01 0.00000E+00
 -1      3856 1.69469E+01 2.10872E+01 0.00000E+00
 -1      3857 1.69469E+01 2.25591E+01 0.00000E+00
 -1      3858 1.83057E+01 2.30900E+01 0.00000E+00
 -1      3859 1.32531E+02 3.06420E+01 0.00000E+00
 -1      3860 6.95371E+01 2.51006E+01 0.00000E+00
 -1      3861 7.01306E+01 2.63912E+01 0.00000E+00
 -1      3862 3.61009E+01 3.23941E+01 0.00000E+00
 -1      3863 3.29377E+01 2.54211E+01 0.00000E+00
 -1      3864 6.87445E+01 2.03930E+01 0.00000E+00
 -1      3865 6.83713E+01 2.15345E+01 0.00000E+00
 -1      3866 6.92782E+01 2.24255E+01 0.00000E+00
 -1      3867 7.01627E+01 2.03658E+01 0.00000E+00
 -1      3868 6.98386E+01 2.43690E+01 0.00000E+00
 -1      3869 1.45500E+01 2.80618E+01 0.00000E+00
 -1      3870 1.46827E+01 2.93834E+01 0.00000E+00
 -1      3871 1.58400E+01 2.96867E+01 0.00000E+00
 -1      3872 1.58490E+01 2.73243E+01 0.00000E+00
 -1      3873 1.31232E+02 2.99045E+01 0.00000E+00
 -1      3874 3.16885E+01 1.77359E+01 0.00000E+00
 -1      3875 8.16914E+01 2.05805E+01 0.00000E+00
 -1      3876 8.01914E+01 2.05805E+01 0.00000E+00
 -1      3877 9.36914E+01 2.05805E+01 0.00000E+00
 -1      3878 9.21914E+01 2.05805E+01 0.00000E+00
 -1      3879 9.06914E+01 2.05805E+01 0.00000E+00
 -1      3880 8.91914E+01 2.05805E+01 0.00000E+00
 -1      3881 9.14414E+01 2.18795E+01 0.00000E+00
 -1      3882 2.94000E+01 3.05150E+01 0.00000E+00
 -1      3883 3.09000E+01 3.05150E+01 0.00000E+00
 -1      3884 3.22869E+01 2.94394E+01 0.00000E+00
 -1      3885 3.37869E+01 2.94394E+01 0.00000E+00
 -1      3886 7.14000E+01 3.05601E+01 0.00000E+00
 -1      3887 7.29000E+01 3.05601E+01 0.00000E+00
 -1      3888 3.53509E+01 3.10951E+01 0.00000E+00
 -1      3889 7.00350E+01 2.96795E+01 0.00000E+00
 -1      3890 7.86914E+01 2.05805E+01 0.00000E+00
 -1      3891 7.71914E+01 2.05805E+01 0.00000E+00
 -1      3892 7.94414E+01 2.18795E+01 0.00000E+00
 -1      3893 7.44000E+01 3.05601E+01 0.00000E+00
 -1      3894 7.59000E+01 3.05601E+01 0.00000E+00
 -1      3895 7.36500E+01 2.92611E+01 0.00000E+00
 -1      3896 7.74000E+01 3.05601E+01 0.00000E+00
 -1      3897 7.89000E+01 3.05601E+01 0.00000E+00
 -1      3898 7.66500E+01 2.92611E+01 0.00000E+00
 -1      3899 8.04000E+01 3.05601E+01 0.00000E+00
 -1      3900 8.19000E+01 3.05601E+01 0.00000E+00
 -1      3901 7.96500E+01 2.92611E+01 0.00000E+00
 -1      3902 8.34000E+01 3.05601E+01 0.00000E+00
 -1      3903 8.49000E+01 3.05601E+01 0.00000E+00
 -1      3904 8.26500E+01 2.92611E+01 0.00000E+00
 -1      3905 8.64000E+01 3.05601E+01 0.00000E+00
 -1      3906 8.79000E+01 3.05601E+01 0.00000E+00
 -1      3907 8.56500E+01 2.92611E+01 0.00000E+00
 -1      3908 8.94000E+01 3.05601E+01 0.00000E+00
 -1      3909 9.09000E+01 3.05601E+01 0.00000E+00
 -1      3910 8.86500E+01 2.92611E+01 0.00000E+00
 -1      3911 9.24000E+01 3.05601E+01 0.00000E+00
 -1      3912 9.39000E+01 3.05601E+01 0.00000E+00
 -1      3913 9.16500E+01 2.92611E+01 0.00000E+00
 -1      3914 9.54000E+01 3.05601E+01 0.00000E+00
 -1      3915 9.69000E+01 3.05601E+01 0.00000E+00
 -1      3916 9.46500E+01 2.92611E+01 0.00000E+00
 -1      3917 9.84000E+01 3.05601E+01 0.00000E+00
 -1      3918 9.99000E+01 3.05601E+01 0.00000E+00
 -1      3919 9.76500E+01 2.92611E+01 0.00000E+00
 -1      3920 1.01400E+02 3.05601E+01 0.00000E+00
 -1      3921 1.02900E+02 3.05601E+01 0.00000E+00
 -1      3922 1.00650E+02 2.92611E+01 0.00000E+00
 -1      3923 1.04400E+02 3.05601E+01 0.00000E+00
 -1      3924 1.05900E+02 3.05601E+01 0.00000E+00
 -1      3925 1.03650E+02 2.92611E+01 0.00000E+00
 -1      3926 1.07400E+02 3.05601E+01 0.00000E+00
 -1      3927 1.08900E+02 3.05601E+01 0.00000E+00
 -1      3928 1.06650E+02 2.92611E+01 0.00000E+00
 -1      3929 1.10400E+02 3.05601E+01 0.00000E+00
 -1      3930 1.11900E+02 3.05601E+01 0.00000E+00
 -1      3931 1.09650E+02 2.92611E+01 0.00000E+00
 -1      3932 1.13400E+02 3.05601E+01 0.00000E+00
 -1      3933 1.14900E+02 3.05601E+01 0.00000E+00
 -1      3934 1.12650E+02 2.92611E+01 0.00000E+00
 -1      3935 1.16400E+02 3.05601E+01 0.00000E+00
 -1      3936 1.17900E+02 3.05601E+01 0.00000E+00
 -1      3937 1.15650E+02 2.92611E+01 0.00000E+00
 -1      3938 1.19400E+02 3.05601E+01 0.00000E+00
 -1      3939 1.20900E+02 3.05601E+01 0.00000E+00
 -1      3940 1.18650E+02 2.92611E+01 0.00000E+00
 -1      3941 1.22400E+02 3.05601E+01 0.00000E+00
 -1      3942 1.23900E+02 3.05601E+01 0.00000E+00
 -1      3943 1.21650E+02 2.92611E+01 0.00000E+00
 -1      3944 1.25400E+02 3.05601E+01 0.00000E+00
 -1      3945 1.26900E+02 3.05601E+01 0.00000E+00
 -1      3946 1.24650E+02 2.92611E+01 0.00000E+00
 -1      3947 1.28316E+02 3.02323E+01 0.00000E+00
 -1      3948 1.29816E+02 3.02323E+01 0.00000E+00
 -1      3949 1.30398E+02 2.82778E+01 0.00000E+00
 -1      3950 1.27566E+02 2.89333E+01 0.00000E+00
 -1      3951 1.33232E+02 2.10441E+01 0.00000E+00
 -1      3952 1.31997E+02 2.05577E+01 0.00000E+00
 -1      3953 1.30872E+02 2.04728E+01 0.00000E+00
 -1      3954 1.33232E+02 2.25159E+01 0.00000E+00
 -1      3955 3.17381E+01 2.62330E+01 0.00000E+00
 -1      3956 3.17520E+01 2.45892E+01 0.00000E+00
 -1      3957 2.64000E+01 3.05150E+01 0.00000E+00
 -1      3958 2.79000E+01 3.05150E+01 0.00000E+00
 -1      3959 2.86500E+01 2.92160E+01 0.00000E+00
 -1      3960 7.56914E+01 2.05805E+01 0.00000E+00
 -1      3961 7.41914E+01 2.05805E+01 0.00000E+00
 -1      3962 7.64414E+01 2.18795E+01 0.00000E+00
 -1      3963 8.76914E+01 2.05805E+01 0.00000E+00
 -1      3964 8.61914E+01 2.05805E+01 0.00000E+00
 -1      3965 8.84414E+01 2.18795E+01 0.00000E+00
 -1      3966 9.66914E+01 2.05805E+01 0.00000E+00
 -1      3967 9.51914E+01 2.05805E+01 0.00000E+00
 -1      3968 9.44414E+01 2.18795E+01 0.00000E+00
 -1      3969 9.96914E+01 2.05805E+01 0.00000E+00
 -1      3970 9.81914E+01 2.05805E+01 0.00000E+00
 -1      3971 9.74414E+01 2.18795E+01 0.00000E+00
 -1      3972 1.02691E+02 2.05805E+01 0.00000E+00
 -1      3973 1.01191E+02 2.05805E+01 0.00000E+00
 -1      3974 1.00441E+02 2.18795E+01 0.00000E+00
 -1      3975 1.05691E+02 2.05805E+01 0.00000E+00
 -1      3976 1.04191E+02 2.05805E+01 0.00000E+00
 -1      3977 1.03441E+02 2.18795E+01 0.00000E+00
 -1      3978 1.08691E+02 2.05805E+01 0.00000E+00
 -1      3979 1.07191E+02 2.05805E+01 0.00000E+00
 -1      3980 1.06441E+02 2.18795E+01 0.00000E+00
 -1      3981 1.11691E+02 2.05805E+01 0.00000E+00
 -1      3982 1.10191E+02 2.05805E+01 0.00000E+00
 -1      3983 1.09441E+02 2.18795E+01 0.00000E+00
 -1      3984 1.14691E+02 2.05805E+01 0.00000E+00
 -1      3985 1.13191E+02 2.05805E+01 0.00000E+00
 -1      3986 1.12441E+02 2.18795E+01 0.00000E+00
 -1      3987 1.17691E+02 2.05805E+01 0.00000E+00
 -1      3988 1.16191E+02 2.05805E+01 0.00000E+00
 -1      3989 1.15441E+02 2.18795E+01 0.00000E+00
 -1      3990 1.20691E+02 2.05805E+01 0.00000E+00
 -1      3991 1.19191E+02 2.05805E+01 0.00000E+00
 -1      3992 1.18441E+02 2.18795E+01 0.00000E+00
 -1      3993 1.23691E+02 2.05805E+01 0.00000E+00
 -1      3994 1.22191E+02 2.05805E+01 0.00000E+00
 -1      3995 1.21441E+02 2.18795E+01 0.00000E+00
 -1      3996 1.26691E+02 2.05805E+01 0.00000E+00
 -1      3997 1.25191E+02 2.05805E+01 0.00000E+00
 -1      3998 1.24441E+02 2.18795E+01 0.00000E+00
 -1      3999 1.73115E+01 1.73044E+01 0.00000E+00
 -1      4000 1.65615E+01 1.60054E+01 0.00000E+00
 -1      4001 2.34000E+01 3.05150E+01 0.00000E+00
 -1      4002 2.49000E+01 3.05150E+01 0.00000E+00
 -1      4003 2.56500E+01 2.92160E+01 0.00000E+00
 -1      4004 7.02809E+01 2.33391E+01 0.00000E+00
 -1      4005 7.12836E+01 2.42527E+01 0.00000E+00
 -1      4006 7.07231E+01 2.23093E+01 0.00000E+00
 -1      4007 1.67642E+01 1.37415E+01 0.00000E+00
 -1      4008 1.65615E+01 1.45335E+01 0.00000E+00
 -1      4009 7.07850E+01 2.83805E+01 0.00000E+00
 -1      4010 2.12850E+01 1.82953E+01 0.00000E+00
 -1      4011 1.97851E+01 1.82953E+01 0.00000E+00
 -1      4012 2.04000E+01 3.05150E+01 0.00000E+00
 -1      4013 2.19000E+01 3.05150E+01 0.00000E+00
 -1      4014 2.26500E+01 2.92160E+01 0.00000E+00
 -1      4015 8.46914E+01 2.05805E+01 0.00000E+00
 -1      4016 8.31914E+01 2.05805E+01 0.00000E+00
 -1      4017 8.54414E+01 2.18795E+01 0.00000E+00
 -1      4018 3.15369E+01 2.81404E+01 0.00000E+00
 -1      4019 1.83012E+01 2.57431E+01 0.00000E+00
 -1      4020 1.70751E+01 2.65337E+01 0.00000E+00
 -1      4021 1.70706E+01 2.77149E+01 0.00000E+00
 -1      4022 2.42850E+01 1.82953E+01 0.00000E+00
 -1      4023 2.27850E+01 1.82953E+01 0.00000E+00
 -1      4024 2.20351E+01 1.95943E+01 0.00000E+00
 -1      4025 7.22064E+01 2.61632E+01 0.00000E+00
 -1      4026 7.14957E+01 2.72718E+01 0.00000E+00
 -1      4027 7.28607E+01 2.81524E+01 0.00000E+00
 -1      4028 8.24414E+01 2.18795E+01 0.00000E+00
 -1      4029 7.33336E+01 2.25512E+01 0.00000E+00
 -1      4030 7.25836E+01 2.12522E+01 0.00000E+00
 -1      4031 3.51405E+01 2.95740E+01 0.00000E+00
 -1      4032 3.07727E+01 2.33582E+01 0.00000E+00
 -1      4033 1.28982E+02 2.71368E+01 0.00000E+00
 -1      4034 1.30398E+02 2.68090E+01 0.00000E+00
 -1      4035 1.30398E+02 2.53403E+01 0.00000E+00
 -1      4036 2.94955E+01 1.66303E+01 0.00000E+00
 -1      4037 7.30909E+01 2.41035E+01 0.00000E+00
 -1      4038 7.26486E+01 2.51333E+01 0.00000E+00
 -1      4039 7.40136E+01 2.60139E+01 0.00000E+00
 -1      4040 2.72850E+01 1.82953E+01 0.00000E+00
 -1      4041 2.57850E+01 1.82953E+01 0.00000E+00
 -1      4042 2.50351E+01 1.95943E+01 0.00000E+00
 -1      4043 1.27816E+02 2.06654E+01 0.00000E+00
 -1      4044 1.27066E+02 2.19644E+01 0.00000E+00
 -1      4045 1.28941E+02 2.07503E+01 0.00000E+00
 -1      4046 1.84019E+01 1.84291E+01 0.00000E+00
 -1      4047 1.66784E+01 1.87372E+01 0.00000E+00
 -1      4048 1.66784E+01 2.02090E+01 0.00000E+00
 -1      4049 1.80372E+01 2.07400E+01 0.00000E+00
 -1      4050 3.03512E+01 2.73085E+01 0.00000E+00
 -1      4051 1.69321E+01 2.88191E+01 0.00000E+00
 -1      4052 1.69276E+01 3.00002E+01 0.00000E+00
 -1      4053 1.78812E+01 3.02368E+01 0.00000E+00
 -1      4054 1.81582E+01 2.80284E+01 0.00000E+00
 -1      4055 1.96047E+01 2.23541E+01 0.00000E+00
 -1      4056 1.96047E+01 2.38260E+01 0.00000E+00
 -1      4057 1.31933E+02 2.32534E+01 0.00000E+00
 -1      4058 1.91519E+01 1.97281E+01 0.00000E+00
 -1      4059 1.96002E+01 2.50072E+01 0.00000E+00
 -1      4060 1.95957E+01 2.61883E+01 0.00000E+00
 -1      4061 2.08992E+01 2.42712E+01 0.00000E+00
 -1      4062 9.81914E+01 2.31785E+01 0.00000E+00
 -1      4063 9.66914E+01 2.31785E+01 0.00000E+00
 -1      4064 7.46986E+01 2.34318E+01 0.00000E+00
 -1      4065 9.51914E+01 2.31785E+01 0.00000E+00
 -1      4066 9.36914E+01 2.31785E+01 0.00000E+00
 -1      4067 9.59414E+01 2.44775E+01 0.00000E+00
 -1      4068 1.30122E+02 2.17718E+01 0.00000E+00
 -1      4069 3.08919E+01 1.90506E+01 0.00000E+00
 -1      4070 3.01594E+01 1.75790E+01 0.00000E+00
 -1      4071 8.01914E+01 2.31785E+01 0.00000E+00
 -1      4072 7.86914E+01 2.31785E+01 0.00000E+00
 -1      4073 7.43607E+01 2.81524E+01 0.00000E+00
 -1      4074 7.58607E+01 2.81524E+01 0.00000E+00
 -1      4075 7.73607E+01 2.81524E+01 0.00000E+00
 -1      4076 7.50714E+01 2.70438E+01 0.00000E+00
 -1      4077 7.88607E+01 2.81524E+01 0.00000E+00
 -1      4078 8.03607E+01 2.81524E+01 0.00000E+00
 -1      4079 7.80714E+01 2.70438E+01 0.00000E+00
 -1      4080 8.18607E+01 2.81524E+01 0.00000E+00
 -1      4081 8.33607E+01 2.81524E+01 0.00000E+00
 -1      4082 8.10714E+01 2.70438E+01 0.00000E+00
 -1      4083 8.48607E+01 2.81524E+01 0.00000E+00
 -1      4084 8.63607E+01 2.81524E+01 0.00000E+00
 -1      4085 8.40714E+01 2.70438E+01 0.00000E+00
 -1      4086 8.78607E+01 2.81524E+01 0.00000E+00
 -1      4087 8.93607E+01 2.81524E+01 0.00000E+00
 -1      4088 8.70714E+01 2.70438E+01 0.00000E+00
 -1      4089 9.08607E+01 2.81524E+01 0.00000E+00
 -1      4090 9.23607E+01 2.81524E+01 0.00000E+00
 -1      4091 9.00714E+01 2.70438E+01 0.00000E+00
 -1      4092 9.38607E+01 2.81524E+01 0.00000E+00
 -1      4093 9.53607E+01 2.81524E+01 0.00000E+00
 -1      4094 9.30714E+01 2.70438E+01 0.00000E+00
 -1      4095 9.68607E+01 2.81524E+01 0.00000E+00
 -1      4096 9.83607E+01 2.81524E+01 0.00000E+00
 -1      4097 9.60714E+01 2.70438E+01 0.00000E+00
 -1      4098 9.98607E+01 2.81524E+01 0.00000E+00
 -1      4099 1.01361E+02 2.81524E+01 0.00000E+00
 -1      4100 9.90714E+01 2.70438E+01 0.00000E+00
 -1      4101 1.02861E+02 2.81524E+01 0.00000E+00
 -1      4102 1.04361E+02 2.81524E+01 0.00000E+00
 -1      4103 1.02071E+02 2.70438E+01 0.00000E+00
 -1      4104 1.05861E+02 2.81524E+01 0.00000E+00
 -1      4105 1.07361E+02 2.81524E+01 0.00000E+00
 -1      4106 1.05071E+02 2.70438E+01 0.00000E+00
 -1      4107 1.08861E+02 2.81524E+01 0.00000E+00
 -1      4108 1.10361E+02 2.81524E+01 0.00000E+00
 -1      4109 1.08071E+02 2.70438E+01 0.00000E+00
 -1      4110 1.11861E+02 2.81524E+01 0.00000E+00
 -1      4111 1.13361E+02 2.81524E+01 0.00000E+00
 -1      4112 1.11071E+02 2.70438E+01 0.00000E+00
 -1      4113 1.14861E+02 2.81524E+01 0.00000E+00
 -1      4114 1.16361E+02 2.81524E+01 0.00000E+00
 -1      4115 1.14071E+02 2.70438E+01 0.00000E+00
 -1      4116 1.17861E+02 2.81524E+01 0.00000E+00
 -1      4117 1.19361E+02 2.81524E+01 0.00000E+00
 -1      4118 1.17071E+02 2.70438E+01 0.00000E+00
 -1      4119 1.20861E+02 2.81524E+01 0.00000E+00
 -1      4120 1.22361E+02 2.81524E+01 0.00000E+00
 -1      4121 1.20071E+02 2.70438E+01 0.00000E+00
 -1      4122 1.23861E+02 2.81524E+01 0.00000E+00
 -1      4123 1.25361E+02 2.81524E+01 0.00000E+00
 -1      4124 1.23071E+02 2.70438E+01 0.00000E+00
 -1      4125 1.26463E+02 2.78085E+01 0.00000E+00
 -1      4126 1.27879E+02 2.74807E+01 0.00000E+00
 -1      4127 1.27879E+02 2.60120E+01 0.00000E+00
 -1      4128 1.25674E+02 2.66998E+01 0.00000E+00
 -1      4129 7.11654E+01 2.12794E+01 0.00000E+00
 -1      4130 2.73512E+01 2.73085E+01 0.00000E+00
 -1      4131 2.88512E+01 2.73085E+01 0.00000E+00
 -1      4132 2.90524E+01 2.54010E+01 0.00000E+00
 -1      4133 3.01778E+01 2.01045E+01 0.00000E+00
 -1      4134 2.95050E+01 2.37742E+01 0.00000E+00
 -1      4135 2.97253E+01 2.17314E+01 0.00000E+00
 -1      4136 2.89101E+01 2.05205E+01 0.00000E+00
 -1      4137 2.80050E+01 2.37742E+01 0.00000E+00
 -1      4138 9.22564E+01 2.44616E+01 0.00000E+00
 -1      4139 9.07564E+01 2.44616E+01 0.00000E+00
 -1      4140 2.86989E+01 1.79449E+01 0.00000E+00
 -1      4141 7.74450E+01 2.33052E+01 0.00000E+00
 -1      4142 7.59450E+01 2.33052E+01 0.00000E+00
 -1      4143 7.57023E+01 2.48574E+01 0.00000E+00
 -1      4144 7.81950E+01 2.46042E+01 0.00000E+00
 -1      4145 8.92564E+01 2.44616E+01 0.00000E+00
 -1      4146 8.77564E+01 2.44616E+01 0.00000E+00
 -1      4147 1.88349E+01 3.04733E+01 0.00000E+00
 -1      4148 1.01256E+02 2.44616E+01 0.00000E+00
 -1      4149 9.97564E+01 2.44616E+01 0.00000E+00
 -1      4150 1.04256E+02 2.44616E+01 0.00000E+00
 -1      4151 1.02756E+02 2.44616E+01 0.00000E+00
 -1      4152 1.07256E+02 2.44616E+01 0.00000E+00
 -1      4153 1.05756E+02 2.44616E+01 0.00000E+00
 -1      4154 1.10256E+02 2.44616E+01 0.00000E+00
 -1      4155 1.08756E+02 2.44616E+01 0.00000E+00
 -1      4156 1.13256E+02 2.44616E+01 0.00000E+00
 -1      4157 1.11756E+02 2.44616E+01 0.00000E+00
 -1      4158 1.16256E+02 2.44616E+01 0.00000E+00
 -1      4159 1.14756E+02 2.44616E+01 0.00000E+00
 -1      4160 1.19256E+02 2.44616E+01 0.00000E+00
 -1      4161 1.17756E+02 2.44616E+01 0.00000E+00
 -1      4162 1.22256E+02 2.44616E+01 0.00000E+00
 -1      4163 1.20756E+02 2.44616E+01 0.00000E+00
 -1      4164 1.25256E+02 2.44616E+01 0.00000E+00
 -1      4165 1.23756E+02 2.44616E+01 0.00000E+00
 -1      4166 2.19000E+01 2.79170E+01 0.00000E+00
 -1      4167 2.34000E+01 2.79170E+01 0.00000E+00
 -1      4168 1.94204E+01 2.06062E+01 0.00000E+00
 -1      4169 1.97234E+01 2.80701E+01 0.00000E+00
 -1      4170 1.95849E+01 2.91743E+01 0.00000E+00
 -1      4171 2.46256E+01 2.76128E+01 0.00000E+00
 -1      4172 2.61256E+01 2.76128E+01 0.00000E+00
 -1      4173 2.63268E+01 2.57053E+01 0.00000E+00
 -1      4174 2.38756E+01 2.63138E+01 0.00000E+00
 -1      4175 1.30003E+02 2.35309E+01 0.00000E+00
 -1      4176 8.32564E+01 2.44616E+01 0.00000E+00
 -1      4177 8.17564E+01 2.44616E+01 0.00000E+00
 -1      4178 8.62564E+01 2.44616E+01 0.00000E+00
 -1      4179 8.47564E+01 2.44616E+01 0.00000E+00
 -1      4180 2.07194E+01 2.13421E+01 0.00000E+00
 -1      4181 2.22194E+01 2.13421E+01 0.00000E+00
 -1      4182 2.79489E+01 1.92440E+01 0.00000E+00
 -1      4183 2.39151E+01 2.12494E+01 0.00000E+00
 -1      4184 2.25994E+01 2.29973E+01 0.00000E+00
 -1      4185 2.74963E+01 2.08708E+01 0.00000E+00
 -1      4186 7.55136E+01 2.60139E+01 0.00000E+00
 -1      4187 2.25949E+01 2.41785E+01 0.00000E+00
 -1      4188 2.54151E+01 2.12494E+01 0.00000E+00
 -1      4189 1.28587E+02 2.38587E+01 0.00000E+00
 -1      4190 2.10224E+01 2.73342E+01 0.00000E+00
 -1      4191 9.60064E+01 2.57606E+01 0.00000E+00
 -1      4192 9.45064E+01 2.57606E+01 0.00000E+00
 -1      4193 8.10064E+01 2.57606E+01 0.00000E+00
 -1      4194 2.63763E+01 2.25259E+01 0.00000E+00
 -1      4195 7.67600E+01 2.58873E+01 0.00000E+00
 -1      4196 7.82600E+01 2.58873E+01 0.00000E+00
 -1      4197 7.95064E+01 2.57606E+01 0.00000E+00
 -1      4198 9.30064E+01 2.57606E+01 0.00000E+00
 -1      4199 9.75064E+01 2.57606E+01 0.00000E+00
 -1      4200 9.90064E+01 2.57606E+01 0.00000E+00
 -1      4201 2.59237E+01 2.41528E+01 0.00000E+00
 -1      4202 2.17724E+01 2.60352E+01 0.00000E+00
 -1      4203 1.27531E+02 2.33022E+01 0.00000E+00
 -1      4204 1.26406E+02 2.32173E+01 0.00000E+00
 -1      4205 2.46981E+01 2.44570E+01 0.00000E+00
 -1      4206 1.25721E+02 2.57994E+01 0.00000E+00
 -1      4207 2.29980E+01 2.57310E+01 0.00000E+00
 -1      4208 1.27926E+02 2.51115E+01 0.00000E+00
 -1      4209 1.26824E+02 2.54555E+01 0.00000E+00
 -3
    3C                          2023                                     1
 -1       164    8    0    1
 -2         6         7        23      1094      1257      1111
 -1       165    8    0    1
 -2         7         8       164      1095      1258      1259
 -1       166    8    0    1
 -2         8         9       165      1096      1260      1261
 -1       167    8    0    1
 -2         8       165       164      1261      1262      1258
 -1       168    8    0    1
 -2         9        10       166      1097      1263      1264
 -1       169    8    0    1
 -2         9       166       165      1264      1265      1260
 -1       170    8    0    1
 -2        10        11       167      1098      1266      1267
 -1       171    8    0    1
 -2        10       167       166      1267      1268      1263
 -1       172    8    0    1
 -2        11        12       168      1099      1269      1270
 -1       173    8    0    1
 -2        11       168       167      1270      1271      1266
 -1       174    8    0    1
 -2        12        13       169      1100      1272      1273
 -1       175    8    0    1
 -2        12       169       168      1273      1274      1269
 -1       176    8    0    1
 -2        13        14       170      1101      1275      1276
 -1       177    8    0    1
 -2        13       170       169      1276      1277      1272
 -1       178    8    0    1
 -2        14        15       171      1102      1278      1279
 -1       179    8    0    1
 -2        14       171       170      1279      1280      1275
 -1       180    8    0    1
 -2        15        16       172      1103      1281      1282
 -1       181    8    0    1
 -2        15       172       171      1282      1283      1278
 -1       182    8    0    1
 -2        16        17       173      1104      1284      1285
 -1       183    8    0    1
 -2        16       173       172      1285      1286      1281
 -1       184    8    0    1
 -2        17        18       174      1105      1287      1288
 -1       185    8    0    1
 -2        17       174       173      1288      1289      1284
 -1       186    8    0    1
 -2        18        19       175      1106      1290      1291
 -1       187    8    0    1
 -2        18       175       174      1291      1292      1287
 -1       188    8    0    1
 -2        19        20       176      1107      1293      1294
 -1       189    8    0    1
 -2        19       176       175      1294      1295      1290
 -1       190    8    0    1
 -2        20        21       177      1108      1296      1297
 -1       191    8    0    1
 -2        20       177       176      1297      1298      1293
 -1       192    8    0    1
 -2        21        22       178      1109      1299      1300
 -1       193    8    0    1
 -2        21       178       177      1300      1301      1296
 -1       194    8    0    1
 -2        22         5       179      1110      1302      1303
 -1       195    8    0    1
 -2       178        22       179      1299      1303      1304
 -1       196    8    0    1
 -2         5        72       179      1161      1305      1302
 -1       197    8    0    1
 -2        24        23       180      1112      1306      1307
 -1       198    8    0    1
 -2        25        24       181      1113      1308      1309
 -1       199    8    0    1
 -2        24       180       181      1307      1310      1308
 -1       200    8    0    1
 -2        26        25       182      1114      1311      1312
 -1       201    8    0    1
 -2        25       181       182      1309      1313      1311
 -1       202    8    0    1
 -2        27        26       183      1115      1314      1315
 -1       203    8    0    1
 -2        26       182       183      1312      1316      1314
 -1       204    8    0    1
 -2        28        27       184      1116      1317      1318
 -1       205    8    0    1
 -2        27       183       184      1315      1319      1317
 -1       206    8    0    1
 -2        29        28       185      1117      1320      1321
 -1       207    8    0    1
 -2        28       184       185      1318      1322      1320
 -1       208    8    0    1
 -2        30        29       186      1118      1323      1324
 -1       209    8    0    1
 -2        29       185       186      1321      1325      1323
 -1       210    8    0    1
 -2        31        30       187      1119      1326      1327
 -1       211    8    0    1
 -2        30       186       187      1324      1328      1326
 -1       212    8    0    1
 -2        32        31       188      1120      1329      1330
 -1       213    8    0    1
 -2        31       187       188      1327      1331      1329
 -1       214    8    0    1
 -2        33        32       189      1121      1332      1333
 -1       215    8    0    1
 -2        32       188       189      1330      1334      1332
 -1       216    8    0    1
 -2        34        33       190      1122      1335      1336
 -1       217    8    0    1
 -2        33       189       190      1333      1337      1335
 -1       218    8    0    1
 -2        35        34       191      1123      1338      1339
 -1       219    8    0    1
 -2        34       190       191      1336      1340      1338
 -1       220    8    0    1
 -2        36        35       192      1124      1341      1342
 -1       221    8    0    1
 -2        35       191       192      1339      1343      1341
 -1       222    8    0    1
 -2        37        36       193      1125      1344      1345
 -1       223    8    0    1
 -2        36       192       193      1342      1346      1344
 -1       224    8    0    1
 -2        38        37       194      1126      1347      1348
 -1       225    8    0    1
 -2        37       193       194      1345      1349      1347
 -1       226    8    0    1
 -2        39        38       195      1127      1350      1351
 -1       227    8    0    1
 -2        38       194       195      1348      1352      1350
 -1       228    8    0    1
 -2        40        39       196      1128      1353      1354
 -1       229    8    0    1
 -2        39       195       196      1351      1355      1353
 -1       230    8    0    1
 -2        41        40       197      1129      1356      1357
 -1       231    8    0    1
 -2        40       196       197      1354      1358      1356
 -1       232    8    0    1
 -2        42        41       198      1130      1359      1360
 -1       233    8    0    1
 -2        41       197       198      1357      1361      1359
 -1       234    8    0    1
 -2        43        42       199      1131      1362      1363
 -1       235    8    0    1
 -2        42       198       199      1360      1364      1362
 -1       236    8    0    1
 -2        44        43       200      1132      1365      1366
 -1       237    8    0    1
 -2        43       199       200      1363      1367      1365
 -1       238    8    0    1
 -2        45        44       201      1133      1368      1369
 -1       239    8    0    1
 -2        44       200       201      1366      1370      1368
 -1       240    8    0    1
 -2        46        45       202      1134      1371      1372
 -1       241    8    0    1
 -2        45       201       202      1369      1373      1371
 -1       242    8    0    1
 -2        47        46       203      1135      1374      1375
 -1       243    8    0    1
 -2        46       202       203      1372      1376      1374
 -1       244    8    0    1
 -2        48        47       204      1136      1377      1378
 -1       245    8    0    1
 -2        47       203       204      1375      1379      1377
 -1       246    8    0    1
 -2        49        48       205      1137      1380      1381
 -1       247    8    0    1
 -2        48       204       205      1378      1382      1380
 -1       248    8    0    1
 -2        50        49       206      1138      1383      1384
 -1       249    8    0    1
 -2        49       205       206      1381      1385      1383
 -1       250    8    0    1
 -2        51        50       207      1139      1386      1387
 -1       251    8    0    1
 -2        50       206       207      1384      1388      1386
 -1       252    8    0    1
 -2        52        51       208      1140      1389      1390
 -1       253    8    0    1
 -2        51       207       208      1387      1391      1389
 -1       254    8    0    1
 -2        53        52       209      1141      1392      1393
 -1       255    8    0    1
 -2        52       208       209      1390      1394      1392
 -1       256    8    0    1
 -2        54        53       210      1142      1395      1396
 -1       257    8    0    1
 -2        53       209       210      1393      1397      1395
 -1       258    8    0    1
 -2        55        54       211      1143      1398      1399
 -1       259    8    0    1
 -2        54       210       211      1396      1400      1398
 -1       260    8    0    1
 -2        56        55       212      1144      1401      1402
 -1       261    8    0    1
 -2        55       211       212      1399      1403      1401
 -1       262    8    0    1
 -2        57        56       213      1145      1404      1405
 -1       263    8    0    1
 -2        56       212       213      1402      1406      1404
 -1       264    8    0    1
 -2        58        57       214      1146      1407      1408
 -1       265    8    0    1
 -2        57       213       214      1405      1409      1407
 -1       266    8    0    1
 -2        59        58       215      1147      1410      1411
 -1       267    8    0    1
 -2        58       214       215      1408      1412      1410
 -1       268    8    0    1
 -2        60        59       216      1148      1413      1414
 -1       269    8    0    1
 -2        59       215       216      1411      1415      1413
 -1       270    8    0    1
 -2        61        60       217      1149      1416      1417
 -1       271    8    0    1
 -2        60       216       217      1414      1418      1416
 -1       272    8    0    1
 -2        62        61       218      1150      1419      1420
 -1       273    8    0    1
 -2        61       217       218      1417      1421      1419
 -1       274    8    0    1
 -2        63        62       219      1151      1422      1423
 -1       275    8    0    1
 -2        62       218       219      1420      1424      1422
 -1       276    8    0    1
 -2        64        63       220      1152      1425      1426
 -1       277    8    0    1
 -2        63       219       220      1423      1427      1425
 -1       278    8    0    1
 -2        65        64       221      1153      1428      1429
 -1       279    8    0    1
 -2        64       220       221      1426      1430      1428
 -1       280    8    0    1
 -2        66        65       222      1154      1431      1432
 -1       281    8    0    1
 -2        65       221       222      1429      1433      1431
 -1       282    8    0    1
 -2        67        66       223      1155      1434      1435
 -1       283    8    0    1
 -2        66       222       223      1432      1436      1434
 -1       284    8    0    1
 -2        68        67       224      1156      1437      1438
 -1       285    8    0    1
 -2        67       223       224      1435      1439      1437
 -1       286    8    0    1
 -2        69        68       225      1157      1440      1441
 -1       287    8    0    1
 -2        68       224       225      1438      1442      1440
 -1       288    8    0    1
 -2        70        69       226      1158      1443      1444
 -1       289    8    0    1
 -2        69       225       226      1441      1445      1443
 -1       290    8    0    1
 -2        71        70       227      1159      1446      1447
 -1       291    8    0    1
 -2        70       226       227      1444      1448      1446
 -1       292    8    0    1
 -2         4        71       136      1160      1449      1227
 -1       293    8    0    1
 -2       136        71       227      1449      1447      1450
 -1       294    8    0    1
 -2        72        73       228      1162      1451      1452
 -1       295    8    0    1
 -2        72       228       179      1452      1453      1305
 -1       296    8    0    1
 -2        73        74       229      1163      1454      1455
 -1       297    8    0    1
 -2        73       229       228      1455      1456      1451
 -1       298    8    0    1
 -2        74        75       230      1164      1457      1458
 -1       299    8    0    1
 -2        74       230       229      1458      1459      1454
 -1       300    8    0    1
 -2        75        76       231      1165      1460      1461
 -1       301    8    0    1
 -2        75       231       230      1461      1462      1457
 -1       302    8    0    1
 -2        76        77       232      1166      1463      1464
 -1       303    8    0    1
 -2        76       232       231      1464      1465      1460
 -1       304    8    0    1
 -2        77        78       233      1167      1466      1467
 -1       305    8    0    1
 -2        77       233       232      1467      1468      1463
 -1       306    8    0    1
 -2        78        79       234      1168      1469      1470
 -1       307    8    0    1
 -2        78       234       233      1470      1471      1466
 -1       308    8    0    1
 -2        79        80       235      1169      1472      1473
 -1       309    8    0    1
 -2        79       235       234      1473      1474      1469
 -1       310    8    0    1
 -2        80        81       236      1170      1475      1476
 -1       311    8    0    1
 -2        80       236       235      1476      1477      1472
 -1       312    8    0    1
 -2        81        82       237      1171      1478      1479
 -1       313    8    0    1
 -2        81       237       236      1479      1480      1475
 -1       314    8    0    1
 -2        82        83       238      1172      1481      1482
 -1       315    8    0    1
 -2        82       238       237      1482      1483      1478
 -1       316    8    0    1
 -2        83        84       239      1173      1484      1485
 -1       317    8    0    1
 -2        83       239       238      1485      1486      1481
 -1       318    8    0    1
 -2        84        85       240      1174      1487      1488
 -1       319    8    0    1
 -2        84       240       239      1488      1489      1484
 -1       320    8    0    1
 -2        85        86       241      1175      1490      1491
 -1       321    8    0    1
 -2        85       241       240      1491      1492      1487
 -1       322    8    0    1
 -2        86        87       242      1176      1493      1494
 -1       323    8    0    1
 -2        86       242       241      1494      1495      1490
 -1       324    8    0    1
 -2        87        88       243      1177      1496      1497
 -1       325    8    0    1
 -2        87       243       242      1497      1498      1493
 -1       326    8    0    1
 -2        88        89       244      1178      1499      1500
 -1       327    8    0    1
 -2        88       244       243      1500      1501      1496
 -1       328    8    0    1
 -2        89        90       245      1179      1502      1503
 -1       329    8    0    1
 -2        89       245       244      1503      1504      1499
 -1       330    8    0    1
 -2        90        91       246      1180      1505      1506
 -1       331    8    0    1
 -2        90       246       245      1506      1507      1502
 -1       332    8    0    1
 -2        91        92       247      1181      1508      1509
 -1       333    8    0    1
 -2        91       247       246      1509      1510      1505
 -1       334    8    0    1
 -2        92        93       248      1182      1511      1512
 -1       335    8    0    1
 -2        92       248       247      1512      1513      1508
 -1       336    8    0    1
 -2        93        94       249      1183      1514      1515
 -1       337    8    0    1
 -2        93       249       248      1515      1516      1511
 -1       338    8    0    1
 -2        94        95       250      1184      1517      1518
 -1       339    8    0    1
 -2        94       250       249      1518      1519      1514
 -1       340    8    0    1
 -2        95        96       251      1185      1520      1521
 -1       341    8    0    1
 -2        95       251       250      1521      1522      1517
 -1       342    8    0    1
 -2        96        97       252      1186      1523      1524
 -1       343    8    0    1
 -2        96       252       251      1524      1525      1520
 -1       344    8    0    1
 -2        97        98       253      1187      1526      1527
 -1       345    8    0    1
 -2        97       253       252      1527      1528      1523
 -1       346    8    0    1
 -2        98        99       254      1188      1529      1530
 -1       347    8    0    1
 -2        98       254       253      1530      1531      1526
 -1       348    8    0    1
 -2        99       100       255      1189      1532      1533
 -1       349    8    0    1
 -2        99       255       254      1533      1534      1529
 -1       350    8    0    1
 -2       100       101       256      1190      1535      1536
 -1       351    8    0    1
 -2       100       256       255      1536      1537      1532
 -1       352    8    0    1
 -2       101       102       257      1191      1538      1539
 -1       353    8    0    1
 -2       101       257       256      1539      1540      1535
 -1       354    8    0    1
 -2       102       103       258      1192      1541      1542
 -1       355    8    0    1
 -2       102       258       257      1542      1543      1538
 -1       356    8    0    1
 -2       103       104       259      1193      1544      1545
 -1       357    8    0    1
 -2       103       259       258      1545      1546      1541
 -1       358    8    0    1
 -2       104       105       260      1194      1547      1548
 -1       359    8    0    1
 -2       104       260       259      1548      1549      1544
 -1       360    8    0    1
 -2       105       106       261      1195      1550      1551
 -1       361    8    0    1
 -2       105       261       260      1551      1552      1547
 -1       362    8    0    1
 -2       106       107       262      1196      1553      1554
 -1       363    8    0    1
 -2       106       262       261      1554      1555      1550
 -1       364    8    0    1
 -2       107       108       263      1197      1556      1557
 -1       365    8    0    1
 -2       107       263       262      1557      1558      1553
 -1       366    8    0    1
 -2       108       109       264      1198      1559      1560
 -1       367    8    0    1
 -2       108       264       263      1560      1561      1556
 -1       368    8    0    1
 -2       109       110       265      1199      1562      1563
 -1       369    8    0    1
 -2       109       265       264      1563      1564      1559
 -1       370    8    0    1
 -2       110       111       266      1200      1565      1566
 -1       371    8    0    1
 -2       110       266       265      1566      1567      1562
 -1       372    8    0    1
 -2       111       112       267      1201      1568      1569
 -1       373    8    0    1
 -2       111       267       266      1569      1570      1565
 -1       374    8    0    1
 -2       112       113       268      1202      1571      1572
 -1       375    8    0    1
 -2       112       268       267      1572      1573      1568
 -1       376    8    0    1
 -2       113       114       269      1203      1574      1575
 -1       377    8    0    1
 -2       113       269       268      1575      1576      1571
 -1       378    8    0    1
 -2       114       115       270      1204      1577      1578
 -1       379    8    0    1
 -2       114       270       269      1578      1579      1574
 -1       380    8    0    1
 -2       115       116       271      1205      1580      1581
 -1       381    8    0    1
 -2       115       271       270      1581      1582      1577
 -1       382    8    0    1
 -2       116       117       272      1206      1583      1584
 -1       383    8    0    1
 -2       116       272       271      1584      1585      1580
 -1       384    8    0    1
 -2       117       118       273      1207      1586      1587
 -1       385    8    0    1
 -2       117       273       272      1587      1588      1583
 -1       386    8    0    1
 -2       118       119       274      1208      1589      1590
 -1       387    8    0    1
 -2       118       274       273      1590      1591      1586
 -1       388    8    0    1
 -2       119       120       275      1209      1592      1593
 -1       389    8    0    1
 -2       119       275       274      1593      1594      1589
 -1       390    8    0    1
 -2       120         3       121      1210      1211      1595
 -1       391    8    0    1
 -2       121       122       276      1212      1596      1597
 -1       392    8    0    1
 -2       122       123       277      1213      1598      1599
 -1       393    8    0    1
 -2       122       277       276      1599      1600      1596
 -1       394    8    0    1
 -2       123       124       278      1214      1601      1602
 -1       395    8    0    1
 -2       123       278       277      1602      1603      1598
 -1       396    8    0    1
 -2       124       125       279      1215      1604      1605
 -1       397    8    0    1
 -2       124       279       278      1605      1606      1601
 -1       398    8    0    1
 -2       125       126       280      1216      1607      1608
 -1       399    8    0    1
 -2       125       280       279      1608      1609      1604
 -1       400    8    0    1
 -2       126       127       281      1217      1610      1611
 -1       401    8    0    1
 -2       126       281       280      1611      1612      1607
 -1       402    8    0    1
 -2       127       128       282      1218      1613      1614
 -1       403    8    0    1
 -2       127       282       281      1614      1615      1610
 -1       404    8    0    1
 -2       128       129       283      1219      1616      1617
 -1       405    8    0    1
 -2       128       283       282      1617      1618      1613
 -1       406    8    0    1
 -2       129       130       284      1220      1619      1620
 -1       407    8    0    1
 -2       129       284       283      1620      1621      1616
 -1       408    8    0    1
 -2       130       131       285      1221      1622      1623
 -1       409    8    0    1
 -2       130       285       284      1623      1624      1619
 -1       410    8    0    1
 -2       131       132       286      1222      1625      1626
 -1       411    8    0    1
 -2       131       286       285      1626      1627      1622
 -1       412    8    0    1
 -2       132       133       287      1223      1628      1629
 -1       413    8    0    1
 -2       132       287       286      1629      1630      1625
 -1       414    8    0    1
 -2       133       134       288      1224      1631      1632
 -1       415    8    0    1
 -2       133       288       287      1632      1633      1628
 -1       416    8    0    1
 -2       134       135       289      1225      1634      1635
 -1       417    8    0    1
 -2       134       289       288      1635      1636      1631
 -1       418    8    0    1
 -2       135       136       290      1226      1637      1638
 -1       419    8    0    1
 -2       289       135       290      1634      1638      1639
 -1       420    8    0    1
 -2       136       227       290      1450      1640      1637
 -1       421    8    0    1
 -2         2       137       291      1228      1641      1642
 -1       422    8    0    1
 -2       137       138       292      1229      1643      1644
 -1       423    8    0    1
 -2       138       139       293      1230      1645      1646
 -1       424    8    0    1
 -2       139       140       294      1231      1647      1648
 -1       425    8    0    1
 -2       140       141       295      1232      1649      1650
 -1       426    8    0    1
 -2       141       142       296      1233      1651      1652
 -1       427    8    0    1
 -2       142       143       297      1234      1653      1654
 -1       428    8    0    1
 -2       143       144       298      1235      1655      1656
 -1       429    8    0    1
 -2       144       145       299      1236      1657      1658
 -1       430    8    0    1
 -2       145       146       300      1237      1659      1660
 -1       431    8    0    1
 -2       146       147       301      1238      1661      1662
 -1       432    8    0    1
 -2       147       148       302      1239      1663      1664
 -1       433    8    0    1
 -2       148       149       303      1240      1665      1666
 -1       434    8    0    1
 -2       149       150       304      1241      1667      1668
 -1       435    8    0    1
 -2       150       151       305      1242      1669      1670
 -1       436    8    0    1
 -2       151       152       306      1243      1671      1672
 -1       437    8    0    1
 -2       152       153       307      1244      1673      1674
 -1       438    8    0    1
 -2       153       154       308      1245      1675      1676
 -1       439    8    0    1
 -2       154       155       309      1246      1677      1678
 -1       440    8    0    1
 -2       155       156       310      1247      1679      1680
 -1       441    8    0    1
 -2       156       157       311      1248      1681      1682
 -1       442    8    0    1
 -2       157       158       312      1249      1683      1684
 -1       443    8    0    1
 -2       158       159       313      1250      1685      1686
 -1       444    8    0    1
 -2       159       160       314      1251      1687      1688
 -1       445    8    0    1
 -2       160         1       315      1252      1689      1690
 -1       446    8    0    1
 -2         1       161       316      1253      1691      1692
 -1       447    8    0    1
 -2       161       162       317      1254      1693      1694
 -1       448    8    0    1
 -2       162       163       318      1255      1695      1696
 -1       449    8    0    1
 -2       163         2       319      1256      1697      1698
 -1       450    8    0    1
 -2       294       140       295      1647      1650      1699
 -1       451    8    0    1
 -2       293       139       294      1645      1648      1700
 -1       452    8    0    1
 -2       120       121       275      1595      1701      1592
 -1       453    8    0    1
 -2       121       276       275      1597      1702      1701
 -1       454    8    0    1
 -2       291       137       292      1641      1644      1703
 -1       455    8    0    1
 -2       292       138       293      1643      1646      1704
 -1       456    8    0    1
 -2         2       291       319      1642      1705      1697
 -1       457    8    0    1
 -2       141       296       295      1652      1706      1649
 -1       458    8    0    1
 -2       142       297       296      1654      1707      1651
 -1       459    8    0    1
 -2       143       298       297      1656      1708      1653
 -1       460    8    0    1
 -2       144       299       298      1658      1709      1655
 -1       461    8    0    1
 -2       145       300       299      1660      1710      1657
 -1       462    8    0    1
 -2       146       301       300      1662      1711      1659
 -1       463    8    0    1
 -2       147       302       301      1664      1712      1661
 -1       464    8    0    1
 -2       148       303       302      1666      1713      1663
 -1       465    8    0    1
 -2       149       304       303      1668      1714      1665
 -1       466    8    0    1
 -2       150       305       304      1670      1715      1667
 -1       467    8    0    1
 -2       151       306       305      1672      1716      1669
 -1       468    8    0    1
 -2       152       307       306      1674      1717      1671
 -1       469    8    0    1
 -2       153       308       307      1676      1718      1673
 -1       470    8    0    1
 -2       154       309       308      1678      1719      1675
 -1       471    8    0    1
 -2       155       310       309      1680      1720      1677
 -1       472    8    0    1
 -2       156       311       310      1682      1721      1679
 -1       473    8    0    1
 -2       157       312       311      1684      1722      1681
 -1       474    8    0    1
 -2       158       313       312      1686      1723      1683
 -1       475    8    0    1
 -2       159       314       313      1688      1724      1685
 -1       476    8    0    1
 -2       160       315       314      1690      1725      1687
 -1       477    8    0    1
 -2         1       316       315      1692      1726      1689
 -1       478    8    0    1
 -2       161       317       316      1694      1727      1691
 -1       479    8    0    1
 -2       162       318       317      1696      1728      1693
 -1       480    8    0    1
 -2       163       319       318      1698      1729      1695
 -1       481    8    0    1
 -2        23         7       164      1257      1259      1730
 -1       482    8    0    1
 -2       165       166       320      1265      1731      1732
 -1       483    8    0    1
 -2       164       165       321      1262      1733      1734
 -1       484    8    0    1
 -2       165       320       321      1732      1735      1733
 -1       485    8    0    1
 -2       167       168       322      1271      1736      1737
 -1       486    8    0    1
 -2       168       169       323      1274      1738      1739
 -1       487    8    0    1
 -2       168       323       322      1739      1740      1736
 -1       488    8    0    1
 -2       169       170       324      1277      1741      1742
 -1       489    8    0    1
 -2       169       324       323      1742      1743      1738
 -1       490    8    0    1
 -2       170       171       325      1280      1744      1745
 -1       491    8    0    1
 -2       170       325       324      1745      1746      1741
 -1       492    8    0    1
 -2       171       172       326      1283      1747      1748
 -1       493    8    0    1
 -2       171       326       325      1748      1749      1744
 -1       494    8    0    1
 -2       172       173       327      1286      1750      1751
 -1       495    8    0    1
 -2       172       327       326      1751      1752      1747
 -1       496    8    0    1
 -2       173       174       328      1289      1753      1754
 -1       497    8    0    1
 -2       173       328       327      1754      1755      1750
 -1       498    8    0    1
 -2       174       175       329      1292      1756      1757
 -1       499    8    0    1
 -2       174       329       328      1757      1758      1753
 -1       500    8    0    1
 -2       175       176       330      1295      1759      1760
 -1       501    8    0    1
 -2       175       330       329      1760      1761      1756
 -1       502    8    0    1
 -2       176       177       331      1298      1762      1763
 -1       503    8    0    1
 -2       176       331       330      1763      1764      1759
 -1       504    8    0    1
 -2       177       178       332      1301      1765      1766
 -1       505    8    0    1
 -2       177       332       331      1766      1767      1762
 -1       506    8    0    1
 -2       178       179       333      1304      1768      1769
 -1       507    8    0    1
 -2       332       178       333      1765      1769      1770
 -1       508    8    0    1
 -2       179       228       333      1453      1771      1768
 -1       509    8    0    1
 -2       180        23       164      1306      1730      1772
 -1       510    8    0    1
 -2       228       229       334      1456      1773      1774
 -1       511    8    0    1
 -2       228       334       333      1774      1775      1771
 -1       512    8    0    1
 -2       180       164       321      1772      1734      1776
 -1       513    8    0    1
 -2       182       181       335      1313      1777      1778
 -1       514    8    0    1
 -2       183       182       336      1316      1779      1780
 -1       515    8    0    1
 -2       182       335       336      1778      1781      1779
 -1       516    8    0    1
 -2       184       183       337      1319      1782      1783
 -1       517    8    0    1
 -2       183       336       337      1780      1784      1782
 -1       518    8    0    1
 -2       185       184       338      1322      1785      1786
 -1       519    8    0    1
 -2       184       337       338      1783      1787      1785
 -1       520    8    0    1
 -2       186       185       339      1325      1788      1789
 -1       521    8    0    1
 -2       185       338       339      1786      1790      1788
 -1       522    8    0    1
 -2       187       186       340      1328      1791      1792
 -1       523    8    0    1
 -2       186       339       340      1789      1793      1791
 -1       524    8    0    1
 -2       188       187       341      1331      1794      1795
 -1       525    8    0    1
 -2       187       340       341      1792      1796      1794
 -1       526    8    0    1
 -2       189       188       342      1334      1797      1798
 -1       527    8    0    1
 -2       188       341       342      1795      1799      1797
 -1       528    8    0    1
 -2       190       189       343      1337      1800      1801
 -1       529    8    0    1
 -2       189       342       343      1798      1802      1800
 -1       530    8    0    1
 -2       191       190       344      1340      1803      1804
 -1       531    8    0    1
 -2       190       343       344      1801      1805      1803
 -1       532    8    0    1
 -2       192       191       345      1343      1806      1807
 -1       533    8    0    1
 -2       191       344       345      1804      1808      1806
 -1       534    8    0    1
 -2       193       192       346      1346      1809      1810
 -1       535    8    0    1
 -2       192       345       346      1807      1811      1809
 -1       536    8    0    1
 -2       194       193       347      1349      1812      1813
 -1       537    8    0    1
 -2       193       346       347      1810      1814      1812
 -1       538    8    0    1
 -2       195       194       348      1352      1815      1816
 -1       539    8    0    1
 -2       194       347       348      1813      1817      1815
 -1       540    8    0    1
 -2       196       195       349      1355      1818      1819
 -1       541    8    0    1
 -2       195       348       349      1816      1820      1818
 -1       542    8    0    1
 -2       197       196       350      1358      1821      1822
 -1       543    8    0    1
 -2       196       349       350      1819      1823      1821
 -1       544    8    0    1
 -2       198       197       351      1361      1824      1825
 -1       545    8    0    1
 -2       197       350       351      1822      1826      1824
 -1       546    8    0    1
 -2       199       198       352      1364      1827      1828
 -1       547    8    0    1
 -2       198       351       352      1825      1829      1827
 -1       548    8    0    1
 -2       200       199       353      1367      1830      1831
 -1       549    8    0    1
 -2       199       352       353      1828      1832      1830
 -1       550    8    0    1
 -2       201       200       354      1370      1833      1834
 -1       551    8    0    1
 -2       200       353       354      1831      1835      1833
 -1       552    8    0    1
 -2       202       201       355      1373      1836      1837
 -1       553    8    0    1
 -2       201       354       355      1834      1838      1836
 -1       554    8    0    1
 -2       203       202       356      1376      1839      1840
 -1       555    8    0    1
 -2       202       355       356      1837      1841      1839
 -1       556    8    0    1
 -2       204       203       357      1379      1842      1843
 -1       557    8    0    1
 -2       203       356       357      1840      1844      1842
 -1       558    8    0    1
 -2       205       204       358      1382      1845      1846
 -1       559    8    0    1
 -2       204       357       358      1843      1847      1845
 -1       560    8    0    1
 -2       206       205       359      1385      1848      1849
 -1       561    8    0    1
 -2       205       358       359      1846      1850      1848
 -1       562    8    0    1
 -2       207       206       360      1388      1851      1852
 -1       563    8    0    1
 -2       206       359       360      1849      1853      1851
 -1       564    8    0    1
 -2       208       207       361      1391      1854      1855
 -1       565    8    0    1
 -2       207       360       361      1852      1856      1854
 -1       566    8    0    1
 -2       209       208       362      1394      1857      1858
 -1       567    8    0    1
 -2       208       361       362      1855      1859      1857
 -1       568    8    0    1
 -2       210       209       363      1397      1860      1861
 -1       569    8    0    1
 -2       209       362       363      1858      1862      1860
 -1       570    8    0    1
 -2       211       210       364      1400      1863      1864
 -1       571    8    0    1
 -2       210       363       364      1861      1865      1863
 -1       572    8    0    1
 -2       212       211       365      1403      1866      1867
 -1       573    8    0    1
 -2       211       364       365      1864      1868      1866
 -1       574    8    0    1
 -2       213       212       366      1406      1869      1870
 -1       575    8    0    1
 -2       212       365       366      1867      1871      1869
 -1       576    8    0    1
 -2       214       213       367      1409      1872      1873
 -1       577    8    0    1
 -2       213       366       367      1870      1874      1872
 -1       578    8    0    1
 -2       215       214       368      1412      1875      1876
 -1       579    8    0    1
 -2       214       367       368      1873      1877      1875
 -1       580    8    0    1
 -2       216       215       369      1415      1878      1879
 -1       581    8    0    1
 -2       215       368       369      1876      1880      1878
 -1       582    8    0    1
 -2       217       216       370      1418      1881      1882
 -1       583    8    0    1
 -2       216       369       370      1879      1883      1881
 -1       584    8    0    1
 -2       218       217       371      1421      1884      1885
 -1       585    8    0    1
 -2       217       370       371      1882      1886      1884
 -1       586    8    0    1
 -2       219       218       372      1424      1887      1888
 -1       587    8    0    1
 -2       218       371       372      1885      1889      1887
 -1       588    8    0    1
 -2       220       219       373      1427      1890      1891
 -1       589    8    0    1
 -2       219       372       373      1888      1892      1890
 -1       590    8    0    1
 -2       221       220       374      1430      1893      1894
 -1       591    8    0    1
 -2       220       373       374      1891      1895      1893
 -1       592    8    0    1
 -2       222       221       375      1433      1896      1897
 -1       593    8    0    1
 -2       221       374       375      1894      1898      1896
 -1       594    8    0    1
 -2       223       222       376      1436      1899      1900
 -1       595    8    0    1
 -2       222       375       376      1897      1901      1899
 -1       596    8    0    1
 -2       224       223       377      1439      1902      1903
 -1       597    8    0    1
 -2       223       376       377      1900      1904      1902
 -1       598    8    0    1
 -2       225       224       378      1442      1905      1906
 -1       599    8    0    1
 -2       224       377       378      1903      1907      1905
 -1       600    8    0    1
 -2       226       225       379      1445      1908      1909
 -1       601    8    0    1
 -2       225       378       379      1906      1910      1908
 -1       602    8    0    1
 -2       227       226       380      1448      1911      1912
 -1       603    8    0    1
 -2       290       227       380      1640      1912      1913
 -1       604    8    0    1
 -2       226       379       380      1909      1914      1911
 -1       605    8    0    1
 -2       229       230       381      1459      1915      1916
 -1       606    8    0    1
 -2       229       381       334      1916      1917      1773
 -1       607    8    0    1
 -2       230       231       382      1462      1918      1919
 -1       608    8    0    1
 -2       230       382       381      1919      1920      1915
 -1       609    8    0    1
 -2       231       232       383      1465      1921      1922
 -1       610    8    0    1
 -2       231       383       382      1922      1923      1918
 -1       611    8    0    1
 -2       232       233       384      1468      1924      1925
 -1       612    8    0    1
 -2       232       384       383      1925      1926      1921
 -1       613    8    0    1
 -2       233       234       385      1471      1927      1928
 -1       614    8    0    1
 -2       233       385       384      1928      1929      1924
 -1       615    8    0    1
 -2       234       235       386      1474      1930      1931
 -1       616    8    0    1
 -2       234       386       385      1931      1932      1927
 -1       617    8    0    1
 -2       235       236       387      1477      1933      1934
 -1       618    8    0    1
 -2       235       387       386      1934      1935      1930
 -1       619    8    0    1
 -2       236       237       388      1480      1936      1937
 -1       620    8    0    1
 -2       236       388       387      1937      1938      1933
 -1       621    8    0    1
 -2       237       238       389      1483      1939      1940
 -1       622    8    0    1
 -2       237       389       388      1940      1941      1936
 -1       623    8    0    1
 -2       238       239       390      1486      1942      1943
 -1       624    8    0    1
 -2       238       390       389      1943      1944      1939
 -1       625    8    0    1
 -2       239       240       391      1489      1945      1946
 -1       626    8    0    1
 -2       239       391       390      1946      1947      1942
 -1       627    8    0    1
 -2       240       241       392      1492      1948      1949
 -1       628    8    0    1
 -2       240       392       391      1949      1950      1945
 -1       629    8    0    1
 -2       241       242       393      1495      1951      1952
 -1       630    8    0    1
 -2       241       393       392      1952      1953      1948
 -1       631    8    0    1
 -2       242       243       394      1498      1954      1955
 -1       632    8    0    1
 -2       242       394       393      1955      1956      1951
 -1       633    8    0    1
 -2       243       244       395      1501      1957      1958
 -1       634    8    0    1
 -2       243       395       394      1958      1959      1954
 -1       635    8    0    1
 -2       244       245       396      1504      1960      1961
 -1       636    8    0    1
 -2       244       396       395      1961      1962      1957
 -1       637    8    0    1
 -2       245       246       397      1507      1963      1964
 -1       638    8    0    1
 -2       245       397       396      1964      1965      1960
 -1       639    8    0    1
 -2       246       247       398      1510      1966      1967
 -1       640    8    0    1
 -2       246       398       397      1967      1968      1963
 -1       641    8    0    1
 -2       247       248       399      1513      1969      1970
 -1       642    8    0    1
 -2       247       399       398      1970      1971      1966
 -1       643    8    0    1
 -2       248       249       400      1516      1972      1973
 -1       644    8    0    1
 -2       248       400       399      1973      1974      1969
 -1       645    8    0    1
 -2       249       250       401      1519      1975      1976
 -1       646    8    0    1
 -2       249       401       400      1976      1977      1972
 -1       647    8    0    1
 -2       250       251       402      1522      1978      1979
 -1       648    8    0    1
 -2       250       402       401      1979      1980      1975
 -1       649    8    0    1
 -2       251       252       403      1525      1981      1982
 -1       650    8    0    1
 -2       251       403       402      1982      1983      1978
 -1       651    8    0    1
 -2       252       253       404      1528      1984      1985
 -1       652    8    0    1
 -2       252       404       403      1985      1986      1981
 -1       653    8    0    1
 -2       253       254       405      1531      1987      1988
 -1       654    8    0    1
 -2       253       405       404      1988      1989      1984
 -1       655    8    0    1
 -2       254       255       406      1534      1990      1991
 -1       656    8    0    1
 -2       254       406       405      1991      1992      1987
 -1       657    8    0    1
 -2       255       256       407      1537      1993      1994
 -1       658    8    0    1
 -2       255       407       406      1994      1995      1990
 -1       659    8    0    1
 -2       256       257       408      1540      1996      1997
 -1       660    8    0    1
 -2       256       408       407      1997      1998      1993
 -1       661    8    0    1
 -2       257       258       409      1543      1999      2000
 -1       662    8    0    1
 -2       257       409       408      2000      2001      1996
 -1       663    8    0    1
 -2       258       259       410      1546      2002      2003
 -1       664    8    0    1
 -2       258       410       409      2003      2004      1999
 -1       665    8    0    1
 -2       259       260       411      1549      2005      2006
 -1       666    8    0    1
 -2       259       411       410      2006      2007      2002
 -1       667    8    0    1
 -2       260       261       412      1552      2008      2009
 -1       668    8    0    1
 -2       260       412       411      2009      2010      2005
 -1       669    8    0    1
 -2       261       262       413      1555      2011      2012
 -1       670    8    0    1
 -2       261       413       412      2012      2013      2008
 -1       671    8    0    1
 -2       262       263       414      1558      2014      2015
 -1       672    8    0    1
 -2       262       414       413      2015      2016      2011
 -1       673    8    0    1
 -2       263       264       415      1561      2017      2018
 -1       674    8    0    1
 -2       263       415       414      2018      2019      2014
 -1       675    8    0    1
 -2       264       265       416      1564      2020      2021
 -1       676    8    0    1
 -2       264       416       415      2021      2022      2017
 -1       677    8    0    1
 -2       265       266       417      1567      2023      2024
 -1       678    8    0    1
 -2       265       417       416      2024      2025      2020
 -1       679    8    0    1
 -2       266       267       418      1570      2026      2027
 -1       680    8    0    1
 -2       266       418       417      2027      2028      2023
 -1       681    8    0    1
 -2       267       268       419      1573      2029      2030
 -1       682    8    0    1
 -2       267       419       418      2030      2031      2026
 -1       683    8    0    1
 -2       268       269       420      1576      2032      2033
 -1       684    8    0    1
 -2       268       420       419      2033      2034      2029
 -1       685    8    0    1
 -2       269       270       421      1579      2035      2036
 -1       686    8    0    1
 -2       269       421       420      2036      2037      2032
 -1       687    8    0    1
 -2       270       271       422      1582      2038      2039
 -1       688    8    0    1
 -2       270       422       421      2039      2040      2035
 -1       689    8    0    1
 -2       271       272       423      1585      2041      2042
 -1       690    8    0    1
 -2       271       423       422      2042      2043      2038
 -1       691    8    0    1
 -2       272       273       424      1588      2044      2045
 -1       692    8    0    1
 -2       272       424       423      2045      2046      2041
 -1       693    8    0    1
 -2       273       274       425      1591      2047      2048
 -1       694    8    0    1
 -2       273       425       424      2048      2049      2044
 -1       695    8    0    1
 -2       274       275       426      1594      2050      2051
 -1       696    8    0    1
 -2       425       274       426      2047      2051      2052
 -1       697    8    0    1
 -2       275       276       426      1702      2053      2050
 -1       698    8    0    1
 -2       278       279       427      1606      2054      2055
 -1       699    8    0    1
 -2       277       278       428      1603      2056      2057
 -1       700    8    0    1
 -2       278       427       428      2055      2058      2056
 -1       701    8    0    1
 -2       276       277       429      1600      2059      2060
 -1       702    8    0    1
 -2       426       276       429      2053      2060      2061
 -1       703    8    0    1
 -2       277       428       429      2057      2062      2059
 -1       704    8    0    1
 -2       279       280       430      1609      2063      2064
 -1       705    8    0    1
 -2       279       430       427      2064      2065      2054
 -1       706    8    0    1
 -2       280       281       431      1612      2066      2067
 -1       707    8    0    1
 -2       280       431       430      2067      2068      2063
 -1       708    8    0    1
 -2       281       282       432      1615      2069      2070
 -1       709    8    0    1
 -2       281       432       431      2070      2071      2066
 -1       710    8    0    1
 -2       282       283       433      1618      2072      2073
 -1       711    8    0    1
 -2       282       433       432      2073      2074      2069
 -1       712    8    0    1
 -2       283       284       434      1621      2075      2076
 -1       713    8    0    1
 -2       283       434       433      2076      2077      2072
 -1       714    8    0    1
 -2       284       285       435      1624      2078      2079
 -1       715    8    0    1
 -2       284       435       434      2079      2080      2075
 -1       716    8    0    1
 -2       285       286       436      1627      2081      2082
 -1       717    8    0    1
 -2       285       436       435      2082      2083      2078
 -1       718    8    0    1
 -2       286       287       437      1630      2084      2085
 -1       719    8    0    1
 -2       286       437       436      2085      2086      2081
 -1       720    8    0    1
 -2       287       288       438      1633      2087      2088
 -1       721    8    0    1
 -2       287       438       437      2088      2089      2084
 -1       722    8    0    1
 -2       288       289       439      1636      2090      2091
 -1       723    8    0    1
 -2       288       439       438      2091      2092      2087
 -1       724    8    0    1
 -2       292       293       440      1704      2093      2094
 -1       725    8    0    1
 -2       319       291       441      1705      2095      2096
 -1       726    8    0    1
 -2       291       292       442      1703      2097      2098
 -1       727    8    0    1
 -2       293       294       443      1700      2099      2100
 -1       728    8    0    1
 -2       294       295       444      1699      2101      2102
 -1       729    8    0    1
 -2       166       167       445      1268      2103      2104
 -1       730    8    0    1
 -2       320       166       445      1731      2104      2105
 -1       731    8    0    1
 -2       167       322       445      1737      2106      2103
 -1       732    8    0    1
 -2       296       297       446      1707      2107      2108
 -1       733    8    0    1
 -2       297       298       447      1708      2109      2110
 -1       734    8    0    1
 -2       298       299       448      1709      2111      2112
 -1       735    8    0    1
 -2       298       448       447      2112      2113      2109
 -1       736    8    0    1
 -2       299       300       449      1710      2114      2115
 -1       737    8    0    1
 -2       300       301       450      1711      2116      2117
 -1       738    8    0    1
 -2       301       302       451      1712      2118      2119
 -1       739    8    0    1
 -2       301       451       450      2119      2120      2116
 -1       740    8    0    1
 -2       302       303       452      1713      2121      2122
 -1       741    8    0    1
 -2       303       304       453      1714      2123      2124
 -1       742    8    0    1
 -2       303       453       452      2124      2125      2121
 -1       743    8    0    1
 -2       304       305       454      1715      2126      2127
 -1       744    8    0    1
 -2       305       306       455      1716      2128      2129
 -1       745    8    0    1
 -2       306       307       456      1717      2130      2131
 -1       746    8    0    1
 -2       306       456       455      2131      2132      2128
 -1       747    8    0    1
 -2       307       308       457      1718      2133      2134
 -1       748    8    0    1
 -2       308       309       458      1719      2135      2136
 -1       749    8    0    1
 -2       309       310       459      1720      2137      2138
 -1       750    8    0    1
 -2       310       311       460      1721      2139      2140
 -1       751    8    0    1
 -2       310       460       459      2140      2141      2137
 -1       752    8    0    1
 -2       311       312       461      1722      2142      2143
 -1       753    8    0    1
 -2       312       313       462      1723      2144      2145
 -1       754    8    0    1
 -2       313       314       463      1724      2146      2147
 -1       755    8    0    1
 -2       314       315       464      1725      2148      2149
 -1       756    8    0    1
 -2       315       316       465      1726      2150      2151
 -1       757    8    0    1
 -2       316       317       466      1727      2152      2153
 -1       758    8    0    1
 -2       317       318       467      1728      2154      2155
 -1       759    8    0    1
 -2       318       319       468      1729      2156      2157
 -1       760    8    0    1
 -2       295       296       469      1706      2158      2159
 -1       761    8    0    1
 -2       443       294       444      2099      2102      2160
 -1       762    8    0    1
 -2       180       321       181      1776      2161      1310
 -1       763    8    0    1
 -2       444       295       469      2101      2159      2162
 -1       764    8    0    1
 -2       296       446       469      2108      2163      2158
 -1       765    8    0    1
 -2       335       181       321      1777      2161      2164
 -1       766    8    0    1
 -2       442       292       470      2097      2165      2166
 -1       767    8    0    1
 -2       292       440       470      2094      2167      2165
 -1       768    8    0    1
 -2       441       291       442      2095      2098      2168
 -1       769    8    0    1
 -2       439       289       290      2090      1639      2169
 -1       770    8    0    1
 -2       440       293       443      2093      2100      2170
 -1       771    8    0    1
 -2       319       441       468      2096      2171      2156
 -1       772    8    0    1
 -2       467       318       468      2154      2157      2172
 -1       773    8    0    1
 -2       466       317       467      2152      2155      2173
 -1       774    8    0    1
 -2       465       316       466      2150      2153      2174
 -1       775    8    0    1
 -2       464       315       465      2148      2151      2175
 -1       776    8    0    1
 -2       463       314       464      2146      2149      2176
 -1       777    8    0    1
 -2       462       313       463      2144      2147      2177
 -1       778    8    0    1
 -2       460       311       461      2139      2143      2178
 -1       779    8    0    1
 -2       458       309       471      2135      2179      2180
 -1       780    8    0    1
 -2       309       459       471      2138      2181      2179
 -1       781    8    0    1
 -2       456       307       457      2130      2134      2182
 -1       782    8    0    1
 -2       453       304       454      2123      2127      2183
 -1       783    8    0    1
 -2       451       302       452      2118      2122      2184
 -1       784    8    0    1
 -2       448       299       449      2111      2115      2185
 -1       785    8    0    1
 -2       446       297       472      2107      2186      2187
 -1       786    8    0    1
 -2       297       447       472      2110      2188      2186
 -1       787    8    0    1
 -2       449       300       473      2114      2189      2190
 -1       788    8    0    1
 -2       300       450       473      2117      2191      2189
 -1       789    8    0    1
 -2       454       305       474      2126      2192      2193
 -1       790    8    0    1
 -2       305       455       474      2129      2194      2192
 -1       791    8    0    1
 -2       457       308       458      2133      2136      2195
 -1       792    8    0    1
 -2       461       312       462      2142      2145      2196
 -1       793    8    0    1
 -2       334       381       475      1917      2197      2198
 -1       794    8    0    1
 -2       323       324       476      1743      2199      2200
 -1       795    8    0    1
 -2       322       323       477      1740      2201      2202
 -1       796    8    0    1
 -2       323       476       477      2200      2203      2201
 -1       797    8    0    1
 -2       325       326       478      1749      2204      2205
 -1       798    8    0    1
 -2       326       327       479      1752      2206      2207
 -1       799    8    0    1
 -2       326       479       478      2207      2208      2204
 -1       800    8    0    1
 -2       327       328       480      1755      2209      2210
 -1       801    8    0    1
 -2       327       480       479      2210      2211      2206
 -1       802    8    0    1
 -2       328       329       481      1758      2212      2213
 -1       803    8    0    1
 -2       328       481       480      2213      2214      2209
 -1       804    8    0    1
 -2       329       330       482      1761      2215      2216
 -1       805    8    0    1
 -2       329       482       481      2216      2217      2212
 -1       806    8    0    1
 -2       330       331       483      1764      2218      2219
 -1       807    8    0    1
 -2       330       483       482      2219      2220      2215
 -1       808    8    0    1
 -2       381       382       484      1920      2221      2222
 -1       809    8    0    1
 -2       381       484       475      2222      2223      2197
 -1       810    8    0    1
 -2       336       335       485      1781      2224      2225
 -1       811    8    0    1
 -2       444       469       486      2162      2226      2227
 -1       812    8    0    1
 -2       337       336       487      1784      2228      2229
 -1       813    8    0    1
 -2       336       485       487      2225      2230      2228
 -1       814    8    0    1
 -2       338       337       488      1787      2231      2232
 -1       815    8    0    1
 -2       337       487       488      2229      2233      2231
 -1       816    8    0    1
 -2       339       338       489      1790      2234      2235
 -1       817    8    0    1
 -2       338       488       489      2232      2236      2234
 -1       818    8    0    1
 -2       340       339       490      1793      2237      2238
 -1       819    8    0    1
 -2       339       489       490      2235      2239      2237
 -1       820    8    0    1
 -2       341       340       491      1796      2240      2241
 -1       821    8    0    1
 -2       340       490       491      2238      2242      2240
 -1       822    8    0    1
 -2       342       341       492      1799      2243      2244
 -1       823    8    0    1
 -2       341       491       492      2241      2245      2243
 -1       824    8    0    1
 -2       343       342       493      1802      2246      2247
 -1       825    8    0    1
 -2       342       492       493      2244      2248      2246
 -1       826    8    0    1
 -2       344       343       494      1805      2249      2250
 -1       827    8    0    1
 -2       343       493       494      2247      2251      2249
 -1       828    8    0    1
 -2       345       344       495      1808      2252      2253
 -1       829    8    0    1
 -2       344       494       495      2250      2254      2252
 -1       830    8    0    1
 -2       346       345       496      1811      2255      2256
 -1       831    8    0    1
 -2       345       495       496      2253      2257      2255
 -1       832    8    0    1
 -2       347       346       497      1814      2258      2259
 -1       833    8    0    1
 -2       346       496       497      2256      2260      2258
 -1       834    8    0    1
 -2       348       347       498      1817      2261      2262
 -1       835    8    0    1
 -2       347       497       498      2259      2263      2261
 -1       836    8    0    1
 -2       349       348       499      1820      2264      2265
 -1       837    8    0    1
 -2       348       498       499      2262      2266      2264
 -1       838    8    0    1
 -2       350       349       500      1823      2267      2268
 -1       839    8    0    1
 -2       349       499       500      2265      2269      2267
 -1       840    8    0    1
 -2       351       350       501      1826      2270      2271
 -1       841    8    0    1
 -2       350       500       501      2268      2272      2270
 -1       842    8    0    1
 -2       352       351       502      1829      2273      2274
 -1       843    8    0    1
 -2       351       501       502      2271      2275      2273
 -1       844    8    0    1
 -2       353       352       503      1832      2276      2277
 -1       845    8    0    1
 -2       352       502       503      2274      2278      2276
 -1       846    8    0    1
 -2       354       353       504      1835      2279      2280
 -1       847    8    0    1
 -2       353       503       504      2277      2281      2279
 -1       848    8    0    1
 -2       355       354       505      1838      2282      2283
 -1       849    8    0    1
 -2       354       504       505      2280      2284      2282
 -1       850    8    0    1
 -2       356       355       506      1841      2285      2286
 -1       851    8    0    1
 -2       355       505       506      2283      2287      2285
 -1       852    8    0    1
 -2       357       356       507      1844      2288      2289
 -1       853    8    0    1
 -2       356       506       507      2286      2290      2288
 -1       854    8    0    1
 -2       358       357       508      1847      2291      2292
 -1       855    8    0    1
 -2       357       507       508      2289      2293      2291
 -1       856    8    0    1
 -2       359       358       509      1850      2294      2295
 -1       857    8    0    1
 -2       358       508       509      2292      2296      2294
 -1       858    8    0    1
 -2       360       359       510      1853      2297      2298
 -1       859    8    0    1
 -2       359       509       510      2295      2299      2297
 -1       860    8    0    1
 -2       361       360       511      1856      2300      2301
 -1       861    8    0    1
 -2       360       510       511      2298      2302      2300
 -1       862    8    0    1
 -2       362       361       512      1859      2303      2304
 -1       863    8    0    1
 -2       361       511       512      2301      2305      2303
 -1       864    8    0    1
 -2       363       362       513      1862      2306      2307
 -1       865    8    0    1
 -2       362       512       513      2304      2308      2306
 -1       866    8    0    1
 -2       364       363       514      1865      2309      2310
 -1       867    8    0    1
 -2       363       513       514      2307      2311      2309
 -1       868    8    0    1
 -2       365       364       515      1868      2312      2313
 -1       869    8    0    1
 -2       364       514       515      2310      2314      2312
 -1       870    8    0    1
 -2       366       365       516      1871      2315      2316
 -1       871    8    0    1
 -2       365       515       516      2313      2317      2315
 -1       872    8    0    1
 -2       367       366       517      1874      2318      2319
 -1       873    8    0    1
 -2       366       516       517      2316      2320      2318
 -1       874    8    0    1
 -2       368       367       518      1877      2321      2322
 -1       875    8    0    1
 -2       367       517       518      2319      2323      2321
 -1       876    8    0    1
 -2       369       368       519      1880      2324      2325
 -1       877    8    0    1
 -2       368       518       519      2322      2326      2324
 -1       878    8    0    1
 -2       370       369       520      1883      2327      2328
 -1       879    8    0    1
 -2       369       519       520      2325      2329      2327
 -1       880    8    0    1
 -2       371       370       521      1886      2330      2331
 -1       881    8    0    1
 -2       370       520       521      2328      2332      2330
 -1       882    8    0    1
 -2       372       371       522      1889      2333      2334
 -1       883    8    0    1
 -2       371       521       522      2331      2335      2333
 -1       884    8    0    1
 -2       373       372       523      1892      2336      2337
 -1       885    8    0    1
 -2       372       522       523      2334      2338      2336
 -1       886    8    0    1
 -2       374       373       524      1895      2339      2340
 -1       887    8    0    1
 -2       373       523       524      2337      2341      2339
 -1       888    8    0    1
 -2       375       374       525      1898      2342      2343
 -1       889    8    0    1
 -2       374       524       525      2340      2344      2342
 -1       890    8    0    1
 -2       376       375       526      1901      2345      2346
 -1       891    8    0    1
 -2       375       525       526      2343      2347      2345
 -1       892    8    0    1
 -2       377       376       527      1904      2348      2349
 -1       893    8    0    1
 -2       376       526       527      2346      2350      2348
 -1       894    8    0    1
 -2       378       377       528      1907      2351      2352
 -1       895    8    0    1
 -2       377       527       528      2349      2353      2351
 -1       896    8    0    1
 -2       379       378       529      1910      2354      2355
 -1       897    8    0    1
 -2       378       528       529      2352      2356      2354
 -1       898    8    0    1
 -2       383       384       530      1926      2357      2358
 -1       899    8    0    1
 -2       384       385       531      1929      2359      2360
 -1       900    8    0    1
 -2       384       531       530      2360      2361      2357
 -1       901    8    0    1
 -2       385       386       532      1932      2362      2363
 -1       902    8    0    1
 -2       385       532       531      2363      2364      2359
 -1       903    8    0    1
 -2       386       387       533      1935      2365      2366
 -1       904    8    0    1
 -2       386       533       532      2366      2367      2362
 -1       905    8    0    1
 -2       387       388       534      1938      2368      2369
 -1       906    8    0    1
 -2       387       534       533      2369      2370      2365
 -1       907    8    0    1
 -2       388       389       535      1941      2371      2372
 -1       908    8    0    1
 -2       388       535       534      2372      2373      2368
 -1       909    8    0    1
 -2       389       390       536      1944      2374      2375
 -1       910    8    0    1
 -2       389       536       535      2375      2376      2371
 -1       911    8    0    1
 -2       390       391       537      1947      2377      2378
 -1       912    8    0    1
 -2       390       537       536      2378      2379      2374
 -1       913    8    0    1
 -2       391       392       538      1950      2380      2381
 -1       914    8    0    1
 -2       391       538       537      2381      2382      2377
 -1       915    8    0    1
 -2       392       393       539      1953      2383      2384
 -1       916    8    0    1
 -2       392       539       538      2384      2385      2380
 -1       917    8    0    1
 -2       393       394       540      1956      2386      2387
 -1       918    8    0    1
 -2       393       540       539      2387      2388      2383
 -1       919    8    0    1
 -2       394       395       541      1959      2389      2390
 -1       920    8    0    1
 -2       394       541       540      2390      2391      2386
 -1       921    8    0    1
 -2       395       396       542      1962      2392      2393
 -1       922    8    0    1
 -2       395       542       541      2393      2394      2389
 -1       923    8    0    1
 -2       396       397       543      1965      2395      2396
 -1       924    8    0    1
 -2       396       543       542      2396      2397      2392
 -1       925    8    0    1
 -2       397       398       544      1968      2398      2399
 -1       926    8    0    1
 -2       397       544       543      2399      2400      2395
 -1       927    8    0    1
 -2       398       399       545      1971      2401      2402
 -1       928    8    0    1
 -2       398       545       544      2402      2403      2398
 -1       929    8    0    1
 -2       399       400       546      1974      2404      2405
 -1       930    8    0    1
 -2       399       546       545      2405      2406      2401
 -1       931    8    0    1
 -2       400       401       547      1977      2407      2408
 -1       932    8    0    1
 -2       400       547       546      2408      2409      2404
 -1       933    8    0    1
 -2       401       402       548      1980      2410      2411
 -1       934    8    0    1
 -2       401       548       547      2411      2412      2407
 -1       935    8    0    1
 -2       402       403       549      1983      2413      2414
 -1       936    8    0    1
 -2       402       549       548      2414      2415      2410
 -1       937    8    0    1
 -2       403       404       550      1986      2416      2417
 -1       938    8    0    1
 -2       403       550       549      2417      2418      2413
 -1       939    8    0    1
 -2       404       405       551      1989      2419      2420
 -1       940    8    0    1
 -2       404       551       550      2420      2421      2416
 -1       941    8    0    1
 -2       405       406       552      1992      2422      2423
 -1       942    8    0    1
 -2       405       552       551      2423      2424      2419
 -1       943    8    0    1
 -2       406       407       553      1995      2425      2426
 -1       944    8    0    1
 -2       406       553       552      2426      2427      2422
 -1       945    8    0    1
 -2       407       408       554      1998      2428      2429
 -1       946    8    0    1
 -2       407       554       553      2429      2430      2425
 -1       947    8    0    1
 -2       408       409       555      2001      2431      2432
 -1       948    8    0    1
 -2       408       555       554      2432      2433      2428
 -1       949    8    0    1
 -2       409       410       556      2004      2434      2435
 -1       950    8    0    1
 -2       409       556       555      2435      2436      2431
 -1       951    8    0    1
 -2       410       411       557      2007      2437      2438
 -1       952    8    0    1
 -2       410       557       556      2438      2439      2434
 -1       953    8    0    1
 -2       411       412       558      2010      2440      2441
 -1       954    8    0    1
 -2       411       558       557      2441      2442      2437
 -1       955    8    0    1
 -2       412       413       559      2013      2443      2444
 -1       956    8    0    1
 -2       412       559       558      2444      2445      2440
 -1       957    8    0    1
 -2       413       414       560      2016      2446      2447
 -1       958    8    0    1
 -2       413       560       559      2447      2448      2443
 -1       959    8    0    1
 -2       414       415       561      2019      2449      2450
 -1       960    8    0    1
 -2       414       561       560      2450      2451      2446
 -1       961    8    0    1
 -2       415       416       562      2022      2452      2453
 -1       962    8    0    1
 -2       415       562       561      2453      2454      2449
 -1       963    8    0    1
 -2       416       417       563      2025      2455      2456
 -1       964    8    0    1
 -2       416       563       562      2456      2457      2452
 -1       965    8    0    1
 -2       417       418       564      2028      2458      2459
 -1       966    8    0    1
 -2       417       564       563      2459      2460      2455
 -1       967    8    0    1
 -2       418       419       565      2031      2461      2462
 -1       968    8    0    1
 -2       418       565       564      2462      2463      2458
 -1       969    8    0    1
 -2       419       420       566      2034      2464      2465
 -1       970    8    0    1
 -2       419       566       565      2465      2466      2461
 -1       971    8    0    1
 -2       420       421       567      2037      2467      2468
 -1       972    8    0    1
 -2       420       567       566      2468      2469      2464
 -1       973    8    0    1
 -2       421       422       568      2040      2470      2471
 -1       974    8    0    1
 -2       421       568       567      2471      2472      2467
 -1       975    8    0    1
 -2       422       423       569      2043      2473      2474
 -1       976    8    0    1
 -2       422       569       568      2474      2475      2470
 -1       977    8    0    1
 -2       423       424       570      2046      2476      2477
 -1       978    8    0    1
 -2       423       570       569      2477      2478      2473
 -1       979    8    0    1
 -2       424       425       571      2049      2479      2480
 -1       980    8    0    1
 -2       424       571       570      2480      2481      2476
 -1       981    8    0    1
 -2       425       426       429      2052      2061      2482
 -1       982    8    0    1
 -2       430       431       572      2068      2483      2484
 -1       983    8    0    1
 -2       431       432       573      2071      2485      2486
 -1       984    8    0    1
 -2       431       573       572      2486      2487      2483
 -1       985    8    0    1
 -2       428       427       574      2058      2488      2489
 -1       986    8    0    1
 -2       427       430       575      2065      2490      2491
 -1       987    8    0    1
 -2       574       427       575      2488      2491      2492
 -1       988    8    0    1
 -2       430       572       575      2484      2493      2490
 -1       989    8    0    1
 -2       432       433       576      2074      2494      2495
 -1       990    8    0    1
 -2       432       576       573      2495      2496      2485
 -1       991    8    0    1
 -2       433       434       577      2077      2497      2498
 -1       992    8    0    1
 -2       433       577       576      2498      2499      2494
 -1       993    8    0    1
 -2       434       435       578      2080      2500      2501
 -1       994    8    0    1
 -2       434       578       577      2501      2502      2497
 -1       995    8    0    1
 -2       435       436       579      2083      2503      2504
 -1       996    8    0    1
 -2       435       579       578      2504      2505      2500
 -1       997    8    0    1
 -2       436       437       580      2086      2506      2507
 -1       998    8    0    1
 -2       436       580       579      2507      2508      2503
 -1       999    8    0    1
 -2       437       438       581      2089      2509      2510
 -1      1000    8    0    1
 -2       437       581       580      2510      2511      2506
 -1      1001    8    0    1
 -2       438       439       582      2092      2512      2513
 -1      1002    8    0    1
 -2       438       582       581      2513      2514      2509
 -1      1003    8    0    1
 -2       441       442       583      2168      2515      2516
 -1      1004    8    0    1
 -2       440       443       584      2170      2517      2518
 -1      1005    8    0    1
 -2       382       383       585      1923      2519      2520
 -1      1006    8    0    1
 -2       383       530       585      2358      2521      2519
 -1      1007    8    0    1
 -2       439       290       380      2169      1913      2522
 -1      1008    8    0    1
 -2       468       441       586      2171      2523      2524
 -1      1009    8    0    1
 -2       335       321       587      2164      2525      2526
 -1      1010    8    0    1
 -2       485       335       587      2224      2526      2527
 -1      1011    8    0    1
 -2       321       320       587      1735      2528      2525
 -1      1012    8    0    1
 -2       467       468       588      2172      2529      2530
 -1      1013    8    0    1
 -2       453       454       589      2183      2531      2532
 -1      1014    8    0    1
 -2       448       449       590      2185      2533      2534
 -1      1015    8    0    1
 -2       324       325       591      1746      2535      2536
 -1      1016    8    0    1
 -2       476       324       591      2199      2536      2537
 -1      1017    8    0    1
 -2       325       478       591      2205      2538      2535
 -1      1018    8    0    1
 -2       447       448       592      2113      2539      2540
 -1      1019    8    0    1
 -2       448       590       592      2534      2541      2539
 -1      1020    8    0    1
 -2       450       451       593      2120      2542      2543
 -1      1021    8    0    1
 -2       451       452       594      2184      2544      2545
 -1      1022    8    0    1
 -2       452       453       595      2125      2546      2547
 -1      1023    8    0    1
 -2       457       458       596      2195      2548      2549
 -1      1024    8    0    1
 -2       455       456       597      2132      2550      2551
 -1      1025    8    0    1
 -2       461       462       598      2196      2552      2553
 -1      1026    8    0    1
 -2       456       457       599      2182      2554      2555
 -1      1027    8    0    1
 -2       459       460       600      2141      2556      2557
 -1      1028    8    0    1
 -2       460       461       601      2178      2558      2559
 -1      1029    8    0    1
 -2       462       463       602      2177      2560      2561
 -1      1030    8    0    1
 -2       462       602       598      2561      2562      2552
 -1      1031    8    0    1
 -2       463       464       603      2176      2563      2564
 -1      1032    8    0    1
 -2       464       465       604      2175      2565      2566
 -1      1033    8    0    1
 -2       465       466       605      2174      2567      2568
 -1      1034    8    0    1
 -2       465       605       604      2568      2569      2565
 -1      1035    8    0    1
 -2       466       467       606      2173      2570      2571
 -1      1036    8    0    1
 -2       467       588       606      2530      2572      2570
 -1      1037    8    0    1
 -2       469       446       607      2163      2573      2574
 -1      1038    8    0    1
 -2       333       334       608      1775      2575      2576
 -1      1039    8    0    1
 -2       332       333       608      1770      2576      2577
 -1      1040    8    0    1
 -2       334       475       608      2198      2578      2575
 -1      1041    8    0    1
 -2       443       444       609      2160      2579      2580
 -1      1042    8    0    1
 -2       444       486       609      2227      2581      2579
 -1      1043    8    0    1
 -2       447       592       472      2540      2582      2188
 -1      1044    8    0    1
 -2       322       477       610      2202      2583      2584
 -1      1045    8    0    1
 -2       322       610       445      2584      2585      2106
 -1      1046    8    0    1
 -2       484       382       585      2221      2520      2586
 -1      1047    8    0    1
 -2       331       332       608      1767      2577      2587
 -1      1048    8    0    1
 -2       605       466       606      2567      2571      2588
 -1      1049    8    0    1
 -2       588       468       586      2529      2524      2589
 -1      1050    8    0    1
 -2       602       463       611      2560      2590      2591
 -1      1051    8    0    1
 -2       463       603       611      2564      2592      2590
 -1      1052    8    0    1
 -2       470       440       584      2167      2518      2593
 -1      1053    8    0    1
 -2       601       461       612      2558      2594      2595
 -1      1054    8    0    1
 -2       461       598       612      2553      2596      2594
 -1      1055    8    0    1
 -2       425       429       571      2482      2597      2479
 -1      1056    8    0    1
 -2       584       443       609      2517      2580      2598
 -1      1057    8    0    1
 -2       429       428       571      2062      2599      2597
 -1      1058    8    0    1
 -2       600       460       601      2556      2559      2600
 -1      1059    8    0    1
 -2       441       583       586      2516      2601      2523
 -1      1060    8    0    1
 -2       583       442       613      2515      2602      2603
 -1      1061    8    0    1
 -2       442       470       613      2166      2604      2602
 -1      1062    8    0    1
 -2       599       457       596      2554      2549      2605
 -1      1063    8    0    1
 -2       331       608       483      2587      2606      2218
 -1      1064    8    0    1
 -2       587       320       445      2528      2105      2607
 -1      1065    8    0    1
 -2       597       456       599      2550      2555      2608
 -1      1066    8    0    1
 -2       589       454       614      2531      2609      2610
 -1      1067    8    0    1
 -2       454       474       614      2193      2611      2609
 -1      1068    8    0    1
 -2       453       589       595      2532      2612      2546
 -1      1069    8    0    1
 -2       596       458       615      2548      2613      2614
 -1      1070    8    0    1
 -2       458       471       615      2180      2615      2613
 -1      1071    8    0    1
 -2       590       449       616      2533      2616      2617
 -1      1072    8    0    1
 -2       449       473       616      2190      2618      2616
 -1      1073    8    0    1
 -2       471       459       617      2181      2619      2620
 -1      1074    8    0    1
 -2       459       600       617      2557      2621      2619
 -1      1075    8    0    1
 -2       450       593       473      2543      2622      2191
 -1      1076    8    0    1
 -2       486       469       607      2226      2574      2623
 -1      1077    8    0    1
 -2       594       452       595      2544      2547      2624
 -1      1078    8    0    1
 -2       446       472       607      2187      2625      2573
 -1      1079    8    0    1
 -2       593       451       594      2542      2545      2626
 -1      1080    8    0    1
 -2       474       455       597      2194      2551      2627
 -1      1081    8    0    1
 -2       439       380       618      2522      2628      2629
 -1      1082    8    0    1
 -2       582       439       618      2512      2629      2630
 -1      1083    8    0    1
 -2       380       379       618      1914      2631      2628
 -1      1084    8    0    1
 -2       571       428       574      2599      2489      2632
 -1      1085    8    0    1
 -2       603       464       604      2563      2566      2633
 -1      1086    8    0    1
 -2       618       379       529      2631      2355      2634
 -1      1087    8    0    1
 -2       479       480       619      2211      2635      2636
 -1      1088    8    0    1
 -2       478       479       620      2208      2637      2638
 -1      1089    8    0    1
 -2       479       619       620      2636      2639      2637
 -1      1090    8    0    1
 -2       481       482       621      2217      2640      2641
 -1      1091    8    0    1
 -2       482       483       622      2220      2642      2643
 -1      1092    8    0    1
 -2       482       622       621      2643      2644      2640
 -1      1093    8    0    1
 -2       475       484       623      2223      2645      2646
 -1      1094    8    0    1
 -2       587       445       610      2607      2585      2647
 -1      1095    8    0    1
 -2       609       486       624      2581      2648      2649
 -1      1096    8    0    1
 -2       608       475       483      2578      2650      2606
 -1      1097    8    0    1
 -2       588       586       625      2589      2651      2652
 -1      1098    8    0    1
 -2       472       592       626      2582      2653      2654
 -1      1099    8    0    1
 -2       488       487       627      2233      2655      2656
 -1      1100    8    0    1
 -2       489       488       628      2236      2657      2658
 -1      1101    8    0    1
 -2       488       627       628      2656      2659      2657
 -1      1102    8    0    1
 -2       490       489       629      2239      2660      2661
 -1      1103    8    0    1
 -2       489       628       629      2658      2662      2660
 -1      1104    8    0    1
 -2       491       490       630      2242      2663      2664
 -1      1105    8    0    1
 -2       490       629       630      2661      2665      2663
 -1      1106    8    0    1
 -2       492       491       631      2245      2666      2667
 -1      1107    8    0    1
 -2       491       630       631      2664      2668      2666
 -1      1108    8    0    1
 -2       493       492       632      2248      2669      2670
 -1      1109    8    0    1
 -2       492       631       632      2667      2671      2669
 -1      1110    8    0    1
 -2       494       493       633      2251      2672      2673
 -1      1111    8    0    1
 -2       493       632       633      2670      2674      2672
 -1      1112    8    0    1
 -2       495       494       634      2254      2675      2676
 -1      1113    8    0    1
 -2       494       633       634      2673      2677      2675
 -1      1114    8    0    1
 -2       496       495       635      2257      2678      2679
 -1      1115    8    0    1
 -2       495       634       635      2676      2680      2678
 -1      1116    8    0    1
 -2       497       496       636      2260      2681      2682
 -1      1117    8    0    1
 -2       496       635       636      2679      2683      2681
 -1      1118    8    0    1
 -2       498       497       637      2263      2684      2685
 -1      1119    8    0    1
 -2       497       636       637      2682      2686      2684
 -1      1120    8    0    1
 -2       499       498       638      2266      2687      2688
 -1      1121    8    0    1
 -2       498       637       638      2685      2689      2687
 -1      1122    8    0    1
 -2       500       499       639      2269      2690      2691
 -1      1123    8    0    1
 -2       499       638       639      2688      2692      2690
 -1      1124    8    0    1
 -2       501       500       640      2272      2693      2694
 -1      1125    8    0    1
 -2       500       639       640      2691      2695      2693
 -1      1126    8    0    1
 -2       502       501       641      2275      2696      2697
 -1      1127    8    0    1
 -2       501       640       641      2694      2698      2696
 -1      1128    8    0    1
 -2       503       502       642      2278      2699      2700
 -1      1129    8    0    1
 -2       502       641       642      2697      2701      2699
 -1      1130    8    0    1
 -2       504       503       643      2281      2702      2703
 -1      1131    8    0    1
 -2       503       642       643      2700      2704      2702
 -1      1132    8    0    1
 -2       505       504       644      2284      2705      2706
 -1      1133    8    0    1
 -2       504       643       644      2703      2707      2705
 -1      1134    8    0    1
 -2       506       505       645      2287      2708      2709
 -1      1135    8    0    1
 -2       505       644       645      2706      2710      2708
 -1      1136    8    0    1
 -2       507       506       646      2290      2711      2712
 -1      1137    8    0    1
 -2       506       645       646      2709      2713      2711
 -1      1138    8    0    1
 -2       508       507       647      2293      2714      2715
 -1      1139    8    0    1
 -2       507       646       647      2712      2716      2714
 -1      1140    8    0    1
 -2       509       508       648      2296      2717      2718
 -1      1141    8    0    1
 -2       508       647       648      2715      2719      2717
 -1      1142    8    0    1
 -2       510       509       649      2299      2720      2721
 -1      1143    8    0    1
 -2       509       648       649      2718      2722      2720
 -1      1144    8    0    1
 -2       511       510       650      2302      2723      2724
 -1      1145    8    0    1
 -2       510       649       650      2721      2725      2723
 -1      1146    8    0    1
 -2       512       511       651      2305      2726      2727
 -1      1147    8    0    1
 -2       511       650       651      2724      2728      2726
 -1      1148    8    0    1
 -2       513       512       652      2308      2729      2730
 -1      1149    8    0    1
 -2       512       651       652      2727      2731      2729
 -1      1150    8    0    1
 -2       514       513       653      2311      2732      2733
 -1      1151    8    0    1
 -2       513       652       653      2730      2734      2732
 -1      1152    8    0    1
 -2       515       514       654      2314      2735      2736
 -1      1153    8    0    1
 -2       514       653       654      2733      2737      2735
 -1      1154    8    0    1
 -2       516       515       655      2317      2738      2739
 -1      1155    8    0    1
 -2       515       654       655      2736      2740      2738
 -1      1156    8    0    1
 -2       517       516       656      2320      2741      2742
 -1      1157    8    0    1
 -2       516       655       656      2739      2743      2741
 -1      1158    8    0    1
 -2       518       517       657      2323      2744      2745
 -1      1159    8    0    1
 -2       517       656       657      2742      2746      2744
 -1      1160    8    0    1
 -2       519       518       658      2326      2747      2748
 -1      1161    8    0    1
 -2       518       657       658      2745      2749      2747
 -1      1162    8    0    1
 -2       520       519       659      2329      2750      2751
 -1      1163    8    0    1
 -2       519       658       659      2748      2752      2750
 -1      1164    8    0    1
 -2       521       520       660      2332      2753      2754
 -1      1165    8    0    1
 -2       520       659       660      2751      2755      2753
 -1      1166    8    0    1
 -2       522       521       661      2335      2756      2757
 -1      1167    8    0    1
 -2       521       660       661      2754      2758      2756
 -1      1168    8    0    1
 -2       523       522       662      2338      2759      2760
 -1      1169    8    0    1
 -2       522       661       662      2757      2761      2759
 -1      1170    8    0    1
 -2       524       523       663      2341      2762      2763
 -1      1171    8    0    1
 -2       523       662       663      2760      2764      2762
 -1      1172    8    0    1
 -2       525       524       664      2344      2765      2766
 -1      1173    8    0    1
 -2       524       663       664      2763      2767      2765
 -1      1174    8    0    1
 -2       526       525       665      2347      2768      2769
 -1      1175    8    0    1
 -2       525       664       665      2766      2770      2768
 -1      1176    8    0    1
 -2       527       526       666      2350      2771      2772
 -1      1177    8    0    1
 -2       526       665       666      2769      2773      2771
 -1      1178    8    0    1
 -2       528       527       667      2353      2774      2775
 -1      1179    8    0    1
 -2       527       666       667      2772      2776      2774
 -1      1180    8    0    1
 -2       529       528       668      2356      2777      2778
 -1      1181    8    0    1
 -2       528       667       668      2775      2779      2777
 -1      1182    8    0    1
 -2       531       532       669      2364      2780      2781
 -1      1183    8    0    1
 -2       571       574       670      2632      2782      2783
 -1      1184    8    0    1
 -2       571       670       570      2783      2784      2481
 -1      1185    8    0    1
 -2       530       531       671      2361      2785      2786
 -1      1186    8    0    1
 -2       531       669       671      2781      2787      2785
 -1      1187    8    0    1
 -2       533       534       672      2370      2788      2789
 -1      1188    8    0    1
 -2       534       535       673      2373      2790      2791
 -1      1189    8    0    1
 -2       534       673       672      2791      2792      2788
 -1      1190    8    0    1
 -2       535       536       674      2376      2793      2794
 -1      1191    8    0    1
 -2       535       674       673      2794      2795      2790
 -1      1192    8    0    1
 -2       536       537       675      2379      2796      2797
 -1      1193    8    0    1
 -2       536       675       674      2797      2798      2793
 -1      1194    8    0    1
 -2       537       538       676      2382      2799      2800
 -1      1195    8    0    1
 -2       537       676       675      2800      2801      2796
 -1      1196    8    0    1
 -2       539       540       616      2388      2802      2803
 -1      1197    8    0    1
 -2       542       543       607      2397      2804      2805
 -1      1198    8    0    1
 -2       543       544       624      2400      2806      2807
 -1      1199    8    0    1
 -2       544       545       677      2403      2808      2809
 -1      1200    8    0    1
 -2       544       677       624      2809      2810      2806
 -1      1201    8    0    1
 -2       545       546       678      2406      2811      2812
 -1      1202    8    0    1
 -2       545       678       677      2812      2813      2808
 -1      1203    8    0    1
 -2       546       547       679      2409      2814      2815
 -1      1204    8    0    1
 -2       546       679       678      2815      2816      2811
 -1      1205    8    0    1
 -2       547       548       680      2412      2817      2818
 -1      1206    8    0    1
 -2       547       680       679      2818      2819      2814
 -1      1207    8    0    1
 -2       548       549       681      2415      2820      2821
 -1      1208    8    0    1
 -2       548       681       680      2821      2822      2817
 -1      1209    8    0    1
 -2       549       550       682      2418      2823      2824
 -1      1210    8    0    1
 -2       549       682       681      2824      2825      2820
 -1      1211    8    0    1
 -2       550       551       683      2421      2826      2827
 -1      1212    8    0    1
 -2       550       683       682      2827      2828      2823
 -1      1213    8    0    1
 -2       551       552       684      2424      2829      2830
 -1      1214    8    0    1
 -2       551       684       683      2830      2831      2826
 -1      1215    8    0    1
 -2       552       553       685      2427      2832      2833
 -1      1216    8    0    1
 -2       552       685       684      2833      2834      2829
 -1      1217    8    0    1
 -2       553       554       686      2430      2835      2836
 -1      1218    8    0    1
 -2       553       686       685      2836      2837      2832
 -1      1219    8    0    1
 -2       554       555       687      2433      2838      2839
 -1      1220    8    0    1
 -2       554       687       686      2839      2840      2835
 -1      1221    8    0    1
 -2       555       556       688      2436      2841      2842
 -1      1222    8    0    1
 -2       555       688       687      2842      2843      2838
 -1      1223    8    0    1
 -2       556       557       689      2439      2844      2845
 -1      1224    8    0    1
 -2       556       689       688      2845      2846      2841
 -1      1225    8    0    1
 -2       557       558       690      2442      2847      2848
 -1      1226    8    0    1
 -2       557       690       689      2848      2849      2844
 -1      1227    8    0    1
 -2       558       559       691      2445      2850      2851
 -1      1228    8    0    1
 -2       558       691       690      2851      2852      2847
 -1      1229    8    0    1
 -2       559       560       692      2448      2853      2854
 -1      1230    8    0    1
 -2       559       692       691      2854      2855      2850
 -1      1231    8    0    1
 -2       560       561       693      2451      2856      2857
 -1      1232    8    0    1
 -2       560       693       692      2857      2858      2853
 -1      1233    8    0    1
 -2       561       562       694      2454      2859      2860
 -1      1234    8    0    1
 -2       561       694       693      2860      2861      2856
 -1      1235    8    0    1
 -2       562       563       695      2457      2862      2863
 -1      1236    8    0    1
 -2       562       695       694      2863      2864      2859
 -1      1237    8    0    1
 -2       563       564       696      2460      2865      2866
 -1      1238    8    0    1
 -2       563       696       695      2866      2867      2862
 -1      1239    8    0    1
 -2       564       565       697      2463      2868      2869
 -1      1240    8    0    1
 -2       564       697       696      2869      2870      2865
 -1      1241    8    0    1
 -2       565       566       698      2466      2871      2872
 -1      1242    8    0    1
 -2       565       698       697      2872      2873      2868
 -1      1243    8    0    1
 -2       566       567       699      2469      2874      2875
 -1      1244    8    0    1
 -2       566       699       698      2875      2876      2871
 -1      1245    8    0    1
 -2       567       568       700      2472      2877      2878
 -1      1246    8    0    1
 -2       567       700       699      2878      2879      2874
 -1      1247    8    0    1
 -2       568       569       701      2475      2880      2881
 -1      1248    8    0    1
 -2       568       701       700      2881      2882      2877
 -1      1249    8    0    1
 -2       569       570       670      2478      2784      2883
 -1      1250    8    0    1
 -2       584       609       702      2598      2884      2885
 -1      1251    8    0    1
 -2       576       577       703      2499      2886      2887
 -1      1252    8    0    1
 -2       603       604       704      2633      2888      2889
 -1      1253    8    0    1
 -2       572       573       705      2487      2890      2891
 -1      1254    8    0    1
 -2       577       578       706      2502      2892      2893
 -1      1255    8    0    1
 -2       577       706       703      2893      2894      2886
 -1      1256    8    0    1
 -2       573       576       707      2496      2895      2896
 -1      1257    8    0    1
 -2       705       573       707      2890      2896      2897
 -1      1258    8    0    1
 -2       576       703       707      2887      2898      2895
 -1      1259    8    0    1
 -2       578       579       708      2505      2899      2900
 -1      1260    8    0    1
 -2       578       708       706      2900      2901      2892
 -1      1261    8    0    1
 -2       579       580       709      2508      2902      2903
 -1      1262    8    0    1
 -2       579       709       708      2903      2904      2899
 -1      1263    8    0    1
 -2       580       581       710      2511      2905      2906
 -1      1264    8    0    1
 -2       580       710       709      2906      2907      2902
 -1      1265    8    0    1
 -2       470       584       711      2593      2908      2909
 -1      1266    8    0    1
 -2       470       711       613      2909      2910      2604
 -1      1267    8    0    1
 -2       485       587       712      2527      2911      2912
 -1      1268    8    0    1
 -2       487       485       712      2230      2912      2913
 -1      1269    8    0    1
 -2       587       610       712      2647      2914      2911
 -1      1270    8    0    1
 -2       599       596       713      2605      2915      2916
 -1      1271    8    0    1
 -2       585       530       714      2521      2917      2918
 -1      1272    8    0    1
 -2       530       671       714      2786      2919      2917
 -1      1273    8    0    1
 -2       532       533       715      2367      2920      2921
 -1      1274    8    0    1
 -2       669       532       715      2780      2921      2922
 -1      1275    8    0    1
 -2       533       672       715      2789      2923      2920
 -1      1276    8    0    1
 -2       480       481       716      2214      2924      2925
 -1      1277    8    0    1
 -2       619       480       716      2635      2925      2926
 -1      1278    8    0    1
 -2       481       621       716      2641      2927      2924
 -1      1279    8    0    1
 -2       484       585       717      2586      2928      2929
 -1      1280    8    0    1
 -2       623       484       717      2645      2929      2930
 -1      1281    8    0    1
 -2       585       714       717      2918      2931      2928
 -1      1282    8    0    1
 -2       594       595       718      2624      2932      2933
 -1      1283    8    0    1
 -2       597       599       719      2608      2934      2935
 -1      1284    8    0    1
 -2       595       589       720      2612      2936      2937
 -1      1285    8    0    1
 -2       474       597       721      2627      2938      2939
 -1      1286    8    0    1
 -2       607       472       542      2625      2940      2805
 -1      1287    8    0    1
 -2       477       476       722      2203      2941      2942
 -1      1288    8    0    1
 -2       582       618       723      2630      2943      2944
 -1      1289    8    0    1
 -2       618       529       723      2634      2945      2943
 -1      1290    8    0    1
 -2       600       601       724      2600      2946      2947
 -1      1291    8    0    1
 -2       592       590       725      2541      2948      2949
 -1      1292    8    0    1
 -2       473       593       726      2622      2950      2951
 -1      1293    8    0    1
 -2       586       583       727      2601      2952      2953
 -1      1294    8    0    1
 -2       598       602       728      2562      2954      2955
 -1      1295    8    0    1
 -2       604       605       729      2569      2956      2957
 -1      1296    8    0    1
 -2       606       588       730      2572      2958      2959
 -1      1297    8    0    1
 -2       593       594       731      2626      2960      2961
 -1      1298    8    0    1
 -2       594       718       731      2933      2962      2960
 -1      1299    8    0    1
 -2       605       606       732      2588      2963      2964
 -1      1300    8    0    1
 -2       610       477       733      2583      2965      2966
 -1      1301    8    0    1
 -2       477       722       733      2942      2967      2965
 -1      1302    8    0    1
 -2       478       620       734      2638      2968      2969
 -1      1303    8    0    1
 -2       478       734       591      2969      2970      2538
 -1      1304    8    0    1
 -2       718       595       720      2932      2937      2971
 -1      1305    8    0    1
 -2       599       713       719      2916      2972      2934
 -1      1306    8    0    1
 -2       483       475       623      2650      2646      2973
 -1      1307    8    0    1
 -2       625       586       727      2651      2953      2974
 -1      1308    8    0    1
 -2       611       603       735      2592      2975      2976
 -1      1309    8    0    1
 -2       603       704       735      2889      2977      2975
 -1      1310    8    0    1
 -2       612       598       728      2596      2955      2978
 -1      1311    8    0    1
 -2       602       611       736      2591      2979      2980
 -1      1312    8    0    1
 -2       602       736       728      2980      2981      2954
 -1      1313    8    0    1
 -2       529       668       723      2778      2982      2945
 -1      1314    8    0    1
 -2       584       702       711      2885      2983      2908
 -1      1315    8    0    1
 -2       676       538       726      2799      2984      2985
 -1      1316    8    0    1
 -2       538       539       726      2385      2986      2984
 -1      1317    8    0    1
 -2       540       541       725      2391      2987      2988
 -1      1318    8    0    1
 -2       541       542       626      2394      2989      2990
 -1      1319    8    0    1
 -2       569       670       701      2883      2991      2880
 -1      1320    8    0    1
 -2       702       609       624      2884      2649      2992
 -1      1321    8    0    1
 -2       730       588       625      2958      2652      2993
 -1      1322    8    0    1
 -2       572       705       737      2891      2994      2995
 -1      1323    8    0    1
 -2       572       737       575      2995      2996      2493
 -1      1324    8    0    1
 -2       574       575       670      2492      2997      2782
 -1      1325    8    0    1
 -2       729       605       732      2956      2964      2998
 -1      1326    8    0    1
 -2       727       583       738      2952      2999      3000
 -1      1327    8    0    1
 -2       583       613       738      2603      3001      2999
 -1      1328    8    0    1
 -2       581       582       723      2514      2944      3002
 -1      1329    8    0    1
 -2       487       712       627      2913      3003      2655
 -1      1330    8    0    1
 -2       626       592       725      2653      2949      3004
 -1      1331    8    0    1
 -2       726       593       731      2950      2961      3005
 -1      1332    8    0    1
 -2       601       612       739      2595      3006      3007
 -1      1333    8    0    1
 -2       601       739       724      3007      3008      2946
 -1      1334    8    0    1
 -2       725       590       616      2948      2617      3009
 -1      1335    8    0    1
 -2       614       474       721      2611      2939      3010
 -1      1336    8    0    1
 -2       581       723       740      3002      3011      3012
 -1      1337    8    0    1
 -2       710       581       740      2905      3012      3013
 -1      1338    8    0    1
 -2       723       668       740      2982      3014      3011
 -1      1339    8    0    1
 -2       704       604       729      2888      2957      3015
 -1      1340    8    0    1
 -2       615       471       617      2615      2620      3016
 -1      1341    8    0    1
 -2       616       473       726      2618      2951      3017
 -1      1342    8    0    1
 -2       596       615       741      2614      3018      3019
 -1      1343    8    0    1
 -2       596       741       713      3019      3020      2915
 -1      1344    8    0    1
 -2       617       600       724      2621      2947      3021
 -1      1345    8    0    1
 -2       721       597       719      2938      2935      3022
 -1      1346    8    0    1
 -2       607       543       624      2804      2807      3023
 -1      1347    8    0    1
 -2       720       589       742      2936      3024      3025
 -1      1348    8    0    1
 -2       589       614       742      2610      3026      3024
 -1      1349    8    0    1
 -2       476       591       743      2537      3027      3028
 -1      1350    8    0    1
 -2       722       476       743      2941      3028      3029
 -1      1351    8    0    1
 -2       591       734       743      2970      3030      3027
 -1      1352    8    0    1
 -2       483       623       622      2973      3031      2642
 -1      1353    8    0    1
 -2       542       472       626      2940      2654      2989
 -1      1354    8    0    1
 -2       606       730       732      2959      3032      2963
 -1      1355    8    0    1
 -2       726       539       616      2986      2803      3017
 -1      1356    8    0    1
 -2       725       541       626      2987      2990      3004
 -1      1357    8    0    1
 -2       625       727       744      2974      3033      3034
 -1      1358    8    0    1
 -2       621       622       745      2644      3035      3036
 -1      1359    8    0    1
 -2       732       730       746      3032      3037      3038
 -1      1360    8    0    1
 -2       629       628       747      2662      3039      3040
 -1      1361    8    0    1
 -2       630       629       748      2665      3041      3042
 -1      1362    8    0    1
 -2       629       747       748      3040      3043      3041
 -1      1363    8    0    1
 -2       631       630       749      2668      3044      3045
 -1      1364    8    0    1
 -2       630       748       749      3042      3046      3044
 -1      1365    8    0    1
 -2       632       631       750      2671      3047      3048
 -1      1366    8    0    1
 -2       631       749       750      3045      3049      3047
 -1      1367    8    0    1
 -2       633       632       751      2674      3050      3051
 -1      1368    8    0    1
 -2       632       750       751      3048      3052      3050
 -1      1369    8    0    1
 -2       634       633       752      2677      3053      3054
 -1      1370    8    0    1
 -2       633       751       752      3051      3055      3053
 -1      1371    8    0    1
 -2       635       634       753      2680      3056      3057
 -1      1372    8    0    1
 -2       634       752       753      3054      3058      3056
 -1      1373    8    0    1
 -2       636       635       754      2683      3059      3060
 -1      1374    8    0    1
 -2       635       753       754      3057      3061      3059
 -1      1375    8    0    1
 -2       637       636       755      2686      3062      3063
 -1      1376    8    0    1
 -2       636       754       755      3060      3064      3062
 -1      1377    8    0    1
 -2       638       637       756      2689      3065      3066
 -1      1378    8    0    1
 -2       637       755       756      3063      3067      3065
 -1      1379    8    0    1
 -2       639       638       757      2692      3068      3069
 -1      1380    8    0    1
 -2       638       756       757      3066      3070      3068
 -1      1381    8    0    1
 -2       640       639       736      2695      3071      3072
 -1      1382    8    0    1
 -2       641       640       736      2698      3072      3073
 -1      1383    8    0    1
 -2       642       641       758      2701      3074      3075
 -1      1384    8    0    1
 -2       643       642       759      2704      3076      3077
 -1      1385    8    0    1
 -2       642       758       759      3075      3078      3076
 -1      1386    8    0    1
 -2       644       643       760      2707      3079      3080
 -1      1387    8    0    1
 -2       643       759       760      3077      3081      3079
 -1      1388    8    0    1
 -2       645       644       761      2710      3082      3083
 -1      1389    8    0    1
 -2       644       760       761      3080      3084      3082
 -1      1390    8    0    1
 -2       646       645       762      2713      3085      3086
 -1      1391    8    0    1
 -2       645       761       762      3083      3087      3085
 -1      1392    8    0    1
 -2       647       646       763      2716      3088      3089
 -1      1393    8    0    1
 -2       646       762       763      3086      3090      3088
 -1      1394    8    0    1
 -2       648       647       764      2719      3091      3092
 -1      1395    8    0    1
 -2       647       763       764      3089      3093      3091
 -1      1396    8    0    1
 -2       649       648       765      2722      3094      3095
 -1      1397    8    0    1
 -2       648       764       765      3092      3096      3094
 -1      1398    8    0    1
 -2       650       649       766      2725      3097      3098
 -1      1399    8    0    1
 -2       649       765       766      3095      3099      3097
 -1      1400    8    0    1
 -2       651       650       767      2728      3100      3101
 -1      1401    8    0    1
 -2       650       766       767      3098      3102      3100
 -1      1402    8    0    1
 -2       652       651       768      2731      3103      3104
 -1      1403    8    0    1
 -2       651       767       768      3101      3105      3103
 -1      1404    8    0    1
 -2       653       652       769      2734      3106      3107
 -1      1405    8    0    1
 -2       652       768       769      3104      3108      3106
 -1      1406    8    0    1
 -2       654       653       770      2737      3109      3110
 -1      1407    8    0    1
 -2       653       769       770      3107      3111      3109
 -1      1408    8    0    1
 -2       655       654       771      2740      3112      3113
 -1      1409    8    0    1
 -2       654       770       771      3110      3114      3112
 -1      1410    8    0    1
 -2       656       655       772      2743      3115      3116
 -1      1411    8    0    1
 -2       655       771       772      3113      3117      3115
 -1      1412    8    0    1
 -2       657       656       773      2746      3118      3119
 -1      1413    8    0    1
 -2       656       772       773      3116      3120      3118
 -1      1414    8    0    1
 -2       658       657       774      2749      3121      3122
 -1      1415    8    0    1
 -2       657       773       774      3119      3123      3121
 -1      1416    8    0    1
 -2       659       658       775      2752      3124      3125
 -1      1417    8    0    1
 -2       658       774       775      3122      3126      3124
 -1      1418    8    0    1
 -2       660       659       776      2755      3127      3128
 -1      1419    8    0    1
 -2       659       775       776      3125      3129      3127
 -1      1420    8    0    1
 -2       661       660       777      2758      3130      3131
 -1      1421    8    0    1
 -2       660       776       777      3128      3132      3130
 -1      1422    8    0    1
 -2       662       661       778      2761      3133      3134
 -1      1423    8    0    1
 -2       661       777       778      3131      3135      3133
 -1      1424    8    0    1
 -2       663       662       779      2764      3136      3137
 -1      1425    8    0    1
 -2       662       778       779      3134      3138      3136
 -1      1426    8    0    1
 -2       664       663       780      2767      3139      3140
 -1      1427    8    0    1
 -2       663       779       780      3137      3141      3139
 -1      1428    8    0    1
 -2       665       664       781      2770      3142      3143
 -1      1429    8    0    1
 -2       664       780       781      3140      3144      3142
 -1      1430    8    0    1
 -2       666       665       782      2773      3145      3146
 -1      1431    8    0    1
 -2       665       781       782      3143      3147      3145
 -1      1432    8    0    1
 -2       667       666       783      2776      3148      3149
 -1      1433    8    0    1
 -2       666       782       783      3146      3150      3148
 -1      1434    8    0    1
 -2       668       667       784      2779      3151      3152
 -1      1435    8    0    1
 -2       740       668       784      3014      3152      3153
 -1      1436    8    0    1
 -2       667       783       784      3149      3154      3151
 -1      1437    8    0    1
 -2       540       725       616      2988      3009      2802
 -1      1438    8    0    1
 -2       671       669       785      2787      3155      3156
 -1      1439    8    0    1
 -2       731       718       786      2962      3157      3158
 -1      1440    8    0    1
 -2       673       674       787      2795      3159      3160
 -1      1441    8    0    1
 -2       672       673       788      2792      3161      3162
 -1      1442    8    0    1
 -2       673       787       788      3160      3163      3161
 -1      1443    8    0    1
 -2       675       676       786      2801      3164      3165
 -1      1444    8    0    1
 -2       622       623       789      3031      3166      3167
 -1      1445    8    0    1
 -2       745       622       789      3035      3167      3168
 -1      1446    8    0    1
 -2       623       717       789      2930      3169      3166
 -1      1447    8    0    1
 -2       701       670       790      2991      3170      3171
 -1      1448    8    0    1
 -2       624       677       702      2810      3172      2992
 -1      1449    8    0    1
 -2       679       680       791      2819      3173      3174
 -1      1450    8    0    1
 -2       680       681       792      2822      3175      3176
 -1      1451    8    0    1
 -2       680       792       791      3176      3177      3173
 -1      1452    8    0    1
 -2       681       682       793      2825      3178      3179
 -1      1453    8    0    1
 -2       681       793       792      3179      3180      3175
 -1      1454    8    0    1
 -2       682       683       794      2828      3181      3182
 -1      1455    8    0    1
 -2       682       794       793      3182      3183      3178
 -1      1456    8    0    1
 -2       683       684       795      2831      3184      3185
 -1      1457    8    0    1
 -2       683       795       794      3185      3186      3181
 -1      1458    8    0    1
 -2       684       685       796      2834      3187      3188
 -1      1459    8    0    1
 -2       684       796       795      3188      3189      3184
 -1      1460    8    0    1
 -2       685       686       797      2837      3190      3191
 -1      1461    8    0    1
 -2       685       797       796      3191      3192      3187
 -1      1462    8    0    1
 -2       686       687       798      2840      3193      3194
 -1      1463    8    0    1
 -2       686       798       797      3194      3195      3190
 -1      1464    8    0    1
 -2       687       688       799      2843      3196      3197
 -1      1465    8    0    1
 -2       687       799       798      3197      3198      3193
 -1      1466    8    0    1
 -2       688       689       800      2846      3199      3200
 -1      1467    8    0    1
 -2       688       800       799      3200      3201      3196
 -1      1468    8    0    1
 -2       689       690       801      2849      3202      3203
 -1      1469    8    0    1
 -2       689       801       800      3203      3204      3199
 -1      1470    8    0    1
 -2       690       691       802      2852      3205      3206
 -1      1471    8    0    1
 -2       690       802       801      3206      3207      3202
 -1      1472    8    0    1
 -2       691       692       803      2855      3208      3209
 -1      1473    8    0    1
 -2       691       803       802      3209      3210      3205
 -1      1474    8    0    1
 -2       692       693       804      2858      3211      3212
 -1      1475    8    0    1
 -2       692       804       803      3212      3213      3208
 -1      1476    8    0    1
 -2       693       694       805      2861      3214      3215
 -1      1477    8    0    1
 -2       693       805       804      3215      3216      3211
 -1      1478    8    0    1
 -2       694       695       806      2864      3217      3218
 -1      1479    8    0    1
 -2       694       806       805      3218      3219      3214
 -1      1480    8    0    1
 -2       695       696       807      2867      3220      3221
 -1      1481    8    0    1
 -2       695       807       806      3221      3222      3217
 -1      1482    8    0    1
 -2       696       697       808      2870      3223      3224
 -1      1483    8    0    1
 -2       696       808       807      3224      3225      3220
 -1      1484    8    0    1
 -2       697       698       809      2873      3226      3227
 -1      1485    8    0    1
 -2       697       809       808      3227      3228      3223
 -1      1486    8    0    1
 -2       698       699       810      2876      3229      3230
 -1      1487    8    0    1
 -2       698       810       809      3230      3231      3226
 -1      1488    8    0    1
 -2       699       700       811      2879      3232      3233
 -1      1489    8    0    1
 -2       699       811       810      3233      3234      3229
 -1      1490    8    0    1
 -2       700       701       812      2882      3235      3236
 -1      1491    8    0    1
 -2       700       812       811      3236      3237      3232
 -1      1492    8    0    1
 -2       706       708       813      2901      3238      3239
 -1      1493    8    0    1
 -2       612       728       757      2978      3240      3241
 -1      1494    8    0    1
 -2       703       706       814      2894      3242      3243
 -1      1495    8    0    1
 -2       706       813       814      3239      3244      3242
 -1      1496    8    0    1
 -2       704       729       815      3015      3245      3246
 -1      1497    8    0    1
 -2       613       711       816      2910      3247      3248
 -1      1498    8    0    1
 -2       676       726       731      2985      3005      3249
 -1      1499    8    0    1
 -2       712       610       733      2914      2966      3250
 -1      1500    8    0    1
 -2       708       709       817      2904      3251      3252
 -1      1501    8    0    1
 -2       708       817       813      3252      3253      3238
 -1      1502    8    0    1
 -2       709       710       818      2907      3254      3255
 -1      1503    8    0    1
 -2       709       818       817      3255      3256      3251
 -1      1504    8    0    1
 -2       714       671       819      2919      3257      3258
 -1      1505    8    0    1
 -2       671       785       819      3156      3259      3257
 -1      1506    8    0    1
 -2       718       720       820      2971      3260      3261
 -1      1507    8    0    1
 -2       678       679       821      2816      3262      3263
 -1      1508    8    0    1
 -2       679       791       821      3174      3264      3262
 -1      1509    8    0    1
 -2       614       721       822      3010      3265      3266
 -1      1510    8    0    1
 -2       617       724       823      3021      3267      3268
 -1      1511    8    0    1
 -2       677       678       824      2813      3269      3270
 -1      1512    8    0    1
 -2       702       677       824      3172      3270      3271
 -1      1513    8    0    1
 -2       678       821       824      3263      3272      3269
 -1      1514    8    0    1
 -2       730       625       825      2993      3273      3274
 -1      1515    8    0    1
 -2       625       744       825      3034      3275      3273
 -1      1516    8    0    1
 -2       674       675       826      2798      3276      3277
 -1      1517    8    0    1
 -2       787       674       826      3159      3277      3278
 -1      1518    8    0    1
 -2       675       786       826      3165      3279      3276
 -1      1519    8    0    1
 -2       719       713       827      2972      3280      3281
 -1      1520    8    0    1
 -2       486       607       624      2623      3023      2648
 -1      1521    8    0    1
 -2       729       732       828      2998      3282      3283
 -1      1522    8    0    1
 -2       628       627       829      2659      3284      3285
 -1      1523    8    0    1
 -2       628       829       747      3285      3286      3039
 -1      1524    8    0    1
 -2       627       712       830      3003      3287      3288
 -1      1525    8    0    1
 -2       829       627       830      3284      3288      3289
 -1      1526    8    0    1
 -2       712       733       830      3250      3290      3287
 -1      1527    8    0    1
 -2       615       617       831      3016      3291      3292
 -1      1528    8    0    1
 -2       617       823       831      3268      3293      3291
 -1      1529    8    0    1
 -2       620       619       832      2639      3294      3295
 -1      1530    8    0    1
 -2       721       719       833      3022      3296      3297
 -1      1531    8    0    1
 -2       676       731       786      3249      3158      3164
 -1      1532    8    0    1
 -2       734       620       834      2968      3298      3299
 -1      1533    8    0    1
 -2       620       832       834      3295      3300      3298
 -1      1534    8    0    1
 -2       621       745       835      3036      3301      3302
 -1      1535    8    0    1
 -2       621       835       716      3302      3303      2927
 -1      1536    8    0    1
 -2       732       746       828      3038      3304      3282
 -1      1537    8    0    1
 -2       729       828       815      3283      3305      3245
 -1      1538    8    0    1
 -2       735       704       815      2977      3246      3306
 -1      1539    8    0    1
 -2       619       716       836      2926      3307      3308
 -1      1540    8    0    1
 -2       832       619       836      3294      3308      3309
 -1      1541    8    0    1
 -2       716       835       836      3303      3310      3307
 -1      1542    8    0    1
 -2       701       790       812      3171      3311      3235
 -1      1543    8    0    1
 -2       733       722       837      2967      3312      3313
 -1      1544    8    0    1
 -2       733       837       830      3313      3314      3290
 -1      1545    8    0    1
 -2       758       641       736      3074      3073      3315
 -1      1546    8    0    1
 -2       827       713       838      3280      3316      3317
 -1      1547    8    0    1
 -2       713       741       838      3020      3318      3316
 -1      1548    8    0    1
 -2       786       718       820      3157      3261      3319
 -1      1549    8    0    1
 -2       719       827       833      3281      3320      3296
 -1      1550    8    0    1
 -2       672       788       839      3162      3321      3322
 -1      1551    8    0    1
 -2       672       839       715      3322      3323      2923
 -1      1552    8    0    1
 -2       744       727       840      3033      3324      3325
 -1      1553    8    0    1
 -2       727       738       840      3000      3326      3324
 -1      1554    8    0    1
 -2       720       742       841      3025      3327      3328
 -1      1555    8    0    1
 -2       720       841       820      3328      3329      3260
 -1      1556    8    0    1
 -2       614       822       742      3266      3330      3026
 -1      1557    8    0    1
 -2       705       707       842      2897      3331      3332
 -1      1558    8    0    1
 -2       669       715       843      2922      3333      3334
 -1      1559    8    0    1
 -2       715       839       843      3323      3335      3333
 -1      1560    8    0    1
 -2       612       757       739      3241      3336      3006
 -1      1561    8    0    1
 -2       707       703       844      2898      3337      3338
 -1      1562    8    0    1
 -2       842       707       844      3331      3338      3339
 -1      1563    8    0    1
 -2       703       814       844      3243      3340      3337
 -1      1564    8    0    1
 -2       711       702       824      2983      3271      3341
 -1      1565    8    0    1
 -2       738       613       816      3001      3248      3342
 -1      1566    8    0    1
 -2       741       615       831      3018      3292      3343
 -1      1567    8    0    1
 -2       730       825       845      3274      3344      3345
 -1      1568    8    0    1
 -2       730       845       746      3345      3346      3037
 -1      1569    8    0    1
 -2       670       575       790      2997      3347      3170
 -1      1570    8    0    1
 -2       822       721       833      3265      3297      3348
 -1      1571    8    0    1
 -2       717       714       846      2931      3349      3350
 -1      1572    8    0    1
 -2       789       717       846      3169      3350      3351
 -1      1573    8    0    1
 -2       714       819       846      3258      3352      3349
 -1      1574    8    0    1
 -2       710       740       847      3013      3353      3354
 -1      1575    8    0    1
 -2       818       710       847      3254      3354      3355
 -1      1576    8    0    1
 -2       740       784       847      3153      3356      3353
 -1      1577    8    0    1
 -2       816       711       824      3247      3341      3357
 -1      1578    8    0    1
 -2       785       669       843      3155      3334      3358
 -1      1579    8    0    1
 -2       722       743       848      3029      3359      3360
 -1      1580    8    0    1
 -2       722       848       837      3360      3361      3312
 -1      1581    8    0    1
 -2       823       724       849      3267      3362      3363
 -1      1582    8    0    1
 -2       724       739       849      3008      3364      3362
 -1      1583    8    0    1
 -2       814       813       850      3244      3365      3366
 -1      1584    8    0    1
 -2       736       611       735      2979      2976      3367
 -1      1585    8    0    1
 -2       639       757       736      3069      3368      3071
 -1      1586    8    0    1
 -2       816       824       821      3357      3272      3369
 -1      1587    8    0    1
 -2       749       748       851      3046      3370      3371
 -1      1588    8    0    1
 -2       750       749       852      3049      3372      3373
 -1      1589    8    0    1
 -2       749       851       852      3371      3374      3372
 -1      1590    8    0    1
 -2       751       750       853      3052      3375      3376
 -1      1591    8    0    1
 -2       750       852       853      3373      3377      3375
 -1      1592    8    0    1
 -2       752       751       854      3055      3378      3379
 -1      1593    8    0    1
 -2       751       853       854      3376      3380      3378
 -1      1594    8    0    1
 -2       753       752       855      3058      3381      3382
 -1      1595    8    0    1
 -2       752       854       855      3379      3383      3381
 -1      1596    8    0    1
 -2       754       753       856      3061      3384      3385
 -1      1597    8    0    1
 -2       753       855       856      3382      3386      3384
 -1      1598    8    0    1
 -2       756       755       849      3067      3387      3388
 -1      1599    8    0    1
 -2       757       756       739      3070      3389      3336
 -1      1600    8    0    1
 -2       816       821       857      3369      3390      3391
 -1      1601    8    0    1
 -2       821       791       857      3264      3392      3390
 -1      1602    8    0    1
 -2       760       759       858      3081      3393      3394
 -1      1603    8    0    1
 -2       761       760       859      3084      3395      3396
 -1      1604    8    0    1
 -2       760       858       859      3394      3397      3395
 -1      1605    8    0    1
 -2       762       761       860      3087      3398      3399
 -1      1606    8    0    1
 -2       761       859       860      3396      3400      3398
 -1      1607    8    0    1
 -2       763       762       861      3090      3401      3402
 -1      1608    8    0    1
 -2       762       860       861      3399      3403      3401
 -1      1609    8    0    1
 -2       764       763       862      3093      3404      3405
 -1      1610    8    0    1
 -2       763       861       862      3402      3406      3404
 -1      1611    8    0    1
 -2       765       764       863      3096      3407      3408
 -1      1612    8    0    1
 -2       764       862       863      3405      3409      3407
 -1      1613    8    0    1
 -2       766       765       864      3099      3410      3411
 -1      1614    8    0    1
 -2       765       863       864      3408      3412      3410
 -1      1615    8    0    1
 -2       767       766       865      3102      3413      3414
 -1      1616    8    0    1
 -2       766       864       865      3411      3415      3413
 -1      1617    8    0    1
 -2       768       767       866      3105      3416      3417
 -1      1618    8    0    1
 -2       767       865       866      3414      3418      3416
 -1      1619    8    0    1
 -2       769       768       867      3108      3419      3420
 -1      1620    8    0    1
 -2       768       866       867      3417      3421      3419
 -1      1621    8    0    1
 -2       770       769       868      3111      3422      3423
 -1      1622    8    0    1
 -2       769       867       868      3420      3424      3422
 -1      1623    8    0    1
 -2       771       770       869      3114      3425      3426
 -1      1624    8    0    1
 -2       770       868       869      3423      3427      3425
 -1      1625    8    0    1
 -2       772       771       870      3117      3428      3429
 -1      1626    8    0    1
 -2       771       869       870      3426      3430      3428
 -1      1627    8    0    1
 -2       773       772       871      3120      3431      3432
 -1      1628    8    0    1
 -2       772       870       871      3429      3433      3431
 -1      1629    8    0    1
 -2       774       773       872      3123      3434      3435
 -1      1630    8    0    1
 -2       773       871       872      3432      3436      3434
 -1      1631    8    0    1
 -2       775       774       873      3126      3437      3438
 -1      1632    8    0    1
 -2       774       872       873      3435      3439      3437
 -1      1633    8    0    1
 -2       776       775       874      3129      3440      3441
 -1      1634    8    0    1
 -2       775       873       874      3438      3442      3440
 -1      1635    8    0    1
 -2       777       776       875      3132      3443      3444
 -1      1636    8    0    1
 -2       776       874       875      3441      3445      3443
 -1      1637    8    0    1
 -2       778       777       876      3135      3446      3447
 -1      1638    8    0    1
 -2       777       875       876      3444      3448      3446
 -1      1639    8    0    1
 -2       779       778       877      3138      3449      3450
 -1      1640    8    0    1
 -2       778       876       877      3447      3451      3449
 -1      1641    8    0    1
 -2       780       779       878      3141      3452      3453
 -1      1642    8    0    1
 -2       779       877       878      3450      3454      3452
 -1      1643    8    0    1
 -2       781       780       879      3144      3455      3456
 -1      1644    8    0    1
 -2       780       878       879      3453      3457      3455
 -1      1645    8    0    1
 -2       782       781       880      3147      3458      3459
 -1      1646    8    0    1
 -2       781       879       880      3456      3460      3458
 -1      1647    8    0    1
 -2       783       782       881      3150      3461      3462
 -1      1648    8    0    1
 -2       782       880       881      3459      3463      3461
 -1      1649    8    0    1
 -2       828       746       882      3304      3464      3465
 -1      1650    8    0    1
 -2       748       747       883      3043      3466      3467
 -1      1651    8    0    1
 -2       748       883       851      3467      3468      3370
 -1      1652    8    0    1
 -2       833       827       884      3320      3469      3470
 -1      1653    8    0    1
 -2       822       833       885      3348      3471      3472
 -1      1654    8    0    1
 -2       793       794       886      3183      3473      3474
 -1      1655    8    0    1
 -2       825       744       887      3275      3475      3476
 -1      1656    8    0    1
 -2       792       793       888      3180      3477      3478
 -1      1657    8    0    1
 -2       793       886       888      3474      3479      3477
 -1      1658    8    0    1
 -2       791       792       889      3177      3480      3481
 -1      1659    8    0    1
 -2       792       888       889      3478      3482      3480
 -1      1660    8    0    1
 -2       794       795       890      3186      3483      3484
 -1      1661    8    0    1
 -2       794       890       886      3484      3485      3473
 -1      1662    8    0    1
 -2       795       796       891      3189      3486      3487
 -1      1663    8    0    1
 -2       795       891       890      3487      3488      3483
 -1      1664    8    0    1
 -2       796       797       892      3192      3489      3490
 -1      1665    8    0    1
 -2       796       892       891      3490      3491      3486
 -1      1666    8    0    1
 -2       797       798       893      3195      3492      3493
 -1      1667    8    0    1
 -2       797       893       892      3493      3494      3489
 -1      1668    8    0    1
 -2       798       799       894      3198      3495      3496
 -1      1669    8    0    1
 -2       798       894       893      3496      3497      3492
 -1      1670    8    0    1
 -2       799       800       895      3201      3498      3499
 -1      1671    8    0    1
 -2       799       895       894      3499      3500      3495
 -1      1672    8    0    1
 -2       800       801       896      3204      3501      3502
 -1      1673    8    0    1
 -2       800       896       895      3502      3503      3498
 -1      1674    8    0    1
 -2       801       802       897      3207      3504      3505
 -1      1675    8    0    1
 -2       801       897       896      3505      3506      3501
 -1      1676    8    0    1
 -2       802       803       898      3210      3507      3508
 -1      1677    8    0    1
 -2       802       898       897      3508      3509      3504
 -1      1678    8    0    1
 -2       803       804       899      3213      3510      3511
 -1      1679    8    0    1
 -2       803       899       898      3511      3512      3507
 -1      1680    8    0    1
 -2       804       805       900      3216      3513      3514
 -1      1681    8    0    1
 -2       804       900       899      3514      3515      3510
 -1      1682    8    0    1
 -2       805       806       901      3219      3516      3517
 -1      1683    8    0    1
 -2       805       901       900      3517      3518      3513
 -1      1684    8    0    1
 -2       806       807       902      3222      3519      3520
 -1      1685    8    0    1
 -2       806       902       901      3520      3521      3516
 -1      1686    8    0    1
 -2       807       808       903      3225      3522      3523
 -1      1687    8    0    1
 -2       807       903       902      3523      3524      3519
 -1      1688    8    0    1
 -2       808       809       904      3228      3525      3526
 -1      1689    8    0    1
 -2       808       904       903      3526      3527      3522
 -1      1690    8    0    1
 -2       809       810       905      3231      3528      3529
 -1      1691    8    0    1
 -2       809       905       904      3529      3530      3525
 -1      1692    8    0    1
 -2       810       811       906      3234      3531      3532
 -1      1693    8    0    1
 -2       810       906       905      3532      3533      3528
 -1      1694    8    0    1
 -2       811       812       907      3237      3534      3535
 -1      1695    8    0    1
 -2       811       907       906      3535      3536      3531
 -1      1696    8    0    1
 -2       817       818       908      3256      3537      3538
 -1      1697    8    0    1
 -2       737       705       909      2994      3539      3540
 -1      1698    8    0    1
 -2       785       843       910      3358      3541      3542
 -1      1699    8    0    1
 -2       741       831       911      3343      3543      3544
 -1      1700    8    0    1
 -2       819       785       912      3259      3545      3546
 -1      1701    8    0    1
 -2       785       910       912      3542      3547      3545
 -1      1702    8    0    1
 -2       788       787       913      3163      3548      3549
 -1      1703    8    0    1
 -2       742       822       914      3330      3550      3551
 -1      1704    8    0    1
 -2       909       705       842      3539      3332      3552
 -1      1705    8    0    1
 -2       739       756       849      3389      3388      3364
 -1      1706    8    0    1
 -2       909       842       915      3552      3553      3554
 -1      1707    8    0    1
 -2       738       816       916      3342      3555      3556
 -1      1708    8    0    1
 -2       840       738       916      3326      3556      3557
 -1      1709    8    0    1
 -2       816       857       916      3391      3558      3555
 -1      1710    8    0    1
 -2       743       734       917      3030      3559      3560
 -1      1711    8    0    1
 -2       848       743       917      3359      3560      3561
 -1      1712    8    0    1
 -2       734       834       917      3299      3562      3559
 -1      1713    8    0    1
 -2       815       828       858      3305      3563      3564
 -1      1714    8    0    1
 -2       831       823       918      3293      3565      3566
 -1      1715    8    0    1
 -2       747       829       919      3286      3567      3568
 -1      1716    8    0    1
 -2       747       919       883      3568      3569      3466
 -1      1717    8    0    1
 -2       758       736       735      3315      3367      3570
 -1      1718    8    0    1
 -2       758       735       815      3570      3306      3571
 -1      1719    8    0    1
 -2       786       820       826      3319      3572      3279
 -1      1720    8    0    1
 -2       759       758       815      3078      3571      3573
 -1      1721    8    0    1
 -2       813       817       920      3253      3574      3575
 -1      1722    8    0    1
 -2       850       813       920      3365      3575      3576
 -1      1723    8    0    1
 -2       817       908       920      3538      3577      3574
 -1      1724    8    0    1
 -2       759       815       858      3573      3564      3393
 -1      1725    8    0    1
 -2       835       745       921      3301      3578      3579
 -1      1726    8    0    1
 -2       833       884       922      3470      3580      3581
 -1      1727    8    0    1
 -2       833       922       885      3581      3582      3471
 -1      1728    8    0    1
 -2       754       856       918      3385      3583      3584
 -1      1729    8    0    1
 -2       755       754       918      3064      3584      3585
 -1      1730    8    0    1
 -2       857       791       889      3392      3481      3586
 -1      1731    8    0    1
 -2       827       838       923      3317      3587      3588
 -1      1732    8    0    1
 -2       827       923       884      3588      3589      3469
 -1      1733    8    0    1
 -2       838       741       911      3318      3544      3590
 -1      1734    8    0    1
 -2       882       746       845      3464      3346      3591
 -1      1735    8    0    1
 -2       784       783       924      3154      3592      3593
 -1      1736    8    0    1
 -2       847       784       924      3356      3593      3594
 -1      1737    8    0    1
 -2       783       881       924      3462      3595      3592
 -1      1738    8    0    1
 -2       834       832       925      3300      3596      3597
 -1      1739    8    0    1
 -2       839       788       926      3321      3598      3599
 -1      1740    8    0    1
 -2       788       913       926      3549      3600      3598
 -1      1741    8    0    1
 -2       745       789       927      3168      3601      3602
 -1      1742    8    0    1
 -2       921       745       927      3578      3602      3603
 -1      1743    8    0    1
 -2       789       846       927      3351      3604      3601
 -1      1744    8    0    1
 -2       829       830       928      3289      3605      3606
 -1      1745    8    0    1
 -2       919       829       928      3567      3606      3607
 -1      1746    8    0    1
 -2       830       837       928      3314      3608      3605
 -1      1747    8    0    1
 -2       822       885       914      3472      3609      3550
 -1      1748    8    0    1
 -2       825       887       845      3476      3610      3344
 -1      1749    8    0    1
 -2       841       742       914      3327      3551      3611
 -1      1750    8    0    1
 -2       843       839       929      3335      3612      3613
 -1      1751    8    0    1
 -2       839       926       929      3599      3614      3612
 -1      1752    8    0    1
 -2       907       812       915      3534      3615      3616
 -1      1753    8    0    1
 -2       832       836       930      3309      3617      3618
 -1      1754    8    0    1
 -2       832       930       925      3618      3619      3596
 -1      1755    8    0    1
 -2       737       909       790      3540      3620      3621
 -1      1756    8    0    1
 -2       837       848       931      3361      3622      3623
 -1      1757    8    0    1
 -2       837       931       928      3623      3624      3608
 -1      1758    8    0    1
 -2       844       814       932      3340      3625      3626
 -1      1759    8    0    1
 -2       814       850       932      3366      3627      3625
 -1      1760    8    0    1
 -2       826       820       933      3572      3628      3629
 -1      1761    8    0    1
 -2       787       826       933      3278      3629      3630
 -1      1762    8    0    1
 -2       820       841       933      3329      3631      3628
 -1      1763    8    0    1
 -2       911       831       856      3543      3632      3633
 -1      1764    8    0    1
 -2       910       843       929      3541      3613      3634
 -1      1765    8    0    1
 -2       819       912       934      3546      3635      3636
 -1      1766    8    0    1
 -2       828       882       858      3465      3637      3563
 -1      1767    8    0    1
 -2       842       844       935      3339      3638      3639
 -1      1768    8    0    1
 -2       842       935       915      3639      3640      3553
 -1      1769    8    0    1
 -2       818       847       924      3355      3594      3641
 -1      1770    8    0    1
 -2       913       787       933      3548      3630      3642
 -1      1771    8    0    1
 -2       819       934       846      3636      3643      3352
 -1      1772    8    0    1
 -2       744       840       936      3325      3644      3645
 -1      1773    8    0    1
 -2       744       936       887      3645      3646      3475
 -1      1774    8    0    1
 -2       812       790       909      3311      3620      3647
 -1      1775    8    0    1
 -2       818       924       908      3641      3648      3537
 -1      1776    8    0    1
 -2       831       918       856      3566      3583      3632
 -1      1777    8    0    1
 -2       790       575       737      3347      2996      3621
 -1      1778    8    0    1
 -2       812       909       915      3647      3554      3615
 -1      1779    8    0    1
 -2       728       736       757      2981      3368      3240
 -1      1780    8    0    1
 -2       836       835       937      3310      3649      3650
 -1      1781    8    0    1
 -2       836       937       930      3650      3651      3617
 -1      1782    8    0    1
 -2       823       849       918      3363      3652      3565
 -1      1783    8    0    1
 -2       859       858       882      3397      3637      3653
 -1      1784    8    0    1
 -2       852       851       938      3374      3654      3655
 -1      1785    8    0    1
 -2       755       918       849      3585      3652      3387
 -1      1786    8    0    1
 -2       853       852       939      3377      3656      3657
 -1      1787    8    0    1
 -2       852       938       939      3655      3658      3656
 -1      1788    8    0    1
 -2       854       853       940      3380      3659      3660
 -1      1789    8    0    1
 -2       853       939       940      3657      3661      3659
 -1      1790    8    0    1
 -2       855       854       941      3383      3662      3663
 -1      1791    8    0    1
 -2       854       940       941      3660      3664      3662
 -1      1792    8    0    1
 -2       856       855       911      3386      3665      3633
 -1      1793    8    0    1
 -2       835       921       937      3579      3666      3649
 -1      1794    8    0    1
 -2       834       925       942      3597      3667      3668
 -1      1795    8    0    1
 -2       834       942       917      3668      3669      3562
 -1      1796    8    0    1
 -2       861       860       943      3403      3670      3671
 -1      1797    8    0    1
 -2       862       861       944      3406      3672      3673
 -1      1798    8    0    1
 -2       861       943       944      3671      3674      3672
 -1      1799    8    0    1
 -2       863       862       945      3409      3675      3676
 -1      1800    8    0    1
 -2       862       944       945      3673      3677      3675
 -1      1801    8    0    1
 -2       864       863       946      3412      3678      3679
 -1      1802    8    0    1
 -2       863       945       946      3676      3680      3678
 -1      1803    8    0    1
 -2       865       864       947      3415      3681      3682
 -1      1804    8    0    1
 -2       864       946       947      3679      3683      3681
 -1      1805    8    0    1
 -2       866       865       948      3418      3684      3685
 -1      1806    8    0    1
 -2       865       947       948      3682      3686      3684
 -1      1807    8    0    1
 -2       867       866       949      3421      3687      3688
 -1      1808    8    0    1
 -2       866       948       949      3685      3689      3687
 -1      1809    8    0    1
 -2       868       867       950      3424      3690      3691
 -1      1810    8    0    1
 -2       867       949       950      3688      3692      3690
 -1      1811    8    0    1
 -2       869       868       951      3427      3693      3694
 -1      1812    8    0    1
 -2       868       950       951      3691      3695      3693
 -1      1813    8    0    1
 -2       870       869       952      3430      3696      3697
 -1      1814    8    0    1
 -2       869       951       952      3694      3698      3696
 -1      1815    8    0    1
 -2       871       870       953      3433      3699      3700
 -1      1816    8    0    1
 -2       870       952       953      3697      3701      3699
 -1      1817    8    0    1
 -2       872       871       954      3436      3702      3703
 -1      1818    8    0    1
 -2       871       953       954      3700      3704      3702
 -1      1819    8    0    1
 -2       873       872       955      3439      3705      3706
 -1      1820    8    0    1
 -2       872       954       955      3703      3707      3705
 -1      1821    8    0    1
 -2       874       873       956      3442      3708      3709
 -1      1822    8    0    1
 -2       873       955       956      3706      3710      3708
 -1      1823    8    0    1
 -2       875       874       957      3445      3711      3712
 -1      1824    8    0    1
 -2       874       956       957      3709      3713      3711
 -1      1825    8    0    1
 -2       876       875       958      3448      3714      3715
 -1      1826    8    0    1
 -2       875       957       958      3712      3716      3714
 -1      1827    8    0    1
 -2       877       876       959      3451      3717      3718
 -1      1828    8    0    1
 -2       876       958       959      3715      3719      3717
 -1      1829    8    0    1
 -2       878       877       960      3454      3720      3721
 -1      1830    8    0    1
 -2       877       959       960      3718      3722      3720
 -1      1831    8    0    1
 -2       879       878       961      3457      3723      3724
 -1      1832    8    0    1
 -2       878       960       961      3721      3725      3723
 -1      1833    8    0    1
 -2       880       879       962      3460      3726      3727
 -1      1834    8    0    1
 -2       879       961       962      3724      3728      3726
 -1      1835    8    0    1
 -2       881       880       963      3463      3729      3730
 -1      1836    8    0    1
 -2       880       962       963      3727      3731      3729
 -1      1837    8    0    1
 -2       924       881       908      3595      3732      3648
 -1      1838    8    0    1
 -2       851       883       964      3468      3733      3734
 -1      1839    8    0    1
 -2       851       964       938      3734      3735      3654
 -1      1840    8    0    1
 -2       907       915       965      3616      3736      3737
 -1      1841    8    0    1
 -2       915       935       965      3640      3738      3736
 -1      1842    8    0    1
 -2       838       911       966      3590      3739      3740
 -1      1843    8    0    1
 -2       886       890       967      3485      3741      3742
 -1      1844    8    0    1
 -2       889       888       968      3482      3743      3744
 -1      1845    8    0    1
 -2       891       892       969      3491      3745      3746
 -1      1846    8    0    1
 -2       892       893       970      3494      3747      3748
 -1      1847    8    0    1
 -2       892       970       969      3748      3749      3745
 -1      1848    8    0    1
 -2       893       894       971      3497      3750      3751
 -1      1849    8    0    1
 -2       893       971       970      3751      3752      3747
 -1      1850    8    0    1
 -2       894       895       972      3500      3753      3754
 -1      1851    8    0    1
 -2       894       972       971      3754      3755      3750
 -1      1852    8    0    1
 -2       895       896       973      3503      3756      3757
 -1      1853    8    0    1
 -2       895       973       972      3757      3758      3753
 -1      1854    8    0    1
 -2       896       897       974      3506      3759      3760
 -1      1855    8    0    1
 -2       896       974       973      3760      3761      3756
 -1      1856    8    0    1
 -2       897       898       975      3509      3762      3763
 -1      1857    8    0    1
 -2       897       975       974      3763      3764      3759
 -1      1858    8    0    1
 -2       898       899       976      3512      3765      3766
 -1      1859    8    0    1
 -2       898       976       975      3766      3767      3762
 -1      1860    8    0    1
 -2       899       900       977      3515      3768      3769
 -1      1861    8    0    1
 -2       899       977       976      3769      3770      3765
 -1      1862    8    0    1
 -2       900       901       978      3518      3771      3772
 -1      1863    8    0    1
 -2       900       978       977      3772      3773      3768
 -1      1864    8    0    1
 -2       901       902       979      3521      3774      3775
 -1      1865    8    0    1
 -2       901       979       978      3775      3776      3771
 -1      1866    8    0    1
 -2       902       903       980      3524      3777      3778
 -1      1867    8    0    1
 -2       902       980       979      3778      3779      3774
 -1      1868    8    0    1
 -2       903       904       981      3527      3780      3781
 -1      1869    8    0    1
 -2       903       981       980      3781      3782      3777
 -1      1870    8    0    1
 -2       904       905       982      3530      3783      3784
 -1      1871    8    0    1
 -2       904       982       981      3784      3785      3780
 -1      1872    8    0    1
 -2       905       906       983      3533      3786      3787
 -1      1873    8    0    1
 -2       905       983       982      3787      3788      3783
 -1      1874    8    0    1
 -2       906       907       984      3536      3789      3790
 -1      1875    8    0    1
 -2       983       906       984      3786      3790      3791
 -1      1876    8    0    1
 -2       907       965       984      3737      3792      3789
 -1      1877    8    0    1
 -2       914       885       985      3609      3793      3794
 -1      1878    8    0    1
 -2       912       910       986      3547      3795      3796
 -1      1879    8    0    1
 -2       933       841       987      3631      3797      3798
 -1      1880    8    0    1
 -2       913       933       987      3642      3798      3799
 -1      1881    8    0    1
 -2       841       914       987      3611      3800      3797
 -1      1882    8    0    1
 -2       882       845       988      3591      3801      3802
 -1      1883    8    0    1
 -2       845       887       989      3610      3803      3804
 -1      1884    8    0    1
 -2       845       989       988      3804      3805      3801
 -1      1885    8    0    1
 -2       910       929       990      3634      3806      3807
 -1      1886    8    0    1
 -2       910       990       986      3807      3808      3795
 -1      1887    8    0    1
 -2       934       912       991      3635      3809      3810
 -1      1888    8    0    1
 -2       912       986       991      3796      3811      3809
 -1      1889    8    0    1
 -2       857       889       992      3586      3812      3813
 -1      1890    8    0    1
 -2       916       857       992      3558      3813      3814
 -1      1891    8    0    1
 -2       889       968       992      3744      3815      3812
 -1      1892    8    0    1
 -2       888       886       993      3479      3816      3817
 -1      1893    8    0    1
 -2       888       993       968      3817      3818      3743
 -1      1894    8    0    1
 -2       859       882       988      3653      3802      3819
 -1      1895    8    0    1
 -2       883       919       994      3569      3820      3821
 -1      1896    8    0    1
 -2       883       994       964      3821      3822      3733
 -1      1897    8    0    1
 -2       890       891       995      3488      3823      3824
 -1      1898    8    0    1
 -2       891       969       995      3746      3825      3823
 -1      1899    8    0    1
 -2       919       928       996      3607      3826      3827
 -1      1900    8    0    1
 -2       994       919       996      3820      3827      3828
 -1      1901    8    0    1
 -2       928       931       996      3624      3829      3826
 -1      1902    8    0    1
 -2       908       881       963      3732      3730      3830
 -1      1903    8    0    1
 -2       885       922       997      3582      3831      3832
 -1      1904    8    0    1
 -2       885       997       985      3832      3833      3793
 -1      1905    8    0    1
 -2       850       920       998      3576      3834      3835
 -1      1906    8    0    1
 -2       987       914       985      3800      3794      3836
 -1      1907    8    0    1
 -2       859       988       860      3819      3837      3400
 -1      1908    8    0    1
 -2       993       886       967      3816      3742      3838
 -1      1909    8    0    1
 -2       923       838       966      3587      3740      3839
 -1      1910    8    0    1
 -2       942       925       999      3667      3840      3841
 -1      1911    8    0    1
 -2       943       860       988      3670      3837      3842
 -1      1912    8    0    1
 -2       967       890       995      3741      3824      3843
 -1      1913    8    0    1
 -2       926       913      1000      3600      3844      3845
 -1      1914    8    0    1
 -2       913       987      1000      3799      3846      3844
 -1      1915    8    0    1
 -2       844       932       935      3626      3847      3638
 -1      1916    8    0    1
 -2       884       923      1001      3589      3848      3849
 -1      1917    8    0    1
 -2       929       926      1002      3614      3850      3851
 -1      1918    8    0    1
 -2       929      1002       990      3851      3852      3806
 -1      1919    8    0    1
 -2       850       998      1003      3835      3853      3854
 -1      1920    8    0    1
 -2       850      1003       932      3854      3855      3627
 -1      1921    8    0    1
 -2       925       930      1004      3619      3856      3857
 -1      1922    8    0    1
 -2       925      1004       999      3857      3858      3840
 -1      1923    8    0    1
 -2       908       963       920      3830      3859      3577
 -1      1924    8    0    1
 -2       989       887      1005      3803      3860      3861
 -1      1925    8    0    1
 -2       911       855       966      3665      3862      3739
 -1      1926    8    0    1
 -2       884      1001       922      3849      3863      3580
 -1      1927    8    0    1
 -2       840       916      1006      3557      3864      3865
 -1      1928    8    0    1
 -2       936       840      1006      3644      3865      3866
 -1      1929    8    0    1
 -2       916       992      1006      3814      3867      3864
 -1      1930    8    0    1
 -2       887       936      1005      3646      3868      3860
 -1      1931    8    0    1
 -2       848       917      1007      3561      3869      3870
 -1      1932    8    0    1
 -2       931       848      1007      3622      3870      3871
 -1      1933    8    0    1
 -2       917       942      1007      3669      3872      3869
 -1      1934    8    0    1
 -2       998       920       963      3834      3859      3873
 -1      1935    8    0    1
 -2       987       985      1000      3836      3874      3846
 -1      1936    8    0    1
 -2       967       995      1008      3843      3875      3876
 -1      1937    8    0    1
 -2       971       972      1009      3755      3877      3878
 -1      1938    8    0    1
 -2       970       971      1010      3752      3879      3880
 -1      1939    8    0    1
 -2       971      1009      1010      3878      3881      3879
 -1      1940    8    0    1
 -2       940       939      1011      3661      3882      3883
 -1      1941    8    0    1
 -2       941       940      1001      3664      3884      3885
 -1      1942    8    0    1
 -2       944       943      1012      3674      3886      3887
 -1      1943    8    0    1
 -2       855       941       966      3663      3888      3862
 -1      1944    8    0    1
 -2       943       988       989      3842      3805      3889
 -1      1945    8    0    1
 -2       993       967      1013      3838      3890      3891
 -1      1946    8    0    1
 -2       967      1008      1013      3876      3892      3890
 -1      1947    8    0    1
 -2       945       944      1014      3677      3893      3894
 -1      1948    8    0    1
 -2       944      1012      1014      3887      3895      3893
 -1      1949    8    0    1
 -2       946       945      1015      3680      3896      3897
 -1      1950    8    0    1
 -2       945      1014      1015      3894      3898      3896
 -1      1951    8    0    1
 -2       947       946      1016      3683      3899      3900
 -1      1952    8    0    1
 -2       946      1015      1016      3897      3901      3899
 -1      1953    8    0    1
 -2       948       947      1017      3686      3902      3903
 -1      1954    8    0    1
 -2       947      1016      1017      3900      3904      3902
 -1      1955    8    0    1
 -2       949       948      1018      3689      3905      3906
 -1      1956    8    0    1
 -2       948      1017      1018      3903      3907      3905
 -1      1957    8    0    1
 -2       950       949      1019      3692      3908      3909
 -1      1958    8    0    1
 -2       949      1018      1019      3906      3910      3908
 -1      1959    8    0    1
 -2       951       950      1020      3695      3911      3912
 -1      1960    8    0    1
 -2       950      1019      1020      3909      3913      3911
 -1      1961    8    0    1
 -2       952       951      1021      3698      3914      3915
 -1      1962    8    0    1
 -2       951      1020      1021      3912      3916      3914
 -1      1963    8    0    1
 -2       953       952      1022      3701      3917      3918
 -1      1964    8    0    1
 -2       952      1021      1022      3915      3919      3917
 -1      1965    8    0    1
 -2       954       953      1023      3704      3920      3921
 -1      1966    8    0    1
 -2       953      1022      1023      3918      3922      3920
 -1      1967    8    0    1
 -2       955       954      1024      3707      3923      3924
 -1      1968    8    0    1
 -2       954      1023      1024      3921      3925      3923
 -1      1969    8    0    1
 -2       956       955      1025      3710      3926      3927
 -1      1970    8    0    1
 -2       955      1024      1025      3924      3928      3926
 -1      1971    8    0    1
 -2       957       956      1026      3713      3929      3930
 -1      1972    8    0    1
 -2       956      1025      1026      3927      3931      3929
 -1      1973    8    0    1
 -2       958       957      1027      3716      3932      3933
 -1      1974    8    0    1
 -2       957      1026      1027      3930      3934      3932
 -1      1975    8    0    1
 -2       959       958      1028      3719      3935      3936
 -1      1976    8    0    1
 -2       958      1027      1028      3933      3937      3935
 -1      1977    8    0    1
 -2       960       959      1029      3722      3938      3939
 -1      1978    8    0    1
 -2       959      1028      1029      3936      3940      3938
 -1      1979    8    0    1
 -2       961       960      1030      3725      3941      3942
 -1      1980    8    0    1
 -2       960      1029      1030      3939      3943      3941
 -1      1981    8    0    1
 -2       962       961      1031      3728      3944      3945
 -1      1982    8    0    1
 -2       961      1030      1031      3942      3946      3944
 -1      1983    8    0    1
 -2       963       962      1032      3731      3947      3948
 -1      1984    8    0    1
 -2       998       963      1032      3873      3948      3949
 -1      1985    8    0    1
 -2       962      1031      1032      3945      3950      3947
 -1      1986    8    0    1
 -2       965       935      1033      3738      3951      3952
 -1      1987    8    0    1
 -2       984       965      1033      3792      3952      3953
 -1      1988    8    0    1
 -2       935       932      1033      3847      3954      3951
 -1      1989    8    0    1
 -2       922      1001      1034      3863      3955      3956
 -1      1990    8    0    1
 -2       939       938      1035      3658      3957      3958
 -1      1991    8    0    1
 -2       939      1035      1011      3958      3959      3882
 -1      1992    8    0    1
 -2       968       993      1036      3818      3960      3961
 -1      1993    8    0    1
 -2       993      1013      1036      3891      3962      3960
 -1      1994    8    0    1
 -2       969       970      1037      3749      3963      3964
 -1      1995    8    0    1
 -2       970      1010      1037      3880      3965      3963
 -1      1996    8    0    1
 -2       972       973      1038      3758      3966      3967
 -1      1997    8    0    1
 -2       972      1038      1009      3967      3968      3877
 -1      1998    8    0    1
 -2       973       974      1039      3761      3969      3970
 -1      1999    8    0    1
 -2       973      1039      1038      3970      3971      3966
 -1      2000    8    0    1
 -2       974       975      1040      3764      3972      3973
 -1      2001    8    0    1
 -2       974      1040      1039      3973      3974      3969
 -1      2002    8    0    1
 -2       975       976      1041      3767      3975      3976
 -1      2003    8    0    1
 -2       975      1041      1040      3976      3977      3972
 -1      2004    8    0    1
 -2       976       977      1042      3770      3978      3979
 -1      2005    8    0    1
 -2       976      1042      1041      3979      3980      3975
 -1      2006    8    0    1
 -2       977       978      1043      3773      3981      3982
 -1      2007    8    0    1
 -2       977      1043      1042      3982      3983      3978
 -1      2008    8    0    1
 -2       978       979      1044      3776      3984      3985
 -1      2009    8    0    1
 -2       978      1044      1043      3985      3986      3981
 -1      2010    8    0    1
 -2       979       980      1045      3779      3987      3988
 -1      2011    8    0    1
 -2       979      1045      1044      3988      3989      3984
 -1      2012    8    0    1
 -2       980       981      1046      3782      3990      3991
 -1      2013    8    0    1
 -2       980      1046      1045      3991      3992      3987
 -1      2014    8    0    1
 -2       981       982      1047      3785      3993      3994
 -1      2015    8    0    1
 -2       981      1047      1046      3994      3995      3990
 -1      2016    8    0    1
 -2       982       983      1048      3788      3996      3997
 -1      2017    8    0    1
 -2       982      1048      1047      3997      3998      3993
 -1      2018    8    0    1
 -2       934       991       937      3810      3999      4000
 -1      2019    8    0    1
 -2       938       964      1049      3735      4001      4002
 -1      2020    8    0    1
 -2       938      1049      1035      4002      4003      3957
 -1      2021    8    0    1
 -2      1005       936      1050      3868      4004      4005
 -1      2022    8    0    1
 -2       936      1006      1050      3866      4006      4004
 -1      2023    8    0    1
 -2       921       927       934      3603      4007      4008
 -1      2024    8    0    1
 -2       943       989      1012      3889      4009      3886
 -1      2025    8    0    1
 -2       991       986      1051      3811      4010      4011
 -1      2026    8    0    1
 -2       937       921       934      3666      4008      4000
 -1      2027    8    0    1
 -2       964       994      1052      3822      4012      4013
 -1      2028    8    0    1
 -2       964      1052      1049      4013      4014      4001
 -1      2029    8    0    1
 -2       995       969      1053      3825      4015      4016
 -1      2030    8    0    1
 -2       969      1037      1053      3964      4017      4015
 -1      2031    8    0    1
 -2      1001       940      1011      3884      3883      4018
 -1      2032    8    0    1
 -2       942       999      1054      3841      4019      4020
 -1      2033    8    0    1
 -2       942      1054      1007      4020      4021      3872
 -1      2034    8    0    1
 -2       986       990      1055      3808      4022      4023
 -1      2035    8    0    1
 -2       986      1055      1051      4023      4024      4010
 -1      2036    8    0    1
 -2       846       934       927      3643      4007      3604
 -1      2037    8    0    1
 -2       989      1005      1056      3861      4025      4026
 -1      2038    8    0    1
 -2       989      1056      1012      4026      4027      4009
 -1      2039    8    0    1
 -2      1008       995      1053      3875      4016      4028
 -1      2040    8    0    1
 -2       968      1036      1050      3961      4029      4030
 -1      2041    8    0    1
 -2       941      1001       923      3885      3848      4031
 -1      2042    8    0    1
 -2       997       922      1034      3831      3956      4032
 -1      2043    8    0    1
 -2       998      1032      1057      3949      4033      4034
 -1      2044    8    0    1
 -2       998      1057      1003      4034      4035      3853
 -1      2045    8    0    1
 -2       926      1000      1002      3845      4036      3850
 -1      2046    8    0    1
 -2      1005      1050      1058      4005      4037      4038
 -1      2047    8    0    1
 -2      1005      1058      1056      4038      4039      4025
 -1      2048    8    0    1
 -2       990      1002      1059      3852      4040      4041
 -1      2049    8    0    1
 -2       990      1059      1055      4041      4042      4022
 -1      2050    8    0    1
 -2      1048       983      1060      3996      4043      4044
 -1      2051    8    0    1
 -2       983       984      1060      3791      4045      4043
 -1      2052    8    0    1
 -2       937       991      1061      3999      4046      4047
 -1      2053    8    0    1
 -2      1004       930      1061      3856      4048      4049
 -1      2054    8    0    1
 -2      1034      1001      1011      3955      4018      4050
 -1      2055    8    0    1
 -2       931      1007      1062      3871      4051      4052
 -1      2056    8    0    1
 -2       996       931      1062      3829      4052      4053
 -1      2057    8    0    1
 -2      1007      1054      1062      4021      4054      4051
 -1      2058    8    0    1
 -2       999      1004      1063      3858      4055      4056
 -1      2059    8    0    1
 -2       932      1003      1033      3855      4057      3954
 -1      2060    8    0    1
 -2       991      1051      1061      4011      4058      4046
 -1      2061    8    0    1
 -2      1054       999      1064      4019      4059      4060
 -1      2062    8    0    1
 -2       999      1063      1064      4056      4061      4059
 -1      2063    8    0    1
 -2       930       937      1061      3651      4047      4048
 -1      2064    8    0    1
 -2      1038      1039      1065      3971      4062      4063
 -1      2065    8    0    1
 -2      1050      1036      1058      4029      4064      4037
 -1      2066    8    0    1
 -2      1009      1038      1066      3968      4065      4066
 -1      2067    8    0    1
 -2      1038      1065      1066      4063      4067      4065
 -1      2068    8    0    1
 -2       984      1033      1060      3953      4068      4045
 -1      2069    8    0    1
 -2      1000       985      1067      3874      4069      4070
 -1      2070    8    0    1
 -2      1013      1008      1068      3892      4071      4072
 -1      2071    8    0    1
 -2      1014      1012      1056      3895      4027      4073
 -1      2072    8    0    1
 -2      1015      1014      1069      3898      4074      4075
 -1      2073    8    0    1
 -2      1014      1056      1069      4073      4076      4074
 -1      2074    8    0    1
 -2      1016      1015      1070      3901      4077      4078
 -1      2075    8    0    1
 -2      1015      1069      1070      4075      4079      4077
 -1      2076    8    0    1
 -2      1017      1016      1071      3904      4080      4081
 -1      2077    8    0    1
 -2      1016      1070      1071      4078      4082      4080
 -1      2078    8    0    1
 -2      1018      1017      1072      3907      4083      4084
 -1      2079    8    0    1
 -2      1017      1071      1072      4081      4085      4083
 -1      2080    8    0    1
 -2      1019      1018      1073      3910      4086      4087
 -1      2081    8    0    1
 -2      1018      1072      1073      4084      4088      4086
 -1      2082    8    0    1
 -2      1020      1019      1074      3913      4089      4090
 -1      2083    8    0    1
 -2      1019      1073      1074      4087      4091      4089
 -1      2084    8    0    1
 -2      1021      1020      1075      3916      4092      4093
 -1      2085    8    0    1
 -2      1020      1074      1075      4090      4094      4092
 -1      2086    8    0    1
 -2      1022      1021      1076      3919      4095      4096
 -1      2087    8    0    1
 -2      1021      1075      1076      4093      4097      4095
 -1      2088    8    0    1
 -2      1023      1022      1077      3922      4098      4099
 -1      2089    8    0    1
 -2      1022      1076      1077      4096      4100      4098
 -1      2090    8    0    1
 -2      1024      1023      1078      3925      4101      4102
 -1      2091    8    0    1
 -2      1023      1077      1078      4099      4103      4101
 -1      2092    8    0    1
 -2      1025      1024      1079      3928      4104      4105
 -1      2093    8    0    1
 -2      1024      1078      1079      4102      4106      4104
 -1      2094    8    0    1
 -2      1026      1025      1080      3931      4107      4108
 -1      2095    8    0    1
 -2      1025      1079      1080      4105      4109      4107
 -1      2096    8    0    1
 -2      1027      1026      1081      3934      4110      4111
 -1      2097    8    0    1
 -2      1026      1080      1081      4108      4112      4110
 -1      2098    8    0    1
 -2      1028      1027      1082      3937      4113      4114
 -1      2099    8    0    1
 -2      1027      1081      1082      4111      4115      4113
 -1      2100    8    0    1
 -2      1029      1028      1083      3940      4116      4117
 -1      2101    8    0    1
 -2      1028      1082      1083      4114      4118      4116
 -1      2102    8    0    1
 -2      1030      1029      1084      3943      4119      4120
 -1      2103    8    0    1
 -2      1029      1083      1084      4117      4121      4119
 -1      2104    8    0    1
 -2      1031      1030      1085      3946      4122      4123
 -1      2105    8    0    1
 -2      1030      1084      1085      4120      4124      4122
 -1      2106    8    0    1
 -2      1032      1031      1086      3950      4125      4126
 -1      2107    8    0    1
 -2      1057      1032      1086      4033      4126      4127
 -1      2108    8    0    1
 -2      1031      1085      1086      4123      4128      4125
 -1      2109    8    0    1
 -2       968      1050       992      4030      4129      3815
 -1      2110    8    0    1
 -2      1011      1035      1087      3959      4130      4131
 -1      2111    8    0    1
 -2      1011      1087      1034      4131      4132      4050
 -1      2112    8    0    1
 -2       985       997      1067      3833      4133      4069
 -1      2113    8    0    1
 -2       997      1034      1088      4032      4134      4135
 -1      2114    8    0    1
 -2      1067       997      1088      4133      4135      4136
 -1      2115    8    0    1
 -2      1034      1087      1088      4132      4137      4134
 -1      2116    8    0    1
 -2      1010      1009      1074      3881      4138      4139
 -1      2117    8    0    1
 -2      1000      1067      1002      4070      4140      4036
 -1      2118    8    0    1
 -2      1036      1013      1089      3962      4141      4142
 -1      2119    8    0    1
 -2      1058      1036      1089      4064      4142      4143
 -1      2120    8    0    1
 -2      1013      1068      1089      4072      4144      4141
 -1      2121    8    0    1
 -2      1037      1010      1073      3965      4145      4146
 -1      2122    8    0    1
 -2       994       996      1062      3828      4053      4147
 -1      2123    8    0    1
 -2      1039      1040      1077      3974      4148      4149
 -1      2124    8    0    1
 -2      1040      1041      1078      3977      4150      4151
 -1      2125    8    0    1
 -2      1041      1042      1079      3980      4152      4153
 -1      2126    8    0    1
 -2      1042      1043      1080      3983      4154      4155
 -1      2127    8    0    1
 -2      1043      1044      1081      3986      4156      4157
 -1      2128    8    0    1
 -2      1044      1045      1082      3989      4158      4159
 -1      2129    8    0    1
 -2      1045      1046      1083      3992      4160      4161
 -1      2130    8    0    1
 -2      1046      1047      1084      3995      4162      4163
 -1      2131    8    0    1
 -2      1047      1048      1085      3998      4164      4165
 -1      2132    8    0    1
 -2      1049      1052      1090      4014      4166      4167
 -1      2133    8    0    1
 -2      1004      1061      1051      4049      4058      4168
 -1      2134    8    0    1
 -2      1062      1054      1052      4054      4169      4170
 -1      2135    8    0    1
 -2      1035      1049      1091      4003      4171      4172
 -1      2136    8    0    1
 -2      1087      1035      1091      4130      4172      4173
 -1      2137    8    0    1
 -2      1049      1090      1091      4167      4174      4171
 -1      2138    8    0    1
 -2      1033      1003      1060      4057      4175      4068
 -1      2139    8    0    1
 -2      1008      1053      1071      4028      4176      4177
 -1      2140    8    0    1
 -2      1053      1037      1072      4017      4178      4179
 -1      2141    8    0    1
 -2      1052       994      1062      4012      4147      4170
 -1      2142    8    0    1
 -2      1063      1004      1051      4055      4168      4180
 -1      2143    8    0    1
 -2      1063      1051      1055      4180      4024      4181
 -1      2144    8    0    1
 -2      1002      1067      1059      4140      4182      4040
 -1      2145    8    0    1
 -2      1063      1055      1092      4181      4183      4184
 -1      2146    8    0    1
 -2      1073      1010      1074      4145      4139      4091
 -1      2147    8    0    1
 -2      1084      1047      1085      4162      4165      4124
 -1      2148    8    0    1
 -2       941       923       966      4031      3839      3888
 -1      2149    8    0    1
 -2      1067      1088      1059      4136      4185      4182
 -1      2150    8    0    1
 -2      1069      1056      1058      4076      4039      4186
 -1      2151    8    0    1
 -2      1081      1044      1082      4156      4159      4115
 -1      2152    8    0    1
 -2      1082      1045      1083      4158      4161      4118
 -1      2153    8    0    1
 -2      1072      1037      1073      4178      4146      4088
 -1      2154    8    0    1
 -2      1063      1092      1064      4184      4187      4061
 -1      2155    8    0    1
 -2      1080      1043      1081      4154      4157      4112
 -1      2156    8    0    1
 -2       992      1050      1006      4129      4006      3867
 -1      2157    8    0    1
 -2      1079      1042      1080      4152      4155      4109
 -1      2158    8    0    1
 -2      1092      1055      1059      4183      4042      4188
 -1      2159    8    0    1
 -2      1078      1041      1079      4150      4153      4106
 -1      2160    8    0    1
 -2      1077      1040      1078      4148      4151      4103
 -1      2161    8    0    1
 -2      1060      1003      1057      4175      4035      4189
 -1      2162    8    0    1
 -2      1052      1054      1064      4169      4060      4190
 -1      2163    8    0    1
 -2      1071      1053      1072      4176      4179      4085
 -1      2164    8    0    1
 -2      1083      1046      1084      4160      4163      4121
 -1      2165    8    0    1
 -2      1066      1065      1075      4067      4191      4192
 -1      2166    8    0    1
 -2      1068      1008      1071      4071      4177      4193
 -1      2167    8    0    1
 -2      1059      1088      1092      4185      4194      4188
 -1      2168    8    0    1
 -2      1070      1069      1089      4079      4195      4196
 -1      2169    8    0    1
 -2      1071      1070      1068      4082      4197      4193
 -1      2170    8    0    1
 -2      1075      1074      1066      4094      4198      4192
 -1      2171    8    0    1
 -2      1076      1075      1065      4097      4191      4199
 -1      2172    8    0    1
 -2      1077      1076      1065      4100      4199      4200
 -1      2173    8    0    1
 -2      1092      1088      1087      4194      4137      4201
 -1      2174    8    0    1
 -2      1009      1066      1074      4066      4198      4138
 -1      2175    8    0    1
 -2      1065      1039      1077      4062      4149      4200
 -1      2176    8    0    1
 -2      1052      1064      1090      4190      4202      4166
 -1      2177    8    0    1
 -2      1069      1058      1089      4186      4143      4195
 -1      2178    8    0    1
 -2      1048      1060      1093      4044      4203      4204
 -1      2179    8    0    1
 -2      1068      1070      1089      4197      4196      4144
 -1      2180    8    0    1
 -2      1092      1087      1091      4201      4173      4205
 -1      2181    8    0    1
 -2      1048      1093      1085      4204      4206      4164
 -1      2182    8    0    1
 -2      1064      1092      1091      4187      4205      4207
 -1      2183    8    0    1
 -2      1060      1057      1093      4189      4208      4203
 -1      2184    8    0    1
 -2      1093      1057      1086      4208      4127      4209
 -1      2185    8    0    1
 -2      1085      1093      1086      4206      4209      4128
 -1      2186    8    0    1
 -2      1090      1064      1091      4202      4207      4174
 -3
    1PSTEP                         1           1           1          
  100CL  101 1.000000000        4209                     0    1           1
 -4  DISP        4    1
 -5  D1          1    2    1    0
 -5  D2          1    2    2    0
 -5  D3          1    2    3    0
 -5  ALL         1    2    0    0    1ALL
 -1         1 6.76636E-03-2.77011E-04-2.33622E-14
 -1         2 7.58961E-03 3.66132E-04-2.48939E-14
 -1         3 1.56751E-02 2.53939E-03-1.40133E-13
 -1         4 1.47475E-02 1.10854E-03-1.48649E-13
 -1         5 0.00000E+00 0.00000E+00 0.00000E+00
 -1         6 0.00000E+00 0.00000E+00 0.00000E+00
 -1         7 0.00000E+00 0.00000E+00 0.00000E+00
 -1         8 0.00000E+00 0.00000E+00 0.00000E+00
 -1         9 0.00000E+00 0.00000E+00 0.00000E+00
 -1        10 0.00000E+00 0.00000E+00 0.00000E+00
 -1        11 0.00000E+00 0.00000E+00 0.00000E+00
 -1        12 0.00000E+00 0.00000E+00 0.00000E+00
 -1        13 0.00000E+00 0.00000E+00 0.00000E+00
 -1        14 0.00000E+00 0.00000E+00 0.00000E+00
 -1        15 0.00000E+00 0.00000E+00 0.00000E+00
 -1        16 0.00000E+00 0.00000E+00 0.00000E+00
 -1        17 0.00000E+00 0.00000E+00 0.00000E+00
 -1        18 0.00000E+00 0.00000E+00 0.00000E+00
 -1        19 0.00000E+00 0.00000E+00 0.00000E+00
 -1        20 0.00000E+00 0.00000E+00 0.00000E+00
 -1        21 0.00000E+00 0.00000E+00 0.00000E+00
 -1        22 0.00000E+00 0.00000E+00 0.00000E+00
 -1        23 4.10124E-04-2.51729E-04 2.58752E-17
 -1        24 7.06815E-04-3.81197E-04-1.18524E-16
 -1        25 9.86182E-04-4.68251E-04-4.26749E-16
 -1        26 1.26402E-03-5.28184E-04-8.94409E-16
 -1        27 1.54522E-03-5.70939E-04-1.51706E-15
 -1        28 1.83238E-03-6.02971E-04-2.29076E-15
 -1        29 2.12690E-03-6.29462E-04-3.21665E-15
 -1        30 2.42930E-03-6.54989E-04-4.29045E-15
 -1        31 2.73911E-03-6.83719E-04-5.51175E-15
 -1        32 3.05463E-03-7.19233E-04-6.88551E-15
 -1        33 3.37271E-03-7.63974E-04-8.40710E-15
 -1        34 3.68865E-03-8.18327E-04-1.00693E-14
 -1        35 3.99671E-03-8.79510E-04-1.18763E-14
 -1        36 4.29137E-03-9.40754E-04-1.38292E-14
 -1        37 4.56923E-03-9.91548E-04-1.59289E-14
 -1        38 4.83108E-03-1.01964E-03-1.81733E-14
 -1        39 5.08270E-03-1.01469E-03-2.05591E-14
 -1        40 5.33353E-03-9.72072E-04-2.30860E-14
 -1        41 5.59348E-03-8.94789E-04-2.57474E-14
 -1        42 5.86948E-03-7.92303E-04-2.85339E-14
 -1        43 6.16363E-03-6.76987E-04-3.14435E-14
 -1        44 6.47355E-03-5.60305E-04-3.44707E-14
 -1        45 6.79424E-03-4.50399E-04-3.76163E-14
 -1        46 7.12012E-03-3.51518E-04-4.08813E-14
 -1        47 7.44643E-03-2.64703E-04-4.42647E-14
 -1        48 7.76987E-03-1.88940E-04-4.77488E-14
 -1        49 8.08853E-03-1.22216E-04-5.13179E-14
 -1        50 8.40168E-03-6.22664E-05-5.49788E-14
 -1        51 8.70935E-03-6.99932E-06-5.87237E-14
 -1        52 9.01204E-03 4.53127E-05-6.25433E-14
 -1        53 9.31046E-03 9.59899E-05-6.64228E-14
 -1        54 9.60537E-03 1.45978E-04-7.03695E-14
 -1        55 9.89751E-03 1.95912E-04-7.43729E-14
 -1        56 1.01875E-02 2.46187E-04-7.84318E-14
 -1        57 1.04759E-02 2.97022E-04-8.25468E-14
 -1        58 1.07632E-02 3.48511E-04-8.67157E-14
 -1        59 1.10497E-02 4.00668E-04-9.09393E-14
 -1        60 1.13357E-02 4.53459E-04-9.52106E-14
 -1        61 1.16213E-02 5.06818E-04-9.95192E-14
 -1        62 1.19067E-02 5.60668E-04-1.03871E-13
 -1        63 1.21921E-02 6.14931E-04-1.08270E-13
 -1        64 1.24774E-02 6.69528E-04-1.12705E-13
 -1        65 1.27627E-02 7.24389E-04-1.17180E-13
 -1        66 1.30481E-02 7.79450E-04-1.21668E-13
 -1        67 1.33336E-02 8.34654E-04-1.26171E-13
 -1        68 1.36191E-02 8.89951E-04-1.30688E-13
 -1        69 1.39047E-02 9.45297E-04-1.35216E-13
 -1        70 1.41904E-02 1.00065E-03-1.39755E-13
 -1        71 1.44761E-02 1.05599E-03-1.44307E-13
 -1        72 4.11869E-04 2.51269E-04 8.45203E-17
 -1        73 7.06470E-04 3.81155E-04 4.44116E-17
 -1        74 9.87418E-04 4.65376E-04-1.21874E-16
 -1        75 1.26732E-03 5.22776E-04-4.19403E-16
 -1        76 1.55196E-03 5.62466E-04-8.53924E-16
 -1        77 1.84503E-03 5.90905E-04-1.42680E-15
 -1        78 2.14953E-03 6.13689E-04-2.13630E-15
 -1        79 2.46813E-03 6.36519E-04-2.97855E-15
 -1        80 2.80310E-03 6.65874E-04-3.95313E-15
 -1        81 3.15578E-03 7.09409E-04-5.06092E-15
 -1        82 3.52531E-03 7.75822E-04-6.30119E-15
 -1        83 3.90686E-03 8.73511E-04-7.67180E-15
 -1        84 4.28978E-03 1.00711E-03-9.17420E-15
 -1        85 4.65747E-03 1.17153E-03-1.08139E-14
 -1        86 4.99192E-03 1.34565E-03-1.25996E-14
 -1        87 5.28399E-03 1.49239E-03-1.45392E-14
 -1        88 5.54389E-03 1.57186E-03-1.66326E-14
 -1        89 5.80049E-03 1.56397E-03-1.88753E-14
 -1        90 6.08517E-03 1.48216E-03-2.12664E-14
 -1        91 6.41315E-03 1.36418E-03-2.37978E-14
 -1        92 6.77895E-03 1.24956E-03-2.64701E-14
 -1        93 7.16551E-03 1.16367E-03-2.92713E-14
 -1        94 7.55541E-03 1.11519E-03-3.21981E-14
 -1        95 7.93670E-03 1.10161E-03-3.52361E-14
 -1        96 8.30365E-03 1.11567E-03-3.83905E-14
 -1        97 8.65493E-03 1.14950E-03-4.16609E-14
 -1        98 8.99166E-03 1.19649E-03-4.50359E-14
 -1        99 9.31599E-03 1.25165E-03-4.85041E-14
 -1       100 9.63027E-03 1.31152E-03-5.20669E-14
 -1       101 9.93668E-03 1.37378E-03-5.57206E-14
 -1       102 1.02371E-02 1.43696E-03-5.94533E-14
 -1       103 1.05329E-02 1.50015E-03-6.32551E-14
 -1       104 1.08255E-02 1.56284E-03-6.71143E-14
 -1       105 1.11156E-02 1.62476E-03-7.10387E-14
 -1       106 1.14040E-02 1.68583E-03-7.50372E-14
 -1       107 1.16912E-02 1.74603E-03-7.91100E-14
 -1       108 1.19776E-02 1.80542E-03-8.32368E-14
 -1       109 1.22635E-02 1.86408E-03-8.74202E-14
 -1       110 1.25491E-02 1.92212E-03-9.16536E-14
 -1       111 1.28345E-02 1.97963E-03-9.59327E-14
 -1       112 1.31198E-02 2.03671E-03-1.00270E-13
 -1       113 1.34051E-02 2.09344E-03-1.04642E-13
 -1       114 1.36904E-02 2.14990E-03-1.09045E-13
 -1       115 1.39758E-02 2.20615E-03-1.13473E-13
 -1       116 1.42612E-02 2.26227E-03-1.17908E-13
 -1       117 1.45468E-02 2.31828E-03-1.22365E-13
 -1       118 1.48323E-02 2.37425E-03-1.26857E-13
 -1       119 1.51180E-02 2.43021E-03-1.31355E-13
 -1       120 1.54037E-02 2.48619E-03-1.35858E-13
 -1       121 1.56201E-02 2.45511E-03-1.40655E-13
 -1       122 1.55649E-02 2.37081E-03-1.41191E-13
 -1       123 1.55098E-02 2.28647E-03-1.41721E-13
 -1       124 1.54547E-02 2.20208E-03-1.42251E-13
 -1       125 1.53996E-02 2.11764E-03-1.42768E-13
 -1       126 1.53455E-02 2.03458E-03-1.43260E-13
 -1       127 1.52906E-02 1.95006E-03-1.43731E-13
 -1       128 1.52358E-02 1.86552E-03-1.44207E-13
 -1       129 1.51811E-02 1.78097E-03-1.44697E-13
 -1       130 1.51264E-02 1.69643E-03-1.45181E-13
 -1       131 1.50719E-02 1.61191E-03-1.45690E-13
 -1       132 1.50184E-02 1.52886E-03-1.46197E-13
 -1       133 1.49640E-02 1.44442E-03-1.46721E-13
 -1       134 1.49097E-02 1.36003E-03-1.47232E-13
 -1       135 1.48553E-02 1.27569E-03-1.47717E-13
 -1       136 1.48010E-02 1.19139E-03-1.48186E-13
 -1       137 7.56316E-03 5.40278E-04-2.46072E-14
 -1       138 7.42679E-03 7.18728E-04-2.40202E-14
 -1       139 7.20882E-03 8.71228E-04-2.32563E-14
 -1       140 6.90544E-03 1.00583E-03-2.23130E-14
 -1       141 6.50998E-03 1.11806E-03-2.11982E-14
 -1       142 6.07237E-03 1.18926E-03-2.00538E-14
 -1       143 5.54802E-03 1.21731E-03-1.87711E-14
 -1       144 5.08895E-03 1.19416E-03-1.77289E-14
 -1       145 4.61705E-03 1.12465E-03-1.67140E-14
 -1       146 4.14399E-03 1.00130E-03-1.57565E-14
 -1       147 3.79241E-03 8.66832E-04-1.50981E-14
 -1       148 3.48801E-03 6.99926E-04-1.45748E-14
 -1       149 3.28838E-03 5.32772E-04-1.42766E-14
 -1       150 3.17393E-03 3.59384E-04-1.41661E-14
 -1       151 3.15512E-03 1.68759E-04-1.42740E-14
 -1       152 3.23267E-03 6.85142E-06-1.45633E-14
 -1       153 3.42057E-03-1.58094E-04-1.50991E-14
 -1       154 3.68616E-03-2.94037E-04-1.57922E-14
 -1       155 4.08185E-03-4.18291E-04-1.67877E-14
 -1       156 4.48778E-03-4.91185E-04-1.77881E-14
 -1       157 4.94638E-03-5.28951E-04-1.89221E-14
 -1       158 5.44158E-03-5.24441E-04-2.01449E-14
 -1       159 5.91380E-03-4.78593E-04-2.13050E-14
 -1       160 6.38321E-03-3.88885E-04-2.24527E-14
 -1       161 7.10166E-03-1.34951E-04-2.41245E-14
 -1       162 7.34861E-03 1.90121E-05-2.46358E-14
 -1       163 7.51659E-03 1.88807E-04-2.49054E-14
 -1       164 2.44092E-04-1.16387E-04-3.88382E-17
 -1       165 2.28661E-04-8.39900E-05-5.79743E-17
 -1       166 2.21583E-04-6.14712E-05-6.72036E-17
 -1       167 2.17021E-04-4.41185E-05-7.13676E-17
 -1       168 2.13751E-04-3.02840E-05-7.26212E-17
 -1       169 2.11325E-04-1.84951E-05-7.24789E-17
 -1       170 2.09771E-04-8.26408E-06-7.12829E-17
 -1       171 2.09146E-04 1.09684E-06-6.95787E-17
 -1       172 2.09516E-04 1.02930E-05-6.72917E-17
 -1       173 2.10919E-04 2.00809E-05-6.39815E-17
 -1       174 2.13318E-04 3.10827E-05-5.94448E-17
 -1       175 2.16842E-04 4.46087E-05-5.26312E-17
 -1       176 2.21722E-04 6.16977E-05-4.22297E-17
 -1       177 2.29073E-04 8.43417E-05-2.57600E-17
 -1       178 2.43385E-04 1.17417E-04 1.16213E-18
 -1       179 3.00816E-04 1.75487E-04 3.09540E-17
 -1       180 4.74965E-04-2.47641E-04-1.04432E-16
 -1       181 7.80123E-04-3.54734E-04-3.56652E-16
 -1       182 1.07387E-03-4.27067E-04-7.60385E-16
 -1       183 1.36439E-03-4.77082E-04-1.31538E-15
 -1       184 1.65570E-03-5.12684E-04-2.01879E-15
 -1       185 1.95024E-03-5.39835E-04-2.87024E-15
 -1       186 2.24935E-03-5.63593E-04-3.86864E-15
 -1       187 2.55350E-03-5.88558E-04-5.01184E-15
 -1       188 2.86230E-03-6.18924E-04-6.30172E-15
 -1       189 3.17443E-03-6.58126E-04-7.73790E-15
 -1       190 3.48756E-03-7.08061E-04-9.31531E-15
 -1       191 3.79852E-03-7.67941E-04-1.10357E-14
 -1       192 4.10375E-03-8.33070E-04-1.29018E-14
 -1       193 4.40031E-03-8.94257E-04-1.49103E-14
 -1       194 4.68710E-03-9.38823E-04-1.70638E-14
 -1       195 4.96591E-03-9.53763E-04-1.93604E-14
 -1       196 5.24140E-03-9.30270E-04-2.17991E-14
 -1       197 5.51955E-03-8.67369E-04-2.43752E-14
 -1       198 5.80556E-03-7.72377E-04-2.70839E-14
 -1       199 6.10200E-03-6.57896E-04-2.99177E-14
 -1       200 6.40849E-03-5.37277E-04-3.28728E-14
 -1       201 6.72252E-03-4.21038E-04-3.59488E-14
 -1       202 7.04070E-03-3.15410E-04-3.91417E-14
 -1       203 7.35980E-03-2.22681E-04-4.24504E-14
 -1       204 7.67733E-03-1.42386E-04-4.58672E-14
 -1       205 7.99167E-03-7.25861E-05-4.93782E-14
 -1       206 8.30201E-03-1.08273E-05-5.29774E-14
 -1       207 8.60813E-03 4.52663E-05-5.66638E-14
 -1       208 8.91022E-03 9.77104E-05-6.04286E-14
 -1       209 9.20870E-03 1.48073E-04-6.42639E-14
 -1       210 9.50410E-03 1.97491E-04-6.81634E-14
 -1       211 9.79696E-03 2.46738E-04-7.21247E-14
 -1       212 1.00878E-02 2.96302E-04-7.61421E-14
 -1       213 1.03770E-02 3.46460E-04-8.02154E-14
 -1       214 1.06651E-02 3.97340E-04-8.43445E-14
 -1       215 1.09523E-02 4.48969E-04-8.85283E-14
 -1       216 1.12388E-02 5.01317E-04-9.27626E-14
 -1       217 1.15250E-02 5.54314E-04-9.70421E-14
 -1       218 1.18108E-02 6.07877E-04-1.01362E-13
 -1       219 1.20965E-02 6.61916E-04-1.05728E-13
 -1       220 1.23820E-02 7.16345E-04-1.10133E-13
 -1       221 1.26676E-02 7.71083E-04-1.14579E-13
 -1       222 1.29531E-02 8.26060E-04-1.19045E-13
 -1       223 1.32386E-02 8.81211E-04-1.23532E-13
 -1       224 1.35242E-02 9.36482E-04-1.28032E-13
 -1       225 1.38098E-02 9.91823E-04-1.32548E-13
 -1       226 1.40954E-02 1.04719E-03-1.37076E-13
 -1       227 1.43811E-02 1.10255E-03-1.41622E-13
 -1       228 6.13509E-04 3.07976E-04-3.58363E-17
 -1       229 9.11852E-04 3.96446E-04-2.21401E-16
 -1       230 1.20400E-03 4.55777E-04-5.34058E-16
 -1       231 1.49642E-03 4.95791E-04-9.78943E-16
 -1       232 1.79323E-03 5.23307E-04-1.55878E-15
 -1       233 2.09746E-03 5.44055E-04-2.27329E-15
 -1       234 2.41149E-03 5.63769E-04-3.12139E-15
 -1       235 2.73721E-03 5.88940E-04-4.10101E-15
 -1       236 3.07571E-03 6.27346E-04-5.21048E-15
 -1       237 3.42675E-03 6.88103E-04-6.44986E-15
 -1       238 3.78786E-03 7.80589E-04-7.81839E-15
 -1       239 4.15337E-03 9.11206E-04-9.31941E-15
 -1       240 4.51429E-03 1.07717E-03-1.09568E-14
 -1       241 4.86021E-03 1.25891E-03-1.27364E-14
 -1       242 5.18455E-03 1.41792E-03-1.46681E-14
 -1       243 5.49096E-03 1.50913E-03-1.67532E-14
 -1       244 5.79415E-03 1.50680E-03-1.89938E-14
 -1       245 6.11133E-03 1.42288E-03-2.13826E-14
 -1       246 6.45110E-03 1.29832E-03-2.39139E-14
 -1       247 6.81034E-03 1.17681E-03-2.65886E-14
 -1       248 7.17946E-03 1.08608E-03-2.93922E-14
 -1       249 7.54855E-03 1.03527E-03-3.23186E-14
 -1       250 7.91063E-03 1.02134E-03-3.53550E-14
 -1       251 8.26214E-03 1.03627E-03-3.85034E-14
 -1       252 8.60210E-03 1.07159E-03-4.17688E-14
 -1       253 8.93108E-03 1.12025E-03-4.51369E-14
 -1       254 9.25042E-03 1.17703E-03-4.86023E-14
 -1       255 9.56171E-03 1.23834E-03-5.21595E-14
 -1       256 9.86650E-03 1.30183E-03-5.58049E-14
 -1       257 1.01662E-02 1.36602E-03-5.95303E-14
 -1       258 1.04619E-02 1.43004E-03-6.33231E-14
 -1       259 1.07546E-02 1.49337E-03-6.71790E-14
 -1       260 1.10451E-02 1.55581E-03-7.11048E-14
 -1       261 1.13340E-02 1.61726E-03-7.51031E-14
 -1       262 1.16217E-02 1.67775E-03-7.91673E-14
 -1       263 1.19086E-02 1.73735E-03-8.32842E-14
 -1       264 1.21949E-02 1.79618E-03-8.74532E-14
 -1       265 1.24808E-02 1.85433E-03-9.16770E-14
 -1       266 1.27665E-02 1.91191E-03-9.59514E-14
 -1       267 1.30520E-02 1.96904E-03-1.00278E-13
 -1       268 1.33375E-02 2.02580E-03-1.04645E-13
 -1       269 1.36230E-02 2.08228E-03-1.09044E-13
 -1       270 1.39085E-02 2.13854E-03-1.13468E-13
 -1       271 1.41940E-02 2.19465E-03-1.17902E-13
 -1       272 1.44796E-02 2.25066E-03-1.22350E-13
 -1       273 1.47652E-02 2.30662E-03-1.26832E-13
 -1       274 1.50509E-02 2.36257E-03-1.31326E-13
 -1       275 1.53366E-02 2.41854E-03-1.35828E-13
 -1       276 1.53451E-02 2.36446E-03-1.37017E-13
 -1       277 1.52899E-02 2.28014E-03-1.37543E-13
 -1       278 1.52348E-02 2.19578E-03-1.38064E-13
 -1       279 1.51797E-02 2.11140E-03-1.38582E-13
 -1       280 1.51256E-02 2.02841E-03-1.39079E-13
 -1       281 1.50706E-02 1.94397E-03-1.39571E-13
 -1       282 1.50157E-02 1.85951E-03-1.40060E-13
 -1       283 1.49609E-02 1.77505E-03-1.40551E-13
 -1       284 1.49062E-02 1.69058E-03-1.41043E-13
 -1       285 1.48517E-02 1.60612E-03-1.41542E-13
 -1       286 1.47981E-02 1.52311E-03-1.42035E-13
 -1       287 1.47437E-02 1.43870E-03-1.42537E-13
 -1       288 1.46894E-02 1.35431E-03-1.43036E-13
 -1       289 1.46350E-02 1.26997E-03-1.43525E-13
 -1       290 1.45081E-02 1.18625E-03-1.42579E-13
 -1       291 7.61428E-03 4.26715E-04-2.60518E-14
 -1       292 7.49395E-03 5.24262E-04-2.55735E-14
 -1       293 7.25410E-03 6.69440E-04-2.45300E-14
 -1       294 6.93068E-03 8.22890E-04-2.35406E-14
 -1       295 6.55870E-03 1.00606E-03-2.22433E-14
 -1       296 6.15013E-03 1.16923E-03-2.09238E-14
 -1       297 5.74203E-03 1.28514E-03-1.94572E-14
 -1       298 5.35294E-03 1.28594E-03-1.80862E-14
 -1       299 4.97639E-03 1.20571E-03-1.68761E-14
 -1       300 4.57349E-03 1.03005E-03-1.56468E-14
 -1       301 4.12839E-03 8.33418E-04-1.48672E-14
 -1       302 3.76117E-03 6.29024E-04-1.41225E-14
 -1       303 3.43319E-03 4.77264E-04-1.37571E-14
 -1       304 3.21981E-03 3.43926E-04-1.34377E-14
 -1       305 3.11890E-03 2.43287E-04-1.33386E-14
 -1       306 3.17214E-03 1.49628E-04-1.37491E-14
 -1       307 3.35619E-03 5.18326E-05-1.40721E-14
 -1       308 3.65201E-03-9.25349E-05-1.48097E-14
 -1       309 4.04193E-03-2.59800E-04-1.57119E-14
 -1       310 4.42553E-03-4.39206E-04-1.69773E-14
 -1       311 4.81919E-03-5.60603E-04-1.81897E-14
 -1       312 5.20438E-03-6.11555E-04-1.95949E-14
 -1       313 5.59033E-03-5.68908E-04-2.10372E-14
 -1       314 5.97851E-03-4.39788E-04-2.25238E-14
 -1       315 6.40367E-03-2.62801E-04-2.36811E-14
 -1       316 6.79383E-03-7.69571E-05-2.47157E-14
 -1       317 7.14958E-03 8.57956E-05-2.54346E-14
 -1       318 7.42021E-03 2.28454E-04-2.59952E-14
 -1       319 7.58594E-03 3.35340E-04-2.61578E-14
 -1       320 4.61339E-04-1.43296E-04-2.29648E-16
 -1       321 4.82564E-04-1.92751E-04-2.00408E-16
 -1       322 4.38480E-04-7.44150E-05-2.51884E-16
 -1       323 4.31506E-04-4.87687E-05-2.53554E-16
 -1       324 4.26657E-04-2.67429E-05-2.51725E-16
 -1       325 4.23974E-04-7.00426E-06-2.47547E-16
 -1       326 4.23615E-04 1.17472E-05-2.41394E-16
 -1       327 4.25722E-04 3.08798E-05-2.32809E-16
 -1       328 4.30272E-04 5.14998E-05-2.21289E-16
 -1       329 4.37505E-04 7.59453E-05-2.05087E-16
 -1       330 4.47683E-04 1.05843E-04-1.82471E-16
 -1       331 4.62007E-04 1.43853E-04-1.49806E-16
 -1       332 4.84861E-04 1.94465E-04-1.02078E-16
 -1       333 5.41958E-04 2.47048E-04-7.67852E-17
 -1       334 8.42620E-04 3.37036E-04-2.73676E-16
 -1       335 8.80948E-04-3.22320E-04-6.17338E-16
 -1       336 1.17639E-03-3.80762E-04-1.10963E-15
 -1       337 1.47066E-03-4.21607E-04-1.74705E-15
 -1       338 1.76572E-03-4.51019E-04-2.52792E-15
 -1       339 2.06312E-03-4.74320E-04-3.45298E-15
 -1       340 2.36395E-03-4.96337E-04-4.52157E-15
 -1       341 2.66884E-03-5.21603E-04-5.73135E-15
 -1       342 2.97789E-03-5.54239E-04-7.08440E-15
 -1       343 3.29052E-03-5.97438E-04-8.57880E-15
 -1       344 3.60526E-03-6.52488E-04-1.02140E-14
 -1       345 3.91970E-03-7.17380E-04-1.19918E-14
 -1       346 4.23072E-03-7.85414E-04-1.39122E-14
 -1       347 4.53546E-03-8.44788E-04-1.59745E-14
 -1       348 4.83293E-03-8.80472E-04-1.81819E-14
 -1       349 5.12524E-03-8.78934E-04-2.05311E-14
 -1       350 5.41716E-03-8.33896E-04-2.30215E-14
 -1       351 5.71380E-03-7.49400E-04-2.56497E-14
 -1       352 6.01803E-03-6.37888E-04-2.84081E-14
 -1       353 6.32957E-03-5.14745E-04-3.12926E-14
 -1       354 6.64589E-03-3.93079E-04-3.42961E-14
 -1       355 6.96388E-03-2.81220E-04-3.74181E-14
 -1       356 7.28093E-03-1.82754E-04-4.06570E-14
 -1       357 7.59532E-03-9.78335E-05-4.40073E-14
 -1       358 7.90619E-03-2.46768E-05-4.74566E-14
 -1       359 8.21325E-03 3.92615E-05-5.09957E-14
 -1       360 8.51660E-03 9.65654E-05-5.46233E-14
 -1       361 8.81655E-03 1.49489E-04-5.83349E-14
 -1       362 9.11350E-03 1.99821E-04-6.21194E-14
 -1       363 9.40791E-03 2.48884E-04-6.59718E-14
 -1       364 9.70021E-03 2.97595E-04-6.98868E-14
 -1       365 9.99081E-03 3.46545E-04-7.38647E-14
 -1       366 1.02800E-02 3.96080E-04-7.78988E-14
 -1       367 1.05682E-02 4.46373E-04-8.19880E-14
 -1       368 1.08556E-02 4.97476E-04-8.61309E-14
 -1       369 1.11425E-02 5.49368E-04-9.03282E-14
 -1       370 1.14288E-02 6.01983E-04-9.45783E-14
 -1       371 1.17149E-02 6.55234E-04-9.88674E-14
 -1       372 1.20008E-02 7.09024E-04-1.03197E-13
 -1       373 1.22866E-02 7.63259E-04-1.07572E-13
 -1       374 1.25722E-02 8.17852E-04-1.11990E-13
 -1       375 1.28579E-02 8.72723E-04-1.16436E-13
 -1       376 1.31435E-02 9.27803E-04-1.20903E-13
 -1       377 1.34291E-02 9.83031E-04-1.25386E-13
 -1       378 1.37148E-02 1.03835E-03-1.29887E-13
 -1       379 1.40004E-02 1.09373E-03-1.34401E-13
 -1       380 1.42543E-02 1.14000E-03-1.38483E-13
 -1       381 1.13913E-03 3.98314E-04-5.94000E-16
 -1       382 1.43452E-03 4.39407E-04-1.04368E-15
 -1       383 1.73196E-03 4.67013E-04-1.62561E-15
 -1       384 2.03402E-03 4.86847E-04-2.34098E-15
 -1       385 2.34281E-03 5.04564E-04-3.18873E-15
 -1       386 2.66011E-03 5.26500E-04-4.16735E-15
 -1       387 2.98739E-03 5.60243E-04-5.27423E-15
 -1       388 3.32558E-03 6.14856E-04-6.51010E-15
 -1       389 3.67475E-03 7.00180E-04-7.87354E-15
 -1       390 4.03314E-03 8.24233E-04-9.36690E-15
 -1       391 4.39593E-03 9.87488E-04-1.09954E-14
 -1       392 4.75475E-03 1.17426E-03-1.27635E-14
 -1       393 5.10076E-03 1.34680E-03-1.46817E-14
 -1       394 5.43230E-03 1.45398E-03-1.67555E-14
 -1       395 5.75950E-03 1.46089E-03-1.89872E-14
 -1       396 6.09678E-03 1.37633E-03-2.13707E-14
 -1       397 6.45000E-03 1.24575E-03-2.38999E-14
 -1       398 6.81384E-03 1.11830E-03-2.65700E-14
 -1       399 7.17902E-03 1.02369E-03-2.93717E-14
 -1       400 7.53839E-03 9.70946E-04-3.22951E-14
 -1       401 7.88843E-03 9.56346E-04-3.53283E-14
 -1       402 8.22823E-03 9.71339E-04-3.84698E-14
 -1       403 8.55822E-03 1.00712E-03-4.17256E-14
 -1       404 8.87940E-03 1.05645E-03-4.50859E-14
 -1       405 9.19301E-03 1.11400E-03-4.85445E-14
 -1       406 9.50028E-03 1.17607E-03-5.20941E-14
 -1       407 9.80238E-03 1.24028E-03-5.57312E-14
 -1       408 1.01003E-02 1.30512E-03-5.94459E-14
 -1       409 1.03951E-02 1.36968E-03-6.32333E-14
 -1       410 1.06873E-02 1.43349E-03-6.70847E-14
 -1       411 1.09775E-02 1.49630E-03-7.10049E-14
 -1       412 1.12664E-02 1.55807E-03-7.49970E-14
 -1       413 1.15541E-02 1.61880E-03-7.90538E-14
 -1       414 1.18412E-02 1.67860E-03-8.31660E-14
 -1       415 1.21276E-02 1.73757E-03-8.73244E-14
 -1       416 1.24137E-02 1.79583E-03-9.15357E-14
 -1       417 1.26996E-02 1.85349E-03-9.58045E-14
 -1       418 1.29853E-02 1.91068E-03-1.00126E-13
 -1       419 1.32710E-02 1.96748E-03-1.04485E-13
 -1       420 1.35565E-02 2.02398E-03-1.08881E-13
 -1       421 1.38421E-02 2.08026E-03-1.13300E-13
 -1       422 1.41277E-02 2.13638E-03-1.17732E-13
 -1       423 1.44133E-02 2.19239E-03-1.22175E-13
 -1       424 1.46990E-02 2.24835E-03-1.26649E-13
 -1       425 1.49846E-02 2.30428E-03-1.31139E-13
 -1       426 1.51648E-02 2.33436E-03-1.34076E-13
 -1       427 1.49598E-02 2.10517E-03-1.34412E-13
 -1       428 1.50149E-02 2.18951E-03-1.33895E-13
 -1       429 1.50899E-02 2.26194E-03-1.33986E-13
 -1       430 1.49056E-02 2.02223E-03-1.34914E-13
 -1       431 1.48506E-02 1.93785E-03-1.35413E-13
 -1       432 1.47957E-02 1.85345E-03-1.35907E-13
 -1       433 1.47408E-02 1.76905E-03-1.36400E-13
 -1       434 1.46861E-02 1.68464E-03-1.36896E-13
 -1       435 1.46315E-02 1.60024E-03-1.37393E-13
 -1       436 1.45779E-02 1.51728E-03-1.37879E-13
 -1       437 1.45234E-02 1.43290E-03-1.38371E-13
 -1       438 1.44691E-02 1.34853E-03-1.38859E-13
 -1       439 1.44148E-02 1.26419E-03-1.39347E-13
 -1       440 7.35381E-03 5.54969E-04-2.59955E-14
 -1       441 7.63542E-03 3.95673E-04-2.75178E-14
 -1       442 7.58796E-03 4.50805E-04-2.70802E-14
 -1       443 7.07241E-03 6.77848E-04-2.51036E-14
 -1       444 6.67699E-03 8.81723E-04-2.35200E-14
 -1       445 4.47856E-04-1.05116E-04-2.45040E-16
 -1       446 5.93349E-03 1.25025E-03-2.04758E-14
 -1       447 5.51616E-03 1.33370E-03-1.85107E-14
 -1       448 5.22930E-03 1.29109E-03-1.72841E-14
 -1       449 4.87917E-03 1.14533E-03-1.58724E-14
 -1       450 4.38061E-03 8.63678E-04-1.44784E-14
 -1       451 4.03462E-03 6.68732E-04-1.37515E-14
 -1       452 3.60392E-03 4.55914E-04-1.30769E-14
 -1       453 3.34772E-03 3.46729E-04-1.27676E-14
 -1       454 3.14264E-03 2.57946E-04-1.25075E-14
 -1       455 3.11884E-03 1.97891E-04-1.28499E-14
 -1       456 3.23825E-03 1.40400E-04-1.31467E-14
 -1       457 3.52133E-03 2.78834E-05-1.37809E-14
 -1       458 3.86280E-03-1.23445E-04-1.46263E-14
 -1       459 4.32394E-03-3.52869E-04-1.60618E-14
 -1       460 4.64768E-03-5.02597E-04-1.72275E-14
 -1       461 5.02924E-03-6.28102E-04-1.88203E-14
 -1       462 5.37514E-03-6.29472E-04-2.04835E-14
 -1       463 5.69985E-03-5.36215E-04-2.22121E-14
 -1       464 6.14864E-03-3.14788E-04-2.39761E-14
 -1       465 6.52943E-03-1.18487E-04-2.50730E-14
 -1       466 6.93346E-03 9.36501E-05-2.63634E-14
 -1       467 7.26414E-03 2.27908E-04-2.68750E-14
 -1       468 7.52477E-03 3.38934E-04-2.75653E-14
 -1       469 6.31956E-03 1.06817E-03-2.21741E-14
 -1       470 7.50534E-03 4.88208E-04-2.74954E-14
 -1       471 4.10002E-03-2.32527E-04-1.49517E-14
 -1       472 5.72940E-03 1.32886E-03-1.94937E-14
 -1       473 4.65059E-03 1.00433E-03-1.46785E-14
 -1       474 3.08172E-03 2.17688E-04-1.20216E-14
 -1       475 9.50116E-04 3.01460E-04-5.24598E-16
 -1       476 6.51946E-04-5.52215E-05-5.39174E-16
 -1       477 6.62171E-04-8.99558E-05-5.39533E-16
 -1       478 6.42548E-04 3.87828E-06-5.23416E-16
 -1       479 6.43925E-04 3.17559E-05-5.09067E-16
 -1       480 6.49529E-04 6.05453E-05-4.89649E-16
 -1       481 6.59663E-04 9.33111E-05-4.63398E-16
 -1       482 6.74434E-04 1.31867E-04-4.28331E-16
 -1       483 6.94552E-04 1.78754E-04-3.80724E-16
 -1       484 1.24442E-03 3.49140E-04-9.38275E-16
 -1       485 9.92845E-04-2.86867E-04-9.03110E-16
 -1       486 6.52488E-03 9.58640E-04-2.35937E-14
 -1       487 1.28561E-03-3.31972E-04-1.47721E-15
 -1       488 1.57918E-03-3.63945E-04-2.19134E-15
 -1       489 1.87425E-03-3.87512E-04-3.04613E-15
 -1       490 2.17179E-03-4.07200E-04-4.04110E-15
 -1       491 2.47290E-03-4.27489E-04-5.17485E-15
 -1       492 2.77867E-03-4.52771E-04-6.44793E-15
 -1       493 3.08993E-03-4.87144E-04-7.85990E-15
 -1       494 3.40692E-03-5.33803E-04-9.41105E-15
 -1       495 3.72863E-03-5.93848E-04-1.11026E-14
 -1       496 4.05229E-03-6.64406E-04-1.29347E-14
 -1       497 4.37358E-03-7.36551E-04-1.49063E-14
 -1       498 4.68827E-03-7.94663E-04-1.70205E-14
 -1       499 4.99524E-03-8.19714E-04-1.92804E-14
 -1       500 5.29826E-03-7.97418E-04-2.16836E-14
 -1       501 5.60401E-03-7.25932E-04-2.42298E-14
 -1       502 5.91731E-03-6.17436E-04-2.69117E-14
 -1       503 6.23809E-03-4.90774E-04-2.97255E-14
 -1       504 6.56264E-03-3.63086E-04-3.26619E-14
 -1       505 6.88644E-03-2.45227E-04-3.57143E-14
 -1       506 7.20629E-03-1.41813E-04-3.88823E-14
 -1       507 7.52079E-03-5.31723E-05-4.21653E-14
 -1       508 7.82982E-03 2.26177E-05-4.55516E-14
 -1       509 8.13399E-03 8.83044E-05-4.90324E-14
 -1       510 8.43408E-03 1.46657E-04-5.26023E-14
 -1       511 8.73089E-03 2.00092E-04-5.62565E-14
 -1       512 9.02511E-03 2.50538E-04-5.99904E-14
 -1       513 9.31729E-03 2.99440E-04-6.37950E-14
 -1       514 9.60786E-03 3.47813E-04-6.76664E-14
 -1       515 9.89719E-03 3.96329E-04-7.15986E-14
 -1       516 1.01856E-02 4.45392E-04-7.55932E-14
 -1       517 1.04732E-02 4.95216E-04-7.96429E-14
 -1       518 1.07603E-02 5.45880E-04-8.37499E-14
 -1       519 1.10469E-02 5.97379E-04-8.79109E-14
 -1       520 1.13332E-02 6.49653E-04-9.21227E-14
 -1       521 1.16193E-02 7.02617E-04-9.63821E-14
 -1       522 1.19053E-02 7.56171E-04-1.00681E-13
 -1       523 1.21911E-02 8.10217E-04-1.05022E-13
 -1       524 1.24769E-02 8.64662E-04-1.09411E-13
 -1       525 1.27626E-02 9.19423E-04-1.13833E-13
 -1       526 1.30483E-02 9.74423E-04-1.18280E-13
 -1       527 1.33340E-02 1.02960E-03-1.22746E-13
 -1       528 1.36197E-02 1.08490E-03-1.27234E-13
 -1       529 1.39054E-02 1.14026E-03-1.31730E-13
 -1       530 1.83520E-03 4.02748E-04-2.15265E-15
 -1       531 2.13404E-03 4.18958E-04-2.95632E-15
 -1       532 2.43712E-03 4.35336E-04-3.88896E-15
 -1       533 2.74617E-03 4.58303E-04-4.94950E-15
 -1       534 3.06349E-03 4.95656E-04-6.13837E-15
 -1       535 3.39220E-03 5.56789E-04-7.45280E-15
 -1       536 3.73591E-03 6.52143E-04-8.89445E-15
 -1       537 4.09701E-03 7.90583E-04-1.04643E-14
 -1       538 4.47279E-03 9.72398E-04-1.21667E-14
 -1       539 4.85184E-03 1.17498E-03-1.40122E-14
 -1       540 5.21982E-03 1.34319E-03-1.60133E-14
 -1       541 5.57614E-03 1.40968E-03-1.81769E-14
 -1       542 5.93637E-03 1.35159E-03-2.05016E-14
 -1       543 6.31040E-03 1.21481E-03-2.29793E-14
 -1       544 6.69078E-03 1.06946E-03-2.56021E-14
 -1       545 7.06403E-03 9.56595E-04-2.83591E-14
 -1       546 7.42094E-03 8.89998E-04-3.12386E-14
 -1       547 7.76124E-03 8.65409E-04-3.42311E-14
 -1       548 8.08820E-03 8.73334E-04-3.73294E-14
 -1       549 8.40537E-03 9.04325E-04-4.05371E-14
 -1       550 8.71542E-03 9.50651E-04-4.38534E-14
 -1       551 9.02013E-03 1.00655E-03-4.72682E-14
 -1       552 9.32073E-03 1.06796E-03-5.07796E-14
 -1       553 9.61804E-03 1.13216E-03-5.43769E-14
 -1       554 9.91271E-03 1.19738E-03-5.80542E-14
 -1       555 1.02052E-02 1.26254E-03-6.18090E-14
 -1       556 1.04961E-02 1.32704E-03-6.56318E-14
 -1       557 1.07856E-02 1.39055E-03-6.95186E-14
 -1       558 1.10740E-02 1.45297E-03-7.34769E-14
 -1       559 1.13616E-02 1.51430E-03-7.75023E-14
 -1       560 1.16486E-02 1.57461E-03-8.15868E-14
 -1       561 1.19352E-02 1.63400E-03-8.57203E-14
 -1       562 1.22215E-02 1.69262E-03-8.99035E-14
 -1       563 1.25075E-02 1.75057E-03-9.41445E-14
 -1       564 1.27934E-02 1.80799E-03-9.84456E-14
 -1       565 1.30791E-02 1.86496E-03-1.02781E-13
 -1       566 1.33648E-02 1.92159E-03-1.07150E-13
 -1       567 1.36505E-02 1.97796E-03-1.11554E-13
 -1       568 1.39362E-02 2.03414E-03-1.15979E-13
 -1       569 1.42219E-02 2.09019E-03-1.20414E-13
 -1       570 1.45075E-02 2.14615E-03-1.24871E-13
 -1       571 1.47932E-02 2.20208E-03-1.29351E-13
 -1       572 1.46306E-02 1.93169E-03-1.31262E-13
 -1       573 1.45756E-02 1.84735E-03-1.31760E-13
 -1       574 1.47399E-02 2.09893E-03-1.30258E-13
 -1       575 1.46852E-02 2.01532E-03-1.30762E-13
 -1       576 1.45208E-02 1.76300E-03-1.32253E-13
 -1       577 1.44660E-02 1.67865E-03-1.32744E-13
 -1       578 1.44113E-02 1.59430E-03-1.33238E-13
 -1       579 1.43577E-02 1.51138E-03-1.33725E-13
 -1       580 1.43032E-02 1.42704E-03-1.34214E-13
 -1       581 1.42488E-02 1.34270E-03-1.34697E-13
 -1       582 1.41945E-02 1.25837E-03-1.35179E-13
 -1       583 7.67203E-03 4.31458E-04-2.90824E-14
 -1       584 7.26989E-03 5.86583E-04-2.70343E-14
 -1       585 1.53910E-03 3.81188E-04-1.47998E-15
 -1       586 7.62735E-03 3.91672E-04-2.90468E-14
 -1       587 7.23155E-04-2.19909E-04-5.10852E-16
 -1       588 7.40108E-03 3.16411E-04-2.86264E-14
 -1       589 3.21316E-03 2.71588E-04-1.17815E-14
 -1       590 5.10961E-03 1.25562E-03-1.63162E-14
 -1       591 6.45323E-04-2.45141E-05-5.33451E-16
 -1       592 5.35602E-03 1.33716E-03-1.74975E-14
 -1       593 4.21688E-03 7.37953E-04-1.33160E-14
 -1       594 3.80807E-03 5.18325E-04-1.26092E-14
 -1       595 3.45117E-03 3.57766E-04-1.19857E-14
 -1       596 3.66186E-03-3.17802E-05-1.33268E-14
 -1       597 3.13534E-03 1.73462E-04-1.21877E-14
 -1       598 5.22725E-03-6.59575E-04-1.99483E-14
 -1       599 3.33470E-03 1.01776E-04-1.26076E-14
 -1       600 4.49679E-03-4.36248E-04-1.62754E-14
 -1       601 4.79358E-03-5.75001E-04-1.75543E-14
 -1       602 5.50329E-03-6.12474E-04-2.16472E-14
 -1       603 5.92624E-03-4.18668E-04-2.39485E-14
 -1       604 6.35012E-03-1.77455E-04-2.55941E-14
 -1       605 6.71920E-03 2.35637E-05-2.69008E-14
 -1       606 7.13889E-03 2.18034E-04-2.80906E-14
 -1       607 6.15957E-03 1.17267E-03-2.18915E-14
 -1       608 7.17662E-04 2.57192E-04-2.70908E-16
 -1       609 6.88534E-03 7.63132E-04-2.51840E-14
 -1       610 6.76010E-04-1.30277E-04-5.32794E-16
 -1       611 5.72788E-03-5.28264E-04-2.33480E-14
 -1       612 4.99349E-03-6.50301E-04-1.86275E-14
 -1       613 7.65063E-03 4.60707E-04-2.94955E-14
 -1       614 3.09508E-03 2.29629E-04-1.13062E-14
 -1       615 3.85308E-03-1.33890E-04-1.36235E-14
 -1       616 4.88410E-03 1.14551E-03-1.50904E-14
 -1       617 4.26564E-03-3.32823E-04-1.51491E-14
 -1       618 1.40975E-02 1.17604E-03-1.34793E-13
 -1       619 8.70503E-04 5.97177E-05-8.64722E-16
 -1       620 8.65509E-04 2.33573E-05-8.91726E-16
 -1       621 9.00029E-04 1.42620E-04-7.82391E-16
 -1       622 9.24724E-04 1.94436E-04-7.21343E-16
 -1       623 1.06108E-03 2.63767E-04-8.13053E-16
 -1       624 6.75634E-03 8.63759E-04-2.52637E-14
 -1       625 7.57448E-03 3.76183E-04-3.04962E-14
 -1       626 5.57883E-03 1.37938E-03-1.84542E-14
 -1       627 1.39653E-03-2.81080E-04-1.86323E-15
 -1       628 1.68735E-03-3.04795E-04-2.64975E-15
 -1       629 1.98030E-03-3.22537E-04-3.57354E-15
 -1       630 2.27632E-03-3.38218E-04-4.63323E-15
 -1       631 2.57687E-03-3.55946E-04-5.82925E-15
 -1       632 2.88378E-03-3.80045E-04-7.16169E-15
 -1       633 3.19888E-03-4.14921E-04-8.62992E-15
 -1       634 3.52327E-03-4.64485E-04-1.02358E-14
 -1       635 3.85604E-03-5.30600E-04-1.19800E-14
 -1       636 4.19308E-03-6.09998E-04-1.38612E-14
 -1       637 4.52730E-03-6.90321E-04-1.58824E-14
 -1       638 4.85230E-03-7.48573E-04-1.80479E-14
 -1       639 5.16852E-03-7.58431E-04-2.03620E-14
 -1       640 5.48265E-03-7.05900E-04-2.28224E-14
 -1       641 5.80567E-03-6.00784E-04-2.54289E-14
 -1       642 6.13799E-03-4.66833E-04-2.81691E-14
 -1       643 6.47505E-03-3.29791E-04-3.10391E-14
 -1       644 6.80931E-03-2.04604E-04-3.40264E-14
 -1       645 7.13586E-03-9.67603E-05-3.71259E-14
 -1       646 7.45308E-03-5.83271E-06-4.03405E-14
 -1       647 7.76169E-03 7.10368E-05-4.36614E-14
 -1       648 8.06336E-03 1.37226E-04-4.70836E-14
 -1       649 8.35991E-03 1.95816E-04-5.05968E-14
 -1       650 8.65286E-03 2.49343E-04-5.41954E-14
 -1       651 8.94337E-03 2.99778E-04-5.78770E-14
 -1       652 9.23226E-03 3.48579E-04-6.16312E-14
 -1       653 9.52010E-03 3.96779E-04-6.54585E-14
 -1       654 9.80723E-03 4.45068E-04-6.93496E-14
 -1       655 1.00939E-02 4.93871E-04-7.32995E-14
 -1       656 1.03803E-02 5.43420E-04-7.73099E-14
 -1       657 1.06665E-02 5.93813E-04-8.13789E-14
 -1       658 1.09525E-02 6.45054E-04-8.55034E-14
 -1       659 1.12384E-02 6.97094E-04-8.96812E-14
 -1       660 1.15243E-02 7.49850E-04-9.39039E-14
 -1       661 1.18101E-02 8.03227E-04-9.81729E-14
 -1       662 1.20959E-02 8.57125E-04-1.02485E-13
 -1       663 1.23817E-02 9.11450E-04-1.06841E-13
 -1       664 1.26674E-02 9.66115E-04-1.11240E-13
 -1       665 1.29532E-02 1.02105E-03-1.15667E-13
 -1       666 1.32389E-02 1.07617E-03-1.20113E-13
 -1       667 1.35246E-02 1.13144E-03-1.24584E-13
 -1       668 1.38103E-02 1.18680E-03-1.29070E-13
 -1       669 2.22027E-03 3.54131E-04-3.59693E-15
 -1       670 1.44542E-02 2.04303E-03-1.25774E-13
 -1       671 1.92956E-03 3.40495E-04-2.70798E-15
 -1       672 2.80971E-03 3.93215E-04-5.75477E-15
 -1       673 3.11431E-03 4.31962E-04-7.02327E-15
 -1       674 3.43286E-03 4.95466E-04-8.41538E-15
 -1       675 3.77382E-03 5.96327E-04-9.93192E-15
 -1       676 4.14436E-03 7.48445E-04-1.15724E-14
 -1       677 7.13481E-03 7.46754E-04-2.80206E-14
 -1       678 7.46892E-03 6.97667E-04-3.08936E-14
 -1       679 7.77331E-03 6.91476E-04-3.38781E-14
 -1       680 8.06158E-03 7.11596E-04-3.69643E-14
 -1       681 8.34280E-03 7.48674E-04-4.01518E-14
 -1       682 8.62186E-03 7.97028E-04-4.34451E-14
 -1       683 8.90110E-03 8.52781E-04-4.68345E-14
 -1       684 9.18143E-03 9.13141E-04-5.03225E-14
 -1       685 9.46303E-03 9.76079E-04-5.39033E-14
 -1       686 9.74578E-03 1.04016E-03-5.75613E-14
 -1       687 1.00294E-02 1.10442E-03-6.12936E-14
 -1       688 1.03138E-02 1.16825E-03-6.50974E-14
 -1       689 1.05986E-02 1.23130E-03-6.89631E-14
 -1       690 1.08838E-02 1.29341E-03-7.28963E-14
 -1       691 1.11692E-02 1.35455E-03-7.68950E-14
 -1       692 1.14548E-02 1.41475E-03-8.09625E-14
 -1       693 1.17404E-02 1.47409E-03-8.50820E-14
 -1       694 1.20261E-02 1.53268E-03-8.92524E-14
 -1       695 1.23118E-02 1.59063E-03-9.34772E-14
 -1       696 1.25975E-02 1.64805E-03-9.77558E-14
 -1       697 1.28833E-02 1.70504E-03-1.02075E-13
 -1       698 1.31690E-02 1.76169E-03-1.06421E-13
 -1       699 1.34548E-02 1.81807E-03-1.10802E-13
 -1       700 1.37405E-02 1.87425E-03-1.15211E-13
 -1       701 1.40263E-02 1.93029E-03-1.19644E-13
 -1       702 7.11631E-03 6.95620E-04-2.72726E-14
 -1       703 1.42459E-02 1.67259E-03-1.28609E-13
 -1       704 6.18241E-03-2.79943E-04-2.58567E-14
 -1       705 1.43557E-02 1.84119E-03-1.27625E-13
 -1       706 1.41912E-02 1.58830E-03-1.29099E-13
 -1       707 1.43007E-02 1.75689E-03-1.28120E-13
 -1       708 1.41375E-02 1.50543E-03-1.29581E-13
 -1       709 1.40829E-02 1.42113E-03-1.30067E-13
 -1       710 1.40285E-02 1.33683E-03-1.30555E-13
 -1       711 7.50347E-03 5.23715E-04-2.90130E-14
 -1       712 9.69735E-04-2.24904E-04-9.54244E-16
 -1       713 3.40217E-03 3.64176E-05-1.19873E-14
 -1       714 1.63969E-03 3.23798E-04-1.94783E-15
 -1       715 2.51296E-03 3.69726E-04-4.61210E-15
 -1       716 8.82009E-04 9.86043E-05-8.29001E-16
 -1       717 1.35017E-03 2.99579E-04-1.31677E-15
 -1       718 3.58984E-03 4.21274E-04-1.12667E-14
 -1       719 3.15493E-03 1.34380E-04-1.14687E-14
 -1       720 3.25695E-03 2.87958E-04-1.08570E-14
 -1       721 3.03496E-03 1.85169E-04-1.11542E-14
 -1       722 8.86684E-04-9.20372E-05-9.29517E-16
 -1       723 1.40024E-02 1.22258E-03-1.32118E-13
 -1       724 4.57410E-03-5.07128E-04-1.63263E-14
 -1       725 5.25091E-03 1.32617E-03-1.66057E-14
 -1       726 4.47023E-03 9.04741E-04-1.32513E-14
 -1       727 7.72006E-03 4.25768E-04-3.07510E-14
 -1       728 5.31988E-03-6.68847E-04-2.08256E-14
 -1       729 6.55589E-03-6.66673E-05-2.75391E-14
 -1       730 7.32669E-03 2.92578E-04-3.01128E-14
 -1       731 3.93658E-03 5.91096E-04-1.19227E-14
 -1       732 6.96256E-03 1.42510E-04-2.88444E-14
 -1       733 9.04201E-04-1.39218E-04-9.25882E-16
 -1       734 8.66886E-04-1.26802E-05-9.11479E-16
 -1       735 5.97761E-03-4.12960E-04-2.52237E-14
 -1       736 5.53234E-03-6.27080E-04-2.24800E-14
 -1       737 1.44102E-02 1.92478E-03-1.27130E-13
 -1       738 7.75242E-03 4.49735E-04-3.11732E-14
 -1       739 4.77483E-03-6.10324E-04-1.73466E-14
 -1       740 1.39194E-02 1.26181E-03-1.29815E-13
 -1       741 3.56076E-03-4.44268E-05-1.22602E-14
 -1       742 3.10840E-03 2.42308E-04-1.04014E-14
 -1       743 8.74130E-04-5.04402E-05-9.24123E-16
 -1       744 7.75074E-03 4.19262E-04-3.28426E-14
 -1       745 1.15134E-03 1.95729E-04-1.17234E-15
 -1       746 7.18929E-03 2.21408E-04-3.09312E-14
 -1       747 1.79364E-03-2.44219E-04-3.12126E-15
 -1       748 2.08293E-03-2.55897E-04-4.10848E-15
 -1       749 2.37594E-03-2.66700E-04-5.22941E-15
 -1       750 2.67473E-03-2.80391E-04-6.48440E-15
 -1       751 2.98219E-03-3.01458E-04-7.87282E-15
 -1       752 3.30153E-03-3.35268E-04-9.39516E-15
 -1       753 3.63518E-03-3.87730E-04-1.10520E-14
 -1       754 3.98249E-03-4.63182E-04-1.28443E-14
 -1       755 4.33691E-03-5.58045E-04-1.47726E-14
 -1       756 4.68722E-03-6.53420E-04-1.68420E-14
 -1       757 5.02431E-03-7.10646E-04-1.90599E-14
 -1       758 6.03318E-03-4.48857E-04-2.66278E-14
 -1       759 6.38672E-03-2.96139E-04-2.94275E-14
 -1       760 6.73539E-03-1.59626E-04-3.23536E-14
 -1       761 7.07134E-03-4.69053E-05-3.53906E-14
 -1       762 7.39262E-03 4.48669E-05-3.85390E-14
 -1       763 7.70112E-03 1.20812E-04-4.17933E-14
 -1       764 8.00004E-03 1.85704E-04-4.51514E-14
 -1       765 8.29244E-03 2.43217E-04-4.86110E-14
 -1       766 8.58076E-03 2.96027E-04-5.21560E-14
 -1       767 8.86671E-03 3.46052E-04-5.57833E-14
 -1       768 9.15145E-03 3.94651E-04-5.94888E-14
 -1       769 9.43571E-03 4.42762E-04-6.32682E-14
 -1       770 9.71988E-03 4.91010E-04-6.71183E-14
 -1       771 1.00042E-02 5.39783E-04-7.10288E-14
 -1       772 1.02887E-02 5.89295E-04-7.49966E-14
 -1       773 1.05735E-02 6.39636E-04-7.90256E-14
 -1       774 1.08585E-02 6.90813E-04-8.31140E-14
 -1       775 1.11437E-02 7.42779E-04-8.72537E-14
 -1       776 1.14291E-02 7.95458E-04-9.14441E-14
 -1       777 1.17146E-02 8.48759E-04-9.56839E-14
 -1       778 1.20002E-02 9.02585E-04-9.99641E-14
 -1       779 1.22858E-02 9.56845E-04-1.04288E-13
 -1       780 1.25715E-02 1.01146E-03-1.08660E-13
 -1       781 1.28572E-02 1.06634E-03-1.13067E-13
 -1       782 1.31430E-02 1.12144E-03-1.17494E-13
 -1       783 1.34287E-02 1.17668E-03-1.21946E-13
 -1       784 1.36741E-02 1.21922E-03-1.25874E-13
 -1       785 2.01556E-03 2.82015E-04-3.29234E-15
 -1       786 3.68579E-03 4.98412E-04-1.05929E-14
 -1       787 3.13827E-03 3.67305E-04-7.92993E-15
 -1       788 2.85229E-03 3.30944E-04-6.58356E-15
 -1       789 1.24770E-03 2.45138E-04-1.25047E-15
 -1       790 1.42584E-02 1.92780E-03-1.24149E-13
 -1       791 7.98333E-03 6.24146E-04-3.57874E-14
 -1       792 8.23983E-03 6.62104E-04-3.89345E-14
 -1       793 8.49900E-03 7.09031E-04-4.21872E-14
 -1       794 8.76232E-03 7.62295E-04-4.55348E-14
 -1       795 9.02998E-03 8.19961E-04-4.89822E-14
 -1       796 9.30160E-03 8.80460E-04-5.25268E-14
 -1       797 9.57655E-03 9.42541E-04-5.61528E-14
 -1       798 9.85420E-03 1.00526E-03-5.98544E-14
 -1       799 1.01340E-02 1.06797E-03-6.36261E-14
 -1       800 1.04154E-02 1.13024E-03-6.74673E-14
 -1       801 1.06980E-02 1.19182E-03-7.13660E-14
 -1       802 1.09816E-02 1.25262E-03-7.53327E-14
 -1       803 1.12658E-02 1.31262E-03-7.93671E-14
 -1       804 1.15505E-02 1.37186E-03-8.34623E-14
 -1       805 1.18356E-02 1.43040E-03-8.76153E-14
 -1       806 1.21209E-02 1.48834E-03-9.18185E-14
 -1       807 1.24064E-02 1.54577E-03-9.60695E-14
 -1       808 1.26919E-02 1.60278E-03-1.00366E-13
 -1       809 1.29776E-02 1.65946E-03-1.04699E-13
 -1       810 1.32633E-02 1.71586E-03-1.09058E-13
 -1       811 1.35491E-02 1.77206E-03-1.13446E-13
 -1       812 1.38348E-02 1.82812E-03-1.17866E-13
 -1       813 1.39168E-02 1.49873E-03-1.25463E-13
 -1       814 1.39715E-02 1.58296E-03-1.24974E-13
 -1       815 6.41947E-03-1.80919E-04-2.80684E-14
 -1       816 7.70200E-03 5.02370E-04-3.12206E-14
 -1       817 1.38623E-02 1.41449E-03-1.25951E-13
 -1       818 1.38078E-02 1.33023E-03-1.26433E-13
 -1       819 1.73521E-03 2.68915E-04-2.44719E-15
 -1       820 3.32731E-03 3.36568E-04-1.00814E-14
 -1       821 7.72543E-03 5.99628E-04-3.27348E-14
 -1       822 2.96274E-03 1.92681E-04-1.00449E-14
 -1       823 4.27360E-03-4.02607E-04-1.47481E-14
 -1       824 7.44542E-03 6.20775E-04-2.99554E-14
 -1       825 7.57855E-03 3.62287E-04-3.24530E-14
 -1       826 3.40140E-03 4.18083E-04-9.21457E-15
 -1       827 3.16030E-03 7.60333E-05-1.07341E-14
 -1       828 6.83104E-03 5.45887E-05-2.96026E-14
 -1       829 1.50687E-03-2.28405E-04-2.26747E-15
 -1       830 1.20135E-03-1.85673E-04-1.52479E-15
 -1       831 3.91347E-03-2.32067E-04-1.32457E-14
 -1       832 1.09286E-03 5.03467E-05-1.34569E-15
 -1       833 2.96509E-03 1.40552E-04-1.00484E-14
 -1       834 1.09088E-03 7.86049E-06-1.37912E-15
 -1       835 1.12338E-03 1.41741E-04-1.24461E-15
 -1       836 1.10370E-03 9.40684E-05-1.30170E-15
 -1       837 1.17523E-03-1.26899E-04-1.53214E-15
 -1       838 3.28489E-03 1.79902E-05-1.09880E-14
 -1       839 2.57264E-03 3.08570E-04-5.36069E-15
 -1       840 7.82769E-03 4.45913E-04-3.32796E-14
 -1       841 3.15787E-03 2.80131E-04-9.64798E-15
 -1       842 1.40807E-02 1.75072E-03-1.23998E-13
 -1       843 2.29446E-03 2.93865E-04-4.26361E-15
 -1       844 1.40260E-02 1.66684E-03-1.24491E-13
 -1       845 7.48306E-03 3.08739E-04-3.32961E-14
 -1       846 1.49244E-03 2.60325E-04-1.79740E-15
 -1       847 1.37409E-02 1.27473E-03-1.26155E-13
 -1       848 1.15511E-03-7.45296E-05-1.52598E-15
 -1       849 4.48479E-03-5.24362E-04-1.57053E-14
 -1       850 1.36967E-02 1.49268E-03-1.21360E-13
 -1       851 2.18112E-03-1.87440E-04-4.65175E-15
 -1       852 2.46892E-03-1.92196E-04-5.83043E-15
 -1       853 2.76342E-03-1.99935E-04-7.14099E-15
 -1       854 3.06885E-03-2.15646E-04-8.58250E-15
 -1       855 3.39047E-03-2.46454E-04-1.01555E-14
 -1       856 3.73343E-03-3.02443E-04-1.18593E-14
 -1       857 7.90232E-03 5.31829E-04-3.42238E-14
 -1       858 6.67752E-03-1.05935E-04-3.06858E-14
 -1       859 7.02360E-03 1.30376E-05-3.36637E-14
 -1       860 7.34839E-03 1.03882E-04-3.67496E-14
 -1       861 7.65445E-03 1.76158E-04-3.99416E-14
 -1       862 7.94850E-03 2.37269E-04-4.32364E-14
 -1       863 8.23488E-03 2.91837E-04-4.66335E-14
 -1       864 8.51697E-03 3.42714E-04-5.01246E-14
 -1       865 8.79706E-03 3.91659E-04-5.36994E-14
 -1       866 9.07656E-03 4.39782E-04-5.73534E-14
 -1       867 9.35631E-03 4.87801E-04-6.10840E-14
 -1       868 9.63674E-03 5.36170E-04-6.48904E-14
 -1       869 9.91800E-03 5.85161E-04-6.87612E-14
 -1       870 1.02001E-02 6.34916E-04-7.26898E-14
 -1       871 1.04830E-02 6.85485E-04-7.66776E-14
 -1       872 1.07666E-02 7.36854E-04-8.07275E-14
 -1       873 1.10508E-02 7.88972E-04-8.48316E-14
 -1       874 1.13354E-02 8.41763E-04-8.89867E-14
 -1       875 1.16204E-02 8.95142E-04-9.31950E-14
 -1       876 1.19056E-02 9.49018E-04-9.74472E-14
 -1       877 1.21911E-02 1.00331E-03-1.01743E-13
 -1       878 1.24766E-02 1.05793E-03-1.06085E-13
 -1       879 1.27623E-02 1.11282E-03-1.10465E-13
 -1       880 1.30480E-02 1.16792E-03-1.14875E-13
 -1       881 1.33337E-02 1.22317E-03-1.19308E-13
 -1       882 7.09712E-03 1.39977E-04-3.20053E-14
 -1       883 1.89720E-03-1.82217E-04-3.60402E-15
 -1       884 2.94245E-03 8.37132E-05-9.40978E-15
 -1       885 2.80272E-03 1.50865E-04-8.74731E-15
 -1       886 8.62912E-03 6.79778E-04-4.42382E-14
 -1       887 7.78211E-03 4.04244E-04-3.48829E-14
 -1       888 8.38333E-03 6.29694E-04-4.09282E-14
 -1       889 8.14758E-03 5.84598E-04-3.77144E-14
 -1       890 8.88331E-03 7.33881E-04-4.76436E-14
 -1       891 9.14440E-03 7.90988E-04-5.11476E-14
 -1       892 9.41108E-03 8.50113E-04-5.47418E-14
 -1       893 9.68225E-03 9.10397E-04-5.84102E-14
 -1       894 9.95698E-03 9.71170E-04-6.21541E-14
 -1       895 1.02345E-02 1.03195E-03-6.59651E-14
 -1       896 1.05142E-02 1.09241E-03-6.98362E-14
 -1       897 1.07955E-02 1.15239E-03-7.37751E-14
 -1       898 1.10780E-02 1.21178E-03-7.77754E-14
 -1       899 1.13616E-02 1.27059E-03-8.18420E-14
 -1       900 1.16458E-02 1.32883E-03-8.59722E-14
 -1       901 1.19305E-02 1.38657E-03-9.01579E-14
 -1       902 1.22155E-02 1.44386E-03-9.43859E-14
 -1       903 1.25009E-02 1.50079E-03-9.86603E-14
 -1       904 1.27864E-02 1.55740E-03-1.02975E-13
 -1       905 1.30720E-02 1.61377E-03-1.07318E-13
 -1       906 1.33577E-02 1.66995E-03-1.11689E-13
 -1       907 1.36434E-02 1.72599E-03-1.16090E-13
 -1       908 1.35876E-02 1.32433E-03-1.22330E-13
 -1       909 1.41355E-02 1.83462E-03-1.23509E-13
 -1       910 2.09559E-03 2.28460E-04-3.90502E-15
 -1       911 3.57519E-03-1.44637E-04-1.16361E-14
 -1       912 1.82688E-03 2.17597E-04-2.97818E-15
 -1       913 2.87484E-03 2.73007E-04-7.43507E-15
 -1       914 2.92928E-03 2.11586E-04-9.03547E-15
 -1       915 1.38606E-02 1.74430E-03-1.19897E-13
 -1       916 7.88553E-03 4.84653E-04-3.37580E-14
 -1       917 1.11958E-03-3.14538E-05-1.45547E-15
 -1       918 4.01127E-03-3.67695E-04-1.32580E-14
 -1       919 1.61567E-03-1.73908E-04-2.68762E-15
 -1       920 1.36421E-02 1.40851E-03-1.21845E-13
 -1       921 1.37355E-03 1.87159E-04-1.73279E-15
 -1       922 2.72671E-03 1.06058E-04-8.15642E-15
 -1       923 3.03395E-03 4.09532E-05-9.64453E-15
 -1       924 1.35373E-02 1.24894E-03-1.22726E-13
 -1       925 1.31696E-03 3.49406E-05-1.93121E-15
 -1       926 2.61922E-03 2.53117E-04-6.13446E-15
 -1       927 1.43117E-03 2.22419E-04-1.76885E-15
 -1       928 1.39352E-03-1.51029E-04-2.07076E-15
 -1       929 2.35979E-03 2.39334E-04-4.95679E-15
 -1       930 1.32453E-03 8.24219E-05-1.88047E-15
 -1       931 1.36704E-03-9.18377E-05-2.06415E-15
 -1       932 1.37512E-02 1.57648E-03-1.20876E-13
 -1       933 3.16168E-03 3.22352E-04-8.77731E-15
 -1       934 1.55464E-03 2.03997E-04-2.17678E-15
 -1       935 1.38059E-02 1.66047E-03-1.20386E-13
 -1       936 7.88209E-03 4.37799E-04-3.53364E-14
 -1       937 1.34361E-03 1.32239E-04-1.81537E-15
 -1       938 2.27382E-03-1.17573E-04-5.20213E-15
 -1       939 2.55282E-03-1.15119E-04-6.43579E-15
 -1       940 2.83792E-03-1.14669E-04-7.79799E-15
 -1       941 3.13576E-03-1.22474E-04-9.28898E-15
 -1       942 1.34303E-03-7.80346E-06-2.03019E-15
 -1       943 7.62521E-03 2.35900E-04-3.81077E-14
 -1       944 7.90987E-03 2.90389E-04-4.13396E-14
 -1       945 8.18670E-03 3.40068E-04-4.46739E-14
 -1       946 8.46012E-03 3.87786E-04-4.81068E-14
 -1       947 8.73266E-03 4.34971E-04-5.16281E-14
 -1       948 9.00575E-03 4.82330E-04-5.52320E-14
 -1       949 9.28015E-03 5.30239E-04-5.89157E-14
 -1       950 9.55618E-03 5.78885E-04-6.26713E-14
 -1       951 9.83390E-03 6.28347E-04-6.65008E-14
 -1       952 1.01132E-02 6.78646E-04-7.03935E-14
 -1       953 1.03939E-02 7.29752E-04-7.43431E-14
 -1       954 1.06758E-02 7.81606E-04-7.83513E-14
 -1       955 1.09587E-02 8.34139E-04-8.24189E-14
 -1       956 1.12424E-02 8.87270E-04-8.65422E-14
 -1       957 1.15267E-02 9.40916E-04-9.07148E-14
 -1       958 1.18115E-02 9.94998E-04-9.49389E-14
 -1       959 1.20966E-02 1.04944E-03-9.92076E-14
 -1       960 1.23819E-02 1.10418E-03-1.03525E-13
 -1       961 1.26675E-02 1.15914E-03-1.07878E-13
 -1       962 1.29531E-02 1.21430E-03-1.12263E-13
 -1       963 1.32388E-02 1.26959E-03-1.16676E-13
 -1       964 1.99767E-03-1.19133E-04-4.09697E-15
 -1       965 1.35887E-02 1.64223E-03-1.16580E-13
 -1       966 3.21568E-03-7.05244E-05-9.98276E-15
 -1       967 8.73579E-03 6.54846E-04-4.63067E-14
 -1       968 8.26487E-03 5.59775E-04-3.96657E-14
 -1       969 9.24623E-03 7.63001E-04-5.33285E-14
 -1       970 9.51128E-03 8.20055E-04-5.69665E-14
 -1       971 9.78112E-03 8.78154E-04-6.06773E-14
 -1       972 1.00548E-02 9.36773E-04-6.44620E-14
 -1       973 1.03314E-02 9.95525E-04-6.83089E-14
 -1       974 1.06104E-02 1.05416E-03-7.22184E-14
 -1       975 1.08912E-02 1.11253E-03-7.61919E-14
 -1       976 1.11733E-02 1.17055E-03-8.02250E-14
 -1       977 1.14565E-02 1.22820E-03-8.43271E-14
 -1       978 1.17405E-02 1.28550E-03-8.84901E-14
 -1       979 1.20251E-02 1.34247E-03-9.27011E-14
 -1       980 1.23101E-02 1.39916E-03-9.69541E-14
 -1       981 1.25954E-02 1.45561E-03-1.01250E-13
 -1       982 1.28809E-02 1.51187E-03-1.05577E-13
 -1       983 1.31665E-02 1.56797E-03-1.09933E-13
 -1       984 1.33776E-02 1.60513E-03-1.13248E-13
 -1       985 2.70414E-03 1.74201E-04-7.68253E-15
 -1       986 1.91792E-03 1.70410E-04-3.53939E-15
 -1       987 2.90693E-03 2.38881E-04-8.22246E-15
 -1       988 7.42087E-03 2.35784E-04-3.47541E-14
 -1       989 7.74011E-03 3.55015E-04-3.63887E-14
 -1       990 2.17414E-03 1.80616E-04-4.54601E-15
 -1       991 1.65544E-03 1.59381E-04-2.65751E-15
 -1       992 8.06476E-03 5.20162E-04-3.66670E-14
 -1       993 8.49408E-03 6.05321E-04-4.29391E-14
 -1       994 1.72284E-03-1.17905E-04-3.12170E-15
 -1       995 8.98721E-03 7.07665E-04-4.97707E-14
 -1       996 1.54390E-03-1.05133E-04-2.56660E-15
 -1       997 2.57998E-03 1.32551E-04-7.14090E-15
 -1       998 1.34219E-02 1.40249E-03-1.17764E-13
 -1       999 1.55336E-03 2.30714E-05-2.64577E-15
 -1      1000 2.67508E-03 2.19844E-04-6.85478E-15
 -1      1001 2.80174E-03 3.41547E-05-8.27315E-15
 -1      1002 2.42177E-03 1.91824E-04-5.67758E-15
 -1      1003 1.34764E-02 1.48620E-03-1.17285E-13
 -1      1004 1.55643E-03 7.38709E-05-2.58731E-15
 -1      1005 7.95237E-03 4.24924E-04-3.76376E-14
 -1      1006 7.98944E-03 4.78920E-04-3.60059E-14
 -1      1007 1.35209E-03-4.84025E-05-2.05133E-15
 -1      1008 8.82471E-03 6.29504E-04-4.83935E-14
 -1      1009 9.87457E-03 8.44705E-04-6.29534E-14
 -1      1010 9.60422E-03 7.88762E-04-5.91988E-14
 -1      1011 2.62568E-03-3.73401E-05-7.04360E-15
 -1      1012 7.88658E-03 3.43127E-04-3.94580E-14
 -1      1013 8.57986E-03 5.81594E-04-4.49687E-14
 -1      1014 8.14836E-03 3.86585E-04-4.27300E-14
 -1      1015 8.40959E-03 4.30312E-04-4.61012E-14
 -1      1016 8.67243E-03 4.75316E-04-4.95677E-14
 -1      1017 8.93781E-03 5.21779E-04-5.31207E-14
 -1      1018 9.20606E-03 5.69652E-04-5.67556E-14
 -1      1019 9.47720E-03 6.18787E-04-6.04645E-14
 -1      1020 9.75105E-03 6.69009E-04-6.42478E-14
 -1      1021 1.00273E-02 7.20178E-04-6.81013E-14
 -1      1022 1.03057E-02 7.72156E-04-7.20151E-14
 -1      1023 1.05858E-02 8.24816E-04-7.59837E-14
 -1      1024 1.08673E-02 8.78056E-04-8.00115E-14
 -1      1025 1.11499E-02 9.31786E-04-8.41005E-14
 -1      1026 1.14334E-02 9.85921E-04-8.82457E-14
 -1      1027 1.17177E-02 1.04039E-03-9.24368E-14
 -1      1028 1.20024E-02 1.09513E-03-9.66813E-14
 -1      1029 1.22875E-02 1.15010E-03-1.00972E-13
 -1      1030 1.25728E-02 1.20523E-03-1.05302E-13
 -1      1031 1.28583E-02 1.26051E-03-1.09662E-13
 -1      1032 1.31401E-02 1.33144E-03-1.13704E-13
 -1      1033 1.35643E-02 1.59088E-03-1.17054E-13
 -1      1034 2.57526E-03 5.67661E-05-7.11002E-15
 -1      1035 2.36059E-03-4.76070E-05-5.75823E-15
 -1      1036 8.34676E-03 5.37604E-04-4.16361E-14
 -1      1037 9.33829E-03 7.33858E-04-5.55168E-14
 -1      1038 1.01486E-02 9.01242E-04-6.67786E-14
 -1      1039 1.04255E-02 9.58086E-04-7.06633E-14
 -1      1040 1.07046E-02 1.01502E-03-7.46096E-14
 -1      1041 1.09854E-02 1.07190E-03-7.86135E-14
 -1      1042 1.12676E-02 1.12866E-03-8.26876E-14
 -1      1043 1.15509E-02 1.18527E-03-8.68204E-14
 -1      1044 1.18349E-02 1.24172E-03-9.10089E-14
 -1      1045 1.21195E-02 1.29801E-03-9.52461E-14
 -1      1046 1.24046E-02 1.35417E-03-9.95244E-14
 -1      1047 1.26899E-02 1.41022E-03-1.03838E-13
 -1      1048 1.29754E-02 1.46616E-03-1.08178E-13
 -1      1049 2.09546E-03-5.59085E-05-4.59948E-15
 -1      1050 8.08353E-03 4.73486E-04-3.83346E-14
 -1      1051 1.75986E-03 1.16940E-04-3.17030E-15
 -1      1052 1.82922E-03-6.11012E-05-3.56795E-15
 -1      1053 9.07794E-03 6.80559E-04-5.19115E-14
 -1      1054 1.56013E-03-1.91731E-05-2.67950E-15
 -1      1055 2.01367E-03 1.27283E-04-4.13085E-15
 -1      1056 8.09804E-03 4.19092E-04-4.07596E-14
 -1      1057 1.31945E-02 1.41501E-03-1.13233E-13
 -1      1058 8.23700E-03 4.74270E-04-4.14904E-14
 -1      1059 2.25838E-03 1.38540E-04-5.21635E-15
 -1      1060 1.31864E-02 1.50325E-03-1.11485E-13
 -1      1061 1.51865E-03 1.02374E-04-2.40273E-15
 -1      1062 1.54964E-03-6.09836E-05-2.62726E-15
 -1      1063 1.77595E-03 5.60962E-05-3.37837E-15
 -1      1064 1.77913E-03 1.30676E-05-3.42662E-15
 -1      1065 1.02397E-02 8.64096E-04-6.91043E-14
 -1      1066 9.96445E-03 8.09380E-04-6.52411E-14
 -1      1067 2.48828E-03 1.63259E-04-6.31846E-15
 -1      1068 8.65018E-03 5.54363E-04-4.70107E-14
 -1      1069 8.34508E-03 4.59240E-04-4.40692E-14
 -1      1070 8.59741E-03 5.02219E-04-4.74754E-14
 -1      1071 8.85481E-03 5.47916E-04-5.09726E-14
 -1      1072 9.11688E-03 5.95773E-04-5.45581E-14
 -1      1073 9.38326E-03 6.45398E-04-5.82218E-14
 -1      1074 9.65335E-03 6.96434E-04-6.19579E-14
 -1      1075 9.92675E-03 7.48505E-04-6.57685E-14
 -1      1076 1.02029E-02 8.01422E-04-6.96442E-14
 -1      1077 1.04812E-02 8.54993E-04-7.35757E-14
 -1      1078 1.07614E-02 9.09036E-04-7.75640E-14
 -1      1079 1.10430E-02 9.63460E-04-8.16161E-14
 -1      1080 1.13258E-02 1.01817E-03-8.57284E-14
 -1      1081 1.16095E-02 1.07311E-03-8.98933E-14
 -1      1082 1.18938E-02 1.12823E-03-9.41093E-14
 -1      1083 1.21786E-02 1.18348E-03-9.83752E-14
 -1      1084 1.24638E-02 1.23883E-03-1.02682E-13
 -1      1085 1.27492E-02 1.29427E-03-1.07019E-13
 -1      1086 1.29718E-02 1.35459E-03-1.10119E-13
 -1      1087 2.33706E-03 3.93944E-05-5.82627E-15
 -1      1088 2.39147E-03 1.03886E-04-6.08605E-15
 -1      1089 8.44116E-03 5.12908E-04-4.42189E-14
 -1      1090 1.93691E-03-4.63246E-06-4.02353E-15
 -1      1091 2.14043E-03 1.58005E-05-4.88560E-15
 -1      1092 2.05993E-03 7.12174E-05-4.50694E-15
 -1      1093 1.30142E-02 1.40749E-03-1.09967E-13
 -1      1094 0.00000E+00 0.00000E+00 0.00000E+00
 -1      1095 0.00000E+00 0.00000E+00 0.00000E+00
 -1      1096 0.00000E+00 0.00000E+00 0.00000E+00
 -1      1097 0.00000E+00 0.00000E+00 0.00000E+00
 -1      1098 0.00000E+00 0.00000E+00 0.00000E+00
 -1      1099 0.00000E+00 0.00000E+00 0.00000E+00
 -1      1100 0.00000E+00 0.00000E+00 0.00000E+00
 -1      1101 0.00000E+00 0.00000E+00 0.00000E+00
 -1      1102 0.00000E+00 0.00000E+00 0.00000E+00
 -1      1103 0.00000E+00 0.00000E+00 0.00000E+00
 -1      1104 0.00000E+00 0.00000E+00 0.00000E+00
 -1      1105 0.00000E+00 0.00000E+00 0.00000E+00
 -1      1106 0.00000E+00 0.00000E+00 0.00000E+00
 -1      1107 0.00000E+00 0.00000E+00 0.00000E+00
 -1      1108 0.00000E+00 0.00000E+00 0.00000E+00
 -1      1109 0.00000E+00 0.00000E+00 0.00000E+00
 -1      1110 0.00000E+00 0.00000E+00 0.00000E+00
 -1      1111 2.10557E-04-1.44700E-04 1.00560E-17
 -1      1112 5.52871E-04-3.23362E-04-6.88468E-17
 -1      1113 8.41952E-04-4.33671E-04-2.91583E-16
 -1      1114 1.12291E-03-5.05339E-04-6.80540E-16
 -1      1115 1.40385E-03-5.54496E-04-1.22706E-15
 -1      1116 1.68873E-03-5.89884E-04-1.92562E-15
 -1      1117 1.97989E-03-6.17398E-04-2.77535E-15
 -1      1118 2.27844E-03-6.41869E-04-3.77479E-15
 -1      1119 2.58449E-03-6.67700E-04-4.92195E-15
 -1      1120 2.89701E-03-6.98911E-04-6.21978E-15
 -1      1121 3.21362E-03-7.38763E-04-7.66749E-15
 -1      1122 3.53046E-03-7.88975E-04-9.25957E-15
 -1      1123 3.84238E-03-8.48594E-04-1.09948E-14
 -1      1124 4.14379E-03-9.12841E-04-1.28733E-14
 -1      1125 4.43017E-03-9.72636E-04-1.49003E-14
 -1      1126 4.70015E-03-1.01570E-03-1.70723E-14
 -1      1127 4.95694E-03-1.02961E-03-1.93861E-14
 -1      1128 5.20817E-03-1.00606E-03-2.18410E-14
 -1      1129 5.46360E-03-9.44145E-04-2.44349E-14
 -1      1130 5.73170E-03-8.50763E-04-2.71607E-14
 -1      1131 6.01691E-03-7.37919E-04-3.00092E-14
 -1      1132 6.31902E-03-6.18505E-04-3.29761E-14
 -1      1133 6.63428E-03-5.02866E-04-3.60617E-14
 -1      1134 6.95741E-03-3.97273E-04-3.92664E-14
 -1      1135 7.28330E-03-3.04152E-04-4.25910E-14
 -1      1136 7.60797E-03-2.23188E-04-4.60233E-14
 -1      1137 7.92887E-03-1.52570E-04-4.95458E-14
 -1      1138 8.24468E-03-8.99439E-05-5.31584E-14
 -1      1139 8.55506E-03-3.30030E-05-5.68634E-14
 -1      1140 8.86025E-03 2.02238E-05-6.06464E-14
 -1      1141 9.16084E-03 7.12787E-05-6.44935E-14
 -1      1142 9.45756E-03 1.21289E-04-6.84060E-14
 -1      1143 9.75114E-03 1.71027E-04-7.23778E-14
 -1      1144 1.00423E-02 2.20987E-04-7.64090E-14
 -1      1145 1.03315E-02 2.71457E-04-8.04950E-14
 -1      1146 1.06194E-02 3.22577E-04-8.46392E-14
 -1      1147 1.09064E-02 3.74387E-04-8.88356E-14
 -1      1148 1.11926E-02 4.26866E-04-9.30867E-14
 -1      1149 1.14784E-02 4.79957E-04-9.73764E-14
 -1      1150 1.17640E-02 5.33584E-04-1.01702E-13
 -1      1151 1.20494E-02 5.87665E-04-1.06074E-13
 -1      1152 1.23347E-02 6.42120E-04-1.10489E-13
 -1      1153 1.26201E-02 6.96872E-04-1.14945E-13
 -1      1154 1.29054E-02 7.51854E-04-1.19428E-13
 -1      1155 1.31909E-02 8.07006E-04-1.23924E-13
 -1      1156 1.34764E-02 8.62274E-04-1.28435E-13
 -1      1157 1.37619E-02 9.17610E-04-1.32958E-13
 -1      1158 1.40475E-02 9.72974E-04-1.37491E-13
 -1      1159 1.43332E-02 1.02833E-03-1.42034E-13
 -1      1160 1.46118E-02 1.08227E-03-1.46482E-13
 -1      1161 2.26767E-04 1.56398E-04 4.26634E-17
 -1      1162 5.54708E-04 3.26046E-04 5.05374E-17
 -1      1163 8.43253E-04 4.32244E-04-5.39120E-17
 -1      1164 1.12558E-03 5.01240E-04-2.87625E-16
 -1      1165 1.40916E-03 5.47524E-04-6.54492E-16
 -1      1166 1.69880E-03 5.79392E-04-1.15901E-15
 -1      1167 1.99805E-03 6.02814E-04-1.80125E-15
 -1      1168 2.30983E-03 6.23267E-04-2.57695E-15
 -1      1169 2.63666E-03 6.46730E-04-3.48511E-15
 -1      1170 2.98033E-03 6.80337E-04-4.52585E-15
 -1      1171 3.34108E-03 7.32659E-04-5.70050E-15
 -1      1172 3.71625E-03 8.13165E-04-7.00704E-15
 -1      1173 4.09841E-03 9.29875E-04-8.44411E-15
 -1      1174 4.47422E-03 1.08420E-03-1.00168E-14
 -1      1175 4.82618E-03 1.26354E-03-1.17284E-14
 -1      1176 5.13986E-03 1.43644E-03-1.35912E-14
 -1      1177 5.41502E-03 1.55898E-03-1.56078E-14
 -1      1178 5.67163E-03 1.59577E-03-1.77751E-14
 -1      1179 5.94121E-03 1.54269E-03-2.00911E-14
 -1      1180 6.24771E-03 1.43013E-03-2.25538E-14
 -1      1181 6.59539E-03 1.30268E-03-2.51537E-14
 -1      1182 6.97214E-03 1.19594E-03-2.78876E-14
 -1      1183 7.36041E-03 1.12691E-03-3.07504E-14
 -1      1184 7.74569E-03 1.09696E-03-3.37336E-14
 -1      1185 8.11945E-03 1.09950E-03-3.68311E-14
 -1      1186 8.47833E-03 1.12589E-03-4.00426E-14
 -1      1187 8.82225E-03 1.16841E-03-4.33616E-14
 -1      1188 9.15282E-03 1.22111E-03-4.67832E-14
 -1      1189 9.47223E-03 1.27979E-03-5.02984E-14
 -1      1190 9.78271E-03 1.34166E-03-5.39057E-14
 -1      1191 1.00862E-02 1.40491E-03-5.75967E-14
 -1      1192 1.03845E-02 1.46843E-03-6.13658E-14
 -1      1193 1.06788E-02 1.53157E-03-6.51973E-14
 -1      1194 1.09702E-02 1.59399E-03-6.90858E-14
 -1      1195 1.12596E-02 1.65554E-03-7.30423E-14
 -1      1196 1.15474E-02 1.71619E-03-7.70772E-14
 -1      1197 1.18343E-02 1.77597E-03-8.11765E-14
 -1      1198 1.21205E-02 1.83498E-03-8.53382E-14
 -1      1199 1.24062E-02 1.89330E-03-8.95422E-14
 -1      1200 1.26917E-02 1.95105E-03-9.37992E-14
 -1      1201 1.29771E-02 2.00831E-03-9.81102E-14
 -1      1202 1.32624E-02 2.06519E-03-1.02465E-13
 -1      1203 1.35477E-02 2.12176E-03-1.06848E-13
 -1      1204 1.38331E-02 2.17809E-03-1.11261E-13
 -1      1205 1.41185E-02 2.23426E-03-1.15690E-13
 -1      1206 1.44040E-02 2.29030E-03-1.20139E-13
 -1      1207 1.46896E-02 2.34628E-03-1.24616E-13
 -1      1208 1.49752E-02 2.40223E-03-1.29113E-13
 -1      1209 1.52609E-02 2.45819E-03-1.33612E-13
 -1      1210 1.55394E-02 2.51279E-03-1.37997E-13
 -1      1211 1.56476E-02 2.49725E-03-1.40394E-13
 -1      1212 1.55925E-02 2.41296E-03-1.40921E-13
 -1      1213 1.55374E-02 2.32864E-03-1.41457E-13
 -1      1214 1.54822E-02 2.24427E-03-1.41984E-13
 -1      1215 1.54271E-02 2.15986E-03-1.42512E-13
 -1      1216 1.53726E-02 2.07611E-03-1.43015E-13
 -1      1217 1.53180E-02 1.99232E-03-1.43501E-13
 -1      1218 1.52632E-02 1.90779E-03-1.43969E-13
 -1      1219 1.52084E-02 1.82324E-03-1.44456E-13
 -1      1220 1.51537E-02 1.73870E-03-1.44940E-13
 -1      1221 1.50991E-02 1.65417E-03-1.45426E-13
 -1      1222 1.50451E-02 1.57039E-03-1.45938E-13
 -1      1223 1.49912E-02 1.48664E-03-1.46458E-13
 -1      1224 1.49368E-02 1.40222E-03-1.46979E-13
 -1      1225 1.48825E-02 1.31786E-03-1.47475E-13
 -1      1226 1.48281E-02 1.23354E-03-1.47951E-13
 -1      1227 1.47742E-02 1.14997E-03-1.48426E-13
 -1      1228 7.62848E-03 4.40413E-04-2.47956E-14
 -1      1229 7.53303E-03 5.95514E-04-2.43685E-14
 -1      1230 7.32776E-03 7.53558E-04-2.36924E-14
 -1      1231 7.04048E-03 9.06577E-04-2.28431E-14
 -1      1232 6.67510E-03 1.05425E-03-2.18206E-14
 -1      1233 6.25731E-03 1.17437E-03-2.06929E-14
 -1      1234 5.79258E-03 1.24730E-03-1.94747E-14
 -1      1235 5.32477E-03 1.25465E-03-1.83082E-14
 -1      1236 4.88129E-03 1.19503E-03-1.72677E-14
 -1      1237 4.41643E-03 1.07112E-03-1.62610E-14
 -1      1238 3.99704E-03 9.13458E-04-1.54441E-14
 -1      1239 3.64527E-03 7.44530E-04-1.48358E-14
 -1      1240 3.36646E-03 5.75222E-04-1.44176E-14
 -1      1241 3.18719E-03 4.18648E-04-1.42054E-14
 -1      1242 3.10854E-03 2.60987E-04-1.41971E-14
 -1      1243 3.14810E-03 1.10123E-04-1.44082E-14
 -1      1244 3.30102E-03-3.76811E-05-1.48251E-14
 -1      1245 3.55705E-03-1.88159E-04-1.54564E-14
 -1      1246 3.90908E-03-3.36787E-04-1.63103E-14
 -1      1247 4.32089E-03-4.62764E-04-1.73288E-14
 -1      1248 4.74385E-03-5.42295E-04-1.84084E-14
 -1      1249 5.19907E-03-5.72121E-04-1.95968E-14
 -1      1250 5.65864E-03-5.41588E-04-2.07928E-14
 -1      1251 6.11464E-03-4.52518E-04-2.19486E-14
 -1      1252 6.54046E-03-3.24680E-04-2.29682E-14
 -1      1253 6.91640E-03-1.75467E-04-2.37968E-14
 -1      1254 7.23290E-03-1.75258E-05-2.44245E-14
 -1      1255 7.46667E-03 1.37760E-04-2.48139E-14
 -1      1256 7.60433E-03 2.90840E-04-2.49436E-14
 -1      1257 1.67704E-04-1.06521E-04-1.21973E-17
 -1      1258 1.14390E-04-5.23392E-05-3.60633E-17
 -1      1259 1.19329E-04-6.35193E-05-2.93412E-17
 -1      1260 1.09962E-04-3.78579E-05-4.67291E-17
 -1      1261 1.12019E-04-4.43410E-05-4.37069E-17
 -1      1262 2.30238E-04-9.76091E-05-1.03189E-16
 -1      1263 1.07709E-04-2.75577E-05-5.17300E-17
 -1      1264 1.08914E-04-3.23698E-05-5.04290E-17
 -1      1265 2.22018E-04-7.10795E-05-1.21485E-16
 -1      1266 1.06121E-04-1.95137E-05-5.42101E-17
 -1      1267 1.06966E-04-2.33464E-05-5.37087E-17
 -1      1268 2.17174E-04-5.15644E-05-1.30660E-16
 -1      1269 1.04937E-04-1.30487E-05-5.49826E-17
 -1      1270 1.05556E-04-1.61575E-05-5.49284E-17
 -1      1271 2.13737E-04-3.62616E-05-1.34861E-16
 -1      1272 1.04048E-04-7.53764E-06-5.51452E-17
 -1      1273 1.04488E-04-1.02198E-05-5.52943E-17
 -1      1274 2.11136E-04-2.36745E-05-1.36216E-16
 -1      1275 1.03513E-04-2.74675E-06-5.44405E-17
 -1      1276 1.03755E-04-5.11965E-06-5.47387E-17
 -1      1277 2.09278E-04-1.29187E-05-1.35647E-16
 -1      1278 1.03368E-04 1.67406E-06-5.33156E-17
 -1      1279 1.03395E-04-5.63963E-07-5.37087E-17
 -1      1280 2.08248E-04-3.40378E-06-1.33641E-16
 -1      1281 1.03641E-04 6.09827E-06-5.14996E-17
 -1      1282 1.03442E-04 3.80912E-06-5.19739E-17
 -1      1283 2.08121E-04 5.57200E-06-1.30267E-16
 -1      1284 1.04339E-04 1.09306E-05-4.90737E-17
 -1      1285 1.03911E-04 8.38883E-06-4.98055E-17
 -1      1286 2.08950E-04 1.47550E-05-1.25510E-16
 -1      1287 1.05432E-04 1.65041E-05-4.55771E-17
 -1      1288 1.04787E-04 1.35486E-05-4.66478E-17
 -1      1289 2.10727E-04 2.48606E-05-1.18991E-16
 -1      1290 1.06964E-04 2.34989E-05-4.07253E-17
 -1      1291 1.06059E-04 1.97718E-05-4.24059E-17
 -1      1292 2.13445E-04 3.68347E-05-1.09979E-16
 -1      1293 1.09027E-04 3.24662E-05-3.34476E-17
 -1      1294 1.07758E-04 2.76717E-05-3.61852E-17
 -1      1295 2.17182E-04 5.18531E-05-9.73749E-17
 -1      1296 1.12166E-04 4.45496E-05-2.22939E-17
 -1      1297 1.10095E-04 3.80065E-05-2.69966E-17
 -1      1298 2.22292E-04 7.13330E-05-7.90112E-17
 -1      1299 1.18797E-04 6.31637E-05-5.06865E-18
 -1      1300 1.14224E-04 5.26616E-05-1.32679E-17
 -1      1301 2.30591E-04 9.83693E-05-5.23534E-17
 -1      1302 1.58132E-04 1.06109E-04 2.08709E-17
 -1      1303 1.37440E-04 8.17761E-05 5.23128E-18
 -1      1304 2.60342E-04 1.42246E-04-2.06947E-17
 -1      1305 3.37073E-04 2.11175E-04 2.32019E-17
 -1      1306 4.25080E-04-2.49776E-04-7.97431E-17
 -1      1307 5.80990E-04-3.18897E-04-1.55529E-16
 -1      1308 7.31817E-04-3.73676E-04-2.75143E-16
 -1      1309 8.79452E-04-4.17378E-04-4.34887E-16
 -1      1310 6.22341E-04-3.09064E-04-2.53785E-16
 -1      1311 1.02483E-03-4.53198E-04-6.32795E-16
 -1      1312 1.16893E-03-4.82370E-04-8.69449E-16
 -1      1313 9.24108E-04-3.98260E-04-5.81336E-16
 -1      1314 1.31264E-03-5.06820E-04-1.14410E-15
 -1      1315 1.45649E-03-5.27154E-04-1.45774E-15
 -1      1316 1.21808E-03-4.57627E-04-1.06062E-15
 -1      1317 1.60098E-03-5.44543E-04-1.80825E-15
 -1      1318 1.74640E-03-5.59490E-04-2.19593E-15
 -1      1319 1.50994E-03-4.98525E-04-1.68980E-15
 -1      1320 1.89304E-03-5.72808E-04-2.62142E-15
 -1      1321 2.04104E-03-5.84998E-04-3.08359E-15
 -1      1322 1.80330E-03-5.28165E-04-2.46739E-15
 -1      1323 2.19051E-03-5.96737E-04-3.58233E-15
 -1      1324 2.34148E-03-6.08511E-04-4.11869E-15
 -1      1325 2.10028E-03-5.52048E-04-3.39179E-15
 -1      1326 2.49393E-03-6.20947E-04-4.69168E-15
 -1      1327 2.64776E-03-6.34488E-04-5.30108E-15
 -1      1328 2.40189E-03-5.75016E-04-4.46279E-15
 -1      1329 2.80283E-03-6.49715E-04-5.94829E-15
 -1      1330 2.95889E-03-6.66968E-04-6.63253E-15
 -1      1331 2.70822E-03-6.01563E-04-5.67932E-15
 -1      1332 3.11564E-03-6.86716E-04-7.35256E-15
 -1      1333 3.27271E-03-7.09101E-04-8.10910E-15
 -1      1334 3.01843E-03-6.35701E-04-7.04173E-15
 -1      1335 3.42965E-03-7.34336E-04-8.90145E-15
 -1      1336 3.58596E-03-7.62240E-04-9.73005E-15
 -1      1337 3.33076E-03-6.80385E-04-8.54816E-15
 -1      1338 3.74111E-03-7.92571E-04-1.05943E-14
 -1      1339 3.89455E-03-8.24694E-04-1.14940E-14
 -1      1340 3.64255E-03-7.36483E-04-1.01973E-14
 -1      1341 4.04578E-03-8.57738E-04-1.24302E-14
 -1      1342 4.19436E-03-8.90561E-04-1.34023E-14
 -1      1343 3.95052E-03-8.01434E-04-1.19908E-14
 -1      1344 4.33999E-03-9.21648E-04-1.44106E-14
 -1      1345 4.48253E-03-9.49475E-04-1.54566E-14
 -1      1346 4.25145E-03-8.68132E-04-1.39273E-14
 -1      1347 4.62206E-03-9.72166E-04-1.65384E-14
 -1      1348 4.75889E-03-9.88189E-04-1.76550E-14
 -1      1349 4.54329E-03-9.24965E-04-1.60081E-14
 -1      1350 4.89353E-03-9.95904E-04-1.88070E-14
 -1      1351 5.02674E-03-9.94278E-04-1.99944E-14
 -1      1352 4.82632E-03-9.57976E-04-1.82325E-14
 -1      1353 5.15935E-03-9.82564E-04-2.12179E-14
 -1      1354 5.29232E-03-9.60657E-04-2.24757E-14
 -1      1355 5.10369E-03-9.55128E-04-2.05990E-14
 -1      1356 5.42654E-03-9.29028E-04-2.37680E-14
 -1      1357 5.56283E-03-8.88540E-04-2.50940E-14
 -1      1358 5.38072E-03-9.10978E-04-2.31062E-14
 -1      1359 5.70180E-03-8.40686E-04-2.64521E-14
 -1      1360 5.84391E-03-7.86957E-04-2.78421E-14
 -1      1361 5.66304E-03-8.29044E-04-2.57484E-14
 -1      1362 5.98933E-03-7.29246E-04-2.92615E-14
 -1      1363 6.13806E-03-6.69163E-04-3.07126E-14
 -1      1364 5.95446E-03-7.20311E-04-2.85194E-14
 -1      1365 6.28985E-03-6.08370E-04-3.21941E-14
 -1      1366 6.44438E-03-5.48168E-04-3.37031E-14
 -1      1367 6.25602E-03-5.98917E-04-3.14140E-14
 -1      1368 6.60117E-03-4.89630E-04-3.52443E-14
 -1      1369 6.75971E-03-4.33578E-04-3.68145E-14
 -1      1370 6.56620E-03-4.77581E-04-3.44301E-14
 -1      1371 6.91949E-03-3.80450E-04-3.84135E-14
 -1      1372 7.08000E-03-3.30616E-04-4.00420E-14
 -1      1373 6.88208E-03-3.64938E-04-3.75642E-14
 -1      1374 7.24080E-03-2.84039E-04-4.16994E-14
 -1      1375 7.40148E-03-2.40758E-04-4.33863E-14
 -1      1376 7.20043E-03-2.65113E-04-4.08142E-14
 -1      1377 7.56173E-03-2.00474E-04-4.50977E-14
 -1      1378 7.72127E-03-1.63032E-04-4.68309E-14
 -1      1379 7.51846E-03-1.78701E-04-4.41749E-14
 -1      1380 7.87991E-03-1.28040E-04-4.85891E-14
 -1      1381 8.03751E-03-9.52571E-05-5.03696E-14
 -1      1382 7.83417E-03-1.04173E-04-4.76377E-14
 -1      1383 8.19399E-03-6.43056E-05-5.21730E-14
 -1      1384 8.34930E-03-3.49307E-05-5.39986E-14
 -1      1385 8.14637E-03-3.90811E-05-5.11913E-14
 -1      1386 8.50345E-03-6.81819E-06-5.58454E-14
 -1      1387 8.65644E-03 2.02641E-05-5.77132E-14
 -1      1388 8.45454E-03 1.91536E-05-5.48331E-14
 -1      1389 8.80833E-03 4.65517E-05-5.95994E-14
 -1      1390 8.95916E-03 7.22379E-05-6.15034E-14
 -1      1391 8.75865E-03 7.28132E-05-5.85576E-14
 -1      1392 9.10902E-03 9.74852E-05-6.34242E-14
 -1      1393 9.25797E-03 1.22445E-04-6.53602E-14
 -1      1394 9.05898E-03 1.23724E-04-6.23577E-14
 -1      1395 9.40609E-03 1.47219E-04-6.73121E-14
 -1      1396 9.55346E-03 1.71920E-04-6.92807E-14
 -1      1397 9.35598E-03 1.73241E-04-6.62234E-14
 -1      1398 9.70016E-03 1.96606E-04-7.12633E-14
 -1      1399 9.84626E-03 2.21355E-04-7.32604E-14
 -1      1400 9.65017E-03 2.22306E-04-7.01514E-14
 -1      1401 9.99183E-03 2.46194E-04-7.52739E-14
 -1      1402 1.01369E-02 2.71175E-04-7.72999E-14
 -1      1403 9.94208E-03 2.71533E-04-7.41410E-14
 -1      1404 1.02816E-02 2.96305E-04-7.93401E-14
 -1      1405 1.04260E-02 3.21615E-04-8.13937E-14
 -1      1406 1.02322E-02 3.21282E-04-7.81881E-14
 -1      1407 1.05700E-02 3.47098E-04-8.34621E-14
 -1      1408 1.07138E-02 3.72772E-04-8.55446E-14
 -1      1409 1.05209E-02 3.71738E-04-8.22891E-14
 -1      1410 1.08574E-02 3.98624E-04-8.76400E-14
 -1      1411 1.10008E-02 4.24659E-04-8.97464E-14
 -1      1412 1.08086E-02 4.22965E-04-8.64467E-14
 -1      1413 1.11440E-02 4.50863E-04-9.18664E-14
 -1      1414 1.12871E-02 4.77235E-04-9.40018E-14
 -1      1415 1.10955E-02 4.74950E-04-9.06551E-14
 -1      1416 1.14301E-02 5.03758E-04-9.61423E-14
 -1      1417 1.15730E-02 5.30428E-04-9.82907E-14
 -1      1418 1.13818E-02 5.27632E-04-9.49103E-14
 -1      1419 1.17159E-02 5.57228E-04-1.00455E-13
 -1      1420 1.18587E-02 5.84153E-04-1.02628E-13
 -1      1421 1.16678E-02 5.80931E-04-9.92092E-14
 -1      1422 1.20015E-02 6.11187E-04-1.04812E-13
 -1      1423 1.21443E-02 6.38323E-04-1.07007E-13
 -1      1424 1.19536E-02 6.34754E-04-1.03551E-13
 -1      1425 1.22870E-02 6.65548E-04-1.09212E-13
 -1      1426 1.24297E-02 6.92855E-04-1.11426E-13
 -1      1427 1.22392E-02 6.89012E-04-1.07936E-13
 -1      1428 1.25724E-02 7.20232E-04-1.13650E-13
 -1      1429 1.27152E-02 7.47673E-04-1.15883E-13
 -1      1430 1.25248E-02 7.43619E-04-1.12360E-13
 -1      1431 1.28579E-02 7.75167E-04-1.18120E-13
 -1      1432 1.30006E-02 8.02708E-04-1.20360E-13
 -1      1433 1.28103E-02 7.98498E-04-1.16815E-13
 -1      1434 1.31434E-02 8.30288E-04-1.22606E-13
 -1      1435 1.32861E-02 8.57900E-04-1.24854E-13
 -1      1436 1.30958E-02 8.53581E-04-1.21291E-13
 -1      1437 1.34289E-02 8.85539E-04-1.27108E-13
 -1      1438 1.35717E-02 9.13197E-04-1.29363E-13
 -1      1439 1.33814E-02 9.08810E-04-1.25785E-13
 -1      1440 1.37145E-02 9.40870E-04-1.31623E-13
 -1      1441 1.38573E-02 9.68552E-04-1.33888E-13
 -1      1442 1.36670E-02 9.64132E-04-1.30293E-13
 -1      1443 1.40001E-02 9.96238E-04-1.36154E-13
 -1      1444 1.41429E-02 1.02392E-03-1.38421E-13
 -1      1445 1.39526E-02 1.01950E-03-1.34816E-13
 -1      1446 1.42858E-02 1.05160E-03-1.40692E-13
 -1      1447 1.44286E-02 1.07928E-03-1.42968E-13
 -1      1448 1.42383E-02 1.07488E-03-1.39352E-13
 -1      1449 1.46385E-02 1.12370E-03-1.46252E-13
 -1      1450 1.45910E-02 1.14699E-03-1.44906E-13
 -1      1451 6.50822E-04 3.49193E-04-2.96123E-17
 -1      1452 4.97325E-04 2.87560E-04 1.23328E-17
 -1      1453 4.51279E-04 2.49634E-04-2.03017E-17
 -1      1454 9.46324E-04 4.36039E-04-2.08506E-16
 -1      1455 7.99968E-04 3.97021E-04-1.03216E-16
 -1      1456 7.58901E-04 3.60797E-04-1.45392E-16
 -1      1457 1.23573E-03 4.93216E-04-5.15118E-16
 -1      1458 1.09119E-03 4.67498E-04-3.45264E-16
 -1      1459 1.05633E-03 4.33018E-04-3.95761E-16
 -1      1460 1.52626E-03 5.31588E-04-9.55968E-16
 -1      1461 1.38047E-03 5.14280E-04-7.18677E-16
 -1      1462 1.35004E-03 4.80612E-04-7.75557E-16
 -1      1463 1.82253E-03 5.58047E-04-1.53244E-15
 -1      1464 1.67342E-03 5.45929E-04-1.22684E-15
 -1      1465 1.64545E-03 5.12317E-04-1.28849E-15
 -1      1466 2.12785E-03 5.78214E-04-2.24439E-15
 -1      1467 1.97386E-03 5.68540E-04-1.87148E-15
 -1      1468 1.94643E-03 5.34365E-04-1.93579E-15
 -1      1469 2.44480E-03 5.97737E-04-3.08878E-15
 -1      1470 2.28471E-03 5.87636E-04-2.65007E-15
 -1      1471 2.25583E-03 5.52347E-04-2.71706E-15
 -1      1472 2.77533E-03 6.23108E-04-4.06562E-15
 -1      1473 2.60825E-03 6.09211E-04-3.56098E-15
 -1      1474 2.57579E-03 5.72272E-04-3.63071E-15
 -1      1475 3.12038E-03 6.62227E-04-5.17387E-15
 -1      1476 2.94600E-03 6.40420E-04-4.60348E-15
 -1      1477 2.90775E-03 6.01308E-04-4.67490E-15
 -1      1478 3.47909E-03 7.24464E-04-6.41418E-15
 -1      1479 3.29814E-03 6.89952E-04-5.77779E-15
 -1      1480 3.25211E-03 6.48209E-04-5.84988E-15
 -1      1481 3.84768E-03 8.19528E-04-7.78547E-15
 -1      1482 3.66251E-03 7.67599E-04-7.08350E-15
 -1      1483 3.60755E-03 7.23006E-04-7.15504E-15
 -1      1484 4.21839E-03 9.53967E-04-9.28840E-15
 -1      1485 4.03345E-03 8.82078E-04-8.51999E-15
 -1      1486 3.97028E-03 8.34984E-04-8.59046E-15
 -1      1487 4.57962E-03 1.12449E-03-1.09293E-14
 -1      1488 4.40111E-03 1.03593E-03-1.00917E-14
 -1      1489 4.33334E-03 9.87715E-04-1.01609E-14
 -1      1490 4.91889E-03 1.31011E-03-1.27124E-14
 -1      1491 4.75275E-03 1.21775E-03-1.18020E-14
 -1      1492 4.68719E-03 1.17107E-03-1.18689E-14
 -1      1493 5.22955E-03 1.47038E-03-1.46480E-14
 -1      1494 5.07778E-03 1.39624E-03-1.36610E-14
 -1      1495 5.02288E-03 1.35428E-03-1.37244E-14
 -1      1496 5.51789E-03 1.55946E-03-1.67377E-14
 -1      1497 5.37543E-03 1.52566E-03-1.56737E-14
 -1      1498 5.33820E-03 1.49018E-03-1.57325E-14
 -1      1499 5.80314E-03 1.55230E-03-1.89771E-14
 -1      1500 5.65930E-03 1.56741E-03-1.78392E-14
 -1      1501 5.64237E-03 1.53703E-03-1.78958E-14
 -1      1502 6.10675E-03 1.46271E-03-2.13665E-14
 -1      1503 5.95154E-03 1.51522E-03-2.01531E-14
 -1      1504 5.95228E-03 1.48620E-03-2.02093E-14
 -1      1505 6.43964E-03 1.33338E-03-2.38994E-14
 -1      1506 6.26943E-03 1.39997E-03-2.26149E-14
 -1      1507 6.28120E-03 1.36899E-03-2.26710E-14
 -1      1508 6.79878E-03 1.20884E-03-2.65663E-14
 -1      1509 6.61658E-03 1.26844E-03-2.52166E-14
 -1      1510 6.63129E-03 1.23423E-03-2.52722E-14
 -1      1511 7.17272E-03 1.11719E-03-2.93688E-14
 -1      1512 6.98476E-03 1.15820E-03-2.79510E-14
 -1      1513 6.99554E-03 1.12112E-03-2.80099E-14
 -1      1514 7.54917E-03 1.06688E-03-3.22892E-14
 -1      1515 7.36135E-03 1.08706E-03-3.08146E-14
 -1      1516 7.36417E-03 1.04820E-03-3.08727E-14
 -1      1517 7.91913E-03 1.05404E-03-3.53299E-14
 -1      1518 7.73541E-03 1.05633E-03-3.37960E-14
 -1      1519 7.72909E-03 1.01673E-03-3.38540E-14
 -1      1520 8.27778E-03 1.07007E-03-3.84840E-14
 -1      1521 8.10007E-03 1.05903E-03-3.68923E-14
 -1      1522 8.08537E-03 1.01945E-03-3.69478E-14
 -1      1523 8.62357E-03 1.10621E-03-4.17448E-14
 -1      1524 8.45231E-03 1.08611E-03-4.01003E-14
 -1      1525 8.43085E-03 1.04699E-03-4.01543E-14
 -1      1526 8.95700E-03 1.15537E-03-4.51138E-14
 -1      1527 8.79176E-03 1.12952E-03-4.34173E-14
 -1      1528 8.76527E-03 1.09109E-03-4.34681E-14
 -1      1529 9.27955E-03 1.21237E-03-4.85806E-14
 -1      1530 9.11952E-03 1.18313E-03-4.68348E-14
 -1      1531 9.08953E-03 1.14546E-03-4.68839E-14
 -1      1532 9.59304E-03 1.27371E-03-5.21393E-14
 -1      1533 9.43731E-03 1.24266E-03-5.03477E-14
 -1      1534 9.40501E-03 1.20571E-03-5.03940E-14
 -1      1535 9.89928E-03 1.33711E-03-5.57842E-14
 -1      1536 9.74696E-03 1.30526E-03-5.39515E-14
 -1      1537 9.71323E-03 1.26895E-03-5.39942E-14
 -1      1538 1.01998E-02 1.40115E-03-5.95109E-14
 -1      1539 1.00502E-02 1.36911E-03-5.76383E-14
 -1      1540 1.00156E-02 1.33336E-03-5.76766E-14
 -1      1541 1.04961E-02 1.46497E-03-6.33087E-14
 -1      1542 1.03484E-02 1.43312E-03-6.14018E-14
 -1      1543 1.03135E-02 1.39783E-03-6.14363E-14
 -1      1544 1.07891E-02 1.52813E-03-6.71695E-14
 -1      1545 1.06429E-02 1.49665E-03-6.52312E-14
 -1      1546 1.06078E-02 1.46173E-03-6.52626E-14
 -1      1547 1.10796E-02 1.59039E-03-7.10901E-14
 -1      1548 1.09346E-02 1.55938E-03-6.91208E-14
 -1      1549 1.08996E-02 1.52474E-03-6.91526E-14
 -1      1550 1.13685E-02 1.65168E-03-7.50862E-14
 -1      1551 1.12242E-02 1.62116E-03-7.30782E-14
 -1      1552 1.11893E-02 1.58675E-03-7.31102E-14
 -1      1553 1.16561E-02 1.71204E-03-7.91486E-14
 -1      1554 1.15124E-02 1.68198E-03-7.71102E-14
 -1      1555 1.14777E-02 1.64774E-03-7.71391E-14
 -1      1556 1.19428E-02 1.77154E-03-8.32758E-14
 -1      1557 1.17996E-02 1.74189E-03-8.12048E-14
 -1      1558 1.17650E-02 1.70779E-03-8.12306E-14
 -1      1559 1.22290E-02 1.83027E-03-8.74523E-14
 -1      1560 1.20860E-02 1.80099E-03-8.53579E-14
 -1      1561 1.20516E-02 1.76699E-03-8.53768E-14
 -1      1562 1.25148E-02 1.88835E-03-9.16788E-14
 -1      1563 1.23720E-02 1.85939E-03-8.95604E-14
 -1      1564 1.23378E-02 1.82545E-03-8.95724E-14
 -1      1565 1.28004E-02 1.94588E-03-9.59589E-14
 -1      1566 1.26576E-02 1.91718E-03-9.38130E-14
 -1      1567 1.26236E-02 1.88329E-03-9.38241E-14
 -1      1568 1.30859E-02 2.00296E-03-1.00290E-13
 -1      1569 1.29432E-02 1.97447E-03-9.81173E-14
 -1      1570 1.29092E-02 1.94062E-03-9.81251E-14
 -1      1571 1.33713E-02 2.05969E-03-1.04655E-13
 -1      1572 1.32286E-02 2.03137E-03-1.02470E-13
 -1      1573 1.31948E-02 1.99754E-03-1.02471E-13
 -1      1574 1.36567E-02 2.11614E-03-1.09051E-13
 -1      1575 1.35140E-02 2.08795E-03-1.06848E-13
 -1      1576 1.34803E-02 2.05413E-03-1.06850E-13
 -1      1577 1.39422E-02 2.17239E-03-1.13469E-13
 -1      1578 1.37994E-02 2.14429E-03-1.11259E-13
 -1      1579 1.37658E-02 2.11048E-03-1.11256E-13
 -1      1580 1.42277E-02 2.22849E-03-1.17910E-13
 -1      1581 1.40849E-02 2.20045E-03-1.15688E-13
 -1      1582 1.40513E-02 2.16664E-03-1.15685E-13
 -1      1583 1.45132E-02 2.28449E-03-1.22369E-13
 -1      1584 1.43704E-02 2.25650E-03-1.20136E-13
 -1      1585 1.43368E-02 2.22269E-03-1.20131E-13
 -1      1586 1.47988E-02 2.34044E-03-1.26849E-13
 -1      1587 1.46560E-02 2.31247E-03-1.24604E-13
 -1      1588 1.46224E-02 2.27866E-03-1.24595E-13
 -1      1589 1.50845E-02 2.39639E-03-1.31346E-13
 -1      1590 1.49416E-02 2.36842E-03-1.29097E-13
 -1      1591 1.49081E-02 2.33460E-03-1.29083E-13
 -1      1592 1.53702E-02 2.45236E-03-1.35846E-13
 -1      1593 1.52273E-02 2.42437E-03-1.33597E-13
 -1      1594 1.51937E-02 2.39055E-03-1.33581E-13
 -1      1595 1.55119E-02 2.47064E-03-1.38257E-13
 -1      1596 1.54550E-02 2.36762E-03-1.39101E-13
 -1      1597 1.54826E-02 2.40977E-03-1.38836E-13
 -1      1598 1.53999E-02 2.28329E-03-1.39630E-13
 -1      1599 1.54274E-02 2.32546E-03-1.39369E-13
 -1      1600 1.53175E-02 2.32229E-03-1.37279E-13
 -1      1601 1.53447E-02 2.19892E-03-1.40155E-13
 -1      1602 1.53723E-02 2.24111E-03-1.39893E-13
 -1      1603 1.52624E-02 2.23796E-03-1.37805E-13
 -1      1604 1.52896E-02 2.11451E-03-1.40673E-13
 -1      1605 1.53172E-02 2.15672E-03-1.40417E-13
 -1      1606 1.52072E-02 2.15359E-03-1.38326E-13
 -1      1607 1.52355E-02 2.03149E-03-1.41170E-13
 -1      1608 1.52626E-02 2.07301E-03-1.40923E-13
 -1      1609 1.51526E-02 2.06990E-03-1.38835E-13
 -1      1610 1.51806E-02 1.94702E-03-1.41656E-13
 -1      1611 1.52080E-02 1.98926E-03-1.41415E-13
 -1      1612 1.50980E-02 1.98619E-03-1.39331E-13
 -1      1613 1.51257E-02 1.86252E-03-1.42136E-13
 -1      1614 1.51531E-02 1.90477E-03-1.41894E-13
 -1      1615 1.50431E-02 1.90174E-03-1.39818E-13
 -1      1616 1.50710E-02 1.77802E-03-1.42625E-13
 -1      1617 1.50983E-02 1.82027E-03-1.42379E-13
 -1      1618 1.49883E-02 1.81728E-03-1.40304E-13
 -1      1619 1.50163E-02 1.69352E-03-1.43110E-13
 -1      1620 1.50436E-02 1.73577E-03-1.42870E-13
 -1      1621 1.49335E-02 1.73281E-03-1.40794E-13
 -1      1622 1.49618E-02 1.60903E-03-1.43612E-13
 -1      1623 1.49890E-02 1.65127E-03-1.43358E-13
 -1      1624 1.48789E-02 1.64835E-03-1.41288E-13
 -1      1625 1.49082E-02 1.52600E-03-1.44110E-13
 -1      1626 1.49350E-02 1.56752E-03-1.43862E-13
 -1      1627 1.48249E-02 1.56462E-03-1.41784E-13
 -1      1628 1.48538E-02 1.44158E-03-1.44625E-13
 -1      1629 1.48810E-02 1.48379E-03-1.44367E-13
 -1      1630 1.47709E-02 1.48091E-03-1.42283E-13
 -1      1631 1.47995E-02 1.35719E-03-1.45132E-13
 -1      1632 1.48267E-02 1.39938E-03-1.44881E-13
 -1      1633 1.47165E-02 1.39651E-03-1.42786E-13
 -1      1634 1.47452E-02 1.27284E-03-1.45620E-13
 -1      1635 1.47723E-02 1.31501E-03-1.45378E-13
 -1      1636 1.46622E-02 1.31214E-03-1.43283E-13
 -1      1637 1.46545E-02 1.18883E-03-1.45382E-13
 -1      1638 1.46817E-02 1.23099E-03-1.45142E-13
 -1      1639 1.45716E-02 1.22811E-03-1.43052E-13
 -1      1640 1.44446E-02 1.14440E-03-1.42101E-13
 -1      1641 7.63043E-03 4.44751E-04-2.53413E-14
 -1      1642 7.65109E-03 4.01430E-04-2.54864E-14
 -1      1643 7.47534E-03 5.57184E-04-2.48168E-14
 -1      1644 7.56579E-03 5.01053E-04-2.51132E-14
 -1      1645 7.21444E-03 7.10429E-04-2.39204E-14
 -1      1646 7.34595E-03 6.42204E-04-2.43052E-14
 -1      1647 6.87311E-03 8.73760E-04-2.29641E-14
 -1      1648 7.03683E-03 7.93408E-04-2.34387E-14
 -1      1649 6.48431E-03 1.05916E-03-2.17717E-14
 -1      1650 6.67215E-03 9.74717E-04-2.23312E-14
 -1      1651 6.07446E-03 1.21194E-03-2.05469E-14
 -1      1652 6.25530E-03 1.14598E-03-2.11216E-14
 -1      1653 5.64776E-03 1.30877E-03-1.91756E-14
 -1      1654 5.84245E-03 1.27589E-03-1.98182E-14
 -1      1655 5.25862E-03 1.28997E-03-1.79725E-14
 -1      1656 5.43104E-03 1.30684E-03-1.84916E-14
 -1      1657 4.86440E-03 1.18970E-03-1.68551E-14
 -1      1658 5.05039E-03 1.24806E-03-1.73602E-14
 -1      1659 4.43766E-03 9.99073E-04-1.57530E-14
 -1      1660 4.64410E-03 1.09640E-03-1.62269E-14
 -1      1661 4.00967E-03 8.07447E-04-1.50212E-14
 -1      1662 4.18639E-03 8.96506E-04-1.53481E-14
 -1      1663 3.64157E-03 6.06342E-04-1.43762E-14
 -1      1664 3.81290E-03 6.94084E-04-1.46355E-14
 -1      1665 3.34034E-03 4.59749E-04-1.40335E-14
 -1      1666 3.46242E-03 5.25894E-04-1.41815E-14
 -1      1667 3.15316E-03 3.32973E-04-1.38128E-14
 -1      1668 3.22674E-03 3.83079E-04-1.38680E-14
 -1      1669 3.08728E-03 2.28043E-04-1.38159E-14
 -1      1670 3.09827E-03 2.72802E-04-1.37633E-14
 -1      1671 3.17072E-03 1.26515E-04-1.41692E-14
 -1      1672 3.11801E-03 1.71873E-04-1.40260E-14
 -1      1673 3.38990E-03 1.33231E-05-1.46058E-14
 -1      1674 3.27157E-03 7.34744E-05-1.43420E-14
 -1      1675 3.70149E-03-1.39462E-04-1.53320E-14
 -1      1676 3.55034E-03-6.88430E-05-1.49887E-14
 -1      1677 4.11535E-03-3.17727E-04-1.62903E-14
 -1      1678 3.91800E-03-2.28659E-04-1.57977E-14
 -1      1679 4.49981E-03-4.82847E-04-1.74351E-14
 -1      1680 4.32091E-03-4.17331E-04-1.69359E-14
 -1      1681 4.89982E-03-5.89717E-04-1.86162E-14
 -1      1682 4.72003E-03-5.47492E-04-1.80496E-14
 -1      1683 5.30010E-03-6.20946E-04-1.99322E-14
 -1      1684 5.11629E-03-6.17691E-04-1.93208E-14
 -1      1685 5.69445E-03-5.59743E-04-2.12331E-14
 -1      1686 5.51550E-03-5.98819E-04-2.06496E-14
 -1      1687 6.10351E-03-4.14992E-04-2.25421E-14
 -1      1688 5.91062E-03-4.91515E-04-2.19634E-14
 -1      1689 6.52358E-03-2.39377E-04-2.35635E-14
 -1      1690 6.34308E-03-3.22431E-04-2.31068E-14
 -1      1691 6.91444E-03-5.40124E-05-2.44485E-14
 -1      1692 6.73627E-03-1.39618E-04-2.40650E-14
 -1      1693 7.25253E-03 1.03833E-04-2.50531E-14
 -1      1694 7.10823E-03 3.31128E-05-2.47954E-14
 -1      1695 7.50185E-03 2.40604E-04-2.54624E-14
 -1      1696 7.39757E-03 1.83386E-04-2.53254E-14
 -1      1697 7.63632E-03 3.48100E-04-2.55354E-14
 -1      1698 7.59098E-03 3.01399E-04-2.55400E-14
 -1      1699 6.71356E-03 8.88308E-04-2.29315E-14
 -1      1700 7.08397E-03 7.01689E-04-2.40652E-14
 -1      1701 1.54783E-02 2.43681E-03-1.38244E-13
 -1      1702 1.53408E-02 2.39149E-03-1.36423E-13
 -1      1703 7.60113E-03 4.49139E-04-2.58283E-14
 -1      1704 7.39663E-03 5.49456E-04-2.50728E-14
 -1      1705 7.65386E-03 3.83076E-04-2.61142E-14
 -1      1706 6.30999E-03 1.08986E-03-2.16343E-14
 -1      1707 5.91021E-03 1.26026E-03-2.02435E-14
 -1      1708 5.54782E-03 1.33628E-03-1.88270E-14
 -1      1709 5.18343E-03 1.29030E-03-1.75357E-14
 -1      1710 4.80983E-03 1.14077E-03-1.63071E-14
 -1      1711 4.39533E-03 9.20015E-04-1.52975E-14
 -1      1712 3.96700E-03 6.94335E-04-1.45233E-14
 -1      1713 3.59200E-03 5.06578E-04-1.39609E-14
 -1      1714 3.29449E-03 3.69059E-04-1.36103E-14
 -1      1715 3.11742E-03 2.74032E-04-1.33991E-14
 -1      1716 3.09248E-03 2.13161E-04-1.35549E-14
 -1      1717 3.22830E-03 1.34565E-04-1.39287E-14
 -1      1718 3.49572E-03 2.57498E-05-1.44655E-14
 -1      1719 3.86818E-03-1.40353E-04-1.52950E-14
 -1      1720 4.26886E-03-3.41030E-04-1.63843E-14
 -1      1721 4.66309E-03-5.18706E-04-1.76336E-14
 -1      1722 5.03150E-03-6.26793E-04-1.89455E-14
 -1      1723 5.38986E-03-6.36261E-04-2.03693E-14
 -1      1724 5.75577E-03-5.35422E-04-2.18277E-14
 -1      1725 6.14636E-03-3.53214E-04-2.31439E-14
 -1      1726 6.56640E-03-1.45295E-04-2.42284E-14
 -1      1727 6.96231E-03 4.66733E-05-2.50954E-14
 -1      1728 7.30433E-03 2.01043E-04-2.57274E-14
 -1      1729 7.54661E-03 3.09473E-04-2.60856E-14
 -1      1730 2.88660E-04-1.67653E-04-6.84674E-17
 -1      1731 3.36121E-04-9.98920E-05-1.91362E-16
 -1      1732 3.41385E-04-1.16589E-04-1.82078E-16
 -1      1733 3.48155E-04-1.36310E-04-1.70152E-16
 -1      1734 3.58135E-04-1.59312E-04-1.52412E-16
 -1      1735 4.66050E-04-1.66751E-04-2.65087E-16
 -1      1736 3.22809E-04-5.02706E-05-2.07164E-16
 -1      1737 3.25383E-04-6.05872E-05-2.05443E-16
 -1      1738 3.18624E-04-3.18380E-05-2.08370E-16
 -1      1739 3.20556E-04-4.06314E-05-2.08140E-16
 -1      1740 4.32628E-04-6.07143E-05-3.06870E-16
 -1      1741 3.15797E-04-1.60044E-05-2.06662E-16
 -1      1742 3.17043E-04-2.36428E-05-2.07801E-16
 -1      1743 4.26948E-04-3.71077E-05-3.07141E-16
 -1      1744 3.14410E-04-1.72984E-06-2.03071E-16
 -1      1745 3.14917E-04-8.72057E-06-2.05145E-16
 -1      1746 4.23288E-04-1.65060E-05-3.03943E-16
 -1      1747 3.14582E-04 1.20266E-05-1.97447E-16
 -1      1748 3.14294E-04 5.16108E-06-2.00564E-16
 -1      1749 4.21789E-04 2.41636E-06-2.98007E-16
 -1      1750 3.16393E-04 2.63741E-05-1.89708E-16
 -1      1751 3.15277E-04 1.90715E-05-1.93896E-16
 -1      1752 4.22617E-04 2.10155E-05-2.89224E-16
 -1      1753 3.19795E-04 4.22256E-05-1.79192E-16
 -1      1754 3.17887E-04 3.40308E-05-1.85060E-16
 -1      1755 4.25841E-04 4.05714E-05-2.77380E-16
 -1      1756 3.24931E-04 6.14749E-05-1.64785E-16
 -1      1757 3.22135E-04 5.14047E-05-1.72795E-16
 -1      1758 4.31492E-04 6.28029E-05-2.61415E-16
 -1      1759 3.31980E-04 8.55750E-05-1.44294E-16
 -1      1760 3.28171E-04 7.28636E-05-1.55719E-16
 -1      1761 4.39747E-04 8.97521E-05-2.39351E-16
 -1      1762 3.41970E-04 1.17113E-04-1.14763E-16
 -1      1763 3.36440E-04 1.00336E-04-1.31216E-16
 -1      1764 4.51048E-04 1.23582E-04-2.08506E-16
 -1      1765 3.59265E-04 1.61245E-04-7.20723E-17
 -1      1766 3.49263E-04 1.37398E-04-9.58299E-17
 -1      1767 4.67565E-04 1.67893E-04-1.65070E-16
 -1      1768 4.14774E-04 2.17509E-04-4.00884E-17
 -1      1769 3.85407E-04 1.86221E-04-6.02952E-17
 -1      1770 5.06129E-04 2.21029E-04-1.24819E-16
 -1      1771 5.69141E-04 2.79424E-04-9.01785E-17
 -1      1772 3.45759E-04-1.78533E-04-1.14505E-16
 -1      1773 8.73135E-04 3.70272E-04-2.83803E-16
 -1      1774 7.21863E-04 3.29381E-04-1.71575E-16
 -1      1775 6.87977E-04 2.98807E-04-1.93720E-16
 -1      1776 4.67486E-04-2.18583E-04-1.99629E-16
 -1      1777 8.24151E-04-3.42381E-04-5.26760E-16
 -1      1778 9.73982E-04-3.77978E-04-7.32717E-16
 -1      1779 1.12202E-03-4.07473E-04-9.75348E-16
 -1      1780 1.26960E-03-4.31633E-04-1.25498E-15
 -1      1781 1.02655E-03-3.56801E-04-8.88856E-16
 -1      1782 1.41664E-03-4.51959E-04-1.57114E-15
 -1      1783 1.56377E-03-4.68856E-04-1.92438E-15
 -1      1784 1.32252E-03-4.05043E-04-1.45286E-15
 -1      1785 1.71120E-03-4.83429E-04-2.31413E-15
 -1      1786 1.85920E-03-4.96074E-04-2.74013E-15
 -1      1787 1.61782E-03-4.38676E-04-2.16151E-15
 -1      1788 2.00799E-03-5.07661E-04-3.20235E-15
 -1      1789 2.15763E-03-5.18606E-04-3.70054E-15
 -1      1790 1.91435E-03-4.63585E-04-3.01431E-15
 -1      1791 2.30832E-03-5.29669E-04-4.23530E-15
 -1      1792 2.45998E-03-5.41271E-04-4.80616E-15
 -1      1793 2.21357E-03-4.84894E-04-4.01046E-15
 -1      1794 2.61278E-03-5.54104E-04-5.41261E-15
 -1      1795 2.76646E-03-5.68566E-04-6.05568E-15
 -1      1796 2.51641E-03-5.07357E-04-5.14912E-15
 -1      1797 2.92121E-03-5.85243E-04-6.73482E-15
 -1      1798 3.07654E-03-6.04449E-04-7.44873E-15
 -1      1799 2.82330E-03-5.35444E-04-6.43054E-15
 -1      1800 3.23268E-03-6.26551E-04-8.19899E-15
 -1      1801 3.38889E-03-6.51663E-04-8.98425E-15
 -1      1802 3.13407E-03-5.73045E-04-7.85427E-15
 -1      1803 3.54542E-03-6.79761E-04-9.80582E-15
 -1      1804 3.70135E-03-7.10593E-04-1.06632E-14
 -1      1805 3.44780E-03-6.22708E-04-9.41859E-15
 -1      1806 3.85688E-03-7.43549E-04-1.15554E-14
 -1      1807 4.01109E-03-7.77833E-04-1.24841E-14
 -1      1808 3.76264E-03-6.84377E-04-1.11252E-14
 -1      1809 4.16405E-03-8.12139E-04-1.34481E-14
 -1      1810 4.31517E-03-8.45074E-04-1.44474E-14
 -1      1811 4.07577E-03-7.53813E-04-1.29735E-14
 -1      1812 4.46433E-03-8.74762E-04-1.54836E-14
 -1      1813 4.61162E-03-8.99422E-04-1.65562E-14
 -1      1814 4.38403E-03-8.21442E-04-1.49646E-14
 -1      1815 4.75677E-03-9.17080E-04-1.76635E-14
 -1      1816 4.90076E-03-9.26144E-04-1.88061E-14
 -1      1817 4.68517E-03-8.72919E-04-1.70991E-14
 -1      1818 5.04320E-03-9.25257E-04-1.99858E-14
 -1      1819 5.18575E-03-9.13665E-04-2.11999E-14
 -1      1820 4.97960E-03-8.92640E-04-1.93768E-14
 -1      1821 5.32800E-03-8.91205E-04-2.24488E-14
 -1      1822 5.47171E-03-8.58393E-04-2.37323E-14
 -1      1823 5.27096E-03-8.69620E-04-2.17958E-14
 -1      1824 5.61648E-03-8.16345E-04-2.50495E-14
 -1      1825 5.76349E-03-7.66507E-04-2.63994E-14
 -1      1826 5.56467E-03-8.02619E-04-2.43546E-14
 -1      1827 5.91243E-03-7.10803E-04-2.77824E-14
 -1      1828 6.06360E-03-6.51057E-04-2.91956E-14
 -1      1829 5.86503E-03-7.00779E-04-2.70481E-14
 -1      1830 6.21687E-03-5.89253E-04-3.06390E-14
 -1      1831 6.37177E-03-5.26936E-04-3.21142E-14
 -1      1832 6.17324E-03-5.79308E-04-2.98693E-14
 -1      1833 6.52834E-03-4.65611E-04-3.36203E-14
 -1      1834 6.68572E-03-4.06265E-04-3.51553E-14
 -1      1835 6.48760E-03-4.53515E-04-3.28138E-14
 -1      1836 6.84408E-03-3.49734E-04-3.67189E-14
 -1      1837 7.00253E-03-2.96444E-04-3.83116E-14
 -1      1838 6.80503E-03-3.34560E-04-3.58779E-14
 -1      1839 7.16125E-03-2.46638E-04-3.99329E-14
 -1      1840 7.31952E-03-2.00353E-04-4.15826E-14
 -1      1841 7.12262E-03-2.28356E-04-3.90566E-14
 -1      1842 7.47752E-03-1.57430E-04-4.32587E-14
 -1      1843 7.63473E-03-1.17695E-04-4.49616E-14
 -1      1844 7.43826E-03-1.36478E-04-4.23478E-14
 -1      1845 7.79129E-03-8.07865E-05-4.66893E-14
 -1      1846 7.94692E-03-4.64467E-05-4.84390E-14
 -1      1847 7.75074E-03-5.77809E-05-4.57451E-14
 -1      1848 8.10169E-03-1.42621E-05-5.02135E-14
 -1      1849 8.25549E-03 1.60317E-05-5.20092E-14
 -1      1850 8.05956E-03 1.01731E-05-4.92398E-14
 -1      1851 8.40836E-03 4.48153E-05-5.38253E-14
 -1      1852 8.56030E-03 7.23221E-05-5.56636E-14
 -1      1853 8.36465E-03 7.01348E-05-5.28229E-14
 -1      1854 8.71133E-03 9.88612E-05-5.75228E-14
 -1      1855 8.86152E-03 1.24622E-04-5.93999E-14
 -1      1856 8.66624E-03 1.24631E-04-5.64915E-14
 -1      1857 9.01087E-03 1.49833E-04-6.12951E-14
 -1      1858 9.15950E-03 1.74641E-04-6.32086E-14
 -1      1859 8.96467E-03 1.75736E-04-6.02379E-14
 -1      1860 9.30740E-03 1.99201E-04-6.51384E-14
 -1      1861 9.45468E-03 2.23620E-04-6.70820E-14
 -1      1862 9.26036E-03 2.25020E-04-6.40556E-14
 -1      1863 9.60135E-03 2.47996E-04-6.90443E-14
 -1      1864 9.74752E-03 2.72403E-04-7.10208E-14
 -1      1865 9.55375E-03 2.73599E-04-6.79401E-14
 -1      1866 9.89320E-03 2.96894E-04-7.30106E-14
 -1      1867 1.00385E-02 3.21519E-04-7.50175E-14
 -1      1868 9.84524E-03 3.22211E-04-7.18859E-14
 -1      1869 1.01834E-02 3.46302E-04-7.70366E-14
 -1      1870 1.03279E-02 3.71272E-04-7.90700E-14
 -1      1871 1.01352E-02 3.71309E-04-7.58894E-14
 -1      1872 1.04722E-02 3.96432E-04-8.11198E-14
 -1      1873 1.06162E-02 4.21799E-04-8.31809E-14
 -1      1874 1.04240E-02 4.21133E-04-7.99515E-14
 -1      1875 1.07600E-02 4.47363E-04-8.52556E-14
 -1      1876 1.09036E-02 4.73133E-04-8.73451E-14
 -1      1877 1.07118E-02 4.71782E-04-8.40697E-14
 -1      1878 1.10471E-02 4.99091E-04-8.94457E-14
 -1      1879 1.11904E-02 5.25238E-04-9.15589E-14
 -1      1880 1.09989E-02 5.23259E-04-8.82403E-14
 -1      1881 1.13336E-02 5.51557E-04-9.36841E-14
 -1      1882 1.14768E-02 5.78043E-04-9.58198E-14
 -1      1883 1.12856E-02 5.75511E-04-9.24606E-14
 -1      1884 1.16198E-02 6.04678E-04-9.79668E-14
 -1      1885 1.17628E-02 6.31456E-04-1.00125E-13
 -1      1886 1.15718E-02 6.28453E-04-9.67285E-14
 -1      1887 1.19057E-02 6.58359E-04-1.02294E-13
 -1      1888 1.20486E-02 6.85381E-04-1.04473E-13
 -1      1889 1.18578E-02 6.81990E-04-1.01037E-13
 -1      1890 1.21914E-02 7.12506E-04-1.06663E-13
 -1      1891 1.23343E-02 7.39726E-04-1.08863E-13
 -1      1892 1.21437E-02 7.36023E-04-1.05392E-13
 -1      1893 1.24771E-02 7.67028E-04-1.11073E-13
 -1      1894 1.26199E-02 7.94406E-04-1.13291E-13
 -1      1895 1.24294E-02 7.90457E-04-1.09788E-13
 -1      1896 1.27627E-02 8.21846E-04-1.15514E-13
 -1      1897 1.29055E-02 8.49343E-04-1.17743E-13
 -1      1898 1.27150E-02 8.45209E-04-1.14216E-13
 -1      1899 1.30483E-02 8.76887E-04-1.19981E-13
 -1      1900 1.31911E-02 9.04471E-04-1.22222E-13
 -1      1901 1.30007E-02 9.00203E-04-1.18671E-13
 -1      1902 1.33339E-02 9.32088E-04-1.24464E-13
 -1      1903 1.34767E-02 9.59733E-04-1.26713E-13
 -1      1904 1.32863E-02 9.55375E-04-1.23147E-13
 -1      1905 1.36195E-02 9.87397E-04-1.28965E-13
 -1      1906 1.37623E-02 1.01508E-03-1.31220E-13
 -1      1907 1.35720E-02 1.01067E-03-1.27638E-13
 -1      1908 1.39051E-02 1.04276E-03-1.33483E-13
 -1      1909 1.40480E-02 1.07046E-03-1.35746E-13
 -1      1910 1.38576E-02 1.06603E-03-1.32148E-13
 -1      1911 1.41749E-02 1.09359E-03-1.37784E-13
 -1      1912 1.43177E-02 1.12128E-03-1.40056E-13
 -1      1913 1.43812E-02 1.16313E-03-1.40529E-13
 -1      1914 1.41273E-02 1.11686E-03-1.36446E-13
 -1      1915 1.17058E-03 4.30095E-04-6.01800E-16
 -1      1916 1.02213E-03 4.03304E-04-4.26756E-16
 -1      1917 9.88775E-04 3.73659E-04-4.53129E-16
 -1      1918 1.46636E-03 4.69564E-04-1.05047E-15
 -1      1919 1.31827E-03 4.51926E-04-8.09533E-16
 -1      1920 1.28618E-03 4.23274E-04-8.39051E-16
 -1      1921 1.76467E-03 4.95833E-04-1.63137E-15
 -1      1922 1.61493E-03 4.84006E-04-1.32418E-15
 -1      1923 1.58344E-03 4.55840E-04-1.35531E-15
 -1      1924 2.06860E-03 5.14692E-04-2.34583E-15
 -1      1925 1.91573E-03 5.05864E-04-1.97166E-15
 -1      1926 1.88367E-03 4.77644E-04-2.00366E-15
 -1      1927 2.38051E-03 5.31821E-04-3.19312E-15
 -1      1928 2.22339E-03 5.23116E-04-2.75305E-15
 -1      1929 2.18935E-03 4.94305E-04-2.78490E-15
 -1      1930 2.70216E-03 5.53670E-04-4.17171E-15
 -1      1931 2.53998E-03 5.41736E-04-3.66622E-15
 -1      1932 2.50244E-03 5.11735E-04-3.69783E-15
 -1      1933 3.03473E-03 5.88092E-04-5.27985E-15
 -1      1934 2.86702E-03 5.68812E-04-4.70942E-15
 -1      1935 2.82454E-03 5.36908E-04-4.74002E-15
 -1      1936 3.37849E-03 6.44580E-04-6.51757E-15
 -1      1937 3.20529E-03 6.13031E-04-5.88258E-15
 -1      1938 3.15686E-03 5.78385E-04-5.91160E-15
 -1      1939 3.73227E-03 7.33448E-04-7.88523E-15
 -1      1940 3.55443E-03 6.84496E-04-7.18528E-15
 -1      1941 3.50004E-03 6.46275E-04-7.21191E-15
 -1      1942 4.09275E-03 8.62830E-04-9.38353E-15
 -1      1943 3.91231E-03 7.92994E-04-8.61762E-15
 -1      1944 3.85361E-03 7.50802E-04-8.64123E-15
 -1      1945 4.45365E-03 1.03222E-03-1.10180E-14
 -1      1946 4.27409E-03 9.43334E-04-1.01832E-14
 -1      1947 4.21486E-03 8.98091E-04-1.02029E-14
 -1      1948 4.80609E-03 1.22362E-03-1.27939E-14
 -1      1949 4.63186E-03 1.12735E-03-1.18885E-14
 -1      1950 4.57740E-03 1.08218E-03-1.19018E-14
 -1      1951 5.14214E-03 1.39638E-03-1.47186E-14
 -1      1952 4.97632E-03 1.31541E-03-1.37372E-14
 -1      1953 4.93137E-03 1.27522E-03-1.37458E-14
 -1      1954 5.46221E-03 1.49931E-03-1.67995E-14
 -1      1955 5.30304E-03 1.45892E-03-1.57395E-14
 -1      1956 5.26930E-03 1.42720E-03-1.57417E-14
 -1      1957 5.77848E-03 1.49996E-03-1.90343E-14
 -1      1958 5.61898E-03 1.51215E-03-1.78981E-14
 -1      1959 5.59534E-03 1.48766E-03-1.78954E-14
 -1      1960 6.10659E-03 1.40989E-03-2.14186E-14
 -1      1961 5.93989E-03 1.46360E-03-2.02073E-14
 -1      1962 5.92487E-03 1.44116E-03-2.02019E-14
 -1      1963 6.45308E-03 1.27513E-03-2.39499E-14
 -1      1964 6.27755E-03 1.34494E-03-2.26665E-14
 -1      1965 6.27023E-03 1.32031E-03-2.26583E-14
 -1      1966 6.81358E-03 1.14446E-03-2.66181E-14
 -1      1967 6.63237E-03 1.20723E-03-2.52673E-14
 -1      1968 6.63062E-03 1.17937E-03-2.52575E-14
 -1      1969 7.17896E-03 1.04832E-03-2.94186E-14
 -1      1970 6.99651E-03 1.09148E-03-2.80025E-14
 -1      1971 6.99658E-03 1.06115E-03-2.79925E-14
 -1      1972 7.54147E-03 9.95528E-04-3.23382E-14
 -1      1973 7.36120E-03 1.01679E-03-3.08639E-14
 -1      1974 7.35917E-03 9.85180E-04-3.08521E-14
 -1      1975 7.89636E-03 9.81783E-04-3.53751E-14
 -1      1976 7.72022E-03 9.84360E-04-3.38432E-14
 -1      1977 7.71348E-03 9.52230E-04-3.38295E-14
 -1      1978 8.24150E-03 9.97972E-04-3.85233E-14
 -1      1979 8.07030E-03 9.86713E-04-3.69340E-14
 -1      1980 8.05788E-03 9.54452E-04-3.69180E-14
 -1      1981 8.57648E-03 1.03490E-03-4.17782E-14
 -1      1982 8.41027E-03 1.01430E-03-4.01377E-14
 -1      1983 8.39239E-03 9.82125E-04-4.01174E-14
 -1      1984 8.90189E-03 1.08513E-03-4.51414E-14
 -1      1985 8.74032E-03 1.05867E-03-4.34476E-14
 -1      1986 8.71781E-03 1.02673E-03-4.34247E-14
 -1      1987 9.21884E-03 1.14329E-03-4.86004E-14
 -1      1988 9.06132E-03 1.11343E-03-4.68585E-14
 -1      1989 9.03519E-03 1.08180E-03-4.68321E-14
 -1      1990 9.52862E-03 1.20575E-03-5.21523E-14
 -1      1991 9.37452E-03 1.17412E-03-5.03646E-14
 -1      1992 9.34572E-03 1.14283E-03-5.03335E-14
 -1      1993 9.83254E-03 1.27015E-03-5.57899E-14
 -1      1994 9.68121E-03 1.23779E-03-5.39611E-14
 -1      1995 9.65053E-03 1.20685E-03-5.39255E-14
 -1      1996 1.01318E-02 1.33505E-03-5.95075E-14
 -1      1997 9.98266E-03 1.30259E-03-5.76388E-14
 -1      1998 9.95071E-03 1.27197E-03-5.75994E-14
 -1      1999 1.04273E-02 1.39960E-03-6.32974E-14
 -1      2000 1.02799E-02 1.36739E-03-6.13943E-14
 -1      2001 1.02472E-02 1.33707E-03-6.13511E-14
 -1      2002 1.07201E-02 1.46334E-03-6.71541E-14
 -1      2003 1.05740E-02 1.43158E-03-6.52173E-14
 -1      2004 1.05407E-02 1.40150E-03-6.51710E-14
 -1      2005 1.10107E-02 1.52607E-03-7.10740E-14
 -1      2006 1.08656E-02 1.49483E-03-6.91064E-14
 -1      2007 1.08321E-02 1.46497E-03-6.90562E-14
 -1      2008 1.12997E-02 1.58774E-03-7.50676E-14
 -1      2009 1.11554E-02 1.55703E-03-7.30622E-14
 -1      2010 1.11217E-02 1.52734E-03-7.30114E-14
 -1      2011 1.15876E-02 1.64838E-03-7.91216E-14
 -1      2012 1.14438E-02 1.61818E-03-7.70864E-14
 -1      2013 1.14101E-02 1.58863E-03-7.70326E-14
 -1      2014 1.18746E-02 1.70809E-03-8.32380E-14
 -1      2015 1.17312E-02 1.67835E-03-8.11721E-14
 -1      2016 1.16975E-02 1.64891E-03-8.11139E-14
 -1      2017 1.21611E-02 1.76699E-03-8.74026E-14
 -1      2018 1.20179E-02 1.73763E-03-8.53152E-14
 -1      2019 1.19843E-02 1.70828E-03-8.52507E-14
 -1      2020 1.24472E-02 1.82518E-03-9.16236E-14
 -1      2021 1.23042E-02 1.79616E-03-8.95069E-14
 -1      2022 1.22706E-02 1.76688E-03-8.94392E-14
 -1      2023 1.27330E-02 1.88280E-03-9.58959E-14
 -1      2024 1.25901E-02 1.85406E-03-9.37526E-14
 -1      2025 1.25566E-02 1.82482E-03-9.36827E-14
 -1      2026 1.30186E-02 1.93994E-03-1.00216E-13
 -1      2027 1.28758E-02 1.91142E-03-9.80504E-14
 -1      2028 1.28424E-02 1.88222E-03-9.79762E-14
 -1      2029 1.33042E-02 1.99671E-03-1.04577E-13
 -1      2030 1.31614E-02 1.96837E-03-1.02391E-13
 -1      2031 1.31281E-02 1.93919E-03-1.02313E-13
 -1      2032 1.35898E-02 2.05318E-03-1.08969E-13
 -1      2033 1.34470E-02 2.02498E-03-1.06770E-13
 -1      2034 1.34137E-02 1.99582E-03-1.06687E-13
 -1      2035 1.38753E-02 2.10944E-03-1.13383E-13
 -1      2036 1.37325E-02 2.08134E-03-1.11174E-13
 -1      2037 1.36993E-02 2.05219E-03-1.11091E-13
 -1      2038 1.41609E-02 2.16554E-03-1.17819E-13
 -1      2039 1.40181E-02 2.13751E-03-1.15598E-13
 -1      2040 1.39849E-02 2.10837E-03-1.15513E-13
 -1      2041 1.44465E-02 2.22154E-03-1.22273E-13
 -1      2042 1.43037E-02 2.19355E-03-1.20042E-13
 -1      2043 1.42705E-02 2.16442E-03-1.19954E-13
 -1      2044 1.47321E-02 2.27749E-03-1.26744E-13
 -1      2045 1.45893E-02 2.24952E-03-1.24506E-13
 -1      2046 1.45561E-02 2.22038E-03-1.24414E-13
 -1      2047 1.50178E-02 2.33343E-03-1.31237E-13
 -1      2048 1.48749E-02 2.30546E-03-1.28990E-13
 -1      2049 1.48418E-02 2.27632E-03-1.28897E-13
 -1      2050 1.52507E-02 2.37645E-03-1.34955E-13
 -1      2051 1.51079E-02 2.34847E-03-1.32704E-13
 -1      2052 1.50747E-02 2.31932E-03-1.32610E-13
 -1      2053 1.52550E-02 2.34940E-03-1.35546E-13
 -1      2054 1.50697E-02 2.10828E-03-1.36499E-13
 -1      2055 1.50973E-02 2.15046E-03-1.36241E-13
 -1      2056 1.51249E-02 2.19264E-03-1.35981E-13
 -1      2057 1.51524E-02 2.23481E-03-1.35722E-13
 -1      2058 1.49873E-02 2.14734E-03-1.34159E-13
 -1      2059 1.51899E-02 2.27103E-03-1.35766E-13
 -1      2060 1.52175E-02 2.31319E-03-1.35503E-13
 -1      2061 1.51274E-02 2.29815E-03-1.34034E-13
 -1      2062 1.50524E-02 2.22573E-03-1.33945E-13
 -1      2063 1.50156E-02 2.02532E-03-1.37000E-13
 -1      2064 1.50426E-02 2.06680E-03-1.36750E-13
 -1      2065 1.49327E-02 2.06370E-03-1.34670E-13
 -1      2066 1.49606E-02 1.94091E-03-1.37496E-13
 -1      2067 1.49881E-02 1.98312E-03-1.37248E-13
 -1      2068 1.48781E-02 1.98004E-03-1.35169E-13
 -1      2069 1.49057E-02 1.85649E-03-1.37985E-13
 -1      2070 1.49331E-02 1.89870E-03-1.37742E-13
 -1      2071 1.48231E-02 1.89565E-03-1.35664E-13
 -1      2072 1.48508E-02 1.77206E-03-1.38477E-13
 -1      2073 1.48782E-02 1.81427E-03-1.38230E-13
 -1      2074 1.47682E-02 1.81125E-03-1.36156E-13
 -1      2075 1.47961E-02 1.68762E-03-1.38969E-13
 -1      2076 1.48235E-02 1.72984E-03-1.38723E-13
 -1      2077 1.47134E-02 1.72685E-03-1.36648E-13
 -1      2078 1.47415E-02 1.60319E-03-1.39464E-13
 -1      2079 1.47688E-02 1.64541E-03-1.39217E-13
 -1      2080 1.46587E-02 1.64244E-03-1.37143E-13
 -1      2081 1.46880E-02 1.52021E-03-1.39955E-13
 -1      2082 1.47148E-02 1.56170E-03-1.39709E-13
 -1      2083 1.46046E-02 1.55876E-03-1.37635E-13
 -1      2084 1.46336E-02 1.43581E-03-1.40453E-13
 -1      2085 1.46608E-02 1.47801E-03-1.40204E-13
 -1      2086 1.45506E-02 1.47509E-03-1.38126E-13
 -1      2087 1.45792E-02 1.35144E-03-1.40949E-13
 -1      2088 1.46064E-02 1.39362E-03-1.40700E-13
 -1      2089 1.44962E-02 1.39071E-03-1.38619E-13
 -1      2090 1.45249E-02 1.26709E-03-1.41435E-13
 -1      2091 1.45521E-02 1.30926E-03-1.41192E-13
 -1      2092 1.44419E-02 1.30636E-03-1.39106E-13
 -1      2093 7.30206E-03 5.56547E-04-2.52862E-14
 -1      2094 7.43844E-03 4.99539E-04-2.58115E-14
 -1      2095 7.66378E-03 3.98030E-04-2.67969E-14
 -1      2096 7.64830E-03 3.81587E-04-2.68498E-14
 -1      2097 7.56856E-03 4.47854E-04-2.63444E-14
 -1      2098 7.63531E-03 4.23591E-04-2.65833E-14
 -1      2099 6.97480E-03 7.00346E-04-2.43514E-14
 -1      2100 7.14319E-03 6.22728E-04-2.48501E-14
 -1      2101 6.57324E-03 9.18980E-04-2.29249E-14
 -1      2102 6.75822E-03 8.15212E-04-2.35738E-14
 -1      2103 3.28304E-04-7.22538E-05-2.02407E-16
 -1      2104 3.31838E-04-8.51498E-05-1.97745E-16
 -1      2105 4.50728E-04-1.23023E-04-2.89170E-16
 -1      2106 4.40308E-04-8.87226E-05-3.01611E-16
 -1      2107 5.81752E-03 1.30071E-03-2.00204E-14
 -1      2108 5.98461E-03 1.22724E-03-2.07570E-14
 -1      2109 5.44833E-03 1.35350E-03-1.83590E-14
 -1      2110 5.60294E-03 1.35008E-03-1.90408E-14
 -1      2111 5.14535E-03 1.28277E-03-1.71391E-14
 -1      2112 5.29594E-03 1.33132E-03-1.77432E-14
 -1      2113 5.38074E-03 1.35455E-03-1.79480E-14
 -1      2114 4.78497E-03 1.09643E-03-1.58121E-14
 -1      2115 4.96066E-03 1.20013E-03-1.64250E-14
 -1      2116 4.31467E-03 8.20979E-04-1.47175E-14
 -1      2117 4.51868E-03 9.37964E-04-1.51021E-14
 -1      2118 3.93400E-03 6.03680E-04-1.39725E-14
 -1      2119 4.12260E-03 7.11908E-04-1.43415E-14
 -1      2120 4.23967E-03 7.41626E-04-1.41516E-14
 -1      2121 3.52374E-03 4.16916E-04-1.34412E-14
 -1      2122 3.69595E-03 4.87560E-04-1.36222E-14
 -1      2123 3.26081E-03 3.11901E-04-1.31209E-14
 -1      2124 3.38129E-03 3.58165E-04-1.32796E-14
 -1      2125 3.46258E-03 3.59600E-04-1.29460E-14
 -1      2126 3.09233E-03 2.45740E-04-1.29379E-14
 -1      2127 3.15016E-03 2.67562E-04-1.29876E-14
 -1      2128 3.11251E-03 2.02486E-04-1.33159E-14
 -1      2129 3.07868E-03 2.21488E-04-1.31122E-14
 -1      2130 3.28090E-03 1.43150E-04-1.36304E-14
 -1      2131 3.17907E-03 1.74114E-04-1.34708E-14
 -1      2132 3.14121E-03 1.93264E-04-1.30215E-14
 -1      2133 3.59894E-03 2.03529E-05-1.43232E-14
 -1      2134 3.43918E-03 8.49238E-05-1.39570E-14
 -1      2135 3.98474E-03-1.55566E-04-1.52037E-14
 -1      2136 3.78887E-03-6.33056E-05-1.47569E-14
 -1      2137 4.42045E-03-3.90216E-04-1.65655E-14
 -1      2138 4.23370E-03-2.85630E-04-1.59327E-14
 -1      2139 4.76402E-03-5.52945E-04-1.77606E-14
 -1      2140 4.59570E-03-4.75878E-04-1.71558E-14
 -1      2141 4.52535E-03-4.31187E-04-1.66872E-14
 -1      2142 5.12000E-03-6.59776E-04-1.92642E-14
 -1      2143 4.96887E-03-6.25264E-04-1.85624E-14
 -1      2144 5.45395E-03-6.37132E-04-2.08192E-14
 -1      2145 5.30105E-03-6.61480E-04-2.00961E-14
 -1      2146 5.78456E-03-5.06591E-04-2.24202E-14
 -1      2147 5.62398E-03-5.84967E-04-2.16755E-14
 -1      2148 6.21524E-03-2.76172E-04-2.38733E-14
 -1      2149 6.02520E-03-3.82186E-04-2.32899E-14
 -1      2150 6.61687E-03-6.18887E-05-2.49296E-14
 -1      2151 6.42453E-03-1.67500E-04-2.44108E-14
 -1      2152 7.02093E-03 1.39441E-04-2.59251E-14
 -1      2153 6.83683E-03 5.63576E-05-2.55618E-14
 -1      2154 7.35413E-03 2.68653E-04-2.64536E-14
 -1      2155 7.20582E-03 2.10499E-04-2.61715E-14
 -1      2156 7.58764E-03 3.54924E-04-2.68731E-14
 -1      2157 7.49623E-03 3.26694E-04-2.67913E-14
 -1      2158 6.19381E-03 1.12427E-03-2.15978E-14
 -1      2159 6.37472E-03 1.02386E-03-2.22630E-14
 -1      2160 6.85595E-03 7.43279E-04-2.43414E-14
 -1      2161 6.19707E-04-2.73854E-04-3.21127E-16
 -1      2162 6.45857E-03 9.62438E-04-2.28875E-14
 -1      2163 6.08698E-03 1.17573E-03-2.13664E-14
 -1      2164 6.76695E-04-2.64222E-04-4.24587E-16
 -1      2165 7.50976E-03 4.62385E-04-2.65577E-14
 -1      2166 7.56922E-03 4.43717E-04-2.73105E-14
 -1      2167 7.44384E-03 4.80445E-04-2.67666E-14
 -1      2168 7.66045E-03 4.10881E-04-2.73149E-14
 -1      2169 1.44614E-02 1.22522E-03-1.40962E-13
 -1      2170 7.21488E-03 5.72989E-04-2.55759E-14
 -1      2171 7.62565E-03 3.81314E-04-2.75552E-14
 -1      2172 7.42575E-03 3.21247E-04-2.72357E-14
 -1      2173 7.10026E-03 2.02611E-04-2.66423E-14
 -1      2174 6.71161E-03 2.23392E-05-2.57443E-14
 -1      2175 6.29884E-03-2.04520E-04-2.45601E-14
 -1      2176 5.88373E-03-4.44613E-04-2.31302E-14
 -1      2177 5.52398E-03-6.20133E-04-2.13900E-14
 -1      2178 4.87490E-03-5.96392E-04-1.80662E-14
 -1      2179 4.12406E-03-2.12947E-04-1.53753E-14
 -1      2180 4.01505E-03-1.50996E-04-1.48295E-14
 -1      2181 4.24487E-03-2.73823E-04-1.55448E-14
 -1      2182 3.35795E-03 1.24941E-04-1.34898E-14
 -1      2183 3.20485E-03 2.71356E-04-1.26580E-14
 -1      2184 3.82691E-03 5.20032E-04-1.34426E-14
 -1      2185 5.07844E-03 1.25180E-03-1.66224E-14
 -1      2186 5.70694E-03 1.34157E-03-1.95343E-14
 -1      2187 5.80041E-03 1.31746E-03-2.00338E-14
 -1      2188 5.61892E-03 1.36618E-03-1.90530E-14
 -1      2189 4.67307E-03 1.01232E-03-1.52116E-14
 -1      2190 4.79530E-03 1.08194E-03-1.53174E-14
 -1      2191 4.56236E-03 9.27951E-04-1.46253E-14
 -1      2192 3.07089E-03 2.27700E-04-1.26964E-14
 -1      2193 3.07773E-03 2.26453E-04-1.22871E-14
 -1      2194 3.06596E-03 2.17380E-04-1.24568E-14
 -1      2195 3.70011E-03-7.17714E-06-1.42342E-14
 -1      2196 5.20281E-03-6.72212E-04-1.96970E-14
 -1      2197 1.04165E-03 3.51698E-04-5.99035E-16
 -1      2198 8.92399E-04 3.22097E-04-4.30225E-16
 -1      2199 5.36239E-04-3.96226E-05-4.35632E-16
 -1      2200 5.39438E-04-5.32461E-05-4.36784E-16
 -1      2201 5.43346E-04-6.79180E-05-4.36703E-16
 -1      2202 5.47901E-04-8.37395E-05-4.35131E-16
 -1      2203 6.54446E-04-7.18362E-05-5.92123E-16
 -1      2204 5.30606E-04 8.89712E-06-4.20955E-16
 -1      2205 5.30870E-04-2.70039E-06-4.26064E-16
 -1      2206 5.32516E-04 3.23408E-05-4.08039E-16
 -1      2207 5.31152E-04 2.05280E-05-4.15100E-16
 -1      2208 6.40714E-04 1.77112E-05-5.67377E-16
 -1      2209 5.37661E-04 5.71182E-05-3.90746E-16
 -1      2210 5.34691E-04 4.44227E-05-4.00057E-16
 -1      2211 6.44154E-04 4.57073E-05-5.49270E-16
 -1      2212 5.46278E-04 8.60134E-05-3.67260E-16
 -1      2213 5.41559E-04 7.09998E-05-3.79932E-16
 -1      2214 6.51879E-04 7.61707E-05-5.24849E-16
 -1      2215 5.58512E-04 1.20852E-04-3.35249E-16
 -1      2216 5.51953E-04 1.02576E-04-3.52610E-16
 -1      2217 6.64088E-04 1.11630E-04-4.92241E-16
 -1      2218 5.75228E-04 1.64403E-04-2.91339E-16
 -1      2219 5.66291E-04 1.41384E-04-3.15218E-16
 -1      2220 6.81036E-04 1.54335E-04-4.48467E-16
 -1      2221 1.33869E-03 3.95687E-04-1.03109E-15
 -1      2222 1.19019E-03 3.76099E-04-7.98664E-16
 -1      2223 1.09543E-03 3.29322E-04-7.53060E-16
 -1      2224 9.33535E-04-3.07149E-04-8.01686E-16
 -1      2225 1.08148E-03-3.35071E-04-1.05040E-15
 -1      2226 6.38881E-03 1.00281E-03-2.29249E-14
 -1      2227 6.55626E-03 9.01272E-04-2.36026E-14
 -1      2228 1.22907E-03-3.58492E-04-1.33459E-15
 -1      2229 1.37668E-03-3.77883E-04-1.65452E-15
 -1      2230 1.13721E-03-3.12711E-04-1.21702E-15
 -1      2231 1.52422E-03-3.94244E-04-2.01007E-15
 -1      2232 1.67202E-03-4.07982E-04-2.40162E-15
 -1      2233 1.43120E-03-3.50378E-04-1.86044E-15
 -1      2234 1.82016E-03-4.19977E-04-2.82813E-15
 -1      2235 1.96882E-03-4.30646E-04-3.29035E-15
 -1      2236 1.72597E-03-3.77000E-04-2.64410E-15
 -1      2237 2.11817E-03-4.40759E-04-3.78780E-15
 -1      2238 2.26829E-03-4.50754E-04-4.32048E-15
 -1      2239 2.02249E-03-3.97418E-04-3.56803E-15
 -1      2240 2.41940E-03-4.61328E-04-4.88879E-15
 -1      2241 2.57144E-03-4.72953E-04-5.49230E-15
 -1      2242 2.32188E-03-4.16246E-04-4.63171E-15
 -1      2243 2.72471E-03-4.86242E-04-6.13063E-15
 -1      2244 2.87899E-03-5.01673E-04-6.80447E-15
 -1      2245 2.62533E-03-4.38017E-04-5.83488E-15
 -1      2246 3.03462E-03-5.19718E-04-7.51330E-15
 -1      2247 3.19118E-03-5.40774E-04-8.25724E-15
 -1      2248 2.93390E-03-4.67142E-04-7.17715E-15
 -1      2249 3.34902E-03-5.65056E-04-9.03604E-15
 -1      2250 3.50746E-03-5.92710E-04-9.85090E-15
 -1      2251 3.24829E-03-5.07531E-04-8.65871E-15
 -1      2252 3.66680E-03-6.23523E-04-1.07001E-14
 -1      2253 3.82611E-03-6.57131E-04-1.15843E-14
 -1      2254 3.56823E-03-5.61699E-04-1.02800E-14
 -1      2255 3.98553E-03-6.92721E-04-1.25045E-14
 -1      2256 4.14403E-03-7.29081E-04-1.34597E-14
 -1      2257 3.89189E-03-6.29179E-04-1.20409E-14
 -1      2258 4.30151E-03-7.64735E-04-1.44499E-14
 -1      2259 4.45733E-03-7.97579E-04-1.54767E-14
 -1      2260 4.21545E-03-7.04243E-04-1.39415E-14
 -1      2261 4.61113E-03-8.25669E-04-1.65398E-14
 -1      2262 4.76320E-03-8.46428E-04-1.76376E-14
 -1      2263 4.53394E-03-7.74136E-04-1.59842E-14
 -1      2264 4.91307E-03-8.58046E-04-1.87718E-14
 -1      2265 5.06221E-03-8.58647E-04-1.99422E-14
 -1      2266 4.84402E-03-8.20067E-04-1.81717E-14
 -1      2267 5.21022E-03-8.47367E-04-2.11482E-14
 -1      2268 5.35907E-03-8.23932E-04-2.23885E-14
 -1      2269 5.14710E-03-8.23451E-04-2.05027E-14
 -1      2270 5.50834E-03-7.88906E-04-2.36639E-14
 -1      2271 5.65984E-03-7.43963E-04-2.49739E-14
 -1      2272 5.44933E-03-7.75201E-04-2.29770E-14
 -1      2273 5.81304E-03-6.90730E-04-2.63175E-14
 -1      2274 5.96848E-03-6.31699E-04-2.76943E-14
 -1      2275 5.75776E-03-6.81177E-04-2.55904E-14
 -1      2276 6.12576E-03-5.68923E-04-2.91027E-14
 -1      2277 6.28446E-03-5.04689E-04-3.05412E-14
 -1      2278 6.07507E-03-5.58704E-04-2.83382E-14
 -1      2279 6.44438E-03-4.40653E-04-3.20098E-14
 -1      2280 6.60456E-03-3.78284E-04-3.35107E-14
 -1      2281 6.39873E-03-4.27382E-04-3.12120E-14
 -1      2282 6.76507E-03-3.18609E-04-3.50415E-14
 -1      2283 6.92495E-03-2.62210E-04-3.65985E-14
 -1      2284 6.72392E-03-3.01911E-04-3.42063E-14
 -1      2285 7.08446E-03-2.09517E-04-3.81855E-14
 -1      2286 7.24287E-03-1.60540E-04-3.98000E-14
 -1      2287 7.04640E-03-1.89965E-04-3.73180E-14
 -1      2288 7.40049E-03-1.15276E-04-4.14415E-14
 -1      2289 7.55686E-03-7.34463E-05-4.31113E-14
 -1      2290 7.36385E-03-9.36127E-05-4.05406E-14
 -1      2291 7.71228E-03-3.47984E-05-4.48075E-14
 -1      2292 7.86650E-03 1.03200E-06-4.65272E-14
 -1      2293 7.67562E-03-1.16587E-05-4.38728E-14
 -1      2294 8.01976E-03 3.43997E-05-4.82710E-14
 -1      2295 8.17196E-03 6.56528E-05-5.00382E-14
 -1      2296 7.98210E-03 5.85345E-05-4.73065E-14
 -1      2297 8.32326E-03 9.51518E-05-5.18246E-14
 -1      2298 8.47367E-03 1.23188E-04-5.36330E-14
 -1      2299 8.28408E-03 1.19919E-04-5.08306E-14
 -1      2300 8.62328E-03 1.50077E-04-5.54644E-14
 -1      2301 8.77215E-03 1.76043E-04-5.73155E-14
 -1      2302 8.58241E-03 1.75200E-04-5.44413E-14
 -1      2303 8.92032E-03 2.01337E-04-5.91854E-14
 -1      2304 9.06789E-03 2.26123E-04-6.10720E-14
 -1      2305 8.87783E-03 2.26605E-04-5.81358E-14
 -1      2306 9.21488E-03 2.50584E-04-6.29777E-14
 -1      2307 9.36138E-03 2.74836E-04-6.48993E-14
 -1      2308 9.17098E-03 2.75843E-04-6.19033E-14
 -1      2309 9.50739E-03 2.99001E-04-6.68377E-14
 -1      2310 9.65302E-03 3.23157E-04-6.87933E-14
 -1      2311 9.46234E-03 3.24145E-04-6.57400E-14
 -1      2312 9.79825E-03 3.47380E-04-7.07625E-14
 -1      2313 9.94317E-03 3.71718E-04-7.27460E-14
 -1      2314 9.75229E-03 3.72342E-04-6.96425E-14
 -1      2315 1.00878E-02 3.96212E-04-7.47467E-14
 -1      2316 1.02321E-02 4.20890E-04-7.67597E-14
 -1      2317 1.00412E-02 4.20959E-04-7.36054E-14
 -1      2318 1.03763E-02 4.45767E-04-7.87878E-14
 -1      2319 1.05202E-02 4.70858E-04-8.08316E-14
 -1      2320 1.03292E-02 4.70289E-04-7.76288E-14
 -1      2321 1.06640E-02 4.96162E-04-8.28860E-14
 -1      2322 1.08076E-02 5.21682E-04-8.49549E-14
 -1      2323 1.06166E-02 5.20464E-04-8.17061E-14
 -1      2324 1.09510E-02 5.47408E-04-8.70376E-14
 -1      2325 1.10944E-02 5.73340E-04-8.91333E-14
 -1      2326 1.09035E-02 5.71508E-04-8.58379E-14
 -1      2327 1.12377E-02 5.99460E-04-9.12414E-14
 -1      2328 1.13808E-02 6.25764E-04-9.33607E-14
 -1      2329 1.11900E-02 6.23380E-04-9.00241E-14
 -1      2330 1.15239E-02 6.52233E-04-9.54916E-14
 -1      2331 1.16670E-02 6.78862E-04-9.76332E-14
 -1      2332 1.14762E-02 6.75998E-04-9.42579E-14
 -1      2333 1.18100E-02 7.05631E-04-9.97858E-14
 -1      2334 1.19530E-02 7.32533E-04-1.01949E-13
 -1      2335 1.17623E-02 7.29266E-04-9.85364E-14
 -1      2336 1.20959E-02 7.59551E-04-1.04125E-13
 -1      2337 1.22388E-02 7.86678E-04-1.06310E-13
 -1      2338 1.20482E-02 7.83080E-04-1.02859E-13
 -1      2339 1.23817E-02 8.13898E-04-1.08504E-13
 -1      2340 1.25245E-02 8.41204E-04-1.10709E-13
 -1      2341 1.23340E-02 8.37343E-04-1.07223E-13
 -1      2342 1.26674E-02 8.68583E-04-1.12922E-13
 -1      2343 1.28102E-02 8.96029E-04-1.15139E-13
 -1      2344 1.26197E-02 8.91963E-04-1.11628E-13
 -1      2345 1.29531E-02 9.23529E-04-1.17363E-13
 -1      2346 1.30959E-02 9.51079E-04-1.19596E-13
 -1      2347 1.29055E-02 9.46860E-04-1.16061E-13
 -1      2348 1.32387E-02 9.78667E-04-1.21833E-13
 -1      2349 1.33816E-02 1.00629E-03-1.24070E-13
 -1      2350 1.31912E-02 1.00197E-03-1.20517E-13
 -1      2351 1.35244E-02 1.03394E-03-1.26313E-13
 -1      2352 1.36672E-02 1.06161E-03-1.28562E-13
 -1      2353 1.34769E-02 1.05722E-03-1.24992E-13
 -1      2354 1.38101E-02 1.08929E-03-1.30814E-13
 -1      2355 1.39529E-02 1.11699E-03-1.33072E-13
 -1      2356 1.37625E-02 1.11256E-03-1.29484E-13
 -1      2357 1.93570E-03 4.43766E-04-2.28603E-15
 -1      2358 1.78538E-03 4.35009E-04-1.92302E-15
 -1      2359 2.23974E-03 4.59077E-04-3.11136E-15
 -1      2360 2.08703E-03 4.51610E-04-2.68240E-15
 -1      2361 1.98476E-03 4.10309E-04-2.57550E-15
 -1      2362 2.54982E-03 4.76366E-04-4.06557E-15
 -1      2363 2.39389E-03 4.67100E-04-3.57205E-15
 -1      2364 2.28578E-03 4.24554E-04-3.44330E-15
 -1      2365 2.86764E-03 5.02767E-04-5.14953E-15
 -1      2366 2.70766E-03 4.87950E-04-4.59179E-15
 -1      2367 2.59166E-03 4.41883E-04-4.43935E-15
 -1      2368 3.19507E-03 5.47058E-04-6.36145E-15
 -1      2369 3.03012E-03 5.22062E-04-5.73914E-15
 -1      2370 2.90446E-03 4.69445E-04-5.56417E-15
 -1      2371 3.53412E-03 6.19576E-04-7.70128E-15
 -1      2372 3.36325E-03 5.79058E-04-7.01519E-15
 -1      2373 3.22704E-03 5.16081E-04-6.81622E-15
 -1      2374 3.88639E-03 7.30726E-04-9.16877E-15
 -1      2375 3.70898E-03 6.69627E-04-8.41849E-15
 -1      2376 3.56320E-03 5.92348E-04-8.19451E-15
 -1      2377 4.25111E-03 8.86565E-04-1.07683E-14
 -1      2378 4.06803E-03 8.02922E-04-9.95181E-15
 -1      2379 3.91680E-03 7.09350E-04-9.69987E-15
 -1      2380 4.62190E-03 1.07965E-03-1.25062E-14
 -1      2381 4.43701E-03 9.79795E-04-1.16194E-14
 -1      2382 4.28844E-03 8.74112E-04-1.13373E-14
 -1      2383 4.98638E-03 1.27725E-03-1.43903E-14
 -1      2384 4.80606E-03 1.18157E-03-1.34305E-14
 -1      2385 4.67030E-03 1.07841E-03-1.31132E-14
 -1      2386 5.33354E-03 1.42044E-03-1.64301E-14
 -1      2387 5.16120E-03 1.36020E-03-1.53902E-14
 -1      2388 5.04505E-03 1.28202E-03-1.50382E-14
 -1      2389 5.67003E-03 1.45467E-03-1.86273E-14
 -1      2390 5.50046E-03 1.45292E-03-1.75082E-14
 -1      2391 5.40110E-03 1.41231E-03-1.71198E-14
 -1      2392 6.01457E-03 1.37566E-03-2.09789E-14
 -1      2393 5.83903E-03 1.42643E-03-1.97844E-14
 -1      2394 5.75025E-03 1.41284E-03-1.93628E-14
 -1      2395 6.37700E-03 1.23447E-03-2.34831E-14
 -1      2396 6.19359E-03 1.30854E-03-2.22123E-14
 -1      2397 6.11301E-03 1.29920E-03-2.17636E-14
 -1      2398 6.74976E-03 1.09157E-03-2.61261E-14
 -1      2399 6.56402E-03 1.16003E-03-2.47874E-14
 -1      2400 6.49383E-03 1.14107E-03-2.43136E-14
 -1      2401 7.11853E-03 9.84177E-04-2.89033E-14
 -1      2402 6.93602E-03 1.03219E-03-2.74992E-14
 -1      2403 6.87571E-03 1.00209E-03-2.70023E-14
 -1      2404 7.47581E-03 9.23048E-04-3.17993E-14
 -1      2405 7.29926E-03 9.47934E-04-3.03366E-14
 -1      2406 7.24315E-03 9.09858E-04-2.98190E-14
 -1      2407 7.82027E-03 9.03498E-04-3.48123E-14
 -1      2408 7.64982E-03 9.08658E-04-3.32916E-14
 -1      2409 7.59216E-03 8.65251E-04-3.27539E-14
 -1      2410 8.15337E-03 9.15840E-04-3.79338E-14
 -1      2411 7.98821E-03 9.06312E-04-3.63585E-14
 -1      2412 7.92538E-03 8.59140E-04-3.57988E-14
 -1      2413 8.47708E-03 9.50446E-04-4.11635E-14
 -1      2414 8.31629E-03 9.30891E-04-3.95359E-14
 -1      2415 8.24689E-03 8.80983E-04-3.89521E-14
 -1      2416 8.79312E-03 9.99510E-04-4.44999E-14
 -1      2417 8.63594E-03 9.73575E-04-4.28184E-14
 -1      2418 8.56007E-03 9.21761E-04-4.22141E-14
 -1      2419 9.10287E-03 1.05732E-03-4.79346E-14
 -1      2420 8.94866E-03 1.02761E-03-4.62064E-14
 -1      2421 8.86721E-03 9.74590E-04-4.55779E-14
 -1      2422 9.40742E-03 1.11994E-03-5.14607E-14
 -1      2423 9.25568E-03 1.08823E-03-4.96850E-14
 -1      2424 9.16977E-03 1.03456E-03-4.90393E-14
 -1      2425 9.70772E-03 1.18482E-03-5.50766E-14
 -1      2426 9.55801E-03 1.15224E-03-5.32597E-14
 -1      2427 9.46873E-03 1.09833E-03-5.25917E-14
 -1      2428 1.00046E-02 1.25035E-03-5.87712E-14
 -1      2429 9.85649E-03 1.21760E-03-5.69142E-14
 -1      2430 9.76477E-03 1.16372E-03-5.62299E-14
 -1      2431 1.02986E-02 1.31557E-03-6.25392E-14
 -1      2432 1.01519E-02 1.28306E-03-6.06454E-14
 -1      2433 1.00585E-02 1.22939E-03-5.99433E-14
 -1      2434 1.05905E-02 1.37997E-03-6.63768E-14
 -1      2435 1.04448E-02 1.34791E-03-6.44493E-14
 -1      2436 1.03502E-02 1.29453E-03-6.37297E-14
 -1      2437 1.08807E-02 1.44329E-03-7.02803E-14
 -1      2438 1.07358E-02 1.41178E-03-6.83204E-14
 -1      2439 1.06405E-02 1.35874E-03-6.75845E-14
 -1      2440 1.11695E-02 1.50549E-03-7.42550E-14
 -1      2441 1.10252E-02 1.47454E-03-7.22600E-14
 -1      2442 1.09295E-02 1.42183E-03-7.15079E-14
 -1      2443 1.14574E-02 1.56658E-03-7.82914E-14
 -1      2444 1.13136E-02 1.53618E-03-7.62663E-14
 -1      2445 1.12176E-02 1.48377E-03-7.54983E-14
 -1      2446 1.17446E-02 1.62667E-03-8.23859E-14
 -1      2447 1.16011E-02 1.59675E-03-8.03306E-14
 -1      2448 1.15050E-02 1.54462E-03-7.95501E-14
 -1      2449 1.20312E-02 1.68587E-03-8.65356E-14
 -1      2450 1.18879E-02 1.65638E-03-8.44559E-14
 -1      2451 1.17918E-02 1.60448E-03-8.36589E-14
 -1      2452 1.23175E-02 1.74431E-03-9.07383E-14
 -1      2453 1.21744E-02 1.71518E-03-8.86301E-14
 -1      2454 1.20783E-02 1.66348E-03-8.78219E-14
 -1      2455 1.26035E-02 1.80212E-03-9.49932E-14
 -1      2456 1.24605E-02 1.77329E-03-9.28581E-14
 -1      2457 1.23644E-02 1.72175E-03-9.20366E-14
 -1      2458 1.28893E-02 1.85941E-03-9.92967E-14
 -1      2459 1.27464E-02 1.83082E-03-9.71376E-14
 -1      2460 1.26504E-02 1.77941E-03-9.63028E-14
 -1      2461 1.31750E-02 1.91629E-03-1.03642E-13
 -1      2462 1.30322E-02 1.88790E-03-1.01465E-13
 -1      2463 1.29362E-02 1.83658E-03-1.00618E-13
 -1      2464 1.34607E-02 1.97284E-03-1.08024E-13
 -1      2465 1.33179E-02 1.94460E-03-1.05830E-13
 -1      2466 1.32220E-02 1.89337E-03-1.04971E-13
 -1      2467 1.37463E-02 2.02916E-03-1.12427E-13
 -1      2468 1.36035E-02 2.00103E-03-1.10222E-13
 -1      2469 1.35077E-02 1.94985E-03-1.09355E-13
 -1      2470 1.40320E-02 2.08529E-03-1.16855E-13
 -1      2471 1.38891E-02 2.05724E-03-1.14639E-13
 -1      2472 1.37933E-02 2.00611E-03-1.13764E-13
 -1      2473 1.43176E-02 2.14131E-03-1.21301E-13
 -1      2474 1.41748E-02 2.11331E-03-1.19075E-13
 -1      2475 1.40790E-02 2.06220E-03-1.18196E-13
 -1      2476 1.46033E-02 2.19726E-03-1.25765E-13
 -1      2477 1.44604E-02 2.16929E-03-1.23531E-13
 -1      2478 1.43647E-02 2.11819E-03-1.22645E-13
 -1      2479 1.48889E-02 2.25319E-03-1.30247E-13
 -1      2480 1.47461E-02 2.22522E-03-1.28003E-13
 -1      2481 1.46504E-02 2.17413E-03-1.27113E-13
 -1      2482 1.50373E-02 2.28312E-03-1.32565E-13
 -1      2483 1.47406E-02 1.93477E-03-1.33343E-13
 -1      2484 1.47681E-02 1.97695E-03-1.33093E-13
 -1      2485 1.46856E-02 1.85040E-03-1.33835E-13
 -1      2486 1.47131E-02 1.89259E-03-1.33589E-13
 -1      2487 1.46031E-02 1.88952E-03-1.31517E-13
 -1      2488 1.48498E-02 2.10205E-03-1.32337E-13
 -1      2489 1.48774E-02 2.14422E-03-1.32079E-13
 -1      2490 1.47954E-02 2.01878E-03-1.32842E-13
 -1      2491 1.48225E-02 2.06024E-03-1.32591E-13
 -1      2492 1.47126E-02 2.05713E-03-1.30514E-13
 -1      2493 1.46579E-02 1.97351E-03-1.31019E-13
 -1      2494 1.46308E-02 1.76603E-03-1.34327E-13
 -1      2495 1.46582E-02 1.80822E-03-1.34082E-13
 -1      2496 1.45482E-02 1.80517E-03-1.32010E-13
 -1      2497 1.45760E-02 1.68165E-03-1.34823E-13
 -1      2498 1.46034E-02 1.72384E-03-1.34577E-13
 -1      2499 1.44933E-02 1.72082E-03-1.32504E-13
 -1      2500 1.45214E-02 1.59728E-03-1.35317E-13
 -1      2501 1.45487E-02 1.63946E-03-1.35069E-13
 -1      2502 1.44386E-02 1.63647E-03-1.32998E-13
 -1      2503 1.44677E-02 1.51434E-03-1.35801E-13
 -1      2504 1.44945E-02 1.55581E-03-1.35559E-13
 -1      2505 1.43844E-02 1.55284E-03-1.33485E-13
 -1      2506 1.44133E-02 1.42997E-03-1.36294E-13
 -1      2507 1.44405E-02 1.47215E-03-1.36049E-13
 -1      2508 1.43304E-02 1.46921E-03-1.33973E-13
 -1      2509 1.43589E-02 1.34562E-03-1.36784E-13
 -1      2510 1.43861E-02 1.38780E-03-1.36540E-13
 -1      2511 1.42760E-02 1.38487E-03-1.34464E-13
 -1      2512 1.43046E-02 1.26128E-03-1.37263E-13
 -1      2513 1.43318E-02 1.30345E-03-1.37022E-13
 -1      2514 1.42216E-02 1.30053E-03-1.34946E-13
 -1      2515 7.65804E-03 4.20408E-04-2.80963E-14
 -1      2516 7.68340E-03 4.12127E-04-2.83171E-14
 -1      2517 7.16425E-03 5.87859E-04-2.60912E-14
 -1      2518 7.30438E-03 5.31605E-04-2.65437E-14
 -1      2519 1.63599E-03 4.24459E-04-1.59310E-15
 -1      2520 1.48712E-03 4.11673E-04-1.29570E-15
 -1      2521 1.68698E-03 3.93214E-04-1.83789E-15
 -1      2522 1.43345E-02 1.20209E-03-1.38919E-13
 -1      2523 7.66106E-03 3.97873E-04-2.82968E-14
 -1      2524 7.60399E-03 3.86970E-04-2.83199E-14
 -1      2525 5.98868E-04-2.11334E-04-3.86423E-16
 -1      2526 7.96095E-04-2.70589E-04-6.12317E-16
 -1      2527 8.54513E-04-2.56023E-04-7.39412E-16
 -1      2528 5.87375E-04-1.82963E-04-4.04692E-16
 -1      2529 7.48161E-03 3.53781E-04-2.81136E-14
 -1      2530 7.34278E-03 3.12676E-04-2.77681E-14
 -1      2531 3.15307E-03 2.46256E-04-1.21667E-14
 -1      2532 3.26154E-03 2.74455E-04-1.22954E-14
 -1      2533 5.03142E-03 1.22256E-03-1.61462E-14
 -1      2534 5.18439E-03 1.30141E-03-1.68518E-14
 -1      2535 5.31920E-04-1.45416E-05-4.30049E-16
 -1      2536 5.33711E-04-2.67591E-05-4.33261E-16
 -1      2537 6.46130E-04-3.93349E-05-5.88925E-16
 -1      2538 6.41448E-04-1.00809E-05-5.80482E-16
 -1      2539 5.31093E-03 1.34634E-03-1.74474E-14
 -1      2540 5.43075E-03 1.37061E-03-1.80567E-14
 -1      2541 5.24623E-03 1.32837E-03-1.69525E-14
 -1      2542 4.16338E-03 6.76738E-04-1.35736E-14
 -1      2543 4.33106E-03 7.78868E-04-1.39327E-14
 -1      2544 3.72242E-03 4.49534E-04-1.28739E-14
 -1      2545 3.93854E-03 5.54749E-04-1.32075E-14
 -1      2546 3.39524E-03 3.17427E-04-1.24013E-14
 -1      2547 3.52648E-03 3.64119E-04-1.25536E-14
 -1      2548 3.77899E-03-3.83011E-05-1.40069E-14
 -1      2549 3.60888E-03 3.50769E-05-1.35911E-14
 -1      2550 3.16375E-03 1.86286E-04-1.26907E-14
 -1      2551 3.10153E-03 2.00597E-04-1.25445E-14
 -1      2552 5.29154E-03-6.76416E-04-2.02710E-14
 -1      2553 5.14655E-03-6.76334E-04-1.94333E-14
 -1      2554 3.42249E-03 1.07075E-04-1.32204E-14
 -1      2555 3.27701E-03 1.52784E-04-1.29088E-14
 -1      2556 4.60579E-03-4.73539E-04-1.67978E-14
 -1      2557 4.45708E-03-3.90394E-04-1.62167E-14
 -1      2558 4.92755E-03-6.26079E-04-1.82333E-14
 -1      2559 4.76477E-03-5.53546E-04-1.74430E-14
 -1      2560 5.57270E-03-6.00105E-04-2.19812E-14
 -1      2561 5.43491E-03-6.51105E-04-2.11171E-14
 -1      2562 5.36109E-03-6.69556E-04-2.08388E-14
 -1      2563 5.98924E-03-3.70606E-04-2.40071E-14
 -1      2564 5.78920E-03-4.92032E-04-2.31178E-14
 -1      2565 6.39494E-03-1.28347E-04-2.53742E-14
 -1      2566 6.21626E-03-2.35504E-04-2.48200E-14
 -1      2567 6.79943E-03 9.21819E-05-2.66648E-14
 -1      2568 6.59686E-03-1.52840E-05-2.60156E-14
 -1      2569 6.50945E-03-5.66067E-05-2.62796E-14
 -1      2570 7.19585E-03 2.61209E-04-2.75072E-14
 -1      2571 7.02995E-03 1.97829E-04-2.72481E-14
 -1      2572 7.28247E-03 3.00208E-04-2.83816E-14
 -1      2573 6.02104E-03 1.22428E-03-2.12276E-14
 -1      2574 6.19045E-03 1.12379E-03-2.20839E-14
 -1      2575 7.74915E-04 2.98562E-04-3.10516E-16
 -1      2576 6.24551E-04 2.56173E-04-1.98409E-16
 -1      2577 5.96721E-04 2.29608E-04-2.11799E-16
 -1      2578 8.30781E-04 2.83119E-04-4.23828E-16
 -1      2579 6.75429E-03 7.89713E-04-2.43856E-14
 -1      2580 6.95253E-03 6.85828E-04-2.51804E-14
 -1      2581 6.68028E-03 8.40005E-04-2.44218E-14
 -1      2582 5.53547E-03 1.37994E-03-1.85317E-14
 -1      2583 6.66230E-04-1.09252E-04-5.88261E-16
 -1      2584 5.53211E-04-1.00988E-04-4.31702E-16
 -1      2585 5.59197E-04-1.19849E-04-4.26295E-16
 -1      2586 1.39099E-03 3.67973E-04-1.23094E-15
 -1      2587 5.82391E-04 1.98779E-04-2.46168E-16
 -1      2588 6.92403E-03 1.55822E-04-2.75222E-14
 -1      2589 7.55341E-03 3.78500E-04-2.88559E-14
 -1      2590 5.68669E-03-5.46839E-04-2.28276E-14
 -1      2591 5.60309E-03-5.90548E-04-2.25369E-14
 -1      2592 5.79780E-03-4.87385E-04-2.36913E-14
 -1      2593 7.40005E-03 5.03439E-04-2.72911E-14
 -1      2594 5.02919E-03-6.62595E-04-1.87792E-14
 -1      2595 4.91725E-03-6.35800E-04-1.81356E-14
 -1      2596 5.11401E-03-6.82607E-04-1.93323E-14
 -1      2597 1.49416E-02 2.23201E-03-1.31668E-13
 -1      2598 7.07632E-03 6.36840E-04-2.61332E-14
 -1      2599 1.49041E-02 2.19580E-03-1.31624E-13
 -1      2600 4.67864E-03-5.19472E-04-1.69555E-14
 -1      2601 7.69292E-03 4.13361E-04-2.90839E-14
 -1      2602 7.63340E-03 4.32829E-04-2.83063E-14
 -1      2603 7.68583E-03 4.33782E-04-2.93119E-14
 -1      2604 7.59960E-03 4.47265E-04-2.85146E-14
 -1      2605 3.49202E-03 6.97240E-05-1.29999E-14
 -1      2606 7.00459E-04 2.16280E-04-3.68669E-16
 -1      2607 5.77864E-04-1.57831E-04-4.18312E-16
 -1      2608 3.20678E-03 1.65309E-04-1.24285E-14
 -1      2609 3.09841E-03 2.28296E-04-1.19267E-14
 -1      2610 3.12791E-03 2.32334E-04-1.15709E-14
 -1      2611 3.05931E-03 2.17657E-04-1.16894E-14
 -1      2612 3.30992E-03 2.84417E-04-1.19111E-14
 -1      2613 3.89242E-03-9.50225E-05-1.41639E-14
 -1      2614 3.77331E-03-5.83213E-05-1.35142E-14
 -1      2615 3.99718E-03-1.56401E-04-1.43207E-14
 -1      2616 4.91619E-03 1.15611E-03-1.55319E-14
 -1      2617 5.01545E-03 1.21914E-03-1.57457E-14
 -1      2618 4.80171E-03 1.08461E-03-1.49316E-14
 -1      2619 4.33759E-03-3.27797E-04-1.56497E-14
 -1      2620 4.21880E-03-2.69362E-04-1.50942E-14
 -1      2621 4.40869E-03-3.79333E-04-1.57517E-14
 -1      2622 4.46083E-03 8.60981E-04-1.40286E-14
 -1      2623 6.30625E-03 1.06735E-03-2.27795E-14
 -1      2624 3.62395E-03 4.00651E-04-1.23250E-14
 -1      2625 5.92535E-03 1.28012E-03-2.07207E-14
 -1      2626 4.03031E-03 6.00155E-04-1.29947E-14
 -1      2627 3.06456E-03 2.05059E-04-1.21324E-14
 -1      2628 1.41759E-02 1.15802E-03-1.36641E-13
 -1      2629 1.42561E-02 1.22011E-03-1.37072E-13
 -1      2630 1.41460E-02 1.21720E-03-1.34990E-13
 -1      2631 1.40489E-02 1.13488E-03-1.34605E-13
 -1      2632 1.47666E-02 2.15051E-03-1.29807E-13
 -1      2633 6.10129E-03-3.01145E-04-2.48050E-14
 -1      2634 1.40014E-02 1.15815E-03-1.33265E-13
 -1      2635 7.57727E-04 6.11363E-05-7.11616E-16
 -1      2636 7.54343E-04 4.47268E-05-7.24925E-16
 -1      2637 7.52218E-04 2.85328E-05-7.36160E-16
 -1      2638 7.51439E-04 1.25967E-05-7.46080E-16
 -1      2639 8.65073E-04 4.12803E-05-9.26844E-16
 -1      2640 7.85109E-04 1.38959E-04-6.35180E-16
 -1      2641 7.76230E-04 1.17174E-04-6.58558E-16
 -1      2642 8.07387E-04 1.89107E-04-5.78110E-16
 -1      2643 7.95549E-04 1.62838E-04-6.09023E-16
 -1      2644 9.09264E-04 1.67619E-04-7.96170E-16
 -1      2645 1.14991E-03 3.06820E-04-9.16191E-16
 -1      2646 1.00330E-03 2.84253E-04-7.02333E-16
 -1      2647 6.94160E-04-1.71899E-04-5.76010E-16
 -1      2648 6.61849E-03 8.94682E-04-2.44641E-14
 -1      2649 6.79253E-03 7.93599E-04-2.52646E-14
 -1      2650 8.15349E-04 2.37927E-04-4.94572E-16
 -1      2651 7.62186E-03 3.97155E-04-2.97886E-14
 -1      2652 7.50606E-03 3.70983E-04-2.95780E-14
 -1      2653 5.47499E-03 1.38974E-03-1.80236E-14
 -1      2654 5.63794E-03 1.38365E-03-1.90212E-14
 -1      2655 1.33962E-03-3.07755E-04-1.71206E-15
 -1      2656 1.48598E-03-3.22521E-04-2.06989E-15
 -1      2657 1.63259E-03-3.35036E-04-2.46222E-15
 -1      2658 1.77964E-03-3.45678E-04-2.88937E-15
 -1      2659 1.54052E-03-2.94318E-04-2.28322E-15
 -1      2660 1.92718E-03-3.55118E-04-3.35127E-15
 -1      2661 2.07538E-03-3.63778E-04-3.84735E-15
 -1      2662 1.83272E-03-3.14065E-04-3.13752E-15
 -1      2663 2.22439E-03-3.72288E-04-4.37817E-15
 -1      2664 2.37434E-03-3.81141E-04-4.94353E-15
 -1      2665 2.12733E-03-3.29731E-04-4.12847E-15
 -1      2666 2.52553E-03-3.90913E-04-5.54309E-15
 -1      2667 2.67798E-03-4.02177E-04-6.17716E-15
 -1      2668 2.42564E-03-3.45377E-04-5.25558E-15
 -1      2669 2.83209E-03-4.15429E-04-6.84609E-15
 -1      2670 2.98778E-03-4.31311E-04-7.54911E-15
 -1      2671 2.72943E-03-3.65303E-04-6.51975E-15
 -1      2672 3.14551E-03-4.50184E-04-8.28661E-15
 -1      2673 3.30491E-03-4.72641E-04-9.05893E-15
 -1      2674 3.04071E-03-3.94047E-04-7.92014E-15
 -1      2675 3.46648E-03-4.98808E-04-9.86537E-15
 -1      2676 3.62944E-03-5.28975E-04-1.07068E-14
 -1      2677 3.36117E-03-4.36088E-04-9.45698E-15
 -1      2678 3.79411E-03-5.62853E-04-1.15828E-14
 -1      2679 3.95927E-03-5.99975E-04-1.24937E-14
 -1      2680 3.69112E-03-4.94856E-04-1.11308E-14
 -1      2681 4.12493E-03-6.39427E-04-1.34398E-14
 -1      2682 4.28957E-03-6.79260E-04-1.44199E-14
 -1      2683 4.02804E-03-5.70462E-04-1.29433E-14
 -1      2684 4.45282E-03-7.17857E-04-1.54359E-14
 -1      2685 4.61381E-03-7.51745E-04-1.64885E-14
 -1      2686 4.36554E-03-6.55521E-04-1.48946E-14
 -1      2687 4.77196E-03-7.78777E-04-1.75778E-14
 -1      2688 4.92798E-03-7.94994E-04-1.87024E-14
 -1      2689 4.69534E-03-7.31504E-04-1.69884E-14
 -1      2690 5.08148E-03-7.98640E-04-1.98631E-14
 -1      2691 5.23480E-03-7.87912E-04-2.10609E-14
 -1      2692 5.01336E-03-7.70614E-04-1.92291E-14
 -1      2693 5.38734E-03-7.62798E-04-2.22948E-14
 -1      2694 5.54247E-03-7.23882E-04-2.35634E-14
 -1      2695 5.32405E-03-7.50590E-04-2.16153E-14
 -1      2696 5.69916E-03-6.72842E-04-2.48674E-14
 -1      2697 5.85910E-03-6.13802E-04-2.62063E-14
 -1      2698 5.63928E-03-6.66800E-04-2.41483E-14
 -1      2699 6.02154E-03-5.48777E-04-2.75778E-14
 -1      2700 6.18574E-03-4.81278E-04-2.89822E-14
 -1      2701 5.96614E-03-5.40377E-04-2.68207E-14
 -1      2702 6.35135E-03-4.13232E-04-3.04162E-14
 -1      2703 6.51691E-03-3.47027E-04-3.18807E-14
 -1      2704 6.30258E-03-3.99259E-04-2.96227E-14
 -1      2705 6.68231E-03-2.83778E-04-3.33767E-14
 -1      2706 6.84627E-03-2.24272E-04-3.49023E-14
 -1      2707 6.64027E-03-2.64604E-04-3.25510E-14
 -1      2708 7.00901E-03-1.69003E-04-3.64539E-14
 -1      2709 7.16967E-03-1.17863E-04-3.80349E-14
 -1      2710 6.97219E-03-1.46613E-04-3.55945E-14
 -1      2711 7.32867E-03-7.09205E-05-3.96445E-14
 -1      2712 7.48560E-03-2.76759E-05-4.12793E-14
 -1      2713 7.29486E-03-4.69967E-05-3.87507E-14
 -1      2714 7.64090E-03 1.20362E-05-4.29425E-14
 -1      2715 7.79444E-03 4.87744E-05-4.46306E-14
 -1      2716 7.60803E-03 3.65113E-05-4.20168E-14
 -1      2717 7.94658E-03 8.28135E-05-4.63452E-14
 -1      2718 8.09735E-03 1.14636E-04-4.80826E-14
 -1      2719 7.91312E-03 1.07412E-04-4.53871E-14
 -1      2720 8.24703E-03 1.44541E-04-4.98408E-14
 -1      2721 8.39570E-03 1.72906E-04-5.16203E-14
 -1      2722 8.21205E-03 1.69128E-04-4.88547E-14
 -1      2723 8.54353E-03 2.00010E-04-5.34230E-14
 -1      2724 8.69064E-03 2.26126E-04-5.52470E-14
 -1      2725 8.50661E-03 2.24558E-04-5.24092E-14
 -1      2726 8.83712E-03 2.51489E-04-5.70898E-14
 -1      2727 8.98310E-03 2.76290E-04-5.89520E-14
 -1      2728 8.79818E-03 2.75995E-04-5.60483E-14
 -1      2729 9.12861E-03 3.00712E-04-6.08343E-14
 -1      2730 9.27375E-03 3.24882E-04-6.27320E-14
 -1      2731 9.08776E-03 3.25168E-04-5.97671E-14
 -1      2732 9.41855E-03 3.48930E-04-6.46454E-14
 -1      2733 9.56309E-03 3.72941E-04-6.65778E-14
 -1      2734 9.37605E-03 3.73320E-04-6.35563E-14
 -1      2735 9.70737E-03 3.96998E-04-6.85265E-14
 -1      2736 9.85146E-03 4.21153E-04-7.04888E-14
 -1      2737 9.66349E-03 4.21303E-04-6.74138E-14
 -1      2738 9.99536E-03 4.45457E-04-7.24678E-14
 -1      2739 1.01391E-02 4.69936E-04-7.44614E-14
 -1      2740 9.95039E-03 4.69659E-04-7.13339E-14
 -1      2741 1.02827E-02 4.94616E-04-7.64709E-14
 -1      2742 1.04262E-02 5.19508E-04-7.84938E-14
 -1      2743 1.02369E-02 5.18705E-04-7.53161E-14
 -1      2744 1.05696E-02 5.44620E-04-8.05289E-14
 -1      2745 1.07130E-02 5.69953E-04-8.25788E-14
 -1      2746 1.05232E-02 5.68591E-04-7.93550E-14
 -1      2747 1.08562E-02 5.95502E-04-8.46420E-14
 -1      2748 1.09994E-02 6.21264E-04-8.67196E-14
 -1      2749 1.08093E-02 6.19357E-04-8.34497E-14
 -1      2750 1.11425E-02 6.47226E-04-8.88104E-14
 -1      2751 1.12856E-02 6.73382E-04-9.09132E-14
 -1      2752 1.10953E-02 6.70971E-04-8.75996E-14
 -1      2753 1.14286E-02 6.99715E-04-9.30294E-14
 -1      2754 1.15717E-02 7.26217E-04-9.51539E-14
 -1      2755 1.13813E-02 7.23360E-04-9.18007E-14
 -1      2756 1.17146E-02 7.52871E-04-9.72881E-14
 -1      2757 1.18576E-02 7.79668E-04-9.94361E-14
 -1      2758 1.16671E-02 7.76428E-04-9.60455E-14
 -1      2759 1.20005E-02 8.06592E-04-1.01596E-13
 -1      2760 1.21434E-02 8.33635E-04-1.03766E-13
 -1      2761 1.19530E-02 8.30074E-04-1.00335E-13
 -1      2762 1.22863E-02 8.60779E-04-1.05946E-13
 -1      2763 1.24292E-02 8.88019E-04-1.08136E-13
 -1      2764 1.22387E-02 8.84197E-04-1.04669E-13
 -1      2765 1.25721E-02 9.15340E-04-1.10335E-13
 -1      2766 1.27150E-02 9.42735E-04-1.12542E-13
 -1      2767 1.25245E-02 9.38706E-04-1.09046E-13
 -1      2768 1.28579E-02 9.70192E-04-1.14757E-13
 -1      2769 1.30007E-02 9.97705E-04-1.16977E-13
 -1      2770 1.28103E-02 9.93518E-04-1.13455E-13
 -1      2771 1.31436E-02 1.02526E-03-1.19205E-13
 -1      2772 1.32864E-02 1.05286E-03-1.21437E-13
 -1      2773 1.30960E-02 1.04856E-03-1.17895E-13
 -1      2774 1.34293E-02 1.08049E-03-1.23671E-13
 -1      2775 1.35721E-02 1.10815E-03-1.25910E-13
 -1      2776 1.33817E-02 1.10377E-03-1.22351E-13
 -1      2777 1.37150E-02 1.13583E-03-1.28154E-13
 -1      2778 1.38579E-02 1.16352E-03-1.30403E-13
 -1      2779 1.36675E-02 1.15910E-03-1.26827E-13
 -1      2780 2.32783E-03 3.90971E-04-3.78092E-15
 -1      2781 2.17904E-03 3.84191E-04-3.31053E-15
 -1      2782 1.45970E-02 2.07099E-03-1.28018E-13
 -1      2783 1.46237E-02 2.12256E-03-1.27565E-13
 -1      2784 1.44808E-02 2.09460E-03-1.25331E-13
 -1      2785 2.03104E-03 3.77564E-04-2.87170E-15
 -1      2786 1.88350E-03 3.70568E-04-2.46472E-15
 -1      2787 2.07443E-03 3.45756E-04-3.17403E-15
 -1      2788 2.93525E-03 4.36680E-04-5.98394E-15
 -1      2789 2.78084E-03 4.20622E-04-5.38558E-15
 -1      2790 3.25239E-03 4.84667E-04-7.27544E-15
 -1      2791 3.09229E-03 4.57464E-04-6.61373E-15
 -1      2792 2.96030E-03 4.04149E-04-6.40940E-15
 -1      2793 3.58571E-03 5.63131E-04-8.69155E-15
 -1      2794 3.41684E-03 5.19056E-04-7.96773E-15
 -1      2795 3.27151E-03 4.52231E-04-7.73946E-15
 -1      2796 3.94176E-03 6.84380E-04-1.02346E-14
 -1      2797 3.76110E-03 6.17183E-04-9.44729E-15
 -1      2798 3.60210E-03 5.31246E-04-9.19364E-15
 -1      2799 4.32336E-03 8.58030E-04-1.19082E-14
 -1      2800 4.13064E-03 7.64088E-04-1.10550E-14
 -1      2801 3.96167E-03 6.56214E-04-1.07729E-14
 -1      2802 5.08137E-03 1.27165E-03-1.55980E-14
 -1      2803 4.88686E-03 1.16838E-03-1.46003E-14
 -1      2804 6.21170E-03 1.19686E-03-2.24852E-14
 -1      2805 6.01284E-03 1.28287E-03-2.12419E-14
 -1      2806 6.68887E-03 9.65477E-04-2.54864E-14
 -1      2807 6.48665E-03 1.04973E-03-2.41588E-14
 -1      2808 7.07629E-03 8.46609E-04-2.82372E-14
 -1      2809 6.88836E-03 8.99645E-04-2.68453E-14
 -1      2810 6.93887E-03 7.81564E-04-2.66644E-14
 -1      2811 7.43074E-03 7.86304E-04-3.11101E-14
 -1      2812 7.25822E-03 8.11184E-04-2.96604E-14
 -1      2813 7.30262E-03 7.02499E-04-2.94778E-14
 -1      2814 7.75842E-03 7.70010E-04-3.40951E-14
 -1      2815 7.59754E-03 7.74239E-04-3.25888E-14
 -1      2816 7.62413E-03 6.80250E-04-3.24060E-14
 -1      2817 8.06885E-03 7.84255E-04-3.71868E-14
 -1      2818 7.91528E-03 7.74287E-04-3.56278E-14
 -1      2819 7.92029E-03 6.91275E-04-3.54397E-14
 -1      2820 8.36940E-03 8.19114E-04-4.03844E-14
 -1      2821 8.21996E-03 7.99665E-04-3.87722E-14
 -1      2822 8.20420E-03 7.22693E-04-3.85759E-14
 -1      2823 8.66463E-03 8.67552E-04-4.36847E-14
 -1      2824 8.51740E-03 8.41972E-04-4.20215E-14
 -1      2825 8.48352E-03 7.67425E-04-4.18154E-14
 -1      2826 8.95704E-03 9.24527E-04-4.70883E-14
 -1      2827 8.81100E-03 8.95182E-04-4.53749E-14
 -1      2828 8.76205E-03 8.20987E-04-4.51564E-14
 -1      2829 9.24788E-03 9.86483E-04-5.05834E-14
 -1      2830 9.10253E-03 9.55017E-04-4.88243E-14
 -1      2831 9.04143E-03 8.80190E-04-4.85947E-14
 -1      2832 9.53772E-03 1.05098E-03-5.41698E-14
 -1      2833 9.39284E-03 1.01850E-03-5.23648E-14
 -1      2834 9.32215E-03 9.42706E-04-5.21264E-14
 -1      2835 9.82683E-03 1.11640E-03-5.78371E-14
 -1      2836 9.68230E-03 1.08363E-03-5.59948E-14
 -1      2837 9.60419E-03 1.00686E-03-5.57451E-14
 -1      2838 1.01153E-02 1.18173E-03-6.15758E-14
 -1      2839 9.97110E-03 1.14911E-03-5.96979E-14
 -1      2840 9.88734E-03 1.07150E-03-5.94400E-14
 -1      2841 1.04033E-02 1.24638E-03-6.53882E-14
 -1      2842 1.02593E-02 1.21416E-03-6.34729E-14
 -1      2843 1.01713E-02 1.13587E-03-6.32057E-14
 -1      2844 1.06908E-02 1.31003E-03-6.92638E-14
 -1      2845 1.05470E-02 1.27833E-03-6.73179E-14
 -1      2846 1.04559E-02 1.19954E-03-6.70412E-14
 -1      2847 1.09778E-02 1.37257E-03-7.32115E-14
 -1      2848 1.08343E-02 1.34144E-03-7.12296E-14
 -1      2849 1.07410E-02 1.26228E-03-7.09389E-14
 -1      2850 1.12646E-02 1.43400E-03-7.72204E-14
 -1      2851 1.11212E-02 1.40342E-03-7.52079E-14
 -1      2852 1.10263E-02 1.32400E-03-7.49066E-14
 -1      2853 1.15511E-02 1.49440E-03-8.12915E-14
 -1      2854 1.14079E-02 1.46433E-03-7.92509E-14
 -1      2855 1.13118E-02 1.38472E-03-7.89382E-14
 -1      2856 1.18373E-02 1.55388E-03-8.54190E-14
 -1      2857 1.16942E-02 1.52425E-03-8.33481E-14
 -1      2858 1.15974E-02 1.44452E-03-8.30317E-14
 -1      2859 1.21234E-02 1.61256E-03-8.96003E-14
 -1      2860 1.19804E-02 1.58331E-03-8.75027E-14
 -1      2861 1.18831E-02 1.50350E-03-8.71785E-14
 -1      2862 1.24094E-02 1.67056E-03-9.38318E-14
 -1      2863 1.22664E-02 1.64164E-03-9.17086E-14
 -1      2864 1.21689E-02 1.56177E-03-9.13764E-14
 -1      2865 1.26953E-02 1.72800E-03-9.81128E-14
 -1      2866 1.25523E-02 1.69935E-03-9.59668E-14
 -1      2867 1.24546E-02 1.61944E-03-9.56242E-14
 -1      2868 1.29811E-02 1.78501E-03-1.02438E-13
 -1      2869 1.28382E-02 1.75656E-03-1.00271E-13
 -1      2870 1.27404E-02 1.67664E-03-9.99202E-14
 -1      2871 1.32669E-02 1.84165E-03-1.06797E-13
 -1      2872 1.31240E-02 1.81337E-03-1.04613E-13
 -1      2873 1.30261E-02 1.73344E-03-1.04252E-13
 -1      2874 1.35526E-02 1.89803E-03-1.11185E-13
 -1      2875 1.34097E-02 1.86987E-03-1.08990E-13
 -1      2876 1.33119E-02 1.78994E-03-1.08616E-13
 -1      2877 1.38383E-02 1.95421E-03-1.15600E-13
 -1      2878 1.36955E-02 1.92615E-03-1.13390E-13
 -1      2879 1.35976E-02 1.84621E-03-1.13012E-13
 -1      2880 1.41240E-02 2.01025E-03-1.20036E-13
 -1      2881 1.39812E-02 1.98225E-03-1.17813E-13
 -1      2882 1.38834E-02 1.90231E-03-1.17429E-13
 -1      2883 1.43380E-02 2.06664E-03-1.23098E-13
 -1      2884 6.98825E-03 6.98565E-04-2.62555E-14
 -1      2885 7.18102E-03 6.14161E-04-2.71864E-14
 -1      2886 1.43559E-02 1.67563E-03-1.30682E-13
 -1      2887 1.43833E-02 1.71779E-03-1.30436E-13
 -1      2888 6.22988E-03-2.23617E-04-2.57673E-14
 -1      2889 6.03177E-03-3.49474E-04-2.49343E-14
 -1      2890 1.44656E-02 1.84428E-03-1.29694E-13
 -1      2891 1.44931E-02 1.88644E-03-1.29448E-13
 -1      2892 1.43012E-02 1.59130E-03-1.31174E-13
 -1      2893 1.43285E-02 1.63347E-03-1.30929E-13
 -1      2894 1.42185E-02 1.63045E-03-1.28864E-13
 -1      2895 1.44107E-02 1.75995E-03-1.30190E-13
 -1      2896 1.44382E-02 1.80211E-03-1.29943E-13
 -1      2897 1.43282E-02 1.79904E-03-1.27878E-13
 -1      2898 1.42733E-02 1.71474E-03-1.28373E-13
 -1      2899 1.42475E-02 1.50841E-03-1.31655E-13
 -1      2900 1.42744E-02 1.54986E-03-1.31415E-13
 -1      2901 1.41643E-02 1.54686E-03-1.29350E-13
 -1      2902 1.41930E-02 1.42409E-03-1.32147E-13
 -1      2903 1.42203E-02 1.46625E-03-1.31900E-13
 -1      2904 1.41102E-02 1.46328E-03-1.29834E-13
 -1      2905 1.41387E-02 1.33977E-03-1.32632E-13
 -1      2906 1.41658E-02 1.38193E-03-1.32388E-13
 -1      2907 1.40557E-02 1.37898E-03-1.30320E-13
 -1      2908 7.39697E-03 5.22561E-04-2.80444E-14
 -1      2909 7.50834E-03 4.78614E-04-2.82804E-14
 -1      2910 7.59917E-03 4.69461E-04-2.92818E-14
 -1      2911 8.43963E-04-2.26120E-04-7.63861E-16
 -1      2912 9.78162E-04-2.56088E-04-9.76853E-16
 -1      2913 1.12351E-03-2.78640E-04-1.24846E-15
 -1      2914 8.17244E-04-1.75656E-04-7.78755E-16
 -1      2915 3.53085E-03 3.36677E-05-1.26846E-14
 -1      2916 3.37130E-03 9.53293E-05-1.23339E-14
 -1      2917 1.73646E-03 3.62385E-04-2.09022E-15
 -1      2918 1.58958E-03 3.52589E-04-1.74847E-15
 -1      2919 1.78404E-03 3.32224E-04-2.35043E-15
 -1      2920 2.62841E-03 4.08352E-04-4.81901E-15
 -1      2921 2.47749E-03 3.98782E-04-4.28389E-15
 -1      2922 2.36596E-03 3.58445E-04-4.12570E-15
 -1      2923 2.66023E-03 3.75713E-04-5.20398E-15
 -1      2924 7.68678E-04 9.71950E-05-6.78711E-16
 -1      2925 7.62535E-04 7.85821E-05-6.96275E-16
 -1      2926 8.73292E-04 7.85599E-05-8.94345E-16
 -1      2927 8.88018E-04 1.19765E-04-8.51519E-16
 -1      2928 1.44299E-03 3.40386E-04-1.43928E-15
 -1      2929 1.29633E-03 3.25395E-04-1.16170E-15
 -1      2930 1.20401E-03 2.84141E-04-1.08846E-15
 -1      2931 1.49398E-03 3.13132E-04-1.65510E-15
 -1      2932 3.52603E-03 3.62276E-04-1.16552E-14
 -1      2933 3.70387E-03 4.37074E-04-1.19600E-14
 -1      2934 3.22917E-03 1.45260E-04-1.20649E-14
 -1      2935 3.13029E-03 1.72096E-04-1.18591E-14
 -1      2936 3.22532E-03 2.58500E-04-1.13451E-14
 -1      2937 3.34248E-03 2.93620E-04-1.14442E-14
 -1      2938 3.05877E-03 1.93314E-04-1.16966E-14
 -1      2939 3.03306E-03 2.02545E-04-1.16147E-14
 -1      2940 5.82135E-03 1.35717E-03-2.00490E-14
 -1      2941 7.65971E-04-7.26146E-05-7.72670E-16
 -1      2942 7.72193E-04-9.24839E-05-7.72792E-16
 -1      2943 1.40499E-02 1.19931E-03-1.33460E-13
 -1      2944 1.40984E-02 1.24047E-03-1.33651E-13
 -1      2945 1.39539E-02 1.18141E-03-1.31931E-13
 -1      2946 4.70462E-03-5.50515E-04-1.69819E-14
 -1      2947 4.56981E-03-4.75788E-04-1.63492E-14
 -1      2948 5.19908E-03 1.31448E-03-1.65125E-14
 -1      2949 5.30935E-03 1.35763E-03-1.71015E-14
 -1      2950 4.37788E-03 8.13122E-04-1.33282E-14
 -1      2951 4.58648E-03 9.48174E-04-1.40029E-14
 -1      2952 7.72261E-03 4.23770E-04-2.99353E-14
 -1      2953 7.69721E-03 4.15627E-04-2.99170E-14
 -1      2954 5.39862E-03-6.65088E-04-2.12864E-14
 -1      2955 5.27696E-03-6.87121E-04-2.04364E-14
 -1      2956 6.60851E-03-2.51143E-06-2.72578E-14
 -1      2957 6.43018E-03-1.04436E-04-2.65977E-14
 -1      2958 7.36726E-03 3.29642E-04-2.93905E-14
 -1      2959 7.23685E-03 2.86301E-04-2.91209E-14
 -1      2960 3.89475E-03 5.30365E-04-1.22998E-14
 -1      2961 4.09126E-03 6.39621E-04-1.26456E-14
 -1      2962 3.76651E-03 4.80519E-04-1.16243E-14
 -1      2963 7.03852E-03 2.07948E-04-2.84968E-14
 -1      2964 6.83004E-03 1.12778E-04-2.78971E-14
 -1      2965 7.79507E-04-1.13776E-04-7.70692E-16
 -1      2966 7.87813E-04-1.36732E-04-7.65962E-16
 -1      2967 8.92642E-04-1.14864E-04-9.78208E-16
 -1      2968 8.63319E-04 5.44720E-06-9.51076E-16
 -1      2969 7.51960E-04-3.39389E-06-7.54469E-16
 -1      2970 7.53720E-04-1.96651E-05-7.61354E-16
 -1      2971 3.40920E-03 3.26040E-04-1.10927E-14
 -1      2972 3.26214E-03 1.11150E-04-1.17625E-14
 -1      2973 8.73639E-04 2.23706E-04-6.16396E-16
 -1      2974 7.68301E-03 4.11978E-04-3.06473E-14
 -1      2975 5.92636E-03-4.19383E-04-2.46265E-14
 -1      2976 5.83691E-03-4.80533E-04-2.43181E-14
 -1      2977 6.05556E-03-3.51375E-04-2.55792E-14
 -1      2978 5.16654E-03-6.93459E-04-1.97572E-14
 -1      2979 5.61256E-03-5.95810E-04-2.29572E-14
 -1      2980 5.50644E-03-6.35852E-04-2.21144E-14
 -1      2981 5.42227E-03-6.68731E-04-2.16905E-14
 -1      2982 1.39064E-02 1.20468E-03-1.30597E-13
 -1      2983 7.32107E-03 5.75935E-04-2.81698E-14
 -1      2984 4.49031E-03 9.37953E-04-1.27533E-14
 -1      2985 4.31824E-03 8.14334E-04-1.24384E-14
 -1      2986 4.69038E-03 1.05226E-03-1.36754E-14
 -1      2987 5.42421E-03 1.40184E-03-1.74284E-14
 -1      2988 5.24341E-03 1.35390E-03-1.63586E-14
 -1      2989 5.75572E-03 1.39397E-03-1.95083E-14
 -1      2990 5.57504E-03 1.41618E-03-1.83628E-14
 -1      2991 1.42402E-02 1.98668E-03-1.22707E-13
 -1      2992 6.92689E-03 7.56342E-04-2.62960E-14
 -1      2993 7.47149E-03 3.57336E-04-3.03276E-14
 -1      2994 1.43829E-02 1.88299E-03-1.27384E-13
 -1      2995 1.45204E-02 1.92824E-03-1.29200E-13
 -1      2996 1.45477E-02 1.97005E-03-1.28950E-13
 -1      2997 1.45697E-02 2.02919E-03-1.28271E-13
 -1      2998 6.74518E-03 5.97223E-05-2.82215E-14
 -1      2999 7.72928E-03 4.33086E-04-3.01457E-14
 -1      3000 7.75938E-03 4.35439E-04-3.09874E-14
 -1      3001 7.72561E-03 4.43150E-04-3.03565E-14
 -1      3002 1.41256E-02 1.28263E-03-1.33417E-13
 -1      3003 1.18049E-03-2.56775E-04-1.41689E-15
 -1      3004 5.41919E-03 1.38998E-03-1.75629E-14
 -1      3005 4.22167E-03 7.31834E-04-1.26143E-14
 -1      3006 4.89580E-03-6.48141E-04-1.80288E-14
 -1      3007 4.80728E-03-6.05108E-04-1.75016E-14
 -1      3008 4.69742E-03-5.72106E-04-1.68782E-14
 -1      3009 5.08968E-03 1.26524E-03-1.58845E-14
 -1      3010 3.02273E-03 2.03339E-04-1.12622E-14
 -1      3011 1.39609E-02 1.24219E-03-1.30972E-13
 -1      3012 1.40841E-02 1.30225E-03-1.32260E-13
 -1      3013 1.39739E-02 1.29931E-03-1.30190E-13
 -1      3014 1.38649E-02 1.22429E-03-1.29446E-13
 -1      3015 6.34663E-03-1.65584E-04-2.67285E-14
 -1      3016 4.07924E-03-2.15457E-04-1.44157E-14
 -1      3017 4.69646E-03 1.02910E-03-1.41977E-14
 -1      3018 3.71237E-03-6.42465E-05-1.29717E-14
 -1      3019 3.62311E-03-1.25466E-05-1.28279E-14
 -1      3020 3.48377E-03 1.68591E-05-1.21614E-14
 -1      3021 4.45313E-03-4.24208E-04-1.57758E-14
 -1      3022 3.06147E-03 1.75035E-04-1.13448E-14
 -1      3023 6.43670E-03 1.01132E-03-2.35886E-14
 -1      3024 3.14946E-03 2.37340E-04-1.11122E-14
 -1      3025 3.16544E-03 2.47123E-04-1.06594E-14
 -1      3026 3.08480E-03 2.22902E-04-1.08809E-14
 -1      3027 7.56687E-04-3.64337E-05-7.66612E-16
 -1      3028 7.60773E-04-5.40403E-05-7.70448E-16
 -1      3029 8.77648E-04-7.05764E-05-9.77408E-16
 -1      3030 8.67703E-04-3.11325E-05-9.67949E-16
 -1      3031 9.89352E-04 2.28410E-04-8.09398E-16
 -1      3032 7.15141E-03 2.46707E-04-2.95028E-14
 -1      3033 7.75296E-03 4.26448E-04-3.18176E-14
 -1      3034 7.67884E-03 4.09040E-04-3.16865E-14
 -1      3035 1.03638E-03 1.96791E-04-9.74467E-16
 -1      3036 1.02227E-03 1.68971E-04-1.01103E-15
 -1      3037 7.25604E-03 2.76652E-04-3.05477E-14
 -1      3038 7.07414E-03 2.05257E-04-2.99096E-14
 -1      3039 1.73972E-03-2.74595E-04-2.92747E-15
 -1      3040 1.88519E-03-2.82114E-04-3.38820E-15
 -1      3041 2.03130E-03-2.88829E-04-3.88279E-15
 -1      3042 2.17827E-03-2.95179E-04-4.41100E-15
 -1      3043 1.93684E-03-2.49788E-04-3.64154E-15
 -1      3044 2.32627E-03-3.01641E-04-4.97305E-15
 -1      3045 2.47555E-03-3.08776E-04-5.56861E-15
 -1      3046 2.22801E-03-2.60053E-04-4.69497E-15
 -1      3047 2.62646E-03-3.17024E-04-6.19840E-15
 -1      3048 2.77921E-03-3.27113E-04-6.86225E-15
 -1      3049 2.52389E-03-2.71208E-04-5.88258E-15
 -1      3050 2.93430E-03-3.39423E-04-7.55911E-15
 -1      3051 3.09184E-03-3.54905E-04-8.29000E-15
 -1      3052 2.82712E-03-2.87405E-04-7.20410E-15
 -1      3053 3.25248E-03-3.73854E-04-9.05493E-15
 -1      3054 3.41588E-03-3.97272E-04-9.85353E-15
 -1      3055 3.14105E-03-3.13731E-04-8.65890E-15
 -1      3056 3.58273E-03-4.25327E-04-1.06861E-14
 -1      3057 3.75200E-03-4.58658E-04-1.15526E-14
 -1      3058 3.46890E-03-3.56272E-04-1.02485E-14
 -1      3059 3.92419E-03-4.96976E-04-1.24540E-14
 -1      3060 4.09724E-03-5.39864E-04-1.33894E-14
 -1      3061 3.81190E-03-4.20940E-04-1.19724E-14
 -1      3062 4.27119E-03-5.86357E-04-1.43598E-14
 -1      3063 4.44340E-03-6.32905E-04-1.53649E-14
 -1      3064 4.16635E-03-5.10231E-04-1.38326E-14
 -1      3065 4.61310E-03-6.77531E-04-1.64070E-14
 -1      3066 4.77945E-03-7.14051E-04-1.74853E-14
 -1      3067 4.52135E-03-6.13909E-04-1.58324E-14
 -1      3068 4.94101E-03-7.39901E-04-1.85992E-14
 -1      3069 5.10084E-03-7.48445E-04-1.97512E-14
 -1      3070 4.86330E-03-7.00923E-04-1.79762E-14
 -1      3071 5.33806E-03-7.14452E-04-2.14614E-14
 -1      3072 5.50047E-03-6.75859E-04-2.27038E-14
 -1      3073 5.66556E-03-6.19055E-04-2.39829E-14
 -1      3074 5.90802E-03-5.34387E-04-2.60671E-14
 -1      3075 6.07916E-03-4.60589E-04-2.74354E-14
 -1      3076 6.25268E-03-3.85651E-04-2.88345E-14
 -1      3077 6.42566E-03-3.13186E-04-3.02657E-14
 -1      3078 6.20248E-03-3.73424E-04-2.80488E-14
 -1      3079 6.59827E-03-2.44608E-04-3.17279E-14
 -1      3080 6.76841E-03-1.81100E-04-3.32208E-14
 -1      3081 6.55726E-03-2.23797E-04-3.09095E-14
 -1      3082 6.93633E-03-1.23064E-04-3.47417E-14
 -1      3083 7.10082E-03-7.01087E-05-3.62890E-14
 -1      3084 6.90230E-03-9.76685E-05-3.38899E-14
 -1      3085 7.26249E-03-2.22344E-05-3.78645E-14
 -1      3086 7.42091E-03 2.15164E-05-3.94676E-14
 -1      3087 7.23241E-03 4.37648E-06-3.69823E-14
 -1      3088 7.57673E-03 6.12863E-05-4.10990E-14
 -1      3089 7.72998E-03 9.79703E-05-4.27541E-14
 -1      3090 7.54786E-03 8.73725E-05-4.01835E-14
 -1      3091 7.88120E-03 1.31788E-04-4.44367E-14
 -1      3092 8.03058E-03 1.63416E-04-4.61447E-14
 -1      3093 7.85160E-03 1.56858E-04-4.34913E-14
 -1      3094 8.17850E-03 1.93085E-04-4.78731E-14
 -1      3095 8.32521E-03 2.21276E-04-4.96257E-14
 -1      3096 8.14707E-03 2.17232E-04-4.68972E-14
 -1      3097 8.47095E-03 2.48207E-04-5.14007E-14
 -1      3098 8.61593E-03 2.74203E-04-5.31970E-14
 -1      3099 8.43717E-03 2.71696E-04-5.03961E-14
 -1      3100 8.76030E-03 2.99456E-04-5.50133E-14
 -1      3101 8.90423E-03 3.24176E-04-5.68488E-14
 -1      3102 8.72406E-03 3.22548E-04-5.39816E-14
 -1      3103 9.04779E-03 3.48522E-04-5.87043E-14
 -1      3104 9.19111E-03 3.72627E-04-6.05796E-14
 -1      3105 9.00922E-03 3.71410E-04-5.76475E-14
 -1      3106 9.33423E-03 3.96611E-04-6.24718E-14
 -1      3107 9.47723E-03 4.20556E-04-6.43801E-14
 -1      3108 9.29358E-03 4.19416E-04-6.13885E-14
 -1      3109 9.62011E-03 4.44547E-04-6.63051E-14
 -1      3110 9.76296E-03 4.68629E-04-6.82479E-14
 -1      3111 9.57770E-03 4.67332E-04-6.52017E-14
 -1      3112 9.90574E-03 4.92858E-04-7.02054E-14
 -1      3113 1.00485E-02 5.17255E-04-7.21779E-14
 -1      3114 9.86189E-03 5.15649E-04-6.90800E-14
 -1      3115 1.01913E-02 5.41852E-04-7.41676E-14
 -1      3116 1.03341E-02 5.66656E-04-7.61710E-14
 -1      3117 1.01463E-02 5.64655E-04-7.30216E-14
 -1      3118 1.04768E-02 5.91681E-04-7.81872E-14
 -1      3119 1.06196E-02 6.16923E-04-8.02178E-14
 -1      3120 1.04309E-02 6.14489E-04-7.70211E-14
 -1      3121 1.07624E-02 6.42384E-04-8.22624E-14
 -1      3122 1.09052E-02 6.68057E-04-8.43210E-14
 -1      3123 1.07158E-02 6.65189E-04-8.10788E-14
 -1      3124 1.10480E-02 6.93935E-04-8.63950E-14
 -1      3125 1.11908E-02 7.20006E-04-8.84796E-14
 -1      3126 1.10010E-02 7.16726E-04-8.51919E-14
 -1      3127 1.13337E-02 7.46260E-04-9.05773E-14
 -1      3128 1.14765E-02 7.72686E-04-9.26880E-14
 -1      3129 1.12863E-02 7.69032E-04-8.93573E-14
 -1      3130 1.16194E-02 7.99270E-04-9.48073E-14
 -1      3131 1.17622E-02 8.26000E-04-9.69373E-14
 -1      3132 1.15717E-02 8.22017E-04-9.35709E-14
 -1      3133 1.19051E-02 8.52862E-04-9.90809E-14
 -1      3134 1.20479E-02 8.79846E-04-1.01236E-13
 -1      3135 1.18573E-02 8.75584E-04-9.78304E-14
 -1      3136 1.21908E-02 9.06939E-04-1.03402E-13
 -1      3137 1.23337E-02 9.34131E-04-1.05577E-13
 -1      3138 1.21429E-02 9.29635E-04-1.02135E-13
 -1      3139 1.24765E-02 9.61409E-04-1.07762E-13
 -1      3140 1.26194E-02 9.88765E-04-1.09956E-13
 -1      3141 1.24286E-02 9.84081E-04-1.06480E-13
 -1      3142 1.27623E-02 1.01619E-03-1.12160E-13
 -1      3143 1.29052E-02 1.04367E-03-1.14371E-13
 -1      3144 1.27143E-02 1.03884E-03-1.10868E-13
 -1      3145 1.30480E-02 1.07121E-03-1.16588E-13
 -1      3146 1.31909E-02 1.09879E-03-1.18811E-13
 -1      3147 1.30001E-02 1.09384E-03-1.15284E-13
 -1      3148 1.33338E-02 1.12640E-03-1.21038E-13
 -1      3149 1.34766E-02 1.15405E-03-1.23267E-13
 -1      3150 1.32858E-02 1.14903E-03-1.19723E-13
 -1      3151 1.35993E-02 1.17531E-03-1.25233E-13
 -1      3152 1.37422E-02 1.20300E-03-1.27475E-13
 -1      3153 1.37967E-02 1.24050E-03-1.27847E-13
 -1      3154 1.35514E-02 1.19793E-03-1.23913E-13
 -1      3155 2.11535E-03 3.15106E-04-3.48341E-15
 -1      3156 1.97270E-03 3.09362E-04-3.03480E-15
 -1      3157 3.64688E-03 4.41835E-04-1.09614E-14
 -1      3158 3.81597E-03 5.23752E-04-1.12815E-14
 -1      3159 3.28245E-03 4.18808E-04-8.20860E-15
 -1      3160 3.12878E-03 3.92118E-04-7.50927E-15
 -1      3161 2.97924E-03 3.71999E-04-6.84043E-15
 -1      3162 2.83232E-03 3.56181E-04-6.20204E-15
 -1      3163 2.99199E-03 3.39745E-04-7.27692E-15
 -1      3164 3.92284E-03 6.05244E-04-1.11133E-14
 -1      3165 3.73990E-03 5.36617E-04-1.02977E-14
 -1      3166 1.15321E-03 2.56086E-04-1.06070E-15
 -1      3167 1.08349E-03 2.21551E-04-1.00827E-15
 -1      3168 1.19691E-03 2.19953E-04-1.25341E-15
 -1      3169 1.29684E-03 2.72200E-04-1.32494E-15
 -1      3170 1.43563E-02 1.98542E-03-1.24968E-13
 -1      3171 1.41423E-02 1.92907E-03-1.21898E-13
 -1      3172 7.11472E-03 7.03805E-04-2.76804E-14
 -1      3173 8.02238E-03 6.60225E-04-3.64060E-14
 -1      3174 7.88583E-03 6.45701E-04-3.48598E-14
 -1      3175 8.29160E-03 6.99509E-04-3.95759E-14
 -1      3176 8.15709E-03 6.78449E-04-3.79787E-14
 -1      3177 8.11483E-03 6.35771E-04-3.73782E-14
 -1      3178 8.56054E-03 7.48418E-04-4.28446E-14
 -1      3179 8.42581E-03 7.22926E-04-4.11973E-14
 -1      3180 8.37147E-03 6.80384E-04-4.05791E-14
 -1      3181 8.83154E-03 8.03926E-04-4.62160E-14
 -1      3182 8.69565E-03 7.75445E-04-4.45180E-14
 -1      3183 8.63182E-03 7.31896E-04-4.38797E-14
 -1      3184 9.10529E-03 8.63751E-04-4.96809E-14
 -1      3185 8.96802E-03 8.33366E-04-4.79363E-14
 -1      3186 8.89671E-03 7.88392E-04-4.72767E-14
 -1      3187 9.38175E-03 9.26131E-04-5.32388E-14
 -1      3188 9.24318E-03 8.94669E-04-5.14493E-14
 -1      3189 9.16596E-03 8.48259E-04-5.07711E-14
 -1      3190 9.66054E-03 9.89745E-04-5.68795E-14
 -1      3191 9.52086E-03 9.57816E-04-5.50478E-14
 -1      3192 9.43901E-03 9.10147E-04-5.43528E-14
 -1      3193 9.94120E-03 1.05366E-03-6.05934E-14
 -1      3194 9.80064E-03 1.02168E-03-5.87278E-14
 -1      3195 9.71518E-03 9.73000E-04-5.80146E-14
 -1      3196 1.02233E-02 1.11725E-03-6.43805E-14
 -1      3197 1.00821E-02 1.08551E-03-6.24789E-14
 -1      3198 9.99384E-03 1.03605E-03-6.17507E-14
 -1      3199 1.05065E-02 1.18016E-03-6.82313E-14
 -1      3200 1.03648E-02 1.14880E-03-6.62979E-14
 -1      3201 1.02744E-02 1.09877E-03-6.55566E-14
 -1      3202 1.07905E-02 1.24220E-03-7.21502E-14
 -1      3203 1.06484E-02 1.21129E-03-7.01822E-14
 -1      3204 1.05564E-02 1.16086E-03-6.94256E-14
 -1      3205 1.10750E-02 1.30331E-03-7.61326E-14
 -1      3206 1.09327E-02 1.27287E-03-7.41337E-14
 -1      3207 1.08396E-02 1.22217E-03-7.33606E-14
 -1      3208 1.13600E-02 1.36351E-03-8.01806E-14
 -1      3209 1.12174E-02 1.33352E-03-7.81485E-14
 -1      3210 1.11235E-02 1.28264E-03-7.73602E-14
 -1      3211 1.16452E-02 1.42287E-03-8.42894E-14
 -1      3212 1.15026E-02 1.39329E-03-8.22284E-14
 -1      3213 1.14080E-02 1.34229E-03-8.14244E-14
 -1      3214 1.19306E-02 1.48149E-03-8.84517E-14
 -1      3215 1.17879E-02 1.45226E-03-8.63626E-14
 -1      3216 1.16929E-02 1.40120E-03-8.55491E-14
 -1      3217 1.22162E-02 1.53946E-03-9.26634E-14
 -1      3218 1.20734E-02 1.51055E-03-9.05510E-14
 -1      3219 1.19781E-02 1.45945E-03-8.97256E-14
 -1      3220 1.25018E-02 1.59691E-03-9.69234E-14
 -1      3221 1.23590E-02 1.56825E-03-9.47889E-14
 -1      3222 1.22635E-02 1.51714E-03-9.39518E-14
 -1      3223 1.27875E-02 1.65392E-03-1.01228E-13
 -1      3224 1.26447E-02 1.62546E-03-9.90701E-14
 -1      3225 1.25491E-02 1.57435E-03-9.82231E-14
 -1      3226 1.30733E-02 1.71059E-03-1.05567E-13
 -1      3227 1.29304E-02 1.68229E-03-1.03393E-13
 -1      3228 1.28347E-02 1.63118E-03-1.02536E-13
 -1      3229 1.33590E-02 1.76698E-03-1.09937E-13
 -1      3230 1.32161E-02 1.73881E-03-1.07749E-13
 -1      3231 1.31204E-02 1.68771E-03-1.06881E-13
 -1      3232 1.36448E-02 1.82317E-03-1.14335E-13
 -1      3233 1.35019E-02 1.79510E-03-1.12134E-13
 -1      3234 1.34062E-02 1.74401E-03-1.11257E-13
 -1      3235 1.39305E-02 1.87921E-03-1.18757E-13
 -1      3236 1.37876E-02 1.85121E-03-1.16544E-13
 -1      3237 1.36919E-02 1.80012E-03-1.15658E-13
 -1      3238 1.40271E-02 1.50208E-03-1.27528E-13
 -1      3239 1.40540E-02 1.54350E-03-1.27290E-13
 -1      3240 5.16858E-03-7.12199E-04-1.99826E-14
 -1      3241 5.02134E-03-6.96611E-04-1.88966E-14
 -1      3242 1.40813E-02 1.58564E-03-1.27044E-13
 -1      3243 1.41087E-02 1.62777E-03-1.26799E-13
 -1      3244 1.39441E-02 1.54084E-03-1.25229E-13
 -1      3245 6.46333E-03-1.16938E-04-2.78438E-14
 -1      3246 6.28483E-03-2.23015E-04-2.69919E-14
 -1      3247 7.61847E-03 4.91737E-04-3.01388E-14
 -1      3248 7.68643E-03 4.66528E-04-3.03829E-14
 -1      3249 4.06246E-03 6.58972E-04-1.17876E-14
 -1      3250 9.32833E-04-1.79950E-04-9.91801E-16
 -1      3251 1.39726E-02 1.41781E-03-1.28015E-13
 -1      3252 1.39998E-02 1.45995E-03-1.27772E-13
 -1      3253 1.38895E-02 1.45660E-03-1.25716E-13
 -1      3254 1.39181E-02 1.33353E-03-1.28499E-13
 -1      3255 1.39454E-02 1.37567E-03-1.28259E-13
 -1      3256 1.38350E-02 1.37236E-03-1.26200E-13
 -1      3257 1.83004E-03 3.02949E-04-2.61766E-15
 -1      3258 1.68712E-03 2.95526E-04-2.23253E-15
 -1      3259 1.87435E-03 2.74689E-04-2.89243E-15
 -1      3260 3.28948E-03 2.93870E-04-1.04996E-14
 -1      3261 3.45225E-03 3.55121E-04-1.06974E-14
 -1      3262 7.74748E-03 6.35186E-04-3.33396E-14
 -1      3263 7.60424E-03 6.31200E-04-3.18452E-14
 -1      3264 7.85902E-03 6.00718E-04-3.42795E-14
 -1      3265 2.97475E-03 1.90075E-04-1.06263E-14
 -1      3266 3.01025E-03 2.02681E-04-1.06997E-14
 -1      3267 4.44134E-03-4.54476E-04-1.55704E-14
 -1      3268 4.29830E-03-3.63181E-04-1.49945E-14
 -1      3269 7.45291E-03 6.45541E-04-3.04601E-14
 -1      3270 7.29228E-03 6.61445E-04-2.90172E-14
 -1      3271 7.28554E-03 6.31186E-04-2.86354E-14
 -1      3272 7.59319E-03 5.91767E-04-3.13670E-14
 -1      3273 7.58412E-03 3.83266E-04-3.14941E-14
 -1      3274 7.46620E-03 3.48330E-04-3.13001E-14
 -1      3275 7.68505E-03 4.02918E-04-3.26761E-14
 -1      3276 3.58728E-03 4.90636E-04-9.60728E-15
 -1      3277 3.42197E-03 4.47592E-04-8.85014E-15
 -1      3278 3.26664E-03 3.80115E-04-8.59537E-15
 -1      3279 3.54188E-03 4.40811E-04-9.92569E-15
 -1      3280 3.27104E-03 7.84903E-05-1.13880E-14
 -1      3281 3.15201E-03 1.21919E-04-1.11354E-14
 -1      3282 6.88100E-03 1.16103E-04-2.92562E-14
 -1      3283 6.68307E-03 1.20347E-05-2.85979E-14
 -1      3284 1.45043E-03-2.55319E-04-2.10766E-15
 -1      3285 1.59486E-03-2.65784E-04-2.50056E-15
 -1      3286 1.64865E-03-2.36882E-04-2.72159E-15
 -1      3287 1.08398E-03-2.07791E-04-1.27291E-15
 -1      3288 1.29529E-03-2.31795E-04-1.73849E-15
 -1      3289 1.35153E-03-2.07636E-04-1.92359E-15
 -1      3290 1.04953E-03-1.62924E-04-1.25488E-15
 -1      3291 4.10508E-03-2.63836E-04-1.42239E-14
 -1      3292 3.90590E-03-1.68423E-04-1.34775E-14
 -1      3293 4.10973E-03-3.09670E-04-1.40264E-14
 -1      3294 9.79326E-04 5.58401E-05-1.13860E-15
 -1      3295 9.76483E-04 3.60184E-05-1.15534E-15
 -1      3296 3.04169E-03 1.52154E-04-1.07816E-14
 -1      3297 2.98518E-03 1.69750E-04-1.06305E-14
 -1      3298 9.75542E-04 1.64043E-05-1.16989E-15
 -1      3299 9.76443E-04-3.32735E-06-1.18231E-15
 -1      3300 1.08858E-03 2.90791E-05-1.41000E-15
 -1      3301 1.13433E-03 1.67778E-04-1.25305E-15
 -1      3302 1.00990E-03 1.43387E-04-1.04325E-15
 -1      3303 9.99451E-04 1.19589E-04-1.07195E-15
 -1      3304 7.00756E-03 1.58534E-04-3.02954E-14
 -1      3305 6.60859E-03-5.24018E-05-2.88676E-14
 -1      3306 6.18254E-03-2.96313E-04-2.66660E-14
 -1      3307 9.90792E-04 9.72555E-05-1.09721E-15
 -1      3308 9.84119E-04 7.61402E-05-1.11941E-15
 -1      3309 1.09498E-03 7.17725E-05-1.37059E-15
 -1      3310 1.11033E-03 1.17120E-04-1.31901E-15
 -1      3311 1.40466E-02 1.87798E-03-1.21008E-13
 -1      3312 1.02779E-03-1.09485E-04-1.26123E-15
 -1      3313 1.03794E-03-1.35356E-04-1.25972E-15
 -1      3314 1.18562E-03-1.55470E-04-1.57718E-15
 -1      3315 5.77584E-03-5.51165E-04-2.45536E-14
 -1      3316 3.34395E-03 4.56967E-05-1.15208E-14
 -1      3317 3.21666E-03 6.28634E-05-1.08976E-14
 -1      3318 3.41902E-03 7.52117E-06-1.16531E-14
 -1      3319 3.50159E-03 3.94789E-04-1.03705E-14
 -1      3320 3.03884E-03 1.24930E-04-1.04250E-14
 -1      3321 2.71012E-03 3.13486E-04-5.99316E-15
 -1      3322 2.68745E-03 3.44144E-04-5.59584E-15
 -1      3323 2.54362E-03 3.34705E-04-5.02036E-15
 -1      3324 7.78642E-03 4.36762E-04-3.20327E-14
 -1      3325 7.80647E-03 4.36367E-04-3.30887E-14
 -1      3326 7.81005E-03 4.45660E-04-3.22479E-14
 -1      3327 3.12316E-03 2.46665E-04-1.00559E-14
 -1      3328 3.20218E-03 2.67136E-04-1.02771E-14
 -1      3329 3.23323E-03 2.92043E-04-9.89690E-15
 -1      3330 3.00672E-03 2.06613E-04-1.02571E-14
 -1      3331 1.41907E-02 1.75382E-03-1.26065E-13
 -1      3332 1.42182E-02 1.79596E-03-1.25817E-13
 -1      3333 2.40063E-03 3.27185E-04-4.47654E-15
 -1      3334 2.25787E-03 3.20893E-04-3.96417E-15
 -1      3335 2.43196E-03 2.97204E-04-4.83379E-15
 -1      3336 4.91750E-03-6.83269E-04-1.82388E-14
 -1      3337 1.41359E-02 1.66973E-03-1.26557E-13
 -1      3338 1.41634E-02 1.71186E-03-1.26311E-13
 -1      3339 1.40533E-02 1.70878E-03-1.24252E-13
 -1      3340 1.39987E-02 1.62490E-03-1.24742E-13
 -1      3341 7.47133E-03 5.51649E-04-2.95184E-14
 -1      3342 7.75197E-03 4.63656E-04-3.12275E-14
 -1      3343 3.74927E-03-1.20352E-04-1.27877E-14
 -1      3344 7.53682E-03 3.48760E-04-3.29027E-14
 -1      3345 7.40341E-03 3.18327E-04-3.17180E-14
 -1      3346 7.34351E-03 2.83180E-04-3.21336E-14
 -1      3347 1.44718E-02 1.97157E-03-1.27454E-13
 -1      3348 2.92863E-03 1.70551E-04-1.00846E-14
 -1      3349 1.56405E-03 2.91270E-04-1.91405E-15
 -1      3350 1.42063E-03 2.80356E-04-1.58983E-15
 -1      3351 1.36877E-03 2.53783E-04-1.55151E-15
 -1      3352 1.61284E-03 2.64839E-04-2.14935E-15
 -1      3353 1.38301E-02 1.26826E-03-1.27988E-13
 -1      3354 1.38847E-02 1.30577E-03-1.28358E-13
 -1      3355 1.37743E-02 1.30247E-03-1.26301E-13
 -1      3356 1.37075E-02 1.24696E-03-1.26021E-13
 -1      3357 7.59153E-03 5.36971E-04-3.06207E-14
 -1      3358 2.15385E-03 2.85709E-04-3.80028E-15
 -1      3359 1.01160E-03-6.22377E-05-1.25536E-15
 -1      3360 1.01894E-03-8.51881E-05-1.25949E-15
 -1      3361 1.16231E-03-9.99069E-05-1.57785E-15
 -1      3362 4.54868E-03-5.19238E-04-1.60611E-14
 -1      3363 4.39821E-03-4.67169E-04-1.52657E-14
 -1      3364 4.64392E-03-5.76697E-04-1.65601E-14
 -1      3365 1.38067E-02 1.49571E-03-1.23420E-13
 -1      3366 1.38341E-02 1.53781E-03-1.23177E-13
 -1      3367 5.73405E-03-5.43875E-04-2.38731E-14
 -1      3368 5.27091E-03-7.08191E-04-2.07767E-14
 -1      3369 7.71467E-03 5.36609E-04-3.20095E-14
 -1      3370 2.13149E-03-2.20817E-04-4.42207E-15
 -1      3371 2.27637E-03-2.24372E-04-4.98038E-15
 -1      3372 2.42247E-03-2.28109E-04-5.57214E-15
 -1      3373 2.57020E-03-2.32670E-04-6.19715E-15
 -1      3374 2.32314E-03-1.88045E-04-5.26760E-15
 -1      3375 2.71997E-03-2.38364E-04-6.85439E-15
 -1      3376 2.87227E-03-2.46142E-04-7.54526E-15
 -1      3377 2.61418E-03-1.92997E-04-6.51151E-15
 -1      3378 3.02772E-03-2.56251E-04-8.26958E-15
 -1      3379 3.18676E-03-2.70253E-04-9.02684E-15
 -1      3380 2.91427E-03-2.02994E-04-7.88651E-15
 -1      3381 3.35028E-03-2.88435E-04-9.81760E-15
 -1      3382 3.51811E-03-3.12569E-04-1.06412E-14
 -1      3383 3.22861E-03-2.24347E-04-9.39368E-15
 -1      3384 3.69146E-03-3.42782E-04-1.14980E-14
 -1      3385 3.86866E-03-3.80873E-04-1.23885E-14
 -1      3386 3.56330E-03-2.66153E-04-1.10319E-14
 -1      3387 4.42276E-03-5.43344E-04-1.52830E-14
 -1      3388 4.60377E-03-6.01122E-04-1.63137E-14
 -1      3389 4.74348E-03-6.40314E-04-1.71443E-14
 -1      3390 7.82937E-03 5.51523E-04-3.35104E-14
 -1      3391 7.81018E-03 5.06004E-04-3.27397E-14
 -1      3392 7.94611E-03 5.68946E-04-3.50348E-14
 -1      3393 6.51978E-03-2.00019E-04-3.00916E-14
 -1      3394 6.69814E-03-1.30283E-04-3.15518E-14
 -1      3395 6.87312E-03-6.86766E-05-3.30404E-14
 -1      3396 7.04233E-03-1.40297E-05-3.45586E-14
 -1      3397 6.84830E-03-3.72971E-05-3.21949E-14
 -1      3398 7.20724E-03 3.40202E-05-3.61025E-14
 -1      3399 7.36723E-03 7.72152E-05-3.76732E-14
 -1      3400 7.18646E-03 6.62761E-05-3.52258E-14
 -1      3401 7.52336E-03 1.15668E-04-3.92707E-14
 -1      3402 7.67594E-03 1.51004E-04-4.08954E-14
 -1      3403 7.50274E-03 1.45732E-04-3.83633E-14
 -1      3404 7.82573E-03 1.83372E-04-4.25466E-14
 -1      3405 7.97318E-03 2.13726E-04-4.42227E-14
 -1      3406 7.80301E-03 2.10839E-04-4.16062E-14
 -1      3407 8.11877E-03 2.42218E-04-4.59223E-14
 -1      3408 8.26295E-03 2.69467E-04-4.76449E-14
 -1      3409 8.09299E-03 2.67515E-04-4.49509E-14
 -1      3410 8.40602E-03 2.95614E-04-4.93933E-14
 -1      3411 8.54833E-03 3.21023E-04-5.11623E-14
 -1      3412 8.37688E-03 3.19389E-04-4.83934E-14
 -1      3413 8.69005E-03 3.45825E-04-5.29510E-14
 -1      3414 8.83142E-03 3.70234E-04-5.47610E-14
 -1      3415 8.65764E-03 3.68686E-04-5.19243E-14
 -1      3416 8.97254E-03 3.94366E-04-5.65904E-14
 -1      3417 9.11358E-03 4.18342E-04-5.84397E-14
 -1      3418 8.93716E-03 4.16766E-04-5.55372E-14
 -1      3419 9.25456E-03 4.42258E-04-6.03089E-14
 -1      3420 9.39560E-03 4.66179E-04-6.21951E-14
 -1      3421 9.21659E-03 4.64500E-04-5.92310E-14
 -1      3422 9.53669E-03 4.90180E-04-6.40980E-14
 -1      3423 9.67791E-03 5.14290E-04-6.60179E-14
 -1      3424 9.49653E-03 5.12443E-04-6.29970E-14
 -1      3425 9.81924E-03 5.38561E-04-6.79551E-14
 -1      3426 9.96072E-03 5.63004E-04-6.99074E-14
 -1      3427 9.77728E-03 5.60939E-04-6.68335E-14
 -1      3428 1.01023E-02 5.87652E-04-7.18751E-14
 -1      3429 1.02441E-02 6.12500E-04-7.38584E-14
 -1      3430 1.00589E-02 6.10182E-04-7.07334E-14
 -1      3431 1.03860E-02 6.37568E-04-7.58558E-14
 -1      3432 1.05280E-02 6.62844E-04-7.78675E-14
 -1      3433 1.03414E-02 6.60255E-04-7.46923E-14
 -1      3434 1.06701E-02 6.88336E-04-7.98947E-14
 -1      3435 1.08123E-02 7.14031E-04-8.19344E-14
 -1      3436 1.06247E-02 7.11165E-04-7.87124E-14
 -1      3437 1.09546E-02 7.39926E-04-8.39868E-14
 -1      3438 1.10970E-02 7.66007E-04-8.60555E-14
 -1      3439 1.09086E-02 7.62871E-04-8.27877E-14
 -1      3440 1.12395E-02 7.92268E-04-8.81360E-14
 -1      3441 1.13821E-02 8.18693E-04-9.02287E-14
 -1      3442 1.11930E-02 8.15306E-04-8.69167E-14
 -1      3443 1.15247E-02 8.45274E-04-9.23334E-14
 -1      3444 1.16674E-02 8.71998E-04-9.44499E-14
 -1      3445 1.14778E-02 8.68382E-04-9.10983E-14
 -1      3446 1.18101E-02 8.98852E-04-9.65788E-14
 -1      3447 1.19528E-02 9.25825E-04-9.87171E-14
 -1      3448 1.17629E-02 9.22009E-04-9.53288E-14
 -1      3449 1.20956E-02 9.52906E-04-1.00868E-13
 -1      3450 1.22384E-02 9.80084E-04-1.03031E-13
 -1      3451 1.20483E-02 9.76096E-04-9.96033E-14
 -1      3452 1.23812E-02 1.00735E-03-1.05201E-13
 -1      3453 1.25240E-02 1.03469E-03-1.07381E-13
 -1      3454 1.23338E-02 1.03056E-03-1.03923E-13
 -1      3455 1.26668E-02 1.06210E-03-1.09572E-13
 -1      3456 1.28097E-02 1.08958E-03-1.11771E-13
 -1      3457 1.26194E-02 1.08533E-03-1.08281E-13
 -1      3458 1.29526E-02 1.11710E-03-1.13978E-13
 -1      3459 1.30954E-02 1.14467E-03-1.16190E-13
 -1      3460 1.29051E-02 1.14033E-03-1.12673E-13
 -1      3461 1.32383E-02 1.17228E-03-1.18407E-13
 -1      3462 1.33812E-02 1.19992E-03-1.20631E-13
 -1      3463 1.31908E-02 1.19551E-03-1.17094E-13
 -1      3464 7.13539E-03 1.94323E-04-3.14977E-14
 -1      3465 6.96076E-03 1.13115E-04-3.08276E-14
 -1      3466 1.84445E-03-2.12845E-04-3.40457E-15
 -1      3467 1.98762E-03-2.17118E-04-3.89668E-15
 -1      3468 2.03736E-03-1.84056E-04-4.15447E-15
 -1      3469 3.04086E-03 9.28408E-05-1.00980E-14
 -1      3470 2.94389E-03 1.20994E-04-9.76527E-15
 -1      3471 2.86521E-03 1.50354E-04-9.42329E-15
 -1      3472 2.86962E-03 1.70646E-04-9.42277E-15
 -1      3473 8.69731E-03 7.17534E-04-4.49176E-14
 -1      3474 8.56950E-03 6.90549E-04-4.32405E-14
 -1      3475 7.77539E-03 4.18503E-04-3.38856E-14
 -1      3476 7.69071E-03 3.93483E-04-3.36868E-14
 -1      3477 8.44362E-03 6.64837E-04-4.15863E-14
 -1      3478 8.31928E-03 6.40274E-04-3.99596E-14
 -1      3479 8.50811E-03 6.51443E-04-4.26010E-14
 -1      3480 8.19716E-03 6.17329E-04-3.83571E-14
 -1      3481 8.07625E-03 5.95839E-04-3.67775E-14
 -1      3482 8.26863E-03 6.02644E-04-3.93388E-14
 -1      3483 8.95756E-03 7.74179E-04-4.83431E-14
 -1      3484 8.82662E-03 7.45384E-04-4.66184E-14
 -1      3485 8.75728E-03 7.04369E-04-4.59591E-14
 -1      3486 9.22343E-03 8.33580E-04-5.18637E-14
 -1      3487 9.08982E-03 8.03564E-04-5.00919E-14
 -1      3488 9.01438E-03 7.60613E-04-4.94139E-14
 -1      3489 9.49392E-03 8.94666E-04-5.54683E-14
 -1      3490 9.35813E-03 8.63941E-04-5.36559E-14
 -1      3491 9.27792E-03 8.19231E-04-5.29589E-14
 -1      3492 9.76812E-03 9.56561E-04-5.91520E-14
 -1      3493 9.63059E-03 9.25535E-04-5.73009E-14
 -1      3494 9.54664E-03 8.79331E-04-5.65871E-14
 -1      3495 1.00453E-02 1.01861E-03-6.29100E-14
 -1      3496 9.90636E-03 9.87584E-04-6.10221E-14
 -1      3497 9.81946E-03 9.40162E-04-6.02930E-14
 -1      3498 1.03247E-02 1.08038E-03-6.67315E-14
 -1      3499 1.01847E-02 1.04954E-03-6.48126E-14
 -1      3500 1.00955E-02 1.00116E-03-6.40688E-14
 -1      3501 1.06058E-02 1.14160E-03-7.06203E-14
 -1      3502 1.04650E-02 1.11107E-03-6.86684E-14
 -1      3503 1.03741E-02 1.06195E-03-6.79114E-14
 -1      3504 1.08883E-02 1.20214E-03-7.45732E-14
 -1      3505 1.07469E-02 1.17196E-03-7.25887E-14
 -1      3506 1.06546E-02 1.12228E-03-7.18173E-14
 -1      3507 1.11717E-02 1.26195E-03-7.85884E-14
 -1      3508 1.10299E-02 1.23213E-03-7.65733E-14
 -1      3509 1.09365E-02 1.18205E-03-7.57883E-14
 -1      3510 1.14558E-02 1.32105E-03-8.26711E-14
 -1      3511 1.13137E-02 1.29159E-03-8.06221E-14
 -1      3512 1.12196E-02 1.24120E-03-7.98208E-14
 -1      3513 1.17405E-02 1.37951E-03-8.68109E-14
 -1      3514 1.15981E-02 1.35036E-03-8.47329E-14
 -1      3515 1.15035E-02 1.29975E-03-8.39181E-14
 -1      3516 1.20255E-02 1.43739E-03-9.09995E-14
 -1      3517 1.18830E-02 1.40851E-03-8.88983E-14
 -1      3518 1.17880E-02 1.35776E-03-8.80718E-14
 -1      3519 1.23108E-02 1.49478E-03-9.52393E-14
 -1      3520 1.21681E-02 1.46614E-03-9.31147E-14
 -1      3521 1.20729E-02 1.41527E-03-9.22761E-14
 -1      3522 1.25963E-02 1.55177E-03-9.95238E-14
 -1      3523 1.24536E-02 1.52332E-03-9.73781E-14
 -1      3524 1.23581E-02 1.47238E-03-9.65295E-14
 -1      3525 1.28819E-02 1.60842E-03-1.03842E-13
 -1      3526 1.27391E-02 1.58013E-03-1.01678E-13
 -1      3527 1.26436E-02 1.52915E-03-1.00823E-13
 -1      3528 1.31676E-02 1.66482E-03-1.08196E-13
 -1      3529 1.30248E-02 1.63665E-03-1.06015E-13
 -1      3530 1.29291E-02 1.58563E-03-1.05149E-13
 -1      3531 1.34533E-02 1.72101E-03-1.12576E-13
 -1      3532 1.33105E-02 1.69294E-03-1.10382E-13
 -1      3533 1.32148E-02 1.64190E-03-1.09508E-13
 -1      3534 1.37391E-02 1.77706E-03-1.16983E-13
 -1      3535 1.35962E-02 1.74905E-03-1.14777E-13
 -1      3536 1.35005E-02 1.69800E-03-1.13896E-13
 -1      3537 1.36977E-02 1.32728E-03-1.24385E-13
 -1      3538 1.37249E-02 1.36939E-03-1.24144E-13
 -1      3539 1.42455E-02 1.83792E-03-1.25569E-13
 -1      3540 1.42728E-02 1.87970E-03-1.25322E-13
 -1      3541 2.19060E-03 2.57781E-04-4.12349E-15
 -1      3542 2.05440E-03 2.52844E-04-3.63343E-15
 -1      3543 3.74860E-03-1.71959E-04-1.24671E-14
 -1      3544 3.58058E-03-8.08538E-05-1.19891E-14
 -1      3545 1.91754E-03 2.47609E-04-3.17514E-15
 -1      3546 1.77983E-03 2.41856E-04-2.74813E-15
 -1      3547 1.95973E-03 2.21759E-04-3.46492E-15
 -1      3548 2.99808E-03 3.08541E-04-7.71863E-15
 -1      3549 2.86267E-03 2.94962E-04-7.04197E-15
 -1      3550 2.93037E-03 1.95554E-04-9.57005E-15
 -1      3551 3.00721E-03 2.15735E-04-9.74123E-15
 -1      3552 1.41081E-02 1.79268E-03-1.23761E-13
 -1      3553 1.39706E-02 1.74753E-03-1.21955E-13
 -1      3554 1.39980E-02 1.78947E-03-1.21708E-13
 -1      3555 7.81753E-03 4.81256E-04-3.25115E-14
 -1      3556 7.82919E-03 4.61465E-04-3.24844E-14
 -1      3557 7.87639E-03 4.63065E-04-3.35485E-14
 -1      3558 7.90799E-03 5.01033E-04-3.40221E-14
 -1      3559 9.90369E-04-2.14516E-05-1.21634E-15
 -1      3560 9.94611E-04-4.22738E-05-1.22465E-15
 -1      3561 1.13437E-03-5.23036E-05-1.53875E-15
 -1      3562 1.10218E-03-1.13611E-05-1.46489E-15
 -1      3563 6.73159E-03-1.96489E-05-3.01824E-14
 -1      3564 6.53970E-03-1.35044E-04-2.94021E-14
 -1      3565 4.15424E-03-3.78737E-04-1.40371E-14
 -1      3566 3.98162E-03-2.95491E-04-1.32960E-14
 -1      3567 1.55993E-03-2.01239E-04-2.51992E-15
 -1      3568 1.70195E-03-2.07658E-04-2.94579E-15
 -1      3569 1.75461E-03-1.78069E-04-3.17312E-15
 -1      3570 5.98981E-03-4.34479E-04-2.59661E-14
 -1      3571 6.19897E-03-3.23817E-04-2.73884E-14
 -1      3572 3.36897E-03 3.63536E-04-9.68153E-15
 -1      3573 6.38455E-03-2.38565E-04-2.87891E-14
 -1      3574 1.37521E-02 1.41150E-03-1.23903E-13
 -1      3575 1.37794E-02 1.45361E-03-1.23663E-13
 -1      3576 1.36693E-02 1.45060E-03-1.21613E-13
 -1      3577 1.36148E-02 1.36642E-03-1.22095E-13
 -1      3578 1.26112E-03 1.92356E-04-1.48069E-15
 -1      3579 1.24539E-03 1.64111E-04-1.52263E-15
 -1      3580 2.82005E-03 1.01919E-04-8.81036E-15
 -1      3581 2.84069E-03 1.27720E-04-9.11638E-15
 -1      3582 2.75271E-03 1.31185E-04-8.48892E-15
 -1      3583 3.87890E-03-3.28316E-04-1.25898E-14
 -1      3584 4.00818E-03-4.14486E-04-1.30958E-14
 -1      3585 4.19121E-03-4.66760E-04-1.40464E-14
 -1      3586 8.02852E-03 5.51639E-04-3.59844E-14
 -1      3587 3.15163E-03 4.42242E-05-1.03439E-14
 -1      3588 3.09398E-03 7.03383E-05-1.02211E-14
 -1      3589 2.97979E-03 7.23468E-05-9.56600E-15
 -1      3590 3.43310E-03-4.56759E-05-1.13506E-14
 -1      3591 7.29584E-03 2.43350E-04-3.26823E-14
 -1      3592 1.34830E-02 1.21279E-03-1.22342E-13
 -1      3593 1.36057E-02 1.23407E-03-1.24303E-13
 -1      3594 1.36391E-02 1.26182E-03-1.24445E-13
 -1      3595 1.34355E-02 1.23604E-03-1.21020E-13
 -1      3596 1.20240E-03 4.32162E-05-1.67093E-15
 -1      3597 1.20142E-03 2.07129E-05-1.69061E-15
 -1      3598 2.72869E-03 2.84356E-04-6.39652E-15
 -1      3599 2.59464E-03 2.75813E-04-5.78162E-15
 -1      3600 2.74328E-03 2.56596E-04-6.80593E-15
 -1      3601 1.33846E-03 2.34469E-04-1.53970E-15
 -1      3602 1.28935E-03 2.10000E-04-1.49628E-15
 -1      3603 1.40013E-03 2.04225E-04-1.79337E-15
 -1      3604 1.45986E-03 2.40853E-04-1.82509E-15
 -1      3605 1.29599E-03-1.69444E-04-1.83519E-15
 -1      3606 1.44722E-03-1.88279E-04-2.21561E-15
 -1      3607 1.50238E-03-1.62382E-04-2.41429E-15
 -1      3608 1.28195E-03-1.39014E-04-1.83809E-15
 -1      3609 2.83762E-03 1.76783E-04-8.93139E-15
 -1      3610 7.65020E-03 3.70809E-04-3.41174E-14
 -1      3611 3.02317E-03 2.31862E-04-9.37594E-15
 -1      3612 2.46064E-03 2.68835E-04-5.19800E-15
 -1      3613 2.32588E-03 2.63019E-04-4.64518E-15
 -1      3614 2.48692E-03 2.42097E-04-5.56814E-15
 -1      3615 1.38477E-02 1.78622E-03-1.18889E-13
 -1      3616 1.37520E-02 1.73517E-03-1.18002E-13
 -1      3617 1.21198E-03 8.87960E-05-1.62237E-15
 -1      3618 1.20591E-03 6.57533E-05-1.64826E-15
 -1      3619 1.31699E-03 5.84709E-05-1.95186E-15
 -1      3620 1.41969E-02 1.88121E-03-1.23835E-13
 -1      3621 1.43343E-02 1.92630E-03-1.25645E-13
 -1      3622 1.25858E-03-8.30459E-05-1.83180E-15
 -1      3623 1.26939E-03-1.10280E-04-1.83673E-15
 -1      3624 1.37747E-03-1.20469E-04-2.11509E-15
 -1      3625 1.38613E-02 1.57973E-03-1.22933E-13
 -1      3626 1.38886E-02 1.62165E-03-1.22688E-13
 -1      3627 1.37239E-02 1.53458E-03-1.21129E-13
 -1      3628 3.24219E-03 3.15330E-04-9.45259E-15
 -1      3629 3.27595E-03 3.55943E-04-9.03088E-15
 -1      3630 3.14980E-03 3.35360E-04-8.38531E-15
 -1      3631 3.15688E-03 2.88998E-04-9.24388E-15
 -1      3632 3.83769E-03-2.58980E-04-1.25904E-14
 -1      3633 3.66699E-03-2.16891E-04-1.17910E-14
 -1      3634 2.22584E-03 2.31375E-04-4.45400E-15
 -1      3635 1.68929E-03 2.10527E-04-2.60181E-15
 -1      3636 1.64159E-03 2.35008E-04-2.35275E-15
 -1      3637 6.87469E-03 2.77278E-05-3.13798E-14
 -1      3638 1.39159E-02 1.66367E-03-1.22445E-13
 -1      3639 1.39433E-02 1.70560E-03-1.22200E-13
 -1      3640 1.38332E-02 1.70239E-03-1.20154E-13
 -1      3641 1.36725E-02 1.28956E-03-1.24585E-13
 -1      3642 3.01094E-03 2.86386E-04-8.12786E-15
 -1      3643 1.52184E-03 2.31225E-04-2.02616E-15
 -1      3644 7.86699E-03 4.44951E-04-3.43329E-14
 -1      3645 7.82463E-03 4.32842E-04-3.41105E-14
 -1      3646 7.84373E-03 4.26585E-04-3.51391E-14
 -1      3647 1.39851E-02 1.83140E-03-1.20687E-13
 -1      3648 1.35624E-02 1.28663E-03-1.22533E-13
 -1      3649 1.23178E-03 1.37644E-04-1.55954E-15
 -1      3650 1.22066E-03 1.12614E-04-1.59292E-15
 -1      3651 1.33040E-03 1.06646E-04-1.89325E-15
 -1      3652 4.25949E-03-4.42413E-04-1.44963E-14
 -1      3653 7.04696E-03 8.24186E-05-3.28683E-14
 -1      3654 2.22658E-03-1.51118E-04-4.96897E-15
 -1      3655 2.36807E-03-1.51318E-04-5.55610E-15
 -1      3656 2.51070E-03-1.51538E-04-6.17530E-15
 -1      3657 2.65517E-03-1.52505E-04-6.82654E-15
 -1      3658 2.41095E-03-1.14114E-04-5.84531E-15
 -1      3659 2.80190E-03-1.54341E-04-7.51093E-15
 -1      3660 2.95181E-03-1.58445E-04-8.22824E-15
 -1      3661 2.69281E-03-1.11021E-04-7.14279E-15
 -1      3662 3.10537E-03-1.64818E-04-8.97798E-15
 -1      3663 3.26395E-03-1.75998E-04-9.75997E-15
 -1      3664 2.98418E-03-1.11933E-04-8.56951E-15
 -1      3665 3.49314E-03-1.89333E-04-1.09318E-14
 -1      3666 1.35526E-03 1.58650E-04-1.81887E-15
 -1      3667 1.32656E-03 1.38954E-05-2.02658E-15
 -1      3668 1.21426E-03 5.26066E-07-1.73537E-15
 -1      3669 1.22909E-03-2.03353E-05-1.77840E-15
 -1      3670 7.48734E-03 1.77180E-04-3.74582E-14
 -1      3671 7.63766E-03 2.09564E-04-3.90511E-14
 -1      3672 7.78427E-03 2.38951E-04-4.06709E-14
 -1      3673 7.92825E-03 2.66704E-04-4.23161E-14
 -1      3674 7.76985E-03 2.67966E-04-3.97390E-14
 -1      3675 8.07006E-03 2.92862E-04-4.39855E-14
 -1      3676 8.21048E-03 3.18225E-04-4.56787E-14
 -1      3677 8.05015E-03 3.18405E-04-4.30224E-14
 -1      3678 8.34978E-03 3.42840E-04-4.73970E-14
 -1      3679 8.48849E-03 3.67077E-04-4.91390E-14
 -1      3680 8.32479E-03 3.66017E-04-4.64051E-14
 -1      3681 8.62674E-03 3.91002E-04-5.09007E-14
 -1      3682 8.76487E-03 4.14791E-04-5.26837E-14
 -1      3683 8.59733E-03 4.12779E-04-4.98808E-14
 -1      3684 8.90293E-03 4.38513E-04-5.44876E-14
 -1      3685 9.04114E-03 4.62247E-04-5.63116E-14
 -1      3686 8.86979E-03 4.59592E-04-5.34410E-14
 -1      3687 9.17951E-03 4.86058E-04-5.81554E-14
 -1      3688 9.31817E-03 5.09973E-04-6.00186E-14
 -1      3689 9.14326E-03 5.06909E-04-5.70845E-14
 -1      3690 9.45709E-03 5.34048E-04-6.19006E-14
 -1      3691 9.59635E-03 5.58281E-04-6.37983E-14
 -1      3692 9.41828E-03 5.54965E-04-6.08038E-14
 -1      3693 9.73590E-03 5.82717E-04-6.57133E-14
 -1      3694 9.87580E-03 6.07342E-04-6.76459E-14
 -1      3695 9.69503E-03 6.03862E-04-6.45966E-14
 -1      3696 1.00160E-02 6.32187E-04-6.95925E-14
 -1      3697 1.01565E-02 6.57232E-04-7.15555E-14
 -1      3698 9.97346E-03 6.53632E-04-6.84552E-14
 -1      3699 1.02973E-02 6.82496E-04-7.35320E-14
 -1      3700 1.04383E-02 7.07957E-04-7.55244E-14
 -1      3701 1.02534E-02 7.04259E-04-7.23741E-14
 -1      3702 1.05796E-02 7.33625E-04-7.75324E-14
 -1      3703 1.07211E-02 7.59479E-04-7.95535E-14
 -1      3704 1.05347E-02 7.55688E-04-7.63533E-14
 -1      3705 1.08627E-02 7.85522E-04-8.15901E-14
 -1      3706 1.10046E-02 8.11733E-04-8.36386E-14
 -1      3707 1.08171E-02 8.07849E-04-8.03930E-14
 -1      3708 1.11466E-02 8.38112E-04-8.57011E-14
 -1      3709 1.12888E-02 8.64640E-04-8.77781E-14
 -1      3710 1.11004E-02 8.60662E-04-8.44885E-14
 -1      3711 1.14311E-02 8.91312E-04-8.98668E-14
 -1      3712 1.15734E-02 9.18111E-04-9.19674E-14
 -1      3713 1.13844E-02 9.14042E-04-8.86368E-14
 -1      3714 1.17159E-02 9.45032E-04-9.40810E-14
 -1      3715 1.18585E-02 9.72060E-04-9.62061E-14
 -1      3716 1.16690E-02 9.67904E-04-9.28353E-14
 -1      3717 1.20011E-02 9.99188E-04-9.83421E-14
 -1      3718 1.21437E-02 1.02640E-03-1.00490E-13
 -1      3719 1.19539E-02 1.02217E-03-9.70834E-14
 -1      3720 1.22865E-02 1.05370E-03-1.02646E-13
 -1      3721 1.24292E-02 1.08107E-03-1.04815E-13
 -1      3722 1.22392E-02 1.07676E-03-1.01375E-13
 -1      3723 1.25720E-02 1.10850E-03-1.06995E-13
 -1      3724 1.27148E-02 1.13599E-03-1.09178E-13
 -1      3725 1.25246E-02 1.13162E-03-1.05708E-13
 -1      3726 1.28576E-02 1.16353E-03-1.11373E-13
 -1      3727 1.30005E-02 1.19111E-03-1.13575E-13
 -1      3728 1.28102E-02 1.18669E-03-1.10075E-13
 -1      3729 1.31433E-02 1.21873E-03-1.15782E-13
 -1      3730 1.32862E-02 1.24638E-03-1.17996E-13
 -1      3731 1.30959E-02 1.24191E-03-1.14474E-13
 -1      3732 1.34606E-02 1.27373E-03-1.20823E-13
 -1      3733 1.94611E-03-1.49878E-04-3.89265E-15
 -1      3734 2.08607E-03-1.50768E-04-4.41468E-15
 -1      3735 2.13360E-03-1.17232E-04-4.67675E-15
 -1      3736 1.37246E-02 1.69326E-03-1.18246E-13
 -1      3737 1.36160E-02 1.68411E-03-1.16345E-13
 -1      3738 1.36973E-02 1.65137E-03-1.18492E-13
 -1      3739 3.39179E-03-9.18433E-05-1.08332E-14
 -1      3740 3.25599E-03-1.49961E-05-1.05224E-14
 -1      3741 8.81208E-03 6.92047E-04-4.70053E-14
 -1      3742 8.68749E-03 6.65329E-04-4.53001E-14
 -1      3743 8.32990E-03 5.90977E-04-4.03264E-14
 -1      3744 8.21715E-03 5.67900E-04-3.87178E-14
 -1      3745 9.32963E-03 8.05062E-04-5.40582E-14
 -1      3746 9.19774E-03 7.76000E-04-5.22630E-14
 -1      3747 9.59730E-03 8.64037E-04-5.77088E-14
 -1      3748 9.46285E-03 8.34392E-04-5.58740E-14
 -1      3749 9.37891E-03 7.90703E-04-5.51607E-14
 -1      3750 9.86930E-03 9.23730E-04-6.14368E-14
 -1      3751 9.73281E-03 8.93806E-04-5.95633E-14
 -1      3752 9.64618E-03 8.48516E-04-5.88341E-14
 -1      3753 1.01447E-02 9.83640E-04-6.52301E-14
 -1      3754 1.00066E-02 9.53667E-04-6.33256E-14
 -1      3755 9.91781E-03 9.07064E-04-6.25809E-14
 -1      3756 1.04227E-02 1.04342E-03-6.90926E-14
 -1      3757 1.02834E-02 1.01355E-03-6.71536E-14
 -1      3758 1.01929E-02 9.65893E-04-6.63967E-14
 -1      3759 1.07028E-02 1.10286E-03-7.30162E-14
 -1      3760 1.05625E-02 1.07319E-03-7.10457E-14
 -1      3761 1.04707E-02 1.02469E-03-7.02754E-14
 -1      3762 1.09845E-02 1.16186E-03-7.70022E-14
 -1      3763 1.08435E-02 1.13242E-03-7.50016E-14
 -1      3764 1.07506E-02 1.08327E-03-7.42161E-14
 -1      3765 1.12673E-02 1.22036E-03-8.10553E-14
 -1      3766 1.11257E-02 1.19117E-03-7.90208E-14
 -1      3767 1.10320E-02 1.14151E-03-7.82203E-14
 -1      3768 1.15510E-02 1.27837E-03-8.51664E-14
 -1      3769 1.14091E-02 1.24942E-03-8.31023E-14
 -1      3770 1.13148E-02 1.19938E-03-8.22886E-14
 -1      3771 1.18354E-02 1.33593E-03-8.93345E-14
 -1      3772 1.16931E-02 1.30720E-03-8.72449E-14
 -1      3773 1.15984E-02 1.25687E-03-8.64164E-14
 -1      3774 1.21202E-02 1.39310E-03-9.35549E-14
 -1      3775 1.19777E-02 1.36456E-03-9.14379E-14
 -1      3776 1.18827E-02 1.31402E-03-9.06010E-14
 -1      3777 1.24054E-02 1.44993E-03-9.78196E-14
 -1      3778 1.22628E-02 1.42155E-03-9.56807E-14
 -1      3779 1.21675E-02 1.37085E-03-9.48326E-14
 -1      3780 1.26908E-02 1.50648E-03-1.02117E-13
 -1      3781 1.25481E-02 1.47824E-03-9.99650E-14
 -1      3782 1.24526E-02 1.42742E-03-9.91057E-14
 -1      3783 1.29764E-02 1.56281E-03-1.06455E-13
 -1      3784 1.28336E-02 1.53467E-03-1.04284E-13
 -1      3785 1.27380E-02 1.48377E-03-1.03418E-13
 -1      3786 1.32620E-02 1.61896E-03-1.10821E-13
 -1      3787 1.31192E-02 1.59090E-03-1.08635E-13
 -1      3788 1.30236E-02 1.53995E-03-1.07761E-13
 -1      3789 1.35104E-02 1.66555E-03-1.14679E-13
 -1      3790 1.33676E-02 1.63756E-03-1.12478E-13
 -1      3791 1.32720E-02 1.58657E-03-1.11599E-13
 -1      3792 1.34831E-02 1.62370E-03-1.14922E-13
 -1      3793 2.73972E-03 1.60646E-04-8.24488E-15
 -1      3794 2.80667E-03 1.87540E-04-8.38268E-15
 -1      3795 2.00178E-03 1.97249E-04-3.76214E-15
 -1      3796 1.86997E-03 1.92400E-04-3.29488E-15
 -1      3797 3.02299E-03 2.47318E-04-8.95643E-15
 -1      3798 3.02076E-03 2.67421E-04-8.53526E-15
 -1      3799 2.88664E-03 2.48383E-04-7.86084E-15
 -1      3800 2.90955E-03 2.17191E-04-8.66105E-15
 -1      3801 7.44943E-03 2.82599E-04-3.40541E-14
 -1      3802 7.26209E-03 2.01359E-04-3.33989E-14
 -1      3803 7.76679E-03 3.87469E-04-3.56632E-14
 -1      3804 7.61703E-03 3.41471E-04-3.48586E-14
 -1      3805 7.58897E-03 3.07839E-04-3.55995E-14
 -1      3806 2.26062E-03 2.06710E-04-4.79125E-15
 -1      3807 2.13197E-03 2.02024E-04-4.26082E-15
 -1      3808 2.04407E-03 1.74112E-04-4.06680E-15
 -1      3809 1.73698E-03 1.86953E-04-2.85891E-15
 -1      3810 1.60286E-03 1.80826E-04-2.45421E-15
 -1      3811 1.78493E-03 1.64263E-04-3.12357E-15
 -1      3812 8.11488E-03 5.47121E-04-3.72229E-14
 -1      3813 7.99857E-03 5.19556E-04-3.54699E-14
 -1      3814 7.98192E-03 4.98017E-04-3.52316E-14
 -1      3815 8.16926E-03 5.37061E-04-3.81858E-14
 -1      3816 8.56544E-03 6.39636E-04-4.36179E-14
 -1      3817 8.44601E-03 6.14668E-04-4.19588E-14
 -1      3818 8.38220E-03 5.80206E-04-4.13190E-14
 -1      3819 7.21721E-03 1.36788E-04-3.42448E-14
 -1      3820 1.66764E-03-1.45610E-04-2.94702E-15
 -1      3821 1.80672E-03-1.48232E-04-3.40334E-15
 -1      3822 1.85822E-03-1.18159E-04-3.63678E-15
 -1      3823 9.06742E-03 7.47464E-04-5.04868E-14
 -1      3824 8.93876E-03 7.19371E-04-4.87344E-14
 -1      3825 9.11718E-03 7.34215E-04-5.15648E-14
 -1      3826 1.46705E-03-1.28380E-04-2.35906E-15
 -1      3827 1.57677E-03-1.38103E-04-2.67315E-15
 -1      3828 1.63115E-03-1.11118E-04-2.88148E-15
 -1      3829 1.45319E-03-9.82487E-05-2.35378E-15
 -1      3830 1.34131E-02 1.29694E-03-1.19503E-13
 -1      3831 2.64042E-03 1.20468E-04-7.68026E-15
 -1      3832 2.68623E-03 1.41047E-04-7.96212E-15
 -1      3833 2.63076E-03 1.51861E-04-7.44896E-15
 -1      3834 1.35320E-02 1.40551E-03-1.19811E-13
 -1      3835 1.35593E-02 1.44757E-03-1.19570E-13
 -1      3836 2.78794E-03 1.99083E-04-7.98984E-15
 -1      3837 7.37417E-03 1.75272E-04-3.57840E-14
 -1      3838 8.61654E-03 6.28221E-04-4.46395E-14
 -1      3839 3.12060E-03-1.30295E-06-9.85505E-15
 -1      3840 1.43264E-03 2.92900E-05-2.31891E-15
 -1      3841 1.44582E-03 7.20606E-06-2.37366E-15
 -1      3842 7.52111E-03 2.41732E-04-3.64455E-14
 -1      3843 8.86241E-03 6.79796E-04-4.80547E-14
 -1      3844 2.76616E-03 2.39242E-04-7.17937E-15
 -1      3845 2.64347E-03 2.31557E-04-6.52821E-15
 -1      3846 2.78609E-03 2.22964E-04-7.55959E-15
 -1      3847 1.37785E-02 1.61848E-03-1.20643E-13
 -1      3848 2.91147E-03 4.55264E-05-8.98606E-15
 -1      3849 2.86893E-03 6.52102E-05-8.87335E-15
 -1      3850 2.51211E-03 2.17464E-04-5.94465E-15
 -1      3851 2.38724E-03 2.11876E-04-5.35252E-15
 -1      3852 2.29544E-03 1.83840E-04-5.13486E-15
 -1      3853 1.34491E-02 1.44435E-03-1.17533E-13
 -1      3854 1.35865E-02 1.48945E-03-1.19329E-13
 -1      3855 1.36137E-02 1.53133E-03-1.19086E-13
 -1      3856 1.43829E-03 7.82796E-05-2.26356E-15
 -1      3857 1.43383E-03 5.37451E-05-2.29305E-15
 -1      3858 1.55060E-03 4.85320E-05-2.66206E-15
 -1      3859 1.34404E-02 1.33900E-03-1.19266E-13
 -1      3860 7.87229E-03 4.19202E-04-3.62785E-14
 -1      3861 7.85652E-03 3.96965E-04-3.70418E-14
 -1      3862 3.31096E-03-1.50213E-04-1.01153E-14
 -1      3863 2.75077E-03 7.74882E-05-8.25786E-15
 -1      3864 7.95232E-03 4.79295E-04-3.49071E-14
 -1      3865 7.91681E-03 4.62266E-04-3.46629E-14
 -1      3866 7.95006E-03 4.60436E-04-3.57034E-14
 -1      3867 8.03882E-03 4.97420E-04-3.63691E-14
 -1      3868 7.92349E-03 4.35538E-04-3.65111E-14
 -1      3869 1.23316E-03-3.95943E-05-1.78742E-15
 -1      3870 1.25159E-03-6.21756E-05-1.82677E-15
 -1      3871 1.35677E-03-6.94850E-05-2.10454E-15
 -1      3872 1.34454E-03-2.76350E-05-2.08720E-15
 -1      3873 1.33303E-02 1.33602E-03-1.17229E-13
 -1      3874 2.68037E-03 1.91764E-04-7.30280E-15
 -1      3875 8.90880E-03 6.67367E-04-4.91103E-14
 -1      3876 8.78426E-03 6.41634E-04-4.73773E-14
 -1      3877 9.96514E-03 8.90117E-04-6.37271E-14
 -1      3878 9.82880E-03 8.61316E-04-6.18347E-14
 -1      3879 9.69344E-03 8.32697E-04-5.99596E-14
 -1      3880 9.55913E-03 8.04220E-04-5.81020E-14
 -1      3881 9.73939E-03 8.16418E-04-6.10864E-14
 -1      3882 2.58810E-03-7.30574E-05-6.78128E-15
 -1      3883 2.72623E-03-6.94553E-05-7.45858E-15
 -1      3884 2.81975E-03-3.23825E-05-8.08382E-15
 -1      3885 2.95654E-03-2.75572E-05-8.81965E-15
 -1      3886 7.76102E-03 2.96954E-04-3.88121E-14
 -1      3887 7.89824E-03 3.20697E-04-4.04263E-14
 -1      3888 3.17703E-03-8.92840E-05-9.67539E-15
 -1      3889 7.68088E-03 3.03486E-04-3.72802E-14
 -1      3890 8.66214E-03 6.16839E-04-4.56657E-14
 -1      3891 8.54285E-03 5.92707E-04-4.39781E-14
 -1      3892 8.70356E-03 6.04701E-04-4.66960E-14
 -1      3893 8.03350E-03 3.43500E-04-4.20638E-14
 -1      3894 8.16806E-03 3.66092E-04-4.37275E-14
 -1      3895 8.02027E-03 3.68277E-04-4.11097E-14
 -1      3896 8.30183E-03 3.88541E-04-4.54174E-14
 -1      3897 8.43556E-03 4.11088E-04-4.71290E-14
 -1      3898 8.28090E-03 4.10411E-04-4.44314E-14
 -1      3899 8.56921E-03 4.33789E-04-4.88621E-14
 -1      3900 8.70321E-03 4.56699E-04-5.06186E-14
 -1      3901 8.54231E-03 4.53998E-04-4.78480E-14
 -1      3902 8.83750E-03 4.79865E-04-5.23979E-14
 -1      3903 8.97231E-03 5.03267E-04-5.41957E-14
 -1      3904 8.80595E-03 4.99296E-04-5.13556E-14
 -1      3905 9.10760E-03 5.26959E-04-5.60140E-14
 -1      3906 9.24348E-03 5.50899E-04-5.78527E-14
 -1      3907 9.07241E-03 5.46177E-04-5.49476E-14
 -1      3908 9.37991E-03 5.75127E-04-5.97118E-14
 -1      3909 9.51693E-03 5.99589E-04-6.15880E-14
 -1      3910 9.34185E-03 5.94501E-04-5.86210E-14
 -1      3911 9.65449E-03 6.24321E-04-6.34814E-14
 -1      3912 9.79260E-03 6.49271E-04-6.53910E-14
 -1      3913 9.61418E-03 6.44065E-04-6.23674E-14
 -1      3914 9.93120E-03 6.74472E-04-6.73182E-14
 -1      3915 1.00703E-02 6.99875E-04-6.92606E-14
 -1      3916 9.88913E-03 6.94680E-04-6.61846E-14
 -1      3917 1.02098E-02 7.25503E-04-7.12184E-14
 -1      3918 1.03498E-02 7.51313E-04-7.31911E-14
 -1      3919 1.01664E-02 7.46202E-04-7.00649E-14
 -1      3920 1.04901E-02 7.77319E-04-7.51780E-14
 -1      3921 1.06307E-02 8.03485E-04-7.71805E-14
 -1      3922 1.04456E-02 7.98491E-04-7.40050E-14
 -1      3923 1.07717E-02 8.29823E-04-7.92000E-14
 -1      3924 1.09129E-02 8.56303E-04-8.12311E-14
 -1      3925 1.07263E-02 8.51419E-04-7.80059E-14
 -1      3926 1.10544E-02 8.82929E-04-8.32746E-14
 -1      3927 1.11961E-02 9.09678E-04-8.53348E-14
 -1      3928 1.10084E-02 9.04892E-04-8.20641E-14
 -1      3929 1.13379E-02 9.36550E-04-8.74079E-14
 -1      3930 1.14800E-02 9.63527E-04-8.94927E-14
 -1      3931 1.12915E-02 9.58819E-04-8.61796E-14
 -1      3932 1.16222E-02 9.90605E-04-9.15933E-14
 -1      3933 1.17645E-02 1.01777E-03-9.37029E-14
 -1      3934 1.15754E-02 1.01312E-03-9.03501E-14
 -1      3935 1.19069E-02 1.04502E-03-9.58252E-14
 -1      3936 1.20494E-02 1.07234E-03-9.79607E-14
 -1      3937 1.18599E-02 1.06773E-03-9.45704E-14
 -1      3938 1.21920E-02 1.09972E-03-1.00104E-13
 -1      3939 1.23346E-02 1.12717E-03-1.02258E-13
 -1      3940 1.21448E-02 1.12258E-03-9.88344E-14
 -1      3941 1.24773E-02 1.15467E-03-1.04424E-13
 -1      3942 1.26201E-02 1.18221E-03-1.06598E-13
 -1      3943 1.24301E-02 1.17764E-03-1.03143E-13
 -1      3944 1.27628E-02 1.20979E-03-1.08781E-13
 -1      3945 1.29056E-02 1.23741E-03-1.10971E-13
 -1      3946 1.27155E-02 1.23285E-03-1.07489E-13
 -1      3947 1.30465E-02 1.27284E-03-1.12992E-13
 -1      3948 1.31894E-02 1.30053E-03-1.15193E-13
 -1      3949 1.32810E-02 1.36695E-03-1.15740E-13
 -1      3950 1.29992E-02 1.29595E-03-1.11688E-13
 -1      3951 1.36851E-02 1.62568E-03-1.18730E-13
 -1      3952 1.35765E-02 1.61656E-03-1.16826E-13
 -1      3953 1.34709E-02 1.59803E-03-1.15158E-13
 -1      3954 1.36577E-02 1.58370E-03-1.18971E-13
 -1      3955 2.67923E-03 5.06943E-05-7.72115E-15
 -1      3956 2.64616E-03 8.42685E-05-7.66527E-15
 -1      3957 2.31554E-03-8.06080E-05-5.52148E-15
 -1      3958 2.45165E-03-7.70383E-05-6.13486E-15
 -1      3959 2.49005E-03-4.00459E-05-6.42636E-15
 -1      3960 8.42675E-03 5.69826E-04-4.23150E-14
 -1      3961 8.31452E-03 5.47647E-04-4.06769E-14
 -1      3962 8.46540E-03 5.58620E-04-4.33165E-14
 -1      3963 9.42604E-03 7.76052E-04-5.62652E-14
 -1      3964 9.29427E-03 7.48141E-04-5.44461E-14
 -1      3965 9.47142E-03 7.60884E-04-5.73716E-14
 -1      3966 1.02402E-02 9.47885E-04-6.75642E-14
 -1      3967 1.01023E-02 9.18961E-04-6.56379E-14
 -1      3968 1.00115E-02 8.72738E-04-6.48778E-14
 -1      3969 1.05180E-02 1.00573E-03-7.14595E-14
 -1      3970 1.03788E-02 9.76806E-04-6.95036E-14
 -1      3971 1.02869E-02 9.29514E-04-6.87315E-14
 -1      3972 1.07979E-02 1.06347E-03-7.54160E-14
 -1      3973 1.06577E-02 1.03461E-03-7.34300E-14
 -1      3974 1.05648E-02 9.86470E-04-7.26442E-14
 -1      3975 1.10793E-02 1.12099E-03-7.94413E-14
 -1      3976 1.09384E-02 1.09226E-03-7.74214E-14
 -1      3977 1.08448E-02 1.04341E-03-7.66209E-14
 -1      3978 1.13620E-02 1.17826E-03-8.35247E-14
 -1      3979 1.12205E-02 1.14966E-03-8.14758E-14
 -1      3980 1.11263E-02 1.10026E-03-8.06622E-14
 -1      3981 1.16456E-02 1.23526E-03-8.76702E-14
 -1      3982 1.15037E-02 1.20679E-03-8.55913E-14
 -1      3983 1.14091E-02 1.15696E-03-8.47658E-14
 -1      3984 1.19299E-02 1.29201E-03-9.18660E-14
 -1      3985 1.17877E-02 1.26366E-03-8.97611E-14
 -1      3986 1.16928E-02 1.21350E-03-8.89235E-14
 -1      3987 1.22147E-02 1.34853E-03-9.61111E-14
 -1      3988 1.20723E-02 1.32029E-03-9.39836E-14
 -1      3989 1.19771E-02 1.26988E-03-9.31332E-14
 -1      3990 1.24999E-02 1.40485E-03-1.00393E-13
 -1      3991 1.23573E-02 1.37671E-03-9.82479E-14
 -1      3992 1.22620E-02 1.32611E-03-9.73878E-14
 -1      3993 1.27853E-02 1.46102E-03-1.04714E-13
 -1      3994 1.26426E-02 1.43295E-03-1.02549E-13
 -1      3995 1.25471E-02 1.38221E-03-1.01683E-13
 -1      3996 1.30708E-02 1.51705E-03-1.09065E-13
 -1      3997 1.29281E-02 1.48905E-03-1.06886E-13
 -1      3998 1.28325E-02 1.43821E-03-1.06011E-13
 -1      3999 1.49734E-03 1.45736E-04-2.25906E-15
 -1      4000 1.44433E-03 1.66516E-04-2.03766E-15
 -1      4001 2.04461E-03-8.63203E-05-4.39060E-15
 -1      4002 2.18008E-03-8.38007E-05-4.94047E-15
 -1      4003 2.22548E-03-5.05376E-05-5.20502E-15
 -1      4004 7.98870E-03 4.57338E-04-3.68544E-14
 -1      4005 8.02793E-03 4.52557E-04-3.80167E-14
 -1      4006 8.04520E-03 4.77104E-04-3.71952E-14
 -1      4007 1.49153E-03 2.13015E-04-2.00866E-15
 -1      4008 1.46221E-03 1.95463E-04-1.98992E-15
 -1      4009 7.81338E-03 3.53743E-04-3.79416E-14
 -1      4010 1.83400E-03 1.42428E-04-3.39615E-15
 -1      4011 1.70443E-03 1.37332E-04-2.95190E-15
 -1      4012 1.77390E-03-8.89027E-05-3.38693E-15
 -1      4013 1.90931E-03-8.80623E-05-3.87259E-15
 -1      4014 1.96007E-03-5.79924E-05-4.11089E-15
 -1      4015 9.16402E-03 7.20723E-04-5.26451E-14
 -1      4016 9.03546E-03 6.93687E-04-5.08664E-14
 -1      4017 9.20853E-03 7.06655E-04-5.37282E-14
 -1      4018 2.71332E-03 2.31915E-06-7.69046E-15
 -1      4019 1.55327E-03 2.42245E-06-2.70792E-15
 -1      4020 1.44903E-03-1.31988E-05-2.38866E-15
 -1      4021 1.45405E-03-3.42057E-05-2.40136E-15
 -1      4022 2.08779E-03 1.52308E-04-4.37893E-15
 -1      4023 1.96187E-03 1.47460E-04-3.87166E-15
 -1      4024 1.88469E-03 1.21414E-04-3.67637E-15
 -1      4025 8.02701E-03 4.25146E-04-3.92162E-14
 -1      4026 7.92402E-03 3.91705E-04-3.85780E-14
 -1      4027 7.99885E-03 3.86383E-04-4.01367E-14
 -1      4028 8.95209E-03 6.54364E-04-5.01680E-14
 -1      4029 8.21992E-03 5.04807E-04-4.00024E-14
 -1      4030 8.19023E-03 5.15653E-04-3.90346E-14
 -1      4031 3.08785E-03-2.89378E-05-9.51446E-15
 -1      4032 2.56105E-03 9.82822E-05-7.17027E-15
 -1      4033 1.31673E-02 1.37322E-03-1.13474E-13
 -1      4034 1.33082E-02 1.40877E-03-1.15502E-13
 -1      4035 1.33354E-02 1.45060E-03-1.15262E-13
 -1      4036 2.54343E-03 2.01786E-04-6.29032E-15
 -1      4037 8.16374E-03 4.75432E-04-3.99298E-14
 -1      4038 8.09836E-03 4.51457E-04-3.95737E-14
 -1      4039 8.17379E-03 4.49668E-04-4.11523E-14
 -1      4040 2.33212E-03 1.62832E-04-5.48610E-15
 -1      4041 2.21126E-03 1.57503E-04-4.91678E-15
 -1      4042 2.13362E-03 1.31830E-04-4.69805E-15
 -1      4043 1.31764E-02 1.53562E-03-1.10719E-13
 -1      4044 1.30808E-02 1.48472E-03-1.09838E-13
 -1      4045 1.32819E-02 1.55418E-03-1.12375E-13
 -1      4046 1.58256E-03 1.29737E-04-2.57354E-15
 -1      4047 1.42875E-03 1.17334E-04-2.14238E-15
 -1      4048 1.41915E-03 9.20629E-05-2.17754E-15
 -1      4049 1.53451E-03 8.78572E-05-2.53791E-15
 -1      4050 2.59249E-03 1.60768E-05-7.12212E-15
 -1      4051 1.44838E-03-5.44053E-05-2.37558E-15
 -1      4052 1.45646E-03-7.67897E-05-2.38371E-15
 -1      4053 1.54414E-03-8.23851E-05-2.64227E-15
 -1      4054 1.55189E-03-3.94818E-05-2.69884E-15
 -1      4055 1.66346E-03 6.49885E-05-3.01278E-15
 -1      4056 1.66209E-03 3.92427E-05-3.04550E-15
 -1      4057 1.35203E-02 1.53854E-03-1.17178E-13
 -1      4058 1.63708E-03 1.09259E-04-2.81615E-15
 -1      4059 1.66358E-03 1.82940E-05-3.06718E-15
 -1      4060 1.66753E-03-3.23295E-06-3.08663E-15
 -1      4061 1.77337E-03 3.49672E-05-3.44680E-15
 -1      4062 1.03328E-02 9.10774E-04-6.99011E-14
 -1      4063 1.01946E-02 8.82798E-04-6.79574E-14
 -1      4064 8.30085E-03 5.07386E-04-4.15933E-14
 -1      4065 1.00570E-02 8.54934E-04-6.60273E-14
 -1      4066 9.92024E-03 8.27168E-04-6.41129E-14
 -1      4067 1.01019E-02 8.36631E-04-6.71797E-14
 -1      4068 1.33753E-02 1.54707E-03-1.14273E-13
 -1      4069 2.59214E-03 1.65825E-04-7.02179E-15
 -1      4070 2.57039E-03 1.87132E-04-6.62404E-15
 -1      4071 8.74129E-03 5.91729E-04-4.77302E-14
 -1      4072 8.61908E-03 5.68471E-04-4.60137E-14
 -1      4073 8.12506E-03 4.05883E-04-4.17687E-14
 -1      4074 8.25159E-03 4.26055E-04-4.34273E-14
 -1      4075 8.37901E-03 4.46794E-04-4.51102E-14
 -1      4076 8.22405E-03 4.41005E-04-4.24295E-14
 -1      4077 8.50714E-03 4.68198E-04-4.68155E-14
 -1      4078 8.63628E-03 4.90174E-04-4.85422E-14
 -1      4079 8.47290E-03 4.81701E-04-4.57867E-14
 -1      4080 8.76630E-03 5.12804E-04-5.02936E-14
 -1      4081 8.89735E-03 5.35883E-04-5.20677E-14
 -1      4082 8.72719E-03 5.25561E-04-4.92377E-14
 -1      4083 9.02929E-03 5.59465E-04-5.38610E-14
 -1      4084 9.16224E-03 5.83485E-04-5.56741E-14
 -1      4085 8.98644E-03 5.72030E-04-5.27768E-14
 -1      4086 9.29604E-03 6.07914E-04-5.75075E-14
 -1      4087 9.43075E-03 6.32695E-04-5.93617E-14
 -1      4088 9.25038E-03 6.20650E-04-5.64004E-14
 -1      4089 9.56624E-03 6.57811E-04-6.12325E-14
 -1      4090 9.70255E-03 6.83188E-04-6.31205E-14
 -1      4091 9.51841E-03 6.70918E-04-6.01001E-14
 -1      4092 9.83955E-03 7.08840E-04-6.50272E-14
 -1      4093 9.97723E-03 7.34716E-04-6.69491E-14
 -1      4094 9.79004E-03 7.22454E-04-6.38724E-14
 -1      4095 1.01155E-02 7.60813E-04-6.88885E-14
 -1      4096 1.02544E-02 7.87087E-04-7.08419E-14
 -1      4097 1.00647E-02 7.74952E-04-6.77144E-14
 -1      4098 1.03937E-02 8.13545E-04-7.28089E-14
 -1      4099 1.05335E-02 8.40138E-04-7.47907E-14
 -1      4100 1.03419E-02 8.28188E-04-7.16165E-14
 -1      4101 1.06737E-02 8.66873E-04-7.67911E-14
 -1      4102 1.08143E-02 8.93726E-04-7.88052E-14
 -1      4103 1.06211E-02 8.81980E-04-7.55785E-14
 -1      4104 1.09552E-02 9.20696E-04-8.08314E-14
 -1      4105 1.10964E-02 9.47760E-04-8.28721E-14
 -1      4106 1.09020E-02 9.36217E-04-7.96003E-14
 -1      4107 1.12379E-02 9.74917E-04-8.49278E-14
 -1      4108 1.13796E-02 1.00215E-03-8.69985E-14
 -1      4109 1.11843E-02 9.90789E-04-8.36807E-14
 -1      4110 1.15214E-02 1.02946E-03-8.90831E-14
 -1      4111 1.16635E-02 1.05683E-03-9.11814E-14
 -1      4112 1.14675E-02 1.04562E-03-8.78187E-14
 -1      4113 1.18057E-02 1.08426E-03-9.32898E-14
 -1      4114 1.19480E-02 1.11174E-03-9.54096E-14
 -1      4115 1.17515E-02 1.10065E-03-9.20109E-14
 -1      4116 1.20904E-02 1.13926E-03-9.75419E-14
 -1      4117 1.22330E-02 1.16683E-03-9.96842E-14
 -1      4118 1.20361E-02 1.15583E-03-9.62499E-14
 -1      4119 1.23756E-02 1.19443E-03-1.01838E-13
 -1      4120 1.25182E-02 1.22206E-03-1.04000E-13
 -1      4121 1.23211E-02 1.21114E-03-1.00536E-13
 -1      4122 1.26609E-02 1.24972E-03-1.06168E-13
 -1      4123 1.28037E-02 1.27740E-03-1.08348E-13
 -1      4124 1.26064E-02 1.26654E-03-1.04854E-13
 -1      4125 1.29150E-02 1.30754E-03-1.09902E-13
 -1      4126 1.30559E-02 1.34303E-03-1.11915E-13
 -1      4127 1.30831E-02 1.38479E-03-1.11680E-13
 -1      4128 1.28604E-02 1.32441E-03-1.08574E-13
 -1      4129 8.09289E-03 4.96738E-04-3.75329E-14
 -1      4130 2.34166E-03-2.02000E-07-5.83783E-15
 -1      4131 2.46782E-03 7.54809E-06-6.46499E-15
 -1      4132 2.45249E-03 4.96299E-05-6.49312E-15
 -1      4133 2.52512E-03 1.45836E-04-6.76347E-15
 -1      4134 2.47023E-03 8.29583E-05-6.63015E-15
 -1      4135 2.48088E-03 1.17985E-04-6.64278E-15
 -1      4136 2.42796E-03 1.32637E-04-6.24464E-15
 -1      4137 2.35506E-03 7.34395E-05-5.99979E-15
 -1      4138 9.76659E-03 7.70260E-04-6.24835E-14
 -1      4139 9.63145E-03 7.43438E-04-6.06014E-14
 -1      4140 2.44960E-03 1.74620E-04-6.03327E-15
 -1      4141 8.51668E-03 5.47690E-04-4.46220E-14
 -1      4142 8.39921E-03 5.26298E-04-4.29493E-14
 -1      4143 8.34200E-03 4.94317E-04-4.28724E-14
 -1      4144 8.54774E-03 5.33797E-04-4.56325E-14
 -1      4145 9.49730E-03 7.16945E-04-5.87386E-14
 -1      4146 9.36430E-03 6.90707E-04-5.68947E-14
 -1      4147 1.63228E-03-8.78300E-05-2.91454E-15
 -1      4148 1.05936E-02 9.34679E-04-7.41123E-14
 -1      4149 1.04542E-02 9.06990E-04-7.21380E-14
 -1      4150 1.08739E-02 9.90179E-04-7.81157E-14
 -1      4151 1.07336E-02 9.62396E-04-7.61061E-14
 -1      4152 1.11556E-02 1.04581E-03-8.21759E-14
 -1      4153 1.10146E-02 1.01798E-03-8.01376E-14
 -1      4154 1.14385E-02 1.10152E-03-8.62943E-14
 -1      4155 1.12969E-02 1.07366E-03-8.42272E-14
 -1      4156 1.17223E-02 1.15725E-03-9.04679E-14
 -1      4157 1.15803E-02 1.12938E-03-8.83766E-14
 -1      4158 1.20067E-02 1.21299E-03-9.46954E-14
 -1      4159 1.18644E-02 1.18512E-03-9.25762E-14
 -1      4160 1.22915E-02 1.26873E-03-9.89646E-14
 -1      4161 1.21491E-02 1.24086E-03-9.68250E-14
 -1      4162 1.25768E-02 1.32445E-03-1.03271E-13
 -1      4163 1.24341E-02 1.29659E-03-1.01114E-13
 -1      4164 1.28622E-02 1.38016E-03-1.07610E-13
 -1      4165 1.27194E-02 1.35231E-03-1.05435E-13
 -1      4166 1.88005E-03-3.20449E-05-3.83753E-15
 -1      4167 2.01092E-03-2.82266E-05-4.35070E-15
 -1      4168 1.65457E-03 9.47186E-05-2.91598E-15
 -1      4169 1.69031E-03-3.87999E-05-3.15252E-15
 -1      4170 1.68719E-03-6.10090E-05-3.12397E-15
 -1      4171 2.11345E-03-1.80280E-05-4.78734E-15
 -1      4172 2.24217E-03-1.22805E-05-5.35632E-15
 -1      4173 2.23590E-03 2.84163E-05-5.38773E-15
 -1      4174 2.03623E-03 6.13270E-06-4.48694E-15
 -1      4175 1.33313E-02 1.49478E-03-1.14389E-13
 -1      4176 8.97304E-03 6.14861E-04-5.14760E-14
 -1      4177 8.84569E-03 5.90626E-04-4.97127E-14
 -1      4178 9.23249E-03 6.64957E-04-5.50679E-14
 -1      4179 9.10206E-03 6.39568E-04-5.32609E-14
 -1      4180 1.76183E-03 8.61238E-05-3.31920E-15
 -1      4181 1.88842E-03 9.10531E-05-3.79185E-15
 -1      4182 2.36932E-03 1.49154E-04-5.79339E-15
 -1      4183 2.02965E-03 9.88789E-05-4.36138E-15
 -1      4184 1.91596E-03 6.32580E-05-3.96525E-15
 -1      4185 2.31774E-03 1.20330E-04-5.68416E-15
 -1      4186 8.29346E-03 4.68662E-04-4.28008E-14
 -1      4187 1.91675E-03 4.19647E-05-3.99420E-15
 -1      4188 2.15151E-03 1.04641E-04-4.90021E-15
 -1      4189 1.31904E-02 1.45914E-03-1.12367E-13
 -1      4190 1.79862E-03-2.22702E-05-3.54339E-15
 -1      4191 1.00836E-02 8.05899E-04-6.74500E-14
 -1      4192 9.94624E-03 7.79082E-04-6.55221E-14
 -1      4193 8.75356E-03 5.52043E-04-4.90037E-14
 -1      4194 2.22422E-03 8.69909E-05-5.30865E-15
 -1      4195 8.39782E-03 4.87951E-04-4.41728E-14
 -1      4196 8.52082E-03 5.08833E-04-4.58629E-14
 -1      4197 8.62745E-03 5.29547E-04-4.72716E-14
 -1      4198 9.80958E-03 7.52478E-04-6.36126E-14
 -1      4199 1.02217E-02 8.32859E-04-6.93913E-14
 -1      4200 1.03604E-02 8.59947E-04-7.13468E-14
 -1      4201 2.19169E-03 5.60713E-05-5.18789E-15
 -1      4202 1.85472E-03 4.86068E-06-3.76201E-15
 -1      4203 1.31002E-02 1.45535E-03-1.10735E-13
 -1      4204 1.29947E-02 1.43684E-03-1.09081E-13
 -1      4205 2.09294E-03 4.49594E-05-4.73865E-15
 -1      4206 1.28816E-02 1.35083E-03-1.08500E-13
 -1      4207 1.95751E-03 1.45132E-05-4.16695E-15
 -1      4208 1.31043E-02 1.41126E-03-1.11604E-13
 -1      4209 1.29929E-02 1.38104E-03-1.10052E-13
 -3
    1PSTEP                         2           1           1          
  100CL  101 1.000000000        4209                     0    1           1
 -4  STRESS      6    1
 -5  SXX         1    4    1    1
 -5  SYY         1    4    2    2
 -5  SZZ         1    4    3    3
 -5  SXY         1    4    1    2
 -5  SYZ         1    4    2    3
 -5  SZX         1    4    3    1
 -1         1 1.61201E+01 1.07304E+01 4.46063E-01-1.30059E+01-3.04090E-12 3.51225E-12
 -1         2-7.69646E-01-2.47113E+01-3.36835E+00-8.66277E-02 8.97286E-13 6.34909E-14
 -1         3 2.00000E+01 1.83964E-04-1.49153E-04 1.79146E-04-2.58063E-13-2.99292E-13
 -1         4 2.00000E+01 1.55779E-04-1.65477E-04-1.54709E-04 4.59844E-14 2.33542E-13
 -1         5 3.24449E+01 6.09228E+00 2.63098E+00 6.10841E+00-4.97796E-14 3.42966E-12
 -1         6 3.53600E+01 1.20963E+01 4.96079E+00-8.48221E+00-2.06238E-13 2.72726E-12
 -1         7 2.10913E+01 6.16861E+00-8.88331E-02-4.51358E+00-2.86854E-14 3.03809E-13
 -1         8 1.99654E+01 6.01733E+00 7.02302E-02-2.97025E+00-3.06075E-14-3.86751E-13
 -1         9 1.93698E+01 5.83837E+00 5.86926E-02-2.16507E+00-2.52194E-14-7.23777E-13
 -1        10 1.90115E+01 5.72503E+00 5.23310E-02-1.57326E+00-1.54876E-14-8.56701E-13
 -1        11 1.87546E+01 5.64429E+00 4.47666E-02-1.10163E+00-1.03147E-14-9.00245E-13
 -1        12 1.85638E+01 5.58476E+00 3.74952E-02-7.19521E-01 7.97973E-17-9.01615E-13
 -1        13 1.84268E+01 5.54245E+00 3.13959E-02-3.91113E-01 2.54571E-15-8.85284E-13
 -1        14 1.83516E+01 5.51934E+00 2.75859E-02-1.01956E-01 9.36209E-15-8.58152E-13
 -1        15 1.83439E+01 5.51695E+00 2.66019E-02 1.69957E-01 1.04665E-14-8.23053E-13
 -1        16 1.84071E+01 5.53634E+00 2.87734E-02 4.48309E-01 1.72722E-14-7.79606E-13
 -1        17 1.85416E+01 5.57755E+00 3.41158E-02 7.58816E-01 2.06814E-14-7.13973E-13
 -1        18 1.87411E+01 5.63953E+00 4.19377E-02 1.12177E+00 2.56878E-14-6.11499E-13
 -1        19 1.90163E+01 5.72564E+00 5.09623E-02 1.58074E+00 3.53155E-14-4.42728E-13
 -1        20 1.93922E+01 5.84518E+00 5.85656E-02 2.17073E+00 4.18346E-14-1.51797E-13
 -1        21 1.99892E+01 6.03832E+00 6.77760E-02 2.97391E+00 4.58036E-14 3.75846E-13
 -1        22 2.14455E+01 6.43771E+00 1.63567E-01 4.29286E+00 3.74700E-15 1.37410E-12
 -1        23 2.31808E+01-1.39405E+00-9.48951E-01-6.51517E-01-1.41269E-13 2.02291E-12
 -1        24 1.98734E+01-9.94519E-02-3.03861E-01 7.16697E-02-3.82394E-14 1.39801E-12
 -1        25 1.94709E+01-5.70685E-02-6.73084E-02 6.48455E-02-1.39038E-14 8.06685E-13
 -1        26 1.95570E+01-2.38599E-02-8.69703E-03 3.78142E-02-5.03406E-15 3.85036E-13
 -1        27 1.98869E+01-1.36354E-02-1.89455E-03 2.92612E-02 3.47292E-15 1.59581E-13
 -1        28 2.03555E+01-7.14868E-03-9.80349E-04 2.51300E-02-1.58202E-14 1.23235E-14
 -1        29 2.08935E+01-1.87685E-03 1.68959E-03 2.28419E-02-1.12661E-14-1.94062E-13
 -1        30 2.14359E+01 3.41168E-03 6.98982E-03 2.05079E-02 1.07190E-14-2.90239E-13
 -1        31 2.19063E+01 9.15568E-03 1.49347E-02 1.62738E-02-2.36975E-14-4.93943E-13
 -1        32 2.22094E+01 1.49872E-02 2.47963E-02 8.16200E-03-8.90011E-15-6.76951E-13
 -1        33 2.22375E+01 1.95826E-02 3.42352E-02-5.46970E-03 2.97764E-14-7.60548E-13
 -1        34 2.18946E+01 2.07195E-02 3.87260E-02-2.46751E-02-5.56326E-15-7.71955E-13
 -1        35 2.11420E+01 1.59809E-02 3.23932E-02-4.61190E-02 1.52711E-14-7.94040E-13
 -1        36 2.00557E+01 4.36333E-03 1.14508E-02-6.21161E-02-1.11749E-14-9.42899E-13
 -1        37 1.88610E+01-1.19091E-02-2.09930E-02-6.27435E-02-5.92462E-15-1.10004E-12
 -1        38 1.78960E+01-2.70260E-02-5.27533E-02-4.20599E-02-3.24497E-14-1.25566E-12
 -1        39 1.74874E+01-3.42053E-02-6.82745E-02-4.57691E-03-3.53391E-14-1.48739E-12
 -1        40 1.77931E+01-2.98793E-02-5.88527E-02 3.50350E-02-1.12627E-14-1.59394E-12
 -1        41 1.87166E+01-1.62749E-02-2.99588E-02 6.07579E-02-1.23321E-14-1.66248E-12
 -1        42 1.99616E+01 1.62884E-04 3.45339E-03 6.52886E-02 2.87903E-15-1.52122E-12
 -1        43 2.11822E+01 1.30857E-02 2.74433E-02 5.25707E-02-1.25074E-14-1.26174E-12
 -1        44 2.21233E+01 1.94007E-02 3.67984E-02 3.23239E-02 1.36943E-14-1.14710E-12
 -1        45 2.26772E+01 1.95323E-02 3.41491E-02 1.30999E-02-1.41499E-15-1.05927E-12
 -1        46 2.28612E+01 1.57900E-02 2.53084E-02-7.34444E-04-3.79309E-14-1.24563E-12
 -1        47 2.27614E+01 1.06118E-02 1.52762E-02-8.52460E-03 4.61974E-14-1.19269E-12
 -1        48 2.24820E+01 5.68598E-03 6.88261E-03-1.15546E-02-1.19553E-14-8.06467E-13
 -1        49 2.21142E+01 1.82060E-03 1.04256E-03-1.15768E-02 5.57144E-14-9.43136E-13
 -1        50 2.17250E+01-8.05489E-04-2.42499E-03-1.00603E-02-9.89345E-14-1.24558E-12
 -1        51 2.13568E+01-2.34463E-03-4.10938E-03-7.98899E-03 1.95020E-14-1.16755E-12
 -1        52 2.10322E+01-3.06486E-03-4.62433E-03-5.92147E-03 3.61010E-14-9.87550E-13
 -1        53 2.07602E+01-3.23257E-03-4.45744E-03-4.12268E-03 5.01281E-16-9.58904E-13
 -1        54 2.05410E+01-3.06495E-03-3.94654E-03-2.68163E-03 7.49632E-14-1.05373E-12
 -1        55 2.03703E+01-2.72023E-03-3.30480E-03-1.59431E-03-1.14137E-13-1.24056E-12
 -1        56 2.02414E+01-2.30449E-03-2.65590E-03-8.14644E-04 8.06760E-14-1.30289E-12
 -1        57 2.01468E+01-1.88353E-03-2.06441E-03-2.83010E-04-4.79934E-14-1.39389E-12
 -1        58 2.00797E+01-1.49441E-03-1.55814E-03 5.91267E-05 6.22254E-14-1.21986E-12
 -1        59 2.00339E+01-1.15497E-03-1.14349E-03 2.62708E-04-9.02612E-14-1.08313E-12
 -1        60 2.00041E+01-8.70940E-04-8.15370E-04 3.69101E-04 3.99116E-14-7.65814E-13
 -1        61 1.99861E+01-6.40891E-04-5.63313E-04 4.10394E-04 1.07856E-13-1.87051E-14
 -1        62 1.99765E+01-4.59567E-04-3.74975E-04 4.10621E-04-9.18101E-14-1.04573E-14
 -1        63 1.99727E+01-3.19945E-04-2.38032E-04 3.87229E-04-6.32014E-14-4.88007E-13
 -1        64 1.99728E+01-2.14481E-04-1.41090E-04 3.52463E-04 4.11327E-15-7.27497E-13
 -1        65 1.99754E+01-1.35775E-04-7.39385E-05 3.14543E-04-6.91363E-14-6.69833E-13
 -1        66 1.99795E+01-7.68652E-05-2.72525E-05 2.78512E-04 1.48192E-14-3.59538E-13
 -1        67 1.99843E+01-3.12802E-05 8.32114E-06 2.46622E-04 9.63677E-14-2.37941E-13
 -1        68 1.99893E+01 6.98568E-06 4.37375E-05 2.17871E-04 1.60204E-13-1.09808E-14
 -1        69 1.99939E+01 4.21816E-05 9.13396E-05 1.84726E-04-9.43692E-14 4.15209E-13
 -1        70 1.99976E+01 6.27876E-05 1.42923E-04 1.15505E-04 1.24696E-13 3.57702E-13
 -1        71 1.99997E+01-1.30353E-05 9.77224E-05-1.75649E-06 4.52116E-14 3.04138E-13
 -1        72 2.12246E+01-4.04353E-01-9.85167E-01-3.28796E-01 3.10758E-14 3.24615E-12
 -1        73 1.98841E+01-6.69928E-02-2.85787E-01-5.72287E-02 2.41651E-14 2.59813E-12
 -1        74 1.95714E+01-2.35976E-02-6.53166E-02-2.04182E-02 8.74322E-15 2.13200E-12
 -1        75 1.97390E+01-1.44388E-02-1.60088E-02-1.48794E-02 6.88458E-15 1.78276E-12
 -1        76 2.02084E+01-1.07856E-02-1.01195E-02-1.29788E-02 8.95421E-15 1.43830E-12
 -1        77 2.09052E+01-8.66191E-03-1.21271E-02-1.37182E-02 1.98077E-14 1.21917E-12
 -1        78 2.18009E+01-6.42310E-03-1.36542E-02-1.73494E-02-1.71193E-14 1.18834E-12
 -1        79 2.28749E+01-2.67043E-03-1.19783E-02-2.43756E-02 1.82104E-14 1.12787E-12
 -1        80 2.40840E+01 4.02770E-03-3.68093E-03-3.49677E-02-6.16279E-15 9.77938E-13
 -1        81 2.53242E+01 1.46504E-02 1.63103E-02-4.73958E-02 7.87922E-15 8.58034E-13
 -1        82 2.63835E+01 2.81667E-02 5.21892E-02-5.52215E-02 1.81966E-14 7.62064E-13
 -1        83 2.69082E+01 3.89329E-02 9.94099E-02-4.43610E-02-8.94120E-15 8.93505E-13
 -1        84 2.64479E+01 3.59137E-02 1.33147E-01 4.15272E-03-3.05355E-15 8.51735E-13
 -1        85 2.46794E+01 9.86499E-03 1.07540E-01 9.56815E-02-1.64582E-14 1.01408E-12
 -1        86 2.18285E+01-3.15255E-02-8.01344E-03 1.90505E-01 2.05655E-14 7.61606E-13
 -1        87 1.89744E+01-6.00575E-02-1.68731E-01 2.05927E-01-5.71873E-14 5.61814E-13
 -1        88 1.76534E+01-5.32001E-02-2.52390E-01 9.37093E-02-4.97445E-14 6.38712E-13
 -1        89 1.87094E+01-2.02658E-02-1.83876E-01-7.81378E-02 4.84066E-14 3.95205E-13
 -1        90 2.15134E+01 1.38244E-02-2.36578E-02-1.84237E-01-4.66257E-14 4.30142E-14
 -1        91 2.45479E+01 3.27790E-02 1.03044E-01-1.78853E-01 9.96881E-15 2.75398E-13
 -1        92 2.66148E+01 3.38891E-02 1.35741E-01-1.10506E-01 1.05452E-14 2.30961E-13
 -1        93 2.73687E+01 2.48715E-02 1.05061E-01-3.89167E-02 4.05873E-14 6.10744E-14
 -1        94 2.70793E+01 1.33174E-02 5.68350E-02 7.16164E-03-1.11837E-14-1.03450E-14
 -1        95 2.62014E+01 3.92450E-03 1.82311E-02 2.75706E-02 3.45815E-14-1.61676E-13
 -1        96 2.51115E+01-1.96409E-03-4.16848E-03 3.19287E-02 7.07188E-14 8.29649E-14
 -1        97 2.40396E+01-4.87161E-03-1.38484E-02 2.87823E-02-5.86799E-14 6.12288E-14
 -1        98 2.30955E+01-5.81677E-03-1.61110E-02 2.32187E-02 3.98379E-14-1.07293E-14
 -1        99 2.23148E+01-5.67694E-03-1.49088E-02 1.76337E-02-7.99629E-15-3.33644E-13
 -1       100 2.16943E+01-5.03678E-03-1.24966E-02 1.29052E-02 3.35685E-14 4.15800E-14
 -1       101 2.12145E+01-4.23256E-03-9.94746E-03 9.20298E-03 4.23352E-14-2.92730E-14
 -1       102 2.08511E+01-3.43596E-03-7.68387E-03 6.42269E-03-5.07084E-15-4.22491E-13
 -1       103 2.05808E+01-2.72290E-03-5.82009E-03 4.38597E-03-7.09386E-14-9.28730E-14
 -1       104 2.03832E+01-2.11843E-03-4.34356E-03 2.91925E-03 3.47461E-14 5.45479E-13
 -1       105 2.02413E+01-1.62280E-03-3.19938E-03 1.87806E-03 2.43488E-14 5.51687E-13
 -1       106 2.01415E+01-1.22548E-03-2.32547E-03 1.14961E-03-9.64571E-14 1.48110E-13
 -1       107 2.00730E+01-9.12342E-04-1.66536E-03 6.48508E-04 7.64369E-14-4.65829E-13
 -1       108 2.00277E+01-6.69030E-04-1.17179E-03 3.11229E-04 3.17271E-14-7.37524E-13
 -1       109 1.99990E+01-4.82448E-04-8.06756E-04 9.08647E-05-6.16484E-14-2.16278E-13
 -1       110 1.99822E+01-3.41217E-04-5.40273E-04-4.71374E-05 5.31323E-16-5.33904E-13
 -1       111 1.99737E+01-2.35701E-04-3.48804E-04-1.28254E-04 1.19803E-13-6.27532E-13
 -1       112 1.99708E+01-1.57830E-04-2.13837E-04-1.71288E-04-1.96573E-13-4.95825E-13
 -1       113 1.99716E+01-1.00843E-04-1.20693E-04-1.90112E-04 9.43988E-14 1.50661E-14
 -1       114 1.99747E+01-5.91102E-05-5.75795E-05-1.94882E-04-7.15811E-14-6.52073E-13
 -1       115 1.99791E+01-2.77332E-05-1.45042E-05-1.93080E-04 8.05562E-14-6.12793E-13
 -1       116 1.99841E+01-2.24542E-06 1.86216E-05-1.90196E-04 9.70188E-14-7.51327E-13
 -1       117 1.99892E+01 2.07308E-05 5.33420E-05-1.88539E-04 4.37200E-14-1.32099E-12
 -1       118 1.99939E+01 4.40265E-05 1.01845E-04-1.86348E-04-1.34982E-13-1.39406E-12
 -1       119 1.99977E+01 6.22860E-05 1.58375E-04-1.63627E-04-1.11044E-13-7.89304E-13
 -1       120 1.99997E+01-4.64795E-05 7.46924E-05-4.18168E-05 7.68415E-14-2.57297E-13
 -1       121 1.99998E+01-2.05716E-04 6.70201E-05-1.06292E-05-1.19747E-13 1.73031E-13
 -1       122 1.99999E+01-2.19720E-03 1.21119E-04-1.27639E-04-6.46996E-14-2.59920E-13
 -1       123 1.99998E+01-5.61155E-03 3.83801E-05-1.64596E-04 1.51123E-13 4.91673E-14
 -1       124 1.99998E+01-9.39553E-03-2.73778E-05-1.53284E-04-4.40796E-13 1.66149E-13
 -1       125 1.99998E+01-1.28936E-02-6.41539E-05-1.22222E-04 1.88728E-13 8.62566E-14
 -1       126 1.99997E+01-1.56823E-02-8.24238E-05-8.75794E-05 3.46498E-13 7.51517E-14
 -1       127 1.99997E+01-1.76380E-02-8.89053E-05-5.09666E-05 1.17262E-12 1.87601E-13
 -1       128 1.99997E+01-1.86111E-02-9.05135E-05-1.56243E-05 4.74882E-13-1.54517E-13
 -1       129 1.99997E+01-1.85692E-02-8.97371E-05 1.87977E-05 3.76744E-13 8.60308E-14
 -1       130 1.99997E+01-1.75205E-02-8.67713E-05 5.33078E-05 4.84848E-13-5.41985E-14
 -1       131 1.99998E+01-1.55128E-02-7.87554E-05 8.97540E-05-5.32049E-13-8.55365E-14
 -1       132 1.99998E+01-1.27053E-02-6.15209E-05 1.22210E-04-1.08565E-12 6.00975E-14
 -1       133 1.99998E+01-9.21835E-03-2.50918E-05 1.51470E-04-1.14950E-12 1.07084E-13
 -1       134 1.99998E+01-5.46768E-03 4.45655E-05 1.71670E-04-7.25708E-13 6.34579E-14
 -1       135 1.99999E+01-2.18165E-03 1.02014E-04 1.74781E-04-2.57372E-13-2.47207E-13
 -1       136 1.99999E+01-2.63700E-04 5.88307E-05-3.51369E-05-5.20682E-13 8.39710E-14
 -1       137-1.57691E+00-2.05734E+01-3.14600E+00-3.97133E+00 2.43258E-12 5.65440E-13
 -1       138-1.63814E+00-9.00548E+00-2.37878E+00-3.14870E+00 3.03624E-12 1.32219E-12
 -1       139 2.85545E+00 3.05952E+00-1.21566E+00 3.26383E+00 3.00510E-12 2.39353E-12
 -1       140 1.53974E+01 1.00723E+01 2.28914E-01 1.24393E+01 2.67930E-12 3.22470E-12
 -1       141 3.60506E+01 9.77194E+00 1.86505E+00 1.81488E+01 1.60838E-12 2.89196E-12
 -1       142 5.61396E+01 5.01303E+00 3.13128E+00 1.49782E+01 6.06862E-13 1.41714E-12
 -1       143 6.80622E+01 1.17317E+00 3.83133E+00 3.33201E+00-3.49998E-14-4.05037E-13
 -1       144 6.46528E+01 2.32217E+00 3.63988E+00-9.84081E+00 4.43420E-13-2.00281E-12
 -1       145 4.84140E+01 7.40524E+00 2.67865E+00-1.78355E+01 1.28855E-12-3.29181E-12
 -1       146 2.58523E+01 1.07786E+01 1.12782E+00-1.63409E+01 2.18353E-12-3.13038E-12
 -1       147 9.11617E+00 7.95752E+00-3.95718E-01-8.61062E+00 2.58116E-12-2.51826E-12
 -1       148-1.39666E-01-2.15936E+00-1.78956E+00 3.58008E-01 2.38976E-12-1.45606E-12
 -1       149-1.90961E+00-1.45259E+01-2.79017E+00 4.30504E+00 1.54515E-12-5.92928E-13
 -1       150-1.18275E+00-2.32381E+01-3.30872E+00 2.66079E+00-6.86118E-14-5.72146E-14
 -1       151-8.94683E-01-2.39302E+01-3.32605E+00-1.66706E+00-1.75596E-12-2.28331E-13
 -1       152-1.76841E+00-1.57704E+01-2.79616E+00-4.20212E+00-2.85466E-12-9.37972E-13
 -1       153-2.82184E-02-2.65937E+00-1.71873E+00-3.40592E-01-3.23669E-12-1.84192E-12
 -1       154 8.19004E+00 7.66123E+00-3.44623E-01 8.05328E+00-2.83179E-12-2.51504E-12
 -1       155 2.63540E+01 1.12337E+01 1.25952E+00 1.68621E+01-1.78385E-12-2.47163E-12
 -1       156 4.65013E+01 7.46374E+00 2.52162E+00 1.77256E+01-7.13929E-13-1.94311E-12
 -1       157 6.19352E+01 2.46472E+00 3.31595E+00 9.79093E+00-2.64197E-13-5.40956E-13
 -1       158 6.53213E+01 1.18546E+00 3.46688E+00-3.79986E+00-1.78503E-13 1.38334E-12
 -1       159 5.46263E+01 5.02726E+00 2.93324E+00-1.49204E+01-9.47770E-13 2.86904E-12
 -1       160 3.49043E+01 9.97544E+00 1.81749E+00-1.80042E+01-2.17781E-12 3.77426E-12
 -1       161 3.29681E+00 4.09274E+00-9.75728E-01-3.92546E+00-3.04701E-12 2.36466E-12
 -1       162-1.36099E+00-7.73880E+00-2.17431E+00 2.67963E+00-2.32087E-12 1.12391E-12
 -1       163-1.38605E+00-1.94498E+01-3.02295E+00 3.73214E+00-8.80629E-13 2.83572E-13
 -1       164 2.13729E+01 3.65731E+00-5.35691E-02-3.30370E+00-4.26032E-13-3.06387E-14
 -1       165 2.03047E+01 4.21355E+00-4.33315E-02-2.45691E+00-3.66101E-13-4.38510E-13
 -1       166 1.96972E+01 4.51607E+00-3.04013E-02-1.81892E+00-2.76841E-13-6.44717E-13
 -1       167 1.92944E+01 4.68196E+00-2.25507E-02-1.30945E+00-1.72270E-13-7.33066E-13
 -1       168 1.90012E+01 4.78734E+00-1.78336E-02-8.95738E-01-8.88562E-14-7.50124E-13
 -1       169 1.87818E+01 4.85939E+00-1.53085E-02-5.43207E-01-1.59039E-14-7.47635E-13
 -1       170 1.86406E+01 4.90474E+00-1.39466E-02-2.38899E-01 5.93793E-14-7.13992E-13
 -1       171 1.85834E+01 4.92562E+00-1.34642E-02 3.75520E-02 1.26761E-13-6.88721E-13
 -1       172 1.86163E+01 4.92092E+00-1.38111E-02 3.07761E-01 1.91152E-13-6.56804E-13
 -1       173 1.87430E+01 4.88722E+00-1.50820E-02 5.95263E-01 2.52674E-13-6.14874E-13
 -1       174 1.89597E+01 4.82027E+00-1.76176E-02 9.19408E-01 3.18632E-13-5.39967E-13
 -1       175 1.92765E+01 4.70726E+00-2.22635E-02 1.31852E+00 3.95222E-13-4.06112E-13
 -1       176 1.97108E+01 4.52437E+00-3.09910E-02 1.81949E+00 4.56333E-13-2.07875E-13
 -1       177 2.03501E+01 4.20201E+00-4.41052E-02 2.45626E+00 4.84403E-13 1.39160E-13
 -1       178 2.15193E+01 3.43296E+00-5.53425E-02 3.20426E+00 4.28551E-13 7.64763E-13
 -1       179 2.27448E+01 1.10575E+00-3.29851E-01 2.77107E+00 2.82886E-13 1.55574E-12
 -1       180 2.23661E+01 8.35750E-01 1.19312E-03-1.73088E+00-3.91413E-13 5.15116E-13
 -1       181 2.10344E+01 1.87284E-01-8.81631E-03-5.42372E-01-3.40155E-13 3.32505E-13
 -1       182 2.04770E+01 1.08328E-01 1.41079E-02-5.57958E-02-2.40793E-13 1.86086E-13
 -1       183 2.03762E+01 5.81489E-02 1.01885E-02 1.84991E-01-1.58770E-13 6.03285E-14
 -1       184 2.05098E+01 3.25119E-02 5.04997E-03 3.18763E-01-1.05311E-13-5.70600E-14
 -1       185 2.07782E+01 1.29224E-02 1.91750E-03 3.87712E-01-1.33679E-13-6.44430E-14
 -1       186 2.11107E+01-7.90483E-03-2.69351E-05 4.01000E-01-8.21858E-14-1.54807E-13
 -1       187 2.14458E+01-3.34859E-02-1.42869E-03 3.53225E-01-9.04281E-14-2.30528E-13
 -1       188 2.17207E+01-6.43259E-02-2.45876E-03 2.33441E-01-7.46677E-14-1.75365E-13
 -1       189 2.18688E+01-9.64962E-02-2.98012E-03 3.46587E-02-7.92558E-14-1.36432E-13
 -1       190 2.18271E+01-1.19772E-01-2.76826E-03-2.33011E-01-6.54199E-14-3.15002E-13
 -1       191 2.15542E+01-1.17861E-01-1.70426E-03-5.27365E-01-2.91197E-14-3.70923E-13
 -1       192 2.10585E+01-7.45652E-02-5.51966E-05-7.66607E-01-8.81472E-14-3.91060E-13
 -1       193 2.04237E+01 1.29178E-02 1.62066E-03-8.45270E-01-1.26610E-13-4.35552E-13
 -1       194 1.98123E+01 1.20600E-01 2.72874E-03-6.83001E-01-1.12231E-13-4.23764E-13
 -1       195 1.94219E+01 2.00898E-01 3.21024E-03-2.87607E-01-1.77716E-13-5.22080E-13
 -1       196 1.93993E+01 2.11095E-01 3.07872E-03 2.20403E-01-1.36701E-13-7.13470E-13
 -1       197 1.97636E+01 1.45573E-01 2.72330E-03 6.59629E-01-4.47771E-14-8.86203E-13
 -1       198 2.03950E+01 4.07636E-02 1.91969E-03 8.87459E-01 2.01536E-14-8.55516E-13
 -1       199 2.11015E+01-5.37414E-02 4.37874E-04 8.68799E-01 1.14820E-13-8.75802E-13
 -1       200 2.17083E+01-1.07155E-01-1.22733E-03 6.68198E-01 5.44009E-14-8.89659E-13
 -1       201 2.21127E+01-1.17205E-01-2.49505E-03 3.89774E-01 1.97034E-14-8.35656E-13
 -1       202 2.22900E+01-9.84263E-02-2.98185E-03 1.22057E-01 2.28357E-14-7.15700E-13
 -1       203 2.22701E+01-6.80485E-02-2.76154E-03-8.53254E-02 5.14311E-14-4.20382E-13
 -1       204 2.21074E+01-3.81932E-02-2.09955E-03-2.18449E-01 7.96655E-14-4.27690E-13
 -1       205 2.18595E+01-1.46601E-02-1.29284E-03-2.85305E-01-6.90076E-14-5.12928E-13
 -1       206 2.15746E+01 1.26088E-03-5.53332E-04-3.02736E-01-1.03515E-13-6.29169E-13
 -1       207 2.12880E+01 1.05600E-02 1.46661E-05-2.88190E-01-2.37787E-14-5.44522E-13
 -1       208 2.10217E+01 1.49586E-02 3.88715E-04-2.55975E-01 1.04374E-13-4.73225E-13
 -1       209 2.07879E+01 1.61203E-02 5.93504E-04-2.16333E-01 1.55841E-14-4.83422E-13
 -1       210 2.05910E+01 1.53605E-02 6.71320E-04-1.75859E-01-1.60405E-13-4.26177E-13
 -1       211 2.04308E+01 1.36086E-02 6.64623E-04-1.38352E-01-1.49097E-13-7.90533E-13
 -1       212 2.03043E+01 1.14698E-02 6.08282E-04-1.05666E-01 2.80199E-14-6.58300E-13
 -1       213 2.02071E+01 9.30865E-03 5.27720E-04-7.84115E-02 5.51049E-14-4.69693E-13
 -1       214 2.01344E+01 7.32375E-03 4.39860E-04-5.64554E-02 1.12979E-13-4.62009E-13
 -1       215 2.00816E+01 5.60629E-03 3.55000E-04-3.92747E-02 1.06396E-13-2.97831E-13
 -1       216 2.00443E+01 4.18198E-03 2.78699E-04-2.61789E-02 5.15613E-14-2.35183E-13
 -1       217 2.00190E+01 3.03954E-03 2.13348E-04-1.64447E-02 3.78427E-13-1.52692E-13
 -1       218 2.00027E+01 2.14883E-03 1.59359E-04-9.39207E-03-5.46462E-14-2.18268E-13
 -1       219 1.99931E+01 1.47185E-03 1.15993E-04-4.42213E-03-2.14216E-13-1.29757E-13
 -1       220 1.99881E+01 9.69083E-04 8.19061E-05-1.03161E-03-2.50166E-13-2.75990E-13
 -1       221 1.99863E+01 6.02760E-04 5.54885E-05 1.18536E-03 5.30869E-14-4.12593E-13
 -1       222 1.99868E+01 3.38079E-04 3.50873E-05 2.54224E-03 9.33276E-14-2.62256E-13
 -1       223 1.99885E+01 1.42892E-04 1.92280E-05 3.26680E-03 1.73797E-13-3.24811E-13
 -1       224 1.99910E+01-1.36856E-05 6.94858E-06 3.50695E-03 3.23244E-13-6.88665E-14
 -1       225 1.99937E+01-1.64785E-04-1.35402E-06 3.33343E-03 2.42569E-13-8.66210E-14
 -1       226 1.99962E+01-3.50012E-04-5.48211E-06 2.74125E-03 4.84605E-14 5.99690E-14
 -1       227 1.99983E+01-5.89115E-04-2.10056E-06 1.69833E-03 6.38441E-14 2.01832E-13
 -1       228 2.14891E+01 2.71433E-01-4.79985E-02 9.43106E-01 3.23221E-13 1.34524E-12
 -1       229 2.06566E+01 1.34223E-01 9.70538E-03 2.13290E-01 2.55524E-13 1.07932E-12
 -1       230 2.04589E+01 7.54801E-02 1.33326E-02-1.20349E-01 1.98914E-13 8.49466E-13
 -1       231 2.06259E+01 5.34020E-02 7.98920E-03-3.26263E-01 1.76782E-13 7.23915E-13
 -1       232 2.10418E+01 4.52757E-02 3.92906E-03-4.82962E-01 9.38824E-14 6.23254E-13
 -1       233 2.16470E+01 4.08626E-02 1.48798E-03-6.16500E-01 2.64643E-14 5.29590E-13
 -1       234 2.24018E+01 3.34947E-02-2.44352E-04-7.28460E-01 4.92895E-14 4.70563E-13
 -1       235 2.32602E+01 1.54546E-02-1.56959E-03-7.99199E-01 7.71434E-14 4.85704E-13
 -1       236 2.41470E+01-2.32365E-02-1.93951E-03-7.83975E-01 5.98065E-14 4.14445E-13
 -1       237 2.49354E+01-9.20056E-02-1.63779E-04-6.11715E-01 1.91730E-15 3.89526E-13
 -1       238 2.54354E+01-1.88506E-01 4.55913E-03-2.03013E-01-7.98511E-14 4.26866E-13
 -1       239 2.54183E+01-2.76337E-01 1.01393E-02 4.66815E-01-2.94790E-14 5.34846E-13
 -1       240 2.47153E+01-2.68212E-01 1.01371E-02 1.25113E+00-2.21810E-14 6.21645E-13
 -1       241 2.34056E+01-7.36620E-02-3.50178E-03 1.74648E+00 1.23289E-13 6.12690E-13
 -1       242 2.19878E+01 2.67490E-01-2.83732E-02 1.46188E+00 1.47046E-13 5.35261E-13
 -1       243 2.12524E+01 5.10627E-01-4.27156E-02 3.18013E-01 7.55992E-14 1.56865E-13
 -1       244 2.17048E+01 4.25702E-01-3.12018E-02-1.04809E+00 1.44320E-13-1.11119E-13
 -1       245 2.30747E+01 1.01517E-01-2.87733E-03-1.78280E+00 8.99844E-14-1.09373E-13
 -1       246 2.45796E+01-1.81944E-01 1.64170E-02-1.61477E+00-8.67908E-14-2.73486E-13
 -1       247 2.55794E+01-2.80614E-01 1.45093E-02-9.15328E-01 5.16228E-14-3.30163E-13
 -1       248 2.58786E+01-2.34201E-01 5.47644E-03-1.64105E-01 4.66337E-14-3.18064E-13
 -1       249 2.55970E+01-1.38247E-01-1.35975E-03 3.68417E-01 6.82791E-14-3.72793E-13
 -1       250 2.49633E+01-5.48776E-02-3.86611E-03 6.39403E-01 4.03779E-14-5.15025E-13
 -1       251 2.41822E+01-2.06918E-03-3.50455E-03 7.14779E-01-1.29309E-13-2.82009E-13
 -1       252 2.33933E+01 2.43826E-02-2.12771E-03 6.76628E-01-8.47660E-14-4.89968E-14
 -1       253 2.26741E+01 3.39070E-02-8.04416E-04 5.86871E-01 7.85023E-14-1.14327E-14
 -1       254 2.20580E+01 3.43559E-02 1.03847E-04 4.82858E-01 2.57386E-14 1.18768E-13
 -1       255 2.15517E+01 3.07274E-02 5.99320E-04 3.83680E-01-1.27872E-13 1.35296E-13
 -1       256 2.11477E+01 2.57605E-02 8.00418E-04 2.97332E-01 2.42663E-14 1.55528E-13
 -1       257 2.08325E+01 2.07837E-02 8.26211E-04 2.25897E-01 9.62072E-14 7.06525E-14
 -1       258 2.05912E+01 1.63505E-02 7.62310E-04 1.68663E-01-2.24034E-13 1.41518E-13
 -1       259 2.04096E+01 1.26277E-02 6.61171E-04 1.23815E-01-1.34289E-13 1.73599E-13
 -1       260 2.02752E+01 9.60643E-03 5.51626E-04 8.92701E-02 5.83898E-14 2.52747E-13
 -1       261 2.01776E+01 7.20819E-03 4.48013E-04 6.30469E-02 1.23995E-13 1.79075E-13
 -1       262 2.01080E+01 5.33478E-03 3.56514E-04 4.34141E-02 3.55809E-13-1.36458E-13
 -1       263 2.00597E+01 3.89027E-03 2.78963E-04 2.89219E-02-6.25043E-16-2.08532E-13
 -1       264 2.00272E+01 2.78985E-03 2.14997E-04 1.83880E-02-1.21067E-13-3.30222E-13
 -1       265 2.00062E+01 1.96192E-03 1.63250E-04 1.08646E-02 1.84107E-13-4.51144E-13
 -1       266 1.99936E+01 1.34741E-03 1.21999E-04 5.60134E-03 4.06797E-14-3.12770E-13
 -1       267 1.99868E+01 8.97971E-04 8.94795E-05 2.01167E-03-2.03283E-13-8.47244E-14
 -1       268 1.99841E+01 5.74085E-04 6.40320E-05-3.56110E-04 1.52047E-13-1.26556E-13
 -1       269 1.99841E+01 3.43185E-04 4.41501E-05-1.84268E-03 5.84917E-14-1.14389E-13
 -1       270 1.99858E+01 1.78290E-04 2.85514E-05-2.69627E-03 1.93095E-13-2.01815E-13
 -1       271 1.99885E+01 5.57886E-05 1.64399E-05-3.08746E-03 4.62689E-14-3.72660E-13
 -1       272 1.99915E+01-5.05823E-05 8.40199E-06-3.11350E-03 1.50026E-13 8.55301E-14
 -1       273 1.99945E+01-1.58611E-04 7.68036E-06-2.80274E-03-2.45434E-13 2.77421E-13
 -1       274 1.99971E+01-3.14019E-04 9.02287E-06-2.11804E-03-1.34147E-13 1.54934E-13
 -1       275 1.99989E+01-4.73762E-04 5.34473E-06-1.02723E-03 1.61358E-14 1.44784E-13
 -1       276 1.99993E+01-1.63776E-03-4.72128E-06-1.71687E-03 1.73221E-13 1.46837E-13
 -1       277 1.99996E+01-3.59861E-03-3.10876E-06-2.56010E-03 3.26747E-13 1.17138E-13
 -1       278 1.99998E+01-5.88283E-03-1.75404E-06-2.81645E-03 9.89818E-14-3.24277E-13
 -1       279 2.00000E+01-8.16147E-03 2.19166E-06-2.61643E-03-1.60126E-13 4.13163E-13
 -1       280 2.00000E+01-1.01251E-02 6.55939E-06-2.13202E-03 1.12235E-14 1.89373E-13
 -1       281 2.00001E+01-1.16526E-02 1.00098E-05-1.47436E-03 7.33918E-14 2.52458E-13
 -1       282 2.00001E+01-1.25914E-02 1.20536E-05-7.35087E-04 1.64012E-13-1.39478E-13
 -1       283 2.00001E+01-1.28895E-02 1.26573E-05 3.22400E-05 3.25737E-13-1.40494E-13
 -1       284 2.00001E+01-1.25354E-02 1.19391E-05 7.93252E-04 4.28825E-14 3.17809E-15
 -1       285 2.00001E+01-1.15511E-02 9.81839E-06 1.51551E-03-1.91676E-14-6.81259E-13
 -1       286 2.00000E+01-1.00282E-02 6.23959E-06 2.14027E-03-1.46115E-13-4.15732E-13
 -1       287 1.99999E+01-8.02704E-03 1.93231E-06 2.60780E-03-8.49316E-14-3.13983E-14
 -1       288 1.99998E+01-5.76587E-03-2.81256E-06 2.78840E-03-2.37203E-13 5.89208E-14
 -1       289 1.99995E+01-3.50295E-03-6.76543E-06 2.47889E-03-3.79743E-13 8.37910E-14
 -1       290 1.99990E+01-1.90161E-03-1.10700E-05 2.42698E-03-1.91156E-13-2.79576E-14
 -1       291-8.08331E-01-9.97573E+00-8.10136E-01 9.80609E-01 4.49786E-13 8.40744E-13
 -1       292 3.27135E+00-8.16811E+00-6.17932E-01 3.85710E+00 8.19372E-13 7.22596E-13
 -1       293 9.29279E+00-5.34412E+00-5.64579E-01 5.21868E+00 1.40848E-12 1.19879E-12
 -1       294 1.91190E+01-1.84553E+00-1.63342E-01 6.81552E+00 1.23418E-12 1.33932E-12
 -1       295 2.97050E+01 2.10034E+00 3.11619E-01 7.34961E+00 1.28181E-12 1.06232E-12
 -1       296 3.91703E+01 4.42443E+00 6.20618E-01 4.83639E+00 1.15858E-12 4.40120E-13
 -1       297 4.35531E+01 6.81350E+00 6.97581E-01 1.50122E+00 1.03789E-12 1.34087E-13
 -1       298 4.80890E+01 6.71728E+00 1.12505E+00-1.08927E+00 8.29059E-13-4.34687E-13
 -1       299 4.37002E+01 5.89996E+00 8.72516E-01-3.94798E+00 9.68503E-13-7.85566E-13
 -1       300 3.52849E+01 2.64678E+00 3.77237E-01-4.84346E+00 7.07070E-13-9.93455E-13
 -1       301 2.47676E+01 5.31208E-01 9.08157E-02-7.43697E+00 8.82266E-13-1.20645E-12
 -1       302 1.52155E+01-3.72802E+00-2.91245E-01-6.51086E+00 6.25389E-13-1.02408E-12
 -1       303 5.94279E+00-7.09222E+00-6.91345E-01-4.40036E+00 4.77424E-13-8.24174E-13
 -1       304 1.07055E+00-9.23988E+00-7.49834E-01-2.69614E+00-2.35922E-15-8.54108E-13
 -1       305-9.79875E-01-9.07419E+00-6.44118E-01-4.19336E-02-3.26066E-13-7.98611E-13
 -1       306 2.01527E-01-1.02133E+01-9.15596E-01 2.19932E+00-7.94503E-13-7.34676E-13
 -1       307 6.05440E+00-6.85079E+00-5.14268E-01 5.23059E+00-8.44713E-13-7.42767E-13
 -1       308 1.41485E+01-3.50553E+00-2.58411E-01 6.72315E+00-1.05313E-12-7.50025E-13
 -1       309 2.50616E+01-3.95251E-01 8.07960E-02 6.77227E+00-8.94673E-13-5.41456E-13
 -1       310 3.47045E+01 4.25944E+00 5.57992E-01 7.30172E+00-9.26932E-13-7.21034E-13
 -1       311 4.17177E+01 6.01858E+00 7.33091E-01 4.08672E+00-8.55274E-13-1.35864E-13
 -1       312 4.51263E+01 7.04989E+00 8.45978E-01 8.55220E-01-9.52460E-13 3.86267E-13
 -1       313 4.36962E+01 6.63909E+00 7.67906E-01-2.55884E+00-9.83671E-13 8.86527E-13
 -1       314 3.73913E+01 4.65709E+00 4.72460E-01-4.53974E+00-1.12775E-12 9.32004E-13
 -1       315 2.90965E+01 2.41285E+00 3.00789E-01-7.43739E+00-1.23503E-12 1.54537E-12
 -1       316 1.89567E+01-9.39605E-01-8.19728E-02-7.27954E+00-1.13898E-12 1.56994E-12
 -1       317 9.40099E+00-4.63542E+00-4.83465E-01-5.68083E+00-1.02846E-12 1.33295E-12
 -1       318 3.02496E+00-8.23328E+00-7.32566E-01-3.81143E+00-4.26492E-13 1.04332E-12
 -1       319-7.31285E-01-1.03330E+01-8.85198E-01-1.52724E+00 7.47874E-14 8.94090E-13
 -1       320 2.04223E+01 3.05008E+00-1.81705E-02-1.70153E+00-3.74399E-13-3.67197E-13
 -1       321 2.11594E+01 2.19554E+00-1.68998E-02-2.00059E+00-4.50383E-13-1.54241E-13
 -1       322 1.94888E+01 3.85122E+00-1.39731E-02-9.29404E-01-1.64084E-13-5.60652E-13
 -1       323 1.91774E+01 4.07090E+00-1.17651E-02-5.98954E-01-7.49899E-14-5.72334E-13
 -1       324 1.89570E+01 4.21607E+00-1.03131E-02-3.14730E-01 2.26473E-14-5.49756E-13
 -1       325 1.88329E+01 4.29716E+00-9.55270E-03-6.53930E-02 1.21562E-13-5.20306E-13
 -1       326 1.88141E+01 4.31456E+00-9.46559E-03 1.65191E-01 2.03449E-13-5.07946E-13
 -1       327 1.89078E+01 4.26326E+00-1.00839E-02 3.96643E-01 2.77494E-13-4.75656E-13
 -1       328 1.91123E+01 4.13726E+00-1.15427E-02 6.45818E-01 3.48403E-13-4.19730E-13
 -1       329 1.94347E+01 3.91698E+00-1.40739E-02 9.40323E-01 4.34343E-13-3.19676E-13
 -1       330 1.98770E+01 3.57161E+00-1.79222E-02 1.28662E+00 4.99659E-13-1.69148E-13
 -1       331 2.04660E+01 3.03298E+00-2.18711E-02 1.66566E+00 5.41451E-13 3.57613E-14
 -1       332 2.11884E+01 2.13848E+00-2.88384E-02 1.91118E+00 5.23152E-13 4.20825E-13
 -1       333 2.15929E+01 1.17872E+00-2.24091E-02 1.58218E+00 4.43886E-13 7.78223E-13
 -1       334 2.10696E+01 5.17443E-01 9.65175E-03 5.50925E-01 3.77586E-13 6.04419E-13
 -1       335 2.10276E+01 6.97240E-01 1.28210E-02-6.47099E-01-3.44515E-13-6.85291E-14
 -1       336 2.07651E+01 3.74592E-01 7.15366E-03-4.00894E-02-2.62761E-13-7.97279E-14
 -1       337 2.06947E+01 2.19129E-01 4.24614E-03 3.17543E-01-1.80246E-13-9.21604E-14
 -1       338 2.07685E+01 1.17853E-01 1.88495E-03 5.28942E-01-1.31977E-13-1.61549E-13
 -1       339 2.09423E+01 3.05845E-02 2.80031E-04 6.33024E-01-1.15358E-13-1.41850E-13
 -1       340 2.11765E+01-6.39927E-02-9.91120E-04 6.36402E-01-1.22753E-13-1.37158E-13
 -1       341 2.14337E+01-1.74888E-01-2.18362E-03 5.29472E-01-6.05954E-14-1.53554E-13
 -1       342 2.16739E+01-2.97383E-01-3.22043E-03 2.98636E-01-8.40480E-14-1.47197E-13
 -1       343 2.18510E+01-4.07064E-01-3.81074E-03-5.74776E-02-1.61849E-13-1.74221E-13
 -1       344 2.19133E+01-4.55719E-01-3.56737E-03-5.05668E-01-7.43886E-14-1.44940E-13
 -1       345 2.18143E+01-3.80347E-01-2.07047E-03-9.55283E-01-7.56357E-14-2.02868E-13
 -1       346 2.15402E+01-1.38240E-01 3.63444E-04-1.25382E+00-1.08216E-13-1.88543E-13
 -1       347 2.11484E+01 2.38528E-01 2.93590E-03-1.23074E+00-1.32408E-13-2.09104E-13
 -1       348 2.07830E+01 6.11474E-01 4.52501E-03-7.98110E-01-2.11514E-13-2.62378E-13
 -1       349 2.06199E+01 7.93305E-01 4.97981E-03-5.39983E-02-2.51491E-13-3.32366E-13
 -1       350 2.07523E+01 6.81523E-01 3.97488E-03 7.31135E-01-1.80986E-13-2.91216E-13
 -1       351 2.11224E+01 3.42147E-01 3.02283E-03 1.25981E+00-2.22340E-14-4.61596E-13
 -1       352 2.15629E+01-4.60747E-02 8.96954E-04 1.38753E+00-2.92282E-15-5.38168E-13
 -1       353 2.19152E+01-3.23196E-01-1.43785E-03 1.16437E+00 6.61717E-14-6.12992E-13
 -1       354 2.21016E+01-4.34203E-01-3.18810E-03 7.50779E-01 1.54024E-13-6.21278E-13
 -1       355 2.21211E+01-4.09875E-01-3.70905E-03 3.07008E-01 6.63133E-14-4.07587E-13
 -1       356 2.20127E+01-3.13154E-01-3.31751E-03-6.41067E-02 1.19948E-13-4.55938E-13
 -1       357 2.18236E+01-1.98438E-01-2.44119E-03-3.21907E-01 1.40674E-13-4.20213E-13
 -1       358 2.15937E+01-9.77344E-02-1.47352E-03-4.68162E-01 6.87540E-14-5.01955E-13
 -1       359 2.13521E+01-2.32785E-02-6.42875E-04-5.25000E-01-3.96340E-14-2.65444E-13
 -1       360 2.11179E+01 2.46646E-02-3.39942E-05-5.19611E-01 5.43985E-14-4.09829E-14
 -1       361 2.09028E+01 5.10614E-02 3.51309E-04-4.76366E-01 5.88025E-14-1.04993E-14
 -1       362 2.07131E+01 6.20697E-02 5.54257E-04-4.13991E-01-2.47076E-14-1.04785E-13
 -1       363 2.05512E+01 6.31592E-02 6.26906E-04-3.45414E-01-1.61800E-13-2.24947E-13
 -1       364 2.04168E+01 5.85149E-02 6.16353E-04-2.78736E-01-1.23906E-13 6.40454E-15
 -1       365 2.03080E+01 5.10530E-02 5.58965E-04-2.18467E-01 2.08801E-15 1.78346E-13
 -1       366 2.02219E+01 4.26579E-02 4.80096E-04-1.66648E-01 7.02894E-14 2.41861E-14
 -1       367 2.01552E+01 3.44539E-02 3.95965E-04-1.23742E-01 6.74735E-14 1.65969E-14
 -1       368 2.01048E+01 2.70421E-02 3.16066E-04-8.92872E-02 1.05452E-13 1.73096E-13
 -1       369 2.00675E+01 2.06842E-02 2.45270E-04-6.23450E-02 1.19430E-13 2.71295E-13
 -1       370 2.00407E+01 1.54354E-02 1.85452E-04-4.17857E-02 1.68826E-13 4.60325E-13
 -1       371 2.00220E+01 1.12341E-02 1.36697E-04-2.64653E-02 5.75792E-14 5.32530E-15
 -1       372 2.00095E+01 7.95911E-03 9.81021E-05-1.53242E-02-7.03268E-14 1.45758E-13
 -1       373 2.00015E+01 5.46540E-03 6.82830E-05-7.43621E-03-2.61974E-13 1.00606E-13
 -1       374 1.99969E+01 3.60424E-03 4.56741E-05-2.02760E-03-1.43130E-13 3.11563E-13
 -1       375 1.99947E+01 2.23389E-03 2.87072E-05 1.52233E-03-4.00366E-14 2.47147E-13
 -1       376 1.99941E+01 1.22327E-03 1.59002E-05 3.68946E-03 1.71744E-13 3.06653E-14
 -1       377 1.99945E+01 4.50990E-04 5.94989E-06 4.81662E-03 2.83508E-13-4.03412E-14
 -1       378 1.99955E+01-1.96171E-04-1.65870E-06 5.12545E-03 2.23246E-13 6.37719E-14
 -1       379 1.99968E+01-8.30765E-04-9.69326E-06 4.74385E-03 1.63702E-13 7.99024E-14
 -1       380 1.99979E+01-1.37433E-03-1.60076E-05 3.81288E-03 1.95302E-13 2.39572E-13
 -1       381 2.08011E+01 2.87465E-01 1.18703E-02-4.92460E-02 2.90083E-13 4.91594E-13
 -1       382 2.08029E+01 2.00394E-01 7.59841E-03-4.34258E-01 2.16454E-13 4.04577E-13
 -1       383 2.10239E+01 1.62883E-01 4.40604E-03-7.19591E-01 1.63587E-13 3.59991E-13
 -1       384 2.14139E+01 1.40958E-01 2.59547E-03-9.52779E-01 6.60969E-14 2.71254E-13
 -1       385 2.19377E+01 1.11822E-01 1.10243E-03-1.14327E+00 4.29936E-14 2.20352E-13
 -1       386 2.25651E+01 5.13076E-02-7.91691E-04-1.26851E+00 9.94922E-14 2.06441E-13
 -1       387 2.32604E+01-6.98126E-02-3.31140E-03-1.27102E+00 1.25953E-13 2.20598E-13
 -1       388 2.39722E+01-2.77842E-01-6.00815E-03-1.05713E+00 3.70927E-15 2.08961E-13
 -1       389 2.46182E+01-5.66242E-01-8.03751E-03-5.17049E-01-9.27674E-14 2.76443E-13
 -1       390 2.50670E+01-8.35322E-01-8.58384E-03 4.01815E-01-1.21073E-13 3.70913E-13
 -1       391 2.51333E+01-8.42154E-01-9.69823E-03 1.54269E+00 4.36162E-14 3.82327E-13
 -1       392 2.46762E+01-3.02706E-01-1.22650E-02 2.37819E+00 1.18936E-13 4.76046E-13
 -1       393 2.38392E+01 7.29160E-01-2.23724E-02 2.16168E+00 2.79829E-13 4.25241E-13
 -1       394 2.32328E+01 1.54210E+00-2.82804E-02 6.28617E-01 3.30782E-13 7.87266E-14
 -1       395 2.34344E+01 1.36609E+00-2.55856E-02-1.37067E+00 2.75996E-13-1.91997E-13
 -1       396 2.42953E+01 3.74487E-01-1.19543E-02-2.49659E+00 1.78442E-13-3.12279E-13
 -1       397 2.51181E+01-5.58939E-01-2.37738E-04-2.26850E+00-4.89973E-15-4.35178E-13
 -1       398 2.54138E+01-8.91045E-01-5.82682E-03-1.25185E+00 7.01982E-14-4.08382E-13
 -1       399 2.52174E+01-7.59429E-01-9.40761E-03-1.50099E-01 1.28682E-14-4.12335E-13
 -1       400 2.47128E+01-4.58048E-01-8.70970E-03 6.33423E-01 1.77922E-13-3.50078E-13
 -1       401 2.40767E+01-1.88552E-01-5.67051E-03 1.03748E+00 7.50840E-14-3.23913E-13
 -1       402 2.34166E+01-1.32330E-02-2.47368E-03 1.15484E+00-2.62787E-13-3.68896E-13
 -1       403 2.27915E+01 7.75945E-02-1.37804E-04 1.10113E+00-1.55589E-13-1.61254E-13
 -1       404 2.22316E+01 1.12430E-01 1.20907E-03 9.65651E-01-5.70330E-14-2.50098E-14
 -1       405 2.17496E+01 1.16228E-01 1.79639E-03 8.04248E-01-1.89753E-14 1.96852E-13
 -1       406 2.13472E+01 1.05444E-01 1.90862E-03 6.46967E-01-1.92502E-13 1.80717E-13
 -1       407 2.10194E+01 8.94054E-02 1.77093E-03 5.07450E-01 1.23935E-13 2.91633E-13
 -1       408 2.07578E+01 7.28166E-02 1.52851E-03 3.90114E-01 1.41922E-13 2.36610E-13
 -1       409 2.05530E+01 5.77530E-02 1.26259E-03 2.94718E-01-1.73970E-13 1.27830E-14
 -1       410 2.03953E+01 4.49276E-02 1.01287E-03 2.18974E-01-1.11024E-13-6.30805E-15
 -1       411 2.02758E+01 3.44068E-02 7.95388E-04 1.59916E-01-1.71653E-13-6.31491E-15
 -1       412 2.01868E+01 2.59819E-02 6.14008E-04 1.14568E-01 2.28205E-13 2.73057E-13
 -1       413 2.01217E+01 1.93511E-02 4.66897E-04 8.02337E-02 3.90638E-13 3.50602E-13
 -1       414 2.00751E+01 1.42040E-02 3.49944E-04 5.46017E-02 2.34766E-13 2.21059E-13
 -1       415 2.00425E+01 1.02583E-02 2.58414E-04 3.57489E-02-5.26605E-15-3.03356E-13
 -1       416 2.00205E+01 7.27128E-03 1.87745E-04 2.21095E-02-1.79903E-14-2.93728E-13
 -1       417 2.00062E+01 5.03991E-03 1.33865E-04 1.24273E-02-1.31473E-13-7.01527E-14
 -1       418 1.99976E+01 3.39633E-03 9.32649E-05 5.70908E-03-1.85778E-13 9.68144E-14
 -1       419 1.99929E+01 2.20235E-03 6.29768E-05 1.18158E-03-1.22241E-14 2.01656E-13
 -1       420 1.99910E+01 1.34367E-03 4.05040E-05-1.74513E-03 9.40322E-14 3.67361E-13
 -1       421 1.99909E+01 7.24375E-04 2.38447E-05-3.50673E-03 1.97675E-13 2.76000E-13
 -1       422 1.99920E+01 2.66833E-04 1.02053E-05-4.40880E-03-1.13589E-14 4.29431E-13
 -1       423 1.99936E+01-1.23091E-04-5.78006E-07-4.65309E-03-1.03663E-13 6.64307E-13
 -1       424 1.99955E+01-4.81516E-04-5.70139E-06-4.31911E-03-2.33341E-13 7.12655E-13
 -1       425 1.99973E+01-9.15560E-04-8.30693E-06-3.43620E-03 1.33745E-14 5.58177E-13
 -1       426 1.99984E+01-1.29786E-03-1.01442E-05-2.67505E-03-9.04621E-14 5.82444E-13
 -1       427 2.00001E+01-4.91762E-03 9.30092E-07-4.35066E-03-1.70543E-13-3.71634E-14
 -1       428 1.99995E+01-3.50902E-03-7.63078E-06-4.39324E-03 4.33301E-14-5.18166E-13
 -1       429 1.99989E+01-2.43826E-03-1.43420E-05-3.77838E-03 1.13495E-13 3.08833E-13
 -1       430 2.00006E+01-6.13639E-03 5.93399E-06-3.77183E-03-1.02481E-13 2.60087E-13
 -1       431 2.00008E+01-7.10814E-03 9.77640E-06-2.84936E-03-2.80782E-13 5.24488E-13
 -1       432 2.00009E+01-7.76827E-03 1.18513E-05-1.73980E-03-3.61050E-16 3.70944E-13
 -1       433 2.00010E+01-8.08867E-03 1.27567E-05-5.49022E-04-1.83391E-13-1.57795E-13
 -1       434 2.00010E+01-8.06485E-03 1.26675E-05 6.56591E-04-1.16680E-13-9.29797E-15
 -1       435 2.00009E+01-7.70101E-03 1.16116E-05 1.82712E-03-1.61271E-13-4.22925E-13
 -1       436 2.00008E+01-7.02477E-03 9.40278E-06 2.88431E-03-3.61545E-14-4.97947E-13
 -1       437 2.00005E+01-6.04130E-03 5.87237E-06 3.76972E-03 1.11365E-13-8.32768E-14
 -1       438 2.00001E+01-4.80802E-03 6.03090E-07 4.32091E-03 1.02906E-13-2.01780E-13
 -1       439 1.99994E+01-3.43175E-03-9.36125E-06 4.37916E-03-1.55336E-13-5.99300E-14
 -1       440 1.09682E+01-5.78747E+00-5.75643E-02 6.61742E+00 3.11334E-13 7.46375E-13
 -1       441 1.34634E+00-4.08173E+00-2.24752E-02-5.95918E-01 2.72976E-14 9.24760E-13
 -1       442 3.73616E+00-4.47169E+00 5.06995E-03 3.92982E+00 1.15713E-13 9.12159E-13
 -1       443 1.91945E+01-5.88054E+00-3.86332E-02 6.37566E+00 3.02050E-13 4.48513E-13
 -1       444 2.74992E+01-3.54711E+00-7.66145E-03 4.05358E+00 4.15959E-13 1.66686E-13
 -1       445 1.98902E+01 3.53458E+00-1.97519E-02-1.30927E+00-2.73756E-13-5.09220E-13
 -1       446 3.47130E+01 4.61377E+00-3.05438E-02-1.00387E+00 8.83529E-13-1.94067E-13
 -1       447 3.65252E+01 7.94142E+00 6.21573E-02-1.42488E-01 1.04758E-12-9.82808E-14
 -1       448 3.69500E+01 7.10510E+00 1.03755E-01 3.32197E-01 9.71084E-13-2.18964E-13
 -1       449 3.43056E+01 3.37355E+00-3.89053E-02 5.61129E-01 6.82704E-13-6.50174E-14
 -1       450 2.99928E+01-2.37950E+00-4.88983E-02-2.43887E+00 1.32821E-13-4.89594E-13
 -1       451 2.46996E+01-5.02349E+00 8.44769E-03-5.06881E+00-3.87607E-14-4.58578E-13
 -1       452 1.51315E+01-6.01286E+00-3.22050E-02-6.99422E+00-1.95843E-13-6.11922E-13
 -1       453 8.29527E+00-5.34209E+00-4.05311E-03-6.28188E+00-2.24820E-13-7.44071E-13
 -1       454 3.04580E+00-3.85568E+00 5.62449E-02-2.91999E+00-1.69205E-13-8.57439E-13
 -1       455 1.86745E+00-4.66041E+00-6.78395E-02 2.68570E+00-2.50841E-14-6.65995E-13
 -1       456 6.05307E+00-5.16756E+00-5.94452E-02 5.90276E+00-1.55848E-14-6.54476E-13
 -1       457 1.45358E+01-5.66088E+00-1.35467E-02 7.35363E+00-1.42442E-13-3.09090E-13
 -1       458 2.27093E+01-4.79128E+00-4.43157E-03 5.94931E+00-2.74239E-13 5.28466E-14
 -1       459 3.03942E+01-5.09215E-01 2.55452E-02 2.87677E+00-4.77340E-13 1.60025E-13
 -1       460 3.40154E+01 3.39619E+00 5.19732E-02 1.03080E+00-6.74238E-13 1.71696E-13
 -1       461 3.39031E+01 7.18729E+00-5.16520E-02-5.28835E-01-1.02614E-12 3.38021E-13
 -1       462 3.59147E+01 8.07888E+00 5.98760E-02 8.39984E-02-1.09660E-12 2.55972E-13
 -1       463 3.33363E+01 5.46892E+00-5.96250E-02 7.39621E-01-8.47211E-13 1.53100E-13
 -1       464 3.15455E+01 5.02449E-01-5.40276E-03-1.66928E+00-6.64080E-13 1.13215E-13
 -1       465 2.65098E+01-2.81391E+00 8.99411E-03-4.73740E+00-4.00222E-13 7.36369E-13
 -1       466 1.88925E+01-5.30779E+00-1.68723E-02-6.83086E+00 2.22045E-16 8.80414E-13
 -1       467 1.04506E+01-5.57514E+00-6.05825E-02-7.02108E+00 2.84217E-14 1.06035E-12
 -1       468 4.13947E+00-4.49082E+00-1.31688E-02-4.82054E+00 1.18475E-13 9.98368E-13
 -1       469 3.26287E+01-5.86106E-02 1.05068E-02 8.43493E-01 7.89912E-13-1.82521E-13
 -1       470 9.37726E+00-3.94081E+00 1.08084E-01 6.04385E+00-3.74006E-14 6.61304E-13
 -1       471 2.71989E+01-3.87591E+00-2.21034E-02 3.15694E+00-1.56184E-13 4.31426E-13
 -1       472 3.18674E+01 6.02131E+00-1.27383E-01-1.73065E+00 8.72538E-13-3.13673E-13
 -1       473 3.13354E+01-7.65569E-01-7.63747E-02 1.11674E+00 2.63661E-13 1.50893E-13
 -1       474 3.84363E+00-1.85170E+00 1.47786E-01-8.89949E-02 4.03714E-14-6.53935E-13
 -1       475 2.09399E+01 9.54399E-01 4.44895E-03 4.00976E-01 3.91808E-13 2.05514E-13
 -1       476 1.92785E+01 3.47327E+00-4.45479E-03-2.92884E-01-2.60705E-14-4.85530E-13
 -1       477 1.95787E+01 3.21201E+00-5.11323E-03-5.21395E-01-1.10349E-13-5.00158E-13
 -1       478 1.89848E+01 3.71665E+00-3.81100E-03 7.12208E-02 1.52928E-13-4.43188E-13
 -1       479 1.90195E+01 3.69587E+00-3.89932E-03 2.24414E-01 2.35059E-13-4.42006E-13
 -1       480 1.91818E+01 3.57208E+00-4.35271E-03 3.77602E-01 2.95310E-13-3.99087E-13
 -1       481 1.94751E+01 3.32844E+00-5.15013E-03 5.51108E-01 3.81257E-13-3.06586E-13
 -1       482 1.98865E+01 2.94649E+00-6.07889E-03 7.46743E-01 4.35395E-13-2.10237E-13
 -1       483 2.04059E+01 2.38860E+00-5.57474E-03 9.47752E-01 4.69566E-13-7.27795E-14
 -1       484 2.08279E+01 6.36893E-01 5.91126E-03-2.35225E-01 3.02628E-13 1.50585E-13
 -1       485 2.07921E+01 1.05569E+00 3.41684E-03-4.35627E-01-2.78961E-13-2.16395E-13
 -1       486 2.93488E+01-3.47311E+00-1.28516E-01 7.79311E-01 2.11872E-13-4.25174E-13
 -1       487 2.07355E+01 6.30384E-01 9.07778E-04 1.07070E-01-2.13881E-13-1.95295E-13
 -1       488 2.07243E+01 3.86928E-01 1.29314E-03 4.79302E-01-1.71876E-13-1.71548E-13
 -1       489 2.07958E+01 1.94152E-01 4.00367E-04 7.14271E-01-1.41260E-13-1.60053E-13
 -1       490 2.09471E+01 8.52369E-03-2.02196E-04 8.28790E-01-1.12623E-13-1.74571E-13
 -1       491 2.11718E+01-1.99620E-01-7.58829E-04 8.19378E-01-1.12342E-13-1.46777E-13
 -1       492 2.14597E+01-4.38629E-01-1.33568E-03 6.69057E-01-4.80508E-14-1.88092E-13
 -1       493 2.17905E+01-6.86691E-01-1.75332E-03 3.58193E-01-1.08149E-13-1.80288E-13
 -1       494 2.21211E+01-8.78027E-01-1.84836E-03-1.15378E-01-9.91355E-14-1.09489E-13
 -1       495 2.23764E+01-8.98424E-01-1.59150E-03-7.03396E-01-6.77023E-14-7.47553E-14
 -1       496 2.24601E+01-6.16890E-01-4.02348E-04-1.26820E+00-1.03125E-13-7.57082E-14
 -1       497 2.23090E+01 1.68646E-02 4.80154E-04-1.57421E+00-1.58333E-13-1.06109E-13
 -1       498 2.19815E+01 8.49061E-01 7.99167E-04-1.37258E+00-2.26831E-13-1.12016E-13
 -1       499 2.16875E+01 1.49469E+00-1.09977E-03-5.99501E-01-3.00569E-13-1.15533E-13
 -1       500 2.16594E+01 1.58243E+00-7.60965E-04 4.69233E-01-2.55918E-13-1.48759E-13
 -1       501 2.19270E+01 1.04659E+00-9.74733E-04 1.35083E+00-1.67013E-13-2.16402E-13
 -1       502 2.22914E+01 2.24853E-01-1.63982E-04 1.70478E+00-1.27796E-13-2.96251E-13
 -1       503 2.25148E+01-4.70570E-01-9.19617E-05 1.51181E+00-4.60233E-15-3.74823E-13
 -1       504 2.25049E+01-8.32152E-01-1.40397E-03 1.00092E+00 1.37695E-13-3.92156E-13
 -1       505 2.23019E+01-8.72995E-01-1.84959E-03 4.18114E-01 1.21687E-13-3.72801E-13
 -1       506 2.19983E+01-7.17107E-01-1.80415E-03-7.83734E-02 1.85854E-13-2.17327E-13
 -1       507 2.16727E+01-4.89406E-01-1.38874E-03-4.27416E-01 1.63956E-13-1.64599E-13
 -1       508 2.13701E+01-2.71285E-01-8.88003E-04-6.30027E-01-5.49631E-14-3.79696E-13
 -1       509 2.11076E+01-9.96949E-02-4.51821E-04-7.14765E-01 8.67959E-14-4.12876E-13
 -1       510 2.08872E+01 1.78239E-02-1.18882E-04-7.16344E-01 1.91001E-13-2.92175E-13
 -1       511 2.07048E+01 8.80858E-02 9.86737E-05-6.65787E-01 8.22642E-14-2.34192E-13
 -1       512 2.05549E+01 1.22654E-01 2.20156E-04-5.87213E-01 2.01558E-14-1.11633E-13
 -1       513 2.04323E+01 1.32917E-01 2.71907E-04-4.97705E-01-2.09712E-13-8.86985E-14
 -1       514 2.03327E+01 1.28157E-01 2.78340E-04-4.08393E-01 2.69455E-14 1.36749E-13
 -1       515 2.02525E+01 1.15182E-01 2.58423E-04-3.25859E-01 1.39935E-14 1.71313E-13
 -1       516 2.01885E+01 9.86122E-02 2.25516E-04-2.53444E-01-4.30293E-14 2.06485E-13
 -1       517 2.01382E+01 8.13722E-02 1.88175E-04-1.92318E-01 6.09242E-14 1.85213E-13
 -1       518 2.00991E+01 6.51547E-02 1.51552E-04-1.42294E-01 1.58217E-13 1.68084E-13
 -1       519 2.00693E+01 5.08176E-02 1.18482E-04-1.02423E-01 2.82348E-13 3.36319E-13
 -1       520 2.00470E+01 3.86844E-02 9.01793E-05-7.13935E-02 1.86590E-13 4.26552E-13
 -1       521 2.00305E+01 2.87578E-02 6.68887E-05-4.77830E-02-1.97706E-13 4.09057E-13
 -1       522 2.00188E+01 2.08611E-02 4.83196E-05-3.02167E-02 1.23071E-14 2.81338E-13
 -1       523 2.00106E+01 1.47304E-02 3.39015E-05-1.74517E-02-2.99268E-13 3.55133E-13
 -1       524 2.00051E+01 1.00703E-02 2.29468E-05-8.41835E-03-2.78550E-14 5.81453E-13
 -1       525 2.00016E+01 6.58678E-03 1.47341E-05-2.23302E-03-2.54969E-13 3.54225E-13
 -1       526 1.99996E+01 4.00320E-03 8.60899E-06 1.80653E-03-1.85923E-13 4.90655E-13
 -1       527 1.99986E+01 2.06620E-03 3.96826E-06 4.23512E-03 6.81865E-14 5.36507E-13
 -1       528 1.99983E+01 5.43220E-04 6.70870E-07 5.43514E-03 3.25800E-13 3.93787E-13
 -1       529 1.99984E+01-7.74874E-04-2.18523E-06 5.65958E-03 2.36426E-13 3.40778E-13
 -1       530 2.09399E+01 4.00027E-01 2.08288E-03-1.08579E+00 1.57972E-13 3.16844E-14
 -1       531 2.11562E+01 3.32819E-01 1.22084E-03-1.40019E+00 1.00092E-13-2.28158E-14
 -1       532 2.14719E+01 2.29342E-01 3.02103E-04-1.65180E+00 9.66373E-14-7.46474E-14
 -1       533 2.18984E+01 3.10190E-02-1.08810E-03-1.80710E+00 8.74205E-14-8.90727E-14
 -1       534 2.24686E+01-3.27060E-01-3.01961E-03-1.79210E+00 4.05446E-14 1.13919E-14
 -1       535 2.32327E+01-8.84480E-01-4.85353E-03-1.48782E+00-6.86048E-14 6.88635E-14
 -1       536 2.42174E+01-1.56703E+00-7.14717E-03-7.47092E-01-1.63351E-13 1.06687E-13
 -1       537 2.53301E+01-2.04006E+00-1.15135E-02 5.07476E-01-1.03056E-13 1.93400E-13
 -1       538 2.62249E+01-1.60619E+00-2.28608E-02 2.05272E+00-2.36113E-14 3.40439E-13
 -1       539 2.63840E+01 2.67805E-01-5.89226E-02 2.95770E+00 2.31939E-13 3.89826E-13
 -1       540 2.58841E+01 2.77451E+00-1.09093E-01 2.03903E+00 5.16576E-13 4.20734E-13
 -1       541 2.57262E+01 3.59572E+00-1.03424E-01-5.68115E-01 5.43229E-13 1.35928E-13
 -1       542 2.59766E+01 1.90904E+00-1.03696E-01-2.79183E+00 4.58446E-13-9.89024E-14
 -1       543 2.65091E+01-5.83396E-01-6.10285E-02-2.98053E+00 2.13974E-13-4.04199E-13
 -1       544 2.62417E+01-1.90581E+00-1.37729E-02-1.73046E+00-4.40052E-14-4.65052E-13
 -1       545 2.51919E+01-1.95460E+00-1.22071E-02-1.77457E-01 2.06324E-15-3.45994E-13
 -1       546 2.40687E+01-1.34123E+00-1.01347E-02 9.16786E-01-1.08036E-14-1.96955E-13
 -1       547 2.31502E+01-6.69657E-01-6.54222E-03 1.48652E+00 6.01673E-14 5.35704E-15
 -1       548 2.24650E+01-1.79021E-01-3.16885E-03 1.67003E+00-8.97981E-14 5.85758E-14
 -1       549 2.19576E+01 1.06794E-01-7.24889E-04 1.61998E+00-1.44018E-13-3.81290E-14
 -1       550 2.15679E+01 2.40128E-01 7.01888E-04 1.45069E+00-1.64410E-13-6.87656E-14
 -1       551 2.12558E+01 2.80050E-01 1.37490E-03 1.23531E+00 4.13483E-14 7.14480E-15
 -1       552 2.09992E+01 2.70495E-01 1.56885E-03 1.01598E+00-2.96621E-13-8.40414E-14
 -1       553 2.07861E+01 2.38868E-01 1.49929E-03 8.14267E-01-1.50077E-13-1.25494E-13
 -1       554 2.06099E+01 2.00394E-01 1.31032E-03 6.39266E-01 5.45421E-15 1.02228E-13
 -1       555 2.04659E+01 1.62689E-01 1.08592E-03 4.93044E-01 6.32569E-14 2.22707E-13
 -1       556 2.03499E+01 1.29062E-01 8.69286E-04 3.74071E-01-2.36419E-13 1.21349E-13
 -1       557 2.02579E+01 1.00573E-01 6.78951E-04 2.79220E-01-2.20974E-13 2.51432E-13
 -1       558 2.01861E+01 7.71938E-02 5.20250E-04 2.04861E-01-7.41507E-14 1.07207E-13
 -1       559 2.01311E+01 5.84239E-02 3.92088E-04 1.47430E-01 3.18443E-13 4.71244E-14
 -1       560 2.00897E+01 4.36014E-02 2.90946E-04 1.03699E-01 4.13085E-13-7.62099E-14
 -1       561 2.00592E+01 3.20575E-02 2.12536E-04 7.08762E-02 3.96759E-13-4.42402E-14
 -1       562 2.00371E+01 2.31827E-02 1.52650E-04 4.66125E-02-6.91801E-14 1.11200E-13
 -1       563 2.00217E+01 1.64481E-02 1.07536E-04 2.89748E-02-1.05959E-13 3.15491E-13
 -1       564 2.00111E+01 1.14058E-02 7.40042E-05 1.63974E-02-3.25365E-13 3.43533E-13
 -1       565 2.00043E+01 7.68105E-03 4.94080E-05 7.63381E-03-1.89375E-13 3.57233E-13
 -1       566 2.00001E+01 4.96149E-03 3.15892E-05 1.70938E-03 7.74980E-14 4.23943E-13
 -1       567 1.99979E+01 2.98587E-03 1.88787E-05-2.12048E-03 2.87811E-13 5.26544E-13
 -1       568 1.99970E+01 1.52712E-03 8.09580E-06-4.40982E-03 2.22327E-13 2.71648E-13
 -1       569 1.99969E+01 4.04965E-04-4.72350E-06-5.50965E-03-2.89283E-13 1.42481E-13
 -1       570 1.99972E+01-5.23308E-04-1.22273E-05-5.70747E-03-2.64946E-13 3.02595E-13
 -1       571 1.99980E+01-1.51068E-03-5.55800E-06-5.14583E-03-2.73348E-14 3.31309E-13
 -1       572 2.00016E+01-3.54633E-03 1.73468E-06-3.90717E-03-4.18446E-14 7.68137E-15
 -1       573 2.00020E+01-3.75534E-03 4.95907E-06-2.66334E-03-9.08020E-14 6.14884E-13
 -1       574 1.99999E+01-2.57125E-03-6.50864E-06-5.42635E-03 4.25144E-14-5.45677E-13
 -1       575 2.00010E+01-3.15692E-03-5.72227E-06-4.90690E-03-4.87955E-14 2.14380E-13
 -1       576 2.00021E+01-3.84817E-03 5.61986E-06-1.31063E-03-5.33121E-14-4.38052E-14
 -1       577 2.00021E+01-3.85830E-03 5.72278E-06 7.59704E-05-7.63734E-14 1.02104E-13
 -1       578 2.00021E+01-3.80160E-03 5.42126E-06 1.44876E-03-3.42701E-13-1.32768E-13
 -1       579 2.00019E+01-3.67196E-03 4.60124E-06 2.74119E-03-9.78405E-14-2.49171E-13
 -1       580 2.00016E+01-3.43563E-03 3.16000E-06 3.92477E-03-1.18491E-14-3.76270E-13
 -1       581 2.00009E+01-3.03622E-03 1.21171E-06 4.85552E-03-1.13731E-13-3.08224E-13
 -1       582 1.99999E+01-2.45159E-03-2.37646E-06 5.30811E-03-6.90828E-14-1.27188E-13
 -1       583 5.74508E+00-1.10161E+00 2.04960E-01 1.89022E+00-1.26494E-13 8.62088E-13
 -1       584 1.75088E+01-5.18607E+00 8.48289E-02 6.34478E+00-2.14162E-13-1.31319E-14
 -1       585 2.08274E+01 4.81850E-01 3.47230E-03-7.08221E-01 2.52755E-13 9.30168E-14
 -1       586 5.24135E+00-1.59395E+00 1.63880E-01-2.89644E+00 2.18662E-13 7.14317E-13
 -1       587 2.07420E+01 1.82659E+00-5.50129E-03-1.08636E+00-3.58056E-13-2.95014E-13
 -1       588 1.04938E+01-3.62553E+00 1.37574E-01-6.63081E+00 3.27682E-13 1.12670E-12
 -1       589 8.59229E+00-2.67330E+00 1.65615E-01-5.12203E+00-2.56913E-13-7.34357E-13
 -1       590 3.12538E+01 4.80836E+00-1.48223E-01 2.00437E+00 7.42989E-13 2.75654E-13
 -1       591 1.90754E+01 3.64067E+00-4.00727E-03-9.68253E-02 8.00399E-14-4.60290E-13
 -1       592 3.12564E+01 6.65704E+00-1.74903E-01 7.32021E-01 8.96366E-13 1.27693E-13
 -1       593 2.77809E+01-4.76938E+00-3.52307E-02-1.95801E+00-2.73011E-13-2.12198E-13
 -1       594 2.18587E+01-5.90356E+00 4.61531E-02-5.50223E+00-3.79898E-13-3.64429E-13
 -1       595 1.46597E+01-4.53924E+00 1.16497E-01-6.64651E+00-3.50060E-13-4.95243E-13
 -1       596 2.08748E+01-5.48140E+00 7.62023E-02 6.07698E+00 1.66644E-13 2.57364E-13
 -1       597 6.47402E+00-2.46346E+00 1.55248E-01 4.63124E+00 1.99590E-13-6.55684E-13
 -1       598 2.96947E+01 7.39832E+00-1.74608E-01-1.63015E-01-1.00944E-12 3.76487E-14
 -1       599 1.28968E+01-4.21898E+00 1.24883E-01 7.03450E+00 2.55095E-13-2.79908E-13
 -1       600 3.02647E+01 2.48221E-01-1.05078E-01-3.29539E-01-3.28085E-13 3.66346E-13
 -1       601 3.00667E+01 3.89490E+00-1.57427E-01-1.71143E+00-6.98684E-13 4.12247E-13
 -1       602 2.91379E+01 6.23273E+00-1.81112E-01 1.34077E+00-9.11951E-13-9.33073E-14
 -1       603 2.98147E+01 1.57138E+00-1.25925E-01 1.51116E+00-4.62519E-13-1.30944E-13
 -1       604 2.84750E+01-2.95102E+00-5.68961E-02-1.49263E+00-1.52926E-13-2.33147E-15
 -1       605 2.42091E+01-5.22566E+00 2.28268E-02-4.64425E+00 2.66218E-13 4.33532E-13
 -1       606 1.66611E+01-5.13456E+00 7.62927E-02-7.00075E+00 3.33497E-13 7.59875E-13
 -1       607 3.05628E+01 5.64600E-01-9.30541E-02-2.69599E+00 5.57818E-13-6.16049E-13
 -1       608 2.10864E+01 1.36458E+00-5.02357E-04 1.06922E+00 4.67777E-13 2.91110E-13
 -1       609 2.49297E+01-5.71271E+00 1.01244E-02 4.03044E+00-1.30909E-13-3.11390E-13
 -1       610 1.99607E+01 2.85118E+00-6.05125E-03-7.80044E-01-2.03445E-13-4.67356E-13
 -1       611 2.75630E+01 3.34160E+00-1.07102E-01 2.24720E+00-4.97151E-13-1.41581E-13
 -1       612 2.77283E+01 5.43770E+00-1.54217E-01-1.52565E+00-7.63327E-13 1.31886E-13
 -1       613 9.09041E+00-1.28174E+00 1.61554E-01 3.94541E+00-3.24085E-13 7.83831E-13
 -1       614 7.37793E+00-1.00292E+00 1.71942E-01-2.80718E+00-6.80428E-14-6.21767E-13
 -1       615 2.45192E+01-5.32747E+00-5.98420E-03 3.81149E+00 1.41599E-13 4.33754E-13
 -1       616 2.98767E+01 1.59661E+00-1.11673E-01 2.69540E+00 3.67185E-13 3.84498E-13
 -1       617 2.84530E+01-2.80689E+00-4.99032E-02 5.46234E-01-1.33806E-13 3.75526E-13
 -1       618 1.99986E+01-1.62707E-03-5.49320E-06 5.34056E-03 1.98389E-13 3.74506E-13
 -1       619 1.91755E+01 3.09811E+00-1.24120E-03 1.80232E-01 2.30973E-13-3.75386E-13
 -1       620 1.90785E+01 3.17556E+00-1.19399E-03 1.31393E-01 1.69359E-13-3.78405E-13
 -1       621 1.97829E+01 2.53953E+00-1.45553E-03 2.88283E-01 3.50275E-13-2.19500E-13
 -1       622 2.02351E+01 2.03826E+00-1.94055E-03 3.43966E-01 3.88633E-13-1.20964E-13
 -1       623 2.06271E+01 1.31541E+00 2.71336E-03 1.21307E-01 3.76494E-13-3.44516E-15
 -1       624 2.72267E+01-4.70325E+00-3.08069E-02 9.82321E-01-1.98347E-13-5.01377E-13
 -1       625 1.00885E+01-1.33499E+00 1.36679E-01-4.75716E+00 7.38055E-14 9.75234E-13
 -1       626 2.77264E+01 5.18742E+00-1.74766E-01-7.72624E-01 6.11761E-13 3.21097E-14
 -1       627 2.05621E+01 8.38598E-01 1.79200E-03 3.16302E-01-1.61049E-13-2.48136E-13
 -1       628 2.05895E+01 5.17175E-01 2.69211E-04 6.65757E-01-1.46193E-13-2.00593E-13
 -1       629 2.06762E+01 2.32034E-01 2.55756E-05 9.04959E-01-1.17051E-13-1.55745E-13
 -1       630 2.08458E+01-6.79460E-02-1.67844E-04 1.03267E+00-1.13267E-13-1.44890E-13
 -1       631 2.11212E+01-4.15049E-01-3.79837E-04 1.03390E+00-7.91189E-14-1.53558E-13
 -1       632 2.15190E+01-8.11215E-01-7.06746E-04 8.78450E-01-4.99342E-14-7.57161E-14
 -1       633 2.20350E+01-1.20653E+00-6.93711E-04 5.27309E-01-4.62911E-14 3.66601E-15
 -1       634 2.26163E+01-1.47150E+00-6.07238E-04-4.38939E-02-7.01801E-14 4.57880E-14
 -1       635 2.31331E+01-1.38902E+00-1.89776E-03-7.90046E-01-1.11004E-13 2.17711E-14
 -1       636 2.33989E+01-7.28035E-01-2.57212E-03-1.50941E+00-1.26718E-13 2.96212E-14
 -1       637 2.32780E+01 5.41530E-01-5.77923E-03-1.82299E+00-1.61012E-13 9.85745E-14
 -1       638 2.29010E+01 1.96319E+00-9.75656E-03-1.33387E+00-3.29783E-13 8.73043E-15
 -1       639 2.26184E+01 2.75015E+00-1.89665E-02-1.14637E-01-3.75313E-13-1.35540E-13
 -1       640 2.28517E+01 2.17158E+00-5.53037E-03 1.24890E+00-3.37036E-13-2.48257E-13
 -1       641 2.31870E+01 8.96220E-01 7.81246E-04 1.90623E+00-1.71088E-13-3.29474E-13
 -1       642 2.34182E+01-4.44994E-01-2.36930E-03 1.77506E+00-5.89927E-14-2.47702E-13
 -1       643 2.32348E+01-1.24698E+00-2.22998E-03 1.12980E+00-1.35707E-15-3.11841E-13
 -1       644 2.27617E+01-1.44838E+00-1.04883E-03 3.79447E-01 1.47603E-13-4.33200E-13
 -1       645 2.21775E+01-1.25216E+00-8.92617E-04-2.30946E-01 2.45541E-13-3.29481E-13
 -1       646 2.16294E+01-8.92828E-01-6.03899E-04-6.32619E-01 2.63275E-13-3.57249E-13
 -1       647 2.11835E+01-5.26524E-01-3.53613E-04-8.46916E-01-5.79792E-14-4.26131E-13
 -1       648 2.08498E+01-2.27540E-01-1.94378E-04-9.22532E-01 1.70517E-14-2.19025E-13
 -1       649 2.06110E+01-1.51224E-02-5.87891E-05-9.06460E-01 2.25608E-13-1.27771E-13
 -1       650 2.04438E+01 1.18158E-01 2.63641E-05-8.35438E-01 1.75906E-13-2.27839E-13
 -1       651 2.03270E+01 1.89532E-01 7.21207E-05-7.35974E-01 4.08473E-14-1.84136E-13
 -1       652 2.02446E+01 2.17204E-01 9.10962E-05-6.26124E-01-8.74854E-14-1.39822E-13
 -1       653 2.01852E+01 2.16656E-01 9.36860E-05-5.17517E-01 6.36348E-14 8.09714E-15
 -1       654 2.01414E+01 1.99654E-01 8.70805E-05-4.17085E-01 1.02705E-13-1.74356E-14
 -1       655 2.01083E+01 1.74483E-01 7.63828E-05-3.28444E-01 1.27517E-14 1.05849E-13
 -1       656 2.00829E+01 1.46614E-01 6.42000E-05-2.52946E-01-1.08791E-13 5.67119E-14
 -1       657 2.00631E+01 1.19393E-01 5.19811E-05-1.90474E-01 6.86620E-14 8.92866E-14
 -1       658 2.00476E+01 9.46621E-02 4.08116E-05-1.40047E-01 2.37107E-13 1.19504E-13
 -1       659 2.00355E+01 7.32631E-02 3.11785E-05-1.00248E-01 1.49465E-13-4.34442E-14
 -1       660 2.00261E+01 5.54139E-02 2.31982E-05-6.94962E-02-5.40925E-14-7.56890E-14
 -1       661 2.00188E+01 4.09610E-02 1.68139E-05-4.62241E-02-5.04550E-14 8.23723E-14
 -1       662 2.00133E+01 2.95506E-02 1.18438E-05-2.89834E-02-7.18826E-14-7.09202E-14
 -1       663 2.00092E+01 2.07388E-02 8.05897E-06-1.65018E-02-2.92943E-13-2.12488E-14
 -1       664 2.00061E+01 1.40593E-02 5.20994E-06-7.70473E-03-2.32397E-13-1.39386E-13
 -1       665 2.00039E+01 9.06134E-03 2.99591E-06-1.71711E-03-1.98428E-14 1.31024E-13
 -1       666 2.00023E+01 5.32829E-03 1.33301E-06 2.14850E-03-9.01845E-14 4.06351E-13
 -1       667 2.00012E+01 2.48366E-03 2.08832E-06 4.41566E-03-2.19094E-14 4.66215E-13
 -1       668 2.00004E+01 1.82994E-04-1.61872E-06 5.43805E-03 2.98679E-13 2.39646E-13
 -1       669 2.05650E+01 5.44502E-01 4.09993E-04-1.70619E+00 1.43973E-13-8.39838E-14
 -1       670 2.00004E+01-6.84614E-04 1.59906E-06-5.72700E-03-3.81146E-14-2.30630E-13
 -1       671 2.05181E+01 6.71519E-01 5.49260E-04-1.34883E+00 1.64052E-13-6.89772E-14
 -1       672 2.09718E+01-5.45364E-02-2.59866E-04-2.24891E+00 1.96462E-14-1.18846E-13
 -1       673 2.15154E+01-7.23793E-01-2.72477E-04-2.34837E+00-5.88431E-14-1.20124E-13
 -1       674 2.25065E+01-1.72576E+00 3.46664E-03-2.18322E+00-1.36317E-13-3.39253E-14
 -1       675 2.40999E+01-2.87450E+00 6.96010E-03-1.50816E+00-2.69557E-13-6.88750E-15
 -1       676 2.62294E+01-3.45550E+00-3.99095E-03-8.17809E-02-2.39908E-13 1.62718E-13
 -1       677 2.38675E+01-4.21521E+00 4.49541E-02 2.58952E+00-2.91134E-13-2.98448E-13
 -1       678 2.15834E+01-2.58219E+00 2.53036E-02 3.02796E+00-1.30687E-13-2.37647E-13
 -1       679 2.03582E+01-1.14098E+00 5.27195E-03 2.85163E+00-8.94410E-14-2.16139E-13
 -1       680 1.98295E+01-1.76214E-01 7.39547E-04 2.50249E+00-6.61996E-14-5.07532E-14
 -1       681 1.96781E+01 3.62569E-01-5.07222E-04 2.13743E+00-2.86934E-13 1.29409E-14
 -1       682 1.96961E+01 6.12230E-01-6.67531E-04 1.80086E+00-2.37015E-13 2.05790E-14
 -1       683 1.97734E+01 6.86176E-01-5.23450E-04 1.50060E+00-1.12652E-13-2.90633E-14
 -1       684 1.98573E+01 6.63807E-01-3.73772E-04 1.23575E+00-1.07853E-13 1.53045E-13
 -1       685 1.99268E+01 5.95169E-01-2.72818E-04 1.00455E+00 1.82713E-14 5.55149E-14
 -1       686 1.99766E+01 5.09525E-01-2.07948E-04 8.05439E-01-2.03421E-13-1.26891E-14
 -1       687 2.00086E+01 4.22794E-01-1.61844E-04 6.36648E-01-2.17954E-13 7.85034E-14
 -1       688 2.00267E+01 3.42840E-01-1.25144E-04 4.95898E-01-1.48922E-13 2.82348E-13
 -1       689 2.00349E+01 2.72936E-01-9.44318E-05 3.80448E-01-6.75030E-14-2.24774E-14
 -1       690 2.00368E+01 2.13891E-01-6.92289E-05 2.87244E-01-3.02970E-14-2.94240E-13
 -1       691 2.00349E+01 1.65223E-01-5.00163E-05 2.13129E-01 2.31375E-13-3.98875E-13
 -1       692 2.00311E+01 1.25846E-01-3.57914E-05 1.55061E-01 2.36793E-13-3.02388E-13
 -1       693 2.00265E+01 9.44732E-02-2.52442E-05 1.10245E-01 2.24887E-13-4.16188E-14
 -1       694 2.00218E+01 6.98318E-02-1.73914E-05 7.61898E-02-1.70841E-13 3.92996E-14
 -1       695 2.00175E+01 5.07428E-02-1.16338E-05 5.07270E-02-3.16237E-13 1.91444E-13
 -1       696 2.00136E+01 3.61563E-02-7.52636E-06 3.20202E-02-1.31361E-13 1.22184E-13
 -1       697 2.00104E+01 2.51597E-02-4.69593E-06 1.85470E-02-1.33806E-14 1.97816E-14
 -1       698 2.00077E+01 1.69713E-02-2.78413E-06 9.07140E-03-2.15814E-13-1.00734E-13
 -1       699 2.00056E+01 1.09254E-02-1.36633E-06 2.61459E-03 2.03071E-14 1.03252E-13
 -1       700 2.00038E+01 6.46082E-03-1.28881E-07-1.57873E-03 3.15701E-13 3.41826E-13
 -1       701 2.00024E+01 3.05839E-03-3.92897E-06-4.11931E-03 2.52531E-14 1.62191E-13
 -1       702 2.29108E+01-5.06390E+00 7.34676E-02 4.13340E+00-3.18464E-13-5.24105E-13
 -1       703 2.00034E+01 3.28052E-04 1.87965E-06-5.65593E-04 2.17566E-13 5.61859E-14
 -1       704 2.78796E+01-1.60075E+00-7.62350E-02 8.20382E-01-1.84686E-13-3.35999E-13
 -1       705 2.00030E+01-2.46133E-04 1.76642E-06-3.22583E-03-3.75474E-14 2.56821E-13
 -1       706 2.00033E+01 3.53343E-04 1.75924E-06 7.56951E-04-1.67123E-13-4.50314E-13
 -1       707 2.00033E+01 1.04245E-04 1.93655E-06-1.90283E-03-4.53201E-14 5.99146E-13
 -1       708 2.00032E+01 1.84222E-04 1.26076E-06 2.04002E-03-1.98091E-13-4.54064E-14
 -1       709 2.00028E+01-1.32515E-04 3.11157E-07 3.30571E-03-2.61914E-13-4.76893E-13
 -1       710 2.00021E+01-4.88349E-04-3.58506E-08 4.45196E-03-1.30509E-13-2.04563E-14
 -1       711 1.44808E+01-3.05576E+00 9.52303E-02 5.71164E+00-4.08309E-13 1.84824E-13
 -1       712 2.05127E+01 1.58128E+00 7.53592E-04-4.07832E-01-2.30964E-13-3.25803E-13
 -1       713 1.79122E+01-4.06880E+00 9.03603E-02 6.02742E+00 2.97616E-13 1.12046E-13
 -1       714 2.05241E+01 7.94044E-01 9.68760E-04-9.39889E-01 2.50044E-13-5.00896E-15
 -1       715 2.06946E+01 3.34114E-01 1.23471E-04-2.01378E+00 9.38980E-14-1.12850E-13
 -1       716 1.94159E+01 2.88886E+00-1.37164E-03 2.29321E-01 2.98972E-13-2.93260E-13
 -1       717 2.05659E+01 9.82146E-01 1.55637E-03-4.60536E-01 3.03893E-13-1.61807E-14
 -1       718 2.00713E+01-4.46099E+00 7.36577E-02-5.21466E+00-3.65572E-13-2.46723E-13
 -1       719 1.15398E+01-1.98804E+00 1.42174E-01 5.50595E+00 2.64476E-13-4.32869E-13
 -1       720 1.36967E+01-2.34267E+00 1.16726E-01-5.35681E+00-2.40693E-13-5.16736E-13
 -1       721 7.45619E+00-3.63594E-01 1.64880E-01 2.00467E+00 9.82374E-14-5.54931E-13
 -1       722 1.95820E+01 2.71598E+00-1.55344E-03-1.48816E-01-5.45441E-14-4.10261E-13
 -1       723 2.00001E+01-1.17913E-03-5.26681E-06 5.56463E-03 2.70377E-13 1.29427E-13
 -1       724 2.82421E+01 7.52159E-01-1.09350E-01-1.80588E+00-3.48801E-13 4.39437E-13
 -1       725 2.81953E+01 4.53302E+00-1.68796E-01 1.70414E+00 7.10168E-13 2.68373E-13
 -1       726 2.84751E+01-2.76568E+00-5.77090E-02 1.35139E+00-8.97858E-14 3.42320E-13
 -1       727 7.85431E+00 7.17997E-02 1.53713E-01-8.09591E-01 2.83532E-14 6.39953E-13
 -1       728 2.60620E+01 5.85298E+00-1.31921E-01 5.53255E-01-8.43291E-13-1.90334E-14
 -1       729 2.61279E+01-4.34807E+00-1.55114E-02-1.91805E+00 2.14226E-13 4.68410E-14
 -1       730 1.55104E+01-3.41207E+00 1.01880E-01-6.19999E+00 2.97647E-13 7.97029E-13
 -1       731 2.48953E+01-5.14892E+00-7.56444E-04-2.93782E+00-4.15876E-13-1.76798E-13
 -1       732 2.14544E+01-5.09254E+00 4.69716E-02-5.20791E+00 3.37751E-13 4.90141E-13
 -1       733 1.99340E+01 2.36085E+00-2.90139E-03-2.95282E-01-1.41826E-13-4.14521E-13
 -1       734 1.91259E+01 3.13030E+00-1.27064E-03 6.71687E-02 1.00053E-13-4.04557E-13
 -1       735 2.69847E+01 2.60402E-01-8.07600E-02 2.11963E+00-1.66420E-13-2.89060E-13
 -1       736 2.53373E+01 4.06363E+00-8.53600E-02 1.74554E+00-5.79207E-13-2.99401E-13
 -1       737 2.00023E+01-5.93531E-04 1.02949E-05-4.38621E-03-1.29845E-13 2.17389E-13
 -1       738 9.21553E+00 1.85107E-01 1.21612E-01 1.39991E+00-1.73880E-13 5.82694E-13
 -1       739 2.67340E+01 2.88098E+00-1.03252E-01-2.17070E+00-4.09825E-13 2.96232E-13
 -1       740 2.00015E+01-4.71881E-05-9.89033E-07 5.04703E-03 9.82124E-14-1.97924E-13
 -1       741 2.13101E+01-4.70470E+00 3.14113E-02 4.84127E+00 2.47372E-13 2.84269E-13
 -1       742 1.17694E+01-8.31441E-01 1.13045E-01-3.98455E+00-1.27178E-13-5.24282E-13
 -1       743 1.93020E+01 2.97422E+00-1.35194E-03-2.45138E-02 4.31515E-14-3.66363E-13
 -1       744 1.13897E+01 2.52830E-01 8.21225E-02-2.59640E+00-1.97199E-13 6.55045E-13
 -1       745 2.00060E+01 1.85167E+00-2.04734E-04-1.12088E-01 3.15638E-13-1.44011E-13
 -1       746 1.94263E+01-3.79873E+00 3.35551E-02-4.98712E+00 3.15740E-13 4.34298E-13
 -1       747 2.03418E+01 6.05523E-01-4.80131E-05 8.63212E-01-1.12805E-13-2.11019E-13
 -1       748 2.04374E+01 2.34655E-01-2.68908E-05 1.11831E+00-9.93405E-14-1.52642E-13
 -1       749 2.06357E+01-1.83203E-01-4.30085E-05 1.28844E+00-9.58018E-14-1.08352E-13
 -1       750 2.09887E+01-6.83808E-01-8.43679E-05 1.34865E+00-1.89052E-14-8.19867E-14
 -1       751 2.15447E+01-1.26301E+00-5.83166E-04 1.24778E+00 2.16011E-14-2.82579E-14
 -1       752 2.23268E+01-1.83813E+00 3.70564E-04 9.05762E-01-2.30310E-14 4.35023E-14
 -1       753 2.32719E+01-2.18663E+00 4.23719E-04 2.37837E-01-4.28393E-14 1.09473E-13
 -1       754 2.41805E+01-1.91306E+00-4.74494E-03-7.57296E-01-7.16671E-14 2.43713E-13
 -1       755 2.46730E+01-6.38981E-01-1.95984E-02-1.73770E+00-5.79201E-14 2.25390E-13
 -1       756 2.45433E+01 1.62400E+00-3.76616E-02-2.03395E+00-2.88867E-13 2.14601E-13
 -1       757 2.40096E+01 3.73654E+00-8.40381E-02-1.10185E+00-5.92080E-13 1.96659E-13
 -1       758 2.46073E+01-1.26513E-01-3.58425E-02 2.09864E+00-6.96240E-14-3.68800E-13
 -1       759 2.43047E+01-1.63543E+00-3.26775E-03 1.18272E+00-3.21917E-14-3.27130E-13
 -1       760 2.34468E+01-2.13728E+00-1.31459E-03 1.45248E-01 4.88526E-14-2.96278E-13
 -1       761 2.24653E+01-1.89455E+00-6.42880E-04-5.98305E-01 2.19527E-13-2.64828E-13
 -1       762 2.16200E+01-1.37733E+00-1.00292E-04-1.01360E+00 2.72193E-13-3.41963E-13
 -1       763 2.09817E+01-8.31032E-01-1.07683E-05-1.17936E+00 1.27307E-13-2.33788E-13
 -1       764 2.05519E+01-3.83603E-01-1.61123E-05-1.19026E+00 8.90698E-14-3.17045E-14
 -1       765 2.02817E+01-6.14060E-02 1.74111E-05-1.11537E+00 1.37007E-13 2.05218E-14
 -1       766 2.01242E+01 1.45466E-01 3.65908E-05-9.97601E-01 9.77733E-14-1.27869E-13
 -1       767 2.00398E+01 2.61218E-01 4.11914E-05-8.63138E-01 7.95267E-14-2.70433E-13
 -1       768 1.99999E+01 3.11511E-01 3.83254E-05-7.27389E-01 5.57529E-14-2.62330E-13
 -1       769 1.99852E+01 3.18407E-01 3.38127E-05-5.99289E-01-1.18800E-13-2.52414E-13
 -1       770 1.99836E+01 2.98982E-01 2.77469E-05-4.83690E-01 1.83160E-14-3.54799E-13
 -1       771 1.99877E+01 2.65516E-01 2.30333E-05-3.82840E-01 1.27803E-13-4.46708E-13
 -1       772 1.99936E+01 2.26380E-01 1.94436E-05-2.97272E-01-8.77748E-14-3.05765E-13
 -1       773 1.99992E+01 1.86922E-01 1.58087E-05-2.26369E-01 3.96270E-14-5.71787E-14
 -1       774 2.00035E+01 1.50239E-01 1.23699E-05-1.68842E-01 2.80140E-14-1.32654E-13
 -1       775 2.00065E+01 1.17892E-01 9.36786E-06-1.23083E-01 9.20389E-14-1.90188E-13
 -1       776 2.00082E+01 9.04572E-02 6.86100E-06-8.73758E-02-1.20963E-14-9.44152E-14
 -1       777 2.00089E+01 6.79005E-02 4.90686E-06-6.00333E-02-6.87978E-15-2.05954E-13
 -1       778 2.00087E+01 4.98326E-02 3.41903E-06-3.94944E-02-3.12658E-13-4.22306E-13
 -1       779 2.00081E+01 3.56855E-02 2.28530E-06-2.43776E-02-1.96031E-13-4.91350E-13
 -1       780 2.00071E+01 2.48258E-02 1.41658E-06-1.35028E-02-1.23676E-13-3.22461E-13
 -1       781 2.00059E+01 1.66195E-02 6.62864E-07-5.89346E-03-1.37115E-13-8.83172E-14
 -1       782 2.00047E+01 1.04726E-02 1.81655E-07-7.66830E-04-6.44965E-14-6.40032E-14
 -1       783 2.00035E+01 5.84100E-03 1.92641E-06 2.46986E-03-3.76969E-14-1.11502E-14
 -1       784 2.00025E+01 2.56628E-03-1.52928E-06 4.19754E-03-1.61679E-13-5.76391E-14
 -1       785 1.98502E+01 9.39369E-01 1.93833E-04-1.48458E+00 1.62528E-13-5.67893E-14
 -1       786 2.28063E+01-3.94009E+00 1.97346E-02-3.31091E+00-3.71621E-13-1.30730E-13
 -1       787 2.00970E+01-1.09062E+00 4.90502E-03-3.07099E+00-1.17970E-13-1.98038E-13
 -1       788 1.96767E+01-1.21785E-01 9.39415E-04-2.66275E+00-6.95502E-15-1.16521E-13
 -1       789 2.03009E+01 1.40857E+00 2.46009E-04-2.82669E-01 3.15472E-13-7.87918E-14
 -1       790 2.00025E+01 1.05242E-03 1.02279E-05-4.64698E-03 9.19736E-14-1.83716E-13
 -1       791 1.78983E+01-6.88118E-02 9.38948E-03 2.81900E+00-1.34953E-13-9.83094E-14
 -1       792 1.81582E+01 5.50272E-01 3.07951E-03 2.20569E+00-2.36954E-13-3.59823E-14
 -1       793 1.85083E+01 8.39154E-01 1.04250E-03 1.77157E+00-2.96881E-13 5.05305E-14
 -1       794 1.88474E+01 9.27464E-01 4.12012E-04 1.44862E+00-2.09491E-13 1.07319E-13
 -1       795 1.91392E+01 9.02746E-01 2.20535E-04 1.19273E+00-2.41763E-13 2.78500E-13
 -1       796 1.93746E+01 8.20163E-01 1.34036E-04 9.79967E-01-9.28432E-14 3.86938E-13
 -1       797 1.95566E+01 7.13278E-01 8.06230E-05 7.98616E-01-2.49062E-14 5.01761E-13
 -1       798 1.96931E+01 6.01569E-01 4.70244E-05 6.43280E-01-1.40620E-13 2.09989E-13
 -1       799 1.97930E+01 4.95696E-01 3.00764E-05 5.11092E-01-1.65991E-13-1.07686E-13
 -1       800 1.98646E+01 4.00752E-01 2.47558E-05 4.00028E-01-2.55837E-14-8.68545E-14
 -1       801 1.99148E+01 3.18706E-01 2.48438E-05 3.08170E-01 1.49155E-13-3.18582E-13
 -1       802 1.99494E+01 2.49726E-01 2.29579E-05 2.33398E-01-5.25905E-14-2.27074E-13
 -1       803 1.99726E+01 1.92903E-01 1.92589E-05 1.73485E-01 1.80879E-13-3.37457E-14
 -1       804 1.99878E+01 1.46865E-01 1.53311E-05 1.26265E-01 1.16536E-13-4.96299E-14
 -1       805 1.99973E+01 1.10138E-01 1.20276E-05 8.96682E-02-6.43983E-14 1.31261E-13
 -1       806 2.00029E+01 8.12691E-02 9.35435E-06 6.17748E-02-3.29970E-13 1.30706E-13
 -1       807 2.00059E+01 5.88988E-02 7.17832E-06 4.08813E-02-1.10204E-13 1.17362E-13
 -1       808 2.00072E+01 4.18051E-02 5.36592E-06 2.55229E-02-5.64848E-14 1.87960E-13
 -1       809 2.00073E+01 2.89188E-02 3.84108E-06 1.44714E-02 2.31803E-14 1.71497E-13
 -1       810 2.00067E+01 1.93129E-02 2.37793E-06 6.72079E-03-1.94202E-13-4.15850E-14
 -1       811 2.00057E+01 1.21788E-02 1.47075E-06 1.47246E-03-4.58293E-14-5.04571E-14
 -1       812 2.00045E+01 6.88892E-03 3.05598E-06-1.93502E-03 2.72811E-13 1.10972E-13
 -1       813 2.00043E+01 4.77798E-03 2.05562E-07 1.12321E-03-2.14038E-13-1.98312E-13
 -1       814 2.00044E+01 5.00184E-03 2.87342E-07 1.12890E-04-2.09273E-13-5.08947E-13
 -1       815 2.60252E+01-2.93878E+00-2.43689E-02 1.97330E-01 2.99626E-14-3.11976E-13
 -1       816 1.31245E+01-8.40999E-01 8.16351E-02 4.06958E+00-4.91164E-13 3.38667E-13
 -1       817 2.00041E+01 4.09830E-03-1.16299E-06 2.16739E-03-2.81486E-13-2.49242E-13
 -1       818 2.00035E+01 3.09112E-03 2.15587E-06 3.27601E-03-8.16401E-14-1.50473E-13
 -1       819 2.00047E+01 1.09015E+00 4.35095E-05-1.08317E+00 2.26544E-13-1.44249E-14
 -1       820 1.78508E+01-2.56772E+00 4.56681E-02-4.73139E+00-2.76725E-13-2.40289E-13
 -1       821 1.79357E+01-1.23362E+00 2.04442E-02 3.67800E+00-1.93626E-13-1.36185E-13
 -1       822 1.00391E+01 5.33954E-01 9.90191E-02-8.71859E-01 6.06542E-14-4.85504E-13
 -1       823 2.68841E+01-2.11924E+00-4.50755E-02-7.71258E-01-4.66396E-14 3.90889E-13
 -1       824 1.95908E+01-3.10242E+00 5.34917E-02 4.37569E+00-3.18433E-13-4.39985E-13
 -1       825 1.39511E+01-1.22280E+00 6.30368E-02-4.57221E+00 4.28763E-14 6.66005E-13
 -1       826 2.10243E+01-2.37650E+00 8.14329E-03-3.34698E+00-1.94397E-13-1.33918E-13
 -1       827 1.56285E+01-2.12434E+00 6.77068E-02 5.10750E+00 3.38475E-13-6.94601E-14
 -1       828 2.37186E+01-4.50367E+00 6.94968E-03-3.02336E+00 3.59318E-13 7.80192E-14
 -1       829 2.03009E+01 9.85163E-01 2.13948E-04 5.30158E-01-1.05955E-13-2.61776E-13
 -1       830 2.01596E+01 1.58067E+00 1.25125E-04 1.23414E-01-1.26478E-13-3.25889E-13
 -1       831 2.53896E+01-4.24094E+00 4.61482E-03 1.73698E+00 1.11538E-13 3.24870E-13
 -1       832 1.90991E+01 2.69128E+00-3.37519E-04 9.14362E-02 1.79092E-13-3.39932E-13
 -1       833 1.18518E+01 5.39610E-04 8.93551E-02 3.12946E+00 2.53571E-13-3.89881E-13
 -1       834 1.90952E+01 2.68991E+00-1.78028E-04 1.51191E-01 1.35188E-13-3.42266E-13
 -1       835 1.95831E+01 2.26952E+00-2.53404E-04-5.46624E-02 2.69582E-13-2.25239E-13
 -1       836 1.92666E+01 2.55203E+00-3.88864E-04 1.64313E-02 2.18513E-13-2.69804E-13
 -1       837 1.97838E+01 1.97215E+00 5.18324E-05 1.80894E-01-5.49602E-14-3.10640E-13
 -1       838 1.84651E+01-3.16335E+00 3.56493E-02 4.97385E+00 2.97123E-13 2.18291E-13
 -1       839 1.96095E+01 4.45709E-01 2.66639E-04-2.25397E+00 8.08200E-14-8.16352E-14
 -1       840 1.12321E+01 7.70801E-01 7.04658E-02-9.19582E-01-2.25048E-13 5.66297E-13
 -1       841 1.57357E+01-1.30167E+00 5.71164E-02-4.30957E+00-2.15861E-13-3.42563E-13
 -1       842 2.00043E+01 3.97511E-03 1.54361E-06-2.01887E-03 2.21023E-13 5.91348E-13
 -1       843 1.97020E+01 7.56972E-01 1.87461E-04-1.86711E+00 1.25969E-13-5.60515E-14
 -1       844 2.00044E+01 4.71628E-03 5.39457E-07-9.06237E-04-1.35306E-13 1.23711E-13
 -1       845 1.71915E+01-2.04552E+00 2.80804E-02-4.50014E+00 1.59536E-13 5.99769E-13
 -1       846 2.01745E+01 1.21512E+00 3.05039E-04-7.09722E-01 2.63813E-13-4.81828E-14
 -1       847 2.00031E+01 2.94487E-03 1.23873E-05 3.74433E-03-9.47104E-14 1.13086E-13
 -1       848 1.94478E+01 2.28349E+00-2.52368E-04 2.15420E-01 2.74153E-14-2.89419E-13
 -1       849 2.63738E+01-6.80538E-02-4.55646E-02-1.93051E+00-1.67286E-13 3.72709E-13
 -1       850 2.00050E+01 1.04056E-02 4.24876E-07 3.46925E-04-1.23850E-13-4.61059E-13
 -1       851 2.00591E+01 2.31063E-01 8.33140E-05 1.35815E+00-4.33349E-14-1.34061E-13
 -1       852 2.02581E+01-2.94666E-01 1.02740E-04 1.61992E+00-1.54992E-14-4.28028E-14
 -1       853 2.06737E+01-9.55829E-01 7.82526E-04 1.81255E+00 1.48629E-14 8.00461E-15
 -1       854 2.13884E+01-1.74254E+00-1.30459E-03 1.85552E+00 4.44965E-14-3.24055E-14
 -1       855 2.25572E+01-2.59809E+00-2.29502E-03 1.60203E+00 3.72855E-14 5.27434E-14
 -1       856 2.39933E+01-3.06618E+00-5.25449E-03 8.35384E-01 5.53949E-14 2.10166E-13
 -1       857 1.46762E+01 2.97711E-01 2.20131E-02 2.70649E+00-1.87871E-13 3.33112E-13
 -1       858 2.43452E+01-2.99032E+00-5.47500E-04-4.21015E-01 3.46086E-14-2.04686E-13
 -1       859 2.27804E+01-2.68459E+00 3.79094E-03-1.30895E+00 2.13466E-13-8.47095E-14
 -1       860 2.14817E+01-1.91413E+00-6.58544E-03-1.66209E+00 1.63558E-13-1.25642E-14
 -1       861 2.06284E+01-1.13408E+00 1.30055E-03-1.68988E+00 3.04016E-13-1.06141E-13
 -1       862 2.01169E+01-5.23529E-01 2.73161E-04-1.55764E+00 1.62861E-13-8.83378E-14
 -1       863 1.98368E+01-8.69051E-02 1.04051E-04-1.36505E+00 1.01521E-13-1.92813E-13
 -1       864 1.97097E+01 1.92602E-01 6.24045E-05-1.16241E+00 4.10106E-14-1.31353E-13
 -1       865 1.96744E+01 3.50879E-01 3.22490E-05-9.71215E-01-1.00244E-14-9.91449E-14
 -1       866 1.96901E+01 4.22485E-01 1.19331E-05-7.99094E-01-2.38045E-14-8.98220E-14
 -1       867 1.97305E+01 4.35948E-01 7.26030E-06-6.48325E-01-3.50970E-14-3.53892E-13
 -1       868 1.97797E+01 4.13436E-01 4.11361E-06-5.18780E-01 8.25820E-15-3.96121E-13
 -1       869 1.98284E+01 3.70940E-01 2.14700E-06-4.09209E-01 1.80030E-14-4.99120E-13
 -1       870 1.98722E+01 3.19543E-01 2.88863E-06-3.18008E-01 1.72481E-13-5.41235E-13
 -1       871 1.99089E+01 2.66633E-01 2.38838E-06-2.43276E-01 1.84382E-13-3.53907E-13
 -1       872 1.99381E+01 2.16656E-01 1.61192E-06-1.82908E-01-5.72403E-14-1.66860E-13
 -1       873 1.99606E+01 1.71941E-01 8.78941E-07-1.34878E-01 1.01956E-13-2.41499E-13
 -1       874 1.99771E+01 1.33502E-01 2.38039E-07-9.72741E-02 4.92389E-14-3.27999E-13
 -1       875 1.99888E+01 1.01495E-01-5.51081E-08-6.83052E-02-2.00566E-13-3.51475E-13
 -1       876 1.99966E+01 7.55434E-02-1.34049E-07-4.63564E-02-2.49494E-13-5.43614E-13
 -1       877 2.00015E+01 5.49791E-02-1.46797E-07-3.00194E-02-1.75340E-13-1.74934E-13
 -1       878 2.00042E+01 3.90129E-02-1.57119E-07-1.80982E-02 1.40801E-13 2.08890E-13
 -1       879 2.00054E+01 2.68349E-02-3.37786E-07-9.59554E-03 1.69079E-14 3.46127E-13
 -1       880 2.00055E+01 1.76492E-02-4.10627E-07-3.71256E-03-1.32064E-13 3.83724E-13
 -1       881 2.00050E+01 1.07176E-02-9.42545E-06 1.91857E-04-5.27336E-15 2.64946E-13
 -1       882 2.17876E+01-3.62715E+00 1.69234E-02-3.35528E+00 2.92467E-13 1.69511E-13
 -1       883 1.99855E+01 6.71072E-01-2.04564E-05 1.05916E+00-7.47713E-14-1.55828E-13
 -1       884 1.51409E+01-5.90266E-01 3.11782E-02 3.63159E+00 3.18518E-13-1.30873E-13
 -1       885 1.28475E+01 1.01747E+00 3.81943E-02 6.19684E-01 1.41901E-13-3.26537E-13
 -1       886 1.78365E+01 1.15096E+00-1.49609E-04 1.18882E+00-2.84770E-13 5.76269E-14
 -1       887 1.42948E+01-2.15813E-02 3.37415E-02-3.09764E+00-3.47784E-14 4.32504E-13
 -1       888 1.71559E+01 1.08192E+00-1.44268E-04 1.48474E+00-3.11645E-13 1.48286E-13
 -1       889 1.63114E+01 8.25930E-01 2.69205E-03 1.94744E+00-1.24904E-13 2.18020E-13
 -1       890 1.83670E+01 1.11639E+00-4.71083E-05 9.81922E-01-2.99913E-13 9.91125E-14
 -1       891 1.87798E+01 1.02336E+00 1.75741E-05 8.20423E-01-3.21932E-13 1.95691E-13
 -1       892 1.90982E+01 9.02829E-01 9.36312E-06 6.84352E-01-2.24850E-13 3.21640E-13
 -1       893 1.93420E+01 7.73522E-01-7.45643E-06 5.65450E-01 1.10436E-13 4.02456E-13
 -1       894 1.95265E+01 6.47752E-01-1.53748E-05 4.60954E-01-1.21828E-14 1.96637E-13
 -1       895 1.96647E+01 5.31991E-01-8.35385E-06 3.69794E-01-2.45638E-14 7.16230E-14
 -1       896 1.97670E+01 4.29415E-01 2.92103E-06 2.91644E-01-7.67257E-15 4.07849E-14
 -1       897 1.98418E+01 3.41290E-01 2.18344E-06 2.25933E-01-1.23914E-13 2.82864E-13
 -1       898 1.98958E+01 2.67325E-01-3.83156E-07 1.71667E-01-5.62272E-14 1.52172E-13
 -1       899 1.99342E+01 2.06291E-01-1.97480E-06 1.27751E-01 1.48112E-13 2.38908E-13
 -1       900 1.99611E+01 1.56801E-01-2.18800E-06 9.29263E-02 1.41410E-13 2.62836E-13
 -1       901 1.99794E+01 1.17319E-01-1.70143E-06 6.58159E-02-1.24663E-13 2.39587E-13
 -1       902 1.99914E+01 8.62972E-02-1.06914E-06 4.50940E-02-1.39148E-13-1.81881E-14
 -1       903 1.99989E+01 6.22775E-02-5.22977E-07 2.95530E-02-3.09684E-13 5.51600E-15
 -1       904 2.00032E+01 4.39407E-02-2.08049E-07 1.81375E-02-9.89102E-14 2.12573E-13
 -1       905 2.00053E+01 3.01330E-02-3.24151E-07 9.94423E-03 1.09510E-13 3.01076E-13
 -1       906 2.00059E+01 1.98293E-02 2.97490E-06 4.24280E-03-6.22488E-14 1.06959E-13
 -1       907 2.00056E+01 1.21255E-02 4.59613E-07 4.36079E-04-1.34866E-13 2.20508E-13
 -1       908 2.00047E+01 8.08530E-03 9.84078E-06 1.52729E-03-3.08263E-13-1.04208E-13
 -1       909 2.00038E+01 2.91315E-03-2.88920E-06-3.22837E-03 1.17122E-13 2.14242E-13
 -1       910 1.90043E+01 1.18675E+00 6.70692E-05-1.44753E+00 1.56027E-13-1.29866E-13
 -1       911 2.29082E+01-3.89743E+00 2.11710E-02 2.96009E+00 2.20361E-13 2.47576E-13
 -1       912 1.93469E+01 1.34754E+00 1.09722E-04-1.08687E+00 1.96444E-13-1.10965E-13
 -1       913 1.77846E+01-2.13815E-02 3.89988E-03-2.93868E+00 2.93000E-14-1.29179E-13
 -1       914 1.33112E+01 4.11030E-01 4.39432E-02-2.51691E+00 1.85544E-14-3.91980E-13
 -1       915 2.00050E+01 7.93301E-03-9.18303E-07-1.33407E-03 1.55272E-13 4.32885E-13
 -1       916 1.23470E+01 8.10101E-01 5.07071E-02 1.31073E+00-2.90108E-13 3.53953E-13
 -1       917 1.92191E+01 2.53296E+00-1.69026E-04 1.92167E-01 8.00047E-14-3.50491E-13
 -1       918 2.51756E+01-2.81902E+00-2.36906E-02-1.62245E-01-1.04474E-14 2.93621E-13
 -1       919 1.99700E+01 1.08757E+00 1.52168E-04 7.28331E-01-5.47821E-14-1.79145E-13
 -1       920 2.00050E+01 9.57758E-03-2.08135E-06 8.53561E-04-3.10788E-13-3.88918E-13
 -1       921 1.96929E+01 1.75140E+00 1.48794E-03-4.39053E-01 2.23916E-13-1.42914E-13
 -1       922 1.46725E+01 7.27685E-01 1.13531E-02 1.84089E+00 2.56978E-13-1.71838E-13
 -1       923 1.69976E+01-1.49946E+00 1.59735E-02 4.13588E+00 3.26032E-13 1.90542E-14
 -1       924 2.00041E+01 6.35359E-03-9.21143E-07 2.29293E-03-1.19607E-13 2.36230E-13
 -1       925 1.89715E+01 2.32295E+00 2.20960E-04 1.37717E-01 1.46382E-13-3.13824E-13
 -1       926 1.81677E+01 6.26321E-01 1.25818E-03-2.30085E+00 2.31526E-14-1.18183E-13
 -1       927 1.99276E+01 1.48744E+00 5.54700E-04-5.77174E-01 2.45244E-13-1.05181E-13
 -1       928 1.98830E+01 1.50375E+00 1.06093E-05 4.54951E-01-5.24045E-14-2.50455E-13
 -1       929 1.86009E+01 9.78898E-01 1.30550E-04-1.83422E+00 1.08868E-13-1.21679E-13
 -1       930 1.90383E+01 2.27782E+00-4.29590E-04-6.26152E-02 1.75740E-13-2.87020E-13
 -1       931 1.95042E+01 1.83478E+00-1.30427E-04 4.44222E-01 5.75906E-15-2.38198E-13
 -1       932 2.00051E+01 1.03788E-02-1.24979E-06-5.30468E-05-9.32249E-14-2.90159E-13
 -1       933 1.84236E+01-1.31859E+00 1.95395E-02-3.75110E+00-1.66801E-13-1.92014E-13
 -1       934 1.96080E+01 1.54216E+00-2.56186E-04-7.14377E-01 1.95270E-13-1.25939E-13
 -1       935 2.00051E+01 9.47969E-03-6.16470E-06-5.70860E-04 2.45601E-14 7.82440E-14
 -1       936 1.35826E+01 6.29151E-01 3.33481E-02-2.01616E+00-9.65188E-14 4.60441E-13
 -1       937 1.92878E+01 2.08233E+00-4.03745E-04-2.63838E-01 1.84295E-13-2.15245E-13
 -1       938 1.94849E+01 2.68788E-01 4.02513E-04 1.60168E+00 3.94108E-14-5.27088E-14
 -1       939 1.95955E+01-3.29687E-01 2.21771E-04 2.01366E+00 7.62047E-14 3.44467E-14
 -1       940 1.99728E+01-1.16229E+00-7.40803E-03 2.46469E+00 5.80264E-14 7.11948E-14
 -1       941 2.08929E+01-2.23824E+00 6.27002E-03 2.82677E+00 8.06037E-14 1.24180E-13
 -1       942 1.90521E+01 2.20497E+00 1.79255E-04 2.94548E-01 8.57132E-14-2.88055E-13
 -1       943 1.99712E+01-1.37952E+00 3.62108E-03-2.43076E+00 1.65551E-13 1.17700E-13
 -1       944 1.94119E+01-5.79173E-01-7.21009E-04-2.01968E+00 9.77645E-14-4.68253E-14
 -1       945 1.92048E+01-4.45991E-02 2.29015E-05-1.63922E+00 1.83473E-13 7.34926E-14
 -1       946 1.91668E+01 2.88205E-01 1.26422E-05-1.31392E+00 1.08170E-13 6.33858E-14
 -1       947 1.92204E+01 4.72979E-01-8.53552E-05-1.04650E+00 1.10323E-13 1.68990E-13
 -1       948 1.93170E+01 5.55620E-01-1.18659E-04-8.29674E-01-2.87525E-14 6.73938E-14
 -1       949 1.94291E+01 5.69139E-01-8.46562E-05-6.54430E-01-2.08548E-13-1.79686E-13
 -1       950 1.95399E+01 5.39661E-01-5.51315E-05-5.13249E-01-1.31847E-13-1.37402E-13
 -1       951 1.96407E+01 4.86117E-01-2.05017E-05-3.99363E-01-7.14567E-14-2.12460E-13
 -1       952 1.97276E+01 4.21210E-01-7.27689E-06-3.07777E-01 9.95302E-14-1.27300E-13
 -1       953 1.97995E+01 3.53846E-01-1.69785E-05-2.34615E-01 1.75693E-13-1.44587E-13
 -1       954 1.98571E+01 2.89861E-01-1.74080E-05-1.76497E-01 1.75645E-13-3.36182E-13
 -1       955 1.99018E+01 2.32073E-01-1.51935E-05-1.30690E-01-1.72766E-13-2.50835E-13
 -1       956 1.99356E+01 1.81904E-01-1.23339E-05-9.50354E-02 4.28787E-14-4.44025E-13
 -1       957 1.99604E+01 1.39729E-01-9.42906E-06-6.76202E-02-4.98787E-14-3.30072E-13
 -1       958 1.99780E+01 1.05201E-01-6.82466E-06-4.68090E-02-2.58299E-13-1.70589E-13
 -1       959 1.99899E+01 7.75721E-02-4.68189E-06-3.12369E-02 1.63916E-13 5.01541E-14
 -1       960 1.99976E+01 5.59067E-02-2.89061E-06-1.97773E-02 2.56666E-13 2.17657E-13
 -1       961 2.00022E+01 3.92281E-02-2.28046E-06-1.15122E-02 1.86477E-13 1.30035E-13
 -1       962 2.00045E+01 2.66020E-02-3.56637E-06-5.68335E-03 7.88720E-14 2.39616E-13
 -1       963 2.00053E+01 1.70560E-02 5.51170E-07-1.65726E-03-2.43083E-13 1.58765E-13
 -1       964 1.94975E+01 7.46043E-01 1.71939E-04 1.22687E+00-3.56625E-14-1.09241E-13
 -1       965 2.00055E+01 1.48641E-02 1.41018E-05 7.70443E-04-6.82504E-14 1.57994E-13
 -1       966 2.04549E+01-2.63740E+00 2.94323E-02 3.49689E+00 1.85395E-13 1.77696E-13
 -1       967 1.76395E+01 1.26477E+00-3.62846E-04 5.53564E-01-3.42174E-13 2.37668E-13
 -1       968 1.57952E+01 1.28569E+00 4.64139E-03 7.68220E-01-1.56478E-13 4.36443E-13
 -1       969 1.86597E+01 1.04955E+00-3.02929E-04 4.41997E-01-2.15884E-13 1.01778E-13
 -1       970 1.89992E+01 9.15046E-01-2.41144E-04 3.86729E-01-1.22222E-13-4.75794E-14
 -1       971 1.92603E+01 7.79135E-01-1.75526E-04 3.31543E-01 7.18074E-14 1.14529E-13
 -1       972 1.94593E+01 6.51198E-01-8.13156E-05 2.77603E-01 1.44935E-14 2.25695E-13
 -1       973 1.96107E+01 5.34081E-01-1.16433E-06 2.27337E-01-1.49322E-13 3.67972E-13
 -1       974 1.97244E+01 4.30644E-01-5.82321E-05 1.81909E-01-1.81355E-13 3.14135E-13
 -1       975 1.98088E+01 3.42368E-01-8.03168E-05 1.42115E-01-8.90322E-14 4.10640E-13
 -1       976 1.98715E+01 2.67742E-01-6.12311E-05 1.08487E-01 2.73924E-15 3.88219E-13
 -1       977 1.99168E+01 2.06158E-01-4.94462E-05 8.09478E-02 5.54573E-14 4.60079E-13
 -1       978 1.99489E+01 1.56261E-01-3.84329E-05 5.88684E-02 1.36627E-13 3.65240E-13
 -1       979 1.99711E+01 1.16493E-01-2.90011E-05 4.15491E-02-3.88699E-14 2.32439E-13
 -1       980 1.99861E+01 8.52909E-02-2.13657E-05 2.82529E-02-1.59108E-13 2.54906E-13
 -1       981 1.99956E+01 6.11751E-02-1.57063E-05 1.82602E-02-1.60604E-13 1.42262E-13
 -1       982 2.00014E+01 4.27851E-02-9.41862E-06 1.09345E-02-1.08534E-13-7.60744E-14
 -1       983 2.00043E+01 2.90526E-02-1.45543E-07 5.73273E-03 5.74203E-14 2.16750E-13
 -1       984 2.00053E+01 2.10754E-02-1.34568E-05 2.82146E-03-1.81153E-14 4.08668E-13
 -1       985 1.46583E+01 1.12636E+00 1.44414E-02-1.16242E+00 1.08100E-13-3.55738E-13
 -1       986 1.86299E+01 1.54114E+00-1.09817E-04-9.00794E-01 2.01948E-13-1.74662E-13
 -1       987 1.58343E+01 1.25962E-01 1.42507E-02-2.97588E+00 2.97873E-14-2.98055E-13
 -1       988 1.97963E+01-2.28447E+00 1.12304E-02-3.38267E+00 2.32124E-13 2.91536E-13
 -1       989 1.69903E+01-7.25275E-01 4.99714E-03-3.27054E+00-7.62107E-15 5.06202E-13
 -1       990 1.80605E+01 1.39413E+00 3.89522E-04-1.17208E+00 1.34828E-13-1.87634E-13
 -1       991 1.90501E+01 1.71713E+00-3.28411E-04-6.34012E-01 1.79243E-13-1.61336E-13
 -1       992 1.43834E+01 1.13638E+00 1.18730E-02 9.42791E-01-1.47685E-13 4.44462E-13
 -1       993 1.68704E+01 1.30365E+00-8.77734E-04 6.31353E-01-2.41677E-13 2.47193E-13
 -1       994 1.95576E+01 1.17209E+00-9.22915E-05 8.77633E-01-1.87994E-14-1.93557E-13
 -1       995 1.82202E+01 1.16947E+00-1.89835E-04 4.96121E-01-4.26928E-13 2.30533E-13
 -1       996 1.95311E+01 1.49578E+00-2.66651E-05 6.53637E-01 4.48997E-15-2.15320E-13
 -1       997 1.51539E+01 1.29513E+00 3.29586E-03 1.41598E-01 1.81505E-13-2.41155E-13
 -1       998 2.00050E+01 1.67095E-02-5.94809E-06-3.95580E-04-4.16635E-13-7.29000E-13
 -1       999 1.87810E+01 1.97198E+00 2.32163E-04 2.89158E-01 9.46437E-14-2.66592E-13
 -1      1000 1.68029E+01 7.71320E-01 6.22911E-03-2.18164E+00 6.11826E-14-1.99724E-13
 -1      1001 1.69851E+01-3.85306E-01 1.04931E-02 3.07389E+00 2.66920E-13-8.52439E-14
 -1      1002 1.73087E+01 1.20839E+00-9.33665E-04-1.49391E+00 6.17178E-14-1.87068E-13
 -1      1003 2.00050E+01 1.73234E-02-4.08119E-06 9.60899E-05-1.18235E-13-5.52660E-13
 -1      1004 1.87397E+01 2.01632E+00-3.07573E-04-3.02988E-02 1.45555E-13-2.90416E-13
 -1      1005 1.56453E+01 3.93514E-01 1.16889E-02-2.27294E+00-8.19823E-14 3.33003E-13
 -1      1006 1.34525E+01 1.11880E+00 1.02263E-02-3.82403E-01-1.23986E-13 3.47266E-13
 -1      1007 1.92428E+01 2.04965E+00-8.03879E-05 3.91620E-01 4.11119E-14-2.91578E-13
 -1      1008 1.77932E+01 1.21092E+00 6.23355E-04-3.24981E-03-2.55774E-13 8.39315E-15
 -1      1009 1.92783E+01 7.42637E-01 1.00856E-03 1.25710E-01-3.98944E-14 1.88879E-13
 -1      1010 1.90241E+01 8.72799E-01-2.49133E-04 1.24488E-01-4.94157E-14 1.81361E-13
 -1      1011 1.85364E+01-2.21402E-01 5.42919E-03 2.40056E+00 1.28331E-13-1.62247E-13
 -1      1012 1.82846E+01-4.51853E-01 6.58909E-03-2.46535E+00 1.61193E-13 2.27897E-13
 -1      1013 1.71110E+01 1.26462E+00-7.37447E-04-1.06272E-01-2.31812E-13 2.08721E-13
 -1      1014 1.82922E+01 1.18464E-01-1.13905E-03-1.86750E+00 1.54023E-13 2.57724E-13
 -1      1015 1.84554E+01 4.61757E-01-3.71220E-04-1.40208E+00 9.03116E-14 2.03627E-13
 -1      1016 1.86645E+01 6.43873E-01-3.66791E-04-1.05425E+00 5.01953E-14 7.73365E-14
 -1      1017 1.88817E+01 7.18545E-01-4.86057E-04-7.96530E-01-1.35122E-13-1.50961E-13
 -1      1018 1.90891E+01 7.19870E-01-3.45514E-04-6.02163E-01-2.09180E-13-1.58841E-13
 -1      1019 1.92756E+01 6.75517E-01-2.52791E-04-4.55624E-01-1.20667E-13-1.35547E-13
 -1      1020 1.94363E+01 6.07203E-01-5.91119E-06-3.45008E-01-3.88260E-14 2.29222E-14
 -1      1021 1.95711E+01 5.26380E-01 6.49101E-06-2.60030E-01 6.43145E-14-3.93824E-14
 -1      1022 1.96806E+01 4.43865E-01-4.94674E-05-1.94782E-01 7.18867E-14-1.94161E-13
 -1      1023 1.97679E+01 3.65539E-01-1.06422E-04-1.44985E-01 2.19942E-13-1.97273E-13
 -1      1024 1.98362E+01 2.94571E-01-8.98387E-05-1.06510E-01-8.29110E-14-2.63223E-13
 -1      1025 1.98884E+01 2.32514E-01-7.05612E-05-7.72799E-02-1.71136E-13-1.87992E-13
 -1      1026 1.99272E+01 1.80045E-01-5.57909E-05-5.51609E-02-7.40451E-14-5.12414E-13
 -1      1027 1.99553E+01 1.36796E-01-4.30324E-05-3.85269E-02 4.01403E-14-5.31634E-13
 -1      1028 1.99750E+01 1.01930E-01-3.24429E-05-2.61393E-02 6.57824E-14-6.37184E-14
 -1      1029 1.99883E+01 7.43791E-02-2.43598E-05-1.70217E-02 1.54423E-13-3.99095E-14
 -1      1030 1.99968E+01 5.29735E-02-1.72439E-05-1.04039E-02 1.64768E-13-2.42039E-13
 -1      1031 2.00018E+01 3.67518E-02-4.69343E-06-5.74810E-03 2.66498E-13-2.67193E-13
 -1      1032 2.00041E+01 2.55676E-02 3.41578E-06-2.28771E-03-8.21391E-14-5.83623E-13
 -1      1033 2.00053E+01 1.57017E-02 8.81264E-06 5.96529E-04-1.87245E-14 1.39112E-13
 -1      1034 1.64344E+01 6.68362E-01 2.61818E-03 1.91677E+00 2.13532E-13-9.29343E-14
 -1      1035 1.86304E+01 3.92907E-01-1.40115E-03 1.79598E+00 8.08176E-14-1.70273E-13
 -1      1036 1.61626E+01 1.27225E+00-3.66714E-03-2.79655E-01-1.21619E-13 3.83933E-13
 -1      1037 1.87079E+01 1.00138E+00-3.16374E-04 1.07684E-01-1.61743E-13 3.14518E-14
 -1      1038 1.94691E+01 6.17286E-01-8.62227E-05 1.14286E-01-1.14011E-13 4.01234E-13
 -1      1039 1.96129E+01 5.08746E-01 3.08147E-04 9.75503E-02-1.06595E-13 4.42813E-13
 -1      1040 1.97212E+01 4.11803E-01-3.20867E-05 8.12227E-02-3.44461E-14 1.84829E-13
 -1      1041 1.98061E+01 3.26462E-01-2.07565E-05 6.57511E-02-4.82280E-14-8.09677E-14
 -1      1042 1.98689E+01 2.54759E-01-8.57479E-06 5.13549E-02-1.81135E-13 7.51273E-14
 -1      1043 1.99147E+01 1.95623E-01-1.20241E-06 3.88294E-02 4.35540E-14 3.49673E-13
 -1      1044 1.99474E+01 1.47732E-01 2.51960E-06 2.84245E-02 9.43156E-14 4.32764E-13
 -1      1045 1.99702E+01 1.09613E-01 4.08555E-06 2.00837E-02-9.89040E-14 3.56892E-13
 -1      1046 1.99855E+01 7.97729E-02 4.44548E-06 1.36000E-02-1.09395E-13 1.45625E-13
 -1      1047 1.99953E+01 5.67657E-02 1.30382E-06 8.70150E-03 3.88024E-15-4.65207E-15
 -1      1048 2.00013E+01 3.92058E-02 4.46339E-05 5.13996E-03-2.12287E-14-2.72868E-13
 -1      1049 1.88415E+01 8.63142E-01-8.50408E-04 1.31990E+00 1.65568E-14-1.51037E-13
 -1      1050 1.49953E+01 1.05150E+00 1.39856E-02-1.20278E+00-8.91588E-15 5.03609E-13
 -1      1051 1.85395E+01 1.79149E+00 5.96447E-04-3.71059E-01 1.68557E-13-2.21141E-13
 -1      1052 1.90510E+01 1.26727E+00 1.36619E-04 9.39297E-01 4.36636E-14-2.01689E-13
 -1      1053 1.82996E+01 1.12200E+00-3.22716E-04 6.56455E-02-2.70269E-13-1.69873E-13
 -1      1054 1.89582E+01 1.83512E+00 4.52805E-04 4.94042E-01 6.02750E-14-2.50936E-13
 -1      1055 1.79556E+01 1.63474E+00 4.70591E-04-4.76800E-01 1.65141E-13-1.54020E-13
 -1      1056 1.71953E+01 3.51136E-01 1.98895E-04-1.97045E+00 1.77844E-13 2.18986E-13
 -1      1057 2.00036E+01 2.69492E-02-4.70235E-06-3.58989E-04-1.69303E-13-7.10789E-13
 -1      1058 1.65997E+01 8.70944E-01 1.21005E-03-1.34044E+00 6.85355E-14 2.83033E-13
 -1      1059 1.71531E+01 1.50709E+00 8.22028E-04-5.80362E-01 1.11952E-13-1.94275E-13
 -1      1060 2.00037E+01 2.89926E-02 2.99122E-06 2.86782E-03-2.11596E-13-2.13909E-13
 -1      1061 1.88912E+01 2.01438E+00 5.58586E-04-2.19127E-01 1.59905E-13-2.56921E-13
 -1      1062 1.92256E+01 1.68193E+00 1.47062E-04 6.06318E-01 1.92571E-14-2.33363E-13
 -1      1063 1.83817E+01 1.78709E+00 9.86334E-04 2.03882E-01 9.52355E-14-2.50557E-13
 -1      1064 1.85534E+01 1.65428E+00-2.05126E-04 5.40923E-01 7.86042E-14-2.26933E-13
 -1      1065 1.95245E+01 5.61869E-01-7.50416E-04-1.88956E-02-1.67601E-13 1.57838E-14
 -1      1066 1.93554E+01 6.70603E-01-1.63139E-03-4.40101E-02-5.32389E-14-3.24990E-14
 -1      1067 1.62721E+01 1.32226E+00 1.20406E-03-9.87058E-01 1.23169E-13-2.90533E-13
 -1      1068 1.76303E+01 1.07633E+00-3.50694E-03-5.92108E-01-8.17086E-14-5.90970E-14
 -1      1069 1.76642E+01 6.59447E-01-1.30462E-05-1.40293E+00 1.15500E-13 1.70200E-13
 -1      1070 1.80880E+01 8.20184E-01 1.88703E-03-1.00465E+00 7.60441E-14 2.06537E-13
 -1      1071 1.84234E+01 8.85268E-01 2.80689E-04-7.27325E-01-1.16928E-13 3.05962E-14
 -1      1072 1.87376E+01 8.67587E-01 1.21442E-05-5.19980E-01-2.23388E-13-4.70850E-14
 -1      1073 1.90062E+01 8.08224E-01 8.42790E-05-3.74980E-01-2.05009E-13-1.94088E-13
 -1      1074 1.92303E+01 7.25253E-01 5.58240E-04-2.67964E-01-7.01030E-14-1.66051E-13
 -1      1075 1.94226E+01 6.24272E-01 3.09587E-04-1.89621E-01-8.11971E-14-5.81299E-14
 -1      1076 1.95695E+01 5.27879E-01 5.37319E-04-1.38574E-01-7.38607E-14-2.31090E-13
 -1      1077 1.96788E+01 4.39641E-01 5.60706E-06-1.00200E-01 1.32743E-13-3.71585E-13
 -1      1078 1.97699E+01 3.56156E-01-1.58138E-05-7.07138E-02 1.27333E-13-3.17893E-13
 -1      1079 1.98399E+01 2.82893E-01-1.70941E-05-5.03872E-02-7.68542E-14-2.25020E-13
 -1      1080 1.98924E+01 2.20699E-01-9.03338E-06-3.54555E-02-1.99959E-13-3.44278E-13
 -1      1081 1.99309E+01 1.69093E-01-4.26764E-06-2.45616E-02-1.07904E-13-2.69416E-13
 -1      1082 1.99584E+01 1.27186E-01-1.49861E-06-1.66578E-02 2.50099E-13-2.66759E-13
 -1      1083 1.99774E+01 9.38215E-02 1.73296E-07-1.09636E-02 2.68923E-13-3.02096E-13
 -1      1084 1.99901E+01 6.77542E-02 4.29606E-06-6.91171E-03 1.25118E-13-2.22124E-13
 -1      1085 1.99980E+01 4.77417E-02 3.34922E-05-3.93211E-03 6.19435E-14-2.53503E-13
 -1      1086 2.00017E+01 3.63084E-02 5.41552E-05-1.56170E-03 4.63844E-16-6.15738E-13
 -1      1087 1.72744E+01 1.05012E+00 1.80289E-03 1.30177E+00 1.42266E-13-1.58423E-13
 -1      1088 1.63667E+01 1.38470E+00 2.72662E-03 3.53267E-01 1.83211E-13-1.54898E-13
 -1      1089 1.71549E+01 1.01814E+00 8.14053E-04-9.12167E-01 5.11063E-14 1.50963E-13
 -1      1090 1.84667E+01 1.36816E+00-2.53181E-03 8.45716E-01 8.87154E-14-2.49840E-13
 -1      1091 1.79796E+01 1.20013E+00 3.24281E-03 1.03936E+00 8.13086E-14-2.04804E-13
 -1      1092 1.76998E+01 1.56301E+00-2.74021E-03 3.10802E-01 1.45329E-13-1.82525E-13
 -1      1093 2.00013E+01 3.60032E-02-8.53676E-05 7.91085E-04-1.64517E-13-2.87044E-13
 -1      1094 2.79334E+01 9.06484E+00 2.28260E+00-6.52432E+00-6.02296E-14 1.48451E-12
 -1      1095 2.08177E+01 6.31566E+00 2.34476E-01-3.64189E+00-2.88658E-14 3.47777E-14
 -1      1096 1.97007E+01 5.93804E+00 9.27233E-02-2.55233E+00-1.83326E-14-5.36987E-13
 -1      1097 1.92021E+01 5.78081E+00 6.72825E-02-1.86287E+00-1.01238E-14-7.72897E-13
 -1      1098 1.88887E+01 5.68330E+00 5.55987E-02-1.33307E+00-6.85216E-15-8.59774E-13
 -1      1099 1.86627E+01 5.61265E+00 4.61116E-02-9.07222E-01-3.35496E-15-8.83385E-13
 -1      1100 1.84978E+01 5.56085E+00 3.83102E-02-5.52876E-01-6.34909E-16-8.77957E-13
 -1      1101 1.83912E+01 5.52715E+00 3.26062E-02-2.45104E-01 1.39298E-15-8.53624E-13
 -1      1102 1.83497E+01 5.51388E+00 2.99377E-02 3.43045E-02 4.10240E-15-8.26801E-13
 -1      1103 1.83777E+01 5.52254E+00 3.07582E-02 3.08204E-01 7.41247E-15-7.84709E-13
 -1      1104 1.84771E+01 5.55372E+00 3.52474E-02 6.01279E-01 8.30239E-15-7.31637E-13
 -1      1105 1.86460E+01 5.60680E+00 4.33496E-02 9.36860E-01 1.06130E-14-6.45209E-13
 -1      1106 1.88853E+01 5.68179E+00 5.39317E-02 1.34634E+00 1.41415E-14-5.11758E-13
 -1      1107 1.92162E+01 5.78490E+00 6.67600E-02 1.86904E+00 1.88044E-14-2.79953E-13
 -1      1108 1.97206E+01 5.94276E+00 8.85856E-02 2.56096E+00 2.22600E-14 1.29974E-13
 -1      1109 2.07466E+01 6.27882E+00 1.82743E-01 3.59301E+00 2.34535E-14 8.81788E-13
 -1      1110 2.52469E+01 7.99634E+00 1.40749E+00 5.65608E+00 3.89688E-14 2.33363E-12
 -1      1111 2.86776E+01 3.52268E+00 1.18332E+00-4.10292E+00-2.35367E-13 2.38731E-12
 -1      1112 2.05553E+01-1.81966E-01-6.19814E-01-8.40392E-02-8.16638E-14 1.83771E-12
 -1      1113 1.94846E+01-9.77418E-02-2.32902E-01 6.87721E-02-3.03091E-14 1.08902E-12
 -1      1114 1.94321E+01-5.09165E-02-6.15778E-02 4.52912E-02-1.71798E-14 5.96551E-13
 -1      1115 1.96782E+01-2.84128E-02-2.01876E-02 3.27337E-02-6.49958E-15 2.32495E-13
 -1      1116 2.00973E+01-1.62445E-02-9.92990E-03 2.69243E-02-1.51582E-14 1.21094E-13
 -1      1117 2.06149E+01-7.31769E-03-3.33032E-03 2.38798E-02-8.44474E-15-1.08122E-13
 -1      1118 2.11695E+01 1.19210E-03 5.29580E-03 2.15456E-02-1.02602E-14-2.46275E-13
 -1      1119 2.16926E+01 1.06778E-02 1.71839E-02 1.81342E-02-1.18271E-14-3.76081E-13
 -1      1120 2.20986E+01 2.13390E-02 3.21082E-02 1.17982E-02-9.98941E-15-6.14460E-13
 -1      1121 2.22836E+01 3.18701E-02 4.77939E-02 8.01098E-04-1.76074E-16-7.68085E-13
 -1      1122 2.21390E+01 3.90126E-02 5.89234E-02-1.56377E-02 9.52927E-15-7.55784E-13
 -1      1123 2.15881E+01 3.78096E-02 5.73853E-02-3.58521E-02 1.47647E-14-8.10622E-13
 -1      1124 2.06410E+01 2.35128E-02 3.55306E-02-5.43845E-02-2.36859E-14-8.47440E-13
 -1      1125 1.94481E+01-4.35801E-03-7.31324E-03-6.25272E-02 1.23389E-14-1.03718E-12
 -1      1126 1.83058E+01-3.82082E-02-5.90733E-02-5.24075E-02-3.06985E-14-1.22196E-12
 -1      1127 1.75732E+01-6.32511E-02-9.72798E-02-2.32922E-02-1.78520E-14-1.36107E-12
 -1      1128 1.75159E+01-6.65120E-02-1.02216E-01 1.52592E-02-7.94677E-15-1.57619E-12
 -1      1129 1.81677E+01-4.60894E-02-7.11844E-02 4.79532E-02-2.38533E-14-1.66404E-12
 -1      1130 1.93124E+01-1.32049E-02-2.09249E-02 6.31620E-02 4.78285E-15-1.60964E-12
 -1      1131 2.06013E+01 1.67799E-02 2.51675E-02 5.92254E-02-6.86538E-15-1.46946E-12
 -1      1132 2.17156E+01 3.42755E-02 5.19127E-02 4.29408E-02-6.29228E-15-1.16586E-12
 -1      1133 2.24712E+01 3.81975E-02 5.74334E-02 2.33495E-02 3.51412E-15-1.08638E-12
 -1      1134 2.28304E+01 3.27789E-02 4.84691E-02 6.83556E-03-3.78317E-14-1.12759E-12
 -1      1135 2.28547E+01 2.32562E-02 3.35022E-02-4.08349E-03 7.81341E-15-1.32548E-12
 -1      1136 2.26469E+01 1.35157E-02 1.86941E-02-9.66773E-03 3.39936E-14-1.01427E-12
 -1      1137 2.23084E+01 5.55981E-03 7.05145E-03-1.13743E-02 2.14511E-14-7.95487E-13
 -1      1138 2.19197E+01-2.86671E-05-7.49860E-04-1.07752E-02-2.54834E-14-1.16008E-12
 -1      1139 2.15347E+01-3.44458E-03-5.22753E-03-9.08261E-03 3.22564E-15-1.22801E-12
 -1      1140 2.11853E+01-5.18008E-03-7.27691E-03-7.07032E-03 1.80609E-14-1.16735E-12
 -1      1141 2.08860E+01-5.75657E-03-7.75155E-03-5.16029E-03-9.16823E-15-9.02168E-13
 -1      1142 2.06407E+01-5.61094E-03-7.31386E-03-3.54081E-03 3.80437E-14-1.08077E-12
 -1      1143 2.04469E+01-5.06696E-03-6.42202E-03-2.26399E-03-2.95445E-14-1.14579E-12
 -1      1144 2.02983E+01-4.34508E-03-5.36736E-03-1.31174E-03-1.16676E-14-1.28240E-12
 -1      1145 2.01880E+01-3.58451E-03-4.32069E-03-6.35737E-04 1.84928E-14-1.38755E-12
 -1      1146 2.01084E+01-2.86581E-03-3.37188E-03-1.79541E-04 5.40009E-14-1.36931E-12
 -1      1147 2.00531E+01-2.22982E-03-2.55968E-03 1.10267E-04-3.48219E-14-1.11455E-12
 -1      1148 2.00162E+01-1.69207E-03-1.89246E-03 2.79357E-04-1.22625E-14-1.02097E-12
 -1      1149 1.99930E+01-1.25300E-03-1.36201E-03 3.64466E-04 5.55720E-14-3.46337E-13
 -1      1150 1.99798E+01-9.04662E-04-9.52040E-04 3.93922E-04 3.94193E-14 7.69488E-14
 -1      1151 1.99736E+01-6.35125E-04-6.43283E-04 3.88839E-04-7.28697E-14-3.22956E-13
 -1      1152 1.99721E+01-4.31027E-04-4.16288E-04 3.64456E-04-8.46951E-15-5.77419E-13
 -1      1153 1.99737E+01-2.79076E-04-2.52784E-04 3.31358E-04 3.25730E-15-8.24541E-13
 -1      1154 1.99772E+01-1.66743E-04-1.36014E-04 2.96467E-04-3.73728E-14-4.34025E-13
 -1      1155 1.99818E+01-8.24281E-05-5.01883E-05 2.63645E-04 3.85371E-14-1.88159E-13
 -1      1156 1.99868E+01-1.53924E-05 2.08331E-05 2.33649E-04 5.68674E-14-1.33772E-13
 -1      1157 1.99917E+01 4.41261E-05 9.45190E-05 2.02623E-04 5.90997E-14 1.11922E-13
 -1      1158 1.99960E+01 1.02374E-04 1.80116E-04 1.54770E-04 1.39660E-14 4.62563E-13
 -1      1159 1.99990E+01 1.65315E-04 2.35178E-04 5.64723E-05 2.47599E-14 1.91283E-13
 -1      1160 1.99999E+01-3.44341E-05-4.20191E-05-4.76524E-05 8.12274E-14 3.46647E-13
 -1      1161 2.76400E+01 5.14991E-01 3.01812E-01 1.92691E+00-4.39371E-14 3.49615E-12
 -1      1162 2.04508E+01-7.11187E-02-5.75152E-01 1.19928E-01 1.72293E-14 2.96518E-12
 -1      1163 1.96177E+01-4.71669E-02-1.94743E-01 1.81760E-02 9.47679E-15 2.37683E-12
 -1      1164 1.95820E+01-3.08514E-02-5.98434E-02 3.43048E-03 4.07747E-15 1.99187E-12
 -1      1165 1.99180E+01-2.47525E-02-2.95332E-02-1.06548E-03 1.02674E-14 1.62866E-12
 -1      1166 2.05072E+01-2.22027E-02-2.63428E-02-3.20885E-03 1.30683E-14 1.32749E-12
 -1      1167 2.13049E+01-2.02436E-02-2.75359E-02-6.13118E-03 6.78906E-15 1.21171E-12
 -1      1168 2.22916E+01-1.63659E-02-2.63267E-02-1.14837E-02-7.54822E-16 1.20625E-12
 -1      1169 2.34414E+01-7.42902E-03-1.78687E-02-2.05975E-02-2.65196E-15 1.07955E-12
 -1      1170 2.46889E+01 1.02610E-02 4.52171E-03-3.40326E-02 1.26575E-15 9.35099E-13
 -1      1171 2.58858E+01 3.90639E-02 4.79719E-02-4.96285E-02 3.02657E-14 8.00963E-13
 -1      1172 2.67537E+01 7.50570E-02 1.12620E-01-5.91559E-02-1.71209E-14 7.94247E-13
 -1      1173 2.68748E+01 1.00915E-01 1.77491E-01-4.61805E-02 2.77209E-14 9.00856E-13
 -1      1174 2.58113E+01 8.63661E-02 1.90797E-01 6.94869E-03-2.80349E-14 9.48991E-13
 -1      1175 2.34413E+01 1.23036E-02 9.45935E-02 9.60814E-02-1.14795E-14 8.83432E-13
 -1      1176 2.03948E+01-9.00460E-02-1.04647E-01 1.72252E-01-1.45751E-14 6.66800E-13
 -1      1177 1.80797E+01-1.42842E-01-2.86811E-01 1.66026E-01-6.01082E-14 5.56277E-13
 -1      1178 1.78541E+01-1.04286E-01-3.07351E-01 6.05162E-02-6.38205E-15 5.68059E-13
 -1      1179 1.98827E+01-2.02845E-02-1.55543E-01-7.31795E-02 3.45115E-14 1.61066E-13
 -1      1180 2.29800E+01 4.08374E-02 3.68921E-02-1.47700E-01-7.21623E-15 2.09777E-13
 -1      1181 2.56567E+01 5.85345E-02 1.44452E-01-1.41795E-01-7.86350E-15 2.77584E-13
 -1      1182 2.71067E+01 4.85616E-02 1.50503E-01-9.07311E-02 3.22659E-14 1.35454E-13
 -1      1183 2.73217E+01 3.01446E-02 1.04342E-01-3.65042E-02-5.18596E-15 4.35485E-14
 -1      1184 2.67031E+01 1.39783E-02 5.17835E-02 6.23863E-04 6.22983E-15-2.80539E-14
 -1      1185 2.56882E+01 3.05135E-03 1.38931E-02 1.91862E-02 3.86300E-14-1.39042E-13
 -1      1186 2.45864E+01-3.12448E-03-6.98547E-03 2.50523E-02 3.99278E-14 8.78048E-14
 -1      1187 2.35664E+01-5.98363E-03-1.57051E-02 2.42104E-02-5.54507E-14 5.85296E-14
 -1      1188 2.26982E+01-6.84472E-03-1.75764E-02 2.06365E-02 8.15776E-14-2.35600E-13
 -1      1189 2.19954E+01-6.63739E-03-1.62634E-02 1.64526E-02-1.63373E-14-1.19958E-13
 -1      1190 2.14450E+01-5.93516E-03-1.38107E-02 1.25994E-02 4.95149E-14 6.13155E-14
 -1      1191 2.10242E+01-5.06128E-03-1.12003E-02 9.39207E-03 1.80071E-14-2.81880E-13
 -1      1192 2.07085E+01-4.18380E-03-8.83573E-03 6.85927E-03 1.59633E-14-2.78113E-13
 -1      1193 2.04757E+01-3.38173E-03-6.84163E-03 4.91989E-03-2.95458E-14 1.49654E-13
 -1      1194 2.03071E+01-2.68567E-03-5.22201E-03 3.46458E-03-5.31626E-14 5.73491E-13
 -1      1195 2.01872E+01-2.10110E-03-3.93574E-03 2.38898E-03 1.84050E-14 3.71930E-13
 -1      1196 2.01040E+01-1.62132E-03-2.92970E-03 1.60450E-03 9.89039E-15-1.19799E-13
 -1      1197 2.00478E+01-1.23453E-03-2.15221E-03 1.03998E-03 6.01992E-14-6.53374E-13
 -1      1198 2.00114E+01-9.27468E-04-1.55794E-03 6.39851E-04-4.68207E-14-5.59676E-13
 -1      1199 1.99891E+01-6.87175E-04-1.10892E-03 3.61405E-04-1.46128E-14-3.38458E-13
 -1      1200 1.99768E+01-5.01748E-04-7.74045E-04 1.71995E-04-1.84737E-14-5.07745E-13
 -1      1201 1.99714E+01-3.60554E-04-5.27934E-04 4.67137E-05 1.91053E-14-6.95597E-13
 -1      1202 1.99706E+01-2.54182E-04-3.49851E-04-3.34594E-05-1.03546E-13-6.56896E-14
 -1      1203 1.99727E+01-1.74267E-04-2.22629E-04-8.30571E-05 6.17542E-15-2.68848E-13
 -1      1204 1.99765E+01-1.13362E-04-1.31700E-04-1.13235E-04 5.55014E-14-6.32041E-13
 -1      1205 1.99813E+01-6.40279E-05-6.32014E-05-1.32807E-04 2.36029E-14-6.55690E-13
 -1      1206 1.99865E+01-1.81952E-05-1.83789E-06-1.48129E-04 2.71901E-14-9.72615E-13
 -1      1207 1.99915E+01 3.14528E-05 6.92950E-05-1.62664E-04 5.23545E-14-1.46376E-12
 -1      1208 1.99959E+01 9.08072E-05 1.60197E-04-1.71706E-04-1.04448E-13-1.02098E-12
 -1      1209 1.99990E+01 1.30666E-04 2.17254E-04-1.36983E-04 1.02451E-15-5.59302E-13
 -1      1210 1.99999E+01-3.61486E-05-4.79033E-05 3.97150E-05-5.11635E-14-2.56197E-13
 -1      1211 1.99998E+01 1.03620E-04-4.92911E-05 2.83052E-05-2.65257E-13-8.04508E-14
 -1      1212 1.99999E+01-8.70357E-04 1.98617E-04-4.82576E-05-1.43332E-13-1.27445E-13
 -1      1213 1.99999E+01-3.76012E-03 1.20551E-04-1.46976E-04 1.91598E-13 1.14387E-14
 -1      1214 1.99998E+01-7.49920E-03 5.10012E-06-1.59504E-04-2.06382E-13-5.99737E-14
 -1      1215 1.99998E+01-1.12382E-02-7.52123E-05-1.38734E-04-9.06813E-14 8.36333E-14
 -1      1216 1.99997E+01-1.44381E-02-1.20829E-04-1.04727E-04 4.01490E-14 2.30064E-14
 -1      1217 1.99997E+01-1.68408E-02-1.41671E-04-7.01771E-05 9.72064E-13 1.44011E-13
 -1      1218 1.99997E+01-1.83189E-02-1.50102E-04-3.37934E-05 8.74963E-13-1.42009E-13
 -1      1219 1.99997E+01-1.87870E-02-1.51301E-04 1.57232E-06 3.59660E-13-6.98851E-14
 -1      1220 1.99997E+01-1.82361E-02-1.47634E-04 3.65987E-05 6.18925E-13 7.71022E-14
 -1      1221 1.99997E+01-1.66917E-02-1.37088E-04 7.19902E-05-2.45679E-13-1.86462E-13
 -1      1222 1.99997E+01-1.42504E-02-1.14863E-04 1.07090E-04-6.80738E-13-4.90409E-15
 -1      1223 1.99998E+01-1.10489E-02-7.07867E-05 1.37893E-04-1.20846E-12 6.90699E-14
 -1      1224 1.99998E+01-7.33383E-03 1.00468E-05 1.59662E-04-1.02185E-12 7.15352E-15
 -1      1225 1.99999E+01-3.59547E-03 1.42152E-04 1.71669E-04-4.85437E-13-1.62998E-14
 -1      1226 2.00000E+01-8.81017E-04 1.98709E-04 3.83650E-05-2.93703E-13-1.60320E-13
 -1      1227 1.99997E+01 1.03254E-04-5.85915E-05-2.32125E-05-3.83365E-13 1.22340E-13
 -1      1228-1.27588E+00-2.45829E+01-3.81462E+00-2.33204E+00 1.69742E-12 3.72688E-13
 -1      1229-1.99768E+00-1.60585E+01-3.20057E+00-4.26009E+00 2.92710E-12 9.96925E-13
 -1      1230-2.70551E-02-3.29535E+00-2.06264E+00-6.07244E-01 3.05622E-12 1.95366E-12
 -1      1231 8.61429E+00 7.03590E+00-4.95774E-01 7.74776E+00 2.93610E-12 2.89369E-12
 -1      1232 2.59244E+01 1.07520E+01 1.33850E+00 1.59818E+01 2.29838E-12 3.25162E-12
 -1      1233 4.76784E+01 8.16082E+00 3.17275E+00 1.75171E+01 1.05049E-12 2.24309E-12
 -1      1234 6.45990E+01 3.44701E+00 4.24548E+00 9.73864E+00 2.30982E-13 5.12257E-13
 -1      1235 6.92887E+01 1.83226E+00 4.58969E+00-3.48063E+00 1.57194E-13-1.21578E-12
 -1      1236 5.86800E+01 5.22906E+00 3.84888E+00-1.46964E+01 8.57842E-13-2.81797E-12
 -1      1237 3.79117E+01 9.97117E+00 2.35754E+00-1.79014E+01 1.79234E-12-3.35976E-12
 -1      1238 1.73366E+01 1.02115E+01 5.78279E-01-1.28512E+01 2.48290E-12-3.00115E-12
 -1      1239 3.86397E+00 3.13700E+00-1.18684E+00-3.79086E+00 2.56573E-12-2.04481E-12
 -1      1240-1.52074E+00-9.12287E+00-2.63538E+00 3.10272E+00 2.07501E-12-1.09912E-12
 -1      1241-1.85888E+00-2.05523E+01-3.60329E+00 4.07299E+00 7.63833E-13-3.25184E-13
 -1      1242-1.15710E+00-2.55146E+01-3.85325E+00 5.58693E-01-9.35307E-13-1.58394E-13
 -1      1243-1.42996E+00-2.17164E+01-3.61149E+00-3.51568E+00-2.42451E-12-6.09873E-13
 -1      1244-1.39801E+00-9.92325E+00-2.56803E+00-2.96915E+00-3.18412E-12-1.42497E-12
 -1      1245 3.43891E+00 2.70191E+00-1.14074E+00 3.42746E+00-3.15303E-12-2.31859E-12
 -1      1246 1.70139E+01 1.02792E+01 6.13669E-01 1.27661E+01-2.37099E-12-2.61480E-12
 -1      1247 3.73647E+01 1.00522E+01 2.34332E+00 1.82639E+01-1.26088E-12-2.27218E-12
 -1      1248 5.61273E+01 5.46455E+00 3.59183E+00 1.45124E+01-5.01627E-13-1.32649E-12
 -1      1249 6.63818E+01 1.92443E+00 4.17515E+00 3.19725E+00-1.41720E-13 4.50029E-13
 -1      1250 6.25574E+01 3.36860E+00 3.99387E+00-1.00087E+01-5.33434E-13 2.21156E-12
 -1      1251 4.61581E+01 8.29048E+00 2.98009E+00-1.73415E+01-1.55215E-12 3.53984E-12
 -1      1252 2.59092E+01 1.12905E+01 1.52183E+00-1.61982E+01-2.68230E-12 3.79319E-12
 -1      1253 9.28747E+00 8.00544E+00-2.06612E-01-8.47223E+00-3.18856E-12 3.09708E-12
 -1      1254 4.41423E-01-1.99610E+00-1.75936E+00-6.04039E-02-2.74203E-12 1.74616E-12
 -1      1255-1.71403E+00-1.46582E+01-2.97724E+00 3.85643E+00-1.65246E-12 7.36800E-13
 -1      1256-1.10998E+00-2.39393E+01-3.70650E+00 2.14181E+00-1.85962E-14 2.22974E-13
 -1      1257 2.24619E+01 1.85258E+00-7.14333E-01-2.65361E+00-8.87346E-14 1.13920E-12
 -1      1258 2.06761E+01 4.70497E+00-4.19483E-02-3.01270E+00-2.10207E-13-2.37907E-13
 -1      1259 2.11777E+01 4.81162E+00-9.89800E-02-3.89412E+00-2.83495E-13 6.68077E-14
 -1      1260 1.97990E+01 5.02273E+00-1.71573E-02-2.30102E+00-1.97363E-13-6.44169E-13
 -1      1261 2.01361E+01 5.12892E+00 1.03629E-02-2.71526E+00-2.29448E-13-4.77909E-13
 -1      1262 2.08639E+01 3.94709E+00-2.11514E-02-2.75042E+00-3.66922E-13-1.99896E-13
 -1      1263 1.93313E+01 5.11636E+00-4.87533E-03-1.69536E+00-1.47087E-13-8.17950E-13
 -1      1264 1.95473E+01 5.19047E+00 1.67771E-02-1.99427E+00-1.75179E-13-7.45855E-13
 -1      1265 2.00071E+01 4.39329E+00-2.12890E-02-2.12463E+00-3.09091E-13-5.30291E-13
 -1      1266 1.90086E+01 5.15911E+00-4.37165E-04-1.20532E+00-9.11875E-14-8.83066E-13
 -1      1267 1.91627E+01 5.21140E+00 1.57943E-02-1.44295E+00-1.08996E-13-8.56953E-13
 -1      1268 1.95005E+01 4.61044E+00-1.80759E-02-1.55921E+00-2.11522E-13-6.79540E-13
 -1      1269 1.87711E+01 5.18346E+00 1.14432E-03-8.07612E-01-3.95014E-14-8.90980E-13
 -1      1270 1.88852E+01 5.22125E+00 1.35120E-02-1.00037E+00-6.06251E-14-8.86997E-13
 -1      1271 1.91509E+01 4.73987E+00-1.48968E-02-1.09897E+00-1.29247E-13-7.32654E-13
 -1      1272 1.85965E+01 5.19978E+00 1.58300E-03-4.66770E-01-8.04044E-16-8.81449E-13
 -1      1273 1.86779E+01 5.22622E+00 1.05511E-02-6.32905E-01-1.11335E-14-8.90789E-13
 -1      1274 1.88933E+01 4.82605E+00-1.27861E-02-7.16895E-01-4.72886E-14-7.45518E-13
 -1      1275 1.84917E+01 5.21258E+00 2.29498E-03-1.69657E-01 4.32237E-14-8.50681E-13
 -1      1276 1.85366E+01 5.22701E+00 7.49046E-03-3.16529E-01 2.82482E-14-8.63311E-13
 -1      1277 1.87124E+01 4.88322E+00-1.16566E-02-3.89407E-01 1.75211E-14-7.21201E-13
 -1      1278 1.84624E+01 5.22335E+00 3.68821E-03 1.04850E-01 7.80567E-14-8.17492E-13
 -1      1279 1.84677E+01 5.22503E+00 4.79626E-03-3.35894E-02 6.78537E-14-8.38217E-13
 -1      1280 1.86128E+01 4.91564E+00-1.10802E-02-9.99310E-02 8.85860E-14-6.97623E-13
 -1      1281 1.85135E+01 5.23199E+00 5.95931E-03 3.79369E-01 1.17232E-13-7.79569E-13
 -1      1282 1.84771E+01 5.22025E+00 2.63278E-03 2.37768E-01 1.03939E-13-8.04273E-13
 -1      1283 1.86006E+01 4.92381E+00-1.09635E-02 1.72412E-01 1.52857E-13-6.66840E-13
 -1      1284 1.86470E+01 5.23675E+00 8.99907E-03 6.78460E-01 1.53459E-13-7.21716E-13
 -1      1285 1.85683E+01 5.21148E+00 1.06150E-03 5.21125E-01 1.39720E-13-7.57620E-13
 -1      1286 1.86807E+01 4.90552E+00-1.13465E-02 4.50183E-01 2.10478E-13-6.29949E-13
 -1      1287 1.88582E+01 5.23560E+00 1.25921E-02 1.02211E+00 1.92804E-13-6.31802E-13
 -1      1288 1.87395E+01 5.19645E+00-1.74149E-04 8.39047E-01 1.75897E-13-6.87821E-13
 -1      1289 1.88536E+01 4.85700E+00-1.22359E-02 7.54961E-01 2.71489E-13-5.68826E-13
 -1      1290 1.91578E+01 5.22488E+00 1.59615E-02 1.45134E+00 2.40773E-13-4.77240E-13
 -1      1291 1.89919E+01 5.16925E+00-1.98566E-03 1.22033E+00 2.18551E-13-5.67138E-13
 -1      1292 1.91213E+01 4.77023E+00-1.42230E-02 1.11510E+00 3.39112E-13-4.66478E-13
 -1      1293 1.95667E+01 5.19957E+00 1.73400E-02 1.99709E+00 2.82455E-13-2.27849E-13
 -1      1294 1.93381E+01 5.12032E+00-6.64808E-03 1.69945E+00 2.58387E-13-3.79891E-13
 -1      1295 1.94992E+01 4.62862E+00-1.75422E-02 1.56309E+00 4.04997E-13-3.00177E-13
 -1      1296 2.01874E+01 5.14630E+00 1.76937E-02 2.71892E+00 3.00954E-13 2.10394E-13
 -1      1297 1.98292E+01 5.02090E+00-1.82814E-02 2.30855E+00 2.76203E-13-5.48589E-14
 -1      1298 2.00380E+01 4.39344E+00-2.08960E-02 2.12770E+00 4.49744E-13-2.21698E-14
 -1      1299 2.14219E+01 4.90576E+00 1.93662E-02 3.76876E+00 2.41362E-13 1.01585E-12
 -1      1300 2.06817E+01 4.74836E+00-4.01065E-02 3.08817E+00 2.39975E-13 5.32449E-13
 -1      1301 2.09301E+01 3.91860E+00-1.63323E-02 2.81575E+00 4.32501E-13 4.65489E-13
 -1      1302 2.72276E+01 3.16204E+00 8.85903E-01 4.40340E+00 9.58678E-14 2.41801E-12
 -1      1303 2.22881E+01 3.51477E+00-1.73327E-01 3.65447E+00 1.07997E-13 1.45639E-12
 -1      1304 2.24658E+01 2.53813E+00-2.53152E-02 3.16000E+00 3.79776E-13 1.18155E-12
 -1      1305 2.16947E+01 3.45674E-01-7.55987E-01 1.04612E+00 1.82000E-13 2.37038E-12
 -1      1306 2.23058E+01 1.22013E-01-3.97443E-01-1.14799E+00-2.47302E-13 1.24192E-12
 -1      1307 2.11336E+01 2.96886E-01-1.58576E-01-6.88486E-01-2.26236E-13 9.48859E-13
 -1      1308 2.06283E+01 1.52284E-01-7.10063E-02-2.87606E-01-1.83194E-13 8.36976E-13
 -1      1309 2.03000E+01 9.13513E-02-1.25487E-02-2.17475E-01-1.68591E-13 5.68021E-13
 -1      1310 2.14604E+01 3.57785E-01-1.03258E-01-1.04886E+00-3.94892E-13 4.36005E-13
 -1      1311 2.00536E+01 6.74234E-02 3.74488E-03-1.92214E-02-1.34242E-13 4.85310E-13
 -1      1312 2.00431E+01 4.48523E-02 1.38574E-02 5.10706E-04-1.24019E-13 2.95382E-13
 -1      1313 2.06133E+01 1.33835E-01-3.61344E-02-2.79244E-01-2.92870E-13 2.65656E-13
 -1      1314 2.00047E+01 3.68030E-02 1.27756E-02 9.95342E-02-8.55011E-14 2.23051E-13
 -1      1315 2.01422E+01 2.41792E-02 1.08721E-02 1.11973E-01-7.35297E-14 9.48824E-14
 -1      1316 2.03639E+01 6.21047E-02-9.99545E-03 7.09716E-02-2.08229E-13 1.34406E-13
 -1      1317 2.02206E+01 2.14559E-02 7.79711E-03 1.66540E-01-4.89361E-14 5.66734E-14
 -1      1318 2.04357E+01 1.26105E-02 5.83785E-03 1.74029E-01-6.44441E-14-2.46175E-14
 -1      1319 2.04062E+01 3.24932E-02-5.33886E-03 2.55251E-01-1.24399E-13-7.76636E-15
 -1      1320 2.05800E+01 1.09077E-02 3.51444E-03 2.01894E-01-7.42583E-14-3.86774E-14
 -1      1321 2.08324E+01 3.06420E-03 2.81351E-03 2.05076E-01-6.79838E-14-1.33534E-13
 -1      1322 2.06241E+01 1.53039E-02-3.60934E-03 3.55946E-01-1.30546E-13-5.95921E-14
 -1      1323 2.10076E+01 7.26254E-04 1.39187E-03 2.09899E-01-4.12655E-14-1.67593E-13
 -1      1324 2.12628E+01-7.36048E-03 1.32462E-03 2.08132E-01-3.17653E-14-2.35267E-13
 -1      1325 2.09376E+01-3.04800E-04-1.50885E-03 3.97166E-01-1.08076E-13-1.02814E-13
 -1      1326 2.14381E+01-1.12640E-02 8.41670E-04 1.87530E-01-4.33321E-14-2.51223E-13
 -1      1327 2.16576E+01-1.99087E-02 8.78946E-04 1.79382E-01-6.80727E-14-3.53429E-13
 -1      1328 2.12841E+01-1.86698E-02 1.41325E-03 3.80401E-01-9.00981E-14-1.92573E-13
 -1      1329 2.18006E+01-2.57970E-02 1.51664E-03 1.28710E-01-4.97801E-14-3.31586E-13
 -1      1330 2.19386E+01-3.42663E-02 1.32537E-03 1.12573E-01-4.43881E-14-4.10255E-13
 -1      1331 2.16025E+01-4.13647E-02 5.20255E-03 2.97121E-01-8.54659E-14-2.22840E-13
 -1      1332 2.20148E+01-4.16866E-02 3.21484E-03 2.89180E-02-5.16137E-14-3.96579E-13
 -1      1333 2.20212E+01-4.78598E-02 2.52683E-03 4.09787E-03-2.29452E-14-4.39487E-13
 -1      1334 2.18275E+01-6.68091E-02 9.66058E-03 1.37838E-01-8.19622E-14-1.76088E-13
 -1      1335 2.19972E+01-5.49282E-02 5.44228E-03-1.08181E-01-5.92235E-15-5.08388E-13
 -1      1336 2.18297E+01-5.52394E-02 3.98016E-03-1.39755E-01-3.69774E-14-5.44429E-13
 -1      1337 2.18915E+01-8.89520E-02 1.39811E-02-9.66320E-02-6.47702E-14-2.14681E-13
 -1      1338 2.16834E+01-5.84172E-02 7.10083E-03-2.62779E-01-3.19935E-14-5.67810E-13
 -1      1339 2.13282E+01-4.88427E-02 4.60025E-03-2.94709E-01-1.40790E-14-6.00575E-13
 -1      1340 2.17378E+01-9.67259E-02 1.64467E-02-3.80860E-01-5.30583E-14-3.71373E-13
 -1      1341 2.10632E+01-4.40504E-02 6.59076E-03-3.94117E-01-1.88066E-14-5.84571E-13
 -1      1342 2.05599E+01-2.26933E-02 3.04903E-03-4.15233E-01-5.45271E-14-6.51212E-13
 -1      1343 2.13441E+01-7.69355E-02 1.46099E-02-6.52856E-01-3.99810E-14-4.09030E-13
 -1      1344 2.02204E+01-8.23298E-03 2.82270E-03-4.47108E-01-5.24060E-14-6.82794E-13
 -1      1345 1.96741E+01 2.13054E-02-1.24223E-03-4.44890E-01-6.78678E-14-7.70974E-13
 -1      1346 2.07534E+01-2.26030E-02 6.46468E-03-8.17364E-01-1.17265E-13-3.97543E-13
 -1      1347 1.93466E+01 4.12873E-02-3.46079E-03-3.76246E-01-6.24275E-14-7.55857E-13
 -1      1348 1.89098E+01 6.87914E-02-6.89205E-03-3.44460E-01-7.96819E-14-8.20941E-13
 -1      1349 2.00930E+01 5.66552E-02-7.23461E-03-7.78106E-01-1.19474E-13-4.66158E-13
 -1      1350 1.87002E+01 8.44832E-02-9.22567E-03-1.79065E-01-1.08570E-13-8.74863E-13
 -1      1351 1.85170E+01 9.74876E-02-1.07996E-02-1.24880E-01-1.17842E-13-1.00451E-12
 -1      1352 1.95563E+01 1.31690E-01-2.13846E-02-4.95705E-01-1.48661E-13-4.57532E-13
 -1      1353 1.85042E+01 9.95807E-02-1.12582E-02 8.71103E-02-8.09994E-14-1.07547E-12
 -1      1354 1.86438E+01 9.14992E-02-1.01958E-02 1.44139E-01-5.72762E-14-1.13909E-12
 -1      1355 1.93325E+01 1.67581E-01-2.84657E-02-3.49176E-02-1.59799E-13-6.24346E-13
 -1      1356 1.88380E+01 7.87887E-02-8.37141E-03 3.27708E-01-3.97304E-14-1.19891E-12
 -1      1357 1.92583E+01 5.37859E-02-5.12630E-03 3.66408E-01-3.29216E-14-1.22277E-12
 -1      1358 1.95139E+01 1.45600E-01-2.43198E-02 4.48555E-01-8.34038E-14-8.49779E-13
 -1      1359 1.95951E+01 3.42319E-02-2.82722E-03 4.62332E-01 1.73936E-14-1.26051E-12
 -1      1360 2.01659E+01 4.11708E-03 1.42927E-03 4.72084E-01 2.14399E-14-1.18382E-12
 -1      1361 2.00441E+01 7.79273E-02-1.12487E-02 7.87195E-01-1.29913E-14-9.05710E-13
 -1      1362 2.05423E+01-1.18349E-02 2.01130E-03 4.65332E-01 6.19988E-14-1.19008E-12
 -1      1363 2.11087E+01-3.57247E-02 5.96292E-03 4.49644E-01 5.97265E-14-1.09634E-12
 -1      1364 2.07511E+01-2.65493E-03 3.12650E-03 8.90502E-01 6.34372E-14-8.57727E-13
 -1      1365 2.14314E+01-4.23352E-02 4.16233E-03 3.66545E-01 8.74474E-15-1.03429E-12
 -1      1366 2.18755E+01-5.48498E-02 7.14634E-03 3.37220E-01 1.24397E-14-1.00342E-12
 -1      1367 2.14364E+01-6.36963E-02 1.27643E-02 7.75705E-01 9.06645E-14-9.13797E-13
 -1      1368 2.20905E+01-5.27646E-02 3.82615E-03 2.21040E-01 4.51132E-14-1.01679E-12
 -1      1369 2.23586E+01-5.48694E-02 5.74815E-03 1.89925E-01 3.78725E-14-9.62674E-13
 -1      1370 2.19551E+01-9.08610E-02 1.59535E-02 5.30763E-01 1.66187E-14-8.83073E-13
 -1      1371 2.24534E+01-4.79225E-02 2.27542E-03 7.77952E-02 1.16218E-14-8.98557E-13
 -1      1372 2.25489E+01-4.34863E-02 3.36861E-03 5.23485E-02-3.03316E-14-9.44955E-13
 -1      1373 2.22453E+01-8.82293E-02 1.43293E-02 2.54052E-01 4.92792E-14-7.55528E-13
 -1      1374 2.25398E+01-3.55139E-02 6.91720E-04-3.47272E-02-1.16101E-14-8.63088E-13
 -1      1375 2.24997E+01-2.84418E-02 1.20880E-03-5.18309E-02 4.38412E-14-8.36763E-13
 -1      1376 2.23152E+01-6.85580E-02 1.04201E-02 1.49523E-02-3.10255E-15-5.73583E-13
 -1      1377 2.24161E+01-2.17653E-02-3.45222E-04-1.07846E-01 5.25476E-14-7.75501E-13
 -1      1378 2.22877E+01-1.46875E-02-2.06632E-04-1.17082E-01 3.85035E-14-6.58634E-13
 -1      1379 2.22121E+01-4.39879E-02 6.19890E-03-1.55378E-01 8.71221E-14-4.33644E-13
 -1      1380 2.21600E+01-1.01292E-02-7.61877E-04-1.45304E-01-3.71573E-14-6.43949E-13
 -1      1381 2.19863E+01-4.32175E-03-8.73799E-04-1.48526E-01-1.54349E-14-7.46182E-13
 -1      1382 2.19958E+01-2.20828E-02 2.70289E-03-2.54721E-01 4.66662E-15-4.44619E-13
 -1      1383 2.18398E+01-1.77357E-03-7.39584E-04-1.55999E-01-2.76985E-14-7.97383E-13
 -1      1384 2.16533E+01 2.42061E-03-1.01474E-03-1.55264E-01-9.52376E-14-9.17317E-13
 -1      1385 2.17208E+01-5.88175E-03 2.41856E-04-2.96027E-01-1.01407E-13-6.05440E-13
 -1      1386 2.15062E+01 3.44523E-03-5.01717E-04-1.49311E-01-4.62536E-14-8.31323E-13
 -1      1387 2.13278E+01 6.16688E-03-8.72284E-04-1.46339E-01 2.90567E-14-8.25252E-13
 -1      1388 2.14292E+01 4.45273E-03-1.26500E-03-2.96714E-01-5.38736E-14-5.80853E-13
 -1      1389 2.11916E+01 6.19942E-03-2.14061E-04-1.32970E-01 1.87240E-14-8.03489E-13
 -1      1390 2.10331E+01 7.76660E-03-6.24847E-04-1.28995E-01 6.15252E-14-7.01842E-13
 -1      1391 2.11492E+01 1.00416E-02-2.04080E-03-2.72756E-01 4.45092E-14-5.81895E-13
 -1      1392 2.09137E+01 7.24169E-03 3.30712E-05-1.12509E-01 1.84649E-14-7.23600E-13
 -1      1393 2.07799E+01 7.98777E-03-3.75016E-04-1.08327E-01 5.12882E-15-6.80764E-13
 -1      1394 2.08975E+01 1.22937E-02-2.31788E-03-2.36430E-01 7.29562E-14-4.79939E-13
 -1      1395 2.06797E+01 7.21104E-03 2.06916E-04-9.14907E-02-4.07964E-14-6.87012E-13
 -1      1396 2.05713E+01 7.41764E-03-1.68955E-04-8.75605E-02-2.48229E-14-6.57326E-13
 -1      1397 2.06817E+01 1.24450E-02-2.28601E-03-1.96122E-01-6.78421E-14-4.58780E-13
 -1      1398 2.04900E+01 6.58165E-03 3.07563E-04-7.19634E-02-1.93268E-14-9.27591E-13
 -1      1399 2.04050E+01 6.46194E-03-1.92232E-05-6.85145E-02-9.78211E-14-9.94101E-13
 -1      1400 2.05036E+01 1.14214E-02-2.08278E-03-1.56989E-01-1.82642E-13-6.04415E-13
 -1      1401 2.03410E+01 5.67548E-03 3.49257E-04-5.49312E-02-5.55191E-14-9.69345E-13
 -1      1402 2.02765E+01 5.37966E-03 7.81755E-05-5.20450E-02 4.77583E-14-9.81273E-13
 -1      1403 2.03610E+01 9.85105E-03-1.80057E-03-1.21824E-01-6.04853E-14-7.47886E-13
 -1      1404 2.02274E+01 4.69536E-03 3.49507E-04-4.07273E-02 5.46128E-14-9.19591E-13
 -1      1405 2.01798E+01 4.32310E-03 1.33549E-04-3.83983E-02-3.11159E-14-9.59857E-13
 -1      1406 2.02502E+01 8.12664E-03-1.49751E-03-9.18315E-02 4.19547E-14-5.70448E-13
 -1      1407 2.01433E+01 3.75867E-03 3.23997E-04-2.92892E-02 3.30410E-14-9.35552E-13
 -1      1408 2.01093E+01 3.37221E-03 1.58222E-04-2.74657E-02 1.42566E-13-8.58136E-13
 -1      1409 2.01662E+01 6.47346E-03-1.20751E-03-6.72308E-02 2.63077E-14-4.96063E-13
 -1      1410 2.00828E+01 2.92542E-03 2.84870E-04-2.03452E-02 1.10692E-13-7.36748E-13
 -1      1411 2.00593E+01 2.56073E-03 1.62194E-04-1.89555E-02 5.45642E-14-6.41619E-13
 -1      1412 2.01043E+01 5.00533E-03-9.48202E-04-4.76817E-02 1.47283E-13-4.41227E-13
 -1      1413 2.00408E+01 2.21926E-03 2.40621E-04-1.35340E-02 1.02790E-15-6.58776E-13
 -1      1414 2.00254E+01 1.89474E-03 1.53339E-04-1.25017E-02 7.68041E-14-5.46804E-13
 -1      1415 2.00601E+01 3.76631E-03-7.26806E-04-3.25691E-02 5.40073E-14-2.40561E-13
 -1      1416 2.00128E+01 1.64231E-03 1.96671E-04-8.47699E-03 2.11066E-13-3.92343E-13
 -1      1417 2.00034E+01 1.36512E-03 1.37395E-04-7.73001E-03 2.50432E-13-1.18466E-13
 -1      1418 2.00295E+01 2.75966E-03-5.44284E-04-2.11811E-02 2.23340E-13-2.41767E-13
 -1      1419 1.99954E+01 1.18486E-03 1.56118E-04-4.81826E-03 5.48624E-14-1.51677E-13
 -1      1420 1.99901E+01 9.55240E-04 1.18276E-04-4.29265E-03-1.05815E-13-1.30530E-13
 -1      1421 2.00093E+01 1.96688E-03-3.98075E-04-1.28131E-02 2.08411E-13-2.15334E-13
 -1      1422 1.99855E+01 8.31545E-04 1.20438E-04-2.24427E-03-1.35238E-13-8.44899E-14
 -1      1423 1.99832E+01 6.45745E-04 9.84795E-05-1.88617E-03-1.14612E-13-2.84252E-13
 -1      1424 1.99967E+01 1.35939E-03-2.83849E-04-6.82444E-03-1.62919E-13-1.74430E-13
 -1      1425 1.99809E+01 5.64968E-04 9.00478E-05-4.91688E-04-1.71789E-13-3.80545E-13
 -1      1426 1.99806E+01 4.17131E-04 7.94585E-05-2.57408E-04-1.07264E-13-5.00210E-13
 -1      1427 1.99897E+01 9.05390E-04-1.96586E-04-2.66325E-03-2.54886E-13-1.68368E-13
 -1      1428 1.99799E+01 3.67765E-04 6.47344E-05 6.51918E-04 4.24847E-14-5.78880E-13
 -1      1429 1.99810E+01 2.51084E-04 6.19536E-05 7.96478E-04 1.95283E-14-5.82161E-13
 -1      1430 1.99867E+01 5.73566E-04-1.31213E-04 1.25144E-04-9.34803E-14-3.62034E-13
 -1      1431 1.99813E+01 2.23530E-04 4.39967E-05 1.35078E-03-2.77157E-14-3.62870E-13
 -1      1432 1.99832E+01 1.30881E-04 4.63376E-05 1.43097E-03 5.74962E-14-3.07922E-13
 -1      1433 1.99862E+01 3.34741E-04-8.29259E-05 1.90030E-03 8.27962E-14-3.16039E-13
 -1      1434 1.99842E+01 1.16949E-04 2.74435E-05 1.72460E-03 8.86776E-14-3.68535E-13
 -1      1435 1.99864E+01 4.11737E-05 3.31273E-05 1.75772E-03 1.21237E-13-2.74267E-13
 -1      1436 1.99874E+01 1.62030E-04-4.72612E-05 2.93268E-03 1.44466E-13-3.54157E-13
 -1      1437 1.99877E+01 3.33569E-05 1.54250E-05 1.85159E-03 1.91917E-13-2.56649E-13
 -1      1438 1.99901E+01-3.26920E-05 2.37538E-05 1.84718E-03 2.18048E-13-4.27964E-14
 -1      1439 1.99897E+01 3.00116E-05-1.99186E-05 3.41004E-03 2.18834E-13-2.47977E-13
 -1      1440 1.99915E+01-4.22363E-05 1.00983E-05 1.76967E-03 2.60740E-13-7.04237E-14
 -1      1441 1.99937E+01-1.05482E-04 2.13464E-05 1.72861E-03 9.79425E-14 1.68190E-13
 -1      1442 1.99924E+01-8.74240E-05 3.48893E-06 3.44199E-03 3.01754E-13-6.48169E-14
 -1      1443 1.99950E+01-1.26394E-04 1.53824E-05 1.47658E-03-5.92590E-14 2.40899E-13
 -1      1444 1.99968E+01-1.91228E-04 2.46750E-05 1.38825E-03 7.89295E-14 2.46943E-13
 -1      1445 1.99950E+01-2.20313E-04 2.60591E-05 3.05953E-03 1.12370E-13-8.18831E-15
 -1      1446 1.99978E+01-2.40420E-04 2.65244E-05 9.31795E-04 2.21588E-14 3.00051E-13
 -1      1447 1.99989E+01-2.68416E-04 2.13623E-05 7.97354E-04-3.65466E-15 2.32140E-13
 -1      1448 1.99974E+01-4.06564E-04 4.57860E-05 2.24005E-03 6.80509E-14 1.63567E-13
 -1      1449 1.99997E+01-1.65778E-04 3.60796E-05 6.36174E-05-2.46714E-13 2.45730E-13
 -1      1450 1.99992E+01-5.68232E-04 3.79713E-05 8.18392E-04-1.35600E-13 1.27894E-13
 -1      1451 2.08016E+01 7.43583E-02-1.45934E-01 3.68847E-01 1.88304E-13 1.95327E-12
 -1      1452 2.18953E+01 2.17601E-01-2.27015E-01 5.99120E-01 1.61940E-13 2.22997E-12
 -1      1453 2.21286E+01 8.53348E-01-9.01055E-02 1.83492E+00 3.02897E-13 1.52076E-12
 -1      1454 2.01707E+01 3.60103E-02-1.93293E-02 6.72503E-02 1.36665E-13 1.58766E-12
 -1      1455 2.04267E+01 1.18355E-01-5.86308E-02 1.21720E-01 1.32290E-13 1.78875E-12
 -1      1456 2.09492E+01 1.83867E-01-5.68734E-02 5.63510E-01 2.84099E-13 1.23392E-12
 -1      1457 2.01309E+01 2.21286E-02 4.92833E-03-8.68303E-02 1.05095E-13 1.30140E-12
 -1      1458 2.00848E+01 6.19965E-02 3.10128E-03-5.33477E-02 1.00864E-13 1.45966E-12
 -1      1459 2.04878E+01 7.96833E-02-1.52920E-02 5.15625E-02 2.24397E-13 9.85507E-13
 -1      1460 2.04402E+01 1.68941E-02 4.68747E-03-1.84918E-01 1.02231E-13 1.06621E-12
 -1      1461 2.02276E+01 4.15027E-02 1.19912E-02-1.59388E-01 9.47077E-14 1.21133E-12
 -1      1462 2.04914E+01 4.68320E-02-7.31214E-03-2.17210E-01 1.79796E-13 7.95666E-13
 -1      1463 2.09927E+01 1.50054E-02 1.45028E-03-2.61956E-01 4.98919E-14 9.04214E-13
 -1      1464 2.06615E+01 3.40931E-02 8.83587E-03-2.39082E-01 4.55109E-14 1.00132E-12
 -1      1465 2.07916E+01 3.50691E-02-8.09654E-03-3.98826E-01 1.38762E-13 6.84157E-13
 -1      1466 2.17408E+01 1.35613E-02-7.46264E-04-3.29407E-01 1.65597E-14 8.31456E-13
 -1      1467 2.13101E+01 3.08730E-02 5.22887E-03-3.07223E-01 2.87431E-14 8.63601E-13
 -1      1468 2.13064E+01 3.02774E-02-9.63422E-03-5.44316E-01 5.64249E-14 5.99686E-13
 -1      1469 2.26517E+01 1.03179E-02-1.47464E-03-3.86779E-01 4.34013E-14 7.75133E-13
 -1      1470 2.21350E+01 2.72205E-02 2.78200E-03-3.65761E-01 1.60206E-14 8.10810E-13
 -1      1471 2.19898E+01 2.58230E-02-1.03728E-02-6.67830E-01 3.81166E-14 5.07372E-13
 -1      1472 2.36783E+01 2.48518E-03 9.64924E-05-4.22500E-01 3.16955E-14 7.18405E-13
 -1      1473 2.30997E+01 1.85029E-02 1.33481E-03-4.06165E-01 3.73331E-14 7.75695E-13
 -1      1474 2.28028E+01 1.60466E-02-9.41645E-03-7.61013E-01 6.44727E-14 4.90819E-13
 -1      1475 2.47276E+01-1.33972E-02 5.89686E-03-4.11216E-01 2.60213E-14 6.41834E-13
 -1      1476 2.41407E+01-1.15701E-03 1.29866E-03-4.07541E-01 2.86748E-14 6.88005E-13
 -1      1477 2.36896E+01-6.12871E-03-5.04868E-03-7.92578E-01 6.70362E-14 4.66733E-13
 -1      1478 2.56286E+01-3.99181E-02 1.81381E-02-3.12860E-01 1.72258E-14 6.08284E-13
 -1      1479 2.51363E+01-3.78817E-02 3.94185E-03-3.35214E-01 1.01082E-14 6.20278E-13
 -1      1480 2.45538E+01-4.87378E-02 5.14823E-03-7.05305E-01 3.73972E-14 3.93005E-13
 -1      1481 2.61129E+01-7.40734E-02 3.61496E-02-8.29983E-02-4.88732E-14 6.41507E-13
 -1      1482 2.58795E+01-9.27646E-02 1.04970E-02-1.47505E-01-3.64743E-14 6.03651E-13
 -1      1483 2.52393E+01-1.15564E-01 2.24878E-02-4.23263E-01-3.59504E-14 4.28929E-13
 -1      1484 2.58543E+01-9.93225E-02 5.07487E-02 2.90572E-01 9.24608E-15 6.93522E-13
 -1      1485 2.60798E+01-1.50672E-01 1.94285E-02 1.76762E-01 2.92301E-15 6.82839E-13
 -1      1486 2.55295E+01-1.92527E-01 4.31805E-02 1.09748E-01-4.89747E-14 4.48136E-13
 -1      1487 2.46289E+01-8.31519E-02 4.15124E-02 7.21372E-01-1.58137E-14 8.20621E-13
 -1      1488 2.54450E+01-1.69883E-01 2.28823E-02 5.82536E-01-3.90139E-14 7.26794E-13
 -1      1489 2.52020E+01-2.30671E-01 5.38739E-02 8.40599E-01-2.57745E-14 6.13124E-13
 -1      1490 2.26028E+01-4.17788E-04-9.47663E-03 9.79723E-01 8.05107E-14 6.84480E-13
 -1      1491 2.38913E+01-9.76668E-02 7.80431E-03 8.86961E-01 5.52796E-14 7.96183E-13
 -1      1492 2.41775E+01-1.50172E-01 3.68834E-02 1.50005E+00 2.89699E-14 6.17201E-13
 -1      1493 2.05442E+01 1.17995E-01-8.71447E-02 7.96636E-01 5.38007E-14 5.48395E-13
 -1      1494 2.18164E+01 6.86665E-02-3.06095E-02 8.33319E-01 9.69433E-14 6.34062E-13
 -1      1495 2.27305E+01 8.26910E-02-1.26439E-02 1.63018E+00 1.38865E-13 5.91222E-13
 -1      1496 1.95634E+01 1.80369E-01-1.30224E-01 1.42459E-01 1.35447E-14 4.00327E-13
 -1      1497 2.01431E+01 2.30529E-01-6.97374E-02 3.18067E-01-1.59942E-15 3.96010E-13
 -1      1498 2.15474E+01 3.57732E-01-6.38789E-02 9.20178E-01 9.38208E-14 3.74038E-13
 -1      1499 2.03003E+01 1.26116E-01-9.34183E-02-6.15574E-01 8.17714E-14 1.63619E-13
 -1      1500 1.98210E+01 2.56473E-01-7.23770E-02-4.06679E-01 4.82808E-14 2.79152E-13
 -1      1501 2.13467E+01 4.47114E-01-7.74861E-02-3.58492E-01 1.23415E-13-2.23051E-14
 -1      1502 2.23259E+01 8.59695E-03-5.16557E-03-1.00492E+00 6.07804E-15-6.58779E-14
 -1      1503 2.10651E+01 1.31912E-01-3.11487E-02-8.89823E-01 1.00345E-13 9.55347E-14
 -1      1504 2.22732E+01 2.52987E-01-4.95853E-02-1.43066E+00 1.63931E-13-9.89070E-14
 -1      1505 2.45384E+01-7.67480E-02 6.30492E-02-8.90679E-01-1.01915E-14-2.01089E-14
 -1      1506 2.31651E+01-2.67980E-02 2.05107E-02-9.02153E-01-7.48377E-14-9.44106E-14
 -1      1507 2.37668E+01-5.01887E-02-9.57111E-03-1.71393E+00-3.59929E-14-1.78815E-13
 -1      1508 2.60464E+01-9.67346E-02 7.54870E-02-4.92619E-01 3.28730E-14-5.82034E-14
 -1      1509 2.50984E+01-1.16051E-01 4.51841E-02-5.76164E-01 2.22548E-14-2.48690E-14
 -1      1510 2.50722E+01-2.38550E-01 1.35737E-02-1.26925E+00-8.36137E-15-2.60392E-13
 -1      1511 2.65751E+01-7.33423E-02 5.35183E-02-7.97136E-02 7.14654E-14-1.50593E-13
 -1      1512 2.62200E+01-1.24563E-01 3.90580E-02-1.70641E-01 2.60486E-14-8.34263E-14
 -1      1513 2.57548E+01-2.58654E-01 1.78501E-02-5.36454E-01 5.87586E-14-3.66582E-13
 -1      1514 2.63047E+01-3.95145E-02 2.49047E-02 2.04408E-01 1.79015E-14-2.11295E-13
 -1      1515 2.64326E+01-8.92032E-02 2.13549E-02 1.39646E-01 2.96863E-14-1.25323E-13
 -1      1516 2.57749E+01-1.81191E-01 1.39449E-02 1.06460E-01 5.47305E-14-2.55987E-13
 -1      1517 2.55650E+01-1.29856E-02 4.28779E-03 3.43391E-01 4.99891E-14-2.73535E-13
 -1      1518 2.59739E+01-4.70692E-02 5.75749E-03 3.09247E-01 3.47933E-14-2.46242E-13
 -1      1519 2.53138E+01-8.90722E-02 8.44101E-03 5.06411E-01 8.21062E-14-4.80033E-13
 -1      1520 2.46416E+01 2.66334E-03-6.18321E-03 3.77680E-01-4.81628E-14-1.03698E-13
 -1      1521 2.51578E+01-1.53215E-02-3.08099E-03 3.65991E-01-4.84400E-14-2.48752E-13
 -1      1522 2.45967E+01-2.19186E-02 4.12025E-03 6.77822E-01-3.70337E-14-3.97500E-13
 -1      1523 2.37185E+01 9.87823E-03-9.60479E-03 3.53312E-01-5.85876E-14 1.98210E-14
 -1      1524 2.42321E+01 3.49138E-03-6.17622E-03 3.54588E-01 1.10955E-14 3.80737E-14
 -1      1525 2.38015E+01 1.54662E-02 1.47312E-03 6.95510E-01-1.08190E-13-1.62381E-13
 -1      1526 2.28905E+01 1.20149E-02-9.41496E-03 3.03559E-01 5.67972E-14-1.52829E-14
 -1      1527 2.33470E+01 1.24600E-02-6.07174E-03 3.10898E-01-7.01284E-15 1.15186E-14
 -1      1528 2.30394E+01 3.12671E-02 8.21049E-05 6.31311E-01-1.41185E-14 5.78183E-15
 -1      1529 2.21933E+01 1.15857E-02-7.86215E-03 2.47798E-01 3.00181E-14-1.11291E-13
 -1      1530 2.25736E+01 1.53878E-02-4.75492E-03 2.57119E-01 1.02218E-13-3.76713E-14
 -1      1531 2.23664E+01 3.46436E-02-5.64921E-04 5.34517E-01 1.00933E-13 6.81313E-16
 -1      1532 2.16298E+01 1.00962E-02-6.07413E-03 1.95570E-01-5.62024E-14 2.41968E-14
 -1      1533 2.19339E+01 1.51326E-02-3.28902E-03 2.04786E-01-1.11929E-13-1.13924E-13
 -1      1534 2.18022E+01 3.20560E-02-8.23512E-04 4.33111E-01-1.06241E-13 2.01194E-13
 -1      1535 2.11872E+01 8.33136E-03-4.49570E-03 1.50642E-01 4.88112E-14 1.12573E-13
 -1      1536 2.14235E+01 1.34584E-02-2.08308E-03 1.58847E-01 2.98724E-14 1.20575E-13
 -1      1537 2.13455E+01 2.72342E-02-8.90668E-04 3.40522E-01-8.06759E-14 1.51926E-13
 -1      1538 2.08470E+01 6.65119E-03-3.24085E-03 1.13808E-01 4.31166E-15-1.48498E-13
 -1      1539 2.10268E+01 1.13290E-02-1.21443E-03 1.20716E-01 8.56719E-14-2.82708E-14
 -1      1540 2.09855E+01 2.20537E-02-8.64537E-04 2.61752E-01 1.39763E-13 6.71913E-14
 -1      1541 2.05903E+01 5.19273E-03-2.29215E-03 8.45091E-02-1.43699E-13 4.87121E-14
 -1      1542 2.07246E+01 9.21776E-03-6.34652E-04 9.01333E-02-9.96028E-14-1.65843E-13
 -1      1543 2.07073E+01 1.73295E-02-7.93290E-04 1.97486E-01-7.44673E-14 9.34444E-14
 -1      1544 2.03998E+01 3.98644E-03-1.59362E-03 6.16912E-02-4.36053E-14 4.06405E-13
 -1      1545 2.04984E+01 7.32754E-03-2.67873E-04 6.61672E-02-1.31422E-13 1.10352E-13
 -1      1546 2.04963E+01 1.33353E-02-7.01967E-04 1.46473E-01-2.20090E-13 1.92907E-13
 -1      1547 2.02610E+01 3.01707E-03-1.08734E-03 4.42103E-02 6.01442E-14 3.57212E-13
 -1      1548 2.03321E+01 5.72335E-03-4.69761E-05 4.77125E-02 2.83220E-14 4.21375E-13
 -1      1549 2.03389E+01 1.00952E-02-6.04703E-04 1.06777E-01-6.41913E-14 2.00378E-13
 -1      1550 2.01616E+01 2.25293E-03-7.24635E-04 3.10079E-02-1.49240E-16 1.49716E-13
 -1      1551 2.02119E+01 4.40510E-03 7.81248E-05 3.37097E-02 7.74143E-14 3.33997E-13
 -1      1552 2.02234E+01 7.53306E-03-5.09822E-04 7.63772E-02 8.47779E-14 2.15923E-13
 -1      1553 2.00922E+01 1.65920E-03-4.67577E-04 2.11726E-02 2.11939E-13-2.75057E-13
 -1      1554 2.01268E+01 3.34506E-03 1.42157E-04 2.32301E-02 1.28472E-13 4.88878E-15
 -1      1555 2.01404E+01 5.54233E-03-4.22073E-04 5.34252E-02 2.86146E-13 3.27324E-14
 -1      1556 2.00449E+01 1.20348E-03-2.87627E-04 1.39495E-02 7.05679E-14-4.46887E-13
 -1      1557 2.00681E+01 2.50638E-03 1.68333E-04 1.54964E-02 7.35366E-14-3.88361E-13
 -1      1558 2.00819E+01 4.01647E-03-3.43893E-04 3.63355E-02 1.64734E-13-2.14200E-13
 -1      1559 2.00140E+01 8.57828E-04-1.63668E-04 8.72796E-03-7.06206E-14-2.85381E-13
 -1      1560 2.00288E+01 1.85184E-03 1.71835E-04 9.87559E-03-9.18413E-14-4.37133E-13
 -1      1561 2.00419E+01 2.86086E-03-2.76240E-04 2.37956E-02-8.49179E-14-1.63488E-13
 -1      1562 1.99949E+01 5.98935E-04-8.01878E-05 5.02148E-03 9.92400E-14-4.95476E-13
 -1      1563 2.00037E+01 1.34754E-03 1.62422E-04 5.86078E-03 4.89512E-14-3.47032E-13
 -1      1564 2.00155E+01 1.99614E-03-2.19133E-04 1.47420E-02 6.47729E-14-4.67399E-13
 -1      1565 1.99841E+01 4.07695E-04-2.57777E-05 2.44699E-03 7.79279E-14-4.63911E-13
 -1      1566 1.99888E+01 9.64065E-04 1.46274E-04 3.05132E-03 6.90768E-15-4.59508E-13
 -1      1567 1.99989E+01 1.35755E-03-1.71994E-04 8.32670E-03 1.14267E-13-4.19514E-13
 -1      1568 1.99792E+01 2.68517E-04 7.98767E-06 7.06436E-04-2.13367E-13-3.26876E-13
 -1      1569 1.99809E+01 6.76422E-04 1.27238E-04 1.13420E-03-1.60281E-14-3.89602E-13
 -1      1570 1.99895E+01 8.92902E-04-1.33879E-04 3.88147E-03-4.17259E-14-1.61811E-13
 -1      1571 1.99781E+01 1.68647E-04 2.73710E-05-4.28693E-04 8.64606E-14-9.25126E-14
 -1      1572 1.99780E+01 4.63549E-04 1.07640E-04-1.31727E-04-7.49213E-14-2.46678E-13
 -1      1573 1.99849E+01 5.60282E-04-1.03621E-04 8.87051E-04-6.16339E-14-1.09696E-13
 -1      1574 1.99795E+01 9.75265E-05 3.70765E-05-1.12983E-03-2.61177E-15-4.55670E-13
 -1      1575 1.99782E+01 3.07625E-04 8.88132E-05-9.28666E-04 1.29699E-13-1.20742E-13
 -1      1576 1.99837E+01 3.25909E-04-7.99041E-05-1.05316E-03 1.31391E-13-5.41701E-14
 -1      1577 1.99825E+01 4.64350E-05 4.08307E-05-1.52116E-03 1.60444E-13-4.34656E-13
 -1      1578 1.99805E+01 1.93477E-04 7.14670E-05-1.39003E-03 5.44366E-14-4.26416E-13
 -1      1579 1.99846E+01 1.62384E-04-6.12593E-05-2.23421E-03 8.17928E-14-1.15086E-13
 -1      1580 1.99863E+01 7.24117E-06 4.21605E-05-1.68680E-03 5.07711E-14-5.86266E-13
 -1      1581 1.99840E+01 1.07476E-04 5.61117E-05-1.60838E-03 2.69301E-14-5.23564E-13
 -1      1582 1.99869E+01 4.65230E-05-4.61298E-05-2.86646E-03 1.66293E-13-3.14010E-13
 -1      1583 1.99904E+01-2.83696E-05 4.61069E-05-1.67244E-03 7.79934E-14-5.58713E-13
 -1      1584 1.99880E+01 3.54538E-05 4.41461E-05-1.63891E-03 1.40172E-13-3.75758E-13
 -1      1585 1.99898E+01-4.20197E-05-3.11736E-05-3.08516E-03 9.18045E-14-2.10298E-13
 -1      1586 1.99942E+01-6.73136E-05 5.74321E-05-1.48691E-03-1.88236E-13-5.91753E-13
 -1      1587 1.99920E+01-3.63984E-05 3.80581E-05-1.49956E-03-5.85036E-14-5.76714E-13
 -1      1588 1.99929E+01-1.26121E-04-1.25528E-05-2.95369E-03-8.25873E-14 1.69069E-13
 -1      1589 1.99973E+01-1.21106E-04 7.13834E-05-1.10109E-03-1.49568E-13-3.38906E-13
 -1      1590 1.99956E+01-1.25159E-04 3.91621E-05-1.17791E-03-1.65455E-13-5.65814E-13
 -1      1591 1.99958E+01-2.26857E-04 1.33763E-05-2.47238E-03-2.19997E-13 2.78299E-13
 -1      1592 1.99992E+01-1.95083E-04 2.99587E-05-5.01207E-04 1.66744E-14-1.21296E-13
 -1      1593 1.99983E+01-2.26992E-04 3.77353E-05-6.41535E-04-3.99757E-14-3.97810E-13
 -1      1594 1.99981E+01-3.74265E-04 3.74532E-05-1.59132E-03 7.74159E-15 7.12957E-14
 -1      1595 1.99997E+01-1.90475E-04 2.44984E-05-9.17053E-05-7.18047E-14-5.46750E-14
 -1      1596 1.99996E+01-1.99790E-03 3.10867E-05-9.50334E-04 4.17150E-14-1.96096E-13
 -1      1597 1.99995E+01-1.00849E-03 7.63425E-06-7.90013E-04 1.22129E-13 1.90944E-13
 -1      1598 1.99997E+01-4.61671E-03 6.03339E-06-1.36639E-03 2.40954E-13 1.26541E-13
 -1      1599 1.99997E+01-3.02333E-03 1.87737E-05-1.31111E-03 2.24140E-13-1.13200E-14
 -1      1600 1.99994E+01-2.51798E-03 3.22122E-05-2.16456E-03 2.31825E-13 2.97172E-14
 -1      1601 1.99998E+01-7.58948E-03-8.28565E-06-1.46954E-03-1.19086E-13-1.42054E-13
 -1      1602 1.99998E+01-5.81216E-03 5.12770E-06-1.47454E-03 1.59295E-13-1.81018E-13
 -1      1603 1.99997E+01-4.70597E-03 1.01345E-05-2.71654E-03 2.08456E-13-1.27639E-13
 -1      1604 1.99999E+01-1.04435E-02-1.22681E-05-1.34413E-03 3.51691E-14 2.58876E-13
 -1      1605 1.99999E+01-8.78421E-03-2.66405E-06-1.38691E-03-2.37428E-13 3.37205E-13
 -1      1606 1.99999E+01-7.05197E-03-1.25757E-05-2.73666E-03-2.19894E-14 2.05401E-15
 -1      1607 1.99999E+01-1.28022E-02-1.10745E-05-1.07947E-03 1.47290E-13 1.20280E-13
 -1      1608 1.99999E+01-1.14690E-02-3.76219E-06-1.14114E-03 1.12238E-13 8.78190E-14
 -1      1609 2.00000E+01-9.22470E-03-2.81051E-05-2.38554E-03-1.49709E-13 2.07815E-13
 -1      1610 1.99999E+01-1.45407E-02-8.05429E-06-7.30592E-04 5.42713E-13 2.34841E-13
 -1      1611 1.99999E+01-1.36008E-02-3.56113E-06-8.03594E-04 3.03833E-13 2.39354E-13
 -1      1612 2.00000E+01-1.10027E-02-3.52926E-05-1.81017E-03 1.33965E-13 3.10039E-13
 -1      1613 1.99999E+01-1.54995E-02-5.07232E-06-3.43781E-04 3.28471E-13-2.39257E-13
 -1      1614 1.99999E+01-1.50301E-02-2.81214E-06-4.20446E-04 5.94941E-13 1.53444E-14
 -1      1615 2.00000E+01-1.22528E-02-3.87165E-05-1.10783E-03 7.61436E-14 1.26266E-13
 -1      1616 1.99999E+01-1.56353E-02-3.16948E-06 5.52527E-05 3.49742E-13-2.70974E-14
 -1      1617 1.99999E+01-1.56549E-02-3.22219E-06-2.18318E-05 4.02975E-13-9.82320E-14
 -1      1618 2.00001E+01-1.28780E-02-3.96286E-05-3.52070E-04 2.44621E-13-1.74879E-13
 -1      1619 1.99999E+01-1.49459E-02-2.52806E-06 4.49894E-04 1.68989E-13 3.88475E-14
 -1      1620 1.99999E+01-1.54509E-02-4.98004E-06 3.74587E-04 1.80730E-13 1.27314E-14
 -1      1621 2.00000E+01-1.28490E-02-3.92518E-05 4.14065E-04 2.45954E-13-1.44657E-13
 -1      1622 1.99999E+01-1.34685E-02-2.96708E-06 8.23427E-04-2.97466E-13-4.46824E-13
 -1      1623 1.99999E+01-1.44330E-02-8.02051E-06 7.52924E-04 1.70178E-13-4.29850E-13
 -1      1624 2.00000E+01-1.21712E-02-3.75771E-05 1.15800E-03-5.62115E-14-3.24830E-13
 -1      1625 1.99999E+01-1.13320E-02-3.83906E-06 1.14471E-03-5.58645E-13-1.89248E-13
 -1      1626 1.99999E+01-1.26735E-02-1.09938E-05 1.08618E-03-2.06138E-13-3.06753E-13
 -1      1627 2.00000E+01-1.08971E-02-3.38911E-05 1.83466E-03-9.69540E-14-5.87398E-13
 -1      1628 1.99998E+01-8.63010E-03-2.40966E-06 1.38078E-03-6.16221E-13 1.59841E-14
 -1      1629 1.99999E+01-1.02853E-02-1.23226E-05 1.34063E-03-5.79601E-13 3.02206E-14
 -1      1630 2.00000E+01-9.10444E-03-2.60696E-05 2.38615E-03-1.52702E-13-1.15714E-13
 -1      1631 1.99998E+01-5.68972E-03 3.57025E-06 1.46305E-03-5.04632E-13 4.02604E-14
 -1      1632 1.99998E+01-7.44511E-03-8.37549E-06 1.45547E-03-6.95351E-13 7.40856E-14
 -1      1633 1.99999E+01-6.92182E-03-1.14265E-05 2.71689E-03-2.44781E-13-1.43448E-14
 -1      1634 1.99997E+01-2.98916E-03 2.42471E-06 1.28374E-03-3.72175E-13-8.34354E-15
 -1      1635 1.99997E+01-4.51691E-03 3.61831E-06 1.33778E-03-5.24294E-13 1.21916E-13
 -1      1636 1.99997E+01-4.59263E-03 9.33247E-06 2.67953E-03-3.18124E-13 3.60427E-14
 -1      1637 1.99994E+01-1.21192E-03-1.62428E-05 1.08734E-03-3.56480E-13 5.41342E-16
 -1      1638 1.99995E+01-2.17533E-03 2.32155E-06 1.32051E-03-2.39581E-13-1.42424E-13
 -1      1639 1.99994E+01-2.58210E-03 5.15612E-05 2.45240E-03-2.67487E-13 8.60689E-14
 -1      1640 1.99987E+01-1.16919E-03 1.61618E-05 2.06495E-03 1.78128E-14 6.17340E-15
 -1      1641-6.65913E-01-1.45945E+01-1.60001E+00-1.12801E+00 1.37379E-12 6.45178E-13
 -1      1642-6.13451E-01-1.64037E+01-1.75666E+00 1.69769E-01 6.83328E-13 4.64961E-13
 -1      1643 1.51675E+00-8.39966E+00-1.17277E+00 5.13229E-01 1.88738E-12 9.25704E-13
 -1      1644 7.58178E-01-1.33045E+01-1.60491E+00-2.41644E-02 1.57918E-12 6.26013E-13
 -1      1645 6.51394E+00-9.79378E-01-6.63653E-01 4.05968E+00 2.21045E-12 1.76170E-12
 -1      1646 3.60188E+00-6.49927E+00-1.37465E+00 1.29979E+00 2.15272E-12 1.27071E-12
 -1      1647 1.73347E+01 4.13770E+00 1.21851E-01 9.17796E+00 1.96076E-12 2.17437E-12
 -1      1648 1.09307E+01 5.92769E-01-7.66388E-01 5.48502E+00 2.07900E-12 1.85274E-12
 -1      1649 3.20730E+01 6.14611E+00 9.56543E-01 1.24406E+01 1.51146E-12 1.96443E-12
 -1      1650 2.23703E+01 5.64860E+00 3.51763E-02 1.01898E+01 1.88727E-12 2.12830E-12
 -1      1651 4.61682E+01 4.69480E+00 1.46774E+00 9.81673E+00 9.23484E-13 9.53015E-13
 -1      1652 3.73539E+01 6.15440E+00 8.33349E-01 1.13119E+01 1.28431E-12 1.56986E-12
 -1      1653 5.43968E+01 3.87186E+00 1.79757E+00 2.75049E+00 5.28466E-13-9.08718E-14
 -1      1654 4.92369E+01 5.06639E+00 1.41709E+00 7.66798E+00 8.04967E-13 6.67799E-13
 -1      1655 5.54342E+01 3.99701E+00 1.93150E+00-4.99516E+00 6.03212E-13-1.16518E-12
 -1      1656 5.68466E+01 3.51694E+00 1.98149E+00 6.94264E-01 3.97016E-13-4.39052E-13
 -1      1657 4.55341E+01 5.76871E+00 1.31392E+00-1.05657E+01 1.04447E-12-1.97009E-12
 -1      1658 5.29452E+01 4.15842E+00 1.91820E+00-7.04871E+00 7.75241E-13-1.41520E-12
 -1      1659 3.06758E+01 5.85246E+00 4.44392E-01-1.06956E+01 1.33382E-12-2.00839E-12
 -1      1660 4.06613E+01 5.14704E+00 1.25661E+00-1.10050E+01 1.03262E-12-2.03237E-12
 -1      1661 1.66422E+01 4.06448E+00-3.42852E-01-8.35656E+00 1.67588E-12-1.86962E-12
 -1      1662 2.47142E+01 5.83544E+00 5.34267E-01-1.14790E+01 1.56519E-12-2.10520E-12
 -1      1663 7.47867E+00-2.69329E+00-1.03891E+00-3.56472E+00 1.45883E-12-1.25888E-12
 -1      1664 1.25179E+01 2.04297E+00-1.95409E-01-7.19574E+00 1.58806E-12-1.69575E-12
 -1      1665 1.79128E+00-1.00319E+01-1.60125E+00-1.56623E-01 9.94094E-13-7.11209E-13
 -1      1666 3.44263E+00-4.43949E+00-9.77951E-01-1.94066E+00 1.40288E-12-1.07220E-12
 -1      1667 2.42702E-02-1.51368E+01-1.69510E+00 9.76132E-02-2.05391E-15-4.47392E-13
 -1      1668 2.59339E-01-1.14381E+01-1.40230E+00 5.15128E-01 7.19647E-13-6.83051E-13
 -1      1669-6.54435E-01-1.56446E+01-1.61395E+00-5.05595E-01-9.71334E-13-4.84168E-13
 -1      1670-6.97495E-01-1.53354E+01-1.58440E+00 9.05383E-01-2.32231E-13-4.34042E-13
 -1      1671-2.37448E-01-1.25324E+01-1.53074E+00-7.68001E-01-1.79334E-12-7.74956E-13
 -1      1672-3.01227E-01-1.61188E+01-1.83486E+00 7.66029E-02-1.28153E-12-4.81698E-13
 -1      1673 3.70706E+00-4.76534E+00-8.52988E-01 2.47638E+00-2.00484E-12-1.19488E-12
 -1      1674 2.02424E+00-1.04851E+01-1.48026E+00 7.92646E-01-1.77536E-12-8.60118E-13
 -1      1675 1.13794E+01 2.05955E+00-1.84841E-01 7.02249E+00-1.92935E-12-1.56486E-12
 -1      1676 6.88988E+00-2.70200E+00-9.74769E-01 3.60006E+00-2.04037E-12-1.32150E-12
 -1      1677 2.53089E+01 5.41910E+00 6.18506E-01 1.12075E+01-1.38500E-12-1.46461E-12
 -1      1678 1.67625E+01 3.34451E+00-2.55224E-01 7.90203E+00-1.75970E-12-1.48859E-12
 -1      1679 3.96032E+01 6.07820E+00 1.33680E+00 1.23527E+01-8.46989E-13-1.33427E-12
 -1      1680 3.02887E+01 7.11738E+00 6.02712E-01 1.21822E+01-1.30052E-12-1.56719E-12
 -1      1681 5.04247E+01 4.20704E+00 1.62160E+00 7.12619E+00-5.96967E-13-3.61933E-13
 -1      1682 4.36922E+01 5.87181E+00 1.20544E+00 1.05687E+01-7.29805E-13-9.80216E-13
 -1      1683 5.40903E+01 3.69672E+00 1.68401E+00-1.03253E+00-5.43399E-13 8.42604E-13
 -1      1684 5.25652E+01 4.15369E+00 1.59174E+00 4.74808E+00-5.79981E-13-2.16493E-14
 -1      1685 4.83641E+01 5.01118E+00 1.33579E+00-8.23924E+00-9.04582E-13 1.78557E-12
 -1      1686 5.32081E+01 3.75951E+00 1.69054E+00-3.47191E+00-6.17451E-13 1.12643E-12
 -1      1687 3.59891E+01 6.31237E+00 7.40485E-01-1.10480E+01-1.53216E-12 2.26730E-12
 -1      1688 4.46396E+01 4.88844E+00 1.35116E+00-9.55740E+00-1.08173E-12 1.85818E-12
 -1      1689 2.24383E+01 6.01362E+00 1.08139E-01-1.04308E+01-2.02327E-12 2.50178E-12
 -1      1690 3.11185E+01 6.26179E+00 8.65349E-01-1.23238E+01-1.73817E-12 2.55418E-12
 -1      1691 1.10149E+01 1.51303E+00-6.36085E-01-6.01119E+00-2.03726E-12 1.94855E-12
 -1      1692 1.74801E+01 4.88296E+00 2.14572E-01-9.69409E+00-2.11031E-12 2.40852E-12
 -1      1693 3.77883E+00-5.65597E+00-1.27871E+00-1.75930E+00-1.62514E-12 1.21214E-12
 -1      1694 6.75223E+00-1.90869E-01-5.37224E-01-4.58920E+00-2.00218E-12 1.77336E-12
 -1      1695 7.13610E-01-1.29478E+01-1.67089E+00-4.57022E-02-6.46039E-13 6.48967E-13
 -1      1696 1.49745E+00-7.80850E+00-1.16296E+00-6.79826E-01-1.33704E-12 1.04100E-12
 -1      1697-5.70598E-01-1.66521E+01-1.81501E+00-5.27676E-01 4.61714E-13 4.62907E-13
 -1      1698-5.48255E-01-1.43607E+01-1.61877E+00 7.68095E-01-3.87579E-13 5.91277E-13
 -1      1699 2.45751E+01 2.95167E-01 1.82557E-01 7.12047E+00 1.25433E-12 1.26632E-12
 -1      1700 1.41037E+01-3.68583E+00-4.20470E-01 6.07358E+00 1.40421E-12 1.38728E-12
 -1      1701 1.99995E+01-4.38789E-04 4.87484E-05-5.08654E-04-8.51186E-14 2.11082E-13
 -1      1702 1.99991E+01-1.00533E-03 2.65355E-05-1.36155E-03 7.89766E-14 3.28901E-13
 -1      1703 6.94723E-01-9.83657E+00-1.05331E+00 2.34897E+00 6.90503E-13 8.05078E-13
 -1      1704 5.81127E+00-7.57287E+00-9.04570E-01 4.28666E+00 1.14275E-12 9.39700E-13
 -1      1705-1.30965E+00-1.11272E+01-1.25383E+00-2.74512E-01 2.97332E-13 9.24483E-13
 -1      1706 3.54705E+01 3.81173E+00 8.97606E-01 6.36584E+00 1.24956E-12 7.89924E-13
 -1      1707 4.28830E+01 6.28276E+00 1.24118E+00 3.32248E+00 1.10698E-12 2.96874E-13
 -1      1708 4.71664E+01 7.47720E+00 1.46191E+00 3.54580E-01 9.16045E-13-1.12133E-13
 -1      1709 4.72892E+01 7.01454E+00 1.57984E+00-2.65926E+00 9.63507E-13-6.78901E-13
 -1      1710 4.01531E+01 4.83779E+00 9.65656E-01-4.50170E+00 8.39127E-13-9.32587E-13
 -1      1711 3.09966E+01 2.09387E+00 6.04968E-01-6.63751E+00 8.32556E-13-1.21481E-12
 -1      1712 1.99506E+01-1.60805E+00-8.37251E-02-6.86490E+00 7.68163E-13-1.18239E-12
 -1      1713 1.03320E+01-5.61851E+00-6.21556E-01-5.51336E+00 6.09179E-13-9.94094E-13
 -1      1714 2.99693E+00-9.03692E+00-1.08691E+00-3.36708E+00 2.35256E-13-8.76604E-13
 -1      1715-5.17537E-01-1.02046E+01-1.11597E+00-1.32432E+00-1.88377E-13-8.59146E-13
 -1      1716-9.35328E-01-1.06842E+01-1.18214E+00 1.06970E+00-5.56666E-13-7.79043E-13
 -1      1717 2.66132E+00-9.04384E+00-9.89638E-01 3.68830E+00-8.73857E-13-7.83235E-13
 -1      1718 9.84867E+00-5.59849E+00-5.47815E-01 5.87350E+00-9.98090E-13-8.03441E-13
 -1      1719 1.98040E+01-1.77364E+00 1.83364E-03 7.01390E+00-1.01563E-12-6.90337E-13
 -1      1720 2.99444E+01 2.22281E+00 4.43780E-01 6.95657E+00-9.80882E-13-7.00329E-13
 -1      1721 3.94042E+01 5.68410E+00 1.11346E+00 5.95062E+00-8.69679E-13-4.68403E-13
 -1      1722 4.46966E+01 7.31849E+00 1.36150E+00 2.52691E+00-9.26259E-13 1.20903E-13
 -1      1723 4.59604E+01 7.51409E+00 1.41428E+00-8.98894E-01-9.86100E-13 6.88408E-13
 -1      1724 4.15632E+01 6.41965E+00 1.12978E+00-3.64161E+00-1.07070E-12 1.02013E-12
 -1      1725 3.43067E+01 4.02924E+00 8.04745E-01-6.25227E+00-1.18758E-12 1.29452E-12
 -1      1726 2.43331E+01 1.02261E+00 2.84867E-01-7.47764E+00-1.21714E-12 1.62792E-12
 -1      1727 1.41343E+01-2.83024E+00-3.06133E-01-6.53949E+00-1.13642E-12 1.51762E-12
 -1      1728 5.87078E+00-7.00250E+00-8.41816E-01-4.60311E+00-7.49290E-13 1.19044E-12
 -1      1729 6.60456E-01-1.00918E+01-1.15676E+00-2.61364E+00-1.84186E-13 1.04072E-12
 -1      1730 2.31215E+01 1.95801E+00-2.64115E-02-2.52554E+00-2.92256E-13 9.11882E-13
 -1      1731 2.00534E+01 3.74778E+00-3.68092E-02-1.76318E+00-3.16882E-13-4.49588E-13
 -1      1732 2.03581E+01 3.58400E+00-3.71967E-02-2.06405E+00-3.79660E-13-3.53204E-13
 -1      1733 2.07166E+01 3.17424E+00-4.61958E-02-2.23173E+00-3.92663E-13-2.25327E-13
 -1      1734 2.09776E+01 2.78907E+00-1.36003E-01-2.52193E+00-4.34468E-13-3.91354E-14
 -1      1735 2.07703E+01 2.70547E+00-2.79259E-03-1.83901E+00-4.10252E-13-2.60163E-13
 -1      1736 1.92349E+01 4.31192E+00-2.09024E-02-9.15830E-01-1.27484E-13-5.92769E-13
 -1      1737 1.93988E+01 4.26437E+00-1.39035E-02-1.11913E+00-1.74766E-13-5.82990E-13
 -1      1738 1.89723E+01 4.46025E+00-1.68473E-02-5.73344E-01-4.49623E-14-5.95400E-13
 -1      1739 1.90957E+01 4.42925E+00-1.07964E-02-7.47635E-01-8.22831E-14-5.99803E-13
 -1      1740 1.93375E+01 3.97346E+00-7.55152E-03-7.61857E-01-1.16695E-13-5.70828E-13
 -1      1741 1.87942E+01 4.55731E+00-1.40348E-02-2.78257E-01 4.14902E-14-5.66873E-13
 -1      1742 1.88741E+01 4.53848E+00-9.76270E-03-4.29390E-01 3.37924E-15-5.85925E-13
 -1      1743 1.90704E+01 4.15176E+00-7.09334E-03-4.55019E-01-2.47721E-14-5.64719E-13
 -1      1744 1.87062E+01 4.60965E+00-1.20530E-02-1.47184E-02 1.23838E-13-5.41775E-13
 -1      1745 1.87392E+01 4.60124E+00-9.96847E-03-1.52227E-01 9.04331E-14-5.56527E-13
 -1      1746 1.88977E+01 4.26330E+00-6.46872E-03-1.88856E-01 6.94798E-14-5.35242E-13
 -1      1747 1.87160E+01 4.61703E+00-1.07754E-02 2.36181E-01 1.99130E-13-5.20629E-13
 -1      1748 1.86984E+01 4.61921E+00-1.12007E-02 1.01934E-01 1.67119E-13-5.37697E-13
 -1      1749 1.88263E+01 4.31246E+00-6.00235E-03 5.02987E-02 1.57963E-13-5.16174E-13
 -1      1750 1.88289E+01 4.57501E+00-1.03447E-02 4.96002E-01 2.68238E-13-4.82361E-13
 -1      1751 1.87585E+01 4.58952E+00-1.33775E-02 3.53680E-01 2.35084E-13-5.01835E-13
 -1      1752 1.88640E+01 4.29663E+00-5.86387E-03 2.80401E-01 2.33335E-13-4.95192E-13
 -1      1753 1.90419E+01 4.47834E+00-1.10541E-02 7.82638E-01 3.36964E-13-4.19177E-13
 -1      1754 1.89208E+01 4.50715E+00-1.66363E-02 6.23117E-01 2.99842E-13-4.62430E-13
 -1      1755 1.90144E+01 4.21021E+00-5.99083E-03 5.19811E-01 3.08705E-13-4.50928E-13
 -1      1756 1.93633E+01 4.30925E+00-1.38709E-02 1.12897E+00 4.20346E-13-3.08236E-13
 -1      1757 1.91863E+01 4.36054E+00-2.13854E-02 9.33792E-01 3.76883E-13-3.74928E-13
 -1      1758 1.92787E+01 4.04170E+00-6.53370E-03 7.90722E-01 3.81934E-13-3.66641E-13
 -1      1759 1.98001E+01 4.03569E+00-2.15717E-02 1.55045E+00 4.81341E-13-1.42334E-13
 -1      1760 1.95621E+01 4.12572E+00-2.86796E-02 1.30837E+00 4.45060E-13-2.37765E-13
 -1      1761 1.96635E+01 3.76785E+00-6.71278E-03 1.11066E+00 4.59066E-13-2.43850E-13
 -1      1762 2.03929E+01 3.57142E+00-4.09899E-02 2.04671E+00 5.18648E-13 1.23589E-13
 -1      1763 2.00664E+01 3.75004E+00-4.11516E-02 1.75105E+00 4.92970E-13-3.77233E-14
 -1      1764 2.01820E+01 3.34475E+00-4.09859E-03 1.47521E+00 5.11991E-13-5.92044E-14
 -1      1765 2.13368E+01 2.67310E+00-5.32220E-02 2.48768E+00 4.75494E-13 6.15563E-13
 -1      1766 2.07955E+01 3.10655E+00-5.02059E-02 2.21650E+00 4.90812E-13 3.20285E-13
 -1      1767 2.08776E+01 2.65445E+00 3.37376E-03 1.80672E+00 5.21598E-13 2.27429E-13
 -1      1768 2.21435E+01 1.19496E+00-1.18356E-01 2.04386E+00 3.74756E-13 1.19961E-12
 -1      1769 2.17000E+01 2.23988E+00-4.84196E-04 2.40720E+00 4.28563E-13 8.16625E-13
 -1      1770 2.14120E+01 1.68875E+00-1.82903E-02 1.76207E+00 4.84961E-13 5.99833E-13
 -1      1771 2.14721E+01 7.73396E-01-5.65615E-02 1.23779E+00 3.95087E-13 1.07289E-12
 -1      1772 2.21587E+01 2.42153E+00 8.73827E-02-2.77425E+00-3.89693E-13 3.12236E-13
 -1      1773 2.08428E+01 3.18681E-01-4.28527E-03 3.50030E-01 3.25719E-13 8.51404E-13
 -1      1774 2.12608E+01 4.51422E-01-9.78088E-03 7.39426E-01 3.35919E-13 9.75963E-13
 -1      1775 2.13204E+01 8.51241E-01-6.68826E-05 1.05957E+00 4.04846E-13 7.01217E-13
 -1      1776 2.19041E+01 1.72357E+00 7.78294E-02-2.03564E+00-4.17645E-13 1.75679E-13
 -1      1777 2.11030E+01 5.08876E-01 3.29811E-02-6.23441E-01-3.30388E-13 1.26099E-13
 -1      1778 2.07820E+01 3.69117E-01 1.06406E-02-3.24956E-01-2.77943E-13 4.57967E-14
 -1      1779 2.06646E+01 2.79361E-01 2.74663E-02-6.83188E-02-2.48203E-13 4.75019E-14
 -1      1780 2.05934E+01 2.04708E-01 1.25355E-02 8.31731E-02-2.11449E-13-1.60020E-14
 -1      1781 2.08424E+01 5.09761E-01-8.51902E-03-3.25215E-01-3.06651E-13-6.93876E-14
 -1      1782 2.05626E+01 1.60595E-01 1.67198E-02 2.38479E-01-1.68844E-13-1.86240E-14
 -1      1783 2.06158E+01 1.19287E-01 8.23751E-03 3.24676E-01-1.31263E-13-7.68370E-14
 -1      1784 2.06888E+01 2.82127E-01-7.79137E-03 1.46159E-01-2.30784E-13-8.21127E-14
 -1      1785 2.06557E+01 8.96219E-02 8.85057E-03 4.16230E-01-1.19194E-13-9.67035E-14
 -1      1786 2.07800E+01 5.92527E-02 4.02199E-03 4.61803E-01-1.25499E-13-1.12163E-13
 -1      1787 2.07042E+01 1.58486E-01-6.12448E-03 4.28203E-01-1.60110E-13-1.22753E-13
 -1      1788 2.08697E+01 3.31864E-02 4.31136E-03 5.06031E-01-1.29681E-13-9.96920E-14
 -1      1789 2.10270E+01 3.14722E-03 1.00118E-04 5.17541E-01-1.03337E-13-1.41138E-13
 -1      1790 2.08388E+01 6.79449E-02-4.68257E-03 5.85316E-01-1.33962E-13-1.69952E-13
 -1      1791 2.11475E+01-2.53897E-02 1.60638E-03 5.16989E-01-1.04725E-13-1.43473E-13
 -1      1792 2.13056E+01-6.03511E-02-3.98196E-03 4.92279E-01-9.26335E-14-1.71458E-13
 -1      1793 2.10517E+01-1.96382E-02-3.10297E-03 6.39318E-01-1.28207E-13-1.33350E-13
 -1      1794 2.14387E+01-9.38419E-02-2.23994E-04 4.42164E-01-7.30327E-14-1.71066E-13
 -1      1795 2.15655E+01-1.34755E-01-8.21827E-03 3.75690E-01-6.08753E-14-1.66719E-13
 -1      1796 2.13057E+01-1.19106E-01-1.36538E-03 5.88285E-01-1.02052E-13-1.32522E-13
 -1      1797 2.16914E+01-1.71634E-01-1.69235E-03 2.69572E-01-7.64198E-14-1.52267E-13
 -1      1798 2.17544E+01-2.13771E-01-1.18818E-02 1.57819E-01-8.12787E-14-1.48021E-13
 -1      1799 2.15627E+01-2.32329E-01 6.91446E-04 4.20032E-01-6.34811E-14-1.61351E-13
 -1      1800 2.18491E+01-2.46547E-01-3.11871E-03-4.91938E-03-1.13872E-13-1.44486E-13
 -1      1801 2.18195E+01-2.77268E-01-1.35380E-02-1.56125E-01-1.22180E-13-2.13556E-13
 -1      1802 2.17797E+01-3.44695E-01 3.28663E-03 1.26182E-01-1.27121E-13-1.68859E-13
 -1      1803 2.18550E+01-2.91191E-01-4.69323E-03-3.59990E-01-7.35427E-14-2.36373E-13
 -1      1804 2.17167E+01-2.90287E-01-1.13903E-02-5.27121E-01-2.79976E-14-2.37834E-13
 -1      1805 2.19065E+01-4.20253E-01 6.34529E-03-2.78563E-01-1.29135E-13-1.70351E-13
 -1      1806 2.16668E+01-2.66003E-01-6.15629E-03-7.30222E-01-4.02282E-14-2.71101E-13
 -1      1807 2.14286E+01-2.13216E-01-4.42585E-03-8.67464E-01-9.24811E-14-2.96082E-13
 -1      1808 2.18914E+01-4.04608E-01 9.05341E-03-7.33341E-01-7.04207E-14-1.78751E-13
 -1      1809 2.12840E+01-1.37556E-01-6.60901E-03-1.00029E+00-1.02932E-13-2.97805E-13
 -1      1810 2.09894E+01-2.90495E-02 5.87177E-03-1.04777E+00-1.08480E-13-3.01150E-13
 -1      1811 2.16999E+01-2.47078E-01 9.44704E-03-1.11611E+00-1.04610E-13-2.12430E-13
 -1      1812 2.07794E+01 8.81707E-02-4.31312E-03-1.03404E+00-1.19401E-13-3.11077E-13
 -1      1813 2.05034E+01 2.22738E-01 1.49123E-02-9.44758E-01-1.09932E-13-3.05163E-13
 -1      1814 2.13505E+01 5.48371E-02 4.97038E-03-1.26181E+00-1.13891E-13-1.94896E-13
 -1      1815 2.03056E+01 3.38618E-01 1.83713E-03-7.46906E-01-1.52980E-13-3.58449E-13
 -1      1816 2.01333E+01 4.39398E-01 1.75591E-02-5.23768E-01-1.70362E-13-3.55606E-13
 -1      1817 2.09469E+01 4.16265E-01-4.33547E-03-1.03480E+00-1.79350E-13-2.59398E-13
 -1      1818 2.00441E+01 4.95997E-01 1.04207E-02-1.86969E-01-2.01780E-13-4.27508E-13
 -1      1819 2.00357E+01 5.08908E-01 1.25276E-02 1.01281E-01-2.08413E-13-4.95099E-13
 -1      1820 2.06617E+01 6.81196E-01-1.32866E-02-4.36154E-01-2.25179E-13-2.77845E-13
 -1      1821 2.01067E+01 4.73975E-01 1.63176E-02 4.56072E-01-1.94838E-13-5.19688E-13
 -1      1822 2.02703E+01 3.91795E-01 3.78328E-03 7.04385E-01-1.03847E-13-6.00854E-13
 -1      1823 2.06433E+01 7.14358E-01-1.49861E-02 3.44892E-01-2.39425E-13-3.22667E-13
 -1      1824 2.04690E+01 2.86235E-01 1.57285E-02 9.45370E-01-2.13085E-14-6.73673E-13
 -1      1825 2.07556E+01 1.55211E-01-2.91244E-03 1.07215E+00 6.48526E-15-6.50840E-13
 -1      1826 2.09126E+01 4.99747E-01-7.40504E-03 1.01416E+00-7.77781E-14-3.68770E-13
 -1      1827 2.09906E+01 3.43134E-02 8.02651E-03 1.13317E+00-1.06566E-14-6.44667E-13
 -1      1828 2.13190E+01-8.30210E-02-5.83104E-03 1.11954E+00 5.08730E-14-6.62568E-13
 -1      1829 2.13429E+01 1.49682E-01 2.65471E-03 1.34419E+00-1.28244E-14-5.42448E-13
 -1      1830 2.15042E+01-1.69646E-01-2.32544E-03 1.02125E+00 8.39619E-14-7.48262E-13
 -1      1831 2.17950E+01-2.35135E-01-5.71171E-03 9.05506E-01 9.34530E-14-7.75721E-13
 -1      1832 2.17583E+01-1.73845E-01 8.65388E-03 1.28950E+00 1.09381E-14-5.71721E-13
 -1      1833 2.18898E+01-2.70555E-01-1.03041E-02 7.19260E-01 1.07010E-13-7.47558E-13
 -1      1834 2.20916E+01-2.81752E-01-4.41284E-03 5.60663E-01 5.20755E-14-6.83277E-13
 -1      1835 2.20353E+01-3.65448E-01 9.34188E-03 9.62275E-01 1.18188E-13-6.37389E-13
 -1      1836 2.20976E+01-2.75484E-01-1.36546E-02 3.59286E-01 1.92719E-14-5.76871E-13
 -1      1837 2.21936E+01-2.50688E-01-2.96387E-03 2.07457E-01 7.90540E-14-5.51637E-13
 -1      1838 2.21369E+01-4.10307E-01 7.11907E-03 5.27056E-01 1.00831E-13-5.26228E-13
 -1      1839 2.21334E+01-2.22077E-01-1.29383E-02 3.83980E-02 7.08400E-14-5.85206E-13
 -1      1840 2.21336E+01-1.82781E-01-1.81926E-03-7.91368E-02 1.13091E-13-4.22128E-13
 -1      1841 2.20867E+01-3.52946E-01 4.27957E-03 1.16468E-01 8.50873E-14-4.10238E-13
 -1      1842 2.20331E+01-1.48451E-01-9.92797E-03-1.96816E-01 1.15001E-13-3.86504E-13
 -1      1843 2.19613E+01-1.09822E-01-9.64490E-04-2.72368E-01 1.20028E-13-4.03284E-13
 -1      1844 2.19313E+01-2.50477E-01 1.95072E-03-1.98558E-01 1.58763E-13-4.73524E-13
 -1      1845 2.18418E+01-7.95285E-02-6.26191E-03-3.39246E-01 4.34609E-14-4.71761E-13
 -1      1846 2.17253E+01-4.89152E-02-3.13602E-04-3.77261E-01-1.28361E-14-4.50507E-13
 -1      1847 2.17156E+01-1.45523E-01 3.64845E-04-3.99775E-01 1.02431E-13-5.14544E-13
 -1      1848 2.16015E+01-2.63949E-02-2.96630E-03-4.03408E-01-8.23871E-14-4.40035E-13
 -1      1849 2.14641E+01-5.53480E-03 1.86291E-04-4.13271E-01-8.97287E-14-4.63170E-13
 -1      1850 2.14750E+01-6.00346E-02-6.15476E-04-5.00047E-01 9.84651E-15-3.51066E-13
 -1      1851 2.13454E+01 9.09756E-03-4.75655E-04-4.11126E-01-1.27962E-14-3.43823E-13
 -1      1852 2.12050E+01 2.13640E-02 5.52112E-04-4.02626E-01-1.69217E-15-3.01884E-13
 -1      1853 2.12335E+01-2.80653E-04-1.17774E-03-5.24537E-01 3.70925E-14-1.25466E-13
 -1      1854 2.10969E+01 2.95688E-02 1.15692E-03-3.83325E-01 1.19942E-14-2.84478E-13
 -1      1855 2.09650E+01 3.53854E-02 7.89506E-04-3.64560E-01 1.45489E-13-2.61318E-13
 -1      1856 2.10065E+01 3.60003E-02-1.46375E-03-4.99230E-01 1.07431E-14-4.61830E-14
 -1      1857 2.08703E+01 3.89830E-02 2.06426E-03-3.36629E-01 4.83326E-14-2.87931E-13
 -1      1858 2.07535E+01 4.04766E-02 9.12330E-04-3.13456E-01 1.28802E-14-2.73174E-13
 -1      1859 2.08029E+01 5.42535E-02-1.56665E-03-4.45713E-01 3.03520E-14-6.16320E-14
 -1      1860 2.06730E+01 4.10854E-02 2.43737E-03-2.82758E-01-7.27327E-14-3.37095E-13
 -1      1861 2.05741E+01 3.99734E-02 9.42809E-04-2.58993E-01-1.44209E-13-3.35174E-13
 -1      1862 2.06266E+01 6.01723E-02-1.54733E-03-3.79777E-01-8.82404E-14-1.97925E-13
 -1      1863 2.05075E+01 3.88334E-02 2.45752E-03-2.29181E-01-1.90924E-13-3.20395E-13
 -1      1864 2.04265E+01 3.63532E-02 9.06636E-04-2.07055E-01-1.75440E-13-3.85759E-13
 -1      1865 2.04785E+01 5.84779E-02-1.44863E-03-3.11879E-01-1.28147E-13-1.10912E-13
 -1      1866 2.03728E+01 3.43309E-02 2.26968E-03-1.80149E-01-1.06150E-13-2.96971E-13
 -1      1867 2.03085E+01 3.13034E-02 8.28080E-04-1.60776E-01 4.13941E-14-2.15453E-13
 -1      1868 2.03573E+01 5.26356E-02-1.30260E-03-2.48269E-01-8.46623E-14 1.59174E-13
 -1      1869 2.02661E+01 2.89616E-02 1.97817E-03-1.37681E-01 4.29224E-14-2.39983E-13
 -1      1870 2.02165E+01 2.58903E-02 7.27128E-04-1.21448E-01 7.64249E-14-1.62568E-13
 -1      1871 2.02604E+01 4.49816E-02-1.13363E-03-1.92175E-01 5.31339E-14 1.18686E-13
 -1      1872 2.01837E+01 2.35682E-02 1.65213E-03-1.02359E-01 9.18705E-14-2.09097E-13
 -1      1873 2.01465E+01 2.07336E-02 6.18584E-04-8.92181E-02 7.32747E-14-1.67074E-13
 -1      1874 2.01847E+01 3.69758E-02-9.59659E-04-1.44815E-01 6.42950E-14-1.00737E-13
 -1      1875 2.01217E+01 1.86154E-02 1.33364E-03-7.39174E-02 1.00056E-13-1.34368E-13
 -1      1876 2.00945E+01 1.61502E-02 5.12489E-04-6.35819E-02 1.03775E-13-7.95521E-14
 -1      1877 2.01268E+01 2.94525E-02-7.92885E-04-1.06167E-01 6.70612E-14 1.48682E-13
 -1      1878 2.00762E+01 1.43197E-02 1.04559E-03-5.16403E-02 4.99572E-14 1.04776E-14
 -1      1879 2.00569E+01 1.22648E-02 4.14999E-04-4.37194E-02 2.30039E-14 4.02680E-14
 -1      1880 2.00835E+01 2.28268E-02-6.40756E-04-7.55153E-02 1.52736E-13 1.93519E-13
 -1      1881 2.00438E+01 1.07439E-02 7.98105E-04-3.46255E-02 1.27966E-13 1.07034E-13
 -1      1882 2.00306E+01 9.08724E-03 3.29308E-04-2.87032E-02 3.09774E-13 1.18088E-13
 -1      1883 2.00520E+01 1.72492E-02-5.07176E-04-5.18145E-02 1.22937E-13 3.26903E-13
 -1      1884 2.00215E+01 7.86248E-03 5.93424E-04-2.19417E-02 2.25323E-13-3.39490E-14
 -1      1885 2.00129E+01 6.56417E-03 2.56495E-04-1.76227E-02 3.28833E-14-6.45236E-14
 -1      1886 2.00297E+01 1.27142E-02-3.93470E-04-3.39227E-02 1.18054E-13 1.85303E-13
 -1      1887 2.00068E+01 5.60363E-03 4.29240E-04-1.27179E-02-4.03071E-14-1.67425E-14
 -1      1888 2.00017E+01 4.61149E-03 1.96211E-04-9.65117E-03-1.39383E-13-3.37183E-14
 -1      1889 2.00145E+01 9.13166E-03-2.99174E-04-2.07350E-02 9.07863E-15 7.66933E-14
 -1      1890 1.99978E+01 3.87528E-03 3.00918E-04-6.18842E-03-2.81794E-13-6.85567E-14
 -1      1891 1.99951E+01 3.13414E-03 1.47200E-04-4.07728E-03-2.20512E-13-9.90400E-14
 -1      1892 2.00046E+01 6.37180E-03-2.22692E-04-1.12572E-02-1.89370E-13 1.64870E-13
 -1      1893 1.99929E+01 2.58062E-03 2.02896E-04-1.71101E-03-1.97243E-13 5.66808E-14
 -1      1894 1.99919E+01 2.03725E-03 1.07660E-04-3.14652E-04-6.70341E-14 3.72102E-14
 -1      1895 1.99986E+01 4.29202E-03-1.61822E-04-4.63899E-03-1.87537E-13 9.29022E-14
 -1      1896 1.99908E+01 1.62617E-03 1.29531E-04 1.23171E-03-4.01266E-15-6.62495E-14
 -1      1897 1.99909E+01 1.23141E-03 7.54825E-05 2.10036E-03 9.26305E-14-8.16019E-14
 -1      1898 1.99954E+01 2.75178E-03-1.14126E-04-1.83300E-04-1.25924E-13 3.93592E-13
 -1      1899 1.99906E+01 9.25170E-04 7.56288E-05 3.03830E-03 1.84120E-13-1.49299E-13
 -1      1900 1.99914E+01 6.34024E-04 4.84358E-05 3.51644E-03 2.31086E-13 5.12111E-15
 -1      1901 1.99941E+01 1.61920E-03-7.72014E-05 2.65768E-03 1.02378E-13 3.64629E-14
 -1      1902 1.99916E+01 3.97372E-04 3.68339E-05 3.99755E-03 2.05684E-13-4.56616E-14
 -1      1903 1.99928E+01 1.68036E-04 2.44731E-05 4.17603E-03 3.01803E-13 4.97651E-14
 -1      1904 1.99941E+01 7.72144E-04-4.89023E-05 4.29281E-03 1.78586E-13 7.47049E-14
 -1      1905 1.99933E+01-3.24306E-05 9.99426E-06 4.29756E-03 3.10277E-13 4.10728E-14
 -1      1906 1.99946E+01-2.37708E-04 3.93401E-06 4.22328E-03 2.36676E-13-5.15155E-14
 -1      1907 1.99949E+01 9.72243E-05-2.71707E-05 5.00445E-03 2.78739E-13-9.53261E-14
 -1      1908 1.99953E+01-4.41672E-04-8.00580E-06 4.04234E-03 1.68577E-13-1.05005E-13
 -1      1909 1.99965E+01-6.54422E-04-1.30720E-05 3.71865E-03 1.58653E-13 5.17365E-14
 -1      1910 1.99961E+01-5.05363E-04-1.09785E-05 4.96376E-03 1.58051E-13 7.13767E-14
 -1      1911 1.99970E+01-8.29742E-04-1.26812E-05 3.27865E-03 1.32530E-13 5.27314E-14
 -1      1912 1.99980E+01-1.06186E-03-2.85575E-05 2.71650E-03 1.68583E-13 1.28102E-13
 -1      1913 1.99985E+01-1.59088E-03 7.94779E-07 3.14239E-03 3.61814E-14 1.20194E-13
 -1      1914 1.99973E+01-1.10479E-03-2.23693E-07 4.29334E-03 2.14334E-13 1.46889E-13
 -1      1915 2.06315E+01 1.83376E-01 1.19149E-02-1.03961E-01 2.61159E-13 6.75493E-13
 -1      1916 2.07459E+01 2.38034E-01 1.86105E-02 9.79507E-02 2.73646E-13 7.91294E-13
 -1      1917 2.08873E+01 3.90376E-01-3.80678E-03 2.45016E-01 3.34534E-13 5.55649E-13
 -1      1918 2.07236E+01 1.30396E-01 1.12112E-02-3.94552E-01 2.00922E-13 5.68360E-13
 -1      1919 2.06473E+01 1.54770E-01 1.65442E-02-2.62190E-01 2.00404E-13 6.28345E-13
 -1      1920 2.07554E+01 2.32646E-01-4.61851E-03-2.42533E-01 2.49059E-13 4.56857E-13
 -1      1921 2.10449E+01 1.07665E-01 8.92849E-03-6.13232E-01 1.31901E-13 4.98329E-13
 -1      1922 2.08399E+01 1.20394E-01 1.09964E-02-5.09395E-01 1.63769E-13 5.57145E-13
 -1      1923 2.08765E+01 1.70433E-01-5.87193E-03-5.75902E-01 2.01210E-13 3.89641E-13
 -1      1924 2.15432E+01 9.34440E-02 7.01032E-03-7.95315E-01 4.02807E-14 4.17662E-13
 -1      1925 2.12424E+01 1.03347E-01 7.03507E-03-7.05215E-01 8.06967E-14 4.72795E-13
 -1      1926 2.11887E+01 1.41512E-01-6.49630E-03-8.34459E-01 1.09099E-13 3.25676E-13
 -1      1927 2.21807E+01 7.27112E-02 4.55322E-03-9.45180E-01 4.71526E-14 3.63092E-13
 -1      1928 2.18065E+01 8.64778E-02 4.24860E-03-8.67897E-01 3.24714E-14 3.79054E-13
 -1      1929 2.16508E+01 1.16827E-01-6.74522E-03-1.04673E+00 5.67935E-14 2.44334E-13
 -1      1930 2.29176E+01 2.90072E-02 5.51479E-04-1.04055E+00 8.24295E-14 3.67867E-13
 -1      1931 2.24960E+01 5.40103E-02 1.61995E-03-9.87838E-01 5.63028E-14 3.61572E-13
 -1      1932 2.22319E+01 7.32460E-02-6.95081E-03-1.20653E+00 7.46153E-14 2.17333E-13
 -1      1933 2.36969E+01-5.73297E-02-5.38776E-03-1.02886E+00 8.23044E-14 3.03323E-13
 -1      1934 2.32684E+01-1.30232E-02-1.39994E-03-1.02779E+00 9.83102E-14 3.57415E-13
 -1      1935 2.29009E+01-1.52463E-02-6.95559E-03-1.27452E+00 1.11009E-13 2.25773E-13
 -1      1936 2.44291E+01-2.02360E-01-1.22234E-02-8.26344E-01-1.41562E-14 2.76302E-13
 -1      1937 2.40579E+01-1.34435E-01-4.69971E-03-9.20328E-01 3.29433E-14 2.90273E-13
 -1      1938 2.36160E+01-1.75557E-01-5.94946E-03-1.17560E+00 7.85639E-14 2.14484E-13
 -1      1939 2.49831E+01-3.96059E-01-1.66676E-02-3.38135E-01-9.39405E-14 3.75665E-13
 -1      1940 2.47585E+01-3.16088E-01-7.73221E-03-5.76884E-01-4.81074E-14 3.12958E-13
 -1      1941 2.43112E+01-4.16548E-01-2.50178E-03-8.06965E-01-3.64604E-14 2.26019E-13
 -1      1942 2.51921E+01-5.61121E-01-1.38405E-02 4.70884E-01-7.61578E-14 4.72705E-13
 -1      1943 2.52114E+01-5.14933E-01-1.00369E-02 6.86392E-02-1.01599E-13 3.91090E-13
 -1      1944 2.48793E+01-6.84891E-01 4.48627E-03-8.22041E-02-1.32316E-13 3.27258E-13
 -1      1945 2.48948E+01-5.28949E-01-3.04036E-03 1.43848E+00 5.37261E-14 5.02934E-13
 -1      1946 2.52190E+01-5.97377E-01-1.25638E-02 9.56452E-01-1.41085E-14 4.77248E-13
 -1      1947 2.51569E+01-8.09734E-01 1.31579E-02 9.57972E-01-3.50536E-14 4.01294E-13
 -1      1948 2.40545E+01-1.31262E-01 4.91492E-03 2.08692E+00 1.20706E-13 5.62290E-13
 -1      1949 2.46411E+01-3.64353E-01-1.48489E-02 1.76815E+00 4.13194E-14 5.48478E-13
 -1      1950 2.49647E+01-5.38502E-01 1.37314E-02 1.98102E+00 7.89321E-14 4.12554E-13
 -1      1951 2.29546E+01 5.41932E-01-1.10846E-02 1.79894E+00 1.89317E-13 4.73489E-13
 -1      1952 2.36004E+01 2.41289E-01-1.69810E-02 1.94311E+00 1.93456E-13 5.10751E-13
 -1      1953 2.42908E+01 2.32335E-01-4.24652E-03 2.33425E+00 2.10974E-13 4.88574E-13
 -1      1954 2.22637E+01 1.00855E+00-4.24546E-02 4.33862E-01 1.75249E-13 1.23315E-13
 -1      1955 2.26383E+01 8.82751E-01-1.26373E-02 1.08031E+00 1.92221E-13 2.98536E-13
 -1      1956 2.35244E+01 1.11454E+00-3.60068E-02 1.45326E+00 2.73601E-13 2.38145E-13
 -1      1957 2.25544E+01 8.28025E-01-5.41508E-02-1.24430E+00 1.80113E-13-1.69278E-13
 -1      1958 2.24058E+01 1.01229E+00-4.40814E-03-4.82393E-01 1.85116E-13-6.72361E-14
 -1      1959 2.33058E+01 1.41999E+00-4.52694E-02-3.81246E-01 3.35190E-13-6.04868E-14
 -1      1960 2.36645E+01 1.82352E-01-2.48802E-02-2.15496E+00 1.17796E-13-1.69531E-13
 -1      1961 2.30579E+01 5.04855E-01-1.86600E-03-1.75479E+00 1.62263E-13-2.15231E-13
 -1      1962 2.38577E+01 8.59903E-01-2.28009E-02-1.99854E+00 2.28269E-13-2.70711E-13
 -1      1963 2.48561E+01-3.78242E-01 1.55020E-02-1.94403E+00-7.20465E-14-3.66981E-13
 -1      1964 2.41210E+01-1.66856E-01-5.23524E-03-2.03078E+00 2.27171E-14-2.62599E-13
 -1      1965 2.47113E+01-6.26733E-02 5.53093E-03-2.43465E+00 8.18950E-14-3.73028E-13
 -1      1966 2.55311E+01-5.66665E-01 2.83843E-02-1.07632E+00 6.03597E-14-3.89871E-13
 -1      1967 2.49962E+01-5.34026E-01-1.29272E-02-1.43462E+00-1.76942E-14-3.50466E-13
 -1      1968 2.52604E+01-7.07888E-01 1.03923E-03-1.76169E+00 1.01100E-14-4.08177E-13
 -1      1969 2.55838E+01-4.70878E-01 2.21052E-02-1.46579E-01 1.99511E-14-3.92659E-13
 -1      1970 2.53853E+01-5.50507E-01-1.77718E-02-5.29871E-01 6.19192E-14-4.10770E-13
 -1      1971 2.53110E+01-8.26647E-01-9.52430E-03-6.80631E-01 9.56908E-14-4.24212E-13
 -1      1972 2.51777E+01-2.78877E-01 1.01216E-02 5.11119E-01 1.40316E-13-3.97243E-13
 -1      1973 2.52809E+01-3.79461E-01-1.53810E-02 2.36728E-01 8.55861E-14-3.13367E-13
 -1      1974 2.49627E+01-6.15824E-01-1.25064E-02 2.62528E-01 6.12600E-14-3.85516E-13
 -1      1975 2.45283E+01-1.11198E-01 1.08512E-03 8.46020E-01 3.41927E-14-4.74534E-13
 -1      1976 2.48247E+01-1.87095E-01-9.90053E-03 7.02141E-01 8.03125E-14-4.67472E-13
 -1      1977 2.43967E+01-3.29584E-01-9.34016E-03 8.48943E-01 1.43682E-13-3.97142E-13
 -1      1978 2.37978E+01-3.39690E-03-3.29275E-03 9.39124E-01-2.22953E-13-3.41243E-13
 -1      1979 2.41813E+01-4.70597E-02-4.38044E-03 8.94514E-01-1.62171E-13-4.93165E-13
 -1      1980 2.37502E+01-1.05117E-01-4.98337E-03 1.10271E+00-8.21630E-14-2.90272E-13
 -1      1981 2.30859E+01 5.18202E-02-4.42049E-03 8.90423E-01-1.37859E-13-1.21589E-13
 -1      1982 2.34815E+01 3.27425E-02-1.44436E-04 9.05125E-01-1.44366E-13-2.07681E-13
 -1      1983 2.31062E+01 2.94486E-02-1.87682E-03 1.13001E+00-2.12059E-13-2.38774E-13
 -1      1984 2.24450E+01 7.25247E-02-3.96943E-03 7.75910E-01 8.40018E-15 9.63856E-15
 -1      1985 2.28096E+01 6.82993E-02 2.50896E-03 8.19003E-01-7.57441E-14-7.88996E-14
 -1      1986 2.25110E+01 9.29756E-02-3.13233E-04 1.03303E+00-8.61980E-14-1.29200E-13
 -1      1987 2.18965E+01 7.42260E-02-3.01782E-03 6.42123E-01-6.66741E-15 1.50775E-13
 -1      1988 2.22108E+01 7.75391E-02 3.81891E-03 6.94364E-01 3.69826E-14 1.11072E-13
 -1      1989 2.19875E+01 1.12508E-01 2.07170E-04 8.83582E-01-2.57754E-14 1.33938E-13
 -1      1990 2.14433E+01 6.70682E-02-2.07815E-03 5.13412E-01-1.09046E-13 1.78344E-13
 -1      1991 2.17027E+01 7.34480E-02 4.19260E-03 5.64542E-01-1.33440E-13 1.88133E-13
 -1      1992 2.15436E+01 1.09050E-01 2.07051E-04 7.23983E-01-1.34297E-13 1.43131E-13
 -1      1993 2.10787E+01 5.67741E-02-1.32577E-03 4.00376E-01 6.48513E-14 1.78879E-13
 -1      1994 2.12862E+01 6.38278E-02 4.01105E-03 4.45781E-01-1.29770E-14 2.92412E-13
 -1      1995 2.11777E+01 9.56600E-02 2.50276E-05 5.75679E-01-8.59599E-14 2.60237E-13
 -1      1996 2.07915E+01 4.62183E-02-7.81364E-04 3.06098E-01 1.58479E-13 1.22392E-13
 -1      1997 2.09538E+01 5.28191E-02 3.55575E-03 3.44295E-01 1.31583E-13 1.71680E-13
 -1      1998 2.08829E+01 7.94187E-02-1.68677E-04 4.47481E-01 1.87647E-13 2.36247E-13
 -1      1999 2.05695E+01 3.66621E-02-4.11132E-04 2.29993E-01-1.91920E-13 6.72279E-14
 -1      2000 2.06938E+01 4.23735E-02 3.00503E-03 2.61054E-01-7.83418E-14 7.44708E-14
 -1      2001 2.06500E+01 6.37215E-02-3.09760E-04 3.41369E-01-4.00381E-14 6.22994E-14
 -1      2002 2.04006E+01 2.85335E-02-1.71070E-04 1.69943E-01-1.31095E-13-1.01660E-14
 -1      2003 2.04943E+01 3.32624E-02 2.45830E-03 1.94617E-01-2.03922E-13 7.07361E-14
 -1      2004 2.04693E+01 4.99458E-02-3.87446E-04 2.56031E-01-1.26343E-13 1.94948E-14
 -1      2005 2.02743E+01 2.18653E-02-2.27271E-05 1.23386E-01-5.63386E-14 1.28366E-13
 -1      2006 2.03437E+01 2.56732E-02 1.96360E-03 1.42639E-01-8.67922E-14 1.51564E-14
 -1      2007 2.03314E+01 3.84602E-02-4.12568E-04 1.88826E-01-1.06742E-13-2.51242E-15
 -1      2008 2.01814E+01 1.65230E-02 6.33245E-05 8.78244E-02 1.73112E-13 2.59028E-13
 -1      2009 2.02319E+01 1.95297E-02 1.53909E-03 1.02625E-01 1.08487E-13 3.16055E-13
 -1      2010 2.02278E+01 2.91759E-02-4.01244E-04 1.36779E-01-1.56586E-14 1.68712E-13
 -1      2011 2.01144E+01 1.23154E-02 1.08324E-04 6.10377E-02 4.09931E-13 1.01831E-13
 -1      2012 2.01504E+01 1.46534E-02 1.18696E-03 7.22592E-02 3.04027E-13 2.03783E-13
 -1      2013 2.01514E+01 2.18256E-02-3.67971E-04 9.70603E-02 3.29048E-13 2.99051E-13
 -1      2014 2.00671E+01 9.04672E-03 1.27146E-04 4.11425E-02 6.14993E-14-5.67680E-15
 -1      2015 2.00922E+01 1.08409E-02 9.01761E-04 4.95347E-02 2.60354E-13 4.54242E-14
 -1      2016 2.00961E+01 1.60965E-02-3.23681E-04 6.71710E-02 3.20907E-13 3.38449E-13
 -1      2017 2.00347E+01 6.53921E-03 1.29929E-04 2.65876E-02-9.42531E-14-3.63525E-13
 -1      2018 2.00516E+01 7.89850E-03 6.74941E-04 3.27737E-02-6.86637E-14-2.36063E-13
 -1      2019 2.00570E+01 1.16891E-02-2.75897E-04 4.49996E-02 1.12721E-13-5.71818E-14
 -1      2020 2.00133E+01 4.63968E-03 1.23421E-04 1.61186E-02 1.36133E-13-2.75960E-13
 -1      2021 2.00243E+01 5.65583E-03 4.97274E-04 2.06066E-02-4.36447E-14-3.60762E-13
 -1      2022 2.00301E+01 8.34034E-03-2.29388E-04 2.88067E-02-4.20682E-14-3.51780E-13
 -1      2023 1.99999E+01 3.21977E-03 1.11986E-04 8.73562E-03-4.35485E-14-1.76451E-13
 -1      2024 2.00065E+01 3.96849E-03 3.60003E-04 1.19337E-02 7.17135E-14-2.01160E-13
 -1      2025 2.00123E+01 5.82826E-03-1.86853E-04 1.71853E-02-4.33082E-14-1.53687E-13
 -1      2026 1.99922E+01 2.17312E-03 9.83408E-05 3.65237E-03-1.65040E-13 1.86641E-14
 -1      2027 1.99958E+01 2.71624E-03 2.55294E-04 5.88346E-03-1.08521E-13-5.66169E-15
 -1      2028 2.00011E+01 3.96944E-03-1.49551E-04 9.01393E-03-1.96086E-13-1.34976E-14
 -1      2029 1.99886E+01 1.41188E-03 8.40390E-05 2.59689E-04 1.26105E-13-4.67082E-14
 -1      2030 1.99901E+01 1.79970E-03 1.76359E-04 1.77561E-03-8.43957E-14-3.05563E-14
 -1      2031 1.99946E+01 2.61335E-03-1.17809E-04 3.41172E-03-7.54694E-14 1.02926E-13
 -1      2032 1.99876E+01 8.63107E-04 6.97710E-05-1.90452E-03-1.19499E-14 1.56545E-13
 -1      2033 1.99877E+01 1.13659E-03 1.17419E-04-9.11828E-04 1.36108E-13 1.42580E-13
 -1      2034 1.99915E+01 1.63643E-03-9.13807E-05-3.01139E-04 4.40930E-14 2.50076E-13
 -1      2035 1.99884E+01 4.65682E-04 5.57883E-05-3.17904E-03 1.77597E-13 3.29263E-14
 -1      2036 1.99876E+01 6.58040E-04 7.35933E-05-2.56861E-03 7.77714E-14 9.51774E-14
 -1      2037 1.99906E+01 9.36076E-04-6.96944E-05-2.63637E-03 1.17672E-13 3.59239E-13
 -1      2038 1.99903E+01 1.66721E-04 4.09730E-05-3.79970E-03 2.37014E-14 7.07771E-14
 -1      2039 1.99890E+01 3.06752E-04 4.07152E-05-3.47352E-03 1.45928E-13 6.24826E-14
 -1      2040 1.99912E+01 4.27853E-04-5.18392E-05-3.96259E-03 1.70246E-13 3.06552E-13
 -1      2041 1.99926E+01-8.82883E-05 2.65795E-05-3.91146E-03 1.05052E-14 4.00117E-13
 -1      2042 1.99911E+01 2.74551E-05 1.58303E-05-3.81365E-03-4.07775E-14 1.69912E-13
 -1      2043 1.99927E+01 3.07619E-05-3.89964E-05-4.53884E-03-1.14099E-13 5.63093E-13
 -1      2044 1.99951E+01-3.38272E-04 1.44459E-05-3.56878E-03-3.02848E-13 5.10128E-13
 -1      2045 1.99936E+01-2.29945E-04-1.73595E-06-3.68032E-03-7.56908E-14 4.30031E-13
 -1      2046 1.99945E+01-3.21211E-04-2.43803E-05-4.49044E-03-1.47509E-13 6.77851E-13
 -1      2047 1.99972E+01-6.43300E-04 3.46342E-07-2.75780E-03-6.02946E-14 3.49845E-13
 -1      2048 1.99960E+01-5.07406E-04-8.48017E-06-3.11014E-03-1.26697E-13 5.38481E-13
 -1      2049 1.99964E+01-6.97081E-04-9.79985E-06-3.90090E-03-1.03639E-13 6.49417E-13
 -1      2050 1.99986E+01-9.37725E-04-1.51753E-05-1.81317E-03-4.89571E-14 4.17893E-13
 -1      2051 1.99977E+01-7.91129E-04-1.05838E-05-2.39282E-03-4.81177E-14 3.55454E-13
 -1      2052 1.99979E+01-1.06802E-03 4.71266E-06-3.05711E-03 6.31586E-15 5.08132E-13
 -1      2053 1.99988E+01-1.45334E-03 8.14727E-06-2.19407E-03-2.28459E-14 4.45589E-13
 -1      2054 2.00001E+01-6.51216E-03 7.80059E-06-3.46766E-03-1.18312E-13 1.91798E-13
 -1      2055 1.99999E+01-5.40832E-03-8.05943E-07-3.58131E-03-8.42357E-14-1.11770E-13
 -1      2056 1.99997E+01-4.67572E-03 3.31020E-06-3.60545E-03 2.54059E-14-4.06134E-13
 -1      2057 1.99994E+01-3.58144E-03-1.34770E-05-3.45903E-03 2.34216E-13-1.58984E-13
 -1      2058 1.99998E+01-4.22059E-03-6.86078E-06-4.40954E-03-1.16980E-13-3.45118E-13
 -1      2059 1.99993E+01-3.03014E-03 6.64866E-08-3.16329E-03 2.35547E-13 1.37781E-13
 -1      2060 1.99990E+01-2.06731E-03-1.89864E-05-2.70860E-03 1.25542E-13 1.80456E-13
 -1      2061 1.99986E+01-1.88107E-03-1.65852E-05-3.21621E-03 1.74995E-14 4.20312E-13
 -1      2062 1.99992E+01-2.99010E-03-6.54902E-06-4.10486E-03 9.52340E-14-1.19478E-14
 -1      2063 2.00003E+01-8.09029E-03 1.33038E-05-2.93023E-03-9.38082E-14 2.59144E-13
 -1      2064 2.00002E+01-7.12839E-03 1.57398E-05-3.20504E-03-2.18224E-13 4.50663E-13
 -1      2065 2.00003E+01-5.56239E-03-1.16022E-05-4.08237E-03-1.84252E-13 1.95455E-13
 -1      2066 2.00005E+01-9.33364E-03 1.92517E-05-2.13617E-03-7.13932E-14 3.11980E-13
 -1      2067 2.00004E+01-8.58127E-03 2.61411E-05-2.51159E-03-1.69886E-13 4.93920E-13
 -1      2068 2.00007E+01-6.67560E-03-1.40613E-05-3.32187E-03-1.31222E-13 3.74688E-13
 -1      2069 2.00005E+01-1.01283E-02 2.44380E-05-1.20993E-03 6.64170E-14 1.21762E-13
 -1      2070 2.00005E+01-9.66271E-03 3.12446E-05-1.63297E-03-1.90003E-14 2.82763E-13
 -1      2071 2.00009E+01-7.50534E-03-1.52733E-05-2.30037E-03-1.12205E-13 3.72827E-13
 -1      2072 2.00006E+01-1.04360E-02 2.85418E-05-2.30350E-04 2.03603E-14-1.55060E-13
 -1      2073 2.00006E+01-1.02872E-02 3.16533E-05-6.70054E-04 4.79461E-14-1.60045E-13
 -1      2074 2.00009E+01-8.00102E-03-1.53128E-05-1.14628E-03-7.77116E-15 9.59207E-15
 -1      2075 2.00006E+01-1.02485E-02 3.09246E-05 7.52297E-04 7.79678E-14-1.92427E-14
 -1      2076 2.00006E+01-1.04237E-02 2.88627E-05 3.16228E-04 8.45909E-14-1.00971E-13
 -1      2077 2.00010E+01-8.15041E-03-1.51091E-05 5.43082E-05-2.53251E-13-4.93488E-14
 -1      2078 2.00005E+01-9.58034E-03 3.04346E-05 1.69598E-03-1.06317E-13-4.46627E-13
 -1      2079 2.00005E+01-1.00674E-02 2.40966E-05 1.28310E-03-4.49743E-14-8.51816E-14
 -1      2080 2.00009E+01-7.95407E-03-1.48335E-05 1.24472E-03-1.22988E-13-2.09659E-13
 -1      2081 2.00004E+01-8.49169E-03 2.53357E-05 2.53128E-03-8.73048E-14-4.55363E-13
 -1      2082 2.00005E+01-9.24313E-03 1.84672E-05 2.17588E-03-9.15669E-14-5.07042E-13
 -1      2083 2.00008E+01-7.42586E-03-1.43071E-05 2.36171E-03-1.30661E-13-5.18823E-13
 -1      2084 2.00002E+01-7.01763E-03 1.47330E-05 3.19923E-03 2.97619E-14 3.91349E-14
 -1      2085 2.00003E+01-7.99690E-03 1.24090E-05 2.93385E-03-1.65177E-14-1.64370E-13
 -1      2086 2.00006E+01-6.58407E-03-1.29979E-05 3.33831E-03 9.03650E-14-3.46035E-13
 -1      2087 1.99999E+01-5.29336E-03-1.60615E-06 3.54978E-03-1.32956E-14-9.01113E-14
 -1      2088 2.00001E+01-6.39103E-03 6.73617E-06 3.44867E-03 7.45719E-14-1.11911E-13
 -1      2089 2.00003E+01-5.45634E-03-1.04913E-05 4.06527E-03 9.67764E-14-2.80414E-14
 -1      2090 1.99994E+01-3.48175E-03-1.72281E-05 3.44244E-03-2.54884E-13-3.20503E-14
 -1      2091 1.99997E+01-4.57319E-03 7.78494E-06 3.56343E-03-1.60964E-13-7.47797E-15
 -1      2092 1.99998E+01-4.11406E-03-3.11828E-06 4.36183E-03-4.85023E-14-1.45689E-13
 -1      2093 1.03288E+01-5.62228E+00-2.31830E-01 6.06326E+00 8.55316E-13 9.16996E-13
 -1      2094 7.06422E+00-6.66332E+00-3.05535E-01 5.26079E+00 5.90417E-13 7.41296E-13
 -1      2095 3.80135E-01-6.77958E+00-3.26331E-01 3.93174E-01 2.41029E-13 8.41327E-13
 -1      2096 4.38831E-01-6.92509E+00-3.50658E-01-1.28869E+00 3.93019E-14 8.46545E-13
 -1      2097 3.55829E+00-6.33097E+00-2.78828E-01 4.00224E+00 5.12312E-13 8.11795E-13
 -1      2098 1.40603E+00-7.12209E+00-4.05847E-01 2.24643E+00 2.80553E-13 8.49765E-13
 -1      2099 1.92325E+01-3.90098E+00-3.23387E-02 6.60925E+00 7.62612E-13 8.55094E-13
 -1      2100 1.43525E+01-5.62657E+00-3.50665E-01 5.86482E+00 8.25007E-13 8.45018E-13
 -1      2101 2.84175E+01-7.76799E-01 1.39240E-01 5.62948E+00 8.67528E-13 5.83644E-13
 -1      2102 2.31976E+01-2.80570E+00-2.06734E-01 5.38321E+00 7.68052E-13 7.35301E-13
 -1      2103 1.95793E+01 4.09378E+00-2.81687E-02-1.31280E+00-2.21363E-13-5.59908E-13
 -1      2104 1.97964E+01 4.01327E+00-2.19874E-02-1.55954E+00-2.81948E-13-5.11320E-13
 -1      2105 2.01608E+01 3.31221E+00-1.35726E-02-1.50601E+00-3.09231E-13-4.37199E-13
 -1      2106 1.97003E+01 3.71259E+00-6.40509E-03-1.11692E+00-2.17518E-13-5.35067E-13
 -1      2107 3.84873E+01 5.63659E+00 1.78847E-01 4.07843E-01 9.50351E-13-1.22125E-15
 -1      2108 3.69019E+01 4.32612E+00 1.98008E-01 1.46450E+00 1.01691E-12 1.32061E-13
 -1      2109 4.22127E+01 7.28248E+00 5.74530E-01-2.35065E-01 9.12215E-13-2.35555E-13
 -1      2110 3.98351E+01 7.22061E+00 2.75452E-01 4.91983E-01 1.01841E-12 3.05866E-14
 -1      2111 3.99955E+01 6.21711E+00 2.87113E-01-1.50849E+00 9.35696E-13-4.59022E-13
 -1      2112 4.20548E+01 6.81643E+00 4.83447E-01-6.65007E-01 9.30034E-13-3.21992E-13
 -1      2113 3.73805E+01 7.91805E+00 3.61034E-01 5.47503E-02 1.01513E-12-1.99105E-13
 -1      2114 3.48395E+01 2.88728E+00 9.67532E-02-2.02398E+00 7.07850E-13-4.96547E-13
 -1      2115 3.88397E+01 4.75657E+00 4.53956E-01-1.90426E+00 8.57286E-13-4.11282E-13
 -1      2116 2.76268E+01-1.32977E+00-8.25010E-02-4.72257E+00 4.58134E-13-8.12905E-13
 -1      2117 3.20550E+01 8.52511E-02 5.22166E-02-3.54507E+00 4.46088E-13-7.55673E-13
 -1      2118 1.99457E+01-4.42668E+00-2.26891E-01-5.77113E+00 2.65843E-13-6.87395E-13
 -1      2119 2.47487E+01-2.43231E+00 6.68339E-02-6.16359E+00 4.38538E-13-7.76601E-13
 -1      2120 2.76923E+01-3.60493E+00 1.00458E-01-3.70479E+00 6.99441E-14-5.19973E-13
 -1      2121 1.05883E+01-6.44926E+00-3.80796E-01-5.75179E+00 1.25122E-13-7.15369E-13
 -1      2122 1.52091E+01-4.81318E+00-8.19812E-02-6.81030E+00 2.24598E-13-7.75185E-13
 -1      2123 4.64997E+00-6.94570E+00-3.31210E-01-4.46024E+00-1.11577E-13-7.63833E-13
 -1      2124 7.47481E+00-6.14709E+00-2.12021E-01-5.55939E+00 1.30451E-13-7.44224E-13
 -1      2125 1.16396E+01-5.87416E+00-9.32517E-02-6.63683E+00-1.97065E-13-6.99496E-13
 -1      2126 1.05824E+00-6.13472E+00-2.19557E-01-1.36069E+00-1.99951E-13-7.96196E-13
 -1      2127 2.17561E+00-6.41506E+00-2.63372E-01-3.05332E+00-7.63833E-14-8.52096E-13
 -1      2128 1.17886E+00-7.46368E+00-4.57777E-01 2.69075E+00-4.06730E-13-6.83786E-13
 -1      2129 4.49080E-01-6.69695E+00-3.24979E-01 1.25908E+00-2.31384E-13-6.95721E-13
 -1      2130 6.14626E+00-5.84972E+00-1.93404E-01 5.66086E+00-4.50751E-13-6.31495E-13
 -1      2131 3.15018E+00-7.47078E+00-4.69695E-01 3.95408E+00-3.74811E-13-7.00773E-13
 -1      2132 3.79522E+00-5.18145E+00-1.62870E-01 4.29158E+00-2.02061E-14-7.17482E-13
 -1      2133 1.44229E+01-4.59736E+00-7.48920E-02 7.09741E+00-6.21281E-13-4.81129E-13
 -1      2134 1.02370E+01-6.12894E+00-2.96901E-01 6.19087E+00-4.86444E-13-5.34277E-13
 -1      2135 2.34996E+01-2.63970E+00-2.95201E-02 6.29292E+00-5.92970E-13-2.36644E-13
 -1      2136 1.84185E+01-4.21746E+00-2.20324E-01 6.25129E+00-6.58307E-13-3.60600E-13
 -1      2137 3.24603E+01 1.97053E+00 3.47487E-01 5.17624E+00-7.36466E-13-2.59348E-13
 -1      2138 2.77954E+01-3.60977E-01 3.79767E-02 4.91830E+00-6.89199E-13-2.06224E-13
 -1      2139 3.72757E+01 4.66233E+00 2.46210E-01 2.66458E+00-7.77101E-13-1.69309E-14
 -1      2140 3.43400E+01 3.45400E+00 1.66537E-01 3.91243E+00-7.62303E-13-2.51132E-13
 -1      2141 3.25933E+01 1.63071E+00 1.96056E-01 2.00236E+00-5.75137E-13 1.34948E-13
 -1      2142 3.89523E+01 7.03366E+00 2.46425E-01 4.75670E-01-1.00070E-12 3.05700E-13
 -1      2143 3.75562E+01 6.35599E+00 1.79054E-01 1.32732E+00-9.32643E-13 1.05749E-13
 -1      2144 3.94405E+01 7.11353E+00 2.35108E-01-9.74901E-01-1.02179E-12 5.46174E-13
 -1      2145 4.01109E+01 7.42149E+00 3.02666E-01 2.18051E-01-1.03939E-12 3.22929E-13
 -1      2146 3.52219E+01 4.81185E+00 4.70858E-02-1.56886E+00-9.75942E-13 5.14977E-13
 -1      2147 3.81129E+01 6.07066E+00 2.93186E-01-1.12768E+00-9.29312E-13 5.00100E-13
 -1      2148 3.04056E+01 1.10830E+00 4.29811E-02-4.32493E+00-9.31491E-13 8.09242E-13
 -1      2149 3.39080E+01 2.51283E+00 1.05566E-01-3.20612E+00-9.29791E-13 5.08926E-13
 -1      2150 2.26343E+01-2.02150E+00-1.56200E-01-5.93579E+00-7.71494E-13 1.22180E-12
 -1      2151 2.75504E+01-1.98301E-01 1.31766E-01-6.07028E+00-8.83293E-13 1.10234E-12
 -1      2152 1.42552E+01-5.01148E+00-3.01950E-01-6.32882E+00-4.83502E-13 1.09546E-12
 -1      2153 1.89782E+01-3.18743E+00 7.85859E-03-7.05830E+00-5.68212E-13 1.21880E-12
 -1      2154 6.64950E+00-6.66505E+00-3.94212E-01-5.35075E+00-2.31259E-13 1.07517E-12
 -1      2155 1.01207E+01-5.06411E+00-1.76553E-01-6.45033E+00-5.40568E-13 1.15027E-12
 -1      2156 1.75959E+00-7.03163E+00-3.72048E-01-3.06188E+00 1.02029E-13 9.35585E-13
 -1      2157 3.80096E+00-6.17972E+00-2.45126E-01-4.56021E+00-1.56319E-13 1.06032E-12
 -1      2158 3.52689E+01 2.06710E+00 1.67742E-01 2.90457E+00 9.69981E-13 1.11910E-13
 -1      2159 3.12228E+01 5.80633E-01 4.71469E-03 3.85941E+00 9.98007E-13 4.13225E-13
 -1      2160 2.34748E+01-4.82826E+00 8.18433E-03 5.22670E+00 3.57547E-13 3.12916E-13
 -1      2161 2.12279E+01 1.10093E+00-1.85717E-02-1.31521E+00-3.99670E-13 8.51003E-14
 -1      2162 3.05630E+01-1.56852E+00 1.90673E-01 2.54359E+00 6.28941E-13 5.24580E-14
 -1      2163 3.43763E+01 2.56533E+00 2.33770E-01-9.18800E-02 8.74745E-13-1.86740E-13
 -1      2164 2.10989E+01 1.33401E+00-2.04979E-02-1.30658E+00-4.08219E-13-8.87259E-14
 -1      2165 6.65746E+00-5.78549E+00-1.51040E-01 5.10804E+00 3.74700E-13 7.14206E-13
 -1      2166 6.66169E+00-4.07930E+00 1.01218E-01 5.09760E+00 9.39249E-14 7.72382E-13
 -1      2167 9.87632E+00-5.10340E+00-1.11264E-01 6.32449E+00 1.22069E-13 6.81982E-13
 -1      2168 2.23951E+00-4.64249E+00-1.36989E-01 1.69657E+00 9.78384E-14 9.14491E-13
 -1      2169 1.99992E+01-2.71774E-03-1.60947E-05 3.41992E-03-1.56556E-13 4.32959E-14
 -1      2170 1.51130E+01-5.94613E+00-6.60669E-02 6.58965E+00 3.44391E-13 6.55743E-13
 -1      2171 2.53359E+00-4.59840E+00-1.40146E-01-2.73374E+00 7.29417E-14 9.72833E-13
 -1      2172 7.08908E+00-5.38841E+00-1.42227E-01-5.90934E+00 5.14033E-14 1.09113E-12
 -1      2173 1.47160E+01-5.50589E+00-5.47789E-02-7.05731E+00-1.25455E-14 9.84286E-13
 -1      2174 2.28397E+01-4.14830E+00 4.08756E-02-5.76813E+00-2.24931E-13 8.90732E-13
 -1      2175 2.94875E+01-9.54829E-01 1.72992E-01-3.29226E+00-5.51822E-13 3.96017E-13
 -1      2176 3.31580E+01 3.22937E+00 1.59467E-01-4.84601E-01-7.53536E-13 1.82188E-13
 -1      2177 3.50434E+01 7.15265E+00 2.06538E-01 3.92359E-01-9.68725E-13 2.33619E-13
 -1      2178 3.47089E+01 5.62307E+00 2.33266E-01 2.60998E-01-8.50209E-13 2.53464E-13
 -1      2179 2.64367E+01-2.38551E+00 4.80644E-02 4.80879E+00-4.87804E-13-2.75335E-14
 -1      2180 2.53864E+01-4.13614E+00 1.35442E-01 4.64441E+00-2.30288E-13 2.58626E-13
 -1      2181 2.85063E+01-2.49694E+00-1.37012E-01 2.89714E+00-3.09648E-13 2.81608E-13
 -1      2182 1.02082E+01-5.62368E+00-8.09340E-02 6.72151E+00-1.14408E-13-4.82975E-13
 -1      2183 5.30373E+00-4.99588E+00-1.22995E-01-4.61518E+00-2.15772E-13-8.61977E-13
 -1      2184 2.00081E+01-5.65564E+00-5.08648E-03-6.16378E+00-1.18239E-13-5.77718E-13
 -1      2185 3.61455E+01 5.52400E+00 2.22352E-01 4.50861E-01 8.28226E-13-1.67921E-13
 -1      2186 3.70074E+01 6.34257E+00 1.53154E-01-3.07369E-01 9.36640E-13-8.11573E-14
 -1      2187 3.34197E+01 5.60703E+00 4.05886E-02-1.43135E+00 8.47211E-13-3.17968E-13
 -1      2188 3.40036E+01 6.91067E+00-1.11648E-01-9.12607E-01 9.61009E-13-1.58776E-13
 -1      2189 3.30888E+01 6.86242E-01 6.87521E-02-1.43639E+00 4.60878E-13-3.85081E-13
 -1      2190 3.25008E+01 1.13289E+00-1.64345E-01 9.31528E-01 4.74898E-13 2.82552E-14
 -1      2191 3.10759E+01-1.30100E+00 1.00215E-01-6.32780E-01 2.05405E-13-1.54654E-13
 -1      2192 1.73105E+00-5.01199E+00-1.31487E-01-9.63808E-02-1.16428E-13-7.62168E-13
 -1      2193 3.35186E+00-2.90482E+00 4.14635E-02-1.40627E+00-9.52086E-14-7.44349E-13
 -1      2194 2.74188E+00-3.22897E+00 1.22701E-02 1.23372E+00 3.31957E-14-6.51368E-13
 -1      2195 1.88033E+01-5.27510E+00 3.48147E-02 6.70279E+00-2.33480E-13-1.78607E-13
 -1      2196 3.55082E+01 8.02563E+00 2.38963E-01-1.92138E-01-1.08430E-12 2.63012E-13
 -1      2197 2.08922E+01 6.03182E-01 8.53462E-03 1.63919E-01 3.36229E-13 3.44080E-13
 -1      2198 2.10411E+01 7.73069E-01 2.06907E-02 4.96506E-01 3.78381E-13 3.98335E-13
 -1      2199 1.91115E+01 3.83746E+00-1.14639E-02-3.06937E-01 2.17686E-15-5.19462E-13
 -1      2200 1.92311E+01 3.76820E+00-7.41766E-03-4.44107E-01-5.41358E-14-5.35289E-13
 -1      2201 1.93708E+01 3.63212E+00-1.35554E-02-5.64135E-01-8.61205E-14-5.38182E-13
 -1      2202 1.95357E+01 3.52411E+00-9.62970E-03-7.22228E-01-1.40626E-13-5.33051E-13
 -1      2203 1.94341E+01 3.35774E+00 1.12615E-03-4.05669E-01-6.64236E-14-4.97555E-13
 -1      2204 1.88971E+01 4.01041E+00-8.72817E-03 1.15766E-01 1.82641E-13-4.75277E-13
 -1      2205 1.89095E+01 4.00322E+00-7.39895E-03 4.71369E-03 1.35861E-13-4.86281E-13
 -1      2206 1.89634E+01 3.97449E+00-8.15509E-03 3.08123E-01 2.60168E-13-4.68301E-13
 -1      2207 1.89148E+01 3.99998E+00-8.82785E-03 1.97316E-01 2.19045E-13-4.82480E-13
 -1      2208 1.90071E+01 3.71898E+00 1.68919E-03 1.48121E-01 1.92459E-13-4.43249E-13
 -1      2209 1.91485E+01 3.84890E+00-8.41549E-03 5.08908E-01 3.29205E-13-4.15659E-13
 -1      2210 1.90402E+01 3.90991E+00-1.10108E-02 3.90410E-01 2.84160E-13-4.46768E-13
 -1      2211 1.91069E+01 3.64860E+00 2.23906E-03 3.00492E-01 2.57459E-13-4.19838E-13
 -1      2212 1.94565E+01 3.61408E+00-1.02317E-02 7.41802E-01 4.14250E-13-3.15834E-13
 -1      2213 1.92864E+01 3.72217E+00-1.38607E-02 6.03122E-01 3.60825E-13-3.66024E-13
 -1      2214 1.93354E+01 3.46891E+00 2.71627E-03 4.63167E-01 3.33375E-13-3.58807E-13
 -1      2215 1.98788E+01 3.24267E+00-1.50975E-02 1.00985E+00 4.76876E-13-1.93516E-13
 -1      2216 1.96527E+01 3.41641E+00-1.71749E-02 8.49933E-01 4.31802E-13-2.72513E-13
 -1      2217 1.96900E+01 3.16222E+00 3.75717E-03 6.47804E-01 4.02286E-13-2.56558E-13
 -1      2218 2.04077E+01 2.68537E+00-2.49936E-02 1.28804E+00 5.16702E-13-2.50043E-14
 -1      2219 2.01310E+01 2.96069E+00-1.96224E-02 1.12086E+00 4.81325E-13-1.23623E-13
 -1      2220 2.01516E+01 2.70657E+00 6.68819E-03 8.43473E-01 4.49065E-13-1.35655E-13
 -1      2221 2.08361E+01 4.08589E-01 1.05182E-02-3.46659E-01 2.58523E-13 2.77103E-13
 -1      2222 2.08489E+01 4.86471E-01 2.02382E-02-1.30657E-01 2.89243E-13 3.24988E-13
 -1      2223 2.08444E+01 7.84054E-01-4.54083E-03 7.14542E-02 3.54512E-13 1.91271E-13
 -1      2224 2.09145E+01 9.07593E-01 1.37001E-02-5.61109E-01-3.04046E-13-1.43972E-13
 -1      2225 2.07813E+01 6.87407E-01-2.97087E-03-2.26160E-01-2.63836E-13-1.53208E-13
 -1      2226 3.06168E+01-1.77693E+00-1.26667E-01 8.66463E-01 5.18923E-13-3.08920E-13
 -1      2227 2.85817E+01-3.50442E+00-5.66120E-02 2.20932E+00 2.81566E-13-1.34892E-13
 -1      2228 2.07755E+01 5.38495E-01 1.78762E-02 1.65011E-02-2.34168E-13-1.26424E-13
 -1      2229 2.07216E+01 4.16776E-01 2.17124E-03 2.17680E-01-1.91854E-13-1.41838E-13
 -1      2230 2.07416E+01 8.14417E-01-9.80275E-03-1.51226E-01-2.57109E-13-2.03718E-13
 -1      2231 2.07287E+01 3.24540E-01 1.15514E-02 3.88629E-01-1.78018E-13-1.20251E-13
 -1      2232 2.07532E+01 2.41493E-01 1.52808E-03 5.07872E-01-1.50025E-13-1.51649E-13
 -1      2233 2.07042E+01 5.05271E-01-5.69911E-03 3.01542E-01-1.98401E-13-1.83921E-13
 -1      2234 2.07964E+01 1.73169E-01 7.70484E-03 6.14447E-01-1.33205E-13-1.42792E-13
 -1      2235 2.08728E+01 1.01866E-01-1.19352E-04 6.75561E-01-1.16198E-13-1.44853E-13
 -1      2236 2.07411E+01 2.82984E-01-5.58598E-03 6.02214E-01-1.57755E-13-1.61046E-13
 -1      2237 2.09557E+01 3.54743E-02 5.74111E-03 7.25470E-01-1.05343E-13-1.47677E-13
 -1      2238 2.10621E+01-4.02943E-02-2.59080E-03 7.32858E-01-1.14495E-13-1.62668E-13
 -1      2239 2.08561E+01 9.54497E-02-5.31673E-03 7.76672E-01-1.30307E-13-1.76839E-13
 -1      2240 2.11830E+01-1.15250E-01 4.94996E-03 7.23606E-01-1.21173E-13-1.55505E-13
 -1      2241 2.12993E+01-2.03124E-01-5.77780E-03 6.73082E-01-8.69160E-14-1.71530E-13
 -1      2242 2.10471E+01-1.00326E-01-5.00668E-03 8.29794E-01-1.13749E-13-1.56962E-13
 -1      2243 2.14538E+01-2.89143E-01 4.63749E-03 5.95961E-01-3.88897E-14-1.76281E-13
 -1      2244 2.15595E+01-3.86788E-01-9.25555E-03 4.80937E-01-5.33328E-14-1.87070E-13
 -1      2245 2.13061E+01-3.22991E-01-4.61077E-03 7.50962E-01-7.78172E-14-1.40998E-13
 -1      2246 2.17368E+01-4.75242E-01 4.01151E-03 3.26511E-01-1.00747E-13-1.66429E-13
 -1      2247 2.18102E+01-5.65452E-01-1.19523E-02 1.46019E-01-1.43149E-13-1.78819E-13
 -1      2248 2.16189E+01-5.65419E-01-3.60395E-03 5.21256E-01-8.30449E-14-2.18077E-13
 -1      2249 2.19860E+01-6.31774E-01 1.97653E-03-8.56972E-02-1.23726E-13-1.51484E-13
 -1      2250 2.20052E+01-6.78229E-01-1.20481E-02-3.15840E-01-8.56433E-14-1.27022E-13
 -1      2251 2.19556E+01-7.82920E-01-1.06156E-03 1.28616E-01-1.03990E-13-1.34399E-13
 -1      2252 2.21372E+01-6.80896E-01-2.53385E-03-5.99265E-01-6.94592E-14-1.01667E-13
 -1      2253 2.20865E+01-6.33002E-01-7.26100E-03-8.34385E-01-5.78938E-14-1.42863E-13
 -1      2254 2.22582E+01-8.84535E-01 3.52442E-03-4.05800E-01-8.65366E-14-9.42189E-14
 -1      2255 2.21202E+01-5.25753E-01-8.97818E-03-1.10078E+00-7.66904E-14-1.42944E-13
 -1      2256 2.20007E+01-3.44605E-01 3.18697E-03-1.26283E+00-1.11837E-13-1.02400E-13
 -1      2257 2.24388E+01-7.48213E-01 9.23431E-03-9.91110E-01-9.65481E-14-9.61225E-14
 -1      2258 2.19015E+01-1.11878E-01-1.48251E-02-1.39951E+00-1.37417E-13-1.51656E-13
 -1      2259 2.17430E+01 1.84024E-01 1.53423E-02-1.39738E+00-1.57427E-13-1.63453E-13
 -1      2260 2.24102E+01-2.86253E-01 1.22968E-02-1.43990E+00-1.26245E-13-8.14625E-14
 -1      2261 2.15458E+01 4.84947E-01-1.45541E-02-1.29113E+00-2.00765E-13-1.91167E-13
 -1      2262 2.14056E+01 7.86171E-01 2.07194E-02-1.07233E+00-2.31913E-13-1.95410E-13
 -1      2263 2.21610E+01 4.42202E-01 6.95313E-03-1.50319E+00-2.04792E-13-1.05771E-13
 -1      2264 2.12332E+01 1.01704E+00-5.32759E-03-7.00231E-01-2.64073E-13-2.05241E-13
 -1      2265 2.11739E+01 1.16560E+00 1.30464E-02-3.13157E-01-2.78418E-13-2.02770E-13
 -1      2266 2.18293E+01 1.16707E+00-5.98271E-03-1.01208E+00-2.39938E-13-1.37764E-13
 -1      2267 2.11559E+01 1.19768E+00 9.74449E-03 1.94204E-01-2.56411E-13-2.63225E-13
 -1      2268 2.12065E+01 1.10536E+00-2.43674E-03 6.05223E-01-1.99611E-13-2.20765E-13
 -1      2269 2.16546E+01 1.52216E+00-1.50708E-02-6.81816E-02-3.09246E-13-1.29507E-13
 -1      2270 2.13647E+01 9.13059E-01 1.88568E-02 1.02850E+00-1.61539E-13-2.51941E-13
 -1      2271 2.15102E+01 6.37718E-01-1.35420E-02 1.29801E+00-9.56171E-14-3.07703E-13
 -1      2272 2.17860E+01 1.31429E+00-6.02139E-03 9.32356E-01-2.09661E-13-1.80461E-13
 -1      2273 2.17237E+01 3.42869E-01 1.66400E-02 1.47485E+00-1.18206E-13-3.66792E-13
 -1      2274 2.19036E+01 3.53997E-02-1.54457E-02 1.53153E+00-5.84836E-14-4.33554E-13
 -1      2275 2.21205E+01 6.39180E-01 2.15815E-03 1.55918E+00-1.51788E-13-2.54314E-13
 -1      2276 2.20424E+01-2.19445E-01 5.70407E-03 1.45017E+00-6.13940E-15-4.74334E-13
 -1      2277 2.21963E+01-4.29764E-01-1.00781E-02 1.32611E+00 2.94066E-14-4.67806E-13
 -1      2278 2.24275E+01-1.08035E-01 1.18082E-02 1.62972E+00-6.73840E-14-3.73878E-13
 -1      2279 2.22027E+01-5.65772E-01-5.55980E-03 1.08719E+00 1.07455E-13-4.79203E-13
 -1      2280 2.22933E+01-6.41850E-01-3.56412E-03 8.69209E-01 1.47168E-13-5.14063E-13
 -1      2281 2.25328E+01-6.40733E-01 1.03940E-02 1.26453E+00 8.19451E-14-3.68940E-13
 -1      2282 2.21898E+01-6.61631E-01-1.17286E-02 5.89889E-01 1.53640E-13-5.26984E-13
 -1      2283 2.22094E+01-6.33797E-01 1.33325E-03 3.60654E-01 1.17239E-13-4.13344E-13
 -1      2284 2.24162E+01-8.47320E-01 5.05042E-03 7.07655E-01 1.12595E-13-4.27042E-13
 -1      2285 2.20480E+01-5.80666E-01-1.26287E-02 1.19096E-01 1.11670E-13-3.36759E-13
 -1      2286 2.20080E+01-5.00452E-01 3.57468E-03-7.04493E-02 1.28444E-13-3.21272E-13
 -1      2287 2.21533E+01-7.94356E-01 2.51033E-04 1.63471E-01 1.49105E-13-2.75816E-13
 -1      2288 2.18336E+01-4.19490E-01-1.04029E-02-2.42157E-01 1.59452E-13-2.87699E-13
 -1      2289 2.17524E+01-3.28641E-01 3.92273E-03-3.72793E-01 1.69924E-13-2.82783E-13
 -1      2290 2.18330E+01-6.04735E-01-2.34757E-03-2.60039E-01 1.72017E-13-1.53284E-13
 -1      2291 2.15909E+01-2.49921E-01-7.08827E-03-4.73593E-01 4.97755E-14-3.57700E-13
 -1      2292 2.14863E+01-1.71778E-01 3.32770E-03-5.47019E-01 5.91671E-14-4.21882E-13
 -1      2293 2.15166E+01-3.82535E-01-3.13094E-03-5.34795E-01 3.52906E-14-2.89491E-13
 -1      2294 2.13476E+01-1.09316E-01-3.92019E-03-5.90200E-01 7.73049E-14-4.17759E-13
 -1      2295 2.12337E+01-5.21949E-02 2.47495E-03-6.17936E-01 3.98732E-14-3.25318E-13
 -1      2296 2.12336E+01-1.87728E-01-2.97464E-03-6.76857E-01 1.70921E-14-3.95022E-13
 -1      2297 2.11188E+01-9.12539E-03-1.41273E-03-6.20338E-01 1.26142E-13-2.30235E-13
 -1      2298 2.10057E+01 2.73513E-02 1.70827E-03-6.16242E-01 1.48629E-13-1.53679E-13
 -1      2299 2.09924E+01-4.30501E-02-2.51250E-03-7.18490E-01 1.58299E-13-3.24939E-13
 -1      2300 2.09121E+01 5.33161E-02 3.32957E-04-5.93070E-01 2.71279E-14-1.69569E-13
 -1      2301 2.08065E+01 7.31705E-02 1.12830E-03-5.69548E-01 4.07610E-14-1.20634E-13
 -1      2302 2.07913E+01 5.09763E-02-2.04671E-03-6.92770E-01 1.06877E-13-2.79766E-13
 -1      2303 2.07307E+01 8.61642E-02 1.40299E-03-5.32640E-01 2.97108E-14-4.22142E-14
 -1      2304 2.06362E+01 9.41701E-02 7.30620E-04-4.99262E-01 1.09862E-15-5.82413E-14
 -1      2305 2.06255E+01 1.03514E-01-1.67610E-03-6.27308E-01 6.06519E-14-1.82154E-13
 -1      2306 2.05752E+01 9.83105E-02 1.95063E-03-4.56976E-01-1.36493E-13-1.41423E-13
 -1      2307 2.04937E+01 9.86701E-02 4.74162E-04-4.20391E-01-1.81271E-13-1.83011E-13
 -1      2308 2.04895E+01 1.26052E-01-1.40143E-03-5.42663E-01-1.24160E-13-9.38060E-14
 -1      2309 2.04447E+01 9.73243E-02 2.13160E-03-3.78146E-01-7.74696E-14-9.30169E-14
 -1      2310 2.03764E+01 9.32554E-02 3.15051E-04-3.42558E-01-4.78079E-16 8.19417E-14
 -1      2311 2.03787E+01 1.28939E-01-1.19481E-03-4.52879E-01-6.82447E-14 1.88027E-15
 -1      2312 2.03373E+01 8.88922E-02 2.07738E-03-3.03537E-01-5.98095E-14 8.28466E-14
 -1      2313 2.02816E+01 8.26489E-02 2.18356E-04-2.71307E-01-2.43439E-14 2.17559E-13
 -1      2314 2.02892E+01 1.20225E-01-1.02904E-03-3.66750E-01 1.91830E-14 1.87788E-13
 -1      2315 2.02507E+01 7.69439E-02 1.88803E-03-2.37114E-01 8.72349E-16 1.74767E-13
 -1      2316 2.02063E+01 6.99937E-02 1.59733E-04-2.09330E-01 3.46651E-14 1.38585E-13
 -1      2317 2.02174E+01 1.05620E-01-8.86219E-04-2.89185E-01-1.30663E-15 1.87487E-13
 -1      2318 2.01822E+01 6.40059E-02 1.63430E-03-1.80516E-01 6.81359E-14 4.52693E-15
 -1      2319 2.01476E+01 5.72317E-02 1.23287E-04-1.57441E-01 4.28964E-14 5.96095E-14
 -1      2320 2.01607E+01 8.88886E-02-7.57669E-04-2.22398E-01-1.59239E-14 1.65751E-13
 -1      2321 2.01291E+01 5.15752E-02 1.36296E-03-1.33906E-01 1.24064E-13 8.30197E-14
 -1      2322 2.01027E+01 4.54528E-02 9.92919E-05-1.15315E-01 1.48787E-13 1.65569E-13
 -1      2323 2.01164E+01 7.23300E-02-6.40201E-04-1.66851E-01 1.04849E-13 1.78677E-13
 -1      2324 2.00886E+01 4.04403E-02 1.10249E-03-9.65968E-02 1.91710E-13 2.36383E-13
 -1      2325 2.00690E+01 3.51791E-02 8.22475E-05-8.20071E-02 2.35578E-13 3.98134E-13
 -1      2326 2.00823E+01 5.72130E-02-5.33068E-04-1.21954E-01 2.34371E-13 1.87570E-13
 -1      2327 2.00585E+01 3.09309E-02 8.68254E-04-6.74725E-02 1.72280E-13 4.27113E-13
 -1      2328 2.00443E+01 2.65766E-02 6.91926E-05-5.62957E-02 1.37027E-13 5.42331E-13
 -1      2329 2.00566E+01 4.41233E-02-4.36697E-04-8.65630E-02 2.09099E-13 4.18850E-13
 -1      2330 2.00366E+01 2.30974E-02 6.66969E-04-4.52639E-02-5.70070E-14 4.66935E-13
 -1      2331 2.00267E+01 1.96017E-02 5.85532E-05-3.68994E-02-8.29659E-14 2.42465E-13
 -1      2332 2.00375E+01 3.32213E-02-3.51741E-04-5.93032E-02-2.26128E-15 4.18183E-13
 -1      2333 2.00212E+01 1.68317E-02 4.99937E-04-2.87140E-02 7.36991E-14 1.68414E-13
 -1      2334 2.00144E+01 1.40975E-02 4.94597E-05-2.26019E-02 8.38567E-15 2.75808E-13
 -1      2335 2.00237E+01 2.44189E-02-2.78427E-04-3.87708E-02-9.31162E-14 3.26899E-13
 -1      2336 2.00106E+01 1.19454E-02 3.65275E-04-1.66719E-02-2.19391E-13 2.04475E-13
 -1      2337 2.00063E+01 9.85564E-03 4.13500E-05-1.23205E-02-2.95310E-13 3.00849E-13
 -1      2338 2.00139E+01 1.74965E-02-2.16418E-04-2.36544E-02-1.22161E-13 2.98630E-13
 -1      2339 2.00038E+01 8.21841E-03 2.59440E-04-8.13883E-03-1.74359E-13 3.27143E-13
 -1      2340 2.00012E+01 6.65239E-03 3.37506E-05-5.13535E-03-4.06945E-14 3.51940E-13
 -1      2341 2.00073E+01 1.21759E-02-1.64932E-04-1.27967E-02-1.81856E-13 5.15915E-13
 -1      2342 1.99996E+01 5.42717E-03 1.78227E-04-2.28409E-03-1.57597E-13 3.50531E-13
 -1      2343 1.99983E+01 4.26960E-03 2.61768E-05-2.96055E-04-1.53886E-13 3.85785E-13
 -1      2344 2.00029E+01 8.16428E-03-1.22891E-04-5.22096E-03-1.16759E-13 4.34452E-13
 -1      2345 1.99974E+01 3.35923E-03 1.17428E-04 1.55584E-03-1.20460E-13 3.52435E-13
 -1      2346 1.99969E+01 2.50393E-03 1.81460E-05 2.78475E-03-2.38665E-14 1.99906E-13
 -1      2347 2.00003E+01 5.17861E-03-8.90955E-05-1.34588E-04-2.33848E-13 4.06597E-13
 -1      2348 1.99965E+01 1.81880E-03 7.32414E-05 3.88837E-03 5.01839E-14 1.54742E-13
 -1      2349 1.99966E+01 1.16855E-03 9.03677E-06 4.54470E-03 2.01990E-13 2.10135E-13
 -1      2350 1.99989E+01 2.95625E-03-6.23648E-05 3.08011E-03-8.05809E-14 5.06325E-13
 -1      2351 1.99965E+01 6.25452E-04 4.23867E-05 5.07841E-03 3.93312E-13 1.37613E-13
 -1      2352 1.99969E+01 9.49939E-05 2.78105E-07 5.28475E-03 2.98886E-13 2.59231E-13
 -1      2353 1.99983E+01 1.25517E-03-4.19866E-05 4.88229E-03 2.49120E-13 4.74663E-13
 -1      2354 1.99970E+01-3.93940E-04 1.84245E-05 5.36948E-03 2.06937E-13 2.71826E-13
 -1      2355 1.99976E+01-8.58006E-04-5.55482E-06 5.18941E-03 1.57430E-13 3.16355E-13
 -1      2356 1.99982E+01-1.30694E-04-2.58447E-05 5.59025E-03 2.58602E-13 3.16426E-13
 -1      2357 2.11880E+01 2.68750E-01 8.27534E-03-1.02875E+00 1.04912E-13 1.31466E-13
 -1      2358 2.09996E+01 2.91662E-01 7.55058E-03-8.97932E-01 1.59164E-13 1.90648E-13
 -1      2359 2.15537E+01 2.18397E-01 6.31648E-03-1.27960E+00 5.11915E-14 7.65393E-14
 -1      2360 2.12979E+01 2.45944E-01 4.64479E-03-1.17322E+00 8.04250E-14 9.88161E-14
 -1      2361 2.10275E+01 3.58554E-01-5.63758E-03-1.24542E+00 1.29442E-13 5.09759E-15
 -1      2362 2.20205E+01 1.29885E-01 2.70812E-03-1.46557E+00 1.13643E-13 4.08475E-14
 -1      2363 2.17145E+01 1.82336E-01 3.39711E-03-1.39479E+00 6.95068E-14 7.53169E-14
 -1      2364 2.12967E+01 2.74508E-01-5.84369E-03-1.52915E+00 9.31595E-14-3.67752E-14
 -1      2365 2.25760E+01-4.13301E-02-3.51160E-03-1.54061E+00 1.11586E-13 7.12408E-14
 -1      2366 2.22396E+01 6.01168E-02 3.61483E-03-1.53429E+00 1.10239E-13 5.71565E-14
 -1      2367 2.16679E+01 1.23890E-01-7.34895E-03-1.73496E+00 9.73179E-14-8.61377E-14
 -1      2368 2.32110E+01-3.40000E-01-1.27291E-02-1.42046E+00 2.68756E-14 1.23054E-13
 -1      2369 2.28718E+01-1.67549E-01 5.46977E-03-1.52535E+00 8.56034E-14 1.09186E-13
 -1      2370 2.21619E+01-1.55652E-01-1.07464E-02-1.80950E+00 6.39232E-14-5.34521E-14
 -1      2371 2.39095E+01-7.76569E-01-2.38714E-02-9.90807E-01-7.49956E-14 1.57475E-13
 -1      2372 2.36097E+01-5.35957E-01 8.80660E-03-1.26135E+00-1.95581E-14 1.49950E-13
 -1      2373 2.28201E+01-6.17192E-01-1.56115E-02-1.65652E+00-3.89055E-15 5.25378E-14
 -1      2374 2.46209E+01-1.24679E+00-3.28870E-02-1.52900E-01-1.55447E-13 2.05185E-13
 -1      2375 2.44220E+01-1.01420E+00 1.05270E-02-6.16480E-01-1.32725E-13 2.05537E-13
 -1      2376 2.36859E+01-1.24246E+00-1.93957E-02-1.14167E+00-1.13301E-13 9.12165E-14
 -1      2377 2.52097E+01-1.43196E+00-3.22851E-02 1.05028E+00-2.12590E-14 2.45404E-13
 -1      2378 2.51884E+01-1.40318E+00 3.15467E-03 4.66826E-01-1.05837E-13 2.36993E-13
 -1      2379 2.47376E+01-1.82328E+00-1.88988E-02-1.46967E-01-1.42044E-13 1.31229E-13
 -1      2380 2.54352E+01-8.32847E-01-1.42952E-02 2.22051E+00 4.35069E-14 3.37424E-13
 -1      2381 2.56370E+01-1.25901E+00-2.26992E-02 1.78106E+00 7.19693E-15 3.18670E-13
 -1      2382 2.57660E+01-1.84553E+00-1.60730E-02 1.27540E+00-4.67747E-14 2.95288E-13
 -1      2383 2.51378E+01 6.96939E-01-6.85489E-04 2.53478E+00 2.94181E-13 4.06159E-13
 -1      2384 2.54855E+01-1.69738E-01-6.26065E-02 2.61752E+00 1.63923E-13 4.27894E-13
 -1      2385 2.63477E+01-6.52485E-01-2.08189E-02 2.56628E+00 7.43502E-14 3.71893E-13
 -1      2386 2.46205E+01 2.24750E+00-2.27069E-02 1.27500E+00 4.35055E-13 2.27164E-13
 -1      2387 2.48440E+01 1.55857E+00-9.06920E-02 2.03605E+00 3.89078E-13 3.87759E-13
 -1      2388 2.62035E+01 1.59577E+00-4.28176E-02 2.62008E+00 3.85483E-13 3.96568E-13
 -1      2389 2.45813E+01 2.37203E+00-6.79260E-02-9.81635E-01 4.22891E-13 9.34669E-15
 -1      2390 2.44759E+01 2.53965E+00-6.23020E-02 1.35650E-02 4.75127E-13 1.04183E-13
 -1      2391 2.58690E+01 3.32620E+00-7.02711E-02 7.91258E-01 5.41442E-13 2.89766E-13
 -1      2392 2.51465E+01 9.24534E-01-9.40190E-02-2.56071E+00 3.00683E-13-2.18953E-13
 -1      2393 2.48011E+01 1.76563E+00-2.65146E-02-2.03511E+00 3.75353E-13-1.07662E-13
 -1      2394 2.59931E+01 2.81624E+00-7.08722E-02-1.68711E+00 5.25760E-13 2.94660E-14
 -1      2395 2.57609E+01-6.91471E-01-3.09638E-02-2.55001E+00 9.23549E-14-4.19702E-13
 -1      2396 2.53880E+01 5.30053E-02-3.72479E-04-2.70125E+00 1.99171E-13-3.37940E-13
 -1      2397 2.63839E+01 7.20864E-01-1.87825E-02-3.00520E+00 3.06151E-13-2.70041E-13
 -1      2398 2.57420E+01-1.34870E+00 2.58355E-02-1.46110E+00-2.39730E-14-4.48478E-13
 -1      2399 2.55135E+01-1.14916E+00-1.95811E-02-1.93235E+00-1.64391E-14-4.42528E-13
 -1      2400 2.62547E+01-1.25169E+00-7.50195E-02-2.35880E+00 9.40151E-14-5.00702E-13
 -1      2401 2.51576E+01-1.24869E+00 3.10395E-02-1.67403E-01 3.35842E-15-3.76400E-13
 -1      2402 2.51601E+01-1.42396E+00-4.07458E-02-6.69124E-01 6.23408E-14-4.20608E-13
 -1      2403 2.54909E+01-2.08552E+00-1.05075E-01-8.98645E-01-1.23911E-14-4.89075E-13
 -1      2404 2.43691E+01-8.03843E-01 2.03729E-02 7.62577E-01 7.40285E-14-3.08690E-13
 -1      2405 2.45594E+01-1.07319E+00-3.28134E-02 4.03551E-01 5.46958E-15-3.32506E-13
 -1      2406 2.44359E+01-1.76830E+00-9.01726E-02 4.15725E-01-1.29237E-16-2.74289E-13
 -1      2407 2.36060E+01-3.66346E-01 9.24296E-03 1.24959E+00 8.73095E-14-1.57013E-13
 -1      2408 2.38954E+01-5.85288E-01-1.87745E-02 1.06230E+00 1.25974E-13-1.33073E-13
 -1      2409 2.34825E+01-1.07444E+00-6.02211E-02 1.22981E+00 2.44410E-14-1.15760E-13
 -1      2410 2.29413E+01-6.29588E-02 2.22281E-03 1.40163E+00-1.34867E-13-1.56832E-13
 -1      2411 2.32642E+01-1.98180E-01-6.89406E-03 1.34727E+00-1.18677E-14-4.52503E-14
 -1      2412 2.27401E+01-4.56039E-01-3.28625E-02 1.59276E+00-2.21218E-14 3.13019E-14
 -1      2413 2.23788E+01 1.05669E-01-1.08871E-03 1.35087E+00-1.69448E-13-1.53422E-13
 -1      2414 2.26960E+01 3.95403E-02 1.04849E-03 1.37817E+00-1.76778E-13-1.72384E-13
 -1      2415 2.21817E+01-4.74937E-02-1.46231E-02 1.65089E+00-1.04022E-13 1.15594E-14
 -1      2416 2.19054E+01 1.78721E-01-2.13553E-03 1.19922E+00-1.18665E-13-6.31264E-14
 -1      2417 2.21954E+01 1.57056E-01 5.51229E-03 1.26699E+00-1.58785E-13-1.64882E-13
 -1      2418 2.17519E+01 1.71012E-01-4.82781E-03 1.53627E+00-1.69981E-13-7.97424E-14
 -1      2419 2.15084E+01 1.95341E-01-2.07987E-03 1.01154E+00-1.26849E-14 6.93720E-14
 -1      2420 2.17614E+01 1.97970E-01 7.50599E-03 1.09308E+00-2.09763E-14 6.69300E-15
 -1      2421 2.14080E+01 2.60632E-01-5.58059E-04 1.34131E+00-4.15264E-14-4.02918E-14
 -1      2422 2.11782E+01 1.83270E-01-1.62243E-03 8.24082E-01-2.56846E-13-4.27349E-15
 -1      2423 2.13913E+01 1.97052E-01 7.92690E-03 9.04462E-01-1.56717E-13 3.29585E-14
 -1      2424 2.11248E+01 2.76149E-01 7.32394E-04 1.12276E+00-1.15667E-13-5.21398E-14
 -1      2425 2.09070E+01 1.59233E-01-1.10687E-03 6.54431E-01-2.98615E-14 9.90748E-14
 -1      2426 2.10815E+01 1.76685E-01 7.45752E-03 7.26543E-01-1.63203E-13 8.95978E-14
 -1      2427 2.08891E+01 2.54971E-01 6.89608E-04 9.11884E-01-2.44914E-13-1.43127E-13
 -1      2428 2.06873E+01 1.32237E-01-6.68979E-04 5.09263E-01 8.46632E-14 2.43544E-13
 -1      2429 2.08272E+01 1.49552E-01 6.56367E-03 5.70554E-01 1.30608E-13 2.17527E-13
 -1      2430 2.06933E+01 2.19207E-01 2.11049E-04 7.23636E-01-8.97808E-14-4.87767E-14
 -1      2431 2.05121E+01 1.06621E-01-3.42909E-04 3.89415E-01-3.22621E-14 1.15649E-13
 -1      2432 2.06221E+01 1.22119E-01 5.53276E-03 4.39735E-01 1.05613E-13 2.68747E-13
 -1      2433 2.05324E+01 1.80567E-01-2.87443E-04 5.63351E-01 5.08808E-14 1.92104E-13
 -1      2434 2.03746E+01 8.41596E-02-1.20312E-04 2.92929E-01-1.38263E-13 3.63252E-14
 -1      2435 2.04595E+01 9.72876E-02 4.52456E-03 3.33246E-01-1.44424E-13 7.61285E-14
 -1      2436 2.04021E+01 1.44577E-01-6.54468E-04 4.31159E-01-7.62980E-14 1.45573E-13
 -1      2437 2.02683E+01 6.53223E-02 2.04603E-05 2.16731E-01-1.83609E-13 1.12876E-13
 -1      2438 2.03328E+01 7.60721E-02 3.61644E-03 2.48435E-01-1.07148E-13 1.39621E-13
 -1      2439 2.02982E+01 1.13392E-01-8.65048E-04 3.24657E-01-2.43267E-13 2.03245E-13
 -1      2440 2.01875E+01 4.99654E-02 1.01570E-04 1.57513E-01 6.50443E-14 1.56694E-13
 -1      2441 2.02357E+01 5.85671E-02 2.83744E-03 1.82056E-01-1.85735E-13 9.07205E-14
 -1      2442 2.02168E+01 8.74709E-02-9.44856E-04 2.40430E-01-1.77280E-13 2.26887E-13
 -1      2443 2.01272E+01 3.76929E-02 1.41616E-04 1.12152E-01 3.16288E-13 2.69850E-13
 -1      2444 2.01626E+01 4.44582E-02 2.19062E-03 1.30881E-01 3.06461E-13 1.49772E-13
 -1      2445 2.01540E+01 6.64981E-02-9.32023E-04 1.74865E-01 1.42223E-13 1.46410E-13
 -1      2446 2.00829E+01 2.80359E-02 1.55126E-04 7.78894E-02 3.70416E-13 1.60247E-13
 -1      2447 2.01084E+01 3.32815E-02 1.66594E-03 9.19823E-02 3.60992E-13 2.84657E-13
 -1      2448 2.01065E+01 4.98518E-02-8.61423E-04 1.24561E-01 3.51267E-13 8.51299E-15
 -1      2449 2.00512E+01 2.05383E-02 1.52630E-04 5.23820E-02 2.36411E-13-1.00984E-13
 -1      2450 2.00691E+01 2.45523E-02 1.24787E-03 6.28323E-02 3.66780E-13 1.04613E-13
 -1      2451 2.00712E+01 3.68370E-02-7.60431E-04 8.65125E-02 4.55326E-13-9.96087E-14
 -1      2452 2.00290E+01 1.47916E-02 1.41254E-04 3.36874E-02-9.99450E-14-1.59267E-13
 -1      2453 2.00412E+01 1.78226E-02 9.19687E-04 4.13143E-02 5.13517E-15-6.03613E-14
 -1      2454 2.00455E+01 2.67948E-02-6.48433E-04 5.81536E-02 1.43081E-13 4.42946E-14
 -1      2455 2.00141E+01 1.04442E-02 1.25575E-04 2.02245E-02-7.44427E-14 7.19550E-14
 -1      2456 2.00220E+01 1.27008E-02 6.65568E-04 2.56916E-02-3.30412E-14-2.49208E-14
 -1      2457 2.00273E+01 1.91449E-02-5.37743E-04 3.73499E-02-1.20808E-13 2.85901E-13
 -1      2458 2.00044E+01 7.19956E-03 1.08331E-04 1.07257E-02-3.42676E-13 2.33885E-13
 -1      2459 2.00093E+01 8.85451E-03 4.71401E-04 1.45623E-02-3.37891E-13 1.00435E-13
 -1      2460 2.00147E+01 1.33936E-02-4.35335E-04 2.23579E-02-2.03178E-13 2.61007E-13
 -1      2461 1.99986E+01 4.80954E-03 9.09602E-05 4.19138E-03-1.51450E-13 3.82890E-13
 -1      2462 2.00014E+01 6.00494E-03 3.25043E-04 6.81285E-03-2.02659E-13 1.83208E-13
 -1      2463 2.00064E+01 9.12779E-03-3.44544E-04 1.17765E-02-2.67107E-13 3.48761E-13
 -1      2464 1.99956E+01 3.06712E-03 7.40121E-05-1.51867E-04 1.12647E-13 4.25794E-13
 -1      2465 1.99968E+01 3.91994E-03 2.16313E-04 1.57331E-03-1.95055E-15 4.06562E-13
 -1      2466 2.00013E+01 6.00460E-03-2.66318E-04 4.49978E-03-4.34501E-14 4.29500E-13
 -1      2467 1.99944E+01 1.79815E-03 5.75372E-05-2.88704E-03 2.29229E-13 4.66840E-13
 -1      2468 1.99946E+01 2.40554E-03 1.36865E-04-1.82088E-03 2.47651E-13 5.83847E-13
 -1      2469 1.99983E+01 3.73938E-03-2.00100E-04-3.28028E-04 1.55417E-13 5.81027E-13
 -1      2470 1.99944E+01 8.48161E-04 3.73301E-05-4.43529E-03 1.19898E-13 3.75088E-13
 -1      2471 1.99940E+01 1.29511E-03 7.96952E-05-3.86083E-03 1.80023E-13 3.87334E-13
 -1      2472 1.99969E+01 2.09286E-03-1.44427E-04-3.35212E-03 2.46037E-13 3.75808E-13
 -1      2473 1.99952E+01 1.07643E-04 1.71751E-05-5.07380E-03-1.81748E-13 3.93891E-13
 -1      2474 1.99944E+01 4.69108E-04 4.46110E-05-4.87423E-03-1.77663E-13 3.99478E-13
 -1      2475 1.99966E+01 8.51082E-04-9.44287E-05-5.03207E-03 1.05815E-15 2.28728E-13
 -1      2476 1.99964E+01-5.69175E-04 2.32055E-06-4.99926E-03-2.73673E-13 6.47023E-13
 -1      2477 1.99954E+01-2.56120E-04 5.36192E-06-5.14023E-03-1.63447E-13 5.52732E-13
 -1      2478 1.99969E+01-2.22378E-05-4.55046E-05-5.60677E-03-2.60054E-13 1.17460E-13
 -1      2479 1.99976E+01-1.26789E-03-1.83684E-05-4.26850E-03-1.04610E-14 5.18626E-13
 -1      2480 1.99968E+01-9.08627E-04 7.22871E-08-4.70314E-03-9.86835E-14 5.98846E-13
 -1      2481 1.99976E+01-1.05088E-03-7.09783E-06-5.46348E-03-1.41301E-13 3.39438E-13
 -1      2482 1.99981E+01-1.61625E-03-5.83243E-06-3.60913E-03 5.66427E-14 4.10130E-13
 -1      2483 2.00013E+01-5.30168E-03 1.07696E-05-3.36316E-03-1.78156E-13 2.88291E-13
 -1      2484 2.00011E+01-4.83298E-03 9.03413E-06-3.83984E-03-3.66424E-14 4.13821E-14
 -1      2485 2.00015E+01-5.74190E-03 1.17237E-05-2.19001E-03-7.39966E-15 5.81795E-13
 -1      2486 2.00014E+01-5.41562E-03 1.77646E-05-2.76308E-03-1.83047E-13 5.24641E-13
 -1      2487 2.00018E+01-3.66332E-03-3.04980E-06-3.29117E-03-4.17507E-14 2.82170E-13
 -1      2488 2.00001E+01-3.72938E-03 1.04820E-05-4.85858E-03-4.55235E-14-3.12521E-13
 -1      2489 1.99996E+01-3.03847E-03-1.33064E-05-4.89091E-03-7.38618E-15-5.64478E-13
 -1      2490 2.00008E+01-4.61103E-03 1.61808E-05-4.29698E-03-8.92834E-14 2.38676E-13
 -1      2491 2.00005E+01-4.04849E-03-1.67201E-06-4.59543E-03-1.05481E-13 1.09326E-13
 -1      2492 2.00005E+01-2.90900E-03-1.55756E-05-5.16464E-03 6.12526E-14-1.94277E-13
 -1      2493 2.00013E+01-3.33236E-03 4.82855E-06-4.42023E-03-5.21972E-14 1.31443E-13
 -1      2494 2.00016E+01-5.94952E-03 1.36825E-05-9.19427E-04-1.02176E-13-1.07176E-13
 -1      2495 2.00015E+01-5.78925E-03 1.88217E-05-1.53412E-03-1.29655E-14 2.23222E-13
 -1      2496 2.00020E+01-3.81319E-03-4.25656E-07-1.98987E-03-7.81846E-14 3.72313E-13
 -1      2497 2.00016E+01-5.94299E-03 1.61221E-05 3.75719E-04-1.28284E-13 2.84072E-14
 -1      2498 2.00016E+01-5.95373E-03 1.71093E-05-2.46485E-04-1.92781E-13 7.74502E-14
 -1      2499 2.00021E+01-3.86279E-03 1.28233E-06-6.17563E-04-5.29421E-14 1.54416E-15
 -1      2500 2.00015E+01-5.73415E-03 1.76486E-05 1.64604E-03-2.66158E-13-3.73484E-13
 -1      2501 2.00015E+01-5.91373E-03 1.41422E-05 1.04209E-03-2.01751E-13-6.84904E-14
 -1      2502 2.00021E+01-3.83901E-03 1.35125E-06 7.63968E-04-1.90694E-13-4.74409E-14
 -1      2503 2.00013E+01-5.33453E-03 1.62056E-05 2.81817E-03-6.59269E-14-3.66081E-13
 -1      2504 2.00014E+01-5.66782E-03 1.14928E-05 2.27314E-03-1.13342E-13-4.15241E-13
 -1      2505 2.00020E+01-3.74618E-03 1.83360E-07 2.09854E-03-2.47149E-13-2.96528E-13
 -1      2506 2.00010E+01-4.73177E-03 1.03061E-05 3.84770E-03 7.99792E-14-2.79733E-13
 -1      2507 2.00012E+01-5.20876E-03 1.03523E-05 3.39131E-03 3.56279E-14-4.04716E-13
 -1      2508 2.00017E+01-3.56471E-03-2.26220E-06 3.34072E-03-6.07477E-14-3.11033E-13
 -1      2509 2.00005E+01-3.93927E-03-2.24157E-06 4.57618E-03-7.01993E-14-1.83707E-13
 -1      2510 2.00008E+01-4.52075E-03 1.16145E-05 4.29227E-03 6.83905E-15-9.46752E-14
 -1      2511 2.00012E+01-3.24555E-03-4.27437E-07 4.40558E-03-1.79584E-14-2.77236E-13
 -1      2512 1.99996E+01-2.95739E-03-1.32668E-05 4.81036E-03-1.34734E-13-1.56009E-13
 -1      2513 2.00001E+01-3.61896E-03 9.10200E-06 4.80565E-03-2.96811E-14-1.88290E-13
 -1      2514 2.00004E+01-2.77046E-03-6.23224E-06 5.09539E-03-9.28998E-14-2.25760E-13
 -1      2515 4.72325E+00-2.74678E+00 1.07485E-01 2.97133E+00-6.70575E-14 8.29115E-13
 -1      2516 3.56512E+00-2.46927E+00 1.13256E-01 6.26670E-01-5.23036E-14 8.69138E-13
 -1      2517 1.81019E+01-5.64312E+00-4.44588E-02 6.43316E+00 5.08482E-14 2.25132E-13
 -1      2518 1.45047E+01-5.42230E+00 5.80565E-02 6.40976E+00 7.43849E-15 4.08007E-13
 -1      2519 2.09411E+01 3.18883E-01 9.54251E-03-7.24613E-01 2.07169E-13 2.15476E-13
 -1      2520 2.08398E+01 3.56260E-01 1.27584E-02-5.63962E-01 2.26554E-13 2.49151E-13
 -1      2521 2.08581E+01 4.31069E-01-5.85515E-03-9.00063E-01 2.18051E-13 6.47355E-14
 -1      2522 1.99987E+01-2.33080E-03 1.35031E-07 4.12847E-03 4.70909E-14 2.27288E-13
 -1      2523 3.34351E+00-2.75664E+00 7.40158E-02-1.66959E+00 1.10280E-13 8.86624E-13
 -1      2524 4.65663E+00-3.00747E+00 6.85612E-02-3.92283E+00 1.49575E-13 8.37441E-13
 -1      2525 2.09300E+01 1.98067E+00-1.15391E-02-1.49348E+00-3.93458E-13-2.37449E-13
 -1      2526 2.08754E+01 1.25579E+00-4.39194E-03-8.65151E-01-3.57527E-13-1.86961E-13
 -1      2527 2.07692E+01 1.44038E+00 2.06909E-03-7.55163E-01-3.11701E-13-2.44052E-13
 -1      2528 2.05965E+01 2.43141E+00-6.21165E-03-1.40988E+00-3.68732E-13-3.23359E-13
 -1      2529 7.36149E+00-3.95027E+00 7.86351E-02-5.69211E+00 2.59598E-13 1.04200E-12
 -1      2530 1.04463E+01-4.66228E+00 2.32895E-02-6.89825E+00 2.15217E-13 1.04633E-12
 -1      2531 5.80560E+00-3.19615E+00 1.16828E-01-3.99475E+00-2.12913E-13-7.99028E-13
 -1      2532 8.36050E+00-4.02959E+00 7.57430E-02-5.75191E+00-2.39003E-13-7.41462E-13
 -1      2533 3.27712E+01 4.09448E+00-1.24540E-01 1.34298E+00 6.91003E-13 7.40519E-14
 -1      2534 3.39701E+01 5.85056E+00-5.08027E-02 1.05051E+00 8.66307E-13 2.80331E-14
 -1      2535 1.89497E+01 3.96298E+00-9.87228E-03-8.37754E-02 1.05215E-13-4.94573E-13
 -1      2536 1.90188E+01 3.92529E+00-6.84180E-03-2.04256E-01 4.41902E-14-5.07341E-13
 -1      2537 1.91816E+01 3.56921E+00 8.76739E-04-1.93399E-01 2.61885E-14-4.68589E-13
 -1      2538 1.90347E+01 3.69037E+00 1.17527E-03-1.18062E-02 1.14861E-13-4.60370E-13
 -1      2539 3.39292E+01 6.73968E+00-9.29486E-02 6.74691E-01 9.41580E-13-5.71487E-14
 -1      2540 3.37674E+01 7.24851E+00-1.04169E-01 7.39741E-02 1.00359E-12-4.44089E-14
 -1      2541 3.15288E+01 5.77438E+00-6.65720E-02 1.40352E+00 8.10851E-13 2.30899E-13
 -1      2542 2.64015E+01-4.78455E+00 2.47943E-02-3.37087E+00-1.68004E-13-3.50386E-13
 -1      2543 2.87109E+01-3.71908E+00-9.41967E-02-2.35970E+00-5.59830E-14-3.80307E-13
 -1      2544 1.86366E+01-5.83462E+00 3.83170E-02-6.17244E+00-2.92710E-13-4.70471E-13
 -1      2545 2.29784E+01-5.59490E+00-5.34218E-02-5.36609E+00-2.23099E-13-4.01443E-13
 -1      2546 1.16062E+01-4.83191E+00 7.24622E-02-6.37985E+00-3.03563E-13-6.00076E-13
 -1      2547 1.47754E+01-5.30091E+00 1.46501E-02-6.89623E+00-2.58682E-13-5.28938E-13
 -1      2548 2.15568E+01-5.29489E+00-3.55151E-02 6.01044E+00-4.79616E-14 1.97925E-13
 -1      2549 1.79575E+01-5.51969E+00 5.61832E-02 6.60920E+00 3.29181E-14-3.69635E-14
 -1      2550 6.17085E+00-3.81966E+00 1.38520E-02 5.33280E+00 9.03722E-14-6.42653E-13
 -1      2551 4.28600E+00-3.47838E+00 8.00932E-02 3.53151E+00 1.14575E-13-6.77236E-13
 -1      2552 3.27010E+01 7.67685E+00-8.29958E-02 1.19579E-01-1.05732E-12 1.24394E-13
 -1      2553 3.16370E+01 7.31689E+00-1.54674E-01-3.60950E-01-1.01857E-12 2.00132E-13
 -1      2554 1.34856E+01-5.04365E+00-1.21681E-02 7.25418E+00 5.50116E-14-2.57377E-13
 -1      2555 9.66087E+00-4.55881E+00 8.42761E-02 6.41734E+00 1.25844E-13-4.61381E-13
 -1      2556 3.18882E+01 1.71555E+00-8.07441E-02 4.50773E-01-5.16545E-13 2.82274E-13
 -1      2557 3.03845E+01-1.37695E-01-5.03436E-02 1.20074E+00-4.03892E-13 2.66454E-13
 -1      2558 3.17187E+01 5.44867E+00-1.82392E-01-1.08985E+00-8.51097E-13 4.10449E-13
 -1      2559 3.21531E+01 3.62998E+00-4.42853E-02-5.31294E-01-6.84203E-13 3.29070E-13
 -1      2560 3.10178E+01 5.87153E+00-1.81127E-01 1.08101E+00-8.73579E-13 3.23630E-14
 -1      2561 3.23717E+01 7.10870E+00-8.21323E-02 5.86000E-01-1.00564E-12 8.50570E-14
 -1      2562 2.97022E+01 6.96705E+00-8.67121E-02 5.99240E-01-9.76691E-13-7.01592E-14
 -1      2563 3.08678E+01 1.12175E+00-3.04918E-02 1.27882E-01-5.67074E-13-4.44089E-16
 -1      2564 3.12741E+01 3.39808E+00-1.78174E-01 1.07084E+00-6.73739E-13-5.13478E-15
 -1      2565 2.76388E+01-2.86489E+00-4.07317E-03-2.96630E+00-2.44527E-13 3.03035E-13
 -1      2566 2.96107E+01-1.39947E+00-1.50225E-01-1.66071E+00-4.44388E-13-1.55431E-15
 -1      2567 2.16803E+01-5.14346E+00 3.65193E-02-5.63524E+00 1.08302E-13 6.43166E-13
 -1      2568 2.51023E+01-4.20241E+00-5.71628E-02-4.74992E+00-3.13638E-14 5.85254E-13
 -1      2569 2.65372E+01-4.09215E+00 4.35261E-02-3.06246E+00 9.86156E-14 2.67009E-13
 -1      2570 1.37469E+01-5.25057E+00 3.69226E-02-6.93646E+00 2.38587E-13 8.58209E-13
 -1      2571 1.75104E+01-5.29296E+00-3.53967E-02-6.98929E+00 1.70919E-13 8.00823E-13
 -1      2572 1.36834E+01-4.43656E+00 1.22612E-01-6.83378E+00 2.88713E-13 9.04957E-13
 -1      2573 3.23328E+01 2.31502E+00-1.82064E-01-1.61560E+00 7.25031E-13-3.97571E-13
 -1      2574 3.16569E+01 2.46765E-01-5.67850E-02-1.14982E+00 6.27026E-13-4.31821E-13
 -1      2575 2.10877E+01 9.23465E-01-2.55765E-03 7.97710E-01 4.27550E-13 4.43047E-13
 -1      2576 2.13449E+01 1.28225E+00-4.47584E-03 1.32215E+00 4.47347E-13 5.22570E-13
 -1      2577 2.11140E+01 1.75011E+00-1.54294E-02 1.47868E+00 4.98740E-13 3.61173E-13
 -1      2578 2.09802E+01 1.14892E+00-9.74219E-03 7.18339E-01 4.33870E-13 2.53517E-13
 -1      2579 2.59577E+01-4.82506E+00-7.89559E-02 4.10021E+00 1.60039E-13-1.09440E-13
 -1      2580 2.21514E+01-5.66488E+00 9.95492E-03 5.09478E+00 9.99756E-14 4.86833E-14
 -1      2581 2.74198E+01-4.66339E+00-8.74949E-03 2.36395E+00 9.42302E-15-3.21493E-13
 -1      2582 3.19267E+01 6.57896E+00-7.94796E-02-4.02022E-01 9.04110E-13-8.28990E-14
 -1      2583 1.97784E+01 3.05081E+00 3.38803E-03-6.46532E-01-1.58137E-13-4.80048E-13
 -1      2584 1.97168E+01 3.33281E+00-1.65758E-02-8.54860E-01-1.74331E-13-5.16451E-13
 -1      2585 1.99215E+01 3.18155E+00-1.51827E-02-1.03522E+00-2.44892E-13-4.94181E-13
 -1      2586 2.07967E+01 5.46548E-01-5.53749E-03-4.77031E-01 2.76296E-13 1.26093E-13
 -1      2587 2.08098E+01 2.18382E+00-1.30324E-02 1.40113E+00 4.98867E-13 1.63395E-13
 -1      2588 2.05624E+01-5.27768E+00 7.74080E-02-5.94399E+00 2.66370E-13 6.21600E-13
 -1      2589 7.70259E+00-2.67056E+00 1.44999E-01-4.86011E+00 2.73281E-13 9.70030E-13
 -1      2590 3.01925E+01 4.27062E+00-1.00781E-01 1.55862E+00-6.62748E-13 9.49241E-15
 -1      2591 2.83932E+01 4.74154E+00-1.27538E-01 1.88113E+00-6.97276E-13-9.20514E-14
 -1      2592 2.86526E+01 2.54695E+00-1.00094E-01 1.79499E+00-4.41092E-13-1.41290E-13
 -1      2593 1.35088E+01-4.52251E+00 1.27075E-01 6.39191E+00-1.08719E-13 4.04565E-13
 -1      2594 3.05949E+01 6.15193E+00-1.27196E-01-1.05432E+00-8.64447E-13 2.66426E-13
 -1      2595 2.89411E+01 4.73463E+00-1.32653E-01-1.54655E+00-7.11570E-13 2.52798E-13
 -1      2596 2.87014E+01 6.49042E+00-1.49487E-01-9.01651E-01-8.75189E-13 1.24220E-13
 -1      2597 1.99984E+01-1.94065E-03-1.58188E-05-4.46978E-03 3.11746E-14 4.22597E-13
 -1      2598 2.13697E+01-5.59265E+00 9.01838E-02 5.19120E+00-1.57568E-13-1.09475E-13
 -1      2599 1.99989E+01-2.44961E-03 4.18035E-06-4.75323E-03 1.04680E-14-8.86450E-14
 -1      2600 3.05331E+01 2.17071E+00-3.45950E-02-1.03959E+00-5.26079E-13 3.92436E-13
 -1      2601 5.35737E+00-1.41547E+00 1.72322E-01-4.54662E-01 8.45973E-14 8.55427E-13
 -1      2602 6.73029E+00-2.72486E+00 1.44432E-01 3.94926E+00-1.49242E-13 8.52568E-13
 -1      2603 7.41651E+00-1.23133E+00 1.56497E-01 2.99610E+00-2.09881E-13 8.24840E-13
 -1      2604 8.96325E+00-2.65596E+00 5.57001E-02 4.88930E+00-2.20879E-13 6.70797E-13
 -1      2605 1.70645E+01-4.95062E+00 1.28774E-01 6.66960E+00 2.02949E-13-5.27495E-14
 -1      2606 2.07750E+01 1.93536E+00 1.16319E-02 1.03893E+00 4.62473E-13 1.02786E-13
 -1      2607 2.03329E+01 2.69680E+00-1.23053E-02-1.23725E+00-3.10439E-13-4.04243E-13
 -1      2608 9.69618E+00-3.39064E+00 1.52460E-01 5.91694E+00 2.21934E-13-4.93883E-13
 -1      2609 5.53414E+00-2.41705E+00 1.49971E-01-2.87181E+00-1.22471E-13-7.17093E-13
 -1      2610 7.95473E+00-1.87944E+00 1.47281E-01-3.87590E+00-1.73500E-13-6.87506E-13
 -1      2611 5.48818E+00-1.44414E+00 1.18531E-01-1.52964E+00-2.37796E-14-6.15397E-13
 -1      2612 1.15775E+01-3.68390E+00 1.36602E-01-5.97746E+00-3.07698E-13-6.31106E-13
 -1      2613 2.38621E+01-5.06293E+00 4.59709E-02 4.81472E+00-3.37508E-14 3.16067E-13
 -1      2614 2.27922E+01-5.26532E+00 8.42596E-02 4.99248E+00 1.34295E-13 3.61818E-13
 -1      2615 2.55362E+01-4.83394E+00-1.43892E-01 3.50545E+00-1.39749E-14 4.82073E-13
 -1      2616 3.20353E+01 2.20643E+00-1.07985E-01 1.68195E+00 4.73704E-13 1.16351E-13
 -1      2617 3.04692E+01 3.11294E+00-1.74798E-01 2.34334E+00 5.49838E-13 2.72699E-13
 -1      2618 3.06018E+01 6.11079E-01-4.63363E-02 1.76582E+00 3.45668E-13 2.61818E-13
 -1      2619 2.93850E+01-1.88706E+00-5.00034E-02 1.54903E+00-2.92089E-13 3.15248E-13
 -1      2620 2.79693E+01-3.09946E+00 5.77443E-02 1.85793E+00-1.50678E-13 4.16139E-13
 -1      2621 2.92058E+01-1.35653E+00-1.32836E-01 7.44247E-02-2.28095E-13 3.57436E-13
 -1      2622 2.97096E+01-2.85182E+00-3.90472E-02-3.10089E-01-2.30857E-14-4.01901E-14
 -1      2623 3.03424E+01-1.12538E+00 5.02425E-02-1.06049E+00 4.08229E-13-5.84893E-13
 -1      2624 1.83460E+01-5.28948E+00 1.16031E-01-6.11987E+00-3.54994E-13-4.54414E-13
 -1      2625 3.12967E+01 3.37107E+00-7.99036E-02-2.32257E+00 7.38853E-13-4.63046E-13
 -1      2626 2.50459E+01-5.41245E+00 4.17819E-02-3.86044E+00-3.30902E-13-3.06102E-13
 -1      2627 5.04180E+00-2.24161E+00 1.53939E-01 2.33497E+00 8.45990E-14-6.49758E-13
 -1      2628 1.99982E+01-1.55006E-03-1.81414E-05 4.56590E-03 2.39422E-13 4.29819E-13
 -1      2629 1.99991E+01-2.50084E-03-1.62353E-06 4.88784E-03 2.72327E-14 1.01435E-13
 -1      2630 1.99993E+01-2.00125E-03 6.63093E-06 5.33155E-03 2.81955E-14 7.94612E-14
 -1      2631 1.99977E+01-1.18273E-03-1.58538E-06 5.02019E-03 1.88329E-13 2.85280E-13
 -1      2632 1.99990E+01-2.03485E-03 2.86009E-06-5.32668E-03-4.34260E-14-2.22828E-13
 -1      2633 2.95384E+01-5.75971E-01-7.71354E-03 6.05391E-02-3.54536E-13-8.39051E-14
 -1      2634 1.99985E+01-1.22620E-03-1.84657E-05 5.50272E-03 2.16685E-13 3.60438E-13
 -1      2635 1.91767E+01 3.32652E+00-5.70587E-03 2.74911E-01 2.63189E-13-3.85551E-13
 -1      2636 1.90943E+01 3.38847E+00-6.17754E-03 2.06288E-01 2.28937E-13-4.07379E-13
 -1      2637 1.90451E+01 3.42774E+00-6.01144E-03 1.73952E-01 2.08266E-13-4.07024E-13
 -1      2638 1.90308E+01 3.43956E+00-4.78259E-03 1.04348E-01 1.58012E-13-4.05185E-13
 -1      2639 1.91340E+01 3.15425E+00 6.16767E-03 1.56176E-01 2.04254E-13-3.86106E-13
 -1      2640 1.98299E+01 2.72921E+00-8.11815E-03 5.10914E-01 3.97786E-13-2.18427E-13
 -1      2641 1.96232E+01 2.92044E+00-9.00574E-03 4.26122E-01 3.61599E-13-2.59835E-13
 -1      2642 2.03082E+01 2.19202E+00-9.47602E-03 6.31306E-01 4.22692E-13-1.00647E-13
 -1      2643 2.00613E+01 2.47949E+00-7.91364E-03 5.55695E-01 4.06084E-13-1.61846E-13
 -1      2644 2.00186E+01 2.31677E+00 7.50096E-03 3.17510E-01 3.73039E-13-1.67530E-13
 -1      2645 2.07305E+01 9.63984E-01 1.11441E-03-6.36659E-02 3.42802E-13 7.05534E-14
 -1      2646 2.07941E+01 1.15011E+00 8.62129E-03 2.67802E-01 3.77730E-13 1.00335E-13
 -1      2647 2.03527E+01 2.39634E+00 2.78890E-03-9.52557E-01-2.80390E-13-3.83645E-13
 -1      2648 2.80293E+01-4.41159E+00-1.95061E-01 1.04264E+00-2.13163E-14-4.56982E-13
 -1      2649 2.61081E+01-4.89448E+00 7.73685E-02 2.48952E+00-2.17368E-13-4.24050E-13
 -1      2650 2.07043E+01 1.66510E+00-2.71854E-04 6.97176E-01 4.34076E-13 6.84366E-14
 -1      2651 7.67638E+00-1.43737E+00 1.42589E-01-3.83570E+00 1.44121E-13 7.88869E-13
 -1      2652 1.01357E+01-2.54082E+00 8.46722E-02-5.72012E+00 1.83548E-13 1.09823E-12
 -1      2653 2.94523E+01 5.98540E+00-1.78474E-01 6.28475E-02 7.41018E-13 1.04319E-13
 -1      2654 2.96798E+01 5.61794E+00-1.68795E-01-1.20817E+00 7.60753E-13-1.25240E-13
 -1      2655 2.06655E+01 7.57466E-01 1.13557E-02 2.06188E-01-1.86217E-13-2.26830E-13
 -1      2656 2.06447E+01 5.98545E-01-2.23487E-03 3.99367E-01-1.66464E-13-2.20433E-13
 -1      2657 2.06703E+01 4.70269E-01 7.90427E-03 5.65558E-01-1.51792E-13-1.99064E-13
 -1      2658 2.06961E+01 3.44407E-01-9.59852E-04 6.92070E-01-1.45099E-13-2.07311E-13
 -1      2659 2.05612E+01 6.73166E-01-3.78432E-03 4.94739E-01-1.57902E-13-2.10061E-13
 -1      2660 2.07492E+01 2.30261E-01 7.05256E-03 8.03044E-01-1.25697E-13-1.71539E-13
 -1      2661 2.08150E+01 1.08791E-01-1.27212E-03 8.68728E-01-1.14834E-13-1.67296E-13
 -1      2662 2.06176E+01 3.68612E-01-5.14763E-03 7.89972E-01-1.33645E-13-1.83542E-13
 -1      2663 2.09100E+01-1.14318E-02 7.31412E-03 9.24089E-01-1.09657E-13-1.55501E-13
 -1      2664 2.10113E+01-1.47455E-01-2.61168E-03 9.27641E-01-1.04439E-13-1.46121E-13
 -1      2665 2.07436E+01 7.53500E-02-6.41628E-03 9.73796E-01-1.17947E-13-1.38875E-13
 -1      2666 2.11614E+01-2.86115E-01 8.47746E-03 9.19336E-01-9.09864E-14-1.41547E-13
 -1      2667 2.12915E+01-4.44067E-01-4.96662E-03 8.52900E-01-6.34754E-14-1.52115E-13
 -1      2668 2.09631E+01-2.49518E-01-7.86048E-03 1.03929E+00-1.03996E-13-1.46260E-13
 -1      2669 2.15054E+01-6.00213E-01 9.88997E-03 7.65641E-01-4.84867E-14-1.43843E-13
 -1      2670 2.16532E+01-7.69672E-01-8.07633E-03 6.19336E-01-7.04305E-14-1.14956E-13
 -1      2671 2.12964E+01-6.22809E-01-9.19385E-03 9.63894E-01-6.72171E-14-1.47508E-13
 -1      2672 2.19277E+01-9.20795E-01 1.04590E-02 4.34811E-01-6.62266E-14-9.71738E-14
 -1      2673 2.20728E+01-1.06305E+00-1.08694E-02 2.05898E-01-6.67168E-14-7.19887E-14
 -1      2674 2.17523E+01-1.01995E+00-9.30735E-03 7.12619E-01-5.49742E-14-1.92545E-14
 -1      2675 2.23771E+01-1.15578E+00 7.80667E-03-8.43435E-02-9.02306E-14-2.86467E-14
 -1      2676 2.24876E+01-1.19614E+00-1.12400E-02-3.75779E-01-7.90323E-14-1.04424E-14
 -1      2677 2.23069E+01-1.34874E+00-6.05976E-03 2.52245E-01-4.49410E-14 2.13616E-14
 -1      2678 2.27489E+01-1.14640E+00-1.09738E-03-7.42813E-01-8.80939E-14-2.48244E-14
 -1      2679 2.27894E+01-9.87580E-01-5.55189E-03-1.03340E+00-1.08544E-13-3.14192E-14
 -1      2680 2.28733E+01-1.43300E+00 1.32629E-03-4.10372E-01-9.84993E-14 2.47033E-14
 -1      2681 2.29039E+01-7.12666E-01-1.49416E-02-1.37289E+00-1.24734E-13-4.18777E-14
 -1      2682 2.28564E+01-3.00159E-01 7.38299E-03-1.54504E+00-1.42211E-13-4.31983E-14
 -1      2683 2.32894E+01-1.04958E+00 1.02160E-02-1.15679E+00-1.34405E-13 2.28719E-14
 -1      2684 2.27549E+01 1.98363E-01-2.88886E-02-1.67405E+00-1.46024E-13-2.54811E-14
 -1      2685 2.26484E+01 7.78070E-01 1.96465E-02-1.59248E+00-1.98280E-13-1.97121E-14
 -1      2686 2.33820E+01-7.01343E-02 1.57762E-02-1.69773E+00-1.32887E-13 6.73845E-14
 -1      2687 2.24097E+01 1.32206E+00-2.93645E-02-1.33755E+00-2.72416E-13-4.88394E-14
 -1      2688 2.23125E+01 1.78506E+00 1.37089E-02-9.53800E-01-2.98981E-13-7.01301E-14
 -1      2689 2.31243E+01 1.27177E+00 3.16921E-03-1.62600E+00-2.48638E-13 8.21717E-14
 -1      2690 2.21730E+01 2.06281E+00-1.40961E-02-3.64820E-01-3.37005E-13-1.21804E-13
 -1      2691 2.21302E+01 2.12723E+00-1.94191E-02 1.67890E-01-2.97026E-13-1.30964E-13
 -1      2692 2.28097E+01 2.32573E+00-1.39466E-02-7.45037E-01-3.61043E-13-1.14976E-13
 -1      2693 2.22670E+01 1.95369E+00 1.36788E-02 8.56904E-01-3.18665E-13-1.95791E-13
 -1      2694 2.23584E+01 1.54906E+00-2.72532E-02 1.27974E+00-2.63253E-13-2.56144E-13
 -1      2695 2.27268E+01 2.54133E+00-3.77543E-03 6.08403E-01-3.54232E-13-1.67918E-13
 -1      2696 2.25839E+01 1.06581E+00 1.75725E-02 1.61960E+00-1.66022E-13-2.82366E-13
 -1      2697 2.27048E+01 4.88209E-01-3.25484E-02 1.78519E+00-1.26735E-13-3.37760E-13
 -1      2698 2.30374E+01 1.47985E+00-6.02268E-03 1.58883E+00-2.38923E-13-2.75667E-13
 -1      2699 2.28626E+01-4.42530E-02 1.12848E-02 1.74349E+00-8.92170E-14-2.93993E-13
 -1      2700 2.29356E+01-5.06843E-01-1.82467E-02 1.62565E+00-4.97731E-14-3.15567E-13
 -1      2701 2.33496E+01 2.69673E-01 1.43513E-02 1.88907E+00-1.06208E-13-3.32920E-13
 -1      2702 2.28687E+01-8.35144E-01-3.52540E-03 1.32530E+00 4.99817E-16-3.00253E-13
 -1      2703 2.28594E+01-1.05017E+00-4.02606E-03 1.05845E+00 1.04166E-13-3.69536E-13
 -1      2704 2.33549E+01-8.34449E-01 1.18851E-02 1.46349E+00-5.76944E-14-2.55835E-13
 -1      2705 2.26242E+01-1.14672E+00-1.09286E-02 6.93511E-01 1.46285E-13-3.90537E-13
 -1      2706 2.25368E+01-1.14621E+00 6.03722E-03 4.01746E-01 1.29727E-13-3.93123E-13
 -1      2707 2.30044E+01-1.34673E+00 4.05142E-03 7.50469E-01 8.40141E-14-3.98607E-13
 -1      2708 2.22332E+01-1.08178E+00-1.16570E-02 9.45324E-02 1.40210E-13-3.33196E-13
 -1      2709 2.21005E+01-9.61158E-01 9.67881E-03-1.47780E-01 2.03307E-13-2.87096E-13
 -1      2710 2.24561E+01-1.35844E+00-4.30972E-03 6.44294E-02 2.07731E-13-3.70577E-13
 -1      2711 2.18109E+01-8.25157E-01-8.98027E-03-3.55850E-01 2.58855E-13-2.72574E-13
 -1      2712 2.16648E+01-6.68483E-01 9.36921E-03-5.22928E-01 1.92012E-13-2.28632E-13
 -1      2713 2.18823E+01-1.08233E+00-7.96475E-03-4.41242E-01 2.66366E-13-3.36929E-13
 -1      2714 2.14277E+01-5.24287E-01-5.65422E-03-6.37939E-01 1.95217E-14-3.59918E-13
 -1      2715 2.12884E+01-3.81101E-01 7.32475E-03-7.32757E-01-6.91459E-14-4.24702E-13
 -1      2716 2.13861E+01-7.18313E-01-8.09455E-03-7.47046E-01 5.12189E-14-4.00515E-13
 -1      2717 2.11107E+01-2.60762E-01-2.88949E-03-7.77037E-01-3.12736E-14-3.87352E-13
 -1      2718 2.09872E+01-1.51180E-01 4.98619E-03-8.14561E-01 6.87246E-14-3.25534E-13
 -1      2719 2.10006E+01-3.83446E-01-6.59812E-03-8.89624E-01-4.90049E-15-3.49571E-13
 -1      2720 2.08607E+01-6.43916E-02-9.17809E-04-8.11324E-01 1.73250E-13-2.47374E-13
 -1      2721 2.07548E+01 9.21622E-03 3.02877E-03-8.08653E-01 1.99790E-13-2.31003E-13
 -1      2722 2.07189E+01-1.25768E-01-4.82031E-03-9.17561E-01 1.17640E-13-8.26006E-14
 -1      2723 2.06672E+01 6.43920E-02 3.84384E-04-7.76604E-01 1.51615E-13-2.73628E-13
 -1      2724 2.05780E+01 1.07537E-01 1.59641E-03-7.48819E-01 1.17436E-13-2.23351E-13
 -1      2725 2.05196E+01 4.85576E-02-3.29706E-03-8.72668E-01 2.14479E-13-2.03476E-13
 -1      2726 2.05178E+01 1.37625E-01 1.16951E-03-7.01640E-01 7.46768E-14-2.09776E-13
 -1      2727 2.04432E+01 1.58108E-01 6.45969E-04-6.60428E-01 3.99807E-14-2.07426E-13
 -1      2728 2.03803E+01 1.51865E-01-2.18854E-03-7.86493E-01 9.84649E-14-1.96262E-13
 -1      2729 2.04018E+01 1.70346E-01 1.58222E-03-6.07485E-01-3.38568E-14-1.69936E-13
 -1      2730 2.03398E+01 1.75518E-01 6.92595E-05-5.61143E-01-1.59559E-13-8.51041E-14
 -1      2731 2.02823E+01 2.01996E-01-1.45205E-03-6.81220E-01-8.83617E-15-1.96708E-13
 -1      2732 2.03108E+01 1.76172E-01 1.73655E-03-5.08465E-01-5.84581E-14 2.67729E-14
 -1      2733 2.02598E+01 1.71934E-01-2.44475E-04-4.62424E-01 5.55938E-14 9.33071E-14
 -1      2734 2.02124E+01 2.15921E-01-9.89130E-04-5.71609E-01-3.11974E-14-6.81007E-14
 -1      2735 2.02391E+01 1.65794E-01 1.71986E-03-4.13596E-01 2.61698E-14 8.00975E-14
 -1      2736 2.01975E+01 1.56450E-01-3.86308E-04-3.71089E-01 6.54165E-14 1.29260E-13
 -1      2737 2.01614E+01 2.07363E-01-7.07093E-04-4.66873E-01 7.23014E-14-6.49026E-14
 -1      2738 2.01823E+01 1.46900E-01 1.59750E-03-3.27977E-01 2.84794E-14 1.46693E-13
 -1      2739 2.01488E+01 1.35376E-01-4.22775E-04-2.90655E-01-1.76083E-14 1.65890E-13
 -1      2740 2.01233E+01 1.86415E-01-5.34261E-04-3.72235E-01 6.53885E-14 7.88570E-14
 -1      2741 2.01374E+01 1.24646E-01 1.41724E-03-2.53960E-01-8.51802E-14 1.49727E-13
 -1      2742 2.01108E+01 1.12800E-01-4.00207E-04-2.22404E-01-1.24606E-14 1.81115E-13
 -1      2743 2.00942E+01 1.59992E-01-4.24295E-04-2.90144E-01-4.09616E-14 5.05447E-14
 -1      2744 2.01021E+01 1.02254E-01 1.21334E-03-1.92081E-01 7.16680E-14 2.14782E-13
 -1      2745 2.00813E+01 9.11622E-02-3.49238E-04-1.66200E-01 7.01133E-14 2.25339E-13
 -1      2746 2.00718E+01 1.32523E-01-3.49909E-04-2.21185E-01-1.04762E-14 4.60505E-14
 -1      2747 2.00747E+01 8.15548E-02 1.00888E-03-1.41767E-01 1.75017E-13 1.69867E-13
 -1      2748 2.00586E+01 7.17612E-02-2.88418E-04-1.21085E-01 2.70109E-13 1.57291E-13
 -1      2749 2.00543E+01 1.06613E-01-2.94445E-04-1.64787E-01 1.48335E-13 1.18241E-13
 -1      2750 2.00535E+01 6.34386E-02 8.17764E-04-1.01841E-01 2.68337E-13 1.20765E-13
 -1      2751 2.00414E+01 5.51470E-02-2.28162E-04-8.56980E-02 2.27179E-13 9.30036E-14
 -1      2752 2.00407E+01 8.36089E-02-2.48919E-04-1.19738E-01 2.04271E-13 4.34090E-14
 -1      2753 2.00374E+01 4.82028E-02 6.47527E-04-7.08634E-02 5.42179E-14 5.64145E-14
 -1      2754 2.00284E+01 4.14096E-02-1.73849E-04-5.85399E-02-1.61645E-13 8.47733E-14
 -1      2755 2.00300E+01 6.40410E-02-2.09459E-04-8.45286E-02 7.00919E-14-7.92676E-14
 -1      2756 2.00254E+01 3.57878E-02 5.01412E-04-4.73425E-02-1.46343E-13 1.45316E-13
 -1      2757 2.00189E+01 3.03727E-02-1.27821E-04-3.81402E-02-8.38907E-14 1.08154E-13
 -1      2758 2.00218E+01 4.79411E-02-1.74470E-04-5.75800E-02-9.36547E-14-7.38923E-15
 -1      2759 2.00166E+01 2.59365E-02 3.79766E-04-2.98689E-02-7.68969E-14 6.60593E-14
 -1      2760 2.00120E+01 2.17215E-02-9.06455E-05-2.31542E-02-1.56346E-13 1.42156E-13
 -1      2761 2.00156E+01 3.50553E-02-1.43313E-04-3.73805E-02-8.71264E-14-8.72309E-15
 -1      2762 2.00103E+01 1.82981E-02 2.81146E-04-1.71857E-02-2.51688E-13 2.47569E-13
 -1      2763 2.00072E+01 1.50846E-02-6.19532E-05-1.24113E-02-1.20769E-13 2.98973E-13
 -1      2764 2.00108E+01 2.49846E-02-1.15773E-04-2.25683E-02-1.36294E-13-4.36657E-14
 -1      2765 2.00059E+01 1.24916E-02 2.03168E-04-8.22072E-03-1.88248E-13 1.95882E-13
 -1      2766 2.00039E+01 1.00818E-02-4.09488E-05-4.93276E-03-2.79368E-13 8.45427E-14
 -1      2767 2.00073E+01 1.72739E-02-9.18119E-05-1.19694E-02-2.85679E-13-1.37107E-13
 -1      2768 2.00030E+01 8.14256E-03 1.43034E-04-2.09375E-03-1.30917E-13 2.96115E-13
 -1      2769 2.00018E+01 6.35077E-03-2.66702E-05 6.97268E-05-8.45600E-14 3.66313E-13
 -1      2770 2.00047E+01 1.14649E-02-7.13057E-05-4.60952E-03-9.38808E-14 2.13573E-14
 -1      2771 2.00011E+01 4.90169E-03 9.80009E-05 1.89107E-03-1.21071E-13 4.91148E-13
 -1      2772 2.00005E+01 3.55927E-03-1.77912E-05 3.20693E-03 2.76154E-15 5.88560E-13
 -1      2773 2.00029E+01 7.12443E-03-5.41434E-05 2.92329E-04-5.73296E-14 2.40339E-13
 -1      2774 2.00000E+01 2.45285E-03 6.58140E-05 4.26311E-03 4.79349E-14 5.27287E-13
 -1      2775 1.99997E+01 1.40591E-03-1.27967E-05 4.93396E-03 1.65838E-13 3.98100E-13
 -1      2776 2.00016E+01 3.85896E-03-3.99522E-05 3.33856E-03-6.74144E-14 4.63997E-13
 -1      2777 1.99995E+01 4.93820E-04 4.05749E-05 5.39826E-03 2.39702E-13 3.37600E-13
 -1      2778 1.99994E+01-3.54925E-04-4.27260E-06 5.55004E-03 2.63832E-13 2.93112E-13
 -1      2779 2.00007E+01 1.28847E-03-3.47548E-05 4.98100E-03 1.49805E-13 3.24884E-13
 -1      2780 2.10255E+01 3.82378E-01 4.67768E-03-1.68098E+00 1.09823E-13-7.47529E-14
 -1      2781 2.08698E+01 4.47941E-01 2.57370E-03-1.54855E+00 1.33407E-13-2.87885E-14
 -1      2782 2.00001E+01-1.60679E-03-3.37742E-06-5.57566E-03-2.57432E-14-3.73637E-13
 -1      2783 1.99991E+01-1.27101E-03-1.64100E-05-5.48651E-03-7.32221E-14-1.28890E-13
 -1      2784 1.99989E+01-6.14877E-04 1.12635E-05-5.75867E-03-1.26223E-13-1.09452E-13
 -1      2785 2.08440E+01 4.99224E-01 4.84484E-03-1.37702E+00 1.40152E-13-3.49347E-14
 -1      2786 2.07390E+01 5.45251E-01 3.57470E-03-1.21194E+00 1.56594E-13-9.29140E-15
 -1      2787 2.05310E+01 6.04570E-01-3.35810E-03-1.52956E+00 1.59932E-13-7.35853E-14
 -1      2788 2.17331E+01-2.10342E-01 7.26787E-04-2.02528E+00 2.60065E-14-4.54320E-14
 -1      2789 2.14553E+01 1.15880E-02 7.88465E-03-2.01883E+00 5.30743E-14-9.10312E-14
 -1      2790 2.23933E+01-8.39522E-01-4.12009E-03-1.92757E+00-6.18104E-14-4.36261E-15
 -1      2791 2.20273E+01-4.84270E-01 1.62976E-02-2.05325E+00-3.80663E-15-3.46156E-14
 -1      2792 2.11952E+01-4.04544E-01-1.85293E-02-2.30653E+00-2.04920E-14-1.36649E-13
 -1      2793 2.33837E+01-1.70389E+00-1.31065E-02-1.47968E+00-1.49750E-13 2.90888E-14
 -1      2794 2.29215E+01-1.23881E+00 2.88632E-02-1.80503E+00-1.08898E-13 2.22050E-14
 -1      2795 2.19209E+01-1.25273E+00-3.00683E-02-2.28155E+00-9.17131E-14-5.74835E-14
 -1      2796 2.47313E+01-2.51881E+00-2.41463E-02-5.19169E-01-1.95387E-13 1.31756E-13
 -1      2797 2.42182E+01-2.13152E+00 3.92702E-02-1.08290E+00-2.22279E-13 6.78038E-14
 -1      2798 2.31670E+01-2.35818E+00-4.13307E-02-1.87767E+00-2.00760E-13-4.53838E-14
 -1      2799 2.62421E+01-2.55194E+00-3.43233E-02 9.63223E-01-1.10331E-13 2.80621E-13
 -1      2800 2.58131E+01-2.67953E+00 2.71568E-02 2.47902E-01-1.60217E-13 2.38972E-13
 -1      2801 2.49782E+01-3.27933E+00-6.14628E-02-8.49344E-01-2.47783E-13 7.00325E-14
 -1      2802 2.78385E+01 2.46753E+00-1.06399E-01 2.39574E+00 4.74176E-13 4.40196E-13
 -1      2803 2.79828E+01 7.22872E-01-1.45458E-01 2.80890E+00 2.89387E-13 4.46101E-13
 -1      2804 2.83361E+01-2.54809E-01-1.40097E-01-2.73936E+00 3.88037E-13-4.52985E-13
 -1      2805 2.80197E+01 1.53722E+00-1.23948E-01-2.70876E+00 5.19057E-13-3.43406E-13
 -1      2806 2.70646E+01-3.15751E+00 4.26413E-02-6.32200E-01-6.74322E-14-4.28879E-13
 -1      2807 2.73339E+01-2.44926E+00-2.10471E-02-1.32724E+00 1.01207E-13-4.49189E-13
 -1      2808 2.49146E+01-2.92986E+00 1.05196E-01 1.01784E+00-1.42891E-13-2.55986E-13
 -1      2809 2.55145E+01-3.14607E+00 3.36013E-02 2.96991E-01-1.35957E-13-2.35808E-13
 -1      2810 2.51531E+01-4.63866E+00-8.59999E-02 1.95658E+00-2.29421E-13-3.77497E-13
 -1      2811 2.31186E+01-1.88451E+00 7.82414E-02 1.87877E+00-8.12492E-14-9.50455E-14
 -1      2812 2.37451E+01-2.35581E+00 4.91621E-02 1.39179E+00-7.12208E-14-1.21906E-13
 -1      2813 2.23316E+01-3.55996E+00-9.94331E-02 2.90797E+00-2.10918E-13-2.95867E-13
 -1      2814 2.19300E+01-8.75694E-01 4.27811E-02 2.14619E+00-2.99747E-14-5.97855E-14
 -1      2815 2.24382E+01-1.28432E+00 4.36685E-02 1.90156E+00-6.42012E-14-8.13290E-14
 -1      2816 2.07071E+01-1.96425E+00-8.26643E-02 2.97492E+00-9.94474E-14-2.76185E-13
 -1      2817 2.12361E+01-1.74244E-01 1.85059E-02 2.09484E+00-1.02093E-13 3.15876E-14
 -1      2818 2.16035E+01-4.42070E-01 3.01944E-02 2.02519E+00-4.60838E-14-9.31893E-15
 -1      2819 1.99555E+01-7.02397E-01-4.82839E-02 2.68654E+00-6.93586E-14-1.40733E-13
 -1      2820 2.08538E+01 2.27831E-01 4.73338E-03 1.89913E+00-2.10951E-13 3.59021E-14
 -1      2821 2.11137E+01 8.49167E-02 1.82139E-02 1.93479E+00-1.87612E-13 5.27306E-14
 -1      2822 1.96991E+01 7.72234E-02-2.21760E-02 2.31863E+00-1.85268E-13-2.13865E-14
 -1      2823 2.06420E+01 4.15989E-01-1.80129E-03 1.64880E+00-2.07849E-13 4.12306E-15
 -1      2824 2.08325E+01 3.58873E-01 1.05776E-02 1.73846E+00-2.10721E-13 5.05832E-14
 -1      2825 1.96744E+01 4.85430E-01-7.38961E-03 1.96468E+00-2.69627E-13-1.33237E-14
 -1      2826 2.05146E+01 4.72515E-01-4.14417E-03 1.38944E+00-4.11410E-14 9.52891E-14
 -1      2827 2.06618E+01 4.65962E-01 6.53774E-03 1.50002E+00-1.40979E-13 1.77609E-14
 -1      2828 1.97398E+01 6.52816E-01-3.75882E-04 1.64566E+00-1.76373E-13-6.34138E-14
 -1      2829 2.04260E+01 4.57336E-01-4.39215E-03 1.14425E+00-1.45167E-13 1.56283E-13
 -1      2830 2.05448E+01 4.76637E-01 4.65117E-03 1.25634E+00 3.38098E-15 1.98539E-13
 -1      2831 1.98253E+01 6.79783E-01 2.13458E-03 1.36334E+00-1.12187E-13 5.35605E-14
 -1      2832 2.03552E+01 4.08427E-01-3.76546E-03 9.24380E-01-1.02036E-13-3.61984E-14
 -1      2833 2.04533E+01 4.38439E-01 3.82266E-03 1.02777E+00-1.54619E-13 4.03818E-14
 -1      2834 1.99013E+01 6.33582E-01 2.43603E-03 1.11580E+00-3.90020E-14 4.04082E-14
 -1      2835 2.02938E+01 3.47696E-01-2.89454E-03 7.34154E-01-1.57650E-13 4.43607E-15
 -1      2836 2.03752E+01 3.80020E-01 3.41458E-03 8.24351E-01-1.63021E-13-1.03329E-13
 -1      2837 1.99584E+01 5.55186E-01 1.86921E-03 9.01184E-01-8.11508E-14 9.59953E-15
 -1      2838 2.02393E+01 2.86747E-01-2.06663E-03 5.73927E-01-8.30267E-14 1.79482E-13
 -1      2839 2.03064E+01 3.17188E-01 3.12138E-03 6.49768E-01-1.19818E-13 1.08118E-13
 -1      2840 1.99967E+01 4.67792E-01 1.11351E-03 7.17773E-01-2.22119E-13 1.54051E-14
 -1      2841 2.01913E+01 2.31098E-01-1.38690E-03 4.41839E-01-1.97532E-13 2.26946E-13
 -1      2842 2.02459E+01 2.57867E-01 2.82698E-03 5.03941E-01-5.75770E-14 2.32154E-13
 -1      2843 2.00195E+01 3.83502E-01 4.53290E-04 5.63513E-01-1.89361E-13 2.03414E-13
 -1      2844 2.01499E+01 1.82889E-01-8.72448E-04 3.34921E-01-1.36572E-13 8.84724E-15
 -1      2845 2.01936E+01 2.05484E-01 2.50581E-03 3.84737E-01-1.48468E-13 1.06404E-13
 -1      2846 2.00310E+01 3.07920E-01-2.39163E-05 4.35880E-01-5.42671E-14 1.83317E-13
 -1      2847 2.01150E+01 1.42508E-01-5.04930E-04 2.49765E-01-2.72228E-15-2.32833E-13
 -1      2848 2.01495E+01 1.61059E-01 2.16722E-03 2.89047E-01-1.32054E-13-8.97376E-14
 -1      2849 2.00351E+01 2.43043E-01-3.23634E-04 3.31971E-01-7.65194E-14-1.61489E-13
 -1      2850 2.00864E+01 1.09473E-01-2.55459E-04 1.82943E-01 2.93865E-13-3.29490E-13
 -1      2851 2.01131E+01 1.24399E-01 1.83046E-03 2.13453E-01 1.44770E-13-1.83222E-13
 -1      2852 2.00345E+01 1.88970E-01-4.84466E-04 2.48677E-01 1.23863E-13-2.44837E-13
 -1      2853 2.00634E+01 8.29245E-02-9.40520E-05 1.31255E-01 3.11027E-13-2.49436E-13
 -1      2854 2.00837E+01 9.47440E-02 1.51259E-03 1.54612E-01 2.93337E-13-2.72152E-13
 -1      2855 2.00314E+01 1.44864E-01-5.45832E-04 1.82895E-01 2.59089E-13-4.54840E-13
 -1      2856 2.00454E+01 6.19073E-02 5.01794E-06 9.18494E-02 2.68643E-13-5.77289E-14
 -1      2857 2.00606E+01 7.11353E-02 1.22476E-03 1.09475E-01 2.95835E-13-1.52618E-13
 -1      2858 2.00272E+01 1.09489E-01-5.41986E-04 1.31711E-01 2.11187E-13-1.37317E-13
 -1      2859 2.00316E+01 4.54973E-02 6.14817E-05 6.22595E-02-1.32118E-13 3.63598E-14
 -1      2860 2.00427E+01 5.26046E-02 9.72820E-04 7.53589E-02 4.54796E-14-8.89593E-14
 -1      2861 2.00227E+01 8.15298E-02-5.00445E-04 9.24887E-02 4.83738E-14-1.19783E-14
 -1      2862 2.00213E+01 3.28567E-02 8.96332E-05 4.03980E-02-2.34687E-13 1.92026E-13
 -1      2863 2.00292E+01 3.82557E-02 7.58557E-04 4.99742E-02-1.80971E-13 1.06407E-13
 -1      2864 2.00183E+01 5.97368E-02-4.40189E-04 6.29025E-02-2.67588E-13 1.85874E-13
 -1      2865 2.00138E+01 2.32503E-02 9.94869E-05 2.45348E-02-1.83846E-13 1.86059E-13
 -1      2866 2.00193E+01 2.72939E-02 5.80622E-04 3.14055E-02-1.73689E-13 2.13101E-13
 -1      2867 2.00144E+01 4.29802E-02-3.73438E-04 4.09561E-02-1.93093E-13 1.67143E-13
 -1      2868 2.00085E+01 1.60462E-02 9.78255E-05 1.32626E-02-1.08752E-13 1.02126E-13
 -1      2869 2.00121E+01 1.90318E-02 4.35789E-04 1.80831E-02-1.33971E-13 2.08312E-13
 -1      2870 2.00111E+01 3.02697E-02-3.07553E-04 2.49749E-02-1.03393E-13 4.86709E-14
 -1      2871 2.00048E+01 1.07067E-02 8.90242E-05 5.45922E-03-7.86956E-15 5.06649E-14
 -1      2872 2.00071E+01 1.28832E-02 3.19980E-04 8.74504E-03-1.14494E-13 1.17457E-13
 -1      2873 2.00083E+01 2.07529E-02-2.46671E-04 1.35846E-02-1.12281E-13-1.03096E-13
 -1      2874 2.00023E+01 6.77693E-03 7.60208E-05 2.50140E-04 1.19556E-13 1.70427E-13
 -1      2875 2.00037E+01 8.35207E-03 2.28954E-04 2.39726E-03 7.43356E-14 1.77006E-13
 -1      2876 2.00061E+01 1.37035E-02-1.92595E-04 5.68161E-03-6.79594E-14 1.02002E-13
 -1      2877 2.00008E+01 3.86914E-03 5.83650E-05-3.02951E-03 2.92790E-13 1.21944E-13
 -1      2878 2.00015E+01 5.01946E-03 1.58164E-04-1.72385E-03 3.42120E-13 2.50061E-13
 -1      2879 2.00042E+01 8.50978E-03-1.44684E-04 4.03099E-04 1.65416E-13 2.85731E-13
 -1      2880 1.99999E+01 1.59511E-03 1.57330E-05-4.90904E-03-1.00327E-13 1.20091E-13
 -1      2881 2.00002E+01 2.53417E-03 1.04141E-04-4.19114E-03 1.18619E-13 1.44454E-13
 -1      2882 2.00028E+01 4.64580E-03-1.01897E-04-2.91492E-03 1.14708E-13 2.38252E-13
 -1      2883 1.99989E+01 1.93481E-05 5.60686E-05-5.61387E-03-1.50105E-13-3.98686E-14
 -1      2884 2.36562E+01-5.58623E+00-6.89161E-02 4.16441E+00-2.39295E-13-3.78041E-13
 -1      2885 2.05517E+01-4.96476E+00 1.83199E-01 5.14164E+00-2.57683E-13-3.31707E-13
 -1      2886 2.00027E+01-1.77693E-03-1.09537E-06-2.51389E-04 9.19992E-14 9.93796E-14
 -1      2887 2.00027E+01-1.76894E-03 3.76556E-06-9.31919E-04 1.25644E-13 2.85335E-14
 -1      2888 2.83457E+01-2.13747E+00-9.06885E-03-2.13420E-01-1.44537E-13-1.42525E-13
 -1      2889 2.86658E+01-1.16745E-01-1.58229E-01 1.14067E+00-3.15581E-13-2.14551E-13
 -1      2890 2.00025E+01-2.00833E-03-2.46396E-06-2.94513E-03 1.02491E-15 3.61693E-13
 -1      2891 2.00023E+01-1.91414E-03 1.96389E-06-3.56083E-03 1.38176E-16 1.60999E-13
 -1      2892 2.00027E+01-1.73495E-03 2.17295E-06 1.09630E-03-2.52257E-13-1.95759E-13
 -1      2893 2.00027E+01-1.76282E-03-8.28819E-08 4.22649E-04-1.07473E-13-7.86271E-14
 -1      2894 2.00034E+01 3.93771E-04 2.01377E-05 9.62172E-05-1.96355E-14-1.95509E-13
 -1      2895 2.00027E+01-1.88243E-03-3.10264E-06-1.61155E-03-5.47248E-14 2.62019E-13
 -1      2896 2.00026E+01-1.83301E-03 6.28180E-06-2.27780E-03-1.02107E-13 6.18514E-13
 -1      2897 2.00031E+01-3.43367E-05 1.28874E-05-2.56618E-03-4.87588E-14 4.40806E-13
 -1      2898 2.00033E+01 2.64920E-04 1.83372E-05-1.23342E-03 1.19180E-13 2.37700E-13
 -1      2899 2.00025E+01-1.75249E-03 4.74367E-06 2.38394E-03-1.12779E-13-1.92448E-13
 -1      2900 2.00026E+01-1.81917E-03-2.75684E-06 1.74903E-03-2.71912E-13-2.07350E-14
 -1      2901 2.00033E+01 3.18210E-04 1.84926E-05 1.39940E-03-2.08728E-13-2.26784E-13
 -1      2902 2.00022E+01-1.79463E-03 3.46687E-06 3.60844E-03-2.09983E-13-4.96504E-13
 -1      2903 2.00024E+01-1.90678E-03-2.68012E-06 3.02414E-03-1.36785E-13-2.99034E-13
 -1      2904 2.00030E+01 6.57594E-05 1.30905E-05 2.67510E-03-8.75409E-14-2.99100E-13
 -1      2905 2.00015E+01-1.80457E-03-5.62765E-06 4.64077E-03-4.47145E-14-2.15087E-13
 -1      2906 2.00019E+01-1.96119E-03-1.37714E-06 4.17823E-03-4.91694E-14-2.01588E-13
 -1      2907 2.00025E+01-2.71932E-04 1.01587E-05 3.89040E-03-2.71143E-13-2.30185E-13
 -1      2908 1.55601E+01-4.29377E+00-6.73736E-02 6.07185E+00-2.98803E-13 4.47004E-14
 -1      2909 1.22105E+01-3.32555E+00 1.98259E-01 5.74950E+00-2.62124E-13 4.43437E-13
 -1      2910 1.18171E+01-2.12981E+00 1.72037E-01 4.93116E+00-3.46750E-13 4.79269E-13
 -1      2911 2.06017E+01 1.69839E+00-8.63921E-03-7.27172E-01-2.97674E-13-3.10086E-13
 -1      2912 2.06618E+01 1.34676E+00 1.25653E-02-4.30761E-01-2.61662E-13-2.69687E-13
 -1      2913 2.06281E+01 1.07593E+00-4.25166E-03-1.49270E-01-2.21665E-13-2.66193E-13
 -1      2914 2.02473E+01 2.21515E+00-2.71083E-03-6.15446E-01-2.13504E-13-3.87540E-13
 -1      2915 1.91219E+01-4.87721E+00 6.31275E-03 6.07139E+00 2.43097E-13 1.76179E-13
 -1      2916 1.57081E+01-4.06156E+00 1.73825E-01 6.46878E+00 2.92127E-13-8.16708E-14
 -1      2917 2.07394E+01 5.92279E-01 4.37817E-03-1.01638E+00 2.03220E-13 4.19558E-15
 -1      2918 2.06879E+01 6.50184E-01 6.17073E-03-8.17189E-01 2.58240E-13 4.08508E-14
 -1      2919 2.05102E+01 7.27922E-01-2.85428E-03-1.14687E+00 2.01589E-13-4.05508E-14
 -1      2920 2.13053E+01 1.72906E-01 3.48727E-03-1.91289E+00 8.63334E-14-1.18191E-13
 -1      2921 2.10953E+01 2.95038E-01 3.70203E-03-1.82727E+00 9.74494E-14-9.19601E-14
 -1      2922 2.06162E+01 4.35375E-01-5.14946E-03-1.86235E+00 1.21390E-13-9.64297E-14
 -1      2923 2.08085E+01 1.32664E-01-9.79669E-03-2.13529E+00 5.57085E-14-1.11616E-13
 -1      2924 1.94438E+01 3.09853E+00-6.20496E-03 3.85308E-01 3.46708E-13-3.01875E-13
 -1      2925 1.92933E+01 3.21963E+00-7.81780E-03 3.08645E-01 2.98059E-13-3.42280E-13
 -1      2926 1.93037E+01 3.01328E+00 6.84874E-03 2.04348E-01 2.61560E-13-3.34070E-13
 -1      2927 1.96086E+01 2.73730E+00 7.59179E-03 2.58097E-01 3.20550E-13-2.53708E-13
 -1      2928 2.07045E+01 7.23150E-01 3.26407E-03-5.88584E-01 2.81494E-13 3.81792E-14
 -1      2929 2.07098E+01 8.26134E-01 9.25165E-03-3.39138E-01 2.94499E-13 5.97270E-14
 -1      2930 2.05840E+01 1.14228E+00-1.13619E-03-1.76185E-01 3.41719E-13-1.37005E-14
 -1      2931 2.05329E+01 8.81232E-01-2.59679E-03-7.03325E-01 2.83616E-13-5.19767E-15
 -1      2932 1.75352E+01-4.40859E+00 1.32452E-01-5.87466E+00-3.51774E-13-3.70148E-13
 -1      2933 2.07058E+01-5.27910E+00-2.17058E-02-5.40986E+00-3.63251E-13-3.17978E-13
 -1      2934 1.19086E+01-3.20753E+00 2.48173E-02 6.28291E+00 2.53131E-13-3.44724E-13
 -1      2935 9.23104E+00-2.15167E+00 2.01668E-01 5.01481E+00 2.49717E-13-5.52614E-13
 -1      2936 1.12392E+01-2.44963E+00 1.55113E-01-5.19354E+00-2.49550E-13-6.09429E-13
 -1      2937 1.39590E+01-3.48398E+00 5.80350E-02-6.04063E+00-2.90129E-13-5.13437E-13
 -1      2938 6.74283E+00-1.48038E+00 7.44640E-02 3.30963E+00 1.35475E-13-5.97022E-13
 -1      2939 5.76547E+00-1.05274E+00 1.99515E-01 9.40716E-01 7.40259E-14-5.87586E-13
 -1      2940 2.85254E+01 3.63660E+00-2.01158E-01-2.24055E+00 6.63344E-13-1.90736E-13
 -1      2941 1.94232E+01 3.08608E+00-7.76630E-03-2.25850E-01-3.86736E-14-4.50538E-13
 -1      2942 1.95790E+01 2.95635E+00-5.40910E-03-3.32241E-01-8.63161E-14-4.61778E-13
 -1      2943 1.99993E+01-1.44740E-03-2.06591E-06 5.44774E-03 2.14697E-13 2.59386E-13
 -1      2944 2.00000E+01-1.80724E-03-1.09986E-05 5.44926E-03 1.15823E-13 4.26815E-14
 -1      2945 1.99993E+01-9.22176E-04 1.88408E-05 5.58804E-03 2.58045E-13 2.91533E-13
 -1      2946 2.89691E+01 2.25737E+00-1.80248E-01-1.71105E+00-5.46313E-13 4.16736E-13
 -1      2947 2.94105E+01 5.03775E-01-7.53135E-02-1.16662E+00-3.32290E-13 4.02955E-13
 -1      2948 2.98184E+01 4.61391E+00-1.43239E-01 1.97193E+00 7.01134E-13 2.71366E-13
 -1      2949 2.95901E+01 5.42727E+00-2.14363E-01 1.13725E+00 7.71716E-13 1.65583E-13
 -1      2950 2.83756E+01-3.51288E+00 5.42524E-02-1.71549E-01-1.89633E-13 9.66865E-14
 -1      2951 2.96362E+01-2.02106E+00-1.65495E-01 1.03471E+00 6.60322E-14 2.47566E-13
 -1      2952 6.70228E+00-5.46410E-01 1.47011E-01 5.26110E-01-2.51934E-14 8.14959E-13
 -1      2953 6.55241E+00-7.29251E-01 1.58971E-01-1.83552E+00 1.29376E-13 6.03823E-13
 -1      2954 2.75400E+01 6.02809E+00-1.72402E-01 9.57736E-01-8.98032E-13-6.72448E-14
 -1      2955 2.78817E+01 6.51446E+00-1.63628E-01 1.03326E-01-9.23955E-13-6.12574E-16
 -1      2956 2.53555E+01-4.60831E+00 7.43817E-02-3.14700E+00 2.67557E-13 2.42695E-13
 -1      2957 2.69879E+01-3.82639E+00-1.33994E-01-1.81232E+00 7.05477E-14 4.16750E-14
 -1      2958 1.31825E+01-3.41847E+00 1.55611E-01-6.32994E+00 2.83315E-13 8.86624E-13
 -1      2959 1.58529E+01-4.33472E+00 1.62095E-02-6.66080E+00 2.72449E-13 7.39325E-13
 -1      2960 2.35569E+01-5.34458E+00 9.26946E-02-4.09618E+00-3.92575E-13-2.49578E-13
 -1      2961 2.59985E+01-5.19046E+00-1.48138E-01-2.56860E+00-3.45945E-13-1.78350E-13
 -1      2962 2.26175E+01-4.79236E+00 9.11319E-02-4.10924E+00-3.75935E-13-2.32705E-13
 -1      2963 1.92283E+01-4.97423E+00 1.19990E-01-6.02994E+00 3.38354E-13 6.28407E-13
 -1      2964 2.25349E+01-5.33090E+00-7.45329E-02-5.01115E+00 2.66467E-13 4.64719E-13
 -1      2965 1.97533E+01 2.77354E+00-8.34038E-03-4.13034E-01-1.21981E-13-4.51732E-13
 -1      2966 1.99380E+01 2.58709E+00-1.09944E-02-5.32209E-01-1.82221E-13-4.45660E-13
 -1      2967 1.97674E+01 2.55783E+00 6.05542E-03-2.20197E-01-9.79204E-14-4.08787E-13
 -1      2968 1.91077E+01 3.16919E+00 5.42681E-03 1.00306E-01 1.32015E-13-3.80292E-13
 -1      2969 1.90499E+01 3.41594E+00-6.43543E-03 6.56395E-02 1.29116E-13-4.18872E-13
 -1      2970 1.91016E+01 3.37990E+00-3.99872E-03-1.21966E-02 8.98259E-14-4.31543E-13
 -1      2971 1.68700E+01-3.44033E+00 1.09651E-01-5.44789E+00-3.00787E-13-3.91007E-13
 -1      2972 1.48525E+01-3.08800E+00 1.45543E-01 5.87729E+00 2.83162E-13-1.65312E-13
 -1      2973 2.05192E+01 1.82674E+00-3.42858E-03 5.35549E-01 4.21602E-13-2.07317E-14
 -1      2974 8.85394E+00-5.85926E-01 1.71857E-01-2.79506E+00 4.61506E-14 7.46653E-13
 -1      2975 2.83226E+01 8.12287E-01-1.01849E-01 1.77210E+00-2.65447E-13-1.53086E-13
 -1      2976 2.72514E+01 1.79337E+00-1.16635E-01 2.14922E+00-3.28904E-13-2.26708E-13
 -1      2977 2.74224E+01-5.46040E-01-4.44457E-02 1.46987E+00-1.64493E-13-2.80172E-13
 -1      2978 2.70023E+01 5.74320E+00-1.29938E-01-4.26432E-01-8.04135E-13 5.08057E-14
 -1      2979 2.65335E+01 3.76639E+00-8.67617E-02 2.01151E+00-5.84990E-13-2.28678E-13
 -1      2980 2.71893E+01 4.88630E+00-1.68412E-01 1.51184E+00-7.75394E-13-1.78184E-13
 -1      2981 2.57328E+01 5.02927E+00-8.81185E-02 1.10855E+00-7.41532E-13-1.54203E-13
 -1      2982 2.00002E+01-5.47220E-04-3.00854E-05 5.52348E-03 2.75719E-13 2.00598E-13
 -1      2983 1.88399E+01-4.12746E+00 1.22245E-01 5.10581E+00-3.48666E-13-2.09478E-13
 -1      2984 2.72935E+01-2.12866E+00-3.32082E-02 1.77021E+00-3.87572E-14 3.87988E-13
 -1      2985 2.71206E+01-3.26100E+00-9.83085E-02 5.49968E-01-1.61884E-13 2.30475E-13
 -1      2986 2.74501E+01-1.01283E+00-5.46070E-02 2.23421E+00 1.15415E-13 3.89955E-13
 -1      2987 2.68790E+01 4.27142E+00-1.21002E-01 5.43494E-01 6.48981E-13 2.17095E-13
 -1      2988 2.68777E+01 3.50547E+00-2.21116E-01 1.83449E+00 6.15522E-13 4.14531E-13
 -1      2989 2.68259E+01 3.51378E+00-1.09444E-01-1.91859E+00 5.59927E-13-3.13638E-14
 -1      2990 2.67012E+01 4.26652E+00-1.73113E-01-7.37637E-01 5.47701E-13 7.73270E-14
 -1      2991 2.00012E+01 1.11182E-03-4.36201E-05-5.00624E-03 5.62320E-14 7.05716E-14
 -1      2992 2.49389E+01-4.97948E+00 4.08145E-03 2.73973E+00-2.89060E-13-4.67026E-13
 -1      2993 1.28177E+01-2.39467E+00 1.39220E-01-5.57921E+00 1.89765E-13 9.13380E-13
 -1      2994 2.00026E+01-3.99370E-04 6.52973E-06-3.82465E-03-6.83331E-14 2.22131E-13
 -1      2995 2.00020E+01-2.10704E-03-5.12644E-06-4.15027E-03-8.54054E-14 1.21566E-13
 -1      2996 2.00016E+01-1.99492E-03-2.89440E-05-4.67855E-03-1.56177E-13 2.77825E-13
 -1      2997 2.00008E+01-1.72378E-03 3.79776E-05-5.25702E-03-2.22173E-14-8.72268E-14
 -1      2998 2.39578E+01-4.79553E+00 3.39944E-02-3.63947E+00 2.51299E-13 3.23602E-13
 -1      2999 7.78500E+00-4.49637E-01 2.18026E-01 1.58781E+00-1.69427E-13 7.54369E-13
 -1      3000 8.48372E+00 8.68342E-02 1.08465E-01 3.60082E-01-8.32407E-14 6.45275E-13
 -1      3001 8.91347E+00-6.21003E-01 6.70376E-02 2.64208E+00-2.34316E-13 7.24115E-13
 -1      3002 2.00006E+01-2.00263E-03 1.86318E-05 5.19323E-03 6.70606E-14-1.99271E-13
 -1      3003 2.05261E+01 1.18802E+00-2.42823E-03-3.25360E-02-1.99010E-13-2.86672E-13
 -1      3004 2.80972E+01 5.02918E+00-1.16568E-01 5.34594E-01 6.69020E-13 1.29688E-13
 -1      3005 2.70124E+01-4.05027E+00 1.98147E-02-8.23547E-01-2.82666E-13 6.42403E-14
 -1      3006 2.71885E+01 4.18683E+00-1.27526E-01-1.89972E+00-6.09027E-13 1.90473E-13
 -1      3007 2.83751E+01 3.26899E+00-1.39802E-01-1.92001E+00-5.29882E-13 3.19855E-13
 -1      3008 2.75319E+01 1.88008E+00-8.80391E-02-1.95481E+00-3.73632E-13 3.76345E-13
 -1      3009 2.92857E+01 3.28598E+00-6.81115E-02 2.30364E+00 5.55639E-13 3.38285E-13
 -1      3010 7.24403E+00-6.34536E-01 1.91414E-01-3.70344E-01 1.02505E-14-5.82506E-13
 -1      3011 2.00008E+01-6.53683E-04-8.73896E-06 5.29882E-03 1.78790E-13-8.20798E-14
 -1      3012 2.00012E+01-1.53260E-03-9.20036E-06 4.99164E-03 4.02190E-16-2.96099E-13
 -1      3013 2.00019E+01-1.74578E-04 2.94122E-05 4.74566E-03-2.20314E-14-1.11118E-13
 -1      3014 2.00010E+01 1.85525E-04 4.14970E-05 5.19294E-03 2.05814E-13-4.08177E-14
 -1      3015 2.72078E+01-3.03228E+00-1.14174E-02-4.91331E-01 1.84072E-14-1.63647E-13
 -1      3016 2.66359E+01-4.23116E+00-1.84180E-02 2.24381E+00-1.69309E-15 3.96017E-13
 -1      3017 2.91803E+01-6.72123E-01-7.27916E-02 2.14433E+00 1.26232E-13 4.08715E-13
 -1      3018 2.26517E+01-5.08522E+00-6.32950E-02 4.37498E+00 1.78149E-13 3.29393E-13
 -1      3019 2.11966E+01-5.02100E+00 1.05310E-01 5.35558E+00 2.08750E-13 2.89619E-13
 -1      3020 1.95202E+01-4.36081E+00 4.22519E-02 5.46579E+00 2.65662E-13 2.13371E-13
 -1      3021 2.85120E+01-8.94859E-01-5.80680E-02-6.70151E-01-2.42917E-13 3.60101E-13
 -1      3022 9.54214E+00-1.17602E+00 1.93396E-01 3.83484E+00 1.69670E-13-5.21277E-13
 -1      3023 2.91962E+01-2.30163E+00-2.12303E-02-9.89908E-01 2.04062E-13-5.76372E-13
 -1      3024 1.03555E+01-1.73538E+00 1.53716E-01-4.55129E+00-1.79162E-13-6.26998E-13
 -1      3025 1.27068E+01-1.57301E+00 1.14568E-01-4.58673E+00-1.93047E-13-5.23442E-13
 -1      3026 9.52668E+00-9.36797E-01 1.00686E-01-3.43575E+00-8.52235E-14-5.83367E-13
 -1      3027 1.91819E+01 3.29994E+00-7.02079E-03-6.46554E-02 6.44514E-14-4.09956E-13
 -1      3028 1.92913E+01 3.21817E+00-4.01201E-03-1.56220E-01 3.88730E-15-4.21363E-13
 -1      3029 1.94494E+01 2.86249E+00 5.58301E-03-8.52801E-02-9.12963E-15-3.86757E-13
 -1      3030 1.92198E+01 3.06845E+00 5.27015E-03 2.27176E-02 7.09066E-14-3.98503E-13
 -1      3031 2.04338E+01 1.68901E+00 4.06737E-03 2.37711E-01 3.87938E-13-5.84030E-14
 -1      3032 1.85105E+01-4.30825E+00 9.87243E-02-5.78817E+00 3.18995E-13 6.28438E-13
 -1      3033 9.62055E+00 1.60852E-01 1.06371E-01-1.75916E+00-9.41747E-14 6.32105E-13
 -1      3034 1.06487E+01-5.00356E-01 9.07660E-02-3.63596E+00-1.04847E-13 7.78919E-13
 -1      3035 2.01145E+01 1.93541E+00-5.13840E-03 1.10692E-01 3.51717E-13-1.38797E-13
 -1      3036 1.98922E+01 2.18564E+00-3.94594E-03 9.56550E-02 3.30238E-13-1.82887E-13
 -1      3037 1.75555E+01-3.55821E+00 8.43786E-02-5.59320E+00 3.09877E-13 6.60146E-13
 -1      3038 2.02083E+01-4.53483E+00-3.41528E-02-5.16018E+00 3.22638E-13 4.71054E-13
 -1      3039 2.04762E+01 5.75156E-01 5.49588E-03 7.58990E-01-1.28656E-13-1.91250E-13
 -1      3040 2.05128E+01 4.10040E-01-5.15835E-04 8.86043E-01-1.15908E-13-1.92650E-13
 -1      3041 2.05699E+01 2.48524E-01 6.46752E-03 1.00527E+00-1.17068E-13-1.48562E-13
 -1      3042 2.06474E+01 7.40673E-02-1.88307E-05 1.07842E+00-1.11367E-13-1.51807E-13
 -1      3043 2.03748E+01 4.14570E-01-5.31917E-03 9.94150E-01-1.13665E-13-1.82190E-13
 -1      3044 2.07575E+01-1.06951E-01 8.41170E-03 1.15239E+00-1.07234E-13-1.16112E-13
 -1      3045 2.08860E+01-3.11040E-01-5.41572E-04 1.16535E+00-9.02425E-14-1.17311E-13
 -1      3046 2.05146E+01 1.75465E-02-8.16231E-03 1.20728E+00-9.32898E-14-1.36960E-13
 -1      3047 2.10768E+01-5.24651E-01 1.15350E-02 1.18032E+00-4.98391E-14-1.13309E-13
 -1      3048 2.12621E+01-7.64463E-01-2.61278E-03 1.11903E+00-3.55055E-14-8.87379E-14
 -1      3049 2.07807E+01-4.45753E-01-1.17722E-02 1.32405E+00-7.23885E-14-9.91814E-14
 -1      3050 2.15588E+01-1.00422E+00 1.50879E-02 1.04897E+00-1.58910E-14-3.44246E-14
 -1      3051 2.17965E+01-1.25866E+00-6.53421E-03 8.93782E-01-2.23210E-14 1.27409E-14
 -1      3052 2.12244E+01-9.90093E-01-1.55395E-02 1.30665E+00 6.63082E-15-6.23520E-14
 -1      3053 2.22091E+01-1.48275E+00 1.81490E-02 7.00257E-01-4.02837E-14 5.62214E-14
 -1      3054 2.24721E+01-1.68300E+00-1.12381E-02 4.35688E-01-3.54170E-14 4.41763E-14
 -1      3055 2.18851E+01-1.57310E+00-1.79470E-02 1.08994E+00-5.42264E-15 2.18319E-14
 -1      3056 2.29637E+01-1.79485E+00 1.54407E-02 8.38955E-02-6.80401E-14 8.64933E-14
 -1      3057 2.31942E+01-1.80782E+00-1.55290E-02-2.75410E-01-8.69109E-14 5.60077E-14
 -1      3058 2.27539E+01-2.03420E+00-1.33219E-02 5.87927E-01-3.65682E-14 7.36045E-14
 -1      3059 2.36471E+01-1.64885E+00-3.95780E-04-7.68824E-01-1.08111E-13 1.28437E-13
 -1      3060 2.37690E+01-1.29785E+00-1.17039E-02-1.13411E+00-1.00930E-13 1.42295E-13
 -1      3061 2.37065E+01-2.07115E+00-4.75368E-03-2.43675E-01-5.81349E-14 1.75760E-13
 -1      3062 2.39959E+01-7.42782E-01-2.96418E-02-1.59504E+00-7.32231E-14 1.46883E-13
 -1      3063 2.39712E+01 4.57993E-02 1.76674E-03-1.78731E+00-1.20286E-13 1.72806E-13
 -1      3064 2.44420E+01-1.27454E+00-2.56150E-03-1.25060E+00-6.34501E-14 2.49830E-13
 -1      3065 2.38497E+01 9.58581E-01-5.91180E-02-1.88971E+00-2.16107E-13 1.75477E-13
 -1      3066 2.37314E+01 1.91848E+00 6.40864E-03-1.68344E+00-3.17069E-13 1.50875E-13
 -1      3067 2.46764E+01 5.20427E-01 6.17137E-04-1.93899E+00-1.63305E-13 1.76477E-13
 -1      3068 2.34454E+01 2.72801E+00-6.11418E-02-1.15775E+00-4.74381E-13 1.01895E-13
 -1      3069 2.33136E+01 3.28740E+00-3.90083E-02-5.79477E-01-5.07216E-13 1.05714E-14
 -1      3070 2.43774E+01 2.73407E+00-2.76094E-02-1.62487E+00-4.60902E-13 2.55584E-13
 -1      3071 2.38713E+01 3.56813E+00-5.05095E-02 7.23391E-01-4.67328E-13-1.91456E-13
 -1      3072 2.39772E+01 3.08464E+00-3.11583E-02 1.42090E+00-4.01575E-13-2.36432E-13
 -1      3073 2.41725E+01 2.21303E+00-5.10558E-02 1.87546E+00-3.35787E-13-2.93924E-13
 -1      3074 2.38920E+01 4.83793E-01 9.71647E-03 1.99631E+00-1.33098E-13-3.63929E-13
 -1      3075 2.39901E+01-3.88274E-01-4.34694E-02 1.87312E+00-2.59020E-14-3.10995E-13
 -1      3076 2.38314E+01-1.00085E+00-7.25804E-03 1.46497E+00-4.40511E-14-2.64129E-13
 -1      3077 2.37411E+01-1.44855E+00-5.29352E-03 1.13590E+00-4.65574E-14-3.39094E-13
 -1      3078 2.45071E+01-8.58849E-01-1.95973E-03 1.63339E+00-2.70270E-14-3.37317E-13
 -1      3079 2.33257E+01-1.70114E+00-1.62406E-02 6.38025E-01 2.12278E-14-3.25927E-13
 -1      3080 2.31163E+01-1.75995E+00 1.28089E-02 2.70406E-01 1.05113E-13-3.99776E-13
 -1      3081 2.38473E+01-1.91011E+00-8.00407E-03 6.52773E-01-7.04558E-15-3.05734E-13
 -1      3082 2.26102E+01-1.69980E+00-1.37647E-02-1.14326E-01 1.53657E-13-3.50776E-13
 -1      3083 2.23481E+01-1.53592E+00 1.73892E-02-4.00455E-01 2.61404E-13-3.19528E-13
 -1      3084 2.29140E+01-2.03946E+00-1.39169E-02-2.47277E-01 1.10331E-13-2.53067E-13
 -1      3085 2.19016E+01-1.33811E+00-7.95999E-03-6.28619E-01 2.80637E-13-3.17268E-13
 -1      3086 2.16489E+01-1.10169E+00 1.52661E-02-8.09875E-01 2.80097E-13-3.39411E-13
 -1      3087 2.19949E+01-1.65988E+00-1.74743E-02-8.18148E-01 2.51393E-13-3.51483E-13
 -1      3088 2.13121E+01-8.78730E-01-3.33806E-03-9.11542E-01 1.86524E-13-3.25633E-13
 -1      3089 2.11024E+01-6.55958E-01 1.10730E-02-1.00318E+00 4.63082E-14-2.86362E-13
 -1      3090 2.12583E+01-1.12048E+00-1.52416E-02-1.10571E+00 2.10108E-13-2.92244E-13
 -1      3091 2.08742E+01-4.64882E-01-4.88708E-04-1.02252E+00 2.73172E-14-2.13905E-13
 -1      3092 2.07142E+01-2.91011E-01 7.00389E-03-1.04980E+00 4.69535E-14-1.53035E-13
 -1      3093 2.07370E+01-6.18980E-01-1.13959E-02-1.18949E+00 9.13845E-14-7.76103E-14
 -1      3094 2.05710E+01-1.49686E-01 8.88135E-04-1.02155E+00 7.96256E-14-7.96194E-14
 -1      3095 2.04547E+01-2.98169E-02 3.93685E-03-1.00687E+00 1.90054E-13-5.35249E-14
 -1      3096 2.03972E+01-2.29915E-01-7.78567E-03-1.15532E+00 1.20935E-13-2.79723E-14
 -1      3097 2.03715E+01 6.29692E-02 1.51910E-03-9.53632E-01 1.76372E-13-1.61306E-13
 -1      3098 2.02886E+01 1.36089E-01 1.82602E-03-9.14213E-01 1.76307E-13-1.86470E-13
 -1      3099 2.01911E+01 3.76859E-02-4.88509E-03-1.05760E+00 1.21284E-13-7.02330E-14
 -1      3100 2.02447E+01 1.89379E-01 1.73645E-03-8.50269E-01 1.44638E-13-2.61179E-13
 -1      3101 2.01857E+01 2.26955E-01 4.81951E-04-7.98346E-01 7.60687E-14-2.17090E-13
 -1      3102 2.00754E+01 2.00976E-01-2.85267E-03-9.30686E-01 7.56090E-14-1.74123E-13
 -1      3103 2.01657E+01 2.51386E-01 1.75777E-03-7.32323E-01 1.53961E-14-1.78053E-13
 -1      3104 2.01231E+01 2.64274E-01-3.08222E-04-6.76197E-01-1.55069E-14-1.11411E-13
 -1      3105 2.00165E+01 2.85185E-01-1.54442E-03-7.95108E-01 6.65438E-14-2.96208E-13
 -1      3106 2.01167E+01 2.69361E-01 1.68272E-03-6.13183E-01-8.72794E-14-1.69160E-13
 -1      3107 2.00852E+01 2.66496E-01-7.20234E-04-5.58203E-01 8.00431E-15-1.35386E-13
 -1      3108 1.99911E+01 3.14455E-01-7.51108E-04-6.62911E-01-1.60814E-14-2.57387E-13
 -1      3109 2.00859E+01 2.59731E-01 1.55595E-03-5.01013E-01 3.88139E-15-2.06436E-13
 -1      3110 2.00621E+01 2.47802E-01-8.89150E-04-4.50370E-01 6.26668E-14-1.79803E-13
 -1      3111 1.99839E+01 3.08534E-01-3.06442E-04-5.40922E-01-4.35462E-14-2.97067E-13
 -1      3112 2.00659E+01 2.34622E-01 1.40131E-03-4.00347E-01 1.57126E-13-2.13835E-13
 -1      3113 2.00475E+01 2.18314E-01-9.08289E-04-3.55705E-01 1.10650E-13-1.51026E-13
 -1      3114 1.99856E+01 2.82239E-01-7.80956E-05-4.32640E-01 8.74921E-14-4.19072E-13
 -1      3115 2.00522E+01 2.02429E-01 1.23188E-03-3.13228E-01-3.69778E-14-1.53738E-13
 -1      3116 2.00377E+01 1.84837E-01-8.41996E-04-2.75195E-01-1.00811E-13-1.33549E-13
 -1      3117 1.99908E+01 2.45989E-01 2.54891E-05-3.39433E-01 1.25251E-14-4.07748E-13
 -1      3118 2.00421E+01 1.68622E-01 1.05835E-03-2.40013E-01-4.28573E-14-1.14629E-14
 -1      3119 2.00306E+01 1.51634E-01-7.34862E-04-2.08503E-01 7.97223E-14-4.34145E-14
 -1      3120 1.99965E+01 2.06690E-01 5.80011E-05-2.61239E-01-2.23567E-14-1.48328E-13
 -1      3121 2.00342E+01 1.36469E-01 8.90488E-04-1.79992E-01 6.20172E-14-8.65786E-14
 -1      3122 2.00252E+01 1.21116E-01-6.14609E-04-1.54510E-01 1.41308E-13-1.13855E-14
 -1      3123 2.00014E+01 1.68597E-01 5.47824E-05-1.97085E-01 5.43045E-14-9.84541E-14
 -1      3124 2.00279E+01 1.07705E-01 7.34447E-04-1.31870E-01 1.93123E-13-5.00046E-14
 -1      3125 2.00207E+01 9.44485E-02-4.96824E-04-1.11713E-01 6.43449E-14-1.27153E-13
 -1      3126 2.00050E+01 1.34058E-01 3.83789E-05-1.45511E-01 9.54037E-14-1.63711E-13
 -1      3127 2.00225E+01 8.30600E-02 5.93830E-04-9.40829E-02-3.51449E-15-1.08942E-13
 -1      3128 2.00169E+01 7.20085E-02-3.89867E-04-7.84666E-02 2.35675E-14-7.95415E-14
 -1      3129 2.00073E+01 1.04146E-01 1.90778E-05-1.04849E-01 2.29659E-14-1.67273E-13
 -1      3130 2.00180E+01 6.26418E-02 4.70895E-04-6.49995E-02 8.54584E-15-7.53269E-15
 -1      3131 2.00137E+01 5.36884E-02-2.97675E-04-5.31457E-02-8.29158E-15 3.21352E-14
 -1      3132 2.00084E+01 7.91354E-02 1.84864E-06-7.33913E-02 3.23551E-15-1.77367E-13
 -1      3133 2.00143E+01 4.61875E-02 3.66323E-04-4.30578E-02-1.57960E-13-8.96928E-14
 -1      3134 2.00109E+01 3.91101E-02-2.21373E-04-3.42460E-02-2.16582E-13-1.58971E-13
 -1      3135 2.00087E+01 5.88147E-02-1.11696E-05-4.95117E-02-1.70126E-13-3.45764E-13
 -1      3136 2.00111E+01 3.32408E-02 2.79490E-04-2.68448E-02-9.57125E-14-2.34277E-13
 -1      3137 2.00085E+01 2.77655E-02-1.60328E-04-2.04404E-02-2.60071E-13-2.36916E-13
 -1      3138 2.00083E+01 4.27045E-02-1.95767E-05-3.17369E-02-2.38014E-13-4.19783E-13
 -1      3139 2.00084E+01 2.32641E-02 2.09053E-04-1.51353E-02-2.97134E-13-1.67157E-13
 -1      3140 2.00065E+01 1.91049E-02-1.13138E-04-1.06009E-02-1.49166E-13-1.86493E-13
 -1      3141 2.00074E+01 3.02030E-02-2.39467E-05-1.87859E-02-1.95579E-13-3.95077E-13
 -1      3142 2.00062E+01 1.57067E-02 1.53294E-04-6.90484E-03-1.05748E-13-1.10201E-13
 -1      3143 2.00049E+01 1.25879E-02-7.79999E-05-3.80156E-03-6.91868E-14-1.59954E-14
 -1      3144 2.00064E+01 2.06741E-02-2.54750E-05-9.57998E-03-8.95344E-14-2.40166E-13
 -1      3145 2.00045E+01 1.00438E-02 1.10028E-04-1.32507E-03-1.06216E-13-6.19780E-14
 -1      3146 2.00035E+01 7.71202E-03-5.24581E-05 6.93159E-04-1.13690E-13 1.08961E-13
 -1      3147 2.00052E+01 1.35051E-02-2.43329E-05-3.24081E-03-1.10491E-13-4.41351E-14
 -1      3148 2.00030E+01 5.79392E-03 7.66384E-05 2.25033E-03-3.51764E-14 1.73414E-13
 -1      3149 2.00024E+01 4.03362E-03-2.98874E-05 3.44359E-03 3.07546E-15 2.50463E-13
 -1      3150 2.00040E+01 8.13347E-03-2.01377E-05 9.21284E-04-6.21912E-14-1.62361E-14
 -1      3151 2.00019E+01 2.68263E-03 5.58954E-05 4.25541E-03-1.39547E-13 2.06788E-13
 -1      3152 2.00014E+01 1.28583E-03-1.70015E-05 4.82629E-03 8.38215E-14 8.79096E-14
 -1      3153 2.00019E+01 1.18132E-03-3.81950E-05 4.65254E-03-2.19872E-14-7.98369E-14
 -1      3154 2.00029E+01 4.14546E-03-3.71686E-05 3.37603E-03-9.37743E-14-4.43598E-14
 -1      3155 2.02109E+01 7.40164E-01 3.76163E-03-1.59561E+00 1.44928E-13-7.05589E-14
 -1      3156 2.01876E+01 8.10099E-01-2.86955E-05-1.41489E+00 1.63249E-13-5.74652E-14
 -1      3157 2.16109E+01-4.06034E+00 1.17042E-01-4.14440E+00-3.71432E-13-1.64055E-13
 -1      3158 2.35283E+01-4.68985E+00-1.09305E-01-3.21345E+00-3.78558E-13-1.73838E-13
 -1      3159 2.13620E+01-1.42122E+00 2.10064E-02-2.64904E+00-1.41409E-13-1.13155E-13
 -1      3160 2.08663E+01-8.73078E-01 2.22018E-02-2.68431E+00-1.08248E-13-1.62238E-13
 -1      3161 2.06277E+01-4.27444E-01 1.30836E-02-2.51825E+00-4.15742E-14-1.55561E-13
 -1      3162 2.03513E+01-7.31112E-02 7.88417E-03-2.44491E+00 4.88555E-15-1.32339E-13
 -1      3163 1.98236E+01-6.29735E-01-2.25130E-02-2.87026E+00-5.71784E-14-1.72929E-13
 -1      3164 2.47275E+01-3.76550E+00 3.73561E-02-1.69726E+00-3.24549E-13 2.99066E-15
 -1      3165 2.36339E+01-3.30885E+00 7.79288E-02-2.33126E+00-3.18407E-13-6.70852E-14
 -1      3166 2.04590E+01 1.35995E+00-1.27019E-03-8.09048E-02 3.40528E-13-5.24384E-14
 -1      3167 2.02709E+01 1.71976E+00 1.29760E-03 3.16510E-02 3.54567E-13-9.76408E-14
 -1      3168 2.01581E+01 1.63657E+00 3.37590E-03-1.94477E-01 3.20067E-13-1.02601E-13
 -1      3169 2.04298E+01 1.19609E+00-2.38502E-04-3.73251E-01 3.11013E-13-4.54195E-14
 -1      3170 2.00013E+01 2.94049E-05-5.04638E-05-5.24318E-03 4.00276E-14-1.51271E-13
 -1      3171 2.00025E+01 2.22129E-03 7.25429E-05-4.32172E-03 7.36531E-14-6.11116E-14
 -1      3172 2.34836E+01-4.42095E+00 1.70269E-01 3.24440E+00-3.13215E-13-4.53448E-13
 -1      3173 1.88655E+01-1.19221E-01 2.72404E-03 2.63352E+00-7.61591E-14-6.28404E-14
 -1      3174 1.91574E+01-5.52631E-01 4.32130E-02 2.83772E+00-1.44118E-13-1.72374E-13
 -1      3175 1.89085E+01 4.48172E-01-7.84371E-03 2.15724E+00-2.52847E-13-1.63385E-14
 -1      3176 1.90120E+01 2.24741E-01 2.43702E-02 2.33872E+00-7.88547E-14-4.23567E-14
 -1      3177 1.80235E+01 2.44476E-01 3.89462E-03 2.49999E+00-1.30698E-13-3.01148E-15
 -1      3178 1.90888E+01 7.15214E-01-9.95478E-03 1.77804E+00-2.52172E-13 1.23350E-15
 -1      3179 1.91040E+01 6.23771E-01 1.35659E-02 1.93610E+00-3.08695E-13 2.71340E-14
 -1      3180 1.83474E+01 7.02018E-01 5.38081E-03 1.98152E+00-2.93727E-13-1.22277E-14
 -1      3181 1.92973E+01 7.96718E-01-9.35408E-03 1.46941E+00-1.47722E-13 1.05222E-16
 -1      3182 1.92786E+01 7.82809E-01 7.77946E-03 1.60783E+00-1.76567E-13 8.02760E-14
 -1      3183 1.86963E+01 8.91174E-01 6.14154E-03 1.60608E+00-2.26078E-13 5.81663E-14
 -1      3184 1.94866E+01 7.74316E-01-8.03506E-03 1.21055E+00-2.10075E-13 2.03338E-13
 -1      3185 1.94609E+01 8.02097E-01 4.92383E-03 1.33268E+00-1.40619E-13 1.35054E-13
 -1      3186 1.90109E+01 9.22039E-01 5.83284E-03 1.31823E+00-2.21721E-13 1.50543E-13
 -1      3187 1.96406E+01 6.99956E-01-6.66394E-03 9.89378E-01-5.04165E-14 1.77632E-13
 -1      3188 1.96193E+01 7.47186E-01 3.55346E-03 1.09687E+00-1.30795E-13 1.94567E-13
 -1      3189 1.92717E+01 8.67107E-01 5.00913E-03 1.08466E+00-1.45202E-13 2.97262E-13
 -1      3190 1.97582E+01 6.04866E-01-5.42402E-03 7.99669E-01-1.36366E-13 2.55206E-13
 -1      3191 1.97443E+01 6.58437E-01 2.86927E-03 8.93244E-01 1.92351E-14 3.08364E-13
 -1      3192 1.94772E+01 7.71052E-01 4.00801E-03 8.87947E-01-8.65644E-14 4.49597E-13
 -1      3193 1.98440E+01 5.06712E-01-4.34934E-03 6.37995E-01-2.13817E-13 1.13216E-13
 -1      3194 1.98371E+01 5.59360E-01 2.47169E-03 7.18180E-01-1.66840E-13 1.95034E-13
 -1      3195 1.96336E+01 6.60634E-01 3.06908E-03 7.19772E-01-7.83774E-14 3.74825E-13
 -1      3196 1.99043E+01 4.14738E-01-3.44118E-03 5.01853E-01-1.93707E-13 7.19768E-14
 -1      3197 1.99027E+01 4.62814E-01 2.17745E-03 5.69391E-01-2.09839E-13 6.82890E-15
 -1      3198 1.97494E+01 5.50919E-01 2.26512E-03 5.76128E-01-1.64029E-13 1.46979E-14
 -1      3199 1.99453E+01 3.33136E-01-2.68718E-03 3.88888E-01-7.46472E-14-1.72335E-14
 -1      3200 1.99472E+01 3.75116E-01 1.91590E-03 4.44783E-01-8.18643E-14 1.70646E-14
 -1      3201 1.98332E+01 4.49802E-01 1.62762E-03 4.54600E-01-9.42471E-14-1.52504E-13
 -1      3202 1.99723E+01 2.63304E-01-2.07035E-03 2.96615E-01 2.69799E-14-2.14679E-13
 -1      3203 1.99762E+01 2.98834E-01 1.66137E-03 3.42100E-01-1.92612E-14-1.71323E-13
 -1      3204 1.98927E+01 3.60783E-01 1.14403E-03 3.53242E-01 6.23901E-14-1.18359E-13
 -1      3205 1.99894E+01 2.05085E-01-1.57705E-03 2.22396E-01 8.88407E-14-2.36860E-13
 -1      3206 1.99942E+01 2.34464E-01 1.41232E-03 2.58826E-01-1.51180E-14-2.74581E-13
 -1      3207 1.99340E+01 2.84890E-01 7.83741E-04 2.70041E-01 7.13836E-14-2.85777E-13
 -1      3208 1.99998E+01 1.57485E-01-1.18858E-03 1.63599E-01 1.73169E-13-1.54955E-13
 -1      3209 2.00046E+01 1.81349E-01 1.17689E-03 1.92327E-01 1.37340E-13-2.19466E-13
 -1      3210 1.99622E+01 2.21725E-01 5.22012E-04 2.02808E-01 6.70040E-14-1.38897E-13
 -1      3211 2.00056E+01 1.19192E-01-8.84560E-04 1.17743E-01 2.05655E-13-2.01973E-14
 -1      3212 2.00101E+01 1.38277E-01 9.61050E-04 1.40046E-01 1.89072E-13-1.38697E-13
 -1      3213 1.99809E+01 1.70121E-01 3.38556E-04 1.49343E-01 1.28826E-13-5.99036E-14
 -1      3214 2.00084E+01 8.88463E-02-6.48389E-04 8.25478E-02-1.07665E-13 1.89262E-13
 -1      3215 2.00124E+01 1.03886E-01 7.69021E-04 9.95931E-02 9.04498E-14 6.75534E-14
 -1      3216 1.99929E+01 1.28623E-01 2.10850E-04 1.07530E-01 4.35261E-14-4.72176E-15
 -1      3217 2.00093E+01 6.51397E-02-4.67027E-04 5.59748E-02-3.76552E-13 3.24961E-13
 -1      3218 2.00128E+01 7.68230E-02 6.03716E-04 6.87914E-02-3.03946E-13 2.30363E-13
 -1      3219 2.00003E+01 9.57503E-02 1.23830E-04 7.53700E-02-2.01335E-13 1.82072E-13
 -1      3220 2.00092E+01 4.68775E-02-3.29632E-04 3.62572E-02-1.35504E-13 1.70899E-13
 -1      3221 2.00120E+01 5.58268E-02 4.65132E-04 4.57278E-02-2.44202E-13 2.32475E-13
 -1      3222 2.00045E+01 7.00854E-02 6.60919E-05 5.10499E-02-2.01378E-13 2.07624E-13
 -1      3223 2.00084E+01 3.30015E-02-2.27053E-04 2.19053E-02 2.26554E-14 1.28811E-13
 -1      3224 2.00106E+01 3.97620E-02 3.51478E-04 2.87682E-02-5.27368E-14 1.40898E-13
 -1      3225 2.00065E+01 5.03280E-02 2.89977E-05 3.29855E-02-9.76054E-14 1.34997E-13
 -1      3226 2.00072E+01 2.25940E-02-1.51847E-04 1.16903E-02-1.71530E-13-2.30233E-14
 -1      3227 2.00090E+01 2.76357E-02 2.60179E-04 1.65495E-02 2.81722E-14 9.46535E-14
 -1      3228 2.00071E+01 3.53262E-02 6.32415E-06 1.98313E-02 1.63687E-14 1.28403E-13
 -1      3229 2.00059E+01 1.48642E-02-9.85345E-05 4.62198E-03-8.07307E-14 3.14578E-14
 -1      3230 2.00073E+01 1.85907E-02 1.88756E-04 7.95982E-03-2.43864E-13-7.88377E-14
 -1      3231 2.00069E+01 2.40757E-02-7.19783E-06 1.04708E-02-1.22213E-13 4.71858E-15
 -1      3232 2.00046E+01 9.13683E-03-6.11302E-05-7.05749E-05 1.71604E-13 2.44115E-13
 -1      3233 2.00057E+01 1.18884E-02 1.34546E-04 2.11790E-03 3.75449E-14 8.51776E-14
 -1      3234 2.00061E+01 1.57049E-02-1.60755E-05 3.99988E-03-1.08153E-13 2.09815E-14
 -1      3235 2.00034E+01 4.77963E-03-5.71240E-05-3.04142E-03 1.38929E-13 9.39398E-14
 -1      3236 2.00042E+01 6.93293E-03 9.72173E-05-1.65399E-03 2.76955E-13 2.80541E-13
 -1      3237 2.00050E+01 9.49740E-03-1.79996E-05-2.65890E-04 1.30113E-13-7.54035E-14
 -1      3238 2.00037E+01 2.44767E-03-6.08103E-06 1.56107E-03-2.80480E-13-6.76986E-14
 -1      3239 2.00038E+01 2.52415E-03-1.65288E-05 9.61693E-04-1.85299E-13-3.28339E-13
 -1      3240 2.50070E+01 4.81411E+00-1.12129E-01-3.00297E-01-6.84938E-13 7.75890E-14
 -1      3241 2.57630E+01 4.46527E+00-1.39792E-01-1.34171E+00-6.73933E-13 1.60361E-13
 -1      3242 2.00038E+01 2.63613E-03-1.24728E-05 4.11656E-04-1.95747E-13-5.45963E-13
 -1      3243 2.00039E+01 2.62540E-03-1.08407E-05-2.04257E-04 1.37122E-14-1.67962E-13
 -1      3244 2.00044E+01 5.00713E-03 4.22252E-05 6.15930E-04-2.36431E-13-4.05087E-13
 -1      3245 2.62774E+01-3.45557E+00 7.61349E-02-7.70268E-01 1.34533E-13-1.60566E-13
 -1      3246 2.67459E+01-2.50129E+00-1.40236E-01 3.80259E-01-7.29347E-14-3.39444E-13
 -1      3247 1.34205E+01-2.06365E+00-4.65919E-02 4.90232E+00-4.45047E-13 2.39031E-13
 -1      3248 1.13613E+01-9.52093E-01 2.11380E-01 3.94111E+00-4.44582E-13 5.30395E-13
 -1      3249 2.58189E+01-4.13150E+00 8.16136E-02-1.38096E+00-3.44625E-13 1.34823E-14
 -1      3250 2.02333E+01 2.00275E+00 5.66225E-03-3.60180E-01-1.92765E-13-3.71676E-13
 -1      3251 2.00034E+01 1.95446E-03-1.43449E-06 2.72095E-03-2.22876E-13-3.85141E-13
 -1      3252 2.00036E+01 2.10362E-03-1.87767E-05 2.12386E-03-2.67021E-13-1.11889E-13
 -1      3253 2.00042E+01 4.54309E-03 3.64395E-05 1.64422E-03-2.76082E-13-1.99928E-13
 -1      3254 2.00028E+01 1.24152E-03-9.53026E-06 3.86374E-03-1.09318E-13-5.75419E-14
 -1      3255 2.00032E+01 1.44947E-03-1.68803E-05 3.30083E-03-2.38593E-13-3.37453E-13
 -1      3256 2.00038E+01 3.67722E-03 2.45548E-05 2.72147E-03-1.88780E-13-3.79115E-13
 -1      3257 2.02623E+01 8.76711E-01 1.65748E-03-1.21660E+00 1.95798E-13-4.40139E-14
 -1      3258 2.02687E+01 9.48481E-01 1.01836E-03-1.00919E+00 2.39262E-13-6.24674E-15
 -1      3259 1.99290E+01 1.01566E+00 9.73503E-04-1.28549E+00 1.96570E-13-3.17177E-14
 -1      3260 1.58969E+01-2.41372E+00 1.11987E-01-5.03682E+00-2.59806E-13-3.72175E-13
 -1      3261 1.86932E+01-3.60029E+00-1.97192E-02-5.02552E+00-3.19071E-13-2.43389E-13
 -1      3262 1.91797E+01-1.13575E+00 3.19833E-02 3.21463E+00-1.12120E-13-2.13572E-13
 -1      3263 1.97536E+01-1.87927E+00 5.33859E-02 3.41818E+00-1.39312E-13-2.55899E-13
 -1      3264 1.78447E+01-6.67925E-01-1.20986E-02 3.22916E+00-1.81573E-13-1.58602E-13
 -1      3265 8.52995E+00 1.92237E-02 4.39394E-02 5.06648E-01 6.59368E-14-5.06845E-13
 -1      3266 8.79611E+00-1.71927E-01 1.64319E-01-1.83552E+00 2.02165E-14-5.59996E-13
 -1      3267 2.74968E+01-6.95362E-01-8.50068E-02-1.31048E+00-1.84859E-13 3.90465E-13
 -1      3268 2.77053E+01-2.33561E+00-1.07665E-02-1.86352E-01-7.66314E-14 3.54355E-13
 -1      3269 2.06743E+01-2.68373E+00 1.10340E-01 3.59423E+00-2.44587E-13-3.97640E-13
 -1      3270 2.16116E+01-3.73183E+00 3.09697E-02 3.59909E+00-3.40984E-13-4.80439E-13
 -1      3271 2.08509E+01-4.20738E+00-6.25947E-02 4.32676E+00-3.19376E-13-5.52475E-13
 -1      3272 1.85401E+01-2.25179E+00-4.52027E-02 4.04291E+00-2.39891E-13-2.15425E-13
 -1      3273 1.21664E+01-1.26071E+00 1.14551E-01-4.63656E+00 8.19900E-14 8.12531E-13
 -1      3274 1.45436E+01-2.30153E+00 4.77669E-02-5.34803E+00 1.76768E-13 7.70564E-13
 -1      3275 1.27175E+01-4.85659E-01 1.06667E-01-3.62115E+00-8.75550E-14 6.71324E-13
 -1      3276 2.26711E+01-2.66911E+00 3.04145E-02-2.47567E+00-2.32210E-13-7.59539E-14
 -1      3277 2.18718E+01-1.99278E+00 4.59467E-02-2.73573E+00-1.54454E-13-9.33836E-14
 -1      3278 2.04256E+01-1.77149E+00-4.01766E-02-3.21875E+00-1.47136E-13-1.77570E-13
 -1      3279 2.16909E+01-3.25262E+00-6.64809E-02-3.37429E+00-2.79644E-13-1.26295E-13
 -1      3280 1.65625E+01-3.18449E+00 1.04218E-02 5.58093E+00 2.92100E-13 3.05728E-14
 -1      3281 1.37807E+01-2.01137E+00 1.46298E-01 5.28012E+00 3.16858E-13-2.46914E-13
 -1      3282 2.27737E+01-4.63364E+00 1.08343E-01-4.04823E+00 3.72063E-13 2.90892E-13
 -1      3283 2.46056E+01-4.59814E+00-1.22725E-01-2.55527E+00 2.60954E-13 7.69142E-14
 -1      3284 2.04382E+01 9.24405E-01 4.57015E-03 4.16060E-01-1.22699E-13-2.56571E-13
 -1      3285 2.04464E+01 7.41155E-01-1.69036E-03 5.99493E-01-1.18536E-13-2.32099E-13
 -1      3286 2.03118E+01 7.90791E-01-3.13519E-03 7.00564E-01-1.07791E-13-2.34839E-13
 -1      3287 2.03329E+01 1.58372E+00-5.95261E-04-1.36565E-01-1.70470E-13-3.32189E-13
 -1      3288 2.03595E+01 1.20109E+00-1.93307E-03 2.21443E-01-1.43507E-13-3.00598E-13
 -1      3289 2.02242E+01 1.27908E+00-1.17640E-03 3.29407E-01-1.22027E-13-2.92262E-13
 -1      3290 2.00485E+01 1.96894E+00-9.14976E-04-9.42603E-02-1.28701E-13-3.61468E-13
 -1      3291 2.66172E+01-3.71087E+00-9.29742E-02 1.24263E+00-5.43315E-15 3.33990E-13
 -1      3292 2.51296E+01-4.57314E+00 8.97923E-02 2.72207E+00 1.63768E-13 3.17114E-13
 -1      3293 2.62282E+01-3.30460E+00-2.51655E-02 4.75693E-01 2.86923E-14 3.60233E-13
 -1      3294 1.91328E+01 2.88474E+00-5.12265E-03 1.31076E-01 2.12722E-13-3.57028E-13
 -1      3295 1.90872E+01 2.92497E+00-3.87514E-03 1.15670E-01 1.70657E-13-3.63288E-13
 -1      3296 1.14312E+01-1.03772E+00 2.88174E-02 4.30365E+00 2.42105E-13-4.20608E-13
 -1      3297 9.84707E+00-1.18394E-01 1.67758E-01 2.57780E+00 1.74090E-13-4.82517E-13
 -1      3298 1.90808E+01 2.92324E+00-5.31040E-03 1.37155E-01 1.50639E-13-3.57938E-13
 -1      3299 1.91093E+01 2.90095E+00-3.90275E-03 1.11977E-01 1.14595E-13-3.72170E-13
 -1      3300 1.91034E+01 2.70956E+00 7.49854E-03 1.22888E-01 1.50496E-13-3.38550E-13
 -1      3301 1.98014E+01 2.08158E+00 7.10662E-03-8.43369E-02 2.95511E-13-1.85912E-13
 -1      3302 1.96798E+01 2.39347E+00-4.85213E-03 1.11042E-01 3.11281E-13-2.30180E-13
 -1      3303 1.94944E+01 2.56712E+00-5.67592E-03 9.34293E-02 2.77518E-13-2.61375E-13
 -1      3304 2.17270E+01-4.19714E+00 6.82515E-02-4.09072E+00 3.60219E-13 2.86649E-13
 -1      3305 2.51150E+01-3.75783E+00 3.42916E-02-1.41464E+00 2.05641E-13-1.30052E-13
 -1      3306 2.65534E+01-1.36916E+00-3.32941E-02 1.22064E+00-8.33014E-14-2.67390E-13
 -1      3307 1.93383E+01 2.71016E+00-4.76208E-03 1.17719E-01 2.60201E-13-2.85602E-13
 -1      3308 1.92172E+01 2.81473E+00-4.99626E-03 1.03450E-01 2.28050E-13-3.20857E-13
 -1      3309 1.91909E+01 2.64121E+00 7.94876E-03 5.42650E-02 2.04500E-13-3.11561E-13
 -1      3310 1.94336E+01 2.43153E+00 8.21122E-03-1.96604E-02 2.39358E-13-2.38657E-13
 -1      3311 2.00034E+01 3.89566E-03 5.44744E-06-3.35162E-03 1.83566E-13-1.14979E-13
 -1      3312 1.96807E+01 2.33048E+00-4.62424E-03 1.13869E-02-5.21479E-14-3.56058E-13
 -1      3313 1.98549E+01 2.15313E+00-5.29178E-03-5.13983E-02-9.49230E-14-3.76001E-13
 -1      3314 1.99769E+01 1.79143E+00 5.30419E-03 1.51837E-01-9.24686E-14-3.17774E-13
 -1      3315 2.50337E+01 1.84856E+00-4.36153E-02 2.10754E+00-3.08687E-13-3.36765E-13
 -1      3316 1.83076E+01-3.51460E+00 1.26451E-01 5.40207E+00 2.92641E-13 1.61350E-13
 -1      3317 1.69766E+01-2.64050E+00 3.59937E-02 5.06270E+00 3.05221E-13 9.29604E-14
 -1      3318 1.96572E+01-3.99934E+00-3.40605E-02 4.95887E+00 2.81566E-13 2.36360E-13
 -1      3319 2.03903E+01-3.26560E+00 6.38496E-02-4.13782E+00-3.21396E-13-1.87151E-13
 -1      3320 1.37223E+01-1.08011E+00 1.00329E-01 4.20972E+00 3.08635E-13-2.64698E-13
 -1      3321 1.96167E+01 1.55808E-01-9.94116E-03-2.45687E+00 3.55779E-14-8.68626E-14
 -1      3322 2.03072E+01 1.95647E-01 9.43193E-03-2.25613E+00 3.28073E-14-1.27644E-13
 -1      3323 2.01635E+01 3.95855E-01 1.60293E-03-2.12975E+00 7.58172E-14-1.05176E-13
 -1      3324 9.77184E+00 4.50128E-01 1.50557E-01-9.07932E-01-1.08963E-13 6.45525E-13
 -1      3325 1.12811E+01 4.88532E-01 6.42986E-02-1.69850E+00-2.10141E-13 6.38108E-13
 -1      3326 1.01000E+01 4.74348E-01 5.76041E-02 1.38599E-01-1.86531E-13 5.29798E-13
 -1      3327 1.37101E+01-1.11647E+00 4.90283E-02-4.19347E+00-1.65368E-13-4.35409E-13
 -1      3328 1.48167E+01-1.83872E+00 8.49925E-02-4.82022E+00-2.14502E-13-4.31571E-13
 -1      3329 1.68328E+01-1.88964E+00 7.71296E-02-4.44242E+00-2.68049E-13-2.70940E-13
 -1      3330 1.08950E+01-1.14061E-01 1.42780E-01-2.41660E+00-2.85119E-14-5.09801E-13
 -1      3331 2.00037E+01 2.00281E-03-1.80734E-05-1.97953E-03 4.79369E-14 6.53166E-13
 -1      3332 2.00036E+01 1.84579E-03 4.04498E-06-2.60592E-03 1.68974E-14 4.39686E-13
 -1      3333 2.02058E+01 5.45371E-01 6.15207E-03-1.94167E+00 1.10323E-13-8.17862E-14
 -1      3334 2.01384E+01 6.54462E-01-2.66443E-04-1.78474E+00 1.35088E-13-7.79258E-14
 -1      3335 1.96490E+01 6.00894E-01-3.00072E-03-2.05979E+00 1.06933E-13-6.35966E-14
 -1      3336 2.53668E+01 3.45670E+00-6.62227E-02-1.59439E+00-5.35086E-13 2.56274E-13
 -1      3337 2.00039E+01 2.47894E-03-1.76356E-05-7.59592E-04 8.66160E-14 1.04214E-13
 -1      3338 2.00038E+01 2.37844E-03-3.13932E-06-1.38480E-03-8.90520E-14 4.27074E-13
 -1      3339 2.00044E+01 4.44807E-03 3.60925E-05-1.45627E-03-4.39042E-14 3.34377E-13
 -1      3340 2.00045E+01 4.97460E-03 4.14966E-05-3.94417E-04-7.69734E-14-2.71856E-13
 -1      3341 1.73863E+01-2.94796E+00 1.76261E-01 5.00706E+00-3.73299E-13-1.37959E-13
 -1      3342 1.10454E+01-3.37017E-01 8.87657E-02 2.83858E+00-3.12167E-13 5.13853E-13
 -1      3343 2.35679E+01-4.55503E+00 2.99119E-02 3.34671E+00 1.86025E-13 2.90885E-13
 -1      3344 1.55573E+01-1.62941E+00 3.43581E-02-4.55134E+00 8.11122E-14 6.52506E-13
 -1      3345 1.64971E+01-2.69796E+00 7.66970E-02-5.23924E+00 2.57343E-13 7.42587E-13
 -1      3346 1.81453E+01-2.97289E+00-2.31968E-02-4.75062E+00 2.50671E-13 5.16628E-13
 -1      3347 2.00017E+01-1.07384E-03-1.17828E-05-4.84233E-03 4.54235E-15 2.37030E-14
 -1      3348 1.08523E+01 3.39391E-01 1.28128E-01 1.20862E+00 1.45960E-13-4.33306E-13
 -1      3349 2.03498E+01 1.00029E+00 5.38973E-04-8.24317E-01 2.58402E-13-1.80015E-14
 -1      3350 2.03736E+01 1.10446E+00 1.84106E-03-5.80594E-01 2.82032E-13-3.35802E-14
 -1      3351 2.02372E+01 1.31388E+00 1.08936E-03-4.97524E-01 2.89443E-13-6.73580E-14
 -1      3352 2.00920E+01 1.15325E+00 1.26505E-03-8.98566E-01 2.49739E-13-2.01958E-14
 -1      3353 2.00023E+01 1.33894E-03-1.27477E-05 4.39936E-03 8.97289E-16 5.88971E-14
 -1      3354 2.00026E+01 1.15562E-03-1.69964E-05 4.14154E-03-1.46979E-13 9.94359E-14
 -1      3355 2.00033E+01 3.09801E-03 2.88708E-05 3.50914E-03-8.59789E-14 3.45716E-14
 -1      3356 2.00028E+01 2.85672E-03 4.77430E-05 3.93441E-03-1.16840E-13-9.34262E-15
 -1      3357 1.64867E+01-1.98297E+00 1.13927E-01 4.38960E+00-3.88196E-13-2.94903E-15
 -1      3358 1.97762E+01 8.49238E-01-9.08420E-05-1.67623E+00 1.40416E-13-6.95048E-14
 -1      3359 1.93726E+01 2.61690E+00-4.74960E-03 9.11099E-02 4.39572E-14-3.22019E-13
 -1      3360 1.95138E+01 2.48844E+00-4.33349E-03 3.79897E-02-1.03015E-14-3.45730E-13
 -1      3361 1.96224E+01 2.14422E+00 6.35967E-03 2.00106E-01-2.17089E-14-3.03374E-13
 -1      3362 2.72766E+01 2.33891E-01-9.75864E-02-1.83715E+00-2.28290E-13 4.03254E-13
 -1      3363 2.66471E+01-9.95035E-01-1.94342E-02-1.34444E+00-1.19422E-13 4.10984E-13
 -1      3364 2.65926E+01 1.43732E+00-5.57121E-02-2.09739E+00-2.80186E-13 3.47146E-13
 -1      3365 2.00046E+01 7.52430E-03-1.84030E-05 6.94792E-04-1.71723E-13-3.62594E-13
 -1      3366 2.00047E+01 7.62985E-03-2.73683E-05 2.71208E-04-1.99815E-13-5.17966E-13
 -1      3367 2.62873E+01 2.32233E+00-7.20062E-02 2.00839E+00-4.07181E-13-3.41817E-13
 -1      3368 2.47041E+01 4.21827E+00-7.38655E-02 2.72639E-01-5.81077E-13-8.05675E-14
 -1      3369 1.57215E+01-1.03812E+00 6.94824E-02 3.92083E+00-3.59695E-13 1.01148E-13
 -1      3370 2.02611E+01 2.43861E-01 5.17579E-03 1.23217E+00-6.57125E-14-1.38616E-13
 -1      3371 2.03578E+01 1.98808E-02 3.15632E-03 1.32796E+00-5.67566E-14-1.30214E-13
 -1      3372 2.04669E+01-2.22498E-01 8.44123E-03 1.44456E+00-5.94320E-14-8.21447E-14
 -1      3373 2.06390E+01-4.96623E-01 3.60529E-03 1.49199E+00-2.52896E-14-7.14912E-14
 -1      3374 2.01319E+01-4.09035E-02-9.78355E-03 1.49067E+00-2.36851E-14-8.72211E-14
 -1      3375 2.08604E+01-7.92415E-01 1.40333E-02 1.56524E+00 2.28897E-15-3.40380E-14
 -1      3376 2.11284E+01-1.12385E+00 2.03702E-03 1.54077E+00 1.05911E-14-3.97422E-14
 -1      3377 2.04207E+01-6.41540E-01-1.60589E-02 1.72046E+00 9.46888E-16-6.61970E-15
 -1      3378 2.15103E+01-1.46248E+00 2.04297E-02 1.52965E+00 2.94205E-14-4.63189E-14
 -1      3379 2.18803E+01-1.82083E+00-3.25871E-03 1.39472E+00 1.67613E-14-2.21918E-14
 -1      3380 2.09677E+01-1.37313E+00-2.26282E-02 1.84045E+00 1.96631E-14-1.90516E-14
 -1      3381 2.24689E+01-2.14638E+00 2.83477E-02 1.22877E+00-9.03314E-15 2.49449E-14
 -1      3382 2.29101E+01-2.42135E+00-1.04332E-02 9.31461E-01 2.26468E-15 7.31960E-14
 -1      3383 2.18617E+01-2.19171E+00-3.00738E-02 1.75644E+00 3.85763E-14-6.07327E-15
 -1      3384 2.36738E+01-2.56795E+00 2.58429E-02 5.21350E-01 1.09047E-14 1.51809E-13
 -1      3385 2.41144E+01-2.52417E+00-1.74764E-02 4.00551E-02-5.41380E-15 2.12647E-13
 -1      3386 2.31780E+01-2.82818E+00-1.95847E-02 1.22227E+00 5.73656E-14 1.57873E-13
 -1      3387 2.54637E+01-4.46800E-01-6.22946E-02-1.81306E+00-1.16216E-13 2.93616E-13
 -1      3388 2.54221E+01 9.08403E-01-3.63058E-02-1.96694E+00-2.41973E-13 2.52142E-13
 -1      3389 2.55423E+01 2.13788E+00-1.10704E-01-2.05781E+00-3.47555E-13 2.85581E-13
 -1      3390 1.63867E+01-4.20050E-01 6.97556E-02 3.21297E+00-2.04465E-13 5.93475E-14
 -1      3391 1.39447E+01-2.42486E-01 5.39281E-02 3.33255E+00-3.18696E-13 3.26100E-13
 -1      3392 1.63228E+01 6.52949E-02 5.00689E-04 2.80001E+00-1.51082E-13 7.85405E-14
 -1      3393 2.43323E+01-2.33371E+00-8.83845E-03 3.71640E-01-1.00263E-14-2.92534E-13
 -1      3394 2.39161E+01-2.49327E+00 3.42076E-02-1.20611E-01 2.65976E-14-2.52715E-13
 -1      3395 2.30834E+01-2.44584E+00-1.67580E-02-5.99189E-01 1.10427E-13-2.07755E-13
 -1      3396 2.26557E+01-2.20790E+00 3.72147E-02-9.19415E-01 2.18258E-13-2.02067E-13
 -1      3397 2.33554E+01-2.92714E+00-6.66853E-02-9.12201E-01 1.15953E-13-1.02968E-13
 -1      3398 2.19923E+01-1.93494E+00-4.60398E-03-1.16005E+00 1.91122E-13-1.53365E-13
 -1      3399 2.15815E+01-1.59582E+00 2.07629E-02-1.32619E+00 2.18747E-13-2.49522E-13
 -1      3400 2.20229E+01-2.37984E+00-4.74911E-02-1.51018E+00 1.68949E-13-4.79616E-14
 -1      3401 2.11459E+01-1.27091E+00 2.90233E-03-1.36369E+00 2.88602E-13-2.21595E-13
 -1      3402 2.08351E+01-9.56300E-01 1.47015E-02-1.41961E+00 2.26535E-13-2.18236E-13
 -1      3403 2.09597E+01-1.54351E+00-2.95351E-02-1.68531E+00 2.49471E-13-6.16026E-14
 -1      3404 2.05650E+01-6.83486E-01 3.94974E-03-1.37614E+00 1.53766E-13-1.38106E-13
 -1      3405 2.03532E+01-4.39127E-01 8.10832E-03-1.36472E+00 1.46468E-13-8.33719E-15
 -1      3406 2.03277E+01-8.47635E-01-1.66801E-02-1.62742E+00 2.58478E-13-1.18973E-13
 -1      3407 2.02058E+01-2.36381E-01 4.32037E-03-1.28270E+00 1.02809E-13-9.37288E-14
 -1      3408 2.00701E+01-6.75591E-02 3.90661E-03-1.23521E+00 1.16990E-13-6.11806E-14
 -1      3409 1.99489E+01-3.15086E-01-1.06753E-02-1.46234E+00 1.08572E-13-1.10479E-13
 -1      3410 2.00033E+01 6.67975E-02 3.84538E-03-1.14187E+00 6.32718E-14-6.14984E-14
 -1      3411 1.99224E+01 1.71193E-01 1.34256E-03-1.07764E+00 5.82877E-14-1.25285E-13
 -1      3412 1.97580E+01 4.75871E-02-6.19187E-03-1.26343E+00 7.30695E-14-1.90672E-13
 -1      3413 1.99040E+01 2.50220E-01 3.11533E-03-9.86043E-01 1.64984E-14-1.15182E-13
 -1      3414 1.98592E+01 3.05797E-01-1.27578E-04-9.16330E-01 2.71645E-14-1.71884E-13
 -1      3415 1.96848E+01 2.69342E-01-3.22763E-03-1.06608E+00 1.01552E-14-1.15534E-13
 -1      3416 1.98677E+01 3.44153E-01 2.45884E-03-8.31961E-01-3.34902E-14-1.83243E-13
 -1      3417 1.98451E+01 3.65464E-01-9.16818E-04-7.63236E-01-2.20614E-14-2.81163E-13
 -1      3418 1.96796E+01 3.85899E-01-1.42809E-03-8.84287E-01-1.12974E-14-8.68986E-14
 -1      3419 1.98669E+01 3.76063E-01 1.95083E-03-6.88262E-01 2.37860E-14-3.41872E-13
 -1      3420 1.98570E+01 3.75037E-01-1.27632E-03-6.24223E-01-9.95492E-14-3.80701E-13
 -1      3421 1.97102E+01 4.29346E-01-3.60631E-04-7.22815E-01-3.90087E-14-1.79611E-13
 -1      3422 1.98835E+01 3.68175E-01 1.56794E-03-5.59224E-01-9.06452E-14-2.94095E-13
 -1      3423 1.98804E+01 3.53856E-01-1.38070E-03-5.01815E-01 4.22148E-14-3.89746E-13
 -1      3424 1.97562E+01 4.25250E-01 2.14925E-04-5.82702E-01-8.91509E-15-4.13480E-13
 -1      3425 1.99067E+01 3.37091E-01 1.28195E-03-4.46557E-01-5.10816E-15-4.39347E-13
 -1      3426 1.99067E+01 3.15895E-01-1.33727E-03-3.96631E-01 5.44888E-14-4.85200E-13
 -1      3427 1.98057E+01 3.92888E-01 4.75596E-04-4.63202E-01-1.11497E-14-4.81545E-13
 -1      3428 1.99305E+01 2.94499E-01 1.06121E-03-3.50511E-01 9.71505E-14-4.81107E-13
 -1      3429 1.99316E+01 2.70796E-01-1.21034E-03-3.08200E-01 2.85409E-14-4.34062E-13
 -1      3430 1.98520E+01 3.45934E-01 5.58067E-04-3.62884E-01 1.17682E-13-5.66872E-13
 -1      3431 1.99517E+01 2.48278E-01 8.80111E-04-2.70366E-01 4.45047E-14-2.52228E-13
 -1      3432 1.99529E+01 2.24856E-01-1.04614E-03-2.35300E-01 8.67821E-14-2.02600E-13
 -1      3433 1.98920E+01 2.93700E-01 5.41496E-04-2.80003E-01 2.15266E-13-3.97377E-13
 -1      3434 1.99691E+01 2.03348E-01 7.28964E-04-2.04748E-01-2.24239E-15-9.98434E-14
 -1      3435 1.99699E+01 1.81793E-01-8.74787E-04-1.76262E-01-2.88380E-14-1.50887E-13
 -1      3436 1.99247E+01 2.42139E-01 4.70699E-04-2.12540E-01 6.04246E-14-2.78671E-13
 -1      3437 1.99824E+01 1.62437E-01 6.00724E-04-1.51980E-01 4.61299E-14-1.53791E-13
 -1      3438 1.99828E+01 1.43529E-01-7.11337E-04-1.29284E-01 6.52760E-14-1.58125E-13
 -1      3439 1.99503E+01 1.94684E-01 3.86580E-04-1.58420E-01 2.47111E-14-1.91304E-13
 -1      3440 1.99922E+01 1.26837E-01 4.89352E-04-1.10303E-01 3.74226E-14-1.80857E-13
 -1      3441 1.99921E+01 1.10844E-01-5.63759E-04-9.25540E-02 2.16600E-14-1.22387E-13
 -1      3442 1.99695E+01 1.53007E-01 3.02344E-04-1.15680E-01 6.71725E-14-3.00437E-13
 -1      3443 1.99988E+01 9.69214E-02 3.93372E-04-7.79632E-02-8.61051E-14-1.55839E-13
 -1      3444 1.99984E+01 8.37891E-02-4.36138E-04-6.43365E-02-1.13481E-13-2.85194E-13
 -1      3445 1.99834E+01 1.17698E-01 2.25952E-04-8.24647E-02-5.93372E-14-3.30066E-13
 -1      3446 2.00030E+01 7.24911E-02 3.11872E-04-5.33106E-02-1.71685E-13-3.95362E-13
 -1      3447 2.00023E+01 6.19747E-02-3.29734E-04-4.30433E-02-2.78385E-13-5.45082E-13
 -1      3448 1.99930E+01 8.86517E-02 1.61746E-04-5.70688E-02-2.45777E-13-4.43139E-13
 -1      3449 2.00053E+01 5.30209E-02 2.43596E-04-3.48621E-02-2.55947E-13-4.06163E-13
 -1      3450 2.00046E+01 4.47826E-02-2.43674E-04-2.72788E-02-2.33122E-13-4.20048E-13
 -1      3451 1.99992E+01 6.53426E-02 1.10607E-04-3.79800E-02-1.82617E-13-3.80671E-13
 -1      3452 2.00063E+01 3.78329E-02 1.87190E-04-2.13302E-02-6.39661E-14-1.68946E-13
 -1      3453 2.00055E+01 3.15032E-02-1.75749E-04-1.58533E-02 2.95359E-15-1.13651E-13
 -1      3454 2.00029E+01 4.70408E-02 7.17688E-05-2.38965E-02-4.68866E-14 3.92243E-14
 -1      3455 2.00064E+01 2.62046E-02 1.41606E-04-1.16279E-02-2.88212E-14-6.74194E-15
 -1      3456 2.00056E+01 2.14147E-02-1.24436E-04-7.77690E-03-9.54193E-14 5.99093E-14
 -1      3457 2.00048E+01 3.29432E-02 4.32457E-05-1.37230E-02 7.24096E-14 3.10220E-13
 -1      3458 2.00059E+01 1.74233E-02 1.05534E-04-4.86680E-03-1.80501E-13 1.17766E-13
 -1      3459 2.00051E+01 1.38371E-02-8.40454E-05-2.26049E-03-7.69219E-14 1.77113E-13
 -1      3460 2.00055E+01 2.22422E-02 2.14308E-05-6.55424E-03-4.54326E-14 2.36306E-13
 -1      3461 2.00050E+01 1.08144E-02 6.96926E-05-3.30869E-04-6.84054E-15 7.99705E-14
 -1      3462 2.00043E+01 8.15294E-03-4.01050E-05 1.30329E-03-5.90726E-14 8.86541E-14
 -1      3463 2.00052E+01 1.42137E-02 1.15532E-05-1.67697E-03-7.91426E-14 3.69065E-13
 -1      3464 2.07983E+01-3.59726E+00 1.06989E-01-4.12948E+00 2.84876E-13 2.65687E-13
 -1      3465 2.24752E+01-4.20716E+00-9.46839E-02-3.24043E+00 3.20351E-13 1.28947E-13
 -1      3466 2.01719E+01 6.47014E-01 3.39553E-03 9.57221E-01-9.11354E-14-1.78492E-13
 -1      3467 2.02172E+01 4.48879E-01 1.59064E-03 1.09123E+00-8.28426E-14-1.49529E-13
 -1      3468 2.00075E+01 4.45971E-01-5.38355E-03 1.20997E+00-6.99856E-14-1.42845E-13
 -1      3469 1.53092E+01-1.37382E+00 3.14398E-02 4.35824E+00 3.31202E-13-1.02321E-13
 -1      3470 1.35450E+01-3.12686E-01 5.60124E-02 3.42049E+00 2.65274E-13-2.58182E-13
 -1      3471 1.22002E+01 4.75171E-01 1.40551E-02 1.79742E+00 2.20479E-13-3.35551E-13
 -1      3472 1.15440E+01 8.44387E-01 1.05018E-01-7.28928E-02 1.08583E-13-4.09076E-13
 -1      3473 1.83242E+01 1.02330E+00-1.05084E-02 1.32720E+00-2.67698E-13 1.43640E-13
 -1      3474 1.81634E+01 1.00368E+00 4.07503E-03 1.47380E+00-2.78525E-13 6.28704E-14
 -1      3475 1.28764E+01 9.50772E-02 4.86507E-02-2.86162E+00-9.81767E-14 5.50435E-13
 -1      3476 1.40852E+01-6.08399E-01 4.57987E-02-3.82816E+00-2.01575E-14 5.39950E-13
 -1      3477 1.78111E+01 9.35087E-01-1.42733E-02 1.63872E+00-3.43768E-13 9.81151E-14
 -1      3478 1.76500E+01 8.33364E-01 9.83807E-03 1.83848E+00-3.38825E-13 1.58547E-14
 -1      3479 1.75406E+01 1.13252E+00 1.39562E-02 1.33106E+00-2.95958E-13 7.89542E-14
 -1      3480 1.72045E+01 6.51293E-01-1.77550E-02 2.08791E+00-1.99316E-13 5.47847E-14
 -1      3481 1.71049E+01 4.16011E-01 2.38267E-02 2.37257E+00-1.01758E-13 5.91862E-14
 -1      3482 1.67893E+01 9.76510E-01 2.03254E-02 1.70873E+00-1.87301E-13 1.28043E-13
 -1      3483 1.87392E+01 9.98943E-01-7.72340E-03 1.09381E+00-3.10841E-13 1.68620E-13
 -1      3484 1.85984E+01 1.02519E+00 1.28747E-03 1.20977E+00-2.71276E-13 1.03563E-13
 -1      3485 1.81345E+01 1.14593E+00 1.06126E-02 1.08297E+00-3.01095E-13 6.43014E-14
 -1      3486 1.90664E+01 9.14248E-01-5.84067E-03 9.05135E-01-1.69375E-13 2.96550E-13
 -1      3487 1.89520E+01 9.64234E-01 2.78163E-04 1.00209E+00-2.50799E-13 1.88338E-13
 -1      3488 1.85982E+01 1.07931E+00 8.28355E-03 8.99868E-01-2.88738E-13 1.31459E-13
 -1      3489 1.93191E+01 8.02287E-01-4.57190E-03 7.45232E-01-1.27371E-13 4.07573E-13
 -1      3490 1.92305E+01 8.62045E-01 3.94322E-06 8.28740E-01-1.68516E-13 4.19438E-13
 -1      3491 1.89577E+01 9.70167E-01 6.36455E-03 7.51660E-01-3.00717E-13 2.65960E-13
 -1      3492 1.95111E+01 6.82902E-01-3.64349E-03 6.07213E-01 1.25212E-14 2.95074E-13
 -1      3493 1.94450E+01 7.44054E-01 5.43884E-05 6.79513E-01 9.25301E-14 4.73627E-13
 -1      3494 1.92342E+01 8.43550E-01 4.88400E-03 6.24282E-01-6.43154E-14 3.80548E-13
 -1      3495 1.96548E+01 5.67855E-01-2.91890E-03 4.88161E-01-1.02894E-13 1.18706E-13
 -1      3496 1.96068E+01 6.25544E-01 1.83200E-04 5.50343E-01-8.05861E-14 1.96893E-13
 -1      3497 1.94447E+01 7.14670E-01 3.71573E-03 5.12661E-01 5.75961E-14 2.27791E-13
 -1      3498 1.97609E+01 4.63101E-01-2.33286E-03 3.86508E-01-3.87502E-14-4.85338E-14
 -1      3499 1.97269E+01 5.14964E-01 3.19776E-04 4.39246E-01-6.72287E-14 2.76833E-14
 -1      3500 1.96033E+01 5.92856E-01 2.80128E-03 4.14833E-01-5.92962E-15 1.73043E-13
 -1      3501 1.98381E+01 3.71323E-01-1.84917E-03 3.01090E-01 1.37914E-13-1.65132E-13
 -1      3502 1.98146E+01 4.16357E-01 4.14289E-04 3.45068E-01 4.34127E-14-4.42974E-14
 -1      3503 1.97215E+01 4.82885E-01 2.09449E-03 3.30171E-01-4.40191E-14 4.36754E-14
 -1      3504 1.98934E+01 2.93240E-01-1.45698E-03 2.30531E-01-1.59448E-13 4.34690E-14
 -1      3505 1.98776E+01 3.31300E-01 4.53815E-04 2.66592E-01-1.04879E-14-6.77747E-14
 -1      3506 1.98084E+01 3.86913E-01 1.53764E-03 2.58281E-01-4.00716E-14 1.50541E-13
 -1      3507 1.99326E+01 2.28241E-01-1.14127E-03 1.73208E-01 8.59247E-14 4.09864E-14
 -1      3508 1.99223E+01 2.59772E-01 4.53266E-04 2.02287E-01-1.25143E-13-2.18807E-14
 -1      3509 1.98716E+01 3.05407E-01 1.11149E-03 1.98344E-01-1.05276E-13 3.12681E-13
 -1      3510 1.99598E+01 1.75055E-01-8.83980E-04 1.27465E-01 9.01074E-14 5.23244E-14
 -1      3511 1.99533E+01 2.00747E-01 4.24178E-04 1.50505E-01 2.09827E-13 9.18847E-14
 -1      3512 1.99170E+01 2.37592E-01 8.03926E-04 1.49295E-01 5.90148E-14 1.27557E-13
 -1      3513 1.99784E+01 1.32253E-01-6.74751E-04 9.16226E-02 8.86276E-14 7.60121E-14
 -1      3514 1.99745E+01 1.52845E-01 3.75630E-04 1.09569E-01 1.42519E-13 5.81123E-14
 -1      3515 1.99490E+01 1.82086E-01 5.71232E-04 1.09983E-01 1.26896E-13 2.74081E-13
 -1      3516 1.99905E+01 9.83374E-02-5.07229E-04 6.40227E-02-2.11512E-13 4.18149E-14
 -1      3517 1.99885E+01 1.14591E-01 3.20869E-04 7.77663E-02-1.18415E-13 1.21615E-13
 -1      3518 1.99711E+01 1.37423E-01 3.99028E-04 7.90742E-02 1.95068E-14 2.20090E-13
 -1      3519 1.99982E+01 7.18572E-02-3.75189E-04 4.31432E-02-1.24915E-13-3.58875E-14
 -1      3520 1.99973E+01 8.44992E-02 2.66187E-04 5.34858E-02-1.98787E-13-7.31569E-14
 -1      3521 1.99859E+01 1.02045E-01 2.73594E-04 5.52121E-02-1.18113E-13 1.78228E-13
 -1      3522 2.00027E+01 5.14760E-02-2.72864E-04 2.76418E-02-2.22565E-13 1.75664E-13
 -1      3523 2.00026E+01 6.11697E-02 2.15229E-04 3.52803E-02-1.60241E-13 2.80302E-15
 -1      3524 1.99955E+01 7.44362E-02 1.83203E-04 3.71288E-02-1.94597E-13-7.96825E-14
 -1      3525 2.00050E+01 3.60057E-02-1.94441E-04 1.63722E-02-1.39793E-14 2.67853E-13
 -1      3526 2.00053E+01 4.33360E-02 1.69927E-04 2.18951E-02-1.02040E-13 2.22811E-13
 -1      3527 2.00012E+01 5.31965E-02 1.18692E-04 2.36914E-02-2.02388E-13 1.20317E-13
 -1      3528 2.00059E+01 2.44058E-02-1.36943E-04 8.37305E-03-8.67514E-14 8.04230E-14
 -1      3529 2.00064E+01 2.98880E-02 1.31421E-04 1.22687E-02 6.14226E-14 2.61554E-13
 -1      3530 2.00044E+01 3.70848E-02 7.40683E-05 1.39237E-02 3.91484E-16 3.20478E-13
 -1      3531 2.00057E+01 1.57735E-02-9.33893E-05 2.85970E-03-9.62839E-14 1.06648E-13
 -1      3532 2.00064E+01 1.98655E-02 1.05464E-04 5.53028E-03-1.01731E-13 1.22424E-13
 -1      3533 2.00057E+01 2.49837E-02 3.60167E-05 7.00179E-03-2.13528E-15 2.02625E-13
 -1      3534 2.00050E+01 9.37397E-03-4.93021E-05-7.04536E-04 7.51098E-14 1.63155E-13
 -1      3535 2.00058E+01 1.23773E-02 7.96923E-05 9.90892E-04-1.19068E-13 3.97631E-14
 -1      3536 2.00057E+01 1.59069E-02-1.20729E-05 2.24845E-03-1.10674E-13 1.07853E-13
 -1      3537 2.00041E+01 5.52360E-03 5.98175E-08 2.38625E-03-2.01842E-13-1.53152E-13
 -1      3538 2.00044E+01 5.99988E-03-3.54014E-05 1.86539E-03-3.30913E-13-2.49740E-13
 -1      3539 2.00034E+01 1.33312E-03-9.43511E-06-3.24033E-03-5.57478E-15 2.65958E-13
 -1      3540 2.00030E+01 1.18497E-03 1.48658E-05-3.81645E-03 1.60849E-15 2.45796E-13
 -1      3541 1.93519E+01 9.73884E-01 3.68442E-03-1.65501E+00 1.41858E-13-9.07313E-14
 -1      3542 1.94229E+01 1.06032E+00-4.07354E-03-1.46833E+00 1.65383E-13-8.83274E-14
 -1      3543 2.39592E+01-4.14513E+00-4.48983E-02 2.38124E+00 1.59590E-13 3.06607E-13
 -1      3544 2.23617E+01-4.16948E+00 1.11150E-01 3.85159E+00 2.53065E-13 2.48683E-13
 -1      3545 1.95946E+01 1.14101E+00 6.80700E-04-1.28295E+00 1.83246E-13-7.97498E-14
 -1      3546 1.96721E+01 1.21982E+00-2.43105E-03-1.08634E+00 2.08808E-13-6.83984E-14
 -1      3547 1.91911E+01 1.27341E+00 5.56604E-03-1.26713E+00 1.75331E-13-1.12281E-13
 -1      3548 1.89561E+01-5.44355E-01 2.22790E-02-3.04029E+00-3.09926E-14-1.64362E-13
 -1      3549 1.87581E+01-7.43878E-02 3.35511E-03-2.80139E+00 1.38724E-14-1.07858E-13
 -1      3550 1.15661E+01 3.81512E-01-1.23579E-04-1.75624E+00 3.73278E-14-4.27561E-13
 -1      3551 1.26087E+01-1.93766E-01 9.55646E-02-3.23150E+00-5.80334E-14-4.48197E-13
 -1      3552 2.00041E+01 3.53568E-03 2.68929E-05-2.61939E-03 2.28962E-13 3.65493E-13
 -1      3553 2.00046E+01 5.86786E-03-3.77809E-05-1.70901E-03 2.47604E-13 4.99498E-13
 -1      3554 2.00044E+01 5.38206E-03-3.80561E-06-2.24708E-03 2.18678E-13 1.89370E-13
 -1      3555 1.25115E+01 1.97106E-02 3.90186E-02 2.60594E+00-3.43516E-13 3.73201E-13
 -1      3556 1.09796E+01 6.24354E-01 1.59755E-01 1.35119E+00-2.02330E-13 4.30121E-13
 -1      3557 1.17003E+01 7.55044E-01 3.69005E-02 2.80165E-01-2.57705E-13 4.12323E-13
 -1      3558 1.33390E+01 5.01149E-01-1.93218E-02 2.04097E+00-2.24305E-13 3.68452E-13
 -1      3559 1.91685E+01 2.82153E+00-4.85826E-03 1.25426E-01 9.29159E-14-3.86294E-13
 -1      3560 1.92590E+01 2.74359E+00-4.15657E-03 8.71060E-02 6.41951E-14-3.62282E-13
 -1      3561 1.93406E+01 2.42444E+00 6.79290E-03 2.04492E-01 4.98914E-14-3.22270E-13
 -1      3562 1.91655E+01 2.62757E+00 7.25185E-03 1.72081E-01 1.07518E-13-3.47717E-13
 -1      3563 2.42654E+01-3.59861E+00 7.25194E-02-1.57789E+00 2.04827E-13-8.19865E-14
 -1      3564 2.49504E+01-3.03952E+00-7.69450E-02-1.76764E-01 4.92419E-14-2.71749E-13
 -1      3565 2.59497E+01-2.63695E+00-8.31802E-02-3.90493E-01-1.46719E-14 3.43442E-13
 -1      3566 2.52942E+01-3.36112E+00 1.42836E-02 7.40963E-01 3.34750E-14 3.23054E-13
 -1      3567 2.01401E+01 1.04189E+00 1.91086E-03 6.26282E-01-8.71143E-14-2.19812E-13
 -1      3568 2.01577E+01 8.41429E-01-3.97413E-06 7.96235E-01-8.21536E-14-2.05624E-13
 -1      3569 1.99703E+01 8.76118E-01-2.48552E-03 8.95483E-01-6.42442E-14-1.66311E-13
 -1      3570 2.57187E+01-7.08250E-04-8.90862E-02 2.12609E+00-1.37139E-13-3.42601E-13
 -1      3571 2.54013E+01-1.38152E+00-1.86732E-02 1.24021E+00-6.30607E-14-3.13277E-13
 -1      3572 1.95780E+01-2.43642E+00 5.57092E-02-4.01683E+00-2.31818E-13-1.84030E-13
 -1      3573 2.51157E+01-2.20592E+00-1.42981E-02 7.68977E-01 1.57391E-14-3.18030E-13
 -1      3574 2.00045E+01 6.78956E-03-1.14723E-05 1.45019E-03-3.07872E-13-2.38867E-13
 -1      3575 2.00046E+01 7.11387E-03-3.53974E-05 1.00860E-03-2.01660E-13-3.42165E-13
 -1      3576 2.00051E+01 1.02040E-02 7.77576E-05 5.91992E-04-1.72684E-13-4.12966E-13
 -1      3577 2.00049E+01 8.93975E-03 3.90570E-05 1.18406E-03-4.05709E-13-2.49921E-13
 -1      3578 1.98494E+01 1.79367E+00-2.33738E-03-2.80933E-01 2.73654E-13-1.54982E-13
 -1      3579 1.96327E+01 1.99960E+00-3.47354E-03-2.43471E-01 2.46179E-13-1.82811E-13
 -1      3580 1.48257E+01 7.05602E-02 3.34117E-03 2.69722E+00 3.03675E-13-1.76002E-13
 -1      3581 1.34855E+01 3.63401E-01 7.09731E-02 2.40571E+00 2.60602E-13-2.81610E-13
 -1      3582 1.37184E+01 8.47456E-01-3.60661E-03 1.27458E+00 1.84149E-13-2.36946E-13
 -1      3583 2.45296E+01-2.90531E+00-1.33397E-02 3.44751E-01 3.01946E-14 2.34044E-13
 -1      3584 2.47156E+01-2.32530E+00-2.69253E-03-4.81325E-01-4.15935E-14 2.57303E-13
 -1      3585 2.50054E+01-1.71254E+00-1.75187E-02-9.87408E-01-6.45144E-14 2.87240E-13
 -1      3586 1.55961E+01 5.86057E-01 3.24080E-02 2.29533E+00-1.70282E-13 3.21892E-13
 -1      3587 1.74966E+01-2.30587E+00-2.38926E-02 4.52040E+00 3.20591E-13 1.33636E-13
 -1      3588 1.63802E+01-1.73795E+00 7.17988E-02 4.52349E+00 3.29281E-13-1.00302E-14
 -1      3589 1.61306E+01-1.08830E+00 3.45837E-02 3.90905E+00 3.21760E-13-5.90153E-14
 -1      3590 2.08155E+01-3.64954E+00 1.98393E-02 4.05726E+00 2.55785E-13 2.11914E-13
 -1      3591 1.95029E+01-2.86321E+00 4.16105E-02-4.04435E+00 2.17545E-13 3.64906E-13
 -1      3592 2.00039E+01 6.22868E-03 5.03810E-05 2.32406E-03-8.40459E-14 8.24618E-14
 -1      3593 2.00033E+01 4.36713E-03-1.01503E-05 3.23659E-03-8.51918E-14-1.03211E-14
 -1      3594 2.00036E+01 4.55881E-03-2.56640E-05 3.03330E-03-9.87791E-14 9.93175E-14
 -1      3595 2.00045E+01 8.55340E-03-4.74068E-06 1.23159E-03-9.49833E-14 2.08205E-13
 -1      3596 1.90281E+01 2.49729E+00-5.20485E-03 1.09171E-01 1.63046E-13-3.22481E-13
 -1      3597 1.90317E+01 2.49750E+00-3.37103E-03 1.47381E-01 1.37094E-13-3.32997E-13
 -1      3598 1.89370E+01 2.69412E-01 1.64562E-02-2.49010E+00 5.36929E-15-9.98781E-14
 -1      3599 1.88903E+01 5.25991E-01-5.11070E-03-2.28099E+00 5.63259E-14-7.56995E-14
 -1      3600 1.79770E+01 3.03385E-01-1.91486E-03-2.60775E+00 2.67415E-14-1.38846E-13
 -1      3601 2.01100E+01 1.44574E+00-2.80432E-03-4.31716E-01 2.81418E-13-9.75193E-14
 -1      3602 1.99679E+01 1.66530E+00 2.29468E-04-3.45929E-01 2.79103E-13-1.17673E-13
 -1      3603 1.98150E+01 1.62293E+00 3.50201E-03-5.06983E-01 2.33945E-13-1.20311E-13
 -1      3604 2.00456E+01 1.35263E+00-8.21360E-04-6.43489E-01 2.55864E-13-8.55599E-14
 -1      3605 2.00210E+01 1.54210E+00-5.62428E-04 2.91584E-01-8.84474E-14-3.00808E-13
 -1      3606 2.00930E+01 1.24513E+00 4.94976E-04 4.93084E-01-8.23362E-14-2.64138E-13
 -1      3607 1.99206E+01 1.29399E+00-1.61018E-03 5.90892E-01-5.11535E-14-2.01010E-13
 -1      3608 1.98291E+01 1.73570E+00-1.63766E-03 3.14297E-01-4.91719E-14-2.75313E-13
 -1      3609 1.30035E+01 7.90543E-01 7.25473E-02-9.24390E-01 8.03561E-14-3.82729E-13
 -1      3610 1.56391E+01-9.82402E-01 4.65043E-02-3.83569E+00 3.90330E-14 5.37268E-13
 -1      3611 1.45039E+01-4.09666E-01 7.85356E-02-3.43692E+00-1.05499E-13-3.88405E-13
 -1      3612 1.91096E+01 7.21357E-01 8.60458E-03-2.04365E+00 1.03607E-13-8.89180E-14
 -1      3613 1.91471E+01 8.61148E-01-5.63196E-03-1.85348E+00 1.16628E-13-8.04250E-14
 -1      3614 1.83967E+01 8.06305E-01 2.81870E-03-2.06228E+00 7.07831E-14-1.14731E-13
 -1      3615 2.00048E+01 7.61023E-03 3.73701E-05-1.60657E-03 2.08025E-13 3.19810E-13
 -1      3616 2.00052E+01 9.95620E-03-4.56288E-05-5.22630E-04 4.84983E-15 3.65252E-13
 -1      3617 1.91490E+01 2.40466E+00-4.67654E-03-2.61636E-02 1.99671E-13-2.81844E-13
 -1      3618 1.90677E+01 2.47520E+00-3.42294E-03 1.96937E-02 1.75468E-13-3.13282E-13
 -1      3619 1.90105E+01 2.31946E+00 7.78017E-03 3.88895E-02 1.56916E-13-2.95189E-13
 -1      3620 2.00031E+01 1.91102E-03-2.67133E-05-3.93943E-03 5.84271E-14 6.97942E-14
 -1      3621 2.00024E+01 3.14862E-04 3.53710E-05-4.49114E-03-4.08082E-14 1.87170E-14
 -1      3622 1.94714E+01 2.05348E+00-3.04754E-03 3.26227E-01 2.20548E-14-2.63976E-13
 -1      3623 1.96425E+01 1.90081E+00-1.91425E-03 3.15724E-01-2.35210E-14-2.69396E-13
 -1      3624 1.96974E+01 1.67811E+00 3.48362E-03 4.51495E-01-3.41653E-14-2.38076E-13
 -1      3625 2.00047E+01 7.60361E-03-3.14391E-05-1.45212E-05-1.62686E-13-4.75977E-13
 -1      3626 2.00047E+01 7.47767E-03-1.75788E-05-4.47439E-04-1.15311E-13-7.37260E-14
 -1      3627 2.00051E+01 1.05737E-02 7.13241E-05 1.50287E-04-1.07484E-13-5.47180E-13
 -1      3628 1.81128E+01-1.97334E+00 2.44794E-03-4.21894E+00-2.11321E-13-2.30278E-13
 -1      3629 1.97986E+01-1.81910E+00 4.64009E-02-3.54122E+00-1.88558E-13-1.76257E-13
 -1      3630 1.93082E+01-1.18172E+00 2.75943E-02-3.37053E+00-1.27384E-13-1.79424E-13
 -1      3631 1.70791E+01-1.32593E+00 2.18849E-02-4.00414E+00-1.95847E-13-2.55632E-13
 -1      3632 2.47021E+01-3.59794E+00 1.93138E-02 1.24628E+00 7.41464E-14 2.88653E-13
 -1      3633 2.34449E+01-3.49912E+00-1.35703E-02 1.89643E+00 1.21689E-13 2.43134E-13
 -1      3634 1.88188E+01 1.09023E+00 5.34820E-03-1.63903E+00 1.34058E-13-1.30446E-13
 -1      3635 1.94924E+01 1.44902E+00 5.43825E-03-9.01788E-01 2.04152E-13-1.14746E-13
 -1      3636 1.98016E+01 1.31069E+00-1.55036E-03-8.95294E-01 2.09534E-13-6.97026E-14
 -1      3637 2.33048E+01-3.36433E+00 3.25908E-02-1.85083E+00 1.93462E-13 1.36566E-14
 -1      3638 2.00047E+01 7.02167E-03-3.48410E-05-7.70764E-04-9.94769E-14 1.45941E-13
 -1      3639 2.00047E+01 6.67550E-03-2.80639E-06-1.26141E-03 1.53797E-13 2.71279E-13
 -1      3640 2.00052E+01 8.85170E-03 5.36631E-05-9.28681E-04 8.80165E-14 1.80336E-13
 -1      3641 2.00038E+01 4.68518E-03-1.77878E-05 2.81292E-03-1.16148E-13 1.63656E-13
 -1      3642 1.80081E+01-6.81173E-01-1.17075E-02-3.35019E+00-5.97248E-14-1.54821E-13
 -1      3643 1.98890E+01 1.38134E+00-1.55755E-03-7.14480E-01 2.29300E-13-9.19673E-14
 -1      3644 1.23519E+01 6.57345E-01 2.08212E-02-1.50651E+00-1.63945E-13 5.73493E-13
 -1      3645 1.25943E+01 4.36491E-01 7.23323E-02-2.31565E+00-1.22685E-13 5.83429E-13
 -1      3646 1.39696E+01 2.98408E-01 4.13135E-02-2.51145E+00-6.52306E-14 4.50359E-13
 -1      3647 2.00042E+01 4.95135E-03 4.21734E-06-2.64421E-03 1.86130E-13 1.81012E-13
 -1      3648 2.00044E+01 7.31481E-03 1.42342E-05 1.90679E-03-2.19049E-13 1.30442E-13
 -1      3649 1.94356E+01 2.16721E+00-3.37063E-03-1.63584E-01 2.26724E-13-2.21065E-13
 -1      3650 1.92741E+01 2.30773E+00-3.99969E-03-1.19470E-01 1.95523E-13-2.40818E-13
 -1      3651 1.91645E+01 2.19790E+00 5.45460E-03-1.65979E-01 1.87858E-13-2.51231E-13
 -1      3652 2.58704E+01-1.58078E+00-1.97410E-02-1.06336E+00-9.12517E-14 3.60288E-13
 -1      3653 2.25324E+01-3.03613E+00 8.79533E-02-2.23358E+00 2.63667E-13 7.61214E-14
 -1      3654 1.97826E+01 2.53127E-01 2.29266E-03 1.47493E+00 3.72460E-15-1.00983E-13
 -1      3655 1.98876E+01-8.39906E-03 8.14492E-03 1.61661E+00 2.30212E-14-5.54020E-14
 -1      3656 1.99493E+01-3.04843E-01 5.97628E-03 1.80688E+00 3.72342E-14 2.98557E-15
 -1      3657 2.01643E+01-6.41172E-01 1.19703E-02 1.92423E+00 4.86848E-14 3.85403E-14
 -1      3658 1.95166E+01-3.68836E-02-8.40102E-03 1.80458E+00 5.45249E-14-1.42475E-14
 -1      3659 2.03645E+01-1.03538E+00 1.25230E-02 2.11202E+00 4.11794E-14 5.44452E-14
 -1      3660 2.07323E+01-1.46050E+00 1.11461E-02 2.16393E+00 5.02046E-14 3.34764E-14
 -1      3661 1.97329E+01-7.45399E-01-1.50627E-02 2.23621E+00 6.48043E-14 6.35256E-14
 -1      3662 2.11540E+01-1.91365E+00 2.48192E-02 2.26702E+00 6.06824E-14 6.91738E-14
 -1      3663 2.17120E+01-2.42654E+00-3.72554E-03 2.21316E+00 6.05323E-14 5.21156E-14
 -1      3664 2.03313E+01-1.72060E+00-2.63669E-02 2.65339E+00 6.82089E-14 1.01276E-13
 -1      3665 2.28101E+01-3.18093E+00 4.11825E-02 2.19650E+00 1.37179E-13 1.79417E-13
 -1      3666 1.94856E+01 1.92857E+00 2.88096E-03-3.50692E-01 1.96749E-13-1.71669E-13
 -1      3667 1.90204E+01 2.28021E+00 7.93881E-03 2.16251E-01 1.09591E-13-3.00751E-13
 -1      3668 1.90691E+01 2.43940E+00-3.78422E-03 2.17237E-01 1.17336E-13-3.15548E-13
 -1      3669 1.91342E+01 2.36138E+00-2.97121E-03 2.45150E-01 8.85924E-14-3.17667E-13
 -1      3670 2.08034E+01-1.62917E+00 2.45619E-02-2.02225E+00 1.96847E-13 1.43122E-13
 -1      3671 2.03361E+01-1.23008E+00 1.91342E-02-2.02572E+00 2.40618E-13 5.31351E-14
 -1      3672 2.00501E+01-8.56724E-01 1.09104E-02-1.86521E+00 1.88244E-13-8.38021E-14
 -1      3673 1.97896E+01-5.42030E-01 7.06678E-03-1.77770E+00 1.27730E-13-1.47216E-13
 -1      3674 1.96294E+01-9.87507E-01-1.38270E-02-2.22796E+00 1.25250E-13 5.31996E-15
 -1      3675 1.96790E+01-2.77508E-01 9.32189E-03-1.60569E+00 1.45476E-13-6.80459E-14
 -1      3676 1.95319E+01-6.44232E-02 1.99832E-03-1.49742E+00 1.60543E-13-6.66614E-14
 -1      3677 1.92779E+01-3.21097E-01-1.19903E-02-1.82699E+00 1.35698E-13-1.81023E-14
 -1      3678 1.95126E+01 1.07556E-01 6.90787E-03-1.34339E+00 9.76388E-14-1.03895E-13
 -1      3679 1.94423E+01 2.37952E-01-5.48624E-04-1.23653E+00 1.06823E-13-1.22974E-14
 -1      3680 1.91716E+01 1.17443E-01-6.00088E-03-1.47405E+00 1.56784E-13 9.18656E-14
 -1      3681 1.94710E+01 3.38793E-01 4.87565E-03-1.10630E+00 7.47839E-14 2.76077E-14
 -1      3682 1.94478E+01 4.08284E-01-1.69603E-03-1.00887E+00 4.89515E-14 9.87849E-14
 -1      3683 1.91888E+01 3.79281E-01-2.58469E-03-1.17781E+00 1.01001E-13 8.30689E-14
 -1      3684 1.94988E+01 4.57965E-01 3.34499E-03-9.01176E-01-5.04729E-14 4.80049E-14
 -1      3685 1.95020E+01 4.85077E-01-2.14082E-03-8.15189E-01 2.95524E-14 1.65815E-14
 -1      3686 1.92688E+01 5.14521E-01-7.42165E-04-9.36242E-01 1.94818E-14 1.53377E-13
 -1      3687 1.95609E+01 4.99548E-01 2.32409E-03-7.26845E-01-8.28256E-14-9.46319E-14
 -1      3688 1.95775E+01 4.98700E-01-2.19529E-03-6.52523E-01-1.11497E-13-1.84037E-13
 -1      3689 1.93756E+01 5.63553E-01 3.68829E-04-7.40505E-01-1.25585E-13-1.18668E-13
 -1      3690 1.96356E+01 4.90749E-01 1.62980E-03-5.80549E-01-6.94631E-14-2.11252E-13
 -1      3691 1.96572E+01 4.73055E-01-2.05767E-03-5.17225E-01-5.13853E-14-1.98816E-13
 -1      3692 1.94881E+01 5.55907E-01 9.37517E-04-5.82605E-01-1.21900E-13-1.55965E-13
 -1      3693 1.97101E+01 4.52139E-01 1.17545E-03-4.58737E-01-7.40753E-14-3.15333E-13
 -1      3694 1.97321E+01 4.25405E-01-1.84005E-03-4.05425E-01-3.33258E-14-3.03405E-13
 -1      3695 1.95941E+01 5.14432E-01 1.16074E-03-4.55330E-01-1.12913E-13-2.02202E-13
 -1      3696 1.97778E+01 3.98040E-01 8.75742E-04-3.58153E-01 6.32272E-14-3.03047E-13
 -1      3697 1.97977E+01 3.67658E-01-1.59648E-03-3.13890E-01 1.25999E-13-3.78282E-13
 -1      3698 1.96877E+01 4.55115E-01 1.19734E-03-3.52749E-01 6.51783E-15-1.54135E-13
 -1      3699 1.98356E+01 3.38352E-01 6.63849E-04-2.76015E-01 2.03862E-13-2.83407E-13
 -1      3700 1.98523E+01 3.07953E-01-1.35033E-03-2.39783E-01 2.13755E-13-3.06729E-13
 -1      3701 1.97666E+01 3.88761E-01 1.08081E-03-2.70506E-01 1.46472E-13-9.57370E-14
 -1      3702 1.98828E+01 2.79629E-01 5.14133E-04-2.09669E-01 1.70509E-13-3.93033E-13
 -1      3703 1.98961E+01 2.51346E-01-1.11775E-03-1.80379E-01 7.28655E-14-2.35646E-13
 -1      3704 1.98308E+01 3.22850E-01 9.11204E-04-2.05010E-01 1.77225E-13-3.22064E-13
 -1      3705 1.99198E+01 2.25535E-01 4.11222E-04-1.56645E-01-1.15414E-13-2.17815E-13
 -1      3706 1.99300E+01 2.00428E-01-9.06105E-04-1.33319E-01-2.58409E-14-2.47681E-13
 -1      3707 1.98814E+01 2.61779E-01 7.55641E-04-1.53134E-01 1.77382E-14-2.44825E-13
 -1      3708 1.99480E+01 1.77902E-01 3.29738E-04-1.14859E-01 6.53009E-14-3.99615E-13
 -1      3709 1.99554E+01 1.56426E-01-7.18621E-04-9.65659E-02 3.96403E-14-4.27775E-13
 -1      3710 1.99203E+01 2.07620E-01 6.06342E-04-1.12485E-01-1.03108E-13-3.76155E-13
 -1      3711 1.99687E+01 1.37425E-01 2.64515E-04-8.23962E-02 5.31795E-15-3.77753E-13
 -1      3712 1.99739E+01 1.19598E-01-5.58108E-04-6.82695E-02-1.44882E-13-3.80032E-13
 -1      3713 1.99492E+01 1.61289E-01 4.69827E-04-8.10237E-02 2.91476E-14-3.67871E-13
 -1      3714 1.99834E+01 1.04010E-01 2.12149E-04-5.75405E-02-2.83694E-13-3.33871E-13
 -1      3715 1.99867E+01 8.95790E-02-4.24841E-04-4.68056E-02-2.53244E-13-3.59626E-13
 -1      3716 1.99700E+01 1.22808E-01 3.53664E-04-5.69716E-02-1.96569E-13-2.83355E-13
 -1      3717 1.99933E+01 7.70916E-02 1.69340E-04-3.88036E-02-5.86048E-14-2.67212E-13
 -1      3718 1.99953E+01 6.56646E-02-3.17127E-04-3.07856E-02 2.93761E-14-4.66116E-14
 -1      3719 1.99845E+01 9.16274E-02 2.58886E-04-3.88310E-02-4.25105E-14-2.31833E-14
 -1      3720 1.99996E+01 5.58686E-02 1.34071E-04-2.49201E-02 7.08468E-14 1.51340E-13
 -1      3721 2.00006E+01 4.69967E-02-2.31777E-04-1.90462E-02 2.20900E-13 2.63770E-13
 -1      3722 1.99942E+01 6.69016E-02 1.83743E-04-2.53567E-02 2.18123E-13 1.77563E-13
 -1      3723 2.00033E+01 3.94556E-02 1.05032E-04-1.48332E-02 1.88871E-13 2.91062E-13
 -1      3724 2.00036E+01 3.26852E-02-1.66753E-04-1.06249E-02 1.01653E-13 4.00057E-13
 -1      3725 2.00001E+01 4.76733E-02 1.26718E-04-1.55290E-02 1.97682E-13 1.17693E-13
 -1      3726 2.00050E+01 2.69803E-02 8.64786E-05-7.67249E-03-1.02773E-14 3.56969E-13
 -1      3727 2.00049E+01 2.18558E-02-1.23219E-04-4.73394E-03-2.02811E-14 3.30746E-13
 -1      3728 2.00035E+01 3.29539E-02 8.02078E-05-8.50698E-03 1.10346E-13 1.75325E-13
 -1      3729 2.00055E+01 1.75668E-02 6.94640E-05-2.74237E-03-2.32458E-13 4.16786E-13
 -1      3730 2.00051E+01 1.37422E-02-5.20665E-05-7.49376E-04-1.99518E-13 3.02214E-13
 -1      3731 2.00049E+01 2.18578E-02 4.08850E-05-3.62483E-03-2.94993E-14 2.50924E-13
 -1      3732 2.00049E+01 9.43639E-03-6.55766E-07 8.49708E-04-1.33953E-13 1.82349E-13
 -1      3733 1.97464E+01 7.10423E-01 5.65643E-04 1.14071E+00-6.28770E-14-1.38616E-13
 -1      3734 1.97864E+01 4.91253E-01 4.75572E-03 1.29539E+00-4.95801E-14-1.32503E-13
 -1      3735 1.94801E+01 5.04278E-01-3.92273E-03 1.41264E+00-3.82834E-15-8.34594E-14
 -1      3736 2.00053E+01 1.12782E-02-3.03984E-06-2.37415E-04 7.91255E-15 3.20812E-13
 -1      3737 2.00056E+01 1.36618E-02 6.29169E-05 6.67568E-04-9.36198E-14 2.77095E-13
 -1      3738 2.00052E+01 1.20216E-02-5.23994E-05 5.88740E-05-1.16072E-14 3.89443E-15
 -1      3739 2.14939E+01-3.31665E+00-2.08336E-02 3.27869E+00 2.20630E-13 2.18108E-13
 -1      3740 1.96514E+01-2.80315E+00 9.54695E-02 4.19682E+00 2.35886E-13 2.00876E-13
 -1      3741 1.79829E+01 1.17833E+00-9.54710E-03 7.77538E-01-3.20295E-13 1.77790E-13
 -1      3742 1.77187E+01 1.20644E+00-3.49090E-03 8.61488E-01-3.09516E-13 1.80121E-13
 -1      3743 1.64413E+01 1.14425E+00-2.13220E-02 1.13870E+00-2.20999E-13 3.53231E-13
 -1      3744 1.60046E+01 1.05947E+00-3.53403E-03 1.33160E+00-1.52496E-13 3.89222E-13
 -1      3745 1.88685E+01 9.70801E-01-4.87961E-03 5.68164E-01-2.64874E-13 1.95664E-13
 -1      3746 1.87089E+01 1.03347E+00-2.69020E-03 6.25734E-01-3.40152E-13 1.81150E-13
 -1      3747 1.91626E+01 8.40110E-01-3.79955E-03 4.79803E-01-5.08994E-14 1.74682E-13
 -1      3748 1.90407E+01 9.06749E-01-1.99482E-03 5.31380E-01-1.60566E-13 1.18046E-13
 -1      3749 1.88493E+01 9.89727E-01 6.56128E-03 4.14436E-01-1.98553E-13-1.50398E-14
 -1      3750 1.93872E+01 7.10283E-01-2.99391E-03 3.99072E-01 5.69980E-14 1.55254E-13
 -1      3751 1.92951E+01 7.75024E-01-1.42405E-03 4.45412E-01 8.75314E-14 2.59085E-13
 -1      3752 1.91443E+01 8.52611E-01 4.88328E-03 3.59018E-01-1.46961E-14 2.72284E-14
 -1      3753 1.95574E+01 5.88690E-01-2.37803E-03 3.25876E-01-2.17507E-14 1.55159E-13
 -1      3754 1.94887E+01 6.48654E-01-9.26185E-04 3.67047E-01 2.61989E-14 2.12072E-13
 -1      3755 1.93707E+01 7.19375E-01 3.76671E-03 3.04696E-01 3.18644E-14 1.81682E-13
 -1      3756 1.96852E+01 4.79284E-01-1.91143E-03 2.61133E-01-1.09952E-13 2.37007E-13
 -1      3757 1.96347E+01 5.32815E-01-5.15095E-04 2.96991E-01-4.52034E-14 1.91976E-13
 -1      3758 1.95434E+01 5.95552E-01 2.92677E-03 2.52253E-01-7.71679E-14 2.89503E-13
 -1      3759 1.97802E+01 3.83996E-01-1.55716E-03 2.05145E-01-1.10709E-13 2.60131E-13
 -1      3760 1.97436E+01 4.30298E-01-2.75434E-04 2.35687E-01-1.55335E-13 2.02098E-13
 -1      3761 1.96735E+01 4.84729E-01 2.20374E-03 2.04253E-01-1.75216E-13 3.27721E-13
 -1      3762 1.98502E+01 3.03077E-01-1.26058E-03 1.57811E-01-4.48157E-14 3.42782E-13
 -1      3763 1.98240E+01 3.42197E-01-1.22884E-04 1.83307E-01-8.93545E-14 3.93047E-13
 -1      3764 1.97709E+01 3.88268E-01 1.58615E-03 1.61834E-01-1.42925E-13 3.80634E-13
 -1      3765 1.99013E+01 2.35544E-01-1.00047E-03 1.18807E-01 5.55583E-14 3.38900E-13
 -1      3766 1.98827E+01 2.68052E-01-6.19748E-06 1.39586E-01-1.11129E-15 2.69992E-13
 -1      3767 1.98435E+01 3.06356E-01 1.20700E-03 1.25017E-01-1.96048E-14 4.14173E-13
 -1      3768 1.99377E+01 1.80284E-01-7.79951E-04 8.74403E-02 5.62997E-14 3.77621E-13
 -1      3769 1.99249E+01 2.06770E-01 5.04307E-05 1.04035E-01 9.22722E-14 3.99719E-13
 -1      3770 1.98965E+01 2.37885E-01 8.88645E-04 9.44644E-02 8.94887E-16 4.52343E-13
 -1      3771 1.99633E+01 1.35835E-01-5.98297E-04 6.27059E-02 2.57180E-14 3.39590E-13
 -1      3772 1.99547E+01 1.57056E-01 8.10754E-05 7.57071E-02 1.35022E-13 3.42607E-13
 -1      3773 1.99345E+01 1.81877E-01 6.43808E-04 6.96846E-02 1.51677E-13 3.80157E-13
 -1      3774 1.99806E+01 1.00645E-01-4.51445E-04 4.35803E-02-8.17534E-14 1.94088E-13
 -1      3775 1.99751E+01 1.17382E-01 9.24793E-05 5.35759E-02-9.14955E-14 2.69917E-13
 -1      3776 1.99612E+01 1.36845E-01 4.60086E-04 5.00177E-02-1.95305E-14 3.11818E-13
 -1      3777 1.99920E+01 7.32053E-02-3.34525E-04 2.90835E-02-2.55925E-13 4.72100E-14
 -1      3778 1.99886E+01 8.62082E-02 9.14629E-05 3.66219E-02-1.22507E-13 1.41115E-13
 -1      3779 1.99794E+01 1.01212E-01 3.23292E-04 3.47427E-02-5.21685E-14 3.03735E-13
 -1      3780 1.99991E+01 5.21165E-02-2.44120E-04 1.83208E-02-1.30543E-13 8.46392E-14
 -1      3781 1.99972E+01 6.20753E-02 8.36708E-05 2.38904E-02-2.45189E-13 8.90703E-14
 -1      3782 1.99914E+01 7.34468E-02 2.22071E-04 2.31292E-02-1.65093E-13 1.97322E-13
 -1      3783 2.00031E+01 3.61371E-02-1.72429E-04 1.05226E-02 1.84200E-14 1.68244E-13
 -1      3784 2.00023E+01 4.36543E-02 7.32726E-05 1.45400E-02-1.11009E-13 4.21706E-14
 -1      3785 1.99988E+01 5.21144E-02 1.46167E-04 1.44915E-02-1.36739E-13 1.36149E-14
 -1      3786 2.00050E+01 2.42138E-02-1.01812E-04 5.03844E-03-3.04333E-15 2.42586E-13
 -1      3787 2.00049E+01 2.98104E-02 7.02434E-05 7.83174E-03 9.63091E-14 3.14290E-13
 -1      3788 2.00031E+01 3.59653E-02 9.35383E-05 8.25446E-03-3.51916E-14 2.90026E-14
 -1      3789 2.00055E+01 1.64463E-02-3.76175E-05 1.72995E-03-1.00247E-13 3.46612E-13
 -1      3790 2.00057E+01 2.06930E-02 7.08380E-05 3.59138E-03-3.53256E-14 1.79318E-13
 -1      3791 2.00048E+01 2.51721E-02 3.19897E-05 4.18997E-03 2.70966E-14 3.47670E-13
 -1      3792 2.00054E+01 1.78671E-02-2.46027E-05 1.77727E-03-2.98277E-14 3.11283E-13
 -1      3793 1.36745E+01 1.01959E+00-8.23690E-03-3.26704E-01 1.25817E-13-3.52794E-13
 -1      3794 1.40186E+01 8.24025E-01 5.02101E-02-1.80462E+00 8.17315E-14-3.60318E-13
 -1      3795 1.88059E+01 1.36235E+00-1.18361E-03-1.16793E+00 1.70754E-13-1.53446E-13
 -1      3796 1.89770E+01 1.43978E+00-5.82463E-03-9.98932E-01 1.91392E-13-1.36274E-13
 -1      3797 1.57367E+01-5.82115E-01 2.74811E-02-3.63172E+00-8.41219E-14-3.37178E-13
 -1      3798 1.71183E+01-5.72641E-01 3.74373E-02-3.41231E+00-6.23850E-14-2.41622E-13
 -1      3799 1.68128E+01 3.16976E-02-2.92651E-03-2.95698E+00 3.26254E-14-1.99500E-13
 -1      3800 1.45206E+01 2.03979E-01-1.29259E-02-2.73926E+00 1.61832E-14-3.52933E-13
 -1      3801 1.85635E+01-2.10482E+00 5.06561E-02-3.90307E+00 1.78499E-13 3.57049E-13
 -1      3802 2.05249E+01-3.06314E+00-7.34760E-02-3.43711E+00 2.66087E-13 1.95463E-13
 -1      3803 1.56070E+01-3.94822E-01 1.83875E-03-3.21148E+00-2.16788E-14 5.26860E-13
 -1      3804 1.69939E+01-1.35347E+00 9.74543E-04-3.88367E+00 6.76577E-14 5.42469E-13
 -1      3805 1.84045E+01-1.45584E+00 4.31057E-02-3.35152E+00 8.25039E-14 3.41175E-13
 -1      3806 1.83207E+01 1.19198E+00 2.69584E-03-1.49665E+00 1.19965E-13-1.60741E-13
 -1      3807 1.85162E+01 1.27950E+00-8.94511E-03-1.31739E+00 1.45919E-13-1.67493E-13
 -1      3808 1.83780E+01 1.47995E+00 1.14623E-02-1.03570E+00 1.70754E-13-1.92226E-13
 -1      3809 1.91885E+01 1.52825E+00-2.59860E-03-8.55494E-01 1.85993E-13-1.32503E-13
 -1      3810 1.93195E+01 1.62750E+00-4.46355E-03-6.76942E-01 1.89686E-13-1.41673E-13
 -1      3811 1.88660E+01 1.63807E+00 8.86002E-03-7.68881E-01 1.92126E-13-1.51307E-13
 -1      3812 1.52679E+01 9.38384E-01-2.98572E-02 1.50281E+00-1.27276E-13 3.95292E-13
 -1      3813 1.44544E+01 7.50974E-01 1.24251E-02 1.79168E+00-1.34312E-13 4.28029E-13
 -1      3814 1.35782E+01 1.02055E+00 8.90476E-02 1.08661E+00-2.30168E-13 4.34533E-13
 -1      3815 1.51793E+01 1.27340E+00 4.71969E-02 8.51026E-01-1.60858E-13 4.22437E-13
 -1      3816 1.73230E+01 1.20855E+00-1.45662E-02 9.23872E-01-2.59014E-13 1.57572E-13
 -1      3817 1.69837E+01 1.19625E+00-4.10555E-03 1.04355E+00-2.47059E-13 2.51173E-13
 -1      3818 1.64352E+01 1.31522E+00 3.01774E-02 6.96467E-01-1.88959E-13 3.60919E-13
 -1      3819 2.14478E+01-2.55722E+00 2.22265E-02-2.40380E+00 2.47213E-13 1.32155E-13
 -1      3820 1.97676E+01 1.13102E+00 3.03383E-04 8.03090E-01-3.44359E-14-1.71697E-13
 -1      3821 1.97754E+01 9.21357E-01 1.98891E-03 9.68511E-01-5.10501E-14-1.71014E-13
 -1      3822 1.95251E+01 9.58214E-01-1.02257E-03 1.05141E+00-3.49917E-14-1.47176E-13
 -1      3823 1.84850E+01 1.08932E+00-6.57235E-03 6.65098E-01-3.80327E-13 2.21435E-13
 -1      3824 1.82786E+01 1.14082E+00-3.14516E-03 7.31529E-01-3.16176E-13 1.90716E-13
 -1      3825 1.84658E+01 1.11939E+00 8.62606E-03 4.69711E-01-3.11598E-13 1.39245E-13
 -1      3826 1.97101E+01 1.49930E+00-1.38829E-04 5.55979E-01-2.68846E-14-2.17956E-13
 -1      3827 1.97537E+01 1.29533E+00 1.98116E-03 6.92537E-01-2.45668E-14-1.89061E-13
 -1      3828 1.95416E+01 1.33613E+00 1.63137E-04 7.64289E-01-4.61478E-15-2.01847E-13
 -1      3829 1.95129E+01 1.66106E+00-2.62259E-03 5.47234E-01 2.86766E-15-2.20053E-13
 -1      3830 2.00050E+01 1.24038E-02 1.56456E-06-4.25386E-06-3.23392E-13-4.65820E-14
 -1      3831 1.47937E+01 9.81964E-01-2.92667E-02 9.59071E-01 2.12073E-13-1.85924E-13
 -1      3832 1.42090E+01 1.15806E+00 5.78712E-02 3.52262E-01 1.57904E-13-2.77456E-13
 -1      3833 1.48848E+01 1.20288E+00-1.75190E-03-4.78689E-01 1.48966E-13-3.21475E-13
 -1      3834 2.00050E+01 1.30070E-02-4.23085E-05 2.16391E-04-3.55068E-13-5.37620E-13
 -1      3835 2.00050E+01 1.34220E-02-5.29731E-05 4.66562E-05-2.24436E-13-5.08527E-13
 -1      3836 1.52217E+01 6.75158E-01 3.56844E-02-2.05413E+00 6.01242E-14-3.13020E-13
 -1      3837 2.07956E+01-2.07356E+00 2.78604E-02-2.48528E+00 2.15848E-13 2.08592E-13
 -1      3838 1.73068E+01 1.30317E+00 1.67158E-02 5.91959E-01-2.85206E-13 2.49738E-13
 -1      3839 1.88136E+01-2.05647E+00 5.04208E-02 3.84733E+00 2.52888E-13 1.07381E-13
 -1      3840 1.88726E+01 2.13853E+00-3.69688E-03 2.08752E-01 1.25410E-13-2.88952E-13
 -1      3841 1.89160E+01 2.08092E+00-2.57753E-03 2.94754E-01 8.73403E-14-2.81290E-13
 -1      3842 1.98329E+01-1.83961E+00-1.64430E-02-2.88169E+00 2.02395E-13 2.47855E-13
 -1      3843 1.79668E+01 1.23105E+00 1.22406E-02 5.23815E-01-3.96860E-13 2.28174E-13
 -1      3844 1.73298E+01 4.02121E-01 2.55711E-02-2.52748E+00 3.22188E-14-1.65366E-13
 -1      3845 1.74670E+01 6.68478E-01-1.35310E-02-2.23266E+00 4.41201E-14-1.63675E-13
 -1      3846 1.63642E+01 4.77319E-01 2.26281E-02-2.55993E+00 4.23012E-14-2.40748E-13
 -1      3847 2.00051E+01 1.00923E-02 4.57751E-05-3.10051E-04-5.19145E-14 1.09498E-13
 -1      3848 1.69068E+01-9.76731E-01-2.07609E-02 3.58415E+00 2.90955E-13-5.27460E-14
 -1      3849 1.61615E+01-4.00133E-01 6.62484E-02 3.28762E+00 3.08045E-13-9.72365E-14
 -1      3850 1.77358E+01 9.35212E-01 1.07597E-02-1.89760E+00 5.54687E-14-1.45579E-13
 -1      3851 1.79387E+01 1.07467E+00-1.27330E-02-1.68111E+00 8.95037E-14-1.55432E-13
 -1      3852 1.77249E+01 1.31711E+00 1.23716E-02-1.32904E+00 9.63823E-14-1.77977E-13
 -1      3853 2.00052E+01 1.73148E-02 1.21267E-04-1.75801E-04-1.82296E-13-6.53347E-13
 -1      3854 2.00049E+01 1.37546E-02-4.41640E-05 1.99616E-04-5.52441E-14-4.46802E-13
 -1      3855 2.00050E+01 1.38098E-02-1.75078E-05 1.33437E-04-1.01243E-13-4.40933E-13
 -1      3856 1.88895E+01 2.13984E+00-3.16065E-03-5.04195E-02 1.66740E-13-2.91442E-13
 -1      3857 1.88540E+01 2.16171E+00-3.09200E-03 6.18991E-02 1.51329E-13-3.05393E-13
 -1      3858 1.87669E+01 2.01049E+00 7.54108E-03 1.30728E-01 1.16494E-13-2.72300E-13
 -1      3859 2.00051E+01 1.32759E-02-2.51254E-05-2.32341E-04-3.21826E-13-2.57371E-13
 -1      3860 1.50322E+01 1.69033E-01 2.53061E-02-2.67953E+00-5.61677E-14 3.83417E-13
 -1      3861 1.62879E+01-1.24574E-01 2.35614E-02-2.76668E+00-5.34442E-14 4.65985E-13
 -1      3862 2.15369E+01-2.67102E+00-7.63776E-03 2.57439E+00 1.15238E-13 1.15940E-13
 -1      3863 1.57759E+01 1.72675E-01 1.37680E-02 2.49481E+00 2.74938E-13-1.28987E-13
 -1      3864 1.28196E+01 9.40164E-01-5.62810E-05 4.08621E-01-2.30205E-13 3.56340E-13
 -1      3865 1.24681E+01 9.97857E-01 8.02774E-02-6.48214E-01-2.08159E-13 4.72445E-13
 -1      3866 1.35230E+01 8.69744E-01 3.06568E-02-1.16005E+00-1.14154E-13 4.26791E-13
 -1      3867 1.38078E+01 1.07663E+00-2.91831E-02 2.82622E-01-1.44633E-13 3.37489E-13
 -1      3868 1.45895E+01 4.87244E-01 3.20655E-03-2.15951E+00-1.03453E-13 3.50286E-13
 -1      3869 1.92256E+01 2.28401E+00-3.76171E-03 2.87467E-01 6.28141E-14-3.20843E-13
 -1      3870 1.93426E+01 2.16114E+00-2.88603E-03 3.04685E-01 3.83512E-14-2.98103E-13
 -1      3871 1.93786E+01 1.95295E+00 4.83584E-03 4.19089E-01 2.84996E-14-2.70992E-13
 -1      3872 1.91549E+01 2.14019E+00 6.33478E-03 3.45163E-01 5.64027E-14-2.89435E-13
 -1      3873 2.00052E+01 1.72254E-02 6.91494E-05-1.03738E-03-2.70993E-13-3.33618E-13
 -1      3874 1.56903E+01 8.97719E-01-1.57150E-02-1.73111E+00 8.23239E-14-2.76795E-13
 -1      3875 1.79892E+01 1.18277E+00-7.31155E-03 2.65953E-01-3.75228E-13 1.02458E-13
 -1      3876 1.77016E+01 1.22592E+00-6.86347E-03 2.73338E-01-3.13742E-13 1.22677E-13
 -1      3877 1.93661E+01 6.93985E-01-1.64717E-03 2.02109E-01-6.10838E-15 1.38826E-13
 -1      3878 1.92619E+01 7.56325E-01-3.08478E-03 2.22969E-01 2.05265E-14 1.39583E-13
 -1      3879 1.91408E+01 8.21434E-01-2.94633E-03 2.32019E-01 1.76737E-14 1.05021E-13
 -1      3880 1.90069E+01 8.86766E-01-4.18997E-03 2.50801E-01-7.75412E-14 1.03605E-13
 -1      3881 1.91699E+01 8.16365E-01 7.37045E-03 1.26892E-01-1.82749E-14 2.01599E-13
 -1      3882 1.90577E+01-2.89977E-01-8.46033E-03 2.18334E+00 9.66787E-14-5.17044E-14
 -1      3883 1.92575E+01-6.82200E-01 1.91440E-03 2.42539E+00 8.98431E-14-4.30634E-14
 -1      3884 1.86203E+01-8.18053E-01 1.52641E-02 2.82264E+00 1.50930E-13-3.23262E-14
 -1      3885 1.89622E+01-1.34582E+00 2.26500E-02 3.10909E+00 1.74763E-13 1.83889E-14
 -1      3886 1.91079E+01-9.03314E-01 8.45911E-03-2.48081E+00 1.32440E-13 1.22762E-13
 -1      3887 1.88458E+01-5.19688E-01-1.54248E-03-2.23217E+00 1.34741E-13 1.30489E-13
 -1      3888 2.06462E+01-2.50659E+00-1.99502E-02 3.11538E+00 1.27852E-13 1.20088E-13
 -1      3889 1.85647E+01-1.12526E+00-4.38701E-03-2.89475E+00 6.14214E-14 2.15931E-13
 -1      3890 1.73489E+01 1.25862E+00-9.10712E-03 2.36688E-01-3.26837E-13 1.77831E-13
 -1      3891 1.69565E+01 1.27432E+00-1.13368E-02 2.50124E-01-2.61421E-13 2.04999E-13
 -1      3892 1.75141E+01 1.25329E+00 1.87345E-02-5.22108E-02-2.53714E-13 1.11194E-13
 -1      3893 1.88649E+01-2.15041E-01 1.07662E-02-1.95454E+00 1.40451E-13 1.76772E-13
 -1      3894 1.87554E+01 2.92511E-02-2.63720E-03-1.75231E+00 1.66786E-13 1.71864E-13
 -1      3895 1.82639E+01-1.81060E-01-8.61552E-03-2.16565E+00 1.55655E-13 2.53643E-13
 -1      3896 1.88387E+01 2.22789E-01 9.17660E-03-1.52570E+00 1.13561E-13 1.74382E-13
 -1      3897 1.88106E+01 3.66246E-01-3.81725E-03-1.35980E+00 1.04093E-13 1.54245E-13
 -1      3898 1.83677E+01 2.87963E-01-4.40473E-03-1.62908E+00 1.16881E-13 2.15409E-13
 -1      3899 1.89191E+01 4.76601E-01 5.89864E-03-1.18656E+00 3.75501E-14 9.12821E-14
 -1      3900 1.89392E+01 5.50061E-01-4.10615E-03-1.05294E+00 7.96413E-14 1.19828E-13
 -1      3901 1.85614E+01 5.53518E-01-9.88985E-04-1.22468E+00 6.47726E-14 1.61334E-13
 -1      3902 1.90520E+01 6.02654E-01 3.54173E-03-9.22639E-01-3.61776E-14-8.75267E-15
 -1      3903 1.90948E+01 6.29836E-01-3.94572E-03-8.15591E-01-5.64749E-14-6.25842E-14
 -1      3904 1.87783E+01 6.81945E-01 3.29460E-04-9.23022E-01-6.38164E-14-8.38995E-14
 -1      3905 1.92026E+01 6.42776E-01 2.24889E-03-7.15926E-01-1.26691E-13-1.24948E-13
 -1      3906 1.92544E+01 6.38470E-01-3.43815E-03-6.30613E-01-2.35385E-13-2.10580E-13
 -1      3907 1.89921E+01 7.21922E-01 1.50482E-03-6.97040E-01-1.29440E-13-1.81036E-13
 -1      3908 1.93510E+01 6.26010E-01 1.35508E-03-5.54636E-01-1.51299E-13-1.80139E-13
 -1      3909 1.94034E+01 6.02850E-01-2.87635E-03-4.86586E-01-1.20653E-13-1.97801E-13
 -1      3910 1.91888E+01 7.00384E-01 1.73637E-03-5.27108E-01-1.84282E-13-1.40160E-13
 -1      3911 1.94866E+01 5.75877E-01 8.50343E-04-4.28464E-01-1.41684E-13-1.01393E-13
 -1      3912 1.95347E+01 5.42739E-01-2.31793E-03-3.73923E-01-2.44299E-14-9.00105E-14
 -1      3913 1.93620E+01 6.43892E-01 1.92390E-03-3.99307E-01-9.54883E-14-6.75666E-14
 -1      3914 1.96043E+01 5.08264E-01 5.59547E-04-3.29002E-01-2.49625E-15-1.00225E-13
 -1      3915 1.96460E+01 4.70797E-01-1.88930E-03-2.85439E-01 6.78770E-14-2.53483E-14
 -1      3916 1.95088E+01 5.68639E-01 1.70287E-03-3.01497E-01 2.41151E-14-7.69697E-15
 -1      3917 1.97027E+01 4.34079E-01 3.24333E-04-2.50726E-01 1.17907E-13-1.32472E-13
 -1      3918 1.97373E+01 3.96388E-01-1.58029E-03-2.15985E-01 1.14170E-13-1.95205E-13
 -1      3919 1.96300E+01 4.86704E-01 1.41267E-03-2.26791E-01 7.47098E-14-1.05274E-13
 -1      3920 1.97826E+01 3.60826E-01 1.62263E-04-1.89359E-01 1.63684E-13-1.92262E-13
 -1      3921 1.98102E+01 3.25731E-01-1.31602E-03-1.61732E-01 1.85882E-13-3.42525E-13
 -1      3922 1.97277E+01 4.05924E-01 1.14493E-03-1.69408E-01 1.29805E-13-1.63859E-13
 -1      3923 1.98458E+01 2.93138E-01 1.10203E-04-1.41130E-01 3.49840E-14-2.91057E-13
 -1      3924 1.98673E+01 2.61710E-01-1.06096E-03-1.19386E-01-1.19229E-13-3.04508E-13
 -1      3925 1.98048E+01 3.31207E-01 9.57225E-04-1.25344E-01 8.00915E-14-2.60065E-13
 -1      3926 1.98945E+01 2.33043E-01 7.24430E-05-1.03692E-01-2.22701E-13-2.23502E-13
 -1      3927 1.99107E+01 2.05943E-01-8.35815E-04-8.67611E-02-9.26820E-14-2.95334E-13
 -1      3928 1.98646E+01 2.64420E-01 7.77357E-04-9.15626E-02-1.39328E-13-2.33989E-13
 -1      3929 1.99309E+01 1.81580E-01 5.23984E-05-7.48853E-02 4.48804E-14-4.03426E-13
 -1      3930 1.99428E+01 1.58903E-01-6.46940E-04-6.18443E-02-3.06193E-15-3.77504E-13
 -1      3931 1.99095E+01 2.06945E-01 6.05108E-04-6.59659E-02-1.32343E-13-3.22623E-13
 -1      3932 1.99575E+01 1.38755E-01 4.37707E-05-5.29265E-02-7.36573E-14-3.68139E-13
 -1      3933 1.99659E+01 1.20242E-01-4.92713E-04-4.30029E-02-1.30138E-13-2.92168E-13
 -1      3934 1.99425E+01 1.58915E-01 4.59434E-04-4.66461E-02-1.51190E-14-5.74784E-13
 -1      3935 1.99763E+01 1.03965E-01 3.92233E-05-3.63782E-02-7.36474E-14-6.06090E-14
 -1      3936 1.99819E+01 8.91762E-02-3.68694E-04-2.89302E-02 1.17856E-13-4.84003E-16
 -1      3937 1.99660E+01 1.19720E-01 3.41044E-04-3.21799E-02 6.82883E-14-2.43485E-13
 -1      3938 1.99890E+01 7.62976E-02 3.60861E-05-2.40716E-02 1.36956E-13-4.35767E-14
 -1      3939 1.99925E+01 6.47101E-02-2.71298E-04-1.85693E-02 1.89351E-13-3.99857E-14
 -1      3940 1.99823E+01 8.84059E-02 2.46998E-04-2.14634E-02 1.01846E-13 1.61003E-14
 -1      3941 1.99971E+01 5.47032E-02 3.33897E-05-1.50641E-02 1.78705E-13-4.93833E-14
 -1      3942 1.99992E+01 4.57797E-02-1.95893E-04-1.10783E-02 1.43504E-13-1.53265E-13
 -1      3943 1.99930E+01 6.38512E-02 1.72744E-04-1.36212E-02 1.62371E-13-1.13554E-13
 -1      3944 2.00020E+01 3.81903E-02 4.21941E-05-8.61670E-03 1.79847E-13-4.08535E-14
 -1      3945 2.00029E+01 3.14036E-02-1.49614E-04-5.76077E-03 1.64478E-13-7.12864E-14
 -1      3946 1.99996E+01 4.49344E-02 1.20228E-04-8.03274E-03 2.01856E-13-2.89261E-13
 -1      3947 2.00043E+01 2.63463E-02 6.13061E-05-4.00581E-03-5.57041E-15-1.14257E-13
 -1      3948 2.00046E+01 2.11306E-02-9.98798E-05-2.08590E-03-1.41155E-13-1.49445E-13
 -1      3949 2.00046E+01 2.10407E-02-1.83869E-05-1.23973E-03-2.87105E-13-7.59425E-13
 -1      3950 2.00030E+01 3.11564E-02 3.68157E-05-3.90118E-03 1.06117E-13-3.92508E-13
 -1      3951 2.00052E+01 1.25304E-02-7.24939E-06 2.81259E-05-1.47341E-14 1.52659E-13
 -1      3952 2.00054E+01 1.54345E-02 4.71983E-05 6.53826E-04-4.95873E-14 1.11178E-13
 -1      3953 2.00052E+01 1.83236E-02-3.51970E-05 1.67353E-03-1.00982E-14 2.13094E-13
 -1      3954 2.00051E+01 1.29198E-02-6.07882E-05 2.31097E-04-2.91275E-14 3.75080E-14
 -1      3955 1.65550E+01 1.07356E-01-4.45705E-02 2.47718E+00 2.58733E-13-9.40203E-14
 -1      3956 1.56910E+01 7.54274E-01 6.06324E-02 1.88510E+00 2.31817E-13-1.24350E-13
 -1      3957 1.90672E+01 3.18901E-01-5.19534E-03 1.69052E+00 6.47553E-14-8.46029E-14
 -1      3958 1.91394E+01 4.78364E-02 1.26426E-02 1.89680E+00 8.59258E-14-7.16745E-14
 -1      3959 1.85919E+01 1.16310E-01 1.37158E-02 2.08055E+00 1.05713E-13-1.69293E-13
 -1      3960 1.64732E+01 1.28224E+00-1.46978E-02 2.00844E-01-1.68578E-13 2.98582E-13
 -1      3961 1.59020E+01 1.25803E+00-2.28917E-02 2.44724E-01-1.29408E-13 3.47553E-13
 -1      3962 1.66987E+01 1.28895E+00 1.66932E-02-1.92372E-01-1.39770E-13 3.30520E-13
 -1      3963 1.88519E+01 9.52533E-01-3.75991E-03 2.54109E-01-1.45954E-13 5.44119E-14
 -1      3964 1.86767E+01 1.01559E+00-5.89478E-03 2.69500E-01-1.21001E-13 8.49019E-14
 -1      3965 1.89007E+01 9.50405E-01 1.18701E-02 1.18485E-01-1.14981E-13 1.41069E-13
 -1      3966 1.95357E+01 5.74057E-01-1.78276E-03 1.72763E-01-1.86354E-13 4.35089E-13
 -1      3967 1.94594E+01 6.32163E-01-1.75032E-03 1.93571E-01-6.68453E-14 2.90272E-13
 -1      3968 1.93882E+01 6.82304E-01 4.53925E-03 1.20458E-01-1.06409E-13 1.94933E-13
 -1      3969 1.96650E+01 4.67243E-01-1.85202E-03 1.42849E-01-1.27433E-13 3.41184E-13
 -1      3970 1.96100E+01 5.19760E-01-6.98872E-04 1.62143E-01-1.20706E-13 3.92391E-13
 -1      3971 1.95511E+01 5.65765E-01 3.46857E-03 1.06014E-01-9.91925E-14 4.43308E-13
 -1      3972 1.97640E+01 3.74557E-01-1.39498E-03 1.13256E-01-7.50230E-14 2.18824E-13
 -1      3973 1.97218E+01 4.19619E-01-8.50322E-04 1.30555E-01-1.35678E-13 2.58066E-13
 -1      3974 1.96739E+01 4.64781E-01 3.22177E-03 8.93577E-02-8.28135E-14 3.42819E-13
 -1      3975 1.98381E+01 2.94870E-01-1.13897E-03 8.80408E-02-3.56980E-15 8.74026E-14
 -1      3976 1.98069E+01 3.33150E-01-6.58121E-04 1.02836E-01-3.52955E-14 9.90732E-14
 -1      3977 1.97725E+01 3.72614E-01 3.31734E-03 7.36462E-02-3.01902E-14 5.00751E-14
 -1      3978 1.98923E+01 2.28610E-01-9.01777E-04 6.67537E-02-6.63848E-14 2.54537E-13
 -1      3979 1.98699E+01 2.60392E-01-4.22226E-04 7.90850E-02-8.35077E-14 2.18468E-13
 -1      3980 1.98444E+01 2.93380E-01 2.63733E-03 5.85809E-02-1.41899E-13-3.86214E-15
 -1      3981 1.99314E+01 1.74457E-01-6.99867E-04 4.92469E-02 9.30032E-14 3.80340E-13
 -1      3982 1.99156E+01 2.00344E-01-2.60473E-04 5.92835E-02 4.10183E-14 3.28710E-13
 -1      3983 1.98969E+01 2.27264E-01 1.99964E-03 4.50556E-02-7.12764E-14 1.76380E-13
 -1      3984 1.99589E+01 1.30947E-01-5.32640E-04 3.52447E-02 4.57395E-14 2.46967E-13
 -1      3985 1.99481E+01 1.51668E-01-1.53563E-04 4.32233E-02 1.25812E-13 3.88983E-13
 -1      3986 1.99348E+01 1.73184E-01 1.47982E-03 3.35616E-02 1.19098E-13 5.06620E-13
 -1      3987 1.99779E+01 9.65571E-02-3.97303E-04 2.43290E-02-1.40222E-13 3.49892E-13
 -1      3988 1.99707E+01 1.12870E-01-8.41868E-05 3.05301E-02-5.88910E-14 2.73348E-13
 -1      3989 1.99614E+01 1.29739E-01 1.07183E-03 2.41802E-02-2.26053E-14 3.58519E-13
 -1      3990 1.99904E+01 6.98038E-02-2.89649E-04 1.60218E-02-1.76093E-13 2.13571E-13
 -1      3991 1.99858E+01 8.24454E-02-4.01264E-05 2.07382E-02-1.45453E-13 2.61672E-13
 -1      3992 1.99797E+01 9.54261E-02 7.57500E-04 1.67702E-02-8.45291E-14 2.55787E-13
 -1      3993 1.99982E+01 4.92926E-02-2.02196E-04 9.84146E-03-7.76454E-14-2.18708E-15
 -1      3994 1.99955E+01 5.89550E-02-1.27269E-05 1.33509E-02-7.63119E-14 1.23836E-13
 -1      3995 1.99916E+01 6.87522E-02 5.12791E-04 1.10889E-02-4.90775E-14 1.08741E-13
 -1      3996 2.00027E+01 3.38623E-02-8.95525E-05 5.39493E-03 6.17771E-14-3.73872E-14
 -1      3997 2.00013E+01 4.10440E-02 2.88641E-06 7.89163E-03-3.14078E-14-8.13894E-14
 -1      3998 1.99989E+01 4.82273E-02 2.70600E-04 6.86761E-03-4.28239E-14-1.00048E-13
 -1      3999 1.91876E+01 1.89972E+00 5.03877E-03-4.48001E-01 1.86942E-13-1.85592E-13
 -1      4000 1.94394E+01 1.81020E+00-1.51803E-03-4.78545E-01 1.84476E-13-1.63043E-13
 -1      4001 1.91711E+01 7.96827E-01-3.96650E-03 1.27183E+00 8.03088E-15-1.19667E-13
 -1      4002 1.91745E+01 5.77107E-01 7.99189E-03 1.45901E+00 2.94347E-14-8.70515E-14
 -1      4003 1.87504E+01 6.40244E-01 5.25341E-03 1.55092E+00 4.33726E-14-1.47556E-13
 -1      4004 1.43556E+01 8.37463E-01 3.10663E-02-1.60830E+00-5.36020E-14 4.41411E-13
 -1      4005 1.53530E+01 7.08129E-01 1.95506E-02-1.72839E+00-2.03388E-14 4.21751E-13
 -1      4006 1.42729E+01 1.10040E+00 3.14952E-02-8.28786E-01-5.83570E-14 4.19894E-13
 -1      4007 1.97714E+01 1.51742E+00 6.50959E-04-6.48218E-01 2.17335E-13-1.17063E-13
 -1      4008 1.96502E+01 1.65146E+00 2.31596E-03-5.75782E-01 2.04050E-13-1.30285E-13
 -1      4009 1.76830E+01-6.06910E-01 1.17156E-04-2.83179E+00 7.49755E-14 3.54937E-13
 -1      4010 1.85642E+01 1.66105E+00-5.91613E-03-6.28785E-01 1.91103E-13-1.93973E-13
 -1      4011 1.87801E+01 1.75115E+00-5.78800E-03-5.08525E-01 1.70950E-13-2.03907E-13
 -1      4012 1.93055E+01 1.21260E+00-3.00732E-03 9.10226E-01 2.01703E-14-2.09465E-13
 -1      4013 1.92787E+01 1.01042E+00 3.69262E-03 1.08216E+00 1.83487E-14-1.54023E-13
 -1      4014 1.89565E+01 1.06768E+00 2.02471E-03 1.12706E+00 3.10439E-14-1.76268E-13
 -1      4015 1.84768E+01 1.07906E+00-4.67416E-03 2.65100E-01-1.75760E-13 1.26082E-14
 -1      4016 1.82495E+01 1.13401E+00-7.37562E-03 2.76515E-01-3.51566E-13 2.56856E-14
 -1      4017 1.85494E+01 1.07814E+00 1.51814E-02 9.03499E-02-2.08399E-13-1.04445E-13
 -1      4018 1.78925E+01-3.14859E-01 2.58245E-02 2.70388E+00 1.92707E-13-1.29188E-13
 -1      4019 1.88819E+01 1.91453E+00 7.47136E-03 3.95300E-01 7.33542E-14-2.56750E-13
 -1      4020 1.89999E+01 2.00960E+00-4.53973E-03 3.91789E-01 7.15563E-14-2.65750E-13
 -1      4021 1.91028E+01 1.93907E+00-8.58280E-04 4.44436E-01 4.65386E-14-2.73377E-13
 -1      4022 1.79884E+01 1.50993E+00-4.65309E-03-8.16521E-01 1.49612E-13-1.76104E-13
 -1      4023 1.82759E+01 1.57942E+00-7.97206E-03-7.01324E-01 1.88066E-13-1.81454E-13
 -1      4024 1.82827E+01 1.72221E+00 1.15173E-02-4.26298E-01 1.76208E-13-1.79781E-13
 -1      4025 1.64281E+01 3.59616E-01-2.13424E-03-2.10321E+00 3.80828E-14 2.43828E-13
 -1      4026 1.70320E+01-1.41472E-01-3.72782E-03-2.57456E+00 6.63995E-14 3.57286E-13
 -1      4027 1.77346E+01-3.60386E-02 1.21677E-02-2.23836E+00 1.70619E-13 2.25183E-13
 -1      4028 1.80829E+01 1.18959E+00 1.54174E-02 3.35429E-02-2.68320E-13-1.27901E-13
 -1      4029 1.56345E+01 1.18366E+00 2.14227E-02-7.11314E-01-1.00983E-13 4.41320E-13
 -1      4030 1.52629E+01 1.18214E+00-7.26894E-03-1.71035E-01-1.10897E-13 3.76457E-13
 -1      4031 1.91229E+01-1.90528E+00 2.90209E-02 3.54281E+00 2.09236E-13 8.20841E-14
 -1      4032 1.57279E+01 9.85225E-01-7.93718E-05 1.07317E+00 1.85261E-13-1.54868E-13
 -1      4033 2.00040E+01 2.65326E-02 1.03926E-04-1.35192E-03-9.33498E-14-7.94546E-13
 -1      4034 2.00043E+01 2.15701E-02-8.33568E-05-4.53663E-04-3.36054E-13-8.02927E-13
 -1      4035 2.00043E+01 2.18776E-02-6.02407E-05-8.81327E-05-1.45125E-13-6.74616E-13
 -1      4036 1.70739E+01 1.00561E+00 1.17750E-02-1.82971E+00 7.28540E-14-1.90306E-13
 -1      4037 1.58133E+01 9.14357E-01-1.29869E-02-1.26711E+00 3.60265E-14 4.09817E-13
 -1      4038 1.61207E+01 6.29565E-01-1.04716E-03-1.79627E+00 2.25453E-14 2.98586E-13
 -1      4039 1.69236E+01 6.19545E-01 1.37898E-02-1.65589E+00 1.50098E-13 2.34225E-13
 -1      4040 1.72247E+01 1.35846E+00 1.54762E-03-1.02171E+00 6.43428E-14-2.02056E-13
 -1      4041 1.75823E+01 1.42879E+00-1.33113E-02-8.97547E-01 1.09670E-13-1.84193E-13
 -1      4042 1.76076E+01 1.59480E+00 1.98845E-02-5.28003E-01 1.43008E-13-1.48976E-13
 -1      4043 2.00040E+01 2.91960E-02 2.83667E-05 4.38163E-03-7.85522E-14-9.92761E-14
 -1      4044 2.00028E+01 3.41766E-02 1.52429E-04 4.00122E-03-5.85236E-14-3.45415E-13
 -1      4045 2.00045E+01 2.49871E-02-2.14057E-05 2.90297E-03-1.57374E-13 8.62198E-14
 -1      4046 1.89602E+01 1.86658E+00-1.42512E-03-4.20124E-01 1.66376E-13-2.17558E-13
 -1      4047 1.90793E+01 2.04313E+00-5.26895E-03-2.48681E-01 1.77494E-13-2.44409E-13
 -1      4048 1.89648E+01 2.13765E+00-2.76561E-03-1.40866E-01 1.70375E-13-2.72392E-13
 -1      4049 1.88211E+01 2.02256E+00 3.96844E-03-1.30181E-01 1.55076E-13-2.73185E-13
 -1      4050 1.74531E+01 1.75502E-01-1.98017E-02 2.21899E+00 1.81826E-13-1.45455E-13
 -1      4051 1.92293E+01 1.85828E+00-3.74968E-03 4.98129E-01 3.46498E-14-2.50830E-13
 -1      4052 1.93669E+01 1.75442E+00-1.23713E-03 5.25588E-01 6.08574E-15-2.48858E-13
 -1      4053 1.93770E+01 1.59144E+00 7.74298E-04 6.30340E-01 9.32121E-15-2.45288E-13
 -1      4054 1.90877E+01 1.76517E+00 1.34790E-03 5.53855E-01 4.76542E-14-2.37863E-13
 -1      4055 1.85605E+01 1.90383E+00 4.63691E-04 7.80421E-02 1.14536E-13-2.70452E-13
 -1      4056 1.85873E+01 1.86803E+00-2.19965E-03 2.44231E-01 9.25644E-14-2.53477E-13
 -1      4057 2.00052E+01 1.67467E-02 6.62763E-05 3.74474E-04-1.30454E-13-1.49257E-13
 -1      4058 1.87361E+01 1.90664E+00 6.74965E-03-2.93780E-01 1.64058E-13-2.37588E-13
 -1      4059 1.86532E+01 1.80412E+00-6.58973E-03 4.10698E-01 8.55415E-14-2.48901E-13
 -1      4060 1.87598E+01 1.74368E+00 1.02641E-03 5.20719E-01 6.09260E-14-2.41468E-13
 -1      4061 1.84822E+01 1.72697E+00 6.44146E-03 3.66227E-01 9.26556E-14-2.28546E-13
 -1      4062 1.95631E+01 5.32857E-01-2.32797E-03 3.79539E-02-1.60355E-13 2.25526E-13
 -1      4063 1.94925E+01 5.87629E-01-1.95466E-03 4.46208E-02-8.25729E-14 1.83883E-13
 -1      4064 1.63878E+01 1.08721E+00 1.19272E-02-8.10835E-01-7.77542E-14 3.22812E-13
 -1      4065 1.94089E+01 6.44254E-01-1.71293E-03 3.85660E-02-1.12969E-13 1.95791E-13
 -1      4066 1.93088E+01 7.03173E-01-2.88551E-03 4.16201E-02-8.55995E-14 1.24592E-13
 -1      4067 1.94498E+01 6.20642E-01 2.40219E-03-3.00436E-02-1.41425E-13-3.22606E-14
 -1      4068 2.00046E+01 2.20609E-02 6.91136E-06 1.70810E-03-1.51476E-13-6.55679E-14
 -1      4069 1.55856E+01 1.24033E+00 3.55173E-02-1.07109E+00 1.13450E-13-3.28470E-13
 -1      4070 1.65007E+01 1.06378E+00 5.31190E-03-1.57931E+00 8.99081E-14-2.42899E-13
 -1      4071 1.76721E+01 1.14234E+00-1.13153E-02-3.02606E-01-1.81654E-13 2.15052E-15
 -1      4072 1.73368E+01 1.15719E+00-1.41826E-02-3.60702E-01-1.29372E-13 7.13222E-14
 -1      4073 1.77368E+01 2.23581E-01-6.45320E-03-1.92199E+00 1.80728E-13 2.63200E-13
 -1      4074 1.79829E+01 4.09693E-01 1.03002E-02-1.63432E+00 1.23748E-13 2.39643E-13
 -1      4075 1.80486E+01 5.47060E-01-8.05500E-03-1.40282E+00 1.09381E-13 2.07497E-13
 -1      4076 1.74346E+01 4.96369E-01-2.48969E-03-1.68344E+00 1.71197E-13 2.31576E-13
 -1      4077 1.82712E+01 6.55898E-01 7.45527E-03-1.20067E+00 8.16860E-14 2.55179E-13
 -1      4078 1.83629E+01 7.22599E-01-5.93714E-03-1.02982E+00 7.17452E-14 2.02447E-13
 -1      4079 1.78789E+01 7.37734E-01-4.55959E-04-1.19846E+00 9.76430E-14 1.74639E-13
 -1      4080 1.85530E+01 7.66376E-01 2.88919E-03-8.83596E-01-5.07460E-14 1.45843E-14
 -1      4081 1.86478E+01 7.86092E-01-8.23938E-03-7.60965E-01-1.68945E-13-1.81720E-14
 -1      4082 1.82676E+01 8.45669E-01-6.72387E-04-8.61272E-01-3.83295E-14 9.12749E-14
 -1      4083 1.88215E+01 7.95515E-01 2.84760E-03-6.50033E-01-1.30536E-13-2.80957E-14
 -1      4084 1.89122E+01 7.80003E-01-6.69212E-03-5.61240E-01-1.54371E-13-6.50545E-14
 -1      4085 1.86138E+01 8.92819E-01 1.29516E-02-6.16420E-01-1.61688E-13 4.91454E-14
 -1      4086 1.90557E+01 7.64885E-01 1.59660E-03-4.81903E-01-2.04680E-13-1.61514E-13
 -1      4087 1.91400E+01 7.31538E-01-4.92381E-03-4.15411E-01-1.45606E-13-1.44821E-13
 -1      4088 1.89030E+01 8.51834E-01 1.14042E-02-4.44150E-01-2.58269E-13-1.85668E-13
 -1      4089 1.92576E+01 6.98499E-01 3.73786E-04-3.56358E-01-8.33908E-14-1.24757E-13
 -1      4090 1.93351E+01 6.56840E-01-2.94729E-03-3.07012E-01-2.35490E-14-8.90038E-14
 -1      4091 1.91401E+01 7.76866E-01 8.34788E-03-3.20081E-01-1.50892E-13-1.86484E-13
 -1      4092 1.94282E+01 6.17408E-01 5.07389E-04-2.65948E-01-4.29790E-14-2.73109E-14
 -1      4093 1.94936E+01 5.71374E-01-2.02241E-03-2.27021E-01 8.33452E-15-5.37790E-14
 -1      4094 1.93404E+01 6.75511E-01 3.33401E-03-2.25329E-01-1.90654E-14-1.47316E-13
 -1      4095 1.95688E+01 5.28708E-01 4.75409E-04-1.97915E-01 3.90069E-14-2.15078E-13
 -1      4096 1.96215E+01 4.83547E-01-1.52034E-03-1.67547E-01 5.01873E-15-2.52512E-13
 -1      4097 1.95006E+01 5.77486E-01 1.84198E-03-1.63337E-01-7.67668E-14-1.53289E-13
 -1      4098 1.96810E+01 4.40802E-01 6.91791E-06-1.46234E-01 1.08295E-13-2.52513E-13
 -1      4099 1.97222E+01 3.98787E-01-1.78931E-03-1.23536E-01 1.89728E-13-2.19638E-13
 -1      4100 1.96289E+01 4.81816E-01 6.23537E-04-1.19882E-01 2.72679E-14-2.36846E-13
 -1      4101 1.97700E+01 3.60414E-01-2.18093E-05-1.06558E-01 1.85862E-13-2.47034E-13
 -1      4102 1.98026E+01 3.22318E-01-1.36031E-03-8.93494E-02 6.43162E-15-2.36437E-13
 -1      4103 1.97321E+01 4.01654E-01 3.08956E-03-8.43127E-02 1.30948E-13-3.62740E-13
 -1      4104 1.98389E+01 2.88219E-01-9.97786E-05-7.73795E-02-6.17061E-14-2.06005E-13
 -1      4105 1.98639E+01 2.55298E-01-1.04168E-03-6.43080E-02-5.46935E-14-2.26355E-13
 -1      4106 1.98120E+01 3.22539E-01 2.73946E-03-6.02577E-02-1.19745E-15-2.32860E-13
 -1      4107 1.98910E+01 2.26184E-01-8.67447E-05-5.55812E-02-1.40738E-13-3.00197E-13
 -1      4108 1.99095E+01 1.98511E-01-7.86469E-04-4.56428E-02-1.74419E-13-4.10398E-13
 -1      4109 1.98716E+01 2.54136E-01 2.13965E-03-4.27031E-02-1.38781E-13-3.13155E-13
 -1      4110 1.99294E+01 1.74249E-01-6.76108E-05-3.92992E-02-1.31989E-13-4.78495E-13
 -1      4111 1.99429E+01 1.51527E-01-5.86943E-04-3.17766E-02 4.62703E-14-5.27532E-13
 -1      4112 1.99157E+01 1.96624E-01 1.61478E-03-2.98520E-02-1.96341E-13-2.67547E-13
 -1      4113 1.99571E+01 1.31763E-01-4.77413E-05-2.72015E-02 2.11144E-13-4.35415E-13
 -1      4114 1.99665E+01 1.13493E-01-4.32303E-04-2.15532E-02 1.55053E-13-2.49444E-13
 -1      4115 1.99475E+01 1.49381E-01 1.18998E-03-2.04959E-02 1.20061E-13-2.36594E-13
 -1      4116 1.99764E+01 9.77247E-02-2.98676E-05-1.82868E-02 2.13278E-13-1.87620E-13
 -1      4117 1.99827E+01 8.33129E-02-3.13952E-04-1.40891E-02 2.91495E-13-6.34526E-14
 -1      4118 1.99700E+01 1.11371E-01 8.56600E-04-1.37262E-02 2.37284E-13-3.43590E-13
 -1      4119 1.99893E+01 7.09759E-02-1.53224E-05-1.17855E-02 1.61130E-13-1.20122E-13
 -1      4120 1.99933E+01 5.98076E-02-2.16078E-04-8.70143E-03 1.70359E-13-7.64940E-14
 -1      4121 1.99852E+01 8.13659E-02 5.98556E-04-8.87062E-03 1.91125E-13-2.23129E-13
 -1      4122 1.99974E+01 5.02236E-02-2.42833E-05-7.04495E-03 1.12947E-13-2.08432E-13
 -1      4123 1.99999E+01 4.17959E-02-1.27698E-04-4.93331E-03 2.00153E-13-2.79318E-13
 -1      4124 1.99949E+01 5.80884E-02 3.78540E-04-5.40313E-03 7.54075E-14-1.10283E-13
 -1      4125 2.00017E+01 3.67851E-02 7.89386E-05-3.66428E-03 1.66699E-13-4.92361E-13
 -1      4126 2.00028E+01 3.06811E-02-7.22314E-05-2.05358E-03 2.72178E-14-6.35403E-13
 -1      4127 2.00026E+01 3.14227E-02-3.59280E-05-9.18117E-04-6.85181E-14-6.45395E-13
 -1      4128 2.00001E+01 4.19016E-02 1.09948E-04-2.64294E-03 2.22020E-14-4.83489E-13
 -1      4129 1.45291E+01 1.10068E+00-7.95021E-03-1.79042E-01-1.11374E-13 4.08376E-13
 -1      4130 1.79043E+01 6.78388E-01-2.26426E-02 1.58097E+00 1.04810E-13-1.83009E-13
 -1      4131 1.78217E+01 4.19579E-01-4.39267E-03 1.88093E+00 1.39681E-13-1.81325E-13
 -1      4132 1.69543E+01 9.21295E-01 4.43771E-02 1.58578E+00 1.72286E-13-1.21696E-13
 -1      4133 1.56391E+01 1.26995E+00-3.06124E-02-4.63432E-01 1.64525E-13-2.79334E-13
 -1      4134 1.62942E+01 1.01663E+00-2.12601E-02 1.10299E+00 1.93070E-13-1.14596E-13
 -1      4135 1.58379E+01 1.40374E+00 4.35984E-02 2.60316E-01 1.76375E-13-2.06947E-13
 -1      4136 1.62888E+01 1.36005E+00 1.67456E-03-3.01054E-01 1.51610E-13-2.52440E-13
 -1      4137 1.67673E+01 1.19153E+00-2.00233E-02 8.53227E-01 1.69504E-13-1.23846E-13
 -1      4138 1.92259E+01 7.38854E-01-3.04934E-03-7.09979E-02-8.19619E-14 1.42341E-13
 -1      4139 1.90986E+01 7.94056E-01-6.43391E-03-8.26649E-02-1.09936E-13 6.23130E-14
 -1      4140 1.67452E+01 1.23571E+00-2.21569E-02-1.23920E+00 7.99087E-14-2.39794E-13
 -1      4141 1.71064E+01 1.15055E+00-7.15130E-04-5.03634E-01-7.37910E-14 1.90178E-13
 -1      4142 1.66381E+01 1.12590E+00-1.23279E-02-6.23574E-01-5.35865E-14 2.49194E-13
 -1      4143 1.68900E+01 9.40304E-01 4.04768E-03-1.12346E+00 1.87272E-14 2.19599E-13
 -1      4144 1.74107E+01 1.05254E+00 3.88198E-03-7.47858E-01 1.14210E-14 3.98696E-14
 -1      4145 1.89798E+01 8.42714E-01-5.81584E-03-1.26459E-01-1.28589E-13 7.63587E-14
 -1      4146 1.88177E+01 8.95321E-01-1.01611E-02-1.45409E-01-2.08366E-13-6.40385E-14
 -1      4147 1.93873E+01 1.43122E+00 1.16286E-03 7.40155E-01 2.26468E-15-2.26008E-13
 -1      4148 1.96894E+01 4.26826E-01-1.91139E-03-7.28980E-03 6.68319E-14-1.12766E-13
 -1      4149 1.96351E+01 4.75520E-01-1.52509E-03-4.61201E-03-2.62772E-14 5.08137E-14
 -1      4150 1.97788E+01 3.41541E-01-2.01726E-03-1.60222E-03 2.31860E-14-2.00284E-13
 -1      4151 1.97357E+01 3.82789E-01-2.46367E-03 3.04025E-03 7.82656E-14-8.41636E-14
 -1      4152 1.98472E+01 2.68994E-01-1.65185E-03 1.23418E-03-1.73822E-13-1.00328E-13
 -1      4153 1.98149E+01 3.03939E-01-2.06059E-03 6.14288E-03-1.02530E-13-1.14898E-13
 -1      4154 1.98982E+01 2.08292E-01-1.27500E-03 2.30993E-03-9.70497E-14-7.49739E-14
 -1      4155 1.98745E+01 2.37309E-01-1.57749E-03 6.86385E-03-1.80107E-13-1.58256E-13
 -1      4156 1.99353E+01 1.58524E-01-9.55347E-04 2.42918E-03-1.44032E-14 1.44650E-13
 -1      4157 1.99183E+01 1.82147E-01-1.16989E-03 6.36717E-03-3.57548E-14 6.67464E-14
 -1      4158 1.99616E+01 1.18500E-01-6.98109E-04 2.09640E-03 8.65478E-14 6.43852E-14
 -1      4159 1.99497E+01 1.37379E-01-8.48958E-04 5.34545E-03 1.30946E-13 1.35159E-13
 -1      4160 1.99797E+01 8.68897E-02-4.94880E-04 1.60422E-03 3.95203E-14-1.52635E-13
 -1      4161 1.99716E+01 1.01715E-01-6.02072E-04 4.18618E-03 5.29529E-14-9.62683E-14
 -1      4162 1.99916E+01 6.23471E-02-3.27584E-04 1.10128E-03 9.01915E-14-2.03608E-13
 -1      4163 1.99864E+01 7.37997E-02-4.10514E-04 3.08783E-03 5.13553E-14-1.76033E-13
 -1      4164 1.99989E+01 4.37208E-02-1.53202E-04 7.81982E-04-3.29535E-14-3.47896E-13
 -1      4165 1.99958E+01 5.23851E-02-2.22850E-04 2.11122E-03 5.51260E-14-2.12835E-13
 -1      4166 1.87534E+01 1.31618E+00-3.76259E-03 9.01173E-01 5.21467E-14-2.24447E-13
 -1      4167 1.86386E+01 1.12256E+00-2.02709E-03 1.08438E+00 3.78041E-14-2.21794E-13
 -1      4168 1.86280E+01 1.89221E+00-6.01670E-03-1.96134E-01 1.51737E-13-2.58169E-13
 -1      4169 1.89875E+01 1.55071E+00-3.15573E-03 7.08327E-01 5.08938E-14-2.32018E-13
 -1      4170 1.91480E+01 1.47444E+00 2.35206E-03 7.66535E-01 3.37285E-14-2.04104E-13
 -1      4171 1.83784E+01 1.01713E+00-1.11684E-02 1.19332E+00 3.54327E-14-1.82772E-13
 -1      4172 1.82529E+01 8.06724E-01-4.78394E-03 1.43495E+00 6.36305E-14-1.98148E-13
 -1      4173 1.76886E+01 1.14178E+00 2.16197E-02 1.15606E+00 1.09231E-13-1.89679E-13
 -1      4174 1.82425E+01 1.28388E+00 3.05035E-03 9.32963E-01 9.45884E-14-2.24633E-13
 -1      4175 2.00042E+01 2.29791E-02-6.65002E-05 1.22109E-03-2.54609E-13-3.02955E-13
 -1      4176 1.83048E+01 1.00930E+00-7.03482E-03-3.33786E-01-1.79008E-13-8.22005E-14
 -1      4177 1.80603E+01 1.04049E+00-9.38782E-03-3.91983E-01-1.51636E-13 3.93186E-15
 -1      4178 1.86758E+01 9.37805E-01-7.37316E-03-2.09163E-01-2.57230E-13-8.64119E-14
 -1      4179 1.84706E+01 9.81419E-01-1.27059E-02-2.44436E-01-2.74076E-13-1.31295E-13
 -1      4180 1.84326E+01 1.80443E+00-1.49632E-04-8.65677E-02 1.27684E-13-2.45534E-13
 -1      4181 1.81343E+01 1.69829E+00-1.05309E-02-1.15662E-01 1.27591E-13-2.09033E-13
 -1      4182 1.67703E+01 1.44314E+00 2.38482E-02-7.76497E-01 1.12162E-13-2.42368E-13
 -1      4183 1.77921E+01 1.59773E+00-7.51378E-03-8.85462E-02 1.41785E-13-1.75706E-13
 -1      4184 1.80807E+01 1.67105E+00 7.12235E-03 2.61737E-01 1.18893E-13-2.22323E-13
 -1      4185 1.67160E+01 1.42386E+00-1.84092E-02-1.31926E-01 1.55858E-13-1.96421E-13
 -1      4186 1.71250E+01 7.50379E-01-7.00558E-03-1.37523E+00 1.13035E-13 2.08545E-13
 -1      4187 1.81397E+01 1.60191E+00-2.18058E-03 4.40351E-01 1.14976E-13-2.06317E-13
 -1      4188 1.73956E+01 1.52504E+00-1.08520E-02-1.05872E-01 1.45100E-13-1.75472E-13
 -1      4189 2.00036E+01 2.83842E-02 7.92733E-05 1.19737E-03-1.60204E-13-2.57865E-13
 -1      4190 1.87862E+01 1.47303E+00 1.74644E-03 7.50775E-01 4.85233E-14-2.27195E-13
 -1      4191 1.94716E+01 5.93199E-01-7.00468E-04-1.00788E-01-1.67137E-13-1.16171E-14
 -1      4192 1.93874E+01 6.45609E-01-1.50207E-03-1.19861E-01-2.98525E-14-8.26985E-14
 -1      4193 1.80686E+01 9.90875E-01 1.06302E-02-6.65721E-01-9.80223E-14 3.46804E-15
 -1      4194 1.71417E+01 1.48795E+00 2.52890E-02 3.15399E-01 1.75628E-13-1.48520E-13
 -1      4195 1.74273E+01 8.41780E-01 7.87735E-03-1.15534E+00 9.80011E-14 1.39426E-13
 -1      4196 1.76302E+01 9.09820E-01-2.28184E-03-9.61518E-01 1.12097E-13 1.47204E-13
 -1      4197 1.78852E+01 9.46475E-01 6.84056E-03-7.98494E-01-1.52883E-15 2.35130E-14
 -1      4198 1.92953E+01 7.04073E-01 2.00665E-03-1.53178E-01 8.01670E-15-7.38089E-14
 -1      4199 1.95469E+01 5.44193E-01-1.60335E-04-7.91865E-02-1.47741E-13-3.75090E-14
 -1      4200 1.96073E+01 5.02592E-01 1.67856E-03-6.25051E-02-3.97312E-14-1.46717E-13
 -1      4201 1.74501E+01 1.30535E+00-1.33838E-02 7.72602E-01 1.51362E-13-1.63451E-13
 -1      4202 1.85136E+01 1.50728E+00-1.42674E-03 6.91312E-01 9.22040E-14-2.32418E-13
 -1      4203 2.00022E+01 3.24281E-02-1.55032E-04 1.93750E-03-1.08118E-13-1.95139E-13
 -1      4204 2.00010E+01 3.75659E-02-1.31998E-04 3.09509E-03-1.04887E-13-3.01674E-13
 -1      4205 1.78162E+01 1.38318E+00-2.89770E-03 6.80630E-01 1.22015E-13-1.91655E-13
 -1      4206 1.99999E+01 4.21370E-02 1.27810E-04-1.29966E-03-6.92311E-14-2.68065E-13
 -1      4207 1.82805E+01 1.41751E+00-9.11253E-04 7.76941E-01 9.59976E-14-2.03044E-13
 -1      4208 2.00025E+01 3.14778E-02-1.58190E-05 7.32615E-05-1.40407E-13-4.88107E-13
 -1      4209 2.00016E+01 3.62646E-02 6.87751E-05-4.03945E-04-1.32948E-13-4.49141E-13
 -3
    1PSTEP                         3           1           1          
  100CL  101 1.000000000        4209                     0    1           1
 -4  TOSTRAIN    6    1
 -5  EXX         1    4    1    1
 -5  EYY         1    4    2    2
 -5  EZZ         1    4    3    3
 -5  EXY         1    4    1    2
 -5  EYZ         1    4    2    3
 -5  EZX         1    4    3    1
 -1         1 6.07962E-05 2.74311E-05-3.62338E-05-8.05126E-05-1.88240E-17 2.17446E-17
 -1         2 3.64487E-05-1.11761E-04 2.03615E-05-5.36267E-07 5.55450E-18 3.92997E-19
 -1         3 9.52379E-05-2.85703E-05-2.85724E-05 1.10900E-09-1.59753E-18-1.85276E-18
 -1         4 9.52379E-05-2.85704E-05-2.85724E-05-9.57721E-10 2.84665E-19 1.44574E-18
 -1         5 1.42037E-04-2.10975E-05-4.25246E-05 3.78139E-05-3.08532E-19 2.12317E-17
 -1         6 1.44014E-04 2.58839E-10-4.41719E-05-5.25089E-05-1.27690E-18 1.68822E-17
 -1         7 9.17493E-05-6.29144E-07-3.93657E-05-2.79412E-05-1.77771E-19 1.88076E-18
 -1         8 8.63766E-05 3.16951E-08-3.67837E-05-1.83873E-05-1.89444E-19-2.39418E-18
 -1         9 8.38128E-05 4.67572E-08-3.57322E-05-1.34028E-05-1.56066E-19-4.48053E-18
 -1        10 8.22774E-05 2.80580E-08-3.50886E-05-9.73920E-06-9.58471E-20-5.30338E-18
 -1        11 8.11804E-05 2.13390E-08-3.46424E-05-6.81964E-06-6.39047E-20-5.57294E-18
 -1        12 8.03672E-05 2.08127E-08-3.43194E-05-4.45418E-06 4.83073E-22-5.58142E-18
 -1        13 7.97840E-05 2.37845E-08-3.40923E-05-2.42118E-06 1.57429E-20-5.48033E-18
 -1        14 7.94646E-05 2.65073E-08-3.39700E-05-6.31159E-07 5.79639E-20-5.31237E-18
 -1        15 7.94325E-05 2.75991E-08-3.39602E-05 1.05212E-06 6.47914E-20-5.09509E-18
 -1        16 7.97027E-05 2.65491E-08-3.40679E-05 2.77524E-06 1.06925E-19-4.82613E-18
 -1        17 8.02766E-05 2.30457E-08-3.42935E-05 4.69743E-06 1.28048E-19-4.41983E-18
 -1        18 8.11272E-05 2.19445E-08-3.46298E-05 6.94429E-06 1.58984E-19-3.78546E-18
 -1        19 8.23015E-05 2.60120E-08-3.51029E-05 9.78555E-06 2.18601E-19-2.74068E-18
 -1        20 8.39100E-05 4.73685E-08-3.57745E-05 1.34378E-05 2.58927E-19-9.39690E-19
 -1        21 8.64638E-05 1.01050E-07-3.68595E-05 1.84099E-05 2.83677E-19 2.32666E-18
 -1        22 9.26909E-05-2.14292E-07-3.90542E-05 2.65748E-05 2.32934E-20 8.50635E-18
 -1        23 1.13732E-04-3.83982E-05-3.56428E-05-4.03320E-06-8.74509E-19 1.25227E-17
 -1        24 9.52114E-05-2.84301E-05-2.96954E-05 4.43669E-07-2.36719E-19 8.65439E-18
 -1        25 9.28962E-05-2.79912E-05-2.80545E-05 4.01424E-07-8.60681E-20 4.99376E-18
 -1        26 9.31753E-05-2.80398E-05-2.79460E-05 2.34088E-07-3.11615E-20 2.38355E-18
 -1        27 9.47216E-05-2.84721E-05-2.83994E-05 1.81141E-07 2.14972E-20 9.87826E-19
 -1        28 9.69426E-05-2.91119E-05-2.90737E-05 1.55567E-07-9.79369E-20 7.63058E-20
 -1        29 9.94929E-05-2.98592E-05-2.98371E-05 1.41402E-07-6.97423E-20-1.20134E-18
 -1        30 1.02061E-04-3.06165E-05-3.05944E-05 1.26954E-07 6.63566E-20-1.79672E-18
 -1        31 1.04281E-04-3.12724E-05-3.12366E-05 1.00742E-07-1.46697E-19-3.05774E-18
 -1        32 1.05702E-04-3.16918E-05-3.16310E-05 5.05267E-08-5.50977E-20-4.19065E-18
 -1        33 1.05816E-04-3.17236E-05-3.16329E-05-3.38601E-08 1.84330E-19-4.70817E-18
 -1        34 1.04175E-04-3.12346E-05-3.11232E-05-1.52751E-07-3.44430E-20-4.77875E-18
 -1        35 1.00607E-04-3.01730E-05-3.00714E-05-2.85499E-07 9.45327E-20-4.91556E-18
 -1        36 9.54810E-05-2.86466E-05-2.86028E-05-3.84528E-07-6.91759E-20-5.83708E-18
 -1        37 8.98613E-05-2.69710E-05-2.70273E-05-3.88412E-07-3.66759E-20-6.80979E-18
 -1        38 8.53328E-05-2.56190E-05-2.57783E-05-2.60371E-07-2.00882E-19-7.77306E-18
 -1        39 8.34198E-05-2.50474E-05-2.52583E-05-2.83333E-08-2.18759E-19-9.20765E-18
 -1        40 8.48557E-05-2.54769E-05-2.56563E-05 2.16883E-07-6.97264E-20-9.86725E-18
 -1        41 8.91927E-05-2.67727E-05-2.68574E-05 3.76121E-07-7.63446E-20-1.02915E-17
 -1        42 9.50503E-05-2.85208E-05-2.85004E-05 4.04168E-07 1.78222E-20-9.41707E-18
 -1        43 1.00810E-04-3.02372E-05-3.01483E-05 3.25437E-07-7.74266E-20-7.81076E-18
 -1        44 1.05269E-04-3.15649E-05-3.14572E-05 2.00101E-07 8.47720E-20-7.10105E-18
 -1        45 1.07910E-04-3.23518E-05-3.22613E-05 8.10945E-08-8.75984E-21-6.55741E-18
 -1        46 1.08804E-04-3.26198E-05-3.25609E-05-4.54656E-09-2.34808E-19-7.71107E-18
 -1        47 1.08351E-04-3.24876E-05-3.24587E-05-5.27713E-08 2.85984E-19-7.38335E-18
 -1        48 1.07039E-04-3.20998E-05-3.20924E-05-7.15288E-08-7.40087E-20-4.99243E-18
 -1        49 1.05302E-04-3.15845E-05-3.15893E-05-7.16658E-08 3.44898E-19-5.83847E-18
 -1        50 1.03457E-04-3.10361E-05-3.10461E-05-6.22783E-08-6.12451E-19-7.71076E-18
 -1        51 1.01708E-04-3.05150E-05-3.05259E-05-4.94556E-08 1.20727E-19-7.22771E-18
 -1        52 1.00164E-04-3.00540E-05-3.00636E-05-3.66567E-08 2.23483E-19-6.11341E-18
 -1        53 9.88689E-05-2.96664E-05-2.96740E-05-2.55214E-08 3.10296E-21-5.93607E-18
 -1        54 9.78244E-05-2.93533E-05-2.93587E-05-1.66006E-08 4.64058E-19-6.52310E-18
 -1        55 9.70102E-05-2.91087E-05-2.91123E-05-9.86954E-09-7.06562E-19-7.67967E-18
 -1        56 9.63945E-05-2.89234E-05-2.89256E-05-5.04303E-09 4.99422E-19-8.06550E-18
 -1        57 9.59429E-05-2.87872E-05-2.87883E-05-1.75197E-09-2.97102E-19-8.62882E-18
 -1        58 9.56222E-05-2.86902E-05-2.86906E-05 3.66022E-10 3.85205E-19-7.55154E-18
 -1        59 9.54029E-05-2.86238E-05-2.86237E-05 1.62629E-09-5.58760E-19-6.70509E-18
 -1        60 9.52601E-05-2.85803E-05-2.85800E-05 2.28491E-09 2.47072E-19-4.74075E-18
 -1        61 9.51736E-05-2.85538E-05-2.85533E-05 2.54053E-09 6.67681E-19-1.15794E-19
 -1        62 9.51272E-05-2.85395E-05-2.85389E-05 2.54194E-09-5.68348E-19-6.47355E-20
 -1        63 9.51088E-05-2.85336E-05-2.85331E-05 2.39713E-09-3.91247E-19-3.02099E-18
 -1        64 9.51091E-05-2.85334E-05-2.85329E-05 2.18192E-09 2.54631E-20-4.50355E-18
 -1        65 9.51213E-05-2.85368E-05-2.85364E-05 1.94717E-09-4.27987E-19-4.14659E-18
 -1        66 9.51405E-05-2.85424E-05-2.85421E-05 1.72412E-09 9.17382E-20-2.22571E-18
 -1        67 9.51633E-05-2.85491E-05-2.85489E-05 1.52671E-09 5.96562E-19-1.47297E-18
 -1        68 9.51868E-05-2.85561E-05-2.85559E-05 1.34872E-09 9.91741E-19-6.79765E-20
 -1        69 9.52088E-05-2.85626E-05-2.85623E-05 1.14354E-09-5.84191E-19 2.57034E-18
 -1        70 9.52265E-05-2.85679E-05-2.85674E-05 7.15029E-10 7.71927E-19 2.21435E-18
 -1        71 9.52367E-05-2.85712E-05-2.85706E-05-1.08735E-11 2.79881E-19 1.88276E-18
 -1        72 1.03055E-04-3.08390E-05-3.44345E-05-2.03540E-06 1.92382E-19 2.00955E-17
 -1        73 9.51901E-05-2.83166E-05-2.96710E-05-3.54273E-07 1.49577E-19 1.60836E-17
 -1        74 9.33242E-05-2.79782E-05-2.82365E-05-1.26398E-07 5.41183E-20 1.31982E-17
 -1        75 9.40387E-05-2.82444E-05-2.82542E-05-9.21108E-08 4.26221E-20 1.10361E-17
 -1        76 9.62603E-05-2.89060E-05-2.89019E-05-8.03452E-08 5.54285E-20 8.90376E-18
 -1        77 9.95784E-05-2.98885E-05-2.99100E-05-8.49225E-08 1.22619E-19 7.54728E-18
 -1        78 1.03842E-04-3.11552E-05-3.12000E-05-1.07401E-07-1.05975E-19 7.35641E-18
 -1        79 1.08949E-04-3.26740E-05-3.27316E-05-1.50897E-07 1.12730E-19 6.98205E-18
 -1        80 1.14685E-04-3.43813E-05-3.44290E-05-2.16466E-07-3.81504E-20 6.05386E-18
 -1        81 1.20547E-04-3.61310E-05-3.61207E-05-2.93403E-07 4.87776E-20 5.31162E-18
 -1        82 1.25521E-04-3.76312E-05-3.74824E-05-3.41847E-07 1.12647E-19 4.71754E-18
 -1        83 1.27937E-04-3.83970E-05-3.80226E-05-2.74616E-07-5.53483E-20 5.53123E-18
 -1        84 1.25701E-04-3.78020E-05-3.72000E-05 2.57073E-08-1.89193E-20 5.27262E-18
 -1        85 1.17353E-04-3.53630E-05-3.47584E-05 5.92314E-07-1.01885E-19 6.27747E-18
 -1        86 1.04002E-04-3.13222E-05-3.11767E-05 1.17931E-06 1.27311E-19 4.71443E-18
 -1        87 9.06812E-05-2.71512E-05-2.78240E-05 1.27478E-06-3.54040E-19 3.47792E-18
 -1        88 8.45003E-05-2.51119E-05-2.63450E-05 5.80105E-07-3.07953E-19 3.95392E-18
 -1        89 8.93840E-05-2.65615E-05-2.75744E-05-4.83710E-07 2.99673E-19 2.44647E-18
 -1        90 1.02459E-04-3.06339E-05-3.08659E-05-1.14052E-06-2.88636E-19 2.66445E-19
 -1        91 1.16701E-04-3.50596E-05-3.46246E-05-1.10718E-06 6.17027E-20 1.70476E-18
 -1        92 1.26495E-04-3.80537E-05-3.74231E-05-6.84086E-07 6.52761E-20 1.42963E-18
 -1        93 1.30142E-04-3.91299E-05-3.86334E-05-2.40913E-07 2.51259E-19 3.78101E-19
 -1        94 1.28849E-04-3.87025E-05-3.84331E-05 4.43340E-08-6.92375E-20-6.40502E-20
 -1        95 1.24737E-04-3.74379E-05-3.73494E-05 1.70675E-07 2.14076E-19-1.00089E-18
 -1        96 1.19587E-04-3.58770E-05-3.58906E-05 1.97654E-07 4.37783E-19 5.13580E-19
 -1        97 1.14501E-04-3.43457E-05-3.44013E-05 1.78176E-07-3.63256E-19 3.79008E-19
 -1        98 1.10010E-04-3.29983E-05-3.30620E-05 1.43735E-07 2.46616E-19-6.64127E-20
 -1        99 1.06290E-04-3.18840E-05-3.19412E-05 1.09161E-07-4.94999E-20-2.06540E-18
 -1       100 1.03331E-04-3.09980E-05-3.10442E-05 7.98894E-08 2.07803E-19 2.57386E-19
 -1       101 1.01041E-04-3.03123E-05-3.03477E-05 5.69708E-08 2.62074E-19-1.81212E-19
 -1       102 9.93069E-05-2.97927E-05-2.98190E-05 3.97595E-08-3.13903E-20-2.61542E-18
 -1       103 9.80162E-05-2.94058E-05-2.94250E-05 2.71513E-08-4.39144E-19-5.74929E-19
 -1       104 9.70721E-05-2.91227E-05-2.91365E-05 1.80716E-08 2.15095E-19 3.37678E-18
 -1       105 9.63940E-05-2.89193E-05-2.89290E-05 1.16261E-08 1.50730E-19 3.41521E-18
 -1       106 9.59168E-05-2.87760E-05-2.87828E-05 7.11661E-09-5.97115E-19 9.16870E-19
 -1       107 9.55896E-05-2.86777E-05-2.86824E-05 4.01457E-09 4.73181E-19-2.88370E-18
 -1       108 9.53725E-05-2.86125E-05-2.86156E-05 1.92666E-09 1.96406E-19-4.56563E-18
 -1       109 9.52352E-05-2.85712E-05-2.85732E-05 5.62496E-10-3.81633E-19-1.33887E-18
 -1       110 9.51547E-05-2.85469E-05-2.85481E-05-2.91803E-10 3.28913E-21-3.30512E-18
 -1       111 9.51137E-05-2.85345E-05-2.85352E-05-7.93953E-10 7.41638E-19-3.88472E-18
 -1       112 9.50996E-05-2.85302E-05-2.85305E-05-1.06035E-09-1.21688E-18-3.06939E-18
 -1       113 9.51031E-05-2.85311E-05-2.85313E-05-1.17689E-09 5.84374E-19 9.32665E-20
 -1       114 9.51176E-05-2.85354E-05-2.85354E-05-1.20641E-09-4.43121E-19-4.03664E-18
 -1       115 9.51385E-05-2.85416E-05-2.85415E-05-1.19526E-09 4.98681E-19-3.79348E-18
 -1       116 9.51623E-05-2.85487E-05-2.85486E-05-1.17741E-09 6.00592E-19-4.65107E-18
 -1       117 9.51866E-05-2.85560E-05-2.85558E-05-1.16715E-09 2.70648E-19-8.17758E-18
 -1       118 9.52090E-05-2.85627E-05-2.85623E-05-1.15358E-09-8.35600E-19-8.62988E-18
 -1       119 9.52269E-05-2.85681E-05-2.85675E-05-1.01293E-09-6.87413E-19-4.88616E-18
 -1       120 9.52367E-05-2.85713E-05-2.85706E-05-2.58866E-10 4.75685E-19-1.59279E-18
 -1       121 9.52374E-05-2.85722E-05-2.85706E-05-6.58000E-11-7.41289E-19 1.07114E-18
 -1       122 9.52404E-05-2.85819E-05-2.85675E-05-7.90148E-10-4.00521E-19-1.60903E-18
 -1       123 9.52452E-05-2.85980E-05-2.85630E-05-1.01893E-09 9.35522E-19 3.04369E-19
 -1       124 9.52506E-05-2.86158E-05-2.85578E-05-9.48904E-10-2.72874E-18 1.02854E-18
 -1       125 9.52555E-05-2.86324E-05-2.85530E-05-7.56610E-10 1.16831E-18 5.33970E-19
 -1       126 9.52594E-05-2.86456E-05-2.85491E-05-5.42158E-10 2.14499E-18 4.65225E-19
 -1       127 9.52622E-05-2.86549E-05-2.85463E-05-3.15508E-10 7.25906E-18 1.16134E-18
 -1       128 9.52636E-05-2.86596E-05-2.85449E-05-9.67221E-11 2.93974E-18-9.56534E-19
 -1       129 9.52635E-05-2.86594E-05-2.85450E-05 1.16367E-10 2.33223E-18 5.32571E-19
 -1       130 9.52620E-05-2.86544E-05-2.85464E-05 3.30000E-10 3.00144E-18-3.35514E-19
 -1       131 9.52592E-05-2.86448E-05-2.85493E-05 5.55620E-10-3.29364E-18-5.29512E-19
 -1       132 9.52552E-05-2.86315E-05-2.85532E-05 7.56536E-10-6.72072E-18 3.72032E-19
 -1       133 9.52503E-05-2.86150E-05-2.85581E-05 9.37669E-10-7.11595E-18 6.62904E-19
 -1       134 9.52450E-05-2.85973E-05-2.85632E-05 1.06272E-09-4.49248E-18 3.92834E-19
 -1       135 9.52404E-05-2.85818E-05-2.85676E-05 1.08198E-09-1.59325E-18-1.53033E-18
 -1       136 9.52377E-05-2.85726E-05-2.85706E-05-2.17514E-10-3.22327E-18 5.19821E-19
 -1       137 2.63758E-05-9.12217E-05 1.66624E-05-2.45844E-05 1.50588E-17 3.50036E-18
 -1       138 8.46256E-06-3.71448E-05 3.87767E-06-1.94920E-05 1.87944E-17 8.18509E-18
 -1       139 1.09633E-05 1.22266E-05-1.42388E-05 2.02047E-05 1.86030E-17 1.48171E-17
 -1       140 5.86050E-05 2.56400E-05-3.52952E-05 7.70053E-05 1.65858E-17 1.99633E-17
 -1       141 1.55045E-04-7.63218E-06-5.65796E-05 1.12350E-04 9.95645E-18 1.79008E-17
 -1       142 2.55697E-04-6.08012E-05-7.24501E-05 9.27220E-05 3.75670E-18 8.77272E-18
 -1       143 3.16957E-04-9.71186E-05-8.06633E-05 2.06267E-05-2.16735E-19-2.50743E-18
 -1       144 2.99353E-04-8.65030E-05-7.83457E-05-6.09193E-05 2.74485E-18-1.23984E-17
 -1       145 2.16137E-04-3.77264E-05-6.69862E-05-1.10410E-04 7.97704E-18-2.03788E-17
 -1       146 1.06097E-04 1.27836E-05-4.69593E-05-1.01158E-04 1.35170E-17-1.93776E-17
 -1       147 3.26078E-05 2.54352E-05-2.62754E-05-5.33038E-05 1.59759E-17-1.55879E-17
 -1       148 4.97623E-06-7.52662E-06-5.23738E-06 2.21624E-06 1.47939E-17-9.01370E-18
 -1       149 1.56438E-05-6.24569E-05 1.01928E-05 2.66502E-05 9.56470E-18-3.67104E-18
 -1       150 3.22918E-05-1.04241E-04 1.91311E-05 1.64715E-05-4.24364E-19-3.54245E-19
 -1       151 3.46771E-05-1.07924E-04 1.96257E-05-1.03199E-05-1.08700E-17-1.41351E-18
 -1       152 1.81027E-05-6.85764E-05 1.17404E-05-2.60131E-05-1.76708E-17-5.80652E-18
 -1       153 6.12006E-06-1.01680E-05-4.34501E-06-2.10843E-06-2.00370E-17-1.14019E-17
 -1       154 2.85479E-05 2.52743E-05-2.42857E-05 4.98536E-05-1.75289E-17-1.55693E-17
 -1       155 1.07648E-04 1.40459E-05-4.76989E-05 1.04384E-04-1.10411E-17-1.53029E-17
 -1       156 2.07170E-04-3.44912E-05-6.50852E-05 1.09730E-04-4.41950E-18-1.20296E-17
 -1       157 2.86672E-04-8.14792E-05-7.62097E-05 6.06105E-05-1.63561E-18-3.34874E-18
 -1       158 3.04408E-04-9.26238E-05-7.85007E-05-2.35229E-05-1.10493E-18 8.56371E-18
 -1       159 2.48753E-04-5.82886E-05-7.12516E-05-9.23644E-05-5.86687E-18 1.77610E-17
 -1       160 1.49364E-04-4.95762E-06-5.54592E-05-1.11455E-04-1.34824E-17 2.33641E-17
 -1       161 1.12462E-05 1.61734E-05-1.52028E-05-2.43005E-05-1.88626E-17 1.46388E-17
 -1       162 7.68071E-06-3.18010E-05 2.64582E-06 1.65882E-05-1.43691E-17 6.95838E-18
 -1       163 2.55036E-05-8.63193E-05 1.53704E-05 2.31037E-05-5.45172E-18 1.75529E-18
 -1       164 9.66277E-05-1.30405E-05-3.60126E-05-2.04515E-05-2.63736E-18-1.89656E-19
 -1       165 9.07317E-05-8.88033E-06-3.52324E-05-1.52094E-05-2.26634E-18-2.71454E-18
 -1       166 8.73881E-05-6.59033E-06-3.47352E-05-1.12600E-05-1.71379E-18-3.99111E-18
 -1       167 8.52216E-05-5.23612E-06-3.43593E-05-8.10613E-06-1.06644E-18-4.53803E-18
 -1       168 8.36683E-05-4.32226E-06-3.40685E-05-5.54504E-06-5.50064E-19-4.64362E-18
 -1       169 8.25171E-05-3.66934E-06-3.38460E-05-3.36271E-06-9.84527E-20-4.62821E-18
 -1       170 8.17781E-05-3.25366E-06-3.37027E-05-1.47890E-06 3.67587E-19-4.41994E-18
 -1       171 8.14748E-05-3.07309E-06-3.36484E-05 2.32465E-07 7.84714E-19-4.26351E-18
 -1       172 8.16387E-05-3.14199E-06-3.36903E-05 1.90519E-06 1.18332E-18-4.06595E-18
 -1       173 8.22922E-05-3.48171E-06-3.38293E-05 3.68496E-06 1.56417E-18-3.80636E-18
 -1       174 8.34231E-05-4.10637E-06-3.40552E-05 5.69157E-06 1.97248E-18-3.34266E-18
 -1       175 8.51000E-05-5.09054E-06-3.43685E-05 8.16225E-06 2.44662E-18-2.51403E-18
 -1       176 8.74417E-05-6.56934E-06-3.47692E-05 1.12635E-05 2.82490E-18-1.28683E-18
 -1       177 9.09654E-05-8.99901E-06-3.52845E-05 1.52054E-05 2.99872E-18 8.61393E-19
 -1       178 9.76475E-05-1.43153E-05-3.59096E-05 1.98359E-05 2.65293E-18 4.73431E-18
 -1       179 1.07200E-04-2.67558E-05-3.56429E-05 1.71542E-05 1.75120E-18 9.63082E-18
 -1       180 1.05309E-04-2.79735E-05-3.31398E-05-1.07150E-05-2.42296E-18 3.18879E-18
 -1       181 9.99089E-05-2.91447E-05-3.03587E-05-3.35754E-06-2.10570E-18 2.05835E-18
 -1       182 9.73346E-05-2.87572E-05-2.93404E-05-3.45403E-07-1.49063E-18 1.15198E-18
 -1       183 9.69321E-05-2.88466E-05-2.91435E-05 1.14518E-06-9.82863E-19 3.73462E-19
 -1       184 9.76122E-05-2.91522E-05-2.93222E-05 1.97329E-06-6.51928E-19-3.53228E-19
 -1       185 9.89226E-05-2.96244E-05-2.96925E-05 2.40012E-06-8.27537E-19-3.98934E-19
 -1       186 1.00538E-04-3.01957E-05-3.01469E-05 2.48238E-06-5.08769E-19-9.58330E-19
 -1       187 1.02173E-04-3.07943E-05-3.05958E-05 2.18663E-06-5.59792E-19-1.42708E-18
 -1       188 1.03527E-04-3.13324E-05-3.09494E-05 1.44511E-06-4.62228E-19-1.08559E-18
 -1       189 1.04279E-04-3.16964E-05-3.11175E-05 2.14554E-07-4.90629E-19-8.44577E-19
 -1       190 1.04113E-04-3.17479E-05-3.10236E-05-1.44245E-06-4.04986E-19-1.95001E-18
 -1       191 1.02810E-04-3.13506E-05-3.06315E-05-3.26464E-06-1.80264E-19-2.29619E-18
 -1       192 1.00385E-04-3.04386E-05-2.99773E-05-4.74566E-06-5.45676E-19-2.42083E-18
 -1       193 9.72352E-05-2.91176E-05-2.91875E-05-5.23262E-06-7.83775E-19-2.69627E-18
 -1       194 9.41682E-05-2.77329E-05-2.84626E-05-4.22810E-06-6.94764E-19-2.62330E-18
 -1       195 9.21937E-05-2.67935E-05-2.80173E-05-1.78042E-06-1.10015E-18-3.23192E-18
 -1       196 9.20718E-05-2.67125E-05-2.80002E-05 1.36440E-06-8.46242E-19-4.41672E-18
 -1       197 9.39006E-05-2.75444E-05-2.84287E-05 4.08342E-06-2.77198E-19-5.48602E-18
 -1       198 9.70581E-05-2.89443E-05-2.91848E-05 5.49379E-06 1.24758E-19-5.29605E-18
 -1       199 1.00560E-04-3.04016E-05-3.00662E-05 5.37828E-06 7.10793E-19-5.42165E-18
 -1       200 1.03527E-04-3.15203E-05-3.08646E-05 4.13646E-06 3.36767E-19-5.50741E-18
 -1       201 1.05469E-04-3.21441E-05-3.14339E-05 2.41289E-06 1.21968E-19-5.17310E-18
 -1       202 1.06288E-04-3.23074E-05-3.17165E-05 7.55594E-07 1.41364E-19-4.43053E-18
 -1       203 1.06149E-04-3.21345E-05-3.17303E-05-5.28205E-07 3.18379E-19-2.60237E-18
 -1       204 1.05331E-04-3.17609E-05-3.15374E-05-1.35230E-06 4.93168E-19-2.64760E-18
 -1       205 1.04116E-04-3.12958E-05-3.12130E-05-1.76617E-06-4.27190E-19-3.17527E-18
 -1       206 1.02735E-04-3.08141E-05-3.08254E-05-1.87408E-06-6.40806E-19-3.89485E-18
 -1       207 1.01356E-04-3.03611E-05-3.04264E-05-1.78403E-06-1.47201E-19-3.37085E-18
 -1       208 1.00082E-04-2.99604E-05-3.00506E-05-1.58460E-06 6.46125E-19-2.92949E-18
 -1       209 9.89660E-05-2.96211E-05-2.97172E-05-1.33920E-06 9.64724E-20-2.99262E-18
 -1       210 9.80294E-05-2.93435E-05-2.94344E-05-1.08865E-06-9.92981E-19-2.63824E-18
 -1       211 9.72692E-05-2.91230E-05-2.92032E-05-8.56462E-07-9.22980E-19-4.89378E-18
 -1       212 9.66700E-05-2.89524E-05-2.90197E-05-6.54125E-07 1.73457E-19-4.07519E-18
 -1       213 9.62105E-05-2.88238E-05-2.88781E-05-4.85405E-07 3.41126E-19-2.90762E-18
 -1       214 9.58672E-05-2.87292E-05-2.87719E-05-3.49486E-07 6.99394E-19-2.86006E-18
 -1       215 9.56180E-05-2.86618E-05-2.86943E-05-2.43129E-07 6.58642E-19-1.84372E-18
 -1       216 9.54427E-05-2.86152E-05-2.86394E-05-1.62060E-07 3.19189E-19-1.45589E-18
 -1       217 9.53240E-05-2.85844E-05-2.86019E-05-1.01800E-07 2.34264E-18-9.45239E-19
 -1       218 9.52479E-05-2.85653E-05-2.85777E-05-5.81414E-08-3.38286E-19-1.35118E-18
 -1       219 9.52028E-05-2.85547E-05-2.85631E-05-2.73751E-08-1.32610E-18-8.03258E-19
 -1       220 9.51798E-05-2.85499E-05-2.85554E-05-6.38617E-09-1.54864E-18-1.70851E-18
 -1       221 9.51721E-05-2.85491E-05-2.85525E-05 7.33796E-09 3.28633E-19-2.55415E-18
 -1       222 9.51746E-05-2.85510E-05-2.85529E-05 1.57376E-08 5.77742E-19-1.62349E-18
 -1       223 9.51833E-05-2.85544E-05-2.85552E-05 2.02231E-08 1.07588E-18-2.01073E-18
 -1       224 9.51953E-05-2.85587E-05-2.85585E-05 2.17097E-08 2.00103E-18-4.26316E-19
 -1       225 9.52084E-05-2.85632E-05-2.85622E-05 2.06355E-08 1.50162E-18-5.36225E-19
 -1       226 9.52206E-05-2.85677E-05-2.85656E-05 1.69696E-08 2.99994E-19 3.71236E-19
 -1       227 9.52307E-05-2.85718E-05-2.85681E-05 1.05135E-08 3.95225E-19 1.24944E-18
 -1       228 1.02010E-04-2.93377E-05-3.13151E-05 5.83828E-06 2.00092E-18 8.32772E-18
 -1       229 9.81589E-05-2.88841E-05-2.96549E-05 1.32037E-06 1.58183E-18 6.68150E-18
 -1       230 9.72966E-05-2.88867E-05-2.92714E-05-7.45016E-07 1.23137E-18 5.25858E-18
 -1       231 9.81311E-05-2.92228E-05-2.95039E-05-2.01972E-06 1.09436E-18 4.48138E-18
 -1       232 1.00129E-04-2.98497E-05-3.01056E-05-2.98976E-06 5.81180E-19 3.85824E-18
 -1       233 1.03020E-04-3.07318E-05-3.09756E-05-3.81643E-06 1.63829E-19 3.27841E-18
 -1       234 1.06628E-04-3.18427E-05-3.20515E-05-4.50952E-06 3.05124E-19 2.91300E-18
 -1       235 1.10743E-04-3.31530E-05-3.32584E-05-4.94742E-06 4.77554E-19 3.00673E-18
 -1       236 1.15022E-04-3.46036E-05-3.44718E-05-4.85318E-06 3.70232E-19 2.56563E-18
 -1       237 1.18872E-04-3.60599E-05-3.54913E-05-3.78681E-06 1.18717E-20 2.41135E-18
 -1       238 1.21384E-04-3.72404E-05-3.60452E-05-1.25675E-06-4.94293E-19 2.64251E-18
 -1       239 1.21420E-04-3.76422E-05-3.58688E-05 2.88981E-06-1.82476E-19 3.31093E-18
 -1       240 1.18060E-04-3.65992E-05-3.48761E-05 7.74508E-06-1.37309E-19 3.84834E-18
 -1       241 1.11565E-04-3.37823E-05-3.33480E-05 1.08115E-05 7.63221E-19 3.79276E-18
 -1       242 1.04362E-04-3.00968E-05-3.19284E-05 9.04974E-06 9.10263E-19 3.31351E-18
 -1       243 1.00533E-04-2.78680E-05-3.12934E-05 1.96865E-06 4.67999E-19 9.71055E-19
 -1       244 1.02793E-04-2.89352E-05-3.17636E-05-6.48820E-06 8.93441E-19-6.87897E-19
 -1       245 1.09739E-04-3.24764E-05-3.31227E-05-1.10364E-05 5.57043E-19-6.77097E-19
 -1       246 1.17282E-04-3.60036E-05-3.47757E-05-9.99618E-06-5.37270E-19-1.69301E-18
 -1       247 1.22187E-04-3.78990E-05-3.60721E-05-5.66631E-06 3.19570E-19-2.04386E-18
 -1       248 1.23558E-04-3.80925E-05-3.66087E-05-1.01589E-06 2.88693E-19-1.96897E-18
 -1       249 1.22090E-04-3.72235E-05-3.63761E-05 2.28068E-06 4.22679E-19-2.30776E-18
 -1       250 1.18957E-04-3.59177E-05-3.56019E-05 3.95821E-06 2.49956E-19-3.18824E-18
 -1       251 1.15161E-04-3.45509E-05-3.45598E-05 4.42482E-06-8.00486E-19-1.74577E-18
 -1       252 1.11365E-04-3.32999E-05-3.34640E-05 4.18865E-06-5.24740E-19-3.03316E-19
 -1       253 1.07925E-04-3.22290E-05-3.24438E-05 3.63301E-06 4.85969E-19-7.07727E-20
 -1       254 1.04989E-04-3.13480E-05-3.15601E-05 2.98912E-06 1.59336E-19 7.35231E-19
 -1       255 1.02582E-04-3.06427E-05-3.08292E-05 2.37516E-06-7.91590E-19 8.37549E-19
 -1       256 1.00665E-04-3.00894E-05-3.02439E-05 1.84063E-06 1.50219E-19 9.62793E-19
 -1       257 9.91713E-05-2.96629E-05-2.97864E-05 1.39841E-06 5.95570E-19 4.37372E-19
 -1       258 9.80287E-05-2.93392E-05-2.94357E-05 1.04410E-06-1.38688E-18 8.76062E-19
 -1       259 9.71695E-05-2.90974E-05-2.91714E-05 7.66476E-07-8.31316E-19 1.07466E-18
 -1       260 9.65342E-05-2.89197E-05-2.89757E-05 5.52624E-07 3.61462E-19 1.56462E-18
 -1       261 9.60728E-05-2.87914E-05-2.88333E-05 3.90290E-07 7.67585E-19 1.10856E-18
 -1       262 9.57445E-05-2.87009E-05-2.87317E-05 2.68754E-07 2.20263E-18-8.44742E-19
 -1       263 9.55165E-05-2.86386E-05-2.86610E-05 1.79040E-07-3.86945E-21-1.29091E-18
 -1       264 9.53633E-05-2.85973E-05-2.86132E-05 1.13831E-07-7.49464E-19-2.04423E-18
 -1       265 9.52647E-05-2.85712E-05-2.85824E-05 6.72572E-08 1.13971E-18-2.79280E-18
 -1       266 9.52055E-05-2.85560E-05-2.85636E-05 3.46749E-08 2.51827E-19-1.93620E-18
 -1       267 9.51740E-05-2.85485E-05-2.85535E-05 1.24532E-08-1.25842E-18-5.24484E-19
 -1       268 9.51616E-05-2.85461E-05-2.85493E-05-2.20449E-09 9.41240E-19-7.83440E-19
 -1       269 9.51619E-05-2.85472E-05-2.85490E-05-1.14071E-08 3.62092E-19-7.08124E-19
 -1       270 9.51702E-05-2.85503E-05-2.85513E-05-1.66912E-08 1.19535E-18-1.24933E-18
 -1       271 9.51830E-05-2.85547E-05-2.85549E-05-1.91129E-08 2.86427E-19-2.30694E-18
 -1       272 9.51977E-05-2.85596E-05-2.85592E-05-1.92741E-08 9.28734E-19 5.29472E-19
 -1       273 9.52123E-05-2.85644E-05-2.85633E-05-1.73503E-08-1.51935E-18 1.71737E-18
 -1       274 9.52247E-05-2.85688E-05-2.85668E-05-1.31116E-08-8.30431E-19 9.59118E-19
 -1       275 9.52336E-05-2.85722E-05-2.85692E-05-6.35906E-09 9.98886E-20 8.96282E-19
 -1       276 9.52369E-05-2.85782E-05-2.85681E-05-1.06283E-08 1.07232E-18 9.08989E-19
 -1       277 9.52412E-05-2.85879E-05-2.85657E-05-1.58483E-08 2.02272E-18 7.25138E-19
 -1       278 9.52456E-05-2.85992E-05-2.85628E-05-1.74351E-08 6.12745E-19-2.00743E-18
 -1       279 9.52496E-05-2.86102E-05-2.85597E-05-1.61969E-08-9.91254E-19 2.55767E-18
 -1       280 9.52528E-05-2.86197E-05-2.85570E-05-1.31982E-08 6.94789E-20 1.17231E-18
 -1       281 9.52552E-05-2.86271E-05-2.85549E-05-9.12701E-09 4.54330E-19 1.56283E-18
 -1       282 9.52566E-05-2.86316E-05-2.85535E-05-4.55054E-09 1.01531E-18-8.63435E-19
 -1       283 9.52570E-05-2.86330E-05-2.85531E-05 1.99581E-10 2.01647E-18-8.69726E-19
 -1       284 9.52565E-05-2.86313E-05-2.85536E-05 4.91061E-09 2.65463E-19 1.96739E-20
 -1       285 9.52550E-05-2.86266E-05-2.85550E-05 9.38176E-09-1.18656E-19-4.21732E-18
 -1       286 9.52526E-05-2.86192E-05-2.85571E-05 1.32493E-08-9.04520E-19-2.57358E-18
 -1       287 9.52493E-05-2.86096E-05-2.85599E-05 1.61435E-08-5.25767E-19-1.94371E-19
 -1       288 9.52454E-05-2.85986E-05-2.85629E-05 1.72615E-08-1.46840E-18 3.64748E-19
 -1       289 9.52409E-05-2.85874E-05-2.85658E-05 1.53455E-08-2.35079E-18 5.18706E-19
 -1       290 9.52363E-05-2.85791E-05-2.85674E-05 1.50242E-08-1.18334E-18-1.73071E-19
 -1       291 1.15592E-05-4.51914E-05 1.15480E-05 6.07044E-06 2.78457E-18 5.20449E-18
 -1       292 2.81293E-05-4.26864E-05 4.05285E-06 2.38773E-05 5.07267E-18 4.47313E-18
 -1       293 5.26924E-05-3.79170E-05-8.32944E-06 3.23061E-05 8.71978E-18 7.42107E-18
 -1       294 9.39127E-05-3.58678E-05-2.54542E-05 4.21913E-05 7.63981E-18 8.29097E-18
 -1       295 1.38007E-04-3.28793E-05-4.39523E-05 4.54976E-05 7.93522E-18 6.57488E-18
 -1       296 1.79318E-04-3.57754E-05-5.93228E-05 2.99396E-05 7.17217E-18 2.72469E-18
 -1       297 1.96665E-04-3.07700E-05-6.86304E-05 9.29330E-06 6.42570E-18 8.29986E-19
 -1       298 2.17792E-04-3.83187E-05-7.29373E-05-6.74312E-06 5.13249E-18-2.69108E-18
 -1       299 1.98421E-04-3.55803E-05-6.67026E-05-2.44399E-05 5.99562E-18-4.86260E-18
 -1       300 1.63703E-04-3.83422E-05-5.23918E-05-2.99833E-05 4.37704E-18-6.15009E-18
 -1       301 1.17053E-04-3.29825E-05-3.57088E-05-4.60384E-05 5.46124E-18-7.46829E-18
 -1       302 7.81967E-05-3.90729E-05-1.77976E-05-4.03053E-05 3.87200E-18-6.33951E-18
 -1       303 3.94184E-05-4.12745E-05-1.65008E-06-2.72403E-05 2.95530E-18-5.10222E-18
 -1       304 1.93689E-05-4.44576E-05 8.09983E-06-1.66904E-05-1.48231E-20-5.28686E-18
 -1       305 9.21722E-06-4.08904E-05 1.12957E-05-2.59589E-07-2.01843E-18-4.94328E-18
 -1       306 1.68580E-05-4.76146E-05 9.94252E-06 1.36148E-05-4.91872E-18-4.54761E-18
 -1       307 3.93520E-05-4.05373E-05-1.31119E-06 3.23798E-05-5.22958E-18-4.59801E-18
 -1       308 7.27511E-05-3.65361E-05-1.64348E-05 4.16195E-05-6.51877E-18-4.64365E-18
 -1       309 1.19790E-04-3.77999E-05-3.48529E-05 4.19236E-05-5.53875E-18-3.35150E-18
 -1       310 1.58377E-04-3.00919E-05-5.30057E-05 4.52011E-05-5.73828E-18-4.46280E-18
 -1       311 1.89010E-04-3.19841E-05-6.47038E-05 2.52987E-05-5.29470E-18-8.40892E-19
 -1       312 2.03607E-04-3.21038E-05-7.05089E-05 5.29422E-06-5.89620E-18 2.39117E-18
 -1       313 1.97496E-04-3.19055E-05-6.82509E-05-1.58404E-05-6.08964E-18 5.48782E-18
 -1       314 1.70726E-04-3.19145E-05-5.78193E-05-2.81031E-05-6.98132E-18 5.76956E-18
 -1       315 1.34678E-04-3.05064E-05-4.35811E-05-4.60410E-05-7.64564E-18 9.56681E-18
 -1       316 9.17295E-05-3.14383E-05-2.61291E-05-4.50638E-05-7.05070E-18 9.71843E-18
 -1       317 5.20793E-05-3.48127E-05-9.11017E-06-3.51670E-05-6.36651E-18 8.25179E-18
 -1       318 2.72129E-05-4.24810E-05 3.95206E-06-2.35946E-05-2.64126E-18 6.45852E-18
 -1       319 1.25437E-05-4.68956E-05 1.15909E-05-9.45437E-06 4.62692E-19 5.53515E-18
 -1       320 9.29175E-05-1.46245E-05-3.36184E-05-1.05333E-05-2.31771E-18-2.27310E-18
 -1       321 9.76467E-05-1.97486E-05-3.34447E-05-1.23846E-05-2.78809E-18-9.54825E-19
 -1       322 8.73218E-05-9.48200E-06-3.34094E-05-5.75345E-06-1.01576E-18-3.47070E-18
 -1       323 8.55222E-05-7.99424E-06-3.32679E-05-3.70781E-06-4.64223E-19-3.54303E-18
 -1       324 8.42632E-05-6.99019E-06-3.31535E-05-1.94833E-06 1.40198E-19-3.40325E-18
 -1       325 8.35554E-05-6.42783E-06-3.30885E-05-4.04814E-07 7.52524E-19-3.22094E-18
 -1       326 8.34408E-05-6.31823E-06-3.30860E-05 1.02261E-06 1.25944E-18-3.14442E-18
 -1       327 8.39614E-05-6.69557E-06-3.31496E-05 2.45541E-06 1.71782E-18-2.94454E-18
 -1       328 8.51171E-05-7.58558E-06-3.32686E-05 3.99792E-06 2.15678E-18-2.59832E-18
 -1       329 8.69704E-05-9.09143E-06-3.34265E-05 5.82104E-06 2.68879E-18-1.97893E-18
 -1       330 8.95755E-05-1.13624E-05-3.35833E-05 7.96477E-06 3.09313E-18-1.04709E-18
 -1       331 9.31555E-05-1.47631E-05-3.36741E-05 1.03113E-05 3.35185E-18 2.21387E-19
 -1       332 9.78834E-05-2.00447E-05-3.34614E-05 1.18311E-05 3.23856E-18 2.60512E-18
 -1       333 1.01172E-04-2.52021E-05-3.26376E-05 9.79443E-06 2.74789E-18 4.81755E-18
 -1       334 9.95786E-05-2.76493E-05-3.07927E-05 3.41049E-06 2.33742E-18 3.74164E-18
 -1       335 9.91168E-05-2.67375E-05-3.09744E-05-4.00585E-06-2.13272E-18-4.24228E-19
 -1       336 9.83360E-05-2.78909E-05-3.01655E-05-2.48173E-07-1.62661E-18-4.93551E-19
 -1       337 9.82271E-05-2.85265E-05-2.98567E-05 1.96574E-06-1.11581E-18-5.70516E-19
 -1       338 9.87268E-05-2.91108E-05-2.98287E-05 3.27440E-06-8.17002E-19-1.00007E-18
 -1       339 9.96813E-05-2.97724E-05-2.99600E-05 3.91872E-06-7.14118E-19-8.78118E-19
 -1       340 1.00933E-04-3.05555E-05-3.01655E-05 3.93963E-06-7.59900E-19-8.49074E-19
 -1       341 1.02318E-04-3.14492E-05-3.03801E-05 3.27768E-06-3.75113E-19-9.50570E-19
 -1       342 1.03638E-04-3.23742E-05-3.05532E-05 1.84870E-06-5.20297E-19-9.11222E-19
 -1       343 1.04639E-04-3.31487E-05-3.06524E-05-3.55814E-07-1.00192E-18-1.07851E-18
 -1       344 1.05005E-04-3.34697E-05-3.06707E-05-3.13033E-06-4.60503E-19-8.97247E-19
 -1       345 1.04424E-04-3.29715E-05-3.06298E-05-5.91366E-06-4.68222E-19-1.25585E-18
 -1       346 1.02769E-04-3.14305E-05-3.05724E-05-7.76174E-06-6.69907E-19-1.16717E-18
 -1       347 1.00362E-04-2.90804E-05-3.05388E-05-7.61889E-06-8.19671E-19-1.29445E-18
 -1       348 9.80865E-05-2.67846E-05-3.05419E-05-4.94068E-06-1.30938E-18-1.62424E-18
 -1       349 9.70495E-05-2.56864E-05-3.05665E-05-3.34275E-07-1.55685E-18-2.05750E-18
 -1       350 9.78414E-05-2.64065E-05-3.06009E-05 4.52607E-06-1.12038E-18-1.80276E-18
 -1       351 1.00090E-04-2.85500E-05-3.06493E-05 7.79884E-06-1.37638E-19-2.85750E-18
 -1       352 1.02745E-04-3.10249E-05-3.07341E-05 8.58945E-06-1.80954E-20-3.33152E-18
 -1       353 1.04822E-04-3.28445E-05-3.08526E-05 7.20799E-06 4.09633E-19-3.79471E-18
 -1       354 1.05870E-04-3.36368E-05-3.09686E-05 4.64768E-06 9.53478E-19-3.84600E-18
 -1       355 1.05929E-04-3.35480E-05-3.10337E-05 1.90053E-06 4.10509E-19-2.52316E-18
 -1       356 1.05274E-04-3.29332E-05-3.10151E-05-3.96851E-07 7.42532E-19-2.82247E-18
 -1       357 1.04209E-04-3.21180E-05-3.09047E-05-1.99276E-06 8.70840E-19-2.60132E-18
 -1       358 1.02969E-04-3.13115E-05-3.07156E-05-2.89814E-06 4.25620E-19-3.10734E-18
 -1       359 1.01711E-04-3.06129E-05-3.04728E-05-3.25000E-06-2.45353E-19-1.64323E-18
 -1       360 1.00526E-04-3.00509E-05-3.02038E-05-3.21664E-06 3.36753E-19-2.53704E-19
 -1       361 9.94637E-05-2.96185E-05-2.99324E-05-2.94894E-06 3.64015E-19-6.49959E-20
 -1       362 9.85445E-05-2.92954E-05-2.96762E-05-2.56280E-06-1.52952E-19-6.48667E-19
 -1       363 9.77720E-05-2.90591E-05-2.94462E-05-2.13827E-06-1.00162E-18-1.39253E-18
 -1       364 9.71386E-05-2.88892E-05-2.92476E-05-1.72551E-06-7.67038E-19 3.96473E-20
 -1       365 9.66311E-05-2.87691E-05-2.90817E-05-1.35242E-06 1.29255E-20 1.10405E-18
 -1       366 9.62330E-05-2.86859E-05-2.89470E-05-1.03163E-06 4.35124E-19 1.49724E-19
 -1       367 9.59274E-05-2.86297E-05-2.88405E-05-7.66020E-07 4.17693E-19 1.02743E-19
 -1       368 9.56979E-05-2.85928E-05-2.87582E-05-5.52730E-07 6.52798E-19 1.07154E-18
 -1       369 9.55296E-05-2.85697E-05-2.86962E-05-3.85945E-07 7.39329E-19 1.67945E-18
 -1       370 9.54095E-05-2.85563E-05-2.86507E-05-2.58673E-07 1.04511E-18 2.84963E-18
 -1       371 9.53265E-05-2.85495E-05-2.86182E-05-1.63833E-07 3.56443E-19 3.29661E-20
 -1       372 9.52716E-05-2.85472E-05-2.85958E-05-9.48639E-08-4.35357E-19 9.02311E-19
 -1       373 9.52375E-05-2.85477E-05-2.85811E-05-4.60337E-08-1.62174E-18 6.22797E-19
 -1       374 9.52183E-05-2.85500E-05-2.85720E-05-1.25518E-08-8.86044E-19 1.92873E-18
 -1       375 9.52097E-05-2.85533E-05-2.85669E-05 9.42392E-09-2.47845E-19 1.52995E-18
 -1       376 9.52083E-05-2.85572E-05-2.85647E-05 2.28395E-08 1.06318E-18 1.89833E-19
 -1       377 9.52113E-05-2.85615E-05-2.85642E-05 2.98172E-08 1.75505E-18-2.49731E-19
 -1       378 9.52170E-05-2.85659E-05-2.85647E-05 3.17290E-08 1.38200E-18 3.94779E-19
 -1       379 9.52239E-05-2.85707E-05-2.85657E-05 2.93667E-08 1.01339E-18 4.94634E-19
 -1       380 9.52299E-05-2.85749E-05-2.85665E-05 2.36035E-08 1.20901E-18 1.48307E-18
 -1       381 9.86254E-05-2.83640E-05-3.00701E-05-3.04856E-07 1.79576E-18 3.04320E-18
 -1       382 9.87643E-05-2.87750E-05-2.99685E-05-2.68826E-06 1.33996E-18 2.50452E-18
 -1       383 9.98750E-05-2.92649E-05-3.02459E-05-4.45461E-06 1.01269E-18 2.22851E-18
 -1       384 1.01766E-04-2.99238E-05-3.07804E-05-5.89816E-06 4.09169E-19 1.67919E-18
 -1       385 1.04304E-04-3.08087E-05-3.14941E-05-7.07736E-06 2.66151E-19 1.36408E-18
 -1       386 1.07380E-04-3.19903E-05-3.23129E-05-7.85268E-06 6.15905E-19 1.27797E-18
 -1       387 1.10868E-04-3.35569E-05-3.31452E-05-7.86822E-06 7.79709E-19 1.36561E-18
 -1       388 1.14559E-04-3.55605E-05-3.38777E-05-6.54416E-06 2.29625E-20 1.29357E-18
 -1       389 1.18050E-04-3.78537E-05-3.43982E-05-3.20078E-06-5.74278E-19 1.71132E-18
 -1       390 1.20572E-04-3.97754E-05-3.46575E-05 2.48743E-06-7.49502E-19 2.29613E-18
 -1       391 1.20899E-04-3.99011E-05-3.47478E-05 9.54998E-06 2.70002E-19 2.36679E-18
 -1       392 1.17956E-04-3.66757E-05-3.48777E-05 1.47221E-05 7.36268E-19 2.94695E-18
 -1       393 1.12510E-04-3.05518E-05-3.52041E-05 1.33818E-05 1.73227E-18 2.63243E-18
 -1       394 1.08470E-04-2.58060E-05-3.55274E-05 3.89144E-06 2.04768E-18 4.87348E-19
 -1       395 1.09677E-04-2.69359E-05-3.55511E-05-8.48513E-06 1.70858E-18-1.18856E-18
 -1       396 1.15174E-04-3.29072E-05-3.52995E-05-1.54551E-05 1.10464E-18-1.93317E-18
 -1       397 1.20409E-04-3.85443E-05-3.50857E-05-1.40431E-05-3.03244E-20-2.69397E-18
 -1       398 1.22299E-04-4.05402E-05-3.50603E-05-7.74952E-06 4.34551E-19-2.52808E-18
 -1       399 1.21181E-04-3.96277E-05-3.49847E-05-9.29187E-07 7.96443E-20-2.55256E-18
 -1       400 1.18347E-04-3.74727E-05-3.46911E-05 3.92119E-06 1.10142E-18-2.16715E-18
 -1       401 1.14929E-04-3.52851E-05-3.41530E-05 6.42249E-06 4.64806E-19-2.00518E-18
 -1       402 1.11530E-04-3.35118E-05-3.34452E-05 7.14899E-06-1.62678E-18-2.28364E-18
 -1       403 1.08420E-04-3.21896E-05-3.26708E-05 6.81652E-06-9.63172E-19-9.98240E-19
 -1       404 1.05703E-04-3.12258E-05-3.19144E-05 5.97784E-06-3.53061E-19-1.54823E-19
 -1       405 1.03401E-04-3.05200E-05-3.12284E-05 4.97868E-06-1.17466E-19 1.21861E-18
 -1       406 1.01500E-04-2.99966E-05-3.06375E-05 4.00503E-06-1.19168E-18 1.11872E-18
 -1       407 9.99619E-05-2.96044E-05-3.01469E-05 3.14136E-06 7.67217E-19 1.80535E-18
 -1       408 9.87407E-05-2.93095E-05-2.97508E-05 2.41499E-06 8.78565E-19 1.46473E-18
 -1       409 9.77873E-05-2.90883E-05-2.94380E-05 1.82445E-06-1.07696E-18 7.91324E-20
 -1       410 9.70549E-05-2.89237E-05-2.91955E-05 1.35556E-06-6.87292E-19-3.90496E-20
 -1       411 9.65013E-05-2.88028E-05-2.90108E-05 9.89959E-07-1.06261E-18-3.90921E-20
 -1       412 9.60898E-05-2.87155E-05-2.88725E-05 7.09229E-07 1.41270E-18 1.69035E-18
 -1       413 9.57895E-05-2.86539E-05-2.87708E-05 4.96685E-07 2.41824E-18 2.17039E-18
 -1       414 9.55750E-05-2.86116E-05-2.86974E-05 3.38010E-07 1.45331E-18 1.36846E-18
 -1       415 9.54256E-05-2.85837E-05-2.86456E-05 2.21303E-07-3.25991E-20-1.87792E-18
 -1       416 9.53250E-05-2.85663E-05-2.86102E-05 1.36868E-07-1.11369E-19-1.81832E-18
 -1       417 9.52603E-05-2.85565E-05-2.85869E-05 7.69307E-08-8.13879E-19-4.34279E-19
 -1       418 9.52215E-05-2.85519E-05-2.85723E-05 3.53419E-08-1.15006E-18 5.99327E-19
 -1       419 9.52010E-05-2.85509E-05-2.85641E-05 7.31451E-09-7.56733E-20 1.24835E-18
 -1       420 9.51932E-05-2.85522E-05-2.85603E-05-1.08032E-08 5.82104E-19 2.27414E-18
 -1       421 9.51938E-05-2.85550E-05-2.85594E-05-2.17083E-08 1.22370E-18 1.70857E-18
 -1       422 9.51995E-05-2.85587E-05-2.85603E-05-2.72926E-08-7.03169E-20 2.65838E-18
 -1       423 9.52080E-05-2.85629E-05-2.85622E-05-2.88049E-08-6.41722E-19 4.11238E-18
 -1       424 9.52175E-05-2.85673E-05-2.85644E-05-2.67373E-08-1.44449E-18 4.41168E-18
 -1       425 9.52268E-05-2.85720E-05-2.85664E-05-2.12717E-08 8.27947E-20 3.45538E-18
 -1       426 9.52323E-05-2.85753E-05-2.85673E-05-1.65598E-08-5.60004E-19 3.60561E-18
 -1       427 9.52458E-05-2.85950E-05-2.85646E-05-2.69327E-08-1.05574E-18-2.30059E-19
 -1       428 9.52406E-05-2.85874E-05-2.85657E-05-2.71963E-08 2.68234E-19-3.20769E-18
 -1       429 9.52362E-05-2.85814E-05-2.85664E-05-2.33900E-08 7.02589E-19 1.91182E-18
 -1       430 9.52496E-05-2.86015E-05-2.85635E-05-2.33494E-08-6.34403E-19 1.61006E-18
 -1       431 9.52522E-05-2.86065E-05-2.85624E-05-1.76389E-08-1.73817E-18 3.24683E-18
 -1       432 9.52537E-05-2.86098E-05-2.85616E-05-1.07702E-08-2.23507E-21 2.29632E-18
 -1       433 9.52543E-05-2.86114E-05-2.85612E-05-3.39871E-09-1.13528E-18-9.76829E-19
 -1       434 9.52543E-05-2.86112E-05-2.85612E-05 4.06461E-09-7.22303E-19-5.75588E-20
 -1       435 9.52535E-05-2.86094E-05-2.85617E-05 1.13108E-08-9.98342E-19-2.61811E-18
 -1       436 9.52519E-05-2.86060E-05-2.85625E-05 1.78553E-08-2.23813E-19-3.08253E-18
 -1       437 9.52493E-05-2.86010E-05-2.85635E-05 2.33363E-08 6.89404E-19-5.15523E-19
 -1       438 9.52455E-05-2.85945E-05-2.85647E-05 2.67485E-08 6.37038E-19-1.24912E-18
 -1       439 9.52403E-05-2.85870E-05-2.85658E-05 2.71091E-08-9.61606E-19-3.70995E-19
 -1       440 6.05794E-05-4.31459E-05-7.67512E-06 4.09650E-05 1.92742E-18 4.62051E-18
 -1       441 1.22743E-05-2.13280E-05 3.80068E-06-3.68902E-06 1.69043E-19 5.72414E-18
 -1       442 2.41721E-05-2.66384E-05 1.07490E-06 2.43274E-05 7.16431E-19 5.64675E-18
 -1       443 9.98583E-05-5.53681E-05-1.92039E-05 3.94684E-05 1.87025E-18 2.77652E-18
 -1       444 1.36027E-04-5.61646E-05-3.42538E-05 2.50936E-05 2.57509E-18 1.03179E-18
 -1       445 8.96941E-05-1.15550E-05-3.35580E-05-8.10502E-06-1.69468E-18-3.15231E-18
 -1       446 1.58753E-04-2.75760E-05-5.63266E-05-6.21445E-06 5.46919E-18-1.20141E-18
 -1       447 1.62496E-04-1.44513E-05-6.32277E-05-8.82067E-07 6.48531E-18-6.08421E-19
 -1       448 1.65654E-04-1.91002E-05-6.24418E-05 2.05646E-06 6.01139E-18-1.35552E-18
 -1       449 1.58596E-04-3.28879E-05-5.40127E-05 3.47366E-06 4.22627E-18-4.02341E-19
 -1       450 1.46292E-04-5.41080E-05-3.96804E-05-1.50978E-05 8.22363E-19-3.03121E-18
 -1       451 1.24781E-04-5.92185E-05-2.80685E-05-3.13784E-05-2.39922E-19-2.83867E-18
 -1       452 8.06904E-05-5.02030E-05-1.31799E-05-4.32976E-05-1.21210E-18-3.78806E-18
 -1       453 4.71386E-05-3.72831E-05-4.23813E-06-3.88879E-05-1.39168E-18-4.60627E-18
 -1       454 1.99315E-05-2.27919E-05 1.42481E-06-1.80761E-05-1.04720E-18-5.30783E-18
 -1       455 1.56473E-05-2.47633E-05 3.66689E-06 1.66257E-05-1.55378E-19-4.12272E-18
 -1       456 3.62913E-05-3.31697E-05-1.54808E-06 3.65409E-05-9.68794E-20-4.05157E-18
 -1       457 7.73245E-05-4.77027E-05-1.27430E-05 4.55225E-05-8.81655E-19-1.91331E-18
 -1       458 1.14990E-04-5.52511E-05-2.56183E-05 3.68291E-05-1.69767E-18 3.27166E-19
 -1       459 1.45425E-04-4.58816E-05-4.25712E-05 1.78086E-05-2.95494E-18 9.90711E-19
 -1       460 1.57052E-04-3.24953E-05-5.31977E-05 6.38112E-06-4.17386E-18 1.06334E-18
 -1       461 1.51250E-04-1.41340E-05-5.89465E-05-3.27374E-06-6.35243E-18 2.09254E-18
 -1       462 1.59395E-04-1.29214E-05-6.25628E-05 5.19990E-07-6.78823E-18 1.58459E-18
 -1       463 1.51017E-04-2.14956E-05-5.57200E-05 4.57861E-06-5.24493E-18 9.47618E-19
 -1       464 1.49507E-04-4.26647E-05-4.58086E-05-1.03336E-05-4.11094E-18 7.01237E-19
 -1       465 1.30244E-04-5.12836E-05-3.38085E-05-2.93267E-05-2.47741E-18 4.55799E-18
 -1       466 9.75710E-05-5.22404E-05-1.94871E-05-4.22863E-05 1.90582E-21 5.45013E-18
 -1       467 5.78157E-05-4.13911E-05-7.25341E-06-4.34638E-05 1.75759E-19 6.56398E-18
 -1       468 2.61460E-05-2.72796E-05 4.39230E-07-2.98415E-05 7.33478E-19 6.18027E-18
 -1       469 1.55444E-04-4.69066E-05-4.64787E-05 5.22162E-06 4.88995E-18-1.12984E-18
 -1       470 5.01289E-05-3.23162E-05-7.25167E-06 3.74143E-05-2.31346E-19 4.09376E-18
 -1       471 1.35087E-04-5.72807E-05-3.34238E-05 1.95429E-05-9.66835E-19 2.67091E-18
 -1       472 1.43329E-04-1.66699E-05-5.47332E-05-1.07136E-05 5.40174E-18-1.94164E-18
 -1       473 1.50419E-04-4.83014E-05-4.40349E-05 6.91318E-06 1.63213E-18 9.34171E-19
 -1       474 2.07372E-05-1.45196E-05-2.14188E-06-5.50921E-07 2.49924E-19-4.04839E-18
 -1       475 9.83438E-05-2.53757E-05-3.12563E-05 2.48223E-06 2.42548E-18 1.27223E-18
 -1       476 8.68468E-05-1.09949E-05-3.25237E-05-1.81309E-06-1.61389E-19-3.00566E-18
 -1       477 8.86506E-05-1.26670E-05-3.25825E-05-3.22769E-06-6.83112E-19-3.09622E-18
 -1       478 8.50996E-05-9.41731E-06-3.24487E-05 4.40891E-07 9.46699E-19-2.74355E-18
 -1       479 8.52946E-05-9.56570E-06-3.24690E-05 1.38923E-06 1.45513E-18-2.73623E-18
 -1       480 8.62452E-05-1.03864E-05-3.25263E-05 2.33754E-06 1.82811E-18-2.47054E-18
 -1       481 8.79912E-05-1.19645E-05-3.26011E-05 3.41162E-06 2.36016E-18-1.89792E-18
 -1       482 9.04970E-05-1.43697E-05-3.26475E-05 4.62270E-06 2.69530E-18-1.30146E-18
 -1       483 9.37666E-05-1.77691E-05-3.25901E-05 5.86704E-06 2.90684E-18-4.50542E-19
 -1       484 9.82621E-05-2.67297E-05-3.06358E-05-1.45616E-06 1.87341E-18 9.32195E-19
 -1       485 9.74971E-05-2.46808E-05-3.11949E-05-2.69674E-06-1.72690E-18-1.33959E-18
 -1       486 1.44901E-04-5.82819E-05-3.75773E-05 4.82431E-06 1.31163E-18-2.63189E-18
 -1       487 9.78388E-05-2.66217E-05-3.05184E-05 6.62815E-07-1.32403E-18-1.20897E-18
 -1       488 9.81326E-05-2.77655E-05-3.01527E-05 2.96711E-06-1.06400E-18-1.06196E-18
 -1       489 9.87498E-05-2.87843E-05-2.99838E-05 4.42168E-06-8.74468E-19-9.90806E-19
 -1       490 9.97363E-05-2.98836E-05-2.99376E-05 5.13060E-06-6.97191E-19-1.08068E-18
 -1       491 1.01104E-04-3.11949E-05-2.99638E-05 5.07234E-06-6.95449E-19-9.08620E-19
 -1       492 1.02818E-04-3.27435E-05-3.00365E-05 4.14178E-06-2.97457E-19-1.16438E-18
 -1       493 1.04748E-04-3.43967E-05-3.01566E-05 2.21739E-06-6.69495E-19-1.11606E-18
 -1       494 1.06595E-04-3.57800E-05-3.03560E-05-7.14245E-07-6.13696E-19-6.77787E-19
 -1       495 1.07840E-04-3.62422E-05-3.06904E-05-4.35436E-06-4.19109E-19-4.62771E-19
 -1       496 1.07835E-04-3.50229E-05-3.12065E-05-7.85075E-06-6.38392E-19-4.68669E-19
 -1       497 1.06208E-04-3.17903E-05-3.18918E-05-9.74509E-06-9.80156E-19-6.56869E-19
 -1       498 1.03460E-04-2.73601E-05-3.26112E-05-8.49693E-06-1.40419E-18-6.93431E-19
 -1       499 1.01140E-04-2.38630E-05-3.31227E-05-3.71119E-06-1.86066E-18-7.15203E-19
 -1       500 1.00881E-04-2.34056E-05-3.32063E-05 2.90478E-06-1.58425E-18-9.20893E-19
 -1       501 1.02921E-04-2.63392E-05-3.28241E-05 8.36229E-06-1.03389E-18-1.33963E-18
 -1       502 1.05829E-04-3.07739E-05-3.21669E-05 1.05534E-05-7.91118E-19-1.83394E-18
 -1       503 1.07886E-04-3.44047E-05-3.14922E-05 9.35883E-06-2.84931E-20-2.32033E-18
 -1       504 1.08357E-04-3.61104E-05-3.09677E-05 6.19615E-06 8.52397E-19-2.42763E-18
 -1       505 1.07449E-04-3.60144E-05-3.06216E-05 2.58832E-06 7.53300E-19-2.30782E-18
 -1       506 1.05781E-04-3.48383E-05-3.04103E-05-4.85169E-07 1.15052E-18-1.34536E-18
 -1       507 1.03905E-04-3.32896E-05-3.02685E-05-2.64591E-06 1.01497E-18-1.01894E-18
 -1       508 1.02151E-04-3.18193E-05-3.01454E-05-3.90016E-06-3.40248E-19-2.35050E-18
 -1       509 1.00655E-04-3.06278E-05-3.00134E-05-4.42473E-06 5.37308E-19-2.55590E-18
 -1       510 9.94375E-05-2.97538E-05-2.98649E-05-4.43451E-06 1.18239E-18-1.80870E-18
 -1       511 9.84684E-05-2.91590E-05-2.97037E-05-4.12154E-06 5.09254E-19-1.44976E-18
 -1       512 9.77050E-05-2.87804E-05-2.95383E-05-3.63513E-06 1.24774E-19-6.91060E-19
 -1       513 9.71065E-05-2.85565E-05-2.93776E-05-3.08103E-06-1.29822E-18-5.49086E-19
 -1       514 9.66390E-05-2.84369E-05-2.92285E-05-2.52815E-06 1.66806E-19 8.46543E-19
 -1       515 9.62755E-05-2.83840E-05-2.90954E-05-2.01722E-06 8.66268E-20 1.06051E-18
 -1       516 9.59946E-05-2.83715E-05-2.89805E-05-1.56894E-06-2.66372E-19 1.27824E-18
 -1       517 9.57796E-05-2.83816E-05-2.88842E-05-1.19054E-06 3.77149E-19 1.14656E-18
 -1       518 9.56168E-05-2.84030E-05-2.88054E-05-8.80867E-07 9.79440E-19 1.04052E-18
 -1       519 9.54954E-05-2.84286E-05-2.87425E-05-6.34049E-07 1.74787E-18 2.08198E-18
 -1       520 9.54063E-05-2.84544E-05-2.86933E-05-4.41960E-07 1.15508E-18 2.64056E-18
 -1       521 9.53424E-05-2.84782E-05-2.86558E-05-2.95800E-07-1.22389E-18 2.53226E-18
 -1       522 9.52977E-05-2.84990E-05-2.86278E-05-1.87056E-07 7.61869E-20 1.74162E-18
 -1       523 9.52675E-05-2.85165E-05-2.86074E-05-1.08034E-07-1.85261E-18 2.19844E-18
 -1       524 9.52480E-05-2.85308E-05-2.85930E-05-5.21136E-08-1.72435E-19 3.59947E-18
 -1       525 9.52365E-05-2.85424E-05-2.85831E-05-1.38235E-08-1.57838E-18 2.19282E-18
 -1       526 9.52305E-05-2.85518E-05-2.85765E-05 1.11833E-08-1.15095E-18 3.03739E-18
 -1       527 9.52284E-05-2.85596E-05-2.85724E-05 2.62174E-08 4.22107E-19 3.32123E-18
 -1       528 9.52291E-05-2.85664E-05-2.85697E-05 3.36461E-08 2.01686E-18 2.43773E-18
 -1       529 9.52315E-05-2.85728E-05-2.85680E-05 3.50355E-08 1.46359E-18 2.10958E-18
 -1       530 9.91392E-05-2.80122E-05-3.04756E-05-6.72155E-06 9.77919E-19 1.96141E-19
 -1       531 1.00266E-04-2.86400E-05-3.06927E-05-8.66783E-06 6.19617E-19-1.41240E-19
 -1       532 1.01919E-04-2.95825E-05-3.10004E-05-1.02254E-05 5.98231E-19-4.62103E-19
 -1       533 1.04235E-04-3.11342E-05-3.13330E-05-1.11868E-05 5.41174E-19-5.51401E-19
 -1       534 1.07465E-04-3.36510E-05-3.16451E-05-1.10940E-05 2.50991E-19 7.05205E-20
 -1       535 1.11902E-04-3.73944E-05-3.19491E-05-9.21033E-06-4.24699E-19 4.26297E-19
 -1       536 1.17570E-04-4.20481E-05-3.23917E-05-4.62485E-06-1.01122E-18 6.60443E-19
 -1       537 1.23550E-04-4.58840E-05-3.33263E-05 3.14152E-06-6.37969E-19 1.19722E-18
 -1       538 1.27207E-04-4.50799E-05-3.52784E-05 1.27073E-05-1.46183E-19 2.10748E-18
 -1       539 1.25340E-04-3.63319E-05-3.83545E-05 1.83096E-05 1.43579E-18 2.41323E-18
 -1       540 1.19450E-04-2.36095E-05-4.14603E-05 1.26225E-05 3.19792E-18 2.60457E-18
 -1       541 1.17517E-04-1.94814E-05-4.23809E-05-3.51690E-06 3.36288E-18 8.41468E-19
 -1       542 1.21119E-04-2.78706E-05-4.03304E-05-1.72828E-05 2.83796E-18-6.12248E-19
 -1       543 1.27155E-04-4.05611E-05-3.73274E-05-1.84509E-05 1.32461E-18-2.50217E-18
 -1       544 1.27703E-04-4.65437E-05-3.48311E-05-1.07124E-05-2.72430E-19-2.87893E-18
 -1       545 1.22771E-04-4.52786E-05-3.32543E-05-1.09854E-06 1.27717E-20-2.14187E-18
 -1       546 1.16543E-04-4.07562E-05-3.25161E-05 5.67534E-06-6.68759E-20-1.21926E-18
 -1       547 1.11205E-04-3.62513E-05-3.21463E-05 9.20228E-06 3.72466E-19 3.31567E-20
 -1       548 1.07236E-04-3.29408E-05-3.18522E-05 1.03383E-05-5.55892E-19 3.62611E-19
 -1       549 1.04408E-04-3.08584E-05-3.15240E-05 1.00284E-05-8.91538E-19-2.36036E-19
 -1       550 1.02360E-04-2.96688E-05-3.11510E-05 8.98048E-06-1.01778E-18-4.25693E-19
 -1       551 1.00816E-04-2.90339E-05-3.07590E-05 7.64717E-06 2.55966E-19 4.42293E-20
 -1       552 9.96073E-05-2.87130E-05-3.03777E-05 6.28938E-06-1.83623E-18-5.20257E-19
 -1       553 9.86381E-05-2.85591E-05-3.00285E-05 5.04070E-06-9.29047E-19-7.76868E-19
 -1       554 9.78545E-05-2.84904E-05-2.97228E-05 3.95736E-06 3.37644E-20 6.32837E-19
 -1       555 9.72228E-05-2.84639E-05-2.94643E-05 3.05217E-06 3.91590E-19 1.37866E-18
 -1       556 9.67185E-05-2.84579E-05-2.92515E-05 2.31568E-06-1.46355E-18 7.51209E-19
 -1       557 9.63213E-05-2.84618E-05-2.90802E-05 1.72850E-06-1.36794E-18 1.55648E-18
 -1       558 9.60132E-05-2.84704E-05-2.89451E-05 1.26818E-06-4.59028E-19 6.63664E-19
 -1       559 9.57784E-05-2.84811E-05-2.88403E-05 9.12662E-07 1.97131E-18 2.91723E-19
 -1       560 9.56026E-05-2.84924E-05-2.87605E-05 6.41949E-07 2.55719E-18-4.71776E-19
 -1       561 9.54738E-05-2.85036E-05-2.87007E-05 4.38757E-07 2.45613E-18-2.73868E-19
 -1       562 9.53816E-05-2.85143E-05-2.86569E-05 2.88554E-07-4.28258E-19 6.88383E-19
 -1       563 9.53175E-05-2.85242E-05-2.86253E-05 1.79368E-07-6.55937E-19 1.95304E-18
 -1       564 9.52747E-05-2.85331E-05-2.86033E-05 1.01508E-07-2.01416E-18 2.12663E-18
 -1       565 9.52475E-05-2.85411E-05-2.85883E-05 4.72569E-08-1.17232E-18 2.21144E-18
 -1       566 9.52316E-05-2.85480E-05-2.85786E-05 1.05819E-08 4.79749E-19 2.62441E-18
 -1       567 9.52238E-05-2.85542E-05-2.85726E-05-1.31268E-08 1.78169E-18 3.25956E-18
 -1       568 9.52214E-05-2.85598E-05-2.85692E-05-2.72989E-08 1.37631E-18 1.68163E-18
 -1       569 9.52225E-05-2.85650E-05-2.85675E-05-3.41074E-08-1.79080E-18 8.82025E-19
 -1       570 9.52255E-05-2.85699E-05-2.85667E-05-3.53320E-08-1.64014E-18 1.87321E-18
 -1       571 9.52308E-05-2.85758E-05-2.85664E-05-3.18551E-08-1.69215E-19 2.05096E-18
 -1       572 9.52509E-05-2.85906E-05-2.85687E-05-2.41872E-08-2.59038E-19 4.75513E-20
 -1       573 9.52529E-05-2.85921E-05-2.85689E-05-1.64874E-08-5.62108E-19 3.80643E-18
 -1       574 9.52415E-05-2.85836E-05-2.85677E-05-3.35917E-08 2.63184E-19-3.37800E-18
 -1       575 9.52473E-05-2.85879E-05-2.85683E-05-3.03760E-08-3.02068E-19 1.32712E-18
 -1       576 9.52537E-05-2.85928E-05-2.85689E-05-8.11344E-09-3.30027E-19-2.71175E-19
 -1       577 9.52538E-05-2.85929E-05-2.85690E-05 4.70293E-10-4.72788E-19 6.32073E-19
 -1       578 9.52534E-05-2.85925E-05-2.85689E-05 8.96854E-09-2.12148E-18-8.21897E-19
 -1       579 9.52524E-05-2.85916E-05-2.85689E-05 1.69693E-08-6.05679E-19-1.54249E-18
 -1       580 9.52504E-05-2.85900E-05-2.85687E-05 2.42962E-08-7.33517E-20-2.32929E-18
 -1       581 9.52468E-05-2.85872E-05-2.85684E-05 3.00580E-08-7.04050E-19-1.90805E-18
 -1       582 9.52410E-05-2.85829E-05-2.85678E-05 3.28597E-08-4.27656E-19-7.87356E-19
 -1       583 2.86384E-05-1.37458E-05-5.65753E-06 1.17013E-05-7.82989E-19 5.33663E-18
 -1       584 9.06629E-05-4.98294E-05-1.72000E-05 3.92772E-05-1.32555E-18-8.12887E-20
 -1       585 9.84848E-05-2.74639E-05-3.04253E-05-4.38423E-06 1.56467E-18 5.75818E-19
 -1       586 2.70018E-05-1.53120E-05-4.43019E-06-1.79303E-05 1.35364E-18 4.42183E-18
 -1       587 9.61698E-05-2.09255E-05-3.22670E-05-6.72511E-06-2.21654E-18-1.82628E-18
 -1       588 5.49533E-05-3.24521E-05-9.15671E-06-4.10479E-05 2.02859E-18 6.97468E-18
 -1       589 4.44981E-05-2.52413E-05-7.66706E-06-3.17078E-05-1.59030E-18-4.54608E-18
 -1       590 1.42170E-04-2.15396E-05-5.22233E-05 1.24080E-05 4.59949E-18 1.70640E-18
 -1       591 8.56401E-05-9.90837E-06-3.24706E-05-5.99395E-07 4.95485E-19-2.84941E-18
 -1       592 1.39580E-04-1.27019E-05-5.49949E-05 4.53156E-06 5.54881E-18 7.90493E-19
 -1       593 1.39154E-04-6.23480E-05-3.30414E-05-1.21210E-05-1.69002E-18-1.31364E-18
 -1       594 1.12457E-04-5.94048E-05-2.25732E-05-3.40614E-05-2.35189E-18-2.25595E-18
 -1       595 7.61264E-05-4.27243E-05-1.39031E-05-4.11451E-05-2.16703E-18-3.06581E-18
 -1       596 1.07126E-04-5.60319E-05-2.16277E-05 3.76194E-05 1.03179E-18 1.59322E-18
 -1       597 3.41261E-05-2.12012E-05-4.99010E-06 2.86696E-05 1.23561E-18-4.05919E-18
 -1       598 1.31084E-04-6.94145E-06-5.38215E-05-1.00914E-06-6.24877E-18 2.33076E-19
 -1       599 6.72622E-05-3.86928E-05-1.18023E-05 4.35469E-05 1.57898E-18-1.73276E-18
 -1       600 1.43913E-04-4.19031E-05-4.40902E-05-2.04000E-06-2.03103E-18 2.26772E-18
 -1       601 1.37835E-04-2.41803E-05-4.92662E-05-1.05946E-05-4.32532E-18 2.55200E-18
 -1       602 1.30107E-04-1.16872E-05-5.13919E-05 8.29999E-06-5.64547E-18-5.77597E-19
 -1       603 1.39910E-04-3.49298E-05-4.54369E-05 9.35477E-06-2.86329E-18-8.10663E-19
 -1       604 1.39892E-04-5.46498E-05-3.67338E-05-9.24008E-06-9.46639E-19-1.43996E-20
 -1       605 1.22714E-04-5.95011E-05-2.70105E-05-2.87501E-05 1.64827E-18 2.68374E-18
 -1       606 8.65648E-05-4.83609E-05-1.61032E-05-4.33380E-05 2.06464E-18 4.70392E-18
 -1       607 1.44864E-04-4.08397E-05-4.49108E-05-1.66895E-05 3.45325E-18-3.81366E-18
 -1       608 9.84629E-05-2.36248E-05-3.20753E-05 6.61896E-06 2.89577E-18 1.80211E-18
 -1       609 1.26859E-04-6.28317E-05-2.74046E-05 2.49503E-05-8.10505E-19-1.92766E-18
 -1       610 9.09865E-05-1.49296E-05-3.26172E-05-4.82884E-06-1.25942E-18-2.89315E-18
 -1       611 1.26632E-04-2.33103E-05-4.46594E-05 1.39113E-05-3.07764E-18-8.76494E-19
 -1       612 1.24492E-04-1.34977E-05-4.81144E-05-9.44451E-06-4.72539E-18 8.16460E-19
 -1       613 4.48879E-05-1.93206E-05-1.03859E-05 2.44240E-05-2.00625E-18 4.85233E-18
 -1       614 3.63201E-05-1.55613E-05-8.28839E-06-1.73778E-05-4.21187E-19-3.84913E-18
 -1       615 1.24377E-04-6.03878E-05-2.74453E-05 2.35949E-05 8.76547E-19 2.68509E-18
 -1       616 1.40149E-04-3.49186E-05-4.54937E-05 1.66858E-05 2.27328E-18 2.38032E-18
 -1       617 1.39572E-04-5.39421E-05-3.68750E-05 3.38145E-06-8.28344E-19 2.32471E-18
 -1       618 9.52337E-05-2.85772E-05-2.85671E-05 3.30606E-08 1.22813E-18 2.31837E-18
 -1       619 8.68878E-05-1.26389E-05-3.18254E-05 1.11572E-06 1.42983E-18-2.32382E-18
 -1       620 8.63152E-05-1.21316E-05-3.17972E-05 8.13387E-07 1.04841E-18-2.34251E-18
 -1       621 9.05784E-05-1.61662E-05-3.18961E-05 1.78461E-06 2.16837E-18-1.35881E-18
 -1       622 9.34484E-05-1.91985E-05-3.18283E-05 2.12931E-06 2.40582E-18-7.48827E-19
 -1       623 9.63411E-05-2.32072E-05-3.13335E-05 7.50948E-07 2.33068E-18-2.13276E-20
 -1       624 1.36414E-04-6.12476E-05-3.23230E-05 6.08104E-06-1.22786E-18-3.10377E-18
 -1       625 4.97523E-05-2.09645E-05-1.18542E-05-2.94491E-05 4.56948E-19 6.03717E-18
 -1       626 1.24870E-04-1.46575E-05-4.78520E-05-4.78291E-06 3.78708E-18 1.98735E-19
 -1       627 9.67141E-05-2.53836E-05-3.05639E-05 1.95806E-06-9.96969E-19-1.53608E-18
 -1       628 9.73062E-05-2.69513E-05-3.01512E-05 4.12135E-06-9.05004E-19-1.24177E-18
 -1       629 9.81268E-05-2.84326E-05-2.98688E-05 5.60213E-06-7.24601E-19-9.64137E-19
 -1       630 9.93630E-05-3.01030E-05-2.96834E-05 6.39274E-06-7.01174E-19-8.96940E-19
 -1       631 1.01171E-04-3.21491E-05-2.95821E-05 6.40035E-06-4.89783E-19-9.50598E-19
 -1       632 1.03631E-04-3.46034E-05-2.95860E-05 5.43802E-06-3.09117E-19-4.68719E-19
 -1       633 1.06653E-04-3.72230E-05-2.97583E-05 3.26430E-06-2.86564E-19 2.26940E-20
 -1       634 1.09800E-04-3.93153E-05-3.02097E-05-2.71724E-07-4.34447E-19 2.83450E-19
 -1       635 1.12145E-04-3.96590E-05-3.10720E-05-4.89076E-06-6.87166E-19 1.34773E-19
 -1       636 1.12467E-04-3.68902E-05-3.23992E-05-9.34398E-06-7.84445E-19 1.83372E-19
 -1       637 1.10082E-04-3.06673E-05-3.40554E-05-1.12852E-05-9.96741E-19 6.10221E-19
 -1       638 1.06262E-04-2.33533E-05-3.55667E-05-8.25728E-06-2.04152E-18 5.40414E-20
 -1       639 1.03805E-04-1.91890E-05-3.63311E-05-7.09657E-07-2.32337E-18-8.39057E-19
 -1       640 1.05723E-04-2.22966E-05-3.57739E-05 7.73129E-06-2.08640E-18-1.53682E-18
 -1       641 1.09133E-04-2.88576E-05-3.44008E-05 1.18005E-05-1.05911E-18-2.03961E-18
 -1       642 1.12154E-04-3.55702E-05-3.28302E-05 1.09884E-05-3.65194E-19-1.53339E-18
 -1       643 1.12426E-04-3.91273E-05-3.14218E-05 6.99403E-06-8.40188E-21-1.93045E-18
 -1       644 1.10459E-04-3.94122E-05-3.04526E-05 2.34896E-06 9.13731E-19-2.68171E-18
 -1       645 1.07397E-04-3.76435E-05-2.98975E-05-1.42966E-06 1.52002E-18-2.03964E-18
 -1       646 1.04274E-04-3.51499E-05-2.96266E-05-3.91621E-06 1.62980E-18-2.21154E-18
 -1       647 1.01627E-04-3.27690E-05-2.95117E-05-5.24281E-06-3.58920E-19-2.63796E-18
 -1       648 9.96099E-05-3.08686E-05-2.94612E-05-5.71091E-06 1.05558E-19-1.35587E-18
 -1       649 9.81692E-05-2.95162E-05-2.94229E-05-5.61142E-06 1.39662E-18-7.90962E-19
 -1       650 9.71825E-05-2.86428E-05-2.93741E-05-5.17176E-06 1.08894E-18-1.41043E-18
 -1       651 9.65245E-05-2.81362E-05-2.93090E-05-4.55603E-06 2.52864E-19-1.13989E-18
 -1       652 9.60925E-05-2.78867E-05-2.92307E-05-3.87601E-06-5.41576E-19-8.65566E-19
 -1       653 9.58105E-05-2.78045E-05-2.91451E-05-3.20368E-06 3.93930E-19 5.01252E-20
 -1       654 9.56261E-05-2.78228E-05-2.90582E-05-2.58195E-06 6.35794E-19-1.07935E-19
 -1       655 9.55045E-05-2.78954E-05-2.89751E-05-2.03323E-06 7.89393E-20 6.55257E-19
 -1       656 9.54232E-05-2.79917E-05-2.88990E-05-1.56586E-06-6.73467E-19 3.51074E-19
 -1       657 9.53678E-05-2.80931E-05-2.88318E-05-1.17912E-06 4.25050E-19 5.52726E-19
 -1       658 9.53294E-05-2.81887E-05-2.87745E-05-8.66958E-07 1.46780E-18 7.39784E-19
 -1       659 9.53024E-05-2.82733E-05-2.87266E-05-6.20583E-07 9.25258E-19-2.68940E-19
 -1       660 9.52831E-05-2.83449E-05-2.86877E-05-4.30215E-07-3.34858E-19-4.68551E-19
 -1       661 9.52693E-05-2.84033E-05-2.86568E-05-2.86149E-07-3.12340E-19 5.09924E-19
 -1       662 9.52593E-05-2.84497E-05-2.86326E-05-1.79421E-07-4.44987E-19-4.39030E-19
 -1       663 9.52521E-05-2.84858E-05-2.86141E-05-1.02154E-07-1.81346E-18-1.31540E-19
 -1       664 9.52470E-05-2.85132E-05-2.86002E-05-4.76960E-08-1.43865E-18-8.62863E-19
 -1       665 9.52435E-05-2.85338E-05-2.85899E-05-1.06297E-08-1.22836E-19 8.11098E-19
 -1       666 9.52413E-05-2.85493E-05-2.85823E-05 1.33002E-08-5.58285E-19 2.51551E-18
 -1       667 9.52401E-05-2.85613E-05-2.85766E-05 2.73350E-08-1.35629E-19 2.88609E-18
 -1       668 9.52399E-05-2.85712E-05-2.85723E-05 3.36641E-08 1.84897E-18 1.48352E-18
 -1       669 9.71502E-05-2.67863E-05-3.01545E-05-1.05621E-05 8.91261E-19-5.19900E-19
 -1       670 9.52408E-05-2.85752E-05-2.85710E-05-3.54529E-08-2.35947E-19-1.42771E-18
 -1       671 9.67451E-05-2.61146E-05-3.02682E-05-8.34990E-06 1.01556E-18-4.27002E-19
 -1       672 9.99440E-05-3.02190E-05-2.98830E-05-1.39218E-05 1.21620E-19-7.35716E-19
 -1       673 1.03489E-04-3.41825E-05-2.97036E-05-1.45376E-05-3.64269E-19-7.43623E-19
 -1       674 1.09634E-04-4.03751E-05-2.96703E-05-1.35152E-05-8.43868E-19-2.10016E-19
 -1       675 1.18858E-04-4.81264E-05-3.02888E-05-9.33620E-06-1.66869E-18-4.26246E-20
 -1       676 1.29844E-04-5.39196E-05-3.25531E-05-5.06263E-07-1.48513E-18 1.00727E-18
 -1       677 1.19612E-04-5.42330E-05-2.78606E-05 1.60304E-05-1.80227E-18-1.84755E-18
 -1       678 1.06431E-04-4.31657E-05-2.70241E-05 1.87445E-05-8.09002E-19-1.47111E-18
 -1       679 9.85660E-05-3.45238E-05-2.74280E-05 1.76529E-05-5.53682E-19-1.33798E-18
 -1       680 9.46767E-05-2.91680E-05-2.80725E-05 1.54916E-05-4.09806E-19-3.14190E-19
 -1       681 9.31878E-05-2.63843E-05-2.86319E-05 1.32317E-05-1.77626E-18 8.01108E-20
 -1       682 9.29174E-05-2.52210E-05-2.90151E-05 1.11482E-05-1.46724E-18 1.27393E-19
 -1       683 9.31797E-05-2.49795E-05-2.92305E-05 9.28944E-06-6.97372E-19-1.79916E-19
 -1       684 9.36108E-05-2.52061E-05-2.93176E-05 7.64988E-06-6.67664E-19 9.47420E-19
 -1       685 9.40395E-05-2.56323E-05-2.93183E-05 6.21864E-06 1.13107E-19 3.43664E-19
 -1       686 9.43993E-05-2.61115E-05-2.92670E-05 4.98605E-06-1.25927E-18-7.85514E-20
 -1       687 9.46755E-05-2.65702E-05-2.91885E-05 3.94115E-06-1.34924E-18 4.85974E-19
 -1       688 9.48756E-05-2.69768E-05-2.90999E-05 3.06985E-06-9.21899E-19 1.74787E-18
 -1       689 9.50147E-05-2.73215E-05-2.90117E-05 2.35515E-06-4.17875E-19-1.39146E-19
 -1       690 9.51080E-05-2.76054E-05-2.89299E-05 1.77818E-06-1.87553E-19-1.82149E-18
 -1       691 9.51684E-05-2.78345E-05-2.88576E-05 1.31937E-06 1.43232E-18-2.46923E-18
 -1       692 9.52064E-05-2.80165E-05-2.87958E-05 9.59901E-07 1.46586E-18-1.87192E-18
 -1       693 9.52292E-05-2.81593E-05-2.87443E-05 6.82472E-07 1.39216E-18-2.57640E-19
 -1       694 9.52421E-05-2.82700E-05-2.87024E-05 4.71651E-07-1.05759E-18 2.43283E-19
 -1       695 9.52488E-05-2.83547E-05-2.86689E-05 3.14024E-07-1.95766E-18 1.18513E-18
 -1       696 9.52514E-05-2.84187E-05-2.86426E-05 1.98221E-07-8.13187E-19 7.56377E-19
 -1       697 9.52517E-05-2.84665E-05-2.86223E-05 1.14815E-07-8.28323E-20 1.22458E-19
 -1       698 9.52507E-05-2.85016E-05-2.86067E-05 5.61563E-08-1.33599E-18-6.23589E-19
 -1       699 9.52490E-05-2.85273E-05-2.85950E-05 1.61856E-08 1.25711E-19 6.39180E-19
 -1       700 9.52471E-05-2.85461E-05-2.85861E-05-9.77311E-09 1.95434E-18 2.11607E-18
 -1       701 9.52454E-05-2.85604E-05-2.85793E-05-2.55005E-08 1.56329E-19 1.00404E-18
 -1       702 1.16228E-04-5.69484E-05-2.51457E-05 2.55877E-05-1.97142E-18-3.24450E-18
 -1       703 9.52536E-05-2.85747E-05-2.85767E-05-3.50129E-09 1.34684E-18 3.47817E-19
 -1       704 1.35156E-04-4.73417E-05-3.79043E-05 5.07855E-06-1.14330E-18-2.08007E-18
 -1       705 9.52525E-05-2.85768E-05-2.85753E-05-1.99694E-08-2.32436E-19 1.58985E-18
 -1       706 9.52534E-05-2.85745E-05-2.85767E-05 4.68589E-09-1.03457E-18-2.78766E-18
 -1       707 9.52535E-05-2.85756E-05-2.85762E-05-1.17794E-08-2.80553E-19 3.70900E-18
 -1       708 9.52530E-05-2.85751E-05-2.85762E-05 1.26287E-08-1.22628E-18-2.81087E-19
 -1       709 9.52518E-05-2.85761E-05-2.85753E-05 2.04639E-08-1.62137E-18-2.95220E-18
 -1       710 9.52490E-05-2.85768E-05-2.85738E-05 2.75597E-08-8.07913E-19-1.26634E-19
 -1       711 7.31856E-05-3.53741E-05-1.58680E-05 3.53578E-05-2.52747E-18 1.14416E-18
 -1       712 9.54194E-05-2.17750E-05-3.15592E-05-2.52467E-06-1.42978E-18-2.01687E-18
 -1       713 9.09798E-05-4.50932E-05-1.93460E-05 3.73126E-05 1.84235E-18 6.93627E-19
 -1       714 9.65983E-05-2.55404E-05-3.04499E-05-5.81836E-06 1.54789E-18-3.10073E-20
 -1       715 9.80683E-05-2.79729E-05-3.00405E-05-1.24663E-05 5.81274E-19-6.98597E-19
 -1       716 8.83317E-05-1.39786E-05-3.18705E-05 1.41960E-06 1.85078E-18-1.81542E-18
 -1       717 9.65274E-05-2.47051E-05-3.07755E-05-2.85094E-06 1.88124E-18-1.00166E-19
 -1       718 1.01845E-04-5.00213E-05-2.19497E-05-3.22812E-05-2.26303E-18-1.52739E-18
 -1       719 5.75883E-05-2.61554E-05-1.29683E-05 3.40845E-05 1.63726E-18-2.67969E-18
 -1       720 6.84023E-05-3.08890E-05-1.56642E-05-3.31612E-05-1.49009E-18-3.19887E-18
 -1       721 3.57896E-05-1.26186E-05-9.34714E-06 1.24099E-05 6.08183E-19-3.43520E-18
 -1       722 8.93698E-05-1.50388E-05-3.18617E-05-9.21241E-07-3.37654E-19-2.53971E-18
 -1       723 9.52402E-05-2.85772E-05-2.85699E-05 3.44477E-08 1.67376E-18 8.01215E-19
 -1       724 1.33568E-04-3.66080E-05-4.19411E-05-1.11793E-05-2.15927E-18 2.72035E-18
 -1       725 1.28029E-04-1.84520E-05-4.75585E-05 1.05494E-05 4.39637E-18 1.66142E-18
 -1       726 1.39629E-04-5.37661E-05-3.70025E-05 8.36574E-06-5.55786E-19 2.11914E-18
 -1       727 3.70793E-05-1.10981E-05-1.05911E-05-5.01175E-06 1.75534E-19 3.96157E-18
 -1       728 1.15932E-04-9.17162E-06-4.62210E-05 3.42491E-06-5.22037E-18-1.17824E-19
 -1       729 1.30652E-04-5.80086E-05-3.11879E-05-1.18737E-05 1.32616E-18 2.89990E-19
 -1       730 7.85878E-05-3.85512E-05-1.67982E-05-3.83809E-05 1.84261E-18 4.93397E-18
 -1       731 1.25906E-04-6.00824E-05-2.82128E-05-1.81865E-05-2.57446E-18-1.09447E-18
 -1       732 1.09372E-04-5.49664E-05-2.31504E-05-3.22394E-05 2.09079E-18 3.03421E-18
 -1       733 9.15553E-05-1.72308E-05-3.18636E-05-1.82794E-06-8.77973E-19-2.56608E-18
 -1       734 8.66056E-05-1.24147E-05-3.18006E-05 4.15806E-07 6.19375E-19-2.50440E-18
 -1       735 1.28242E-04-3.71943E-05-3.93062E-05 1.31215E-05-1.03020E-18-1.78949E-18
 -1       736 1.14971E-04-1.67236E-05-4.24079E-05 1.08057E-05-3.58557E-18-1.85344E-18
 -1       737 9.52498E-05-2.85775E-05-2.85738E-05-2.71527E-08-8.03805E-19 1.34574E-18
 -1       738 4.34453E-05-1.24573E-05-1.28504E-05 8.66609E-06-1.07641E-18 3.60722E-18
 -1       739 1.23337E-04-2.43250E-05-4.27988E-05-1.34377E-05-2.53708E-18 1.83387E-18
 -1       740 9.52455E-05-2.85738E-05-2.85736E-05 3.12435E-08 6.07982E-19-1.22525E-18
 -1       741 1.08153E-04-5.28912E-05-2.35724E-05 2.99697E-05 1.53133E-18 1.75974E-18
 -1       742 5.70710E-05-2.09341E-05-1.50873E-05-2.46663E-05-7.87238E-19-3.24546E-18
 -1       743 8.76674E-05-1.34094E-05-3.18296E-05-1.51752E-07 2.67129E-19-2.26796E-18
 -1       744 5.37579E-05-1.51843E-05-1.62411E-05-1.60729E-05-1.22076E-18 4.05512E-18
 -1       745 9.26216E-05-1.97622E-05-3.12262E-05-6.93879E-07 1.95395E-18-8.91496E-19
 -1       746 9.78849E-05-4.58890E-05-2.21653E-05-3.08727E-05 1.95457E-18 2.68847E-18
 -1       747 9.60009E-05-2.61762E-05-2.99250E-05 5.34370E-06-6.98318E-19-1.30631E-18
 -1       748 9.69859E-05-2.80789E-05-2.95317E-05 6.92287E-06-6.14965E-19-9.44930E-19
 -1       749 9.85269E-05-3.03519E-05-2.92180E-05 7.97608E-06-5.93060E-19-6.70751E-19
 -1       750 1.00923E-04-3.32400E-05-2.90074E-05 8.34878E-06-1.17032E-19-5.07537E-19
 -1       751 1.04399E-04-3.67916E-05-2.89766E-05 7.72437E-06 1.33720E-19-1.74930E-19
 -1       752 1.08943E-04-4.06489E-05-2.92678E-05 5.60710E-06-1.42572E-19 2.69299E-19
 -1       753 1.13942E-04-4.36587E-05-3.01198E-05 1.47232E-06-2.65199E-19 6.77688E-19
 -1       754 1.17885E-04-4.36466E-05-3.18333E-05-4.68802E-06-4.43650E-19 1.50870E-18
 -1       755 1.18431E-04-3.82619E-05-3.44276E-05-1.07572E-05-3.58544E-19 1.39528E-18
 -1       756 1.14607E-04-2.72747E-05-3.75612E-05-1.25911E-05-1.78823E-18 1.32846E-18
 -1       757 1.09113E-04-1.63863E-05-4.00375E-05-6.82096E-06-3.66527E-18 1.21738E-18
 -1       758 1.17410E-04-3.57046E-05-3.51433E-05 1.29916E-05-4.30988E-19-2.28306E-18
 -1       759 1.18078E-04-4.25041E-05-3.24002E-05 7.32162E-06-1.99283E-19-2.02509E-18
 -1       760 1.14707E-04-4.36711E-05-3.04485E-05 8.99156E-07 3.02419E-19-1.83411E-18
 -1       761 1.09685E-04-4.11141E-05-2.93898E-05-3.70379E-06 1.35898E-18-1.63941E-18
 -1       762 1.04920E-04-3.74443E-05-2.89186E-05-6.27468E-06 1.68501E-18-2.11691E-18
 -1       763 1.01100E-04-3.39311E-05-2.87867E-05-7.30079E-06 7.88087E-19-1.44726E-18
 -1       764 9.84141E-05-3.11865E-05-2.88119E-05-7.36828E-06 5.51384E-19-1.96266E-19
 -1       765 9.66674E-05-2.92664E-05-2.88861E-05-6.90468E-06 8.48141E-19 1.27039E-19
 -1       766 9.56216E-05-2.80562E-05-2.89565E-05-6.17563E-06 6.05263E-19-7.91572E-19
 -1       767 9.50544E-05-2.73845E-05-2.90013E-05-5.34323E-06 4.92308E-19-1.67411E-18
 -1       768 9.47926E-05-2.70880E-05-2.90161E-05-4.50289E-06 3.45137E-19-1.62395E-18
 -1       769 9.47129E-05-2.70342E-05-2.90050E-05-3.70988E-06-7.35430E-19-1.56256E-18
 -1       770 9.47328E-05-2.71243E-05-2.89750E-05-2.99427E-06 1.13385E-19-2.19637E-18
 -1       771 9.48004E-05-2.72896E-05-2.89331E-05-2.36996E-06 7.91162E-19-2.76533E-18
 -1       772 9.48843E-05-2.74844E-05-2.88856E-05-1.84025E-06-5.43368E-19-1.89283E-18
 -1       773 9.49671E-05-2.76802E-05-2.88372E-05-1.40133E-06 2.45310E-19-3.53964E-19
 -1       774 9.50403E-05-2.78611E-05-2.87911E-05-1.04521E-06 1.73420E-19-8.21192E-19
 -1       775 9.51007E-05-2.80194E-05-2.87491E-05-7.61943E-07 5.69764E-19-1.17735E-18
 -1       776 9.51480E-05-2.81524E-05-2.87124E-05-5.40898E-07-7.48818E-20-5.84475E-19
 -1       777 9.51833E-05-2.82608E-05-2.86811E-05-3.71635E-07-4.25891E-20-1.27495E-18
 -1       778 9.52085E-05-2.83466E-05-2.86551E-05-2.44489E-07-1.93550E-18-2.61428E-18
 -1       779 9.52256E-05-2.84130E-05-2.86339E-05-1.50909E-07-1.21353E-18-3.04169E-18
 -1       780 9.52364E-05-2.84633E-05-2.86170E-05-8.35886E-08-7.65612E-19-1.99619E-18
 -1       781 9.52426E-05-2.85008E-05-2.86036E-05-3.64833E-08-8.48805E-19-5.46726E-19
 -1       782 9.52456E-05-2.85283E-05-2.85931E-05-4.74704E-09-3.99264E-19-3.96210E-19
 -1       783 9.52467E-05-2.85487E-05-2.85848E-05 1.52896E-08-2.33362E-19-6.90249E-20
 -1       784 9.52461E-05-2.85627E-05-2.85786E-05 2.59848E-08-1.00087E-18-3.56813E-19
 -1       785 9.31827E-05-2.38846E-05-2.96985E-05-9.19023E-06 1.00612E-18-3.51553E-19
 -1       786 1.14202E-04-5.13709E-05-2.68577E-05-2.04961E-05-2.30050E-18-8.09301E-19
 -1       787 9.72510E-05-3.39104E-05-2.71286E-05-1.90109E-05-7.30286E-19-1.22595E-18
 -1       788 9.38710E-05-2.86908E-05-2.79311E-05-1.64837E-05-4.30537E-20-7.21322E-19
 -1       789 9.46585E-05-2.22942E-05-3.10124E-05-1.74985E-06 1.95292E-18-4.87759E-19
 -1       790 9.52484E-05-2.85700E-05-2.85764E-05-2.87670E-08 5.69360E-19-1.13729E-18
 -1       791 8.53151E-05-2.59102E-05-2.54261E-05 1.74509E-05-8.35420E-19-6.08580E-19
 -1       792 8.56772E-05-2.33244E-05-2.67117E-05 1.36543E-05-1.46686E-18-2.22746E-19
 -1       793 8.69346E-05-2.24460E-05-2.76343E-05 1.09668E-05-1.83784E-18 3.12809E-19
 -1       794 8.84241E-05-2.25090E-05-2.82479E-05 8.96764E-06-1.29685E-18 6.64356E-19
 -1       795 8.98491E-05-2.30433E-05-2.86303E-05 7.38360E-06-1.49663E-18 1.72405E-18
 -1       796 9.10880E-05-2.37726E-05-2.88490E-05 6.06646E-06-5.74743E-19 2.39533E-18
 -1       797 9.21076E-05-2.45416E-05-2.89566E-05 4.94382E-06-1.54181E-19 3.10614E-18
 -1       798 9.29174E-05-2.52685E-05-2.89922E-05 3.98221E-06-8.70504E-19 1.29993E-18
 -1       799 9.35444E-05-2.59154E-05-2.89838E-05 3.16390E-06-1.02756E-18-6.66630E-19
 -1       800 9.40208E-05-2.64697E-05-2.89504E-05 2.47637E-06-1.58375E-19-5.37671E-19
 -1       801 9.43772E-05-2.69321E-05-2.89049E-05 1.90772E-06 9.23339E-19-1.97217E-18
 -1       802 9.46402E-05-2.73100E-05-2.88557E-05 1.44484E-06-3.25561E-19-1.40569E-18
 -1       803 9.48319E-05-2.76137E-05-2.88077E-05 1.07395E-06 1.11973E-18-2.08902E-19
 -1       804 9.49700E-05-2.78546E-05-2.87637E-05 7.81643E-07 7.21415E-19-3.07233E-19
 -1       805 9.50679E-05-2.80431E-05-2.87249E-05 5.55089E-07-3.98656E-19 8.12570E-19
 -1       806 9.51360E-05-2.81887E-05-2.86917E-05 3.82415E-07-2.04267E-18 8.09132E-19
 -1       807 9.51822E-05-2.82994E-05-2.86640E-05 2.53075E-07-6.82217E-19 7.26526E-19
 -1       808 9.52125E-05-2.83826E-05-2.86414E-05 1.57999E-07-3.49668E-19 1.16356E-18
 -1       809 9.52314E-05-2.84441E-05-2.86231E-05 8.95851E-08 1.43497E-19 1.06165E-18
 -1       810 9.52423E-05-2.84890E-05-2.86085E-05 4.16049E-08-1.20220E-18-2.57431E-19
 -1       811 9.52478E-05-2.85216E-05-2.85970E-05 9.11521E-09-2.83705E-19-3.12354E-19
 -1       812 9.52498E-05-2.85451E-05-2.85877E-05-1.19787E-08 1.68883E-18 6.86971E-19
 -1       813 9.52518E-05-2.85548E-05-2.85844E-05 6.95320E-09-1.32500E-18-1.22765E-18
 -1       814 9.52519E-05-2.85539E-05-2.85849E-05 6.98846E-10-1.29550E-18-3.15063E-18
 -1       815 1.28162E-04-5.11382E-05-3.30966E-05 1.22156E-06 1.85484E-19-1.93131E-18
 -1       816 6.35823E-05-2.28706E-05-1.71591E-05 2.51926E-05-3.04053E-18 2.09658E-18
 -1       817 9.52517E-05-2.85577E-05-2.85831E-05 1.34171E-08-1.74253E-18-1.54292E-18
 -1       818 9.52506E-05-2.85618E-05-2.85809E-05 2.02800E-08-5.05391E-19-9.31500E-19
 -1       819 9.37033E-05-2.33871E-05-3.01354E-05-6.70531E-06 1.40242E-18-8.92970E-20
 -1       820 8.86068E-05-3.77936E-05-2.16155E-05-2.92896E-05-1.71307E-18-1.48748E-18
 -1       821 8.71410E-05-3.15259E-05-2.37627E-05 2.27686E-05-1.19866E-18-8.43046E-19
 -1       822 4.69009E-05-1.19404E-05-1.46328E-05-5.39722E-06 3.75480E-19-3.00551E-18
 -1       823 1.31112E-04-4.84331E-05-3.55930E-05-4.77445E-06-2.88711E-19 2.41977E-18
 -1       824 9.76452E-05-4.28367E-05-2.33001E-05 2.70876E-05-1.97126E-18-2.72373E-18
 -1       825 6.80908E-05-2.58431E-05-1.78832E-05-2.83042E-05 2.65393E-19 4.12289E-18
 -1       826 1.03499E-04-4.13630E-05-2.66009E-05-2.07194E-05-1.20341E-18-8.29030E-19
 -1       827 7.73593E-05-3.25390E-05-1.89692E-05 3.16178E-05 2.09531E-18-4.30002E-19
 -1       828 1.19370E-04-5.53397E-05-2.74168E-05-1.87161E-05 2.22432E-18 4.82978E-19
 -1       829 9.52635E-05-2.43104E-05-3.04077E-05 3.28193E-06-6.55911E-19-1.62052E-18
 -1       830 9.37397E-05-2.12726E-05-3.10569E-05 7.63991E-07-7.82956E-19-2.01741E-18
 -1       831 1.26955E-04-5.64724E-05-3.01904E-05 1.07528E-05 6.90468E-19 2.01109E-18
 -1       832 8.71039E-05-1.44683E-05-3.11307E-05 5.66034E-07 1.10867E-18-2.10434E-18
 -1       833 5.63088E-05-1.70563E-05-1.65064E-05 1.93729E-05 1.56972E-18-2.41353E-18
 -1       834 8.70870E-05-1.44695E-05-3.11224E-05 9.35947E-07 8.36876E-19-2.11879E-18
 -1       835 9.00110E-05-1.71683E-05-3.12192E-05-3.38386E-07 1.66884E-18-1.39434E-18
 -1       836 8.81003E-05-1.53706E-05-3.11713E-05 1.01718E-07 1.35270E-18-1.67022E-18
 -1       837 9.13910E-05-1.88714E-05-3.10796E-05 1.11982E-06-3.40231E-19-1.92301E-18
 -1       838 9.23972E-05-4.14932E-05-2.16899E-05 3.07905E-05 1.83934E-18 1.35132E-18
 -1       839 9.27416E-05-2.58916E-05-2.86491E-05-1.39531E-05 5.00314E-19-5.05360E-19
 -1       840 5.22845E-05-1.24761E-05-1.68115E-05-5.69265E-06-1.39314E-18 3.50564E-18
 -1       841 7.67099E-05-2.87596E-05-2.03481E-05-2.66783E-05-1.33629E-18-2.12063E-18
 -1       842 9.52527E-05-2.85586E-05-2.85832E-05-1.24978E-08 1.36824E-18 3.66073E-18
 -1       843 9.27374E-05-2.45414E-05-2.92262E-05-1.15583E-05 7.79811E-19-3.46985E-19
 -1       844 9.52523E-05-2.85553E-05-2.85845E-05-5.61004E-09-8.37607E-19 7.65833E-19
 -1       845 8.47463E-05-3.43400E-05-2.15034E-05-2.78580E-05 9.87594E-19 3.71285E-18
 -1       846 9.43330E-05-2.30349E-05-3.05552E-05-4.39351E-06 1.63313E-18-2.98274E-19
 -1       847 9.52487E-05-2.85619E-05-2.85800E-05 2.31792E-08-5.86302E-19 7.00055E-19
 -1       848 8.93470E-05-1.69085E-05-3.10460E-05 1.33355E-06 1.69714E-19-1.79164E-18
 -1       849 1.25752E-04-3.79358E-05-3.77966E-05-1.19508E-05-1.03558E-18 2.30724E-18
 -1       850 9.52471E-05-2.85290E-05-2.85934E-05 2.14763E-09-7.66690E-19-2.85418E-18
 -1       851 9.51892E-05-2.75557E-05-2.89855E-05 8.40758E-06-2.68264E-19-8.29902E-19
 -1       852 9.68879E-05-3.03435E-05-2.85187E-05 1.00281E-05-9.59485E-20-2.64969E-19
 -1       853 9.98105E-05-3.40865E-05-2.81647E-05 1.12206E-05 9.20069E-20 4.95529E-20
 -1       854 1.04341E-04-3.88508E-05-2.80717E-05 1.14865E-05 2.75458E-19-2.00601E-19
 -1       855 1.11130E-04-4.45932E-05-2.85240E-05 9.91736E-06 2.30815E-19 3.26507E-19
 -1       856 1.18642E-04-4.88696E-05-2.99210E-05 5.17142E-06 3.42923E-19 1.30103E-18
 -1       857 6.94301E-05-1.95798E-05-2.12865E-05 1.67545E-05-1.16300E-18 2.06212E-18
 -1       858 1.20202E-04-4.90176E-05-3.05095E-05-2.60629E-06 2.14240E-19-1.26709E-18
 -1       859 1.12308E-04-4.53326E-05-2.86902E-05-8.10303E-06 1.32144E-18-5.24389E-19
 -1       860 1.05038E-04-3.97937E-05-2.79851E-05-1.02891E-05 1.01251E-18-7.77748E-20
 -1       861 9.98489E-05-3.48715E-05-2.78429E-05-1.04612E-05 1.88200E-18-6.57062E-19
 -1       862 9.65421E-05-3.12318E-05-2.79892E-05-9.64255E-06 1.00819E-18-5.46854E-19
 -1       863 9.45850E-05-2.87523E-05-2.82137E-05-8.45029E-06 6.28465E-19-1.19361E-18
 -1       864 9.35805E-05-2.72397E-05-2.84316E-05-7.19589E-06 2.53876E-19-8.13138E-19
 -1       865 9.31865E-05-2.64355E-05-2.86074E-05-6.01228E-06-6.20555E-20-6.13754E-19
 -1       866 9.31586E-05-2.61168E-05-2.87321E-05-4.94677E-06-1.47361E-19-5.56041E-19
 -1       867 9.33319E-05-2.61105E-05-2.88092E-05-4.01344E-06-2.17267E-19-2.19076E-18
 -1       868 9.35982E-05-2.62879E-05-2.88472E-05-3.21149E-06 5.11222E-20-2.45218E-18
 -1       869 9.38913E-05-2.65600E-05-2.88563E-05-2.53320E-06 1.11447E-19-3.08979E-18
 -1       870 9.41730E-05-2.68672E-05-2.88453E-05-1.96862E-06 1.06774E-18-3.35050E-18
 -1       871 9.44232E-05-2.71716E-05-2.88221E-05-1.50600E-06 1.14142E-18-2.19086E-18
 -1       872 9.46340E-05-2.74514E-05-2.87925E-05-1.13229E-06-3.54345E-19-1.03294E-18
 -1       873 9.48047E-05-2.76963E-05-2.87607E-05-8.34960E-07 6.31156E-19-1.49500E-18
 -1       874 9.49383E-05-2.79030E-05-2.87294E-05-6.02173E-07 3.04812E-19-2.03047E-18
 -1       875 9.50395E-05-2.80720E-05-2.87004E-05-4.22842E-07-1.24160E-18-2.17580E-18
 -1       876 9.51138E-05-2.82068E-05-2.86744E-05-2.86968E-07-1.54449E-18-3.36523E-18
 -1       877 9.51665E-05-2.83117E-05-2.86521E-05-1.85834E-07-1.08544E-18-1.08293E-18
 -1       878 9.52023E-05-2.83916E-05-2.86332E-05-1.12037E-07 8.71623E-19 1.29313E-18
 -1       879 9.52254E-05-2.84513E-05-2.86175E-05-5.94010E-08 1.04668E-19 2.14269E-18
 -1       880 9.52392E-05-2.84953E-05-2.86046E-05-2.29825E-08-8.17541E-19 2.37543E-18
 -1       881 9.52466E-05-2.85275E-05-2.85939E-05 1.18769E-09-3.26446E-20 1.64014E-18
 -1       882 1.08908E-04-4.84215E-05-2.58629E-05-2.07708E-05 1.81051E-18 1.04935E-18
 -1       883 9.42103E-05-2.53551E-05-2.95095E-05 6.55672E-06-4.62870E-19-9.64647E-19
 -1       884 7.28984E-05-2.44853E-05-2.06382E-05 2.24813E-05 1.97177E-18-8.10134E-19
 -1       885 5.96703E-05-1.35630E-05-1.96252E-05 3.83614E-06 8.78434E-19-2.02140E-18
 -1       886 8.32918E-05-1.99998E-05-2.71257E-05 7.35934E-06-1.76286E-18 3.56739E-19
 -1       887 6.80530E-05-2.05721E-05-2.02296E-05-1.91759E-05-2.15299E-19 2.67741E-18
 -1       888 8.01493E-05-1.93562E-05-2.60547E-05 9.19124E-06-1.92923E-18 9.17960E-19
 -1       889 7.64897E-05-1.93729E-05-2.44691E-05 1.20556E-05-7.73218E-19 1.34965E-18
 -1       890 8.58669E-05-2.09223E-05-2.78336E-05 6.07856E-06-1.85660E-18 6.13553E-19
 -1       891 8.79655E-05-2.19551E-05-2.82901E-05 5.07881E-06-1.99291E-18 1.21142E-18
 -1       892 8.96540E-05-2.29839E-05-2.85728E-05 4.23646E-06-1.39193E-18 1.99111E-18
 -1       893 9.09996E-05-2.39480E-05-2.87365E-05 3.50040E-06 6.83653E-19 2.49139E-18
 -1       894 9.20579E-05-2.48104E-05-2.88204E-05 2.85353E-06-7.54173E-20 1.21727E-18
 -1       895 9.28812E-05-2.55591E-05-2.88524E-05 2.28920E-06-1.52062E-19 4.43380E-19
 -1       896 9.35149E-05-2.61937E-05-2.88520E-05 1.80542E-06-4.74969E-20 2.52478E-19
 -1       897 9.39970E-05-2.67202E-05-2.88329E-05 1.39864E-06-7.67084E-19 1.75107E-18
 -1       898 9.43599E-05-2.71496E-05-2.88044E-05 1.06270E-06-3.48073E-19 9.42016E-19
 -1       899 9.46303E-05-2.74952E-05-2.87722E-05 7.90837E-07 9.16882E-19 1.47895E-18
 -1       900 9.48288E-05-2.77692E-05-2.87399E-05 5.75258E-07 8.75395E-19 1.62708E-18
 -1       901 9.49722E-05-2.79833E-05-2.87095E-05 4.07432E-07-7.71723E-19 1.48316E-18
 -1       902 9.50736E-05-2.81481E-05-2.86824E-05 2.79153E-07-8.61393E-19-1.12593E-19
 -1       903 9.51437E-05-2.82732E-05-2.86588E-05 1.82947E-07-1.91709E-18 3.41467E-20
 -1       904 9.51905E-05-2.83667E-05-2.86387E-05 1.12280E-07-6.12302E-19 1.31593E-18
 -1       905 9.52203E-05-2.84355E-05-2.86220E-05 6.15595E-08 6.77921E-19 1.86380E-18
 -1       906 9.52381E-05-2.84855E-05-2.86082E-05 2.62649E-08-3.85349E-19 6.62129E-19
 -1       907 9.52476E-05-2.85217E-05-2.85968E-05 2.69954E-09-8.34884E-19 1.36505E-18
 -1       908 9.52491E-05-2.85397E-05-2.85897E-05 9.45465E-09-1.90829E-18-6.45098E-19
 -1       909 9.52519E-05-2.85630E-05-2.85810E-05-1.99851E-08 7.25039E-19 1.32626E-18
 -1       910 8.88013E-05-2.14979E-05-2.88441E-05-8.96089E-06 9.65880E-19-8.03933E-19
 -1       911 1.14624E-04-5.13154E-05-2.70574E-05 1.83244E-05 1.36414E-18 1.53261E-18
 -1       912 9.02027E-05-2.12217E-05-2.95629E-05-6.72821E-06 1.21608E-18-6.86928E-19
 -1       913 8.47137E-05-2.55140E-05-2.53575E-05-1.81919E-05 1.81387E-19-7.99674E-19
 -1       914 6.27369E-05-1.71216E-05-1.93940E-05-1.55809E-05 1.14857E-19-2.42653E-18
 -1       915 9.52507E-05-2.85408E-05-2.85899E-05-8.25851E-09 9.61207E-19 2.67976E-18
 -1       916 5.75657E-05-1.38534E-05-1.85545E-05 8.11406E-06-1.79590E-18 2.19114E-18
 -1       917 8.79012E-05-1.53939E-05-3.10751E-05 1.18961E-06 4.95267E-19-2.16971E-18
 -1       918 1.23945E-04-4.93553E-05-3.20509E-05-1.00437E-06-6.46756E-20 1.81766E-18
 -1       919 9.35411E-05-2.33498E-05-3.00814E-05 4.50871E-06-3.39128E-19-1.10899E-18
 -1       920 9.52480E-05-2.85329E-05-2.85922E-05 5.28395E-09-1.92392E-18-2.40759E-18
 -1       921 9.12715E-05-1.97948E-05-3.06276E-05-2.71795E-06 1.38615E-18-8.84709E-19
 -1       922 6.88131E-05-1.75117E-05-2.19462E-05 1.13960E-05 1.59082E-18-1.06376E-18
 -1       923 8.30602E-05-3.14454E-05-2.20641E-05 2.56031E-05 2.01829E-18 1.17963E-19
 -1       924 9.52487E-05-2.85471E-05-2.85864E-05 1.41943E-08-7.40422E-19 1.46237E-18
 -1       925 8.70214E-05-1.60407E-05-3.04195E-05 8.52535E-07 9.06176E-19-1.94272E-18
 -1       926 8.56165E-05-2.29732E-05-2.68427E-05-1.42434E-05 1.43326E-19-7.31607E-19
 -1       927 9.27674E-05-2.13857E-05-3.05902E-05-3.57298E-06 1.51818E-18-6.51120E-19
 -1       928 9.25326E-05-2.12435E-05-3.05524E-05 2.81636E-06-3.24409E-19-1.55043E-18
 -1       929 8.71772E-05-2.19115E-05-2.79706E-05-1.13547E-05 6.73946E-19-7.53254E-19
 -1       930 8.74051E-05-1.63502E-05-3.04536E-05-3.87618E-07 1.08792E-18-1.77679E-18
 -1       931 9.02563E-05-1.91259E-05-3.04849E-05 2.74995E-06 3.56514E-20-1.47456E-18
 -1       932 9.52474E-05-2.85292E-05-2.85935E-05-3.28385E-10-5.77106E-19-1.79622E-18
 -1       933 8.95872E-05-3.26263E-05-2.43427E-05-2.32211E-05-1.03258E-18-1.18866E-18
 -1       934 9.11687E-05-2.06674E-05-3.02157E-05-4.42233E-06 1.20882E-18-7.79625E-19
 -1       935 9.52490E-05-2.85336E-05-2.85923E-05-3.53389E-09 1.52039E-19 4.84368E-19
 -1       936 6.37328E-05-1.64554E-05-2.01437E-05-1.24810E-05-5.97499E-19 2.85035E-18
 -1       937 8.88725E-05-1.76376E-05-3.05307E-05-1.63328E-06 1.14088E-18-1.33247E-18
 -1       938 9.24006E-05-2.65562E-05-2.82176E-05 9.91518E-06 2.43972E-19-3.26293E-19
 -1       939 9.37825E-05-2.95638E-05-2.75215E-05 1.24655E-05 4.71745E-19 2.13241E-19
 -1       940 9.67795E-05-3.40567E-05-2.69074E-05 1.52576E-05 3.59209E-19 4.40730E-19
 -1       941 1.02679E-04-4.05143E-05-2.66197E-05 1.74990E-05 4.98972E-19 7.68730E-19
 -1       942 8.75739E-05-1.67176E-05-3.03663E-05 1.82339E-06 5.30606E-19-1.78320E-18
 -1       943 9.70667E-05-3.51047E-05-2.65423E-05-1.50476E-05 1.02485E-18 7.28620E-19
 -1       944 9.32659E-05-3.04882E-05-2.69073E-05-1.25028E-05 6.05210E-19-2.89871E-19
 -1       945 9.15149E-05-2.76478E-05-2.73715E-05-1.01476E-05 1.13579E-18 4.54955E-19
 -1       946 9.08587E-05-2.60087E-05-2.77928E-05-8.13382E-06 6.69623E-19 3.92388E-19
 -1       947 9.08504E-05-2.52054E-05-2.81339E-05-6.47831E-06 6.82950E-19 1.04613E-18
 -1       948 9.11923E-05-2.49498E-05-2.83901E-05-5.13608E-06-1.77992E-19 4.17199E-19
 -1       949 9.17065E-05-2.50455E-05-2.85693E-05-4.05123E-06-1.29101E-18-1.11234E-18
 -1       950 9.22764E-05-2.53443E-05-2.86854E-05-3.17726E-06-8.16193E-19-8.50582E-19
 -1       951 9.28327E-05-2.57433E-05-2.87527E-05-2.47225E-06-4.42351E-19-1.31523E-18
 -1       952 9.33393E-05-2.61765E-05-2.87841E-05-1.90529E-06 6.16139E-19-7.88046E-19
 -1       953 9.37781E-05-2.66001E-05-2.87906E-05-1.45238E-06 1.08762E-18-8.95061E-19
 -1       954 9.41434E-05-2.69869E-05-2.87814E-05-1.09260E-06 1.08733E-18-2.08112E-18
 -1       955 9.44390E-05-2.73260E-05-2.87628E-05-8.09031E-07-1.06950E-18-1.55279E-18
 -1       956 9.46718E-05-2.76133E-05-2.87394E-05-5.88314E-07 2.65440E-19-2.74873E-18
 -1       957 9.48500E-05-2.78495E-05-2.87145E-05-4.18601E-07-3.08773E-19-2.04330E-18
 -1       958 9.49829E-05-2.80390E-05-2.86903E-05-2.89770E-07-1.59900E-18-1.05602E-18
 -1       959 9.50792E-05-2.81876E-05-2.86678E-05-1.93371E-07 1.01472E-18 3.10478E-19
 -1       960 9.51468E-05-2.83018E-05-2.86479E-05-1.22431E-07 1.58888E-18 1.34740E-18
 -1       961 9.51924E-05-2.83877E-05-2.86306E-05-7.12661E-08 1.15438E-18 8.04977E-19
 -1       962 9.52214E-05-2.84511E-05-2.86158E-05-3.51826E-08 4.88255E-19 1.48333E-18
 -1       963 9.52388E-05-2.84977E-05-2.86033E-05-1.02592E-08-1.50480E-18 9.82832E-19
 -1       964 9.17795E-05-2.43013E-05-2.89186E-05 7.59492E-06-2.20768E-19-6.76253E-19
 -1       965 9.52428E-05-2.85085E-05-2.86004E-05 4.76941E-09-4.22502E-19 9.78056E-19
 -1       966 1.01130E-04-4.18223E-05-2.53134E-05 2.16474E-05 1.14769E-18 1.10002E-18
 -1       967 8.21915E-05-1.91761E-05-2.70079E-05 3.42682E-06-2.11822E-18 1.47128E-18
 -1       968 7.33718E-05-1.64488E-05-2.43791E-05 4.75565E-06-9.68674E-19 2.70179E-18
 -1       969 8.73569E-05-2.16585E-05-2.81575E-05 2.73617E-06-1.33643E-18 6.30055E-19
 -1       970 8.91657E-05-2.27841E-05-2.84501E-05 2.39404E-06-7.56612E-19-2.94539E-19
 -1       971 9.06029E-05-2.38043E-05-2.86286E-05 2.05241E-06 4.44522E-19 7.08989E-19
 -1       972 9.17334E-05-2.46980E-05-2.87297E-05 1.71850E-06 8.97215E-20 1.39716E-18
 -1       973 9.26212E-05-2.54720E-05-2.87782E-05 1.40732E-06-9.24375E-19 2.27792E-18
 -1       974 9.33104E-05-2.61269E-05-2.87931E-05 1.12610E-06-1.12267E-18 1.94464E-18
 -1       975 9.38388E-05-2.66679E-05-2.87878E-05 8.79762E-07-5.51152E-19 2.54206E-18
 -1       976 9.42436E-05-2.71128E-05-2.87706E-05 6.71585E-07 1.69572E-20 2.40326E-18
 -1       977 9.45473E-05-2.74707E-05-2.87473E-05 5.01105E-07 3.43307E-19 2.84811E-18
 -1       978 9.47715E-05-2.77543E-05-2.87218E-05 3.64424E-07 8.45787E-19 2.26101E-18
 -1       979 9.49343E-05-2.79754E-05-2.86968E-05 2.57209E-07-2.40623E-19 1.43891E-18
 -1       980 9.50500E-05-2.81454E-05-2.86735E-05 1.74899E-07-9.84954E-19 1.57799E-18
 -1       981 9.51300E-05-2.82739E-05-2.86527E-05 1.13039E-07-9.94213E-19 8.80671E-19
 -1       982 9.51835E-05-2.83696E-05-2.86346E-05 6.76898E-08-6.71877E-19-4.70937E-19
 -1       983 9.52172E-05-2.84393E-05-2.86191E-05 3.54883E-08 3.55459E-19 1.34179E-18
 -1       984 9.52333E-05-2.84786E-05-2.86092E-05 1.74662E-08-1.12142E-19 2.52985E-18
 -1       985 6.81717E-05-1.55974E-05-2.24808E-05-7.19593E-06 6.69186E-19-2.20218E-18
 -1       986 8.65125E-05-1.92753E-05-2.88163E-05-5.57634E-06 1.25015E-18-1.08124E-18
 -1       987 7.52013E-05-2.20410E-05-2.27326E-05-1.84221E-05 1.84401E-19-1.84509E-18
 -1       988 9.75154E-05-3.91748E-05-2.49634E-05-2.09403E-05 1.43696E-18 1.80474E-18
 -1       989 8.19353E-05-2.77327E-05-2.32120E-05-2.02462E-05-4.71741E-20 3.13363E-18
 -1       990 8.40100E-05-1.91625E-05-2.77904E-05-7.25572E-06 8.34650E-19-1.16154E-18
 -1       991 8.82623E-05-1.90372E-05-2.96691E-05-3.92484E-06 1.10960E-18-9.98745E-19
 -1       992 6.68519E-05-1.51533E-05-2.21145E-05 5.83633E-06-9.14237E-19 2.75143E-18
 -1       993 7.84741E-05-1.78914E-05-2.59671E-05 3.90838E-06-1.49609E-18 1.53024E-18
 -1       994 9.14573E-05-2.23580E-05-2.96143E-05 5.43297E-06-1.16377E-19-1.19821E-18
 -1       995 8.50923E-05-2.04597E-05-2.77004E-05 3.07123E-06-2.64289E-18 1.42711E-18
 -1       996 9.08684E-05-2.07788E-05-3.00385E-05 4.04632E-06 2.77950E-20-1.33293E-18
 -1       997 7.03063E-05-1.54858E-05-2.34828E-05 8.76558E-07 1.12360E-18-1.49287E-18
 -1       998 9.52382E-05-2.84990E-05-2.86025E-05-2.44883E-09-2.57917E-18-4.51286E-18
 -1       999 8.66157E-05-1.74399E-05-2.96460E-05 1.79002E-06 5.85889E-19-1.65033E-18
 -1      1000 7.89029E-05-2.03400E-05-2.50763E-05-1.35054E-05 3.78744E-19-1.23639E-18
 -1      1001 8.14169E-05-2.61142E-05-2.36640E-05 1.90289E-05 1.65236E-18-5.27709E-19
 -1      1002 8.06976E-05-1.89712E-05-2.64575E-05-9.24801E-06 3.82062E-19-1.15804E-18
 -1      1003 9.52370E-05-2.84960E-05-2.86033E-05 5.94842E-10-7.31929E-19-3.42123E-18
 -1      1004 8.63568E-05-1.71691E-05-2.96530E-05-1.87564E-07 9.01052E-19-1.79781E-18
 -1      1005 7.39227E-05-2.04933E-05-2.28570E-05-1.40706E-05-5.07511E-19 2.06145E-18
 -1      1006 6.24465E-05-1.39048E-05-2.07674E-05-2.36726E-06-7.67527E-19 2.14974E-18
 -1      1007 8.87044E-05-1.77293E-05-3.04182E-05 2.42431E-06 2.54502E-19-1.80501E-18
 -1      1008 8.29985E-05-1.96534E-05-2.71457E-05-2.01179E-08-1.58336E-18 5.19570E-20
 -1      1009 9.07389E-05-2.40055E-05-2.85965E-05 7.78203E-07-2.46966E-19 1.16925E-18
 -1      1010 8.93443E-05-2.30207E-05-2.84253E-05 7.70641E-07-3.05906E-19 1.12271E-18
 -1      1011 8.85772E-05-2.75427E-05-2.61385E-05 1.48606E-05 7.94431E-19-1.00439E-18
 -1      1012 8.77055E-05-2.82819E-05-2.54439E-05-1.52617E-05 9.97861E-19 1.41079E-18
 -1      1013 7.96755E-05-1.84213E-05-2.62544E-05-6.57876E-07-1.43503E-18 1.29208E-18
 -1      1014 8.69382E-05-2.55660E-05-2.63064E-05-1.15607E-05 9.53476E-19 1.59543E-18
 -1      1015 8.72238E-05-2.41655E-05-2.70263E-05-8.67952E-06 5.59072E-19 1.26055E-18
 -1      1016 8.79593E-05-2.35970E-05-2.75851E-05-6.52628E-06 3.10733E-19 4.78750E-19
 -1      1017 8.88869E-05-2.35515E-05-2.80026E-05-4.93090E-06-8.36472E-19-9.34522E-19
 -1      1018 8.98725E-05-2.38417E-05-2.83002E-05-3.72767E-06-1.29492E-18-9.83299E-19
 -1      1019 9.08238E-05-2.43194E-05-2.85028E-05-2.82053E-06-7.46984E-19-8.39098E-19
 -1      1020 9.16863E-05-2.48747E-05-2.86336E-05-2.13576E-06-2.40352E-19 1.41899E-19
 -1      1021 9.24437E-05-2.54521E-05-2.87106E-05-1.60971E-06 3.98138E-19-2.43796E-19
 -1      1022 9.30830E-05-2.60014E-05-2.87494E-05-1.20579E-06 4.45013E-19-1.20195E-18
 -1      1023 9.36106E-05-2.64990E-05-2.87625E-05-8.97525E-07 1.36154E-18-1.22121E-18
 -1      1024 9.40375E-05-2.69346E-05-2.87587E-05-6.59348E-07-5.13258E-19-1.62948E-18
 -1      1025 9.43748E-05-2.73047E-05-2.87446E-05-4.78399E-07-1.05942E-18-1.16376E-18
 -1      1026 9.46344E-05-2.76100E-05-2.87249E-05-3.41473E-07-4.58374E-19-3.17209E-18
 -1      1027 9.48298E-05-2.78561E-05-2.87032E-05-2.38500E-07 2.48488E-19-3.29107E-18
 -1      1028 9.49735E-05-2.80503E-05-2.86815E-05-1.61814E-07 4.07224E-19-3.94447E-19
 -1      1029 9.50761E-05-2.82005E-05-2.86611E-05-1.05373E-07 9.55950E-19-2.47059E-19
 -1      1030 9.51473E-05-2.83146E-05-2.86427E-05-6.44054E-08 1.01999E-18-1.49834E-18
 -1      1031 9.51941E-05-2.83990E-05-2.86265E-05-3.55834E-08 1.64975E-18-1.65405E-18
 -1      1032 9.52211E-05-2.84555E-05-2.86138E-05-1.41620E-08-5.08480E-19-3.61291E-18
 -1      1033 9.52409E-05-2.85042E-05-2.86014E-05 3.69280E-09-1.15914E-19 8.61171E-19
 -1      1034 7.73004E-05-2.02987E-05-2.44200E-05 1.18657E-05 1.32186E-18-5.75306E-19
 -1      1035 8.81570E-05-2.47419E-05-2.71828E-05 1.11180E-05 5.00300E-19-1.05407E-18
 -1      1036 7.51526E-05-1.70259E-05-2.49244E-05-1.73120E-06-7.52875E-19 2.37673E-18
 -1      1037 8.76550E-05-2.19566E-05-2.81576E-05 6.66613E-07-1.00126E-18 1.94703E-19
 -1      1038 9.18281E-05-2.48734E-05-2.86952E-05 7.07487E-07-7.05784E-19 2.48383E-18
 -1      1039 9.26674E-05-2.55962E-05-2.87437E-05 6.03883E-07-6.59875E-19 2.74122E-18
 -1      1040 9.33224E-05-2.62122E-05-2.87616E-05 5.02807E-07-2.13238E-19 1.14418E-18
 -1      1041 9.38484E-05-2.67398E-05-2.87609E-05 4.07030E-07-2.98554E-19-5.01229E-19
 -1      1042 9.42499E-05-2.71710E-05-2.87481E-05 3.17911E-07-1.12131E-18 4.65074E-19
 -1      1043 9.45525E-05-2.75181E-05-2.87291E-05 2.40372E-07 2.69620E-19 2.16464E-18
 -1      1044 9.47768E-05-2.77929E-05-2.87074E-05 1.75961E-07 5.83858E-19 2.67901E-18
 -1      1045 9.49397E-05-2.80069E-05-2.86855E-05 1.24327E-07-6.12263E-19 2.20933E-18
 -1      1046 9.50552E-05-2.81709E-05-2.86647E-05 8.41904E-08-6.77207E-19 9.01486E-19
 -1      1047 9.51348E-05-2.82945E-05-2.86458E-05 5.38664E-08 2.40206E-20-2.87985E-20
 -1      1048 9.51884E-05-2.83867E-05-2.86291E-05 3.18188E-08-1.31416E-19-1.68918E-18
 -1      1049 8.84898E-05-2.28051E-05-2.81536E-05 8.17082E-06 1.02495E-19-9.34988E-19
 -1      1050 6.98841E-05-1.64347E-05-2.28574E-05-7.44577E-06-5.51895E-20 3.11758E-18
 -1      1051 8.57232E-05-1.79549E-05-2.90414E-05-2.29703E-06 1.04345E-18-1.36897E-18
 -1      1052 8.89085E-05-2.11813E-05-2.90255E-05 5.81469E-06 2.70298E-19-1.24855E-18
 -1      1053 8.55387E-05-2.07990E-05-2.77467E-05 4.06377E-07-1.67309E-18-1.05159E-18
 -1      1054 8.76547E-05-1.83451E-05-2.97025E-05 3.05836E-06 3.73131E-19-1.55342E-18
 -1      1055 8.31670E-05-1.78671E-05-2.79840E-05-2.95162E-06 1.02230E-18-9.53452E-19
 -1      1056 8.13806E-05-2.28929E-05-2.50654E-05-1.21981E-05 1.10094E-18 1.35563E-18
 -1      1057 9.52170E-05-2.84483E-05-2.86152E-05-2.22231E-09-1.04807E-18-4.40012E-18
 -1      1058 7.78001E-05-1.95682E-05-2.49522E-05-8.29797E-06 4.24268E-19 1.75211E-18
 -1      1059 7.95271E-05-1.73289E-05-2.66534E-05-3.59272E-06 6.93038E-19-1.20265E-18
 -1      1060 9.52141E-05-2.84386E-05-2.86181E-05 1.77532E-08-1.30988E-18-1.32420E-18
 -1      1061 8.70797E-05-1.73960E-05-2.98625E-05-1.35650E-06 9.89889E-19-1.59047E-18
 -1      1062 8.91473E-05-1.94561E-05-2.98671E-05 3.75339E-06 1.19211E-19-1.44463E-18
 -1      1063 8.49777E-05-1.77511E-05-2.88079E-05 1.26213E-06 5.89551E-19-1.55106E-18
 -1      1064 8.59867E-05-1.86271E-05-2.88691E-05 3.34857E-06 4.86597E-19-1.40482E-18
 -1      1065 9.21722E-05-2.52155E-05-2.86984E-05-1.16973E-07-1.03753E-18 9.77092E-20
 -1      1066 9.12131E-05-2.44549E-05-2.86164E-05-2.72444E-07-3.29574E-19-2.01185E-19
 -1      1067 7.55954E-05-1.69511E-05-2.51290E-05-6.11036E-06 7.62476E-19-1.79854E-18
 -1      1068 8.24214E-05-2.00558E-05-2.67405E-05-3.66543E-06-5.05814E-19-3.65839E-19
 -1      1069 8.31731E-05-2.20943E-05-2.61767E-05-8.68479E-06 7.14998E-19 1.05362E-18
 -1      1070 8.49588E-05-2.19370E-05-2.70027E-05-6.21928E-06 4.70749E-19 1.27856E-18
 -1      1071 8.64653E-05-2.21040E-05-2.75824E-05-4.50249E-06-7.23840E-19 1.89404E-19
 -1      1072 8.79871E-05-2.26366E-05-2.80073E-05-3.21892E-06-1.38288E-18-2.91479E-19
 -1      1073 8.93511E-05-2.33032E-05-2.83060E-05-2.32130E-06-1.26911E-18-1.20150E-18
 -1      1074 9.05358E-05-2.40190E-05-2.85052E-05-1.65883E-06-4.33970E-19-1.02793E-18
 -1      1075 9.15963E-05-2.47743E-05-2.86369E-05-1.17384E-06-5.02649E-19-3.59852E-19
 -1      1076 9.24334E-05-2.54435E-05-2.87080E-05-8.57836E-07-4.57233E-19-1.43056E-18
 -1      1077 9.30803E-05-2.60190E-05-2.87405E-05-6.20286E-07 8.21743E-19-2.30029E-18
 -1      1078 9.36336E-05-2.65467E-05-2.87516E-05-4.37752E-07 7.88252E-19-1.96791E-18
 -1      1079 9.40718E-05-2.69956E-05-2.87470E-05-3.11920E-07-4.75764E-19-1.39298E-18
 -1      1080 9.44104E-05-2.73667E-05-2.87330E-05-2.19487E-07-1.23784E-18-2.13125E-18
 -1      1081 9.46673E-05-2.76675E-05-2.87142E-05-1.52048E-07-6.67977E-19-1.66781E-18
 -1      1082 9.48581E-05-2.79063E-05-2.86937E-05-1.03120E-07 1.54823E-18-1.65137E-18
 -1      1083 9.49965E-05-2.80924E-05-2.86732E-05-6.78701E-08 1.66476E-18-1.87012E-18
 -1      1084 9.50940E-05-2.82346E-05-2.86540E-05-4.27868E-08 7.74539E-19-1.37505E-18
 -1      1085 9.51605E-05-2.83413E-05-2.86367E-05-2.43417E-08 3.83460E-19-1.56930E-18
 -1      1086 9.51941E-05-2.84010E-05-2.86254E-05-9.66766E-09 2.87141E-21-3.81171E-18
 -1      1087 8.07563E-05-1.96797E-05-2.61693E-05 8.05859E-06 8.80699E-19-9.80716E-19
 -1      1088 7.59545E-05-1.67911E-05-2.53461E-05 2.18689E-06 1.13416E-18-9.58891E-19
 -1      1089 8.02342E-05-1.96598E-05-2.59576E-05-5.64675E-06 3.16372E-19 9.34530E-19
 -1      1090 8.59857E-05-1.98623E-05-2.83475E-05 5.23539E-06 5.49189E-19-1.54663E-18
 -1      1091 8.38980E-05-1.99749E-05-2.73842E-05 6.43411E-06 5.03339E-19-1.26783E-18
 -1      1092 8.20559E-05-1.78386E-05-2.75314E-05 1.92401E-06 8.99653E-19-1.12992E-18
 -1      1093 9.51929E-05-2.84017E-05-2.86251E-05 4.89719E-09-1.01844E-18-1.77694E-18
 -1      1094 1.16805E-04 2.58839E-10-4.19851E-05-4.03886E-05-3.73118E-19 9.18946E-18
 -1      1095 8.97744E-05 7.57972E-11-3.76453E-05-2.25450E-05-1.78406E-19 2.15464E-19
 -1      1096 8.51975E-05 4.39534E-11-3.61852E-05-1.58001E-05-1.13449E-19-3.32423E-18
 -1      1097 8.30840E-05 3.26245E-11-3.53694E-05-1.15321E-05-6.25746E-20-4.78461E-18
 -1      1098 8.17478E-05 2.59849E-11-3.48381E-05-8.25231E-06-4.24311E-20-5.32241E-18
 -1      1099 8.07860E-05 2.14398E-11-3.44595E-05-5.61614E-06-2.08317E-20-5.46856E-18
 -1      1100 8.00861E-05 1.81841E-11-3.41871E-05-3.42257E-06-3.91753E-21-5.43497E-18
 -1      1101 7.96347E-05 1.60875E-11-3.40138E-05-1.51731E-06 8.62253E-21-5.28434E-18
 -1      1102 7.94596E-05 1.51730E-11-3.39482E-05 2.12361E-07 2.54011E-20-5.11830E-18
 -1      1103 7.95795E-05 1.55196E-11-3.39967E-05 1.90793E-06 4.58920E-20-4.85771E-18
 -1      1104 8.00021E-05 1.72323E-11-3.41619E-05 3.72220E-06 5.14175E-20-4.52918E-18
 -1      1105 8.07186E-05 2.03830E-11-3.44404E-05 5.79961E-06 6.56980E-20-3.99414E-18
 -1      1106 8.17363E-05 2.52681E-11-3.48391E-05 8.33446E-06 8.74562E-20-3.16802E-18
 -1      1107 8.31463E-05 3.25051E-11-3.53980E-05 1.15702E-05 1.16361E-19-1.73302E-18
 -1      1108 8.52914E-05 4.43603E-11-3.62401E-05 1.58536E-05 1.37749E-19 8.04602E-19
 -1      1109 8.95625E-05 7.12005E-11-3.77375E-05 2.22424E-05 1.45478E-19 5.45881E-18
 -1      1110 1.06789E-04 1.67816E-10-4.07879E-05 3.50138E-05 2.40981E-19 1.44461E-17
 -1      1111 1.29837E-04-2.58838E-05-4.03655E-05-2.53990E-05-1.45711E-18 1.47782E-17
 -1      1112 9.90280E-05-2.93458E-05-3.20563E-05-5.20243E-07-5.05573E-19 1.13761E-17
 -1      1113 9.32562E-05-2.79679E-05-2.88046E-05 4.25732E-07-1.87618E-19 6.74163E-18
 -1      1114 9.26944E-05-2.79146E-05-2.79806E-05 2.80374E-07-1.06346E-19 3.69285E-18
 -1      1115 9.37751E-05-2.82182E-05-2.81673E-05 2.02637E-07-4.02407E-20 1.43916E-18
 -1      1116 9.57387E-05-2.87736E-05-2.87345E-05 1.66674E-07-9.38387E-20 7.49651E-19
 -1      1117 9.81816E-05-2.94800E-05-2.94553E-05 1.47827E-07-5.22766E-20-6.69341E-19
 -1      1118 1.00798E-04-3.02440E-05-3.02186E-05 1.33377E-07-6.35158E-20-1.52455E-18
 -1      1119 1.03258E-04-3.09631E-05-3.09229E-05 1.12259E-07-7.32129E-20-2.32810E-18
 -1      1120 1.05155E-04-3.15138E-05-3.14471E-05 7.30367E-08-6.18367E-20-3.80380E-18
 -1      1121 1.05998E-04-3.17502E-05-3.16516E-05 4.95918E-09-1.09519E-21-4.75481E-18
 -1      1122 1.05284E-04-3.15255E-05-3.14023E-05-9.68050E-08 5.89846E-20-4.67867E-18
 -1      1123 1.02665E-04-3.07421E-05-3.06209E-05-2.21942E-07 9.14001E-20-5.01825E-18
 -1      1124 9.82063E-05-2.94260E-05-2.93516E-05-3.36666E-07-1.46628E-19-5.24610E-18
 -1      1125 9.26268E-05-2.77933E-05-2.78116E-05-3.87073E-07 7.63848E-20-6.42077E-18
 -1      1126 8.73093E-05-2.62486E-05-2.63778E-05-3.24427E-07-1.90043E-19-7.56448E-18
 -1      1127 8.39112E-05-2.52668E-05-2.54774E-05-1.44190E-07-1.10515E-19-8.42564E-18
 -1      1128 8.36503E-05-2.51935E-05-2.54145E-05 9.44620E-08-4.91974E-20-9.75738E-18
 -1      1129 8.66803E-05-2.60716E-05-2.62269E-05 2.96853E-07-1.47668E-19-1.03012E-17
 -1      1130 9.20126E-05-2.76221E-05-2.76699E-05 3.91003E-07 2.96081E-20-9.96450E-18
 -1      1131 9.80416E-05-2.93865E-05-2.93346E-05 3.66633E-07-4.24997E-20-9.09660E-18
 -1      1132 1.03285E-04-3.09333E-05-3.08241E-05 2.65824E-07-3.89569E-20-7.21714E-18
 -1      1133 1.06869E-04-3.20019E-05-3.18828E-05 1.44544E-07 2.17549E-20-6.72523E-18
 -1      1134 1.08600E-04-3.25280E-05-3.24308E-05 4.23154E-08-2.34198E-19-6.98029E-18
 -1      1135 1.08751E-04-3.25867E-05-3.25233E-05-2.52788E-08 4.83702E-20-8.20538E-18
 -1      1136 1.07796E-04-3.23150E-05-3.22830E-05-5.98478E-08 2.10438E-19-6.27880E-18
 -1      1137 1.06213E-04-3.18528E-05-3.18436E-05-7.04125E-08 1.32792E-19-4.92446E-18
 -1      1138 1.04380E-04-3.13129E-05-3.13173E-05-6.67036E-08-1.57754E-19-7.18144E-18
 -1      1139 1.02559E-04-3.07729E-05-3.07839E-05-5.62257E-08 1.99681E-20-7.60194E-18
 -1      1140 1.00900E-04-3.02789E-05-3.02919E-05-4.37687E-08 1.11805E-19-7.22645E-18
 -1      1141 9.94764E-05-2.98535E-05-2.98658E-05-3.19447E-08-5.67558E-20-5.58485E-18
 -1      1142 9.83077E-05-2.95030E-05-2.95136E-05-2.19193E-08 2.35508E-19-6.69049E-18
 -1      1143 9.73824E-05-2.92247E-05-2.92331E-05-1.40152E-08-1.82895E-19-7.09301E-18
 -1      1144 9.66726E-05-2.90106E-05-2.90170E-05-8.12028E-09-7.22286E-20-7.93864E-18
 -1      1145 9.61444E-05-2.88508E-05-2.88554E-05-3.93551E-09 1.14480E-19-8.58958E-18
 -1      1146 9.57633E-05-2.87351E-05-2.87383E-05-1.11145E-09 3.34292E-19-8.47665E-18
 -1      1147 9.54977E-05-2.86542E-05-2.86563E-05 6.82603E-10-2.15565E-19-6.89962E-18
 -1      1148 9.53204E-05-2.85999E-05-2.86012E-05 1.72935E-09-7.59109E-20-6.32029E-18
 -1      1149 9.52087E-05-2.85655E-05-2.85662E-05 2.25622E-09 3.44017E-19-2.14399E-18
 -1      1150 9.51446E-05-2.85455E-05-2.85458E-05 2.43856E-09 2.44024E-19 4.76348E-19
 -1      1151 9.51140E-05-2.85358E-05-2.85358E-05 2.40710E-09-4.51098E-19-1.99925E-18
 -1      1152 9.51063E-05-2.85330E-05-2.85329E-05 2.25615E-09-5.24303E-20-3.57450E-18
 -1      1153 9.51135E-05-2.85348E-05-2.85346E-05 2.05126E-09 2.01643E-20-5.10430E-18
 -1      1154 9.51299E-05-2.85394E-05-2.85393E-05 1.83527E-09-2.31356E-19-2.68682E-18
 -1      1155 9.51515E-05-2.85457E-05-2.85455E-05 1.63209E-09 2.38563E-19-1.16479E-18
 -1      1156 9.51751E-05-2.85526E-05-2.85524E-05 1.44640E-09 3.52036E-19-8.28114E-19
 -1      1157 9.51982E-05-2.85595E-05-2.85591E-05 1.25433E-09 3.65855E-19 6.92848E-19
 -1      1158 9.52185E-05-2.85654E-05-2.85650E-05 9.58099E-10 8.64559E-20 2.86349E-18
 -1      1159 9.52327E-05-2.85695E-05-2.85691E-05 3.49591E-10 1.53276E-19 1.18413E-18
 -1      1160 9.52378E-05-2.85714E-05-2.85715E-05-2.94991E-10 5.02837E-19 2.14591E-18
 -1      1161 1.30452E-04-3.74645E-05-3.87842E-05 1.19285E-05-2.72056E-19 2.16438E-17
 -1      1162 9.83081E-05-2.87325E-05-3.18527E-05 7.42414E-07 1.06673E-19 1.83558E-17
 -1      1163 9.37631E-05-2.79717E-05-2.88852E-05 1.12518E-07 5.86438E-20 1.47138E-17
 -1      1164 9.33773E-05-2.80357E-05-2.82152E-05 2.12363E-08 2.52422E-20 1.23307E-17
 -1      1165 9.49251E-05-2.85299E-05-2.85595E-05-6.59585E-09 6.35639E-20 1.00821E-17
 -1      1166 9.77225E-05-2.93640E-05-2.93897E-05-1.98643E-08 8.08950E-20 8.21775E-18
 -1      1167 1.01520E-04-3.04926E-05-3.05378E-05-3.79549E-08 4.20290E-20 7.50106E-18
 -1      1168 1.06212E-04-3.18855E-05-3.19472E-05-7.10895E-08-4.67522E-21 7.46726E-18
 -1      1169 1.11662E-04-3.34976E-05-3.35622E-05-1.27508E-07-1.64146E-20 6.68293E-18
 -1      1170 1.17545E-04-3.52275E-05-3.52631E-05-2.10678E-07 7.83526E-21 5.78862E-18
 -1      1171 1.23141E-04-3.68623E-05-3.68071E-05-3.07224E-07 1.87365E-19 4.95837E-18
 -1      1172 1.27130E-04-3.80230E-05-3.77905E-05-3.66203E-07-1.05985E-19 4.91674E-18
 -1      1173 1.27578E-04-3.81656E-05-3.76915E-05-2.85879E-07 1.71604E-19 5.57679E-18
 -1      1174 1.22515E-04-3.67345E-05-3.60881E-05 4.30157E-08-1.73562E-19 5.87460E-18
 -1      1175 1.11473E-04-3.35642E-05-3.30547E-05 5.94789E-07-7.10581E-20 5.46887E-18
 -1      1176 9.73960E-05-2.94147E-05-2.95050E-05 1.06632E-06-9.02256E-20 4.12759E-18
 -1      1177 8.67077E-05-2.60986E-05-2.69899E-05 1.02778E-06-3.72139E-19 3.44372E-18
 -1      1178 8.56075E-05-2.55634E-05-2.68204E-05 3.74624E-07-3.94929E-20 3.51662E-18
 -1      1179 9.49307E-05-2.82782E-05-2.91156E-05-4.53016E-07 2.13651E-19 9.97170E-19
 -1      1180 1.09317E-04-3.26867E-05-3.27112E-05-9.14334E-07-4.46744E-20 1.29829E-18
 -1      1181 1.21885E-04-3.65800E-05-3.60481E-05-8.77779E-07-4.86912E-20 1.71831E-18
 -1      1182 1.28795E-04-3.87077E-05-3.80766E-05-5.61669E-07 1.99748E-19 8.38510E-19
 -1      1183 1.29911E-04-3.90365E-05-3.85772E-05-2.25979E-07-3.21045E-20 2.69588E-19
 -1      1184 1.27064E-04-3.81547E-05-3.79207E-05 3.86201E-09 3.85632E-20-1.73695E-19
 -1      1185 1.22301E-04-3.67028E-05-3.66357E-05 1.18771E-07 2.39137E-19-8.60744E-19
 -1      1186 1.17092E-04-3.51283E-05-3.51522E-05 1.55086E-07 2.47172E-19 5.43583E-19
 -1      1187 1.12252E-04-3.36723E-05-3.37325E-05 1.49874E-07-3.43266E-19 3.62345E-19
 -1      1188 1.08121E-04-3.24335E-05-3.24999E-05 1.27750E-07 5.05005E-19-1.45845E-18
 -1      1189 1.04773E-04-3.14304E-05-3.14899E-05 1.01850E-07-1.01137E-19-7.42596E-19
 -1      1190 1.02147E-04-3.06443E-05-3.06930E-05 7.79965E-08 3.06519E-19 3.79577E-19
 -1      1191 1.00138E-04-3.00426E-05-3.00806E-05 5.81414E-08 1.11472E-19-1.74497E-18
 -1      1192 9.86305E-05-2.95909E-05-2.96197E-05 4.24622E-08 9.88200E-20-1.72165E-18
 -1      1193 9.75181E-05-2.92574E-05-2.92788E-05 3.04564E-08-1.82903E-19 9.26429E-19
 -1      1194 9.67118E-05-2.90155E-05-2.90312E-05 2.14474E-08-3.29102E-19 3.55018E-18
 -1      1195 9.61383E-05-2.88433E-05-2.88546E-05 1.47889E-08 1.13935E-19 2.30242E-18
 -1      1196 9.57397E-05-2.87235E-05-2.87316E-05 9.93264E-09 6.12260E-20-7.41613E-19
 -1      1197 9.54705E-05-2.86425E-05-2.86482E-05 6.43796E-09 3.72662E-19-4.04470E-18
 -1      1198 9.52957E-05-2.85898E-05-2.85937E-05 3.96098E-09-2.89843E-19-3.46466E-18
 -1      1199 9.51888E-05-2.85575E-05-2.85602E-05 2.23727E-09-9.04604E-20-2.09521E-18
 -1      1200 9.51295E-05-2.85396E-05-2.85413E-05 1.06473E-09-1.14361E-19-3.14318E-18
 -1      1201 9.51032E-05-2.85315E-05-2.85326E-05 2.89180E-10 1.18271E-19-4.30608E-18
 -1      1202 9.50988E-05-2.85301E-05-2.85307E-05-2.07130E-10-6.40997E-19-4.06650E-19
 -1      1203 9.51085E-05-2.85329E-05-2.85332E-05-5.14163E-10 3.82288E-20-1.66429E-18
 -1      1204 9.51267E-05-2.85383E-05-2.85384E-05-7.00980E-10 3.43580E-19-3.91264E-18
 -1      1205 9.51495E-05-2.85450E-05-2.85450E-05-8.22136E-10 1.46113E-19-4.05903E-18
 -1      1206 9.51739E-05-2.85522E-05-2.85521E-05-9.16992E-10 1.68320E-19-6.02095E-18
 -1      1207 9.51976E-05-2.85593E-05-2.85590E-05-1.00697E-09 3.24099E-19-9.06139E-18
 -1      1208 9.52182E-05-2.85654E-05-2.85649E-05-1.06294E-09-6.46584E-19-6.32033E-18
 -1      1209 9.52328E-05-2.85697E-05-2.85691E-05-8.47992E-10 6.34220E-21-3.46234E-18
 -1      1210 9.52378E-05-2.85714E-05-2.85715E-05 2.45855E-10-3.16726E-19-1.58598E-18
 -1      1211 9.52369E-05-2.85705E-05-2.85715E-05 1.75223E-10-1.64206E-18-4.98029E-19
 -1      1212 9.52387E-05-2.85757E-05-2.85691E-05-2.98738E-10-8.87291E-19-7.88947E-19
 -1      1213 9.52427E-05-2.85893E-05-2.85653E-05-9.09852E-10 1.18609E-18 7.08107E-20
 -1      1214 9.52479E-05-2.86069E-05-2.85604E-05-9.87404E-10-1.27760E-18-3.71265E-19
 -1      1215 9.52531E-05-2.86245E-05-2.85554E-05-8.58831E-10-5.61360E-19 5.17730E-19
 -1      1216 9.52576E-05-2.86396E-05-2.85510E-05-6.48312E-10 2.48541E-19 1.42420E-19
 -1      1217 9.52609E-05-2.86510E-05-2.85476E-05-4.34430E-10 6.01754E-18 8.91500E-19
 -1      1218 9.52630E-05-2.86580E-05-2.85455E-05-2.09197E-10 5.41644E-18-8.79106E-19
 -1      1219 9.52637E-05-2.86602E-05-2.85449E-05 9.73338E-12 2.22647E-18-4.32622E-19
 -1      1220 9.52629E-05-2.86576E-05-2.85456E-05 2.26563E-10 3.83144E-18 4.77299E-19
 -1      1221 9.52607E-05-2.86503E-05-2.85478E-05 4.45654E-10-1.52087E-18-1.15429E-18
 -1      1222 9.52573E-05-2.86387E-05-2.85512E-05 6.62941E-10-4.21409E-18-3.03586E-20
 -1      1223 9.52528E-05-2.86236E-05-2.85556E-05 8.53622E-10-7.48094E-18 4.27576E-19
 -1      1224 9.52476E-05-2.86061E-05-2.85606E-05 9.88383E-10-6.32574E-18 4.42837E-20
 -1      1225 9.52425E-05-2.85886E-05-2.85655E-05 1.06271E-09-3.00509E-18-1.00903E-19
 -1      1226 9.52389E-05-2.85759E-05-2.85692E-05 2.37497E-10-1.81816E-18-9.92459E-19
 -1      1227 9.52368E-05-2.85705E-05-2.85715E-05-1.43696E-10-2.37321E-18 7.57340E-19
 -1      1228 3.44923E-05-1.09789E-04 1.87763E-05-1.44364E-05 1.05077E-17 2.30689E-18
 -1      1229 1.80002E-05-6.90431E-05 1.05538E-05-2.63720E-05 1.81180E-17 6.17169E-18
 -1      1230 7.52543E-06-1.27069E-05-5.07579E-06-3.75913E-06 1.89176E-17 1.20931E-17
 -1      1231 3.16774E-05 2.19064E-05-2.47182E-05 4.79623E-05 1.81739E-17 1.79147E-17
 -1      1232 1.06177E-04 1.22528E-05-4.60210E-05 9.89347E-05 1.42268E-17 2.01289E-17
 -1      1233 2.10849E-04-3.37835E-05-6.46620E-05 1.08439E-04 6.50310E-18 1.38863E-17
 -1      1234 2.96625E-04-8.19350E-05-7.69921E-05 6.02868E-05 1.42984E-18 3.17214E-18
 -1      1235 3.20772E-04-9.68155E-05-7.97457E-05-2.15468E-05 9.73029E-19-7.52610E-18
 -1      1236 2.66460E-04-6.44267E-05-7.29707E-05-9.09777E-05 5.31090E-18-1.74446E-17
 -1      1237 1.62919E-04-1.00457E-05-5.71777E-05-1.10818E-04 1.10953E-17-2.07997E-17
 -1      1238 6.71415E-05 2.30334E-05-3.66008E-05-7.95551E-05 1.53703E-17-1.85771E-17
 -1      1239 1.56139E-05 1.11136E-05-1.56530E-05-2.34672E-05 1.58819E-17-1.26589E-17
 -1      1240 9.55587E-06-3.75049E-05 2.65571E-06 1.92073E-05 1.28444E-17-6.80464E-18
 -1      1241 2.56562E-05-9.00652E-05 1.48575E-05 2.52137E-05 4.72729E-18-2.01276E-18
 -1      1242 3.64441E-05-1.14340E-04 1.97536E-05 3.45858E-06-5.78905E-18-9.80599E-19
 -1      1243 2.93734E-05-9.62095E-05 1.58687E-05-2.17637E-05-1.50086E-17-3.77565E-18
 -1      1244 1.11875E-05-4.15878E-05 3.94452E-06-1.83805E-05-1.97113E-17-8.82185E-18
 -1      1245 1.41455E-05 9.58313E-06-1.42047E-05 2.12176E-05-1.95173E-17-1.43538E-17
 -1      1246 6.54574E-05 2.37661E-05-3.60679E-05 7.90281E-05-1.46791E-17-1.61868E-17
 -1      1247 1.60220E-04-8.85841E-06-5.65798E-05 1.13062E-04-7.80456E-18-1.40675E-17
 -1      1248 2.54335E-04-5.92914E-05-7.08844E-05 8.98389E-05-3.10480E-18-8.21114E-18
 -1      1249 3.07390E-04-9.16317E-05-7.76987E-05 1.97925E-05-8.77367E-19 2.78610E-18
 -1      1250 2.87375E-04-7.90323E-05-7.51616E-05-6.19586E-05-3.30221E-18 1.36910E-17
 -1      1251 2.03700E-04-3.07189E-05-6.35927E-05-1.07352E-04-9.60917E-18 2.19127E-17
 -1      1252 1.05074E-04 1.45768E-05-4.58956E-05-1.00275E-04-1.66044E-17 2.34831E-17
 -1      1253 3.30849E-05 2.51485E-05-2.56880E-05-5.24471E-05-1.97409E-17 1.91726E-17
 -1      1254 7.46696E-06-7.62246E-06-6.15696E-06-3.73929E-07-1.69762E-17 1.08098E-17
 -1      1255 1.70314E-05-6.30990E-05 9.21152E-06 2.38732E-05-1.02313E-17 4.56127E-18
 -1      1256 3.42083E-05-1.07116E-04 1.81347E-05 1.32588E-05-1.15620E-19 1.38032E-18
 -1      1257 1.05335E-04-2.22461E-05-3.81365E-05-1.64271E-05-5.49301E-19 7.05218E-18
 -1      1258 9.17960E-05-7.07270E-06-3.64584E-05-1.86500E-05-1.30131E-18-1.47267E-18
 -1      1259 9.41137E-05-7.19992E-06-3.75989E-05-2.41065E-05-1.75505E-18 4.13670E-19
 -1      1260 8.71302E-05-4.34201E-06-3.55413E-05-1.42444E-05-1.22179E-18-3.98773E-18
 -1      1261 8.85442E-05-4.35720E-06-3.60435E-05-1.68087E-05-1.42042E-18-2.95847E-18
 -1      1262 9.37435E-05-1.09797E-05-3.55450E-05-1.70264E-05-2.27145E-18-1.23752E-18
 -1      1263 8.47517E-05-3.24557E-06-3.49485E-05-1.04951E-05-9.10534E-19-5.06347E-18
 -1      1264 8.56433E-05-3.23213E-06-3.52597E-05-1.23455E-05-1.08444E-18-4.61718E-18
 -1      1265 8.90260E-05-7.63069E-06-3.49590E-05-1.31525E-05-1.91342E-18-3.28278E-18
 -1      1266 8.31476E-05-2.58732E-06-3.45274E-05-7.46151E-06-5.64495E-19-5.46661E-18
 -1      1267 8.37835E-05-2.58163E-06-3.47449E-05-8.93255E-06-6.74715E-19-5.30494E-18
 -1      1268 8.62991E-05-5.87759E-06-3.45303E-05-9.65225E-06-1.30943E-18-4.20666E-18
 -1      1269 8.19798E-05-2.13442E-06-3.42154E-05-4.99950E-06-2.44541E-19-5.51557E-18
 -1      1270 8.24515E-05-2.13513E-06-3.43735E-05-6.19279E-06-3.75328E-19-5.49093E-18
 -1      1271 8.44450E-05-4.76640E-06-3.42007E-05-6.80313E-06-8.00102E-19-4.53549E-18
 -1      1272 8.11244E-05-1.80789E-06-3.39872E-05-2.88953E-06-4.97632E-21-5.45659E-18
 -1      1273 8.14614E-05-1.81109E-06-3.40985E-05-3.91798E-06-6.89141E-20-5.51440E-18
 -1      1274 8.30921E-05-3.99102E-06-3.39457E-05-4.43792E-06-2.92739E-19-4.61511E-18
 -1      1275 8.06058E-05-1.59817E-06-3.38523E-05-1.05026E-06 2.67576E-19-5.26612E-18
 -1      1276 8.07915E-05-1.60097E-06-3.39123E-05-1.95947E-06 1.74859E-19-5.34430E-18
 -1      1277 8.21471E-05-3.46188E-06-3.37635E-05-2.41061E-06 1.08465E-19-4.46455E-18
 -1      1278 8.04488E-05-1.50697E-06-3.38192E-05 6.49069E-07 4.83207E-19-5.06066E-18
 -1      1279 8.04702E-05-1.50817E-06-3.38239E-05-2.07934E-07 4.20049E-19-5.18895E-18
 -1      1280 8.16259E-05-3.16611E-06-3.36648E-05-6.18620E-07 5.48392E-19-4.31861E-18
 -1      1281 8.06768E-05-1.54217E-06-3.38938E-05 2.34848E-06 7.25722E-19-4.82590E-18
 -1      1282 8.05249E-05-1.54127E-06-3.38408E-05 1.47190E-06 6.43426E-19-4.97885E-18
 -1      1283 8.15561E-05-3.10998E-06-3.36585E-05 1.06731E-06 9.46260E-19-4.12807E-18
 -1      1284 8.13013E-05-1.71455E-06-3.40768E-05 4.19999E-06 9.50000E-19-4.46777E-18
 -1      1285 8.09739E-05-1.71107E-06-3.39660E-05 3.22601E-06 8.64933E-19-4.69002E-18
 -1      1286 8.19641E-05-3.31091E-06-3.37487E-05 2.78685E-06 1.30296E-18-3.89967E-18
 -1      1287 8.23036E-05-2.02685E-06-3.43598E-05 6.32737E-06 1.19355E-18-3.91116E-18
 -1      1288 8.18127E-05-2.02552E-06-3.41951E-05 5.19410E-06 1.08889E-18-4.25796E-18
 -1      1289 8.28581E-05-3.78771E-06-3.39306E-05 4.67357E-06 1.68065E-18-3.52130E-18
 -1      1290 8.37405E-05-2.51066E-06-3.47563E-05 8.98446E-06 1.49046E-18-2.95429E-18
 -1      1291 8.30559E-05-2.51301E-06-3.45254E-05 7.55441E-06 1.35292E-18-3.51086E-18
 -1      1292 8.42594E-05-4.58040E-06-3.41985E-05 6.90298E-06 2.09927E-18-2.88775E-18
 -1      1293 8.57221E-05-3.21737E-06-3.52978E-05 1.23629E-05 1.74851E-18-1.41050E-18
 -1      1294 8.47811E-05-3.23392E-06-3.49723E-05 1.05204E-05 1.59952E-18-2.35167E-18
 -1      1295 8.62659E-05-5.78981E-06-3.45518E-05 9.67625E-06 2.50711E-18-1.85820E-18
 -1      1296 8.87532E-05-4.35822E-06-3.61067E-05 1.68314E-05 1.86305E-18 1.30239E-18
 -1      1297 8.72781E-05-4.39224E-06-3.55872E-05 1.42910E-05 1.70979E-18-3.39607E-19
 -1      1298 8.91725E-05-7.67472E-06-3.50016E-05 1.31715E-05 2.78417E-18-1.37246E-19
 -1      1299 9.49733E-05-7.26966E-06-3.75188E-05 2.33304E-05 1.49438E-18 6.28864E-18
 -1      1300 9.17580E-05-6.87668E-06-3.65196E-05 1.91172E-05 1.48564E-18 3.29623E-18
 -1      1301 9.40923E-05-1.12167E-05-3.55759E-05 1.74308E-05 2.67742E-18 2.88161E-18
 -1      1302 1.23872E-04-2.51048E-05-3.91952E-05 2.72592E-05 5.93452E-19 1.49688E-17
 -1      1303 1.01360E-04-1.48555E-05-3.76866E-05 2.26229E-05 6.68521E-19 9.01540E-18
 -1      1304 1.03390E-04-1.99715E-05-3.58405E-05 1.95619E-05 2.35101E-18 7.31434E-18
 -1      1305 1.03894E-04-2.82664E-05-3.50862E-05 6.47595E-06 1.12669E-18 1.46740E-17
 -1      1306 1.06611E-04-3.07166E-05-3.39323E-05-7.10658E-06-1.53091E-18 7.68831E-18
 -1      1307 1.00439E-04-2.85506E-05-3.13701E-05-4.26206E-06-1.40057E-18 5.87391E-18
 -1      1308 9.81140E-05-2.86424E-05-3.00247E-05-1.78042E-06-1.13407E-18 5.18128E-18
 -1      1309 9.65541E-05-2.85471E-05-2.91903E-05-1.34627E-06-1.04362E-18 3.51630E-18
 -1      1310 1.01829E-04-2.88065E-05-3.16605E-05-6.49297E-06-2.44454E-18 2.69904E-18
 -1      1311 9.53917E-05-2.83323E-05-2.87265E-05-1.18989E-07-8.31019E-19 3.00429E-18
 -1      1312 9.53595E-05-2.84392E-05-2.86311E-05 3.16151E-09-7.67729E-19 1.82859E-18
 -1      1313 9.80192E-05-2.87587E-05-2.98109E-05-1.72865E-06-1.81297E-18 1.64454E-18
 -1      1314 9.51894E-05-2.84211E-05-2.85698E-05 6.16164E-07-5.29293E-19 1.38077E-18
 -1      1315 9.58654E-05-2.86750E-05-2.87574E-05 6.93166E-07-4.55181E-19 5.87311E-19
 -1      1316 9.68966E-05-2.87813E-05-2.92276E-05 4.39348E-07-1.28903E-18 8.32038E-19
 -1      1317 9.62467E-05-2.87955E-05-2.88801E-05 1.03096E-06-3.02935E-19 3.50857E-19
 -1      1318 9.72865E-05-2.91422E-05-2.91841E-05 1.07732E-06-3.98939E-19-1.52400E-19
 -1      1319 9.71338E-05-2.89894E-05-2.92236E-05 1.58013E-06-7.70082E-19-4.80691E-20
 -1      1320 9.79793E-05-2.93531E-05-2.93988E-05 1.24982E-06-4.59695E-19-2.39419E-19
 -1      1321 9.91935E-05-2.97500E-05-2.97516E-05 1.26952E-06-4.20851E-19-8.26651E-19
 -1      1322 9.81931E-05-2.93849E-05-2.95020E-05 2.20348E-06-8.08137E-19-3.68909E-19
 -1      1323 1.00033E-04-3.00094E-05-3.00053E-05 1.29938E-06-2.55454E-19-1.03748E-18
 -1      1324 1.01260E-04-3.04124E-05-3.03586E-05 1.28843E-06-1.96643E-19-1.45642E-18
 -1      1325 9.97057E-05-2.99102E-05-2.99177E-05 2.45865E-06-6.69041E-19-6.36479E-19
 -1      1326 1.02101E-04-3.06806E-05-3.06057E-05 1.16090E-06-2.68246E-19-1.55519E-18
 -1      1327 1.03159E-04-3.10355E-05-3.09068E-05 1.11046E-06-4.21404E-19-2.18789E-18
 -1      1328 1.01378E-04-3.04968E-05-3.03725E-05 2.35486E-06-5.57748E-19-1.19212E-18
 -1      1329 1.03847E-04-3.12688E-05-3.10997E-05 7.96776E-07-3.08161E-19-2.05267E-18
 -1      1330 1.04517E-04-3.15059E-05-3.12856E-05 6.96879E-07-2.74783E-19-2.53967E-18
 -1      1331 1.02921E-04-3.10651E-05-3.07768E-05 1.83932E-06-5.29071E-19-1.37948E-18
 -1      1332 1.04887E-04-3.16528E-05-3.13748E-05 1.79016E-07-3.19517E-19-2.45501E-18
 -1      1333 1.04928E-04-3.16904E-05-3.13785E-05 2.53678E-08-1.42040E-19-2.72064E-18
 -1      1334 1.04022E-04-3.15140E-05-3.10407E-05 8.53281E-07-5.07389E-19-1.09006E-18
 -1      1335 1.04819E-04-3.16940E-05-3.13202E-05-6.69694E-07-3.66573E-20-3.14716E-18
 -1      1336 1.04024E-04-3.14540E-05-3.10874E-05-8.65150E-07-2.28914E-19-3.37028E-18
 -1      1337 1.04352E-04-3.17172E-05-3.10800E-05-5.98198E-07-4.00964E-19-1.32897E-18
 -1      1338 1.03327E-04-3.12646E-05-3.08590E-05-1.62672E-06-1.98060E-19-3.51503E-18
 -1      1339 1.01626E-04-3.07080E-05-3.03772E-05-1.82439E-06-8.71551E-20-3.71784E-18
 -1      1340 1.03628E-04-3.15381E-05-3.08375E-05-2.35770E-06-3.28457E-19-2.29897E-18
 -1      1341 1.00355E-04-3.03095E-05-2.99960E-05-2.43977E-06-1.16421E-19-3.61876E-18
 -1      1342 9.79324E-05-2.94837E-05-2.93244E-05-2.57049E-06-3.37549E-19-4.03132E-18
 -1      1343 1.01728E-04-3.08788E-05-3.03121E-05-4.04149E-06-2.47506E-19-2.53209E-18
 -1      1344 9.62955E-05-2.89296E-05-2.88611E-05-2.76781E-06-3.24418E-19-4.22683E-18
 -1      1345 9.36577E-05-2.80027E-05-2.81423E-05-2.75408E-06-4.20133E-19-4.77266E-18
 -1      1346 9.88490E-05-2.97646E-05-2.95847E-05-5.05987E-06-7.25932E-19-2.46097E-18
 -1      1347 9.20729E-05-2.74365E-05-2.77135E-05-2.32914E-06-3.86459E-19-4.67914E-18
 -1      1348 8.99582E-05-2.66766E-05-2.71451E-05-2.13237E-06-4.93264E-19-5.08196E-18
 -1      1349 9.56104E-05-2.84242E-05-2.88197E-05-4.81685E-06-7.39599E-19-2.88574E-18
 -1      1350 8.89409E-05-2.62991E-05-2.68792E-05-1.10849E-06-6.72107E-19-5.41580E-18
 -1      1351 8.80524E-05-2.59732E-05-2.66436E-05-7.73065E-07-7.29501E-19-6.21839E-18
 -1      1352 9.29675E-05-2.72799E-05-2.82275E-05-3.06865E-06-9.20275E-19-2.83233E-18
 -1      1353 8.79892E-05-2.59443E-05-2.66305E-05 5.39254E-07-5.01430E-19-6.65768E-18
 -1      1354 8.86638E-05-2.61837E-05-2.68133E-05 8.92289E-07-3.54576E-19-7.05150E-18
 -1      1355 9.18608E-05-2.67792E-05-2.79928E-05-2.16157E-07-9.89242E-19-3.86500E-18
 -1      1356 8.96043E-05-2.65243E-05-2.70639E-05 2.02867E-06-2.45957E-19-7.42181E-18
 -1      1357 9.16365E-05-2.72483E-05-2.76130E-05 2.26824E-06-2.03804E-19-7.56951E-18
 -1      1358 9.27499E-05-2.71489E-05-2.82008E-05 2.77677E-06-5.16313E-19-5.26053E-18
 -1      1359 9.32651E-05-2.78259E-05-2.80554E-05 2.86205E-06 1.07676E-19-7.80316E-18
 -1      1360 9.60200E-05-2.87908E-05-2.88074E-05 2.92242E-06 1.32723E-19-7.32834E-18
 -1      1361 9.53529E-05-2.82473E-05-2.87993E-05 4.87311E-06-8.04251E-20-5.60678E-18
 -1      1362 9.78345E-05-2.94054E-05-2.93197E-05 2.88063E-06 3.83800E-19-7.36717E-18
 -1      1363 1.00560E-04-3.03339E-05-3.00758E-05 2.78351E-06 3.69735E-19-6.78685E-18
 -1      1364 9.88143E-05-2.96616E-05-2.96258E-05 5.51263E-06 3.92706E-19-5.30975E-18
 -1      1365 1.02109E-04-3.08239E-05-3.05361E-05 2.26909E-06 5.41340E-20-6.40270E-18
 -1      1366 1.04237E-04-3.15221E-05-3.11383E-05 2.08755E-06 7.70006E-20-6.21164E-18
 -1      1367 1.02151E-04-3.09450E-05-3.04717E-05 4.80198E-06 5.61259E-19-5.65684E-18
 -1      1368 1.05263E-04-3.18146E-05-3.14643E-05 1.36834E-06 2.79269E-19-6.29438E-18
 -1      1369 1.06539E-04-3.22103E-05-3.18350E-05 1.17573E-06 2.34443E-19-5.95941E-18
 -1      1370 1.04655E-04-3.18199E-05-3.11586E-05 3.28568E-06 1.02881E-19-5.46664E-18
 -1      1371 1.06986E-04-3.23077E-05-3.19970E-05 4.81590E-07 7.19382E-20-5.56250E-18
 -1      1372 1.07433E-04-3.24245E-05-3.21345E-05 3.24062E-07-1.87770E-19-5.84972E-18
 -1      1373 1.06036E-04-3.22197E-05-3.15848E-05 1.57270E-06 3.05051E-19-4.67708E-18
 -1      1374 1.07382E-04-3.23699E-05-3.21457E-05-2.14978E-07-7.18721E-20-5.34292E-18
 -1      1375 1.07180E-04-3.22796E-05-3.20960E-05-3.20858E-07 2.71395E-19-5.17996E-18
 -1      1376 1.06346E-04-3.22202E-05-3.17313E-05 9.25619E-08-1.92038E-20-3.55076E-18
 -1      1377 1.06775E-04-3.21262E-05-3.19936E-05-6.67620E-07 3.25295E-19-4.80073E-18
 -1      1378 1.06153E-04-3.19092E-05-3.18196E-05-7.24794E-07 2.38357E-19-4.07726E-18
 -1      1379 1.05826E-04-3.19500E-05-3.16393E-05-9.61865E-07 5.39322E-19-2.68446E-18
 -1      1380 1.05539E-04-3.17042E-05-3.16462E-05-8.99503E-07-2.30022E-19-3.98636E-18
 -1      1381 1.04704E-04-3.14284E-05-3.14070E-05-9.19447E-07-9.55509E-20-4.61922E-18
 -1      1382 1.04770E-04-3.15316E-05-3.13782E-05-1.57685E-06 2.88918E-20-2.75241E-18
 -1      1383 1.04003E-04-3.12071E-05-3.12007E-05-9.65705E-07-1.71467E-19-4.93618E-18
 -1      1384 1.03109E-04-3.09203E-05-3.09416E-05-9.61161E-07-5.89566E-19-5.67862E-18
 -1      1385 1.03441E-04-3.10581E-05-3.10202E-05-1.83255E-06-6.27760E-19-3.74796E-18
 -1      1386 1.02406E-04-3.07060E-05-3.07304E-05-9.24306E-07-2.86332E-19-5.14629E-18
 -1      1387 1.01554E-04-3.04377E-05-3.04813E-05-9.05910E-07 1.79875E-19-5.10871E-18
 -1      1388 1.02039E-04-3.05901E-05-3.06255E-05-1.83680E-06-3.33503E-19-3.59575E-18
 -1      1389 1.00904E-04-3.02438E-05-3.02835E-05-8.23145E-07 1.15910E-19-4.97398E-18
 -1      1390 1.00147E-04-3.00093E-05-3.00613E-05-7.98539E-07 3.80871E-19-4.34474E-18
 -1      1391 1.00699E-04-3.01625E-05-3.02373E-05-1.68849E-06 2.75533E-19-3.60221E-18
 -1      1392 9.95786E-05-2.98423E-05-2.98869E-05-6.96486E-07 1.14307E-19-4.47943E-18
 -1      1393 9.89411E-05-2.96470E-05-2.96988E-05-6.70595E-07 3.17505E-20-4.21425E-18
 -1      1394 9.94978E-05-2.97918E-05-2.98822E-05-1.46361E-06 4.51633E-19-2.97105E-18
 -1      1395 9.84642E-05-2.95084E-05-2.95518E-05-5.66371E-07-2.52550E-19-4.25293E-18
 -1      1396 9.79481E-05-2.93520E-05-2.93989E-05-5.42041E-07-1.53665E-19-4.06916E-18
 -1      1397 9.84700E-05-2.94828E-05-2.95740E-05-1.21409E-06-4.19975E-19-2.84007E-18
 -1      1398 9.75615E-05-2.92405E-05-2.92793E-05-4.45488E-07-1.19643E-19-5.74223E-18
 -1      1399 9.71576E-05-2.91192E-05-2.91594E-05-4.24137E-07-6.05560E-19-6.15396E-18
 -1      1400 9.76228E-05-2.92335E-05-2.93171E-05-9.71839E-07-1.13064E-18-3.74162E-18
 -1      1401 9.68534E-05-2.90321E-05-2.90651E-05-3.40050E-07-3.43690E-19-6.00070E-18
 -1      1402 9.65467E-05-2.89409E-05-2.89737E-05-3.22183E-07 2.95646E-19-6.07455E-18
 -1      1403 9.69458E-05-2.90377E-05-2.91099E-05-7.54149E-07-3.74433E-19-4.62977E-18
 -1      1404 9.63139E-05-2.88745E-05-2.89014E-05-2.52121E-07 3.38079E-19-5.69271E-18
 -1      1405 9.60880E-05-2.88079E-05-2.88339E-05-2.37704E-07-1.92623E-19-5.94197E-18
 -1      1406 9.64199E-05-2.88880E-05-2.89476E-05-5.68481E-07 2.59720E-19-3.53135E-18
 -1      1407 9.59145E-05-2.87587E-05-2.87799E-05-1.81314E-07 2.04540E-19-5.79151E-18
 -1      1408 9.57533E-05-2.87117E-05-2.87316E-05-1.70026E-07 8.82550E-19-5.31227E-18
 -1      1409 9.60221E-05-2.87763E-05-2.88239E-05-4.16191E-07 1.62858E-19-3.07086E-18
 -1      1410 9.56277E-05-2.86762E-05-2.86925E-05-1.25946E-07 6.85236E-19-4.56082E-18
 -1      1411 9.55168E-05-2.86442E-05-2.86591E-05-1.17343E-07 3.37778E-19-3.97193E-18
 -1      1412 9.57292E-05-2.86953E-05-2.87322E-05-2.95173E-07 9.11754E-19-2.73140E-18
 -1      1413 9.54287E-05-2.86194E-05-2.86317E-05-8.37817E-08 6.36309E-21-4.07814E-18
 -1      1414 9.53559E-05-2.85989E-05-2.86096E-05-7.73917E-08 4.75453E-19-3.38498E-18
 -1      1415 9.55199E-05-2.86383E-05-2.86661E-05-2.01618E-07 3.34331E-19-1.48918E-18
 -1      1416 9.52966E-05-2.85822E-05-2.85912E-05-5.24766E-08 1.30660E-18-2.42879E-18
 -1      1417 9.52519E-05-2.85699E-05-2.85775E-05-4.78524E-08 1.55029E-18-7.33358E-19
 -1      1418 9.53754E-05-2.85996E-05-2.86201E-05-1.31121E-07 1.38258E-18-1.49665E-18
 -1      1419 9.52141E-05-2.85594E-05-2.85658E-05-2.98273E-08 3.39625E-19-9.38952E-19
 -1      1420 9.51896E-05-2.85530E-05-2.85582E-05-2.65735E-08-6.55045E-19-8.08040E-19
 -1      1421 9.52800E-05-2.85747E-05-2.85894E-05-7.93195E-08 1.29016E-18-1.33302E-18
 -1      1422 9.51675E-05-2.85469E-05-2.85513E-05-1.38931E-08-8.37185E-19-5.23033E-19
 -1      1423 9.51571E-05-2.85445E-05-2.85479E-05-1.16763E-08-7.09500E-19-1.75965E-18
 -1      1424 9.52210E-05-2.85599E-05-2.85701E-05-4.22466E-08-1.00854E-18-1.07980E-18
 -1      1425 9.51461E-05-2.85415E-05-2.85445E-05-3.04378E-09-1.06346E-18-2.35576E-18
 -1      1426 9.51452E-05-2.85419E-05-2.85440E-05-1.59348E-09-6.64014E-19-3.09654E-18
 -1      1427 9.51883E-05-2.85522E-05-2.85590E-05-1.64868E-08-1.57786E-18-1.04228E-18
 -1      1428 9.51418E-05-2.85411E-05-2.85430E-05 4.03568E-09 2.63001E-19-3.58354E-18
 -1      1429 9.51471E-05-2.85431E-05-2.85443E-05 4.93058E-09 1.20889E-19-3.60386E-18
 -1      1430 9.51739E-05-2.85494E-05-2.85538E-05 7.74700E-10-5.78687E-19-2.24116E-18
 -1      1431 9.51488E-05-2.85437E-05-2.85449E-05 8.36196E-09-1.71574E-19-2.24634E-18
 -1      1432 9.51576E-05-2.85468E-05-2.85473E-05 8.85836E-09 3.55929E-19-1.90618E-18
 -1      1433 9.51720E-05-2.85500E-05-2.85526E-05 1.17638E-08 5.12548E-19-1.95643E-18
 -1      1434 9.51624E-05-2.85483E-05-2.85488E-05 1.06761E-08 5.48956E-19-2.28141E-18
 -1      1435 9.51732E-05-2.85518E-05-2.85519E-05 1.08811E-08 7.50515E-19-1.69784E-18
 -1      1436 9.51782E-05-2.85527E-05-2.85540E-05 1.81547E-08 8.94312E-19-2.19240E-18
 -1      1437 9.51796E-05-2.85538E-05-2.85539E-05 1.14622E-08 1.18805E-18-1.58878E-18
 -1      1438 9.51908E-05-2.85574E-05-2.85571E-05 1.14350E-08 1.34982E-18-2.64930E-19
 -1      1439 9.51890E-05-2.85565E-05-2.85568E-05 2.11098E-08 1.35469E-18-1.53510E-18
 -1      1440 9.51977E-05-2.85595E-05-2.85592E-05 1.09551E-08 1.61411E-18-4.35956E-19
 -1      1441 9.52081E-05-2.85629E-05-2.85622E-05 1.07009E-08 6.06311E-19 1.04118E-18
 -1      1442 9.52018E-05-2.85609E-05-2.85604E-05 2.13076E-08 1.86800E-18-4.01247E-19
 -1      1443 9.52145E-05-2.85649E-05-2.85640E-05 9.14072E-09-3.66841E-19 1.49128E-18
 -1      1444 9.52230E-05-2.85678E-05-2.85664E-05 8.59395E-09 4.88611E-19 1.52869E-18
 -1      1445 9.52148E-05-2.85654E-05-2.85639E-05 1.89399E-08 6.95622E-19-5.06896E-20
 -1      1446 9.52281E-05-2.85695E-05-2.85679E-05 5.76825E-09 1.37174E-19 1.85746E-18
 -1      1447 9.52331E-05-2.85711E-05-2.85693E-05 4.93600E-09-2.26241E-20 1.43705E-18
 -1      1448 9.52261E-05-2.85697E-05-2.85669E-05 1.38670E-08 4.21268E-19 1.01256E-18
 -1      1449 9.52368E-05-2.85718E-05-2.85706E-05 3.93822E-10-1.52728E-18 1.52118E-18
 -1      1450 9.52353E-05-2.85731E-05-2.85694E-05 5.06624E-09-8.39426E-19 7.91728E-19
 -1      1451 9.91576E-05-2.91540E-05-3.05177E-05 2.28334E-06 1.16573E-18 1.20917E-17
 -1      1452 1.04277E-04-2.99186E-05-3.26709E-05 3.70884E-06 1.00257E-18 1.38046E-17
 -1      1453 1.04284E-04-2.74201E-05-3.32605E-05 1.13590E-05 1.87512E-18 9.41424E-18
 -1      1454 9.60271E-05-2.86162E-05-2.89588E-05 4.16311E-07 8.46014E-19 9.82841E-18
 -1      1455 9.71849E-05-2.85337E-05-2.96293E-05 7.53502E-07 8.18922E-19 1.10732E-17
 -1      1456 9.95766E-05-2.89706E-05-3.04609E-05 3.48839E-06 1.75871E-18 7.63854E-18
 -1      1457 9.58226E-05-2.86600E-05-2.87665E-05-5.37521E-07 6.50587E-19 8.05629E-18
 -1      1458 9.55489E-05-2.84018E-05-2.87664E-05-3.30248E-07 6.24402E-19 9.03602E-18
 -1      1459 9.74689E-05-2.88670E-05-2.94549E-05 3.19196E-07 1.38913E-18 6.10073E-18
 -1      1460 9.73033E-05-2.91265E-05-2.92021E-05-1.14473E-06 6.32859E-19 6.60037E-18
 -1      1461 9.62453E-05-2.87160E-05-2.88987E-05-9.86689E-07 5.86292E-19 7.49865E-18
 -1      1462 9.75215E-05-2.90399E-05-2.93751E-05-1.34463E-06 1.11303E-18 4.92554E-18
 -1      1463 9.99417E-05-2.99202E-05-3.00041E-05-1.62163E-06 3.08856E-19 5.59751E-18
 -1      1464 9.83267E-05-2.93667E-05-2.95230E-05-1.48003E-06 2.81731E-19 6.19864E-18
 -1      1465 9.89690E-05-2.95237E-05-2.97909E-05-2.46892E-06 8.59004E-19 4.23525E-18
 -1      1466 1.03509E-04-3.09927E-05-3.10812E-05-2.03918E-06 1.02512E-19 5.14710E-18
 -1      1467 1.01425E-04-3.03034E-05-3.04621E-05-1.90185E-06 1.77936E-19 5.34610E-18
 -1      1468 1.01430E-04-3.02798E-05-3.05269E-05-3.36958E-06 3.49302E-19 3.71234E-18
 -1      1469 1.07853E-04-3.23084E-05-3.23814E-05-2.39435E-06 2.68673E-19 4.79844E-18
 -1      1470 1.05362E-04-3.14958E-05-3.16470E-05-2.26423E-06 9.91740E-20 5.01928E-18
 -1      1471 1.04691E-04-3.12763E-05-3.15003E-05-4.13419E-06 2.35962E-19 3.14086E-18
 -1      1472 1.12750E-04-3.38144E-05-3.38292E-05-2.61547E-06 1.96211E-19 4.44724E-18
 -1      1473 1.09970E-04-3.29134E-05-3.30197E-05-2.51436E-06 2.31110E-19 4.80199E-18
 -1      1474 1.08576E-04-3.24856E-05-3.26433E-05-4.71103E-06 3.99118E-19 3.03839E-18
 -1      1475 1.17761E-04-3.53974E-05-3.52780E-05-2.54563E-06 1.61083E-19 3.97325E-18
 -1      1476 1.14955E-04-3.44941E-05-3.44789E-05-2.52287E-06 1.77510E-19 4.25904E-18
 -1      1477 1.12823E-04-3.38642E-05-3.38575E-05-4.90643E-06 4.14987E-19 2.88930E-18
 -1      1478 1.22072E-04-3.68283E-05-3.64689E-05-1.93676E-06 1.06634E-19 3.76558E-18
 -1      1479 1.19745E-04-3.60950E-05-3.58360E-05-2.07513E-06 6.25812E-20 3.83987E-18
 -1      1480 1.16985E-04-3.53163E-05-3.49827E-05-4.36617E-06 2.31511E-19 2.43290E-18
 -1      1481 1.24401E-04-3.77084E-05-3.70261E-05-5.13799E-07-3.02543E-19 3.97123E-18
 -1      1482 1.23353E-04-3.74274E-05-3.67882E-05-9.13129E-07-2.25774E-19 3.73688E-18
 -1      1483 1.20320E-04-3.66386E-05-3.57840E-05-2.62020E-06-2.22531E-19 2.65528E-18
 -1      1484 1.23185E-04-3.74801E-05-3.65511E-05 1.79878E-06 5.72475E-20 4.29319E-18
 -1      1485 1.24377E-04-3.80021E-05-3.69491E-05 1.09424E-06 1.81186E-20 4.22710E-18
 -1      1486 1.21782E-04-3.74492E-05-3.59901E-05 6.79393E-07-3.03185E-19 2.77417E-18
 -1      1487 1.17340E-04-3.56393E-05-3.48676E-05 4.46564E-06-9.79051E-20 5.07997E-18
 -1      1488 1.21377E-04-3.71917E-05-3.59984E-05 3.60617E-06-2.41524E-19 4.49923E-18
 -1      1489 1.20262E-04-3.71783E-05-3.54168E-05 5.20371E-06-1.59560E-19 3.79550E-18
 -1      1490 1.07647E-04-3.22782E-05-3.23343E-05 6.06495E-06 4.98399E-19 4.23718E-18
 -1      1491 1.13896E-04-3.46066E-05-3.39537E-05 5.49071E-06 3.42208E-19 4.92857E-18
 -1      1492 1.15293E-04-3.53071E-05-3.41491E-05 9.28603E-06 1.79346E-19 3.82078E-18
 -1      1493 9.77854E-05-2.86625E-05-2.99324E-05 4.93156E-06 3.33030E-19 3.39470E-18
 -1      1494 1.03833E-04-3.07956E-05-3.14102E-05 5.15864E-06 6.00136E-19 3.92504E-18
 -1      1495 1.08140E-04-3.20603E-05-3.26504E-05 1.00916E-05 8.59646E-19 3.65992E-18
 -1      1496 9.30874E-05-2.69028E-05-2.88255E-05 8.81888E-07 8.38563E-20 2.47821E-18
 -1      1497 9.56899E-05-2.75785E-05-2.94373E-05 1.96899E-06-9.89970E-21 2.45137E-18
 -1      1498 1.02187E-04-2.89873E-05-3.15972E-05 5.69634E-06 5.80747E-19 2.31546E-18
 -1      1499 9.66215E-05-2.82664E-05-2.96255E-05-3.81069E-06 5.06208E-19 1.01284E-18
 -1      1500 9.41226E-05-2.69910E-05-2.90267E-05-2.51754E-06 2.98870E-19 1.72811E-18
 -1      1501 1.01123E-04-2.82555E-05-3.15030E-05-2.21924E-06 7.64024E-19-1.38093E-19
 -1      1502 1.06309E-04-3.18459E-05-3.19311E-05-6.22092E-06 3.76268E-20-4.07846E-19
 -1      1503 1.00166E-04-2.94203E-05-3.04297E-05-5.50843E-06 6.21193E-19 5.91335E-19
 -1      1504 1.05772E-04-3.05434E-05-3.24164E-05-8.85647E-06 1.01485E-18-6.12246E-19
 -1      1505 1.16869E-04-3.55105E-05-3.46450E-05-5.51373E-06-6.30973E-20-1.24514E-19
 -1      1506 1.10319E-04-3.32500E-05-3.29571E-05-5.58475E-06-4.63281E-19-5.84453E-19
 -1      1507 1.13260E-04-3.41778E-05-3.39264E-05-1.06101E-05-2.22809E-19-1.10691E-18
 -1      1508 1.24061E-04-3.77776E-05-3.67115E-05-3.04955E-06 2.03506E-19-3.60360E-19
 -1      1509 1.19617E-04-3.64720E-05-3.54739E-05-3.56673E-06 1.37762E-19-1.53842E-19
 -1      1510 1.19713E-04-3.69728E-05-3.54120E-05-7.85726E-06-5.17617E-20-1.61196E-18
 -1      1511 1.26577E-04-3.83902E-05-3.76049E-05-4.93465E-07 4.42403E-19-9.32226E-19
 -1      1512 1.24979E-04-3.81061E-05-3.70932E-05-1.05635E-06 1.61254E-19-5.16531E-19
 -1      1513 1.22986E-04-3.80498E-05-3.63381E-05-3.32091E-06 3.63774E-19-2.26931E-18
 -1      1514 1.25281E-04-3.78019E-05-3.74031E-05 1.26539E-06 1.10809E-19-1.30802E-18
 -1      1515 1.25966E-04-3.82161E-05-3.75317E-05 8.64475E-07 1.83766E-19-7.75799E-19
 -1      1516 1.22976E-04-3.77040E-05-3.64960E-05 6.59035E-07 3.38813E-19-1.58468E-18
 -1      1517 1.21751E-04-3.65894E-05-3.64825E-05 2.12575E-06 3.09452E-19-1.69327E-18
 -1      1518 1.23744E-04-3.73379E-05-3.70109E-05 1.91439E-06 2.15388E-19-1.52437E-18
 -1      1519 1.20657E-04-3.65988E-05-3.59952E-05 3.13493E-06 5.08273E-19-2.97164E-18
 -1      1520 1.17346E-04-3.51808E-05-3.52356E-05 2.33802E-06-2.98150E-19-6.41945E-19
 -1      1521 1.19825E-04-3.60082E-05-3.59324E-05 2.26566E-06-2.99866E-19-1.53991E-18
 -1      1522 1.17153E-04-3.52484E-05-3.50872E-05 4.19604E-06-2.29258E-19-2.46072E-18
 -1      1523 1.12945E-04-3.38228E-05-3.39434E-05 2.18717E-06-3.62684E-19 1.22687E-19
 -1      1524 1.15395E-04-3.45919E-05-3.46517E-05 2.19507E-06 6.86874E-20 2.35713E-19
 -1      1525 1.13316E-04-3.39306E-05-3.40172E-05 4.30554E-06-6.69746E-19-1.00523E-18
 -1      1526 1.08999E-04-3.26300E-05-3.27627E-05 1.87917E-06 3.51601E-19-9.46030E-20
 -1      1527 1.11167E-04-3.32848E-05-3.33995E-05 1.92461E-06-4.34104E-20 7.12964E-20
 -1      1528 1.09666E-04-3.27646E-05-3.29577E-05 3.90812E-06-8.73999E-20 3.58070E-20
 -1      1529 1.05677E-04-3.16383E-05-3.17587E-05 1.53399E-06 1.85828E-19-6.88942E-19
 -1      1530 1.07478E-04-3.21680E-05-3.22926E-05 1.59169E-06 6.32778E-19-2.33199E-19
 -1      1531 1.06458E-04-3.17862E-05-3.20042E-05 3.30892E-06 6.24826E-19 4.22193E-21
 -1      1532 1.02993E-04-3.08430E-05-3.09431E-05 1.21067E-06-3.47919E-19 1.49786E-19
 -1      1533 1.04430E-04-3.12574E-05-3.13714E-05 1.26772E-06-6.92893E-19-7.05241E-19
 -1      1534 1.03775E-04-3.09921E-05-3.11957E-05 2.68116E-06-6.57671E-19 1.24549E-18
 -1      1535 1.00886E-04-3.02213E-05-3.03007E-05 9.32548E-07 3.02164E-19 6.96883E-19
 -1      1536 1.02001E-04-3.05380E-05-3.06342E-05 9.83339E-07 1.84918E-19 7.46415E-19
 -1      1537 1.01608E-04-3.03627E-05-3.05368E-05 2.10799E-06-4.99422E-19 9.40494E-19
 -1      1538 9.92666E-05-2.97451E-05-2.98064E-05 7.04526E-07 2.66923E-20-9.19277E-19
 -1      1539 1.00113E-04-2.99826E-05-3.00602E-05 7.47291E-07 5.30352E-19-1.75015E-19
 -1      1540 9.99005E-05-2.98730E-05-3.00149E-05 1.62037E-06 8.65201E-19 4.15945E-19
 -1      1541 9.80449E-05-2.93867E-05-2.94330E-05 5.23152E-07-8.89567E-19 3.01550E-19
 -1      1542 9.86762E-05-2.95617E-05-2.96227E-05 5.57968E-07-6.16589E-19-1.02665E-18
 -1      1543 9.85828E-05-2.94983E-05-2.96104E-05 1.22253E-06-4.60988E-19 5.78466E-19
 -1      1544 9.71387E-05-2.91214E-05-2.91559E-05 3.81898E-07-2.69936E-19 2.51584E-18
 -1      1545 9.76016E-05-2.92482E-05-2.92952E-05 4.09607E-07-8.13567E-19 6.83132E-19
 -1      1546 9.75835E-05-2.92159E-05-2.93028E-05 9.06738E-07-1.36246E-18 1.19419E-18
 -1      1547 9.64781E-05-2.89283E-05-2.89537E-05 2.73683E-07 3.72321E-19 2.21132E-18
 -1      1548 9.68114E-05-2.90185E-05-2.90542E-05 2.95363E-07 1.75327E-19 2.60851E-18
 -1      1549 9.68383E-05-2.90066E-05-2.90728E-05 6.61002E-07-3.97374E-19 1.24044E-18
 -1      1550 9.60056E-05-2.87906E-05-2.88090E-05 1.91954E-07-9.23961E-22 9.26812E-19
 -1      1551 9.62407E-05-2.88533E-05-2.88801E-05 2.08679E-07 4.79232E-19 2.06760E-18
 -1      1552 9.62920E-05-2.88540E-05-2.89038E-05 4.72812E-07 5.24815E-19 1.33667E-18
 -1      1553 9.56752E-05-2.86945E-05-2.87077E-05 1.31068E-07 1.31200E-18-1.70273E-18
 -1      1554 9.58370E-05-2.87369E-05-2.87567E-05 1.43805E-07 7.95301E-19 3.02640E-20
 -1      1555 9.58992E-05-2.87449E-05-2.87819E-05 3.30727E-07 1.77138E-18 2.02629E-19
 -1      1556 9.54507E-05-2.86295E-05-2.86387E-05 8.63540E-08 4.36849E-19-2.76644E-18
 -1      1557 9.55584E-05-2.86570E-05-2.86714E-05 9.59301E-08 4.55226E-19-2.40414E-18
 -1      1558 9.56228E-05-2.86688E-05-2.86958E-05 2.24934E-07 1.01978E-18-1.32600E-18
 -1      1559 9.53038E-05-2.85871E-05-2.85934E-05 5.40302E-08-4.37175E-19-1.76665E-18
 -1      1560 9.53723E-05-2.86040E-05-2.86144E-05 6.11346E-08-5.68542E-19-2.70606E-18
 -1      1561 9.54338E-05-2.86172E-05-2.86367E-05 1.47306E-07-5.25682E-19-1.01207E-18
 -1      1562 9.52130E-05-2.85612E-05-2.85654E-05 3.10854E-08 6.14342E-19-3.06723E-18
 -1      1563 9.52536E-05-2.85705E-05-2.85779E-05 3.62810E-08 3.03031E-19-2.14829E-18
 -1      1564 9.53092E-05-2.85837E-05-2.85974E-05 9.12601E-08 4.00975E-19-2.89342E-18
 -1      1565 9.51620E-05-2.85468E-05-2.85495E-05 1.51480E-08 4.82411E-19-2.87183E-18
 -1      1566 9.51830E-05-2.85510E-05-2.85560E-05 1.88891E-08 4.27619E-20-2.84458E-18
 -1      1567 9.52314E-05-2.85632E-05-2.85727E-05 5.15463E-08 7.07370E-19-2.59699E-18
 -1      1568 9.51385E-05-2.85404E-05-2.85420E-05 4.37317E-09-1.32085E-18-2.02352E-18
 -1      1569 9.51462E-05-2.85412E-05-2.85446E-05 7.02123E-09-9.92218E-20-2.41182E-18
 -1      1570 9.51869E-05-2.85520E-05-2.85583E-05 2.40281E-08-2.58303E-19-1.00169E-18
 -1      1571 9.51335E-05-2.85394E-05-2.85402E-05-2.65382E-09 5.35232E-19-5.72697E-19
 -1      1572 9.51324E-05-2.85379E-05-2.85401E-05-8.15452E-10-4.63799E-19-1.52705E-18
 -1      1573 9.51656E-05-2.85471E-05-2.85512E-05 5.49127E-09-3.81543E-19-6.79072E-19
 -1      1574 9.51405E-05-2.85418E-05-2.85422E-05-6.99416E-09-1.61680E-20-2.82082E-18
 -1      1575 9.51339E-05-2.85390E-05-2.85404E-05-5.74889E-09 8.02901E-19-7.47448E-19
 -1      1576 9.51601E-05-2.85465E-05-2.85490E-05-6.51954E-09 8.13376E-19-3.35339E-19
 -1      1577 9.51548E-05-2.85463E-05-2.85463E-05-9.41670E-09 9.93223E-19-2.69073E-18
 -1      1578 9.51450E-05-2.85428E-05-2.85435E-05-8.60493E-09 3.36988E-19-2.63972E-18
 -1      1579 9.51648E-05-2.85486E-05-2.85500E-05-1.38308E-08 5.06336E-19-7.12438E-19
 -1      1580 9.51729E-05-2.85519E-05-2.85517E-05-1.04421E-08 3.14297E-19-3.62926E-18
 -1      1581 9.51616E-05-2.85481E-05-2.85484E-05-9.95663E-09 1.66710E-19-3.24111E-18
 -1      1582 9.51757E-05-2.85524E-05-2.85530E-05-1.77447E-08 1.02944E-18-1.94387E-18
 -1      1583 9.51922E-05-2.85579E-05-2.85574E-05-1.03532E-08 4.82816E-19-3.45870E-18
 -1      1584 9.51807E-05-2.85541E-05-2.85541E-05-1.01456E-08 8.67728E-19-2.32612E-18
 -1      1585 9.51898E-05-2.85571E-05-2.85570E-05-1.90986E-08 5.68314E-19-1.30185E-18
 -1      1586 9.52105E-05-2.85635E-05-2.85628E-05-9.20468E-09-1.16527E-18-3.66323E-18
 -1      1587 9.51999E-05-2.85602E-05-2.85597E-05-9.28302E-09-3.62165E-19-3.57013E-18
 -1      1588 9.52047E-05-2.85619E-05-2.85612E-05-1.82847E-08-5.11255E-19 1.04662E-18
 -1      1589 9.52254E-05-2.85683E-05-2.85671E-05-6.81628E-09-9.25895E-19-2.09799E-18
 -1      1590 9.52170E-05-2.85657E-05-2.85647E-05-7.29185E-09-1.02424E-18-3.50266E-18
 -1      1591 9.52185E-05-2.85666E-05-2.85651E-05-1.53052E-08-1.36188E-18 1.72280E-18
 -1      1592 9.52346E-05-2.85713E-05-2.85699E-05-3.10271E-09 1.03222E-19-7.50881E-19
 -1      1593 9.52301E-05-2.85701E-05-2.85684E-05-3.97141E-09-2.47469E-19-2.46263E-18
 -1      1594 9.52295E-05-2.85705E-05-2.85680E-05-9.85105E-09 4.79241E-20 4.41354E-19
 -1      1595 9.52368E-05-2.85719E-05-2.85706E-05-5.67699E-10-4.44505E-19-3.38464E-19
 -1      1596 9.52390E-05-2.85804E-05-2.85679E-05-5.88302E-09 2.58236E-19-1.21393E-18
 -1      1597 9.52373E-05-2.85756E-05-2.85693E-05-4.89056E-09 7.56034E-19 1.18203E-18
 -1      1598 9.52434E-05-2.85930E-05-2.85644E-05-8.45858E-09 1.49162E-18 7.83352E-19
 -1      1599 9.52408E-05-2.85854E-05-2.85665E-05-8.11637E-09 1.38754E-18-7.00765E-20
 -1      1600 9.52390E-05-2.85827E-05-2.85669E-05-1.33996E-08 1.43510E-18 1.83964E-19
 -1      1601 9.52481E-05-2.86073E-05-2.85604E-05-9.09713E-09-7.37201E-19-8.79381E-19
 -1      1602 9.52453E-05-2.85988E-05-2.85628E-05-9.12809E-09 9.86113E-19-1.12059E-18
 -1      1603 9.52434E-05-2.85934E-05-2.85642E-05-1.68167E-08 1.29044E-18-7.90147E-19
 -1      1604 9.52525E-05-2.86210E-05-2.85564E-05-8.32081E-09 2.17713E-19 1.60256E-18
 -1      1605 9.52499E-05-2.86130E-05-2.85587E-05-8.58566E-09-1.46979E-18 2.08746E-18
 -1      1606 9.52475E-05-2.86048E-05-2.85612E-05-1.69413E-08-1.36125E-19 1.27153E-20
 -1      1607 9.52561E-05-2.86323E-05-2.85531E-05-6.68245E-09 9.11794E-19 7.44589E-19
 -1      1608 9.52540E-05-2.86259E-05-2.85549E-05-7.06421E-09 6.94805E-19 5.43641E-19
 -1      1609 9.52511E-05-2.86153E-05-2.85583E-05-1.47676E-08-9.26771E-19 1.28647E-18
 -1      1610 9.52586E-05-2.86406E-05-2.85506E-05-4.52271E-09 3.35965E-18 1.45378E-18
 -1      1611 9.52572E-05-2.86361E-05-2.85519E-05-4.97463E-09 1.88087E-18 1.48172E-18
 -1      1612 9.52539E-05-2.86238E-05-2.85559E-05-1.12058E-08 8.29306E-19 1.91929E-18
 -1      1613 9.52600E-05-2.86452E-05-2.85492E-05-2.12817E-09 2.03339E-18-1.48111E-18
 -1      1614 9.52593E-05-2.86429E-05-2.85499E-05-2.60276E-09 3.68297E-18 9.49889E-20
 -1      1615 9.52559E-05-2.86298E-05-2.85542E-05-6.85798E-09 4.71365E-19 7.81646E-19
 -1      1616 9.52602E-05-2.86458E-05-2.85490E-05 3.42041E-10 2.16507E-18-1.67746E-19
 -1      1617 9.52602E-05-2.86459E-05-2.85490E-05-1.35149E-10 2.49461E-18-6.08103E-19
 -1      1618 9.52568E-05-2.86328E-05-2.85533E-05-2.17948E-09 1.51432E-18-1.08258E-18
 -1      1619 9.52592E-05-2.86425E-05-2.85500E-05 2.78506E-09 1.04612E-18 2.40485E-19
 -1      1620 9.52599E-05-2.86449E-05-2.85493E-05 2.31887E-09 1.11880E-18 7.88132E-20
 -1      1621 9.52567E-05-2.86326E-05-2.85533E-05 2.56326E-09 1.52257E-18-8.95497E-19
 -1      1622 9.52570E-05-2.86355E-05-2.85521E-05 5.09740E-09-1.84146E-18-2.76605E-18
 -1      1623 9.52584E-05-2.86401E-05-2.85508E-05 4.66096E-09 1.05349E-18-2.66098E-18
 -1      1624 9.52557E-05-2.86294E-05-2.85543E-05 7.16855E-09-3.47976E-19-2.01085E-18
 -1      1625 9.52538E-05-2.86252E-05-2.85551E-05 7.08627E-09-3.45828E-18-1.17154E-18
 -1      1626 9.52558E-05-2.86317E-05-2.85533E-05 6.72398E-09-1.27610E-18-1.89895E-18
 -1      1627 9.52538E-05-2.86233E-05-2.85560E-05 1.13574E-08-6.00191E-19-3.63627E-18
 -1      1628 9.52497E-05-2.86123E-05-2.85589E-05 8.54770E-09-3.81470E-18 9.89492E-20
 -1      1629 9.52523E-05-2.86202E-05-2.85566E-05 8.29916E-09-3.58801E-18 1.87080E-19
 -1      1630 9.52509E-05-2.86147E-05-2.85585E-05 1.47714E-08-9.45296E-19-7.16323E-19
 -1      1631 9.52451E-05-2.85982E-05-2.85630E-05 9.05699E-09-3.12392E-18 2.49231E-19
 -1      1632 9.52479E-05-2.86066E-05-2.85606E-05 9.01003E-09-4.30455E-18 4.58625E-19
 -1      1633 9.52473E-05-2.86042E-05-2.85614E-05 1.68188E-08-1.51531E-18-8.88012E-20
 -1      1634 9.52407E-05-2.85852E-05-2.85667E-05 7.94694E-09-2.30394E-18-5.16504E-20
 -1      1635 9.52433E-05-2.85926E-05-2.85646E-05 8.28150E-09-3.24563E-18 7.54715E-19
 -1      1636 9.52432E-05-2.85929E-05-2.85644E-05 1.65876E-08-1.96934E-18 2.23121E-19
 -1      1637 9.52371E-05-2.85764E-05-2.85690E-05 6.73114E-09-2.20678E-18 3.35117E-21
 -1      1638 9.52387E-05-2.85811E-05-2.85676E-05 8.17460E-09-1.48312E-18-8.81672E-19
 -1      1639 9.52388E-05-2.85829E-05-2.85666E-05 1.51815E-08-1.65587E-18 5.32808E-19
 -1      1640 9.52334E-05-2.85751E-05-2.85678E-05 1.27831E-08 1.10270E-19 3.82162E-20
 -1      1641 1.99640E-05-6.62607E-05 1.41815E-05-6.98290E-06 8.50506E-18 3.99355E-18
 -1      1642 2.30222E-05-7.47271E-05 1.59452E-05 1.05095E-06 4.23014E-18 2.87822E-18
 -1      1643 2.08975E-05-4.04898E-05 4.24814E-06 3.17713E-06 1.16840E-17 5.73081E-18
 -1      1644 2.49095E-05-6.21449E-05 1.02808E-05-1.49589E-07 9.77645E-18 3.87528E-18
 -1      1645 3.33659E-05-1.30213E-05-1.10668E-05 2.51314E-05 1.36838E-17 1.09055E-17
 -1      1646 2.84003E-05-3.41307E-05-2.40680E-06 8.04629E-06 1.33255E-17 7.86555E-18
 -1      1647 7.64609E-05-5.23455E-06-3.00945E-05 5.68159E-05 1.21380E-17 1.34619E-17
 -1      1648 5.22989E-05-1.16977E-05-2.01115E-05 3.39549E-05 1.28698E-17 1.14697E-17
 -1      1649 1.42582E-04-1.79179E-05-5.00438E-05 7.70134E-05 9.35633E-18 1.21600E-17
 -1      1650 9.84056E-05-5.10973E-06-3.98595E-05 6.30794E-05 1.16823E-17 1.31756E-17
 -1      1651 2.11045E-04-4.56952E-05-6.56722E-05 6.07702E-05 5.71663E-18 5.89874E-18
 -1      1652 1.67893E-04-2.52466E-05-5.81864E-05 7.00257E-05 7.95025E-18 9.71801E-18
 -1      1653 2.50933E-04-6.18403E-05-7.46811E-05 1.70268E-05 3.27166E-18-5.62642E-19
 -1      1654 2.25199E-04-4.82372E-05-7.08280E-05 4.74685E-05 4.98341E-18 4.13352E-18
 -1      1655 2.55503E-04-6.29176E-05-7.57041E-05-3.09224E-05 3.73436E-18-7.21376E-18
 -1      1656 2.62843E-04-6.72928E-05-7.67980E-05 4.29783E-06 2.45767E-18-2.71792E-18
 -1      1657 2.06711E-04-3.94557E-05-6.70330E-05-6.54070E-05 6.46583E-18-1.21973E-17
 -1      1658 2.43439E-04-5.85743E-05-7.24423E-05-4.36349E-05 4.79929E-18-8.76086E-18
 -1      1659 1.37080E-04-1.65886E-05-5.00671E-05-6.62110E-05 8.25772E-18-1.24336E-17
 -1      1660 1.84477E-04-3.53730E-05-5.94566E-05-6.81263E-05 6.39298E-18-1.25818E-17
 -1      1661 7.39320E-05-3.93016E-06-3.12136E-05-5.17311E-05 1.03728E-17-1.15739E-17
 -1      1662 1.08587E-04-8.28148E-06-4.10983E-05-7.10607E-05 9.69006E-18-1.30324E-17
 -1      1663 4.09444E-05-2.20249E-05-1.17834E-05-2.20673E-05 9.03107E-18-7.79355E-18
 -1      1664 5.69695E-05-7.87506E-06-2.17317E-05-4.45450E-05 9.83066E-18-1.04964E-17
 -1      1665 2.51487E-05-4.80425E-05 4.14734E-06-9.69573E-07 6.15454E-18-4.40330E-18
 -1      1666 2.41327E-05-2.46614E-05-3.23283E-06-1.20136E-05 8.68378E-18-6.63735E-18
 -1      1667 2.41611E-05-6.96930E-05 1.35174E-05 6.04272E-07-1.22820E-20-2.76937E-18
 -1      1668 1.95784E-05-5.28343E-05 9.29203E-06 3.18889E-06 4.45455E-18-4.22818E-18
 -1      1669 2.15387E-05-7.12576E-05 1.55989E-05-3.12987E-06-6.01266E-18-2.99701E-18
 -1      1670 2.08497E-05-6.97657E-05 1.53593E-05 5.60475E-06-1.43720E-18-2.68658E-18
 -1      1671 1.89595E-05-5.71521E-05 1.09534E-05-4.75429E-06-1.11012E-17-4.79738E-18
 -1      1672 2.42137E-05-7.37047E-05 1.47198E-05 4.74208E-07-7.93289E-18-2.98177E-18
 -1      1673 2.56788E-05-2.67693E-05-2.55002E-06 1.53300E-05-1.24133E-17-7.39693E-18
 -1      1674 2.67326E-05-5.07062E-05 5.03811E-06 4.90686E-06-1.09894E-17-5.32445E-18
 -1      1675 5.15093E-05-6.18481E-06-2.00786E-05 4.34726E-05-1.19432E-17-9.68752E-18
 -1      1676 3.80615E-05-2.13168E-05-1.06244E-05 2.22861E-05-1.26293E-17-8.17980E-18
 -1      1677 1.11893E-04-1.12339E-05-4.09519E-05 6.93795E-05-8.57367E-18-9.06833E-18
 -1      1678 7.54083E-05-7.65562E-06-2.99397E-05 4.89173E-05-1.08928E-17-9.21572E-18
 -1      1679 1.77994E-04-2.95419E-05-5.88935E-05 7.64690E-05-5.24356E-18-8.26111E-18
 -1      1680 1.33203E-04-1.02383E-05-5.05672E-05 7.54135E-05-8.04978E-18-9.70192E-18
 -1      1681 2.31791E-04-5.43184E-05-7.03235E-05 4.41145E-05-3.69560E-18-2.24083E-18
 -1      1682 1.97948E-04-3.61785E-05-6.50656E-05 6.54250E-05-4.51770E-18-6.06814E-18
 -1      1683 2.49886E-04-6.20742E-05-7.45338E-05-6.39186E-06-3.36399E-18 5.21624E-18
 -1      1684 2.42103E-04-5.75875E-05-7.34473E-05 2.93929E-05-3.59015E-18-1.33831E-19
 -1      1685 2.21238E-04-4.71370E-05-6.98895E-05-5.10048E-05-5.59963E-18 1.10529E-17
 -1      1686 2.45586E-04-6.05242E-05-7.33321E-05-2.14928E-05-3.82181E-18 6.97299E-18
 -1      1687 1.61301E-04-2.24119E-05-5.69045E-05-6.83925E-05-9.48550E-18 1.40362E-17
 -1      1688 2.03656E-04-4.24228E-05-6.43203E-05-5.91648E-05-6.69617E-18 1.15027E-17
 -1      1689 9.81037E-05-3.57292E-06-4.01307E-05-6.45718E-05-1.25242E-17 1.54880E-17
 -1      1690 1.38002E-04-1.58732E-05-4.92797E-05-7.62901E-05-1.07599E-17 1.58116E-17
 -1      1691 5.11993E-05-7.62203E-06-2.09261E-05-3.72121E-05-1.26123E-17 1.20617E-17
 -1      1692 7.59562E-05-2.02586E-06-3.09254E-05-6.00110E-05-1.30638E-17 1.49103E-17
 -1      1693 2.79011E-05-3.05048E-05-3.40746E-06-1.08909E-05-1.00602E-17 7.50471E-18
 -1      1694 3.31936E-05-9.78748E-06-1.19316E-05-2.84094E-05-1.23946E-17 1.09780E-17
 -1      1695 2.42820E-05-6.02885E-05 9.52076E-06-2.82919E-07-3.99969E-18 4.01724E-18
 -1      1696 1.99471E-05-3.76612E-05 3.47786E-06-4.20845E-06-8.27805E-18 6.44444E-18
 -1      1697 2.36644E-05-7.58875E-05 1.59609E-05-3.26657E-06 2.85831E-18 2.86551E-18
 -1      1698 2.02171E-05-6.52885E-05 1.35901E-05 4.75487E-06-2.39922E-18 3.66045E-18
 -1      1699 1.16342E-04-3.39625E-05-3.46596E-05 4.40791E-05 7.76475E-18 7.83929E-18
 -1      1700 7.30266E-05-3.70991E-05-1.68849E-05 3.75983E-05 8.69225E-18 8.58807E-18
 -1      1701 9.52362E-05-2.85729E-05-2.85698E-05-3.14881E-09-5.26924E-19 1.30670E-18
 -1      1702 9.52353E-05-2.85750E-05-2.85686E-05-8.42865E-09 4.88903E-19 2.03605E-18
 -1      1703 1.88652E-05-4.63285E-05 8.04400E-06 1.45413E-05 4.27498E-18 4.98352E-18
 -1      1704 3.97833E-05-4.30708E-05-1.79091E-06 2.65365E-05 7.07527E-18 5.81716E-18
 -1      1705 1.14508E-05-4.93247E-05 1.17963E-05-1.69936E-06 1.84050E-18 5.72340E-18
 -1      1706 1.62179E-04-3.38033E-05-5.18431E-05 3.94076E-05 7.73532E-18 4.88907E-18
 -1      1707 1.93456E-04-3.31167E-05-6.43265E-05 2.05677E-05 6.85313E-18 1.83806E-18
 -1      1708 2.11832E-04-3.38633E-05-7.11008E-05 2.19502E-06 5.67089E-18-6.94144E-19
 -1      1709 2.12909E-04-3.64103E-05-7.00537E-05-1.64621E-05 5.96481E-18-4.20255E-18
 -1      1710 1.82915E-04-3.57040E-05-5.96743E-05-2.78677E-05 5.19464E-18-5.77422E-18
 -1      1711 1.43747E-04-3.51742E-05-4.43913E-05-4.10894E-05 5.15420E-18-7.51996E-18
 -1      1712 9.74199E-05-3.60387E-05-2.66024E-05-4.24970E-05 4.75524E-18-7.31836E-18
 -1      1713 5.81145E-05-4.06269E-05-9.69340E-06-3.41303E-05 3.77184E-18-6.15412E-18
 -1      1714 2.87337E-05-4.57616E-05 3.45281E-06-2.08439E-05 1.45605E-18-5.42630E-18
 -1      1715 1.37077E-05-4.62596E-05 1.00031E-05-8.19816E-06-1.16594E-18-5.31810E-18
 -1      1716 1.24979E-05-4.78520E-05 1.09700E-05 6.62197E-06-3.44615E-18-4.82343E-18
 -1      1717 2.70065E-05-4.54540E-05 4.40532E-06 2.28324E-05-5.40958E-18-4.84842E-18
 -1      1718 5.56789E-05-3.99464E-05-8.68033E-06 3.63597E-05-6.17826E-18-4.97378E-18
 -1      1719 9.68361E-05-3.67400E-05-2.57490E-05 4.34194E-05-6.28710E-18-4.27413E-18
 -1      1720 1.38783E-04-3.28269E-05-4.38400E-05 4.30645E-05-6.07238E-18-4.33427E-18
 -1      1721 1.77928E-04-3.08153E-05-5.91097E-05 3.68372E-05-5.38379E-18-2.89939E-18
 -1      1722 2.00441E-04-3.09474E-05-6.78240E-05 1.56428E-05-5.73441E-18 7.47930E-19
 -1      1723 2.06104E-04-3.18968E-05-6.96575E-05-5.56458E-06-6.10457E-18 4.26174E-18
 -1      1724 1.87135E-04-3.04202E-05-6.31671E-05-2.25433E-05-6.62803E-18 6.31505E-18
 -1      1725 1.56459E-04-3.09723E-05-5.09335E-05-3.87046E-05-7.35150E-18 8.01463E-18
 -1      1726 1.14004E-04-3.02989E-05-3.48659E-05-4.62902E-05-7.53521E-18 1.00772E-17
 -1      1727 7.17870E-05-3.32319E-05-1.76065E-05-4.04826E-05-7.03461E-18 9.39444E-18
 -1      1728 3.91622E-05-4.05295E-05-2.39190E-06-2.84954E-05-4.64005E-18 7.36956E-18
 -1      1729 1.92144E-05-4.73473E-05 7.96501E-06-1.61797E-05-1.14011E-18 6.44274E-18
 -1      1730 1.07343E-04-2.36691E-05-3.59536E-05-1.56343E-05-1.80926E-18 5.64569E-18
 -1      1731 9.01909E-05-1.07485E-05-3.41769E-05-1.09149E-05-1.96165E-18-2.78316E-18
 -1      1732 9.18765E-05-1.19632E-05-3.43801E-05-1.27775E-05-2.35028E-18-2.18648E-18
 -1      1733 9.41819E-05-1.44137E-05-3.43498E-05-1.38155E-05-2.43078E-18-1.39480E-18
 -1      1734 9.61030E-05-1.64924E-05-3.46000E-05-1.56119E-05-2.68955E-18-2.42251E-19
 -1      1735 9.50451E-05-1.67846E-05-3.35501E-05-1.13843E-05-2.53967E-18-1.61055E-18
 -1      1736 8.54650E-05-6.91569E-06-3.37379E-05-5.66943E-06-7.89183E-19-3.66952E-18
 -1      1737 8.63031E-05-7.38616E-06-3.38707E-05-6.92795E-06-1.08188E-18-3.60897E-18
 -1      1738 8.39967E-05-5.83998E-06-3.35554E-05-3.54927E-06-2.78333E-19-3.68580E-18
 -1      1739 8.46198E-05-6.17247E-06-3.36585E-05-4.62822E-06-5.09371E-19-3.71306E-18
 -1      1740 8.64177E-05-8.69297E-06-3.33373E-05-4.71626E-06-7.22402E-19-3.53369E-18
 -1      1741 8.30056E-05-5.12729E-06-3.34261E-05-1.72254E-06 2.56845E-19-3.50920E-18
 -1      1742 8.34072E-05-5.33725E-06-3.34931E-05-2.65813E-06 2.09211E-20-3.62713E-18
 -1      1743 8.48906E-05-7.46305E-06-3.32083E-05-2.81678E-06-1.53351E-19-3.49588E-18
 -1      1744 8.25089E-05-4.75514E-06-3.33657E-05-9.11139E-08 7.66615E-19-3.35383E-18
 -1      1745 8.26755E-05-4.84541E-06-3.33910E-05-9.42360E-07 5.59823E-19-3.44516E-18
 -1      1746 8.39079E-05-6.68603E-06-3.31179E-05-1.16911E-06 4.30113E-19-3.31339E-18
 -1      1747 8.25434E-05-4.73588E-06-3.33842E-05 1.46207E-06 1.23271E-18-3.22294E-18
 -1      1748 8.24571E-05-4.69976E-06-3.33642E-05 6.31020E-07 1.03454E-18-3.32859E-18
 -1      1749 8.34968E-05-6.35059E-06-3.30839E-05 3.11373E-07 9.77864E-19-3.19536E-18
 -1      1750 8.31406E-05-5.09790E-06-3.34835E-05 3.07049E-06 1.66053E-18-2.98604E-18
 -1      1751 8.27888E-05-4.92388E-06-3.34180E-05 2.18945E-06 1.45528E-18-3.10659E-18
 -1      1752 8.36990E-05-6.48006E-06-3.31146E-05 1.73581E-06 1.44445E-18-3.06548E-18
 -1      1753 8.42940E-05-5.86154E-06-3.36530E-05 4.84490E-06 2.08597E-18-2.59489E-18
 -1      1754 8.36838E-05-5.54326E-06-3.35477E-05 3.85739E-06 1.85616E-18-2.86267E-18
 -1      1755 8.45387E-05-7.10624E-06-3.32065E-05 3.21788E-06 1.91103E-18-2.79145E-18
 -1      1756 8.60697E-05-7.12176E-06-3.38839E-05 6.98885E-06 2.60214E-18-1.90814E-18
 -1      1757 8.51644E-05-6.61394E-06-3.37401E-05 5.78061E-06 2.33309E-18-2.32099E-18
 -1      1758 8.60388E-05-8.28546E-06-3.33460E-05 4.89495E-06 2.36435E-18-2.26966E-18
 -1      1759 8.85519E-05-9.03752E-06-3.41539E-05 9.59800E-06 2.97973E-18-8.81126E-19
 -1      1760 8.72999E-05-8.25859E-06-3.39763E-05 8.09941E-06 2.75512E-18-1.47191E-18
 -1      1761 8.82628E-05-1.01390E-05-3.35054E-05 6.87553E-06 2.84184E-18-1.50952E-18
 -1      1762 9.20657E-05-1.20674E-05-3.44300E-05 1.26701E-05 3.21068E-18 7.65083E-19
 -1      1763 9.02558E-05-1.07502E-05-3.42194E-05 1.08398E-05 3.05173E-18-2.33516E-19
 -1      1764 9.13324E-05-1.28982E-05-3.36292E-05 9.13223E-06 3.16947E-18-3.66474E-19
 -1      1765 9.78612E-05-1.76761E-05-3.45533E-05 1.53999E-05 2.94353E-18 3.81064E-18
 -1      1766 9.46599E-05-1.48430E-05-3.43848E-05 1.37212E-05 3.03837E-18 1.98269E-18
 -1      1767 9.56205E-05-1.71898E-05-3.36012E-05 1.11844E-05 3.22895E-18 1.40790E-18
 -1      1768 1.03907E-04-2.57743E-05-3.39043E-05 1.26525E-05 2.31992E-18 7.42615E-18
 -1      1769 1.00134E-04-2.03333E-05-3.42022E-05 1.49017E-05 2.65307E-18 5.05525E-18
 -1      1770 9.95757E-05-2.25208E-05-3.30882E-05 1.09081E-05 3.00215E-18 3.71323E-18
 -1      1771 1.01224E-04-2.69108E-05-3.20487E-05 7.66253E-06 2.44575E-18 6.64169E-18
 -1      1772 1.01933E-04-2.02490E-05-3.46985E-05-1.71739E-05-2.41235E-18 1.93293E-18
 -1      1773 9.88024E-05-2.82518E-05-3.02511E-05 2.16685E-06 2.01638E-18 5.27061E-18
 -1      1774 1.00611E-04-2.82090E-05-3.10641E-05 4.57740E-06 2.07944E-18 6.04168E-18
 -1      1775 1.00310E-04-2.64041E-05-3.16741E-05 6.55923E-06 2.50616E-18 4.34085E-18
 -1      1776 1.01732E-04-2.31952E-05-3.33831E-05-1.26016E-05-2.58546E-18 1.08748E-18
 -1      1777 9.97162E-05-2.77710E-05-3.07170E-05-3.85939E-06-2.04529E-18 7.80611E-19
 -1      1778 9.84193E-05-2.79460E-05-3.01652E-05-2.01163E-06-1.72060E-18 2.83511E-19
 -1      1779 9.79646E-05-2.82298E-05-2.97892E-05-4.22926E-07-1.53650E-18 2.94073E-19
 -1      1780 9.77535E-05-2.84623E-05-2.96519E-05 5.14881E-07-1.30897E-18-9.90499E-20
 -1      1781 9.85337E-05-2.73353E-05-3.05437E-05-2.01324E-06-1.89829E-18-4.29542E-19
 -1      1782 9.76638E-05-2.86343E-05-2.95249E-05 1.47630E-06-1.04523E-18-1.15286E-19
 -1      1783 9.79882E-05-2.88948E-05-2.95823E-05 2.00990E-06-8.12586E-19-4.75655E-19
 -1      1784 9.81260E-05-2.82008E-05-2.99955E-05 9.04792E-07-1.42867E-18-5.08316E-19
 -1      1785 9.82199E-05-2.90941E-05-2.95941E-05 2.57666E-06-7.37868E-19-5.98641E-19
 -1      1786 9.88622E-05-2.94094E-05-2.97513E-05 2.85878E-06-7.76898E-19-6.94340E-19
 -1      1787 9.83739E-05-2.88140E-05-2.98331E-05 2.65078E-06-9.91159E-19-7.59899E-19
 -1      1788 9.93258E-05-2.96619E-05-2.98407E-05 3.13257E-06-8.02787E-19-6.17140E-19
 -1      1789 1.00124E-04-3.00237E-05-3.00426E-05 3.20382E-06-6.39706E-19-8.73713E-19
 -1      1790 9.91419E-05-2.94394E-05-2.98890E-05 3.62339E-06-8.29286E-19-1.05208E-18
 -1      1791 1.00736E-04-3.03339E-05-3.01667E-05 3.20041E-06-6.48295E-19-8.88169E-19
 -1      1792 1.01547E-04-3.07182E-05-3.03693E-05 3.04744E-06-5.73448E-19-1.06141E-18
 -1      1793 1.00279E-04-3.01630E-05-3.00606E-05 3.95768E-06-7.93665E-19-8.25501E-19
 -1      1794 1.02223E-04-3.10732E-05-3.04937E-05 2.73720E-06-4.52109E-19-1.05898E-18
 -1      1795 1.02897E-04-3.14378E-05-3.06545E-05 2.32570E-06-3.76849E-19-1.03207E-18
 -1      1796 1.01628E-04-3.10020E-05-3.02731E-05 3.64177E-06-6.31753E-19-8.20375E-19
 -1      1797 1.03540E-04-3.18025E-05-3.07505E-05 1.66878E-06-4.73078E-19-9.42605E-19
 -1      1798 1.03915E-04-3.20787E-05-3.08289E-05 9.76975E-07-5.03154E-19-9.16318E-19
 -1      1799 1.03011E-04-3.19112E-05-3.04687E-05 2.60020E-06-3.92980E-19-9.98836E-19
 -1      1800 1.04400E-04-3.23825E-05-3.08756E-05-3.04533E-08-7.04920E-19-8.94434E-19
 -1      1801 1.04318E-04-3.24716E-05-3.08390E-05-9.66491E-07-7.56357E-19-1.32201E-18
 -1      1802 1.04200E-04-3.27599E-05-3.06057E-05 7.81128E-07-7.86943E-19-1.04532E-18
 -1      1803 1.04494E-04-3.26014E-05-3.08278E-05-2.22851E-06-4.55267E-19-1.46326E-18
 -1      1804 1.03844E-04-3.23899E-05-3.06634E-05-3.26313E-06-1.73311E-19-1.47231E-18
 -1      1805 1.04908E-04-3.33053E-05-3.06644E-05-1.72444E-06-7.99404E-19-1.05455E-18
 -1      1806 1.03564E-04-3.22105E-05-3.06019E-05-4.52042E-06-2.49031E-19-1.67824E-18
 -1      1807 1.02352E-04-3.16213E-05-3.03288E-05-5.37001E-06-5.72502E-19-1.83289E-18
 -1      1808 1.04810E-04-3.32131E-05-3.06523E-05-4.53973E-06-4.35937E-19-1.10655E-18
 -1      1809 1.01558E-04-3.10513E-05-3.02407E-05-6.19230E-06-6.37205E-19-1.84355E-18
 -1      1810 9.99828E-05-3.01316E-05-2.99154E-05-6.48622E-06-6.71546E-19-1.86427E-18
 -1      1811 1.03672E-04-3.21899E-05-3.06019E-05-6.90927E-06-6.47586E-19-1.31505E-18
 -1      1812 9.88297E-05-2.92588E-05-2.98314E-05-6.40117E-06-7.39152E-19-1.92570E-18
 -1      1813 9.72955E-05-2.82512E-05-2.95377E-05-5.84850E-06-6.80528E-19-1.88911E-18
 -1      1814 1.01584E-04-3.02467E-05-3.05554E-05-7.81118E-06-7.05038E-19-1.20650E-18
 -1      1815 9.62071E-05-2.73982E-05-2.94830E-05-4.62371E-06-9.47023E-19-2.21897E-18
 -1      1816 9.52200E-05-2.66945E-05-2.93059E-05-3.24237E-06-1.05462E-18-2.20137E-18
 -1      1817 9.91587E-05-2.79357E-05-3.05395E-05-6.40590E-06-1.11027E-18-1.60580E-18
 -1      1818 9.47246E-05-2.62874E-05-2.92934E-05-1.15743E-06-1.24912E-18-2.64648E-18
 -1      1819 9.46630E-05-2.62169E-05-2.92897E-05 6.26976E-07-1.29018E-18-3.06490E-18
 -1      1820 9.74349E-05-2.62539E-05-3.05531E-05-2.70000E-06-1.39396E-18-1.71999E-18
 -1      1821 9.50456E-05-2.64901E-05-2.93232E-05 2.82330E-06-1.20614E-18-3.21711E-18
 -1      1822 9.59601E-05-2.70973E-05-2.94993E-05 4.36048E-06-6.42872E-19-3.71956E-18
 -1      1823 9.73023E-05-2.60673E-05-3.05823E-05 2.13504E-06-1.48217E-18-1.99746E-18
 -1      1824 9.70399E-05-2.79008E-05-2.95754E-05 5.85229E-06-1.31906E-19-4.17036E-18
 -1      1825 9.86188E-05-2.89077E-05-2.98865E-05 6.63710E-06 4.01480E-20-4.02900E-18
 -1      1826 9.88804E-05-2.74848E-05-3.06243E-05 6.27814E-06-4.81479E-19-2.28286E-18
 -1      1827 9.98948E-05-2.98347E-05-2.99974E-05 7.01483E-06-6.59710E-20-3.99080E-18
 -1      1828 1.01646E-04-3.08427E-05-3.03648E-05 6.93047E-06 3.14928E-19-4.10161E-18
 -1      1829 1.01415E-04-2.97809E-05-3.06911E-05 8.32120E-06-7.93870E-20-3.35801E-18
 -1      1830 1.02646E-04-3.15247E-05-3.04889E-05 6.32205E-06 5.19764E-19-4.63210E-18
 -1      1831 1.04130E-04-3.22472E-05-3.08270E-05 5.60551E-06 5.78520E-19-4.80208E-18
 -1      1832 1.03847E-04-3.19235E-05-3.07937E-05 7.98260E-06 6.77130E-20-3.53922E-18
 -1      1833 1.04638E-04-3.25447E-05-3.09336E-05 4.45256E-06 6.62446E-19-4.62774E-18
 -1      1834 1.05607E-04-3.28948E-05-3.11780E-05 3.47077E-06 3.22375E-19-4.22981E-18
 -1      1835 1.05438E-04-3.32325E-05-3.09124E-05 5.95694E-06 7.31641E-19-3.94574E-18
 -1      1836 1.05640E-04-3.28603E-05-3.12394E-05 2.22415E-06 1.19306E-19-3.57110E-18
 -1      1837 1.06046E-04-3.28947E-05-3.13612E-05 1.28426E-06 4.89380E-19-3.41489E-18
 -1      1838 1.05990E-04-3.35881E-05-3.10040E-05 3.26273E-06 6.24190E-19-3.25760E-18
 -1      1839 1.05733E-04-3.26582E-05-3.13635E-05 2.37702E-07 4.38525E-19-3.62271E-18
 -1      1840 1.05662E-04-3.24872E-05-3.13669E-05-4.89894E-07 7.00089E-19-2.61318E-18
 -1      1841 1.05673E-04-3.32393E-05-3.10279E-05 7.20991E-07 5.26729E-19-2.53957E-18
 -1      1842 1.05146E-04-3.21686E-05-3.13110E-05-1.21838E-06 7.11911E-19-2.39264E-18
 -1      1843 1.04736E-04-3.18949E-05-3.12210E-05-1.68609E-06 7.43030E-19-2.49652E-18
 -1      1844 1.04790E-04-3.25259E-05-3.09633E-05-1.22917E-06 9.82821E-19-2.93134E-18
 -1      1845 1.04131E-04-3.15723E-05-3.11188E-05-2.10010E-06 2.69045E-19-2.92043E-18
 -1      1846 1.03524E-04-3.12687E-05-3.09678E-05-2.33542E-06-7.94598E-20-2.78885E-18
 -1      1847 1.03615E-04-3.17158E-05-3.08127E-05-2.47480E-06 6.34093E-19-3.18527E-18
 -1      1848 1.02906E-04-3.09807E-05-3.08357E-05-2.49729E-06-5.10016E-19-2.72402E-18
 -1      1849 1.02218E-04-3.06897E-05-3.06542E-05-2.55835E-06-5.55463E-19-2.86724E-18
 -1      1850 1.02348E-04-3.09635E-05-3.05957E-05-3.09553E-06 6.09558E-20-2.17327E-18
 -1      1851 1.01633E-04-3.04495E-05-3.05087E-05-2.54507E-06-7.92141E-20-2.12843E-18
 -1      1852 1.00945E-04-3.01919E-05-3.03207E-05-2.49245E-06-1.04752E-20-1.86881E-18
 -1      1853 1.01114E-04-3.03332E-05-3.03388E-05-3.24714E-06 2.29621E-19-7.76692E-19
 -1      1854 1.00417E-04-2.99992E-05-3.01751E-05-2.37296E-06 7.42502E-20-1.76106E-18
 -1      1855 9.97818E-05-2.97827E-05-2.99968E-05-2.25680E-06 9.00647E-19-1.61768E-18
 -1      1856 9.99818E-05-2.98358E-05-3.00677E-05-3.09047E-06 6.65047E-20-2.85895E-19
 -1      1857 9.93236E-05-2.96320E-05-2.98605E-05-2.08389E-06 2.99202E-19-1.78243E-18
 -1      1858 9.87672E-05-2.94564E-05-2.97014E-05-1.94044E-06 7.97344E-20-1.69108E-18
 -1      1859 9.89862E-05-2.94578E-05-2.98034E-05-2.75918E-06 1.87892E-19-3.81531E-19
 -1      1860 9.83808E-05-2.93407E-05-2.95800E-05-1.75040E-06-4.50251E-19-2.08678E-18
 -1      1861 9.79133E-05-2.92025E-05-2.94441E-05-1.60329E-06-8.92720E-19-2.07488E-18
 -1      1862 9.81383E-05-2.91779E-05-2.95600E-05-2.35100E-06-5.46251E-19-1.22525E-18
 -1      1863 9.75957E-05-2.91150E-05-2.93402E-05-1.41874E-06-1.18191E-18-1.98340E-18
 -1      1864 9.72160E-05-2.90090E-05-2.92284E-05-1.28177E-06-1.08606E-18-2.38803E-18
 -1      1865 9.74354E-05-2.89745E-05-2.93455E-05-1.93068E-06-7.93292E-19-6.86601E-19
 -1      1866 9.69609E-05-2.89437E-05-2.91422E-05-1.11521E-06-6.57117E-19-1.83839E-18
 -1      1867 9.66615E-05-2.88643E-05-2.90530E-05-9.95279E-07 2.56249E-19-1.33376E-18
 -1      1868 9.68663E-05-2.88294E-05-2.91633E-05-1.53690E-06-5.24101E-19 9.85362E-19
 -1      1869 9.64610E-05-2.88165E-05-2.89835E-05-8.52310E-07 2.65709E-19-1.48561E-18
 -1      1870 9.62311E-05-2.87585E-05-2.89143E-05-7.51822E-07 4.73106E-19-1.00637E-18
 -1      1871 9.64155E-05-2.87276E-05-2.90131E-05-1.18965E-06 3.28924E-19 7.34720E-19
 -1      1872 9.60770E-05-2.87240E-05-2.88597E-05-6.33653E-07 5.68723E-19-1.29441E-18
 -1      1873 9.59051E-05-2.86828E-05-2.88074E-05-5.52302E-07 4.53606E-19-1.03427E-18
 -1      1874 9.60660E-05-2.86578E-05-2.88926E-05-8.96475E-07 3.98016E-19-6.23613E-19
 -1      1875 9.57892E-05-2.86586E-05-2.87655E-05-4.57584E-07 6.19395E-19-8.31799E-19
 -1      1876 9.56642E-05-2.86302E-05-2.87270E-05-3.93602E-07 6.42417E-19-4.92466E-19
 -1      1877 9.58009E-05-2.86112E-05-2.87984E-05-6.57227E-07 4.15141E-19 9.20414E-19
 -1      1878 9.55791E-05-2.86136E-05-2.86958E-05-3.19678E-07 3.09259E-19 6.48611E-20
 -1      1879 9.54911E-05-2.85949E-05-2.86683E-05-2.70644E-07 1.42405E-19 2.49278E-19
 -1      1880 9.56042E-05-2.85812E-05-2.87264E-05-4.67476E-07 9.45507E-19 1.19798E-18
 -1      1881 9.54302E-05-2.85840E-05-2.86455E-05-2.14348E-07 7.92168E-19 6.62590E-19
 -1      1882 9.53705E-05-2.85724E-05-2.86266E-05-1.77687E-07 1.91765E-18 7.31018E-19
 -1      1883 9.54620E-05-2.85629E-05-2.86728E-05-3.20757E-07 7.61041E-19 2.02368E-18
 -1      1884 9.53284E-05-2.85656E-05-2.86106E-05-1.35830E-07 1.39485E-18-2.10161E-19
 -1      1885 9.52900E-05-2.85590E-05-2.85981E-05-1.09093E-07 2.03563E-19-3.99432E-19
 -1      1886 9.53622E-05-2.85528E-05-2.86340E-05-2.09998E-07 7.30813E-19 1.14711E-18
 -1      1887 9.52621E-05-2.85551E-05-2.85872E-05-7.87296E-08-2.49520E-19-1.03644E-19
 -1      1888 9.52393E-05-2.85522E-05-2.85795E-05-5.97453E-08-8.62848E-19-2.08732E-19
 -1      1889 9.52946E-05-2.85483E-05-2.86066E-05-1.28360E-07 5.62010E-20 4.74768E-19
 -1      1890 9.52218E-05-2.85503E-05-2.85724E-05-3.83093E-08-1.74444E-18-4.24398E-19
 -1      1891 9.52101E-05-2.85497E-05-2.85682E-05-2.52403E-08-1.36507E-18-6.13105E-19
 -1      1892 9.52513E-05-2.85474E-05-2.85882E-05-6.96875E-08-1.17229E-18 1.02062E-18
 -1      1893 9.52003E-05-2.85493E-05-2.85640E-05-1.05920E-08-1.22103E-18 3.50881E-19
 -1      1894 9.51963E-05-2.85502E-05-2.85622E-05-1.94784E-09-4.14973E-19 2.30349E-19
 -1      1895 9.52256E-05-2.85488E-05-2.85763E-05-2.87176E-08-1.16094E-18 5.75109E-19
 -1      1896 9.51918E-05-2.85507E-05-2.85600E-05 7.62486E-09-2.48402E-20-4.10116E-19
 -1      1897 9.51928E-05-2.85527E-05-2.85598E-05 1.30022E-08 5.73427E-19-5.05154E-19
 -1      1898 9.52124E-05-2.85516E-05-2.85693E-05-1.13471E-09-7.79532E-19 2.43653E-18
 -1      1899 9.51920E-05-2.85537E-05-2.85590E-05 1.88085E-08 1.13979E-18-9.24233E-19
 -1      1900 9.51962E-05-2.85562E-05-2.85598E-05 2.17684E-08 1.43053E-18 3.17021E-20
 -1      1901 9.52079E-05-2.85552E-05-2.85657E-05 1.64523E-08 6.33769E-19 2.25723E-19
 -1      1902 9.51976E-05-2.85576E-05-2.85599E-05 2.47468E-08 1.27328E-18-2.82667E-19
 -1      1903 9.52035E-05-2.85604E-05-2.85613E-05 2.58516E-08 1.86831E-18 3.08069E-19
 -1      1904 9.52091E-05-2.85593E-05-2.85644E-05 2.65746E-08 1.10553E-18 4.62459E-19
 -1      1905 9.52063E-05-2.85620E-05-2.85618E-05 2.66039E-08 1.92076E-18 2.54260E-19
 -1      1906 9.52127E-05-2.85649E-05-2.85634E-05 2.61441E-08 1.46513E-18-3.18906E-19
 -1      1907 9.52138E-05-2.85637E-05-2.85644E-05 3.09799E-08 1.72553E-18-5.90114E-19
 -1      1908 9.52161E-05-2.85667E-05-2.85641E-05 2.50240E-08 1.04357E-18-6.50029E-19
 -1      1909 9.52222E-05-2.85695E-05-2.85655E-05 2.30202E-08 9.82140E-19 3.20274E-19
 -1      1910 9.52203E-05-2.85683E-05-2.85652E-05 3.07280E-08 9.78411E-19 4.41856E-19
 -1      1911 9.52252E-05-2.85711E-05-2.85661E-05 2.02964E-08 8.20423E-19 3.26433E-19
 -1      1912 9.52303E-05-2.85736E-05-2.85672E-05 1.68165E-08 1.04361E-18 7.93009E-19
 -1      1913 9.52330E-05-2.85768E-05-2.85669E-05 1.94529E-08 2.23980E-19 7.44056E-19
 -1      1914 9.52270E-05-2.85729E-05-2.85661E-05 2.65778E-08 1.32683E-18 9.09310E-19
 -1      1915 9.79663E-05-2.86174E-05-2.96788E-05-6.43570E-07 1.61671E-18 4.18162E-18
 -1      1916 9.84235E-05-2.85301E-05-2.98885E-05 6.06361E-07 1.69401E-18 4.89848E-18
 -1      1917 9.89110E-05-2.79746E-05-3.04148E-05 1.51677E-06 2.07094E-18 3.43973E-18
 -1      1918 9.84816E-05-2.90003E-05-2.97381E-05-2.44246E-06 1.24380E-18 3.51843E-18
 -1      1919 9.80756E-05-2.87827E-05-2.96384E-05-1.62308E-06 1.24060E-18 3.88976E-18
 -1      1920 9.85095E-05-2.85362E-05-3.00049E-05-1.50139E-06 1.54179E-18 2.82816E-18
 -1      1921 1.00047E-04-2.95642E-05-3.01755E-05-3.79620E-06 8.16533E-19 3.08490E-18
 -1      1922 9.90500E-05-2.92137E-05-2.98909E-05-3.15340E-06 1.01381E-18 3.44899E-18
 -1      1923 9.91767E-05-2.90036E-05-3.00950E-05-3.56511E-06 1.24559E-18 2.41206E-18
 -1      1924 1.02443E-04-3.03411E-05-3.08762E-05-4.92338E-06 2.49359E-19 2.58553E-18
 -1      1925 1.00996E-04-2.98642E-05-3.04604E-05-4.36562E-06 4.99558E-19 2.92682E-18
 -1      1926 1.00706E-04-2.95865E-05-3.05027E-05-5.16570E-06 6.75373E-19 2.01608E-18
 -1      1927 1.05512E-04-3.13469E-05-3.17688E-05-5.85111E-06 2.91895E-19 2.24771E-18
 -1      1928 1.03711E-04-3.07464E-05-3.12555E-05-5.37270E-06 2.01012E-19 2.34653E-18
 -1      1929 1.02942E-04-3.03638E-05-3.11288E-05-6.47977E-06 3.51577E-19 1.51254E-18
 -1      1930 1.09089E-04-3.26021E-05-3.27782E-05-6.44147E-06 5.10278E-19 2.27727E-18
 -1      1931 1.07044E-04-3.18823E-05-3.22066E-05-6.11519E-06 3.48542E-19 2.23830E-18
 -1      1932 1.05772E-04-3.14012E-05-3.18976E-05-7.46900E-06 4.61903E-19 1.34540E-18
 -1      1933 1.12932E-04-3.41180E-05-3.37965E-05-6.36915E-06 5.09504E-19 1.87772E-18
 -1      1934 1.10822E-04-3.33006E-05-3.32286E-05-6.36249E-06 6.08583E-19 2.21258E-18
 -1      1935 1.09084E-04-3.27783E-05-3.27270E-05-7.88989E-06 6.87199E-19 1.39764E-18
 -1      1936 1.16635E-04-3.58448E-05-3.46678E-05-5.11546E-06-8.76348E-20 1.71044E-18
 -1      1937 1.14760E-04-3.50019E-05-3.41988E-05-5.69727E-06 2.03936E-19 1.79693E-18
 -1      1938 1.12716E-04-3.45646E-05-3.35147E-05-7.27750E-06 4.86352E-19 1.32776E-18
 -1      1939 1.19557E-04-3.75523E-05-3.52037E-05-2.09322E-06-5.81521E-19 2.32554E-18
 -1      1940 1.18360E-04-3.68634E-05-3.49545E-05-3.57119E-06-2.97811E-19 1.93734E-18
 -1      1941 1.16366E-04-3.67103E-05-3.41472E-05-4.99550E-06-2.25708E-19 1.39917E-18
 -1      1942 1.20784E-04-3.86409E-05-3.52530E-05 2.91500E-06-4.71440E-19 2.92626E-18
 -1      1943 1.20804E-04-3.84540E-05-3.53285E-05 4.24910E-07-6.28948E-19 2.42103E-18
 -1      1944 1.19445E-04-3.88096E-05-3.45420E-05-5.08883E-07-8.19121E-19 2.02589E-18
 -1      1945 1.19307E-04-3.80784E-05-3.48228E-05 8.90490E-06 3.32593E-19 3.11338E-18
 -1      1946 1.20962E-04-3.88538E-05-3.52335E-05 5.92089E-06-8.73503E-20 2.95437E-18
 -1      1947 1.20933E-04-3.98131E-05-3.47190E-05 5.93030E-06-2.16999E-19 2.48419E-18
 -1      1948 1.14726E-04-3.49957E-05-3.41527E-05 1.29190E-05 7.47225E-19 3.48086E-18
 -1      1949 1.17880E-04-3.69154E-05-3.47518E-05 1.09457E-05 2.55777E-19 3.39533E-18
 -1      1950 1.19629E-04-3.82478E-05-3.48292E-05 1.22635E-05 4.88622E-19 2.55391E-18
 -1      1951 1.08549E-04-3.01959E-05-3.36193E-05 1.11363E-05 1.17196E-18 2.93113E-18
 -1      1952 1.12062E-04-3.25416E-05-3.41404E-05 1.20288E-05 1.19760E-18 3.16179E-18
 -1      1953 1.15344E-04-3.35887E-05-3.50532E-05 1.44501E-05 1.30602E-18 3.02452E-18
 -1      1954 1.04637E-04-2.69420E-05-3.34482E-05 2.68581E-06 1.08486E-18 7.63362E-19
 -1      1955 1.06559E-04-2.81188E-05-3.36617E-05 6.68766E-06 1.18990E-18 1.84806E-18
 -1      1956 1.10480E-04-2.82476E-05-3.53700E-05 8.99637E-06 1.69370E-18 1.47420E-18
 -1      1957 1.06296E-04-2.82003E-05-3.36613E-05-7.70284E-06 1.11499E-18-1.04791E-18
 -1      1958 1.05254E-04-2.71816E-05-3.34754E-05-2.98624E-06 1.14593E-18-4.16224E-19
 -1      1959 1.09016E-04-2.64674E-05-3.55381E-05-2.36009E-06 2.07491E-18-3.74451E-19
 -1      1960 1.12463E-04-3.29025E-05-3.41854E-05-1.33402E-05 7.29209E-19-1.04947E-18
 -1      1961 1.09081E-04-3.05331E-05-3.36699E-05-1.08630E-05 1.00448E-18-1.33238E-18
 -1      1962 1.12412E-04-2.99551E-05-3.54195E-05-1.23719E-05 1.41314E-18-1.67583E-18
 -1      1963 1.18881E-04-3.73321E-05-3.48946E-05-1.20345E-05-4.45989E-19-2.27182E-18
 -1      1964 1.15108E-04-3.52457E-05-3.42452E-05-1.25715E-05 1.40621E-19-1.62562E-18
 -1      1965 1.17755E-04-3.56083E-05-3.51861E-05-1.50717E-05 5.06939E-19-2.30918E-18
 -1      1966 1.22346E-04-3.92120E-05-3.55284E-05-6.66294E-06 3.73661E-19-2.41350E-18
 -1      1967 1.19811E-04-3.82334E-05-3.50076E-05-8.88096E-06-1.09545E-19-2.16953E-18
 -1      1968 1.21297E-04-3.94587E-05-3.50701E-05-1.09057E-05 6.25746E-20-2.52682E-18
 -1      1969 1.22469E-04-3.88221E-05-3.57703E-05-9.07395E-07 1.23501E-19-2.43075E-18
 -1      1970 1.21694E-04-3.88608E-05-3.55629E-05-3.28015E-06 3.83335E-19-2.54286E-18
 -1      1971 1.21723E-04-4.00814E-05-3.50230E-05-4.21343E-06 5.92367E-19-2.62607E-18
 -1      1972 1.20278E-04-3.73106E-05-3.55216E-05 3.16407E-06 8.68632E-19-2.45912E-18
 -1      1973 1.20949E-04-3.79006E-05-3.56467E-05 1.46546E-06 5.29819E-19-1.93987E-18
 -1      1974 1.19768E-04-3.85757E-05-3.48408E-05 1.62517E-06 3.79233E-19-2.38652E-18
 -1      1975 1.16959E-04-3.55715E-05-3.48764E-05 5.23727E-06 2.11669E-19-2.93761E-18
 -1      1976 1.18494E-04-3.63406E-05-3.52437E-05 4.34658E-06 4.97175E-19-2.89387E-18
 -1      1977 1.16659E-04-3.64086E-05-3.44261E-05 5.25536E-06 8.89451E-19-2.45849E-18
 -1      1978 1.13332E-04-3.40083E-05-3.40077E-05 5.81362E-06-1.38018E-18-2.11245E-18
 -1      1979 1.15223E-04-3.47626E-05-3.44984E-05 5.53747E-06-1.00392E-18-3.05292E-18
 -1      1980 1.13254E-04-3.44224E-05-3.38025E-05 6.82628E-06-5.08630E-19-1.79692E-18
 -1      1981 1.09865E-04-3.27268E-05-3.30750E-05 5.51214E-06-8.53409E-19-7.52688E-19
 -1      1982 1.11770E-04-3.33889E-05-3.35925E-05 5.60316E-06-8.93695E-19-1.28564E-18
 -1      1983 1.09990E-04-3.28660E-05-3.30599E-05 6.99530E-06-1.31275E-18-1.47813E-18
 -1      1984 1.06783E-04-3.17133E-05-3.21868E-05 4.80325E-06 5.19982E-20 5.96678E-20
 -1      1985 1.08516E-04-3.22635E-05-3.26708E-05 5.07002E-06-4.68892E-19-4.88420E-19
 -1      1986 1.07063E-04-3.17154E-05-3.22929E-05 6.39496E-06-5.33603E-19-7.99811E-19
 -1      1987 1.04167E-04-3.09229E-05-3.14011E-05 3.97505E-06-4.12713E-20 9.33370E-19
 -1      1988 1.05649E-04-3.13659E-05-3.18223E-05 4.29845E-06 2.28944E-19 6.87592E-19
 -1      1989 1.04542E-04-3.08753E-05-3.15705E-05 5.46980E-06-1.59558E-19 8.29141E-19
 -1      1990 1.02018E-04-3.03109E-05-3.07390E-05 3.17826E-06-6.75046E-19 1.10404E-18
 -1      1991 1.03235E-04-3.06600E-05-3.10887E-05 3.49478E-06-8.26059E-19 1.16463E-18
 -1      1992 1.02433E-04-3.02576E-05-3.09314E-05 4.48180E-06-8.31363E-19 8.86051E-19
 -1      1993 1.00295E-04-2.98402E-05-3.01998E-05 2.47852E-06 4.01461E-19 1.10734E-18
 -1      1994 1.01266E-04-3.01107E-05-3.04810E-05 2.75960E-06-8.03358E-20 1.81017E-18
 -1      1995 1.00709E-04-2.97983E-05-3.03903E-05 3.56373E-06-5.32135E-19 1.61099E-18
 -1      1996 9.89424E-05-2.94810E-05-2.97720E-05 1.89489E-06 9.81063E-19 7.57666E-19
 -1      1997 9.96992E-05-2.96875E-05-2.99925E-05 2.13135E-06 8.14563E-19 1.06278E-18
 -1      1998 9.93290E-05-2.94542E-05-2.99469E-05 2.77012E-06 1.16163E-18 1.46248E-18
 -1      1999 9.78981E-05-2.92098E-05-2.94393E-05 1.42377E-06-1.18808E-18 4.16172E-19
 -1      2000 9.84773E-05-2.93652E-05-2.96089E-05 1.61605E-06-4.84974E-19 4.61009E-19
 -1      2001 9.82429E-05-2.91962E-05-2.95926E-05 2.11323E-06-2.47853E-19 3.85663E-19
 -1      2002 9.71052E-05-2.90076E-05-2.91853E-05 1.05203E-06-8.11539E-19-6.29323E-20
 -1      2003 9.75410E-05-2.91227E-05-2.93134E-05 1.20477E-06-1.26238E-18 4.37890E-19
 -1      2004 9.74022E-05-2.90035E-05-2.93151E-05 1.58495E-06-7.82124E-19 1.20683E-19
 -1      2005 9.65129E-05-2.88591E-05-2.89946E-05 7.63816E-07-3.48763E-19 7.94649E-19
 -1      2006 9.68353E-05-2.89430E-05-2.90898E-05 8.83004E-07-5.37286E-19 9.38252E-20
 -1      2007 9.67618E-05-2.88611E-05-2.91018E-05 1.16892E-06-6.60786E-19-1.55533E-20
 -1      2008 9.60781E-05-2.87519E-05-2.88538E-05 5.43675E-07 1.07164E-18 1.60351E-18
 -1      2009 9.63123E-05-2.88119E-05-2.89233E-05 6.35296E-07 6.71586E-19 1.95653E-18
 -1      2010 9.62820E-05-2.87574E-05-2.89405E-05 8.46728E-07-9.69348E-20 1.04440E-18
 -1      2011 9.57649E-05-2.86763E-05-2.87519E-05 3.77852E-07 2.53767E-18 6.30385E-19
 -1      2012 9.59317E-05-2.87182E-05-2.88016E-05 4.47319E-07 1.88207E-18 1.26152E-18
 -1      2013 9.59285E-05-2.86833E-05-2.88207E-05 6.00849E-07 2.03697E-18 1.85127E-18
 -1      2014 9.55445E-05-2.86244E-05-2.86796E-05 2.54692E-07 3.80710E-19-3.51420E-20
 -1      2015 9.56604E-05-2.86528E-05-2.87143E-05 3.06643E-07 1.61172E-18 2.81198E-19
 -1      2016 9.56733E-05-2.86316E-05-2.87333E-05 4.15821E-07 1.98657E-18 2.09516E-18
 -1      2017 9.53937E-05-2.85900E-05-2.86297E-05 1.64590E-07-5.83472E-19-2.25040E-18
 -1      2018 9.54718E-05-2.86086E-05-2.86533E-05 2.02885E-07-4.25061E-19-1.46134E-18
 -1      2019 9.54933E-05-2.85968E-05-2.86709E-05 2.78569E-07 6.97799E-19-3.53983E-19
 -1      2020 9.52945E-05-2.85685E-05-2.85964E-05 9.97816E-08 8.42731E-19-1.70832E-18
 -1      2021 9.53448E-05-2.85799E-05-2.86118E-05 1.27565E-07-2.70182E-19-2.23329E-18
 -1      2022 9.53698E-05-2.85744E-05-2.86274E-05 1.78327E-07-2.60422E-19-2.17768E-18
 -1      2023 9.52328E-05-2.85561E-05-2.85753E-05 5.40777E-08-2.69586E-19-1.09232E-18
 -1      2024 9.52631E-05-2.85624E-05-2.85847E-05 7.38750E-08 4.43941E-19-1.24527E-18
 -1      2025 9.52884E-05-2.85609E-05-2.85982E-05 1.06385E-07-2.68099E-19-9.51396E-19
 -1      2026 9.51978E-05-2.85501E-05-2.85630E-05 2.26099E-08-1.02167E-18 1.15540E-19
 -1      2027 9.52140E-05-2.85529E-05-2.85681E-05 3.64214E-08-6.71796E-19-3.50486E-20
 -1      2028 9.52377E-05-2.85538E-05-2.85793E-05 5.58005E-08-1.21387E-18-8.35564E-20
 -1      2029 9.51815E-05-2.85485E-05-2.85567E-05 1.60760E-09 7.80648E-19-2.89146E-19
 -1      2030 9.51880E-05-2.85489E-05-2.85590E-05 1.09919E-08-5.22450E-19-1.89158E-19
 -1      2031 9.52089E-05-2.85511E-05-2.85680E-05 2.11202E-08-4.67192E-19 6.37162E-19
 -1      2032 9.51778E-05-2.85497E-05-2.85546E-05-1.17899E-08-7.39757E-20 9.69089E-19
 -1      2033 9.51778E-05-2.85486E-05-2.85549E-05-5.64465E-09 8.42572E-19 8.82636E-19
 -1      2034 9.51954E-05-2.85514E-05-2.85621E-05-1.86419E-09 2.72957E-19 1.54809E-18
 -1      2035 9.51822E-05-2.85528E-05-2.85553E-05-1.96798E-08 1.09941E-18 2.03829E-19
 -1      2036 9.51782E-05-2.85507E-05-2.85544E-05-1.59009E-08 4.81442E-19 5.89194E-19
 -1      2037 9.51923E-05-2.85535E-05-2.85597E-05-1.63204E-08 7.28447E-19 2.22386E-18
 -1      2038 9.51915E-05-2.85568E-05-2.85576E-05-2.35220E-08 1.46723E-19 4.38144E-19
 -1      2039 9.51851E-05-2.85543E-05-2.85559E-05-2.15027E-08 9.03366E-19 3.86797E-19
 -1      2040 9.51958E-05-2.85568E-05-2.85598E-05-2.45303E-08 1.05390E-18 1.89771E-18
 -1      2041 9.52031E-05-2.85613E-05-2.85606E-05-2.42138E-08 6.50321E-20 2.47691E-18
 -1      2042 9.51957E-05-2.85586E-05-2.85587E-05-2.36083E-08-2.52432E-19 1.05184E-18
 -1      2043 9.52032E-05-2.85608E-05-2.85612E-05-2.80976E-08-7.06330E-19 3.48581E-18
 -1      2044 9.52150E-05-2.85660E-05-2.85638E-05-2.20925E-08-1.87477E-18 3.15794E-18
 -1      2045 9.52078E-05-2.85633E-05-2.85619E-05-2.27829E-08-4.68562E-19 2.66209E-18
 -1      2046 9.52125E-05-2.85651E-05-2.85633E-05-2.77980E-08-9.13151E-19 4.19622E-18
 -1      2047 9.52257E-05-2.85705E-05-2.85665E-05-1.70721E-08-3.73252E-19 2.16570E-18
 -1      2048 9.52196E-05-2.85681E-05-2.85650E-05-1.92532E-08-7.84312E-19 3.33345E-18
 -1      2049 9.52221E-05-2.85696E-05-2.85654E-05-2.41484E-08-6.41575E-19 4.02020E-18
 -1      2050 9.52329E-05-2.85739E-05-2.85682E-05-1.12244E-08-3.03068E-19 2.58695E-18
 -1      2051 9.52283E-05-2.85719E-05-2.85671E-05-1.48127E-08-2.97871E-19 2.20043E-18
 -1      2052 9.52296E-05-2.85735E-05-2.85669E-05-1.89250E-08 3.90982E-20 3.14558E-18
 -1      2053 9.52346E-05-2.85767E-05-2.85677E-05-1.35823E-08-1.41427E-19 2.75841E-18
 -1      2054 9.52479E-05-2.86026E-05-2.85622E-05-2.14664E-08-7.32409E-19 1.18732E-18
 -1      2055 9.52454E-05-2.85971E-05-2.85636E-05-2.21700E-08-5.21459E-19-6.91909E-19
 -1      2056 9.52433E-05-2.85933E-05-2.85643E-05-2.23195E-08 1.57275E-19-2.51416E-18
 -1      2057 9.52406E-05-2.85877E-05-2.85656E-05-2.14130E-08 1.44991E-18-9.84189E-19
 -1      2058 9.52432E-05-2.85912E-05-2.85651E-05-2.72972E-08-7.24162E-19-2.13645E-18
 -1      2059 9.52389E-05-2.85848E-05-2.85660E-05-1.95823E-08 1.45815E-18 8.52928E-19
 -1      2060 9.52362E-05-2.85798E-05-2.85671E-05-1.67675E-08 7.77165E-19 1.11711E-18
 -1      2061 9.52342E-05-2.85784E-05-2.85668E-05-1.99099E-08 1.08331E-19 2.60193E-18
 -1      2062 9.52386E-05-2.85845E-05-2.85660E-05-2.54110E-08 5.89544E-19-7.39623E-20
 -1      2063 9.52513E-05-2.86105E-05-2.85603E-05-1.81395E-08-5.80717E-19 1.60422E-18
 -1      2064 9.52494E-05-2.86057E-05-2.85615E-05-1.98407E-08-1.35091E-18 2.78982E-18
 -1      2065 9.52477E-05-2.85984E-05-2.85640E-05-2.52718E-08-1.14061E-18 1.20996E-18
 -1      2066 9.52537E-05-2.86166E-05-2.85587E-05-1.32239E-08-4.41958E-19 1.93131E-18
 -1      2067 9.52524E-05-2.86129E-05-2.85597E-05-1.55479E-08-1.05168E-18 3.05760E-18
 -1      2068 9.52509E-05-2.86042E-05-2.85629E-05-2.05640E-08-8.12327E-19 2.31950E-18
 -1      2069 9.52551E-05-2.86205E-05-2.85576E-05-7.49004E-09 4.11153E-19 7.53766E-19
 -1      2070 9.52544E-05-2.86182E-05-2.85582E-05-1.01089E-08-1.17621E-19 1.75043E-18
 -1      2071 9.52529E-05-2.86084E-05-2.85620E-05-1.42404E-08-6.94605E-19 2.30798E-18
 -1      2072 9.52557E-05-2.86220E-05-2.85572E-05-1.42598E-09 1.26040E-19-9.59894E-19
 -1      2073 9.52554E-05-2.86213E-05-2.85574E-05-4.14795E-09 2.96809E-19-9.90756E-19
 -1      2074 9.52540E-05-2.86108E-05-2.85614E-05-7.09599E-09-4.81072E-20 5.93795E-20
 -1      2075 9.52553E-05-2.86211E-05-2.85574E-05 4.65708E-09 4.82658E-19-1.19122E-19
 -1      2076 9.52556E-05-2.86219E-05-2.85572E-05 1.95760E-09 5.23658E-19-6.25061E-19
 -1      2077 9.52543E-05-2.86116E-05-2.85612E-05 3.36194E-10-1.56775E-18-3.05493E-19
 -1      2078 9.52542E-05-2.86178E-05-2.85583E-05 1.04989E-08-6.58150E-19-2.76483E-18
 -1      2079 9.52550E-05-2.86202E-05-2.85577E-05 7.94301E-09-2.78412E-19-5.27315E-19
 -1      2080 9.52538E-05-2.86106E-05-2.85614E-05 7.70544E-09-7.61353E-19-1.29789E-18
 -1      2081 9.52521E-05-2.86125E-05-2.85598E-05 1.56698E-08-5.40458E-19-2.81891E-18
 -1      2082 9.52535E-05-2.86161E-05-2.85588E-05 1.34698E-08-5.66843E-19-3.13883E-18
 -1      2083 9.52527E-05-2.86079E-05-2.85621E-05 1.46201E-08-8.08851E-19-3.21176E-18
 -1      2084 9.52491E-05-2.86052E-05-2.85616E-05 1.98047E-08 1.84240E-19 2.42264E-19
 -1      2085 9.52510E-05-2.86100E-05-2.85604E-05 1.81620E-08-1.02253E-19-1.01753E-18
 -1      2086 9.52506E-05-2.86037E-05-2.85630E-05 2.06658E-08 5.59402E-19-2.14212E-18
 -1      2087 9.52452E-05-2.85965E-05-2.85637E-05 2.19748E-08-8.23063E-20-5.57832E-19
 -1      2088 9.52476E-05-2.86020E-05-2.85624E-05 2.13489E-08 4.61635E-19-6.92781E-19
 -1      2089 9.52474E-05-2.85978E-05-2.85641E-05 2.51659E-08 5.99092E-19-1.73590E-19
 -1      2090 9.52402E-05-2.85871E-05-2.85657E-05 2.13104E-08-1.57786E-18-1.98407E-19
 -1      2091 9.52432E-05-2.85928E-05-2.85644E-05 2.20594E-08-9.96443E-19-4.62922E-20
 -1      2092 9.52429E-05-2.85907E-05-2.85653E-05 2.70018E-08-3.00252E-19-9.01885E-19
 -1      2093 5.75476E-05-4.11969E-05-7.82750E-06 3.75345E-05 5.29565E-18 5.67674E-18
 -1      2094 4.35947E-05-4.13854E-05-2.02764E-06 3.25668E-05 3.65495E-18 4.58912E-18
 -1      2095 1.19615E-05-3.23606E-05 7.58811E-06 2.43393E-06 1.49184E-18 5.20756E-18
 -1      2096 1.24836E-05-3.31026E-05 7.59629E-06-7.97759E-06 2.43310E-19 5.24059E-18
 -1      2097 2.63868E-05-3.48324E-05 2.63322E-06 2.47757E-05 3.17087E-18 5.02502E-18
 -1      2098 1.74496E-05-3.53436E-05 6.23320E-06 1.39065E-05 1.73705E-18 5.26007E-18
 -1      2099 9.72022E-05-4.60048E-05-2.20561E-05 4.09144E-05 4.72094E-18 5.29311E-18
 -1      2100 7.68841E-05-4.67958E-05-1.41354E-05 3.63060E-05 5.10803E-18 5.23128E-18
 -1      2101 1.36232E-04-4.44944E-05-3.88237E-05 3.48492E-05 5.37061E-18 3.61217E-18
 -1      2102 1.14768E-04-4.62045E-05-3.01157E-05 3.33246E-05 4.75440E-18 4.55238E-18
 -1      2103 8.74265E-05-8.43592E-06-3.39528E-05-8.12687E-06-1.37034E-18-3.46606E-18
 -1      2104 8.85665E-05-9.13830E-06-3.41184E-05-9.65429E-06-1.74540E-18-3.16532E-18
 -1      2105 9.12915E-05-1.30093E-05-3.35975E-05-9.32291E-06-1.91429E-18-2.70646E-18
 -1      2106 8.85166E-05-1.04552E-05-3.34776E-05-6.91427E-06-1.34654E-18-3.31231E-18
 -1      2107 1.74965E-04-2.83965E-05-6.21825E-05 2.52474E-06 5.88264E-18-7.62330E-21
 -1      2108 1.69260E-04-3.23993E-05-5.79543E-05 9.06594E-06 6.29515E-18 8.17387E-19
 -1      2109 1.89788E-04-2.64461E-05-6.79715E-05-1.45516E-06 5.64717E-18-1.45822E-18
 -1      2110 1.78982E-04-2.29170E-05-6.59108E-05 3.04561E-06 6.30362E-18 1.89100E-19
 -1      2111 1.81163E-04-2.79412E-05-6.46508E-05-9.33825E-06 5.79328E-18-2.84180E-18
 -1      2112 1.89833E-04-2.83098E-05-6.75139E-05-4.11671E-06 5.75728E-18-1.99317E-18
 -1      2113 1.66175E-04-1.62114E-05-6.29930E-05 3.38931E-07 6.28371E-18-1.23264E-18
 -1      2114 1.61640E-04-3.61600E-05-5.34347E-05-1.25294E-05 4.38181E-18-3.07515E-18
 -1      2115 1.77507E-04-3.34834E-05-6.01187E-05-1.17882E-05 5.30708E-18-2.54618E-18
 -1      2116 1.33574E-04-4.56813E-05-3.79601E-05-2.92350E-05 2.83629E-18-5.03222E-18
 -1      2117 1.52446E-04-4.54615E-05-4.56660E-05-2.19457E-05 2.76143E-18-4.67774E-18
 -1      2118 1.01628E-04-4.92492E-05-2.32505E-05-3.57260E-05 1.64579E-18-4.25507E-18
 -1      2119 1.21230E-04-4.70332E-05-3.15623E-05-3.81555E-05 2.71474E-18-4.80649E-18
 -1      2120 1.36874E-04-5.68703E-05-3.39321E-05-2.29344E-05 4.33257E-19-3.21915E-18
 -1      2121 6.01779E-05-4.52929E-05-7.72628E-06-3.56063E-05 7.74612E-19-4.42853E-18
 -1      2122 7.94176E-05-4.45301E-05-1.52418E-05-4.21590E-05 1.39083E-18-4.79865E-18
 -1      2123 3.25383E-05-3.92444E-05 1.70242E-06-2.76110E-05-6.91179E-19-4.72856E-18
 -1      2124 4.46788E-05-3.96473E-05-2.90635E-06-3.44153E-05 8.08069E-19-4.60712E-18
 -1      2125 6.39513E-05-4.44669E-05-8.68033E-06-4.10852E-05-1.21930E-18-4.33024E-18
 -1      2126 1.41168E-05-3.04111E-05 6.20660E-06-8.42333E-06-1.23783E-18-4.92888E-18
 -1      2127 1.99006E-05-3.32797E-05 4.80222E-06-1.89015E-05-4.73280E-19-5.27490E-18
 -1      2128 1.69300E-05-3.65714E-05 6.79842E-06 1.66570E-05-2.51759E-18-4.23347E-18
 -1      2129 1.21698E-05-3.20675E-05 7.37801E-06 7.79428E-06-1.43249E-18-4.30674E-18
 -1      2130 3.79009E-05-3.63599E-05-1.34460E-06 3.50434E-05-2.79055E-18-3.90906E-18
 -1      2131 2.63444E-05-3.94044E-05 3.93565E-06 2.44777E-05-2.32002E-18-4.33829E-18
 -1      2132 2.57072E-05-2.98626E-05 1.20476E-06 2.65669E-05-1.25149E-19-4.44142E-18
 -1      2133 7.53550E-05-4.23893E-05-1.43931E-05 4.39364E-05-3.84511E-18-2.97849E-18
 -1      2134 5.79273E-05-4.33856E-05-7.28245E-06 3.83245E-05-3.01036E-18-3.30743E-18
 -1      2135 1.15716E-04-4.60986E-05-2.99404E-05 3.89562E-05-3.67062E-18-1.46452E-18
 -1      2136 9.40470E-05-4.60806E-05-2.13364E-05 3.86985E-05-4.07508E-18-2.23320E-18
 -1      2137 1.51261E-04-3.74848E-05-4.75322E-05 3.20434E-05-4.55905E-18-1.60428E-18
 -1      2138 1.32821E-04-4.14809E-05-3.90112E-05 3.04466E-05-4.26672E-18-1.27690E-18
 -1      2139 1.70491E-04-3.14011E-05-5.87390E-05 1.64950E-05-4.81072E-18-1.04609E-19
 -1      2140 1.58352E-04-3.28474E-05-5.31984E-05 2.42198E-05-4.71927E-18-1.55431E-18
 -1      2141 1.52597E-04-3.90767E-05-4.79579E-05 1.23955E-05-3.56037E-18 8.35598E-19
 -1      2142 1.75087E-04-2.25045E-05-6.45208E-05 2.94462E-06-6.19478E-18 1.89248E-18
 -1      2143 1.69503E-04-2.36409E-05-6.18790E-05 8.21677E-06-5.77380E-18 6.54756E-19
 -1      2144 1.77314E-04-2.28055E-05-6.53862E-05-6.03510E-06-6.32564E-18 3.38157E-18
 -1      2145 1.79970E-04-2.23932E-05-6.64621E-05 1.34984E-06-6.43449E-18 1.99910E-18
 -1      2146 1.60782E-04-2.74707E-05-5.69668E-05-9.71197E-06-6.04104E-18 3.18823E-18
 -1      2147 1.72399E-04-2.59579E-05-6.17232E-05-6.98086E-06-5.75326E-18 3.09612E-18
 -1      2148 1.43144E-04-3.82204E-05-4.48152E-05-2.67734E-05-5.76628E-18 5.00978E-18
 -1      2149 1.57726E-04-3.66249E-05-5.15270E-05-1.98474E-05-5.75591E-18 3.15096E-18
 -1      2150 1.10893E-04-4.17378E-05-3.01907E-05-3.67453E-05-4.77642E-18 7.56316E-18
 -1      2151 1.31288E-04-4.04903E-05-3.84470E-05-3.75779E-05-5.46802E-18 6.82370E-18
 -1      2152 7.54724E-05-4.37974E-05-1.46431E-05-3.91784E-05-2.99257E-18 6.78156E-18
 -1      2153 9.49146E-05-4.23012E-05-2.25208E-05-4.36942E-05-3.51730E-18 7.54516E-18
 -1      2154 4.17490E-05-4.06745E-05-1.85498E-06-3.31237E-05-1.43233E-18 6.65588E-18
 -1      2155 5.56806E-05-3.83208E-05-8.06449E-06-3.99306E-05-3.34620E-18 7.12074E-18
 -1      2156 1.89557E-05-3.54662E-05 5.75983E-06-1.89545E-05 6.31887E-19 5.79201E-18
 -1      2157 2.72781E-05-3.45070E-05 2.23097E-06-2.82299E-05-9.67735E-19 6.56366E-18
 -1      2158 1.64754E-04-4.07804E-05-5.25383E-05 1.79807E-05 6.00456E-18 6.92026E-19
 -1      2159 1.47844E-04-4.18458E-05-4.54110E-05 2.38916E-05 6.17858E-18 2.55719E-18
 -1      2160 1.18670E-04-5.65388E-05-2.65989E-05 3.23557E-05 2.21372E-18 1.93738E-18
 -1      2161 9.95388E-05-2.50565E-05-3.19867E-05-8.14176E-06-2.47418E-18 5.26802E-19
 -1      2162 1.47506E-04-5.14029E-05-4.05127E-05 1.57461E-05 3.89370E-18 3.24414E-19
 -1      2163 1.59698E-04-3.72272E-05-5.16606E-05-5.68781E-07 5.41487E-18-1.15578E-18
 -1      2164 9.85944E-05-2.37596E-05-3.21446E-05-8.08834E-06-2.52707E-18-5.49261E-19
 -1      2165 4.01830E-05-3.68449E-05-1.96490E-06 3.16212E-05 2.31918E-18 4.42088E-18
 -1      2166 3.74053E-05-2.90865E-05-3.20713E-06 3.15565E-05 5.81276E-19 4.78150E-18
 -1      2167 5.44796E-05-3.82520E-05-7.34829E-06 3.91516E-05 7.55977E-19 4.22182E-18
 -1      2168 1.74922E-05-2.51107E-05 2.78050E-06 1.05026E-05 6.05840E-19 5.66072E-18
 -1      2169 9.52381E-05-2.85832E-05-2.85664E-05 2.11709E-08-9.69157E-19 2.68022E-19
 -1      2170 8.05556E-05-4.98105E-05-1.34102E-05 4.07931E-05 2.13156E-18 4.05931E-18
 -1      2171 1.88341E-05-2.53163E-05 2.28236E-06-1.69232E-05 4.51574E-19 6.02240E-18
 -1      2172 4.16584E-05-3.55832E-05-3.10680E-06-3.65816E-05 3.18061E-19 6.75403E-18
 -1      2173 7.80201E-05-4.71632E-05-1.34182E-05-4.36881E-05-7.75035E-20 6.09316E-18
 -1      2174 1.14628E-04-5.24403E-05-2.65074E-05-3.57075E-05-1.39210E-18 5.51376E-18
 -1      2175 1.41533E-04-4.69189E-05-3.99371E-05-2.03806E-05-3.41608E-18 2.45131E-18
 -1      2176 1.53054E-04-3.22184E-05-5.12226E-05-2.99991E-06-4.66450E-18 1.12740E-18
 -1      2177 1.56360E-04-1.62969E-05-5.92966E-05 2.42889E-06-5.99615E-18 1.44610E-18
 -1      2178 1.56914E-04-2.31409E-05-5.65064E-05 1.61570E-06-5.26304E-18 1.56955E-18
 -1      2179 1.29228E-04-4.91950E-05-3.41300E-05 2.97687E-05-3.01988E-18-1.70254E-19
 -1      2180 1.26603E-04-5.61557E-05-2.97126E-05 2.87511E-05-1.42534E-18 1.60089E-18
 -1      2181 1.39507E-04-5.24177E-05-3.78086E-05 1.79347E-05-1.91678E-18 1.74319E-18
 -1      2182 5.67599E-05-4.12470E-05-6.93472E-06 4.16094E-05-7.07696E-19-2.98960E-18
 -1      2183 3.25685E-05-3.11910E-05-1.02547E-06-2.85701E-05-1.33577E-18-5.33567E-18
 -1      2184 1.03363E-04-5.55073E-05-2.05277E-05-3.81567E-05-7.31836E-19-3.57638E-18
 -1      2185 1.63912E-04-2.56492E-05-5.84690E-05 2.79105E-06 5.12688E-18-1.03910E-18
 -1      2186 1.66946E-04-2.28838E-05-6.11992E-05-1.90276E-06 5.79794E-18-5.02079E-19
 -1      2187 1.51074E-04-2.11003E-05-5.55592E-05-8.86071E-06 5.24440E-18-1.96850E-18
 -1      2188 1.52209E-04-1.55091E-05-5.89806E-05-5.64947E-06 5.94914E-18-9.82770E-19
 -1      2189 1.56487E-04-4.41001E-05-4.79226E-05-8.89192E-06 2.85298E-18-2.38440E-18
 -1      2190 1.53382E-04-4.08002E-05-4.88307E-05 5.76660E-06 2.93984E-18 1.74912E-19
 -1      2191 1.49696E-04-5.07326E-05-4.20584E-05-3.91721E-06 1.27163E-18-9.57571E-19
 -1      2192 1.55909E-05-2.61517E-05 4.06094E-06-5.96643E-07-7.20732E-19-4.71882E-18
 -1      2193 2.00517E-05-1.86801E-05-4.41177E-07-8.70549E-06-5.89323E-19-4.60786E-18
 -1      2194 1.76519E-05-1.93106E-05 7.54270E-07 7.63730E-06 2.05405E-19-4.03188E-18
 -1      2195 9.70257E-05-5.20311E-05-1.91602E-05 4.14935E-05-1.44589E-18-1.10570E-18
 -1      2196 1.57280E-04-1.28501E-05-6.10533E-05-1.18943E-06-6.71274E-18 1.62831E-18
 -1      2197 9.86130E-05-2.69860E-05-3.06671E-05 1.01473E-06 2.08142E-18 2.13002E-18
 -1      2198 9.90620E-05-2.64070E-05-3.10646E-05 3.07361E-06 2.34234E-18 2.46589E-18
 -1      2199 8.55417E-05-9.01220E-06-3.28389E-05-1.90008E-06 1.34760E-20-3.21571E-18
 -1      2200 8.62043E-05-9.51866E-06-3.28915E-05-2.74924E-06-3.35126E-19-3.31369E-18
 -1      2201 8.70724E-05-1.03574E-05-3.29258E-05-3.49227E-06-5.33127E-19-3.33160E-18
 -1      2202 8.80063E-05-1.11129E-05-3.29884E-05-4.47094E-06-8.70538E-19-3.29984E-18
 -1      2203 8.77452E-05-1.17755E-05-3.25545E-05-2.51128E-06-4.11195E-19-3.08010E-18
 -1      2204 8.42693E-05-7.88614E-06-3.27665E-05 7.16646E-07 1.13063E-18-2.94220E-18
 -1      2205 8.43369E-05-7.94006E-06-3.27677E-05 2.91800E-08 8.41042E-19-3.01031E-18
 -1      2206 8.46357E-05-8.15277E-06-3.28072E-05 1.90743E-06 1.61056E-18-2.89900E-18
 -1      2207 8.43689E-05-7.96102E-06-3.27774E-05 1.22148E-06 1.35599E-18-2.98678E-18
 -1      2208 8.51949E-05-9.44603E-06-3.24578E-05 9.16940E-07 1.19142E-18-2.74392E-18
 -1      2209 8.56971E-05-9.01494E-06-3.28935E-05 3.15039E-06 2.03794E-18-2.57312E-18
 -1      2210 8.50978E-05-8.56594E-06-3.28383E-05 2.41682E-06 1.75909E-18-2.76569E-18
 -1      2211 8.57700E-05-9.92456E-06-3.24972E-05 1.86019E-06 1.59379E-18-2.59900E-18
 -1      2212 8.75017E-05-1.05705E-05-3.30067E-05 4.59211E-06 2.56440E-18-1.95516E-18
 -1      2213 8.65426E-05-9.80766E-06-3.29355E-05 3.73361E-06 2.23368E-18-2.26586E-18
 -1      2214 8.71140E-05-1.11073E-05-3.25647E-05 2.86723E-06 2.06375E-18-2.22119E-18
 -1      2215 9.00501E-05-1.29354E-05-3.31025E-05 6.25145E-06 2.95209E-18-1.19796E-18
 -1      2216 8.87284E-05-1.17822E-05-3.30377E-05 5.26149E-06 2.67306E-18-1.68697E-18
 -1      2217 8.92391E-05-1.30758E-05-3.26282E-05 4.01022E-06 2.49034E-18-1.58822E-18
 -1      2218 9.33792E-05-1.63307E-05-3.31092E-05 7.97358E-06 3.19863E-18-1.54795E-19
 -1      2219 9.16603E-05-1.46320E-05-3.30815E-05 6.93865E-06 2.97963E-18-7.65281E-19
 -1      2220 9.20838E-05-1.59091E-05-3.26226E-05 5.22150E-06 2.77993E-18-8.39770E-19
 -1      2221 9.86206E-05-2.78352E-05-3.02994E-05-2.14599E-06 1.60040E-18 1.71540E-18
 -1      2222 9.85567E-05-2.74965E-05-3.03827E-05-8.08832E-07 1.79055E-18 2.01183E-18
 -1      2223 9.81453E-05-2.60376E-05-3.09194E-05 4.42336E-07 2.19459E-18 1.18406E-18
 -1      2224 9.82768E-05-2.55756E-05-3.11092E-05-3.47353E-06-1.88218E-18-8.91254E-19
 -1      2225 9.79806E-05-2.64099E-05-3.06837E-05-1.40004E-06-1.63326E-18-9.48427E-19
 -1      2226 1.48513E-04-5.20188E-05-4.18029E-05 5.36382E-06 3.21239E-18-1.91260E-18
 -1      2227 1.41191E-04-5.74379E-05-3.60943E-05 1.36767E-05 1.74298E-18-8.35386E-19
 -1      2228 9.81361E-05-2.71405E-05-3.03634E-05 1.02150E-07-1.44961E-18-7.82625E-19
 -1      2229 9.80757E-05-2.76207E-05-3.01873E-05 1.34754E-06-1.18767E-18-8.78045E-19
 -1      2230 9.76201E-05-2.57387E-05-3.08410E-05-9.36160E-07-1.59163E-18-1.26111E-18
 -1      2231 9.82280E-05-2.80835E-05-3.00211E-05 2.40580E-06-1.10202E-18-7.44411E-19
 -1      2232 9.84776E-05-2.84996E-05-2.99851E-05 3.14397E-06-9.28726E-19-9.38778E-19
 -1      2233 9.78776E-05-2.71632E-05-3.03263E-05 1.86669E-06-1.22820E-18-1.13856E-18
 -1      2234 9.87723E-05-2.88956E-05-2.99199E-05 3.80372E-06-8.24605E-19-8.83951E-19
 -1      2235 9.92489E-05-2.93330E-05-2.99644E-05 4.18204E-06-7.19321E-19-8.96710E-19
 -1      2236 9.83710E-05-2.82747E-05-3.00610E-05 3.72799E-06-9.76582E-19-9.96954E-19
 -1      2237 9.97303E-05-2.97760E-05-2.99601E-05 4.49101E-06-6.52121E-19-9.14193E-19
 -1      2238 1.00357E-04-3.02769E-05-3.00435E-05 4.53674E-06-7.08780E-19-1.00699E-18
 -1      2239 9.91862E-05-2.93324E-05-2.99562E-05 4.80797E-06-8.06664E-19-1.09472E-18
 -1      2240 1.01029E-04-3.08173E-05-3.00732E-05 4.47946E-06-7.50118E-19-9.62647E-19
 -1      2241 1.01724E-04-3.13865E-05-3.01649E-05 4.16670E-06-5.38051E-19-1.06185E-18
 -1      2242 1.00375E-04-3.05379E-05-2.99479E-05 5.13682E-06-7.04159E-19-9.71668E-19
 -1      2243 1.02567E-04-3.20318E-05-3.02131E-05 3.68928E-06-2.40746E-19-1.09126E-18
 -1      2244 1.03230E-04-3.26280E-05-3.02909E-05 2.97723E-06-3.30153E-19-1.15805E-18
 -1      2245 1.01926E-04-3.19688E-05-2.99979E-05 4.64881E-06-4.81724E-19-8.72845E-19
 -1      2246 1.04182E-04-3.33213E-05-3.03545E-05 2.02126E-06-6.23671E-19-1.03027E-18
 -1      2247 1.04683E-04-3.38329E-05-3.04065E-05 9.03929E-07-8.86165E-19-1.10698E-18
 -1      2248 1.03760E-04-3.35715E-05-3.00936E-05 3.22682E-06-5.14089E-19-1.35000E-18
 -1      2249 1.05595E-04-3.44199E-05-3.04967E-05-5.30507E-07-7.65918E-19-9.37757E-19
 -1      2250 1.05773E-04-3.46485E-05-3.05245E-05-1.95520E-06-5.30170E-19-7.86327E-19
 -1      2251 1.05670E-04-3.50918E-05-3.02517E-05 7.96195E-07-6.43750E-19-8.31991E-19
 -1      2252 1.06391E-04-3.48633E-05-3.06639E-05-3.70974E-06-4.29985E-19-6.29366E-19
 -1      2253 1.06088E-04-3.45561E-05-3.06824E-05-5.16524E-06-3.58389E-19-8.84390E-19
 -1      2254 1.07250E-04-3.60145E-05-3.05170E-05-2.51210E-06-5.35704E-19-5.83260E-19
 -1      2255 1.06098E-04-3.40910E-05-3.08919E-05-6.81437E-06-4.74750E-19-8.84893E-19
 -1      2256 1.05253E-04-3.30750E-05-3.09220E-05-7.81753E-06-6.92323E-19-6.33905E-19
 -1      2257 1.07907E-04-3.56315E-05-3.09426E-05-6.13544E-06-5.97679E-19-5.95044E-19
 -1      2258 1.04474E-04-3.17994E-05-3.11986E-05-8.66365E-06-8.50675E-19-9.38820E-19
 -1      2259 1.03253E-04-3.02071E-05-3.12513E-05-8.65048E-06-9.74548E-19-1.01185E-18
 -1      2260 1.07107E-04-3.33953E-05-3.15471E-05-8.91366E-06-7.81514E-19-5.04291E-19
 -1      2261 1.01927E-04-2.84497E-05-3.15418E-05-7.99272E-06-1.24283E-18-1.18342E-18
 -1      2262 1.00779E-04-2.68654E-05-3.16039E-05-6.63823E-06-1.43565E-18-1.20968E-18
 -1      2263 1.04887E-04-2.95627E-05-3.22571E-05-9.30546E-06-1.26776E-18-6.54772E-19
 -1      2264 9.96651E-05-2.54825E-05-3.18114E-05-4.33476E-06-1.63474E-18-1.27054E-18
 -1      2265 9.91442E-05-2.47166E-05-3.18514E-05-1.93859E-06-1.72353E-18-1.25524E-18
 -1      2266 1.02290E-04-2.56186E-05-3.28804E-05-6.26528E-06-1.48532E-18-8.52826E-19
 -1      2267 9.90175E-05-2.45334E-05-3.18873E-05 1.20221E-06-1.58731E-18-1.62949E-18
 -1      2268 9.94077E-05-2.50279E-05-3.18857E-05 3.74662E-06-1.23569E-18-1.36665E-18
 -1      2269 1.00964E-04-2.36653E-05-3.31815E-05-4.22076E-07-1.91437E-18-8.01710E-19
 -1      2270 1.00405E-04-2.62001E-05-3.17356E-05 6.36691E-06-1.00000E-18-1.55964E-18
 -1      2271 1.01538E-04-2.76727E-05-3.17043E-05 8.03532E-06-5.91921E-19-1.90483E-18
 -1      2272 1.01874E-04-2.48558E-05-3.30291E-05 5.77173E-06-1.29790E-18-1.11714E-18
 -1      2273 1.02933E-04-2.94250E-05-3.14445E-05 9.13003E-06-7.31754E-19-2.27062E-18
 -1      2274 1.04275E-04-3.11003E-05-3.14150E-05 9.48089E-06-3.62042E-19-2.68390E-18
 -1      2275 1.04420E-04-2.85601E-05-3.25036E-05 9.65206E-06-9.39647E-19-1.57433E-18
 -1      2276 1.05269E-04-3.25422E-05-3.11485E-05 8.97722E-06-3.80056E-20-2.93636E-18
 -1      2277 1.06325E-04-3.37412E-05-3.11431E-05 8.20922E-06 1.82039E-19-2.89594E-18
 -1      2278 1.06935E-04-3.25706E-05-3.18287E-05 1.00887E-05-4.17141E-19-2.31448E-18
 -1      2279 1.06543E-04-3.44044E-05-3.09364E-05 6.73024E-06 6.65199E-19-2.96649E-18
 -1      2280 1.07081E-04-3.48989E-05-3.09476E-05 5.38082E-06 9.11037E-19-3.18229E-18
 -1      2281 1.08199E-04-3.52556E-05-3.12248E-05 7.82806E-06 5.07279E-19-2.28391E-18
 -1      2282 1.06627E-04-3.48335E-05-3.08103E-05 3.65169E-06 9.51106E-19-3.26228E-18
 -1      2283 1.06663E-04-3.47477E-05-3.08159E-05 2.23262E-06 7.25763E-19-2.55880E-18
 -1      2284 1.07947E-04-3.60653E-05-3.07887E-05 4.38072E-06 6.97015E-19-2.64359E-18
 -1      2285 1.05838E-04-3.42442E-05-3.07277E-05 7.37261E-07 6.91295E-19-2.08470E-18
 -1      2286 1.05510E-04-3.38282E-05-3.07080E-05-4.36115E-07 7.95132E-19-1.98883E-18
 -1      2287 1.06627E-04-3.54306E-05-3.05116E-05 1.01196E-06 9.23029E-19-1.70743E-18
 -1      2288 1.04584E-04-3.31736E-05-3.06412E-05-1.49907E-06 9.87085E-19-1.78100E-18
 -1      2289 1.04047E-04-3.26454E-05-3.05867E-05-2.30777E-06 1.05191E-18-1.75056E-18
 -1      2290 1.04834E-04-3.40664E-05-3.03373E-05-1.60977E-06 1.06487E-18-9.48904E-19
 -1      2291 1.03181E-04-3.20241E-05-3.05209E-05-2.93177E-06 3.08133E-19-2.21434E-18
 -1      2292 1.02556E-04-3.15174E-05-3.04334E-05-3.38631E-06 3.66271E-19-2.61165E-18
 -1      2293 1.03011E-04-3.25552E-05-3.02065E-05-3.31064E-06 2.18465E-19-1.79209E-18
 -1      2294 1.01817E-04-3.10115E-05-3.03590E-05-3.65362E-06 4.78554E-19-2.58613E-18
 -1      2295 1.01184E-04-3.05859E-05-3.02475E-05-3.82532E-06 2.46834E-19-2.01387E-18
 -1      2296 1.01385E-04-3.12234E-05-3.00797E-05-4.19007E-06 1.05808E-19-2.44538E-18
 -1      2297 1.00581E-04-3.02111E-05-3.01634E-05-3.84019E-06 7.80877E-19-1.42526E-18
 -1      2298 9.99858E-05-2.98804E-05-3.00391E-05-3.81483E-06 9.20082E-19-9.51345E-19
 -1      2299 1.00029E-04-3.01905E-05-2.99396E-05-4.44779E-06 9.79948E-19-2.01152E-18
 -1      2300 9.95048E-05-2.96210E-05-2.99490E-05-3.67139E-06 1.67935E-19-1.04971E-18
 -1      2301 9.89722E-05-2.93767E-05-2.98227E-05-3.52577E-06 2.52330E-19-7.46783E-19
 -1      2302 9.89365E-05-2.94563E-05-2.97845E-05-4.28858E-06 6.61620E-19-1.73188E-18
 -1      2303 9.85925E-05-2.92070E-05-2.97317E-05-3.29730E-06 1.83924E-19-2.61326E-19
 -1      2304 9.81323E-05-2.90330E-05-2.96114E-05-3.09067E-06 6.80108E-21-3.60541E-19
 -1      2305 9.80712E-05-2.89697E-05-2.96209E-05-3.88333E-06 3.75464E-19-1.12762E-18
 -1      2306 9.78337E-05-2.89277E-05-2.95242E-05-2.82890E-06-8.44954E-19-8.75478E-19
 -1      2307 9.74473E-05-2.88075E-05-2.94154E-05-2.60242E-06-1.12215E-18-1.13292E-18
 -1      2308 9.73912E-05-2.86685E-05-2.94575E-05-3.35934E-06-7.68611E-19-5.80704E-19
 -1      2309 9.72134E-05-2.87462E-05-2.93355E-05-2.34090E-06-4.79573E-19-5.75819E-19
 -1      2310 9.68968E-05-2.86655E-05-2.92408E-05-2.12059E-06-2.96007E-21 5.07258E-19
 -1      2311 9.68592E-05-2.84968E-05-2.93024E-05-2.80354E-06-4.22467E-19 1.16398E-20
 -1      2312 9.67144E-05-2.86330E-05-2.91704E-05-1.87904E-06-3.70249E-19 5.12860E-19
 -1      2313 9.64607E-05-2.85805E-05-2.90908E-05-1.67952E-06-1.50700E-19 1.34679E-18
 -1      2314 9.64447E-05-2.84105E-05-2.91612E-05-2.27036E-06 1.18752E-19 1.16250E-18
 -1      2315 9.63195E-05-2.85659E-05-2.90306E-05-1.46785E-06 5.40004E-21 1.08189E-18
 -1      2316 9.61205E-05-2.85331E-05-2.89654E-05-1.29586E-06 2.14593E-19 8.57906E-19
 -1      2317 9.61238E-05-2.83778E-05-2.90371E-05-1.79019E-06-8.08859E-21 1.16063E-18
 -1      2318 9.60121E-05-2.85293E-05-2.89154E-05-1.11748E-06 4.21794E-19 2.80239E-20
 -1      2319 9.58593E-05-2.85100E-05-2.88635E-05-9.74638E-07 2.65549E-19 3.69011E-19
 -1      2320 9.58773E-05-2.83766E-05-2.89315E-05-1.37675E-06-9.85763E-20 1.02608E-18
 -1      2321 9.57770E-05-2.85121E-05-2.88230E-05-8.28943E-07 7.68012E-19 5.13932E-19
 -1      2322 9.56622E-05-2.85019E-05-2.87826E-05-7.13857E-07 9.21064E-19 1.02495E-18
 -1      2323 9.56898E-05-2.83923E-05-2.88440E-05-1.03288E-06 6.49065E-19 1.10610E-18
 -1      2324 9.56007E-05-2.85070E-05-2.87505E-05-5.97980E-07 1.18678E-18 1.46333E-18
 -1      2325 9.55165E-05-2.85026E-05-2.87199E-05-5.07663E-07 1.45834E-18 2.46464E-18
 -1      2326 9.55490E-05-2.84158E-05-2.87733E-05-7.54951E-07 1.45087E-18 1.16115E-18
 -1      2327 9.54713E-05-2.85090E-05-2.86951E-05-4.17687E-07 1.06650E-18 2.64403E-18
 -1      2328 9.54111E-05-2.85083E-05-2.86724E-05-3.48497E-07 8.48264E-19 3.35729E-18
 -1      2329 9.54450E-05-2.84415E-05-2.87173E-05-5.35866E-07 1.29443E-18 2.59288E-18
 -1      2330 9.53785E-05-2.85147E-05-2.86536E-05-2.80205E-07-3.52901E-19 2.89055E-18
 -1      2331 9.53369E-05-2.85162E-05-2.86372E-05-2.28425E-07-5.13599E-19 1.50097E-18
 -1      2332 9.53697E-05-2.84663E-05-2.86741E-05-3.67115E-07-1.39984E-20 2.58875E-18
 -1      2333 9.53141E-05-2.85222E-05-2.86233E-05-1.77753E-07 4.56232E-19 1.04256E-18
 -1      2334 9.52865E-05-2.85250E-05-2.86119E-05-1.39916E-07 5.19112E-20 1.70738E-18
 -1      2335 9.53163E-05-2.84886E-05-2.86414E-05-2.40010E-07-5.76433E-19 2.02366E-18
 -1      2336 9.52711E-05-2.85302E-05-2.86019E-05-1.03207E-07-1.35813E-18 1.26580E-18
 -1      2337 9.52539E-05-2.85335E-05-2.85943E-05-7.62698E-08-1.82811E-18 1.86240E-18
 -1      2338 9.52797E-05-2.85077E-05-2.86173E-05-1.46432E-07-7.56237E-19 1.84866E-18
 -1      2339 9.52439E-05-2.85380E-05-2.85873E-05-5.03832E-08-1.07937E-18 2.02517E-18
 -1      2340 9.52342E-05-2.85415E-05-2.85825E-05-3.17902E-08-2.51918E-19 2.17867E-18
 -1      2341 9.52556E-05-2.85236E-05-2.86000E-05-7.92178E-08-1.12578E-18 3.19376E-18
 -1      2342 9.52282E-05-2.85453E-05-2.85778E-05-1.41396E-08-9.75598E-19 2.16995E-18
 -1      2343 9.52238E-05-2.85487E-05-2.85750E-05-1.83272E-09-9.52629E-19 2.38819E-18
 -1      2344 9.52406E-05-2.85366E-05-2.85879E-05-3.23202E-08-7.22792E-19 2.68947E-18
 -1      2345 9.52207E-05-2.85519E-05-2.85719E-05 9.63140E-09-7.45705E-19 2.18174E-18
 -1      2346 9.52199E-05-2.85552E-05-2.85705E-05 1.72389E-08-1.47745E-19 1.23751E-18
 -1      2347 9.52323E-05-2.85471E-05-2.85797E-05-8.33165E-10-1.44763E-18 2.51703E-18
 -1      2348 9.52187E-05-2.85579E-05-2.85687E-05 2.40709E-08 3.10662E-19 9.57926E-19
 -1      2349 9.52202E-05-2.85610E-05-2.85682E-05 2.81338E-08 1.25042E-18 1.30084E-18
 -1      2350 9.52287E-05-2.85557E-05-2.85744E-05 1.90673E-08-4.98834E-19 3.13439E-18
 -1      2351 9.52204E-05-2.85635E-05-2.85671E-05 3.14378E-08 2.43479E-18 8.51893E-19
 -1      2352 9.52232E-05-2.85666E-05-2.85671E-05 3.27151E-08 1.85025E-18 1.60476E-18
 -1      2353 9.52282E-05-2.85630E-05-2.85710E-05 3.02237E-08 1.54217E-18 2.93839E-18
 -1      2354 9.52244E-05-2.85691E-05-2.85665E-05 3.32396E-08 1.28104E-18 1.68273E-18
 -1      2355 9.52278E-05-2.85720E-05-2.85668E-05 3.21249E-08 9.74564E-19 1.95839E-18
 -1      2356 9.52299E-05-2.85695E-05-2.85689E-05 3.46063E-08 1.60087E-18 1.95883E-18
 -1      2357 1.00499E-04-2.90006E-05-3.06130E-05-6.36842E-06 6.49449E-19 8.13835E-19
 -1      2358 9.95708E-05-2.86214E-05-3.03802E-05-5.55862E-06 9.85298E-19 1.18020E-18
 -1      2359 1.02316E-04-2.97601E-05-3.10730E-05-7.92132E-06 3.16900E-19 4.73814E-19
 -1      2360 1.01061E-04-2.92611E-05-3.07548E-05-7.26279E-06 4.97867E-19 6.11719E-19
 -1      2361 9.96269E-05-2.83239E-05-3.05784E-05-7.70972E-06 8.01305E-19 3.15569E-20
 -1      2362 1.04670E-04-3.08433E-05-3.16306E-05-9.07260E-06 7.03502E-19 2.52869E-19
 -1      2363 1.03137E-04-3.01573E-05-3.12650E-05-8.63441E-06 4.30280E-19 4.66251E-19
 -1      2364 1.01029E-04-2.91083E-05-3.08438E-05-9.46616E-06 5.76701E-19-2.27656E-19
 -1      2365 1.07569E-04-3.24433E-05-3.22092E-05-9.53710E-06 6.90770E-19 4.41016E-19
 -1      2366 1.05812E-04-3.14897E-05-3.18395E-05-9.49798E-06 6.82429E-19 3.53830E-19
 -1      2367 1.03014E-04-3.03537E-05-3.11661E-05-1.07402E-05 6.02444E-19-5.33234E-19
 -1      2368 1.11032E-04-3.47594E-05-3.27334E-05-8.79333E-06 1.66376E-19 7.61761E-19
 -1      2369 1.09145E-04-3.34797E-05-3.24087E-05-9.44264E-06 5.29923E-19 6.75919E-19
 -1      2370 1.05771E-04-3.23858E-05-3.14887E-05-1.12016E-05 3.95715E-19-3.30894E-19
 -1      2371 1.14998E-04-3.78203E-05-3.31608E-05-6.13357E-06-4.64253E-19 9.74836E-19
 -1      2372 1.13180E-04-3.62929E-05-3.29205E-05-7.80835E-06-1.21076E-19 9.28262E-19
 -1      2373 1.09571E-04-3.55168E-05-3.17927E-05-1.02546E-05-2.40842E-20 3.25234E-19
 -1      2374 1.19070E-04-4.10628E-05-3.35482E-05-9.46526E-07-9.62289E-19 1.27019E-18
 -1      2375 1.17729E-04-3.97331E-05-3.33896E-05-3.81631E-06-8.21642E-19 1.27236E-18
 -1      2376 1.14593E-04-3.97258E-05-3.21544E-05-7.06751E-06-7.01386E-19 5.64672E-19
 -1      2377 1.22138E-04-4.27866E-05-3.41219E-05 6.50174E-06-1.31608E-19 1.51916E-18
 -1      2378 1.21945E-04-4.26698E-05-3.39639E-05 2.88987E-06-6.55180E-19 1.46709E-18
 -1      2379 1.20430E-04-4.39947E-05-3.28248E-05-9.09795E-07-8.79319E-19 8.12369E-19
 -1      2380 1.22330E-04-4.02815E-05-3.52143E-05 1.37460E-05 2.69317E-19 2.08884E-18
 -1      2381 1.23912E-04-4.25872E-05-3.49339E-05 1.10256E-05 4.45486E-20 1.97272E-18
 -1      2382 1.25355E-04-4.55739E-05-3.42487E-05 7.89533E-06-2.89563E-19 1.82798E-18
 -1      2383 1.18709E-04-3.25914E-05-3.69100E-05 1.56915E-05 1.82115E-18 2.51432E-18
 -1      2384 1.21692E-04-3.71267E-05-3.64635E-05 1.62037E-05 1.01477E-18 2.64889E-18
 -1      2385 1.26427E-04-4.07169E-05-3.68066E-05 1.58865E-05 4.60283E-19 2.30218E-18
 -1      2386 1.14062E-04-2.44373E-05-3.84909E-05 7.89286E-06 2.69319E-18 1.40627E-18
 -1      2387 1.16208E-04-2.79400E-05-3.81498E-05 1.26041E-05 2.40859E-18 2.40041E-18
 -1      2388 1.22560E-04-2.97735E-05-3.99171E-05 1.62195E-05 2.38630E-18 2.45497E-18
 -1      2389 1.13762E-04-2.37238E-05-3.88283E-05-6.07679E-06 2.61791E-18 5.78563E-20
 -1      2390 1.13013E-04-2.27830E-05-3.88903E-05 8.39738E-08 2.94132E-18 6.44943E-19
 -1      2391 1.18534E-04-2.10163E-05-4.20420E-05 4.89826E-06 3.35182E-18 1.79380E-18
 -1      2392 1.18559E-04-3.13867E-05-3.76921E-05-1.58520E-05 1.86135E-18-1.35544E-18
 -1      2393 1.15616E-04-2.69845E-05-3.80787E-05-1.25983E-05 2.32368E-18-6.66479E-19
 -1      2394 1.19855E-04-2.36211E-05-4.14937E-05-1.04440E-05 3.25472E-18 1.82416E-19
 -1      2395 1.23703E-04-4.00498E-05-3.59609E-05-1.57857E-05 5.71708E-19-2.59817E-18
 -1      2396 1.20820E-04-3.60156E-05-3.63461E-05-1.67220E-05 1.23295E-18-2.09203E-18
 -1      2397 1.24635E-04-3.42318E-05-3.88106E-05-1.86037E-05 1.89518E-18-1.67166E-18
 -1      2398 1.24471E-04-4.32336E-05-3.47246E-05-9.04491E-06-1.48409E-19-2.77630E-18
 -1      2399 1.23163E-04-4.18921E-05-3.48995E-05-1.19622E-05-1.01743E-19-2.73948E-18
 -1      2400 1.26918E-04-4.33600E-05-3.60758E-05-1.46021E-05 5.81991E-19-3.09959E-18
 -1      2401 1.21538E-04-4.19299E-05-3.40078E-05-1.03630E-06 2.07920E-20-2.33010E-18
 -1      2402 1.21902E-04-4.26655E-05-3.41028E-05-4.14219E-06 3.85903E-19-2.60376E-18
 -1      2403 1.24514E-04-4.61965E-05-3.39365E-05-5.56304E-06-7.66962E-20-3.02761E-18
 -1      2404 1.17162E-04-3.86699E-05-3.35676E-05 4.72072E-06 4.58271E-19-1.91094E-18
 -1      2405 1.18530E-04-4.01484E-05-3.37080E-05 2.49817E-06 3.38681E-20-2.05838E-18
 -1      2406 1.19016E-04-4.32000E-05-3.28116E-05 2.57354E-06-7.94093E-22-1.69799E-18
 -1      2407 1.12920E-04-3.54806E-05-3.31556E-05 7.73558E-06 5.40486E-19-9.71980E-19
 -1      2408 1.14650E-04-3.68965E-05-3.33895E-05 6.57616E-06 7.79826E-19-8.23794E-19
 -1      2409 1.13442E-04-3.85768E-05-3.22983E-05 7.61313E-06 1.51301E-19-7.16621E-19
 -1      2410 1.09331E-04-3.30763E-05-3.26728E-05 8.67678E-06-8.34890E-19-9.70864E-19
 -1      2411 1.11075E-04-3.41685E-05-3.29843E-05 8.34026E-06-7.34603E-20-2.80118E-19
 -1      2412 1.08985E-04-3.46106E-05-3.19909E-05 9.85997E-06-1.36940E-19 1.93773E-19
 -1      2413 1.06417E-04-3.14650E-05-3.21259E-05 8.36255E-06-1.04896E-18-9.49757E-19
 -1      2414 1.08018E-04-3.22361E-05-3.24744E-05 8.53150E-06-1.09434E-18-1.06714E-18
 -1      2415 1.05716E-04-3.18935E-05-3.16900E-05 1.02198E-05-6.43947E-19 7.15594E-20
 -1      2416 1.04059E-04-3.04393E-05-3.15589E-05 7.42376E-06-7.34588E-19-3.90782E-19
 -1      2417 1.05460E-04-3.09678E-05-3.19059E-05 7.84329E-06-9.82959E-19-1.02069E-18
 -1      2418 1.03343E-04-3.02530E-05-3.13415E-05 9.51024E-06-1.05227E-18-4.93643E-19
 -1      2419 1.02145E-04-2.97932E-05-3.10153E-05 6.26194E-06-7.85259E-20 4.29446E-19
 -1      2420 1.03332E-04-3.01557E-05-3.13347E-05 6.76668E-06-1.29852E-19 4.14326E-20
 -1      2421 1.01571E-04-2.93410E-05-3.09578E-05 8.30333E-06-2.57068E-19-2.49426E-19
 -1      2422 1.00589E-04-2.93796E-05-3.05242E-05 5.10146E-06-1.59000E-18-2.64549E-20
 -1      2423 1.01570E-04-2.96319E-05-3.08027E-05 5.59905E-06-9.70152E-19 2.04027E-19
 -1      2424 1.00199E-04-2.88644E-05-3.05694E-05 6.95040E-06-7.16034E-19-3.22770E-19
 -1      2425 9.93311E-05-2.91073E-05-3.00998E-05 4.05124E-06-1.84857E-19 6.13320E-19
 -1      2426 1.00125E-04-2.92858E-05-3.03334E-05 4.49765E-06-1.01030E-18 5.54653E-19
 -1      2427 9.91067E-05-2.86284E-05-3.02025E-05 5.64500E-06-1.51613E-18-8.86025E-19
 -1      2428 9.83229E-05-2.89226E-05-2.97454E-05 3.15258E-06 5.24106E-19 1.50766E-18
 -1      2429 9.89540E-05-2.90503E-05-2.99355E-05 3.53200E-06 8.08524E-19 1.34660E-18
 -1      2430 9.82262E-05-2.85184E-05-2.98740E-05 4.47965E-06-5.55785E-19-3.01951E-19
 -1      2431 9.75248E-05-2.87948E-05-2.94569E-05 2.41067E-06-1.99717E-19 7.15925E-19
 -1      2432 9.80179E-05-2.88865E-05-2.96082E-05 2.72217E-06 6.53793E-19 1.66367E-18
 -1      2433 9.75160E-05-2.84718E-05-2.95914E-05 3.48741E-06 3.14977E-19 1.18922E-18
 -1      2434 9.69016E-05-2.87056E-05-2.92273E-05 1.81337E-06-8.55914E-19 2.24870E-19
 -1      2435 9.72808E-05-2.87711E-05-2.93453E-05 2.06295E-06-8.94053E-19 4.71272E-19
 -1      2436 9.69474E-05-2.84565E-05-2.93555E-05 2.66908E-06-4.72321E-19 9.01165E-19
 -1      2437 9.64223E-05-2.86437E-05-2.90479E-05 1.34167E-06-1.13663E-18 6.98758E-19
 -1      2438 9.67092E-05-2.86898E-05-2.91384E-05 1.53793E-06-6.63300E-19 8.64323E-19
 -1      2439 9.64975E-05-2.84563E-05-2.91636E-05 2.00978E-06-1.50594E-18 1.25818E-18
 -1      2440 9.60595E-05-2.86015E-05-2.89102E-05 9.75083E-07 4.02655E-19 9.70009E-19
 -1      2441 9.62730E-05-2.86334E-05-2.89784E-05 1.12701E-06-1.14979E-18 5.61603E-19
 -1      2442 9.61468E-05-2.84633E-05-2.90106E-05 1.48838E-06-1.09745E-18 1.40454E-18
 -1      2443 9.57896E-05-2.85738E-05-2.88063E-05 6.94275E-07 1.95797E-18 1.67050E-18
 -1      2444 9.59456E-05-2.85951E-05-2.88567E-05 8.10216E-07 1.89714E-18 9.27158E-19
 -1      2445 9.58779E-05-2.84735E-05-2.88909E-05 1.08250E-06 8.80431E-19 9.06350E-19
 -1      2446 9.55927E-05-2.85566E-05-2.87292E-05 4.82173E-07 2.29305E-18 9.92004E-19
 -1      2447 9.57043E-05-2.85702E-05-2.87659E-05 5.69414E-07 2.23471E-18 1.76216E-18
 -1      2448 9.56752E-05-2.84849E-05-2.87989E-05 7.71094E-07 2.17451E-18 5.26996E-20
 -1      2449 9.54523E-05-2.85470E-05-2.86732E-05 3.24269E-07 1.46349E-18-6.25142E-19
 -1      2450 9.55302E-05-2.85550E-05-2.86993E-05 3.88962E-07 2.27054E-18 6.47607E-19
 -1      2451 9.55255E-05-2.84966E-05-2.87294E-05 5.35554E-07 2.81869E-18-6.16625E-19
 -1      2452 9.53550E-05-2.85427E-05-2.86334E-05 2.08541E-07-6.18707E-19-9.85939E-19
 -1      2453 9.54076E-05-2.85468E-05-2.86514E-05 2.55755E-07 3.17894E-20-3.73665E-19
 -1      2454 9.54174E-05-2.85079E-05-2.86778E-05 3.59998E-07 8.85738E-19 2.74205E-19
 -1      2455 9.52900E-05-2.85420E-05-2.86059E-05 1.25199E-07-4.60836E-19 4.45436E-19
 -1      2456 9.53240E-05-2.85434E-05-2.86179E-05 1.59043E-07-2.04541E-19-1.54272E-19
 -1      2457 9.53414E-05-2.85185E-05-2.86403E-05 2.31214E-07-7.47858E-19 1.76986E-18
 -1      2458 9.52487E-05-2.85436E-05-2.85875E-05 6.63969E-08-2.12133E-18 1.44786E-18
 -1      2459 9.52692E-05-2.85433E-05-2.85952E-05 9.01478E-08-2.09171E-18 6.21740E-19
 -1      2460 9.52897E-05-2.85281E-05-2.86137E-05 1.38406E-07-1.25777E-18 1.61576E-18
 -1      2461 9.52246E-05-2.85467E-05-2.85759E-05 2.59467E-08-9.37545E-19 2.37027E-18
 -1      2462 9.52355E-05-2.85452E-05-2.85804E-05 4.21748E-08-1.25456E-18 1.13415E-18
 -1      2463 9.52562E-05-2.85367E-05-2.85953E-05 7.29022E-08-1.65352E-18 2.15900E-18
 -1      2464 9.52125E-05-2.85506E-05-2.85691E-05-9.40128E-10 6.97336E-19 2.63587E-18
 -1      2465 9.52169E-05-2.85485E-05-2.85714E-05 9.73955E-09-1.20748E-20 2.51681E-18
 -1      2466 9.52359E-05-2.85442E-05-2.85831E-05 2.78558E-08-2.68977E-19 2.65881E-18
 -1      2467 9.52088E-05-2.85549E-05-2.85657E-05-1.78721E-08 1.41904E-18 2.88996E-18
 -1      2468 9.52087E-05-2.85524E-05-2.85665E-05-1.12721E-08 1.53308E-18 3.61429E-18
 -1      2469 9.52250E-05-2.85509E-05-2.85753E-05-2.03065E-09 9.62108E-19 3.59683E-18
 -1      2470 9.52103E-05-2.85595E-05-2.85645E-05-2.74565E-08 7.42228E-19 2.32198E-18
 -1      2471 9.52076E-05-2.85568E-05-2.85643E-05-2.39004E-08 1.11443E-18 2.39778E-18
 -1      2472 9.52207E-05-2.85569E-05-2.85707E-05-2.07512E-08 1.52309E-18 2.32643E-18
 -1      2473 9.52151E-05-2.85641E-05-2.85646E-05-3.14092E-08-1.12510E-18 2.43837E-18
 -1      2474 9.52109E-05-2.85613E-05-2.85640E-05-3.01738E-08-1.09982E-18 2.47296E-18
 -1      2475 9.52209E-05-2.85624E-05-2.85682E-05-3.11509E-08 6.55044E-21 1.41593E-18
 -1      2476 9.52216E-05-2.85689E-05-2.85654E-05-3.09478E-08-1.69417E-18 4.00538E-18
 -1      2477 9.52168E-05-2.85662E-05-2.85645E-05-3.18205E-08-1.01181E-18 3.42167E-18
 -1      2478 9.52232E-05-2.85670E-05-2.85671E-05-3.47086E-08-1.60986E-18 7.27135E-19
 -1      2479 9.52286E-05-2.85740E-05-2.85663E-05-2.64240E-08-6.47584E-20 3.21055E-18
 -1      2480 9.52239E-05-2.85711E-05-2.85655E-05-2.91147E-08-6.10898E-19 3.70714E-18
 -1      2481 9.52281E-05-2.85730E-05-2.85665E-05-3.38215E-08-8.74722E-19 2.10128E-18
 -1      2482 9.52314E-05-2.85764E-05-2.85664E-05-2.23422E-08 3.50645E-19 2.53890E-18
 -1      2483 9.52516E-05-2.85985E-05-2.85656E-05-2.08195E-08-1.10287E-18 1.78466E-18
 -1      2484 9.52501E-05-2.85960E-05-2.85660E-05-2.37704E-08-2.26834E-19 2.56175E-19
 -1      2485 9.52533E-05-2.86009E-05-2.85653E-05-1.35572E-08-4.58074E-20 3.60159E-18
 -1      2486 9.52524E-05-2.85992E-05-2.85656E-05-1.71048E-08-1.13315E-18 3.24778E-18
 -1      2487 9.52519E-05-2.85914E-05-2.85688E-05-2.03739E-08-2.58457E-19 1.74676E-18
 -1      2488 9.52440E-05-2.85894E-05-2.85662E-05-3.00769E-08-2.81812E-19-1.93465E-18
 -1      2489 9.52407E-05-2.85853E-05-2.85666E-05-3.02771E-08-4.57240E-20-3.49439E-18
 -1      2490 9.52486E-05-2.85946E-05-2.85660E-05-2.66004E-08-5.52707E-19 1.47752E-18
 -1      2491 9.52463E-05-2.85914E-05-2.85664E-05-2.84479E-08-6.52975E-19 6.76780E-19
 -1      2492 9.52447E-05-2.85860E-05-2.85681E-05-3.19716E-08 3.79183E-19-1.20267E-18
 -1      2493 9.52491E-05-2.85892E-05-2.85685E-05-2.73633E-08-3.23126E-19 8.13692E-19
 -1      2494 9.52540E-05-2.86020E-05-2.85651E-05-5.69169E-09-6.32520E-19-6.63473E-19
 -1      2495 9.52537E-05-2.86012E-05-2.85653E-05-9.49693E-09-8.02629E-20 1.38185E-18
 -1      2496 9.52533E-05-2.85925E-05-2.85689E-05-1.23182E-08-4.84000E-19 2.30479E-18
 -1      2497 9.52540E-05-2.86020E-05-2.85651E-05 2.32588E-09-7.94142E-19 1.75854E-19
 -1      2498 9.52541E-05-2.86021E-05-2.85651E-05-1.52586E-09-1.19340E-18 4.79454E-19
 -1      2499 9.52538E-05-2.85929E-05-2.85689E-05-3.82301E-09-3.27737E-19 9.55911E-21
 -1      2500 9.52534E-05-2.86009E-05-2.85653E-05 1.01898E-08-1.64764E-18-2.31204E-18
 -1      2501 9.52539E-05-2.86018E-05-2.85651E-05 6.45103E-09-1.24894E-18-4.23988E-19
 -1      2502 9.52536E-05-2.85927E-05-2.85690E-05 4.72933E-09-1.18048E-18-2.93682E-19
 -1      2503 9.52521E-05-2.85988E-05-2.85656E-05 1.74458E-08-4.08119E-19-2.26621E-18
 -1      2504 9.52530E-05-2.86005E-05-2.85653E-05 1.40718E-08-7.01640E-19-2.57054E-18
 -1      2505 9.52529E-05-2.85921E-05-2.85689E-05 1.29910E-08-1.52997E-18-1.83565E-18
 -1      2506 9.52497E-05-2.85954E-05-2.85661E-05 2.38191E-08 4.95110E-19-1.73168E-18
 -1      2507 9.52512E-05-2.85980E-05-2.85657E-05 2.09938E-08 2.20554E-19-2.50538E-18
 -1      2508 9.52514E-05-2.85909E-05-2.85688E-05 2.06806E-08-3.76057E-19-1.92544E-18
 -1      2509 9.52459E-05-2.85908E-05-2.85665E-05 2.83287E-08-4.34567E-19-1.13723E-18
 -1      2510 9.52482E-05-2.85941E-05-2.85660E-05 2.65712E-08 4.23370E-20-5.86085E-19
 -1      2511 9.52486E-05-2.85887E-05-2.85686E-05 2.72726E-08-1.11171E-19-1.71622E-18
 -1      2512 9.52404E-05-2.85849E-05-2.85667E-05 2.97784E-08-8.34068E-19-9.65770E-19
 -1      2513 9.52435E-05-2.85888E-05-2.85663E-05 2.97493E-08-1.83740E-19-1.16561E-18
 -1      2514 9.52441E-05-2.85852E-05-2.85681E-05 3.15429E-08-5.75094E-19-1.39756E-18
 -1      2515 2.62621E-05-1.99810E-05-2.31169E-06 1.83939E-05-4.14834E-19 5.13281E-18
 -1      2516 2.03425E-05-1.70133E-05-1.02618E-06 3.87939E-06-3.23739E-19 5.37993E-18
 -1      2517 9.43246E-05-5.26683E-05-1.80099E-05 3.98243E-05 3.15308E-19 1.39366E-18
 -1      2518 7.67333E-05-4.66245E-05-1.26984E-05 3.96794E-05 4.59515E-20 2.52575E-18
 -1      2519 9.92503E-05-2.84110E-05-3.03260E-05-4.48570E-06 1.28248E-18 1.33390E-18
 -1      2520 9.87102E-05-2.80929E-05-3.02194E-05-3.49119E-06 1.40248E-18 1.54236E-18
 -1      2521 9.87169E-05-2.77362E-05-3.04410E-05-5.57182E-06 1.34984E-18 4.00742E-19
 -1      2522 9.52352E-05-2.85807E-05-2.85662E-05 2.55572E-08 2.91515E-19 1.40702E-18
 -1      2523 1.97538E-05-1.80090E-05-4.85934E-07-1.03356E-05 6.82682E-19 5.48793E-18
 -1      2524 2.63729E-05-2.10715E-05-2.02946E-06-2.42842E-05 9.25913E-19 5.18405E-18
 -1      2525 9.68538E-05-2.04518E-05-3.27845E-05-9.24533E-06-2.43570E-18-1.46993E-18
 -1      2526 9.76190E-05-2.38358E-05-3.16369E-05-5.35570E-06-2.21326E-18-1.15738E-18
 -1      2527 9.68403E-05-2.28143E-05-3.17181E-05-4.67482E-06-1.92958E-18-1.51080E-18
 -1      2528 9.46140E-05-1.78366E-05-3.29266E-05-8.72782E-06-2.28263E-18-2.00175E-18
 -1      2529 4.05856E-05-2.94396E-05-4.49871E-06-3.52369E-05 1.60703E-18 6.45058E-18
 -1      2530 5.63715E-05-3.71579E-05-8.15199E-06-4.27035E-05 1.33238E-18 6.47726E-18
 -1      2531 3.20448E-05-2.36804E-05-3.17146E-06-2.47294E-05-1.31798E-18-4.94625E-18
 -1      2532 4.54603E-05-3.12403E-05-5.82633E-06-3.56070E-05-1.47934E-18-4.59007E-18
 -1      2533 1.50382E-04-2.71406E-05-5.32584E-05 8.31366E-06 4.27773E-18 4.58668E-19
 -1      2534 1.53477E-04-2.05963E-05-5.71285E-05 6.50315E-06 5.36214E-18 1.73218E-19
 -1      2535 8.45893E-05-8.18551E-06-3.27794E-05-5.18610E-07 6.51331E-19-3.06164E-18
 -1      2536 8.49678E-05-8.46802E-06-3.28098E-05-1.26444E-06 2.73559E-19-3.14067E-18
 -1      2537 8.62409E-05-1.04073E-05-3.24970E-05-1.19723E-06 1.62119E-19-2.90079E-18
 -1      2538 8.53676E-05-9.62085E-06-3.24587E-05-7.30861E-08 7.11045E-19-2.84992E-18
 -1      2539 1.52072E-04-1.62438E-05-5.85411E-05 4.17666E-06 5.82886E-18-3.54060E-19
 -1      2540 1.50591E-04-1.35735E-05-5.90902E-05 4.57935E-07 6.21299E-18-2.74862E-19
 -1      2541 1.41983E-04-1.74489E-05-5.36072E-05 8.68848E-06 5.01952E-18 1.42937E-18
 -1      2542 1.32521E-04-6.05354E-05-3.07633E-05-2.08673E-05-1.04005E-18-2.16883E-18
 -1      2543 1.42166E-04-5.85910E-05-3.61512E-05-1.46077E-05-3.46542E-19-2.35433E-18
 -1      2544 9.70263E-05-5.44624E-05-1.81061E-05-3.82103E-05-1.81159E-18-2.91242E-18
 -1      2545 1.17490E-04-5.93924E-05-2.50880E-05-3.32187E-05-1.38109E-18-2.48498E-18
 -1      2546 6.20668E-05-3.96929E-05-9.33248E-06-3.94943E-05-1.87914E-18-3.71445E-18
 -1      2547 7.79109E-05-4.63711E-05-1.34653E-05-4.26909E-05-1.60089E-18-3.27452E-18
 -1      2548 1.10266E-04-5.59584E-05-2.34004E-05 3.72075E-05-2.97097E-19 1.22544E-18
 -1      2549 9.33171E-05-5.20181E-05-1.75008E-05 4.09141E-05 2.03500E-19-2.28765E-19
 -1      2550 3.48219E-05-2.70241E-05-3.29288E-06 3.30125E-05 5.59465E-19-3.97873E-18
 -1      2551 2.52642E-05-2.28010E-05-7.72356E-07 2.18617E-05 7.09390E-19-4.19197E-18
 -1      2552 1.44871E-04-1.00407E-05-5.80779E-05 7.40249E-07-6.54502E-18 7.70006E-19
 -1      2553 1.40421E-04-1.01325E-05-5.63850E-05-2.23445E-06-6.30489E-18 1.23910E-18
 -1      2554 7.14396E-05-4.32651E-05-1.21178E-05 4.49068E-05 3.40719E-19-1.59327E-18
 -1      2555 5.23963E-05-3.56302E-05-6.88735E-06 3.97264E-05 7.78635E-19-2.85598E-18
 -1      2556 1.49513E-04-3.72699E-05-4.83898E-05 2.79050E-06-3.19766E-18 1.74722E-18
 -1      2557 1.44956E-04-4.39901E-05-4.34494E-05 7.43316E-06-2.50023E-18 1.64917E-18
 -1      2558 1.43518E-04-1.91058E-05-5.39648E-05-6.74671E-06-5.26897E-18 2.54110E-18
 -1      2559 1.47988E-04-2.85841E-05-5.13296E-05-3.28897E-06-4.23559E-18 2.03711E-18
 -1      2560 1.39575E-04-1.60927E-05-5.35615E-05 6.69199E-06-5.40788E-18 2.00217E-19
 -1      2561 1.44113E-04-1.22771E-05-5.67918E-05 3.62762E-06-6.22527E-18 5.26378E-19
 -1      2562 1.31610E-04-9.13137E-06-5.27975E-05 3.70958E-06-6.04591E-18-4.34263E-19
 -1      2563 1.45430E-04-3.87116E-05-4.58445E-05 7.91652E-07-3.51042E-18-2.54110E-21
 -1      2564 1.44324E-04-2.82414E-05-5.03801E-05 6.62901E-06-4.17121E-18-3.17637E-20
 -1      2565 1.35712E-04-5.31204E-05-3.54106E-05-1.83628E-05-1.51375E-18 1.87597E-18
 -1      2566 1.43217E-04-4.87506E-05-4.10172E-05-1.02806E-05-2.75096E-18-9.31736E-21
 -1      2567 1.10535E-04-5.55167E-05-2.34502E-05-3.48848E-05 6.70427E-19 3.98127E-18
 -1      2568 1.25620E-04-5.57902E-05-3.01292E-05-2.94043E-05-1.93971E-19 3.62297E-18
 -1      2569 1.32151E-04-5.74589E-05-3.18571E-05-1.89581E-05 6.10605E-19 1.65288E-18
 -1      2570 7.29095E-05-4.46939E-05-1.19618E-05-4.29400E-05 1.47659E-18 5.31264E-18
 -1      2571 9.09948E-05-5.01689E-05-1.76221E-05-4.32671E-05 1.05794E-18 4.95753E-18
 -1      2572 7.13217E-05-4.08493E-05-1.26259E-05-4.23044E-05 1.78724E-18 5.60206E-18
 -1      2573 1.50919E-04-3.49058E-05-5.03639E-05-1.00013E-05 4.48864E-18-2.46084E-18
 -1      2574 1.50476E-04-4.39679E-05-4.58470E-05-7.11792E-06 3.88153E-18-2.67302E-18
 -1      2575 9.91022E-05-2.57242E-05-3.14568E-05 4.93820E-06 2.64673E-18 2.74267E-18
 -1      2576 9.98169E-05-2.43804E-05-3.23458E-05 8.18475E-06 2.76929E-18 3.23495E-18
 -1      2577 9.80647E-05-2.18069E-05-3.27365E-05 9.15373E-06 3.08744E-18 2.23584E-18
 -1      2578 9.82781E-05-2.44867E-05-3.16594E-05 4.44686E-06 2.68586E-18 1.56939E-18
 -1      2579 1.30614E-04-5.99461E-05-3.05654E-05 2.53823E-05 9.90605E-19-6.77626E-19
 -1      2580 1.13561E-04-5.86348E-05-2.35048E-05 3.15391E-05 6.18758E-19 3.01544E-19
 -1      2581 1.37245E-04-6.13652E-05-3.25508E-05 1.46340E-05 5.83394E-20-1.99000E-18
 -1      2582 1.42747E-04-1.41677E-05-5.53866E-05-2.48871E-06 5.59677E-18-5.13170E-19
 -1      2583 8.98198E-05-1.37321E-05-3.25971E-05-4.00234E-06-9.78946E-19-2.97173E-18
 -1      2584 8.91520E-05-1.22726E-05-3.30069E-05-5.29199E-06-1.07919E-18-3.19709E-18
 -1      2585 9.03410E-05-1.32874E-05-3.30767E-05-6.40853E-06-1.51600E-18-3.05922E-18
 -1      2586 9.82589E-05-2.70990E-05-3.05167E-05-2.95305E-06 1.71041E-18 7.80574E-19
 -1      2587 9.59934E-05-1.93106E-05-3.29101E-05 8.67367E-06 3.08823E-18 1.01149E-18
 -1      2588 1.05345E-04-5.46173E-05-2.14668E-05-3.67961E-05 1.64917E-18 3.84794E-18
 -1      2589 4.02870E-05-2.39278E-05-6.49815E-06-3.00864E-05 1.69174E-18 6.00462E-18
 -1      2590 1.37817E-04-2.26518E-05-4.97129E-05 9.64861E-06-4.10303E-18 5.88688E-20
 -1      2591 1.28614E-04-1.78007E-05-4.79426E-05 1.16451E-05-4.31648E-18-5.69736E-19
 -1      2592 1.32945E-04-2.86610E-05-4.50474E-05 1.11119E-05-2.73062E-18-8.74667E-19
 -1      2593 7.06068E-05-4.10156E-05-1.22324E-05 3.95689E-05-6.72968E-19 2.50468E-18
 -1      2594 1.37083E-04-1.42305E-05-5.31012E-05-6.52672E-06-5.35155E-18 1.64938E-18
 -1      2595 1.31241E-04-1.86091E-05-4.87399E-05-9.57386E-06-4.40542E-18 1.56500E-18
 -1      2596 1.27615E-04-9.88174E-06-5.09859E-05-5.58165E-06-5.41783E-18 7.68947E-19
 -1      2597 9.52333E-05-2.85784E-05-2.85665E-05-2.76700E-08 1.92986E-19 2.61608E-18
 -1      2598 1.09621E-04-5.72886E-05-2.21092E-05 3.21360E-05-9.75570E-19-6.77679E-19
 -1      2599 9.52362E-05-2.85815E-05-2.85663E-05-2.94248E-08 6.48016E-20-5.48755E-19
 -1      2600 1.42344E-04-3.32326E-05-4.68845E-05-6.43558E-06-3.25652E-18 2.42929E-18
 -1      2601 2.72872E-05-1.46399E-05-4.81070E-06-2.81458E-06 5.23731E-19 5.29523E-18
 -1      2602 3.57353E-05-2.27965E-05-5.03428E-06 2.44478E-05-9.24113E-19 5.27829E-18
 -1      2603 3.68522E-05-1.66821E-05-8.09074E-06 1.85473E-05-1.29924E-18 5.10591E-18
 -1      2604 4.63968E-05-2.55316E-05-8.74518E-06 3.02671E-05-1.36743E-18 4.15237E-18
 -1      2605 8.81480E-05-4.81362E-05-1.66924E-05 4.12880E-05 1.25615E-18-3.26531E-19
 -1      2606 9.61472E-05-2.04792E-05-3.23880E-05 6.43149E-06 2.86293E-18 6.36294E-19
 -1      2607 9.29885E-05-1.61876E-05-3.29582E-05-7.65918E-06-1.92177E-18-2.50246E-18
 -1      2608 5.07982E-05-3.02154E-05-8.28191E-06 3.66287E-05 1.37368E-18-3.05758E-18
 -1      2609 2.95917E-05-1.96299E-05-3.73884E-06-1.77779E-05-7.57989E-19-4.43930E-18
 -1      2610 4.03542E-05-2.05240E-05-7.97764E-06-2.39936E-05-1.07404E-18-4.25592E-18
 -1      2611 2.80279E-05-1.48864E-05-5.21276E-06-9.46918E-06-1.47251E-19-3.81038E-18
 -1      2612 6.01983E-05-3.42768E-05-1.06260E-05-3.70033E-05-1.90455E-18-3.90705E-18
 -1      2613 1.20796E-04-5.82635E-05-2.66370E-05 2.98054E-05-2.08794E-19 1.95675E-18
 -1      2614 1.15936E-04-5.77536E-05-2.46371E-05 3.09059E-05 8.31680E-19 2.23985E-18
 -1      2615 1.28712E-04-5.92934E-05-3.02598E-05 2.17004E-05-8.63974E-20 2.98431E-18
 -1      2616 1.49551E-04-3.51036E-05-4.94309E-05 1.04121E-05 2.93253E-18 7.20402E-19
 -1      2617 1.40894E-04-2.84542E-05-4.88069E-05 1.45064E-05 3.40380E-18 1.68824E-18
 -1      2618 1.44916E-04-4.07407E-05-4.48104E-05 1.09313E-05 2.14003E-18 1.62059E-18
 -1      2619 1.42696E-04-5.08931E-05-3.95209E-05 9.58923E-06-1.80812E-18 1.95178E-18
 -1      2620 1.37532E-04-5.47980E-05-3.52533E-05 1.15015E-05-9.32769E-19 2.57593E-18
 -1      2621 1.41203E-04-4.79924E-05-4.04172E-05 4.60724E-07-1.41195E-18 2.21266E-18
 -1      2622 1.45604E-04-5.59666E-05-3.85541E-05-1.91960E-06-1.42871E-19-2.48604E-19
 -1      2623 1.46024E-04-4.87770E-05-4.14994E-05-6.56493E-06 2.52723E-18-3.62043E-18
 -1      2624 9.47526E-05-5.15623E-05-1.80996E-05-3.78849E-05-2.19784E-18-2.81302E-18
 -1      2625 1.44330E-04-2.85427E-05-4.99059E-05-1.43778E-05 4.57398E-18-2.86678E-18
 -1      2626 1.26939E-04-6.16132E-05-2.78489E-05-2.38980E-05-2.04844E-18-1.89481E-18
 -1      2627 2.69909E-05-1.80968E-05-3.26723E-06 1.44546E-05 5.23731E-19-4.02214E-18
 -1      2628 9.52317E-05-2.85762E-05-2.85667E-05 2.82651E-08 1.48214E-18 2.66078E-18
 -1      2629 9.52373E-05-2.85820E-05-2.85665E-05 3.02581E-08 1.68584E-19 6.27930E-19
 -1      2630 9.52374E-05-2.85799E-05-2.85675E-05 3.30048E-08 1.74543E-19 4.91903E-19
 -1      2631 9.52287E-05-2.85737E-05-2.85664E-05 3.10774E-08 1.16585E-18 1.76602E-18
 -1      2632 9.52362E-05-2.85797E-05-2.85671E-05-3.29747E-08-2.68827E-19-1.37941E-18
 -1      2633 1.41493E-04-4.49294E-05-4.14116E-05 3.74766E-07-2.19477E-18-5.19655E-19
 -1      2634 9.52325E-05-2.85750E-05-2.85676E-05 3.40645E-08 1.34138E-18 2.23128E-18
 -1      2635 8.65736E-05-1.15466E-05-3.21746E-05 1.70183E-06 1.62926E-18-2.38674E-18
 -1      2636 8.60934E-05-1.11332E-05-3.21477E-05 1.27702E-06 1.41723E-18-2.52187E-18
 -1      2637 8.58029E-05-1.08762E-05-3.21327E-05 1.07685E-06 1.28926E-18-2.51967E-18
 -1      2638 8.57162E-05-1.08012E-05-3.21233E-05 6.45967E-07 9.78167E-19-2.50829E-18
 -1      2639 8.65995E-05-1.23229E-05-3.18110E-05 9.66803E-07 1.26443E-18-2.39018E-18
 -1      2640 9.05408E-05-1.53206E-05-3.22660E-05 3.16280E-06 2.46249E-18-1.35217E-18
 -1      2641 8.92848E-05-1.41135E-05-3.22481E-05 2.63790E-06 2.23847E-18-1.60851E-18
 -1      2642 9.35878E-05-1.85600E-05-3.21883E-05 3.90809E-06 2.61667E-18-6.23052E-19
 -1      2643 9.19989E-05-1.68405E-05-3.22387E-05 3.44002E-06 2.51385E-18-1.00189E-18
 -1      2644 9.20065E-05-1.75765E-05-3.18720E-05 1.96554E-06 2.30929E-18-1.03709E-18
 -1      2645 9.73381E-05-2.50262E-05-3.09869E-05-3.94122E-07 2.12211E-18 4.36759E-19
 -1      2646 9.73641E-05-2.42414E-05-3.13078E-05 1.65782E-06 2.33832E-18 6.21122E-19
 -1      2647 9.34901E-05-1.76681E-05-3.24853E-05-5.89678E-06-1.73574E-18-2.37494E-18
 -1      2648 1.40054E-04-6.07708E-05-3.46684E-05 6.45446E-06-1.31925E-19-2.82867E-18
 -1      2649 1.31206E-04-6.07148E-05-2.99367E-05 1.54113E-05-1.34551E-18-2.62527E-18
 -1      2650 9.62136E-05-2.16481E-05-3.19576E-05 4.31585E-06 2.68713E-18 4.23655E-19
 -1      2651 3.84039E-05-1.80146E-05-8.23388E-06-2.37448E-05 8.92349E-19 4.88314E-18
 -1      2652 5.17741E-05-2.66997E-05-1.04466E-05-3.54103E-05 1.13629E-18 6.79871E-18
 -1      2653 1.31953E-04-1.33178E-05-5.14752E-05 3.89056E-07 4.58711E-18 6.45757E-19
 -1      2654 1.33548E-04-1.54065E-05-5.12291E-05-7.47917E-06 4.70950E-18-7.75353E-19
 -1      2655 9.73086E-05-2.59313E-05-3.05501E-05 1.27640E-06-1.15277E-18-1.40418E-18
 -1      2656 9.74560E-05-2.66390E-05-3.03581E-05 2.47227E-06-1.03049E-18-1.36459E-18
 -1      2657 9.77468E-05-2.73009E-05-3.01632E-05 3.50107E-06-9.39664E-19-1.23230E-18
 -1      2658 9.80624E-05-2.79245E-05-3.00625E-05 4.28424E-06-8.98234E-19-1.28336E-18
 -1      2659 9.69544E-05-2.61622E-05-3.03529E-05 3.06267E-06-9.77489E-19-1.30038E-18
 -1      2660 9.84667E-05-2.85553E-05-2.99371E-05 4.97123E-06-7.78121E-19-1.06191E-18
 -1      2661 9.89654E-05-2.92158E-05-2.98972E-05 5.37784E-06-7.10880E-19-1.03564E-18
 -1      2662 9.76597E-05-2.76910E-05-3.00048E-05 4.89030E-06-8.27327E-19-1.13621E-18
 -1      2663 9.95775E-05-2.99364E-05-2.98203E-05 5.72055E-06-6.78831E-19-9.62626E-19
 -1      2664 1.00268E-04-3.07146E-05-2.98179E-05 5.74254E-06-6.46529E-19-9.04560E-19
 -1      2665 9.86805E-05-2.92657E-05-2.97719E-05 6.02826E-06-7.30147E-19-8.59705E-19
 -1      2666 1.01165E-04-3.16051E-05-2.97814E-05 5.69113E-06-5.63249E-19-8.76243E-19
 -1      2667 1.02029E-04-3.25239E-05-2.98057E-05 5.27986E-06-3.92942E-19-9.41662E-19
 -1      2668 1.00192E-04-3.11242E-05-2.96282E-05 6.43367E-06-6.43783E-19-9.05422E-19
 -1      2669 1.03250E-04-3.35943E-05-2.98175E-05 4.73968E-06-3.00156E-19-8.90454E-19
 -1      2670 1.04222E-04-3.45868E-05-2.98721E-05 3.83398E-06-4.35999E-19-7.11631E-19
 -1      2671 1.02314E-04-3.33761E-05-2.95775E-05 5.96696E-06-4.16106E-19-9.13143E-19
 -1      2672 1.05718E-04-3.57250E-05-2.99601E-05 2.69169E-06-4.09974E-19-6.01551E-19
 -1      2673 1.06643E-04-3.65792E-05-3.00657E-05 1.27461E-06-4.13010E-19-4.45645E-19
 -1      2674 1.05053E-04-3.59184E-05-2.96620E-05 4.41145E-06-3.40317E-19-1.19194E-19
 -1      2675 1.08198E-04-3.74822E-05-3.02790E-05-5.22126E-07-5.58571E-19-1.77338E-19
 -1      2676 1.08808E-04-3.78049E-05-3.04698E-05-2.32625E-06-4.89248E-19-6.46438E-20
 -1      2677 1.08159E-04-3.82809E-05-2.99691E-05 1.56152E-06-2.78206E-19 1.32238E-19
 -1      2678 1.09967E-04-3.79560E-05-3.08660E-05-4.59837E-06-5.45344E-19-1.53676E-19
 -1      2679 1.09940E-04-3.72511E-05-3.11718E-05-6.39724E-06-6.71944E-19-1.94500E-19
 -1      2680 1.10965E-04-3.95018E-05-3.06226E-05-2.54040E-06-6.09758E-19 1.52925E-19
 -1      2681 1.10106E-04-3.60922E-05-3.17729E-05-8.49887E-06-7.72166E-19-2.59243E-19
 -1      2682 1.09258E-04-3.40918E-05-3.21880E-05-9.56456E-06-8.80354E-19-2.67419E-19
 -1      2683 1.12386E-04-3.82831E-05-3.17225E-05-7.16109E-06-8.32033E-19 1.41589E-19
 -1      2684 1.08114E-04-3.15211E-05-3.29279E-05-1.03632E-05-9.03960E-19-1.57740E-19
 -1      2685 1.06710E-04-2.86778E-05-3.33728E-05-9.85819E-06-1.22746E-18-1.22031E-19
 -1      2686 1.11421E-04-3.37594E-05-3.32276E-05-1.05097E-05-8.22639E-19 4.17142E-19
 -1      2687 1.04866E-04-2.56764E-05-3.40423E-05-8.28006E-06-1.68638E-18-3.02341E-19
 -1      2688 1.03680E-04-2.33943E-05-3.43598E-05-5.90448E-06-1.85083E-18-4.34141E-19
 -1      2689 1.08294E-04-2.69832E-05-3.48365E-05-1.00657E-05-1.53920E-18 5.08683E-19
 -1      2690 1.02659E-04-2.18326E-05-3.46897E-05-2.25841E-06-2.08622E-18-7.54028E-19
 -1      2691 1.02371E-04-2.14571E-05-3.47459E-05 1.03932E-06-1.83874E-18-8.10730E-19
 -1      2692 1.05315E-04-2.14904E-05-3.59741E-05-4.61214E-06-2.23503E-18-7.11759E-19
 -1      2693 1.03223E-04-2.25263E-05-3.45359E-05 5.30464E-06-1.97268E-18-1.21204E-18
 -1      2694 1.04295E-04-2.45252E-05-3.42833E-05 7.92219E-06-1.62966E-18-1.58566E-18
 -1      2695 1.04598E-04-2.03599E-05-3.61153E-05 3.76630E-06-2.19283E-18-1.03948E-18
 -1      2696 1.05995E-04-2.72126E-05-3.37017E-05 1.00261E-05-1.02776E-18-1.74798E-18
 -1      2697 1.07467E-04-3.00641E-05-3.32878E-05 1.10512E-05-7.84544E-19-2.09089E-18
 -1      2698 1.07597E-04-2.58551E-05-3.50534E-05 9.83560E-06-1.47903E-18-1.70651E-18
 -1      2699 1.08917E-04-3.28877E-05-3.25439E-05 1.07930E-05-5.52296E-19-1.81995E-18
 -1      2700 1.09967E-04-3.51526E-05-3.21279E-05 1.00635E-05-3.08121E-19-1.95351E-18
 -1      2701 1.10783E-04-3.20929E-05-3.36735E-05 1.16943E-05-6.57486E-19-2.06093E-18
 -1      2702 1.10097E-04-3.66414E-05-3.14933E-05 8.20422E-06 3.09366E-21-1.85871E-18
 -1      2703 1.10360E-04-3.76513E-05-3.11752E-05 6.55228E-06 6.44837E-19-2.28760E-18
 -1      2704 1.12389E-04-3.73546E-05-3.21154E-05 9.05973E-06-3.57154E-19-1.58374E-18
 -1      2705 1.09388E-04-3.77652E-05-3.07341E-05 4.29316E-06 9.05577E-19-2.41761E-18
 -1      2706 1.08947E-04-3.76622E-05-3.05292E-05 2.48700E-06 8.03075E-19-2.43362E-18
 -1      2707 1.11463E-04-3.92823E-05-3.09203E-05 4.64576E-06 5.20088E-19-2.46757E-18
 -1      2708 1.07435E-04-3.68964E-05-3.02719E-05 5.85200E-07 8.67966E-19-2.06264E-18
 -1      2709 1.06600E-04-3.61629E-05-3.01530E-05-9.14827E-07 1.25857E-18-1.77726E-18
 -1      2710 1.08881E-04-3.85428E-05-3.01601E-05 3.98849E-07 1.28596E-18-2.29404E-18
 -1      2711 1.05053E-04-3.50750E-05-3.00224E-05-2.20288E-06 1.60243E-18-1.68736E-18
 -1      2712 1.04108E-04-3.41464E-05-2.99502E-05-3.23717E-06 1.18864E-18-1.41534E-18
 -1      2713 1.05759E-04-3.64030E-05-2.97521E-05-2.73150E-06 1.64893E-18-2.08575E-18
 -1      2714 1.02794E-04-3.30995E-05-2.98889E-05-3.94915E-06 1.20849E-19-2.22806E-18
 -1      2715 1.01907E-04-3.22373E-05-2.98327E-05-4.53612E-06-4.28046E-19-2.62911E-18
 -1      2716 1.02876E-04-3.39605E-05-2.95639E-05-4.62457E-06 3.17069E-19-2.47938E-18
 -1      2717 1.00904E-04-3.13958E-05-2.97994E-05-4.81023E-06-1.93599E-19-2.39789E-18
 -1      2718 1.00148E-04-3.07087E-05-2.97420E-05-5.04252E-06 4.25438E-19-2.01521E-18
 -1      2719 1.00560E-04-3.18173E-05-2.94844E-05-5.50720E-06-3.03364E-20-2.16401E-18
 -1      2720 9.94299E-05-3.01063E-05-2.97134E-05-5.02248E-06 1.07250E-18-1.53136E-18
 -1      2721 9.88151E-05-2.96102E-05-2.96485E-05-5.00595E-06 1.23679E-18-1.43002E-18
 -1      2722 9.88480E-05-3.01904E-05-2.94417E-05-5.68014E-06 7.28248E-19-5.11337E-19
 -1      2723 9.83227E-05-2.92185E-05-2.96147E-05-4.80755E-06 9.38571E-19-1.69389E-18
 -1      2724 9.78344E-05-2.88873E-05-2.95431E-05-4.63554E-06 7.26982E-19-1.38265E-18
 -1      2725 9.76479E-05-2.90778E-05-2.93988E-05-5.40223E-06 1.32773E-18-1.25961E-18
 -1      2726 9.75057E-05-2.86575E-05-2.95022E-05-4.34348E-06 4.62285E-19-1.29861E-18
 -1      2727 9.71219E-05-2.84526E-05-2.94274E-05-4.08836E-06 2.47500E-19-1.28407E-18
 -1      2728 9.68350E-05-2.83884E-05-2.93420E-05-4.86877E-06 6.09545E-19-1.21495E-18
 -1      2729 9.69057E-05-2.83365E-05-2.93812E-05-3.76062E-06-2.09590E-19-1.05198E-18
 -1      2730 9.66055E-05-2.82212E-05-2.93073E-05-3.47374E-06-9.87746E-19-5.26835E-19
 -1      2731 9.62960E-05-2.80108E-05-2.92702E-05-4.21708E-06-5.47000E-20-1.21771E-18
 -1      2732 9.64640E-05-2.81790E-05-2.92589E-05-3.14764E-06-3.61884E-19 1.65737E-19
 -1      2733 9.62300E-05-2.81235E-05-2.91894E-05-2.86262E-06 3.44152E-19 5.77616E-19
 -1      2734 9.59425E-05-2.78452E-05-2.91880E-05-3.53853E-06-1.93127E-19-4.21576E-19
 -1      2735 9.61371E-05-2.81259E-05-2.91416E-05-2.56036E-06 1.62004E-19 4.95842E-19
 -1      2736 9.59555E-05-2.81080E-05-2.90789E-05-2.29722E-06 4.04959E-19 8.00184E-19
 -1      2737 9.57113E-05-2.78135E-05-2.91016E-05-2.89016E-06 4.47580E-19-4.01778E-19
 -1      2738 9.58939E-05-2.81346E-05-2.90341E-05-2.03033E-06 1.76301E-19 9.08100E-19
 -1      2739 9.57537E-05-2.81387E-05-2.89794E-05-1.79929E-06-1.09004E-19 1.02694E-18
 -1      2740 9.55595E-05-2.78591E-05-2.90164E-05-2.30431E-06 4.04786E-19 4.88163E-19
 -1      2741 9.57123E-05-2.81762E-05-2.89390E-05-1.57213E-06-5.27306E-19 9.26882E-19
 -1      2742 9.56051E-05-2.81920E-05-2.88927E-05-1.37679E-06-7.71374E-20 1.12119E-18
 -1      2743 9.54589E-05-2.79436E-05-2.89366E-05-1.79613E-06-2.53572E-19 3.12896E-19
 -1      2744 9.55767E-05-2.82322E-05-2.88576E-05-1.18908E-06 4.43659E-19 1.32960E-18
 -1      2745 9.54955E-05-2.82530E-05-2.88195E-05-1.02886E-06 4.34034E-19 1.39496E-18
 -1      2746 9.53912E-05-2.80424E-05-2.88650E-05-1.36924E-06-6.48529E-20 2.85075E-19
 -1      2747 9.54757E-05-2.82912E-05-2.87898E-05-8.77606E-07 1.08344E-18 1.05156E-18
 -1      2748 9.54151E-05-2.83130E-05-2.87591E-05-7.49574E-07 1.67210E-18 9.73705E-19
 -1      2749 9.53448E-05-2.81409E-05-2.88027E-05-1.02011E-06 9.18267E-19 7.31970E-19
 -1      2750 9.54011E-05-2.83469E-05-2.87346E-05-6.30446E-07 1.66113E-18 7.47596E-19
 -1      2751 9.53567E-05-2.83676E-05-2.87104E-05-5.30511E-07 1.40635E-18 5.75737E-19
 -1      2752 9.53126E-05-2.82310E-05-2.87501E-05-7.41233E-07 1.26453E-18 2.68723E-19
 -1      2753 9.53465E-05-2.83963E-05-2.86907E-05-4.38678E-07 3.35635E-19 3.49233E-19
 -1      2754 9.53146E-05-2.84146E-05-2.86720E-05-3.62390E-07-1.00066E-18 5.24787E-19
 -1      2755 9.52900E-05-2.83091E-05-2.87068E-05-5.23272E-07 4.33902E-19-4.90704E-19
 -1      2756 9.53073E-05-2.84380E-05-2.86565E-05-2.93072E-07-9.05932E-19 8.99575E-19
 -1      2757 9.52850E-05-2.84536E-05-2.86425E-05-2.36106E-07-5.19323E-19 6.69526E-19
 -1      2758 9.52738E-05-2.83741E-05-2.86719E-05-3.56447E-07-5.79767E-19-4.57428E-20
 -1      2759 9.52797E-05-2.84722E-05-2.86304E-05-1.84903E-07-4.76028E-19 4.08938E-19
 -1      2760 9.52646E-05-2.84851E-05-2.86201E-05-1.43336E-07-9.67859E-19 8.80011E-19
 -1      2761 9.52623E-05-2.84265E-05-2.86444E-05-2.31403E-07-5.39354E-19-5.40001E-20
 -1      2762 9.52607E-05-2.84994E-05-2.86110E-05-1.06388E-07-1.55807E-18 1.53257E-18
 -1      2763 9.52510E-05-2.85098E-05-2.86036E-05-7.68318E-08-7.47618E-19 1.85078E-18
 -1      2764 9.52541E-05-2.84678E-05-2.86231E-05-1.39708E-07-8.43722E-19-2.70311E-19
 -1      2765 9.52482E-05-2.85207E-05-2.85968E-05-5.08901E-08-1.16535E-18 1.21260E-18
 -1      2766 9.52424E-05-2.85290E-05-2.85916E-05-3.05361E-08-1.72942E-18 5.23360E-19
 -1      2767 9.52483E-05-2.84995E-05-2.86070E-05-7.40966E-08-1.76849E-18-8.48760E-19
 -1      2768 9.52405E-05-2.85371E-05-2.85867E-05-1.29613E-08-8.10438E-19 1.83310E-18
 -1      2769 9.52375E-05-2.85437E-05-2.85832E-05 4.31642E-10-5.23467E-19 2.26765E-18
 -1      2770 9.52443E-05-2.85235E-05-2.85949E-05-2.85351E-08-5.81167E-19 1.32212E-19
 -1      2771 9.52363E-05-2.85498E-05-2.85796E-05 1.17066E-08-7.49488E-19 3.04044E-18
 -1      2772 9.52352E-05-2.85551E-05-2.85773E-05 1.98524E-08 1.70952E-20 3.64347E-18
 -1      2773 9.52417E-05-2.85415E-05-2.85860E-05 1.80966E-09-3.54898E-19 1.48781E-18
 -1      2774 9.52345E-05-2.85599E-05-2.85746E-05 2.63907E-08 2.96740E-19 3.26416E-18
 -1      2775 9.52348E-05-2.85643E-05-2.85731E-05 3.05436E-08 1.02662E-18 2.46443E-18
 -1      2776 9.52402E-05-2.85553E-05-2.85794E-05 2.06673E-08-4.17327E-19 2.87236E-18
 -1      2777 9.52347E-05-2.85683E-05-2.85712E-05 3.34178E-08 1.48387E-18 2.08991E-18
 -1      2778 9.52358E-05-2.85723E-05-2.85701E-05 3.43574E-08 1.63324E-18 1.81450E-18
 -1      2779 9.52397E-05-2.85662E-05-2.85744E-05 3.08347E-08 9.27367E-19 2.01119E-18
 -1      2780 9.95684E-05-2.82222E-05-3.05604E-05-1.04061E-05 6.79854E-19-4.62757E-19
 -1      2781 9.87365E-05-2.76847E-05-3.04417E-05-9.58627E-06 8.25854E-19-1.78215E-19
 -1      2782 9.52408E-05-2.85792E-05-2.85693E-05-3.45160E-08-1.59362E-19-2.31299E-18
 -1      2783 9.52355E-05-2.85761E-05-2.85684E-05-3.39641E-08-4.53280E-19-7.97888E-19
 -1      2784 9.52338E-05-2.85728E-05-2.85690E-05-3.56489E-08-7.81381E-19-6.77560E-19
 -1      2785 9.85371E-05-2.74068E-05-3.04673E-05-8.52439E-06 8.67608E-19-2.16262E-19
 -1      2786 9.79731E-05-2.70358E-05-3.03891E-05-7.50251E-06 9.69388E-19-5.75177E-20
 -1      2787 9.69080E-05-2.64464E-05-3.02097E-05-9.46873E-06 9.90052E-19-4.55529E-19
 -1      2788 1.03791E-04-3.20500E-05-3.07434E-05-1.25374E-05 1.60993E-19-2.81246E-19
 -1      2789 1.02140E-04-3.06065E-05-3.06295E-05-1.24975E-05 3.28556E-19-5.63526E-19
 -1      2790 1.07840E-04-3.59823E-05-3.08107E-05-1.19326E-05-3.82641E-19-2.70041E-20
 -1      2791 1.05561E-04-3.37970E-05-3.06982E-05-1.27106E-05-2.35647E-20-2.14287E-19
 -1      2792 1.01534E-04-3.21788E-05-2.97892E-05-1.42785E-05-1.26853E-19-8.45925E-19
 -1      2793 1.13804E-04-4.15003E-05-3.10335E-05-9.15995E-06-9.27011E-19 1.80071E-19
 -1      2794 1.10878E-04-3.86853E-05-3.08378E-05-1.11740E-05-6.74129E-19 1.37459E-19
 -1      2795 1.06218E-04-3.72381E-05-2.96692E-05-1.41239E-05-5.67752E-19-3.55850E-19
 -1      2796 1.21401E-04-4.72903E-05-3.18471E-05-3.21391E-06-1.20954E-18 8.15627E-19
 -1      2797 1.18314E-04-4.48037E-05-3.13654E-05-6.70368E-06-1.37601E-18 4.19741E-19
 -1      2798 1.13747E-04-4.42661E-05-2.99237E-05-1.16237E-05-1.24280E-18-2.80963E-19
 -1      2799 1.28657E-04-4.95918E-05-3.40066E-05 5.96281E-06-6.83010E-19 1.73717E-18
 -1      2800 1.26709E-04-4.96744E-05-3.29187E-05 1.53463E-06-9.91817E-19 1.47934E-18
 -1      2801 1.23716E-04-5.12111E-05-3.12910E-05-5.25784E-06-1.53390E-18 4.33535E-19
 -1      2802 1.29191E-04-2.78671E-05-4.38010E-05 1.48308E-05 2.93539E-18 2.72506E-18
 -1      2803 1.32427E-04-3.63254E-05-4.17007E-05 1.73885E-05 1.79132E-18 2.76159E-18
 -1      2804 1.35498E-04-4.14933E-05-4.07832E-05-1.69579E-05 2.40213E-18-2.80410E-18
 -1      2805 1.31408E-04-3.25310E-05-4.28144E-05-1.67685E-05 3.21301E-18-2.12595E-18
 -1      2806 1.33329E-04-5.37603E-05-3.39499E-05-3.91362E-06-4.17428E-19-2.65502E-18
 -1      2807 1.33690E-04-5.06815E-05-3.56497E-05-8.21624E-06 6.26540E-19-2.78065E-18
 -1      2808 1.22676E-04-4.96943E-05-3.09059E-05 6.30093E-06-8.84567E-19-1.58469E-18
 -1      2809 1.25944E-04-5.14785E-05-3.17949E-05 1.83852E-06-8.41660E-19-1.45981E-18
 -1      2810 1.26526E-04-5.78990E-05-2.97159E-05 1.21122E-05-1.42026E-18-2.33686E-18
 -1      2811 1.12669E-04-4.21122E-05-2.99619E-05 1.16305E-05-5.02966E-19-5.88377E-19
 -1      2812 1.16367E-04-4.52099E-05-3.03220E-05 8.61582E-06-4.40894E-19-7.54614E-19
 -1      2813 1.11569E-04-4.87125E-05-2.72902E-05 1.80017E-05-1.30564E-18-1.83158E-18
 -1      2814 1.05618E-04-3.55596E-05-2.98738E-05 1.32860E-05-1.85548E-19-3.70094E-19
 -1      2815 1.08621E-04-3.82329E-05-3.00119E-05 1.17716E-05-3.97417E-19-5.03462E-19
 -1      2816 1.01530E-04-3.88171E-05-2.71692E-05 1.84162E-05-6.15628E-19-1.70966E-18
 -1      2817 1.01347E-04-3.11934E-05-3.00002E-05 1.29681E-05-6.32002E-19 1.95539E-19
 -1      2818 1.03462E-04-3.30104E-05-3.00868E-05 1.25369E-05-2.85275E-19-5.76942E-20
 -1      2819 9.60985E-05-3.17836E-05-2.77343E-05 1.66310E-05-4.29376E-19-8.71213E-19
 -1      2820 9.89718E-05-2.87131E-05-3.00941E-05 1.17565E-05-1.30589E-18 2.22252E-19
 -1      2821 1.00394E-04-2.97841E-05-3.01970E-05 1.19773E-05-1.16141E-18 3.26424E-19
 -1      2822 9.37266E-05-2.77422E-05-2.83575E-05 1.43534E-05-1.14689E-18-1.32392E-19
 -1      2823 9.77036E-05-2.75051E-05-3.00914E-05 1.02069E-05-1.28668E-18 2.55235E-20
 -1      2824 9.86744E-05-2.80668E-05-3.02230E-05 1.07619E-05-1.30446E-18 3.13135E-19
 -1      2825 9.30049E-05-2.57842E-05-2.88350E-05 1.21623E-05-1.66912E-18-8.24790E-20
 -1      2826 9.70193E-05-2.70505E-05-3.00013E-05 8.60127E-06-2.54683E-19 5.89884E-19
 -1      2827 9.77145E-05-2.73073E-05-3.01514E-05 9.28584E-06-8.72730E-19 1.09948E-19
 -1      2828 9.30668E-05-2.50905E-05-2.91340E-05 1.01874E-05-1.09183E-18-3.92562E-19
 -1      2829 9.66196E-05-2.69959E-05-2.98543E-05 7.08343E-06-8.98655E-19 9.67462E-19
 -1      2830 9.71450E-05-2.70867E-05-3.00085E-05 7.77737E-06 2.09293E-20 1.22905E-18
 -1      2831 9.34321E-05-2.50879E-05-2.92828E-05 8.43973E-06-6.94493E-19 3.31565E-19
 -1      2832 9.63514E-05-2.71286E-05-2.96803E-05 5.72235E-06-6.31652E-19-2.24084E-19
 -1      2833 9.67650E-05-2.71367E-05-2.98272E-05 6.36240E-06-9.57168E-19 2.49981E-19
 -1      2834 9.38596E-05-2.54169E-05-2.93240E-05 6.90732E-06-2.41442E-19 2.50146E-19
 -1      2835 9.61447E-05-2.73313E-05-2.95017E-05 4.54476E-06-9.75930E-19 2.74620E-20
 -1      2836 9.64772E-05-2.73027E-05-2.96341E-05 5.10313E-06-1.00917E-18-6.39655E-19
 -1      2837 9.42444E-05-2.58710E-05-2.92963E-05 5.57876E-06-5.02362E-19 5.94255E-20
 -1      2838 9.59710E-05-2.75449E-05-2.93328E-05 3.55288E-06-5.13975E-19 1.11108E-18
 -1      2839 9.62396E-05-2.75032E-05-2.94474E-05 4.02237E-06-7.41728E-19 6.69300E-19
 -1      2840 9.45523E-05-2.63407E-05-2.92296E-05 4.44336E-06-1.37502E-18 9.53644E-20
 -1      2841 9.58209E-05-2.77423E-05-2.91815E-05 2.73520E-06-1.22282E-18 1.40491E-18
 -1      2842 9.60366E-05-2.76988E-05-2.92776E-05 3.11964E-06-3.56429E-19 1.43715E-18
 -1      2843 9.47822E-05-2.67737E-05-2.91449E-05 3.48841E-06-1.17223E-18 1.25923E-18
 -1      2844 9.56918E-05-2.79134E-05-2.90510E-05 2.07332E-06-8.45448E-19 5.47690E-20
 -1      2845 9.58630E-05-2.78731E-05-2.91297E-05 2.38170E-06-9.19086E-19 6.58694E-19
 -1      2846 9.49460E-05-2.71494E-05-2.90558E-05 2.69830E-06-3.35939E-19 1.13482E-18
 -1      2847 9.55829E-05-2.80564E-05-2.89417E-05 1.54616E-06-1.68523E-20-1.44134E-18
 -1      2848 9.57168E-05-2.80211E-05-2.90047E-05 1.78934E-06-8.17478E-19-5.55518E-19
 -1      2849 9.50585E-05-2.74638E-05-2.89703E-05 2.05506E-06-4.73692E-19-9.99694E-19
 -1      2850 9.54933E-05-2.81731E-05-2.88524E-05 1.13250E-06 1.81916E-18-2.03970E-18
 -1      2851 9.55963E-05-2.81432E-05-2.89020E-05 1.32137E-06 8.96198E-19-1.13423E-18
 -1      2852 9.51333E-05-2.77202E-05-2.88930E-05 1.53943E-06 7.66768E-19-1.51565E-18
 -1      2853 9.54217E-05-2.82670E-05-2.87809E-05 8.12530E-07 1.92540E-18-1.54413E-18
 -1      2854 9.54993E-05-2.82420E-05-2.88192E-05 9.57125E-07 1.81590E-18-1.68475E-18
 -1      2855 9.51817E-05-2.79257E-05-2.88259E-05 1.13221E-06 1.60388E-18-2.81568E-18
 -1      2856 9.53659E-05-2.83415E-05-2.87247E-05 5.68591E-07 1.66303E-18-3.57369E-19
 -1      2857 9.54233E-05-2.83210E-05-2.87538E-05 6.77700E-07 1.83136E-18-9.44776E-19
 -1      2858 9.52120E-05-2.80881E-05-2.87693E-05 8.15357E-07 1.30735E-18-8.50060E-19
 -1      2859 9.53237E-05-2.84001E-05-2.86813E-05 3.85416E-07-8.17872E-19 2.25084E-19
 -1      2860 9.53650E-05-2.83834E-05-2.87030E-05 4.66507E-07 2.81540E-19-5.50700E-19
 -1      2861 9.52302E-05-2.82148E-05-2.87227E-05 5.72549E-07 2.99457E-19-7.41514E-20
 -1      2862 9.52926E-05-2.84456E-05-2.86484E-05 2.50083E-07-1.45283E-18 1.18873E-18
 -1      2863 9.53216E-05-2.84321E-05-2.86642E-05 3.09364E-07-1.12029E-18 6.58713E-19
 -1      2864 9.52406E-05-2.83125E-05-2.86850E-05 3.89396E-07-1.65650E-18 1.15065E-18
 -1      2865 9.52705E-05-2.84806E-05-2.86239E-05 1.51882E-07-1.13809E-18 1.15180E-18
 -1      2866 9.52901E-05-2.84698E-05-2.86352E-05 1.94415E-07-1.07522E-18 1.31920E-18
 -1      2867 9.52460E-05-2.83868E-05-2.86552E-05 2.53537E-07-1.19534E-18 1.03470E-18
 -1      2868 9.52553E-05-2.85072E-05-2.86060E-05 8.21017E-08-6.73226E-19 6.32207E-19
 -1      2869 9.52679E-05-2.84987E-05-2.86138E-05 1.11943E-07-8.29342E-19 1.28955E-18
 -1      2870 9.52481E-05-2.84427E-05-2.86320E-05 1.54607E-07-6.40052E-19 3.01296E-19
 -1      2871 9.52454E-05-2.85274E-05-2.85931E-05 3.37951E-08-4.87163E-20 3.13640E-19
 -1      2872 9.52529E-05-2.85206E-05-2.85984E-05 5.41360E-08-7.08770E-19 7.27114E-19
 -1      2873 9.52484E-05-2.84841E-05-2.86141E-05 8.40953E-08-6.95071E-19-6.38214E-19
 -1      2874 9.52395E-05-2.85426E-05-2.85841E-05 1.54849E-09 7.40109E-19 1.05503E-18
 -1      2875 9.52434E-05-2.85372E-05-2.85875E-05 1.48402E-08 4.60173E-19 1.09575E-18
 -1      2876 9.52476E-05-2.85145E-05-2.86006E-05 3.51718E-08-4.20701E-19 6.31439E-19
 -1      2877 9.52364E-05-2.85543E-05-2.85779E-05-1.87541E-08 1.81251E-18 7.54889E-19
 -1      2878 9.52378E-05-2.85499E-05-2.85800E-05-1.06714E-08 2.11789E-18 1.54799E-18
 -1      2879 9.52464E-05-2.85368E-05-2.85903E-05 2.49538E-09 1.02401E-18 1.76881E-18
 -1      2880 9.52353E-05-2.85637E-05-2.85735E-05-3.03893E-08-6.21070E-19 7.43422E-19
 -1      2881 9.52351E-05-2.85598E-05-2.85748E-05-2.59451E-08 7.34311E-19 8.94240E-19
 -1      2882 9.52451E-05-2.85532E-05-2.85826E-05-1.80447E-08 7.10095E-19 1.47489E-18
 -1      2883 9.52329E-05-2.85699E-05-2.85697E-05-3.47525E-08-9.29221E-19-2.46805E-19
 -1      2884 1.20728E-04-6.02973E-05-2.61425E-05 2.57797E-05-1.48146E-18-2.34029E-18
 -1      2885 1.04696E-04-5.32630E-05-2.13947E-05 3.18292E-05-1.59517E-18-2.05343E-18
 -1      2886 9.52537E-05-2.85838E-05-2.85728E-05-1.55622E-09 5.69519E-19 6.15207E-19
 -1      2887 9.52537E-05-2.85838E-05-2.85728E-05-5.76902E-09 7.77794E-19 1.76636E-19
 -1      2888 1.38046E-04-5.06593E-05-3.74835E-05-1.32117E-06-8.94705E-19-8.82502E-19
 -1      2889 1.36897E-04-4.12811E-05-4.15379E-05 7.06130E-06-1.95368E-18-1.32825E-18
 -1      2890 9.52528E-05-2.85845E-05-2.85721E-05-1.82317E-08 6.34466E-21 2.23905E-18
 -1      2891 9.52517E-05-2.85838E-05-2.85719E-05-2.20432E-08 8.55378E-22 9.96662E-19
 -1      2892 9.52534E-05-2.85835E-05-2.85728E-05 6.78663E-09-1.56159E-18-1.21184E-18
 -1      2893 9.52536E-05-2.85837E-05-2.85728E-05 2.61640E-09-6.65310E-19-4.86739E-19
 -1      2894 9.52535E-05-2.85744E-05-2.85767E-05 5.95631E-10-1.21553E-19-1.21030E-18
 -1      2895 9.52536E-05-2.85842E-05-2.85726E-05-9.97629E-09-3.38773E-19 1.62202E-18
 -1      2896 9.52532E-05-2.85839E-05-2.85725E-05-1.41007E-08-6.32089E-19 3.82889E-18
 -1      2897 9.52530E-05-2.85761E-05-2.85758E-05-1.58859E-08-3.01840E-19 2.72880E-18
 -1      2898 9.52536E-05-2.85750E-05-2.85765E-05-7.63549E-09 7.37782E-19 1.47147E-18
 -1      2899 9.52527E-05-2.85834E-05-2.85725E-05 1.47577E-08-6.98155E-19-1.19135E-18
 -1      2900 9.52532E-05-2.85838E-05-2.85726E-05 1.08273E-08-1.68326E-18-1.28360E-19
 -1      2901 9.52532E-05-2.85746E-05-2.85765E-05 8.66296E-09-1.29213E-18-1.40390E-18
 -1      2902 9.52510E-05-2.85831E-05-2.85720E-05 2.23380E-08-1.29989E-18-3.07360E-18
 -1      2903 9.52522E-05-2.85839E-05-2.85721E-05 1.87209E-08-8.46764E-19-1.85116E-18
 -1      2904 9.52524E-05-2.85755E-05-2.85758E-05 1.65601E-08-5.41920E-19-1.85157E-18
 -1      2905 9.52478E-05-2.85821E-05-2.85710E-05 2.87286E-08-2.76804E-19-1.33149E-18
 -1      2906 9.52498E-05-2.85834E-05-2.85713E-05 2.58653E-08-3.04382E-19-1.24792E-18
 -1      2907 9.52504E-05-2.85763E-05-2.85746E-05 2.40834E-08-1.67850E-18-1.42495E-18
 -1      2908 8.03257E-05-4.25789E-05-1.64155E-05 3.75876E-05-1.84939E-18 2.76768E-19
 -1      2909 6.26130E-05-3.35628E-05-1.17488E-05 3.55921E-05-1.62249E-18 2.74513E-18
 -1      2910 5.90688E-05-2.72693E-05-1.30198E-05 3.05262E-05-2.14649E-18 2.96694E-18
 -1      2911 9.56895E-05-2.13311E-05-3.18984E-05-4.50154E-06-1.84274E-18-1.91958E-18
 -1      2912 9.64478E-05-2.31217E-05-3.13810E-05-2.66661E-06-1.61981E-18-1.66949E-18
 -1      2913 9.66983E-05-2.43392E-05-3.10261E-05-9.24051E-07-1.37221E-18-1.64786E-18
 -1      2914 9.32550E-05-1.83725E-05-3.21021E-05-3.80990E-06-1.32169E-18-2.39906E-18
 -1      2915 9.80150E-05-5.05508E-05-2.03195E-05 3.75848E-05 1.50486E-18 1.09061E-18
 -1      2916 8.03546E-05-4.20293E-05-1.58102E-05 4.00448E-05 1.80842E-18-5.05626E-19
 -1      2917 9.79069E-05-2.68136E-05-3.04530E-05-6.29189E-06 1.25803E-18 2.59726E-20
 -1      2918 9.75761E-05-2.64668E-05-3.04536E-05-5.05879E-06 1.59863E-18 2.52886E-19
 -1      2919 9.66319E-05-2.58299E-05-3.03538E-05-7.09964E-06 1.24793E-18-2.51029E-19
 -1      2920 1.01202E-04-2.96178E-05-3.06666E-05-1.18417E-05 5.34445E-19-7.31660E-19
 -1      2921 1.00027E-04-2.87364E-05-3.05400E-05-1.13117E-05 6.03258E-19-5.69276E-19
 -1      2922 9.75576E-05-2.73711E-05-3.00982E-05-1.15288E-05 7.51460E-19-5.96946E-19
 -1      2923 9.89124E-05-2.90806E-05-2.99625E-05-1.32185E-05 3.44863E-19-6.90959E-19
 -1      2924 8.81720E-05-1.30131E-05-3.22329E-05 2.38524E-06 2.14629E-18-1.86875E-18
 -1      2925 8.72847E-05-1.22191E-05-3.21986E-05 1.91066E-06 1.84513E-18-2.11888E-18
 -1      2926 8.76080E-05-1.32376E-05-3.18488E-05 1.26501E-06 1.61918E-18-2.06805E-18
 -1      2927 8.94528E-05-1.49883E-05-3.18865E-05 1.59775E-06 1.98436E-18-1.57057E-18
 -1      2928 9.75551E-05-2.61390E-05-3.05954E-05-3.64362E-06 1.74258E-18 2.36347E-19
 -1      2929 9.74247E-05-2.56647E-05-3.07216E-05-2.09943E-06 1.82309E-18 3.69739E-19
 -1      2930 9.63889E-05-2.39647E-05-3.10430E-05-1.09067E-06 2.11541E-18-8.48133E-20
 -1      2931 9.65205E-05-2.51327E-05-3.06040E-05-4.35392E-06 1.75572E-18-3.21761E-20
 -1      2932 8.96096E-05-4.62328E-05-1.81215E-05-3.63670E-05-2.17772E-18-2.29133E-18
 -1      2933 1.06171E-04-5.46872E-05-2.21414E-05-3.34896E-05-2.24887E-18-1.96848E-18
 -1      2934 6.12543E-05-3.23217E-05-1.23119E-05 3.88942E-05 1.56691E-18-2.13421E-18
 -1      2935 4.67430E-05-2.37213E-05-9.15306E-06 3.10441E-05 1.54594E-18-3.42117E-18
 -1      2936 5.67980E-05-2.79425E-05-1.18180E-05-3.21505E-05-1.54499E-18-3.77268E-18
 -1      2937 7.13658E-05-3.66148E-05-1.46880E-05-3.73944E-05-1.79603E-18-3.17839E-18
 -1      2938 3.41172E-05-1.67884E-05-7.16320E-06 2.04882E-05 8.38774E-19-3.69582E-18
 -1      2939 2.86735E-05-1.35344E-05-5.78240E-06 5.82348E-06 4.58275E-19-3.63758E-18
 -1      2940 1.30927E-04-2.31461E-05-4.69036E-05-1.38700E-05 4.10642E-18-1.18079E-18
 -1      2941 8.80940E-05-1.30408E-05-3.21931E-05-1.39812E-06-2.39408E-19-2.78904E-18
 -1      2942 8.90177E-05-1.38844E-05-3.22191E-05-2.05673E-06-5.34337E-19-2.85863E-18
 -1      2943 9.52370E-05-2.85774E-05-2.85684E-05 3.37241E-08 1.32908E-18 1.60572E-18
 -1      2944 9.52405E-05-2.85800E-05-2.85688E-05 3.37335E-08 7.16998E-19 2.64219E-19
 -1      2945 9.52359E-05-2.85748E-05-2.85690E-05 3.45926E-08 1.59742E-18 1.80473E-18
 -1      2946 1.34981E-04-3.03776E-05-4.54676E-05-1.05922E-05-3.38210E-18 2.57985E-18
 -1      2947 1.39438E-04-3.95085E-05-4.30933E-05-7.22195E-06-2.05713E-18 2.49441E-18
 -1      2948 1.35606E-04-2.04221E-05-4.98712E-05 1.22072E-05 4.34020E-18 1.67977E-18
 -1      2949 1.33458E-04-1.61212E-05-5.10456E-05 7.04013E-06 4.77705E-18 1.02510E-18
 -1      2950 1.40063E-04-5.73420E-05-3.52598E-05-1.06197E-06-1.17391E-18 5.98641E-19
 -1      2951 1.44248E-04-5.17251E-05-4.02383E-05 6.40533E-06 4.08773E-19 1.53260E-18
 -1      2952 3.24862E-05-1.23867E-05-8.09405E-06 3.25687E-06-1.55933E-19 5.04493E-18
 -1      2953 3.20167E-05-1.30603E-05-7.56180E-06-1.13628E-05 8.00976E-19 3.73817E-18
 -1      2954 1.22777E-04-1.03913E-05-4.87753E-05 5.92884E-06-5.55908E-18-4.16264E-19
 -1      2955 1.23697E-04-8.57602E-06-4.99165E-05 6.39636E-07-5.71959E-18-3.77525E-21
 -1      2956 1.27217E-04-5.82727E-05-2.92846E-05-1.94815E-05 1.65648E-18 1.50242E-18
 -1      2957 1.34171E-04-5.65836E-05-3.37259E-05-1.12191E-05 4.36672E-19 2.58133E-19
 -1      2958 6.74350E-05-3.53329E-05-1.32076E-05-3.91854E-05 1.75389E-18 5.48856E-18
 -1      2959 8.16595E-05-4.33117E-05-1.63774E-05-4.12335E-05 1.68687E-18 4.57678E-18
 -1      2960 1.19679E-04-5.92355E-05-2.55762E-05-2.53573E-05-2.43035E-18-1.54504E-18
 -1      2961 1.31429E-04-6.16456E-05-3.04312E-05-1.59008E-05-2.14146E-18-1.10411E-18
 -1      2962 1.14418E-04-5.52616E-05-2.50305E-05-2.54381E-05-2.32722E-18-1.44059E-18
 -1      2963 9.84980E-05-5.13272E-05-1.97916E-05-3.73282E-05 2.09461E-18 3.89012E-18
 -1      2964 1.15031E-04-5.74715E-05-2.49321E-05-3.10214E-05 1.64970E-18 2.87687E-18
 -1      2965 9.01131E-05-1.49998E-05-3.22209E-05-2.55688E-06-7.55122E-19-2.79643E-18
 -1      2966 9.12628E-05-1.61477E-05-3.22311E-05-3.29463E-06-1.12803E-18-2.75885E-18
 -1      2967 9.04677E-05-1.60676E-05-3.18643E-05-1.36312E-06-6.06174E-19-2.53059E-18
 -1      2968 8.64539E-05-1.22131E-05-3.17983E-05 6.20943E-07 8.17234E-19-2.35419E-18
 -1      2969 8.58430E-05-1.09385E-05-3.21247E-05 4.06340E-07 7.99291E-19-2.59302E-18
 -1      2970 8.61372E-05-1.11875E-05-3.21354E-05-7.55028E-08 5.56065E-19-2.67146E-18
 -1      2971 8.50913E-05-4.06391E-05-1.86631E-05-3.37250E-05-1.86210E-18-2.42061E-18
 -1      2972 7.49295E-05-3.61305E-05-1.61133E-05 3.63832E-05 1.75293E-18-1.02337E-18
 -1      2973 9.51060E-05-2.06096E-05-3.19392E-05 3.31531E-06 2.60991E-18-1.28342E-19
 -1      2974 4.27532E-05-1.56841E-05-1.09931E-05-1.73028E-05 2.85715E-19 4.62226E-18
 -1      2975 1.33855E-04-3.64473E-05-4.21063E-05 1.09702E-05-1.64330E-18-9.47618E-19
 -1      2976 1.27373E-04-3.02240E-05-4.20479E-05 1.33047E-05-2.03606E-18-1.40343E-18
 -1      2977 1.31427E-04-4.17116E-05-3.86065E-05 9.09919E-06-1.01832E-18-1.73451E-18
 -1      2978 1.20563E-04-1.10405E-05-4.73980E-05-2.63982E-06-4.97769E-18 3.14527E-19
 -1      2979 1.21093E-04-1.98458E-05-4.36986E-05 1.24522E-05-3.62149E-18-1.41558E-18
 -1      2980 1.22733E-04-1.53331E-05-4.66242E-05 9.35903E-06-4.80003E-18-1.10305E-18
 -1      2981 1.15478E-04-1.26864E-05-4.43654E-05 6.86243E-06-4.59039E-18-9.54580E-19
 -1      2982 9.52399E-05-2.85743E-05-2.85711E-05 3.41929E-08 1.70683E-18 1.24180E-18
 -1      2983 9.54354E-05-4.67433E-05-2.04356E-05 3.16074E-05-2.15824E-18-1.29681E-18
 -1      2984 1.33057E-04-4.90797E-05-3.61078E-05 1.09584E-05-2.39922E-19 2.40187E-18
 -1      2985 1.33945E-04-5.41318E-05-3.45532E-05 3.40456E-06-1.00211E-18 1.42683E-18
 -1      2986 1.32240E-04-4.39594E-05-3.80276E-05 1.38308E-05 7.14499E-19 2.41399E-18
 -1      2987 1.22066E-04-1.78857E-05-4.50769E-05 3.36449E-06 4.01769E-18 1.34392E-18
 -1      2988 1.23297E-04-2.13882E-05-4.44575E-05 1.13564E-05 3.81027E-18 2.56619E-18
 -1      2989 1.22879E-04-2.14341E-05-4.38636E-05-1.18770E-05 3.46627E-18-1.94182E-19
 -1      2990 1.21301E-04-1.75805E-05-4.50639E-05-4.56632E-06 3.39046E-18 4.78679E-19
 -1      2991 9.52421E-05-2.85677E-05-2.85749E-05-3.09910E-08 3.48103E-19 4.36872E-19
 -1      2992 1.25864E-04-5.93446E-05-2.84939E-05 1.69602E-05-1.78946E-18-2.89116E-18
 -1      2993 6.42586E-05-2.99130E-05-1.42271E-05-3.45380E-05 1.17473E-18 5.65437E-18
 -1      2994 9.52512E-05-2.85771E-05-2.85746E-05-2.36764E-08-4.23014E-19 1.37509E-18
 -1      2995 9.52506E-05-2.85843E-05-2.85713E-05-2.56921E-08-5.28700E-19 7.52550E-19
 -1      2996 9.52484E-05-2.85831E-05-2.85710E-05-2.89624E-08-9.66807E-19 1.71987E-18
 -1      2997 9.52441E-05-2.85808E-05-2.85699E-05-3.25434E-08-1.37535E-19-5.39976E-19
 -1      2998 1.20887E-04-5.71099E-05-2.72128E-05-2.25300E-05 1.55558E-18 2.00329E-18
 -1      2999 3.74023E-05-1.35740E-05-9.44087E-06 9.82930E-06-1.04887E-18 4.66980E-18
 -1      3000 4.01196E-05-1.18610E-05-1.17271E-05 2.22908E-06-5.15300E-19 3.99461E-18
 -1      3001 4.32365E-05-1.57864E-05-1.15271E-05 1.63557E-05-1.45054E-18 4.48239E-18
 -1      3002 9.52438E-05-2.85818E-05-2.85693E-05 3.21486E-08 4.15137E-19-1.23358E-18
 -1      3003 9.60495E-05-2.36622E-05-3.10317E-05-2.01413E-07-1.23197E-18-1.77464E-18
 -1      3004 1.26778E-04-1.60239E-05-4.78786E-05 3.30939E-06 4.14157E-18 8.02848E-19
 -1      3005 1.34388E-04-5.79044E-05-3.27086E-05-5.09815E-06-1.74976E-18 3.97788E-19
 -1      3006 1.23670E-04-1.87212E-05-4.54292E-05-1.17602E-05-3.77004E-18 1.17918E-18
 -1      3007 1.30649E-04-2.47695E-05-4.58715E-05-1.18858E-05-3.28024E-18 1.97994E-18
 -1      3008 1.28544E-04-3.02528E-05-4.24363E-05-1.21012E-05-2.31314E-18 2.32982E-18
 -1      3009 1.34859E-04-2.60919E-05-4.68553E-05 1.42606E-05 3.44001E-18 2.09439E-18
 -1      3010 3.51284E-05-1.36437E-05-8.53064E-06-2.29260E-06 6.34944E-20-3.60624E-18
 -1      3011 9.52430E-05-2.85757E-05-2.85717E-05 3.28022E-08 1.10680E-18-5.08113E-19
 -1      3012 9.52461E-05-2.85805E-05-2.85710E-05 3.09006E-08 2.48975E-21-1.83299E-18
 -1      3013 9.52472E-05-2.85750E-05-2.85737E-05 2.93779E-08-1.36385E-19-6.87876E-19
 -1      3014 9.52428E-05-2.85721E-05-2.85730E-05 3.21468E-08 1.27409E-18-2.52681E-19
 -1      3015 1.33909E-04-5.32915E-05-3.45909E-05-3.04157E-06 1.13952E-19-1.01305E-18
 -1      3016 1.32909E-04-5.81734E-05-3.20945E-05 1.38902E-05-1.06409E-20 2.45142E-18
 -1      3017 1.40018E-04-4.47827E-05-4.10725E-05 1.32744E-05 7.81494E-19 2.53009E-18
 -1      3018 1.15220E-04-5.64845E-05-2.53964E-05 2.70832E-05 1.10289E-18 2.03913E-18
 -1      3019 1.07959E-04-5.43409E-05-2.26066E-05 3.31536E-05 1.29236E-18 1.79289E-18
 -1      3020 9.91229E-05-4.87122E-05-2.14551E-05 3.38359E-05 1.64451E-18 1.32089E-18
 -1      3021 1.37133E-04-4.49097E-05-3.97295E-05-4.14855E-06-1.50380E-18 2.22918E-18
 -1      3022 4.68425E-05-1.95080E-05-1.10307E-05 2.37395E-05 1.05032E-18-3.22688E-18
 -1      3023 1.42348E-04-5.26387E-05-3.85220E-05-6.12800E-06 1.26332E-18-3.56791E-18
 -1      3024 5.15714E-05-2.32769E-05-1.15825E-05-2.81747E-05-1.10898E-18-3.88121E-18
 -1      3025 6.25922E-05-2.58068E-05-1.53599E-05-2.83940E-05-1.19506E-18-3.24022E-18
 -1      3026 4.65596E-05-1.82143E-05-1.17918E-05-2.12690E-05-5.27543E-19-3.61132E-18
 -1      3027 8.66384E-05-1.16787E-05-3.21504E-05-4.00248E-07 3.98985E-19-2.53782E-18
 -1      3028 8.72715E-05-1.22286E-05-3.21754E-05-9.67074E-07 2.40642E-20-2.60844E-18
 -1      3029 8.85188E-05-1.41619E-05-3.18475E-05-5.27925E-07-5.65167E-20-2.39421E-18
 -1      3030 8.71319E-05-1.28528E-05-3.18153E-05 1.40633E-07 4.38946E-19-2.46692E-18
 -1      3031 9.48853E-05-2.11541E-05-3.15847E-05 1.47154E-06 2.40152E-18-3.61542E-19
 -1      3032 9.41587E-05-4.71000E-05-1.98188E-05-3.58315E-05 1.97475E-18 3.89026E-18
 -1      3033 4.54304E-05-1.31296E-05-1.34669E-05-1.08900E-05-5.82944E-19 3.91297E-18
 -1      3034 5.12931E-05-1.77247E-05-1.40654E-05-2.25083E-05-6.49039E-19 4.82195E-18
 -1      3035 9.30256E-05-1.95114E-05-3.15243E-05 6.85235E-07 2.17730E-18-8.59218E-19
 -1      3036 9.16082E-05-1.80040E-05-3.15586E-05 5.92150E-07 2.04433E-18-1.13215E-18
 -1      3037 8.85604E-05-4.21437E-05-1.95944E-05-3.46246E-05 1.91832E-18 4.08651E-18
 -1      3038 1.02757E-04-5.04146E-05-2.25533E-05-3.19439E-05 1.99720E-18 2.91607E-18
 -1      3039 9.66762E-05-2.65207E-05-3.00472E-05 4.69851E-06-7.96439E-19-1.18393E-18
 -1      3040 9.70948E-05-2.73507E-05-2.98922E-05 5.48503E-06-7.17526E-19-1.19259E-18
 -1      3041 9.75876E-05-2.82113E-05-2.97098E-05 6.22312E-06-7.24705E-19-9.19667E-19
 -1      3042 9.82153E-05-2.91436E-05-2.96022E-05 6.67595E-06-6.89416E-19-9.39760E-19
 -1      3043 9.64382E-05-2.71251E-05-2.97244E-05 6.15426E-06-7.03640E-19-1.12784E-18
 -1      3044 9.89860E-05-3.01749E-05-2.94607E-05 7.13382E-06-6.63832E-19-7.18790E-19
 -1      3045 9.99024E-05-3.13175E-05-2.93954E-05 7.21410E-06-5.58644E-19-7.26211E-19
 -1      3046 9.76750E-05-2.92113E-05-2.93704E-05 7.47366E-06-5.77508E-19-8.47849E-19
 -1      3047 1.01099E-04-3.26246E-05-2.93053E-05 7.30676E-06-3.08527E-19-7.01436E-19
 -1      3048 1.02344E-04-3.40110E-05-2.92948E-05 6.92730E-06-2.19796E-19-5.49330E-19
 -1      3049 9.96091E-05-3.17925E-05-2.91059E-05 8.19652E-06-4.48121E-19-6.13980E-19
 -1      3050 1.04074E-04-3.56019E-05-2.92919E-05 6.49360E-06-9.83733E-20-2.13105E-19
 -1      3051 1.05600E-04-3.71222E-05-2.93710E-05 5.53294E-06-1.38177E-19 7.88713E-20
 -1      3052 1.02505E-04-3.50131E-05-2.89801E-05 8.08877E-06 4.10484E-20-3.85990E-19
 -1      3053 1.07850E-04-3.88140E-05-2.95227E-05 4.33493E-06-2.49376E-19 3.48037E-19
 -1      3054 1.09430E-04-4.01013E-05-2.97522E-05 2.69712E-06-2.19249E-19 2.73472E-19
 -1      3055 1.06488E-04-3.87297E-05-2.91026E-05 6.74727E-06-3.35682E-20 1.35150E-19
 -1      3056 1.11893E-04-4.13742E-05-3.01677E-05 5.19353E-07-4.21200E-19 5.35436E-19
 -1      3057 1.13053E-04-4.17210E-05-3.06259E-05-1.70492E-06-5.38020E-19 3.46711E-19
 -1      3058 1.11277E-04-4.21733E-05-2.96631E-05 3.63955E-06-2.26376E-19 4.55647E-19
 -1      3059 1.14961E-04-4.16327E-05-3.14279E-05-4.75939E-06-6.69265E-19 7.95083E-19
 -1      3060 1.15056E-04-4.01192E-05-3.21573E-05-7.02068E-06-6.24806E-19 8.80880E-19
 -1      3061 1.15853E-04-4.37222E-05-3.09302E-05-1.50846E-06-3.59883E-19 1.08803E-18
 -1      3062 1.15369E-04-3.77745E-05-3.33598E-05-9.87405E-06-4.53285E-19 9.09277E-19
 -1      3063 1.14081E-04-3.40290E-05-3.43016E-05-1.10643E-05-7.44628E-19 1.06976E-18
 -1      3064 1.18215E-04-4.09827E-05-3.31086E-05-7.74181E-06-3.92772E-19 1.54656E-18
 -1      3065 1.12285E-04-2.94219E-05-3.57219E-05-1.16982E-05-1.33780E-18 1.08629E-18
 -1      3066 1.10257E-04-2.47754E-05-3.66121E-05-1.04213E-05-1.96285E-18 9.33966E-19
 -1      3067 1.16762E-04-3.27747E-05-3.59925E-05-1.20033E-05-1.01091E-18 1.09249E-18
 -1      3068 1.07835E-04-2.04155E-05-3.76817E-05-7.16701E-06-2.93664E-18 6.30775E-19
 -1      3069 1.06376E-04-1.75951E-05-3.81872E-05-3.58724E-06-3.13990E-18 6.54068E-20
 -1      3070 1.12217E-04-2.17661E-05-3.88622E-05-1.00587E-05-2.85318E-18 1.58215E-18
 -1      3071 1.08648E-04-1.70386E-05-3.94397E-05 4.47813E-06-2.89288E-18-1.18520E-18
 -1      3072 1.09815E-04-1.95198E-05-3.88081E-05 8.79607E-06-2.48591E-18-1.46362E-18
 -1      3073 1.12019E-04-2.39210E-05-3.79367E-05 1.16100E-05-2.07867E-18-1.81955E-18
 -1      3074 1.13066E-04-3.18415E-05-3.47763E-05 1.23581E-05-8.23925E-19-2.25291E-18
 -1      3075 1.14855E-04-3.60583E-05-3.39238E-05 1.15955E-05-1.60344E-19-1.92521E-18
 -1      3076 1.14923E-04-3.88005E-05-3.26497E-05 9.06887E-06-2.72695E-19-1.63508E-18
 -1      3077 1.15130E-04-4.08061E-05-3.18717E-05 7.03175E-06-2.88220E-19-2.09916E-18
 -1      3078 1.17930E-04-3.90970E-05-3.37925E-05 1.01114E-05-1.67289E-19-2.08815E-18
 -1      3079 1.13528E-04-4.14000E-05-3.09696E-05 3.94968E-06 1.31411E-19-2.01765E-18
 -1      3080 1.12574E-04-4.14223E-05-3.04481E-05 1.67394E-06 6.50701E-19-2.47481E-18
 -1      3081 1.16299E-04-4.31519E-05-3.13770E-05 4.04097E-06-4.36189E-20-1.89264E-18
 -1      3082 1.10115E-04-4.03748E-05-2.99375E-05-7.07735E-07 9.51210E-19-2.17147E-18
 -1      3083 1.08589E-04-3.92645E-05-2.96488E-05-2.47901E-06 1.61822E-18-1.97803E-18
 -1      3084 1.12048E-04-4.24262E-05-2.98871E-05-1.53076E-06 6.82997E-19-1.56660E-18
 -1      3085 1.06217E-04-3.76487E-05-2.94144E-05-3.89145E-06 1.73728E-18-1.96404E-18
 -1      3086 1.04642E-04-3.61949E-05-2.92804E-05-5.01351E-06 1.73393E-18-2.10112E-18
 -1      3087 1.07134E-04-3.93006E-05-2.91333E-05-5.06472E-06 1.55624E-18-2.17585E-18
 -1      3088 1.02746E-04-3.46255E-05-2.92065E-05-5.64288E-06 1.15467E-18-2.01583E-18
 -1      3089 1.01409E-04-3.32858E-05-2.91565E-05-6.21013E-06 2.86669E-19-1.77272E-18
 -1      3090 1.02853E-04-3.56829E-05-2.88409E-05-6.84485E-06 1.30067E-18-1.80913E-18
 -1      3091 1.00066E-04-3.20333E-05-2.91584E-05-6.32991E-06 1.69106E-19-1.32417E-18
 -1      3092 9.90449E-05-3.09875E-05-2.91427E-05-6.49876E-06 2.90665E-19-9.47357E-19
 -1      3093 9.96482E-05-3.25555E-05-2.87943E-05-7.36348E-06 5.65712E-19-4.80445E-19
 -1      3094 9.81697E-05-3.01012E-05-2.91691E-05-6.32388E-06 4.92921E-19-4.92882E-19
 -1      3095 9.74402E-05-2.93686E-05-2.91596E-05-6.23298E-06 1.17652E-18-3.31344E-19
 -1      3096 9.74692E-05-3.02226E-05-2.88475E-05-7.15198E-06 7.48645E-19-1.73163E-19
 -1      3097 9.69151E-05-2.88045E-05-2.91849E-05-5.90344E-06 1.09183E-18-9.98564E-19
 -1      3098 9.64155E-05-2.83383E-05-2.91695E-05-5.65941E-06 1.09142E-18-1.15434E-18
 -1      3099 9.61014E-05-2.86581E-05-2.89216E-05-6.54707E-06 7.50805E-19-4.34776E-19
 -1      3100 9.61303E-05-2.80217E-05-2.91833E-05-5.26357E-06 8.95379E-19-1.61682E-18
 -1      3101 9.57974E-05-2.77566E-05-2.91586E-05-4.94214E-06 4.70901E-19-1.34389E-18
 -1      3102 9.53141E-05-2.77180E-05-2.89798E-05-5.76139E-06 4.68056E-19-1.07791E-18
 -1      3103 9.56655E-05-2.76136E-05-2.91589E-05-4.53343E-06 9.53093E-20-1.10223E-18
 -1      3104 9.54470E-05-2.74884E-05-2.91262E-05-4.18598E-06-9.59951E-20-6.89687E-19
 -1      3105 9.49114E-05-2.72348E-05-2.90098E-05-4.92210E-06 4.11938E-19-1.83367E-18
 -1      3106 9.54066E-05-2.74579E-05-2.91149E-05-3.79590E-06-5.40301E-19-1.04718E-18
 -1      3107 9.52643E-05-2.74231E-05-2.90773E-05-3.45554E-06 4.95505E-20-8.38104E-19
 -1      3108 9.47474E-05-2.70602E-05-2.90115E-05-4.10374E-06-9.95514E-20-1.59335E-18
 -1      3109 9.52740E-05-2.74596E-05-2.90578E-05-3.10151E-06 2.40278E-20-1.27794E-18
 -1      3110 9.51811E-05-2.74789E-05-2.90184E-05-2.78800E-06 3.87937E-19-1.11306E-18
 -1      3111 9.47210E-05-2.70788E-05-2.89906E-05-3.34856E-06-2.69571E-19-1.83899E-18
 -1      3112 9.52147E-05-2.75503E-05-2.89941E-05-2.47834E-06 9.72683E-19-1.32374E-18
 -1      3113 9.51537E-05-2.75984E-05-2.89555E-05-2.20198E-06 6.84979E-19-9.34926E-19
 -1      3114 9.47664E-05-2.72067E-05-2.89544E-05-2.67825E-06 5.41618E-19-2.59425E-18
 -1      3115 9.51955E-05-2.76837E-05-2.89293E-05-1.93903E-06-2.28910E-19-9.51713E-19
 -1      3116 9.51548E-05-2.77439E-05-2.88933E-05-1.70359E-06-6.24067E-19-8.26731E-19
 -1      3117 9.48426E-05-2.73869E-05-2.89095E-05-2.10125E-06 7.75360E-20-2.52416E-18
 -1      3118 9.51961E-05-2.78301E-05-2.88674E-05-1.48580E-06-2.65307E-19-7.09609E-20
 -1      3119 9.51684E-05-2.78921E-05-2.88353E-05-1.29073E-06 4.93519E-19-2.68756E-19
 -1      3120 9.49260E-05-2.75822E-05-2.88614E-05-1.61720E-06-1.38399E-19-9.18221E-19
 -1      3121 9.52049E-05-2.79718E-05-2.88111E-05-1.11424E-06 3.83916E-19-5.35963E-19
 -1      3122 9.51858E-05-2.80298E-05-2.87833E-05-9.56492E-07 8.74765E-19-7.04815E-20
 -1      3123 9.50038E-05-2.77706E-05-2.88140E-05-1.22005E-06 3.36171E-19-6.09478E-19
 -1      3124 9.52158E-05-2.80994E-05-2.87616E-05-8.16339E-07 1.19552E-18-3.09552E-19
 -1      3125 9.52024E-05-2.81505E-05-2.87383E-05-6.91556E-07 3.98326E-19-7.87140E-19
 -1      3126 9.50703E-05-2.79403E-05-2.87699E-05-9.00783E-07 5.90594E-19-1.01345E-18
 -1      3127 9.52259E-05-2.82089E-05-2.87195E-05-5.82418E-07-2.17564E-20-6.74402E-19
 -1      3128 9.52163E-05-2.82521E-05-2.87003E-05-4.85746E-07 1.45894E-19-4.92400E-19
 -1      3129 9.51239E-05-2.80859E-05-2.87305E-05-6.49063E-07 1.42170E-19-1.03550E-18
 -1      3130 9.52339E-05-2.82996E-05-2.86845E-05-4.02378E-07 5.29028E-20-4.66309E-20
 -1      3131 9.52270E-05-2.83349E-05-2.86691E-05-3.28997E-07-5.13288E-20 1.98932E-19
 -1      3132 9.51651E-05-2.82066E-05-2.86965E-05-4.54327E-07 2.00294E-20-1.09799E-18
 -1      3133 9.52395E-05-2.83724E-05-2.86560E-05-2.66548E-07-9.77848E-19-5.55241E-19
 -1      3134 9.52345E-05-2.84005E-05-2.86439E-05-2.11999E-07-1.34075E-18-9.84109E-19
 -1      3135 9.51953E-05-2.83037E-05-2.86679E-05-3.06501E-07-1.05316E-18-2.14044E-18
 -1      3136 9.52429E-05-2.84294E-05-2.86334E-05-1.66182E-07-5.92506E-19-1.45029E-18
 -1      3137 9.52393E-05-2.84512E-05-2.86241E-05-1.26536E-07-1.60996E-18-1.46662E-18
 -1      3138 9.52164E-05-2.83798E-05-2.86443E-05-1.96467E-07-1.47342E-18-2.59865E-18
 -1      3139 9.52447E-05-2.84730E-05-2.86157E-05-9.36949E-08-1.83940E-18-1.03478E-18
 -1      3140 9.52421E-05-2.84896E-05-2.86086E-05-6.56248E-08-9.23410E-19-1.15448E-18
 -1      3141 9.52304E-05-2.84382E-05-2.86253E-05-1.16293E-07-1.21073E-18-2.44572E-18
 -1      3142 9.52452E-05-2.85058E-05-2.86021E-05-4.27442E-08-6.54630E-19-6.82199E-19
 -1      3143 9.52434E-05-2.85183E-05-2.85967E-05-2.35335E-08-4.28299E-19-9.90191E-20
 -1      3144 9.52390E-05-2.84821E-05-2.86102E-05-5.93046E-08-5.54261E-19-1.48674E-18
 -1      3145 9.52449E-05-2.85301E-05-2.85916E-05-8.20284E-09-6.57528E-19-3.83673E-19
 -1      3146 9.52437E-05-2.85396E-05-2.85877E-05 4.29099E-09-7.03794E-19 6.74522E-19
 -1      3147 9.52437E-05-2.85145E-05-2.85983E-05-2.00622E-08-6.83991E-19-2.73217E-19
 -1      3148 9.52442E-05-2.85483E-05-2.85837E-05 1.39306E-08-2.17759E-19 1.07352E-18
 -1      3149 9.52436E-05-2.85555E-05-2.85807E-05 2.13175E-08 1.90386E-20 1.55049E-18
 -1      3150 9.52458E-05-2.85384E-05-2.85889E-05 5.70319E-09-3.84993E-19-1.00509E-19
 -1      3151 9.52433E-05-2.85615E-05-2.85777E-05 2.63430E-08-8.63862E-19 1.28011E-18
 -1      3152 9.52431E-05-2.85673E-05-2.85754E-05 2.98770E-08 5.18895E-19 5.44202E-19
 -1      3153 9.52456E-05-2.85685E-05-2.85760E-05 2.88014E-08-1.36111E-19-4.94228E-19
 -1      3154 9.52461E-05-2.85558E-05-2.85817E-05 2.08992E-08-5.80508E-19-2.74608E-19
 -1      3155 9.51794E-05-2.53534E-05-2.99121E-05-9.87756E-06 8.97172E-19-4.36793E-19
 -1      3156 9.49742E-05-2.49818E-05-2.99969E-05-8.75885E-06 1.01059E-18-3.55737E-19
 -1      3157 1.08542E-04-5.03748E-05-2.45148E-05-2.56558E-05-2.29930E-18-1.01557E-18
 -1      3158 1.18895E-04-5.57883E-05-2.74325E-05-1.98928E-05-2.34353E-18-1.07618E-18
 -1      3159 1.03724E-04-3.73148E-05-2.83868E-05-1.63988E-05-8.75389E-19-7.00483E-19
 -1      3160 1.00579E-04-3.39983E-05-2.84561E-05-1.66172E-05-6.70107E-19-1.00433E-18
 -1      3161 9.88193E-05-3.15223E-05-2.87953E-05-1.55892E-05-2.57361E-19-9.63000E-19
 -1      3162 9.70043E-05-2.94327E-05-2.89313E-05-1.51352E-05 3.02457E-20-8.19241E-19
 -1      3163 9.53297E-05-3.12859E-05-2.75270E-05-1.77683E-05-3.53959E-19-1.07052E-18
 -1      3164 1.23076E-04-5.33094E-05-2.97678E-05-1.05068E-05-2.00914E-18 1.84494E-20
 -1      3165 1.17158E-04-4.96305E-05-2.86647E-05-1.44316E-05-1.97110E-18-4.15284E-19
 -1      3166 9.54829E-05-2.27494E-05-3.11760E-05-5.00839E-07 2.10803E-18-3.24620E-19
 -1      3167 9.40692E-05-2.07709E-05-3.14090E-05 1.95935E-07 2.19494E-18-6.04443E-19
 -1      3168 9.36480E-05-2.10089E-05-3.11191E-05-1.20390E-06 1.98136E-18-6.35150E-19
 -1      3169 9.55762E-05-2.34894E-05-3.08952E-05-2.31060E-06 1.92532E-18-2.81168E-19
 -1      3170 9.52445E-05-2.85731E-05-2.85736E-05-3.24578E-08 2.47790E-19-9.36439E-19
 -1      3171 9.52468E-05-2.85646E-05-2.85779E-05-2.67535E-08 4.55948E-19-3.78310E-19
 -1      3172 1.17899E-04-5.48434E-05-2.64216E-05 2.00844E-05-1.93899E-18-2.80705E-18
 -1      3173 9.00023E-05-2.75224E-05-2.67675E-05 1.63027E-05-4.71465E-19-3.89020E-19
 -1      3174 9.19534E-05-3.00610E-05-2.63725E-05 1.75668E-05-8.92162E-19-1.06708E-18
 -1      3175 8.94113E-05-2.48668E-05-2.76897E-05 1.33543E-05-1.56524E-18-1.01141E-19
 -1      3176 9.01776E-05-2.61247E-05-2.73651E-05 1.44778E-05-4.88149E-19-2.62210E-19
 -1      3177 8.54715E-05-2.45893E-05-2.60786E-05 1.54761E-05-8.09085E-19-1.86413E-20
 -1      3178 8.98917E-05-2.38498E-05-2.83389E-05 1.10069E-05-1.56107E-18 7.63405E-21
 -1      3179 9.00607E-05-2.43404E-05-2.81179E-05 1.19854E-05-1.91097E-18 1.67972E-19
 -1      3180 8.63579E-05-2.28753E-05-2.71878E-05 1.22665E-05-1.81831E-18-7.56945E-20
 -1      3181 9.07672E-05-2.37604E-05-2.87503E-05 9.09632E-06-9.14472E-19 6.51405E-22
 -1      3182 9.06733E-05-2.38243E-05-2.86221E-05 9.95325E-06-1.09304E-18 4.96945E-19
 -1      3183 8.77481E-05-2.24741E-05-2.79529E-05 9.94237E-06-1.39953E-18 3.60076E-19
 -1      3184 9.16984E-05-2.41392E-05-2.89824E-05 7.49385E-06-1.30047E-18 1.25876E-18
 -1      3185 9.15182E-05-2.39889E-05-2.89237E-05 8.24990E-06-8.70500E-19 8.36049E-19
 -1      3186 8.92024E-05-2.27761E-05-2.84478E-05 8.16046E-06-1.37256E-18 9.31934E-19
 -1      3187 9.25364E-05-2.47154E-05-2.90897E-05 6.12472E-06-3.12102E-19 1.09963E-18
 -1      3188 9.23528E-05-2.44746E-05-2.90781E-05 6.79016E-06-8.09682E-19 1.20447E-18
 -1      3189 9.05239E-05-2.34090E-05-2.87458E-05 6.71453E-06-8.98870E-19 1.84019E-18
 -1      3190 9.32305E-05-2.53380E-05-2.91160E-05 4.95033E-06-8.44172E-19 1.57985E-18
 -1      3191 9.30758E-05-2.50749E-05-2.91331E-05 5.52961E-06 1.19074E-19 1.90892E-18
 -1      3192 9.16412E-05-2.41586E-05-2.89069E-05 5.49681E-06-5.35875E-19 2.78322E-18
 -1      3193 9.37776E-05-2.59294E-05-2.90932E-05 3.94949E-06-1.32363E-18 7.00858E-19
 -1      3194 9.36596E-05-2.56786E-05-2.91260E-05 4.44587E-06-1.03282E-18 1.20735E-18
 -1      3195 9.25450E-05-2.49064E-05-2.89771E-05 4.45573E-06-4.85193E-19 2.32035E-18
 -1      3196 9.41948E-05-2.64549E-05-2.90436E-05 3.10671E-06-1.19914E-18 4.45571E-19
 -1      3197 9.41103E-05-2.62316E-05-2.90832E-05 3.52480E-06-1.29900E-18 4.22740E-20
 -1      3198 9.32543E-05-2.55932E-05-2.89896E-05 3.56651E-06-1.01542E-18 9.09870E-20
 -1      3199 9.45057E-05-2.69031E-05-2.89820E-05 2.40740E-06-4.62102E-19-1.06683E-19
 -1      3200 9.44480E-05-2.67124E-05-2.90227E-05 2.75342E-06-5.06779E-19 1.05638E-19
 -1      3201 9.37989E-05-2.61935E-05-2.89680E-05 2.81419E-06-5.83434E-19-9.44075E-19
 -1      3202 9.47332E-05-2.72751E-05-2.89179E-05 1.83619E-06 1.67018E-19-1.32896E-18
 -1      3203 9.46954E-05-2.71168E-05-2.89564E-05 2.11776E-06-1.19236E-19-1.06057E-18
 -1      3204 9.42100E-05-2.67017E-05-2.89281E-05 2.18674E-06 3.86224E-19-7.32697E-19
 -1      3205 9.48971E-05-2.75775E-05-2.88568E-05 1.37674E-06 5.49967E-19-1.46627E-18
 -1      3206 9.48734E-05-2.74486E-05-2.88913E-05 1.60225E-06-9.35877E-20-1.69978E-18
 -1      3207 9.45159E-05-2.71217E-05-2.88804E-05 1.67168E-06 4.41898E-19-1.76910E-18
 -1      3208 9.50137E-05-2.78195E-05-2.88017E-05 1.01275E-06 1.07200E-18-9.59242E-19
 -1      3209 9.49994E-05-2.77162E-05-2.88315E-05 1.19060E-06 8.50199E-19-1.35860E-18
 -1      3210 9.47405E-05-2.74623E-05-2.88317E-05 1.25548E-06 4.14787E-19-8.59839E-19
 -1      3211 9.50955E-05-2.80105E-05-2.87539E-05 7.28883E-07 1.27310E-18-1.25031E-19
 -1      3212 9.50874E-05-2.79288E-05-2.87789E-05 8.66954E-07 1.17045E-18-8.58602E-19
 -1      3213 9.49036E-05-2.77345E-05-2.87856E-05 9.24506E-07 7.97496E-19-3.70832E-19
 -1      3214 9.51520E-05-2.81594E-05-2.87134E-05 5.11010E-07-6.66498E-19 1.17162E-18
 -1      3215 9.51479E-05-2.80956E-05-2.87340E-05 6.16529E-07 5.59927E-19 4.18188E-19
 -1      3216 9.50204E-05-2.79491E-05-2.87441E-05 6.65663E-07 2.69447E-19-2.92299E-20
 -1      3217 9.51902E-05-2.82739E-05-2.86801E-05 3.46510E-07-2.33103E-18 2.01166E-18
 -1      3218 9.51884E-05-2.82248E-05-2.86966E-05 4.25851E-07-1.88157E-18 1.42605E-18
 -1      3219 9.51026E-05-2.81161E-05-2.87081E-05 4.66576E-07-1.24636E-18 1.12711E-18
 -1      3220 9.52153E-05-2.83608E-05-2.86531E-05 2.24449E-07-8.38836E-19 1.05794E-18
 -1      3221 9.52149E-05-2.83234E-05-2.86661E-05 2.83077E-07-1.51173E-18 1.43913E-18
 -1      3222 9.51592E-05-2.82442E-05-2.86776E-05 3.16023E-07-1.24662E-18 1.28529E-18
 -1      3223 9.52310E-05-2.84259E-05-2.86316E-05 1.35604E-07 1.40248E-19 7.97402E-19
 -1      3224 9.52315E-05-2.83978E-05-2.86418E-05 1.78089E-07-3.26466E-19 8.72223E-19
 -1      3225 9.51972E-05-2.83411E-05-2.86525E-05 2.04196E-07-6.04224E-19 8.35697E-19
 -1      3226 9.52403E-05-2.84739E-05-2.86147E-05 7.23682E-08-1.06185E-18-1.42525E-19
 -1      3227 9.52411E-05-2.84531E-05-2.86225E-05 1.02449E-07 1.74399E-19 5.85950E-19
 -1      3228 9.52216E-05-2.84134E-05-2.86321E-05 1.22765E-07 1.01330E-19 7.94874E-19
 -1      3229 9.52452E-05-2.85090E-05-2.86016E-05 2.86123E-08-4.99761E-19 1.94739E-19
 -1      3230 9.52461E-05-2.84936E-05-2.86075E-05 4.92750E-08-1.50963E-18-4.88043E-19
 -1      3231 9.52365E-05-2.84666E-05-2.86157E-05 6.48191E-08-7.56555E-19 2.92103E-20
 -1      3232 9.52472E-05-2.85344E-05-2.85914E-05-4.36892E-10 1.06231E-18 1.51119E-18
 -1      3233 9.52481E-05-2.85232E-05-2.85959E-05 1.31108E-08 2.32421E-19 5.27290E-19
 -1      3234 9.52447E-05-2.85053E-05-2.86026E-05 2.47612E-08-6.69516E-19 1.29886E-19
 -1      3235 9.52475E-05-2.85534E-05-2.85834E-05-1.88278E-08 8.60035E-19 5.81532E-19
 -1      3236 9.52482E-05-2.85446E-05-2.85869E-05-1.02390E-08 1.71448E-18 1.73669E-18
 -1      3237 9.52484E-05-2.85333E-05-2.85922E-05-1.64599E-09 8.05463E-19-4.66784E-19
 -1      3238 9.52524E-05-2.85651E-05-2.85803E-05 9.66375E-09-1.73630E-18-4.19087E-19
 -1      3239 9.52526E-05-2.85648E-05-2.85805E-05 5.95334E-09-1.14709E-18-2.03257E-18
 -1      3240 1.12364E-04-1.26397E-05-4.31355E-05-1.85898E-06-4.23993E-18 4.80347E-19
 -1      3241 1.16502E-04-1.53414E-05-4.38490E-05-8.30581E-06-4.17195E-18 9.92749E-19
 -1      3242 9.52527E-05-2.85644E-05-2.85807E-05 2.54835E-09-1.21177E-18-3.37977E-18
 -1      3243 9.52528E-05-2.85644E-05-2.85808E-05-1.26445E-09 8.48849E-20-1.03976E-18
 -1      3244 9.52519E-05-2.85539E-05-2.85847E-05 3.81290E-09-1.46362E-18-2.50768E-18
 -1      3245 1.29958E-04-5.41029E-05-3.22400E-05-4.76833E-06 8.32815E-19-9.94099E-19
 -1      3246 1.31135E-04-4.99190E-05-3.53029E-05 2.35398E-06-4.51505E-19-2.10133E-18
 -1      3247 6.69218E-05-2.89325E-05-1.64460E-05 3.03477E-05-2.75503E-18 1.47955E-18
 -1      3248 5.51596E-05-2.10662E-05-1.38637E-05 2.43973E-05-2.75222E-18 3.28342E-18
 -1      3249 1.28733E-04-5.66746E-05-3.05934E-05-8.54880E-06-2.13338E-18 8.34063E-20
 -1      3250 9.34798E-05-1.93759E-05-3.17388E-05-2.22969E-06-1.19331E-18-2.30085E-18
 -1      3251 9.52517E-05-2.85670E-05-2.85792E-05 1.68440E-08-1.37971E-18-2.38421E-18
 -1      3252 9.52523E-05-2.85665E-05-2.85797E-05 1.31477E-08-1.65299E-18-6.92643E-19
 -1      3253 9.52518E-05-2.85559E-05-2.85838E-05 1.01785E-08-1.70908E-18-1.23765E-18
 -1      3254 9.52497E-05-2.85695E-05-2.85773E-05 2.39184E-08-6.76731E-19-3.56212E-19
 -1      3255 9.52512E-05-2.85691E-05-2.85781E-05 2.04337E-08-1.47700E-18-2.08900E-18
 -1      3256 9.52511E-05-2.85594E-05-2.85821E-05 1.68472E-08-1.16864E-18-2.34690E-18
 -1      3257 9.52324E-05-2.47737E-05-3.01907E-05-7.53135E-06 1.21208E-18-2.72468E-19
 -1      3258 9.51610E-05-2.44401E-05-3.03053E-05-6.24735E-06 1.48114E-18-3.86707E-20
 -1      3259 9.34476E-05-2.36349E-05-2.99163E-05-7.95780E-06 1.21686E-18-1.96347E-19
 -1      3260 7.89878E-05-3.43638E-05-1.87284E-05-3.11803E-05-1.60836E-18-2.30398E-18
 -1      3261 9.41869E-05-4.38207E-05-2.16553E-05-3.11104E-05-1.97523E-18-1.50666E-18
 -1      3262 9.29088E-05-3.28536E-05-2.56248E-05 1.99001E-05-6.94077E-19-1.32211E-18
 -1      3263 9.66730E-05-3.72446E-05-2.52805E-05 2.11602E-05-8.62419E-19-1.58416E-18
 -1      3264 8.59460E-05-2.86557E-05-2.45958E-05 1.99900E-05-1.12402E-18-9.81830E-19
 -1      3265 4.05286E-05-1.21569E-05-1.20039E-05 3.13639E-06 4.08214E-19-3.13762E-18
 -1      3266 4.18971E-05-1.36193E-05-1.15378E-05-1.13628E-05 1.25149E-19-3.46691E-18
 -1      3267 1.32052E-04-4.24709E-05-3.86925E-05-8.11249E-06-1.14434E-18 2.41717E-18
 -1      3268 1.35282E-04-5.06856E-05-3.62937E-05-1.15361E-06-4.74391E-19 2.19382E-18
 -1      3269 1.02125E-04-4.24720E-05-2.51753E-05 2.22500E-05-1.51410E-18-2.46161E-18
 -1      3270 1.08199E-04-4.86885E-05-2.53950E-05 2.22801E-05-2.11086E-18-2.97417E-18
 -1      3271 1.05390E-04-4.97327E-05-2.40745E-05 2.67847E-05-1.97708E-18-3.42005E-18
 -1      3272 9.15678E-05-3.71442E-05-2.34843E-05 2.50276E-05-1.48506E-18-1.33357E-18
 -1      3273 5.95724E-05-2.35475E-05-1.50340E-05-2.87025E-05 5.07532E-19 5.02989E-18
 -1      3274 7.24747E-05-3.18044E-05-1.72611E-05-3.31069E-05 1.09421E-18 4.77012E-18
 -1      3275 6.11010E-05-2.06329E-05-1.69661E-05-2.24167E-05-5.42048E-19 4.15586E-18
 -1      3276 1.11727E-04-4.51408E-05-2.84295E-05-1.53256E-05-1.43747E-18-4.70171E-19
 -1      3277 1.06933E-04-4.08005E-05-2.81798E-05-1.69355E-05-9.56141E-19-5.78090E-19
 -1      3278 9.98527E-05-3.75576E-05-2.68400E-05-1.99256E-05-9.10838E-19-1.09925E-18
 -1      3279 1.08032E-04-4.63807E-05-2.66570E-05-2.08885E-05-1.73110E-18-7.81838E-19
 -1      3280 8.34035E-05-3.88398E-05-1.90618E-05 3.45486E-05 1.80820E-18 1.89259E-19
 -1      3281 6.82869E-05-2.94737E-05-1.61167E-05 3.26864E-05 1.96152E-18-1.52847E-18
 -1      3282 1.14911E-04-5.47536E-05-2.53985E-05-2.50605E-05 2.30321E-18 1.80075E-18
 -1      3283 1.23914E-04-5.68715E-05-2.91665E-05-1.58183E-05 1.61540E-18 4.76099E-19
 -1      3284 9.59979E-05-2.48021E-05-3.04963E-05 2.57561E-06-7.59569E-19-1.58830E-18
 -1      3285 9.63077E-05-2.56775E-05-3.02761E-05 3.71115E-06-7.33795E-19-1.43680E-18
 -1      3286 9.55978E-05-2.52468E-05-3.01615E-05 4.33682E-06-6.67280E-19-1.45376E-18
 -1      3287 9.45619E-05-2.15046E-05-3.13123E-05-8.45401E-07-1.05529E-18-2.05641E-18
 -1      3288 9.52369E-05-2.33627E-05-3.08100E-05 1.37084E-06-8.88374E-19-1.86085E-18
 -1      3289 9.44800E-05-2.27991E-05-3.07246E-05 2.03919E-06-7.55403E-19-1.80924E-18
 -1      3290 9.26577E-05-1.92635E-05-3.14579E-05-5.83516E-07-7.96718E-19-2.23766E-18
 -1      3291 1.32183E-04-5.55626E-05-3.31661E-05 7.69250E-06-3.36431E-20 2.06766E-18
 -1      3292 1.26070E-04-5.78046E-05-2.89388E-05 1.68509E-05 1.01379E-18 1.96305E-18
 -1      3293 1.29653E-04-5.31691E-05-3.28679E-05 2.94476E-06 1.77665E-19 2.23003E-18
 -1      3294 8.69951E-05-1.35885E-05-3.14781E-05 8.11425E-07 1.31685E-18-2.21017E-18
 -1      3295 8.67184E-05-1.33334E-05-3.14644E-05 7.16051E-07 1.05645E-18-2.24893E-18
 -1      3296 5.58757E-05-2.13130E-05-1.47106E-05 2.66417E-05 1.49872E-18-2.60378E-18
 -1      3297 4.68203E-05-1.48707E-05-1.30993E-05 1.59578E-05 1.07772E-18-2.98696E-18
 -1      3298 8.66923E-05-1.33305E-05-3.14596E-05 8.49056E-07 9.32526E-19-2.21581E-18
 -1      3299 8.68580E-05-1.34794E-05-3.14618E-05 6.93188E-07 7.09397E-19-2.30391E-18
 -1      3300 8.70870E-05-1.43986E-05-3.11256E-05 7.60733E-07 9.31642E-19-2.09579E-18
 -1      3301 9.13084E-05-1.83855E-05-3.12275E-05-5.22086E-07 1.82935E-18-1.15088E-18
 -1      3302 9.03009E-05-1.67095E-05-3.15563E-05 6.87402E-07 1.92698E-18-1.42492E-18
 -1      3303 8.91710E-05-1.56166E-05-3.15434E-05 5.78372E-07 1.71797E-18-1.61804E-18
 -1      3304 1.09361E-04-5.11225E-05-2.47177E-05-2.53235E-05 2.22992E-18 1.77450E-18
 -1      3305 1.24915E-04-5.38220E-05-3.03469E-05-8.75731E-06 1.27297E-18-8.05158E-19
 -1      3306 1.28448E-04-4.44057E-05-3.61361E-05 7.55633E-06-5.15671E-19-1.65542E-18
 -1      3307 8.82222E-05-1.47138E-05-3.15205E-05 7.28740E-07 1.61077E-18-1.76801E-18
 -1      3308 8.74966E-05-1.40425E-05-3.14980E-05 6.40405E-07 1.41174E-18-1.98626E-18
 -1      3309 8.76010E-05-1.48498E-05-3.11509E-05 3.35926E-07 1.26595E-18-1.92871E-18
 -1      3310 8.90555E-05-1.61953E-05-3.11968E-05-1.21707E-07 1.48174E-18-1.47740E-18
 -1      3311 9.52489E-05-2.85578E-05-2.85819E-05-2.07481E-08 1.13636E-18-7.11776E-19
 -1      3312 9.03951E-05-1.70112E-05-3.14666E-05 7.04906E-08-3.22821E-19-2.20417E-18
 -1      3313 9.14789E-05-1.81036E-05-3.14653E-05-3.18180E-07-5.87619E-19-2.32762E-18
 -1      3314 9.25613E-05-2.00154E-05-3.10723E-05 9.39943E-07-5.72424E-19-1.96718E-18
 -1      3315 1.16630E-04-2.68975E-05-3.86110E-05 1.30467E-05-1.91093E-18-2.08476E-18
 -1      3316 9.20192E-05-4.30705E-05-2.05307E-05 3.34414E-05 1.81159E-18 9.98864E-19
 -1      3317 8.45615E-05-3.68775E-05-2.03087E-05 3.13405E-05 1.88947E-18 5.75453E-19
 -1      3318 9.93679E-05-4.70776E-05-2.25306E-05 3.06978E-05 1.74303E-18 1.46309E-18
 -1      3319 1.01671E-04-4.47707E-05-2.41599E-05-2.56151E-05-1.98960E-18-1.15854E-18
 -1      3320 6.67438E-05-2.48900E-05-1.75825E-05 2.60602E-05 1.91059E-18-1.63864E-18
 -1      3321 9.32044E-05-2.72677E-05-2.82938E-05-1.52092E-05 2.20246E-19-5.37720E-19
 -1      3322 9.64078E-05-2.80920E-05-2.92448E-05-1.39665E-05 2.03093E-19-7.90174E-19
 -1      3323 9.54488E-05-2.69222E-05-2.93628E-05-1.31842E-05 4.69344E-19-6.51087E-19
 -1      3324 4.56744E-05-1.20314E-05-1.38859E-05-5.62053E-06-6.74529E-19 3.99614E-18
 -1      3325 5.29299E-05-1.38814E-05-1.65076E-05-1.05145E-05-1.30087E-18 3.95024E-18
 -1      3326 4.73352E-05-1.22520E-05-1.48319E-05 8.57993E-07-1.15471E-18 3.27971E-18
 -1      3327 6.68112E-05-2.49725E-05-1.77575E-05-2.59596E-05-1.02369E-18-2.69531E-18
 -1      3328 7.30612E-05-3.00440E-05-1.81353E-05-2.98395E-05-1.32794E-18-2.67165E-18
 -1      3329 8.27455E-05-3.31553E-05-2.09801E-05-2.75007E-05-1.65936E-18-1.67728E-18
 -1      3330 5.18401E-05-1.63115E-05-1.47215E-05-1.49599E-05-1.76500E-19-3.15604E-18
 -1      3331 9.52531E-05-2.85672E-05-2.85797E-05-1.22542E-08 2.96752E-19 4.04341E-18
 -1      3332 9.52526E-05-2.85678E-05-2.85792E-05-1.61319E-08 1.04603E-19 2.72187E-18
 -1      3333 9.54300E-05-2.62772E-05-2.96152E-05-1.20199E-05 6.82951E-19-5.06295E-19
 -1      3334 9.49628E-05-2.56523E-05-2.97054E-05-1.10484E-05 8.36257E-19-4.82398E-19
 -1      3335 9.27125E-05-2.52043E-05-2.89427E-05-1.27511E-05 6.61964E-19-3.93693E-19
 -1      3336 1.15951E-04-1.96832E-05-4.14918E-05-9.87006E-06-3.31253E-18 1.58647E-18
 -1      3337 9.52530E-05-2.85651E-05-2.85806E-05-4.70224E-09 5.36194E-19 6.45137E-19
 -1      3338 9.52529E-05-2.85656E-05-2.85803E-05-8.57255E-09-5.51274E-19 2.64379E-18
 -1      3339 9.52525E-05-2.85566E-05-2.85839E-05-9.01503E-09-2.71788E-19 2.06995E-18
 -1      3340 9.52521E-05-2.85542E-05-2.85847E-05-2.44163E-09-4.76502E-19-1.68292E-18
 -1      3341 8.67514E-05-3.91273E-05-1.97868E-05 3.09961E-05-2.31092E-18-8.54021E-19
 -1      3342 5.29516E-05-1.75107E-05-1.48749E-05 1.75722E-05-1.93245E-18 3.18124E-18
 -1      3343 1.18693E-04-5.54018E-05-2.70188E-05 2.07177E-05 1.15159E-18 1.80066E-18
 -1      3344 7.63609E-05-3.00328E-05-1.97333E-05-2.81750E-05 5.02132E-19 4.03934E-18
 -1      3345 8.23024E-05-3.65243E-05-1.93479E-05-3.24334E-05 1.59311E-18 4.59695E-18
 -1      3346 9.06861E-05-4.00453E-05-2.17853E-05-2.94086E-05 1.55174E-18 3.19816E-18
 -1      3347 9.52476E-05-2.85789E-05-2.85723E-05-2.99763E-08 2.81193E-20 1.46733E-19
 -1      3348 5.10095E-05-1.40701E-05-1.53779E-05 7.48196E-06 9.03586E-19-2.68224E-18
 -1      3349 9.54742E-05-2.43087E-05-3.04976E-05-5.10292E-06 1.59963E-18-1.11438E-19
 -1      3350 9.54367E-05-2.38484E-05-3.06742E-05-3.59415E-06 1.74592E-18-2.07877E-19
 -1      3351 9.44889E-05-2.26552E-05-3.07820E-05-3.07991E-06 1.79179E-18-4.16978E-19
 -1      3352 9.40267E-05-2.32129E-05-3.03443E-05-5.56255E-06 1.54600E-18-1.25022E-19
 -1      3353 9.52472E-05-2.85683E-05-2.85767E-05 2.72342E-08 5.55464E-21 3.64601E-19
 -1      3354 9.52489E-05-2.85696E-05-2.85769E-05 2.56381E-08-9.09868E-19 6.15555E-19
 -1      3355 9.52496E-05-2.85615E-05-2.85805E-05 2.17232E-08-5.32250E-19 2.14015E-19
 -1      3356 9.52475E-05-2.85620E-05-2.85793E-05 2.43559E-08-7.23295E-19-5.78352E-20
 -1      3357 8.11783E-05-3.31579E-05-2.01771E-05 2.71737E-05-2.40309E-18-1.82377E-20
 -1      3358 9.29593E-05-2.42076E-05-2.94654E-05-1.03767E-05 8.69241E-19-4.30268E-19
 -1      3359 8.85188E-05-1.52069E-05-3.14362E-05 5.64014E-07 2.72116E-19-1.99345E-18
 -1      3360 8.93739E-05-1.60209E-05-3.14523E-05 2.35174E-07-6.37711E-20-2.14023E-18
 -1      3361 9.03678E-05-1.78305E-05-3.10649E-05 1.23875E-06-1.34389E-19-1.87803E-18
 -1      3362 1.29694E-04-3.77134E-05-3.97654E-05-1.13729E-05-1.41322E-18 2.49642E-18
 -1      3363 1.28340E-04-4.27778E-05-3.67383E-05-8.32270E-06-7.39301E-19 2.54417E-18
 -1      3364 1.24657E-04-3.10654E-05-4.03080E-05-1.29839E-05-1.73456E-18 2.14903E-18
 -1      3365 9.52495E-05-2.85422E-05-2.85889E-05 4.30110E-09-1.06305E-18-2.24463E-18
 -1      3366 9.52495E-05-2.85417E-05-2.85891E-05 1.67890E-09-1.23695E-18-3.20645E-18
 -1      3367 1.21963E-04-2.63917E-05-4.12138E-05 1.24329E-05-2.52061E-18-2.11599E-18
 -1      3368 1.11718E-04-1.50990E-05-4.16693E-05 1.68777E-06-3.59714E-18-4.98797E-19
 -1      3369 7.62482E-05-2.75020E-05-2.06454E-05 2.42718E-05-2.22669E-18 6.26222E-19
 -1      3370 9.61254E-05-2.77905E-05-2.92681E-05 7.62773E-06-4.06791E-19-8.58097E-19
 -1      3371 9.69092E-05-2.89925E-05-2.90960E-05 8.22071E-06-3.51350E-19-8.06089E-19
 -1      3372 9.77670E-05-3.03099E-05-2.88803E-05 8.94254E-06-3.67913E-19-5.08514E-19
 -1      3373 9.89851E-05-3.18543E-05-2.87576E-05 9.23613E-06-1.56556E-19-4.42564E-19
 -1      3374 9.59386E-05-2.89407E-05-2.87480E-05 9.22794E-06-1.46622E-19-5.39940E-19
 -1      3375 1.00447E-04-3.35940E-05-2.86017E-05 9.68955E-06 1.41696E-20-2.10712E-19
 -1      3376 1.02214E-04-3.55380E-05-2.85683E-05 9.53812E-06 6.55640E-20-2.46023E-19
 -1      3377 9.81808E-05-3.22044E-05-2.83324E-05 1.06504E-05 5.86016E-21-4.09769E-20
 -1      3378 1.04490E-04-3.77223E-05-2.85424E-05 9.46928E-06 1.82129E-19-2.86737E-19
 -1      3379 1.06798E-04-3.99235E-05-2.86719E-05 8.63396E-06 1.03760E-19-1.37376E-19
 -1      3380 1.01840E-04-3.64603E-05-2.81000E-05 1.13932E-05 1.21723E-19-1.17939E-19
 -1      3381 1.10021E-04-4.23598E-05-2.88972E-05 7.60665E-06-5.59166E-20 1.54420E-19
 -1      3382 1.12570E-04-4.42440E-05-2.93193E-05 5.76618E-06 1.40157E-20 4.53120E-19
 -1      3383 1.07277E-04-4.16247E-05-2.82431E-05 1.08732E-05 2.38809E-19-3.75904E-20
 -1      3384 1.16364E-04-4.60850E-05-3.00281E-05 3.22740E-06 6.75054E-20 9.39772E-19
 -1      3385 1.18462E-04-4.64441E-05-3.09265E-05 2.47960E-07-3.35103E-20 1.31638E-18
 -1      3386 1.14439E-04-4.65509E-05-2.91644E-05 7.56643E-06 3.55119E-19 9.77317E-19
 -1      3387 1.21983E-04-3.84154E-05-3.60351E-05-1.12237E-05-7.19422E-19 1.81761E-18
 -1      3388 1.19812E-04-3.19397E-05-3.77879E-05-1.21763E-05-1.49798E-18 1.56092E-18
 -1      3389 1.18734E-04-2.61505E-05-4.00702E-05-1.27388E-05-2.15152E-18 1.76785E-18
 -1      3390 7.85323E-05-2.55095E-05-2.24773E-05 1.98898E-05-1.26573E-18 3.67397E-19
 -1      3391 6.66725E-05-2.11527E-05-1.93177E-05 2.06301E-05-1.97287E-18 2.01880E-18
 -1      3392 7.76338E-05-2.30081E-05-2.34092E-05 1.73334E-05-9.35270E-19 4.86197E-19
 -1      3393 1.19214E-04-4.58607E-05-3.14686E-05 2.30063E-06-6.20716E-20-1.81092E-18
 -1      3394 1.17399E-04-4.60874E-05-3.04412E-05-7.46639E-07 1.64652E-19-1.56444E-18
 -1      3395 1.13439E-04-4.45991E-05-2.95620E-05-3.70926E-06 6.83599E-19-1.28612E-18
 -1      3396 1.10985E-04-4.29323E-05-2.90340E-05-5.69162E-06 1.35112E-18-1.25089E-18
 -1      3397 1.15493E-04-4.72083E-05-2.95007E-05-5.64696E-06 7.17788E-19-6.37425E-19
 -1      3398 1.07496E-04-4.06249E-05-2.86752E-05-7.18128E-06 1.18314E-18-9.49405E-19
 -1      3399 1.05019E-04-3.84595E-05-2.84520E-05-8.20974E-06 1.35415E-18-1.54466E-18
 -1      3400 1.08339E-04-4.27261E-05-2.82877E-05-9.34876E-06 1.04587E-18-2.96905E-19
 -1      3401 1.02506E-04-3.62645E-05-2.83790E-05-8.44189E-06 1.78659E-18-1.37178E-18
 -1      3402 1.00560E-04-3.43393E-05-2.83283E-05-8.78809E-06 1.40236E-18-1.35099E-18
 -1      3403 1.02056E-04-3.72503E-05-2.78781E-05-1.04329E-05 1.54435E-18-3.81343E-19
 -1      3404 9.88994E-05-3.26389E-05-2.83834E-05-8.51893E-06 9.51884E-19-8.54942E-19
 -1      3405 9.75358E-05-3.11787E-05-2.84101E-05-8.44827E-06 9.06707E-19-5.16111E-20
 -1      3406 9.80333E-05-3.30521E-05-2.79081E-05-1.00745E-05 1.60010E-18-7.36503E-19
 -1      3407 9.65497E-05-2.99973E-05-2.85072E-05-7.94051E-06 6.36435E-19-5.80226E-19
 -1      3408 9.56630E-05-2.89989E-05-2.85565E-05-7.64653E-06 7.24221E-19-3.78737E-19
 -1      3409 9.54602E-05-2.99836E-05-2.80992E-05-9.05259E-06 6.72114E-19-6.83920E-19
 -1      3410 9.51529E-05-2.82635E-05-2.86533E-05-7.06875E-06 3.91683E-19-3.80705E-19
 -1      3411 9.46219E-05-2.76472E-05-2.86987E-05-6.67112E-06 3.60829E-19-7.75571E-19
 -1      3412 9.40268E-05-2.79903E-05-2.83232E-05-7.82122E-06 4.52335E-19-1.18035E-18
 -1      3413 9.44190E-05-2.72472E-05-2.87769E-05-6.10407E-06 1.02133E-19-7.13031E-19
 -1      3414 9.41309E-05-2.69139E-05-2.88077E-05-5.67252E-06 1.68161E-19-1.06404E-18
 -1      3415 9.33569E-05-2.68339E-05-2.85213E-05-6.59953E-06 6.28656E-20-7.15213E-19
 -1      3416 9.41130E-05-2.67472E-05-2.88624E-05-5.15024E-06-2.07320E-19-1.13436E-18
 -1      3417 9.39799E-05-2.66086E-05-2.88767E-05-4.72480E-06-1.36571E-19-1.74054E-18
 -1      3418 9.31631E-05-2.62740E-05-2.86718E-05-5.47416E-06-6.99358E-20-5.37943E-19
 -1      3419 9.40641E-05-2.65932E-05-2.89092E-05-4.26067E-06 1.47247E-19-2.11635E-18
 -1      3420 9.40234E-05-2.65795E-05-2.89090E-05-3.86424E-06-6.16257E-19-2.35672E-18
 -1      3421 9.32451E-05-2.61124E-05-2.87725E-05-4.47457E-06-2.41482E-19-1.11188E-18
 -1      3422 9.41550E-05-2.66540E-05-2.89234E-05-3.46187E-06-5.61137E-19-1.82059E-18
 -1      3423 9.41649E-05-2.67135E-05-2.89126E-05-3.10647E-06 2.61330E-19-2.41271E-18
 -1      3424 9.34695E-05-2.61985E-05-2.88297E-05-3.60720E-06-5.51886E-20-2.55964E-18
 -1      3425 9.43105E-05-2.68348E-05-2.89136E-05-2.76440E-06-3.16220E-20-2.71976E-18
 -1      3426 9.43446E-05-2.69320E-05-2.88958E-05-2.45533E-06 3.37312E-19-3.00362E-18
 -1      3427 9.37508E-05-2.64236E-05-2.88528E-05-2.86744E-06-6.90216E-20-2.98100E-18
 -1      3428 9.44849E-05-2.70713E-05-2.88878E-05-2.16983E-06 6.01408E-19-2.97828E-18
 -1      3429 9.45274E-05-2.71825E-05-2.88664E-05-1.90791E-06 1.76682E-19-2.68705E-18
 -1      3430 9.40382E-05-2.67135E-05-2.88515E-05-2.24643E-06 7.28510E-19-3.50921E-18
 -1      3431 9.46521E-05-2.73214E-05-2.88529E-05-1.67370E-06 2.75505E-19-1.56141E-18
 -1      3432 9.46941E-05-2.74319E-05-2.88304E-05-1.45662E-06 5.37223E-19-1.25419E-18
 -1      3433 9.43035E-05-2.70194E-05-2.88342E-05-1.73335E-06 1.33260E-18-2.45995E-18
 -1      3434 9.47992E-05-2.75599E-05-2.88143E-05-1.26748E-06-1.38814E-20-6.18078E-19
 -1      3435 9.48364E-05-2.76615E-05-2.87923E-05-1.09115E-06-1.78521E-19-9.34064E-19
 -1      3436 9.45330E-05-2.73115E-05-2.88076E-05-1.31572E-06 3.74057E-19-1.72511E-18
 -1      3437 9.49215E-05-2.77737E-05-2.87755E-05-9.40829E-07 2.85566E-19-9.52037E-19
 -1      3438 9.49522E-05-2.78624E-05-2.87553E-05-8.00329E-07 4.04089E-19-9.78867E-19
 -1      3439 9.47227E-05-2.75739E-05-2.87767E-05-9.80696E-07 1.52973E-19-1.18426E-18
 -1      3440 9.50188E-05-2.79569E-05-2.87391E-05-6.82828E-07 2.31664E-19-1.11959E-18
 -1      3441 9.50429E-05-2.80315E-05-2.87212E-05-5.72954E-07 1.34085E-19-7.57633E-19
 -1      3442 9.48740E-05-2.77997E-05-2.87450E-05-7.16114E-07 4.15829E-19-1.85985E-18
 -1      3443 9.50934E-05-2.81087E-05-2.87063E-05-4.82629E-07-5.33031E-19-9.64719E-19
 -1      3444 9.51113E-05-2.81695E-05-2.86909E-05-3.98273E-07-7.02499E-19-1.76549E-18
 -1      3445 9.49906E-05-2.79876E-05-2.87148E-05-5.10496E-07-3.67325E-19-2.04327E-18
 -1      3446 9.51484E-05-2.82310E-05-2.86778E-05-3.30018E-07-1.06281E-18-2.44748E-18
 -1      3447 9.51612E-05-2.82792E-05-2.86649E-05-2.66458E-07-1.72333E-18-3.37432E-18
 -1      3448 9.50778E-05-2.81395E-05-2.86873E-05-3.53283E-07-1.52147E-18-2.74324E-18
 -1      3449 9.51874E-05-2.83269E-05-2.86536E-05-2.15813E-07-1.58444E-18-2.51434E-18
 -1      3450 9.51961E-05-2.83643E-05-2.86431E-05-1.68869E-07-1.44314E-18-2.60030E-18
 -1      3451 9.51408E-05-2.82593E-05-2.86631E-05-2.35115E-07-1.13049E-18-2.35654E-18
 -1      3452 9.52140E-05-2.84006E-05-2.86336E-05-1.32044E-07-3.95981E-19-1.04586E-18
 -1      3453 9.52195E-05-2.84290E-05-2.86251E-05-9.81393E-08 1.82842E-20-7.03556E-19
 -1      3454 9.51847E-05-2.83517E-05-2.86425E-05-1.47931E-07-2.90251E-19 2.42817E-19
 -1      3455 9.52310E-05-2.84560E-05-2.86173E-05-7.19823E-08-1.78417E-19-4.17358E-20
 -1      3456 9.52342E-05-2.84772E-05-2.86106E-05-4.81427E-08-5.90691E-19 3.70867E-19
 -1      3457 9.52140E-05-2.84215E-05-2.86252E-05-8.49516E-08 4.48250E-19 1.92041E-18
 -1      3458 9.52410E-05-2.84970E-05-2.86042E-05-3.01278E-08-1.11739E-18 7.29027E-19
 -1      3459 9.52426E-05-2.85127E-05-2.85988E-05-1.39935E-08-4.76183E-19 1.09641E-18
 -1      3460 9.52323E-05-2.84733E-05-2.86109E-05-4.05739E-08-2.81250E-19 1.46285E-18
 -1      3461 9.52462E-05-2.85271E-05-2.85936E-05-2.04824E-09-4.23462E-20 4.95055E-19
 -1      3462 9.52468E-05-2.85386E-05-2.85894E-05 8.06800E-09-3.65688E-19 5.48811E-19
 -1      3463 9.52427E-05-2.85112E-05-2.85992E-05-1.03812E-08-4.89931E-19 2.28469E-18
 -1      3464 1.04026E-04-4.69945E-05-2.40635E-05-2.55634E-05 1.76352E-18 1.64473E-18
 -1      3465 1.13170E-04-5.20062E-05-2.65481E-05-2.00598E-05 1.98314E-18 7.98243E-19
 -1      3466 9.51274E-05-2.57408E-05-2.97251E-05 5.92565E-06-5.64172E-19-1.10495E-18
 -1      3467 9.56288E-05-2.67465E-05-2.95154E-05 6.75523E-06-5.12835E-19-9.25653E-19
 -1      3468 9.46446E-05-2.64508E-05-2.92449E-05 7.49031E-06-4.33245E-19-8.84281E-19
 -1      3469 7.48184E-05-2.84571E-05-1.97579E-05 2.69796E-05 2.05028E-18-6.33316E-19
 -1      3470 6.48666E-05-2.09190E-05-1.86365E-05 2.11745E-05 1.64215E-18-1.59819E-18
 -1      3471 5.73971E-05-1.51862E-05-1.80407E-05 1.11269E-05 1.36489E-18-2.07722E-18
 -1      3472 5.36151E-05-1.26205E-05-1.71976E-05-4.51241E-07 6.72193E-19-2.53242E-18
 -1      3473 8.58112E-05-2.12895E-05-2.76893E-05 8.21598E-06-1.65718E-18 8.89201E-19
 -1      3474 8.50526E-05-2.11741E-05-2.73621E-05 9.12350E-06-1.72421E-18 3.89200E-19
 -1      3475 6.11108E-05-1.80116E-05-1.82990E-05-1.77148E-05-6.07746E-19 3.40745E-18
 -1      3476 6.78761E-05-2.30843E-05-1.90345E-05-2.36981E-05-1.24779E-19 3.34258E-18
 -1      3477 8.34996E-05-2.09713E-05-2.68483E-05 1.01445E-05-2.12809E-18 6.07380E-19
 -1      3478 8.28429E-05-2.12599E-05-2.63579E-05 1.13810E-05-2.09749E-18 9.81508E-20
 -1      3479 8.18888E-05-1.96850E-05-2.66094E-05 8.23992E-06-1.83212E-18 4.88766E-19
 -1      3480 8.10210E-05-2.14511E-05-2.55928E-05 1.29252E-05-1.23386E-18 3.39144E-19
 -1      3481 8.08233E-05-2.24885E-05-2.49163E-05 1.46873E-05-6.29933E-19 3.66395E-19
 -1      3482 7.85250E-05-1.93637E-05-2.52829E-05 1.05779E-05-1.15948E-18 7.92647E-19
 -1      3483 8.78183E-05-2.20024E-05-2.82342E-05 6.77123E-06-1.92426E-18 1.04384E-18
 -1      3484 8.70974E-05-2.16891E-05-2.80276E-05 7.48902E-06-1.67933E-18 6.41101E-19
 -1      3485 8.47028E-05-2.04648E-05-2.74930E-05 6.70413E-06-1.86392E-18 3.98056E-19
 -1      3486 8.94947E-05-2.28758E-05-2.85716E-05 5.60322E-06-1.04851E-18 1.83579E-18
 -1      3487 8.88698E-05-2.24831E-05-2.84505E-05 6.20342E-06-1.55257E-18 1.16590E-18
 -1      3488 8.70092E-05-2.14411E-05-2.80713E-05 5.57061E-06-1.78743E-18 8.13793E-19
 -1      3489 9.08560E-05-2.37717E-05-2.87666E-05 4.61334E-06-7.88490E-19 2.52307E-18
 -1      3490 9.03424E-05-2.33672E-05-2.87037E-05 5.13030E-06-1.04319E-18 2.59652E-18
 -1      3491 8.88797E-05-2.24717E-05-2.84381E-05 4.65313E-06-1.86158E-18 1.64642E-18
 -1      3492 9.19399E-05-2.46160E-05-2.88660E-05 3.75894E-06 7.75124E-20 1.82665E-18
 -1      3493 9.15321E-05-2.42355E-05-2.88412E-05 4.20651E-06 5.72805E-19 2.93198E-18
 -1      3494 9.03792E-05-2.34674E-05-2.86592E-05 3.86460E-06-3.98143E-19 2.35577E-18
 -1      3495 9.27875E-05-2.53701E-05-2.89035E-05 3.02195E-06-6.36962E-19 7.34847E-19
 -1      3496 9.24718E-05-2.50312E-05-2.89025E-05 3.40689E-06-4.98867E-19 1.21886E-18
 -1      3497 9.15678E-05-2.43803E-05-2.87815E-05 3.17362E-06 3.56547E-19 1.41013E-18
 -1      3498 9.34412E-05-2.60212E-05-2.89025E-05 2.39267E-06-2.39882E-19-3.00447E-19
 -1      3499 9.32013E-05-2.57295E-05-2.89154E-05 2.71914E-06-4.16178E-19 1.71373E-19
 -1      3500 9.24983E-05-2.51857E-05-2.88384E-05 2.56801E-06-3.67073E-20 1.07122E-18
 -1      3501 9.39391E-05-2.65692E-05-2.88794E-05 1.86389E-06 8.53754E-19-1.02225E-18
 -1      3502 9.37596E-05-2.63244E-05-2.88993E-05 2.13614E-06 2.68745E-19-2.74222E-19
 -1      3503 9.32189E-05-2.58771E-05-2.88534E-05 2.04392E-06-2.72499E-19 2.70372E-19
 -1      3504 9.43138E-05-2.70207E-05-2.88450E-05 1.42709E-06-9.87061E-19 2.69094E-19
 -1      3505 9.41814E-05-2.68196E-05-2.88677E-05 1.65033E-06-6.49248E-20-4.19558E-19
 -1      3506 9.37708E-05-2.64575E-05-2.88431E-05 1.59888E-06-2.48063E-19 9.31918E-19
 -1      3507 9.45927E-05-2.73867E-05-2.88066E-05 1.07224E-06 5.31915E-19 2.53725E-19
 -1      3508 9.44962E-05-2.72240E-05-2.88293E-05 1.25225E-06-7.74698E-19-1.35452E-19
 -1      3509 9.41889E-05-2.69353E-05-2.88190E-05 1.22784E-06-6.51706E-19 1.93564E-18
 -1      3510 9.47981E-05-2.76792E-05-2.87684E-05 7.89071E-07 5.57808E-19 3.23913E-19
 -1      3511 9.47285E-05-2.75494E-05-2.87895E-05 9.31700E-07 1.29893E-18 5.68810E-19
 -1      3512 9.45024E-05-2.73226E-05-2.87885E-05 9.24207E-07 3.65329E-19 7.89636E-19
 -1      3513 9.49471E-05-2.79098E-05-2.87327E-05 5.67187E-07 5.48647E-19 4.70551E-19
 -1      3514 9.48977E-05-2.78077E-05-2.87515E-05 6.78284E-07 8.82264E-19 3.59743E-19
 -1      3515 9.47345E-05-2.76324E-05-2.87560E-05 6.80849E-07 7.85547E-19 1.69669E-18
 -1      3516 9.50533E-05-2.80889E-05-2.87008E-05 3.96331E-07-1.30936E-18 2.58854E-19
 -1      3517 9.50190E-05-2.80097E-05-2.87171E-05 4.81410E-07-7.33047E-19 7.52856E-19
 -1      3518 9.49038E-05-2.78764E-05-2.87246E-05 4.89507E-07 1.20756E-19 1.36246E-18
 -1      3519 9.51275E-05-2.82262E-05-2.86733E-05 2.67077E-07-7.73284E-19-2.22161E-19
 -1      3520 9.51042E-05-2.81656E-05-2.86870E-05 3.31103E-07-1.23058E-18-4.52876E-19
 -1      3521 9.50250E-05-2.80658E-05-2.86958E-05 3.41789E-07-7.31174E-19 1.10332E-18
 -1      3522 9.51779E-05-2.83298E-05-2.86502E-05 1.71116E-07-1.37778E-18 1.08745E-18
 -1      3523 9.51626E-05-2.82841E-05-2.86615E-05 2.18402E-07-9.91966E-19 1.73520E-20
 -1      3524 9.51099E-05-2.82108E-05-2.86704E-05 2.29845E-07-1.20465E-18-4.93273E-19
 -1      3525 9.52109E-05-2.84069E-05-2.86310E-05 1.01352E-07-8.65383E-20 1.65814E-18
 -1      3526 9.52013E-05-2.83729E-05-2.86401E-05 1.35541E-07-6.31674E-19 1.37931E-18
 -1      3527 9.51678E-05-2.83200E-05-2.86486E-05 1.46661E-07-1.25288E-18 7.44822E-19
 -1      3528 9.52313E-05-2.84634E-05-2.86153E-05 5.18332E-08-5.37033E-19 4.97857E-19
 -1      3529 9.52258E-05-2.84385E-05-2.86227E-05 7.59493E-08 3.80235E-19 1.61914E-18
 -1      3530 9.52057E-05-2.84012E-05-2.86303E-05 8.61941E-08 2.42347E-21 1.98391E-18
 -1      3531 9.52430E-05-2.85044E-05-2.86026E-05 1.77029E-08-5.96043E-19 6.60205E-19
 -1      3532 9.52402E-05-2.84862E-05-2.86085E-05 3.42351E-08-6.29763E-19 7.57861E-19
 -1      3533 9.52293E-05-2.84606E-05-2.86150E-05 4.33444E-08-1.32184E-20 1.25434E-18
 -1      3534 9.52488E-05-2.85339E-05-2.85923E-05-4.36142E-09 4.64965E-19 1.01001E-18
 -1      3535 9.52478E-05-2.85208E-05-2.85970E-05 6.13410E-09-7.37090E-19 2.46153E-19
 -1      3536 9.52427E-05-2.85039E-05-2.86024E-05 1.39189E-08-6.85123E-19 6.67664E-19
 -1      3537 9.52499E-05-2.85510E-05-2.85852E-05 1.47720E-08-1.24950E-18-9.48085E-19
 -1      3538 9.52504E-05-2.85491E-05-2.85864E-05 1.15477E-08-2.04851E-18-1.54601E-18
 -1      3539 9.52522E-05-2.85699E-05-2.85782E-05-2.00592E-08-3.45105E-20 1.64640E-18
 -1      3540 9.52507E-05-2.85701E-05-2.85773E-05-2.36257E-08 9.95731E-21 1.52159E-18
 -1      3541 9.07553E-05-2.30133E-05-2.90193E-05-1.02453E-05 8.78171E-19-5.61669E-19
 -1      3542 9.09809E-05-2.26920E-05-2.92811E-05-9.08969E-06 1.02380E-18-5.46789E-19
 -1      3543 1.20077E-04-5.39020E-05-2.85196E-05 1.47410E-05 9.87958E-19 1.89805E-18
 -1      3544 1.12282E-04-5.19587E-05-2.54596E-05 2.38432E-05 1.56657E-18 1.53943E-18
 -1      3545 9.16767E-05-2.25599E-05-2.96191E-05-7.94209E-06 1.13438E-18-4.93689E-19
 -1      3546 9.19377E-05-2.22909E-05-2.98572E-05-6.72498E-06 1.29262E-18-4.23418E-19
 -1      3547 8.95592E-05-2.13600E-05-2.92085E-05-7.84412E-06 1.08538E-18-6.95070E-19
 -1      3548 9.10130E-05-2.97042E-05-2.61964E-05-1.88208E-05-1.91856E-19-1.01748E-18
 -1      3549 8.94259E-05-2.71563E-05-2.66751E-05-1.73419E-05 8.58800E-20-6.67695E-19
 -1      3550 5.45317E-05-1.47061E-05-1.70686E-05-1.08720E-05 2.31075E-19-2.64682E-18
 -1      3551 6.01815E-05-1.90716E-05-1.72805E-05-2.00045E-05-3.59195E-19-2.77456E-18
 -1      3552 9.52523E-05-2.85604E-05-2.85821E-05-1.62152E-08 1.41739E-18 2.26258E-18
 -1      3553 9.52517E-05-2.85500E-05-2.85866E-05-1.05796E-08 1.53278E-18 3.09213E-18
 -1      3554 9.52514E-05-2.85521E-05-2.85854E-05-1.39105E-08 1.35372E-18 1.17229E-18
 -1      3555 5.94947E-05-1.78355E-05-1.77159E-05 1.61320E-05-2.12651E-18 2.31039E-18
 -1      3556 5.11639E-05-1.29403E-05-1.58164E-05 8.36452E-06-1.25251E-18 2.66275E-18
 -1      3557 5.45845E-05-1.31720E-05-1.76177E-05 1.73435E-06-1.59531E-18 2.55245E-18
 -1      3558 6.28305E-05-1.66416E-05-1.98636E-05 1.26346E-05-1.38854E-18 2.28093E-18
 -1      3559 8.72549E-05-1.39408E-05-3.14375E-05 7.76444E-07 5.75193E-19-2.39134E-18
 -1      3560 8.77961E-05-1.44422E-05-3.14521E-05 5.39228E-07 3.97399E-19-2.24270E-18
 -1      3561 8.86249E-05-1.60942E-05-3.10606E-05 1.26591E-06 3.08852E-19-1.99500E-18
 -1      3562 8.75002E-05-1.48774E-05-3.10984E-05 1.06526E-06 6.65585E-19-2.15254E-18
 -1      3563 1.20587E-04-5.19047E-05-2.91787E-05-9.76788E-06 1.26797E-18-5.07545E-19
 -1      3564 1.23263E-04-5.00074E-05-3.16676E-05-1.09426E-06 3.04819E-19-1.68224E-18
 -1      3565 1.27456E-04-4.95091E-05-3.37001E-05-2.41734E-06-9.08112E-20 2.12608E-18
 -1      3566 1.25230E-04-5.21604E-05-3.12650E-05 4.58691E-06 2.07245E-19 1.99986E-18
 -1      3567 9.44141E-05-2.38129E-05-3.02509E-05 3.87698E-06-5.39280E-19-1.36074E-18
 -1      3568 9.47871E-05-2.47899E-05-2.99988E-05 4.92907E-06-5.08570E-19-1.27291E-18
 -1      3569 9.38486E-05-2.43534E-05-2.97924E-05 5.54346E-06-3.97702E-19-1.02954E-18
 -1      3570 1.22598E-04-3.66172E-05-3.71643E-05 1.31615E-05-8.48932E-19-2.12089E-18
 -1      3571 1.22959E-04-4.28396E-05-3.44029E-05 7.67747E-06-3.90350E-19-1.93937E-18
 -1      3572 9.66294E-05-3.96501E-05-2.42226E-05-2.48661E-05-1.43506E-18-1.13921E-18
 -1      3573 1.22770E-04-4.63635E-05-3.27963E-05 4.76034E-06 9.74485E-20-1.96874E-18
 -1      3574 9.52498E-05-2.85455E-05-2.85876E-05 8.97735E-09-1.90588E-18-1.47870E-18
 -1      3575 9.52498E-05-2.85440E-05-2.85883E-05 6.24373E-09-1.24837E-18-2.11816E-18
 -1      3576 9.52475E-05-2.85302E-05-2.85929E-05 3.66472E-09-1.06899E-18-2.55646E-18
 -1      3577 9.52486E-05-2.85359E-05-2.85910E-05 7.32991E-09-2.51153E-18-1.54713E-18
 -1      3578 9.19619E-05-1.98117E-05-3.09298E-05-1.73911E-06 1.69405E-18-9.59415E-19
 -1      3579 9.06373E-05-1.85198E-05-3.09198E-05-1.50720E-06 1.52397E-18-1.13168E-18
 -1      3580 7.04932E-05-2.08484E-05-2.12645E-05 1.66971E-05 1.87988E-18-1.08954E-18
 -1      3581 6.35959E-05-1.76358E-05-1.94461E-05 1.48925E-05 1.61323E-18-1.74329E-18
 -1      3582 6.41202E-05-1.55571E-05-2.08255E-05 7.89024E-06 1.13996E-18-1.46677E-18
 -1      3583 1.20977E-04-4.88581E-05-3.09554E-05 2.13417E-06 1.86910E-19 1.44883E-18
 -1      3584 1.21019E-04-4.63770E-05-3.19989E-05-2.97963E-06-2.57485E-19 1.59283E-18
 -1      3585 1.21545E-04-4.38519E-05-3.33589E-05-6.11253E-06-3.99376E-19 1.77815E-18
 -1      3586 7.33837E-05-1.95357E-05-2.29631E-05 1.42092E-05-1.05413E-18 1.99267E-18
 -1      3587 8.66452E-05-3.59413E-05-2.18148E-05 2.79834E-05 1.98457E-18 8.27207E-19
 -1      3588 8.03811E-05-3.17788E-05-2.05756E-05 2.80025E-05 2.03838E-18-6.20716E-20
 -1      3589 7.83177E-05-2.82755E-05-2.13243E-05 2.41989E-05 1.99186E-18-3.65309E-19
 -1      3590 1.04307E-04-4.71435E-05-2.44283E-05 2.51164E-05 1.58342E-18 1.31180E-18
 -1      3591 9.69017E-05-4.15550E-05-2.35728E-05-2.50365E-05 1.34668E-18 2.25895E-18
 -1      3592 9.52477E-05-2.85474E-05-2.85857E-05 1.43871E-08-5.20284E-19 5.10478E-19
 -1      3593 9.52476E-05-2.85554E-05-2.85824E-05 2.00360E-08-5.27378E-19-6.38925E-20
 -1      3594 9.52487E-05-2.85548E-05-2.85832E-05 1.87776E-08-6.11490E-19 6.14823E-19
 -1      3595 9.52474E-05-2.85372E-05-2.85901E-05 7.62415E-09-5.87992E-19 1.28889E-18
 -1      3596 8.70499E-05-1.52837E-05-3.07754E-05 6.75821E-07 1.00933E-18-1.99631E-18
 -1      3597 8.70639E-05-1.52904E-05-3.07720E-05 9.12356E-07 8.48675E-19-2.06141E-18
 -1      3598 8.97676E-05-2.57934E-05-2.73593E-05-1.54149E-05 3.32382E-20-6.18293E-19
 -1      3599 8.92099E-05-2.44742E-05-2.77620E-05-1.41204E-05 3.48685E-19-4.68614E-19
 -1      3600 8.51740E-05-2.42340E-05-2.61239E-05-1.61432E-05 1.65546E-19-8.59525E-19
 -1      3601 9.37003E-05-2.18400E-05-3.08072E-05-2.67253E-06 1.74211E-18-6.03691E-19
 -1      3602 9.27060E-05-2.05959E-05-3.09035E-05-2.14147E-06 1.72778E-18-7.28454E-19
 -1      3603 9.20336E-05-2.05839E-05-3.06089E-05-3.13847E-06 1.44823E-18-7.44784E-19
 -1      3604 9.35241E-05-2.21943E-05-3.05728E-05-3.98350E-06 1.58392E-18-5.29657E-19
 -1      3605 9.31357E-05-2.12572E-05-3.08070E-05 1.80504E-06-5.47530E-19-1.86215E-18
 -1      3606 9.39015E-05-2.27758E-05-3.04807E-05 3.05242E-06-5.09701E-19-1.63514E-18
 -1      3607 9.30137E-05-2.22938E-05-3.03142E-05 3.65790E-06-3.16665E-19-1.24435E-18
 -1      3608 9.19468E-05-2.00596E-05-3.08146E-05 1.94565E-06-3.04397E-19-1.70432E-18
 -1      3609 6.06887E-05-1.49156E-05-1.93604E-05-5.72241E-06 4.97443E-19-2.36928E-18
 -1      3610 7.58088E-05-2.70861E-05-2.07167E-05-2.37447E-05 2.41629E-19 3.32595E-18
 -1      3611 6.95394E-05-2.27829E-05-1.97607E-05-2.12762E-05-6.53082E-19-2.40444E-18
 -1      3612 8.99554E-05-2.38767E-05-2.82890E-05-1.26512E-05 6.41373E-19-5.50445E-19
 -1      3613 8.99543E-05-2.32442E-05-2.86100E-05-1.14739E-05 7.21981E-19-4.97869E-19
 -1      3614 8.64477E-05-2.24456E-05-2.74195E-05-1.27665E-05 4.38180E-19-7.10239E-19
 -1      3615 9.52501E-05-2.85421E-05-2.85890E-05-9.94546E-09 1.28778E-18 1.97977E-18
 -1      3616 9.52489E-05-2.85314E-05-2.85934E-05-3.23533E-09 3.00228E-20 2.26109E-18
 -1      3617 8.77572E-05-1.58983E-05-3.08132E-05-1.61965E-07 1.23606E-18-1.74475E-18
 -1      3618 8.72673E-05-1.54479E-05-3.07918E-05 1.21913E-07 1.08623E-18-1.93937E-18
 -1      3619 8.72017E-05-1.61240E-05-3.04344E-05 2.40744E-07 9.71385E-19-1.82736E-18
 -1      3620 9.52502E-05-2.85667E-05-2.85787E-05-2.43869E-08 3.61692E-19 4.32059E-19
 -1      3621 9.52491E-05-2.85734E-05-2.85752E-05-2.78023E-08-2.52622E-19 1.15867E-19
 -1      3622 8.97918E-05-1.80335E-05-3.07644E-05 2.01950E-06 1.36530E-19-1.63414E-18
 -1      3623 9.08231E-05-1.90065E-05-3.07853E-05 1.95448E-06-1.45606E-19-1.66769E-18
 -1      3624 9.13947E-05-2.01531E-05-3.05198E-05 2.79497E-06-2.11499E-19-1.47381E-18
 -1      3625 9.52497E-05-2.85419E-05-2.85892E-05-8.98933E-11-1.00710E-18-2.94652E-18
 -1      3626 9.52499E-05-2.85425E-05-2.85889E-05-2.76986E-09-7.13831E-19-4.56399E-19
 -1      3627 9.52473E-05-2.85285E-05-2.85935E-05 9.30348E-10-6.65378E-19-3.38730E-18
 -1      3628 8.90671E-05-3.52758E-05-2.30448E-05-2.61173E-05-1.30818E-18-1.42553E-18
 -1      3629 9.68116E-05-3.70124E-05-2.54641E-05-2.19218E-05-1.16725E-18-1.09113E-18
 -1      3630 9.35924E-05-3.32497E-05-2.57635E-05-2.08652E-05-7.88558E-19-1.11072E-18
 -1      3631 8.31922E-05-3.07440E-05-2.24004E-05-2.47876E-05-1.21239E-18-1.58248E-18
 -1      3632 1.22741E-04-5.24493E-05-3.00568E-05 7.71506E-06 4.59006E-19 1.78688E-18
 -1      3633 1.16661E-04-5.01358E-05-2.85586E-05 1.17398E-05 7.53310E-19 1.50511E-18
 -1      3634 8.80483E-05-2.17001E-05-2.84160E-05-1.01464E-05 8.29884E-19-8.07523E-19
 -1      3635 9.07432E-05-2.09540E-05-2.98904E-05-5.58250E-06 1.26380E-18-7.10330E-19
 -1      3636 9.24230E-05-2.20444E-05-3.01678E-05-5.54230E-06 1.29711E-18-4.31491E-19
 -1      3637 1.15735E-04-4.93598E-05-2.83312E-05-1.14575E-05 1.19764E-18 8.45379E-20
 -1      3638 9.52507E-05-2.85447E-05-2.85884E-05-4.77140E-09-6.15809E-19 9.03447E-19
 -1      3639 9.52510E-05-2.85464E-05-2.85877E-05-7.80876E-09 9.52076E-19 1.67934E-18
 -1      3640 9.52499E-05-2.85367E-05-2.85912E-05-5.74898E-09 5.44864E-19 1.11637E-18
 -1      3641 9.52496E-05-2.85546E-05-2.85837E-05 1.74133E-08-7.19014E-19 1.01311E-18
 -1      3642 8.67427E-05-2.89528E-05-2.48085E-05-2.07393E-05-3.69723E-19-9.58405E-19
 -1      3643 9.27382E-05-2.18328E-05-3.03936E-05-4.42297E-06 1.41948E-18-5.69322E-19
 -1      3644 5.78496E-05-1.45451E-05-1.84854E-05-9.32601E-06-1.01490E-18 3.55026E-18
 -1      3645 5.92462E-05-1.60167E-05-1.82710E-05-1.43350E-05-7.59471E-19 3.61172E-18
 -1      3646 6.60367E-05-1.85946E-05-2.01862E-05-1.55471E-05-4.03809E-19 2.78788E-18
 -1      3647 9.52508E-05-2.85538E-05-2.85844E-05-1.63689E-08 1.15223E-18 1.12055E-18
 -1      3648 9.52487E-05-2.85429E-05-2.85881E-05 1.18039E-08-1.35602E-18 8.07501E-19
 -1      3649 8.94593E-05-1.74403E-05-3.08772E-05-1.01267E-06 1.40353E-18-1.36850E-18
 -1      3650 8.84904E-05-1.65395E-05-3.08502E-05-7.39577E-07 1.21038E-18-1.49078E-18
 -1      3651 8.81121E-05-1.69195E-05-3.04918E-05-1.02749E-06 1.16293E-18-1.55524E-18
 -1      3652 1.25479E-04-4.44571E-05-3.47935E-05-6.58268E-06-5.64905E-19 2.23034E-18
 -1      3653 1.11509E-04-4.67725E-05-2.74329E-05-1.38269E-05 1.63220E-18 4.71248E-19
 -1      3654 9.38381E-05-2.70588E-05-2.86116E-05 9.13052E-06 2.30566E-20-6.25133E-19
 -1      3655 9.47032E-05-2.84625E-05-2.83601E-05 1.00076E-05 1.42512E-19-3.42965E-19
 -1      3656 9.54237E-05-2.99592E-05-2.80351E-05 1.11854E-05 2.30498E-19 1.84809E-20
 -1      3657 9.69193E-05-3.18764E-05-2.78332E-05 1.19119E-05 3.01382E-19 2.38584E-19
 -1      3658 9.30010E-05-2.80445E-05-2.78682E-05 1.11712E-05 3.37535E-19-8.81990E-20
 -1      3659 9.84351E-05-3.40404E-05-2.75534E-05 1.30744E-05 2.54915E-19 3.37040E-19
 -1      3660 1.00796E-04-3.65883E-05-2.74781E-05 1.33957E-05 3.10787E-19 2.07234E-19
 -1      3661 9.50523E-05-3.17178E-05-2.71967E-05 1.38432E-05 4.01170E-19 3.93262E-19
 -1      3662 1.03432E-04-3.93681E-05-2.73680E-05 1.40339E-05 3.75652E-19 4.28225E-19
 -1      3663 1.06862E-04-4.25667E-05-2.75684E-05 1.37005E-05 3.74719E-19 3.22619E-19
 -1      3664 9.93116E-05-3.72004E-05-2.67123E-05 1.64258E-05 4.22243E-19 6.26950E-19
 -1      3665 1.13105E-04-4.77920E-05-2.78456E-05 1.35974E-05 8.49204E-19 1.11067E-18
 -1      3666 9.00296E-05-1.86571E-05-3.05780E-05-2.17095E-06 1.21797E-18-1.06272E-18
 -1      3667 8.73045E-05-1.63252E-05-3.03916E-05 1.33870E-06 6.78419E-19-1.86179E-18
 -1      3668 8.73259E-05-1.56200E-05-3.07445E-05 1.34480E-06 7.26366E-19-1.95339E-18
 -1      3669 8.77460E-05-1.60856E-05-3.07221E-05 1.51759E-06 5.48429E-19-1.96651E-18
 -1      3670 1.01356E-04-3.75121E-05-2.72747E-05-1.25187E-05 1.21859E-18 8.85993E-19
 -1      3671 9.85686E-05-3.49364E-05-2.72032E-05-1.25402E-05 1.48954E-18 3.28929E-19
 -1      3672 9.66849E-05-3.27382E-05-2.73671E-05-1.15465E-05 1.16532E-18-5.18775E-19
 -1      3673 9.50002E-05-3.08620E-05-2.74628E-05-1.10048E-05 7.90711E-19-9.11337E-19
 -1      3674 9.49040E-05-3.27247E-05-2.66972E-05-1.37921E-05 7.75359E-19 3.29284E-20
 -1      3675 9.40928E-05-2.94477E-05-2.76721E-05-9.93999E-06 9.00568E-19-4.21237E-19
 -1      3676 9.30982E-05-2.82123E-05-2.78012E-05-9.26974E-06 9.93839E-19-4.12666E-19
 -1      3677 9.22753E-05-2.90518E-05-2.71382E-05-1.13100E-05 8.40035E-19-1.12061E-19
 -1      3678 9.27534E-05-2.73728E-05-2.79958E-05-8.31620E-06 6.04431E-19-6.43162E-19
 -1      3679 9.22435E-05-2.66409E-05-2.81173E-05-7.65471E-06 6.61285E-19-7.61270E-20
 -1      3680 9.11342E-05-2.68202E-05-2.75844E-05-9.12508E-06 9.70567E-19 5.68692E-19
 -1      3681 9.22283E-05-2.62094E-05-2.82766E-05-6.84853E-06 4.62948E-19 1.70905E-19
 -1      3682 9.20277E-05-2.58359E-05-2.83739E-05-6.24539E-06 3.03033E-19 6.11525E-19
 -1      3683 9.08370E-05-2.56027E-05-2.79667E-05-7.29123E-06 6.25247E-19 5.14236E-19
 -1      3684 9.21924E-05-2.56794E-05-2.84937E-05-5.57871E-06-3.12451E-19 2.97173E-19
 -1      3685 9.21769E-05-2.55471E-05-2.85632E-05-5.04641E-06 1.82943E-19 1.02648E-19
 -1      3686 9.10220E-05-2.50756E-05-2.82654E-05-5.79579E-06 1.20602E-19 9.49477E-19
 -1      3687 9.24303E-05-2.55687E-05-2.86468E-05-4.49951E-06-5.12730E-19-5.85817E-19
 -1      3688 9.25167E-05-2.55899E-05-2.86907E-05-4.03943E-06-6.90217E-19-1.13928E-18
 -1      3689 9.14589E-05-2.49963E-05-2.84827E-05-4.58408E-06-7.77434E-19-7.34613E-19
 -1      3690 9.27996E-05-2.57163E-05-2.87442E-05-3.59388E-06-4.30010E-19-1.30775E-18
 -1      3691 9.29331E-05-2.58262E-05-2.87674E-05-3.20187E-06-3.18100E-19-1.23077E-18
 -1      3692 9.20048E-05-2.51943E-05-2.86298E-05-3.60660E-06-7.54619E-19-9.65496E-19
 -1      3693 9.32102E-05-2.60060E-05-2.87977E-05-2.83980E-06-4.58562E-19-1.95206E-18
 -1      3694 9.33574E-05-2.61604E-05-2.88052E-05-2.50978E-06-2.06303E-19-1.87822E-18
 -1      3695 9.25686E-05-2.55435E-05-2.87209E-05-2.81871E-06-6.98985E-19-1.25173E-18
 -1      3696 9.36102E-05-2.63598E-05-2.88185E-05-2.21714E-06 3.91406E-19-1.87600E-18
 -1      3697 9.37518E-05-2.65294E-05-2.88153E-05-1.94313E-06 7.79994E-19-2.34175E-18
 -1      3698 9.30991E-05-2.59598E-05-2.87697E-05-2.18368E-06 4.03484E-20-9.54168E-19
 -1      3699 9.39710E-05-2.67263E-05-2.88168E-05-1.70867E-06 1.26200E-18-1.75442E-18
 -1      3700 9.40969E-05-2.68921E-05-2.88068E-05-1.48437E-06 1.32325E-18-1.89880E-18
 -1      3701 9.35699E-05-2.63884E-05-2.87883E-05-1.67456E-06 9.06732E-19-5.92657E-19
 -1      3702 9.42796E-05-2.70731E-05-2.88010E-05-1.29795E-06 1.05553E-18-2.43306E-18
 -1      3703 9.43857E-05-2.72245E-05-2.87873E-05-1.11663E-06 4.51072E-19-1.45876E-18
 -1      3704 9.39699E-05-2.67937E-05-2.87866E-05-1.26911E-06 1.09711E-18-1.99373E-18
 -1      3705 9.45336E-05-2.73835E-05-2.87771E-05-9.69709E-07-7.14468E-19-1.34838E-18
 -1      3706 9.46196E-05-2.75157E-05-2.87620E-05-8.25311E-07-1.59968E-19-1.53326E-18
 -1      3707 9.42985E-05-2.71566E-05-2.87724E-05-9.47973E-07 1.09808E-19-1.51558E-18
 -1      3708 9.47360E-05-2.76505E-05-2.87498E-05-7.11035E-07 4.04244E-19-2.47381E-18
 -1      3709 9.48033E-05-2.77618E-05-2.87346E-05-5.97789E-07 2.45392E-19-2.64813E-18
 -1      3710 9.45611E-05-2.74698E-05-2.87513E-05-6.96337E-07-6.38290E-19-2.32858E-18
 -1      3711 9.48925E-05-2.78727E-05-2.87218E-05-5.10072E-07 3.29207E-20-2.33847E-18
 -1      3712 9.49436E-05-2.79638E-05-2.87076E-05-4.22620E-07-8.96886E-19-2.35258E-18
 -1      3713 9.47651E-05-2.77315E-05-2.87270E-05-5.01575E-07 1.80437E-19-2.27730E-18
 -1      3714 9.50101E-05-2.80527E-05-2.86953E-05-3.56203E-07-1.75620E-18-2.06682E-18
 -1      3715 9.50476E-05-2.81253E-05-2.86825E-05-2.89749E-07-1.56770E-18-2.22626E-18
 -1      3716 9.49195E-05-2.79443E-05-2.87024E-05-3.52682E-07-1.21686E-18-1.75410E-18
 -1      3717 9.50958E-05-2.81950E-05-2.86712E-05-2.40213E-07-3.62792E-19-1.65417E-18
 -1      3718 9.51223E-05-2.82516E-05-2.86600E-05-1.90578E-07 1.81852E-19-2.88548E-19
 -1      3719 9.50332E-05-2.81134E-05-2.86790E-05-2.40382E-07-2.63160E-19-1.43515E-19
 -1      3720 9.51562E-05-2.83050E-05-2.86500E-05-1.54267E-07 4.38575E-19 9.36864E-19
 -1      3721 9.51743E-05-2.83482E-05-2.86406E-05-1.17905E-07 1.36748E-18 1.63286E-18
 -1      3722 9.51144E-05-2.82448E-05-2.86578E-05-1.56970E-07 1.35028E-18 1.09920E-18
 -1      3723 9.51971E-05-2.83883E-05-2.86319E-05-9.18247E-08 1.16920E-18 1.80181E-18
 -1      3724 9.52087E-05-2.84207E-05-2.86240E-05-6.57731E-08 6.29280E-19 2.47654E-18
 -1      3725 9.51705E-05-2.83448E-05-2.86391E-05-9.61321E-08 1.22375E-18 7.28574E-19
 -1      3726 9.52233E-05-2.84502E-05-2.86167E-05-4.74964E-08-6.36215E-20 2.20981E-18
 -1      3727 9.52302E-05-2.84741E-05-2.86102E-05-2.93053E-08-1.25550E-19 2.04747E-18
 -1      3728 9.52075E-05-2.84196E-05-2.86231E-05-5.26623E-08 6.83092E-19 1.08534E-18
 -1      3729 9.52390E-05-2.84957E-05-2.86040E-05-1.69766E-08-1.43902E-18 2.58010E-18
 -1      3730 9.52428E-05-2.85132E-05-2.85986E-05-4.63900E-09-1.23511E-18 1.87085E-18
 -1      3731 9.52302E-05-2.84744E-05-2.86095E-05-2.24394E-08-1.82614E-19 1.55334E-18
 -1      3732 9.52478E-05-2.85334E-05-2.85919E-05 5.26010E-09-8.29234E-19 1.12883E-18
 -1      3733 9.30149E-05-2.48270E-05-2.92214E-05 7.06154E-06-3.89238E-19-8.58097E-19
 -1      3734 9.35125E-05-2.59338E-05-2.89455E-05 8.01910E-06-3.06925E-19-8.20255E-19
 -1      3735 9.20478E-05-2.54218E-05-2.85678E-05 8.74492E-06-2.36987E-20-5.16654E-19
 -1      3736 9.52471E-05-2.85253E-05-2.85951E-05-1.46971E-09 4.89825E-20 1.98598E-18
 -1      3737 9.52453E-05-2.85145E-05-2.85987E-05 4.13256E-09-5.79551E-19 1.71535E-18
 -1      3738 9.52459E-05-2.85216E-05-2.85963E-05 3.64458E-10-7.18543E-20 2.41084E-20
 -1      3739 1.07120E-04-4.64694E-05-2.60667E-05 2.02967E-05 1.36581E-18 1.35018E-18
 -1      3740 9.74461E-05-4.15581E-05-2.36143E-05 2.59803E-05 1.46027E-18 1.24349E-18
 -1      3741 8.39632E-05-2.00651E-05-2.74187E-05 4.81333E-06-1.98278E-18 1.10061E-18
 -1      3742 8.26564E-05-1.95625E-05-2.70526E-05 5.33302E-06-1.91605E-18 1.11503E-18
 -1      3743 7.66875E-05-1.80082E-05-2.52237E-05 7.04907E-06-1.36809E-18 2.18667E-18
 -1      3744 7.47037E-05-1.78135E-05-2.43940E-05 8.24323E-06-9.44022E-19 2.40947E-18
 -1      3745 8.84700E-05-2.23251E-05-2.83651E-05 3.51720E-06-1.63970E-18 1.21126E-18
 -1      3746 8.76175E-05-2.18019E-05-2.82162E-05 3.87359E-06-2.10570E-18 1.12141E-18
 -1      3747 9.00560E-05-2.33693E-05-2.85935E-05 2.97021E-06-3.15092E-19 1.08136E-18
 -1      3748 8.93776E-05-2.28803E-05-2.85059E-05 3.28950E-06-9.93981E-19 7.30762E-19
 -1      3749 8.83354E-05-2.22240E-05-2.83102E-05 2.56555E-06-1.22914E-18-9.31033E-20
 -1      3750 9.13096E-05-2.43094E-05-2.87249E-05 2.47044E-06 3.52844E-19 9.61098E-19
 -1      3751 9.07764E-05-2.38718E-05-2.86784E-05 2.75732E-06 5.41861E-19 1.60386E-18
 -1      3752 8.99381E-05-2.32959E-05-2.85437E-05 2.22249E-06-9.09758E-20 1.68557E-19
 -1      3753 9.22929E-05-2.51325E-05-2.87915E-05 2.01732E-06-1.34647E-19 9.60508E-19
 -1      3754 9.18780E-05-2.47508E-05-2.87721E-05 2.27219E-06 1.62183E-19 1.31283E-18
 -1      3755 9.12083E-05-2.42522E-05-2.86822E-05 1.88621E-06 1.97256E-19 1.12470E-18
 -1      3756 9.30570E-05-2.58367E-05-2.88155E-05 1.61654E-06-6.80654E-19 1.46718E-18
 -1      3757 9.27381E-05-2.55116E-05-2.88132E-05 1.83851E-06-2.79830E-19 1.18842E-18
 -1      3758 9.22088E-05-2.50874E-05-2.87560E-05 1.56157E-06-4.77706E-19 1.79216E-18
 -1      3759 9.36452E-05-2.64267E-05-2.88135E-05 1.26995E-06-6.85338E-19 1.61033E-18
 -1      3760 9.34027E-05-2.61557E-05-2.88211E-05 1.45902E-06-9.61597E-19 1.25108E-18
 -1      3761 9.29876E-05-2.57999E-05-2.87869E-05 1.26442E-06-1.08467E-18 2.02875E-18
 -1      3762 9.40938E-05-2.69125E-05-2.87965E-05 9.76927E-07-2.77431E-19 2.12198E-18
 -1      3763 9.39111E-05-2.66903E-05-2.88094E-05 1.13476E-06-5.53147E-19 2.43315E-18
 -1      3764 9.35902E-05-2.63975E-05-2.87913E-05 1.00183E-06-8.84775E-19 2.35630E-18
 -1      3765 9.44330E-05-2.73073E-05-2.87717E-05 7.35469E-07 3.43932E-19 2.09795E-18
 -1      3766 9.42968E-05-2.71275E-05-2.87869E-05 8.64103E-07-6.87945E-21 1.67138E-18
 -1      3767 9.40533E-05-2.68907E-05-2.87797E-05 7.73913E-07-1.21363E-19 2.56393E-18
 -1      3768 9.46852E-05-2.76229E-05-2.87438E-05 5.41297E-07 3.48522E-19 2.33765E-18
 -1      3769 9.45852E-05-2.74797E-05-2.87594E-05 6.44027E-07 5.71209E-19 2.47445E-18
 -1      3770 9.44041E-05-2.72920E-05-2.87592E-05 5.84780E-07 5.53978E-21 2.80022E-18
 -1      3771 9.48699E-05-2.78713E-05-2.87158E-05 3.88179E-07 1.59207E-19 2.10222E-18
 -1      3772 9.47977E-05-2.77589E-05-2.87306E-05 4.68663E-07 8.35849E-19 2.12090E-18
 -1      3773 9.46655E-05-2.76127E-05-2.87346E-05 4.31381E-07 9.38953E-19 2.35335E-18
 -1      3774 9.50027E-05-2.80638E-05-2.86897E-05 2.69783E-07-5.06092E-19 1.20150E-18
 -1      3775 9.49516E-05-2.79770E-05-2.87031E-05 3.31661E-07-5.66401E-19 1.67091E-18
 -1      3776 9.48571E-05-2.78650E-05-2.87093E-05 3.09633E-07-1.20903E-19 1.93030E-18
 -1      3777 9.50960E-05-2.82110E-05-2.86662E-05 1.80041E-07-1.58430E-18 2.92252E-19
 -1      3778 9.50607E-05-2.81448E-05-2.86779E-05 2.26707E-07-7.58377E-19 8.73567E-19
 -1      3779 9.49950E-05-2.80605E-05-2.86851E-05 2.15074E-07-3.22948E-19 1.88026E-18
 -1      3780 9.51597E-05-2.83216E-05-2.86458E-05 1.13414E-07-8.08124E-19 5.23957E-19
 -1      3781 9.51361E-05-2.82720E-05-2.86558E-05 1.47893E-07-1.51784E-18 5.51387E-19
 -1      3782 9.50918E-05-2.82097E-05-2.86630E-05 1.43181E-07-1.02200E-18 1.22151E-18
 -1      3783 9.52016E-05-2.84036E-05-2.86283E-05 6.51398E-08 1.14029E-19 1.04151E-18
 -1      3784 9.51865E-05-2.83669E-05-2.86367E-05 9.00098E-08-6.87199E-19 2.61056E-19
 -1      3785 9.51579E-05-2.83218E-05-2.86435E-05 8.97096E-08-8.46479E-19 8.42828E-20
 -1      3786 9.52276E-05-2.84632E-05-2.86137E-05 3.11903E-08-1.88397E-20 1.50172E-18
 -1      3787 9.52186E-05-2.84365E-05-2.86206E-05 4.84822E-08 5.96199E-19 1.94561E-18
 -1      3788 9.52011E-05-2.84047E-05-2.86267E-05 5.10990E-08-2.17853E-19 1.79540E-19
 -1      3789 9.52408E-05-2.85009E-05-2.86029E-05 1.07092E-08-6.20578E-19 2.14569E-18
 -1      3790 9.52356E-05-2.84811E-05-2.86088E-05 2.22324E-08-2.18682E-19 1.11006E-18
 -1      3791 9.52250E-05-2.84585E-05-2.86141E-05 2.59379E-08 1.67741E-19 2.15224E-18
 -1      3792 9.52382E-05-2.84940E-05-2.86047E-05 1.10022E-08-1.84648E-19 1.92699E-18
 -1      3793 6.36719E-05-1.46681E-05-2.10308E-05-2.02245E-06 7.78860E-19-2.18398E-18
 -1      3794 6.55063E-05-1.61744E-05-2.09646E-05-1.11714E-05 5.05953E-19-2.23053E-18
 -1      3795 8.76075E-05-2.03765E-05-2.88175E-05-7.23005E-06 1.05705E-18-9.49905E-19
 -1      3796 8.83181E-05-2.02456E-05-2.91945E-05-6.18386E-06 1.18481E-18-8.43601E-19
 -1      3797 7.57288E-05-2.52922E-05-2.15185E-05-2.24821E-05-5.20747E-19-2.08727E-18
 -1      3798 8.22804E-05-2.72351E-05-2.34584E-05-2.11238E-05-3.86194E-19-1.49575E-18
 -1      3799 8.00198E-05-2.38631E-05-2.40775E-05-1.83051E-05 2.01966E-19-1.23500E-18
 -1      3800 6.88729E-05-1.97540E-05-2.10967E-05-1.69573E-05 1.00188E-19-2.18479E-18
 -1      3801 9.13323E-05-3.66147E-05-2.32712E-05-2.41619E-05 1.10500E-18 2.21030E-18
 -1      3802 1.02218E-04-4.38027E-05-2.52952E-05-2.12773E-05 1.64720E-18 1.20999E-18
 -1      3803 7.48805E-05-2.41785E-05-2.17229E-05-1.98806E-05-1.34215E-19 3.26151E-18
 -1      3804 8.28556E-05-3.07235E-05-2.23389E-05-2.40418E-05 4.18845E-19 3.35812E-18
 -1      3805 8.96588E-05-3.32864E-05-2.40071E-05-2.07475E-05 5.10741E-19 2.11203E-18
 -1      3806 8.55345E-05-2.05001E-05-2.78624E-05-9.26496E-06 7.42639E-19-9.95062E-19
 -1      3807 8.63575E-05-2.03462E-05-2.83222E-05-8.15527E-06 9.03311E-19-1.03686E-18
 -1      3808 8.53838E-05-1.92233E-05-2.83139E-05-6.41145E-06 1.05705E-18-1.18997E-18
 -1      3809 8.91943E-05-2.01311E-05-2.96077E-05-5.29592E-06 1.15139E-18-8.20256E-19
 -1      3810 8.96788E-05-1.98429E-05-2.99455E-05-4.19059E-06 1.17424E-18-8.77024E-19
 -1      3811 8.74851E-05-1.91637E-05-2.92493E-05-4.75974E-06 1.18935E-18-9.36662E-19
 -1      3812 7.14065E-05-1.73002E-05-2.32941E-05 9.30311E-06-7.87903E-19 2.44704E-18
 -1      3813 6.77398E-05-1.70908E-05-2.16628E-05 1.10914E-05-8.31447E-19 2.64970E-18
 -1      3814 6.30730E-05-1.46649E-05-2.04313E-05 6.72662E-06-1.42484E-18 2.68998E-18
 -1      3815 7.03960E-05-1.56884E-05-2.32792E-05 5.26826E-06-9.95785E-19 2.61509E-18
 -1      3816 8.07848E-05-1.89713E-05-2.65430E-05 5.71921E-06-1.60342E-18 9.75444E-19
 -1      3817 7.91718E-05-1.85602E-05-2.59909E-05 6.46005E-06-1.52941E-18 1.55488E-18
 -1      3818 7.63408E-05-1.72590E-05-2.52140E-05 4.31146E-06-1.16974E-18 2.23425E-18
 -1      3819 1.05754E-04-4.28487E-05-2.68807E-05-1.48807E-05 1.53036E-18 8.18111E-19
 -1      3820 9.25150E-05-2.28540E-05-2.98537E-05 4.97151E-06-2.13175E-19-1.06288E-18
 -1      3821 9.28495E-05-2.38660E-05-2.95573E-05 5.99554E-06-3.16024E-19-1.05866E-18
 -1      3822 9.16092E-05-2.33286E-05-2.92667E-05 6.50872E-06-2.16615E-19-9.11089E-19
 -1      3823 8.64768E-05-2.12105E-05-2.79945E-05 4.11727E-06-2.35440E-18 1.37079E-18
 -1      3824 8.54156E-05-2.06753E-05-2.77570E-05 4.52851E-06-1.95728E-18 1.18062E-18
 -1      3825 8.63211E-05-2.10617E-05-2.79378E-05 2.90774E-06-1.92894E-18 8.61994E-19
 -1      3826 9.17159E-05-2.10176E-05-3.02998E-05 3.44177E-06-1.66429E-19-1.34925E-18
 -1      3827 9.22119E-05-2.20542E-05-3.00606E-05 4.28713E-06-1.52081E-19-1.17038E-18
 -1      3828 9.11464E-05-2.15543E-05-2.98246E-05 4.73131E-06-2.85680E-20-1.24953E-18
 -1      3829 9.05494E-05-1.99620E-05-3.02610E-05 3.38764E-06 1.77524E-20-1.36223E-18
 -1      3830 9.52443E-05-2.85196E-05-2.85963E-05-2.63334E-11-2.00195E-18-2.88365E-19
 -1      3831 6.90852E-05-1.64160E-05-2.26760E-05 5.93710E-06 1.31283E-18-1.15096E-18
 -1      3832 6.59247E-05-1.48666E-05-2.16773E-05 2.18067E-06 9.77489E-19-1.71758E-18
 -1      3833 6.91640E-05-1.55335E-05-2.29907E-05-2.96331E-06 9.22167E-19-1.99009E-18
 -1      3834 9.52433E-05-2.85165E-05-2.85973E-05 1.33956E-09-2.19804E-18-3.32812E-18
 -1      3835 9.52426E-05-2.85145E-05-2.85979E-05 2.88824E-10-1.38936E-18-3.14803E-18
 -1      3836 7.14690E-05-1.85813E-05-2.25399E-05-1.27160E-05 3.72201E-19-1.93773E-18
 -1      3837 1.01949E-04-3.96220E-05-2.66131E-05-1.53851E-05 1.33620E-18 1.29128E-18
 -1      3838 8.05279E-05-1.85423E-05-2.65061E-05 3.66451E-06-1.76557E-18 1.54600E-18
 -1      3839 9.24545E-05-3.67413E-05-2.36987E-05 2.38168E-05 1.56550E-18 6.64721E-19
 -1      3840 8.68198E-05-1.67721E-05-3.00335E-05 1.29228E-06 7.76351E-19-1.78875E-18
 -1      3841 8.71071E-05-1.71100E-05-3.00079E-05 1.82467E-06 5.40678E-19-1.74132E-18
 -1      3842 9.70937E-05-3.70692E-05-2.57829E-05-1.78390E-05 1.25293E-18 1.53434E-18
 -1      3843 8.37798E-05-1.98221E-05-2.73671E-05 3.24267E-06-2.45675E-18 1.41251E-18
 -1      3844 8.19116E-05-2.28785E-05-2.52095E-05-1.56463E-05 1.99450E-19-1.02370E-18
 -1      3845 8.22407E-05-2.17503E-05-2.59723E-05-1.38212E-05 2.73127E-19-1.01323E-18
 -1      3846 7.72104E-05-2.11368E-05-2.39515E-05-1.58472E-05 2.61859E-19-1.49035E-18
 -1      3847 9.52481E-05-2.85308E-05-2.85930E-05-1.91936E-09-3.21376E-19 6.77842E-19
 -1      3848 8.19334E-05-2.87740E-05-2.28561E-05 2.21876E-05 1.80114E-18-3.26531E-19
 -1      3849 7.74365E-05-2.50879E-05-2.22008E-05 2.03520E-05 1.90694E-18-6.01962E-19
 -1      3850 8.31050E-05-2.08989E-05-2.66217E-05-1.17471E-05 3.43378E-19-9.01205E-19
 -1      3851 8.39054E-05-2.04911E-05-2.72226E-05-1.04069E-05 5.54070E-19-9.62202E-19
 -1      3852 8.25052E-05-1.90671E-05-2.71440E-05-8.22739E-06 5.96651E-19-1.10176E-18
 -1      3853 9.52378E-05-2.84965E-05-2.86030E-05-1.08829E-09-1.12850E-18-4.04453E-18
 -1      3854 9.52420E-05-2.85129E-05-2.85983E-05 1.23572E-09-3.41987E-19-2.76592E-18
 -1      3855 9.52422E-05-2.85128E-05-2.85984E-05 8.26039E-10-6.26740E-19-2.72959E-18
 -1      3856 8.68975E-05-1.67907E-05-3.00569E-05-3.12121E-07 1.03220E-18-1.80416E-18
 -1      3857 8.66973E-05-1.66360E-05-3.00372E-05 3.83185E-07 9.36797E-19-1.89053E-18
 -1      3858 8.64834E-05-1.72469E-05-2.96461E-05 8.09270E-07 7.21152E-19-1.68566E-18
 -1      3859 9.52433E-05-2.85154E-05-2.85978E-05-1.43830E-09-1.99226E-18-1.59325E-18
 -1      3860 7.13043E-05-2.07058E-05-2.15955E-05-1.65876E-05-3.47714E-19 2.37352E-18
 -1      3861 7.77057E-05-2.38953E-05-2.29783E-05-1.71271E-05-3.30847E-19 2.88466E-18
 -1      3862 1.06383E-04-4.34752E-05-2.69876E-05 1.59367E-05 7.13374E-19 7.17722E-19
 -1      3863 7.48569E-05-2.17344E-05-2.27181E-05 1.54441E-05 1.70200E-18-7.98507E-19
 -1      3864 5.97027E-05-1.38367E-05-1.96571E-05 2.52956E-06-1.42508E-18 2.20591E-18
 -1      3865 5.78317E-05-1.31745E-05-1.88548E-05-4.01275E-06-1.28860E-18 2.92470E-18
 -1      3866 6.31090E-05-1.52208E-05-2.04151E-05-7.18128E-06-7.06670E-19 2.64207E-18
 -1      3867 6.42552E-05-1.45570E-05-2.14025E-05 1.74956E-06-8.95347E-19 2.08922E-18
 -1      3868 6.87732E-05-1.85265E-05-2.15230E-05-1.33684E-05-6.40427E-19 2.16844E-18
 -1      3869 8.82928E-05-1.65835E-05-3.07459E-05 1.77956E-06 3.88849E-19-1.98617E-18
 -1      3870 8.90243E-05-1.73370E-05-3.07334E-05 1.88614E-06 2.37412E-19-1.84540E-18
 -1      3871 8.94821E-05-1.83908E-05-3.04506E-05 2.59436E-06 1.76427E-19-1.67757E-18
 -1      3872 8.81473E-05-1.71818E-05-3.03914E-05 2.13672E-06 3.49160E-19-1.79174E-18
 -1      3873 9.52381E-05-2.84969E-05-2.86031E-05-6.42189E-09-1.67758E-18-2.06526E-18
 -1      3874 7.34558E-05-1.81174E-05-2.37720E-05-1.07164E-05 5.09629E-19-1.71349E-18
 -1      3875 8.39838E-05-2.00562E-05-2.74234E-05 1.64638E-06-2.32284E-18 6.34268E-19
 -1      3876 8.25517E-05-1.94405E-05-2.70720E-05 1.69209E-06-1.94221E-18 7.59427E-19
 -1      3877 9.12304E-05-2.43588E-05-2.86651E-05 1.25115E-06-3.78137E-20 8.59402E-19
 -1      3878 9.06470E-05-2.39110E-05-2.86121E-05 1.38028E-06 1.27070E-19 8.64084E-19
 -1      3879 8.99773E-05-2.34282E-05-2.85315E-05 1.43631E-06 1.09409E-19 6.50129E-19
 -1      3880 8.92480E-05-2.29240E-05-2.84394E-05 1.55258E-06-4.80017E-19 6.41366E-19
 -1      3881 9.01084E-05-2.35086E-05-2.85167E-05 7.85522E-07-1.13131E-19 1.24799E-18
 -1      3882 9.11774E-05-2.85941E-05-2.68513E-05 1.35159E-05 5.98492E-19-3.20073E-19
 -1      3883 9.26741E-05-3.07620E-05-2.65270E-05 1.50143E-05 5.56176E-19-2.66580E-19
 -1      3884 8.98149E-05-3.05177E-05-2.53591E-05 1.74735E-05 9.34330E-19-2.00119E-19
 -1      3885 9.21863E-05-3.35298E-05-2.50584E-05 1.92468E-05 1.08186E-18 1.13833E-19
 -1      3886 9.22682E-05-3.16105E-05-2.59662E-05-1.53574E-05 8.19870E-19 7.59952E-19
 -1      3887 9.04867E-05-2.93951E-05-2.61876E-05-1.38182E-05 8.34112E-19 8.07788E-19
 -1      3888 1.01924E-04-4.14022E-05-2.60087E-05 1.92857E-05 7.91462E-19 7.43404E-19
 -1      3889 9.00169E-05-3.18731E-05-2.49343E-05-1.79199E-05 3.80238E-19 1.33671E-18
 -1      3890 8.08289E-05-1.87777E-05-2.66256E-05 1.46521E-06-2.02327E-18 1.10086E-18
 -1      3891 7.89408E-05-1.81391E-05-2.60980E-05 1.54838E-06-1.61832E-18 1.26904E-18
 -1      3892 8.15834E-05-1.90789E-05-2.67214E-05-3.23210E-07-1.57061E-18 6.88341E-19
 -1      3893 9.01246E-05-2.79892E-05-2.65914E-05-1.20995E-05 8.69458E-19 1.09430E-18
 -1      3894 8.92736E-05-2.66504E-05-2.68478E-05-1.08476E-05 1.03248E-18 1.06392E-18
 -1      3895 8.72417E-05-2.69411E-05-2.58736E-05-1.34064E-05 9.63581E-19 1.57017E-18
 -1      3896 8.93769E-05-2.58647E-05-2.71871E-05-9.44481E-06 7.02996E-19 1.07951E-18
 -1      3897 8.90566E-05-2.51228E-05-2.74137E-05-8.41778E-06 6.44382E-19 9.54853E-19
 -1      3898 8.70602E-05-2.48620E-05-2.66719E-05-1.00848E-05 7.23550E-19 1.33348E-18
 -1      3899 8.94017E-05-2.47662E-05-2.76801E-05-7.34538E-06 2.32453E-19 5.65079E-19
 -1      3900 8.94065E-05-2.44307E-05-2.78613E-05-6.51823E-06 4.93017E-19 7.41794E-19
 -1      3901 8.75981E-05-2.38790E-05-2.73117E-05-7.58136E-06 4.00973E-19 9.98734E-19
 -1      3902 8.98578E-05-2.43524E-05-2.80612E-05-5.71157E-06-2.23956E-19-5.41828E-20
 -1      3903 9.00336E-05-2.42735E-05-2.81969E-05-5.04890E-06-3.49607E-19-3.87426E-19
 -1      3904 8.84457E-05-2.35792E-05-2.77988E-05-5.71394E-06-3.95054E-19-5.19378E-19
 -1      3905 9.05196E-05-2.43747E-05-2.83399E-05-4.43192E-06-7.84277E-19-7.73487E-19
 -1      3906 9.07804E-05-2.44610E-05-2.84347E-05-3.90379E-06-1.45714E-18-1.30359E-18
 -1      3907 8.94050E-05-2.36960E-05-2.81557E-05-4.31501E-06-8.01294E-19-1.12070E-18
 -1      3908 9.12514E-05-2.46652E-05-2.85321E-05-3.43346E-06-9.36610E-19-1.11514E-18
 -1      3909 9.15398E-05-2.48443E-05-2.85940E-05-3.01220E-06-7.46897E-19-1.22448E-18
 -1      3910 9.03720E-05-2.40798E-05-2.84048E-05-3.26305E-06-1.14079E-18-8.67655E-19
 -1      3911 9.19693E-05-2.50969E-05-2.86566E-05-2.65240E-06-8.77089E-19-6.27672E-19
 -1      3912 9.22501E-05-2.53189E-05-2.86930E-05-2.31476E-06-1.51233E-19-5.57208E-19
 -1      3913 9.12775E-05-2.45966E-05-2.85707E-05-2.47190E-06-5.91119E-19-4.18270E-19
 -1      3914 9.26270E-05-2.55867E-05-2.87296E-05-2.03668E-06-1.54529E-20-6.20442E-19
 -1      3915 9.28825E-05-2.58211E-05-2.87473E-05-1.76700E-06 4.20191E-19-1.56918E-19
 -1      3916 9.20845E-05-2.51644E-05-2.86740E-05-1.86641E-06 1.49284E-19-4.76480E-20
 -1      3917 9.32018E-05-2.60801E-05-2.87653E-05-1.55211E-06 7.29901E-19-8.20067E-19
 -1      3918 9.34233E-05-2.63064E-05-2.87700E-05-1.33705E-06 7.06766E-19-1.20841E-18
 -1      3919 9.27787E-05-2.57272E-05-2.87314E-05-1.40395E-06 4.62489E-19-6.51695E-19
 -1      3920 9.36871E-05-2.65428E-05-2.87755E-05-1.17222E-06 1.01328E-18-1.19019E-18
 -1      3921 9.38710E-05-2.67474E-05-2.87719E-05-1.00120E-06 1.15070E-18-2.12039E-18
 -1      3922 9.33598E-05-2.62510E-05-2.87568E-05-1.04871E-06 8.03556E-19-1.01436E-18
 -1      3923 9.40848E-05-2.69554E-05-2.87694E-05-8.73662E-07 2.16567E-19-1.80178E-18
 -1      3924 9.42337E-05-2.71341E-05-2.87607E-05-7.39058E-07-7.38081E-19-1.88505E-18
 -1      3925 9.38342E-05-2.67168E-05-2.87612E-05-7.75938E-07 4.95805E-19-1.60993E-18
 -1      3926 9.44025E-05-2.73110E-05-2.87532E-05-6.41900E-07-1.37863E-18-1.38358E-18
 -1      3927 9.45197E-05-2.74619E-05-2.87420E-05-5.37092E-07-5.73746E-19-1.82826E-18
 -1      3928 9.42143E-05-2.71199E-05-2.87520E-05-5.66816E-07-8.62504E-19-1.44850E-18
 -1      3929 9.46497E-05-2.76082E-05-2.87319E-05-4.63576E-07 2.77831E-19-2.49740E-18
 -1      3930 9.47395E-05-2.77321E-05-2.87198E-05-3.82846E-07-1.89548E-20-2.33693E-18
 -1      3931 9.45108E-05-2.74576E-05-2.87349E-05-4.08360E-07-8.19264E-19-1.99719E-18
 -1      3932 9.48375E-05-2.78501E-05-2.87087E-05-3.27640E-07-4.55973E-19-2.27895E-18
 -1      3933 9.49044E-05-2.79494E-05-2.86968E-05-2.66209E-07-8.05614E-19-1.80866E-18
 -1      3934 9.47366E-05-2.77332E-05-2.87141E-05-2.88761E-07-9.35937E-20-3.55819E-18
 -1      3935 9.49764E-05-2.80425E-05-2.86858E-05-2.25198E-07-4.55912E-19-3.75199E-19
 -1      3936 9.50250E-05-2.81204E-05-2.86747E-05-1.79092E-07 7.29586E-19-2.99620E-21
 -1      3937 9.49049E-05-2.79533E-05-2.86923E-05-1.99209E-07 4.22737E-19-1.50729E-18
 -1      3938 9.50765E-05-2.81924E-05-2.86645E-05-1.49015E-07 8.47821E-19-2.69761E-19
 -1      3939 9.51106E-05-2.82523E-05-2.86545E-05-1.14953E-07 1.17217E-18-2.47530E-19
 -1      3940 9.50271E-05-2.81255E-05-2.86712E-05-1.32869E-07 6.30476E-19 9.96685E-20
 -1      3941 9.51462E-05-2.83069E-05-2.86453E-05-9.32542E-08 1.10627E-18-3.05706E-19
 -1      3942 9.51693E-05-2.83520E-05-2.86366E-05-6.85802E-08 8.88357E-19-9.48786E-19
 -1      3943 9.51132E-05-2.82576E-05-2.86518E-05-8.43216E-08 1.00515E-18-7.02954E-19
 -1      3944 9.51928E-05-2.83924E-05-2.86286E-05-5.33415E-08 1.11334E-18-2.52903E-19
 -1      3945 9.52074E-05-2.84259E-05-2.86212E-05-3.56619E-08 1.01819E-18-4.41297E-19
 -1      3946 9.51719E-05-2.83571E-05-2.86345E-05-4.97265E-08 1.24959E-18-1.79067E-18
 -1      3947 9.52209E-05-2.84522E-05-2.86149E-05-2.47979E-08-3.44835E-20-7.07305E-19
 -1      3948 9.52298E-05-2.84772E-05-2.86086E-05-1.29127E-08-8.73815E-19-9.25137E-19
 -1      3949 9.52298E-05-2.84777E-05-2.86081E-05-7.67452E-09-1.77732E-18-4.70120E-18
 -1      3950 9.52080E-05-2.84274E-05-2.86201E-05-2.41502E-08 6.56913E-19-2.42981E-18
 -1      3951 9.52451E-05-2.85192E-05-2.85968E-05 1.74112E-10-9.12108E-20 9.45030E-19
 -1      3952 9.52416E-05-2.85057E-05-2.86009E-05 4.04749E-09-3.06969E-19 6.88242E-19
 -1      3953 9.52369E-05-2.84916E-05-2.86053E-05 1.03599E-08-6.25129E-20 1.31915E-18
 -1      3954 9.52441E-05-2.85171E-05-2.85975E-05 1.43060E-09-1.80313E-19 2.32192E-19
 -1      3955 7.87436E-05-2.30751E-05-2.40156E-05 1.53349E-05 1.60168E-18-5.82037E-19
 -1      3956 7.35550E-05-1.89106E-05-2.32046E-05 1.16696E-05 1.43507E-18-7.69794E-19
 -1      3957 9.03483E-05-2.57129E-05-2.77192E-05 1.04651E-05 4.00867E-19-5.23732E-19
 -1      3958 9.10534E-05-2.71322E-05-2.73501E-05 1.17421E-05 5.31922E-19-4.43698E-19
 -1      3959 8.83471E-05-2.60256E-05-2.66607E-05 1.28796E-05 6.54418E-19-1.04800E-18
 -1      3960 7.66329E-05-1.74062E-05-2.54349E-05 1.24332E-06-1.04358E-18 1.84836E-18
 -1      3961 7.39594E-05-1.66938E-05-2.46234E-05 1.51496E-06-8.01096E-19 2.15152E-18
 -1      3962 7.76523E-05-1.77412E-05-2.56171E-05-1.19087E-06-8.65246E-19 2.04608E-18
 -1      3963 8.84155E-05-2.23900E-05-2.83099E-05 1.57305E-06-9.03522E-19 3.36836E-19
 -1      3964 8.74943E-05-2.18365E-05-2.81599E-05 1.66833E-06-7.49052E-19 5.25584E-19
 -1      3965 8.86285E-05-2.24922E-05-2.83022E-05 7.33481E-07-7.11786E-19 8.73283E-19
 -1      3966 9.22098E-05-2.51720E-05-2.87368E-05 1.06948E-06-1.15362E-18 2.69341E-18
 -1      3967 9.17632E-05-2.47863E-05-2.87106E-05 1.19830E-06-4.13804E-19 1.79692E-18
 -1      3968 9.13436E-05-2.44549E-05-2.86505E-05 7.45690E-07-6.58722E-19 1.20673E-18
 -1      3969 9.29782E-05-2.58653E-05-2.87692E-05 8.84306E-07-7.88871E-19 2.11209E-18
 -1      3970 9.26397E-05-2.55383E-05-2.87602E-05 1.00374E-06-7.47228E-19 2.42908E-18
 -1      3971 9.22871E-05-2.52409E-05-2.87218E-05 6.56278E-07-6.14049E-19 2.74429E-18
 -1      3972 9.35814E-05-2.64488E-05-2.87761E-05 7.01111E-07-4.64428E-19 1.35462E-18
 -1      3973 9.33153E-05-2.61747E-05-2.87776E-05 8.08197E-07-8.39914E-19 1.59755E-18
 -1      3974 9.30168E-05-2.58970E-05-2.87542E-05 5.53167E-07-5.12655E-19 2.12221E-18
 -1      3975 9.40474E-05-2.69343E-05-2.87668E-05 5.45014E-07-2.20988E-20 5.41064E-19
 -1      3976 9.38436E-05-2.67082E-05-2.87746E-05 6.36603E-07-2.18496E-19 6.13310E-19
 -1      3977 9.36179E-05-2.64769E-05-2.87630E-05 4.55905E-07-1.86892E-19 3.09988E-19
 -1      3978 9.43999E-05-2.73277E-05-2.87484E-05 4.13237E-07-4.10954E-19 1.57570E-18
 -1      3979 9.42473E-05-2.71450E-05-2.87596E-05 4.89574E-07-5.16953E-19 1.35242E-18
 -1      3980 9.40741E-05-2.69558E-05-2.87556E-05 3.62644E-07-8.78425E-19-2.39082E-20
 -1      3981 9.46630E-05-2.76416E-05-2.87259E-05 3.04862E-07 5.75734E-19 2.35448E-18
 -1      3982 9.45504E-05-2.74965E-05-2.87383E-05 3.66993E-07 2.53923E-19 2.03487E-18
 -1      3983 9.44197E-05-2.73448E-05-2.87393E-05 2.78915E-07-4.41235E-19 1.09188E-18
 -1      3984 9.48563E-05-2.78885E-05-2.87024E-05 2.18182E-07 2.83149E-19 1.52884E-18
 -1      3985 9.47746E-05-2.77749E-05-2.87147E-05 2.67573E-07 7.78839E-19 2.40799E-18
 -1      3986 9.46780E-05-2.76557E-05-2.87186E-05 2.07762E-07 7.37272E-19 3.13622E-18
 -1      3987 9.49953E-05-2.80794E-05-2.86796E-05 1.50608E-07-8.68043E-19 2.16600E-18
 -1      3988 9.49373E-05-2.79919E-05-2.86912E-05 1.88996E-07-3.64563E-19 1.69216E-18
 -1      3989 9.48676E-05-2.79001E-05-2.86966E-05 1.49687E-07-1.39938E-19 2.21940E-18
 -1      3990 9.50929E-05-2.82248E-05-2.86588E-05 9.91823E-08-1.09010E-18 1.32211E-18
 -1      3991 9.50528E-05-2.81585E-05-2.86691E-05 1.28379E-07-9.00424E-19 1.61988E-18
 -1      3992 9.50039E-05-2.80891E-05-2.86751E-05 1.03816E-07-5.23276E-19 1.58344E-18
 -1      3993 9.51593E-05-2.83338E-05-2.86402E-05 6.09233E-08-4.80662E-19-1.35391E-20
 -1      3994 9.51324E-05-2.82842E-05-2.86493E-05 8.26483E-08-4.72407E-19 7.66605E-19
 -1      3995 9.50992E-05-2.82328E-05-2.86552E-05 6.86453E-08-3.03813E-19 6.73156E-19
 -1      3996 9.52028E-05-2.84139E-05-2.86241E-05 3.33972E-08 3.82429E-19-2.31445E-19
 -1      3997 9.51855E-05-2.83778E-05-2.86319E-05 4.88529E-08-1.94429E-19-5.03839E-19
 -1      3998 9.51634E-05-2.83405E-05-2.86374E-05 4.25138E-08-2.65101E-19-6.19347E-19
 -1      3999 8.86483E-05-1.83717E-05-3.01007E-05-2.77334E-06 1.15726E-18-1.14890E-18
 -1      4000 8.99849E-05-1.91485E-05-3.03638E-05-2.96242E-06 1.14200E-18-1.00931E-18
 -1      4001 9.01585E-05-2.35873E-05-2.85446E-05 7.87323E-06 4.97148E-20-7.40795E-19
 -1      4002 9.04714E-05-2.46555E-05-2.81786E-05 9.03196E-06 1.82215E-19-5.38890E-19
 -1      4003 8.83654E-05-2.37450E-05-2.76759E-05 9.60092E-06 2.68499E-19-9.13444E-19
 -1      4004 6.71192E-05-1.65644E-05-2.15564E-05-9.95614E-06-3.31821E-19 2.73253E-18
 -1      4005 7.20698E-05-1.85887E-05-2.28513E-05-1.06995E-05-1.25907E-19 2.61083E-18
 -1      4006 6.63492E-05-1.51949E-05-2.18119E-05-5.13058E-06-3.61253E-19 2.59935E-18
 -1      4007 9.19807E-05-2.10199E-05-3.04095E-05-4.01278E-06 1.34541E-18-7.24676E-19
 -1      4008 9.12100E-05-2.02109E-05-3.04200E-05-3.56437E-06 1.26317E-18-8.06526E-19
 -1      4009 8.50714E-05-2.81516E-05-2.43938E-05-1.75301E-05 4.64133E-19 2.19723E-18
 -1      4010 8.60363E-05-1.86020E-05-2.89213E-05-3.89248E-06 1.18302E-18-1.20078E-18
 -1      4011 8.69358E-05-1.84817E-05-2.93580E-05-3.14801E-06 1.05826E-18-1.26228E-18
 -1      4012 9.02028E-05-2.18007E-05-2.93258E-05 5.63473E-06 1.24864E-19-1.29669E-18
 -1      4013 9.03548E-05-2.27348E-05-2.89669E-05 6.69907E-06 1.13587E-19-9.53474E-19
 -1      4014 8.87409E-05-2.19994E-05-2.85963E-05 6.97702E-06 1.92177E-19-1.09118E-18
 -1      4015 8.64501E-05-2.12504E-05-2.79592E-05 1.64109E-06-1.08804E-18 7.80509E-20
 -1      4016 8.52929E-05-2.06601E-05-2.77258E-05 1.71176E-06-2.17636E-18 1.59006E-19
 -1      4017 8.67684E-05-2.13868E-05-2.79670E-05 5.59309E-07-1.29009E-18-6.46562E-19
 -1      4018 8.56154E-05-2.70970E-05-2.49880E-05 1.67383E-05 1.19295E-18-7.99745E-19
 -1      4019 8.71679E-05-1.78680E-05-2.96736E-05 2.44709E-06 4.54097E-19-1.58940E-18
 -1      4020 8.76114E-05-1.75667E-05-3.00352E-05 2.42536E-06 4.42968E-19-1.64512E-18
 -1      4021 8.81970E-05-1.80549E-05-3.00639E-05 2.75127E-06 2.88096E-19-1.69233E-18
 -1      4022 8.35084E-05-1.85008E-05-2.78768E-05-5.05465E-06 9.26170E-19-1.09017E-18
 -1      4023 8.47831E-05-1.85760E-05-2.84027E-05-4.34153E-06 1.16422E-18-1.12329E-18
 -1      4024 8.45838E-05-1.79336E-05-2.85236E-05-2.63899E-06 1.09081E-18-1.11293E-18
 -1      4025 7.77183E-05-2.17532E-05-2.39926E-05-1.30199E-05 2.35750E-19 1.50941E-18
 -1      4026 8.13120E-05-2.49997E-05-2.41470E-05-1.59377E-05 4.11047E-19 2.21177E-18
 -1      4027 8.44847E-05-2.55242E-05-2.52258E-05-1.38565E-05 1.05621E-18 1.39399E-18
 -1      4028 8.43877E-05-2.01900E-05-2.74587E-05 2.07647E-07-1.66103E-18-7.91768E-19
 -1      4029 7.27284E-05-1.67291E-05-2.39239E-05-4.40337E-06-6.25127E-19 2.73199E-18
 -1      4030 7.10020E-05-1.61645E-05-2.35275E-05-1.05879E-06-6.86507E-19 2.33045E-18
 -1      4031 9.37419E-05-3.64327E-05-2.44584E-05 2.19317E-05 1.29527E-18 5.08124E-19
 -1      4032 7.34873E-05-1.77767E-05-2.38762E-05 6.64341E-06 1.14686E-18-9.58712E-19
 -1      4033 9.52191E-05-2.84509E-05-2.86145E-05-8.36905E-09-5.77880E-19-4.91862E-18
 -1      4034 9.52278E-05-2.84747E-05-2.86088E-05-2.80839E-09-2.08034E-18-4.97050E-18
 -1      4035 9.52275E-05-2.84733E-05-2.86091E-05-5.45583E-10-8.98392E-19-4.17620E-18
 -1      4036 7.98511E-05-1.96195E-05-2.57719E-05-1.13268E-05 4.51001E-19-1.17809E-18
 -1      4037 7.40137E-05-1.82178E-05-2.39585E-05-7.84400E-06 2.23019E-19 2.53696E-18
 -1      4038 7.58675E-05-2.00302E-05-2.39340E-05-1.11198E-05 1.39564E-19 1.84839E-18
 -1      4039 7.96839E-05-2.12461E-05-2.49960E-05-1.02507E-05 9.29180E-19 1.44996E-18
 -1      4040 8.00794E-05-1.81400E-05-2.65400E-05-6.32486E-06 3.98313E-19-1.25082E-18
 -1      4041 8.17029E-05-1.82947E-05-2.72220E-05-5.55624E-06 6.78907E-19-1.14024E-18
 -1      4042 8.15391E-05-1.75879E-05-2.73373E-05-3.26859E-06 8.85286E-19-9.22231E-19
 -1      4043 9.52153E-05-2.84381E-05-2.86187E-05 2.71244E-08-4.86275E-19-6.14566E-19
 -1      4044 9.52024E-05-2.84129E-05-2.86235E-05 2.47694E-08-3.62289E-19-2.13828E-18
 -1      4045 9.52238E-05-2.84588E-05-2.86136E-05 1.79707E-08-9.74220E-19 5.33742E-19
 -1      4046 8.76221E-05-1.81955E-05-2.97593E-05-2.60077E-06 1.02995E-18-1.34679E-18
 -1      4047 8.79426E-05-1.75194E-05-3.02000E-05-1.53945E-06 1.09878E-18-1.51301E-18
 -1      4048 8.72586E-05-1.69093E-05-3.01595E-05-8.72030E-07 1.05471E-18-1.68624E-18
 -1      4049 8.67292E-05-1.72617E-05-2.97577E-05-8.05884E-07 9.59996E-19-1.69114E-18
 -1      4050 8.28876E-05-2.40690E-05-2.52780E-05 1.37366E-05 1.12559E-18-9.00442E-19
 -1      4051 8.89188E-05-1.86161E-05-3.01430E-05 3.08366E-06 2.14499E-19-1.55276E-18
 -1      4052 8.97189E-05-1.93109E-05-3.01792E-05 3.25364E-06 3.76737E-20-1.54055E-18
 -1      4053 8.99967E-05-2.01042E-05-2.99512E-05 3.90210E-06 5.77027E-20-1.51845E-18
 -1      4054 8.83700E-05-1.88644E-05-2.97833E-05 3.42862E-06 2.95002E-19-1.47248E-18
 -1      4055 8.56629E-05-1.74498E-05-2.92325E-05 4.83118E-07 7.09030E-19-1.67422E-18
 -1      4056 8.58454E-05-1.76548E-05-2.92324E-05 1.51191E-06 5.73018E-19-1.56914E-18
 -1      4057 9.52388E-05-2.84992E-05-2.86025E-05 2.31817E-09-8.07574E-19-9.23973E-19
 -1      4058 8.64863E-05-1.76963E-05-2.94575E-05-1.81864E-06 1.01560E-18-1.47078E-18
 -1      4059 8.62570E-05-1.80470E-05-2.92562E-05 2.54241E-06 5.29543E-19-1.54081E-18
 -1      4060 8.68397E-05-1.84979E-05-2.92857E-05 3.22350E-06 3.77161E-19-1.49480E-18
 -1      4061 8.55344E-05-1.81887E-05-2.88396E-05 2.26712E-06 5.73583E-19-1.41481E-18
 -1      4062 9.23999E-05-2.54066E-05-2.87196E-05 2.34953E-07-9.92676E-19 1.39611E-18
 -1      4063 9.19847E-05-2.50454E-05-2.86952E-05 2.76224E-07-5.11166E-19 1.13832E-18
 -1      4064 7.64670E-05-1.82510E-05-2.49075E-05-5.01945E-06-4.81340E-19 1.99836E-18
 -1      4065 9.15053E-05-2.46566E-05-2.86555E-05 2.38742E-07-6.99335E-19 1.21204E-18
 -1      4066 9.09464E-05-2.42315E-05-2.86023E-05 2.57649E-07-5.29903E-19 7.71283E-19
 -1      4067 9.17282E-05-2.48335E-05-2.86607E-05-1.85984E-07-8.75487E-19-1.99708E-19
 -1      4068 9.52287E-05-2.84730E-05-2.86095E-05 1.05740E-08-9.37707E-19-4.05896E-19
 -1      4069 7.23947E-05-1.64096E-05-2.38680E-05-6.63053E-06 7.02311E-19-2.03339E-18
 -1      4070 7.70475E-05-1.85144E-05-2.50668E-05-9.77666E-06 5.56574E-19-1.50367E-18
 -1      4071 8.25372E-05-1.97900E-05-2.69317E-05-1.87328E-06-1.12452E-18 1.33110E-20
 -1      4072 8.09235E-05-1.92362E-05-2.64876E-05-2.23292E-06-8.00871E-19 4.41517E-19
 -1      4073 8.41509E-05-2.42644E-05-2.56885E-05-1.18980E-05 1.11879E-18 1.62934E-18
 -1      4074 8.50329E-05-2.37537E-05-2.62261E-05-1.01172E-05 7.66061E-19 1.48350E-18
 -1      4075 8.51756E-05-2.31671E-05-2.66035E-05-8.68413E-06 6.77122E-19 1.28451E-18
 -1      4076 8.23164E-05-2.25394E-05-2.56275E-05-1.04213E-05 1.05979E-18 1.43357E-18
 -1      4077 8.60581E-05-2.29891E-05-2.70032E-05-7.43274E-06 5.05675E-19 1.57968E-18
 -1      4078 8.64186E-05-2.27833E-05-2.72933E-05-6.37506E-06 4.44137E-19 1.25325E-18
 -1      4079 8.40842E-05-2.20276E-05-2.65973E-05-7.41902E-06 6.04457E-19 1.08110E-18
 -1      4080 8.72488E-05-2.28591E-05-2.75854E-05-5.46988E-06-3.14141E-19 9.02844E-20
 -1      4081 8.76878E-05-2.28846E-05-2.78019E-05-4.71074E-06-1.04585E-18-1.12493E-19
 -1      4082 8.57815E-05-2.20686E-05-2.73079E-05-5.33168E-06-2.37278E-19 5.65035E-19
 -1      4083 8.84858E-05-2.31038E-05-2.80108E-05-4.02401E-06-8.08079E-19-1.73927E-19
 -1      4084 8.89532E-05-2.32935E-05-2.81635E-05-3.47434E-06-9.55631E-19-4.02719E-19
 -1      4085 8.73430E-05-2.23581E-05-2.78049E-05-3.81594E-06-1.00092E-18 3.04231E-19
 -1      4086 8.96466E-05-2.35825E-05-2.83076E-05-2.98321E-06-1.26707E-18-9.99848E-19
 -1      4087 9.01051E-05-2.38524E-05-2.84114E-05-2.57159E-06-9.01370E-19-8.96509E-19
 -1      4088 8.87813E-05-2.29643E-05-2.81669E-05-2.74950E-06-1.59881E-18-1.14937E-18
 -1      4089 9.07044E-05-2.41852E-05-2.85069E-05-2.20602E-06-5.16229E-19-7.72302E-19
 -1      4090 9.11379E-05-2.44896E-05-2.85740E-05-1.90055E-06-1.45780E-19-5.50976E-19
 -1      4091 9.00215E-05-2.36555E-05-2.84130E-05-1.98145E-06-9.34097E-19-1.15442E-18
 -1      4092 9.16324E-05-2.48152E-05-2.86341E-05-1.64634E-06-2.66061E-19-1.69067E-19
 -1      4093 9.20131E-05-2.51242E-05-2.86738E-05-1.40537E-06 5.15949E-20-3.32918E-19
 -1      4094 9.11274E-05-2.44172E-05-2.85783E-05-1.39490E-06-1.18024E-19-9.11958E-19
 -1      4095 9.24286E-05-2.54384E-05-2.87084E-05-1.22519E-06 2.41471E-19-1.33143E-18
 -1      4096 9.27469E-05-2.57259E-05-2.87287E-05-1.03720E-06 3.10684E-20-1.56317E-18
 -1      4097 9.20322E-05-2.51106E-05-2.86742E-05-1.01113E-06-4.75223E-19-9.48932E-19
 -1      4098 9.30895E-05-2.60167E-05-2.87455E-05-9.05257E-07 6.70399E-19-1.56318E-18
 -1      4099 9.33483E-05-2.62731E-05-2.87528E-05-7.64746E-07 1.17451E-18-1.35966E-18
 -1      4100 9.27820E-05-2.57479E-05-2.87267E-05-7.42126E-07 1.68801E-19-1.46619E-18
 -1      4101 9.36281E-05-2.65266E-05-2.87579E-05-6.59642E-07 1.15058E-18-1.52926E-18
 -1      4102 9.38395E-05-2.67526E-05-2.87563E-05-5.53115E-07 3.98148E-20-1.46366E-18
 -1      4103 9.33841E-05-2.62805E-05-2.87478E-05-5.21936E-07 8.10633E-19-2.24554E-18
 -1      4104 9.40593E-05-2.69687E-05-2.87535E-05-4.79016E-07-3.81990E-19-1.27527E-18
 -1      4105 9.42266E-05-2.71598E-05-2.87466E-05-3.98097E-07-3.38578E-19-1.40125E-18
 -1      4106 9.38784E-05-2.67709E-05-2.87506E-05-3.73024E-07-7.41278E-21-1.44151E-18
 -1      4107 9.43960E-05-2.73385E-05-2.87392E-05-3.44074E-07-8.71235E-19-1.85836E-18
 -1      4108 9.45249E-05-2.74958E-05-2.87295E-05-2.82551E-07-1.07973E-18-2.54056E-18
 -1      4109 9.42607E-05-2.71809E-05-2.87409E-05-2.64353E-07-8.59124E-19-1.93858E-18
 -1      4110 9.46532E-05-2.76408E-05-2.87199E-05-2.43281E-07-8.17076E-19-2.96211E-18
 -1      4111 9.47503E-05-2.77674E-05-2.87091E-05-1.96712E-07 2.86435E-19-3.26568E-18
 -1      4112 9.45534E-05-2.75170E-05-2.87242E-05-1.84798E-07-1.21545E-18-1.65624E-18
 -1      4113 9.48455E-05-2.78826E-05-2.86986E-05-1.68390E-07 1.30708E-18-2.69542E-18
 -1      4114 9.49170E-05-2.79825E-05-2.86877E-05-1.33424E-07 9.59854E-19-1.54418E-18
 -1      4115 9.47732E-05-2.77869E-05-2.87042E-05-1.26879E-07 7.43232E-19-1.46463E-18
 -1      4116 9.49860E-05-2.80723E-05-2.86774E-05-1.13204E-07 1.32029E-18-1.16145E-18
 -1      4117 9.50371E-05-2.81495E-05-2.86672E-05-8.72185E-08 1.80449E-18-3.92802E-19
 -1      4118 9.49347E-05-2.79994E-05-2.86835E-05-8.49715E-08 1.46890E-18-2.12698E-18
 -1      4119 9.50856E-05-2.82181E-05-2.86576E-05-7.29580E-08 9.97468E-19-7.43610E-19
 -1      4120 9.51211E-05-2.82768E-05-2.86483E-05-5.38660E-08 1.05460E-18-4.73534E-19
 -1      4121 9.50503E-05-2.81636E-05-2.86636E-05-5.49134E-08 1.18316E-18-1.38128E-18
 -1      4122 9.51542E-05-2.83286E-05-2.86396E-05-4.36116E-08 6.99198E-19-1.29029E-18
 -1      4123 9.51779E-05-2.83720E-05-2.86316E-05-3.05395E-08 1.23904E-18-1.72911E-18
 -1      4124 9.51301E-05-2.82880E-05-2.86453E-05-3.34479E-08 4.66808E-19-6.82706E-19
 -1      4125 9.51936E-05-2.83988E-05-2.86261E-05-2.26836E-08 1.03194E-18-3.04795E-18
 -1      4126 9.52076E-05-2.84292E-05-2.86196E-05-1.27127E-08 1.68491E-19-3.93345E-18
 -1      4127 9.52057E-05-2.84255E-05-2.86202E-05-5.68358E-09-4.24160E-19-3.99530E-18
 -1      4128 9.51788E-05-2.83723E-05-2.86310E-05-1.63611E-08 1.37441E-19-2.99303E-18
 -1      4129 6.76252E-05-1.55032E-05-2.23661E-05-1.10835E-06-6.89455E-19 2.52804E-18
 -1      4130 8.43218E-05-2.23148E-05-2.66545E-05 9.78696E-06 6.48824E-19-1.13291E-18
 -1      4131 8.42719E-05-2.34552E-05-2.60798E-05 1.16438E-05 8.64694E-19-1.12248E-18
 -1      4132 7.93551E-05-1.98967E-05-2.53252E-05 9.81674E-06 1.06654E-18-7.53356E-19
 -1      4133 7.27016E-05-1.62505E-05-2.43016E-05-2.86887E-06 1.01849E-18-1.72921E-18
 -1      4134 7.61693E-05-1.84059E-05-2.48309E-05 6.82804E-06 1.19519E-18-7.09397E-19
 -1      4135 7.33508E-05-1.60034E-05-2.44233E-05 1.61148E-06 1.09184E-18-1.28111E-18
 -1      4136 7.56204E-05-1.67957E-05-2.52047E-05-1.86367E-06 9.38542E-19-1.56273E-18
 -1      4137 7.81707E-05-1.82507E-05-2.57508E-05 5.28188E-06 1.04932E-18-7.66667E-19
 -1      4138 9.05008E-05-2.39429E-05-2.85356E-05-4.39511E-07-5.07383E-19 8.81158E-19
 -1      4139 8.98206E-05-2.34933E-05-2.84487E-05-5.11735E-07-6.80554E-19 3.85747E-19
 -1      4140 7.80054E-05-1.80057E-05-2.57925E-05-7.67126E-06 4.94676E-19-1.48444E-18
 -1      4141 7.98164E-05-1.89579E-05-2.60848E-05-3.11773E-06-4.56801E-19 1.17729E-18
 -1      4142 7.76382E-05-1.83897E-05-2.54358E-05-3.86022E-06-3.31726E-19 1.54263E-18
 -1      4143 7.90794E-05-1.96567E-05-2.54525E-05-6.95474E-06 1.15929E-19 1.35942E-18
 -1      4144 8.13989E-05-1.98659E-05-2.63576E-05-4.62960E-06 7.07033E-20 2.46812E-19
 -1      4145 8.91845E-05-2.30928E-05-2.83456E-05-7.82839E-07-7.96024E-19 4.72696E-19
 -1      4146 8.83434E-05-2.26044E-05-2.82098E-05-9.00151E-07-1.28988E-18-3.96430E-19
 -1      4147 9.02744E-05-2.08825E-05-2.97353E-05 4.58191E-06 1.40193E-20-1.39910E-18
 -1      4148 9.31519E-05-2.60924E-05-2.87465E-05-4.51274E-08 4.13721E-19-6.98078E-19
 -1      4149 9.28234E-05-2.57836E-05-2.87367E-05-2.85505E-08-1.62668E-19 3.14560E-19
 -1      4150 9.36997E-05-2.66262E-05-2.87529E-05-9.91848E-09 1.43532E-19-1.23985E-18
 -1      4151 9.34364E-05-2.63676E-05-2.87525E-05 1.88206E-08 4.84501E-19-5.21013E-19
 -1      4152 9.41287E-05-2.70699E-05-2.87453E-05 7.64017E-09-1.07604E-18-6.21078E-19
 -1      4153 9.39252E-05-2.68567E-05-2.87509E-05 3.80274E-08-6.34711E-19-7.11273E-19
 -1      4154 9.44577E-05-2.74323E-05-2.87297E-05 1.42996E-08-6.00784E-19-4.64125E-19
 -1      4155 9.43035E-05-2.72598E-05-2.87386E-05 4.24905E-08-1.11495E-18-9.79682E-19
 -1      4156 9.47050E-05-2.77228E-05-2.87100E-05 1.50378E-08-8.91626E-20 8.95453E-19
 -1      4157 9.45904E-05-2.75856E-05-2.87204E-05 3.94158E-08-2.21339E-19 4.13192E-19
 -1      4158 9.48870E-05-2.79513E-05-2.86892E-05 1.29777E-08 5.35772E-19 3.98575E-19
 -1      4159 9.48035E-05-2.78442E-05-2.86999E-05 3.30909E-08 8.10615E-19 8.36700E-19
 -1      4160 9.50178E-05-2.81279E-05-2.86689E-05 9.93092E-09 2.44649E-19-9.44883E-19
 -1      4161 9.49585E-05-2.80457E-05-2.86790E-05 2.59145E-08 3.27804E-19-5.95946E-19
 -1      4162 9.51094E-05-2.82620E-05-2.86500E-05 6.81744E-09 5.58328E-19-1.26043E-18
 -1      4163 9.50683E-05-2.81999E-05-2.86593E-05 1.91151E-08 3.17914E-19-1.08973E-18
 -1      4164 9.51708E-05-2.83615E-05-2.86331E-05 4.84084E-09-2.03998E-19-2.15364E-18
 -1      4165 9.51438E-05-2.83157E-05-2.86414E-05 1.30694E-08 3.41256E-19-1.31755E-18
 -1      4166 8.74271E-05-2.05177E-05-2.86888E-05 5.57869E-06 3.22812E-19-1.38943E-18
 -1      4167 8.71543E-05-2.12781E-05-2.82398E-05 6.71285E-06 2.34024E-19-1.37301E-18
 -1      4168 8.60101E-05-1.75923E-05-2.93432E-05-1.21416E-06 9.39323E-19-1.59819E-18
 -1      4169 8.82059E-05-1.97361E-05-2.93553E-05 4.38488E-06 3.15057E-19-1.43630E-18
 -1      4170 8.90711E-05-2.03365E-05-2.94494E-05 4.74521E-06 2.08795E-19-1.26350E-18
 -1      4171 8.60790E-05-2.13954E-05-2.77611E-05 7.38724E-06 2.19345E-19-1.13145E-18
 -1      4172 8.57730E-05-2.22272E-05-2.72508E-05 8.88304E-06 3.93901E-19-1.22663E-18
 -1      4173 8.25692E-05-1.98632E-05-2.67975E-05 7.15658E-06 6.76191E-19-1.17420E-18
 -1      4174 8.50308E-05-1.99514E-05-2.78804E-05 5.77548E-06 5.85548E-19-1.39058E-18
 -1      4175 9.52255E-05-2.84679E-05-2.86106E-05 7.55911E-09-1.57615E-18-1.87544E-18
 -1      4176 8.57338E-05-2.13334E-05-2.76251E-05-2.06629E-06-1.10814E-18-5.08861E-19
 -1      4177 8.45285E-05-2.08323E-05-2.73316E-05-2.42656E-06-9.38699E-19 2.43373E-20
 -1      4178 8.76033E-05-2.22035E-05-2.80546E-05-1.29482E-06-1.59237E-18-5.34931E-19
 -1      4179 8.65715E-05-2.16950E-05-2.78491E-05-1.51318E-06-1.69666E-18-8.12776E-19
 -1      4180 8.51970E-05-1.77396E-05-2.89108E-05-5.35895E-07 7.90425E-19-1.51998E-18
 -1      4181 8.39427E-05-1.78040E-05-2.83824E-05-7.16000E-07 7.89845E-19-1.29402E-18
 -1      4182 7.77631E-05-1.71196E-05-2.59057E-05-4.80689E-06 6.94340E-19-1.50038E-18
 -1      4183 8.24526E-05-1.77983E-05-2.77356E-05-5.48143E-07 8.77715E-19-1.08770E-18
 -1      4184 8.37010E-05-1.78823E-05-2.81828E-05 1.62028E-06 7.36002E-19-1.37629E-18
 -1      4185 7.75923E-05-1.70734E-05-2.60018E-05-8.16683E-07 9.64838E-19-1.21594E-18
 -1      4186 8.04857E-05-2.08811E-05-2.55696E-05-8.51332E-06 6.99739E-19 1.29099E-18
 -1      4187 8.40941E-05-1.82826E-05-2.82127E-05 2.72598E-06 7.11754E-19-1.27720E-18
 -1      4188 8.06733E-05-1.75733E-05-2.70812E-05-6.55397E-07 8.98235E-19-1.08626E-18
 -1      4189 9.52146E-05-2.84415E-05-2.86167E-05 7.41230E-09-9.91736E-19-1.59631E-18
 -1      4190 8.73511E-05-1.98255E-05-2.89334E-05 4.64765E-06 3.00382E-19-1.40644E-18
 -1      4191 9.18757E-05-2.49909E-05-2.86674E-05-6.23923E-07-1.03466E-18-7.19157E-20
 -1      4192 9.14010E-05-2.46199E-05-2.86258E-05-7.41994E-07-1.84801E-19-5.11943E-19
 -1      4193 8.46102E-05-2.11090E-05-2.71772E-05-4.12113E-06-6.06805E-19 2.14678E-20
 -1      4194 7.94654E-05-1.74388E-05-2.64934E-05 1.95247E-06 1.08722E-18-9.19411E-19
 -1      4195 8.17731E-05-2.08989E-05-2.60611E-05-7.15212E-06 6.06675E-19 8.63114E-19
 -1      4196 8.26569E-05-2.08503E-05-2.64966E-05-5.95225E-06 6.93935E-19 9.11266E-19
 -1      4197 8.38058E-05-2.10531E-05-2.68698E-05-4.94306E-06-9.46295E-21 1.45557E-19
 -1      4198 9.08735E-05-2.42148E-05-2.85609E-05-9.48246E-07 4.96267E-20-4.56912E-19
 -1      4199 9.23033E-05-2.53325E-05-2.87023E-05-4.90202E-07-9.14587E-19-2.32199E-19
 -1      4200 9.26476E-05-2.56195E-05-2.87204E-05-3.86936E-07-2.45955E-19-9.08245E-19
 -1      4201 8.12500E-05-1.86936E-05-2.68572E-05 4.78278E-06 9.36998E-19-1.01184E-18
 -1      4202 8.60089E-05-1.92685E-05-2.86081E-05 4.27955E-06 5.70788E-19-1.43878E-18
 -1      4203 9.52024E-05-2.84199E-05-2.86216E-05 1.19940E-08-6.69302E-19-1.20800E-18
 -1      4204 9.51894E-05-2.83938E-05-2.86272E-05 1.91601E-08-6.49303E-19-1.86751E-18
 -1      4205 8.28675E-05-1.88611E-05-2.74416E-05 4.21342E-06 7.55332E-19-1.18644E-18
 -1      4206 9.51773E-05-2.83708E-05-2.86309E-05-8.04550E-09-4.28573E-19-1.65945E-18
 -1      4207 8.50265E-05-1.93637E-05-2.81444E-05 4.80964E-06 5.94271E-19-1.25694E-18
 -1      4208 9.52053E-05-2.84252E-05-2.86201E-05 4.53524E-10-8.69187E-19-3.02161E-18
 -1      4209 9.51940E-05-2.84012E-05-2.86253E-05-2.50061E-09-8.23013E-19-2.78040E-18
 -3
    1PSTEP                         4           1           1          
  100CL  101 1.000000000        4209                     0    1           1
 -4  ERROR       1    1
 -5  STR(%)      1    1    0    0
 -1         1 2.01324E+01
 -1         2 2.55282E+01
 -1         3 5.81487E-04
 -1         4 5.99799E-04
 -1         5 1.36130E+01
 -1         6 1.27537E+01
 -1         7 1.27537E+01
 -1         8 3.54348E+00
 -1         9 1.85713E+00
 -1        10 1.36232E+00
 -1        11 1.09117E+00
 -1        12 8.98665E-01
 -1        13 7.50960E-01
 -1        14 6.36473E-01
 -1        15 6.11481E-01
 -1        16 7.21507E-01
 -1        17 8.66031E-01
 -1        18 1.07696E+00
 -1        19 1.36824E+00
 -1        20 1.87091E+00
 -1        21 3.36935E+00
 -1        22 8.24642E+00
 -1        23 1.27537E+01
 -1        24 4.15235E+00
 -1        25 3.02096E+00
 -1        26 1.80621E+00
 -1        27 1.26403E+00
 -1        28 8.64714E-01
 -1        29 5.99293E-01
 -1        30 5.85210E-01
 -1        31 7.10153E-01
 -1        32 7.10153E-01
 -1        33 7.49863E-01
 -1        34 8.56903E-01
 -1        35 1.18281E+00
 -1        36 1.86304E+00
 -1        37 2.66258E+00
 -1        38 2.97311E+00
 -1        39 2.98047E+00
 -1        40 2.98047E+00
 -1        41 2.80783E+00
 -1        42 2.08527E+00
 -1        43 1.30039E+00
 -1        44 1.02388E+00
 -1        45 8.73826E-01
 -1        46 8.53719E-01
 -1        47 8.16057E-01
 -1        48 7.94941E-01
 -1        49 6.95751E-01
 -1        50 5.64514E-01
 -1        51 4.48452E-01
 -1        52 3.59064E-01
 -1        53 3.12286E-01
 -1        54 2.59742E-01
 -1        55 2.08160E-01
 -1        56 1.61416E-01
 -1        57 1.21328E-01
 -1        58 9.11733E-02
 -1        59 7.71727E-02
 -1        60 6.34603E-02
 -1        61 5.08511E-02
 -1        62 3.97386E-02
 -1        63 3.02368E-02
 -1        64 2.22851E-02
 -1        65 1.82734E-02
 -1        66 1.46065E-02
 -1        67 1.10751E-02
 -1        68 7.70130E-03
 -1        69 5.23041E-03
 -1        70 4.48829E-03
 -1        71 3.01810E-03
 -1        72 1.36130E+01
 -1        73 3.33806E+00
 -1        74 2.27414E+00
 -1        75 1.62298E+00
 -1        76 1.40296E+00
 -1        77 1.21608E+00
 -1        78 1.10296E+00
 -1        79 1.13764E+00
 -1        80 1.13764E+00
 -1        81 1.45134E+00
 -1        82 1.73319E+00
 -1        83 1.94280E+00
 -1        84 2.19321E+00
 -1        85 2.50615E+00
 -1        86 3.41801E+00
 -1        87 5.08105E+00
 -1        88 5.78900E+00
 -1        89 5.78900E+00
 -1        90 5.33217E+00
 -1        91 3.03948E+00
 -1        92 1.81838E+00
 -1        93 1.91476E+00
 -1        94 2.07958E+00
 -1        95 2.07958E+00
 -1        96 1.91260E+00
 -1        97 1.60598E+00
 -1        98 1.33732E+00
 -1        99 1.06157E+00
 -1       100 8.11325E-01
 -1       101 6.00277E-01
 -1       102 4.33615E-01
 -1       103 3.32892E-01
 -1       104 2.50180E-01
 -1       105 1.84214E-01
 -1       106 1.32792E-01
 -1       107 9.34722E-02
 -1       108 6.39279E-02
 -1       109 4.84444E-02
 -1       110 3.97554E-02
 -1       111 3.19474E-02
 -1       112 2.51243E-02
 -1       113 1.95563E-02
 -1       114 1.72946E-02
 -1       115 1.46794E-02
 -1       116 1.18887E-02
 -1       117 8.98919E-03
 -1       118 6.33417E-03
 -1       119 4.50540E-03
 -1       120 2.70464E-03
 -1       121 1.26231E-03
 -1       122 1.06052E-03
 -1       123 5.21251E-04
 -1       124 3.72321E-04
 -1       125 5.52221E-04
 -1       126 6.41631E-04
 -1       127 6.73336E-04
 -1       128 6.73813E-04
 -1       129 6.73813E-04
 -1       130 6.63059E-04
 -1       131 6.17772E-04
 -1       132 5.29986E-04
 -1       133 3.51184E-04
 -1       134 5.37447E-04
 -1       135 1.38124E-03
 -1       136 1.95680E-03
 -1       137 2.57971E+01
 -1       138 4.86642E+01
 -1       139 4.86642E+01
 -1       140 2.16013E+01
 -1       141 1.28792E+01
 -1       142 1.36514E+01
 -1       143 1.36514E+01
 -1       144 1.26461E+01
 -1       145 1.26461E+01
 -1       146 1.35654E+01
 -1       147 3.50224E+01
 -1       148 3.50224E+01
 -1       149 2.61379E+01
 -1       150 2.62821E+01
 -1       151 2.62821E+01
 -1       152 2.57268E+01
 -1       153 3.61057E+01
 -1       154 3.61057E+01
 -1       155 1.46362E+01
 -1       156 1.28294E+01
 -1       157 1.28294E+01
 -1       158 1.28966E+01
 -1       159 1.31165E+01
 -1       160 1.31165E+01
 -1       161 4.74974E+01
 -1       162 4.74974E+01
 -1       163 2.48127E+01
 -1       164 5.84446E+00
 -1       165 2.34085E+00
 -1       166 1.59815E+00
 -1       167 1.22499E+00
 -1       168 9.92197E-01
 -1       169 8.23579E-01
 -1       170 6.92584E-01
 -1       171 5.94777E-01
 -1       172 6.65395E-01
 -1       173 7.92352E-01
 -1       174 9.74948E-01
 -1       175 1.22600E+00
 -1       176 1.61375E+00
 -1       177 2.32889E+00
 -1       178 3.78162E+00
 -1       179 1.36130E+01
 -1       180 4.15235E+00
 -1       181 3.02096E+00
 -1       182 1.80621E+00
 -1       183 1.26403E+00
 -1       184 8.64714E-01
 -1       185 5.99293E-01
 -1       186 5.69509E-01
 -1       187 5.85210E-01
 -1       188 7.10153E-01
 -1       189 6.80560E-01
 -1       190 7.49863E-01
 -1       191 8.56903E-01
 -1       192 1.23660E+00
 -1       193 1.86304E+00
 -1       194 2.66258E+00
 -1       195 2.97311E+00
 -1       196 2.98047E+00
 -1       197 2.80783E+00
 -1       198 2.08527E+00
 -1       199 1.37726E+00
 -1       200 1.02388E+00
 -1       201 8.73826E-01
 -1       202 8.53719E-01
 -1       203 8.16057E-01
 -1       204 7.94941E-01
 -1       205 6.95751E-01
 -1       206 5.70201E-01
 -1       207 4.79381E-01
 -1       208 4.10034E-01
 -1       209 3.32656E-01
 -1       210 2.59742E-01
 -1       211 2.08160E-01
 -1       212 1.62717E-01
 -1       213 1.27089E-01
 -1       214 9.64794E-02
 -1       215 7.71727E-02
 -1       216 6.34603E-02
 -1       217 5.08511E-02
 -1       218 3.97386E-02
 -1       219 3.02368E-02
 -1       220 2.28739E-02
 -1       221 1.82734E-02
 -1       222 1.46065E-02
 -1       223 1.10751E-02
 -1       224 7.92923E-03
 -1       225 5.34783E-03
 -1       226 4.48829E-03
 -1       227 3.01810E-03
 -1       228 3.33806E+00
 -1       229 2.27414E+00
 -1       230 1.62298E+00
 -1       231 1.40296E+00
 -1       232 1.21608E+00
 -1       233 1.03532E+00
 -1       234 1.10296E+00
 -1       235 1.13764E+00
 -1       236 1.17413E+00
 -1       237 1.45134E+00
 -1       238 1.73319E+00
 -1       239 1.94280E+00
 -1       240 2.19321E+00
 -1       241 2.50615E+00
 -1       242 3.41801E+00
 -1       243 5.08105E+00
 -1       244 5.78900E+00
 -1       245 5.33217E+00
 -1       246 3.03948E+00
 -1       247 1.81838E+00
 -1       248 1.69691E+00
 -1       249 1.91476E+00
 -1       250 2.07958E+00
 -1       251 1.91260E+00
 -1       252 1.60598E+00
 -1       253 1.33732E+00
 -1       254 1.09027E+00
 -1       255 8.56457E-01
 -1       256 6.50621E-01
 -1       257 4.79927E-01
 -1       258 3.46192E-01
 -1       259 2.50180E-01
 -1       260 1.84214E-01
 -1       261 1.34203E-01
 -1       262 9.68370E-02
 -1       263 6.82611E-02
 -1       264 4.84444E-02
 -1       265 3.97554E-02
 -1       266 3.19474E-02
 -1       267 2.51243E-02
 -1       268 1.95563E-02
 -1       269 1.72946E-02
 -1       270 1.46794E-02
 -1       271 1.18887E-02
 -1       272 8.98919E-03
 -1       273 6.33417E-03
 -1       274 4.50540E-03
 -1       275 2.70464E-03
 -1       276 1.11140E-03
 -1       277 9.84756E-04
 -1       278 5.96258E-04
 -1       279 9.23650E-04
 -1       280 1.10784E-03
 -1       281 1.18129E-03
 -1       282 1.19414E-03
 -1       283 1.19414E-03
 -1       284 1.19049E-03
 -1       285 1.15341E-03
 -1       286 1.07085E-03
 -1       287 8.92367E-04
 -1       288 6.64448E-04
 -1       289 6.64448E-04
 -1       290 1.84212E-03
 -1       291 3.05370E+01
 -1       292 2.88224E+01
 -1       293 4.86642E+01
 -1       294 2.37091E+01
 -1       295 1.21998E+01
 -1       296 1.28792E+01
 -1       297 1.36514E+01
 -1       298 1.21626E+01
 -1       299 1.26461E+01
 -1       300 1.24003E+01
 -1       301 1.35654E+01
 -1       302 3.50224E+01
 -1       303 3.40807E+01
 -1       304 2.65713E+01
 -1       305 3.38110E+01
 -1       306 2.51103E+01
 -1       307 3.31199E+01
 -1       308 3.61057E+01
 -1       309 1.46362E+01
 -1       310 1.16037E+01
 -1       311 1.28294E+01
 -1       312 1.25014E+01
 -1       313 1.28966E+01
 -1       314 1.31165E+01
 -1       315 1.09976E+01
 -1       316 2.18212E+01
 -1       317 4.74974E+01
 -1       318 2.86712E+01
 -1       319 3.05370E+01
 -1       320 1.13520E+00
 -1       321 2.40208E+00
 -1       322 8.56209E-01
 -1       323 7.19057E-01
 -1       324 6.10030E-01
 -1       325 5.14913E-01
 -1       326 4.90472E-01
 -1       327 5.81686E-01
 -1       328 7.03343E-01
 -1       329 8.47000E-01
 -1       330 1.01755E+00
 -1       331 1.26004E+00
 -1       332 1.37332E+00
 -1       333 1.94414E+00
 -1       334 1.57801E+00
 -1       335 1.41743E+00
 -1       336 8.79529E-01
 -1       337 6.08958E-01
 -1       338 4.25238E-01
 -1       339 3.81583E-01
 -1       340 3.86522E-01
 -1       341 4.05354E-01
 -1       342 4.04383E-01
 -1       343 4.27266E-01
 -1       344 6.13176E-01
 -1       345 9.45987E-01
 -1       346 1.33451E+00
 -1       347 1.68744E+00
 -1       348 1.92135E+00
 -1       349 1.84043E+00
 -1       350 1.94825E+00
 -1       351 1.77628E+00
 -1       352 1.38171E+00
 -1       353 1.01211E+00
 -1       354 5.63420E-01
 -1       355 4.07876E-01
 -1       356 4.77571E-01
 -1       357 5.89922E-01
 -1       358 6.02485E-01
 -1       359 5.53385E-01
 -1       360 4.92075E-01
 -1       361 4.35369E-01
 -1       362 3.74279E-01
 -1       363 3.07097E-01
 -1       364 2.42034E-01
 -1       365 1.83795E-01
 -1       366 1.34515E-01
 -1       367 9.64794E-02
 -1       368 7.11801E-02
 -1       369 5.11316E-02
 -1       370 3.83554E-02
 -1       371 3.21003E-02
 -1       372 2.60832E-02
 -1       373 2.05588E-02
 -1       374 1.56428E-02
 -1       375 1.19191E-02
 -1       376 9.78350E-03
 -1       377 7.49911E-03
 -1       378 5.34783E-03
 -1       379 3.66421E-03
 -1       380 2.67227E-03
 -1       381 9.36592E-01
 -1       382 7.46576E-01
 -1       383 7.16424E-01
 -1       384 7.86664E-01
 -1       385 1.05384E+00
 -1       386 1.25371E+00
 -1       387 1.41532E+00
 -1       388 1.45981E+00
 -1       389 1.40425E+00
 -1       390 1.34139E+00
 -1       391 1.44238E+00
 -1       392 2.26537E+00
 -1       393 2.83044E+00
 -1       394 3.57756E+00
 -1       395 3.50587E+00
 -1       396 3.11423E+00
 -1       397 2.15180E+00
 -1       398 1.70989E+00
 -1       399 1.41308E+00
 -1       400 1.58505E+00
 -1       401 1.55740E+00
 -1       402 1.53010E+00
 -1       403 1.38345E+00
 -1       404 1.21628E+00
 -1       405 1.01163E+00
 -1       406 8.10835E-01
 -1       407 6.27795E-01
 -1       408 4.72277E-01
 -1       409 3.46192E-01
 -1       410 2.47382E-01
 -1       411 1.82225E-01
 -1       412 1.34203E-01
 -1       413 9.68370E-02
 -1       414 6.82611E-02
 -1       415 4.67615E-02
 -1       416 3.08543E-02
 -1       417 2.54088E-02
 -1       418 2.10905E-02
 -1       419 1.69477E-02
 -1       420 1.31307E-02
 -1       421 9.70997E-03
 -1       422 8.23628E-03
 -1       423 6.59679E-03
 -1       424 5.09771E-03
 -1       425 3.68377E-03
 -1       426 2.55825E-03
 -1       427 1.25440E-03
 -1       428 1.94929E-03
 -1       429 1.96428E-03
 -1       430 1.43949E-03
 -1       431 1.50203E-03
 -1       432 1.50203E-03
 -1       433 1.48598E-03
 -1       434 1.47113E-03
 -1       435 1.47113E-03
 -1       436 1.45748E-03
 -1       437 1.38750E-03
 -1       438 1.20722E-03
 -1       439 2.15761E-03
 -1       440 2.88224E+01
 -1       441 3.42559E+01
 -1       442 3.42559E+01
 -1       443 1.74049E+01
 -1       444 1.01218E+01
 -1       445 1.00538E+00
 -1       446 9.15224E+00
 -1       447 1.05415E+01
 -1       448 1.04401E+01
 -1       449 8.61686E+00
 -1       450 6.13528E+00
 -1       451 1.24005E+01
 -1       452 2.18797E+01
 -1       453 2.34200E+01
 -1       454 3.19714E+01
 -1       455 3.38110E+01
 -1       456 2.53804E+01
 -1       457 2.14003E+01
 -1       458 1.26867E+01
 -1       459 8.07160E+00
 -1       460 8.46944E+00
 -1       461 1.08687E+01
 -1       462 9.96726E+00
 -1       463 1.00420E+01
 -1       464 6.77158E+00
 -1       465 9.27218E+00
 -1       466 1.66365E+01
 -1       467 2.86712E+01
 -1       468 2.88007E+01
 -1       469 7.13190E+00
 -1       470 2.39284E+01
 -1       471 6.70073E+00
 -1       472 9.72244E+00
 -1       473 5.11890E+00
 -1       474 3.38110E+01
 -1       475 8.18985E-01
 -1       476 5.19427E-01
 -1       477 5.85528E-01
 -1       478 3.51213E-01
 -1       479 3.91129E-01
 -1       480 4.80249E-01
 -1       481 5.63477E-01
 -1       482 6.40050E-01
 -1       483 9.24810E-01
 -1       484 4.70680E-01
 -1       485 5.83672E-01
 -1       486 5.63487E+00
 -1       487 3.91030E-01
 -1       488 3.04388E-01
 -1       489 3.32728E-01
 -1       490 3.85967E-01
 -1       491 4.36416E-01
 -1       492 4.92175E-01
 -1       493 6.40941E-01
 -1       494 7.57756E-01
 -1       495 9.53961E-01
 -1       496 1.20096E+00
 -1       497 1.33863E+00
 -1       498 1.59795E+00
 -1       499 1.70754E+00
 -1       500 1.74457E+00
 -1       501 1.76704E+00
 -1       502 1.36589E+00
 -1       503 1.16674E+00
 -1       504 9.45380E-01
 -1       505 7.74989E-01
 -1       506 6.75021E-01
 -1       507 5.95474E-01
 -1       508 6.03790E-01
 -1       509 5.65520E-01
 -1       510 5.09520E-01
 -1       511 4.60584E-01
 -1       512 4.04803E-01
 -1       513 3.40604E-01
 -1       514 2.76301E-01
 -1       515 2.17001E-01
 -1       516 1.65342E-01
 -1       517 1.22247E-01
 -1       518 8.75473E-02
 -1       519 6.04630E-02
 -1       520 3.99333E-02
 -1       521 2.64368E-02
 -1       522 1.80713E-02
 -1       523 1.57439E-02
 -1       524 1.32204E-02
 -1       525 1.06147E-02
 -1       526 8.09307E-03
 -1       527 6.18716E-03
 -1       528 4.82253E-03
 -1       529 3.45068E-03
 -1       530 7.08966E-01
 -1       531 9.54893E-01
 -1       532 1.18740E+00
 -1       533 1.35784E+00
 -1       534 1.61187E+00
 -1       535 1.91313E+00
 -1       536 2.11329E+00
 -1       537 2.55601E+00
 -1       538 2.68647E+00
 -1       539 3.24545E+00
 -1       540 4.97750E+00
 -1       541 4.18081E+00
 -1       542 5.75717E+00
 -1       543 4.01338E+00
 -1       544 4.40909E+00
 -1       545 4.98311E+00
 -1       546 4.48563E+00
 -1       547 3.77252E+00
 -1       548 3.10134E+00
 -1       549 2.62039E+00
 -1       550 2.31451E+00
 -1       551 1.93793E+00
 -1       552 1.55970E+00
 -1       553 1.21725E+00
 -1       554 9.26106E-01
 -1       555 6.88850E-01
 -1       556 5.01374E-01
 -1       557 3.56779E-01
 -1       558 2.47544E-01
 -1       559 1.66591E-01
 -1       560 1.07742E-01
 -1       561 6.58546E-02
 -1       562 3.67772E-02
 -1       563 2.54088E-02
 -1       564 2.10905E-02
 -1       565 1.69477E-02
 -1       566 1.47243E-02
 -1       567 1.32531E-02
 -1       568 1.10674E-02
 -1       569 8.49033E-03
 -1       570 5.25759E-03
 -1       571 3.53487E-03
 -1       572 1.78211E-03
 -1       573 1.74561E-03
 -1       574 2.69728E-03
 -1       575 2.29056E-03
 -1       576 1.64643E-03
 -1       577 1.55720E-03
 -1       578 1.61292E-03
 -1       579 1.68167E-03
 -1       580 1.68167E-03
 -1       581 1.66324E-03
 -1       582 1.68693E-03
 -1       583 3.42559E+01
 -1       584 1.51491E+01
 -1       585 4.90244E-01
 -1       586 2.88007E+01
 -1       587 9.88915E-01
 -1       588 2.03711E+01
 -1       589 2.34200E+01
 -1       590 6.56460E+00
 -1       591 4.37166E-01
 -1       592 7.90932E+00
 -1       593 7.26693E+00
 -1       594 1.06246E+01
 -1       595 1.44205E+01
 -1       596 1.15580E+01
 -1       597 2.53804E+01
 -1       598 8.11604E+00
 -1       599 1.71429E+01
 -1       600 3.91680E+00
 -1       601 6.01240E+00
 -1       602 8.00337E+00
 -1       603 4.53924E+00
 -1       604 5.34384E+00
 -1       605 9.49579E+00
 -1       606 1.26252E+01
 -1       607 5.75717E+00
 -1       608 1.08571E+00
 -1       609 8.98650E+00
 -1       610 9.88915E-01
 -1       611 5.30501E+00
 -1       612 6.33523E+00
 -1       613 1.64902E+01
 -1       614 1.97350E+01
 -1       615 5.84379E+00
 -1       616 4.97750E+00
 -1       617 4.74871E+00
 -1       618 2.25750E-03
 -1       619 3.07245E-01
 -1       620 2.28688E-01
 -1       621 5.52997E-01
 -1       622 6.08643E-01
 -1       623 6.29295E-01
 -1       624 5.02089E+00
 -1       625 1.62907E+01
 -1       626 6.27873E+00
 -1       627 5.10934E-01
 -1       628 4.01662E-01
 -1       629 4.58836E-01
 -1       630 5.44666E-01
 -1       631 6.42367E-01
 -1       632 7.19245E-01
 -1       633 9.67211E-01
 -1       634 1.20580E+00
 -1       635 1.30851E+00
 -1       636 1.61720E+00
 -1       637 1.59795E+00
 -1       638 2.34503E+00
 -1       639 3.73016E+00
 -1       640 2.64632E+00
 -1       641 2.34204E+00
 -1       642 1.63465E+00
 -1       643 1.31803E+00
 -1       644 1.27142E+00
 -1       645 1.04509E+00
 -1       646 8.37700E-01
 -1       647 7.73163E-01
 -1       648 6.74422E-01
 -1       649 5.73977E-01
 -1       650 5.07028E-01
 -1       651 4.36603E-01
 -1       652 3.62519E-01
 -1       653 2.94288E-01
 -1       654 2.32980E-01
 -1       655 1.80162E-01
 -1       656 1.36141E-01
 -1       657 1.00458E-01
 -1       658 7.22349E-02
 -1       659 5.04249E-02
 -1       660 3.39633E-02
 -1       661 2.18466E-02
 -1       662 1.31764E-02
 -1       663 8.63823E-03
 -1       664 7.92931E-03
 -1       665 6.89877E-03
 -1       666 5.60828E-03
 -1       667 4.23284E-03
 -1       668 3.18755E-03
 -1       669 1.11394E+00
 -1       670 5.25759E-03
 -1       671 8.48308E-01
 -1       672 1.74724E+00
 -1       673 2.10176E+00
 -1       674 2.85683E+00
 -1       675 3.65522E+00
 -1       676 4.42975E+00
 -1       677 5.38163E+00
 -1       678 4.98311E+00
 -1       679 4.48563E+00
 -1       680 3.77252E+00
 -1       681 3.10134E+00
 -1       682 2.51244E+00
 -1       683 2.00352E+00
 -1       684 1.58484E+00
 -1       685 1.22706E+00
 -1       686 9.32975E-01
 -1       687 6.97388E-01
 -1       688 5.12344E-01
 -1       689 3.71415E-01
 -1       690 2.65659E-01
 -1       691 1.87576E-01
 -1       692 1.29366E-01
 -1       693 8.63638E-02
 -1       694 5.52057E-02
 -1       695 3.31482E-02
 -1       696 1.79806E-02
 -1       697 1.49322E-02
 -1       698 1.47243E-02
 -1       699 1.32531E-02
 -1       700 1.10674E-02
 -1       701 8.49033E-03
 -1       702 1.10612E+01
 -1       703 1.54553E-03
 -1       704 3.19265E+00
 -1       705 2.05711E-03
 -1       706 1.55720E-03
 -1       707 1.71351E-03
 -1       708 1.62972E-03
 -1       709 1.86184E-03
 -1       710 1.97831E-03
 -1       711 1.24521E+01
 -1       712 8.49571E-01
 -1       713 1.07214E+01
 -1       714 6.40069E-01
 -1       715 1.42160E+00
 -1       716 4.45513E-01
 -1       717 4.76911E-01
 -1       718 9.03806E+00
 -1       719 1.35810E+01
 -1       720 1.17629E+01
 -1       721 1.60284E+01
 -1       722 4.29995E-01
 -1       723 2.33935E-03
 -1       724 3.17780E+00
 -1       725 5.05687E+00
 -1       726 4.96900E+00
 -1       727 1.28264E+01
 -1       728 5.64362E+00
 -1       729 5.89541E+00
 -1       730 1.03225E+01
 -1       731 5.97028E+00
 -1       732 7.82826E+00
 -1       733 7.31731E-01
 -1       734 2.96946E-01
 -1       735 2.82799E+00
 -1       736 4.37541E+00
 -1       737 2.29056E-03
 -1       738 1.06669E+01
 -1       739 4.07603E+00
 -1       740 2.44250E-03
 -1       741 5.66572E+00
 -1       742 1.22932E+01
 -1       743 3.75986E-01
 -1       744 9.50055E+00
 -1       745 5.36160E-01
 -1       746 6.68502E+00
 -1       747 4.94541E-01
 -1       748 5.84364E-01
 -1       749 7.43748E-01
 -1       750 9.46734E-01
 -1       751 1.14302E+00
 -1       752 1.37680E+00
 -1       753 1.85609E+00
 -1       754 1.62383E+00
 -1       755 2.00947E+00
 -1       756 2.45103E+00
 -1       757 4.92074E+00
 -1       758 2.58395E+00
 -1       759 1.86356E+00
 -1       760 2.08047E+00
 -1       761 1.55849E+00
 -1       762 1.31218E+00
 -1       763 1.08460E+00
 -1       764 8.72162E-01
 -1       765 7.11341E-01
 -1       766 6.00013E-01
 -1       767 4.96145E-01
 -1       768 4.01881E-01
 -1       769 3.17772E-01
 -1       770 2.46120E-01
 -1       771 1.87520E-01
 -1       772 1.42072E-01
 -1       773 1.05319E-01
 -1       774 7.69959E-02
 -1       775 5.48310E-02
 -1       776 3.82493E-02
 -1       777 2.58909E-02
 -1       778 1.68714E-02
 -1       779 1.04501E-02
 -1       780 6.01958E-03
 -1       781 4.34497E-03
 -1       782 4.27599E-03
 -1       783 3.76801E-03
 -1       784 3.02881E-03
 -1       785 1.01038E+00
 -1       786 6.12900E+00
 -1       787 2.89536E+00
 -1       788 2.54341E+00
 -1       789 4.73466E-01
 -1       790 3.52200E-03
 -1       791 4.41902E+00
 -1       792 2.50724E+00
 -1       793 1.85914E+00
 -1       794 1.43925E+00
 -1       795 1.10768E+00
 -1       796 8.46551E-01
 -1       797 6.42646E-01
 -1       798 4.83914E-01
 -1       799 3.60722E-01
 -1       800 2.65706E-01
 -1       801 1.92920E-01
 -1       802 1.37689E-01
 -1       803 9.62814E-02
 -1       804 6.72109E-02
 -1       805 4.56441E-02
 -1       806 2.99116E-02
 -1       807 1.86637E-02
 -1       808 1.09444E-02
 -1       809 6.57885E-03
 -1       810 4.47486E-03
 -1       811 3.95594E-03
 -1       812 3.58776E-03
 -1       813 1.52358E-03
 -1       814 1.44883E-03
 -1       815 3.86134E+00
 -1       816 1.06669E+01
 -1       817 1.67700E-03
 -1       818 1.97831E-03
 -1       819 8.00542E-01
 -1       820 7.37262E+00
 -1       821 6.99320E+00
 -1       822 1.13669E+01
 -1       823 3.40588E+00
 -1       824 9.83803E+00
 -1       825 8.20828E+00
 -1       826 4.47679E+00
 -1       827 7.87305E+00
 -1       828 5.22998E+00
 -1       829 5.11820E-01
 -1       830 6.38720E-01
 -1       831 5.29819E+00
 -1       832 3.14855E-01
 -1       833 1.13669E+01
 -1       834 2.38248E-01
 -1       835 5.09439E-01
 -1       836 3.84891E-01
 -1       837 4.64006E-01
 -1       838 5.66572E+00
 -1       839 1.80532E+00
 -1       840 8.37208E+00
 -1       841 7.39840E+00
 -1       842 1.72799E-03
 -1       843 1.32134E+00
 -1       844 1.55007E-03
 -1       845 5.94231E+00
 -1       846 7.05825E-01
 -1       847 2.44250E-03
 -1       848 4.01995E-01
 -1       849 2.16915E+00
 -1       850 1.26788E-03
 -1       851 8.27939E-01
 -1       852 1.05964E+00
 -1       853 1.38830E+00
 -1       854 1.63737E+00
 -1       855 3.20745E+00
 -1       856 3.17089E+00
 -1       857 6.36923E+00
 -1       858 3.78786E+00
 -1       859 4.00699E+00
 -1       860 2.16555E+00
 -1       861 1.51519E+00
 -1       862 1.18300E+00
 -1       863 9.53990E-01
 -1       864 7.38490E-01
 -1       865 5.69950E-01
 -1       866 4.60378E-01
 -1       867 3.73366E-01
 -1       868 3.04595E-01
 -1       869 2.41945E-01
 -1       870 1.87520E-01
 -1       871 1.41873E-01
 -1       872 1.04779E-01
 -1       873 7.53825E-02
 -1       874 5.25812E-02
 -1       875 3.62957E-02
 -1       876 2.41587E-02
 -1       877 1.52893E-02
 -1       878 8.98612E-03
 -1       879 4.73209E-03
 -1       880 2.66199E-03
 -1       881 2.66087E-03
 -1       882 5.94231E+00
 -1       883 6.42985E-01
 -1       884 6.40550E+00
 -1       885 7.27495E+00
 -1       886 1.77714E+00
 -1       887 5.53845E+00
 -1       888 2.50307E+00
 -1       889 4.23935E+00
 -1       890 1.28550E+00
 -1       891 9.51568E-01
 -1       892 7.13813E-01
 -1       893 5.38853E-01
 -1       894 4.06159E-01
 -1       895 3.04481E-01
 -1       896 2.26288E-01
 -1       897 1.66112E-01
 -1       898 1.20172E-01
 -1       899 8.52986E-02
 -1       900 5.90512E-02
 -1       901 4.05380E-02
 -1       902 2.71385E-02
 -1       903 1.74231E-02
 -1       904 1.05349E-02
 -1       905 5.83894E-03
 -1       906 2.68841E-03
 -1       907 2.36971E-03
 -1       908 1.86083E-03
 -1       909 3.02549E-03
 -1       910 1.32134E+00
 -1       911 5.66572E+00
 -1       912 9.81729E-01
 -1       913 3.35306E+00
 -1       914 7.30351E+00
 -1       915 1.85540E-03
 -1       916 7.37438E+00
 -1       917 2.82901E-01
 -1       918 2.07095E+00
 -1       919 5.35110E-01
 -1       920 1.43047E-03
 -1       921 5.33830E-01
 -1       922 4.70194E+00
 -1       923 4.90755E+00
 -1       924 2.76067E-03
 -1       925 4.06122E-01
 -1       926 2.26501E+00
 -1       927 6.26352E-01
 -1       928 5.17029E-01
 -1       929 1.76543E+00
 -1       930 4.86585E-01
 -1       931 4.56764E-01
 -1       932 1.23013E-03
 -1       933 3.70932E+00
 -1       934 7.36990E-01
 -1       935 1.52172E-03
 -1       936 5.23942E+00
 -1       937 6.30659E-01
 -1       938 1.14521E+00
 -1       939 1.70168E+00
 -1       940 3.92556E+00
 -1       941 4.90755E+00
 -1       942 3.85324E-01
 -1       943 3.38450E+00
 -1       944 1.95055E+00
 -1       945 1.30291E+00
 -1       946 9.12333E-01
 -1       947 7.08969E-01
 -1       948 5.65357E-01
 -1       949 4.60378E-01
 -1       950 3.66987E-01
 -1       951 2.87675E-01
 -1       952 2.22105E-01
 -1       953 1.68559E-01
 -1       954 1.25755E-01
 -1       955 9.20981E-02
 -1       956 6.58389E-02
 -1       957 4.57916E-02
 -1       958 3.11051E-02
 -1       959 2.08335E-02
 -1       960 1.33386E-02
 -1       961 7.99436E-03
 -1       962 4.29677E-03
 -1       963 2.12703E-03
 -1       964 8.00575E-01
 -1       965 1.39407E-03
 -1       966 4.72355E+00
 -1       967 1.29198E+00
 -1       968 2.97740E+00
 -1       969 6.87667E-01
 -1       970 5.22406E-01
 -1       971 3.99220E-01
 -1       972 3.04462E-01
 -1       973 2.30658E-01
 -1       974 1.73910E-01
 -1       975 1.29508E-01
 -1       976 9.46962E-02
 -1       977 6.76317E-02
 -1       978 4.72141E-02
 -1       979 3.21405E-02
 -1       980 2.17803E-02
 -1       981 1.41812E-02
 -1       982 8.73959E-03
 -1       983 4.89822E-03
 -1       984 2.65811E-03
 -1       985 4.40643E+00
 -1       986 1.16534E+00
 -1       987 4.55238E+00
 -1       988 4.05021E+00
 -1       989 4.59185E+00
 -1       990 1.69004E+00
 -1       991 8.36950E-01
 -1       992 3.78137E+00
 -1       993 1.84146E+00
 -1       994 5.98901E-01
 -1       995 9.25258E-01
 -1       996 5.35110E-01
 -1       997 4.04233E+00
 -1       998 2.80870E-03
 -1       999 6.05870E-01
 -1      1000 3.70791E+00
 -1      1001 4.90755E+00
 -1      1002 1.89091E+00
 -1      1003 2.80870E-03
 -1      1004 5.58779E-01
 -1      1005 3.54839E+00
 -1      1006 4.78993E+00
 -1      1007 3.79243E-01
 -1      1008 1.19127E+00
 -1      1009 3.08683E-01
 -1      1010 4.21750E-01
 -1      1011 3.30321E+00
 -1      1012 2.91825E+00
 -1      1013 1.44915E+00
 -1      1014 1.49085E+00
 -1      1015 1.16162E+00
 -1      1016 9.12333E-01
 -1      1017 7.08969E-01
 -1      1018 5.50136E-01
 -1      1019 4.21573E-01
 -1      1020 3.20955E-01
 -1      1021 2.42801E-01
 -1      1022 1.82289E-01
 -1      1023 1.35893E-01
 -1      1024 1.00281E-01
 -1      1025 7.21806E-02
 -1      1026 5.09198E-02
 -1      1027 3.50582E-02
 -1      1028 2.34961E-02
 -1      1029 1.61865E-02
 -1      1030 1.07681E-02
 -1      1031 6.69482E-03
 -1      1032 3.76778E-03
 -1      1033 2.73991E-03
 -1      1034 3.43748E+00
 -1      1035 2.06089E+00
 -1      1036 2.62270E+00
 -1      1037 6.10484E-01
 -1      1038 2.31758E-01
 -1      1039 1.94903E-01
 -1      1040 1.40283E-01
 -1      1041 1.02355E-01
 -1      1042 7.52185E-02
 -1      1043 5.44332E-02
 -1      1044 3.88987E-02
 -1      1045 2.78202E-02
 -1      1046 1.94470E-02
 -1      1047 1.29362E-02
 -1      1048 7.54137E-03
 -1      1049 1.25403E+00
 -1      1050 3.40381E+00
 -1      1051 7.94600E-01
 -1      1052 7.87117E-01
 -1      1053 8.58424E-01
 -1      1054 6.05870E-01
 -1      1055 1.17375E+00
 -1      1056 2.33693E+00
 -1      1057 3.56987E-03
 -1      1058 2.62270E+00
 -1      1059 1.94394E+00
 -1      1060 4.29564E-03
 -1      1061 5.79816E-01
 -1      1062 5.90042E-01
 -1      1063 1.14549E+00
 -1      1064 1.15274E+00
 -1      1065 2.10835E-01
 -1      1066 2.31758E-01
 -1      1067 3.06613E+00
 -1      1068 1.37158E+00
 -1      1069 1.62906E+00
 -1      1070 1.37158E+00
 -1      1071 1.19127E+00
 -1      1072 8.58424E-01
 -1      1073 6.10484E-01
 -1      1074 4.21750E-01
 -1      1075 2.34969E-01
 -1      1076 1.90537E-01
 -1      1077 1.94903E-01
 -1      1078 1.19003E-01
 -1      1079 8.79393E-02
 -1      1080 6.48037E-02
 -1      1081 4.67761E-02
 -1      1082 3.28899E-02
 -1      1083 2.25404E-02
 -1      1084 1.53311E-02
 -1      1085 9.72208E-03
 -1      1086 4.44821E-03
 -1      1087 2.48146E+00
 -1      1088 2.33788E+00
 -1      1089 1.65598E+00
 -1      1090 1.03548E+00
 -1      1091 1.52777E+00
 -1      1092 1.94394E+00
 -1      1093 4.41489E-03
 -1      1094 1.27537E+01
 -1      1095 8.14858E+00
 -1      1096 2.70030E+00
 -1      1097 1.60972E+00
 -1      1098 1.22674E+00
 -1      1099 9.94919E-01
 -1      1100 8.24813E-01
 -1      1101 6.93717E-01
 -1      1102 6.23977E-01
 -1      1103 6.66494E-01
 -1      1104 7.93769E-01
 -1      1105 9.71495E-01
 -1      1106 1.22260E+00
 -1      1107 1.61957E+00
 -1      1108 2.62013E+00
 -1      1109 5.80788E+00
 -1      1110 1.09297E+01
 -1      1111 1.27537E+01
 -1      1112 8.45301E+00
 -1      1113 3.58666E+00
 -1      1114 2.41359E+00
 -1      1115 1.53512E+00
 -1      1116 1.06437E+00
 -1      1117 7.32004E-01
 -1      1118 5.92252E-01
 -1      1119 6.47682E-01
 -1      1120 7.10153E-01
 -1      1121 7.30008E-01
 -1      1122 8.03383E-01
 -1      1123 1.01986E+00
 -1      1124 1.52292E+00
 -1      1125 2.26281E+00
 -1      1126 2.81784E+00
 -1      1127 2.97679E+00
 -1      1128 2.98047E+00
 -1      1129 2.89415E+00
 -1      1130 2.44655E+00
 -1      1131 1.69283E+00
 -1      1132 1.16214E+00
 -1      1133 9.48855E-01
 -1      1134 8.63772E-01
 -1      1135 8.34888E-01
 -1      1136 8.05499E-01
 -1      1137 7.45346E-01
 -1      1138 6.30133E-01
 -1      1139 5.06483E-01
 -1      1140 4.03758E-01
 -1      1141 3.35675E-01
 -1      1142 2.86014E-01
 -1      1143 2.33951E-01
 -1      1144 1.84788E-01
 -1      1145 1.41372E-01
 -1      1146 1.06251E-01
 -1      1147 8.41730E-02
 -1      1148 7.03165E-02
 -1      1149 5.71557E-02
 -1      1150 4.52948E-02
 -1      1151 3.49877E-02
 -1      1152 2.62609E-02
 -1      1153 2.02792E-02
 -1      1154 1.64400E-02
 -1      1155 1.28408E-02
 -1      1156 9.38818E-03
 -1      1157 6.46586E-03
 -1      1158 4.85935E-03
 -1      1159 3.75319E-03
 -1      1160 1.80895E-03
 -1      1161 1.36130E+01
 -1      1162 8.47554E+00
 -1      1163 2.80610E+00
 -1      1164 1.94856E+00
 -1      1165 1.51297E+00
 -1      1166 1.30952E+00
 -1      1167 1.15952E+00
 -1      1168 1.12030E+00
 -1      1169 1.13764E+00
 -1      1170 1.29449E+00
 -1      1171 1.59227E+00
 -1      1172 1.83800E+00
 -1      1173 2.06800E+00
 -1      1174 2.34968E+00
 -1      1175 2.96208E+00
 -1      1176 4.24953E+00
 -1      1177 5.43502E+00
 -1      1178 5.78900E+00
 -1      1179 5.56059E+00
 -1      1180 4.18583E+00
 -1      1181 2.42893E+00
 -1      1182 1.86657E+00
 -1      1183 1.99717E+00
 -1      1184 2.07958E+00
 -1      1185 1.99609E+00
 -1      1186 1.75929E+00
 -1      1187 1.47165E+00
 -1      1188 1.19945E+00
 -1      1189 9.36449E-01
 -1      1190 7.05801E-01
 -1      1191 5.16946E-01
 -1      1192 3.83254E-01
 -1      1193 2.91536E-01
 -1      1194 2.17197E-01
 -1      1195 1.58503E-01
 -1      1196 1.13132E-01
 -1      1197 7.87000E-02
 -1      1198 5.61861E-02
 -1      1199 4.40999E-02
 -1      1200 3.58514E-02
 -1      1201 2.85358E-02
 -1      1202 2.23403E-02
 -1      1203 1.84254E-02
 -1      1204 1.59870E-02
 -1      1205 1.32840E-02
 -1      1206 1.04389E-02
 -1      1207 7.66168E-03
 -1      1208 5.41978E-03
 -1      1209 3.60502E-03
 -1      1210 1.64306E-03
 -1      1211 9.21897E-04
 -1      1212 1.16141E-03
 -1      1213 7.90885E-04
 -1      1214 4.46786E-04
 -1      1215 4.62271E-04
 -1      1216 5.96926E-04
 -1      1217 6.57483E-04
 -1      1218 6.73574E-04
 -1      1219 6.73813E-04
 -1      1220 6.68436E-04
 -1      1221 6.40416E-04
 -1      1222 5.73879E-04
 -1      1223 4.40585E-04
 -1      1224 4.44316E-04
 -1      1225 9.59343E-04
 -1      1226 1.66902E-03
 -1      1227 1.27830E-03
 -1      1228 2.56626E+01
 -1      1229 3.72307E+01
 -1      1230 4.86642E+01
 -1      1231 3.51328E+01
 -1      1232 1.72402E+01
 -1      1233 1.32653E+01
 -1      1234 1.36514E+01
 -1      1235 1.31487E+01
 -1      1236 1.26461E+01
 -1      1237 1.31057E+01
 -1      1238 2.42939E+01
 -1      1239 3.50224E+01
 -1      1240 3.05802E+01
 -1      1241 2.62100E+01
 -1      1242 2.62821E+01
 -1      1243 2.60044E+01
 -1      1244 3.09163E+01
 -1      1245 3.61057E+01
 -1      1246 2.53709E+01
 -1      1247 1.37328E+01
 -1      1248 1.28294E+01
 -1      1249 1.28630E+01
 -1      1250 1.30065E+01
 -1      1251 1.31165E+01
 -1      1252 1.66244E+01
 -1      1253 3.38149E+01
 -1      1254 4.74974E+01
 -1      1255 3.61551E+01
 -1      1256 2.51704E+01
 -1      1257 1.27537E+01
 -1      1258 4.69397E+00
 -1      1259 9.29907E+00
 -1      1260 2.09899E+00
 -1      1261 2.94216E+00
 -1      1262 4.09265E+00
 -1      1263 1.48023E+00
 -1      1264 1.72764E+00
 -1      1265 1.96950E+00
 -1      1266 1.15808E+00
 -1      1267 1.29365E+00
 -1      1268 1.41157E+00
 -1      1269 9.45431E-01
 -1      1270 1.04168E+00
 -1      1271 1.10859E+00
 -1      1272 7.87270E-01
 -1      1273 8.61122E-01
 -1      1274 9.07888E-01
 -1      1275 6.64528E-01
 -1      1276 7.21772E-01
 -1      1277 7.58082E-01
 -1      1278 6.03129E-01
 -1      1279 6.15625E-01
 -1      1280 6.43681E-01
 -1      1281 6.93451E-01
 -1      1282 6.38438E-01
 -1      1283 6.30086E-01
 -1      1284 8.29192E-01
 -1      1285 7.56930E-01
 -1      1286 7.28874E-01
 -1      1287 1.02595E+00
 -1      1288 9.20490E-01
 -1      1289 8.83650E-01
 -1      1290 1.29712E+00
 -1      1291 1.15148E+00
 -1      1292 1.10048E+00
 -1      1293 1.74233E+00
 -1      1294 1.49100E+00
 -1      1295 1.41988E+00
 -1      1296 2.84912E+00
 -1      1297 2.09990E+00
 -1      1298 1.97132E+00
 -1      1299 6.01402E+00
 -1      1300 3.57548E+00
 -1      1301 3.05525E+00
 -1      1302 1.36130E+01
 -1      1303 1.09297E+01
 -1      1304 8.69732E+00
 -1      1305 1.36130E+01
 -1      1306 8.45301E+00
 -1      1307 4.15235E+00
 -1      1308 3.58666E+00
 -1      1309 3.02096E+00
 -1      1310 3.58666E+00
 -1      1311 2.41359E+00
 -1      1312 1.80621E+00
 -1      1313 2.41359E+00
 -1      1314 1.53512E+00
 -1      1315 1.26403E+00
 -1      1316 1.53512E+00
 -1      1317 1.06437E+00
 -1      1318 8.64714E-01
 -1      1319 1.06437E+00
 -1      1320 7.32004E-01
 -1      1321 5.99293E-01
 -1      1322 7.32004E-01
 -1      1323 5.84401E-01
 -1      1324 5.77360E-01
 -1      1325 5.84401E-01
 -1      1326 5.85210E-01
 -1      1327 6.47682E-01
 -1      1328 5.77360E-01
 -1      1329 7.10153E-01
 -1      1330 7.10153E-01
 -1      1331 6.47682E-01
 -1      1332 6.95357E-01
 -1      1333 7.15211E-01
 -1      1334 6.95357E-01
 -1      1335 7.49863E-01
 -1      1336 8.03383E-01
 -1      1337 7.15211E-01
 -1      1338 8.56903E-01
 -1      1339 1.01986E+00
 -1      1340 8.03383E-01
 -1      1341 1.20971E+00
 -1      1342 1.54982E+00
 -1      1343 1.04675E+00
 -1      1344 1.86304E+00
 -1      1345 2.26281E+00
 -1      1346 1.54982E+00
 -1      1347 2.66258E+00
 -1      1348 2.81784E+00
 -1      1349 2.26281E+00
 -1      1350 2.97311E+00
 -1      1351 2.97679E+00
 -1      1352 2.81784E+00
 -1      1353 2.98047E+00
 -1      1354 2.98047E+00
 -1      1355 2.97679E+00
 -1      1356 2.89415E+00
 -1      1357 2.80783E+00
 -1      1358 2.89415E+00
 -1      1359 2.44655E+00
 -1      1360 2.08527E+00
 -1      1361 2.44655E+00
 -1      1362 1.73126E+00
 -1      1363 1.33882E+00
 -1      1364 1.73126E+00
 -1      1365 1.16214E+00
 -1      1366 1.02388E+00
 -1      1367 1.20057E+00
 -1      1368 9.48855E-01
 -1      1369 8.73826E-01
 -1      1370 9.48855E-01
 -1      1371 8.63772E-01
 -1      1372 8.53719E-01
 -1      1373 8.63772E-01
 -1      1374 8.34888E-01
 -1      1375 8.16057E-01
 -1      1376 8.34888E-01
 -1      1377 8.05499E-01
 -1      1378 7.94941E-01
 -1      1379 8.05499E-01
 -1      1380 7.45346E-01
 -1      1381 6.95751E-01
 -1      1382 7.45346E-01
 -1      1383 6.32976E-01
 -1      1384 5.67357E-01
 -1      1385 6.32976E-01
 -1      1386 5.21948E-01
 -1      1387 4.63916E-01
 -1      1388 5.24791E-01
 -1      1389 4.29243E-01
 -1      1390 3.84549E-01
 -1      1391 4.44708E-01
 -1      1392 3.45860E-01
 -1      1393 3.22471E-01
 -1      1394 3.71345E-01
 -1      1395 2.86014E-01
 -1      1396 2.59742E-01
 -1      1397 2.96199E-01
 -1      1398 2.33951E-01
 -1      1399 2.08160E-01
 -1      1400 2.33951E-01
 -1      1401 1.85439E-01
 -1      1402 1.62066E-01
 -1      1403 1.85439E-01
 -1      1404 1.44252E-01
 -1      1405 1.24209E-01
 -1      1406 1.44903E-01
 -1      1407 1.08904E-01
 -1      1408 9.38263E-02
 -1      1409 1.11784E-01
 -1      1410 8.41730E-02
 -1      1411 7.71727E-02
 -1      1412 8.68260E-02
 -1      1413 7.03165E-02
 -1      1414 6.34603E-02
 -1      1415 7.03165E-02
 -1      1416 5.71557E-02
 -1      1417 5.08511E-02
 -1      1418 5.71557E-02
 -1      1419 4.52948E-02
 -1      1420 3.97386E-02
 -1      1421 4.52948E-02
 -1      1422 3.49877E-02
 -1      1423 3.02368E-02
 -1      1424 3.49877E-02
 -1      1425 2.65554E-02
 -1      1426 2.25795E-02
 -1      1427 2.65554E-02
 -1      1428 2.02792E-02
 -1      1429 1.82734E-02
 -1      1430 2.05737E-02
 -1      1431 1.64400E-02
 -1      1432 1.46065E-02
 -1      1433 1.64400E-02
 -1      1434 1.28408E-02
 -1      1435 1.10751E-02
 -1      1436 1.28408E-02
 -1      1437 9.50214E-03
 -1      1438 7.81526E-03
 -1      1439 9.50214E-03
 -1      1440 6.52457E-03
 -1      1441 5.28912E-03
 -1      1442 6.63853E-03
 -1      1443 4.85935E-03
 -1      1444 4.48829E-03
 -1      1445 4.91806E-03
 -1      1446 3.75319E-03
 -1      1447 3.01810E-03
 -1      1448 3.75319E-03
 -1      1449 2.48745E-03
 -1      1450 2.48745E-03
 -1      1451 3.33806E+00
 -1      1452 8.47554E+00
 -1      1453 8.47554E+00
 -1      1454 2.27414E+00
 -1      1455 2.80610E+00
 -1      1456 2.80610E+00
 -1      1457 1.62298E+00
 -1      1458 1.94856E+00
 -1      1459 1.94856E+00
 -1      1460 1.40296E+00
 -1      1461 1.51297E+00
 -1      1462 1.51297E+00
 -1      1463 1.21608E+00
 -1      1464 1.30952E+00
 -1      1465 1.30952E+00
 -1      1466 1.06914E+00
 -1      1467 1.12570E+00
 -1      1468 1.12570E+00
 -1      1469 1.12030E+00
 -1      1470 1.10296E+00
 -1      1471 1.06914E+00
 -1      1472 1.13764E+00
 -1      1473 1.13764E+00
 -1      1474 1.12030E+00
 -1      1475 1.31274E+00
 -1      1476 1.15589E+00
 -1      1477 1.15589E+00
 -1      1478 1.59227E+00
 -1      1479 1.45134E+00
 -1      1480 1.31274E+00
 -1      1481 1.83800E+00
 -1      1482 1.73319E+00
 -1      1483 1.59227E+00
 -1      1484 2.06800E+00
 -1      1485 1.94280E+00
 -1      1486 1.83800E+00
 -1      1487 2.34968E+00
 -1      1488 2.19321E+00
 -1      1489 2.06800E+00
 -1      1490 2.96208E+00
 -1      1491 2.50615E+00
 -1      1492 2.34968E+00
 -1      1493 4.24953E+00
 -1      1494 3.41801E+00
 -1      1495 2.96208E+00
 -1      1496 5.43502E+00
 -1      1497 5.08105E+00
 -1      1498 4.24953E+00
 -1      1499 5.78900E+00
 -1      1500 5.78900E+00
 -1      1501 5.43502E+00
 -1      1502 5.33217E+00
 -1      1503 5.56059E+00
 -1      1504 5.56059E+00
 -1      1505 3.03948E+00
 -1      1506 4.18583E+00
 -1      1507 4.18583E+00
 -1      1508 1.81838E+00
 -1      1509 2.42893E+00
 -1      1510 2.42893E+00
 -1      1511 1.80583E+00
 -1      1512 1.75764E+00
 -1      1513 1.75764E+00
 -1      1514 1.99717E+00
 -1      1515 1.91476E+00
 -1      1516 1.80583E+00
 -1      1517 2.07958E+00
 -1      1518 2.07958E+00
 -1      1519 1.99717E+00
 -1      1520 1.91260E+00
 -1      1521 1.99609E+00
 -1      1522 1.99609E+00
 -1      1523 1.60598E+00
 -1      1524 1.75929E+00
 -1      1525 1.75929E+00
 -1      1526 1.33732E+00
 -1      1527 1.47165E+00
 -1      1528 1.47165E+00
 -1      1529 1.07592E+00
 -1      1530 1.21379E+00
 -1      1531 1.21379E+00
 -1      1532 8.33891E-01
 -1      1533 9.59015E-01
 -1      1534 9.73361E-01
 -1      1535 6.25449E-01
 -1      1536 7.30973E-01
 -1      1537 7.53539E-01
 -1      1538 4.56771E-01
 -1      1539 5.40102E-01
 -1      1540 5.65274E-01
 -1      1541 3.39542E-01
 -1      1542 3.89904E-01
 -1      1543 4.13060E-01
 -1      1544 2.50180E-01
 -1      1545 2.91536E-01
 -1      1546 2.98186E-01
 -1      1547 1.84214E-01
 -1      1548 2.17197E-01
 -1      1549 2.17197E-01
 -1      1550 1.33498E-01
 -1      1551 1.59209E-01
 -1      1552 1.59209E-01
 -1      1553 9.51546E-02
 -1      1554 1.14815E-01
 -1      1555 1.15520E-01
 -1      1556 6.60945E-02
 -1      1557 8.08666E-02
 -1      1558 8.25491E-02
 -1      1559 4.84444E-02
 -1      1560 5.61861E-02
 -1      1561 5.83527E-02
 -1      1562 3.97554E-02
 -1      1563 4.40999E-02
 -1      1564 4.40999E-02
 -1      1565 3.19474E-02
 -1      1566 3.58514E-02
 -1      1567 3.58514E-02
 -1      1568 2.51243E-02
 -1      1569 2.85358E-02
 -1      1570 2.85358E-02
 -1      1571 1.95563E-02
 -1      1572 2.23403E-02
 -1      1573 2.23403E-02
 -1      1574 1.72946E-02
 -1      1575 1.84254E-02
 -1      1576 1.84254E-02
 -1      1577 1.46794E-02
 -1      1578 1.59870E-02
 -1      1579 1.59870E-02
 -1      1580 1.18887E-02
 -1      1581 1.32840E-02
 -1      1582 1.32840E-02
 -1      1583 8.98919E-03
 -1      1584 1.04389E-02
 -1      1585 1.04389E-02
 -1      1586 6.33417E-03
 -1      1587 7.66168E-03
 -1      1588 7.66168E-03
 -1      1589 4.50540E-03
 -1      1590 5.41978E-03
 -1      1591 5.41978E-03
 -1      1592 2.70464E-03
 -1      1593 3.60502E-03
 -1      1594 3.60502E-03
 -1      1595 1.98347E-03
 -1      1596 1.08596E-03
 -1      1597 1.18685E-03
 -1      1598 7.53004E-04
 -1      1599 1.02264E-03
 -1      1600 1.04808E-03
 -1      1601 4.84289E-04
 -1      1602 5.58754E-04
 -1      1603 7.90507E-04
 -1      1604 7.37936E-04
 -1      1605 6.47986E-04
 -1      1606 7.59954E-04
 -1      1607 8.74737E-04
 -1      1608 8.30032E-04
 -1      1609 1.01575E-03
 -1      1610 9.27311E-04
 -1      1611 9.11459E-04
 -1      1612 1.14456E-03
 -1      1613 9.33974E-04
 -1      1614 9.33735E-04
 -1      1615 1.18771E-03
 -1      1616 9.33974E-04
 -1      1617 9.33974E-04
 -1      1618 1.19414E-03
 -1      1619 9.26775E-04
 -1      1620 9.32153E-04
 -1      1621 1.19231E-03
 -1      1622 8.85591E-04
 -1      1623 9.08234E-04
 -1      1624 1.17195E-03
 -1      1625 8.00419E-04
 -1      1626 8.44312E-04
 -1      1627 1.11213E-03
 -1      1628 6.21776E-04
 -1      1629 7.11177E-04
 -1      1630 9.81609E-04
 -1      1631 6.00947E-04
 -1      1632 5.07816E-04
 -1      1633 7.78408E-04
 -1      1634 1.02284E-03
 -1      1635 6.00947E-04
 -1      1636 6.64448E-04
 -1      1637 1.89946E-03
 -1      1638 1.61168E-03
 -1      1639 1.25328E-03
 -1      1640 2.43011E-03
 -1      1641 2.81670E+01
 -1      1642 2.80326E+01
 -1      1643 3.87433E+01
 -1      1644 2.73097E+01
 -1      1645 4.86642E+01
 -1      1646 4.86642E+01
 -1      1647 2.26552E+01
 -1      1648 3.61866E+01
 -1      1649 1.25395E+01
 -1      1650 1.69006E+01
 -1      1651 1.32653E+01
 -1      1652 1.28792E+01
 -1      1653 1.36514E+01
 -1      1654 1.36514E+01
 -1      1655 1.24043E+01
 -1      1656 1.29070E+01
 -1      1657 1.26461E+01
 -1      1658 1.26461E+01
 -1      1659 1.29828E+01
 -1      1660 1.25232E+01
 -1      1661 2.42939E+01
 -1      1662 1.35654E+01
 -1      1663 3.50224E+01
 -1      1664 3.50224E+01
 -1      1665 3.01093E+01
 -1      1666 3.45515E+01
 -1      1667 2.64267E+01
 -1      1668 2.63546E+01
 -1      1669 3.00465E+01
 -1      1670 3.00465E+01
 -1      1671 2.54186E+01
 -1      1672 2.56962E+01
 -1      1673 3.46128E+01
 -1      1674 2.94234E+01
 -1      1675 3.61057E+01
 -1      1676 3.61057E+01
 -1      1677 1.46362E+01
 -1      1678 2.53709E+01
 -1      1679 1.22165E+01
 -1      1680 1.31199E+01
 -1      1681 1.28294E+01
 -1      1682 1.28294E+01
 -1      1683 1.26990E+01
 -1      1684 1.26654E+01
 -1      1685 1.30065E+01
 -1      1686 1.28966E+01
 -1      1687 1.31165E+01
 -1      1688 1.31165E+01
 -1      1689 1.55650E+01
 -1      1690 1.20571E+01
 -1      1691 3.46593E+01
 -1      1692 2.09768E+01
 -1      1693 4.74974E+01
 -1      1694 4.74974E+01
 -1      1695 2.67420E+01
 -1      1696 3.80843E+01
 -1      1697 2.80326E+01
 -1      1698 2.76749E+01
 -1      1699 1.79544E+01
 -1      1700 3.61866E+01
 -1      1701 1.98347E-03
 -1      1702 1.90802E-03
 -1      1703 2.96797E+01
 -1      1704 3.87433E+01
 -1      1705 3.05370E+01
 -1      1706 1.25395E+01
 -1      1707 1.32653E+01
 -1      1708 1.29070E+01
 -1      1709 1.24043E+01
 -1      1710 1.25232E+01
 -1      1711 1.29828E+01
 -1      1712 2.42939E+01
 -1      1713 3.45515E+01
 -1      1714 3.03260E+01
 -1      1715 3.01911E+01
 -1      1716 2.94607E+01
 -1      1717 2.91151E+01
 -1      1718 3.46128E+01
 -1      1719 2.53709E+01
 -1      1720 1.31199E+01
 -1      1721 1.22165E+01
 -1      1722 1.26654E+01
 -1      1723 1.26990E+01
 -1      1724 1.30065E+01
 -1      1725 1.20571E+01
 -1      1726 1.64094E+01
 -1      1727 3.46593E+01
 -1      1728 3.80843E+01
 -1      1729 2.96041E+01
 -1      1730 9.29907E+00
 -1      1731 1.36668E+00
 -1      1732 1.73802E+00
 -1      1733 2.37146E+00
 -1      1734 4.12327E+00
 -1      1735 1.76864E+00
 -1      1736 9.24203E-01
 -1      1737 1.04060E+00
 -1      1738 7.71318E-01
 -1      1739 8.55627E-01
 -1      1740 7.87633E-01
 -1      1741 6.51307E-01
 -1      1742 7.16805E-01
 -1      1743 6.64544E-01
 -1      1744 5.54845E-01
 -1      1745 6.03748E-01
 -1      1746 5.62472E-01
 -1      1747 5.77934E-01
 -1      1748 5.42625E-01
 -1      1749 5.02692E-01
 -1      1750 6.87019E-01
 -1      1751 6.23541E-01
 -1      1752 5.36079E-01
 -1      1753 8.39145E-01
 -1      1754 7.47847E-01
 -1      1755 6.42514E-01
 -1      1756 1.03650E+00
 -1      1757 9.10974E-01
 -1      1758 7.75171E-01
 -1      1759 1.31565E+00
 -1      1760 1.12178E+00
 -1      1761 9.32274E-01
 -1      1762 1.79446E+00
 -1      1763 1.43689E+00
 -1      1764 1.13879E+00
 -1      1765 2.57747E+00
 -1      1766 1.85110E+00
 -1      1767 1.31668E+00
 -1      1768 7.77858E+00
 -1      1769 2.86288E+00
 -1      1770 1.65873E+00
 -1      1771 2.64110E+00
 -1      1772 4.99840E+00
 -1      1773 1.92607E+00
 -1      1774 2.45803E+00
 -1      1775 1.76107E+00
 -1      1776 3.27721E+00
 -1      1777 2.21920E+00
 -1      1778 1.61182E+00
 -1      1779 1.34287E+00
 -1      1780 1.07178E+00
 -1      1781 1.14848E+00
 -1      1782 9.36495E-01
 -1      1783 7.36836E-01
 -1      1784 7.44244E-01
 -1      1785 6.44976E-01
 -1      1786 5.12266E-01
 -1      1787 5.17098E-01
 -1      1788 4.90438E-01
 -1      1789 4.75546E-01
 -1      1790 4.03411E-01
 -1      1791 4.78015E-01
 -1      1792 4.85866E-01
 -1      1793 3.84052E-01
 -1      1794 4.95282E-01
 -1      1795 5.57754E-01
 -1      1796 3.95938E-01
 -1      1797 5.57268E-01
 -1      1798 5.42471E-01
 -1      1799 4.04868E-01
 -1      1800 5.53913E-01
 -1      1801 5.88565E-01
 -1      1802 4.15824E-01
 -1      1803 6.81519E-01
 -1      1804 7.35039E-01
 -1      1805 5.20221E-01
 -1      1806 9.01445E-01
 -1      1807 1.09130E+00
 -1      1808 7.79581E-01
 -1      1809 1.28556E+00
 -1      1810 1.59877E+00
 -1      1811 1.14025E+00
 -1      1812 1.77524E+00
 -1      1813 2.17501E+00
 -1      1814 1.51098E+00
 -1      1815 2.29196E+00
 -1      1816 2.44723E+00
 -1      1817 1.80439E+00
 -1      1818 2.40677E+00
 -1      1819 2.41045E+00
 -1      1820 1.88089E+00
 -1      1821 2.46436E+00
 -1      1822 2.37804E+00
 -1      1823 1.89434E+00
 -1      1824 2.29205E+00
 -1      1825 1.93077E+00
 -1      1826 1.86226E+00
 -1      1827 1.73349E+00
 -1      1828 1.37949E+00
 -1      1829 1.57900E+00
 -1      1830 1.19469E+00
 -1      1831 1.01800E+00
 -1      1832 1.19691E+00
 -1      1833 7.93652E-01
 -1      1834 7.18623E-01
 -1      1835 7.87764E-01
 -1      1836 6.40851E-01
 -1      1837 6.30798E-01
 -1      1838 4.85648E-01
 -1      1839 6.65645E-01
 -1      1840 6.46814E-01
 -1      1841 4.42724E-01
 -1      1842 7.02990E-01
 -1      1843 6.92432E-01
 -1      1844 5.33747E-01
 -1      1845 6.98713E-01
 -1      1846 6.49118E-01
 -1      1847 5.96204E-01
 -1      1848 6.24568E-01
 -1      1849 5.61793E-01
 -1      1850 5.77935E-01
 -1      1851 5.31138E-01
 -1      1852 4.85728E-01
 -1      1853 5.22730E-01
 -1      1854 4.57375E-01
 -1      1855 4.22701E-01
 -1      1856 4.63722E-01
 -1      1857 3.92156E-01
 -1      1858 3.53467E-01
 -1      1859 4.04824E-01
 -1      1860 3.19877E-01
 -1      1861 2.83420E-01
 -1      1862 3.40688E-01
 -1      1863 2.50888E-01
 -1      1864 2.25097E-01
 -1      1865 2.74566E-01
 -1      1866 1.95978E-01
 -1      1867 1.73256E-01
 -1      1868 2.12915E-01
 -1      1869 1.48616E-01
 -1      1870 1.30802E-01
 -1      1871 1.59155E-01
 -1      1872 1.11784E-01
 -1      1873 9.64794E-02
 -1      1874 1.15497E-01
 -1      1875 8.38297E-02
 -1      1876 7.41764E-02
 -1      1877 8.38297E-02
 -1      1878 6.41521E-02
 -1      1879 5.72959E-02
 -1      1880 6.11558E-02
 -1      1881 5.09079E-02
 -1      1882 4.46032E-02
 -1      1883 4.47435E-02
 -1      1884 4.14757E-02
 -1      1885 3.59195E-02
 -1      1886 3.52279E-02
 -1      1887 3.29109E-02
 -1      1888 2.81600E-02
 -1      1889 2.90917E-02
 -1      1890 2.53978E-02
 -1      1891 2.17163E-02
 -1      1892 2.33210E-02
 -1      1893 1.92583E-02
 -1      1894 1.69581E-02
 -1      1895 1.81008E-02
 -1      1896 1.50962E-02
 -1      1897 1.32628E-02
 -1      1898 1.37809E-02
 -1      1899 1.21950E-02
 -1      1900 1.04293E-02
 -1      1901 1.08513E-02
 -1      1902 9.28708E-03
 -1      1903 7.71417E-03
 -1      1904 8.64130E-03
 -1      1905 6.63853E-03
 -1      1906 5.34783E-03
 -1      1907 6.42347E-03
 -1      1908 4.50602E-03
 -1      1909 4.07625E-03
 -1      1910 4.50602E-03
 -1      1911 3.58028E-03
 -1      1912 2.84518E-03
 -1      1913 2.25719E-03
 -1      1914 3.16824E-03
 -1      1915 1.27978E+00
 -1      1916 1.60536E+00
 -1      1917 1.25730E+00
 -1      1918 1.07477E+00
 -1      1919 1.18478E+00
 -1      1920 8.41584E-01
 -1      1921 9.66251E-01
 -1      1922 1.05969E+00
 -1      1923 7.31500E-01
 -1      1924 9.10994E-01
 -1      1925 1.00137E+00
 -1      1926 7.51544E-01
 -1      1927 1.07840E+00
 -1      1928 1.04458E+00
 -1      1929 9.20252E-01
 -1      1930 1.19568E+00
 -1      1931 1.17833E+00
 -1      1932 1.15378E+00
 -1      1933 1.29473E+00
 -1      1934 1.27648E+00
 -1      1935 1.33452E+00
 -1      1936 1.45557E+00
 -1      1937 1.31697E+00
 -1      1938 1.43756E+00
 -1      1939 1.56872E+00
 -1      1940 1.42780E+00
 -1      1941 1.43203E+00
 -1      1942 1.64210E+00
 -1      1943 1.53729E+00
 -1      1944 1.37282E+00
 -1      1945 1.81780E+00
 -1      1946 1.69259E+00
 -1      1947 1.39189E+00
 -1      1948 2.38576E+00
 -1      1949 2.22929E+00
 -1      1950 1.85388E+00
 -1      1951 3.12423E+00
 -1      1952 2.66829E+00
 -1      1953 2.54791E+00
 -1      1954 4.32930E+00
 -1      1955 3.49779E+00
 -1      1956 3.20400E+00
 -1      1957 4.64744E+00
 -1      1958 4.29346E+00
 -1      1959 3.54172E+00
 -1      1960 4.22320E+00
 -1      1961 4.45161E+00
 -1      1962 3.31005E+00
 -1      1963 2.59564E+00
 -1      1964 3.74199E+00
 -1      1965 2.63301E+00
 -1      1966 1.76413E+00
 -1      1967 2.37469E+00
 -1      1968 1.93085E+00
 -1      1969 1.55499E+00
 -1      1970 1.61573E+00
 -1      1971 1.56148E+00
 -1      1972 1.74990E+00
 -1      1973 1.64098E+00
 -1      1974 1.49907E+00
 -1      1975 1.81849E+00
 -1      1976 1.73608E+00
 -1      1977 1.57123E+00
 -1      1978 1.72135E+00
 -1      1979 1.80484E+00
 -1      1980 1.54375E+00
 -1      1981 1.49471E+00
 -1      1982 1.64802E+00
 -1      1983 1.45677E+00
 -1      1984 1.27680E+00
 -1      1985 1.41113E+00
 -1      1986 1.29986E+00
 -1      1987 1.05095E+00
 -1      1988 1.17447E+00
 -1      1989 1.11395E+00
 -1      1990 8.33646E-01
 -1      1991 9.50550E-01
 -1      1992 9.11231E-01
 -1      1993 6.39208E-01
 -1      1994 7.42126E-01
 -1      1995 7.19315E-01
 -1      1996 4.76102E-01
 -1      1997 5.61449E-01
 -1      1998 5.50036E-01
 -1      1999 3.46192E-01
 -1      2000 4.13060E-01
 -1      2001 4.09234E-01
 -1      2002 2.48781E-01
 -1      2003 2.96787E-01
 -1      2004 2.96787E-01
 -1      2005 1.83220E-01
 -1      2006 2.16202E-01
 -1      2007 2.14804E-01
 -1      2008 1.34203E-01
 -1      2009 1.59209E-01
 -1      2010 1.58214E-01
 -1      2011 9.68370E-02
 -1      2012 1.15520E-01
 -1      2013 1.15520E-01
 -1      2014 6.82611E-02
 -1      2015 8.25491E-02
 -1      2016 8.25491E-02
 -1      2017 4.76029E-02
 -1      2018 5.75113E-02
 -1      2019 5.75113E-02
 -1      2020 3.53049E-02
 -1      2021 3.96493E-02
 -1      2022 3.88079E-02
 -1      2023 2.86781E-02
 -1      2024 3.25821E-02
 -1      2025 2.81316E-02
 -1      2026 2.31074E-02
 -1      2027 2.65189E-02
 -1      2028 2.32497E-02
 -1      2029 1.82520E-02
 -1      2030 2.10360E-02
 -1      2031 1.90191E-02
 -1      2032 1.52126E-02
 -1      2033 1.63435E-02
 -1      2034 1.50392E-02
 -1      2035 1.21947E-02
 -1      2036 1.35023E-02
 -1      2037 1.14203E-02
 -1      2038 1.00625E-02
 -1      2039 1.14578E-02
 -1      2040 8.97313E-03
 -1      2041 7.79299E-03
 -1      2042 9.24272E-03
 -1      2043 7.41654E-03
 -1      2044 5.71594E-03
 -1      2045 7.04345E-03
 -1      2046 5.84725E-03
 -1      2047 4.09458E-03
 -1      2048 5.00897E-03
 -1      2049 4.39074E-03
 -1      2050 2.63145E-03
 -1      2051 3.53182E-03
 -1      2052 3.12101E-03
 -1      2053 1.83483E-03
 -1      2054 1.08903E-03
 -1      2055 9.25330E-04
 -1      2056 1.27277E-03
 -1      2057 1.46702E-03
 -1      2058 1.60185E-03
 -1      2059 1.47452E-03
 -1      2060 1.53784E-03
 -1      2061 2.26126E-03
 -1      2062 1.95678E-03
 -1      2063 1.27367E-03
 -1      2064 1.18157E-03
 -1      2065 1.34695E-03
 -1      2066 1.34166E-03
 -1      2067 1.30493E-03
 -1      2068 1.47076E-03
 -1      2069 1.34808E-03
 -1      2070 1.34166E-03
 -1      2071 1.50203E-03
 -1      2072 1.34006E-03
 -1      2073 1.34006E-03
 -1      2074 1.49400E-03
 -1      2075 1.33081E-03
 -1      2076 1.33263E-03
 -1      2077 1.47855E-03
 -1      2078 1.31227E-03
 -1      2079 1.33081E-03
 -1      2080 1.47113E-03
 -1      2081 1.26416E-03
 -1      2082 1.30544E-03
 -1      2083 1.46430E-03
 -1      2084 1.13993E-03
 -1      2085 1.22918E-03
 -1      2086 1.42249E-03
 -1      2087 9.35834E-04
 -1      2088 1.04979E-03
 -1      2089 1.29736E-03
 -1      2090 1.41103E-03
 -1      2091 1.41103E-03
 -1      2092 1.68241E-03
 -1      2093 3.87433E+01
 -1      2094 2.88224E+01
 -1      2095 3.23964E+01
 -1      2096 3.23964E+01
 -1      2097 3.15391E+01
 -1      2098 3.23964E+01
 -1      2099 2.05570E+01
 -1      2100 3.30346E+01
 -1      2101 1.11608E+01
 -1      2102 1.69154E+01
 -1      2103 1.11518E+00
 -1      2104 1.30176E+00
 -1      2105 1.07029E+00
 -1      2106 9.30792E-01
 -1      2107 1.14018E+01
 -1      2108 1.10157E+01
 -1      2109 1.13521E+01
 -1      2110 1.20964E+01
 -1      2111 1.15431E+01
 -1      2112 1.13013E+01
 -1      2113 1.04908E+01
 -1      2114 1.05086E+01
 -1      2115 1.06315E+01
 -1      2116 9.85032E+00
 -1      2117 9.26779E+00
 -1      2118 2.37115E+01
 -1      2119 1.29830E+01
 -1      2120 9.26792E+00
 -1      2121 2.79802E+01
 -1      2122 2.84510E+01
 -1      2123 2.49956E+01
 -1      2124 2.87503E+01
 -1      2125 2.26498E+01
 -1      2126 3.28912E+01
 -1      2127 2.92713E+01
 -1      2128 2.94607E+01
 -1      2129 3.38110E+01
 -1      2130 2.92502E+01
 -1      2131 2.52454E+01
 -1      2132 2.95957E+01
 -1      2133 2.87530E+01
 -1      2134 2.72601E+01
 -1      2135 1.36614E+01
 -1      2136 2.43962E+01
 -1      2137 9.83766E+00
 -1      2138 1.13539E+01
 -1      2139 1.06494E+01
 -1      2140 1.00366E+01
 -1      2141 8.27052E+00
 -1      2142 1.16850E+01
 -1      2143 1.18490E+01
 -1      2144 1.14319E+01
 -1      2145 1.12343E+01
 -1      2146 1.15793E+01
 -1      2147 1.14693E+01
 -1      2148 8.88461E+00
 -1      2149 9.94404E+00
 -1      2150 1.55467E+01
 -1      2151 1.01349E+01
 -1      2152 3.20669E+01
 -1      2153 1.92288E+01
 -1      2154 2.86712E+01
 -1      2155 3.80843E+01
 -1      2156 2.96688E+01
 -1      2157 2.87359E+01
 -1      2158 1.00056E+01
 -1      2159 9.66586E+00
 -1      2160 1.37634E+01
 -1      2161 2.71152E+00
 -1      2162 8.62685E+00
 -1      2163 8.14207E+00
 -1      2164 1.90975E+00
 -1      2165 2.63754E+01
 -1      2166 2.90922E+01
 -1      2167 2.63754E+01
 -1      2168 3.42559E+01
 -1      2169 1.99986E-03
 -1      2170 2.31137E+01
 -1      2171 3.15283E+01
 -1      2172 2.87359E+01
 -1      2173 2.26538E+01
 -1      2174 1.29543E+01
 -1      2175 8.02188E+00
 -1      2176 8.40680E+00
 -1      2177 1.00046E+01
 -1      2178 9.66907E+00
 -1      2179 1.06685E+01
 -1      2180 9.69369E+00
 -1      2181 7.38616E+00
 -1      2182 2.33904E+01
 -1      2183 2.76957E+01
 -1      2184 1.71401E+01
 -1      2185 9.52845E+00
 -1      2186 1.16869E+01
 -1      2187 9.43734E+00
 -1      2188 1.01320E+01
 -1      2189 8.75959E+00
 -1      2190 6.86788E+00
 -1      2191 5.62709E+00
 -1      2192 3.38110E+01
 -1      2193 3.28912E+01
 -1      2194 3.38110E+01
 -1      2195 1.70435E+01
 -1      2196 1.04180E+01
 -1      2197 8.77788E-01
 -1      2198 1.19850E+00
 -1      2199 5.64728E-01
 -1      2200 6.19242E-01
 -1      2201 6.52292E-01
 -1      2202 7.20868E-01
 -1      2203 5.52477E-01
 -1      2204 4.20843E-01
 -1      2205 4.33063E-01
 -1      2206 4.86408E-01
 -1      2207 4.40801E-01
 -1      2208 3.71171E-01
 -1      2209 5.91796E-01
 -1      2210 5.30968E-01
 -1      2211 4.35689E-01
 -1      2212 7.05238E-01
 -1      2213 6.33410E-01
 -1      2214 5.21863E-01
 -1      2215 8.28799E-01
 -1      2216 7.43525E-01
 -1      2217 6.01763E-01
 -1      2218 1.09242E+00
 -1      2219 9.71179E-01
 -1      2220 7.82430E-01
 -1      2221 6.08628E-01
 -1      2222 7.03636E-01
 -1      2223 6.44833E-01
 -1      2224 1.00055E+00
 -1      2225 7.31600E-01
 -1      2226 6.38339E+00
 -1      2227 7.87834E+00
 -1      2228 6.35279E-01
 -1      2229 4.99994E-01
 -1      2230 4.87351E-01
 -1      2231 4.56673E-01
 -1      2232 3.64813E-01
 -1      2233 3.47709E-01
 -1      2234 3.78983E-01
 -1      2235 3.57155E-01
 -1      2236 3.18558E-01
 -1      2237 3.83775E-01
 -1      2238 3.86244E-01
 -1      2239 3.59347E-01
 -1      2240 4.11469E-01
 -1      2241 4.20885E-01
 -1      2242 4.11191E-01
 -1      2243 4.48765E-01
 -1      2244 4.48279E-01
 -1      2245 4.64296E-01
 -1      2246 5.22662E-01
 -1      2247 5.34104E-01
 -1      2248 5.66558E-01
 -1      2249 5.92511E-01
 -1      2250 6.85466E-01
 -1      2251 6.99349E-01
 -1      2252 7.83569E-01
 -1      2253 9.49974E-01
 -1      2254 8.55859E-01
 -1      2255 1.07347E+00
 -1      2256 1.26774E+00
 -1      2257 1.07746E+00
 -1      2258 1.33657E+00
 -1      2259 1.51303E+00
 -1      2260 1.26980E+00
 -1      2261 1.64270E+00
 -1      2262 1.75965E+00
 -1      2263 1.46829E+00
 -1      2264 1.81444E+00
 -1      2265 1.77398E+00
 -1      2266 1.65275E+00
 -1      2267 1.79250E+00
 -1      2268 1.84641E+00
 -1      2269 1.72605E+00
 -1      2270 1.85765E+00
 -1      2271 1.77166E+00
 -1      2272 1.75581E+00
 -1      2273 1.57108E+00
 -1      2274 1.37380E+00
 -1      2275 1.56647E+00
 -1      2276 1.27423E+00
 -1      2277 1.08942E+00
 -1      2278 1.26631E+00
 -1      2279 9.78744E-01
 -1      2280 7.54400E-01
 -1      2281 1.05606E+00
 -1      2282 6.69205E-01
 -1      2283 5.91433E-01
 -1      2284 8.60184E-01
 -1      2285 5.41449E-01
 -1      2286 5.76296E-01
 -1      2287 7.25005E-01
 -1      2288 5.36523E-01
 -1      2289 5.92698E-01
 -1      2290 6.35248E-01
 -1      2291 5.96856E-01
 -1      2292 6.03137E-01
 -1      2293 5.99632E-01
 -1      2294 5.84002E-01
 -1      2295 5.59452E-01
 -1      2296 5.84655E-01
 -1      2297 5.31453E-01
 -1      2298 5.00798E-01
 -1      2299 5.37520E-01
 -1      2300 4.76329E-01
 -1      2301 4.47976E-01
 -1      2302 4.85052E-01
 -1      2303 4.20086E-01
 -1      2304 3.89541E-01
 -1      2305 4.32694E-01
 -1      2306 3.57441E-01
 -1      2307 3.23850E-01
 -1      2308 3.72704E-01
 -1      2309 2.91699E-01
 -1      2310 2.59167E-01
 -1      2311 3.08452E-01
 -1      2312 2.29517E-01
 -1      2313 2.00398E-01
 -1      2314 2.46651E-01
 -1      2315 1.74569E-01
 -1      2316 1.49928E-01
 -1      2317 1.91171E-01
 -1      2318 1.28381E-01
 -1      2319 1.09363E-01
 -1      2320 1.43794E-01
 -1      2321 9.20134E-02
 -1      2322 7.93637E-02
 -1      2323 1.04897E-01
 -1      2324 6.58216E-02
 -1      2325 5.57973E-02
 -1      2326 7.40052E-02
 -1      2327 4.55324E-02
 -1      2328 3.91443E-02
 -1      2329 5.01981E-02
 -1      2330 3.23961E-02
 -1      2331 2.92686E-02
 -1      2332 3.31851E-02
 -1      2333 2.50858E-02
 -1      2334 2.20772E-02
 -1      2335 2.22540E-02
 -1      2336 2.09135E-02
 -1      2337 1.81513E-02
 -1      2338 1.69076E-02
 -1      2339 1.68896E-02
 -1      2340 1.44316E-02
 -1      2341 1.44822E-02
 -1      2342 1.31288E-02
 -1      2343 1.12669E-02
 -1      2344 1.19176E-02
 -1      2345 1.00061E-02
 -1      2346 8.93829E-03
 -1      2347 9.35390E-03
 -1      2348 7.98533E-03
 -1      2349 6.84314E-03
 -1      2350 7.14012E-03
 -1      2351 6.16082E-03
 -1      2352 5.08518E-03
 -1      2353 5.50485E-03
 -1      2354 4.39926E-03
 -1      2355 3.55745E-03
 -1      2356 4.13661E-03
 -1      2357 7.47815E-01
 -1      2358 7.12695E-01
 -1      2359 1.00437E+00
 -1      2360 8.70778E-01
 -1      2361 8.31929E-01
 -1      2362 1.22056E+00
 -1      2363 1.12062E+00
 -1      2364 1.07115E+00
 -1      2365 1.38658E+00
 -1      2366 1.30578E+00
 -1      2367 1.27262E+00
 -1      2368 1.53584E+00
 -1      2369 1.51360E+00
 -1      2370 1.48485E+00
 -1      2371 1.65869E+00
 -1      2372 1.68647E+00
 -1      2373 1.76250E+00
 -1      2374 1.72734E+00
 -1      2375 1.75877E+00
 -1      2376 2.01321E+00
 -1      2377 1.99920E+00
 -1      2378 1.94870E+00
 -1      2379 2.33465E+00
 -1      2380 2.47592E+00
 -1      2381 2.06443E+00
 -1      2382 2.62124E+00
 -1      2383 3.03794E+00
 -1      2384 2.75541E+00
 -1      2385 2.96596E+00
 -1      2386 4.27753E+00
 -1      2387 3.90397E+00
 -1      2388 4.11147E+00
 -1      2389 3.84334E+00
 -1      2390 3.87918E+00
 -1      2391 4.57915E+00
 -1      2392 4.43570E+00
 -1      2393 4.63152E+00
 -1      2394 4.96899E+00
 -1      2395 3.08259E+00
 -1      2396 3.56380E+00
 -1      2397 4.88527E+00
 -1      2398 3.05949E+00
 -1      2399 3.28045E+00
 -1      2400 4.21124E+00
 -1      2401 3.19810E+00
 -1      2402 3.34650E+00
 -1      2403 4.69610E+00
 -1      2404 3.03534E+00
 -1      2405 2.94936E+00
 -1      2406 4.73437E+00
 -1      2407 2.66496E+00
 -1      2408 2.67879E+00
 -1      2409 4.12908E+00
 -1      2410 2.31572E+00
 -1      2411 2.32937E+00
 -1      2412 3.43693E+00
 -1      2413 2.00192E+00
 -1      2414 2.07525E+00
 -1      2415 2.86087E+00
 -1      2416 1.76539E+00
 -1      2417 1.84898E+00
 -1      2418 2.46745E+00
 -1      2419 1.47478E+00
 -1      2420 1.57710E+00
 -1      2421 2.12622E+00
 -1      2422 1.18527E+00
 -1      2423 1.28566E+00
 -1      2424 1.74882E+00
 -1      2425 9.22521E-01
 -1      2426 1.01404E+00
 -1      2427 1.38848E+00
 -1      2428 6.99191E-01
 -1      2429 7.76950E-01
 -1      2430 1.07168E+00
 -1      2431 5.17521E-01
 -1      2432 5.80563E-01
 -1      2433 8.07478E-01
 -1      2434 3.74378E-01
 -1      2435 4.23783E-01
 -1      2436 5.95112E-01
 -1      2437 2.69502E-01
 -1      2438 3.02081E-01
 -1      2439 4.29076E-01
 -1      2440 1.90874E-01
 -1      2441 2.14885E-01
 -1      2442 3.02162E-01
 -1      2443 1.31714E-01
 -1      2444 1.50397E-01
 -1      2445 2.07068E-01
 -1      2446 8.80015E-02
 -1      2447 1.02289E-01
 -1      2448 1.37166E-01
 -1      2449 5.63080E-02
 -1      2450 6.70579E-02
 -1      2451 8.67982E-02
 -1      2452 3.38158E-02
 -1      2453 4.17693E-02
 -1      2454 5.13159E-02
 -1      2455 2.54088E-02
 -1      2456 2.81316E-02
 -1      2457 3.10930E-02
 -1      2458 2.10905E-02
 -1      2459 2.32497E-02
 -1      2460 2.32497E-02
 -1      2461 1.69477E-02
 -1      2462 1.90191E-02
 -1      2463 1.90191E-02
 -1      2464 1.39275E-02
 -1      2465 1.58360E-02
 -1      2466 1.58360E-02
 -1      2467 1.14815E-02
 -1      2468 1.31919E-02
 -1      2469 1.39887E-02
 -1      2470 9.65186E-03
 -1      2471 1.03887E-02
 -1      2472 1.21602E-02
 -1      2473 7.54356E-03
 -1      2474 8.36331E-03
 -1      2475 9.77889E-03
 -1      2476 5.17765E-03
 -1      2477 5.92719E-03
 -1      2478 6.87396E-03
 -1      2479 3.60932E-03
 -1      2480 4.31629E-03
 -1      2481 4.39623E-03
 -1      2482 2.82402E-03
 -1      2483 1.64207E-03
 -1      2484 1.61080E-03
 -1      2485 1.62382E-03
 -1      2486 1.62382E-03
 -1      2487 1.76386E-03
 -1      2488 1.97584E-03
 -1      2489 2.32329E-03
 -1      2490 1.86502E-03
 -1      2491 1.77248E-03
 -1      2492 2.49392E-03
 -1      2493 2.03633E-03
 -1      2494 1.56621E-03
 -1      2495 1.57423E-03
 -1      2496 1.69602E-03
 -1      2497 1.51417E-03
 -1      2498 1.52159E-03
 -1      2499 1.60182E-03
 -1      2500 1.54202E-03
 -1      2501 1.54202E-03
 -1      2502 1.58506E-03
 -1      2503 1.56957E-03
 -1      2504 1.57640E-03
 -1      2505 1.64729E-03
 -1      2506 1.53459E-03
 -1      2507 1.56957E-03
 -1      2508 1.68167E-03
 -1      2509 1.43523E-03
 -1      2510 1.52537E-03
 -1      2511 1.67245E-03
 -1      2512 1.92227E-03
 -1      2513 1.44707E-03
 -1      2514 1.67508E-03
 -1      2515 3.42559E+01
 -1      2516 3.42559E+01
 -1      2517 1.62770E+01
 -1      2518 2.19857E+01
 -1      2519 6.03334E-01
 -1      2520 6.18410E-01
 -1      2521 5.99605E-01
 -1      2522 2.41494E-03
 -1      2523 3.15283E+01
 -1      2524 2.88007E+01
 -1      2525 1.69550E+00
 -1      2526 1.20317E+00
 -1      2527 7.86293E-01
 -1      2528 1.06206E+00
 -1      2529 2.45859E+01
 -1      2530 2.45212E+01
 -1      2531 2.76957E+01
 -1      2532 2.34200E+01
 -1      2533 7.59073E+00
 -1      2534 8.50232E+00
 -1      2535 4.76040E-01
 -1      2536 5.23598E-01
 -1      2537 4.78297E-01
 -1      2538 3.94190E-01
 -1      2539 9.17469E+00
 -1      2540 9.22541E+00
 -1      2541 7.23696E+00
 -1      2542 9.83374E+00
 -1      2543 6.70111E+00
 -1      2544 1.62521E+01
 -1      2545 1.15126E+01
 -1      2546 1.89202E+01
 -1      2547 1.81501E+01
 -1      2548 1.21223E+01
 -1      2549 1.64792E+01
 -1      2550 2.53804E+01
 -1      2551 2.95957E+01
 -1      2552 9.04165E+00
 -1      2553 9.49236E+00
 -1      2554 1.92716E+01
 -1      2555 2.12616E+01
 -1      2556 6.19312E+00
 -1      2557 5.99420E+00
 -1      2558 8.44055E+00
 -1      2559 7.24092E+00
 -1      2560 9.02269E+00
 -1      2561 8.98532E+00
 -1      2562 8.05970E+00
 -1      2563 5.65541E+00
 -1      2564 7.29063E+00
 -1      2565 7.30801E+00
 -1      2566 6.05771E+00
 -1      2567 1.30661E+01
 -1      2568 9.38398E+00
 -1      2569 7.41981E+00
 -1      2570 2.06482E+01
 -1      2571 1.46308E+01
 -1      2572 1.64982E+01
 -1      2573 7.45471E+00
 -1      2574 6.44454E+00
 -1      2575 1.33186E+00
 -1      2576 1.51492E+00
 -1      2577 1.22951E+00
 -1      2578 9.52346E-01
 -1      2579 9.55415E+00
 -1      2580 1.31957E+01
 -1      2581 7.31069E+00
 -1      2582 8.81588E+00
 -1      2583 7.87222E-01
 -1      2584 9.22562E-01
 -1      2585 9.97146E-01
 -1      2586 4.80462E-01
 -1      2587 1.17287E+00
 -1      2588 1.10605E+01
 -1      2589 2.45859E+01
 -1      2590 7.67351E+00
 -1      2591 6.65419E+00
 -1      2592 4.92212E+00
 -1      2593 1.95388E+01
 -1      2594 8.60196E+00
 -1      2595 6.17382E+00
 -1      2596 7.22564E+00
 -1      2597 2.74957E-03
 -1      2598 1.20678E+01
 -1      2599 2.74208E-03
 -1      2600 4.96460E+00
 -1      2601 3.15283E+01
 -1      2602 2.53730E+01
 -1      2603 2.53730E+01
 -1      2604 2.02093E+01
 -1      2605 1.43504E+01
 -1      2606 1.00526E+00
 -1      2607 9.97146E-01
 -1      2608 2.12616E+01
 -1      2609 2.58532E+01
 -1      2610 2.15775E+01
 -1      2611 2.67730E+01
 -1      2612 1.89202E+01
 -1      2613 9.26523E+00
 -1      2614 8.70090E+00
 -1      2615 6.27226E+00
 -1      2616 6.79718E+00
 -1      2617 5.77105E+00
 -1      2618 5.04820E+00
 -1      2619 6.41015E+00
 -1      2620 5.72472E+00
 -1      2621 4.33275E+00
 -1      2622 6.19292E+00
 -1      2623 5.69602E+00
 -1      2624 1.25225E+01
 -1      2625 7.73981E+00
 -1      2626 8.94577E+00
 -1      2627 2.95957E+01
 -1      2628 2.46488E-03
 -1      2629 2.20755E-03
 -1      2630 1.97221E-03
 -1      2631 2.96085E-03
 -1      2632 3.11608E-03
 -1      2633 4.94154E+00
 -1      2634 2.85409E-03
 -1      2635 3.93747E-01
 -1      2636 3.49187E-01
 -1      2637 3.09908E-01
 -1      2638 2.89950E-01
 -1      2639 2.67966E-01
 -1      2640 5.96524E-01
 -1      2641 5.58237E-01
 -1      2642 7.66726E-01
 -1      2643 6.24346E-01
 -1      2644 5.80820E-01
 -1      2645 5.49988E-01
 -1      2646 7.24140E-01
 -1      2647 9.88915E-01
 -1      2648 5.32788E+00
 -1      2649 7.00370E+00
 -1      2650 8.71897E-01
 -1      2651 2.25457E+01
 -1      2652 1.83309E+01
 -1      2653 7.09402E+00
 -1      2654 8.00058E+00
 -1      2655 4.50982E-01
 -1      2656 4.07661E-01
 -1      2657 3.53025E-01
 -1      2658 3.67195E-01
 -1      2659 4.56298E-01
 -1      2660 3.95782E-01
 -1      2661 4.22401E-01
 -1      2662 4.30249E-01
 -1      2663 4.65317E-01
 -1      2664 4.90541E-01
 -1      2665 5.01751E-01
 -1      2666 5.39391E-01
 -1      2667 5.67271E-01
 -1      2668 5.93517E-01
 -1      2669 6.05710E-01
 -1      2670 6.80093E-01
 -1      2671 6.80806E-01
 -1      2672 8.04076E-01
 -1      2673 8.62484E-01
 -1      2674 8.43228E-01
 -1      2675 9.81776E-01
 -1      2676 1.07988E+00
 -1      2677 1.08650E+00
 -1      2678 1.13123E+00
 -1      2679 1.25474E+00
 -1      2680 1.25715E+00
 -1      2681 1.40908E+00
 -1      2682 1.47792E+00
 -1      2683 1.46286E+00
 -1      2684 1.46829E+00
 -1      2685 1.59795E+00
 -1      2686 1.60758E+00
 -1      2687 1.97149E+00
 -1      2688 2.02628E+00
 -1      2689 1.97149E+00
 -1      2690 2.71885E+00
 -1      2691 2.73736E+00
 -1      2692 3.03759E+00
 -1      2693 2.19545E+00
 -1      2694 2.20668E+00
 -1      2695 3.18824E+00
 -1      2696 2.05454E+00
 -1      2697 1.85396E+00
 -1      2698 2.49418E+00
 -1      2699 1.50027E+00
 -1      2700 1.40069E+00
 -1      2701 1.98834E+00
 -1      2702 1.24238E+00
 -1      2703 1.13170E+00
 -1      2704 1.47634E+00
 -1      2705 1.10840E+00
 -1      2706 1.02320E+00
 -1      2707 1.29472E+00
 -1      2708 9.10040E-01
 -1      2709 8.60056E-01
 -1      2710 1.15825E+00
 -1      2711 7.56360E-01
 -1      2712 7.16587E-01
 -1      2713 9.41395E-01
 -1      2714 6.84319E-01
 -1      2715 6.88477E-01
 -1      2716 8.05431E-01
 -1      2717 6.39106E-01
 -1      2718 6.19971E-01
 -1      2719 7.23793E-01
 -1      2720 5.69748E-01
 -1      2721 5.41748E-01
 -1      2722 6.24199E-01
 -1      2723 5.08274E-01
 -1      2724 4.83806E-01
 -1      2725 5.40502E-01
 -1      2726 4.48593E-01
 -1      2727 4.20703E-01
 -1      2728 4.71815E-01
 -1      2729 3.83661E-01
 -1      2730 3.51561E-01
 -1      2731 3.99561E-01
 -1      2732 3.17446E-01
 -1      2733 2.85295E-01
 -1      2734 3.28403E-01
 -1      2735 2.54641E-01
 -1      2736 2.24990E-01
 -1      2737 2.63634E-01
 -1      2738 1.98581E-01
 -1      2739 1.72752E-01
 -1      2740 2.06571E-01
 -1      2741 1.50742E-01
 -1      2742 1.29194E-01
 -1      2743 1.58152E-01
 -1      2744 1.11352E-01
 -1      2745 9.40027E-02
 -1      2746 1.18300E-01
 -1      2747 7.98911E-02
 -1      2748 6.63489E-02
 -1      2749 8.63465E-02
 -1      2750 5.54440E-02
 -1      2751 4.51791E-02
 -1      2752 6.13299E-02
 -1      2753 3.69483E-02
 -1      2754 3.02001E-02
 -1      2755 4.21941E-02
 -1      2756 2.41417E-02
 -1      2757 1.99589E-02
 -1      2758 2.79050E-02
 -1      2759 1.56238E-02
 -1      2760 1.44602E-02
 -1      2761 1.75115E-02
 -1      2762 1.21911E-02
 -1      2763 1.09293E-02
 -1      2764 1.09073E-02
 -1      2765 1.05749E-02
 -1      2766 9.27202E-03
 -1      2767 8.28377E-03
 -1      2768 8.75675E-03
 -1      2769 7.49592E-03
 -1      2770 7.41404E-03
 -1      2771 6.85068E-03
 -1      2772 5.89772E-03
 -1      2773 6.25352E-03
 -1      2774 5.21000E-03
 -1      2775 4.52769E-03
 -1      2776 4.92056E-03
 -1      2777 4.00504E-03
 -1      2778 3.31912E-03
 -1      2779 3.71019E-03
 -1      2780 1.15067E+00
 -1      2781 1.03442E+00
 -1      2782 3.97744E-03
 -1      2783 4.39623E-03
 -1      2784 5.25759E-03
 -1      2785 9.01601E-01
 -1      2786 7.78637E-01
 -1      2787 9.81126E-01
 -1      2788 1.67955E+00
 -1      2789 1.55254E+00
 -1      2790 2.00745E+00
 -1      2791 1.85682E+00
 -1      2792 1.92450E+00
 -1      2793 2.48506E+00
 -1      2794 2.38498E+00
 -1      2795 2.47930E+00
 -1      2796 3.10562E+00
 -1      2797 2.88426E+00
 -1      2798 3.25603E+00
 -1      2799 3.55811E+00
 -1      2800 3.49288E+00
 -1      2801 4.04249E+00
 -1      2802 4.97750E+00
 -1      2803 4.11147E+00
 -1      2804 4.88527E+00
 -1      2805 5.75717E+00
 -1      2806 4.71499E+00
 -1      2807 4.51713E+00
 -1      2808 5.18237E+00
 -1      2809 4.89536E+00
 -1      2810 5.20126E+00
 -1      2811 4.73437E+00
 -1      2812 4.98311E+00
 -1      2813 5.18237E+00
 -1      2814 4.12908E+00
 -1      2815 4.48563E+00
 -1      2816 4.73437E+00
 -1      2817 3.43693E+00
 -1      2818 3.77252E+00
 -1      2819 4.12908E+00
 -1      2820 2.86087E+00
 -1      2821 3.10134E+00
 -1      2822 3.43693E+00
 -1      2823 2.41347E+00
 -1      2824 2.56642E+00
 -1      2825 2.80689E+00
 -1      2826 1.97072E+00
 -1      2827 2.15901E+00
 -1      2828 2.25798E+00
 -1      2829 1.57227E+00
 -1      2830 1.76139E+00
 -1      2831 1.79418E+00
 -1      2832 1.22216E+00
 -1      2833 1.39338E+00
 -1      2834 1.40595E+00
 -1      2835 9.29540E-01
 -1      2836 1.07511E+00
 -1      2837 1.08002E+00
 -1      2838 6.93119E-01
 -1      2839 8.11747E-01
 -1      2840 8.15181E-01
 -1      2841 5.06859E-01
 -1      2842 6.00597E-01
 -1      2843 6.04866E-01
 -1      2844 3.64097E-01
 -1      2845 4.36394E-01
 -1      2846 4.41880E-01
 -1      2847 2.56602E-01
 -1      2848 3.11219E-01
 -1      2849 3.18537E-01
 -1      2850 1.77084E-01
 -1      2851 2.17560E-01
 -1      2852 2.26618E-01
 -1      2853 1.18554E-01
 -1      2854 1.47978E-01
 -1      2855 1.58471E-01
 -1      2856 7.61092E-02
 -1      2857 9.70528E-02
 -1      2858 1.07865E-01
 -1      2859 4.59915E-02
 -1      2860 6.05302E-02
 -1      2861 7.07848E-02
 -1      2862 2.92785E-02
 -1      2863 3.49627E-02
 -1      2864 4.41770E-02
 -1      2865 1.95356E-02
 -1      2866 2.16947E-02
 -1      2867 2.55644E-02
 -1      2868 1.59400E-02
 -1      2869 1.80114E-02
 -1      2870 1.64564E-02
 -1      2871 1.47243E-02
 -1      2872 1.58360E-02
 -1      2873 1.48283E-02
 -1      2874 1.32531E-02
 -1      2875 1.39887E-02
 -1      2876 1.39887E-02
 -1      2877 1.10674E-02
 -1      2878 1.21602E-02
 -1      2879 1.21602E-02
 -1      2880 8.49033E-03
 -1      2881 9.77889E-03
 -1      2882 9.77889E-03
 -1      2883 6.87396E-03
 -1      2884 1.00238E+01
 -1      2885 1.31051E+01
 -1      2886 1.55136E-03
 -1      2887 1.59598E-03
 -1      2888 4.26824E+00
 -1      2889 3.86594E+00
 -1      2890 1.90136E-03
 -1      2891 1.91961E-03
 -1      2892 1.58506E-03
 -1      2893 1.55720E-03
 -1      2894 1.55136E-03
 -1      2895 1.67997E-03
 -1      2896 1.72956E-03
 -1      2897 1.88531E-03
 -1      2898 1.62952E-03
 -1      2899 1.65569E-03
 -1      2900 1.62132E-03
 -1      2901 1.59346E-03
 -1      2902 1.77176E-03
 -1      2903 1.77176E-03
 -1      2904 1.74578E-03
 -1      2905 1.82077E-03
 -1      2906 1.82999E-03
 -1      2907 1.92007E-03
 -1      2908 1.38006E+01
 -1      2909 1.81903E+01
 -1      2910 1.44711E+01
 -1      2911 9.19243E-01
 -1      2912 7.16621E-01
 -1      2913 6.20301E-01
 -1      2914 9.19243E-01
 -1      2915 1.11397E+01
 -1      2916 1.39321E+01
 -1      2917 6.74518E-01
 -1      2918 5.65157E-01
 -1      2919 7.44189E-01
 -1      2920 1.38972E+00
 -1      2921 1.30450E+00
 -1      2922 1.26777E+00
 -1      2923 1.58442E+00
 -1      2924 5.04495E-01
 -1      2925 4.62881E-01
 -1      2926 3.76379E-01
 -1      2927 4.99255E-01
 -1      2928 4.83577E-01
 -1      2929 4.73796E-01
 -1      2930 5.53103E-01
 -1      2931 5.58490E-01
 -1      2932 1.17293E+01
 -1      2933 9.83133E+00
 -1      2934 1.53619E+01
 -1      2935 1.94807E+01
 -1      2936 1.75914E+01
 -1      2937 1.30917E+01
 -1      2938 2.07044E+01
 -1      2939 2.49197E+01
 -1      2940 7.73981E+00
 -1      2941 4.74711E-01
 -1      2942 5.07761E-01
 -1      2943 2.29842E-03
 -1      2944 2.01314E-03
 -1      2945 2.89502E-03
 -1      2946 4.59510E+00
 -1      2947 3.54730E+00
 -1      2948 5.81073E+00
 -1      2949 6.48309E+00
 -1      2950 6.11797E+00
 -1      2951 5.04395E+00
 -1      2952 2.35411E+01
 -1      2953 2.08135E+01
 -1      2954 6.82350E+00
 -1      2955 6.87983E+00
 -1      2956 7.69560E+00
 -1      2957 5.61962E+00
 -1      2958 1.53468E+01
 -1      2959 1.14739E+01
 -1      2960 8.29745E+00
 -1      2961 6.61861E+00
 -1      2962 7.50417E+00
 -1      2963 1.02267E+01
 -1      2964 8.66202E+00
 -1      2965 6.58629E-01
 -1      2966 8.60323E-01
 -1      2967 5.80863E-01
 -1      2968 2.62817E-01
 -1      2969 3.24080E-01
 -1      2970 3.67056E-01
 -1      2971 1.04005E+01
 -1      2972 1.21512E+01
 -1      2973 7.77052E-01
 -1      2974 1.45585E+01
 -1      2975 3.68361E+00
 -1      2976 4.06650E+00
 -1      2977 3.01032E+00
 -1      2978 5.98943E+00
 -1      2979 4.84021E+00
 -1      2980 6.18939E+00
 -1      2981 5.00952E+00
 -1      2982 2.76345E-03
 -1      2983 1.17566E+01
 -1      2984 3.82773E+00
 -1      2985 4.69937E+00
 -1      2986 4.10722E+00
 -1      2987 4.61884E+00
 -1      2988 5.01718E+00
 -1      2989 6.01795E+00
 -1      2990 5.22977E+00
 -1      2991 6.87396E-03
 -1      2992 8.04104E+00
 -1      2993 1.33066E+01
 -1      2994 2.17383E-03
 -1      2995 2.03633E-03
 -1      2996 2.29056E-03
 -1      2997 3.77407E-03
 -1      2998 6.86183E+00
 -1      2999 2.24614E+01
 -1      3000 1.17467E+01
 -1      3001 1.35786E+01
 -1      3002 2.00129E-03
 -1      3003 6.80252E-01
 -1      3004 5.66780E+00
 -1      3005 5.46964E+00
 -1      3006 5.20563E+00
 -1      3007 5.04422E+00
 -1      3008 3.62691E+00
 -1      3009 5.01718E+00
 -1      3010 1.78817E+01
 -1      3011 2.39092E-03
 -1      3012 2.05287E-03
 -1      3013 2.21040E-03
 -1      3014 2.81502E-03
 -1      3015 4.54403E+00
 -1      3016 5.29625E+00
 -1      3017 4.97325E+00
 -1      3018 5.75476E+00
 -1      3019 8.61187E+00
 -1      3020 8.19358E+00
 -1      3021 3.96325E+00
 -1      3022 1.48047E+01
 -1      3023 5.38903E+00
 -1      3024 1.78566E+01
 -1      3025 1.20281E+01
 -1      3026 1.60141E+01
 -1      3027 4.06576E-01
 -1      3028 4.47706E-01
 -1      3029 4.02990E-01
 -1      3030 3.36466E-01
 -1      3031 6.18969E-01
 -1      3032 9.07541E+00
 -1      3033 1.11635E+01
 -1      3034 1.28956E+01
 -1      3035 5.72401E-01
 -1      3036 5.44579E-01
 -1      3037 8.50379E+00
 -1      3038 7.25664E+00
 -1      3039 4.48101E-01
 -1      3040 4.76688E-01
 -1      3041 5.21600E-01
 -1      3042 5.64515E-01
 -1      3043 5.39452E-01
 -1      3044 6.44207E-01
 -1      3045 6.93057E-01
 -1      3046 6.64056E-01
 -1      3047 7.94550E-01
 -1      3048 8.32989E-01
 -1      3049 8.45241E-01
 -1      3050 9.31133E-01
 -1      3051 1.05512E+00
 -1      3052 1.04488E+00
 -1      3053 1.17201E+00
 -1      3054 1.29130E+00
 -1      3055 1.25991E+00
 -1      3056 1.53094E+00
 -1      3057 1.58230E+00
 -1      3058 1.61644E+00
 -1      3059 1.46617E+00
 -1      3060 1.62052E+00
 -1      3061 1.73996E+00
 -1      3062 1.81334E+00
 -1      3063 1.80371E+00
 -1      3064 1.81665E+00
 -1      3065 2.02449E+00
 -1      3066 2.39803E+00
 -1      3067 2.23025E+00
 -1      3068 3.63289E+00
 -1      3069 4.32545E+00
 -1      3070 3.68588E+00
 -1      3071 4.05278E+00
 -1      3072 3.51086E+00
 -1      3073 3.35873E+00
 -1      3074 2.46299E+00
 -1      3075 2.10930E+00
 -1      3076 1.74910E+00
 -1      3077 1.59079E+00
 -1      3078 2.22375E+00
 -1      3079 1.69925E+00
 -1      3080 1.67594E+00
 -1      3081 1.97201E+00
 -1      3082 1.41495E+00
 -1      3083 1.30179E+00
 -1      3084 1.81948E+00
 -1      3085 1.17864E+00
 -1      3086 1.07494E+00
 -1      3087 1.43534E+00
 -1      3088 9.61149E-01
 -1      3089 9.28881E-01
 -1      3090 1.19839E+00
 -1      3091 8.22663E-01
 -1      3092 7.73292E-01
 -1      3093 9.78380E-01
 -1      3094 6.92882E-01
 -1      3095 6.42659E-01
 -1      3096 7.91751E-01
 -1      3097 5.86995E-01
 -1      3098 5.53521E-01
 -1      3099 6.55677E-01
 -1      3100 5.01586E-01
 -1      3101 4.66374E-01
 -1      3102 5.48079E-01
 -1      3103 4.19242E-01
 -1      3104 3.82200E-01
 -1      3105 4.49013E-01
 -1      3106 3.40146E-01
 -1      3107 3.06030E-01
 -1      3108 3.59827E-01
 -1      3109 2.70204E-01
 -1      3110 2.39550E-01
 -1      3111 2.81946E-01
 -1      3112 2.10250E-01
 -1      3113 1.83841E-01
 -1      3114 2.16820E-01
 -1      3115 1.61117E-01
 -1      3116 1.39107E-01
 -1      3117 1.64796E-01
 -1      3118 1.20730E-01
 -1      3119 1.02889E-01
 -1      3120 1.23695E-01
 -1      3121 8.87270E-02
 -1      3122 7.46154E-02
 -1      3123 9.11574E-02
 -1      3124 6.35330E-02
 -1      3125 5.26280E-02
 -1      3126 6.59135E-02
 -1      3127 4.43371E-02
 -1      3128 3.61063E-02
 -1      3129 4.65401E-02
 -1      3130 2.99271E-02
 -1      3131 2.38688E-02
 -1      3132 3.20701E-02
 -1      3133 1.93590E-02
 -1      3134 1.50239E-02
 -1      3135 2.13811E-02
 -1      3136 1.18133E-02
 -1      3137 9.54419E-03
 -1      3138 1.36608E-02
 -1      3139 7.32891E-03
 -1      3140 6.97445E-03
 -1      3141 8.23486E-03
 -1      3142 6.13714E-03
 -1      3143 5.62187E-03
 -1      3144 5.18228E-03
 -1      3145 5.58738E-03
 -1      3146 4.94213E-03
 -1      3147 4.31048E-03
 -1      3148 4.68815E-03
 -1      3149 4.00042E-03
 -1      3150 4.02200E-03
 -1      3151 3.63083E-03
 -1      3152 3.10818E-03
 -1      3153 2.73566E-03
 -1      3154 3.39841E-03
 -1      3155 1.06216E+00
 -1      3156 9.29346E-01
 -1      3157 7.58353E+00
 -1      3158 6.04964E+00
 -1      3159 2.87609E+00
 -1      3160 2.49856E+00
 -1      3161 2.32259E+00
 -1      3162 2.14532E+00
 -1      3163 2.71938E+00
 -1      3164 5.27937E+00
 -1      3165 4.89211E+00
 -1      3166 5.51381E-01
 -1      3167 5.41054E-01
 -1      3168 5.04813E-01
 -1      3169 4.75188E-01
 -1      3170 4.38980E-03
 -1      3171 6.00616E-03
 -1      3172 8.22141E+00
 -1      3173 4.09577E+00
 -1      3174 4.45233E+00
 -1      3175 2.80429E+00
 -1      3176 3.13988E+00
 -1      3177 3.46313E+00
 -1      3178 2.18579E+00
 -1      3179 2.48024E+00
 -1      3180 2.18319E+00
 -1      3181 1.72138E+00
 -1      3182 1.97584E+00
 -1      3183 1.64919E+00
 -1      3184 1.34626E+00
 -1      3185 1.55560E+00
 -1      3186 1.27346E+00
 -1      3187 1.03681E+00
 -1      3188 1.21570E+00
 -1      3189 9.77115E-01
 -1      3190 7.87810E-01
 -1      3191 9.34854E-01
 -1      3192 7.44599E-01
 -1      3193 5.90651E-01
 -1      3194 7.08444E-01
 -1      3195 5.63280E-01
 -1      3196 4.36533E-01
 -1      3197 5.29055E-01
 -1      3198 4.22318E-01
 -1      3199 3.18560E-01
 -1      3200 3.89025E-01
 -1      3201 3.13214E-01
 -1      3202 2.29290E-01
 -1      3203 2.82168E-01
 -1      3204 2.29313E-01
 -1      3205 1.62633E-01
 -1      3206 2.01674E-01
 -1      3207 1.65305E-01
 -1      3208 1.12824E-01
 -1      3209 1.41929E-01
 -1      3210 1.16985E-01
 -1      3211 7.67874E-02
 -1      3212 9.82883E-02
 -1      3213 8.17462E-02
 -1      3214 5.04249E-02
 -1      3215 6.60039E-02
 -1      3216 5.64275E-02
 -1      3217 3.15299E-02
 -1      3218 4.25587E-02
 -1      3219 3.77778E-02
 -1      3220 1.83222E-02
 -1      3221 2.59060E-02
 -1      3222 2.42877E-02
 -1      3223 1.29383E-02
 -1      3224 1.44625E-02
 -1      3225 1.48041E-02
 -1      3226 1.06516E-02
 -1      3227 1.07555E-02
 -1      3228 8.76164E-03
 -1      3229 8.86396E-03
 -1      3230 9.59957E-03
 -1      3231 5.52685E-03
 -1      3232 7.51169E-03
 -1      3233 8.60450E-03
 -1      3234 4.21540E-03
 -1      3235 6.03904E-03
 -1      3236 7.32760E-03
 -1      3237 3.77185E-03
 -1      3238 1.57665E-03
 -1      3239 1.54039E-03
 -1      3240 5.28218E+00
 -1      3241 5.62799E+00
 -1      3242 1.50302E-03
 -1      3243 1.49718E-03
 -1      3244 1.48621E-03
 -1      3245 4.87837E+00
 -1      3246 3.52699E+00
 -1      3247 1.15595E+01
 -1      3248 1.35786E+01
 -1      3249 5.20002E+00
 -1      3250 7.90651E-01
 -1      3251 1.76942E-03
 -1      3252 1.65336E-03
 -1      3253 1.60029E-03
 -1      3254 1.97831E-03
 -1      3255 1.92007E-03
 -1      3256 1.82765E-03
 -1      3257 8.24425E-01
 -1      3258 7.20306E-01
 -1      3259 9.05463E-01
 -1      3260 9.56775E+00
 -1      3261 8.20534E+00
 -1      3262 5.73941E+00
 -1      3263 5.98815E+00
 -1      3264 5.70611E+00
 -1      3265 1.36977E+01
 -1      3266 1.55510E+01
 -1      3267 3.29184E+00
 -1      3268 4.07729E+00
 -1      3269 7.41057E+00
 -1      3270 7.60983E+00
 -1      3271 1.04496E+01
 -1      3272 8.41562E+00
 -1      3273 1.22495E+01
 -1      3274 9.26542E+00
 -1      3275 8.85441E+00
 -1      3276 4.06601E+00
 -1      3277 3.66681E+00
 -1      3278 3.68607E+00
 -1      3279 5.30289E+00
 -1      3280 9.29724E+00
 -1      3281 1.07270E+01
 -1      3282 6.52912E+00
 -1      3283 5.56269E+00
 -1      3284 5.11377E-01
 -1      3285 4.56741E-01
 -1      3286 5.03180E-01
 -1      3287 7.44146E-01
 -1      3288 5.74827E-01
 -1      3289 5.75270E-01
 -1      3290 6.85225E-01
 -1      3291 5.02345E+00
 -1      3292 5.57099E+00
 -1      3293 4.35203E+00
 -1      3294 3.11050E-01
 -1      3295 2.71771E-01
 -1      3296 1.24740E+01
 -1      3297 1.36977E+01
 -1      3298 2.33468E-01
 -1      3299 2.67597E-01
 -1      3300 2.76551E-01
 -1      3301 5.22800E-01
 -1      3302 5.31218E-01
 -1      3303 4.77476E-01
 -1      3304 5.95750E+00
 -1      3305 4.54566E+00
 -1      3306 3.34466E+00
 -1      3307 4.15202E-01
 -1      3308 3.46068E-01
 -1      3309 3.49873E-01
 -1      3310 4.47165E-01
 -1      3311 3.55488E-03
 -1      3312 4.47000E-01
 -1      3313 5.97868E-01
 -1      3314 5.51363E-01
 -1      3315 3.47968E+00
 -1      3316 8.19358E+00
 -1      3317 6.76939E+00
 -1      3318 5.66572E+00
 -1      3319 6.75081E+00
 -1      3320 9.62000E+00
 -1      3321 2.17436E+00
 -1      3322 1.77628E+00
 -1      3323 1.61346E+00
 -1      3324 1.05992E+01
 -1      3325 8.93631E+00
 -1      3326 9.51951E+00
 -1      3327 9.84582E+00
 -1      3328 9.58064E+00
 -1      3329 7.38551E+00
 -1      3330 1.18301E+01
 -1      3331 1.72075E-03
 -1      3332 1.89255E-03
 -1      3333 1.37147E+00
 -1      3334 1.21764E+00
 -1      3335 1.56333E+00
 -1      3336 4.49838E+00
 -1      3337 1.54780E-03
 -1      3338 1.63179E-03
 -1      3339 1.63903E-03
 -1      3340 1.49945E-03
 -1      3341 1.11451E+01
 -1      3342 1.06669E+01
 -1      3343 5.48196E+00
 -1      3344 7.07529E+00
 -1      3345 8.13243E+00
 -1      3346 6.31366E+00
 -1      3347 2.90628E-03
 -1      3348 1.13669E+01
 -1      3349 6.72947E-01
 -1      3350 5.91368E-01
 -1      3351 5.89645E-01
 -1      3352 7.53183E-01
 -1      3353 2.44250E-03
 -1      3354 2.21040E-03
 -1      3355 2.21040E-03
 -1      3356 2.73566E-03
 -1      3357 1.02525E+01
 -1      3358 1.16586E+00
 -1      3359 3.88991E-01
 -1      3360 4.15995E-01
 -1      3361 4.33000E-01
 -1      3362 2.67348E+00
 -1      3363 2.78752E+00
 -1      3364 3.12259E+00
 -1      3365 1.39573E-03
 -1      3366 1.35836E-03
 -1      3367 3.60170E+00
 -1      3368 4.64807E+00
 -1      3369 8.83007E+00
 -1      3370 7.06151E-01
 -1      3371 7.85844E-01
 -1      3372 9.01694E-01
 -1      3373 1.00319E+00
 -1      3374 9.43789E-01
 -1      3375 1.16752E+00
 -1      3376 1.26566E+00
 -1      3377 1.22397E+00
 -1      3378 1.39019E+00
 -1      3379 1.50708E+00
 -1      3380 1.51284E+00
 -1      3381 2.29212E+00
 -1      3382 2.53177E+00
 -1      3383 2.42241E+00
 -1      3384 2.51349E+00
 -1      3385 2.39736E+00
 -1      3386 3.18917E+00
 -1      3387 2.08931E+00
 -1      3388 2.31009E+00
 -1      3389 3.26353E+00
 -1      3390 6.68122E+00
 -1      3391 8.51809E+00
 -1      3392 5.39413E+00
 -1      3393 2.82571E+00
 -1      3394 2.93417E+00
 -1      3395 3.04373E+00
 -1      3396 2.78274E+00
 -1      3397 3.89742E+00
 -1      3398 1.86202E+00
 -1      3399 1.73887E+00
 -1      3400 3.08627E+00
 -1      3401 1.41369E+00
 -1      3402 1.29989E+00
 -1      3403 1.84037E+00
 -1      3404 1.13380E+00
 -1      3405 1.02758E+00
 -1      3406 1.34909E+00
 -1      3407 9.13076E-01
 -1      3408 8.32665E-01
 -1      3409 1.06849E+00
 -1      3410 7.24915E-01
 -1      3411 6.69251E-01
 -1      3412 8.46240E-01
 -1      3413 5.84982E-01
 -1      3414 5.33047E-01
 -1      3415 6.54220E-01
 -1      3416 4.78261E-01
 -1      3417 4.31130E-01
 -1      3418 5.15164E-01
 -1      3419 3.87623E-01
 -1      3420 3.45569E-01
 -1      3421 4.16872E-01
 -1      3422 3.11184E-01
 -1      3423 2.75357E-01
 -1      3424 3.38980E-01
 -1      3425 2.44033E-01
 -1      3426 2.14732E-01
 -1      3427 2.73270E-01
 -1      3428 1.87520E-01
 -1      3429 1.64796E-01
 -1      3430 2.14732E-01
 -1      3431 1.41973E-01
 -1      3432 1.23596E-01
 -1      3433 1.64696E-01
 -1      3434 1.05049E-01
 -1      3435 9.08876E-02
 -1      3436 1.23326E-01
 -1      3437 7.61892E-02
 -1      3438 6.51067E-02
 -1      3439 9.00809E-02
 -1      3440 5.37061E-02
 -1      3441 4.54152E-02
 -1      3442 6.39818E-02
 -1      3443 3.72725E-02
 -1      3444 3.10933E-02
 -1      3445 4.44384E-02
 -1      3446 2.50248E-02
 -1      3447 2.05150E-02
 -1      3448 3.02272E-02
 -1      3449 1.60803E-02
 -1      3450 1.28697E-02
 -1      3451 1.97240E-02
 -1      3452 9.71813E-03
 -1      3453 7.50285E-03
 -1      3454 1.21377E-02
 -1      3455 5.37584E-03
 -1      3456 4.53853E-03
 -1      3457 6.85911E-03
 -1      3458 3.50348E-03
 -1      3459 3.46899E-03
 -1      3460 3.69704E-03
 -1      3461 3.46843E-03
 -1      3462 3.21444E-03
 -1      3463 2.66143E-03
 -1      3464 6.31366E+00
 -1      3465 5.58614E+00
 -1      3466 5.68763E-01
 -1      3467 6.13675E-01
 -1      3468 7.35462E-01
 -1      3469 7.13928E+00
 -1      3470 8.88622E+00
 -1      3471 9.32095E+00
 -1      3472 9.32095E+00
 -1      3473 1.60819E+00
 -1      3474 1.81814E+00
 -1      3475 7.51950E+00
 -1      3476 6.87337E+00
 -1      3477 2.18111E+00
 -1      3478 2.50516E+00
 -1      3479 2.14010E+00
 -1      3480 3.37330E+00
 -1      3481 4.32919E+00
 -1      3482 3.37121E+00
 -1      3483 1.19659E+00
 -1      3484 1.36237E+00
 -1      3485 1.53132E+00
 -1      3486 8.99060E-01
 -1      3487 1.02962E+00
 -1      3488 1.11853E+00
 -1      3489 6.78230E-01
 -1      3490 7.80182E-01
 -1      3491 8.32691E-01
 -1      3492 5.11383E-01
 -1      3493 5.90749E-01
 -1      3494 6.26333E-01
 -1      3495 3.83440E-01
 -1      3496 4.45036E-01
 -1      3497 4.72506E-01
 -1      3498 2.85093E-01
 -1      3499 3.32601E-01
 -1      3500 3.55320E-01
 -1      3501 2.09604E-01
 -1      3502 2.45997E-01
 -1      3503 2.65385E-01
 -1      3504 1.51900E-01
 -1      3505 1.79516E-01
 -1      3506 1.96200E-01
 -1      3507 1.08227E-01
 -1      3508 1.28931E-01
 -1      3509 1.43142E-01
 -1      3510 7.62548E-02
 -1      3511 9.07900E-02
 -1      3512 1.02736E-01
 -1      3513 5.23476E-02
 -1      3514 6.31311E-02
 -1      3515 7.21749E-02
 -1      3516 3.52248E-02
 -1      3517 4.30910E-02
 -1      3518 4.97946E-02
 -1      3519 2.29011E-02
 -1      3520 2.85251E-02
 -1      3521 3.38382E-02
 -1      3522 1.41838E-02
 -1      3523 1.80434E-02
 -1      3524 2.22808E-02
 -1      3525 8.55689E-03
 -1      3526 1.07397E-02
 -1      3527 1.39790E-02
 -1      3528 5.15690E-03
 -1      3529 6.20889E-03
 -1      3530 8.18694E-03
 -1      3531 3.32217E-03
 -1      3532 3.58164E-03
 -1      3533 4.26367E-03
 -1      3534 2.97873E-03
 -1      3535 3.16283E-03
 -1      3536 2.52906E-03
 -1      3537 1.91957E-03
 -1      3538 1.76891E-03
 -1      3539 2.54130E-03
 -1      3540 2.65802E-03
 -1      3541 1.32134E+00
 -1      3542 1.16586E+00
 -1      3543 5.48196E+00
 -1      3544 5.66572E+00
 -1      3545 9.96057E-01
 -1      3546 8.91135E-01
 -1      3547 1.15154E+00
 -1      3548 3.12421E+00
 -1      3549 2.94823E+00
 -1      3550 9.33523E+00
 -1      3551 9.79838E+00
 -1      3552 2.37674E-03
 -1      3553 1.79170E-03
 -1      3554 2.44045E-03
 -1      3555 9.02067E+00
 -1      3556 9.02067E+00
 -1      3557 7.87323E+00
 -1      3558 6.87181E+00
 -1      3559 2.89924E-01
 -1      3560 3.29444E-01
 -1      3561 3.42448E-01
 -1      3562 2.60574E-01
 -1      3563 4.50892E+00
 -1      3564 3.82460E+00
 -1      3565 2.73841E+00
 -1      3566 3.68457E+00
 -1      3567 5.23465E-01
 -1      3568 5.14825E-01
 -1      3569 5.89047E-01
 -1      3570 2.70597E+00
 -1      3571 3.22264E+00
 -1      3572 5.92470E+00
 -1      3573 2.86245E+00
 -1      3574 1.55373E-03
 -1      3575 1.47703E-03
 -1      3576 1.34918E-03
 -1      3577 1.64565E-03
 -1      3578 5.34995E-01
 -1      3579 5.21635E-01
 -1      3580 5.55372E+00
 -1      3581 8.03444E+00
 -1      3582 5.98844E+00
 -1      3583 2.62092E+00
 -1      3584 1.84739E+00
 -1      3585 2.04021E+00
 -1      3586 5.30429E+00
 -1      3587 5.28664E+00
 -1      3588 6.39030E+00
 -1      3589 5.65653E+00
 -1      3590 5.66572E+00
 -1      3591 5.94231E+00
 -1      3592 3.26434E-03
 -1      3593 2.89474E-03
 -1      3594 2.60158E-03
 -1      3595 2.71077E-03
 -1      3596 3.60489E-01
 -1      3597 3.22185E-01
 -1      3598 2.40421E+00
 -1      3599 2.03517E+00
 -1      3600 2.80904E+00
 -1      3601 5.49909E-01
 -1      3602 5.81256E-01
 -1      3603 5.80091E-01
 -1      3604 6.66088E-01
 -1      3605 5.77875E-01
 -1      3606 5.14425E-01
 -1      3607 5.26069E-01
 -1      3608 4.90517E-01
 -1      3609 7.28923E+00
 -1      3610 5.74038E+00
 -1      3611 7.35096E+00
 -1      3612 1.78537E+00
 -1      3613 1.54339E+00
 -1      3614 2.01522E+00
 -1      3615 2.72158E-03
 -1      3616 2.11256E-03
 -1      3617 4.35738E-01
 -1      3618 4.00720E-01
 -1      3619 4.46354E-01
 -1      3620 3.27374E-03
 -1      3621 2.90628E-03
 -1      3622 4.29380E-01
 -1      3623 4.60385E-01
 -1      3624 4.86897E-01
 -1      3625 1.33948E-03
 -1      3626 1.39010E-03
 -1      3627 1.24901E-03
 -1      3628 5.54097E+00
 -1      3629 4.09306E+00
 -1      3630 3.30234E+00
 -1      3631 5.55386E+00
 -1      3632 4.23454E+00
 -1      3633 4.41831E+00
 -1      3634 1.54339E+00
 -1      3635 8.59359E-01
 -1      3636 7.68766E-01
 -1      3637 4.86509E+00
 -1      3638 1.53590E-03
 -1      3639 1.62486E-03
 -1      3640 1.68856E-03
 -1      3641 2.36949E-03
 -1      3642 3.53119E+00
 -1      3643 7.21407E-01
 -1      3644 6.80575E+00
 -1      3645 7.36998E+00
 -1      3646 5.38893E+00
 -1      3647 3.30662E-03
 -1      3648 2.31075E-03
 -1      3649 5.70049E-01
 -1      3650 5.07775E-01
 -1      3651 5.58622E-01
 -1      3652 2.12005E+00
 -1      3653 4.97465E+00
 -1      3654 9.86575E-01
 -1      3655 1.10242E+00
 -1      3656 1.38066E+00
 -1      3657 1.54499E+00
 -1      3658 1.42344E+00
 -1      3659 2.65693E+00
 -1      3660 2.78146E+00
 -1      3661 2.81362E+00
 -1      3662 3.27246E+00
 -1      3663 4.05750E+00
 -1      3664 4.41656E+00
 -1      3665 4.43659E+00
 -1      3666 5.82245E-01
 -1      3667 3.95723E-01
 -1      3668 3.11786E-01
 -1      3669 3.34113E-01
 -1      3670 2.77502E+00
 -1      3671 2.44984E+00
 -1      3672 1.73287E+00
 -1      3673 1.56677E+00
 -1      3674 2.66752E+00
 -1      3675 1.24295E+00
 -1      3676 1.12845E+00
 -1      3677 1.62673E+00
 -1      3678 9.33161E-01
 -1      3679 8.25411E-01
 -1      3680 1.10762E+00
 -1      3681 7.23729E-01
 -1      3682 6.39459E-01
 -1      3683 8.10651E-01
 -1      3684 5.67653E-01
 -1      3685 5.12867E-01
 -1      3686 6.37163E-01
 -1      3687 4.60378E-01
 -1      3688 4.16872E-01
 -1      3689 5.12867E-01
 -1      3690 3.70176E-01
 -1      3691 3.35791E-01
 -1      3692 4.13683E-01
 -1      3693 2.96135E-01
 -1      3694 2.64810E-01
 -1      3695 3.27331E-01
 -1      3696 2.32025E-01
 -1      3697 2.04812E-01
 -1      3698 2.54890E-01
 -1      3699 1.78039E-01
 -1      3700 1.55216E-01
 -1      3701 1.95332E-01
 -1      3702 1.33814E-01
 -1      3703 1.15267E-01
 -1      3704 1.47157E-01
 -1      3705 9.84387E-02
 -1      3706 8.37403E-02
 -1      3707 1.08926E-01
 -1      3708 7.06107E-02
 -1      3709 5.92101E-02
 -1      3710 7.89685E-02
 -1      3711 4.91864E-02
 -1      3712 4.10437E-02
 -1      3713 5.58153E-02
 -1      3714 3.37004E-02
 -1      3715 2.76319E-02
 -1      3716 3.84484E-02
 -1      3717 2.24961E-02
 -1      3718 1.80614E-02
 -1      3719 2.59693E-02
 -1      3720 1.43139E-02
 -1      3721 1.11623E-02
 -1      3722 1.70860E-02
 -1      3723 8.49024E-03
 -1      3724 6.36322E-03
 -1      3725 1.06665E-02
 -1      3726 4.51443E-03
 -1      3727 3.47938E-03
 -1      3728 6.14557E-03
 -1      3729 2.39451E-03
 -1      3730 2.39395E-03
 -1      3731 3.21190E-03
 -1      3732 2.26085E-03
 -1      3733 7.21780E-01
 -1      3734 8.14257E-01
 -1      3735 9.72893E-01
 -1      3736 1.62474E-03
 -1      3737 1.88189E-03
 -1      3738 1.45790E-03
 -1      3739 5.19464E+00
 -1      3740 5.19464E+00
 -1      3741 1.28874E+00
 -1      3742 1.53456E+00
 -1      3743 2.74023E+00
 -1      3744 3.60837E+00
 -1      3745 7.00740E-01
 -1      3746 8.19617E-01
 -1      3747 5.30629E-01
 -1      3748 6.18109E-01
 -1      3749 6.05036E-01
 -1      3750 4.02690E-01
 -1      3751 4.69036E-01
 -1      3752 4.60813E-01
 -1      3753 3.04472E-01
 -1      3754 3.55310E-01
 -1      3755 3.51841E-01
 -1      3756 2.28473E-01
 -1      3757 2.67569E-01
 -1      3758 2.67560E-01
 -1      3759 1.70011E-01
 -1      3760 2.00099E-01
 -1      3761 2.02284E-01
 -1      3762 1.24840E-01
 -1      3763 1.47810E-01
 -1      3764 1.51709E-01
 -1      3765 8.99974E-02
 -1      3766 1.07434E-01
 -1      3767 1.12102E-01
 -1      3768 6.33414E-02
 -1      3769 7.64652E-02
 -1      3770 8.11639E-02
 -1      3771 4.38760E-02
 -1      3772 5.31326E-02
 -1      3773 5.74229E-02
 -1      3774 2.96395E-02
 -1      3775 3.63393E-02
 -1      3776 3.96773E-02
 -1      3777 1.96017E-02
 -1      3778 2.44594E-02
 -1      3779 2.69604E-02
 -1      3780 1.23581E-02
 -1      3781 1.58022E-02
 -1      3782 1.79808E-02
 -1      3783 7.28927E-03
 -1      3784 9.63727E-03
 -1      3785 1.14604E-02
 -1      3786 3.79331E-03
 -1      3787 5.36858E-03
 -1      3788 6.81891E-03
 -1      3789 2.51391E-03
 -1      3790 2.67326E-03
 -1      3791 3.77817E-03
 -1      3792 2.02609E-03
 -1      3793 5.84069E+00
 -1      3794 5.85497E+00
 -1      3795 1.24334E+00
 -1      3796 1.07353E+00
 -1      3797 5.97539E+00
 -1      3798 4.13085E+00
 -1      3799 3.95272E+00
 -1      3800 5.92795E+00
 -1      3801 4.99626E+00
 -1      3802 4.99626E+00
 -1      3803 5.06515E+00
 -1      3804 5.26708E+00
 -1      3805 4.32103E+00
 -1      3806 1.72774E+00
 -1      3807 1.50569E+00
 -1      3808 1.42769E+00
 -1      3809 9.09339E-01
 -1      3810 7.86970E-01
 -1      3811 1.00114E+00
 -1      3812 4.01036E+00
 -1      3813 5.07530E+00
 -1      3814 5.57788E+00
 -1      3815 3.37938E+00
 -1      3816 1.80930E+00
 -1      3817 2.17226E+00
 -1      3818 2.40943E+00
 -1      3819 4.02860E+00
 -1      3820 5.67006E-01
 -1      3821 6.20943E-01
 -1      3822 6.99738E-01
 -1      3823 9.38413E-01
 -1      3824 1.10538E+00
 -1      3825 8.06463E-01
 -1      3826 5.26069E-01
 -1      3827 5.35110E-01
 -1      3828 5.67006E-01
 -1      3829 4.95937E-01
 -1      3830 1.99393E-03
 -1      3831 4.37213E+00
 -1      3832 5.65864E+00
 -1      3833 4.22438E+00
 -1      3834 2.11959E-03
 -1      3835 2.03829E-03
 -1      3836 4.47941E+00
 -1      3837 3.10788E+00
 -1      3838 1.56672E+00
 -1      3839 4.81555E+00
 -1      3840 5.05996E-01
 -1      3841 4.95597E-01
 -1      3842 3.71735E+00
 -1      3843 1.10862E+00
 -1      3844 3.53048E+00
 -1      3845 2.98646E+00
 -1      3846 4.13015E+00
 -1      3847 1.37593E-03
 -1      3848 4.90755E+00
 -1      3849 5.65653E+00
 -1      3850 2.07796E+00
 -1      3851 1.82817E+00
 -1      3852 1.79047E+00
 -1      3853 2.80870E-03
 -1      3854 2.03829E-03
 -1      3855 2.01942E-03
 -1      3856 5.22682E-01
 -1      3857 4.82451E-01
 -1      3858 5.82324E-01
 -1      3859 1.77875E-03
 -1      3860 4.54342E+00
 -1      3861 4.07012E+00
 -1      3862 3.96550E+00
 -1      3863 4.80474E+00
 -1      3864 6.08216E+00
 -1      3865 6.58100E+00
 -1      3866 5.01467E+00
 -1      3867 4.28565E+00
 -1      3868 4.39391E+00
 -1      3869 3.31072E-01
 -1      3870 3.90619E-01
 -1      3871 4.18003E-01
 -1      3872 3.82283E-01
 -1      3873 2.46787E-03
 -1      3874 4.05717E+00
 -1      3875 1.05827E+00
 -1      3876 1.24163E+00
 -1      3877 3.06572E-01
 -1      3878 3.53952E-01
 -1      3879 4.10485E-01
 -1      3880 4.72078E-01
 -1      3881 3.65216E-01
 -1      3882 2.50244E+00
 -1      3883 3.61438E+00
 -1      3884 4.41656E+00
 -1      3885 4.90755E+00
 -1      3886 3.15137E+00
 -1      3887 2.43440E+00
 -1      3888 4.81555E+00
 -1      3889 3.98817E+00
 -1      3890 1.37057E+00
 -1      3891 1.64530E+00
 -1      3892 1.32021E+00
 -1      3893 1.72070E+00
 -1      3894 1.39688E+00
 -1      3895 2.20455E+00
 -1      3896 1.23227E+00
 -1      3897 1.03698E+00
 -1      3898 1.32624E+00
 -1      3899 9.12333E-01
 -1      3900 8.10651E-01
 -1      3901 1.03698E+00
 -1      3902 7.08969E-01
 -1      3903 6.37163E-01
 -1      3904 8.10651E-01
 -1      3905 5.57746E-01
 -1      3906 5.05257E-01
 -1      3907 6.29553E-01
 -1      3908 4.40976E-01
 -1      3909 3.94280E-01
 -1      3910 4.85855E-01
 -1      3911 3.43971E-01
 -1      3912 3.04315E-01
 -1      3913 3.71264E-01
 -1      3914 2.65238E-01
 -1      3915 2.32453E-01
 -1      3916 2.81878E-01
 -1      3917 2.02197E-01
 -1      3918 1.75424E-01
 -1      3919 2.12545E-01
 -1      3920 1.52226E-01
 -1      3921 1.30824E-01
 -1      3922 1.59091E-01
 -1      3923 1.13018E-01
 -1      3924 9.61894E-02
 -1      3925 1.18087E-01
 -1      3926 8.21394E-02
 -1      3927 6.90098E-02
 -1      3928 8.62307E-02
 -1      3929 5.83794E-02
 -1      3930 4.83557E-02
 -1      3931 6.15502E-02
 -1      3932 4.04249E-02
 -1      3933 3.30816E-02
 -1      3934 4.29890E-02
 -1      3935 2.73006E-02
 -1      3936 2.21648E-02
 -1      3937 2.92771E-02
 -1      3938 1.85100E-02
 -1      3939 1.47625E-02
 -1      3940 1.98413E-02
 -1      3941 1.20533E-02
 -1      3942 9.38123E-03
 -1      3943 1.34773E-02
 -1      3944 7.34459E-03
 -1      3945 5.49580E-03
 -1      3946 8.73146E-03
 -1      3947 4.03228E-03
 -1      3948 2.94740E-03
 -1      3949 3.28824E-03
 -1      3950 5.23130E-03
 -1      3951 2.13082E-03
 -1      3952 2.06699E-03
 -1      3953 2.69901E-03
 -1      3954 1.98502E-03
 -1      3955 4.17252E+00
 -1      3956 4.06971E+00
 -1      3957 1.60305E+00
 -1      3958 1.88128E+00
 -1      3959 2.68205E+00
 -1      3960 2.23208E+00
 -1      3961 2.80005E+00
 -1      3962 2.03592E+00
 -1      3963 5.66445E-01
 -1      3964 6.49076E-01
 -1      3965 5.16117E-01
 -1      3966 2.31208E-01
 -1      3967 2.68110E-01
 -1      3968 2.70220E-01
 -1      3969 1.84406E-01
 -1      3970 2.12780E-01
 -1      3971 2.13330E-01
 -1      3972 1.34895E-01
 -1      3973 1.57097E-01
 -1      3974 1.67593E-01
 -1      3975 9.85256E-02
 -1      3976 1.15931E-01
 -1      3977 1.21319E-01
 -1      3978 7.14251E-02
 -1      3979 8.49574E-02
 -1      3980 8.87868E-02
 -1      3981 5.08236E-02
 -1      3982 6.10324E-02
 -1      3983 6.48259E-02
 -1      3984 3.55196E-02
 -1      3985 4.30564E-02
 -1      3986 4.66659E-02
 -1      3987 2.48003E-02
 -1      3988 2.99804E-02
 -1      3989 3.33594E-02
 -1      3990 1.68141E-02
 -1      3991 2.06137E-02
 -1      3992 2.36336E-02
 -1      3993 1.08379E-02
 -1      3994 1.35587E-02
 -1      3995 1.61916E-02
 -1      3996 6.21979E-03
 -1      3997 8.14048E-03
 -1      3998 1.02388E-02
 -1      3999 7.33805E-01
 -1      4000 6.83825E-01
 -1      4001 1.02730E+00
 -1      4002 1.19962E+00
 -1      4003 1.65746E+00
 -1      4004 4.32161E+00
 -1      4005 3.47610E+00
 -1      4006 4.09687E+00
 -1      4007 6.81671E-01
 -1      4008 6.35410E-01
 -1      4009 3.75505E+00
 -1      4010 9.79970E-01
 -1      4011 8.15775E-01
 -1      4012 6.93009E-01
 -1      4013 7.93846E-01
 -1      4014 1.02057E+00
 -1      4015 7.73045E-01
 -1      4016 8.91841E-01
 -1      4017 7.34454E-01
 -1      4018 4.10538E+00
 -1      4019 6.05870E-01
 -1      4020 4.95597E-01
 -1      4021 4.92556E-01
 -1      4022 1.43189E+00
 -1      4023 1.16954E+00
 -1      4024 9.84173E-01
 -1      4025 2.94266E+00
 -1      4026 3.46439E+00
 -1      4027 2.62759E+00
 -1      4028 1.02485E+00
 -1      4029 3.01325E+00
 -1      4030 3.19060E+00
 -1      4031 4.90755E+00
 -1      4032 3.73990E+00
 -1      4033 3.66882E-03
 -1      4034 3.18929E-03
 -1      4035 3.18929E-03
 -1      4036 2.79941E+00
 -1      4037 3.01325E+00
 -1      4038 3.08554E+00
 -1      4039 2.47981E+00
 -1      4040 1.91742E+00
 -1      4041 1.81699E+00
 -1      4042 1.55884E+00
 -1      4043 4.59693E-03
 -1      4044 5.91850E-03
 -1      4045 3.47687E-03
 -1      4046 7.08383E-01
 -1      4047 6.05238E-01
 -1      4048 5.33201E-01
 -1      4049 5.69298E-01
 -1      4050 3.37034E+00
 -1      4051 4.84642E-01
 -1      4052 5.23403E-01
 -1      4053 5.62576E-01
 -1      4054 5.97956E-01
 -1      4055 8.52133E-01
 -1      4056 8.75678E-01
 -1      4057 2.77431E-03
 -1      4058 6.87208E-01
 -1      4059 8.79302E-01
 -1      4060 8.79302E-01
 -1      4061 1.14911E+00
 -1      4062 2.02869E-01
 -1      4063 2.21296E-01
 -1      4064 2.62270E+00
 -1      4065 2.31758E-01
 -1      4066 2.70220E-01
 -1      4067 2.21296E-01
 -1      4068 3.51777E-03
 -1      4069 3.73628E+00
 -1      4070 3.38702E+00
 -1      4071 1.28143E+00
 -1      4072 1.41037E+00
 -1      4073 1.91389E+00
 -1      4074 1.55995E+00
 -1      4075 1.39534E+00
 -1      4076 1.98299E+00
 -1      4077 1.26660E+00
 -1      4078 1.14196E+00
 -1      4079 1.50032E+00
 -1      4080 1.05180E+00
 -1      4081 9.50121E-01
 -1      4082 1.28143E+00
 -1      4083 7.83697E-01
 -1      4084 7.04280E-01
 -1      4085 1.02485E+00
 -1      4086 5.80310E-01
 -1      4087 5.16029E-01
 -1      4088 7.34454E-01
 -1      4089 4.21662E-01
 -1      4090 3.71353E-01
 -1      4091 5.16117E-01
 -1      4092 2.77962E-01
 -1      4093 2.38885E-01
 -1      4094 3.28360E-01
 -1      4095 2.16669E-01
 -1      4096 1.86413E-01
 -1      4097 2.12753E-01
 -1      4098 1.88596E-01
 -1      4099 1.65398E-01
 -1      4100 1.92720E-01
 -1      4101 1.27448E-01
 -1      4102 1.09642E-01
 -1      4103 1.56953E-01
 -1      4104 9.41100E-02
 -1      4105 8.00599E-02
 -1      4106 1.03471E-01
 -1      4107 6.84921E-02
 -1      4108 5.78617E-02
 -1      4109 7.63715E-02
 -1      4110 4.88479E-02
 -1      4111 4.09171E-02
 -1      4112 5.57899E-02
 -1      4113 3.39741E-02
 -1      4114 2.81930E-02
 -1      4115 3.98330E-02
 -1      4116 2.30182E-02
 -1      4117 1.93634E-02
 -1      4118 2.77152E-02
 -1      4119 1.57588E-02
 -1      4120 1.30496E-02
 -1      4121 1.89357E-02
 -1      4122 1.02451E-02
 -1      4123 8.20845E-03
 -1      4124 1.25266E-02
 -1      4125 5.57152E-03
 -1      4126 4.10799E-03
 -1      4127 4.00904E-03
 -1      4128 7.08514E-03
 -1      4129 3.59259E+00
 -1      4130 2.27117E+00
 -1      4131 2.89233E+00
 -1      4132 2.95947E+00
 -1      4133 3.55423E+00
 -1      4134 2.88768E+00
 -1      4135 3.19010E+00
 -1      4136 2.70200E+00
 -1      4137 2.40967E+00
 -1      4138 3.65216E-01
 -1      4139 4.21750E-01
 -1      4140 2.47852E+00
 -1      4141 1.55256E+00
 -1      4142 2.13934E+00
 -1      4143 2.13934E+00
 -1      4144 1.51378E+00
 -1      4145 5.16117E-01
 -1      4146 6.10484E-01
 -1      4147 5.94472E-01
 -1      4148 1.67593E-01
 -1      4149 1.94903E-01
 -1      4150 1.10679E-01
 -1      4151 1.29643E-01
 -1      4152 8.15789E-02
 -1      4153 9.51472E-02
 -1      4154 5.96184E-02
 -1      4155 7.00111E-02
 -1      4156 4.28374E-02
 -1      4157 5.06046E-02
 -1      4158 3.03551E-02
 -1      4159 3.58943E-02
 -1      4160 2.09937E-02
 -1      4161 2.51803E-02
 -1      4162 1.41336E-02
 -1      4163 1.73890E-02
 -1      4164 8.63172E-03
 -1      4165 1.13291E-02
 -1      4166 9.11301E-01
 -1      4167 1.14476E+00
 -1      4168 6.76690E-01
 -1      4169 6.96493E-01
 -1      4170 6.88580E-01
 -1      4171 1.39090E+00
 -1      4172 1.79433E+00
 -1      4173 2.00462E+00
 -1      4174 1.28163E+00
 -1      4175 3.55217E-03
 -1      4176 1.02485E+00
 -1      4177 1.19127E+00
 -1      4178 7.34454E-01
 -1      4179 8.58424E-01
 -1      4180 9.70044E-01
 -1      4181 1.15962E+00
 -1      4182 2.50503E+00
 -1      4183 1.55884E+00
 -1      4184 1.54471E+00
 -1      4185 2.14091E+00
 -1      4186 2.12588E+00
 -1      4187 1.54834E+00
 -1      4188 1.94394E+00
 -1      4189 3.93275E-03
 -1      4190 9.69926E-01
 -1      4191 2.22902E-01
 -1      4192 2.33364E-01
 -1      4193 1.28143E+00
 -1      4194 2.14091E+00
 -1      4195 1.64252E+00
 -1      4196 1.51378E+00
 -1      4197 1.37158E+00
 -1      4198 3.26754E-01
 -1      4199 2.00686E-01
 -1      4200 2.02869E-01
 -1      4201 2.21270E+00
 -1      4202 1.09411E+00
 -1      4203 4.35526E-03
 -1      4204 5.97813E-03
 -1      4205 1.73585E+00
 -1      4206 7.06848E-03
 -1      4207 1.34025E+00
 -1      4208 3.99238E-03
 -1      4209 4.43155E-03
 -3
 9999
