    1C
    1UUSER                                                              
    1UDATE              26.october.2022                                 
    1UTIME              23:35:40                                        
    1UHOST                                                              
    1UPGM               CalculiX                                        
    1UVERSION           Version 2.17                             
    1UCOMPILETIME       Thu Jul 23 21:43:50 CEST 2020                    
    1UDIR                                                               
    1UDBN                                                               
    1UMAT    1SOLIDMATERIAL                                             
    2C                          4313                                     1
 -1         1 8.45455E+01 2.92314E+01 0.00000E+00
 -1         2 9.13333E+01 2.22346E+01 0.00000E+00
 -1         3 1.50000E+02 0.00000E+00 0.00000E+00
 -1         4 1.50000E+02 5.00000E+01 0.00000E+00
 -1         5 0.00000E+00 0.00000E+00 0.00000E+00
 -1         6 0.00000E+00 5.00000E+01 0.00000E+00
 -1         7 0.00000E+00 4.70500E+01 0.00000E+00
 -1         8 0.00000E+00 4.41000E+01 0.00000E+00
 -1         9 0.00000E+00 4.11500E+01 0.00000E+00
 -1        10 0.00000E+00 3.82000E+01 0.00000E+00
 -1        11 0.00000E+00 3.52500E+01 0.00000E+00
 -1        12 0.00000E+00 3.23500E+01 0.00000E+00
 -1        13 0.00000E+00 2.94000E+01 0.00000E+00
 -1        14 0.00000E+00 2.64500E+01 0.00000E+00
 -1        15 0.00000E+00 2.35000E+01 0.00000E+00
 -1        16 0.00000E+00 2.05500E+01 0.00000E+00
 -1        17 0.00000E+00 1.76000E+01 0.00000E+00
 -1        18 0.00000E+00 1.47000E+01 0.00000E+00
 -1        19 0.00000E+00 1.17500E+01 0.00000E+00
 -1        20 0.00000E+00 8.80000E+00 0.00000E+00
 -1        21 0.00000E+00 5.85000E+00 0.00000E+00
 -1        22 0.00000E+00 2.90000E+00 0.00000E+00
 -1        23 3.15000E+00 5.00000E+01 0.00000E+00
 -1        24 6.15000E+00 5.00000E+01 0.00000E+00
 -1        25 9.15000E+00 5.00000E+01 0.00000E+00
 -1        26 1.21500E+01 5.00000E+01 0.00000E+00
 -1        27 1.51500E+01 5.00000E+01 0.00000E+00
 -1        28 1.81500E+01 5.00000E+01 0.00000E+00
 -1        29 2.11500E+01 5.00000E+01 0.00000E+00
 -1        30 2.41500E+01 5.00000E+01 0.00000E+00
 -1        31 2.71500E+01 5.00000E+01 0.00000E+00
 -1        32 3.01500E+01 5.00000E+01 0.00000E+00
 -1        33 3.31500E+01 5.00000E+01 0.00000E+00
 -1        34 3.61500E+01 5.00000E+01 0.00000E+00
 -1        35 3.91500E+01 5.00000E+01 0.00000E+00
 -1        36 4.21500E+01 5.00000E+01 0.00000E+00
 -1        37 4.51500E+01 5.00000E+01 0.00000E+00
 -1        38 4.81500E+01 5.00000E+01 0.00000E+00
 -1        39 5.11500E+01 5.00000E+01 0.00000E+00
 -1        40 5.41500E+01 5.00000E+01 0.00000E+00
 -1        41 5.71500E+01 5.00000E+01 0.00000E+00
 -1        42 6.01500E+01 5.00000E+01 0.00000E+00
 -1        43 6.31500E+01 5.00000E+01 0.00000E+00
 -1        44 6.61500E+01 5.00000E+01 0.00000E+00
 -1        45 6.91500E+01 5.00000E+01 0.00000E+00
 -1        46 7.21500E+01 5.00000E+01 0.00000E+00
 -1        47 7.51500E+01 5.00000E+01 0.00000E+00
 -1        48 7.81500E+01 5.00000E+01 0.00000E+00
 -1        49 8.11500E+01 5.00000E+01 0.00000E+00
 -1        50 8.41500E+01 5.00000E+01 0.00000E+00
 -1        51 8.71500E+01 5.00000E+01 0.00000E+00
 -1        52 9.01500E+01 5.00000E+01 0.00000E+00
 -1        53 9.31500E+01 5.00000E+01 0.00000E+00
 -1        54 9.61500E+01 5.00000E+01 0.00000E+00
 -1        55 9.91500E+01 5.00000E+01 0.00000E+00
 -1        56 1.02150E+02 5.00000E+01 0.00000E+00
 -1        57 1.05150E+02 5.00000E+01 0.00000E+00
 -1        58 1.08150E+02 5.00000E+01 0.00000E+00
 -1        59 1.11150E+02 5.00000E+01 0.00000E+00
 -1        60 1.14150E+02 5.00000E+01 0.00000E+00
 -1        61 1.17150E+02 5.00000E+01 0.00000E+00
 -1        62 1.20150E+02 5.00000E+01 0.00000E+00
 -1        63 1.23150E+02 5.00000E+01 0.00000E+00
 -1        64 1.26150E+02 5.00000E+01 0.00000E+00
 -1        65 1.29150E+02 5.00000E+01 0.00000E+00
 -1        66 1.32150E+02 5.00000E+01 0.00000E+00
 -1        67 1.35150E+02 5.00000E+01 0.00000E+00
 -1        68 1.38150E+02 5.00000E+01 0.00000E+00
 -1        69 1.41150E+02 5.00000E+01 0.00000E+00
 -1        70 1.44150E+02 5.00000E+01 0.00000E+00
 -1        71 1.47150E+02 5.00000E+01 0.00000E+00
 -1        72 3.15000E+00 0.00000E+00 0.00000E+00
 -1        73 6.15000E+00 0.00000E+00 0.00000E+00
 -1        74 9.15000E+00 0.00000E+00 0.00000E+00
 -1        75 1.21500E+01 0.00000E+00 0.00000E+00
 -1        76 1.51500E+01 0.00000E+00 0.00000E+00
 -1        77 1.81500E+01 0.00000E+00 0.00000E+00
 -1        78 2.11500E+01 0.00000E+00 0.00000E+00
 -1        79 2.41500E+01 0.00000E+00 0.00000E+00
 -1        80 2.71500E+01 0.00000E+00 0.00000E+00
 -1        81 3.01500E+01 0.00000E+00 0.00000E+00
 -1        82 3.31500E+01 0.00000E+00 0.00000E+00
 -1        83 3.61500E+01 0.00000E+00 0.00000E+00
 -1        84 3.91500E+01 0.00000E+00 0.00000E+00
 -1        85 4.21500E+01 0.00000E+00 0.00000E+00
 -1        86 4.51500E+01 0.00000E+00 0.00000E+00
 -1        87 4.81500E+01 0.00000E+00 0.00000E+00
 -1        88 5.11500E+01 0.00000E+00 0.00000E+00
 -1        89 5.41500E+01 0.00000E+00 0.00000E+00
 -1        90 5.71500E+01 0.00000E+00 0.00000E+00
 -1        91 6.01500E+01 0.00000E+00 0.00000E+00
 -1        92 6.31500E+01 0.00000E+00 0.00000E+00
 -1        93 6.61500E+01 0.00000E+00 0.00000E+00
 -1        94 6.91500E+01 0.00000E+00 0.00000E+00
 -1        95 7.21500E+01 0.00000E+00 0.00000E+00
 -1        96 7.51500E+01 0.00000E+00 0.00000E+00
 -1        97 7.81500E+01 0.00000E+00 0.00000E+00
 -1        98 8.11500E+01 0.00000E+00 0.00000E+00
 -1        99 8.41500E+01 0.00000E+00 0.00000E+00
 -1       100 8.71500E+01 0.00000E+00 0.00000E+00
 -1       101 9.01500E+01 0.00000E+00 0.00000E+00
 -1       102 9.31500E+01 0.00000E+00 0.00000E+00
 -1       103 9.61500E+01 0.00000E+00 0.00000E+00
 -1       104 9.91500E+01 0.00000E+00 0.00000E+00
 -1       105 1.02150E+02 0.00000E+00 0.00000E+00
 -1       106 1.05150E+02 0.00000E+00 0.00000E+00
 -1       107 1.08150E+02 0.00000E+00 0.00000E+00
 -1       108 1.11150E+02 0.00000E+00 0.00000E+00
 -1       109 1.14150E+02 0.00000E+00 0.00000E+00
 -1       110 1.17150E+02 0.00000E+00 0.00000E+00
 -1       111 1.20150E+02 0.00000E+00 0.00000E+00
 -1       112 1.23150E+02 0.00000E+00 0.00000E+00
 -1       113 1.26150E+02 0.00000E+00 0.00000E+00
 -1       114 1.29150E+02 0.00000E+00 0.00000E+00
 -1       115 1.32150E+02 0.00000E+00 0.00000E+00
 -1       116 1.35150E+02 0.00000E+00 0.00000E+00
 -1       117 1.38150E+02 0.00000E+00 0.00000E+00
 -1       118 1.41150E+02 0.00000E+00 0.00000E+00
 -1       119 1.44150E+02 0.00000E+00 0.00000E+00
 -1       120 1.47150E+02 0.00000E+00 0.00000E+00
 -1       121 1.50000E+02 2.95000E+00 0.00000E+00
 -1       122 1.50000E+02 5.90000E+00 0.00000E+00
 -1       123 1.50000E+02 8.85000E+00 0.00000E+00
 -1       124 1.50000E+02 1.18000E+01 0.00000E+00
 -1       125 1.50000E+02 1.47500E+01 0.00000E+00
 -1       126 1.50000E+02 1.76500E+01 0.00000E+00
 -1       127 1.50000E+02 2.06000E+01 0.00000E+00
 -1       128 1.50000E+02 2.35500E+01 0.00000E+00
 -1       129 1.50000E+02 2.65000E+01 0.00000E+00
 -1       130 1.50000E+02 2.94500E+01 0.00000E+00
 -1       131 1.50000E+02 3.24000E+01 0.00000E+00
 -1       132 1.50000E+02 3.53000E+01 0.00000E+00
 -1       133 1.50000E+02 3.82500E+01 0.00000E+00
 -1       134 1.50000E+02 4.12000E+01 0.00000E+00
 -1       135 1.50000E+02 4.41500E+01 0.00000E+00
 -1       136 1.50000E+02 4.71000E+01 0.00000E+00
 -1       137 9.11432E+01 2.06142E+01 0.00000E+00
 -1       138 9.06687E+01 1.92575E+01 0.00000E+00
 -1       139 8.99071E+01 1.79999E+01 0.00000E+00
 -1       140 8.89042E+01 1.69330E+01 0.00000E+00
 -1       141 8.77622E+01 1.61319E+01 0.00000E+00
 -1       142 8.63155E+01 1.55211E+01 0.00000E+00
 -1       143 8.48401E+01 1.52530E+01 0.00000E+00
 -1       144 8.32803E+01 1.53142E+01 0.00000E+00
 -1       145 8.17814E+01 1.57163E+01 0.00000E+00
 -1       146 8.04849E+01 1.63874E+01 0.00000E+00
 -1       147 7.93782E+01 1.72902E+01 0.00000E+00
 -1       148 7.84758E+01 1.84018E+01 0.00000E+00
 -1       149 7.78024E+01 1.97151E+01 0.00000E+00
 -1       150 7.74058E+01 2.12295E+01 0.00000E+00
 -1       151 7.73609E+01 2.28551E+01 0.00000E+00
 -1       152 7.76438E+01 2.42961E+01 0.00000E+00
 -1       153 7.82439E+01 2.56870E+01 0.00000E+00
 -1       154 7.90986E+01 2.68819E+01 0.00000E+00
 -1       155 8.01831E+01 2.78716E+01 0.00000E+00
 -1       156 8.14201E+01 2.85996E+01 0.00000E+00
 -1       157 8.30694E+01 2.91195E+01 0.00000E+00
 -1       158 8.60714E+01 2.90154E+01 0.00000E+00
 -1       159 8.75041E+01 2.84753E+01 0.00000E+00
 -1       160 8.87496E+01 2.76656E+01 0.00000E+00
 -1       161 8.97984E+01 2.66087E+01 0.00000E+00
 -1       162 9.06554E+01 2.52399E+01 0.00000E+00
 -1       163 9.11596E+01 2.37845E+01 0.00000E+00
 -1       164 2.59800E+00 4.55750E+01 0.00000E+00
 -1       165 2.59800E+00 4.26250E+01 0.00000E+00
 -1       166 2.59800E+00 3.96750E+01 0.00000E+00
 -1       167 2.59800E+00 3.67250E+01 0.00000E+00
 -1       168 2.59800E+00 3.38250E+01 0.00000E+00
 -1       169 2.59800E+00 3.08750E+01 0.00000E+00
 -1       170 2.59800E+00 2.79250E+01 0.00000E+00
 -1       171 2.59800E+00 2.49750E+01 0.00000E+00
 -1       172 2.59800E+00 2.20250E+01 0.00000E+00
 -1       173 2.59800E+00 1.90750E+01 0.00000E+00
 -1       174 2.59800E+00 1.61750E+01 0.00000E+00
 -1       175 2.59800E+00 1.32250E+01 0.00000E+00
 -1       176 2.59800E+00 1.02750E+01 0.00000E+00
 -1       177 2.59800E+00 7.32500E+00 0.00000E+00
 -1       178 2.59800E+00 4.37500E+00 0.00000E+00
 -1       179 2.87400E+00 2.18750E+00 0.00000E+00
 -1       180 4.65000E+00 4.74020E+01 0.00000E+00
 -1       181 7.65000E+00 4.74020E+01 0.00000E+00
 -1       182 1.06500E+01 4.74020E+01 0.00000E+00
 -1       183 1.36500E+01 4.74020E+01 0.00000E+00
 -1       184 1.66500E+01 4.74020E+01 0.00000E+00
 -1       185 1.96500E+01 4.74020E+01 0.00000E+00
 -1       186 2.26500E+01 4.74020E+01 0.00000E+00
 -1       187 2.56500E+01 4.74020E+01 0.00000E+00
 -1       188 2.86500E+01 4.74020E+01 0.00000E+00
 -1       189 3.16500E+01 4.74020E+01 0.00000E+00
 -1       190 3.46500E+01 4.74020E+01 0.00000E+00
 -1       191 3.76500E+01 4.74020E+01 0.00000E+00
 -1       192 4.06500E+01 4.74020E+01 0.00000E+00
 -1       193 4.36500E+01 4.74020E+01 0.00000E+00
 -1       194 4.66500E+01 4.74020E+01 0.00000E+00
 -1       195 4.96500E+01 4.74020E+01 0.00000E+00
 -1       196 5.26500E+01 4.74020E+01 0.00000E+00
 -1       197 5.56500E+01 4.74020E+01 0.00000E+00
 -1       198 5.86500E+01 4.74020E+01 0.00000E+00
 -1       199 6.16500E+01 4.74020E+01 0.00000E+00
 -1       200 6.46500E+01 4.74020E+01 0.00000E+00
 -1       201 6.76500E+01 4.74020E+01 0.00000E+00
 -1       202 7.06500E+01 4.74020E+01 0.00000E+00
 -1       203 7.36500E+01 4.74020E+01 0.00000E+00
 -1       204 7.66500E+01 4.74020E+01 0.00000E+00
 -1       205 7.96500E+01 4.74020E+01 0.00000E+00
 -1       206 8.26500E+01 4.74020E+01 0.00000E+00
 -1       207 8.56500E+01 4.74020E+01 0.00000E+00
 -1       208 8.86500E+01 4.74020E+01 0.00000E+00
 -1       209 9.16500E+01 4.74020E+01 0.00000E+00
 -1       210 9.46500E+01 4.74020E+01 0.00000E+00
 -1       211 9.76500E+01 4.74020E+01 0.00000E+00
 -1       212 1.00650E+02 4.74020E+01 0.00000E+00
 -1       213 1.03650E+02 4.74020E+01 0.00000E+00
 -1       214 1.06650E+02 4.74020E+01 0.00000E+00
 -1       215 1.09650E+02 4.74020E+01 0.00000E+00
 -1       216 1.12650E+02 4.74020E+01 0.00000E+00
 -1       217 1.15650E+02 4.74020E+01 0.00000E+00
 -1       218 1.18650E+02 4.74020E+01 0.00000E+00
 -1       219 1.21650E+02 4.74020E+01 0.00000E+00
 -1       220 1.24650E+02 4.74020E+01 0.00000E+00
 -1       221 1.27650E+02 4.74020E+01 0.00000E+00
 -1       222 1.30650E+02 4.74020E+01 0.00000E+00
 -1       223 1.33650E+02 4.74020E+01 0.00000E+00
 -1       224 1.36650E+02 4.74020E+01 0.00000E+00
 -1       225 1.39650E+02 4.74020E+01 0.00000E+00
 -1       226 1.42650E+02 4.74020E+01 0.00000E+00
 -1       227 1.45650E+02 4.74020E+01 0.00000E+00
 -1       228 5.87400E+00 2.18750E+00 0.00000E+00
 -1       229 8.87400E+00 2.18750E+00 0.00000E+00
 -1       230 1.18740E+01 2.18750E+00 0.00000E+00
 -1       231 1.48740E+01 2.18750E+00 0.00000E+00
 -1       232 1.78740E+01 2.18750E+00 0.00000E+00
 -1       233 2.08740E+01 2.18750E+00 0.00000E+00
 -1       234 2.38740E+01 2.18750E+00 0.00000E+00
 -1       235 2.68740E+01 2.18750E+00 0.00000E+00
 -1       236 2.98740E+01 2.18750E+00 0.00000E+00
 -1       237 3.28740E+01 2.18750E+00 0.00000E+00
 -1       238 3.58740E+01 2.18750E+00 0.00000E+00
 -1       239 3.88740E+01 2.18750E+00 0.00000E+00
 -1       240 4.18740E+01 2.18750E+00 0.00000E+00
 -1       241 4.48740E+01 2.18750E+00 0.00000E+00
 -1       242 4.78740E+01 2.18750E+00 0.00000E+00
 -1       243 5.08740E+01 2.18750E+00 0.00000E+00
 -1       244 5.38740E+01 2.18750E+00 0.00000E+00
 -1       245 5.68740E+01 2.18750E+00 0.00000E+00
 -1       246 5.98740E+01 2.18750E+00 0.00000E+00
 -1       247 6.28740E+01 2.18750E+00 0.00000E+00
 -1       248 6.58740E+01 2.18750E+00 0.00000E+00
 -1       249 6.88740E+01 2.18750E+00 0.00000E+00
 -1       250 7.18740E+01 2.18750E+00 0.00000E+00
 -1       251 7.48740E+01 2.18750E+00 0.00000E+00
 -1       252 7.78740E+01 2.18750E+00 0.00000E+00
 -1       253 8.08740E+01 2.18750E+00 0.00000E+00
 -1       254 8.38740E+01 2.18750E+00 0.00000E+00
 -1       255 8.68740E+01 2.18750E+00 0.00000E+00
 -1       256 8.98740E+01 2.18750E+00 0.00000E+00
 -1       257 9.28740E+01 2.18750E+00 0.00000E+00
 -1       258 9.58740E+01 2.18750E+00 0.00000E+00
 -1       259 9.88740E+01 2.18750E+00 0.00000E+00
 -1       260 1.01874E+02 2.18750E+00 0.00000E+00
 -1       261 1.04874E+02 2.18750E+00 0.00000E+00
 -1       262 1.07874E+02 2.18750E+00 0.00000E+00
 -1       263 1.10874E+02 2.18750E+00 0.00000E+00
 -1       264 1.13874E+02 2.18750E+00 0.00000E+00
 -1       265 1.16874E+02 2.18750E+00 0.00000E+00
 -1       266 1.19874E+02 2.18750E+00 0.00000E+00
 -1       267 1.22874E+02 2.18750E+00 0.00000E+00
 -1       268 1.25874E+02 2.18750E+00 0.00000E+00
 -1       269 1.28874E+02 2.18750E+00 0.00000E+00
 -1       270 1.31874E+02 2.18750E+00 0.00000E+00
 -1       271 1.34874E+02 2.18750E+00 0.00000E+00
 -1       272 1.37874E+02 2.18750E+00 0.00000E+00
 -1       273 1.40874E+02 2.18750E+00 0.00000E+00
 -1       274 1.43874E+02 2.18750E+00 0.00000E+00
 -1       275 1.46874E+02 2.18750E+00 0.00000E+00
 -1       276 1.47402E+02 4.42500E+00 0.00000E+00
 -1       277 1.47402E+02 7.37500E+00 0.00000E+00
 -1       278 1.47402E+02 1.03250E+01 0.00000E+00
 -1       279 1.47402E+02 1.32750E+01 0.00000E+00
 -1       280 1.47402E+02 1.61750E+01 0.00000E+00
 -1       281 1.47402E+02 1.91250E+01 0.00000E+00
 -1       282 1.47402E+02 2.20750E+01 0.00000E+00
 -1       283 1.47402E+02 2.50250E+01 0.00000E+00
 -1       284 1.47402E+02 2.79750E+01 0.00000E+00
 -1       285 1.47402E+02 3.09250E+01 0.00000E+00
 -1       286 1.47402E+02 3.38250E+01 0.00000E+00
 -1       287 1.47402E+02 3.67750E+01 0.00000E+00
 -1       288 1.47402E+02 3.97250E+01 0.00000E+00
 -1       289 1.47402E+02 4.26750E+01 0.00000E+00
 -1       290 1.46526E+02 4.50385E+01 0.00000E+00
 -1       291 9.27752E+01 2.12440E+01 0.00000E+00
 -1       292 9.20504E+01 1.95356E+01 0.00000E+00
 -1       293 9.13966E+01 1.79573E+01 0.00000E+00
 -1       294 9.02890E+01 1.66360E+01 0.00000E+00
 -1       295 8.90294E+01 1.55399E+01 0.00000E+00
 -1       296 8.76082E+01 1.44780E+01 0.00000E+00
 -1       297 8.57946E+01 1.41942E+01 0.00000E+00
 -1       298 8.40060E+01 1.39047E+01 0.00000E+00
 -1       299 8.21299E+01 1.40206E+01 0.00000E+00
 -1       300 8.05373E+01 1.49008E+01 0.00000E+00
 -1       301 7.91652E+01 1.58994E+01 0.00000E+00
 -1       302 7.79857E+01 1.70819E+01 0.00000E+00
 -1       303 7.70603E+01 1.85053E+01 0.00000E+00
 -1       304 7.64313E+01 2.01651E+01 0.00000E+00
 -1       305 7.60039E+01 2.20041E+01 0.00000E+00
 -1       306 7.63126E+01 2.38091E+01 0.00000E+00
 -1       307 7.66768E+01 2.55383E+01 0.00000E+00
 -1       308 7.76170E+01 2.70385E+01 0.00000E+00
 -1       309 7.87671E+01 2.83342E+01 0.00000E+00
 -1       310 8.01866E+01 2.92804E+01 0.00000E+00
 -1       311 8.17794E+01 3.03355E+01 0.00000E+00
 -1       312 8.37095E+01 3.04679E+01 0.00000E+00
 -1       313 8.54901E+01 3.04068E+01 0.00000E+00
 -1       314 8.72154E+01 2.98798E+01 0.00000E+00
 -1       315 8.87877E+01 2.90869E+01 0.00000E+00
 -1       316 9.01346E+01 2.79911E+01 0.00000E+00
 -1       317 9.13966E+01 2.66565E+01 0.00000E+00
 -1       318 9.20531E+01 2.49091E+01 0.00000E+00
 -1       319 9.24513E+01 2.31446E+01 0.00000E+00
 -1       320 5.19600E+00 4.11500E+01 0.00000E+00
 -1       321 5.19600E+00 4.41000E+01 0.00000E+00
 -1       322 5.19600E+00 3.52750E+01 0.00000E+00
 -1       323 5.19600E+00 3.23250E+01 0.00000E+00
 -1       324 5.19600E+00 2.93750E+01 0.00000E+00
 -1       325 5.19600E+00 2.64250E+01 0.00000E+00
 -1       326 5.19600E+00 2.34750E+01 0.00000E+00
 -1       327 5.19600E+00 2.05250E+01 0.00000E+00
 -1       328 5.19600E+00 1.76250E+01 0.00000E+00
 -1       329 5.19600E+00 1.46750E+01 0.00000E+00
 -1       330 5.19600E+00 1.17250E+01 0.00000E+00
 -1       331 5.19600E+00 8.77500E+00 0.00000E+00
 -1       332 5.19600E+00 5.82500E+00 0.00000E+00
 -1       333 5.53500E+00 4.00625E+00 0.00000E+00
 -1       334 8.53500E+00 4.00625E+00 0.00000E+00
 -1       335 9.15000E+00 4.48040E+01 0.00000E+00
 -1       336 1.21500E+01 4.48040E+01 0.00000E+00
 -1       337 1.51500E+01 4.48040E+01 0.00000E+00
 -1       338 1.81500E+01 4.48040E+01 0.00000E+00
 -1       339 2.11500E+01 4.48040E+01 0.00000E+00
 -1       340 2.41500E+01 4.48040E+01 0.00000E+00
 -1       341 2.71500E+01 4.48040E+01 0.00000E+00
 -1       342 3.01500E+01 4.48040E+01 0.00000E+00
 -1       343 3.31500E+01 4.48040E+01 0.00000E+00
 -1       344 3.61500E+01 4.48040E+01 0.00000E+00
 -1       345 3.91500E+01 4.48040E+01 0.00000E+00
 -1       346 4.21500E+01 4.48040E+01 0.00000E+00
 -1       347 4.51500E+01 4.48040E+01 0.00000E+00
 -1       348 4.81500E+01 4.48040E+01 0.00000E+00
 -1       349 5.11500E+01 4.48040E+01 0.00000E+00
 -1       350 5.41500E+01 4.48040E+01 0.00000E+00
 -1       351 5.71500E+01 4.48040E+01 0.00000E+00
 -1       352 6.01500E+01 4.48040E+01 0.00000E+00
 -1       353 6.31500E+01 4.48040E+01 0.00000E+00
 -1       354 6.61500E+01 4.48040E+01 0.00000E+00
 -1       355 6.91500E+01 4.48040E+01 0.00000E+00
 -1       356 7.21500E+01 4.48040E+01 0.00000E+00
 -1       357 7.51500E+01 4.48040E+01 0.00000E+00
 -1       358 7.81500E+01 4.48040E+01 0.00000E+00
 -1       359 8.11500E+01 4.48040E+01 0.00000E+00
 -1       360 8.41500E+01 4.48040E+01 0.00000E+00
 -1       361 8.71500E+01 4.48040E+01 0.00000E+00
 -1       362 9.01500E+01 4.48040E+01 0.00000E+00
 -1       363 9.31500E+01 4.48040E+01 0.00000E+00
 -1       364 9.61500E+01 4.48040E+01 0.00000E+00
 -1       365 9.91500E+01 4.48040E+01 0.00000E+00
 -1       366 1.02150E+02 4.48040E+01 0.00000E+00
 -1       367 1.05150E+02 4.48040E+01 0.00000E+00
 -1       368 1.08150E+02 4.48040E+01 0.00000E+00
 -1       369 1.11150E+02 4.48040E+01 0.00000E+00
 -1       370 1.14150E+02 4.48040E+01 0.00000E+00
 -1       371 1.17150E+02 4.48040E+01 0.00000E+00
 -1       372 1.20150E+02 4.48040E+01 0.00000E+00
 -1       373 1.23150E+02 4.48040E+01 0.00000E+00
 -1       374 1.26150E+02 4.48040E+01 0.00000E+00
 -1       375 1.29150E+02 4.48040E+01 0.00000E+00
 -1       376 1.32150E+02 4.48040E+01 0.00000E+00
 -1       377 1.35150E+02 4.48040E+01 0.00000E+00
 -1       378 1.38150E+02 4.48040E+01 0.00000E+00
 -1       379 1.41150E+02 4.48040E+01 0.00000E+00
 -1       380 1.43838E+02 4.49212E+01 0.00000E+00
 -1       381 1.15350E+01 4.00625E+00 0.00000E+00
 -1       382 1.45350E+01 4.00625E+00 0.00000E+00
 -1       383 1.75350E+01 4.00625E+00 0.00000E+00
 -1       384 2.05350E+01 4.00625E+00 0.00000E+00
 -1       385 2.35350E+01 4.00625E+00 0.00000E+00
 -1       386 2.65350E+01 4.00625E+00 0.00000E+00
 -1       387 2.95350E+01 4.00625E+00 0.00000E+00
 -1       388 3.25350E+01 4.00625E+00 0.00000E+00
 -1       389 3.55350E+01 4.00625E+00 0.00000E+00
 -1       390 3.85350E+01 4.00625E+00 0.00000E+00
 -1       391 4.15350E+01 4.00625E+00 0.00000E+00
 -1       392 4.45350E+01 4.00625E+00 0.00000E+00
 -1       393 4.75350E+01 4.00625E+00 0.00000E+00
 -1       394 5.05350E+01 4.00625E+00 0.00000E+00
 -1       395 5.35350E+01 4.00625E+00 0.00000E+00
 -1       396 5.65350E+01 4.00625E+00 0.00000E+00
 -1       397 5.95350E+01 4.00625E+00 0.00000E+00
 -1       398 6.25350E+01 4.00625E+00 0.00000E+00
 -1       399 6.55350E+01 4.00625E+00 0.00000E+00
 -1       400 6.85350E+01 4.00625E+00 0.00000E+00
 -1       401 7.15350E+01 4.00625E+00 0.00000E+00
 -1       402 7.45350E+01 4.00625E+00 0.00000E+00
 -1       403 7.75350E+01 4.00625E+00 0.00000E+00
 -1       404 8.05350E+01 4.00625E+00 0.00000E+00
 -1       405 8.35350E+01 4.00625E+00 0.00000E+00
 -1       406 8.65350E+01 4.00625E+00 0.00000E+00
 -1       407 8.95350E+01 4.00625E+00 0.00000E+00
 -1       408 9.25350E+01 4.00625E+00 0.00000E+00
 -1       409 9.55350E+01 4.00625E+00 0.00000E+00
 -1       410 9.85350E+01 4.00625E+00 0.00000E+00
 -1       411 1.01535E+02 4.00625E+00 0.00000E+00
 -1       412 1.04535E+02 4.00625E+00 0.00000E+00
 -1       413 1.07535E+02 4.00625E+00 0.00000E+00
 -1       414 1.10535E+02 4.00625E+00 0.00000E+00
 -1       415 1.13535E+02 4.00625E+00 0.00000E+00
 -1       416 1.16535E+02 4.00625E+00 0.00000E+00
 -1       417 1.19535E+02 4.00625E+00 0.00000E+00
 -1       418 1.22535E+02 4.00625E+00 0.00000E+00
 -1       419 1.25535E+02 4.00625E+00 0.00000E+00
 -1       420 1.28535E+02 4.00625E+00 0.00000E+00
 -1       421 1.31535E+02 4.00625E+00 0.00000E+00
 -1       422 1.34535E+02 4.00625E+00 0.00000E+00
 -1       423 1.37535E+02 4.00625E+00 0.00000E+00
 -1       424 1.40535E+02 4.00625E+00 0.00000E+00
 -1       425 1.43535E+02 4.00625E+00 0.00000E+00
 -1       426 1.45469E+02 4.21562E+00 0.00000E+00
 -1       427 1.44804E+02 1.18000E+01 0.00000E+00
 -1       428 1.44804E+02 8.85000E+00 0.00000E+00
 -1       429 1.45136E+02 6.53281E+00 0.00000E+00
 -1       430 1.44804E+02 1.47000E+01 0.00000E+00
 -1       431 1.44804E+02 1.76500E+01 0.00000E+00
 -1       432 1.44804E+02 2.06000E+01 0.00000E+00
 -1       433 1.44804E+02 2.35500E+01 0.00000E+00
 -1       434 1.44804E+02 2.65000E+01 0.00000E+00
 -1       435 1.44804E+02 2.94500E+01 0.00000E+00
 -1       436 1.44804E+02 3.23500E+01 0.00000E+00
 -1       437 1.44804E+02 3.53000E+01 0.00000E+00
 -1       438 1.44804E+02 3.82500E+01 0.00000E+00
 -1       439 1.44804E+02 4.12000E+01 0.00000E+00
 -1       440 9.31533E+01 1.81543E+01 0.00000E+00
 -1       441 9.41388E+01 2.24544E+01 0.00000E+00
 -1       442 9.38781E+01 1.98627E+01 0.00000E+00
 -1       443 9.19646E+01 1.63563E+01 0.00000E+00
 -1       444 9.05651E+01 1.50470E+01 0.00000E+00
 -1       445 5.19600E+00 3.82125E+01 0.00000E+00
 -1       446 8.69537E+01 1.27244E+01 0.00000E+00
 -1       447 8.51651E+01 1.24349E+01 0.00000E+00
 -1       448 8.29725E+01 1.24181E+01 0.00000E+00
 -1       449 8.05040E+01 1.29596E+01 0.00000E+00
 -1       450 7.91319E+01 1.39582E+01 0.00000E+00
 -1       451 7.74797E+01 1.53978E+01 0.00000E+00
 -1       452 7.63661E+01 1.70414E+01 0.00000E+00
 -1       453 7.52987E+01 1.87868E+01 0.00000E+00
 -1       454 7.48735E+01 2.07722E+01 0.00000E+00
 -1       455 7.46329E+01 2.31675E+01 0.00000E+00
 -1       456 7.49970E+01 2.48966E+01 0.00000E+00
 -1       457 7.59066E+01 2.70657E+01 0.00000E+00
 -1       458 7.70347E+01 2.87137E+01 0.00000E+00
 -1       459 7.87579E+01 2.98858E+01 0.00000E+00
 -1       460 8.03507E+01 3.09409E+01 0.00000E+00
 -1       461 8.26442E+01 3.18620E+01 0.00000E+00
 -1       462 8.46443E+01 3.17328E+01 0.00000E+00
 -1       463 8.68538E+01 3.17836E+01 0.00000E+00
 -1       464 8.86606E+01 3.07903E+01 0.00000E+00
 -1       465 9.03320E+01 2.96095E+01 0.00000E+00
 -1       466 9.18901E+01 2.83870E+01 0.00000E+00
 -1       467 9.32519E+01 2.63565E+01 0.00000E+00
 -1       468 9.37406E+01 2.42188E+01 0.00000E+00
 -1       469 8.91448E+01 1.39035E+01 0.00000E+00
 -1       470 9.52417E+01 2.10730E+01 0.00000E+00
 -1       471 8.12155E+01 3.24674E+01 0.00000E+00
 -1       472 1.00350E+01 6.60425E+00 0.00000E+00
 -1       473 7.79400E+00 3.08500E+01 0.00000E+00
 -1       474 7.79400E+00 3.38000E+01 0.00000E+00
 -1       475 7.79400E+00 2.49500E+01 0.00000E+00
 -1       476 7.79400E+00 2.20000E+01 0.00000E+00
 -1       477 7.79400E+00 1.91000E+01 0.00000E+00
 -1       478 7.79400E+00 1.61500E+01 0.00000E+00
 -1       479 7.79400E+00 1.32000E+01 0.00000E+00
 -1       480 7.79400E+00 1.02500E+01 0.00000E+00
 -1       481 1.30350E+01 6.60425E+00 0.00000E+00
 -1       482 1.06500E+01 4.22060E+01 0.00000E+00
 -1       483 8.88222E+01 1.18774E+01 0.00000E+00
 -1       484 1.36500E+01 4.22060E+01 0.00000E+00
 -1       485 1.66500E+01 4.22060E+01 0.00000E+00
 -1       486 1.96500E+01 4.22060E+01 0.00000E+00
 -1       487 2.26500E+01 4.22060E+01 0.00000E+00
 -1       488 2.56500E+01 4.22060E+01 0.00000E+00
 -1       489 2.86500E+01 4.22060E+01 0.00000E+00
 -1       490 3.16500E+01 4.22060E+01 0.00000E+00
 -1       491 3.46500E+01 4.22060E+01 0.00000E+00
 -1       492 3.76500E+01 4.22060E+01 0.00000E+00
 -1       493 4.06500E+01 4.22060E+01 0.00000E+00
 -1       494 4.36500E+01 4.22060E+01 0.00000E+00
 -1       495 4.66500E+01 4.22060E+01 0.00000E+00
 -1       496 4.96500E+01 4.22060E+01 0.00000E+00
 -1       497 5.26500E+01 4.22060E+01 0.00000E+00
 -1       498 5.56500E+01 4.22060E+01 0.00000E+00
 -1       499 5.86500E+01 4.22060E+01 0.00000E+00
 -1       500 6.16500E+01 4.22060E+01 0.00000E+00
 -1       501 6.46500E+01 4.22060E+01 0.00000E+00
 -1       502 6.76500E+01 4.22060E+01 0.00000E+00
 -1       503 7.06500E+01 4.22060E+01 0.00000E+00
 -1       504 7.36500E+01 4.22060E+01 0.00000E+00
 -1       505 7.66500E+01 4.22060E+01 0.00000E+00
 -1       506 7.96500E+01 4.22060E+01 0.00000E+00
 -1       507 8.26500E+01 4.22060E+01 0.00000E+00
 -1       508 8.56500E+01 4.22060E+01 0.00000E+00
 -1       509 8.86500E+01 4.22060E+01 0.00000E+00
 -1       510 9.16500E+01 4.22060E+01 0.00000E+00
 -1       511 9.46500E+01 4.22060E+01 0.00000E+00
 -1       512 9.76500E+01 4.22060E+01 0.00000E+00
 -1       513 1.00650E+02 4.22060E+01 0.00000E+00
 -1       514 1.03650E+02 4.22060E+01 0.00000E+00
 -1       515 1.06650E+02 4.22060E+01 0.00000E+00
 -1       516 1.09650E+02 4.22060E+01 0.00000E+00
 -1       517 1.12650E+02 4.22060E+01 0.00000E+00
 -1       518 1.15650E+02 4.22060E+01 0.00000E+00
 -1       519 1.18650E+02 4.22060E+01 0.00000E+00
 -1       520 1.21650E+02 4.22060E+01 0.00000E+00
 -1       521 1.24650E+02 4.22060E+01 0.00000E+00
 -1       522 1.27650E+02 4.22060E+01 0.00000E+00
 -1       523 1.30650E+02 4.22060E+01 0.00000E+00
 -1       524 1.33650E+02 4.22060E+01 0.00000E+00
 -1       525 1.36650E+02 4.22060E+01 0.00000E+00
 -1       526 1.39650E+02 4.22060E+01 0.00000E+00
 -1       527 9.54031E+01 1.82077E+01 0.00000E+00
 -1       528 1.90350E+01 6.60425E+00 0.00000E+00
 -1       529 2.20350E+01 6.60425E+00 0.00000E+00
 -1       530 2.50350E+01 6.60425E+00 0.00000E+00
 -1       531 2.80350E+01 6.60425E+00 0.00000E+00
 -1       532 3.10350E+01 6.60425E+00 0.00000E+00
 -1       533 3.40350E+01 6.60425E+00 0.00000E+00
 -1       534 3.70350E+01 6.60425E+00 0.00000E+00
 -1       535 4.00350E+01 6.60425E+00 0.00000E+00
 -1       536 4.30350E+01 6.60425E+00 0.00000E+00
 -1       537 4.60350E+01 6.60425E+00 0.00000E+00
 -1       538 4.90350E+01 6.60425E+00 0.00000E+00
 -1       539 5.20350E+01 6.60425E+00 0.00000E+00
 -1       540 5.50350E+01 6.60425E+00 0.00000E+00
 -1       541 5.80350E+01 6.60425E+00 0.00000E+00
 -1       542 6.10350E+01 6.60425E+00 0.00000E+00
 -1       543 6.40350E+01 6.60425E+00 0.00000E+00
 -1       544 6.70350E+01 6.60425E+00 0.00000E+00
 -1       545 7.00350E+01 6.60425E+00 0.00000E+00
 -1       546 7.30350E+01 6.60425E+00 0.00000E+00
 -1       547 7.60350E+01 6.60425E+00 0.00000E+00
 -1       548 7.90350E+01 6.60425E+00 0.00000E+00
 -1       549 8.20350E+01 6.60425E+00 0.00000E+00
 -1       550 8.50350E+01 6.60425E+00 0.00000E+00
 -1       551 8.80350E+01 6.60425E+00 0.00000E+00
 -1       552 9.10350E+01 6.60425E+00 0.00000E+00
 -1       553 9.40350E+01 6.60425E+00 0.00000E+00
 -1       554 9.70350E+01 6.60425E+00 0.00000E+00
 -1       555 1.00035E+02 6.60425E+00 0.00000E+00
 -1       556 1.03035E+02 6.60425E+00 0.00000E+00
 -1       557 1.06035E+02 6.60425E+00 0.00000E+00
 -1       558 1.09035E+02 6.60425E+00 0.00000E+00
 -1       559 1.12035E+02 6.60425E+00 0.00000E+00
 -1       560 1.15035E+02 6.60425E+00 0.00000E+00
 -1       561 1.18035E+02 6.60425E+00 0.00000E+00
 -1       562 1.21035E+02 6.60425E+00 0.00000E+00
 -1       563 1.24035E+02 6.60425E+00 0.00000E+00
 -1       564 1.27035E+02 6.60425E+00 0.00000E+00
 -1       565 1.30035E+02 6.60425E+00 0.00000E+00
 -1       566 1.33035E+02 6.60425E+00 0.00000E+00
 -1       567 1.36035E+02 6.60425E+00 0.00000E+00
 -1       568 1.39035E+02 6.60425E+00 0.00000E+00
 -1       569 1.42035E+02 6.60425E+00 0.00000E+00
 -1       570 1.42206E+02 1.61750E+01 0.00000E+00
 -1       571 1.42206E+02 1.91250E+01 0.00000E+00
 -1       572 1.42206E+02 1.03250E+01 0.00000E+00
 -1       573 1.42206E+02 1.32500E+01 0.00000E+00
 -1       574 1.42206E+02 2.20750E+01 0.00000E+00
 -1       575 1.42206E+02 2.50250E+01 0.00000E+00
 -1       576 1.42206E+02 2.79750E+01 0.00000E+00
 -1       577 1.42206E+02 3.08750E+01 0.00000E+00
 -1       578 1.42206E+02 3.38250E+01 0.00000E+00
 -1       579 1.42206E+02 3.67750E+01 0.00000E+00
 -1       580 1.42206E+02 3.97250E+01 0.00000E+00
 -1       581 9.23794E+01 1.45104E+01 0.00000E+00
 -1       582 1.60350E+01 6.60425E+00 0.00000E+00
 -1       583 9.39896E+01 1.63094E+01 0.00000E+00
 -1       584 9.50865E+01 2.56512E+01 0.00000E+00
 -1       585 9.54848E+01 2.38867E+01 0.00000E+00
 -1       586 7.69317E+01 3.07179E+01 0.00000E+00
 -1       587 7.30466E+01 2.17985E+01 0.00000E+00
 -1       588 8.40833E+01 1.05439E+01 0.00000E+00
 -1       589 7.79400E+00 2.79000E+01 0.00000E+00
 -1       590 8.13708E+01 1.10135E+01 0.00000E+00
 -1       591 8.62798E+01 1.12174E+01 0.00000E+00
 -1       592 7.53643E+01 1.51636E+01 0.00000E+00
 -1       593 7.87101E+01 1.19366E+01 0.00000E+00
 -1       594 7.51245E+01 2.88112E+01 0.00000E+00
 -1       595 7.70579E+01 1.33763E+01 0.00000E+00
 -1       596 7.42969E+01 1.69090E+01 0.00000E+00
 -1       597 7.30813E+01 1.93501E+01 0.00000E+00
 -1       598 7.34646E+01 2.43164E+01 0.00000E+00
 -1       599 8.37386E+01 3.32581E+01 0.00000E+00
 -1       600 7.40246E+01 2.65796E+01 0.00000E+00
 -1       601 7.85245E+01 3.17729E+01 0.00000E+00
 -1       602 8.59481E+01 3.33089E+01 0.00000E+00
 -1       603 8.85834E+01 3.27899E+01 0.00000E+00
 -1       604 9.02548E+01 3.16091E+01 0.00000E+00
 -1       605 9.21697E+01 3.03476E+01 0.00000E+00
 -1       606 9.39954E+01 2.83271E+01 0.00000E+00
 -1       607 7.92300E+00 4.16780E+01 0.00000E+00
 -1       608 7.61550E+00 6.21462E+00 0.00000E+00
 -1       609 9.09590E+01 1.33669E+01 0.00000E+00
 -1       610 7.79400E+00 3.67375E+01 0.00000E+00
 -1       611 9.58300E+01 2.76218E+01 0.00000E+00
 -1       612 7.93893E+01 3.32995E+01 0.00000E+00
 -1       613 1.41678E+02 4.22645E+01 0.00000E+00
 -1       614 8.76778E+01 3.43153E+01 0.00000E+00
 -1       615 9.65877E+01 2.25054E+01 0.00000E+00
 -1       616 8.23099E+01 3.38635E+01 0.00000E+00
 -1       617 1.03920E+01 2.05500E+01 0.00000E+00
 -1       618 1.03920E+01 2.35000E+01 0.00000E+00
 -1       619 1.03920E+01 1.46750E+01 0.00000E+00
 -1       620 1.03920E+01 1.17250E+01 0.00000E+00
 -1       621 1.15350E+01 9.20225E+00 0.00000E+00
 -1       622 1.45350E+01 9.20225E+00 0.00000E+00
 -1       623 1.51500E+01 3.96080E+01 0.00000E+00
 -1       624 1.81500E+01 3.96080E+01 0.00000E+00
 -1       625 2.11500E+01 3.96080E+01 0.00000E+00
 -1       626 2.41500E+01 3.96080E+01 0.00000E+00
 -1       627 2.71500E+01 3.96080E+01 0.00000E+00
 -1       628 3.01500E+01 3.96080E+01 0.00000E+00
 -1       629 3.31500E+01 3.96080E+01 0.00000E+00
 -1       630 3.61500E+01 3.96080E+01 0.00000E+00
 -1       631 3.91500E+01 3.96080E+01 0.00000E+00
 -1       632 4.21500E+01 3.96080E+01 0.00000E+00
 -1       633 4.51500E+01 3.96080E+01 0.00000E+00
 -1       634 4.81500E+01 3.96080E+01 0.00000E+00
 -1       635 5.11500E+01 3.96080E+01 0.00000E+00
 -1       636 5.41500E+01 3.96080E+01 0.00000E+00
 -1       637 5.71500E+01 3.96080E+01 0.00000E+00
 -1       638 6.01500E+01 3.96080E+01 0.00000E+00
 -1       639 6.31500E+01 3.96080E+01 0.00000E+00
 -1       640 6.61500E+01 3.96080E+01 0.00000E+00
 -1       641 6.91500E+01 3.96080E+01 0.00000E+00
 -1       642 7.21500E+01 3.96080E+01 0.00000E+00
 -1       643 7.51500E+01 3.96080E+01 0.00000E+00
 -1       644 7.81500E+01 3.96080E+01 0.00000E+00
 -1       645 8.11500E+01 3.96080E+01 0.00000E+00
 -1       646 8.41500E+01 3.96080E+01 0.00000E+00
 -1       647 8.71500E+01 3.96080E+01 0.00000E+00
 -1       648 9.01500E+01 3.96080E+01 0.00000E+00
 -1       649 9.31500E+01 3.96080E+01 0.00000E+00
 -1       650 9.61500E+01 3.96080E+01 0.00000E+00
 -1       651 9.91500E+01 3.96080E+01 0.00000E+00
 -1       652 1.02150E+02 3.96080E+01 0.00000E+00
 -1       653 1.05150E+02 3.96080E+01 0.00000E+00
 -1       654 1.08150E+02 3.96080E+01 0.00000E+00
 -1       655 1.11150E+02 3.96080E+01 0.00000E+00
 -1       656 1.14150E+02 3.96080E+01 0.00000E+00
 -1       657 1.17150E+02 3.96080E+01 0.00000E+00
 -1       658 1.20150E+02 3.96080E+01 0.00000E+00
 -1       659 1.23150E+02 3.96080E+01 0.00000E+00
 -1       660 1.26150E+02 3.96080E+01 0.00000E+00
 -1       661 1.29150E+02 3.96080E+01 0.00000E+00
 -1       662 1.32150E+02 3.96080E+01 0.00000E+00
 -1       663 1.35150E+02 3.96080E+01 0.00000E+00
 -1       664 1.38150E+02 3.96080E+01 0.00000E+00
 -1       665 7.30362E+01 2.84536E+01 0.00000E+00
 -1       666 2.05350E+01 9.20225E+00 0.00000E+00
 -1       667 2.95350E+01 9.20225E+00 0.00000E+00
 -1       668 3.25350E+01 9.20225E+00 0.00000E+00
 -1       669 3.55350E+01 9.20225E+00 0.00000E+00
 -1       670 3.85350E+01 9.20225E+00 0.00000E+00
 -1       671 4.15350E+01 9.20225E+00 0.00000E+00
 -1       672 4.45350E+01 9.20225E+00 0.00000E+00
 -1       673 4.75350E+01 9.20225E+00 0.00000E+00
 -1       674 5.05350E+01 9.20225E+00 0.00000E+00
 -1       675 5.35350E+01 9.20225E+00 0.00000E+00
 -1       676 5.65350E+01 9.20225E+00 0.00000E+00
 -1       677 5.95350E+01 9.20225E+00 0.00000E+00
 -1       678 6.25350E+01 9.20225E+00 0.00000E+00
 -1       679 6.55350E+01 9.20225E+00 0.00000E+00
 -1       680 6.85350E+01 9.20225E+00 0.00000E+00
 -1       681 7.15350E+01 9.20225E+00 0.00000E+00
 -1       682 7.45350E+01 9.20225E+00 0.00000E+00
 -1       683 7.75350E+01 9.20225E+00 0.00000E+00
 -1       684 8.95350E+01 9.15721E+00 0.00000E+00
 -1       685 9.25350E+01 9.15721E+00 0.00000E+00
 -1       686 9.55350E+01 9.15721E+00 0.00000E+00
 -1       687 9.85350E+01 9.15721E+00 0.00000E+00
 -1       688 1.01535E+02 9.15721E+00 0.00000E+00
 -1       689 1.04535E+02 9.15721E+00 0.00000E+00
 -1       690 1.07535E+02 9.15721E+00 0.00000E+00
 -1       691 1.10535E+02 9.15721E+00 0.00000E+00
 -1       692 1.13535E+02 9.15721E+00 0.00000E+00
 -1       693 1.16535E+02 9.15721E+00 0.00000E+00
 -1       694 1.19535E+02 9.15721E+00 0.00000E+00
 -1       695 1.22535E+02 9.15721E+00 0.00000E+00
 -1       696 1.25535E+02 9.15721E+00 0.00000E+00
 -1       697 1.28535E+02 9.15721E+00 0.00000E+00
 -1       698 1.31535E+02 9.15721E+00 0.00000E+00
 -1       699 1.34535E+02 9.15721E+00 0.00000E+00
 -1       700 1.37535E+02 9.15721E+00 0.00000E+00
 -1       701 1.39870E+02 9.74111E+00 0.00000E+00
 -1       702 7.47833E+01 3.09444E+01 0.00000E+00
 -1       703 1.39608E+02 2.35500E+01 0.00000E+00
 -1       704 7.22288E+01 1.74024E+01 0.00000E+00
 -1       705 1.39608E+02 1.76500E+01 0.00000E+00
 -1       706 1.39608E+02 2.65000E+01 0.00000E+00
 -1       707 1.39608E+02 2.06000E+01 0.00000E+00
 -1       708 1.39608E+02 2.94000E+01 0.00000E+00
 -1       709 1.39608E+02 3.23500E+01 0.00000E+00
 -1       710 1.39608E+02 3.53000E+01 0.00000E+00
 -1       711 1.75350E+01 9.20225E+00 0.00000E+00
 -1       712 9.62064E+01 1.61342E+01 0.00000E+00
 -1       713 9.22480E+01 3.25506E+01 0.00000E+00
 -1       714 9.71221E+01 2.51835E+01 0.00000E+00
 -1       715 8.47963E+01 3.53332E+01 0.00000E+00
 -1       716 7.30815E+01 1.49666E+01 0.00000E+00
 -1       717 8.71574E+01 8.91083E+00 0.00000E+00
 -1       718 7.20797E+01 2.58600E+01 0.00000E+00
 -1       719 2.65350E+01 9.20225E+00 0.00000E+00
 -1       720 2.35350E+01 9.20225E+00 0.00000E+00
 -1       721 1.21500E+01 3.96080E+01 0.00000E+00
 -1       722 9.09672E+01 1.10777E+01 0.00000E+00
 -1       723 1.03920E+01 1.76125E+01 0.00000E+00
 -1       724 1.03920E+01 3.23250E+01 0.00000E+00
 -1       725 7.13984E+01 2.33657E+01 0.00000E+00
 -1       726 7.11815E+01 2.05477E+01 0.00000E+00
 -1       727 9.44795E+01 3.05996E+01 0.00000E+00
 -1       728 7.46013E+01 1.27444E+01 0.00000E+00
 -1       729 7.66884E+01 3.28150E+01 0.00000E+00
 -1       730 9.45873E+01 1.41543E+01 0.00000E+00
 -1       731 9.27448E+01 1.26027E+01 0.00000E+00
 -1       732 1.40178E+02 3.96665E+01 0.00000E+00
 -1       733 9.70348E+01 1.97368E+01 0.00000E+00
 -1       734 9.05766E+01 3.37314E+01 0.00000E+00
 -1       735 1.03920E+01 3.52625E+01 0.00000E+00
 -1       736 1.03920E+01 2.64500E+01 0.00000E+00
 -1       737 9.63141E+01 2.98942E+01 0.00000E+00
 -1       738 7.26949E+01 3.05868E+01 0.00000E+00
 -1       739 9.78381E+01 1.76633E+01 0.00000E+00
 -1       740 1.39870E+02 1.26661E+01 0.00000E+00
 -1       741 7.57965E+01 1.12893E+01 0.00000E+00
 -1       742 8.04837E+01 3.46956E+01 0.00000E+00
 -1       743 8.96709E+01 3.52567E+01 0.00000E+00
 -1       744 8.33676E+01 3.59386E+01 0.00000E+00
 -1       745 7.03290E+01 1.85999E+01 0.00000E+00
 -1       746 1.39739E+02 1.51581E+01 0.00000E+00
 -1       747 1.03920E+01 2.93875E+01 0.00000E+00
 -1       748 8.79820E+01 9.88731E+00 0.00000E+00
 -1       749 1.38879E+02 3.74540E+01 0.00000E+00
 -1       750 1.05210E+01 3.87342E+01 0.00000E+00
 -1       751 9.85368E+01 2.35088E+01 0.00000E+00
 -1       752 1.29900E+01 1.32000E+01 0.00000E+00
 -1       753 9.25953E+01 3.48155E+01 0.00000E+00
 -1       754 1.66500E+01 3.70100E+01 0.00000E+00
 -1       755 9.81396E+01 2.72842E+01 0.00000E+00
 -1       756 9.30819E+01 1.04113E+01 0.00000E+00
 -1       757 1.96500E+01 3.70100E+01 0.00000E+00
 -1       758 2.26500E+01 3.70100E+01 0.00000E+00
 -1       759 2.56500E+01 3.70100E+01 0.00000E+00
 -1       760 2.86500E+01 3.70100E+01 0.00000E+00
 -1       761 3.16500E+01 3.70100E+01 0.00000E+00
 -1       762 3.46500E+01 3.70100E+01 0.00000E+00
 -1       763 3.76500E+01 3.70100E+01 0.00000E+00
 -1       764 4.06500E+01 3.70100E+01 0.00000E+00
 -1       765 4.36500E+01 3.70100E+01 0.00000E+00
 -1       766 4.66500E+01 3.70100E+01 0.00000E+00
 -1       767 4.96500E+01 3.70100E+01 0.00000E+00
 -1       768 5.26500E+01 3.70100E+01 0.00000E+00
 -1       769 5.56500E+01 3.70100E+01 0.00000E+00
 -1       770 5.86500E+01 3.70100E+01 0.00000E+00
 -1       771 6.16500E+01 3.70100E+01 0.00000E+00
 -1       772 6.46500E+01 3.70100E+01 0.00000E+00
 -1       773 6.76500E+01 3.70100E+01 0.00000E+00
 -1       774 7.06500E+01 3.70100E+01 0.00000E+00
 -1       775 7.36500E+01 3.70100E+01 0.00000E+00
 -1       776 7.66500E+01 3.70100E+01 0.00000E+00
 -1       777 8.26500E+01 3.75578E+01 0.00000E+00
 -1       778 8.56500E+01 3.73902E+01 0.00000E+00
 -1       779 9.76500E+01 3.70100E+01 0.00000E+00
 -1       780 1.00650E+02 3.70100E+01 0.00000E+00
 -1       781 1.03650E+02 3.70100E+01 0.00000E+00
 -1       782 1.06650E+02 3.70100E+01 0.00000E+00
 -1       783 1.09650E+02 3.70100E+01 0.00000E+00
 -1       784 1.12650E+02 3.70100E+01 0.00000E+00
 -1       785 1.15650E+02 3.70100E+01 0.00000E+00
 -1       786 1.18650E+02 3.70100E+01 0.00000E+00
 -1       787 1.21650E+02 3.70100E+01 0.00000E+00
 -1       788 1.24650E+02 3.70100E+01 0.00000E+00
 -1       789 1.27650E+02 3.70100E+01 0.00000E+00
 -1       790 1.30650E+02 3.70100E+01 0.00000E+00
 -1       791 1.33650E+02 3.70100E+01 0.00000E+00
 -1       792 1.36264E+02 3.72320E+01 0.00000E+00
 -1       793 7.20107E+01 1.26035E+01 0.00000E+00
 -1       794 7.76177E+01 3.54051E+01 0.00000E+00
 -1       795 3.10350E+01 1.18003E+01 0.00000E+00
 -1       796 4.00350E+01 1.18003E+01 0.00000E+00
 -1       797 4.30350E+01 1.18003E+01 0.00000E+00
 -1       798 4.60350E+01 1.18003E+01 0.00000E+00
 -1       799 4.90350E+01 1.18003E+01 0.00000E+00
 -1       800 5.20350E+01 1.18003E+01 0.00000E+00
 -1       801 5.50350E+01 1.18003E+01 0.00000E+00
 -1       802 5.80350E+01 1.18003E+01 0.00000E+00
 -1       803 6.10350E+01 1.18003E+01 0.00000E+00
 -1       804 6.40350E+01 1.18003E+01 0.00000E+00
 -1       805 6.70350E+01 1.18003E+01 0.00000E+00
 -1       806 1.00035E+02 1.17552E+01 0.00000E+00
 -1       807 1.03035E+02 1.17552E+01 0.00000E+00
 -1       808 1.06035E+02 1.17552E+01 0.00000E+00
 -1       809 1.09035E+02 1.17552E+01 0.00000E+00
 -1       810 1.12035E+02 1.17552E+01 0.00000E+00
 -1       811 1.15035E+02 1.17552E+01 0.00000E+00
 -1       812 1.18035E+02 1.17552E+01 0.00000E+00
 -1       813 1.21035E+02 1.17552E+01 0.00000E+00
 -1       814 1.24035E+02 1.17552E+01 0.00000E+00
 -1       815 1.27035E+02 1.17552E+01 0.00000E+00
 -1       816 1.30035E+02 1.17552E+01 0.00000E+00
 -1       817 1.33035E+02 1.17552E+01 0.00000E+00
 -1       818 1.36035E+02 1.17552E+01 0.00000E+00
 -1       819 1.37953E+02 1.22107E+01 0.00000E+00
 -1       820 1.37010E+02 2.79500E+01 0.00000E+00
 -1       821 1.37010E+02 2.50000E+01 0.00000E+00
 -1       822 7.04037E+01 1.53964E+01 0.00000E+00
 -1       823 6.99229E+01 2.51090E+01 0.00000E+00
 -1       824 1.27710E+01 3.74352E+01 0.00000E+00
 -1       825 1.37010E+02 3.09000E+01 0.00000E+00
 -1       826 9.49245E+01 1.19629E+01 0.00000E+00
 -1       827 1.37010E+02 3.38500E+01 0.00000E+00
 -1       828 2.80350E+01 1.18003E+01 0.00000E+00
 -1       829 3.70350E+01 1.18003E+01 0.00000E+00
 -1       830 3.40350E+01 1.18003E+01 0.00000E+00
 -1       831 2.50350E+01 1.18003E+01 0.00000E+00
 -1       832 9.72434E+01 1.36342E+01 0.00000E+00
 -1       833 6.92457E+01 2.21140E+01 0.00000E+00
 -1       834 7.42994E+01 3.33426E+01 0.00000E+00
 -1       835 7.07915E+01 2.78082E+01 0.00000E+00
 -1       836 9.89840E+01 2.07402E+01 0.00000E+00
 -1       837 1.37625E+01 1.12011E+01 0.00000E+00
 -1       838 2.20350E+01 1.18003E+01 0.00000E+00
 -1       839 9.48268E+01 3.28645E+01 0.00000E+00
 -1       840 1.29900E+01 2.20250E+01 0.00000E+00
 -1       841 1.29900E+01 2.49750E+01 0.00000E+00
 -1       842 1.29900E+01 1.61375E+01 0.00000E+00
 -1       843 1.90350E+01 1.18003E+01 0.00000E+00
 -1       844 8.01101E+01 3.72733E+01 0.00000E+00
 -1       845 9.54884E+01 3.62362E+01 0.00000E+00
 -1       846 9.97873E+01 1.86666E+01 0.00000E+00
 -1       847 9.88751E+01 1.51633E+01 0.00000E+00
 -1       848 7.04503E+01 2.99414E+01 0.00000E+00
 -1       849 1.29900E+01 3.37938E+01 0.00000E+00
 -1       850 1.37010E+02 1.91250E+01 0.00000E+00
 -1       851 1.29900E+01 3.08563E+01 0.00000E+00
 -1       852 1.37010E+02 2.20625E+01 0.00000E+00
 -1       853 1.63988E+01 1.15007E+01 0.00000E+00
 -1       854 6.83932E+01 2.01663E+01 0.00000E+00
 -1       855 9.66614E+01 3.21592E+01 0.00000E+00
 -1       856 1.37141E+02 1.66331E+01 0.00000E+00
 -1       857 9.95543E+01 2.56095E+01 0.00000E+00
 -1       858 1.29900E+01 1.90812E+01 0.00000E+00
 -1       859 1.36637E+02 3.55410E+01 0.00000E+00
 -1       860 2.11500E+01 3.44120E+01 0.00000E+00
 -1       861 2.41500E+01 3.44120E+01 0.00000E+00
 -1       862 2.71500E+01 3.44120E+01 0.00000E+00
 -1       863 3.01500E+01 3.44120E+01 0.00000E+00
 -1       864 3.31500E+01 3.44120E+01 0.00000E+00
 -1       865 3.61500E+01 3.44120E+01 0.00000E+00
 -1       866 3.91500E+01 3.44120E+01 0.00000E+00
 -1       867 4.21500E+01 3.44120E+01 0.00000E+00
 -1       868 4.51500E+01 3.44120E+01 0.00000E+00
 -1       869 4.81500E+01 3.44120E+01 0.00000E+00
 -1       870 5.11500E+01 3.44120E+01 0.00000E+00
 -1       871 5.41500E+01 3.44120E+01 0.00000E+00
 -1       872 5.71500E+01 3.44120E+01 0.00000E+00
 -1       873 6.01500E+01 3.44120E+01 0.00000E+00
 -1       874 6.31500E+01 3.44120E+01 0.00000E+00
 -1       875 6.61500E+01 3.44120E+01 0.00000E+00
 -1       876 6.91500E+01 3.44120E+01 0.00000E+00
 -1       877 9.71557E+01 3.45846E+01 0.00000E+00
 -1       878 1.02150E+02 3.44120E+01 0.00000E+00
 -1       879 1.05150E+02 3.44120E+01 0.00000E+00
 -1       880 1.08150E+02 3.44120E+01 0.00000E+00
 -1       881 1.11150E+02 3.44120E+01 0.00000E+00
 -1       882 1.14150E+02 3.44120E+01 0.00000E+00
 -1       883 1.17150E+02 3.44120E+01 0.00000E+00
 -1       884 1.20150E+02 3.44120E+01 0.00000E+00
 -1       885 1.23150E+02 3.44120E+01 0.00000E+00
 -1       886 1.26150E+02 3.44120E+01 0.00000E+00
 -1       887 1.29150E+02 3.44120E+01 0.00000E+00
 -1       888 1.32150E+02 3.44120E+01 0.00000E+00
 -1       889 4.15350E+01 1.43982E+01 0.00000E+00
 -1       890 5.05350E+01 1.43982E+01 0.00000E+00
 -1       891 5.35350E+01 1.43982E+01 0.00000E+00
 -1       892 5.65350E+01 1.43982E+01 0.00000E+00
 -1       893 5.95350E+01 1.43982E+01 0.00000E+00
 -1       894 6.25350E+01 1.43982E+01 0.00000E+00
 -1       895 6.55350E+01 1.43982E+01 0.00000E+00
 -1       896 1.04535E+02 1.43532E+01 0.00000E+00
 -1       897 6.79816E+01 1.69425E+01 0.00000E+00
 -1       898 6.84056E+01 2.70867E+01 0.00000E+00
 -1       899 7.12520E+01 3.32719E+01 0.00000E+00
 -1       900 1.01705E+02 1.47582E+01 0.00000E+00
 -1       901 1.10535E+02 1.43532E+01 0.00000E+00
 -1       902 1.13535E+02 1.43532E+01 0.00000E+00
 -1       903 1.16535E+02 1.43532E+01 0.00000E+00
 -1       904 1.19535E+02 1.43532E+01 0.00000E+00
 -1       905 1.22535E+02 1.43532E+01 0.00000E+00
 -1       906 1.25535E+02 1.43532E+01 0.00000E+00
 -1       907 1.28535E+02 1.43532E+01 0.00000E+00
 -1       908 1.31535E+02 1.43532E+01 0.00000E+00
 -1       909 1.34535E+02 1.43532E+01 0.00000E+00
 -1       910 1.34412E+02 2.64750E+01 0.00000E+00
 -1       911 1.29900E+01 2.79188E+01 0.00000E+00
 -1       912 1.07535E+02 1.43532E+01 0.00000E+00
 -1       913 6.77284E+01 2.40917E+01 0.00000E+00
 -1       914 1.56263E+01 1.34996E+01 0.00000E+00
 -1       915 4.75350E+01 1.43982E+01 0.00000E+00
 -1       916 4.45350E+01 1.43982E+01 0.00000E+00
 -1       917 9.90443E+01 2.98603E+01 0.00000E+00
 -1       918 2.65350E+01 1.43982E+01 0.00000E+00
 -1       919 9.96529E+01 3.44983E+01 0.00000E+00
 -1       920 2.95350E+01 1.43982E+01 0.00000E+00
 -1       921 3.85350E+01 1.43982E+01 0.00000E+00
 -1       922 1.34412E+02 3.23750E+01 0.00000E+00
 -1       923 1.81500E+01 3.44120E+01 0.00000E+00
 -1       924 1.00784E+02 2.24513E+01 0.00000E+00
 -1       925 1.37547E+02 1.44219E+01 0.00000E+00
 -1       926 1.34412E+02 2.94250E+01 0.00000E+00
 -1       927 2.35350E+01 1.43982E+01 0.00000E+00
 -1       928 1.55700E+01 3.26341E+01 0.00000E+00
 -1       929 2.05350E+01 1.43982E+01 0.00000E+00
 -1       930 1.55880E+01 2.35000E+01 0.00000E+00
 -1       931 7.21500E+01 3.44120E+01 0.00000E+00
 -1       932 1.00459E+02 2.81856E+01 0.00000E+00
 -1       933 1.34394E+02 3.49765E+01 0.00000E+00
 -1       934 3.25350E+01 1.43982E+01 0.00000E+00
 -1       935 6.68759E+01 2.21439E+01 0.00000E+00
 -1       936 1.34412E+02 2.35375E+01 0.00000E+00
 -1       937 3.55350E+01 1.43982E+01 0.00000E+00
 -1       938 1.55880E+01 2.05562E+01 0.00000E+00
 -1       939 1.34412E+02 2.06000E+01 0.00000E+00
 -1       940 1.34543E+02 1.81081E+01 0.00000E+00
 -1       941 6.80643E+01 2.92199E+01 0.00000E+00
 -1       942 1.01588E+02 2.03778E+01 0.00000E+00
 -1       943 2.26500E+01 3.18140E+01 0.00000E+00
 -1       944 1.02392E+02 2.48962E+01 0.00000E+00
 -1       945 2.56500E+01 3.18140E+01 0.00000E+00
 -1       946 2.86500E+01 3.18140E+01 0.00000E+00
 -1       947 3.16500E+01 3.18140E+01 0.00000E+00
 -1       948 3.46500E+01 3.18140E+01 0.00000E+00
 -1       949 3.76500E+01 3.18140E+01 0.00000E+00
 -1       950 4.06500E+01 3.18140E+01 0.00000E+00
 -1       951 4.36500E+01 3.18140E+01 0.00000E+00
 -1       952 4.66500E+01 3.18140E+01 0.00000E+00
 -1       953 4.96500E+01 3.18140E+01 0.00000E+00
 -1       954 5.26500E+01 3.18140E+01 0.00000E+00
 -1       955 5.56500E+01 3.18140E+01 0.00000E+00
 -1       956 5.86500E+01 3.18140E+01 0.00000E+00
 -1       957 6.16500E+01 3.18140E+01 0.00000E+00
 -1       958 6.46500E+01 3.18140E+01 0.00000E+00
 -1       959 9.93486E+01 3.21793E+01 0.00000E+00
 -1       960 5.50350E+01 1.69963E+01 0.00000E+00
 -1       961 4.00350E+01 1.69963E+01 0.00000E+00
 -1       962 1.55880E+01 2.64438E+01 0.00000E+00
 -1       963 1.06650E+02 3.18140E+01 0.00000E+00
 -1       964 1.09650E+02 3.18140E+01 0.00000E+00
 -1       965 1.12650E+02 3.18140E+01 0.00000E+00
 -1       966 1.15650E+02 3.18140E+01 0.00000E+00
 -1       967 1.18650E+02 3.18140E+01 0.00000E+00
 -1       968 1.21650E+02 3.18140E+01 0.00000E+00
 -1       969 1.24650E+02 3.18140E+01 0.00000E+00
 -1       970 1.27650E+02 3.18140E+01 0.00000E+00
 -1       971 1.30650E+02 3.18140E+01 0.00000E+00
 -1       972 5.20350E+01 1.69963E+01 0.00000E+00
 -1       973 6.10350E+01 1.69963E+01 0.00000E+00
 -1       974 6.40350E+01 1.69963E+01 0.00000E+00
 -1       975 1.15035E+02 1.69512E+01 0.00000E+00
 -1       976 1.03650E+02 3.18140E+01 0.00000E+00
 -1       977 1.18035E+02 1.69512E+01 0.00000E+00
 -1       978 1.12035E+02 1.69512E+01 0.00000E+00
 -1       979 1.21035E+02 1.69512E+01 0.00000E+00
 -1       980 1.24035E+02 1.69512E+01 0.00000E+00
 -1       981 1.27035E+02 1.69512E+01 0.00000E+00
 -1       982 1.30035E+02 1.69512E+01 0.00000E+00
 -1       983 2.50350E+01 1.69963E+01 0.00000E+00
 -1       984 1.55880E+01 2.93813E+01 0.00000E+00
 -1       985 1.09035E+02 1.69512E+01 0.00000E+00
 -1       986 6.59037E+01 2.60783E+01 0.00000E+00
 -1       987 1.61458E+01 1.66550E+01 0.00000E+00
 -1       988 1.75904E+01 1.42276E+01 0.00000E+00
 -1       989 4.90350E+01 1.69963E+01 0.00000E+00
 -1       990 1.06035E+02 1.69512E+01 0.00000E+00
 -1       991 5.80350E+01 1.69963E+01 0.00000E+00
 -1       992 1.96500E+01 3.18140E+01 0.00000E+00
 -1       993 6.59875E+01 1.88353E+01 0.00000E+00
 -1       994 2.80350E+01 1.69963E+01 0.00000E+00
 -1       995 2.20350E+01 1.69963E+01 0.00000E+00
 -1       996 1.01728E+02 3.06877E+01 0.00000E+00
 -1       997 6.76500E+01 3.18140E+01 0.00000E+00
 -1       998 4.30350E+01 1.69963E+01 0.00000E+00
 -1       999 3.70350E+01 1.69963E+01 0.00000E+00
 -1      1000 6.50513E+01 2.41306E+01 0.00000E+00
 -1      1001 1.31814E+02 2.50063E+01 0.00000E+00
 -1      1002 6.55625E+01 2.82115E+01 0.00000E+00
 -1      1003 4.60350E+01 1.69963E+01 0.00000E+00
 -1      1004 3.10350E+01 1.69963E+01 0.00000E+00
 -1      1005 1.31814E+02 2.20688E+01 0.00000E+00
 -1      1006 1.30924E+02 1.95100E+01 0.00000E+00
 -1      1007 1.02888E+02 1.77632E+01 0.00000E+00
 -1      1008 1.81860E+01 2.20281E+01 0.00000E+00
 -1      1009 1.81860E+01 2.49719E+01 0.00000E+00
 -1      1010 1.03195E+02 2.28226E+01 0.00000E+00
 -1      1011 1.31814E+02 2.79562E+01 0.00000E+00
 -1      1012 2.71500E+01 2.92160E+01 0.00000E+00
 -1      1013 3.01500E+01 2.92160E+01 0.00000E+00
 -1      1014 3.31500E+01 2.92160E+01 0.00000E+00
 -1      1015 3.61500E+01 2.92160E+01 0.00000E+00
 -1      1016 3.91500E+01 2.92160E+01 0.00000E+00
 -1      1017 4.21500E+01 2.92160E+01 0.00000E+00
 -1      1018 4.51500E+01 2.92160E+01 0.00000E+00
 -1      1019 4.81500E+01 2.92160E+01 0.00000E+00
 -1      1020 5.11500E+01 2.92160E+01 0.00000E+00
 -1      1021 5.41500E+01 2.92160E+01 0.00000E+00
 -1      1022 5.71500E+01 2.92160E+01 0.00000E+00
 -1      1023 6.01500E+01 2.92160E+01 0.00000E+00
 -1      1024 1.11150E+02 2.92160E+01 0.00000E+00
 -1      1025 1.14150E+02 2.92160E+01 0.00000E+00
 -1      1026 1.17150E+02 2.92160E+01 0.00000E+00
 -1      1027 1.20150E+02 2.92160E+01 0.00000E+00
 -1      1028 1.23150E+02 2.92160E+01 0.00000E+00
 -1      1029 1.26150E+02 2.92160E+01 0.00000E+00
 -1      1030 1.29150E+02 2.92160E+01 0.00000E+00
 -1      1031 5.35350E+01 1.95942E+01 0.00000E+00
 -1      1032 1.04002E+02 2.90093E+01 0.00000E+00
 -1      1033 1.19535E+02 1.95492E+01 0.00000E+00
 -1      1034 6.25350E+01 1.95942E+01 0.00000E+00
 -1      1035 3.40350E+01 1.69963E+01 0.00000E+00
 -1      1036 1.81860E+01 2.79094E+01 0.00000E+00
 -1      1037 1.22535E+02 1.95492E+01 0.00000E+00
 -1      1038 1.13535E+02 1.95492E+01 0.00000E+00
 -1      1039 1.25535E+02 1.95492E+01 0.00000E+00
 -1      1040 1.28230E+02 1.95296E+01 0.00000E+00
 -1      1041 1.03338E+02 2.76646E+01 0.00000E+00
 -1      1042 5.65350E+01 1.95942E+01 0.00000E+00
 -1      1043 1.10535E+02 1.95492E+01 0.00000E+00
 -1      1044 1.90904E+01 1.68256E+01 0.00000E+00
 -1      1045 1.07535E+02 1.95492E+01 0.00000E+00
 -1      1046 1.16535E+02 1.95492E+01 0.00000E+00
 -1      1047 6.41279E+01 2.11082E+01 0.00000E+00
 -1      1048 5.95350E+01 1.95942E+01 0.00000E+00
 -1      1049 2.11500E+01 2.92160E+01 0.00000E+00
 -1      1050 1.29216E+02 2.35375E+01 0.00000E+00
 -1      1051 1.04561E+02 1.99635E+01 0.00000E+00
 -1      1052 1.86382E+01 1.94269E+01 0.00000E+00
 -1      1053 1.08150E+02 2.92160E+01 0.00000E+00
 -1      1054 5.05350E+01 1.95942E+01 0.00000E+00
 -1      1055 2.65350E+01 1.95942E+01 0.00000E+00
 -1      1056 2.41500E+01 2.92160E+01 0.00000E+00
 -1      1057 2.07840E+01 2.35000E+01 0.00000E+00
 -1      1058 6.31500E+01 2.92160E+01 0.00000E+00
 -1      1059 4.15350E+01 1.95942E+01 0.00000E+00
 -1      1060 3.85350E+01 1.95942E+01 0.00000E+00
 -1      1061 2.35350E+01 1.95942E+01 0.00000E+00
 -1      1062 6.30975E+01 2.61461E+01 0.00000E+00
 -1      1063 1.05122E+02 2.55094E+01 0.00000E+00
 -1      1064 4.75350E+01 1.95942E+01 0.00000E+00
 -1      1065 2.95350E+01 1.95942E+01 0.00000E+00
 -1      1066 2.07656E+01 2.05036E+01 0.00000E+00
 -1      1067 6.15727E+01 2.22017E+01 0.00000E+00
 -1      1068 1.29216E+02 2.64813E+01 0.00000E+00
 -1      1069 2.33728E+01 2.19859E+01 0.00000E+00
 -1      1070 3.16500E+01 2.66180E+01 0.00000E+00
 -1      1071 3.46500E+01 2.66180E+01 0.00000E+00
 -1      1072 3.76500E+01 2.66180E+01 0.00000E+00
 -1      1073 4.06500E+01 2.66180E+01 0.00000E+00
 -1      1074 4.36500E+01 2.66180E+01 0.00000E+00
 -1      1075 4.66500E+01 2.66180E+01 0.00000E+00
 -1      1076 4.96500E+01 2.66180E+01 0.00000E+00
 -1      1077 5.26500E+01 2.66180E+01 0.00000E+00
 -1      1078 5.56500E+01 2.66180E+01 0.00000E+00
 -1      1079 5.86500E+01 2.66180E+01 0.00000E+00
 -1      1080 1.26618E+02 2.50094E+01 0.00000E+00
 -1      1081 3.55350E+01 1.95942E+01 0.00000E+00
 -1      1082 1.15035E+02 2.21472E+01 0.00000E+00
 -1      1083 1.15650E+02 2.66180E+01 0.00000E+00
 -1      1084 1.18650E+02 2.66180E+01 0.00000E+00
 -1      1085 1.21650E+02 2.66180E+01 0.00000E+00
 -1      1086 1.06329E+02 2.25293E+01 0.00000E+00
 -1      1087 1.12650E+02 2.66180E+01 0.00000E+00
 -1      1088 2.09670E+01 2.63580E+01 0.00000E+00
 -1      1089 1.24035E+02 2.21472E+01 0.00000E+00
 -1      1090 5.50350E+01 2.21922E+01 0.00000E+00
 -1      1091 4.45350E+01 1.95942E+01 0.00000E+00
 -1      1092 2.86500E+01 2.66180E+01 0.00000E+00
 -1      1093 1.12035E+02 2.21472E+01 0.00000E+00
 -1      1094 1.09182E+02 2.23383E+01 0.00000E+00
 -1      1095 1.18035E+02 2.21472E+01 0.00000E+00
 -1      1096 5.80350E+01 2.21922E+01 0.00000E+00
 -1      1097 1.26384E+02 2.71127E+01 0.00000E+00
 -1      1098 1.21035E+02 2.21472E+01 0.00000E+00
 -1      1099 3.25350E+01 1.95942E+01 0.00000E+00
 -1      1100 5.20350E+01 2.21922E+01 0.00000E+00
 -1      1101 1.09650E+02 2.66180E+01 0.00000E+00
 -1      1102 2.35558E+01 2.48439E+01 0.00000E+00
 -1      1103 4.90350E+01 2.21922E+01 0.00000E+00
 -1      1104 2.38529E+01 2.70299E+01 0.00000E+00
 -1      1105 4.00350E+01 2.21922E+01 0.00000E+00
 -1      1106 2.63728E+01 2.19859E+01 0.00000E+00
 -1      1107 1.24650E+02 2.66180E+01 0.00000E+00
 -1      1108 2.93728E+01 2.19859E+01 0.00000E+00
 -1      1109 1.26076E+02 2.22793E+01 0.00000E+00
 -1      1110 4.30350E+01 2.21922E+01 0.00000E+00
 -1      1111 2.62514E+01 2.68240E+01 0.00000E+00
 -1      1112 3.23728E+01 2.19859E+01 0.00000E+00
 -1      1113 3.61500E+01 2.40200E+01 0.00000E+00
 -1      1114 4.81500E+01 2.40200E+01 0.00000E+00
 -1      1115 3.01500E+01 2.40200E+01 0.00000E+00
 -1      1116 3.31500E+01 2.40200E+01 0.00000E+00
 -1      1117 4.60350E+01 2.21922E+01 0.00000E+00
 -1      1118 4.51500E+01 2.40200E+01 0.00000E+00
 -1      1119 2.66128E+01 2.45079E+01 0.00000E+00
 -1      1120 0.00000E+00 4.85250E+01 0.00000E+00
 -1      1121 0.00000E+00 4.55750E+01 0.00000E+00
 -1      1122 0.00000E+00 4.26250E+01 0.00000E+00
 -1      1123 0.00000E+00 3.96750E+01 0.00000E+00
 -1      1124 0.00000E+00 3.67250E+01 0.00000E+00
 -1      1125 0.00000E+00 3.38000E+01 0.00000E+00
 -1      1126 0.00000E+00 3.08750E+01 0.00000E+00
 -1      1127 0.00000E+00 2.79250E+01 0.00000E+00
 -1      1128 0.00000E+00 2.49750E+01 0.00000E+00
 -1      1129 0.00000E+00 2.20250E+01 0.00000E+00
 -1      1130 0.00000E+00 1.90750E+01 0.00000E+00
 -1      1131 0.00000E+00 1.61500E+01 0.00000E+00
 -1      1132 0.00000E+00 1.32250E+01 0.00000E+00
 -1      1133 0.00000E+00 1.02750E+01 0.00000E+00
 -1      1134 0.00000E+00 7.32500E+00 0.00000E+00
 -1      1135 0.00000E+00 4.37500E+00 0.00000E+00
 -1      1136 0.00000E+00 1.45000E+00 0.00000E+00
 -1      1137 1.57500E+00 5.00000E+01 0.00000E+00
 -1      1138 4.65000E+00 5.00000E+01 0.00000E+00
 -1      1139 7.65000E+00 5.00000E+01 0.00000E+00
 -1      1140 1.06500E+01 5.00000E+01 0.00000E+00
 -1      1141 1.36500E+01 5.00000E+01 0.00000E+00
 -1      1142 1.66500E+01 5.00000E+01 0.00000E+00
 -1      1143 1.96500E+01 5.00000E+01 0.00000E+00
 -1      1144 2.26500E+01 5.00000E+01 0.00000E+00
 -1      1145 2.56500E+01 5.00000E+01 0.00000E+00
 -1      1146 2.86500E+01 5.00000E+01 0.00000E+00
 -1      1147 3.16500E+01 5.00000E+01 0.00000E+00
 -1      1148 3.46500E+01 5.00000E+01 0.00000E+00
 -1      1149 3.76500E+01 5.00000E+01 0.00000E+00
 -1      1150 4.06500E+01 5.00000E+01 0.00000E+00
 -1      1151 4.36500E+01 5.00000E+01 0.00000E+00
 -1      1152 4.66500E+01 5.00000E+01 0.00000E+00
 -1      1153 4.96500E+01 5.00000E+01 0.00000E+00
 -1      1154 5.26500E+01 5.00000E+01 0.00000E+00
 -1      1155 5.56500E+01 5.00000E+01 0.00000E+00
 -1      1156 5.86500E+01 5.00000E+01 0.00000E+00
 -1      1157 6.16500E+01 5.00000E+01 0.00000E+00
 -1      1158 6.46500E+01 5.00000E+01 0.00000E+00
 -1      1159 6.76500E+01 5.00000E+01 0.00000E+00
 -1      1160 7.06500E+01 5.00000E+01 0.00000E+00
 -1      1161 7.36500E+01 5.00000E+01 0.00000E+00
 -1      1162 7.66500E+01 5.00000E+01 0.00000E+00
 -1      1163 7.96500E+01 5.00000E+01 0.00000E+00
 -1      1164 8.26500E+01 5.00000E+01 0.00000E+00
 -1      1165 8.56500E+01 5.00000E+01 0.00000E+00
 -1      1166 8.86500E+01 5.00000E+01 0.00000E+00
 -1      1167 9.16500E+01 5.00000E+01 0.00000E+00
 -1      1168 9.46500E+01 5.00000E+01 0.00000E+00
 -1      1169 9.76500E+01 5.00000E+01 0.00000E+00
 -1      1170 1.00650E+02 5.00000E+01 0.00000E+00
 -1      1171 1.03650E+02 5.00000E+01 0.00000E+00
 -1      1172 1.06650E+02 5.00000E+01 0.00000E+00
 -1      1173 1.09650E+02 5.00000E+01 0.00000E+00
 -1      1174 1.12650E+02 5.00000E+01 0.00000E+00
 -1      1175 1.15650E+02 5.00000E+01 0.00000E+00
 -1      1176 1.18650E+02 5.00000E+01 0.00000E+00
 -1      1177 1.21650E+02 5.00000E+01 0.00000E+00
 -1      1178 1.24650E+02 5.00000E+01 0.00000E+00
 -1      1179 1.27650E+02 5.00000E+01 0.00000E+00
 -1      1180 1.30650E+02 5.00000E+01 0.00000E+00
 -1      1181 1.33650E+02 5.00000E+01 0.00000E+00
 -1      1182 1.36650E+02 5.00000E+01 0.00000E+00
 -1      1183 1.39650E+02 5.00000E+01 0.00000E+00
 -1      1184 1.42650E+02 5.00000E+01 0.00000E+00
 -1      1185 1.45650E+02 5.00000E+01 0.00000E+00
 -1      1186 1.48575E+02 5.00000E+01 0.00000E+00
 -1      1187 1.57500E+00 0.00000E+00 0.00000E+00
 -1      1188 4.65000E+00 0.00000E+00 0.00000E+00
 -1      1189 7.65000E+00 0.00000E+00 0.00000E+00
 -1      1190 1.06500E+01 0.00000E+00 0.00000E+00
 -1      1191 1.36500E+01 0.00000E+00 0.00000E+00
 -1      1192 1.66500E+01 0.00000E+00 0.00000E+00
 -1      1193 1.96500E+01 0.00000E+00 0.00000E+00
 -1      1194 2.26500E+01 0.00000E+00 0.00000E+00
 -1      1195 2.56500E+01 0.00000E+00 0.00000E+00
 -1      1196 2.86500E+01 0.00000E+00 0.00000E+00
 -1      1197 3.16500E+01 0.00000E+00 0.00000E+00
 -1      1198 3.46500E+01 0.00000E+00 0.00000E+00
 -1      1199 3.76500E+01 0.00000E+00 0.00000E+00
 -1      1200 4.06500E+01 0.00000E+00 0.00000E+00
 -1      1201 4.36500E+01 0.00000E+00 0.00000E+00
 -1      1202 4.66500E+01 0.00000E+00 0.00000E+00
 -1      1203 4.96500E+01 0.00000E+00 0.00000E+00
 -1      1204 5.26500E+01 0.00000E+00 0.00000E+00
 -1      1205 5.56500E+01 0.00000E+00 0.00000E+00
 -1      1206 5.86500E+01 0.00000E+00 0.00000E+00
 -1      1207 6.16500E+01 0.00000E+00 0.00000E+00
 -1      1208 6.46500E+01 0.00000E+00 0.00000E+00
 -1      1209 6.76500E+01 0.00000E+00 0.00000E+00
 -1      1210 7.06500E+01 0.00000E+00 0.00000E+00
 -1      1211 7.36500E+01 0.00000E+00 0.00000E+00
 -1      1212 7.66500E+01 0.00000E+00 0.00000E+00
 -1      1213 7.96500E+01 0.00000E+00 0.00000E+00
 -1      1214 8.26500E+01 0.00000E+00 0.00000E+00
 -1      1215 8.56500E+01 0.00000E+00 0.00000E+00
 -1      1216 8.86500E+01 0.00000E+00 0.00000E+00
 -1      1217 9.16500E+01 0.00000E+00 0.00000E+00
 -1      1218 9.46500E+01 0.00000E+00 0.00000E+00
 -1      1219 9.76500E+01 0.00000E+00 0.00000E+00
 -1      1220 1.00650E+02 0.00000E+00 0.00000E+00
 -1      1221 1.03650E+02 0.00000E+00 0.00000E+00
 -1      1222 1.06650E+02 0.00000E+00 0.00000E+00
 -1      1223 1.09650E+02 0.00000E+00 0.00000E+00
 -1      1224 1.12650E+02 0.00000E+00 0.00000E+00
 -1      1225 1.15650E+02 0.00000E+00 0.00000E+00
 -1      1226 1.18650E+02 0.00000E+00 0.00000E+00
 -1      1227 1.21650E+02 0.00000E+00 0.00000E+00
 -1      1228 1.24650E+02 0.00000E+00 0.00000E+00
 -1      1229 1.27650E+02 0.00000E+00 0.00000E+00
 -1      1230 1.30650E+02 0.00000E+00 0.00000E+00
 -1      1231 1.33650E+02 0.00000E+00 0.00000E+00
 -1      1232 1.36650E+02 0.00000E+00 0.00000E+00
 -1      1233 1.39650E+02 0.00000E+00 0.00000E+00
 -1      1234 1.42650E+02 0.00000E+00 0.00000E+00
 -1      1235 1.45650E+02 0.00000E+00 0.00000E+00
 -1      1236 1.48575E+02 0.00000E+00 0.00000E+00
 -1      1237 1.50000E+02 1.47500E+00 0.00000E+00
 -1      1238 1.50000E+02 4.42500E+00 0.00000E+00
 -1      1239 1.50000E+02 7.37500E+00 0.00000E+00
 -1      1240 1.50000E+02 1.03250E+01 0.00000E+00
 -1      1241 1.50000E+02 1.32750E+01 0.00000E+00
 -1      1242 1.50000E+02 1.62000E+01 0.00000E+00
 -1      1243 1.50000E+02 1.91250E+01 0.00000E+00
 -1      1244 1.50000E+02 2.20750E+01 0.00000E+00
 -1      1245 1.50000E+02 2.50250E+01 0.00000E+00
 -1      1246 1.50000E+02 2.79750E+01 0.00000E+00
 -1      1247 1.50000E+02 3.09250E+01 0.00000E+00
 -1      1248 1.50000E+02 3.38500E+01 0.00000E+00
 -1      1249 1.50000E+02 3.67750E+01 0.00000E+00
 -1      1250 1.50000E+02 3.97250E+01 0.00000E+00
 -1      1251 1.50000E+02 4.26750E+01 0.00000E+00
 -1      1252 1.50000E+02 4.56250E+01 0.00000E+00
 -1      1253 1.50000E+02 4.85500E+01 0.00000E+00
 -1      1254 9.12856E+01 2.14188E+01 0.00000E+00
 -1      1255 9.09408E+01 1.99236E+01 0.00000E+00
 -1      1256 9.03210E+01 1.86087E+01 0.00000E+00
 -1      1257 8.94336E+01 1.74401E+01 0.00000E+00
 -1      1258 8.83532E+01 1.65039E+01 0.00000E+00
 -1      1259 8.70560E+01 1.57858E+01 0.00000E+00
 -1      1260 8.55850E+01 1.53474E+01 0.00000E+00
 -1      1261 8.40585E+01 1.52400E+01 0.00000E+00
 -1      1262 8.25197E+01 1.54736E+01 0.00000E+00
 -1      1263 8.11156E+01 1.60180E+01 0.00000E+00
 -1      1264 7.99085E+01 1.68105E+01 0.00000E+00
 -1      1265 7.88985E+01 1.78229E+01 0.00000E+00
 -1      1266 7.81044E+01 1.90407E+01 0.00000E+00
 -1      1267 7.75617E+01 2.04612E+01 0.00000E+00
 -1      1268 7.73360E+01 2.20409E+01 0.00000E+00
 -1      1269 7.74644E+01 2.35830E+01 0.00000E+00
 -1      1270 7.79061E+01 2.50078E+01 0.00000E+00
 -1      1271 7.86398E+01 2.63069E+01 0.00000E+00
 -1      1272 7.96148E+01 2.74053E+01 0.00000E+00
 -1      1273 8.07829E+01 2.82674E+01 0.00000E+00
 -1      1274 8.22286E+01 2.89107E+01 0.00000E+00
 -1      1275 8.38044E+01 2.92146E+01 0.00000E+00
 -1      1276 8.53144E+01 2.91655E+01 0.00000E+00
 -1      1277 8.68026E+01 2.87846E+01 0.00000E+00
 -1      1278 8.81484E+01 2.81036E+01 0.00000E+00
 -1      1279 8.93022E+01 2.71651E+01 0.00000E+00
 -1      1280 9.02665E+01 2.59491E+01 0.00000E+00
 -1      1281 9.09476E+01 2.45261E+01 0.00000E+00
 -1      1282 9.12897E+01 2.30144E+01 0.00000E+00
 -1      1283 1.57500E+00 4.85250E+01 0.00000E+00
 -1      1284 1.29900E+00 4.48375E+01 0.00000E+00
 -1      1285 1.29900E+00 4.63125E+01 0.00000E+00
 -1      1286 1.29900E+00 4.18875E+01 0.00000E+00
 -1      1287 1.29900E+00 4.33625E+01 0.00000E+00
 -1      1288 2.59800E+00 4.41000E+01 0.00000E+00
 -1      1289 1.29900E+00 3.89375E+01 0.00000E+00
 -1      1290 1.29900E+00 4.04125E+01 0.00000E+00
 -1      1291 2.59800E+00 4.11500E+01 0.00000E+00
 -1      1292 1.29900E+00 3.59875E+01 0.00000E+00
 -1      1293 1.29900E+00 3.74625E+01 0.00000E+00
 -1      1294 2.59800E+00 3.82000E+01 0.00000E+00
 -1      1295 1.29900E+00 3.30875E+01 0.00000E+00
 -1      1296 1.29900E+00 3.45375E+01 0.00000E+00
 -1      1297 2.59800E+00 3.52750E+01 0.00000E+00
 -1      1298 1.29900E+00 3.01375E+01 0.00000E+00
 -1      1299 1.29900E+00 3.16125E+01 0.00000E+00
 -1      1300 2.59800E+00 3.23500E+01 0.00000E+00
 -1      1301 1.29900E+00 2.71875E+01 0.00000E+00
 -1      1302 1.29900E+00 2.86625E+01 0.00000E+00
 -1      1303 2.59800E+00 2.94000E+01 0.00000E+00
 -1      1304 1.29900E+00 2.42375E+01 0.00000E+00
 -1      1305 1.29900E+00 2.57125E+01 0.00000E+00
 -1      1306 2.59800E+00 2.64500E+01 0.00000E+00
 -1      1307 1.29900E+00 2.12875E+01 0.00000E+00
 -1      1308 1.29900E+00 2.27625E+01 0.00000E+00
 -1      1309 2.59800E+00 2.35000E+01 0.00000E+00
 -1      1310 1.29900E+00 1.83375E+01 0.00000E+00
 -1      1311 1.29900E+00 1.98125E+01 0.00000E+00
 -1      1312 2.59800E+00 2.05500E+01 0.00000E+00
 -1      1313 1.29900E+00 1.54375E+01 0.00000E+00
 -1      1314 1.29900E+00 1.68875E+01 0.00000E+00
 -1      1315 2.59800E+00 1.76250E+01 0.00000E+00
 -1      1316 1.29900E+00 1.24875E+01 0.00000E+00
 -1      1317 1.29900E+00 1.39625E+01 0.00000E+00
 -1      1318 2.59800E+00 1.47000E+01 0.00000E+00
 -1      1319 1.29900E+00 9.53750E+00 0.00000E+00
 -1      1320 1.29900E+00 1.10125E+01 0.00000E+00
 -1      1321 2.59800E+00 1.17500E+01 0.00000E+00
 -1      1322 1.29900E+00 6.58750E+00 0.00000E+00
 -1      1323 1.29900E+00 8.06250E+00 0.00000E+00
 -1      1324 2.59800E+00 8.80000E+00 0.00000E+00
 -1      1325 1.29900E+00 3.63750E+00 0.00000E+00
 -1      1326 1.29900E+00 5.11250E+00 0.00000E+00
 -1      1327 2.59800E+00 5.85000E+00 0.00000E+00
 -1      1328 1.43700E+00 1.09375E+00 0.00000E+00
 -1      1329 1.43700E+00 2.54375E+00 0.00000E+00
 -1      1330 2.73600E+00 3.28125E+00 0.00000E+00
 -1      1331 3.01200E+00 1.09375E+00 0.00000E+00
 -1      1332 3.90000E+00 4.87010E+01 0.00000E+00
 -1      1333 5.40000E+00 4.87010E+01 0.00000E+00
 -1      1334 6.90000E+00 4.87010E+01 0.00000E+00
 -1      1335 8.40000E+00 4.87010E+01 0.00000E+00
 -1      1336 6.15000E+00 4.74020E+01 0.00000E+00
 -1      1337 9.90000E+00 4.87010E+01 0.00000E+00
 -1      1338 1.14000E+01 4.87010E+01 0.00000E+00
 -1      1339 9.15000E+00 4.74020E+01 0.00000E+00
 -1      1340 1.29000E+01 4.87010E+01 0.00000E+00
 -1      1341 1.44000E+01 4.87010E+01 0.00000E+00
 -1      1342 1.21500E+01 4.74020E+01 0.00000E+00
 -1      1343 1.59000E+01 4.87010E+01 0.00000E+00
 -1      1344 1.74000E+01 4.87010E+01 0.00000E+00
 -1      1345 1.51500E+01 4.74020E+01 0.00000E+00
 -1      1346 1.89000E+01 4.87010E+01 0.00000E+00
 -1      1347 2.04000E+01 4.87010E+01 0.00000E+00
 -1      1348 1.81500E+01 4.74020E+01 0.00000E+00
 -1      1349 2.19000E+01 4.87010E+01 0.00000E+00
 -1      1350 2.34000E+01 4.87010E+01 0.00000E+00
 -1      1351 2.11500E+01 4.74020E+01 0.00000E+00
 -1      1352 2.49000E+01 4.87010E+01 0.00000E+00
 -1      1353 2.64000E+01 4.87010E+01 0.00000E+00
 -1      1354 2.41500E+01 4.74020E+01 0.00000E+00
 -1      1355 2.79000E+01 4.87010E+01 0.00000E+00
 -1      1356 2.94000E+01 4.87010E+01 0.00000E+00
 -1      1357 2.71500E+01 4.74020E+01 0.00000E+00
 -1      1358 3.09000E+01 4.87010E+01 0.00000E+00
 -1      1359 3.24000E+01 4.87010E+01 0.00000E+00
 -1      1360 3.01500E+01 4.74020E+01 0.00000E+00
 -1      1361 3.39000E+01 4.87010E+01 0.00000E+00
 -1      1362 3.54000E+01 4.87010E+01 0.00000E+00
 -1      1363 3.31500E+01 4.74020E+01 0.00000E+00
 -1      1364 3.69000E+01 4.87010E+01 0.00000E+00
 -1      1365 3.84000E+01 4.87010E+01 0.00000E+00
 -1      1366 3.61500E+01 4.74020E+01 0.00000E+00
 -1      1367 3.99000E+01 4.87010E+01 0.00000E+00
 -1      1368 4.14000E+01 4.87010E+01 0.00000E+00
 -1      1369 3.91500E+01 4.74020E+01 0.00000E+00
 -1      1370 4.29000E+01 4.87010E+01 0.00000E+00
 -1      1371 4.44000E+01 4.87010E+01 0.00000E+00
 -1      1372 4.21500E+01 4.74020E+01 0.00000E+00
 -1      1373 4.59000E+01 4.87010E+01 0.00000E+00
 -1      1374 4.74000E+01 4.87010E+01 0.00000E+00
 -1      1375 4.51500E+01 4.74020E+01 0.00000E+00
 -1      1376 4.89000E+01 4.87010E+01 0.00000E+00
 -1      1377 5.04000E+01 4.87010E+01 0.00000E+00
 -1      1378 4.81500E+01 4.74020E+01 0.00000E+00
 -1      1379 5.19000E+01 4.87010E+01 0.00000E+00
 -1      1380 5.34000E+01 4.87010E+01 0.00000E+00
 -1      1381 5.11500E+01 4.74020E+01 0.00000E+00
 -1      1382 5.49000E+01 4.87010E+01 0.00000E+00
 -1      1383 5.64000E+01 4.87010E+01 0.00000E+00
 -1      1384 5.41500E+01 4.74020E+01 0.00000E+00
 -1      1385 5.79000E+01 4.87010E+01 0.00000E+00
 -1      1386 5.94000E+01 4.87010E+01 0.00000E+00
 -1      1387 5.71500E+01 4.74020E+01 0.00000E+00
 -1      1388 6.09000E+01 4.87010E+01 0.00000E+00
 -1      1389 6.24000E+01 4.87010E+01 0.00000E+00
 -1      1390 6.01500E+01 4.74020E+01 0.00000E+00
 -1      1391 6.39000E+01 4.87010E+01 0.00000E+00
 -1      1392 6.54000E+01 4.87010E+01 0.00000E+00
 -1      1393 6.31500E+01 4.74020E+01 0.00000E+00
 -1      1394 6.69000E+01 4.87010E+01 0.00000E+00
 -1      1395 6.84000E+01 4.87010E+01 0.00000E+00
 -1      1396 6.61500E+01 4.74020E+01 0.00000E+00
 -1      1397 6.99000E+01 4.87010E+01 0.00000E+00
 -1      1398 7.14000E+01 4.87010E+01 0.00000E+00
 -1      1399 6.91500E+01 4.74020E+01 0.00000E+00
 -1      1400 7.29000E+01 4.87010E+01 0.00000E+00
 -1      1401 7.44000E+01 4.87010E+01 0.00000E+00
 -1      1402 7.21500E+01 4.74020E+01 0.00000E+00
 -1      1403 7.59000E+01 4.87010E+01 0.00000E+00
 -1      1404 7.74000E+01 4.87010E+01 0.00000E+00
 -1      1405 7.51500E+01 4.74020E+01 0.00000E+00
 -1      1406 7.89000E+01 4.87010E+01 0.00000E+00
 -1      1407 8.04000E+01 4.87010E+01 0.00000E+00
 -1      1408 7.81500E+01 4.74020E+01 0.00000E+00
 -1      1409 8.19000E+01 4.87010E+01 0.00000E+00
 -1      1410 8.34000E+01 4.87010E+01 0.00000E+00
 -1      1411 8.11500E+01 4.74020E+01 0.00000E+00
 -1      1412 8.49000E+01 4.87010E+01 0.00000E+00
 -1      1413 8.64000E+01 4.87010E+01 0.00000E+00
 -1      1414 8.41500E+01 4.74020E+01 0.00000E+00
 -1      1415 8.79000E+01 4.87010E+01 0.00000E+00
 -1      1416 8.94000E+01 4.87010E+01 0.00000E+00
 -1      1417 8.71500E+01 4.74020E+01 0.00000E+00
 -1      1418 9.09000E+01 4.87010E+01 0.00000E+00
 -1      1419 9.24000E+01 4.87010E+01 0.00000E+00
 -1      1420 9.01500E+01 4.74020E+01 0.00000E+00
 -1      1421 9.39000E+01 4.87010E+01 0.00000E+00
 -1      1422 9.54000E+01 4.87010E+01 0.00000E+00
 -1      1423 9.31500E+01 4.74020E+01 0.00000E+00
 -1      1424 9.69000E+01 4.87010E+01 0.00000E+00
 -1      1425 9.84000E+01 4.87010E+01 0.00000E+00
 -1      1426 9.61500E+01 4.74020E+01 0.00000E+00
 -1      1427 9.99000E+01 4.87010E+01 0.00000E+00
 -1      1428 1.01400E+02 4.87010E+01 0.00000E+00
 -1      1429 9.91500E+01 4.74020E+01 0.00000E+00
 -1      1430 1.02900E+02 4.87010E+01 0.00000E+00
 -1      1431 1.04400E+02 4.87010E+01 0.00000E+00
 -1      1432 1.02150E+02 4.74020E+01 0.00000E+00
 -1      1433 1.05900E+02 4.87010E+01 0.00000E+00
 -1      1434 1.07400E+02 4.87010E+01 0.00000E+00
 -1      1435 1.05150E+02 4.74020E+01 0.00000E+00
 -1      1436 1.08900E+02 4.87010E+01 0.00000E+00
 -1      1437 1.10400E+02 4.87010E+01 0.00000E+00
 -1      1438 1.08150E+02 4.74020E+01 0.00000E+00
 -1      1439 1.11900E+02 4.87010E+01 0.00000E+00
 -1      1440 1.13400E+02 4.87010E+01 0.00000E+00
 -1      1441 1.11150E+02 4.74020E+01 0.00000E+00
 -1      1442 1.14900E+02 4.87010E+01 0.00000E+00
 -1      1443 1.16400E+02 4.87010E+01 0.00000E+00
 -1      1444 1.14150E+02 4.74020E+01 0.00000E+00
 -1      1445 1.17900E+02 4.87010E+01 0.00000E+00
 -1      1446 1.19400E+02 4.87010E+01 0.00000E+00
 -1      1447 1.17150E+02 4.74020E+01 0.00000E+00
 -1      1448 1.20900E+02 4.87010E+01 0.00000E+00
 -1      1449 1.22400E+02 4.87010E+01 0.00000E+00
 -1      1450 1.20150E+02 4.74020E+01 0.00000E+00
 -1      1451 1.23900E+02 4.87010E+01 0.00000E+00
 -1      1452 1.25400E+02 4.87010E+01 0.00000E+00
 -1      1453 1.23150E+02 4.74020E+01 0.00000E+00
 -1      1454 1.26900E+02 4.87010E+01 0.00000E+00
 -1      1455 1.28400E+02 4.87010E+01 0.00000E+00
 -1      1456 1.26150E+02 4.74020E+01 0.00000E+00
 -1      1457 1.29900E+02 4.87010E+01 0.00000E+00
 -1      1458 1.31400E+02 4.87010E+01 0.00000E+00
 -1      1459 1.29150E+02 4.74020E+01 0.00000E+00
 -1      1460 1.32900E+02 4.87010E+01 0.00000E+00
 -1      1461 1.34400E+02 4.87010E+01 0.00000E+00
 -1      1462 1.32150E+02 4.74020E+01 0.00000E+00
 -1      1463 1.35900E+02 4.87010E+01 0.00000E+00
 -1      1464 1.37400E+02 4.87010E+01 0.00000E+00
 -1      1465 1.35150E+02 4.74020E+01 0.00000E+00
 -1      1466 1.38900E+02 4.87010E+01 0.00000E+00
 -1      1467 1.40400E+02 4.87010E+01 0.00000E+00
 -1      1468 1.38150E+02 4.74020E+01 0.00000E+00
 -1      1469 1.41900E+02 4.87010E+01 0.00000E+00
 -1      1470 1.43400E+02 4.87010E+01 0.00000E+00
 -1      1471 1.41150E+02 4.74020E+01 0.00000E+00
 -1      1472 1.44900E+02 4.87010E+01 0.00000E+00
 -1      1473 1.46400E+02 4.87010E+01 0.00000E+00
 -1      1474 1.44150E+02 4.74020E+01 0.00000E+00
 -1      1475 1.48575E+02 4.85500E+01 0.00000E+00
 -1      1476 1.47825E+02 4.72510E+01 0.00000E+00
 -1      1477 6.01200E+00 1.09375E+00 0.00000E+00
 -1      1478 4.51200E+00 1.09375E+00 0.00000E+00
 -1      1479 4.37400E+00 2.18750E+00 0.00000E+00
 -1      1480 9.01200E+00 1.09375E+00 0.00000E+00
 -1      1481 7.51200E+00 1.09375E+00 0.00000E+00
 -1      1482 7.37400E+00 2.18750E+00 0.00000E+00
 -1      1483 1.20120E+01 1.09375E+00 0.00000E+00
 -1      1484 1.05120E+01 1.09375E+00 0.00000E+00
 -1      1485 1.03740E+01 2.18750E+00 0.00000E+00
 -1      1486 1.50120E+01 1.09375E+00 0.00000E+00
 -1      1487 1.35120E+01 1.09375E+00 0.00000E+00
 -1      1488 1.33740E+01 2.18750E+00 0.00000E+00
 -1      1489 1.80120E+01 1.09375E+00 0.00000E+00
 -1      1490 1.65120E+01 1.09375E+00 0.00000E+00
 -1      1491 1.63740E+01 2.18750E+00 0.00000E+00
 -1      1492 2.10120E+01 1.09375E+00 0.00000E+00
 -1      1493 1.95120E+01 1.09375E+00 0.00000E+00
 -1      1494 1.93740E+01 2.18750E+00 0.00000E+00
 -1      1495 2.40120E+01 1.09375E+00 0.00000E+00
 -1      1496 2.25120E+01 1.09375E+00 0.00000E+00
 -1      1497 2.23740E+01 2.18750E+00 0.00000E+00
 -1      1498 2.70120E+01 1.09375E+00 0.00000E+00
 -1      1499 2.55120E+01 1.09375E+00 0.00000E+00
 -1      1500 2.53740E+01 2.18750E+00 0.00000E+00
 -1      1501 3.00120E+01 1.09375E+00 0.00000E+00
 -1      1502 2.85120E+01 1.09375E+00 0.00000E+00
 -1      1503 2.83740E+01 2.18750E+00 0.00000E+00
 -1      1504 3.30120E+01 1.09375E+00 0.00000E+00
 -1      1505 3.15120E+01 1.09375E+00 0.00000E+00
 -1      1506 3.13740E+01 2.18750E+00 0.00000E+00
 -1      1507 3.60120E+01 1.09375E+00 0.00000E+00
 -1      1508 3.45120E+01 1.09375E+00 0.00000E+00
 -1      1509 3.43740E+01 2.18750E+00 0.00000E+00
 -1      1510 3.90120E+01 1.09375E+00 0.00000E+00
 -1      1511 3.75120E+01 1.09375E+00 0.00000E+00
 -1      1512 3.73740E+01 2.18750E+00 0.00000E+00
 -1      1513 4.20120E+01 1.09375E+00 0.00000E+00
 -1      1514 4.05120E+01 1.09375E+00 0.00000E+00
 -1      1515 4.03740E+01 2.18750E+00 0.00000E+00
 -1      1516 4.50120E+01 1.09375E+00 0.00000E+00
 -1      1517 4.35120E+01 1.09375E+00 0.00000E+00
 -1      1518 4.33740E+01 2.18750E+00 0.00000E+00
 -1      1519 4.80120E+01 1.09375E+00 0.00000E+00
 -1      1520 4.65120E+01 1.09375E+00 0.00000E+00
 -1      1521 4.63740E+01 2.18750E+00 0.00000E+00
 -1      1522 5.10120E+01 1.09375E+00 0.00000E+00
 -1      1523 4.95120E+01 1.09375E+00 0.00000E+00
 -1      1524 4.93740E+01 2.18750E+00 0.00000E+00
 -1      1525 5.40120E+01 1.09375E+00 0.00000E+00
 -1      1526 5.25120E+01 1.09375E+00 0.00000E+00
 -1      1527 5.23740E+01 2.18750E+00 0.00000E+00
 -1      1528 5.70120E+01 1.09375E+00 0.00000E+00
 -1      1529 5.55120E+01 1.09375E+00 0.00000E+00
 -1      1530 5.53740E+01 2.18750E+00 0.00000E+00
 -1      1531 6.00120E+01 1.09375E+00 0.00000E+00
 -1      1532 5.85120E+01 1.09375E+00 0.00000E+00
 -1      1533 5.83740E+01 2.18750E+00 0.00000E+00
 -1      1534 6.30120E+01 1.09375E+00 0.00000E+00
 -1      1535 6.15120E+01 1.09375E+00 0.00000E+00
 -1      1536 6.13740E+01 2.18750E+00 0.00000E+00
 -1      1537 6.60120E+01 1.09375E+00 0.00000E+00
 -1      1538 6.45120E+01 1.09375E+00 0.00000E+00
 -1      1539 6.43740E+01 2.18750E+00 0.00000E+00
 -1      1540 6.90120E+01 1.09375E+00 0.00000E+00
 -1      1541 6.75120E+01 1.09375E+00 0.00000E+00
 -1      1542 6.73740E+01 2.18750E+00 0.00000E+00
 -1      1543 7.20120E+01 1.09375E+00 0.00000E+00
 -1      1544 7.05120E+01 1.09375E+00 0.00000E+00
 -1      1545 7.03740E+01 2.18750E+00 0.00000E+00
 -1      1546 7.50120E+01 1.09375E+00 0.00000E+00
 -1      1547 7.35120E+01 1.09375E+00 0.00000E+00
 -1      1548 7.33740E+01 2.18750E+00 0.00000E+00
 -1      1549 7.80120E+01 1.09375E+00 0.00000E+00
 -1      1550 7.65120E+01 1.09375E+00 0.00000E+00
 -1      1551 7.63740E+01 2.18750E+00 0.00000E+00
 -1      1552 8.10120E+01 1.09375E+00 0.00000E+00
 -1      1553 7.95120E+01 1.09375E+00 0.00000E+00
 -1      1554 7.93740E+01 2.18750E+00 0.00000E+00
 -1      1555 8.40120E+01 1.09375E+00 0.00000E+00
 -1      1556 8.25120E+01 1.09375E+00 0.00000E+00
 -1      1557 8.23740E+01 2.18750E+00 0.00000E+00
 -1      1558 8.70120E+01 1.09375E+00 0.00000E+00
 -1      1559 8.55120E+01 1.09375E+00 0.00000E+00
 -1      1560 8.53740E+01 2.18750E+00 0.00000E+00
 -1      1561 9.00120E+01 1.09375E+00 0.00000E+00
 -1      1562 8.85120E+01 1.09375E+00 0.00000E+00
 -1      1563 8.83740E+01 2.18750E+00 0.00000E+00
 -1      1564 9.30120E+01 1.09375E+00 0.00000E+00
 -1      1565 9.15120E+01 1.09375E+00 0.00000E+00
 -1      1566 9.13740E+01 2.18750E+00 0.00000E+00
 -1      1567 9.60120E+01 1.09375E+00 0.00000E+00
 -1      1568 9.45120E+01 1.09375E+00 0.00000E+00
 -1      1569 9.43740E+01 2.18750E+00 0.00000E+00
 -1      1570 9.90120E+01 1.09375E+00 0.00000E+00
 -1      1571 9.75120E+01 1.09375E+00 0.00000E+00
 -1      1572 9.73740E+01 2.18750E+00 0.00000E+00
 -1      1573 1.02012E+02 1.09375E+00 0.00000E+00
 -1      1574 1.00512E+02 1.09375E+00 0.00000E+00
 -1      1575 1.00374E+02 2.18750E+00 0.00000E+00
 -1      1576 1.05012E+02 1.09375E+00 0.00000E+00
 -1      1577 1.03512E+02 1.09375E+00 0.00000E+00
 -1      1578 1.03374E+02 2.18750E+00 0.00000E+00
 -1      1579 1.08012E+02 1.09375E+00 0.00000E+00
 -1      1580 1.06512E+02 1.09375E+00 0.00000E+00
 -1      1581 1.06374E+02 2.18750E+00 0.00000E+00
 -1      1582 1.11012E+02 1.09375E+00 0.00000E+00
 -1      1583 1.09512E+02 1.09375E+00 0.00000E+00
 -1      1584 1.09374E+02 2.18750E+00 0.00000E+00
 -1      1585 1.14012E+02 1.09375E+00 0.00000E+00
 -1      1586 1.12512E+02 1.09375E+00 0.00000E+00
 -1      1587 1.12374E+02 2.18750E+00 0.00000E+00
 -1      1588 1.17012E+02 1.09375E+00 0.00000E+00
 -1      1589 1.15512E+02 1.09375E+00 0.00000E+00
 -1      1590 1.15374E+02 2.18750E+00 0.00000E+00
 -1      1591 1.20012E+02 1.09375E+00 0.00000E+00
 -1      1592 1.18512E+02 1.09375E+00 0.00000E+00
 -1      1593 1.18374E+02 2.18750E+00 0.00000E+00
 -1      1594 1.23012E+02 1.09375E+00 0.00000E+00
 -1      1595 1.21512E+02 1.09375E+00 0.00000E+00
 -1      1596 1.21374E+02 2.18750E+00 0.00000E+00
 -1      1597 1.26012E+02 1.09375E+00 0.00000E+00
 -1      1598 1.24512E+02 1.09375E+00 0.00000E+00
 -1      1599 1.24374E+02 2.18750E+00 0.00000E+00
 -1      1600 1.29012E+02 1.09375E+00 0.00000E+00
 -1      1601 1.27512E+02 1.09375E+00 0.00000E+00
 -1      1602 1.27374E+02 2.18750E+00 0.00000E+00
 -1      1603 1.32012E+02 1.09375E+00 0.00000E+00
 -1      1604 1.30512E+02 1.09375E+00 0.00000E+00
 -1      1605 1.30374E+02 2.18750E+00 0.00000E+00
 -1      1606 1.35012E+02 1.09375E+00 0.00000E+00
 -1      1607 1.33512E+02 1.09375E+00 0.00000E+00
 -1      1608 1.33374E+02 2.18750E+00 0.00000E+00
 -1      1609 1.38012E+02 1.09375E+00 0.00000E+00
 -1      1610 1.36512E+02 1.09375E+00 0.00000E+00
 -1      1611 1.36374E+02 2.18750E+00 0.00000E+00
 -1      1612 1.41012E+02 1.09375E+00 0.00000E+00
 -1      1613 1.39512E+02 1.09375E+00 0.00000E+00
 -1      1614 1.39374E+02 2.18750E+00 0.00000E+00
 -1      1615 1.44012E+02 1.09375E+00 0.00000E+00
 -1      1616 1.42512E+02 1.09375E+00 0.00000E+00
 -1      1617 1.42374E+02 2.18750E+00 0.00000E+00
 -1      1618 1.47012E+02 1.09375E+00 0.00000E+00
 -1      1619 1.45512E+02 1.09375E+00 0.00000E+00
 -1      1620 1.45374E+02 2.18750E+00 0.00000E+00
 -1      1621 1.48575E+02 1.47500E+00 0.00000E+00
 -1      1622 1.48701E+02 5.16250E+00 0.00000E+00
 -1      1623 1.48701E+02 3.68750E+00 0.00000E+00
 -1      1624 1.48701E+02 8.11250E+00 0.00000E+00
 -1      1625 1.48701E+02 6.63750E+00 0.00000E+00
 -1      1626 1.47402E+02 5.90000E+00 0.00000E+00
 -1      1627 1.48701E+02 1.10625E+01 0.00000E+00
 -1      1628 1.48701E+02 9.58750E+00 0.00000E+00
 -1      1629 1.47402E+02 8.85000E+00 0.00000E+00
 -1      1630 1.48701E+02 1.40125E+01 0.00000E+00
 -1      1631 1.48701E+02 1.25375E+01 0.00000E+00
 -1      1632 1.47402E+02 1.18000E+01 0.00000E+00
 -1      1633 1.48701E+02 1.69125E+01 0.00000E+00
 -1      1634 1.48701E+02 1.54625E+01 0.00000E+00
 -1      1635 1.47402E+02 1.47250E+01 0.00000E+00
 -1      1636 1.48701E+02 1.98625E+01 0.00000E+00
 -1      1637 1.48701E+02 1.83875E+01 0.00000E+00
 -1      1638 1.47402E+02 1.76500E+01 0.00000E+00
 -1      1639 1.48701E+02 2.28125E+01 0.00000E+00
 -1      1640 1.48701E+02 2.13375E+01 0.00000E+00
 -1      1641 1.47402E+02 2.06000E+01 0.00000E+00
 -1      1642 1.48701E+02 2.57625E+01 0.00000E+00
 -1      1643 1.48701E+02 2.42875E+01 0.00000E+00
 -1      1644 1.47402E+02 2.35500E+01 0.00000E+00
 -1      1645 1.48701E+02 2.87125E+01 0.00000E+00
 -1      1646 1.48701E+02 2.72375E+01 0.00000E+00
 -1      1647 1.47402E+02 2.65000E+01 0.00000E+00
 -1      1648 1.48701E+02 3.16625E+01 0.00000E+00
 -1      1649 1.48701E+02 3.01875E+01 0.00000E+00
 -1      1650 1.47402E+02 2.94500E+01 0.00000E+00
 -1      1651 1.48701E+02 3.45625E+01 0.00000E+00
 -1      1652 1.48701E+02 3.31125E+01 0.00000E+00
 -1      1653 1.47402E+02 3.23750E+01 0.00000E+00
 -1      1654 1.48701E+02 3.75125E+01 0.00000E+00
 -1      1655 1.48701E+02 3.60375E+01 0.00000E+00
 -1      1656 1.47402E+02 3.53000E+01 0.00000E+00
 -1      1657 1.48701E+02 4.04625E+01 0.00000E+00
 -1      1658 1.48701E+02 3.89875E+01 0.00000E+00
 -1      1659 1.47402E+02 3.82500E+01 0.00000E+00
 -1      1660 1.48701E+02 4.34125E+01 0.00000E+00
 -1      1661 1.48701E+02 4.19375E+01 0.00000E+00
 -1      1662 1.47402E+02 4.12000E+01 0.00000E+00
 -1      1663 1.48263E+02 4.60692E+01 0.00000E+00
 -1      1664 1.48263E+02 4.45942E+01 0.00000E+00
 -1      1665 1.46964E+02 4.38568E+01 0.00000E+00
 -1      1666 1.46088E+02 4.62202E+01 0.00000E+00
 -1      1667 9.19592E+01 2.09291E+01 0.00000E+00
 -1      1668 9.20543E+01 2.17393E+01 0.00000E+00
 -1      1669 9.13595E+01 1.93965E+01 0.00000E+00
 -1      1670 9.15968E+01 2.00749E+01 0.00000E+00
 -1      1671 9.06519E+01 1.79786E+01 0.00000E+00
 -1      1672 9.10327E+01 1.86074E+01 0.00000E+00
 -1      1673 8.95966E+01 1.67845E+01 0.00000E+00
 -1      1674 9.00981E+01 1.73180E+01 0.00000E+00
 -1      1675 8.83958E+01 1.58359E+01 0.00000E+00
 -1      1676 8.89668E+01 1.62364E+01 0.00000E+00
 -1      1677 8.69619E+01 1.49996E+01 0.00000E+00
 -1      1678 8.76852E+01 1.53050E+01 0.00000E+00
 -1      1679 8.53174E+01 1.47236E+01 0.00000E+00
 -1      1680 8.60551E+01 1.48576E+01 0.00000E+00
 -1      1681 8.36432E+01 1.46095E+01 0.00000E+00
 -1      1682 8.44231E+01 1.45788E+01 0.00000E+00
 -1      1683 8.19556E+01 1.48685E+01 0.00000E+00
 -1      1684 8.27051E+01 1.46674E+01 0.00000E+00
 -1      1685 8.05111E+01 1.56441E+01 0.00000E+00
 -1      1686 8.11593E+01 1.53085E+01 0.00000E+00
 -1      1687 7.92717E+01 1.65948E+01 0.00000E+00
 -1      1688 7.98250E+01 1.61434E+01 0.00000E+00
 -1      1689 7.82308E+01 1.77419E+01 0.00000E+00
 -1      1690 7.86820E+01 1.71861E+01 0.00000E+00
 -1      1691 7.74314E+01 1.91102E+01 0.00000E+00
 -1      1692 7.77681E+01 1.84536E+01 0.00000E+00
 -1      1693 7.69186E+01 2.06973E+01 0.00000E+00
 -1      1694 7.71169E+01 1.99401E+01 0.00000E+00
 -1      1695 7.66824E+01 2.24296E+01 0.00000E+00
 -1      1696 7.67049E+01 2.16168E+01 0.00000E+00
 -1      1697 7.69782E+01 2.40526E+01 0.00000E+00
 -1      1698 7.68367E+01 2.33321E+01 0.00000E+00
 -1      1699 7.74603E+01 2.56126E+01 0.00000E+00
 -1      1700 7.71603E+01 2.49172E+01 0.00000E+00
 -1      1701 7.83578E+01 2.69602E+01 0.00000E+00
 -1      1702 7.79304E+01 2.63628E+01 0.00000E+00
 -1      1703 7.94751E+01 2.81029E+01 0.00000E+00
 -1      1704 7.89328E+01 2.76081E+01 0.00000E+00
 -1      1705 8.08033E+01 2.89400E+01 0.00000E+00
 -1      1706 8.01849E+01 2.85760E+01 0.00000E+00
 -1      1707 8.24244E+01 2.97275E+01 0.00000E+00
 -1      1708 8.15997E+01 2.94675E+01 0.00000E+00
 -1      1709 8.41275E+01 2.98497E+01 0.00000E+00
 -1      1710 8.33894E+01 2.97937E+01 0.00000E+00
 -1      1711 8.57807E+01 2.97111E+01 0.00000E+00
 -1      1712 8.50178E+01 2.98191E+01 0.00000E+00
 -1      1713 8.73598E+01 2.91775E+01 0.00000E+00
 -1      1714 8.66434E+01 2.94476E+01 0.00000E+00
 -1      1715 8.87687E+01 2.83763E+01 0.00000E+00
 -1      1716 8.81459E+01 2.87811E+01 0.00000E+00
 -1      1717 8.99665E+01 2.72999E+01 0.00000E+00
 -1      1718 8.94421E+01 2.78284E+01 0.00000E+00
 -1      1719 9.10260E+01 2.59482E+01 0.00000E+00
 -1      1720 9.05975E+01 2.66326E+01 0.00000E+00
 -1      1721 9.16063E+01 2.43468E+01 0.00000E+00
 -1      1722 9.13542E+01 2.50745E+01 0.00000E+00
 -1      1723 9.18923E+01 2.26896E+01 0.00000E+00
 -1      1724 9.18054E+01 2.34646E+01 0.00000E+00
 -1      1725 8.96592E+01 1.60880E+01 0.00000E+00
 -1      1726 9.08428E+01 1.72967E+01 0.00000E+00
 -1      1727 1.48437E+02 2.56875E+00 0.00000E+00
 -1      1728 1.47138E+02 3.30625E+00 0.00000E+00
 -1      1729 9.24128E+01 2.03898E+01 0.00000E+00
 -1      1730 9.17235E+01 1.87464E+01 0.00000E+00
 -1      1731 9.26133E+01 2.21943E+01 0.00000E+00
 -1      1732 8.83188E+01 1.50090E+01 0.00000E+00
 -1      1733 8.67014E+01 1.43361E+01 0.00000E+00
 -1      1734 8.49003E+01 1.40494E+01 0.00000E+00
 -1      1735 8.30680E+01 1.39627E+01 0.00000E+00
 -1      1736 8.13336E+01 1.44607E+01 0.00000E+00
 -1      1737 7.98512E+01 1.54001E+01 0.00000E+00
 -1      1738 7.85754E+01 1.64906E+01 0.00000E+00
 -1      1739 7.75230E+01 1.77936E+01 0.00000E+00
 -1      1740 7.67458E+01 1.93352E+01 0.00000E+00
 -1      1741 7.62176E+01 2.10846E+01 0.00000E+00
 -1      1742 7.61583E+01 2.29066E+01 0.00000E+00
 -1      1743 7.64947E+01 2.46737E+01 0.00000E+00
 -1      1744 7.71469E+01 2.62884E+01 0.00000E+00
 -1      1745 7.81920E+01 2.76864E+01 0.00000E+00
 -1      1746 7.94769E+01 2.88073E+01 0.00000E+00
 -1      1747 8.09830E+01 2.98080E+01 0.00000E+00
 -1      1748 8.27444E+01 3.04017E+01 0.00000E+00
 -1      1749 8.45998E+01 3.04374E+01 0.00000E+00
 -1      1750 8.63527E+01 3.01433E+01 0.00000E+00
 -1      1751 8.80015E+01 2.94834E+01 0.00000E+00
 -1      1752 8.94612E+01 2.85390E+01 0.00000E+00
 -1      1753 9.07656E+01 2.73238E+01 0.00000E+00
 -1      1754 9.17248E+01 2.57828E+01 0.00000E+00
 -1      1755 9.22522E+01 2.40268E+01 0.00000E+00
 -1      1756 2.87400E+00 4.77875E+01 0.00000E+00
 -1      1757 3.89700E+00 4.04125E+01 0.00000E+00
 -1      1758 3.89700E+00 4.18875E+01 0.00000E+00
 -1      1759 3.89700E+00 4.33625E+01 0.00000E+00
 -1      1760 3.89700E+00 4.48375E+01 0.00000E+00
 -1      1761 5.19600E+00 4.26250E+01 0.00000E+00
 -1      1762 3.89700E+00 3.45500E+01 0.00000E+00
 -1      1763 3.89700E+00 3.60000E+01 0.00000E+00
 -1      1764 3.89700E+00 3.16000E+01 0.00000E+00
 -1      1765 3.89700E+00 3.30750E+01 0.00000E+00
 -1      1766 5.19600E+00 3.38000E+01 0.00000E+00
 -1      1767 3.89700E+00 2.86500E+01 0.00000E+00
 -1      1768 3.89700E+00 3.01250E+01 0.00000E+00
 -1      1769 5.19600E+00 3.08500E+01 0.00000E+00
 -1      1770 3.89700E+00 2.57000E+01 0.00000E+00
 -1      1771 3.89700E+00 2.71750E+01 0.00000E+00
 -1      1772 5.19600E+00 2.79000E+01 0.00000E+00
 -1      1773 3.89700E+00 2.27500E+01 0.00000E+00
 -1      1774 3.89700E+00 2.42250E+01 0.00000E+00
 -1      1775 5.19600E+00 2.49500E+01 0.00000E+00
 -1      1776 3.89700E+00 1.98000E+01 0.00000E+00
 -1      1777 3.89700E+00 2.12750E+01 0.00000E+00
 -1      1778 5.19600E+00 2.20000E+01 0.00000E+00
 -1      1779 3.89700E+00 1.69000E+01 0.00000E+00
 -1      1780 3.89700E+00 1.83500E+01 0.00000E+00
 -1      1781 5.19600E+00 1.90750E+01 0.00000E+00
 -1      1782 3.89700E+00 1.39500E+01 0.00000E+00
 -1      1783 3.89700E+00 1.54250E+01 0.00000E+00
 -1      1784 5.19600E+00 1.61500E+01 0.00000E+00
 -1      1785 3.89700E+00 1.10000E+01 0.00000E+00
 -1      1786 3.89700E+00 1.24750E+01 0.00000E+00
 -1      1787 5.19600E+00 1.32000E+01 0.00000E+00
 -1      1788 3.89700E+00 8.05000E+00 0.00000E+00
 -1      1789 3.89700E+00 9.52500E+00 0.00000E+00
 -1      1790 5.19600E+00 1.02500E+01 0.00000E+00
 -1      1791 3.89700E+00 5.10000E+00 0.00000E+00
 -1      1792 3.89700E+00 6.57500E+00 0.00000E+00
 -1      1793 5.19600E+00 7.30000E+00 0.00000E+00
 -1      1794 4.20450E+00 3.09687E+00 0.00000E+00
 -1      1795 4.06650E+00 4.19063E+00 0.00000E+00
 -1      1796 5.36550E+00 4.91563E+00 0.00000E+00
 -1      1797 5.70450E+00 3.09687E+00 0.00000E+00
 -1      1798 3.62400E+00 4.64885E+01 0.00000E+00
 -1      1799 8.70450E+00 3.09687E+00 0.00000E+00
 -1      1800 7.20450E+00 3.09687E+00 0.00000E+00
 -1      1801 7.03500E+00 4.00625E+00 0.00000E+00
 -1      1802 4.92300E+00 4.57510E+01 0.00000E+00
 -1      1803 8.40000E+00 4.61030E+01 0.00000E+00
 -1      1804 9.90000E+00 4.61030E+01 0.00000E+00
 -1      1805 1.14000E+01 4.61030E+01 0.00000E+00
 -1      1806 1.29000E+01 4.61030E+01 0.00000E+00
 -1      1807 1.06500E+01 4.48040E+01 0.00000E+00
 -1      1808 1.44000E+01 4.61030E+01 0.00000E+00
 -1      1809 1.59000E+01 4.61030E+01 0.00000E+00
 -1      1810 1.36500E+01 4.48040E+01 0.00000E+00
 -1      1811 1.74000E+01 4.61030E+01 0.00000E+00
 -1      1812 1.89000E+01 4.61030E+01 0.00000E+00
 -1      1813 1.66500E+01 4.48040E+01 0.00000E+00
 -1      1814 2.04000E+01 4.61030E+01 0.00000E+00
 -1      1815 2.19000E+01 4.61030E+01 0.00000E+00
 -1      1816 1.96500E+01 4.48040E+01 0.00000E+00
 -1      1817 2.34000E+01 4.61030E+01 0.00000E+00
 -1      1818 2.49000E+01 4.61030E+01 0.00000E+00
 -1      1819 2.26500E+01 4.48040E+01 0.00000E+00
 -1      1820 2.64000E+01 4.61030E+01 0.00000E+00
 -1      1821 2.79000E+01 4.61030E+01 0.00000E+00
 -1      1822 2.56500E+01 4.48040E+01 0.00000E+00
 -1      1823 2.94000E+01 4.61030E+01 0.00000E+00
 -1      1824 3.09000E+01 4.61030E+01 0.00000E+00
 -1      1825 2.86500E+01 4.48040E+01 0.00000E+00
 -1      1826 3.24000E+01 4.61030E+01 0.00000E+00
 -1      1827 3.39000E+01 4.61030E+01 0.00000E+00
 -1      1828 3.16500E+01 4.48040E+01 0.00000E+00
 -1      1829 3.54000E+01 4.61030E+01 0.00000E+00
 -1      1830 3.69000E+01 4.61030E+01 0.00000E+00
 -1      1831 3.46500E+01 4.48040E+01 0.00000E+00
 -1      1832 3.84000E+01 4.61030E+01 0.00000E+00
 -1      1833 3.99000E+01 4.61030E+01 0.00000E+00
 -1      1834 3.76500E+01 4.48040E+01 0.00000E+00
 -1      1835 4.14000E+01 4.61030E+01 0.00000E+00
 -1      1836 4.29000E+01 4.61030E+01 0.00000E+00
 -1      1837 4.06500E+01 4.48040E+01 0.00000E+00
 -1      1838 4.44000E+01 4.61030E+01 0.00000E+00
 -1      1839 4.59000E+01 4.61030E+01 0.00000E+00
 -1      1840 4.36500E+01 4.48040E+01 0.00000E+00
 -1      1841 4.74000E+01 4.61030E+01 0.00000E+00
 -1      1842 4.89000E+01 4.61030E+01 0.00000E+00
 -1      1843 4.66500E+01 4.48040E+01 0.00000E+00
 -1      1844 5.04000E+01 4.61030E+01 0.00000E+00
 -1      1845 5.19000E+01 4.61030E+01 0.00000E+00
 -1      1846 4.96500E+01 4.48040E+01 0.00000E+00
 -1      1847 5.34000E+01 4.61030E+01 0.00000E+00
 -1      1848 5.49000E+01 4.61030E+01 0.00000E+00
 -1      1849 5.26500E+01 4.48040E+01 0.00000E+00
 -1      1850 5.64000E+01 4.61030E+01 0.00000E+00
 -1      1851 5.79000E+01 4.61030E+01 0.00000E+00
 -1      1852 5.56500E+01 4.48040E+01 0.00000E+00
 -1      1853 5.94000E+01 4.61030E+01 0.00000E+00
 -1      1854 6.09000E+01 4.61030E+01 0.00000E+00
 -1      1855 5.86500E+01 4.48040E+01 0.00000E+00
 -1      1856 6.24000E+01 4.61030E+01 0.00000E+00
 -1      1857 6.39000E+01 4.61030E+01 0.00000E+00
 -1      1858 6.16500E+01 4.48040E+01 0.00000E+00
 -1      1859 6.54000E+01 4.61030E+01 0.00000E+00
 -1      1860 6.69000E+01 4.61030E+01 0.00000E+00
 -1      1861 6.46500E+01 4.48040E+01 0.00000E+00
 -1      1862 6.84000E+01 4.61030E+01 0.00000E+00
 -1      1863 6.99000E+01 4.61030E+01 0.00000E+00
 -1      1864 6.76500E+01 4.48040E+01 0.00000E+00
 -1      1865 7.14000E+01 4.61030E+01 0.00000E+00
 -1      1866 7.29000E+01 4.61030E+01 0.00000E+00
 -1      1867 7.06500E+01 4.48040E+01 0.00000E+00
 -1      1868 7.44000E+01 4.61030E+01 0.00000E+00
 -1      1869 7.59000E+01 4.61030E+01 0.00000E+00
 -1      1870 7.36500E+01 4.48040E+01 0.00000E+00
 -1      1871 7.74000E+01 4.61030E+01 0.00000E+00
 -1      1872 7.89000E+01 4.61030E+01 0.00000E+00
 -1      1873 7.66500E+01 4.48040E+01 0.00000E+00
 -1      1874 8.04000E+01 4.61030E+01 0.00000E+00
 -1      1875 8.19000E+01 4.61030E+01 0.00000E+00
 -1      1876 7.96500E+01 4.48040E+01 0.00000E+00
 -1      1877 8.34000E+01 4.61030E+01 0.00000E+00
 -1      1878 8.49000E+01 4.61030E+01 0.00000E+00
 -1      1879 8.26500E+01 4.48040E+01 0.00000E+00
 -1      1880 8.64000E+01 4.61030E+01 0.00000E+00
 -1      1881 8.79000E+01 4.61030E+01 0.00000E+00
 -1      1882 8.56500E+01 4.48040E+01 0.00000E+00
 -1      1883 8.94000E+01 4.61030E+01 0.00000E+00
 -1      1884 9.09000E+01 4.61030E+01 0.00000E+00
 -1      1885 8.86500E+01 4.48040E+01 0.00000E+00
 -1      1886 9.24000E+01 4.61030E+01 0.00000E+00
 -1      1887 9.39000E+01 4.61030E+01 0.00000E+00
 -1      1888 9.16500E+01 4.48040E+01 0.00000E+00
 -1      1889 9.54000E+01 4.61030E+01 0.00000E+00
 -1      1890 9.69000E+01 4.61030E+01 0.00000E+00
 -1      1891 9.46500E+01 4.48040E+01 0.00000E+00
 -1      1892 9.84000E+01 4.61030E+01 0.00000E+00
 -1      1893 9.99000E+01 4.61030E+01 0.00000E+00
 -1      1894 9.76500E+01 4.48040E+01 0.00000E+00
 -1      1895 1.01400E+02 4.61030E+01 0.00000E+00
 -1      1896 1.02900E+02 4.61030E+01 0.00000E+00
 -1      1897 1.00650E+02 4.48040E+01 0.00000E+00
 -1      1898 1.04400E+02 4.61030E+01 0.00000E+00
 -1      1899 1.05900E+02 4.61030E+01 0.00000E+00
 -1      1900 1.03650E+02 4.48040E+01 0.00000E+00
 -1      1901 1.07400E+02 4.61030E+01 0.00000E+00
 -1      1902 1.08900E+02 4.61030E+01 0.00000E+00
 -1      1903 1.06650E+02 4.48040E+01 0.00000E+00
 -1      1904 1.10400E+02 4.61030E+01 0.00000E+00
 -1      1905 1.11900E+02 4.61030E+01 0.00000E+00
 -1      1906 1.09650E+02 4.48040E+01 0.00000E+00
 -1      1907 1.13400E+02 4.61030E+01 0.00000E+00
 -1      1908 1.14900E+02 4.61030E+01 0.00000E+00
 -1      1909 1.12650E+02 4.48040E+01 0.00000E+00
 -1      1910 1.16400E+02 4.61030E+01 0.00000E+00
 -1      1911 1.17900E+02 4.61030E+01 0.00000E+00
 -1      1912 1.15650E+02 4.48040E+01 0.00000E+00
 -1      1913 1.19400E+02 4.61030E+01 0.00000E+00
 -1      1914 1.20900E+02 4.61030E+01 0.00000E+00
 -1      1915 1.18650E+02 4.48040E+01 0.00000E+00
 -1      1916 1.22400E+02 4.61030E+01 0.00000E+00
 -1      1917 1.23900E+02 4.61030E+01 0.00000E+00
 -1      1918 1.21650E+02 4.48040E+01 0.00000E+00
 -1      1919 1.25400E+02 4.61030E+01 0.00000E+00
 -1      1920 1.26900E+02 4.61030E+01 0.00000E+00
 -1      1921 1.24650E+02 4.48040E+01 0.00000E+00
 -1      1922 1.28400E+02 4.61030E+01 0.00000E+00
 -1      1923 1.29900E+02 4.61030E+01 0.00000E+00
 -1      1924 1.27650E+02 4.48040E+01 0.00000E+00
 -1      1925 1.31400E+02 4.61030E+01 0.00000E+00
 -1      1926 1.32900E+02 4.61030E+01 0.00000E+00
 -1      1927 1.30650E+02 4.48040E+01 0.00000E+00
 -1      1928 1.34400E+02 4.61030E+01 0.00000E+00
 -1      1929 1.35900E+02 4.61030E+01 0.00000E+00
 -1      1930 1.33650E+02 4.48040E+01 0.00000E+00
 -1      1931 1.37400E+02 4.61030E+01 0.00000E+00
 -1      1932 1.38900E+02 4.61030E+01 0.00000E+00
 -1      1933 1.36650E+02 4.48040E+01 0.00000E+00
 -1      1934 1.40400E+02 4.61030E+01 0.00000E+00
 -1      1935 1.41900E+02 4.61030E+01 0.00000E+00
 -1      1936 1.39650E+02 4.48040E+01 0.00000E+00
 -1      1937 1.43244E+02 4.61616E+01 0.00000E+00
 -1      1938 1.44744E+02 4.61616E+01 0.00000E+00
 -1      1939 1.45182E+02 4.49799E+01 0.00000E+00
 -1      1940 1.42494E+02 4.48626E+01 0.00000E+00
 -1      1941 1.17045E+01 3.09687E+00 0.00000E+00
 -1      1942 1.02045E+01 3.09687E+00 0.00000E+00
 -1      1943 1.00350E+01 4.00625E+00 0.00000E+00
 -1      1944 1.47045E+01 3.09687E+00 0.00000E+00
 -1      1945 1.32045E+01 3.09687E+00 0.00000E+00
 -1      1946 1.30350E+01 4.00625E+00 0.00000E+00
 -1      1947 1.77045E+01 3.09687E+00 0.00000E+00
 -1      1948 1.62045E+01 3.09687E+00 0.00000E+00
 -1      1949 1.60350E+01 4.00625E+00 0.00000E+00
 -1      1950 2.07045E+01 3.09687E+00 0.00000E+00
 -1      1951 1.92045E+01 3.09687E+00 0.00000E+00
 -1      1952 1.90350E+01 4.00625E+00 0.00000E+00
 -1      1953 2.37045E+01 3.09687E+00 0.00000E+00
 -1      1954 2.22045E+01 3.09687E+00 0.00000E+00
 -1      1955 2.20350E+01 4.00625E+00 0.00000E+00
 -1      1956 2.67045E+01 3.09687E+00 0.00000E+00
 -1      1957 2.52045E+01 3.09687E+00 0.00000E+00
 -1      1958 2.50350E+01 4.00625E+00 0.00000E+00
 -1      1959 2.97045E+01 3.09687E+00 0.00000E+00
 -1      1960 2.82045E+01 3.09687E+00 0.00000E+00
 -1      1961 2.80350E+01 4.00625E+00 0.00000E+00
 -1      1962 3.27045E+01 3.09687E+00 0.00000E+00
 -1      1963 3.12045E+01 3.09687E+00 0.00000E+00
 -1      1964 3.10350E+01 4.00625E+00 0.00000E+00
 -1      1965 3.57045E+01 3.09687E+00 0.00000E+00
 -1      1966 3.42045E+01 3.09687E+00 0.00000E+00
 -1      1967 3.40350E+01 4.00625E+00 0.00000E+00
 -1      1968 3.87045E+01 3.09687E+00 0.00000E+00
 -1      1969 3.72045E+01 3.09687E+00 0.00000E+00
 -1      1970 3.70350E+01 4.00625E+00 0.00000E+00
 -1      1971 4.17045E+01 3.09687E+00 0.00000E+00
 -1      1972 4.02045E+01 3.09687E+00 0.00000E+00
 -1      1973 4.00350E+01 4.00625E+00 0.00000E+00
 -1      1974 4.47045E+01 3.09687E+00 0.00000E+00
 -1      1975 4.32045E+01 3.09687E+00 0.00000E+00
 -1      1976 4.30350E+01 4.00625E+00 0.00000E+00
 -1      1977 4.77045E+01 3.09687E+00 0.00000E+00
 -1      1978 4.62045E+01 3.09687E+00 0.00000E+00
 -1      1979 4.60350E+01 4.00625E+00 0.00000E+00
 -1      1980 5.07045E+01 3.09687E+00 0.00000E+00
 -1      1981 4.92045E+01 3.09687E+00 0.00000E+00
 -1      1982 4.90350E+01 4.00625E+00 0.00000E+00
 -1      1983 5.37045E+01 3.09687E+00 0.00000E+00
 -1      1984 5.22045E+01 3.09687E+00 0.00000E+00
 -1      1985 5.20350E+01 4.00625E+00 0.00000E+00
 -1      1986 5.67045E+01 3.09687E+00 0.00000E+00
 -1      1987 5.52045E+01 3.09687E+00 0.00000E+00
 -1      1988 5.50350E+01 4.00625E+00 0.00000E+00
 -1      1989 5.97045E+01 3.09687E+00 0.00000E+00
 -1      1990 5.82045E+01 3.09687E+00 0.00000E+00
 -1      1991 5.80350E+01 4.00625E+00 0.00000E+00
 -1      1992 6.27045E+01 3.09687E+00 0.00000E+00
 -1      1993 6.12045E+01 3.09687E+00 0.00000E+00
 -1      1994 6.10350E+01 4.00625E+00 0.00000E+00
 -1      1995 6.57045E+01 3.09687E+00 0.00000E+00
 -1      1996 6.42045E+01 3.09687E+00 0.00000E+00
 -1      1997 6.40350E+01 4.00625E+00 0.00000E+00
 -1      1998 6.87045E+01 3.09687E+00 0.00000E+00
 -1      1999 6.72045E+01 3.09687E+00 0.00000E+00
 -1      2000 6.70350E+01 4.00625E+00 0.00000E+00
 -1      2001 7.17045E+01 3.09687E+00 0.00000E+00
 -1      2002 7.02045E+01 3.09687E+00 0.00000E+00
 -1      2003 7.00350E+01 4.00625E+00 0.00000E+00
 -1      2004 7.47045E+01 3.09687E+00 0.00000E+00
 -1      2005 7.32045E+01 3.09687E+00 0.00000E+00
 -1      2006 7.30350E+01 4.00625E+00 0.00000E+00
 -1      2007 7.77045E+01 3.09687E+00 0.00000E+00
 -1      2008 7.62045E+01 3.09687E+00 0.00000E+00
 -1      2009 7.60350E+01 4.00625E+00 0.00000E+00
 -1      2010 8.07045E+01 3.09687E+00 0.00000E+00
 -1      2011 7.92045E+01 3.09687E+00 0.00000E+00
 -1      2012 7.90350E+01 4.00625E+00 0.00000E+00
 -1      2013 8.37045E+01 3.09687E+00 0.00000E+00
 -1      2014 8.22045E+01 3.09687E+00 0.00000E+00
 -1      2015 8.20350E+01 4.00625E+00 0.00000E+00
 -1      2016 8.67045E+01 3.09687E+00 0.00000E+00
 -1      2017 8.52045E+01 3.09687E+00 0.00000E+00
 -1      2018 8.50350E+01 4.00625E+00 0.00000E+00
 -1      2019 8.97045E+01 3.09687E+00 0.00000E+00
 -1      2020 8.82045E+01 3.09687E+00 0.00000E+00
 -1      2021 8.80350E+01 4.00625E+00 0.00000E+00
 -1      2022 9.27045E+01 3.09687E+00 0.00000E+00
 -1      2023 9.12045E+01 3.09687E+00 0.00000E+00
 -1      2024 9.10350E+01 4.00625E+00 0.00000E+00
 -1      2025 9.57045E+01 3.09687E+00 0.00000E+00
 -1      2026 9.42045E+01 3.09687E+00 0.00000E+00
 -1      2027 9.40350E+01 4.00625E+00 0.00000E+00
 -1      2028 9.87045E+01 3.09687E+00 0.00000E+00
 -1      2029 9.72045E+01 3.09687E+00 0.00000E+00
 -1      2030 9.70350E+01 4.00625E+00 0.00000E+00
 -1      2031 1.01704E+02 3.09687E+00 0.00000E+00
 -1      2032 1.00204E+02 3.09687E+00 0.00000E+00
 -1      2033 1.00035E+02 4.00625E+00 0.00000E+00
 -1      2034 1.04704E+02 3.09687E+00 0.00000E+00
 -1      2035 1.03204E+02 3.09687E+00 0.00000E+00
 -1      2036 1.03035E+02 4.00625E+00 0.00000E+00
 -1      2037 1.07704E+02 3.09687E+00 0.00000E+00
 -1      2038 1.06204E+02 3.09687E+00 0.00000E+00
 -1      2039 1.06035E+02 4.00625E+00 0.00000E+00
 -1      2040 1.10704E+02 3.09687E+00 0.00000E+00
 -1      2041 1.09204E+02 3.09687E+00 0.00000E+00
 -1      2042 1.09035E+02 4.00625E+00 0.00000E+00
 -1      2043 1.13704E+02 3.09687E+00 0.00000E+00
 -1      2044 1.12204E+02 3.09687E+00 0.00000E+00
 -1      2045 1.12035E+02 4.00625E+00 0.00000E+00
 -1      2046 1.16704E+02 3.09687E+00 0.00000E+00
 -1      2047 1.15204E+02 3.09687E+00 0.00000E+00
 -1      2048 1.15035E+02 4.00625E+00 0.00000E+00
 -1      2049 1.19704E+02 3.09687E+00 0.00000E+00
 -1      2050 1.18204E+02 3.09687E+00 0.00000E+00
 -1      2051 1.18035E+02 4.00625E+00 0.00000E+00
 -1      2052 1.22704E+02 3.09687E+00 0.00000E+00
 -1      2053 1.21204E+02 3.09687E+00 0.00000E+00
 -1      2054 1.21035E+02 4.00625E+00 0.00000E+00
 -1      2055 1.25704E+02 3.09687E+00 0.00000E+00
 -1      2056 1.24204E+02 3.09687E+00 0.00000E+00
 -1      2057 1.24035E+02 4.00625E+00 0.00000E+00
 -1      2058 1.28704E+02 3.09687E+00 0.00000E+00
 -1      2059 1.27204E+02 3.09687E+00 0.00000E+00
 -1      2060 1.27035E+02 4.00625E+00 0.00000E+00
 -1      2061 1.31704E+02 3.09687E+00 0.00000E+00
 -1      2062 1.30204E+02 3.09687E+00 0.00000E+00
 -1      2063 1.30035E+02 4.00625E+00 0.00000E+00
 -1      2064 1.34704E+02 3.09687E+00 0.00000E+00
 -1      2065 1.33204E+02 3.09687E+00 0.00000E+00
 -1      2066 1.33035E+02 4.00625E+00 0.00000E+00
 -1      2067 1.37704E+02 3.09687E+00 0.00000E+00
 -1      2068 1.36204E+02 3.09687E+00 0.00000E+00
 -1      2069 1.36035E+02 4.00625E+00 0.00000E+00
 -1      2070 1.40704E+02 3.09687E+00 0.00000E+00
 -1      2071 1.39204E+02 3.09687E+00 0.00000E+00
 -1      2072 1.39035E+02 4.00625E+00 0.00000E+00
 -1      2073 1.43704E+02 3.09687E+00 0.00000E+00
 -1      2074 1.42204E+02 3.09687E+00 0.00000E+00
 -1      2075 1.42035E+02 4.00625E+00 0.00000E+00
 -1      2076 1.46171E+02 3.20156E+00 0.00000E+00
 -1      2077 1.44671E+02 3.20156E+00 0.00000E+00
 -1      2078 1.44502E+02 4.11094E+00 0.00000E+00
 -1      2079 1.46435E+02 4.32031E+00 0.00000E+00
 -1      2080 1.46103E+02 1.25375E+01 0.00000E+00
 -1      2081 1.46103E+02 1.10625E+01 0.00000E+00
 -1      2082 1.46103E+02 9.58750E+00 0.00000E+00
 -1      2083 1.46103E+02 8.11250E+00 0.00000E+00
 -1      2084 1.44804E+02 1.03250E+01 0.00000E+00
 -1      2085 1.46269E+02 6.95391E+00 0.00000E+00
 -1      2086 1.46269E+02 5.47891E+00 0.00000E+00
 -1      2087 1.45302E+02 5.37422E+00 0.00000E+00
 -1      2088 1.44970E+02 7.69141E+00 0.00000E+00
 -1      2089 1.46103E+02 1.54375E+01 0.00000E+00
 -1      2090 1.46103E+02 1.39875E+01 0.00000E+00
 -1      2091 1.44804E+02 1.32500E+01 0.00000E+00
 -1      2092 1.46103E+02 1.83875E+01 0.00000E+00
 -1      2093 1.46103E+02 1.69125E+01 0.00000E+00
 -1      2094 1.44804E+02 1.61750E+01 0.00000E+00
 -1      2095 1.46103E+02 2.13375E+01 0.00000E+00
 -1      2096 1.46103E+02 1.98625E+01 0.00000E+00
 -1      2097 1.44804E+02 1.91250E+01 0.00000E+00
 -1      2098 1.46103E+02 2.42875E+01 0.00000E+00
 -1      2099 1.46103E+02 2.28125E+01 0.00000E+00
 -1      2100 1.44804E+02 2.20750E+01 0.00000E+00
 -1      2101 1.46103E+02 2.72375E+01 0.00000E+00
 -1      2102 1.46103E+02 2.57625E+01 0.00000E+00
 -1      2103 1.44804E+02 2.50250E+01 0.00000E+00
 -1      2104 1.46103E+02 3.01875E+01 0.00000E+00
 -1      2105 1.46103E+02 2.87125E+01 0.00000E+00
 -1      2106 1.44804E+02 2.79750E+01 0.00000E+00
 -1      2107 1.46103E+02 3.30875E+01 0.00000E+00
 -1      2108 1.46103E+02 3.16375E+01 0.00000E+00
 -1      2109 1.44804E+02 3.09000E+01 0.00000E+00
 -1      2110 1.46103E+02 3.60375E+01 0.00000E+00
 -1      2111 1.46103E+02 3.45625E+01 0.00000E+00
 -1      2112 1.44804E+02 3.38250E+01 0.00000E+00
 -1      2113 1.46103E+02 3.89875E+01 0.00000E+00
 -1      2114 1.46103E+02 3.75125E+01 0.00000E+00
 -1      2115 1.44804E+02 3.67750E+01 0.00000E+00
 -1      2116 1.46103E+02 4.19375E+01 0.00000E+00
 -1      2117 1.46103E+02 4.04625E+01 0.00000E+00
 -1      2118 1.44804E+02 3.97250E+01 0.00000E+00
 -1      2119 9.22750E+01 1.80558E+01 0.00000E+00
 -1      2120 9.26018E+01 1.88449E+01 0.00000E+00
 -1      2121 9.34570E+01 2.18492E+01 0.00000E+00
 -1      2122 9.32950E+01 2.27995E+01 0.00000E+00
 -1      2123 9.29642E+01 1.96992E+01 0.00000E+00
 -1      2124 9.33267E+01 2.05534E+01 0.00000E+00
 -1      2125 9.35157E+01 1.90085E+01 0.00000E+00
 -1      2126 9.11268E+01 1.64962E+01 0.00000E+00
 -1      2127 9.16806E+01 1.71568E+01 0.00000E+00
 -1      2128 8.97973E+01 1.52934E+01 0.00000E+00
 -1      2129 9.04271E+01 1.58415E+01 0.00000E+00
 -1      2130 3.89700E+00 3.74688E+01 0.00000E+00
 -1      2131 3.89700E+00 3.89437E+01 0.00000E+00
 -1      2132 5.19600E+00 3.96813E+01 0.00000E+00
 -1      2133 5.19600E+00 3.67438E+01 0.00000E+00
 -1      2134 8.63741E+01 1.34593E+01 0.00000E+00
 -1      2135 8.72809E+01 1.36012E+01 0.00000E+00
 -1      2136 8.45856E+01 1.31698E+01 0.00000E+00
 -1      2137 8.54798E+01 1.33145E+01 0.00000E+00
 -1      2138 8.60594E+01 1.25797E+01 0.00000E+00
 -1      2139 8.25512E+01 1.32193E+01 0.00000E+00
 -1      2140 8.34893E+01 1.31614E+01 0.00000E+00
 -1      2141 8.05206E+01 1.39302E+01 0.00000E+00
 -1      2142 8.13169E+01 1.34901E+01 0.00000E+00
 -1      2143 7.91485E+01 1.49288E+01 0.00000E+00
 -1      2144 7.98346E+01 1.44295E+01 0.00000E+00
 -1      2145 7.98179E+01 1.34589E+01 0.00000E+00
 -1      2146 7.77327E+01 1.62399E+01 0.00000E+00
 -1      2147 7.83224E+01 1.56486E+01 0.00000E+00
 -1      2148 7.67132E+01 1.77734E+01 0.00000E+00
 -1      2149 7.71759E+01 1.70617E+01 0.00000E+00
 -1      2150 7.58650E+01 1.94760E+01 0.00000E+00
 -1      2151 7.61795E+01 1.86461E+01 0.00000E+00
 -1      2152 7.54387E+01 2.13881E+01 0.00000E+00
 -1      2153 7.56524E+01 2.04687E+01 0.00000E+00
 -1      2154 7.54727E+01 2.34883E+01 0.00000E+00
 -1      2155 7.53184E+01 2.25858E+01 0.00000E+00
 -1      2156 7.58369E+01 2.52174E+01 0.00000E+00
 -1      2157 7.56548E+01 2.43529E+01 0.00000E+00
 -1      2158 7.48149E+01 2.40321E+01 0.00000E+00
 -1      2159 7.67618E+01 2.70521E+01 0.00000E+00
 -1      2160 7.62917E+01 2.63020E+01 0.00000E+00
 -1      2161 7.79009E+01 2.85239E+01 0.00000E+00
 -1      2162 7.73258E+01 2.78761E+01 0.00000E+00
 -1      2163 7.94723E+01 2.95831E+01 0.00000E+00
 -1      2164 7.87625E+01 2.91100E+01 0.00000E+00
 -1      2165 8.10650E+01 3.06382E+01 0.00000E+00
 -1      2166 8.02687E+01 3.01107E+01 0.00000E+00
 -1      2167 7.95543E+01 3.04134E+01 0.00000E+00
 -1      2168 8.31768E+01 3.11650E+01 0.00000E+00
 -1      2169 8.22118E+01 3.10988E+01 0.00000E+00
 -1      2170 8.50672E+01 3.10698E+01 0.00000E+00
 -1      2171 8.41769E+01 3.11003E+01 0.00000E+00
 -1      2172 8.70346E+01 3.08317E+01 0.00000E+00
 -1      2173 8.61719E+01 3.10952E+01 0.00000E+00
 -1      2174 8.87241E+01 2.99386E+01 0.00000E+00
 -1      2175 8.79380E+01 3.03351E+01 0.00000E+00
 -1      2176 9.02333E+01 2.88003E+01 0.00000E+00
 -1      2177 8.95598E+01 2.93482E+01 0.00000E+00
 -1      2178 9.16433E+01 2.75218E+01 0.00000E+00
 -1      2179 9.10124E+01 2.81891E+01 0.00000E+00
 -1      2180 9.26525E+01 2.56328E+01 0.00000E+00
 -1      2181 9.23242E+01 2.65065E+01 0.00000E+00
 -1      2182 9.30959E+01 2.36817E+01 0.00000E+00
 -1      2183 9.28968E+01 2.45639E+01 0.00000E+00
 -1      2184 9.39397E+01 2.33366E+01 0.00000E+00
 -1      2185 8.83765E+01 1.41907E+01 0.00000E+00
 -1      2186 8.90871E+01 1.47217E+01 0.00000E+00
 -1      2187 8.98549E+01 1.44752E+01 0.00000E+00
 -1      2188 6.42300E+00 4.57510E+01 0.00000E+00
 -1      2189 8.80492E+01 1.33139E+01 0.00000E+00
 -1      2190 7.17300E+00 4.44520E+01 0.00000E+00
 -1      2191 9.40085E+01 2.11585E+01 0.00000E+00
 -1      2192 9.46903E+01 2.17637E+01 0.00000E+00
 -1      2193 9.45599E+01 2.04679E+01 0.00000E+00
 -1      2194 9.25589E+01 1.72553E+01 0.00000E+00
 -1      2195 1.45665E+02 4.31193E+01 0.00000E+00
 -1      2196 9.12649E+01 1.57016E+01 0.00000E+00
 -1      2197 9.34962E+01 2.52877E+01 0.00000E+00
 -1      2198 9.25710E+01 2.73718E+01 0.00000E+00
 -1      2199 9.11110E+01 2.89983E+01 0.00000E+00
 -1      2200 8.94963E+01 3.01999E+01 0.00000E+00
 -1      2201 8.77572E+01 3.12870E+01 0.00000E+00
 -1      2202 8.57490E+01 3.17582E+01 0.00000E+00
 -1      2203 8.14975E+01 3.14015E+01 0.00000E+00
 -1      2204 8.07831E+01 3.17041E+01 0.00000E+00
 -1      2205 8.19299E+01 3.21647E+01 0.00000E+00
 -1      2206 7.78963E+01 2.92998E+01 0.00000E+00
 -1      2207 7.54518E+01 2.59812E+01 0.00000E+00
 -1      2208 7.47532E+01 2.19699E+01 0.00000E+00
 -1      2209 7.50861E+01 1.97795E+01 0.00000E+00
 -1      2210 7.58324E+01 1.79141E+01 0.00000E+00
 -1      2211 7.83058E+01 1.46780E+01 0.00000E+00
 -1      2212 8.40688E+01 1.24265E+01 0.00000E+00
 -1      2213 8.17383E+01 1.26888E+01 0.00000E+00
 -1      2214 7.69229E+01 1.62196E+01 0.00000E+00
 -1      2215 7.64706E+01 2.78897E+01 0.00000E+00
 -1      2216 8.36442E+01 3.17974E+01 0.00000E+00
 -1      2217 1.07850E+01 5.30525E+00 0.00000E+00
 -1      2218 9.28500E+00 5.30525E+00 0.00000E+00
 -1      2219 6.49500E+00 3.01125E+01 0.00000E+00
 -1      2220 6.49500E+00 3.15875E+01 0.00000E+00
 -1      2221 6.49500E+00 3.30625E+01 0.00000E+00
 -1      2222 6.49500E+00 3.45375E+01 0.00000E+00
 -1      2223 7.79400E+00 3.23250E+01 0.00000E+00
 -1      2224 6.49500E+00 2.42125E+01 0.00000E+00
 -1      2225 6.49500E+00 2.56875E+01 0.00000E+00
 -1      2226 6.49500E+00 2.12625E+01 0.00000E+00
 -1      2227 6.49500E+00 2.27375E+01 0.00000E+00
 -1      2228 7.79400E+00 2.34750E+01 0.00000E+00
 -1      2229 6.49500E+00 1.83625E+01 0.00000E+00
 -1      2230 6.49500E+00 1.98125E+01 0.00000E+00
 -1      2231 7.79400E+00 2.05500E+01 0.00000E+00
 -1      2232 6.49500E+00 1.54125E+01 0.00000E+00
 -1      2233 6.49500E+00 1.68875E+01 0.00000E+00
 -1      2234 7.79400E+00 1.76250E+01 0.00000E+00
 -1      2235 6.49500E+00 1.24625E+01 0.00000E+00
 -1      2236 6.49500E+00 1.39375E+01 0.00000E+00
 -1      2237 7.79400E+00 1.46750E+01 0.00000E+00
 -1      2238 6.49500E+00 9.51250E+00 0.00000E+00
 -1      2239 6.49500E+00 1.09875E+01 0.00000E+00
 -1      2240 7.79400E+00 1.17250E+01 0.00000E+00
 -1      2241 1.37850E+01 5.30525E+00 0.00000E+00
 -1      2242 1.22850E+01 5.30525E+00 0.00000E+00
 -1      2243 1.15350E+01 6.60425E+00 0.00000E+00
 -1      2244 9.90000E+00 4.35050E+01 0.00000E+00
 -1      2245 1.14000E+01 4.35050E+01 0.00000E+00
 -1      2246 8.78879E+01 1.23009E+01 0.00000E+00
 -1      2247 8.89835E+01 1.28904E+01 0.00000E+00
 -1      2248 1.29000E+01 4.35050E+01 0.00000E+00
 -1      2249 1.44000E+01 4.35050E+01 0.00000E+00
 -1      2250 1.21500E+01 4.22060E+01 0.00000E+00
 -1      2251 1.59000E+01 4.35050E+01 0.00000E+00
 -1      2252 1.74000E+01 4.35050E+01 0.00000E+00
 -1      2253 1.51500E+01 4.22060E+01 0.00000E+00
 -1      2254 1.89000E+01 4.35050E+01 0.00000E+00
 -1      2255 2.04000E+01 4.35050E+01 0.00000E+00
 -1      2256 1.81500E+01 4.22060E+01 0.00000E+00
 -1      2257 2.19000E+01 4.35050E+01 0.00000E+00
 -1      2258 2.34000E+01 4.35050E+01 0.00000E+00
 -1      2259 2.11500E+01 4.22060E+01 0.00000E+00
 -1      2260 2.49000E+01 4.35050E+01 0.00000E+00
 -1      2261 2.64000E+01 4.35050E+01 0.00000E+00
 -1      2262 2.41500E+01 4.22060E+01 0.00000E+00
 -1      2263 2.79000E+01 4.35050E+01 0.00000E+00
 -1      2264 2.94000E+01 4.35050E+01 0.00000E+00
 -1      2265 2.71500E+01 4.22060E+01 0.00000E+00
 -1      2266 3.09000E+01 4.35050E+01 0.00000E+00
 -1      2267 3.24000E+01 4.35050E+01 0.00000E+00
 -1      2268 3.01500E+01 4.22060E+01 0.00000E+00
 -1      2269 3.39000E+01 4.35050E+01 0.00000E+00
 -1      2270 3.54000E+01 4.35050E+01 0.00000E+00
 -1      2271 3.31500E+01 4.22060E+01 0.00000E+00
 -1      2272 3.69000E+01 4.35050E+01 0.00000E+00
 -1      2273 3.84000E+01 4.35050E+01 0.00000E+00
 -1      2274 3.61500E+01 4.22060E+01 0.00000E+00
 -1      2275 3.99000E+01 4.35050E+01 0.00000E+00
 -1      2276 4.14000E+01 4.35050E+01 0.00000E+00
 -1      2277 3.91500E+01 4.22060E+01 0.00000E+00
 -1      2278 4.29000E+01 4.35050E+01 0.00000E+00
 -1      2279 4.44000E+01 4.35050E+01 0.00000E+00
 -1      2280 4.21500E+01 4.22060E+01 0.00000E+00
 -1      2281 4.59000E+01 4.35050E+01 0.00000E+00
 -1      2282 4.74000E+01 4.35050E+01 0.00000E+00
 -1      2283 4.51500E+01 4.22060E+01 0.00000E+00
 -1      2284 4.89000E+01 4.35050E+01 0.00000E+00
 -1      2285 5.04000E+01 4.35050E+01 0.00000E+00
 -1      2286 4.81500E+01 4.22060E+01 0.00000E+00
 -1      2287 5.19000E+01 4.35050E+01 0.00000E+00
 -1      2288 5.34000E+01 4.35050E+01 0.00000E+00
 -1      2289 5.11500E+01 4.22060E+01 0.00000E+00
 -1      2290 5.49000E+01 4.35050E+01 0.00000E+00
 -1      2291 5.64000E+01 4.35050E+01 0.00000E+00
 -1      2292 5.41500E+01 4.22060E+01 0.00000E+00
 -1      2293 5.79000E+01 4.35050E+01 0.00000E+00
 -1      2294 5.94000E+01 4.35050E+01 0.00000E+00
 -1      2295 5.71500E+01 4.22060E+01 0.00000E+00
 -1      2296 6.09000E+01 4.35050E+01 0.00000E+00
 -1      2297 6.24000E+01 4.35050E+01 0.00000E+00
 -1      2298 6.01500E+01 4.22060E+01 0.00000E+00
 -1      2299 6.39000E+01 4.35050E+01 0.00000E+00
 -1      2300 6.54000E+01 4.35050E+01 0.00000E+00
 -1      2301 6.31500E+01 4.22060E+01 0.00000E+00
 -1      2302 6.69000E+01 4.35050E+01 0.00000E+00
 -1      2303 6.84000E+01 4.35050E+01 0.00000E+00
 -1      2304 6.61500E+01 4.22060E+01 0.00000E+00
 -1      2305 6.99000E+01 4.35050E+01 0.00000E+00
 -1      2306 7.14000E+01 4.35050E+01 0.00000E+00
 -1      2307 6.91500E+01 4.22060E+01 0.00000E+00
 -1      2308 7.29000E+01 4.35050E+01 0.00000E+00
 -1      2309 7.44000E+01 4.35050E+01 0.00000E+00
 -1      2310 7.21500E+01 4.22060E+01 0.00000E+00
 -1      2311 7.59000E+01 4.35050E+01 0.00000E+00
 -1      2312 7.74000E+01 4.35050E+01 0.00000E+00
 -1      2313 7.51500E+01 4.22060E+01 0.00000E+00
 -1      2314 7.89000E+01 4.35050E+01 0.00000E+00
 -1      2315 8.04000E+01 4.35050E+01 0.00000E+00
 -1      2316 7.81500E+01 4.22060E+01 0.00000E+00
 -1      2317 8.19000E+01 4.35050E+01 0.00000E+00
 -1      2318 8.34000E+01 4.35050E+01 0.00000E+00
 -1      2319 8.11500E+01 4.22060E+01 0.00000E+00
 -1      2320 8.49000E+01 4.35050E+01 0.00000E+00
 -1      2321 8.64000E+01 4.35050E+01 0.00000E+00
 -1      2322 8.41500E+01 4.22060E+01 0.00000E+00
 -1      2323 8.79000E+01 4.35050E+01 0.00000E+00
 -1      2324 8.94000E+01 4.35050E+01 0.00000E+00
 -1      2325 8.71500E+01 4.22060E+01 0.00000E+00
 -1      2326 9.09000E+01 4.35050E+01 0.00000E+00
 -1      2327 9.24000E+01 4.35050E+01 0.00000E+00
 -1      2328 9.01500E+01 4.22060E+01 0.00000E+00
 -1      2329 9.39000E+01 4.35050E+01 0.00000E+00
 -1      2330 9.54000E+01 4.35050E+01 0.00000E+00
 -1      2331 9.31500E+01 4.22060E+01 0.00000E+00
 -1      2332 9.69000E+01 4.35050E+01 0.00000E+00
 -1      2333 9.84000E+01 4.35050E+01 0.00000E+00
 -1      2334 9.61500E+01 4.22060E+01 0.00000E+00
 -1      2335 9.99000E+01 4.35050E+01 0.00000E+00
 -1      2336 1.01400E+02 4.35050E+01 0.00000E+00
 -1      2337 9.91500E+01 4.22060E+01 0.00000E+00
 -1      2338 1.02900E+02 4.35050E+01 0.00000E+00
 -1      2339 1.04400E+02 4.35050E+01 0.00000E+00
 -1      2340 1.02150E+02 4.22060E+01 0.00000E+00
 -1      2341 1.05900E+02 4.35050E+01 0.00000E+00
 -1      2342 1.07400E+02 4.35050E+01 0.00000E+00
 -1      2343 1.05150E+02 4.22060E+01 0.00000E+00
 -1      2344 1.08900E+02 4.35050E+01 0.00000E+00
 -1      2345 1.10400E+02 4.35050E+01 0.00000E+00
 -1      2346 1.08150E+02 4.22060E+01 0.00000E+00
 -1      2347 1.11900E+02 4.35050E+01 0.00000E+00
 -1      2348 1.13400E+02 4.35050E+01 0.00000E+00
 -1      2349 1.11150E+02 4.22060E+01 0.00000E+00
 -1      2350 1.14900E+02 4.35050E+01 0.00000E+00
 -1      2351 1.16400E+02 4.35050E+01 0.00000E+00
 -1      2352 1.14150E+02 4.22060E+01 0.00000E+00
 -1      2353 1.17900E+02 4.35050E+01 0.00000E+00
 -1      2354 1.19400E+02 4.35050E+01 0.00000E+00
 -1      2355 1.17150E+02 4.22060E+01 0.00000E+00
 -1      2356 1.20900E+02 4.35050E+01 0.00000E+00
 -1      2357 1.22400E+02 4.35050E+01 0.00000E+00
 -1      2358 1.20150E+02 4.22060E+01 0.00000E+00
 -1      2359 1.23900E+02 4.35050E+01 0.00000E+00
 -1      2360 1.25400E+02 4.35050E+01 0.00000E+00
 -1      2361 1.23150E+02 4.22060E+01 0.00000E+00
 -1      2362 1.26900E+02 4.35050E+01 0.00000E+00
 -1      2363 1.28400E+02 4.35050E+01 0.00000E+00
 -1      2364 1.26150E+02 4.22060E+01 0.00000E+00
 -1      2365 1.29900E+02 4.35050E+01 0.00000E+00
 -1      2366 1.31400E+02 4.35050E+01 0.00000E+00
 -1      2367 1.29150E+02 4.22060E+01 0.00000E+00
 -1      2368 1.32900E+02 4.35050E+01 0.00000E+00
 -1      2369 1.34400E+02 4.35050E+01 0.00000E+00
 -1      2370 1.32150E+02 4.22060E+01 0.00000E+00
 -1      2371 1.35900E+02 4.35050E+01 0.00000E+00
 -1      2372 1.37400E+02 4.35050E+01 0.00000E+00
 -1      2373 1.35150E+02 4.22060E+01 0.00000E+00
 -1      2374 1.38900E+02 4.35050E+01 0.00000E+00
 -1      2375 1.40400E+02 4.35050E+01 0.00000E+00
 -1      2376 1.38150E+02 4.22060E+01 0.00000E+00
 -1      2377 9.42782E+01 1.81810E+01 0.00000E+00
 -1      2378 9.46406E+01 1.90352E+01 0.00000E+00
 -1      2379 1.97850E+01 5.30525E+00 0.00000E+00
 -1      2380 1.82850E+01 5.30525E+00 0.00000E+00
 -1      2381 2.27850E+01 5.30525E+00 0.00000E+00
 -1      2382 2.12850E+01 5.30525E+00 0.00000E+00
 -1      2383 2.05350E+01 6.60425E+00 0.00000E+00
 -1      2384 2.57850E+01 5.30525E+00 0.00000E+00
 -1      2385 2.42850E+01 5.30525E+00 0.00000E+00
 -1      2386 2.35350E+01 6.60425E+00 0.00000E+00
 -1      2387 2.87850E+01 5.30525E+00 0.00000E+00
 -1      2388 2.72850E+01 5.30525E+00 0.00000E+00
 -1      2389 2.65350E+01 6.60425E+00 0.00000E+00
 -1      2390 3.17850E+01 5.30525E+00 0.00000E+00
 -1      2391 3.02850E+01 5.30525E+00 0.00000E+00
 -1      2392 2.95350E+01 6.60425E+00 0.00000E+00
 -1      2393 3.47850E+01 5.30525E+00 0.00000E+00
 -1      2394 3.32850E+01 5.30525E+00 0.00000E+00
 -1      2395 3.25350E+01 6.60425E+00 0.00000E+00
 -1      2396 3.77850E+01 5.30525E+00 0.00000E+00
 -1      2397 3.62850E+01 5.30525E+00 0.00000E+00
 -1      2398 3.55350E+01 6.60425E+00 0.00000E+00
 -1      2399 4.07850E+01 5.30525E+00 0.00000E+00
 -1      2400 3.92850E+01 5.30525E+00 0.00000E+00
 -1      2401 3.85350E+01 6.60425E+00 0.00000E+00
 -1      2402 4.37850E+01 5.30525E+00 0.00000E+00
 -1      2403 4.22850E+01 5.30525E+00 0.00000E+00
 -1      2404 4.15350E+01 6.60425E+00 0.00000E+00
 -1      2405 4.67850E+01 5.30525E+00 0.00000E+00
 -1      2406 4.52850E+01 5.30525E+00 0.00000E+00
 -1      2407 4.45350E+01 6.60425E+00 0.00000E+00
 -1      2408 4.97850E+01 5.30525E+00 0.00000E+00
 -1      2409 4.82850E+01 5.30525E+00 0.00000E+00
 -1      2410 4.75350E+01 6.60425E+00 0.00000E+00
 -1      2411 5.27850E+01 5.30525E+00 0.00000E+00
 -1      2412 5.12850E+01 5.30525E+00 0.00000E+00
 -1      2413 5.05350E+01 6.60425E+00 0.00000E+00
 -1      2414 5.57850E+01 5.30525E+00 0.00000E+00
 -1      2415 5.42850E+01 5.30525E+00 0.00000E+00
 -1      2416 5.35350E+01 6.60425E+00 0.00000E+00
 -1      2417 5.87850E+01 5.30525E+00 0.00000E+00
 -1      2418 5.72850E+01 5.30525E+00 0.00000E+00
 -1      2419 5.65350E+01 6.60425E+00 0.00000E+00
 -1      2420 6.17850E+01 5.30525E+00 0.00000E+00
 -1      2421 6.02850E+01 5.30525E+00 0.00000E+00
 -1      2422 5.95350E+01 6.60425E+00 0.00000E+00
 -1      2423 6.47850E+01 5.30525E+00 0.00000E+00
 -1      2424 6.32850E+01 5.30525E+00 0.00000E+00
 -1      2425 6.25350E+01 6.60425E+00 0.00000E+00
 -1      2426 6.77850E+01 5.30525E+00 0.00000E+00
 -1      2427 6.62850E+01 5.30525E+00 0.00000E+00
 -1      2428 6.55350E+01 6.60425E+00 0.00000E+00
 -1      2429 7.07850E+01 5.30525E+00 0.00000E+00
 -1      2430 6.92850E+01 5.30525E+00 0.00000E+00
 -1      2431 6.85350E+01 6.60425E+00 0.00000E+00
 -1      2432 7.37850E+01 5.30525E+00 0.00000E+00
 -1      2433 7.22850E+01 5.30525E+00 0.00000E+00
 -1      2434 7.15350E+01 6.60425E+00 0.00000E+00
 -1      2435 7.67850E+01 5.30525E+00 0.00000E+00
 -1      2436 7.52850E+01 5.30525E+00 0.00000E+00
 -1      2437 7.45350E+01 6.60425E+00 0.00000E+00
 -1      2438 7.97850E+01 5.30525E+00 0.00000E+00
 -1      2439 7.82850E+01 5.30525E+00 0.00000E+00
 -1      2440 7.75350E+01 6.60425E+00 0.00000E+00
 -1      2441 8.27850E+01 5.30525E+00 0.00000E+00
 -1      2442 8.12850E+01 5.30525E+00 0.00000E+00
 -1      2443 8.05350E+01 6.60425E+00 0.00000E+00
 -1      2444 8.57850E+01 5.30525E+00 0.00000E+00
 -1      2445 8.42850E+01 5.30525E+00 0.00000E+00
 -1      2446 8.35350E+01 6.60425E+00 0.00000E+00
 -1      2447 8.87850E+01 5.30525E+00 0.00000E+00
 -1      2448 8.72850E+01 5.30525E+00 0.00000E+00
 -1      2449 8.65350E+01 6.60425E+00 0.00000E+00
 -1      2450 9.17850E+01 5.30525E+00 0.00000E+00
 -1      2451 9.02850E+01 5.30525E+00 0.00000E+00
 -1      2452 8.95350E+01 6.60425E+00 0.00000E+00
 -1      2453 9.47850E+01 5.30525E+00 0.00000E+00
 -1      2454 9.32850E+01 5.30525E+00 0.00000E+00
 -1      2455 9.25350E+01 6.60425E+00 0.00000E+00
 -1      2456 9.77850E+01 5.30525E+00 0.00000E+00
 -1      2457 9.62850E+01 5.30525E+00 0.00000E+00
 -1      2458 9.55350E+01 6.60425E+00 0.00000E+00
 -1      2459 1.00785E+02 5.30525E+00 0.00000E+00
 -1      2460 9.92850E+01 5.30525E+00 0.00000E+00
 -1      2461 9.85350E+01 6.60425E+00 0.00000E+00
 -1      2462 1.03785E+02 5.30525E+00 0.00000E+00
 -1      2463 1.02285E+02 5.30525E+00 0.00000E+00
 -1      2464 1.01535E+02 6.60425E+00 0.00000E+00
 -1      2465 1.06785E+02 5.30525E+00 0.00000E+00
 -1      2466 1.05285E+02 5.30525E+00 0.00000E+00
 -1      2467 1.04535E+02 6.60425E+00 0.00000E+00
 -1      2468 1.09785E+02 5.30525E+00 0.00000E+00
 -1      2469 1.08285E+02 5.30525E+00 0.00000E+00
 -1      2470 1.07535E+02 6.60425E+00 0.00000E+00
 -1      2471 1.12785E+02 5.30525E+00 0.00000E+00
 -1      2472 1.11285E+02 5.30525E+00 0.00000E+00
 -1      2473 1.10535E+02 6.60425E+00 0.00000E+00
 -1      2474 1.15785E+02 5.30525E+00 0.00000E+00
 -1      2475 1.14285E+02 5.30525E+00 0.00000E+00
 -1      2476 1.13535E+02 6.60425E+00 0.00000E+00
 -1      2477 1.18785E+02 5.30525E+00 0.00000E+00
 -1      2478 1.17285E+02 5.30525E+00 0.00000E+00
 -1      2479 1.16535E+02 6.60425E+00 0.00000E+00
 -1      2480 1.21785E+02 5.30525E+00 0.00000E+00
 -1      2481 1.20285E+02 5.30525E+00 0.00000E+00
 -1      2482 1.19535E+02 6.60425E+00 0.00000E+00
 -1      2483 1.24785E+02 5.30525E+00 0.00000E+00
 -1      2484 1.23285E+02 5.30525E+00 0.00000E+00
 -1      2485 1.22535E+02 6.60425E+00 0.00000E+00
 -1      2486 1.27785E+02 5.30525E+00 0.00000E+00
 -1      2487 1.26285E+02 5.30525E+00 0.00000E+00
 -1      2488 1.25535E+02 6.60425E+00 0.00000E+00
 -1      2489 1.30785E+02 5.30525E+00 0.00000E+00
 -1      2490 1.29285E+02 5.30525E+00 0.00000E+00
 -1      2491 1.28535E+02 6.60425E+00 0.00000E+00
 -1      2492 1.33785E+02 5.30525E+00 0.00000E+00
 -1      2493 1.32285E+02 5.30525E+00 0.00000E+00
 -1      2494 1.31535E+02 6.60425E+00 0.00000E+00
 -1      2495 1.36785E+02 5.30525E+00 0.00000E+00
 -1      2496 1.35285E+02 5.30525E+00 0.00000E+00
 -1      2497 1.34535E+02 6.60425E+00 0.00000E+00
 -1      2498 1.39785E+02 5.30525E+00 0.00000E+00
 -1      2499 1.38285E+02 5.30525E+00 0.00000E+00
 -1      2500 1.37535E+02 6.60425E+00 0.00000E+00
 -1      2501 1.42785E+02 5.30525E+00 0.00000E+00
 -1      2502 1.41285E+02 5.30525E+00 0.00000E+00
 -1      2503 1.40535E+02 6.60425E+00 0.00000E+00
 -1      2504 1.44336E+02 5.26953E+00 0.00000E+00
 -1      2505 1.43505E+02 1.69125E+01 0.00000E+00
 -1      2506 1.43505E+02 1.54375E+01 0.00000E+00
 -1      2507 1.43505E+02 1.98625E+01 0.00000E+00
 -1      2508 1.43505E+02 1.83875E+01 0.00000E+00
 -1      2509 1.42206E+02 1.76500E+01 0.00000E+00
 -1      2510 1.43505E+02 1.10625E+01 0.00000E+00
 -1      2511 1.43505E+02 9.58750E+00 0.00000E+00
 -1      2512 1.43505E+02 1.39750E+01 0.00000E+00
 -1      2513 1.43505E+02 1.25250E+01 0.00000E+00
 -1      2514 1.42206E+02 1.17875E+01 0.00000E+00
 -1      2515 1.42206E+02 1.47125E+01 0.00000E+00
 -1      2516 1.43505E+02 2.28125E+01 0.00000E+00
 -1      2517 1.43505E+02 2.13375E+01 0.00000E+00
 -1      2518 1.42206E+02 2.06000E+01 0.00000E+00
 -1      2519 1.43505E+02 2.57625E+01 0.00000E+00
 -1      2520 1.43505E+02 2.42875E+01 0.00000E+00
 -1      2521 1.42206E+02 2.35500E+01 0.00000E+00
 -1      2522 1.43505E+02 2.87125E+01 0.00000E+00
 -1      2523 1.43505E+02 2.72375E+01 0.00000E+00
 -1      2524 1.42206E+02 2.65000E+01 0.00000E+00
 -1      2525 1.43505E+02 3.16125E+01 0.00000E+00
 -1      2526 1.43505E+02 3.01625E+01 0.00000E+00
 -1      2527 1.42206E+02 2.94250E+01 0.00000E+00
 -1      2528 1.43505E+02 3.45625E+01 0.00000E+00
 -1      2529 1.43505E+02 3.30875E+01 0.00000E+00
 -1      2530 1.42206E+02 3.23500E+01 0.00000E+00
 -1      2531 1.43505E+02 3.75125E+01 0.00000E+00
 -1      2532 1.43505E+02 3.60375E+01 0.00000E+00
 -1      2533 1.42206E+02 3.53000E+01 0.00000E+00
 -1      2534 1.43505E+02 4.04625E+01 0.00000E+00
 -1      2535 1.43505E+02 3.89875E+01 0.00000E+00
 -1      2536 1.42206E+02 3.82500E+01 0.00000E+00
 -1      2537 1.44321E+02 4.30606E+01 0.00000E+00
 -1      2538 9.14723E+01 1.47787E+01 0.00000E+00
 -1      2539 9.21720E+01 1.54334E+01 0.00000E+00
 -1      2540 1.67850E+01 5.30525E+00 0.00000E+00
 -1      2541 1.52850E+01 5.30525E+00 0.00000E+00
 -1      2542 1.75350E+01 6.60425E+00 0.00000E+00
 -1      2543 9.29771E+01 1.63328E+01 0.00000E+00
 -1      2544 9.35714E+01 1.72318E+01 0.00000E+00
 -1      2545 9.44136E+01 2.49350E+01 0.00000E+00
 -1      2546 9.41692E+01 2.60039E+01 0.00000E+00
 -1      2547 9.48118E+01 2.31706E+01 0.00000E+00
 -1      2548 9.46127E+01 2.40528E+01 0.00000E+00
 -1      2549 9.52857E+01 2.47690E+01 0.00000E+00
 -1      2550 7.78448E+01 3.03019E+01 0.00000E+00
 -1      2551 7.69832E+01 2.97158E+01 0.00000E+00
 -1      2552 7.38398E+01 2.24830E+01 0.00000E+00
 -1      2553 7.39600E+01 2.12853E+01 0.00000E+00
 -1      2554 8.35279E+01 1.14810E+01 0.00000E+00
 -1      2555 8.46242E+01 1.14894E+01 0.00000E+00
 -1      2556 6.49500E+00 2.71625E+01 0.00000E+00
 -1      2557 6.49500E+00 2.86375E+01 0.00000E+00
 -1      2558 7.79400E+00 2.93750E+01 0.00000E+00
 -1      2559 7.79400E+00 2.64250E+01 0.00000E+00
 -1      2560 8.09374E+01 1.19865E+01 0.00000E+00
 -1      2561 8.21717E+01 1.17158E+01 0.00000E+00
 -1      2562 8.57225E+01 1.18262E+01 0.00000E+00
 -1      2563 8.66167E+01 1.19709E+01 0.00000E+00
 -1      2564 7.58652E+01 1.61025E+01 0.00000E+00
 -1      2565 7.64220E+01 1.52807E+01 0.00000E+00
 -1      2566 7.89210E+01 1.29474E+01 0.00000E+00
 -1      2567 7.96070E+01 1.24481E+01 0.00000E+00
 -1      2568 7.60796E+01 2.87624E+01 0.00000E+00
 -1      2569 7.55155E+01 2.79384E+01 0.00000E+00
 -1      2570 7.72688E+01 1.43871E+01 0.00000E+00
 -1      2571 7.80949E+01 1.36672E+01 0.00000E+00
 -1      2572 7.78840E+01 1.26565E+01 0.00000E+00
 -1      2573 7.47978E+01 1.78479E+01 0.00000E+00
 -1      2574 7.53315E+01 1.69752E+01 0.00000E+00
 -1      2575 7.48306E+01 1.60363E+01 0.00000E+00
 -1      2576 7.39774E+01 2.00612E+01 0.00000E+00
 -1      2577 7.41900E+01 1.90685E+01 0.00000E+00
 -1      2578 7.42308E+01 2.46065E+01 0.00000E+00
 -1      2579 7.40487E+01 2.37420E+01 0.00000E+00
 -1      2580 8.41915E+01 3.24954E+01 0.00000E+00
 -1      2581 8.31914E+01 3.25601E+01 0.00000E+00
 -1      2582 7.49656E+01 2.68226E+01 0.00000E+00
 -1      2583 7.45108E+01 2.57381E+01 0.00000E+00
 -1      2584 7.94376E+01 3.13569E+01 0.00000E+00
 -1      2585 7.86412E+01 3.08294E+01 0.00000E+00
 -1      2586 7.77281E+01 3.12454E+01 0.00000E+00
 -1      2587 8.64009E+01 3.25462E+01 0.00000E+00
 -1      2588 8.52962E+01 3.25208E+01 0.00000E+00
 -1      2589 8.48434E+01 3.32835E+01 0.00000E+00
 -1      2590 8.86220E+01 3.17901E+01 0.00000E+00
 -1      2591 8.77186E+01 3.22868E+01 0.00000E+00
 -1      2592 9.02934E+01 3.06093E+01 0.00000E+00
 -1      2593 8.94577E+01 3.11997E+01 0.00000E+00
 -1      2594 8.94191E+01 3.21995E+01 0.00000E+00
 -1      2595 9.20299E+01 2.93673E+01 0.00000E+00
 -1      2596 9.12509E+01 2.99786E+01 0.00000E+00
 -1      2597 9.36236E+01 2.73418E+01 0.00000E+00
 -1      2598 9.29427E+01 2.83571E+01 0.00000E+00
 -1      2599 6.55950E+00 4.28890E+01 0.00000E+00
 -1      2600 8.53650E+00 4.32410E+01 0.00000E+00
 -1      2601 9.28650E+00 4.19420E+01 0.00000E+00
 -1      2602 6.55950E+00 4.14140E+01 0.00000E+00
 -1      2603 8.07525E+00 5.11044E+00 0.00000E+00
 -1      2604 6.57525E+00 5.11044E+00 0.00000E+00
 -1      2605 6.40575E+00 6.01981E+00 0.00000E+00
 -1      2606 8.82525E+00 6.40944E+00 0.00000E+00
 -1      2607 9.00519E+01 1.36352E+01 0.00000E+00
 -1      2608 9.07621E+01 1.42069E+01 0.00000E+00
 -1      2609 9.16692E+01 1.39386E+01 0.00000E+00
 -1      2610 8.27270E+01 1.07787E+01 0.00000E+00
 -1      2611 7.79400E+00 3.52687E+01 0.00000E+00
 -1      2612 6.49500E+00 3.60062E+01 0.00000E+00
 -1      2613 6.49500E+00 3.74750E+01 0.00000E+00
 -1      2614 1.45350E+01 6.60425E+00 0.00000E+00
 -1      2615 6.40575E+00 7.49481E+00 0.00000E+00
 -1      2616 8.98906E+01 1.26221E+01 0.00000E+00
 -1      2617 6.55950E+00 3.99453E+01 0.00000E+00
 -1      2618 9.45410E+01 2.69892E+01 0.00000E+00
 -1      2619 9.49127E+01 2.79745E+01 0.00000E+00
 -1      2620 9.54583E+01 2.66365E+01 0.00000E+00
 -1      2621 9.12123E+01 3.09784E+01 0.00000E+00
 -1      2622 9.53224E+01 1.96404E+01 0.00000E+00
 -1      2623 9.31845E+01 1.54099E+01 0.00000E+00
 -1      2624 9.46964E+01 1.72585E+01 0.00000E+00
 -1      2625 1.43586E+02 6.56853E+00 0.00000E+00
 -1      2626 7.60281E+01 2.97645E+01 0.00000E+00
 -1      2627 1.43419E+02 7.72713E+00 0.00000E+00
 -1      2628 7.98700E+01 3.21202E+01 0.00000E+00
 -1      2629 7.89569E+01 3.25362E+01 0.00000E+00
 -1      2630 8.03024E+01 3.28834E+01 0.00000E+00
 -1      2631 1.42758E+02 4.35929E+01 0.00000E+00
 -1      2632 1.43241E+02 4.17323E+01 0.00000E+00
 -1      2633 1.41942E+02 4.09948E+01 0.00000E+00
 -1      2634 1.41414E+02 4.35342E+01 0.00000E+00
 -1      2635 7.45746E+01 2.76954E+01 0.00000E+00
 -1      2636 8.81306E+01 3.35526E+01 0.00000E+00
 -1      2637 8.72658E+01 3.30494E+01 0.00000E+00
 -1      2638 8.68130E+01 3.38121E+01 0.00000E+00
 -1      2639 7.70475E+00 8.23231E+00 0.00000E+00
 -1      2640 9.59147E+01 2.17892E+01 0.00000E+00
 -1      2641 9.53632E+01 2.24799E+01 0.00000E+00
 -1      2642 9.60362E+01 2.31961E+01 0.00000E+00
 -1      2643 7.37446E+01 2.54480E+01 0.00000E+00
 -1      2644 7.62111E+01 1.42699E+01 0.00000E+00
 -1      2645 1.42120E+02 8.46463E+00 0.00000E+00
 -1      2646 7.36891E+01 1.81296E+01 0.00000E+00
 -1      2647 8.24771E+01 3.28628E+01 0.00000E+00
 -1      2648 8.17627E+01 3.31655E+01 0.00000E+00
 -1      2649 8.30243E+01 3.35608E+01 0.00000E+00
 -1      2650 7.30640E+01 2.05743E+01 0.00000E+00
 -1      2651 7.32556E+01 2.30574E+01 0.00000E+00
 -1      2652 8.51816E+01 1.08806E+01 0.00000E+00
 -1      2653 8.75510E+01 1.15474E+01 0.00000E+00
 -1      2654 8.00404E+01 1.14751E+01 0.00000E+00
 -1      2655 9.30826E+01 2.93374E+01 0.00000E+00
 -1      2656 1.40664E+02 4.22352E+01 0.00000E+00
 -1      2657 9.09300E+00 1.98250E+01 0.00000E+00
 -1      2658 9.09300E+00 2.12750E+01 0.00000E+00
 -1      2659 9.09300E+00 2.27500E+01 0.00000E+00
 -1      2660 9.09300E+00 2.42250E+01 0.00000E+00
 -1      2661 1.03920E+01 2.20250E+01 0.00000E+00
 -1      2662 9.09300E+00 1.39375E+01 0.00000E+00
 -1      2663 9.09300E+00 1.54125E+01 0.00000E+00
 -1      2664 9.09300E+00 1.09875E+01 0.00000E+00
 -1      2665 9.09300E+00 1.24625E+01 0.00000E+00
 -1      2666 1.03920E+01 1.32000E+01 0.00000E+00
 -1      2667 1.22850E+01 7.90325E+00 0.00000E+00
 -1      2668 1.07850E+01 7.90325E+00 0.00000E+00
 -1      2669 1.52850E+01 7.90325E+00 0.00000E+00
 -1      2670 1.37850E+01 7.90325E+00 0.00000E+00
 -1      2671 1.30350E+01 9.20225E+00 0.00000E+00
 -1      2672 8.91450E+00 8.42712E+00 0.00000E+00
 -1      2673 7.85850E+00 3.92077E+01 0.00000E+00
 -1      2674 1.44000E+01 4.09070E+01 0.00000E+00
 -1      2675 1.59000E+01 4.09070E+01 0.00000E+00
 -1      2676 1.74000E+01 4.09070E+01 0.00000E+00
 -1      2677 1.89000E+01 4.09070E+01 0.00000E+00
 -1      2678 1.66500E+01 3.96080E+01 0.00000E+00
 -1      2679 2.04000E+01 4.09070E+01 0.00000E+00
 -1      2680 2.19000E+01 4.09070E+01 0.00000E+00
 -1      2681 1.96500E+01 3.96080E+01 0.00000E+00
 -1      2682 2.34000E+01 4.09070E+01 0.00000E+00
 -1      2683 2.49000E+01 4.09070E+01 0.00000E+00
 -1      2684 2.26500E+01 3.96080E+01 0.00000E+00
 -1      2685 2.64000E+01 4.09070E+01 0.00000E+00
 -1      2686 2.79000E+01 4.09070E+01 0.00000E+00
 -1      2687 2.56500E+01 3.96080E+01 0.00000E+00
 -1      2688 2.94000E+01 4.09070E+01 0.00000E+00
 -1      2689 3.09000E+01 4.09070E+01 0.00000E+00
 -1      2690 2.86500E+01 3.96080E+01 0.00000E+00
 -1      2691 3.24000E+01 4.09070E+01 0.00000E+00
 -1      2692 3.39000E+01 4.09070E+01 0.00000E+00
 -1      2693 3.16500E+01 3.96080E+01 0.00000E+00
 -1      2694 3.54000E+01 4.09070E+01 0.00000E+00
 -1      2695 3.69000E+01 4.09070E+01 0.00000E+00
 -1      2696 3.46500E+01 3.96080E+01 0.00000E+00
 -1      2697 3.84000E+01 4.09070E+01 0.00000E+00
 -1      2698 3.99000E+01 4.09070E+01 0.00000E+00
 -1      2699 3.76500E+01 3.96080E+01 0.00000E+00
 -1      2700 4.14000E+01 4.09070E+01 0.00000E+00
 -1      2701 4.29000E+01 4.09070E+01 0.00000E+00
 -1      2702 4.06500E+01 3.96080E+01 0.00000E+00
 -1      2703 4.44000E+01 4.09070E+01 0.00000E+00
 -1      2704 4.59000E+01 4.09070E+01 0.00000E+00
 -1      2705 4.36500E+01 3.96080E+01 0.00000E+00
 -1      2706 4.74000E+01 4.09070E+01 0.00000E+00
 -1      2707 4.89000E+01 4.09070E+01 0.00000E+00
 -1      2708 4.66500E+01 3.96080E+01 0.00000E+00
 -1      2709 5.04000E+01 4.09070E+01 0.00000E+00
 -1      2710 5.19000E+01 4.09070E+01 0.00000E+00
 -1      2711 4.96500E+01 3.96080E+01 0.00000E+00
 -1      2712 5.34000E+01 4.09070E+01 0.00000E+00
 -1      2713 5.49000E+01 4.09070E+01 0.00000E+00
 -1      2714 5.26500E+01 3.96080E+01 0.00000E+00
 -1      2715 5.64000E+01 4.09070E+01 0.00000E+00
 -1      2716 5.79000E+01 4.09070E+01 0.00000E+00
 -1      2717 5.56500E+01 3.96080E+01 0.00000E+00
 -1      2718 5.94000E+01 4.09070E+01 0.00000E+00
 -1      2719 6.09000E+01 4.09070E+01 0.00000E+00
 -1      2720 5.86500E+01 3.96080E+01 0.00000E+00
 -1      2721 6.24000E+01 4.09070E+01 0.00000E+00
 -1      2722 6.39000E+01 4.09070E+01 0.00000E+00
 -1      2723 6.16500E+01 3.96080E+01 0.00000E+00
 -1      2724 6.54000E+01 4.09070E+01 0.00000E+00
 -1      2725 6.69000E+01 4.09070E+01 0.00000E+00
 -1      2726 6.46500E+01 3.96080E+01 0.00000E+00
 -1      2727 6.84000E+01 4.09070E+01 0.00000E+00
 -1      2728 6.99000E+01 4.09070E+01 0.00000E+00
 -1      2729 6.76500E+01 3.96080E+01 0.00000E+00
 -1      2730 7.14000E+01 4.09070E+01 0.00000E+00
 -1      2731 7.29000E+01 4.09070E+01 0.00000E+00
 -1      2732 7.06500E+01 3.96080E+01 0.00000E+00
 -1      2733 7.44000E+01 4.09070E+01 0.00000E+00
 -1      2734 7.59000E+01 4.09070E+01 0.00000E+00
 -1      2735 7.36500E+01 3.96080E+01 0.00000E+00
 -1      2736 7.74000E+01 4.09070E+01 0.00000E+00
 -1      2737 7.89000E+01 4.09070E+01 0.00000E+00
 -1      2738 7.66500E+01 3.96080E+01 0.00000E+00
 -1      2739 8.04000E+01 4.09070E+01 0.00000E+00
 -1      2740 8.19000E+01 4.09070E+01 0.00000E+00
 -1      2741 7.96500E+01 3.96080E+01 0.00000E+00
 -1      2742 8.34000E+01 4.09070E+01 0.00000E+00
 -1      2743 8.49000E+01 4.09070E+01 0.00000E+00
 -1      2744 8.26500E+01 3.96080E+01 0.00000E+00
 -1      2745 8.64000E+01 4.09070E+01 0.00000E+00
 -1      2746 8.79000E+01 4.09070E+01 0.00000E+00
 -1      2747 8.56500E+01 3.96080E+01 0.00000E+00
 -1      2748 8.94000E+01 4.09070E+01 0.00000E+00
 -1      2749 9.09000E+01 4.09070E+01 0.00000E+00
 -1      2750 8.86500E+01 3.96080E+01 0.00000E+00
 -1      2751 9.24000E+01 4.09070E+01 0.00000E+00
 -1      2752 9.39000E+01 4.09070E+01 0.00000E+00
 -1      2753 9.16500E+01 3.96080E+01 0.00000E+00
 -1      2754 9.54000E+01 4.09070E+01 0.00000E+00
 -1      2755 9.69000E+01 4.09070E+01 0.00000E+00
 -1      2756 9.46500E+01 3.96080E+01 0.00000E+00
 -1      2757 9.84000E+01 4.09070E+01 0.00000E+00
 -1      2758 9.99000E+01 4.09070E+01 0.00000E+00
 -1      2759 9.76500E+01 3.96080E+01 0.00000E+00
 -1      2760 1.01400E+02 4.09070E+01 0.00000E+00
 -1      2761 1.02900E+02 4.09070E+01 0.00000E+00
 -1      2762 1.00650E+02 3.96080E+01 0.00000E+00
 -1      2763 1.04400E+02 4.09070E+01 0.00000E+00
 -1      2764 1.05900E+02 4.09070E+01 0.00000E+00
 -1      2765 1.03650E+02 3.96080E+01 0.00000E+00
 -1      2766 1.07400E+02 4.09070E+01 0.00000E+00
 -1      2767 1.08900E+02 4.09070E+01 0.00000E+00
 -1      2768 1.06650E+02 3.96080E+01 0.00000E+00
 -1      2769 1.10400E+02 4.09070E+01 0.00000E+00
 -1      2770 1.11900E+02 4.09070E+01 0.00000E+00
 -1      2771 1.09650E+02 3.96080E+01 0.00000E+00
 -1      2772 1.13400E+02 4.09070E+01 0.00000E+00
 -1      2773 1.14900E+02 4.09070E+01 0.00000E+00
 -1      2774 1.12650E+02 3.96080E+01 0.00000E+00
 -1      2775 1.16400E+02 4.09070E+01 0.00000E+00
 -1      2776 1.17900E+02 4.09070E+01 0.00000E+00
 -1      2777 1.15650E+02 3.96080E+01 0.00000E+00
 -1      2778 1.19400E+02 4.09070E+01 0.00000E+00
 -1      2779 1.20900E+02 4.09070E+01 0.00000E+00
 -1      2780 1.18650E+02 3.96080E+01 0.00000E+00
 -1      2781 1.22400E+02 4.09070E+01 0.00000E+00
 -1      2782 1.23900E+02 4.09070E+01 0.00000E+00
 -1      2783 1.21650E+02 3.96080E+01 0.00000E+00
 -1      2784 1.25400E+02 4.09070E+01 0.00000E+00
 -1      2785 1.26900E+02 4.09070E+01 0.00000E+00
 -1      2786 1.24650E+02 3.96080E+01 0.00000E+00
 -1      2787 1.28400E+02 4.09070E+01 0.00000E+00
 -1      2788 1.29900E+02 4.09070E+01 0.00000E+00
 -1      2789 1.27650E+02 3.96080E+01 0.00000E+00
 -1      2790 1.31400E+02 4.09070E+01 0.00000E+00
 -1      2791 1.32900E+02 4.09070E+01 0.00000E+00
 -1      2792 1.30650E+02 3.96080E+01 0.00000E+00
 -1      2793 1.34400E+02 4.09070E+01 0.00000E+00
 -1      2794 1.35900E+02 4.09070E+01 0.00000E+00
 -1      2795 1.33650E+02 3.96080E+01 0.00000E+00
 -1      2796 1.37400E+02 4.09070E+01 0.00000E+00
 -1      2797 1.38900E+02 4.09070E+01 0.00000E+00
 -1      2798 1.36650E+02 3.96080E+01 0.00000E+00
 -1      2799 7.40803E+01 2.86324E+01 0.00000E+00
 -1      2800 7.35304E+01 2.75166E+01 0.00000E+00
 -1      2801 2.12850E+01 7.90325E+00 0.00000E+00
 -1      2802 1.97850E+01 7.90325E+00 0.00000E+00
 -1      2803 3.02850E+01 7.90325E+00 0.00000E+00
 -1      2804 2.87850E+01 7.90325E+00 0.00000E+00
 -1      2805 3.32850E+01 7.90325E+00 0.00000E+00
 -1      2806 3.17850E+01 7.90325E+00 0.00000E+00
 -1      2807 3.10350E+01 9.20225E+00 0.00000E+00
 -1      2808 3.62850E+01 7.90325E+00 0.00000E+00
 -1      2809 3.47850E+01 7.90325E+00 0.00000E+00
 -1      2810 3.40350E+01 9.20225E+00 0.00000E+00
 -1      2811 3.92850E+01 7.90325E+00 0.00000E+00
 -1      2812 3.77850E+01 7.90325E+00 0.00000E+00
 -1      2813 3.70350E+01 9.20225E+00 0.00000E+00
 -1      2814 4.22850E+01 7.90325E+00 0.00000E+00
 -1      2815 4.07850E+01 7.90325E+00 0.00000E+00
 -1      2816 4.00350E+01 9.20225E+00 0.00000E+00
 -1      2817 4.52850E+01 7.90325E+00 0.00000E+00
 -1      2818 4.37850E+01 7.90325E+00 0.00000E+00
 -1      2819 4.30350E+01 9.20225E+00 0.00000E+00
 -1      2820 4.82850E+01 7.90325E+00 0.00000E+00
 -1      2821 4.67850E+01 7.90325E+00 0.00000E+00
 -1      2822 4.60350E+01 9.20225E+00 0.00000E+00
 -1      2823 5.12850E+01 7.90325E+00 0.00000E+00
 -1      2824 4.97850E+01 7.90325E+00 0.00000E+00
 -1      2825 4.90350E+01 9.20225E+00 0.00000E+00
 -1      2826 5.42850E+01 7.90325E+00 0.00000E+00
 -1      2827 5.27850E+01 7.90325E+00 0.00000E+00
 -1      2828 5.20350E+01 9.20225E+00 0.00000E+00
 -1      2829 5.72850E+01 7.90325E+00 0.00000E+00
 -1      2830 5.57850E+01 7.90325E+00 0.00000E+00
 -1      2831 5.50350E+01 9.20225E+00 0.00000E+00
 -1      2832 6.02850E+01 7.90325E+00 0.00000E+00
 -1      2833 5.87850E+01 7.90325E+00 0.00000E+00
 -1      2834 5.80350E+01 9.20225E+00 0.00000E+00
 -1      2835 6.32850E+01 7.90325E+00 0.00000E+00
 -1      2836 6.17850E+01 7.90325E+00 0.00000E+00
 -1      2837 6.10350E+01 9.20225E+00 0.00000E+00
 -1      2838 6.62850E+01 7.90325E+00 0.00000E+00
 -1      2839 6.47850E+01 7.90325E+00 0.00000E+00
 -1      2840 6.40350E+01 9.20225E+00 0.00000E+00
 -1      2841 6.92850E+01 7.90325E+00 0.00000E+00
 -1      2842 6.77850E+01 7.90325E+00 0.00000E+00
 -1      2843 6.70350E+01 9.20225E+00 0.00000E+00
 -1      2844 7.22850E+01 7.90325E+00 0.00000E+00
 -1      2845 7.07850E+01 7.90325E+00 0.00000E+00
 -1      2846 7.00350E+01 9.20225E+00 0.00000E+00
 -1      2847 7.52850E+01 7.90325E+00 0.00000E+00
 -1      2848 7.37850E+01 7.90325E+00 0.00000E+00
 -1      2849 7.30350E+01 9.20225E+00 0.00000E+00
 -1      2850 7.82850E+01 7.90325E+00 0.00000E+00
 -1      2851 7.67850E+01 7.90325E+00 0.00000E+00
 -1      2852 7.60350E+01 9.20225E+00 0.00000E+00
 -1      2853 8.17029E+01 8.80889E+00 0.00000E+00
 -1      2854 8.02029E+01 8.80889E+00 0.00000E+00
 -1      2855 8.45591E+01 8.57406E+00 0.00000E+00
 -1      2856 8.30591E+01 8.57406E+00 0.00000E+00
 -1      2857 9.02850E+01 7.88073E+00 0.00000E+00
 -1      2858 8.87850E+01 7.88073E+00 0.00000E+00
 -1      2859 9.32850E+01 7.88073E+00 0.00000E+00
 -1      2860 9.17850E+01 7.88073E+00 0.00000E+00
 -1      2861 9.10350E+01 9.15721E+00 0.00000E+00
 -1      2862 9.62850E+01 7.88073E+00 0.00000E+00
 -1      2863 9.47850E+01 7.88073E+00 0.00000E+00
 -1      2864 9.40350E+01 9.15721E+00 0.00000E+00
 -1      2865 9.92850E+01 7.88073E+00 0.00000E+00
 -1      2866 9.77850E+01 7.88073E+00 0.00000E+00
 -1      2867 9.70350E+01 9.15721E+00 0.00000E+00
 -1      2868 1.02285E+02 7.88073E+00 0.00000E+00
 -1      2869 1.00785E+02 7.88073E+00 0.00000E+00
 -1      2870 1.00035E+02 9.15721E+00 0.00000E+00
 -1      2871 1.05285E+02 7.88073E+00 0.00000E+00
 -1      2872 1.03785E+02 7.88073E+00 0.00000E+00
 -1      2873 1.03035E+02 9.15721E+00 0.00000E+00
 -1      2874 1.08285E+02 7.88073E+00 0.00000E+00
 -1      2875 1.06785E+02 7.88073E+00 0.00000E+00
 -1      2876 1.06035E+02 9.15721E+00 0.00000E+00
 -1      2877 1.11285E+02 7.88073E+00 0.00000E+00
 -1      2878 1.09785E+02 7.88073E+00 0.00000E+00
 -1      2879 1.09035E+02 9.15721E+00 0.00000E+00
 -1      2880 1.14285E+02 7.88073E+00 0.00000E+00
 -1      2881 1.12785E+02 7.88073E+00 0.00000E+00
 -1      2882 1.12035E+02 9.15721E+00 0.00000E+00
 -1      2883 1.17285E+02 7.88073E+00 0.00000E+00
 -1      2884 1.15785E+02 7.88073E+00 0.00000E+00
 -1      2885 1.15035E+02 9.15721E+00 0.00000E+00
 -1      2886 1.20285E+02 7.88073E+00 0.00000E+00
 -1      2887 1.18785E+02 7.88073E+00 0.00000E+00
 -1      2888 1.18035E+02 9.15721E+00 0.00000E+00
 -1      2889 1.23285E+02 7.88073E+00 0.00000E+00
 -1      2890 1.21785E+02 7.88073E+00 0.00000E+00
 -1      2891 1.21035E+02 9.15721E+00 0.00000E+00
 -1      2892 1.26285E+02 7.88073E+00 0.00000E+00
 -1      2893 1.24785E+02 7.88073E+00 0.00000E+00
 -1      2894 1.24035E+02 9.15721E+00 0.00000E+00
 -1      2895 1.29285E+02 7.88073E+00 0.00000E+00
 -1      2896 1.27785E+02 7.88073E+00 0.00000E+00
 -1      2897 1.27035E+02 9.15721E+00 0.00000E+00
 -1      2898 1.32285E+02 7.88073E+00 0.00000E+00
 -1      2899 1.30785E+02 7.88073E+00 0.00000E+00
 -1      2900 1.30035E+02 9.15721E+00 0.00000E+00
 -1      2901 1.35285E+02 7.88073E+00 0.00000E+00
 -1      2902 1.33785E+02 7.88073E+00 0.00000E+00
 -1      2903 1.33035E+02 9.15721E+00 0.00000E+00
 -1      2904 1.38285E+02 7.88073E+00 0.00000E+00
 -1      2905 1.36785E+02 7.88073E+00 0.00000E+00
 -1      2906 1.36035E+02 9.15721E+00 0.00000E+00
 -1      2907 1.40953E+02 8.17268E+00 0.00000E+00
 -1      2908 1.39453E+02 8.17268E+00 0.00000E+00
 -1      2909 1.38703E+02 9.44916E+00 0.00000E+00
 -1      2910 1.41038E+02 1.00331E+01 0.00000E+00
 -1      2911 7.58575E+01 3.08311E+01 0.00000E+00
 -1      2912 7.49539E+01 2.98778E+01 0.00000E+00
 -1      2913 1.40907E+02 2.42875E+01 0.00000E+00
 -1      2914 1.40907E+02 2.28125E+01 0.00000E+00
 -1      2915 7.26550E+01 1.83763E+01 0.00000E+00
 -1      2916 7.32629E+01 1.71557E+01 0.00000E+00
 -1      2917 1.40907E+02 1.83875E+01 0.00000E+00
 -1      2918 1.40907E+02 1.69125E+01 0.00000E+00
 -1      2919 1.40907E+02 2.72375E+01 0.00000E+00
 -1      2920 1.40907E+02 2.57625E+01 0.00000E+00
 -1      2921 1.39608E+02 2.50250E+01 0.00000E+00
 -1      2922 1.40907E+02 2.13375E+01 0.00000E+00
 -1      2923 1.40907E+02 1.98625E+01 0.00000E+00
 -1      2924 1.39608E+02 1.91250E+01 0.00000E+00
 -1      2925 1.39608E+02 2.20750E+01 0.00000E+00
 -1      2926 1.40907E+02 3.01375E+01 0.00000E+00
 -1      2927 1.40907E+02 2.86875E+01 0.00000E+00
 -1      2928 1.39608E+02 2.79500E+01 0.00000E+00
 -1      2929 1.40907E+02 3.30875E+01 0.00000E+00
 -1      2930 1.40907E+02 3.16125E+01 0.00000E+00
 -1      2931 1.39608E+02 3.08750E+01 0.00000E+00
 -1      2932 1.40907E+02 3.60375E+01 0.00000E+00
 -1      2933 1.40907E+02 3.45625E+01 0.00000E+00
 -1      2934 1.39608E+02 3.38250E+01 0.00000E+00
 -1      2935 1.82850E+01 7.90325E+00 0.00000E+00
 -1      2936 1.67850E+01 7.90325E+00 0.00000E+00
 -1      2937 1.60350E+01 9.20225E+00 0.00000E+00
 -1      2938 1.90350E+01 9.20225E+00 0.00000E+00
 -1      2939 9.50980E+01 1.62218E+01 0.00000E+00
 -1      2940 9.58047E+01 1.71709E+01 0.00000E+00
 -1      2941 9.22089E+01 3.14491E+01 0.00000E+00
 -1      2942 9.12514E+01 3.20798E+01 0.00000E+00
 -1      2943 9.63035E+01 2.45351E+01 0.00000E+00
 -1      2944 9.61043E+01 2.54173E+01 0.00000E+00
 -1      2945 8.53722E+01 3.43211E+01 0.00000E+00
 -1      2946 8.42674E+01 3.42957E+01 0.00000E+00
 -1      2947 7.36892E+01 1.59378E+01 0.00000E+00
 -1      2948 7.42229E+01 1.50651E+01 0.00000E+00
 -1      2949 8.60962E+01 7.75754E+00 0.00000E+00
 -1      2950 8.56203E+01 9.72735E+00 0.00000E+00
 -1      2951 8.67186E+01 1.00641E+01 0.00000E+00
 -1      2952 8.75962E+01 7.75754E+00 0.00000E+00
 -1      2953 7.30522E+01 2.62198E+01 0.00000E+00
 -1      2954 7.27722E+01 2.50882E+01 0.00000E+00
 -1      2955 2.72850E+01 7.90325E+00 0.00000E+00
 -1      2956 2.57850E+01 7.90325E+00 0.00000E+00
 -1      2957 2.80350E+01 9.20225E+00 0.00000E+00
 -1      2958 2.42850E+01 7.90325E+00 0.00000E+00
 -1      2959 2.27850E+01 7.90325E+00 0.00000E+00
 -1      2960 2.50350E+01 9.20225E+00 0.00000E+00
 -1      2961 1.14000E+01 4.09070E+01 0.00000E+00
 -1      2962 1.29000E+01 4.09070E+01 0.00000E+00
 -1      2963 1.36500E+01 3.96080E+01 0.00000E+00
 -1      2964 8.98947E+01 1.14775E+01 0.00000E+00
 -1      2965 9.09631E+01 1.22223E+01 0.00000E+00
 -1      2966 7.81225E+01 1.05694E+01 0.00000E+00
 -1      2967 7.94529E+01 1.01079E+01 0.00000E+00
 -1      2968 9.09300E+00 1.68813E+01 0.00000E+00
 -1      2969 9.09300E+00 1.83563E+01 0.00000E+00
 -1      2970 1.03920E+01 1.90812E+01 0.00000E+00
 -1      2971 1.03920E+01 1.61437E+01 0.00000E+00
 -1      2972 9.09300E+00 3.15875E+01 0.00000E+00
 -1      2973 9.09300E+00 3.30625E+01 0.00000E+00
 -1      2974 7.24315E+01 2.38411E+01 0.00000E+00
 -1      2975 7.22225E+01 2.25821E+01 0.00000E+00
 -1      2976 7.21141E+01 2.11731E+01 0.00000E+00
 -1      2977 7.21314E+01 1.99489E+01 0.00000E+00
 -1      2978 9.42374E+01 2.94633E+01 0.00000E+00
 -1      2979 9.33246E+01 3.04736E+01 0.00000E+00
 -1      2980 7.49828E+01 1.39540E+01 0.00000E+00
 -1      2981 7.58296E+01 1.30604E+01 0.00000E+00
 -1      2982 7.76064E+01 3.22940E+01 0.00000E+00
 -1      2983 7.68101E+01 3.17664E+01 0.00000E+00
 -1      2984 9.34834E+01 1.43323E+01 0.00000E+00
 -1      2985 9.42885E+01 1.52318E+01 0.00000E+00
 -1      2986 9.18519E+01 1.29848E+01 0.00000E+00
 -1      2987 9.25621E+01 1.35565E+01 0.00000E+00
 -1      2988 1.40928E+02 4.09655E+01 0.00000E+00
 -1      2989 1.41192E+02 3.96958E+01 0.00000E+00
 -1      2990 1.39914E+02 4.09362E+01 0.00000E+00
 -1      2991 9.62189E+01 1.89722E+01 0.00000E+00
 -1      2992 9.61383E+01 2.04049E+01 0.00000E+00
 -1      2993 9.04157E+01 3.26703E+01 0.00000E+00
 -1      2994 8.95800E+01 3.32607E+01 0.00000E+00
 -1      2995 9.14123E+01 3.31410E+01 0.00000E+00
 -1      2996 9.09300E+00 3.45313E+01 0.00000E+00
 -1      2997 9.09300E+00 3.60000E+01 0.00000E+00
 -1      2998 1.03920E+01 3.37938E+01 0.00000E+00
 -1      2999 1.03920E+01 2.49750E+01 0.00000E+00
 -1      3000 9.09300E+00 2.57000E+01 0.00000E+00
 -1      3001 9.09300E+00 2.71750E+01 0.00000E+00
 -1      3002 9.66450E+00 9.72612E+00 0.00000E+00
 -1      3003 9.68549E+01 2.38444E+01 0.00000E+00
 -1      3004 1.39164E+02 3.96372E+01 0.00000E+00
 -1      3005 9.18560E+01 1.18402E+01 0.00000E+00
 -1      3006 9.64761E+01 2.64026E+01 0.00000E+00
 -1      3007 9.36660E+01 1.33785E+01 0.00000E+00
 -1      3008 2.20350E+01 9.20225E+00 0.00000E+00
 -1      3009 7.80388E+01 3.30572E+01 0.00000E+00
 -1      3010 7.38414E+01 1.38555E+01 0.00000E+00
 -1      3011 9.51548E+01 2.91107E+01 0.00000E+00
 -1      3012 9.53968E+01 3.02469E+01 0.00000E+00
 -1      3013 9.60721E+01 2.87580E+01 0.00000E+00
 -1      3014 7.39097E+01 2.96990E+01 0.00000E+00
 -1      3015 7.28656E+01 2.95202E+01 0.00000E+00
 -1      3016 7.37391E+01 3.07656E+01 0.00000E+00
 -1      3017 7.12899E+01 2.19567E+01 0.00000E+00
 -1      3018 9.70223E+01 1.68987E+01 0.00000E+00
 -1      3019 9.66206E+01 1.79355E+01 0.00000E+00
 -1      3020 9.74364E+01 1.87000E+01 0.00000E+00
 -1      3021 8.83462E+01 9.03402E+00 0.00000E+00
 -1      3022 7.17390E+01 2.46129E+01 0.00000E+00
 -1      3023 7.57358E+01 3.18797E+01 0.00000E+00
 -1      3024 1.41038E+02 1.14956E+01 0.00000E+00
 -1      3025 1.39870E+02 1.12036E+01 0.00000E+00
 -1      3026 1.41038E+02 1.29581E+01 0.00000E+00
 -1      3027 7.26552E+01 1.61845E+01 0.00000E+00
 -1      3028 7.72533E+01 1.16130E+01 0.00000E+00
 -1      3029 7.66657E+01 1.02458E+01 0.00000E+00
 -1      3030 7.51657E+01 1.02458E+01 0.00000E+00
 -1      3031 7.64272E+01 1.23328E+01 0.00000E+00
 -1      3032 8.08496E+01 3.35815E+01 0.00000E+00
 -1      3033 7.99365E+01 3.39975E+01 0.00000E+00
 -1      3034 8.13968E+01 3.42795E+01 0.00000E+00
 -1      3035 1.41192E+02 3.82207E+01 0.00000E+00
 -1      3036 9.33637E+01 3.15751E+01 0.00000E+00
 -1      3037 8.91272E+01 3.40233E+01 0.00000E+00
 -1      3038 8.86743E+01 3.47860E+01 0.00000E+00
 -1      3039 9.01237E+01 3.44941E+01 0.00000E+00
 -1      3040 8.62370E+01 3.48242E+01 0.00000E+00
 -1      3041 9.68112E+01 2.11211E+01 0.00000E+00
 -1      3042 8.40819E+01 3.56359E+01 0.00000E+00
 -1      3043 8.35531E+01 3.45984E+01 0.00000E+00
 -1      3044 8.28387E+01 3.49011E+01 0.00000E+00
 -1      3045 7.17051E+01 1.89750E+01 0.00000E+00
 -1      3046 7.12789E+01 1.80011E+01 0.00000E+00
 -1      3047 7.07552E+01 1.95738E+01 0.00000E+00
 -1      3048 1.09635E+01 1.04636E+01 0.00000E+00
 -1      3049 7.25580E+01 2.71568E+01 0.00000E+00
 -1      3050 1.40973E+02 1.56665E+01 0.00000E+00
 -1      3051 1.40973E+02 1.42040E+01 0.00000E+00
 -1      3052 1.39805E+02 1.39121E+01 0.00000E+00
 -1      3053 1.39674E+02 1.64040E+01 0.00000E+00
 -1      3054 9.09300E+00 2.86437E+01 0.00000E+00
 -1      3055 9.09300E+00 3.01187E+01 0.00000E+00
 -1      3056 1.03920E+01 3.08563E+01 0.00000E+00
 -1      3057 1.03920E+01 2.79188E+01 0.00000E+00
 -1      3058 8.71309E+01 1.05524E+01 0.00000E+00
 -1      3059 8.84021E+01 1.08823E+01 0.00000E+00
 -1      3060 9.53969E+01 1.51442E+01 0.00000E+00
 -1      3061 1.39529E+02 3.85602E+01 0.00000E+00
 -1      3062 1.40542E+02 3.71145E+01 0.00000E+00
 -1      3063 1.39243E+02 3.63770E+01 0.00000E+00
 -1      3064 1.38514E+02 3.85310E+01 0.00000E+00
 -1      3065 7.51989E+01 1.20168E+01 0.00000E+00
 -1      3066 9.15750E+00 3.77359E+01 0.00000E+00
 -1      3067 9.22200E+00 4.02061E+01 0.00000E+00
 -1      3068 1.05855E+01 4.04701E+01 0.00000E+00
 -1      3069 1.04565E+01 3.69984E+01 0.00000E+00
 -1      3070 1.13355E+01 3.91711E+01 0.00000E+00
 -1      3071 9.75623E+01 2.30071E+01 0.00000E+00
 -1      3072 9.78295E+01 2.43461E+01 0.00000E+00
 -1      3073 1.16910E+01 1.24625E+01 0.00000E+00
 -1      3074 1.16910E+01 1.39375E+01 0.00000E+00
 -1      3075 9.24216E+01 3.36830E+01 0.00000E+00
 -1      3076 9.15859E+01 3.42734E+01 0.00000E+00
 -1      3077 1.59000E+01 3.83090E+01 0.00000E+00
 -1      3078 1.74000E+01 3.83090E+01 0.00000E+00
 -1      3079 9.76309E+01 2.62338E+01 0.00000E+00
 -1      3080 9.69848E+01 2.74530E+01 0.00000E+00
 -1      3081 8.94746E+01 1.04825E+01 0.00000E+00
 -1      3082 9.20246E+01 1.07445E+01 0.00000E+00
 -1      3083 9.29133E+01 1.15070E+01 0.00000E+00
 -1      3084 1.89000E+01 3.83090E+01 0.00000E+00
 -1      3085 2.04000E+01 3.83090E+01 0.00000E+00
 -1      3086 1.81500E+01 3.70100E+01 0.00000E+00
 -1      3087 2.19000E+01 3.83090E+01 0.00000E+00
 -1      3088 2.34000E+01 3.83090E+01 0.00000E+00
 -1      3089 2.11500E+01 3.70100E+01 0.00000E+00
 -1      3090 2.49000E+01 3.83090E+01 0.00000E+00
 -1      3091 2.64000E+01 3.83090E+01 0.00000E+00
 -1      3092 2.41500E+01 3.70100E+01 0.00000E+00
 -1      3093 2.79000E+01 3.83090E+01 0.00000E+00
 -1      3094 2.94000E+01 3.83090E+01 0.00000E+00
 -1      3095 2.71500E+01 3.70100E+01 0.00000E+00
 -1      3096 3.09000E+01 3.83090E+01 0.00000E+00
 -1      3097 3.24000E+01 3.83090E+01 0.00000E+00
 -1      3098 3.01500E+01 3.70100E+01 0.00000E+00
 -1      3099 3.39000E+01 3.83090E+01 0.00000E+00
 -1      3100 3.54000E+01 3.83090E+01 0.00000E+00
 -1      3101 3.31500E+01 3.70100E+01 0.00000E+00
 -1      3102 3.69000E+01 3.83090E+01 0.00000E+00
 -1      3103 3.84000E+01 3.83090E+01 0.00000E+00
 -1      3104 3.61500E+01 3.70100E+01 0.00000E+00
 -1      3105 3.99000E+01 3.83090E+01 0.00000E+00
 -1      3106 4.14000E+01 3.83090E+01 0.00000E+00
 -1      3107 3.91500E+01 3.70100E+01 0.00000E+00
 -1      3108 4.29000E+01 3.83090E+01 0.00000E+00
 -1      3109 4.44000E+01 3.83090E+01 0.00000E+00
 -1      3110 4.21500E+01 3.70100E+01 0.00000E+00
 -1      3111 4.59000E+01 3.83090E+01 0.00000E+00
 -1      3112 4.74000E+01 3.83090E+01 0.00000E+00
 -1      3113 4.51500E+01 3.70100E+01 0.00000E+00
 -1      3114 4.89000E+01 3.83090E+01 0.00000E+00
 -1      3115 5.04000E+01 3.83090E+01 0.00000E+00
 -1      3116 4.81500E+01 3.70100E+01 0.00000E+00
 -1      3117 5.19000E+01 3.83090E+01 0.00000E+00
 -1      3118 5.34000E+01 3.83090E+01 0.00000E+00
 -1      3119 5.11500E+01 3.70100E+01 0.00000E+00
 -1      3120 5.49000E+01 3.83090E+01 0.00000E+00
 -1      3121 5.64000E+01 3.83090E+01 0.00000E+00
 -1      3122 5.41500E+01 3.70100E+01 0.00000E+00
 -1      3123 5.79000E+01 3.83090E+01 0.00000E+00
 -1      3124 5.94000E+01 3.83090E+01 0.00000E+00
 -1      3125 5.71500E+01 3.70100E+01 0.00000E+00
 -1      3126 6.09000E+01 3.83090E+01 0.00000E+00
 -1      3127 6.24000E+01 3.83090E+01 0.00000E+00
 -1      3128 6.01500E+01 3.70100E+01 0.00000E+00
 -1      3129 6.39000E+01 3.83090E+01 0.00000E+00
 -1      3130 6.54000E+01 3.83090E+01 0.00000E+00
 -1      3131 6.31500E+01 3.70100E+01 0.00000E+00
 -1      3132 6.69000E+01 3.83090E+01 0.00000E+00
 -1      3133 6.84000E+01 3.83090E+01 0.00000E+00
 -1      3134 6.61500E+01 3.70100E+01 0.00000E+00
 -1      3135 6.99000E+01 3.83090E+01 0.00000E+00
 -1      3136 7.14000E+01 3.83090E+01 0.00000E+00
 -1      3137 6.91500E+01 3.70100E+01 0.00000E+00
 -1      3138 7.29000E+01 3.83090E+01 0.00000E+00
 -1      3139 7.44000E+01 3.83090E+01 0.00000E+00
 -1      3140 7.21500E+01 3.70100E+01 0.00000E+00
 -1      3141 7.59000E+01 3.83090E+01 0.00000E+00
 -1      3142 7.74000E+01 3.83090E+01 0.00000E+00
 -1      3143 7.51500E+01 3.70100E+01 0.00000E+00
 -1      3144 8.19000E+01 3.85829E+01 0.00000E+00
 -1      3145 8.34000E+01 3.85829E+01 0.00000E+00
 -1      3146 8.49000E+01 3.84991E+01 0.00000E+00
 -1      3147 8.64000E+01 3.84991E+01 0.00000E+00
 -1      3148 8.84105E+01 3.74324E+01 0.00000E+00
 -1      3149 8.99105E+01 3.74324E+01 0.00000E+00
 -1      3150 9.13726E+01 3.72117E+01 0.00000E+00
 -1      3151 9.28726E+01 3.72117E+01 0.00000E+00
 -1      3152 9.69000E+01 3.83090E+01 0.00000E+00
 -1      3153 9.84000E+01 3.83090E+01 0.00000E+00
 -1      3154 9.99000E+01 3.83090E+01 0.00000E+00
 -1      3155 1.01400E+02 3.83090E+01 0.00000E+00
 -1      3156 9.91500E+01 3.70100E+01 0.00000E+00
 -1      3157 1.02900E+02 3.83090E+01 0.00000E+00
 -1      3158 1.04400E+02 3.83090E+01 0.00000E+00
 -1      3159 1.02150E+02 3.70100E+01 0.00000E+00
 -1      3160 1.05900E+02 3.83090E+01 0.00000E+00
 -1      3161 1.07400E+02 3.83090E+01 0.00000E+00
 -1      3162 1.05150E+02 3.70100E+01 0.00000E+00
 -1      3163 1.08900E+02 3.83090E+01 0.00000E+00
 -1      3164 1.10400E+02 3.83090E+01 0.00000E+00
 -1      3165 1.08150E+02 3.70100E+01 0.00000E+00
 -1      3166 1.11900E+02 3.83090E+01 0.00000E+00
 -1      3167 1.13400E+02 3.83090E+01 0.00000E+00
 -1      3168 1.11150E+02 3.70100E+01 0.00000E+00
 -1      3169 1.14900E+02 3.83090E+01 0.00000E+00
 -1      3170 1.16400E+02 3.83090E+01 0.00000E+00
 -1      3171 1.14150E+02 3.70100E+01 0.00000E+00
 -1      3172 1.17900E+02 3.83090E+01 0.00000E+00
 -1      3173 1.19400E+02 3.83090E+01 0.00000E+00
 -1      3174 1.17150E+02 3.70100E+01 0.00000E+00
 -1      3175 1.20900E+02 3.83090E+01 0.00000E+00
 -1      3176 1.22400E+02 3.83090E+01 0.00000E+00
 -1      3177 1.20150E+02 3.70100E+01 0.00000E+00
 -1      3178 1.23900E+02 3.83090E+01 0.00000E+00
 -1      3179 1.25400E+02 3.83090E+01 0.00000E+00
 -1      3180 1.23150E+02 3.70100E+01 0.00000E+00
 -1      3181 1.26900E+02 3.83090E+01 0.00000E+00
 -1      3182 1.28400E+02 3.83090E+01 0.00000E+00
 -1      3183 1.26150E+02 3.70100E+01 0.00000E+00
 -1      3184 1.29900E+02 3.83090E+01 0.00000E+00
 -1      3185 1.31400E+02 3.83090E+01 0.00000E+00
 -1      3186 1.29150E+02 3.70100E+01 0.00000E+00
 -1      3187 1.32900E+02 3.83090E+01 0.00000E+00
 -1      3188 1.34400E+02 3.83090E+01 0.00000E+00
 -1      3189 1.32150E+02 3.70100E+01 0.00000E+00
 -1      3190 1.35707E+02 3.84200E+01 0.00000E+00
 -1      3191 1.37207E+02 3.84200E+01 0.00000E+00
 -1      3192 1.37572E+02 3.73430E+01 0.00000E+00
 -1      3193 1.34957E+02 3.71210E+01 0.00000E+00
 -1      3194 7.25461E+01 1.37851E+01 0.00000E+00
 -1      3195 7.33060E+01 1.26740E+01 0.00000E+00
 -1      3196 7.85035E+01 3.43523E+01 0.00000E+00
 -1      3197 7.71530E+01 3.41101E+01 0.00000E+00
 -1      3198 3.17850E+01 1.05013E+01 0.00000E+00
 -1      3199 3.02850E+01 1.05013E+01 0.00000E+00
 -1      3200 4.07850E+01 1.05013E+01 0.00000E+00
 -1      3201 3.92850E+01 1.05013E+01 0.00000E+00
 -1      3202 4.37850E+01 1.05013E+01 0.00000E+00
 -1      3203 4.22850E+01 1.05013E+01 0.00000E+00
 -1      3204 4.15350E+01 1.18003E+01 0.00000E+00
 -1      3205 4.67850E+01 1.05013E+01 0.00000E+00
 -1      3206 4.52850E+01 1.05013E+01 0.00000E+00
 -1      3207 4.45350E+01 1.18003E+01 0.00000E+00
 -1      3208 4.97850E+01 1.05013E+01 0.00000E+00
 -1      3209 4.82850E+01 1.05013E+01 0.00000E+00
 -1      3210 4.75350E+01 1.18003E+01 0.00000E+00
 -1      3211 5.27850E+01 1.05013E+01 0.00000E+00
 -1      3212 5.12850E+01 1.05013E+01 0.00000E+00
 -1      3213 5.05350E+01 1.18003E+01 0.00000E+00
 -1      3214 5.57850E+01 1.05013E+01 0.00000E+00
 -1      3215 5.42850E+01 1.05013E+01 0.00000E+00
 -1      3216 5.35350E+01 1.18003E+01 0.00000E+00
 -1      3217 5.87850E+01 1.05013E+01 0.00000E+00
 -1      3218 5.72850E+01 1.05013E+01 0.00000E+00
 -1      3219 5.65350E+01 1.18003E+01 0.00000E+00
 -1      3220 6.17850E+01 1.05013E+01 0.00000E+00
 -1      3221 6.02850E+01 1.05013E+01 0.00000E+00
 -1      3222 5.95350E+01 1.18003E+01 0.00000E+00
 -1      3223 6.47850E+01 1.05013E+01 0.00000E+00
 -1      3224 6.32850E+01 1.05013E+01 0.00000E+00
 -1      3225 6.25350E+01 1.18003E+01 0.00000E+00
 -1      3226 6.77850E+01 1.05013E+01 0.00000E+00
 -1      3227 6.62850E+01 1.05013E+01 0.00000E+00
 -1      3228 6.55350E+01 1.18003E+01 0.00000E+00
 -1      3229 7.17729E+01 1.09029E+01 0.00000E+00
 -1      3230 7.02729E+01 1.09029E+01 0.00000E+00
 -1      3231 7.32729E+01 1.09029E+01 0.00000E+00
 -1      3232 1.00785E+02 1.04562E+01 0.00000E+00
 -1      3233 9.92850E+01 1.04562E+01 0.00000E+00
 -1      3234 1.03785E+02 1.04562E+01 0.00000E+00
 -1      3235 1.02285E+02 1.04562E+01 0.00000E+00
 -1      3236 1.01535E+02 1.17552E+01 0.00000E+00
 -1      3237 1.06785E+02 1.04562E+01 0.00000E+00
 -1      3238 1.05285E+02 1.04562E+01 0.00000E+00
 -1      3239 1.04535E+02 1.17552E+01 0.00000E+00
 -1      3240 1.09785E+02 1.04562E+01 0.00000E+00
 -1      3241 1.08285E+02 1.04562E+01 0.00000E+00
 -1      3242 1.07535E+02 1.17552E+01 0.00000E+00
 -1      3243 1.12785E+02 1.04562E+01 0.00000E+00
 -1      3244 1.11285E+02 1.04562E+01 0.00000E+00
 -1      3245 1.10535E+02 1.17552E+01 0.00000E+00
 -1      3246 1.15785E+02 1.04562E+01 0.00000E+00
 -1      3247 1.14285E+02 1.04562E+01 0.00000E+00
 -1      3248 1.13535E+02 1.17552E+01 0.00000E+00
 -1      3249 1.18785E+02 1.04562E+01 0.00000E+00
 -1      3250 1.17285E+02 1.04562E+01 0.00000E+00
 -1      3251 1.16535E+02 1.17552E+01 0.00000E+00
 -1      3252 1.21785E+02 1.04562E+01 0.00000E+00
 -1      3253 1.20285E+02 1.04562E+01 0.00000E+00
 -1      3254 1.19535E+02 1.17552E+01 0.00000E+00
 -1      3255 1.24785E+02 1.04562E+01 0.00000E+00
 -1      3256 1.23285E+02 1.04562E+01 0.00000E+00
 -1      3257 1.22535E+02 1.17552E+01 0.00000E+00
 -1      3258 1.27785E+02 1.04562E+01 0.00000E+00
 -1      3259 1.26285E+02 1.04562E+01 0.00000E+00
 -1      3260 1.25535E+02 1.17552E+01 0.00000E+00
 -1      3261 1.30785E+02 1.04562E+01 0.00000E+00
 -1      3262 1.29285E+02 1.04562E+01 0.00000E+00
 -1      3263 1.28535E+02 1.17552E+01 0.00000E+00
 -1      3264 1.33785E+02 1.04562E+01 0.00000E+00
 -1      3265 1.32285E+02 1.04562E+01 0.00000E+00
 -1      3266 1.31535E+02 1.17552E+01 0.00000E+00
 -1      3267 1.36785E+02 1.04562E+01 0.00000E+00
 -1      3268 1.35285E+02 1.04562E+01 0.00000E+00
 -1      3269 1.34535E+02 1.17552E+01 0.00000E+00
 -1      3270 1.38912E+02 1.09759E+01 0.00000E+00
 -1      3271 1.37744E+02 1.06839E+01 0.00000E+00
 -1      3272 1.36994E+02 1.19829E+01 0.00000E+00
 -1      3273 1.38912E+02 1.24384E+01 0.00000E+00
 -1      3274 1.38309E+02 2.86750E+01 0.00000E+00
 -1      3275 1.38309E+02 2.72250E+01 0.00000E+00
 -1      3276 1.38309E+02 2.57500E+01 0.00000E+00
 -1      3277 1.38309E+02 2.42750E+01 0.00000E+00
 -1      3278 1.37010E+02 2.64750E+01 0.00000E+00
 -1      3279 7.13163E+01 1.63994E+01 0.00000E+00
 -1      3280 7.17426E+01 1.51815E+01 0.00000E+00
 -1      3281 7.10013E+01 2.54845E+01 0.00000E+00
 -1      3282 7.06606E+01 2.42374E+01 0.00000E+00
 -1      3283 1.16460E+01 3.80848E+01 0.00000E+00
 -1      3284 1.24605E+01 3.85216E+01 0.00000E+00
 -1      3285 1.39605E+01 3.85216E+01 0.00000E+00
 -1      3286 1.15815E+01 3.63489E+01 0.00000E+00
 -1      3287 1.38309E+02 3.16250E+01 0.00000E+00
 -1      3288 1.38309E+02 3.01500E+01 0.00000E+00
 -1      3289 1.37010E+02 2.94250E+01 0.00000E+00
 -1      3290 9.38346E+01 1.22828E+01 0.00000E+00
 -1      3291 9.47559E+01 1.30586E+01 0.00000E+00
 -1      3292 9.40032E+01 1.11871E+01 0.00000E+00
 -1      3293 1.38309E+02 3.45750E+01 0.00000E+00
 -1      3294 1.38309E+02 3.31000E+01 0.00000E+00
 -1      3295 1.37010E+02 3.23750E+01 0.00000E+00
 -1      3296 2.87850E+01 1.05013E+01 0.00000E+00
 -1      3297 2.72850E+01 1.05013E+01 0.00000E+00
 -1      3298 2.95350E+01 1.18003E+01 0.00000E+00
 -1      3299 3.77850E+01 1.05013E+01 0.00000E+00
 -1      3300 3.62850E+01 1.05013E+01 0.00000E+00
 -1      3301 3.85350E+01 1.18003E+01 0.00000E+00
 -1      3302 3.47850E+01 1.05013E+01 0.00000E+00
 -1      3303 3.32850E+01 1.05013E+01 0.00000E+00
 -1      3304 3.25350E+01 1.18003E+01 0.00000E+00
 -1      3305 3.55350E+01 1.18003E+01 0.00000E+00
 -1      3306 2.57850E+01 1.05013E+01 0.00000E+00
 -1      3307 2.42850E+01 1.05013E+01 0.00000E+00
 -1      3308 2.65350E+01 1.18003E+01 0.00000E+00
 -1      3309 9.59154E+01 1.38942E+01 0.00000E+00
 -1      3310 9.67249E+01 1.48842E+01 0.00000E+00
 -1      3311 7.03220E+01 2.27399E+01 0.00000E+00
 -1      3312 7.02136E+01 2.13308E+01 0.00000E+00
 -1      3313 7.54939E+01 3.30788E+01 0.00000E+00
 -1      3314 7.45413E+01 3.21435E+01 0.00000E+00
 -1      3315 7.19139E+01 2.81309E+01 0.00000E+00
 -1      3316 7.14356E+01 2.68341E+01 0.00000E+00
 -1      3317 9.80094E+01 2.02385E+01 0.00000E+00
 -1      3318 9.77858E+01 2.16228E+01 0.00000E+00
 -1      3319 9.87604E+01 2.21245E+01 0.00000E+00
 -1      3320 1.26488E+01 1.02017E+01 0.00000E+00
 -1      3321 1.20772E+01 1.14631E+01 0.00000E+00
 -1      3322 1.33763E+01 1.22006E+01 0.00000E+00
 -1      3323 1.41488E+01 1.02017E+01 0.00000E+00
 -1      3324 2.27850E+01 1.05013E+01 0.00000E+00
 -1      3325 2.12850E+01 1.05013E+01 0.00000E+00
 -1      3326 2.35350E+01 1.18003E+01 0.00000E+00
 -1      3327 9.46531E+01 3.17320E+01 0.00000E+00
 -1      3328 9.35374E+01 3.27075E+01 0.00000E+00
 -1      3329 9.37110E+01 3.38400E+01 0.00000E+00
 -1      3330 8.66639E+01 3.58527E+01 0.00000E+00
 -1      3331 8.52231E+01 3.63617E+01 0.00000E+00
 -1      3332 1.16910E+01 2.12875E+01 0.00000E+00
 -1      3333 1.16910E+01 2.27625E+01 0.00000E+00
 -1      3334 1.16910E+01 2.42375E+01 0.00000E+00
 -1      3335 1.16910E+01 2.57125E+01 0.00000E+00
 -1      3336 1.29900E+01 2.35000E+01 0.00000E+00
 -1      3337 1.29900E+01 1.46687E+01 0.00000E+00
 -1      3338 1.16910E+01 1.54063E+01 0.00000E+00
 -1      3339 1.16910E+01 1.68750E+01 0.00000E+00
 -1      3340 9.11331E+01 3.50361E+01 0.00000E+00
 -1      3341 2.05350E+01 1.18003E+01 0.00000E+00
 -1      3342 1.97850E+01 1.05013E+01 0.00000E+00
 -1      3343 1.82850E+01 1.05013E+01 0.00000E+00
 -1      3344 9.72269E+01 2.85892E+01 0.00000E+00
 -1      3345 8.87585E+01 9.52226E+00 0.00000E+00
 -1      3346 9.02511E+01 1.01174E+01 0.00000E+00
 -1      3347 8.75697E+01 9.39907E+00 0.00000E+00
 -1      3348 9.17511E+01 1.01174E+01 0.00000E+00
 -1      3349 7.34972E+01 3.19647E+01 0.00000E+00
 -1      3350 8.41500E+01 3.74740E+01 0.00000E+00
 -1      3351 8.06300E+01 3.84407E+01 0.00000E+00
 -1      3352 8.13800E+01 3.74155E+01 0.00000E+00
 -1      3353 7.91300E+01 3.84407E+01 0.00000E+00
 -1      3354 9.40418E+01 3.55259E+01 0.00000E+00
 -1      3355 9.43192E+01 3.79221E+01 0.00000E+00
 -1      3356 9.58192E+01 3.79221E+01 0.00000E+00
 -1      3357 9.51576E+01 3.45504E+01 0.00000E+00
 -1      3358 7.90507E+01 3.50504E+01 0.00000E+00
 -1      3359 9.84110E+01 1.92017E+01 0.00000E+00
 -1      3360 9.93856E+01 1.97034E+01 0.00000E+00
 -1      3361 9.88127E+01 1.81650E+01 0.00000E+00
 -1      3362 9.75408E+01 1.56487E+01 0.00000E+00
 -1      3363 9.83566E+01 1.64133E+01 0.00000E+00
 -1      3364 9.80593E+01 1.43987E+01 0.00000E+00
 -1      3365 7.17432E+01 2.91975E+01 0.00000E+00
 -1      3366 7.06209E+01 2.88748E+01 0.00000E+00
 -1      3367 7.15726E+01 3.02641E+01 0.00000E+00
 -1      3368 7.59585E+01 3.43739E+01 0.00000E+00
 -1      3369 6.95229E+01 1.22019E+01 0.00000E+00
 -1      3370 9.86392E+01 1.26947E+01 0.00000E+00
 -1      3371 9.78892E+01 1.13957E+01 0.00000E+00
 -1      3372 8.19256E+01 3.53171E+01 0.00000E+00
 -1      3373 1.16910E+01 3.30594E+01 0.00000E+00
 -1      3374 1.16910E+01 3.45281E+01 0.00000E+00
 -1      3375 7.03572E+01 2.64586E+01 0.00000E+00
 -1      3376 9.60839E+01 1.27985E+01 0.00000E+00
 -1      3377 1.38309E+02 1.98625E+01 0.00000E+00
 -1      3378 1.38309E+02 1.83875E+01 0.00000E+00
 -1      3379 1.16910E+01 3.01219E+01 0.00000E+00
 -1      3380 1.16910E+01 3.15906E+01 0.00000E+00
 -1      3381 1.29900E+01 3.23250E+01 0.00000E+00
 -1      3382 7.03664E+01 1.69981E+01 0.00000E+00
 -1      3383 1.38309E+02 2.28062E+01 0.00000E+00
 -1      3384 1.38309E+02 2.13312E+01 0.00000E+00
 -1      3385 1.37010E+02 2.05938E+01 0.00000E+00
 -1      3386 1.37010E+02 2.35313E+01 0.00000E+00
 -1      3387 6.95843E+01 2.36115E+01 0.00000E+00
 -1      3388 1.69669E+01 1.03515E+01 0.00000E+00
 -1      3389 1.54669E+01 1.03515E+01 0.00000E+00
 -1      3390 1.50806E+01 1.13509E+01 0.00000E+00
 -1      3391 1.77169E+01 1.16505E+01 0.00000E+00
 -1      3392 1.47105E+01 3.72226E+01 0.00000E+00
 -1      3393 7.39036E+01 1.19464E+01 0.00000E+00
 -1      3394 9.65692E+01 3.66231E+01 0.00000E+00
 -1      3395 8.45088E+01 3.66644E+01 0.00000E+00
 -1      3396 6.97874E+01 2.03570E+01 0.00000E+00
 -1      3397 6.93611E+01 1.93831E+01 0.00000E+00
 -1      3398 6.88195E+01 2.11401E+01 0.00000E+00
 -1      3399 9.64878E+01 3.10267E+01 0.00000E+00
 -1      3400 9.55705E+01 3.13794E+01 0.00000E+00
 -1      3401 9.57441E+01 3.25118E+01 0.00000E+00
 -1      3402 9.63892E+01 1.13957E+01 0.00000E+00
 -1      3403 7.83800E+01 3.71417E+01 0.00000E+00
 -1      3404 9.28084E+01 9.78426E+00 0.00000E+00
 -1      3405 9.43084E+01 9.78426E+00 0.00000E+00
 -1      3406 1.38375E+02 1.71415E+01 0.00000E+00
 -1      3407 1.38440E+02 1.58956E+01 0.00000E+00
 -1      3408 1.37076E+02 1.78790E+01 0.00000E+00
 -1      3409 9.90456E+01 2.45591E+01 0.00000E+00
 -1      3410 9.83382E+01 2.53965E+01 0.00000E+00
 -1      3411 9.88470E+01 2.64468E+01 0.00000E+00
 -1      3412 7.12072E+01 1.39999E+01 0.00000E+00
 -1      3413 1.16910E+01 1.83469E+01 0.00000E+00
 -1      3414 1.16910E+01 1.98156E+01 0.00000E+00
 -1      3415 1.29900E+01 2.05531E+01 0.00000E+00
 -1      3416 1.29900E+01 1.76094E+01 0.00000E+00
 -1      3417 1.37758E+02 3.64975E+01 0.00000E+00
 -1      3418 1.38123E+02 3.54205E+01 0.00000E+00
 -1      3419 1.36824E+02 3.46955E+01 0.00000E+00
 -1      3420 1.36451E+02 3.63865E+01 0.00000E+00
 -1      3421 9.52297E+01 1.05601E+01 0.00000E+00
 -1      3422 8.30088E+01 3.67482E+01 0.00000E+00
 -1      3423 2.04000E+01 3.57110E+01 0.00000E+00
 -1      3424 2.19000E+01 3.57110E+01 0.00000E+00
 -1      3425 2.34000E+01 3.57110E+01 0.00000E+00
 -1      3426 2.49000E+01 3.57110E+01 0.00000E+00
 -1      3427 2.26500E+01 3.44120E+01 0.00000E+00
 -1      3428 2.64000E+01 3.57110E+01 0.00000E+00
 -1      3429 2.79000E+01 3.57110E+01 0.00000E+00
 -1      3430 2.56500E+01 3.44120E+01 0.00000E+00
 -1      3431 2.94000E+01 3.57110E+01 0.00000E+00
 -1      3432 3.09000E+01 3.57110E+01 0.00000E+00
 -1      3433 2.86500E+01 3.44120E+01 0.00000E+00
 -1      3434 3.24000E+01 3.57110E+01 0.00000E+00
 -1      3435 3.39000E+01 3.57110E+01 0.00000E+00
 -1      3436 3.16500E+01 3.44120E+01 0.00000E+00
 -1      3437 3.54000E+01 3.57110E+01 0.00000E+00
 -1      3438 3.69000E+01 3.57110E+01 0.00000E+00
 -1      3439 3.46500E+01 3.44120E+01 0.00000E+00
 -1      3440 3.84000E+01 3.57110E+01 0.00000E+00
 -1      3441 3.99000E+01 3.57110E+01 0.00000E+00
 -1      3442 3.76500E+01 3.44120E+01 0.00000E+00
 -1      3443 4.14000E+01 3.57110E+01 0.00000E+00
 -1      3444 4.29000E+01 3.57110E+01 0.00000E+00
 -1      3445 4.06500E+01 3.44120E+01 0.00000E+00
 -1      3446 4.44000E+01 3.57110E+01 0.00000E+00
 -1      3447 4.59000E+01 3.57110E+01 0.00000E+00
 -1      3448 4.36500E+01 3.44120E+01 0.00000E+00
 -1      3449 4.74000E+01 3.57110E+01 0.00000E+00
 -1      3450 4.89000E+01 3.57110E+01 0.00000E+00
 -1      3451 4.66500E+01 3.44120E+01 0.00000E+00
 -1      3452 5.04000E+01 3.57110E+01 0.00000E+00
 -1      3453 5.19000E+01 3.57110E+01 0.00000E+00
 -1      3454 4.96500E+01 3.44120E+01 0.00000E+00
 -1      3455 5.34000E+01 3.57110E+01 0.00000E+00
 -1      3456 5.49000E+01 3.57110E+01 0.00000E+00
 -1      3457 5.26500E+01 3.44120E+01 0.00000E+00
 -1      3458 5.64000E+01 3.57110E+01 0.00000E+00
 -1      3459 5.79000E+01 3.57110E+01 0.00000E+00
 -1      3460 5.56500E+01 3.44120E+01 0.00000E+00
 -1      3461 5.94000E+01 3.57110E+01 0.00000E+00
 -1      3462 6.09000E+01 3.57110E+01 0.00000E+00
 -1      3463 5.86500E+01 3.44120E+01 0.00000E+00
 -1      3464 6.24000E+01 3.57110E+01 0.00000E+00
 -1      3465 6.39000E+01 3.57110E+01 0.00000E+00
 -1      3466 6.16500E+01 3.44120E+01 0.00000E+00
 -1      3467 6.54000E+01 3.57110E+01 0.00000E+00
 -1      3468 6.69000E+01 3.57110E+01 0.00000E+00
 -1      3469 6.46500E+01 3.44120E+01 0.00000E+00
 -1      3470 6.84000E+01 3.57110E+01 0.00000E+00
 -1      3471 6.99000E+01 3.57110E+01 0.00000E+00
 -1      3472 6.76500E+01 3.44120E+01 0.00000E+00
 -1      3473 9.59913E+01 3.37245E+01 0.00000E+00
 -1      3474 9.63221E+01 3.54104E+01 0.00000E+00
 -1      3475 9.74029E+01 3.57973E+01 0.00000E+00
 -1      3476 9.69086E+01 3.33719E+01 0.00000E+00
 -1      3477 8.76605E+01 3.63235E+01 0.00000E+00
 -1      3478 1.01400E+02 3.57110E+01 0.00000E+00
 -1      3479 1.02900E+02 3.57110E+01 0.00000E+00
 -1      3480 1.04400E+02 3.57110E+01 0.00000E+00
 -1      3481 1.05900E+02 3.57110E+01 0.00000E+00
 -1      3482 1.03650E+02 3.44120E+01 0.00000E+00
 -1      3483 1.07400E+02 3.57110E+01 0.00000E+00
 -1      3484 1.08900E+02 3.57110E+01 0.00000E+00
 -1      3485 1.06650E+02 3.44120E+01 0.00000E+00
 -1      3486 1.10400E+02 3.57110E+01 0.00000E+00
 -1      3487 1.11900E+02 3.57110E+01 0.00000E+00
 -1      3488 1.09650E+02 3.44120E+01 0.00000E+00
 -1      3489 1.13400E+02 3.57110E+01 0.00000E+00
 -1      3490 1.14900E+02 3.57110E+01 0.00000E+00
 -1      3491 1.12650E+02 3.44120E+01 0.00000E+00
 -1      3492 1.16400E+02 3.57110E+01 0.00000E+00
 -1      3493 1.17900E+02 3.57110E+01 0.00000E+00
 -1      3494 1.15650E+02 3.44120E+01 0.00000E+00
 -1      3495 1.19400E+02 3.57110E+01 0.00000E+00
 -1      3496 1.20900E+02 3.57110E+01 0.00000E+00
 -1      3497 1.18650E+02 3.44120E+01 0.00000E+00
 -1      3498 1.22400E+02 3.57110E+01 0.00000E+00
 -1      3499 1.23900E+02 3.57110E+01 0.00000E+00
 -1      3500 1.21650E+02 3.44120E+01 0.00000E+00
 -1      3501 1.25400E+02 3.57110E+01 0.00000E+00
 -1      3502 1.26900E+02 3.57110E+01 0.00000E+00
 -1      3503 1.24650E+02 3.44120E+01 0.00000E+00
 -1      3504 1.28400E+02 3.57110E+01 0.00000E+00
 -1      3505 1.29900E+02 3.57110E+01 0.00000E+00
 -1      3506 1.27650E+02 3.44120E+01 0.00000E+00
 -1      3507 1.31400E+02 3.57110E+01 0.00000E+00
 -1      3508 1.32900E+02 3.57110E+01 0.00000E+00
 -1      3509 1.30650E+02 3.44120E+01 0.00000E+00
 -1      3510 4.22850E+01 1.30992E+01 0.00000E+00
 -1      3511 4.07850E+01 1.30992E+01 0.00000E+00
 -1      3512 5.12850E+01 1.30992E+01 0.00000E+00
 -1      3513 4.97850E+01 1.30992E+01 0.00000E+00
 -1      3514 5.42850E+01 1.30992E+01 0.00000E+00
 -1      3515 5.27850E+01 1.30992E+01 0.00000E+00
 -1      3516 5.20350E+01 1.43982E+01 0.00000E+00
 -1      3517 5.72850E+01 1.30992E+01 0.00000E+00
 -1      3518 5.57850E+01 1.30992E+01 0.00000E+00
 -1      3519 5.50350E+01 1.43982E+01 0.00000E+00
 -1      3520 6.02850E+01 1.30992E+01 0.00000E+00
 -1      3521 5.87850E+01 1.30992E+01 0.00000E+00
 -1      3522 5.80350E+01 1.43982E+01 0.00000E+00
 -1      3523 6.32850E+01 1.30992E+01 0.00000E+00
 -1      3524 6.17850E+01 1.30992E+01 0.00000E+00
 -1      3525 6.10350E+01 1.43982E+01 0.00000E+00
 -1      3526 6.62850E+01 1.30992E+01 0.00000E+00
 -1      3527 6.47850E+01 1.30992E+01 0.00000E+00
 -1      3528 6.40350E+01 1.43982E+01 0.00000E+00
 -1      3529 9.94551E+01 1.34592E+01 0.00000E+00
 -1      3530 7.71338E+01 3.62076E+01 0.00000E+00
 -1      3531 7.88639E+01 3.63392E+01 0.00000E+00
 -1      3532 1.05285E+02 1.30542E+01 0.00000E+00
 -1      3533 1.03785E+02 1.30542E+01 0.00000E+00
 -1      3534 6.91553E+01 1.77712E+01 0.00000E+00
 -1      3535 6.91927E+01 1.61694E+01 0.00000E+00
 -1      3536 6.95986E+01 2.74474E+01 0.00000E+00
 -1      3537 6.91642E+01 2.60978E+01 0.00000E+00
 -1      3538 1.28805E+01 3.56145E+01 0.00000E+00
 -1      3539 7.27757E+01 3.33073E+01 0.00000E+00
 -1      3540 7.19735E+01 3.19293E+01 0.00000E+00
 -1      3541 1.02370E+02 1.32567E+01 0.00000E+00
 -1      3542 1.00870E+02 1.32567E+01 0.00000E+00
 -1      3543 1.00290E+02 1.49608E+01 0.00000E+00
 -1      3544 1.03120E+02 1.45557E+01 0.00000E+00
 -1      3545 1.11285E+02 1.30542E+01 0.00000E+00
 -1      3546 1.09785E+02 1.30542E+01 0.00000E+00
 -1      3547 1.14285E+02 1.30542E+01 0.00000E+00
 -1      3548 1.12785E+02 1.30542E+01 0.00000E+00
 -1      3549 1.12035E+02 1.43532E+01 0.00000E+00
 -1      3550 1.17285E+02 1.30542E+01 0.00000E+00
 -1      3551 1.15785E+02 1.30542E+01 0.00000E+00
 -1      3552 1.15035E+02 1.43532E+01 0.00000E+00
 -1      3553 1.20285E+02 1.30542E+01 0.00000E+00
 -1      3554 1.18785E+02 1.30542E+01 0.00000E+00
 -1      3555 1.18035E+02 1.43532E+01 0.00000E+00
 -1      3556 1.23285E+02 1.30542E+01 0.00000E+00
 -1      3557 1.21785E+02 1.30542E+01 0.00000E+00
 -1      3558 1.21035E+02 1.43532E+01 0.00000E+00
 -1      3559 1.26285E+02 1.30542E+01 0.00000E+00
 -1      3560 1.24785E+02 1.30542E+01 0.00000E+00
 -1      3561 1.24035E+02 1.43532E+01 0.00000E+00
 -1      3562 1.29285E+02 1.30542E+01 0.00000E+00
 -1      3563 1.27785E+02 1.30542E+01 0.00000E+00
 -1      3564 1.27035E+02 1.43532E+01 0.00000E+00
 -1      3565 1.32285E+02 1.30542E+01 0.00000E+00
 -1      3566 1.30785E+02 1.30542E+01 0.00000E+00
 -1      3567 1.30035E+02 1.43532E+01 0.00000E+00
 -1      3568 1.35285E+02 1.30542E+01 0.00000E+00
 -1      3569 1.33785E+02 1.30542E+01 0.00000E+00
 -1      3570 1.33035E+02 1.43532E+01 0.00000E+00
 -1      3571 1.35711E+02 2.72125E+01 0.00000E+00
 -1      3572 1.35711E+02 2.57375E+01 0.00000E+00
 -1      3573 1.16910E+01 2.71844E+01 0.00000E+00
 -1      3574 1.16910E+01 2.86531E+01 0.00000E+00
 -1      3575 1.29900E+01 2.93875E+01 0.00000E+00
 -1      3576 1.08285E+02 1.30542E+01 0.00000E+00
 -1      3577 1.06785E+02 1.30542E+01 0.00000E+00
 -1      3578 1.09035E+02 1.43532E+01 0.00000E+00
 -1      3579 6.88256E+01 2.46003E+01 0.00000E+00
 -1      3580 6.84870E+01 2.31029E+01 0.00000E+00
 -1      3581 6.80670E+01 2.55892E+01 0.00000E+00
 -1      3582 1.46944E+01 1.23503E+01 0.00000E+00
 -1      3583 1.43081E+01 1.33498E+01 0.00000E+00
 -1      3584 1.60125E+01 1.25001E+01 0.00000E+00
 -1      3585 4.82850E+01 1.30992E+01 0.00000E+00
 -1      3586 4.67850E+01 1.30992E+01 0.00000E+00
 -1      3587 4.90350E+01 1.43982E+01 0.00000E+00
 -1      3588 4.52850E+01 1.30992E+01 0.00000E+00
 -1      3589 4.37850E+01 1.30992E+01 0.00000E+00
 -1      3590 4.30350E+01 1.43982E+01 0.00000E+00
 -1      3591 4.60350E+01 1.43982E+01 0.00000E+00
 -1      3592 9.85919E+01 2.85722E+01 0.00000E+00
 -1      3593 9.76792E+01 2.98773E+01 0.00000E+00
 -1      3594 2.72850E+01 1.30992E+01 0.00000E+00
 -1      3595 2.57850E+01 1.30992E+01 0.00000E+00
 -1      3596 1.48200E+01 3.54019E+01 0.00000E+00
 -1      3597 9.86514E+01 3.57541E+01 0.00000E+00
 -1      3598 1.00151E+02 3.57541E+01 0.00000E+00
 -1      3599 1.00901E+02 3.44551E+01 0.00000E+00
 -1      3600 9.84043E+01 3.45414E+01 0.00000E+00
 -1      3601 6.87194E+01 1.35983E+01 0.00000E+00
 -1      3602 3.02850E+01 1.30992E+01 0.00000E+00
 -1      3603 2.87850E+01 1.30992E+01 0.00000E+00
 -1      3604 2.80350E+01 1.43982E+01 0.00000E+00
 -1      3605 3.92850E+01 1.30992E+01 0.00000E+00
 -1      3606 3.77850E+01 1.30992E+01 0.00000E+00
 -1      3607 4.00350E+01 1.43982E+01 0.00000E+00
 -1      3608 1.35711E+02 3.31125E+01 0.00000E+00
 -1      3609 1.35711E+02 3.16375E+01 0.00000E+00
 -1      3610 1.74000E+01 3.57110E+01 0.00000E+00
 -1      3611 1.89000E+01 3.57110E+01 0.00000E+00
 -1      3612 1.96500E+01 3.44120E+01 0.00000E+00
 -1      3613 9.98842E+01 2.15957E+01 0.00000E+00
 -1      3614 9.96606E+01 2.29800E+01 0.00000E+00
 -1      3615 1.38643E+02 1.47900E+01 0.00000E+00
 -1      3616 1.38709E+02 1.35440E+01 0.00000E+00
 -1      3617 1.37750E+02 1.33163E+01 0.00000E+00
 -1      3618 1.37344E+02 1.55275E+01 0.00000E+00
 -1      3619 1.35711E+02 3.01625E+01 0.00000E+00
 -1      3620 1.35711E+02 2.86875E+01 0.00000E+00
 -1      3621 1.34412E+02 2.79500E+01 0.00000E+00
 -1      3622 1.34412E+02 3.09000E+01 0.00000E+00
 -1      3623 2.42850E+01 1.30992E+01 0.00000E+00
 -1      3624 2.27850E+01 1.30992E+01 0.00000E+00
 -1      3625 2.50350E+01 1.43982E+01 0.00000E+00
 -1      3626 6.79694E+01 1.48973E+01 0.00000E+00
 -1      3627 8.02969E+01 3.59844E+01 0.00000E+00
 -1      3628 8.15668E+01 3.61267E+01 0.00000E+00
 -1      3629 1.42800E+01 3.32139E+01 0.00000E+00
 -1      3630 1.61100E+01 3.48221E+01 0.00000E+00
 -1      3631 1.68600E+01 3.35231E+01 0.00000E+00
 -1      3632 1.42800E+01 3.17452E+01 0.00000E+00
 -1      3633 1.43081E+01 1.48185E+01 0.00000E+00
 -1      3634 2.12850E+01 1.30992E+01 0.00000E+00
 -1      3635 1.97850E+01 1.30992E+01 0.00000E+00
 -1      3636 2.20350E+01 1.43982E+01 0.00000E+00
 -1      3637 1.42890E+01 2.27625E+01 0.00000E+00
 -1      3638 1.42890E+01 2.42375E+01 0.00000E+00
 -1      3639 1.00169E+02 2.40304E+01 0.00000E+00
 -1      3640 7.14000E+01 3.57110E+01 0.00000E+00
 -1      3641 7.29000E+01 3.57110E+01 0.00000E+00
 -1      3642 7.39747E+01 3.51763E+01 0.00000E+00
 -1      3643 7.54747E+01 3.51763E+01 0.00000E+00
 -1      3644 9.92993E+01 2.77349E+01 0.00000E+00
 -1      3645 9.97516E+01 2.90230E+01 0.00000E+00
 -1      3646 1.00007E+02 2.68975E+01 0.00000E+00
 -1      3647 1.34022E+02 3.59933E+01 0.00000E+00
 -1      3648 1.35329E+02 3.61043E+01 0.00000E+00
 -1      3649 1.35515E+02 3.52588E+01 0.00000E+00
 -1      3650 1.33272E+02 3.46942E+01 0.00000E+00
 -1      3651 9.93312E+01 1.69149E+01 0.00000E+00
 -1      3652 7.08512E+01 3.16066E+01 0.00000E+00
 -1      3653 3.32850E+01 1.30992E+01 0.00000E+00
 -1      3654 3.17850E+01 1.30992E+01 0.00000E+00
 -1      3655 3.10350E+01 1.43982E+01 0.00000E+00
 -1      3656 1.06035E+02 1.43532E+01 0.00000E+00
 -1      3657 6.73021E+01 2.31178E+01 0.00000E+00
 -1      3658 6.80608E+01 2.21290E+01 0.00000E+00
 -1      3659 6.76346E+01 2.11551E+01 0.00000E+00
 -1      3660 1.34412E+02 2.50063E+01 0.00000E+00
 -1      3661 1.35711E+02 2.42687E+01 0.00000E+00
 -1      3662 1.35711E+02 2.28000E+01 0.00000E+00
 -1      3663 1.36791E+02 1.30885E+01 0.00000E+00
 -1      3664 3.70350E+01 1.43982E+01 0.00000E+00
 -1      3665 3.62850E+01 1.30992E+01 0.00000E+00
 -1      3666 3.47850E+01 1.30992E+01 0.00000E+00
 -1      3667 1.36041E+02 1.43875E+01 0.00000E+00
 -1      3668 9.78529E+01 3.10097E+01 0.00000E+00
 -1      3669 1.42890E+01 2.12906E+01 0.00000E+00
 -1      3670 1.55880E+01 2.20281E+01 0.00000E+00
 -1      3671 1.42890E+01 1.98188E+01 0.00000E+00
 -1      3672 7.06500E+01 3.44120E+01 0.00000E+00
 -1      3673 1.29900E+01 2.64469E+01 0.00000E+00
 -1      3674 1.35711E+02 2.13312E+01 0.00000E+00
 -1      3675 1.35711E+02 1.98625E+01 0.00000E+00
 -1      3676 1.34412E+02 2.20688E+01 0.00000E+00
 -1      3677 1.35777E+02 1.86165E+01 0.00000E+00
 -1      3678 1.35842E+02 1.73706E+01 0.00000E+00
 -1      3679 1.34478E+02 1.93540E+01 0.00000E+00
 -1      3680 6.92573E+01 2.95806E+01 0.00000E+00
 -1      3681 6.94279E+01 2.85140E+01 0.00000E+00
 -1      3682 6.82349E+01 2.81533E+01 0.00000E+00
 -1      3683 1.00286E+02 2.05590E+01 0.00000E+00
 -1      3684 1.01186E+02 2.14146E+01 0.00000E+00
 -1      3685 1.00688E+02 1.95222E+01 0.00000E+00
 -1      3686 6.81874E+01 1.85544E+01 0.00000E+00
 -1      3687 1.35702E+02 3.44132E+01 0.00000E+00
 -1      3688 1.34403E+02 3.36758E+01 0.00000E+00
 -1      3689 2.19000E+01 3.31130E+01 0.00000E+00
 -1      3690 2.34000E+01 3.31130E+01 0.00000E+00
 -1      3691 1.01588E+02 2.36737E+01 0.00000E+00
 -1      3692 1.00973E+02 2.52528E+01 0.00000E+00
 -1      3693 2.49000E+01 3.31130E+01 0.00000E+00
 -1      3694 2.64000E+01 3.31130E+01 0.00000E+00
 -1      3695 2.41500E+01 3.18140E+01 0.00000E+00
 -1      3696 2.79000E+01 3.31130E+01 0.00000E+00
 -1      3697 2.94000E+01 3.31130E+01 0.00000E+00
 -1      3698 2.71500E+01 3.18140E+01 0.00000E+00
 -1      3699 3.09000E+01 3.31130E+01 0.00000E+00
 -1      3700 3.24000E+01 3.31130E+01 0.00000E+00
 -1      3701 3.01500E+01 3.18140E+01 0.00000E+00
 -1      3702 3.39000E+01 3.31130E+01 0.00000E+00
 -1      3703 3.54000E+01 3.31130E+01 0.00000E+00
 -1      3704 3.31500E+01 3.18140E+01 0.00000E+00
 -1      3705 3.69000E+01 3.31130E+01 0.00000E+00
 -1      3706 3.84000E+01 3.31130E+01 0.00000E+00
 -1      3707 3.61500E+01 3.18140E+01 0.00000E+00
 -1      3708 3.99000E+01 3.31130E+01 0.00000E+00
 -1      3709 4.14000E+01 3.31130E+01 0.00000E+00
 -1      3710 3.91500E+01 3.18140E+01 0.00000E+00
 -1      3711 4.29000E+01 3.31130E+01 0.00000E+00
 -1      3712 4.44000E+01 3.31130E+01 0.00000E+00
 -1      3713 4.21500E+01 3.18140E+01 0.00000E+00
 -1      3714 4.59000E+01 3.31130E+01 0.00000E+00
 -1      3715 4.74000E+01 3.31130E+01 0.00000E+00
 -1      3716 4.51500E+01 3.18140E+01 0.00000E+00
 -1      3717 4.89000E+01 3.31130E+01 0.00000E+00
 -1      3718 5.04000E+01 3.31130E+01 0.00000E+00
 -1      3719 4.81500E+01 3.18140E+01 0.00000E+00
 -1      3720 5.19000E+01 3.31130E+01 0.00000E+00
 -1      3721 5.34000E+01 3.31130E+01 0.00000E+00
 -1      3722 5.11500E+01 3.18140E+01 0.00000E+00
 -1      3723 5.49000E+01 3.31130E+01 0.00000E+00
 -1      3724 5.64000E+01 3.31130E+01 0.00000E+00
 -1      3725 5.41500E+01 3.18140E+01 0.00000E+00
 -1      3726 5.79000E+01 3.31130E+01 0.00000E+00
 -1      3727 5.94000E+01 3.31130E+01 0.00000E+00
 -1      3728 5.71500E+01 3.18140E+01 0.00000E+00
 -1      3729 6.09000E+01 3.31130E+01 0.00000E+00
 -1      3730 6.24000E+01 3.31130E+01 0.00000E+00
 -1      3731 6.01500E+01 3.18140E+01 0.00000E+00
 -1      3732 6.39000E+01 3.31130E+01 0.00000E+00
 -1      3733 6.54000E+01 3.31130E+01 0.00000E+00
 -1      3734 6.31500E+01 3.18140E+01 0.00000E+00
 -1      3735 9.80050E+01 3.21692E+01 0.00000E+00
 -1      3736 9.82521E+01 3.33819E+01 0.00000E+00
 -1      3737 9.95007E+01 3.33388E+01 0.00000E+00
 -1      3738 9.91964E+01 3.10198E+01 0.00000E+00
 -1      3739 5.57850E+01 1.56973E+01 0.00000E+00
 -1      3740 5.42850E+01 1.56973E+01 0.00000E+00
 -1      3741 4.07850E+01 1.56973E+01 0.00000E+00
 -1      3742 3.92850E+01 1.56973E+01 0.00000E+00
 -1      3743 1.55880E+01 2.49719E+01 0.00000E+00
 -1      3744 1.42890E+01 2.57094E+01 0.00000E+00
 -1      3745 1.42890E+01 2.71812E+01 0.00000E+00
 -1      3746 1.05900E+02 3.31130E+01 0.00000E+00
 -1      3747 1.07400E+02 3.31130E+01 0.00000E+00
 -1      3748 1.08900E+02 3.31130E+01 0.00000E+00
 -1      3749 1.10400E+02 3.31130E+01 0.00000E+00
 -1      3750 1.08150E+02 3.18140E+01 0.00000E+00
 -1      3751 1.11900E+02 3.31130E+01 0.00000E+00
 -1      3752 1.13400E+02 3.31130E+01 0.00000E+00
 -1      3753 1.11150E+02 3.18140E+01 0.00000E+00
 -1      3754 1.14900E+02 3.31130E+01 0.00000E+00
 -1      3755 1.16400E+02 3.31130E+01 0.00000E+00
 -1      3756 1.14150E+02 3.18140E+01 0.00000E+00
 -1      3757 1.17900E+02 3.31130E+01 0.00000E+00
 -1      3758 1.19400E+02 3.31130E+01 0.00000E+00
 -1      3759 1.17150E+02 3.18140E+01 0.00000E+00
 -1      3760 1.20900E+02 3.31130E+01 0.00000E+00
 -1      3761 1.22400E+02 3.31130E+01 0.00000E+00
 -1      3762 1.20150E+02 3.18140E+01 0.00000E+00
 -1      3763 1.23900E+02 3.31130E+01 0.00000E+00
 -1      3764 1.25400E+02 3.31130E+01 0.00000E+00
 -1      3765 1.23150E+02 3.18140E+01 0.00000E+00
 -1      3766 1.26900E+02 3.31130E+01 0.00000E+00
 -1      3767 1.28400E+02 3.31130E+01 0.00000E+00
 -1      3768 1.26150E+02 3.18140E+01 0.00000E+00
 -1      3769 1.29900E+02 3.31130E+01 0.00000E+00
 -1      3770 1.31400E+02 3.31130E+01 0.00000E+00
 -1      3771 1.29150E+02 3.18140E+01 0.00000E+00
 -1      3772 1.33281E+02 3.33935E+01 0.00000E+00
 -1      3773 5.27850E+01 1.56973E+01 0.00000E+00
 -1      3774 5.12850E+01 1.56973E+01 0.00000E+00
 -1      3775 5.35350E+01 1.69963E+01 0.00000E+00
 -1      3776 6.17850E+01 1.56973E+01 0.00000E+00
 -1      3777 6.02850E+01 1.56973E+01 0.00000E+00
 -1      3778 6.47850E+01 1.56973E+01 0.00000E+00
 -1      3779 6.32850E+01 1.56973E+01 0.00000E+00
 -1      3780 6.25350E+01 1.69963E+01 0.00000E+00
 -1      3781 1.15785E+02 1.56522E+01 0.00000E+00
 -1      3782 1.14285E+02 1.56522E+01 0.00000E+00
 -1      3783 1.02900E+02 3.31130E+01 0.00000E+00
 -1      3784 1.04400E+02 3.31130E+01 0.00000E+00
 -1      3785 1.05150E+02 3.18140E+01 0.00000E+00
 -1      3786 6.67583E+01 1.56704E+01 0.00000E+00
 -1      3787 1.18785E+02 1.56522E+01 0.00000E+00
 -1      3788 1.17285E+02 1.56522E+01 0.00000E+00
 -1      3789 1.16535E+02 1.69512E+01 0.00000E+00
 -1      3790 1.12785E+02 1.56522E+01 0.00000E+00
 -1      3791 1.11285E+02 1.56522E+01 0.00000E+00
 -1      3792 1.13535E+02 1.69512E+01 0.00000E+00
 -1      3793 1.21785E+02 1.56522E+01 0.00000E+00
 -1      3794 1.20285E+02 1.56522E+01 0.00000E+00
 -1      3795 1.19535E+02 1.69512E+01 0.00000E+00
 -1      3796 1.24785E+02 1.56522E+01 0.00000E+00
 -1      3797 1.23285E+02 1.56522E+01 0.00000E+00
 -1      3798 1.22535E+02 1.69512E+01 0.00000E+00
 -1      3799 1.27785E+02 1.56522E+01 0.00000E+00
 -1      3800 1.26285E+02 1.56522E+01 0.00000E+00
 -1      3801 1.25535E+02 1.69512E+01 0.00000E+00
 -1      3802 1.30785E+02 1.56522E+01 0.00000E+00
 -1      3803 1.29285E+02 1.56522E+01 0.00000E+00
 -1      3804 1.28535E+02 1.69512E+01 0.00000E+00
 -1      3805 2.57850E+01 1.56973E+01 0.00000E+00
 -1      3806 2.42850E+01 1.56973E+01 0.00000E+00
 -1      3807 1.42890E+01 2.86500E+01 0.00000E+00
 -1      3808 1.42890E+01 3.01187E+01 0.00000E+00
 -1      3809 1.55880E+01 2.79125E+01 0.00000E+00
 -1      3810 1.09785E+02 1.56522E+01 0.00000E+00
 -1      3811 1.08285E+02 1.56522E+01 0.00000E+00
 -1      3812 1.10535E+02 1.69512E+01 0.00000E+00
 -1      3813 6.71547E+01 2.65825E+01 0.00000E+00
 -1      3814 6.68161E+01 2.50850E+01 0.00000E+00
 -1      3815 1.58860E+01 1.50773E+01 0.00000E+00
 -1      3816 1.45679E+01 1.63963E+01 0.00000E+00
 -1      3817 1.69946E+01 1.28642E+01 0.00000E+00
 -1      3818 1.66083E+01 1.38636E+01 0.00000E+00
 -1      3819 1.68681E+01 1.54413E+01 0.00000E+00
 -1      3820 1.83127E+01 1.30139E+01 0.00000E+00
 -1      3821 4.97850E+01 1.56973E+01 0.00000E+00
 -1      3822 4.82850E+01 1.56973E+01 0.00000E+00
 -1      3823 5.05350E+01 1.69963E+01 0.00000E+00
 -1      3824 1.35838E+02 1.54931E+01 0.00000E+00
 -1      3825 1.06785E+02 1.56522E+01 0.00000E+00
 -1      3826 1.05285E+02 1.56522E+01 0.00000E+00
 -1      3827 1.07535E+02 1.69512E+01 0.00000E+00
 -1      3828 5.87850E+01 1.56973E+01 0.00000E+00
 -1      3829 5.72850E+01 1.56973E+01 0.00000E+00
 -1      3830 5.95350E+01 1.69963E+01 0.00000E+00
 -1      3831 7.32247E+01 3.38773E+01 0.00000E+00
 -1      3832 1.00746E+02 1.67124E+01 0.00000E+00
 -1      3833 1.34539E+02 1.62306E+01 0.00000E+00
 -1      3834 1.89000E+01 3.31130E+01 0.00000E+00
 -1      3835 2.04000E+01 3.31130E+01 0.00000E+00
 -1      3836 2.11500E+01 3.18140E+01 0.00000E+00
 -1      3837 1.45679E+01 1.78681E+01 0.00000E+00
 -1      3838 6.71904E+01 1.95008E+01 0.00000E+00
 -1      3839 6.69846E+01 1.78889E+01 0.00000E+00
 -1      3840 2.87850E+01 1.56973E+01 0.00000E+00
 -1      3841 2.72850E+01 1.56973E+01 0.00000E+00
 -1      3842 2.65350E+01 1.69963E+01 0.00000E+00
 -1      3843 6.60083E+01 1.69694E+01 0.00000E+00
 -1      3844 1.32531E+02 3.20945E+01 0.00000E+00
 -1      3845 2.27850E+01 1.56973E+01 0.00000E+00
 -1      3846 2.12850E+01 1.56973E+01 0.00000E+00
 -1      3847 2.35350E+01 1.69963E+01 0.00000E+00
 -1      3848 1.01426E+02 2.65409E+01 0.00000E+00
 -1      3849 1.90627E+01 1.43129E+01 0.00000E+00
 -1      3850 1.00386E+02 3.02740E+01 0.00000E+00
 -1      3851 1.00538E+02 3.14335E+01 0.00000E+00
 -1      3852 6.69000E+01 3.31130E+01 0.00000E+00
 -1      3853 6.84000E+01 3.31130E+01 0.00000E+00
 -1      3854 4.22850E+01 1.56973E+01 0.00000E+00
 -1      3855 4.15350E+01 1.69963E+01 0.00000E+00
 -1      3856 4.37850E+01 1.56973E+01 0.00000E+00
 -1      3857 1.01939E+02 3.25498E+01 0.00000E+00
 -1      3858 1.02689E+02 3.12508E+01 0.00000E+00
 -1      3859 3.85350E+01 1.69963E+01 0.00000E+00
 -1      3860 3.77850E+01 1.56973E+01 0.00000E+00
 -1      3861 3.62850E+01 1.56973E+01 0.00000E+00
 -1      3862 5.65350E+01 1.69963E+01 0.00000E+00
 -1      3863 1.32531E+02 3.06195E+01 0.00000E+00
 -1      3864 6.54775E+01 2.51044E+01 0.00000E+00
 -1      3865 6.63898E+01 2.41111E+01 0.00000E+00
 -1      3866 6.59636E+01 2.31372E+01 0.00000E+00
 -1      3867 1.55790E+01 3.10077E+01 0.00000E+00
 -1      3868 1.33113E+02 2.57406E+01 0.00000E+00
 -1      3869 1.33113E+02 2.42719E+01 0.00000E+00
 -1      3870 3.40350E+01 1.43982E+01 0.00000E+00
 -1      3871 1.00749E+02 3.32957E+01 0.00000E+00
 -1      3872 7.17010E+01 3.38419E+01 0.00000E+00
 -1      3873 6.64317E+01 2.04896E+01 0.00000E+00
 -1      3874 1.33039E+02 1.62306E+01 0.00000E+00
 -1      3875 1.32289E+02 1.75296E+01 0.00000E+00
 -1      3876 6.50112E+01 1.79158E+01 0.00000E+00
 -1      3877 6.69840E+01 2.76491E+01 0.00000E+00
 -1      3878 6.57331E+01 2.71449E+01 0.00000E+00
 -1      3879 6.68134E+01 2.87157E+01 0.00000E+00
 -1      3880 4.75350E+01 1.69963E+01 0.00000E+00
 -1      3881 4.67850E+01 1.56973E+01 0.00000E+00
 -1      3882 4.52850E+01 1.56973E+01 0.00000E+00
 -1      3883 3.17850E+01 1.56973E+01 0.00000E+00
 -1      3884 3.02850E+01 1.56973E+01 0.00000E+00
 -1      3885 2.95350E+01 1.69963E+01 0.00000E+00
 -1      3886 1.58669E+01 1.86056E+01 0.00000E+00
 -1      3887 1.33113E+02 2.28031E+01 0.00000E+00
 -1      3888 1.33113E+02 2.13344E+01 0.00000E+00
 -1      3889 1.31814E+02 2.35375E+01 0.00000E+00
 -1      3890 1.32668E+02 2.00550E+01 0.00000E+00
 -1      3891 1.32734E+02 1.88090E+01 0.00000E+00
 -1      3892 1.30480E+02 1.82306E+01 0.00000E+00
 -1      3893 1.31369E+02 2.07894E+01 0.00000E+00
 -1      3894 6.90502E+01 3.08777E+01 0.00000E+00
 -1      3895 6.78572E+01 3.05169E+01 0.00000E+00
 -1      3896 1.02296E+02 1.62607E+01 0.00000E+00
 -1      3897 1.01337E+02 1.82149E+01 0.00000E+00
 -1      3898 6.61500E+01 3.18140E+01 0.00000E+00
 -1      3899 1.04461E+02 1.73572E+01 0.00000E+00
 -1      3900 1.03711E+02 1.60582E+01 0.00000E+00
 -1      3901 1.02238E+02 1.90705E+01 0.00000E+00
 -1      3902 1.68870E+01 2.12922E+01 0.00000E+00
 -1      3903 1.68870E+01 2.27641E+01 0.00000E+00
 -1      3904 1.76100E+01 3.22241E+01 0.00000E+00
 -1      3905 1.68870E+01 2.42359E+01 0.00000E+00
 -1      3906 1.68870E+01 2.57078E+01 0.00000E+00
 -1      3907 1.81860E+01 2.35000E+01 0.00000E+00
 -1      3908 1.02392E+02 2.16002E+01 0.00000E+00
 -1      3909 1.01990E+02 2.26370E+01 0.00000E+00
 -1      3910 1.02794E+02 2.38594E+01 0.00000E+00
 -1      3911 1.01093E+02 2.94366E+01 0.00000E+00
 -1      3912 6.94510E+01 3.25429E+01 0.00000E+00
 -1      3913 7.02010E+01 3.38419E+01 0.00000E+00
 -1      3914 1.33113E+02 2.86906E+01 0.00000E+00
 -1      3915 1.33113E+02 2.72156E+01 0.00000E+00
 -1      3916 1.31814E+02 2.64813E+01 0.00000E+00
 -1      3917 2.64000E+01 3.05150E+01 0.00000E+00
 -1      3918 2.79000E+01 3.05150E+01 0.00000E+00
 -1      3919 2.94000E+01 3.05150E+01 0.00000E+00
 -1      3920 3.09000E+01 3.05150E+01 0.00000E+00
 -1      3921 2.86500E+01 2.92160E+01 0.00000E+00
 -1      3922 3.24000E+01 3.05150E+01 0.00000E+00
 -1      3923 3.39000E+01 3.05150E+01 0.00000E+00
 -1      3924 3.16500E+01 2.92160E+01 0.00000E+00
 -1      3925 3.54000E+01 3.05150E+01 0.00000E+00
 -1      3926 3.69000E+01 3.05150E+01 0.00000E+00
 -1      3927 3.46500E+01 2.92160E+01 0.00000E+00
 -1      3928 3.84000E+01 3.05150E+01 0.00000E+00
 -1      3929 3.99000E+01 3.05150E+01 0.00000E+00
 -1      3930 3.76500E+01 2.92160E+01 0.00000E+00
 -1      3931 4.14000E+01 3.05150E+01 0.00000E+00
 -1      3932 4.29000E+01 3.05150E+01 0.00000E+00
 -1      3933 4.06500E+01 2.92160E+01 0.00000E+00
 -1      3934 4.44000E+01 3.05150E+01 0.00000E+00
 -1      3935 4.59000E+01 3.05150E+01 0.00000E+00
 -1      3936 4.36500E+01 2.92160E+01 0.00000E+00
 -1      3937 4.74000E+01 3.05150E+01 0.00000E+00
 -1      3938 4.89000E+01 3.05150E+01 0.00000E+00
 -1      3939 4.66500E+01 2.92160E+01 0.00000E+00
 -1      3940 5.04000E+01 3.05150E+01 0.00000E+00
 -1      3941 5.19000E+01 3.05150E+01 0.00000E+00
 -1      3942 4.96500E+01 2.92160E+01 0.00000E+00
 -1      3943 5.34000E+01 3.05150E+01 0.00000E+00
 -1      3944 5.49000E+01 3.05150E+01 0.00000E+00
 -1      3945 5.26500E+01 2.92160E+01 0.00000E+00
 -1      3946 5.64000E+01 3.05150E+01 0.00000E+00
 -1      3947 5.79000E+01 3.05150E+01 0.00000E+00
 -1      3948 5.56500E+01 2.92160E+01 0.00000E+00
 -1      3949 5.94000E+01 3.05150E+01 0.00000E+00
 -1      3950 6.09000E+01 3.05150E+01 0.00000E+00
 -1      3951 5.86500E+01 2.92160E+01 0.00000E+00
 -1      3952 1.10400E+02 3.05150E+01 0.00000E+00
 -1      3953 1.11900E+02 3.05150E+01 0.00000E+00
 -1      3954 1.13400E+02 3.05150E+01 0.00000E+00
 -1      3955 1.14900E+02 3.05150E+01 0.00000E+00
 -1      3956 1.12650E+02 2.92160E+01 0.00000E+00
 -1      3957 1.16400E+02 3.05150E+01 0.00000E+00
 -1      3958 1.17900E+02 3.05150E+01 0.00000E+00
 -1      3959 1.15650E+02 2.92160E+01 0.00000E+00
 -1      3960 1.19400E+02 3.05150E+01 0.00000E+00
 -1      3961 1.20900E+02 3.05150E+01 0.00000E+00
 -1      3962 1.18650E+02 2.92160E+01 0.00000E+00
 -1      3963 1.22400E+02 3.05150E+01 0.00000E+00
 -1      3964 1.23900E+02 3.05150E+01 0.00000E+00
 -1      3965 1.21650E+02 2.92160E+01 0.00000E+00
 -1      3966 1.25400E+02 3.05150E+01 0.00000E+00
 -1      3967 1.26900E+02 3.05150E+01 0.00000E+00
 -1      3968 1.24650E+02 2.92160E+01 0.00000E+00
 -1      3969 1.28400E+02 3.05150E+01 0.00000E+00
 -1      3970 1.29900E+02 3.05150E+01 0.00000E+00
 -1      3971 1.27650E+02 2.92160E+01 0.00000E+00
 -1      3972 5.42850E+01 1.82952E+01 0.00000E+00
 -1      3973 5.27850E+01 1.82952E+01 0.00000E+00
 -1      3974 1.02865E+02 2.98485E+01 0.00000E+00
 -1      3975 1.03826E+02 3.04116E+01 0.00000E+00
 -1      3976 1.20285E+02 1.82502E+01 0.00000E+00
 -1      3977 1.18785E+02 1.82502E+01 0.00000E+00
 -1      3978 6.32850E+01 1.82952E+01 0.00000E+00
 -1      3979 6.17850E+01 1.82952E+01 0.00000E+00
 -1      3980 1.05326E+02 3.04116E+01 0.00000E+00
 -1      3981 1.76190E+01 3.05976E+01 0.00000E+00
 -1      3982 3.47850E+01 1.56973E+01 0.00000E+00
 -1      3983 3.32850E+01 1.56973E+01 0.00000E+00
 -1      3984 3.25350E+01 1.69963E+01 0.00000E+00
 -1      3985 1.68870E+01 2.71766E+01 0.00000E+00
 -1      3986 1.68870E+01 2.86453E+01 0.00000E+00
 -1      3987 1.81860E+01 2.64406E+01 0.00000E+00
 -1      3988 1.23285E+02 1.82502E+01 0.00000E+00
 -1      3989 1.21785E+02 1.82502E+01 0.00000E+00
 -1      3990 1.21035E+02 1.95492E+01 0.00000E+00
 -1      3991 1.14285E+02 1.82502E+01 0.00000E+00
 -1      3992 1.12785E+02 1.82502E+01 0.00000E+00
 -1      3993 1.26285E+02 1.82502E+01 0.00000E+00
 -1      3994 1.24785E+02 1.82502E+01 0.00000E+00
 -1      3995 1.24035E+02 1.95492E+01 0.00000E+00
 -1      3996 1.29132E+02 1.82404E+01 0.00000E+00
 -1      3997 1.27632E+02 1.82404E+01 0.00000E+00
 -1      3998 1.26882E+02 1.95394E+01 0.00000E+00
 -1      3999 1.29577E+02 1.95198E+01 0.00000E+00
 -1      4000 1.02865E+02 2.62804E+01 0.00000E+00
 -1      4001 1.01898E+02 2.79251E+01 0.00000E+00
 -1      4002 5.72850E+01 1.82952E+01 0.00000E+00
 -1      4003 5.57850E+01 1.82952E+01 0.00000E+00
 -1      4004 5.50350E+01 1.95942E+01 0.00000E+00
 -1      4005 1.11285E+02 1.82502E+01 0.00000E+00
 -1      4006 1.09785E+02 1.82502E+01 0.00000E+00
 -1      4007 1.12035E+02 1.95492E+01 0.00000E+00
 -1      4008 1.83404E+01 1.55266E+01 0.00000E+00
 -1      4009 1.76181E+01 1.67403E+01 0.00000E+00
 -1      4010 1.98127E+01 1.56119E+01 0.00000E+00
 -1      4011 1.08285E+02 1.82502E+01 0.00000E+00
 -1      4012 1.06785E+02 1.82502E+01 0.00000E+00
 -1      4013 1.09035E+02 1.95492E+01 0.00000E+00
 -1      4014 1.17285E+02 1.82502E+01 0.00000E+00
 -1      4015 1.15785E+02 1.82502E+01 0.00000E+00
 -1      4016 1.18035E+02 1.95492E+01 0.00000E+00
 -1      4017 6.55019E+01 2.16261E+01 0.00000E+00
 -1      4018 6.50577E+01 1.99717E+01 0.00000E+00
 -1      4019 6.02850E+01 1.82952E+01 0.00000E+00
 -1      4020 5.87850E+01 1.82952E+01 0.00000E+00
 -1      4021 5.80350E+01 1.95942E+01 0.00000E+00
 -1      4022 2.04000E+01 3.05150E+01 0.00000E+00
 -1      4023 2.19000E+01 3.05150E+01 0.00000E+00
 -1      4024 1.30515E+02 2.42719E+01 0.00000E+00
 -1      4025 1.30515E+02 2.28031E+01 0.00000E+00
 -1      4026 6.63572E+01 3.05169E+01 0.00000E+00
 -1      4027 1.05298E+02 1.84574E+01 0.00000E+00
 -1      4028 1.03725E+02 1.88634E+01 0.00000E+00
 -1      4029 1.03075E+02 2.01707E+01 0.00000E+00
 -1      4030 1.06048E+02 1.97564E+01 0.00000E+00
 -1      4031 1.73920E+01 1.80409E+01 0.00000E+00
 -1      4032 1.71131E+01 1.99916E+01 0.00000E+00
 -1      4033 1.84121E+01 2.07275E+01 0.00000E+00
 -1      4034 1.88643E+01 1.81263E+01 0.00000E+00
 -1      4035 1.07400E+02 3.05150E+01 0.00000E+00
 -1      4036 1.08900E+02 3.05150E+01 0.00000E+00
 -1      4037 1.09650E+02 2.92160E+01 0.00000E+00
 -1      4038 6.42612E+01 1.92148E+01 0.00000E+00
 -1      4039 5.12850E+01 1.82952E+01 0.00000E+00
 -1      4040 4.97850E+01 1.82952E+01 0.00000E+00
 -1      4041 5.20350E+01 1.95942E+01 0.00000E+00
 -1      4042 2.72850E+01 1.82952E+01 0.00000E+00
 -1      4043 2.57850E+01 1.82952E+01 0.00000E+00
 -1      4044 2.34000E+01 3.05150E+01 0.00000E+00
 -1      4045 2.49000E+01 3.05150E+01 0.00000E+00
 -1      4046 2.56500E+01 2.92160E+01 0.00000E+00
 -1      4047 2.26500E+01 2.92160E+01 0.00000E+00
 -1      4048 1.89180E+01 2.98617E+01 0.00000E+00
 -1      4049 6.51063E+01 3.00128E+01 0.00000E+00
 -1      4050 4.45350E+01 1.69963E+01 0.00000E+00
 -1      4051 1.94850E+01 2.27641E+01 0.00000E+00
 -1      4052 1.94850E+01 2.42359E+01 0.00000E+00
 -1      4053 6.33315E+01 2.03512E+01 0.00000E+00
 -1      4054 6.24000E+01 3.05150E+01 0.00000E+00
 -1      4055 6.39000E+01 3.05150E+01 0.00000E+00
 -1      4056 4.22850E+01 1.82952E+01 0.00000E+00
 -1      4057 4.07850E+01 1.82952E+01 0.00000E+00
 -1      4058 1.30482E+02 2.85861E+01 0.00000E+00
 -1      4059 1.31232E+02 2.98851E+01 0.00000E+00
 -1      4060 3.55350E+01 1.69963E+01 0.00000E+00
 -1      4061 3.92850E+01 1.82952E+01 0.00000E+00
 -1      4062 3.77850E+01 1.82952E+01 0.00000E+00
 -1      4063 4.00350E+01 1.95942E+01 0.00000E+00
 -1      4064 2.42850E+01 1.82952E+01 0.00000E+00
 -1      4065 2.27850E+01 1.82952E+01 0.00000E+00
 -1      4066 2.50350E+01 1.95942E+01 0.00000E+00
 -1      4067 1.15035E+02 1.95492E+01 0.00000E+00
 -1      4068 6.45006E+01 2.61122E+01 0.00000E+00
 -1      4069 6.40744E+01 2.51383E+01 0.00000E+00
 -1      4070 6.43563E+01 2.87138E+01 0.00000E+00
 -1      4071 6.10350E+01 1.95942E+01 0.00000E+00
 -1      4072 1.06076E+02 2.91126E+01 0.00000E+00
 -1      4073 1.03757E+02 2.52028E+01 0.00000E+00
 -1      4074 1.04230E+02 2.65870E+01 0.00000E+00
 -1      4075 2.05627E+01 1.69109E+01 0.00000E+00
 -1      4076 4.90350E+01 1.95942E+01 0.00000E+00
 -1      4077 4.82850E+01 1.82952E+01 0.00000E+00
 -1      4078 4.67850E+01 1.82952E+01 0.00000E+00
 -1      4079 1.96680E+01 2.85627E+01 0.00000E+00
 -1      4080 6.43300E+01 2.71788E+01 0.00000E+00
 -1      4081 3.02850E+01 1.82952E+01 0.00000E+00
 -1      4082 2.87850E+01 1.82952E+01 0.00000E+00
 -1      4083 2.80350E+01 1.95942E+01 0.00000E+00
 -1      4084 6.45896E+01 2.26194E+01 0.00000E+00
 -1      4085 1.30070E+02 2.15237E+01 0.00000E+00
 -1      4086 1.04159E+02 2.41660E+01 0.00000E+00
 -1      4087 1.03878E+02 2.13931E+01 0.00000E+00
 -1      4088 1.02533E+02 2.91761E+01 0.00000E+00
 -1      4089 6.16500E+01 2.92160E+01 0.00000E+00
 -1      4090 1.94758E+01 2.12659E+01 0.00000E+00
 -1      4091 2.07748E+01 2.20018E+01 0.00000E+00
 -1      4092 6.28503E+01 2.16550E+01 0.00000E+00
 -1      4093 6.20538E+01 2.08980E+01 0.00000E+00
 -1      4094 1.30515E+02 2.72188E+01 0.00000E+00
 -1      4095 1.30515E+02 2.57437E+01 0.00000E+00
 -1      4096 1.29216E+02 2.50094E+01 0.00000E+00
 -1      4097 2.20692E+01 2.12448E+01 0.00000E+00
 -1      4098 2.20784E+01 2.27429E+01 0.00000E+00
 -1      4099 3.09000E+01 2.79170E+01 0.00000E+00
 -1      4100 3.24000E+01 2.79170E+01 0.00000E+00
 -1      4101 3.39000E+01 2.79170E+01 0.00000E+00
 -1      4102 3.54000E+01 2.79170E+01 0.00000E+00
 -1      4103 3.31500E+01 2.66180E+01 0.00000E+00
 -1      4104 3.69000E+01 2.79170E+01 0.00000E+00
 -1      4105 3.84000E+01 2.79170E+01 0.00000E+00
 -1      4106 3.61500E+01 2.66180E+01 0.00000E+00
 -1      4107 3.99000E+01 2.79170E+01 0.00000E+00
 -1      4108 4.14000E+01 2.79170E+01 0.00000E+00
 -1      4109 3.91500E+01 2.66180E+01 0.00000E+00
 -1      4110 4.29000E+01 2.79170E+01 0.00000E+00
 -1      4111 4.44000E+01 2.79170E+01 0.00000E+00
 -1      4112 4.21500E+01 2.66180E+01 0.00000E+00
 -1      4113 4.59000E+01 2.79170E+01 0.00000E+00
 -1      4114 4.74000E+01 2.79170E+01 0.00000E+00
 -1      4115 4.51500E+01 2.66180E+01 0.00000E+00
 -1      4116 4.89000E+01 2.79170E+01 0.00000E+00
 -1      4117 5.04000E+01 2.79170E+01 0.00000E+00
 -1      4118 4.81500E+01 2.66180E+01 0.00000E+00
 -1      4119 5.19000E+01 2.79170E+01 0.00000E+00
 -1      4120 5.34000E+01 2.79170E+01 0.00000E+00
 -1      4121 5.11500E+01 2.66180E+01 0.00000E+00
 -1      4122 5.49000E+01 2.79170E+01 0.00000E+00
 -1      4123 5.64000E+01 2.79170E+01 0.00000E+00
 -1      4124 5.41500E+01 2.66180E+01 0.00000E+00
 -1      4125 5.79000E+01 2.79170E+01 0.00000E+00
 -1      4126 5.94000E+01 2.79170E+01 0.00000E+00
 -1      4127 5.71500E+01 2.66180E+01 0.00000E+00
 -1      4128 1.97019E+01 1.99653E+01 0.00000E+00
 -1      4129 1.27917E+02 2.57453E+01 0.00000E+00
 -1      4130 1.27917E+02 2.42734E+01 0.00000E+00
 -1      4131 3.62850E+01 1.82952E+01 0.00000E+00
 -1      4132 3.47850E+01 1.82952E+01 0.00000E+00
 -1      4133 3.70350E+01 1.95942E+01 0.00000E+00
 -1      4134 1.15785E+02 2.08482E+01 0.00000E+00
 -1      4135 1.14285E+02 2.08482E+01 0.00000E+00
 -1      4136 1.14900E+02 2.79170E+01 0.00000E+00
 -1      4137 1.16400E+02 2.79170E+01 0.00000E+00
 -1      4138 1.17900E+02 2.79170E+01 0.00000E+00
 -1      4139 1.19400E+02 2.79170E+01 0.00000E+00
 -1      4140 1.17150E+02 2.66180E+01 0.00000E+00
 -1      4141 1.20900E+02 2.79170E+01 0.00000E+00
 -1      4142 1.22400E+02 2.79170E+01 0.00000E+00
 -1      4143 1.20150E+02 2.66180E+01 0.00000E+00
 -1      4144 6.31237E+01 2.76810E+01 0.00000E+00
 -1      4145 1.29183E+02 2.78486E+01 0.00000E+00
 -1      4146 1.05445E+02 2.12464E+01 0.00000E+00
 -1      4147 1.04762E+02 2.26760E+01 0.00000E+00
 -1      4148 1.05725E+02 2.40194E+01 0.00000E+00
 -1      4149 1.06932E+02 2.10393E+01 0.00000E+00
 -1      4150 2.03366E+01 1.82116E+01 0.00000E+00
 -1      4151 1.11900E+02 2.79170E+01 0.00000E+00
 -1      4152 1.13400E+02 2.79170E+01 0.00000E+00
 -1      4153 1.14150E+02 2.66180E+01 0.00000E+00
 -1      4154 1.95765E+01 2.56649E+01 0.00000E+00
 -1      4155 1.95765E+01 2.71337E+01 0.00000E+00
 -1      4156 2.10585E+01 2.77870E+01 0.00000E+00
 -1      4157 2.08755E+01 2.49290E+01 0.00000E+00
 -1      4158 1.24785E+02 2.08482E+01 0.00000E+00
 -1      4159 1.23285E+02 2.08482E+01 0.00000E+00
 -1      4160 5.57850E+01 2.08932E+01 0.00000E+00
 -1      4161 5.42850E+01 2.08932E+01 0.00000E+00
 -1      4162 4.52850E+01 1.82952E+01 0.00000E+00
 -1      4163 4.37850E+01 1.82952E+01 0.00000E+00
 -1      4164 4.30350E+01 1.95942E+01 0.00000E+00
 -1      4165 4.60350E+01 1.95942E+01 0.00000E+00
 -1      4166 2.79000E+01 2.79170E+01 0.00000E+00
 -1      4167 2.94000E+01 2.79170E+01 0.00000E+00
 -1      4168 3.01500E+01 2.66180E+01 0.00000E+00
 -1      4169 6.16237E+01 2.76810E+01 0.00000E+00
 -1      4170 1.12785E+02 2.08482E+01 0.00000E+00
 -1      4171 1.11285E+02 2.08482E+01 0.00000E+00
 -1      4172 1.13535E+02 2.21472E+01 0.00000E+00
 -1      4173 1.09858E+02 2.09437E+01 0.00000E+00
 -1      4174 1.08358E+02 2.09437E+01 0.00000E+00
 -1      4175 1.07755E+02 2.24338E+01 0.00000E+00
 -1      4176 1.10608E+02 2.22427E+01 0.00000E+00
 -1      4177 6.05538E+01 2.08980E+01 0.00000E+00
 -1      4178 1.18785E+02 2.08482E+01 0.00000E+00
 -1      4179 1.17285E+02 2.08482E+01 0.00000E+00
 -1      4180 1.16535E+02 2.21472E+01 0.00000E+00
 -1      4181 5.87850E+01 2.08932E+01 0.00000E+00
 -1      4182 5.72850E+01 2.08932E+01 0.00000E+00
 -1      4183 5.65350E+01 2.21922E+01 0.00000E+00
 -1      4184 1.27767E+02 2.81643E+01 0.00000E+00
 -1      4185 1.27800E+02 2.67970E+01 0.00000E+00
 -1      4186 1.26501E+02 2.60610E+01 0.00000E+00
 -1      4187 1.26267E+02 2.81643E+01 0.00000E+00
 -1      4188 1.21785E+02 2.08482E+01 0.00000E+00
 -1      4189 1.20285E+02 2.08482E+01 0.00000E+00
 -1      4190 1.22535E+02 2.21472E+01 0.00000E+00
 -1      4191 6.08737E+01 2.63820E+01 0.00000E+00
 -1      4192 2.14003E+01 1.87499E+01 0.00000E+00
 -1      4193 3.32850E+01 1.82952E+01 0.00000E+00
 -1      4194 3.17850E+01 1.82952E+01 0.00000E+00
 -1      4195 3.40350E+01 1.95942E+01 0.00000E+00
 -1      4196 5.27850E+01 2.08932E+01 0.00000E+00
 -1      4197 5.12850E+01 2.08932E+01 0.00000E+00
 -1      4198 5.35350E+01 2.21922E+01 0.00000E+00
 -1      4199 6.33120E+01 2.31661E+01 0.00000E+00
 -1      4200 1.08900E+02 2.79170E+01 0.00000E+00
 -1      4201 1.10400E+02 2.79170E+01 0.00000E+00
 -1      4202 1.11150E+02 2.66180E+01 0.00000E+00
 -1      4203 1.28723E+02 2.15335E+01 0.00000E+00
 -1      4204 2.34643E+01 2.34149E+01 0.00000E+00
 -1      4205 2.21699E+01 2.41719E+01 0.00000E+00
 -1      4206 2.22614E+01 2.56009E+01 0.00000E+00
 -1      4207 5.05350E+01 2.21922E+01 0.00000E+00
 -1      4208 4.97850E+01 2.08932E+01 0.00000E+00
 -1      4209 4.82850E+01 2.08932E+01 0.00000E+00
 -1      4210 2.21503E+01 2.00489E+01 0.00000E+00
 -1      4211 2.34539E+01 2.07901E+01 0.00000E+00
 -1      4212 3.10350E+01 1.95942E+01 0.00000E+00
 -1      4213 2.24099E+01 2.66940E+01 0.00000E+00
 -1      4214 2.25014E+01 2.81230E+01 0.00000E+00
 -1      4215 2.40014E+01 2.81230E+01 0.00000E+00
 -1      4216 2.37043E+01 2.59369E+01 0.00000E+00
 -1      4217 4.07850E+01 2.08932E+01 0.00000E+00
 -1      4218 3.92850E+01 2.08932E+01 0.00000E+00
 -1      4219 2.64539E+01 2.07901E+01 0.00000E+00
 -1      4220 2.49539E+01 2.07901E+01 0.00000E+00
 -1      4221 2.48728E+01 2.19859E+01 0.00000E+00
 -1      4222 5.98038E+01 2.21970E+01 0.00000E+00
 -1      4223 1.23900E+02 2.79170E+01 0.00000E+00
 -1      4224 1.25400E+02 2.79170E+01 0.00000E+00
 -1      4225 1.19535E+02 2.21472E+01 0.00000E+00
 -1      4226 2.94539E+01 2.07901E+01 0.00000E+00
 -1      4227 2.79539E+01 2.07901E+01 0.00000E+00
 -1      4228 2.78728E+01 2.19859E+01 0.00000E+00
 -1      4229 1.27646E+02 2.29084E+01 0.00000E+00
 -1      4230 1.27153E+02 2.09044E+01 0.00000E+00
 -1      4231 1.25806E+02 2.09143E+01 0.00000E+00
 -1      4232 1.26347E+02 2.36443E+01 0.00000E+00
 -1      4233 6.23351E+01 2.41739E+01 0.00000E+00
 -1      4234 4.37850E+01 2.08932E+01 0.00000E+00
 -1      4235 4.22850E+01 2.08932E+01 0.00000E+00
 -1      4236 4.15350E+01 2.21922E+01 0.00000E+00
 -1      4237 1.25056E+02 2.22133E+01 0.00000E+00
 -1      4238 1.07989E+02 2.45737E+01 0.00000E+00
 -1      4239 1.07386E+02 2.60637E+01 0.00000E+00
 -1      4240 1.06636E+02 2.73627E+01 0.00000E+00
 -1      4241 2.52007E+01 2.80200E+01 0.00000E+00
 -1      4242 2.67007E+01 2.80200E+01 0.00000E+00
 -1      4243 2.74507E+01 2.67210E+01 0.00000E+00
 -1      4244 2.50522E+01 2.69270E+01 0.00000E+00
 -1      4245 1.03670E+02 2.83369E+01 0.00000E+00
 -1      4246 6.01113E+01 2.44099E+01 0.00000E+00
 -1      4247 1.23150E+02 2.66180E+01 0.00000E+00
 -1      4248 1.16842E+02 2.43826E+01 0.00000E+00
 -1      4249 1.15342E+02 2.43826E+01 0.00000E+00
 -1      4250 3.24539E+01 2.07901E+01 0.00000E+00
 -1      4251 3.09539E+01 2.07901E+01 0.00000E+00
 -1      4252 3.08728E+01 2.19859E+01 0.00000E+00
 -1      4253 3.54000E+01 2.53190E+01 0.00000E+00
 -1      4254 3.69000E+01 2.53190E+01 0.00000E+00
 -1      4255 3.88425E+01 2.44051E+01 0.00000E+00
 -1      4256 4.03425E+01 2.44051E+01 0.00000E+00
 -1      4257 4.18425E+01 2.44051E+01 0.00000E+00
 -1      4258 4.33425E+01 2.44051E+01 0.00000E+00
 -1      4259 4.74000E+01 2.53190E+01 0.00000E+00
 -1      4260 4.89000E+01 2.53190E+01 0.00000E+00
 -1      4261 5.08425E+01 2.44051E+01 0.00000E+00
 -1      4262 5.23425E+01 2.44051E+01 0.00000E+00
 -1      4263 5.38425E+01 2.44051E+01 0.00000E+00
 -1      4264 5.53425E+01 2.44051E+01 0.00000E+00
 -1      4265 5.68425E+01 2.44051E+01 0.00000E+00
 -1      4266 5.83425E+01 2.44051E+01 0.00000E+00
 -1      4267 3.73425E+01 2.18071E+01 0.00000E+00
 -1      4268 3.58425E+01 2.18071E+01 0.00000E+00
 -1      4269 1.22842E+02 2.43826E+01 0.00000E+00
 -1      4270 1.21342E+02 2.43826E+01 0.00000E+00
 -1      4271 2.49643E+01 2.34149E+01 0.00000E+00
 -1      4272 1.13842E+02 2.43826E+01 0.00000E+00
 -1      4273 1.18342E+02 2.43826E+01 0.00000E+00
 -1      4274 1.19842E+02 2.43826E+01 0.00000E+00
 -1      4275 3.80925E+01 2.31061E+01 0.00000E+00
 -1      4276 1.12342E+02 2.43826E+01 0.00000E+00
 -1      4277 2.94000E+01 2.53190E+01 0.00000E+00
 -1      4278 3.09000E+01 2.53190E+01 0.00000E+00
 -1      4279 1.25517E+02 2.68653E+01 0.00000E+00
 -1      4280 3.24000E+01 2.53190E+01 0.00000E+00
 -1      4281 3.39000E+01 2.53190E+01 0.00000E+00
 -1      4282 3.46500E+01 2.40200E+01 0.00000E+00
 -1      4283 3.16500E+01 2.40200E+01 0.00000E+00
 -1      4284 4.67850E+01 2.08932E+01 0.00000E+00
 -1      4285 4.52850E+01 2.08932E+01 0.00000E+00
 -1      4286 4.75350E+01 2.21922E+01 0.00000E+00
 -1      4287 3.39539E+01 2.07901E+01 0.00000E+00
 -1      4288 1.05744E+02 2.84403E+01 0.00000E+00
 -1      4289 1.24342E+02 2.43826E+01 0.00000E+00
 -1      4290 1.10842E+02 2.43826E+01 0.00000E+00
 -1      4291 1.25634E+02 2.58137E+01 0.00000E+00
 -1      4292 4.44000E+01 2.53190E+01 0.00000E+00
 -1      4293 4.59000E+01 2.53190E+01 0.00000E+00
 -1      4294 2.64928E+01 2.32469E+01 0.00000E+00
 -1      4295 2.50843E+01 2.46759E+01 0.00000E+00
 -1      4296 2.52329E+01 2.57689E+01 0.00000E+00
 -1      4297 2.79928E+01 2.32469E+01 0.00000E+00
 -1      4298 1.25326E+02 2.35783E+01 0.00000E+00
 -1      4299 4.66500E+01 2.40200E+01 0.00000E+00
 -1      4300 4.45350E+01 2.21922E+01 0.00000E+00
 -1      4301 5.00925E+01 2.31061E+01 0.00000E+00
 -1      4302 1.09416E+02 2.44781E+01 0.00000E+00
 -1      4303 3.12614E+01 2.30029E+01 0.00000E+00
 -1      4304 2.97614E+01 2.30029E+01 0.00000E+00
 -1      4305 4.40925E+01 2.31061E+01 0.00000E+00
 -1      4306 3.27614E+01 2.30029E+01 0.00000E+00
 -1      4307 3.42614E+01 2.30029E+01 0.00000E+00
 -1      4308 2.64321E+01 2.56659E+01 0.00000E+00
 -1      4309 2.76314E+01 2.55630E+01 0.00000E+00
 -1      4310 2.83814E+01 2.42640E+01 0.00000E+00
 -1      4311 4.55925E+01 2.31061E+01 0.00000E+00
 -1      4312 4.70925E+01 2.31061E+01 0.00000E+00
 -1      4313 4.85925E+01 2.31061E+01 0.00000E+00
 -3
    3C                          2075                                     1
 -1       164    8    0    1
 -2         6         7        23      1120      1283      1137
 -1       165    8    0    1
 -2         7         8       164      1121      1284      1285
 -1       166    8    0    1
 -2         8         9       165      1122      1286      1287
 -1       167    8    0    1
 -2         8       165       164      1287      1288      1284
 -1       168    8    0    1
 -2         9        10       166      1123      1289      1290
 -1       169    8    0    1
 -2         9       166       165      1290      1291      1286
 -1       170    8    0    1
 -2        10        11       167      1124      1292      1293
 -1       171    8    0    1
 -2        10       167       166      1293      1294      1289
 -1       172    8    0    1
 -2        11        12       168      1125      1295      1296
 -1       173    8    0    1
 -2        11       168       167      1296      1297      1292
 -1       174    8    0    1
 -2        12        13       169      1126      1298      1299
 -1       175    8    0    1
 -2        12       169       168      1299      1300      1295
 -1       176    8    0    1
 -2        13        14       170      1127      1301      1302
 -1       177    8    0    1
 -2        13       170       169      1302      1303      1298
 -1       178    8    0    1
 -2        14        15       171      1128      1304      1305
 -1       179    8    0    1
 -2        14       171       170      1305      1306      1301
 -1       180    8    0    1
 -2        15        16       172      1129      1307      1308
 -1       181    8    0    1
 -2        15       172       171      1308      1309      1304
 -1       182    8    0    1
 -2        16        17       173      1130      1310      1311
 -1       183    8    0    1
 -2        16       173       172      1311      1312      1307
 -1       184    8    0    1
 -2        17        18       174      1131      1313      1314
 -1       185    8    0    1
 -2        17       174       173      1314      1315      1310
 -1       186    8    0    1
 -2        18        19       175      1132      1316      1317
 -1       187    8    0    1
 -2        18       175       174      1317      1318      1313
 -1       188    8    0    1
 -2        19        20       176      1133      1319      1320
 -1       189    8    0    1
 -2        19       176       175      1320      1321      1316
 -1       190    8    0    1
 -2        20        21       177      1134      1322      1323
 -1       191    8    0    1
 -2        20       177       176      1323      1324      1319
 -1       192    8    0    1
 -2        21        22       178      1135      1325      1326
 -1       193    8    0    1
 -2        21       178       177      1326      1327      1322
 -1       194    8    0    1
 -2        22         5       179      1136      1328      1329
 -1       195    8    0    1
 -2       178        22       179      1325      1329      1330
 -1       196    8    0    1
 -2         5        72       179      1187      1331      1328
 -1       197    8    0    1
 -2        24        23       180      1138      1332      1333
 -1       198    8    0    1
 -2        25        24       181      1139      1334      1335
 -1       199    8    0    1
 -2        24       180       181      1333      1336      1334
 -1       200    8    0    1
 -2        26        25       182      1140      1337      1338
 -1       201    8    0    1
 -2        25       181       182      1335      1339      1337
 -1       202    8    0    1
 -2        27        26       183      1141      1340      1341
 -1       203    8    0    1
 -2        26       182       183      1338      1342      1340
 -1       204    8    0    1
 -2        28        27       184      1142      1343      1344
 -1       205    8    0    1
 -2        27       183       184      1341      1345      1343
 -1       206    8    0    1
 -2        29        28       185      1143      1346      1347
 -1       207    8    0    1
 -2        28       184       185      1344      1348      1346
 -1       208    8    0    1
 -2        30        29       186      1144      1349      1350
 -1       209    8    0    1
 -2        29       185       186      1347      1351      1349
 -1       210    8    0    1
 -2        31        30       187      1145      1352      1353
 -1       211    8    0    1
 -2        30       186       187      1350      1354      1352
 -1       212    8    0    1
 -2        32        31       188      1146      1355      1356
 -1       213    8    0    1
 -2        31       187       188      1353      1357      1355
 -1       214    8    0    1
 -2        33        32       189      1147      1358      1359
 -1       215    8    0    1
 -2        32       188       189      1356      1360      1358
 -1       216    8    0    1
 -2        34        33       190      1148      1361      1362
 -1       217    8    0    1
 -2        33       189       190      1359      1363      1361
 -1       218    8    0    1
 -2        35        34       191      1149      1364      1365
 -1       219    8    0    1
 -2        34       190       191      1362      1366      1364
 -1       220    8    0    1
 -2        36        35       192      1150      1367      1368
 -1       221    8    0    1
 -2        35       191       192      1365      1369      1367
 -1       222    8    0    1
 -2        37        36       193      1151      1370      1371
 -1       223    8    0    1
 -2        36       192       193      1368      1372      1370
 -1       224    8    0    1
 -2        38        37       194      1152      1373      1374
 -1       225    8    0    1
 -2        37       193       194      1371      1375      1373
 -1       226    8    0    1
 -2        39        38       195      1153      1376      1377
 -1       227    8    0    1
 -2        38       194       195      1374      1378      1376
 -1       228    8    0    1
 -2        40        39       196      1154      1379      1380
 -1       229    8    0    1
 -2        39       195       196      1377      1381      1379
 -1       230    8    0    1
 -2        41        40       197      1155      1382      1383
 -1       231    8    0    1
 -2        40       196       197      1380      1384      1382
 -1       232    8    0    1
 -2        42        41       198      1156      1385      1386
 -1       233    8    0    1
 -2        41       197       198      1383      1387      1385
 -1       234    8    0    1
 -2        43        42       199      1157      1388      1389
 -1       235    8    0    1
 -2        42       198       199      1386      1390      1388
 -1       236    8    0    1
 -2        44        43       200      1158      1391      1392
 -1       237    8    0    1
 -2        43       199       200      1389      1393      1391
 -1       238    8    0    1
 -2        45        44       201      1159      1394      1395
 -1       239    8    0    1
 -2        44       200       201      1392      1396      1394
 -1       240    8    0    1
 -2        46        45       202      1160      1397      1398
 -1       241    8    0    1
 -2        45       201       202      1395      1399      1397
 -1       242    8    0    1
 -2        47        46       203      1161      1400      1401
 -1       243    8    0    1
 -2        46       202       203      1398      1402      1400
 -1       244    8    0    1
 -2        48        47       204      1162      1403      1404
 -1       245    8    0    1
 -2        47       203       204      1401      1405      1403
 -1       246    8    0    1
 -2        49        48       205      1163      1406      1407
 -1       247    8    0    1
 -2        48       204       205      1404      1408      1406
 -1       248    8    0    1
 -2        50        49       206      1164      1409      1410
 -1       249    8    0    1
 -2        49       205       206      1407      1411      1409
 -1       250    8    0    1
 -2        51        50       207      1165      1412      1413
 -1       251    8    0    1
 -2        50       206       207      1410      1414      1412
 -1       252    8    0    1
 -2        52        51       208      1166      1415      1416
 -1       253    8    0    1
 -2        51       207       208      1413      1417      1415
 -1       254    8    0    1
 -2        53        52       209      1167      1418      1419
 -1       255    8    0    1
 -2        52       208       209      1416      1420      1418
 -1       256    8    0    1
 -2        54        53       210      1168      1421      1422
 -1       257    8    0    1
 -2        53       209       210      1419      1423      1421
 -1       258    8    0    1
 -2        55        54       211      1169      1424      1425
 -1       259    8    0    1
 -2        54       210       211      1422      1426      1424
 -1       260    8    0    1
 -2        56        55       212      1170      1427      1428
 -1       261    8    0    1
 -2        55       211       212      1425      1429      1427
 -1       262    8    0    1
 -2        57        56       213      1171      1430      1431
 -1       263    8    0    1
 -2        56       212       213      1428      1432      1430
 -1       264    8    0    1
 -2        58        57       214      1172      1433      1434
 -1       265    8    0    1
 -2        57       213       214      1431      1435      1433
 -1       266    8    0    1
 -2        59        58       215      1173      1436      1437
 -1       267    8    0    1
 -2        58       214       215      1434      1438      1436
 -1       268    8    0    1
 -2        60        59       216      1174      1439      1440
 -1       269    8    0    1
 -2        59       215       216      1437      1441      1439
 -1       270    8    0    1
 -2        61        60       217      1175      1442      1443
 -1       271    8    0    1
 -2        60       216       217      1440      1444      1442
 -1       272    8    0    1
 -2        62        61       218      1176      1445      1446
 -1       273    8    0    1
 -2        61       217       218      1443      1447      1445
 -1       274    8    0    1
 -2        63        62       219      1177      1448      1449
 -1       275    8    0    1
 -2        62       218       219      1446      1450      1448
 -1       276    8    0    1
 -2        64        63       220      1178      1451      1452
 -1       277    8    0    1
 -2        63       219       220      1449      1453      1451
 -1       278    8    0    1
 -2        65        64       221      1179      1454      1455
 -1       279    8    0    1
 -2        64       220       221      1452      1456      1454
 -1       280    8    0    1
 -2        66        65       222      1180      1457      1458
 -1       281    8    0    1
 -2        65       221       222      1455      1459      1457
 -1       282    8    0    1
 -2        67        66       223      1181      1460      1461
 -1       283    8    0    1
 -2        66       222       223      1458      1462      1460
 -1       284    8    0    1
 -2        68        67       224      1182      1463      1464
 -1       285    8    0    1
 -2        67       223       224      1461      1465      1463
 -1       286    8    0    1
 -2        69        68       225      1183      1466      1467
 -1       287    8    0    1
 -2        68       224       225      1464      1468      1466
 -1       288    8    0    1
 -2        70        69       226      1184      1469      1470
 -1       289    8    0    1
 -2        69       225       226      1467      1471      1469
 -1       290    8    0    1
 -2        71        70       227      1185      1472      1473
 -1       291    8    0    1
 -2        70       226       227      1470      1474      1472
 -1       292    8    0    1
 -2         4        71       136      1186      1475      1253
 -1       293    8    0    1
 -2       136        71       227      1475      1473      1476
 -1       294    8    0    1
 -2        72        73       228      1188      1477      1478
 -1       295    8    0    1
 -2        72       228       179      1478      1479      1331
 -1       296    8    0    1
 -2        73        74       229      1189      1480      1481
 -1       297    8    0    1
 -2        73       229       228      1481      1482      1477
 -1       298    8    0    1
 -2        74        75       230      1190      1483      1484
 -1       299    8    0    1
 -2        74       230       229      1484      1485      1480
 -1       300    8    0    1
 -2        75        76       231      1191      1486      1487
 -1       301    8    0    1
 -2        75       231       230      1487      1488      1483
 -1       302    8    0    1
 -2        76        77       232      1192      1489      1490
 -1       303    8    0    1
 -2        76       232       231      1490      1491      1486
 -1       304    8    0    1
 -2        77        78       233      1193      1492      1493
 -1       305    8    0    1
 -2        77       233       232      1493      1494      1489
 -1       306    8    0    1
 -2        78        79       234      1194      1495      1496
 -1       307    8    0    1
 -2        78       234       233      1496      1497      1492
 -1       308    8    0    1
 -2        79        80       235      1195      1498      1499
 -1       309    8    0    1
 -2        79       235       234      1499      1500      1495
 -1       310    8    0    1
 -2        80        81       236      1196      1501      1502
 -1       311    8    0    1
 -2        80       236       235      1502      1503      1498
 -1       312    8    0    1
 -2        81        82       237      1197      1504      1505
 -1       313    8    0    1
 -2        81       237       236      1505      1506      1501
 -1       314    8    0    1
 -2        82        83       238      1198      1507      1508
 -1       315    8    0    1
 -2        82       238       237      1508      1509      1504
 -1       316    8    0    1
 -2        83        84       239      1199      1510      1511
 -1       317    8    0    1
 -2        83       239       238      1511      1512      1507
 -1       318    8    0    1
 -2        84        85       240      1200      1513      1514
 -1       319    8    0    1
 -2        84       240       239      1514      1515      1510
 -1       320    8    0    1
 -2        85        86       241      1201      1516      1517
 -1       321    8    0    1
 -2        85       241       240      1517      1518      1513
 -1       322    8    0    1
 -2        86        87       242      1202      1519      1520
 -1       323    8    0    1
 -2        86       242       241      1520      1521      1516
 -1       324    8    0    1
 -2        87        88       243      1203      1522      1523
 -1       325    8    0    1
 -2        87       243       242      1523      1524      1519
 -1       326    8    0    1
 -2        88        89       244      1204      1525      1526
 -1       327    8    0    1
 -2        88       244       243      1526      1527      1522
 -1       328    8    0    1
 -2        89        90       245      1205      1528      1529
 -1       329    8    0    1
 -2        89       245       244      1529      1530      1525
 -1       330    8    0    1
 -2        90        91       246      1206      1531      1532
 -1       331    8    0    1
 -2        90       246       245      1532      1533      1528
 -1       332    8    0    1
 -2        91        92       247      1207      1534      1535
 -1       333    8    0    1
 -2        91       247       246      1535      1536      1531
 -1       334    8    0    1
 -2        92        93       248      1208      1537      1538
 -1       335    8    0    1
 -2        92       248       247      1538      1539      1534
 -1       336    8    0    1
 -2        93        94       249      1209      1540      1541
 -1       337    8    0    1
 -2        93       249       248      1541      1542      1537
 -1       338    8    0    1
 -2        94        95       250      1210      1543      1544
 -1       339    8    0    1
 -2        94       250       249      1544      1545      1540
 -1       340    8    0    1
 -2        95        96       251      1211      1546      1547
 -1       341    8    0    1
 -2        95       251       250      1547      1548      1543
 -1       342    8    0    1
 -2        96        97       252      1212      1549      1550
 -1       343    8    0    1
 -2        96       252       251      1550      1551      1546
 -1       344    8    0    1
 -2        97        98       253      1213      1552      1553
 -1       345    8    0    1
 -2        97       253       252      1553      1554      1549
 -1       346    8    0    1
 -2        98        99       254      1214      1555      1556
 -1       347    8    0    1
 -2        98       254       253      1556      1557      1552
 -1       348    8    0    1
 -2        99       100       255      1215      1558      1559
 -1       349    8    0    1
 -2        99       255       254      1559      1560      1555
 -1       350    8    0    1
 -2       100       101       256      1216      1561      1562
 -1       351    8    0    1
 -2       100       256       255      1562      1563      1558
 -1       352    8    0    1
 -2       101       102       257      1217      1564      1565
 -1       353    8    0    1
 -2       101       257       256      1565      1566      1561
 -1       354    8    0    1
 -2       102       103       258      1218      1567      1568
 -1       355    8    0    1
 -2       102       258       257      1568      1569      1564
 -1       356    8    0    1
 -2       103       104       259      1219      1570      1571
 -1       357    8    0    1
 -2       103       259       258      1571      1572      1567
 -1       358    8    0    1
 -2       104       105       260      1220      1573      1574
 -1       359    8    0    1
 -2       104       260       259      1574      1575      1570
 -1       360    8    0    1
 -2       105       106       261      1221      1576      1577
 -1       361    8    0    1
 -2       105       261       260      1577      1578      1573
 -1       362    8    0    1
 -2       106       107       262      1222      1579      1580
 -1       363    8    0    1
 -2       106       262       261      1580      1581      1576
 -1       364    8    0    1
 -2       107       108       263      1223      1582      1583
 -1       365    8    0    1
 -2       107       263       262      1583      1584      1579
 -1       366    8    0    1
 -2       108       109       264      1224      1585      1586
 -1       367    8    0    1
 -2       108       264       263      1586      1587      1582
 -1       368    8    0    1
 -2       109       110       265      1225      1588      1589
 -1       369    8    0    1
 -2       109       265       264      1589      1590      1585
 -1       370    8    0    1
 -2       110       111       266      1226      1591      1592
 -1       371    8    0    1
 -2       110       266       265      1592      1593      1588
 -1       372    8    0    1
 -2       111       112       267      1227      1594      1595
 -1       373    8    0    1
 -2       111       267       266      1595      1596      1591
 -1       374    8    0    1
 -2       112       113       268      1228      1597      1598
 -1       375    8    0    1
 -2       112       268       267      1598      1599      1594
 -1       376    8    0    1
 -2       113       114       269      1229      1600      1601
 -1       377    8    0    1
 -2       113       269       268      1601      1602      1597
 -1       378    8    0    1
 -2       114       115       270      1230      1603      1604
 -1       379    8    0    1
 -2       114       270       269      1604      1605      1600
 -1       380    8    0    1
 -2       115       116       271      1231      1606      1607
 -1       381    8    0    1
 -2       115       271       270      1607      1608      1603
 -1       382    8    0    1
 -2       116       117       272      1232      1609      1610
 -1       383    8    0    1
 -2       116       272       271      1610      1611      1606
 -1       384    8    0    1
 -2       117       118       273      1233      1612      1613
 -1       385    8    0    1
 -2       117       273       272      1613      1614      1609
 -1       386    8    0    1
 -2       118       119       274      1234      1615      1616
 -1       387    8    0    1
 -2       118       274       273      1616      1617      1612
 -1       388    8    0    1
 -2       119       120       275      1235      1618      1619
 -1       389    8    0    1
 -2       119       275       274      1619      1620      1615
 -1       390    8    0    1
 -2       120         3       121      1236      1237      1621
 -1       391    8    0    1
 -2       121       122       276      1238      1622      1623
 -1       392    8    0    1
 -2       122       123       277      1239      1624      1625
 -1       393    8    0    1
 -2       122       277       276      1625      1626      1622
 -1       394    8    0    1
 -2       123       124       278      1240      1627      1628
 -1       395    8    0    1
 -2       123       278       277      1628      1629      1624
 -1       396    8    0    1
 -2       124       125       279      1241      1630      1631
 -1       397    8    0    1
 -2       124       279       278      1631      1632      1627
 -1       398    8    0    1
 -2       125       126       280      1242      1633      1634
 -1       399    8    0    1
 -2       125       280       279      1634      1635      1630
 -1       400    8    0    1
 -2       126       127       281      1243      1636      1637
 -1       401    8    0    1
 -2       126       281       280      1637      1638      1633
 -1       402    8    0    1
 -2       127       128       282      1244      1639      1640
 -1       403    8    0    1
 -2       127       282       281      1640      1641      1636
 -1       404    8    0    1
 -2       128       129       283      1245      1642      1643
 -1       405    8    0    1
 -2       128       283       282      1643      1644      1639
 -1       406    8    0    1
 -2       129       130       284      1246      1645      1646
 -1       407    8    0    1
 -2       129       284       283      1646      1647      1642
 -1       408    8    0    1
 -2       130       131       285      1247      1648      1649
 -1       409    8    0    1
 -2       130       285       284      1649      1650      1645
 -1       410    8    0    1
 -2       131       132       286      1248      1651      1652
 -1       411    8    0    1
 -2       131       286       285      1652      1653      1648
 -1       412    8    0    1
 -2       132       133       287      1249      1654      1655
 -1       413    8    0    1
 -2       132       287       286      1655      1656      1651
 -1       414    8    0    1
 -2       133       134       288      1250      1657      1658
 -1       415    8    0    1
 -2       133       288       287      1658      1659      1654
 -1       416    8    0    1
 -2       134       135       289      1251      1660      1661
 -1       417    8    0    1
 -2       134       289       288      1661      1662      1657
 -1       418    8    0    1
 -2       135       136       290      1252      1663      1664
 -1       419    8    0    1
 -2       289       135       290      1660      1664      1665
 -1       420    8    0    1
 -2       136       227       290      1476      1666      1663
 -1       421    8    0    1
 -2         2       137       291      1254      1667      1668
 -1       422    8    0    1
 -2       137       138       292      1255      1669      1670
 -1       423    8    0    1
 -2       138       139       293      1256      1671      1672
 -1       424    8    0    1
 -2       139       140       294      1257      1673      1674
 -1       425    8    0    1
 -2       140       141       295      1258      1675      1676
 -1       426    8    0    1
 -2       141       142       296      1259      1677      1678
 -1       427    8    0    1
 -2       142       143       297      1260      1679      1680
 -1       428    8    0    1
 -2       143       144       298      1261      1681      1682
 -1       429    8    0    1
 -2       144       145       299      1262      1683      1684
 -1       430    8    0    1
 -2       145       146       300      1263      1685      1686
 -1       431    8    0    1
 -2       146       147       301      1264      1687      1688
 -1       432    8    0    1
 -2       147       148       302      1265      1689      1690
 -1       433    8    0    1
 -2       148       149       303      1266      1691      1692
 -1       434    8    0    1
 -2       149       150       304      1267      1693      1694
 -1       435    8    0    1
 -2       150       151       305      1268      1695      1696
 -1       436    8    0    1
 -2       151       152       306      1269      1697      1698
 -1       437    8    0    1
 -2       152       153       307      1270      1699      1700
 -1       438    8    0    1
 -2       153       154       308      1271      1701      1702
 -1       439    8    0    1
 -2       154       155       309      1272      1703      1704
 -1       440    8    0    1
 -2       155       156       310      1273      1705      1706
 -1       441    8    0    1
 -2       156       157       311      1274      1707      1708
 -1       442    8    0    1
 -2       157         1       312      1275      1709      1710
 -1       443    8    0    1
 -2         1       158       313      1276      1711      1712
 -1       444    8    0    1
 -2       158       159       314      1277      1713      1714
 -1       445    8    0    1
 -2       159       160       315      1278      1715      1716
 -1       446    8    0    1
 -2       160       161       316      1279      1717      1718
 -1       447    8    0    1
 -2       161       162       317      1280      1719      1720
 -1       448    8    0    1
 -2       162       163       318      1281      1721      1722
 -1       449    8    0    1
 -2       163         2       319      1282      1723      1724
 -1       450    8    0    1
 -2       294       140       295      1673      1676      1725
 -1       451    8    0    1
 -2       293       139       294      1671      1674      1726
 -1       452    8    0    1
 -2       120       121       275      1621      1727      1618
 -1       453    8    0    1
 -2       121       276       275      1623      1728      1727
 -1       454    8    0    1
 -2       291       137       292      1667      1670      1729
 -1       455    8    0    1
 -2       292       138       293      1669      1672      1730
 -1       456    8    0    1
 -2         2       291       319      1668      1731      1723
 -1       457    8    0    1
 -2       141       296       295      1678      1732      1675
 -1       458    8    0    1
 -2       142       297       296      1680      1733      1677
 -1       459    8    0    1
 -2       143       298       297      1682      1734      1679
 -1       460    8    0    1
 -2       144       299       298      1684      1735      1681
 -1       461    8    0    1
 -2       145       300       299      1686      1736      1683
 -1       462    8    0    1
 -2       146       301       300      1688      1737      1685
 -1       463    8    0    1
 -2       147       302       301      1690      1738      1687
 -1       464    8    0    1
 -2       148       303       302      1692      1739      1689
 -1       465    8    0    1
 -2       149       304       303      1694      1740      1691
 -1       466    8    0    1
 -2       150       305       304      1696      1741      1693
 -1       467    8    0    1
 -2       151       306       305      1698      1742      1695
 -1       468    8    0    1
 -2       152       307       306      1700      1743      1697
 -1       469    8    0    1
 -2       153       308       307      1702      1744      1699
 -1       470    8    0    1
 -2       154       309       308      1704      1745      1701
 -1       471    8    0    1
 -2       155       310       309      1706      1746      1703
 -1       472    8    0    1
 -2       156       311       310      1708      1747      1705
 -1       473    8    0    1
 -2       157       312       311      1710      1748      1707
 -1       474    8    0    1
 -2         1       313       312      1712      1749      1709
 -1       475    8    0    1
 -2       158       314       313      1714      1750      1711
 -1       476    8    0    1
 -2       159       315       314      1716      1751      1713
 -1       477    8    0    1
 -2       160       316       315      1718      1752      1715
 -1       478    8    0    1
 -2       161       317       316      1720      1753      1717
 -1       479    8    0    1
 -2       162       318       317      1722      1754      1719
 -1       480    8    0    1
 -2       163       319       318      1724      1755      1721
 -1       481    8    0    1
 -2        23         7       164      1283      1285      1756
 -1       482    8    0    1
 -2       165       166       320      1291      1757      1758
 -1       483    8    0    1
 -2       164       165       321      1288      1759      1760
 -1       484    8    0    1
 -2       165       320       321      1758      1761      1759
 -1       485    8    0    1
 -2       167       168       322      1297      1762      1763
 -1       486    8    0    1
 -2       168       169       323      1300      1764      1765
 -1       487    8    0    1
 -2       168       323       322      1765      1766      1762
 -1       488    8    0    1
 -2       169       170       324      1303      1767      1768
 -1       489    8    0    1
 -2       169       324       323      1768      1769      1764
 -1       490    8    0    1
 -2       170       171       325      1306      1770      1771
 -1       491    8    0    1
 -2       170       325       324      1771      1772      1767
 -1       492    8    0    1
 -2       171       172       326      1309      1773      1774
 -1       493    8    0    1
 -2       171       326       325      1774      1775      1770
 -1       494    8    0    1
 -2       172       173       327      1312      1776      1777
 -1       495    8    0    1
 -2       172       327       326      1777      1778      1773
 -1       496    8    0    1
 -2       173       174       328      1315      1779      1780
 -1       497    8    0    1
 -2       173       328       327      1780      1781      1776
 -1       498    8    0    1
 -2       174       175       329      1318      1782      1783
 -1       499    8    0    1
 -2       174       329       328      1783      1784      1779
 -1       500    8    0    1
 -2       175       176       330      1321      1785      1786
 -1       501    8    0    1
 -2       175       330       329      1786      1787      1782
 -1       502    8    0    1
 -2       176       177       331      1324      1788      1789
 -1       503    8    0    1
 -2       176       331       330      1789      1790      1785
 -1       504    8    0    1
 -2       177       178       332      1327      1791      1792
 -1       505    8    0    1
 -2       177       332       331      1792      1793      1788
 -1       506    8    0    1
 -2       178       179       333      1330      1794      1795
 -1       507    8    0    1
 -2       332       178       333      1791      1795      1796
 -1       508    8    0    1
 -2       179       228       333      1479      1797      1794
 -1       509    8    0    1
 -2       180        23       164      1332      1756      1798
 -1       510    8    0    1
 -2       228       229       334      1482      1799      1800
 -1       511    8    0    1
 -2       228       334       333      1800      1801      1797
 -1       512    8    0    1
 -2       180       164       321      1798      1760      1802
 -1       513    8    0    1
 -2       182       181       335      1339      1803      1804
 -1       514    8    0    1
 -2       183       182       336      1342      1805      1806
 -1       515    8    0    1
 -2       182       335       336      1804      1807      1805
 -1       516    8    0    1
 -2       184       183       337      1345      1808      1809
 -1       517    8    0    1
 -2       183       336       337      1806      1810      1808
 -1       518    8    0    1
 -2       185       184       338      1348      1811      1812
 -1       519    8    0    1
 -2       184       337       338      1809      1813      1811
 -1       520    8    0    1
 -2       186       185       339      1351      1814      1815
 -1       521    8    0    1
 -2       185       338       339      1812      1816      1814
 -1       522    8    0    1
 -2       187       186       340      1354      1817      1818
 -1       523    8    0    1
 -2       186       339       340      1815      1819      1817
 -1       524    8    0    1
 -2       188       187       341      1357      1820      1821
 -1       525    8    0    1
 -2       187       340       341      1818      1822      1820
 -1       526    8    0    1
 -2       189       188       342      1360      1823      1824
 -1       527    8    0    1
 -2       188       341       342      1821      1825      1823
 -1       528    8    0    1
 -2       190       189       343      1363      1826      1827
 -1       529    8    0    1
 -2       189       342       343      1824      1828      1826
 -1       530    8    0    1
 -2       191       190       344      1366      1829      1830
 -1       531    8    0    1
 -2       190       343       344      1827      1831      1829
 -1       532    8    0    1
 -2       192       191       345      1369      1832      1833
 -1       533    8    0    1
 -2       191       344       345      1830      1834      1832
 -1       534    8    0    1
 -2       193       192       346      1372      1835      1836
 -1       535    8    0    1
 -2       192       345       346      1833      1837      1835
 -1       536    8    0    1
 -2       194       193       347      1375      1838      1839
 -1       537    8    0    1
 -2       193       346       347      1836      1840      1838
 -1       538    8    0    1
 -2       195       194       348      1378      1841      1842
 -1       539    8    0    1
 -2       194       347       348      1839      1843      1841
 -1       540    8    0    1
 -2       196       195       349      1381      1844      1845
 -1       541    8    0    1
 -2       195       348       349      1842      1846      1844
 -1       542    8    0    1
 -2       197       196       350      1384      1847      1848
 -1       543    8    0    1
 -2       196       349       350      1845      1849      1847
 -1       544    8    0    1
 -2       198       197       351      1387      1850      1851
 -1       545    8    0    1
 -2       197       350       351      1848      1852      1850
 -1       546    8    0    1
 -2       199       198       352      1390      1853      1854
 -1       547    8    0    1
 -2       198       351       352      1851      1855      1853
 -1       548    8    0    1
 -2       200       199       353      1393      1856      1857
 -1       549    8    0    1
 -2       199       352       353      1854      1858      1856
 -1       550    8    0    1
 -2       201       200       354      1396      1859      1860
 -1       551    8    0    1
 -2       200       353       354      1857      1861      1859
 -1       552    8    0    1
 -2       202       201       355      1399      1862      1863
 -1       553    8    0    1
 -2       201       354       355      1860      1864      1862
 -1       554    8    0    1
 -2       203       202       356      1402      1865      1866
 -1       555    8    0    1
 -2       202       355       356      1863      1867      1865
 -1       556    8    0    1
 -2       204       203       357      1405      1868      1869
 -1       557    8    0    1
 -2       203       356       357      1866      1870      1868
 -1       558    8    0    1
 -2       205       204       358      1408      1871      1872
 -1       559    8    0    1
 -2       204       357       358      1869      1873      1871
 -1       560    8    0    1
 -2       206       205       359      1411      1874      1875
 -1       561    8    0    1
 -2       205       358       359      1872      1876      1874
 -1       562    8    0    1
 -2       207       206       360      1414      1877      1878
 -1       563    8    0    1
 -2       206       359       360      1875      1879      1877
 -1       564    8    0    1
 -2       208       207       361      1417      1880      1881
 -1       565    8    0    1
 -2       207       360       361      1878      1882      1880
 -1       566    8    0    1
 -2       209       208       362      1420      1883      1884
 -1       567    8    0    1
 -2       208       361       362      1881      1885      1883
 -1       568    8    0    1
 -2       210       209       363      1423      1886      1887
 -1       569    8    0    1
 -2       209       362       363      1884      1888      1886
 -1       570    8    0    1
 -2       211       210       364      1426      1889      1890
 -1       571    8    0    1
 -2       210       363       364      1887      1891      1889
 -1       572    8    0    1
 -2       212       211       365      1429      1892      1893
 -1       573    8    0    1
 -2       211       364       365      1890      1894      1892
 -1       574    8    0    1
 -2       213       212       366      1432      1895      1896
 -1       575    8    0    1
 -2       212       365       366      1893      1897      1895
 -1       576    8    0    1
 -2       214       213       367      1435      1898      1899
 -1       577    8    0    1
 -2       213       366       367      1896      1900      1898
 -1       578    8    0    1
 -2       215       214       368      1438      1901      1902
 -1       579    8    0    1
 -2       214       367       368      1899      1903      1901
 -1       580    8    0    1
 -2       216       215       369      1441      1904      1905
 -1       581    8    0    1
 -2       215       368       369      1902      1906      1904
 -1       582    8    0    1
 -2       217       216       370      1444      1907      1908
 -1       583    8    0    1
 -2       216       369       370      1905      1909      1907
 -1       584    8    0    1
 -2       218       217       371      1447      1910      1911
 -1       585    8    0    1
 -2       217       370       371      1908      1912      1910
 -1       586    8    0    1
 -2       219       218       372      1450      1913      1914
 -1       587    8    0    1
 -2       218       371       372      1911      1915      1913
 -1       588    8    0    1
 -2       220       219       373      1453      1916      1917
 -1       589    8    0    1
 -2       219       372       373      1914      1918      1916
 -1       590    8    0    1
 -2       221       220       374      1456      1919      1920
 -1       591    8    0    1
 -2       220       373       374      1917      1921      1919
 -1       592    8    0    1
 -2       222       221       375      1459      1922      1923
 -1       593    8    0    1
 -2       221       374       375      1920      1924      1922
 -1       594    8    0    1
 -2       223       222       376      1462      1925      1926
 -1       595    8    0    1
 -2       222       375       376      1923      1927      1925
 -1       596    8    0    1
 -2       224       223       377      1465      1928      1929
 -1       597    8    0    1
 -2       223       376       377      1926      1930      1928
 -1       598    8    0    1
 -2       225       224       378      1468      1931      1932
 -1       599    8    0    1
 -2       224       377       378      1929      1933      1931
 -1       600    8    0    1
 -2       226       225       379      1471      1934      1935
 -1       601    8    0    1
 -2       225       378       379      1932      1936      1934
 -1       602    8    0    1
 -2       227       226       380      1474      1937      1938
 -1       603    8    0    1
 -2       290       227       380      1666      1938      1939
 -1       604    8    0    1
 -2       226       379       380      1935      1940      1937
 -1       605    8    0    1
 -2       229       230       381      1485      1941      1942
 -1       606    8    0    1
 -2       229       381       334      1942      1943      1799
 -1       607    8    0    1
 -2       230       231       382      1488      1944      1945
 -1       608    8    0    1
 -2       230       382       381      1945      1946      1941
 -1       609    8    0    1
 -2       231       232       383      1491      1947      1948
 -1       610    8    0    1
 -2       231       383       382      1948      1949      1944
 -1       611    8    0    1
 -2       232       233       384      1494      1950      1951
 -1       612    8    0    1
 -2       232       384       383      1951      1952      1947
 -1       613    8    0    1
 -2       233       234       385      1497      1953      1954
 -1       614    8    0    1
 -2       233       385       384      1954      1955      1950
 -1       615    8    0    1
 -2       234       235       386      1500      1956      1957
 -1       616    8    0    1
 -2       234       386       385      1957      1958      1953
 -1       617    8    0    1
 -2       235       236       387      1503      1959      1960
 -1       618    8    0    1
 -2       235       387       386      1960      1961      1956
 -1       619    8    0    1
 -2       236       237       388      1506      1962      1963
 -1       620    8    0    1
 -2       236       388       387      1963      1964      1959
 -1       621    8    0    1
 -2       237       238       389      1509      1965      1966
 -1       622    8    0    1
 -2       237       389       388      1966      1967      1962
 -1       623    8    0    1
 -2       238       239       390      1512      1968      1969
 -1       624    8    0    1
 -2       238       390       389      1969      1970      1965
 -1       625    8    0    1
 -2       239       240       391      1515      1971      1972
 -1       626    8    0    1
 -2       239       391       390      1972      1973      1968
 -1       627    8    0    1
 -2       240       241       392      1518      1974      1975
 -1       628    8    0    1
 -2       240       392       391      1975      1976      1971
 -1       629    8    0    1
 -2       241       242       393      1521      1977      1978
 -1       630    8    0    1
 -2       241       393       392      1978      1979      1974
 -1       631    8    0    1
 -2       242       243       394      1524      1980      1981
 -1       632    8    0    1
 -2       242       394       393      1981      1982      1977
 -1       633    8    0    1
 -2       243       244       395      1527      1983      1984
 -1       634    8    0    1
 -2       243       395       394      1984      1985      1980
 -1       635    8    0    1
 -2       244       245       396      1530      1986      1987
 -1       636    8    0    1
 -2       244       396       395      1987      1988      1983
 -1       637    8    0    1
 -2       245       246       397      1533      1989      1990
 -1       638    8    0    1
 -2       245       397       396      1990      1991      1986
 -1       639    8    0    1
 -2       246       247       398      1536      1992      1993
 -1       640    8    0    1
 -2       246       398       397      1993      1994      1989
 -1       641    8    0    1
 -2       247       248       399      1539      1995      1996
 -1       642    8    0    1
 -2       247       399       398      1996      1997      1992
 -1       643    8    0    1
 -2       248       249       400      1542      1998      1999
 -1       644    8    0    1
 -2       248       400       399      1999      2000      1995
 -1       645    8    0    1
 -2       249       250       401      1545      2001      2002
 -1       646    8    0    1
 -2       249       401       400      2002      2003      1998
 -1       647    8    0    1
 -2       250       251       402      1548      2004      2005
 -1       648    8    0    1
 -2       250       402       401      2005      2006      2001
 -1       649    8    0    1
 -2       251       252       403      1551      2007      2008
 -1       650    8    0    1
 -2       251       403       402      2008      2009      2004
 -1       651    8    0    1
 -2       252       253       404      1554      2010      2011
 -1       652    8    0    1
 -2       252       404       403      2011      2012      2007
 -1       653    8    0    1
 -2       253       254       405      1557      2013      2014
 -1       654    8    0    1
 -2       253       405       404      2014      2015      2010
 -1       655    8    0    1
 -2       254       255       406      1560      2016      2017
 -1       656    8    0    1
 -2       254       406       405      2017      2018      2013
 -1       657    8    0    1
 -2       255       256       407      1563      2019      2020
 -1       658    8    0    1
 -2       255       407       406      2020      2021      2016
 -1       659    8    0    1
 -2       256       257       408      1566      2022      2023
 -1       660    8    0    1
 -2       256       408       407      2023      2024      2019
 -1       661    8    0    1
 -2       257       258       409      1569      2025      2026
 -1       662    8    0    1
 -2       257       409       408      2026      2027      2022
 -1       663    8    0    1
 -2       258       259       410      1572      2028      2029
 -1       664    8    0    1
 -2       258       410       409      2029      2030      2025
 -1       665    8    0    1
 -2       259       260       411      1575      2031      2032
 -1       666    8    0    1
 -2       259       411       410      2032      2033      2028
 -1       667    8    0    1
 -2       260       261       412      1578      2034      2035
 -1       668    8    0    1
 -2       260       412       411      2035      2036      2031
 -1       669    8    0    1
 -2       261       262       413      1581      2037      2038
 -1       670    8    0    1
 -2       261       413       412      2038      2039      2034
 -1       671    8    0    1
 -2       262       263       414      1584      2040      2041
 -1       672    8    0    1
 -2       262       414       413      2041      2042      2037
 -1       673    8    0    1
 -2       263       264       415      1587      2043      2044
 -1       674    8    0    1
 -2       263       415       414      2044      2045      2040
 -1       675    8    0    1
 -2       264       265       416      1590      2046      2047
 -1       676    8    0    1
 -2       264       416       415      2047      2048      2043
 -1       677    8    0    1
 -2       265       266       417      1593      2049      2050
 -1       678    8    0    1
 -2       265       417       416      2050      2051      2046
 -1       679    8    0    1
 -2       266       267       418      1596      2052      2053
 -1       680    8    0    1
 -2       266       418       417      2053      2054      2049
 -1       681    8    0    1
 -2       267       268       419      1599      2055      2056
 -1       682    8    0    1
 -2       267       419       418      2056      2057      2052
 -1       683    8    0    1
 -2       268       269       420      1602      2058      2059
 -1       684    8    0    1
 -2       268       420       419      2059      2060      2055
 -1       685    8    0    1
 -2       269       270       421      1605      2061      2062
 -1       686    8    0    1
 -2       269       421       420      2062      2063      2058
 -1       687    8    0    1
 -2       270       271       422      1608      2064      2065
 -1       688    8    0    1
 -2       270       422       421      2065      2066      2061
 -1       689    8    0    1
 -2       271       272       423      1611      2067      2068
 -1       690    8    0    1
 -2       271       423       422      2068      2069      2064
 -1       691    8    0    1
 -2       272       273       424      1614      2070      2071
 -1       692    8    0    1
 -2       272       424       423      2071      2072      2067
 -1       693    8    0    1
 -2       273       274       425      1617      2073      2074
 -1       694    8    0    1
 -2       273       425       424      2074      2075      2070
 -1       695    8    0    1
 -2       274       275       426      1620      2076      2077
 -1       696    8    0    1
 -2       425       274       426      2073      2077      2078
 -1       697    8    0    1
 -2       275       276       426      1728      2079      2076
 -1       698    8    0    1
 -2       278       279       427      1632      2080      2081
 -1       699    8    0    1
 -2       277       278       428      1629      2082      2083
 -1       700    8    0    1
 -2       278       427       428      2081      2084      2082
 -1       701    8    0    1
 -2       276       277       429      1626      2085      2086
 -1       702    8    0    1
 -2       426       276       429      2079      2086      2087
 -1       703    8    0    1
 -2       277       428       429      2083      2088      2085
 -1       704    8    0    1
 -2       279       280       430      1635      2089      2090
 -1       705    8    0    1
 -2       279       430       427      2090      2091      2080
 -1       706    8    0    1
 -2       280       281       431      1638      2092      2093
 -1       707    8    0    1
 -2       280       431       430      2093      2094      2089
 -1       708    8    0    1
 -2       281       282       432      1641      2095      2096
 -1       709    8    0    1
 -2       281       432       431      2096      2097      2092
 -1       710    8    0    1
 -2       282       283       433      1644      2098      2099
 -1       711    8    0    1
 -2       282       433       432      2099      2100      2095
 -1       712    8    0    1
 -2       283       284       434      1647      2101      2102
 -1       713    8    0    1
 -2       283       434       433      2102      2103      2098
 -1       714    8    0    1
 -2       284       285       435      1650      2104      2105
 -1       715    8    0    1
 -2       284       435       434      2105      2106      2101
 -1       716    8    0    1
 -2       285       286       436      1653      2107      2108
 -1       717    8    0    1
 -2       285       436       435      2108      2109      2104
 -1       718    8    0    1
 -2       286       287       437      1656      2110      2111
 -1       719    8    0    1
 -2       286       437       436      2111      2112      2107
 -1       720    8    0    1
 -2       287       288       438      1659      2113      2114
 -1       721    8    0    1
 -2       287       438       437      2114      2115      2110
 -1       722    8    0    1
 -2       288       289       439      1662      2116      2117
 -1       723    8    0    1
 -2       288       439       438      2117      2118      2113
 -1       724    8    0    1
 -2       292       293       440      1730      2119      2120
 -1       725    8    0    1
 -2       319       291       441      1731      2121      2122
 -1       726    8    0    1
 -2       291       292       442      1729      2123      2124
 -1       727    8    0    1
 -2       292       440       442      2120      2125      2123
 -1       728    8    0    1
 -2       293       294       443      1726      2126      2127
 -1       729    8    0    1
 -2       294       295       444      1725      2128      2129
 -1       730    8    0    1
 -2       166       167       445      1294      2130      2131
 -1       731    8    0    1
 -2       320       166       445      1757      2131      2132
 -1       732    8    0    1
 -2       167       322       445      1763      2133      2130
 -1       733    8    0    1
 -2       296       297       446      1733      2134      2135
 -1       734    8    0    1
 -2       297       298       447      1734      2136      2137
 -1       735    8    0    1
 -2       297       447       446      2137      2138      2134
 -1       736    8    0    1
 -2       298       299       448      1735      2139      2140
 -1       737    8    0    1
 -2       299       300       449      1736      2141      2142
 -1       738    8    0    1
 -2       300       301       450      1737      2143      2144
 -1       739    8    0    1
 -2       300       450       449      2144      2145      2141
 -1       740    8    0    1
 -2       301       302       451      1738      2146      2147
 -1       741    8    0    1
 -2       302       303       452      1739      2148      2149
 -1       742    8    0    1
 -2       303       304       453      1740      2150      2151
 -1       743    8    0    1
 -2       304       305       454      1741      2152      2153
 -1       744    8    0    1
 -2       305       306       455      1742      2154      2155
 -1       745    8    0    1
 -2       306       307       456      1743      2156      2157
 -1       746    8    0    1
 -2       306       456       455      2157      2158      2154
 -1       747    8    0    1
 -2       307       308       457      1744      2159      2160
 -1       748    8    0    1
 -2       308       309       458      1745      2161      2162
 -1       749    8    0    1
 -2       309       310       459      1746      2163      2164
 -1       750    8    0    1
 -2       310       311       460      1747      2165      2166
 -1       751    8    0    1
 -2       310       460       459      2166      2167      2163
 -1       752    8    0    1
 -2       311       312       461      1748      2168      2169
 -1       753    8    0    1
 -2       312       313       462      1749      2170      2171
 -1       754    8    0    1
 -2       313       314       463      1750      2172      2173
 -1       755    8    0    1
 -2       314       315       464      1751      2174      2175
 -1       756    8    0    1
 -2       315       316       465      1752      2176      2177
 -1       757    8    0    1
 -2       316       317       466      1753      2178      2179
 -1       758    8    0    1
 -2       317       318       467      1754      2180      2181
 -1       759    8    0    1
 -2       318       319       468      1755      2182      2183
 -1       760    8    0    1
 -2       319       441       468      2122      2184      2182
 -1       761    8    0    1
 -2       295       296       469      1732      2185      2186
 -1       762    8    0    1
 -2       444       295       469      2128      2186      2187
 -1       763    8    0    1
 -2       180       321       181      1802      2188      1336
 -1       764    8    0    1
 -2       296       446       469      2135      2189      2185
 -1       765    8    0    1
 -2       335       181       321      1803      2188      2190
 -1       766    8    0    1
 -2       441       291       470      2121      2191      2192
 -1       767    8    0    1
 -2       291       442       470      2124      2193      2191
 -1       768    8    0    1
 -2       293       443       440      2127      2194      2119
 -1       769    8    0    1
 -2       439       289       290      2116      1665      2195
 -1       770    8    0    1
 -2       443       294       444      2126      2129      2196
 -1       771    8    0    1
 -2       467       318       468      2180      2183      2197
 -1       772    8    0    1
 -2       466       317       467      2178      2181      2198
 -1       773    8    0    1
 -2       465       316       466      2176      2179      2199
 -1       774    8    0    1
 -2       464       315       465      2174      2177      2200
 -1       775    8    0    1
 -2       463       314       464      2172      2175      2201
 -1       776    8    0    1
 -2       462       313       463      2170      2173      2202
 -1       777    8    0    1
 -2       460       311       471      2165      2203      2204
 -1       778    8    0    1
 -2       311       461       471      2169      2205      2203
 -1       779    8    0    1
 -2       458       309       459      2161      2164      2206
 -1       780    8    0    1
 -2       456       307       457      2156      2160      2207
 -1       781    8    0    1
 -2       454       305       455      2152      2155      2208
 -1       782    8    0    1
 -2       453       304       454      2150      2153      2209
 -1       783    8    0    1
 -2       452       303       453      2148      2151      2210
 -1       784    8    0    1
 -2       450       301       451      2143      2147      2211
 -1       785    8    0    1
 -2       298       448       447      2140      2212      2136
 -1       786    8    0    1
 -2       448       299       449      2139      2142      2213
 -1       787    8    0    1
 -2       451       302       452      2146      2149      2214
 -1       788    8    0    1
 -2       457       308       458      2159      2162      2215
 -1       789    8    0    1
 -2       461       312       462      2168      2171      2216
 -1       790    8    0    1
 -2       334       381       472      1943      2217      2218
 -1       791    8    0    1
 -2       323       324       473      1769      2219      2220
 -1       792    8    0    1
 -2       322       323       474      1766      2221      2222
 -1       793    8    0    1
 -2       323       473       474      2220      2223      2221
 -1       794    8    0    1
 -2       325       326       475      1775      2224      2225
 -1       795    8    0    1
 -2       326       327       476      1778      2226      2227
 -1       796    8    0    1
 -2       326       476       475      2227      2228      2224
 -1       797    8    0    1
 -2       327       328       477      1781      2229      2230
 -1       798    8    0    1
 -2       327       477       476      2230      2231      2226
 -1       799    8    0    1
 -2       328       329       478      1784      2232      2233
 -1       800    8    0    1
 -2       328       478       477      2233      2234      2229
 -1       801    8    0    1
 -2       329       330       479      1787      2235      2236
 -1       802    8    0    1
 -2       329       479       478      2236      2237      2232
 -1       803    8    0    1
 -2       330       331       480      1790      2238      2239
 -1       804    8    0    1
 -2       330       480       479      2239      2240      2235
 -1       805    8    0    1
 -2       381       382       481      1946      2241      2242
 -1       806    8    0    1
 -2       381       481       472      2242      2243      2217
 -1       807    8    0    1
 -2       336       335       482      1807      2244      2245
 -1       808    8    0    1
 -2       469       446       483      2189      2246      2247
 -1       809    8    0    1
 -2       337       336       484      1810      2248      2249
 -1       810    8    0    1
 -2       336       482       484      2245      2250      2248
 -1       811    8    0    1
 -2       338       337       485      1813      2251      2252
 -1       812    8    0    1
 -2       337       484       485      2249      2253      2251
 -1       813    8    0    1
 -2       339       338       486      1816      2254      2255
 -1       814    8    0    1
 -2       338       485       486      2252      2256      2254
 -1       815    8    0    1
 -2       340       339       487      1819      2257      2258
 -1       816    8    0    1
 -2       339       486       487      2255      2259      2257
 -1       817    8    0    1
 -2       341       340       488      1822      2260      2261
 -1       818    8    0    1
 -2       340       487       488      2258      2262      2260
 -1       819    8    0    1
 -2       342       341       489      1825      2263      2264
 -1       820    8    0    1
 -2       341       488       489      2261      2265      2263
 -1       821    8    0    1
 -2       343       342       490      1828      2266      2267
 -1       822    8    0    1
 -2       342       489       490      2264      2268      2266
 -1       823    8    0    1
 -2       344       343       491      1831      2269      2270
 -1       824    8    0    1
 -2       343       490       491      2267      2271      2269
 -1       825    8    0    1
 -2       345       344       492      1834      2272      2273
 -1       826    8    0    1
 -2       344       491       492      2270      2274      2272
 -1       827    8    0    1
 -2       346       345       493      1837      2275      2276
 -1       828    8    0    1
 -2       345       492       493      2273      2277      2275
 -1       829    8    0    1
 -2       347       346       494      1840      2278      2279
 -1       830    8    0    1
 -2       346       493       494      2276      2280      2278
 -1       831    8    0    1
 -2       348       347       495      1843      2281      2282
 -1       832    8    0    1
 -2       347       494       495      2279      2283      2281
 -1       833    8    0    1
 -2       349       348       496      1846      2284      2285
 -1       834    8    0    1
 -2       348       495       496      2282      2286      2284
 -1       835    8    0    1
 -2       350       349       497      1849      2287      2288
 -1       836    8    0    1
 -2       349       496       497      2285      2289      2287
 -1       837    8    0    1
 -2       351       350       498      1852      2290      2291
 -1       838    8    0    1
 -2       350       497       498      2288      2292      2290
 -1       839    8    0    1
 -2       352       351       499      1855      2293      2294
 -1       840    8    0    1
 -2       351       498       499      2291      2295      2293
 -1       841    8    0    1
 -2       353       352       500      1858      2296      2297
 -1       842    8    0    1
 -2       352       499       500      2294      2298      2296
 -1       843    8    0    1
 -2       354       353       501      1861      2299      2300
 -1       844    8    0    1
 -2       353       500       501      2297      2301      2299
 -1       845    8    0    1
 -2       355       354       502      1864      2302      2303
 -1       846    8    0    1
 -2       354       501       502      2300      2304      2302
 -1       847    8    0    1
 -2       356       355       503      1867      2305      2306
 -1       848    8    0    1
 -2       355       502       503      2303      2307      2305
 -1       849    8    0    1
 -2       357       356       504      1870      2308      2309
 -1       850    8    0    1
 -2       356       503       504      2306      2310      2308
 -1       851    8    0    1
 -2       358       357       505      1873      2311      2312
 -1       852    8    0    1
 -2       357       504       505      2309      2313      2311
 -1       853    8    0    1
 -2       359       358       506      1876      2314      2315
 -1       854    8    0    1
 -2       358       505       506      2312      2316      2314
 -1       855    8    0    1
 -2       360       359       507      1879      2317      2318
 -1       856    8    0    1
 -2       359       506       507      2315      2319      2317
 -1       857    8    0    1
 -2       361       360       508      1882      2320      2321
 -1       858    8    0    1
 -2       360       507       508      2318      2322      2320
 -1       859    8    0    1
 -2       362       361       509      1885      2323      2324
 -1       860    8    0    1
 -2       361       508       509      2321      2325      2323
 -1       861    8    0    1
 -2       363       362       510      1888      2326      2327
 -1       862    8    0    1
 -2       362       509       510      2324      2328      2326
 -1       863    8    0    1
 -2       364       363       511      1891      2329      2330
 -1       864    8    0    1
 -2       363       510       511      2327      2331      2329
 -1       865    8    0    1
 -2       365       364       512      1894      2332      2333
 -1       866    8    0    1
 -2       364       511       512      2330      2334      2332
 -1       867    8    0    1
 -2       366       365       513      1897      2335      2336
 -1       868    8    0    1
 -2       365       512       513      2333      2337      2335
 -1       869    8    0    1
 -2       367       366       514      1900      2338      2339
 -1       870    8    0    1
 -2       366       513       514      2336      2340      2338
 -1       871    8    0    1
 -2       368       367       515      1903      2341      2342
 -1       872    8    0    1
 -2       367       514       515      2339      2343      2341
 -1       873    8    0    1
 -2       369       368       516      1906      2344      2345
 -1       874    8    0    1
 -2       368       515       516      2342      2346      2344
 -1       875    8    0    1
 -2       370       369       517      1909      2347      2348
 -1       876    8    0    1
 -2       369       516       517      2345      2349      2347
 -1       877    8    0    1
 -2       371       370       518      1912      2350      2351
 -1       878    8    0    1
 -2       370       517       518      2348      2352      2350
 -1       879    8    0    1
 -2       372       371       519      1915      2353      2354
 -1       880    8    0    1
 -2       371       518       519      2351      2355      2353
 -1       881    8    0    1
 -2       373       372       520      1918      2356      2357
 -1       882    8    0    1
 -2       372       519       520      2354      2358      2356
 -1       883    8    0    1
 -2       374       373       521      1921      2359      2360
 -1       884    8    0    1
 -2       373       520       521      2357      2361      2359
 -1       885    8    0    1
 -2       375       374       522      1924      2362      2363
 -1       886    8    0    1
 -2       374       521       522      2360      2364      2362
 -1       887    8    0    1
 -2       376       375       523      1927      2365      2366
 -1       888    8    0    1
 -2       375       522       523      2363      2367      2365
 -1       889    8    0    1
 -2       377       376       524      1930      2368      2369
 -1       890    8    0    1
 -2       376       523       524      2366      2370      2368
 -1       891    8    0    1
 -2       378       377       525      1933      2371      2372
 -1       892    8    0    1
 -2       377       524       525      2369      2373      2371
 -1       893    8    0    1
 -2       379       378       526      1936      2374      2375
 -1       894    8    0    1
 -2       378       525       526      2372      2376      2374
 -1       895    8    0    1
 -2       442       440       527      2125      2377      2378
 -1       896    8    0    1
 -2       383       384       528      1952      2379      2380
 -1       897    8    0    1
 -2       384       385       529      1955      2381      2382
 -1       898    8    0    1
 -2       384       529       528      2382      2383      2379
 -1       899    8    0    1
 -2       385       386       530      1958      2384      2385
 -1       900    8    0    1
 -2       385       530       529      2385      2386      2381
 -1       901    8    0    1
 -2       386       387       531      1961      2387      2388
 -1       902    8    0    1
 -2       386       531       530      2388      2389      2384
 -1       903    8    0    1
 -2       387       388       532      1964      2390      2391
 -1       904    8    0    1
 -2       387       532       531      2391      2392      2387
 -1       905    8    0    1
 -2       388       389       533      1967      2393      2394
 -1       906    8    0    1
 -2       388       533       532      2394      2395      2390
 -1       907    8    0    1
 -2       389       390       534      1970      2396      2397
 -1       908    8    0    1
 -2       389       534       533      2397      2398      2393
 -1       909    8    0    1
 -2       390       391       535      1973      2399      2400
 -1       910    8    0    1
 -2       390       535       534      2400      2401      2396
 -1       911    8    0    1
 -2       391       392       536      1976      2402      2403
 -1       912    8    0    1
 -2       391       536       535      2403      2404      2399
 -1       913    8    0    1
 -2       392       393       537      1979      2405      2406
 -1       914    8    0    1
 -2       392       537       536      2406      2407      2402
 -1       915    8    0    1
 -2       393       394       538      1982      2408      2409
 -1       916    8    0    1
 -2       393       538       537      2409      2410      2405
 -1       917    8    0    1
 -2       394       395       539      1985      2411      2412
 -1       918    8    0    1
 -2       394       539       538      2412      2413      2408
 -1       919    8    0    1
 -2       395       396       540      1988      2414      2415
 -1       920    8    0    1
 -2       395       540       539      2415      2416      2411
 -1       921    8    0    1
 -2       396       397       541      1991      2417      2418
 -1       922    8    0    1
 -2       396       541       540      2418      2419      2414
 -1       923    8    0    1
 -2       397       398       542      1994      2420      2421
 -1       924    8    0    1
 -2       397       542       541      2421      2422      2417
 -1       925    8    0    1
 -2       398       399       543      1997      2423      2424
 -1       926    8    0    1
 -2       398       543       542      2424      2425      2420
 -1       927    8    0    1
 -2       399       400       544      2000      2426      2427
 -1       928    8    0    1
 -2       399       544       543      2427      2428      2423
 -1       929    8    0    1
 -2       400       401       545      2003      2429      2430
 -1       930    8    0    1
 -2       400       545       544      2430      2431      2426
 -1       931    8    0    1
 -2       401       402       546      2006      2432      2433
 -1       932    8    0    1
 -2       401       546       545      2433      2434      2429
 -1       933    8    0    1
 -2       402       403       547      2009      2435      2436
 -1       934    8    0    1
 -2       402       547       546      2436      2437      2432
 -1       935    8    0    1
 -2       403       404       548      2012      2438      2439
 -1       936    8    0    1
 -2       403       548       547      2439      2440      2435
 -1       937    8    0    1
 -2       404       405       549      2015      2441      2442
 -1       938    8    0    1
 -2       404       549       548      2442      2443      2438
 -1       939    8    0    1
 -2       405       406       550      2018      2444      2445
 -1       940    8    0    1
 -2       405       550       549      2445      2446      2441
 -1       941    8    0    1
 -2       406       407       551      2021      2447      2448
 -1       942    8    0    1
 -2       406       551       550      2448      2449      2444
 -1       943    8    0    1
 -2       407       408       552      2024      2450      2451
 -1       944    8    0    1
 -2       407       552       551      2451      2452      2447
 -1       945    8    0    1
 -2       408       409       553      2027      2453      2454
 -1       946    8    0    1
 -2       408       553       552      2454      2455      2450
 -1       947    8    0    1
 -2       409       410       554      2030      2456      2457
 -1       948    8    0    1
 -2       409       554       553      2457      2458      2453
 -1       949    8    0    1
 -2       410       411       555      2033      2459      2460
 -1       950    8    0    1
 -2       410       555       554      2460      2461      2456
 -1       951    8    0    1
 -2       411       412       556      2036      2462      2463
 -1       952    8    0    1
 -2       411       556       555      2463      2464      2459
 -1       953    8    0    1
 -2       412       413       557      2039      2465      2466
 -1       954    8    0    1
 -2       412       557       556      2466      2467      2462
 -1       955    8    0    1
 -2       413       414       558      2042      2468      2469
 -1       956    8    0    1
 -2       413       558       557      2469      2470      2465
 -1       957    8    0    1
 -2       414       415       559      2045      2471      2472
 -1       958    8    0    1
 -2       414       559       558      2472      2473      2468
 -1       959    8    0    1
 -2       415       416       560      2048      2474      2475
 -1       960    8    0    1
 -2       415       560       559      2475      2476      2471
 -1       961    8    0    1
 -2       416       417       561      2051      2477      2478
 -1       962    8    0    1
 -2       416       561       560      2478      2479      2474
 -1       963    8    0    1
 -2       417       418       562      2054      2480      2481
 -1       964    8    0    1
 -2       417       562       561      2481      2482      2477
 -1       965    8    0    1
 -2       418       419       563      2057      2483      2484
 -1       966    8    0    1
 -2       418       563       562      2484      2485      2480
 -1       967    8    0    1
 -2       419       420       564      2060      2486      2487
 -1       968    8    0    1
 -2       419       564       563      2487      2488      2483
 -1       969    8    0    1
 -2       420       421       565      2063      2489      2490
 -1       970    8    0    1
 -2       420       565       564      2490      2491      2486
 -1       971    8    0    1
 -2       421       422       566      2066      2492      2493
 -1       972    8    0    1
 -2       421       566       565      2493      2494      2489
 -1       973    8    0    1
 -2       422       423       567      2069      2495      2496
 -1       974    8    0    1
 -2       422       567       566      2496      2497      2492
 -1       975    8    0    1
 -2       423       424       568      2072      2498      2499
 -1       976    8    0    1
 -2       423       568       567      2499      2500      2495
 -1       977    8    0    1
 -2       424       425       569      2075      2501      2502
 -1       978    8    0    1
 -2       424       569       568      2502      2503      2498
 -1       979    8    0    1
 -2       425       426       429      2078      2087      2504
 -1       980    8    0    1
 -2       430       431       570      2094      2505      2506
 -1       981    8    0    1
 -2       431       432       571      2097      2507      2508
 -1       982    8    0    1
 -2       431       571       570      2508      2509      2505
 -1       983    8    0    1
 -2       428       427       572      2084      2510      2511
 -1       984    8    0    1
 -2       427       430       573      2091      2512      2513
 -1       985    8    0    1
 -2       572       427       573      2510      2513      2514
 -1       986    8    0    1
 -2       430       570       573      2506      2515      2512
 -1       987    8    0    1
 -2       432       433       574      2100      2516      2517
 -1       988    8    0    1
 -2       432       574       571      2517      2518      2507
 -1       989    8    0    1
 -2       433       434       575      2103      2519      2520
 -1       990    8    0    1
 -2       433       575       574      2520      2521      2516
 -1       991    8    0    1
 -2       434       435       576      2106      2522      2523
 -1       992    8    0    1
 -2       434       576       575      2523      2524      2519
 -1       993    8    0    1
 -2       435       436       577      2109      2525      2526
 -1       994    8    0    1
 -2       435       577       576      2526      2527      2522
 -1       995    8    0    1
 -2       436       437       578      2112      2528      2529
 -1       996    8    0    1
 -2       436       578       577      2529      2530      2525
 -1       997    8    0    1
 -2       437       438       579      2115      2531      2532
 -1       998    8    0    1
 -2       437       579       578      2532      2533      2528
 -1       999    8    0    1
 -2       438       439       580      2118      2534      2535
 -1      1000    8    0    1
 -2       438       580       579      2535      2536      2531
 -1      1001    8    0    1
 -2       439       290       380      2195      1939      2537
 -1      1002    8    0    1
 -2       443       444       581      2196      2538      2539
 -1      1003    8    0    1
 -2       382       383       582      1949      2540      2541
 -1      1004    8    0    1
 -2       383       528       582      2380      2542      2540
 -1      1005    8    0    1
 -2       440       443       583      2194      2543      2544
 -1      1006    8    0    1
 -2       467       468       584      2197      2545      2546
 -1      1007    8    0    1
 -2       468       441       585      2184      2547      2548
 -1      1008    8    0    1
 -2       468       585       584      2548      2549      2545
 -1      1009    8    0    1
 -2       458       459       586      2206      2550      2551
 -1      1010    8    0    1
 -2       454       455       587      2208      2552      2553
 -1      1011    8    0    1
 -2       447       448       588      2212      2554      2555
 -1      1012    8    0    1
 -2       324       325       589      1772      2556      2557
 -1      1013    8    0    1
 -2       473       324       589      2219      2557      2558
 -1      1014    8    0    1
 -2       325       475       589      2225      2559      2556
 -1      1015    8    0    1
 -2       448       449       590      2213      2560      2561
 -1      1016    8    0    1
 -2       446       447       591      2138      2562      2563
 -1      1017    8    0    1
 -2       451       452       592      2214      2564      2565
 -1      1018    8    0    1
 -2       449       450       593      2145      2566      2567
 -1      1019    8    0    1
 -2       457       458       594      2215      2568      2569
 -1      1020    8    0    1
 -2       450       451       595      2211      2570      2571
 -1      1021    8    0    1
 -2       450       595       593      2571      2572      2566
 -1      1022    8    0    1
 -2       452       453       596      2210      2573      2574
 -1      1023    8    0    1
 -2       452       596       592      2574      2575      2564
 -1      1024    8    0    1
 -2       453       454       597      2209      2576      2577
 -1      1025    8    0    1
 -2       455       456       598      2158      2578      2579
 -1      1026    8    0    1
 -2       461       462       599      2216      2580      2581
 -1      1027    8    0    1
 -2       456       457       600      2207      2582      2583
 -1      1028    8    0    1
 -2       459       460       601      2167      2584      2585
 -1      1029    8    0    1
 -2       459       601       586      2585      2586      2550
 -1      1030    8    0    1
 -2       462       463       602      2202      2587      2588
 -1      1031    8    0    1
 -2       462       602       599      2588      2589      2580
 -1      1032    8    0    1
 -2       463       464       603      2201      2590      2591
 -1      1033    8    0    1
 -2       464       465       604      2200      2592      2593
 -1      1034    8    0    1
 -2       464       604       603      2593      2594      2590
 -1      1035    8    0    1
 -2       465       466       605      2199      2595      2596
 -1      1036    8    0    1
 -2       466       467       606      2198      2597      2598
 -1      1037    8    0    1
 -2       335       321       607      2190      2599      2600
 -1      1038    8    0    1
 -2       482       335       607      2244      2600      2601
 -1      1039    8    0    1
 -2       321       320       607      1761      2602      2599
 -1      1040    8    0    1
 -2       333       334       608      1801      2603      2604
 -1      1041    8    0    1
 -2       332       333       608      1796      2604      2605
 -1      1042    8    0    1
 -2       334       472       608      2218      2606      2603
 -1      1043    8    0    1
 -2       444       469       609      2187      2607      2608
 -1      1044    8    0    1
 -2       444       609       581      2608      2609      2538
 -1      1045    8    0    1
 -2       448       590       588      2561      2610      2554
 -1      1046    8    0    1
 -2       322       474       610      2222      2611      2612
 -1      1047    8    0    1
 -2       322       610       445      2612      2613      2133
 -1      1048    8    0    1
 -2       481       382       582      2241      2541      2614
 -1      1049    8    0    1
 -2       331       332       608      1793      2605      2615
 -1      1050    8    0    1
 -2       609       469       483      2607      2247      2616
 -1      1051    8    0    1
 -2       607       320       445      2602      2132      2617
 -1      1052    8    0    1
 -2       606       467       611      2597      2618      2619
 -1      1053    8    0    1
 -2       467       584       611      2546      2620      2618
 -1      1054    8    0    1
 -2       604       465       605      2592      2596      2621
 -1      1055    8    0    1
 -2       470       442       527      2193      2378      2622
 -1      1056    8    0    1
 -2       443       581       583      2539      2623      2543
 -1      1057    8    0    1
 -2       527       440       583      2377      2544      2624
 -1      1058    8    0    1
 -2       425       429       569      2504      2625      2501
 -1      1059    8    0    1
 -2       458       586       594      2551      2626      2568
 -1      1060    8    0    1
 -2       429       428       569      2088      2627      2625
 -1      1061    8    0    1
 -2       601       460       612      2584      2628      2629
 -1      1062    8    0    1
 -2       460       471       612      2204      2630      2628
 -1      1063    8    0    1
 -2       439       380       613      2537      2631      2632
 -1      1064    8    0    1
 -2       580       439       613      2534      2632      2633
 -1      1065    8    0    1
 -2       380       379       613      1940      2634      2631
 -1      1066    8    0    1
 -2       600       457       594      2582      2569      2635
 -1      1067    8    0    1
 -2       463       603       614      2591      2636      2637
 -1      1068    8    0    1
 -2       463       614       602      2637      2638      2587
 -1      1069    8    0    1
 -2       331       608       480      2615      2639      2238
 -1      1070    8    0    1
 -2       441       470       615      2192      2640      2641
 -1      1071    8    0    1
 -2       441       615       585      2641      2642      2547
 -1      1072    8    0    1
 -2       598       456       600      2578      2583      2643
 -1      1073    8    0    1
 -2       595       451       592      2570      2565      2644
 -1      1074    8    0    1
 -2       569       428       572      2627      2511      2645
 -1      1075    8    0    1
 -2       453       597       596      2577      2646      2573
 -1      1076    8    0    1
 -2       471       461       616      2205      2647      2648
 -1      1077    8    0    1
 -2       461       599       616      2581      2649      2647
 -1      1078    8    0    1
 -2       454       587       597      2553      2650      2576
 -1      1079    8    0    1
 -2       587       455       598      2552      2579      2651
 -1      1080    8    0    1
 -2       447       588       591      2555      2652      2562
 -1      1081    8    0    1
 -2       483       446       591      2246      2563      2653
 -1      1082    8    0    1
 -2       449       593       590      2567      2654      2560
 -1      1083    8    0    1
 -2       605       466       606      2595      2598      2655
 -1      1084    8    0    1
 -2       613       379       526      2634      2375      2656
 -1      1085    8    0    1
 -2       476       477       617      2231      2657      2658
 -1      1086    8    0    1
 -2       475       476       618      2228      2659      2660
 -1      1087    8    0    1
 -2       476       617       618      2658      2661      2659
 -1      1088    8    0    1
 -2       478       479       619      2237      2662      2663
 -1      1089    8    0    1
 -2       479       480       620      2240      2664      2665
 -1      1090    8    0    1
 -2       479       620       619      2665      2666      2662
 -1      1091    8    0    1
 -2       472       481       621      2243      2667      2668
 -1      1092    8    0    1
 -2       481       582       622      2614      2669      2670
 -1      1093    8    0    1
 -2       481       622       621      2670      2671      2667
 -1      1094    8    0    1
 -2       608       472       480      2606      2672      2639
 -1      1095    8    0    1
 -2       607       445       610      2617      2613      2673
 -1      1096    8    0    1
 -2       485       484       623      2253      2674      2675
 -1      1097    8    0    1
 -2       486       485       624      2256      2676      2677
 -1      1098    8    0    1
 -2       485       623       624      2675      2678      2676
 -1      1099    8    0    1
 -2       487       486       625      2259      2679      2680
 -1      1100    8    0    1
 -2       486       624       625      2677      2681      2679
 -1      1101    8    0    1
 -2       488       487       626      2262      2682      2683
 -1      1102    8    0    1
 -2       487       625       626      2680      2684      2682
 -1      1103    8    0    1
 -2       489       488       627      2265      2685      2686
 -1      1104    8    0    1
 -2       488       626       627      2683      2687      2685
 -1      1105    8    0    1
 -2       490       489       628      2268      2688      2689
 -1      1106    8    0    1
 -2       489       627       628      2686      2690      2688
 -1      1107    8    0    1
 -2       491       490       629      2271      2691      2692
 -1      1108    8    0    1
 -2       490       628       629      2689      2693      2691
 -1      1109    8    0    1
 -2       492       491       630      2274      2694      2695
 -1      1110    8    0    1
 -2       491       629       630      2692      2696      2694
 -1      1111    8    0    1
 -2       493       492       631      2277      2697      2698
 -1      1112    8    0    1
 -2       492       630       631      2695      2699      2697
 -1      1113    8    0    1
 -2       494       493       632      2280      2700      2701
 -1      1114    8    0    1
 -2       493       631       632      2698      2702      2700
 -1      1115    8    0    1
 -2       495       494       633      2283      2703      2704
 -1      1116    8    0    1
 -2       494       632       633      2701      2705      2703
 -1      1117    8    0    1
 -2       496       495       634      2286      2706      2707
 -1      1118    8    0    1
 -2       495       633       634      2704      2708      2706
 -1      1119    8    0    1
 -2       497       496       635      2289      2709      2710
 -1      1120    8    0    1
 -2       496       634       635      2707      2711      2709
 -1      1121    8    0    1
 -2       498       497       636      2292      2712      2713
 -1      1122    8    0    1
 -2       497       635       636      2710      2714      2712
 -1      1123    8    0    1
 -2       499       498       637      2295      2715      2716
 -1      1124    8    0    1
 -2       498       636       637      2713      2717      2715
 -1      1125    8    0    1
 -2       500       499       638      2298      2718      2719
 -1      1126    8    0    1
 -2       499       637       638      2716      2720      2718
 -1      1127    8    0    1
 -2       501       500       639      2301      2721      2722
 -1      1128    8    0    1
 -2       500       638       639      2719      2723      2721
 -1      1129    8    0    1
 -2       502       501       640      2304      2724      2725
 -1      1130    8    0    1
 -2       501       639       640      2722      2726      2724
 -1      1131    8    0    1
 -2       503       502       641      2307      2727      2728
 -1      1132    8    0    1
 -2       502       640       641      2725      2729      2727
 -1      1133    8    0    1
 -2       504       503       642      2310      2730      2731
 -1      1134    8    0    1
 -2       503       641       642      2728      2732      2730
 -1      1135    8    0    1
 -2       505       504       643      2313      2733      2734
 -1      1136    8    0    1
 -2       504       642       643      2731      2735      2733
 -1      1137    8    0    1
 -2       506       505       644      2316      2736      2737
 -1      1138    8    0    1
 -2       505       643       644      2734      2738      2736
 -1      1139    8    0    1
 -2       507       506       645      2319      2739      2740
 -1      1140    8    0    1
 -2       506       644       645      2737      2741      2739
 -1      1141    8    0    1
 -2       508       507       646      2322      2742      2743
 -1      1142    8    0    1
 -2       507       645       646      2740      2744      2742
 -1      1143    8    0    1
 -2       509       508       647      2325      2745      2746
 -1      1144    8    0    1
 -2       508       646       647      2743      2747      2745
 -1      1145    8    0    1
 -2       510       509       648      2328      2748      2749
 -1      1146    8    0    1
 -2       509       647       648      2746      2750      2748
 -1      1147    8    0    1
 -2       511       510       649      2331      2751      2752
 -1      1148    8    0    1
 -2       510       648       649      2749      2753      2751
 -1      1149    8    0    1
 -2       512       511       650      2334      2754      2755
 -1      1150    8    0    1
 -2       511       649       650      2752      2756      2754
 -1      1151    8    0    1
 -2       513       512       651      2337      2757      2758
 -1      1152    8    0    1
 -2       512       650       651      2755      2759      2757
 -1      1153    8    0    1
 -2       514       513       652      2340      2760      2761
 -1      1154    8    0    1
 -2       513       651       652      2758      2762      2760
 -1      1155    8    0    1
 -2       515       514       653      2343      2763      2764
 -1      1156    8    0    1
 -2       514       652       653      2761      2765      2763
 -1      1157    8    0    1
 -2       516       515       654      2346      2766      2767
 -1      1158    8    0    1
 -2       515       653       654      2764      2768      2766
 -1      1159    8    0    1
 -2       517       516       655      2349      2769      2770
 -1      1160    8    0    1
 -2       516       654       655      2767      2771      2769
 -1      1161    8    0    1
 -2       518       517       656      2352      2772      2773
 -1      1162    8    0    1
 -2       517       655       656      2770      2774      2772
 -1      1163    8    0    1
 -2       519       518       657      2355      2775      2776
 -1      1164    8    0    1
 -2       518       656       657      2773      2777      2775
 -1      1165    8    0    1
 -2       520       519       658      2358      2778      2779
 -1      1166    8    0    1
 -2       519       657       658      2776      2780      2778
 -1      1167    8    0    1
 -2       521       520       659      2361      2781      2782
 -1      1168    8    0    1
 -2       520       658       659      2779      2783      2781
 -1      1169    8    0    1
 -2       522       521       660      2364      2784      2785
 -1      1170    8    0    1
 -2       521       659       660      2782      2786      2784
 -1      1171    8    0    1
 -2       523       522       661      2367      2787      2788
 -1      1172    8    0    1
 -2       522       660       661      2785      2789      2787
 -1      1173    8    0    1
 -2       524       523       662      2370      2790      2791
 -1      1174    8    0    1
 -2       523       661       662      2788      2792      2790
 -1      1175    8    0    1
 -2       525       524       663      2373      2793      2794
 -1      1176    8    0    1
 -2       524       662       663      2791      2795      2793
 -1      1177    8    0    1
 -2       526       525       664      2376      2796      2797
 -1      1178    8    0    1
 -2       525       663       664      2794      2798      2796
 -1      1179    8    0    1
 -2       600       594       665      2635      2799      2800
 -1      1180    8    0    1
 -2       528       529       666      2383      2801      2802
 -1      1181    8    0    1
 -2       531       532       667      2392      2803      2804
 -1      1182    8    0    1
 -2       532       533       668      2395      2805      2806
 -1      1183    8    0    1
 -2       532       668       667      2806      2807      2803
 -1      1184    8    0    1
 -2       533       534       669      2398      2808      2809
 -1      1185    8    0    1
 -2       533       669       668      2809      2810      2805
 -1      1186    8    0    1
 -2       534       535       670      2401      2811      2812
 -1      1187    8    0    1
 -2       534       670       669      2812      2813      2808
 -1      1188    8    0    1
 -2       535       536       671      2404      2814      2815
 -1      1189    8    0    1
 -2       535       671       670      2815      2816      2811
 -1      1190    8    0    1
 -2       536       537       672      2407      2817      2818
 -1      1191    8    0    1
 -2       536       672       671      2818      2819      2814
 -1      1192    8    0    1
 -2       537       538       673      2410      2820      2821
 -1      1193    8    0    1
 -2       537       673       672      2821      2822      2817
 -1      1194    8    0    1
 -2       538       539       674      2413      2823      2824
 -1      1195    8    0    1
 -2       538       674       673      2824      2825      2820
 -1      1196    8    0    1
 -2       539       540       675      2416      2826      2827
 -1      1197    8    0    1
 -2       539       675       674      2827      2828      2823
 -1      1198    8    0    1
 -2       540       541       676      2419      2829      2830
 -1      1199    8    0    1
 -2       540       676       675      2830      2831      2826
 -1      1200    8    0    1
 -2       541       542       677      2422      2832      2833
 -1      1201    8    0    1
 -2       541       677       676      2833      2834      2829
 -1      1202    8    0    1
 -2       542       543       678      2425      2835      2836
 -1      1203    8    0    1
 -2       542       678       677      2836      2837      2832
 -1      1204    8    0    1
 -2       543       544       679      2428      2838      2839
 -1      1205    8    0    1
 -2       543       679       678      2839      2840      2835
 -1      1206    8    0    1
 -2       544       545       680      2431      2841      2842
 -1      1207    8    0    1
 -2       544       680       679      2842      2843      2838
 -1      1208    8    0    1
 -2       545       546       681      2434      2844      2845
 -1      1209    8    0    1
 -2       545       681       680      2845      2846      2841
 -1      1210    8    0    1
 -2       546       547       682      2437      2847      2848
 -1      1211    8    0    1
 -2       546       682       681      2848      2849      2844
 -1      1212    8    0    1
 -2       547       548       683      2440      2850      2851
 -1      1213    8    0    1
 -2       547       683       682      2851      2852      2847
 -1      1214    8    0    1
 -2       548       549       590      2443      2853      2854
 -1      1215    8    0    1
 -2       549       550       588      2446      2855      2856
 -1      1216    8    0    1
 -2       551       552       684      2452      2857      2858
 -1      1217    8    0    1
 -2       552       553       685      2455      2859      2860
 -1      1218    8    0    1
 -2       552       685       684      2860      2861      2857
 -1      1219    8    0    1
 -2       553       554       686      2458      2862      2863
 -1      1220    8    0    1
 -2       553       686       685      2863      2864      2859
 -1      1221    8    0    1
 -2       554       555       687      2461      2865      2866
 -1      1222    8    0    1
 -2       554       687       686      2866      2867      2862
 -1      1223    8    0    1
 -2       555       556       688      2464      2868      2869
 -1      1224    8    0    1
 -2       555       688       687      2869      2870      2865
 -1      1225    8    0    1
 -2       556       557       689      2467      2871      2872
 -1      1226    8    0    1
 -2       556       689       688      2872      2873      2868
 -1      1227    8    0    1
 -2       557       558       690      2470      2874      2875
 -1      1228    8    0    1
 -2       557       690       689      2875      2876      2871
 -1      1229    8    0    1
 -2       558       559       691      2473      2877      2878
 -1      1230    8    0    1
 -2       558       691       690      2878      2879      2874
 -1      1231    8    0    1
 -2       559       560       692      2476      2880      2881
 -1      1232    8    0    1
 -2       559       692       691      2881      2882      2877
 -1      1233    8    0    1
 -2       560       561       693      2479      2883      2884
 -1      1234    8    0    1
 -2       560       693       692      2884      2885      2880
 -1      1235    8    0    1
 -2       561       562       694      2482      2886      2887
 -1      1236    8    0    1
 -2       561       694       693      2887      2888      2883
 -1      1237    8    0    1
 -2       562       563       695      2485      2889      2890
 -1      1238    8    0    1
 -2       562       695       694      2890      2891      2886
 -1      1239    8    0    1
 -2       563       564       696      2488      2892      2893
 -1      1240    8    0    1
 -2       563       696       695      2893      2894      2889
 -1      1241    8    0    1
 -2       564       565       697      2491      2895      2896
 -1      1242    8    0    1
 -2       564       697       696      2896      2897      2892
 -1      1243    8    0    1
 -2       565       566       698      2494      2898      2899
 -1      1244    8    0    1
 -2       565       698       697      2899      2900      2895
 -1      1245    8    0    1
 -2       566       567       699      2497      2901      2902
 -1      1246    8    0    1
 -2       566       699       698      2902      2903      2898
 -1      1247    8    0    1
 -2       567       568       700      2500      2904      2905
 -1      1248    8    0    1
 -2       567       700       699      2905      2906      2901
 -1      1249    8    0    1
 -2       568       569       701      2503      2907      2908
 -1      1250    8    0    1
 -2       700       568       701      2904      2908      2909
 -1      1251    8    0    1
 -2       569       572       701      2645      2910      2907
 -1      1252    8    0    1
 -2       594       586       702      2626      2911      2912
 -1      1253    8    0    1
 -2       574       575       703      2521      2913      2914
 -1      1254    8    0    1
 -2       596       597       704      2646      2915      2916
 -1      1255    8    0    1
 -2       570       571       705      2509      2917      2918
 -1      1256    8    0    1
 -2       575       576       706      2524      2919      2920
 -1      1257    8    0    1
 -2       575       706       703      2920      2921      2913
 -1      1258    8    0    1
 -2       571       574       707      2518      2922      2923
 -1      1259    8    0    1
 -2       705       571       707      2917      2923      2924
 -1      1260    8    0    1
 -2       574       703       707      2914      2925      2922
 -1      1261    8    0    1
 -2       576       577       708      2527      2926      2927
 -1      1262    8    0    1
 -2       576       708       706      2927      2928      2919
 -1      1263    8    0    1
 -2       577       578       709      2530      2929      2930
 -1      1264    8    0    1
 -2       577       709       708      2930      2931      2926
 -1      1265    8    0    1
 -2       578       579       710      2533      2932      2933
 -1      1266    8    0    1
 -2       578       710       709      2933      2934      2929
 -1      1267    8    0    1
 -2       582       528       711      2542      2935      2936
 -1      1268    8    0    1
 -2       622       582       711      2669      2936      2937
 -1      1269    8    0    1
 -2       528       666       711      2802      2938      2935
 -1      1270    8    0    1
 -2       527       583       712      2624      2939      2940
 -1      1271    8    0    1
 -2       604       605       713      2621      2941      2942
 -1      1272    8    0    1
 -2       584       585       714      2549      2943      2944
 -1      1273    8    0    1
 -2       599       602       715      2589      2945      2946
 -1      1274    8    0    1
 -2       592       596       716      2575      2947      2948
 -1      1275    8    0    1
 -2       588       550       717      2855      2949      2950
 -1      1276    8    0    1
 -2       591       588       717      2652      2950      2951
 -1      1277    8    0    1
 -2       550       551       717      2449      2952      2949
 -1      1278    8    0    1
 -2       598       600       718      2643      2953      2954
 -1      1279    8    0    1
 -2       530       531       719      2389      2955      2956
 -1      1280    8    0    1
 -2       531       667       719      2804      2957      2955
 -1      1281    8    0    1
 -2       529       530       720      2386      2958      2959
 -1      1282    8    0    1
 -2       530       719       720      2956      2960      2958
 -1      1283    8    0    1
 -2       484       482       721      2250      2961      2962
 -1      1284    8    0    1
 -2       484       721       623      2962      2963      2674
 -1      1285    8    0    1
 -2       609       483       722      2616      2964      2965
 -1      1286    8    0    1
 -2       590       593       683      2654      2966      2967
 -1      1287    8    0    1
 -2       477       478       723      2234      2968      2969
 -1      1288    8    0    1
 -2       617       477       723      2657      2969      2970
 -1      1289    8    0    1
 -2       478       619       723      2663      2971      2968
 -1      1290    8    0    1
 -2       474       473       724      2223      2972      2973
 -1      1291    8    0    1
 -2       587       598       725      2651      2974      2975
 -1      1292    8    0    1
 -2       597       587       726      2650      2976      2977
 -1      1293    8    0    1
 -2       605       606       727      2655      2978      2979
 -1      1294    8    0    1
 -2       595       592       728      2644      2980      2981
 -1      1295    8    0    1
 -2       586       601       729      2586      2982      2983
 -1      1296    8    0    1
 -2       583       581       730      2623      2984      2985
 -1      1297    8    0    1
 -2       581       609       731      2609      2986      2987
 -1      1298    8    0    1
 -2       580       613       732      2633      2988      2989
 -1      1299    8    0    1
 -2       613       526       732      2656      2990      2988
 -1      1300    8    0    1
 -2       470       527       733      2622      2991      2992
 -1      1301    8    0    1
 -2       603       604       734      2594      2993      2994
 -1      1302    8    0    1
 -2       604       713       734      2942      2995      2993
 -1      1303    8    0    1
 -2       548       590       683      2854      2967      2850
 -1      1304    8    0    1
 -2       590       549       588      2853      2856      2610
 -1      1305    8    0    1
 -2       610       474       735      2611      2996      2997
 -1      1306    8    0    1
 -2       474       724       735      2973      2998      2996
 -1      1307    8    0    1
 -2       475       618       736      2660      2999      3000
 -1      1308    8    0    1
 -2       475       736       589      3000      3001      2559
 -1      1309    8    0    1
 -2       480       472       621      2672      2668      3002
 -1      1310    8    0    1
 -2       585       615       714      2642      3003      2943
 -1      1311    8    0    1
 -2       732       526       664      2990      2797      3004
 -1      1312    8    0    1
 -2       731       609       722      2986      2965      3005
 -1      1313    8    0    1
 -2       611       584       714      2620      2944      3006
 -1      1314    8    0    1
 -2       730       581       731      2984      2987      3007
 -1      1315    8    0    1
 -2       666       529       720      2801      2959      3008
 -1      1316    8    0    1
 -2       729       601       612      2982      2629      3009
 -1      1317    8    0    1
 -2       728       592       716      2980      2948      3010
 -1      1318    8    0    1
 -2       727       606       737      2978      3011      3012
 -1      1319    8    0    1
 -2       606       611       737      2619      3013      3011
 -1      1320    8    0    1
 -2       665       594       738      2799      3014      3015
 -1      1321    8    0    1
 -2       594       702       738      2912      3016      3014
 -1      1322    8    0    1
 -2       726       587       725      2976      2975      3017
 -1      1323    8    0    1
 -2       527       712       739      2940      3018      3019
 -1      1324    8    0    1
 -2       527       739       733      3019      3020      2991
 -1      1325    8    0    1
 -2       551       684       717      2858      3021      2952
 -1      1326    8    0    1
 -2       598       718       725      2954      3022      2974
 -1      1327    8    0    1
 -2       702       586       729      2911      2983      3023
 -1      1328    8    0    1
 -2       701       572       740      2910      3024      3025
 -1      1329    8    0    1
 -2       572       573       740      2514      3026      3024
 -1      1330    8    0    1
 -2       596       704       716      2916      3027      2947
 -1      1331    8    0    1
 -2       683       593       741      2966      3028      3029
 -1      1332    8    0    1
 -2       682       683       741      2852      3029      3030
 -1      1333    8    0    1
 -2       593       595       741      2572      3031      3028
 -1      1334    8    0    1
 -2       612       471       742      2630      3032      3033
 -1      1335    8    0    1
 -2       471       616       742      2648      3034      3032
 -1      1336    8    0    1
 -2       579       580       732      2536      2989      3035
 -1      1337    8    0    1
 -2       713       605       727      2941      2979      3036
 -1      1338    8    0    1
 -2       614       603       743      2636      3037      3038
 -1      1339    8    0    1
 -2       603       734       743      2994      3039      3037
 -1      1340    8    0    1
 -2       715       602       614      2945      2638      3040
 -1      1341    8    0    1
 -2       615       470       733      2640      2992      3041
 -1      1342    8    0    1
 -2       599       715       744      2946      3042      3043
 -1      1343    8    0    1
 -2       599       744       616      3043      3044      2649
 -1      1344    8    0    1
 -2       704       597       745      2915      3045      3046
 -1      1345    8    0    1
 -2       597       726       745      2977      3047      3045
 -1      1346    8    0    1
 -2       480       621       620      3002      3048      2664
 -1      1347    8    0    1
 -2       600       665       718      2800      3049      2953
 -1      1348    8    0    1
 -2       573       570       746      2515      3050      3051
 -1      1349    8    0    1
 -2       740       573       746      3026      3051      3052
 -1      1350    8    0    1
 -2       570       705       746      2918      3053      3050
 -1      1351    8    0    1
 -2       473       589       747      2558      3054      3055
 -1      1352    8    0    1
 -2       724       473       747      2972      3055      3056
 -1      1353    8    0    1
 -2       589       736       747      3001      3057      3054
 -1      1354    8    0    1
 -2       483       591       748      2653      3058      3059
 -1      1355    8    0    1
 -2       712       583       730      2939      2985      3060
 -1      1356    8    0    1
 -2       579       732       749      3035      3061      3062
 -1      1357    8    0    1
 -2       710       579       749      2932      3062      3063
 -1      1358    8    0    1
 -2       732       664       749      3004      3064      3061
 -1      1359    8    0    1
 -2       595       728       741      2981      3065      3031
 -1      1360    8    0    1
 -2       607       610       750      2673      3066      3067
 -1      1361    8    0    1
 -2       482       607       750      2601      3067      3068
 -1      1362    8    0    1
 -2       610       735       750      2997      3069      3066
 -1      1363    8    0    1
 -2       482       750       721      3068      3070      2961
 -1      1364    8    0    1
 -2       714       615       751      3003      3071      3072
 -1      1365    8    0    1
 -2       619       620       752      2666      3073      3074
 -1      1366    8    0    1
 -2       734       713       753      2995      3075      3076
 -1      1367    8    0    1
 -2       624       623       754      2678      3077      3078
 -1      1368    8    0    1
 -2       611       714       755      3006      3079      3080
 -1      1369    8    0    1
 -2       483       748       722      3059      3081      2964
 -1      1370    8    0    1
 -2       731       722       756      3005      3082      3083
 -1      1371    8    0    1
 -2       625       624       757      2681      3084      3085
 -1      1372    8    0    1
 -2       624       754       757      3078      3086      3084
 -1      1373    8    0    1
 -2       626       625       758      2684      3087      3088
 -1      1374    8    0    1
 -2       625       757       758      3085      3089      3087
 -1      1375    8    0    1
 -2       627       626       759      2687      3090      3091
 -1      1376    8    0    1
 -2       626       758       759      3088      3092      3090
 -1      1377    8    0    1
 -2       628       627       760      2690      3093      3094
 -1      1378    8    0    1
 -2       627       759       760      3091      3095      3093
 -1      1379    8    0    1
 -2       629       628       761      2693      3096      3097
 -1      1380    8    0    1
 -2       628       760       761      3094      3098      3096
 -1      1381    8    0    1
 -2       630       629       762      2696      3099      3100
 -1      1382    8    0    1
 -2       629       761       762      3097      3101      3099
 -1      1383    8    0    1
 -2       631       630       763      2699      3102      3103
 -1      1384    8    0    1
 -2       630       762       763      3100      3104      3102
 -1      1385    8    0    1
 -2       632       631       764      2702      3105      3106
 -1      1386    8    0    1
 -2       631       763       764      3103      3107      3105
 -1      1387    8    0    1
 -2       633       632       765      2705      3108      3109
 -1      1388    8    0    1
 -2       632       764       765      3106      3110      3108
 -1      1389    8    0    1
 -2       634       633       766      2708      3111      3112
 -1      1390    8    0    1
 -2       633       765       766      3109      3113      3111
 -1      1391    8    0    1
 -2       635       634       767      2711      3114      3115
 -1      1392    8    0    1
 -2       634       766       767      3112      3116      3114
 -1      1393    8    0    1
 -2       636       635       768      2714      3117      3118
 -1      1394    8    0    1
 -2       635       767       768      3115      3119      3117
 -1      1395    8    0    1
 -2       637       636       769      2717      3120      3121
 -1      1396    8    0    1
 -2       636       768       769      3118      3122      3120
 -1      1397    8    0    1
 -2       638       637       770      2720      3123      3124
 -1      1398    8    0    1
 -2       637       769       770      3121      3125      3123
 -1      1399    8    0    1
 -2       639       638       771      2723      3126      3127
 -1      1400    8    0    1
 -2       638       770       771      3124      3128      3126
 -1      1401    8    0    1
 -2       640       639       772      2726      3129      3130
 -1      1402    8    0    1
 -2       639       771       772      3127      3131      3129
 -1      1403    8    0    1
 -2       641       640       773      2729      3132      3133
 -1      1404    8    0    1
 -2       640       772       773      3130      3134      3132
 -1      1405    8    0    1
 -2       642       641       774      2732      3135      3136
 -1      1406    8    0    1
 -2       641       773       774      3133      3137      3135
 -1      1407    8    0    1
 -2       643       642       775      2735      3138      3139
 -1      1408    8    0    1
 -2       642       774       775      3136      3140      3138
 -1      1409    8    0    1
 -2       644       643       776      2738      3141      3142
 -1      1410    8    0    1
 -2       643       775       776      3139      3143      3141
 -1      1411    8    0    1
 -2       646       645       777      2744      3144      3145
 -1      1412    8    0    1
 -2       647       646       778      2747      3146      3147
 -1      1413    8    0    1
 -2       648       647       743      2750      3148      3149
 -1      1414    8    0    1
 -2       649       648       753      2753      3150      3151
 -1      1415    8    0    1
 -2       651       650       779      2759      3152      3153
 -1      1416    8    0    1
 -2       652       651       780      2762      3154      3155
 -1      1417    8    0    1
 -2       651       779       780      3153      3156      3154
 -1      1418    8    0    1
 -2       653       652       781      2765      3157      3158
 -1      1419    8    0    1
 -2       652       780       781      3155      3159      3157
 -1      1420    8    0    1
 -2       654       653       782      2768      3160      3161
 -1      1421    8    0    1
 -2       653       781       782      3158      3162      3160
 -1      1422    8    0    1
 -2       655       654       783      2771      3163      3164
 -1      1423    8    0    1
 -2       654       782       783      3161      3165      3163
 -1      1424    8    0    1
 -2       656       655       784      2774      3166      3167
 -1      1425    8    0    1
 -2       655       783       784      3164      3168      3166
 -1      1426    8    0    1
 -2       657       656       785      2777      3169      3170
 -1      1427    8    0    1
 -2       656       784       785      3167      3171      3169
 -1      1428    8    0    1
 -2       658       657       786      2780      3172      3173
 -1      1429    8    0    1
 -2       657       785       786      3170      3174      3172
 -1      1430    8    0    1
 -2       659       658       787      2783      3175      3176
 -1      1431    8    0    1
 -2       658       786       787      3173      3177      3175
 -1      1432    8    0    1
 -2       660       659       788      2786      3178      3179
 -1      1433    8    0    1
 -2       659       787       788      3176      3180      3178
 -1      1434    8    0    1
 -2       661       660       789      2789      3181      3182
 -1      1435    8    0    1
 -2       660       788       789      3179      3183      3181
 -1      1436    8    0    1
 -2       662       661       790      2792      3184      3185
 -1      1437    8    0    1
 -2       661       789       790      3182      3186      3184
 -1      1438    8    0    1
 -2       663       662       791      2795      3187      3188
 -1      1439    8    0    1
 -2       662       790       791      3185      3189      3187
 -1      1440    8    0    1
 -2       664       663       792      2798      3190      3191
 -1      1441    8    0    1
 -2       749       664       792      3064      3191      3192
 -1      1442    8    0    1
 -2       663       791       792      3188      3193      3190
 -1      1443    8    0    1
 -2       728       716       793      3010      3194      3195
 -1      1444    8    0    1
 -2       729       612       794      3009      3196      3197
 -1      1445    8    0    1
 -2       667       668       795      2807      3198      3199
 -1      1446    8    0    1
 -2       670       671       796      2816      3200      3201
 -1      1447    8    0    1
 -2       671       672       797      2819      3202      3203
 -1      1448    8    0    1
 -2       671       797       796      3203      3204      3200
 -1      1449    8    0    1
 -2       672       673       798      2822      3205      3206
 -1      1450    8    0    1
 -2       672       798       797      3206      3207      3202
 -1      1451    8    0    1
 -2       673       674       799      2825      3208      3209
 -1      1452    8    0    1
 -2       673       799       798      3209      3210      3205
 -1      1453    8    0    1
 -2       674       675       800      2828      3211      3212
 -1      1454    8    0    1
 -2       674       800       799      3212      3213      3208
 -1      1455    8    0    1
 -2       675       676       801      2831      3214      3215
 -1      1456    8    0    1
 -2       675       801       800      3215      3216      3211
 -1      1457    8    0    1
 -2       676       677       802      2834      3217      3218
 -1      1458    8    0    1
 -2       676       802       801      3218      3219      3214
 -1      1459    8    0    1
 -2       677       678       803      2837      3220      3221
 -1      1460    8    0    1
 -2       677       803       802      3221      3222      3217
 -1      1461    8    0    1
 -2       678       679       804      2840      3223      3224
 -1      1462    8    0    1
 -2       678       804       803      3224      3225      3220
 -1      1463    8    0    1
 -2       679       680       805      2843      3226      3227
 -1      1464    8    0    1
 -2       679       805       804      3227      3228      3223
 -1      1465    8    0    1
 -2       680       681       793      2846      3229      3230
 -1      1466    8    0    1
 -2       681       682       793      2849      3231      3229
 -1      1467    8    0    1
 -2       687       688       806      2870      3232      3233
 -1      1468    8    0    1
 -2       688       689       807      2873      3234      3235
 -1      1469    8    0    1
 -2       688       807       806      3235      3236      3232
 -1      1470    8    0    1
 -2       689       690       808      2876      3237      3238
 -1      1471    8    0    1
 -2       689       808       807      3238      3239      3234
 -1      1472    8    0    1
 -2       690       691       809      2879      3240      3241
 -1      1473    8    0    1
 -2       690       809       808      3241      3242      3237
 -1      1474    8    0    1
 -2       691       692       810      2882      3243      3244
 -1      1475    8    0    1
 -2       691       810       809      3244      3245      3240
 -1      1476    8    0    1
 -2       692       693       811      2885      3246      3247
 -1      1477    8    0    1
 -2       692       811       810      3247      3248      3243
 -1      1478    8    0    1
 -2       693       694       812      2888      3249      3250
 -1      1479    8    0    1
 -2       693       812       811      3250      3251      3246
 -1      1480    8    0    1
 -2       694       695       813      2891      3252      3253
 -1      1481    8    0    1
 -2       694       813       812      3253      3254      3249
 -1      1482    8    0    1
 -2       695       696       814      2894      3255      3256
 -1      1483    8    0    1
 -2       695       814       813      3256      3257      3252
 -1      1484    8    0    1
 -2       696       697       815      2897      3258      3259
 -1      1485    8    0    1
 -2       696       815       814      3259      3260      3255
 -1      1486    8    0    1
 -2       697       698       816      2900      3261      3262
 -1      1487    8    0    1
 -2       697       816       815      3262      3263      3258
 -1      1488    8    0    1
 -2       698       699       817      2903      3264      3265
 -1      1489    8    0    1
 -2       698       817       816      3265      3266      3261
 -1      1490    8    0    1
 -2       699       700       818      2906      3267      3268
 -1      1491    8    0    1
 -2       699       818       817      3268      3269      3264
 -1      1492    8    0    1
 -2       700       701       819      2909      3270      3271
 -1      1493    8    0    1
 -2       818       700       819      3267      3271      3272
 -1      1494    8    0    1
 -2       701       740       819      3025      3273      3270
 -1      1495    8    0    1
 -2       706       708       820      2928      3274      3275
 -1      1496    8    0    1
 -2       703       706       821      2921      3276      3277
 -1      1497    8    0    1
 -2       706       820       821      3275      3278      3276
 -1      1498    8    0    1
 -2       716       704       822      3027      3279      3280
 -1      1499    8    0    1
 -2       725       718       823      3022      3281      3282
 -1      1500    8    0    1
 -2       721       750       824      3070      3283      3284
 -1      1501    8    0    1
 -2       623       721       824      2963      3284      3285
 -1      1502    8    0    1
 -2       750       735       824      3069      3286      3283
 -1      1503    8    0    1
 -2       708       709       825      2931      3287      3288
 -1      1504    8    0    1
 -2       708       825       820      3288      3289      3274
 -1      1505    8    0    1
 -2       730       731       826      3007      3290      3291
 -1      1506    8    0    1
 -2       731       756       826      3083      3292      3290
 -1      1507    8    0    1
 -2       709       710       827      2934      3293      3294
 -1      1508    8    0    1
 -2       709       827       825      3294      3295      3287
 -1      1509    8    0    1
 -2       719       667       828      2957      3296      3297
 -1      1510    8    0    1
 -2       667       795       828      3199      3298      3296
 -1      1511    8    0    1
 -2       669       670       829      2813      3299      3300
 -1      1512    8    0    1
 -2       670       796       829      3201      3301      3299
 -1      1513    8    0    1
 -2       668       669       830      2810      3302      3303
 -1      1514    8    0    1
 -2       795       668       830      3198      3303      3304
 -1      1515    8    0    1
 -2       669       829       830      3300      3305      3302
 -1      1516    8    0    1
 -2       720       719       831      2960      3306      3307
 -1      1517    8    0    1
 -2       719       828       831      3297      3308      3306
 -1      1518    8    0    1
 -2       712       730       832      3060      3309      3310
 -1      1519    8    0    1
 -2       726       725       833      3017      3311      3312
 -1      1520    8    0    1
 -2       702       729       834      3023      3313      3314
 -1      1521    8    0    1
 -2       718       665       835      3049      3315      3316
 -1      1522    8    0    1
 -2       615       733       836      3041      3317      3318
 -1      1523    8    0    1
 -2       615       836       751      3318      3319      3071
 -1      1524    8    0    1
 -2       620       621       837      3048      3320      3321
 -1      1525    8    0    1
 -2       752       620       837      3073      3321      3322
 -1      1526    8    0    1
 -2       621       622       837      2671      3323      3320
 -1      1527    8    0    1
 -2       666       720       838      3008      3324      3325
 -1      1528    8    0    1
 -2       720       831       838      3307      3326      3324
 -1      1529    8    0    1
 -2       713       727       839      3036      3327      3328
 -1      1530    8    0    1
 -2       713       839       753      3328      3329      3075
 -1      1531    8    0    1
 -2       715       614       778      3040      3330      3331
 -1      1532    8    0    1
 -2       618       617       840      2661      3332      3333
 -1      1533    8    0    1
 -2       736       618       841      2999      3334      3335
 -1      1534    8    0    1
 -2       618       840       841      3333      3336      3334
 -1      1535    8    0    1
 -2       619       752       842      3074      3337      3338
 -1      1536    8    0    1
 -2       619       842       723      3338      3339      2971
 -1      1537    8    0    1
 -2       734       753       743      3076      3340      3039
 -1      1538    8    0    1
 -2       666       838       843      3325      3341      3342
 -1      1539    8    0    1
 -2       666       843       711      3342      3343      2938
 -1      1540    8    0    1
 -2       611       755       737      3080      3344      3013
 -1      1541    8    0    1
 -2       722       748       684      3081      3345      3346
 -1      1542    8    0    1
 -2       684       748       717      3345      3347      3021
 -1      1543    8    0    1
 -2       717       748       591      3347      3058      2951
 -1      1544    8    0    1
 -2       722       684       685      3346      2861      3348
 -1      1545    8    0    1
 -2       738       702       834      3016      3314      3349
 -1      1546    8    0    1
 -2       646       777       778      3145      3350      3146
 -1      1547    8    0    1
 -2       777       645       844      3144      3351      3352
 -1      1548    8    0    1
 -2       645       644       844      2741      3353      3351
 -1      1549    8    0    1
 -2       649       753       845      3151      3354      3355
 -1      1550    8    0    1
 -2       650       649       845      2756      3355      3356
 -1      1551    8    0    1
 -2       753       839       845      3329      3357      3354
 -1      1552    8    0    1
 -2       794       612       742      3196      3033      3358
 -1      1553    8    0    1
 -2       836       733       846      3317      3359      3360
 -1      1554    8    0    1
 -2       733       739       846      3020      3361      3359
 -1      1555    8    0    1
 -2       739       712       847      3018      3362      3363
 -1      1556    8    0    1
 -2       712       832       847      3310      3364      3362
 -1      1557    8    0    1
 -2       835       665       848      3315      3365      3366
 -1      1558    8    0    1
 -2       665       738       848      3015      3367      3365
 -1      1559    8    0    1
 -2       729       794       834      3197      3368      3313
 -1      1560    8    0    1
 -2       680       793       805      3230      3369      3226
 -1      1561    8    0    1
 -2       687       806       832      3233      3370      3371
 -1      1562    8    0    1
 -2       742       616       744      3034      3044      3372
 -1      1563    8    0    1
 -2       735       724       849      2998      3373      3374
 -1      1564    8    0    1
 -2       823       718       835      3281      3316      3375
 -1      1565    8    0    1
 -2       730       826       832      3291      3376      3309
 -1      1566    8    0    1
 -2       705       707       850      2924      3377      3378
 -1      1567    8    0    1
 -2       724       747       851      3056      3379      3380
 -1      1568    8    0    1
 -2       724       851       849      3380      3381      3373
 -1      1569    8    0    1
 -2       822       704       745      3279      3046      3382
 -1      1570    8    0    1
 -2       707       703       852      2925      3383      3384
 -1      1571    8    0    1
 -2       850       707       852      3377      3384      3385
 -1      1572    8    0    1
 -2       703       821       852      3277      3386      3383
 -1      1573    8    0    1
 -2       725       823       833      3282      3387      3311
 -1      1574    8    0    1
 -2       622       711       853      2937      3388      3389
 -1      1575    8    0    1
 -2       837       622       853      3323      3389      3390
 -1      1576    8    0    1
 -2       711       843       853      3343      3391      3388
 -1      1577    8    0    1
 -2       754       623       824      3077      3285      3392
 -1      1578    8    0    1
 -2       682       741       793      3030      3393      3231
 -1      1579    8    0    1
 -2       779       650       845      3152      3356      3394
 -1      1580    8    0    1
 -2       744       715       778      3042      3331      3395
 -1      1581    8    0    1
 -2       745       726       854      3047      3396      3397
 -1      1582    8    0    1
 -2       726       833       854      3312      3398      3396
 -1      1583    8    0    1
 -2       727       737       855      3012      3399      3400
 -1      1584    8    0    1
 -2       727       855       839      3400      3401      3327
 -1      1585    8    0    1
 -2       686       687       832      2867      3371      3402
 -1      1586    8    0    1
 -2       844       644       776      3353      3142      3403
 -1      1587    8    0    1
 -2       722       685       756      3348      3404      3082
 -1      1588    8    0    1
 -2       685       686       756      2864      3405      3404
 -1      1589    8    0    1
 -2       746       705       856      3053      3406      3407
 -1      1590    8    0    1
 -2       705       850       856      3378      3408      3406
 -1      1591    8    0    1
 -2       714       751       857      3072      3409      3410
 -1      1592    8    0    1
 -2       714       857       755      3410      3411      3079
 -1      1593    8    0    1
 -2       793       716       822      3194      3280      3412
 -1      1594    8    0    1
 -2       617       723       858      2970      3413      3414
 -1      1595    8    0    1
 -2       840       617       858      3332      3414      3415
 -1      1596    8    0    1
 -2       723       842       858      3339      3416      3413
 -1      1597    8    0    1
 -2       710       749       859      3063      3417      3418
 -1      1598    8    0    1
 -2       827       710       859      3293      3418      3419
 -1      1599    8    0    1
 -2       749       792       859      3192      3420      3417
 -1      1600    8    0    1
 -2       756       686       826      3405      3421      3292
 -1      1601    8    0    1
 -2       744       778       777      3395      3350      3422
 -1      1602    8    0    1
 -2       758       757       860      3089      3423      3424
 -1      1603    8    0    1
 -2       759       758       861      3092      3425      3426
 -1      1604    8    0    1
 -2       758       860       861      3424      3427      3425
 -1      1605    8    0    1
 -2       760       759       862      3095      3428      3429
 -1      1606    8    0    1
 -2       759       861       862      3426      3430      3428
 -1      1607    8    0    1
 -2       761       760       863      3098      3431      3432
 -1      1608    8    0    1
 -2       760       862       863      3429      3433      3431
 -1      1609    8    0    1
 -2       762       761       864      3101      3434      3435
 -1      1610    8    0    1
 -2       761       863       864      3432      3436      3434
 -1      1611    8    0    1
 -2       763       762       865      3104      3437      3438
 -1      1612    8    0    1
 -2       762       864       865      3435      3439      3437
 -1      1613    8    0    1
 -2       764       763       866      3107      3440      3441
 -1      1614    8    0    1
 -2       763       865       866      3438      3442      3440
 -1      1615    8    0    1
 -2       765       764       867      3110      3443      3444
 -1      1616    8    0    1
 -2       764       866       867      3441      3445      3443
 -1      1617    8    0    1
 -2       766       765       868      3113      3446      3447
 -1      1618    8    0    1
 -2       765       867       868      3444      3448      3446
 -1      1619    8    0    1
 -2       767       766       869      3116      3449      3450
 -1      1620    8    0    1
 -2       766       868       869      3447      3451      3449
 -1      1621    8    0    1
 -2       768       767       870      3119      3452      3453
 -1      1622    8    0    1
 -2       767       869       870      3450      3454      3452
 -1      1623    8    0    1
 -2       769       768       871      3122      3455      3456
 -1      1624    8    0    1
 -2       768       870       871      3453      3457      3455
 -1      1625    8    0    1
 -2       770       769       872      3125      3458      3459
 -1      1626    8    0    1
 -2       769       871       872      3456      3460      3458
 -1      1627    8    0    1
 -2       771       770       873      3128      3461      3462
 -1      1628    8    0    1
 -2       770       872       873      3459      3463      3461
 -1      1629    8    0    1
 -2       772       771       874      3131      3464      3465
 -1      1630    8    0    1
 -2       771       873       874      3462      3466      3464
 -1      1631    8    0    1
 -2       773       772       875      3134      3467      3468
 -1      1632    8    0    1
 -2       772       874       875      3465      3469      3467
 -1      1633    8    0    1
 -2       774       773       876      3137      3470      3471
 -1      1634    8    0    1
 -2       773       875       876      3468      3472      3470
 -1      1635    8    0    1
 -2       845       839       877      3357      3473      3474
 -1      1636    8    0    1
 -2       779       845       877      3394      3474      3475
 -1      1637    8    0    1
 -2       839       855       877      3401      3476      3473
 -1      1638    8    0    1
 -2       647       778       743      3147      3477      3148
 -1      1639    8    0    1
 -2       781       780       878      3159      3478      3479
 -1      1640    8    0    1
 -2       782       781       879      3162      3480      3481
 -1      1641    8    0    1
 -2       781       878       879      3479      3482      3480
 -1      1642    8    0    1
 -2       783       782       880      3165      3483      3484
 -1      1643    8    0    1
 -2       782       879       880      3481      3485      3483
 -1      1644    8    0    1
 -2       784       783       881      3168      3486      3487
 -1      1645    8    0    1
 -2       783       880       881      3484      3488      3486
 -1      1646    8    0    1
 -2       785       784       882      3171      3489      3490
 -1      1647    8    0    1
 -2       784       881       882      3487      3491      3489
 -1      1648    8    0    1
 -2       786       785       883      3174      3492      3493
 -1      1649    8    0    1
 -2       785       882       883      3490      3494      3492
 -1      1650    8    0    1
 -2       787       786       884      3177      3495      3496
 -1      1651    8    0    1
 -2       786       883       884      3493      3497      3495
 -1      1652    8    0    1
 -2       788       787       885      3180      3498      3499
 -1      1653    8    0    1
 -2       787       884       885      3496      3500      3498
 -1      1654    8    0    1
 -2       789       788       886      3183      3501      3502
 -1      1655    8    0    1
 -2       788       885       886      3499      3503      3501
 -1      1656    8    0    1
 -2       790       789       887      3186      3504      3505
 -1      1657    8    0    1
 -2       789       886       887      3502      3506      3504
 -1      1658    8    0    1
 -2       791       790       888      3189      3507      3508
 -1      1659    8    0    1
 -2       790       887       888      3505      3509      3507
 -1      1660    8    0    1
 -2       796       797       889      3204      3510      3511
 -1      1661    8    0    1
 -2       799       800       890      3213      3512      3513
 -1      1662    8    0    1
 -2       800       801       891      3216      3514      3515
 -1      1663    8    0    1
 -2       800       891       890      3515      3516      3512
 -1      1664    8    0    1
 -2       801       802       892      3219      3517      3518
 -1      1665    8    0    1
 -2       801       892       891      3518      3519      3514
 -1      1666    8    0    1
 -2       802       803       893      3222      3520      3521
 -1      1667    8    0    1
 -2       802       893       892      3521      3522      3517
 -1      1668    8    0    1
 -2       803       804       894      3225      3523      3524
 -1      1669    8    0    1
 -2       803       894       893      3524      3525      3520
 -1      1670    8    0    1
 -2       804       805       895      3228      3526      3527
 -1      1671    8    0    1
 -2       804       895       894      3527      3528      3523
 -1      1672    8    0    1
 -2       832       806       847      3370      3529      3364
 -1      1673    8    0    1
 -2       844       776       794      3403      3530      3531
 -1      1674    8    0    1
 -2       807       808       896      3239      3532      3533
 -1      1675    8    0    1
 -2       822       745       897      3382      3534      3535
 -1      1676    8    0    1
 -2       823       835       898      3375      3536      3537
 -1      1677    8    0    1
 -2       824       735       849      3286      3374      3538
 -1      1678    8    0    1
 -2       738       834       899      3349      3539      3540
 -1      1679    8    0    1
 -2       806       807       900      3236      3541      3542
 -1      1680    8    0    1
 -2       847       806       900      3529      3542      3543
 -1      1681    8    0    1
 -2       807       896       900      3533      3544      3541
 -1      1682    8    0    1
 -2       809       810       901      3245      3545      3546
 -1      1683    8    0    1
 -2       810       811       902      3248      3547      3548
 -1      1684    8    0    1
 -2       810       902       901      3548      3549      3545
 -1      1685    8    0    1
 -2       811       812       903      3251      3550      3551
 -1      1686    8    0    1
 -2       811       903       902      3551      3552      3547
 -1      1687    8    0    1
 -2       812       813       904      3254      3553      3554
 -1      1688    8    0    1
 -2       812       904       903      3554      3555      3550
 -1      1689    8    0    1
 -2       813       814       905      3257      3556      3557
 -1      1690    8    0    1
 -2       813       905       904      3557      3558      3553
 -1      1691    8    0    1
 -2       814       815       906      3260      3559      3560
 -1      1692    8    0    1
 -2       814       906       905      3560      3561      3556
 -1      1693    8    0    1
 -2       815       816       907      3263      3562      3563
 -1      1694    8    0    1
 -2       815       907       906      3563      3564      3559
 -1      1695    8    0    1
 -2       816       817       908      3266      3565      3566
 -1      1696    8    0    1
 -2       816       908       907      3566      3567      3562
 -1      1697    8    0    1
 -2       817       818       909      3269      3568      3569
 -1      1698    8    0    1
 -2       817       909       908      3569      3570      3565
 -1      1699    8    0    1
 -2       821       820       910      3278      3571      3572
 -1      1700    8    0    1
 -2       747       736       911      3057      3573      3574
 -1      1701    8    0    1
 -2       747       911       851      3574      3575      3379
 -1      1702    8    0    1
 -2       808       809       912      3242      3576      3577
 -1      1703    8    0    1
 -2       809       901       912      3546      3578      3576
 -1      1704    8    0    1
 -2       833       823       913      3387      3579      3580
 -1      1705    8    0    1
 -2       823       898       913      3537      3581      3579
 -1      1706    8    0    1
 -2       752       837       914      3322      3582      3583
 -1      1707    8    0    1
 -2       837       853       914      3390      3584      3582
 -1      1708    8    0    1
 -2       798       799       915      3210      3585      3586
 -1      1709    8    0    1
 -2       799       890       915      3513      3587      3585
 -1      1710    8    0    1
 -2       797       798       916      3207      3588      3589
 -1      1711    8    0    1
 -2       889       797       916      3510      3589      3590
 -1      1712    8    0    1
 -2       798       915       916      3586      3591      3588
 -1      1713    8    0    1
 -2       737       755       917      3344      3592      3593
 -1      1714    8    0    1
 -2       831       828       918      3308      3594      3595
 -1      1715    8    0    1
 -2       754       824       849      3392      3538      3596
 -1      1716    8    0    1
 -2       780       779       919      3156      3597      3598
 -1      1717    8    0    1
 -2       878       780       919      3478      3598      3599
 -1      1718    8    0    1
 -2       779       877       919      3475      3600      3597
 -1      1719    8    0    1
 -2       805       793       822      3369      3412      3601
 -1      1720    8    0    1
 -2       828       795       920      3298      3602      3603
 -1      1721    8    0    1
 -2       828       920       918      3603      3604      3594
 -1      1722    8    0    1
 -2       753       648       743      3150      3149      3340
 -1      1723    8    0    1
 -2       829       796       921      3301      3605      3606
 -1      1724    8    0    1
 -2       796       889       921      3511      3607      3605
 -1      1725    8    0    1
 -2       825       827       922      3295      3608      3609
 -1      1726    8    0    1
 -2       757       754       923      3086      3610      3611
 -1      1727    8    0    1
 -2       757       923       860      3611      3612      3423
 -1      1728    8    0    1
 -2       751       836       924      3319      3613      3614
 -1      1729    8    0    1
 -2       740       746       925      3052      3615      3616
 -1      1730    8    0    1
 -2       819       740       925      3273      3616      3617
 -1      1731    8    0    1
 -2       746       856       925      3407      3618      3615
 -1      1732    8    0    1
 -2       614       743       778      3038      3477      3330
 -1      1733    8    0    1
 -2       820       825       926      3289      3619      3620
 -1      1734    8    0    1
 -2       910       820       926      3571      3620      3621
 -1      1735    8    0    1
 -2       825       922       926      3609      3622      3619
 -1      1736    8    0    1
 -2       838       831       927      3326      3623      3624
 -1      1737    8    0    1
 -2       831       918       927      3595      3625      3623
 -1      1738    8    0    1
 -2       805       822       895      3601      3626      3526
 -1      1739    8    0    1
 -2       844       794       742      3531      3358      3627
 -1      1740    8    0    1
 -2       844       742       777      3627      3628      3352
 -1      1741    8    0    1
 -2       754       849       928      3596      3629      3630
 -1      1742    8    0    1
 -2       923       754       928      3610      3630      3631
 -1      1743    8    0    1
 -2       849       851       928      3381      3632      3629
 -1      1744    8    0    1
 -2       842       752       914      3337      3583      3633
 -1      1745    8    0    1
 -2       843       838       929      3341      3634      3635
 -1      1746    8    0    1
 -2       838       927       929      3624      3636      3634
 -1      1747    8    0    1
 -2       841       840       930      3336      3637      3638
 -1      1748    8    0    1
 -2       751       924       857      3614      3639      3409
 -1      1749    8    0    1
 -2       775       774       931      3140      3640      3641
 -1      1750    8    0    1
 -2       776       775       834      3143      3642      3643
 -1      1751    8    0    1
 -2       826       686       832      3421      3402      3376
 -1      1752    8    0    1
 -2       917       755       932      3592      3644      3645
 -1      1753    8    0    1
 -2       755       857       932      3411      3646      3644
 -1      1754    8    0    1
 -2       792       791       933      3193      3647      3648
 -1      1755    8    0    1
 -2       859       792       933      3420      3648      3649
 -1      1756    8    0    1
 -2       791       888       933      3508      3650      3647
 -1      1757    8    0    1
 -2       846       739       847      3361      3363      3651
 -1      1758    8    0    1
 -2       848       738       899      3367      3540      3652
 -1      1759    8    0    1
 -2       777       742       744      3628      3372      3422
 -1      1760    8    0    1
 -2       795       830       934      3304      3653      3654
 -1      1761    8    0    1
 -2       795       934       920      3654      3655      3602
 -1      1762    8    0    1
 -2       896       808       912      3532      3577      3656
 -1      1763    8    0    1
 -2       833       913       935      3580      3657      3658
 -1      1764    8    0    1
 -2       833       935       854      3658      3659      3398
 -1      1765    8    0    1
 -2       821       910       936      3572      3660      3661
 -1      1766    8    0    1
 -2       821       936       852      3661      3662      3386
 -1      1767    8    0    1
 -2       818       819       925      3272      3617      3663
 -1      1768    8    0    1
 -2       829       921       937      3606      3664      3665
 -1      1769    8    0    1
 -2       829       937       830      3665      3666      3305
 -1      1770    8    0    1
 -2       818       925       909      3663      3667      3568
 -1      1771    8    0    1
 -2       741       728       793      3065      3195      3393
 -1      1772    8    0    1
 -2       855       737       917      3399      3593      3668
 -1      1773    8    0    1
 -2       930       840       938      3637      3669      3670
 -1      1774    8    0    1
 -2       840       858       938      3415      3671      3669
 -1      1775    8    0    1
 -2       931       774       876      3640      3471      3672
 -1      1776    8    0    1
 -2       776       834       794      3643      3368      3530
 -1      1777    8    0    1
 -2       911       736       841      3573      3335      3673
 -1      1778    8    0    1
 -2       850       852       939      3385      3674      3675
 -1      1779    8    0    1
 -2       852       936       939      3662      3676      3674
 -1      1780    8    0    1
 -2       856       850       940      3408      3677      3678
 -1      1781    8    0    1
 -2       850       939       940      3675      3679      3677
 -1      1782    8    0    1
 -2       835       848       941      3366      3680      3681
 -1      1783    8    0    1
 -2       835       941       898      3681      3682      3536
 -1      1784    8    0    1
 -2       924       836       942      3613      3683      3684
 -1      1785    8    0    1
 -2       836       846       942      3360      3685      3683
 -1      1786    8    0    1
 -2       897       745       854      3534      3397      3686
 -1      1787    8    0    1
 -2       827       859       933      3419      3649      3687
 -1      1788    8    0    1
 -2       827       933       922      3687      3688      3608
 -1      1789    8    0    1
 -2       861       860       943      3427      3689      3690
 -1      1790    8    0    1
 -2       857       924       944      3639      3691      3692
 -1      1791    8    0    1
 -2       862       861       945      3430      3693      3694
 -1      1792    8    0    1
 -2       861       943       945      3690      3695      3693
 -1      1793    8    0    1
 -2       863       862       946      3433      3696      3697
 -1      1794    8    0    1
 -2       862       945       946      3694      3698      3696
 -1      1795    8    0    1
 -2       864       863       947      3436      3699      3700
 -1      1796    8    0    1
 -2       863       946       947      3697      3701      3699
 -1      1797    8    0    1
 -2       865       864       948      3439      3702      3703
 -1      1798    8    0    1
 -2       864       947       948      3700      3704      3702
 -1      1799    8    0    1
 -2       866       865       949      3442      3705      3706
 -1      1800    8    0    1
 -2       865       948       949      3703      3707      3705
 -1      1801    8    0    1
 -2       867       866       950      3445      3708      3709
 -1      1802    8    0    1
 -2       866       949       950      3706      3710      3708
 -1      1803    8    0    1
 -2       868       867       951      3448      3711      3712
 -1      1804    8    0    1
 -2       867       950       951      3709      3713      3711
 -1      1805    8    0    1
 -2       869       868       952      3451      3714      3715
 -1      1806    8    0    1
 -2       868       951       952      3712      3716      3714
 -1      1807    8    0    1
 -2       870       869       953      3454      3717      3718
 -1      1808    8    0    1
 -2       869       952       953      3715      3719      3717
 -1      1809    8    0    1
 -2       871       870       954      3457      3720      3721
 -1      1810    8    0    1
 -2       870       953       954      3718      3722      3720
 -1      1811    8    0    1
 -2       872       871       955      3460      3723      3724
 -1      1812    8    0    1
 -2       871       954       955      3721      3725      3723
 -1      1813    8    0    1
 -2       873       872       956      3463      3726      3727
 -1      1814    8    0    1
 -2       872       955       956      3724      3728      3726
 -1      1815    8    0    1
 -2       874       873       957      3466      3729      3730
 -1      1816    8    0    1
 -2       873       956       957      3727      3731      3729
 -1      1817    8    0    1
 -2       875       874       958      3469      3732      3733
 -1      1818    8    0    1
 -2       874       957       958      3730      3734      3732
 -1      1819    8    0    1
 -2       877       855       959      3476      3735      3736
 -1      1820    8    0    1
 -2       919       877       959      3600      3736      3737
 -1      1821    8    0    1
 -2       855       917       959      3668      3738      3735
 -1      1822    8    0    1
 -2       891       892       960      3519      3739      3740
 -1      1823    8    0    1
 -2       921       889       961      3607      3741      3742
 -1      1824    8    0    1
 -2       841       930       962      3638      3743      3744
 -1      1825    8    0    1
 -2       841       962       911      3744      3745      3673
 -1      1826    8    0    1
 -2       880       879       963      3485      3746      3747
 -1      1827    8    0    1
 -2       881       880       964      3488      3748      3749
 -1      1828    8    0    1
 -2       880       963       964      3747      3750      3748
 -1      1829    8    0    1
 -2       882       881       965      3491      3751      3752
 -1      1830    8    0    1
 -2       881       964       965      3749      3753      3751
 -1      1831    8    0    1
 -2       883       882       966      3494      3754      3755
 -1      1832    8    0    1
 -2       882       965       966      3752      3756      3754
 -1      1833    8    0    1
 -2       884       883       967      3497      3757      3758
 -1      1834    8    0    1
 -2       883       966       967      3755      3759      3757
 -1      1835    8    0    1
 -2       885       884       968      3500      3760      3761
 -1      1836    8    0    1
 -2       884       967       968      3758      3762      3760
 -1      1837    8    0    1
 -2       886       885       969      3503      3763      3764
 -1      1838    8    0    1
 -2       885       968       969      3761      3765      3763
 -1      1839    8    0    1
 -2       887       886       970      3506      3766      3767
 -1      1840    8    0    1
 -2       886       969       970      3764      3768      3766
 -1      1841    8    0    1
 -2       888       887       971      3509      3769      3770
 -1      1842    8    0    1
 -2       887       970       971      3767      3771      3769
 -1      1843    8    0    1
 -2       933       888       922      3650      3772      3688
 -1      1844    8    0    1
 -2       890       891       972      3516      3773      3774
 -1      1845    8    0    1
 -2       891       960       972      3740      3775      3773
 -1      1846    8    0    1
 -2       893       894       973      3525      3776      3777
 -1      1847    8    0    1
 -2       894       895       974      3528      3778      3779
 -1      1848    8    0    1
 -2       894       974       973      3779      3780      3776
 -1      1849    8    0    1
 -2       902       903       975      3552      3781      3782
 -1      1850    8    0    1
 -2       879       878       976      3482      3783      3784
 -1      1851    8    0    1
 -2       879       976       963      3784      3785      3746
 -1      1852    8    0    1
 -2       822       897       895      3535      3786      3626
 -1      1853    8    0    1
 -2       903       904       977      3555      3787      3788
 -1      1854    8    0    1
 -2       903       977       975      3788      3789      3781
 -1      1855    8    0    1
 -2       901       902       978      3549      3790      3791
 -1      1856    8    0    1
 -2       902       975       978      3782      3792      3790
 -1      1857    8    0    1
 -2       904       905       979      3558      3793      3794
 -1      1858    8    0    1
 -2       904       979       977      3794      3795      3787
 -1      1859    8    0    1
 -2       905       906       980      3561      3796      3797
 -1      1860    8    0    1
 -2       905       980       979      3797      3798      3793
 -1      1861    8    0    1
 -2       906       907       981      3564      3799      3800
 -1      1862    8    0    1
 -2       906       981       980      3800      3801      3796
 -1      1863    8    0    1
 -2       907       908       982      3567      3802      3803
 -1      1864    8    0    1
 -2       907       982       981      3803      3804      3799
 -1      1865    8    0    1
 -2       927       918       983      3625      3805      3806
 -1      1866    8    0    1
 -2       851       911       984      3575      3807      3808
 -1      1867    8    0    1
 -2       911       962       984      3745      3809      3807
 -1      1868    8    0    1
 -2       912       901       985      3578      3810      3811
 -1      1869    8    0    1
 -2       901       978       985      3791      3812      3810
 -1      1870    8    0    1
 -2       913       898       986      3581      3813      3814
 -1      1871    8    0    1
 -2       842       914       987      3633      3815      3816
 -1      1872    8    0    1
 -2       914       853       988      3584      3817      3818
 -1      1873    8    0    1
 -2       987       914       988      3815      3818      3819
 -1      1874    8    0    1
 -2       853       843       988      3391      3820      3817
 -1      1875    8    0    1
 -2       915       890       989      3587      3821      3822
 -1      1876    8    0    1
 -2       890       972       989      3774      3823      3821
 -1      1877    8    0    1
 -2       925       856       909      3618      3824      3667
 -1      1878    8    0    1
 -2       896       912       990      3656      3825      3826
 -1      1879    8    0    1
 -2       912       985       990      3811      3827      3825
 -1      1880    8    0    1
 -2       892       893       991      3522      3828      3829
 -1      1881    8    0    1
 -2       893       973       991      3777      3830      3828
 -1      1882    8    0    1
 -2       834       775       931      3642      3641      3831
 -1      1883    8    0    1
 -2       846       847       900      3651      3543      3832
 -1      1884    8    0    1
 -2       909       856       940      3824      3678      3833
 -1      1885    8    0    1
 -2       860       923       992      3612      3834      3835
 -1      1886    8    0    1
 -2       860       992       943      3835      3836      3689
 -1      1887    8    0    1
 -2       858       842       987      3416      3816      3837
 -1      1888    8    0    1
 -2       897       854       993      3686      3838      3839
 -1      1889    8    0    1
 -2       918       920       994      3604      3840      3841
 -1      1890    8    0    1
 -2       918       994       983      3841      3842      3805
 -1      1891    8    0    1
 -2       895       897       974      3786      3843      3778
 -1      1892    8    0    1
 -2       922       888       971      3772      3770      3844
 -1      1893    8    0    1
 -2       929       927       995      3636      3845      3846
 -1      1894    8    0    1
 -2       927       983       995      3806      3847      3845
 -1      1895    8    0    1
 -2       857       944       932      3692      3848      3646
 -1      1896    8    0    1
 -2       988       843       929      3820      3635      3849
 -1      1897    8    0    1
 -2       959       917       996      3738      3850      3851
 -1      1898    8    0    1
 -2       876       875       997      3472      3852      3853
 -1      1899    8    0    1
 -2       961       889       998      3741      3854      3855
 -1      1900    8    0    1
 -2       889       916       998      3590      3856      3854
 -1      1901    8    0    1
 -2       976       878       996      3783      3857      3858
 -1      1902    8    0    1
 -2       921       961       999      3742      3859      3860
 -1      1903    8    0    1
 -2       921       999       937      3860      3861      3664
 -1      1904    8    0    1
 -2       892       991       960      3829      3862      3739
 -1      1905    8    0    1
 -2       922       971       926      3844      3863      3622
 -1      1906    8    0    1
 -2       913       986      1000      3814      3864      3865
 -1      1907    8    0    1
 -2       913      1000       935      3865      3866      3657
 -1      1908    8    0    1
 -2       928       851       984      3632      3808      3867
 -1      1909    8    0    1
 -2       936       910      1001      3660      3868      3869
 -1      1910    8    0    1
 -2       934       830       937      3653      3666      3870
 -1      1911    8    0    1
 -2       878       919       959      3599      3737      3871
 -1      1912    8    0    1
 -2       899       834       931      3539      3831      3872
 -1      1913    8    0    1
 -2       854       935       993      3659      3873      3838
 -1      1914    8    0    1
 -2       909       940       908      3833      3874      3570
 -1      1915    8    0    1
 -2       982       908       940      3802      3874      3875
 -1      1916    8    0    1
 -2       974       897       993      3843      3839      3876
 -1      1917    8    0    1
 -2       986       898      1002      3813      3877      3878
 -1      1918    8    0    1
 -2       898       941      1002      3682      3879      3877
 -1      1919    8    0    1
 -2       915       989      1003      3822      3880      3881
 -1      1920    8    0    1
 -2       915      1003       916      3881      3882      3591
 -1      1921    8    0    1
 -2       920       934      1004      3655      3883      3884
 -1      1922    8    0    1
 -2       920      1004       994      3884      3885      3840
 -1      1923    8    0    1
 -2       938       858       987      3671      3837      3886
 -1      1924    8    0    1
 -2       939       936      1005      3676      3887      3888
 -1      1925    8    0    1
 -2       936      1001      1005      3869      3889      3887
 -1      1926    8    0    1
 -2       940       939      1006      3679      3890      3891
 -1      1927    8    0    1
 -2       982       940      1006      3875      3891      3892
 -1      1928    8    0    1
 -2       939      1005      1006      3888      3893      3890
 -1      1929    8    0    1
 -2       941       848       997      3680      3894      3895
 -1      1930    8    0    1
 -2       846       900      1007      3832      3896      3897
 -1      1931    8    0    1
 -2       875       958       997      3733      3898      3852
 -1      1932    8    0    1
 -2       896       990      1007      3826      3899      3900
 -1      1933    8    0    1
 -2       942       846      1007      3685      3897      3901
 -1      1934    8    0    1
 -2       930       938      1008      3670      3902      3903
 -1      1935    8    0    1
 -2       923       928       992      3631      3904      3834
 -1      1936    8    0    1
 -2       900       896      1007      3544      3900      3896
 -1      1937    8    0    1
 -2       962       930      1009      3743      3905      3906
 -1      1938    8    0    1
 -2       930      1008      1009      3903      3907      3905
 -1      1939    8    0    1
 -2       924       942      1010      3684      3908      3909
 -1      1940    8    0    1
 -2       924      1010       944      3909      3910      3691
 -1      1941    8    0    1
 -2       917       932       996      3645      3911      3850
 -1      1942    8    0    1
 -2       878       959       996      3871      3851      3857
 -1      1943    8    0    1
 -2       848       899       997      3652      3912      3894
 -1      1944    8    0    1
 -2       931       876       899      3672      3913      3872
 -1      1945    8    0    1
 -2       910       926      1011      3621      3914      3915
 -1      1946    8    0    1
 -2       910      1011      1001      3915      3916      3868
 -1      1947    8    0    1
 -2       899       876       997      3913      3853      3912
 -1      1948    8    0    1
 -2       946       945      1012      3698      3917      3918
 -1      1949    8    0    1
 -2       947       946      1013      3701      3919      3920
 -1      1950    8    0    1
 -2       946      1012      1013      3918      3921      3919
 -1      1951    8    0    1
 -2       948       947      1014      3704      3922      3923
 -1      1952    8    0    1
 -2       947      1013      1014      3920      3924      3922
 -1      1953    8    0    1
 -2       949       948      1015      3707      3925      3926
 -1      1954    8    0    1
 -2       948      1014      1015      3923      3927      3925
 -1      1955    8    0    1
 -2       950       949      1016      3710      3928      3929
 -1      1956    8    0    1
 -2       949      1015      1016      3926      3930      3928
 -1      1957    8    0    1
 -2       951       950      1017      3713      3931      3932
 -1      1958    8    0    1
 -2       950      1016      1017      3929      3933      3931
 -1      1959    8    0    1
 -2       952       951      1018      3716      3934      3935
 -1      1960    8    0    1
 -2       951      1017      1018      3932      3936      3934
 -1      1961    8    0    1
 -2       953       952      1019      3719      3937      3938
 -1      1962    8    0    1
 -2       952      1018      1019      3935      3939      3937
 -1      1963    8    0    1
 -2       954       953      1020      3722      3940      3941
 -1      1964    8    0    1
 -2       953      1019      1020      3938      3942      3940
 -1      1965    8    0    1
 -2       955       954      1021      3725      3943      3944
 -1      1966    8    0    1
 -2       954      1020      1021      3941      3945      3943
 -1      1967    8    0    1
 -2       956       955      1022      3728      3946      3947
 -1      1968    8    0    1
 -2       955      1021      1022      3944      3948      3946
 -1      1969    8    0    1
 -2       957       956      1023      3731      3949      3950
 -1      1970    8    0    1
 -2       956      1022      1023      3947      3951      3949
 -1      1971    8    0    1
 -2       965       964      1024      3753      3952      3953
 -1      1972    8    0    1
 -2       966       965      1025      3756      3954      3955
 -1      1973    8    0    1
 -2       965      1024      1025      3953      3956      3954
 -1      1974    8    0    1
 -2       967       966      1026      3759      3957      3958
 -1      1975    8    0    1
 -2       966      1025      1026      3955      3959      3957
 -1      1976    8    0    1
 -2       968       967      1027      3762      3960      3961
 -1      1977    8    0    1
 -2       967      1026      1027      3958      3962      3960
 -1      1978    8    0    1
 -2       969       968      1028      3765      3963      3964
 -1      1979    8    0    1
 -2       968      1027      1028      3961      3965      3963
 -1      1980    8    0    1
 -2       970       969      1029      3768      3966      3967
 -1      1981    8    0    1
 -2       969      1028      1029      3964      3968      3966
 -1      1982    8    0    1
 -2       971       970      1030      3771      3969      3970
 -1      1983    8    0    1
 -2       970      1029      1030      3967      3971      3969
 -1      1984    8    0    1
 -2       972       960      1031      3775      3972      3973
 -1      1985    8    0    1
 -2       976       996      1032      3858      3974      3975
 -1      1986    8    0    1
 -2       977       979      1033      3795      3976      3977
 -1      1987    8    0    1
 -2       973       974      1034      3780      3978      3979
 -1      1988    8    0    1
 -2       963       976      1032      3785      3975      3980
 -1      1989    8    0    1
 -2       928       984       992      3867      3981      3904
 -1      1990    8    0    1
 -2       934       937      1035      3870      3982      3983
 -1      1991    8    0    1
 -2       934      1035      1004      3983      3984      3883
 -1      1992    8    0    1
 -2       984       962      1036      3809      3985      3986
 -1      1993    8    0    1
 -2       962      1009      1036      3906      3987      3985
 -1      1994    8    0    1
 -2       979       980      1037      3798      3988      3989
 -1      1995    8    0    1
 -2       979      1037      1033      3989      3990      3976
 -1      1996    8    0    1
 -2       978       975      1038      3792      3991      3992
 -1      1997    8    0    1
 -2       980       981      1039      3801      3993      3994
 -1      1998    8    0    1
 -2       980      1039      1037      3994      3995      3988
 -1      1999    8    0    1
 -2       981       982      1040      3804      3996      3997
 -1      2000    8    0    1
 -2      1039       981      1040      3993      3997      3998
 -1      2001    8    0    1
 -2       982      1006      1040      3892      3999      3996
 -1      2002    8    0    1
 -2       932       944      1041      3848      4000      4001
 -1      2003    8    0    1
 -2       960       991      1042      3862      4002      4003
 -1      2004    8    0    1
 -2       960      1042      1031      4003      4004      3972
 -1      2005    8    0    1
 -2       985       978      1043      3812      4005      4006
 -1      2006    8    0    1
 -2       978      1038      1043      3992      4007      4005
 -1      2007    8    0    1
 -2       987       988      1044      3819      4008      4009
 -1      2008    8    0    1
 -2       988       929      1044      3849      4010      4008
 -1      2009    8    0    1
 -2       990       985      1045      3827      4011      4012
 -1      2010    8    0    1
 -2       985      1043      1045      4006      4013      4011
 -1      2011    8    0    1
 -2       975       977      1046      3789      4014      4015
 -1      2012    8    0    1
 -2       977      1033      1046      3977      4016      4014
 -1      2013    8    0    1
 -2       993       935      1047      3873      4017      4018
 -1      2014    8    0    1
 -2       991       973      1048      3830      4019      4020
 -1      2015    8    0    1
 -2       991      1048      1042      4020      4021      4002
 -1      2016    8    0    1
 -2       943       992      1049      3836      4022      4023
 -1      2017    8    0    1
 -2      1005      1001      1050      3889      4024      4025
 -1      2018    8    0    1
 -2       997       958       941      3898      4026      3895
 -1      2019    8    0    1
 -2      1007       990      1051      3899      4027      4028
 -1      2020    8    0    1
 -2       942      1007      1051      3901      4028      4029
 -1      2021    8    0    1
 -2       990      1045      1051      4012      4030      4027
 -1      2022    8    0    1
 -2       938       987      1052      3886      4031      4032
 -1      2023    8    0    1
 -2      1008       938      1052      3902      4032      4033
 -1      2024    8    0    1
 -2       987      1044      1052      4009      4034      4031
 -1      2025    8    0    1
 -2       964       963      1053      3750      4035      4036
 -1      2026    8    0    1
 -2       964      1053      1024      4036      4037      3952
 -1      2027    8    0    1
 -2       974       993      1034      3876      4038      3978
 -1      2028    8    0    1
 -2       989       972      1054      3823      4039      4040
 -1      2029    8    0    1
 -2       972      1031      1054      3973      4041      4039
 -1      2030    8    0    1
 -2       983       994      1055      3842      4042      4043
 -1      2031    8    0    1
 -2       945       943      1056      3695      4044      4045
 -1      2032    8    0    1
 -2      1012       945      1056      3917      4045      4046
 -1      2033    8    0    1
 -2       943      1049      1056      4023      4047      4044
 -1      2034    8    0    1
 -2       992       984      1036      3981      3986      4048
 -1      2035    8    0    1
 -2       941       958      1002      4026      4049      3879
 -1      2036    8    0    1
 -2       998       916      1003      3856      3882      4050
 -1      2037    8    0    1
 -2      1009      1008      1057      3907      4051      4052
 -1      2038    8    0    1
 -2      1034       993      1047      4038      4018      4053
 -1      2039    8    0    1
 -2       958       957      1058      3734      4054      4055
 -1      2040    8    0    1
 -2       961       998      1059      3855      4056      4057
 -1      2041    8    0    1
 -2       971      1030      1011      3970      4058      4059
 -1      2042    8    0    1
 -2       937       999      1035      3861      4060      3982
 -1      2043    8    0    1
 -2       999       961      1060      3859      4061      4062
 -1      2044    8    0    1
 -2       961      1059      1060      4057      4063      4061
 -1      2045    8    0    1
 -2       995       983      1061      3847      4064      4065
 -1      2046    8    0    1
 -2       983      1055      1061      4043      4066      4064
 -1      2047    8    0    1
 -2       975      1046      1038      4015      4067      3991
 -1      2048    8    0    1
 -2      1000       986      1062      3864      4068      4069
 -1      2049    8    0    1
 -2       958      1058      1002      4055      4070      4049
 -1      2050    8    0    1
 -2       973      1034      1048      3979      4071      4019
 -1      2051    8    0    1
 -2       963      1032      1053      3980      4072      4035
 -1      2052    8    0    1
 -2      1041       944      1063      4000      4073      4074
 -1      2053    8    0    1
 -2       929       995      1044      3846      4075      4010
 -1      2054    8    0    1
 -2       989      1054      1064      4040      4076      4077
 -1      2055    8    0    1
 -2       989      1064      1003      4077      4078      3880
 -1      2056    8    0    1
 -2       992      1036      1049      4048      4079      4022
 -1      2057    8    0    1
 -2       986      1002      1062      3878      4080      4068
 -1      2058    8    0    1
 -2       994      1004      1065      3885      4081      4082
 -1      2059    8    0    1
 -2       994      1065      1055      4082      4083      4042
 -1      2060    8    0    1
 -2      1047       935      1000      4017      3866      4084
 -1      2061    8    0    1
 -2       926       971      1011      3863      4059      3914
 -1      2062    8    0    1
 -2      1005      1050      1006      4025      4085      3893
 -1      2063    8    0    1
 -2       944      1010      1063      3910      4086      4073
 -1      2064    8    0    1
 -2      1010       942      1051      3908      4029      4087
 -1      2065    8    0    1
 -2       996       932      1041      3911      4001      4088
 -1      2066    8    0    1
 -2      1058       957      1023      4054      3950      4089
 -1      2067    8    0    1
 -2      1057      1008      1066      4051      4090      4091
 -1      2068    8    0    1
 -2      1034      1047      1067      4053      4092      4093
 -1      2069    8    0    1
 -2      1001      1011      1068      3916      4094      4095
 -1      2070    8    0    1
 -2      1050      1001      1068      4024      4095      4096
 -1      2071    8    0    1
 -2      1057      1066      1069      4091      4097      4098
 -1      2072    8    0    1
 -2      1014      1013      1070      3924      4099      4100
 -1      2073    8    0    1
 -2      1015      1014      1071      3927      4101      4102
 -1      2074    8    0    1
 -2      1014      1070      1071      4100      4103      4101
 -1      2075    8    0    1
 -2      1016      1015      1072      3930      4104      4105
 -1      2076    8    0    1
 -2      1015      1071      1072      4102      4106      4104
 -1      2077    8    0    1
 -2      1017      1016      1073      3933      4107      4108
 -1      2078    8    0    1
 -2      1016      1072      1073      4105      4109      4107
 -1      2079    8    0    1
 -2      1018      1017      1074      3936      4110      4111
 -1      2080    8    0    1
 -2      1017      1073      1074      4108      4112      4110
 -1      2081    8    0    1
 -2      1019      1018      1075      3939      4113      4114
 -1      2082    8    0    1
 -2      1018      1074      1075      4111      4115      4113
 -1      2083    8    0    1
 -2      1020      1019      1076      3942      4116      4117
 -1      2084    8    0    1
 -2      1019      1075      1076      4114      4118      4116
 -1      2085    8    0    1
 -2      1021      1020      1077      3945      4119      4120
 -1      2086    8    0    1
 -2      1020      1076      1077      4117      4121      4119
 -1      2087    8    0    1
 -2      1022      1021      1078      3948      4122      4123
 -1      2088    8    0    1
 -2      1021      1077      1078      4120      4124      4122
 -1      2089    8    0    1
 -2      1023      1022      1079      3951      4125      4126
 -1      2090    8    0    1
 -2      1022      1078      1079      4123      4127      4125
 -1      2091    8    0    1
 -2      1066      1008      1052      4090      4033      4128
 -1      2092    8    0    1
 -2      1050      1068      1080      4096      4129      4130
 -1      2093    8    0    1
 -2      1035       999      1081      4060      4131      4132
 -1      2094    8    0    1
 -2       999      1060      1081      4062      4133      4131
 -1      2095    8    0    1
 -2      1038      1046      1082      4067      4134      4135
 -1      2096    8    0    1
 -2      1026      1025      1083      3959      4136      4137
 -1      2097    8    0    1
 -2      1027      1026      1084      3962      4138      4139
 -1      2098    8    0    1
 -2      1026      1083      1084      4137      4140      4138
 -1      2099    8    0    1
 -2      1028      1027      1085      3965      4141      4142
 -1      2100    8    0    1
 -2      1027      1084      1085      4139      4143      4141
 -1      2101    8    0    1
 -2      1002      1058      1062      4070      4144      4080
 -1      2102    8    0    1
 -2      1011      1030      1068      4058      4145      4094
 -1      2103    8    0    1
 -2      1010      1051      1086      4087      4146      4147
 -1      2104    8    0    1
 -2      1063      1010      1086      4086      4147      4148
 -1      2105    8    0    1
 -2      1051      1045      1086      4030      4149      4146
 -1      2106    8    0    1
 -2      1044       995      1052      4075      4150      4034
 -1      2107    8    0    1
 -2      1025      1024      1087      3956      4151      4152
 -1      2108    8    0    1
 -2      1025      1087      1083      4152      4153      4136
 -1      2109    8    0    1
 -2      1036      1009      1088      3987      4154      4155
 -1      2110    8    0    1
 -2      1049      1036      1088      4079      4155      4156
 -1      2111    8    0    1
 -2      1009      1057      1088      4052      4157      4154
 -1      2112    8    0    1
 -2      1037      1039      1089      3995      4158      4159
 -1      2113    8    0    1
 -2      1031      1042      1090      4004      4160      4161
 -1      2114    8    0    1
 -2       998      1003      1091      4050      4162      4163
 -1      2115    8    0    1
 -2      1059       998      1091      4056      4163      4164
 -1      2116    8    0    1
 -2      1003      1064      1091      4078      4165      4162
 -1      2117    8    0    1
 -2      1013      1012      1092      3921      4166      4167
 -1      2118    8    0    1
 -2      1013      1092      1070      4167      4168      4099
 -1      2119    8    0    1
 -2      1058      1023      1062      4089      4169      4144
 -1      2120    8    0    1
 -2      1043      1038      1093      4007      4170      4171
 -1      2121    8    0    1
 -2      1038      1082      1093      4135      4172      4170
 -1      2122    8    0    1
 -2      1045      1043      1094      4013      4173      4174
 -1      2123    8    0    1
 -2      1086      1045      1094      4149      4174      4175
 -1      2124    8    0    1
 -2      1043      1093      1094      4171      4176      4173
 -1      2125    8    0    1
 -2      1048      1034      1067      4071      4093      4177
 -1      2126    8    0    1
 -2      1046      1033      1095      4016      4178      4179
 -1      2127    8    0    1
 -2      1046      1095      1082      4179      4180      4134
 -1      2128    8    0    1
 -2      1042      1048      1096      4021      4181      4182
 -1      2129    8    0    1
 -2      1042      1096      1090      4182      4183      4160
 -1      2130    8    0    1
 -2      1068      1030      1097      4145      4184      4185
 -1      2131    8    0    1
 -2      1080      1068      1097      4129      4185      4186
 -1      2132    8    0    1
 -2      1030      1029      1097      3971      4187      4184
 -1      2133    8    0    1
 -2      1033      1037      1098      3990      4188      4189
 -1      2134    8    0    1
 -2      1037      1089      1098      4159      4190      4188
 -1      2135    8    0    1
 -2      1062      1023      1079      4169      4126      4191
 -1      2136    8    0    1
 -2      1052       995      1066      4150      4192      4128
 -1      2137    8    0    1
 -2      1004      1035      1099      3984      4193      4194
 -1      2138    8    0    1
 -2      1035      1081      1099      4132      4195      4193
 -1      2139    8    0    1
 -2      1054      1031      1100      4041      4196      4197
 -1      2140    8    0    1
 -2      1031      1090      1100      4161      4198      4196
 -1      2141    8    0    1
 -2      1047      1000      1067      4084      4199      4092
 -1      2142    8    0    1
 -2      1024      1053      1101      4037      4200      4201
 -1      2143    8    0    1
 -2      1024      1101      1087      4201      4202      4151
 -1      2144    8    0    1
 -2      1006      1050      1040      4085      4203      3999
 -1      2145    8    0    1
 -2      1057      1069      1102      4098      4204      4205
 -1      2146    8    0    1
 -2      1057      1102      1088      4205      4206      4157
 -1      2147    8    0    1
 -2      1054      1100      1103      4197      4207      4208
 -1      2148    8    0    1
 -2      1054      1103      1064      4208      4209      4076
 -1      2149    8    0    1
 -2      1069      1066      1061      4097      4210      4211
 -1      2150    8    0    1
 -2      1004      1099      1065      4194      4212      4081
 -1      2151    8    0    1
 -2      1066       995      1061      4192      4065      4210
 -1      2152    8    0    1
 -2      1049      1088      1104      4156      4213      4214
 -1      2153    8    0    1
 -2      1056      1049      1104      4047      4214      4215
 -1      2154    8    0    1
 -2      1088      1102      1104      4206      4216      4213
 -1      2155    8    0    1
 -2      1060      1059      1105      4063      4217      4218
 -1      2156    8    0    1
 -2      1061      1055      1106      4066      4219      4220
 -1      2157    8    0    1
 -2      1061      1106      1069      4220      4221      4211
 -1      2158    8    0    1
 -2      1048      1067      1096      4177      4222      4181
 -1      2159    8    0    1
 -2      1029      1028      1107      3968      4223      4224
 -1      2160    8    0    1
 -2      1033      1098      1095      4189      4225      4178
 -1      2161    8    0    1
 -2      1055      1065      1108      4083      4226      4227
 -1      2162    8    0    1
 -2      1055      1108      1106      4227      4228      4219
 -1      2163    8    0    1
 -2      1040      1050      1109      4203      4229      4230
 -1      2164    8    0    1
 -2      1039      1040      1109      3998      4230      4231
 -1      2165    8    0    1
 -2      1050      1080      1109      4130      4232      4229
 -1      2166    8    0    1
 -2      1000      1062      1067      4069      4233      4199
 -1      2167    8    0    1
 -2      1059      1091      1110      4164      4234      4235
 -1      2168    8    0    1
 -2      1059      1110      1105      4235      4236      4217
 -1      2169    8    0    1
 -2      1089      1039      1109      4158      4231      4237
 -1      2170    8    0    1
 -2      1063      1086      1101      4148      4238      4239
 -1      2171    8    0    1
 -2      1101      1053      1063      4200      4240      4239
 -1      2172    8    0    1
 -2      1012      1056      1111      4046      4241      4242
 -1      2173    8    0    1
 -2      1092      1012      1111      4166      4242      4243
 -1      2174    8    0    1
 -2      1056      1104      1111      4215      4244      4241
 -1      2175    8    0    1
 -2       996      1041      1032      4088      4245      3974
 -1      2176    8    0    1
 -2      1067      1062      1079      4233      4191      4246
 -1      2177    8    0    1
 -2      1107      1028      1085      4223      4142      4247
 -1      2178    8    0    1
 -2      1082      1095      1083      4180      4248      4249
 -1      2179    8    0    1
 -2      1065      1099      1112      4212      4250      4251
 -1      2180    8    0    1
 -2      1065      1112      1108      4251      4252      4226
 -1      2181    8    0    1
 -2      1072      1071      1113      4106      4253      4254
 -1      2182    8    0    1
 -2      1073      1072      1105      4109      4255      4256
 -1      2183    8    0    1
 -2      1074      1073      1110      4112      4257      4258
 -1      2184    8    0    1
 -2      1076      1075      1114      4118      4259      4260
 -1      2185    8    0    1
 -2      1077      1076      1100      4121      4261      4262
 -1      2186    8    0    1
 -2      1078      1077      1090      4124      4263      4264
 -1      2187    8    0    1
 -2      1079      1078      1096      4127      4265      4266
 -1      2188    8    0    1
 -2      1081      1060      1113      4133      4267      4268
 -1      2189    8    0    1
 -2      1098      1089      1085      4190      4269      4270
 -1      2190    8    0    1
 -2      1090      1096      1078      4183      4265      4264
 -1      2191    8    0    1
 -2      1069      1106      1102      4221      4271      4204
 -1      2192    8    0    1
 -2      1082      1083      1087      4249      4153      4272
 -1      2193    8    0    1
 -2      1083      1095      1084      4248      4273      4140
 -1      2194    8    0    1
 -2      1085      1084      1098      4143      4274      4270
 -1      2195    8    0    1
 -2      1095      1098      1084      4225      4274      4273
 -1      2196    8    0    1
 -2      1096      1067      1079      4222      4246      4266
 -1      2197    8    0    1
 -2      1090      1077      1100      4263      4262      4198
 -1      2198    8    0    1
 -2      1060      1105      1113      4218      4275      4267
 -1      2199    8    0    1
 -2      1093      1082      1087      4172      4272      4276
 -1      2200    8    0    1
 -2      1070      1092      1115      4168      4277      4278
 -1      2201    8    0    1
 -2      1029      1107      1097      4224      4279      4187
 -1      2202    8    0    1
 -2      1071      1070      1116      4103      4280      4281
 -1      2203    8    0    1
 -2      1113      1071      1116      4253      4281      4282
 -1      2204    8    0    1
 -2      1070      1115      1116      4278      4283      4280
 -1      2205    8    0    1
 -2      1091      1064      1117      4165      4284      4285
 -1      2206    8    0    1
 -2      1064      1103      1117      4209      4286      4284
 -1      2207    8    0    1
 -2      1099      1081      1112      4195      4287      4250
 -1      2208    8    0    1
 -2      1041      1063      1053      4074      4240      4288
 -1      2209    8    0    1
 -2      1105      1072      1113      4255      4254      4275
 -1      2210    8    0    1
 -2      1085      1089      1107      4269      4289      4247
 -1      2211    8    0    1
 -2      1073      1105      1110      4256      4236      4257
 -1      2212    8    0    1
 -2      1093      1087      1101      4276      4202      4290
 -1      2213    8    0    1
 -2      1097      1107      1080      4279      4291      4186
 -1      2214    8    0    1
 -2      1075      1074      1118      4115      4292      4293
 -1      2215    8    0    1
 -2      1102      1106      1119      4271      4294      4295
 -1      2216    8    0    1
 -2      1104      1102      1119      4216      4295      4296
 -1      2217    8    0    1
 -2      1106      1108      1119      4228      4297      4294
 -1      2218    8    0    1
 -2      1109      1080      1089      4232      4298      4237
 -1      2219    8    0    1
 -2      1075      1118      1114      4293      4299      4259
 -1      2220    8    0    1
 -2      1110      1091      1117      4234      4285      4300
 -1      2221    8    0    1
 -2      1100      1076      1114      4261      4260      4301
 -1      2222    8    0    1
 -2      1101      1086      1094      4238      4175      4302
 -1      2223    8    0    1
 -2      1089      1080      1107      4298      4291      4289
 -1      2224    8    0    1
 -2      1093      1101      1094      4290      4302      4176
 -1      2225    8    0    1
 -2      1108      1112      1115      4252      4303      4304
 -1      2226    8    0    1
 -2      1032      1041      1053      4245      4288      4072
 -1      2227    8    0    1
 -2      1074      1110      1118      4258      4305      4292
 -1      2228    8    0    1
 -2      1115      1112      1116      4303      4306      4283
 -1      2229    8    0    1
 -2      1081      1113      1112      4268      4307      4287
 -1      2230    8    0    1
 -2      1092      1111      1119      4243      4308      4309
 -1      2231    8    0    1
 -2      1119      1108      1115      4297      4304      4310
 -1      2232    8    0    1
 -2      1092      1119      1115      4309      4310      4277
 -1      2233    8    0    1
 -2      1114      1118      1117      4299      4311      4312
 -1      2234    8    0    1
 -2      1118      1110      1117      4305      4300      4311
 -1      2235    8    0    1
 -2      1103      1100      1114      4207      4301      4313
 -1      2236    8    0    1
 -2      1117      1103      1114      4286      4313      4312
 -1      2237    8    0    1
 -2      1104      1119      1111      4296      4308      4244
 -1      2238    8    0    1
 -2      1112      1113      1116      4307      4282      4306
 -3
    1PSTEP                         1           1           1          
  100CL  101 1.000000000        4313                     0    1           1
 -4  DISP        4    1
 -5  D1          1    2    1    0
 -5  D2          1    2    2    0
 -5  D3          1    2    3    0
 -5  ALL         1    2    0    0    1ALL
 -1         1 8.49539E-03-6.07860E-04-2.09437E-14
 -1         2 1.06708E-02 2.62852E-04-2.46570E-14
 -1         3 1.55169E-02 1.55397E-03-6.21276E-14
 -1         4 1.48682E-02 1.54021E-04-5.89178E-14
 -1         5 0.00000E+00 0.00000E+00 0.00000E+00
 -1         6 0.00000E+00 0.00000E+00 0.00000E+00
 -1         7 0.00000E+00 0.00000E+00 0.00000E+00
 -1         8 0.00000E+00 0.00000E+00 0.00000E+00
 -1         9 0.00000E+00 0.00000E+00 0.00000E+00
 -1        10 0.00000E+00 0.00000E+00 0.00000E+00
 -1        11 0.00000E+00 0.00000E+00 0.00000E+00
 -1        12 0.00000E+00 0.00000E+00 0.00000E+00
 -1        13 0.00000E+00 0.00000E+00 0.00000E+00
 -1        14 0.00000E+00 0.00000E+00 0.00000E+00
 -1        15 0.00000E+00 0.00000E+00 0.00000E+00
 -1        16 0.00000E+00 0.00000E+00 0.00000E+00
 -1        17 0.00000E+00 0.00000E+00 0.00000E+00
 -1        18 0.00000E+00 0.00000E+00 0.00000E+00
 -1        19 0.00000E+00 0.00000E+00 0.00000E+00
 -1        20 0.00000E+00 0.00000E+00 0.00000E+00
 -1        21 0.00000E+00 0.00000E+00 0.00000E+00
 -1        22 0.00000E+00 0.00000E+00 0.00000E+00
 -1        23 4.10582E-04-2.60234E-04 3.27836E-17
 -1        24 7.01935E-04-3.99909E-04 9.91367E-18
 -1        25 9.71422E-04-4.96489E-04-6.93246E-17
 -1        26 1.23538E-03-5.64157E-04-2.06768E-16
 -1        27 1.49846E-03-6.11996E-04-4.01924E-16
 -1        28 1.76281E-03-6.45326E-04-6.54546E-16
 -1        29 2.02948E-03-6.67783E-04-9.62104E-16
 -1        30 2.29896E-03-6.81990E-04-1.32576E-15
 -1        31 2.57150E-03-6.89905E-04-1.74729E-15
 -1        32 2.84723E-03-6.93019E-04-2.22482E-15
 -1        33 3.12625E-03-6.92495E-04-2.75721E-15
 -1        34 3.40874E-03-6.89286E-04-3.33917E-15
 -1        35 3.69498E-03-6.84232E-04-3.97464E-15
 -1        36 3.98538E-03-6.78173E-04-4.66636E-15
 -1        37 4.28050E-03-6.72051E-04-5.41150E-15
 -1        38 4.58099E-03-6.67026E-04-6.21131E-15
 -1        39 4.88756E-03-6.64584E-04-7.06345E-15
 -1        40 5.20079E-03-6.66623E-04-7.96389E-15
 -1        41 5.52094E-03-6.75476E-04-8.91187E-15
 -1        42 5.84757E-03-6.93805E-04-9.90471E-15
 -1        43 6.17913E-03-7.24243E-04-1.09506E-14
 -1        44 6.51251E-03-7.68689E-04-1.20488E-14
 -1        45 6.84284E-03-8.27159E-04-1.31961E-14
 -1        46 7.16389E-03-8.96359E-04-1.43876E-14
 -1        47 7.46939E-03-9.68496E-04-1.56216E-14
 -1        48 7.75540E-03-1.03134E-03-1.68918E-14
 -1        49 8.02277E-03-1.07051E-03-1.81979E-14
 -1        50 8.27832E-03-1.07386E-03-1.95435E-14
 -1        51 8.53313E-03-1.03624E-03-2.09338E-14
 -1        52 8.79858E-03-9.61724E-04-2.23724E-14
 -1        53 9.08212E-03-8.61792E-04-2.38559E-14
 -1        54 9.38537E-03-7.50801E-04-2.53916E-14
 -1        55 9.70486E-03-6.41405E-04-2.69791E-14
 -1        56 1.00345E-02-5.41967E-04-2.86106E-14
 -1        57 1.03680E-02-4.56275E-04-3.02915E-14
 -1        58 1.07002E-02-3.84629E-04-3.20067E-14
 -1        59 1.10280E-02-3.25290E-04-3.37505E-14
 -1        60 1.13497E-02-2.75677E-04-3.55197E-14
 -1        61 1.16648E-02-2.33135E-04-3.73177E-14
 -1        62 1.19736E-02-1.95332E-04-3.91621E-14
 -1        63 1.22769E-02-1.60402E-04-4.10538E-14
 -1        64 1.25754E-02-1.26947E-04-4.29762E-14
 -1        65 1.28702E-02-9.39715E-05-4.49340E-14
 -1        66 1.31619E-02-6.08022E-05-4.69184E-14
 -1        67 1.34513E-02-2.70025E-05-4.89207E-14
 -1        68 1.37390E-02 7.69180E-06-5.09242E-14
 -1        69 1.40255E-02 4.34164E-05-5.29303E-14
 -1        70 1.43113E-02 8.01868E-05-5.49396E-14
 -1        71 1.45969E-02 1.17843E-04-5.69671E-14
 -1        72 4.13020E-04 2.60938E-04 1.21905E-17
 -1        73 7.01747E-04 4.02614E-04-4.88874E-17
 -1        74 9.71935E-04 4.98259E-04-1.77697E-16
 -1        75 1.23617E-03 5.65860E-04-3.73809E-16
 -1        76 1.49935E-03 6.13733E-04-6.35807E-16
 -1        77 1.76374E-03 6.47123E-04-9.62091E-16
 -1        78 2.03040E-03 6.69637E-04-1.34953E-15
 -1        79 2.29986E-03 6.83873E-04-1.79504E-15
 -1        80 2.57236E-03 6.91763E-04-2.29700E-15
 -1        81 2.84804E-03 6.94760E-04-2.85515E-15
 -1        82 3.12705E-03 6.93981E-04-3.46814E-15
 -1        83 3.40961E-03 6.90311E-04-4.13334E-15
 -1        84 3.69610E-03 6.84513E-04-4.85268E-15
 -1        85 3.98712E-03 6.77331E-04-5.62851E-15
 -1        86 4.28351E-03 6.69622E-04-6.46323E-15
 -1        87 4.58644E-03 6.62505E-04-7.35479E-15
 -1        88 4.89735E-03 6.57552E-04-8.29909E-15
 -1        89 5.21798E-03 6.57027E-04-9.28826E-15
 -1        90 5.55012E-03 6.64149E-04-1.03227E-14
 -1        91 5.89530E-03 6.83330E-04-1.14034E-14
 -1        92 6.25401E-03 7.20225E-04-1.25350E-14
 -1        93 6.62458E-03 7.81240E-04-1.37181E-14
 -1        94 7.00169E-03 8.71952E-04-1.49497E-14
 -1        95 7.37520E-03 9.93858E-04-1.62210E-14
 -1        96 7.73086E-03 1.13954E-03-1.75350E-14
 -1        97 8.05485E-03 1.28858E-03-1.88849E-14
 -1        98 8.34205E-03 1.40930E-03-2.02922E-14
 -1        99 8.60310E-03 1.47030E-03-2.17508E-14
 -1       100 8.86231E-03 1.45702E-03-2.32568E-14
 -1       101 9.14518E-03 1.38091E-03-2.48137E-14
 -1       102 9.46456E-03 1.27224E-03-2.63990E-14
 -1       103 9.81701E-03 1.16341E-03-2.80193E-14
 -1       104 1.01892E-02 1.07647E-03-2.96674E-14
 -1       105 1.05667E-02 1.02032E-03-3.13478E-14
 -1       106 1.09387E-02 9.94333E-04-3.30780E-14
 -1       107 1.12993E-02 9.93185E-04-3.48601E-14
 -1       108 1.16466E-02 1.01045E-03-3.66821E-14
 -1       109 1.19809E-02 1.04032E-03-3.85492E-14
 -1       110 1.23039E-02 1.07827E-03-4.04492E-14
 -1       111 1.26174E-02 1.12097E-03-4.23674E-14
 -1       112 1.29233E-02 1.16616E-03-4.43192E-14
 -1       113 1.32232E-02 1.21232E-03-4.62974E-14
 -1       114 1.35186E-02 1.25847E-03-4.83059E-14
 -1       115 1.38106E-02 1.30405E-03-5.03200E-14
 -1       116 1.41001E-02 1.34869E-03-5.23189E-14
 -1       117 1.43878E-02 1.39223E-03-5.43129E-14
 -1       118 1.46743E-02 1.43459E-03-5.62952E-14
 -1       119 1.49601E-02 1.47582E-03-5.82791E-14
 -1       120 1.52456E-02 1.51610E-03-6.02562E-14
 -1       121 1.54778E-02 1.46959E-03-6.19957E-14
 -1       122 1.54391E-02 1.38515E-03-6.18894E-14
 -1       123 1.54012E-02 1.30098E-03-6.17874E-14
 -1       124 1.53640E-02 1.21747E-03-6.16873E-14
 -1       125 1.53274E-02 1.13486E-03-6.15494E-14
 -1       126 1.52915E-02 1.05457E-03-6.13980E-14
 -1       127 1.52546E-02 9.73706E-04-6.12158E-14
 -1       128 1.52171E-02 8.93382E-04-6.10108E-14
 -1       129 1.51789E-02 8.13240E-04-6.07891E-14
 -1       130 1.51399E-02 7.32894E-04-6.05667E-14
 -1       131 1.51002E-02 6.51992E-04-6.03484E-14
 -1       132 1.50609E-02 5.71671E-04-6.01496E-14
 -1       133 1.50211E-02 4.89044E-04-5.99309E-14
 -1       134 1.49817E-02 4.05540E-04-5.96828E-14
 -1       135 1.49430E-02 3.21377E-04-5.94274E-14
 -1       136 1.49051E-02 2.36970E-04-5.91681E-14
 -1       137 1.06285E-02 4.48607E-04-2.46561E-14
 -1       138 1.04953E-02 6.09211E-04-2.44855E-14
 -1       139 1.02699E-02 7.59433E-04-2.41575E-14
 -1       140 9.96462E-03 8.90396E-04-2.36890E-14
 -1       141 9.60897E-03 9.90097E-04-2.31386E-14
 -1       142 9.15446E-03 1.06614E-03-2.24357E-14
 -1       143 8.68172E-03 1.09495E-03-2.17128E-14
 -1       144 8.18079E-03 1.07607E-03-2.09465E-14
 -1       145 7.70120E-03 1.00897E-03-2.02110E-14
 -1       146 7.28455E-03 9.08679E-04-1.95735E-14
 -1       147 6.93105E-03 7.82239E-04-1.90265E-14
 -1       148 6.64425E-03 6.35469E-04-1.85739E-14
 -1       149 6.43046E-03 4.70786E-04-1.82207E-14
 -1       150 6.30334E-03 2.88054E-04-1.79870E-14
 -1       151 6.28509E-03 9.97262E-05-1.79080E-14
 -1       152 6.36830E-03-6.61184E-05-1.79812E-14
 -1       153 6.54946E-03-2.23154E-04-1.81931E-14
 -1       154 6.80964E-03-3.58262E-04-1.85298E-14
 -1       155 7.14196E-03-4.69678E-04-1.89793E-14
 -1       156 7.52496E-03-5.49984E-04-1.95147E-14
 -1       157 8.03400E-03-6.03891E-04-2.02538E-14
 -1       158 8.97293E-03-5.70925E-04-2.16842E-14
 -1       159 9.42406E-03-4.95107E-04-2.24077E-14
 -1       160 9.81818E-03-3.88907E-04-2.30672E-14
 -1       161 1.01529E-02-2.56176E-04-2.36448E-14
 -1       162 1.04309E-02-9.09590E-05-2.41487E-14
 -1       163 1.06012E-02 8.11096E-05-2.44766E-14
 -1       164 2.40158E-04-1.25281E-04-1.31798E-18
 -1       165 2.25192E-04-9.44017E-05-1.20177E-17
 -1       166 2.19552E-04-7.25613E-05-1.85263E-17
 -1       167 2.16818E-04-5.48999E-05-2.28699E-17
 -1       168 2.15378E-04-3.97852E-05-2.56617E-17
 -1       169 2.14572E-04-2.57791E-05-2.77081E-17
 -1       170 2.14167E-04-1.25728E-05-2.91074E-17
 -1       171 2.14050E-04 2.69193E-07-3.04356E-17
 -1       172 2.14188E-04 1.31242E-05-3.11810E-17
 -1       173 2.14616E-04 2.63718E-05-3.15638E-17
 -1       174 2.15431E-04 4.02081E-05-3.14791E-17
 -1       175 2.16930E-04 5.57054E-05-3.07981E-17
 -1       176 2.19705E-04 7.36024E-05-2.87449E-17
 -1       177 2.25359E-04 9.58027E-05-2.44657E-17
 -1       178 2.39084E-04 1.27359E-04-1.60225E-17
 -1       179 2.97241E-04 1.85160E-04-7.92484E-18
 -1       180 4.67943E-04-2.62924E-04-7.25738E-18
 -1       181 7.65680E-04-3.80826E-04-7.37461E-17
 -1       182 1.04919E-03-4.62761E-04-1.94675E-16
 -1       183 1.32633E-03-5.20270E-04-3.71912E-16
 -1       184 1.60083E-03-5.60307E-04-6.05242E-16
 -1       185 1.87482E-03-5.87481E-04-8.93901E-16
 -1       186 2.14953E-03-6.05010E-04-1.23821E-15
 -1       187 2.42572E-03-6.15236E-04-1.63832E-15
 -1       188 2.70382E-03-6.19904E-04-2.09429E-15
 -1       189 2.98415E-03-6.20337E-04-2.60485E-15
 -1       190 3.26700E-03-6.17574E-04-3.16804E-15
 -1       191 3.55262E-03-6.12478E-04-3.78326E-15
 -1       192 3.84136E-03-6.05851E-04-4.45338E-15
 -1       193 4.13363E-03-5.98540E-04-5.17548E-15
 -1       194 4.42987E-03-5.91560E-04-5.95370E-15
 -1       195 4.73060E-03-5.86212E-04-6.78184E-15
 -1       196 5.03624E-03-5.84202E-04-7.65990E-15
 -1       197 5.34710E-03-5.87717E-04-8.58545E-15
 -1       198 5.66313E-03-5.99420E-04-9.56001E-15
 -1       199 5.98372E-03-6.22253E-04-1.05817E-14
 -1       200 6.30745E-03-6.58928E-04-1.16564E-14
 -1       201 6.63190E-03-7.10964E-04-1.27822E-14
 -1       202 6.95369E-03-7.77249E-04-1.39557E-14
 -1       203 7.26892E-03-8.52422E-04-1.51731E-14
 -1       204 7.57420E-03-9.25913E-04-1.64275E-14
 -1       205 7.86824E-03-9.82903E-04-1.77205E-14
 -1       206 8.15306E-03-1.00807E-03-1.90512E-14
 -1       207 8.43403E-03-9.91172E-04-2.04246E-14
 -1       208 8.71804E-03-9.31588E-04-2.18445E-14
 -1       209 9.01077E-03-8.38528E-04-2.33159E-14
 -1       210 9.31471E-03-7.26971E-04-2.48331E-14
 -1       211 9.62892E-03-6.12033E-04-2.63988E-14
 -1       212 9.95021E-03-5.04901E-04-2.80121E-14
 -1       213 1.02747E-02-4.11536E-04-2.96691E-14
 -1       214 1.05989E-02-3.33472E-04-3.13658E-14
 -1       215 1.09204E-02-2.69419E-04-3.30981E-14
 -1       216 1.12376E-02-2.16748E-04-3.48563E-14
 -1       217 1.15499E-02-1.72524E-04-3.66451E-14
 -1       218 1.18573E-02-1.34068E-04-3.84662E-14
 -1       219 1.21602E-02-9.91913E-05-4.03382E-14
 -1       220 1.24590E-02-6.62355E-05-4.22408E-14
 -1       221 1.27545E-02-3.40128E-05-4.41772E-14
 -1       222 1.30472E-02-1.71515E-06-4.61407E-14
 -1       223 1.33377E-02 3.11808E-05-4.81334E-14
 -1       224 1.36266E-02 6.49951E-05-5.01358E-14
 -1       225 1.39141E-02 9.99045E-05-5.21456E-14
 -1       226 1.42008E-02 1.35973E-04-5.41563E-14
 -1       227 1.44869E-02 1.73133E-04-5.61776E-14
 -1       228 6.03624E-04 3.30140E-04-7.44000E-17
 -1       229 8.92297E-04 4.30968E-04-2.05141E-16
 -1       230 1.17084E-03 5.01642E-04-4.00420E-16
 -1       231 1.44494E-03 5.51306E-04-6.58941E-16
 -1       232 1.71766E-03 5.85701E-04-9.79614E-16
 -1       233 1.99071E-03 6.08718E-04-1.36104E-15
 -1       234 2.26506E-03 6.23131E-04-1.80170E-15
 -1       235 2.54128E-03 6.30974E-04-2.29798E-15
 -1       236 2.81974E-03 6.33760E-04-2.84961E-15
 -1       237 3.10075E-03 6.32629E-04-3.45520E-15
 -1       238 3.38461E-03 6.28466E-04-4.11457E-15
 -1       239 3.67171E-03 6.22009E-04-4.82663E-15
 -1       240 3.96258E-03 6.13958E-04-5.59423E-15
 -1       241 4.25790E-03 6.05100E-04-6.41789E-15
 -1       242 4.55854E-03 5.96467E-04-7.29777E-15
 -1       243 4.86556E-03 5.89526E-04-8.22990E-15
 -1       244 5.18019E-03 5.86426E-04-9.21200E-15
 -1       245 5.50364E-03 5.90290E-04-1.02380E-14
 -1       246 5.83692E-03 6.05500E-04-1.13091E-14
 -1       247 6.18040E-03 6.37845E-04-1.24344E-14
 -1       248 6.53316E-03 6.94186E-04-1.36067E-14
 -1       249 6.89224E-03 7.81050E-04-1.48273E-14
 -1       250 7.25201E-03 9.01461E-04-1.60865E-14
 -1       251 7.60436E-03 1.04975E-03-1.73867E-14
 -1       252 7.94094E-03 1.20631E-03-1.87325E-14
 -1       253 8.25758E-03 1.33779E-03-2.01305E-14
 -1       254 8.55886E-03 1.40858E-03-2.15803E-14
 -1       255 8.85778E-03 1.39991E-03-2.30789E-14
 -1       256 9.16880E-03 1.32221E-03-2.46242E-14
 -1       257 9.49944E-03 1.20815E-03-2.62024E-14
 -1       258 9.84783E-03 1.09337E-03-2.78138E-14
 -1       259 1.02063E-02 1.00196E-03-2.94569E-14
 -1       260 1.05665E-02 9.43425E-04-3.11376E-14
 -1       261 1.09218E-02 9.16809E-04-3.28648E-14
 -1       262 1.12686E-02 9.16216E-04-3.46403E-14
 -1       263 1.16054E-02 9.34673E-04-3.64551E-14
 -1       264 1.19325E-02 9.66005E-04-3.83054E-14
 -1       265 1.22506E-02 1.00542E-03-4.01903E-14
 -1       266 1.25612E-02 1.04949E-03-4.21003E-14
 -1       267 1.28655E-02 1.09587E-03-4.40430E-14
 -1       268 1.31648E-02 1.14303E-03-4.60132E-14
 -1       269 1.34601E-02 1.19003E-03-4.80067E-14
 -1       270 1.37524E-02 1.23628E-03-5.00159E-14
 -1       271 1.40424E-02 1.28147E-03-5.20163E-14
 -1       272 1.43307E-02 1.32543E-03-5.40112E-14
 -1       273 1.46179E-02 1.36811E-03-5.60041E-14
 -1       274 1.49042E-02 1.40955E-03-5.79906E-14
 -1       275 1.51901E-02 1.44994E-03-5.99727E-14
 -1       276 1.52109E-02 1.39311E-03-6.02249E-14
 -1       277 1.51726E-02 1.30919E-03-6.01022E-14
 -1       278 1.51353E-02 1.22578E-03-5.99722E-14
 -1       279 1.50987E-02 1.14303E-03-5.98297E-14
 -1       280 1.50630E-02 1.06240E-03-5.96752E-14
 -1       281 1.50266E-02 9.81051E-04-5.95013E-14
 -1       282 1.49896E-02 9.00209E-04-5.93138E-14
 -1       283 1.49518E-02 8.19635E-04-5.91114E-14
 -1       284 1.49130E-02 7.39048E-04-5.89012E-14
 -1       285 1.48735E-02 6.58170E-04-5.86861E-14
 -1       286 1.48342E-02 5.78156E-04-5.84736E-14
 -1       287 1.47940E-02 4.96096E-04-5.82507E-14
 -1       288 1.47541E-02 4.13318E-04-5.80138E-14
 -1       289 1.47149E-02 3.29890E-04-5.77736E-14
 -1       290 1.46006E-02 2.51567E-04-5.69767E-14
 -1       291 1.06897E-02 3.18506E-04-2.54722E-14
 -1       292 1.05556E-02 4.29931E-04-2.51812E-14
 -1       293 1.03140E-02 5.51994E-04-2.49182E-14
 -1       294 9.99507E-03 7.14785E-04-2.44065E-14
 -1       295 9.63627E-03 8.81440E-04-2.38045E-14
 -1       296 9.23309E-03 1.04012E-03-2.31197E-14
 -1       297 8.85050E-03 1.14655E-03-2.22204E-14
 -1       298 8.45957E-03 1.17279E-03-2.13482E-14
 -1       299 8.07147E-03 1.09429E-03-2.04380E-14
 -1       300 7.65851E-03 9.35202E-04-1.96545E-14
 -1       301 7.26494E-03 7.55683E-04-1.89860E-14
 -1       302 6.90277E-03 5.75800E-04-1.84124E-14
 -1       303 6.58842E-03 4.16914E-04-1.79531E-14
 -1       304 6.35648E-03 2.86470E-04-1.76196E-14
 -1       305 6.25128E-03 1.76500E-04-1.73721E-14
 -1       306 6.30464E-03 8.03726E-05-1.74381E-14
 -1       307 6.48901E-03-2.01811E-05-1.75332E-14
 -1       308 6.77324E-03-1.61454E-04-1.78838E-14
 -1       309 7.11747E-03-3.19573E-04-1.83372E-14
 -1       310 7.47858E-03-4.79385E-04-1.89316E-14
 -1       311 7.90010E-03-6.20903E-04-1.96103E-14
 -1       312 8.28960E-03-6.85017E-04-2.04968E-14
 -1       313 8.66667E-03-6.60510E-04-2.13438E-14
 -1       314 9.06425E-03-5.50758E-04-2.22030E-14
 -1       315 9.46131E-03-3.89722E-04-2.30203E-14
 -1       316 9.84763E-03-2.10141E-04-2.37560E-14
 -1       317 1.02060E-02-2.25600E-05-2.44725E-14
 -1       318 1.05043E-02 1.11043E-04-2.49013E-14
 -1       319 1.06686E-02 2.22645E-04-2.52007E-14
 -1       320 4.55355E-04-1.64179E-04-6.67496E-17
 -1       321 4.73941E-04-2.12329E-04-4.77998E-17
 -1       322 4.40705E-04-9.35016E-05-8.90333E-17
 -1       323 4.37802E-04-6.45048E-05-9.56029E-17
 -1       324 4.36210E-04-3.76471E-05-1.00648E-16
 -1       325 4.35513E-04-1.19337E-05-1.04531E-16
 -1       326 4.35545E-04 1.34358E-05-1.07509E-16
 -1       327 4.36313E-04 3.92090E-05-1.09111E-16
 -1       328 4.37951E-04 6.57247E-05-1.09450E-16
 -1       329 4.40945E-04 9.48973E-05-1.08268E-16
 -1       330 4.46215E-04 1.27748E-04-1.04924E-16
 -1       331 4.55858E-04 1.66693E-04-9.76561E-17
 -1       332 4.75563E-04 2.16398E-04-8.45000E-17
 -1       333 5.31423E-04 2.69214E-04-8.24468E-17
 -1       334 8.23617E-04 3.71985E-04-2.12886E-16
 -1       335 8.62615E-04-3.55724E-04-1.71595E-16
 -1       336 1.14885E-03-4.23369E-04-3.32413E-16
 -1       337 1.43162E-03-4.71071E-04-5.48074E-16
 -1       338 1.71248E-03-5.03901E-04-8.18346E-16
 -1       339 1.99261E-03-5.25564E-04-1.14361E-15
 -1       340 2.27288E-03-5.38792E-04-1.52366E-15
 -1       341 2.55388E-03-5.45614E-04-1.95799E-15
 -1       342 2.83603E-03-5.47553E-04-2.44766E-15
 -1       343 3.11965E-03-5.45770E-04-2.99150E-15
 -1       344 3.40502E-03-5.41190E-04-3.58685E-15
 -1       345 3.69243E-03-5.34609E-04-4.23572E-15
 -1       346 3.98218E-03-5.26807E-04-4.93767E-15
 -1       347 4.27462E-03-5.18664E-04-5.69236E-15
 -1       348 4.57017E-03-5.11283E-04-6.50049E-15
 -1       349 4.86925E-03-5.06114E-04-7.35520E-15
 -1       350 5.17231E-03-5.05068E-04-8.25930E-15
 -1       351 5.47973E-03-5.10582E-04-9.21215E-15
 -1       352 5.79175E-03-5.25571E-04-1.02124E-14
 -1       353 6.10834E-03-5.53158E-04-1.12647E-14
 -1       354 6.42888E-03-5.96026E-04-1.23682E-14
 -1       355 6.75193E-03-6.55242E-04-1.35211E-14
 -1       356 7.07494E-03-7.28524E-04-1.47215E-14
 -1       357 7.39441E-03-8.08364E-04-1.59612E-14
 -1       358 7.70696E-03-8.81159E-04-1.72377E-14
 -1       359 8.01123E-03-9.29194E-04-1.85534E-14
 -1       360 8.30956E-03-9.36412E-04-1.99118E-14
 -1       361 8.60751E-03-8.95719E-04-2.13150E-14
 -1       362 8.91085E-03-8.12768E-04-2.27676E-14
 -1       363 9.22239E-03-7.02815E-04-2.42661E-14
 -1       364 9.54122E-03-5.83716E-04-2.58140E-14
 -1       365 9.86408E-03-4.69763E-04-2.74090E-14
 -1       366 1.01874E-02-3.69194E-04-2.90483E-14
 -1       367 1.05085E-02-2.84818E-04-3.07275E-14
 -1       368 1.08259E-02-2.15859E-04-3.24435E-14
 -1       369 1.11389E-02-1.59750E-04-3.41889E-14
 -1       370 1.14474E-02-1.13382E-04-3.59700E-14
 -1       371 1.17518E-02-7.38141E-05-3.77756E-14
 -1       372 1.20523E-02-3.85875E-05-3.96221E-14
 -1       373 1.23496E-02-5.80426E-06-4.15094E-14
 -1       374 1.26442E-02 2.59135E-05-4.34270E-14
 -1       375 1.29365E-02 5.75145E-05-4.53763E-14
 -1       376 1.32269E-02 8.96191E-05-4.73473E-14
 -1       377 1.35159E-02 1.22610E-04-4.93429E-14
 -1       378 1.38038E-02 1.56706E-04-5.13486E-14
 -1       379 1.40908E-02 1.92010E-04-5.33627E-14
 -1       380 1.43459E-02 2.21334E-04-5.51622E-14
 -1       381 1.10888E-03 4.45258E-04-4.05502E-16
 -1       382 1.38952E-03 4.96925E-04-6.59862E-16
 -1       383 1.66787E-03 5.32710E-04-9.74762E-16
 -1       384 1.94553E-03 5.56642E-04-1.34948E-15
 -1       385 2.22355E-03 5.71627E-04-1.78331E-15
 -1       386 2.50261E-03 5.79793E-04-2.27326E-15
 -1       387 2.78317E-03 5.82717E-04-2.81768E-15
 -1       388 3.06558E-03 5.81576E-04-3.41553E-15
 -1       389 3.35018E-03 5.77271E-04-4.06713E-15
 -1       390 3.63731E-03 5.70533E-04-4.77121E-15
 -1       391 3.92741E-03 5.62035E-04-5.52969E-15
 -1       392 4.22101E-03 5.52518E-04-6.34225E-15
 -1       393 4.51876E-03 5.42936E-04-7.21167E-15
 -1       394 4.82146E-03 5.34652E-04-8.13389E-15
 -1       395 5.13002E-03 5.29673E-04-9.10625E-15
 -1       396 5.44543E-03 5.30940E-04-1.01237E-14
 -1       397 5.76864E-03 5.42640E-04-1.11880E-14
 -1       398 6.10046E-03 5.70410E-04-1.23041E-14
 -1       399 6.44121E-03 6.21175E-04-1.34667E-14
 -1       400 6.79019E-03 7.02080E-04-1.46748E-14
 -1       401 7.14499E-03 8.17719E-04-1.59233E-14
 -1       402 7.50053E-03 9.65183E-04-1.72137E-14
 -1       403 7.84937E-03 1.12748E-03-1.85508E-14
 -1       404 8.18501E-03 1.27096E-03-1.99383E-14
 -1       405 8.50784E-03 1.35493E-03-2.13798E-14
 -1       406 8.82723E-03 1.35382E-03-2.28702E-14
 -1       407 9.15547E-03 1.27595E-03-2.44079E-14
 -1       408 9.49790E-03 1.15723E-03-2.59795E-14
 -1       409 9.85091E-03 1.03731E-03-2.75815E-14
 -1       410 1.02070E-02 9.42222E-04-2.92188E-14
 -1       411 1.05596E-02 8.81654E-04-3.08916E-14
 -1       412 1.09051E-02 8.54198E-04-3.26148E-14
 -1       413 1.12420E-02 8.53514E-04-3.43840E-14
 -1       414 1.15701E-02 8.72325E-04-3.61940E-14
 -1       415 1.18901E-02 9.04257E-04-3.80349E-14
 -1       416 1.22030E-02 9.44387E-04-3.99058E-14
 -1       417 1.25098E-02 9.89191E-04-4.18088E-14
 -1       418 1.28116E-02 1.03628E-03-4.37440E-14
 -1       419 1.31093E-02 1.08409E-03-4.57057E-14
 -1       420 1.34037E-02 1.13165E-03-4.76897E-14
 -1       421 1.36956E-02 1.17840E-03-4.96904E-14
 -1       422 1.39855E-02 1.22401E-03-5.16872E-14
 -1       423 1.42739E-02 1.26833E-03-5.36849E-14
 -1       424 1.45612E-02 1.31132E-03-5.56831E-14
 -1       425 1.48478E-02 1.35300E-03-5.76769E-14
 -1       426 1.50294E-02 1.37326E-03-5.89517E-14
 -1       427 1.48699E-02 1.14992E-03-5.81320E-14
 -1       428 1.49065E-02 1.23280E-03-5.82852E-14
 -1       429 1.49676E-02 1.30286E-03-5.86242E-14
 -1       430 1.48344E-02 1.06916E-03-5.79736E-14
 -1       431 1.47983E-02 9.87680E-04-5.77974E-14
 -1       432 1.47618E-02 9.06763E-04-5.76117E-14
 -1       433 1.47246E-02 8.26202E-04-5.74166E-14
 -1       434 1.46863E-02 7.45751E-04-5.72182E-14
 -1       435 1.46471E-02 6.65149E-04-5.70132E-14
 -1       436 1.46077E-02 5.85537E-04-5.68021E-14
 -1       437 1.45673E-02 5.03987E-04-5.65805E-14
 -1       438 1.45269E-02 4.21756E-04-5.63493E-14
 -1       439 1.44870E-02 3.38820E-04-5.61202E-14
 -1       440 1.04429E-02 4.26777E-04-2.58205E-14
 -1       441 1.07157E-02 2.78574E-04-2.61301E-14
 -1       442 1.06381E-02 3.45944E-04-2.61209E-14
 -1       443 1.01077E-02 5.77078E-04-2.52796E-14
 -1       444 9.75687E-03 7.55757E-04-2.46086E-14
 -1       445 4.45744E-04-1.25907E-04-7.97736E-17
 -1       446 8.96681E-03 1.13722E-03-2.28479E-14
 -1       447 8.67156E-03 1.20751E-03-2.19652E-14
 -1       448 8.32121E-03 1.17909E-03-2.08957E-14
 -1       449 7.89734E-03 1.00204E-03-1.97059E-14
 -1       450 7.58318E-03 8.32369E-04-1.90393E-14
 -1       451 7.15352E-03 5.97145E-04-1.82483E-14
 -1       452 6.77985E-03 4.17742E-04-1.77058E-14
 -1       453 6.46936E-03 2.77313E-04-1.71903E-14
 -1       454 6.27916E-03 1.98525E-04-1.69431E-14
 -1       455 6.24483E-03 1.34946E-04-1.67591E-14
 -1       456 6.35710E-03 8.18453E-05-1.68496E-14
 -1       457 6.65407E-03-3.59242E-05-1.71538E-14
 -1       458 6.99095E-03-1.85642E-04-1.75730E-14
 -1       459 7.36897E-03-3.78840E-04-1.82761E-14
 -1       460 7.72291E-03-5.47859E-04-1.89399E-14
 -1       461 8.14300E-03-6.96616E-04-1.99426E-14
 -1       462 8.46381E-03-7.13732E-04-2.08812E-14
 -1       463 8.81538E-03-6.28655E-04-2.19393E-14
 -1       464 9.18166E-03-4.60522E-04-2.28755E-14
 -1       465 9.57858E-03-2.52645E-04-2.37780E-14
 -1       466 9.95200E-03-5.29402E-05-2.46449E-14
 -1       467 1.03652E-02 1.32338E-04-2.54622E-14
 -1       468 1.06207E-02 2.26036E-04-2.58300E-14
 -1       469 9.40933E-03 9.35259E-04-2.39204E-14
 -1       470 1.07321E-02 3.10413E-04-2.67857E-14
 -1       471 7.95055E-03-6.47312E-04-1.92630E-14
 -1       472 9.30841E-04 3.44096E-04-3.31281E-16
 -1       473 6.66272E-04-7.45175E-05-2.11555E-16
 -1       474 6.70188E-04-1.15030E-04-2.00466E-16
 -1       475 6.63624E-04 1.09193E-06-2.26497E-16
 -1       476 6.64345E-04 3.84255E-05-2.30637E-16
 -1       477 6.66473E-04 7.61875E-05-2.32660E-16
 -1       478 6.70521E-04 1.16859E-04-2.32223E-16
 -1       479 6.77420E-04 1.61305E-04-2.28421E-16
 -1       480 6.89121E-04 2.11558E-04-2.19873E-16
 -1       481 1.21670E-03 4.03375E-04-5.60031E-16
 -1       482 9.76080E-04-3.26533E-04-2.84969E-16
 -1       483 9.20640E-03 1.04474E-03-2.38232E-14
 -1       484 1.26203E-03-3.80123E-04-4.83361E-16
 -1       485 1.54715E-03-4.18225E-04-7.35712E-16
 -1       486 1.83150E-03-4.44142E-04-1.04238E-15
 -1       487 2.11543E-03-4.60691E-04-1.40310E-15
 -1       488 2.39932E-03-4.70068E-04-1.81766E-15
 -1       489 2.68351E-03-4.73954E-04-2.28598E-15
 -1       490 2.96826E-03-4.73632E-04-2.80858E-15
 -1       491 3.25380E-03-4.70096E-04-3.38486E-15
 -1       492 3.54034E-03-4.64156E-04-4.01401E-15
 -1       493 3.82811E-03-4.56541E-04-4.69600E-15
 -1       494 4.11737E-03-4.48007E-04-5.42909E-15
 -1       495 4.40844E-03-4.39450E-04-6.21456E-15
 -1       496 4.70172E-03-4.32027E-04-7.04908E-15
 -1       497 4.99775E-03-4.27277E-04-7.93082E-15
 -1       498 5.29722E-03-4.27231E-04-8.86287E-15
 -1       499 5.60097E-03-4.34473E-04-9.84321E-15
 -1       500 5.91001E-03-4.52103E-04-1.08736E-14
 -1       501 6.22530E-03-4.83474E-04-1.19544E-14
 -1       502 6.54729E-03-5.31524E-04-1.30873E-14
 -1       503 6.87523E-03-5.97401E-04-1.42687E-14
 -1       504 7.20631E-03-6.78182E-04-1.54922E-14
 -1       505 7.53554E-03-7.64062E-04-1.67529E-14
 -1       506 7.85771E-03-8.36866E-04-1.80530E-14
 -1       507 8.17117E-03-8.73824E-04-1.93941E-14
 -1       508 8.48031E-03-8.57687E-04-2.07803E-14
 -1       509 8.79289E-03-7.87408E-04-2.22149E-14
 -1       510 9.11391E-03-6.78568E-04-2.36988E-14
 -1       511 9.44254E-03-5.53923E-04-2.52293E-14
 -1       512 9.77376E-03-4.32518E-04-2.68039E-14
 -1       513 1.01024E-02-3.25167E-04-2.84236E-14
 -1       514 1.04253E-02-2.35483E-04-3.00853E-14
 -1       515 1.07415E-02-1.62642E-04-3.17869E-14
 -1       516 1.10515E-02-1.03823E-04-3.35189E-14
 -1       517 1.13561E-02-5.56764E-05-3.52819E-14
 -1       518 1.16564E-02-1.50617E-05-3.70821E-14
 -1       519 1.19534E-02 2.06469E-05-3.89101E-14
 -1       520 1.22476E-02 5.34907E-05-4.07771E-14
 -1       521 1.25398E-02 8.49691E-05-4.26783E-14
 -1       522 1.28303E-02 1.16129E-04-4.46117E-14
 -1       523 1.31196E-02 1.47665E-04-4.65644E-14
 -1       524 1.34078E-02 1.80012E-04-4.85434E-14
 -1       525 1.36952E-02 2.13423E-04-5.05448E-14
 -1       526 1.39820E-02 2.48029E-04-5.25542E-14
 -1       527 1.05816E-02 3.77998E-04-2.70043E-14
 -1       528 1.78383E-03 4.74251E-04-1.19432E-15
 -1       529 2.06625E-03 4.92932E-04-1.59882E-15
 -1       530 2.34871E-03 5.03881E-04-2.05934E-15
 -1       531 2.63166E-03 5.08893E-04-2.57516E-15
 -1       532 2.91545E-03 5.09313E-04-3.14455E-15
 -1       533 3.20036E-03 5.06151E-04-3.76680E-15
 -1       534 3.48665E-03 5.00191E-04-4.44194E-15
 -1       535 3.77459E-03 4.92096E-04-5.16928E-15
 -1       536 4.06448E-03 4.82520E-04-5.95135E-15
 -1       537 4.35666E-03 4.72238E-04-6.78694E-15
 -1       538 4.65157E-03 4.62304E-04-7.67699E-15
 -1       539 4.94975E-03 4.54243E-04-8.61932E-15
 -1       540 5.25189E-03 4.50299E-04-9.60906E-15
 -1       541 5.55894E-03 4.53712E-04-1.06464E-14
 -1       542 5.87224E-03 4.69018E-04-1.17328E-14
 -1       543 6.19368E-03 5.02240E-04-1.28667E-14
 -1       544 6.52565E-03 5.60771E-04-1.40449E-14
 -1       545 6.87042E-03 6.52314E-04-1.52647E-14
 -1       546 7.22853E-03 7.81870E-04-1.65259E-14
 -1       547 7.59536E-03 9.45357E-04-1.78320E-14
 -1       548 7.96029E-03 1.11897E-03-1.91867E-14
 -1       549 8.31315E-03 1.25445E-03-2.05991E-14
 -1       550 8.65569E-03 1.30226E-03-2.20598E-14
 -1       551 9.00184E-03 1.24711E-03-2.35692E-14
 -1       552 9.36124E-03 1.12541E-03-2.51231E-14
 -1       553 9.72861E-03 9.90810E-04-2.67062E-14
 -1       554 1.00924E-02 8.80326E-04-2.83195E-14
 -1       555 1.04446E-02 8.07341E-04-2.99662E-14
 -1       556 1.07832E-02 7.70666E-04-3.16618E-14
 -1       557 1.11101E-02 7.63367E-04-3.34067E-14
 -1       558 1.14277E-02 7.77658E-04-3.51972E-14
 -1       559 1.17382E-02 8.06737E-04-3.70186E-14
 -1       560 1.20433E-02 8.45297E-04-3.88676E-14
 -1       561 1.23442E-02 8.89465E-04-4.07499E-14
 -1       562 1.26416E-02 9.36556E-04-4.26636E-14
 -1       563 1.29363E-02 9.84781E-04-4.46042E-14
 -1       564 1.32288E-02 1.03300E-03-4.65681E-14
 -1       565 1.35195E-02 1.08053E-03-4.85511E-14
 -1       566 1.38088E-02 1.12697E-03-5.05466E-14
 -1       567 1.40970E-02 1.17212E-03-5.25395E-14
 -1       568 1.43843E-02 1.21592E-03-5.45391E-14
 -1       569 1.46709E-02 1.25835E-03-5.65474E-14
 -1       570 1.45700E-02 9.93375E-04-5.61086E-14
 -1       571 1.45341E-02 9.12614E-04-5.59238E-14
 -1       572 1.46408E-02 1.15575E-03-5.64526E-14
 -1       573 1.46053E-02 1.07415E-03-5.62843E-14
 -1       574 1.44975E-02 8.32360E-04-5.57301E-14
 -1       575 1.44598E-02 7.52354E-04-5.55345E-14
 -1       576 1.44209E-02 6.72312E-04-5.53329E-14
 -1       577 1.43817E-02 5.93325E-04-5.51275E-14
 -1       578 1.43411E-02 5.12435E-04-5.49090E-14
 -1       579 1.43002E-02 4.30832E-04-5.46896E-14
 -1       580 1.42596E-02 3.48425E-04-5.44669E-14
 -1       581 9.92389E-03 6.55999E-04-2.55674E-14
 -1       582 1.50088E-03 4.45446E-04-8.48273E-16
 -1       583 1.02964E-02 4.82628E-04-2.63389E-14
 -1       584 1.05458E-02 2.18097E-04-2.64745E-14
 -1       585 1.06924E-02 2.66367E-04-2.67779E-14
 -1       586 7.21493E-03-2.89659E-04-1.74487E-14
 -1       587 6.20368E-03 1.53767E-04-1.61485E-14
 -1       588 8.51681E-03 1.23430E-03-2.14916E-14
 -1       589 6.64226E-04-3.62044E-05-2.20147E-16
 -1       590 8.13785E-03 1.12399E-03-2.01735E-14
 -1       591 8.81919E-03 1.19982E-03-2.25572E-14
 -1       592 6.93771E-03 4.54372E-04-1.73318E-14
 -1       593 7.70942E-03 8.91107E-04-1.89087E-14
 -1       594 6.79786E-03-8.99290E-05-1.67566E-14
 -1       595 7.35202E-03 6.77770E-04-1.81243E-14
 -1       596 6.62658E-03 3.13941E-04-1.68250E-14
 -1       597 6.31618E-03 1.99598E-04-1.62418E-14
 -1       598 6.26413E-03 1.12840E-04-1.62327E-14
 -1       599 8.32193E-03-7.35160E-04-2.03865E-14
 -1       600 6.46655E-03 4.24540E-05-1.63822E-14
 -1       601 7.52341E-03-4.50005E-04-1.80952E-14
 -1       602 8.62192E-03-6.99031E-04-2.14300E-14
 -1       603 9.00848E-03-5.36759E-04-2.27398E-14
 -1       604 9.33194E-03-3.57545E-04-2.36374E-14
 -1       605 9.72134E-03-1.40688E-04-2.46875E-14
 -1       606 1.01698E-02 7.63566E-05-2.57539E-14
 -1       607 7.12513E-04-2.50588E-04-1.56261E-16
 -1       608 7.03412E-04 2.89691E-04-1.87404E-16
 -1       609 9.62098E-03 8.17052E-04-2.48718E-14
 -1       610 6.76917E-04-1.59014E-04-1.86310E-16
 -1       611 1.04045E-02 1.65733E-04-2.67679E-14
 -1       612 7.72888E-03-5.68679E-04-1.84073E-14
 -1       613 1.41748E-02 2.70471E-04-5.39159E-14
 -1       614 8.82104E-03-6.34791E-04-2.22176E-14
 -1       615 1.07745E-02 2.96757E-04-2.74399E-14
 -1       616 8.13537E-03-7.17104E-04-1.96964E-14
 -1       617 9.00250E-04 7.33219E-05-3.98556E-16
 -1       618 8.98147E-04 2.48988E-05-3.93454E-16
 -1       619 9.12269E-04 1.76650E-04-3.97086E-16
 -1       620 9.24471E-04 2.34968E-04-3.88659E-16
 -1       621 1.04890E-03 3.11537E-04-4.60393E-16
 -1       622 1.33470E-03 3.57823E-04-7.22746E-16
 -1       623 1.38351E-03-3.33131E-04-6.48438E-16
 -1       624 1.66977E-03-3.62252E-04-9.36490E-16
 -1       625 1.95610E-03-3.81718E-04-1.27803E-15
 -1       626 2.24229E-03-3.93599E-04-1.67264E-15
 -1       627 2.52836E-03-3.99585E-04-2.12082E-15
 -1       628 2.81438E-03-4.01014E-04-2.62282E-15
 -1       629 3.10043E-03-3.98921E-04-3.17817E-15
 -1       630 3.38661E-03-3.94127E-04-3.78807E-15
 -1       631 3.67302E-03-3.87316E-04-4.45048E-15
 -1       632 3.95981E-03-3.79134E-04-5.16312E-15
 -1       633 4.24718E-03-3.70284E-04-5.92699E-15
 -1       634 4.53546E-03-3.61623E-04-6.74018E-15
 -1       635 4.82513E-03-3.54283E-04-7.60133E-15
 -1       636 5.11694E-03-3.49777E-04-8.51190E-15
 -1       637 5.41202E-03-3.50125E-04-9.47224E-15
 -1       638 5.71194E-03-3.57959E-04-1.04826E-14
 -1       639 6.01876E-03-3.76591E-04-1.15435E-14
 -1       640 6.33479E-03-4.09946E-04-1.26531E-14
 -1       641 6.66177E-03-4.62040E-04-1.38126E-14
 -1       642 6.99941E-03-5.35308E-04-1.50181E-14
 -1       643 7.34366E-03-6.26993E-04-1.62623E-14
 -1       644 7.68623E-03-7.23865E-04-1.75454E-14
 -1       645 8.01923E-03-7.98476E-04-1.88714E-14
 -1       646 8.34196E-03-8.18492E-04-2.02403E-14
 -1       647 8.66472E-03-7.67194E-04-2.16578E-14
 -1       648 8.99532E-03-6.58985E-04-2.31213E-14
 -1       649 9.33712E-03-5.24228E-04-2.46388E-14
 -1       650 9.68187E-03-3.91411E-04-2.61983E-14
 -1       651 1.00207E-02-2.76125E-04-2.77988E-14
 -1       652 1.03491E-02-1.82140E-04-2.94409E-14
 -1       653 1.06664E-02-1.07214E-04-3.11245E-14
 -1       654 1.09743E-02-4.73996E-05-3.28435E-14
 -1       655 1.12750E-02 1.28040E-06-3.45947E-14
 -1       656 1.15706E-02 4.22199E-05-3.63788E-14
 -1       657 1.18628E-02 7.81166E-05-3.81952E-14
 -1       658 1.21528E-02 1.11021E-04-4.00463E-14
 -1       659 1.24414E-02 1.42434E-04-4.19313E-14
 -1       660 1.27289E-02 1.73410E-04-4.38459E-14
 -1       661 1.30159E-02 2.04659E-04-4.57890E-14
 -1       662 1.33025E-02 2.36631E-04-4.77527E-14
 -1       663 1.35887E-02 2.69593E-04-4.97346E-14
 -1       664 1.38748E-02 3.03690E-04-5.17381E-14
 -1       665 6.56187E-03-2.08154E-05-1.58975E-14
 -1       666 1.90607E-03 4.12890E-04-1.41823E-15
 -1       667 2.76193E-03 4.36426E-04-2.87631E-15
 -1       668 3.04750E-03 4.34859E-04-3.47031E-15
 -1       669 3.33345E-03 4.30227E-04-4.11603E-15
 -1       670 3.61988E-03 4.23211E-04-4.81465E-15
 -1       671 3.90689E-03 4.14419E-04-5.56591E-15
 -1       672 4.19457E-03 4.04498E-04-6.37101E-15
 -1       673 4.48307E-03 3.94256E-04-7.22842E-15
 -1       674 4.77255E-03 3.84806E-04-8.13951E-15
 -1       675 5.06336E-03 3.77740E-04-9.10219E-15
 -1       676 5.35614E-03 3.75335E-04-1.01115E-14
 -1       677 5.65209E-03 3.80800E-04-1.11681E-14
 -1       678 5.95341E-03 3.98566E-04-1.22731E-14
 -1       679 6.26374E-03 4.34671E-04-1.34241E-14
 -1       680 6.58851E-03 4.97184E-04-1.46160E-14
 -1       681 6.93388E-03 5.95760E-04-1.58466E-14
 -1       682 7.30410E-03 7.40351E-04-1.71222E-14
 -1       683 7.69203E-03 9.27252E-04-1.84473E-14
 -1       684 9.21647E-03 1.10312E-03-2.42704E-14
 -1       685 9.60775E-03 9.43807E-04-2.58328E-14
 -1       686 9.98816E-03 8.13462E-04-2.74288E-14
 -1       687 1.03478E-02 7.29666E-04-2.90533E-14
 -1       688 1.06825E-02 6.87530E-04-3.07179E-14
 -1       689 1.10002E-02 6.76771E-04-3.24365E-14
 -1       690 1.13061E-02 6.88333E-04-3.42002E-14
 -1       691 1.16050E-02 7.15125E-04-3.60026E-14
 -1       692 1.18997E-02 7.51892E-04-3.78357E-14
 -1       693 1.21919E-02 7.94815E-04-3.96976E-14
 -1       694 1.24825E-02 8.41178E-04-4.15939E-14
 -1       695 1.27720E-02 8.89108E-04-4.35156E-14
 -1       696 1.30607E-02 9.37364E-04-4.54573E-14
 -1       697 1.33487E-02 9.85158E-04-4.74230E-14
 -1       698 1.36361E-02 1.03202E-03-4.94064E-14
 -1       699 1.39231E-02 1.07771E-03-5.13982E-14
 -1       700 1.42097E-02 1.12210E-03-5.33907E-14
 -1       701 1.44254E-02 1.13933E-03-5.49146E-14
 -1       702 6.96300E-03-1.96206E-04-1.65247E-14
 -1       703 1.42337E-02 7.58378E-04-5.38679E-14
 -1       704 6.42083E-03 2.41836E-04-1.59455E-14
 -1       705 1.43064E-02 9.17495E-04-5.42545E-14
 -1       706 1.41954E-02 6.79157E-04-5.36682E-14
 -1       707 1.42706E-02 8.37711E-04-5.40653E-14
 -1       708 1.41564E-02 6.01057E-04-5.34665E-14
 -1       709 1.41156E-02 5.21081E-04-5.32516E-14
 -1       710 1.40742E-02 4.40329E-04-5.30340E-14
 -1       711 1.62052E-03 3.90705E-04-1.04228E-15
 -1       712 1.04792E-02 4.47768E-04-2.75233E-14
 -1       713 9.52707E-03-2.58782E-04-2.46084E-14
 -1       714 1.06853E-02 2.58247E-04-2.75958E-14
 -1       715 8.44462E-03-7.50198E-04-2.07814E-14
 -1       716 6.71450E-03 3.64985E-04-1.63665E-14
 -1       717 8.90920E-03 1.21668E-03-2.30633E-14
 -1       718 6.29183E-03 7.72365E-05-1.56046E-14
 -1       719 2.47661E-03 4.34082E-04-2.33632E-15
 -1       720 2.19138E-03 4.26722E-04-1.85024E-15
 -1       721 1.09788E-03-2.92114E-04-4.13542E-16
 -1       722 9.47167E-03 9.37804E-04-2.49528E-14
 -1       723 9.04701E-04 1.23384E-04-4.00074E-16
 -1       724 9.04306E-04-1.20994E-04-3.58231E-16
 -1       725 6.15571E-03 1.22386E-04-1.54177E-14
 -1       726 6.17098E-03 1.58142E-04-1.54228E-14
 -1       727 9.97601E-03-2.37813E-05-2.58868E-14
 -1       728 7.08730E-03 5.53004E-04-1.70699E-14
 -1       729 7.33972E-03-3.90174E-04-1.72529E-14
 -1       730 1.01551E-02 5.79154E-04-2.67414E-14
 -1       731 9.80471E-03 7.48907E-04-2.58283E-14
 -1       732 1.40672E-02 3.25778E-04-5.31017E-14
 -1       733 1.07552E-02 3.39713E-04-2.78107E-14
 -1       734 9.22784E-03-4.29846E-04-2.36880E-14
 -1       735 9.11651E-04-1.74056E-04-3.38806E-16
 -1       736 8.98079E-04-2.29024E-05-3.85142E-16
 -1       737 1.02380E-02 7.80540E-05-2.69021E-14
 -1       738 6.69714E-03-1.17542E-04-1.56691E-14
 -1       739 1.07040E-02 3.90138E-04-2.83366E-14
 -1       740 1.43904E-02 1.05780E-03-5.47424E-14
 -1       741 7.34993E-03 7.06557E-04-1.76250E-14
 -1       742 7.91311E-03-6.66576E-04-1.88288E-14
 -1       743 9.04476E-03-5.45771E-04-2.31494E-14
 -1       744 8.27307E-03-7.61781E-04-2.00833E-14
 -1       745 6.21471E-03 1.87620E-04-1.51340E-14
 -1       746 1.43484E-02 9.87294E-04-5.45015E-14
 -1       747 9.00028E-04-7.10597E-05-3.73277E-16
 -1       748 9.02711E-03 1.15844E-03-2.34539E-14
 -1       749 1.39745E-02 3.72186E-04-5.23857E-14
 -1       750 9.38437E-04-2.45265E-04-3.17512E-16
 -1       751 1.08298E-02 2.96567E-04-2.84499E-14
 -1       752 1.16194E-03 2.41044E-04-6.01736E-16
 -1       753 9.43498E-03-3.51779E-04-2.46595E-14
 -1       754 1.51056E-03-2.82221E-04-8.27897E-16
 -1       755 1.06076E-02 2.14789E-04-2.80354E-14
 -1       756 9.72652E-03 8.53540E-04-2.60802E-14
 -1       757 1.79751E-03-3.03314E-04-1.15032E-15
 -1       758 2.08496E-03-3.17024E-04-1.52546E-15
 -1       759 2.37240E-03-3.24823E-04-1.95277E-15
 -1       760 2.65957E-03-3.27976E-04-2.43423E-15
 -1       761 2.94630E-03-3.27494E-04-2.96942E-15
 -1       762 3.23253E-03-3.24172E-04-3.55858E-15
 -1       763 3.51819E-03-3.18650E-04-4.20057E-15
 -1       764 3.80329E-03-3.11475E-04-4.89434E-15
 -1       765 4.08788E-03-3.03177E-04-5.63657E-15
 -1       766 4.37211E-03-2.94351E-04-6.42939E-15
 -1       767 4.65631E-03-2.85740E-04-7.27124E-15
 -1       768 4.94106E-03-2.78332E-04-8.16015E-15
 -1       769 5.22737E-03-2.73475E-04-9.10111E-15
 -1       770 5.51685E-03-2.73027E-04-1.00924E-14
 -1       771 5.81193E-03-2.79585E-04-1.11323E-14
 -1       772 6.11594E-03-2.96820E-04-1.22206E-14
 -1       773 6.43300E-03-3.29857E-04-1.33579E-14
 -1       774 6.76675E-03-3.85305E-04-1.45408E-14
 -1       775 7.11773E-03-4.69117E-04-1.57682E-14
 -1       776 7.48027E-03-5.79008E-04-1.70348E-14
 -1       777 8.18709E-03-7.78724E-04-1.96669E-14
 -1       778 8.52262E-03-7.62774E-04-2.10734E-14
 -1       779 9.94839E-03-2.19890E-04-2.71737E-14
 -1       780 1.02841E-02-1.22048E-04-2.87970E-14
 -1       781 1.06029E-02-4.72542E-05-3.04608E-14
 -1       782 1.09082E-02 1.11020E-05-3.21620E-14
 -1       783 1.12041E-02 5.83411E-05-3.39013E-14
 -1       784 1.14939E-02 9.82935E-05-3.56713E-14
 -1       785 1.17802E-02 1.33661E-04-3.74741E-14
 -1       786 1.20648E-02 1.66358E-04-3.93141E-14
 -1       787 1.23486E-02 1.97734E-04-4.11833E-14
 -1       788 1.26322E-02 2.28732E-04-4.30844E-14
 -1       789 1.29160E-02 2.59988E-04-4.50150E-14
 -1       790 1.32000E-02 2.91909E-04-4.69646E-14
 -1       791 1.34844E-02 3.24739E-04-4.89340E-14
 -1       792 1.37293E-02 3.48078E-04-5.06535E-14
 -1       793 6.78898E-03 4.47238E-04-1.59756E-14
 -1       794 7.56457E-03-5.57223E-04-1.75314E-14
 -1       795 2.89318E-03 3.63191E-04-3.17824E-15
 -1       796 3.75000E-03 3.47437E-04-5.18675E-15
 -1       797 4.03449E-03 3.38734E-04-5.96164E-15
 -1       798 4.31823E-03 3.29318E-04-6.78858E-15
 -1       799 4.60108E-03 3.19991E-04-7.66825E-15
 -1       800 4.88297E-03 3.11840E-04-8.60142E-15
 -1       801 5.16404E-03 3.06350E-04-9.58180E-15
 -1       802 5.44484E-03 3.05544E-04-1.06105E-14
 -1       803 5.72676E-03 3.12166E-04-1.16860E-14
 -1       804 6.01268E-03 3.30032E-04-1.28085E-14
 -1       805 6.30795E-03 3.65157E-04-1.39747E-14
 -1       806 1.06104E-02 5.97504E-04-2.97836E-14
 -1       807 1.09149E-02 5.88565E-04-3.14719E-14
 -1       808 1.12053E-02 6.00869E-04-3.32076E-14
 -1       809 1.14892E-02 6.27077E-04-3.49856E-14
 -1       810 1.17705E-02 6.62517E-04-3.68006E-14
 -1       811 1.20515E-02 7.03920E-04-3.86460E-14
 -1       812 1.23329E-02 7.48919E-04-4.05247E-14
 -1       813 1.26152E-02 7.95796E-04-4.24274E-14
 -1       814 1.28983E-02 8.43339E-04-4.43546E-14
 -1       815 1.31822E-02 8.90732E-04-4.63015E-14
 -1       816 1.34666E-02 9.37452E-04-4.82649E-14
 -1       817 1.37514E-02 9.83199E-04-5.02503E-14
 -1       818 1.40365E-02 1.02781E-03-5.22392E-14
 -1       819 1.42135E-02 1.04309E-03-5.34856E-14
 -1       820 1.39317E-02 6.07647E-04-5.18231E-14
 -1       821 1.39709E-02 6.85927E-04-5.20256E-14
 -1       822 6.42610E-03 2.83842E-04-1.52494E-14
 -1       823 6.13340E-03 8.55197E-05-1.47567E-14
 -1       824 1.14382E-03-2.51029E-04-4.84394E-16
 -1       825 1.38908E-02 5.28867E-04-5.16124E-14
 -1       826 1.00433E-02 6.88836E-04-2.70034E-14
 -1       827 1.38489E-02 4.49248E-04-5.13978E-14
 -1       828 2.60675E-03 3.62951E-04-2.61402E-15
 -1       829 3.46488E-03 3.54793E-04-4.46417E-15
 -1       830 3.17924E-03 3.60240E-04-3.79472E-15
 -1       831 2.32001E-03 3.58641E-04-2.10318E-15
 -1       832 1.04098E-02 5.46182E-04-2.81827E-14
 -1       833 6.05203E-03 1.25687E-04-1.45898E-14
 -1       834 7.06046E-03-3.10744E-04-1.62149E-14
 -1       835 6.32708E-03 1.84977E-05-1.50049E-14
 -1       836 1.08738E-02 3.36074E-04-2.88234E-14
 -1       837 1.24651E-03 2.97670E-04-6.62878E-16
 -1       838 2.03305E-03 3.49125E-04-1.64557E-15
 -1       839 9.83310E-03-1.32395E-04-2.59391E-14
 -1       840 1.13862E-03 5.82470E-05-6.03796E-16
 -1       841 1.13722E-03 1.18270E-06-5.94089E-16
 -1       842 1.15026E-03 1.76985E-04-6.08549E-16
 -1       843 1.74604E-03 3.32978E-04-1.24200E-15
 -1       844 7.89707E-03-7.17516E-04-1.85324E-14
 -1       845 9.72821E-03-2.72273E-04-2.60773E-14
 -1       846 1.08746E-02 3.77072E-04-2.93557E-14
 -1       847 1.06536E-02 4.71469E-04-2.90076E-14
 -1       848 6.42810E-03-6.05760E-05-1.47806E-14
 -1       849 1.14960E-03-1.73948E-04-5.37795E-16
 -1       850 1.40439E-02 8.41969E-04-5.24214E-14
 -1       851 1.14241E-03-1.13687E-04-5.61322E-16
 -1       852 1.40082E-02 7.63782E-04-5.22286E-14
 -1       853 1.49593E-03 3.19640E-04-9.30862E-16
 -1       854 6.03847E-03 1.48157E-04-1.43113E-14
 -1       855 1.00977E-02-2.28168E-05-2.69559E-14
 -1       856 1.40855E-02 9.10714E-04-5.26677E-14
 -1       857 1.08020E-02 2.68379E-04-2.88967E-14
 -1       858 1.14277E-03 1.16385E-04-6.08993E-16
 -1       859 1.37892E-02 3.98808E-04-5.10256E-14
 -1       860 1.92918E-03-2.41564E-04-1.37812E-15
 -1       861 2.21724E-03-2.50378E-04-1.78553E-15
 -1       862 2.50520E-03-2.54831E-04-2.24525E-15
 -1       863 2.79262E-03-2.55813E-04-2.75945E-15
 -1       864 3.07918E-03-2.54042E-04-3.32731E-15
 -1       865 3.36464E-03-2.50085E-04-3.94916E-15
 -1       866 3.64882E-03-2.44395E-04-4.62165E-15
 -1       867 3.93160E-03-2.37362E-04-5.34548E-15
 -1       868 4.21293E-03-2.29365E-04-6.11715E-15
 -1       869 4.49289E-03-2.20828E-04-6.93909E-15
 -1       870 4.77175E-03-2.12288E-04-7.80884E-15
 -1       871 5.05013E-03-2.04470E-04-8.72767E-15
 -1       872 5.32917E-03-1.98397E-04-9.70164E-15
 -1       873 5.61084E-03-1.95607E-04-1.07228E-14
 -1       874 5.89830E-03-1.98570E-04-1.17907E-14
 -1       875 6.19625E-03-2.11437E-04-1.29057E-14
 -1       876 6.51136E-03-2.41326E-04-1.40678E-14
 -1       877 1.00053E-02-1.25295E-04-2.70687E-14
 -1       878 1.05567E-02 1.87376E-05-2.98003E-14
 -1       879 1.08563E-02 7.25880E-05-3.14830E-14
 -1       880 1.11445E-02 1.15931E-04-3.32052E-14
 -1       881 1.14263E-02 1.53235E-04-3.49629E-14
 -1       882 1.17050E-02 1.87097E-04-3.67492E-14
 -1       883 1.19828E-02 2.19134E-04-3.85778E-14
 -1       884 1.22607E-02 2.50390E-04-4.04371E-14
 -1       885 1.25394E-02 2.81560E-04-4.23248E-14
 -1       886 1.28192E-02 3.13106E-04-4.42433E-14
 -1       887 1.31002E-02 3.45325E-04-4.61830E-14
 -1       888 1.33821E-02 3.78396E-04-4.81435E-14
 -1       889 3.87756E-03 2.73882E-04-5.55959E-15
 -1       890 4.71248E-03 2.50569E-04-8.10630E-15
 -1       891 4.98515E-03 2.44473E-04-9.05850E-15
 -1       892 5.25451E-03 2.41021E-04-1.00580E-14
 -1       893 5.52068E-03 2.41708E-04-1.11050E-14
 -1       894 5.78462E-03 2.48431E-04-1.21993E-14
 -1       895 6.04908E-03 2.63969E-04-1.33391E-14
 -1       896 1.11244E-02 5.17127E-04-3.22243E-14
 -1       897 6.13722E-03 2.11318E-04-1.42377E-14
 -1       898 6.11126E-03 3.31284E-05-1.40806E-14
 -1       899 6.69530E-03-2.23584E-04-1.49607E-14
 -1       900 1.08872E-02 4.88874E-04-3.05959E-14
 -1       901 1.16532E-02 5.79298E-04-3.57680E-14
 -1       902 1.19206E-02 6.19023E-04-3.75911E-14
 -1       903 1.21913E-02 6.62086E-04-3.94496E-14
 -1       904 1.24650E-02 7.07151E-04-4.13395E-14
 -1       905 1.27413E-02 7.53183E-04-4.32539E-14
 -1       906 1.30200E-02 7.99413E-04-4.51844E-14
 -1       907 1.33004E-02 8.45308E-04-4.71330E-14
 -1       908 1.35823E-02 8.90511E-04-4.91032E-14
 -1       909 1.38653E-02 9.34860E-04-5.10854E-14
 -1       910 1.37084E-02 6.14048E-04-5.02017E-14
 -1       911 1.13844E-03-5.57369E-05-5.79967E-16
 -1       912 1.13883E-02 5.44583E-04-3.39786E-14
 -1       913 5.98062E-03 8.89684E-05-1.39217E-14
 -1       914 1.41083E-03 2.62250E-04-8.57258E-16
 -1       915 4.43673E-03 2.58104E-04-7.20464E-15
 -1       916 4.15828E-03 2.66124E-04-6.35617E-15
 -1       917 1.05034E-02 1.38126E-04-2.83798E-14
 -1       918 2.45148E-03 2.89211E-04-2.35830E-15
 -1       919 1.02898E-02-4.31659E-05-2.84230E-14
 -1       920 2.73876E-03 2.91134E-04-2.89236E-15
 -1       921 3.59493E-03 2.80778E-04-4.81337E-15
 -1       922 1.36253E-02 4.58603E-04-4.97816E-14
 -1       923 1.64168E-03-2.27323E-04-1.02216E-15
 -1       924 1.09676E-02 3.26850E-04-2.97326E-14
 -1       925 1.41494E-02 9.76497E-04-5.30804E-14
 -1       926 1.36678E-02 5.36758E-04-4.99939E-14
 -1       927 2.16373E-03 2.83316E-04-1.87651E-15
 -1       928 1.38967E-03-1.68627E-04-7.77471E-16
 -1       929 1.87591E-03 2.72393E-04-1.44706E-15
 -1       930 1.38104E-03 3.35230E-05-8.45962E-16
 -1       931 6.85018E-03-2.99446E-04-1.52746E-14
 -1       932 1.07284E-02 2.12412E-04-2.92539E-14
 -1       933 1.35852E-02 3.88463E-04-4.95766E-14
 -1       934 3.02526E-03 2.89936E-04-3.47917E-15
 -1       935 5.91986E-03 1.12459E-04-1.36533E-14
 -1       936 1.37467E-02 6.90605E-04-5.04056E-14
 -1       937 3.31074E-03 2.86298E-04-4.11954E-15
 -1       938 1.38433E-03 9.82954E-05-8.56154E-16
 -1       939 1.37827E-02 7.67274E-04-5.06072E-14
 -1       940 1.38241E-02 8.34663E-04-5.08558E-14
 -1       941 6.17657E-03-2.95948E-05-1.38630E-14
 -1       942 1.10183E-02 3.62721E-04-3.02778E-14
 -1       943 2.06416E-03-1.77211E-04-1.61853E-15
 -1       944 1.10121E-02 3.01064E-04-3.05024E-14
 -1       945 2.35245E-03-1.82131E-04-2.05779E-15
 -1       946 2.64040E-03-1.84082E-04-2.54988E-15
 -1       947 2.92743E-03-1.83639E-04-3.09574E-15
 -1       948 3.21310E-03-1.81259E-04-3.69563E-15
 -1       949 3.49706E-03-1.77293E-04-4.34843E-15
 -1       950 3.77899E-03-1.72008E-04-5.05191E-15
 -1       951 4.05865E-03-1.65618E-04-5.80451E-15
 -1       952 4.33586E-03-1.58317E-04-6.60647E-15
 -1       953 4.61055E-03-1.50306E-04-7.45576E-15
 -1       954 4.88282E-03-1.41839E-04-8.35549E-15
 -1       955 5.15311E-03-1.33268E-04-9.30810E-15
 -1       956 5.42238E-03-1.25158E-04-1.03121E-14
 -1       957 5.69251E-03-1.18518E-04-1.13609E-14
 -1       958 5.96690E-03-1.15595E-04-1.24543E-14
 -1       959 1.03855E-02 4.96940E-05-2.84056E-14
 -1       960 5.08256E-03 1.83474E-04-9.51258E-15
 -1       961 3.72428E-03 2.08970E-04-5.16275E-15
 -1       962 1.38094E-03-3.06985E-05-8.30184E-16
 -1       963 1.10979E-02 1.73355E-04-3.25110E-14
 -1       964 1.13679E-02 2.06494E-04-3.42513E-14
 -1       965 1.16365E-02 2.37931E-04-3.60267E-14
 -1       966 1.19058E-02 2.68883E-04-3.78368E-14
 -1       967 1.21768E-02 2.99937E-04-3.96880E-14
 -1       968 1.24498E-02 3.31426E-04-4.15664E-14
 -1       969 1.27250E-02 3.63549E-04-4.34694E-14
 -1       970 1.30022E-02 3.96431E-04-4.54016E-14
 -1       971 1.32813E-02 4.30127E-04-4.73527E-14
 -1       972 4.82004E-03 1.86750E-04-8.54169E-15
 -1       973 5.58794E-03 1.85153E-04-1.15967E-14
 -1       974 5.82915E-03 1.91955E-04-1.27079E-14
 -1       975 1.20544E-02 5.81348E-04-3.83775E-14
 -1       976 1.08228E-02 1.36427E-04-3.08076E-14
 -1       977 1.23188E-02 6.23841E-04-4.02462E-14
 -1       978 1.17956E-02 5.40871E-04-3.65405E-14
 -1       979 1.25879E-02 6.67563E-04-4.21467E-14
 -1       980 1.28607E-02 7.11853E-04-4.40667E-14
 -1       981 1.31367E-02 7.56205E-04-4.60043E-14
 -1       982 1.34152E-02 8.00253E-04-4.79592E-14
 -1       983 2.29749E-03 2.15812E-04-2.11030E-15
 -1       984 1.38397E-03-9.52617E-05-8.09123E-16
 -1       985 1.15434E-02 5.03260E-04-3.47413E-14
 -1       986 5.89989E-03 4.18158E-05-1.31491E-14
 -1       987 1.44699E-03 1.90547E-04-9.19220E-16
 -1       988 1.59472E-03 2.59920E-04-1.07742E-15
 -1       989 4.55217E-03 1.91647E-04-7.62022E-15
 -1       990 1.12983E-02 4.69392E-04-3.29782E-14
 -1       991 5.33882E-03 1.82653E-04-1.05306E-14
 -1       992 1.77629E-03-1.68645E-04-1.23106E-15
 -1       993 5.92078E-03 1.61343E-04-1.34074E-14
 -1       994 2.58540E-03 2.18918E-04-2.61541E-15
 -1       995 2.00930E-03 2.09182E-04-1.65689E-15
 -1       996 1.07004E-02 1.47793E-04-2.98070E-14
 -1       997 6.25153E-03-1.20956E-04-1.35954E-14
 -1       998 4.00361E-03 2.03355E-04-5.93145E-15
 -1       999 3.44235E-03 2.13775E-04-4.44647E-15
 -1      1000 5.80946E-03 7.25702E-05-1.28902E-14
 -1      1001 1.34863E-02 6.19075E-04-4.85931E-14
 -1      1002 5.93211E-03-8.72887E-06-1.29415E-14
 -1      1003 4.27978E-03 1.97400E-04-6.75029E-15
 -1      1004 2.87249E-03 2.19224E-04-3.17196E-15
 -1      1005 1.35232E-02 6.94067E-04-4.87980E-14
 -1      1006 1.34705E-02 7.47246E-04-4.83845E-14
 -1      1007 1.10676E-02 4.21348E-04-3.11325E-14
 -1      1008 1.62880E-03 7.16843E-05-1.13977E-15
 -1      1009 1.62695E-03 1.55317E-06-1.12342E-15
 -1      1010 1.11102E-02 3.40116E-04-3.10622E-14
 -1      1011 1.34462E-02 5.43551E-04-4.83881E-14
 -1      1012 2.49036E-03-1.12686E-04-2.34240E-15
 -1      1013 2.77788E-03-1.13037E-04-2.86577E-15
 -1      1014 3.06404E-03-1.11960E-04-3.44309E-15
 -1      1015 3.34833E-03-1.09676E-04-4.07437E-15
 -1      1016 3.63027E-03-1.06335E-04-4.75707E-15
 -1      1017 3.90945E-03-1.02024E-04-5.49019E-15
 -1      1018 4.18548E-03-9.67748E-05-6.27286E-15
 -1      1019 4.45798E-03-9.05763E-05-7.10432E-15
 -1      1020 4.72661E-03-8.33834E-05-7.98392E-15
 -1      1021 4.99114E-03-7.51347E-05-8.91493E-15
 -1      1022 5.25148E-03-6.57500E-05-9.89831E-15
 -1      1023 5.50789E-03-5.53345E-05-1.09296E-14
 -1      1024 1.15732E-02 2.85166E-04-3.53021E-14
 -1      1025 1.18322E-02 3.14924E-04-3.70985E-14
 -1      1026 1.20951E-02 3.45873E-04-3.89347E-14
 -1      1027 1.23617E-02 3.77915E-04-4.08046E-14
 -1      1028 1.26319E-02 4.10945E-04-4.27001E-14
 -1      1029 1.29052E-02 4.44864E-04-4.46207E-14
 -1      1030 1.31813E-02 4.79600E-04-4.65615E-14
 -1      1031 4.92764E-03 1.28811E-04-8.97411E-15
 -1      1032 1.09776E-02 2.23109E-04-3.11774E-14
 -1      1033 1.24353E-02 5.86732E-04-4.10441E-14
 -1      1034 5.65448E-03 1.37565E-04-1.20845E-14
 -1      1035 3.15827E-03 2.17342E-04-3.78202E-15
 -1      1036 1.62859E-03-6.84446E-05-1.10063E-15
 -1      1037 1.27025E-02 6.28363E-04-4.29501E-14
 -1      1038 1.19179E-02 5.06915E-04-3.73095E-14
 -1      1039 1.29741E-02 6.70493E-04-4.48718E-14
 -1      1040 1.32212E-02 7.08917E-04-4.66207E-14
 -1      1041 1.09799E-02 2.51219E-04-3.08821E-14
 -1      1042 5.18022E-03 1.29183E-04-9.96321E-15
 -1      1043 1.16707E-02 4.69891E-04-3.54964E-14
 -1      1044 1.72745E-03 2.02721E-04-1.26232E-15
 -1      1045 1.14339E-02 4.35445E-04-3.37274E-14
 -1      1046 1.21733E-02 5.46062E-04-3.91585E-14
 -1      1047 5.74909E-03 1.16731E-04-1.26345E-14
 -1      1048 5.42338E-03 1.31932E-04-1.10007E-14
 -1      1049 1.91399E-03-1.06408E-04-1.45282E-15
 -1      1050 1.32653E-02 6.22603E-04-4.69979E-14
 -1      1051 1.12146E-02 3.97096E-04-3.19832E-14
 -1      1052 1.67656E-03 1.35951E-04-1.20339E-15
 -1      1053 1.13178E-02 2.56526E-04-3.35386E-14
 -1      1054 4.66750E-03 1.30276E-04-8.03405E-15
 -1      1055 2.43400E-03 1.47012E-04-2.34633E-15
 -1      1056 2.20213E-03-1.10604E-04-1.87200E-15
 -1      1057 1.87574E-03 3.88260E-05-1.45793E-15
 -1      1058 5.76143E-03-4.41316E-05-1.20053E-14
 -1      1059 3.85396E-03 1.39917E-04-5.51333E-15
 -1      1060 3.57469E-03 1.43241E-04-4.77319E-15
 -1      1061 2.14576E-03 1.43586E-04-1.86954E-15
 -1      1062 5.69400E-03 2.53023E-05-1.20958E-14
 -1      1063 1.11871E-02 3.10111E-04-3.20122E-14
 -1      1064 4.40115E-03 1.32979E-04-7.14396E-15
 -1      1065 2.72163E-03 1.48244E-04-2.87344E-15
 -1      1066 1.87791E-03 1.14785E-04-1.47194E-15
 -1      1067 5.55796E-03 8.97590E-05-1.16608E-14
 -1      1068 1.32266E-02 5.49211E-04-4.67962E-14
 -1      1069 2.12573E-03 8.01754E-05-1.83209E-15
 -1      1070 2.91770E-03-4.21519E-05-3.19248E-15
 -1      1071 3.20269E-03-4.12239E-05-3.80027E-15
 -1      1072 3.48533E-03-3.97174E-05-4.46147E-15
 -1      1073 3.76501E-03-3.76264E-05-5.17525E-15
 -1      1074 4.04125E-03-3.48350E-05-5.93832E-15
 -1      1075 4.31351E-03-3.12010E-05-6.75104E-15
 -1      1076 4.58118E-03-2.65298E-05-7.61254E-15
 -1      1077 4.84337E-03-2.06068E-05-8.52265E-15
 -1      1078 5.09950E-03-1.29875E-05-9.48438E-15
 -1      1079 5.34853E-03-3.27222E-06-1.04955E-14
 -1      1080 1.30088E-02 5.53210E-04-4.52150E-14
 -1      1081 3.29255E-03 1.45981E-04-4.08611E-15
 -1      1082 1.20240E-02 4.73254E-04-3.80781E-14
 -1      1083 1.20132E-02 3.87769E-04-3.81782E-14
 -1      1084 1.22733E-02 4.20749E-04-4.00407E-14
 -1      1085 1.25385E-02 4.55074E-04-4.19274E-14
 -1      1086 1.13305E-02 3.71944E-04-3.28692E-14
 -1      1087 1.17589E-02 3.56496E-04-3.63572E-14
 -1      1088 1.89312E-03-3.33911E-05-1.45922E-15
 -1      1089 1.28106E-02 5.88128E-04-4.37418E-14
 -1      1090 5.04038E-03 7.62167E-05-9.40464E-15
 -1      1091 4.12968E-03 1.36356E-04-6.30379E-15
 -1      1092 2.63092E-03-4.24720E-05-2.63836E-15
 -1      1093 1.17757E-02 4.38085E-04-3.62504E-14
 -1      1094 1.15471E-02 4.03672E-04-3.45449E-14
 -1      1095 1.22802E-02 5.10326E-04-3.99430E-14
 -1      1096 5.28513E-03 8.09821E-05-1.04125E-14
 -1      1097 1.29582E-02 4.99224E-04-4.49184E-14
 -1      1098 1.25428E-02 5.48780E-04-4.18361E-14
 -1      1099 3.00800E-03 1.47766E-04-3.45300E-15
 -1      1100 4.78646E-03 7.36660E-05-8.44543E-15
 -1      1101 1.15118E-02 3.27437E-04-3.45750E-14
 -1      1102 2.14125E-03 5.18516E-06-1.83573E-15
 -1      1103 4.52514E-03 7.27629E-05-7.53518E-15
 -1      1104 2.17064E-03-5.24345E-05-1.85654E-15
 -1      1105 3.70876E-03 7.50552E-05-5.10232E-15
 -1      1106 2.41397E-03 8.22777E-05-2.30304E-15
 -1      1107 1.28079E-02 4.90438E-04-4.38366E-14
 -1      1108 2.70164E-03 8.31341E-05-2.82407E-15
 -1      1109 1.29937E-02 6.12095E-04-4.50462E-14
 -1      1110 3.98534E-03 7.38425E-05-5.86402E-15
 -1      1111 2.40094E-03-4.78024E-05-2.23071E-15
 -1      1112 2.98798E-03 8.30605E-05-3.39722E-15
 -1      1113 3.34370E-03 2.81935E-05-4.16708E-15
 -1      1114 4.44463E-03 3.09073E-05-7.23808E-15
 -1      1115 2.77412E-03 2.80355E-05-2.94500E-15
 -1      1116 3.06000E-03 2.81547E-05-3.52936E-15
 -1      1117 4.25776E-03 7.29602E-05-6.67535E-15
 -1      1118 4.17587E-03 2.94076E-05-6.39623E-15
 -1      1119 2.43499E-03 1.44640E-05-2.31805E-15
 -1      1120 0.00000E+00 0.00000E+00 0.00000E+00
 -1      1121 0.00000E+00 0.00000E+00 0.00000E+00
 -1      1122 0.00000E+00 0.00000E+00 0.00000E+00
 -1      1123 0.00000E+00 0.00000E+00 0.00000E+00
 -1      1124 0.00000E+00 0.00000E+00 0.00000E+00
 -1      1125 0.00000E+00 0.00000E+00 0.00000E+00
 -1      1126 0.00000E+00 0.00000E+00 0.00000E+00
 -1      1127 0.00000E+00 0.00000E+00 0.00000E+00
 -1      1128 0.00000E+00 0.00000E+00 0.00000E+00
 -1      1129 0.00000E+00 0.00000E+00 0.00000E+00
 -1      1130 0.00000E+00 0.00000E+00 0.00000E+00
 -1      1131 0.00000E+00 0.00000E+00 0.00000E+00
 -1      1132 0.00000E+00 0.00000E+00 0.00000E+00
 -1      1133 0.00000E+00 0.00000E+00 0.00000E+00
 -1      1134 0.00000E+00 0.00000E+00 0.00000E+00
 -1      1135 0.00000E+00 0.00000E+00 0.00000E+00
 -1      1136 0.00000E+00 0.00000E+00 0.00000E+00
 -1      1137 2.11265E-04-1.48109E-04 1.53144E-17
 -1      1138 5.50526E-04-3.36811E-04 1.42573E-17
 -1      1139 8.31738E-04-4.57621E-04-3.61717E-17
 -1      1140 1.10076E-03-5.38374E-04-1.44958E-16
 -1      1141 1.36569E-03-5.94387E-04-3.12210E-16
 -1      1142 1.63013E-03-6.33489E-04-5.36409E-16
 -1      1143 1.89601E-03-6.60257E-04-8.16391E-16
 -1      1144 2.16429E-03-6.77734E-04-1.15187E-15
 -1      1145 2.43542E-03-6.88133E-04-1.54439E-15
 -1      1146 2.70964E-03-6.93122E-04-1.99398E-15
 -1      1147 2.98708E-03-6.93983E-04-2.49857E-15
 -1      1148 3.26789E-03-6.91736E-04-3.05604E-15
 -1      1149 3.55231E-03-6.87240E-04-3.66463E-15
 -1      1150 3.84068E-03-6.81298E-04-4.32832E-15
 -1      1151 4.13349E-03-6.74764E-04-5.04650E-15
 -1      1152 4.43133E-03-6.68655E-04-5.81883E-15
 -1      1153 4.73488E-03-6.64269E-04-6.64423E-15
 -1      1154 5.04475E-03-6.63294E-04-7.52092E-15
 -1      1155 5.36135E-03-6.67884E-04-8.44447E-15
 -1      1156 5.68459E-03-6.80644E-04-9.41456E-15
 -1      1157 6.01348E-03-7.04426E-04-1.04348E-14
 -1      1158 6.34571E-03-7.41819E-04-1.15079E-14
 -1      1159 6.67738E-03-7.94175E-04-1.26304E-14
 -1      1160 7.00300E-03-8.60203E-04-1.37983E-14
 -1      1161 7.31635E-03-9.34419E-04-1.50103E-14
 -1      1162 7.61227E-03-1.00634E-03-1.62638E-14
 -1      1163 7.88909E-03-1.06160E-03-1.75517E-14
 -1      1164 8.15057E-03-1.08555E-03-1.88742E-14
 -1      1165 8.40570E-03-1.06859E-03-2.02449E-14
 -1      1166 8.66584E-03-1.01010E-03-2.16632E-14
 -1      1167 8.94046E-03-9.18753E-04-2.31207E-14
 -1      1168 9.23402E-03-8.08822E-04-2.46301E-14
 -1      1169 9.54549E-03-6.94936E-04-2.61910E-14
 -1      1170 9.87000E-03-5.88155E-04-2.77986E-14
 -1      1171 1.02014E-02-4.94551E-04-2.94544E-14
 -1      1172 1.05340E-02-4.15836E-04-3.11539E-14
 -1      1173 1.08638E-02-3.50891E-04-3.28836E-14
 -1      1174 1.11884E-02-2.97220E-04-3.46422E-14
 -1      1175 1.15067E-02-2.51982E-04-3.64259E-14
 -1      1176 1.18187E-02-2.12563E-04-3.82446E-14
 -1      1177 1.21247E-02-1.76815E-04-4.01097E-14
 -1      1178 1.24257E-02-1.43097E-04-4.20161E-14
 -1      1179 1.27224E-02-1.10229E-04-4.39613E-14
 -1      1180 1.30157E-02-7.73996E-05-4.59318E-14
 -1      1181 1.33063E-02-4.40765E-05-4.79239E-14
 -1      1182 1.35949E-02-9.92714E-06-4.99229E-14
 -1      1183 1.38821E-02 2.52395E-05-5.19244E-14
 -1      1184 1.41683E-02 6.15006E-05-5.39328E-14
 -1      1185 1.44540E-02 9.87934E-05-5.59554E-14
 -1      1186 1.47324E-02 1.35820E-04-5.79487E-14
 -1      1187 2.27993E-04 1.60469E-04 6.83047E-18
 -1      1188 5.52688E-04 3.41440E-04-2.63868E-17
 -1      1189 8.32648E-04 4.59790E-04-1.21363E-16
 -1      1190 1.10162E-03 5.40059E-04-2.84224E-16
 -1      1191 1.36654E-03 5.96058E-04-5.13668E-16
 -1      1192 1.63100E-03 6.35231E-04-8.08110E-16
 -1      1193 1.89690E-03 6.62067E-04-1.16526E-15
 -1      1194 2.16517E-03 6.79597E-04-1.58071E-15
 -1      1195 2.43628E-03 6.90011E-04-2.05417E-15
 -1      1196 2.71047E-03 6.94945E-04-2.58413E-15
 -1      1197 2.98789E-03 6.95641E-04-3.16926E-15
 -1      1198 3.26874E-03 6.93058E-04-3.80865E-15
 -1      1199 3.55335E-03 6.87981E-04-4.50044E-15
 -1      1200 3.84219E-03 6.81117E-04-5.24862E-15
 -1      1201 4.13600E-03 6.73215E-04-6.05374E-15
 -1      1202 4.43577E-03 6.65198E-04-6.91706E-15
 -1      1203 4.74279E-03 6.58339E-04-7.83496E-15
 -1      1204 5.05864E-03 6.54481E-04-8.80090E-15
 -1      1205 5.38504E-03 6.56308E-04-9.81252E-15
 -1      1206 5.72360E-03 6.67646E-04-1.08719E-14
 -1      1207 6.07531E-03 6.93695E-04-1.19783E-14
 -1      1208 6.43960E-03 7.40944E-04-1.31319E-14
 -1      1209 6.81312E-03 8.16257E-04-1.43365E-14
 -1      1210 7.18838E-03 9.24416E-04-1.55898E-14
 -1      1211 7.55336E-03 1.06360E-03-1.68862E-14
 -1      1212 7.89382E-03 1.21989E-03-1.82197E-14
 -1      1213 8.19966E-03 1.36499E-03-1.95971E-14
 -1      1214 8.47322E-03 1.46309E-03-2.10280E-14
 -1      1215 8.73226E-03 1.48745E-03-2.25102E-14
 -1      1216 9.00262E-03 1.43603E-03-2.40408E-14
 -1      1217 9.30390E-03 1.33328E-03-2.56120E-14
 -1      1218 9.64039E-03 1.21517E-03-2.72155E-14
 -1      1219 1.00031E-02 1.11152E-03-2.88489E-14
 -1      1220 1.03780E-02 1.03794E-03-3.05099E-14
 -1      1221 1.07524E-02 9.97379E-04-3.22160E-14
 -1      1222 1.11184E-02 9.85538E-04-3.39707E-14
 -1      1223 1.14721E-02 9.95620E-04-3.57714E-14
 -1      1224 1.18128E-02 1.02103E-03-3.76183E-14
 -1      1225 1.21415E-02 1.05642E-03-3.95067E-14
 -1      1226 1.24598E-02 1.09785E-03-4.14144E-14
 -1      1227 1.27696E-02 1.14258E-03-4.33492E-14
 -1      1228 1.30726E-02 1.18879E-03-4.53160E-14
 -1      1229 1.33704E-02 1.23530E-03-4.73058E-14
 -1      1230 1.36642E-02 1.28140E-03-4.93142E-14
 -1      1231 1.39551E-02 1.32664E-03-5.13160E-14
 -1      1232 1.42437E-02 1.37081E-03-5.33118E-14
 -1      1233 1.45309E-02 1.41378E-03-5.53003E-14
 -1      1234 1.48170E-02 1.45554E-03-5.72831E-14
 -1      1235 1.51027E-02 1.49620E-03-5.92660E-14
 -1      1236 1.53811E-02 1.53515E-03-6.11955E-14
 -1      1237 1.54972E-02 1.51188E-03-6.20598E-14
 -1      1238 1.54582E-02 1.42746E-03-6.19403E-14
 -1      1239 1.54198E-02 1.34314E-03-6.18356E-14
 -1      1240 1.53824E-02 1.25929E-03-6.17391E-14
 -1      1241 1.53456E-02 1.17623E-03-6.16229E-14
 -1      1242 1.53094E-02 1.09478E-03-6.14713E-14
 -1      1243 1.52732E-02 1.01419E-03-6.13101E-14
 -1      1244 1.52361E-02 9.33568E-04-6.11153E-14
 -1      1245 1.51983E-02 8.53310E-04-6.09031E-14
 -1      1246 1.51596E-02 7.73040E-04-6.06808E-14
 -1      1247 1.51202E-02 6.92395E-04-6.04521E-14
 -1      1248 1.50806E-02 6.11767E-04-6.02471E-14
 -1      1249 1.50409E-02 5.30291E-04-6.00437E-14
 -1      1250 1.50012E-02 4.47224E-04-5.98052E-14
 -1      1251 1.49621E-02 3.63390E-04-5.95510E-14
 -1      1252 1.49238E-02 2.79091E-04-5.92967E-14
 -1      1253 1.48865E-02 1.95393E-04-5.90498E-14
 -1      1254 1.07027E-02 3.42226E-04-2.46860E-14
 -1      1255 1.05961E-02 4.94802E-04-2.45962E-14
 -1      1256 1.03912E-02 6.43512E-04-2.43444E-14
 -1      1257 1.01002E-02 7.93924E-04-2.39404E-14
 -1      1258 9.75304E-03 9.31178E-04-2.34266E-14
 -1      1259 9.34810E-03 1.04687E-03-2.28041E-14
 -1      1260 8.89885E-03 1.12211E-03-2.20915E-14
 -1      1261 8.43646E-03 1.13266E-03-2.13459E-14
 -1      1262 7.96775E-03 1.07584E-03-2.05931E-14
 -1      1263 7.52905E-03 9.67372E-04-1.99043E-14
 -1      1264 7.13739E-03 8.27398E-04-1.93064E-14
 -1      1265 6.79691E-03 6.72027E-04-1.88006E-14
 -1      1266 6.51938E-03 5.12238E-04-1.83910E-14
 -1      1267 6.32374E-03 3.51140E-04-1.80884E-14
 -1      1268 6.23957E-03 1.90407E-04-1.79280E-14
 -1      1269 6.28089E-03 3.89569E-05-1.79308E-14
 -1      1270 6.43409E-03-1.07015E-04-1.80729E-14
 -1      1271 6.68242E-03-2.52955E-04-1.83504E-14
 -1      1272 7.00125E-03-3.91541E-04-1.87495E-14
 -1      1273 7.36908E-03-5.12413E-04-1.92504E-14
 -1      1274 7.80729E-03-6.06456E-04-1.98885E-14
 -1      1275 8.27355E-03-6.50229E-04-2.06134E-14
 -1      1276 8.71894E-03-6.31174E-04-2.13357E-14
 -1      1277 9.16619E-03-5.56211E-04-2.20706E-14
 -1      1278 9.58632E-03-4.38462E-04-2.27631E-14
 -1      1279 9.96460E-03-2.95173E-04-2.33820E-14
 -1      1280 1.02982E-02-1.34173E-04-2.39234E-14
 -1      1281 1.05499E-02 2.91557E-05-2.43331E-14
 -1      1282 1.06882E-02 1.85069E-04-2.45849E-14
 -1      1283 1.66416E-04-1.10198E-04 6.38324E-18
 -1      1284 1.12446E-04-5.69173E-05-6.53232E-18
 -1      1285 1.17481E-04-6.75134E-05-3.14419E-18
 -1      1286 1.08403E-04-4.34355E-05-1.22921E-17
 -1      1287 1.10231E-04-4.95504E-05-1.04626E-17
 -1      1288 2.26181E-04-1.07457E-04-2.44623E-17
 -1      1289 1.06872E-04-3.35431E-05-1.58971E-17
 -1      1290 1.07696E-04-3.82687E-05-1.47723E-17
 -1      1291 2.19098E-04-8.22915E-05-3.52501E-17
 -1      1292 1.06128E-04-2.52845E-05-1.84721E-17
 -1      1293 1.06542E-04-2.93143E-05-1.76996E-17
 -1      1294 2.15945E-04-6.31022E-05-4.26091E-17
 -1      1295 1.05753E-04-1.80281E-05-2.01255E-17
 -1      1296 1.05972E-04-2.15899E-05-1.96376E-17
 -1      1297 2.14355E-04-4.70240E-05-4.76236E-17
 -1      1298 1.05545E-04-1.11930E-05-2.15892E-17
 -1      1299 1.05663E-04-1.45662E-05-2.12504E-17
 -1      1300 2.13482E-04-3.26122E-05-5.14589E-17
 -1      1301 1.05453E-04-4.66927E-06-2.25785E-17
 -1      1302 1.05503E-04-7.90665E-06-2.23346E-17
 -1      1303 2.13006E-04-1.90970E-05-5.43050E-17
 -1      1304 1.05443E-04 1.73235E-06-2.33917E-17
 -1      1305 1.05441E-04-1.46387E-06-2.32019E-17
 -1      1306 2.12801E-04-6.13018E-06-5.65547E-17
 -1      1307 1.05512E-04 8.18541E-06-2.37576E-17
 -1      1308 1.05458E-04 4.94121E-06-2.35949E-17
 -1      1309 2.12810E-04 6.67078E-06-5.80455E-17
 -1      1310 1.05680E-04 1.48713E-05-2.39473E-17
 -1      1311 1.05558E-04 1.14828E-05-2.38931E-17
 -1      1312 2.13033E-04 1.96649E-05-5.86960E-17
 -1      1313 1.05994E-04 2.18799E-05-2.37034E-17
 -1      1314 1.05770E-04 1.82946E-05-2.37711E-17
 -1      1315 2.13524E-04 3.31221E-05-5.87231E-17
 -1      1316 1.06588E-04 2.97479E-05-2.30393E-17
 -1      1317 1.06165E-04 2.56716E-05-2.32968E-17
 -1      1318 2.14426E-04 4.76265E-05-5.80048E-17
 -1      1319 1.07732E-04 3.88558E-05-2.14537E-17
 -1      1320 1.06906E-04 3.40597E-05-2.20635E-17
 -1      1321 2.16064E-04 6.40367E-05-5.59313E-17
 -1      1322 1.10208E-04 5.02905E-05-1.84179E-17
 -1      1323 1.08405E-04 4.41061E-05-1.97054E-17
 -1      1324 2.19192E-04 8.35434E-05-5.15538E-17
 -1      1325 1.16796E-04 6.75516E-05-1.26581E-17
 -1      1326 1.12091E-04 5.77183E-05-1.55041E-17
 -1      1327 2.26165E-04 1.09279E-04-4.38018E-17
 -1      1328 1.57298E-04 1.09715E-04-2.87314E-18
 -1      1329 1.35460E-04 8.59925E-05-9.44611E-18
 -1      1330 2.55704E-04 1.51870E-04-3.42337E-17
 -1      1331 3.34481E-04 2.20381E-04-1.86212E-17
 -1      1332 4.20802E-04-2.61248E-04 6.64074E-19
 -1      1333 5.73629E-04-3.36016E-04-1.44199E-17
 -1      1334 7.20564E-04-3.96274E-04-4.40864E-17
 -1      1335 8.63493E-04-4.45168E-04-8.77391E-17
 -1      1336 6.11195E-04-3.30003E-04-4.81792E-17
 -1      1337 1.00330E-03-4.85771E-04-1.45148E-16
 -1      1338 1.14094E-03-5.19219E-04-2.17017E-16
 -1      1339 9.04057E-04-4.29888E-04-1.42017E-16
 -1      1340 1.27726E-03-5.47369E-04-3.02980E-16
 -1      1341 1.41276E-03-5.70692E-04-4.03459E-16
 -1      1342 1.18620E-03-4.98213E-04-2.91474E-16
 -1      1343 1.54789E-03-5.90243E-04-5.17625E-16
 -1      1344 1.68293E-03-6.06349E-04-6.46198E-16
 -1      1345 1.46296E-03-5.45539E-04-4.96971E-16
 -1      1346 1.81811E-03-6.19624E-04-7.88459E-16
 -1      1347 1.95356E-03-6.30355E-04-9.44123E-16
 -1      1348 1.73766E-03-5.77970E-04-7.58047E-16
 -1      1349 2.08944E-03-6.38928E-04-1.11388E-15
 -1      1350 2.22578E-03-6.45588E-04-1.29840E-15
 -1      1351 2.01225E-03-5.99403E-04-1.07442E-15
 -1      1352 2.36269E-03-6.50595E-04-1.49667E-15
 -1      1353 2.50018E-03-6.54154E-04-1.70847E-15
 -1      1354 2.28783E-03-6.12562E-04-1.44653E-15
 -1      1355 2.63831E-03-6.56442E-04-1.93470E-15
 -1      1356 2.77710E-03-6.57631E-04-2.17515E-15
 -1      1357 2.56506E-03-6.19438E-04-1.87423E-15
 -1      1358 2.91658E-03-6.57845E-04-2.42841E-15
 -1      1359 3.05679E-03-6.57230E-04-2.69523E-15
 -1      1360 2.84434E-03-6.21524E-04-2.35695E-15
 -1      1361 3.19775E-03-6.55878E-04-2.97532E-15
 -1      1362 3.33949E-03-6.53918E-04-3.26864E-15
 -1      1363 3.12598E-03-6.19963E-04-2.89369E-15
 -1      1364 3.48206E-03-6.51422E-04-3.57517E-15
 -1      1365 3.62549E-03-6.48517E-04-3.89466E-15
 -1      1366 3.41027E-03-6.15671E-04-3.48328E-15
 -1      1367 3.76984E-03-6.45271E-04-4.22795E-15
 -1      1368 3.91515E-03-6.41818E-04-4.57521E-15
 -1      1369 3.69751E-03-6.09444E-04-4.12668E-15
 -1      1370 4.06150E-03-6.38241E-04-4.93588E-15
 -1      1371 4.20894E-03-6.34691E-04-5.30934E-15
 -1      1372 3.98807E-03-6.02070E-04-4.82318E-15
 -1      1373 4.35755E-03-6.31283E-04-5.69603E-15
 -1      1374 4.50738E-03-6.28201E-04-6.09635E-15
 -1      1375 4.28238E-03-5.94446E-04-5.57268E-15
 -1      1376 4.65852E-03-6.25609E-04-6.50943E-15
 -1      1377 4.81102E-03-6.23733E-04-6.93584E-15
 -1      1378 4.58091E-03-5.87700E-04-6.37455E-15
 -1      1379 4.96494E-03-6.22809E-04-7.37473E-15
 -1      1380 5.12031E-03-6.23105E-04-7.82516E-15
 -1      1381 4.88410E-03-5.83318E-04-7.22819E-15
 -1      1382 5.27714E-03-6.24946E-04-8.28771E-15
 -1      1383 5.43543E-03-6.28635E-04-8.76179E-15
 -1      1384 5.19231E-03-5.83258E-04-8.13012E-15
 -1      1385 5.59511E-03-6.34586E-04-9.24749E-15
 -1      1386 5.75608E-03-6.43108E-04-9.74576E-15
 -1      1387 5.50563E-03-5.90010E-04-9.07990E-15
 -1      1388 5.91816E-03-6.54666E-04-1.02572E-14
 -1      1389 6.08113E-03-6.69513E-04-1.07813E-14
 -1      1390 5.82372E-03-6.06521E-04-1.00785E-14
 -1      1391 6.24467E-03-6.88073E-04-1.13183E-14
 -1      1392 6.40840E-03-7.10430E-04-1.18673E-14
 -1      1393 6.14558E-03-6.35871E-04-1.11275E-14
 -1      1394 6.57184E-03-7.36790E-04-1.24293E-14
 -1      1395 6.73446E-03-7.66915E-04-1.30036E-14
 -1      1396 6.46934E-03-6.80541E-04-1.22277E-14
 -1      1397 6.89568E-03-8.00538E-04-1.35886E-14
 -1      1398 7.05491E-03-8.36924E-04-1.41839E-14
 -1      1399 6.79219E-03-7.41147E-04-1.33771E-14
 -1      1400 7.21156E-03-8.75098E-04-1.47905E-14
 -1      1401 7.36516E-03-9.13732E-04-1.54079E-14
 -1      1402 7.11057E-03-8.14734E-04-1.45714E-14
 -1      1403 7.51534E-03-9.51082E-04-1.60358E-14
 -1      1404 7.66195E-03-9.85349E-04-1.66723E-14
 -1      1405 7.42090E-03-8.93213E-04-1.58064E-14
 -1      1406 7.80505E-03-1.01434E-03-1.73171E-14
 -1      1407 7.94501E-03-1.03623E-03-1.79699E-14
 -1      1408 7.72077E-03-9.63118E-04-1.70806E-14
 -1      1409 8.08244E-03-1.04909E-03-1.86341E-14
 -1      1410 8.21821E-03-1.05172E-03-1.93089E-14
 -1      1411 8.01044E-03-1.00802E-03-1.83921E-14
 -1      1412 8.35329E-03-1.04329E-03-1.99950E-14
 -1      1413 8.48879E-03-1.02373E-03-2.06948E-14
 -1      1414 8.29353E-03-1.01376E-03-1.97451E-14
 -1      1415 8.62572E-03-9.93690E-04-2.14040E-14
 -1      1416 8.76501E-03-9.54258E-04-2.21239E-14
 -1      1417 8.57622E-03-9.74258E-04-2.11432E-14
 -1      1418 8.90730E-03-9.07254E-04-2.28568E-14
 -1      1419 9.05303E-03-8.54467E-04-2.35995E-14
 -1      1420 8.86483E-03-8.94323E-04-2.25878E-14
 -1      1421 9.20235E-03-7.98095E-04-2.43563E-14
 -1      1422 9.35515E-03-7.39967E-04-2.51266E-14
 -1      1423 9.16338E-03-7.87383E-04-2.40818E-14
 -1      1424 9.51112E-03-6.81902E-04-2.59078E-14
 -1      1425 9.66979E-03-6.25304E-04-2.67005E-14
 -1      1426 9.47256E-03-6.69872E-04-2.56217E-14
 -1      1427 9.83062E-03-5.71246E-04-2.75067E-14
 -1      1428 9.99301E-03-5.20528E-04-2.83223E-14
 -1      1429 9.79021E-03-5.55801E-04-2.72113E-14
 -1      1430 1.01564E-02-4.73492E-04-2.91513E-14
 -1      1431 1.03202E-02-4.30426E-04-2.99911E-14
 -1      1432 1.01128E-02-4.53946E-04-2.88485E-14
 -1      1433 1.04839E-02-3.91165E-04-3.08380E-14
 -1      1434 1.06472E-02-3.55655E-04-3.16944E-14
 -1      1435 1.04369E-02-3.67801E-04-3.05246E-14
 -1      1436 1.08098E-02-3.23486E-04-3.25597E-14
 -1      1437 1.09713E-02-2.94421E-04-3.34319E-14
 -1      1438 1.07594E-02-2.97076E-04-3.22369E-14
 -1      1439 1.11316E-02-2.67990E-04-3.43109E-14
 -1      1440 1.12906E-02-2.43892E-04-3.51994E-14
 -1      1441 1.10785E-02-2.39436E-04-3.39818E-14
 -1      1442 1.14482E-02-2.21705E-04-3.60923E-14
 -1      1443 1.16044E-02-2.01129E-04-3.69910E-14
 -1      1444 1.13932E-02-1.91827E-04-3.57559E-14
 -1      1445 1.17593E-02-1.81830E-04-3.79043E-14
 -1      1446 1.19129E-02-1.63547E-04-3.88282E-14
 -1      1447 1.17030E-02-1.51282E-04-3.75629E-14
 -1      1448 1.20652E-02-1.46037E-04-3.97595E-14
 -1      1449 1.22164E-02-1.29089E-04-4.07007E-14
 -1      1450 1.20081E-02-1.15292E-04-3.94073E-14
 -1      1451 1.23664E-02-1.12539E-04-4.16539E-14
 -1      1452 1.25155E-02-9.62234E-05-4.26169E-14
 -1      1453 1.23091E-02-8.19120E-05-4.12937E-14
 -1      1454 1.26636E-02-8.00415E-05-4.35863E-14
 -1      1455 1.28110E-02-6.38721E-05-4.45635E-14
 -1      1456 1.26063E-02-4.97249E-05-4.32124E-14
 -1      1457 1.29576E-02-4.76570E-05-4.55473E-14
 -1      1458 1.31035E-02-3.13103E-05-4.65354E-14
 -1      1459 1.29005E-02-1.77533E-05-4.51632E-14
 -1      1460 1.32489E-02-1.48024E-05-4.75305E-14
 -1      1461 1.33938E-02 1.92578E-06-4.85300E-14
 -1      1462 1.31922E-02 1.46453E-05-4.71408E-14
 -1      1463 1.35382E-02 1.88861E-05-4.95307E-14
 -1      1464 1.36823E-02 3.61171E-05-5.05300E-14
 -1      1465 1.34819E-02 4.78722E-05-4.91358E-14
 -1      1466 1.38260E-02 5.36195E-05-5.15312E-14
 -1      1467 1.39695E-02 7.14155E-05-5.25346E-14
 -1      1468 1.37702E-02 8.21615E-05-5.11381E-14
 -1      1469 1.41128E-02 8.94944E-05-5.35418E-14
 -1      1470 1.42559E-02 1.07863E-04-5.45496E-14
 -1      1471 1.40573E-02 1.17628E-04-5.31478E-14
 -1      1472 1.43989E-02 1.26490E-04-5.55623E-14
 -1      1473 1.45418E-02 1.45352E-04-5.65800E-14
 -1      1474 1.43437E-02 1.54277E-04-5.51667E-14
 -1      1475 1.47508E-02 1.77251E-04-5.80731E-14
 -1      1476 1.46959E-02 2.04819E-04-5.76742E-14
 -1      1477 6.41909E-04 3.71086E-04-7.99193E-17
 -1      1478 4.92059E-04 3.03073E-04-4.03459E-17
 -1      1479 4.44184E-04 2.65357E-04-5.19739E-17
 -1      1480 9.26988E-04 4.70257E-04-2.10173E-16
 -1      1481 7.86371E-04 4.25194E-04-1.36772E-16
 -1      1482 7.43597E-04 3.89511E-04-1.48996E-16
 -1      1483 1.20144E-03 5.38603E-04-4.05681E-16
 -1      1484 1.06499E-03 5.07500E-04-2.99660E-16
 -1      1485 1.02926E-03 4.74030E-04-3.12101E-16
 -1      1486 1.47165E-03 5.86378E-04-6.65836E-16
 -1      1487 1.33675E-03 5.64678E-04-5.27803E-16
 -1      1488 1.30688E-03 5.32621E-04-5.39214E-16
 -1      1489 1.74100E-03 6.19426E-04-9.89240E-16
 -1      1490 1.60626E-03 6.04506E-04-8.19616E-16
 -1      1491 1.58095E-03 5.73287E-04-8.28859E-16
 -1      1492 2.01127E-03 6.41524E-04-1.37301E-15
 -1      1493 1.87593E-03 6.31675E-04-1.17364E-15
 -1      1494 1.85417E-03 6.00917E-04-1.17969E-15
 -1      1495 2.28341E-03 6.55325E-04-1.81452E-15
 -1      1496 2.14706E-03 6.49334E-04-1.58674E-15
 -1      1497 2.12804E-03 6.18799E-04-1.59027E-15
 -1      1498 2.55791E-03 6.62774E-04-2.31359E-15
 -1      1499 2.42034E-03 6.59744E-04-2.05693E-15
 -1      1500 2.40343E-03 6.29278E-04-2.05796E-15
 -1      1501 2.83510E-03 6.65323E-04-2.86805E-15
 -1      1502 2.69615E-03 6.64582E-04-2.58403E-15
 -1      1503 2.68084E-03 6.34078E-04-2.58170E-15
 -1      1504 3.11523E-03 6.64074E-04-3.47725E-15
 -1      1505 2.97478E-03 6.65108E-04-3.16603E-15
 -1      1506 2.96064E-03 6.34486E-04-3.16030E-15
 -1      1507 3.39860E-03 6.59884E-04-4.13919E-15
 -1      1508 3.25649E-03 6.62288E-04-3.80132E-15
 -1      1509 3.24314E-03 6.31476E-04-3.79242E-15
 -1      1510 3.68563E-03 6.53474E-04-4.85536E-15
 -1      1511 3.54163E-03 6.56898E-04-4.49055E-15
 -1      1512 3.52870E-03 6.25821E-04-4.47785E-15
 -1      1513 3.97686E-03 6.45532E-04-5.62803E-15
 -1      1514 3.83068E-03 6.49627E-04-5.23434E-15
 -1      1515 3.81779E-03 6.18196E-04-5.21820E-15
 -1      1516 4.27309E-03 6.36840E-04-6.45649E-15
 -1      1517 4.12430E-03 6.41194E-04-6.03504E-15
 -1      1518 4.11099E-03 6.09296E-04-6.01346E-15
 -1      1519 4.57531E-03 6.28427E-04-7.34130E-15
 -1      1520 4.42339E-03 6.32483E-04-6.89226E-15
 -1      1521 4.40910E-03 5.99970E-04-6.86560E-15
 -1      1522 4.88477E-03 6.21766E-04-8.27962E-15
 -1      1523 4.72905E-03 6.24719E-04-7.80403E-15
 -1      1524 4.71307E-03 5.91399E-04-7.77153E-15
 -1      1525 5.20283E-03 6.19025E-04-9.26241E-15
 -1      1526 5.04263E-03 6.19691E-04-8.76534E-15
 -1      1527 5.02402E-03 5.85320E-04-8.72808E-15
 -1      1528 5.53091E-03 6.23369E-04-1.02944E-14
 -1      1529 5.36553E-03 6.20030E-04-9.77304E-15
 -1      1530 5.34312E-03 5.84310E-04-9.73188E-15
 -1      1531 5.87003E-03 6.39271E-04-1.13741E-14
 -1      1532 5.69902E-03 6.29528E-04-1.08275E-14
 -1      1533 5.67144E-03 5.92118E-04-1.07822E-14
 -1      1534 6.22038E-03 6.72681E-04-1.24989E-14
 -1      1535 6.04382E-03 6.53406E-04-1.19301E-14
 -1      1536 6.00959E-03 6.13956E-04-1.18803E-14
 -1      1537 6.58041E-03 7.30694E-04-1.36743E-14
 -1      1538 6.39934E-03 6.98284E-04-1.30810E-14
 -1      1539 6.35728E-03 6.56529E-04-1.30273E-14
 -1      1540 6.94595E-03 8.20066E-04-1.48972E-14
 -1      1541 6.76286E-03 7.71363E-04-1.42803E-14
 -1      1542 6.71264E-03 7.27298E-04-1.42224E-14
 -1      1543 7.30958E-03 9.43840E-04-1.61653E-14
 -1      1544 7.12863E-03 8.78069E-04-1.55261E-14
 -1      1545 7.07157E-03 8.32235E-04-1.54614E-14
 -1      1546 7.66122E-03 1.09576E-03-1.74764E-14
 -1      1547 7.48765E-03 1.01749E-03-1.68155E-14
 -1      1548 7.42751E-03 9.71303E-04-1.67437E-14
 -1      1549 7.99115E-03 1.25507E-03-1.88254E-14
 -1      1550 7.82943E-03 1.17653E-03-1.81443E-14
 -1      1551 7.77230E-03 1.13229E-03-1.80686E-14
 -1      1552 8.29560E-03 1.38704E-03-2.02269E-14
 -1      1553 8.14643E-03 1.32670E-03-1.95201E-14
 -1      1554 8.09933E-03 1.28689E-03-1.94401E-14
 -1      1555 8.58145E-03 1.45570E-03-2.16789E-14
 -1      1556 8.43990E-03 1.43062E-03-2.09467E-14
 -1      1557 8.40837E-03 1.39629E-03-2.08635E-14
 -1      1558 8.86517E-03 1.44304E-03-2.31823E-14
 -1      1559 8.72225E-03 1.45909E-03-2.24246E-14
 -1      1560 8.70819E-03 1.42895E-03-2.23376E-14
 -1      1561 9.16455E-03 1.36059E-03-2.47268E-14
 -1      1562 9.01197E-03 1.40845E-03-2.39493E-14
 -1      1563 9.01311E-03 1.37951E-03-2.38574E-14
 -1      1564 9.48895E-03 1.24252E-03-2.63134E-14
 -1      1565 9.32347E-03 1.30355E-03-2.55163E-14
 -1      1566 9.33437E-03 1.27309E-03-2.54199E-14
 -1      1567 9.83662E-03 1.12528E-03-2.79252E-14
 -1      1568 9.66035E-03 1.18205E-03-2.71145E-14
 -1      1569 9.67430E-03 1.14889E-03-2.70140E-14
 -1      1570 1.01986E-02 1.03306E-03-2.95726E-14
 -1      1571 1.00165E-02 1.07533E-03-2.87455E-14
 -1      1572 1.00277E-02 1.03963E-03-2.86406E-14
 -1      1573 1.05647E-02 9.74847E-04-3.12543E-14
 -1      1574 1.03818E-02 9.99741E-04-3.04081E-14
 -1      1575 1.03866E-02 9.62346E-04-3.03026E-14
 -1      1576 1.09266E-02 9.49078E-04-3.29835E-14
 -1      1577 1.07466E-02 9.58307E-04-3.21121E-14
 -1      1578 1.07438E-02 9.20102E-04-3.20059E-14
 -1      1579 1.12796E-02 9.49386E-04-3.47566E-14
 -1      1580 1.11044E-02 9.46449E-04-3.38649E-14
 -1      1581 1.10944E-02 9.08130E-04-3.37550E-14
 -1      1582 1.16216E-02 9.68551E-04-3.65769E-14
 -1      1583 1.14520E-02 9.57031E-04-3.56617E-14
 -1      1584 1.14359E-02 9.19046E-04-3.55500E-14
 -1      1585 1.19527E-02 1.00033E-03-3.84369E-14
 -1      1586 1.17885E-02 9.83186E-04-3.75015E-14
 -1      1587 1.17678E-02 9.45779E-04-3.73849E-14
 -1      1588 1.22738E-02 1.03995E-03-4.03292E-14
 -1      1589 1.21144E-02 1.01939E-03-3.93796E-14
 -1      1590 1.20904E-02 9.82652E-04-3.92531E-14
 -1      1591 1.25865E-02 1.08405E-03-4.22454E-14
 -1      1592 1.24311E-02 1.06160E-03-4.12847E-14
 -1      1593 1.24049E-02 1.02553E-03-4.11527E-14
 -1      1594 1.28921E-02 1.13034E-03-4.41913E-14
 -1      1595 1.27401E-02 1.10703E-03-4.32132E-14
 -1      1596 1.27125E-02 1.07157E-03-4.30790E-14
 -1      1597 1.31922E-02 1.17735E-03-4.61646E-14
 -1      1598 1.30428E-02 1.15383E-03-4.51751E-14
 -1      1599 1.30144E-02 1.11890E-03-4.50349E-14
 -1      1600 1.34880E-02 1.22417E-03-4.81618E-14
 -1      1601 1.33406E-02 1.20083E-03-4.71603E-14
 -1      1602 1.33119E-02 1.16636E-03-4.70146E-14
 -1      1603 1.37805E-02 1.27023E-03-5.01630E-14
 -1      1604 1.36346E-02 1.24732E-03-4.91637E-14
 -1      1605 1.36058E-02 1.21323E-03-4.90127E-14
 -1      1606 1.40705E-02 1.31524E-03-5.21649E-14
 -1      1607 1.39258E-02 1.29288E-03-5.11655E-14
 -1      1608 1.38971E-02 1.25910E-03-5.10144E-14
 -1      1609 1.43588E-02 1.35904E-03-5.41597E-14
 -1      1610 1.42148E-02 1.33730E-03-5.31612E-14
 -1      1611 1.41864E-02 1.30376E-03-5.30105E-14
 -1      1612 1.46458E-02 1.40157E-03-5.61458E-14
 -1      1613 1.45024E-02 1.38046E-03-5.51525E-14
 -1      1614 1.44742E-02 1.34712E-03-5.50045E-14
 -1      1615 1.49320E-02 1.44287E-03-5.81305E-14
 -1      1616 1.47889E-02 1.42237E-03-5.71385E-14
 -1      1617 1.47610E-02 1.38916E-03-5.69938E-14
 -1      1618 1.52178E-02 1.48314E-03-6.01124E-14
 -1      1619 1.50749E-02 1.46311E-03-5.91232E-14
 -1      1620 1.50471E-02 1.43001E-03-5.89804E-14
 -1      1621 1.53615E-02 1.49300E-03-6.11246E-14
 -1      1622 1.53248E-02 1.38935E-03-6.10522E-14
 -1      1623 1.53442E-02 1.43145E-03-6.11112E-14
 -1      1624 1.52867E-02 1.30539E-03-6.09369E-14
 -1      1625 1.53056E-02 1.34732E-03-6.09958E-14
 -1      1626 1.51915E-02 1.35123E-03-6.01574E-14
 -1      1627 1.52496E-02 1.22198E-03-6.08222E-14
 -1      1628 1.52680E-02 1.26361E-03-6.08801E-14
 -1      1629 1.51537E-02 1.26756E-03-6.00323E-14
 -1      1630 1.52130E-02 1.13930E-03-6.06858E-14
 -1      1631 1.52312E-02 1.18054E-03-6.07593E-14
 -1      1632 1.51169E-02 1.18448E-03-5.98998E-14
 -1      1633 1.51773E-02 1.05878E-03-6.05315E-14
 -1      1634 1.51952E-02 1.09895E-03-6.06110E-14
 -1      1635 1.50808E-02 1.10280E-03-5.97539E-14
 -1      1636 1.51407E-02 9.77560E-04-6.03587E-14
 -1      1637 1.51591E-02 1.01809E-03-6.04476E-14
 -1      1638 1.50449E-02 1.02179E-03-5.95899E-14
 -1      1639 1.51035E-02 8.96843E-04-6.01614E-14
 -1      1640 1.51222E-02 9.37154E-04-6.02611E-14
 -1      1641 1.50082E-02 9.40673E-04-5.94073E-14
 -1      1642 1.50655E-02 8.16349E-04-5.99501E-14
 -1      1643 1.50846E-02 8.56587E-04-6.00574E-14
 -1      1644 1.49709E-02 8.59936E-04-5.92095E-14
 -1      1645 1.50266E-02 7.35766E-04-5.97329E-14
 -1      1646 1.50461E-02 7.76087E-04-5.98432E-14
 -1      1647 1.49326E-02 7.79324E-04-5.90032E-14
 -1      1648 1.49869E-02 6.54797E-04-5.95140E-14
 -1      1649 1.50068E-02 6.95346E-04-5.96228E-14
 -1      1650 1.48935E-02 6.98563E-04-5.87889E-14
 -1      1651 1.49475E-02 5.74600E-04-5.93052E-14
 -1      1652 1.49673E-02 6.14783E-04-5.94098E-14
 -1      1653 1.48539E-02 6.18094E-04-5.85742E-14
 -1      1654 1.49074E-02 4.92279E-04-5.90876E-14
 -1      1655 1.49274E-02 5.33536E-04-5.91999E-14
 -1      1656 1.48141E-02 5.37049E-04-5.83601E-14
 -1      1657 1.48677E-02 4.09203E-04-5.88466E-14
 -1      1658 1.48875E-02 4.50830E-04-5.89709E-14
 -1      1659 1.47739E-02 4.54629E-04-5.81332E-14
 -1      1660 1.48287E-02 3.25491E-04-5.86008E-14
 -1      1661 1.48481E-02 3.67413E-04-5.87248E-14
 -1      1662 1.47342E-02 3.71529E-04-5.78965E-14
 -1      1663 1.47527E-02 2.44138E-04-5.80735E-14
 -1      1664 1.47716E-02 2.86206E-04-5.81982E-14
 -1      1665 1.46575E-02 2.90610E-04-5.73765E-14
 -1      1666 1.45435E-02 2.12236E-04-5.65806E-14
 -1      1667 1.06994E-02 3.40412E-04-2.50687E-14
 -1      1668 1.07301E-02 2.95166E-04-2.50696E-14
 -1      1669 1.05393E-02 4.60807E-04-2.48389E-14
 -1      1670 1.06261E-02 4.07557E-04-2.49271E-14
 -1      1671 1.02728E-02 5.95434E-04-2.45412E-14
 -1      1672 1.04074E-02 5.27594E-04-2.47086E-14
 -1      1673 9.93698E-03 7.64716E-04-2.40484E-14
 -1      1674 1.01008E-02 6.86002E-04-2.42847E-14
 -1      1675 9.57192E-03 9.30424E-04-2.34754E-14
 -1      1676 9.74104E-03 8.55051E-04-2.37485E-14
 -1      1677 9.15590E-03 1.08382E-03-2.27870E-14
 -1      1678 9.34474E-03 1.01406E-03-2.31370E-14
 -1      1679 8.76393E-03 1.17274E-03-2.19804E-14
 -1      1680 8.94669E-03 1.14171E-03-2.23406E-14
 -1      1681 8.36033E-03 1.17388E-03-2.11650E-14
 -1      1682 8.54560E-03 1.18775E-03-2.15457E-14
 -1      1683 7.95858E-03 1.07424E-03-2.03439E-14
 -1      1684 8.14325E-03 1.13269E-03-2.07091E-14
 -1      1685 7.54187E-03 9.10513E-04-1.96348E-14
 -1      1686 7.72441E-03 9.90324E-04-1.99517E-14
 -1      1687 7.14915E-03 7.28660E-04-1.90237E-14
 -1      1688 7.32510E-03 8.14494E-04-1.92966E-14
 -1      1689 6.79334E-03 5.51500E-04-1.85077E-14
 -1      1690 6.95248E-03 6.31464E-04-1.87326E-14
 -1      1691 6.49411E-03 3.96854E-04-1.80956E-14
 -1      1692 6.62338E-03 4.65081E-04-1.82722E-14
 -1      1693 6.28774E-03 2.68107E-04-1.78066E-14
 -1      1694 6.36877E-03 3.24572E-04-1.79235E-14
 -1      1695 6.22055E-03 1.58023E-04-1.76427E-14
 -1      1696 6.23177E-03 2.04585E-04-1.76814E-14
 -1      1697 6.30503E-03 5.47144E-05-1.77132E-14
 -1      1698 6.24992E-03 1.01894E-04-1.76771E-14
 -1      1699 6.51976E-03-5.81119E-05-1.78658E-14
 -1      1700 6.40623E-03-1.77414E-07-1.77614E-14
 -1      1701 6.82164E-03-2.07279E-04-1.82110E-14
 -1      1702 6.67340E-03-1.37735E-04-1.80443E-14
 -1      1703 7.17887E-03-3.69416E-04-1.86676E-14
 -1      1704 7.00974E-03-2.93423E-04-1.84416E-14
 -1      1705 7.54779E-03-5.24975E-04-1.92344E-14
 -1      1706 7.37500E-03-4.56715E-04-1.89687E-14
 -1      1707 7.98727E-03-6.57165E-04-1.99450E-14
 -1      1708 7.78719E-03-6.00890E-04-1.95763E-14
 -1      1709 8.37678E-03-6.98583E-04-2.07399E-14
 -1      1710 8.20380E-03-6.89650E-04-2.03925E-14
 -1      1711 8.76851E-03-6.53768E-04-2.15344E-14
 -1      1712 8.58606E-03-6.85549E-04-2.11645E-14
 -1      1713 9.17755E-03-5.31056E-04-2.23263E-14
 -1      1714 8.98954E-03-5.95545E-04-2.19641E-14
 -1      1715 9.57818E-03-3.64295E-04-2.30610E-14
 -1      1716 9.39453E-03-4.44920E-04-2.27329E-14
 -1      1717 9.96350E-03-1.85202E-04-2.37153E-14
 -1      1718 9.78846E-03-2.68049E-04-2.34257E-14
 -1      1719 1.03174E-02-2.92925E-06-2.43186E-14
 -1      1720 1.01558E-02-8.09238E-05-2.40675E-14
 -1      1721 1.05860E-02 1.27982E-04-2.46899E-14
 -1      1722 1.04798E-02 6.85390E-05-2.45268E-14
 -1      1723 1.07187E-02 2.39389E-04-2.49265E-14
 -1      1724 1.06747E-02 1.90529E-04-2.48380E-14
 -1      1725 9.78351E-03 7.72084E-04-2.41086E-14
 -1      1726 1.01458E-02 5.89717E-04-2.46674E-14
 -1      1727 1.53339E-02 1.45992E-03-6.09863E-14
 -1      1728 1.52003E-02 1.42164E-03-6.00940E-14
 -1      1729 1.06672E-02 3.41588E-04-2.53346E-14
 -1      1730 1.04543E-02 4.47044E-04-2.50579E-14
 -1      1731 1.07351E-02 2.75323E-04-2.53394E-14
 -1      1732 9.38974E-03 9.61064E-04-2.34681E-14
 -1      1733 9.01411E-03 1.12491E-03-2.26796E-14
 -1      1734 8.64192E-03 1.20716E-03-2.17971E-14
 -1      1735 8.28070E-03 1.17658E-03-2.09073E-14
 -1      1736 7.90790E-03 1.03400E-03-2.00626E-14
 -1      1737 7.50293E-03 8.36132E-04-1.93372E-14
 -1      1738 7.10912E-03 6.31639E-04-1.87134E-14
 -1      1739 6.74455E-03 4.50678E-04-1.81931E-14
 -1      1740 6.44206E-03 3.11383E-04-1.77916E-14
 -1      1741 6.25258E-03 2.10662E-04-1.74980E-14
 -1      1742 6.22546E-03 1.41992E-04-1.74083E-14
 -1      1743 6.36126E-03 6.37822E-05-1.74894E-14
 -1      1744 6.62311E-03-4.52621E-05-1.77126E-14
 -1      1745 6.96522E-03-2.03371E-04-1.81172E-14
 -1      1746 7.33500E-03-3.85008E-04-1.86434E-14
 -1      1747 7.73448E-03-5.64219E-04-1.92816E-14
 -1      1748 8.11232E-03-6.93624E-04-2.00660E-14
 -1      1749 8.47351E-03-7.18176E-04-2.09364E-14
 -1      1750 8.83498E-03-6.38411E-04-2.17909E-14
 -1      1751 9.22294E-03-4.77851E-04-2.26293E-14
 -1      1752 9.62028E-03-2.79426E-04-2.34044E-14
 -1      1753 1.00152E-02-7.54837E-05-2.41248E-14
 -1      1754 1.03738E-02 8.68753E-05-2.46917E-14
 -1      1755 1.06310E-02 1.94885E-04-2.50504E-14
 -1      1756 2.84798E-04-1.75956E-04-4.54010E-18
 -1      1757 3.32216E-04-1.16425E-04-5.82081E-17
 -1      1758 3.36267E-04-1.32667E-04-5.17571E-17
 -1      1759 3.42044E-04-1.51651E-04-4.43981E-17
 -1      1760 3.51473E-04-1.73639E-04-3.46403E-17
 -1      1761 4.58188E-04-1.87491E-04-7.50268E-17
 -1      1762 3.24799E-04-6.50739E-05-7.47422E-17
 -1      1763 3.25902E-04-7.63521E-05-7.16658E-17
 -1      1764 3.23351E-04-4.36504E-05-8.00548E-17
 -1      1765 3.23985E-04-5.41014E-05-7.74798E-17
 -1      1766 4.36827E-04-7.88354E-05-1.13177E-16
 -1      1767 3.22593E-04-2.36309E-05-8.38766E-17
 -1      1768 3.22913E-04-3.34919E-05-8.20334E-17
 -1      1769 4.34873E-04-5.09894E-05-1.19913E-16
 -1      1770 3.22309E-04-4.31305E-06-8.69124E-17
 -1      1771 3.22402E-04-1.39054E-05-8.54216E-17
 -1      1772 4.33877E-04-2.47547E-05-1.25036E-16
 -1      1773 3.22430E-04 1.48853E-05-8.89046E-17
 -1      1774 3.22318E-04 5.28227E-06-8.81456E-17
 -1      1775 4.33588E-04 7.48696E-07-1.29007E-16
 -1      1776 3.22981E-04 3.45275E-05-8.97855E-17
 -1      1777 3.22639E-04 2.46327E-05-8.93789E-17
 -1      1778 4.33940E-04 2.62822E-05-1.31527E-16
 -1      1779 3.24075E-04 5.48854E-05-8.96500E-17
 -1      1780 3.23432E-04 4.45590E-05-8.98804E-17
 -1      1781 4.34995E-04 5.23840E-05-1.32476E-16
 -1      1782 3.26067E-04 7.74882E-05-8.82405E-17
 -1      1783 3.24906E-04 6.59274E-05-8.91621E-17
 -1      1784 4.37002E-04 8.01466E-05-1.32029E-16
 -1      1785 3.29646E-04 1.03307E-04-8.45542E-17
 -1      1786 3.27559E-04 8.99636E-05-8.68039E-17
 -1      1787 4.40558E-04 1.11042E-04-1.29359E-16
 -1      1788 3.36514E-04 1.34760E-04-7.71003E-17
 -1      1789 3.32423E-04 1.18264E-04-8.14507E-17
 -1      1790 4.46869E-04 1.46773E-04-1.23382E-16
 -1      1791 3.52004E-04 1.77232E-04-6.42525E-17
 -1      1792 3.42636E-04 1.54402E-04-7.16251E-17
 -1      1793 4.59161E-04 1.90872E-04-1.12079E-16
 -1      1794 4.07149E-04 2.33211E-04-5.71781E-17
 -1      1795 3.77684E-04 2.02244E-04-6.25314E-17
 -1      1796 4.95420E-04 2.43343E-04-1.02864E-16
 -1      1797 5.57803E-04 3.01729E-04-9.69683E-17
 -1      1798 3.39603E-04-1.90552E-04-1.88245E-17
 -1      1799 8.52477E-04 4.05559E-04-2.27628E-16
 -1      1800 7.06239E-04 3.58241E-04-1.54228E-16
 -1      1801 6.72674E-04 3.27746E-04-1.57995E-16
 -1      1802 4.58481E-04-2.36140E-04-4.33952E-17
 -1      1803 8.06372E-04-3.72668E-04-1.36040E-16
 -1      1804 9.51521E-04-4.13375E-04-1.99927E-16
 -1      1805 1.09426E-03-4.47508E-04-2.77244E-16
 -1      1806 1.23586E-03-4.75764E-04-3.68764E-16
 -1      1807 1.00323E-03-3.95758E-04-2.60927E-16
 -1      1808 1.37623E-03-4.99512E-04-4.74108E-16
 -1      1809 1.51593E-03-5.19049E-04-5.93099E-16
 -1      1810 1.28886E-03-4.52431E-04-4.49063E-16
 -1      1811 1.65514E-03-5.35276E-04-7.26090E-16
 -1      1812 1.79410E-03-5.48426E-04-8.72796E-16
 -1      1813 1.57134E-03-4.91692E-04-6.92019E-16
 -1      1814 1.93299E-03-5.59089E-04-1.03282E-15
 -1      1815 2.07191E-03-5.67464E-04-1.20695E-15
 -1      1816 1.85223E-03-5.18066E-04-9.89673E-16
 -1      1817 2.21102E-03-5.73948E-04-1.39515E-15
 -1      1818 2.35034E-03-5.78712E-04-1.59695E-15
 -1      1819 2.13267E-03-5.34792E-04-1.34208E-15
 -1      1820 2.49000E-03-5.82031E-04-1.81273E-15
 -1      1821 2.63000E-03-5.84046E-04-2.04196E-15
 -1      1822 2.41346E-03-5.44231E-04-1.74955E-15
 -1      1823 2.77043E-03-5.84953E-04-2.28512E-15
 -1      1824 2.91130E-03-5.84871E-04-2.54149E-15
 -1      1825 2.69514E-03-5.48129E-04-2.21137E-15
 -1      1826 3.05268E-03-5.83941E-04-2.81146E-15
 -1      1827 3.19458E-03-5.82265E-04-3.09418E-15
 -1      1828 2.97811E-03-5.47797E-04-2.72783E-15
 -1      1829 3.33704E-03-5.79953E-04-3.39094E-15
 -1      1830 3.48012E-03-5.77100E-04-3.70096E-15
 -1      1831 3.26267E-03-5.44249E-04-3.29725E-15
 -1      1832 3.62383E-03-5.73800E-04-4.02377E-15
 -1      1833 3.76824E-03-5.70151E-04-4.36015E-15
 -1      1834 3.54911E-03-5.38313E-04-3.92000E-15
 -1      1835 3.91336E-03-5.66251E-04-4.70996E-15
 -1      1836 4.05929E-03-5.62210E-04-5.07290E-15
 -1      1837 3.83773E-03-5.30746E-04-4.59570E-15
 -1      1838 4.20602E-03-5.58151E-04-5.44889E-15
 -1      1839 4.35366E-03-5.54205E-04-5.83779E-15
 -1      1840 4.12887E-03-5.22345E-04-5.32372E-15
 -1      1841 4.50222E-03-5.50543E-04-6.23915E-15
 -1      1842 4.65179E-03-5.47330E-04-6.65368E-15
 -1      1843 4.42288E-03-5.14072E-04-6.10395E-15
 -1      1844 4.80238E-03-5.44802E-04-7.08191E-15
 -1      1845 4.95407E-03-5.43170E-04-7.52134E-15
 -1      1846 4.72018E-03-5.07182E-04-6.93494E-15
 -1      1847 5.10688E-03-5.42754E-04-7.97257E-15
 -1      1848 5.26085E-03-5.43816E-04-8.43615E-15
 -1      1849 5.02119E-03-5.03352E-04-7.81492E-15
 -1      1850 5.41600E-03-5.46763E-04-8.91225E-15
 -1      1851 5.57226E-03-5.51905E-04-9.39914E-15
 -1      1852 5.32632E-03-5.04788E-04-8.74329E-15
 -1      1853 5.72972E-03-5.59714E-04-9.89955E-15
 -1      1854 5.88813E-03-5.70519E-04-1.04126E-14
 -1      1855 5.63588E-03-5.14254E-04-9.72092E-15
 -1      1856 6.04763E-03-5.84786E-04-1.09376E-14
 -1      1857 6.20775E-03-6.02797E-04-1.14758E-14
 -1      1858 5.95001E-03-5.34941E-04-1.07474E-14
 -1      1859 6.36871E-03-6.24865E-04-1.20270E-14
 -1      1860 6.52974E-03-6.51097E-04-1.25904E-14
 -1      1861 6.26844E-03-5.70034E-04-1.18258E-14
 -1      1862 6.69111E-03-6.81432E-04-1.31651E-14
 -1      1863 6.85182E-03-7.15600E-04-1.37519E-14
 -1      1864 6.59026E-03-6.21794E-04-1.29537E-14
 -1      1865 7.01210E-03-7.52912E-04-1.43496E-14
 -1      1866 7.17092E-03-7.92474E-04-1.49579E-14
 -1      1867 6.91357E-03-6.90025E-04-1.41285E-14
 -1      1868 7.32836E-03-8.32804E-04-1.55763E-14
 -1      1869 7.48371E-03-8.72276E-04-1.62057E-14
 -1      1870 7.23533E-03-7.70050E-04-1.53467E-14
 -1      1871 7.63683E-03-9.08721E-04-1.68435E-14
 -1      1872 7.78781E-03-9.40008E-04-1.74898E-14
 -1      1873 7.55182E-03-8.50999E-04-1.66047E-14
 -1      1874 7.93629E-03-9.63834E-04-1.81478E-14
 -1      1875 8.08343E-03-9.78268E-04-1.88147E-14
 -1      1876 7.86027E-03-9.16114E-04-1.79017E-14
 -1      1877 8.22875E-03-9.81749E-04-1.94923E-14
 -1      1878 8.37422E-03-9.73420E-04-2.01825E-14
 -1      1879 8.16095E-03-9.46862E-04-1.92394E-14
 -1      1880 8.51935E-03-9.53187E-04-2.08825E-14
 -1      1881 8.66614E-03-9.21725E-04-2.15949E-14
 -1      1882 8.45810E-03-9.30325E-04-2.06209E-14
 -1      1883 8.81413E-03-8.80451E-04-2.23193E-14
 -1      1884 8.96457E-03-8.31193E-04-2.30546E-14
 -1      1885 8.75805E-03-8.65703E-04-2.20488E-14
 -1      1886 9.11711E-03-7.76209E-04-2.38036E-14
 -1      1887 9.27195E-03-7.17653E-04-2.45636E-14
 -1      1888 9.06544E-03-7.64664E-04-2.35246E-14
 -1      1889 9.42896E-03-6.57724E-04-2.53362E-14
 -1      1890 9.58746E-03-5.98163E-04-2.61198E-14
 -1      1891 9.38108E-03-6.45411E-04-2.50492E-14
 -1      1892 9.74754E-03-5.40542E-04-2.69160E-14
 -1      1893 9.90816E-03-4.85835E-04-2.77234E-14
 -1      1894 9.70247E-03-5.25237E-04-2.66199E-14
 -1      1895 1.00696E-02-4.34825E-04-2.85411E-14
 -1      1896 1.02307E-02-3.87839E-04-2.93709E-14
 -1      1897 1.00259E-02-4.15824E-04-2.82354E-14
 -1      1898 1.03919E-02-3.45001E-04-3.02095E-14
 -1      1899 1.05523E-02-3.06238E-04-3.10563E-14
 -1      1900 1.03482E-02-3.22501E-04-2.98927E-14
 -1      1901 1.07122E-02-2.71267E-04-3.19138E-14
 -1      1902 1.08710E-02-2.39817E-04-3.27796E-14
 -1      1903 1.06673E-02-2.45883E-04-3.15903E-14
 -1      1904 1.10290E-02-2.11432E-04-3.36517E-14
 -1      1905 1.11858E-02-1.85785E-04-3.45318E-14
 -1      1906 1.09823E-02-1.83904E-04-3.33215E-14
 -1      1907 1.13415E-02-1.62399E-04-3.54193E-14
 -1      1908 1.14962E-02-1.40965E-04-3.63148E-14
 -1      1909 1.12929E-02-1.33427E-04-3.50817E-14
 -1      1910 1.16497E-02-1.21066E-04-3.72198E-14
 -1      1911 1.18022E-02-1.02441E-04-3.81338E-14
 -1      1912 1.15993E-02-9.12395E-05-3.68768E-14
 -1      1913 1.19537E-02-8.47647E-05-3.90580E-14
 -1      1914 1.21042E-02-6.78312E-05-3.99897E-14
 -1      1915 1.19016E-02-5.45413E-05-3.87040E-14
 -1      1916 1.22538E-02-5.14046E-05-4.09313E-14
 -1      1917 1.24026E-02-3.53305E-05-4.18824E-14
 -1      1918 1.22006E-02-2.11133E-05-4.05719E-14
 -1      1919 1.25506E-02-1.94500E-05-4.28412E-14
 -1      1920 1.26979E-02-3.65114E-06-4.38097E-14
 -1      1921 1.24965E-02 1.06877E-05-4.24707E-14
 -1      1922 1.28446E-02 1.21656E-05-4.47834E-14
 -1      1923 1.29907E-02 2.80792E-05-4.57639E-14
 -1      1924 1.27900E-02 4.20127E-05-4.44049E-14
 -1      1925 1.31363E-02 4.41466E-05-4.67530E-14
 -1      1926 1.32815E-02 6.04222E-05-4.77465E-14
 -1      1927 1.30814E-02 7.36265E-05-4.63640E-14
 -1      1928 1.34262E-02 7.69341E-05-4.87400E-14
 -1      1929 1.35706E-02 9.37192E-05-4.97397E-14
 -1      1930 1.33712E-02 1.06011E-04-4.83467E-14
 -1      1931 1.37147E-02 1.10787E-04-5.07433E-14
 -1      1932 1.38585E-02 1.28161E-04-5.17448E-14
 -1      1933 1.36597E-02 1.39450E-04-5.03429E-14
 -1      1934 1.40021E-02 1.45836E-04-5.27531E-14
 -1      1935 1.41455E-02 1.63828E-04-5.37616E-14
 -1      1936 1.39471E-02 1.74092E-04-5.23558E-14
 -1      1937 1.42731E-02 1.78522E-04-5.46614E-14
 -1      1938 1.44162E-02 1.97075E-04-5.56761E-14
 -1      1939 1.44731E-02 2.36218E-04-5.60699E-14
 -1      1940 1.42182E-02 2.06421E-04-5.42642E-14
 -1      1941 1.13726E-03 4.77459E-04-4.21172E-16
 -1      1942 9.95613E-04 4.44778E-04-3.16343E-16
 -1      1943 9.63496E-04 4.15410E-04-3.19067E-16
 -1      1944 1.41622E-03 5.27528E-04-6.77545E-16
 -1      1945 1.27712E-03 5.04833E-04-5.41667E-16
 -1      1946 1.24781E-03 4.76796E-04-5.42426E-16
 -1      1947 1.69260E-03 5.61977E-04-9.95243E-16
 -1      1948 1.55454E-03 5.46464E-04-8.28913E-16
 -1      1949 1.52806E-03 5.19406E-04-8.27206E-16
 -1      1950 1.96843E-03 5.84891E-04-1.37286E-15
 -1      1951 1.83049E-03 5.74710E-04-1.17649E-15
 -1      1952 1.80647E-03 5.48305E-04-1.17197E-15
 -1      1953 2.24489E-03 5.99122E-04-1.80886E-15
 -1      1954 2.10653E-03 5.92970E-04-1.58378E-15
 -1      1955 2.08455E-03 5.66984E-04-1.57587E-15
 -1      1956 2.52270E-03 6.06736E-04-2.30126E-15
 -1      1957 2.38360E-03 6.03665E-04-2.04799E-15
 -1      1958 2.36323E-03 5.77933E-04-2.03684E-15
 -1      1959 2.80235E-03 6.09260E-04-2.84875E-15
 -1      1960 2.66228E-03 6.08565E-04-2.56807E-15
 -1      1961 2.64314E-03 5.82972E-04-2.55331E-15
 -1      1962 3.08418E-03 6.07831E-04-3.45041E-15
 -1      1963 2.94297E-03 6.08985E-04-3.14263E-15
 -1      1964 2.92471E-03 5.83445E-04-3.12398E-15
 -1      1965 3.36855E-03 6.03319E-04-4.10499E-15
 -1      1966 3.22603E-03 6.05913E-04-3.77102E-15
 -1      1967 3.20829E-03 5.80356E-04-3.74820E-15
 -1      1968 3.65584E-03 5.96431E-04-4.81407E-15
 -1      1969 3.51180E-03 6.00127E-04-4.45282E-15
 -1      1970 3.49423E-03 5.74487E-04-4.42619E-15
 -1      1971 3.94654E-03 5.87824E-04-5.57747E-15
 -1      1972 3.80073E-03 5.92292E-04-5.18860E-15
 -1      1973 3.78293E-03 5.66500E-04-5.15773E-15
 -1      1974 4.24126E-03 5.78227E-04-6.39621E-15
 -1      1975 4.09335E-03 5.83086E-04-5.97998E-15
 -1      1976 4.07488E-03 5.57054E-04-5.94433E-15
 -1      1977 4.54076E-03 5.68594E-04-7.26974E-15
 -1      1978 4.39034E-03 5.73330E-04-6.82642E-15
 -1      1979 4.37066E-03 5.46942E-04-6.78609E-15
 -1      1980 4.84594E-03 5.60301E-04-8.19737E-15
 -1      1981 4.69255E-03 5.64160E-04-7.72693E-15
 -1      1982 4.67099E-03 5.37259E-04-7.68134E-15
 -1      1983 5.15780E-03 5.55396E-04-9.17160E-15
 -1      1984 5.00094E-03 5.57255E-04-8.67856E-15
 -1      1985 4.97669E-03 5.29620E-04-8.62824E-15
 -1      1986 5.47737E-03 5.56915E-04-1.01946E-14
 -1      1987 5.31653E-03 5.55119E-04-9.67713E-15
 -1      1988 5.28867E-03 5.26441E-04-9.62228E-15
 -1      1989 5.80553E-03 5.69216E-04-1.12651E-14
 -1      1990 5.64031E-03 5.61409E-04-1.07234E-14
 -1      1991 5.60787E-03 5.31270E-04-1.06638E-14
 -1      1992 6.14271E-03 5.98215E-04-1.23832E-14
 -1      1993 5.97298E-03 5.81251E-04-1.18182E-14
 -1      1994 5.93512E-03 5.49108E-04-1.17541E-14
 -1      1995 6.48855E-03 6.51208E-04-1.35493E-14
 -1      1996 6.31467E-03 6.21319E-04-1.29602E-14
 -1      1997 6.27100E-03 5.86550E-04-1.28925E-14
 -1      1998 6.84129E-03 7.35631E-04-1.47611E-14
 -1      1999 6.66439E-03 6.89219E-04-1.41504E-14
 -1      2000 6.61545E-03 6.51303E-04-1.40769E-14
 -1      2001 7.19725E-03 8.56010E-04-1.60169E-14
 -1      2002 7.01946E-03 7.91457E-04-1.53841E-14
 -1      2003 6.96723E-03 7.50382E-04-1.53060E-14
 -1      2004 7.55040E-03 1.00835E-03-1.73156E-14
 -1      2005 7.37498E-03 9.29096E-04-1.66599E-14
 -1      2006 7.32304E-03 8.86058E-04-1.65770E-14
 -1      2007 7.89320E-03 1.17379E-03-1.86568E-14
 -1      2008 7.72376E-03 1.09138E-03-1.79801E-14
 -1      2009 7.67657E-03 1.04926E-03-1.78910E-14
 -1      2010 8.22025E-03 1.31672E-03-2.00512E-14
 -1      2011 8.05867E-03 1.25050E-03-1.93476E-14
 -1      2012 8.01979E-03 1.21318E-03-1.92535E-14
 -1      2013 8.53366E-03 1.39683E-03-2.14947E-14
 -1      2014 8.37770E-03 1.36632E-03-2.07669E-14
 -1      2015 8.34825E-03 1.33605E-03-2.06691E-14
 -1      2016 8.84416E-03 1.39076E-03-2.29901E-14
 -1      2017 8.68778E-03 1.40433E-03-2.22364E-14
 -1      2018 8.66694E-03 1.37992E-03-2.21342E-14
 -1      2019 9.16480E-03 1.30814E-03-2.45244E-14
 -1      2020 9.00223E-03 1.35684E-03-2.37518E-14
 -1      2021 8.98890E-03 1.33431E-03-2.36453E-14
 -1      2022 9.50142E-03 1.18572E-03-2.61018E-14
 -1      2023 9.33105E-03 1.24937E-03-2.53087E-14
 -1      2024 9.32439E-03 1.22521E-03-2.51985E-14
 -1      2025 9.85115E-03 1.06329E-03-2.77056E-14
 -1      2026 9.67521E-03 1.12279E-03-2.68998E-14
 -1      2027 9.67344E-03 1.09593E-03-2.67850E-14
 -1      2028 1.02068E-02 9.66956E-04-2.93489E-14
 -1      2029 1.00289E-02 1.01122E-03-2.85243E-14
 -1      2030 1.00290E-02 9.82191E-04-2.84056E-14
 -1      2031 1.05616E-02 9.06251E-04-3.10284E-14
 -1      2032 1.03849E-02 9.32257E-04-3.01836E-14
 -1      2033 1.03837E-02 9.01939E-04-3.00624E-14
 -1      2034 1.09109E-02 8.79416E-04-3.27532E-14
 -1      2035 1.07373E-02 8.89031E-04-3.18847E-14
 -1      2036 1.07325E-02 8.58098E-04-3.17619E-14
 -1      2037 1.12521E-02 8.79675E-04-3.45205E-14
 -1      2038 1.10827E-02 8.76634E-04-3.36304E-14
 -1      2039 1.10732E-02 8.45494E-04-3.35050E-14
 -1      2040 1.15845E-02 8.99428E-04-3.63315E-14
 -1      2041 1.14194E-02 8.87515E-04-3.54206E-14
 -1      2042 1.14053E-02 8.56413E-04-3.52919E-14
 -1      2043 1.19082E-02 9.32130E-04-3.81791E-14
 -1      2044 1.17474E-02 9.14459E-04-3.72520E-14
 -1      2045 1.17292E-02 8.83548E-04-3.71172E-14
 -1      2046 1.22241E-02 9.72807E-04-4.00572E-14
 -1      2047 1.20671E-02 9.51679E-04-3.91139E-14
 -1      2048 1.20456E-02 9.21050E-04-3.89750E-14
 -1      2049 1.25332E-02 1.01795E-03-4.19666E-14
 -1      2050 1.23794E-02 9.94958E-04-4.10080E-14
 -1      2051 1.23555E-02 9.64656E-04-4.08645E-14
 -1      2052 1.28367E-02 1.06521E-03-4.39026E-14
 -1      2053 1.26856E-02 1.04140E-03-4.29314E-14
 -1      2054 1.26599E-02 1.01144E-03-4.27831E-14
 -1      2055 1.31355E-02 1.11308E-03-4.58665E-14
 -1      2056 1.29866E-02 1.08912E-03-4.48813E-14
 -1      2057 1.29598E-02 1.05948E-03-4.47298E-14
 -1      2058 1.34308E-02 1.16062E-03-4.78540E-14
 -1      2059 1.32835E-02 1.13692E-03-4.68579E-14
 -1      2060 1.32560E-02 1.10757E-03-4.67003E-14
 -1      2061 1.37231E-02 1.20730E-03-4.98502E-14
 -1      2062 1.35772E-02 1.18408E-03-4.88527E-14
 -1      2063 1.35492E-02 1.15500E-03-4.86914E-14
 -1      2064 1.40133E-02 1.25281E-03-5.18507E-14
 -1      2065 1.38684E-02 1.23021E-03-5.08523E-14
 -1      2066 1.38402E-02 1.20135E-03-5.06894E-14
 -1      2067 1.43019E-02 1.29702E-03-5.38455E-14
 -1      2068 1.41577E-02 1.27508E-03-5.28466E-14
 -1      2069 1.41294E-02 1.24642E-03-5.26849E-14
 -1      2070 1.45892E-02 1.33988E-03-5.58398E-14
 -1      2071 1.44457E-02 1.31862E-03-5.48439E-14
 -1      2072 1.44174E-02 1.29013E-03-5.46802E-14
 -1      2073 1.48758E-02 1.38143E-03-5.78307E-14
 -1      2074 1.47326E-02 1.36081E-03-5.68365E-14
 -1      2075 1.47044E-02 1.33246E-03-5.66780E-14
 -1      2076 1.51096E-02 1.41174E-03-5.94612E-14
 -1      2077 1.49666E-02 1.39157E-03-5.84664E-14
 -1      2078 1.49384E-02 1.36333E-03-5.83117E-14
 -1      2079 1.51200E-02 1.38336E-03-5.95842E-14
 -1      2080 1.49842E-02 1.14677E-03-5.89784E-14
 -1      2081 1.50024E-02 1.18808E-03-5.90523E-14
 -1      2082 1.50208E-02 1.22957E-03-5.91240E-14
 -1      2083 1.50394E-02 1.27121E-03-5.91932E-14
 -1      2084 1.48880E-02 1.19140E-03-5.82093E-14
 -1      2085 1.50700E-02 1.30625E-03-5.93552E-14
 -1      2086 1.50890E-02 1.34814E-03-5.94218E-14
 -1      2087 1.49983E-02 1.33816E-03-5.87838E-14
 -1      2088 1.49368E-02 1.26792E-03-5.84524E-14
 -1      2089 1.49487E-02 1.06605E-03-5.88224E-14
 -1      2090 1.49664E-02 1.10633E-03-5.89018E-14
 -1      2091 1.48520E-02 1.10957E-03-5.80548E-14
 -1      2092 1.49125E-02 9.84579E-04-5.86490E-14
 -1      2093 1.49306E-02 1.02524E-03-5.87373E-14
 -1      2094 1.48164E-02 1.02844E-03-5.78880E-14
 -1      2095 1.48758E-02 9.03614E-04-5.84624E-14
 -1      2096 1.48942E-02 9.44050E-04-5.85576E-14
 -1      2097 1.47802E-02 9.47241E-04-5.77084E-14
 -1      2098 1.48383E-02 8.22947E-04-5.82640E-14
 -1      2099 1.48571E-02 8.63264E-04-5.83637E-14
 -1      2100 1.47434E-02 8.66493E-04-5.75169E-14
 -1      2101 1.47998E-02 7.42328E-04-5.80596E-14
 -1      2102 1.48191E-02 7.82654E-04-5.81620E-14
 -1      2103 1.47056E-02 7.85976E-04-5.73184E-14
 -1      2104 1.47603E-02 6.61506E-04-5.78455E-14
 -1      2105 1.47801E-02 7.01963E-04-5.79527E-14
 -1      2106 1.46669E-02 7.05438E-04-5.71130E-14
 -1      2107 1.47209E-02 5.81637E-04-5.76353E-14
 -1      2108 1.47407E-02 6.21637E-04-5.77415E-14
 -1      2109 1.46275E-02 6.25320E-04-5.69047E-14
 -1      2110 1.46806E-02 4.99808E-04-5.74143E-14
 -1      2111 1.47008E-02 5.40803E-04-5.75254E-14
 -1      2112 1.45875E-02 5.44734E-04-5.66912E-14
 -1      2113 1.46403E-02 4.17308E-04-5.71848E-14
 -1      2114 1.46604E-02 4.58640E-04-5.73006E-14
 -1      2115 1.45470E-02 4.62839E-04-5.64681E-14
 -1      2116 1.46008E-02 3.34143E-04-5.69498E-14
 -1      2117 1.46205E-02 3.75800E-04-5.70678E-14
 -1      2118 1.45068E-02 3.80250E-04-5.62396E-14
 -1      2119 1.03778E-02 4.33933E-04-2.53755E-14
 -1      2120 1.05092E-02 3.85780E-04-2.55102E-14
 -1      2121 1.07430E-02 2.85414E-04-2.58075E-14
 -1      2122 1.07284E-02 2.68355E-04-2.56691E-14
 -1      2123 1.06181E-02 3.42059E-04-2.56575E-14
 -1      2124 1.06966E-02 3.13892E-04-2.58047E-14
 -1      2125 1.05672E-02 3.49834E-04-2.59803E-14
 -1      2126 1.00226E-02 5.97311E-04-2.48468E-14
 -1      2127 1.01915E-02 5.16190E-04-2.51071E-14
 -1      2128 9.65303E-03 7.93424E-04-2.42094E-14
 -1      2129 9.82984E-03 6.97825E-04-2.45112E-14
 -1      2130 3.27283E-04-8.86458E-05-6.79795E-17
 -1      2131 3.29337E-04-1.01782E-04-6.33445E-17
 -1      2132 4.46398E-04-1.44541E-04-9.20488E-17
 -1      2133 4.40227E-04-1.09421E-04-1.04232E-16
 -1      2134 8.88567E-03 1.17546E-03-2.25457E-14
 -1      2135 9.04454E-03 1.10666E-03-2.29948E-14
 -1      2136 8.57681E-03 1.23349E-03-2.16721E-14
 -1      2137 8.72680E-03 1.21682E-03-2.21071E-14
 -1      2138 8.79936E-03 1.20847E-03-2.24179E-14
 -1      2139 8.23715E-03 1.16844E-03-2.06824E-14
 -1      2140 8.39183E-03 1.21638E-03-2.11364E-14
 -1      2141 7.84187E-03 9.73383E-04-1.96992E-14
 -1      2142 8.01452E-03 1.06891E-03-2.00865E-14
 -1      2143 7.48648E-03 7.71968E-04-1.90319E-14
 -1      2144 7.66801E-03 8.78343E-04-1.93653E-14
 -1      2145 7.78084E-03 9.21228E-04-1.93886E-14
 -1      2146 7.06770E-03 5.42160E-04-1.83469E-14
 -1      2147 7.24974E-03 6.40702E-04-1.86322E-14
 -1      2148 6.69204E-03 3.68963E-04-1.78415E-14
 -1      2149 6.85971E-03 4.44370E-04-1.80709E-14
 -1      2150 6.39265E-03 2.46780E-04-1.74109E-14
 -1      2151 6.52069E-03 2.92851E-04-1.75776E-14
 -1      2152 6.22673E-03 1.81708E-04-1.71614E-14
 -1      2153 6.28675E-03 2.07221E-04-1.72844E-14
 -1      2154 6.24101E-03 1.36045E-04-1.71031E-14
 -1      2155 6.20944E-03 1.53687E-04-1.70695E-14
 -1      2156 6.40503E-03 7.90153E-05-1.71961E-14
 -1      2157 6.30542E-03 1.09441E-04-1.71502E-14
 -1      2158 6.26330E-03 1.30542E-04-1.68109E-14
 -1      2159 6.72638E-03-4.52687E-05-1.75242E-14
 -1      2160 6.57238E-03 1.71232E-05-1.73497E-14
 -1      2161 7.08992E-03-2.12415E-04-1.79623E-14
 -1      2162 6.91429E-03-1.27640E-04-1.77370E-14
 -1      2163 7.46881E-03-4.16988E-04-1.86128E-14
 -1      2164 7.29458E-03-3.22526E-04-1.83162E-14
 -1      2165 7.84495E-03-6.01266E-04-1.92847E-14
 -1      2166 7.66188E-03-5.12781E-04-1.89470E-14
 -1      2167 7.58665E-03-4.61898E-04-1.86156E-14
 -1      2168 8.22285E-03-7.29334E-04-2.02347E-14
 -1      2169 8.06438E-03-6.87719E-04-1.97896E-14
 -1      2170 8.54040E-03-7.25717E-04-2.11299E-14
 -1      2171 8.39148E-03-7.40226E-04-2.07056E-14
 -1      2172 8.88402E-03-6.11289E-04-2.20896E-14
 -1      2173 8.72477E-03-6.79094E-04-2.16583E-14
 -1      2174 9.26025E-03-4.18312E-04-2.29666E-14
 -1      2175 9.08393E-03-5.17006E-04-2.25573E-14
 -1      2176 9.66396E-03-1.98319E-04-2.37835E-14
 -1      2177 9.47613E-03-3.02050E-04-2.34156E-14
 -1      2178 1.00554E-02 8.78521E-06-2.45686E-14
 -1      2179 9.86701E-03-8.61012E-05-2.42113E-14
 -1      2180 1.04429E-02 1.64648E-04-2.51873E-14
 -1      2181 1.02841E-02 1.09481E-04-2.49751E-14
 -1      2182 1.06773E-02 2.42178E-04-2.55176E-14
 -1      2183 1.05881E-02 2.12786E-04-2.53685E-14
 -1      2184 1.07100E-02 2.67770E-04-2.59869E-14
 -1      2185 9.28137E-03 9.91348E-04-2.35272E-14
 -1      2186 9.46177E-03 8.94285E-04-2.38679E-14
 -1      2187 9.54470E-03 8.31812E-04-2.42703E-14
 -1      2188 6.07262E-04-2.97221E-04-7.73307E-17
 -1      2189 9.14738E-03 1.05514E-03-2.33920E-14
 -1      2190 6.63141E-04-2.91350E-04-1.15562E-16
 -1      2191 1.07365E-02 2.96876E-04-2.61350E-14
 -1      2192 1.07570E-02 2.92674E-04-2.64672E-14
 -1      2193 1.07159E-02 3.05318E-04-2.64615E-14
 -1      2194 1.02813E-02 4.57271E-04-2.55594E-14
 -1      2195 1.45434E-02 2.95150E-04-5.65529E-14
 -1      2196 9.91106E-03 6.31410E-04-2.49507E-14
 -1      2197 1.05240E-02 2.13241E-04-2.56531E-14
 -1      2198 1.01639E-02 8.33017E-05-2.50619E-14
 -1      2199 9.74131E-03-1.21694E-04-2.42217E-14
 -1      2200 9.34086E-03-3.49815E-04-2.33412E-14
 -1      2201 8.95998E-03-5.64406E-04-2.24210E-14
 -1      2202 8.62738E-03-7.11061E-04-2.14229E-14
 -1      2203 7.96952E-03-6.54287E-04-1.94503E-14
 -1      2204 7.87921E-03-6.12657E-04-1.91130E-14
 -1      2205 8.06580E-03-6.96149E-04-1.96144E-14
 -1      2206 7.20723E-03-2.55541E-04-1.79314E-14
 -1      2207 6.48049E-03 6.35816E-05-1.70091E-14
 -1      2208 6.20668E-03 1.61528E-04-1.68563E-14
 -1      2209 6.33694E-03 2.08409E-04-1.70722E-14
 -1      2210 6.60975E-03 3.03486E-04-1.74567E-14
 -1      2211 7.40189E-03 6.94920E-04-1.86587E-14
 -1      2212 8.49880E-03 1.23899E-03-2.14419E-14
 -1      2213 8.13635E-03 1.12485E-03-2.03108E-14
 -1      2214 6.98086E-03 4.68236E-04-1.79906E-14
 -1      2215 6.83013E-03-7.04971E-05-1.73709E-14
 -1      2216 8.30810E-03-7.46264E-04-2.04234E-14
 -1      2217 1.01590E-03 3.97610E-04-3.86572E-16
 -1      2218 8.71499E-04 3.61750E-04-2.88913E-16
 -1      2219 5.48212E-04-5.48990E-05-1.72984E-16
 -1      2220 5.49233E-04-7.15150E-05-1.68946E-16
 -1      2221 5.50628E-04-8.87481E-05-1.64419E-16
 -1      2222 5.52468E-04-1.06647E-04-1.59256E-16
 -1      2223 6.65733E-04-9.47590E-05-2.26978E-16
 -1      2224 5.46852E-04 8.78388E-06-1.84274E-16
 -1      2225 5.46830E-04-6.93007E-06-1.82051E-16
 -1      2226 5.47603E-04 4.05575E-05-1.86971E-16
 -1      2227 5.47106E-04 2.45991E-05-1.85873E-16
 -1      2228 6.61827E-04 1.97539E-05-2.50735E-16
 -1      2229 5.49408E-04 7.29772E-05-1.88028E-16
 -1      2230 5.48358E-04 5.65808E-05-1.87716E-16
 -1      2231 6.63151E-04 5.73023E-05-2.53852E-16
 -1      2232 5.52743E-04 1.08294E-04-1.86984E-16
 -1      2233 5.50854E-04 9.02902E-05-1.87946E-16
 -1      2234 6.65990E-04 9.65087E-05-2.54788E-16
 -1      2235 5.58504E-04 1.47528E-04-1.82525E-16
 -1      2236 5.55255E-04 1.27347E-04-1.85087E-16
 -1      2237 6.71012E-04 1.39080E-04-2.52443E-16
 -1      2238 5.68623E-04 1.93069E-04-1.73513E-16
 -1      2239 5.62902E-04 1.69375E-04-1.78880E-16
 -1      2240 6.79509E-04 1.86493E-04-2.45762E-16
 -1      2241 1.30131E-03 4.53239E-04-6.27590E-16
 -1      2242 1.15900E-03 4.27999E-04-4.99289E-16
 -1      2243 1.07137E-03 3.78871E-04-4.56246E-16
 -1      2244 9.14775E-04-3.44528E-04-2.42550E-16
 -1      2245 1.05884E-03-3.77294E-04-3.25681E-16
 -1      2246 9.06169E-03 1.10656E-03-2.33433E-14
 -1      2247 9.25858E-03 9.93313E-04-2.38798E-14
 -1      2248 1.20210E-03-4.05022E-04-4.22283E-16
 -1      2249 1.34494E-03-4.28159E-04-5.32628E-16
 -1      2250 1.11679E-03-3.57831E-04-3.93972E-16
 -1      2251 1.48716E-03-4.47537E-04-6.56417E-16
 -1      2252 1.62903E-03-4.63419E-04-7.94029E-16
 -1      2253 1.40320E-03-4.03133E-04-6.19459E-16
 -1      2254 1.77059E-03-4.76461E-04-9.45031E-16
 -1      2255 1.91195E-03-4.86872E-04-1.10950E-15
 -1      2256 1.68850E-03-4.34468E-04-8.98790E-16
 -1      2257 2.05322E-03-4.95128E-04-1.28757E-15
 -1      2258 2.19446E-03-5.01400E-04-1.47962E-15
 -1      2259 1.97301E-03-4.55067E-04-1.23192E-15
 -1      2260 2.33577E-03-5.06028E-04-1.68490E-15
 -1      2261 2.47716E-03-5.09152E-04-1.90420E-15
 -1      2262 2.25717E-03-4.67478E-04-1.61916E-15
 -1      2263 2.61872E-03-5.11018E-04-2.13658E-15
 -1      2264 2.76048E-03-5.11738E-04-2.38268E-15
 -1      2265 2.54138E-03-4.73640E-04-2.06065E-15
 -1      2266 2.90248E-03-5.11492E-04-2.64257E-15
 -1      2267 3.04474E-03-5.10374E-04-2.91549E-15
 -1      2268 2.82598E-03-4.75018E-04-2.55612E-15
 -1      2269 3.18733E-03-5.08518E-04-3.20165E-15
 -1      2270 3.33025E-03-5.06006E-04-3.50173E-15
 -1      2271 3.11121E-03-4.72730E-04-3.10551E-15
 -1      2272 3.47354E-03-5.02947E-04-3.81448E-15
 -1      2273 3.61725E-03-4.99420E-04-4.14061E-15
 -1      2274 3.39732E-03-4.67653E-04-3.70796E-15
 -1      2275 3.76138E-03-4.95528E-04-4.47963E-15
 -1      2276 3.90601E-03-4.91354E-04-4.83248E-15
 -1      2277 3.68452E-03-4.60531E-04-4.36329E-15
 -1      2278 4.05114E-03-4.87014E-04-5.19765E-15
 -1      2279 4.19684E-03-4.82609E-04-5.57579E-15
 -1      2280 3.97306E-03-4.52077E-04-5.07054E-15
 -1      2281 4.34313E-03-4.78284E-04-5.96784E-15
 -1      2282 4.49010E-03-4.74172E-04-6.37104E-15
 -1      2283 4.26322E-03-4.43091E-04-5.82931E-15
 -1      2284 4.63776E-03-4.70468E-04-6.78739E-15
 -1      2285 4.78621E-03-4.67348E-04-7.21635E-15
 -1      2286 4.55536E-03-4.34575E-04-6.63980E-15
 -1      2287 4.93547E-03-4.65074E-04-7.65723E-15
 -1      2288 5.08564E-03-4.63883E-04-8.10949E-15
 -1      2289 4.84993E-03-4.27863E-04-7.49798E-15
 -1      2290 5.23679E-03-4.64109E-04-8.57411E-15
 -1      2291 5.38896E-03-4.66066E-04-9.05162E-15
 -1      2292 5.14754E-03-4.24743E-04-8.40530E-15
 -1      2293 5.54230E-03-4.70152E-04-9.54126E-15
 -1      2294 5.69677E-03-4.76757E-04-1.00429E-14
 -1      2295 5.44898E-03-4.27560E-04-9.36107E-15
 -1      2296 5.85260E-03-4.86305E-04-1.05577E-14
 -1      2297 6.00960E-03-4.99245E-04-1.10845E-14
 -1      2298 5.75521E-03-4.39246E-04-1.03671E-14
 -1      2299 6.16812E-03-5.15935E-04-1.16246E-14
 -1      2300 6.32775E-03-5.36799E-04-1.21772E-14
 -1      2301 6.06730E-03-4.63205E-04-1.14238E-14
 -1      2302 6.48888E-03-5.61988E-04-1.27428E-14
 -1      2303 6.65079E-03-5.91703E-04-1.33192E-14
 -1      2304 6.38612E-03-5.02886E-04-1.25303E-14
 -1      2305 6.81387E-03-6.25677E-04-1.39071E-14
 -1      2306 6.97705E-03-6.63572E-04-1.45066E-14
 -1      2307 6.71172E-03-5.60784E-04-1.36853E-14
 -1      2308 7.14055E-03-7.04484E-04-1.51162E-14
 -1      2309 7.30315E-03-7.47065E-04-1.57363E-14
 -1      2310 7.04237E-03-6.36578E-04-1.48854E-14
 -1      2311 7.46473E-03-7.89647E-04-1.63669E-14
 -1      2312 7.62446E-03-8.29739E-04-1.70061E-14
 -1      2313 7.37387E-03-7.24240E-04-1.61266E-14
 -1      2314 7.78192E-03-8.65068E-04-1.76554E-14
 -1      2315 7.93740E-03-8.92534E-04-1.83156E-14
 -1      2316 7.70025E-03-8.09276E-04-1.74083E-14
 -1      2317 8.09028E-03-9.10050E-04-1.89858E-14
 -1      2318 8.24237E-03-9.15206E-04-1.96661E-14
 -1      2319 8.01714E-03-8.69461E-04-1.87303E-14
 -1      2320 8.39307E-03-9.07062E-04-2.03575E-14
 -1      2321 8.54494E-03-8.85486E-04-2.10614E-14
 -1      2322 8.32593E-03-8.82275E-04-2.00939E-14
 -1      2323 8.69740E-03-8.51276E-04-2.17788E-14
 -1      2324 8.85234E-03-8.06514E-04-2.25062E-14
 -1      2325 8.63418E-03-8.37140E-04-2.15055E-14
 -1      2326 9.00917E-03-7.53245E-04-2.32453E-14
 -1      2327 9.16841E-03-6.94524E-04-2.39971E-14
 -1      2328 8.94979E-03-7.42644E-04-2.29648E-14
 -1      2329 9.32961E-03-6.32571E-04-2.47597E-14
 -1      2330 9.49201E-03-5.70180E-04-2.55355E-14
 -1      2331 9.27514E-03-6.20087E-04-2.44708E-14
 -1      2332 9.65545E-03-5.09063E-04-2.63231E-14
 -1      2333 9.81872E-03-4.50669E-04-2.71206E-14
 -1      2334 9.60641E-03-4.92406E-04-2.60239E-14
 -1      2335 9.98199E-03-3.96013E-04-2.79283E-14
 -1      2336 1.01442E-02-3.45508E-04-2.87466E-14
 -1      2337 9.93751E-03-3.75373E-04-2.76207E-14
 -1      2338 1.03057E-02-2.99493E-04-2.95771E-14
 -1      2339 1.04657E-02-2.57815E-04-3.04172E-14
 -1      2340 1.02640E-02-2.75780E-04-2.92597E-14
 -1      2341 1.06246E-02-2.20357E-04-3.12652E-14
 -1      2342 1.07821E-02-1.86709E-04-3.21226E-14
 -1      2343 1.05838E-02-1.94455E-04-3.09411E-14
 -1      2344 1.09384E-02-1.56525E-04-3.29897E-14
 -1      2345 1.10933E-02-1.29357E-04-3.38625E-14
 -1      2346 1.08968E-02-1.29117E-04-3.26556E-14
 -1      2347 1.12471E-02-1.04781E-04-3.47432E-14
 -1      2348 1.13998E-02-8.23999E-05-3.56330E-14
 -1      2349 1.12040E-02-7.63591E-05-3.44039E-14
 -1      2350 1.15515E-02-6.18100E-05-3.65307E-14
 -1      2351 1.17022E-02-4.26926E-05-3.74369E-14
 -1      2352 1.15063E-02-3.27440E-05-3.61845E-14
 -1      2353 1.18520E-02-2.47091E-05-3.83544E-14
 -1      2354 1.20011E-02-7.61966E-06-3.92796E-14
 -1      2355 1.18048E-02 4.71403E-06-3.79999E-14
 -1      2356 1.21494E-02 8.83597E-06-4.02116E-14
 -1      2357 1.22971E-02 2.48312E-05-4.11517E-14
 -1      2358 1.21003E-02 3.83940E-05-3.98515E-14
 -1      2359 1.24441E-02 4.05520E-05-4.21013E-14
 -1      2360 1.25907E-02 5.61195E-05-4.30600E-14
 -1      2361 1.23934E-02 7.00775E-05-4.17332E-14
 -1      2362 1.27367E-02 7.16576E-05-4.40260E-14
 -1      2363 1.28823E-02 8.72488E-05-4.49988E-14
 -1      2364 1.26848E-02 1.01031E-04-4.36483E-14
 -1      2365 1.30275E-02 1.02969E-04-4.59759E-14
 -1      2366 1.31724E-02 1.18874E-04-4.69623E-14
 -1      2367 1.29747E-02 1.32109E-04-4.55905E-14
 -1      2368 1.33169E-02 1.35005E-04-4.79533E-14
 -1      2369 1.34612E-02 1.51398E-04-4.89451E-14
 -1      2370 1.32634E-02 1.63857E-04-4.75558E-14
 -1      2371 1.36052E-02 1.68071E-04-4.99439E-14
 -1      2372 1.37490E-02 1.85049E-04-5.09468E-14
 -1      2373 1.35513E-02 1.96604E-04-4.95441E-14
 -1      2374 1.38926E-02 2.02333E-04-5.19519E-14
 -1      2375 1.40360E-02 2.19939E-04-5.29614E-14
 -1      2376 1.38385E-02 2.30526E-04-5.15481E-14
 -1      2377 1.05212E-02 3.62886E-04-2.64193E-14
 -1      2378 1.06231E-02 3.35105E-04-2.65706E-14
 -1      2379 1.86482E-03 5.17764E-04-1.28897E-15
 -1      2380 1.72443E-03 5.06209E-04-1.10175E-15
 -1      2381 2.14545E-03 5.34163E-04-1.70694E-15
 -1      2382 2.00514E-03 5.27023E-04-1.49074E-15
 -1      2383 1.92466E-03 4.86530E-04-1.40652E-15
 -1      2384 2.42645E-03 5.43325E-04-2.18110E-15
 -1      2385 2.28588E-03 5.39548E-04-1.93714E-15
 -1      2386 2.20734E-03 5.00732E-04-1.83847E-15
 -1      2387 2.70834E-03 5.46936E-04-2.71042E-15
 -1      2388 2.56726E-03 5.45746E-04-2.43898E-15
 -1      2389 2.49021E-03 5.08202E-04-2.32572E-15
 -1      2390 2.99154E-03 5.46245E-04-3.29377E-15
 -1      2391 2.84976E-03 5.47067E-04-2.99516E-15
 -1      2392 2.77371E-03 5.10490E-04-2.86724E-15
 -1      2393 3.27637E-03 5.42188E-04-3.93052E-15
 -1      2394 3.13373E-03 5.44588E-04-3.60600E-15
 -1      2395 3.05816E-03 5.08747E-04-3.46342E-15
 -1      2396 3.56315E-03 5.35499E-04-4.62022E-15
 -1      2397 3.41949E-03 5.39129E-04-4.26833E-15
 -1      2398 3.34385E-03 5.03840E-04-4.11200E-15
 -1      2399 3.85223E-03 5.26816E-04-5.36351E-15
 -1      2400 3.70737E-03 5.31363E-04-4.98486E-15
 -1      2401 3.63104E-03 4.96461E-04-4.81314E-15
 -1      2402 4.14404E-03 5.16801E-04-6.16111E-15
 -1      2403 3.99775E-03 5.21925E-04-5.75526E-15
 -1      2404 3.92003E-03 4.87229E-04-5.56806E-15
 -1      2405 4.43906E-03 5.06280E-04-7.01341E-15
 -1      2406 4.29109E-03 5.11539E-04-6.58075E-15
 -1      2407 4.21113E-03 4.76812E-04-6.37710E-15
 -1      2408 4.73787E-03 4.96418E-04-7.91964E-15
 -1      2409 4.58791E-03 5.01175E-04-7.45977E-15
 -1      2410 4.50472E-03 4.66074E-04-7.24056E-15
 -1      2411 5.04117E-03 4.88946E-04-8.87480E-15
 -1      2412 4.88887E-03 4.92252E-04-8.39168E-15
 -1      2413 4.80127E-03 4.56244E-04-8.15615E-15
 -1      2414 5.34977E-03 4.86446E-04-9.87886E-15
 -1      2415 5.19472E-03 4.86884E-04-9.37110E-15
 -1      2416 5.10136E-03 4.49151E-04-9.12214E-15
 -1      2417 5.66461E-03 4.92678E-04-1.09308E-14
 -1      2418 5.50633E-03 4.88198E-04-1.03979E-14
 -1      2419 5.40579E-03 4.47494E-04-1.01354E-14
 -1      2420 5.98682E-03 5.12891E-04-1.20308E-14
 -1      2421 5.82474E-03 5.00660E-04-1.14749E-14
 -1      2422 5.71566E-03 4.55166E-04-1.11967E-14
 -1      2423 6.31766E-03 5.53933E-04-1.31781E-14
 -1      2424 6.15118E-03 5.30318E-04-1.25988E-14
 -1      2425 6.03263E-03 4.77550E-04-1.23068E-14
 -1      2426 6.65834E-03 6.23759E-04-1.43695E-14
 -1      2427 6.48694E-03 5.84714E-04-1.37683E-14
 -1      2428 6.35900E-03 5.21684E-04-1.34623E-14
 -1      2429 7.00918E-03 7.29441E-04-1.56059E-14
 -1      2430 6.83289E-03 6.71717E-04-1.49826E-14
 -1      2431 6.69748E-03 5.95842E-04-1.46620E-14
 -1      2432 7.36824E-03 8.72886E-04-1.68833E-14
 -1      2433 7.18852E-03 7.96590E-04-1.62385E-14
 -1      2434 7.05018E-03 7.07515E-04-1.59034E-14
 -1      2435 7.72854E-03 1.04339E-03-1.82042E-14
 -1      2436 7.54925E-03 9.56254E-04-1.75378E-14
 -1      2437 7.41555E-03 8.59414E-04-1.71868E-14
 -1      2438 8.07987E-03 1.20946E-03-1.95803E-14
 -1      2439 7.90602E-03 1.13007E-03-1.88863E-14
 -1      2440 7.78480E-03 1.03877E-03-1.85197E-14
 -1      2441 8.41565E-03 1.32286E-03-2.10038E-14
 -1      2442 8.24865E-03 1.27597E-03-2.02848E-14
 -1      2443 8.14384E-03 1.20747E-03-1.99042E-14
 -1      2444 8.74278E-03 1.34440E-03-2.24790E-14
 -1      2445 8.57790E-03 1.34653E-03-2.17352E-14
 -1      2446 8.48566E-03 1.30874E-03-2.13391E-14
 -1      2447 9.07807E-03 1.27190E-03-2.39987E-14
 -1      2448 8.90804E-03 1.31773E-03-2.32340E-14
 -1      2449 8.82337E-03 1.30183E-03-2.28230E-14
 -1      2450 9.42838E-03 1.14521E-03-2.55596E-14
 -1      2451 9.25140E-03 1.21184E-03-2.47737E-14
 -1      2452 9.17400E-03 1.20038E-03-2.43529E-14
 -1      2453 9.78835E-03 1.01285E-03-2.71502E-14
 -1      2454 9.60819E-03 1.07717E-03-2.63511E-14
 -1      2455 9.53948E-03 1.05895E-03-2.59176E-14
 -1      2456 1.01476E-02 9.06870E-04-2.87775E-14
 -1      2457 9.96907E-03 9.55580E-04-2.79583E-14
 -1      2458 9.90840E-03 9.28243E-04-2.75157E-14
 -1      2459 1.04991E-02 8.38530E-04-3.04434E-14
 -1      2460 1.03249E-02 8.67972E-04-2.96065E-14
 -1      2461 1.02685E-02 8.33362E-04-2.91496E-14
 -1      2462 1.08404E-02 8.06223E-04-3.21530E-14
 -1      2463 1.06712E-02 8.18301E-04-3.12921E-14
 -1      2464 1.06146E-02 7.78538E-04-3.08240E-14
 -1      2465 1.11718E-02 8.02791E-04-3.39069E-14
 -1      2466 1.10073E-02 8.01401E-04-3.30246E-14
 -1      2467 1.09472E-02 7.57989E-04-3.25439E-14
 -1      2468 1.14947E-02 8.20284E-04-3.57008E-14
 -1      2469 1.13343E-02 8.09366E-04-3.47977E-14
 -1      2470 1.12690E-02 7.63344E-04-3.43064E-14
 -1      2471 1.18102E-02 8.51818E-04-3.75330E-14
 -1      2472 1.16533E-02 8.34642E-04-3.66123E-14
 -1      2473 1.15828E-02 7.86830E-04-3.61092E-14
 -1      2474 1.21197E-02 8.92111E-04-3.93940E-14
 -1      2475 1.19656E-02 8.71123E-04-3.84598E-14
 -1      2476 1.18903E-02 8.22186E-04-3.79454E-14
 -1      2477 1.24241E-02 9.37395E-04-4.12890E-14
 -1      2478 1.22724E-02 9.14306E-04-4.03372E-14
 -1      2479 1.21932E-02 8.64770E-04-3.98121E-14
 -1      2480 1.27242E-02 9.85112E-04-4.32105E-14
 -1      2481 1.25746E-02 9.61069E-04-4.22452E-14
 -1      2482 1.24923E-02 9.11323E-04-4.17104E-14
 -1      2483 1.30209E-02 1.03361E-03-4.51595E-14
 -1      2484 1.28729E-02 1.00934E-03-4.41831E-14
 -1      2485 1.27884E-02 9.59654E-04-4.36373E-14
 -1      2486 1.33147E-02 1.08185E-03-4.71334E-14
 -1      2487 1.31681E-02 1.05781E-03-4.61435E-14
 -1      2488 1.30821E-02 1.00835E-03-4.55884E-14
 -1      2489 1.36064E-02 1.12923E-03-4.91201E-14
 -1      2490 1.34608E-02 1.10568E-03-4.81262E-14
 -1      2491 1.33737E-02 1.05655E-03-4.75616E-14
 -1      2492 1.38963E-02 1.17543E-03-5.11170E-14
 -1      2493 1.37515E-02 1.15250E-03-5.01178E-14
 -1      2494 1.36638E-02 1.10376E-03-4.95501E-14
 -1      2495 1.41848E-02 1.22028E-03-5.31121E-14
 -1      2496 1.40407E-02 1.19803E-03-5.21148E-14
 -1      2497 1.39526E-02 1.14970E-03-5.15429E-14
 -1      2498 1.44723E-02 1.26373E-03-5.51104E-14
 -1      2499 1.43287E-02 1.24219E-03-5.41101E-14
 -1      2500 1.42404E-02 1.19426E-03-5.35392E-14
 -1      2501 1.47590E-02 1.30580E-03-5.71095E-14
 -1      2502 1.46157E-02 1.28494E-03-5.61092E-14
 -1      2503 1.45275E-02 1.23741E-03-5.55388E-14
 -1      2504 1.49074E-02 1.32807E-03-5.81447E-14
 -1      2505 1.46842E-02 9.90728E-04-5.69545E-14
 -1      2506 1.47021E-02 1.03139E-03-5.70441E-14
 -1      2507 1.46480E-02 9.09845E-04-5.67704E-14
 -1      2508 1.46662E-02 9.50224E-04-5.68632E-14
 -1      2509 1.45521E-02 9.52965E-04-5.60237E-14
 -1      2510 1.47553E-02 1.15307E-03-5.72915E-14
 -1      2511 1.47735E-02 1.19447E-03-5.73710E-14
 -1      2512 1.47198E-02 1.07188E-03-5.71284E-14
 -1      2513 1.47374E-02 1.11220E-03-5.72098E-14
 -1      2514 1.46228E-02 1.11493E-03-5.63712E-14
 -1      2515 1.45876E-02 1.03373E-03-5.62018E-14
 -1      2516 1.46111E-02 8.29379E-04-5.65762E-14
 -1      2517 1.46297E-02 8.69579E-04-5.66755E-14
 -1      2518 1.45160E-02 8.72467E-04-5.58363E-14
 -1      2519 1.45731E-02 7.49083E-04-5.63807E-14
 -1      2520 1.45922E-02 7.89232E-04-5.64797E-14
 -1      2521 1.44789E-02 7.92351E-04-5.56432E-14
 -1      2522 1.45340E-02 6.68695E-04-5.61725E-14
 -1      2523 1.45537E-02 7.08922E-04-5.62760E-14
 -1      2524 1.44406E-02 7.12340E-04-5.54426E-14
 -1      2525 1.44947E-02 5.89339E-04-5.59648E-14
 -1      2526 1.45144E-02 6.29075E-04-5.60689E-14
 -1      2527 1.44015E-02 6.32835E-04-5.52363E-14
 -1      2528 1.44541E-02 5.08074E-04-5.57483E-14
 -1      2529 1.44744E-02 5.48787E-04-5.58580E-14
 -1      2530 1.43615E-02 5.52907E-04-5.50252E-14
 -1      2531 1.44134E-02 4.26125E-04-5.55254E-14
 -1      2532 1.44337E-02 4.67190E-04-5.56363E-14
 -1      2533 1.43206E-02 4.71662E-04-5.48070E-14
 -1      2534 1.43731E-02 3.43429E-04-5.52959E-14
 -1      2535 1.43932E-02 3.84867E-04-5.54092E-14
 -1      2536 1.42797E-02 3.89646E-04-5.45838E-14
 -1      2537 1.44161E-02 2.80047E-04-5.56456E-14
 -1      2538 9.81153E-03 6.73928E-04-2.50925E-14
 -1      2539 9.98671E-03 5.82578E-04-2.54320E-14
 -1      2540 1.58380E-03 4.91834E-04-9.28687E-16
 -1      2541 1.44281E-03 4.74432E-04-7.70583E-16
 -1      2542 1.64159E-03 4.63509E-04-1.03155E-15
 -1      2543 1.01928E-02 4.86218E-04-2.58162E-14
 -1      2544 1.03643E-02 4.17620E-04-2.60900E-14
 -1      2545 1.05996E-02 2.46660E-04-2.61597E-14
 -1      2546 1.04703E-02 2.12683E-04-2.59766E-14
 -1      2547 1.07338E-02 2.78894E-04-2.64624E-14
 -1      2548 1.06796E-02 2.67903E-04-2.63106E-14
 -1      2549 1.06465E-02 2.63071E-04-2.66371E-14
 -1      2550 7.32645E-03-3.11208E-04-1.78702E-14
 -1      2551 7.13947E-03-2.10689E-04-1.75214E-14
 -1      2552 6.19098E-03 1.51873E-04-1.64590E-14
 -1      2553 6.21088E-03 1.61212E-04-1.65499E-14
 -1      2554 8.43720E-03 1.23894E-03-2.12066E-14
 -1      2555 8.58295E-03 1.25409E-03-2.17423E-14
 -1      2556 5.47040E-04-2.27279E-05-1.79341E-16
 -1      2557 5.47492E-04-3.86510E-05-1.76318E-16
 -1      2558 6.62991E-04-5.53519E-05-2.37251E-16
 -1      2559 6.61771E-04-1.75544E-05-2.45247E-16
 -1      2560 8.05708E-03 1.08172E-03-1.99552E-14
 -1      2561 8.24235E-03 1.17754E-03-2.05478E-14
 -1      2562 8.73672E-03 1.23422E-03-2.22748E-14
 -1      2563 8.86374E-03 1.19423E-03-2.27150E-14
 -1      2564 6.88205E-03 3.97807E-04-1.75343E-14
 -1      2565 7.06533E-03 4.87431E-04-1.78037E-14
 -1      2566 7.69190E-03 8.57152E-04-1.89940E-14
 -1      2567 7.83310E-03 9.49387E-04-1.93228E-14
 -1      2568 6.91023E-03-9.96059E-05-1.71727E-14
 -1      2569 6.74069E-03-2.63080E-05-1.69645E-14
 -1      2570 7.29390E-03 6.12713E-04-1.82043E-14
 -1      2571 7.49835E-03 7.37094E-04-1.85962E-14
 -1      2572 7.56057E-03 7.78445E-04-1.85319E-14
 -1      2573 6.54566E-03 2.60331E-04-1.70177E-14
 -1      2574 6.70727E-03 3.20924E-04-1.72756E-14
 -1      2575 6.78250E-03 3.50028E-04-1.70915E-14
 -1      2576 6.27692E-03 1.79635E-04-1.65987E-14
 -1      2577 6.37349E-03 2.02584E-04-1.67205E-14
 -1      2578 6.28753E-03 1.24459E-04-1.65482E-14
 -1      2579 6.22789E-03 1.37052E-04-1.65023E-14
 -1      2580 8.38732E-03-7.56941E-04-2.06483E-14
 -1      2581 8.25206E-03-7.47285E-04-2.01774E-14
 -1      2582 6.55426E-03 4.49658E-05-1.67741E-14
 -1      2583 6.40032E-03 9.23216E-05-1.66241E-14
 -1      2584 7.65630E-03-4.97346E-04-1.85260E-14
 -1      2585 7.49456E-03-4.03692E-04-1.81966E-14
 -1      2586 7.39824E-03-3.58582E-04-1.77809E-14
 -1      2587 8.69116E-03-6.90250E-04-2.16987E-14
 -1      2588 8.54170E-03-7.37981E-04-2.11699E-14
 -1      2589 8.46888E-03-7.53343E-04-2.09180E-14
 -1      2590 9.04864E-03-5.05535E-04-2.28248E-14
 -1      2591 8.88825E-03-5.98964E-04-2.23535E-14
 -1      2592 9.40687E-03-2.91696E-04-2.37245E-14
 -1      2593 9.22185E-03-4.04537E-04-2.32728E-14
 -1      2594 9.13653E-03-4.53123E-04-2.32029E-14
 -1      2595 9.80425E-03-6.65623E-05-2.46780E-14
 -1      2596 9.61804E-03-1.68922E-04-2.42455E-14
 -1      2597 1.02607E-02 1.39639E-04-2.56178E-14
 -1      2598 1.00503E-02 5.30724E-05-2.52067E-14
 -1      2599 5.88291E-04-2.37094E-04-1.11619E-16
 -1      2600 7.80983E-04-3.03409E-04-1.82214E-16
 -1      2601 8.40603E-04-2.91987E-04-2.32548E-16
 -1      2602 5.78921E-04-2.09317E-04-1.24060E-16
 -1      2603 7.57285E-04 3.32910E-04-2.19443E-16
 -1      2604 6.10971E-04 2.83943E-04-1.49525E-16
 -1      2605 5.84393E-04 2.57233E-04-1.49986E-16
 -1      2606 8.13319E-04 3.21389E-04-2.73029E-16
 -1      2607 9.48144E-03 8.63786E-04-2.44014E-14
 -1      2608 9.64558E-03 7.65843E-04-2.47462E-14
 -1      2609 9.74806E-03 7.15572E-04-2.52260E-14
 -1      2610 8.34130E-03 1.21760E-03-2.08415E-14
 -1      2611 6.70619E-04-1.37016E-04-2.13574E-16
 -1      2612 5.54927E-04-1.25486E-04-1.53198E-16
 -1      2613 5.58018E-04-1.45439E-04-1.46205E-16
 -1      2614 1.35742E-03 4.28870E-04-7.14299E-16
 -1      2615 5.72083E-04 2.27059E-04-1.59744E-16
 -1      2616 9.37886E-03 9.32788E-04-2.43535E-14
 -1      2617 5.71905E-04-1.84367E-04-1.34400E-16
 -1      2618 1.03778E-02 1.86652E-04-2.61230E-14
 -1      2619 1.02920E-02 1.52300E-04-2.62685E-14
 -1      2620 1.04821E-02 2.17322E-04-2.66320E-14
 -1      2621 9.49967E-03-2.34205E-04-2.41745E-14
 -1      2622 1.06943E-02 3.22585E-04-2.69055E-14
 -1      2623 1.01046E-02 5.33957E-04-2.59613E-14
 -1      2624 1.04558E-02 3.94757E-04-2.66805E-14
 -1      2625 1.48192E-02 1.28090E-03-5.75784E-14
 -1      2626 7.02106E-03-1.60737E-04-1.71116E-14
 -1      2627 1.47886E-02 1.24580E-03-5.74096E-14
 -1      2628 7.76956E-03-5.61901E-04-1.86854E-14
 -1      2629 7.66029E-03-5.13020E-04-1.82625E-14
 -1      2630 7.86243E-03-6.18914E-04-1.88458E-14
 -1      2631 1.42600E-02 2.45760E-04-5.45432E-14
 -1      2632 1.43308E-02 3.04369E-04-5.50170E-14
 -1      2633 1.42170E-02 3.09416E-04-5.41934E-14
 -1      2634 1.41325E-02 2.31185E-04-5.36408E-14
 -1      2635 6.62421E-03 1.17514E-05-1.65780E-14
 -1      2636 8.88733E-03-6.01377E-04-2.24925E-14
 -1      2637 8.79075E-03-6.48585E-04-2.20943E-14
 -1      2638 8.70984E-03-6.87804E-04-2.18352E-14
 -1      2639 6.89437E-04 2.50100E-04-2.25392E-16
 -1      2640 1.07826E-02 2.97930E-04-2.71203E-14
 -1      2641 1.07657E-02 2.90305E-04-2.67896E-14
 -1      2642 1.07617E-02 2.90068E-04-2.71175E-14
 -1      2643 6.33626E-03 1.05078E-04-1.63159E-14
 -1      2644 7.16254E-03 5.39613E-04-1.77423E-14
 -1      2645 1.46555E-02 1.20700E-03-5.64997E-14
 -1      2646 6.44259E-03 2.22489E-04-1.65422E-14
 -1      2647 8.15835E-03-7.30438E-04-1.98341E-14
 -1      2648 8.06864E-03-7.05165E-04-1.94928E-14
 -1      2649 8.23562E-03-7.52887E-04-2.00538E-14
 -1      2650 6.22037E-03 1.63010E-04-1.62028E-14
 -1      2651 6.18847E-03 1.42754E-04-1.61981E-14
 -1      2652 8.65746E-03 1.25446E-03-2.20342E-14
 -1      2653 8.98747E-03 1.15052E-03-2.31969E-14
 -1      2654 7.95123E-03 1.02595E-03-1.95522E-14
 -1      2655 9.93698E-03 7.19473E-07-2.52303E-14
 -1      2656 1.40783E-02 2.59090E-04-5.32357E-14
 -1      2657 7.80708E-04 7.66198E-05-3.31779E-16
 -1      2658 7.79449E-04 5.49437E-05-3.30546E-16
 -1      2659 7.78600E-04 3.32323E-05-3.28296E-16
 -1      2660 7.78174E-04 1.17768E-05-3.25654E-16
 -1      2661 8.97004E-04 4.91425E-05-4.17052E-16
 -1      2662 7.91943E-04 1.71849E-04-3.28107E-16
 -1      2663 7.87991E-04 1.46545E-04-3.30817E-16
 -1      2664 8.03609E-04 2.26887E-04-3.18891E-16
 -1      2665 7.97102E-04 1.98567E-04-3.24298E-16
 -1      2666 9.15239E-04 2.06134E-04-4.13813E-16
 -1      2667 1.12966E-03 3.59240E-04-5.28345E-16
 -1      2668 9.86045E-04 3.30770E-04-4.13162E-16
 -1      2669 1.41598E-03 4.03648E-04-8.02933E-16
 -1      2670 1.27288E-03 3.83414E-04-6.58206E-16
 -1      2671 1.18974E-03 3.38518E-04-6.02681E-16
 -1      2672 8.03003E-04 2.76763E-04-2.94117E-16
 -1      2673 6.88703E-04-2.02892E-04-1.91755E-16
 -1      2674 1.32022E-03-3.59121E-04-5.80943E-16
 -1      2675 1.46350E-03-3.77292E-04-7.09475E-16
 -1      2676 1.60660E-03-3.92445E-04-8.51424E-16
 -1      2677 1.74963E-03-4.04794E-04-1.00660E-15
 -1      2678 1.52527E-03-3.50666E-04-8.02852E-16
 -1      2679 1.89252E-03-4.14797E-04-1.17519E-15
 -1      2680 2.03532E-03-4.22636E-04-1.35700E-15
 -1      2681 1.81206E-03-3.74496E-04-1.11739E-15
 -1      2682 2.17805E-03-4.28670E-04-1.55284E-15
 -1      2683 2.32074E-03-4.33042E-04-1.76175E-15
 -1      2684 2.09866E-03-3.89710E-04-1.48534E-15
 -1      2685 2.46342E-03-4.36024E-04-1.98357E-15
 -1      2686 2.60611E-03-4.37731E-04-2.21950E-15
 -1      2687 2.38505E-03-3.98224E-04-1.90630E-15
 -1      2688 2.74885E-03-4.38369E-04-2.46939E-15
 -1      2689 2.89165E-03-4.38028E-04-2.73205E-15
 -1      2690 2.67127E-03-4.01558E-04-2.38130E-15
 -1      2691 3.03453E-03-4.36862E-04-3.00812E-15
 -1      2692 3.17752E-03-4.34945E-04-3.29783E-15
 -1      2693 2.95744E-03-4.00891E-04-2.91023E-15
 -1      2694 3.32064E-03-4.32400E-04-3.60064E-15
 -1      2695 3.46391E-03-4.29290E-04-3.91702E-15
 -1      2696 3.24364E-03-3.97136E-04-3.49268E-15
 -1      2697 3.60734E-03-4.25722E-04-4.24568E-15
 -1      2698 3.75098E-03-4.21758E-04-4.58799E-15
 -1      2699 3.53000E-03-3.91025E-04-4.12776E-15
 -1      2700 3.89483E-03-4.17505E-04-4.94327E-15
 -1      2701 4.03895E-03-4.13036E-04-5.31084E-15
 -1      2702 3.81662E-03-3.83201E-04-4.81479E-15
 -1      2703 4.18335E-03-4.08471E-04-5.69148E-15
 -1      2704 4.32809E-03-4.03908E-04-6.08500E-15
 -1      2705 4.10369E-03-3.74315E-04-5.55282E-15
 -1      2706 4.47319E-03-3.99497E-04-6.49097E-15
 -1      2707 4.61875E-03-3.95373E-04-6.90866E-15
 -1      2708 4.39146E-03-3.65123E-04-6.34162E-15
 -1      2709 4.76481E-03-3.91733E-04-7.33834E-15
 -1      2710 4.91148E-03-3.88769E-04-7.78074E-15
 -1      2711 4.68033E-03-3.56599E-04-7.17900E-15
 -1      2712 5.05883E-03-3.86729E-04-8.23534E-15
 -1      2713 5.20701E-03-3.85889E-04-8.70174E-15
 -1      2714 4.97090E-03-3.50051E-04-8.06465E-15
 -1      2715 5.35617E-03-3.86549E-04-9.18130E-15
 -1      2716 5.50643E-03-3.89096E-04-9.67264E-15
 -1      2717 5.26413E-03-3.47243E-04-9.00067E-15
 -1      2718 5.65805E-03-3.93864E-04-1.01766E-14
 -1      2719 5.81112E-03-4.01375E-04-1.06938E-14
 -1      2720 5.56140E-03-3.50520E-04-9.98652E-15
 -1      2721 5.96604E-03-4.11959E-04-1.12232E-14
 -1      2722 6.12278E-03-4.26273E-04-1.17646E-14
 -1      2723 5.86462E-03-3.62915E-04-1.10223E-14
 -1      2724 6.28185E-03-4.44573E-04-1.23183E-14
 -1      2725 6.44294E-03-4.67558E-04-1.28851E-14
 -1      2726 6.17615E-03-3.88200E-04-1.21073E-14
 -1      2727 6.60664E-03-4.95291E-04-1.34633E-14
 -1      2728 6.77215E-03-5.28221E-04-1.40521E-14
 -1      2729 6.49832E-03-4.30696E-04-1.32403E-14
 -1      2730 6.93992E-03-5.66007E-04-1.46541E-14
 -1      2731 7.10857E-03-6.08319E-04-1.52653E-14
 -1      2732 6.83212E-03-4.94281E-04-1.44213E-14
 -1      2733 7.27822E-03-6.54192E-04-1.58865E-14
 -1      2734 7.44694E-03-7.01426E-04-1.65185E-14
 -1      2735 7.17546E-03-5.79890E-04-1.56460E-14
 -1      2736 7.61434E-03-7.48157E-04-1.71595E-14
 -1      2737 7.77923E-03-7.90253E-04-1.78111E-14
 -1      2738 7.52133E-03-6.80274E-04-1.69097E-14
 -1      2739 7.94075E-03-8.25295E-04-1.84728E-14
 -1      2740 8.09993E-03-8.48172E-04-1.91457E-14
 -1      2741 7.85926E-03-7.74089E-04-1.82141E-14
 -1      2742 8.25607E-03-8.56976E-04-1.98290E-14
 -1      2743 8.41227E-03-8.49202E-04-2.05231E-14
 -1      2744 8.18368E-03-8.28007E-04-1.95622E-14
 -1      2745 8.56801E-03-8.24655E-04-2.12313E-14
 -1      2746 8.72671E-03-7.85453E-04-2.19517E-14
 -1      2747 8.50086E-03-8.12922E-04-2.09566E-14
 -1      2748 8.88718E-03-7.33759E-04-2.26834E-14
 -1      2749 9.05131E-03-6.73629E-04-2.34259E-14
 -1      2750 8.82360E-03-7.27746E-04-2.23990E-14
 -1      2751 9.21841E-03-6.07723E-04-2.41798E-14
 -1      2752 9.38681E-03-5.40812E-04-2.49463E-14
 -1      2753 9.16008E-03-5.97253E-04-2.38881E-14
 -1      2754 9.55638E-03-4.74571E-04-2.57241E-14
 -1      2755 9.72523E-03-4.11717E-04-2.65133E-14
 -1      2756 9.50569E-03-4.56705E-04-2.54240E-14
 -1      2757 9.89337E-03-3.53115E-04-2.73137E-14
 -1      2758 1.00594E-02-2.99280E-04-2.81226E-14
 -1      2759 9.84961E-03-3.29516E-04-2.70042E-14
 -1      2760 1.02237E-02-2.50606E-04-2.89434E-14
 -1      2761 1.03854E-02-2.06727E-04-2.97745E-14
 -1      2762 1.01848E-02-2.23883E-04-2.86269E-14
 -1      2763 1.05450E-02-1.67607E-04-3.06154E-14
 -1      2764 1.07023E-02-1.32548E-04-3.14643E-14
 -1      2765 1.05083E-02-1.39563E-04-3.02888E-14
 -1      2766 1.08578E-02-1.01307E-04-3.23225E-14
 -1      2767 1.10113E-02-7.32232E-05-3.31906E-14
 -1      2768 1.08211E-02-7.28580E-05-3.19889E-14
 -1      2769 1.11634E-02-4.79663E-05-3.40644E-14
 -1      2770 1.13140E-02-2.49985E-05-3.49462E-14
 -1      2771 1.11253E-02-1.94316E-05-3.37234E-14
 -1      2772 1.14635E-02-3.98241E-06-3.58386E-14
 -1      2773 1.16121E-02 1.54812E-05-3.67368E-14
 -1      2774 1.14232E-02 2.45708E-05-3.54903E-14
 -1      2775 1.17597E-02 3.36956E-05-3.76444E-14
 -1      2776 1.19067E-02 5.09435E-05-3.85651E-14
 -1      2777 1.17169E-02 6.22696E-05-3.72914E-14
 -1      2778 1.20531E-02 6.74736E-05-3.94901E-14
 -1      2779 1.21990E-02 8.34796E-05-4.04214E-14
 -1      2780 1.20078E-02 9.60651E-05-3.91265E-14
 -1      2781 1.23444E-02 9.91510E-05-4.13640E-14
 -1      2782 1.24895E-02 1.14617E-04-4.23131E-14
 -1      2783 1.22970E-02 1.27736E-04-4.09934E-14
 -1      2784 1.26342E-02 1.30012E-04-4.32701E-14
 -1      2785 1.27787E-02 1.45420E-04-4.42340E-14
 -1      2786 1.25850E-02 1.58550E-04-4.28927E-14
 -1      2787 1.29229E-02 1.60929E-04-4.52054E-14
 -1      2788 1.30670E-02 1.76593E-04-4.61818E-14
 -1      2789 1.28722E-02 1.89376E-04-4.48206E-14
 -1      2790 1.32108E-02 1.92466E-04-4.71656E-14
 -1      2791 1.33545E-02 2.08579E-04-4.81525E-14
 -1      2792 1.31590E-02 2.20777E-04-4.67752E-14
 -1      2793 1.34980E-02 2.24960E-04-4.91455E-14
 -1      2794 1.36415E-02 2.41631E-04-5.01423E-14
 -1      2795 1.34454E-02 2.53094E-04-4.87473E-14
 -1      2796 1.37848E-02 2.58601E-04-5.11441E-14
 -1      2797 1.39280E-02 2.75882E-04-5.21515E-14
 -1      2798 1.37316E-02 2.86520E-04-5.07411E-14
 -1      2799 6.67985E-03-2.38828E-05-1.63352E-14
 -1      2800 6.51589E-03 3.74285E-05-1.61490E-14
 -1      2801 1.98588E-03 4.54590E-04-1.52490E-15
 -1      2802 1.84364E-03 4.45670E-04-1.32328E-15
 -1      2803 2.83921E-03 4.73701E-04-3.02463E-15
 -1      2804 2.69679E-03 4.73689E-04-2.74085E-15
 -1      2805 3.12455E-03 4.71046E-04-3.63229E-15
 -1      2806 2.98179E-03 4.72793E-04-3.32148E-15
 -1      2807 2.90481E-03 4.36708E-04-3.18184E-15
 -1      2808 3.41072E-03 4.65442E-04-4.29298E-15
 -1      2809 3.26751E-03 4.68573E-04-3.95659E-15
 -1      2810 3.19068E-03 4.33277E-04-3.80128E-15
 -1      2811 3.69791E-03 4.57539E-04-5.00601E-15
 -1      2812 3.55416E-03 4.61743E-04-4.64288E-15
 -1      2813 3.47696E-03 4.27126E-04-4.47382E-15
 -1      2814 3.98633E-03 4.47943E-04-5.77260E-15
 -1      2815 3.84194E-03 4.52916E-04-5.38272E-15
 -1      2816 3.76374E-03 4.18868E-04-5.19849E-15
 -1      2817 4.27619E-03 4.37332E-04-6.59344E-15
 -1      2818 4.13105E-03 4.42720E-04-6.17613E-15
 -1      2819 4.05113E-03 4.09097E-04-5.97708E-15
 -1      2820 4.56776E-03 4.26599E-04-7.46694E-15
 -1      2821 4.42172E-03 4.31919E-04-7.02341E-15
 -1      2822 4.33923E-03 3.98498E-04-6.80855E-15
 -1      2823 4.86136E-03 4.17023E-04-8.39312E-15
 -1      2824 4.71424E-03 4.21575E-04-7.92392E-15
 -1      2825 4.62818E-03 3.87985E-04-7.69294E-15
 -1      2826 5.15753E-03 4.10487E-04-9.36821E-15
 -1      2827 5.00905E-03 4.13239E-04-8.87430E-15
 -1      2828 4.91821E-03 3.78860E-04-8.62896E-15
 -1      2829 5.45706E-03 4.09736E-04-1.03914E-14
 -1      2830 5.30677E-03 4.09184E-04-9.87392E-15
 -1      2831 5.20978E-03 3.73009E-04-9.61378E-15
 -1      2832 5.76135E-03 4.18676E-04-1.14632E-14
 -1      2833 5.60848E-03 4.12690E-04-1.09213E-14
 -1      2834 5.50377E-03 3.73130E-04-1.06467E-14
 -1      2835 6.07266E-03 4.42686E-04-1.25809E-14
 -1      2836 5.91596E-03 4.28352E-04-1.20160E-14
 -1      2837 5.80188E-03 3.83014E-04-1.17274E-14
 -1      2838 6.39450E-03 4.88876E-04-1.37443E-14
 -1      2839 6.23208E-03 4.62366E-04-1.31573E-14
 -1      2840 6.10716E-03 4.07890E-04-1.28537E-14
 -1      2841 6.73138E-03 5.66141E-04-1.49505E-14
 -1      2842 6.56099E-03 5.22899E-04-1.43421E-14
 -1      2843 6.42443E-03 4.55074E-04-1.40256E-14
 -1      2844 7.08782E-03 6.82426E-04-1.61999E-14
 -1      2845 6.90761E-03 6.18398E-04-1.55709E-14
 -1      2846 6.76079E-03 5.33800E-04-1.52387E-14
 -1      2847 7.46241E-03 8.43589E-04-1.74899E-14
 -1      2848 7.27408E-03 7.57775E-04-1.68391E-14
 -1      2849 7.12204E-03 6.55311E-04-1.64937E-14
 -1      2850 7.84442E-03 1.03439E-03-1.88345E-14
 -1      2851 7.65425E-03 9.37361E-04-1.81548E-14
 -1      2852 7.50780E-03 8.28264E-04-1.77942E-14
 -1      2853 8.24988E-03 1.20812E-03-2.04046E-14
 -1      2854 8.06266E-03 1.12708E-03-1.96991E-14
 -1      2855 8.59093E-03 1.28660E-03-2.17915E-14
 -1      2856 8.41249E-03 1.26429E-03-2.10601E-14
 -1      2857 9.27872E-03 1.11916E-03-2.47044E-14
 -1      2858 9.09217E-03 1.19175E-03-2.39321E-14
 -1      2859 9.65921E-03 9.65896E-04-2.62778E-14
 -1      2860 9.46904E-03 1.04074E-03-2.54882E-14
 -1      2861 9.39962E-03 1.02587E-03-2.50577E-14
 -1      2862 1.00339E-02 8.42357E-04-2.78792E-14
 -1      2863 9.84881E-03 8.99021E-04-2.70737E-14
 -1      2864 9.79152E-03 8.69041E-04-2.66350E-14
 -1      2865 1.03915E-02 7.62443E-04-2.95229E-14
 -1      2866 1.02159E-02 7.97195E-04-2.86963E-14
 -1      2867 1.01668E-02 7.58324E-04-2.82444E-14
 -1      2868 1.07293E-02 7.22853E-04-3.12065E-14
 -1      2869 1.05629E-02 7.38423E-04-3.03602E-14
 -1      2870 1.05162E-02 6.96637E-04-2.98951E-14
 -1      2871 1.10520E-02 7.14242E-04-3.29345E-14
 -1      2872 1.08924E-02 7.15365E-04-3.20638E-14
 -1      2873 1.08429E-02 6.72263E-04-3.15875E-14
 -1      2874 1.13639E-02 7.27944E-04-3.47062E-14
 -1      2875 1.12091E-02 7.18841E-04-3.38180E-14
 -1      2876 1.11543E-02 6.74828E-04-3.33257E-14
 -1      2877 1.16688E-02 7.56789E-04-3.65154E-14
 -1      2878 1.15171E-02 7.40858E-04-3.56055E-14
 -1      2879 1.14562E-02 6.95905E-04-3.51051E-14
 -1      2880 1.19689E-02 7.95350E-04-3.83595E-14
 -1      2881 1.18193E-02 7.75124E-04-3.74337E-14
 -1      2882 1.17525E-02 7.29253E-04-3.69218E-14
 -1      2883 1.22657E-02 8.39698E-04-4.02320E-14
 -1      2884 1.21177E-02 8.16984E-04-3.92908E-14
 -1      2885 1.20457E-02 7.70346E-04-3.87718E-14
 -1      2886 1.25601E-02 8.87095E-04-4.21341E-14
 -1      2887 1.24131E-02 8.63138E-04-4.11797E-14
 -1      2888 1.23369E-02 8.15952E-04-4.06494E-14
 -1      2889 1.28525E-02 9.35708E-04-4.40636E-14
 -1      2890 1.27065E-02 9.11330E-04-4.30949E-14
 -1      2891 1.26269E-02 8.63821E-04-4.25560E-14
 -1      2892 1.31434E-02 9.84359E-04-4.60170E-14
 -1      2893 1.29981E-02 9.60080E-04-4.50377E-14
 -1      2894 1.29159E-02 9.12441E-04-4.44879E-14
 -1      2895 1.34330E-02 1.03233E-03-4.79907E-14
 -1      2896 1.32883E-02 1.00846E-03-4.70037E-14
 -1      2897 1.32043E-02 9.60842E-04-4.64442E-14
 -1      2898 1.37216E-02 1.07921E-03-4.99779E-14
 -1      2899 1.35774E-02 1.05592E-03-4.89825E-14
 -1      2900 1.34921E-02 1.00843E-03-4.84171E-14
 -1      2901 1.40094E-02 1.12480E-03-5.19674E-14
 -1      2902 1.38656E-02 1.10217E-03-5.09711E-14
 -1      2903 1.37793E-02 1.05489E-03-5.04013E-14
 -1      2904 1.42965E-02 1.16900E-03-5.39652E-14
 -1      2905 1.41530E-02 1.14707E-03-5.29680E-14
 -1      2906 1.40662E-02 1.10004E-03-5.23929E-14
 -1      2907 1.45477E-02 1.19888E-03-5.57321E-14
 -1      2908 1.44045E-02 1.17758E-03-5.47293E-14
 -1      2909 1.43174E-02 1.13086E-03-5.41542E-14
 -1      2910 1.45330E-02 1.14772E-03-5.56852E-14
 -1      2911 7.10604E-03-2.18927E-04-1.69941E-14
 -1      2912 6.90100E-03-1.19680E-04-1.66511E-14
 -1      2913 1.43468E-02 7.55459E-04-5.47087E-14
 -1      2914 1.43656E-02 7.95293E-04-5.48068E-14
 -1      2915 6.35580E-03 1.99377E-04-1.61036E-14
 -1      2916 6.51445E-03 2.47440E-04-1.63944E-14
 -1      2917 1.44203E-02 9.15208E-04-5.50960E-14
 -1      2918 1.44380E-02 9.55449E-04-5.51885E-14
 -1      2919 1.43081E-02 6.75786E-04-5.45048E-14
 -1      2920 1.43276E-02 7.15643E-04-5.46093E-14
 -1      2921 1.42148E-02 7.18770E-04-5.37785E-14
 -1      2922 1.43841E-02 8.35164E-04-5.49036E-14
 -1      2923 1.44023E-02 8.75129E-04-5.49986E-14
 -1      2924 1.42886E-02 8.77526E-04-5.41694E-14
 -1      2925 1.42524E-02 7.98005E-04-5.39767E-14
 -1      2926 1.42690E-02 5.97199E-04-5.43002E-14
 -1      2927 1.42887E-02 6.36547E-04-5.44039E-14
 -1      2928 1.41761E-02 6.40147E-04-5.35764E-14
 -1      2929 1.42282E-02 5.16722E-04-5.40871E-14
 -1      2930 1.42487E-02 5.57046E-04-5.41936E-14
 -1      2931 1.41361E-02 5.61144E-04-5.33685E-14
 -1      2932 1.41870E-02 4.35497E-04-5.38696E-14
 -1      2933 1.42076E-02 4.76215E-04-5.39783E-14
 -1      2934 1.40949E-02 4.80799E-04-5.31539E-14
 -1      2935 1.70129E-03 4.34390E-04-1.13554E-15
 -1      2936 1.55872E-03 4.20556E-04-9.61850E-16
 -1      2937 1.47627E-03 3.77655E-04-8.93139E-16
 -1      2938 1.76246E-03 4.04632E-04-1.24054E-15
 -1      2939 1.03883E-02 4.34321E-04-2.69372E-14
 -1      2940 1.05346E-02 3.88780E-04-2.72723E-14
 -1      2941 9.59248E-03-1.85783E-04-2.46625E-14
 -1      2942 9.40467E-03-2.95968E-04-2.41363E-14
 -1      2943 1.07052E-02 2.75919E-04-2.71934E-14
 -1      2944 1.06313E-02 2.59773E-04-2.70408E-14
 -1      2945 8.52007E-03-7.49865E-04-2.11178E-14
 -1      2946 8.38901E-03-7.68281E-04-2.05972E-14
 -1      2947 6.67911E-03 3.12608E-04-1.66091E-14
 -1      2948 6.83141E-03 3.79031E-04-1.68615E-14
 -1      2949 8.77015E-03 1.28571E-03-2.25740E-14
 -1      2950 8.71546E-03 1.26178E-03-2.22845E-14
 -1      2951 8.85119E-03 1.22766E-03-2.28236E-14
 -1      2952 8.94787E-03 1.24528E-03-2.33294E-14
 -1      2953 6.36417E-03 8.69868E-05-1.60011E-14
 -1      2954 6.26274E-03 1.13122E-04-1.59276E-14
 -1      2955 2.55450E-03 4.72604E-04-2.47042E-15
 -1      2956 2.41230E-03 4.70347E-04-2.21362E-15
 -1      2957 2.61922E-03 4.36681E-04-2.61562E-15
 -1      2958 2.27015E-03 4.66704E-04-1.97016E-15
 -1      2959 2.12803E-03 4.61550E-04-1.74077E-15
 -1      2960 2.33376E-03 4.32239E-04-2.10259E-15
 -1      2961 1.03374E-03-3.11947E-04-3.64400E-16
 -1      2962 1.17698E-03-3.37430E-04-4.65963E-16
 -1      2963 1.23862E-03-3.15887E-04-5.41600E-16
 -1      2964 9.31643E-03 9.91634E-04-2.43939E-14
 -1      2965 9.50914E-03 8.72342E-04-2.49208E-14
 -1      2966 7.72819E-03 9.09409E-04-1.86968E-14
 -1      2967 7.92628E-03 1.03331E-03-1.93158E-14
 -1      2968 7.84877E-04 1.22420E-04-3.32105E-16
 -1      2969 7.82506E-04 9.91374E-05-3.32227E-16
 -1      2970 9.00126E-04 9.84350E-05-4.20481E-16
 -1      2971 9.05848E-04 1.50185E-04-4.19654E-16
 -1      2972 7.82221E-04-9.71030E-05-3.00934E-16
 -1      2973 7.84511E-04-1.20302E-04-2.93602E-16
 -1      2974 6.18680E-03 1.31205E-04-1.58315E-14
 -1      2975 6.15401E-03 1.38940E-04-1.57892E-14
 -1      2976 6.16680E-03 1.50381E-04-1.57921E-14
 -1      2977 6.21943E-03 1.62101E-04-1.58389E-14
 -1      2978 1.00556E-02 5.07637E-05-2.58297E-14
 -1      2979 9.83483E-03-5.55071E-05-2.52957E-14
 -1      2980 7.03742E-03 4.82102E-04-1.72172E-14
 -1      2981 7.23607E-03 5.92211E-04-1.76086E-14
 -1      2982 7.45713E-03-4.10351E-04-1.76836E-14
 -1      2983 7.30975E-03-3.28308E-04-1.73629E-14
 -1      2984 1.00269E-02 5.87830E-04-2.61605E-14
 -1      2985 1.02113E-02 5.04051E-04-2.65505E-14
 -1      2986 9.68953E-03 7.65382E-04-2.53557E-14
 -1      2987 9.83667E-03 6.83283E-04-2.57058E-14
 -1      2988 1.41207E-02 2.98097E-04-5.35117E-14
 -1      2989 1.41632E-02 3.36955E-04-5.37865E-14
 -1      2990 1.40244E-02 2.86916E-04-5.28302E-14
 -1      2991 1.06936E-02 3.35788E-04-2.74143E-14
 -1      2992 1.07623E-02 3.13113E-04-2.73066E-14
 -1      2993 9.24496E-03-3.92278E-04-2.36809E-14
 -1      2994 9.09597E-03-4.86015E-04-2.32288E-14
 -1      2995 9.35436E-03-3.41623E-04-2.41608E-14
 -1      2996 7.87536E-04-1.44323E-04-2.85254E-16
 -1      2997 7.91399E-04-1.69384E-04-2.75699E-16
 -1      2998 9.05356E-04-1.47688E-04-3.68385E-16
 -1      2999 8.95966E-04 9.97115E-07-4.10059E-16
 -1      3000 7.78142E-04-9.62881E-06-3.22144E-16
 -1      3001 7.78504E-04-3.10670E-05-3.17780E-16
 -1      3002 8.64938E-04 2.64890E-04-3.49167E-16
 -1      3003 1.07627E-02 2.87256E-04-2.75248E-14
 -1      3004 1.39708E-02 3.14630E-04-5.24245E-14
 -1      3005 9.61534E-03 8.35771E-04-2.53986E-14
 -1      3006 1.05698E-02 2.37288E-04-2.71886E-14
 -1      3007 9.96900E-03 6.41235E-04-2.62930E-14
 -1      3008 2.04824E-03 4.22113E-04-1.64415E-15
 -1      3009 7.55600E-03-4.78041E-04-1.78377E-14
 -1      3010 6.90657E-03 4.34859E-04-1.67303E-14
 -1      3011 1.01914E-02 1.03791E-04-2.63358E-14
 -1      3012 1.01047E-02 4.92416E-05-2.64009E-14
 -1      3013 1.03182E-02 1.43563E-04-2.68449E-14
 -1      3014 6.76452E-03-7.73135E-05-1.62222E-14
 -1      3015 6.63656E-03-4.90358E-05-1.57952E-14
 -1      3016 6.83590E-03-1.35173E-04-1.61058E-14
 -1      3017 6.12603E-03 1.38694E-04-1.54300E-14
 -1      3018 1.06060E-02 3.96042E-04-2.79391E-14
 -1      3019 1.06494E-02 3.62403E-04-2.76776E-14
 -1      3020 1.07450E-02 3.49289E-04-2.80839E-14
 -1      3021 9.04910E-03 1.17788E-03-2.36750E-14
 -1      3022 6.19227E-03 1.15353E-04-1.55208E-14
 -1      3023 7.17079E-03-2.78279E-04-1.68983E-14
 -1      3024 1.45153E-02 1.10681E-03-5.56025E-14
 -1      3025 1.44077E-02 1.09848E-03-5.48346E-14
 -1      3026 1.44977E-02 1.06613E-03-5.55159E-14
 -1      3027 6.55882E-03 2.76711E-04-1.61687E-14
 -1      3028 7.54676E-03 7.87281E-04-1.82768E-14
 -1      3029 7.54302E-03 8.15908E-04-1.80494E-14
 -1      3030 7.34243E-03 7.16639E-04-1.73881E-14
 -1      3031 7.37934E-03 6.78504E-04-1.78903E-14
 -1      3032 7.95699E-03-6.69961E-04-1.90607E-14
 -1      3033 7.84585E-03-6.30843E-04-1.86312E-14
 -1      3034 8.03722E-03-7.10392E-04-1.92755E-14
 -1      3035 1.41836E-02 3.78236E-04-5.38987E-14
 -1      3036 9.73614E-03-1.22475E-04-2.52551E-14
 -1      3037 9.00066E-03-5.47475E-04-2.29615E-14
 -1      3038 8.91825E-03-6.01822E-04-2.26954E-14
 -1      3039 9.11376E-03-4.95060E-04-2.34337E-14
 -1      3040 8.61796E-03-7.26000E-04-2.15056E-14
 -1      3041 1.08022E-02 3.10650E-04-2.76338E-14
 -1      3042 8.35835E-03-7.78913E-04-2.04427E-14
 -1      3043 8.30179E-03-7.69853E-04-2.02482E-14
 -1      3044 8.21768E-03-7.62001E-04-1.99029E-14
 -1      3045 6.25759E-03 1.75919E-04-1.56934E-14
 -1      3046 6.30140E-03 1.95270E-04-1.55486E-14
 -1      3047 6.17507E-03 1.61376E-04-1.52882E-14
 -1      3048 9.83137E-04 2.73720E-04-4.43940E-16
 -1      3049 6.40878E-03 5.54851E-05-1.57619E-14
 -1      3050 1.44592E-02 9.90486E-04-5.53097E-14
 -1      3051 1.44766E-02 1.03074E-03-5.53974E-14
 -1      3052 1.43693E-02 1.02247E-03-5.46303E-14
 -1      3053 1.43274E-02 9.52319E-04-5.43878E-14
 -1      3054 7.79280E-04-5.26507E-05-3.12819E-16
 -1      3055 7.80494E-04-7.46491E-05-3.07182E-16
 -1      3056 8.99826E-04-9.61075E-05-3.86098E-16
 -1      3057 8.96862E-04-4.70162E-05-3.99664E-16
 -1      3058 8.90999E-03 1.19945E-03-2.30157E-14
 -1      3059 9.08606E-03 1.11652E-03-2.36480E-14
 -1      3060 1.03214E-02 4.85042E-04-2.71410E-14
 -1      3061 1.40206E-02 3.49013E-04-5.27512E-14
 -1      3062 1.41373E-02 4.01271E-04-5.35431E-14
 -1      3063 1.40243E-02 4.06280E-04-5.27211E-14
 -1      3064 1.39245E-02 3.37976E-04-5.20718E-14
 -1      3065 7.23413E-03 6.16188E-04-1.73598E-14
 -1      3066 8.03371E-04-2.01946E-04-2.66876E-16
 -1      3067 8.21757E-04-2.52334E-04-2.48282E-16
 -1      3068 9.52869E-04-2.86283E-04-3.20300E-16
 -1      3069 9.21546E-04-2.09568E-04-3.47839E-16
 -1      3070 1.01543E-03-2.70226E-04-3.81910E-16
 -1      3071 1.08190E-02 3.00170E-04-2.79482E-14
 -1      3072 1.07809E-02 2.88446E-04-2.80264E-14
 -1      3073 1.04065E-03 2.41094E-04-5.09467E-16
 -1      3074 1.03411E-03 2.09520E-04-5.14386E-16
 -1      3075 9.45761E-03-3.01520E-04-2.46490E-14
 -1      3076 9.31500E-03-3.87527E-04-2.41871E-14
 -1      3077 1.44493E-03-3.09632E-04-7.53521E-16
 -1      3078 1.58844E-03-3.23224E-04-8.99522E-16
 -1      3079 1.06571E-02 2.51765E-04-2.78204E-14
 -1      3080 1.05147E-02 2.11438E-04-2.74069E-14
 -1      3081 9.22441E-03 1.06299E-03-2.42096E-14
 -1      3082 9.58396E-03 8.88352E-04-2.55231E-14
 -1      3083 9.74299E-03 7.92936E-04-2.59633E-14
 -1      3084 1.73204E-03-3.34474E-04-1.05874E-15
 -1      3085 1.87571E-03-3.43559E-04-1.23118E-15
 -1      3086 1.65271E-03-2.94954E-04-9.99648E-16
 -1      3087 2.01935E-03-3.50784E-04-1.41696E-15
 -1      3088 2.16298E-03-3.56289E-04-1.61596E-15
 -1      3089 1.94035E-03-3.12041E-04-1.34844E-15
 -1      3090 2.30655E-03-3.60339E-04-1.82840E-15
 -1      3091 2.45006E-03-3.63048E-04-2.05352E-15
 -1      3092 2.22812E-03-3.22459E-04-1.74956E-15
 -1      3093 2.59349E-03-3.64627E-04-2.29284E-15
 -1      3094 2.73686E-03-3.65164E-04-2.54599E-15
 -1      3095 2.51566E-03-3.27617E-04-2.20435E-15
 -1      3096 2.88015E-03-3.64825E-04-2.81150E-15
 -1      3097 3.02337E-03-3.63674E-04-3.09099E-15
 -1      3098 2.80280E-03-3.28660E-04-2.71265E-15
 -1      3099 3.16652E-03-3.61844E-04-3.38359E-15
 -1      3100 3.30962E-03-3.59386E-04-3.68982E-15
 -1      3101 3.08941E-03-3.26486E-04-3.27413E-15
 -1      3102 3.45265E-03-3.56408E-04-4.00899E-15
 -1      3103 3.59564E-03-3.52955E-04-4.34062E-15
 -1      3104 3.37543E-03-3.21800E-04-3.88929E-15
 -1      3105 3.73859E-03-3.49126E-04-4.68584E-15
 -1      3106 3.88152E-03-3.44967E-04-5.04349E-15
 -1      3107 3.66086E-03-3.15178E-04-4.55624E-15
 -1      3108 4.02443E-03-3.40581E-04-5.41334E-15
 -1      3109 4.16738E-03-3.36024E-04-5.79627E-15
 -1      3110 3.94570E-03-3.07142E-04-5.27369E-15
 -1      3111 4.31037E-03-3.31416E-04-6.19203E-15
 -1      3112 4.45347E-03-3.26837E-04-6.59988E-15
 -1      3113 4.23005E-03-2.98233E-04-6.04145E-15
 -1      3114 4.59671E-03-3.22434E-04-7.01860E-15
 -1      3115 4.74021E-03-3.18330E-04-7.45003E-15
 -1      3116 4.51415E-03-2.89097E-04-6.85866E-15
 -1      3117 4.88402E-03-3.14703E-04-7.89509E-15
 -1      3118 5.02831E-03-3.11747E-04-8.35123E-15
 -1      3119 4.79844E-03-2.80579E-04-7.72441E-15
 -1      3120 5.17319E-03-3.09671E-04-8.82026E-15
 -1      3121 5.31890E-03-3.08779E-04-9.30255E-15
 -1      3122 5.08372E-03-2.73819E-04-8.64013E-15
 -1      3123 5.46564E-03-3.09306E-04-9.79620E-15
 -1      3124 5.61370E-03-3.11717E-04-1.03028E-14
 -1      3125 5.37131E-03-2.70394E-04-9.60598E-15
 -1      3126 5.76345E-03-3.16260E-04-1.08225E-14
 -1      3127 5.91518E-03-3.23634E-04-1.13536E-14
 -1      3128 5.66329E-03-2.72500E-04-1.06219E-14
 -1      3129 6.06945E-03-3.34069E-04-1.18956E-14
 -1      3130 6.22646E-03-3.48582E-04-1.24506E-14
 -1      3131 5.96270E-03-2.83251E-04-1.16853E-14
 -1      3132 6.38697E-03-3.67368E-04-1.30196E-14
 -1      3133 6.55081E-03-3.91679E-04-1.35985E-14
 -1      3134 6.27356E-03-3.07131E-04-1.27972E-14
 -1      3135 6.71882E-03-4.21603E-04-1.41892E-14
 -1      3136 6.88997E-03-4.58159E-04-1.47912E-14
 -1      3137 6.60027E-03-3.50447E-04-1.39576E-14
 -1      3138 7.06498E-03-5.01060E-04-1.54037E-14
 -1      3139 7.24154E-03-5.50189E-04-1.60265E-14
 -1      3140 6.94545E-03-4.20395E-04-1.51613E-14
 -1      3141 7.42031E-03-6.04572E-04-1.66587E-14
 -1      3142 7.59724E-03-6.60424E-04-1.73017E-14
 -1      3143 7.30657E-03-5.21402E-04-1.64080E-14
 -1      3144 8.10645E-03-8.00704E-04-1.92789E-14
 -1      3145 8.26886E-03-8.14395E-04-1.99659E-14
 -1      3146 8.42879E-03-8.06300E-04-2.06679E-14
 -1      3147 8.59061E-03-7.77441E-04-2.13785E-14
 -1      3148 8.82697E-03-6.82332E-04-2.24142E-14
 -1      3149 9.00201E-03-6.10489E-04-2.31545E-14
 -1      3150 9.18338E-03-5.23191E-04-2.39026E-14
 -1      3151 9.36497E-03-4.42796E-04-2.46657E-14
 -1      3152 9.80756E-03-3.03783E-04-2.66947E-14
 -1      3153 9.97957E-03-2.46025E-04-2.74968E-14
 -1      3154 1.01486E-02-1.94938E-04-2.83100E-14
 -1      3155 1.03133E-02-1.49583E-04-2.91316E-14
 -1      3156 1.01154E-02-1.63763E-04-2.79914E-14
 -1      3157 1.04747E-02-1.09905E-04-2.99614E-14
 -1      3158 1.06325E-02-7.46061E-05-3.08020E-14
 -1      3159 1.04443E-02-7.83343E-05-2.96346E-14
 -1      3160 1.07874E-02-4.35126E-05-3.16530E-14
 -1      3161 1.09397E-02-1.55978E-05-3.25129E-14
 -1      3162 1.07568E-02-1.29888E-05-3.13175E-14
 -1      3163 1.10899E-02 9.37407E-06-3.33816E-14
 -1      3164 1.12383E-02 3.21435E-05-3.42570E-14
 -1      3165 1.10573E-02 3.86596E-05-3.30372E-14
 -1      3166 1.13853E-02 5.29536E-05-3.51406E-14
 -1      3167 1.15312E-02 7.22979E-05-3.60334E-14
 -1      3168 1.13498E-02 8.12922E-05-3.47912E-14
 -1      3169 1.16762E-02 9.04099E-05-3.69350E-14
 -1      3170 1.18206E-02 1.07609E-04-3.78448E-14
 -1      3171 1.16376E-02 1.18175E-04-3.65770E-14
 -1      3172 1.19644E-02 1.24100E-04-3.87632E-14
 -1      3173 1.21079E-02 1.40087E-04-3.96891E-14
 -1      3174 1.19228E-02 1.51589E-04-3.83987E-14
 -1      3175 1.22511E-02 1.55738E-04-4.06237E-14
 -1      3176 1.23942E-02 1.71180E-04-4.15652E-14
 -1      3177 1.22068E-02 1.83139E-04-4.02535E-14
 -1      3178 1.25370E-02 1.86542E-04-4.25162E-14
 -1      3179 1.26799E-02 2.01899E-04-4.34724E-14
 -1      3180 1.24903E-02 2.13949E-04-4.21384E-14
 -1      3181 1.28226E-02 2.17345E-04-4.44357E-14
 -1      3182 1.29653E-02 2.32923E-04-4.54055E-14
 -1      3183 1.27740E-02 2.44789E-04-4.40522E-14
 -1      3184 1.31080E-02 2.48693E-04-4.63814E-14
 -1      3185 1.32507E-02 2.64679E-04-4.73636E-14
 -1      3186 1.30579E-02 2.76165E-04-4.59911E-14
 -1      3187 1.33934E-02 2.80918E-04-4.83520E-14
 -1      3188 1.35362E-02 2.97419E-04-4.93416E-14
 -1      3189 1.33421E-02 3.08385E-04-4.79541E-14
 -1      3190 1.36589E-02 3.08955E-04-5.02021E-14
 -1      3191 1.38017E-02 3.25986E-04-5.12032E-14
 -1      3192 1.38518E-02 3.60052E-04-5.15288E-14
 -1      3193 1.36067E-02 3.36405E-04-4.98009E-14
 -1      3194 6.76286E-03 3.89149E-04-1.61858E-14
 -1      3195 6.94263E-03 4.79920E-04-1.65320E-14
 -1      3196 7.66772E-03-5.63570E-04-1.79798E-14
 -1      3197 7.48008E-03-4.75747E-04-1.74050E-14
 -1      3198 2.97051E-03 3.99593E-04-3.33850E-15
 -1      3199 2.82745E-03 4.00491E-04-3.04307E-15
 -1      3200 3.82860E-03 3.80615E-04-5.39060E-15
 -1      3201 3.68560E-03 3.85031E-04-5.01541E-15
 -1      3202 4.11455E-03 3.70886E-04-6.18110E-15
 -1      3203 3.97157E-03 3.75884E-04-5.77960E-15
 -1      3204 3.89253E-03 3.42904E-04-5.58342E-15
 -1      3205 4.40044E-03 3.60529E-04-7.02288E-15
 -1      3206 4.25748E-03 3.65746E-04-6.59515E-15
 -1      3207 4.17664E-03 3.33430E-04-6.38397E-15
 -1      3208 4.68626E-03 3.50466E-04-7.91852E-15
 -1      3209 4.54333E-03 3.55405E-04-7.46426E-15
 -1      3210 4.45988E-03 3.23540E-04-7.23735E-15
 -1      3211 4.97216E-03 3.41989E-04-8.86472E-15
 -1      3212 4.82915E-03 3.45945E-04-8.38565E-15
 -1      3213 4.74212E-03 3.14140E-04-8.14324E-15
 -1      3214 5.25850E-03 3.36923E-04-9.85864E-15
 -1      3215 5.11519E-03 3.38902E-04-9.35535E-15
 -1      3216 5.02335E-03 3.06471E-04-9.09937E-15
 -1      3217 5.54624E-03 3.37827E-04-1.09017E-14
 -1      3218 5.40206E-03 3.36435E-04-1.03741E-14
 -1      3219 5.30387E-03 3.02232E-04-1.01030E-14
 -1      3220 5.83735E-03 3.48243E-04-1.19912E-14
 -1      3221 5.69115E-03 3.41539E-04-1.14410E-14
 -1      3222 5.58464E-03 3.03727E-04-1.11557E-14
 -1      3223 6.13557E-03 3.73116E-04-1.31265E-14
 -1      3224 5.98522E-03 3.58376E-04-1.25529E-14
 -1      3225 5.86782E-03 3.14103E-04-1.22543E-14
 -1      3226 6.44708E-03 4.19718E-04-1.43046E-14
 -1      3227 6.28921E-03 3.92929E-04-1.37102E-14
 -1      3228 6.15767E-03 3.37860E-04-1.33973E-14
 -1      3229 6.87507E-03 5.13156E-04-1.59274E-14
 -1      3230 6.70100E-03 4.62438E-04-1.53053E-14
 -1      3231 7.05764E-03 5.78013E-04-1.65585E-14
 -1      3232 1.06421E-02 6.35233E-04-3.02668E-14
 -1      3233 1.04778E-02 6.51714E-04-2.94327E-14
 -1      3234 1.09548E-02 6.26199E-04-3.19689E-14
 -1      3235 1.08007E-02 6.27688E-04-3.11134E-14
 -1      3236 1.07655E-02 5.81759E-04-3.06373E-14
 -1      3237 1.12538E-02 6.39126E-04-3.37154E-14
 -1      3238 1.11056E-02 6.30593E-04-3.28356E-14
 -1      3239 1.10624E-02 5.86439E-04-3.23497E-14
 -1      3240 1.15455E-02 6.66577E-04-3.55009E-14
 -1      3241 1.14002E-02 6.51426E-04-3.46043E-14
 -1      3242 1.13488E-02 6.07907E-04-3.41030E-14
 -1      3243 1.18336E-02 7.03569E-04-3.73258E-14
 -1      3244 1.16898E-02 6.84133E-04-3.64084E-14
 -1      3245 1.16307E-02 6.40360E-04-3.58982E-14
 -1      3246 1.21202E-02 7.46527E-04-3.91810E-14
 -1      3247 1.19770E-02 7.24470E-04-3.82500E-14
 -1      3248 1.19114E-02 6.80017E-04-3.77267E-14
 -1      3249 1.24063E-02 7.92889E-04-4.10644E-14
 -1      3250 1.22633E-02 7.69396E-04-4.01188E-14
 -1      3251 1.21922E-02 7.24165E-04-3.95879E-14
 -1      3252 1.26924E-02 8.40856E-04-4.29747E-14
 -1      3253 1.25493E-02 8.16748E-04-4.20167E-14
 -1      3254 1.24739E-02 7.70825E-04-4.14777E-14
 -1      3255 1.29784E-02 8.89208E-04-4.49089E-14
 -1      3256 1.28354E-02 8.65033E-04-4.39391E-14
 -1      3257 1.27565E-02 8.18577E-04-4.33921E-14
 -1      3258 1.32645E-02 9.37157E-04-4.68670E-14
 -1      3259 1.31215E-02 9.13263E-04-4.58854E-14
 -1      3260 1.30400E-02 8.66443E-04-4.53287E-14
 -1      3261 1.35506E-02 9.84222E-04-4.88417E-14
 -1      3262 1.34076E-02 9.60817E-04-4.78538E-14
 -1      3263 1.33241E-02 9.13786E-04-4.72877E-14
 -1      3264 1.38367E-02 1.03015E-03-5.08215E-14
 -1      3265 1.36936E-02 1.00734E-03-4.98297E-14
 -1      3266 1.36088E-02 9.60220E-04-4.92602E-14
 -1      3267 1.41226E-02 1.07480E-03-5.28151E-14
 -1      3268 1.39797E-02 1.05263E-03-5.18166E-14
 -1      3269 1.38937E-02 1.00554E-03-5.12427E-14
 -1      3270 1.43191E-02 1.09115E-03-5.42067E-14
 -1      3271 1.42113E-02 1.08245E-03-5.34451E-14
 -1      3272 1.41249E-02 1.03549E-03-5.28647E-14
 -1      3273 1.43018E-02 1.05052E-03-5.41207E-14
 -1      3274 1.40439E-02 6.04438E-04-5.26506E-14
 -1      3275 1.40636E-02 6.43260E-04-5.27526E-14
 -1      3276 1.40831E-02 6.82654E-04-5.28542E-14
 -1      3277 1.41023E-02 7.22015E-04-5.29556E-14
 -1      3278 1.39516E-02 6.46828E-04-5.19362E-14
 -1      3279 6.42485E-03 2.45070E-04-1.56075E-14
 -1      3280 6.56425E-03 3.01126E-04-1.58163E-14
 -1      3281 6.19708E-03 9.62050E-05-1.51896E-14
 -1      3282 6.12791E-03 1.12149E-04-1.50962E-14
 -1      3283 1.03861E-03-2.50870E-04-4.14640E-16
 -1      3284 1.11830E-03-2.73003E-04-4.66708E-16
 -1      3285 1.26108E-03-2.93189E-04-5.81864E-16
 -1      3286 1.02446E-03-2.12537E-04-4.27664E-16
 -1      3287 1.40031E-02 5.25030E-04-5.24387E-14
 -1      3288 1.40237E-02 5.64824E-04-5.25451E-14
 -1      3289 1.39115E-02 5.68365E-04-5.17285E-14
 -1      3290 9.91245E-03 7.01045E-04-2.64200E-14
 -1      3291 1.00835E-02 6.17715E-04-2.68806E-14
 -1      3292 9.87325E-03 7.59087E-04-2.65490E-14
 -1      3293 1.39613E-02 4.44801E-04-5.22238E-14
 -1      3294 1.39823E-02 4.85037E-04-5.23307E-14
 -1      3295 1.38699E-02 4.89215E-04-5.15143E-14
 -1      3296 2.68437E-03 4.00485E-04-2.76060E-15
 -1      3297 2.54126E-03 3.99500E-04-2.49142E-15
 -1      3298 2.74987E-03 3.64138E-04-2.90536E-15
 -1      3299 3.54261E-03 3.89030E-04-4.65405E-15
 -1      3300 3.39959E-03 3.92568E-04-4.30580E-15
 -1      3301 3.60768E-03 3.51278E-04-4.83444E-15
 -1      3302 3.25658E-03 3.95550E-04-3.97005E-15
 -1      3303 3.11354E-03 3.97927E-04-3.64728E-15
 -1      3304 3.03626E-03 3.62479E-04-3.49539E-15
 -1      3305 3.32222E-03 3.57986E-04-4.13839E-15
 -1      3306 2.39811E-03 3.97362E-04-2.23515E-15
 -1      3307 2.25492E-03 3.93970E-04-1.99264E-15
 -1      3308 2.46310E-03 3.62191E-04-2.36830E-15
 -1      3309 1.02788E-02 5.40268E-04-2.74689E-14
 -1      3310 1.04372E-02 4.78829E-04-2.78622E-14
 -1      3311 6.08602E-03 1.26441E-04-1.50112E-14
 -1      3312 6.09117E-03 1.36889E-04-1.50146E-14
 -1      3313 7.21396E-03-3.38050E-04-1.67424E-14
 -1      3314 7.03313E-03-2.41237E-04-1.63805E-14
 -1      3315 6.43619E-03 2.17683E-05-1.54592E-14
 -1      3316 6.30375E-03 6.53335E-05-1.53149E-14
 -1      3317 1.08329E-02 3.27782E-04-2.83255E-14
 -1      3318 1.08430E-02 3.13822E-04-2.81395E-14
 -1      3319 1.08811E-02 3.16166E-04-2.86437E-14
 -1      3320 1.14520E-03 3.07830E-04-5.76687E-16
 -1      3321 1.08267E-03 2.69224E-04-5.36287E-16
 -1      3322 1.20182E-03 2.70177E-04-6.51565E-16
 -1      3323 1.28841E-03 3.29118E-04-7.11548E-16
 -1      3324 2.11167E-03 3.89094E-04-1.76364E-15
 -1      3325 1.96837E-03 3.82606E-04-1.54828E-15
 -1      3326 2.17600E-03 3.55639E-04-1.88410E-15
 -1      3327 9.88626E-03-6.46212E-05-2.59219E-14
 -1      3328 9.66815E-03-1.79914E-04-2.52822E-14
 -1      3329 9.61862E-03-2.34320E-04-2.53066E-14
 -1      3330 8.65072E-03-7.24515E-04-2.16556E-14
 -1      3331 8.48142E-03-7.74104E-04-2.09403E-14
 -1      3332 1.01704E-03 6.73851E-05-5.16717E-16
 -1      3333 1.01585E-03 4.07184E-05-5.13519E-16
 -1      3334 1.01524E-03 1.42691E-05-5.09250E-16
 -1      3335 1.01521E-03-1.20779E-05-5.03951E-16
 -1      3336 1.13585E-03 2.97492E-05-6.19039E-16
 -1      3337 1.15356E-03 2.09446E-04-6.25219E-16
 -1      3338 1.02882E-03 1.79321E-04-5.17327E-16
 -1      3339 1.02465E-03 1.50206E-04-5.19075E-16
 -1      3340 9.22408E-03-4.51953E-04-2.39113E-14
 -1      3341 1.88868E-03 3.43190E-04-1.45383E-15
 -1      3342 1.82502E-03 3.74208E-04-1.34667E-15
 -1      3343 1.68160E-03 3.63738E-04-1.15871E-15
 -1      3344 1.04371E-02 1.71122E-04-2.74733E-14
 -1      3345 9.10745E-03 1.14142E-03-2.38708E-14
 -1      3346 9.31889E-03 1.02896E-03-2.46207E-14
 -1      3347 8.95336E-03 1.20483E-03-2.32700E-14
 -1      3348 9.52217E-03 9.37312E-04-2.54007E-14
 -1      3349 6.89064E-03-1.97769E-04-1.59532E-14
 -1      3350 8.35510E-03-7.97557E-04-2.03756E-14
 -1      3351 7.96771E-03-7.70899E-04-1.87153E-14
 -1      3352 8.05061E-03-7.67961E-04-1.91080E-14
 -1      3353 7.79831E-03-7.26947E-04-1.80494E-14
 -1      3354 9.57290E-03-3.04894E-04-2.53762E-14
 -1      3355 9.51705E-03-4.01272E-04-2.53654E-14
 -1      3356 9.69454E-03-3.32042E-04-2.61505E-14
 -1      3357 9.76092E-03-1.98455E-04-2.60187E-14
 -1      3358 7.75346E-03-6.19111E-04-1.81885E-14
 -1      3359 1.08219E-02 3.46464E-04-2.85919E-14
 -1      3360 1.08901E-02 3.47856E-04-2.91028E-14
 -1      3361 1.08033E-02 3.69691E-04-2.88585E-14
 -1      3362 1.05660E-02 4.40836E-04-2.82720E-14
 -1      3363 1.06827E-02 4.14870E-04-2.86842E-14
 -1      3364 1.05373E-02 4.90917E-04-2.86051E-14
 -1      3365 6.50101E-03-2.18523E-05-1.53471E-14
 -1      3366 6.37570E-03-5.85803E-06-1.49050E-14
 -1      3367 6.56019E-03-7.07722E-05-1.52348E-14
 -1      3368 7.33191E-03-4.30154E-04-1.68793E-14
 -1      3369 6.54495E-03 3.85258E-04-1.49745E-14
 -1      3370 1.05051E-02 5.59726E-04-2.89915E-14
 -1      3371 1.03600E-02 6.29710E-04-2.86311E-14
 -1      3372 8.10956E-03-7.44808E-04-1.94644E-14
 -1      3373 1.02414E-03-1.47492E-04-4.63131E-16
 -1      3374 1.02819E-03-1.76501E-04-4.51340E-16
 -1      3375 6.20960E-03 6.91940E-05-1.48929E-14
 -1      3376 1.02253E-02 5.96670E-04-2.75991E-14
 -1      3377 1.41573E-02 8.39967E-04-5.32484E-14
 -1      3378 1.41750E-02 8.79636E-04-5.33447E-14
 -1      3379 1.01856E-03-9.19020E-05-4.82619E-16
 -1      3380 1.02096E-03-1.19336E-04-4.73498E-16
 -1      3381 1.14373E-03-1.44056E-04-5.69044E-16
 -1      3382 6.30634E-03 2.16909E-04-1.52037E-14
 -1      3383 1.41210E-02 7.61204E-04-5.30548E-14
 -1      3384 1.41393E-02 8.00623E-04-5.31525E-14
 -1      3385 1.40262E-02 8.02772E-04-5.23342E-14
 -1      3386 1.39898E-02 7.24822E-04-5.21372E-14
 -1      3387 6.06315E-03 1.11831E-04-1.46857E-14
 -1      3388 1.55664E-03 3.56513E-04-1.00420E-15
 -1      3389 1.41322E-03 3.41227E-04-8.42574E-16
 -1      3390 1.36948E-03 3.11330E-04-8.09818E-16
 -1      3391 1.61970E-03 3.28640E-04-1.09861E-15
 -1      3392 1.32501E-03-2.70191E-04-6.62434E-16
 -1      3393 7.07076E-03 5.50366E-04-1.68035E-14
 -1      3394 9.83347E-03-2.40899E-04-2.66330E-14
 -1      3395 8.40060E-03-7.86130E-04-2.05877E-14
 -1      3396 6.09517E-03 1.45828E-04-1.48732E-14
 -1      3397 6.10879E-03 1.57669E-04-1.47317E-14
 -1      3398 6.02773E-03 1.33108E-04-1.44621E-14
 -1      3399 1.01595E-02 4.23544E-05-2.69383E-14
 -1      3400 1.00253E-02-6.46872E-06-2.64284E-14
 -1      3401 9.95989E-03-6.35711E-05-2.64540E-14
 -1      3402 1.01856E-02 6.63832E-04-2.78155E-14
 -1      3403 7.70069E-03-6.59055E-04-1.77887E-14
 -1      3404 9.65316E-03 8.95573E-04-2.59664E-14
 -1      3405 9.84895E-03 8.23729E-04-2.67592E-14
 -1      3406 1.41959E-02 9.14201E-04-5.34679E-14
 -1      3407 1.42167E-02 9.48946E-04-5.35904E-14
 -1      3408 1.40647E-02 8.76203E-04-5.25528E-14
 -1      3409 1.08324E-02 2.90607E-04-2.86760E-14
 -1      3410 1.07528E-02 2.74473E-04-2.82492E-14
 -1      3411 1.07206E-02 2.55093E-04-2.84705E-14
 -1      3412 6.60259E-03 3.44183E-04-1.56239E-14
 -1      3413 1.02134E-03 1.21901E-04-5.19536E-16
 -1      3414 1.01886E-03 9.44067E-05-5.18723E-16
 -1      3415 1.13856E-03 8.74338E-05-6.26588E-16
 -1      3416 1.14423E-03 1.46920E-04-6.28783E-16
 -1      3417 1.38816E-02 3.85559E-04-5.17134E-14
 -1      3418 1.39316E-02 4.19440E-04-5.20366E-14
 -1      3419 1.38190E-02 4.24104E-04-5.12188E-14
 -1      3420 1.37592E-02 3.73531E-04-5.08479E-14
 -1      3421 1.00013E-02 7.43599E-04-2.72223E-14
 -1      3422 8.23376E-03-7.86418E-04-1.98866E-14
 -1      3423 1.86191E-03-2.73732E-04-1.27997E-15
 -1      3424 2.00595E-03-2.79943E-04-1.46907E-15
 -1      3425 2.15000E-03-2.84743E-04-1.67108E-15
 -1      3426 2.29405E-03-2.88238E-04-1.88635E-15
 -1      3427 2.07235E-03-2.47307E-04-1.59275E-15
 -1      3428 2.43801E-03-2.90619E-04-2.11522E-15
 -1      3429 2.58187E-03-2.91966E-04-2.35772E-15
 -1      3430 2.36067E-03-2.53699E-04-2.02635E-15
 -1      3431 2.72557E-03-2.92438E-04-2.61279E-15
 -1      3432 2.86911E-03-2.92095E-04-2.88166E-15
 -1      3433 2.64859E-03-2.56181E-04-2.51321E-15
 -1      3434 3.01245E-03-2.91066E-04-3.16457E-15
 -1      3435 3.15558E-03-2.89391E-04-3.46003E-15
 -1      3436 2.93575E-03-2.55565E-04-3.05409E-15
 -1      3437 3.29848E-03-2.87179E-04-3.76886E-15
 -1      3438 3.44115E-03-2.84456E-04-4.09072E-15
 -1      3439 3.22188E-03-2.52487E-04-3.64819E-15
 -1      3440 3.58356E-03-2.81318E-04-4.42555E-15
 -1      3441 3.72572E-03-2.77784E-04-4.77346E-15
 -1      3442 3.50676E-03-2.47449E-04-4.29473E-15
 -1      3443 3.86761E-03-2.73945E-04-5.13355E-15
 -1      3444 4.00927E-03-2.69822E-04-5.50577E-15
 -1      3445 3.79026E-03-2.40858E-04-4.99251E-15
 -1      3446 4.15066E-03-2.65510E-04-5.89046E-15
 -1      3447 4.29184E-03-2.61040E-04-6.28822E-15
 -1      3448 4.07228E-03-2.33083E-04-5.73994E-15
 -1      3449 4.43281E-03-2.56518E-04-6.69790E-15
 -1      3450 4.57366E-03-2.52000E-04-7.11913E-15
 -1      3451 4.35281E-03-2.24506E-04-6.53611E-15
 -1      3452 4.71439E-03-2.47607E-04-7.55407E-15
 -1      3453 4.85516E-03-2.43438E-04-8.00076E-15
 -1      3454 4.63204E-03-2.15585E-04-7.38311E-15
 -1      3455 4.99602E-03-2.39630E-04-8.45951E-15
 -1      3456 5.13720E-03-2.36359E-04-8.93174E-15
 -1      3457 4.91040E-03-2.06919E-04-8.27870E-15
 -1      3458 5.27884E-03-2.33771E-04-9.41566E-15
 -1      3459 5.42127E-03-2.32177E-04-9.91256E-15
 -1      3460 5.18876E-03-1.99332E-04-9.22480E-15
 -1      3461 5.56474E-03-2.31724E-04-1.04210E-14
 -1      3462 5.70974E-03-2.32957E-04-1.09426E-14
 -1      3463 5.46870E-03-1.94029E-04-1.02211E-14
 -1      3464 5.85669E-03-2.36017E-04-1.14757E-14
 -1      3465 6.00622E-03-2.41838E-04-1.20194E-14
 -1      3466 5.75287E-03-1.92884E-04-1.12648E-14
 -1      3467 6.15898E-03-2.50541E-04-1.25759E-14
 -1      3468 6.31567E-03-2.63746E-04-1.31459E-14
 -1      3469 6.04540E-03-1.99040E-04-1.23564E-14
 -1      3470 6.47736E-03-2.81626E-04-1.37253E-14
 -1      3471 6.64410E-03-3.06550E-04-1.43160E-14
 -1      3472 6.35245E-03-2.18033E-04-1.34937E-14
 -1      3473 9.91020E-03-1.18855E-04-2.65110E-14
 -1      3474 9.85908E-03-1.92475E-04-2.65806E-14
 -1      3475 9.96867E-03-1.68716E-04-2.71315E-14
 -1      3476 1.00416E-02-6.58441E-05-2.70222E-14
 -1      3477 8.76114E-03-6.90788E-04-2.21121E-14
 -1      3478 1.04190E-02-4.48106E-05-2.93092E-14
 -1      3479 1.05767E-02-1.07042E-05-3.01394E-14
 -1      3480 1.07303E-02 1.86843E-05-3.09829E-14
 -1      3481 1.08805E-02 4.49801E-05-3.18335E-14
 -1      3482 1.07084E-02 5.18063E-05-3.06485E-14
 -1      3483 1.10280E-02 6.83397E-05-3.26940E-14
 -1      3484 1.11733E-02 8.98044E-05-3.35639E-14
 -1      3485 1.10021E-02 9.86442E-05-3.23508E-14
 -1      3486 1.13170E-02 1.09496E-04-3.44401E-14
 -1      3487 1.14595E-02 1.28007E-04-3.53246E-14
 -1      3488 1.12867E-02 1.37695E-04-3.40897E-14
 -1      3489 1.16011E-02 1.45479E-04-3.62214E-14
 -1      3490 1.17422E-02 1.62244E-04-3.71243E-14
 -1      3491 1.15666E-02 1.72376E-04-3.58618E-14
 -1      3492 1.18828E-02 1.78445E-04-3.80327E-14
 -1      3493 1.20234E-02 1.94270E-04-3.89537E-14
 -1      3494 1.18445E-02 2.04680E-04-3.76696E-14
 -1      3495 1.21638E-02 2.09847E-04-3.98829E-14
 -1      3496 1.23042E-02 2.25281E-04-4.08192E-14
 -1      3497 1.21221E-02 2.35849E-04-3.95110E-14
 -1      3498 1.24447E-02 2.40679E-04-4.17617E-14
 -1      3499 1.25854E-02 2.56097E-04-4.27125E-14
 -1      3500 1.24002E-02 2.66703E-04-4.13860E-14
 -1      3501 1.27262E-02 2.71618E-04-4.36725E-14
 -1      3502 1.28672E-02 2.87268E-04-4.46347E-14
 -1      3503 1.26793E-02 2.97792E-04-4.32879E-14
 -1      3504 1.30084E-02 3.03107E-04-4.56035E-14
 -1      3505 1.31498E-02 3.19143E-04-4.65788E-14
 -1      3506 1.29596E-02 3.29475E-04-4.52180E-14
 -1      3507 1.32913E-02 3.35420E-04-4.75562E-14
 -1      3508 1.34330E-02 3.51927E-04-4.85443E-14
 -1      3509 1.32410E-02 3.61970E-04-4.71642E-14
 -1      3510 3.95567E-03 3.05879E-04-5.77548E-15
 -1      3511 3.81412E-03 3.10093E-04-5.38839E-15
 -1      3512 4.79615E-03 2.79188E-04-8.36738E-15
 -1      3513 4.65725E-03 2.83318E-04-7.90299E-15
 -1      3514 5.07228E-03 2.72503E-04-9.33226E-15
 -1      3515 4.93445E-03 2.75554E-04-8.84396E-15
 -1      3516 4.84858E-03 2.45678E-04-8.59012E-15
 -1      3517 5.34641E-03 2.69166E-04-1.03468E-14
 -1      3518 5.20951E-03 2.70324E-04-9.83324E-15
 -1      3519 5.11920E-03 2.40127E-04-9.56554E-15
 -1      3520 5.61936E-03 2.71151E-04-1.14079E-14
 -1      3521 5.48286E-03 2.69350E-04-1.08712E-14
 -1      3522 5.38637E-03 2.37726E-04-1.05886E-14
 -1      3523 5.89323E-03 2.81110E-04-1.25155E-14
 -1      3524 5.75584E-03 2.74881E-04-1.19563E-14
 -1      3525 5.65057E-03 2.40028E-04-1.16589E-14
 -1      3526 6.17238E-03 3.02988E-04-1.36669E-14
 -1      3527 6.03152E-03 2.90171E-04-1.30859E-14
 -1      3528 5.91353E-03 2.49095E-04-1.27756E-14
 -1      3529 1.06270E-02 5.22727E-04-2.94100E-14
 -1      3530 7.53584E-03-5.70137E-04-1.72943E-14
 -1      3531 7.75023E-03-6.51921E-04-1.80417E-14
 -1      3532 1.11644E-02 5.52812E-04-3.27286E-14
 -1      3533 1.10254E-02 5.43071E-04-3.18640E-14
 -1      3534 6.17209E-03 1.87942E-04-1.46938E-14
 -1      3535 6.26823E-03 2.30897E-04-1.47510E-14
 -1      3536 6.20913E-03 3.96647E-05-1.45519E-14
 -1      3537 6.11407E-03 6.92643E-05-1.44303E-14
 -1      3538 1.14385E-03-2.12864E-04-5.30622E-16
 -1      3539 6.88116E-03-2.51731E-04-1.55950E-14
 -1      3540 6.70969E-03-1.59055E-04-1.53274E-14
 -1      3541 1.08993E-02 5.30288E-04-3.10499E-14
 -1      3542 1.07561E-02 5.28265E-04-3.02037E-14
 -1      3543 1.07737E-02 4.67938E-04-2.98104E-14
 -1      3544 1.10084E-02 4.94841E-04-3.14189E-14
 -1      3545 1.17117E-02 6.17046E-04-3.62918E-14
 -1      3546 1.15750E-02 5.98197E-04-3.53880E-14
 -1      3547 1.19857E-02 6.58428E-04-3.81276E-14
 -1      3548 1.18484E-02 6.37192E-04-3.72046E-14
 -1      3549 1.17878E-02 5.96007E-04-3.66846E-14
 -1      3550 1.22616E-02 7.03134E-04-3.99930E-14
 -1      3551 1.21234E-02 6.80447E-04-3.90562E-14
 -1      3552 1.20564E-02 6.38280E-04-3.85253E-14
 -1      3553 1.25395E-02 7.49664E-04-4.18891E-14
 -1      3554 1.24003E-02 7.26229E-04-4.09385E-14
 -1      3555 1.23282E-02 6.83014E-04-4.03969E-14
 -1      3556 1.28193E-02 7.96907E-04-4.38046E-14
 -1      3557 1.26792E-02 7.73236E-04-4.28439E-14
 -1      3558 1.26031E-02 7.29075E-04-4.22974E-14
 -1      3559 1.31005E-02 8.44086E-04-4.57460E-14
 -1      3560 1.29597E-02 8.20531E-04-4.47732E-14
 -1      3561 1.28805E-02 7.75593E-04-4.42171E-14
 -1      3562 1.33830E-02 8.90685E-04-4.77049E-14
 -1      3563 1.32416E-02 8.67474E-04-4.67222E-14
 -1      3564 1.31600E-02 8.21944E-04-4.61600E-14
 -1      3565 1.36664E-02 9.36389E-04-4.96764E-14
 -1      3566 1.35246E-02 9.13655E-04-4.86916E-14
 -1      3567 1.34412E-02 8.67707E-04-4.81189E-14
 -1      3568 1.39505E-02 9.81047E-04-5.16608E-14
 -1      3569 1.38084E-02 9.58857E-04-5.06684E-14
 -1      3570 1.37236E-02 9.12641E-04-5.00949E-14
 -1      3571 1.38200E-02 6.10993E-04-5.10190E-14
 -1      3572 1.38397E-02 6.49815E-04-5.11205E-14
 -1      3573 1.01573E-03-3.84579E-05-4.97771E-16
 -1      3574 1.01683E-03-6.49831E-05-4.90615E-16
 -1      3575 1.13828E-03-8.48290E-05-5.90253E-16
 -1      3576 1.14386E-02 5.80957E-04-3.44906E-14
 -1      3577 1.13018E-02 5.65749E-04-3.36051E-14
 -1      3578 1.15224E-02 5.57599E-04-3.48785E-14
 -1      3579 6.04360E-03 9.34458E-05-1.43503E-14
 -1      3580 6.00067E-03 1.09308E-04-1.42672E-14
 -1      3581 6.02641E-03 7.05770E-05-1.40172E-14
 -1      3582 1.32652E-03 2.82205E-04-7.76682E-16
 -1      3583 1.28436E-03 2.53837E-04-7.43207E-16
 -1      3584 1.45155E-03 2.91895E-04-9.12383E-16
 -1      3585 4.51788E-03 2.87703E-04-7.45106E-15
 -1      3586 4.37797E-03 2.92291E-04-7.01183E-15
 -1      3587 4.57461E-03 2.53103E-04-7.66424E-15
 -1      3588 4.23763E-03 2.96891E-04-6.58645E-15
 -1      3589 4.09683E-03 3.01469E-04-6.17468E-15
 -1      3590 4.01811E-03 2.69642E-04-5.96677E-15
 -1      3591 4.29764E-03 2.61364E-04-6.78918E-15
 -1      3592 1.05566E-02 1.90551E-04-2.82160E-14
 -1      3593 1.03737E-02 1.25853E-04-2.76462E-14
 -1      3594 2.52869E-03 3.26763E-04-2.50165E-15
 -1      3595 2.38498E-03 3.24846E-04-2.24695E-15
 -1      3596 1.32677E-03-2.27831E-04-6.94974E-16
 -1      3597 1.01145E-02-1.23723E-04-2.78046E-14
 -1      3598 1.02818E-02-7.84994E-05-2.86206E-14
 -1      3599 1.04238E-02-4.75623E-06-2.91167E-14
 -1      3600 1.01462E-02-7.49982E-05-2.77510E-14
 -1      3601 6.37971E-03 3.13872E-04-1.46206E-14
 -1      3602 2.81573E-03 3.27701E-04-3.05027E-15
 -1      3603 2.67228E-03 3.27691E-04-2.76957E-15
 -1      3604 2.59482E-03 2.91175E-04-2.63545E-15
 -1      3605 3.67227E-03 3.13996E-04-5.01446E-15
 -1      3606 3.53010E-03 3.17563E-04-4.65411E-15
 -1      3607 3.73643E-03 2.77290E-04-5.19505E-15
 -1      3608 1.37369E-02 4.54044E-04-5.05939E-14
 -1      3609 1.37582E-02 4.93636E-04-5.07025E-14
 -1      3610 1.57432E-03-2.56289E-04-9.40532E-16
 -1      3611 1.71803E-03-2.65886E-04-1.10366E-15
 -1      3612 1.78419E-03-2.36021E-04-1.21127E-15
 -1      3613 1.09376E-02 3.28793E-04-2.92894E-14
 -1      3614 1.09126E-02 3.14163E-04-2.90964E-14
 -1      3615 1.42488E-02 9.81978E-04-5.37948E-14
 -1      3616 1.42696E-02 1.01711E-03-5.39159E-14
 -1      3617 1.41813E-02 1.00967E-03-5.32908E-14
 -1      3618 1.41174E-02 9.43464E-04-5.28812E-14
 -1      3619 1.37792E-02 5.32953E-04-5.08088E-14
 -1      3620 1.37998E-02 5.72063E-04-5.09146E-14
 -1      3621 1.36884E-02 5.75521E-04-5.01036E-14
 -1      3622 1.36468E-02 4.97893E-04-4.98943E-14
 -1      3623 2.24117E-03 3.21761E-04-2.00511E-15
 -1      3624 2.09729E-03 3.17411E-04-1.77679E-15
 -1      3625 2.30707E-03 2.87541E-04-2.12704E-15
 -1      3626 6.23694E-03 2.59722E-04-1.42935E-14
 -1      3627 7.92043E-03-7.02794E-04-1.86961E-14
 -1      3628 8.07147E-03-7.48067E-04-1.92609E-14
 -1      3629 1.26760E-03-1.73247E-04-6.70606E-16
 -1      3630 1.44712E-03-2.24762E-04-8.22706E-16
 -1      3631 1.51371E-03-1.98377E-04-9.14281E-16
 -1      3632 1.26364E-03-1.41012E-04-6.84226E-16
 -1      3633 1.27774E-03 2.19523E-04-7.47327E-16
 -1      3634 1.95339E-03 3.11578E-04-1.56242E-15
 -1      3635 1.80949E-03 3.04139E-04-1.36113E-15
 -1      3636 2.01897E-03 2.79419E-04-1.67169E-15
 -1      3637 1.25772E-03 4.71166E-05-7.39778E-16
 -1      3638 1.25696E-03 1.65281E-05-7.33883E-16
 -1      3639 1.09117E-02 3.04343E-04-2.93237E-14
 -1      3640 6.81736E-03-3.38373E-04-1.49194E-14
 -1      3641 6.99594E-03-3.80011E-04-1.55332E-14
 -1      3642 7.10983E-03-3.88010E-04-1.60045E-14
 -1      3643 7.29777E-03-4.48046E-04-1.66349E-14
 -1      3644 1.06713E-02 2.24970E-04-2.86478E-14
 -1      3645 1.06242E-02 1.88183E-04-2.88245E-14
 -1      3646 1.07744E-02 2.51380E-04-2.90807E-14
 -1      3647 1.35348E-02 3.56770E-04-4.92644E-14
 -1      3648 1.36570E-02 3.68473E-04-5.01222E-14
 -1      3649 1.36871E-02 3.93671E-04-5.03068E-14
 -1      3650 1.34835E-02 3.83532E-04-4.88635E-14
 -1      3651 1.07834E-02 4.05161E-04-2.91974E-14
 -1      3652 6.56673E-03-1.27211E-04-1.48853E-14
 -1      3653 3.10211E-03 3.25449E-04-3.65216E-15
 -1      3654 2.95901E-03 3.26937E-04-3.34456E-15
 -1      3655 2.88190E-03 2.91279E-04-3.19569E-15
 -1      3656 1.12590E-02 5.24776E-04-3.31084E-14
 -1      3657 5.93508E-03 1.02163E-04-1.38026E-14
 -1      3658 5.97645E-03 1.18175E-04-1.41309E-14
 -1      3659 5.96311E-03 1.27247E-04-1.39945E-14
 -1      3660 1.37279E-02 6.52337E-04-5.03085E-14
 -1      3661 1.38588E-02 6.88403E-04-5.12213E-14
 -1      3662 1.38774E-02 7.27001E-04-5.13212E-14
 -1      3663 1.40930E-02 1.00209E-03-5.26608E-14
 -1      3664 3.45296E-03 2.83776E-04-4.47542E-15
 -1      3665 3.38768E-03 3.20692E-04-4.30716E-15
 -1      3666 3.24500E-03 3.23355E-04-3.97253E-15
 -1      3667 1.40072E-02 9.55737E-04-5.20835E-14
 -1      3668 1.03061E-02 7.73047E-05-2.76735E-14
 -1      3669 1.25922E-03 7.78717E-05-7.43912E-16
 -1      3670 1.38073E-03 6.60172E-05-8.70492E-16
 -1      3671 1.26148E-03 1.08995E-04-7.46907E-16
 -1      3672 6.68193E-03-2.59952E-04-1.46768E-14
 -1      3673 1.13576E-03-2.73124E-05-6.06842E-16
 -1      3674 1.38955E-02 7.65649E-04-5.14187E-14
 -1      3675 1.39131E-02 8.04429E-04-5.15172E-14
 -1      3676 1.37650E-02 7.28841E-04-5.05088E-14
 -1      3677 1.39339E-02 8.38372E-04-5.16393E-14
 -1      3678 1.39545E-02 8.72509E-04-5.17623E-14
 -1      3679 1.38036E-02 8.00789E-04-5.07307E-14
 -1      3680 6.29597E-03-3.16899E-05-1.43335E-14
 -1      3681 6.25250E-03 6.42354E-06-1.44433E-14
 -1      3682 6.13787E-03 1.20255E-05-1.39876E-14
 -1      3683 1.09545E-02 3.44306E-04-2.95584E-14
 -1      3684 1.10082E-02 3.42305E-04-3.00188E-14
 -1      3685 1.09619E-02 3.62250E-04-2.98305E-14
 -1      3686 6.07072E-03 1.68493E-04-1.42872E-14
 -1      3687 1.37171E-02 4.18790E-04-5.04935E-14
 -1      3688 1.36053E-02 4.23760E-04-4.96860E-14
 -1      3689 1.99535E-03-2.10339E-04-1.51401E-15
 -1      3690 2.13957E-03-2.14161E-04-1.71899E-15
 -1      3691 1.10036E-02 3.16884E-04-3.01300E-14
 -1      3692 1.09169E-02 2.90605E-04-2.97029E-14
 -1      3693 2.28380E-03-2.16982E-04-1.93765E-15
 -1      3694 2.42798E-03-2.18871E-04-2.16934E-15
 -1      3695 2.20751E-03-1.80556E-04-1.84928E-15
 -1      3696 2.57201E-03-2.19962E-04-2.41404E-15
 -1      3697 2.71586E-03-2.20304E-04-2.67187E-15
 -1      3698 2.49591E-03-1.83825E-04-2.31480E-15
 -1      3699 2.85945E-03-2.20014E-04-2.94384E-15
 -1      3700 3.00276E-03-2.19120E-04-3.22936E-15
 -1      3701 2.78361E-03-1.84415E-04-2.83397E-15
 -1      3702 3.14574E-03-2.17723E-04-3.52752E-15
 -1      3703 3.28836E-03-2.15835E-04-3.83893E-15
 -1      3704 3.07012E-03-1.82848E-04-3.40633E-15
 -1      3705 3.43058E-03-2.13543E-04-4.16340E-15
 -1      3706 3.57238E-03-2.10848E-04-4.50074E-15
 -1      3707 3.35504E-03-1.79520E-04-4.03199E-15
 -1      3708 3.71372E-03-2.07829E-04-4.85099E-15
 -1      3709 3.85461E-03-2.04479E-04-5.21343E-15
 -1      3710 3.63803E-03-1.74734E-04-4.70911E-15
 -1      3711 3.99499E-03-2.00875E-04-5.58883E-15
 -1      3712 4.13488E-03-1.97009E-04-5.97603E-15
 -1      3713 3.91881E-03-1.68720E-04-5.43700E-15
 -1      3714 4.27426E-03-1.92961E-04-6.37572E-15
 -1      3715 4.41316E-03-1.88726E-04-6.78727E-15
 -1      3716 4.19717E-03-1.61668E-04-6.21439E-15
 -1      3717 4.55154E-03-1.84389E-04-7.21146E-15
 -1      3718 4.68952E-03-1.79964E-04-7.64837E-15
 -1      3719 4.47296E-03-1.53754E-04-7.04092E-15
 -1      3720 4.82707E-03-1.75540E-04-8.09755E-15
 -1      3721 4.96436E-03-1.71165E-04-8.55959E-15
 -1      3722 4.74619E-03-1.45180E-04-7.91623E-15
 -1      3723 5.10140E-03-1.66930E-04-9.03387E-15
 -1      3724 5.23850E-03-1.62949E-04-9.52098E-15
 -1      3725 5.01711E-03-1.36205E-04-8.84235E-15
 -1      3726 5.37569E-03-1.59301E-04-1.00194E-14
 -1      3727 5.51349E-03-1.56261E-04-1.05305E-14
 -1      3728 5.28643E-03-1.27198E-04-9.81875E-15
 -1      3729 5.65203E-03-1.53876E-04-1.10549E-14
 -1      3730 5.79211E-03-1.52742E-04-1.15897E-14
 -1      3731 5.55556E-03-1.18805E-04-1.08439E-14
 -1      3732 5.93398E-03-1.52941E-04-1.21365E-14
 -1      3733 6.07885E-03-1.55540E-04-1.26941E-14
 -1      3734 5.82717E-03-1.12379E-04-1.19160E-14
 -1      3735 1.02418E-02 2.69101E-05-2.76844E-14
 -1      3736 1.01940E-02-2.48120E-05-2.77431E-14
 -1      3737 1.03329E-02 1.04176E-05-2.84221E-14
 -1      3738 1.04422E-02 1.04499E-04-2.84016E-14
 -1      3739 5.16483E-03 2.09513E-04-9.79806E-15
 -1      3740 5.03298E-03 2.11363E-04-9.29917E-15
 -1      3741 3.80033E-03 2.41257E-04-5.37564E-15
 -1      3742 3.65952E-03 2.44445E-04-5.00312E-15
 -1      3743 1.37907E-03 1.41182E-06-8.57631E-16
 -1      3744 1.25691E-03-1.39262E-05-7.26836E-16
 -1      3745 1.25757E-03-4.44373E-05-7.18650E-16
 -1      3746 1.09804E-02 1.29096E-04-3.20085E-14
 -1      3747 1.11207E-02 1.47980E-04-3.28699E-14
 -1      3748 1.12594E-02 1.65548E-04-3.37391E-14
 -1      3749 1.13971E-02 1.82418E-04-3.46158E-14
 -1      3750 1.12349E-02 1.93180E-04-3.33872E-14
 -1      3751 1.15341E-02 1.98652E-04-3.55024E-14
 -1      3752 1.16710E-02 2.14535E-04-3.64004E-14
 -1      3753 1.15036E-02 2.24328E-04-3.51456E-14
 -1      3754 1.18076E-02 2.30148E-04-3.73073E-14
 -1      3755 1.19445E-02 2.45620E-04-3.82188E-14
 -1      3756 1.17721E-02 2.54841E-04-3.69398E-14
 -1      3757 1.20815E-02 2.61036E-04-3.91385E-14
 -1      3758 1.22188E-02 2.76446E-04-4.00718E-14
 -1      3759 1.20418E-02 2.85385E-04-3.87704E-14
 -1      3760 1.23565E-02 2.91932E-04-4.10093E-14
 -1      3761 1.24946E-02 3.07504E-04-4.19528E-14
 -1      3762 1.23135E-02 3.16334E-04-4.06322E-14
 -1      3763 1.26331E-02 3.23234E-04-4.29065E-14
 -1      3764 1.27720E-02 3.39113E-04-4.38663E-14
 -1      3765 1.25874E-02 3.47907E-04-4.25239E-14
 -1      3766 1.29113E-02 3.55199E-04-4.48285E-14
 -1      3767 1.30511E-02 3.71474E-04-4.57978E-14
 -1      3768 1.28635E-02 3.80239E-04-4.44411E-14
 -1      3769 1.31912E-02 3.87979E-04-4.67725E-14
 -1      3770 1.33316E-02 4.04693E-04-4.77513E-14
 -1      3771 1.31417E-02 4.13403E-04-4.63786E-14
 -1      3772 1.35039E-02 4.18510E-04-4.89651E-14
 -1      3773 4.89999E-03 2.13733E-04-8.81302E-15
 -1      3774 4.76577E-03 2.16645E-04-8.33918E-15
 -1      3775 4.95071E-03 1.83395E-04-9.03516E-15
 -1      3776 5.67914E-03 2.10959E-04-1.19093E-14
 -1      3777 5.55235E-03 2.09047E-04-1.13638E-14
 -1      3778 5.92925E-03 2.19172E-04-1.30344E-14
 -1      3779 5.80441E-03 2.14338E-04-1.24665E-14
 -1      3780 5.70540E-03 1.84037E-04-1.21589E-14
 -1      3781 1.21235E-02 6.19346E-04-3.89209E-14
 -1      3782 1.19907E-02 5.97801E-04-3.79950E-14
 -1      3783 1.06926E-02 8.57461E-05-3.03142E-14
 -1      3784 1.08381E-02 1.08790E-04-3.11565E-14
 -1      3785 1.09631E-02 1.59925E-04-3.16659E-14
 -1      3786 6.09358E-03 2.28844E-04-1.37979E-14
 -1      3787 1.23921E-02 6.63646E-04-4.08006E-14
 -1      3788 1.22573E-02 6.41290E-04-3.98565E-14
 -1      3789 1.21870E-02 6.01084E-04-3.93171E-14
 -1      3790 1.18592E-02 5.76919E-04-3.70761E-14
 -1      3791 1.17288E-02 5.56682E-04-3.61650E-14
 -1      3792 1.19259E-02 5.59033E-04-3.74648E-14
 -1      3793 1.26646E-02 7.08946E-04-4.27004E-14
 -1      3794 1.25279E-02 6.86195E-04-4.17473E-14
 -1      3795 1.24535E-02 6.44630E-04-4.11990E-14
 -1      3796 1.29402E-02 7.54553E-04-4.46278E-14
 -1      3797 1.28021E-02 7.31729E-04-4.36622E-14
 -1      3798 1.27242E-02 6.88977E-04-4.31063E-14
 -1      3799 1.32184E-02 7.99954E-04-4.65730E-14
 -1      3800 1.30790E-02 7.77292E-04-4.55990E-14
 -1      3801 1.29986E-02 7.33560E-04-4.50370E-14
 -1      3802 1.34985E-02 8.44810E-04-4.85344E-14
 -1      3803 1.33582E-02 8.22460E-04-4.75513E-14
 -1      3804 1.32758E-02 7.77950E-04-4.69842E-14
 -1      3805 2.37368E-03 2.53007E-04-2.24958E-15
 -1      3806 2.22956E-03 2.50413E-04-2.00899E-15
 -1      3807 1.25897E-03-7.51027E-05-7.09082E-16
 -1      3808 1.26111E-03-1.06115E-04-6.98348E-16
 -1      3809 1.38052E-03-6.30927E-05-8.38969E-16
 -1      3810 1.15999E-02 5.37387E-04-3.52636E-14
 -1      3811 1.14720E-02 5.19006E-04-3.43721E-14
 -1      3812 1.16710E-02 5.19247E-04-3.56473E-14
 -1      3813 5.99605E-03 4.48153E-05-1.36247E-14
 -1      3814 5.93248E-03 7.01300E-05-1.35474E-14
 -1      3815 1.42672E-03 2.27199E-04-9.07640E-16
 -1      3816 1.29649E-03 1.85804E-04-7.75015E-16
 -1      3817 1.54342E-03 2.91264E-04-1.02159E-15
 -1      3818 1.50123E-03 2.62794E-04-9.82518E-16
 -1      3819 1.51893E-03 2.25551E-04-1.01515E-15
 -1      3820 1.66882E-03 2.97259E-04-1.17626E-15
 -1      3821 4.63052E-03 2.19849E-04-7.87723E-15
 -1      3822 4.49421E-03 2.23354E-04-7.42795E-15
 -1      3823 4.68587E-03 1.87991E-04-8.08973E-15
 -1      3824 1.39755E-02 9.22863E-04-5.18804E-14
 -1      3825 1.13456E-02 5.01851E-04-3.34862E-14
 -1      3826 1.12199E-02 4.85940E-04-3.26128E-14
 -1      3827 1.14234E-02 4.82416E-04-3.38656E-14
 -1      3828 5.42457E-03 2.08212E-04-1.08303E-14
 -1      3829 5.29529E-03 2.08473E-04-1.03083E-14
 -1      3830 5.46145E-03 1.80660E-04-1.10707E-14
 -1      3831 6.96378E-03-2.95348E-04-1.57538E-14
 -1      3832 1.08840E-02 4.20298E-04-2.99906E-14
 -1      3833 1.38448E-02 8.84381E-04-5.09690E-14
 -1      3834 1.70736E-03-1.99175E-04-1.14241E-15
 -1      3835 1.85125E-03-2.05371E-04-1.32182E-15
 -1      3836 1.91908E-03-1.73970E-04-1.43561E-15
 -1      3837 1.29213E-03 1.52939E-04-7.75679E-16
 -1      3838 5.97302E-03 1.48790E-04-1.38685E-14
 -1      3839 6.01521E-03 1.76694E-04-1.38312E-14
 -1      3840 2.66150E-03 2.55471E-04-2.76923E-15
 -1      3841 2.51767E-03 2.54671E-04-2.50303E-15
 -1      3842 2.44093E-03 2.18231E-04-2.37241E-15
 -1      3843 5.97839E-03 1.93014E-04-1.34748E-14
 -1      3844 1.34530E-02 4.44412E-04-4.85694E-14
 -1      3845 2.08540E-03 2.46734E-04-1.78223E-15
 -1      3846 1.94125E-03 2.41872E-04-1.56849E-15
 -1      3847 2.15259E-03 2.13564E-04-1.89363E-15
 -1      3848 1.08915E-02 2.68093E-04-2.98865E-14
 -1      3849 1.73406E-03 2.68020E-04-1.27315E-15
 -1      3850 1.06027E-02 1.52564E-04-2.90988E-14
 -1      3851 1.05481E-02 1.10670E-04-2.91098E-14
 -1      3852 6.22727E-03-1.60567E-04-1.32641E-14
 -1      3853 6.38079E-03-1.70493E-04-1.38447E-14
 -1      3854 3.94053E-03 2.37875E-04-5.76091E-15
 -1      3855 3.86406E-03 2.05980E-04-5.55622E-15
 -1      3856 4.08010E-03 2.34297E-04-6.15850E-15
 -1      3857 1.06256E-02 9.10954E-05-2.98143E-14
 -1      3858 1.07623E-02 1.47908E-04-3.03139E-14
 -1      3859 3.58341E-03 2.11425E-04-4.81375E-15
 -1      3860 3.51819E-03 2.47324E-04-4.64430E-15
 -1      3861 3.37636E-03 2.49890E-04-4.29871E-15
 -1      3862 5.20957E-03 1.80700E-04-1.00294E-14
 -1      3863 1.34748E-02 4.83155E-04-4.86754E-14
 -1      3864 5.84384E-03 6.09668E-05-1.30335E-14
 -1      3865 5.88867E-03 8.28338E-05-1.34159E-14
 -1      3866 5.85405E-03 9.37355E-05-1.32839E-14
 -1      3867 1.38471E-03-1.32152E-04-8.12555E-16
 -1      3868 1.35973E-02 6.16736E-04-4.94018E-14
 -1      3869 1.36165E-02 6.54612E-04-4.95025E-14
 -1      3870 3.16803E-03 2.88610E-04-3.80907E-15
 -1      3871 1.04666E-02 4.02164E-05-2.91094E-14
 -1      3872 6.77848E-03-2.52987E-04-1.51303E-14
 -1      3873 5.90242E-03 1.32007E-04-1.35453E-14
 -1      3874 1.37038E-02 8.62669E-04-4.99805E-14
 -1      3875 1.36195E-02 8.17646E-04-4.94068E-14
 -1      3876 5.87040E-03 1.71011E-04-1.30683E-14
 -1      3877 6.01977E-03 1.90599E-05-1.35191E-14
 -1      3878 5.90896E-03 2.26691E-05-1.30592E-14
 -1      3879 6.04666E-03-1.04389E-05-1.34134E-14
 -1      3880 4.41595E-03 1.93727E-04-7.19403E-15
 -1      3881 4.35702E-03 2.26955E-04-6.99146E-15
 -1      3882 4.21894E-03 2.30658E-04-6.56850E-15
 -1      3883 2.94842E-03 2.54930E-04-3.34119E-15
 -1      3884 2.80509E-03 2.55542E-04-3.04859E-15
 -1      3885 2.72866E-03 2.19734E-04-2.90336E-15
 -1      3886 1.41321E-03 1.44084E-04-9.07355E-16
 -1      3887 1.36350E-02 6.92464E-04-4.96025E-14
 -1      3888 1.36529E-02 7.30400E-04-4.97019E-14
 -1      3889 1.35053E-02 6.56505E-04-4.86995E-14
 -1      3890 1.36265E-02 7.57380E-04-4.94956E-14
 -1      3891 1.36468E-02 7.90636E-04-4.96183E-14
 -1      3892 1.34432E-02 7.73530E-04-4.81762E-14
 -1      3893 1.34973E-02 7.20585E-04-4.85933E-14
 -1      3894 6.34382E-03-8.09404E-05-1.41968E-14
 -1      3895 6.21316E-03-6.58569E-05-1.37456E-14
 -1      3896 1.09903E-02 4.43812E-04-3.08786E-14
 -1      3897 1.09750E-02 3.91280E-04-3.02520E-14
 -1      3898 6.10611E-03-1.10737E-04-1.30333E-14
 -1      3899 1.11854E-02 4.40026E-04-3.20600E-14
 -1      3900 1.10994E-02 4.61335E-04-3.16906E-14
 -1      3901 1.10536E-02 3.85515E-04-3.07175E-14
 -1      3902 1.50478E-03 8.62177E-05-1.01183E-15
 -1      3903 1.50306E-03 5.21947E-05-1.00618E-15
 -1      3904 1.58108E-03-1.70883E-04-1.00957E-15
 -1      3905 1.50217E-03 1.83666E-05-9.99079E-16
 -1      3906 1.50212E-03-1.53976E-05-9.90148E-16
 -1      3907 1.62611E-03 3.66813E-05-1.15070E-15
 -1      3908 1.10792E-02 3.49717E-04-3.06833E-14
 -1      3909 1.10466E-02 3.33531E-04-3.04066E-14
 -1      3910 1.10739E-02 3.22853E-04-3.07945E-14
 -1      3911 1.07154E-02 1.89081E-04-2.95375E-14
 -1      3912 6.46660E-03-1.55260E-04-1.42850E-14
 -1      3913 6.60702E-03-2.24445E-04-1.45237E-14
 -1      3914 1.35569E-02 5.40355E-04-4.91962E-14
 -1      3915 1.35774E-02 5.78632E-04-4.92993E-14
 -1      3916 1.34668E-02 5.81412E-04-4.84977E-14
 -1      3917 2.42041E-03-1.47864E-04-2.21624E-15
 -1      3918 2.56449E-03-1.48600E-04-2.46324E-15
 -1      3919 2.70834E-03-1.48825E-04-2.72433E-15
 -1      3920 2.85190E-03-1.48557E-04-2.99824E-15
 -1      3921 2.63367E-03-1.13264E-04-2.61504E-15
 -1      3922 2.99510E-03-1.47881E-04-3.28582E-15
 -1      3923 3.13789E-03-1.46793E-04-3.58668E-15
 -1      3924 2.92071E-03-1.12807E-04-3.16544E-15
 -1      3925 3.28020E-03-1.45370E-04-3.90085E-15
 -1      3926 3.42199E-03-1.43593E-04-4.22774E-15
 -1      3927 3.20607E-03-1.11034E-04-3.76966E-15
 -1      3928 3.56321E-03-1.41533E-04-4.56739E-15
 -1      3929 3.70383E-03-1.39162E-04-4.91984E-15
 -1      3930 3.48926E-03-1.08127E-04-4.42567E-15
 -1      3931 3.84378E-03-1.36545E-04-5.28511E-15
 -1      3932 3.98305E-03-1.33643E-04-5.66298E-15
 -1      3933 3.76984E-03-1.04202E-04-5.13311E-15
 -1      3934 4.12157E-03-1.30520E-04-6.05278E-15
 -1      3935 4.25935E-03-1.27128E-04-6.45510E-15
 -1      3936 4.04740E-03-9.93097E-05-5.89100E-15
 -1      3937 4.39631E-03-1.23533E-04-6.86914E-15
 -1      3938 4.53249E-03-1.19681E-04-7.29577E-15
 -1      3939 4.32154E-03-9.34451E-05-6.69774E-15
 -1      3940 4.66780E-03-1.15642E-04-7.73422E-15
 -1      3941 4.80234E-03-1.11363E-04-8.18625E-15
 -1      3942 4.59190E-03-8.65570E-05-7.55328E-15
 -1      3943 4.93601E-03-1.06914E-04-8.65127E-15
 -1      3944 5.06898E-03-1.02248E-04-9.12824E-15
 -1      3945 4.85816E-03-7.85685E-05-8.45904E-15
 -1      3946 5.20116E-03-9.74325E-05-9.61771E-15
 -1      3947 5.33286E-03-9.24533E-05-1.01186E-14
 -1      3948 5.12015E-03-6.93505E-05-9.41537E-15
 -1      3949 5.46395E-03-8.73543E-05-1.06324E-14
 -1      3950 5.59503E-03-8.22657E-05-1.11590E-14
 -1      3951 5.37790E-03-5.87187E-05-1.04217E-14
 -1      3952 1.14748E-02 2.49022E-04-3.47861E-14
 -1      3953 1.16060E-02 2.63703E-04-3.56756E-14
 -1      3954 1.17376E-02 2.78538E-04-3.65742E-14
 -1      3955 1.18699E-02 2.93539E-04-3.74825E-14
 -1      3956 1.17040E-02 3.01199E-04-3.62081E-14
 -1      3957 1.20029E-02 3.08766E-04-3.83971E-14
 -1      3958 1.21366E-02 3.24174E-04-3.93195E-14
 -1      3959 1.19644E-02 3.31141E-04-3.80218E-14
 -1      3960 1.22710E-02 3.39825E-04-4.02538E-14
 -1      3961 1.24062E-02 3.55665E-04-4.11939E-14
 -1      3962 1.22288E-02 3.62371E-04-3.98741E-14
 -1      3963 1.25421E-02 3.71750E-04-4.21406E-14
 -1      3964 1.26788E-02 3.88026E-04-4.30953E-14
 -1      3965 1.24970E-02 3.94731E-04-4.17581E-14
 -1      3966 1.28160E-02 4.04542E-04-4.40517E-14
 -1      3967 1.29539E-02 4.21255E-04-4.50145E-14
 -1      3968 1.27686E-02 4.28083E-04-4.36617E-14
 -1      3969 1.30924E-02 4.38201E-04-4.59858E-14
 -1      3970 1.32314E-02 4.55328E-04-4.69598E-14
 -1      3971 1.30432E-02 4.62340E-04-4.55912E-14
 -1      3972 5.00154E-03 1.54693E-04-9.25617E-15
 -1      3973 4.87221E-03 1.55965E-04-8.77247E-15
 -1      3974 1.08465E-02 1.94048E-04-3.04979E-14
 -1      3975 1.09047E-02 1.86900E-04-3.10040E-14
 -1      3976 1.25123E-02 6.25821E-04-4.15968E-14
 -1      3977 1.23791E-02 6.04395E-04-4.06521E-14
 -1      3978 5.73140E-03 1.59876E-04-1.24076E-14
 -1      3979 5.61629E-03 1.57382E-04-1.18538E-14
 -1      3980 1.10363E-02 2.02394E-04-3.18532E-14
 -1      3981 1.57774E-03-1.31583E-04-1.02861E-15
 -1      3982 3.23410E-03 2.52038E-04-3.96635E-15
 -1      3983 3.09143E-03 2.53754E-04-3.64727E-15
 -1      3984 3.01527E-03 2.18747E-04-3.48694E-15
 -1      3985 1.50289E-03-4.91480E-05-9.79550E-16
 -1      3986 1.50450E-03-8.30932E-05-9.67650E-16
 -1      3987 1.62600E-03-3.35049E-05-1.13111E-15
 -1      3988 1.27821E-02 6.69066E-04-4.35109E-14
 -1      3989 1.26466E-02 6.47363E-04-4.25511E-14
 -1      3990 1.25690E-02 6.06891E-04-4.19989E-14
 -1      3991 1.19881E-02 5.42033E-04-3.78534E-14
 -1      3992 1.18611E-02 5.22026E-04-3.69372E-14
 -1      3993 1.30556E-02 7.12542E-04-4.54439E-14
 -1      3994 1.29184E-02 6.90786E-04-4.44748E-14
 -1      3995 1.28383E-02 6.48974E-04-4.39130E-14
 -1      3996 1.33182E-02 7.53927E-04-4.72941E-14
 -1      3997 1.31796E-02 7.32270E-04-4.63174E-14
 -1      3998 1.30976E-02 6.89402E-04-4.57485E-14
 -1      3999 1.33457E-02 7.27901E-04-4.75038E-14
 -1      4000 1.10050E-02 2.82004E-04-3.07045E-14
 -1      4001 1.08610E-02 2.39159E-04-3.00722E-14
 -1      4002 5.25447E-03 1.53775E-04-1.02597E-14
 -1      4003 5.12898E-03 1.54019E-04-9.75217E-15
 -1      4004 5.05297E-03 1.27627E-04-9.47682E-15
 -1      4005 1.17361E-02 5.02707E-04-3.60296E-14
 -1      4006 1.16132E-02 4.83858E-04-3.51323E-14
 -1      4007 1.17956E-02 4.86765E-04-3.64104E-14
 -1      4008 1.65941E-03 2.32641E-04-1.18690E-15
 -1      4009 1.58565E-03 1.98140E-04-1.10242E-15
 -1      4010 1.80023E-03 2.38010E-04-1.37141E-15
 -1      4011 1.14928E-02 4.65872E-04-3.42425E-14
 -1      4012 1.13750E-02 4.48312E-04-3.33615E-14
 -1      4013 1.15545E-02 4.50553E-04-3.46191E-14
 -1      4014 1.22473E-02 5.83282E-04-3.97136E-14
 -1      4015 1.21169E-02 5.62411E-04-3.87794E-14
 -1      4016 1.23046E-02 5.65482E-04-4.01056E-14
 -1      4017 5.82821E-03 1.12519E-04-1.31545E-14
 -1      4018 5.82213E-03 1.34863E-04-1.30321E-14
 -1      4019 5.49844E-03 1.55337E-04-1.13109E-14
 -1      4020 5.37761E-03 1.54315E-04-1.07800E-14
 -1      4021 5.30016E-03 1.28754E-04-1.04899E-14
 -1      4022 1.84365E-03-1.38386E-04-1.35731E-15
 -1      4023 1.98769E-03-1.41867E-04-1.55244E-15
 -1      4024 1.33759E-02 6.21004E-04-4.78005E-14
 -1      4025 1.33943E-02 6.57995E-04-4.78988E-14
 -1      4026 6.07620E-03-6.66248E-05-1.31670E-14
 -1      4027 1.12636E-02 4.28147E-04-3.24904E-14
 -1      4028 1.11530E-02 4.03828E-04-3.15693E-14
 -1      4029 1.11214E-02 3.76194E-04-3.11380E-14
 -1      4030 1.13274E-02 4.13423E-04-3.28610E-14
 -1      4031 1.55989E-03 1.65170E-04-1.07585E-15
 -1      4032 1.52854E-03 1.17366E-04-1.04096E-15
 -1      4033 1.65101E-03 1.03871E-04-1.18995E-15
 -1      4034 1.70041E-03 1.69613E-04-1.25130E-15
 -1      4035 1.12132E-02 2.19899E-04-3.30364E-14
 -1      4036 1.13440E-02 2.34455E-04-3.39062E-14
 -1      4037 1.14474E-02 2.72732E-04-3.44275E-14
 -1      4038 5.78203E-03 1.45206E-04-1.27502E-14
 -1      4039 4.74126E-03 1.57547E-04-8.30195E-15
 -1      4040 4.60875E-03 1.59539E-04-7.84281E-15
 -1      4041 4.79707E-03 1.28525E-04-8.51249E-15
 -1      4042 2.50884E-03 1.83253E-04-2.49555E-15
 -1      4043 2.36474E-03 1.81964E-04-2.24381E-15
 -1      4044 2.13191E-03-1.44561E-04-1.76066E-15
 -1      4045 2.27619E-03-1.46532E-04-1.98206E-15
 -1      4046 2.34555E-03-1.12138E-04-2.11773E-15
 -1      4047 2.05705E-03-1.09087E-04-1.67272E-15
 -1      4048 1.70023E-03-1.17897E-04-1.18459E-15
 -1      4049 5.94770E-03-5.45249E-05-1.27126E-14
 -1      4050 4.14178E-03 1.99916E-04-6.34968E-15
 -1      4051 1.75078E-03 5.60731E-05-1.31236E-15
 -1      4052 1.74982E-03 1.97486E-05-1.30371E-15
 -1      4053 5.69575E-03 1.24557E-04-1.23725E-14
 -1      4054 5.72591E-03-7.73248E-05-1.16959E-14
 -1      4055 5.85764E-03-7.28493E-05-1.22436E-14
 -1      4056 3.92786E-03 1.71506E-04-5.73703E-15
 -1      4057 3.78870E-03 1.73907E-04-5.35321E-15
 -1      4058 1.33139E-02 5.11483E-04-4.74772E-14
 -1      4059 1.33645E-02 4.87008E-04-4.78770E-14
 -1      4060 3.30033E-03 2.15825E-04-4.12406E-15
 -1      4061 3.64877E-03 1.76135E-04-4.98290E-15
 -1      4062 3.50812E-03 1.78205E-04-4.62571E-15
 -1      4063 3.71438E-03 1.41513E-04-5.15260E-15
 -1      4064 2.22053E-03 1.79951E-04-2.00541E-15
 -1      4065 2.07627E-03 1.77150E-04-1.77968E-15
 -1      4066 2.28917E-03 1.45936E-04-2.11777E-15
 -1      4067 1.20464E-02 5.25256E-04-3.82425E-14
 -1      4068 5.79277E-03 3.67236E-05-1.26305E-14
 -1      4069 5.74592E-03 5.18162E-05-1.25043E-14
 -1      4070 5.84469E-03-2.21323E-05-1.24831E-14
 -1      4071 5.53627E-03 1.32353E-04-1.15506E-14
 -1      4072 1.11498E-02 2.43194E-04-3.23599E-14
 -1      4073 1.11039E-02 3.08201E-04-3.12667E-14
 -1      4074 1.10935E-02 2.85502E-04-3.14570E-14
 -1      4075 1.86721E-03 2.07221E-04-1.47072E-15
 -1      4076 4.53411E-03 1.30909E-04-7.59797E-15
 -1      4077 4.47489E-03 1.61704E-04-7.39609E-15
 -1      4078 4.33974E-03 1.64099E-04-6.96211E-15
 -1      4079 1.76975E-03-8.74126E-05-1.28878E-15
 -1      4080 5.80321E-03 1.37301E-05-1.25294E-14
 -1      4081 2.79636E-03 1.84011E-04-3.03834E-15
 -1      4082 2.65274E-03 1.83920E-04-2.76060E-15
 -1      4083 2.57736E-03 1.48127E-04-2.61955E-15
 -1      4084 5.76473E-03 9.44476E-05-1.27781E-14
 -1      4085 1.33686E-02 6.84248E-04-4.76951E-14
 -1      4086 1.11577E-02 3.27727E-04-3.15505E-14
 -1      4087 1.11752E-02 3.66444E-04-3.15338E-14
 -1      4088 1.08509E-02 2.10108E-04-3.03529E-14
 -1      4089 5.63196E-03-4.66511E-05-1.14748E-14
 -1      4090 1.75182E-03 9.31744E-05-1.31885E-15
 -1      4091 1.87523E-03 7.69458E-05-1.48336E-15
 -1      4092 5.64833E-03 1.02143E-04-1.21580E-14
 -1      4093 5.59725E-03 1.12106E-04-1.18862E-14
 -1      4094 1.33364E-02 5.46619E-04-4.75960E-14
 -1      4095 1.33565E-02 5.83920E-04-4.76979E-14
 -1      4096 1.32467E-02 5.85942E-04-4.69025E-14
 -1      4097 2.00063E-03 9.82770E-05-1.66510E-15
 -1      4098 1.99951E-03 5.93925E-05-1.65714E-15
 -1      4099 2.84699E-03-7.76652E-05-3.04537E-15
 -1      4100 2.99007E-03-7.71994E-05-3.33528E-15
 -1      4101 3.13268E-03-7.65219E-05-3.63847E-15
 -1      4102 3.27474E-03-7.56027E-05-3.95444E-15
 -1      4103 3.06000E-03-4.18067E-05-3.50749E-15
 -1      4104 3.41619E-03-7.44950E-05-4.28383E-15
 -1      4105 3.55696E-03-7.31527E-05-4.62571E-15
 -1      4106 3.34392E-03-4.05658E-05-4.14150E-15
 -1      4107 3.69699E-03-7.16364E-05-4.98062E-15
 -1      4108 3.83624E-03-6.98848E-05-5.34844E-15
 -1      4109 3.62515E-03-3.87386E-05-4.82839E-15
 -1      4110 3.97461E-03-6.79462E-05-5.72890E-15
 -1      4111 4.11209E-03-6.57559E-05-6.12131E-15
 -1      4112 3.90310E-03-3.62618E-05-5.56627E-15
 -1      4113 4.24858E-03-6.33509E-05-6.52599E-15
 -1      4114 4.38405E-03-6.06604E-05-6.94293E-15
 -1      4115 4.17726E-03-3.30088E-05-6.35383E-15
 -1      4116 4.51839E-03-5.77285E-05-7.37209E-15
 -1      4117 4.65158E-03-5.44449E-05-7.81368E-15
 -1      4118 4.44705E-03-2.88102E-05-7.19077E-15
 -1      4119 4.78347E-03-5.08914E-05-8.26798E-15
 -1      4120 4.91412E-03-4.69260E-05-8.73500E-15
 -1      4121 4.71175E-03-2.34275E-05-8.07676E-15
 -1      4122 5.04332E-03-4.25848E-05-9.21411E-15
 -1      4123 5.17120E-03-3.77525E-05-9.70559E-15
 -1      4124 4.97053E-03-1.64781E-05-9.01236E-15
 -1      4125 5.29743E-03-3.24711E-05-1.02105E-14
 -1      4126 5.42230E-03-2.65648E-05-1.07265E-14
 -1      4127 5.22255E-03-7.53040E-06-9.99869E-15
 -1      4128 1.77592E-03 1.26248E-04-1.35231E-15
 -1      4129 1.31178E-02 5.51449E-04-4.60081E-14
 -1      4130 1.31372E-02 5.87578E-04-4.61084E-14
 -1      4131 3.36682E-03 1.80023E-04-4.28146E-15
 -1      4132 3.22493E-03 1.81582E-04-3.95104E-15
 -1      4133 3.43363E-03 1.44707E-04-4.43975E-15
 -1      4134 1.21010E-02 5.08466E-04-3.86309E-14
 -1      4135 1.19746E-02 4.89468E-04-3.77064E-14
 -1      4136 1.19259E-02 3.52381E-04-3.76495E-14
 -1      4137 1.20556E-02 3.67935E-04-3.85670E-14
 -1      4138 1.21865E-02 3.83908E-04-3.94936E-14
 -1      4139 1.23186E-02 4.00190E-04-4.04303E-14
 -1      4140 1.21438E-02 4.04389E-04-3.91147E-14
 -1      4141 1.24518E-02 4.16813E-04-4.13727E-14
 -1      4142 1.25860E-02 4.33687E-04-4.23217E-14
 -1      4143 1.24062E-02 4.37962E-04-4.09882E-14
 -1      4144 5.71993E-03-4.13840E-06-1.20653E-14
 -1      4145 1.32045E-02 5.14611E-04-4.66824E-14
 -1      4146 1.12829E-02 3.83180E-04-3.24371E-14
 -1      4147 1.12244E-02 3.55493E-04-3.19712E-14
 -1      4148 1.12700E-02 3.42722E-04-3.24514E-14
 -1      4149 1.13909E-02 4.01731E-04-3.33070E-14
 -1      4150 1.84129E-03 1.72754E-04-1.43909E-15
 -1      4151 1.16705E-02 3.22561E-04-3.58407E-14
 -1      4152 1.17976E-02 3.37208E-04-3.67414E-14
 -1      4153 1.18871E-02 3.72417E-04-3.72755E-14
 -1      4154 1.75851E-03-1.54867E-05-1.30439E-15
 -1      4155 1.75933E-03-5.17975E-05-1.29141E-15
 -1      4156 1.90202E-03-6.99751E-05-1.47384E-15
 -1      4157 1.88288E-03 2.77844E-06-1.47662E-15
 -1      4158 1.28930E-02 6.28624E-04-4.43131E-14
 -1      4159 1.27578E-02 6.08094E-04-4.33522E-14
 -1      4160 5.10602E-03 1.02030E-04-9.69689E-15
 -1      4161 4.98110E-03 1.01241E-04-9.20367E-15
 -1      4162 4.20347E-03 1.66540E-04-6.54090E-15
 -1      4163 4.06613E-03 1.69058E-04-6.13260E-15
 -1      4164 3.99186E-03 1.37885E-04-5.91741E-15
 -1      4165 4.26537E-03 1.34201E-04-6.73250E-15
 -1      4166 2.55968E-03-7.78034E-05-2.50636E-15
 -1      4167 2.70350E-03-7.78604E-05-2.76939E-15
 -1      4168 2.77394E-03-4.24636E-05-2.92603E-15
 -1      4169 5.59990E-03-1.15586E-05-1.15204E-14
 -1      4170 1.18503E-02 4.71084E-04-3.67928E-14
 -1      4171 1.17284E-02 4.53083E-04-3.58895E-14
 -1      4172 1.19009E-02 4.55007E-04-3.71738E-14
 -1      4173 1.16145E-02 4.35063E-04-3.50319E-14
 -1      4174 1.14984E-02 4.18246E-04-3.41454E-14
 -1      4175 1.14417E-02 3.86955E-04-3.37127E-14
 -1      4176 1.16634E-02 4.20029E-04-3.54065E-14
 -1      4177 5.48505E-03 1.08787E-04-1.13442E-14
 -1      4178 1.23593E-02 5.47525E-04-4.04983E-14
 -1      4179 1.22293E-02 5.27778E-04-3.95610E-14
 -1      4180 1.21527E-02 4.91241E-04-3.90153E-14
 -1      4181 5.34814E-03 1.05454E-04-1.07191E-14
 -1      4182 5.22846E-03 1.03551E-04-1.02020E-14
 -1      4183 5.16136E-03 7.78434E-05-9.91629E-15
 -1      4184 1.30697E-02 4.89889E-04-4.57434E-14
 -1      4185 1.30925E-02 5.24131E-04-4.58611E-14
 -1      4186 1.29842E-02 5.26307E-04-4.50708E-14
 -1      4187 1.29324E-02 4.72286E-04-4.47738E-14
 -1      4188 1.26237E-02 5.87733E-04-4.23948E-14
 -1      4189 1.24908E-02 5.67490E-04-4.14432E-14
 -1      4190 1.26768E-02 5.68143E-04-4.27905E-14
 -1      4191 5.52096E-03 1.19923E-05-1.12968E-14
 -1      4192 1.94188E-03 1.61879E-04-1.58172E-15
 -1      4193 3.08252E-03 1.82779E-04-3.63319E-15
 -1      4194 2.93964E-03 1.83621E-04-3.32900E-15
 -1      4195 3.15017E-03 1.47095E-04-3.77954E-15
 -1      4196 4.85401E-03 1.00805E-04-8.72261E-15
 -1      4197 4.72496E-03 1.00898E-04-8.25471E-15
 -1      4198 4.91258E-03 7.43243E-05-8.93266E-15
 -1      4199 5.67725E-03 8.06604E-05-1.22842E-14
 -1      4200 1.14210E-02 2.94885E-04-3.40677E-14
 -1      4201 1.15451E-02 3.08414E-04-3.49490E-14
 -1      4202 1.16369E-02 3.42525E-04-3.54727E-14
 -1      4203 1.32444E-02 6.65702E-04-4.68158E-14
 -1      4204 2.13212E-03 4.27954E-05-1.85213E-15
 -1      4205 2.00729E-03 2.24601E-05-1.65940E-15
 -1      4206 2.01597E-03-1.45454E-05-1.65933E-15
 -1      4207 4.65537E-03 7.27042E-05-7.99844E-15
 -1      4208 4.59415E-03 1.01256E-04-7.79896E-15
 -1      4209 4.46174E-03 1.01976E-04-7.35479E-15
 -1      4210 2.01073E-03 1.29591E-04-1.68219E-15
 -1      4211 2.13455E-03 1.12082E-04-1.86851E-15
 -1      4212 2.86457E-03 1.48365E-04-3.17338E-15
 -1      4213 2.03076E-03-4.29664E-05-1.66931E-15
 -1      4214 2.04103E-03-8.02834E-05-1.66604E-15
 -1      4215 2.18526E-03-8.16494E-05-1.88180E-15
 -1      4216 2.15477E-03-2.36289E-05-1.86385E-15
 -1      4217 3.78044E-03 1.07570E-04-5.32267E-15
 -1      4218 3.64108E-03 1.08784E-04-4.95402E-15
 -1      4219 2.42299E-03 1.14824E-04-2.34085E-15
 -1      4220 2.27880E-03 1.13698E-04-2.09838E-15
 -1      4221 2.26903E-03 8.15833E-05-2.07748E-15
 -1      4222 5.41995E-03 8.44314E-05-1.10424E-14
 -1      4223 1.27211E-02 4.50838E-04-4.32744E-14
 -1      4224 1.28571E-02 4.68192E-04-4.42320E-14
 -1      4225 1.24118E-02 5.29124E-04-4.08917E-14
 -1      4226 2.71080E-03 1.15827E-04-2.86595E-15
 -1      4227 2.56702E-03 1.15522E-04-2.59687E-15
 -1      4228 2.55727E-03 8.29930E-05-2.57315E-15
 -1      4229 1.31295E-02 6.17444E-04-4.60263E-14
 -1      4230 1.31077E-02 6.59775E-04-4.58370E-14
 -1      4231 1.29848E-02 6.41037E-04-4.49654E-14
 -1      4232 1.30022E-02 5.82659E-04-4.51347E-14
 -1      4233 5.61184E-03 5.97060E-05-1.18936E-14
 -1      4234 4.05635E-03 1.05106E-04-6.09808E-15
 -1      4235 3.91889E-03 1.06351E-04-5.70406E-15
 -1      4236 3.84706E-03 7.43356E-05-5.49273E-15
 -1      4237 1.29023E-02 5.99916E-04-4.43981E-14
 -1      4238 1.14276E-02 3.52271E-04-3.37310E-14
 -1      4239 1.13490E-02 3.19867E-04-3.32963E-14
 -1      4240 1.12543E-02 2.87380E-04-3.27876E-14
 -1      4241 2.30045E-03-7.96799E-05-2.06489E-15
 -1      4242 2.44465E-03-8.03205E-05-2.30423E-15
 -1      4243 2.51532E-03-4.53023E-05-2.44763E-15
 -1      4244 2.28499E-03-5.03266E-05-2.05647E-15
 -1      4245 1.09828E-02 2.42016E-04-3.10398E-14
 -1      4246 5.44523E-03 4.58648E-05-1.10885E-14
 -1      4247 1.26733E-02 4.72773E-04-4.28845E-14
 -1      4248 1.21518E-02 4.48580E-04-3.90664E-14
 -1      4249 1.20243E-02 4.31343E-04-3.81435E-14
 -1      4250 2.99726E-03 1.15488E-04-3.44260E-15
 -1      4251 2.85424E-03 1.15811E-04-3.14802E-15
 -1      4252 2.84451E-03 8.33067E-05-3.12060E-15
 -1      4253 3.27246E-03-6.34722E-06-4.00026E-15
 -1      4254 3.41370E-03-5.94303E-06-4.33136E-15
 -1      4255 3.59546E-03 1.82917E-05-4.79629E-15
 -1      4256 3.73489E-03 1.85821E-05-5.15816E-15
 -1      4257 3.87340E-03 1.89025E-05-5.53258E-15
 -1      4258 4.01093E-03 1.94105E-05-5.92007E-15
 -1      4259 4.37770E-03 3.38492E-07-7.00849E-15
 -1      4260 4.51085E-03 2.08776E-06-7.44027E-15
 -1      4261 4.67997E-03 2.47248E-05-8.04126E-15
 -1      4262 4.80938E-03 2.68147E-05-8.50296E-15
 -1      4263 4.93688E-03 2.92045E-05-8.97662E-15
 -1      4264 5.06246E-03 3.22838E-05-9.46242E-15
 -1      4265 5.18567E-03 3.57483E-05-9.96067E-15
 -1      4266 5.30655E-03 4.01272E-05-1.04707E-14
 -1      4267 3.45769E-03 8.61937E-05-4.48467E-15
 -1      4268 3.31659E-03 8.68903E-05-4.14688E-15
 -1      4269 1.26771E-02 5.20895E-04-4.28402E-14
 -1      4270 1.25438E-02 5.02332E-04-4.18867E-14
 -1      4271 2.27635E-03 4.34391E-05-2.08001E-15
 -1      4272 1.18986E-02 4.14765E-04-3.72263E-14
 -1      4273 1.22810E-02 4.66106E-04-4.00010E-14
 -1      4274 1.24117E-02 4.84113E-04-4.09411E-14
 -1      4275 3.52620E-03 5.20021E-05-4.64040E-15
 -1      4276 1.17750E-02 3.98546E-04-3.63210E-14
 -1      4277 2.70161E-03-7.25636E-06-2.80724E-15
 -1      4278 2.84505E-03-7.10594E-06-3.08517E-15
 -1      4279 1.28833E-02 4.94983E-04-4.43824E-14
 -1      4280 2.98805E-03-6.92097E-06-3.37691E-15
 -1      4281 3.13055E-03-6.65156E-06-3.68154E-15
 -1      4282 3.20172E-03 2.82100E-05-3.85866E-15
 -1      4283 2.91679E-03 2.81465E-05-3.24681E-15
 -1      4284 4.32789E-03 1.02857E-04-6.92278E-15
 -1      4285 4.19272E-03 1.03956E-04-6.50394E-15
 -1      4286 4.39126E-03 7.24792E-05-7.11306E-15
 -1      4287 3.13979E-03 1.14903E-04-3.75107E-15
 -1      4288 1.11469E-02 2.56489E-04-3.22103E-14
 -1      4289 1.28116E-02 5.39623E-04-4.37974E-14
 -1      4290 1.16537E-02 3.83221E-04-3.54238E-14
 -1      4291 1.29089E-02 5.21678E-04-4.45284E-14
 -1      4292 4.10751E-03-2.31925E-06-6.18094E-15
 -1      4293 4.24322E-03-1.08393E-06-6.58848E-15
 -1      4294 2.42341E-03 4.84711E-05-2.32754E-15
 -1      4295 2.28732E-03 9.80641E-06-2.08702E-15
 -1      4296 2.30169E-03-1.94089E-05-2.09836E-15
 -1      4297 2.56743E-03 4.88096E-05-2.58227E-15
 -1      4298 1.29105E-02 5.71071E-04-4.44815E-14
 -1      4299 4.31010E-03 3.00039E-05-6.82527E-15
 -1      4300 4.12151E-03 7.31716E-05-6.27791E-15
 -1      4301 4.61517E-03 5.25144E-05-7.84492E-15
 -1      4302 1.15393E-02 3.67066E-04-3.45710E-14
 -1      4303 2.88044E-03 5.56888E-05-3.18423E-15
 -1      4304 2.73710E-03 5.56603E-05-2.90100E-15
 -1      4305 4.07996E-03 5.11806E-05-6.14280E-15
 -1      4306 3.02333E-03 5.56023E-05-3.48044E-15
 -1      4307 3.16567E-03 5.54407E-05-3.79066E-15
 -1      4308 2.41694E-03-1.67303E-05-2.29171E-15
 -1      4309 2.53209E-03-1.39508E-05-2.49349E-15
 -1      4310 2.60411E-03 2.12948E-05-2.63883E-15
 -1      4311 4.21578E-03 5.11870E-05-6.54946E-15
 -1      4312 4.35031E-03 5.14057E-05-6.96876E-15
 -1      4313 4.48350E-03 5.18091E-05-7.40106E-15
 -3
    1PSTEP                         2           1           1          
  100CL  101 1.000000000        4313                     0    1           1
 -4  STRESS      6    1
 -5  SXX         1    4    1    1
 -5  SYY         1    4    2    2
 -5  SZZ         1    4    3    3
 -5  SXY         1    4    1    2
 -5  SYZ         1    4    2    3
 -5  SZX         1    4    3    1
 -1         1 6.54851E+01 9.03525E-01 3.48483E+00-1.93767E+00 4.83780E-14-2.99580E-13
 -1         2-7.96694E-01-2.43587E+01-3.33833E+00-2.55328E-01 1.63039E-12-1.05478E-13
 -1         3 1.99990E+01-8.40180E-04 6.93335E-03-9.00040E-04-3.90576E-13-3.34761E-13
 -1         4 1.99989E+01-9.28761E-04 6.63106E-03 9.96130E-04 2.12724E-13 1.17185E-13
 -1         5 3.27049E+01 6.13062E+00 2.73616E+00 6.21536E+00-1.47937E-14 1.10721E-12
 -1         6 3.56848E+01 1.22399E+01 5.11485E+00-8.63330E+00-5.70238E-14 1.46842E-12
 -1         7 2.07897E+01 6.09131E+00-1.28463E-01-4.72034E+00-9.14546E-15 4.89383E-13
 -1         8 1.96580E+01 5.93073E+00 5.12207E-02-3.27134E+00-1.76387E-14 1.38194E-13
 -1         9 1.91356E+01 5.77123E+00 4.95090E-02-2.52280E+00-1.62440E-14-7.01652E-14
 -1        10 1.89018E+01 5.69397E+00 5.12343E-02-1.94690E+00-1.62283E-14-1.87823E-13
 -1        11 1.87867E+01 5.65495E+00 5.04438E-02-1.45179E+00-1.28886E-14-2.59953E-13
 -1        12 1.87273E+01 5.63456E+00 4.88616E-02-1.01133E+00-8.17879E-15-3.07433E-13
 -1        13 1.86961E+01 5.62382E+00 4.73458E-02-5.92762E-01-6.89759E-15-3.40068E-13
 -1        14 1.86832E+01 5.61933E+00 4.65566E-02-1.90367E-01-6.34334E-15-3.62188E-13
 -1        15 1.86838E+01 5.61950E+00 4.66010E-02 2.07120E-01-2.03060E-15-3.79396E-13
 -1        16 1.86979E+01 5.62436E+00 4.74875E-02 6.10386E-01 9.17235E-16-3.99689E-13
 -1        17 1.87303E+01 5.63536E+00 4.91165E-02 1.03098E+00-6.06286E-16-4.06677E-13
 -1        18 1.87911E+01 5.65619E+00 5.09990E-02 1.47461E+00 6.95624E-16-3.95172E-13
 -1        19 1.89080E+01 5.69568E+00 5.18230E-02 1.97597E+00 7.77156E-15-3.67561E-13
 -1        20 1.91404E+01 5.77371E+00 4.91293E-02 2.56019E+00 1.22471E-14-3.06143E-13
 -1        21 1.96532E+01 5.94520E+00 4.61793E-02 3.30550E+00 1.41900E-14-1.60563E-13
 -1        22 2.11715E+01 6.37255E+00 1.39440E-01 4.51831E+00 3.42781E-15 1.96896E-13
 -1        23 2.29805E+01-1.37691E+00-9.37422E-01-7.10337E-01-3.60406E-14 1.24950E-12
 -1        24 1.93237E+01-9.94684E-02-3.09549E-01 6.29750E-02-6.85216E-15 1.04237E-12
 -1        25 1.86384E+01-5.64490E-02-6.88063E-02 6.04310E-02-7.85092E-15 8.13972E-13
 -1        26 1.84404E+01-2.23476E-02-6.65270E-03 3.26593E-02-1.05868E-14 6.26586E-13
 -1        27 1.84592E+01-1.22096E-02 1.27713E-03 2.22371E-02-1.12133E-14 5.34937E-13
 -1        28 1.85858E+01-6.84043E-03 1.26785E-03 1.59194E-02 5.44996E-15 5.26168E-13
 -1        29 1.87658E+01-3.92565E-03 9.47231E-04 1.18041E-02-1.61324E-14 4.50346E-13
 -1        30 1.89716E+01-2.36591E-03 7.97834E-04 8.94261E-03 1.48938E-14 3.78766E-13
 -1        31 1.91897E+01-1.62679E-03 5.33065E-04 6.90932E-03 1.01355E-14 3.31978E-13
 -1        32 1.94159E+01-1.41647E-03 3.69315E-05 5.51481E-03-6.27722E-15 2.69643E-13
 -1        33 1.96518E+01-1.55370E-03-6.84069E-04 4.68090E-03 1.91956E-14 2.39982E-13
 -1        34 1.99032E+01-1.90390E-03-1.57660E-03 4.38808E-03-1.97659E-14 2.44286E-13
 -1        35 2.01788E+01-2.34240E-03-2.55871E-03 4.64874E-03 7.07019E-15 1.08309E-13
 -1        36 2.04881E+01-2.72751E-03-3.50413E-03 5.48637E-03-1.29749E-14 1.42294E-13
 -1        37 2.08402E+01-2.87721E-03-4.20795E-03 6.90738E-03-3.11393E-14 8.45617E-14
 -1        38 2.12407E+01-2.54976E-03-4.33963E-03 8.85273E-03-1.87003E-14-3.88188E-15
 -1        39 2.16878E+01-1.43673E-03-3.39296E-03 1.11145E-02-1.08773E-16-1.85125E-13
 -1        40 2.21667E+01 8.11506E-04-6.65004E-04 1.32045E-02 1.90731E-14-1.05404E-13
 -1        41 2.26428E+01 4.49114E-03 4.65905E-03 1.41777E-02 1.41459E-15-3.10437E-14
 -1        42 2.30538E+01 9.63443E-03 1.31784E-02 1.24710E-02-2.57364E-14-1.13373E-13
 -1        43 2.33058E+01 1.56592E-02 2.45421E-02 5.94352E-03-3.46279E-14-2.94312E-14
 -1        44 2.32800E+01 2.09639E-02 3.63373E-02-7.52131E-03-2.49247E-14-7.63018E-15
 -1        45 2.28592E+01 2.28160E-02 4.32216E-02-2.84448E-02-8.77206E-15-1.19019E-14
 -1        46 2.19835E+01 1.80542E-02 3.75985E-02-5.32857E-02 2.78002E-14 8.94805E-14
 -1        47 2.07242E+01 5.07007E-03 1.39174E-02-7.27195E-02-2.23493E-14 9.35536E-14
 -1        48 1.93343E+01-1.37106E-02-2.46288E-02-7.39283E-02 6.99602E-14 3.07400E-13
 -1        49 1.82123E+01-3.12143E-02-6.27582E-02-4.88075E-02 5.50135E-14 3.98067E-13
 -1        50 1.77470E+01-3.89571E-02-8.00115E-02-3.05215E-03-6.08051E-14 1.55278E-13
 -1        51 1.81141E+01-3.28202E-02-6.60477E-02 4.39545E-02 6.40202E-14 2.64261E-13
 -1        52 1.91735E+01-1.61256E-02-2.95208E-02 7.21355E-02-3.73053E-14 6.47669E-13
 -1        53 2.05534E+01 2.91575E-03 9.86058E-03 7.39937E-02-6.11247E-14 3.88061E-13
 -1        54 2.18475E+01 1.68062E-02 3.57083E-02 5.61722E-02 5.18682E-16 2.87881E-13
 -1        55 2.27801E+01 2.25087E-02 4.32216E-02 3.13562E-02-1.15445E-13 2.39652E-14
 -1        56 2.32598E+01 2.12686E-02 3.74021E-02 9.64827E-03 6.46779E-14-3.28786E-13
 -1        57 2.33350E+01 1.61601E-02 2.58055E-02-4.72945E-03 1.02231E-14-3.99384E-13
 -1        58 2.31203E+01 1.00426E-02 1.41184E-02-1.19537E-02 4.22604E-14-2.74831E-13
 -1        59 2.27376E+01 4.66368E-03 5.10203E-03-1.40521E-02-1.96359E-14 5.24580E-14
 -1        60 2.22856E+01 7.06097E-04-7.13346E-04-1.32022E-02 2.21347E-14 3.92349E-13
 -1        61 2.18318E+01-1.80797E-03-3.86228E-03-1.10332E-02 9.75902E-14 6.17193E-13
 -1        62 2.14157E+01-3.15413E-03-5.16005E-03-8.54275E-03-5.30133E-14 3.98433E-13
 -1        63 2.10561E+01-3.67715E-03-5.33232E-03-6.24525E-03-2.96143E-14 5.93956E-14
 -1        64 2.07583E+01-3.68420E-03-4.91014E-03-4.34950E-03-2.94022E-14-3.51091E-13
 -1        65 2.05198E+01-3.41141E-03-4.24540E-03-2.89357E-03-1.56302E-13-1.15229E-13
 -1        66 2.03342E+01-3.02541E-03-3.56365E-03-1.82761E-03 7.05515E-14 4.91538E-14
 -1        67 2.01944E+01-2.63548E-03-3.01815E-03-1.05388E-03 2.20410E-14 2.99605E-13
 -1        68 2.00938E+01-2.30070E-03-2.71753E-03-4.29642E-04 7.71030E-14 8.17865E-13
 -1        69 2.00276E+01-2.00992E-03-2.65376E-03 2.60372E-04-1.47858E-14 5.36609E-13
 -1        70 1.99937E+01-1.48782E-03-2.27602E-03 1.44773E-03 8.33843E-14 1.47982E-13
 -1        71 1.99909E+01 2.63324E-04 7.47062E-04 2.82295E-03 9.58672E-15 7.04872E-14
 -1        72 2.09954E+01-4.04210E-01-9.79484E-01-3.10684E-01 2.54588E-14 9.19778E-13
 -1        73 1.92874E+01-6.58977E-02-2.90891E-01-5.35812E-02 1.53397E-14 5.53399E-13
 -1        74 1.86467E+01-2.06345E-02-6.42780E-02-2.00276E-02 4.20421E-15 3.33265E-13
 -1        75 1.84478E+01-1.01034E-02-9.46833E-03-1.49976E-02-6.71772E-16 1.88119E-13
 -1        76 1.84658E+01-5.50966E-03 3.63188E-04-1.17814E-02 1.15151E-14 1.89935E-14
 -1        77 1.85908E+01-3.11397E-03 1.22225E-03-9.34525E-03 1.27295E-14-3.60163E-14
 -1        78 1.87690E+01-1.84441E-03 1.08266E-03-7.42246E-03-1.63037E-14 5.78981E-14
 -1        79 1.89730E+01-1.23713E-03 9.07894E-04-5.79528E-03 5.35571E-15 3.18742E-14
 -1        80 1.91900E+01-1.06229E-03 5.62876E-04-4.36781E-03-6.03871E-15-6.18663E-14
 -1        81 1.94163E+01-1.19613E-03-6.15352E-05-3.11716E-03 1.68819E-14-1.07683E-13
 -1        82 1.96552E+01-1.56583E-03-9.91395E-04-2.05847E-03 2.07036E-14-2.17691E-13
 -1        83 1.99150E+01-2.12160E-03-2.22860E-03-1.23645E-03-2.04037E-15-2.62211E-13
 -1        84 2.02086E+01-2.81623E-03-3.77358E-03-7.32549E-04 1.53164E-14-3.33708E-13
 -1        85 2.05528E+01-3.58326E-03-5.61535E-03-6.83533E-04-1.07517E-14-4.38886E-13
 -1        86 2.09673E+01-4.30661E-03-7.69316E-03-1.30933E-03-1.43462E-15-5.01144E-13
 -1        87 2.14739E+01-4.77573E-03-9.81532E-03-2.94638E-03-8.74892E-15-6.07933E-13
 -1        88 2.20933E+01-4.62427E-03-1.15045E-02-6.07025E-03-5.98284E-15-5.30008E-13
 -1        89 2.28391E+01-3.26604E-03-1.17329E-02-1.12583E-02 6.75978E-14-5.13009E-13
 -1        90 2.37067E+01 1.14569E-04-8.55829E-03-1.89732E-02-4.94013E-14-5.16852E-13
 -1        91 2.46539E+01 6.37376E-03 1.13440E-03-2.89291E-02-2.64688E-15-4.04074E-13
 -1        92 2.55727E+01 1.57229E-02 2.10237E-02-3.87368E-02-3.26432E-14-1.73436E-13
 -1        93 2.62583E+01 2.64451E-02 5.25836E-02-4.19700E-02 6.33369E-15-2.26932E-13
 -1        94 2.64018E+01 3.31203E-02 8.89934E-02-2.70071E-02 5.04113E-14-7.05498E-13
 -1        95 2.56565E+01 2.70403E-02 1.07844E-01 1.90034E-02-2.05838E-14-8.36754E-13
 -1        96 2.38456E+01 3.06345E-03 7.46883E-02 9.40485E-02 3.75871E-15-4.08201E-13
 -1        97 2.12782E+01-3.00209E-02-2.40695E-02 1.61720E-01-2.35816E-14-2.17298E-13
 -1        98 1.88948E+01-5.16820E-02-1.45743E-01 1.62771E-01-2.80297E-14-1.55743E-13
 -1        99 1.78681E+01-4.52430E-02-2.01622E-01 7.18821E-02-2.39340E-14-2.91571E-13
 -1       100 1.87834E+01-1.85927E-02-1.43296E-01-6.10601E-02 3.48734E-14-2.64185E-13
 -1       101 2.11251E+01 9.48917E-03-2.37783E-02-1.45548E-01-4.81681E-14-3.20827E-13
 -1       102 2.37192E+01 2.63371E-02 7.35415E-02-1.47665E-01-2.08833E-14-1.04229E-13
 -1       103 2.55956E+01 2.92573E-02 1.07097E-01-9.83080E-02 9.35948E-15 2.37577E-13
 -1       104 2.64107E+01 2.28835E-02 9.00496E-02-4.16167E-02-5.49812E-14 5.98179E-13
 -1       105 2.63187E+01 1.35059E-02 5.39584E-02-1.39563E-03 1.13471E-13 6.82696E-14
 -1       106 2.56639E+01 5.27337E-03 2.17252E-02 1.90051E-02-7.81084E-14-9.14269E-14
 -1       107 2.47627E+01-3.29234E-04 1.08119E-03 2.55030E-02-2.51732E-14-5.05538E-13
 -1       108 2.38274E+01-3.41607E-03-9.13930E-03 2.46626E-02 6.08855E-14-8.88055E-13
 -1       109 2.29720E+01-4.70098E-03-1.26361E-02 2.08532E-02 6.63488E-14-9.79435E-13
 -1       110 2.22435E+01-4.89594E-03-1.25984E-02 1.64116E-02-2.85486E-14-6.46609E-13
 -1       111 2.16504E+01-4.52519E-03-1.10520E-02 1.23675E-02 1.46902E-13-3.38185E-13
 -1       112 2.11820E+01-3.91968E-03-9.07891E-03 9.05837E-03-1.57518E-13-3.31245E-13
 -1       113 2.08203E+01-3.26820E-03-7.18307E-03 6.50758E-03 9.04621E-14 3.24410E-13
 -1       114 2.05462E+01-2.67018E-03-5.56786E-03 4.62058E-03-1.32867E-13 1.69840E-13
 -1       115 2.03422E+01-2.17299E-03-4.30540E-03 3.27074E-03 4.12452E-14 2.88681E-13
 -1       116 2.01937E+01-1.79037E-03-3.42609E-03 2.32233E-03 6.87438E-14 1.17052E-13
 -1       117 2.00899E+01-1.51490E-03-2.95217E-03 1.62403E-03 8.98506E-14-1.83000E-13
 -1       118 2.00236E+01-1.29614E-03-2.81132E-03 9.67083E-04 5.07203E-14-4.54853E-13
 -1       119 1.99914E+01-8.20208E-04-2.29178E-03-2.22572E-04 8.56137E-15-1.14700E-12
 -1       120 1.99907E+01 1.04913E-03 1.03126E-03-2.51664E-03 1.67661E-13-1.06261E-12
 -1       121 2.00000E+01-8.55302E-03 5.89505E-04-3.38921E-03-9.20243E-13-1.72553E-14
 -1       122 1.99986E+01-5.81524E-03-2.57147E-03-8.08565E-04-1.09058E-12-2.19952E-13
 -1       123 1.99987E+01 2.87072E-02-2.32328E-03 1.03123E-03-1.67231E-12 2.50762E-14
 -1       124 1.99993E+01 8.59872E-02-1.11225E-03 2.00910E-03-1.24687E-12 2.10688E-13
 -1       125 2.00001E+01 1.53190E-01 1.92145E-04 2.25391E-03-2.20093E-13 1.11364E-14
 -1       126 2.00008E+01 2.16094E-01 1.26334E-03 1.99058E-03-6.97538E-13 1.78043E-13
 -1       127 2.00012E+01 2.65359E-01 2.00965E-03 1.33397E-03 7.60411E-14-1.62637E-14
 -1       128 2.00015E+01 2.91633E-01 2.37766E-03 4.56067E-04 3.69689E-13 3.43084E-14
 -1       129 2.00015E+01 2.90798E-01 2.34464E-03-4.82589E-04 4.79058E-13 2.97786E-13
 -1       130 2.00012E+01 2.63214E-01 1.92657E-03-1.32695E-03 9.15026E-13 4.64569E-14
 -1       131 2.00007E+01 2.13576E-01 1.16081E-03-1.95048E-03-2.00323E-13-4.51842E-14
 -1       132 2.00000E+01 1.51355E-01 1.40739E-04-2.16732E-03-5.93718E-13 2.87667E-13
 -1       133 1.99993E+01 8.55261E-02-1.07452E-03-1.91164E-03 2.48226E-13 6.13539E-14
 -1       134 1.99986E+01 2.93375E-02-2.33219E-03-1.16408E-03 5.23890E-13 2.30419E-13
 -1       135 1.99989E+01-4.01435E-03-2.21060E-03 9.70799E-04 1.72705E-13-9.14660E-14
 -1       136 1.99990E+01-7.64174E-03 5.80156E-04 4.99143E-03-1.18297E-13 1.19483E-13
 -1       137-1.48877E+00-1.94417E+01-3.07038E+00-3.79553E+00 9.17155E-13 1.91611E-13
 -1       138-1.62328E+00-8.20955E+00-2.31466E+00-3.06558E+00 4.94382E-13 2.79138E-13
 -1       139 3.15468E+00 3.52972E+00-1.14100E+00 3.65280E+00 6.99996E-14 9.92539E-14
 -1       140 1.57233E+01 1.03050E+01 3.10719E-01 1.26346E+01 1.05804E-13 1.64868E-13
 -1       141 3.43234E+01 9.94352E+00 1.76530E+00 1.79195E+01 4.53526E-14 1.62981E-13
 -1       142 5.47986E+01 5.24503E+00 3.04113E+00 1.55949E+01 2.27318E-14 2.04281E-13
 -1       143 6.66900E+01 1.18858E+00 3.72058E+00 4.41951E+00 5.85330E-14-1.98730E-14
 -1       144 6.35598E+01 2.44296E+00 3.56282E+00-9.25554E+00 9.86988E-14-1.91763E-13
 -1       145 4.77032E+01 7.14865E+00 2.62748E+00-1.72881E+01 2.65371E-13-6.50868E-13
 -1       146 2.72308E+01 1.07993E+01 1.25069E+00-1.68147E+01 6.28497E-13-1.00187E-12
 -1       147 1.02958E+01 8.72821E+00-2.15039E-01-9.52140E+00 9.55847E-13-9.21319E-13
 -1       148 7.37702E-01-2.40000E-02-1.56358E+00-8.58307E-01 1.05255E-12-6.56586E-13
 -1       149-1.91151E+00-1.24955E+01-2.64123E+00 4.15697E+00 1.17040E-12-5.48658E-13
 -1       150-1.09868E+00-2.26113E+01-3.28715E+00 2.85554E+00 7.35523E-13-1.06618E-13
 -1       151-8.39098E-01-2.34985E+01-3.29883E+00-1.71274E+00-2.65621E-14-9.90735E-14
 -1       152-1.70752E+00-1.52180E+01-2.74186E+00-4.11027E+00-2.06779E-13 4.10505E-14
 -1       153-1.84437E-01-2.68960E+00-1.73032E+00-4.86070E-01-5.37848E-13-4.50584E-13
 -1       154 7.46779E+00 7.50733E+00-4.26197E-01 7.59825E+00-6.58973E-13-6.29108E-13
 -1       155 2.26013E+01 1.12135E+01 9.61878E-01 1.56914E+01-7.40574E-13-8.39717E-13
 -1       156 4.22016E+01 8.32869E+00 2.24885E+00 1.79392E+01-1.88710E-13-4.66793E-13
 -1       157 6.04805E+01 2.89843E+00 3.23659E+00 1.08811E+01-2.97488E-14-3.49193E-13
 -1       158 5.65956E+01 4.13146E+00 3.05190E+00-1.38639E+01-2.43625E-14 2.19824E-13
 -1       159 3.79072E+01 9.46978E+00 2.01396E+00-1.84128E+01-2.92238E-13 4.68403E-13
 -1       160 1.85367E+01 1.10987E+01 6.66379E-01-1.41999E+01-5.00822E-13 4.63796E-13
 -1       161 4.80047E+00 5.50907E+00-7.79616E-01-5.36016E+00-6.71962E-13 5.72931E-13
 -1       162-1.32867E+00-6.76944E+00-2.11039E+00 2.44416E+00-7.96585E-13 2.72365E-13
 -1       163-1.38561E+00-1.90664E+01-3.00329E+00 3.88389E+00-3.15969E-13 2.99448E-13
 -1       164 2.09918E+01 3.69014E+00-5.72146E-02-3.60431E+00-1.81258E-13 2.82718E-13
 -1       165 1.99837E+01 4.20581E+00-4.55931E-02-2.80327E+00-1.94320E-13 5.26246E-14
 -1       166 1.95120E+01 4.47790E+00-3.14879E-02-2.18774E+00-1.75711E-13-9.11875E-14
 -1       167 1.92775E+01 4.61901E+00-2.36442E-02-1.66894E+00-1.51778E-13-1.73734E-13
 -1       168 1.91518E+01 4.70349E+00-1.93867E-02-1.21317E+00-1.17786E-13-2.28374E-13
 -1       169 1.90805E+01 4.75688E+00-1.73075E-02-7.87582E-01-1.04991E-13-2.64298E-13
 -1       170 1.90446E+01 4.78622E+00-1.63089E-02-3.84536E-01-6.82637E-14-2.84161E-13
 -1       171 1.90342E+01 4.79524E+00-1.60193E-02 8.14175E-03-3.71885E-14-3.03143E-13
 -1       172 1.90465E+01 4.78490E+00-1.63555E-02 4.01181E-01-1.35699E-14-3.24335E-13
 -1       173 1.90845E+01 4.75385E+00-1.74157E-02 8.05374E-01 7.46582E-15-3.42436E-13
 -1       174 1.91565E+01 4.69914E+00-1.95915E-02 1.22551E+00 3.88104E-14-3.33527E-13
 -1       175 1.92875E+01 4.60913E+00-2.39137E-02 1.69165E+00 8.31386E-14-3.13451E-13
 -1       176 1.95271E+01 4.46028E+00-3.27485E-02 2.22014E+00 1.24129E-13-2.85454E-13
 -1       177 2.00059E+01 4.18181E+00-4.70816E-02 2.84084E+00 1.66808E-13-1.80106E-13
 -1       178 2.11126E+01 3.46018E+00-5.96711E-02 3.53110E+00 1.92214E-13 2.09555E-14
 -1       179 2.23832E+01 1.14257E+00-3.35996E-01 3.01059E+00 1.71955E-13 2.95819E-13
 -1       180 2.19400E+01 8.57495E-01 6.68512E-04-1.95519E+00-1.49492E-13 5.13832E-13
 -1       181 2.04204E+01 1.90344E-01-9.92985E-03-7.60792E-01-1.40835E-13 4.06042E-13
 -1       182 1.96505E+01 1.02401E-01 1.36256E-02-2.81077E-01-1.14701E-13 3.32379E-13
 -1       183 1.93190E+01 4.83745E-02 1.01096E-02-6.06678E-02-7.39083E-14 2.38908E-13
 -1       184 1.92015E+01 2.45098E-02 5.30344E-03 5.09583E-02-2.30680E-14 2.04672E-13
 -1       185 1.92064E+01 1.24295E-02 2.63298E-03 1.10216E-01-4.40120E-14 1.80581E-13
 -1       186 1.92821E+01 6.21584E-03 1.40269E-03 1.42051E-01-4.32544E-14 1.95347E-13
 -1       187 1.94000E+01 3.46231E-03 8.50844E-04 1.59921E-01-5.18402E-14 1.45166E-13
 -1       188 1.95454E+01 2.96440E-03 6.08189E-04 1.72032E-01-4.93823E-14 9.10221E-14
 -1       189 1.97115E+01 4.01548E-03 5.20632E-04 1.83783E-01-2.06229E-14 8.05326E-14
 -1       190 1.98969E+01 6.11993E-03 5.16559E-04 1.98824E-01-1.92825E-14-2.99113E-14
 -1       191 2.01040E+01 8.83858E-03 5.49151E-04 2.19471E-01-2.58313E-14-2.75642E-14
 -1       192 2.03367E+01 1.16746E-02 5.75281E-04 2.46737E-01-1.51967E-14-1.50259E-14
 -1       193 2.05995E+01 1.39596E-02 5.47174E-04 2.80083E-01-3.98415E-14-1.07393E-14
 -1       194 2.08954E+01 1.47278E-02 4.09799E-04 3.16845E-01-6.26590E-14 7.01044E-14
 -1       195 2.12238E+01 1.25916E-02 1.04634E-04 3.51385E-01-6.61650E-14 6.21543E-14
 -1       196 2.15771E+01 5.67553E-03-4.15895E-04 3.74024E-01 7.76294E-15 2.03555E-14
 -1       197 2.19377E+01-8.24584E-03-1.15891E-03 3.70107E-01 4.33713E-14-3.33956E-15
 -1       198 2.22742E+01-3.11288E-02-2.04725E-03 3.20036E-01-9.23196E-14-7.94851E-14
 -1       199 2.25390E+01-6.31564E-02-2.87392E-03 2.01862E-01 3.80041E-14-1.25559E-13
 -1       200 2.26702E+01-1.00096E-01-3.30541E-03-1.16894E-03 2.93650E-14-9.82719E-14
 -1       201 2.26011E+01-1.30201E-01-2.98673E-03-2.86278E-01-4.11615E-14 5.55318E-15
 -1       202 2.22818E+01-1.33330E-01-1.71382E-03-6.12116E-01 5.67610E-14 4.52880E-14
 -1       203 2.17136E+01-8.75500E-02 1.54463E-04-8.86189E-01-7.38559E-15 1.22040E-13
 -1       204 2.09845E+01 1.36144E-02 1.88695E-03-9.80577E-01 4.64163E-14 1.43503E-13
 -1       205 2.02789E+01 1.41818E-01 2.89537E-03-7.92741E-01-8.30065E-16 1.52059E-13
 -1       206 1.98270E+01 2.36528E-01 3.21815E-03-3.29061E-01-1.03100E-13 1.35495E-14
 -1       207 1.97992E+01 2.42449E-01 3.37319E-03 2.59692E-01 6.13754E-14 4.97029E-14
 -1       208 2.02060E+01 1.56530E-01 3.24297E-03 7.48753E-01 2.19130E-13 8.96405E-14
 -1       209 2.08933E+01 2.93476E-02 2.29914E-03 9.74167E-01-1.50979E-13 1.55019E-13
 -1       210 2.16326E+01-7.74424E-02 4.82237E-04 9.11513E-01-1.09666E-13 3.35359E-13
 -1       211 2.22299E+01-1.30346E-01-1.59466E-03 6.53427E-01-2.50892E-13 1.93079E-13
 -1       212 2.25850E+01-1.31943E-01-2.90395E-03 3.29253E-01-1.68923E-13 1.21142E-13
 -1       213 2.26883E+01-1.03631E-01-3.26348E-03 3.78840E-02 3.24712E-14 1.83128E-13
 -1       214 2.25861E+01-6.64110E-02-2.88234E-03-1.73258E-01 9.55995E-14 2.50903E-13
 -1       215 2.23452E+01-3.30894E-02-2.06539E-03-2.97634E-01 1.95044E-13 2.04715E-13
 -1       216 2.20298E+01-8.63381E-03-1.15180E-03-3.50398E-01 2.92269E-14 5.63883E-15
 -1       217 2.16902E+01 6.77802E-03-3.61819E-04-3.53217E-01 1.29270E-13 1.46627E-13
 -1       218 2.13609E+01 1.49861E-02 2.11184E-04-3.26015E-01-8.25132E-16 6.49168E-14
 -1       219 2.10623E+01 1.82222E-02 5.64712E-04-2.83924E-01-2.40738E-13 1.05771E-13
 -1       220 2.08042E+01 1.84037E-02 7.40921E-04-2.37071E-01-2.21787E-13-9.88921E-14
 -1       221 2.05889E+01 1.69511E-02 7.93871E-04-1.91483E-01 2.04172E-13 3.99698E-14
 -1       222 2.04150E+01 1.48363E-02 7.71677E-04-1.50199E-01 4.73417E-15 2.31841E-13
 -1       223 2.02783E+01 1.26973E-02 7.07459E-04-1.14227E-01 1.87492E-13 8.72607E-14
 -1       224 2.01745E+01 1.09510E-02 6.14367E-04-8.32488E-02 2.51628E-13 1.20694E-13
 -1       225 2.00989E+01 9.84274E-03 4.89065E-04-5.61363E-02-2.09893E-14-7.52626E-14
 -1       226 2.00477E+01 9.34039E-03 3.86169E-04-3.16079E-02-8.24232E-14-3.18707E-14
 -1       227 2.00159E+01 8.55058E-03 2.97675E-04-9.51602E-03-5.36053E-14 7.39480E-14
 -1       228 2.09309E+01 2.76895E-01-5.12418E-02 1.16224E+00 1.63560E-13 2.37550E-13
 -1       229 1.98407E+01 1.27026E-01 8.35830E-03 4.40430E-01 1.08997E-13 1.40330E-13
 -1       230 1.93403E+01 5.86060E-02 1.27941E-02 1.46040E-01 8.48007E-14 3.99221E-14
 -1       231 1.91397E+01 2.87079E-02 7.71441E-03 4.12234E-03 8.57307E-14-1.88525E-14
 -1       232 1.91038E+01 1.46319E-02 3.94363E-03-6.92871E-02 4.80139E-15 9.04723E-15
 -1       233 1.91609E+01 7.44411E-03 2.06900E-03-1.08121E-01-3.76008E-14 1.78671E-14
 -1       234 1.92718E+01 3.89665E-03 1.21748E-03-1.29077E-01 3.60200E-14 1.61766E-14
 -1       235 1.94157E+01 2.60038E-03 8.18160E-04-1.41687E-01 4.28121E-14-2.32784E-14
 -1       236 1.95831E+01 2.88032E-03 6.25304E-04-1.52164E-01 3.89298E-14-9.53267E-14
 -1       237 1.97717E+01 4.37580E-03 5.42578E-04-1.64997E-01 4.31070E-14-6.66767E-14
 -1       238 1.99849E+01 6.88151E-03 5.24316E-04-1.83705E-01 7.06939E-14-6.42801E-14
 -1       239 2.02300E+01 1.02634E-02 5.37559E-04-2.11198E-01 5.51585E-14-2.01774E-13
 -1       240 2.05175E+01 1.43847E-02 5.47256E-04-2.49880E-01 5.22977E-14-2.50506E-13
 -1       241 2.08600E+01 1.90039E-02 5.08018E-04-3.01471E-01 4.63593E-14-3.19251E-13
 -1       242 2.12708E+01 2.36079E-02 3.59496E-04-3.66427E-01 4.38812E-14-2.77508E-13
 -1       243 2.17617E+01 2.71294E-02 3.15281E-05-4.42691E-01-1.14697E-14-3.57323E-13
 -1       244 2.23383E+01 2.75031E-02-5.24866E-04-5.23438E-01 3.06003E-14-3.54643E-13
 -1       245 2.29933E+01 2.10818E-02-1.25503E-03-5.93424E-01 4.80546E-15-4.09770E-13
 -1       246 2.36959E+01 2.18773E-03-1.86090E-03-6.24102E-01-1.39378E-13-3.47466E-13
 -1       247 2.43778E+01-3.61555E-02-1.63019E-03-5.69392E-01-1.84348E-13-7.91628E-14
 -1       248 2.49216E+01-9.81237E-02 3.53006E-04-3.68451E-01 8.44455E-14-4.93546E-14
 -1       249 2.51608E+01-1.75289E-01 4.40032E-03 3.17254E-02 2.00243E-13-1.99093E-13
 -1       250 2.49162E+01-2.31568E-01 8.53960E-03 6.21698E-01 2.46079E-14-2.58969E-13
 -1       251 2.40884E+01-1.96759E-01 7.35195E-03 1.24152E+00-1.78522E-13-3.30902E-13
 -1       252 2.28124E+01-1.79593E-02-3.99910E-03 1.55244E+00-6.77535E-14-1.56739E-13
 -1       253 2.15528E+01 2.45771E-01-2.21819E-02 1.21059E+00-6.28109E-14-1.91278E-13
 -1       254 2.09399E+01 4.19644E-01-2.94798E-02 2.29081E-01 2.01679E-14-9.76295E-14
 -1       255 2.13416E+01 3.46658E-01-1.76422E-02-8.89717E-01-7.70772E-14-1.34148E-13
 -1       256 2.25213E+01 9.55784E-02-5.27707E-04-1.50865E+00-7.14927E-14-5.47461E-14
 -1       257 2.38567E+01-1.32183E-01 9.72512E-03-1.41979E+00-4.49983E-14-3.72619E-15
 -1       258 2.48155E+01-2.24844E-01 9.56716E-03-8.76771E-01-1.85488E-13 4.54610E-14
 -1       259 2.51934E+01-2.02023E-01 4.12556E-03-2.49494E-01 3.00966E-14-9.16254E-15
 -1       260 2.50522E+01-1.30653E-01-9.49349E-04 2.30894E-01 3.06915E-13-5.36099E-14
 -1       261 2.45672E+01-6.11975E-02-3.14691E-03 5.03943E-01 8.65996E-15-1.65743E-13
 -1       262 2.39136E+01-1.29787E-02-3.04405E-03 6.06480E-01 2.00628E-13-4.60062E-13
 -1       263 2.32206E+01 1.39944E-02-1.96659E-03 6.00465E-01 1.85709E-13-6.79326E-13
 -1       264 2.25670E+01 2.58615E-02-8.27286E-04 5.38266E-01-2.17122E-13-5.61020E-13
 -1       265 2.19922E+01 2.87681E-02 7.79181E-06 4.54659E-01-1.11142E-13-2.47372E-13
 -1       266 2.15093E+01 2.71025E-02 4.96304E-04 3.69343E-01-1.73593E-13-6.29379E-14
 -1       267 2.11165E+01 2.35260E-02 7.19473E-04 2.91873E-01-2.16401E-13 4.07217E-13
 -1       268 2.08049E+01 1.94852E-02 7.75510E-04 2.25819E-01-2.12516E-14 2.52951E-13
 -1       269 2.05625E+01 1.56976E-02 7.40614E-04 1.71558E-01-2.89208E-13 3.33697E-13
 -1       270 2.03775E+01 1.24930E-02 6.61297E-04 1.27896E-01 2.68769E-13 3.19681E-13
 -1       271 2.02394E+01 1.00162E-02 5.56554E-04 9.29184E-02 2.44914E-13-2.16078E-13
 -1       272 2.01395E+01 8.30766E-03 4.16482E-04 6.44372E-02 1.90648E-13-1.80543E-13
 -1       273 2.00710E+01 7.37050E-03 2.32177E-04 4.03212E-02 2.07164E-13-2.55190E-13
 -1       274 2.00286E+01 7.14169E-03 2.37246E-04 1.87966E-02 1.45636E-13-2.10176E-13
 -1       275 2.00070E+01 4.64927E-03 6.05440E-04 9.41838E-04-9.15661E-14-2.80733E-13
 -1       276 2.00087E+01 1.62291E-02 2.77481E-04 1.05205E-02-2.85252E-13-7.28162E-14
 -1       277 2.00083E+01 4.49529E-02 7.50381E-05 3.06923E-02-3.31481E-13-5.29004E-13
 -1       278 2.00048E+01 8.67280E-02 2.26241E-05 4.65460E-02-1.78475E-13 4.67922E-13
 -1       279 2.00006E+01 1.36016E-01-2.30368E-05 5.32184E-02-2.58405E-13 5.87670E-13
 -1       280 1.99968E+01 1.84511E-01-1.24658E-04 5.01773E-02-2.26143E-13-1.97850E-13
 -1       281 1.99937E+01 2.26188E-01-2.21410E-04 3.84530E-02-2.14580E-13 2.14190E-13
 -1       282 1.99918E+01 2.53581E-01-2.91705E-04 2.04234E-02-1.63201E-14 2.34969E-13
 -1       283 1.99912E+01 2.62556E-01-3.15109E-04-7.54220E-04 1.56499E-13 8.78459E-14
 -1       284 1.99920E+01 2.51860E-01-2.87622E-04-2.16450E-02 2.56571E-13 1.86506E-13
 -1       285 1.99940E+01 2.23250E-01-2.15154E-04-3.89420E-02 1.69533E-13-6.53341E-13
 -1       286 1.99971E+01 1.82021E-01-1.11695E-04-4.96927E-02 3.18307E-13-9.46742E-14
 -1       287 2.00008E+01 1.33133E-01-1.78243E-05-5.22423E-02 3.54139E-13 5.10472E-13
 -1       288 2.00046E+01 8.47440E-02 2.98842E-05-4.54180E-02 2.64888E-13 2.24255E-13
 -1       289 2.00079E+01 4.47532E-02 2.30279E-04-3.02487E-02 9.77140E-14-2.45928E-13
 -1       290 2.00145E+01 2.54079E-02 2.33124E-04-2.16330E-02-4.08339E-14-2.59419E-13
 -1       291-3.95291E-01-8.65616E+00-6.25874E-01 1.50269E+00 2.42265E-13-3.32179E-13
 -1       292 2.77591E+00-8.48783E+00-8.16065E-01 3.25051E+00 1.59484E-13-1.20924E-13
 -1       293 9.89454E+00-5.14388E+00-4.98132E-01 5.58960E+00 1.67005E-13-2.44763E-13
 -1       294 1.87543E+01-1.11919E+00-1.42380E-01 7.02078E+00-1.66256E-13-1.36391E-13
 -1       295 2.91319E+01 2.17639E+00 3.04166E-01 7.45592E+00-1.15491E-13-1.16351E-13
 -1       296 3.80526E+01 4.29381E+00 5.43316E-01 4.68351E+00-4.81698E-14-6.40044E-14
 -1       297 4.57356E+01 6.29726E+00 1.00802E+00 3.08441E+00 1.36835E-14-1.18239E-14
 -1       298 4.58155E+01 7.07345E+00 9.12707E-01-5.14002E-01 9.92539E-14 9.87821E-14
 -1       299 4.13362E+01 5.91925E+00 6.17450E-01-2.79098E+00 2.69854E-13 5.57887E-14
 -1       300 3.54869E+01 3.58481E+00 5.15105E-01-6.26228E+00 2.66655E-13-1.00309E-13
 -1       301 2.55113E+01 1.07485E+00 1.54945E-01-7.46936E+00 2.82191E-13-2.19408E-13
 -1       302 1.53445E+01-2.44301E+00-2.83160E-01-6.57666E+00 3.79419E-13-3.35537E-13
 -1       303 6.81312E+00-6.32868E+00-6.64142E-01-4.64469E+00 3.52773E-13-2.48204E-13
 -1       304 9.71665E-01-9.68505E+00-9.30513E-01-2.32574E+00 2.52853E-13-2.34660E-13
 -1       305-1.19020E+00-1.00796E+01-8.55141E-01-1.24224E-01 1.30115E-13-3.26766E-13
 -1       306 2.19983E-01-9.97645E+00-9.05615E-01 2.15910E+00 7.48290E-14-7.67719E-14
 -1       307 5.67041E+00-6.76057E+00-5.67328E-01 4.90511E+00-2.80054E-14-3.18258E-13
 -1       308 1.33232E+01-3.24457E+00-2.98197E-01 6.50334E+00-1.51018E-13-1.99396E-13
 -1       309 2.28554E+01 4.07277E-01 6.57888E-02 7.41585E+00-1.77386E-13-3.21743E-13
 -1       310 3.26066E+01 3.74529E+00 4.85161E-01 7.49340E+00-3.45501E-13-8.52651E-14
 -1       311 3.96558E+01 5.61225E+00 5.57797E-01 3.54108E+00-1.12924E-13 4.01623E-14
 -1       312 4.54824E+01 6.74341E+00 9.14449E-01 1.30086E+00 6.24500E-15-5.88418E-14
 -1       313 4.48717E+01 6.59588E+00 9.24671E-01-2.43100E+00-1.52656E-13 3.17663E-14
 -1       314 3.98067E+01 5.35469E+00 7.85618E-01-6.03204E+00-2.91007E-13 1.96981E-13
 -1       315 3.04941E+01 3.22450E+00 4.10305E-01-7.69832E+00-2.87964E-13 3.28071E-13
 -1       316 2.00967E+01-2.15419E-02-2.67289E-02-7.44294E+00-3.88772E-13 2.70700E-13
 -1       317 1.11128E+01-4.45765E+00-3.76328E-01-6.19115E+00-1.80050E-13 1.04194E-13
 -1       318 2.94044E+00-8.19701E+00-7.96668E-01-3.58182E+00 4.83780E-14 1.97752E-13
 -1       319-8.04838E-01-1.07209E+01-9.73432E-01-1.28903E+00 2.92155E-13 8.45060E-13
 -1       320 2.01445E+01 3.01696E+00-1.78887E-02-2.10108E+00-2.13842E-13 1.55743E-14
 -1       321 2.07431E+01 2.20772E+00-1.77851E-02-2.35620E+00-2.13893E-13 1.73880E-13
 -1       322 1.95962E+01 3.70103E+00-1.50743E-02-1.30726E+00-1.63297E-13-1.40340E-13
 -1       323 1.94747E+01 3.86202E+00-1.35277E-02-9.15683E-01-1.35386E-13-1.88499E-13
 -1       324 1.94070E+01 3.95561E+00-1.26271E-02-5.38769E-01-1.00548E-13-1.94803E-13
 -1       325 1.93769E+01 3.99844E+00-1.22238E-02-1.71590E-01-6.20955E-14-2.15579E-13
 -1       326 1.93783E+01 3.99677E+00-1.22466E-02 1.92372E-01-2.85994E-14-2.31195E-13
 -1       327 1.94114E+01 3.95025E+00-1.27008E-02 5.59951E-01-7.00827E-15-2.69002E-13
 -1       328 1.94812E+01 3.85404E+00-1.37217E-02 9.31302E-01 3.30171E-14-2.73546E-13
 -1       329 1.96056E+01 3.68792E+00-1.56199E-02 1.32386E+00 7.73937E-14-2.29476E-13
 -1       330 1.98161E+01 3.41512E+00-1.88008E-02 1.72896E+00 1.30932E-13-2.20061E-13
 -1       331 2.01784E+01 2.95680E+00-2.28848E-02 2.11840E+00 1.67899E-13-1.69393E-13
 -1       332 2.07356E+01 2.12896E+00-3.03959E-02 2.31532E+00 2.05791E-13-4.58591E-14
 -1       333 2.10729E+01 1.18719E+00-2.48439E-02 1.91699E+00 2.00331E-13 8.12544E-14
 -1       334 2.03736E+01 4.90132E-01 8.38303E-03 9.21589E-01 1.51966E-13 3.20620E-14
 -1       335 2.04474E+01 6.77444E-01 1.24009E-02-1.01665E+00-1.59817E-13 1.76269E-13
 -1       336 2.00327E+01 3.41284E-01 7.25237E-03-4.44607E-01-1.41438E-13 1.47660E-13
 -1       337 1.97884E+01 1.83464E-01 4.20933E-03-1.29203E-01-9.08971E-14 1.22350E-13
 -1       338 1.96669E+01 1.01106E-01 2.00359E-03 5.23720E-02-3.47126E-14 8.85487E-14
 -1       339 1.96316E+01 5.63441E-02 9.65353E-04 1.58312E-01-5.11942E-14 7.68274E-14
 -1       340 1.96543E+01 3.28357E-02 5.14180E-04 2.21676E-01-6.53318E-14 5.60089E-14
 -1       341 1.97167E+01 2.25199E-02 3.33439E-04 2.62631E-01-5.00759E-14 6.16464E-14
 -1       342 1.98077E+01 2.09500E-02 2.85998E-04 2.94193E-01-6.95433E-14 6.73044E-14
 -1       343 1.99215E+01 2.53063E-02 3.13709E-04 3.25108E-01-1.15479E-13-6.00250E-14
 -1       344 2.00562E+01 3.34370E-02 3.82941E-04 3.61173E-01-3.77191E-14-1.20743E-13
 -1       345 2.02119E+01 4.32877E-02 4.64423E-04 4.05723E-01-3.94025E-15-1.17022E-13
 -1       346 2.03906E+01 5.24435E-02 5.24737E-04 4.59586E-01 5.53265E-14 1.61441E-14
 -1       347 2.05942E+01 5.76801E-02 5.21293E-04 5.20555E-01-3.04791E-14 9.23561E-14
 -1       348 2.08244E+01 5.45224E-02 3.99510E-04 5.82434E-01 1.64720E-15 7.91667E-14
 -1       349 2.10807E+01 3.69281E-02 9.44112E-05 6.33717E-01-4.49282E-14 1.16124E-13
 -1       350 2.13597E+01-2.56711E-03-4.57436E-04 6.56188E-01 1.19686E-15 9.85434E-14
 -1       351 2.16530E+01-7.15467E-02-1.28975E-03 6.24138E-01-6.08928E-14-3.77073E-14
 -1       352 2.19452E+01-1.74115E-01-2.35579E-03 5.05724E-01-4.16262E-14-8.44595E-14
 -1       353 2.22106E+01-3.03740E-01-3.44441E-03 2.69143E-01 2.03650E-14-1.36958E-13
 -1       354 2.24104E+01-4.32769E-01-4.15196E-03-1.02740E-01 3.83782E-14-1.79372E-13
 -1       355 2.24923E+01-5.03828E-01-3.95618E-03-5.87157E-01 1.34017E-13-6.73238E-14
 -1       356 2.24007E+01-4.36333E-01-2.25210E-03-1.09143E+00 7.44235E-14 5.77140E-14
 -1       357 2.21087E+01-1.67300E-01 3.71897E-04-1.44023E+00 1.21967E-14 7.28915E-14
 -1       358 2.16713E+01 2.73799E-01 2.87808E-03-1.42270E+00 2.06611E-14-5.01762E-14
 -1       359 2.12534E+01 7.16457E-01 4.57801E-03-9.23039E-01-6.02398E-14-9.50978E-14
 -1       360 2.10649E+01 9.20720E-01 5.34317E-03-5.72821E-02-4.42701E-15 1.25652E-13
 -1       361 2.12152E+01 7.57047E-01 4.95846E-03 8.31302E-01 1.45571E-13 1.02203E-13
 -1       362 2.16154E+01 3.34226E-01 3.95544E-03 1.38811E+00 8.59109E-14-3.76669E-14
 -1       363 2.20628E+01-1.17830E-01 1.12177E-03 1.46422E+00-3.18394E-14-1.72527E-13
 -1       364 2.23803E+01-4.13370E-01-2.52375E-03 1.15111E+00 2.64247E-14 1.01543E-14
 -1       365 2.24992E+01-5.02728E-01-4.14823E-03 6.56938E-01-1.85082E-13 3.04225E-13
 -1       366 2.24397E+01-4.43033E-01-4.19210E-03 1.66310E-01-1.65309E-13 3.83232E-13
 -1       367 2.22568E+01-3.16183E-01-3.50442E-03-2.17552E-01 3.73314E-14 3.32026E-13
 -1       368 2.20046E+01-1.83326E-01-2.41789E-03-4.64816E-01 1.08270E-13 2.16789E-13
 -1       369 2.17243E+01-7.53106E-02-1.32687E-03-5.89174E-01-2.88753E-14 3.72213E-13
 -1       370 2.14434E+01-5.70740E-04-4.42546E-04-6.21363E-01 8.19920E-14 3.80733E-13
 -1       371 2.11790E+01 4.41496E-02 1.66091E-04-5.93430E-01 2.01230E-14 1.82321E-14
 -1       372 2.09409E+01 6.62210E-02 5.23379E-04-5.31774E-01-3.70952E-14 1.34815E-13
 -1       373 2.07336E+01 7.31497E-02 6.90540E-04-4.55400E-01-2.38654E-13 3.53980E-13
 -1       374 2.05581E+01 7.10432E-02 7.31538E-04-3.76601E-01 1.56831E-14 3.45909E-13
 -1       375 2.04131E+01 6.43470E-02 6.99964E-04-3.02438E-01 1.71313E-13 1.28873E-13
 -1       376 2.02960E+01 5.60915E-02 6.34476E-04-2.36220E-01 7.83190E-14 4.45326E-13
 -1       377 2.02036E+01 4.82390E-02 5.57755E-04-1.78742E-01 5.74855E-14 1.69656E-13
 -1       378 2.01322E+01 4.19549E-02 4.85419E-04-1.29292E-01-2.78403E-13-1.05117E-13
 -1       379 2.00785E+01 3.76349E-02 4.87787E-04-8.63707E-02-2.83584E-14-3.44000E-13
 -1       380 2.00422E+01 3.22278E-02 2.99653E-04-5.13023E-02 9.33582E-14-2.46772E-13
 -1       381 1.98783E+01 2.30606E-01 1.08500E-02 3.90324E-01 1.28837E-13-1.07570E-14
 -1       382 1.95990E+01 1.19065E-01 6.26145E-03 1.06874E-01 1.08629E-13-4.39980E-14
 -1       383 1.94781E+01 6.33943E-02 2.93793E-03-4.94654E-02-1.74631E-14-3.54714E-14
 -1       384 1.94584E+01 3.41747E-02 1.36798E-03-1.37391E-01-2.26719E-14-7.29919E-14
 -1       385 1.95032E+01 1.91946E-02 7.16053E-04-1.88279E-01 1.85988E-14-1.03574E-13
 -1       386 1.95904E+01 1.29581E-02 4.64459E-04-2.20370E-01 6.26077E-14-5.17616E-14
 -1       387 1.97077E+01 1.27244E-02 4.01548E-04-2.45470E-01 7.40967E-14-5.13235E-14
 -1       388 1.98500E+01 1.69971E-02 4.51275E-04-2.71925E-01 1.64780E-14-2.95948E-14
 -1       389 2.00171E+01 2.48913E-02 5.80601E-04-3.06074E-01 1.24031E-13-8.65162E-14
 -1       390 2.02122E+01 3.57965E-02 7.66911E-04-3.52956E-01 1.03424E-13-1.59841E-13
 -1       391 2.04417E+01 4.91018E-02 9.84745E-04-4.16538E-01 1.35287E-13-2.25158E-13
 -1       392 2.07131E+01 6.38482E-02 1.19520E-03-4.99495E-01 4.18176E-14-2.21341E-13
 -1       393 2.10350E+01 7.81955E-02 1.33328E-03-6.02379E-01 1.54322E-14-1.74372E-13
 -1       394 2.14152E+01 8.85683E-02 1.29388E-03-7.21887E-01 3.33806E-14-9.76330E-14
 -1       395 2.18584E+01 8.83846E-02 9.24493E-04-8.47791E-01 1.05402E-13-1.78237E-13
 -1       396 2.23636E+01 6.64911E-02 4.46311E-05-9.58164E-01 5.63559E-14-2.31445E-13
 -1       397 2.29197E+01 6.19077E-03-1.47480E-03-1.01312E+00-1.91570E-13-1.90907E-13
 -1       398 2.35002E+01-1.12443E-01-3.54994E-03-9.49359E-01-1.93232E-13-1.63919E-13
 -1       399 2.40556E+01-3.00742E-01-5.51920E-03-6.82709E-01-7.64558E-15-1.66406E-13
 -1       400 2.45028E+01-5.33492E-01-6.70839E-03-1.35318E-01 2.18514E-13-1.01392E-13
 -1       401 2.47230E+01-7.11429E-01-6.39641E-03 6.97272E-01 6.25910E-14-2.28826E-14
 -1       402 2.45673E+01-6.29106E-01-5.97691E-03 1.62686E+00-1.16699E-13-3.15815E-14
 -1       403 2.39780E+01-1.16976E-01-7.38404E-03 2.18886E+00-1.01077E-13-1.82347E-13
 -1       404 2.31577E+01 7.04858E-01-1.45907E-02 1.83060E+00 5.60229E-15-2.25558E-13
 -1       405 2.26298E+01 1.29066E+00-1.59312E-02 4.81198E-01-4.00114E-14-9.10423E-14
 -1       406 2.28298E+01 1.11542E+00-5.30115E-03-1.17889E+00-4.75739E-14 6.49723E-14
 -1       407 2.35851E+01 3.44208E-01-2.54343E-03-2.13564E+00-3.94134E-14 1.10356E-13
 -1       408 2.43513E+01-3.90960E-01-3.57178E-03-2.02796E+00-7.80138E-14 1.19987E-13
 -1       409 2.47369E+01-7.08274E-01-6.35731E-03-1.22979E+00-1.60766E-13 7.12702E-14
 -1       410 2.46890E+01-6.52955E-01-8.17592E-03-3.01610E-01 8.42924E-14-1.85141E-13
 -1       411 2.43333E+01-4.32101E-01-8.01762E-03 4.13452E-01 2.01250E-13-1.81194E-13
 -1       412 2.38168E+01-2.08810E-01-5.77273E-03 8.25205E-01 2.09607E-13-2.61336E-15
 -1       413 2.32446E+01-4.95046E-02-3.01090E-03 9.84936E-01 3.47963E-13-1.35917E-13
 -1       414 2.26804E+01 4.23863E-02-7.59449E-04 9.80338E-01 1.46380E-13-5.14920E-14
 -1       415 2.21609E+01 8.46819E-02 6.70304E-04 8.87222E-01-9.08803E-14 1.14817E-13
 -1       416 2.17044E+01 9.66320E-02 1.38612E-03 7.57682E-01-1.89497E-13-2.59056E-13
 -1       417 2.13166E+01 9.25348E-02 1.61738E-03 6.22471E-01-4.85624E-13-1.04296E-13
 -1       418 2.09959E+01 8.13449E-02 1.57333E-03 4.97371E-01-3.65167E-13 2.65270E-13
 -1       419 2.07367E+01 6.80902E-02 1.40043E-03 3.88944E-01-2.23970E-14 2.91362E-13
 -1       420 2.05310E+01 5.53550E-02 1.18733E-03 2.98576E-01-1.54023E-13 3.09607E-13
 -1       421 2.03708E+01 4.43660E-02 9.80010E-04 2.24966E-01 3.87701E-13 1.84336E-14
 -1       422 2.02484E+01 3.56582E-02 7.97562E-04 1.65523E-01 4.33448E-13 6.86894E-14
 -1       423 2.01570E+01 2.93688E-02 6.40686E-04 1.17145E-01 2.52040E-13-2.62298E-14
 -1       424 2.00908E+01 2.52492E-02 4.78838E-04 7.68830E-02 3.57362E-13-2.26776E-13
 -1       425 2.00449E+01 2.23652E-02 3.46996E-04 4.26508E-02 1.09574E-13-2.89489E-13
 -1       426 2.00243E+01 2.10391E-02 2.05184E-04 2.55410E-02-1.15431E-13-1.75371E-13
 -1       427 2.00096E+01 1.28650E-01 1.06507E-04 9.32722E-02 4.02665E-14 5.89762E-13
 -1       428 2.00240E+01 8.22901E-02 2.45504E-04 7.73208E-02 1.33153E-13 7.40972E-15
 -1       429 2.00278E+01 4.81951E-02 3.00746E-04 5.20788E-02-1.64670E-13-2.38257E-13
 -1       430 1.99943E+01 1.74374E-01-4.23974E-05 9.38812E-02-9.26445E-14-1.27954E-13
 -1       431 1.99806E+01 2.15298E-01-1.68092E-04 7.92348E-02-6.05910E-14 4.26229E-13
 -1       432 1.99706E+01 2.45296E-01-2.60541E-04 5.20634E-02-2.90869E-14 2.43548E-13
 -1       433 1.99657E+01 2.60543E-01-3.09592E-04 1.70169E-02-3.15232E-13 2.22562E-13
 -1       434 1.99662E+01 2.59161E-01-3.07173E-04-2.03541E-02-2.70319E-13 2.84000E-13
 -1       435 1.99719E+01 2.41489E-01-2.53283E-04-5.43550E-02-4.55421E-14-9.58467E-14
 -1       436 1.99819E+01 2.10630E-01-1.57642E-04-7.95105E-02 1.48742E-13-2.45667E-13
 -1       437 1.99952E+01 1.69535E-01-4.40937E-05-9.27619E-02 3.92746E-13 5.21569E-13
 -1       438 2.00098E+01 1.23863E-01 8.30670E-05-9.12997E-02 3.16284E-13 3.25407E-13
 -1       439 2.00235E+01 7.85306E-02 2.22517E-04-7.53930E-02-9.77317E-15-2.55277E-13
 -1       440 1.08283E+01-5.53456E+00-2.13284E-02 6.78293E+00-9.24677E-14-1.17469E-13
 -1       441 1.71941E+00-3.56695E+00 3.06735E-02-8.47111E-01-7.97348E-14 4.51666E-13
 -1       442 4.87001E+00-4.27943E+00 1.82057E-02 4.70424E+00-7.19841E-14-2.94140E-13
 -1       443 1.95848E+01-5.49374E+00-2.26081E-02 6.38566E+00 4.50751E-14-2.07973E-13
 -1       444 2.69267E+01-3.37625E+00-4.75342E-03 4.30363E+00-3.17385E-14 1.45217E-13
 -1       445 1.97937E+01 3.44517E+00-2.08784E-02-1.71670E+00-1.83202E-13-7.82169E-14
 -1       446 3.48071E+01 5.18410E+00 1.27606E-02-7.60697E-01-8.89983E-14 3.63598E-15
 -1       447 3.52558E+01 7.64171E+00-8.66056E-03-4.17375E-01-5.55112E-17-7.90340E-15
 -1       448 3.49408E+01 7.14633E+00-4.49224E-03 6.80544E-01 1.53877E-13 1.22909E-13
 -1       449 3.32841E+01 2.56044E+00-4.71133E-02 6.04595E-01 3.65125E-14 2.63581E-13
 -1       450 3.13203E+01-1.05894E+00 5.82159E-03-1.73647E+00-4.18068E-15 2.45470E-13
 -1       451 2.46822E+01-4.57245E+00-2.09335E-02-5.02893E+00-2.07889E-14 2.79374E-13
 -1       452 1.61051E+01-5.72089E+00-4.82650E-02-6.83103E+00-7.14429E-14-5.53169E-14
 -1       453 8.12096E+00-5.27893E+00-3.19124E-02-6.26718E+00-1.18641E-13-7.05824E-14
 -1       454 2.30400E+00-4.60646E+00-6.07860E-02-2.96139E+00-7.73825E-14-1.59275E-13
 -1       455 1.97284E+00-3.98403E+00-8.34983E-03 2.35887E+00 9.25995E-14-2.80470E-13
 -1       456 5.69596E+00-4.80120E+00-3.19365E-02 5.63175E+00 5.74818E-14-1.37459E-13
 -1       457 1.43251E+01-5.46918E+00-1.26320E-03 7.23448E+00 1.07539E-13-2.46767E-13
 -1       458 2.24074E+01-4.73247E+00-8.01100E-03 5.88783E+00 1.63369E-13 8.50570E-14
 -1       459 2.90657E+01-1.31125E+00 3.22951E-02 3.63213E+00-3.99195E-14 4.73815E-13
 -1       460 3.31460E+01 2.54734E+00 3.19104E-02 1.06692E+00-6.70644E-14 4.09131E-13
 -1       461 3.45150E+01 7.03000E+00-9.93289E-03-2.73139E-01 7.19286E-14-4.43187E-14
 -1       462 3.62982E+01 8.06830E+00 1.10178E-01 3.57697E-02-1.22846E-13 8.65315E-14
 -1       463 3.38429E+01 5.70689E+00-3.04467E-02 4.72995E-01-2.60750E-13 7.32192E-14
 -1       464 3.26006E+01 1.74465E+00 3.07935E-02-1.49215E+00-1.94889E-13-9.26481E-14
 -1       465 2.75410E+01-2.27961E+00 1.13062E-02-4.21401E+00-1.61787E-13 6.33521E-14
 -1       466 2.08004E+01-5.03212E+00 4.05361E-03-6.36198E+00-7.85483E-15 2.18964E-13
 -1       467 1.13250E+01-5.29386E+00 1.49256E-02-7.17727E+00-2.44249E-14 1.61204E-13
 -1       468 3.72835E+00-4.65092E+00-4.82920E-02-4.51899E+00 1.77483E-13 5.58553E-13
 -1       469 3.21682E+01 3.35867E-02 1.12917E-02 1.60114E+00-1.09214E-14-6.96943E-14
 -1       470 4.72866E+00-1.73071E+00 1.57499E-01 2.29106E+00-1.48839E-13-4.17444E-13
 -1       471 3.13437E+01 4.45355E+00-1.17334E-01-1.32706E+00 1.25011E-13 5.12021E-14
 -1       472 2.03699E+01 8.36521E-01 4.03998E-03 9.59715E-01 1.42801E-13-8.19482E-14
 -1       473 1.97452E+01 3.12716E+00-5.33044E-03-6.24434E-01-1.03631E-13-1.62307E-13
 -1       474 1.98403E+01 2.94946E+00-5.78994E-03-9.38069E-01-1.35997E-13-1.51075E-13
 -1       475 1.96775E+01 3.25414E+00-4.99863E-03 8.56926E-03-5.76242E-14-1.91656E-13
 -1       476 1.96962E+01 3.21992E+00-5.08092E-03 3.24946E-01-2.34253E-14-2.48618E-13
 -1       477 1.97501E+01 3.11996E+00-5.40801E-03 6.35937E-01 1.29464E-14-2.50370E-13
 -1       478 1.98483E+01 2.93725E+00-5.95408E-03 9.48519E-01 6.37922E-14-2.12884E-13
 -1       479 2.00016E+01 2.64656E+00-6.52109E-03 1.24276E+00 9.49985E-14-1.95770E-13
 -1       480 2.02384E+01 2.19512E+00-5.68819E-03 1.48836E+00 1.24113E-13-1.71249E-13
 -1       481 2.01150E+01 4.61904E-01 5.11293E-03 4.45868E-01 1.25047E-13-7.80221E-14
 -1       482 2.03446E+01 9.83582E-01 2.99532E-03-9.27727E-01-1.53127E-13 3.67653E-14
 -1       483 3.09216E+01 1.20993E+00-1.19672E-01-1.86983E+00-1.62891E-13-2.13350E-13
 -1       484 2.01796E+01 5.55514E-01 1.84937E-03-4.44528E-01-1.20302E-13 2.87109E-14
 -1       485 2.00411E+01 3.23290E-01 1.08314E-03-1.31354E-01-8.13590E-14 2.02722E-14
 -1       486 1.99530E+01 1.89314E-01 5.06650E-04 6.70197E-02-5.43837E-14 5.81914E-15
 -1       487 1.99113E+01 1.13348E-01 2.44781E-04 1.92571E-01-5.08935E-14 2.06901E-14
 -1       488 1.99069E+01 7.33250E-02 1.40311E-04 2.74648E-01-1.14428E-13 1.78329E-14
 -1       489 1.99310E+01 5.69810E-02 1.07208E-04 3.33305E-01-7.06359E-14-3.17402E-14
 -1       490 1.99776E+01 5.67784E-02 1.12377E-04 3.82612E-01-1.40116E-13-3.00284E-14
 -1       491 2.00430E+01 6.73985E-02 1.40327E-04 4.32360E-01-1.05016E-13 1.72255E-14
 -1       492 2.01255E+01 8.43630E-02 1.79605E-04 4.88986E-01 1.46321E-14 7.79599E-14
 -1       493 2.02252E+01 1.03055E-01 2.17831E-04 5.55892E-01 6.82902E-14 5.62654E-14
 -1       494 2.03436E+01 1.17848E-01 2.39236E-04 6.33247E-01 2.85998E-14-2.09853E-14
 -1       495 2.04837E+01 1.21263E-01 2.22846E-04 7.17313E-01-3.72693E-14 4.39575E-14
 -1       496 2.06495E+01 1.03216E-01 1.41050E-04 7.99334E-01-2.93378E-14 7.88409E-14
 -1       497 2.08472E+01 5.07189E-02-4.04916E-05 8.64051E-01-7.41808E-14 9.98030E-14
 -1       498 2.10843E+01-5.11605E-02-3.54904E-04 8.88127E-01-1.01500E-13 1.19604E-14
 -1       499 2.13693E+01-2.15515E-01-8.19366E-04 8.39156E-01-1.37565E-13 7.48738E-14
 -1       500 2.17078E+01-4.44618E-01-1.40619E-03 6.76903E-01-4.66795E-14-1.85980E-14
 -1       501 2.20938E+01-7.13409E-01-1.93388E-03 3.60169E-01 6.71050E-14-1.00045E-13
 -1       502 2.24931E+01-9.47077E-01-2.17133E-03-1.34200E-01 1.21868E-13 2.73259E-14
 -1       503 2.28280E+01-1.00793E+00-1.99826E-03-7.73409E-01 8.02865E-14-5.63413E-14
 -1       504 2.29819E+01-7.23488E-01-5.61519E-04-1.41809E+00-8.79570E-15-1.71468E-13
 -1       505 2.28572E+01-2.29893E-03-5.34440E-04-1.79334E+00-6.50574E-14-2.37070E-13
 -1       506 2.25040E+01 9.80002E-01-2.45745E-03-1.58056E+00-4.32863E-14-2.82933E-13
 -1       507 2.21786E+01 1.74085E+00-2.71764E-03-6.87142E-01 9.69192E-14-2.45044E-13
 -1       508 2.21505E+01 1.79633E+00-3.26855E-03 5.47225E-01 7.10348E-14-2.22137E-13
 -1       509 2.24554E+01 1.10130E+00-1.92985E-03 1.50024E+00 8.02455E-14-9.81298E-14
 -1       510 2.28257E+01 1.11167E-01 2.91844E-05 1.80531E+00-7.77464E-14 7.98997E-14
 -1       511 2.29860E+01-6.58991E-01-3.44025E-03 1.49279E+00 1.23894E-13 7.07132E-14
 -1       512 2.28645E+01-9.91869E-01-3.47697E-03 8.64519E-01 9.14612E-14 8.25999E-15
 -1       513 2.25480E+01-9.61971E-01-2.33383E-03 2.16616E-01-6.94557E-14 2.84616E-13
 -1       514 2.21540E+01-7.38130E-01-1.92782E-03-2.94204E-01-1.40359E-13 5.71011E-13
 -1       515 2.17683E+01-4.65972E-01-1.39568E-03-6.25690E-01-2.65661E-14 2.68797E-13
 -1       516 2.14290E+01-2.27171E-01-8.45872E-04-7.96867E-01 6.13826E-14 2.94799E-13
 -1       517 2.11449E+01-5.13956E-02-3.64413E-04-8.47635E-01-2.42662E-14 2.07248E-14
 -1       518 2.09115E+01 6.12863E-02-2.18062E-05-8.18576E-01-2.15280E-13-1.66083E-13
 -1       519 2.07205E+01 1.23159E-01 1.84548E-04-7.42995E-01 1.66856E-13 3.69956E-14
 -1       520 2.05642E+01 1.49052E-01 2.88315E-04-6.45242E-01 2.05342E-14 2.87978E-13
 -1       521 2.04364E+01 1.52005E-01 3.23239E-04-5.41611E-01 8.10074E-14 6.49126E-13
 -1       522 2.03323E+01 1.41997E-01 3.16786E-04-4.42030E-01-6.17928E-14 5.35823E-13
 -1       523 2.02479E+01 1.26090E-01 2.90771E-04-3.51764E-01 1.50056E-13 3.85615E-13
 -1       524 2.01801E+01 1.09011E-01 2.59931E-04-2.72839E-01-1.44814E-13 3.32681E-13
 -1       525 2.01259E+01 9.36077E-02 2.26958E-04-2.05206E-01-3.36189E-13 8.55495E-14
 -1       526 2.00829E+01 8.13769E-02 2.22993E-04-1.47622E-01-3.48501E-13-9.96642E-14
 -1       527 1.16854E+01-3.02717E+00 1.69197E-01 6.03763E+00-1.20744E-13-1.60032E-13
 -1       528 1.98369E+01 1.48075E-01 1.08835E-03-6.16933E-02 2.21347E-14-1.21027E-13
 -1       529 1.97987E+01 8.66397E-02 4.98985E-04-1.80246E-01 2.16747E-14-1.44013E-13
 -1       530 1.98070E+01 5.51084E-02 2.72792E-04-2.55949E-01 2.44534E-14-1.60072E-13
 -1       531 1.98496E+01 4.33118E-02 2.01900E-04-3.09663E-01 4.30325E-14-1.17601E-13
 -1       532 1.99186E+01 4.56495E-02 2.13118E-04-3.56035E-01 5.41529E-14-1.25744E-13
 -1       533 2.00099E+01 5.87914E-02 2.79404E-04-4.05885E-01 1.04025E-13-1.69009E-13
 -1       534 2.01222E+01 8.05505E-02 3.86596E-04-4.67514E-01 1.54086E-13-1.40277E-13
 -1       535 2.02561E+01 1.09136E-01 5.22392E-04-5.47349E-01 9.72270E-14-1.05540E-13
 -1       536 2.04139E+01 1.42417E-01 6.70443E-04-6.50049E-01 7.83542E-14-8.37656E-14
 -1       537 2.05989E+01 1.76932E-01 8.03549E-04-7.78025E-01 1.12595E-14-7.69738E-14
 -1       538 2.08154E+01 2.06418E-01 8.74774E-04-9.30194E-01 2.75742E-15-1.49467E-13
 -1       539 2.10688E+01 2.19591E-01 8.06628E-04-1.09965E+00 6.06372E-14-1.21788E-13
 -1       540 2.13671E+01 1.97204E-01 4.84020E-04-1.26989E+00 5.61008E-14 8.90718E-14
 -1       541 2.17236E+01 1.09170E-01-2.35247E-04-1.40925E+00-1.22547E-13 8.52400E-14
 -1       542 2.21599E+01-8.51604E-02-1.46641E-03-1.46387E+00-2.23671E-13-1.36062E-14
 -1       543 2.27075E+01-4.25952E-01-3.22192E-03-1.35113E+00-2.82183E-14-1.55009E-13
 -1       544 2.33960E+01-9.14335E-01-4.28949E-03-9.60357E-01 2.73721E-14-2.33381E-13
 -1       545 2.42086E+01-1.43634E+00-5.40161E-03-1.93909E-01 1.19714E-13-9.13694E-14
 -1       546 2.50159E+01-1.68039E+00-9.66417E-03 9.69331E-01 4.02923E-14-3.41373E-14
 -1       547 2.55007E+01-1.10273E+00-1.57719E-02 2.18624E+00-3.24582E-14-1.87846E-13
 -1       548 2.53450E+01 5.02441E-01-1.58798E-02 2.70289E+00-8.24531E-14-2.19574E-13
 -1       549 2.46338E+01 2.42903E+00-8.03302E-02 1.71603E+00-3.37230E-15-3.27759E-14
 -1       550 2.46323E+01 2.98762E+00-4.95473E-02-5.26626E-01-1.16721E-13-1.45038E-13
 -1       551 2.50826E+01 1.62019E+00-4.79997E-02-2.35901E+00-1.78678E-13-3.13382E-14
 -1       552 2.54903E+01-3.32098E-01-2.63872E-02-2.60440E+00 3.23613E-15-5.94457E-14
 -1       553 2.53402E+01-1.50518E+00-1.41167E-02-1.64844E+00-5.10554E-14-1.62864E-13
 -1       554 2.46623E+01-1.62968E+00-5.93298E-03-3.93822E-01-4.40112E-14-2.01616E-13
 -1       555 2.38288E+01-1.20676E+00-5.37774E-03 5.97152E-01 1.59084E-13-4.84307E-14
 -1       556 2.30650E+01-6.65011E-01-4.29620E-03 1.17423E+00 1.07766E-13-7.96048E-16
 -1       557 2.24521E+01-2.38992E-01-2.36978E-03 1.41315E+00 2.26433E-13 1.57101E-13
 -1       558 2.19678E+01 3.15706E-02-7.50553E-04 1.42851E+00 2.67120E-13 2.54744E-13
 -1       559 2.15811E+01 1.73256E-01 3.20601E-04 1.31712E+00 1.38232E-13 4.58396E-14
 -1       560 2.12652E+01 2.28880E-01 8.82565E-04 1.14742E+00-9.82270E-14 1.23250E-13
 -1       561 2.10033E+01 2.34661E-01 1.08510E-03 9.61776E-01-2.35773E-13 3.63379E-13
 -1       562 2.07852E+01 2.15319E-01 1.07774E-03 7.83768E-01-5.15378E-13-1.32198E-13
 -1       563 2.06047E+01 1.85837E-01 9.68103E-04 6.24796E-01-3.11917E-13-1.40039E-13
 -1       564 2.04567E+01 1.54542E-01 8.22443E-04 4.88896E-01-1.59878E-14-7.16014E-14
 -1       565 2.03371E+01 1.25714E-01 6.76980E-04 3.75950E-01-4.51413E-15-4.09992E-14
 -1       566 2.02418E+01 1.01412E-01 5.45313E-04 2.83645E-01 2.53249E-13 2.02930E-13
 -1       567 2.01670E+01 8.23882E-02 4.58887E-04 2.08660E-01 2.23663E-13 5.53462E-13
 -1       568 2.01090E+01 6.87396E-02 4.57817E-04 1.47607E-01 6.00430E-13 4.96910E-13
 -1       569 2.00640E+01 5.87872E-02 3.79649E-04 9.68927E-02 4.05427E-13-5.55427E-15
 -1       570 1.99706E+01 2.18140E-01-9.11420E-05 1.24901E-01 2.05956E-13 2.45683E-13
 -1       571 1.99458E+01 2.54942E-01-1.02536E-04 9.32846E-02 1.62133E-13 2.73807E-13
 -1       572 2.00325E+01 1.20562E-01 2.39349E-05 1.30526E-01 4.42466E-13 1.98839E-13
 -1       573 2.00012E+01 1.71761E-01-2.95896E-05 1.38079E-01 1.26070E-13 3.40746E-13
 -1       574 1.99302E+01 2.77609E-01-1.31530E-04 4.82739E-02 1.44607E-13-7.18915E-14
 -1       575 1.99257E+01 2.83827E-01-1.41949E-04-3.32831E-03-2.79658E-13 6.52637E-14
 -1       576 1.99324E+01 2.73198E-01-1.28031E-04-5.39946E-02-2.07326E-13 5.48683E-13
 -1       577 1.99489E+01 2.47765E-01-9.27299E-05-9.59232E-02 9.79344E-14-2.34344E-13
 -1       578 1.99735E+01 2.09562E-01-6.18429E-05-1.24636E-01 9.38582E-14 1.94399E-13
 -1       579 2.00024E+01 1.63223E-01-3.84098E-05-1.35354E-01-3.14470E-14 3.28778E-13
 -1       580 2.00318E+01 1.13898E-01 9.88385E-05-1.26445E-01-2.69437E-13-1.74124E-13
 -1       581 2.50792E+01-5.39849E+00 1.80157E-02 3.90608E+00 6.30052E-14-1.17961E-15
 -1       582 1.99376E+01 2.59322E-01 2.50462E-03 1.30814E-01 4.93310E-14-8.35340E-14
 -1       583 1.80758E+01-5.31846E+00 7.85554E-02 6.35859E+00-2.61943E-14-3.71057E-14
 -1       584 9.70300E+00-2.97821E+00 1.40844E-01-6.04876E+00-4.93564E-14 4.08729E-13
 -1       585 6.03674E+00-1.65873E+00 1.78162E-01-3.48187E+00-1.19300E-13 4.86208E-13
 -1       586 2.69001E+01-4.19591E+00-5.01386E-03 2.69520E+00 1.40051E-13 6.41473E-13
 -1       587 4.73515E+00-1.17200E+00 1.79922E-01-6.45675E-01-1.54512E-13 3.38896E-14
 -1       588 2.93702E+01 6.55875E+00-1.75559E-01 2.15059E-01-4.52138E-14-2.59896E-14
 -1       589 1.96931E+01 3.22446E+00-5.07644E-03-3.07835E-01-6.25055E-14-1.94630E-13
 -1       590 3.00364E+01 3.98699E+00-1.57368E-01 2.35861E+00 4.06064E-14 8.41271E-14
 -1       591 3.09557E+01 5.58698E+00-1.84164E-01-1.60323E+00-7.43849E-14-1.65985E-13
 -1       592 2.22896E+01-5.72367E+00 3.04385E-02-5.14073E+00-1.31915E-13 1.36526E-13
 -1       593 2.99162E+01-1.20495E+00-1.35930E-01 1.39920E+00 7.26450E-14 2.31815E-13
 -1       594 2.05035E+01-5.49518E+00 6.13440E-02 6.07731E+00 1.48027E-13 1.87945E-13
 -1       595 2.79074E+01-4.33462E+00-4.29647E-02-1.61975E+00-1.20078E-14 1.23873E-13
 -1       596 1.58424E+01-4.78938E+00 1.12213E-01-6.62211E+00-2.69895E-13 1.51858E-14
 -1       597 8.67625E+00-2.14730E+00 1.79741E-01-4.90568E+00-3.30701E-13-4.09395E-14
 -1       598 6.32091E+00-2.23159E+00 1.49255E-01 4.36332E+00 1.50095E-13-1.60677E-13
 -1       599 3.03720E+01 7.31550E+00-1.74669E-01-4.03751E-01-1.55639E-13 3.65949E-13
 -1       600 1.24807E+01-4.06926E+00 1.16305E-01 6.87866E+00 2.93307E-13-2.38795E-13
 -1       601 2.93651E+01-1.21582E+00-9.35624E-02 1.80750E-01 6.08194E-14 4.36200E-13
 -1       602 3.00310E+01 6.68437E+00-1.57658E-01 1.10275E+00-1.60830E-13 2.25937E-13
 -1       603 2.99326E+01 2.18164E+00-1.44048E-01 1.55453E+00-1.99930E-13 1.22742E-13
 -1       604 2.94038E+01-1.55848E+00-7.68981E-02-4.13506E-01-8.27836E-14-3.75602E-14
 -1       605 2.57532E+01-4.78216E+00-2.42680E-03-3.52780E+00 1.58425E-13-2.84120E-13
 -1       606 1.85972E+01-5.22515E+00 6.33116E-02-6.45872E+00 8.36831E-14-1.94105E-13
 -1       607 2.03915E+01 1.77616E+00-5.65016E-03-1.53444E+00-1.94599E-13 4.76746E-14
 -1       608 2.05762E+01 1.30698E+00-9.82198E-04 1.53912E+00 1.75979E-13-7.92753E-14
 -1       609 2.89069E+01-3.50822E+00-6.34805E-02 1.12474E+00-5.06574E-14-1.98452E-13
 -1       610 1.99893E+01 2.67523E+00-6.55665E-03-1.24031E+00-1.66687E-13-9.16376E-14
 -1       611 1.56307E+01-3.58841E+00 1.07629E-01-6.26753E+00 9.85011E-14 2.64198E-14
 -1       612 2.89400E+01 9.72158E-01-1.07479E-01-1.77283E+00 1.71398E-13 1.21660E-13
 -1       613 2.00588E+01 7.39666E-02 2.32415E-04-1.12581E-01-1.75277E-13-1.79159E-13
 -1       614 2.79317E+01 3.99153E+00-1.17011E-01 2.13952E+00-9.27383E-14 8.40404E-14
 -1       615 6.59389E+00-3.20156E-01 1.64954E-01-7.41995E-01-3.98655E-13 1.60191E-13
 -1       616 2.88538E+01 5.80990E+00-1.51652E-01-1.50549E+00-8.00193E-14 5.10720E-13
 -1       617 1.99684E+01 2.48609E+00-1.57086E-03 3.83168E-01-1.79163E-14-2.20630E-13
 -1       618 1.99353E+01 2.56422E+00-1.50528E-03 1.31653E-01-4.63712E-14-2.05275E-13
 -1       619 2.01310E+01 2.07006E+00-1.60248E-03 8.30792E-01 6.01556E-14-1.68893E-13
 -1       620 2.02476E+01 1.69236E+00-2.23250E-03 9.72682E-01 9.25525E-14-1.74743E-13
 -1       621 2.03258E+01 1.04909E+00 2.91196E-03 8.11564E-01 1.27776E-13-1.15949E-13
 -1       622 2.02178E+01 6.34708E-01 1.14302E-03 3.90824E-01 1.00678E-13-1.18466E-13
 -1       623 2.02532E+01 6.94461E-01-6.01474E-04-3.58993E-01-1.05457E-13-3.55175E-14
 -1       624 2.01862E+01 4.30400E-01 2.56196E-04-8.82245E-02-7.98829E-14 7.26077E-16
 -1       625 2.01275E+01 2.66233E-01 7.62349E-05 9.55137E-02-4.73236E-14-4.82147E-15
 -1       626 2.00867E+01 1.70601E-01 3.78400E-05 2.20756E-01-9.54616E-14-3.49443E-14
 -1       627 2.00637E+01 1.21355E-01 2.64467E-05 3.09067E-01-9.37352E-14-1.02653E-15
 -1       628 2.00563E+01 1.04350E-01 2.74545E-05 3.77816E-01-8.59471E-14 1.06592E-14
 -1       629 2.00623E+01 1.09751E-01 3.57373E-05 4.39976E-01-5.63036E-14 1.36884E-13
 -1       630 2.00798E+01 1.29871E-01 4.88500E-05 5.04897E-01-6.98830E-15 1.94265E-13
 -1       631 2.01084E+01 1.57626E-01 6.41668E-05 5.78796E-01-4.72236E-14 1.08763E-13
 -1       632 2.01488E+01 1.85247E-01 7.78409E-05 6.64888E-01-1.96027E-14 1.63150E-14
 -1       633 2.02039E+01 2.03040E-01 8.47838E-05 7.63153E-01 1.11264E-14 1.64427E-14
 -1       634 2.02796E+01 1.98196E-01 7.80185E-05 8.69699E-01-5.27924E-15 8.22402E-15
 -1       635 2.03857E+01 1.53837E-01 4.64234E-05 9.75700E-01-3.61452E-14 2.81956E-14
 -1       636 2.05383E+01 4.88820E-02-3.08463E-05 1.06581E+00-1.38990E-13 1.35114E-14
 -1       637 2.07606E+01-1.39882E-01-1.72684E-04 1.11588E+00-2.77768E-14 2.51633E-14
 -1       638 2.10828E+01-4.30922E-01-3.94309E-04 1.09003E+00-6.17167E-14 9.77869E-14
 -1       639 2.15359E+01-8.22192E-01-7.04255E-04 9.38048E-01-6.65482E-14 1.93267E-13
 -1       640 2.21341E+01-1.26136E+00-8.43044E-04 5.97065E-01 4.98557E-14 9.62421E-14
 -1       641 2.28371E+01-1.60221E+00-1.10318E-03 1.26782E-02 1.12501E-13-1.73536E-14
 -1       642 2.35105E+01-1.58474E+00-3.23589E-03-7.97738E-01-3.52544E-14-4.59736E-14
 -1       643 2.39321E+01-8.96510E-01-3.83494E-03-1.63935E+00-1.33572E-13-1.11244E-13
 -1       644 2.38703E+01 5.81530E-01-1.35316E-02-2.05261E+00-8.87164E-14 4.26249E-14
 -1       645 2.34858E+01 2.27576E+00-2.21484E-02-1.52612E+00-9.69103E-14-8.39621E-14
 -1       646 2.32450E+01 3.12402E+00-2.39901E-02-9.74219E-02 2.03383E-13-2.64731E-13
 -1       647 2.33913E+01 2.51011E+00-4.08758E-02 1.42809E+00 1.61924E-13-1.67351E-13
 -1       648 2.38495E+01 8.48540E-01-2.41859E-02 2.13382E+00 9.07316E-14-3.43744E-15
 -1       649 2.40079E+01-7.21931E-01-3.51421E-03 1.78838E+00 7.72707E-14 1.43609E-13
 -1       650 2.36044E+01-1.52499E+00-2.42596E-03 9.28899E-01 1.32215E-13 2.01479E-13
 -1       651 2.29329E+01-1.62176E+00-1.44394E-03 8.52118E-02 7.14626E-14 2.44463E-13
 -1       652 2.22205E+01-1.30065E+00-6.66474E-04-5.25477E-01 7.20637E-16 9.40952E-14
 -1       653 2.16083E+01-8.60163E-01-4.60582E-04-8.86693E-01-1.88940E-13 1.44781E-13
 -1       654 2.11397E+01-4.55037E-01-3.72683E-04-1.05065E+00-1.74620E-13 8.20131E-14
 -1       655 2.08054E+01-1.46238E-01-1.79329E-04-1.07939E+00-1.72359E-13-1.09418E-13
 -1       656 2.05752E+01 5.97614E-02-2.31161E-05-1.02468E+00-8.66794E-14-2.03505E-13
 -1       657 2.04184E+01 1.79801E-01 5.93924E-05-9.23848E-01 1.81275E-13 5.52979E-14
 -1       658 2.03106E+01 2.36769E-01 9.76972E-05-8.02312E-01 7.65951E-14 1.47934E-13
 -1       659 2.02347E+01 2.51778E-01 1.09760E-04-6.76532E-01 9.99646E-14 7.54913E-14
 -1       660 2.01795E+01 2.41547E-01 1.07287E-04-5.56543E-01-7.47257E-14-4.63006E-14
 -1       661 2.01378E+01 2.18245E-01 9.64800E-05-4.47847E-01 1.27794E-14 2.88624E-14
 -1       662 2.01053E+01 1.90250E-01 8.34899E-05-3.52794E-01-7.10028E-14 1.57959E-14
 -1       663 2.00792E+01 1.62953E-01 9.52950E-05-2.71538E-01-3.74919E-13-1.18410E-13
 -1       664 2.00574E+01 1.39357E-01 7.48712E-05-2.03095E-01-2.79560E-13-5.05123E-14
 -1       665 1.77296E+01-4.09987E+00 9.20552E-02 6.00093E+00 3.20251E-13 6.51215E-15
 -1       666 2.00574E+01 2.31425E-01 2.01301E-04-8.60103E-02 3.46848E-14-1.45738E-13
 -1       667 2.00112E+01 9.09287E-02 7.05539E-05-3.69372E-01 3.48573E-14-9.76413E-14
 -1       668 2.00353E+01 1.00978E-01 8.67175E-05-4.32710E-01 7.97881E-14-1.06786E-13
 -1       669 2.00731E+01 1.28533E-01 1.19008E-04-5.02078E-01 1.23118E-13-7.97357E-14
 -1       670 2.01222E+01 1.69898E-01 1.64073E-04-5.86084E-01 9.42884E-14-9.31529E-14
 -1       671 2.01811E+01 2.21579E-01 2.17895E-04-6.91264E-01 7.36377E-14-3.77579E-14
 -1       672 2.02490E+01 2.78985E-01 2.75469E-04-8.22105E-01 3.12791E-14 1.98557E-14
 -1       673 2.03265E+01 3.34690E-01 3.27781E-04-9.80617E-01 4.39052E-15 1.47660E-14
 -1       674 2.04162E+01 3.75851E-01 3.56943E-04-1.16537E+00 2.57350E-14 1.40074E-14
 -1       675 2.05264E+01 3.80568E-01 3.31103E-04-1.36982E+00-5.11235E-14 2.34960E-14
 -1       676 2.06759E+01 3.13369E-01 1.98749E-04-1.57951E+00-1.34328E-14 3.89238E-14
 -1       677 2.09024E+01 1.21485E-01-1.03771E-04-1.76749E+00-4.65718E-14-5.88940E-14
 -1       678 2.12744E+01-2.62901E-01-5.78170E-04-1.88604E+00-4.89903E-14-1.99995E-13
 -1       679 2.18962E+01-9.00746E-01-1.96850E-03-1.84916E+00 3.56707E-14-1.31209E-13
 -1       680 2.29143E+01-1.78074E+00-1.76847E-03-1.49545E+00-7.50309E-14-1.50200E-13
 -1       681 2.42549E+01-2.60400E+00-2.12711E-02-6.87392E-01 9.95809E-14 1.33784E-13
 -1       682 2.60357E+01-2.82652E+00-7.78263E-03 7.13435E-01 7.51285E-14 3.65485E-14
 -1       683 2.71209E+01-1.21531E+00-6.19586E-02 2.36653E+00 5.29247E-14-2.05322E-14
 -1       684 2.74321E+01 5.36676E-01-1.04852E-01-2.75299E+00-6.64364E-14-1.57329E-13
 -1       685 2.66956E+01-2.17247E+00-2.87514E-02-1.63678E+00 2.11650E-13-5.98740E-14
 -1       686 2.52722E+01-2.90303E+00-1.06276E-02-6.06903E-03-6.55462E-14-4.17075E-13
 -1       687 2.36415E+01-2.24757E+00-9.25220E-03 1.11175E+00-8.49290E-14-4.87006E-13
 -1       688 2.24011E+01-1.32147E+00 3.69557E-04 1.68895E+00 1.24782E-13-3.58594E-13
 -1       689 2.16002E+01-5.56911E-01-4.88910E-04 1.86467E+00 1.22026E-13-2.36535E-13
 -1       690 2.11095E+01-4.16397E-02-2.63699E-04 1.81188E+00 2.55163E-13-3.44626E-14
 -1       691 2.08173E+01 2.46506E-01 7.89182E-05 1.64633E+00 1.82702E-13 6.81054E-14
 -1       692 2.06350E+01 3.76333E-01 2.92270E-04 1.43387E+00 1.23126E-14 1.91968E-13
 -1       693 2.05103E+01 4.09399E-01 3.83395E-04 1.21145E+00-2.72654E-13-1.27597E-16
 -1       694 2.04155E+01 3.89803E-01 3.93785E-04 9.99536E-01-3.40862E-13 1.62551E-13
 -1       695 2.03377E+01 3.45669E-01 3.60191E-04 8.08625E-01-3.82488E-13 4.06346E-13
 -1       696 2.02713E+01 2.93556E-01 3.10042E-04 6.42998E-01-2.33239E-13 1.28245E-13
 -1       697 2.02142E+01 2.42547E-01 2.56677E-04 5.03119E-01 4.96834E-14 2.19851E-13
 -1       698 2.01653E+01 1.97208E-01 2.00211E-04 3.87310E-01 1.24647E-13 1.81949E-13
 -1       699 2.01237E+01 1.59921E-01 1.75361E-04 2.92599E-01 2.08319E-14 2.53293E-13
 -1       700 2.00887E+01 1.31199E-01 2.21512E-04 2.15703E-01 5.57840E-13-1.74602E-14
 -1       701 2.00568E+01 1.25177E-01 1.35336E-04 1.70761E-01 7.49795E-13-2.62556E-13
 -1       702 2.41060E+01-4.90053E+00-5.37610E-03 3.42644E+00 1.25752E-13 5.09190E-13
 -1       703 1.98740E+01 3.22845E-01-5.13832E-05 2.81444E-02 9.07146E-15-2.96324E-13
 -1       704 1.41592E+01-2.73095E+00 9.07726E-02-5.53523E+00-1.75165E-13-1.00378E-13
 -1       705 1.99244E+01 2.73988E-01-1.81796E-05 1.45271E-01 2.80493E-14 5.48311E-14
 -1       706 1.98762E+01 3.19169E-01-4.55015E-05-3.96114E-02-6.08423E-14 2.99144E-13
 -1       707 1.98905E+01 3.07418E-01-4.78915E-05 9.28475E-02-5.15908E-14 2.07466E-13
 -1       708 1.98959E+01 2.97819E-01-3.32953E-05-1.00359E-01-2.38053E-13 3.31049E-13
 -1       709 1.99307E+01 2.60564E-01-3.44274E-05-1.48214E-01-3.81376E-14-9.47190E-14
 -1       710 1.99762E+01 2.11525E-01-5.32687E-05-1.75611E-01-1.03228E-13 3.55800E-14
 -1       711 2.01253E+01 3.82449E-01 5.85725E-04 1.04844E-01 6.14653E-14-1.27820E-13
 -1       712 1.73210E+01-3.58973E+00 8.17637E-02 5.49309E+00 6.14092E-14 1.06744E-13
 -1       713 2.70520E+01-3.44364E+00-3.68574E-02-6.46887E-01 9.47944E-14 1.07376E-13
 -1       714 1.04530E+01-1.04344E+00 1.53497E-01-4.45730E+00 1.26489E-13 3.85698E-13
 -1       715 2.65742E+01 5.84371E+00-1.75971E-01 3.59279E-01-5.01335E-14 3.90594E-13
 -1       716 2.02743E+01-4.43723E+00 5.93758E-02-4.98606E+00-8.70276E-14-2.05884E-13
 -1       717 2.70452E+01 3.37840E+00-1.21349E-01-2.32924E+00-2.13315E-13-1.61746E-14
 -1       718 1.13632E+01-1.90665E+00 1.24983E-01 5.34629E+00 1.61496E-13-9.82825E-14
 -1       719 2.00038E+01 1.03399E-01 7.49497E-05-3.00926E-01-1.55099E-14-1.11565E-13
 -1       720 2.00177E+01 1.46075E-01 1.11477E-04-2.12856E-01 3.03309E-14-1.46753E-13
 -1       721 2.02995E+01 1.14069E+00 1.56367E-03-7.37472E-01-1.32977E-13-3.46903E-14
 -1       722 2.85950E+01-1.98227E+00-7.44596E-02-1.53316E+00-1.29532E-14-2.33896E-13
 -1       723 2.00337E+01 2.32608E+00-1.65527E-03 6.21122E-01 3.55347E-14-1.88335E-13
 -1       724 2.00285E+01 2.33576E+00-1.63933E-03-6.13120E-01-9.58862E-14-1.36925E-13
 -1       725 8.09256E+00-1.18949E-01 1.47782E-01 2.04290E+00 6.66307E-15 3.93852E-14
 -1       726 8.97171E+00-1.23081E-01 1.44588E-01-2.28965E+00-1.54047E-13 4.91274E-14
 -1       727 2.30193E+01-4.96604E+00 1.20184E-02-4.06476E+00 1.35211E-13-5.24966E-14
 -1       728 2.51254E+01-4.78441E+00-1.39848E-02-2.37986E+00 8.87276E-14 2.85906E-14
 -1       729 2.72598E+01-3.04096E+00-6.18859E-02 1.90986E-01 9.55069E-14 3.29795E-13
 -1       730 2.27461E+01-5.06699E+00 2.95058E-02 4.16628E+00 9.77378E-14 7.05460E-14
 -1       731 2.68739E+01-4.49669E+00-1.57419E-02 1.31895E+00 1.67231E-13-2.01679E-13
 -1       732 2.00444E+01 1.25493E-01 6.14209E-05-1.62860E-01-2.59093E-13-7.22731E-14
 -1       733 9.58451E+00-7.48936E-01 1.60906E-01 3.54446E+00-4.09298E-13-2.63338E-13
 -1       734 2.77720E+01-8.02124E-01-9.89176E-02 1.33484E+00 1.23131E-14-1.11616E-13
 -1       735 2.01233E+01 2.08836E+00-1.67433E-03-8.27249E-01-1.28500E-13-9.36548E-14
 -1       736 1.99342E+01 2.56589E+00-1.50346E-03-1.22952E-01-3.64083E-14-1.91915E-13
 -1       737 2.01833E+01-4.06745E+00 5.45279E-02-4.88053E+00 3.16865E-14-3.58572E-13
 -1       738 2.15808E+01-4.38917E+00 2.31912E-02 4.26806E+00 2.38073E-13 3.40756E-13
 -1       739 1.39385E+01-1.52845E+00 7.00059E-02 4.64177E+00-8.05068E-14 2.38004E-15
 -1       740 2.00078E+01 1.84029E-01-4.03102E-05 1.81326E-01 2.34476E-13 5.07973E-13
 -1       741 2.70935E+01-3.73325E+00 5.52936E-04 3.91489E-02 7.78119E-14 1.76853E-13
 -1       742 2.74641E+01 3.09013E+00-1.10576E-01-2.25214E+00-1.42455E-14 3.96003E-13
 -1       743 2.68004E+01 1.12355E+00-6.13893E-02 2.36998E+00 1.79598E-13-7.55229E-14
 -1       744 2.58278E+01 5.28215E+00-1.41647E-01-7.18239E-01-1.79405E-14 3.91291E-13
 -1       745 1.26338E+01-7.51397E-01 7.60418E-02-3.90202E+00-1.18908E-13-7.94781E-14
 -1       746 1.99644E+01 2.32265E-01-4.69783E-05 1.72218E-01 2.24666E-13 5.33164E-15
 -1       747 1.99648E+01 2.49214E+00-1.54410E-03-3.73538E-01-7.61285E-14-1.28100E-13
 -1       748 2.83967E+01 2.73814E+00-1.18131E-01-2.66008E+00-1.76407E-13-2.59012E-13
 -1       749 2.00125E+01 1.77838E-01-1.07712E-05-1.95441E-01-3.32478E-13-1.32552E-13
 -1       750 2.02633E+01 1.61735E+00-9.31456E-04-9.73659E-01-1.65875E-13-4.03823E-14
 -1       751 9.94882E+00 3.11418E-01 9.36651E-02-1.82574E+00-2.66388E-13 7.63313E-14
 -1       752 2.02743E+01 1.33797E+00 3.32442E-05 6.02718E-01 4.86265E-14-1.46089E-13
 -1       753 2.62281E+01-2.18655E+00-3.64551E-02 9.41517E-01 2.32513E-13-1.92793E-13
 -1       754 2.03067E+01 7.70245E-01 4.97055E-04-2.49392E-01-6.69005E-14-4.70181E-14
 -1       755 1.48569E+01-1.81862E+00 7.00336E-02-4.94385E+00 1.97602E-13 6.51094E-14
 -1       756 2.67823E+01-3.14800E+00-1.84107E-02-5.23837E-01 2.79002E-13-3.19808E-13
 -1       757 2.02703E+01 4.98957E-01 1.89500E-05-3.00127E-02-5.59625E-14-6.49043E-14
 -1       758 2.02296E+01 3.23399E-01 5.13074E-06 1.26628E-01-6.15786E-14-4.56003E-14
 -1       759 2.01858E+01 2.21590E-01-1.27683E-06 2.38859E-01-7.63560E-14-1.43088E-14
 -1       760 2.01441E+01 1.72689E-01 1.17803E-06 3.23824E-01-5.18766E-14 1.97987E-14
 -1       761 2.01061E+01 1.61815E-01 4.67957E-06 3.95395E-01 1.76152E-14 3.83862E-14
 -1       762 2.00716E+01 1.77616E-01 8.52430E-06 4.64579E-01 4.76055E-15 1.01843E-13
 -1       763 2.00405E+01 2.10374E-01 1.37296E-05 5.39681E-01-6.56901E-14 1.18287E-13
 -1       764 2.00131E+01 2.50469E-01 1.99814E-05 6.26538E-01-6.62851E-14 2.35769E-13
 -1       765 1.99913E+01 2.86878E-01 2.64992E-05 7.28643E-01-2.20904E-14 1.16625E-13
 -1       766 1.99799E+01 3.05664E-01 3.30604E-05 8.47044E-01-4.80550E-14 5.48748E-14
 -1       767 1.99883E+01 2.88538E-01 3.94453E-05 9.79970E-01-3.34540E-14-2.65739E-14
 -1       768 2.00330E+01 2.11699E-01 3.94551E-05 1.12205E+00-8.41435E-14-4.40507E-14
 -1       769 2.01411E+01 4.55946E-02 3.39456E-06 1.26253E+00-5.20664E-14-6.65863E-14
 -1       770 2.03537E+01-2.42481E-01-6.11141E-05 1.38148E+00 6.32922E-15 1.26571E-14
 -1       771 2.07274E+01-6.79357E-01-1.31115E-04 1.44251E+00 2.34479E-14 2.38740E-14
 -1       772 2.13291E+01-1.26366E+00-1.77005E-04 1.38150E+00-2.46605E-14 1.09550E-13
 -1       773 2.22131E+01-1.91820E+00 6.94430E-04 1.09068E+00-5.60804E-17 4.99581E-14
 -1       774 2.33472E+01-2.39447E+00 8.89309E-04 4.39199E-01-4.66958E-14-6.98844E-14
 -1       775 2.45365E+01-2.19992E+00-4.58739E-03-6.59586E-01-7.16189E-14-1.35131E-14
 -1       776 2.53187E+01-8.70371E-01-4.29737E-02-1.84220E+00-1.56559E-15 5.50627E-14
 -1       777 2.45026E+01 3.99549E+00-8.10843E-02-1.10104E+00 1.30833E-14 2.02814E-13
 -1       778 2.45543E+01 4.30731E+00-9.99851E-02 9.05577E-01 1.17451E-13 5.16244E-14
 -1       779 2.34800E+01-2.40381E+00 3.41452E-04-3.37788E-01 1.69417E-13 1.30536E-13
 -1       780 2.23387E+01-1.97086E+00 3.82209E-03-1.02442E+00-1.31196E-14 2.78961E-13
 -1       781 2.14223E+01-1.32356E+00 1.13911E-03-1.34151E+00-9.73463E-14 2.25952E-13
 -1       782 2.07870E+01-7.20123E-01 7.97020E-05-1.41830E+00-3.11612E-13-8.24961E-15
 -1       783 2.03875E+01-2.58310E-01-4.68111E-05-1.35951E+00-2.36431E-13 2.10145E-13
 -1       784 2.01564E+01 5.38444E-02 4.50076E-05-1.23492E+00-1.63730E-13 1.27091E-13
 -1       785 2.00349E+01 2.40908E-01 5.99819E-05-1.08325E+00 8.11097E-14-6.88103E-14
 -1       786 1.99797E+01 3.35205E-01 5.29818E-05-9.25974E-01 2.22404E-13-1.53638E-13
 -1       787 1.99617E+01 3.66406E-01 4.37429E-05-7.74940E-01 1.43705E-13-1.94900E-14
 -1       788 1.99627E+01 3.58213E-01 3.46504E-05-6.36505E-01 1.29874E-14 8.20953E-15
 -1       789 1.99719E+01 3.28130E-01 2.73784E-05-5.13768E-01-1.06042E-13-1.81726E-13
 -1       790 1.99832E+01 2.88427E-01 1.56399E-05-4.07695E-01 1.29221E-13-6.71536E-13
 -1       791 1.99938E+01 2.47270E-01 2.51663E-05-3.18017E-01-3.76367E-14-3.07055E-13
 -1       792 2.00070E+01 2.09226E-01 4.05309E-05-2.51900E-01-4.69090E-13-1.09534E-13
 -1       793 2.28606E+01-3.86299E+00 2.61784E-02-2.96880E+00-7.61873E-14 9.90840E-14
 -1       794 2.65544E+01-6.60906E-01-5.13097E-02-1.89296E+00 1.37891E-13 5.92824E-14
 -1       795 2.00873E+01 1.52355E-01 1.48294E-05-4.00509E-01 1.10924E-13-9.01507E-14
 -1       796 2.00247E+01 2.87226E-01 5.40937E-05-6.50627E-01-3.30499E-15-8.11532E-14
 -1       797 1.99984E+01 3.64259E-01 6.98741E-05-7.69092E-01 1.67499E-14-8.42586E-14
 -1       798 1.99637E+01 4.46165E-01 9.05193E-05-9.13512E-01 9.86354E-15 1.01056E-14
 -1       799 1.99187E+01 5.21061E-01 1.16607E-04-1.08653E+00 2.20913E-14-3.13484E-14
 -1       800 1.98654E+01 5.69316E-01 1.45716E-04-1.28943E+00-1.84578E-14 5.47044E-14
 -1       801 1.98146E+01 5.58937E-01 1.68681E-04-1.52240E+00 2.93921E-14-4.74715E-14
 -1       802 1.97939E+01 4.39801E-01 1.73399E-04-1.78448E+00-3.41721E-14-9.37597E-14
 -1       803 1.98624E+01 1.38683E-01 3.07216E-04-2.07134E+00-2.65613E-14 8.72951E-15
 -1       804 2.01262E+01-4.38849E-01 3.78732E-04-2.37019E+00-4.34985E-14-8.86877E-16
 -1       805 2.07928E+01-1.36958E+00 4.96664E-03-2.58998E+00-4.58139E-14 5.11401E-14
 -1       806 2.14937E+01-2.06558E+00 6.72598E-03 2.64405E+00 2.98021E-14-5.22743E-13
 -1       807 2.04556E+01-8.92596E-01 5.34611E-05 2.48618E+00-1.69461E-14-2.99276E-13
 -1       808 1.99988E+01-1.13165E-01 8.06567E-04 2.20242E+00-7.58257E-14-1.42127E-13
 -1       809 1.98370E+01 3.27972E-01 3.34053E-04 1.90208E+00-5.55808E-14 1.29410E-13
 -1       810 1.98161E+01 5.39539E-01 1.94668E-04 1.61659E+00 1.84678E-13 2.02360E-13
 -1       811 1.98523E+01 6.07135E-01 1.62241E-04 1.35595E+00 5.77586E-14 2.98808E-13
 -1       812 1.99027E+01 5.92764E-01 1.44112E-04 1.12243E+00-1.90241E-13 2.96245E-13
 -1       813 1.99486E+01 5.36859E-01 1.22004E-04 9.16628E-01-4.32040E-13 1.77140E-14
 -1       814 1.99835E+01 4.64273E-01 9.94822E-05 7.38334E-01-1.87740E-13-2.64947E-13
 -1       815 2.00070E+01 3.89433E-01 8.55958E-05 5.86500E-01-1.32854E-13-3.72220E-13
 -1       816 2.00207E+01 3.20221E-01 6.61713E-05 4.59095E-01 6.34012E-14-7.55068E-14
 -1       817 2.00271E+01 2.60507E-01 5.30869E-05 3.54244E-01 2.47043E-13 1.17121E-13
 -1       818 2.00276E+01 2.12219E-01 4.11277E-05 2.68174E-01 5.18906E-13-4.21351E-13
 -1       819 2.00154E+01 1.97032E-01-9.87185E-05 2.21709E-01 4.98151E-13-1.56231E-13
 -1       820 1.98223E+01 3.61520E-01-9.97280E-06-9.26048E-02-6.67775E-14 4.14124E-13
 -1       821 1.98050E+01 3.78016E-01-2.02138E-05-9.33675E-03-6.98835E-14-1.49578E-13
 -1       822 1.80482E+01-2.41896E+00 4.14983E-02-4.44618E+00-1.35503E-13-2.03958E-13
 -1       823 1.17108E+01-2.69658E-01 8.00278E-02 3.47251E+00 6.86855E-14 6.63011E-15
 -1       824 2.02822E+01 1.31036E+00 1.05399E-03-6.42758E-01-1.23110E-13-4.79609E-14
 -1       825 1.98639E+01 3.25217E-01-1.95298E-05-1.63076E-01-1.62403E-13-3.57987E-14
 -1       826 2.49047E+01-4.17859E+00 3.48777E-02 1.76130E+00 1.74569E-13-2.63976E-13
 -1       827 1.99248E+01 2.72882E-01-4.44442E-05-2.11677E-01-1.85952E-13-3.39169E-14
 -1       828 2.01139E+01 1.58366E-01 9.59086E-06-3.26059E-01 8.67221E-15-9.99412E-14
 -1       829 2.00459E+01 2.22599E-01 3.81508E-05-5.53941E-01 9.37651E-14-9.23248E-14
 -1       830 2.00657E+01 1.75898E-01 2.42017E-05-4.73145E-01 1.19667E-13-1.35037E-13
 -1       831 2.01477E+01 2.02852E-01 1.19039E-05-2.37112E-01-1.34665E-15-9.16723E-14
 -1       832 2.13186E+01-3.59867E+00 1.84212E-02 3.73038E+00 4.01172E-14-1.13746E-14
 -1       833 1.06016E+01 7.29832E-01 8.29956E-02 6.06592E-02 6.47631E-14 2.62117E-13
 -1       834 2.53289E+01-3.89065E+00-4.07079E-03 1.13838E+00 4.73361E-14 1.84788E-13
 -1       835 1.57688E+01-2.23956E+00 7.05305E-02 5.08994E+00 1.23936E-13-3.48332E-15
 -1       836 1.06261E+01 4.95069E-01 9.39227E-02 1.59766E+00-4.67408E-13-2.55566E-13
 -1       837 2.02893E+01 9.68383E-01 4.36117E-05 5.23541E-01 9.59572E-14-8.70975E-14
 -1       838 2.01895E+01 2.99082E-01 3.36029E-05-1.17732E-01 4.30250E-14-7.86487E-14
 -1       839 2.46057E+01-4.07346E+00-1.08340E-02-1.79854E+00 3.72239E-13-1.99177E-13
 -1       840 2.01388E+01 1.94400E+00-2.98733E-04 1.88285E-01-3.10257E-14-1.91869E-13
 -1       841 2.01258E+01 1.98427E+00-3.00924E-04 3.08619E-03-2.70650E-14-2.12259E-13
 -1       842 2.02292E+01 1.62178E+00 2.49997E-04 5.10299E-01 2.72386E-14-1.81204E-13
 -1       843 2.02363E+01 4.67747E-01-6.12054E-05 5.12727E-02 4.66069E-14-6.22564E-14
 -1       844 2.51479E+01 2.18283E+00-4.71124E-02-2.18280E+00-2.00121E-13 1.89153E-13
 -1       845 2.44421E+01-2.60049E+00-9.21423E-03 1.53218E-01 1.83517E-13 2.33391E-13
 -1       846 1.34461E+01-1.06726E-01 4.73483E-02 3.16762E+00-2.64125E-13 2.37714E-13
 -1       847 1.82770E+01-2.12278E+00 5.13806E-02 4.18641E+00 3.49590E-14 3.18452E-15
 -1       848 1.91402E+01-3.00794E+00 1.75017E-02 4.37413E+00 1.42830E-13 2.32294E-13
 -1       849 2.02267E+01 1.63124E+00-1.14397E-04-5.10037E-01-9.76162E-14-9.68031E-14
 -1       850 1.98522E+01 3.44469E-01-2.25323E-06 1.52856E-01 1.58762E-14 1.45119E-13
 -1       851 2.01711E+01 1.83209E+00-2.00434E-04-3.56592E-01-6.73255E-14-1.29870E-13
 -1       852 1.98149E+01 3.72352E-01-3.41197E-05 7.59978E-02-7.35533E-14-7.46315E-14
 -1       853 2.02637E+01 6.75306E-01 1.60061E-04 2.52843E-01 8.16703E-14-6.36970E-14
 -1       854 1.23311E+01 5.64081E-01 4.62800E-02-1.83897E+00 2.63181E-14 4.96530E-14
 -1       855 2.25958E+01-3.88850E+00 2.10043E-02-3.03482E+00 1.70182E-13-2.79174E-13
 -1       856 1.99037E+01 3.02580E-01 7.28936E-05 1.99997E-01 9.06751E-14 3.91135E-14
 -1       857 1.29330E+01-2.30517E-01 4.98717E-02-3.42431E+00-7.09554E-14 5.53030E-14
 -1       858 2.01763E+01 1.82364E+00-5.39728E-05 3.63450E-01 2.16228E-14-1.49628E-13
 -1       859 1.99635E+01 2.43267E-01 2.59117E-04-2.36016E-01-4.11177E-13-1.90927E-13
 -1       860 2.03203E+01 5.29281E-01 1.76870E-05 2.55362E-02-5.23002E-14-4.97006E-14
 -1       861 2.02812E+01 3.59519E-01-1.70501E-05 1.46932E-01-2.84021E-14-4.00730E-14
 -1       862 2.02270E+01 2.64300E-01-5.64986E-06 2.39424E-01-5.45653E-14 2.15720E-15
 -1       863 2.01635E+01 2.24969E-01-2.25785E-06 3.14397E-01-8.13779E-15 3.10599E-14
 -1       864 2.00933E+01 2.26788E-01-1.68942E-06 3.82582E-01 1.13036E-14 1.32642E-14
 -1       865 2.00174E+01 2.57463E-01-8.71114E-07 4.52962E-01-2.40544E-14 4.61624E-14
 -1       866 1.99363E+01 3.05728E-01 1.22639E-06 5.32782E-01-4.71286E-14 1.90948E-14
 -1       867 1.98506E+01 3.59877E-01 5.07744E-06 6.27840E-01-7.54342E-14 4.34412E-14
 -1       868 1.97626E+01 4.06104E-01 9.94175E-06 7.42781E-01-6.14005E-14-1.03108E-14
 -1       869 1.96782E+01 4.26872E-01 1.50410E-05 8.81321E-01-9.88137E-14-5.40512E-14
 -1       870 1.96090E+01 3.99376E-01 2.14706E-05 1.04644E+00-1.12802E-13-7.04206E-15
 -1       871 1.95757E+01 2.93903E-01 2.49998E-05 1.24025E+00-2.12925E-14 2.26355E-14
 -1       872 1.96141E+01 7.25941E-02-6.63743E-05 1.46231E+00-4.49520E-14 1.35575E-13
 -1       873 1.97822E+01-3.09186E-01-6.13384E-05 1.70430E+00 5.80684E-14 5.16108E-14
 -1       874 2.01674E+01-8.94132E-01 3.42882E-04 1.93534E+00-1.20533E-15 1.86677E-13
 -1       875 2.08875E+01-1.69841E+00 5.00360E-04 2.08480E+00-6.55562E-14 5.85480E-14
 -1       876 2.20934E+01-2.64071E+00 1.09745E-02 1.97388E+00-4.17930E-14-6.72003E-14
 -1       877 2.34897E+01-3.19618E+00 9.50366E-03-1.41880E+00 1.50602E-14-2.84031E-14
 -1       878 2.10319E+01-1.80263E+00 1.42270E-03-2.06983E+00 1.08691E-13-2.29520E-13
 -1       879 2.02264E+01-9.56604E-01-2.27706E-04-1.94291E+00-1.49704E-13-7.40549E-14
 -1       880 1.98041E+01-3.36084E-01-2.15027E-04-1.70680E+00-1.77465E-13 2.10182E-13
 -1       881 1.96098E+01 7.65770E-02 1.01982E-04-1.45647E+00-2.64892E-13 1.00610E-13
 -1       882 1.95517E+01 3.24304E-01 1.02285E-04-1.22120E+00-2.25926E-13 1.46501E-13
 -1       883 1.95689E+01 4.51520E-01 5.97702E-05-1.01184E+00 1.29953E-13 7.02008E-14
 -1       884 1.96228E+01 4.96522E-01 3.14772E-05-8.29732E-01 2.99177E-13-1.01763E-13
 -1       885 1.96904E+01 4.89242E-01 1.73555E-05-6.73325E-01 2.28933E-14-2.49771E-13
 -1       886 1.97587E+01 4.51699E-01 1.02574E-05-5.40333E-01-2.41593E-14-2.91921E-13
 -1       887 1.98209E+01 3.99520E-01 2.25781E-05-4.28623E-01-1.07481E-13 2.20726E-13
 -1       888 1.98738E+01 3.43347E-01-3.29271E-05-3.35581E-01 1.90302E-13 1.43814E-13
 -1       889 1.98470E+01 4.22573E-01 1.99310E-05-6.48948E-01 3.26484E-14-5.95115E-14
 -1       890 1.94071E+01 7.20125E-01 3.17995E-05-1.07517E+00-3.70390E-14 1.88816E-14
 -1       891 1.91937E+01 7.75302E-01 4.87919E-05-1.27966E+00 4.09744E-14 2.60671E-14
 -1       892 1.89507E+01 7.56678E-01 3.90715E-05-1.53213E+00 4.75258E-14 7.87148E-14
 -1       893 1.87001E+01 6.06935E-01-5.10083E-05-1.85486E+00-7.66364E-14-3.70140E-14
 -1       894 1.84970E+01 2.39454E-01-4.78085E-04-2.28532E+00-4.10288E-14-1.54614E-14
 -1       895 1.84838E+01-4.40873E-01 5.78751E-03-2.85841E+00 3.89051E-14-2.51287E-14
 -1       896 1.84798E+01-7.06126E-02 2.86118E-03 2.56816E+00-1.18676E-13 1.34055E-13
 -1       897 1.58303E+01-4.97331E-01 3.95042E-02-3.43111E+00 2.91238E-14-1.64628E-13
 -1       898 1.50497E+01-7.10980E-01 3.70401E-02 3.74503E+00 6.39903E-14-5.90864E-14
 -1       899 2.27789E+01-3.46645E+00 1.24707E-02 2.36510E+00 5.77218E-14 8.89665E-14
 -1       900 1.82484E+01-8.78479E-01 5.87548E-03 3.25467E+00-1.32529E-13-3.42387E-14
 -1       901 1.88225E+01 7.29476E-01 1.67140E-04 1.66180E+00 1.10707E-13 6.57827E-14
 -1       902 1.90652E+01 8.17661E-01 3.75810E-05 1.36502E+00 8.02912E-14 2.46907E-13
 -1       903 1.92863E+01 8.05531E-01 3.60110E-05 1.12438E+00 8.36442E-14 1.37665E-13
 -1       904 1.94721E+01 7.39325E-01 2.91662E-05 9.22749E-01-5.69639E-14-2.09457E-14
 -1       905 1.96209E+01 6.48608E-01 2.29381E-05 7.51228E-01-7.02101E-14-2.41016E-13
 -1       906 1.97357E+01 5.51601E-01 1.66267E-05 6.05051E-01-9.17747E-14-3.28202E-13
 -1       907 1.98225E+01 4.58585E-01 5.67928E-05 4.81466E-01-1.25846E-13-4.71876E-13
 -1       908 1.98842E+01 3.76292E-01-8.16085E-05 3.77310E-01 1.23019E-13-5.23087E-13
 -1       909 1.99307E+01 3.06505E-01 2.40518E-04 2.91770E-01 3.28945E-13-2.66327E-13
 -1       910 1.97277E+01 4.38181E-01-3.20838E-05-6.86982E-02 1.38877E-13 1.99942E-13
 -1       911 2.01375E+01 1.94667E+00-3.10312E-04-1.82469E-01-4.66226E-14-1.29718E-13
 -1       912 1.85942E+01 4.69646E-01 3.95347E-04 2.04609E+00-1.86468E-13 1.49964E-13
 -1       913 1.26900E+01 6.41918E-01 3.94611E-02 1.78808E+00 8.11374E-15-5.85903E-14
 -1       914 2.03069E+01 9.46158E-01-2.63908E-04 3.36855E-01 5.76831E-14-9.62209E-14
 -1       915 1.95851E+01 6.28467E-01 1.80703E-05-9.06069E-01-6.28018E-14-3.22351E-14
 -1       916 1.97300E+01 5.24170E-01 1.64003E-05-7.65506E-01-3.99115E-14-4.79903E-14
 -1       917 1.86411E+01-2.48755E+00 2.33161E-02-4.20135E+00 1.75969E-13-3.07682E-13
 -1       918 2.02110E+01 2.52777E-01-3.00089E-06-2.45650E-01-4.08454E-15-1.10892E-13
 -1       919 2.20337E+01-2.57488E+00-6.38737E-03-1.92237E+00 1.52324E-13-1.77380E-13
 -1       920 2.01543E+01 2.16099E-01-6.60426E-06-3.26359E-01 4.35496E-14-1.22263E-13
 -1       921 1.99426E+01 3.33675E-01 1.43616E-05-5.52289E-01 6.63604E-14-5.38373E-14
 -1       922 1.98440E+01 3.49542E-01-3.41387E-05-2.40669E-01-1.08294E-13 8.75822E-14
 -1       923 2.03349E+01 7.96523E-01 9.82397E-05-1.41105E-01-4.00132E-14-9.08343E-14
 -1       924 1.19971E+01 9.61561E-01 5.57532E-02-3.69633E-01-2.28412E-13-3.71942E-13
 -1       925 1.99606E+01 2.51172E-01 9.94193E-06 2.20646E-01 1.00741E-13 1.42654E-13
 -1       926 1.97698E+01 4.04898E-01 1.68560E-05-1.65193E-01-8.31479E-14-1.03785E-13
 -1       927 2.02614E+01 3.46546E-01 1.49373E-05-1.43835E-01 1.99894E-14-8.99257E-14
 -1       928 2.02975E+01 1.25349E+00-8.83517E-04-2.77537E-01-7.70987E-14-1.00391E-13
 -1       929 2.03008E+01 5.15248E-01-4.41906E-05-6.66547E-03 5.81609E-14-8.50987E-14
 -1       930 2.02634E+01 1.48372E+00-3.20500E-05 6.20862E-02-1.31503E-14-2.07773E-13
 -1       931 2.37642E+01-3.35958E+00-1.13309E-02 1.34870E+00 2.48612E-14 9.39223E-15
 -1       932 1.63664E+01-1.11062E+00 2.50692E-02-3.86911E+00-4.08753E-14-1.46422E-13
 -1       933 1.99261E+01 2.89484E-01 7.15535E-05-2.83174E-01-1.04006E-13-2.73894E-13
 -1       934 2.00921E+01 2.23405E-01-1.48880E-06-3.98025E-01 9.63566E-14-5.86382E-14
 -1       935 1.29119E+01 1.00788E+00 2.74132E-02 3.76297E-02 6.29169E-14 2.71673E-13
 -1       936 1.97212E+01 4.46765E-01-2.61185E-05 3.80114E-02 7.34146E-14-1.43928E-13
 -1       937 2.00227E+01 2.65122E-01 7.91110E-06-4.70706E-01 6.01615E-14-2.34325E-14
 -1       938 2.02767E+01 1.40976E+00-5.81143E-04 1.75703E-01 2.26373E-14-1.17149E-13
 -1       939 1.97531E+01 4.28393E-01-7.37415E-05 1.42185E-01 7.48219E-14 2.66139E-14
 -1       940 1.98104E+01 3.89445E-01-1.17867E-04 2.15430E-01 9.05942E-14 4.29605E-14
 -1       941 1.76114E+01-1.50635E+00 1.70213E-02 3.74754E+00 1.08234E-14 1.91866E-13
 -1       942 1.32387E+01 8.46929E-01 2.90080E-02 1.33444E+00-2.91614E-13-9.64298E-14
 -1       943 2.03413E+01 5.29690E-01-5.01538E-05 5.94157E-02 5.02076E-15-6.24883E-14
 -1       944 1.40756E+01 6.68910E-01 1.90664E-02-1.93879E+00-2.95273E-13-1.01320E-13
 -1       945 2.02944E+01 3.77540E-01-2.16224E-05 1.46326E-01 1.37551E-15-3.06755E-14
 -1       946 2.02237E+01 2.99006E-01-4.14184E-06 2.15588E-01-8.56540E-15 3.76202E-14
 -1       947 2.01351E+01 2.76880E-01-4.71037E-06 2.75972E-01-3.89217E-15 2.81317E-14
 -1       948 2.00312E+01 2.96776E-01-7.68925E-06 3.35514E-01-1.55802E-14 2.87635E-14
 -1       949 1.99132E+01 3.45924E-01-1.39853E-05 4.01351E-01-6.76454E-14 2.06238E-14
 -1       950 1.97809E+01 4.12241E-01-1.36703E-05 4.79886E-01-6.23898E-14 1.50934E-14
 -1       951 1.96342E+01 4.82709E-01-2.93345E-06 5.77350E-01-6.46449E-14-1.38524E-14
 -1       952 1.94743E+01 5.41758E-01-2.05650E-07 7.00293E-01-6.86071E-14 2.92117E-14
 -1       953 1.93054E+01 5.69741E-01-3.89285E-05 8.56360E-01-6.02017E-14 6.13019E-14
 -1       954 1.91369E+01 5.41756E-01-7.23742E-05 1.05552E+00-3.08717E-14 1.60602E-13
 -1       955 1.89882E+01 4.24302E-01-1.07254E-04 1.31114E+00-3.61287E-14 1.27742E-13
 -1       956 1.88943E+01 1.73100E-01-5.81524E-04 1.63877E+00 6.82192E-15 9.13825E-14
 -1       957 1.89189E+01-2.72363E-01-1.43462E-03 2.05694E+00 1.17420E-13 2.57877E-16
 -1       958 1.92168E+01-9.88314E-01-4.91761E-04 2.55588E+00-7.70212E-14-2.16417E-14
 -1       959 2.08719E+01-2.76687E+00 9.62757E-03-3.08864E+00 3.75216E-14-1.47526E-13
 -1       960 1.84442E+01 9.79289E-01-1.15695E-04-1.10367E+00 3.36029E-14-2.83736E-16
 -1       961 1.97840E+01 4.51426E-01 1.57837E-05-4.89527E-01 7.32537E-14-5.42736E-14
 -1       962 2.02625E+01 1.48545E+00-2.83761E-07-5.81940E-02-3.68169E-14-1.72609E-13
 -1       963 1.89286E+01-3.08265E-01-2.01100E-03-2.08852E+00-5.80225E-14-1.77941E-13
 -1       964 1.88650E+01 1.73881E-01-2.40744E-04-1.66201E+00-2.50734E-13-5.78484E-14
 -1       965 1.89393E+01 4.55444E-01 1.38185E-04-1.31571E+00-1.32714E-13-8.75196E-14
 -1       966 1.90710E+01 5.97595E-01 3.61803E-05-1.04326E+00 7.97356E-15 4.50808E-14
 -1       967 1.92224E+01 6.45493E-01-1.92861E-06-8.27948E-01 1.51904E-13 1.33316E-13
 -1       968 1.93721E+01 6.33075E-01-1.34128E-05-6.56352E-01 7.99717E-14-1.23416E-13
 -1       969 1.95090E+01 5.85135E-01-5.93005E-06-5.18439E-01 1.03643E-13 2.36178E-13
 -1       970 1.96286E+01 5.18560E-01-1.28690E-05-4.07138E-01 2.49507E-13 3.54892E-13
 -1       971 1.97272E+01 4.47746E-01 1.09365E-06-3.16915E-01-5.46962E-14 2.14695E-13
 -1       972 1.88351E+01 9.12738E-01-7.05526E-05-9.25498E-01-1.43710E-14-1.43068E-14
 -1       973 1.73887E+01 8.37503E-01-3.46286E-04-1.69151E+00-3.76982E-14-4.89330E-14
 -1       974 1.67026E+01 5.14654E-01 9.47208E-05-2.21810E+00 9.02750E-14-1.81325E-13
 -1       975 1.86098E+01 1.01005E+00-1.91855E-04 9.77016E-01 1.94052E-13 8.85221E-14
 -1       976 1.92537E+01-1.06161E+00 5.54562E-03-2.59387E+00 7.15634E-14-1.94127E-13
 -1       977 1.89488E+01 9.32925E-01-1.05848E-04 8.06263E-01 1.78510E-13 2.14114E-13
 -1       978 1.81871E+01 1.03125E+00-4.08505E-04 1.19418E+00 8.67075E-14 2.02161E-14
 -1       979 1.92173E+01 8.27541E-01-6.27635E-05 6.64748E-01 4.82357E-14 2.05157E-13
 -1       980 1.94273E+01 7.12586E-01-4.28796E-05 5.44343E-01 1.05201E-13-1.32644E-13
 -1       981 1.95893E+01 5.99950E-01-1.09948E-04 4.40774E-01 8.82137E-14-3.33190E-13
 -1       982 1.97128E+01 4.96010E-01-3.09944E-04 3.52568E-01-2.64796E-13-2.98677E-13
 -1       983 2.02892E+01 3.74437E-01-4.34744E-05-1.51522E-01 1.12807E-14-1.32758E-13
 -1       984 2.02783E+01 1.41144E+00 1.57420E-04-1.74232E-01-5.13345E-14-1.21352E-13
 -1       985 1.76677E+01 9.54922E-01-6.62769E-04 1.49411E+00 1.59277E-14 2.76445E-14
 -1       986 1.50616E+01 3.15775E-01 1.48886E-02 2.38176E+00-5.32467E-14 3.06855E-14
 -1       987 2.03183E+01 1.11970E+00 6.94487E-05 2.58840E-01 3.35749E-14-1.91412E-13
 -1       988 2.03153E+01 7.69167E-01-1.65424E-04 1.75700E-01 4.40901E-14-9.67949E-14
 -1       989 1.91517E+01 8.06815E-01-5.28798E-05-7.84655E-01-4.90796E-14 1.08931E-14
 -1       990 1.70569E+01 7.12500E-01 6.83881E-04 1.93901E+00-1.05358E-13 1.39755E-13
 -1       991 1.79653E+01 9.71694E-01-2.54667E-04-1.34415E+00 7.20535E-14 7.31217E-14
 -1       992 2.03592E+01 7.71083E-01 2.44729E-04-5.46326E-02-2.87634E-14-8.78091E-14
 -1       993 1.48134E+01 6.55984E-01 2.44833E-02-2.04223E+00 8.25269E-14-1.94441E-14
 -1       994 2.02234E+01 2.93995E-01-3.75392E-05-2.30342E-01 3.10496E-15-9.97174E-14
 -1       995 2.03352E+01 5.28099E-01-1.17969E-04-4.80466E-02 3.34889E-14-1.18661E-13
 -1       996 1.87737E+01-1.48496E+00 3.52755E-03-3.23575E+00 1.90733E-13-1.73352E-13
 -1       997 1.98849E+01-2.02530E+00 3.85942E-03 3.07483E+00-1.23512E-13 1.14490E-14
 -1       998 1.96150E+01 5.62045E-01 2.17853E-05-5.71693E-01-1.96979E-14-4.74639E-14
 -1       999 1.99242E+01 3.60629E-01-1.36664E-05-4.19269E-01 8.66277E-14 2.34522E-14
 -1      1000 1.44754E+01 9.38186E-01 7.49668E-03 1.19839E+00-9.13433E-14-4.80718E-14
 -1      1001 1.96134E+01 5.25842E-01 3.13453E-05-2.50834E-02 2.08494E-13 1.10582E-13
 -1      1002 1.67300E+01-3.09221E-01 6.13448E-03 2.85466E+00-5.11970E-14 1.21457E-14
 -1      1003 1.94077E+01 6.84445E-01-2.57656E-05-6.68734E-01-9.42567E-14 1.03400E-14
 -1      1004 2.01405E+01 2.72903E-01-5.29546E-05-2.95704E-01 5.79776E-15-1.58430E-14
 -1      1005 1.96289E+01 5.21815E-01 2.13078E-05 1.07338E-01 6.94541E-14-9.77096E-15
 -1      1006 1.96472E+01 5.23351E-01 3.22045E-04 2.31875E-01-1.14334E-13 1.37256E-13
 -1      1007 1.57077E+01 3.94788E-01 1.07892E-02 2.45035E+00-1.89123E-13 4.35369E-13
 -1      1008 2.03432E+01 1.07146E+00 2.25813E-04 5.96205E-02 2.60328E-14-1.31875E-13
 -1      1009 2.03408E+01 1.10284E+00 1.35889E-05 1.00296E-03-1.92007E-14-1.66113E-13
 -1      1010 1.39354E+01 1.11166E+00 1.62415E-02-4.84074E-01-2.34888E-13-2.44830E-13
 -1      1011 1.96488E+01 4.97495E-01 9.04048E-05-1.53266E-01-8.42829E-14-1.77840E-13
 -1      1012 2.02778E+01 3.81653E-01 2.85338E-05 1.17881E-01 4.08284E-14-1.94088E-13
 -1      1013 2.01866E+01 3.26837E-01-7.91591E-06 1.62445E-01 1.15676E-14-1.10327E-13
 -1      1014 2.00715E+01 3.27296E-01-1.02096E-05 2.05149E-01 2.07934E-14-8.17670E-14
 -1      1015 1.99342E+01 3.69046E-01-4.78031E-06 2.51304E-01-4.84652E-14-4.32250E-14
 -1      1016 1.97749E+01 4.38776E-01-6.74226E-05 3.06383E-01-5.52995E-14-6.72648E-14
 -1      1017 1.95916E+01 5.25057E-01-7.48706E-05 3.76593E-01-6.58225E-14 1.69360E-14
 -1      1018 1.93821E+01 6.14318E-01 4.17002E-05 4.68242E-01-1.17616E-13-4.33123E-14
 -1      1019 1.91431E+01 6.91088E-01 3.16748E-05 5.89713E-01-2.10129E-14-3.75366E-15
 -1      1020 1.88741E+01 7.34656E-01-1.93728E-04 7.52571E-01 4.69632E-14 4.43626E-14
 -1      1021 1.85742E+01 7.23562E-01-3.29661E-04 9.75405E-01-3.55352E-15 1.34232E-13
 -1      1022 1.82511E+01 6.22253E-01-6.24700E-04 1.28397E+00-5.18668E-14 1.55691E-13
 -1      1023 1.79309E+01 3.86603E-01-1.87168E-03 1.71353E+00-2.57229E-14 5.99604E-14
 -1      1024 1.81728E+01 6.56468E-01-1.24155E-04-1.31209E+00-1.55279E-13-1.51813E-13
 -1      1025 1.84851E+01 7.82998E-01-1.54288E-05-9.84187E-01-1.21443E-13 4.27181E-14
 -1      1026 1.87706E+01 8.14989E-01-7.91419E-05-7.46929E-01 1.45590E-13-5.24795E-14
 -1      1027 1.90218E+01 7.87256E-01-9.73473E-05-5.70711E-01 6.85850E-14-1.79223E-14
 -1      1028 1.92382E+01 7.23209E-01-6.93422E-05-4.37776E-01 1.60033E-13 1.32110E-13
 -1      1029 1.94203E+01 6.39973E-01-2.46646E-04-3.36556E-01 2.81706E-13 1.41427E-13
 -1      1030 1.95695E+01 5.51987E-01-2.95298E-04-2.58178E-01-5.54228E-15-1.60761E-13
 -1      1031 1.82667E+01 1.07040E+00-3.06809E-04-6.17034E-01-3.05916E-14-1.12337E-14
 -1      1032 1.73706E+01-3.08310E-01-2.94967E-03-2.66209E+00-3.55612E-14-4.34747E-13
 -1      1033 1.88181E+01 9.78414E-01-2.76061E-04 4.67833E-01-5.84590E-14 1.96146E-13
 -1      1034 1.59578E+01 1.08724E+00-1.63791E-03-1.11146E+00 6.24329E-14-2.38449E-15
 -1      1035 2.00413E+01 2.98609E-01-4.02142E-05-3.56246E-01 6.53499E-14 2.69163E-14
 -1      1036 2.03421E+01 1.07056E+00-6.04240E-04-5.68556E-02-5.29762E-14-1.19428E-13
 -1      1037 1.91172E+01 8.53115E-01-1.86376E-04 3.95136E-01 1.98427E-13 7.51900E-14
 -1      1038 1.79422E+01 1.17614E+00-7.21450E-04 6.48941E-01 2.67776E-13-6.89216E-14
 -1      1039 1.93499E+01 7.27419E-01-2.29607E-04 3.30983E-01 2.12413E-13 9.63535E-14
 -1      1040 1.95150E+01 6.21646E-01 1.63026E-04 2.79443E-01-6.64781E-15 1.30682E-13
 -1      1041 1.63589E+01-4.76126E-02 1.36048E-02-2.69544E+00-8.54156E-14-3.68006E-13
 -1      1042 1.76943E+01 1.14858E+00-5.46237E-04-7.19877E-01 1.57793E-14 6.87063E-14
 -1      1043 1.72997E+01 1.21379E+00-1.22596E-03 7.81566E-01 2.42912E-14 1.16081E-13
 -1      1044 2.03431E+01 7.72556E-01 5.27531E-04 8.11754E-02 3.56382E-14-1.72938E-13
 -1      1045 1.64513E+01 1.17493E+00 7.43703E-04 9.88647E-01 2.53521E-14 3.83615E-14
 -1      1046 1.84352E+01 1.09120E+00-4.04446E-04 5.49736E-01 1.09116E-13-2.50951E-14
 -1      1047 1.48527E+01 1.15622E+00 1.24269E-02-5.63425E-01-2.33255E-14 6.23277E-14
 -1      1048 1.69536E+01 1.16776E+00 2.62718E-04-8.73587E-01 8.85932E-14 4.49671E-14
 -1      1049 2.03682E+01 7.19627E-01 9.10428E-05-3.30493E-04-1.18195E-14-1.27312E-13
 -1      1050 1.94793E+01 6.21718E-01-4.58975E-05 4.42533E-02 1.51740E-15 1.97098E-13
 -1      1051 1.51489E+01 1.08746E+00 6.56621E-03 1.13923E+00-5.46781E-14-1.02464E-13
 -1      1052 2.03548E+01 9.34544E-01 4.68048E-04 8.65797E-02 3.03046E-14-1.15732E-13
 -1      1053 1.78869E+01 4.01562E-01 2.51399E-04-1.75020E+00-2.95855E-14-3.55868E-13
 -1      1054 1.87160E+01 9.55934E-01-2.36896E-04-5.38647E-01-2.61251E-14-2.11923E-14
 -1      1055 2.02842E+01 3.85565E-01 9.01430E-05-1.33906E-01 1.10081E-14-4.10354E-14
 -1      1056 2.03409E+01 5.06743E-01 1.56299E-04 6.63351E-02 8.15293E-15-1.94610E-13
 -1      1057 2.03701E+01 8.00930E-01-1.06583E-05 5.26957E-03-2.19253E-14-1.18412E-13
 -1      1058 1.76638E+01-5.97490E-02 6.94885E-03 2.31139E+00-1.35358E-14-2.14130E-14
 -1      1059 1.95980E+01 5.61756E-01 3.18196E-05-3.62144E-01 4.35220E-14 5.28220E-14
 -1      1060 1.97906E+01 4.54016E-01-9.92049E-05-3.14428E-01 5.87447E-14 2.57283E-14
 -1      1061 2.03425E+01 5.17876E-01 5.96578E-05-6.75136E-02 1.17265E-14-2.98588E-14
 -1      1062 1.61137E+01 6.87762E-01 5.97266E-03 1.67561E+00-8.03939E-14 1.81281E-14
 -1      1063 1.57070E+01 8.11536E-01 6.68088E-03-1.55935E+00-9.61609E-14-2.60870E-13
 -1      1064 1.90740E+01 8.23936E-01-1.60372E-04-4.72241E-01-7.16574E-14-1.05569E-14
 -1      1065 2.01986E+01 3.26032E-01 7.52800E-05-1.85760E-01-1.22940E-14-9.78057E-14
 -1      1066 2.03647E+01 7.47937E-01-6.39818E-04 1.04901E-02-5.36978E-15-1.07227E-13
 -1      1067 1.58887E+01 1.24683E+00 2.22902E-03-2.09074E-02-1.67937E-15-8.07395E-14
 -1      1068 1.95007E+01 5.99517E-01-1.07718E-05-1.20862E-01 1.37584E-14-2.08501E-13
 -1      1069 2.03541E+01 5.78294E-01 5.02656E-04-3.34285E-02-1.45116E-14-1.07380E-13
 -1      1070 2.01261E+01 3.48905E-01-4.34011E-05 7.85675E-02 5.26750E-14-1.29855E-13
 -1      1071 1.99866E+01 3.74000E-01-8.61216E-05 1.01140E-01-2.85438E-14-1.29634E-13
 -1      1072 1.98187E+01 4.40003E-01 3.13958E-04 1.30617E-01-8.93627E-14-1.06038E-13
 -1      1073 1.96192E+01 5.32787E-01 1.30075E-04 1.68659E-01-3.41858E-14-1.28646E-13
 -1      1074 1.93898E+01 6.37953E-01 2.82894E-04 2.19023E-01-5.85912E-14-9.50147E-14
 -1      1075 1.91193E+01 7.45126E-01 1.01075E-05 2.92219E-01-4.18372E-14-2.28842E-15
 -1      1076 1.87955E+01 8.46699E-01 1.39889E-03 4.02205E-01 5.40342E-14 1.07125E-14
 -1      1077 1.84016E+01 9.19274E-01 7.12786E-04 5.53547E-01 8.56150E-14-7.30204E-14
 -1      1078 1.79377E+01 9.40477E-01 8.10175E-04 7.68358E-01 7.45678E-14 4.50472E-14
 -1      1079 1.73868E+01 8.86949E-01 1.32590E-04 1.08356E+00-1.24446E-13 8.86189E-14
 -1      1080 1.93158E+01 7.11724E-01-9.37136E-04-6.37418E-02 4.68471E-14 1.69097E-13
 -1      1081 1.99534E+01 3.71681E-01 1.78071E-04-2.70555E-01 2.97882E-14-5.60143E-14
 -1      1082 1.79942E+01 1.18195E+00-7.52215E-05 1.48421E-01 1.52273E-13 2.48365E-13
 -1      1083 1.82806E+01 9.99302E-01-1.06907E-04-5.55823E-01-1.85778E-16-1.15052E-13
 -1      1084 1.86546E+01 9.45851E-01-1.43627E-04-3.98776E-01 9.06483E-14-1.42994E-13
 -1      1085 1.89599E+01 8.60742E-01-2.42814E-04-2.87896E-01 1.65831E-13-1.40794E-13
 -1      1086 1.55579E+01 1.25294E+00 2.14858E-03-1.67049E-01-7.65770E-14-3.62529E-14
 -1      1087 1.78211E+01 1.00362E+00 2.98591E-04-7.78405E-01-1.38239E-13-3.70230E-14
 -1      1088 2.03700E+01 7.84486E-01-4.56305E-05-1.42119E-03-2.72452E-14-1.17012E-13
 -1      1089 1.91292E+01 8.29787E-01 2.20330E-04 1.50611E-01 2.22083E-13 1.69853E-13
 -1      1090 1.77857E+01 1.14967E+00-7.19483E-04-1.34479E-01 5.80293E-14-1.44278E-13
 -1      1091 1.93624E+01 6.88931E-01 2.98502E-05-4.14108E-01-6.35145E-14 6.26916E-14
 -1      1092 2.02388E+01 3.73992E-01-9.13914E-05 5.81332E-02 7.75473E-14-1.22274E-13
 -1      1093 1.73685E+01 1.25662E+00-1.76563E-03 1.18840E-01 1.07974E-13-1.51179E-13
 -1      1094 1.66425E+01 1.27540E+00 7.44958E-03 5.43764E-03 8.40855E-14-1.16554E-13
 -1      1095 1.84702E+01 1.07700E+00 4.69333E-05 1.62102E-01-3.46517E-14 4.34062E-13
 -1      1096 1.70681E+01 1.21917E+00-1.41849E-03-8.42350E-02 3.92658E-14-2.95770E-13
 -1      1097 1.93547E+01 6.84397E-01 6.04786E-04-2.04409E-01 7.97553E-14-4.17668E-13
 -1      1098 1.88402E+01 9.56280E-01 1.43668E-04 1.62463E-01 3.12523E-13 1.99276E-13
 -1      1099 2.00878E+01 3.26498E-01 2.96523E-04-2.29825E-01 1.92864E-14-1.17299E-13
 -1      1100 1.83423E+01 1.04587E+00-8.81752E-05-1.61365E-01-5.89531E-14-6.95610E-14
 -1      1101 1.72463E+01 9.35903E-01-5.11884E-03-1.12091E+00 3.94667E-14-1.96526E-13
 -1      1102 2.03577E+01 5.84320E-01 7.93839E-05 9.69292E-04-1.16798E-14-1.17109E-13
 -1      1103 1.87886E+01 9.15323E-01 4.72795E-04-1.76529E-01 2.43810E-16-2.01232E-14
 -1      1104 2.03526E+01 5.54911E-01 6.32832E-05 3.12621E-02-3.13969E-14-1.04446E-13
 -1      1105 1.96486E+01 5.32893E-01-1.48687E-04-1.57127E-01-9.41486E-15-1.26149E-13
 -1      1106 2.03006E+01 4.25858E-01-4.77560E-05-7.13827E-02 4.22815E-14-1.03719E-13
 -1      1107 1.92174E+01 7.57417E-01 1.26005E-03-2.09315E-01 1.16036E-13-9.13710E-14
 -1      1108 2.02102E+01 3.55895E-01-1.43744E-04-1.01661E-01 4.56022E-15-1.39485E-13
 -1      1109 1.92983E+01 7.39772E-01 7.82221E-04 1.30640E-01 1.83847E-13 9.28432E-14
 -1      1110 1.94116E+01 6.54383E-01 2.07051E-04-1.70893E-01-1.14850E-14-7.15033E-14
 -1      1111 2.03053E+01 4.42156E-01 9.74149E-05 4.68966E-02 5.22389E-14-1.29154E-13
 -1      1112 2.00914E+01 3.48278E-01-1.08886E-04-1.25674E-01-1.99945E-14-1.45298E-13
 -1      1113 1.98932E+01 4.15868E-01-4.45029E-04-3.57442E-02-1.24543E-14-2.58867E-13
 -1      1114 1.88793E+01 8.62389E-01-1.33468E-03 3.72281E-02-1.75465E-14-5.05973E-14
 -1      1115 2.01842E+01 3.59725E-01 1.20493E-04-2.98787E-02 3.96208E-14-1.57220E-13
 -1      1116 2.00541E+01 3.66554E-01 4.43261E-04-3.46792E-02 4.28572E-16-2.60952E-13
 -1      1117 1.91333E+01 7.82303E-01 1.53080E-04-1.80683E-01-3.93979E-14-8.21355E-14
 -1      1118 1.92050E+01 7.36507E-01-1.03618E-03 4.67561E-03-5.98381E-14-1.93448E-14
 -1      1119 2.02989E+01 4.32899E-01-1.17968E-05-7.72789E-03 3.95103E-14-8.66087E-14
 -1      1120 2.79159E+01 9.07102E+00 2.32063E+00-6.68910E+00-1.33227E-14 9.66477E-13
 -1      1121 2.05254E+01 6.22047E+00 2.09461E-01-3.90013E+00-1.13243E-14 3.44690E-13
 -1      1122 1.94268E+01 5.85076E+00 7.56823E-02-2.88460E+00-1.04083E-14 4.15466E-14
 -1      1123 1.90285E+01 5.72676E+00 6.06847E-02-2.23112E+00-7.39686E-15-1.25548E-13
 -1      1124 1.88496E+01 5.67222E+00 5.78139E-02-1.69728E+00-6.31786E-15-2.16145E-13
 -1      1125 1.87612E+01 5.64509E+00 5.57425E-02-1.23015E+00-4.31079E-15-2.75966E-13
 -1      1126 1.87155E+01 5.63081E+00 5.38478E-02-8.01175E-01-3.26909E-15-3.17453E-13
 -1      1127 1.86933E+01 5.62373E+00 5.24916E-02-3.91150E-01-3.12684E-15-3.44699E-13
 -1      1128 1.86870E+01 5.62172E+00 5.20611E-02 8.35561E-03-2.57108E-15-3.64142E-13
 -1      1129 1.86944E+01 5.62411E+00 5.26108E-02 4.08291E-01 5.18682E-16-3.82310E-13
 -1      1130 1.87178E+01 5.63159E+00 5.40954E-02 8.19709E-01 1.30104E-18-3.97608E-13
 -1      1131 1.87653E+01 5.64653E+00 5.64334E-02 1.25134E+00 9.03791E-16-3.93639E-13
 -1      1132 1.88553E+01 5.67423E+00 5.87643E-02 1.72306E+00 2.71658E-15-3.72024E-13
 -1      1133 1.90341E+01 5.72846E+00 6.07835E-02 2.26459E+00 4.94049E-15-3.27475E-13
 -1      1134 1.94230E+01 5.84777E+00 6.95252E-02 2.92527E+00 8.31279E-15-2.25422E-13
 -1      1135 2.04314E+01 6.17535E+00 1.53113E-01 3.87488E+00 1.22957E-14 1.86240E-14
 -1      1136 2.51734E+01 7.98012E+00 1.42691E+00 5.83916E+00 3.20854E-14 6.06626E-13
 -1      1137 2.87554E+01 3.60934E+00 1.26774E+00-4.21069E+00-7.18869E-14 1.37401E-12
 -1      1138 2.01827E+01-1.77626E-01-6.15858E-01-1.09930E-01-1.99354E-14 1.19788E-12
 -1      1139 1.87918E+01-9.64803E-02-2.36282E-01 6.22674E-02-2.27249E-15 9.37713E-13
 -1      1140 1.84612E+01-4.84045E-02-5.98706E-02 4.02209E-02-1.03489E-14 7.20125E-13
 -1      1141 1.84117E+01-2.51463E-02-1.57230E-02 2.64689E-02-4.67877E-15 5.85296E-13
 -1      1142 1.85029E+01-1.38893E-02-5.83495E-03 1.87118E-02-1.16331E-14 5.25510E-13
 -1      1143 1.86655E+01-7.81319E-03-2.77205E-03 1.37845E-02-6.94063E-15 5.07991E-13
 -1      1144 1.88632E+01-4.49626E-03-1.27979E-03 1.04310E-02 2.76797E-15 4.07627E-13
 -1      1145 1.90774E+01-2.82241E-03-6.48150E-04 8.05121E-03 1.25464E-14 3.64943E-13
 -1      1146 1.93002E+01-2.19728E-03-7.49649E-04 6.37466E-03 1.27239E-15 3.02303E-13
 -1      1147 1.95308E+01-2.27180E-03-1.44978E-03 5.28435E-03 1.48763E-15 2.32575E-13
 -1      1148 1.97732E+01-2.80687E-03-2.59211E-03 4.73904E-03 1.90711E-16 2.60885E-13
 -1      1149 2.00351E+01-3.60197E-03-4.00314E-03 4.73756E-03-3.13443E-16 1.87073E-13
 -1      1150 2.03258E+01-4.44664E-03-5.46602E-03 5.29630E-03-1.19892E-14 1.01739E-13
 -1      1151 2.06552E+01-5.07863E-03-6.67197E-03 6.42492E-03-1.16192E-14 1.67436E-13
 -1      1152 2.10313E+01-5.14389E-03-7.15637E-03 8.08790E-03-2.66866E-14 5.22958E-14
 -1      1153 2.14567E+01-4.16362E-03-6.23009E-03 1.01390E-02-1.27008E-14-9.67976E-14
 -1      1154 2.19245E+01-1.52888E-03-2.93837E-03 1.22164E-02 1.83266E-14-1.59131E-13
 -1      1155 2.24112E+01 3.43097E-03 3.87174E-03 1.35940E-02 7.73047E-15-5.92894E-14
 -1      1156 2.28693E+01 1.12249E-02 1.52206E-02 1.30243E-02-4.61198E-15-4.80137E-14
 -1      1157 2.32206E+01 2.17205E-02 3.11876E-02 8.68969E-03-1.35174E-14-5.33098E-14
 -1      1158 2.33556E+01 3.33620E-02 4.95237E-02-1.47134E-03-5.09575E-16-3.01738E-14
 -1      1159 2.31489E+01 4.23224E-02 6.41492E-02-1.87032E-02-1.30169E-14-4.11476E-14
 -1      1160 2.25000E+01 4.24656E-02 6.49881E-02-4.14661E-02-1.46320E-14 7.49817E-14
 -1      1161 2.14029E+01 2.73411E-02 4.16342E-02-6.33951E-02 8.17684E-15 4.00929E-14
 -1      1162 2.00178E+01-4.59243E-03-8.04709E-03-7.35347E-02 3.01233E-14 1.93387E-13
 -1      1163 1.86881E+01-4.43966E-02-6.96067E-02-6.14767E-02 6.66875E-14 4.21496E-13
 -1      1164 1.78412E+01-7.36216E-02-1.14351E-01-2.59682E-02-3.54751E-15 2.36290E-13
 -1      1165 1.77887E+01-7.54247E-02-1.17045E-01 2.04923E-02 2.82760E-16 1.30555E-13
 -1      1166 1.85503E+01-4.89269E-02-7.63300E-02 5.81398E-02 3.46741E-14 5.29479E-13
 -1      1167 1.98430E+01-9.48509E-03-1.53708E-02 7.32542E-02-7.06757E-14 6.02664E-13
 -1      1168 2.12433E+01 2.41258E-02 3.67995E-02 6.54527E-02-1.57578E-14 2.77882E-13
 -1      1169 2.23903E+01 4.13425E-02 6.34154E-02 4.43475E-02-2.10183E-14 1.77275E-13
 -1      1170 2.31000E+01 4.27121E-02 6.49299E-02 2.12205E-02-2.11658E-14-2.13371E-14
 -1      1171 2.33621E+01 3.43693E-02 5.12914E-02 3.16333E-03 2.44097E-14-4.74279E-13
 -1      1172 2.32704E+01 2.26812E-02 3.28594E-02-7.78757E-03 1.16578E-14-3.38583E-13
 -1      1173 2.29512E+01 1.17979E-02 1.62536E-02-1.26605E-02 2.53267E-14-1.35555E-13
 -1      1174 2.25183E+01 3.49775E-03 4.11890E-03-1.34870E-02 2.99833E-14 2.18603E-13
 -1      1175 2.20553E+01-1.96002E-03-3.43155E-03-1.21321E-02 9.67024E-15 5.65915E-13
 -1      1176 2.16147E+01-5.03585E-03-7.35971E-03-9.89978E-03 1.47517E-14 5.11933E-13
 -1      1177 2.12245E+01-6.39074E-03-8.82666E-03-7.55407E-03-3.07195E-14 2.52286E-13
 -1      1178 2.08955E+01-6.63652E-03-8.81447E-03-5.47019E-03-3.28633E-15-1.13029E-13
 -1      1179 2.06281E+01-6.25142E-03-8.03701E-03-3.78465E-03-3.77949E-14-2.32455E-13
 -1      1180 2.04173E+01-5.57646E-03-6.97502E-03-2.50149E-03-4.72503E-14 3.05134E-14
 -1      1181 2.02560E+01-4.84028E-03-5.94574E-03-1.55365E-03-1.29830E-14 1.20527E-13
 -1      1182 2.01368E+01-4.18560E-03-5.16129E-03-8.26118E-04 1.00143E-13 6.30769E-13
 -1      1183 2.00542E+01-3.67838E-03-4.71187E-03-1.47560E-04-7.54279E-15 6.71394E-13
 -1      1184 2.00047E+01-3.21803E-03-4.32779E-03 7.42474E-04 4.78869E-14 3.83527E-13
 -1      1185 1.99878E+01-2.95513E-03-2.46284E-03 2.33226E-03 4.45601E-14-1.57942E-14
 -1      1186 1.99951E+01 1.74189E-03 4.00661E-03 1.62037E-03 8.54729E-14 1.30466E-13
 -1      1187 2.77370E+01 5.24835E-01 3.75511E-01 1.96408E+00-1.32672E-14 1.11028E-12
 -1      1188 2.00399E+01-6.62530E-02-5.73215E-01 1.29493E-01 1.33019E-14 7.45320E-13
 -1      1189 1.88655E+01-4.07349E-02-1.93153E-01 1.96226E-02 1.04205E-14 4.44677E-13
 -1      1190 1.84890E+01-2.16913E-02-5.07374E-02 1.81716E-03 6.31309E-15 2.66783E-13
 -1      1191 1.84228E+01-1.28655E-02-1.38317E-02-3.55131E-03 6.08302E-15 1.15435E-13
 -1      1192 1.85071E+01-8.10908E-03-5.39200E-03-4.81109E-03 1.34426E-14-2.17049E-14
 -1      1193 1.86660E+01-5.36699E-03-3.07275E-03-4.76791E-03-1.15554E-15-5.08274E-16
 -1      1194 1.88614E+01-3.83910E-03-2.04050E-03-4.21510E-03-5.04577E-15 7.66765E-14
 -1      1195 1.90742E+01-3.14797E-03-1.66095E-03-3.40359E-03-6.10189E-15-1.78885E-14
 -1      1196 1.92967E+01-3.09426E-03-1.92540E-03-2.45051E-03 1.91294E-14-1.10534E-13
 -1      1197 1.95291E+01-3.56614E-03-2.82978E-03-1.43449E-03 1.63571E-14-1.40529E-13
 -1      1198 1.97772E+01-4.49836E-03-4.35233E-03-4.24469E-04 4.31578E-15-2.75200E-13
 -1      1199 2.00517E+01-5.84384E-03-6.47745E-03 5.01463E-04 2.98063E-15-2.85630E-13
 -1      1200 2.03674E+01-7.54193E-03-9.18513E-03 1.23316E-03-2.53703E-16-3.79282E-13
 -1      1201 2.07426E+01-9.47030E-03-1.24027E-02 1.59630E-03 1.35525E-16-4.66556E-13
 -1      1202 2.11984E+01-1.13654E-02-1.59035E-02 1.30770E-03 4.67963E-15-5.45973E-13
 -1      1203 2.17565E+01-1.26943E-02-1.91181E-02-7.96024E-05-1.31752E-14-6.25142E-13
 -1      1204 2.24355E+01-1.24712E-02-2.08119E-02-3.22055E-03 2.18111E-14-5.22846E-13
 -1      1205 2.32426E+01-9.05934E-03-1.86212E-02-8.94122E-03 2.40444E-15-5.25857E-13
 -1      1206 2.41587E+01-1.44185E-04-8.62189E-03-1.79481E-02 1.91638E-15-4.60847E-13
 -1      1207 2.51152E+01 1.66594E-02 1.43766E-02-2.99604E-02-2.07983E-15-2.67612E-13
 -1      1208 2.59615E+01 4.16976E-02 5.42991E-02-4.19955E-02-3.81722E-14-1.60455E-13
 -1      1209 2.64402E+01 6.94601E-02 1.07372E-01-4.61875E-02 2.32045E-14-4.54051E-13
 -1      1210 2.62054E+01 8.41276E-02 1.52389E-01-2.93341E-02 7.74988E-15-8.02913E-13
 -1      1211 2.49515E+01 6.29550E-02 1.47219E-01 1.93768E-02-6.16954E-15-7.29902E-13
 -1      1212 2.26944E+01-2.25160E-03 5.51018E-02 9.09605E-02 1.20997E-15-2.37144E-13
 -1      1213 2.00571E+01-8.10308E-02-1.04932E-01 1.45012E-01-1.28456E-14-2.12219E-13
 -1      1214 1.81809E+01-1.18559E-01-2.38315E-01 1.33606E-01-2.12851E-14-2.72650E-13
 -1      1215 1.80592E+01-8.65886E-02-2.44936E-01 4.95613E-02-1.66065E-14-2.31974E-13
 -1      1216 1.97642E+01-2.13020E-02-1.26921E-01-5.57005E-02 1.30364E-14-3.86302E-13
 -1      1217 2.23701E+01 2.95579E-02 1.94170E-02-1.17618E-01-3.35810E-14-2.50105E-13
 -1      1218 2.47101E+01 4.80821E-02 1.08830E-01-1.18403E-01 1.39957E-14 1.49047E-14
 -1      1219 2.60954E+01 4.31663E-02 1.23532E-01-8.16579E-02-3.05762E-14 4.36644E-13
 -1      1220 2.64495E+01 2.90610E-02 9.29509E-02-3.83750E-02 8.98804E-15 3.80650E-13
 -1      1221 2.60502E+01 1.52493E-02 5.16250E-02-5.92417E-03-6.61797E-15-6.23911E-14
 -1      1222 2.52463E+01 5.13362E-03 1.87882E-02 1.22367E-02-1.96211E-14-2.12191E-13
 -1      1223 2.43090E+01-1.09321E-03-1.16541E-03 1.95243E-02-8.07794E-15-7.04044E-13
 -1      1224 2.34017E+01-4.33496E-03-1.07972E-02 2.04246E-02 1.33515E-13-9.99340E-13
 -1      1225 2.26034E+01-5.62884E-03-1.40169E-02 1.82896E-02 7.43015E-15-9.38610E-13
 -1      1226 2.19398E+01-5.79127E-03-1.38842E-02 1.51158E-02 2.78645E-14-4.18790E-13
 -1      1227 2.14083E+01-5.37127E-03-1.22932E-02 1.19148E-02 1.82043E-14-4.07690E-13
 -1      1228 2.09936E+01-4.70761E-03-1.02650E-02 9.11524E-03-8.65236E-14 1.42101E-13
 -1      1229 2.06765E+01-4.00003E-03-8.29831E-03 6.84546E-03 2.73681E-14 1.26283E-13
 -1      1230 2.04383E+01-3.36620E-03-6.62338E-03 5.09691E-03-3.21312E-14 2.51023E-13
 -1      1231 2.02628E+01-2.87590E-03-5.35299E-03 3.80275E-03 1.07145E-14 3.04346E-13
 -1      1232 2.01371E+01-2.56033E-03-4.55285E-03 2.86360E-03 1.09166E-13-1.88898E-13
 -1      1233 2.00522E+01-2.41978E-03-4.22594E-03 2.13505E-03 3.17363E-14-2.09925E-13
 -1      1234 2.00026E+01-2.24961E-03-3.97654E-03 1.28308E-03 8.11909E-14-8.28329E-13
 -1      1235 1.99865E+01-1.01629E-03-1.93553E-03-3.95264E-04 5.67919E-14-1.21265E-12
 -1      1236 1.99955E+01 1.54184E-03 4.30683E-03-1.56261E-03-1.40369E-14-7.10808E-13
 -1      1237 2.00012E+01-4.65660E-03 3.92746E-03-1.62325E-03-7.35789E-13-5.98535E-14
 -1      1238 1.99977E+01-1.25162E-02-2.58235E-03-2.10157E-03-1.06985E-12-1.91868E-13
 -1      1239 1.99974E+01 6.64625E-03-3.91874E-03 1.37668E-04-1.26419E-12-7.77264E-14
 -1      1240 1.99983E+01 5.43672E-02-2.61164E-03 1.50515E-03-1.66561E-12 7.35649E-14
 -1      1241 1.99996E+01 1.19112E-01-5.69119E-04 2.10235E-03-5.87574E-13 1.42675E-13
 -1      1242 2.00010E+01 1.86541E-01 1.36815E-03 2.08091E-03-6.16825E-13 2.53306E-14
 -1      1243 2.00020E+01 2.44539E-01 2.87117E-03 1.64628E-03-2.67305E-13 5.92707E-14
 -1      1244 2.00027E+01 2.83533E-01 3.81609E-03 8.87176E-04 2.27266E-13-1.08570E-13
 -1      1245 2.00029E+01 2.96620E-01 4.09854E-03-1.07367E-05 6.45094E-13 1.26026E-13
 -1      1246 2.00026E+01 2.81910E-01 3.71295E-03-8.93823E-04 6.48010E-13 2.12673E-13
 -1      1247 2.00019E+01 2.42001E-01 2.70893E-03-1.61216E-03 3.99766E-13-1.13393E-13
 -1      1248 2.00009E+01 1.84147E-01 1.22374E-03-2.03355E-03-5.06847E-13 9.88034E-14
 -1      1249 1.99996E+01 1.17872E-01-6.10881E-04-2.01602E-03-2.74804E-13 1.46598E-13
 -1      1250 1.99983E+01 5.46046E-02-2.54239E-03-1.47312E-03 5.56766E-13 1.30370E-13
 -1      1251 1.99976E+01 7.17388E-03-3.90846E-03-2.46149E-04 3.57646E-13 4.28901E-14
 -1      1252 1.99974E+01-9.82225E-03-2.04636E-03 3.28650E-03 2.52389E-14-6.57623E-14
 -1      1253 2.00013E+01-5.11116E-03 3.65673E-03 1.85757E-03-5.30592E-14 8.89848E-14
 -1      1254-1.31319E+00-2.35541E+01-3.67806E+00-2.33154E+00 1.39549E-12 9.36057E-14
 -1      1255-1.89126E+00-1.51223E+01-3.14854E+00-4.20366E+00 7.26308E-13 2.46914E-13
 -1      1256 1.85057E-01-2.54786E+00-1.93532E+00-2.52200E-01 2.99316E-13 2.41696E-13
 -1      1257 8.94736E+00 7.40802E+00-4.12424E-01 8.09951E+00-2.50910E-14 1.29674E-13
 -1      1258 2.53040E+01 1.09741E+01 1.37238E+00 1.58854E+01 1.69864E-13 1.28120E-13
 -1      1259 4.57075E+01 8.34987E+00 2.92681E+00 1.75632E+01 6.06182E-14 2.57794E-13
 -1      1260 6.33021E+01 3.29596E+00 4.11119E+00 1.07142E+01 6.82232E-14 8.70415E-14
 -1      1261 6.80253E+01 1.94586E+00 4.47535E+00-2.61688E+00 2.78458E-14-2.02116E-13
 -1      1262 5.76917E+01 5.42766E+00 3.84467E+00-1.40506E+01 1.60344E-13-3.85247E-13
 -1      1263 3.85127E+01 9.79805E+00 2.47692E+00-1.79844E+01 4.44422E-13-8.20677E-13
 -1      1264 1.86768E+01 1.05222E+01 7.14182E-01-1.35276E+01 8.20677E-13-1.00497E-12
 -1      1265 4.98803E+00 4.65683E+00-9.43762E-01-4.94725E+00 9.90319E-13-8.46878E-13
 -1      1266-1.09008E+00-6.70458E+00-2.35591E+00 2.27237E+00 1.19127E-12-5.68878E-13
 -1      1267-1.62973E+00-1.89984E+01-3.38183E+00 4.16970E+00 9.93539E-13-3.02786E-13
 -1      1268-9.74955E-01-2.48509E+01-3.76174E+00 6.20478E-01 3.37480E-13-1.04874E-13
 -1      1269-1.34246E+00-2.09961E+01-3.48623E+00-3.46329E+00-1.83076E-13-3.04201E-14
 -1      1270-1.41448E+00-9.63418E+00-2.53846E+00-2.95062E+00-2.74447E-13-1.67921E-13
 -1      1271 3.04615E+00 2.54872E+00-1.19994E+00 3.16304E+00-7.06546E-13-5.59330E-13
 -1      1272 1.47832E+01 1.00487E+01 3.92113E-01 1.18614E+01-7.03437E-13-8.82183E-13
 -1      1273 3.30954E+01 1.06121E+01 2.05581E+00 1.76578E+01-4.65405E-13-6.84564E-13
 -1      1274 5.31011E+01 6.13260E+00 3.34958E+00 1.52515E+01-9.59788E-14-3.47389E-13
 -1      1275 6.56908E+01 2.01282E+00 4.15132E+00 4.75356E+00 1.92416E-14-3.62710E-13
 -1      1276 6.33278E+01 2.69083E+00 3.94465E+00-8.33998E+00 8.05606E-15-8.40439E-14
 -1      1277 4.86767E+01 7.26676E+00 3.05628E+00-1.70119E+01-2.02893E-13 4.50529E-13
 -1      1278 2.85495E+01 1.10410E+01 1.64440E+00-1.69356E+01-3.75588E-13 4.15890E-13
 -1      1279 1.12660E+01 8.90164E+00-4.79211E-03-9.86816E+00-6.41709E-13 5.50227E-13
 -1      1280 1.14315E+00-6.52089E-01-1.60010E+00-9.55290E-01-6.49925E-13 4.53082E-13
 -1      1281-1.61136E+00-1.39288E+01-2.88784E+00 3.87667E+00-8.47988E-13 3.73535E-13
 -1      1282-9.93734E-01-2.36431E+01-3.66152E+00 2.16275E+00 9.06331E-13 9.78731E-14
 -1      1283 2.22275E+01 1.83628E+00-7.24909E-01-2.78748E+00-2.52298E-14 8.59091E-13
 -1      1284 2.03416E+01 4.68635E+00-4.83616E-02-3.30266E+00-9.72972E-14 2.07813E-13
 -1      1285 2.08413E+01 4.80460E+00-1.13294E-01-4.15586E+00-1.16074E-13 3.65562E-13
 -1      1286 1.95273E+01 4.99188E+00-1.93965E-02-2.64995E+00-1.11203E-13-3.16969E-14
 -1      1287 1.98191E+01 5.08699E+00 4.07101E-04-3.04100E+00-1.19689E-13 7.41907E-14
 -1      1288 2.05115E+01 3.95002E+00-2.58053E-02-3.06924E+00-1.74211E-13 1.86254E-13
 -1      1289 1.91889E+01 5.08536E+00-3.52516E-03-2.06520E+00-1.01599E-13-1.64452E-13
 -1      1290 1.93339E+01 5.13933E+00 1.07854E-02-2.35847E+00-1.09881E-13-9.95731E-14
 -1      1291 1.97523E+01 4.36564E+00-2.41290E-02-2.48338E+00-1.79169E-13-1.37806E-14
 -1      1292 1.90204E+01 5.13450E+00 3.32990E-03-1.55958E+00-8.55158E-14-2.41250E-13
 -1      1293 1.90949E+01 5.16352E+00 1.27388E-02-1.80946E+00-9.24504E-14-2.02241E-13
 -1      1294 1.93993E+01 4.55824E+00-1.94006E-02-1.92478E+00-1.53782E-13-1.31988E-13
 -1      1295 1.89313E+01 5.16626E+00 6.59673E-03-1.11237E+00-6.62491E-14-2.94775E-13
 -1      1296 1.89718E+01 5.18202E+00 1.28728E-02-1.33347E+00-7.40553E-14-2.63964E-13
 -1      1297 1.92182E+01 4.66687E+00-1.58991E-02-1.43877E+00-1.30303E-13-1.93429E-13
 -1      1298 1.88824E+01 5.18763E+00 8.16542E-03-6.90418E-01-5.74491E-14-3.28642E-13
 -1      1299 1.89043E+01 5.19619E+00 1.21204E-02-8.99885E-01-6.11893E-14-3.12229E-13
 -1      1300 1.91189E+01 4.73484E+00-1.37743E-02-9.99061E-01-1.03726E-13-2.49183E-13
 -1      1301 1.88598E+01 5.20050E+00 9.25269E-03-2.87660E-01-3.83800E-14-3.51313E-13
 -1      1302 1.88691E+01 5.20418E+00 1.10995E-02-4.88779E-01-4.37883E-14-3.37036E-13
 -1      1303 1.90651E+01 4.77572E+00-1.27291E-02-5.85368E-01-8.46458E-14-2.68778E-13
 -1      1304 1.88564E+01 5.20572E+00 1.02092E-02 1.07553E-01-2.14436E-14-3.72612E-13
 -1      1305 1.88560E+01 5.20557E+00 1.01336E-02-9.10377E-02-2.65278E-14-3.62366E-13
 -1      1306 1.90418E+01 4.79470E+00-1.22866E-02-1.87987E-01-4.71561E-14-2.92162E-13
 -1      1307 1.88710E+01 5.20383E+00 1.11943E-02 5.05913E-01-3.55792E-15-3.90785E-13
 -1      1308 1.88609E+01 5.19984E+00 9.18560E-03 3.04353E-01-1.11558E-14-3.79953E-13
 -1      1309 1.90427E+01 4.79404E+00-1.23065E-02 2.04413E-01-2.80600E-14-3.11879E-13
 -1      1310 1.89078E+01 5.19503E+00 1.21855E-02 9.18576E-01 6.74027E-15-4.01477E-13
 -1      1311 1.88851E+01 5.18630E+00 8.09757E-03 7.08112E-01 3.47422E-15-3.96020E-13
 -1      1312 1.90679E+01 4.77359E+00-1.27985E-02 6.02533E-01-1.10090E-15-3.29691E-13
 -1      1313 1.89764E+01 5.18027E+00 1.30435E-02 1.35091E+00 2.37301E-14-3.90767E-13
 -1      1314 1.89350E+01 5.16407E+00 6.44307E-03 1.12837E+00 1.72115E-14-3.95821E-13
 -1      1315 1.91235E+01 4.73127E+00-1.38300E-02 1.01414E+00 2.11710E-14-3.36547E-13
 -1      1316 1.91036E+01 5.15941E+00 1.30060E-02 1.83542E+00 5.21874E-14-3.70870E-13
 -1      1317 1.90271E+01 5.12995E+00 3.19508E-03 1.58264E+00 4.20965E-14-3.84385E-13
 -1      1318 1.92254E+01 4.66032E+00-1.59916E-02 1.45630E+00 6.04083E-14-3.19630E-13
 -1      1319 1.93441E+01 5.13325E+00 1.03516E-02 2.39290E+00 7.91277E-14-3.21975E-13
 -1      1320 1.91985E+01 5.07746E+00-4.25066E-03 2.09545E+00 6.78624E-14-3.53637E-13
 -1      1321 1.94121E+01 4.54489E+00-1.98438E-02 1.95179E+00 9.78627E-14-2.96208E-13
 -1      1322 1.98442E+01 5.09600E+00 6.17218E-03 3.07942E+00 1.06179E-13-1.97134E-13
 -1      1323 1.95384E+01 4.98284E+00-2.03316E-02 2.69201E+00 9.23844E-14-2.70634E-13
 -1      1324 1.97724E+01 4.34589E+00-2.44384E-02 2.52199E+00 1.37461E-13-2.28650E-13
 -1      1325 2.10766E+01 4.90084E+00 8.24607E-03 4.04891E+00 1.09052E-13 7.39825E-14
 -1      1326 2.03158E+01 4.72982E+00-4.77164E-02 3.41206E+00 9.98507E-14-9.37028E-14
 -1      1327 2.05494E+01 3.91307E+00-2.23297E-02 3.17279E+00 1.70076E-13-7.28029E-14
 -1      1328 2.71534E+01 3.19995E+00 9.26680E-01 4.57584E+00 6.96387E-14 6.52256E-13
 -1      1329 2.19864E+01 3.51807E+00-1.81610E-01 3.88037E+00 6.72240E-14 2.35312E-13
 -1      1330 2.20821E+01 2.55903E+00-3.26404E-02 3.45151E+00 1.95437E-13 1.66034E-13
 -1      1331 2.13855E+01 3.59444E-01-7.62723E-01 1.18257E+00 1.12847E-13 5.96245E-13
 -1      1332 2.19612E+01 1.31360E-01-4.00520E-01-1.28357E+00-8.49737E-14 8.68083E-13
 -1      1333 2.06408E+01 3.06499E-01-1.64615E-01-8.04140E-01-8.76868E-14 7.69440E-13
 -1      1334 2.00452E+01 1.53496E-01-7.34114E-02-4.00601E-01-6.84834E-14 7.03612E-13
 -1      1335 1.95771E+01 9.13634E-02-1.48376E-02-3.28416E-01-7.54605E-14 6.01009E-13
 -1      1336 2.09428E+01 3.68988E-01-1.04180E-01-1.27054E+00-1.55792E-13 4.71293E-13
 -1      1337 1.92224E+01 6.47899E-02 3.10131E-03-1.33281E-01-6.18654E-14 5.59244E-13
 -1      1338 1.90706E+01 4.17103E-02 1.32977E-02-1.15294E-01-6.36435E-14 4.76598E-13
 -1      1339 1.98968E+01 1.34140E-01-3.52473E-02-5.00153E-01-1.26458E-13 3.75080E-13
 -1      1340 1.89142E+01 3.20455E-02 1.33243E-02-2.46692E-02-4.14915E-14 4.19210E-13
 -1      1341 1.88987E+01 2.00845E-02 1.11804E-02-1.50054E-02-3.95404E-14 3.72690E-13
 -1      1342 1.94261E+01 5.61749E-02-8.67133E-03-1.64177E-01-9.98888E-14 2.96801E-13
 -1      1343 1.88486E+01 1.68621E-02 8.88299E-03 3.04220E-02-1.34274E-14 3.58234E-13
 -1      1344 1.88975E+01 1.01684E-02 6.58770E-03 3.55261E-02-3.74570E-15 3.54626E-13
 -1      1345 1.92269E+01 2.55557E-02-3.76385E-03-1.88323E-03-4.76702E-14 2.23860E-13
 -1      1346 1.89065E+01 9.15039E-03 4.79904E-03 5.94192E-02-2.28335E-14 3.44089E-13
 -1      1347 1.89874E+01 5.08386E-03 3.83658E-03 6.20236E-02-4.13532E-14 3.04385E-13
 -1      1348 1.91848E+01 1.20191E-02-2.60248E-03 8.22562E-02-2.86615E-14 2.01149E-13
 -1      1349 1.90302E+01 5.03235E-03 2.59298E-03 7.47198E-02-3.07662E-14 3.14864E-13
 -1      1350 1.91270E+01 2.50902E-03 2.45750E-03 7.59943E-02-1.77398E-14 2.71953E-13
 -1      1351 1.92329E+01 5.44594E-03-1.85303E-03 1.27094E-01-4.83602E-14 1.98773E-13
 -1      1352 1.91898E+01 2.97758E-03 1.49846E-03 8.30281E-02-1.36328E-14 2.61155E-13
 -1      1353 1.92948E+01 1.45195E-03 1.73694E-03 8.37222E-02-2.20374E-14 2.43331E-13
 -1      1354 1.93340E+01 2.40557E-03-1.27524E-03 1.51513E-01-4.54482E-14 1.66677E-13
 -1      1355 1.93704E+01 2.24255E-03 9.15647E-04 8.84665E-02-1.32888E-14 1.98130E-13
 -1      1356 1.94808E+01 1.39138E-03 1.31584E-03 8.90967E-02-2.31184E-14 1.77836E-13
 -1      1357 1.94678E+01 1.49756E-03-9.46136E-04 1.66215E-01-5.20273E-14 1.19112E-13
 -1      1358 1.95663E+01 2.40629E-03 5.61244E-04 9.37712E-02-3.27962E-14 1.70281E-13
 -1      1359 1.96824E+01 2.00643E-03 1.04143E-03 9.47054E-02-1.92775E-14 1.54276E-13
 -1      1360 1.96243E+01 1.99743E-03-8.67117E-04 1.77946E-01-4.03439E-14 7.96197E-14
 -1      1361 1.97772E+01 3.19096E-03 3.09078E-04 1.00810E-01-1.76519E-15 1.25531E-13
 -1      1362 1.99016E+01 3.05853E-03 8.40837E-04 1.02306E-01-2.77922E-14 9.59927E-14
 -1      1363 1.98000E+01 3.45974E-03-9.89551E-04 1.91209E-01-1.98610E-14 4.62968E-14
 -1      1364 2.00071E+01 4.37015E-03 9.36505E-05 1.10791E-01-2.51358E-14 1.11980E-13
 -1      1365 2.01437E+01 4.32395E-03 6.66946E-04 1.13006E-01-2.57237E-14 3.60163E-14
 -1      1366 1.99955E+01 5.53757E-03-1.25258E-03 2.08979E-01-1.10135E-14-4.19088E-14
 -1      1367 2.02621E+01 5.70747E-03-1.27141E-04 1.24285E-01 8.36657E-15 4.77942E-14
 -1      1368 2.04153E+01 5.54094E-03 4.80746E-04 1.27259E-01-1.18599E-14 4.73298E-14
 -1      1369 2.02145E+01 7.87541E-03-1.59112E-03 2.32929E-01-2.54612E-14-1.40313E-14
 -1      1370 2.05491E+01 6.90055E-03-3.81311E-04 1.41097E-01-2.90850E-14 5.46121E-14
 -1      1371 2.07229E+01 6.35654E-03 2.48961E-04 1.44711E-01-4.80004E-14 8.61637E-15
 -1      1372 2.04615E+01 1.00169E-02-1.92841E-03 2.63313E-01-3.20811E-14-3.58291E-15
 -1      1373 2.08738E+01 7.52073E-03-6.78423E-04 1.59988E-01-4.30023E-14 4.92033E-14
 -1      1374 2.10704E+01 6.27111E-03-4.86570E-05 1.63885E-01-4.04789E-14 9.78124E-15
 -1      1375 2.07406E+01 1.13055E-02-2.16238E-03 2.98563E-01-4.94841E-14 1.57808E-14
 -1      1376 2.12382E+01 6.95092E-03-9.94335E-04 1.78231E-01-5.11456E-14 2.30744E-14
 -1      1377 2.14562E+01 4.59193E-03-4.01389E-04 1.81708E-01-5.79215E-14-8.67934E-14
 -1      1378 2.10535E+01 1.07793E-02-2.14897E-03 3.34571E-01-6.34503E-14 9.49263E-14
 -1      1379 2.16372E+01 4.34219E-03-1.24497E-03 1.91055E-01 9.01354E-15-7.15990E-14
 -1      1380 2.18686E+01 4.31964E-04-7.38379E-04 1.92927E-01 1.82241E-14-4.74568E-14
 -1      1381 2.13969E+01 7.08814E-03-1.68576E-03 3.63727E-01-4.07994E-14 1.89427E-14
 -1      1382 2.20538E+01-1.35469E-03-1.25497E-03 1.91111E-01 1.92614E-14-5.44443E-14
 -1      1383 2.22810E+01-7.16665E-03-8.96476E-04 1.89588E-01-9.72378E-15-4.51167E-14
 -1      1384 2.17589E+01-1.47601E-03-5.05335E-04 3.73895E-01 3.95977E-14 9.82439E-15
 -1      1385 2.24541E+01-1.11679E-02-7.44474E-04 1.68366E-01-3.71792E-14-8.57205E-14
 -1      1386 2.26467E+01-1.88471E-02-6.13011E-04 1.61078E-01-7.09710E-14-1.48315E-13
 -1      1387 2.21156E+01-1.66553E-02 1.69721E-03 3.47903E-01-2.80232E-14-3.94975E-14
 -1      1388 2.27828E+01-2.55120E-02 6.14718E-04 1.11242E-01 1.35781E-14-1.34739E-13
 -1      1389 2.28960E+01-3.41248E-02 3.96450E-04 9.56224E-02-5.10529E-15-1.12942E-13
 -1      1390 2.24276E+01-3.93148E-02 5.15757E-03 2.64762E-01-4.31287E-14-9.69307E-14
 -1      1391 2.29625E+01-4.30639E-02 2.99160E-03 1.02062E-02-2.14195E-14-5.08022E-14
 -1      1392 2.29415E+01-5.01322E-02 2.20882E-03-1.53974E-02-5.94056E-15-4.45989E-14
 -1      1393 2.26390E+01-6.76673E-02 9.79393E-03 1.04600E-01 3.12667E-14-1.29741E-13
 -1      1394 2.29026E+01-5.92791E-02 6.01821E-03-1.35048E-01-4.72495E-14-8.15494E-15
 -1      1395 2.26960E+01-6.04491E-02 4.34555E-03-1.69338E-01-2.09529E-14-2.88276E-14
 -1      1396 2.26822E+01-9.48751E-02 1.47833E-02-1.40458E-01-6.16434E-15-8.53816E-14
 -1      1397 2.25247E+01-6.55280E-02 8.44186E-03-3.05594E-01 1.47972E-14 2.78076E-14
 -1      1398 2.21101E+01-5.55109E-02 5.47639E-03-3.41801E-01 2.60313E-14 7.57103E-14
 -1      1399 2.24932E+01-1.07564E-01 1.81409E-02-4.49354E-01 7.42635E-15 5.22859E-14
 -1      1400 2.18061E+01-5.11375E-02 8.15676E-03-4.55688E-01 3.21154E-14 1.21181E-13
 -1      1401 2.12220E+01-2.68768E-02 3.78904E-03-4.80624E-01-7.16614E-15 1.24088E-13
 -1      1402 2.20403E+01-8.84706E-02 1.67852E-02-7.55433E-01 1.88183E-14 5.40522E-14
 -1      1403 2.08317E+01-1.03128E-02 3.57696E-03-5.18808E-01 1.47638E-14 1.12334E-13
 -1      1404 2.01965E+01 2.43733E-02-1.56891E-03-5.16736E-01 5.34113E-14 1.96600E-13
 -1      1405 2.13636E+01-2.70310E-02 7.80556E-03-9.46636E-01 2.53059E-14 9.58834E-14
 -1      1406 1.98181E+01 4.82822E-02-4.37606E-03-4.37112E-01 5.67619E-14 2.20809E-13
 -1      1407 1.93106E+01 8.07959E-02-8.77909E-03-3.99666E-01 3.96766E-14 2.26801E-13
 -1      1408 2.06033E+01 6.63850E-02-8.25748E-03-9.03333E-01 3.94233E-14 2.07050E-13
 -1      1409 1.90681E+01 9.94177E-02-1.16596E-02-2.05607E-01-2.07629E-14 1.83260E-13
 -1      1410 1.88588E+01 1.13892E-01-1.35063E-02-1.41591E-01-9.34235E-14 9.13922E-14
 -1      1411 1.99831E+01 1.55509E-01-2.50414E-02-5.73236E-01-5.82902E-14 6.87037E-14
 -1      1412 1.88438E+01 1.15061E-01-1.36361E-02 1.04138E-01 1.56420E-14 9.35762E-14
 -1      1413 1.90089E+01 1.03552E-01-1.20662E-02 1.69810E-01 7.36876E-14 1.28182E-13
 -1      1414 1.97244E+01 1.95230E-01-3.28588E-02-3.54420E-02-2.84391E-14-2.58439E-14
 -1      1415 1.92272E+01 8.65974E-02-9.34468E-03 3.74384E-01 1.11952E-13 2.03264E-13
 -1      1416 1.97060E+01 5.55981E-02-5.15776E-03 4.15912E-01 5.77290E-14 3.22735E-13
 -1      1417 1.99288E+01 1.63736E-01-2.64107E-02 5.15419E-01 1.33898E-13 1.21025E-13
 -1      1418 2.00745E+01 3.16796E-02-2.21126E-03 5.11120E-01-8.65963E-14 3.81209E-13
 -1      1419 2.07044E+01-3.47803E-03 2.90017E-03 5.17470E-01-1.15031E-13 3.33282E-13
 -1      1420 2.05155E+01 7.86153E-02-1.02476E-02 8.77999E-01 4.76442E-14 9.92140E-14
 -1      1421 2.11002E+01-2.13850E-02 3.43808E-03 4.92564E-01-6.28139E-14 3.79072E-13
 -1      1422 2.16993E+01-4.73090E-02 7.91505E-03 4.70262E-01-5.17980E-14 3.53318E-13
 -1      1423 2.12726E+01-1.63775E-02 6.24308E-03 9.56796E-01-1.36882E-13 2.74399E-13
 -1      1424 2.20187E+01-5.31920E-02 5.46732E-03 3.63173E-01-9.88211E-14 2.37650E-13
 -1      1425 2.24591E+01-6.48708E-02 8.56408E-03 3.27606E-01-1.77081E-13 6.33243E-14
 -1      1426 2.19712E+01-8.29552E-02 1.60198E-02 7.89635E-01-1.58403E-13 2.73455E-13
 -1      1427 2.26493E+01-6.06172E-02 4.55150E-03 1.92119E-01-1.50556E-13 3.22537E-14
 -1      1428 2.28834E+01-6.04799E-02 6.38711E-03 1.57235E-01-2.10994E-14-1.00808E-13
 -1      1429 2.24587E+01-1.06912E-01 1.81291E-02 4.92094E-01-2.44942E-13 1.61532E-13
 -1      1430 2.29401E+01-5.14895E-02 2.48417E-03 3.49878E-02 2.32366E-14-1.52580E-13
 -1      1431 2.29849E+01-4.48040E-02 3.38848E-03 8.37602E-03 2.74121E-14-1.11734E-13
 -1      1432 2.26840E+01-9.69961E-02 1.51974E-02 1.80544E-01-8.90859E-14 1.30590E-13
 -1      1433 2.29334E+01-3.56094E-02 6.07493E-04-8.04462E-02 2.48716E-14-5.80881E-14
 -1      1434 2.28387E+01-2.69445E-02 9.09145E-04-9.69477E-02 6.98890E-14-3.34845E-14
 -1      1435 2.26727E+01-7.04955E-02 1.02621E-02-7.19504E-02 5.27720E-14 2.52482E-13
 -1      1436 2.27148E+01-1.98613E-02-5.04123E-04-1.49405E-01 1.61816E-13-2.79577E-14
 -1      1437 2.25366E+01-1.19207E-02-5.61452E-04-1.57207E-01 1.11657E-13 1.62521E-13
 -1      1438 2.24875E+01-4.15234E-02 5.48171E-03-2.39391E-01 1.75955E-13 2.10218E-13
 -1      1439 2.23741E+01-7.48789E-03-8.66309E-04-1.79583E-01 3.45370E-14 4.62720E-14
 -1      1440 2.21593E+01-1.35881E-03-1.14887E-03-1.81201E-01 4.77489E-14 1.62445E-13
 -1      1441 2.21974E+01-1.76958E-02 1.81210E-03-3.27015E-01 1.14275E-13 1.46209E-13
 -1      1442 2.19847E+01 8.18250E-04-7.54698E-04-1.82581E-01 5.37951E-14 2.84779E-13
 -1      1443 2.17663E+01 5.01875E-03-1.17648E-03-1.80422E-01 1.12023E-13 3.54100E-13
 -1      1444 2.18611E+01-1.25837E-03-5.93643E-04-3.53796E-01 6.80016E-14 2.94335E-14
 -1      1445 2.15974E+01 5.61661E-03-4.43517E-04-1.69184E-01 2.40287E-14 3.27163E-13
 -1      1446 2.13952E+01 8.20282E-03-9.38083E-04-1.65094E-01-1.30470E-13 2.09536E-13
 -1      1447 2.15211E+01 8.44999E-03-1.94794E-03-3.40773E-01 1.06344E-13 9.50750E-14
 -1      1448 2.12424E+01 7.85169E-03-1.12610E-04-1.47600E-01-1.05432E-13 2.34834E-13
 -1      1449 2.10663E+01 9.25076E-03-6.25035E-04-1.42816E-01-1.14251E-13 5.25135E-14
 -1      1450 2.12041E+01 1.31273E-02-2.55400E-03-3.05532E-01-1.57077E-13 5.51368E-14
 -1      1451 2.09346E+01 8.42339E-03 1.52743E-04-1.23322E-01-1.78991E-13-9.15882E-14
 -1      1452 2.07878E+01 9.02859E-03-3.35662E-04-1.18584E-01-1.71203E-13-3.19411E-13
 -1      1453 2.09245E+01 1.45066E-02-2.68297E-03-2.60677E-01-2.59177E-13 5.35676E-14
 -1      1454 2.06784E+01 8.03850E-03 3.29118E-04-9.96179E-02 1.86797E-14-1.61281E-13
 -1      1455 2.05602E+01 8.16175E-03-1.08281E-04-9.53094E-02 6.03033E-15-1.12436E-13
 -1      1456 2.06878E+01 1.39763E-02-2.53950E-03-2.14236E-01-2.28389E-14-6.81233E-14
 -1      1457 2.04719E+01 7.20049E-03 4.21961E-04-7.81418E-02-7.69592E-14 1.25911E-13
 -1      1458 2.03795E+01 7.07058E-03 4.74257E-05-7.44072E-02 5.33464E-14 1.42081E-13
 -1      1459 2.04938E+01 1.25256E-02-2.26549E-03-1.70693E-01 1.78538E-13 2.00501E-13
 -1      1460 2.03104E+01 6.24975E-03 4.40947E-04-5.94551E-02 1.21034E-13 4.22043E-14
 -1      1461 2.02405E+01 6.02590E-03 1.26373E-04-5.62841E-02 9.99474E-14 1.69559E-13
 -1      1462 2.03394E+01 1.08160E-02-1.95622E-03-1.32035E-01 5.40241E-14 6.25754E-14
 -1      1463 2.01881E+01 5.41231E-03 3.82529E-04-4.34068E-02 1.71916E-13 2.30320E-13
 -1      1464 2.01376E+01 5.19724E-03 1.15535E-04-4.06864E-02 1.68501E-13 4.28614E-13
 -1      1465 2.02201E+01 9.28181E-03-1.67608E-03-9.85805E-02 2.31217E-13 1.28714E-13
 -1      1466 2.00997E+01 4.82939E-03 2.26497E-04-2.94008E-02-3.35720E-14 3.82317E-13
 -1      1467 2.00663E+01 4.65245E-03 1.36069E-05-2.69486E-02-6.79571E-14 2.86777E-13
 -1      1468 2.01312E+01 8.21102E-03-1.46297E-03-6.95900E-02 7.76356E-14 1.75838E-14
 -1      1469 2.00408E+01 4.49143E-03-1.30097E-05-1.67321E-02-3.83644E-14 2.90838E-13
 -1      1470 2.00230E+01 4.23511E-03-4.53010E-05-1.43466E-02-1.04820E-14 1.37410E-13
 -1      1471 2.00687E+01 7.69920E-03-1.28314E-03-4.38230E-02-5.86407E-14-5.58101E-14
 -1      1472 2.00077E+01 4.60061E-03 2.32038E-05-5.07646E-03-1.66044E-14 1.17292E-13
 -1      1473 2.00042E+01 3.19177E-03 5.97958E-04-2.70592E-03-2.89178E-14 8.89169E-14
 -1      1474 2.00283E+01 7.36752E-03-1.00280E-03-2.06687E-02-3.42386E-14 9.72665E-15
 -1      1475 1.99973E+01-9.56393E-04 1.56578E-03 2.73700E-03-1.00331E-13 1.32354E-13
 -1      1476 2.00050E+01 1.96608E-03 4.65424E-05-1.19104E-03-5.60765E-14 1.07245E-13
 -1      1477 2.02207E+01 7.54793E-02-1.51947E-01 4.82756E-01 9.45459E-14 3.88557E-13
 -1      1478 2.14890E+01 2.15953E-01-2.29185E-01 7.19556E-01 8.63615E-14 5.50782E-13
 -1      1479 2.16938E+01 8.80910E-01-8.53805E-02 2.06152E+00 1.69101E-13 3.15969E-13
 -1      1480 1.92960E+01 3.24905E-02-2.12997E-02 1.84800E-01 5.66804E-14 2.31121E-13
 -1      1481 1.97152E+01 1.13647E-01-6.26103E-02 2.36812E-01 5.79016E-14 3.25516E-13
 -1      1482 2.02726E+01 1.87656E-01-5.51477E-02 7.83658E-01 1.32519E-13 1.91342E-13
 -1      1483 1.89191E+01 1.53472E-02 5.65314E-03 5.16158E-02 3.72462E-14 1.09822E-13
 -1      1484 1.90556E+01 5.18657E-02 1.03708E-03 7.80389E-02 3.89272E-14 1.75089E-13
 -1      1485 1.95324E+01 7.21129E-02-1.21797E-02 2.95739E-01 1.01428E-13 1.00879E-13
 -1      1486 1.88165E+01 7.53272E-03 6.92717E-03-1.22253E-02 4.81386E-14 4.71324E-15
 -1      1487 1.88276E+01 2.63452E-02 1.11527E-02 2.43091E-03 3.86149E-14 7.77295E-14
 -1      1488 1.92042E+01 3.16323E-02-2.54224E-03 7.82870E-02 8.21747E-14 1.47295E-14
 -1      1489 1.88554E+01 3.84083E-03 4.69398E-03-4.46659E-02 9.04311E-15-1.49880E-14
 -1      1490 1.88055E+01 1.46145E-02 8.60459E-03-3.60914E-02 1.09084E-14-5.30305E-15
 -1      1491 1.90987E+01 1.42654E-02-1.76535E-03-3.00991E-02 4.92466E-14-1.39168E-14
 -1      1492 1.89700E+01 1.97513E-03 3.15329E-03-6.13829E-02-2.59237E-14 3.26857E-14
 -1      1493 1.88895E+01 8.51501E-03 5.48148E-03-5.61828E-02-1.23382E-14-5.58581E-15
 -1      1494 1.91170E+01 6.05996E-03-1.87751E-03-8.68446E-02-2.07956E-14 1.95555E-14
 -1      1495 1.91257E+01 1.10807E-03 2.30158E-03-7.00657E-02 1.93500E-14 3.56989E-14
 -1      1496 1.90299E+01 5.25535E-03 3.58311E-03-6.67522E-02 3.22973E-15 3.64934E-14
 -1      1497 1.92056E+01 2.08794E-03-1.75884E-03-1.17163E-01-5.12416E-15 1.55993E-14
 -1      1498 1.93053E+01 8.93751E-04 1.74540E-03-7.51793E-02 2.11686E-14-3.00957E-14
 -1      1499 1.92013E+01 3.68170E-03 2.52850E-03-7.27868E-02 2.52403E-14 2.77556E-17
 -1      1500 1.93356E+01 4.52613E-04-1.57262E-03-1.34189E-01 3.79785E-14 6.50088E-15
 -1      1501 1.95020E+01 1.16088E-03 1.28052E-03-7.96925E-02 2.33688E-14-1.02700E-13
 -1      1502 1.93920E+01 3.26308E-03 1.90828E-03-7.75165E-02 1.27997E-14-7.47067E-14
 -1      1503 1.94925E+01 3.15268E-04-1.48773E-03-1.45830E-01 4.48173E-14-6.29384E-14
 -1      1504 1.97161E+01 1.81490E-03 8.31520E-04-8.57916E-02 4.40363E-14-1.17300E-13
 -1      1505 1.95989E+01 3.72789E-03 1.51568E-03-8.32668E-02 3.20833E-14-8.76248E-14
 -1      1506 1.96709E+01 1.25002E-03-1.56906E-03-1.57459E-01 4.44121E-14-1.00777E-13
 -1      1507 1.99533E+01 2.79901E-03 3.68881E-04-9.52230E-02 2.98374E-14-1.76072E-13
 -1      1508 1.98251E+01 4.92901E-03 1.25840E-03-9.18550E-02 4.09767E-14-1.58206E-13
 -1      1509 1.98713E+01 3.02080E-03-1.83584E-03-1.73092E-01 6.08584E-14-5.36293E-14
 -1      1510 2.02238E+01 4.07046E-03-1.26395E-04-1.09458E-01 3.06223E-14-2.67080E-13
 -1      1511 2.00784E+01 6.78045E-03 1.08712E-03-1.04786E-01 2.15017E-14-2.51162E-13
 -1      1512 2.00992E+01 5.48470E-03-2.29840E-03-1.95951E-01 5.95750E-14-1.48168E-13
 -1      1513 2.05409E+01 5.57440E-03-6.71839E-04-1.29737E-01 1.20319E-14-3.31442E-13
 -1      1514 2.03705E+01 9.21057E-03 9.63471E-04-1.23321E-01 2.77817E-14-3.06618E-13
 -1      1515 2.03635E+01 8.52975E-03-2.96674E-03-2.28701E-01 5.63868E-14-2.17130E-13
 -1      1516 2.09210E+01 7.20407E-03-1.27926E-03-1.56966E-01 1.10829E-14-3.97639E-13
 -1      1517 2.07160E+01 1.21040E-02 8.46312E-04-1.48409E-01 2.46738E-14-3.89635E-13
 -1      1518 2.06759E+01 1.20067E-02-3.84369E-03-2.73427E-01 4.96040E-14-2.78892E-13
 -1      1519 2.13813E+01 8.73405E-03-1.93552E-03-1.91394E-01 1.55897E-14-4.38706E-13
 -1      1520 2.11315E+01 1.52079E-02 6.86479E-04-1.80433E-01 2.54128E-14-4.01557E-13
 -1      1521 2.10496E+01 1.56250E-02-4.90371E-03-3.31265E-01 4.18264E-14-2.81219E-13
 -1      1522 2.19375E+01 9.71031E-03-2.55449E-03-2.31933E-01-7.07550E-15-4.66897E-13
 -1      1523 2.16337E+01 1.79741E-02 4.32187E-04-2.18633E-01-1.10901E-14-4.76176E-13
 -1      1524 2.14976E+01 1.87786E-02-6.04842E-03-4.01523E-01 1.44685E-14-3.17861E-13
 -1      1525 2.25987E+01 9.28599E-03-2.87634E-03-2.74901E-01 3.55558E-14-4.19963E-13
 -1      1526 2.22350E+01 1.93044E-02 5.89027E-05-2.60041E-01 1.38518E-15-4.17701E-13
 -1      1527 2.20293E+01 2.02596E-02-7.02198E-03-4.79970E-01-3.67675E-15-3.77394E-13
 -1      1528 2.33574E+01 6.02805E-03-2.29600E-03-3.11972E-01-6.43435E-14-4.63031E-13
 -1      1529 2.29378E+01 1.72017E-02-3.51812E-04-2.97728E-01 3.16843E-14-4.51555E-13
 -1      1530 2.26456E+01 1.78435E-02-7.27087E-03-5.55932E-01 5.65054E-14-3.92163E-13
 -1      1531 2.41753E+01-2.16481E-03 3.32255E-04-3.27405E-01-3.76662E-14-3.72986E-13
 -1      1532 2.37220E+01 8.45422E-03-4.66725E-04-3.18349E-01-5.84399E-14-4.36318E-13
 -1      1533 2.33297E+01 7.85010E-03-5.76680E-03-6.08058E-01-7.64795E-14-3.90410E-13
 -1      1534 2.49624E+01-1.75909E-02 6.64258E-03-2.95618E-01-1.01186E-13-1.28030E-13
 -1      1535 2.45291E+01-1.11466E-02 4.71284E-04-2.99761E-01-1.13295E-13-2.53048E-13
 -1      1536 2.40355E+01-1.48573E-02-9.41363E-04-5.99649E-01-1.79592E-13-2.11768E-13
 -1      1537 2.55573E+01-4.08699E-02 1.78081E-02-1.82792E-01 6.90082E-14-1.38275E-13
 -1      1538 2.52418E+01-4.49258E-02 3.54684E-03-2.11477E-01 1.15784E-14-9.71098E-14
 -1      1539 2.46731E+01-5.50317E-02 8.89053E-03-4.77427E-01-5.60368E-14-1.97758E-15
 -1      1540 2.57268E+01-6.72328E-02 3.19965E-02 4.03000E-02 1.20817E-13-4.27493E-13
 -1      1541 2.56713E+01-9.04386E-02 9.31791E-03-2.40070E-02 9.08267E-14-2.22431E-13
 -1      1542 2.51000E+01-1.11782E-01 2.37546E-02-1.83319E-01 1.71068E-13-1.13983E-13
 -1      1543 2.52203E+01-8.11079E-02 4.07517E-02 3.66521E-01-1.97758E-15-5.11313E-13
 -1      1544 2.55770E+01-1.31420E-01 1.59308E-02 2.66166E-01 6.17631E-14-4.82898E-13
 -1      1545 2.51345E+01-1.68009E-01 3.93894E-02 3.08180E-01 1.21772E-13-2.46020E-13
 -1      1546 2.39160E+01-5.78122E-02 2.80081E-02 7.03483E-01-1.19998E-13-3.76366E-13
 -1      1547 2.47532E+01-1.32964E-01 1.65892E-02 5.93787E-01-1.14906E-13-5.70946E-13
 -1      1548 2.46162E+01-1.80980E-01 4.41686E-02 9.18613E-01-7.42826E-14-2.94511E-13
 -1      1549 2.20423E+01 1.47706E-02-1.56732E-02 8.60572E-01-3.57967E-14-1.57818E-13
 -1      1550 2.32085E+01-6.05207E-02 2.16585E-03 7.99984E-01-2.64979E-14-2.60694E-13
 -1      1551 2.35385E+01-9.37909E-02 2.61027E-02 1.40061E+00-1.49345E-13-2.49831E-13
 -1      1552 2.02823E+01 1.04486E-01-7.36070E-02 6.52285E-01-4.71758E-14-1.26968E-13
 -1      1553 2.13516E+01 7.50351E-02-2.76547E-02 6.97274E-01-6.75016E-14-1.93387E-13
 -1      1554 2.21968E+01 1.00944E-01-1.45159E-02 1.40276E+00-5.23071E-14-1.42303E-13
 -1      1555 1.94973E+01 1.46960E-01-1.01064E-01 9.68572E-02-8.55913E-15-1.67750E-13
 -1      1556 1.99522E+01 1.95102E-01-5.40991E-02 2.43912E-01-3.25434E-15-1.38480E-13
 -1      1557 2.11766E+01 3.03766E-01-5.26124E-02 7.43477E-01-7.87564E-15-1.53020E-13
 -1      1558 2.01407E+01 1.03082E-01-6.87958E-02-5.19795E-01-2.71692E-14-1.72265E-13
 -1      1559 1.97250E+01 2.10185E-01-5.16582E-02-3.51085E-01-6.20302E-14-2.09572E-13
 -1      1560 2.10276E+01 3.63291E-01-5.82237E-02-3.23995E-01-5.00676E-14-1.19706E-13
 -1      1561 2.18530E+01 1.18889E-02-4.93171E-03-8.46558E-01-7.95145E-14-1.52336E-13
 -1      1562 2.07952E+01 1.12690E-01-2.03242E-02-7.50510E-01-1.06529E-14-1.23096E-13
 -1      1563 2.18323E+01 2.09676E-01-3.69037E-02-1.20932E+00-6.37199E-14-7.29208E-14
 -1      1564 2.37710E+01-5.78826E-02 4.50520E-02-7.79876E-01-3.62397E-14-1.96232E-14
 -1      1565 2.25913E+01-1.28475E-02 1.45607E-02-7.82025E-01-3.86323E-14-1.33851E-13
 -1      1566 2.31352E+01-2.69053E-02-1.01310E-02-1.47554E+00-5.03673E-14-7.45098E-14
 -1      1567 2.51648E+01-7.87588E-02 5.88296E-02-4.70957E-01-1.04017E-13 1.23471E-13
 -1      1568 2.43011E+01-9.00040E-02 3.25343E-02-5.34077E-01-1.09912E-13-3.51247E-14
 -1      1569 2.43279E+01-1.84136E-01 7.58525E-03-1.15254E+00-9.22491E-14-6.66134E-15
 -1      1570 2.57601E+01-6.44156E-02 4.56075E-02-1.26609E-01-9.44297E-15 3.44301E-13
 -1      1571 2.53769E+01-1.04227E-01 3.05941E-02-2.01555E-01-1.07865E-14 2.04295E-13
 -1      1572 2.50256E+01-2.13573E-01 1.35363E-02-5.61892E-01-1.27355E-13 6.94878E-14
 -1      1573 2.56543E+01-3.84461E-02 2.40563E-02 1.30041E-01 2.14278E-13 1.05098E-14
 -1      1574 2.56912E+01-8.05285E-02 1.85250E-02 7.21665E-02 1.42567E-13 2.20254E-13
 -1      1575 2.51549E+01-1.61780E-01 1.19218E-02-6.54991E-03 1.97630E-13-1.19846E-13
 -1      1576 2.50977E+01-1.58383E-02 6.72785E-03 2.71275E-01-4.06428E-14-1.51473E-13
 -1      1577 2.54021E+01-4.70792E-02 6.30773E-03 2.37471E-01 4.93928E-14-1.12224E-13
 -1      1578 2.48401E+01-8.93578E-02 7.88475E-03 3.69293E-01 1.07438E-13-9.56856E-14
 -1      1579 2.43311E+01-1.18050E-03-3.12398E-03 3.20865E-01 5.89674E-14-4.23668E-13
 -1      1580 2.47575E+01-1.93852E-02-1.38542E-03 3.06561E-01 9.18625E-14-2.60694E-13
 -1      1581 2.42631E+01-3.11330E-02 4.28135E-03 5.55862E-01 1.91319E-13-2.67252E-13
 -1      1582 2.35239E+01 6.48691E-03-7.08949E-03 3.13922E-01 1.00293E-13-7.59266E-13
 -1      1583 2.39717E+01-1.44787E-03-4.57549E-03 3.11969E-01 7.25336E-14-6.34780E-13
 -1      1584 2.35810E+01 4.61839E-03 1.86652E-03 6.03407E-01 1.47223E-13-5.62944E-13
 -1      1585 2.27733E+01 9.49817E-03-7.69227E-03 2.78783E-01-5.70455E-14-7.01793E-13
 -1      1586 2.31865E+01 8.16295E-03-4.95539E-03 2.83339E-01-1.76959E-14-7.25734E-13
 -1      1587 2.29004E+01 2.21385E-02 4.90147E-04 5.69066E-01 3.44733E-14-6.21331E-13
 -1      1588 2.21233E+01 9.89019E-03-6.80114E-03 2.33661E-01-8.07110E-14-4.00900E-13
 -1      1589 2.24777E+01 1.21600E-02-4.10376E-03 2.40918E-01-6.75848E-14-5.48483E-13
 -1      1590 2.22810E+01 2.80454E-02-2.21672E-04 4.96203E-01-1.85893E-13-4.00610E-13
 -1      1591 2.15857E+01 9.02414E-03-5.46466E-03 1.88560E-01 6.83177E-15-2.14698E-13
 -1      1592 2.18759E+01 1.28998E-02-2.95945E-03 1.96363E-01-8.37594E-14-3.78798E-13
 -1      1593 2.17490E+01 2.76925E-02-5.57525E-04 4.11879E-01-1.15651E-13-2.10434E-13
 -1      1594 2.11547E+01 7.68827E-03-4.16286E-03 1.48141E-01-1.66360E-13-3.94255E-14
 -1      1595 2.13851E+01 1.19935E-02-1.93878E-03 1.55423E-01 2.16385E-15-4.98690E-14
 -1      1596 2.13096E+01 2.45204E-02-6.90199E-04 3.30627E-01-1.70028E-13 2.45273E-13
 -1      1597 2.08174E+01 6.29394E-03-3.06782E-03 1.14011E-01 1.67451E-14 3.03433E-13
 -1      1598 2.09960E+01 1.04107E-02-1.16197E-03 1.20336E-01-1.80050E-13 1.97039E-14
 -1      1599 2.09567E+01 2.04569E-02-7.14549E-04 2.58971E-01-2.03956E-13 3.70223E-13
 -1      1600 2.05584E+01 5.03693E-03-2.21295E-03 8.61866E-02-1.97849E-13 2.86124E-13
 -1      1601 2.06943E+01 8.68832E-03-6.20170E-04 9.14640E-02-1.71779E-14 3.10825E-13
 -1      1602 2.06797E+01 1.64708E-02-6.84476E-04 1.98883E-01-6.20077E-14 2.72501E-13
 -1      1603 2.03632E+01 4.00322E-03-1.58472E-03 6.39287E-02 1.27063E-13 3.06994E-13
 -1      1604 2.04647E+01 7.10923E-03-2.66587E-04 6.82472E-02 4.77699E-14 3.31946E-13
 -1      1605 2.04662E+01 1.29971E-02-6.36966E-04 1.49965E-01-2.42816E-14 3.90438E-13
 -1      1606 2.02194E+01 3.22773E-03-1.16719E-03 4.61634E-02 1.27889E-13 1.27448E-14
 -1      1607 2.02935E+01 5.82250E-03-5.84868E-05 4.97110E-02 1.10375E-13 4.79029E-14
 -1      1608 2.03050E+01 1.02082E-02-6.05145E-04 1.10680E-01 2.50774E-13 3.59059E-14
 -1      1609 2.01171E+01 2.71189E-03-9.56663E-04 3.16947E-02 1.34954E-13-2.00717E-13
 -1      1610 2.01691E+01 4.90392E-03 2.47810E-05 3.47175E-02 1.34669E-13-1.29639E-13
 -1      1611 2.01862E+01 8.15742E-03-6.24036E-04 7.89920E-02 2.20267E-13-1.89239E-13
 -1      1612 2.00495E+01 2.43827E-03-9.11050E-04 1.93543E-02 1.04520E-13-2.98038E-13
 -1      1613 2.00829E+01 4.37881E-03-9.71220E-06 2.21353E-02 1.04731E-13-1.59768E-13
 -1      1614 2.01021E+01 6.83105E-03-7.20042E-04 5.27463E-02 1.26560E-13-1.77876E-13
 -1      1615 2.00119E+01 2.32150E-03-6.99107E-04 8.12329E-03 9.84337E-14-5.84687E-13
 -1      1616 2.00288E+01 4.18558E-03-7.00075E-05 1.10279E-02 1.32246E-13-2.83741E-13
 -1      1617 2.00467E+01 6.23251E-03-7.94794E-04 3.00488E-02 1.89402E-13-1.88108E-13
 -1      1618 1.99999E+01 1.65490E-03 8.32555E-04-1.00068E-03-5.98826E-14-6.70179E-13
 -1      1619 2.00020E+01 3.35733E-03 2.22445E-04 1.51449E-03-2.73211E-14-7.38219E-13
 -1      1620 2.00149E+01 5.11310E-03-5.77450E-04 9.97815E-03 9.50148E-14-2.96555E-13
 -1      1621 1.99977E+01-1.23596E-03 1.67658E-03-2.50200E-03-3.85517E-13-4.41722E-13
 -1      1622 2.00038E+01 7.55305E-03-5.26693E-04 5.63051E-03-6.88510E-13-2.00489E-13
 -1      1623 2.00035E+01 3.73434E-03 5.36786E-04 3.28920E-03-5.55813E-13-1.47476E-13
 -1      1624 2.00033E+01 3.87154E-02-5.57456E-04 1.64658E-02-9.08934E-13-2.68981E-13
 -1      1625 2.00038E+01 2.18451E-02-3.84368E-04 1.43178E-02-6.10542E-13-3.72180E-13
 -1      1626 2.00076E+01 2.80621E-02-7.50207E-04 2.05100E-02-2.88709E-13-3.09446E-13
 -1      1627 2.00016E+01 8.69179E-02-3.29118E-04 2.44225E-02-6.65936E-13 2.97781E-13
 -1      1628 2.00026E+01 5.98467E-02-3.75691E-04 2.31301E-02-8.65836E-13 2.87284E-13
 -1      1629 2.00054E+01 6.36804E-02-8.54362E-04 3.90134E-02-3.01617E-13 2.72314E-15
 -1      1630 1.99996E+01 1.43876E-01-1.19294E-04 2.74841E-02-2.26976E-13 3.11292E-13
 -1      1631 2.00007E+01 1.12217E-01-2.00293E-04 2.72829E-02-7.09421E-13 4.28273E-13
 -1      1632 2.00023E+01 1.10515E-01-3.40381E-04 5.03831E-02-2.17734E-13 5.14386E-13
 -1      1633 1.99979E+01 1.98510E-01-6.96746E-06 2.54882E-02-4.30828E-13-3.11150E-15
 -1      1634 1.99988E+01 1.68864E-01-6.68794E-05 2.62594E-02-2.41492E-13-1.53126E-13
 -1      1635 1.99991E+01 1.61092E-01 2.43553E-04 5.21584E-02-3.04900E-13 8.21395E-14
 -1      1636 1.99965E+01 2.43313E-01 5.17518E-05 1.90659E-02-1.35541E-13 7.89859E-14
 -1      1637 1.99973E+01 2.20059E-01 1.26707E-05 2.06425E-02-4.25745E-13 2.30574E-13
 -1      1638 1.99963E+01 2.07732E-01 7.46725E-04 4.47081E-02-1.81098E-13 9.67991E-14
 -1      1639 1.99958E+01 2.69901E-01 7.11519E-05 9.52195E-03 1.66600E-13 1.00176E-13
 -1      1640 1.99962E+01 2.57482E-01 4.81996E-05 1.15861E-02-6.31775E-15 1.34023E-13
 -1      1641 1.99943E+01 2.43413E-01 1.10806E-03 2.96822E-02-1.82009E-13 2.03290E-13
 -1      1642 1.99957E+01 2.74172E-01 6.81208E-05-1.48069E-03 3.82719E-13 1.97703E-13
 -1      1643 1.99957E+01 2.74552E-01 6.21176E-05 7.27618E-04 2.62951E-13 1.85673E-13
 -1      1644 1.99933E+01 2.62181E-01 1.28474E-03 9.90851E-03 1.24680E-13 2.55474E-13
 -1      1645 1.99963E+01 2.55631E-01 4.68364E-05-1.21602E-02 5.11958E-13 2.34356E-13
 -1      1646 1.99959E+01 2.68654E-01 6.02952E-05-1.01578E-02 2.60477E-13 3.22055E-13
 -1      1647 1.99934E+01 2.61265E-01 1.26377E-03-1.13002E-02 2.56394E-13 4.72301E-14
 -1      1648 1.99974E+01 2.17418E-01 4.03612E-06-2.08164E-02 6.37601E-14-3.79004E-13
 -1      1649 1.99967E+01 2.40866E-01 4.47167E-05-1.93418E-02 4.79863E-13-3.44012E-13
 -1      1650 1.99945E+01 2.40944E-01 1.05140E-03-3.05528E-02 1.57029E-13-1.91607E-13
 -1      1651 1.99990E+01 1.66792E-01-5.99390E-05-2.59597E-02-8.13503E-14 1.25704E-13
 -1      1652 1.99980E+01 1.96139E-01-8.38796E-06-2.52714E-02 1.07632E-13-7.01757E-14
 -1      1653 1.99966E+01 2.04812E-01 6.90589E-04-4.46894E-02 2.51158E-13-4.36680E-13
 -1      1654 2.00008E+01 1.10533E-01-1.79005E-04-2.67409E-02 2.58481E-13 3.09093E-13
 -1      1655 1.99997E+01 1.41598E-01-1.11580E-04-2.69819E-02-1.03552E-13 4.45762E-13
 -1      1656 1.99992E+01 1.58270E-01 1.94966E-04-5.14278E-02 2.63460E-13 2.87968E-13
 -1      1657 2.00024E+01 5.91577E-02-3.88760E-04-2.26111E-02 3.39928E-13 1.42268E-13
 -1      1658 2.00015E+01 8.57407E-02-2.92633E-04-2.38409E-02 2.82058E-13 1.28292E-13
 -1      1659 2.00023E+01 1.08037E-01-3.53176E-04-4.93210E-02 3.40297E-13 4.38471E-13
 -1      1660 2.00042E+01 2.23900E-02-1.34547E-04-1.43012E-02 1.26973E-13-1.71378E-13
 -1      1661 2.00029E+01 3.88196E-02-5.42278E-04-1.64272E-02 2.54580E-13-2.76332E-14
 -1      1662 2.00049E+01 6.25412E-02-8.19529E-04-3.81338E-02 1.47278E-13-7.02786E-14
 -1      1663 2.00058E+01 8.71300E-03 5.92143E-04-7.11877E-03-4.96604E-14-2.91812E-14
 -1      1664 2.00058E+01 1.36383E-02-4.79540E-04-1.03393E-02 7.17810E-14-1.67944E-13
 -1      1665 2.00111E+01 3.42149E-02-1.86948E-04-2.60181E-02 6.60337E-14-2.74239E-13
 -1      1666 2.00160E+01 1.74663E-02 5.15838E-04-1.58499E-02-6.80026E-14-8.06643E-14
 -1      1667-4.10250E-01-1.35127E+01-1.48525E+00-7.51624E-01 5.84310E-13-1.06581E-13
 -1      1668-4.62934E-01-1.55627E+01-1.64669E+00 3.12902E-01 8.45768E-13-2.01617E-13
 -1      1669 1.18599E+00-8.06154E+00-1.26338E+00 1.74257E-01 3.58491E-13 5.29854E-14
 -1      1670 5.40440E-01-1.30228E+01-1.71563E+00-3.24413E-01 5.08593E-13 4.88568E-14
 -1      1671 7.06786E+00-7.96446E-01-6.01364E-01 4.42354E+00 1.30118E-13-8.01581E-14
 -1      1672 3.98054E+00-6.15083E+00-1.33887E+00 1.58919E+00 2.93654E-13 2.73115E-14
 -1      1673 1.72202E+01 4.70531E+00 1.60782E-01 9.43340E+00-7.41629E-14-1.09912E-14
 -1      1674 1.07886E+01 1.26137E+00-7.23693E-01 5.72916E+00-5.61773E-14-4.95159E-14
 -1      1675 3.09374E+01 6.16222E+00 8.76332E-01 1.23210E+01-1.55431E-14-1.06581E-14
 -1      1676 2.22467E+01 5.73597E+00 5.73408E-02 1.02695E+01 1.64313E-14 4.44089E-15
 -1      1677 4.51878E+01 4.88001E+00 1.50210E+00 9.94706E+00-2.35645E-14 3.77476E-14
 -1      1678 3.61397E+01 6.14980E+00 7.94165E-01 1.11230E+01-5.37903E-14 2.88658E-14
 -1      1679 5.50355E+01 3.58947E+00 1.97147E+00 4.14645E+00 6.23113E-14 2.55351E-15
 -1      1680 4.96545E+01 4.99778E+00 1.57911E+00 8.99968E+00 6.89032E-15 5.75096E-14
 -1      1681 5.36298E+01 4.07058E+00 1.69579E+00-4.34354E+00 9.02611E-14-2.79776E-14
 -1      1682 5.51646E+01 3.76375E+00 1.87067E+00 1.42629E+00 6.32827E-14 9.10522E-14
 -1      1683 4.40397E+01 5.54357E+00 1.13428E+00-9.54231E+00 2.48315E-13-2.55684E-13
 -1      1684 5.08865E+01 4.10882E+00 1.62892E+00-6.12010E+00 1.72945E-13-3.91909E-14
 -1      1685 3.11094E+01 6.45266E+00 5.39893E-01-1.15717E+01 4.28879E-13-5.04707E-13
 -1      1686 4.03687E+01 5.45848E+00 1.27462E+00-1.15792E+01 2.89657E-13-3.97349E-13
 -1      1687 1.77240E+01 4.56169E+00-2.30351E-01-8.82385E+00 5.92748E-13-5.27134E-13
 -1      1688 2.58801E+01 6.07938E+00 6.51795E-01-1.17555E+01 4.58300E-13-6.55032E-13
 -1      1689 7.85198E+00-1.04411E+00-9.68619E-01-4.10689E+00 6.96554E-13-5.49338E-13
 -1      1690 1.29970E+01 3.22162E+00-1.21493E-01-7.70603E+00 6.72795E-13-6.22169E-13
 -1      1691 2.20983E+00-8.75589E+00-1.56619E+00-4.14670E-01 7.23421E-13-3.61655E-13
 -1      1692 4.34011E+00-3.08603E+00-8.75834E-01-2.63956E+00 7.22089E-13-4.26659E-13
 -1      1693-9.88819E-02-1.52867E+01-1.87652E+00 4.39306E-01 4.88942E-13-1.69587E-13
 -1      1694 1.59185E-01-1.08066E+01-1.48150E+00 7.15160E-01 7.10987E-13-4.10269E-13
 -1      1695-7.00731E-01-1.60411E+01-1.75179E+00-5.48153E-01 6.97220E-14-2.15994E-13
 -1      1696-7.41093E-01-1.56735E+01-1.73694E+00 9.73659E-01 4.21246E-13-2.54297E-13
 -1      1697-1.96808E-01-1.22138E+01-1.51996E+00-7.65256E-01-6.57252E-14-2.05808E-14
 -1      1698-3.04175E-01-1.58877E+01-1.85750E+00-1.95422E-02 3.74145E-14-1.23096E-13
 -1      1699 3.42401E+00-4.68397E+00-8.84540E-01 2.22793E+00-2.50688E-13-4.07230E-13
 -1      1700 1.84654E+00-1.02068E+01-1.49937E+00 6.12828E-01-1.05471E-13-1.57221E-13
 -1      1701 1.06885E+01 2.18081E+00-2.07664E-01 6.73959E+00-4.46310E-13-3.35842E-13
 -1      1702 6.39341E+00-2.59766E+00-1.00266E+00 3.37772E+00-3.57270E-13-3.04756E-13
 -1      1703 2.25167E+01 5.86532E+00 5.17187E-01 1.10906E+01-4.67182E-13-5.75873E-13
 -1      1704 1.51159E+01 3.69828E+00-3.27848E-01 7.87145E+00-3.68261E-13-5.20695E-13
 -1      1705 3.63382E+01 6.15832E+00 1.13099E+00 1.24520E+01-2.72671E-13-3.03535E-13
 -1      1706 2.73402E+01 6.86199E+00 4.22686E-01 1.16914E+01-5.16920E-13-3.95461E-13
 -1      1707 4.86677E+01 4.32823E+00 1.51805E+00 7.30431E+00-5.76067E-14-2.04503E-13
 -1      1708 4.07292E+01 6.06631E+00 1.00559E+00 1.04267E+01-1.29369E-13-2.23599E-13
 -1      1709 5.43677E+01 3.54286E+00 1.78170E+00 9.32921E-02 4.64351E-14-1.61808E-13
 -1      1710 5.20226E+01 4.16489E+00 1.57878E+00 5.58528E+00-2.59792E-14-1.83131E-13
 -1      1711 5.01117E+01 4.63842E+00 1.55813E+00-7.61482E+00-1.12577E-13 9.40359E-14
 -1      1712 5.40532E+01 3.49526E+00 1.79694E+00-2.52337E+00-4.76563E-14-9.38971E-14
 -1      1713 3.86098E+01 6.58694E+00 1.03907E+00-1.21208E+01-2.73032E-13 3.17302E-13
 -1      1714 4.70617E+01 4.85542E+00 1.63856E+00-1.00657E+01-1.83353E-13 2.15827E-13
 -1      1715 2.44161E+01 6.55802E+00 2.80432E-01-1.11523E+01-3.47056E-13 3.42171E-13
 -1      1716 3.34835E+01 6.55212E+00 1.10346E+00-1.27665E+01-2.65565E-13 3.91465E-13
 -1      1717 1.22623E+01 2.72839E+00-5.15820E-01-6.78085E+00-5.33240E-13 3.76144E-13
 -1      1718 1.91929E+01 5.71377E+00 3.80604E-01-1.04176E+01-4.72622E-13 3.63487E-13
 -1      1719 4.73814E+00-5.14140E+00-1.20102E+00-2.25924E+00-4.30544E-13 1.66200E-13
 -1      1720 8.46585E+00 4.51143E-01-3.88336E-01-5.50878E+00-3.89022E-13 3.23519E-13
 -1      1721 5.81975E-01-1.28703E+01-1.75571E+00 2.13181E-01-1.95732E-13 1.74458E-13
 -1      1722 1.41411E+00-7.30913E+00-1.18182E+00-6.02731E-01-4.63518E-13 1.37501E-13
 -1      1723-6.24186E-01-1.67193E+01-1.85964E+00-4.68441E-01 8.93507E-13 3.01315E-13
 -1      1724-6.27609E-01-1.44691E+01-1.69808E+00 9.85163E-01 8.44880E-14 6.15091E-13
 -1      1725 2.41867E+01 7.78446E-01 2.26250E-01 7.35120E+00-2.02061E-13-1.06359E-13
 -1      1726 1.41476E+01-3.34682E+00-4.14387E-01 6.21589E+00 1.33227E-14-2.01394E-13
 -1      1727 2.00025E+01-7.16721E-04 4.63643E-04-1.69211E-03-5.32327E-13-1.90131E-13
 -1      1728 2.00074E+01 1.03970E-02 1.97355E-04 5.40993E-03-2.13365E-13-1.36462E-13
 -1      1729 6.68997E-01-9.66010E+00-1.12684E+00 2.26602E+00 2.41140E-13-1.81410E-13
 -1      1730 5.95794E+00-7.29358E+00-8.95012E-01 4.36074E+00 1.76859E-13-1.37640E-13
 -1      1731-1.17897E+00-1.05993E+01-1.17542E+00 7.00066E-02 2.83523E-13 1.87683E-13
 -1      1732 3.46015E+01 3.66961E+00 8.08408E-01 6.35560E+00-8.76521E-14-6.19504E-14
 -1      1733 4.28435E+01 6.01721E+00 1.25390E+00 3.98079E+00-8.88178E-15-6.82787E-14
 -1      1734 4.74059E+01 7.45222E+00 1.61428E+00 1.29874E+00 5.93969E-14 9.06220E-14
 -1      1735 4.49211E+01 7.29301E+00 1.36427E+00-1.74322E+00 1.65867E-13 3.30291E-14
 -1      1736 3.97618E+01 5.38844E+00 1.11027E+00-4.72565E+00 2.95222E-13-4.80727E-14
 -1      1737 3.12274E+01 2.79515E+00 6.68303E-01-7.08232E+00 2.70117E-13-1.82299E-13
 -1      1738 2.05389E+01-5.61559E-01 1.38699E-02-7.07901E+00 3.47056E-13-2.24487E-13
 -1      1739 1.08642E+01-4.62960E+00-5.91956E-01-5.55110E+00 3.96572E-13-3.56604E-13
 -1      1740 3.47892E+00-8.62504E+00-1.07105E+00-3.39795E+00 3.21188E-13-2.42598E-13
 -1      1741-5.90693E-01-1.08356E+01-1.26230E+00-1.16150E+00 1.57818E-13-2.79388E-13
 -1      1742-9.96933E-01-1.09721E+01-1.26422E+00 9.88944E-01 9.91429E-14-2.45914E-13
 -1      1743 2.50577E+00-8.94042E+00-1.01498E+00 3.50904E+00 1.77636E-14-1.45522E-13
 -1      1744 9.24813E+00-5.43722E+00-6.05656E-01 5.58595E+00-6.98330E-14-3.00232E-13
 -1      1745 1.81296E+01-1.40420E+00-9.86485E-02 6.99396E+00-1.52212E-13-2.97318E-13
 -1      1746 2.80458E+01 2.41774E+00 4.74893E-01 7.54852E+00-3.07865E-13-1.90736E-13
 -1      1747 3.74177E+01 5.13880E+00 9.65657E-01 5.83597E+00-2.38289E-13-2.66454E-14
 -1      1748 4.35995E+01 6.86977E+00 1.20430E+00 2.57315E+00-5.93414E-14-5.41789E-14
 -1      1749 4.66198E+01 7.31869E+00 1.49553E+00-6.02978E-01-1.93179E-14-4.55330E-14
 -1      1750 4.35835E+01 6.66910E+00 1.38532E+00-4.34531E+00-2.80553E-13 1.31062E-13
 -1      1751 3.59975E+01 4.79647E+00 9.76057E-01-7.06550E+00-2.72921E-13 3.19522E-13
 -1      1752 2.56131E+01 1.87756E+00 3.56629E-01-7.70781E+00-3.49387E-13 2.70339E-13
 -1      1753 1.54876E+01-2.45117E+00-2.70958E-01-6.68301E+00-2.58016E-13 2.26597E-13
 -1      1754 6.75610E+00-6.63856E+00-7.47732E-01-4.91331E+00-1.71752E-13 1.23401E-13
 -1      1755 5.94469E-01-1.03226E+01-1.23307E+00-2.35940E+00 2.73226E-13 6.48093E-13
 -1      1756 2.28233E+01 1.98259E+00-2.37605E-02-2.71828E+00-1.08049E-13 7.23088E-13
 -1      1757 1.98264E+01 3.71487E+00-3.54214E-02-2.14513E+00-1.90314E-13-2.22392E-14
 -1      1758 2.00541E+01 3.56261E+00-4.01276E-02-2.43749E+00-2.08993E-13 5.04041E-14
 -1      1759 2.03536E+01 3.18029E+00-4.56751E-02-2.57827E+00-1.96943E-13 1.40096E-13
 -1      1760 2.05668E+01 2.80772E+00-1.42328E-01-2.84679E+00-1.97974E-13 2.46254E-13
 -1      1761 2.04176E+01 2.69343E+00-4.16790E-03-2.21630E+00-2.11823E-13 1.00277E-13
 -1      1762 1.93681E+01 4.19670E+00-2.00845E-02-1.26279E+00-1.42777E-13-1.62608E-13
 -1      1763 1.94401E+01 4.15585E+00-1.67985E-02-1.48675E+00-1.60594E-13-1.32866E-13
 -1      1764 1.92738E+01 4.30566E+00-1.67769E-02-8.53483E-01-1.20290E-13-1.99443E-13
 -1      1765 1.93156E+01 4.28069E+00-1.41525E-02-1.06334E+00-1.28053E-13-1.83895E-13
 -1      1766 1.95403E+01 3.79482E+00-8.82563E-03-1.11067E+00-1.48611E-13-1.67427E-13
 -1      1767 1.92235E+01 4.36824E+00-1.48002E-02-4.63119E-01-8.46839E-14-2.13201E-13
 -1      1768 1.92450E+01 4.35474E+00-1.32348E-02-6.62182E-01-1.05008E-13-2.02366E-13
 -1      1769 1.94446E+01 3.91840E+00-8.99285E-03-7.26629E-01-1.13994E-13-1.94365E-13
 -1      1770 1.92047E+01 4.39487E+00-1.36488E-02-8.29411E-02-4.73111E-14-2.28127E-13
 -1      1771 1.92109E+01 4.39073E+00-1.31697E-02-2.76969E-01-6.53759E-14-2.24452E-13
 -1      1772 1.93952E+01 3.98505E+00-8.96100E-03-3.54868E-01-7.95122E-14-2.04108E-13
 -1      1773 1.92127E+01 4.38931E+00-1.31246E-02 2.95730E-01-2.21172E-14-2.53889E-13
 -1      1774 1.92052E+01 4.39401E+00-1.37371E-02 1.01529E-01-3.28294E-14-2.38795E-13
 -1      1775 1.93807E+01 4.00521E+00-8.94794E-03 1.03776E-02-4.17561E-14-2.23582E-13
 -1      1776 1.92493E+01 4.35060E+00-1.32608E-02 6.81726E-01 2.38969E-15-2.81320E-13
 -1      1777 1.92265E+01 4.36495E+00-1.49288E-02 4.82127E-01-9.03119E-15-2.69878E-13
 -1      1778 1.93981E+01 3.98164E+00-9.00249E-03 3.75844E-01-2.03681E-14-2.52885E-13
 -1      1779 1.93212E+01 4.27463E+00-1.43260E-02 1.07740E+00 3.78354E-14-2.77684E-13
 -1      1780 1.92788E+01 4.30011E+00-1.70067E-02 8.70275E-01 1.64595E-14-2.83041E-13
 -1      1781 1.94503E+01 3.91185E+00-9.03017E-03 7.44975E-01 1.25634E-14-2.73214E-13
 -1      1782 1.94494E+01 4.14410E+00-1.73112E-02 1.50638E+00 8.37793E-14-2.42334E-13
 -1      1783 1.93749E+01 4.18797E+00-2.05381E-02 1.27727E+00 5.66034E-14-2.55084E-13
 -1      1784 1.95482E+01 3.78450E+00-9.12189E-03 1.12666E+00 5.37811E-14-2.51403E-13
 -1      1785 1.96726E+01 3.92402E+00-2.50998E-02 1.97141E+00 1.28470E-13-2.26725E-13
 -1      1786 1.95431E+01 4.00219E+00-2.69138E-02 1.71412E+00 1.03011E-13-2.35669E-13
 -1      1787 1.97179E+01 3.57336E+00-8.62370E-03 1.52553E+00 1.04382E-13-2.24643E-13
 -1      1788 2.00718E+01 3.52257E+00-4.50738E-02 2.46456E+00 1.70135E-13-1.51407E-13
 -1      1789 1.98369E+01 3.68435E+00-3.96651E-02 2.17525E+00 1.41058E-13-2.00669E-13
 -1      1790 2.00077E+01 3.22632E+00-5.24585E-03 1.92521E+00 1.46079E-13-1.94834E-13
 -1      1791 2.09036E+01 2.67998E+00-5.75167E-02 2.85150E+00 1.97811E-13 8.47933E-15
 -1      1792 2.04035E+01 3.09578E+00-5.02955E-02 2.60940E+00 1.81195E-13-8.82003E-14
 -1      1793 2.05106E+01 2.61039E+00 3.18599E-03 2.23665E+00 1.88612E-13-1.07338E-13
 -1      1794 2.17026E+01 1.21211E+00-1.21906E-01 2.32540E+00 1.92346E-13 2.17146E-13
 -1      1795 2.12524E+01 2.26113E+00 1.29115E-04 2.73501E+00 1.94952E-13 8.43076E-14
 -1      1796 2.09202E+01 1.68455E+00-2.28590E-02 2.13412E+00 1.99809E-13 1.91305E-14
 -1      1797 2.09258E+01 7.78332E-01-6.23330E-02 1.52025E+00 1.88620E-13 1.61239E-13
 -1      1798 2.17707E+01 2.45571E+00 9.08466E-02-3.04282E+00-1.54520E-13 4.16167E-13
 -1      1799 2.00795E+01 2.98575E-01-8.81226E-03 6.52605E-01 1.34139E-13 8.93417E-14
 -1      1800 2.06292E+01 4.40711E-01-1.23757E-02 1.02983E+00 1.45502E-13 1.32953E-13
 -1      1801 2.07250E+01 8.45189E-01 2.20955E-03 1.40974E+00 1.73250E-13 5.72303E-14
 -1      1802 2.14857E+01 1.74137E+00 7.93587E-02-2.33138E+00-1.77670E-13 3.40325E-13
 -1      1803 2.05030E+01 5.01639E-01 3.24687E-02-9.15532E-01-1.45391E-13 2.97092E-13
 -1      1804 2.00743E+01 3.53842E-01 7.77927E-03-6.22868E-01-1.31849E-13 2.50282E-13
 -1      1805 1.98832E+01 2.59784E-01 2.75174E-02-3.82499E-01-1.29088E-13 2.37713E-13
 -1      1806 1.96966E+01 1.81201E-01 1.07145E-02-2.43003E-01-1.08133E-13 1.96370E-13
 -1      1807 2.01916E+01 4.86508E-01-6.12345E-03-7.11849E-01-1.49453E-13 1.60902E-13
 -1      1808 1.95794E+01 1.36608E-01 1.67981E-02-1.06632E-01-8.05883E-14 1.82482E-13
 -1      1809 1.95077E+01 9.80616E-02 7.37965E-03-3.31675E-02-5.67007E-14 1.64169E-13
 -1      1810 1.98740E+01 2.49184E-01-5.96133E-03-2.79380E-01-1.24275E-13 1.34529E-13
 -1      1811 1.94496E+01 7.44387E-02 8.88859E-03 4.48481E-02-3.28440E-14 1.53719E-13
 -1      1812 1.94446E+01 5.41207E-02 4.68444E-03 8.50513E-02-2.62134E-14 1.47447E-13
 -1      1813 1.97028E+01 1.33478E-01-4.94812E-03-3.42936E-02-5.90524E-14 1.05712E-13
 -1      1814 1.94283E+01 4.10350E-02 4.53122E-03 1.30192E-01-4.66014E-14 1.36052E-13
 -1      1815 1.94620E+01 3.02955E-02 3.22244E-03 1.52638E-01-3.85104E-14 1.43171E-13
 -1      1816 1.96328E+01 7.29893E-02-3.84492E-03 1.07691E-01-5.06798E-14 8.59164E-14
 -1      1817 1.94739E+01 2.32205E-02 2.24364E-03 1.79368E-01-5.14916E-14 1.23319E-13
 -1      1818 1.95309E+01 1.81670E-02 2.49792E-03 1.92527E-01-5.08166E-14 9.88363E-14
 -1      1819 1.96320E+01 4.07501E-02-2.83391E-03 1.91285E-01-6.62971E-14 6.78807E-14
 -1      1820 1.95620E+01 1.48757E-02 1.04814E-03 2.09676E-01-5.71500E-14 1.15735E-13
 -1      1821 1.96340E+01 1.34746E-02 2.18992E-03 2.18708E-01-5.95101E-14 1.03284E-13
 -1      1822 1.96779E+01 2.49987E-02-2.07027E-03 2.42784E-01-5.42286E-14 5.47188E-14
 -1      1823 1.96791E+01 1.27219E-02 4.41364E-04 2.31973E-01-6.82229E-14 9.29133E-14
 -1      1824 1.97623E+01 1.37842E-02 2.14039E-03 2.40269E-01-2.07809E-14 7.60532E-14
 -1      1825 1.97565E+01 1.96925E-02-1.58234E-03 2.78600E-01-6.91204E-14 7.06889E-14
 -1      1826 1.98185E+01 1.47628E-02 1.73721E-04 2.53479E-01-4.46766E-14 9.07943E-15
 -1      1827 1.99120E+01 1.74749E-02 2.25824E-03 2.63320E-01-5.43830E-14-2.73222E-14
 -1      1828 1.98598E+01 2.13557E-02-1.32501E-03 3.09537E-01-9.11126E-14-1.39054E-14
 -1      1829 1.99785E+01 1.95542E-02 1.06595E-04 2.79014E-01-2.19734E-14-7.48650E-14
 -1      1830 2.00831E+01 2.32282E-02 2.46557E-03 2.91841E-01-7.59234E-15-8.48008E-14
 -1      1831 1.99843E+01 2.76189E-02-1.23741E-03 3.42833E-01-7.97298E-14-7.16657E-14
 -1      1832 2.01600E+01 2.57966E-02 1.49105E-04 3.11481E-01-1.12823E-14-6.30503E-14
 -1      1833 2.02776E+01 2.96961E-02 2.67228E-03 3.27934E-01-2.42111E-14-7.10739E-14
 -1      1834 2.01293E+01 3.64753E-02-1.26320E-03 3.83050E-01-1.16552E-14-1.35693E-13
 -1      1835 2.03659E+01 3.20316E-02 2.32548E-04 3.51868E-01 2.92431E-15-3.09606E-14
 -1      1836 2.04985E+01 3.52117E-02 2.75968E-03 3.71650E-01 1.29547E-14 4.17867E-14
 -1      1837 2.02962E+01 4.57805E-02-1.35254E-03 4.32284E-01 1.86450E-14-7.11419E-14
 -1      1838 2.05994E+01 3.63519E-02 2.99816E-04 3.98872E-01-2.28939E-14 7.11204E-14
 -1      1839 2.07480E+01 3.74966E-02 2.56782E-03 4.20442E-01-4.18838E-14 1.04089E-13
 -1      1840 2.04872E+01 5.28103E-02-1.45940E-03 4.89877E-01 1.99502E-14 7.20048E-14
 -1      1841 2.08624E+01 3.61101E-02 3.02200E-04 4.48145E-01-3.22140E-14 9.35400E-14
 -1      1842 2.10262E+01 3.33824E-02 1.88984E-03 4.68255E-01-4.49944E-16 1.11114E-13
 -1      1843 2.07042E+01 5.38229E-02-1.53857E-03 5.51683E-01-3.09898E-14 6.08120E-14
 -1      1844 2.11544E+01 2.76748E-02 2.01278E-04 4.91212E-01-4.49356E-14 1.06050E-13
 -1      1845 2.13291E+01 1.86557E-02 4.84807E-04 5.04333E-01-2.92942E-14 8.25929E-14
 -1      1846 2.09483E+01 4.36837E-02-1.54216E-03 6.08919E-01-8.21630E-15 1.16381E-13
 -1      1847 2.14696E+01 6.41176E-03-2.59704E-05 5.14240E-01-3.54136E-15 6.21058E-14
 -1      1848 2.16457E+01-1.16960E-02-1.87006E-03 5.12082E-01 4.60957E-14 5.58100E-14
 -1      1849 2.12177E+01 1.57777E-02-1.41200E-03 6.46790E-01-3.92205E-14 1.19706E-13
 -1      1850 2.17948E+01-3.27256E-02-3.85968E-04 4.97174E-01 1.42459E-14-4.37953E-15
 -1      1851 2.19561E+01-6.22975E-02-5.25952E-03 4.68752E-01-5.71314E-14-1.06976E-14
 -1      1852 2.15068E+01-3.72759E-02-1.06224E-03 6.43349E-01-2.19796E-14 2.91969E-14
 -1      1853 2.21065E+01-9.33175E-02-8.84264E-04 4.14419E-01-8.49208E-14-1.81203E-14
 -1      1854 2.22291E+01-1.34447E-01-9.41384E-03 3.47532E-01-1.58892E-14-2.18124E-14
 -1      1855 2.18040E+01-1.21191E-01-3.49156E-04 5.69699E-01-7.31823E-14-8.99776E-14
 -1      1856 2.23680E+01-1.73451E-01-1.56219E-03 2.39204E-01 3.26835E-14-9.47354E-14
 -1      1857 2.24220E+01-2.20744E-01-1.34182E-02 1.24570E-01 4.23316E-14-9.70533E-14
 -1      1858 2.20888E+01-2.34675E-01 9.65450E-04 3.93597E-01-1.06774E-14-1.25026E-13
 -1      1859 2.25291E+01-2.59305E-01-2.55728E-03-4.54223E-02 4.90597E-14-1.56446E-13
 -1      1860 2.24842E+01-2.98138E-01-1.55331E-02-2.06332E-01 2.27630E-14-8.78243E-14
 -1      1861 2.23287E+01-3.60644E-01 3.18375E-03 8.96562E-02 1.97099E-14-1.46852E-13
 -1      1862 2.25309E+01-3.18727E-01-4.05762E-03-4.27028E-01 1.51667E-14-1.92240E-14
 -1      1863 2.23676E+01-3.24205E-01-1.34420E-02-6.11535E-01 8.53996E-14-1.45578E-14
 -1      1864 2.24768E+01-4.56925E-01 6.35991E-03-3.40774E-01 9.55650E-14-1.22732E-13
 -1      1865 2.23225E+01-3.02054E-01-5.83924E-03-8.39688E-01 5.12299E-14 6.31500E-14
 -1      1866 2.20478E+01-2.46856E-01-5.59463E-03-9.96538E-01-1.43683E-14 5.47192E-14
 -1      1867 2.24763E+01-4.55820E-01 9.73772E-03-8.41491E-01 1.19110E-13 3.58999E-14
 -1      1868 2.18939E+01-1.62527E-01-7.03686E-03-1.15175E+00-1.03650E-16 1.00372E-13
 -1      1869 2.15547E+01-3.80413E-02 6.35097E-03-1.20877E+00 2.88564E-14 9.22231E-14
 -1      1870 2.22807E+01-2.87780E-01 1.09646E-02-1.27850E+00 4.96799E-14 5.49526E-14
 -1      1871 2.13198E+01 9.94887E-02-5.34914E-03-1.19659E+00 3.17767E-14 9.97735E-14
 -1      1872 2.10012E+01 2.58539E-01 1.67702E-02-1.09399E+00-1.48215E-14 9.57472E-14
 -1      1873 2.18986E+01 5.94939E-02 6.10655E-03-1.45441E+00 2.98266E-14-7.91728E-15
 -1      1874 2.07747E+01 3.96388E-01 1.37719E-03-8.64822E-01-8.39051E-14 6.25385E-14
 -1      1875 2.05748E+01 5.14455E-01 1.93563E-02-6.04150E-01-1.05508E-13 7.14533E-15
 -1      1876 2.14428E+01 4.85811E-01-4.94447E-03-1.19728E+00-3.30552E-14-7.63005E-14
 -1      1877 2.04723E+01 5.78028E-01 1.16437E-02-2.12033E-01-3.55584E-14 6.15259E-14
 -1      1878 2.04601E+01 5.85448E-01 1.28809E-02 1.21089E-01 2.02061E-14 8.09977E-14
 -1      1879 2.11158E+01 7.95122E-01-1.51376E-02-5.01899E-01-3.24992E-14 2.58254E-14
 -1      1880 2.05419E+01 5.34604E-01 1.91992E-02 5.23394E-01 8.50431E-14 1.05143E-13
 -1      1881 2.07215E+01 4.27459E-01 2.84380E-03 7.98617E-01 1.87953E-13 9.38164E-14
 -1      1882 2.10949E+01 8.14064E-01-1.59198E-02 3.96649E-01 6.94054E-14 1.16322E-13
 -1      1883 2.09385E+01 2.95745E-01 1.80049E-02 1.05314E+00 2.01934E-13 3.48705E-14
 -1      1884 2.12479E+01 1.37776E-01-4.33526E-03 1.17733E+00 3.43996E-15 3.04062E-14
 -1      1885 2.13917E+01 5.33923E-01-6.14235E-03 1.13306E+00 9.89942E-14 5.43112E-14
 -1      1886 2.14885E+01-3.17365E-03 8.15376E-03 1.21603E+00-1.46144E-13 2.03960E-14
 -1      1887 2.18313E+01-1.34711E-01-6.82291E-03 1.17694E+00-1.13197E-13 4.46266E-14
 -1      1888 2.18446E+01 1.13539E-01 5.85521E-03 1.44979E+00 3.61411E-14-9.37080E-14
 -1      1889 2.19992E+01-2.27246E-01-4.39286E-03 1.03822E+00-7.29286E-14 1.50843E-13
 -1      1890 2.22864E+01-2.91218E-01-6.28475E-03 8.90120E-01-1.25594E-13 1.57441E-13
 -1      1891 2.22463E+01-2.52321E-01 1.05447E-02 1.32184E+00-2.33535E-14-1.39905E-13
 -1      1892 2.23460E+01-3.20117E-01-1.29918E-02 6.66779E-01-2.44796E-13 2.25955E-13
 -1      1893 2.25260E+01-3.20446E-01-4.32728E-03 4.83131E-01-1.70318E-13 2.63405E-13
 -1      1894 2.24695E+01-4.43746E-01 9.53256E-03 9.07280E-01-7.93172E-14 1.43131E-13
 -1      1895 2.24908E+01-3.03383E-01-1.55615E-02 2.59699E-01-1.42180E-13 3.14941E-13
 -1      1896 2.25525E+01-2.66716E-01-2.56476E-03 9.53202E-02-2.28368E-14 3.42409E-13
 -1      1897 2.24954E+01-4.61132E-01 6.55977E-03 4.07941E-01-1.60795E-13 4.06102E-13
 -1      1898 2.24538E+01-2.28874E-01-1.37473E-02-8.01675E-02 1.19332E-14 2.61624E-13
 -1      1899 2.24145E+01-1.81172E-01-1.44441E-03-1.99252E-01 4.86221E-14 2.96355E-13
 -1      1900 2.23669E+01-3.71736E-01 3.39961E-03-3.20267E-02-8.77423E-14 3.13963E-13
 -1      1901 2.22819E+01-1.41240E-01-9.83467E-03-3.12528E-01 1.57845E-13 2.72547E-13
 -1      1902 2.21718E+01-9.84231E-02-6.77307E-04-3.82784E-01 1.61676E-13 2.30095E-13
 -1      1903 2.21419E+01-2.45325E-01 1.07104E-03-3.47524E-01 9.98516E-14 3.28798E-13
 -1      1904 2.20270E+01-6.58081E-02-5.61906E-03-4.39914E-01 1.71386E-14 2.83135E-13
 -1      1905 2.18767E+01-3.41701E-02-9.54739E-05-4.69731E-01-5.38029E-14 2.60800E-13
 -1      1906 2.18694E+01-1.27650E-01-3.67490E-04-5.32023E-01 4.55749E-14 2.61991E-13
 -1      1907 2.17335E+01-1.14565E-02-2.09578E-03-4.84789E-01 8.71429E-14 2.10699E-13
 -1      1908 2.15684E+01 8.63762E-03 3.61422E-04-4.86200E-01 1.69476E-13 2.99759E-13
 -1      1909 2.15841E+01-3.82722E-02-1.17262E-03-6.08719E-01 2.01648E-14 3.61460E-13
 -1      1910 2.14350E+01 2.23966E-02 4.02895E-04-4.73892E-01 7.77432E-14 1.60456E-13
 -1      1911 2.12728E+01 3.31634E-02 6.95268E-04-4.58055E-01 7.15740E-14 1.30419E-13
 -1      1912 2.13081E+01 2.01408E-02-1.58598E-03-6.09469E-01 3.78211E-14 2.02317E-13
 -1      1913 2.11534E+01 4.01506E-02 1.92635E-03-4.30460E-01 3.83844E-14 1.15684E-13
 -1      1914 2.10049E+01 4.43801E-02 9.07047E-04-4.05937E-01-1.32218E-13 2.04060E-13
 -1      1915 2.10549E+01 5.27826E-02-1.76149E-03-5.63643E-01 6.38850E-15-5.75907E-15
 -1      1916 2.09016E+01 4.68202E-02 2.68385E-03-3.71717E-01-3.04669E-13 2.52072E-13
 -1      1917 2.07723E+01 4.69676E-02 1.01243E-03-3.44303E-01-2.01728E-13 2.80815E-13
 -1      1918 2.08311E+01 6.69553E-02-1.78577E-03-4.93936E-01-1.58158E-13 2.82465E-13
 -1      1919 2.06852E+01 4.66707E-02 2.91124E-03-3.09030E-01-8.10827E-14 1.86396E-13
 -1      1920 2.05768E+01 4.45932E-02 1.03882E-03-2.82222E-01 1.38895E-13 1.99606E-13
 -1      1921 2.06394E+01 6.93356E-02-1.71130E-03-4.15931E-01-1.13435E-13 3.74014E-13
 -1      1922 2.05051E+01 4.28791E-02 2.81048E-03-2.49075E-01 2.96093E-13 1.29261E-13
 -1      1923 2.04170E+01 3.98684E-02 1.01803E-03-2.24677E-01 1.54202E-13 1.78773E-13
 -1      1924 2.04794E+01 6.50892E-02-1.57429E-03-3.39231E-01 1.33373E-13 1.79156E-13
 -1      1925 2.03592E+01 3.76403E-02 2.53072E-03-1.95128E-01-1.89044E-14 2.55804E-13
 -1      1926 2.02899E+01 3.45474E-02 9.77076E-04-1.73777E-01 1.29575E-13 3.65832E-13
 -1      1927 2.03489E+01 5.78683E-02-1.40167E-03-2.68959E-01 1.16540E-13 2.68560E-13
 -1      1928 2.02443E+01 3.23961E-02 2.16755E-03-1.48158E-01 1.09141E-13 2.47970E-13
 -1      1929 2.01914E+01 2.97541E-02 9.28734E-04-1.29737E-01 1.68444E-13 1.92211E-13
 -1      1930 2.02448E+01 5.01063E-02-1.21460E-03-2.07118E-01 4.43624E-14 4.07709E-13
 -1      1931 2.01561E+01 2.80416E-02 1.76870E-03-1.07686E-01-4.85899E-14 9.82048E-15
 -1      1932 2.01175E+01 2.61537E-02 8.78439E-04-9.16426E-02-1.07265E-13-1.67383E-13
 -1      1933 2.01636E+01 4.33417E-02-1.02048E-03-1.53702E-01-7.83775E-14-3.74071E-14
 -1      1934 2.00908E+01 2.49024E-02 1.32462E-03-7.24183E-02 4.96491E-14-3.45105E-13
 -1      1935 2.00645E+01 2.36368E-02 7.94147E-04-5.81402E-02-5.06405E-14-2.49434E-13
 -1      1936 2.01017E+01 3.84266E-02-7.85403E-04-1.07606E-01-1.64731E-13-2.99618E-13
 -1      1937 2.00464E+01 2.21408E-02 9.98971E-04-4.21534E-02 5.18416E-14-1.96583E-13
 -1      1938 2.00300E+01 2.04919E-02 7.54766E-04-2.99765E-02 9.84898E-14-6.87747E-14
 -1      1939 2.00272E+01 2.69679E-02-5.86959E-04-3.61918E-02 1.97856E-14-1.97557E-13
 -1      1940 2.00572E+01 3.34995E-02-9.02536E-04-6.84357E-02 2.42511E-14-3.32294E-13
 -1      1941 1.96030E+01 1.43544E-01 8.00851E-03 2.52940E-01 1.20430E-13 1.20078E-14
 -1      1942 1.98719E+01 2.05253E-01 1.65368E-02 4.26814E-01 1.18544E-13 6.58987E-14
 -1      1943 2.00879E+01 3.51924E-01-1.60237E-03 6.47842E-01 1.39319E-13 1.51944E-14
 -1      1944 1.93700E+01 7.45074E-02 7.13055E-03 4.61665E-02 1.04386E-13-3.64118E-14
 -1      1945 1.94802E+01 1.03964E-01 1.43521E-02 1.36348E-01 9.74689E-14-4.69850E-15
 -1      1946 1.97029E+01 1.67923E-01-2.06377E-03 2.45414E-01 1.20769E-13-3.00853E-14
 -1      1947 1.92936E+01 4.01293E-02 4.69922E-03-6.53184E-02-7.06900E-15-9.28944E-15
 -1      1948 1.93165E+01 5.54113E-02 8.57125E-03-1.54400E-02 3.54040E-14-2.78839E-14
 -1      1949 1.95139E+01 8.51430E-02-2.99332E-03 2.72898E-02 5.40956E-14-3.91354E-14
 -1      1950 1.93128E+01 2.20175E-02 3.25090E-03-1.26721E-01-2.98444E-14-3.41656E-14
 -1      1951 1.92866E+01 3.01980E-02 4.68712E-03-9.80966E-02-1.36857E-14-8.15862E-15
 -1      1952 1.94516E+01 4.41710E-02-3.07625E-03-9.38852E-02-2.50949E-14-4.95897E-14
 -1      1953 1.93908E+01 1.27623E-02 2.53584E-03-1.61482E-01 2.94548E-14-4.08366E-14
 -1      1954 1.93362E+01 1.69320E-02 2.61025E-03-1.44301E-01-8.61420E-15-2.70901E-14
 -1      1955 1.94692E+01 2.32516E-02-2.63394E-03-1.62797E-01-1.58543E-15-8.89878E-14
 -1      1956 1.95064E+01 9.03192E-03 2.20246E-03-1.83198E-01 3.83481E-14-2.98839E-14
 -1      1957 1.94342E+01 1.06923E-02 1.57114E-03-1.71672E-01 4.39345E-14-1.25187E-14
 -1      1958 1.95383E+01 1.34324E-02-2.12659E-03-2.03975E-01 3.63795E-14-8.62851E-14
 -1      1959 1.96488E+01 9.15002E-03 2.09008E-03-2.00724E-01 4.89348E-14-8.95726E-14
 -1      1960 1.95643E+01 9.12240E-03 1.09393E-03-1.90994E-01 5.26598E-14-5.43296E-14
 -1      1961 1.96423E+01 1.06397E-02-1.74805E-03-2.32333E-01 7.72359E-14-4.87929E-14
 -1      1962 1.98146E+01 1.21949E-02 2.14463E-03-2.20392E-01 2.80657E-14-6.33339E-14
 -1      1963 1.97190E+01 1.09679E-02 9.46971E-04-2.09616E-01 4.13434E-14-7.05622E-14
 -1      1964 1.97729E+01 1.28099E-02-1.53536E-03-2.57893E-01 4.38764E-14-2.55833E-14
 -1      1965 2.00052E+01 1.76162E-02 2.34590E-03-2.47086E-01 1.04646E-13-6.23600E-14
 -1      1966 1.98969E+01 1.55075E-02 1.01619E-03-2.32997E-01 7.05727E-14-6.43516E-14
 -1      1967 1.99275E+01 1.87988E-02-1.47441E-03-2.87970E-01 6.26456E-14-4.66118E-14
 -1      1968 2.02261E+01 2.50242E-02 2.67604E-03-2.84748E-01 8.01406E-14-1.64155E-13
 -1      1969 2.01016E+01 2.22774E-02 1.23312E-03-2.65438E-01 8.44974E-14-1.05335E-13
 -1      1970 2.01080E+01 2.78956E-02-1.54438E-03-3.28241E-01 1.14410E-13-1.37747E-13
 -1      1971 2.04854E+01 3.40067E-02 3.10155E-03-3.36536E-01 1.06928E-13-2.35348E-13
 -1      1972 2.03395E+01 3.08790E-02 1.54228E-03-3.10397E-01 9.06519E-14-1.89270E-13
 -1      1973 2.03192E+01 3.95218E-02-1.72874E-03-3.83209E-01 1.16886E-13-1.85867E-13
 -1      1974 2.07935E+01 4.38881E-02 3.55282E-03-4.04604E-01 6.03797E-14-2.76535E-13
 -1      1975 2.06199E+01 4.07645E-02 1.88204E-03-3.70437E-01 4.76394E-14-2.38378E-13
 -1      1976 2.05682E+01 5.29288E-02-2.01618E-03-4.56215E-01 7.84726E-14-2.24844E-13
 -1      1977 2.11609E+01 5.33540E-02 3.89498E-03-4.89369E-01 2.85893E-14-2.18035E-13
 -1      1978 2.09534E+01 5.09215E-02 2.16777E-03-4.46744E-01 2.86832E-14-2.61989E-13
 -1      1979 2.08633E+01 6.67712E-02-2.39968E-03-5.48929E-01 4.63176E-14-2.07303E-13
 -1      1980 2.15971E+01 5.98502E-02 3.89115E-03-5.87984E-01-4.64689E-16-2.00049E-13
 -1      1981 2.13502E+01 5.93689E-02 2.27537E-03-5.38003E-01 2.27212E-14-1.86082E-13
 -1      1982 2.12131E+01 7.84331E-02-2.87361E-03-6.60091E-01 2.30417E-14-1.46472E-13
 -1      1983 2.21066E+01 5.86994E-02 3.17399E-03-6.91611E-01 5.39080E-14-2.92494E-13
 -1      1984 2.18184E+01 6.23807E-02 2.03153E-03-6.38290E-01 3.03353E-14-2.34093E-13
 -1      1985 2.16241E+01 8.29957E-02-3.42380E-03-7.83152E-01 7.45797E-14-9.00305E-14
 -1      1986 2.26841E+01 4.20550E-02 1.27139E-03-7.81133E-01 5.54157E-14-3.34641E-13
 -1      1987 2.23597E+01 5.34528E-02 1.22818E-03-7.33635E-01 7.87135E-14-3.21777E-13
 -1      1988 2.20990E+01 7.18594E-02-3.99794E-03-9.02387E-01 9.20247E-14-2.35045E-13
 -1      1989 2.33071E+01-1.60584E-03-2.22492E-03-8.21531E-01-1.95990E-13-2.57304E-13
 -1      1990 2.29640E+01 2.23939E-02-3.09147E-04-7.97163E-01-8.69198E-14-2.86959E-13
 -1      1991 2.26326E+01 3.15155E-02-4.43455E-03-9.87384E-01-7.20429E-14-2.22585E-13
 -1      1992 2.39274E+01-8.53861E-02-7.19321E-03-7.57107E-01-1.96169E-13-1.48750E-13
 -1      1993 2.36009E+01-4.41161E-02-2.59100E-03-7.84009E-01-2.09735E-13-2.48390E-13
 -1      1994 2.32072E+01-5.57555E-02-4.33175E-03-9.87070E-01-1.96010E-13-1.65542E-13
 -1      1995 2.44622E+01-2.14906E-01-1.22323E-02-5.14584E-01 3.36519E-14-1.46304E-13
 -1      1996 2.42104E+01-1.57026E-01-5.21452E-03-6.30364E-01-7.86107E-14-1.19455E-13
 -1      1997 2.37859E+01-2.04988E-01-2.84064E-03-8.27724E-01-1.12080E-13-1.63479E-13
 -1      1998 2.47921E+01-3.68830E-01-1.45322E-02-2.93324E-02 2.43406E-13-1.60050E-13
 -1      1999 2.46915E+01-3.09713E-01-7.64573E-03-2.67624E-01 1.67297E-13-1.18476E-13
 -1      2000 2.43024E+01-4.08136E-01 1.29272E-03-4.26451E-01 1.21321E-13-1.48525E-13
 -1      2001 2.47795E+01-4.72197E-01-1.01284E-02 6.92594E-01 4.28858E-14-1.69737E-13
 -1      2002 2.49043E+01-4.53393E-01-9.28816E-03 3.33942E-01 1.36609E-13-1.53993E-13
 -1      2003 2.46536E+01-6.04231E-01 8.10556E-03 2.61944E-01 1.28798E-13-6.38250E-14
 -1      2004 2.43092E+01-3.88505E-01-2.76131E-04 1.46734E+00-1.37523E-13-2.18894E-13
 -1      2005 2.46932E+01-4.70340E-01-1.05551E-02 1.08296E+00-7.99760E-14-1.78382E-13
 -1      2006 2.47000E+01-6.41473E-01 1.55329E-02 1.15605E+00-7.78544E-15-3.08720E-14
 -1      2007 2.34107E+01-2.23181E-02 5.00804E-03 1.88556E+00-1.10307E-13-1.81986E-13
 -1      2008 2.39903E+01-2.24059E-01-1.09948E-02 1.67993E+00-1.52971E-13-2.62741E-13
 -1      2009 2.43230E+01-3.42554E-01 1.46185E-02 1.93059E+00-1.36429E-13-9.01466E-14
 -1      2010 2.23895E+01 5.05898E-01-8.21230E-03 1.50589E+00-2.25722E-14-2.42840E-13
 -1      2011 2.29716E+01 2.80640E-01-1.02786E-02 1.68881E+00 2.43555E-15-2.11421E-13
 -1      2012 2.35863E+01 3.03701E-01-4.11525E-03 2.06263E+00-5.08621E-15-2.24718E-13
 -1      2013 2.18002E+01 8.39573E-01-2.93743E-02 3.20216E-01 1.48284E-14-6.99128E-14
 -1      2014 2.21196E+01 7.55501E-01-4.32747E-03 8.77541E-01-4.49571E-14-1.68166E-13
 -1      2015 2.28764E+01 9.68483E-01-2.90201E-02 1.19757E+00-5.23158E-14-1.70506E-13
 -1      2016 2.20709E+01 6.81399E-01-3.24018E-02-1.06451E+00-8.59538E-14-2.17222E-14
 -1      2017 2.19363E+01 8.30685E-01 7.47286E-03-4.38280E-01-1.90126E-14-5.19272E-14
 -1      2018 2.26945E+01 1.17111E+00-2.93286E-02-3.63004E-01-1.76005E-14-1.90976E-14
 -1      2019 2.30368E+01 1.76016E-01-1.57295E-02-1.83673E+00-8.05215E-14-1.87628E-14
 -1      2020 2.25118E+01 4.30072E-01 7.57991E-03-1.49666E+00-8.14557E-14 7.25461E-15
 -1      2021 2.31899E+01 7.22740E-01-9.85110E-03-1.70608E+00-6.11212E-14 1.24595E-13
 -1      2022 2.41097E+01-2.75784E-01 7.35272E-03-1.72533E+00-8.32728E-14-3.05797E-14
 -1      2023 2.34626E+01-9.93028E-02-3.11913E-03-1.76730E+00-6.68849E-14-8.99142E-14
 -1      2024 2.39720E+01-7.09626E-03 4.09168E-03-2.11976E+00-2.60668E-14 9.94985E-14
 -1      2025 2.48014E+01-4.57055E-01 1.89905E-02-1.04748E+00-1.18951E-13 4.00183E-14
 -1      2026 2.43014E+01-4.19045E-01-1.28583E-02-1.32651E+00-1.06326E-13 3.65957E-14
 -1      2027 2.45542E+01-5.30584E-01 4.17805E-03-1.63735E+00-1.28886E-13 1.31754E-13
 -1      2028 2.49698E+01-4.09554E-01 1.69841E-02-2.66433E-01 1.71529E-14-1.40412E-13
 -1      2029 2.47443E+01-4.63305E-01-1.63525E-02-5.89394E-01-1.05436E-13-1.95594E-14
 -1      2030 2.47205E+01-6.71690E-01-2.57200E-03-7.55533E-01-2.01505E-14-9.10626E-14
 -1      2031 2.47128E+01-2.65846E-01 8.83648E-03 3.31351E-01 2.49176E-13-1.04756E-13
 -1      2032 2.47516E+01-3.45502E-01-1.46076E-02 8.18240E-02 1.81263E-13-2.23259E-13
 -1      2033 2.45167E+01-5.42019E-01-7.06393E-03 7.05356E-02 1.64455E-13-2.08064E-13
 -1      2034 2.42010E+01-1.25345E-01 1.76563E-03 6.71731E-01 3.44880E-14-1.29039E-13
 -1      2035 2.44235E+01-1.91458E-01-1.01960E-02 5.26498E-01 1.94484E-13 1.56125E-16
 -1      2036 2.40804E+01-3.22598E-01-6.85971E-03 6.30664E-01 1.76727E-13-3.67579E-14
 -1      2037 2.35796E+01-2.64914E-02-2.06705E-03 8.00106E-01 2.95442E-13-3.59004E-13
 -1      2038 2.38974E+01-6.82770E-02-5.32422E-03 7.41860E-01 1.96493E-13-1.82914E-13
 -1      2039 2.35353E+01-1.31557E-01-4.46765E-03 9.11606E-01 2.76840E-13-9.07260E-14
 -1      2040 2.29463E+01 2.98912E-02-3.31245E-03 7.92305E-01 1.51195E-13-4.24318E-13
 -1      2041 2.32912E+01 8.83622E-03-1.32014E-03 7.90847E-01 1.46274E-13-3.40631E-13
 -1      2042 2.29649E+01-5.77571E-03-2.25420E-03 9.85574E-01 2.55972E-13-1.13555E-13
 -1      2043 2.23580E+01 5.54132E-02-3.17708E-03 7.12838E-01-2.30959E-13-3.57446E-13
 -1      2044 2.26873E+01 4.81610E-02 1.39920E-03 7.41920E-01 5.97623E-14-3.40349E-13
 -1      2045 2.24203E+01 6.15018E-02-8.78882E-04 9.34504E-01 8.33375E-14 8.36618E-14
 -1      2046 2.18423E+01 6.22121E-02-2.51977E-03 6.05153E-01-1.20735E-13-3.04622E-13
 -1      2047 2.21340E+01 6.27414E-02 2.90010E-03 6.46873E-01-2.70148E-13-4.56412E-13
 -1      2048 2.19299E+01 8.86893E-02-2.67252E-04 8.22041E-01-2.04604E-13-1.17838E-13
 -1      2049 2.14076E+01 5.91857E-02-1.79205E-03 4.94328E-01-3.21914E-13-5.33591E-14
 -1      2050 2.16538E+01 6.34182E-02 3.49184E-03 5.38196E-01-2.32068E-13-2.39779E-13
 -1      2051 2.15061E+01 9.26392E-02-1.19479E-04 6.89200E-01-2.89616E-13-1.88327E-13
 -1      2052 2.10520E+01 5.18704E-02-1.17227E-03 3.92852E-01-2.86007E-13 4.68301E-13
 -1      2053 2.12528E+01 5.74010E-02 3.50768E-03 4.33524E-01-2.94577E-13 2.01483E-13
 -1      2054 2.11511E+01 8.50477E-02-1.77589E-04 5.58944E-01-4.59125E-13 4.88212E-14
 -1      2055 2.07675E+01 4.33632E-02-6.99746E-04 3.05641E-01-5.69922E-15 3.01961E-13
 -1      2056 2.09272E+01 4.89152E-02 3.21310E-03 3.40912E-01-1.97334E-13 3.57047E-13
 -1      2057 2.08609E+01 7.29302E-02-2.87020E-04 4.42254E-01-1.81384E-13 2.99621E-13
 -1      2058 2.05444E+01 3.52543E-02-3.56630E-04 2.33469E-01-2.66269E-13 3.07746E-13
 -1      2059 2.06687E+01 4.02185E-02 2.78783E-03 2.62880E-01-3.51906E-14 3.37059E-13
 -1      2060 2.06287E+01 6.00847E-02-3.77218E-04 3.43000E-01-8.22632E-14 4.14350E-13
 -1      2061 2.03725E+01 2.83023E-02-1.10369E-04 1.75014E-01 3.26762E-13 9.54848E-14
 -1      2062 2.04675E+01 3.24253E-02 2.33874E-03 1.99018E-01-2.19083E-14 1.23147E-13
 -1      2063 2.04463E+01 4.83973E-02-4.27242E-04 2.61176E-01 1.16964E-13 1.67988E-13
 -1      2064 2.02429E+01 2.28403E-02 6.62892E-05 1.27975E-01 3.93063E-13-2.02479E-13
 -1      2065 2.03139E+01 2.60474E-02 1.92061E-03 1.47481E-01 4.22182E-13 1.00056E-13
 -1      2066 2.03055E+01 3.87205E-02-4.43602E-04 1.94817E-01 4.43877E-13 8.99977E-14
 -1      2067 2.01477E+01 1.89495E-02 1.77256E-04 8.96735E-02 2.51890E-13-2.11877E-13
 -1      2068 2.01991E+01 2.12818E-02 1.55043E-03 1.05802E-01 2.26492E-13-1.51210E-13
 -1      2069 2.01991E+01 3.13834E-02-4.39839E-04 1.41070E-01 3.03831E-13 8.64948E-14
 -1      2070 2.00808E+01 1.64695E-02 2.04395E-04 5.75912E-02 2.98142E-13-2.97541E-13
 -1      2071 2.01161E+01 1.80482E-02 1.20663E-03 7.14282E-02 2.92654E-13-1.88343E-13
 -1      2072 2.01208E+01 2.62665E-02-4.53068E-04 9.68853E-02 3.01883E-13-1.73869E-13
 -1      2073 2.00373E+01 1.49311E-02 3.98296E-04 3.00834E-02 1.20632E-13-2.97096E-13
 -1      2074 2.00588E+01 1.58924E-02 8.38982E-04 4.22125E-02 2.11907E-13-2.70220E-13
 -1      2075 2.00653E+01 2.30303E-02-4.15515E-04 5.96675E-02 2.47791E-13-3.05724E-13
 -1      2076 2.00157E+01 1.27051E-02 5.96054E-04 1.27012E-02-8.01881E-14-2.01139E-13
 -1      2077 2.00274E+01 1.49882E-02 5.52550E-04 2.24909E-02 2.46911E-14-3.41774E-13
 -1      2078 2.00331E+01 2.14961E-02-2.93710E-04 3.40217E-02 6.44312E-15-2.37142E-13
 -1      2079 2.00164E+01 1.82193E-02 6.88936E-05 1.77807E-02-2.53818E-13-5.06989E-14
 -1      2080 2.00036E+01 1.31854E-01-3.69015E-04 7.30655E-02-1.64730E-14 5.51500E-13
 -1      2081 2.00088E+01 1.08481E-01 5.72364E-04 6.94838E-02-7.77599E-14 4.98840E-13
 -1      2082 2.00134E+01 8.45510E-02-8.63022E-05 6.21707E-02-7.56426E-14 2.28849E-13
 -1      2083 2.00174E+01 6.43470E-02 6.38503E-04 5.31792E-02-1.14754E-13-2.44651E-13
 -1      2084 2.00165E+01 1.04992E-01-6.51189E-05 8.61242E-02 3.13532E-14 4.17330E-13
 -1      2085 2.00177E+01 4.69392E-02 1.38854E-04 4.15302E-02-2.48147E-13-4.27720E-13
 -1      2086 2.00188E+01 3.18707E-02 5.08274E-04 3.03811E-02-2.49351E-13-1.14175E-13
 -1      2087 2.00267E+01 3.41828E-02 3.11973E-04 3.86192E-02-1.71431E-13-6.95138E-14
 -1      2088 2.00246E+01 6.44446E-02-3.51408E-04 6.44463E-02 2.25557E-14-1.95089E-13
 -1      2089 1.99939E+01 1.78371E-01-6.44340E-04 7.14784E-02-1.88904E-13-1.05155E-13
 -1      2090 1.99989E+01 1.55364E-01 2.34533E-04 7.34763E-02-2.06843E-13 3.32546E-13
 -1      2091 2.00022E+01 1.52093E-01 2.31464E-04 9.43256E-02-6.01303E-14 2.38558E-13
 -1      2092 1.99855E+01 2.19176E-01-8.60018E-04 5.80025E-02-8.20567E-14 2.63050E-13
 -1      2093 1.99896E+01 1.99397E-01-1.65581E-04 6.50487E-02-1.96375E-13 2.48038E-13
 -1      2094 1.99882E+01 1.96506E-01 5.31027E-04 8.72413E-02-4.37691E-14 2.24471E-13
 -1      2095 1.99799E+01 2.47613E-01-9.60486E-04 3.52416E-02-6.37996E-14 1.93980E-13
 -1      2096 1.99825E+01 2.34574E-01-5.43063E-04 4.59428E-02-1.15347E-13 2.89123E-13
 -1      2097 1.99768E+01 2.32898E-01 7.96303E-04 6.61373E-02-1.58929E-14 2.45279E-13
 -1      2098 1.99776E+01 2.59728E-01-9.28946E-04 7.11518E-03-1.13311E-13 4.45866E-14
 -1      2099 1.99784E+01 2.55428E-01-8.23324E-04 1.96465E-02-9.82632E-14 2.13604E-13
 -1      2100 1.99696E+01 2.56121E-01 9.62508E-04 3.47831E-02-1.11559E-13 1.93714E-13
 -1      2101 1.99789E+01 2.53954E-01-7.65075E-04-2.18848E-02 4.50595E-14 1.13751E-13
 -1      2102 1.99778E+01 2.59009E-01-9.68292E-04-9.52828E-03-3.38904E-14 1.01499E-13
 -1      2103 1.99674E+01 2.63220E-01 1.00232E-03-1.69602E-03-3.31431E-13 2.06545E-13
 -1      2104 1.99833E+01 2.31292E-01-4.92772E-04-4.72701E-02 3.86844E-14-2.98986E-13
 -1      2105 1.99806E+01 2.44888E-01-9.61489E-04-3.70269E-02 1.06095E-13-4.45623E-15
 -1      2106 1.99704E+01 2.53416E-01 9.14424E-04-3.76423E-02-1.76395E-13 6.02650E-14
 -1      2107 1.99904E+01 1.95870E-01-1.33094E-04-6.48793E-02 2.29708E-13-1.74656E-13
 -1      2108 1.99864E+01 2.15448E-01-8.31145E-04-5.84427E-02 1.60513E-13-4.42655E-13
 -1      2109 1.99780E+01 2.28441E-01 7.35039E-04-6.74219E-02 8.07104E-14-1.78035E-13
 -1      2110 1.99993E+01 1.51555E-01 2.46336E-04-7.24012E-02 3.99128E-13 4.72767E-13
 -1      2111 1.99945E+01 1.74779E-01-6.02952E-04-7.07192E-02 3.68270E-13 2.58228E-13
 -1      2112 1.99891E+01 1.91538E-01 4.47090E-04-8.67920E-02 2.47595E-13 1.91756E-13
 -1      2113 2.00088E+01 1.05049E-01 5.49964E-04-6.79552E-02 3.34332E-13 3.53990E-13
 -1      2114 2.00039E+01 1.28096E-01-3.26973E-04-7.16217E-02 4.00027E-13 3.64388E-13
 -1      2115 2.00025E+01 1.47062E-01 1.23623E-04-9.27288E-02 3.89529E-13 4.40551E-13
 -1      2116 2.00163E+01 6.09061E-02 1.35202E-04-5.19587E-02 8.42453E-14-1.85320E-13
 -1      2117 2.00130E+01 8.18859E-02-4.20077E-05-6.06190E-02 9.95001E-14 8.71913E-14
 -1      2118 2.00162E+01 1.00983E-01-6.14991E-05-8.39320E-02 4.05956E-14 6.19464E-14
 -1      2119 1.05545E+01-5.23512E+00-1.31817E-01 6.30948E+00 7.48290E-14-2.38802E-13
 -1      2120 6.82941E+00-6.74388E+00-3.94717E-01 5.02330E+00 3.81362E-14-1.06720E-13
 -1      2121 6.48415E-01-5.90621E+00-2.39050E-01 4.17494E-01 9.63951E-14 4.11893E-14
 -1      2122 5.43098E-01-6.97491E+00-4.01142E-01-1.33750E+00 4.37983E-14 6.50813E-13
 -1      2123 4.05392E+00-6.35916E+00-3.07282E-01 4.27208E+00 2.69784E-14-2.09555E-13
 -1      2124 2.24174E+00-6.06958E+00-2.26871E-01 3.08730E+00 8.25728E-14-2.65843E-13
 -1      2125 7.71302E+00-5.24091E+00-1.11338E-01 5.72962E+00-5.18474E-14-1.21986E-13
 -1      2126 1.93468E+01-3.33489E+00 8.55573E-03 6.71438E+00-4.98490E-14-2.07057E-13
 -1      2127 1.47054E+01-5.25172E+00-3.11953E-01 6.01435E+00 1.24789E-13-2.59404E-13
 -1      2128 2.78476E+01-6.24041E-01 1.47107E-01 5.82792E+00-5.93414E-14 1.42109E-14
 -1      2129 2.28183E+01-2.45350E+00-1.98640E-01 5.63305E+00-9.78106E-14 6.95555E-14
 -1      2130 1.95271E+01 4.02006E+00-2.70179E-02-1.69479E+00-1.68049E-13-1.02753E-13
 -1      2131 1.96517E+01 3.94902E+00-2.45535E-02-1.94608E+00-1.82561E-13-6.07639E-14
 -1      2132 1.99748E+01 3.25047E+00-1.38642E-02-1.90916E+00-1.92529E-13-3.27204E-14
 -1      2133 1.97068E+01 3.59246E+00-7.19766E-03-1.51123E+00-1.67049E-13-1.05799E-13
 -1      2134 3.96090E+01 5.67554E+00 3.66975E-01 1.26718E+00-5.32907E-14-2.87548E-14
 -1      2135 3.61694E+01 4.51482E+00 9.96455E-02 1.63867E+00-3.57492E-14-9.82547E-14
 -1      2136 3.98525E+01 7.16681E+00 2.13715E-01-1.48626E-01 5.77316E-14 3.42781E-14
 -1      2137 4.00119E+01 6.72615E+00 2.98235E-01 9.07406E-01 7.49401E-15 3.63320E-14
 -1      2138 3.55725E+01 6.82652E+00 2.78006E-01-6.01586E-01-2.45914E-14 4.97935E-14
 -1      2139 3.77477E+01 6.31406E+00 1.19828E-01-7.74603E-01 2.17881E-13 8.17124E-14
 -1      2140 3.98795E+01 7.01943E+00 3.27424E-01-2.35149E-01 1.35225E-13 7.77850E-14
 -1      2141 3.43053E+01 2.64902E+00 7.11730E-02-2.45246E+00 1.63369E-13 1.12688E-13
 -1      2142 3.66746E+01 4.10483E+00 1.21159E-01-1.22498E+00 1.99896E-13 1.38112E-13
 -1      2143 2.85119E+01-3.51978E-01-7.73211E-02-4.44938E+00 1.15963E-13 6.77236E-15
 -1      2144 3.29848E+01 1.15606E+00 1.62281E-01-3.93434E+00 1.27204E-13 1.45439E-13
 -1      2145 3.28372E+01 1.04254E+00 2.17205E-01-6.07826E-01 2.79568E-14 2.92044E-13
 -1      2146 2.00343E+01-3.69614E+00-2.63713E-01-5.80001E+00 1.78968E-13 1.66533E-15
 -1      2147 2.50215E+01-1.84677E+00 7.66530E-02-6.17090E+00 1.16851E-13 5.19029E-14
 -1      2148 1.13702E+01-5.90488E+00-3.98594E-01-5.75174E+00 1.41442E-13-1.61399E-13
 -1      2149 1.58392E+01-4.04486E+00-7.88460E-02-6.72806E+00 1.49103E-13-1.95732E-13
 -1      2150 4.54998E+00-7.12717E+00-4.35548E-01-4.26754E+00 7.36078E-14-1.39305E-13
 -1      2151 7.75432E+00-5.72670E+00-2.08539E-01-5.64593E+00 1.10911E-13-1.88433E-13
 -1      2152 5.65383E-01-7.02313E+00-3.78686E-01-1.37052E+00 2.09277E-14-1.92624E-13
 -1      2153 1.86494E+00-6.96857E+00-3.81262E-01-2.92052E+00 8.52096E-14-2.21601E-13
 -1      2154 1.30099E+00-6.73977E+00-3.43813E-01 2.53449E+00 6.55587E-14-1.84353E-13
 -1      2155 4.54170E-01-6.65315E+00-3.26996E-01 9.40108E-01 9.99686E-14-2.78444E-13
 -1      2156 5.75989E+00-5.64280E+00-2.01824E-01 5.41116E+00 1.93179E-14-1.91847E-13
 -1      2157 3.02124E+00-7.07327E+00-4.14200E-01 3.82890E+00 5.42344E-14-8.08797E-14
 -1      2158 3.72830E+00-4.66722E+00-1.29281E-01 3.99777E+00 8.22120E-14-2.17104E-13
 -1      2159 1.39966E+01-4.36447E+00-6.85953E-02 6.94789E+00-1.53211E-14-2.49994E-13
 -1      2160 9.97973E+00-5.95457E+00-2.97071E-01 6.03161E+00 6.83342E-14-2.58859E-13
 -1      2161 2.26617E+01-2.18401E+00 9.16826E-02 6.64094E+00 2.53131E-14-8.12683E-14
 -1      2162 1.79512E+01-4.07949E+00-2.23022E-01 6.22614E+00 1.06581E-14-1.12632E-13
 -1      2163 3.05948E+01 1.25433E+00 2.52268E-01 5.58370E+00-1.96870E-13 1.96620E-13
 -1      2164 2.58120E+01-6.19026E-01-9.01226E-02 5.46983E+00-1.37113E-13 8.00471E-14
 -1      2165 3.57965E+01 4.01608E+00 1.38815E-01 2.42294E+00-1.10467E-13 2.47080E-13
 -1      2166 3.31267E+01 2.88222E+00 1.97721E-01 4.05563E+00-1.85123E-13 1.43885E-13
 -1      2167 3.16552E+01 9.04356E-01 2.33596E-01 2.43082E+00-8.59000E-14 4.82947E-13
 -1      2168 3.98417E+01 6.98603E+00 4.63247E-01 8.35194E-01-6.38378E-15-4.02733E-14
 -1      2169 3.69310E+01 6.13132E+00 1.54432E-01 1.39462E+00-2.50355E-14 3.62488E-14
 -1      2170 4.00947E+01 7.16396E+00 3.33265E-01-9.08550E-01-7.16649E-14 6.38378E-15
 -1      2171 4.04781E+01 7.18575E+00 3.42132E-01 3.68520E-01-1.99285E-14 1.05957E-14
 -1      2172 3.66036E+01 5.16444E+00 1.75291E-01-2.29959E+00-2.72921E-13 2.46470E-14
 -1      2173 3.86739E+01 6.12836E+00 2.76994E-01-1.19707E+00-2.09943E-13 5.46507E-14
 -1      2174 3.14329E+01 2.09918E+00 3.30538E-02-4.35208E+00-2.41487E-13 1.29785E-13
 -1      2175 3.55978E+01 3.50370E+00 2.74535E-01-3.72866E+00-2.30774E-13 1.21458E-13
 -1      2176 2.37796E+01-1.38569E+00-1.39949E-01-5.79968E+00-2.91323E-13 1.71863E-13
 -1      2177 2.87790E+01 5.05990E-01 2.07040E-01-5.90817E+00-2.48190E-13 2.32481E-13
 -1      2178 1.59656E+01-4.67917E+00-2.31401E-01-6.28615E+00-9.40359E-14 2.17298E-13
 -1      2179 2.06238E+01-2.60787E+00 6.71175E-02-6.89502E+00-1.60816E-13 2.99871E-13
 -1      2180 7.14607E+00-6.49551E+00-3.69802E-01-5.38662E+00 4.18554E-14 2.04753E-13
 -1      2181 1.12585E+01-4.82221E+00-9.66253E-02-6.79141E+00-1.45883E-13 7.63695E-14
 -1      2182 1.48936E+00-7.30867E+00-4.32786E-01-2.75332E+00 2.71422E-13 6.51035E-13
 -1      2183 3.46742E+00-6.27438E+00-3.05646E-01-4.28745E+00 2.11997E-13 4.69957E-13
 -1      2184 2.41597E+00-4.51023E+00-1.75006E-01-2.63539E+00-4.32987E-15 5.10869E-13
 -1      2185 3.45643E+01 2.11319E+00 1.52785E-01 3.25075E+00-3.41394E-15-1.44329E-14
 -1      2186 3.07012E+01 7.54390E-01 4.32354E-02 4.31266E+00-5.93692E-14-8.59313E-14
 -1      2187 2.99259E+01-1.50950E+00 1.59883E-01 3.03332E+00-4.57134E-14 1.06581E-14
 -1      2188 2.07163E+01 1.10854E+00-2.06255E-02-1.61027E+00-1.77913E-13 2.88707E-13
 -1      2189 3.42001E+01 2.79089E+00 1.92925E-01 4.45740E-01-3.44169E-14-9.72000E-14
 -1      2190 2.06142E+01 1.33087E+00-1.87518E-02-1.66977E+00-1.91139E-13 1.85307E-13
 -1      2191 2.50309E+00-4.71278E+00-9.54840E-02 1.95033E+00 2.30788E-14-3.85914E-13
 -1      2192 3.24501E+00-2.58383E+00 1.02082E-01 8.07117E-01-5.65659E-14 1.74860E-14
 -1      2193 4.51308E+00-3.17405E+00-3.77225E-02 3.45794E+00-9.56873E-14-3.96572E-13
 -1      2194 1.51343E+01-5.75498E+00-7.65477E-02 6.63626E+00 3.24185E-14-2.50858E-13
 -1      2195 2.00205E+01 5.07067E-02 3.15233E-04-4.85335E-02 5.44710E-14-3.20439E-13
 -1      2196 2.33850E+01-4.48133E+00 1.83250E-02 5.33709E+00-4.66294E-15 3.99680E-15
 -1      2197 7.27893E+00-5.13437E+00-8.95602E-02-5.95731E+00 1.37335E-13 4.15390E-13
 -1      2198 1.59882E+01-5.47988E+00-5.67483E-02-6.87283E+00-8.59313E-14 1.75734E-13
 -1      2199 2.42877E+01-3.71816E+00 4.02226E-02-5.22887E+00-9.07607E-14 1.03084E-13
 -1      2200 3.05645E+01-6.63809E-02 1.98478E-01-2.91639E+00-1.36696E-13-9.88098E-15
 -1      2201 3.39456E+01 4.08820E+00 2.65323E-01-5.45459E-01-2.47857E-13-5.94524E-14
 -1      2202 3.56417E+01 7.27096E+00 2.67159E-01 2.08053E-01-1.76970E-13 1.43441E-13
 -1      2203 3.52490E+01 5.00624E+00 2.03705E-01 8.24963E-01-1.93456E-14 9.76996E-14
 -1      2204 3.25566E+01 3.70135E+00 7.80055E-02-1.24353E-01 6.02296E-15 2.35423E-13
 -1      2205 3.27994E+01 5.64375E+00-1.16090E-01-8.45072E-01 1.36113E-13-1.95399E-14
 -1      2206 2.58815E+01-3.04829E+00 6.85535E-02 4.70583E+00 1.08469E-13 2.46414E-13
 -1      2207 9.85558E+00-5.37087E+00-7.50032E-02 6.54373E+00 9.58122E-14-1.98758E-13
 -1      2208 1.76377E+00-4.65250E+00-1.65779E-01-2.75321E-01-9.99895E-15-1.90070E-13
 -1      2209 5.04390E+00-5.25145E+00-1.65363E-01-4.67392E+00-9.45355E-14-1.52878E-13
 -1      2210 1.20092E+01-5.78703E+00-1.11112E-01-6.53519E+00-9.38138E-14-8.68750E-14
 -1      2211 2.84181E+01-2.73438E+00 1.15357E-01-3.44953E+00-4.54359E-14 2.23266E-13
 -1      2212 3.57748E+01 7.84154E+00 2.77157E-01 1.38978E-01 5.31797E-14 7.01696E-14
 -1      2213 3.47916E+01 5.12978E+00 1.92362E-01 6.66347E-01 1.37002E-13 1.20015E-13
 -1      2214 2.05547E+01-5.16757E+00 4.92762E-03-6.04911E+00-1.52656E-14 1.01891E-13
 -1      2215 1.84943E+01-5.21680E+00-2.20610E-03 6.61578E+00 1.03972E-13-1.05610E-13
 -1      2216 3.60172E+01 7.91011E+00 2.87054E-01-1.18151E-01-6.60028E-14 3.06699E-14
 -1      2217 2.01408E+01 5.10191E-01 3.95989E-03 6.67420E-01 1.32111E-13-3.97841E-14
 -1      2218 2.04053E+01 7.02560E-01 2.08276E-02 9.60602E-01 1.49493E-13-2.52658E-14
 -1      2219 1.95736E+01 3.53558E+00-1.11699E-02-5.84355E-01-1.03465E-13-1.81437E-13
 -1      2220 1.96088E+01 3.48850E+00-1.03797E-02-7.67172E-01-1.19124E-13-1.80564E-13
 -1      2221 1.96547E+01 3.39809E+00-1.27648E-02-9.30158E-01-1.33929E-13-1.74635E-13
 -1      2222 1.97149E+01 3.31540E+00-1.25876E-02-1.11853E+00-1.53872E-13-1.46256E-13
 -1      2223 1.97988E+01 3.05461E+00 4.29710E-04-7.81276E-01-1.13181E-13-1.62705E-13
 -1      2224 1.95268E+01 3.62097E+00-9.64100E-03 9.82168E-02-4.05172E-14-2.08233E-13
 -1      2225 1.95260E+01 3.62182E+00-9.64959E-03-7.92430E-02-6.19088E-14-2.04924E-13
 -1      2226 1.95529E+01 3.58020E+00-9.71137E-03 4.40053E-01-1.47593E-14-2.57156E-13
 -1      2227 1.95355E+01 3.60349E+00-1.01998E-02 2.61081E-01-3.03294E-14-2.40516E-13
 -1      2228 1.96913E+01 3.24871E+00-7.00884E-04 1.66722E-01-4.06761E-14-2.22742E-13
 -1      2229 1.96145E+01 3.48069E+00-1.05660E-02 7.80615E-01 2.46707E-14-2.64679E-13
 -1      2230 1.95784E+01 3.52900E+00-1.13019E-02 6.00629E-01-4.45688E-16-2.61334E-13
 -1      2231 1.97283E+01 3.18296E+00-3.32525E-04 4.80401E-01-5.00584E-15-2.51780E-13
 -1      2232 1.97238E+01 3.30266E+00-1.28784E-02 1.13181E+00 6.89046E-14-2.24987E-13
 -1      2233 1.96620E+01 3.38771E+00-1.29865E-02 9.43394E-01 4.57172E-14-2.45558E-13
 -1      2234 1.98053E+01 3.04521E+00 3.80457E-04 7.92373E-01 3.93586E-14-2.33847E-13
 -1      2235 1.98995E+01 3.01231E+00-1.80771E-02 1.47832E+00 1.17890E-13-2.06934E-13
 -1      2236 1.98020E+01 3.15542E+00-1.52736E-02 1.28808E+00 8.77315E-14-2.12427E-13
 -1      2237 1.99332E+01 2.81475E+00 2.02293E-03 1.09666E+00 7.76972E-14-2.07551E-13
 -1      2238 2.01712E+01 2.54826E+00-2.83327E-02 1.78359E+00 1.47929E-13-1.72718E-13
 -1      2239 2.00238E+01 2.78933E+00-1.71379E-02 1.60873E+00 1.27239E-13-1.98671E-13
 -1      2240 2.01243E+01 2.45859E+00 5.89516E-03 1.36245E+00 1.09333E-13-1.85990E-13
 -1      2241 1.98720E+01 2.74767E-01 5.06011E-03 2.69354E-01 1.17998E-13-5.82182E-14
 -1      2242 2.00278E+01 3.72997E-01 2.02294E-02 4.29281E-01 1.30184E-13-4.19838E-14
 -1      2243 2.02101E+01 6.40824E-01-2.41693E-03 6.89685E-01 1.37549E-13-7.91762E-14
 -1      2244 2.03967E+01 8.59874E-01 1.30531E-02-9.88497E-01-1.51984E-13 1.05522E-13
 -1      2245 2.01895E+01 6.34585E-01-3.75475E-03-6.76077E-01-1.43994E-13 9.28429E-14
 -1      2246 3.25296E+01 2.97111E+00-1.76906E-01-1.19304E+00-1.38833E-13-7.44405E-14
 -1      2247 3.17389E+01 7.11862E-01-4.99112E-03-3.27589E-01-1.84436E-14-1.88738E-13
 -1      2248 2.01269E+01 4.77145E-01 1.61649E-02-4.57143E-01-1.32006E-13 9.94420E-14
 -1      2249 1.99909E+01 3.54642E-01 3.70841E-04-2.82000E-01-1.08116E-13 7.91861E-14
 -1      2250 2.02487E+01 7.54601E-01-2.07203E-03-6.74519E-01-1.38503E-13 3.37938E-14
 -1      2251 1.99316E+01 2.72392E-01 1.08681E-02-1.38977E-01-8.72980E-14 8.49362E-14
 -1      2252 1.98602E+01 2.03868E-01 1.17508E-03-3.60425E-02-5.39120E-14 5.07381E-14
 -1      2253 2.00916E+01 4.31826E-01-4.03197E-03-2.81574E-01-1.04246E-13 2.87118E-14
 -1      2254 1.98218E+01 1.57199E-01 6.41682E-03 5.38681E-02-5.02862E-14 4.21852E-14
 -1      2255 1.97974E+01 1.18437E-01 1.37822E-03 1.15171E-01-5.14818E-14 4.16959E-14
 -1      2256 1.99816E+01 2.50466E-01-3.90625E-03-2.82304E-02-6.83897E-14 1.93357E-15
 -1      2257 1.97795E+01 9.21246E-02 3.61686E-03 1.71526E-01-5.29003E-14 3.87564E-14
 -1      2258 1.97868E+01 7.11079E-02 1.49432E-03 2.08995E-01-5.76987E-14 4.34189E-14
 -1      2259 1.99205E+01 1.46966E-01-3.28187E-03 1.32155E-01-5.59731E-14 1.38035E-14
 -1      2260 1.97859E+01 5.72682E-02 1.91386E-03 2.45529E-01-8.98259E-14 3.93387E-14
 -1      2261 1.98151E+01 4.75167E-02 1.62006E-03 2.70119E-01-7.27154E-14 2.94620E-14
 -1      2262 1.99004E+01 9.01545E-02-2.55213E-03 2.34960E-01-8.10787E-14 3.31217E-14
 -1      2263 1.98274E+01 4.18699E-02 8.69106E-04 2.96162E-01-5.34886E-14 2.70183E-16
 -1      2264 1.98723E+01 3.96729E-02 1.78303E-03 3.15026E-01-6.83881E-14 4.97654E-15
 -1      2265 1.99124E+01 6.27653E-02-1.95989E-03 3.04625E-01-9.39303E-14-1.27964E-14
 -1      2266 1.98950E+01 3.96088E-02 2.38722E-04 3.37098E-01-1.08554E-13 2.51865E-15
 -1      2267 1.99524E+01 4.25568E-02 1.98730E-03 3.55067E-01-1.34593E-13-4.57048E-14
 -1      2268 1.99492E+01 5.49918E-02-1.54715E-03 3.58115E-01-1.01767E-13-4.31982E-14
 -1      2269 1.99840E+01 4.62303E-02-1.17399E-04 3.77703E-01-1.13666E-13-2.99519E-14
 -1      2270 2.00524E+01 5.24863E-02 2.21512E-03 3.97981E-01-7.71569E-14-4.13215E-14
 -1      2271 2.00060E+01 6.04775E-02-1.29326E-03 4.07305E-01-1.18270E-13-7.72546E-15
 -1      2272 2.00922E+01 5.83279E-02-2.82526E-04 4.24159E-01-1.97400E-14-3.53993E-14
 -1      2273 2.01716E+01 6.61768E-02 2.42575E-03 4.48607E-01 1.65225E-14-4.35141E-14
 -1      2274 2.00803E+01 7.43861E-02-1.16574E-03 4.60285E-01-5.39921E-14 5.66856E-14
 -1      2275 2.02199E+01 7.25470E-02-3.03168E-04 4.79883E-01 3.79549E-14-2.26687E-14
 -1      2276 2.03108E+01 8.00330E-02 2.55182E-03 5.09005E-01 5.97559E-14 5.43951E-14
 -1      2277 2.01716E+01 9.22217E-02-1.13739E-03 5.21974E-01 5.00920E-14 7.24147E-14
 -1      2278 2.03686E+01 8.49126E-02-1.96889E-04 5.45404E-01 4.95398E-14 3.66644E-14
 -1      2279 2.04717E+01 8.94929E-02 2.49388E-03 5.78102E-01 7.32216E-15 2.85320E-14
 -1      2280 2.02806E+01 1.08904E-01-1.19329E-03 5.94176E-01 4.01306E-14 2.23123E-14
 -1      2281 2.05407E+01 9.01765E-02 4.53810E-05 6.17770E-01-5.78718E-14 5.32474E-14
 -1      2282 2.06564E+01 8.83861E-02 2.11538E-03 6.50874E-01-3.25274E-14 6.61354E-14
 -1      2283 2.04097E+01 1.17908E-01-1.33534E-03 6.75148E-01-8.77120E-15-1.91889E-14
 -1      2284 2.07392E+01 8.12127E-02 4.57741E-04 6.89511E-01-1.29051E-14 7.54546E-14
 -1      2285 2.08666E+01 6.84215E-02 1.24245E-03 7.17139E-01-2.65388E-14 9.79755E-14
 -1      2286 2.05624E+01 1.10460E-01-1.58628E-03 7.58703E-01-2.30994E-14 7.05838E-14
 -1      2287 2.09668E+01 4.86722E-02 1.09151E-03 7.47239E-01-6.00271E-14 9.11601E-14
 -1      2288 2.11036E+01 1.91624E-02-3.21721E-04 7.60124E-01-3.40125E-14 1.06109E-13
 -1      2289 2.07437E+01 7.50115E-02-1.98890E-03 8.32904E-01-5.93547E-14 8.38476E-14
 -1      2290 2.12257E+01-1.85596E-02 1.98968E-03 7.70168E-01-4.03185E-14 3.03345E-14
 -1      2291 2.13667E+01-7.07113E-02-2.74981E-03 7.55296E-01-8.14547E-14-7.70217E-15
 -1      2292 2.09604E+01-2.43734E-03-2.58544E-03 8.78526E-01-9.03106E-14 5.90355E-14
 -1      2293 2.15159E+01-1.31027E-01 3.11830E-03 7.29277E-01-1.17195E-13-2.63010E-14
 -1      2294 2.16525E+01-2.09443E-01-6.08253E-03 6.70558E-01-7.35863E-14-1.88007E-14
 -1      2295 2.12205E+01-1.35928E-01-3.35292E-03 8.67727E-01-1.29245E-13 4.89169E-15
 -1      2296 2.18320E+01-2.92803E-01 4.22978E-03 5.88715E-01-1.96984E-14-1.10007E-13
 -1      2297 2.19512E+01-3.93651E-01-9.99522E-03 4.69936E-01 4.11758E-15-1.12947E-13
 -1      2298 2.15315E+01-3.33068E-01-4.07255E-03 7.64083E-01-9.59718E-14 3.97462E-14
 -1      2299 2.21570E+01-4.90223E-01 4.69810E-03 3.12503E-01 3.22264E-14-1.18770E-13
 -1      2300 2.22407E+01-5.94143E-01-1.34076E-02 1.24323E-01 2.24196E-14-1.29099E-13
 -1      2301 2.18944E+01-5.82117E-01-4.11072E-03 5.26440E-01 1.29366E-14-5.25536E-14
 -1      2302 2.24530E+01-6.75850E-01 3.33864E-03-1.18524E-01 7.70850E-14-4.35856E-14
 -1      2303 2.24794E+01-7.40169E-01-1.42244E-02-3.66171E-01 1.50948E-13 4.36933E-15
 -1      2304 2.22911E+01-8.32074E-01-2.29155E-03 1.21407E-01 1.03055E-13-4.54799E-14
 -1      2305 2.26534E+01-7.56659E-01-1.26365E-03-6.75576E-01 1.38775E-13-1.97398E-14
 -1      2306 2.26036E+01-7.17671E-01-9.48352E-03-9.38036E-01 1.18936E-13 8.44756E-15
 -1      2307 2.26677E+01-9.75314E-01 2.33291E-03-4.48445E-01 1.02479E-13 6.24636E-15
 -1      2308 2.26732E+01-6.07752E-01-8.84416E-03-1.24297E+00 7.21944E-14-6.43639E-14
 -1      2309 2.25446E+01-4.09119E-01 2.38452E-03-1.43204E+00 5.37569E-15-1.79457E-14
 -1      2310 2.29259E+01-8.57089E-01 9.26878E-03-1.09990E+00 4.42686E-14-1.14774E-13
 -1      2311 2.24560E+01-1.43220E-01-1.72414E-02-1.59937E+00-3.86503E-14-1.21247E-13
 -1      2312 2.22794E+01 2.01620E-01 1.62800E-02-1.60271E+00 8.38370E-15-1.20978E-13
 -1      2313 2.29500E+01-3.45934E-01 1.43583E-02-1.62663E+00-6.18653E-14-2.32155E-13
 -1      2314 2.20648E+01 5.57102E-01-1.89521E-02-1.48805E+00-2.28983E-15-1.73691E-13
 -1      2315 2.19047E+01 9.13990E-01 2.18251E-02-1.23750E+00-1.61772E-14-1.98923E-13
 -1      2316 2.27021E+01 5.00197E-01 6.75343E-03-1.72246E+00-4.06003E-14-2.27359E-13
 -1      2317 2.17107E+01 1.18742E+00-7.51038E-03-8.05994E-01 5.37712E-14-1.89975E-13
 -1      2318 2.16406E+01 1.35498E+00 1.29640E-02-3.57306E-01 4.58826E-14-1.13363E-14
 -1      2319 2.23371E+01 1.35650E+00-8.77069E-03-1.16419E+00 3.66651E-14-2.79468E-13
 -1      2320 2.16272E+01 1.37280E+00 1.07802E-02 2.29480E-01 2.87600E-14-4.56805E-14
 -1      2321 2.16826E+01 1.23737E+00-6.00523E-03 6.91429E-01 1.06105E-13-5.58394E-14
 -1      2322 2.21474E+01 1.75372E+00-1.76091E-02-7.42169E-02 7.27439E-14-2.07547E-13
 -1      2323 2.18619E+01 9.90946E-01 2.18604E-02 1.15102E+00 1.37489E-13-4.79376E-14
 -1      2324 2.20118E+01 6.49332E-01-1.80681E-02 1.43385E+00 5.81998E-14-1.28348E-15
 -1      2325 2.23014E+01 1.44393E+00-8.51905E-03 1.05490E+00 9.15986E-14-2.00513E-13
 -1      2326 2.22370E+01 2.92474E-01 1.85998E-02 1.59195E+00-1.76987E-14-5.60788E-14
 -1      2327 2.24169E+01-6.24944E-02-1.71070E-02 1.61781E+00 2.97752E-14-7.65759E-14
 -1      2328 2.26564E+01 6.22307E-01 6.71030E-03 1.69104E+00-2.28931E-14 2.21830E-14
 -1      2329 2.25246E+01-3.46367E-01 3.22369E-03 1.48091E+00 8.64373E-14-1.83146E-13
 -1      2330 2.26644E+01-5.66605E-01-1.09893E-02 1.30848E+00 1.22715E-13-4.59372E-14
 -1      2331 2.29326E+01-2.59610E-01 1.08093E-02 1.67085E+00 2.04392E-14 7.44543E-14
 -1      2332 2.26121E+01-6.94863E-01-9.59796E-03 1.01286E+00 5.62662E-14-2.16691E-14
 -1      2333 2.26741E+01-7.50366E-01-2.69128E-03 7.55023E-01-4.73694E-14 1.39254E-13
 -1      2334 2.29467E+01-8.18449E-01 6.67443E-03 1.18307E+00 1.06695E-13 5.15526E-14
 -1      2335 2.25102E+01-7.45645E-01-1.43358E-02 4.42330E-01-1.30212E-13 3.84663E-13
 -1      2336 2.24946E+01-6.89300E-01 3.03724E-03 1.91230E-01-1.69224E-13 3.44811E-13
 -1      2337 2.27149E+01-9.73975E-01 2.32223E-03 5.35838E-01 4.36729E-14 1.32857E-13
 -1      2338 2.22852E+01-6.11567E-01-1.37148E-02-5.94885E-02-1.97544E-13 3.86707E-13
 -1      2339 2.22103E+01-5.08664E-01 4.85674E-03-2.53740E-01-2.60278E-14 4.01871E-13
 -1      2340 2.23492E+01-8.51854E-01-2.07850E-03-4.72028E-02-1.26179E-13 4.16088E-13
 -1      2341 2.20042E+01-4.11100E-01-1.04222E-02-4.18451E-01 6.67290E-14 3.07322E-13
 -1      2342 2.18923E+01-3.07407E-01 4.58770E-03-5.42521E-01 3.09600E-14 1.96691E-13
 -1      2343 2.19547E+01-6.05161E-01-4.03073E-03-4.68063E-01-1.04750E-13 4.59134E-13
 -1      2344 2.17119E+01-2.20657E-01-6.51762E-03-6.28904E-01 1.89126E-14 1.60814E-13
 -1      2345 2.15819E+01-1.37864E-01 3.53918E-03-6.90445E-01 5.20185E-14 2.75353E-13
 -1      2346 2.15913E+01-3.49757E-01-4.18828E-03-7.17652E-01 3.72175E-14 2.48743E-13
 -1      2347 2.14325E+01-7.34778E-02-3.10308E-03-7.17555E-01-5.02442E-14 2.39437E-13
 -1      2348 2.12984E+01-1.67973E-02 2.44930E-03-7.32270E-01-5.69047E-14 1.86337E-13
 -1      2349 2.12802E+01-1.42085E-01-3.54721E-03-8.26654E-01-6.67679E-15 1.95848E-13
 -1      2350 2.11775E+01 2.47910E-02-5.67834E-04-7.20008E-01-7.65511E-14 8.79311E-14
 -1      2351 2.10487E+01 5.83858E-02 1.58314E-03-7.04102E-01-9.16328E-14-5.59842E-14
 -1      2352 2.10223E+01 2.50659E-03-2.78201E-03-8.35820E-01-9.53716E-14-1.57284E-13
 -1      2353 2.09513E+01 8.14855E-02 1.08574E-03-6.68907E-01 1.22728E-13-7.91417E-14
 -1      2354 2.08335E+01 9.77712E-02 9.83093E-04-6.35749E-01 1.12355E-13 5.01214E-14
 -1      2355 2.08108E+01 9.00401E-02-2.16457E-03-7.82229E-01-6.69085E-14-7.23692E-14
 -1      2356 2.07550E+01 1.07736E-01 2.01818E-03-5.89628E-01-5.58805E-14 1.24635E-13
 -1      2357 2.06512E+01 1.12452E-01 6.05700E-04-5.48900E-01-8.23758E-14 2.72608E-13
 -1      2358 2.06376E+01 1.34104E-01-1.73127E-03-6.94684E-01 9.84060E-14 1.87556E-13
 -1      2359 2.05879E+01 1.14024E-01 2.42450E-03-4.99850E-01-5.30906E-14 3.89378E-13
 -1      2360 2.04992E+01 1.11818E-01 3.88034E-04-4.57866E-01 6.28550E-14 4.66771E-13
 -1      2361 2.04959E+01 1.48676E-01-1.43688E-03-5.93435E-01 6.26418E-14 4.86836E-13
 -1      2362 2.04482E+01 1.08633E-01 2.47889E-03-4.10728E-01 5.00168E-14 4.28080E-13
 -1      2363 2.03744E+01 1.02898E-01 2.77216E-04-3.71153E-01 4.94115E-14 3.67114E-13
 -1      2364 2.03803E+01 1.45299E-01-1.22651E-03-4.91512E-01 7.07062E-15 5.72144E-13
 -1      2365 2.03334E+01 9.75285E-02 2.31805E-03-3.28467E-01 8.72645E-14 2.59689E-13
 -1      2366 2.02735E+01 9.05817E-02 2.36752E-04-2.93057E-01 1.19914E-13 3.23847E-13
 -1      2367 2.02864E+01 1.32506E-01-1.05810E-03-3.96441E-01 5.16047E-14 4.74292E-13
 -1      2368 2.02407E+01 8.47549E-02 2.03996E-03-2.55774E-01-1.01521E-13 2.64239E-13
 -1      2369 2.01931E+01 7.80890E-02 2.37194E-04-2.24987E-01-1.00682E-13 1.90615E-13
 -1      2370 2.02108E+01 1.16192E-01-9.03851E-04-3.11813E-01-5.72021E-14 3.68234E-13
 -1      2371 2.01670E+01 7.28614E-02 1.70496E-03-1.93042E-01-1.22243E-13 8.24915E-14
 -1      2372 2.01301E+01 6.73697E-02 2.72653E-04-1.66585E-01-2.37378E-13 9.04124E-14
 -1      2373 2.01502E+01 1.00147E-01-7.53720E-04-2.38549E-01-2.31139E-13 1.35770E-13
 -1      2374 2.01091E+01 6.31279E-02 1.30809E-03-1.39295E-01-3.28021E-13-9.04209E-14
 -1      2375 2.00818E+01 5.93465E-02 4.72641E-04-1.16575E-01-2.18758E-13-1.51151E-13
 -1      2376 2.01019E+01 8.66611E-02-5.76157E-04-1.75983E-01-3.14244E-13-2.44732E-14
 -1      2377 1.12423E+01-4.26843E+00 7.05662E-02 6.50574E+00-1.27537E-13-1.05194E-13
 -1      2378 8.51690E+00-3.50508E+00 1.65733E-01 5.33350E+00-1.21236E-13-2.83024E-13
 -1      2379 1.96541E+01 8.72456E-02 2.71818E-03-1.03627E-01-3.68629E-17-1.01161E-13
 -1      2380 1.96709E+01 1.16407E-01 7.05451E-03-5.11844E-02 3.73367E-15-7.67887E-14
 -1      2381 1.96553E+01 5.13799E-02 2.22511E-03-1.87421E-01 1.45518E-14-1.38529E-13
 -1      2382 1.96371E+01 6.69740E-02 3.88414E-03-1.56035E-01 3.24773E-16-1.12864E-13
 -1      2383 1.98041E+01 1.12414E-01-3.56641E-03-1.23304E-01 1.85966E-14-1.38358E-13
 -1      2384 1.97019E+01 3.40008E-02 2.06025E-03-2.40768E-01 3.64534E-14-1.26005E-13
 -1      2385 1.96605E+01 4.09982E-02 2.08629E-03-2.20347E-01 2.16213E-14-1.43664E-13
 -1      2386 1.97929E+01 6.73464E-02-2.78169E-03-2.19387E-01 2.85239E-14-1.45566E-13
 -1      2387 1.97814E+01 2.90826E-02 2.11493E-03-2.79931E-01 6.90697E-14-8.00331E-14
 -1      2388 1.97235E+01 3.01376E-02 1.06397E-03-2.63881E-01 6.12724E-14-8.99627E-14
 -1      2389 1.98209E+01 4.65769E-02-2.13912E-03-2.83392E-01 2.82467E-14-1.56336E-13
 -1      2390 1.98872E+01 3.32753E-02 2.35037E-03-3.16355E-01 2.80785E-14-8.54850E-14
 -1      2391 1.98158E+01 2.98959E-02 4.96133E-04-2.99991E-01 6.07464E-14-7.45333E-14
 -1      2392 1.98782E+01 4.23542E-02-1.70911E-03-3.32922E-01 5.49941E-14-1.04776E-13
 -1      2393 2.00167E+01 4.45642E-02 2.74665E-03-3.58578E-01 1.16741E-13-1.21224E-13
 -1      2394 1.99322E+01 3.76731E-02 2.13056E-04-3.38346E-01 5.64467E-14-9.45842E-14
 -1      2395 1.99591E+01 5.03076E-02-1.46694E-03-3.80644E-01 7.40910E-14-1.51143E-13
 -1      2396 2.01710E+01 6.15787E-02 3.28089E-03-4.13229E-01 1.32709E-13-1.61958E-13
 -1      2397 2.00719E+01 5.18275E-02 1.12483E-04-3.86325E-01 1.54889E-13-1.33781E-13
 -1      2398 2.00610E+01 6.77557E-02-1.36791E-03-4.36080E-01 1.47496E-13-1.66526E-13
 -1      2399 2.03533E+01 8.30862E-02 3.91319E-03-4.85462E-01 1.32256E-13-1.83151E-13
 -1      2400 2.02368E+01 7.11143E-02 1.25957E-04-4.49705E-01 1.15776E-13-1.55527E-13
 -1      2401 2.01838E+01 9.27757E-02-1.36940E-03-5.06579E-01 1.09183E-13-1.09079E-13
 -1      2402 2.05686E+01 1.07433E-01 4.56924E-03-5.78881E-01 3.30478E-14-1.55412E-13
 -1      2403 2.04309E+01 9.41781E-02 2.05300E-04-5.32834E-01 1.16043E-13-1.65399E-13
 -1      2404 2.03292E+01 1.23465E-01-1.43751E-03-5.97693E-01 1.07086E-13-9.14754E-14
 -1      2405 2.08223E+01 1.31753E-01 5.11448E-03-6.94866E-01 2.44341E-14-1.06499E-13
 -1      2406 2.06596E+01 1.18906E-01 3.18597E-04-6.38277E-01 3.35732E-14-1.34435E-13
 -1      2407 2.05001E+01 1.57084E-01-1.55272E-03-7.12992E-01 3.36595E-14-8.24584E-14
 -1      2408 2.11204E+01 1.50747E-01 5.31871E-03-8.31064E-01 1.25815E-14-1.40249E-13
 -1      2409 2.09293E+01 1.41459E-01 4.54553E-04-7.65773E-01 8.08490E-16-1.55457E-13
 -1      2410 2.07004E+01 1.88822E-01-1.72420E-03-8.53215E-01 1.88957E-14-1.22897E-13
 -1      2411 2.14677E+01 1.54895E-01 4.81687E-03-9.78663E-01 9.69088E-14-1.22375E-13
 -1      2412 2.12463E+01 1.54786E-01 6.37466E-04-9.10183E-01 6.87740E-14-1.11706E-13
 -1      2413 2.09349E+01 2.09937E-01-2.01557E-03-1.01450E+00 2.19834E-14-1.54001E-13
 -1      2414 2.18672E+01 1.28181E-01 3.08662E-03-1.11810E+00 6.66054E-14-8.01411E-14
 -1      2415 2.16171E+01 1.46562E-01 9.55355E-04-1.05803E+00 1.23546E-13-7.17697E-14
 -1      2416 2.12103E+01 2.05141E-01-2.58219E-03-1.18534E+00 6.38865E-14-7.62275E-15
 -1      2417 2.23199E+01 4.63385E-02-5.08857E-04-1.21319E+00-1.33081E-13-8.07492E-14
 -1      2418 2.20478E+01 9.69354E-02 1.59351E-03-1.18226E+00-4.17247E-14-6.88454E-14
 -1      2419 2.15367E+01 1.49635E-01-3.70069E-03-1.34195E+00-5.47662E-14 9.01800E-14
 -1      2420 2.28235E+01-1.21274E-01-6.53663E-03-1.20497E+00-2.08984E-13-9.48378E-14
 -1      2421 2.25439E+01-2.21005E-02 2.82825E-03-1.23560E+00-2.04245E-13-9.26195E-14
 -1      2422 2.19308E+01 7.72521E-03-5.72547E-03-1.44192E+00-1.73338E-13 3.99771E-14
 -1      2423 2.33690E+01-3.98680E-01-1.48746E-02-1.00984E+00-4.76980E-14-1.60627E-13
 -1      2424 2.31077E+01-2.40899E-01 4.81834E-03-1.14470E+00-1.04271E-13-1.27050E-13
 -1      2425 2.24183E+01-2.61449E-01-8.83199E-03-1.41733E+00-1.22037E-13-6.04937E-14
 -1      2426 2.39305E+01-7.66092E-01-2.33572E-02-5.33562E-01 1.09912E-13-1.59057E-13
 -1      2427 2.37284E+01-5.69185E-01 7.34287E-03-8.12603E-01 2.77981E-14-1.65617E-13
 -1      2428 2.30308E+01-6.79693E-01-1.21272E-02-1.17168E+00 1.37446E-14-2.23389E-13
 -1      2429 2.44431E+01-1.10541E+00-2.85449E-02 2.72242E-01 8.09457E-14-2.93777E-14
 -1      2430 2.43524E+01-9.46401E-01 7.13871E-03-1.53143E-01 1.31229E-13-6.46644E-14
 -1      2431 2.37795E+01-1.18394E+00-1.14705E-02-5.96339E-01 6.59672E-14-1.77587E-13
 -1      2432 2.47741E+01-1.12968E+00-2.22624E-02 1.32216E+00-1.50192E-14-2.31083E-14
 -1      2433 2.48555E+01-1.18361E+00-1.57834E-03 8.36777E-01 4.72357E-14-4.76696E-14
 -1      2434 2.46050E+01-1.57246E+00-8.82929E-03 3.68048E-01 8.76890E-14-8.47888E-14
 -1      2435 2.47472E+01-4.95903E-01-9.02296E-04 2.20090E+00-6.06451E-14-1.84478E-13
 -1      2436 2.49973E+01-9.15850E-01-2.37671E-02 1.89327E+00-8.50804E-14-5.42687E-14
 -1      2437 2.52801E+01-1.37832E+00 3.05391E-03 1.58483E+00-3.17450E-14-7.28324E-14
 -1      2438 2.43011E+01 7.93426E-01 1.13128E-02 2.24444E+00-2.01575E-14-2.07679E-13
 -1      2439 2.46267E+01 8.77663E-02-5.36131E-02 2.41149E+00-1.18829E-14-2.07250E-13
 -1      2440 2.54767E+01-2.52473E-01-3.78558E-03 2.51699E+00-2.18922E-14-2.37655E-13
 -1      2441 2.37535E+01 1.91941E+00-2.25047E-02 1.05186E+00-3.25226E-14-9.69719E-14
 -1      2442 2.39723E+01 1.42010E+00-7.02576E-02 1.72089E+00-7.52523E-15-1.01674E-13
 -1      2443 2.51167E+01 1.46895E+00-1.44124E-02 2.30026E+00-6.34631E-14-8.83998E-14
 -1      2444 2.37404E+01 1.94835E+00-4.63381E-02-8.72433E-01-6.21760E-14-8.27862E-14
 -1      2445 2.36815E+01 2.13372E+00-2.45032E-02-4.57029E-02-5.75373E-14-1.13130E-13
 -1      2446 2.47510E+01 2.74930E+00-3.08844E-02 5.93308E-01-4.27991E-14-7.27335E-14
 -1      2447 2.42925E+01 8.14965E-01-5.65100E-02-2.21577E+00-6.52187E-14 8.34402E-15
 -1      2448 2.40027E+01 1.48588E+00 1.22274E-02-1.76178E+00-6.79283E-14 4.36851E-14
 -1      2449 2.49134E+01 2.38898E+00-3.31485E-02-1.52274E+00-1.64646E-13-9.46548E-14
 -1      2450 2.48641E+01-4.65229E-01-3.78132E-02-2.28320E+00-4.62391E-14 1.05270E-13
 -1      2451 2.45472E+01 1.30084E-01 6.57666E-03-2.36850E+00-4.30454E-14 6.45031E-14
 -1      2452 2.53483E+01 6.60307E-01-1.45209E-02-2.55986E+00-7.88605E-14-4.38677E-14
 -1      2453 2.49972E+01-1.11514E+00-9.14443E-03-1.42799E+00-1.17710E-13-3.39908E-14
 -1      2454 2.48146E+01-8.88136E-01-1.39016E-02-1.84598E+00-4.39874E-14 3.90920E-14
 -1      2455 2.54608E+01-8.96261E-01 3.94980E-03-2.16598E+00-7.07420E-15-1.39604E-13
 -1      2456 2.46615E+01-1.10371E+00 7.51917E-03-3.54252E-01 9.30193E-14-2.31793E-13
 -1      2457 2.46576E+01-1.17463E+00-2.61818E-02-8.17929E-01-1.25807E-13-9.80793E-14
 -1      2458 2.50081E+01-1.56288E+00-1.13841E-03-1.01006E+00-8.23005E-14-1.84106E-13
 -1      2459 2.40785E+01-7.69154E-01 9.19712E-03 4.94383E-01 1.90789E-13-1.39862E-13
 -1      2460 2.42244E+01-9.59134E-01-2.57009E-02 1.44491E-01 2.08727E-13-1.26659E-13
 -1      2461 2.42263E+01-1.43463E+00-1.21354E-02 1.20427E-01 1.06052E-13-1.46889E-13
 -1      2462 2.34469E+01-3.98821E-01 6.45876E-03 9.91313E-01 1.92052E-13 4.15779E-14
 -1      2463 2.36804E+01-5.80017E-01-1.82531E-02 7.91356E-01 1.11273E-13-8.36189E-14
 -1      2464 2.34204E+01-9.44927E-01-1.38013E-02 9.04786E-01 6.21191E-14-5.40620E-14
 -1      2465 2.28565E+01-1.20053E-01 3.65426E-03 1.19418E+00 2.70592E-13 1.59415E-13
 -1      2466 2.31271E+01-2.46974E-01-9.67707E-03 1.11765E+00 2.60197E-13 1.17604E-13
 -1      2467 2.27398E+01-4.59156E-01-1.08679E-02 1.30581E+00 1.98514E-13 8.26188E-14
 -1      2468 2.23330E+01 4.98263E-02 1.89467E-03 1.20188E+00 1.76548E-13 1.93821E-13
 -1      2469 2.26068E+01-2.31369E-02-2.94040E-03 1.20659E+00 3.05347E-13 2.05236E-13
 -1      2470 2.21967E+01-1.08747E-01-7.25495E-03 1.42817E+00 2.62559E-13 2.23193E-13
 -1      2471 2.18798E+01 1.34314E-01 1.03440E-03 1.10075E+00 3.12288E-14 2.13014E-13
 -1      2472 2.21362E+01 1.00852E-01 1.51675E-03 1.14975E+00 9.77644E-14 1.23544E-13
 -1      2473 2.17648E+01 9.85865E-02-4.46990E-03 1.37654E+00 1.64329E-13 9.29604E-14
 -1      2474 2.14930E+01 1.63798E-01 7.08229E-04 9.51520E-01-1.52494E-13-4.77698E-14
 -1      2475 2.17211E+01 1.54666E-01 3.94762E-03 1.01914E+00-6.54878E-14 1.81438E-13
 -1      2476 2.14151E+01 1.97708E-01-2.83112E-03 1.23371E+00 6.32732E-14 7.13679E-14
 -1      2477 2.11674E+01 1.62483E-01 6.22881E-04 7.91153E-01-3.81793E-13 8.92529E-14
 -1      2478 2.13628E+01 1.66423E-01 4.94474E-03 8.61946E-01-1.90269E-13 2.21843E-14
 -1      2479 2.11268E+01 2.28590E-01-2.01409E-03 1.05472E+00-1.82002E-13 2.78173E-13
 -1      2480 2.08972E+01 1.46340E-01 6.17337E-04 6.39569E-01-4.64405E-13-9.74798E-14
 -1      2481 2.10597E+01 1.56199E-01 5.05148E-03 7.05431E-01-5.32083E-13-9.39896E-14
 -1      2482 2.08871E+01 2.21949E-01-1.64372E-03 8.72209E-01-3.94990E-13 1.74514E-13
 -1      2483 2.06764E+01 1.24792E-01 6.22451E-04 5.05849E-01-9.85134E-14 5.58265E-14
 -1      2484 2.08084E+01 1.36459E-01 4.67294E-03 5.63286E-01-2.98596E-13 4.34382E-14
 -1      2485 2.06882E+01 1.97730E-01-1.46498E-03 7.03424E-01-4.30223E-13-2.50012E-13
 -1      2486 2.04987E+01 1.02948E-01 6.18336E-04 3.92731E-01-9.09551E-14 4.44203E-14
 -1      2487 2.06038E+01 1.14245E-01 4.07564E-03 4.40901E-01-1.29957E-14 8.12095E-14
 -1      2488 2.05245E+01 1.67599E-01-1.34351E-03 5.55919E-01-1.62510E-13-3.05402E-14
 -1      2489 2.03580E+01 8.33729E-02 6.07948E-04 2.99500E-01 2.15112E-13-3.50414E-16
 -1      2490 2.04401E+01 9.32300E-02 3.41792E-03 3.38972E-01-2.01574E-14-1.23031E-15
 -1      2491 2.03913E+01 1.37834E-01-1.22358E-03 4.31548E-01-1.62923E-14-4.98119E-14
 -1      2492 2.02484E+01 6.72538E-02 5.93809E-04 2.23685E-01 3.31966E-13 1.80854E-13
 -1      2493 2.03113E+01 7.51997E-02 2.78125E-03 2.55731E-01 3.45898E-13 8.30441E-14
 -1      2494 2.02846E+01 1.11588E-01-1.08544E-03 3.29044E-01 1.29957E-13 7.55871E-14
 -1      2495 2.01646E+01 5.50239E-02 6.03769E-04 1.62068E-01 3.18403E-13 3.49779E-13
 -1      2496 2.02117E+01 6.09174E-02 2.20947E-03 1.88232E-01 2.96358E-13 4.11387E-13
 -1      2497 2.02002E+01 9.02282E-02-9.36576E-04 2.45521E-01 2.00512E-13 4.26855E-13
 -1      2498 2.01017E+01 4.63282E-02 5.38959E-04 1.11198E-01 4.17689E-13 2.08588E-13
 -1      2499 2.01359E+01 5.05135E-02 1.70139E-03 1.33047E-01 4.16462E-13 2.93981E-13
 -1      2500 2.01342E+01 7.41513E-02-8.14393E-04 1.77668E-01 4.47002E-13 5.74939E-13
 -1      2501 2.00553E+01 4.02464E-02 4.87339E-04 6.88970E-02 1.71360E-13-9.02778E-14
 -1      2502 2.00796E+01 4.31771E-02 1.29484E-03 8.73587E-02 3.51576E-13-8.22804E-14
 -1      2503 2.00832E+01 6.19622E-02-9.16428E-04 1.21564E-01 5.30689E-13 2.07273E-13
 -1      2504 2.00378E+01 3.60178E-02 7.85298E-04 4.78055E-02-7.20451E-14-2.20332E-13
 -1      2505 1.99733E+01 2.15192E-01-1.04332E-03 1.01245E-01 9.48899E-14 3.86059E-13
 -1      2506 1.99842E+01 1.96234E-01 3.04297E-04 1.09441E-01 7.88156E-14-9.24339E-14
 -1      2507 1.99564E+01 2.48406E-01-1.04810E-03 7.17679E-02 7.78065E-14 3.20355E-13
 -1      2508 1.99643E+01 2.34575E-01-6.65533E-05 8.65807E-02 1.94543E-15 3.41518E-13
 -1      2509 1.99590E+01 2.38747E-01 7.42679E-04 1.09810E-01 1.50441E-13 2.44765E-13
 -1      2510 2.00185E+01 1.23912E-01-6.77893E-04 1.11202E-01 1.61768E-13 4.55428E-13
 -1      2511 2.00298E+01 1.02349E-01 8.27721E-04 1.03923E-01 2.88319E-13 1.65562E-13
 -1      2512 1.99952E+01 1.71910E-01-8.99982E-04 1.15216E-01-3.70762E-14-4.07515E-15
 -1      2513 2.00074E+01 1.50626E-01 6.35625E-04 1.15513E-01 8.39253E-15 4.92963E-13
 -1      2514 2.00179E+01 1.47285E-01 5.94494E-04 1.35094E-01 2.37955E-13 2.98320E-13
 -1      2515 1.99867E+01 1.96658E-01 6.31519E-04 1.32326E-01 1.67917E-13 1.48938E-13
 -1      2516 1.99468E+01 2.67449E-01-9.17196E-04 3.17671E-02-5.77478E-14 2.10228E-13
 -1      2517 1.99508E+01 2.60401E-01-4.47103E-04 5.07679E-02 1.32620E-14 1.31369E-13
 -1      2518 1.99392E+01 2.68970E-01 9.67064E-04 7.12515E-02 1.51614E-13 1.10495E-13
 -1      2519 1.99456E+01 2.70150E-01-6.74967E-04-1.25867E-02-2.63814E-13 2.30182E-13
 -1      2520 1.99452E+01 2.70743E-01-7.65983E-04 7.63159E-03-4.08159E-13 2.59978E-13
 -1      2521 1.99293E+01 2.83655E-01 1.04837E-03 2.25996E-02-7.55590E-14-3.31007E-14
 -1      2522 1.99526E+01 2.56419E-01-3.59960E-04-5.46961E-02-1.04588E-13 1.39283E-13
 -1      2523 1.99480E+01 2.64541E-01-9.65123E-04-3.63011E-02-2.55208E-13 4.60224E-13
 -1      2524 1.99303E+01 2.81374E-01 1.01041E-03-2.88774E-02-1.83964E-13 3.56729E-13
 -1      2525 1.99666E+01 2.28787E-01 9.97072E-06-8.79710E-02 1.01833E-13-1.91903E-13
 -1      2526 1.99586E+01 2.42960E-01-1.04265E-03-7.42876E-02 6.14654E-14-1.08436E-13
 -1      2527 1.99418E+01 2.62918E-01 8.87276E-04-7.54602E-02-4.15404E-15 6.52218E-14
 -1      2528 1.99861E+01 1.89670E-01 3.54383E-04-1.08666E-01 2.31262E-13 3.76791E-13
 -1      2529 1.99755E+01 2.08641E-01-9.93707E-04-1.01335E-01 1.10261E-13-6.00410E-14
 -1      2530 1.99620E+01 2.30521E-01 6.46316E-04-1.11049E-01 5.92698E-14-1.08999E-13
 -1      2531 2.00083E+01 1.43834E-01 5.70425E-04-1.12977E-01 1.74668E-13 3.87818E-13
 -1      2532 1.99969E+01 1.65320E-01-7.77288E-04-1.13538E-01 1.63888E-13 4.59580E-13
 -1      2533 1.99884E+01 1.87555E-01 3.40105E-04-1.30837E-01-1.80539E-14 3.59192E-13
 -1      2534 2.00292E+01 9.67050E-02 6.86919E-04-1.00389E-01-1.83696E-13-2.61399E-13
 -1      2535 2.00191E+01 1.18288E-01-4.48133E-04-1.08678E-01-2.02710E-14 9.31004E-16
 -1      2536 2.00166E+01 1.38626E-01-1.30533E-04-1.31641E-01-9.42131E-14 2.93754E-14
 -1      2537 2.00339E+01 5.58571E-02 6.61625E-04-6.43826E-02 6.53920E-14-2.82923E-13
 -1      2538 2.58214E+01-4.49797E+00-3.60007E-02 4.15943E+00-5.80092E-15 5.66214E-14
 -1      2539 2.24419E+01-5.36613E+00-1.43791E-03 5.05786E+00-1.69864E-14-1.80689E-14
 -1      2540 1.97177E+01 1.53397E-01 3.72940E-03 3.52600E-02 9.41196E-15-5.81345E-14
 -1      2541 1.97889E+01 2.06273E-01 1.24794E-02 1.25780E-01 7.04814E-14-5.35951E-14
 -1      2542 1.98685E+01 1.96624E-01-4.16043E-03 3.06268E-02 3.82286E-14-1.03792E-13
 -1      2543 1.86895E+01-5.48660E+00-1.01800E-04 6.46519E+00 2.06501E-14-1.27193E-13
 -1      2544 1.45184E+01-5.28960E+00 3.79162E-02 6.53410E+00-1.27787E-13-1.41595E-13
 -1      2545 6.84742E+00-3.77878E+00 5.33724E-02-5.24113E+00 4.66294E-14 4.37095E-13
 -1      2546 1.03240E+01-4.13162E+00 5.01636E-02-6.58005E+00 2.86993E-14 3.38785E-13
 -1      2547 3.83524E+00-2.51819E+00 1.06497E-01-2.16428E+00-1.24942E-13 4.15057E-13
 -1      2548 4.95655E+00-3.11502E+00 7.67400E-02-4.06120E+00-2.21489E-14 4.92606E-13
 -1      2549 7.95811E+00-2.46047E+00 1.62133E-01-4.77410E+00-1.00447E-13 4.41508E-13
 -1      2550 2.77711E+01-2.93198E+00-4.86478E-02 3.19145E+00 7.84373E-14 5.43177E-13
 -1      2551 2.47648E+01-4.34257E+00 9.25698E-03 4.19793E+00 1.29952E-13 3.75755E-13
 -1      2552 3.28853E+00-2.50991E+00 8.73877E-02 8.92523E-01-2.97679E-14-9.43690E-14
 -1      2553 3.50648E+00-2.81278E+00 6.08526E-02-1.87098E+00-1.21556E-13-4.75175E-14
 -1      2554 3.20060E+01 6.82013E+00-1.48151E-01 6.83260E-01 4.67959E-14 5.16531E-14
 -1      2555 3.22080E+01 6.94891E+00-1.65160E-01-2.46001E-01-3.14193E-14-3.76504E-14
 -1      2556 1.95333E+01 3.60663E+00-1.01482E-02-2.42084E-01-6.57171E-14-2.10713E-13
 -1      2557 1.95492E+01 3.58528E+00-9.63325E-03-4.20903E-01-8.73895E-14-1.93573E-13
 -1      2558 1.97241E+01 3.18881E+00-3.79305E-04-4.66068E-01-8.32100E-14-1.71793E-13
 -1      2559 1.96898E+01 3.25089E+00-7.18189E-04-1.49612E-01-6.01188E-14-1.99583E-13
 -1      2560 3.17676E+01 3.43039E+00-1.01179E-01 1.55777E+00 5.58997E-14 2.02310E-13
 -1      2561 3.22752E+01 5.45564E+00-1.78625E-01 1.30396E+00 1.62537E-13 9.50906E-14
 -1      2562 3.28846E+01 6.52704E+00-1.59327E-01-8.38558E-01 5.93969E-15-6.89310E-14
 -1      2563 3.28033E+01 5.47094E+00-8.11224E-02-1.33474E+00-4.00791E-14 1.36280E-14
 -1      2564 1.93722E+01-5.65675E+00 2.04054E-03-5.91771E+00-1.29396E-13 1.12174E-13
 -1      2565 2.31823E+01-5.27791E+00-6.44434E-02-5.15278E+00-6.03129E-14 2.50605E-13
 -1      2566 3.06184E+01-1.09435E+00-6.54504E-02 1.26313E-03 5.53134E-14 2.65343E-13
 -1      2567 3.12665E+01 5.33396E-01-1.88941E-01 8.44291E-01 2.84772E-14 3.08781E-13
 -1      2568 2.11821E+01-5.21820E+00-4.73526E-02 6.08258E+00 1.31839E-13 1.59345E-13
 -1      2569 1.75990E+01-5.33638E+00 7.67152E-02 6.53978E+00 1.03667E-13-4.25354E-14
 -1      2570 2.64410E+01-4.40114E+00-2.67070E-02-3.15424E+00-5.32907E-14 2.23516E-13
 -1      2571 2.92602E+01-2.83102E+00-1.03189E-01-1.74017E+00-1.20876E-14 1.73916E-13
 -1      2572 2.91357E+01-2.68362E+00-2.21871E-02-1.56256E-01 6.14196E-14 1.58262E-13
 -1      2573 1.20698E+01-4.89057E+00 5.78298E-02-6.42537E+00-1.85629E-13 1.05194E-14
 -1      2574 1.59131E+01-5.32773E+00 1.23255E-02-6.80166E+00-1.87128E-13-2.15522E-14
 -1      2575 1.92141E+01-5.30418E+00 1.02408E-01-5.91423E+00-2.31620E-13 9.42475E-14
 -1      2576 5.63904E+00-3.14597E+00 1.09195E-01-3.88894E+00-2.28956E-13-9.22040E-14
 -1      2577 8.29513E+00-3.65758E+00 7.26562E-02-5.68738E+00-2.35451E-13-6.15896E-14
 -1      2578 5.96517E+00-3.51427E+00 3.16616E-02 5.06563E+00 9.87543E-14-1.36557E-13
 -1      2579 4.23966E+00-3.04159E+00 8.13150E-02 3.26052E+00 1.30160E-13-2.20102E-13
 -1      2580 3.32601E+01 7.66022E+00-5.23268E-02-2.28207E-02-1.98286E-13 1.95169E-13
 -1      2581 3.23520E+01 7.12022E+00-1.53553E-01-4.51682E-01-4.51861E-14 1.37446E-13
 -1      2582 1.31670E+01-4.87038E+00-9.22002E-03 7.12651E+00 1.92735E-13-2.10942E-13
 -1      2583 9.22510E+00-4.29836E+00 8.14992E-02 6.20242E+00 1.53683E-13-1.69920E-13
 -1      2584 3.08771E+01 5.89506E-01-1.12960E-01 6.21553E-01 6.38378E-16 4.11005E-13
 -1      2585 2.92692E+01-1.30526E+00-6.20246E-02 1.70655E+00 1.60566E-14 5.15643E-13
 -1      2586 2.83518E+01-2.67427E+00 1.52945E-02 1.37797E+00 1.22107E-13 5.46063E-13
 -1      2587 3.18680E+01 6.16507E+00-1.21575E-01 8.04757E-01-1.87461E-13 2.21489E-13
 -1      2588 3.30734E+01 7.32551E+00-3.86017E-02 4.05530E-01-1.73916E-13 2.47052E-13
 -1      2589 3.05495E+01 7.18930E+00-5.98989E-02 3.72286E-01-1.71585E-13 2.80026E-13
 -1      2590 3.13183E+01 1.96595E+00-6.66371E-02 2.26930E-01-2.10026E-13-4.27436E-15
 -1      2591 3.15481E+01 3.84358E+00-1.76912E-01 9.65780E-01-2.49301E-13 1.29924E-13
 -1      2592 2.85857E+01-1.88222E+00-4.36767E-02-2.18681E+00-7.00828E-14-7.83817E-14
 -1      2593 3.06951E+01-3.28582E-02-1.06263E-01-1.03542E+00-1.39125E-13-9.73110E-14
 -1      2594 2.99993E+01 4.64863E-01-7.24087E-03 5.75991E-01-1.48104E-13 4.52416E-14
 -1      2595 2.33990E+01-4.76862E+00 2.19885E-02-4.83068E+00 1.01114E-13-7.30527E-14
 -1      2596 2.64699E+01-3.70029E+00-5.26302E-02-3.93700E+00-1.19627E-14-1.25067E-13
 -1      2597 1.51196E+01-5.06228E+00 8.61888E-02-6.82158E+00 5.21805E-15 2.47788E-14
 -1      2598 1.94642E+01-5.21787E+00-3.86540E-03-6.55089E+00 4.73788E-14 4.42806E-14
 -1      2599 2.05412E+01 1.95714E+00-1.35751E-02-1.88902E+00-1.99139E-13 1.06717E-13
 -1      2600 2.04054E+01 1.21790E+00-7.07834E-03-1.27659E+00-1.75648E-13 1.06035E-13
 -1      2601 2.03813E+01 1.38612E+00 7.01547E-03-1.22343E+00-1.68599E-13 4.81273E-14
 -1      2602 2.02887E+01 2.38807E+00-4.89654E-03-1.83205E+00-2.06217E-13 4.31721E-14
 -1      2603 2.04772E+01 8.76460E-01-7.13550E-03 1.21942E+00 1.67928E-13-2.45630E-14
 -1      2604 2.08253E+01 1.25748E+00-5.98475E-03 1.72070E+00 1.80099E-13-4.05058E-15
 -1      2605 2.06354E+01 1.71623E+00-1.57957E-02 1.91385E+00 1.91379E-13-6.35290E-14
 -1      2606 2.04426E+01 1.06107E+00-9.47865E-03 1.23108E+00 1.62980E-13-7.98874E-14
 -1      2607 3.01576E+01-1.93871E+00-1.34576E-01 1.45921E+00-6.58154E-14-1.33726E-13
 -1      2608 2.79532E+01-3.41975E+00-3.68479E-02 2.59133E+00-9.38694E-14-6.06737E-14
 -1      2609 2.71454E+01-4.41143E+00 4.22427E-02 2.52702E+00 2.77556E-15-1.22902E-13
 -1      2610 3.00875E+01 5.54876E+00-6.15806E-02 1.35829E+00 2.36755E-14 1.42941E-14
 -1      2611 1.99240E+01 2.83188E+00 2.65448E-03-1.08519E+00-1.46662E-13-1.14320E-13
 -1      2612 1.97931E+01 3.17122E+00-1.46434E-02-1.27274E+00-1.58264E-13-1.15389E-13
 -1      2613 1.98856E+01 3.04589E+00-1.74298E-02-1.47134E+00-1.76389E-13-9.08171E-14
 -1      2614 2.00023E+01 3.50539E-01-3.80015E-03 2.81664E-01 9.54154E-14-8.23668E-14
 -1      2615 2.04176E+01 2.11752E+00-1.27106E-02 1.86570E+00 1.68911E-13-1.25738E-13
 -1      2616 3.03042E+01-1.15795E+00-1.64771E-02-3.77723E-01-6.85077E-14-2.26291E-13
 -1      2617 2.01165E+01 2.62637E+00-1.17075E-02-1.66751E+00-1.87730E-13-1.45196E-14
 -1      2618 1.38025E+01-4.40854E+00 8.66330E-02-6.71179E+00 5.22082E-14 1.21320E-13
 -1      2619 1.69249E+01-4.41298E+00 3.53689E-02-6.24804E+00 5.84255E-14-6.78624E-14
 -1      2620 1.28010E+01-3.24290E+00 1.51737E-01-6.26223E+00 5.16670E-14 2.68979E-13
 -1      2621 2.77916E+01-3.17411E+00 1.62894E-02-1.90920E+00 3.46945E-14-1.71113E-13
 -1      2622 8.05898E+00-2.40345E+00 1.66719E-01 4.34601E+00-1.31561E-13-2.88852E-13
 -1      2623 2.17112E+01-5.47761E+00 7.18891E-02 5.20634E+00 5.62606E-14 8.32528E-14
 -1      2624 1.48064E+01-4.30440E+00 1.01044E-01 6.19319E+00-8.81517E-14-1.34809E-13
 -1      2625 2.00443E+01 5.37370E-02 1.04547E-04 7.40285E-02 8.19468E-14-1.22476E-13
 -1      2626 2.38351E+01-5.01396E+00 2.61383E-02 4.46575E+00 1.49797E-13 4.17930E-13
 -1      2627 2.00424E+01 7.07004E-02 3.05908E-05 8.74094E-02 2.84689E-13-1.12759E-13
 -1      2628 3.09475E+01 1.66575E+00-5.44139E-02-4.86302E-01 6.91947E-14 2.79082E-13
 -1      2629 2.93771E+01 8.30151E-02 3.78408E-03-8.18018E-01 1.00836E-13 2.96735E-13
 -1      2630 2.98237E+01 2.59597E+00-2.20322E-01-1.58471E+00 1.47882E-13 5.90084E-14
 -1      2631 2.00520E+01 5.33133E-02 7.40823E-04-8.16164E-02-6.62282E-14-2.95206E-13
 -1      2632 2.00387E+01 7.57846E-02-4.93195E-04-9.36565E-02-6.34621E-14-2.26110E-13
 -1      2633 2.00459E+01 9.43802E-02 4.29100E-04-1.20063E-01-2.26579E-13-6.99577E-14
 -1      2634 2.00707E+01 5.69212E-02 1.20366E-03-9.99579E-02-1.13736E-13-2.53343E-13
 -1      2635 1.65786E+01-4.82271E+00 1.25068E-01 6.60096E+00 2.15161E-13-7.50511E-14
 -1      2636 2.90147E+01 3.10176E+00-9.14407E-02 1.72759E+00-2.14662E-13 5.99937E-14
 -1      2637 3.06515E+01 4.65119E+00-9.89857E-02 1.34815E+00-2.07057E-13 1.49436E-13
 -1      2638 2.88596E+01 5.22224E+00-1.80928E-01 1.66479E+00-1.46799E-13 1.32824E-13
 -1      2639 2.04348E+01 1.81243E+00 1.25287E-02 1.55127E+00 1.48628E-13-1.20707E-13
 -1      2640 5.46045E+00-1.07040E+00 8.66507E-02 6.59426E-01-2.97269E-13-6.45872E-14
 -1      2641 4.54177E+00-1.85495E+00 1.64455E-01-7.71987E-01-1.78201E-13 3.32956E-13
 -1      2642 6.15003E+00-1.07204E+00 1.04385E-01-2.10054E+00-2.27644E-13 3.73507E-13
 -1      2643 9.39781E+00-3.18310E+00 1.47334E-01 5.70472E+00 2.11525E-13-1.65812E-13
 -1      2644 2.53897E+01-5.06582E+00 6.47679E-02-3.42052E+00-5.77316E-14 1.49852E-13
 -1      2645 2.00497E+01 9.02134E-02 5.93559E-04 1.15114E-01 5.23523E-13 7.85850E-15
 -1      2646 1.20772E+01-3.61645E+00 1.18895E-01-5.90596E+00-2.63983E-13-2.15383E-14
 -1      2647 3.16928E+01 6.30859E+00-5.97708E-02-9.44704E-01 5.57332E-14 1.55459E-13
 -1      2648 3.01273E+01 5.17727E+00-1.33356E-01-1.31102E+00 4.58800E-14 2.41224E-13
 -1      2649 2.96852E+01 6.57529E+00-1.32478E-01-1.02547E+00-9.83102E-14 4.61020E-13
 -1      2650 6.64752E+00-1.71479E+00 1.75065E-01-2.85361E+00-2.47621E-13-4.24660E-14
 -1      2651 5.34868E+00-1.73040E+00 1.62805E-01 1.88169E+00 6.30052E-15-9.09273E-14
 -1      2652 3.04291E+01 6.44453E+00-4.77335E-02-6.71787E-01-5.15699E-14-6.78971E-14
 -1      2653 3.11981E+01 3.58018E+00-7.06552E-02-1.83776E+00-1.83575E-13-1.52933E-13
 -1      2654 3.04065E+01 1.52976E+00-5.09308E-02 1.90447E+00 2.52853E-14 1.59067E-13
 -1      2655 2.22758E+01-5.21653E+00 3.03773E-02-5.14397E+00 1.48132E-13-2.48954E-13
 -1      2656 2.00688E+01 7.62330E-02-7.78246E-04-1.29657E-01-2.71950E-13-1.60989E-13
 -1      2657 1.98555E+01 2.79487E+00-6.30212E-03 5.05723E-01-3.04002E-15-2.35610E-13
 -1      2658 1.98303E+01 2.84601E+00-5.84065E-03 3.57257E-01-2.12489E-14-2.37315E-13
 -1      2659 1.98131E+01 2.88518E+00-5.65003E-03 2.24954E-01-3.49995E-14-2.23590E-13
 -1      2660 1.98042E+01 2.90261E+00-5.52889E-03 7.32153E-02-5.37211E-14-1.89947E-13
 -1      2661 1.99575E+01 2.54006E+00 3.89396E-03 2.57560E-01-2.82035E-14-2.24447E-13
 -1      2662 2.00544E+01 2.34235E+00-1.06181E-02 1.02932E+00 8.16665E-14-1.86110E-13
 -1      2663 1.99906E+01 2.49380E+00-6.50140E-03 8.94369E-01 6.39283E-14-1.87980E-13
 -1      2664 2.02239E+01 1.92036E+00-1.18598E-02 1.21127E+00 1.08457E-13-1.76334E-13
 -1      2665 2.01336E+01 2.16060E+00-4.97209E-03 1.11747E+00 9.07380E-14-1.84138E-13
 -1      2666 2.01994E+01 1.90716E+00 6.52028E-03 9.07087E-01 7.95112E-14-1.74688E-13
 -1      2667 2.02183E+01 7.37741E-01-3.18506E-03 6.23557E-01 1.20089E-13-9.92647E-14
 -1      2668 2.03566E+01 9.59984E-01 9.19005E-03 8.90599E-01 1.32679E-13-9.40453E-14
 -1      2669 2.00832E+01 4.32867E-01-1.21037E-03 2.58697E-01 8.44836E-14-9.90724E-14
 -1      2670 2.01792E+01 5.67791E-01 1.04451E-02 4.26848E-01 1.06928E-13-9.49319E-14
 -1      2671 2.02627E+01 8.37801E-01 6.34628E-04 5.92863E-01 1.13562E-13-1.21468E-13
 -1      2672 2.03390E+01 1.50654E+00-1.75803E-03 1.25405E+00 1.30432E-13-1.24745E-13
 -1      2673 2.01857E+01 2.28155E+00 3.91802E-04-1.41020E+00-1.83045E-13-2.99587E-14
 -1      2674 2.02280E+01 6.46180E-01 8.54470E-03-4.09176E-01-1.12188E-13-8.61000E-15
 -1      2675 2.01472E+01 4.99887E-01-3.01171E-03-2.43639E-01-9.31023E-14-1.45230E-14
 -1      2676 2.01241E+01 3.91545E-01 6.56647E-03-1.15371E-01-8.21757E-14 1.31243E-16
 -1      2677 2.00718E+01 3.02045E-01-1.25010E-03-8.95201E-03-6.26853E-14-4.32883E-15
 -1      2678 2.02099E+01 5.62428E-01-1.74887E-03-2.18696E-01-9.45725E-14-2.26824E-14
 -1      2679 2.00486E+01 2.37608E-01 4.29836E-03 7.69802E-02-4.85903E-14 2.85735E-15
 -1      2680 2.00221E+01 1.85213E-01-1.68103E-04 1.45602E-01-4.60071E-14 3.98105E-15
 -1      2681 2.01479E+01 3.44691E-01-2.28254E-03 6.57307E-03-6.62503E-14-9.02598E-17
 -1      2682 2.00051E+01 1.48327E-01 2.64608E-03 2.03583E-01-6.26872E-14 3.32410E-16
 -1      2683 1.99994E+01 1.19739E-01 5.47066E-04 2.49040E-01-9.80754E-14 4.15452E-15
 -1      2684 2.00995E+01 2.15553E-01-2.10146E-03 1.60161E-01-6.88003E-14-2.01194E-14
 -1      2685 1.99895E+01 1.01030E-01 1.41300E-03 2.89688E-01-1.08174E-13 1.55723E-14
 -1      2686 1.99999E+01 8.86458E-02 1.04681E-03 3.22371E-01-8.56309E-14 7.07354E-15
 -1      2687 2.00691E+01 1.43694E-01-1.75870E-03 2.66072E-01-9.87353E-14-5.30866E-15
 -1      2688 1.99965E+01 8.24132E-02 5.33808E-04 3.54052E-01-6.93491E-14-5.50422E-16
 -1      2689 2.00194E+01 8.12679E-02 1.42491E-03 3.81301E-01-1.01307E-13 2.68639E-15
 -1      2690 2.00552E+01 1.11059E-01-1.41678E-03 3.43963E-01-8.29204E-14-1.92636E-14
 -1      2691 2.00217E+01 8.36413E-02-7.69337E-05 4.10242E-01-1.00859E-13 4.14439E-14
 -1      2692 2.00551E+01 9.01422E-02 1.73069E-03 4.37201E-01-8.17503E-14 7.24186E-14
 -1      2693 2.00555E+01 1.05628E-01-1.13875E-03 4.08950E-01-7.37668E-14 8.10160E-14
 -1      2694 2.00625E+01 9.81106E-02-4.78996E-04 4.67871E-01-5.69387E-14 1.11911E-13
 -1      2695 2.01051E+01 1.09230E-01 1.98056E-03 4.97944E-01 4.60249E-15 1.44458E-13
 -1      2696 2.00680E+01 1.18647E-01-9.42379E-04 4.72166E-01-3.30016E-14 1.69873E-13
 -1      2697 2.01177E+01 1.20000E-01-7.03361E-04 5.33295E-01-1.55916E-15 1.23505E-13
 -1      2698 2.01693E+01 1.32670E-01 2.16567E-03 5.68319E-01 2.21430E-14 8.97486E-14
 -1      2699 2.00915E+01 1.42745E-01-8.33669E-04 5.41379E-01-2.01508E-14 1.72764E-13
 -1      2700 2.01877E+01 1.43136E-01-7.50347E-04 6.09830E-01 1.46889E-14 2.18518E-14
 -1      2701 2.02487E+01 1.53704E-01 2.25517E-03 6.50003E-01-5.58012E-16-4.38241E-15
 -1      2702 2.01262E+01 1.70495E-01-8.26841E-04 6.21306E-01-4.34018E-14 4.60406E-14
 -1      2703 2.02747E+01 1.59948E-01-5.85669E-04 6.97539E-01 3.42477E-14-2.41711E-14
 -1      2704 2.03462E+01 1.63637E-01 2.19710E-03 7.41112E-01 1.94098E-14 8.17452E-15
 -1      2705 2.01738E+01 1.93149E-01-9.56527E-04 7.13565E-01 1.20803E-14 1.43737E-14
 -1      2706 2.03832E+01 1.60445E-01-1.36258E-04 7.92565E-01-2.45664E-14 2.48267E-14
 -1      2707 2.04669E+01 1.50875E-01 1.91608E-03 8.35334E-01-2.31282E-14 4.57977E-14
 -1      2708 2.02386E+01 1.99404E-01-1.28813E-03 8.16235E-01 1.18860E-15 2.43823E-14
 -1      2709 2.05204E+01 1.31369E-01 7.11098E-04 8.86035E-01-2.62422E-14 6.66946E-14
 -1      2710 2.06187E+01 1.00294E-01 1.30424E-03 9.20668E-01-4.56701E-14 7.83205E-14
 -1      2711 2.03281E+01 1.74314E-01-1.92807E-03 9.23011E-01-2.41841E-14-1.05042E-15
 -1      2712 2.06976E+01 5.59614E-02 2.09773E-03 9.62527E-01-1.05687E-13 3.67450E-14
 -1      2713 2.08135E+01-6.33151E-03 2.07238E-04 9.77835E-01-1.19359E-13-1.27529E-17
 -1      2714 2.04549E+01 9.87390E-02-3.02411E-03 1.02189E+00-8.59270E-14 2.34522E-14
 -1      2715 2.09304E+01-8.45989E-02 4.15428E-03 9.98166E-01-7.78364E-14 2.12590E-14
 -1      2716 2.10670E+01-1.87336E-01-1.58443E-03 9.78616E-01-8.11032E-14 5.93855E-14
 -1      2717 2.06383E+01-4.96791E-02-4.72400E-03 1.09324E+00-9.93526E-14 5.31479E-15
 -1      2718 2.12380E+01-3.06086E-01 6.87831E-03 9.58768E-01-1.12634E-13 1.14309E-13
 -1      2719 2.13967E+01-4.53029E-01-4.31636E-03 8.84925E-01-8.26314E-14 7.35779E-14
 -1      2720 2.09048E+01-2.91956E-01-7.04725E-03 1.10721E+00-2.54985E-14 4.94942E-14
 -1      2721 2.16377E+01-6.09405E-01 9.86215E-03 7.99419E-01-5.56557E-14 1.22073E-13
 -1      2722 2.18142E+01-7.88930E-01-8.04338E-03 6.50768E-01 2.33955E-14 8.36594E-14
 -1      2723 2.12855E+01-6.36216E-01-9.63364E-03 1.02089E+00-7.41529E-14 1.31745E-13
 -1      2724 2.21312E+01-9.58663E-01 1.19369E-02 4.69274E-01 9.35745E-14 1.87606E-14
 -1      2725 2.23092E+01-1.12797E+00-1.19101E-02 2.32316E-01 9.34903E-14 3.19032E-14
 -1      2726 2.18060E+01-1.05472E+00-1.12511E-02 7.77688E-01 3.36970E-15 1.61013E-13
 -1      2727 2.26774E+01-1.24979E+00 1.03250E-02-6.78048E-02 1.12544E-13-2.69318E-14
 -1      2728 2.28236E+01-1.32085E+00-1.36639E-02-3.81594E-01 8.65165E-14-7.48319E-14
 -1      2729 2.24593E+01-1.44509E+00-9.27466E-03 3.17283E-01 6.12156E-14 2.77032E-14
 -1      2730 2.31662E+01-1.29233E+00 1.05401E-03-7.83312E-01 3.09389E-14-8.55910E-14
 -1      2731 2.32364E+01-1.14141E+00-8.97394E-03-1.11193E+00-3.97805E-15-9.58218E-14
 -1      2732 2.31639E+01-1.60034E+00-2.52729E-03-3.82447E-01 5.91788E-14-7.27512E-14
 -1      2733 2.34292E+01-8.49242E-01-1.51944E-02-1.51161E+00-8.89505E-14-2.02439E-13
 -1      2734 2.33949E+01-3.84808E-01 6.04899E-03-1.72290E+00-1.10670E-13-1.90595E-13
 -1      2735 2.37399E+01-1.23852E+00 6.76631E-03-1.22158E+00-1.08619E-13-5.32972E-14
 -1      2736 2.33183E+01 1.97856E-01-3.63719E-02-1.89344E+00-7.20586E-14-1.26667E-13
 -1      2737 2.32073E+01 8.77318E-01 1.66149E-02-1.80835E+00-9.40116E-14-1.50136E-13
 -1      2738 2.39522E+01-1.22655E-01 1.65009E-02-1.88730E+00-8.39485E-14-4.38842E-14
 -1      2739 2.29570E+01 1.53157E+00-3.87239E-02-1.53731E+00-8.00878E-14-1.86370E-13
 -1      2740 2.28474E+01 2.08114E+00 1.08549E-02-1.09073E+00 1.45769E-14-2.07296E-13
 -1      2741 2.37209E+01 1.42071E+00-9.84500E-03-1.83994E+00-1.18188E-13 3.45002E-14
 -1      2742 2.27000E+01 2.39979E+00-1.70503E-02-3.95651E-01 1.32701E-13-2.52630E-13
 -1      2743 2.26813E+01 2.43720E+00-1.70365E-02 2.32013E-01 1.05178E-13-2.55938E-13
 -1      2744 2.33717E+01 2.71911E+00-2.85827E-02-8.40513E-01 7.66835E-14-1.63630E-13
 -1      2745 2.28291E+01 2.16717E+00 7.81049E-03 9.46567E-01 1.28848E-13-1.86202E-13
 -1      2746 2.28783E+01 1.65712E+00-5.73470E-02 1.39944E+00 1.19011E-13-1.34742E-13
 -1      2747 2.33929E+01 2.78052E+00-2.22388E-02 6.95019E-01 1.52496E-13-2.50113E-13
 -1      2748 2.31663E+01 1.06670E+00 2.03037E-02 1.78584E+00 6.55760E-14-6.99263E-14
 -1      2749 2.32986E+01 3.58235E-01-3.43965E-02 1.91255E+00-2.15522E-14 3.52773E-14
 -1      2750 2.36722E+01 1.80330E+00 1.78986E-02 1.85291E+00 1.40339E-13-7.89247E-14
 -1      2751 2.33785E+01-2.40576E-01 3.67223E-03 1.76551E+00 1.07726E-14 1.65250E-13
 -1      2752 2.34531E+01-7.31911E-01-1.26822E-02 1.60551E+00 1.05537E-13 2.05864E-13
 -1      2753 2.39587E+01 8.87491E-02 5.41787E-04 1.98383E+00 7.74034E-14-5.31172E-15
 -1      2754 2.32671E+01-1.08482E+00-1.48159E-02 1.19760E+00 8.02119E-14 1.88378E-13
 -1      2755 2.32205E+01-1.25701E+00-3.74398E-04 8.86523E-01 1.21863E-13 1.41219E-13
 -1      2756 2.37865E+01-1.17133E+00-1.51743E-02 1.35306E+00 8.04270E-14 1.29400E-13
 -1      2757 2.28880E+01-1.32112E+00-1.52052E-02 4.75615E-01 9.92325E-14 1.59590E-13
 -1      2758 2.27511E+01-1.26676E+00 9.82921E-03 1.57369E-01 1.98385E-14 1.68716E-13
 -1      2759 2.32466E+01-1.59343E+00-7.20173E-03 4.98228E-01 1.40244E-13 2.97633E-13
 -1      2760 2.23793E+01-1.15540E+00-1.24636E-02-1.55443E-01-6.41414E-15 1.75500E-13
 -1      2761 2.22046E+01-9.90287E-01 1.22495E-02-4.00449E-01-1.51876E-14 2.98885E-13
 -1      2762 2.25498E+01-1.47500E+00-9.35185E-03-2.33039E-01 2.27542E-15 1.85590E-13
 -1      2763 2.18803E+01-8.20917E-01-8.40021E-03-5.92091E-01-1.68908E-13 3.95540E-13
 -1      2764 2.17046E+01-6.38081E-01 1.04873E-02-7.47842E-01-1.91296E-13 3.11797E-13
 -1      2765 2.18850E+01-1.09325E+00-1.09585E-02-7.16438E-01-5.08129E-14 4.57047E-14
 -1      2766 2.14552E+01-4.76676E-01-4.72661E-03-8.39686E-01-7.85351E-14 2.66335E-13
 -1      2767 2.12970E+01-3.22844E-01 7.45648E-03-9.17569E-01 1.32064E-15 2.48332E-13
 -1      2768 2.13492E+01-6.67794E-01-9.81027E-03-9.75981E-01-2.14220E-13 2.15450E-13
 -1      2769 2.11192E+01-1.97196E-01-1.94294E-03-9.39291E-01-7.80639E-14 1.75302E-13
 -1      2770 2.09838E+01-8.68644E-02 4.68494E-03-9.59352E-01-5.63625E-14-3.23692E-14
 -1      2771 2.09547E+01-3.07590E-01-7.36803E-03-1.06964E+00-1.88465E-13-6.01558E-14
 -1      2772 2.08623E+01-1.74067E-03-7.47470E-05-9.37066E-01-6.15981E-15-1.16314E-13
 -1      2773 2.07488E+01 6.75599E-02 2.58024E-03-9.18961E-01-1.83204E-13-1.42681E-13
 -1      2774 2.06785E+01-4.77094E-02-4.99239E-03-1.05472E+00-1.27581E-13-2.13786E-13
 -1      2775 2.06672E+01 1.17951E-01 1.06953E-03-8.72029E-01-1.96484E-14-8.00133E-14
 -1      2776 2.05727E+01 1.55043E-01 1.14778E-03-8.31741E-01 1.78491E-13 5.15963E-14
 -1      2777 2.04893E+01 1.16964E-01-3.20503E-03-9.75626E-01 5.70039E-14-2.57598E-14
 -1      2778 2.05179E+01 1.79633E-01 1.70183E-03-7.73479E-01 1.22816E-13 1.36771E-13
 -1      2779 2.04393E+01 1.94195E-01 2.64744E-04-7.22700E-01 6.03642E-14 2.53552E-13
 -1      2780 2.03598E+01 2.06477E-01-2.02083E-03-8.63572E-01 1.27055E-13 8.75469E-14
 -1      2781 2.04018E+01 2.01502E-01 1.98423E-03-6.61756E-01 1.01738E-13 2.58739E-13
 -1      2782 2.03367E+01 2.01792E-01-2.23282E-04-6.08347E-01 1.27460E-13 4.20407E-13
 -1      2783 2.02695E+01 2.43040E-01-1.29415E-03-7.39364E-01 9.10206E-14 1.24244E-13
 -1      2784 2.03102E+01 1.98651E-01 2.03117E-03-5.49976E-01-3.41602E-14 4.13168E-13
 -1      2785 2.02565E+01 1.90920E-01-4.49803E-04-4.98765E-01-1.05093E-13 2.68442E-13
 -1      2786 2.02048E+01 2.45742E-01-8.69902E-04-6.16159E-01-2.29413E-14 7.87692E-15
 -1      2787 2.02372E+01 1.82329E-01 1.92338E-03-4.45831E-01-1.01613E-13 2.89913E-13
 -1      2788 2.01933E+01 1.70990E-01-5.12795E-04-3.99405E-01 1.19073E-13 2.69473E-13
 -1      2789 2.01568E+01 2.29153E-01-6.24966E-04-5.01655E-01-2.63331E-14-8.48526E-14
 -1      2790 2.01786E+01 1.60393E-01 1.72148E-03-3.53122E-01 1.13728E-13 2.62089E-13
 -1      2791 2.01430E+01 1.48403E-01-4.78860E-04-3.12498E-01-5.08299E-14 3.85639E-13
 -1      2792 2.01200E+01 2.03621E-01-4.73657E-04-3.99732E-01 4.65842E-14-4.21035E-14
 -1      2793 2.01313E+01 1.38087E-01 1.48888E-03-2.72961E-01-2.19661E-13 1.39902E-13
 -1      2794 2.01028E+01 1.27194E-01-3.70414E-04-2.38074E-01-3.91760E-13-6.13069E-14
 -1      2795 2.00909E+01 1.76125E-01-3.50034E-04-3.11613E-01-2.85574E-13-7.77057E-15
 -1      2796 2.00928E+01 1.18223E-01 1.15109E-03-2.04882E-01-4.03317E-13 2.87353E-14
 -1      2797 2.00705E+01 1.09926E-01-5.31188E-05-1.75266E-01-3.70613E-13-5.74252E-14
 -1      2798 2.00668E+01 1.50482E-01-4.33559E-04-2.36691E-01-3.18121E-13-8.18326E-14
 -1      2799 1.88055E+01-4.87760E+00-5.41192E-03 6.04721E+00 1.94830E-13 6.60721E-14
 -1      2800 1.53429E+01-4.02125E+00 1.57893E-01 6.38074E+00 3.21729E-13-1.64466E-13
 -1      2801 1.99318E+01 1.54616E-01 4.56856E-04-1.35072E-01 2.74679E-14-1.41715E-13
 -1      2802 1.99568E+01 2.00387E-01 5.08960E-03-6.88957E-02 2.26779E-14-1.29952E-13
 -1      2803 1.99678E+01 6.94600E-02 1.79307E-03-3.64003E-01 5.36985E-14-1.10604E-13
 -1      2804 1.99335E+01 6.88066E-02 6.07381E-04-3.37858E-01 4.25610E-14-1.02505E-13
 -1      2805 2.00256E+01 8.21413E-02 2.18979E-03-4.20591E-01 8.27990E-14-1.41353E-13
 -1      2806 1.99790E+01 7.34400E-02-7.65337E-05-3.93201E-01 6.79364E-14-1.12105E-13
 -1      2807 2.00188E+01 9.42919E-02-1.30428E-03-4.01000E-01 5.49050E-14-9.93480E-14
 -1      2808 2.01008E+01 1.07695E-01 2.62123E-03-4.86141E-01 1.34023E-13-9.00704E-14
 -1      2809 2.00428E+01 9.26186E-02-5.67294E-04-4.53120E-01 1.18837E-13-1.23340E-13
 -1      2810 2.00506E+01 1.13382E-01-1.03449E-03-4.66943E-01 9.93774E-14-1.09742E-13
 -1      2811 2.01925E+01 1.43397E-01 3.08716E-03-5.68132E-01 7.98163E-14-6.78797E-14
 -1      2812 2.01230E+01 1.23307E-01-9.35609E-04-5.26125E-01 1.11236E-13-8.82031E-14
 -1      2813 2.00946E+01 1.48039E-01-8.26304E-04-5.43314E-01 1.10962E-13-8.87311E-14
 -1      2814 2.03011E+01 1.86390E-01 3.56560E-03-6.72124E-01 9.33706E-14-6.42186E-14
 -1      2815 2.02190E+01 1.62829E-01-1.22346E-03-6.18737E-01 8.65211E-14-7.65112E-14
 -1      2816 2.01491E+01 1.94712E-01-6.55422E-04-6.37674E-01 7.86293E-14-6.06818E-14
 -1      2817 2.04277E+01 2.32540E-01 4.00984E-03-8.01525E-01-4.76453E-15-3.72599E-14
 -1      2818 2.03317E+01 2.07869E-01-1.43945E-03-7.35554E-01 4.42050E-14-3.84827E-14
 -1      2819 2.02129E+01 2.49392E-01-5.11827E-04-7.55545E-01 5.80272E-14-7.34322E-15
 -1      2820 2.05747E+01 2.74808E-01 4.34153E-03-9.56768E-01 2.48652E-14-4.54606E-14
 -1      2821 2.04629E+01 2.53124E-01-1.54648E-03-8.78782E-01 1.65043E-14-3.03987E-14
 -1      2822 2.02859E+01 3.06084E-01-4.18699E-04-9.00204E-01 2.29783E-14 1.65800E-14
 -1      2823 2.07463E+01 3.00827E-01 4.44078E-03-1.13369E+00 3.26927E-14-6.10540E-14
 -1      2824 2.06164E+01 2.89327E-01-1.43520E-03-1.04711E+00 1.93338E-14-4.32696E-14
 -1      2825 2.03696E+01 3.54609E-01-4.71128E-04-1.07200E+00 8.16992E-15 2.61376E-14
 -1      2826 2.09507E+01 2.89578E-01 4.13249E-03-1.32086E+00-1.85947E-14 4.39350E-14
 -1      2827 2.07992E+01 3.00380E-01-8.82207E-04-1.23365E+00 6.87482E-15-5.29477E-14
 -1      2828 2.04690E+01 3.77446E-01-8.91993E-04-1.26703E+00-8.65210E-15 9.48330E-15
 -1      2829 2.12043E+01 2.07654E-01 3.15773E-03-1.49546E+00-6.62967E-14 7.90547E-14
 -1      2830 2.10257E+01 2.59712E-01 5.05411E-04-1.42261E+00-6.17307E-15 9.81626E-14
 -1      2831 2.05962E+01 3.45553E-01-2.11353E-03-1.47493E+00-4.32451E-14 4.86943E-14
 -1      2832 2.15374E+01 7.45200E-03 1.09972E-03-1.61754E+00-1.39208E-13-4.79595E-14
 -1      2833 2.13224E+01 1.27049E-01 3.33765E-03-1.58407E+00-9.41647E-14 3.67002E-14
 -1      2834 2.07779E+01 2.14130E-01-4.84390E-03-1.67525E+00-2.93081E-14-1.90331E-14
 -1      2835 2.19996E+01-3.66227E-01-2.87263E-03-1.62270E+00-3.00177E-14-1.85233E-13
 -1      2836 2.17356E+01-1.50288E-01 8.41475E-03-1.66635E+00-1.14047E-13-1.32733E-13
 -1      2837 2.10643E+01-7.82995E-02-1.00298E-02-1.83110E+00-2.96024E-14-1.34711E-13
 -1      2838 2.26548E+01-9.45421E-01-1.02292E-02-1.41460E+00 6.81703E-15-1.63864E-13
 -1      2839 2.23337E+01-6.21301E-01 1.62255E-02-1.58539E+00 2.31450E-14-1.75183E-13
 -1      2840 2.15389E+01-5.98717E-01-1.89807E-02-1.87692E+00-1.71301E-14-1.75566E-13
 -1      2841 2.35669E+01-1.64708E+00-1.41016E-02-8.65738E-01 3.36033E-14-1.44135E-13
 -1      2842 2.31929E+01-1.28004E+00 2.71938E-02-1.21442E+00-2.97713E-14-2.03755E-13
 -1      2843 2.23128E+01-1.38596E+00-3.72509E-02-1.69916E+00 6.66004E-15-1.35118E-13
 -1      2844 2.46523E+01-2.22058E+00-3.96505E-02 1.13217E-01 8.31831E-14 5.53550E-14
 -1      2845 2.43083E+01-1.96807E+00 2.61523E-02-4.28053E-01 1.08291E-13 5.46915E-15
 -1      2846 2.35431E+01-2.16726E+00-1.31834E-02-1.07760E+00-9.46118E-15-1.69378E-14
 -1      2847 2.57361E+01-1.89620E+00-2.33149E-02 1.46987E+00 2.54349E-14-8.87489E-14
 -1      2848 2.55442E+01-2.19398E+00 2.06807E-02 8.77687E-01 6.12505E-14 3.65064E-14
 -1      2849 2.50881E+01-2.82074E+00-4.62752E-02-4.47255E-02 1.08590E-13 1.25111E-13
 -1      2850 2.62266E+01-2.19352E-01-1.59782E-02 2.50028E+00-4.75488E-14-1.45362E-13
 -1      2851 2.63245E+01-1.25806E+00-6.00479E-02 2.21183E+00 4.46483E-14-1.12921E-13
 -1      2852 2.65769E+01-2.01567E+00-3.24502E-02 1.52349E+00 4.09499E-14-3.86462E-14
 -1      2853 2.70520E+01 3.35404E+00-1.25099E-01 2.10228E+00-4.53942E-14 3.93990E-14
 -1      2854 2.73159E+01 1.88388E+00-1.32258E-01 2.57321E+00-8.92064E-14-9.60898E-14
 -1      2855 2.66951E+01 4.58789E+00-1.56119E-01-1.53327E-01-1.18253E-13-3.61005E-14
 -1      2856 2.66476E+01 4.36377E+00-1.76620E-01 9.88570E-01-2.10942E-14-5.33028E-14
 -1      2857 2.63690E+01-5.88148E-02-1.04860E-01-2.64445E+00 1.02279E-14-1.43059E-13
 -1      2858 2.62651E+01 1.27431E+00-4.04437E-02-2.55248E+00-1.49866E-13-8.71421E-14
 -1      2859 2.59935E+01-1.88265E+00-3.54814E-02-1.63771E+00 1.01264E-13-1.32946E-13
 -1      2860 2.61218E+01-1.13744E+00-1.95710E-02-2.14378E+00 1.35673E-13-1.19016E-13
 -1      2861 2.71623E+01-8.03545E-01-2.00837E-02-2.28492E+00 5.00572E-14-1.23741E-13
 -1      2862 2.50119E+01-2.17917E+00 3.59908E-02-2.49899E-01-8.85685E-14-2.27225E-13
 -1      2863 2.52742E+01-2.18187E+00-2.82605E-02-8.48415E-01-9.50763E-14-2.52571E-13
 -1      2864 2.58797E+01-2.56855E+00-3.07494E-02-7.92504E-01 9.37184E-14-2.19476E-13
 -1      2865 2.37579E+01-1.65446E+00 2.65732E-02 8.50017E-01 3.48661E-14-1.87856E-13
 -1      2866 2.41459E+01-1.99432E+00-2.28209E-02 4.03260E-01-4.58999E-14-2.51395E-13
 -1      2867 2.43889E+01-2.66876E+00-4.99436E-02 5.89068E-01-5.49795E-14-5.37919E-13
 -1      2868 2.27693E+01-9.41990E-01 2.11980E-02 1.41259E+00 1.25756E-13-1.18895E-13
 -1      2869 2.31263E+01-1.30511E+00-1.11003E-02 1.15388E+00 1.07190E-13-6.02278E-14
 -1      2870 2.28869E+01-1.81604E+00-4.09177E-02 1.42270E+00-3.22659E-15-3.33836E-13
 -1      2871 2.20498E+01-3.64875E-01 1.23219E-02 1.62665E+00 1.47623E-13-5.27313E-14
 -1      2872 2.23406E+01-6.39563E-01-6.15672E-03 1.52444E+00 1.32014E-13-1.05367E-13
 -1      2873 2.19427E+01-9.63325E-01-2.23004E-02 1.78962E+00 1.15380E-13-3.62104E-13
 -1      2874 2.15521E+01 1.27843E-02 5.90388E-03 1.61355E+00 2.63335E-13 9.61228E-14
 -1      2875 2.17876E+01-1.56541E-01-9.77218E-04 1.61505E+00 2.34533E-13 7.32135E-15
 -1      2876 2.13203E+01-3.10483E-01-1.37031E-02 1.84509E+00 1.91564E-13-1.16484E-13
 -1      2877 2.12058E+01 2.17980E-01 2.03765E-03 1.47821E+00 1.78582E-13-4.40905E-14
 -1      2878 2.13978E+01 1.31633E-01 2.03179E-03 1.53859E+00 2.45910E-13 8.63156E-14
 -1      2879 2.09463E+01 9.71938E-02-7.18802E-03 1.73217E+00 2.29074E-13 4.74307E-14
 -1      2880 2.09531E+01 3.05024E-01 3.45041E-05 1.28868E+00-7.52144E-14 8.90529E-14
 -1      2881 2.11123E+01 2.72911E-01 3.57128E-03 1.37634E+00 8.20507E-14 7.89488E-14
 -1      2882 2.07183E+01 3.09105E-01-3.36960E-03 1.54119E+00 7.06679E-14 1.53151E-13
 -1      2883 2.07580E+01 3.21403E-01-8.44247E-04 1.08535E+00-2.54288E-13 2.15209E-13
 -1      2884 2.08917E+01 3.20541E-01 4.22423E-03 1.18042E+00-2.23069E-13 1.32352E-13
 -1      2885 2.05690E+01 3.91736E-01-1.46731E-03 1.32261E+00-1.31198E-13 1.00681E-13
 -1      2886 2.06010E+01 3.00499E-01-1.11123E-03 8.90685E-01-4.24009E-13 7.78189E-14
 -1      2887 2.07133E+01 3.15405E-01 4.31889E-03 9.81881E-01-2.66638E-13 2.94521E-13
 -1      2888 2.04607E+01 3.98810E-01-6.76947E-04 1.10481E+00-2.82908E-13 4.84274E-14
 -1      2889 2.04716E+01 2.63187E-01-1.07804E-03 7.15877E-01-3.93042E-13-1.30436E-14
 -1      2890 2.05654E+01 2.84437E-01 4.07702E-03 7.97591E-01-4.17462E-13 1.32427E-13
 -1      2891 2.03747E+01 3.66955E-01-4.35337E-04 9.03104E-01-3.64833E-13 3.83343E-13
 -1      2892 2.03645E+01 2.21490E-01-9.16727E-04 5.65193E-01-9.90624E-14-7.89372E-15
 -1      2893 2.04417E+01 2.43775E-01 3.65205E-03 6.35351E-01-2.93400E-13-1.29922E-14
 -1      2894 2.03026E+01 3.18760E-01-4.17084E-04 7.24742E-01-3.45914E-13 2.26282E-13
 -1      2895 2.02761E+01 1.81825E-01-7.20438E-04 4.38846E-01-3.66129E-14 1.06097E-13
 -1      2896 2.03388E+01 2.02384E-01 3.14692E-03 4.97422E-01 2.85063E-14 8.79140E-14
 -1      2897 2.02406E+01 2.67154E-01-4.56628E-04 5.72023E-01-7.54996E-14 1.69746E-13
 -1      2898 2.02041E+01 1.47398E-01-5.27913E-04 3.34869E-01 2.09046E-13 1.22751E-13
 -1      2899 2.02542E+01 1.64863E-01 2.62304E-03 3.82923E-01 7.61865E-14 1.98578E-14
 -1      2900 2.01876E+01 2.18974E-01-4.91744E-04 4.44264E-01 7.91112E-14 1.20974E-13
 -1      2901 2.01459E+01 1.19708E-01-2.95096E-04 2.50083E-01 1.01213E-13 2.82565E-13
 -1      2902 2.01853E+01 1.33518E-01 2.11986E-03 2.89237E-01 1.52045E-13 1.93505E-13
 -1      2903 2.01424E+01 1.77699E-01-4.89100E-04 3.39140E-01 9.25118E-14 1.79678E-13
 -1      2904 2.01002E+01 9.91433E-02 3.00914E-04 1.81099E-01 6.12908E-13 2.42237E-13
 -1      2905 2.01298E+01 1.08853E-01 1.67046E-03 2.12686E-01 3.40864E-13 3.11873E-13
 -1      2906 2.01038E+01 1.44735E-01-5.27226E-04 2.53360E-01 2.32013E-13 2.71547E-13
 -1      2907 2.00627E+01 9.14135E-02 5.06219E-04 1.33456E-01 6.92234E-13-6.18794E-14
 -1      2908 2.00850E+01 9.86872E-02 1.35843E-03 1.60330E-01 7.34564E-13 9.82735E-14
 -1      2909 2.00690E+01 1.26388E-01-1.30055E-03 1.92503E-01 6.71031E-13-1.50560E-13
 -1      2910 2.00420E+01 1.20739E-01-1.22969E-03 1.50174E-01 6.10194E-13-6.83432E-14
 -1      2911 2.52712E+01-4.71495E+00-8.18308E-02 3.17599E+00 1.35086E-13 5.63861E-13
 -1      2912 2.24648E+01-5.06317E+00 7.26815E-02 4.71310E+00 1.68685E-13 4.09655E-13
 -1      2913 1.98991E+01 3.01909E-01-6.82680E-04 1.16535E-02-1.48942E-13-1.97444E-13
 -1      2914 1.99021E+01 2.99078E-01-4.55547E-04 3.88419E-02 9.76533E-14-2.19852E-13
 -1      2915 1.14705E+01-2.40829E+00 1.41747E-01-5.24365E+00-2.25181E-13-2.43694E-14
 -1      2916 1.47780E+01-3.83373E+00 4.23275E-02-6.11206E+00-2.11220E-13-5.00572E-14
 -1      2917 1.99326E+01 2.62652E-01-1.14101E-03 1.18377E-01 1.24435E-13 6.40046E-14
 -1      2918 1.99492E+01 2.45738E-01 2.15026E-04 1.35074E-01 9.80763E-14 1.51936E-13
 -1      2919 1.99046E+01 2.95214E-01-3.09963E-04-4.73340E-02-1.77658E-13 5.56816E-13
 -1      2920 1.99000E+01 2.99974E-01-8.02640E-04-2.06695E-02-1.55075E-13 1.84668E-13
 -1      2921 1.98764E+01 3.23853E-01 1.15789E-03-5.80934E-03-3.75155E-14-1.18188E-13
 -1      2922 1.99087E+01 2.90761E-01-1.00074E-03 6.96566E-02 5.49788E-14 2.75752E-14
 -1      2923 1.99192E+01 2.80533E-01-4.87951E-05 9.34567E-02 1.19121E-13 2.56567E-13
 -1      2924 1.99083E+01 2.93282E-01 9.83808E-04 1.19880E-01-1.96061E-14 2.34456E-13
 -1      2925 1.98835E+01 3.17964E-01 1.14655E-03 6.08500E-02-4.87715E-15-8.79566E-14
 -1      2926 1.99237E+01 2.72363E-01 9.88933E-05-9.84193E-02-4.16197E-15 2.17327E-14
 -1      2927 1.99123E+01 2.83743E-01-1.04801E-03-7.63168E-02-2.27125E-13 5.43573E-13
 -1      2928 1.98873E+01 3.11037E-01 1.06124E-03-7.04363E-02-1.84499E-13 4.19831E-13
 -1      2929 1.99541E+01 2.35132E-01 4.25404E-04-1.36437E-01 6.51211E-14 4.18305E-14
 -1      2930 1.99373E+01 2.52412E-01-1.17088E-03-1.21224E-01 2.75588E-14-2.44877E-13
 -1      2931 1.99142E+01 2.81308E-01 8.41461E-04-1.25111E-01-1.07817E-13-3.90026E-14
 -1      2932 1.99909E+01 1.87243E-01 2.55627E-04-1.55007E-01-1.29797E-13 2.12465E-13
 -1      2933 1.99722E+01 2.09123E-01-1.05472E-03-1.49704E-01 3.97061E-14 1.68553E-13
 -1      2934 1.99536E+01 2.37839E-01 5.33649E-04-1.63158E-01-1.44683E-14 6.51651E-14
 -1      2935 1.99857E+01 2.56437E-01-2.82977E-04 1.90522E-02 3.70787E-14-1.19276E-13
 -1      2936 2.00437E+01 3.35828E-01 7.77038E-03 1.24339E-01 5.86958E-14-1.02828E-13
 -1      2937 2.01615E+01 5.02309E-01-2.12030E-03 2.43532E-01 8.55068E-14-1.18349E-13
 -1      2938 2.00807E+01 3.01489E-01-2.96530E-03 6.09175E-03 4.48731E-14-1.35264E-13
 -1      2939 1.75916E+01-4.49014E+00 5.24679E-02 5.97685E+00 4.74620E-15 7.57866E-14
 -1      2940 1.45222E+01-3.32085E+00 9.81534E-02 5.72334E+00-4.29518E-14 8.24341E-15
 -1      2941 2.65340E+01-3.91574E+00 3.70255E-02-1.94562E+00 1.27228E-13-2.92266E-14
 -1      2942 2.79700E+01-2.65955E+00-1.36177E-01-6.11219E-01 1.60080E-14 1.15158E-13
 -1      2943 8.42791E+00-1.27347E+00 2.20445E-01-3.95416E+00-3.76713E-14 5.26384E-13
 -1      2944 1.00242E+01-2.01471E+00 1.30648E-01-5.28444E+00-3.38340E-14 3.75922E-13
 -1      2945 2.83129E+01 6.29404E+00-1.57625E-01 8.77876E-01-1.04333E-13 2.87902E-13
 -1      2946 2.83241E+01 6.51371E+00-2.08142E-01-9.22495E-02-9.84490E-14 3.83478E-13
 -1      2947 1.82747E+01-4.49831E+00 1.37089E-01-5.67792E+00-1.79690E-13-9.56873E-14
 -1      2948 2.09911E+01-5.19444E+00-5.18652E-02-5.11104E+00-9.72139E-14-1.04326E-13
 -1      2949 2.57505E+01 3.38724E+00-7.15354E-02-1.36668E+00-1.92804E-13-4.92796E-14
 -1      2950 2.81548E+01 5.08710E+00-1.52169E-01-1.19527E+00-1.76720E-13-8.24341E-15
 -1      2951 2.88593E+01 4.27391E+00-2.04225E-01-2.01236E+00-1.65257E-13-1.33255E-13
 -1      2952 2.59830E+01 2.31710E+00-1.46128E-01-2.28141E+00-2.30531E-13-3.21704E-14
 -1      2953 1.16626E+01-3.06913E+00 2.98102E-02 6.13985E+00 2.47885E-13-1.73972E-13
 -1      2954 8.96107E+00-2.01400E+00 1.51221E-01 4.81801E+00 1.77747E-13-5.92859E-14
 -1      2955 1.99297E+01 7.31736E-02 1.40965E-03-3.06689E-01 1.34192E-15-1.19472E-13
 -1      2956 1.99101E+01 8.30502E-02 1.58807E-03-2.76042E-01 1.45890E-14-1.42149E-13
 -1      2957 2.00018E+01 9.50738E-02-1.66306E-03-3.35641E-01 5.93369E-15-8.88253E-14
 -1      2958 1.99156E+01 9.86335E-02 9.91680E-04-2.36009E-01 2.75314E-14-1.37326E-13
 -1      2959 1.99150E+01 1.23046E-01 3.01781E-03-1.93082E-01 2.66784E-14-1.46845E-13
 -1      2960 2.00034E+01 1.22036E-01-2.12001E-03-2.58085E-01 1.67422E-14-1.29917E-13
 -1      2961 2.03180E+01 1.07325E+00 3.32438E-03-8.37535E-01-1.50086E-13 2.63461E-16
 -1      2962 2.02339E+01 8.31901E-01-5.48756E-03-5.87916E-01-1.26722E-13-7.68043E-15
 -1      2963 2.02688E+01 9.04402E-01-3.39683E-03-5.39811E-01-1.18054E-13-4.13807E-14
 -1      2964 2.94743E+01-6.74764E-01-2.19858E-01-1.59294E+00-1.14311E-13-2.29150E-13
 -1      2965 2.89187E+01-2.56196E+00-3.61826E-03-3.29564E-01 6.44276E-15-2.25431E-13
 -1      2966 2.84704E+01-1.23862E+00-9.54412E-02 2.01302E+00 5.34503E-14 9.02195E-14
 -1      2967 2.84219E+01 1.12912E+00-1.23689E-01 2.50923E+00 2.18714E-14 1.33227E-14
 -1      2968 1.99348E+01 2.62061E+00-7.84379E-03 7.79706E-01 5.61007E-14-2.00291E-13
 -1      2969 1.98906E+01 2.71496E+00-6.31337E-03 6.32350E-01 2.53878E-14-2.17957E-13
 -1      2970 2.00077E+01 2.42317E+00 4.61285E-03 5.02886E-01 7.12966E-15-2.07852E-13
 -1      2971 2.00903E+01 2.21872E+00 5.75267E-03 7.27523E-01 4.51155E-14-1.74143E-13
 -1      2972 1.98853E+01 2.72343E+00-6.29721E-03-6.22452E-01-9.90776E-14-1.53720E-13
 -1      2973 1.99281E+01 2.63160E+00-7.74976E-03-7.70332E-01-1.19825E-13-1.45752E-13
 -1      2974 7.14822E+00-1.16250E+00 1.23843E-01 3.21495E+00 7.88536E-14-9.15656E-14
 -1      2975 6.32127E+00-6.53187E-01 1.16503E-01 7.31221E-01-7.11813E-14 8.75688E-14
 -1      2976 6.99651E+00-6.07283E-01 1.89122E-01-1.47360E+00-1.59671E-13 4.40759E-14
 -1      2977 8.63623E+00-1.16339E+00 1.01665E-01-3.53018E+00-2.54685E-13-1.42941E-14
 -1      2978 2.09994E+01-4.97506E+00 8.67878E-02-5.22230E+00 9.18848E-14-2.07549E-13
 -1      2979 2.41472E+01-5.04384E+00-7.19222E-02-3.91842E+00 1.69517E-13-2.07501E-13
 -1      2980 2.39374E+01-5.12800E+00 6.06548E-02-3.62469E+00-2.48412E-15 3.18842E-14
 -1      2981 2.62537E+01-4.61206E+00-7.63738E-02-2.03249E+00 4.40620E-14 6.38309E-14
 -1      2982 2.81693E+01-2.32063E+00-1.45713E-01 2.89979E-01 6.29375E-14 3.98209E-13
 -1      2983 2.72196E+01-3.42112E+00 3.69814E-02 1.32368E+00 1.20970E-13 4.88845E-13
 -1      2984 2.36976E+01-5.36289E+00-4.48299E-02 4.10400E+00 7.38853E-14-3.78829E-14
 -1      2985 2.05552E+01-5.09979E+00 7.66416E-02 5.19039E+00 3.62349E-14 8.37871E-14
 -1      2986 2.76412E+01-4.12945E+00-1.19815E-01 1.32569E+00 7.72160E-14-2.22378E-13
 -1      2987 2.60290E+01-4.80045E+00 3.12181E-02 2.50187E+00 9.72278E-14-1.28952E-13
 -1      2988 2.00525E+01 9.96051E-02 1.59866E-04-1.37919E-01-1.49584E-13-2.61103E-14
 -1      2989 2.00377E+01 1.19748E-01 3.37272E-05-1.44524E-01-2.52097E-13-6.86477E-14
 -1      2990 2.00653E+01 1.04789E-01 9.54960E-04-1.55843E-01-2.17049E-13 7.64341E-15
 -1      2991 1.02776E+01-1.95268E+00 7.69049E-02 4.73388E+00-2.34382E-13-1.81771E-13
 -1      2992 7.35729E+00-1.14998E+00 2.35769E-01 2.91605E+00-2.78250E-13-4.11782E-13
 -1      2993 2.86220E+01-1.09700E+00-6.37270E-02 5.73925E-01-5.76414E-14-2.27179E-14
 -1      2994 2.86741E+01 6.08058E-01-1.66161E-01 1.43151E+00-3.20438E-14 6.70575E-14
 -1      2995 2.75578E+01-2.12777E+00-4.00653E-02 3.76768E-01 2.12391E-14-4.68375E-14
 -1      2996 1.99818E+01 2.50669E+00-6.96611E-03-8.85818E-01-1.26712E-13-1.18182E-13
 -1      2997 2.00363E+01 2.35897E+00-1.41511E-02-1.02324E+00-1.51972E-13-8.59508E-14
 -1      2998 2.00840E+01 2.23155E+00 5.90677E-03-7.20665E-01-1.06716E-13-1.16141E-13
 -1      2999 1.99402E+01 2.57916E+00 3.67186E-03 4.37149E-03-4.21321E-14-1.94892E-13
 -1      3000 1.98035E+01 2.90345E+00-5.58317E-03-6.03559E-02-4.74253E-14-1.91025E-13
 -1      3001 1.98111E+01 2.88833E+00-5.59401E-03-2.12180E-01-4.96747E-14-1.92601E-13
 -1      3002 2.02955E+01 1.59743E+00-1.35763E-03 1.14955E+00 1.24840E-13-1.35357E-13
 -1      3003 8.40063E+00-6.95248E-01 1.54695E-01-2.72410E+00-1.53481E-13 3.63654E-13
 -1      3004 2.00497E+01 1.31531E-01-5.44839E-04-1.82522E-01-2.53680E-13-1.03554E-13
 -1      3005 2.79447E+01-3.21374E+00 5.49075E-03-1.17538E-01 9.64506E-14-2.49772E-13
 -1      3006 1.29175E+01-2.39972E+00 1.23639E-01-5.41735E+00 1.23498E-13 1.77039E-13
 -1      3007 2.49142E+01-4.83217E+00 3.72560E-02 2.76802E+00 1.14547E-13-5.75096E-14
 -1      3008 2.00282E+01 1.85254E-01-2.63273E-03-1.51567E-01 3.47257E-14-1.61818E-13
 -1      3009 2.81606E+01-1.04587E+00-6.52238E-02-8.90325E-01 1.26579E-13 2.99163E-13
 -1      3010 2.29409E+01-4.69284E+00 6.02313E-02-3.68223E+00-6.04378E-15-7.96151E-14
 -1      3011 1.95455E+01-4.67449E+00 5.89215E-02-5.61485E+00 4.79755E-14-3.66429E-13
 -1      3012 2.15069E+01-4.45810E+00 2.85983E-02-4.38781E+00 6.27554E-14-1.78147E-13
 -1      3013 1.79733E+01-3.78517E+00 9.32597E-02-5.59630E+00 4.71151E-14-2.32418E-13
 -1      3014 2.11677E+01-4.88114E+00 7.44141E-02 5.09030E+00 1.95177E-13 2.95327E-13
 -1      3015 1.97052E+01-4.17141E+00 7.06877E-02 5.17061E+00 2.34646E-13 2.12413E-13
 -1      3016 2.26448E+01-4.75693E+00-6.56102E-02 3.86569E+00 1.97897E-13 4.40545E-13
 -1      3017 8.45461E+00-7.79611E-02 1.81056E-01-1.79292E-01-7.06935E-14 1.03750E-13
 -1      3018 1.55782E+01-2.51105E+00 9.33360E-02 4.99408E+00-6.03684E-15-1.07553E-15
 -1      3019 1.30283E+01-2.24426E+00 1.57984E-01 5.26013E+00-7.52454E-14-1.09301E-13
 -1      3020 1.17460E+01-1.16529E+00 9.27853E-02 4.18426E+00-2.36040E-13-6.33105E-14
 -1      3021 2.73728E+01 1.93633E+00-9.39809E-02-2.58323E+00-1.06165E-13-7.55784E-14
 -1      3022 9.75254E+00-9.64818E-01 1.85966E-01 3.72133E+00 9.52155E-14-2.15106E-14
 -1      3023 2.59298E+01-4.10827E+00-7.56887E-03 1.87189E+00 1.02827E-13 3.47278E-13
 -1      3024 2.00224E+01 1.52233E-01 4.43188E-04 1.55724E-01 3.16325E-13 3.64045E-13
 -1      3025 2.00341E+01 1.56710E-01 1.16296E-03 1.77127E-01 4.07805E-13 3.55279E-14
 -1      3026 2.00020E+01 1.75991E-01-1.21933E-03 1.59036E-01 2.46144E-13 4.86217E-13
 -1      3027 1.73411E+01-3.63860E+00 1.06603E-01-5.38675E+00-1.27995E-13-1.60441E-13
 -1      3028 2.82987E+01-2.54549E+00-9.38318E-02 7.15365E-01 7.75977E-14 1.35628E-13
 -1      3029 2.72396E+01-2.42236E+00-2.74957E-02 1.14377E+00 8.52339E-14 7.11341E-14
 -1      3030 2.66617E+01-3.25876E+00 2.20309E-02 3.49070E-01 5.36637E-14 1.16913E-13
 -1      3031 2.74855E+01-3.96900E+00-9.98664E-03-6.60232E-01 3.17689E-14 1.10731E-13
 -1      3032 2.93541E+01 3.60065E+00-1.30623E-01-1.77727E+00 8.78742E-14 2.22239E-13
 -1      3033 2.82578E+01 2.12307E+00-6.66013E-02-1.88301E+00 9.39110E-14 2.33008E-13
 -1      3034 2.80651E+01 4.39525E+00-1.73661E-01-1.88304E+00-5.88973E-14 4.75370E-13
 -1      3035 2.00224E+01 1.45001E-01 1.99446E-04-1.49585E-01-2.01518E-13-2.73410E-14
 -1      3036 2.52059E+01-4.37343E+00-5.27153E-03-2.43000E+00 1.32817E-13 5.33740E-14
 -1      3037 2.83143E+01 1.46592E+00-1.08312E-01 1.93421E+00-5.85920E-14-2.24543E-14
 -1      3038 2.72395E+01 2.37733E+00-1.62025E-01 2.24059E+00 4.21885E-14 2.54657E-14
 -1      3039 2.73373E+01 2.18972E-01-3.36465E-02 1.79863E+00 6.54893E-14-1.43108E-13
 -1      3040 2.74724E+01 5.11591E+00-9.66165E-02 1.34066E+00-5.07927E-14 2.15980E-13
 -1      3041 7.99987E+00-4.97288E-01 1.97265E-01 1.55400E+00-4.46101E-13-1.59150E-13
 -1      3042 2.62187E+01 5.62931E+00-1.12455E-01-2.15619E-01-4.76286E-14 4.22716E-13
 -1      3043 2.79442E+01 6.13054E+00-1.79693E-01-5.59593E-01-6.43097E-14 3.89548E-13
 -1      3044 2.73173E+01 5.56077E+00-1.48278E-01-1.15863E+00-7.73270E-14 4.40870E-13
 -1      3045 1.09602E+01-1.40485E+00 1.66373E-01-4.30518E+00-2.19602E-13-7.69662E-14
 -1      3046 1.31847E+01-1.78670E+00 1.47636E-02-4.68342E+00-1.54626E-13-1.04444E-13
 -1      3047 1.08013E+01-4.41414E-01 9.84256E-02-3.16725E+00-1.22811E-13-4.41730E-14
 -1      3048 2.02872E+01 1.38122E+00 2.17329E-03 8.99755E-01 1.13376E-13-1.48376E-13
 -1      3049 1.46207E+01-3.03901E+00 1.50129E-01 5.80351E+00 2.60625E-13-1.27814E-13
 -1      3050 1.99650E+01 2.23364E-01-1.20977E-03 1.47768E-01 2.48348E-13 1.96215E-13
 -1      3051 1.99846E+01 2.01931E-01 2.68181E-04 1.55059E-01 2.21591E-13 1.57135E-13
 -1      3052 1.99874E+01 2.10126E-01 9.41659E-04 1.77539E-01 2.50294E-13 2.00900E-13
 -1      3053 1.99456E+01 2.55192E-01 9.21331E-04 1.59593E-01 1.36724E-13 2.39558E-14
 -1      3054 1.98269E+01 2.85129E+00-5.84024E-03-3.43990E-01-6.27871E-14-1.56794E-13
 -1      3055 1.98515E+01 2.80152E+00-6.17229E-03-4.95134E-01-9.41991E-14-1.43373E-13
 -1      3056 2.00031E+01 2.43096E+00 4.57462E-03-4.93798E-01-8.78343E-14-1.40384E-13
 -1      3057 1.99552E+01 2.54368E+00 3.86134E-03-2.48510E-01-5.31616E-14-1.61106E-13
 -1      3058 2.94701E+01 3.94484E+00-2.35921E-01-2.12684E+00-1.53932E-13-2.38712E-13
 -1      3059 2.97070E+01 2.19868E+00-5.53683E-02-2.38712E+00-1.95344E-13-1.76748E-13
 -1      3060 2.01330E+01-4.38183E+00 8.87718E-02 4.89228E+00 1.05652E-13 1.24005E-13
 -1      3061 2.00281E+01 1.51271E-01-2.58497E-04-1.78871E-01-4.09749E-13-1.91511E-13
 -1      3062 2.00060E+01 1.70186E-01-3.40099E-04-1.64716E-01-2.10968E-13 1.74883E-14
 -1      3063 1.99955E+01 1.95805E-01 6.93271E-04-1.85869E-01-2.08272E-13 2.04594E-14
 -1      3064 2.00364E+01 1.60342E-01 9.80626E-04-1.99645E-01-2.30585E-13-1.39483E-13
 -1      3065 2.61107E+01-4.19729E+00 1.78907E-02-1.16737E+00 7.72438E-14 9.27661E-14
 -1      3066 2.01495E+01 2.14378E+00 1.16266E-03-1.12516E+00-1.64834E-13-6.49424E-14
 -1      3067 2.02954E+01 1.69152E+00-1.08704E-02-1.23269E+00-1.82404E-13-4.87739E-15
 -1      3068 2.02925E+01 1.31519E+00-1.08268E-03-9.57320E-01-1.64035E-13-5.73456E-15
 -1      3069 2.02129E+01 1.87696E+00 9.05819E-03-9.09556E-01-1.46656E-13-5.83195E-14
 -1      3070 2.02829E+01 1.38362E+00 1.97775E-03-8.58960E-01-1.53837E-13-3.32298E-14
 -1      3071 8.36076E+00 6.94209E-03 1.36824E-01-1.30672E+00-3.94678E-13 1.41359E-13
 -1      3072 1.00107E+01-3.85594E-01 7.42553E-02-3.10403E+00-3.78725E-14 2.37421E-13
 -1      3073 2.02499E+01 1.50460E+00-6.00967E-03 7.79292E-01 6.75700E-14-1.63203E-13
 -1      3074 2.02106E+01 1.69610E+00-7.26326E-04 7.23136E-01 5.05816E-14-1.55661E-13
 -1      3075 2.67405E+01-2.67463E+00 2.94267E-02 1.74610E-01 9.02958E-14-1.91312E-13
 -1      3076 2.68511E+01-1.70832E+00-1.45711E-01 9.96765E-01 5.32838E-14-2.92280E-13
 -1      3077 2.02892E+01 7.52734E-01 8.25048E-03-3.06630E-01-8.83629E-14-3.36775E-14
 -1      3078 2.02417E+01 5.94491E-01-3.02419E-03-1.67129E-01-7.05590E-14-2.96582E-14
 -1      3079 1.26593E+01-1.46343E+00 8.64458E-02-4.69847E+00 1.70239E-13 1.98508E-13
 -1      3080 1.50942E+01-2.69378E+00 7.14474E-02-5.60926E+00 1.29424E-13 3.03091E-14
 -1      3081 2.86948E+01 3.86179E-01-8.08346E-02-2.20997E+00-1.36086E-13-1.70072E-13
 -1      3082 2.74996E+01-2.66609E+00-9.31270E-02-9.61262E-01 1.36524E-13-2.72483E-13
 -1      3083 2.69466E+01-3.70449E+00 2.66541E-02 2.90083E-01 2.22140E-13-2.73254E-13
 -1      3084 2.02349E+01 4.74275E-01 3.90035E-03-6.27488E-02-7.37407E-14-1.13875E-14
 -1      3085 2.01994E+01 3.76039E-01-1.81207E-03 3.35210E-02-6.37052E-14-2.86223E-14
 -1      3086 2.02800E+01 6.35255E-01-6.96431E-04-1.35029E-01-4.97020E-14-5.75444E-14
 -1      3087 2.01840E+01 3.02186E-01 2.80420E-03 1.08270E-01-6.42455E-14-1.93479E-14
 -1      3088 2.01593E+01 2.43022E-01-7.03859E-04 1.74505E-01-8.98298E-14-4.70725E-14
 -1      3089 2.02457E+01 4.09456E-01-7.97041E-04 5.07942E-02-6.83620E-14-6.85760E-14
 -1      3090 2.01403E+01 2.00885E-01 1.71896E-03 2.27658E-01-9.88292E-14-2.13924E-14
 -1      3091 2.01263E+01 1.69543E-01 1.16977E-04 2.74813E-01-9.22330E-14-1.81170E-14
 -1      3092 2.02034E+01 2.70831E-01-9.76953E-04 1.84248E-01-6.27696E-14-7.89424E-15
 -1      3093 2.01067E+01 1.49696E-01 8.18203E-04 3.14907E-01-7.03697E-14-3.98841E-15
 -1      3094 2.01019E+01 1.38145E-01 7.08958E-04 3.51649E-01-7.66579E-14 1.18144E-14
 -1      3095 2.01612E+01 1.95753E-01-9.06762E-04 2.82188E-01-6.80594E-14-1.57169E-14
 -1      3096 2.00830E+01 1.34098E-01 9.48416E-05 3.85575E-01-3.99677E-14 4.48686E-14
 -1      3097 2.00860E+01 1.36564E-01 1.14643E-03 4.18472E-01-1.64112E-14 1.11665E-13
 -1      3098 2.01221E+01 1.66166E-01-7.44222E-04 3.59925E-01-2.15074E-14 2.18591E-14
 -1      3099 2.00679E+01 1.43458E-01-4.62590E-04 4.51645E-01-2.84306E-14 1.23003E-13
 -1      3100 2.00776E+01 1.55344E-01 1.48154E-03 4.85474E-01-5.39011E-16 1.29099E-13
 -1      3101 2.00867E+01 1.68916E-01-5.66110E-04 4.29896E-01 7.90980E-15 8.46653E-14
 -1      3102 2.00605E+01 1.69040E-01-8.65447E-04 5.21949E-01-4.53278E-14 1.63677E-13
 -1      3103 2.00764E+01 1.86126E-01 1.74789E-03 5.59923E-01-7.35561E-14 9.63261E-14
 -1      3104 2.00545E+01 1.93443E-01-4.14467E-04 5.01745E-01-3.08429E-14 1.26642E-13
 -1      3105 2.00607E+01 2.02488E-01-1.11061E-03 6.02506E-01-7.05270E-14 1.43371E-13
 -1      3106 2.00829E+01 2.20224E-01 1.96557E-03 6.46355E-01-3.58072E-14 1.24503E-13
 -1      3107 2.00258E+01 2.30055E-01-3.27505E-04 5.82532E-01-6.66439E-14 1.60146E-13
 -1      3108 2.00700E+01 2.34447E-01-1.16830E-03 6.96647E-01-9.73061E-15 8.15756E-14
 -1      3109 2.00997E+01 2.47262E-01 2.14629E-03 7.46535E-01-1.87303E-14 6.33103E-14
 -1      3110 2.00014E+01 2.68387E-01-3.59490E-04 6.76918E-01-3.42739E-14 2.00943E-13
 -1      3111 2.00922E+01 2.53205E-01-9.71792E-04 8.04829E-01-3.89541E-14 7.34426E-14
 -1      3112 2.01322E+01 2.53821E-01 2.29727E-03 8.59089E-01-1.93538E-14 4.55942E-14
 -1      3113 1.99844E+01 2.95886E-01-5.94139E-04 7.87186E-01-3.33721E-14 8.04715E-14
 -1      3114 2.01353E+01 2.43392E-01-4.06597E-04 9.24118E-01-1.84379E-14 2.04120E-15
 -1      3115 2.01901E+01 2.22233E-01 2.41466E-03 9.78810E-01-2.81326E-14 4.54117E-15
 -1      3116 1.99817E+01 2.96315E-01-1.16097E-03 9.12993E-01-6.25125E-14 7.81092E-15
 -1      3117 2.02128E+01 1.84962E-01 7.03388E-04 1.04724E+00-6.42990E-14-2.31550E-14
 -1      3118 2.02900E+01 1.29871E-01 2.44738E-03 1.09547E+00-1.11609E-13 3.80503E-15
 -1      3119 2.00056E+01 2.48421E-01-2.25943E-03 1.05081E+00-4.04984E-14-5.93454E-14
 -1      3120 2.03467E+01 5.30764E-02 2.59972E-03 1.16091E+00-9.54463E-14-1.14578E-14
 -1      3121 2.04571E+01-5.00219E-02 2.23430E-03 1.19177E+00-3.62425E-14-1.01178E-14
 -1      3122 2.00772E+01 1.25226E-01-4.17152E-03 1.19267E+00-7.59837E-14-5.71502E-14
 -1      3123 2.05697E+01-1.79534E-01 5.60212E-03 1.24275E+00-2.58552E-14 2.31791E-14
 -1      3124 2.07269E+01-3.43717E-01 1.41229E-03 1.23993E+00-2.45945E-14 1.89305E-14
 -1      3125 2.02296E+01-1.04832E-01-7.21720E-03 1.32345E+00-1.70614E-14-1.18914E-14
 -1      3126 2.09252E+01-5.34730E-01 9.98377E-03 1.25639E+00 3.19081E-15 7.51294E-14
 -1      3127 2.11424E+01-7.64543E-01-7.26224E-04 1.19655E+00-2.75040E-14 1.08457E-13
 -1      3128 2.05108E+01-4.71968E-01-1.15626E-02 1.41544E+00 1.73608E-14 1.97078E-14
 -1      3129 2.14611E+01-1.01057E+00 1.55522E-02 1.14475E+00-7.16202E-14 1.95109E-13
 -1      3130 2.17418E+01-1.28639E+00-5.14078E-03 9.97547E-01-1.06963E-14 1.22114E-13
 -1      3131 2.09829E+01-9.88975E-01-1.68842E-02 1.41902E+00-8.15136E-15 7.38463E-14
 -1      3132 2.22074E+01-1.54534E+00 2.09519E-02 8.24273E-01 3.86843E-15 6.65082E-14
 -1      3133 2.25298E+01-1.79257E+00-1.13996E-02 5.58959E-01 5.76674E-14 3.77515E-14
 -1      3134 2.17105E+01-1.61729E+00-2.13677E-02 1.24974E+00-2.12178E-14 3.52101E-14
 -1      3135 2.31178E+01-1.95260E+00 2.01648E-02 2.07104E-01 1.27062E-14-4.21399E-14
 -1      3136 2.34220E+01-2.01725E+00-1.83438E-02-1.74958E-01-4.78142E-14-1.30313E-13
 -1      3137 2.27164E+01-2.18446E+00-1.91085E-02 7.84019E-01-3.28701E-14 3.15049E-14
 -1      3138 2.40073E+01-1.88104E+00 4.19684E-03-7.13612E-01-9.65278E-14-5.78608E-14
 -1      3139 2.41950E+01-1.54259E+00-1.91290E-02-1.12163E+00-1.19096E-13-4.48961E-14
 -1      3140 2.38803E+01-2.34363E+00-1.85855E-02-8.88987E-02-1.92710E-14-8.96254E-14
 -1      3141 2.45946E+01-9.52272E-01-2.92388E-02-1.69930E+00-5.68157E-14-1.14459E-15
 -1      3142 2.45882E+01-1.64781E-02-1.66059E-03-1.96649E+00-2.67425E-14 7.76336E-14
 -1      3143 2.49230E+01-1.57595E+00-2.68853E-02-1.22549E+00-7.47249E-14 3.32811E-14
 -1      3144 2.39380E+01 3.01719E+00-8.17493E-02-1.26000E+00-4.74447E-14 2.03821E-14
 -1      3145 2.39072E+01 3.57941E+00-2.85301E-02-5.85368E-01 1.45980E-13-7.08981E-15
 -1      3146 2.38879E+01 3.72952E+00-3.88256E-02 3.94947E-01 1.55667E-13-1.21275E-13
 -1      3147 2.38703E+01 3.32479E+00-1.12194E-01 1.16778E+00 1.08011E-13-9.64853E-14
 -1      3148 2.50212E+01 2.10882E+00-5.31630E-02 1.93510E+00 2.22329E-13-7.55888E-14
 -1      3149 2.51851E+01 8.80824E-01-9.53614E-02 2.18773E+00 1.81679E-13 7.95197E-15
 -1      3150 2.50889E+01-4.85938E-01-3.77508E-02 1.70237E+00 1.92079E-13 2.51446E-14
 -1      3151 2.50673E+01-1.33505E+00-1.82088E-02 1.47157E+00 2.06359E-13 5.14328E-14
 -1      3152 2.35791E+01-1.98228E+00-4.87566E-03 3.03781E-01 1.75335E-13 2.08562E-13
 -1      3153 2.32435E+01-1.97054E+00 2.28120E-02-1.09444E-01 1.40891E-13 1.39306E-13
 -1      3154 2.26425E+01-1.83087E+00-1.01831E-02-4.76734E-01-9.42042E-15 2.43106E-13
 -1      3155 2.23118E+01-1.59208E+00 2.18891E-02-7.54358E-01-6.02591E-14 1.97002E-13
 -1      3156 2.28409E+01-2.23256E+00-2.21240E-02-7.04025E-01 8.27073E-14 1.30728E-13
 -1      3157 2.18319E+01-1.33660E+00-4.77407E-03-9.41147E-01-9.52910E-14 1.28062E-13
 -1      3158 2.15447E+01-1.05817E+00 1.68770E-02-1.09834E+00-1.24948E-13 8.48731E-14
 -1      3159 2.18189E+01-1.67088E+00-1.85404E-02-1.19555E+00-6.20979E-14 2.67690E-13
 -1      3160 2.12084E+01-8.05257E-01-9.68179E-04-1.15895E+00-2.14322E-13 2.39695E-15
 -1      3161 2.09845E+01-5.65659E-01 1.08420E-02-1.22390E+00-2.85576E-13-2.06464E-14
 -1      3162 2.10577E+01-1.04046E+00-1.67713E-02-1.38778E+00-1.76064E-13 1.30397E-13
 -1      3163 2.07725E+01-3.64593E-01 1.15310E-03-1.20945E+00-2.71786E-13 1.75854E-14
 -1      3164 2.06099E+01-1.89455E-01 6.22486E-03-1.21307E+00-2.04463E-13 3.19893E-14
 -1      3165 2.05558E+01-5.00918E-01-1.20494E-02-1.39273E+00-3.25911E-13 4.08872E-14
 -1      3166 2.04873E+01-4.97699E-02 2.03859E-03-1.15985E+00-1.49872E-13-6.27357E-15
 -1      3167 2.03735E+01 6.35134E-02 3.09437E-03-1.12624E+00-1.22917E-13-1.41247E-13
 -1      3168 2.02531E+01-1.09027E-01-7.58242E-03-1.29894E+00-1.92721E-13 2.56847E-13
 -1      3169 2.03094E+01 1.49358E-01 2.26286E-03-1.05554E+00-1.02441E-15-1.40630E-13
 -1      3170 2.02306E+01 2.13191E-01 1.07847E-03-1.00175E+00 1.07797E-13-5.40141E-14
 -1      3171 2.00852E+01 1.43730E-01-4.37300E-03-1.15966E+00-1.90584E-14 3.91373E-14
 -1      3172 2.02021E+01 2.58077E-01 2.20749E-03-9.25855E-01 1.73084E-13-3.17186E-14
 -1      3173 2.01467E+01 2.86467E-01-1.17678E-04-8.63364E-01 1.60348E-13-2.23108E-14
 -1      3174 2.00021E+01 2.86307E-01-2.32139E-03-1.00455E+00 1.36516E-13-1.61701E-13
 -1      3175 2.01384E+01 3.03077E-01 2.05945E-03-7.89253E-01 7.99575E-14 1.27632E-13
 -1      3176 2.00985E+01 3.08215E-01-7.57517E-04-7.25506E-01 5.75666E-14 4.80518E-14
 -1      3177 1.99685E+01 3.50106E-01-1.09804E-03-8.50046E-01 2.03498E-13-1.13843E-13
 -1      3178 2.01004E+01 3.06987E-01 1.87977E-03-6.57011E-01-3.87247E-15-2.15500E-14
 -1      3179 2.00708E+01 2.98299E-01-1.04107E-03-5.96560E-01-1.46834E-14-3.72970E-14
 -1      3180 1.99616E+01 3.62136E-01-4.19706E-04-7.05125E-01 3.26206E-14-2.27117E-14
 -1      3181 2.00771E+01 2.87041E-01 1.68461E-03-5.35599E-01-7.74989E-14-1.37379E-13
 -1      3182 2.00543E+01 2.71326E-01-1.10729E-03-4.80952E-01-3.52112E-14-1.16507E-13
 -1      3183 1.99674E+01 3.43225E-01-7.38280E-05-5.74455E-01-1.63255E-14-7.23702E-15
 -1      3184 2.00618E+01 2.55530E-01 1.46793E-03-4.28209E-01 4.31050E-14-2.48549E-13
 -1      3185 2.00436E+01 2.37463E-01-1.04870E-03-3.80442E-01-3.09057E-14-3.70586E-13
 -1      3186 1.99778E+01 3.08430E-01 8.87869E-05-4.60043E-01 8.03230E-15-4.39505E-13
 -1      3187 2.00504E+01 2.20878E-01 1.23215E-03-3.35817E-01-1.35365E-13-1.19330E-13
 -1      3188 2.00361E+01 2.03564E-01-7.84220E-04-2.94948E-01-2.64692E-13-7.02131E-14
 -1      3189 1.99887E+01 2.68268E-01 2.27344E-04-3.62202E-01 1.04284E-13-5.61544E-13
 -1      3190 2.00441E+01 1.87951E-01 1.07662E-03-2.62161E-01-3.41076E-13-6.68495E-14
 -1      3191 2.00322E+01 1.73200E-01-4.58769E-04-2.27270E-01-2.58264E-13-9.98585E-14
 -1      3192 2.00090E+01 1.92444E-01-5.15305E-04-2.23137E-01-3.84453E-13-1.11720E-13
 -1      3193 2.00003E+01 2.27838E-01-1.08908E-04-2.84516E-01-3.12856E-13-1.36905E-13
 -1      3194 2.17789E+01-3.95141E+00 1.36569E-01-3.87176E+00-1.13073E-13-9.03925E-14
 -1      3195 2.37922E+01-4.45344E+00-5.65647E-02-2.77251E+00 1.61954E-14 4.32536E-14
 -1      3196 2.76080E+01-6.85644E-02-1.44512E-01-1.71652E+00 1.66520E-13 1.37029E-13
 -1      3197 2.70472E+01-1.61308E+00 2.38201E-02-9.74185E-01 1.24671E-13 2.79846E-13
 -1      3198 2.00635E+01 1.27798E-01 1.41238E-03-4.17569E-01 9.03001E-14-9.62140E-14
 -1      3199 2.00513E+01 1.22616E-01 1.08408E-04-3.83757E-01 6.20300E-14-1.02410E-13
 -1      3200 2.01049E+01 2.57897E-01 2.47342E-03-6.71625E-01 1.89886E-14-7.88265E-14
 -1      3201 2.00727E+01 2.25859E-01-1.71110E-03-6.18395E-01 4.88049E-14-8.92188E-14
 -1      3202 2.01255E+01 3.25449E-01 2.78013E-03-7.96091E-01 3.91471E-14-5.70065E-15
 -1      3203 2.00883E+01 2.89489E-01-2.18670E-03-7.30529E-01 3.30593E-14-3.99310E-14
 -1      3204 2.00124E+01 3.26043E-01 4.09299E-04-7.08855E-01 3.62126E-15-1.20900E-13
 -1      3205 2.01467E+01 3.94336E-01 3.09329E-03-9.47321E-01-8.50662E-15-5.39000E-15
 -1      3206 2.01044E+01 3.58676E-01-2.59744E-03-8.68444E-01 3.59841E-14 2.72125E-14
 -1      3207 1.99831E+01 4.06000E-01 7.79300E-04-8.40164E-01 1.36567E-14-3.12948E-14
 -1      3208 2.01691E+01 4.52175E-01 3.45833E-03-1.12598E+00 2.69245E-14-2.51371E-14
 -1      3209 2.01202E+01 4.23859E-01-2.87908E-03-1.03442E+00 4.67225E-15-2.00637E-14
 -1      3210 1.99443E+01 4.84890E-01 1.08282E-03-9.98817E-01 9.13802E-15 2.18223E-15
 -1      3211 2.01981E+01 4.78193E-01 3.96908E-03-1.32957E+00-5.73749E-14 4.85325E-14
 -1      3212 2.01388E+01 4.69000E-01-2.88587E-03-1.22825E+00-1.57857E-14 7.40440E-15
 -1      3213 1.98958E+01 5.46841E-01 1.15221E-03-1.18676E+00-7.43677E-15-1.58163E-14
 -1      3214 2.02492E+01 4.38621E-01 4.77320E-03-1.55133E+00-2.52971E-15-1.53018E-14
 -1      3215 2.01700E+01 4.67535E-01-2.33433E-03-1.44646E+00-1.20662E-14 1.14791E-14
 -1      3216 1.98428E+01 5.65744E-01 6.31605E-04-1.40471E+00 1.82843E-14 4.37817E-14
 -1      3217 2.03565E+01 2.81743E-01 6.02599E-03-1.77789E+00-6.91172E-14-7.30200E-14
 -1      3218 2.02385E+01 3.77437E-01-6.94683E-04-1.68075E+00-2.56705E-14-5.72099E-14
 -1      3219 1.98029E+01 4.99954E-01-1.13281E-03-1.65227E+00 5.78605E-15-1.04056E-13
 -1      3220 2.05855E+01-6.39560E-02 7.89332E-03-1.98416E+00-3.75636E-14-6.92085E-14
 -1      3221 2.03949E+01 1.37293E-01 3.05374E-03-1.91443E+00-2.54994E-14-2.15400E-14
 -1      3222 1.98161E+01 2.86669E-01-5.19120E-03-1.92696E+00-5.91048E-14-5.19152E-14
 -1      3223 2.10441E+01-6.85254E-01 7.57668E-03-2.12285E+00-2.53066E-14-9.61498E-14
 -1      3224 2.07324E+01-3.30998E-01 1.11559E-02-2.11408E+00-5.90488E-14-9.81703E-14
 -1      3225 1.99608E+01-1.60497E-01-1.31801E-02-2.21852E+00-1.26823E-14 3.31614E-15
 -1      3226 2.18999E+01-1.61722E+00 1.14905E-02-2.10053E+00-4.92557E-14-3.53411E-14
 -1      3227 2.14102E+01-1.07496E+00 3.56523E-02-2.20045E+00 2.77628E-14-1.66889E-14
 -1      3228 2.03756E+01-9.55741E-01-3.21024E-02-2.48747E+00-3.54859E-14 1.90577E-14
 -1      3229 2.37445E+01-3.18029E+00 2.99143E-02-1.72131E+00 3.38731E-14 1.45324E-13
 -1      3230 2.28601E+01-2.70711E+00 1.38332E-02-2.10835E+00-1.20694E-13 1.81699E-14
 -1      3231 2.46672E+01-3.52509E+00 9.66267E-04-1.15728E+00 6.38170E-14 1.45066E-13
 -1      3232 2.20160E+01-1.63636E+00 3.71597E-02 2.11655E+00 8.16128E-14-5.57399E-13
 -1      3233 2.26986E+01-2.14762E+00 3.21122E-02 1.83943E+00-6.36611E-14-5.42841E-13
 -1      3234 2.10697E+01-6.93812E-01 1.66366E-02 2.15574E+00 3.23277E-14-3.36318E-13
 -1      3235 2.14729E+01-1.12712E+00 9.89621E-03 2.10189E+00 3.55484E-14-5.30354E-13
 -1      3236 2.08620E+01-1.50454E+00-2.73613E-02 2.58112E+00 6.11724E-14-4.64531E-13
 -1      3237 2.05749E+01-6.42369E-02 6.90920E-03 1.99862E+00 9.96461E-14-1.24263E-13
 -1      3238 2.08237E+01-3.40842E-01 8.99805E-03 2.04235E+00 6.03324E-14-2.53921E-13
 -1      3239 2.01701E+01-5.13150E-01-1.86260E-02 2.34577E+00-7.49280E-14-2.11565E-13
 -1      3240 2.03351E+01 2.91387E-01 1.27538E-03 1.77129E+00 8.68050E-14 1.35385E-13
 -1      3241 2.04855E+01 1.42450E-01 6.79525E-03 1.86058E+00 1.37779E-13 7.30603E-14
 -1      3242 1.98957E+01 1.01428E-01-8.60099E-03 2.05175E+00-3.17864E-14 1.18074E-14
 -1      3243 2.02272E+01 4.57492E-01-1.36198E-03 1.52493E+00 8.43885E-14 2.14129E-13
 -1      3244 2.03226E+01 3.94455E-01 5.21111E-03 1.63259E+00 1.19124E-13 1.66657E-13
 -1      3245 1.98204E+01 4.33003E-01-2.91158E-03 1.75836E+00 5.64118E-14 1.55588E-13
 -1      3246 2.01802E+01 5.05671E-01-2.40164E-03 1.28438E+00-1.06307E-13 1.70146E-13
 -1      3247 2.02464E+01 4.94234E-01 4.15586E-03 1.39510E+00 9.28507E-14 2.63068E-13
 -1      3248 1.98353E+01 5.74550E-01-1.09294E-04 1.48520E+00 1.38854E-13 2.02737E-13
 -1      3249 2.01571E+01 4.87790E-01-2.63351E-03 1.06189E+00-3.63596E-13 1.79473E-13
 -1      3250 2.02081E+01 5.04218E-01 3.49520E-03 1.16697E+00-2.73978E-13 1.04869E-13
 -1      3251 1.98811E+01 6.01657E-01 9.93214E-04 1.23809E+00-5.50078E-14 3.20756E-13
 -1      3252 2.01411E+01 4.37556E-01-2.48002E-03 8.63437E-01-3.86299E-13 2.65762E-13
 -1      3253 2.01834E+01 4.66823E-01 3.04868E-03 9.58250E-01-4.02584E-13 1.25227E-13
 -1      3254 1.99294E+01 5.66359E-01 1.22715E-03 1.01841E+00-3.73948E-13 1.93701E-13
 -1      3255 2.01257E+01 3.75369E-01-2.16194E-03 6.91284E-01-2.59980E-13 4.27663E-14
 -1      3256 2.01621E+01 4.08564E-01 2.68853E-03 7.73845E-01-2.89906E-13 1.64080E-13
 -1      3257 1.99691E+01 5.01734E-01 1.08084E-03 8.26371E-01-2.40115E-13-1.39044E-13
 -1      3258 2.01093E+01 3.12815E-01-1.78979E-03 5.45240E-01-5.20086E-14 3.38931E-14
 -1      3259 2.01407E+01 3.44968E-01 2.35701E-03 6.15270E-01-2.03126E-13-6.01967E-14
 -1      3260 1.99973E+01 4.27609E-01 8.12809E-04 6.61355E-01-1.94066E-13-3.85527E-13
 -1      3261 2.00921E+01 2.55884E-01-1.45856E-03 4.23481E-01 1.09182E-13 1.35574E-13
 -1      3262 2.01190E+01 2.84548E-01 2.02511E-03 4.81752E-01 1.30761E-13 5.84105E-14
 -1      3263 2.00151E+01 3.55284E-01 5.69312E-04 5.21874E-01-1.49226E-14-2.70474E-13
 -1      3264 2.00748E+01 2.08007E-01-1.10016E-03 3.23511E-01 1.39331E-13 1.63118E-13
 -1      3265 2.00977E+01 2.31628E-01 1.68988E-03 3.71369E-01 1.99588E-13 2.17692E-13
 -1      3266 2.00246E+01 2.90527E-01 3.73740E-04 4.05746E-01 1.46906E-13 9.12104E-14
 -1      3267 2.00589E+01 1.70627E-01-2.45745E-04 2.42227E-01 5.42176E-13-3.31320E-13
 -1      3268 2.00772E+01 1.88134E-01 1.37370E-03 2.80625E-01 2.18462E-13-2.57895E-14
 -1      3269 2.00274E+01 2.36416E-01 1.48960E-04 3.10300E-01 3.28814E-13-1.69118E-13
 -1      3270 2.00382E+01 1.60941E-01 3.70293E-04 1.96445E-01 6.15144E-13-2.22759E-13
 -1      3271 2.00540E+01 1.66062E-01 1.13950E-03 2.20109E-01 6.22975E-13-2.83857E-13
 -1      3272 2.00201E+01 2.04615E-01-3.27393E-04 2.44478E-01 5.04025E-13-3.72810E-13
 -1      3273 2.00091E+01 1.88728E-01-1.24375E-03 2.00915E-01 3.19843E-13 2.53799E-13
 -1      3274 1.98603E+01 3.29119E-01 7.80136E-05-9.67960E-02-2.05438E-13 3.66880E-13
 -1      3275 1.98476E+01 3.38553E-01-1.01869E-03-6.52262E-02-5.24136E-14 3.78698E-13
 -1      3276 1.98405E+01 3.47444E-01-4.19557E-04-2.51230E-02-5.96527E-14-7.67158E-14
 -1      3277 1.98390E+01 3.49015E-01-6.41463E-04 1.01139E-02 1.02147E-14-2.94768E-13
 -1      3278 1.98149E+01 3.72565E-01 1.24365E-03-5.13196E-02-1.40436E-13 1.55907E-13
 -1      3279 1.63959E+01-2.45495E+00 1.61743E-01-4.95599E+00-1.59248E-13-1.73257E-13
 -1      3280 1.88082E+01-3.56745E+00-6.73910E-02-4.76856E+00-9.90943E-14-1.89258E-13
 -1      3281 1.14172E+01-1.13738E+00 4.72418E-02 4.39957E+00 9.11632E-14-4.40203E-14
 -1      3282 9.89095E+00-2.29300E-01 8.21142E-02 2.76652E+00 4.96131E-14 8.32667E-15
 -1      3283 2.02562E+01 1.45274E+00-6.97052E-03-8.00852E-01-1.47409E-13-3.95792E-14
 -1      3284 2.02986E+01 1.24522E+00 9.37310E-03-6.92366E-01-1.25634E-13-4.16990E-14
 -1      3285 2.02628E+01 9.81994E-01-6.31407E-03-4.97219E-01-1.13371E-13-4.53370E-14
 -1      3286 2.02127E+01 1.69618E+00 1.30348E-04-7.47176E-01-1.30248E-13-7.03101E-14
 -1      3287 1.98995E+01 2.92953E-01 5.08741E-04-1.55706E-01-1.38596E-13-5.56658E-14
 -1      3288 1.98773E+01 3.09554E-01-1.27758E-03-1.30743E-01-2.30040E-13 7.55817E-14
 -1      3289 1.98442E+01 3.45699E-01 1.03870E-03-1.28621E-01-1.33118E-13 1.34605E-13
 -1      3290 2.56908E+01-4.46688E+00-5.81165E-02 1.61243E+00 1.82673E-13-1.59917E-13
 -1      3291 2.37884E+01-4.51570E+00 3.28401E-02 2.91183E+00 1.24952E-13-4.96972E-14
 -1      3292 2.60256E+01-3.73624E+00 3.38382E-02 6.09154E-01 2.32408E-13-3.17985E-13
 -1      3293 1.99522E+01 2.41997E-01 2.25750E-04-1.93388E-01-1.58603E-13-1.51414E-13
 -1      3294 1.99248E+01 2.64859E-01-1.27594E-03-1.79360E-01-1.13845E-13 5.62385E-14
 -1      3295 1.98948E+01 3.00928E-01 6.75671E-04-1.88886E-01-1.41492E-13 5.93297E-14
 -1      3296 2.00647E+01 1.24460E-01 9.47003E-04-3.48738E-01 1.67303E-14-1.03687E-13
 -1      3297 2.00622E+01 1.33778E-01 9.71046E-04-3.11707E-01-2.32260E-15-1.09227E-13
 -1      3298 2.00970E+01 1.54035E-01-9.38049E-04-3.63608E-01 5.15753E-14-9.85445E-14
 -1      3299 2.00862E+01 1.99182E-01 2.15115E-03-5.70818E-01 1.07599E-13-1.23343E-13
 -1      3300 2.00596E+01 1.73819E-01-1.18625E-03-5.27703E-01 1.26364E-13-1.08796E-13
 -1      3301 2.00350E+01 2.54776E-01 4.52918E-05-6.01485E-01 4.84628E-14-5.61101E-14
 -1      3302 2.00715E+01 1.54368E-01 1.80291E-03-4.88505E-01 1.10996E-13-1.38488E-13
 -1      3303 2.00515E+01 1.37895E-01-5.93597E-04-4.52226E-01 1.05989E-13-1.26523E-13
 -1      3304 2.00740E+01 1.63199E-01-6.26083E-04-4.36677E-01 1.23222E-13-9.54182E-14
 -1      3305 2.00543E+01 1.98705E-01-3.02114E-04-5.13026E-01 1.00029E-13-1.36725E-13
 -1      3306 2.00778E+01 1.51228E-01 3.52593E-04-2.70107E-01-3.09908E-15-1.04575E-13
 -1      3307 2.00875E+01 1.79787E-01 2.04818E-03-2.22452E-01 2.00156E-14-1.07507E-13
 -1      3308 2.01262E+01 1.78867E-01-1.22474E-03-2.82514E-01 1.02068E-14-1.08281E-13
 -1      3309 2.18471E+01-4.35512E+00-7.32584E-03 4.01879E+00 8.03524E-14 1.05256E-13
 -1      3310 1.93300E+01-3.51132E+00 5.85616E-02 4.57444E+00 5.24997E-14 8.05467E-14
 -1      3311 9.37983E+00 3.38599E-01 1.23180E-01 1.00843E+00 1.61399E-14 1.26316E-13
 -1      3312 9.67778E+00 2.62099E-01 6.93524E-02-1.06742E+00-4.90311E-14 2.02283E-13
 -1      3313 2.60248E+01-3.70681E+00-1.54271E-01 7.95886E-01 8.91162E-14 2.58831E-13
 -1      3314 2.49481E+01-4.21987E+00 9.82437E-02 2.21418E+00 9.40463E-14 3.56135E-13
 -1      3315 1.65363E+01-3.25254E+00 1.68578E-02 5.55647E+00 2.46234E-13-2.50494E-15
 -1      3316 1.37136E+01-2.04149E+00 1.27803E-01 5.22024E+00 1.19682E-13-1.01530E-13
 -1      3317 9.98842E+00-1.91683E-01 6.87310E-02 2.55276E+00-4.79339E-13-2.75294E-13
 -1      3318 8.61138E+00 1.63950E-01 1.35033E-01 5.43158E-01-4.51409E-13-2.01200E-13
 -1      3319 1.03046E+01 4.46817E-01 1.39145E-01-9.10197E-02-4.01458E-13-1.02932E-13
 -1      3320 2.03004E+01 1.00761E+00-4.68026E-04 6.65488E-01 1.09095E-13-1.11667E-13
 -1      3321 2.02770E+01 1.32742E+00 2.77196E-03 7.46901E-01 9.06910E-14-1.33175E-13
 -1      3322 2.02818E+01 1.15516E+00 1.14959E-04 5.64520E-01 7.38139E-14-1.22651E-13
 -1      3323 2.02443E+01 7.99127E-01-3.54439E-03 4.55012E-01 9.67823E-14-1.11264E-13
 -1      3324 2.01054E+01 2.18452E-01-4.53620E-04-1.66459E-01 4.26097E-14-1.14182E-13
 -1      3325 2.01300E+01 2.73517E-01 3.35146E-03-9.84513E-02 4.49911E-14-9.92525E-14
 -1      3326 2.01629E+01 2.48795E-01-1.43480E-03-1.79135E-01 1.78897E-14-9.22270E-14
 -1      3327 2.39535E+01-4.41836E+00 4.93370E-02-2.89215E+00 2.14405E-13-7.40449E-14
 -1      3328 2.56327E+01-3.92854E+00-9.49623E-02-1.31602E+00 2.13340E-13-4.63657E-14
 -1      3329 2.56082E+01-3.26696E+00-3.37284E-03-5.09690E-01 3.04940E-13-2.07924E-13
 -1      3330 2.63410E+01 4.38754E+00-5.17559E-02 1.60731E+00 6.84036E-14 1.21875E-13
 -1      3331 2.54729E+01 4.87229E+00-1.99639E-01 5.85655E-01 4.50057E-14 2.19304E-13
 -1      3332 2.00493E+01 2.20631E+00-4.29113E-03 2.81470E-01-2.25365E-14-2.06138E-13
 -1      3333 2.00349E+01 2.24664E+00-3.48518E-03 1.63631E-01-4.19064E-14-2.08460E-13
 -1      3334 2.00274E+01 2.26650E+00-3.76782E-03 6.36820E-02-3.41678E-14-2.00652E-13
 -1      3335 2.00270E+01 2.26740E+00-3.71653E-03-5.62075E-02-3.21259E-14-1.99508E-13
 -1      3336 2.01383E+01 1.97938E+00 5.28231E-03 9.59590E-02-2.77796E-14-2.00543E-13
 -1      3337 2.02619E+01 1.49838E+00 7.03346E-03 5.60737E-01 3.65684E-14-1.60532E-13
 -1      3338 2.01679E+01 1.83375E+00-6.81293E-03 6.63062E-01 3.98677E-14-1.70191E-13
 -1      3339 2.01316E+01 1.96567E+00-2.93323E-03 5.69781E-01 2.98342E-14-1.80420E-13
 -1      3340 2.66106E+01-5.45621E-01-7.13402E-03 1.69737E+00 1.80345E-13-1.67963E-13
 -1      3341 2.02067E+01 3.80630E-01-1.47611E-03-3.61294E-02 5.04165E-14-7.20671E-14
 -1      3342 2.01480E+01 3.42773E-01-1.51060E-03-1.85982E-02 4.48870E-14-1.01661E-13
 -1      3343 2.01877E+01 4.35987E-01 4.25186E-03 8.25778E-02 5.51616E-14-9.57024E-14
 -1      3344 1.74888E+01-3.00690E+00 7.50893E-02-5.04163E+00 1.21146E-13-1.73476E-13
 -1      3345 2.78355E+01 1.39243E+00-2.01331E-01-2.64610E+00-1.09773E-13-2.12358E-13
 -1      3346 2.81517E+01-4.61798E-01-1.14504E-02-2.19344E+00-3.52079E-14-1.65187E-13
 -1      3347 2.78368E+01 3.25963E+00-5.68114E-03-2.43640E+00-1.61884E-13-1.52406E-13
 -1      3348 2.75362E+01-2.23810E+00-9.71769E-02-1.52227E+00 1.02980E-13-1.76512E-13
 -1      3349 2.36131E+01-4.17759E+00 4.55763E-02 2.79026E+00 1.63525E-13 3.15963E-13
 -1      3350 2.46005E+01 4.19356E+00-6.34507E-02-1.38645E-01 8.80268E-14 1.35567E-13
 -1      3351 2.43092E+01 2.35061E+00 1.71902E-04-1.85333E+00-1.67505E-13 3.53519E-14
 -1      3352 2.48561E+01 3.18587E+00-3.96051E-02-1.69016E+00-1.13881E-13 1.71137E-13
 -1      3353 2.44225E+01 1.22733E+00-7.37003E-02-2.07166E+00-1.48406E-13 1.40559E-13
 -1      3354 2.52063E+01-2.49371E+00-5.26817E-02 4.87504E-01 2.83392E-13 1.59829E-14
 -1      3355 2.43288E+01-1.69347E+00-7.24823E-03 9.99298E-01 1.12780E-13 2.02760E-13
 -1      3356 2.40745E+01-2.00774E+00 1.55072E-02 5.64165E-01 1.62111E-13 2.41685E-13
 -1      3357 2.46291E+01-3.23936E+00 2.63637E-02-7.49050E-01 3.13374E-13-1.06416E-13
 -1      3358 2.69505E+01 1.16875E+00-6.85512E-02-2.09941E+00 8.33639E-14 2.22544E-13
 -1      3359 1.17553E+01-3.90518E-01 1.35628E-01 3.25842E+00-3.41980E-13 7.88675E-14
 -1      3360 1.20580E+01 1.70024E-01 6.72021E-02 2.41495E+00-3.88712E-13 3.14124E-14
 -1      3361 1.35346E+01-8.57983E-01 1.01412E-02 3.89357E+00-1.69498E-13 1.29341E-13
 -1      3362 1.78289E+01-2.84506E+00 5.99111E-02 4.81237E+00 4.48044E-14 1.62717E-14
 -1      3363 1.61440E+01-1.85557E+00 5.71778E-02 4.43345E+00-4.32016E-14 6.06737E-14
 -1      3364 1.97576E+01-2.71529E+00 8.19307E-02 3.90737E+00 4.96703E-14-7.26502E-15
 -1      3365 1.86091E+01-3.48578E+00 1.00038E-01 5.11087E+00 2.35326E-13 1.61086E-13
 -1      3366 1.74911E+01-2.62936E+00 4.23556E-02 4.76870E+00 1.34889E-13 1.67699E-13
 -1      3367 2.01307E+01-3.74887E+00-4.50382E-02 4.33588E+00 1.93939E-13 2.13590E-13
 -1      3368 2.61648E+01-2.33672E+00-3.80750E-03-4.65375E-01 6.33642E-14 1.67102E-13
 -1      3369 2.14996E+01-2.56760E+00-4.75503E-02-2.79442E+00-1.18085E-13 5.42587E-14
 -1      3370 2.13028E+01-2.83756E+00-2.69975E-02 3.14375E+00 2.75144E-14-2.74582E-13
 -1      3371 2.27383E+01-2.87936E+00 4.04706E-02 2.30281E+00 4.66164E-15-3.60528E-13
 -1      3372 2.68235E+01 4.38022E+00-9.32674E-02-1.55560E+00-5.69267E-14 3.96530E-13
 -1      3373 2.01246E+01 1.97711E+00-3.28934E-03-5.62999E-01-8.66575E-14-1.08335E-13
 -1      3374 2.01582E+01 1.84652E+00-8.69604E-03-6.57294E-01-1.12181E-13-1.03313E-13
 -1      3375 1.37946E+01-1.23797E+00 1.19622E-01 4.35853E+00 8.69305E-14-4.94951E-14
 -1      3376 2.30310E+01-4.03084E+00-1.73076E-02 2.86316E+00 9.64021E-14-1.73418E-13
 -1      3377 1.98690E+01 3.23999E-01-1.16509E-03 1.21819E-01-7.17379E-14 2.60706E-13
 -1      3378 1.98899E+01 3.08819E-01 2.11040E-04 1.49288E-01 3.15349E-14 1.76660E-13
 -1      3379 2.00666E+01 2.15421E+00-3.39785E-03-3.68730E-01-7.25275E-14-1.27338E-13
 -1      3380 2.00932E+01 2.07327E+00-5.30942E-03-4.79317E-01-7.81747E-14-1.31132E-13
 -1      3381 2.02068E+01 1.75438E+00 8.14530E-03-4.34981E-01-7.68795E-14-1.07229E-13
 -1      3382 1.53701E+01-1.60533E+00 7.93873E-02-4.32764E+00-1.38341E-13-1.08163E-13
 -1      3383 1.98431E+01 3.45941E-01-8.77583E-04 5.12049E-02-1.83477E-14-9.95531E-14
 -1      3384 1.98534E+01 3.38996E-01-2.01667E-04 8.49213E-02-6.96653E-14 2.52344E-14
 -1      3385 1.98345E+01 3.61361E-01 1.20623E-03 1.15062E-01-3.90303E-14 9.44312E-14
 -1      3386 1.98113E+01 3.78172E-01 1.30834E-03 3.34826E-02-1.46803E-14-6.09490E-14
 -1      3387 1.10935E+01 3.08281E-01 1.19649E-01 1.76323E+00 7.15192E-14 1.19980E-13
 -1      3388 2.01933E+01 5.21164E-01-2.44574E-03 1.77222E-01 7.33380E-14-1.07634E-13
 -1      3389 2.02445E+01 6.63921E-01 3.82428E-03 3.24714E-01 9.04020E-14-1.01455E-13
 -1      3390 2.02726E+01 8.25501E-01 9.22550E-04 3.85892E-01 9.22967E-14-6.93919E-14
 -1      3391 2.02443E+01 5.69382E-01-1.41591E-03 1.48942E-01 6.02809E-14-5.06950E-14
 -1      3392 2.02839E+01 1.01948E+00-5.14946E-03-4.34653E-01-9.62401E-14-4.47773E-14
 -1      3393 2.48958E+01-4.02771E+00-2.18274E-02-1.60713E+00 4.29622E-14 1.81063E-13
 -1      3394 2.38338E+01-2.54137E+00-4.33797E-02-1.35501E-01 1.45903E-13 3.01590E-13
 -1      3395 2.51814E+01 4.84509E+00-1.02684E-01 1.05264E-01 6.53227E-14 2.31985E-13
 -1      3396 1.09244E+01 2.52533E-01 1.43131E-01-2.00537E+00-6.22315E-14 8.45157E-15
 -1      3397 1.22574E+01-1.35095E-01-7.07313E-03-2.80765E+00-5.14502E-14-2.85674E-14
 -1      3398 1.14455E+01 6.26098E-01 4.93530E-02-9.46745E-01 5.94524E-14 1.66395E-13
 -1      3399 2.14066E+01-3.93220E+00 4.13801E-02-3.92587E+00 1.04916E-13-2.48550E-13
 -1      3400 2.27978E+01-4.43532E+00 2.91863E-03-3.54325E+00 1.82587E-13-1.49838E-13
 -1      3401 2.36149E+01-3.92919E+00 3.03280E-02-2.36714E+00 2.74967E-13-2.11940E-13
 -1      3402 2.36339E+01-3.37084E+00 2.18159E-02 1.87621E+00 1.53037E-14-3.26478E-13
 -1      3403 2.52980E+01 6.87832E-01-1.80791E-02-2.08744E+00-7.02563E-14 1.52968E-13
 -1      3404 2.66972E+01-2.59089E+00-9.69554E-03-1.01678E+00 2.45616E-13-1.51759E-13
 -1      3405 2.58495E+01-3.13380E+00-7.17656E-02-1.78949E-01 1.52815E-13-3.32750E-13
 -1      3406 1.99118E+01 2.85814E-01-1.27951E-03 1.71718E-01 4.26629E-14-1.01168E-14
 -1      3407 1.99358E+01 2.67226E-01 2.89949E-04 1.85924E-01 1.23192E-13-5.32313E-14
 -1      3408 1.98803E+01 3.25432E-01 1.23004E-03 1.77660E-01 4.85214E-14 3.17630E-14
 -1      3409 1.12955E+01-2.20259E-02 8.16883E-03-2.69215E+00-1.18603E-13 9.88098E-15
 -1      3410 1.19445E+01-6.41555E-01 1.35355E-01-3.90223E+00 8.79852E-14 2.30038E-13
 -1      3411 1.38640E+01-9.80914E-01 6.59820E-02-4.12034E+00 8.03160E-14 1.10439E-13
 -1      3412 2.05270E+01-3.16479E+00 5.99908E-02-3.79506E+00-1.47174E-13-1.11667E-13
 -1      3413 2.00965E+01 2.06422E+00-5.78821E-03 4.85292E-01 2.62527E-14-1.77138E-13
 -1      3414 2.00698E+01 2.14791E+00-3.45217E-03 3.76228E-01-1.79654E-15-1.79593E-13
 -1      3415 2.01637E+01 1.90186E+00 6.18742E-03 2.76776E-01 6.35166E-16-1.65235E-13
 -1      3416 2.02131E+01 1.74105E+00 7.73553E-03 4.39206E-01 2.65947E-14-1.71942E-13
 -1      3417 1.99883E+01 2.09246E-01-3.99496E-04-2.15561E-01-3.60448E-13-8.90353E-14
 -1      3418 1.99685E+01 2.25958E-01-6.58838E-04-2.05156E-01-2.61653E-13-6.30869E-14
 -1      3419 1.99445E+01 2.59019E-01 5.81364E-04-2.24190E-01-2.72278E-13-1.73066E-13
 -1      3420 1.99862E+01 2.27567E-01 8.18888E-04-2.44167E-01-5.09872E-13-1.69812E-13
 -1      3421 2.53090E+01-3.42402E+00 8.65696E-02 8.38580E-01 9.22621E-14-3.89255E-13
 -1      3422 2.51044E+01 4.57755E+00-1.53219E-01-8.99598E-01 3.59435E-15 3.07605E-13
 -1      3423 2.02985E+01 5.21042E-01 2.18021E-03-3.86108E-03-4.82471E-14-6.80618E-14
 -1      3424 2.02740E+01 4.21505E-01-1.76303E-03 7.60652E-02-4.95811E-14-4.71946E-14
 -1      3425 2.02584E+01 3.46310E-01 1.53758E-03 1.35071E-01-3.59381E-14-4.44748E-14
 -1      3426 2.02337E+01 2.87542E-01-7.93453E-04 1.93231E-01-3.67996E-14-2.42710E-14
 -1      3427 2.02990E+01 4.43803E-01 1.45374E-04 8.76017E-02-4.47193E-14-3.29870E-14
 -1      3428 2.02087E+01 2.46059E-01 8.76736E-04 2.37826E-01-6.25801E-14-2.97113E-14
 -1      3429 2.01863E+01 2.17093E-01-5.77327E-05 2.82067E-01-5.20436E-14-2.18558E-15
 -1      3430 2.02522E+01 3.11229E-01-1.13720E-04 1.94193E-01-3.55000E-14-8.05275E-15
 -1      3431 2.01553E+01 2.00329E-01 2.12648E-04 3.18219E-01-3.98708E-14 2.45988E-14
 -1      3432 2.01357E+01 1.93291E-01 4.93889E-04 3.55362E-01-4.19353E-15 2.51985E-14
 -1      3433 2.01936E+01 2.44049E-01-1.58111E-04 2.77424E-01-3.79622E-14 3.61058E-15
 -1      3434 2.01003E+01 1.94438E-01-3.79233E-04 3.88501E-01 1.31049E-14 2.23460E-14
 -1      3435 2.00835E+01 2.03100E-01 9.10616E-04 4.24013E-01 6.90967E-15 5.60057E-14
 -1      3436 2.01273E+01 2.25506E-01-7.85183E-05 3.48580E-01 1.36408E-14 2.75751E-14
 -1      3437 2.00444E+01 2.16581E-01-8.80358E-04 4.58642E-01-1.37567E-14 5.29729E-14
 -1      3438 2.00301E+01 2.35561E-01 1.24198E-03 4.96689E-01-3.70473E-14 7.62285E-14
 -1      3439 2.00549E+01 2.42016E-01 6.14778E-05 4.17523E-01-1.92018E-15 2.48904E-14
 -1      3440 1.99877E+01 2.56261E-01-1.28258E-03 5.36402E-01-5.33377E-14 7.11806E-14
 -1      3441 1.99759E+01 2.80288E-01 1.53639E-03 5.79958E-01-6.51024E-14 1.12000E-13
 -1      3442 1.99771E+01 2.81760E-01 2.11570E-04 4.92355E-01-3.68166E-14 6.14829E-14
 -1      3443 1.99308E+01 3.02809E-01-1.57020E-03 6.27569E-01-7.30564E-14 1.22869E-13
 -1      3444 1.99222E+01 3.25962E-01 1.84365E-03 6.78504E-01-4.05399E-14 9.08096E-14
 -1      3445 1.98943E+01 3.33200E-01 3.12913E-04 5.79579E-01-6.49529E-14 6.68722E-15
 -1      3446 1.98758E+01 3.43847E-01-1.70586E-03 7.36166E-01-4.77425E-14 4.27412E-14
 -1      3447 1.98729E+01 3.58757E-01 2.22187E-03 7.95238E-01-5.38117E-14-1.52151E-15
 -1      3448 1.98077E+01 3.83519E-01 2.88634E-04 6.84407E-01-7.08946E-14 4.36441E-14
 -1      3449 1.98283E+01 3.63719E-01-1.61917E-03 8.64489E-01-8.65592E-14-2.39863E-14
 -1      3450 1.98358E+01 3.60812E-01 2.74761E-03 9.31231E-01-8.69966E-14-3.64182E-14
 -1      3451 1.97212E+01 4.16935E-01 2.02989E-05 8.11014E-01-6.60233E-14-5.21501E-14
 -1      3452 1.97992E+01 3.42038E-01-1.18321E-03 1.01300E+00-7.02714E-14-6.04371E-14
 -1      3453 1.98251E+01 3.08828E-01 3.50152E-03 1.08545E+00-7.82080E-14-2.14687E-14
 -1      3454 1.96429E+01 4.13106E-01-6.72827E-04 9.62725E-01-1.19214E-13-3.06147E-14
 -1      3455 1.98075E+01 2.52410E-01-1.70277E-04 1.17980E+00-6.68641E-14 2.00606E-14
 -1      3456 1.98654E+01 1.72979E-01 4.50084E-03 1.25381E+00-7.01005E-14-1.04144E-15
 -1      3457 1.95882E+01 3.45475E-01-2.07994E-03 1.14210E+00-4.24002E-14 3.40868E-14
 -1      3458 1.98856E+01 6.18962E-02 1.77802E-03 1.35888E+00-4.70975E-14 4.41033E-14
 -1      3459 1.99954E+01-8.26394E-02 5.60326E-03 1.42640E+00 8.00803E-15 5.47546E-14
 -1      3460 1.95842E+01 1.79878E-01-4.64914E-03 1.35009E+00-4.83606E-14 7.96734E-14
 -1      3461 2.00839E+01-2.66694E-01 5.41100E-03 1.53539E+00 4.10083E-14 2.19964E-14
 -1      3462 2.02723E+01-4.95339E-01 6.35933E-03 1.58113E+00 4.51824E-14 4.71026E-14
 -1      3463 1.96758E+01-1.25753E-01-9.01431E-03 1.58260E+00-1.04038E-14 8.45951E-14
 -1      3464 2.04761E+01-7.66007E-01 1.18154E-02 1.67517E+00 1.40857E-14 8.81406E-14
 -1      3465 2.07728E+01-1.08809E+00 5.75736E-03 1.67077E+00 1.43824E-14 1.46815E-13
 -1      3466 1.99336E+01-6.16269E-01-1.55406E-02 1.82098E+00 5.59583E-14 9.35690E-14
 -1      3467 2.11558E+01-1.44106E+00 2.17601E-02 1.70895E+00-2.45923E-14 3.02049E-14
 -1      3468 2.15799E+01-1.83773E+00 7.52836E-04 1.60529E+00-2.96694E-14 3.28947E-14
 -1      3469 2.04587E+01-1.32144E+00-2.46059E-02 2.01494E+00-3.82591E-14 1.43690E-13
 -1      3470 2.22227E+01-2.22198E+00 3.41857E-02 1.49253E+00-2.07157E-14 1.54524E-14
 -1      3471 2.27629E+01-2.56179E+00-2.06841E-03 1.20810E+00-5.31606E-14-1.59703E-14
 -1      3472 2.13973E+01-2.21787E+00-3.18927E-02 2.05434E+00-4.16125E-14-1.00996E-14
 -1      3473 2.39439E+01-3.65948E+00-3.37832E-02-1.62434E+00 2.70203E-13-1.24274E-13
 -1      3474 2.40445E+01-2.88322E+00 2.39156E-02-6.07022E-01 6.92317E-14 1.02386E-13
 -1      3475 2.35663E+01-2.71158E+00 4.83168E-02-8.19634E-01 3.40062E-14 1.10134E-13
 -1      3476 2.30551E+01-3.46849E+00 2.94594E-02-2.17288E+00 1.33421E-13-1.64816E-13
 -1      3477 2.58505E+01 3.01014E+00-4.26651E-02 1.77771E+00 1.65777E-13 3.86705E-14
 -1      3478 2.17111E+01-1.90329E+00 5.93946E-03-1.55398E+00 4.68601E-14 8.34444E-14
 -1      3479 2.12626E+01-1.51972E+00 2.25255E-02-1.68007E+00 1.95111E-14 4.66178E-14
 -1      3480 2.08502E+01-1.15142E+00 5.86874E-03-1.65386E+00-1.33654E-13 1.37907E-13
 -1      3481 2.05380E+01-8.15637E-01 1.28371E-02-1.66536E+00-2.68906E-13 5.52362E-14
 -1      3482 2.05504E+01-1.39293E+00-2.08985E-02-2.01962E+00 1.90473E-14-1.86318E-13
 -1      3483 2.03136E+01-5.29682E-01 6.34496E-03-1.57088E+00-2.37168E-13 1.40145E-13
 -1      3484 2.01132E+01-2.86737E-01 6.10114E-03-1.52533E+00-1.68627E-13 2.89879E-13
 -1      3485 1.99711E+01-6.61967E-01-1.70258E-02-1.82650E+00-1.83252E-13 3.80512E-15
 -1      3486 2.00105E+01-8.91368E-02 5.60851E-03-1.41276E+00-2.10468E-13 1.69375E-13
 -1      3487 1.98918E+01 6.88174E-02 2.31297E-03-1.34180E+00-2.19985E-13 1.72586E-13
 -1      3488 1.96830E+01-1.37878E-01-9.54823E-03-1.58131E+00-2.34204E-13 1.22426E-13
 -1      3489 1.98612E+01 1.91916E-01 4.48968E-03-1.23057E+00-2.13431E-13 1.39643E-13
 -1      3490 1.97969E+01 2.82691E-01 1.51501E-04-1.15072E+00-8.20720E-14 7.95967E-14
 -1      3491 1.95693E+01 1.96798E-01-4.82255E-03-1.33775E+00-2.21411E-13 1.70916E-13
 -1      3492 1.98060E+01 3.49178E-01 3.39959E-03-1.04872E+00 1.03976E-13-4.19122E-14
 -1      3493 1.97749E+01 3.91719E-01-9.91050E-04-9.68690E-01 1.84778E-13-1.03005E-13
 -1      3494 1.95561E+01 3.86743E-01-2.08360E-03-1.11535E+00-5.52525E-14 1.44772E-13
 -1      3495 1.98035E+01 4.18666E-01 2.56694E-03-8.78314E-01 2.38101E-13-1.21591E-13
 -1      3496 1.97914E+01 4.29033E-01-1.51906E-03-8.02757E-01 2.46571E-13-8.37759E-14
 -1      3497 1.95955E+01 4.74160E-01-5.44668E-04-9.19672E-01 2.48297E-13-7.68757E-14
 -1      3498 1.98273E+01 4.30420E-01 1.98227E-03-7.24254E-01 1.10545E-13-1.18815E-13
 -1      3499 1.98250E+01 4.21014E-01-1.69292E-03-6.55594E-01 2.40698E-14-7.73747E-14
 -1      3500 1.96581E+01 4.93631E-01 2.64859E-04-7.50519E-01 9.98066E-14-1.53341E-13
 -1      3501 1.98614E+01 4.07357E-01 1.57666E-03-5.88420E-01 2.27739E-14-1.71397E-13
 -1      3502 1.98636E+01 3.87194E-01-1.66936E-03-5.27792E-01-2.03762E-14-1.54340E-13
 -1      3503 1.97268E+01 4.71420E-01 6.33962E-04-6.05915E-01 1.52032E-14-3.97401E-13
 -1      3504 1.98968E+01 3.66022E-01 1.27673E-03-4.71150E-01-1.64779E-13-1.07253E-13
 -1      3505 1.99003E+01 3.41518E-01-1.50801E-03-4.18872E-01 5.84050E-15-2.60671E-13
 -1      3506 1.97921E+01 4.26584E-01 7.75704E-04-4.83616E-01-7.99112E-14 1.04681E-15
 -1      3507 1.99286E+01 3.17520E-01 8.47403E-04-3.71613E-01 1.80555E-13-3.76556E-13
 -1      3508 1.99333E+01 2.93407E-01-9.73669E-04-3.27753E-01 1.67520E-13-2.46224E-13
 -1      3509 1.98494E+01 3.72721E-01 8.68965E-04-3.81283E-01 5.43002E-14 3.04939E-13
 -1      3510 1.99228E+01 3.96090E-01 1.66992E-03-7.08755E-01 2.00274E-14-6.41675E-14
 -1      3511 1.99335E+01 3.51642E-01-2.30778E-03-6.50644E-01 1.32643E-14-6.19451E-14
 -1      3512 1.96352E+01 6.48305E-01 2.68541E-03-1.18084E+00-2.32391E-14 3.77584E-14
 -1      3513 1.96576E+01 6.14895E-01-4.15866E-03-1.08328E+00-1.31658E-14 3.66219E-15
 -1      3514 1.95040E+01 6.71851E-01 3.87272E-03-1.39957E+00 2.52963E-14-9.51008E-16
 -1      3515 1.95239E+01 6.65702E-01-4.71057E-03-1.28734E+00 3.26860E-14 3.34461E-14
 -1      3516 1.93113E+01 7.52143E-01 3.45844E-03-1.17581E+00-1.89025E-15-1.05328E-14
 -1      3517 1.93753E+01 6.05314E-01 6.16935E-03-1.65769E+00 1.81320E-14-3.19840E-16
 -1      3518 1.93778E+01 6.50197E-01-5.04981E-03-1.52997E+00 3.15539E-14-9.35341E-16
 -1      3519 1.90837E+01 7.70979E-01 3.40602E-03-1.40358E+00 3.02088E-14 5.57719E-14
 -1      3520 1.92919E+01 3.83835E-01 1.03786E-02-1.96507E+00-6.14142E-14-3.49993E-14
 -1      3521 1.92459E+01 5.15051E-01-4.73634E-03-1.82123E+00-3.27802E-14-3.75237E-14
 -1      3522 1.88344E+01 6.86461E-01 2.13986E-03-1.68991E+00 8.77278E-15 5.93647E-14
 -1      3523 1.93354E+01-8.66216E-02 1.55221E-02-2.33314E+00-3.24854E-14 4.10501E-14
 -1      3524 1.91892E+01 1.82412E-01-2.32343E-03-2.17573E+00-2.43744E-14 2.63812E-14
 -1      3525 1.85979E+01 4.26389E-01-1.56028E-03-2.06383E+00-7.48982E-14-7.12634E-14
 -1      3526 1.97194E+01-9.21664E-01 2.58689E-02-2.73505E+00-3.12276E-14 1.68997E-14
 -1      3527 1.93342E+01-4.35168E-01 1.26908E-02-2.60132E+00-2.08095E-14 2.03385E-14
 -1      3528 1.84672E+01-1.23403E-01-7.67024E-03-2.56615E+00 4.74534E-15-5.77641E-15
 -1      3529 1.98645E+01-2.13729E+00-7.62088E-03 3.36995E+00 6.30659E-14-2.03042E-13
 -1      3530 2.58617E+01-8.25385E-01-9.43243E-02-1.84430E+00 6.69482E-14 2.55976E-14
 -1      3531 2.58184E+01 8.88105E-01-5.01099E-02-2.01461E+00-2.51639E-14 9.59441E-14
 -1      3532 1.92567E+01-9.88431E-02 1.12355E-03 2.37010E+00-7.74490E-14 1.01282E-14
 -1      3533 1.95086E+01-4.61205E-01 2.41923E-02 2.52734E+00-5.77316E-15 3.66111E-14
 -1      3534 1.44440E+01-5.30817E-01 1.32734E-01-3.67436E+00-6.46393E-14-1.01114E-13
 -1      3535 1.67713E+01-1.44630E+00 1.59220E-02-3.93289E+00-4.49176E-14-1.55011E-13
 -1      3536 1.52824E+01-1.51170E+00 1.40333E-02 4.40029E+00 9.23393E-14-2.96846E-14
 -1      3537 1.34470E+01-4.99523E-01 6.17319E-02 3.63315E+00 4.18242E-14 7.93809E-15
 -1      3538 2.02702E+01 1.49305E+00 9.43775E-03-5.83468E-01-1.13526E-13-7.91435E-14
 -1      3539 2.38265E+01-3.76367E+00-4.51926E-02 1.84568E+00 2.47302E-14 1.42483E-13
 -1      3540 2.23829E+01-3.80702E+00 8.68308E-02 3.22672E+00 1.20258E-13 2.25708E-13
 -1      3541 1.93834E+01-8.92369E-01 3.97323E-03 2.84603E+00-6.21912E-14-1.25612E-13
 -1      3542 1.99113E+01-1.44891E+00 3.93133E-02 2.99571E+00-9.26429E-14-2.57192E-13
 -1      3543 1.82057E+01-1.54074E+00-6.07759E-04 3.70047E+00-7.15383E-14-9.75973E-14
 -1      3544 1.83521E+01-4.69934E-01 1.75392E-03 2.89777E+00-1.07986E-13 1.06012E-13
 -1      3545 1.93161E+01 6.26707E-01-4.77055E-03 1.64142E+00 1.51330E-13 1.68308E-13
 -1      3546 1.93362E+01 5.37556E-01 8.22353E-03 1.78234E+00-4.29868E-14 1.08984E-13
 -1      3547 1.94534E+01 7.05576E-01-4.77166E-03 1.36329E+00 4.53889E-14 1.89581E-13
 -1      3548 1.94417E+01 6.84097E-01 4.76299E-03 1.48957E+00 1.72116E-13 2.19925E-13
 -1      3549 1.89547E+01 7.78595E-01 3.05136E-03 1.51060E+00 1.07110E-13 1.42113E-13
 -1      3550 1.95889E+01 6.93252E-01-4.30949E-03 1.12607E+00 1.17946E-14 2.62169E-13
 -1      3551 1.95683E+01 7.10067E-01 2.99889E-03 1.23856E+00 2.23969E-14 2.30671E-13
 -1      3552 1.91874E+01 8.16461E-01 3.59417E-03 1.24288E+00 4.57554E-14 1.37692E-13
 -1      3553 1.97053E+01 6.32958E-01-3.73804E-03 9.21946E-01-3.11649E-13 3.49993E-14
 -1      3554 1.96860E+01 6.69023E-01 2.13030E-03 1.02116E+00-3.96521E-14 1.95552E-13
 -1      3555 1.93896E+01 7.76604E-01 3.40279E-03 1.02223E+00 7.85220E-14 1.14505E-13
 -1      3556 1.97980E+01 5.51969E-01-3.15756E-03 7.46585E-01-1.14412E-13-2.23751E-13
 -1      3557 1.97836E+01 5.95430E-01 1.70160E-03 8.32871E-01-2.57674E-13-1.29585E-13
 -1      3558 1.95550E+01 6.97311E-01 2.89863E-03 8.35892E-01-1.01614E-13-1.76087E-13
 -1      3559 1.98680E+01 4.66626E-01-2.62089E-03 5.97141E-01-1.39484E-13-3.84510E-13
 -1      3560 1.98590E+01 5.10508E-01 1.46857E-03 6.71018E-01-1.44227E-13-3.88376E-13
 -1      3561 1.96849E+01 6.02665E-01 2.32161E-03 6.77182E-01-3.90543E-14-2.29287E-13
 -1      3562 1.99188E+01 3.86276E-01-2.10220E-03 4.71363E-01-9.74909E-14-2.86762E-13
 -1      3563 1.99144E+01 4.26532E-01 1.32094E-03 5.33568E-01-1.21829E-13-4.05791E-13
 -1      3564 1.97839E+01 5.06954E-01 1.76407E-03 5.42271E-01-1.39782E-13-3.25524E-13
 -1      3565 1.99537E+01 3.14880E-01-2.09195E-03 3.67312E-01 1.73941E-13-2.10942E-13
 -1      3566 1.99532E+01 3.49840E-01 1.01010E-03 4.18244E-01 3.96557E-14-3.59748E-13
 -1      3567 1.98579E+01 4.18776E-01 1.53082E-03 4.28552E-01-8.30466E-15-5.00515E-13
 -1      3568 1.99788E+01 2.57357E-01-9.22900E-04 2.80348E-01 4.52710E-13-2.75468E-13
 -1      3569 1.99794E+01 2.85645E-01 1.05931E-03 3.22500E-01 2.90038E-13-1.44428E-13
 -1      3570 1.99100E+01 3.44216E-01 1.62291E-03 3.34105E-01 2.38656E-13-4.16665E-13
 -1      3571 1.97759E+01 3.99162E-01-5.76186E-05-8.11303E-02 6.62198E-14 3.05101E-13
 -1      3572 1.97650E+01 4.06367E-01-9.82400E-04-3.81194E-02 7.43597E-15 7.69768E-14
 -1      3573 2.00336E+01 2.24893E+00-3.51076E-03-1.56221E-01-3.72492E-14-1.62793E-13
 -1      3574 2.00465E+01 2.21098E+00-4.26047E-03-2.73890E-01-6.72927E-14-1.27771E-13
 -1      3575 2.01609E+01 1.90550E+00 5.73231E-03-2.70572E-01-6.13928E-14-1.28009E-13
 -1      3576 1.92199E+01 3.90406E-01-3.43612E-03 1.97351E+00-1.70899E-13 1.49405E-13
 -1      3577 1.93146E+01 1.90481E-01 1.38525E-02 2.12816E+00-1.44682E-13 4.15924E-14
 -1      3578 1.87142E+01 6.03798E-01 1.14294E-03 1.84895E+00-4.86984E-14 1.24959E-13
 -1      3579 1.21550E+01 1.94166E-01 4.76911E-02 2.59864E+00 3.21843E-14-2.42931E-14
 -1      3580 1.15826E+01 6.42060E-01 3.20895E-02 9.67032E-01 5.85886E-14 7.91103E-14
 -1      3581 1.38515E+01 1.23242E-02 6.97926E-02 2.81575E+00-6.48440E-15-3.37647E-14
 -1      3582 2.02989E+01 9.62532E-01 1.16071E-03 4.30089E-01 8.08175E-14-8.42188E-14
 -1      3583 2.02873E+01 1.13638E+00-1.80503E-03 4.65846E-01 5.60975E-14-1.21086E-13
 -1      3584 2.02817E+01 8.10441E-01-1.62292E-03 2.94466E-01 7.44614E-14-7.77775E-14
 -1      3585 1.97509E+01 5.77879E-01 2.11549E-03-9.95194E-01-3.10906E-15-1.87757E-14
 -1      3586 1.97700E+01 5.32420E-01-3.54692E-03-9.11701E-01-1.34098E-14 3.95276E-15
 -1      3587 1.95051E+01 6.77846E-01 2.98393E-03-9.89371E-01-2.14568E-14-1.30852E-15
 -1      3588 1.98464E+01 4.88064E-01 1.84014E-03-8.38837E-01-2.48431E-14-2.36351E-14
 -1      3589 1.98608E+01 4.40113E-01-2.92274E-03-7.68675E-01-7.83809E-15-5.71915E-14
 -1      3590 1.97931E+01 4.75178E-01 1.70728E-03-7.06330E-01 7.63574E-15-3.26505E-14
 -1      3591 1.96643E+01 5.78958E-01 2.34767E-03-8.34729E-01-7.68411E-14-3.93739E-14
 -1      3592 1.68186E+01-2.17929E+00 3.97171E-02-4.58343E+00 2.31114E-13-1.75925E-13
 -1      3593 1.92591E+01-3.29938E+00 8.25434E-03-4.57317E+00 1.30042E-13-3.87832E-13
 -1      3594 2.01634E+01 2.04026E-01 2.40716E-05-2.86451E-01 8.21470E-15-8.79670E-14
 -1      3595 2.01823E+01 2.31504E-01 1.14985E-03-2.39748E-01 3.16453E-15-9.57344E-14
 -1      3596 2.02772E+01 1.18287E+00-1.62379E-03-3.88420E-01-8.96154E-14-7.57669E-14
 -1      3597 2.28164E+01-2.54490E+00-3.13282E-03-1.14324E+00 1.60215E-13-4.86252E-14
 -1      3598 2.22709E+01-2.22270E+00 3.31628E-02-1.45174E+00 1.13761E-13 3.98659E-14
 -1      3599 2.14617E+01-2.17518E+00-1.62827E-02-1.98226E+00 1.38684E-13-2.00331E-13
 -1      3600 2.26673E+01-2.95502E+00-3.57894E-02-1.70673E+00 3.00775E-14-7.17135E-14
 -1      3601 1.95902E+01-1.82809E+00 4.83863E-02-3.39766E+00-1.07712E-13-1.21283E-13
 -1      3602 2.01220E+01 1.84111E-01 5.83281E-04-3.64006E-01 7.93995E-14-1.05335E-13
 -1      3603 2.01359E+01 1.89024E-01 3.28279E-04-3.25112E-01 1.72791E-14-9.32027E-14
 -1      3604 2.01804E+01 2.33618E-01-3.49286E-04-2.86635E-01 1.96502E-14-1.10796E-13
 -1      3605 1.99843E+01 3.12784E-01 1.50500E-03-6.01523E-01 4.21711E-14-3.08708E-14
 -1      3606 1.99930E+01 2.75858E-01-1.69777E-03-5.53492E-01 6.81456E-14-2.82211E-14
 -1      3607 1.98975E+01 3.79178E-01 1.10897E-03-5.99878E-01 5.87457E-14-8.96290E-14
 -1      3608 1.98871E+01 3.11640E-01 6.88859E-04-2.26169E-01-1.58879E-13 4.93747E-14
 -1      3609 1.98505E+01 3.34923E-01-1.61096E-03-2.01496E-01-1.18902E-13 5.81295E-15
 -1      3610 2.03175E+01 7.86120E-01-1.28288E-03-1.96030E-01-5.66335E-14-6.46394E-14
 -1      3611 2.02987E+01 6.41877E-01-2.97234E-03-8.44957E-02-4.35375E-14-7.85131E-14
 -1      3612 2.03261E+01 6.64687E-01 1.14415E-03-5.41070E-02-4.75189E-14-7.89147E-14
 -1      3613 1.11980E+01 6.85374E-01 3.06712E-02 5.58997E-01-4.02004E-13-2.52312E-13
 -1      3614 1.10741E+01 7.09548E-01 1.20651E-01-1.05678E+00-2.32374E-13-1.99230E-13
 -1      3615 1.99603E+01 2.39767E-01-1.21093E-03 1.95779E-01 1.42174E-13 5.35704E-14
 -1      3616 1.99860E+01 2.16950E-01 1.23815E-04 2.00639E-01 1.72348E-13 3.25104E-13
 -1      3617 1.99883E+01 2.24671E-01 1.99357E-04 2.21389E-01 2.12879E-13 7.86282E-14
 -1      3618 1.99307E+01 2.78201E-01 3.45358E-05 2.11106E-01 1.17108E-13 9.32216E-14
 -1      3619 1.98195E+01 3.65318E-01 6.60060E-04-1.64325E-01-8.29855E-14-8.91599E-14
 -1      3620 1.97938E+01 3.80811E-01-1.35552E-03-1.28106E-01-3.01326E-14 1.19574E-13
 -1      3621 1.97507E+01 4.23980E-01 1.36258E-03-1.17871E-01 1.19742E-14 9.89290E-14
 -1      3622 1.98062E+01 3.78696E-01 3.34100E-04-2.04711E-01-1.03460E-13-2.50137E-14
 -1      3623 2.02051E+01 2.71378E-01-7.28709E-04-1.90951E-01 1.01980E-14-9.19003E-14
 -1      3624 2.02293E+01 3.28703E-01 2.04101E-03-1.28612E-01 3.15186E-14-7.61340E-14
 -1      3625 2.02334E+01 2.98602E-01-4.12856E-04-1.95906E-01 1.07560E-14-1.17014E-13
 -1      3626 1.82113E+01-1.38384E+00 1.11664E-03-3.57978E+00-3.00975E-14-1.16823E-13
 -1      3627 2.61994E+01 2.53091E+00-1.19494E-01-2.18540E+00-1.03188E-13 2.68376E-13
 -1      3628 2.59615E+01 3.75088E+00-8.65044E-02-1.68947E+00-6.55032E-14 3.02681E-13
 -1      3629 2.02549E+01 1.42763E+00-6.26929E-03-3.92179E-01-8.80997E-14-1.00583E-13
 -1      3630 2.03135E+01 1.02994E+00 4.95431E-03-2.72483E-01-7.16152E-14-7.77572E-14
 -1      3631 2.03169E+01 1.02208E+00-9.44740E-04-2.11936E-01-5.18798E-14-8.78156E-14
 -1      3632 2.02361E+01 1.53366E+00-2.45678E-03-3.22518E-01-7.26723E-14-1.18197E-13
 -1      3633 2.02719E+01 1.27336E+00-2.21566E-03 4.29422E-01 3.81727E-14-1.49002E-13
 -1      3634 2.02450E+01 4.01840E-01-1.68791E-03-6.23516E-02 4.98292E-14-8.05113E-14
 -1      3635 2.02733E+01 4.99140E-01 2.78884E-03 2.43938E-02 5.72078E-14-6.88531E-14
 -1      3636 2.02782E+01 4.29681E-01-3.51511E-04-7.69996E-02 3.78856E-14-8.74969E-14
 -1      3637 2.01968E+01 1.70552E+00-3.50127E-03 1.21314E-01-2.73535E-14-1.90617E-13
 -1      3638 2.01920E+01 1.72650E+00-2.81707E-03 3.62345E-02-2.03755E-14-2.19476E-13
 -1      3639 1.23546E+01 4.25654E-01 7.21322E-02-1.88225E+00-1.27675E-13-2.33147E-13
 -1      3640 2.36525E+01-2.81600E+00 3.29854E-02 8.65326E-01 5.69423E-16-2.98524E-14
 -1      3641 2.42816E+01-2.82544E+00-3.07184E-03 3.11954E-01 1.45209E-14 2.84668E-14
 -1      3642 2.50001E+01-2.93257E+00 1.38829E-02 1.20418E-01-1.83499E-14 4.82218E-14
 -1      3643 2.55524E+01-2.32614E+00-8.18518E-03-4.90694E-01-1.74860E-14 1.06602E-13
 -1      3644 1.57493E+01-1.46333E+00 6.30755E-02-4.36677E+00 1.17906E-13-9.50941E-14
 -1      3645 1.75477E+01-1.76058E+00 4.49729E-02-3.97328E+00 9.63795E-14-2.59067E-13
 -1      3646 1.45768E+01-7.51400E-01-1.34138E-02-3.70494E+00-5.88817E-14-3.98778E-14
 -1      3647 1.99603E+01 2.69626E-01 5.69914E-04-3.00590E-01-2.78257E-14-4.15506E-13
 -1      3648 1.99668E+01 2.48147E-01-4.76688E-04-2.67864E-01-3.59039E-13-3.14055E-13
 -1      3649 1.99453E+01 2.65466E-01-9.66805E-06-2.58862E-01-2.93249E-13-2.95363E-13
 -1      3650 1.99020E+01 3.17616E-01 9.01257E-04-3.09363E-01 9.96240E-14-3.01871E-14
 -1      3651 1.57920E+01-1.09664E+00 7.26293E-02 3.82356E+00-1.13194E-13 1.51452E-13
 -1      3652 2.10769E+01-3.33868E+00 5.90340E-03 3.43223E+00 1.06741E-13 1.23401E-13
 -1      3653 2.00800E+01 2.00628E-01 9.92338E-04-4.36061E-01 1.20212E-13-7.33141E-14
 -1      3654 2.00905E+01 1.88061E-01-4.08906E-04-3.98682E-01 1.19824E-13-6.94773E-14
 -1      3655 2.01218E+01 2.19263E-01-1.38265E-04-3.62349E-01 6.12109E-14-1.06578E-13
 -1      3656 1.85317E+01 2.04888E-01 4.73912E-04 2.29947E+00-1.34013E-13 8.16474E-14
 -1      3657 1.27918E+01 8.29323E-01 3.47331E-02 8.72020E-01 4.17940E-14 1.15827E-13
 -1      3658 1.19591E+01 8.89796E-01 9.98313E-02 7.22881E-02 7.67433E-14 2.55230E-13
 -1      3659 1.24483E+01 7.30494E-01-2.11118E-02-8.53744E-01 5.74115E-14 1.76650E-13
 -1      3660 1.97260E+01 4.45584E-01 1.47503E-03-1.54608E-02 9.83789E-14 1.82800E-14
 -1      3661 1.97625E+01 4.10921E-01-6.64868E-04 1.36014E-02-9.30870E-15-1.01146E-13
 -1      3662 1.97681E+01 4.08283E-01-5.29618E-04 5.76592E-02-3.56583E-14-1.98643E-13
 -1      3663 1.99933E+01 2.32963E-01 4.11581E-04 2.44707E-01 3.24629E-13-8.78731E-14
 -1      3664 1.99838E+01 2.99854E-01 6.05747E-04-5.10999E-01 6.06520E-14-2.73235E-14
 -1      3665 2.00352E+01 2.45628E-01 1.28727E-03-5.12637E-01 6.30269E-14-4.97770E-14
 -1      3666 2.00439E+01 2.19347E-01-1.07562E-03-4.71822E-01 9.39383E-14-6.43126E-14
 -1      3667 1.99477E+01 2.78775E-01 7.25772E-04 2.55360E-01 2.06756E-13-1.58322E-13
 -1      3668 2.06273E+01-3.24854E+00 3.31938E-02-3.72321E+00 1.43868E-13-2.77825E-13
 -1      3669 2.02076E+01 1.66925E+00-2.30839E-03 1.85063E-01-8.05133E-15-1.59850E-13
 -1      3670 2.02761E+01 1.46202E+00 5.32359E-03 1.18964E-01 6.54438E-16-1.51770E-13
 -1      3671 2.02211E+01 1.60521E+00-4.88230E-03 2.66146E-01 2.23291E-14-1.32043E-13
 -1      3672 2.28417E+01-3.00132E+00-1.36482E-02 1.67757E+00-2.72308E-14-3.75498E-14
 -1      3673 2.01376E+01 1.98087E+00 5.30204E-03-8.97584E-02-3.61942E-14-1.75365E-13
 -1      3674 1.97820E+01 3.98654E-01-1.06619E-03 1.08212E-01 8.78618E-15-3.17134E-14
 -1      3675 1.98038E+01 3.85731E-01-6.91437E-05 1.48046E-01 5.42670E-14 4.57285E-14
 -1      3676 1.97380E+01 4.41208E-01 1.45551E-03 9.05146E-02 8.77858E-14-6.31711E-14
 -1      3677 1.98294E+01 3.63909E-01-1.57339E-03 1.83544E-01 9.39281E-14 8.94825E-15
 -1      3678 1.98607E+01 3.47026E-01 1.08384E-03 2.08518E-01 1.38213E-13 6.79550E-14
 -1      3679 1.97851E+01 4.10759E-01 1.30900E-03 1.80021E-01 6.03599E-14 1.21570E-14
 -1      3680 1.82155E+01-2.24653E+00-1.31149E-02 4.01754E+00 8.28738E-14 2.38589E-13
 -1      3681 1.68189E+01-1.82110E+00 7.37473E-02 4.35792E+00 7.91780E-14 1.49533E-13
 -1      3682 1.63480E+01-1.14358E+00 1.96872E-02 3.80059E+00 8.21721E-14 8.11157E-14
 -1      3683 1.21355E+01 7.06680E-01 1.10849E-01 1.43467E+00-3.86459E-13-6.48856E-14
 -1      3684 1.25583E+01 8.51896E-01 1.14115E-02 5.33645E-01-2.88047E-13-1.80553E-13
 -1      3685 1.32307E+01 3.66726E-01 1.52833E-02 2.17180E+00-3.29530E-13 2.33182E-14
 -1      3686 1.40793E+01 1.61631E-02 5.33209E-02-2.76769E+00-5.10356E-15-4.21295E-14
 -1      3687 1.99228E+01 2.79990E-01-9.11212E-04-2.46548E-01-1.95295E-13-1.26850E-13
 -1      3688 1.98837E+01 3.20488E-01 5.17636E-05-2.63082E-01-8.54810E-14-5.61949E-15
 -1      3689 2.03325E+01 5.33442E-01 1.01654E-03 4.13242E-02-2.95221E-14-4.98913E-14
 -1      3690 2.03102E+01 4.41239E-01-1.43461E-03 1.02893E-01-2.03201E-14-4.45877E-14
 -1      3691 1.29414E+01 7.56178E-01-9.22149E-03-1.21041E+00-2.42707E-13-1.84758E-13
 -1      3692 1.35571E+01 3.08171E-01 7.36071E-02-2.64494E+00-1.95864E-13-5.76483E-14
 -1      3693 2.02892E+01 3.71418E-01 6.16812E-04 1.45774E-01-1.43064E-14-3.45659E-14
 -1      3694 2.02604E+01 3.18879E-01-7.13395E-04 1.92849E-01-3.51738E-14 5.43633E-16
 -1      3695 2.03180E+01 4.53610E-01 6.88184E-04 1.03762E-01 4.47635E-15-4.51142E-14
 -1      3696 2.02263E+01 2.83260E-01 1.58513E-04 2.26882E-01-2.78201E-14 3.73472E-14
 -1      3697 2.01937E+01 2.61154E-01-1.31812E-04 2.65094E-01-5.36273E-15 4.39270E-14
 -1      3698 2.02590E+01 3.38197E-01 4.80811E-04 1.81494E-01-9.19220E-15 3.51912E-15
 -1      3699 2.01495E+01 2.51305E-01-3.37831E-04 2.94890E-01 3.21992E-15 5.21300E-14
 -1      3700 2.01144E+01 2.52012E-01 3.16960E-04 3.29392E-01-3.66924E-15 3.05934E-14
 -1      3701 2.01795E+01 2.88022E-01 4.51643E-04 2.45989E-01-4.17657E-15 3.98967E-14
 -1      3702 2.00618E+01 2.61042E-01-8.33125E-04 3.59108E-01-2.80777E-15 4.00708E-14
 -1      3703 2.00247E+01 2.78108E-01 6.67997E-04 3.94289E-01-1.81866E-14 4.41630E-14
 -1      3704 2.00838E+01 2.87137E-01 5.35526E-04 3.05630E-01-8.39324E-15 2.49502E-14
 -1      3705 1.99642E+01 2.99967E-01-1.30570E-03 4.27575E-01-5.79140E-14 4.30967E-14
 -1      3706 1.99250E+01 3.27492E-01 9.70422E-04 4.67007E-01-5.37996E-14 1.94687E-14
 -1      3707 1.99737E+01 3.21962E-01 7.01272E-04 3.68045E-01-5.00818E-14-3.10570E-16
 -1      3708 1.98567E+01 3.56369E-01-1.74789E-03 5.07095E-01-4.34053E-14-3.09090E-15
 -1      3709 1.98160E+01 3.88342E-01 1.28913E-03 5.53695E-01-6.80259E-14 2.69038E-14
 -1      3710 1.98494E+01 3.80051E-01 9.10205E-04 4.39969E-01-5.87061E-14 2.47116E-14
 -1      3711 1.97400E+01 4.17858E-01-2.14681E-03 6.03651E-01-7.34694E-14 1.55191E-14
 -1      3712 1.96988E+01 4.47337E-01 1.70291E-03 6.59838E-01-7.06293E-14 1.82136E-14
 -1      3713 1.97108E+01 4.48787E-01 1.10923E-03 5.27704E-01-6.68159E-14-2.67037E-14
 -1      3714 1.96157E+01 4.69745E-01-2.49381E-03 7.22797E-01-5.46822E-14 3.90312E-14
 -1      3715 1.95772E+01 4.88055E-01 2.30821E-03 7.90663E-01-5.58858E-14 2.37261E-15
 -1      3716 1.95581E+01 5.13867E-01 1.23542E-03 6.37620E-01-6.61901E-14 2.04559E-14
 -1      3717 1.94891E+01 4.93454E-01-2.76590E-03 8.70122E-01-8.78766E-14 4.53809E-15
 -1      3718 1.94592E+01 4.89498E-01 3.25355E-03 9.51597E-01-1.20412E-13 2.81204E-14
 -1      3719 1.93939E+01 5.57498E-01 1.10572E-03 7.76793E-01-6.28591E-14 2.72945E-14
 -1      3720 1.93711E+01 4.65149E-01-2.85451E-03 1.05193E+00-7.96592E-14 7.49942E-14
 -1      3721 1.93607E+01 4.24431E-01 4.73571E-03 1.14893E+00-1.16174E-14 8.10886E-14
 -1      3722 1.92243E+01 5.57303E-01 5.66250E-04 9.53880E-01-4.64470E-14 1.12394E-13
 -1      3723 1.92825E+01 3.53629E-01-2.51472E-03 1.27566E+00-2.52750E-14 3.67693E-14
 -1      3724 1.93098E+01 2.57121E-01 6.87907E-03 1.38941E+00-3.12112E-14 9.36599E-14
 -1      3725 1.90629E+01 4.83717E-01-6.96112E-04 1.18059E+00-4.67860E-14 1.48981E-13
 -1      3726 1.92600E+01 1.18750E-01-1.39575E-03 1.54855E+00-1.91390E-14 9.34890E-14
 -1      3727 1.93541E+01-5.72501E-02 9.83051E-03 1.67736E+00 1.23875E-14 6.34897E-14
 -1      3728 1.89353E+01 2.97508E-01-3.34793E-03 1.47147E+00 9.04561E-15 9.40240E-14
 -1      3729 1.93681E+01-2.89842E-01 1.95569E-03 1.87346E+00 1.04140E-13 3.84445E-14
 -1      3730 1.95714E+01-5.74532E-01 1.30507E-02 2.00609E+00 6.87966E-14 9.49359E-14
 -1      3731 1.88877E+01-5.51939E-02-8.99654E-03 1.84333E+00 3.66479E-14 2.78507E-14
 -1      3732 1.97134E+01-9.20255E-01 1.17578E-02 2.22699E+00-5.56878E-14 1.25013E-13
 -1      3733 2.00724E+01-1.34015E+00 1.32090E-02 2.33763E+00-7.66529E-14 8.29016E-14
 -1      3734 1.90122E+01-6.36365E-01-1.43424E-02 2.30549E+00 4.74200E-14-9.61091E-15
 -1      3735 2.16070E+01-3.38033E+00-2.03316E-02-3.10345E+00 4.37948E-14-1.95371E-13
 -1      3736 2.22142E+01-3.05143E+00 6.84387E-03-2.31877E+00 7.03257E-15-9.17860E-14
 -1      3737 2.15203E+01-2.63997E+00 2.22162E-02-2.49384E+00 1.06787E-13-1.38420E-13
 -1      3738 1.97563E+01-2.61844E+00 1.38489E-02-3.63177E+00 7.85934E-14-1.67128E-13
 -1      3739 1.86923E+01 8.73987E-01 2.88260E-03-1.31402E+00 2.01005E-14 2.45452E-14
 -1      3740 1.88076E+01 8.66671E-01-7.25369E-03-1.19718E+00 3.43025E-14 2.50135E-14
 -1      3741 1.98143E+01 4.38268E-01 6.80741E-04-5.68465E-01 5.34455E-14-1.05913E-13
 -1      3742 1.98607E+01 3.89879E-01-2.06018E-03-5.21967E-01 6.71002E-14-9.12167E-14
 -1      3743 2.02690E+01 1.49929E+00 5.38124E-03 1.78821E-03-1.93829E-14-1.98694E-13
 -1      3744 2.01915E+01 1.72720E+00-2.85093E-03-3.12748E-02-2.90713E-14-1.96889E-13
 -1      3745 2.01960E+01 1.70760E+00-3.42892E-03-1.16145E-01-3.90828E-14-1.43794E-13
 -1      3746 1.95985E+01-6.22124E-01 1.21251E-02-2.03262E+00-3.53127E-14-1.73314E-13
 -1      3747 1.93818E+01-3.15521E-01 3.93837E-03-1.89084E+00-9.38381E-14 1.26310E-16
 -1      3748 1.93514E+01-7.21841E-02 9.63538E-03-1.69082E+00-2.49062E-13 2.06164E-14
 -1      3749 1.92447E+01 1.21528E-01-7.37007E-04-1.55637E+00-2.87854E-13 8.39257E-15
 -1      3750 1.88721E+01-7.57632E-02-1.00430E-02-1.87208E+00-1.49130E-13-1.06684E-13
 -1      3751 1.92836E+01 2.74654E-01 7.24493E-03-1.38891E+00-1.73367E-13-3.23461E-15
 -1      3752 1.92463E+01 3.84585E-01-2.24452E-03-1.26835E+00-1.41443E-13-3.80850E-14
 -1      3753 1.88958E+01 3.13094E-01-3.33165E-03-1.48468E+00-2.19045E-13-3.22118E-14
 -1      3754 1.93158E+01 4.67476E-01 4.82806E-03-1.13325E+00-1.23969E-13 9.25840E-14
 -1      3755 1.93181E+01 5.19156E-01-2.76137E-03-1.02858E+00 4.16142E-14 1.61300E-13
 -1      3756 1.90056E+01 5.27316E-01-5.30483E-04-1.17672E+00-7.55419E-14-6.07801E-14
 -1      3757 1.93975E+01 5.53312E-01 3.18085E-03-9.19949E-01 1.75172E-13 1.40693E-13
 -1      3758 1.94197E+01 5.66062E-01-2.78498E-03-8.30300E-01 2.69561E-13 1.13250E-14
 -1      3759 1.91505E+01 6.23339E-01 8.05124E-04-9.33520E-01 1.36970E-13 9.17131E-14
 -1      3760 1.94979E+01 5.68378E-01 2.12150E-03-7.42658E-01 1.77871E-13-1.33823E-13
 -1      3761 1.95280E+01 5.56808E-01-2.58894E-03-6.66384E-01 4.63914E-14-1.65888E-13
 -1      3762 1.93022E+01 6.41387E-01 1.39751E-03-7.40569E-01 6.44769E-14-4.82851E-14
 -1      3763 1.95995E+01 5.39951E-01 1.46958E-03-5.95334E-01 4.61584E-14-4.57761E-14
 -1      3764 1.96307E+01 5.14623E-01-2.31680E-03-5.30808E-01 2.57883E-14-7.25831E-14
 -1      3765 1.94457E+01 6.11209E-01 1.60247E-03-5.86181E-01 1.02059E-13 1.10759E-13
 -1      3766 1.96931E+01 4.87494E-01 1.06604E-03-4.73141E-01 7.76332E-14 9.24480E-14
 -1      3767 1.97218E+01 4.55916E-01-1.98384E-03-4.19113E-01 8.59843E-14 3.04842E-13
 -1      3768 1.95734E+01 5.53783E-01 1.53753E-03-4.61704E-01 1.80457E-13 3.01746E-13
 -1      3769 1.97741E+01 4.24775E-01 6.78979E-04-3.72575E-01 3.84060E-14 3.55686E-13
 -1      3770 1.97997E+01 3.93101E-01-1.26458E-03-3.27640E-01 1.10108E-13 3.27771E-13
 -1      3771 1.96823E+01 4.84137E-01 1.25808E-03-3.61650E-01 1.50996E-13 2.80826E-13
 -1      3772 1.98562E+01 3.46576E-01-5.41005E-04-2.86787E-01 2.34960E-14 1.33147E-13
 -1      3773 1.90092E+01 8.47166E-01 1.39191E-03-1.09916E+00 1.04420E-14 1.43097E-14
 -1      3774 1.91119E+01 8.08810E-01-5.58846E-03-1.00467E+00-4.29586E-14-1.90058E-15
 -1      3775 1.86605E+01 9.53960E-01 6.69398E-03-1.01273E+00 5.16251E-15-2.18916E-14
 -1      3776 1.79448E+01 5.60656E-01 1.18058E-02-1.98647E+00-6.65584E-14-8.74398E-14
 -1      3777 1.80295E+01 7.00089E-01-1.26043E-02-1.78127E+00-6.01757E-14-4.59636E-14
 -1      3778 1.76057E+01 5.83049E-02 2.34542E-02-2.55584E+00 7.25704E-14-1.28527E-13
 -1      3779 1.75876E+01 3.48444E-01-1.31954E-02-2.26580E+00 8.86140E-15-1.19684E-13
 -1      3780 1.70806E+01 6.80839E-01 9.06021E-03-1.94525E+00-3.86149E-15-1.23749E-13
 -1      3781 1.89376E+01 8.98968E-01-6.36622E-03 1.05569E+00 1.43512E-13 1.03985E-13
 -1      3782 1.88318E+01 9.17907E-01 1.75994E-03 1.16722E+00 1.43478E-13 2.27578E-13
 -1      3783 2.01502E+01-1.43918E+00 6.98797E-03-2.35869E+00 9.08804E-14-2.71847E-13
 -1      3784 1.97631E+01-9.99642E-01 8.05367E-03-2.24447E+00 1.22870E-14-1.54207E-13
 -1      3785 1.90354E+01-7.11766E-01-2.29188E-02-2.34545E+00 2.27252E-14-2.24351E-13
 -1      3786 1.71349E+01-4.86535E-01-5.62155E-03-3.10189E+00 7.64198E-14-1.02923E-13
 -1      3787 1.92020E+01 8.29564E-01-4.96068E-03 8.68445E-01 9.45243E-14 2.91512E-14
 -1      3788 1.91123E+01 8.71346E-01 7.79902E-04 9.62070E-01 2.00061E-13 1.55848E-13
 -1      3789 1.87982E+01 9.78756E-01 6.11394E-03 8.90245E-01 1.87992E-13 1.92395E-13
 -1      3790 1.86136E+01 9.11805E-01-8.40583E-03 1.28586E+00 8.01912E-14 1.97561E-13
 -1      3791 1.85001E+01 8.88768E-01 4.07393E-03 1.42404E+00 1.15647E-13-1.04217E-14
 -1      3792 1.84224E+01 1.02976E+00 7.43558E-03 1.08324E+00 1.25696E-13 9.37177E-14
 -1      3793 1.94124E+01 7.32913E-01-3.95201E-03 7.11058E-01 4.78382E-14-8.49085E-14
 -1      3794 1.93404E+01 7.84843E-01 4.18960E-04 7.91173E-01 4.69290E-14 3.92638E-14
 -1      3795 1.90977E+01 8.85898E-01 4.90657E-03 7.34562E-01 1.01524E-13 1.91879E-13
 -1      3796 1.95762E+01 6.27885E-01-3.18424E-03 5.77048E-01 1.28877E-14-3.60047E-13
 -1      3797 1.95208E+01 6.81834E-01 3.49098E-04 6.45833E-01 1.92713E-14-2.41620E-13
 -1      3798 1.93336E+01 7.74386E-01 3.87059E-03 6.03802E-01 8.23169E-14 8.02253E-14
 -1      3799 1.97019E+01 5.25774E-01-2.53237E-03 4.62589E-01-2.59386E-14-4.66715E-13
 -1      3800 1.96603E+01 5.77265E-01 4.40834E-04 5.21520E-01-1.39691E-14-3.40652E-13
 -1      3801 1.95168E+01 6.59449E-01 2.92629E-03 4.91965E-01 9.38067E-14-3.03949E-13
 -1      3802 1.97944E+01 4.34031E-01-2.14394E-03 3.64865E-01-6.19757E-14-3.15514E-13
 -1      3803 1.97663E+01 4.79429E-01 6.13205E-04 4.15936E-01-1.47151E-13-3.98644E-13
 -1      3804 1.96567E+01 5.50092E-01 1.78128E-03 3.96307E-01-1.09943E-13-3.19306E-13
 -1      3805 2.02499E+01 3.11191E-01-7.61289E-04-1.98690E-01 1.12055E-15-1.28803E-13
 -1      3806 2.02773E+01 3.64129E-01 9.70279E-04-1.46465E-01 1.62537E-14-1.16177E-13
 -1      3807 2.02047E+01 1.67359E+00-2.42686E-03-1.80493E-01-4.45623E-14-1.23616E-13
 -1      3808 2.02166E+01 1.61177E+00-5.03471E-03-2.58822E-01-6.00756E-14-1.31546E-13
 -1      3809 2.02759E+01 1.46742E+00 6.42957E-03-1.16745E-01-3.99674E-14-1.34913E-13
 -1      3810 1.82308E+01 8.23320E-01-1.11602E-02 1.58494E+00 1.02211E-13 4.16956E-14
 -1      3811 1.81274E+01 7.27328E-01 7.55844E-03 1.76670E+00-6.70517E-14 8.22657E-14
 -1      3812 1.79573E+01 1.00493E+00 8.98833E-03 1.33931E+00 6.39998E-14-7.52219E-15
 -1      3813 1.49818E+01-1.88864E-01 1.12310E-02 3.03788E+00 1.46961E-14-1.12133E-14
 -1      3814 1.39055E+01 4.59623E-01 2.30496E-02 2.12079E+00-3.75776E-14-1.94358E-14
 -1      3815 2.03193E+01 1.04741E+00 4.75654E-03 3.02152E-01 3.61478E-14-1.40336E-13
 -1      3816 2.02671E+01 1.35685E+00-4.32767E-03 3.79442E-01 3.19253E-14-1.86434E-13
 -1      3817 2.02933E+01 7.30981E-01 2.54088E-03 2.17505E-01 5.34038E-14-6.96987E-14
 -1      3818 2.03045E+01 8.61286E-01-1.09777E-03 2.52091E-01 4.74744E-14-9.47503E-14
 -1      3819 2.03172E+01 9.41347E-01-1.33103E-03 2.19475E-01 4.20311E-14-1.50965E-13
 -1      3820 2.02754E+01 6.12354E-01-2.09690E-03 1.14306E-01 3.44998E-14-7.46461E-14
 -1      3821 1.92751E+01 7.65385E-01 7.89752E-04-9.27198E-01-2.85441E-14 2.57208E-14
 -1      3822 1.93613E+01 7.11858E-01-4.39490E-03-8.48653E-01-6.67564E-14-2.03291E-14
 -1      3823 1.90094E+01 8.65907E-01 5.29393E-03-8.53941E-01-2.36765E-14-4.77380E-15
 -1      3824 1.99127E+01 3.03067E-01-1.15160E-03 2.45450E-01 2.28040E-13 5.55041E-15
 -1      3825 1.78014E+01 5.64197E-01-1.56213E-02 1.99330E+00-1.06545E-13 9.05235E-14
 -1      3826 1.77448E+01 3.44437E-01 8.19147E-03 2.25185E+00-1.50021E-13 1.50826E-13
 -1      3827 1.74023E+01 8.50647E-01 1.38642E-02 1.70782E+00-2.47288E-14-1.94896E-15
 -1      3828 1.83295E+01 8.00793E-01 5.91830E-03-1.59586E+00-7.47178E-16 3.86943E-14
 -1      3829 1.84445E+01 8.48774E-01-9.60197E-03-1.44491E+00 7.64731E-14 4.32809E-14
 -1      3830 1.77089E+01 9.16896E-01 9.57757E-03-1.51219E+00 2.87930E-14 3.84944E-14
 -1      3831 2.44034E+01-3.59387E+00-1.38777E-02 1.27428E+00 3.78968E-14 5.93813E-14
 -1      3832 1.58964E+01-5.51600E-01 6.94192E-03 3.32291E+00-1.32749E-13 1.26565E-13
 -1      3833 1.98655E+01 3.49184E-01-7.91554E-04 2.56279E-01 1.80293E-13 3.35077E-14
 -1      3834 2.03516E+01 7.93769E-01 4.19845E-03-9.70533E-02-2.44008E-14-8.39264E-14
 -1      3835 2.03356E+01 6.47367E-01-2.42868E-03-1.45574E-02-3.55015E-14-6.75827E-14
 -1      3836 2.03482E+01 6.52869E-01 8.23957E-04 4.48101E-03-7.75919E-15-8.38127E-14
 -1      3837 2.02494E+01 1.46159E+00-1.92592E-03 3.17739E-01 2.96427E-14-1.67171E-13
 -1      3838 1.37259E+01 6.93723E-01 9.70542E-02-1.97097E+00 3.51600E-14 1.65874E-14
 -1      3839 1.51982E+01 5.07737E-02 1.07891E-04-2.72579E+00 2.70010E-14-1.14568E-13
 -1      3840 2.01890E+01 2.53958E-01-1.76498E-04-2.78492E-01 2.98599E-14-9.95212E-14
 -1      3841 2.02185E+01 2.75640E-01 3.72758E-04-2.37155E-01-6.50140E-15-1.18856E-13
 -1      3842 2.02556E+01 3.33893E-01 2.41838E-04-1.91700E-01-3.49115E-15-1.32869E-13
 -1      3843 1.62734E+01 2.97697E-03 7.86452E-03-2.79230E+00 8.68040E-14-1.91767E-13
 -1      3844 1.97907E+01 3.98571E-01 9.85876E-04-2.77030E-01-1.03044E-13 1.70060E-13
 -1      3845 2.02966E+01 4.35502E-01-1.23233E-03-9.66386E-02 1.35760E-14-1.05616E-13
 -1      3846 2.03207E+01 5.28604E-01 2.01316E-03-2.59413E-02 3.04139E-14-1.09630E-13
 -1      3847 2.03102E+01 4.51980E-01 2.22844E-04-1.02207E-01 3.66899E-14-1.28568E-13
 -1      3848 1.51201E+01-1.65190E-01 3.94963E-02-2.95156E+00-2.09663E-13-1.01918E-13
 -1      3849 2.03053E+01 6.40323E-01-2.33121E-04 8.15913E-02 5.60584E-14-8.52781E-14
 -1      3850 1.87326E+01-1.97546E+00 1.33344E-02-3.69396E+00 1.53716E-13-2.45305E-13
 -1      3851 1.97974E+01-2.09384E+00 1.38358E-02-3.15095E+00 1.34495E-13-2.21498E-13
 -1      3852 2.04515E+01-1.80697E+00 2.89028E-02 2.53258E+00-1.17456E-13 4.72005E-14
 -1      3853 2.09599E+01-2.40129E+00-1.28053E-02 2.57066E+00-4.88559E-14-3.57032E-14
 -1      3854 1.97270E+01 4.88825E-01-2.69448E-03-6.12026E-01 1.35562E-14-6.54642E-14
 -1      3855 1.97055E+01 5.09034E-01 2.25230E-03-5.30135E-01 1.72039E-14-7.03704E-14
 -1      3856 1.96703E+01 5.44540E-01 6.54106E-04-6.67256E-01-1.99045E-14-5.41340E-14
 -1      3857 1.99785E+01-1.69378E+00-1.97736E-03-2.66472E+00 1.38080E-13-1.90805E-13
 -1      3858 1.90566E+01-1.25759E+00 1.75595E-02-2.89069E+00 1.06054E-13-1.20222E-13
 -1      3859 1.98578E+01 4.07486E-01 1.52617E-03-4.53856E-01 8.99825E-14-2.57400E-15
 -1      3860 1.99328E+01 3.48298E-01 6.40369E-04-4.85375E-01 5.37440E-14-2.77189E-14
 -1      3861 1.99718E+01 3.11394E-01-1.44474E-03-4.45475E-01 5.43425E-14-1.70453E-14
 -1      3862 1.82312E+01 9.85622E-01 8.21940E-03-1.22057E+00 6.02292E-14 1.45834E-14
 -1      3863 1.97439E+01 4.26391E-01-9.74478E-04-2.38008E-01-1.62472E-13-4.52357E-14
 -1      3864 1.48098E+01 6.38350E-01 2.98874E-02 1.75488E+00-1.05811E-13-3.81726E-14
 -1      3865 1.36857E+01 7.89354E-01 3.66387E-02 1.49823E+00-4.27748E-14-9.54636E-14
 -1      3866 1.36174E+01 9.21893E-01-2.28031E-02 6.73046E-01-2.02551E-14 8.76816E-14
 -1      3867 2.02978E+01 1.34696E+00 6.16088E-03-2.26960E-01-7.12867E-14-1.14547E-13
 -1      3868 1.96710E+01 4.80673E-01-3.78541E-04-4.75104E-02 1.61815E-13 6.59463E-14
 -1      3869 1.96667E+01 4.84574E-01-7.96429E-04 7.43159E-03 1.70478E-13 2.38047E-14
 -1      3870 2.00571E+01 2.44206E-01 1.88631E-04-4.34145E-01 8.76116E-14-3.12679E-14
 -1      3871 2.09918E+01-2.25292E+00 1.54697E-02-2.53878E+00 1.07858E-13-1.87841E-13
 -1      3872 2.31497E+01-3.43171E+00-2.97119E-02 1.87946E+00 3.48298E-14 6.10553E-14
 -1      3873 1.38161E+01 8.44397E-01 3.15508E-02-1.09203E+00 9.28814E-14 1.33376E-13
 -1      3874 1.98416E+01 3.85138E-01-1.19384E-05 2.95183E-01 8.45357E-14-1.46834E-13
 -1      3875 1.97636E+01 4.42775E-01 4.96631E-04 2.81265E-01-1.04314E-13-1.53615E-13
 -1      3876 1.57283E+01 5.50771E-01-1.49029E-02-2.10414E+00 9.39008E-14-9.59094E-14
 -1      3877 1.60176E+01-4.74626E-01 5.19160E-02 3.24197E+00 3.50624E-14-1.21257E-15
 -1      3878 1.58695E+01-2.08726E-02-1.84482E-03 2.64583E+00-4.04442E-14 5.30912E-14
 -1      3879 1.70836E+01-9.20243E-01-1.17751E-02 3.29240E+00-7.44283E-15 1.14580E-13
 -1      3880 1.92917E+01 7.50255E-01 4.08849E-03-7.25848E-01-8.57602E-14-4.80605E-15
 -1      3881 1.94932E+01 6.57996E-01 6.36585E-04-7.85400E-01-9.80873E-14-2.64703E-14
 -1      3882 1.95634E+01 5.99783E-01-3.47324E-03-7.19545E-01-5.42044E-14-2.07814E-14
 -1      3883 2.01164E+01 2.48087E-01 2.31299E-04-3.46949E-01 4.35917E-14-3.27577E-14
 -1      3884 2.01478E+01 2.45336E-01-2.52554E-04-3.10600E-01 2.71137E-14-6.74942E-14
 -1      3885 2.01817E+01 2.83330E-01 2.80619E-04-2.63351E-01 6.17583E-15-3.97831E-14
 -1      3886 2.03028E+01 1.28136E+00 4.34998E-03 2.20462E-01 2.94726E-14-1.48368E-13
 -1      3887 1.96738E+01 4.82057E-01-1.04688E-03 7.18368E-02 1.30336E-13 1.07388E-15
 -1      3888 1.96896E+01 4.72974E-01-1.21078E-03 1.24365E-01 7.72428E-14 2.13505E-14
 -1      3889 1.96234E+01 5.27071E-01 1.84802E-03 4.20115E-02 1.69803E-13 6.56054E-14
 -1      3890 1.97004E+01 4.73362E-01-6.30332E-04 1.86269E-01 2.88087E-14 9.38225E-14
 -1      3891 1.97326E+01 4.52820E-01-5.58181E-04 2.22309E-01-4.27141E-14 8.93152E-14
 -1      3892 1.96820E+01 5.10463E-01 9.82830E-04 2.90425E-01-2.72084E-13-1.08233E-13
 -1      3893 1.96333E+01 5.23655E-01-5.29429E-04 1.70619E-01 2.77919E-14 2.39896E-14
 -1      3894 1.96287E+01-2.41548E+00 6.41219E-02 3.69539E+00 1.48692E-14 1.44893E-13
 -1      3895 1.88011E+01-1.79792E+00 8.34511E-03 3.44832E+00-6.02513E-14 7.03528E-14
 -1      3896 1.69496E+01-2.08355E-01 2.17151E-02 2.86999E+00-1.54311E-13 2.11437E-13
 -1      3897 1.47051E+01 1.62391E-01 5.12952E-02 2.78641E+00-2.40911E-13 2.85634E-13
 -1      3898 1.94629E+01-1.52362E+00-3.22820E-02 2.78486E+00-1.46592E-13-1.34589E-14
 -1      3899 1.64772E+01 5.75388E-01 3.12157E-02 2.17463E+00-1.26706E-13 3.18292E-13
 -1      3900 1.70741E+01 1.09943E-01-1.68914E-02 2.53971E+00-2.11876E-13 2.41869E-13
 -1      3901 1.43991E+01 5.85918E-01-1.20394E-02 1.95316E+00-2.39673E-13 1.49412E-13
 -1      3902 2.03040E+01 1.23108E+00-4.13657E-03 1.13442E-01 2.81501E-14-1.23409E-13
 -1      3903 2.03018E+01 1.27064E+00-2.03113E-03 6.43475E-02 7.70860E-15-1.68824E-13
 -1      3904 2.03238E+01 9.99151E-01-3.02281E-03-1.58329E-01-5.74900E-14-8.90325E-14
 -1      3905 2.02988E+01 1.28609E+00-2.74077E-03 2.78904E-02-1.18886E-14-1.95515E-13
 -1      3906 2.02984E+01 1.28666E+00-2.78252E-03-2.50457E-02-3.24617E-14-1.75792E-13
 -1      3907 2.03471E+01 1.10097E+00 4.90582E-03 3.04460E-02 9.94498E-16-1.48061E-13
 -1      3908 1.34825E+01 9.58068E-01-3.76430E-03 3.79968E-01-2.37203E-13-2.34261E-13
 -1      3909 1.31603E+01 1.07375E+00 8.95015E-02-4.49371E-01-2.30496E-13-3.69843E-13
 -1      3910 1.39495E+01 8.61621E-01-5.92679E-03-1.17934E+00-2.58142E-13-1.83156E-13
 -1      3911 1.75843E+01-1.33104E+00-4.73026E-03-3.53767E+00 9.02035E-14-1.63260E-13
 -1      3912 2.12195E+01-2.80664E+00-1.67361E-02 2.77499E+00 1.99693E-14 3.41784E-14
 -1      3913 2.24626E+01-2.95904E+00 5.51970E-02 2.16531E+00 2.98442E-14 7.35653E-15
 -1      3914 1.97110E+01 4.50347E-01 1.49949E-04-1.59325E-01-1.53920E-13-2.70587E-14
 -1      3915 1.96858E+01 4.65156E-01-1.57949E-03-1.10315E-01 9.99983E-15 8.15565E-14
 -1      3916 1.96325E+01 5.14551E-01 1.50859E-03-9.00396E-02 7.14952E-14-9.25028E-14
 -1      3917 2.02859E+01 3.80461E-01-2.50298E-04 1.31539E-01 2.52125E-14-1.13824E-13
 -1      3918 2.02502E+01 3.39156E-01-5.15943E-04 1.66515E-01 1.06991E-14-9.70269E-14
 -1      3919 2.02050E+01 3.13237E-01-4.10943E-04 1.88949E-01 9.66566E-17-6.43885E-14
 -1      3920 2.01604E+01 3.01490E-01-2.01868E-04 2.19066E-01 8.08191E-16-4.80308E-14
 -1      3921 2.02335E+01 3.54348E-01 8.77228E-04 1.40488E-01 3.67599E-14-1.60882E-13
 -1      3922 2.01025E+01 3.01541E-01-7.79214E-04 2.40782E-01 1.22237E-14-6.27471E-14
 -1      3923 2.00509E+01 3.12392E-01 1.12457E-04 2.70093E-01 5.43252E-15-3.19758E-14
 -1      3924 2.01306E+01 3.27696E-01 9.26902E-04 1.83805E-01 1.25532E-14-8.84552E-14
 -1      3925 1.99813E+01 3.31351E-01-1.21755E-03 2.93971E-01-2.84481E-14-2.48667E-14
 -1      3926 1.99232E+01 3.58367E-01 3.55947E-04 3.25955E-01-4.68140E-14-5.79543E-15
 -1      3927 2.00052E+01 3.49100E-01 1.11950E-03 2.27915E-01-1.38872E-14-5.47588E-14
 -1      3928 1.98417E+01 3.89939E-01-1.72628E-03 3.54885E-01-6.24362E-14 6.39084E-15
 -1      3929 1.97772E+01 4.27133E-01 5.91791E-04 3.92606E-01-6.49437E-14 3.86555E-15
 -1      3930 1.98580E+01 4.05392E-01 1.40256E-03 2.78454E-01-6.43320E-14-4.64915E-14
 -1      3931 1.96830E+01 4.65219E-01-2.26993E-03 4.29673E-01-7.93087E-14 1.48907E-14
 -1      3932 1.96119E+01 5.06191E-01 9.03520E-04 4.76210E-01-6.99527E-14 2.19928E-14
 -1      3933 1.96877E+01 4.83833E-01 1.62264E-03 3.40715E-01-4.62361E-14-3.33162E-14
 -1      3934 1.95039E+01 5.43843E-01-2.82711E-03 5.24677E-01-7.40826E-14-2.15611E-14
 -1      3935 1.94272E+01 5.81159E-01 1.39262E-03 5.83284E-01-8.76471E-14-1.81481E-14
 -1      3936 1.94929E+01 5.72057E-01 2.09092E-03 4.21267E-01-8.56415E-14 2.54327E-15
 -1      3937 1.93037E+01 6.10137E-01-3.54214E-03 6.47306E-01-6.54055E-14-2.28084E-14
 -1      3938 1.92235E+01 6.34640E-01 2.06611E-03 7.22002E-01-1.93260E-14 2.79163E-14
 -1      3939 1.92707E+01 6.55620E-01 2.66847E-03 5.27370E-01-8.55451E-14-3.47384E-14
 -1      3940 1.90837E+01 6.44342E-01-4.54171E-03 8.07333E-01 1.19281E-15 5.23031E-14
 -1      3941 1.90056E+01 6.44988E-01 3.26561E-03 9.03271E-01-3.59248E-15 8.10299E-14
 -1      3942 1.90183E+01 7.17069E-01 3.11510E-03 6.69370E-01 2.67177E-14 2.68212E-14
 -1      3943 1.88492E+01 6.22120E-01-5.69255E-03 1.01851E+00-1.22226E-14 1.16799E-13
 -1      3944 1.87839E+01 5.83762E-01 5.33928E-03 1.14302E+00-1.88619E-14 1.31600E-13
 -1      3945 1.87349E+01 7.33765E-01 3.05847E-03 8.60718E-01 2.47331E-14 7.64348E-14
 -1      3946 1.86142E+01 5.09774E-01-6.88475E-03 1.30014E+00-5.39853E-14 1.78466E-13
 -1      3947 1.85803E+01 4.11363E-01 8.15358E-03 1.46244E+00-1.49633E-14 1.40017E-13
 -1      3948 1.84246E+01 6.78212E-01 3.02588E-03 1.12476E+00-3.65912E-14 1.47155E-13
 -1      3949 1.84062E+01 2.67161E-01-7.04250E-03 1.67651E+00-3.04075E-14 9.13266E-14
 -1      3950 1.84335E+01 7.69532E-02 1.17930E-02 1.89230E+00 1.88603E-14 2.22495E-14
 -1      3951 1.80977E+01 5.10414E-01 2.22114E-03 1.49098E+00-4.08440E-14 7.67508E-14
 -1      3952 1.85267E+01 4.28725E-01 8.76119E-03-1.48717E+00-1.97932E-13-1.31352E-13
 -1      3953 1.85508E+01 5.41613E-01-6.77711E-03-1.31623E+00-1.83536E-13-7.95183E-14
 -1      3954 1.87150E+01 6.29123E-01 5.76169E-03-1.14962E+00-1.05555E-13-3.93345E-14
 -1      3955 1.87714E+01 6.79087E-01-5.72350E-03-1.01694E+00-4.83812E-14 5.28443E-15
 -1      3956 1.83421E+01 7.26222E-01 4.02290E-03-1.14292E+00-1.34275E-13-5.27725E-14
 -1      3957 1.89208E+01 7.12737E-01 3.32354E-03-8.94058E-01 1.29989E-13 1.65579E-15
 -1      3958 1.89901E+01 7.21690E-01-4.70572E-03-7.90420E-01 1.66162E-13 2.71126E-14
 -1      3959 1.86405E+01 8.04170E-01 3.88667E-03-8.62297E-01 4.43222E-15 1.33054E-14
 -1      3960 1.91210E+01 7.20617E-01 1.92402E-03-6.98063E-01 2.56131E-14 2.48225E-14
 -1      3961 1.91912E+01 7.03520E-01-3.85166E-03-6.16147E-01 4.53177E-14-4.57266E-14
 -1      3962 1.89073E+01 8.05641E-01 3.52095E-03-6.56593E-01 8.28542E-14-1.37742E-13
 -1      3963 1.93035E+01 6.81150E-01 1.13457E-03-5.45742E-01 1.72332E-13 7.81548E-15
 -1      3964 1.93686E+01 6.49106E-01-3.12842E-03-4.80314E-01 1.80331E-13 1.10476E-13
 -1      3965 1.91394E+01 7.59022E-01 3.05235E-03-5.02558E-01 1.40774E-13 1.70518E-13
 -1      3966 1.94628E+01 6.15623E-01 8.37053E-04-4.25905E-01 1.77761E-13 1.18829E-13
 -1      3967 1.95206E+01 5.75946E-01-2.28776E-03-3.72805E-01 2.70404E-13 2.16485E-13
 -1      3968 1.93365E+01 6.84914E-01 2.42352E-03-3.86039E-01 1.56772E-13 8.02349E-14
 -1      3969 1.95977E+01 5.37312E-01 5.08736E-04-3.31318E-01 1.68874E-13 9.77482E-14
 -1      3970 1.96455E+01 4.98186E-01-1.43798E-03-2.88832E-01-2.66357E-14-1.01668E-14
 -1      3971 1.94997E+01 5.96555E-01 8.61963E-04-2.96763E-01 1.92502E-13 7.15582E-14
 -1      3972 1.83437E+01 1.02546E+00-1.40930E-03-8.54144E-01 1.16932E-14-1.71222E-14
 -1      3973 1.85372E+01 9.82635E-01-6.93015E-03-7.77583E-01-7.97604E-15-5.25789E-15
 -1      3974 1.79758E+01-8.81006E-01-6.70720E-03-2.95573E+00 7.53213E-14-2.96363E-13
 -1      3975 1.83165E+01-6.95430E-01 4.34401E-03-2.66492E+00-9.37618E-15-2.25327E-13
 -1      3976 1.90087E+01 8.97489E-01-4.53802E-03 5.70478E-01-5.75462E-14 2.41291E-13
 -1      3977 1.88754E+01 9.54639E-01-1.53745E-03 6.32724E-01 5.65773E-14 2.20792E-13
 -1      3978 1.63230E+01 8.28168E-01 1.33336E-02-1.65930E+00 5.54261E-14-6.16303E-14
 -1      3979 1.66376E+01 9.34551E-01-1.91319E-02-1.42938E+00 1.53965E-14-2.45629E-14
 -1      3980 1.81941E+01-3.01018E-01 7.31777E-04-2.35593E+00-9.31813E-14-2.61867E-13
 -1      3981 2.03233E+01 1.07838E+00-8.40289E-04-1.20989E-01-5.18522E-14-1.06228E-13
 -1      3982 2.00319E+01 2.82501E-01 4.95722E-04-4.13363E-01 5.76020E-14-6.51093E-15
 -1      3983 2.00662E+01 2.60521E-01-8.47877E-04-3.77145E-01 8.41897E-14-1.56734E-14
 -1      3984 2.00916E+01 2.85818E-01 4.75083E-04-3.25981E-01 4.12828E-14-5.99942E-15
 -1      3985 2.03014E+01 1.27044E+00-2.36550E-03-6.12797E-02-4.44540E-14-1.53285E-13
 -1      3986 2.03056E+01 1.22954E+00-4.45325E-03-1.14084E-01-5.45208E-14-1.07317E-13
 -1      3987 2.03473E+01 1.09986E+00 4.64071E-03-2.76498E-02-3.05746E-14-1.46702E-13
 -1      3988 1.92653E+01 7.78533E-01-3.57244E-03 4.72934E-01 1.76401E-13 6.92508E-14
 -1      3989 1.91611E+01 8.39582E-01-1.18007E-03 5.26741E-01 7.58114E-14 1.63194E-13
 -1      3990 1.89839E+01 9.22050E-01 5.42655E-03 4.31133E-01 8.60584E-14 1.54349E-13
 -1      3991 1.82597E+01 1.08176E+00-8.57646E-03 8.20481E-01 2.21508E-13-5.01799E-14
 -1      3992 1.80511E+01 1.10472E+00-1.79152E-03 9.14405E-01 1.63326E-13 1.09467E-14
 -1      3993 1.94642E+01 6.60578E-01-2.84007E-03 3.87912E-01 2.07660E-13-5.78876E-14
 -1      3994 1.93846E+01 7.20200E-01-5.73097E-04 4.35105E-01 1.87413E-13 2.63814E-14
 -1      3995 1.92462E+01 7.94661E-01 4.13592E-03 3.62737E-01 1.99345E-13 9.12706E-14
 -1      3996 1.96106E+01 5.55117E-01-2.55045E-03 3.18689E-01-1.62429E-13-3.25786E-14
 -1      3997 1.95504E+01 6.10746E-01-9.97158E-05 3.58750E-01 8.62893E-14-6.63900E-15
 -1      3998 1.94422E+01 6.77158E-01 3.18220E-03 3.05199E-01 1.11102E-13 1.17602E-13
 -1      3999 1.95855E+01 5.75827E-01 2.35090E-03 2.55264E-01-1.02330E-13 1.26353E-13
 -1      4000 1.51297E+01 2.51069E-01-2.34767E-02-2.35399E+00-2.20480E-13-1.52156E-13
 -1      4001 1.63213E+01-5.40259E-01 2.45969E-02-3.27363E+00-1.10129E-13-2.10137E-13
 -1      4002 1.78146E+01 1.06371E+00-9.06445E-04-1.02384E+00 4.70181E-14 9.98369E-14
 -1      4003 1.80503E+01 1.05007E+00-9.97650E-03-9.20709E-01 5.94642E-14 6.47672E-14
 -1      4004 1.80142E+01 1.12165E+00 1.07393E-02-6.67205E-01 3.15665E-15 1.51540E-14
 -1      4005 1.77219E+01 1.10459E+00-1.25176E-02 9.97951E-01 1.48206E-13 8.53690E-14
 -1      4006 1.74656E+01 1.09040E+00-1.15379E-03 1.12775E+00 2.22321E-14 1.34449E-13
 -1      4007 1.76642E+01 1.20925E+00 1.30069E-02 7.13509E-01 1.67295E-13 4.19148E-14
 -1      4008 2.03319E+01 7.75502E-01 1.83475E-03 1.29185E-01 5.05084E-14-1.42879E-13
 -1      4009 2.03302E+01 9.45345E-01 9.86657E-04 1.68494E-01 3.33536E-14-1.86932E-13
 -1      4010 2.03202E+01 6.37439E-01-2.41887E-03 3.65700E-02 4.29839E-14-1.39852E-13
 -1      4011 1.70245E+01 1.03786E+00-1.88545E-02 1.25446E+00-2.05070E-14 3.21723E-14
 -1      4012 1.67128E+01 9.49310E-01-3.95950E-03 1.45616E+00-6.13485E-14 1.22491E-13
 -1      4013 1.69390E+01 1.21669E+00 2.03452E-02 8.80205E-01-1.44823E-14 5.12422E-14
 -1      4014 1.86800E+01 1.00443E+00-6.08482E-03 6.83603E-01 1.32598E-13 1.50165E-13
 -1      4015 1.85120E+01 1.05007E+00-1.73969E-03 7.57772E-01 1.82632E-13 4.95539E-15
 -1      4016 1.86487E+01 1.04306E+00 7.17896E-03 5.08279E-01-1.00661E-14 8.66747E-14
 -1      4017 1.39747E+01 1.13117E+00 5.26934E-02-2.84984E-01 2.13158E-14 1.35572E-13
 -1      4018 1.47391E+01 8.94066E-01-4.35950E-03-1.27949E+00 6.73584E-14 2.02043E-14
 -1      4019 1.71509E+01 1.01117E+00 1.24943E-03-1.27194E+00 2.15865E-14 2.44769E-14
 -1      4020 1.74311E+01 1.04692E+00-1.47095E-02-1.12130E+00 6.28626E-14 8.90344E-14
 -1      4021 1.73708E+01 1.17445E+00 1.53413E-02-7.94183E-01 3.52829E-14 4.47589E-14
 -1      4022 2.03591E+01 7.46700E-01-1.84867E-03-2.81020E-02-2.20667E-14-1.09969E-13
 -1      4023 2.03530E+01 6.23113E-01-1.13468E-03 2.95626E-02 5.96140E-15-1.10470E-13
 -1      4024 1.95465E+01 5.71770E-01-8.02321E-04 8.13802E-03 1.14409E-13 2.19897E-13
 -1      4025 1.95576E+01 5.72860E-01 9.94971E-04 7.77233E-02-1.91000E-14-6.82077E-15
 -1      4026 1.85313E+01-1.21294E+00 3.23748E-02 3.10029E+00-8.15483E-14 2.39799E-14
 -1      4027 1.60579E+01 8.52109E-01-2.35867E-02 1.58019E+00-1.21776E-13 1.10319E-13
 -1      4028 1.53468E+01 7.43778E-01-6.37595E-03 1.76511E+00-1.15430E-13 1.93588E-13
 -1      4029 1.43370E+01 1.03097E+00 6.64813E-02 1.22913E+00-1.49755E-13-2.07736E-13
 -1      4030 1.59042E+01 1.16656E+00 3.75790E-02 1.05629E+00-2.54831E-15 2.75723E-14
 -1      4031 2.03310E+01 1.02352E+00-2.83888E-03 1.65292E-01 3.12371E-14-1.49910E-13
 -1      4032 2.03168E+01 1.17091E+00 4.00327E-04 1.34199E-01 3.09736E-14-1.11944E-13
 -1      4033 2.03543E+01 1.01618E+00 5.26900E-03 7.49217E-02 3.21623E-14-1.30800E-13
 -1      4034 2.03507E+01 8.59023E-01 2.22432E-03 8.46129E-02 2.43968E-14-1.35045E-13
 -1      4035 1.84145E+01 5.78510E-02 1.22481E-02-1.92696E+00-1.14677E-13-2.37849E-13
 -1      4036 1.83615E+01 2.67251E-01-6.07850E-03-1.71181E+00-1.35625E-13-1.97945E-13
 -1      4037 1.80342E+01 5.30359E-01 5.95074E-03-1.53306E+00-1.04036E-13-2.89334E-13
 -1      4038 1.54300E+01 8.72554E-01 1.44223E-02-1.55131E+00 5.38704E-14 1.25676E-14
 -1      4039 1.87667E+01 9.33924E-01-1.34445E-03-7.27328E-01-1.22362E-14-9.67680E-15
 -1      4040 1.89238E+01 8.75428E-01-5.03674E-03-6.66305E-01-4.50643E-14-1.71429E-14
 -1      4041 1.85153E+01 1.02170E+00 7.71004E-03-5.77121E-01-2.88295E-14 6.63684E-15
 -1      4042 2.02538E+01 3.38761E-01-3.04240E-04-1.81880E-01 1.77953E-15-7.89250E-14
 -1      4043 2.02863E+01 3.81995E-01-7.49423E-05-1.41396E-01 2.23411E-15-6.81289E-14
 -1      4044 2.03402E+01 5.19860E-01-2.34102E-04 6.17879E-02 4.35643E-15-1.27726E-13
 -1      4045 2.03170E+01 4.40517E-01-7.60031E-04 1.05790E-01 6.17627E-15-1.22906E-13
 -1      4046 2.03105E+01 4.42636E-01 5.97435E-04 9.23474E-02 1.97354E-14-1.98935E-13
 -1      4047 2.03547E+01 6.11143E-01 4.05066E-04 3.39686E-02 3.71203E-15-1.63497E-13
 -1      4048 2.03564E+01 9.32817E-01 3.47162E-03-6.05771E-02-4.92674E-14-9.51008E-14
 -1      4049 1.80221E+01-6.95711E-01-3.66268E-03 2.76239E+00-4.93321E-14-7.79773E-14
 -1      4050 1.95200E+01 6.26576E-01 3.07595E-03-6.19529E-01-4.68653E-14-3.78121E-15
 -1      4051 2.03532E+01 9.30201E-01-2.42116E-03 2.91346E-02 1.25808E-16-1.21603E-13
 -1      4052 2.03528E+01 9.45046E-01-2.43332E-03 6.32454E-03-2.49922E-14-1.39748E-13
 -1      4053 1.53559E+01 1.09285E+00-1.91468E-02-8.16144E-01 3.64920E-14 2.15821E-14
 -1      4054 1.82774E+01-1.78858E-01-7.89117E-03 2.17065E+00 5.57624E-14 1.28448E-14
 -1      4055 1.84078E+01-5.18349E-01 4.14883E-03 2.45390E+00-9.20553E-15-3.84514E-14
 -1      4056 1.96032E+01 5.61880E-01-3.23761E-04-4.65213E-01 3.05393E-16 1.71675E-15
 -1      4057 1.96870E+01 5.04216E-01-2.18832E-03-4.27584E-01 4.90321E-14 2.45072E-14
 -1      4058 1.96079E+01 5.23845E-01-6.13995E-04-2.04536E-01-7.44761E-14-3.02140E-13
 -1      4059 1.96844E+01 4.76272E-01 7.77944E-04-2.36397E-01-1.71058E-13-5.71513E-14
 -1      4060 1.99846E+01 3.30551E-01 9.57290E-04-3.87612E-01 6.91528E-14 2.77195E-14
 -1      4061 1.97861E+01 4.52340E-01-1.01071E-04-4.01373E-01 8.07037E-14 3.85466E-14
 -1      4062 1.98546E+01 4.04918E-01-1.97588E-03-3.68657E-01 1.01054E-13 3.46097E-14
 -1      4063 1.97020E+01 5.10228E-01 2.72596E-03-3.38138E-01 5.54003E-14 4.50220E-14
 -1      4064 2.03154E+01 4.44675E-01-6.79182E-04-1.09478E-01 1.60659E-14-7.53900E-14
 -1      4065 2.03375E+01 5.24686E-01-8.21580E-04-5.73832E-02 3.98337E-14-7.62985E-14
 -1      4066 2.03129E+01 4.49845E-01 4.69583E-05-1.01002E-01 1.75646E-14-1.32659E-14
 -1      4067 1.82186E+01 1.14479E+00 9.50833E-03 5.98306E-01 2.22206E-13-9.54490E-14
 -1      4068 1.56625E+01 5.28933E-01 3.63381E-02 2.01058E+00-7.14524E-14-6.44450E-15
 -1      4069 1.52558E+01 7.69738E-01-1.85420E-02 1.42866E+00-7.49315E-14 4.40793E-15
 -1      4070 1.72388E+01-1.51123E-01 2.59241E-02 2.58250E+00-5.97994E-14-5.57937E-14
 -1      4071 1.65135E+01 1.14569E+00 1.72943E-02-9.91386E-01 1.05213E-13 2.83181E-14
 -1      4072 1.76136E+01 7.15932E-02-8.02553E-03-2.15433E+00-1.60195E-14-4.30921E-13
 -1      4073 1.50474E+01 7.78122E-01 5.94203E-02-1.74261E+00-2.23121E-13-2.25874E-13
 -1      4074 1.59736E+01 4.01798E-01 2.34434E-03-2.10141E+00-7.17844E-14-2.77266E-13
 -1      4075 2.03370E+01 6.42140E-01-1.85654E-03 1.41889E-02 2.83174E-14-1.40772E-13
 -1      4076 1.89123E+01 8.96554E-01 5.71154E-03-5.05048E-01-5.18147E-14-4.65999E-14
 -1      4077 1.91063E+01 8.14934E-01-1.03831E-03-6.24939E-01-7.80263E-14-1.44574E-14
 -1      4078 1.92334E+01 7.49854E-01-3.76366E-03-5.73970E-01-1.04614E-13 7.41434E-15
 -1      4079 2.03561E+01 8.97052E-01 9.55849E-04-3.31977E-02-3.75925E-14-1.13164E-13
 -1      4080 1.63416E+01 1.92466E-01-3.47914E-03 2.24906E+00-1.00989E-13-1.32793E-14
 -1      4081 2.01694E+01 2.99260E-01-1.96968E-06-2.40609E-01-4.93797E-15-4.59384E-14
 -1      4082 2.02102E+01 3.11178E-01-3.54800E-04-2.07074E-01-6.93561E-15-7.95444E-14
 -1      4083 2.02412E+01 3.54111E-01 4.45095E-05-1.59495E-01-9.63224E-15-8.52888E-14
 -1      4084 1.46641E+01 1.07732E+00 2.87091E-02 2.86831E-01-6.65477E-14 4.35277E-14
 -1      4085 1.95568E+01 5.73680E-01-9.61090E-04 1.42240E-01-5.40280E-14 8.10447E-14
 -1      4086 1.47327E+01 9.13223E-01-2.73137E-02-1.05950E+00-2.03182E-13-1.86668E-13
 -1      4087 1.44687E+01 1.08174E+00-8.11424E-03 3.83838E-01-1.23278E-13-2.16210E-13
 -1      4088 1.75278E+01-7.47996E-01 1.90708E-02-3.00713E+00 6.11139E-14-3.36123E-13
 -1      4089 1.77803E+01 1.39678E-01-1.20417E-02 2.01150E+00-5.71353E-15 3.11025E-14
 -1      4090 2.03541E+01 9.05674E-01-9.94913E-04 3.87222E-02 9.54078E-15-1.27958E-13
 -1      4091 2.03721E+01 7.85742E-01 3.57828E-03 8.29172E-03-1.09757E-14-1.14302E-13
 -1      4092 1.53908E+01 1.17042E+00-9.45584E-04-3.02797E-01-1.67083E-14 2.95666E-14
 -1      4093 1.59306E+01 1.15411E+00 3.58630E-03-5.58402E-01 9.46790E-14-5.98484E-14
 -1      4094 1.95760E+01 5.47502E-01-1.45801E-04-1.36921E-01 3.35294E-14-2.21124E-13
 -1      4095 1.95547E+01 5.60976E-01-1.21899E-03-7.21086E-02 9.77918E-14 2.08989E-14
 -1      4096 1.94919E+01 6.13368E-01 1.69267E-03-3.94029E-02 1.89732E-15 4.26915E-14
 -1      4097 2.03574E+01 6.57353E-01-2.04778E-03-1.48233E-02-1.30236E-14-9.85802E-14
 -1      4098 2.03614E+01 6.83528E-01-1.44760E-03-1.15259E-02-1.73551E-14-1.26177E-13
 -1      4099 2.01554E+01 3.37407E-01-7.40357E-04 1.20936E-01 2.96465E-14-1.05345E-13
 -1      4100 2.00979E+01 3.37975E-01-3.39295E-04 1.41498E-01 3.53734E-14-9.84160E-14
 -1      4101 2.00274E+01 3.49591E-01-1.07670E-03 1.53802E-01-1.31050E-14-8.83366E-14
 -1      4102 1.99592E+01 3.71989E-01-2.03709E-04 1.75489E-01-4.89169E-14-9.76812E-14
 -1      4103 2.00587E+01 3.62395E-01 1.15213E-03 8.98247E-02 5.35308E-15-1.30532E-13
 -1      4104 1.98747E+01 4.01819E-01-1.42984E-03 1.90983E-01-8.19035E-14-5.55117E-14
 -1      4105 1.97954E+01 4.39315E-01-2.23607E-04 2.16207E-01-7.62143E-14-8.10538E-14
 -1      4106 1.99080E+01 4.08570E-01 2.12517E-03 1.15372E-01-5.13665E-14-1.15697E-13
 -1      4107 1.96941E+01 4.81957E-01-2.29519E-03 2.38081E-01-3.58930E-14-1.01944E-13
 -1      4108 1.96052E+01 5.29636E-01 2.97261E-04 2.70582E-01-3.91935E-14-9.02922E-14
 -1      4109 1.97254E+01 4.90306E-01 3.05189E-03 1.48892E-01-6.68869E-14-1.09799E-13
 -1      4110 1.94852E+01 5.76870E-01-3.11918E-03 3.00284E-01-7.21708E-14-7.72567E-14
 -1      4111 1.93849E+01 6.28185E-01 7.83712E-04 3.42769E-01-1.04671E-13-7.24045E-14
 -1      4112 1.95128E+01 5.88436E-01 3.21283E-03 1.92895E-01-3.84632E-14-1.49881E-13
 -1      4113 1.92445E+01 6.73763E-01-3.59178E-03 3.83084E-01-8.78076E-14-5.24561E-15
 -1      4114 1.91279E+01 7.20958E-01 5.90931E-04 4.38666E-01-2.79890E-14 3.08692E-14
 -1      4115 1.92664E+01 6.94562E-01 3.76300E-03 2.54468E-01-5.07198E-14-4.29049E-14
 -1      4116 1.89640E+01 7.58229E-01-4.46368E-03 4.95658E-01 2.25578E-14 3.18429E-14
 -1      4117 1.88317E+01 7.92205E-01 6.86368E-04 5.69048E-01 6.38834E-14 5.95114E-14
 -1      4118 1.89769E+01 8.01296E-01 6.73513E-03 3.45268E-01-5.32051E-15-1.20344E-15
 -1      4119 1.86309E+01 8.12105E-01-7.56986E-03 6.53327E-01 6.32198E-14 3.75591E-14
 -1      4120 1.84918E+01 8.25959E-01 2.77914E-03 7.55555E-01 3.61088E-14 8.74954E-14
 -1      4121 1.86224E+01 8.95934E-01 1.03655E-02 4.76109E-01 6.94687E-14-3.09684E-14
 -1      4122 1.82467E+01 8.10421E-01-1.09367E-02 8.72229E-01 3.30494E-14 1.25752E-13
 -1      4123 1.81011E+01 7.89464E-01 4.74754E-03 1.01416E+00 2.78408E-14 1.28441E-13
 -1      4124 1.82133E+01 9.46505E-01 1.57824E-02 6.58268E-01 9.41453E-14-5.64075E-14
 -1      4125 1.77970E+01 7.23519E-01-1.65245E-02 1.18168E+00-8.50203E-14 1.21211E-13
 -1      4126 1.76749E+01 6.50662E-01 8.14928E-03 1.37771E+00-6.32788E-14 9.59155E-14
 -1      4127 1.77143E+01 9.37878E-01 2.15210E-02 9.20886E-01-3.23897E-14 8.06392E-14
 -1      4128 2.03553E+01 8.32746E-01-3.64743E-03 4.79046E-02 1.54608E-14-1.13275E-13
 -1      4129 1.94106E+01 6.54074E-01-7.33225E-04-9.26075E-02 4.22106E-14 6.28712E-14
 -1      4130 1.93983E+01 6.64271E-01-1.56229E-03-8.10537E-03 3.29699E-14 2.94430E-13
 -1      4131 1.99372E+01 3.66543E-01-7.70899E-05-3.44309E-01 7.75169E-14-1.84786E-14
 -1      4132 1.99967E+01 3.34482E-01-8.11948E-04-3.13706E-01 5.83998E-14-2.52559E-14
 -1      4133 1.98750E+01 4.16462E-01 1.85829E-03-2.93228E-01 3.76956E-14-2.47506E-14
 -1      4134 1.82089E+01 1.12371E+00-7.28049E-03 3.56602E-01 1.40803E-13 8.73635E-14
 -1      4135 1.79589E+01 1.16723E+00-7.06019E-03 3.86576E-01 2.46412E-13 5.22739E-14
 -1      4136 1.83874E+01 8.94020E-01 1.95116E-03-7.63450E-01-4.78565E-14 4.79987E-14
 -1      4137 1.85206E+01 8.89702E-01-8.40249E-03-6.57294E-01 3.67409E-14-5.37425E-14
 -1      4138 1.87149E+01 8.81677E-01 8.22434E-04-5.67964E-01 6.48598E-14-6.78227E-14
 -1      4139 1.88341E+01 8.53939E-01-6.18653E-03-4.89549E-01 1.35013E-13-1.15369E-13
 -1      4140 1.85081E+01 9.90717E-01 1.47064E-02-4.72268E-01 1.72939E-14-2.15565E-13
 -1      4141 1.89915E+01 8.24755E-01 1.92211E-04-4.25320E-01 1.45651E-13-1.32414E-13
 -1      4142 1.90955E+01 7.82966E-01-4.55812E-03-3.66147E-01 1.10305E-13-2.49041E-15
 -1      4143 1.88372E+01 9.16642E-01 1.07801E-02-3.39996E-01 1.64140E-13-1.58836E-13
 -1      4144 1.68721E+01 3.05168E-01 5.08515E-03 2.03785E+00-7.38216E-14-8.61594E-15
 -1      4145 1.95370E+01 5.77793E-01 1.28853E-03-1.90406E-01-1.72715E-14-2.37655E-13
 -1      4146 1.52734E+01 1.13895E+00-2.25075E-02 4.66649E-01-6.52963E-14-1.29222E-13
 -1      4147 1.48858E+01 1.23704E+00 5.52503E-02-3.18566E-01-1.45243E-13-5.80740E-14
 -1      4148 1.55600E+01 1.04000E+00-6.27165E-03-8.33869E-01-7.38298E-14-8.88278E-14
 -1      4149 1.59519E+01 1.18726E+00-1.62231E-02 4.54049E-01-3.96827E-14-4.89502E-14
 -1      4150 2.03461E+01 7.24602E-01-3.64156E-04 2.24885E-02 2.51762E-14-1.23548E-13
 -1      4151 1.80034E+01 8.37153E-01 3.96778E-03-1.03664E+00-1.43306E-13-9.81035E-14
 -1      4152 1.81461E+01 8.68862E-01-1.16411E-02-8.88960E-01-1.11070E-13-1.84049E-14
 -1      4153 1.81053E+01 1.02550E+00 1.98502E-02-6.60033E-01-5.26823E-14-9.86265E-14
 -1      4154 2.03544E+01 9.37779E-01-1.61869E-03-3.44701E-03-1.35528E-14-1.33275E-13
 -1      4155 2.03521E+01 9.20899E-01-3.01996E-03-2.47982E-02-3.65710E-14-1.21982E-13
 -1      4156 2.03732E+01 7.62122E-01 3.50828E-03-1.36123E-03-2.77605E-14-1.12406E-13
 -1      4157 2.03749E+01 8.04763E-01 4.24136E-03 1.71029E-03-1.84905E-14-1.15304E-13
 -1      4158 1.92379E+01 7.71771E-01-3.08311E-03 2.42464E-01 2.12442E-13 5.97204E-14
 -1      4159 1.91198E+01 8.35501E-01-2.84401E-03 2.66972E-01 2.27101E-13 7.05216E-14
 -1      4160 1.77240E+01 1.13969E+00-7.84487E-03-4.20111E-01 1.42170E-14-4.64588E-14
 -1      4161 1.80164E+01 1.10032E+00-7.20333E-03-3.88068E-01 1.10735E-14-4.94970E-14
 -1      4162 1.93803E+01 6.86313E-01-6.55324E-04-5.38974E-01-9.29715E-14 2.07660E-14
 -1      4163 1.94833E+01 6.22120E-01-2.82683E-03-4.95355E-01-4.85117E-14-3.63986E-15
 -1      4164 1.94890E+01 6.28838E-01 3.27383E-03-3.87804E-01-2.03910E-14 5.30954E-14
 -1      4165 1.92307E+01 7.61149E-01 4.32084E-03-4.43029E-01-6.56717E-14 3.23748E-14
 -1      4166 2.02580E+01 3.78062E-01-4.72021E-04 8.85442E-02 6.30383E-14-1.43844E-13
 -1      4167 2.02117E+01 3.50143E-01-5.14296E-04 1.09786E-01 4.40685E-14-1.23615E-13
 -1      4168 2.01843E+01 3.62793E-01 1.23593E-03 6.82989E-02 7.33484E-14-1.30886E-13
 -1      4169 1.70443E+01 5.18030E-01-9.00984E-03 1.71754E+00-4.67321E-14 5.45816E-14
 -1      4170 1.76473E+01 1.19889E+00-1.08532E-02 3.96324E-01 2.23482E-13-6.32955E-14
 -1      4171 1.73137E+01 1.21639E+00-1.32957E-02 4.37658E-01 5.10384E-14-2.20329E-14
 -1      4172 1.77565E+01 1.25049E+00 2.60843E-02 1.39387E-01 1.36334E-13 1.16942E-14
 -1      4173 1.69251E+01 1.23810E+00-1.11719E-02 4.17294E-01-1.70160E-14-1.32030E-14
 -1      4174 1.64847E+01 1.21632E+00-1.29524E-02 4.90602E-01 4.98169E-14-1.42057E-14
 -1      4175 1.61612E+01 1.27170E+00 2.02496E-02-9.19526E-02-9.81593E-15-4.83153E-14
 -1      4176 1.70734E+01 1.29673E+00 2.86329E-02 6.85161E-02 1.17503E-13-1.90068E-13
 -1      4177 1.64086E+01 1.17653E+00-1.30754E-02-4.87453E-01 1.03924E-13-4.26339E-14
 -1      4178 1.86399E+01 1.01841E+00-5.27424E-03 3.19886E-01-1.24897E-13 2.98637E-13
 -1      4179 1.84464E+01 1.07477E+00-5.07958E-03 3.46621E-01-1.35628E-14 2.20644E-13
 -1      4180 1.82862E+01 1.15188E+00 1.96029E-02 1.60035E-01 5.73615E-14 4.31198E-13
 -1      4181 1.69911E+01 1.18609E+00-8.23244E-03-4.69301E-01 6.03033E-14-1.43109E-13
 -1      4182 1.73643E+01 1.16913E+00-1.08143E-02-4.21485E-01 2.07280E-14-1.10993E-13
 -1      4183 1.74941E+01 1.20594E+00 2.10315E-02-1.09852E-01 5.33949E-14-2.52921E-13
 -1      4184 1.94616E+01 6.16242E-01-1.10856E-03-2.32831E-01 6.60944E-14-1.73432E-13
 -1      4185 1.94271E+01 6.39565E-01-9.51046E-04-1.62504E-01 3.22239E-14-3.46276E-13
 -1      4186 1.93383E+01 6.98951E-01 1.20419E-03-1.35308E-01 9.21085E-14-1.66235E-13
 -1      4187 1.93855E+01 6.62665E-01 1.70128E-05-2.70231E-01 2.42805E-13-1.46047E-14
 -1      4188 1.89752E+01 8.98023E-01-3.86059E-03 2.81905E-01 2.10725E-13 9.27462E-14
 -1      4189 1.88245E+01 9.60357E-01-3.62158E-03 3.07857E-01 7.05791E-14 1.91517E-13
 -1      4190 1.90117E+01 9.04400E-01 9.97448E-03 1.59513E-01 2.90907E-13 1.60741E-13
 -1      4191 1.68315E+01 8.09277E-01 1.99793E-02 1.36578E+00-8.91069E-14 5.33375E-14
 -1      4192 2.03540E+01 6.45099E-01 1.93725E-03-1.60345E-02 2.11870E-14-1.12492E-13
 -1      4193 2.00634E+01 3.11991E-01-2.08718E-04-2.93039E-01 3.63794E-14-4.82282E-14
 -1      4194 2.01131E+01 2.99480E-01-7.28928E-04-2.62374E-01 5.77271E-15-6.48646E-14
 -1      4195 2.00232E+01 3.46346E-01 4.63685E-04-2.49956E-01 2.99546E-14-8.82155E-14
 -1      4196 1.82913E+01 1.05169E+00-5.26683E-03-3.84504E-01-4.47539E-14-2.07243E-14
 -1      4197 1.85191E+01 9.94156E-01-5.32802E-03-3.58140E-01-4.48421E-14-1.10297E-14
 -1      4198 1.81079E+01 1.11352E+00 1.45654E-02-1.49800E-01 9.93812E-15-8.17733E-14
 -1      4199 1.51969E+01 1.13615E+00 1.81484E-02 5.56625E-01-6.58145E-14-3.01239E-14
 -1      4200 1.75698E+01 6.63443E-01 7.16144E-04-1.43005E+00 2.28073E-14-2.60958E-13
 -1      4201 1.76947E+01 7.56944E-01-1.93259E-02-1.21812E+00-5.60980E-14-1.43983E-13
 -1      4202 1.76058E+01 1.00193E+00 2.64138E-02-9.29535E-01-6.02502E-14-4.84811E-14
 -1      4203 1.94902E+01 6.23666E-01-4.00109E-04 1.60606E-01-1.40218E-14 5.33662E-14
 -1      4204 2.03583E+01 5.89615E-01 2.76634E-03-1.54179E-02-9.02398E-15-1.28855E-13
 -1      4205 2.03622E+01 6.87826E-01-1.54148E-03-6.23813E-04-1.31287E-14-1.18322E-13
 -1      4206 2.03607E+01 6.77980E-01-2.52935E-03 1.15605E-03-2.39225E-14-1.14035E-13
 -1      4207 1.85837E+01 9.81107E-01 2.97268E-03-1.68649E-01-4.77801E-14-3.36960E-14
 -1      4208 1.87395E+01 9.33837E-01-2.94393E-03-3.53719E-01-1.50713E-14-3.86535E-14
 -1      4209 1.89199E+01 8.67953E-01-3.32592E-03-3.29013E-01-1.89906E-14-2.89180E-14
 -1      4210 2.03530E+01 6.33650E-01 2.60351E-04-2.65208E-02 3.36191E-16-7.78866E-14
 -1      4211 2.03493E+01 5.53499E-01 1.86485E-03-5.10680E-02-7.91161E-15-6.49741E-14
 -1      4212 2.01437E+01 3.24366E-01 9.25640E-05-2.07545E-01 8.19565E-15-1.05802E-13
 -1      4213 2.03606E+01 6.65862E-01-7.75686E-04 1.21490E-02-4.25630E-14-1.10920E-13
 -1      4214 2.03584E+01 6.32822E-01-1.70383E-03 1.87049E-02-2.30473E-14-1.22055E-13
 -1      4215 2.03473E+01 5.36096E-01 1.47877E-03 4.96142E-02 2.79527E-15-1.53703E-13
 -1      4216 2.03589E+01 5.77288E-01 3.20023E-03 1.62203E-02-2.89941E-14-9.03192E-14
 -1      4217 1.96201E+01 5.45954E-01-1.21884E-03-2.58633E-01 3.29381E-14-4.83245E-14
 -1      4218 1.97157E+01 4.90648E-01-2.39214E-03-2.36595E-01 1.91363E-14-7.08488E-14
 -1      4219 2.02920E+01 4.10864E-01 1.03678E-03-1.04022E-01 2.65802E-14-6.67647E-14
 -1      4220 2.03226E+01 4.69431E-01-5.16217E-04-7.33821E-02 2.67906E-14-5.87201E-14
 -1      4221 2.03270E+01 4.97461E-01-7.53383E-04-5.31446E-02 1.80345E-14-9.77130E-14
 -1      4222 1.65692E+01 1.25031E+00 2.32118E-02-4.60489E-02 2.15754E-14-2.11586E-13
 -1      4223 1.92236E+01 7.42480E-01 1.37503E-04-3.19322E-01 1.15073E-13 5.28593E-14
 -1      4224 1.93153E+01 6.94720E-01-1.93511E-03-2.73879E-01 2.32056E-13 2.73796E-14
 -1      4225 1.86945E+01 1.03287E+00 1.44304E-02 1.65478E-01 1.23126E-13 2.57446E-13
 -1      4226 2.02050E+01 3.44950E-01 9.68264E-04-1.44645E-01 1.38643E-15-1.41771E-13
 -1      4227 2.02487E+01 3.68567E-01-4.94430E-04-1.20486E-01 8.58574E-15-1.10227E-13
 -1      4228 2.02542E+01 3.89254E-01-5.87453E-04-8.69431E-02 2.48613E-14-1.21320E-13
 -1      4229 1.93930E+01 6.80759E-01 1.22298E-03 8.67581E-02 1.48664E-13 1.48391E-13
 -1      4230 1.93998E+01 6.77891E-01-2.53458E-03 2.06653E-01 6.28243E-14 7.54274E-15
 -1      4231 1.93178E+01 7.33817E-01-9.60985E-04 2.29416E-01 1.55662E-13 4.33212E-14
 -1      4232 1.93082E+01 7.27320E-01 1.09513E-03 3.38692E-02 8.06969E-14 1.05432E-13
 -1      4233 1.59164E+01 1.00905E+00 5.88309E-03 8.13912E-01-6.07669E-14-9.80119E-15
 -1      4234 1.93840E+01 6.67927E-01-1.49246E-03-2.90771E-01-3.53112E-14-1.44583E-15
 -1      4235 1.95016E+01 6.04334E-01-2.22200E-03-2.69625E-01 1.04185E-14-2.19720E-15
 -1      4236 1.95399E+01 5.97105E-01 3.41626E-03-1.64455E-01-1.34549E-14-9.33960E-14
 -1      4237 1.92274E+01 7.84504E-01 3.61452E-03 1.39812E-01 1.82025E-13 1.18675E-13
 -1      4238 1.63817E+01 1.08450E+00-1.45818E-02-7.09354E-01 2.44752E-14-1.62912E-13
 -1      4239 1.66148E+01 8.84649E-01 2.70951E-02-1.34004E+00 1.57190E-14-2.53582E-13
 -1      4240 1.68135E+01 5.56350E-01-1.64323E-02-1.70691E+00 2.90799E-14-3.02795E-13
 -1      4241 2.03224E+01 4.71177E-01-1.25491E-03 5.75041E-02 2.75951E-14-1.60755E-13
 -1      4242 2.02909E+01 4.12682E-01-1.29604E-04 8.26362E-02 4.70855E-14-1.60392E-13
 -1      4243 2.02729E+01 4.09066E-01 7.57018E-04 5.33026E-02 6.38641E-14-1.20467E-13
 -1      4244 2.03282E+01 4.95988E-01-6.07942E-04 3.82393E-02 1.34416E-14-1.20267E-13
 -1      4245 1.69282E+01-1.77665E-01 2.33698E-02-2.69273E+00-2.14551E-14-5.14412E-13
 -1      4246 1.65679E+01 1.04509E+00-2.18929E-02 6.01134E-01-9.52606E-14-2.28376E-15
 -1      4247 1.91035E+01 8.16863E-01 6.10511E-03-2.47257E-01 1.36807E-13-6.61307E-14
 -1      4248 1.83218E+01 1.03611E+00-1.15204E-02-1.93575E-01 1.40025E-14 1.44813E-13
 -1      4249 1.80755E+01 1.07854E+00-1.56577E-02-2.16531E-01 6.82743E-14 1.14136E-13
 -1      4250 2.00895E+01 3.40971E-01 1.02152E-03-1.78408E-01 9.38839E-15-1.27941E-13
 -1      4251 2.01458E+01 3.36145E-01-4.62320E-04-1.58396E-01-2.02838E-15-1.15797E-13
 -1      4252 2.01496E+01 3.52046E-01-3.12390E-04-1.13142E-01-2.49008E-15-1.34902E-13
 -1      4253 1.99378E+01 3.93907E-01-1.25601E-03 3.34768E-02-1.77282E-14-1.92042E-13
 -1      4254 1.98514E+01 4.27481E-01-1.43366E-03 4.85657E-02-4.70636E-14-1.87045E-13
 -1      4255 1.97286E+01 4.85652E-01-1.17717E-03-9.33214E-03-5.43229E-14-1.42145E-13
 -1      4256 1.96256E+01 5.34392E-01-1.37078E-03 4.80310E-03-2.76591E-14-1.07118E-13
 -1      4257 1.95053E+01 5.91179E-01-2.59924E-03 5.84536E-03-2.43490E-14-7.24307E-14
 -1      4258 1.93882E+01 6.49824E-01-9.37414E-04 2.40410E-02-1.61008E-14-5.07658E-14
 -1      4259 1.89867E+01 7.99245E-01-4.95498E-03 1.69756E-01-3.52286E-14-5.59559E-14
 -1      4260 1.88198E+01 8.55704E-01-3.46662E-03 2.21800E-01 1.28346E-14-2.56550E-14
 -1      4261 1.85382E+01 9.40506E-01-6.76050E-03 1.33213E-01 5.92641E-15-6.96096E-14
 -1      4262 1.83310E+01 9.85129E-01-5.50935E-03 1.94313E-01 2.88946E-14-8.40652E-14
 -1      4263 1.80470E+01 1.02063E+00-1.37142E-02 2.27100E-01 9.10070E-14-1.20252E-13
 -1      4264 1.78047E+01 1.04921E+00-8.29426E-03 3.17636E-01 8.06829E-14-8.53050E-14
 -1      4265 1.74375E+01 1.05896E+00-1.99200E-02 3.68331E-01 3.60515E-14-1.20295E-13
 -1      4266 1.71515E+01 1.06457E+00-8.08643E-03 5.03242E-01-4.26969E-14-9.78862E-14
 -1      4267 1.98382E+01 4.36109E-01-5.75296E-04-1.71268E-01 1.11244E-14-1.33117E-13
 -1      4268 1.99206E+01 3.98022E-01-3.17280E-06-1.55484E-01 3.22309E-15-1.53185E-13
 -1      4269 1.90200E+01 8.46238E-01-4.84837E-03-6.23641E-02 2.06082E-13 1.59639E-13
 -1      4270 1.88685E+01 9.03363E-01-7.69389E-03-6.85921E-02 2.98249E-13 1.50940E-13
 -1      4271 2.03291E+01 5.01393E-01-1.08083E-03-3.12412E-02 1.56199E-14-1.26395E-13
 -1      4272 1.78346E+01 1.09023E+00-1.50973E-02-3.12169E-01-2.99760E-14 6.45428E-14
 -1      4273 1.85172E+01 1.00331E+00-1.12372E-02-1.26985E-01 7.50829E-14 7.62941E-14
 -1      4274 1.87092E+01 9.49162E-01-8.48957E-03-1.14685E-01 2.46251E-13 7.04877E-14
 -1      4275 1.97785E+01 4.75912E-01 2.47764E-03-9.34215E-02-1.77220E-14-1.88430E-13
 -1      4276 1.75142E+01 1.11330E+00-2.12529E-02-3.50600E-01-4.03093E-14-2.30151E-14
 -1      4277 2.02105E+01 3.67257E-01-3.58042E-04 1.43590E-02 7.09356E-14-1.23561E-13
 -1      4278 2.01543E+01 3.54504E-01-4.44519E-04 2.35960E-02 5.57669E-14-1.43914E-13
 -1      4279 1.92928E+01 7.20870E-01 2.55031E-03-2.06036E-01 8.64821E-14-3.11499E-13
 -1      4280 2.00880E+01 3.56678E-01-8.80571E-04 2.23969E-02 2.17116E-14-2.06824E-13
 -1      4281 2.00183E+01 3.69714E-01-6.59596E-04 3.34986E-02-9.93178E-15-1.93766E-13
 -1      4282 1.99754E+01 3.87573E-01-5.25155E-04-3.58943E-02 4.36662E-17-2.66634E-13
 -1      4283 2.01214E+01 3.63257E-01 1.21441E-03-3.32059E-02 2.18522E-14-2.22696E-13
 -1      4284 1.90952E+01 8.00576E-01-2.31058E-03-3.22836E-01-4.29824E-14-5.56978E-14
 -1      4285 1.92403E+01 7.33894E-01-2.44229E-03-2.99946E-01-3.89309E-14 6.76628E-15
 -1      4286 1.89722E+01 8.53899E-01 4.36337E-03-1.80063E-01-1.05922E-14-4.85521E-14
 -1      4287 2.00193E+01 3.56778E-01-1.23869E-03-1.96085E-01-7.85026E-15-8.86450E-14
 -1      4288 1.72174E+01 1.94906E-01 1.61544E-02-2.18354E+00-3.74191E-15-3.55121E-13
 -1      4289 1.91511E+01 7.94214E-01-3.29952E-03-3.36210E-02 1.51011E-13 1.78338E-13
 -1      4290 1.72185E+01 1.11107E+00-1.25904E-02-4.81434E-01 4.55636E-14-1.57152E-13
 -1      4291 1.92625E+01 7.31097E-01-1.74499E-03-1.38130E-01 8.11377E-14 1.23757E-14
 -1      4292 1.92893E+01 6.83245E-01-3.45118E-03 1.12744E-01-3.82653E-14-3.91381E-14
 -1      4293 1.91567E+01 7.42855E-01-9.55602E-04 1.45334E-01-3.91226E-14-2.71628E-14
 -1      4294 2.03001E+01 4.35933E-01 1.56850E-03-3.77669E-02 5.04211E-14-1.25058E-13
 -1      4295 2.03270E+01 5.05818E-01-6.50573E-04-4.31090E-03 1.38287E-14-1.08472E-13
 -1      4296 2.03237E+01 4.91175E-01-1.47616E-03 1.40553E-02-5.12265E-15-7.73993E-14
 -1      4297 2.02550E+01 3.91356E-01-6.47675E-04-5.22487E-02 3.41569E-14-1.17874E-13
 -1      4298 1.92240E+01 7.73982E-01 1.33161E-03 3.95361E-02 8.92220E-14 1.24174E-13
 -1      4299 1.90535E+01 8.04739E-01 2.95054E-03 1.99343E-02-4.26990E-14-3.79618E-14
 -1      4300 1.92843E+01 7.19850E-01 3.32976E-03-1.77451E-01-2.44873E-14-9.78772E-14
 -1      4301 1.86340E+01 9.59007E-01 5.22964E-03-5.57510E-02-4.01134E-14-6.57394E-14
 -1      4302 1.68547E+01 1.09666E+00-1.74279E-02-5.80869E-01 7.31091E-14-1.72838E-13
 -1      4303 2.01367E+01 3.50969E-01-1.12213E-03-7.58922E-02 2.29558E-15-1.67526E-13
 -1      4304 2.01962E+01 3.60626E-01 4.04314E-04-6.49745E-02 8.11323E-15-1.41453E-13
 -1      4305 1.93114E+01 6.97401E-01 8.59022E-04-8.56903E-02-3.50467E-14-5.66552E-14
 -1      4306 2.00752E+01 3.60227E-01 1.52246E-03-8.06791E-02-1.39225E-14-2.19556E-13
 -1      4307 1.99959E+01 3.81524E-01 4.68418E-04-8.43016E-02-1.04887E-14-2.22742E-13
 -1      4308 2.03028E+01 4.43068E-01 1.45245E-03 1.98615E-02 3.95005E-14-8.14546E-14
 -1      4309 2.02681E+01 4.02103E-01-7.16947E-04 2.30390E-02 4.57839E-14-9.42925E-14
 -1      4310 2.02431E+01 3.93758E-01 4.67177E-04-1.91193E-02 4.03339E-14-1.06450E-13
 -1      4311 1.91703E+01 7.55967E-01-1.16867E-03-8.46772E-02-6.23587E-14-4.70867E-14
 -1      4312 1.90069E+01 8.20707E-01-1.24564E-03-7.60066E-02-2.92590E-14-4.94466E-14
 -1      4313 1.88403E+01 8.83944E-01-4.12244E-04-6.80625E-02-7.28185E-15-1.11824E-14
 -3
    1PSTEP                         3           1           1          
  100CL  101 1.000000000        4313                     0    1           1
 -4  TOSTRAIN    6    1
 -5  EXX         1    4    1    1
 -5  EYY         1    4    2    2
 -5  EZZ         1    4    3    3
 -5  EXY         1    4    1    2
 -5  EYZ         1    4    2    3
 -5  EZX         1    4    3    1
 -1         1 3.05565E-04-9.42260E-05-7.82465E-05-1.19951E-05 2.99691E-19-1.85479E-18
 -1         2 3.57734E-05-1.10086E-04 2.00394E-05-1.58060E-06 1.00929E-17-6.52983E-19
 -1         3 9.52248E-05-2.85840E-05-2.85358E-05-5.57168E-09-2.41785E-18-2.07233E-18
 -1         4 9.52248E-05-2.85838E-05-2.85370E-05 6.16652E-09 1.31686E-18 7.25434E-19
 -1         5 1.43071E-04-2.14367E-05-4.24500E-05 3.84760E-05-9.14796E-20 6.85451E-18
 -1         6 1.45135E-04 2.57029E-10-4.41074E-05-5.34442E-05-3.53213E-19 9.09036E-18
 -1         7 9.04805E-05-5.09899E-07-3.90132E-05-2.92212E-05-5.61159E-20 3.02947E-18
 -1         8 8.50639E-05 8.55471E-08-3.63114E-05-2.02511E-05-1.09214E-19 8.55500E-19
 -1         9 8.28067E-05 7.47170E-08-3.53455E-05-1.56174E-05-1.00625E-19-4.34354E-19
 -1        10 8.18011E-05 3.83833E-08-3.48928E-05-1.20522E-05-1.00446E-19-1.16272E-18
 -1        11 8.13100E-05 1.81297E-08-3.46765E-05-8.98729E-06-7.97733E-20-1.60924E-18
 -1        12 8.10585E-05 8.11190E-09-3.45700E-05-6.26064E-06-5.06235E-20-1.90316E-18
 -1        13 8.09276E-05 3.69010E-09-3.45174E-05-3.66948E-06-4.26974E-20-2.10518E-18
 -1        14 8.08735E-05 1.91562E-09-3.44962E-05-1.17846E-06-3.92692E-20-2.24212E-18
 -1        15 8.08758E-05 1.89499E-09-3.44970E-05 1.28217E-06-1.25707E-20-2.34864E-18
 -1        16 8.09348E-05 3.59995E-09-3.45199E-05 3.77858E-06 5.67942E-21-2.47428E-18
 -1        17 8.10711E-05 7.33543E-09-3.45741E-05 6.38224E-06-3.75540E-21-2.51753E-18
 -1        18 8.13283E-05 1.69555E-08-3.46818E-05 9.12854E-06 4.31457E-21-2.44632E-18
 -1        19 8.18272E-05 3.68698E-08-3.49013E-05 1.22322E-05 4.81154E-20-2.27537E-18
 -1        20 8.28265E-05 8.02056E-08-3.53577E-05 1.58488E-05 7.57697E-20-1.89516E-18
 -1        21 8.50278E-05 1.68451E-07-3.63493E-05 2.04626E-05 8.78532E-20-9.93983E-19
 -1        22 9.15136E-05-9.86353E-08-3.86846E-05 2.79705E-05 2.13876E-20 1.21892E-18
 -1        23 1.12737E-04-3.80468E-05-3.53262E-05-4.39732E-06-2.23087E-19 7.73521E-18
 -1        24 9.26018E-05-2.76367E-05-2.89372E-05 3.89845E-07-4.24244E-20 6.45276E-18
 -1        25 8.89334E-05-2.67969E-05-2.68734E-05 3.74097E-07-4.85985E-20 5.03891E-18
 -1        26 8.78529E-05-2.64404E-05-2.63432E-05 2.02176E-07-6.55326E-20 3.87887E-18
 -1        27 8.79166E-05-2.64303E-05-2.63468E-05 1.37658E-07-6.94162E-20 3.31152E-18
 -1        28 8.85116E-05-2.65855E-05-2.65353E-05 9.85489E-08 3.37372E-20 3.25723E-18
 -1        29 8.93653E-05-2.68284E-05-2.67982E-05 7.30733E-08-9.98672E-20 2.78785E-18
 -1        30 9.03431E-05-2.71147E-05-2.70951E-05 5.53590E-08 9.21999E-20 2.34474E-18
 -1        31 9.13813E-05-2.74224E-05-2.74090E-05 4.27720E-08 6.27435E-20 2.05510E-18
 -1        32 9.24587E-05-2.77438E-05-2.77348E-05 3.41393E-08-3.88589E-20 1.66921E-18
 -1        33 9.35832E-05-2.80804E-05-2.80750E-05 2.89770E-08 1.18830E-19 1.48560E-18
 -1        34 9.47823E-05-2.84400E-05-2.84380E-05 2.71643E-08-1.22360E-19 1.51224E-18
 -1        35 9.60963E-05-2.88343E-05-2.88356E-05 2.87779E-08 4.37685E-20 6.70480E-19
 -1        36 9.75711E-05-2.92766E-05-2.92815E-05 3.39632E-08-8.03207E-20 8.80868E-19
 -1        37 9.92490E-05-2.97794E-05-2.97876E-05 4.27600E-08-1.92766E-19 5.23476E-19
 -1        38 1.01156E-04-3.03498E-05-3.03608E-05 5.48026E-08-1.15764E-19-2.40346E-20
 -1        39 1.03282E-04-3.09845E-05-3.09966E-05 6.88042E-08-6.73480E-22-1.14602E-18
 -1        40 1.05556E-04-3.16620E-05-3.16711E-05 8.17424E-08 1.18072E-19-6.52507E-19
 -1        41 1.07810E-04-3.23322E-05-3.23311E-05 8.77669E-08 8.75777E-21-1.92161E-19
 -1        42 1.09747E-04-3.29069E-05-3.28850E-05 7.72014E-08-1.59322E-19-7.01850E-19
 -1        43 1.10923E-04-3.32545E-05-3.31995E-05 3.67932E-08-2.14360E-19-1.82194E-19
 -1        44 1.10775E-04-3.32092E-05-3.31140E-05-4.65605E-08-1.54300E-19-4.72188E-20
 -1        45 1.08759E-04-3.26090E-05-3.24827E-05-1.76087E-07-5.43019E-20-7.36654E-20
 -1        46 1.04604E-04-3.13728E-05-3.12518E-05-3.29864E-07 1.72098E-19 5.53920E-19
 -1        47 9.86594E-05-2.96017E-05-2.95469E-05-4.50168E-07-1.38353E-19 5.79238E-19
 -1        48 9.21228E-05-2.76505E-05-2.77181E-05-4.57651E-07 4.33084E-19 1.90297E-18
 -1        49 8.68596E-05-2.60766E-05-2.62719E-05-3.02141E-07 3.40567E-19 2.46419E-18
 -1        50 8.46796E-05-2.54241E-05-2.56782E-05-1.88943E-08-3.76418E-19 9.61248E-19
 -1        51 8.63989E-05-2.59392E-05-2.61449E-05 2.72099E-07 3.96317E-19 1.63587E-18
 -1        52 9.13674E-05-2.74253E-05-2.75082E-05 4.46553E-07-2.30938E-19 4.00938E-18
 -1        53 9.78552E-05-2.93622E-05-2.93192E-05 4.58057E-07-3.78392E-19 2.40224E-18
 -1        54 1.03961E-04-3.11816E-05-3.10646E-05 3.47733E-07 3.21442E-21 1.78210E-18
 -1        55 1.08383E-04-3.24976E-05-3.23694E-05 1.94110E-07-7.14667E-19 1.48337E-19
 -1        56 1.10677E-04-3.31804E-05-3.30805E-05 5.97274E-08 4.00391E-19-2.03535E-18
 -1        57 1.11059E-04-3.32956E-05-3.32359E-05-2.92775E-08 6.32892E-20-2.47238E-18
 -1        58 1.10062E-04-3.30014E-05-3.29761E-05-7.39992E-08 2.61611E-19-1.70134E-18
 -1        59 1.08260E-04-3.24674E-05-3.24646E-05-8.69892E-08-1.21555E-19 3.24725E-19
 -1        60 1.06122E-04-3.18322E-05-3.18410E-05-8.17281E-08 1.37024E-19 2.42883E-18
 -1        61 1.03969E-04-3.11914E-05-3.12041E-05-6.83009E-08 6.04130E-19 3.82071E-18
 -1        62 1.01991E-04-3.06015E-05-3.06139E-05-5.28837E-08-3.28177E-19 2.46648E-18
 -1        63 1.00280E-04-3.00901E-05-3.01003E-05-3.86611E-08-1.83327E-19 3.67695E-19
 -1        64 9.88614E-05-2.96653E-05-2.96729E-05-2.69255E-08-1.82014E-19-2.17342E-18
 -1        65 9.77242E-05-2.93241E-05-2.93293E-05-1.79126E-08-9.67586E-19-7.13320E-19
 -1        66 9.68391E-05-2.90582E-05-2.90616E-05-1.13138E-08 4.36748E-19 3.04283E-19
 -1        67 9.61720E-05-2.88574E-05-2.88598E-05-6.52404E-09 1.36444E-19 1.85470E-18
 -1        68 9.56917E-05-2.87124E-05-2.87150E-05-2.65969E-09 4.77304E-19 5.06298E-18
 -1        69 9.53761E-05-2.86166E-05-2.86206E-05 1.61183E-09-9.15308E-20 3.32187E-18
 -1        70 9.52134E-05-2.85662E-05-2.85711E-05 8.96212E-09 5.16189E-19 9.16080E-19
 -1        71 9.51932E-05-2.85582E-05-2.85552E-05 1.74754E-08 5.93465E-20 4.36348E-19
 -1        72 1.01955E-04-3.05190E-05-3.40803E-05-1.92328E-06 1.57548E-19 5.69397E-18
 -1        73 9.23543E-05-2.74516E-05-2.88444E-05-3.31693E-07 9.49438E-20 3.42576E-18
 -1        74 8.89153E-05-2.66446E-05-2.69148E-05-1.23981E-07 2.60239E-20 2.06304E-18
 -1        75 8.78748E-05-2.63886E-05-2.63847E-05-9.28421E-08-4.15948E-21 1.16451E-18
 -1        76 8.79398E-05-2.64065E-05-2.63701E-05-7.29326E-08 7.12844E-20 1.17572E-19
 -1        77 8.85304E-05-2.65749E-05-2.65481E-05-5.78515E-08 7.88014E-20-2.22922E-19
 -1        78 8.93775E-05-2.68233E-05-2.68051E-05-4.59486E-08-1.00928E-19 3.58411E-19
 -1        79 9.03483E-05-2.71115E-05-2.70983E-05-3.58756E-08 3.31543E-20 1.97316E-19
 -1        80 9.13815E-05-2.74201E-05-2.74100E-05-2.70389E-08-3.73829E-20-3.82986E-19
 -1        81 9.24603E-05-2.77432E-05-2.77361E-05-1.92967E-08 1.04507E-19-6.66607E-19
 -1        82 9.35997E-05-2.80849E-05-2.80813E-05-1.27429E-08 1.28165E-19-1.34761E-18
 -1        83 9.48396E-05-2.84569E-05-2.84576E-05-7.65421E-09-1.26312E-20-1.62321E-18
 -1        84 9.62410E-05-2.88775E-05-2.88834E-05-4.53483E-09 9.48159E-20-2.06582E-18
 -1        85 9.78834E-05-2.93701E-05-2.93827E-05-4.23140E-09-6.65591E-20-2.71691E-18
 -1        86 9.98613E-05-2.99628E-05-2.99837E-05-8.10539E-09-8.88020E-21-3.10230E-18
 -1        87 1.02277E-04-3.06857E-05-3.07169E-05-1.82395E-08-5.41588E-20-3.76338E-18
 -1        88 1.05229E-04-3.15674E-05-3.16100E-05-3.75777E-08-3.70366E-20-3.28100E-18
 -1        89 1.08779E-04-3.26260E-05-3.26785E-05-6.96944E-08 4.18460E-19-3.17577E-18
 -1        90 1.12901E-04-3.38539E-05-3.39076E-05-1.17453E-07-3.05817E-19-3.19956E-18
 -1        91 1.17389E-04-3.51912E-05-3.52236E-05-1.79085E-07-1.63848E-20-2.50143E-18
 -1        92 1.21722E-04-3.64876E-05-3.64548E-05-2.39799E-07-2.02077E-19-1.07364E-18
 -1        93 1.24927E-04-3.74611E-05-3.72993E-05-2.59814E-07 3.92133E-20-1.40481E-18
 -1        94 1.25548E-04-3.76862E-05-3.73403E-05-1.67187E-07 3.12072E-19-4.36741E-18
 -1        95 1.21981E-04-3.66775E-05-3.61773E-05 1.17640E-07-1.27421E-19-5.17984E-18
 -1        96 1.13439E-04-3.41572E-05-3.37138E-05 5.82205E-07 2.32620E-20-2.52675E-18
 -1        97 1.01402E-04-3.05059E-05-3.04691E-05 1.00112E-06-1.45982E-19-1.34504E-18
 -1        98 9.02574E-05-2.70305E-05-2.76128E-05 1.00763E-06-1.73519E-19-9.64188E-19
 -1        99 8.54388E-05-2.54533E-05-2.64213E-05 4.44984E-07-1.48158E-19-1.80494E-18
 -1       100 8.96759E-05-2.67172E-05-2.74892E-05-3.77991E-07 2.15889E-19-1.63544E-18
 -1       101 1.00616E-04-3.00995E-05-3.03055E-05-9.01011E-07-2.98184E-19-1.98624E-18
 -1       102 1.12806E-04-3.38642E-05-3.35720E-05-9.14115E-07-1.29283E-19-6.45280E-19
 -1       103 1.21689E-04-3.65788E-05-3.60969E-05-6.08574E-07 5.79357E-20 1.47074E-18
 -1       104 1.25604E-04-3.77492E-05-3.73334E-05-2.57627E-07-3.40372E-19 3.70306E-18
 -1       105 1.25231E-04-3.76109E-05-3.73605E-05-8.63963E-09 7.02440E-19 4.22617E-19
 -1       106 1.22171E-04-3.66687E-05-3.65668E-05 1.17650E-07-4.83528E-19-5.65983E-19
 -1       107 1.17917E-04-3.53785E-05-3.53697E-05 1.57876E-07-1.55835E-19-3.12956E-18
 -1       108 1.13482E-04-3.40423E-05-3.40777E-05 1.52673E-07 3.76909E-19-5.49748E-18
 -1       109 1.09415E-04-3.28214E-05-3.28705E-05 1.29091E-07 4.10730E-19-6.06319E-18
 -1       110 1.05946E-04-3.17818E-05-3.18294E-05 1.01596E-07-1.76730E-19-4.00283E-18
 -1       111 1.03119E-04-3.09349E-05-3.09753E-05 7.65609E-08 9.09391E-19-2.09355E-18
 -1       112 1.00885E-04-3.02657E-05-3.02976E-05 5.60756E-08-9.75109E-19-2.05056E-18
 -1       113 9.91594E-05-2.97486E-05-2.97729E-05 4.02850E-08 5.60003E-19 2.00826E-18
 -1       114 9.78510E-05-2.93565E-05-2.93745E-05 2.86036E-08-8.22513E-19 1.05138E-18
 -1       115 9.68767E-05-2.90644E-05-2.90776E-05 2.02475E-08 2.55327E-19 1.78708E-18
 -1       116 9.61678E-05-2.88517E-05-2.88619E-05 1.43763E-08 4.25557E-19 7.24611E-19
 -1       117 9.56724E-05-2.87028E-05-2.87117E-05 1.00535E-08 5.56217E-19-1.13286E-18
 -1       118 9.53562E-05-2.86073E-05-2.86166E-05 5.98671E-09 3.13983E-19-2.81575E-18
 -1       119 9.52014E-05-2.85597E-05-2.85688E-05-1.37783E-09 5.29990E-20-7.10045E-18
 -1       120 9.51908E-05-2.85546E-05-2.85547E-05-1.55792E-08 1.03790E-18-6.57806E-18
 -1       121 9.52493E-05-2.86130E-05-2.85564E-05-2.09808E-08-5.69674E-18-1.06819E-19
 -1       122 9.52434E-05-2.85934E-05-2.85734E-05-5.00540E-09-6.75124E-18-1.36161E-18
 -1       123 9.51944E-05-2.84296E-05-2.86217E-05 6.38380E-09-1.03524E-17 1.55233E-19
 -1       124 9.51137E-05-2.81594E-05-2.86986E-05 1.24373E-08-7.71874E-18 1.30426E-18
 -1       125 9.50193E-05-2.78423E-05-2.87895E-05 1.39528E-08-1.36248E-18 6.89395E-20
 -1       126 9.49312E-05-2.75453E-05-2.88752E-05 1.23226E-08-4.31809E-18 1.10217E-18
 -1       127 9.48621E-05-2.73125E-05-2.89427E-05 8.25791E-09 4.70730E-19-1.00680E-19
 -1       128 9.48252E-05-2.71882E-05-2.89789E-05 2.82327E-09 2.28855E-18 2.12386E-19
 -1       129 9.48263E-05-2.71921E-05-2.89778E-05-2.98746E-09 2.96559E-18 1.84344E-18
 -1       130 9.48650E-05-2.73225E-05-2.89400E-05-8.21447E-09 5.66445E-18 2.87590E-19
 -1       131 9.49346E-05-2.75570E-05-2.88720E-05-1.20744E-08-1.24009E-18-2.79712E-19
 -1       132 9.50218E-05-2.78509E-05-2.87870E-05-1.34167E-08-3.67540E-18 1.78080E-18
 -1       133 9.51143E-05-2.81617E-05-2.86978E-05-1.18340E-08 1.53664E-18 3.79810E-19
 -1       134 9.51929E-05-2.84264E-05-2.86225E-05-7.20621E-09 3.24312E-18 1.42640E-18
 -1       135 9.52418E-05-2.85858E-05-2.85747E-05 6.00971E-09 1.06913E-18-5.66218E-19
 -1       136 9.52432E-05-2.86072E-05-2.85563E-05 3.08993E-08-7.32315E-19 7.39657E-19
 -1       137 2.50707E-05-8.60665E-05 1.52798E-05-2.34961E-05 5.67914E-18 1.18627E-18
 -1       138 7.30467E-06-3.34674E-05 3.02468E-06-1.89774E-05 3.06245E-18 1.72795E-18
 -1       139 1.16098E-05 1.39315E-05-1.49825E-05 2.26126E-05 4.32410E-19 6.13675E-19
 -1       140 5.97076E-05 2.61659E-05-3.57038E-05 7.82143E-05 6.54756E-19 1.02025E-18
 -1       141 1.46718E-04-4.20520E-06-5.48323E-05 1.10930E-04 2.79733E-19 1.00882E-18
 -1       142 2.49108E-04-5.76519E-05-7.12951E-05 9.65396E-05 1.40607E-19 1.26547E-18
 -1       143 3.10559E-04-9.49267E-05-7.92524E-05 2.73589E-05 3.62371E-19-1.23032E-19
 -1       144 2.94086E-04-8.42563E-05-7.73238E-05-5.72962E-05 6.10956E-19-1.18669E-18
 -1       145 2.13192E-04-3.78597E-05-6.58479E-05-1.07021E-04 1.64250E-18-4.02807E-18
 -1       146 1.12456E-04 1.07372E-05-4.83730E-05-1.04091E-04 3.89212E-18-6.20240E-18
 -1       147 3.68657E-05 2.71619E-05-2.82011E-05-5.89420E-05 5.91864E-18-5.70350E-18
 -1       148 5.78084E-06 1.06554E-06-8.46520E-06-5.31333E-06 6.51453E-18-4.06428E-18
 -1       149 1.25214E-05-5.29983E-05 8.00412E-06 2.57336E-05 7.24510E-18-3.39692E-18
 -1       150 3.17660E-05-1.01408E-04 1.82184E-05 1.76772E-05 4.55238E-18-6.59994E-19
 -1       151 3.42862E-05-1.05986E-04 1.90593E-05-1.06027E-05-1.64113E-19-6.13225E-19
 -1       152 1.75258E-05-6.61103E-05 1.11228E-05-2.54445E-05-1.27987E-18 2.54110E-19
 -1       153 5.43590E-06-1.00723E-05-4.13384E-06-3.00900E-06-3.33223E-18-2.78843E-18
 -1       154 2.54450E-05 2.56898E-05-2.34225E-05 4.70368E-05-4.07804E-18-3.89466E-18
 -1       155 9.02320E-05 1.97359E-05-4.37266E-05 9.71371E-05-4.58584E-18-5.19655E-18
 -1       156 1.85849E-04-2.38403E-05-6.14774E-05 1.11052E-04-1.16848E-18-2.88796E-18
 -1       157 2.79238E-04-7.72224E-05-7.51290E-05 6.73594E-05-1.84117E-19-2.16057E-18
 -1       158 2.59241E-04-6.55372E-05-7.22201E-05-8.58244E-05-1.50984E-19 1.36076E-18
 -1       159 1.64105E-04-1.19361E-05-5.80911E-05-1.13984E-04-1.80990E-18 2.89897E-18
 -1       160 7.14626E-05 2.54182E-05-3.91631E-05-8.79043E-05-3.09929E-18 2.87102E-18
 -1       161 1.61030E-05 2.04896E-05-1.84404E-05-3.31820E-05-4.16020E-18 3.54653E-18
 -1       162 6.35849E-06-2.73225E-05 1.51926E-06 1.51305E-05-4.92973E-18 1.68560E-18
 -1       163 2.49300E-05-8.45227E-05 1.49158E-05 2.40431E-05-1.95559E-18 1.85373E-18
 -1       164 9.47709E-05-1.23344E-05-3.55323E-05-2.23124E-05-1.12208E-18 1.75018E-18
 -1       165 8.92174E-05-8.45538E-06-3.47736E-05-1.73536E-05-1.20293E-18 3.25817E-19
 -1       166 8.65624E-05-6.50601E-06-3.44212E-05-1.35431E-05-1.08772E-18-5.64481E-19
 -1       167 8.52328E-05-5.51021E-06-3.42505E-05-1.03315E-05-9.39575E-19-1.07553E-18
 -1       168 8.45076E-05-4.93449E-06-3.41713E-05-7.51010E-06-7.29155E-19-1.41374E-18
 -1       169 8.40888E-05-4.58134E-06-3.41358E-05-4.87551E-06-6.49941E-19-1.63613E-18
 -1       170 8.38745E-05-4.39180E-06-3.41217E-05-2.38046E-06-4.22585E-19-1.75908E-18
 -1       171 8.38116E-05-4.33437E-06-3.41183E-05 5.04013E-08-2.30214E-19-1.87661E-18
 -1       172 8.38853E-05-4.40067E-06-3.41227E-05 2.48350E-06-8.40045E-20-2.00780E-18
 -1       173 8.41120E-05-4.60124E-06-3.41377E-05 4.98565E-06 4.62162E-20-2.11986E-18
 -1       174 8.45364E-05-4.96158E-06-3.41728E-05 7.58651E-06 2.40255E-19-2.06468E-18
 -1       175 8.52951E-05-5.57120E-06-3.42520E-05 1.04721E-05 5.14672E-19-1.94041E-18
 -1       176 8.66612E-05-6.60963E-06-3.44236E-05 1.37437E-05 7.68418E-19-1.76711E-18
 -1       177 8.93594E-05-8.59920E-06-3.47781E-05 1.75862E-05 1.03263E-18-1.11500E-18
 -1       178 9.56784E-05-1.35986E-05-3.53881E-05 2.18592E-05 1.18992E-18 1.29808E-19
 -1       179 1.05435E-04-2.60552E-05-3.52083E-05 1.86370E-05 1.06450E-18 1.83171E-18
 -1       180 1.03250E-04-2.72605E-05-3.25647E-05-1.21036E-05-9.25383E-19 3.18085E-18
 -1       181 9.69820E-05-2.82513E-05-2.94911E-05-4.70967E-06-8.71835E-19 2.51359E-18
 -1       182 9.34078E-05-2.76039E-05-2.81535E-05-1.74000E-06-7.10045E-19 2.05759E-18
 -1       183 9.19115E-05-2.73826E-05-2.76195E-05-3.75563E-07-4.57538E-19 1.47895E-18
 -1       184 9.13931E-05-2.73216E-05-2.74405E-05 3.15456E-07-1.42802E-19 1.26702E-18
 -1       185 9.14376E-05-2.73823E-05-2.74429E-05 6.82289E-07-2.72456E-19 1.11788E-18
 -1       186 9.18085E-05-2.75182E-05-2.75480E-05 8.79361E-07-2.67764E-19 1.20929E-18
 -1       187 9.23750E-05-2.76991E-05-2.77152E-05 9.89989E-07-3.20915E-19 8.98648E-19
 -1       188 9.30682E-05-2.79088E-05-2.79233E-05 1.06496E-06-3.05700E-19 5.63470E-19
 -1       189 9.38576E-05-2.81408E-05-2.81625E-05 1.13770E-06-1.27666E-19 4.98536E-19
 -1       190 9.47377E-05-2.83958E-05-2.84304E-05 1.23082E-06-1.19368E-19-1.85165E-19
 -1       191 9.57197E-05-2.86786E-05-2.87299E-05 1.35863E-06-1.59909E-19-1.70636E-19
 -1       192 9.68237E-05-2.89976E-05-2.90663E-05 1.52742E-06-9.40748E-20-9.30179E-20
 -1       193 9.80720E-05-2.93621E-05-2.94452E-05 1.73385E-06-2.46637E-19-6.64833E-20
 -1       194 9.94804E-05-2.97811E-05-2.98697E-05 1.96142E-06-3.87890E-19 4.33978E-19
 -1       195 1.01047E-04-3.02599E-05-3.03372E-05 2.17524E-06-4.09593E-19 3.84766E-19
 -1       196 1.02740E-04-3.07968E-05-3.08345E-05 2.31538E-06 4.80563E-20 1.26008E-19
 -1       197 1.04479E-04-3.13772E-05-3.13333E-05 2.29114E-06 2.68488E-19-2.06770E-20
 -1       198 1.06115E-04-3.19656E-05-3.17856E-05 1.98117E-06-5.71502E-19-4.92050E-19
 -1       199 1.07423E-04-3.24952E-05-3.21221E-05 1.24962E-06 2.35258E-19-7.77263E-19
 -1       200 1.08101E-04-3.28580E-05-3.22588E-05-7.23630E-09 1.81786E-19-6.08349E-19
 -1       201 1.07814E-04-3.29030E-05-3.21155E-05-1.77220E-06-2.54806E-19 3.43778E-20
 -1       202 1.06297E-04-3.24636E-05-3.16488E-05-3.78929E-06 3.51376E-19 2.80353E-19
 -1       203 1.03523E-04-3.14365E-05-3.08936E-05-5.48593E-06-4.57183E-20 7.55494E-19
 -1       204 9.99042E-05-2.99158E-05-2.99884E-05-6.07024E-06 2.87340E-19 8.88342E-19
 -1       205 9.63593E-05-2.82986E-05-2.91586E-05-4.90744E-06-5.13348E-21 9.41315E-19
 -1       206 9.40718E-05-2.72026E-05-2.86469E-05-2.03704E-06-6.38233E-19 8.38745E-20
 -1       207 9.39306E-05-2.71348E-05-2.86148E-05 1.60762E-06 3.79937E-19 3.07683E-19
 -1       208 9.59908E-05-2.81250E-05-2.90739E-05 4.63513E-06 1.35651E-18 5.54912E-19
 -1       209 9.94466E-05-2.97111E-05-2.98785E-05 6.03056E-06-9.34633E-19 9.59655E-19
 -1       210 1.03122E-04-3.12732E-05-3.07908E-05 5.64270E-06-6.78885E-19 2.07603E-18
 -1       211 1.06045E-04-3.23754E-05-3.15784E-05 4.04503E-06-1.55314E-18 1.19525E-18
 -1       212 1.07740E-04-3.28884E-05-3.20896E-05 2.03823E-06-1.04571E-18 7.49923E-19
 -1       213 1.08192E-04-3.29007E-05-3.22794E-05 2.34520E-07 2.01008E-19 1.13364E-18
 -1       214 1.07652E-04-3.25780E-05-3.21848E-05-1.07255E-06 5.91810E-19 1.55321E-18
 -1       215 1.06456E-04-3.20764E-05-3.18843E-05-1.84250E-06 1.20742E-18 1.26729E-18
 -1       216 1.04918E-04-3.15106E-05-3.14642E-05-2.16913E-06 1.80930E-19 3.49062E-20
 -1       217 1.03277E-04-3.09532E-05-3.09974E-05-2.18658E-06 8.00241E-19 9.07690E-19
 -1       218 1.01697E-04-3.04445E-05-3.05360E-05-2.01819E-06-5.10743E-21 4.01869E-19
 -1       219 1.00270E-04-3.00031E-05-3.01124E-05-1.75762E-06-1.49029E-18 6.54772E-19
 -1       220 9.90401E-05-2.96336E-05-2.97430E-05-1.46758E-06-1.37297E-18-6.12191E-19
 -1       221 9.80172E-05-2.93332E-05-2.94332E-05-1.18537E-06 1.26392E-18 2.47433E-19
 -1       222 9.71918E-05-2.90947E-05-2.91818E-05-9.29806E-07 2.93070E-20 1.43520E-18
 -1       223 9.65443E-05-2.89096E-05-2.89838E-05-7.07120E-07 1.16067E-18 5.40186E-19
 -1       224 9.60524E-05-2.87694E-05-2.88334E-05-5.15350E-07 1.55770E-18 7.47152E-19
 -1       225 9.56943E-05-2.86665E-05-2.87245E-05-3.47510E-07-1.29934E-19-4.65911E-19
 -1       226 9.54513E-05-2.85956E-05-2.86511E-05-1.95668E-07-5.10239E-19-1.97294E-19
 -1       227 9.53013E-05-2.85539E-05-2.86050E-05-5.89087E-08-3.31842E-19 4.57773E-19
 -1       228 9.93488E-05-2.85096E-05-3.05409E-05 7.19481E-06 1.01254E-18 1.47055E-18
 -1       229 9.42861E-05-2.77509E-05-2.84855E-05 2.72647E-06 6.74761E-19 8.68705E-19
 -1       230 9.19947E-05-2.73682E-05-2.76518E-05 9.04054E-07 5.24959E-19 2.47162E-19
 -1       231 9.10892E-05-2.72167E-05-2.73466E-05 2.55193E-08 5.30714E-19-1.16712E-19
 -1       232 9.09441E-05-2.72271E-05-2.72933E-05-4.28920E-07 2.97247E-20 5.60076E-20
 -1       233 9.12290E-05-2.73403E-05-2.73736E-05-6.69323E-07-2.32767E-19 1.10606E-19
 -1       234 9.17632E-05-2.75143E-05-2.75309E-05-7.99045E-07 2.22980E-19 1.00141E-19
 -1       235 9.24508E-05-2.77255E-05-2.77365E-05-8.77108E-07 2.65027E-19-1.44105E-19
 -1       236 9.32476E-05-2.79630E-05-2.79769E-05-9.41966E-07 2.40993E-19-5.90117E-19
 -1       237 9.41440E-05-2.82253E-05-2.82490E-05-1.02141E-06 2.66854E-19-4.12761E-19
 -1       238 9.51558E-05-2.85179E-05-2.85573E-05-1.13722E-06 4.37629E-19-3.97924E-19
 -1       239 9.63181E-05-2.88520E-05-2.89122E-05-1.30742E-06 3.41457E-19-1.24908E-18
 -1       240 9.76810E-05-2.92430E-05-2.93287E-05-1.54688E-06 3.23747E-19-1.55075E-18
 -1       241 9.93053E-05-2.97102E-05-2.98247E-05-1.86625E-06 2.86986E-19-1.97631E-18
 -1       242 1.01255E-04-3.02750E-05-3.04189E-05-2.26836E-06 2.71647E-19-1.71791E-18
 -1       243 1.03588E-04-3.09590E-05-3.11268E-05-2.74047E-06-7.10035E-20-2.21200E-18
 -1       244 1.06334E-04-3.17802E-05-3.19537E-05-3.24033E-06 1.89430E-19-2.19541E-18
 -1       245 1.09464E-04-3.27454E-05-3.28837E-05-3.67358E-06 2.97475E-20-2.53667E-18
 -1       246 1.12837E-04-3.38382E-05-3.38632E-05-3.86349E-06-8.62815E-19-2.15097E-18
 -1       247 1.16139E-04-3.49953E-05-3.47816E-05-3.52481E-06-1.14121E-18-4.90065E-19
 -1       248 1.18814E-04-3.60700E-05-3.54604E-05-2.28089E-06 5.22762E-19-3.05524E-19
 -1       249 1.20057E-04-3.67850E-05-3.56726E-05 1.96395E-07 1.23961E-18-1.23248E-18
 -1       250 1.18967E-04-3.67094E-05-3.52231E-05 3.84861E-06 1.52334E-19-1.60313E-18
 -1       251 1.14977E-04-3.53594E-05-3.40959E-05 7.68561E-06-1.10513E-18-2.04844E-18
 -1       252 1.08662E-04-3.26690E-05-3.25826E-05 9.61035E-06-4.19420E-19-9.70329E-19
 -1       253 1.02313E-04-2.95877E-05-3.12465E-05 7.49415E-06-3.88808E-19-1.18410E-18
 -1       254 9.91563E-05-2.78737E-05-3.06540E-05 1.41812E-06 1.24858E-19-6.04368E-19
 -1       255 1.01157E-04-2.88120E-05-3.10672E-05-5.50777E-06-4.77157E-19-8.30443E-19
 -1       256 1.07109E-04-3.17175E-05-3.23124E-05-9.33926E-06-4.42568E-19-3.38959E-19
 -1       257 1.13778E-04-3.47244E-05-3.38459E-05-8.78919E-06-2.78561E-19-2.30816E-20
 -1       258 1.18477E-04-3.65351E-05-3.50840E-05-5.42763E-06-1.14826E-18 2.81407E-19
 -1       259 1.20251E-04-3.69585E-05-3.56823E-05-1.54448E-06 1.86317E-19-5.67233E-20
 -1       260 1.19484E-04-3.64096E-05-3.56067E-05 1.42934E-06 1.89994E-18-3.31873E-19
 -1       261 1.17079E-04-3.53829E-05-3.50236E-05 3.11965E-06 5.36096E-20-1.02604E-18
 -1       262 1.13897E-04-3.42197E-05-3.41582E-05 3.75440E-06 1.24198E-18-2.84800E-18
 -1       263 1.10557E-04-3.31028E-05-3.32016E-05 3.71716E-06 1.14963E-18-4.20534E-18
 -1       264 1.07426E-04-3.21142E-05-3.22795E-05 3.33213E-06-1.34409E-18-3.47298E-18
 -1       265 1.04683E-04-3.12804E-05-3.14584E-05 2.81455E-06-6.88019E-19-1.53135E-18
 -1       266 1.02386E-04-3.05992E-05-3.07639E-05 2.28641E-06-1.07462E-18-3.89614E-19
 -1       267 1.00520E-04-3.00555E-05-3.01967E-05 1.80683E-06-1.33962E-18 2.52086E-18
 -1       268 9.90418E-05-2.96296E-05-2.97454E-05 1.39793E-06-1.31554E-19 1.56589E-18
 -1       269 9.78931E-05-2.93013E-05-2.93939E-05 1.06203E-06-1.79034E-18 2.06575E-18
 -1       270 9.70171E-05-2.90522E-05-2.91255E-05 7.91734E-07 1.66381E-18 1.97898E-18
 -1       271 9.63631E-05-2.88666E-05-2.89251E-05 5.75209E-07 1.51614E-18-1.33762E-18
 -1       272 9.58898E-05-2.87317E-05-2.87806E-05 3.98897E-07 1.18020E-18-1.11765E-18
 -1       273 9.55651E-05-2.86380E-05-2.86822E-05 2.49608E-07 1.28245E-18-1.57975E-18
 -1       274 9.53640E-05-2.85787E-05-2.86214E-05 1.16360E-07 9.01556E-19-1.30109E-18
 -1       275 9.52640E-05-2.85602E-05-2.85852E-05 5.83042E-09-5.66838E-19-1.73787E-18
 -1       276 9.52558E-05-2.85069E-05-2.86057E-05 6.51271E-08-1.76585E-18-4.50767E-19
 -1       277 9.52132E-05-2.83693E-05-2.86471E-05 1.90000E-07-2.05202E-18-3.27479E-18
 -1       278 9.51369E-05-2.81653E-05-2.87020E-05 2.88142E-07-1.10485E-18 2.89666E-18
 -1       279 9.50469E-05-2.79246E-05-2.87668E-05 3.29447E-07-1.59965E-18 3.63795E-18
 -1       280 9.49595E-05-2.76881E-05-2.88310E-05 3.10622E-07-1.39993E-18-1.22479E-18
 -1       281 9.48853E-05-2.74850E-05-2.88866E-05 2.38043E-07-1.32835E-18 1.32594E-18
 -1       282 9.48370E-05-2.73517E-05-2.89233E-05 1.26431E-07-1.01030E-19 1.45457E-18
 -1       283 9.48215E-05-2.73081E-05-2.89354E-05-4.66898E-09 9.68805E-19 5.43808E-19
 -1       284 9.48405E-05-2.73602E-05-2.89211E-05-1.33993E-07 1.58829E-18 1.15456E-18
 -1       285 9.48911E-05-2.74995E-05-2.88829E-05-2.41070E-07 1.04949E-18-4.04449E-18
 -1       286 9.49642E-05-2.77003E-05-2.88278E-05-3.07621E-07 1.97047E-18-5.86078E-19
 -1       287 9.50517E-05-2.79386E-05-2.87628E-05-3.23404E-07 2.19229E-18 3.16007E-18
 -1       288 9.51391E-05-2.81745E-05-2.86990E-05-2.81159E-07 1.63978E-18 1.38824E-18
 -1       289 9.52117E-05-2.83700E-05-2.86456E-05-1.87254E-07 6.04897E-19-1.52241E-18
 -1       290 9.52703E-05-2.84714E-05-2.86273E-05-1.33919E-07-2.52781E-19-1.60593E-18
 -1       291 1.13777E-05-3.97610E-05 9.95030E-06 9.30237E-06 1.49962E-18-2.05670E-18
 -1       292 2.65099E-05-4.32180E-05 4.27387E-06 2.01222E-05 9.87852E-19-7.48565E-19
 -1       293 5.51769E-05-3.79181E-05-9.15871E-06 3.46023E-05 1.03380E-18-1.51518E-18
 -1       294 9.11084E-05-3.19179E-05-2.58710E-05 4.34620E-05-1.02978E-18-8.45339E-19
 -1       295 1.35180E-04-3.16877E-05-4.32777E-05 4.61557E-05-7.14578E-19-7.19343E-19
 -1       296 1.74293E-04-3.46903E-05-5.79077E-05 2.89932E-05-2.98050E-19-3.94929E-19
 -1       297 2.07353E-04-3.67897E-05-6.95326E-05 1.90940E-05 8.49151E-20-7.35860E-20
 -1       298 2.06760E-04-3.30715E-05-7.12094E-05-3.18192E-06 6.14628E-19 6.11531E-19
 -1       299 1.87501E-04-3.17469E-05-6.45675E-05-1.72775E-05 1.67045E-18 3.46013E-19
 -1       300 1.63128E-04-3.43610E-05-5.33639E-05-3.87665E-05 1.65087E-18-6.21722E-19
 -1       301 1.19725E-04-3.15477E-05-3.72423E-05-4.62389E-05 1.74722E-18-1.35864E-18
 -1       302 7.69637E-05-3.31497E-05-1.97791E-05-4.07127E-05 2.34925E-18-2.07714E-18
 -1       303 4.24332E-05-3.89208E-05-3.85463E-06-2.87528E-05 2.18386E-18-1.53646E-18
 -1       304 1.97921E-05-4.61781E-05 8.01667E-06-1.43975E-05 1.56489E-18-1.45266E-18
 -1       305 9.95345E-06-4.50762E-05 1.20276E-05-7.69007E-07 8.05555E-19-2.02282E-18
 -1       306 1.65934E-05-4.65275E-05 9.62536E-06 1.33659E-05 4.63327E-19-4.74868E-19
 -1       307 3.74704E-05-3.94833E-05-1.14419E-06 3.03650E-05-1.73006E-19-1.97011E-18
 -1       308 6.85050E-05-3.40575E-05-1.58181E-05 4.02588E-05-9.35971E-19-1.23434E-18
 -1       309 1.08159E-04-3.08051E-05-3.29191E-05 4.59076E-05-1.09775E-18-1.99159E-18
 -1       310 1.49226E-04-2.94393E-05-4.96210E-05 4.63877E-05-2.13892E-18-5.27490E-19
 -1       311 1.80023E-04-3.07229E-05-6.20124E-05 2.19210E-05-6.99226E-19 2.48392E-19
 -1       312 2.05643E-04-3.41697E-05-7.02538E-05 8.05294E-06 3.90694E-20-3.64224E-19
 -1       313 2.02931E-04-3.40144E-05-6.91219E-05-1.50490E-05-9.44759E-19 1.96512E-19
 -1       314 1.80784E-04-3.24905E-05-6.07752E-05-3.73412E-05-1.80156E-18 1.22015E-18
 -1       315 1.40017E-04-2.87943E-05-4.62155E-05-4.76563E-05-1.78279E-18 2.03076E-18
 -1       316 9.57675E-05-2.87739E-05-2.88061E-05-4.60753E-05-2.40621E-18 1.67543E-18
 -1       317 5.98237E-05-3.65647E-05-1.12994E-05-3.83261E-05-1.11406E-18 6.44857E-19
 -1       318 2.68502E-05-4.20959E-05 3.71573E-06-2.21732E-05 2.99638E-19 1.22420E-18
 -1       319 1.28737E-05-4.85117E-05 1.18300E-05-7.97973E-06 1.80863E-18 5.23128E-18
 -1       320 9.16420E-05-1.43859E-05-3.31731E-05-1.30067E-05-1.32378E-18 9.64360E-20
 -1       321 9.56483E-05-1.90946E-05-3.28716E-05-1.45860E-05-1.32410E-18 1.07640E-18
 -1       322 8.80498E-05-1.03492E-05-3.33536E-05-8.09259E-06-1.01089E-18-8.68775E-19
 -1       323 8.72390E-05-9.41116E-06-3.34027E-05-5.66851E-06-8.38104E-19-1.16690E-18
 -1       324 8.67813E-05-8.86997E-06-3.34352E-05-3.33524E-06-6.22438E-19-1.20593E-18
 -1       325 8.65765E-05-8.62366E-06-3.34516E-05-1.06222E-06-3.84401E-19-1.33454E-18
 -1       326 8.65857E-05-8.63361E-06-3.34513E-05 1.19088E-06-1.77044E-19-1.43121E-18
 -1       327 8.68103E-05-8.90176E-06-3.34343E-05 3.46636E-06-4.33845E-20-1.66526E-18
 -1       328 8.72814E-05-9.45809E-06-3.34014E-05 5.76520E-06 2.04391E-19-1.69338E-18
 -1       329 8.81138E-05-1.04241E-05-3.33508E-05 8.19531E-06 4.79103E-19-1.42058E-18
 -1       330 8.95106E-05-1.20194E-05-3.32770E-05 1.07031E-05 8.10530E-19-1.36228E-18
 -1       331 9.18962E-05-1.47136E-05-3.31592E-05 1.31139E-05 1.03938E-18-1.04865E-18
 -1       332 9.57430E-05-1.94409E-05-3.28084E-05 1.43329E-05 1.27394E-18-2.83862E-19
 -1       333 9.86866E-05-2.44153E-05-3.19184E-05 1.18671E-05 1.24015E-18 5.02972E-19
 -1       334 9.63049E-05-2.67831E-05-2.97654E-05 5.70508E-06 9.40723E-19 1.98477E-19
 -1       335 9.63830E-05-2.60023E-05-3.01193E-05-6.29352E-06-9.89348E-19 1.09119E-18
 -1       336 9.48959E-05-2.70034E-05-2.90712E-05-2.75233E-06-8.75579E-19 9.14082E-19
 -1       337 9.39622E-05-2.74015E-05-2.85111E-05-7.99830E-07-5.62696E-19 7.57402E-19
 -1       338 9.35045E-05-2.76169E-05-2.82304E-05 3.24208E-07-2.14887E-19 5.48160E-19
 -1       339 9.34019E-05-2.77782E-05-2.81210E-05 9.80024E-07-3.16916E-19 4.75598E-19
 -1       340 9.35444E-05-2.79220E-05-2.81221E-05 1.37228E-06-4.04435E-19 3.46722E-19
 -1       341 9.38564E-05-2.80599E-05-2.81973E-05 1.62581E-06-3.09994E-19 3.81621E-19
 -1       342 9.42920E-05-2.81973E-05-2.83253E-05 1.82119E-06-4.30506E-19 4.16646E-19
 -1       343 9.48279E-05-2.83393E-05-2.84940E-05 2.01257E-06-7.14872E-19-3.71583E-19
 -1       344 9.54573E-05-2.84930E-05-2.86976E-05 2.23583E-06-2.33499E-19-7.47458E-19
 -1       345 9.61848E-05-2.86687E-05-2.89338E-05 2.51162E-06-2.43925E-20-7.24419E-19
 -1       346 9.70223E-05-2.88804E-05-2.92018E-05 2.84506E-06 3.42497E-19 9.99399E-20
 -1       347 9.79846E-05-2.91464E-05-2.95002E-05 3.22249E-06-1.88680E-19 5.71728E-19
 -1       348 9.90853E-05-2.94901E-05-2.98251E-05 3.60554E-06 1.01970E-20 4.90080E-19
 -1       349 1.00331E-04-2.99396E-05-3.01676E-05 3.92301E-06-2.78127E-19 7.18861E-19
 -1       350 1.01717E-04-3.05254E-05-3.05124E-05 4.06212E-06 7.40908E-21 6.10031E-19
 -1       351 1.03214E-04-3.12717E-05-3.08368E-05 3.86371E-06-3.76955E-19-2.33426E-19
 -1       352 1.04753E-04-3.21760E-05-3.11127E-05 3.13067E-06-2.57688E-19-5.22844E-19
 -1       353 1.06204E-04-3.31709E-05-3.13119E-05 1.66612E-06 1.26066E-19-8.47836E-19
 -1       354 1.07341E-04-3.40698E-05-3.14165E-05-6.36010E-07 2.37577E-19-1.11040E-18
 -1       355 1.07831E-04-3.45254E-05-3.14309E-05-3.63478E-06 8.29629E-19-4.16767E-19
 -1       356 1.07296E-04-3.40755E-05-3.13883E-05-6.75645E-06 4.60716E-19 3.57277E-19
 -1       357 1.05518E-04-3.23811E-05-3.13431E-05-8.91573E-06 7.55030E-20 4.51234E-19
 -1       358 1.02802E-04-2.96594E-05-3.13365E-05-8.80719E-06 1.27902E-19-3.10613E-19
 -1       359 1.00177E-04-2.69568E-05-3.13637E-05-5.71405E-06-3.72913E-19-5.88702E-19
 -1       360 9.89860E-05-2.57159E-05-3.13826E-05-3.54604E-07-2.74161E-20 7.77846E-19
 -1       361 9.99364E-05-2.67096E-05-3.13654E-05 5.14615E-06 9.01150E-19 6.32689E-19
 -1       362 1.02447E-04-2.92932E-05-3.13378E-05 8.59309E-06 5.31827E-19-2.33181E-19
 -1       363 1.05227E-04-3.20809E-05-3.13446E-05 9.06424E-06-1.97101E-19-1.06803E-18
 -1       364 1.07167E-04-3.39367E-05-3.13934E-05 7.12593E-06 1.63582E-19 6.28608E-20
 -1       365 1.07863E-04-3.45297E-05-3.14432E-05 4.06676E-06-1.14575E-18 1.88330E-18
 -1       366 1.07495E-04-3.41605E-05-3.14438E-05 1.02954E-06-1.02334E-18 2.37239E-18
 -1       367 1.06441E-04-3.32960E-05-3.13604E-05-1.34675E-06 2.31099E-19 2.05540E-18
 -1       368 1.05049E-04-3.23047E-05-3.11848E-05-2.87743E-06 6.70240E-19 1.34203E-18
 -1       369 1.03559E-04-3.13914E-05-3.09335E-05-3.64727E-06-1.78751E-19 2.30418E-18
 -1       370 1.02113E-04-3.06355E-05-3.06347E-05-3.84653E-06 5.07570E-19 2.35692E-18
 -1       371 1.00789E-04-3.00458E-05-3.03181E-05-3.67361E-06 1.24571E-19 1.12866E-19
 -1       372 9.96233E-05-2.96010E-05-3.00077E-05-3.29194E-06-2.29638E-19 8.34567E-19
 -1       373 9.86259E-05-2.92721E-05-2.97206E-05-2.81914E-06-1.47738E-18 2.19130E-18
 -1       374 9.77930E-05-2.90314E-05-2.94667E-05-2.33134E-06 9.70862E-20 2.14134E-18
 -1       375 9.71122E-05-2.88561E-05-2.92501E-05-1.87224E-06 1.06051E-18 7.97786E-19
 -1       376 9.65666E-05-2.87281E-05-2.90714E-05-1.46232E-06 4.84832E-19 2.75678E-18
 -1       377 9.61377E-05-2.86333E-05-2.89285E-05-1.10650E-06 3.55862E-19 1.05025E-18
 -1       378 9.58070E-05-2.85612E-05-2.88179E-05-8.00380E-07-1.72345E-18-6.50725E-19
 -1       379 9.55576E-05-2.85051E-05-2.87351E-05-5.34676E-07-1.75552E-19-2.12952E-18
 -1       380 9.53927E-05-2.84787E-05-2.86764E-05-3.17586E-07 5.77932E-19-1.52764E-18
 -1       381 9.43135E-05-2.73149E-05-2.86753E-05 2.41629E-06 7.97568E-19-6.65947E-20
 -1       382 9.31493E-05-2.74405E-05-2.81388E-05 6.61603E-07 6.72461E-19-2.72370E-19
 -1       383 9.26581E-05-2.75282E-05-2.79024E-05-3.06214E-07-1.08105E-19-2.19583E-19
 -1       384 9.26085E-05-2.76370E-05-2.78401E-05-8.50518E-07-1.40350E-19-4.51854E-19
 -1       385 9.28441E-05-2.77714E-05-2.78858E-05-1.16553E-06 1.15137E-19-6.41171E-19
 -1       386 9.32683E-05-2.79252E-05-2.80025E-05-1.36420E-06 3.87572E-19-3.20428E-19
 -1       387 9.38274E-05-2.80938E-05-2.81701E-05-1.51958E-06 4.58694E-19-3.17717E-19
 -1       388 9.44989E-05-2.82769E-05-2.83793E-05-1.68334E-06 1.02007E-19-1.83206E-19
 -1       389 9.52829E-05-2.84781E-05-2.86286E-05-1.89474E-06 7.67812E-19-5.35576E-19
 -1       390 9.61966E-05-2.87053E-05-2.89221E-05-2.18496E-06 6.40241E-19-9.89493E-19
 -1       391 9.72697E-05-2.89699E-05-2.92678E-05-2.57857E-06 8.37489E-19-1.39384E-18
 -1       392 9.85408E-05-2.92878E-05-2.96756E-05-3.09211E-06 2.58871E-19-1.37021E-18
 -1       393 1.00053E-04-2.96796E-05-3.01554E-05-3.72902E-06 9.55315E-20-1.07944E-18
 -1       394 1.01849E-04-3.01733E-05-3.07135E-05-4.46882E-06 2.06642E-19-6.04395E-19
 -1       395 1.03960E-04-3.08068E-05-3.13482E-05-5.24823E-06 6.52486E-19-1.10337E-18
 -1       396 1.06398E-04-3.16315E-05-3.20428E-05-5.93149E-06 3.48870E-19-1.43276E-18
 -1       397 1.09135E-04-3.27109E-05-3.27583E-05-6.27168E-06-1.18591E-18-1.18180E-18
 -1       398 1.12072E-04-3.41021E-05-3.34280E-05-5.87698E-06-1.19620E-18-1.01474E-18
 -1       399 1.14988E-04-3.57893E-05-3.39618E-05-4.22629E-06-4.73313E-20-1.03013E-18
 -1       400 1.17452E-04-3.75348E-05-3.42738E-05-8.37682E-07 1.35273E-18-6.27665E-19
 -1       401 1.18754E-04-3.86972E-05-3.43327E-05 4.31645E-06 3.87478E-19-1.41650E-19
 -1       402 1.17894E-04-3.80833E-05-3.42258E-05 1.00710E-05-7.22430E-19-1.95512E-19
 -1       403 1.14359E-04-3.48008E-05-3.41224E-05 1.35501E-05-6.25716E-19-1.12880E-18
 -1       404 1.09289E-04-2.97052E-05-3.41589E-05 1.13323E-05 3.46622E-20-1.39630E-18
 -1       405 1.05940E-04-2.61596E-05-3.42480E-05 2.97885E-06-2.47678E-19-5.63600E-19
 -1       406 1.07128E-04-2.72950E-05-3.42327E-05-7.29787E-06-2.94509E-19 4.02208E-19
 -1       407 1.11822E-04-3.20502E-05-3.41968E-05-1.32206E-05-2.44002E-19 6.83139E-19
 -1       408 1.16522E-04-3.66443E-05-3.42461E-05-1.25540E-05-4.82938E-19 7.42792E-19
 -1       409 1.18815E-04-3.87020E-05-3.43568E-05-7.61300E-06-9.95221E-19 4.41192E-19
 -1       410 1.18511E-04-3.83676E-05-3.43761E-05-1.86711E-06 5.21809E-19-1.14611E-18
 -1       411 1.16502E-04-3.68081E-05-3.41828E-05 2.55946E-06 1.24583E-18-1.12168E-18
 -1       412 1.13720E-04-3.50101E-05-3.37532E-05 5.10841E-06 1.29757E-18-1.61797E-20
 -1       413 1.10763E-04-3.34379E-05-3.31501E-05 6.09723E-06 2.15406E-18-8.41388E-19
 -1       414 1.07942E-04-3.21976E-05-3.24647E-05 6.06876E-06 9.06162E-19-3.18761E-19
 -1       415 1.05406E-04-3.12562E-05-3.17763E-05 5.49233E-06-5.62592E-19 7.10769E-19
 -1       416 1.03214E-04-3.05481E-05-3.11377E-05 4.69041E-06-1.17307E-18-1.60368E-18
 -1       417 1.01373E-04-3.00139E-05-3.05767E-05 3.85339E-06-3.00625E-18-6.45639E-19
 -1       418 9.98621E-05-2.96091E-05-3.01029E-05 3.07896E-06-2.26056E-18 1.64215E-18
 -1       419 9.86467E-05-2.93015E-05-2.97144E-05 2.40775E-06-1.38647E-19 1.80367E-18
 -1       420 9.76859E-05-2.90681E-05-2.94034E-05 1.84833E-06-9.53476E-19 1.91662E-18
 -1       421 9.69392E-05-2.88913E-05-2.91599E-05 1.39264E-06 2.40005E-18 1.14113E-19
 -1       422 9.63690E-05-2.87577E-05-2.89735E-05 1.02467E-06 2.68325E-18 4.25220E-19
 -1       423 9.59430E-05-2.86568E-05-2.88347E-05 7.25183E-07 1.56025E-18-1.62375E-19
 -1       424 9.56339E-05-2.85816E-05-2.87350E-05 4.75942E-07 2.21224E-18-1.40385E-18
 -1       425 9.54193E-05-2.85295E-05-2.86658E-05 2.64029E-07 6.78317E-19-1.79208E-18
 -1       426 9.53233E-05-2.85062E-05-2.86352E-05 1.58111E-07-7.14572E-19-1.08563E-18
 -1       427 9.51000E-05-2.79727E-05-2.87685E-05 5.77399E-07 2.49269E-19 3.65091E-18
 -1       428 9.52344E-05-2.82142E-05-2.87221E-05 4.78652E-07 8.24278E-19 4.58696E-20
 -1       429 9.53012E-05-2.83821E-05-2.86786E-05 3.22393E-07-1.01939E-18-1.47492E-18
 -1       430 9.49620E-05-2.77329E-05-2.88126E-05 5.81169E-07-5.73514E-19-7.92097E-19
 -1       431 9.48382E-05-2.75182E-05-2.88520E-05 4.90501E-07-3.75087E-19 2.63856E-18
 -1       432 9.47483E-05-2.73610E-05-2.88812E-05 3.22297E-07-1.80062E-19 1.50768E-18
 -1       433 9.47030E-05-2.72813E-05-2.88961E-05 1.05343E-07-1.95144E-18 1.37777E-18
 -1       434 9.47072E-05-2.72886E-05-2.88948E-05-1.26002E-07-1.67341E-18 1.75810E-18
 -1       435 9.47597E-05-2.73810E-05-2.88775E-05-3.36483E-07-2.81927E-19-5.93337E-19
 -1       436 9.48511E-05-2.75423E-05-2.88472E-05-4.92208E-07 9.20782E-19-1.52080E-18
 -1       437 9.49729E-05-2.77571E-05-2.88069E-05-5.74240E-07 2.43128E-18 3.22876E-18
 -1       438 9.51076E-05-2.79957E-05-2.87619E-05-5.65189E-07 1.95795E-18 2.01443E-18
 -1       439 9.52375E-05-2.82314E-05-2.87161E-05-4.66719E-07-6.05006E-20-1.58029E-18
 -1       440 5.95004E-05-4.17936E-05-7.66406E-06 4.19895E-05-5.72488E-19-7.27178E-19
 -1       441 1.32395E-05-1.94856E-05 2.78540E-06-5.24402E-06-4.93622E-19 2.79606E-18
 -1       442 2.92780E-05-2.73614E-05-7.56995E-07 2.91215E-05-4.45539E-19-1.82091E-18
 -1       443 1.01142E-04-5.41067E-05-2.02378E-05 3.95303E-05 2.79203E-19-1.28728E-18
 -1       444 1.33052E-04-5.45372E-05-3.36661E-05 2.66415E-05-1.96618E-19 8.99020E-19
 -1       445 8.93640E-05-1.18413E-05-3.32979E-05-1.06272E-05-1.13411E-18-4.84198E-19
 -1       446 1.58324E-04-2.50564E-05-5.70695E-05-4.70908E-06-5.50783E-19 2.24464E-20
 -1       447 1.56980E-04-1.39639E-05-6.13234E-05-2.58375E-06-7.41154E-22-4.90220E-20
 -1       448 1.56182E-04-1.58789E-05-6.01459E-05 4.21289E-06 9.52912E-19 7.60953E-19
 -1       449 1.54905E-04-3.52888E-05-5.14308E-05 3.74273E-06 2.26052E-19 1.63139E-18
 -1       450 1.50649E-04-4.97942E-05-4.32029E-05-1.07496E-05-2.58345E-20 1.51979E-18
 -1       451 1.24096E-04-5.70039E-05-2.88279E-05-3.11315E-05-1.28643E-19 1.72943E-18
 -1       452 8.49326E-05-5.01807E-05-1.50644E-05-4.22873E-05-4.42681E-19-3.42506E-19
 -1       453 4.62581E-05-3.66935E-05-4.21201E-06-3.87968E-05-7.34272E-19-4.37069E-19
 -1       454 1.76389E-05-2.51401E-05 2.99976E-06-1.83324E-05-4.79156E-19-9.86476E-19
 -1       455 1.50979E-05-2.17780E-05 2.83336E-06 1.46025E-05 5.73177E-19-1.73663E-18
 -1       456 3.40281E-05-3.09543E-05-1.43030E-06 3.48632E-05 3.55860E-19-8.50950E-19
 -1       457 7.60297E-05-4.65064E-05-1.26573E-05 4.47849E-05 6.65556E-19-1.52761E-18
 -1       458 1.13474E-04-5.45346E-05-2.52880E-05 3.64485E-05 1.01115E-18 5.26537E-19
 -1       459 1.40235E-04-4.78126E-05-3.94955E-05 2.24846E-05-2.47334E-19 2.93328E-18
 -1       460 1.54153E-04-3.52668E-05-5.08385E-05 6.60471E-06-4.15258E-19 2.53263E-18
 -1       461 1.54328E-04-1.58167E-05-5.93973E-05-1.69086E-06 4.45645E-19-2.74333E-19
 -1       462 1.61165E-04-1.35915E-05-6.28561E-05 2.21432E-07-7.60424E-19 5.35656E-19
 -1       463 1.53047E-04-2.11278E-05-5.66446E-05 2.92806E-06-1.61423E-18 4.53057E-19
 -1       464 1.52704E-04-3.83084E-05-4.89180E-05-9.23709E-06-1.20647E-18-5.73653E-19
 -1       465 1.34388E-04-5.02158E-05-3.60339E-05-2.60867E-05-1.00135E-18 3.92176E-19
 -1       466 1.06232E-04-5.36831E-05-2.25068E-05-3.93837E-05-4.87044E-20 1.35546E-18
 -1       467 6.14700E-05-4.14088E-05-8.54487E-06-4.44307E-05-1.51619E-19 9.97884E-19
 -1       468 2.44672E-05-2.74045E-05 1.08800E-06-2.79747E-05 1.09865E-18 3.45801E-18
 -1       469 1.53118E-04-4.58107E-05-4.59487E-05 9.91180E-06-6.75625E-20-4.31987E-19
 -1       470 2.47649E-05-1.52217E-05-3.53278E-06 1.41828E-05-9.21413E-19-2.58398E-18
 -1       471 1.43061E-04-2.34018E-05-5.16977E-05-8.21512E-06 7.73870E-19 3.17055E-19
 -1       472 9.57987E-05-2.51222E-05-3.02757E-05 5.94110E-06 8.84006E-19-5.07300E-19
 -1       473 8.95650E-05-1.33086E-05-3.27002E-05-3.86555E-06-6.41527E-19-1.00476E-18
 -1       474 9.02722E-05-1.42899E-05-3.25843E-05-5.80709E-06-8.41885E-19-9.35224E-19
 -1       475 8.90608E-05-1.26077E-05-3.27833E-05 5.30478E-08-3.56721E-19-1.18644E-18
 -1       476 8.91990E-05-1.27973E-05-3.27616E-05 2.01157E-06-1.45013E-19-1.53906E-18
 -1       477 8.95989E-05-1.33498E-05-3.26973E-05 3.93675E-06 8.01444E-20-1.54991E-18
 -1       478 9.03283E-05-1.43593E-05-3.25792E-05 5.87179E-06 3.94904E-19-1.31785E-18
 -1       479 9.14740E-05-1.59617E-05-3.23855E-05 7.69326E-06 5.88085E-19-1.21191E-18
 -1       480 9.32455E-05-1.84509E-05-3.20750E-05 9.21367E-06 7.68318E-19-1.06012E-18
 -1       481 9.51186E-05-2.65435E-05-2.93713E-05 2.76014E-06 7.74102E-19-4.82995E-19
 -1       482 9.54697E-05-2.43843E-05-3.04546E-05-5.74307E-06-9.47932E-19 2.27595E-19
 -1       483 1.45688E-04-3.82412E-05-4.64721E-05-1.15752E-05-1.00829E-18-1.32079E-18
 -1       484 9.52969E-05-2.61853E-05-2.96127E-05-2.75184E-06-7.44728E-19 1.77735E-19
 -1       485 9.49702E-05-2.70922E-05-2.90868E-05-8.13142E-07-5.03652E-19 1.25494E-19
 -1       486 9.47433E-05-2.76036E-05-2.87724E-05 4.14884E-07-3.36662E-19 3.60230E-20
 -1       487 9.46537E-05-2.79054E-05-2.86055E-05 1.19211E-06-3.15055E-19 1.28082E-19
 -1       488 9.46896E-05-2.80894E-05-2.85424E-05 1.70020E-06-7.08361E-19 1.10394E-19
 -1       489 9.48280E-05-2.82017E-05-2.85538E-05 2.06332E-06-4.37270E-19-1.96487E-19
 -1       490 9.50502E-05-2.82692E-05-2.86200E-05 2.36855E-06-8.67383E-19-1.85890E-19
 -1       491 9.53462E-05-2.83121E-05-2.87284E-05 2.67651E-06-6.50097E-19 1.06634E-19
 -1       492 9.57147E-05-2.83492E-05-2.88703E-05 3.02706E-06 9.05796E-20 4.82609E-19
 -1       493 9.61628E-05-2.84027E-05-2.90393E-05 3.44124E-06 4.22749E-19 3.48310E-19
 -1       494 9.67057E-05-2.85015E-05-2.92295E-05 3.92010E-06 1.77046E-19-1.29909E-19
 -1       495 9.73677E-05-2.86853E-05-2.94346E-05 4.44051E-06-2.30715E-19 2.72118E-19
 -1       496 9.81835E-05-2.90081E-05-2.96461E-05 4.94826E-06-1.81615E-19 4.88063E-19
 -1       497 9.92000E-05-2.95401E-05-2.98544E-05 5.34889E-06-4.59214E-19 6.17828E-19
 -1       498 1.00475E-04-3.03635E-05-3.00490E-05 5.49793E-06-6.28332E-19 7.40403E-20
 -1       499 1.02067E-04-3.15526E-05-3.02236E-05 5.19477E-06-8.51591E-19 4.63505E-19
 -1       500 1.04008E-04-3.31264E-05-3.03827E-05 4.19035E-06-2.88968E-19-1.15130E-19
 -1       501 1.06230E-04-3.49569E-05-3.05526E-05 2.22962E-06 4.15412E-19-6.19328E-19
 -1       502 1.08466E-04-3.66398E-05-3.07904E-05-8.30762E-07 7.54421E-19 1.69160E-19
 -1       503 1.10147E-04-3.74082E-05-3.11810E-05-4.78777E-06 4.97013E-19-3.48779E-19
 -1       504 1.10472E-04-3.62757E-05-3.18005E-05-8.77866E-06-5.44475E-20-1.06147E-18
 -1       505 1.08848E-04-3.26633E-05-3.26524E-05-1.11016E-05-4.02735E-19-1.46758E-18
 -1       506 1.05765E-04-2.74784E-05-3.35603E-05-9.78441E-06-2.67964E-19-1.75149E-18
 -1       507 1.03129E-04-2.33901E-05-3.41836E-05-4.25374E-06 5.99969E-19-1.51694E-18
 -1       508 1.02917E-04-2.30850E-05-3.42254E-05 3.38759E-06 4.39733E-19-1.37513E-18
 -1       509 1.05360E-04-2.68320E-05-3.36616E-05 9.28717E-06 4.96758E-19-6.07465E-19
 -1       510 1.08535E-04-3.20788E-05-3.27668E-05 1.11757E-05-4.81285E-19 4.94612E-19
 -1       511 1.10403E-04-3.59703E-05-3.19121E-05 9.24109E-06 7.66963E-19 4.37749E-19
 -1       512 1.10300E-04-3.73818E-05-3.12632E-05 5.35178E-06 5.66188E-19 5.11342E-20
 -1       513 1.08749E-04-3.67889E-05-3.08482E-05 1.34096E-06-4.29964E-19 1.76191E-18
 -1       514 1.06553E-04-3.51608E-05-3.06033E-05-1.82126E-06-8.68890E-19 3.53483E-18
 -1       515 1.04326E-04-3.33145E-05-3.04385E-05-3.87332E-06-1.64457E-19 1.66398E-18
 -1       516 1.02369E-04-3.16934E-05-3.02924E-05-4.93299E-06 3.79988E-19 1.82495E-18
 -1       517 1.00764E-04-3.04512E-05-3.01353E-05-5.24727E-06-1.50219E-19 1.28296E-19
 -1       518 9.94909E-05-2.95817E-05-2.99612E-05-5.06737E-06-1.33268E-18-1.02814E-18
 -1       519 9.84928E-05-2.90145E-05-2.97758E-05-4.59949E-06 1.03292E-18 2.29021E-19
 -1       520 9.77114E-05-2.86681E-05-2.95890E-05-3.99436E-06 1.27116E-19 1.78272E-18
 -1       521 9.70986E-05-2.84715E-05-2.94105E-05-3.35283E-06 5.01474E-19 4.01840E-18
 -1       522 9.66170E-05-2.83704E-05-2.92475E-05-2.73637E-06-3.82526E-19 3.31700E-18
 -1       523 9.62382E-05-2.83256E-05-2.91044E-05-2.17759E-06 9.28916E-19 2.38714E-18
 -1       524 9.59397E-05-2.83100E-05-2.89832E-05-1.68900E-06-8.96469E-19 2.05946E-18
 -1       525 9.57037E-05-2.83059E-05-2.88840E-05-1.27032E-06-2.08117E-18 5.29592E-19
 -1       526 9.55161E-05-2.83026E-05-2.88050E-05-9.13850E-07-2.15739E-18-6.16969E-19
 -1       527 5.97277E-05-3.13502E-05-1.15632E-05 3.73758E-05-7.47348E-19-9.90605E-19
 -1       528 9.42485E-05-2.76349E-05-2.85448E-05-3.81911E-07 1.37024E-19-7.49216E-19
 -1       529 9.41551E-05-2.78720E-05-2.84053E-05-1.11581E-06 1.34177E-19-8.91512E-19
 -1       530 9.42398E-05-2.80336E-05-2.83731E-05-1.58445E-06 1.51378E-19-9.90922E-19
 -1       531 9.44595E-05-2.81505E-05-2.84174E-05-1.91696E-06 2.66392E-19-7.28008E-19
 -1       532 9.47850E-05-2.82381E-05-2.85194E-05-2.20402E-06 3.35232E-19-7.78416E-19
 -1       533 9.52010E-05-2.83061E-05-2.86683E-05-2.51262E-06 6.43962E-19-1.04624E-18
 -1       534 9.57042E-05-2.83629E-05-2.88592E-05-2.89414E-06 9.53868E-19-8.68382E-19
 -1       535 9.63008E-05-2.84183E-05-2.90907E-05-3.38835E-06 6.01882E-19-6.53346E-19
 -1       536 9.70046E-05-2.84855E-05-2.93630E-05-4.02411E-06 4.85050E-19-5.18549E-19
 -1       537 9.78362E-05-2.85857E-05-2.96760E-05-4.81635E-06 6.97024E-20-4.76504E-19
 -1       538 9.88248E-05-2.87546E-05-3.00270E-05-5.75834E-06 1.70695E-20-9.25271E-19
 -1       539 1.00013E-04-2.90537E-05-3.04081E-05-6.80737E-06 3.75373E-19-7.53929E-19
 -1       540 1.01466E-04-2.95861E-05-3.08039E-05-7.86125E-06 3.47291E-19 5.51397E-19
 -1       541 1.03290E-04-3.05135E-05-3.11908E-05-8.72395E-06-7.58623E-19 5.27676E-19
 -1       542 1.05647E-04-3.20605E-05-3.15424E-05-9.06203E-06-1.38463E-18-8.42289E-20
 -1       543 1.08744E-04-3.44630E-05-3.18461E-05-8.36415E-06-1.74687E-19-9.59583E-19
 -1       544 1.12722E-04-3.77707E-05-3.21371E-05-5.94507E-06 1.69444E-19-1.44474E-18
 -1       545 1.17339E-04-4.14157E-05-3.25575E-05-1.20039E-06 7.41099E-19-5.65623E-19
 -1       546 1.21538E-04-4.37250E-05-3.33824E-05 6.00062E-06 2.49430E-19-2.11323E-19
 -1       547 1.23030E-04-4.16581E-05-3.49293E-05 1.35339E-05-2.00925E-19-1.16285E-18
 -1       548 1.19996E-04-3.37919E-05-3.70006E-05 1.67322E-05-5.10433E-19-1.35927E-18
 -1       549 1.13949E-04-2.35096E-05-3.90437E-05 1.06230E-05-2.08979E-20-2.02907E-19
 -1       550 1.13099E-04-2.08914E-05-3.96929E-05-3.26007E-06-7.22506E-19-8.97875E-19
 -1       551 1.17195E-04-2.80485E-05-3.83754E-05-1.46034E-05-1.10611E-18-1.93994E-19
 -1       552 1.21895E-04-3.79585E-05-3.60660E-05-1.61225E-05 2.00409E-20-3.67989E-19
 -1       553 1.22838E-04-4.33476E-05-3.41172E-05-1.02046E-05-3.16057E-19-1.00821E-18
 -1       554 1.19776E-04-4.29837E-05-3.29319E-05-2.43795E-06-2.72452E-19-1.24811E-18
 -1       555 1.15202E-04-3.97800E-05-3.23429E-05 3.69665E-06 9.84804E-19-2.99808E-19
 -1       556 1.10790E-04-3.61106E-05-3.20205E-05 7.26902E-06 6.67123E-19-4.92834E-21
 -1       557 1.07259E-04-3.32091E-05-3.17443E-05 8.74807E-06 1.40173E-18 9.72531E-19
 -1       558 1.04565E-04-3.12312E-05-3.14313E-05 8.84317E-06 1.65360E-18 1.57699E-18
 -1       559 1.02519E-04-3.00055E-05-3.10761E-05 8.15358E-06 8.55720E-19 2.83769E-19
 -1       560 1.00935E-04-2.92902E-05-3.07016E-05 7.10308E-06-6.08072E-19 7.62978E-19
 -1       561 9.96788E-05-2.88888E-05-3.03347E-05 5.95385E-06-1.45955E-18 2.24949E-18
 -1       562 9.86682E-05-2.86694E-05-2.99957E-05 4.85190E-06-3.19044E-18-8.18367E-19
 -1       563 9.78506E-05-2.85517E-05-2.96961E-05 3.86779E-06-1.93092E-18-8.66906E-19
 -1       564 9.71910E-05-2.84891E-05-2.94407E-05 3.02650E-06-9.89719E-20-4.43247E-19
 -1       565 9.66629E-05-2.84554E-05-2.92294E-05 2.32731E-06-2.79443E-20-2.53804E-19
 -1       566 9.62439E-05-2.84347E-05-2.90592E-05 1.75590E-06 1.56773E-18 1.25623E-18
 -1       567 9.59148E-05-2.84183E-05-2.89255E-05 1.29171E-06 1.38458E-18 3.42620E-18
 -1       568 9.56581E-05-2.84004E-05-2.88231E-05 9.13757E-07 3.71695E-18 3.07611E-18
 -1       569 9.54582E-05-2.83834E-05-2.87450E-05 5.99812E-07 2.50978E-18-3.43835E-20
 -1       570 9.47868E-05-2.74906E-05-2.88415E-05 7.73195E-07 1.27497E-18 1.52089E-18
 -1       571 9.46159E-05-2.72798E-05-2.88587E-05 5.77476E-07 1.00368E-18 1.69500E-18
 -1       572 9.52204E-05-2.80437E-05-2.87899E-05 8.08019E-07 2.73908E-18 1.23091E-18
 -1       573 9.49986E-05-2.77552E-05-2.88187E-05 8.54777E-07 7.80432E-19 2.10938E-18
 -1       574 9.45095E-05-2.71496E-05-2.88690E-05 2.98838E-07 8.95188E-19-4.45043E-19
 -1       575 9.44790E-05-2.71135E-05-2.88714E-05-2.06038E-08-1.73122E-18 4.04014E-19
 -1       576 9.45262E-05-2.71737E-05-2.88658E-05-3.34252E-07-1.28345E-18 3.39661E-18
 -1       577 9.46409E-05-2.73185E-05-2.88528E-05-5.93810E-07 6.06261E-19-1.45070E-18
 -1       578 9.48128E-05-2.75356E-05-2.88333E-05-7.71553E-07 5.81027E-19 1.20342E-18
 -1       579 9.50165E-05-2.77976E-05-2.88083E-05-8.37908E-07-1.94672E-19 2.03529E-18
 -1       580 9.52267E-05-2.80746E-05-2.87791E-05-7.82755E-07-1.66794E-18-1.07791E-18
 -1       581 1.27111E-04-6.15602E-05-2.80294E-05 2.41805E-05 3.90112E-19-7.27919E-21
 -1       582 9.45671E-05-2.72511E-05-2.88409E-05 8.09798E-07 3.05383E-19-5.17115E-19
 -1       583 9.35608E-05-5.12608E-05-1.78507E-05 3.93627E-05-1.62207E-19-2.29744E-19
 -1       584 5.02581E-05-2.82446E-05-8.93615E-06-3.74447E-05-3.05567E-19 2.53041E-18
 -1       585 3.08615E-05-1.67772E-05-5.40591E-06-2.15544E-05-7.38639E-19 3.00993E-18
 -1       586 1.34097E-04-5.84021E-05-3.24584E-05 1.66846E-05 8.66938E-19 3.97094E-18
 -1       587 2.39656E-05-1.26025E-05-4.23345E-06-3.99704E-06-9.56525E-19 2.10276E-19
 -1       588 1.30739E-04-1.04745E-05-5.21631E-05 1.33132E-06-2.79521E-19-1.60903E-19
 -1       589 8.91776E-05-1.27712E-05-3.27636E-05-1.90564E-06-3.86939E-19-1.20485E-18
 -1       590 1.37560E-04-2.36987E-05-4.93543E-05 1.46009E-05 2.51304E-19 5.20714E-19
 -1       591 1.39690E-04-1.73547E-05-5.30809E-05-9.92474E-06-4.60468E-19-1.02756E-18
 -1       592 1.14274E-04-5.91414E-05-2.35207E-05-3.18235E-05-8.16593E-19 8.45101E-19
 -1       593 1.44374E-04-4.82812E-05-4.16634E-05 8.66174E-06 4.49755E-19 1.43477E-18
 -1       594 1.05398E-04-5.55459E-05-2.11484E-05 3.76215E-05 9.16331E-19 1.16348E-18
 -1       595 1.39146E-04-6.04475E-05-3.38800E-05-1.00270E-05-7.43007E-20 7.66618E-19
 -1       596 8.21217E-05-4.55989E-05-1.52557E-05-4.09940E-05-1.67067E-18 9.39148E-20
 -1       597 4.41263E-05-2.28766E-05-8.47116E-06-3.03685E-05-2.04715E-18-2.53422E-19
 -1       598 3.30744E-05-1.98697E-05-5.13115E-06 2.70110E-05 9.29142E-19-9.94734E-19
 -1       599 1.34427E-04-8.30331E-06-5.46710E-05-2.49941E-06-9.63288E-19 2.26538E-18
 -1       600 6.50789E-05-3.73731E-05-1.14625E-05 4.25822E-05 1.81577E-18-1.47839E-18
 -1       601 1.41704E-04-4.76061E-05-4.06588E-05 1.11893E-06 3.76506E-19 2.70034E-18
 -1       602 1.33681E-04-1.08459E-05-5.32013E-05 6.82656E-06-9.95581E-19 1.39850E-18
 -1       603 1.39626E-04-3.21664E-05-4.65635E-05 9.62330E-06-1.23778E-18 7.60053E-19
 -1       604 1.42355E-04-4.93170E-05-4.01453E-05-2.55980E-06-5.12488E-19-2.32616E-19
 -1       605 1.29470E-04-5.95591E-05-2.99703E-05-2.18388E-05 9.80785E-19-1.75892E-18
 -1       606 9.59323E-05-5.15396E-05-1.88015E-05-3.99825E-05 5.18014E-19-1.20160E-18
 -1       607 9.45729E-05-2.06647E-05-3.16949E-05-9.49889E-06-1.20466E-18 2.95129E-19
 -1       608 9.61163E-05-2.31695E-05-3.12664E-05 9.52791E-06 1.08940E-18-4.90755E-19
 -1       609 1.42754E-04-5.79106E-05-3.65861E-05 6.96269E-06-3.13601E-19-1.22841E-18
 -1       610 9.13745E-05-1.58075E-05-3.24091E-05-7.67809E-06-1.03187E-18-5.67276E-19
 -1       611 7.94045E-05-3.95710E-05-1.66908E-05-3.87990E-05 6.09811E-19 1.63504E-19
 -1       612 1.36574E-04-3.65600E-05-4.32435E-05-1.09747E-05 1.06112E-18 7.53145E-19
 -1       613 9.54119E-05-2.83035E-05-2.87599E-05-6.96931E-07-1.08505E-18-1.10908E-18
 -1       614 1.27473E-04-2.07280E-05-4.61619E-05 1.32446E-05-5.73971E-19 5.20290E-19
 -1       615 3.16212E-05-1.11800E-05-8.17698E-06-4.59330E-06-2.46784E-18 9.92034E-19
 -1       616 1.29316E-04-1.33369E-05-5.02417E-05-9.31969E-06-4.95144E-19 3.16166E-18
 -1       617 9.15385E-05-1.66856E-05-3.20854E-05 2.37199E-06-1.10910E-19-1.36581E-18
 -1       618 9.12689E-05-1.62662E-05-3.21493E-05 8.14997E-07-2.87060E-19-1.27075E-18
 -1       619 9.29068E-05-1.88988E-05-3.17234E-05 5.14300E-06 3.72392E-19-1.04553E-18
 -1       620 9.40027E-05-2.08631E-05-3.13534E-05 6.02136E-06 5.72943E-19-1.08174E-18
 -1       621 9.52868E-05-2.40454E-05-3.05217E-05 5.02397E-06 7.90995E-19-7.17781E-19
 -1       622 9.53668E-05-2.58617E-05-2.97838E-05 2.41939E-06 6.23246E-19-7.33360E-19
 -1       623 9.54527E-05-2.56254E-05-2.99281E-05-2.22234E-06-6.52831E-19-2.19870E-19
 -1       624 9.55097E-05-2.67883E-05-2.94511E-05-5.46152E-07-4.94513E-19 4.49508E-21
 -1       625 9.54650E-05-2.74860E-05-2.91336E-05 5.91276E-07-2.92956E-19-2.98472E-20
 -1       626 9.54072E-05-2.78830E-05-2.89388E-05 1.36659E-06-5.90953E-19-2.16322E-19
 -1       627 9.53679E-05-2.80846E-05-2.88356E-05 1.91327E-06-5.80266E-19-6.35491E-21
 -1       628 9.53572E-05-2.81550E-05-2.88008E-05 2.33886E-06-5.32053E-19 6.59856E-20
 -1       629 9.53778E-05-2.81378E-05-2.88170E-05 2.72366E-06-3.48546E-19 8.47379E-19
 -1       630 9.54327E-05-2.80671E-05-2.88708E-05 3.12556E-06-4.32608E-20 1.20259E-18
 -1       631 9.55291E-05-2.79758E-05-2.89512E-05 3.58302E-06-2.92336E-19 6.73293E-19
 -1       632 9.56820E-05-2.79020E-05-2.90483E-05 4.11597E-06-1.21350E-19 1.00998E-19
 -1       633 9.59191E-05-2.78960E-05-2.91524E-05 4.72428E-06 6.88779E-20 1.01788E-19
 -1       634 9.62860E-05-2.80271E-05-2.92536E-05 5.38385E-06-3.26809E-20 5.09105E-20
 -1       635 9.68548E-05-2.83899E-05-2.93419E-05 6.04005E-06-2.23756E-19 1.74544E-19
 -1       636 9.77314E-05-2.91076E-05-2.94103E-05 6.59788E-06-8.60415E-19 8.36423E-20
 -1       637 9.90601E-05-3.03239E-05-2.94590E-05 6.90785E-06-1.71952E-19 1.55773E-19
 -1       638 1.01011E-04-3.21698E-05-2.95046E-05 6.74782E-06-3.82056E-19 6.05347E-19
 -1       639 1.03728E-04-3.46798E-05-2.95944E-05 5.80696E-06-4.11965E-19 1.19641E-18
 -1       640 1.07204E-04-3.76254E-05-2.98222E-05 3.69612E-06 3.08630E-19 5.95785E-19
 -1       641 1.11039E-04-4.02525E-05-3.03409E-05 7.84842E-08 6.96438E-19-1.07427E-19
 -1       642 1.14223E-04-4.11283E-05-3.13380E-05-4.93838E-06-2.18240E-19-2.84602E-19
 -1       643 1.15248E-04-3.84523E-05-3.29262E-05-1.01483E-05-8.26874E-19-6.88653E-19
 -1       644 1.12857E-04-3.13119E-05-3.49956E-05-1.27066E-05-5.49207E-19 2.63866E-19
 -1       645 1.08618E-04-2.26825E-05-3.69077E-05-9.44742E-06-5.99921E-19-5.19757E-19
 -1       646 1.06262E-04-1.82965E-05-3.77842E-05-6.03088E-07 1.25903E-18-1.63881E-18
 -1       647 1.07860E-04-2.14049E-05-3.71967E-05 8.84057E-06 1.00237E-18-1.03598E-18
 -1       648 1.12391E-04-2.99954E-05-3.53980E-05 1.32094E-05 5.61654E-19-2.12756E-20
 -1       649 1.15360E-04-3.77298E-05-3.32824E-05 1.10709E-05 4.78339E-19 8.89001E-19
 -1       650 1.14584E-04-4.09790E-05-3.15536E-05 5.75033E-06 8.18472E-19 1.24725E-18
 -1       651 1.11523E-04-4.04819E-05-3.04514E-05 5.27501E-07 4.42389E-19 1.51334E-18
 -1       652 1.07671E-04-3.79362E-05-2.98887E-05-3.25295E-06 4.46062E-21 5.82495E-19
 -1       653 1.04126E-04-3.49643E-05-2.96424E-05-5.48905E-06-1.16963E-18 8.96266E-19
 -1       654 1.01316E-04-3.23659E-05-2.95513E-05-6.50401E-06-1.08098E-18 5.07700E-19
 -1       655 9.92824E-05-3.04181E-05-2.95139E-05-6.68196E-06-1.06698E-18-6.77352E-19
 -1       656 9.78919E-05-2.91086E-05-2.94787E-05-6.34323E-06-5.36586E-19-1.25979E-18
 -1       657 9.69737E-05-2.83131E-05-2.94258E-05-5.71906E-06 1.12218E-18 3.42321E-19
 -1       658 9.63790E-05-2.78879E-05-2.93530E-05-4.96669E-06 4.74160E-19 9.15784E-19
 -1       659 9.59959E-05-2.77079E-05-2.92659E-05-4.18805E-06 6.18829E-19 4.67327E-19
 -1       660 9.57474E-05-2.76777E-05-2.91723E-05-3.44527E-06-4.62588E-19-2.86623E-19
 -1       661 9.55824E-05-2.77292E-05-2.90796E-05-2.77238E-06 7.91108E-20 1.78672E-19
 -1       662 9.54677E-05-2.78161E-05-2.89933E-05-2.18396E-06-4.39541E-19 9.77843E-20
 -1       663 9.53825E-05-2.79088E-05-2.89170E-05-1.68095E-06-2.32093E-18-7.33015E-19
 -1       664 9.53122E-05-2.79899E-05-2.88521E-05-1.25726E-06-1.73061E-18-3.12695E-19
 -1       665 9.01523E-05-4.49827E-05-1.90327E-05 3.71486E-05 1.98253E-18 4.02738E-20
 -1       666 9.51805E-05-2.75517E-05-2.89831E-05-5.32445E-07 2.14716E-19-9.02190E-19
 -1       667 9.51613E-05-2.81545E-05-2.87169E-05-2.28659E-06 2.15783E-19-6.04446E-19
 -1       668 9.52619E-05-2.81412E-05-2.87657E-05-2.67868E-06 4.93926E-19-6.61057E-19
 -1       669 9.54024E-05-2.80640E-05-2.88589E-05-3.10810E-06 7.62162E-19-4.93602E-19
 -1       670 9.55770E-05-2.79372E-05-2.89879E-05-3.62814E-06 5.83690E-19-5.76661E-19
 -1       671 9.57835E-05-2.77753E-05-2.91456E-05-4.27925E-06 4.55852E-19-2.33739E-19
 -1       672 9.60250E-05-2.75991E-05-2.93244E-05-5.08922E-06 1.93633E-19 1.22916E-19
 -1       673 9.63141E-05-2.74445E-05-2.95144E-05-6.07049E-06 2.71794E-20 9.14085E-20
 -1       674 9.66827E-05-2.73768E-05-2.97013E-05-7.21421E-06 1.59312E-19 8.67130E-20
 -1       675 9.72008E-05-2.75117E-05-2.98656E-05-8.47982E-06-3.16479E-19 1.45452E-19
 -1       676 9.80085E-05-2.80450E-05-2.99837E-05-9.77791E-06-8.31554E-20 2.40957E-19
 -1       677 9.93619E-05-2.92819E-05-3.00346E-05-1.09416E-05-2.88302E-19-3.64582E-19
 -1       678 1.01683E-04-3.16431E-05-3.00192E-05-1.16755E-05-3.03272E-19-1.23807E-18
 -1       679 1.05557E-04-3.55668E-05-3.00029E-05-1.14472E-05 2.20818E-19-8.12244E-19
 -1       680 1.11662E-04-4.12119E-05-3.01992E-05-9.25757E-06-4.64478E-19-9.29811E-19
 -1       681 1.19250E-04-4.70194E-05-3.10311E-05-4.25528E-06 6.16435E-19 8.28190E-19
 -1       682 1.28028E-04-5.06423E-05-3.31930E-05 4.41650E-06 4.65075E-19 2.26244E-19
 -1       683 1.30972E-04-4.44428E-05-3.73030E-05 1.46499E-05 3.27603E-19-1.27114E-19
 -1       684 1.30012E-04-3.64833E-05-4.04546E-05-1.70423E-05-4.11234E-19-9.73969E-19
 -1       685 1.30266E-04-4.84406E-05-3.51699E-05-1.01324E-05 1.31021E-18-3.70656E-19
 -1       686 1.24506E-04-4.99119E-05-3.20065E-05-3.75702E-08-4.05760E-19-2.58191E-18
 -1       687 1.15803E-04-4.44632E-05-3.06069E-05 6.88229E-06-5.25754E-19-3.01481E-18
 -1       688 1.08559E-04-3.82948E-05-3.01120E-05 1.04554E-05 7.72458E-19-2.21987E-18
 -1       689 1.03654E-04-3.35086E-05-3.00641E-05 1.15432E-05 7.55398E-19-1.46427E-18
 -1       690 1.00581E-04-3.03543E-05-3.00981E-05 1.12164E-05 1.57958E-18-2.13339E-19
 -1       691 9.87775E-05-2.85652E-05-3.00907E-05 1.01916E-05 1.13101E-18 4.21605E-19
 -1       692 9.77238E-05-2.76869E-05-3.00148E-05 8.87635E-06 7.62206E-20 1.18838E-18
 -1       693 9.70826E-05-2.73514E-05-2.98834E-05 7.49944E-06-1.68786E-18-7.89932E-22
 -1       694 9.66594E-05-2.73094E-05-2.97200E-05 6.18760E-06-2.11010E-18 1.00627E-18
 -1       695 9.63520E-05-2.74084E-05-2.95460E-05 5.00577E-06-2.36778E-18 2.51548E-18
 -1       696 9.61104E-05-2.75616E-05-2.93770E-05 3.98046E-06-1.44386E-18 7.93900E-19
 -1       697 9.59111E-05-2.77228E-05-2.92227E-05 3.11455E-06 3.07564E-19 1.36098E-18
 -1       698 9.57430E-05-2.78687E-05-2.90883E-05 2.39763E-06 7.71625E-19 1.12635E-18
 -1       699 9.55983E-05-2.79868E-05-2.89757E-05 1.81133E-06 1.28960E-19 1.56800E-18
 -1       700 9.54725E-05-2.80736E-05-2.88844E-05 1.33531E-06 3.45329E-18-1.08087E-19
 -1       701 9.53297E-05-2.80567E-05-2.88308E-05 1.05709E-06 4.64159E-18-1.62535E-18
 -1       702 1.21799E-04-5.77654E-05-2.74620E-05 2.12113E-05 7.78463E-19 3.15215E-18
 -1       703 9.41769E-05-2.68540E-05-2.88529E-05 1.74227E-07 5.61566E-20-1.83439E-18
 -1       704 7.11964E-05-3.33616E-05-1.58938E-05-3.42657E-05-1.08436E-18-6.21378E-19
 -1       705 9.44867E-05-2.71587E-05-2.88549E-05 8.99300E-07 1.73639E-19 3.39431E-19
 -1       706 9.41929E-05-2.68747E-05-2.88508E-05-2.45213E-07-3.76643E-19 1.85184E-18
 -1       707 9.42774E-05-2.69510E-05-2.88544E-05 5.74770E-07-3.19371E-19 1.28431E-18
 -1       708 9.43169E-05-2.70044E-05-2.88483E-05-6.21269E-07-1.47366E-18 2.04935E-18
 -1       709 9.45360E-05-2.72316E-05-2.88448E-05-9.17514E-07-2.36090E-19-5.86355E-19
 -1       710 9.48226E-05-2.75301E-05-2.88398E-05-1.08712E-06-6.39029E-19 2.20257E-19
 -1       711 9.52875E-05-2.69301E-05-2.92940E-05 6.49035E-07 3.80500E-19-7.91269E-19
 -1       712 8.74923E-05-4.19550E-05-1.92267E-05 3.40048E-05 3.80106E-19 6.60871E-19
 -1       713 1.33791E-04-5.49913E-05-3.39017E-05-4.00454E-06 5.86845E-19 6.64762E-19
 -1       714 5.10475E-05-2.01209E-05-1.27113E-05-2.75928E-05 7.83042E-19 2.38757E-18
 -1       715 1.18447E-04-9.88457E-06-4.71493E-05 2.22411E-06-3.10385E-19 2.41796E-18
 -1       716 1.02798E-04-5.01777E-05-2.23416E-05-3.08661E-05-5.38739E-19-1.27454E-18
 -1       717 1.24134E-04-2.23750E-05-4.40401E-05-1.44191E-05-1.32050E-18-1.00162E-19
 -1       718 5.66559E-05-2.54910E-05-1.29143E-05 3.30961E-05 9.99737E-19-6.08328E-19
 -1       719 9.51086E-05-2.80847E-05-2.87243E-05-1.86288E-06-9.60139E-20-6.90637E-19
 -1       720 9.51133E-05-2.79012E-05-2.88048E-05-1.31768E-06 1.87762E-19-9.08470E-19
 -1       721 9.50324E-05-2.35697E-05-3.06214E-05-4.56530E-06-8.23190E-19-2.14749E-19
 -1       722 1.39105E-04-5.01831E-05-3.83728E-05-9.49101E-06-8.02431E-20-1.44800E-18
 -1       723 9.20781E-05-1.75407E-05-3.19505E-05 3.84504E-06 2.19977E-19-1.16588E-18
 -1       724 9.20393E-05-1.74871E-05-3.19567E-05-3.79550E-06-5.93581E-19-8.47628E-19
 -1       725 3.84948E-05-1.23383E-05-1.06872E-05 1.26465E-05 4.12465E-20 2.43787E-19
 -1       726 4.26917E-05-1.36094E-05-1.19524E-05-1.41740E-05-9.53627E-19 3.04138E-19
 -1       727 1.16693E-04-5.65497E-05-2.57332E-05-2.51628E-05 8.37041E-19-3.24960E-19
 -1       728 1.26500E-04-5.86564E-05-2.91252E-05-1.47325E-05 5.49288E-19 1.76977E-19
 -1       729 1.34241E-04-5.33349E-05-3.48930E-05 1.18229E-06 5.91206E-19 2.04156E-18
 -1       730 1.15511E-04-5.66651E-05-2.51154E-05 2.57912E-05 6.05073E-19 4.36723E-19
 -1       731 1.34418E-04-5.97817E-05-3.20425E-05 8.16490E-06 1.03529E-18-1.24861E-18
 -1       732 9.52702E-05-2.80374E-05-2.88139E-05-1.00818E-06-1.60391E-18-4.47405E-19
 -1       733 4.64806E-05-1.74884E-05-1.18560E-05 2.19419E-05-2.53379E-18-1.63027E-18
 -1       734 1.33535E-04-4.33526E-05-3.89995E-05 8.26327E-06 7.62197E-20-6.91020E-19
 -1       735 9.28443E-05-1.88006E-05-3.17389E-05-5.12106E-06-7.95479E-19-5.79767E-19
 -1       736 9.12613E-05-1.62568E-05-3.21501E-05-7.61134E-07-2.25385E-19-1.18805E-18
 -1       737 1.01844E-04-4.82800E-05-2.27630E-05-3.02128E-05 1.96154E-19-2.21973E-18
 -1       738 1.09003E-04-5.17637E-05-2.44491E-05 2.64213E-05 1.47378E-18 2.10945E-18
 -1       739 6.84575E-05-2.72905E-05-1.73953E-05 2.87348E-05-4.98333E-19 1.47701E-20
 -1       740 9.50122E-05-2.77061E-05-2.88456E-05 1.12250E-06 1.45152E-18 3.14459E-18
 -1       741 1.34349E-04-5.64831E-05-3.33691E-05 2.42350E-07 4.81684E-19 1.09484E-18
 -1       742 1.26525E-04-2.43615E-05-4.41754E-05-1.39418E-05-8.82238E-20 2.45153E-18
 -1       743 1.26103E-04-3.28483E-05-4.01836E-05 1.46713E-05 1.11185E-18-4.67549E-19
 -1       744 1.15646E-04-1.15414E-05-4.51173E-05-4.44624E-06-1.11173E-19 2.42226E-18
 -1       745 6.11256E-05-2.17350E-05-1.66127E-05-2.41554E-05-7.36072E-19-4.92020E-19
 -1       746 9.47370E-05-2.74145E-05-2.88526E-05 1.06611E-06 1.39079E-18 3.30054E-20
 -1       747 9.15123E-05-1.66515E-05-3.20886E-05-2.31238E-06-4.71272E-19-7.93003E-19
 -1       748 1.31479E-04-2.73592E-05-4.50408E-05-1.64672E-05-1.09198E-18-1.60338E-18
 -1       749 9.50438E-05-2.77425E-05-2.88435E-05-1.20987E-06-2.05819E-18-8.20559E-19
 -1       750 9.41827E-05-2.12446E-05-3.12625E-05-6.02741E-06-1.02684E-18-2.49986E-19
 -1       751 4.67966E-05-1.28635E-05-1.42115E-05-1.13022E-05-1.64907E-18 4.72591E-19
 -1       752 9.46330E-05-2.25921E-05-3.08746E-05 3.73111E-06 3.01022E-19-9.04362E-19
 -1       753 1.28072E-04-4.78288E-05-3.45187E-05 5.82844E-06 1.43937E-18-1.19348E-18
 -1       754 9.55977E-05-2.53425E-05-3.01076E-05-1.54386E-06-4.14146E-19-2.91065E-19
 -1       755 7.32454E-05-2.99844E-05-1.82927E-05-3.06048E-05 1.22329E-18 4.03002E-19
 -1       756 1.32058E-04-5.32245E-05-3.38509E-05-3.24280E-06 1.72716E-18-1.97978E-18
 -1       757 9.58125E-05-2.65816E-05-2.96703E-05-1.85793E-07-3.46435E-19-4.01788E-19
 -1       758 9.58695E-05-2.73595E-05-2.93614E-05 7.83888E-07-3.81201E-19-2.82287E-19
 -1       759 9.58062E-05-2.77816E-05-2.91534E-05 1.47865E-06-4.72680E-19-8.85786E-20
 -1       760 9.56776E-05-2.79550E-05-2.90240E-05 2.00463E-06-3.21141E-19 1.22563E-19
 -1       761 9.55120E-05-2.79524E-05-2.89541E-05 2.44768E-06 1.09047E-19 2.37629E-19
 -1       762 9.53254E-05-2.78280E-05-2.89275E-05 2.87596E-06 2.94700E-20 6.30456E-19
 -1       763 9.51306E-05-2.76276E-05-2.89298E-05 3.34088E-06-4.06653E-19 7.32253E-19
 -1       764 9.49428E-05-2.73975E-05-2.89479E-05 3.87857E-06-4.10336E-19 1.45952E-18
 -1       765 9.47870E-05-2.71930E-05-2.89688E-05 4.51065E-06-1.36750E-19 7.21964E-19
 -1       766 9.47058E-05-2.70873E-05-2.89793E-05 5.24360E-06-2.97483E-19 3.39701E-19
 -1       767 9.47701E-05-2.71808E-05-2.89667E-05 6.06648E-06-2.07097E-19-1.64505E-19
 -1       768 9.50927E-05-2.76105E-05-2.89208E-05 6.94600E-06-5.20888E-19-2.72695E-19
 -1       769 9.58449E-05-2.85559E-05-2.88381E-05 7.81565E-06-3.22316E-19-4.12201E-19
 -1       770 9.72689E-05-3.02313E-05-2.87306E-05 8.55200E-06 3.91805E-20 7.83534E-20
 -1       771 9.96727E-05-3.28454E-05-2.86407E-05 8.92979E-06 1.45155E-19 1.47790E-19
 -1       772 1.03372E-04-3.64873E-05-2.86657E-05 8.55214E-06-1.52659E-19 6.78171E-19
 -1       773 1.08516E-04-4.08683E-05-2.89894E-05 6.75180E-06-3.43054E-22 3.09268E-19
 -1       774 1.14597E-04-4.47567E-05-2.99283E-05 2.71885E-06-2.89070E-19-4.32618E-19
 -1       775 1.19990E-04-4.55214E-05-3.19312E-05-4.08315E-06-4.43342E-19-8.36577E-20
 -1       776 1.21870E-04-4.02527E-05-3.51308E-05-1.14041E-05-9.68794E-21 3.40856E-19
 -1       777 1.11087E-04-1.58618E-05-4.10977E-05-6.81594E-06 8.09975E-20 1.25551E-18
 -1       778 1.10915E-04-1.44237E-05-4.17069E-05 5.60595E-06 7.27098E-19 3.19572E-19
 -1       779 1.15243E-04-4.49901E-05-3.01072E-05-2.09107E-06 1.04877E-18 8.08073E-19
 -1       780 1.09185E-04-4.13030E-05-2.90787E-05-6.34163E-06-8.12168E-20 1.72690E-18
 -1       781 1.03900E-04-3.69076E-05-2.87070E-05-8.30458E-06-6.02619E-19 1.39875E-18
 -1       782 1.00014E-04-3.31250E-05-2.86666E-05-8.77998E-06-1.92903E-18-5.10681E-20
 -1       783 9.74525E-05-3.03550E-05-2.87562E-05-8.41602E-06-1.46362E-18 1.30090E-18
 -1       784 9.59061E-05-2.85386E-05-2.88716E-05-7.64477E-06-1.01356E-18 7.86752E-19
 -1       785 9.50600E-05-2.74742E-05-2.89652E-05-6.70581E-06 5.02108E-19-4.25969E-19
 -1       786 9.46624E-05-2.69463E-05-2.90210E-05-5.73222E-06 1.37679E-18-9.51095E-19
 -1       787 9.45323E-05-2.67720E-05-2.90400E-05-4.79725E-06 8.89605E-19-1.20652E-19
 -1       788 9.45488E-05-2.68125E-05-2.90298E-05-3.94027E-06 8.03984E-20 5.08209E-20
 -1       789 9.46355E-05-2.69688E-05-2.89999E-05-3.18047E-06-6.56451E-19-1.12497E-18
 -1       790 9.47460E-05-2.71740E-05-2.89594E-05-2.52383E-06 7.99940E-19-4.15713E-18
 -1       791 9.48553E-05-2.73851E-05-2.89157E-05-1.96868E-06-2.32989E-19-1.90082E-18
 -1       792 9.49724E-05-2.75852E-05-2.88801E-05-1.55938E-06-2.90389E-18-6.78068E-19
 -1       793 1.14341E-04-5.10906E-05-2.70148E-05-1.83783E-05-4.71639E-19 6.13377E-19
 -1       794 1.27467E-04-4.10088E-05-3.72351E-05-1.17183E-05 8.53624E-19 3.66951E-19
 -1       795 9.54362E-05-2.79707E-05-2.89137E-05-2.47934E-06 6.86672E-19-5.58076E-19
 -1       796 9.49454E-05-2.72391E-05-2.90168E-05-4.02769E-06-2.04595E-20-5.02377E-19
 -1       797 9.47100E-05-2.68347E-05-2.90892E-05-4.76105E-06 1.03690E-19-5.21601E-19
 -1       798 9.44277E-05-2.63951E-05-2.91565E-05-5.65508E-06 6.10600E-20 6.25582E-20
 -1       799 9.41063E-05-2.59742E-05-2.91991E-05-6.72616E-06 1.36755E-19-1.94061E-19
 -1       800 9.37837E-05-2.56684E-05-2.91918E-05-7.98220E-06-1.14262E-19 3.38646E-19
 -1       801 9.35563E-05-2.56451E-05-2.91042E-05-9.42436E-06 1.81951E-19-2.93872E-19
 -1       802 9.36280E-05-2.61829E-05-2.89044E-05-1.10468E-05-2.11542E-19-5.80418E-19
 -1       803 9.43841E-05-2.77148E-05-2.85714E-05-1.28226E-05-1.64428E-19 5.40393E-20
 -1       804 9.64654E-05-3.08420E-05-2.81230E-05-1.46726E-05-2.69279E-19-5.49331E-21
 -1       805 1.00963E-04-3.62329E-05-2.77237E-05-1.60332E-05-2.83602E-19 3.16588E-19
 -1       806 1.05292E-04-4.05509E-05-2.77224E-05 1.63679E-05 1.84488E-19-3.23602E-18
 -1       807 9.86827E-05-3.34728E-05-2.79469E-05 1.53906E-05-1.04906E-19-1.85266E-18
 -1       808 9.53929E-05-2.91097E-05-2.84042E-05 1.36340E-05-4.69398E-19-8.79834E-19
 -1       809 9.39931E-05-2.67773E-05-2.88056E-05 1.17748E-05-3.44072E-19 8.01111E-19
 -1       810 9.35915E-05-2.57398E-05-2.90786E-05 1.00075E-05 1.14325E-18 1.25270E-18
 -1       811 9.36673E-05-2.54696E-05-2.92270E-05 8.39395E-06 3.57553E-19 1.84976E-18
 -1       812 9.39279E-05-2.56100E-05-2.92786E-05 6.94839E-06-1.17768E-18 1.83390E-18
 -1       813 9.42263E-05-2.59417E-05-2.92644E-05 5.67436E-06-2.67454E-18 1.09658E-19
 -1       814 9.44963E-05-2.63372E-05-2.92107E-05 4.57064E-06-1.16220E-18-1.64015E-18
 -1       815 9.47150E-05-2.67271E-05-2.91374E-05 3.63071E-06-8.22432E-19-2.30422E-18
 -1       816 9.48790E-05-2.70762E-05-2.90581E-05 2.84202E-06 3.92484E-19-4.67423E-19
 -1       817 9.49948E-05-2.73697E-05-2.89820E-05 2.19294E-06 1.52931E-18 7.25036E-19
 -1       818 9.50662E-05-2.76003E-05-2.89138E-05 1.66012E-06 3.21227E-18-2.60836E-18
 -1       819 9.50303E-05-2.76551E-05-2.88754E-05 1.37249E-06 3.08379E-18-9.67143E-19
 -1       820 9.38753E-05-2.65960E-05-2.88340E-05-5.73268E-07-4.13385E-19 2.56363E-18
 -1       821 9.37693E-05-2.64927E-05-2.88329E-05-5.77989E-08-4.32612E-19-9.25962E-19
 -1       822 8.93403E-05-3.73613E-05-2.21299E-05-2.75240E-05-8.38821E-19-1.26262E-18
 -1       823 5.60366E-05-1.81281E-05-1.59634E-05 2.14965E-05 4.25197E-19 4.10811E-20
 -1       824 9.47086E-05-2.27363E-05-3.08415E-05-3.97898E-06-7.62110E-19-2.96901E-19
 -1       825 9.41254E-05-2.68283E-05-2.88417E-05-1.00952E-06-1.00535E-18-2.21611E-19
 -1       826 1.24513E-04-5.55260E-05-2.94427E-05 1.09033E-05 1.08067E-18-1.63414E-18
 -1       827 9.44900E-05-2.71644E-05-2.88540E-05-1.31038E-06-1.15113E-18-2.09962E-19
 -1       828 9.55542E-05-2.79800E-05-2.89603E-05-2.01846E-06 5.36852E-20-6.18684E-19
 -1       829 9.51388E-05-2.75771E-05-2.89549E-05-3.42916E-06 5.80451E-19-5.71534E-19
 -1       830 9.52994E-05-2.78276E-05-2.89164E-05-2.92899E-06 7.40796E-19-8.35941E-19
 -1       831 9.56516E-05-2.78165E-05-2.90722E-05-1.46783E-06-8.33643E-21-5.67496E-19
 -1       832 1.06632E-04-4.76179E-05-2.52264E-05 2.30928E-05 2.48326E-19-7.04129E-20
 -1       833 4.93227E-05-1.17884E-05-1.57926E-05 3.75510E-07 4.00911E-19 1.62262E-18
 -1       834 1.26178E-04-5.47053E-05-3.06455E-05 7.04709E-06 2.93019E-19 1.14391E-18
 -1       835 7.81880E-05-3.32922E-05-1.89916E-05 3.15091E-05 7.67220E-19-2.15861E-20
 -1       836 4.97591E-05-1.29569E-05-1.54401E-05 9.89030E-06-2.89349E-18-1.58210E-18
 -1       837 9.52321E-05-2.43734E-05-3.03679E-05 3.24097E-06 5.94021E-19-5.39175E-19
 -1       838 9.57130E-05-2.74179E-05-2.92692E-05-7.28816E-07 2.66345E-19-4.86873E-19
 -1       839 1.23005E-04-5.45330E-05-2.93834E-05-1.11338E-05 2.30434E-18-1.23300E-18
 -1       840 9.31224E-05-1.95122E-05-3.15483E-05 1.16557E-06-1.92064E-19-1.18776E-18
 -1       841 9.30030E-05-1.93018E-05-3.15873E-05 1.91050E-08-1.67546E-19-1.31398E-18
 -1       842 9.40123E-05-2.11765E-05-3.12145E-05 3.15900E-06 1.68620E-19-1.12174E-18
 -1       843 9.56950E-05-2.66815E-05-2.95774E-05 3.17402E-07 2.88519E-19-3.85397E-19
 -1       844 1.16701E-04-2.54638E-05-3.92682E-05-1.35126E-05-1.23881E-18 1.17095E-18
 -1       845 1.20119E-04-4.72874E-05-3.12462E-05 9.48492E-07 1.13606E-18 1.44480E-18
 -1       846 6.41138E-05-1.97846E-05-1.88308E-05 1.96091E-05-1.63507E-18 1.47155E-18
 -1       847 8.99923E-05-3.62918E-05-2.28327E-05 2.59158E-05 2.16430E-19 1.97233E-20
 -1       848 9.54161E-05-4.16917E-05-2.29628E-05 2.70779E-05 8.84210E-19 1.43800E-18
 -1       849 9.39875E-05-2.11273E-05-3.12262E-05-3.15737E-06-6.04291E-19-5.99258E-19
 -1       850 9.40422E-05-2.67200E-05-2.88524E-05 9.46253E-07 9.82813E-20 8.98357E-19
 -1       851 9.34360E-05-2.00914E-05-3.14341E-05-2.20747E-06-4.16777E-19-8.03960E-19
 -1       852 9.38250E-05-2.65339E-05-2.88391E-05 4.70462E-07-4.55330E-19-4.62005E-19
 -1       853 9.55287E-05-2.57326E-05-2.99121E-05 1.56522E-06 5.05578E-19-3.94315E-19
 -1       854 5.78476E-05-1.49959E-05-1.82013E-05-1.13841E-05 1.62907E-19 3.07380E-19
 -1       855 1.13124E-04-5.08264E-05-2.66247E-05-1.87870E-05 1.05352E-18-1.72822E-18
 -1       856 9.43470E-05-2.69931E-05-2.88657E-05 1.23808E-06 5.61322E-19 2.42131E-19
 -1       857 6.18436E-05-1.96446E-05-1.79089E-05-2.11981E-05-4.39253E-19 3.42320E-19
 -1       858 9.34726E-05-2.01392E-05-3.14288E-05 2.24993E-06 1.33856E-19-9.26267E-19
 -1       859 9.47165E-05-2.73613E-05-2.88656E-05-1.46105E-06-2.54538E-18-1.18193E-18
 -1       860 9.60073E-05-2.65087E-05-2.97851E-05 1.58081E-07-3.23763E-19-3.07671E-19
 -1       861 9.60634E-05-2.72611E-05-2.94868E-05 9.09578E-07-1.75823E-19-2.48071E-19
 -1       862 9.59417E-05-2.76372E-05-2.92734E-05 1.48215E-06-3.37785E-19 1.33541E-20
 -1       863 9.56952E-05-2.77337E-05-2.91264E-05 1.94627E-06-5.03769E-20 1.92276E-19
 -1       864 9.53583E-05-2.76247E-05-2.90287E-05 2.36836E-06 6.99746E-20 8.21120E-20
 -1       865 9.49534E-05-2.73703E-05-2.89642E-05 2.80405E-06-1.48908E-19 2.85767E-19
 -1       866 9.44980E-05-2.70246E-05-2.89172E-05 3.29818E-06-2.91749E-19 1.18206E-19
 -1       867 9.40124E-05-2.66443E-05-2.88720E-05 3.88663E-06-4.66973E-19 2.68922E-19
 -1       868 9.35275E-05-2.62985E-05-2.88124E-05 4.59817E-06-3.80098E-19-6.38285E-20
 -1       869 9.30960E-05-2.60791E-05-2.87215E-05 5.45580E-06-6.11704E-19-3.34603E-19
 -1       870 9.28054E-05-2.61110E-05-2.85832E-05 6.47793E-06-6.98298E-19-4.35937E-20
 -1       871 9.27978E-05-2.65658E-05-2.83851E-05 7.67776E-06-1.31810E-19 1.40124E-19
 -1       872 9.32970E-05-2.76744E-05-2.81242E-05 9.05242E-06-2.78275E-19 8.39272E-19
 -1       873 9.46426E-05-2.97325E-05-2.78188E-05 1.05504E-05 3.59472E-19 3.19495E-19
 -1       874 9.73123E-05-3.30689E-05-2.75317E-05 1.19807E-05-7.46158E-21 1.15562E-18
 -1       875 1.01890E-04-3.79277E-05-2.74107E-05 1.29059E-05-4.05826E-19 3.62439E-19
 -1       876 1.08963E-04-4.41525E-05-2.77373E-05 1.22193E-05-2.58716E-19-4.16002E-19
 -1       877 1.16408E-04-4.87902E-05-2.89455E-05-8.78302E-06 9.32332E-20-1.75826E-19
 -1       878 1.02725E-04-3.86316E-05-2.74636E-05-1.28132E-05 6.72854E-19-1.42084E-18
 -1       879 9.76832E-05-3.34498E-05-2.75294E-05-1.20275E-05-9.26740E-19-4.58435E-19
 -1       880 9.47857E-05-2.98917E-05-2.78125E-05-1.05659E-05-1.09859E-18 1.30113E-18
 -1       881 9.32706E-05-2.76495E-05-2.81229E-05-9.01625E-06-1.63981E-18 6.22826E-19
 -1       882 9.26401E-05-2.63869E-05-2.83939E-05-7.55983E-06-1.39859E-18 9.06909E-19
 -1       883 9.25402E-05-2.58056E-05-2.86003E-05-6.26374E-06 8.04470E-19 4.34576E-19
 -1       884 9.27327E-05-2.56683E-05-2.87418E-05-5.13644E-06 1.85205E-18-6.29962E-19
 -1       885 9.30651E-05-2.57995E-05-2.88280E-05-4.16820E-06 1.41720E-19-1.54620E-18
 -1       886 9.34438E-05-2.60758E-05-2.88720E-05-3.34492E-06-1.49558E-19-1.80713E-18
 -1       887 9.38142E-05-2.64131E-05-2.88861E-05-2.65338E-06-6.65361E-19 1.36640E-18
 -1       888 9.41469E-05-2.67562E-05-2.88819E-05-2.07740E-06 1.17806E-18 8.90275E-19
 -1       889 9.39059E-05-2.63406E-05-2.89565E-05-4.01729E-06 2.02109E-19-3.68404E-19
 -1       890 9.13861E-05-2.42953E-05-2.87531E-05-6.65584E-06-2.29289E-19 1.16886E-19
 -1       891 9.02911E-05-2.37278E-05-2.85270E-05-7.92173E-06 2.53651E-19 1.61367E-19
 -1       892 8.91602E-05-2.34692E-05-2.81532E-05-9.48463E-06 2.94208E-19 4.87282E-19
 -1       893 8.81812E-05-2.38242E-05-2.75818E-05-1.14825E-05-4.74416E-19-2.29135E-19
 -1       894 8.77393E-05-2.52833E-05-2.67686E-05-1.41472E-05-2.53989E-19-9.57144E-20
 -1       895 8.86398E-05-2.85131E-05-2.57481E-05-1.76949E-05 2.40844E-19-1.55560E-19
 -1       896 8.80957E-05-2.67400E-05-2.62852E-05 1.58981E-05-7.34662E-19 8.29869E-19
 -1       897 7.60363E-05-2.50394E-05-2.17161E-05-2.12402E-05 1.80286E-19-1.01911E-18
 -1       898 7.26282E-05-2.49382E-05-2.03076E-05 2.31835E-05 3.96133E-19-3.65786E-19
 -1       899 1.13405E-04-4.90661E-05-2.75299E-05 1.46411E-05 3.57313E-19 5.50739E-19
 -1       900 8.81436E-05-3.02607E-05-2.47862E-05 2.01480E-05-8.20416E-19-2.11948E-19
 -1       901 8.85884E-05-2.34158E-05-2.79305E-05 1.02873E-05 6.85329E-19 4.07227E-19
 -1       902 8.96186E-05-2.33424E-05-2.84039E-05 8.45013E-06 4.97041E-19 1.52847E-18
 -1       903 9.06886E-05-2.37160E-05-2.87024E-05 6.96046E-06 5.17797E-19 8.52212E-19
 -1       904 9.16683E-05-2.42968E-05-2.88734E-05 5.71225E-06-3.52633E-19-1.29664E-19
 -1       905 9.25060E-05-2.49412E-05-2.89563E-05 4.65046E-06-4.34634E-19-1.49200E-18
 -1       906 9.31917E-05-2.55673E-05-2.89818E-05 3.74556E-06-5.68129E-19-2.03172E-18
 -1       907 9.37376E-05-2.61342E-05-2.89727E-05 2.98050E-06-7.79047E-19-2.92114E-18
 -1       908 9.41490E-05-2.66140E-05-2.89439E-05 2.33573E-06 7.61547E-19-3.23816E-18
 -1       909 9.44700E-05-2.70133E-05-2.89092E-05 1.80620E-06 2.03632E-18-1.64869E-18
 -1       910 9.33157E-05-2.60959E-05-2.88086E-05-4.25274E-07 8.59714E-19 1.23774E-18
 -1       911 9.31122E-05-1.94975E-05-3.15503E-05-1.12957E-06-2.88616E-19-8.03014E-19
 -1       912 8.78723E-05-2.43273E-05-2.72322E-05 1.26663E-05-1.15433E-18 9.28348E-19
 -1       913 5.94552E-05-1.51282E-05-1.88577E-05 1.10691E-05 5.02363E-20-3.62735E-19
 -1       914 9.53482E-05-2.45039E-05-3.03627E-05 2.08529E-06 3.57086E-19-5.95653E-19
 -1       915 9.23647E-05-2.49861E-05-2.88765E-05-5.60900E-06-3.88773E-19-1.99551E-19
 -1       916 9.32034E-05-2.56896E-05-2.89344E-05-4.73884E-06-2.47071E-19-2.97083E-19
 -1       917 9.22875E-05-3.85090E-05-2.29655E-05-2.60084E-05 1.08933E-18-1.90469E-18
 -1       918 9.58816E-05-2.76691E-05-2.92339E-05-1.52069E-06-2.52851E-20-6.86471E-19
 -1       919 1.08610E-04-4.37289E-05-2.78287E-05-1.19004E-05 9.42955E-19-1.09807E-18
 -1       920 9.56640E-05-2.77628E-05-2.91006E-05-2.02032E-06 2.69593E-19-7.56867E-19
 -1       921 9.44883E-05-2.69006E-05-2.89661E-05-3.41893E-06 4.10803E-19-3.33279E-19
 -1       922 9.39957E-05-2.66840E-05-2.88480E-05-1.48985E-06-6.70389E-19 5.42176E-19
 -1       923 9.56948E-05-2.52570E-05-3.01873E-05-8.73506E-07-2.47701E-19-5.62307E-19
 -1       924 5.56756E-05-1.26395E-05-1.82468E-05-2.28821E-06-1.41398E-18-2.30251E-18
 -1       925 9.46918E-05-2.73192E-05-2.88740E-05 1.36591E-06 6.23633E-19 8.83093E-19
 -1       926 9.35636E-05-2.63146E-05-2.88210E-05-1.02263E-06-5.14725E-19-6.42477E-19
 -1       927 9.59877E-05-2.72946E-05-2.94398E-05-8.90409E-07 1.23744E-19-5.56683E-19
 -1       928 9.48653E-05-2.30261E-05-3.07913E-05-1.71808E-06-4.77277E-19-6.21469E-19
 -1       929 9.59344E-05-2.65475E-05-2.97374E-05-4.12624E-08 3.60043E-19-5.26802E-19
 -1       930 9.43728E-05-2.18823E-05-3.10675E-05 3.84343E-07-8.14071E-20-1.28622E-18
 -1       931 1.17979E-04-4.99307E-05-2.92034E-05 8.34908E-06 1.53889E-19 5.81442E-20
 -1       932 7.94861E-05-2.87051E-05-2.16746E-05-2.39516E-05-2.53031E-19-9.06434E-19
 -1       933 9.44724E-05-2.70874E-05-2.88790E-05-1.75298E-06-6.43845E-19-1.69553E-18
 -1       934 9.53574E-05-2.76391E-05-2.90221E-05-2.46396E-06 5.96493E-19-3.62998E-19
 -1       935 6.00064E-05-1.36854E-05-1.97549E-05 2.32946E-07 3.89485E-19 1.68181E-18
 -1       936 9.32724E-05-2.60457E-05-2.88115E-05 2.35309E-07 4.54472E-19-8.90984E-19
 -1       937 9.49673E-05-2.73413E-05-2.89825E-05-2.91389E-06 3.72429E-19-1.45058E-19
 -1       938 9.45424E-05-2.22527E-05-3.09834E-05 1.08769E-06 1.40135E-19-7.25211E-19
 -1       939 9.34504E-05-2.61786E-05-2.88310E-05 8.80190E-07 4.63183E-19 1.64753E-19
 -1       940 9.37789E-05-2.64459E-05-2.88574E-05 1.33361E-06 5.60821E-19 2.65946E-19
 -1       941 8.59916E-05-3.23566E-05-2.29262E-05 2.31990E-05 6.69967E-20 1.18775E-18
 -1       942 6.17899E-05-1.49208E-05-1.99841E-05 8.26085E-06-1.80523E-18-5.96953E-19
 -1       943 9.61065E-05-2.65365E-05-2.98159E-05 3.67812E-07 3.10809E-20-3.86832E-19
 -1       944 6.60439E-05-1.69500E-05-2.09728E-05-1.20020E-05-1.82788E-18-6.27215E-19
 -1       945 9.61009E-05-2.71942E-05-2.95315E-05 9.05826E-07 8.51513E-21-1.89896E-19
 -1       946 9.58764E-05-2.74672E-05-2.93182E-05 1.33459E-06-5.30239E-20 2.32887E-19
 -1       947 9.54857E-05-2.74459E-05-2.91599E-05 1.70840E-06-2.40944E-20 1.74149E-19
 -1       948 9.49629E-05-2.72028E-05-2.90401E-05 2.07699E-06-9.64487E-20 1.78060E-19
 -1       949 9.43308E-05-2.68002E-05-2.89417E-05 2.48455E-06-4.18757E-19 1.27671E-19
 -1       950 9.36059E-05-2.62954E-05-2.88474E-05 2.97072E-06-3.86223E-19 9.34355E-20
 -1       951 9.28066E-05-2.57502E-05-2.87385E-05 3.57407E-06-4.00183E-19-8.57533E-20
 -1       952 9.19607E-05-2.52406E-05-2.85943E-05 4.33515E-06-4.24711E-19 1.80835E-19
 -1       953 9.11164E-05-2.48660E-05-2.83932E-05 5.30128E-06-3.72678E-19 3.79488E-19
 -1       954 9.03541E-05-2.47585E-05-2.81127E-05 6.53414E-06-1.91111E-19 9.94201E-19
 -1       955 8.98138E-05-2.51053E-05-2.77326E-05 8.11661E-06-2.23654E-19 7.90784E-19
 -1       956 8.97266E-05-2.61668E-05-2.72420E-05 1.01448E-05 4.22313E-20 5.65701E-19
 -1       957 9.04810E-05-2.83219E-05-2.66447E-05 1.27335E-05 7.26888E-19 1.59480E-21
 -1       958 9.29210E-05-3.21581E-05-2.60430E-05 1.58221E-05-4.76800E-19-1.33968E-19
 -1       959 1.03329E-04-4.30063E-05-2.58184E-05-1.91201E-05 2.32266E-19-9.13253E-19
 -1       960 8.64309E-05-2.16855E-05-2.77484E-05-6.83226E-06 2.08018E-19-1.75709E-21
 -1       961 9.35646E-05-2.61132E-05-2.89077E-05-3.03040E-06 4.53475E-19-3.35979E-19
 -1       962 9.43659E-05-2.18728E-05-3.10685E-05-3.60249E-07-2.27914E-19-1.06853E-18
 -1       963 9.05795E-05-2.85059E-05-2.66101E-05-1.29290E-05-3.59186E-19-1.10154E-18
 -1       964 8.95851E-05-2.61216E-05-2.71995E-05-1.02887E-05-1.55216E-18-3.58110E-19
 -1       965 8.95363E-05-2.48876E-05-2.77061E-05-8.14487E-06-8.21563E-19-5.41788E-19
 -1       966 8.99604E-05-2.43986E-05-2.80978E-05-6.45830E-06 4.93601E-20 2.79072E-19
 -1       967 9.06131E-05-2.43868E-05-2.83827E-05-5.12539E-06 9.40358E-19 8.25290E-19
 -1       968 9.13436E-05-2.46597E-05-2.85789E-05-4.06313E-06 4.95063E-19-7.64007E-19
 -1       969 9.20640E-05-2.50836E-05-2.87059E-05-3.20938E-06 6.41601E-19 1.46205E-18
 -1       970 9.27288E-05-2.55715E-05-2.87817E-05-2.52038E-06 1.54457E-18 2.19695E-18
 -1       971 9.32995E-05-2.60496E-05-2.88214E-05-1.96186E-06-3.38595E-19 1.32906E-18
 -1       972 8.83873E-05-2.25609E-05-2.82116E-05-5.72927E-06-8.89630E-20-8.85658E-20
 -1       973 8.16075E-05-2.08524E-05-2.60391E-05-1.04712E-05-2.33370E-19-3.02917E-19
 -1       974 7.88008E-05-2.14102E-05-2.45956E-05-1.37311E-05 5.58845E-19-1.12249E-18
 -1       975 8.71753E-05-2.17754E-05-2.80292E-05 6.04819E-06 1.20128E-18 5.47994E-19
 -1       976 9.31928E-05-3.25684E-05-2.59623E-05-1.60573E-05 4.43013E-19-1.20174E-18
 -1       977 8.88996E-05-2.26270E-05-2.84029E-05 4.99115E-06 1.10506E-18 1.32547E-18
 -1       978 8.51328E-05-2.10703E-05-2.74568E-05 7.39254E-06 5.36761E-19 1.25148E-19
 -1       979 9.03288E-05-2.35125E-05-2.86358E-05 4.11510E-06 2.98602E-19 1.27002E-18
 -1       980 9.14930E-05-2.43599E-05-2.87714E-05 3.36974E-06 6.51242E-19-8.21128E-19
 -1       981 9.24254E-05-2.51276E-05-2.88423E-05 2.72860E-06 5.46085E-19-2.06261E-18
 -1       982 9.31621E-05-2.57987E-05-2.88711E-05 2.18256E-06-1.63922E-18-1.84895E-18
 -1       983 9.60804E-05-2.72015E-05-2.95197E-05-9.37996E-07 6.98329E-20-8.21836E-19
 -1       984 9.45466E-05-2.22480E-05-3.09845E-05-1.07858E-06-3.17784E-19-7.51226E-19
 -1       985 8.27686E-05-2.06914E-05-2.66069E-05 9.24925E-06 9.86002E-20 1.71132E-19
 -1       986 7.12497E-05-2.00342E-05-2.18968E-05 1.47442E-05-3.29624E-19 1.89950E-19
 -1       987 9.51541E-05-2.36943E-05-3.06254E-05 1.60235E-06 2.07845E-19-1.18493E-18
 -1       988 9.56411E-05-2.53590E-05-3.01215E-05 1.08767E-06 2.72939E-19-5.99207E-19
 -1       989 9.00462E-05-2.35176E-05-2.85125E-05-4.85739E-06-3.03826E-19 6.74331E-20
 -1       990 8.02047E-05-2.09752E-05-2.53817E-05 1.20034E-05-6.52222E-19 8.65152E-19
 -1       991 8.41615E-05-2.10373E-05-2.70541E-05-8.32092E-06 4.46045E-19 4.52658E-19
 -1       992 9.58465E-05-2.54131E-05-3.01849E-05-3.38202E-07-1.78059E-19-5.43580E-19
 -1       993 6.95679E-05-1.80733E-05-2.19825E-05-1.26424E-05 5.10873E-19-1.20375E-19
 -1       994 9.58822E-05-2.74906E-05-2.93108E-05-1.42593E-06 1.92213E-20-6.17298E-19
 -1       995 9.60801E-05-2.65354E-05-2.98053E-05-2.97432E-07 2.07312E-19-7.34569E-19
 -1       996 9.15149E-05-3.38958E-05-2.46814E-05-2.00308E-05 1.18073E-18-1.07313E-18
 -1       997 9.75779E-05-3.80569E-05-2.54954E-05 1.90347E-05-7.64599E-19 7.08755E-20
 -1       998 9.26019E-05-2.53451E-05-2.88243E-05-3.53905E-06-1.21939E-19-2.93825E-19
 -1       999 9.43618E-05-2.67458E-05-2.89783E-05-2.59548E-06 5.36267E-19 1.45180E-19
 -1      1000 6.75796E-05-1.62223E-05-2.19837E-05 7.41861E-06-5.65455E-19-2.97593E-19
 -1      1001 9.26458E-05-2.55151E-05-2.87702E-05-1.55278E-07 1.29068E-18 6.84558E-19
 -1      1002 8.00998E-05-2.53813E-05-2.34291E-05 1.76717E-05-3.16937E-19 7.51874E-20
 -1      1003 9.14397E-05-2.44659E-05-2.87031E-05-4.13978E-06-5.83494E-19 6.40095E-20
 -1      1004 9.55174E-05-2.74725E-05-2.91623E-05-1.83055E-06 3.58909E-20-9.80755E-20
 -1      1005 9.27253E-05-2.55564E-05-2.87866E-05 6.64473E-07 4.29954E-19-6.04869E-20
 -1      1006 9.28098E-05-2.55757E-05-2.88135E-05 1.43542E-06-7.07784E-19 8.49682E-19
 -1      1007 7.42192E-05-2.05750E-05-2.29522E-05 1.51689E-05-1.17076E-18 2.69513E-18
 -1      1008 9.53412E-05-2.39598E-05-3.05912E-05 3.69079E-07 1.61156E-19-8.16369E-19
 -1      1009 9.52852E-05-2.38066E-05-3.06336E-05 6.20878E-09-1.18862E-19-1.02832E-18
 -1      1010 6.47476E-05-1.46373E-05-2.14184E-05-2.99665E-06-1.45406E-18-1.51561E-18
 -1      1011 9.28547E-05-2.57008E-05-2.87799E-05-9.48789E-07-5.21751E-19-1.10091E-18
 -1      1012 9.60157E-05-2.71509E-05-2.95134E-05 7.29737E-07 2.52747E-19-1.20150E-18
 -1      1013 9.56600E-05-2.72817E-05-2.93050E-05 1.00561E-06 7.16092E-20-6.82977E-19
 -1      1014 9.51111E-05-2.71150E-05-2.91412E-05 1.26997E-06 1.28721E-19-5.06177E-19
 -1      1015 9.43977E-05-2.67201E-05-2.90047E-05 1.55569E-06-3.00023E-19-2.67584E-19
 -1      1016 9.35396E-05-2.61604E-05-2.88770E-05 1.89666E-06-3.42331E-19-4.16401E-19
 -1      1017 9.25432E-05-2.54876E-05-2.87384E-05 2.33129E-06-4.07473E-19 1.04842E-19
 -1      1018 9.14178E-05-2.47634E-05-2.85660E-05 2.89864E-06-7.28097E-19-2.68124E-19
 -1      1019 9.01702E-05-2.40564E-05-2.83344E-05 3.65060E-06-1.30080E-19-2.32368E-20
 -1      1020 8.88273E-05-2.34643E-05-2.80134E-05 4.65878E-06 2.90725E-19 2.74625E-19
 -1      1021 8.74156E-05-2.30886E-05-2.75699E-05 6.03822E-06-2.19982E-20 8.30961E-19
 -1      1022 8.60218E-05-2.31089E-05-2.69649E-05 7.94838E-06-3.21081E-19 9.63805E-19
 -1      1023 8.48356E-05-2.37719E-05-2.61768E-05 1.06076E-05-1.59234E-19 3.71183E-19
 -1      1024 8.55994E-05-2.28349E-05-2.68995E-05-8.12243E-06-9.61249E-19-9.39793E-19
 -1      1025 8.69057E-05-2.26787E-05-2.75259E-05-6.09258E-06-7.51790E-19 2.64445E-19
 -1      1026 8.82194E-05-2.29341E-05-2.79797E-05-4.62385E-06 9.01269E-19-3.24873E-19
 -1      1027 8.94553E-05-2.34250E-05-2.82991E-05-3.53297E-06 4.24574E-19-1.10948E-19
 -1      1028 9.05772E-05-2.40391E-05-2.85166E-05-2.71004E-06 9.90681E-19 8.17826E-19
 -1      1029 9.15637E-05-2.46954E-05-2.86587E-05-2.08344E-06 1.74389E-18 8.75498E-19
 -1      1030 9.23999E-05-2.53275E-05-2.87464E-05-1.59825E-06-3.43093E-20-9.95189E-19
 -1      1031 8.54555E-05-2.09977E-05-2.76259E-05-3.81973E-06-1.89377E-19-6.95422E-20
 -1      1032 8.31618E-05-2.62791E-05-2.43888E-05-1.64796E-05-2.20143E-19-2.69130E-18
 -1      1033 8.82125E-05-2.22235E-05-2.82820E-05 2.89611E-06-3.61889E-19 1.21424E-18
 -1      1034 7.44387E-05-1.76172E-05-2.43579E-05-6.88045E-06 3.86494E-19-1.47623E-20
 -1      1035 9.50081E-05-2.72084E-05-2.90572E-05-2.20533E-06 4.04547E-19 1.66625E-19
 -1      1036 9.53386E-05-2.39614E-05-3.05924E-05-3.51963E-07-3.27948E-19-7.39313E-19
 -1      1037 8.98156E-05-2.32475E-05-2.85299E-05 2.44608E-06 1.22835E-18 4.65462E-19
 -1      1038 8.37598E-05-2.00300E-05-2.73153E-05 4.01726E-06 1.65766E-18-4.26658E-19
 -1      1039 9.11036E-05-2.41785E-05-2.86830E-05 2.04894E-06 1.31493E-18 5.96474E-19
 -1      1040 9.20403E-05-2.49186E-05-2.87659E-05 1.72988E-06-4.11530E-20 8.08981E-19
 -1      1041 7.79483E-05-2.36161E-05-2.32371E-05-1.66861E-05-5.28757E-19-2.27813E-18
 -1      1042 8.26183E-05-1.98073E-05-2.69209E-05-4.45638E-06 9.76814E-20 4.25326E-19
 -1      1043 8.06471E-05-1.89321E-05-2.64536E-05 4.83827E-06 1.50375E-19 7.18599E-19
 -1      1044 9.57674E-05-2.53835E-05-3.01627E-05 5.02514E-07 2.20618E-19-1.07057E-18
 -1      1045 7.66602E-05-1.79081E-05-2.51768E-05 6.12019E-06 1.56941E-19 2.37479E-19
 -1      1046 8.62282E-05-2.11392E-05-2.78967E-05 3.40313E-06 6.75478E-19-1.55351E-19
 -1      1047 6.90574E-05-1.57300E-05-2.28106E-05-3.48787E-06-1.44396E-19 3.85840E-19
 -1      1048 7.90629E-05-1.86591E-05-2.58864E-05-5.40792E-06 5.48436E-19 2.78368E-19
 -1      1049 9.59633E-05-2.56708E-05-3.01250E-05-2.04591E-09-7.31682E-20-7.88119E-19
 -1      1050 9.18704E-05-2.48669E-05-2.87159E-05 2.73949E-07 9.39344E-21 1.22013E-18
 -1      1051 7.05747E-05-1.64723E-05-2.31635E-05 7.05238E-06-3.38481E-19-6.34304E-19
 -1      1052 9.55919E-05-2.46288E-05-3.04111E-05 5.35970E-07 1.87600E-19-7.16439E-19
 -1      1053 8.46019E-05-2.36409E-05-2.61252E-05-1.08346E-05-1.83150E-19-2.20299E-18
 -1      1054 8.77586E-05-2.21848E-05-2.81039E-05-3.33448E-06-1.61727E-19-1.31191E-19
 -1      1055 9.60405E-05-2.71415E-05-2.95278E-05-8.28939E-07 6.81456E-20-2.54028E-19
 -1      1056 9.61371E-05-2.66455E-05-2.97815E-05 4.10646E-07 5.04704E-20-1.20473E-18
 -1      1057 9.58565E-05-2.52862E-05-3.02444E-05 3.26211E-08-1.35728E-19-7.33026E-19
 -1      1058 8.41887E-05-2.55284E-05-2.51155E-05 1.43086E-05-8.37992E-20-1.32559E-19
 -1      1059 9.25211E-05-2.53221E-05-2.87995E-05-2.24184E-06 2.69422E-19 3.26993E-19
 -1      1060 9.35924E-05-2.61101E-05-2.89213E-05-1.94646E-06 3.63657E-19 1.59270E-19
 -1      1061 9.61292E-05-2.65947E-05-2.98003E-05-4.17941E-07 7.25926E-20-1.84840E-19
 -1      1062 7.57407E-05-1.97530E-05-2.39736E-05 1.03728E-05-4.97676E-19 1.12222E-19
 -1      1063 7.36263E-05-1.85836E-05-2.35661E-05-9.65310E-06-5.95282E-19-1.61491E-18
 -1      1064 8.96519E-05-2.33249E-05-2.84264E-05-2.92340E-06-4.43593E-19-6.53525E-20
 -1      1065 9.57180E-05-2.73027E-05-2.93206E-05-1.14994E-06-7.61059E-20-6.05464E-19
 -1      1066 9.59073E-05-2.55299E-05-3.01640E-05 6.49390E-08-3.32416E-20-6.63787E-19
 -1      1067 7.38763E-05-1.67641E-05-2.44688E-05-1.29427E-07-1.03968E-20-4.99815E-19
 -1      1068 9.20043E-05-2.50034E-05-2.87147E-05-7.48195E-07 8.51710E-20-1.29072E-18
 -1      1069 9.60975E-05-2.63242E-05-2.99010E-05-2.06938E-07-8.98340E-20-6.64731E-19
 -1      1070 9.53400E-05-2.70900E-05-2.92502E-05 4.86370E-07 3.26083E-19-8.03867E-19
 -1      1071 9.46401E-05-2.67712E-05-2.90870E-05 6.26102E-07-1.76700E-19-8.02496E-19
 -1      1072 9.37459E-05-2.62177E-05-2.89396E-05 8.08583E-07-5.53198E-19-6.56426E-19
 -1      1073 9.26633E-05-2.54905E-05-2.87879E-05 1.04408E-06-2.11626E-19-7.96379E-19
 -1      1074 9.14206E-05-2.46623E-05-2.86097E-05 1.35586E-06-3.62707E-19-5.88186E-19
 -1      1075 8.99798E-05-2.37651E-05-2.83777E-05 1.80897E-06-2.58992E-19-1.41662E-20
 -1      1076 8.82910E-05-2.28209E-05-2.80537E-05 2.48984E-06 3.34498E-19 6.63164E-20
 -1      1077 8.63123E-05-2.19115E-05-2.75978E-05 3.42672E-06 5.29997E-19-4.52033E-19
 -1      1078 8.40729E-05-2.11480E-05-2.69649E-05 4.75650E-06 4.61611E-19 2.78865E-19
 -1      1079 8.15271E-05-2.06149E-05-2.61047E-05 6.70777E-06-7.70381E-19 5.48596E-19
 -1      1080 9.09647E-05-2.42035E-05-2.86152E-05-3.94592E-07 2.90006E-19 1.04679E-18
 -1      1081 9.44850E-05-2.67352E-05-2.90350E-05-1.67486E-06 1.84403E-19-3.46755E-19
 -1      1082 8.39982E-05-2.00775E-05-2.73948E-05 9.18795E-07 9.42637E-19 1.53750E-18
 -1      1083 8.56230E-05-2.13564E-05-2.75432E-05-3.44081E-06-1.15144E-21-7.12227E-19
 -1      1084 8.74806E-05-2.21452E-05-2.80014E-05-2.46861E-06 5.61156E-19-8.85200E-19
 -1      1085 8.90561E-05-2.29865E-05-2.83164E-05-1.78221E-06 1.02657E-18-8.71583E-19
 -1      1086 7.22924E-05-1.62623E-05-2.40053E-05-1.03411E-06-4.74051E-19-2.24424E-19
 -1      1087 8.34283E-05-2.06800E-05-2.68911E-05-4.81870E-06-8.55764E-19-2.29190E-19
 -1      1088 9.58795E-05-2.53643E-05-3.02209E-05-8.79787E-09-1.68661E-19-7.24359E-19
 -1      1089 8.99059E-05-2.33764E-05-2.85118E-05 9.32352E-07 1.37480E-18 1.05147E-18
 -1      1090 8.30523E-05-1.99325E-05-2.70539E-05-8.32490E-07 3.59229E-19-8.93150E-19
 -1      1091 9.12175E-05-2.43799E-05-2.86446E-05-2.56352E-06-3.93185E-19 3.88091E-19
 -1      1092 9.58410E-05-2.71315E-05-2.94473E-05 3.59872E-07 4.80054E-19-7.56935E-19
 -1      1093 8.09144E-05-1.88257E-05-2.66157E-05 7.35679E-07 6.68410E-19-9.35869E-19
 -1      1094 7.74173E-05-1.77123E-05-2.55615E-05 3.36616E-08 5.20528E-19-7.21526E-19
 -1      1095 8.64146E-05-2.12575E-05-2.79243E-05 1.00349E-06-2.14509E-19 2.68705E-18
 -1      1096 7.95371E-05-1.85754E-05-2.61315E-05-5.21455E-07 2.43076E-19-1.83096E-18
 -1      1097 9.11867E-05-2.43914E-05-2.86244E-05-1.26539E-06 4.93723E-19-2.58556E-18
 -1      1098 8.83489E-05-2.23611E-05-2.82800E-05 1.00572E-06 1.93467E-18 1.23361E-18
 -1      1099 9.51894E-05-2.71425E-05-2.91619E-05-1.42272E-06 1.19392E-19-7.26135E-19
 -1      1100 8.58502E-05-2.12228E-05-2.76978E-05-9.98924E-07-3.64947E-19-4.30617E-19
 -1      1101 8.07958E-05-2.01736E-05-2.59990E-05-6.93896E-06 2.44316E-19-1.21659E-18
 -1      1102 9.61066E-05-2.63001E-05-2.99168E-05 6.00038E-09-7.23034E-20-7.24961E-19
 -1      1103 8.81613E-05-2.24829E-05-2.81462E-05-1.09280E-06 1.50836E-21-1.24572E-19
 -1      1104 9.61244E-05-2.64328E-05-2.98676E-05 1.93527E-07-1.94362E-19-6.46569E-19
 -1      1105 9.28036E-05-2.55316E-05-2.88314E-05-9.72691E-07-5.82825E-20-7.80922E-19
 -1      1106 9.60612E-05-2.69729E-05-2.96094E-05-4.41893E-07 2.61743E-19-6.42073E-19
 -1      1107 9.04278E-05-2.38486E-05-2.85295E-05-1.29576E-06 7.18321E-19-5.65630E-19
 -1      1108 9.57308E-05-2.71768E-05-2.93808E-05-6.29331E-07 2.82299E-20-8.63478E-19
 -1      1109 9.08389E-05-2.40475E-05-2.86222E-05 8.08726E-07 1.13810E-18 5.74743E-19
 -1      1110 9.15009E-05-2.46150E-05-2.86647E-05-1.05791E-06-7.10972E-20-4.42640E-19
 -1      1111 9.60599E-05-2.69022E-05-2.96387E-05 2.90312E-07 3.23384E-19-7.99527E-19
 -1      1112 9.51761E-05-2.70434E-05-2.92001E-05-7.77980E-07-1.23776E-19-8.99465E-19
 -1      1113 9.41362E-05-2.64379E-05-2.90151E-05-2.21274E-07-7.70977E-20-1.60251E-18
 -1      1114 8.86715E-05-2.28620E-05-2.82088E-05 2.30460E-07-1.08620E-19-3.13222E-19
 -1      1115 9.56013E-05-2.71218E-05-2.93479E-05-1.84963E-07 2.45271E-19-9.73270E-19
 -1      1116 9.49714E-05-2.69038E-05-2.91703E-05-2.14681E-07 2.65272E-21-1.61542E-18
 -1      1117 8.99933E-05-2.36083E-05-2.84502E-05-1.11851E-06-2.43892E-19-5.08457E-19
 -1      1118 9.04017E-05-2.39270E-05-2.84928E-05 2.89443E-08-3.70426E-19-1.19753E-19
 -1      1119 9.60429E-05-2.69369E-05-2.96169E-05-4.78393E-08 2.44588E-19-5.36149E-19
 -1      1120 1.16659E-04 2.57029E-10-4.17879E-05-4.14087E-05-8.21622E-20 5.98281E-18
 -1      1121 8.85543E-05 7.18379E-11-3.72109E-05-2.41437E-05-6.98802E-20 2.13383E-18
 -1      1122 8.40423E-05 4.14569E-11-3.57504E-05-1.78571E-05-6.45333E-20 2.57220E-19
 -1      1123 8.23440E-05 3.20378E-11-3.50757E-05-1.38117E-05-4.58457E-20-7.77219E-19
 -1      1124 8.15740E-05 2.73203E-11-3.47558E-05-1.05070E-05-3.90959E-20-1.33803E-18
 -1      1125 8.11950E-05 2.45640E-11-3.46007E-05-7.61524E-06-2.66815E-20-1.70836E-18
 -1      1126 8.10005E-05 2.28696E-11-3.45240E-05-4.95965E-06-2.02295E-20-1.96518E-18
 -1      1127 8.09066E-05 2.19483E-11-3.44886E-05-2.42140E-06-1.93593E-20-2.13385E-18
 -1      1128 8.08803E-05 2.16693E-11-3.44788E-05 5.17252E-08-1.59158E-20-2.25422E-18
 -1      1129 8.09114E-05 2.19946E-11-3.44902E-05 2.52751E-06 3.21277E-21-2.36669E-18
 -1      1130 8.10102E-05 2.29725E-11-3.45273E-05 5.07439E-06 6.61744E-24-2.46139E-18
 -1      1131 8.12116E-05 2.47262E-11-3.46053E-05 7.74641E-06 5.59836E-21-2.43681E-18
 -1      1132 8.15973E-05 2.76357E-11-3.47624E-05 1.06666E-05 1.68215E-20-2.30300E-18
 -1      1133 8.23680E-05 3.25156E-11-3.50856E-05 1.40189E-05 3.05197E-20-2.02721E-18
 -1      1134 8.40373E-05 4.19280E-11-3.57701E-05 1.81088E-05 5.14573E-20-1.39547E-18
 -1      1135 8.82515E-05 6.66662E-11-3.72805E-05 2.39873E-05 7.60212E-20 1.15223E-19
 -1      1136 1.06435E-04 1.63602E-10-4.05673E-05 3.61472E-05 1.98206E-19 3.75543E-18
 -1      1137 1.29963E-04-2.57028E-05-4.01984E-05-2.60662E-05-4.45116E-19 8.50590E-18
 -1      1138 9.72417E-05-2.87985E-05-3.15113E-05-6.80521E-07-1.23508E-19 7.41546E-18
 -1      1139 8.99601E-05-2.69673E-05-2.78327E-05 3.85465E-07-1.40819E-20 5.80490E-18
 -1      1140 8.80652E-05-2.65181E-05-2.65891E-05 2.48987E-07-6.40635E-20 4.45788E-18
 -1      1141 8.77330E-05-2.63997E-05-2.63413E-05 1.63855E-07-2.89646E-20 3.62326E-18
 -1      1142 8.81372E-05-2.64905E-05-2.64407E-05 1.15835E-07-7.20152E-20 3.25316E-18
 -1      1143 8.88986E-05-2.66983E-05-2.66671E-05 8.53325E-08-4.29662E-20 3.14469E-18
 -1      1144 8.98332E-05-2.69671E-05-2.69472E-05 6.45728E-08 1.71355E-20 2.52342E-18
 -1      1145 9.08499E-05-2.72660E-05-2.72525E-05 4.98408E-08 7.76683E-20 2.25917E-18
 -1      1146 9.19100E-05-2.75811E-05-2.75722E-05 3.94622E-08 7.87683E-21 1.87139E-18
 -1      1147 9.30090E-05-2.79098E-05-2.79047E-05 3.27126E-08 9.20942E-21 1.43974E-18
 -1      1148 9.41659E-05-2.82571E-05-2.82558E-05 2.93369E-08 1.18059E-21 1.61500E-18
 -1      1149 9.54160E-05-2.86330E-05-2.86355E-05 2.93278E-08-1.94036E-21 1.15806E-18
 -1      1150 9.68037E-05-2.90502E-05-2.90566E-05 3.27866E-08-7.42184E-20 6.29815E-19
 -1      1151 9.83750E-05-2.95221E-05-2.95320E-05 3.97733E-08-7.19271E-20 1.03652E-18
 -1      1152 1.00167E-04-3.00590E-05-3.00714E-05 5.00679E-08-1.65204E-19 3.23739E-19
 -1      1153 1.02190E-04-3.06634E-05-3.06762E-05 6.27655E-08-7.86241E-20-5.99216E-19
 -1      1154 1.04409E-04-3.13239E-05-3.13326E-05 7.56251E-08 1.13451E-19-9.85099E-19
 -1      1155 1.06710E-04-3.20052E-05-3.20025E-05 8.41535E-08 4.78553E-20-3.67017E-19
 -1      1156 1.08864E-04-3.26388E-05-3.26141E-05 8.06267E-08-2.85485E-20-2.97229E-19
 -1      1157 1.10499E-04-3.31134E-05-3.30548E-05 5.37933E-08-8.36826E-20-3.30019E-19
 -1      1158 1.11099E-04-3.32771E-05-3.31770E-05-9.10827E-09-3.14990E-21-1.86781E-19
 -1      1159 1.10081E-04-3.29599E-05-3.28248E-05-1.15782E-07-8.05773E-20-2.54705E-19
 -1      1160 1.06989E-04-3.20335E-05-3.18941E-05-2.56695E-07-9.05796E-20 4.64201E-19
 -1      1161 1.01820E-04-3.05049E-05-3.04164E-05-3.92446E-07 5.06152E-20 2.48234E-19
 -1      1162 9.53411E-05-2.86073E-05-2.86287E-05-4.55215E-07 1.86478E-19 1.19718E-18
 -1      1163 8.91539E-05-2.68093E-05-2.69653E-05-3.80570E-07 4.12826E-19 2.60913E-18
 -1      1164 8.52266E-05-2.56746E-05-2.59268E-05-1.60756E-07-2.19633E-20 1.46283E-18
 -1      1165 8.49832E-05-2.56044E-05-2.58621E-05 1.26857E-07 1.74701E-21 8.08202E-19
 -1      1166 8.85136E-05-2.66243E-05-2.67940E-05 3.59913E-07 2.14657E-19 3.27765E-18
 -1      1167 9.45258E-05-2.83703E-05-2.84067E-05 4.53478E-07-4.37513E-19 3.73081E-18
 -1      1168 1.01072E-04-3.02853E-05-3.02068E-05 4.05183E-07-9.75478E-20 1.72011E-18
 -1      1169 1.06471E-04-3.18799E-05-3.17432E-05 2.74532E-07-1.30116E-19 1.09744E-18
 -1      1170 1.09846E-04-3.28893E-05-3.27518E-05 1.31365E-07-1.31019E-19-1.32111E-19
 -1      1171 1.11126E-04-3.32840E-05-3.31792E-05 1.95825E-08 1.51109E-19-2.93602E-18
 -1      1172 1.10732E-04-3.31823E-05-3.31193E-05-4.82088E-08 7.21665E-20-2.09599E-18
 -1      1173 1.09251E-04-3.27544E-05-3.27268E-05-7.83748E-08 1.56785E-19-8.39158E-19
 -1      1174 1.07219E-04-3.21582E-05-3.21543E-05-8.34911E-08 1.85610E-19 1.35323E-18
 -1      1175 1.05033E-04-3.15119E-05-3.15211E-05-7.51033E-08 5.98635E-20 3.50328E-18
 -1      1176 1.02945E-04-3.08917E-05-3.09060E-05-6.12844E-08 9.13199E-20 3.16909E-18
 -1      1177 1.01091E-04-3.03386E-05-3.03537E-05-4.67633E-08-1.90169E-19 1.56178E-18
 -1      1178 9.95244E-05-2.98697E-05-2.98832E-05-3.38631E-08-2.03441E-20-6.99696E-19
 -1      1179 9.82495E-05-2.94870E-05-2.94981E-05-2.34288E-08-2.33968E-19-1.43901E-18
 -1      1180 9.72433E-05-2.91842E-05-2.91928E-05-1.54854E-08-2.92502E-19 1.88887E-19
 -1      1181 9.64724E-05-2.89516E-05-2.89585E-05-9.61782E-09-8.03713E-20 7.46114E-19
 -1      1182 9.59031E-05-2.87795E-05-2.87855E-05-5.11407E-09 6.19934E-19 3.90476E-18
 -1      1183 9.55082E-05-2.86597E-05-2.86661E-05-9.13466E-10-4.66929E-20 4.15625E-18
 -1      1184 9.52711E-05-2.85872E-05-2.85941E-05 4.59627E-09 2.96443E-19 2.37422E-18
 -1      1185 9.51877E-05-2.85645E-05-2.85615E-05 1.44378E-08 2.75848E-19-9.77777E-20
 -1      1186 9.52066E-05-2.85619E-05-2.85479E-05 1.00309E-08 5.29118E-19 8.07647E-19
 -1      1187 1.30795E-04-3.76615E-05-3.85859E-05 1.21586E-05-8.21093E-20 6.87325E-18
 -1      1188 9.63414E-05-2.81250E-05-3.12633E-05 8.01621E-07 8.23210E-20 4.61389E-18
 -1      1189 9.01701E-05-2.68688E-05-2.78124E-05 1.21474E-07 6.45135E-20 2.75272E-18
 -1      1190 8.81465E-05-2.64437E-05-2.66235E-05 1.12491E-08 3.90793E-20 1.65148E-18
 -1      1191 8.77658E-05-2.63598E-05-2.63658E-05-2.19843E-08 3.76582E-20 7.14631E-19
 -1      1192 8.81485E-05-2.64697E-05-2.64528E-05-2.97829E-08 8.32152E-20-1.34361E-19
 -1      1193 8.88978E-05-2.66869E-05-2.66727E-05-2.95156E-08-7.15387E-21-3.14990E-21
 -1      1194 8.98244E-05-2.69602E-05-2.69490E-05-2.60935E-08-3.12360E-20 4.74656E-19
 -1      1195 9.08362E-05-2.72614E-05-2.72522E-05-2.10698E-08-3.77738E-20-1.10750E-19
 -1      1196 9.18962E-05-2.75787E-05-2.75715E-05-1.51698E-08 1.18420E-19-6.84257E-19
 -1      1197 9.30047E-05-2.79116E-05-2.79071E-05-8.88016E-09 1.01258E-19-8.69936E-19
 -1      1198 9.41897E-05-2.82683E-05-2.82674E-05-2.62766E-09 2.67167E-20-1.70361E-18
 -1      1199 9.55018E-05-2.86638E-05-2.86677E-05 3.10429E-09 1.84515E-20-1.76819E-18
 -1      1200 9.70113E-05-2.91190E-05-2.91292E-05 7.63387E-09-1.57123E-21-2.34794E-18
 -1      1201 9.88054E-05-2.96596E-05-2.96778E-05 9.88185E-09 8.38761E-22-2.88820E-18
 -1      1202 1.00984E-04-3.03148E-05-3.03429E-05 8.09528E-09 2.89712E-20-3.37983E-18
 -1      1203 1.03648E-04-3.11139E-05-3.11536E-05-4.92777E-10-8.15600E-20-3.86992E-18
 -1      1204 1.06883E-04-3.20804E-05-3.21321E-05-1.99368E-08 1.35019E-19-3.23670E-18
 -1      1205 1.10719E-04-3.32202E-05-3.32794E-05-5.53504E-08 1.48843E-20-3.25528E-18
 -1      1206 1.15054E-04-3.45008E-05-3.45533E-05-1.11107E-07 1.18638E-20-2.85286E-18
 -1      1207 1.19552E-04-3.58200E-05-3.58341E-05-1.85469E-07-1.28751E-20-1.65664E-18
 -1      1208 1.23489E-04-3.69668E-05-3.68888E-05-2.59972E-07-2.36299E-19-9.93252E-19
 -1      1209 1.25653E-04-3.75943E-05-3.73597E-05-2.85922E-07 1.43651E-19-2.81079E-18
 -1      1210 1.24450E-04-3.72533E-05-3.68308E-05-1.81592E-07 4.79765E-20-4.97044E-18
 -1      1211 1.18517E-04-3.55556E-05-3.50339E-05 1.19951E-07-3.81893E-20-4.51818E-18
 -1      1212 1.07993E-04-3.25101E-05-3.21550E-05 5.63088E-07 7.48102E-21-1.46801E-18
 -1      1213 9.57759E-05-2.88890E-05-2.90370E-05 8.97694E-07-7.95152E-20-1.31385E-18
 -1      1214 8.70855E-05-2.61968E-05-2.69382E-05 8.27086E-07-1.31780E-19-1.68787E-18
 -1      1215 8.64696E-05-2.58612E-05-2.68415E-05 3.06808E-07-1.02809E-19-1.43604E-18
 -1      1216 9.43269E-05-2.81547E-05-2.88085E-05-3.44812E-07 8.07196E-20-2.39128E-18
 -1      1217 1.06454E-04-3.18442E-05-3.19070E-05-7.28114E-07-2.07880E-19-1.54848E-18
 -1      1218 1.17443E-04-3.52267E-05-3.48506E-05-7.32972E-07 8.66323E-20 9.23266E-20
 -1      1219 1.24026E-04-3.72501E-05-3.67526E-05-5.05501E-07-1.89292E-19 2.70299E-18
 -1      1220 1.25776E-04-3.77794E-05-3.73839E-05-2.37560E-07 5.56362E-20 2.35638E-18
 -1      1221 1.23953E-04-3.72157E-05-3.69905E-05-3.66734E-08-4.09686E-20-3.86260E-19
 -1      1222 1.20186E-04-3.60685E-05-3.59840E-05 7.57513E-08-1.21465E-19-1.31362E-18
 -1      1223 1.15760E-04-3.47306E-05-3.47311E-05 1.20865E-07-5.00065E-20-4.35838E-18
 -1      1224 1.11458E-04-3.34363E-05-3.34763E-05 1.26438E-07 8.26518E-19-6.18638E-18
 -1      1225 1.07663E-04-3.22974E-05-3.23493E-05 1.13221E-07 4.59954E-20-5.81045E-18
 -1      1226 1.04503E-04-3.13503E-05-3.14004E-05 9.35738E-08 1.72496E-19-2.59253E-18
 -1      1227 1.01969E-04-3.05913E-05-3.06341E-05 7.37583E-08 1.12693E-19-2.52379E-18
 -1      1228 9.99907E-05-2.99985E-05-3.00329E-05 5.64277E-08-5.35622E-19 8.79664E-19
 -1      1229 9.84769E-05-2.95450E-05-2.95716E-05 4.23767E-08 1.69421E-19 7.81752E-19
 -1      1230 9.73393E-05-2.92041E-05-2.92243E-05 3.15523E-08-1.98907E-19 1.55395E-18
 -1      1231 9.65011E-05-2.89529E-05-2.89682E-05 2.35408E-08 6.63275E-20 1.88405E-18
 -1      1232 9.59012E-05-2.87730E-05-2.87853E-05 1.77270E-08 6.75792E-19-1.16937E-18
 -1      1233 9.54960E-05-2.86514E-05-2.86626E-05 1.32170E-08 1.96463E-19-1.29954E-18
 -1      1234 9.52592E-05-2.85801E-05-2.85908E-05 7.94287E-09 5.02610E-19-5.12775E-18
 -1      1235 9.51778E-05-2.85542E-05-2.85598E-05-2.44687E-09 3.51569E-19-7.50690E-18
 -1      1236 9.52085E-05-2.85639E-05-2.85467E-05-9.67330E-09-8.68958E-20-4.40024E-18
 -1      1237 9.52449E-05-2.86009E-05-2.85478E-05-1.00487E-08-4.55489E-18-3.70522E-19
 -1      1238 9.52489E-05-2.86241E-05-2.85626E-05-1.30097E-08-6.62287E-18-1.18776E-18
 -1      1239 9.52217E-05-2.85304E-05-2.85958E-05 8.52233E-10-7.82596E-18-4.81164E-19
 -1      1240 9.51560E-05-2.83064E-05-2.86591E-05 9.31759E-09-1.03109E-17 4.55402E-19
 -1      1241 9.50671E-05-2.80029E-05-2.87438E-05 1.30145E-08-3.63736E-18 8.83226E-19
 -1      1242 9.49742E-05-2.76865E-05-2.88328E-05 1.28818E-08-3.81844E-18 1.56809E-19
 -1      1243 9.48944E-05-2.74140E-05-2.89100E-05 1.01913E-08-1.65475E-18 3.66914E-19
 -1      1244 9.48406E-05-2.72306E-05-2.89622E-05 5.49204E-09 1.40688E-18-6.72102E-19
 -1      1245 9.48224E-05-2.71690E-05-2.89798E-05-6.64650E-11 3.99344E-18 7.80162E-19
 -1      1246 9.48427E-05-2.72381E-05-2.89603E-05-5.53319E-09 4.01149E-18 1.31655E-18
 -1      1247 9.48975E-05-2.74256E-05-2.89070E-05-9.98005E-09 2.47474E-18-7.01956E-19
 -1      1248 9.49774E-05-2.76975E-05-2.88299E-05-1.25887E-08-3.13763E-18 6.11640E-19
 -1      1249 9.50686E-05-2.80087E-05-2.87421E-05-1.24801E-08-1.70117E-18 9.07513E-19
 -1      1250 9.51556E-05-2.83053E-05-2.86591E-05-9.11929E-09 3.44665E-18 8.07050E-19
 -1      1251 9.52221E-05-2.85283E-05-2.85969E-05-1.52378E-09 2.21400E-18 2.65511E-19
 -1      1252 9.52424E-05-2.86115E-05-2.85634E-05 2.03450E-08 1.56243E-19-4.07100E-19
 -1      1253 9.52462E-05-2.86028E-05-2.85485E-05 1.14993E-08-3.28463E-19 5.50858E-19
 -1      1254 3.26498E-05-1.05032E-04 1.80101E-05-1.44333E-05 8.63931E-18 5.79344E-19
 -1      1255 1.70951E-05-6.48110E-05 9.31200E-06-2.60226E-05 4.49859E-18 1.52932E-18
 -1      1256 7.28577E-06-9.63230E-06-5.84037E-06-1.56124E-06 1.85331E-18 1.49671E-18
 -1      1257 3.26127E-05 2.30835E-05-2.53287E-05 5.01399E-05-1.57548E-19 8.02987E-19
 -1      1258 1.02857E-04 1.41483E-05-4.52907E-05 9.83381E-05 1.05117E-18 7.92823E-19
 -1      1259 2.01545E-04-2.97163E-05-6.32877E-05 1.08725E-04 3.75659E-19 1.59581E-18
 -1      1260 2.90857E-04-8.06096E-05-7.55629E-05 6.63262E-05 4.22193E-19 5.38713E-19
 -1      1261 3.14757E-04-9.43063E-05-7.86476E-05-1.61998E-05 1.72212E-19-1.25128E-18
 -1      1262 2.61476E-04-6.20632E-05-7.18626E-05-8.69797E-05 9.92934E-19-2.38440E-18
 -1      1263 1.65858E-04-1.18993E-05-5.72206E-05-1.11332E-04 2.75116E-18-5.08050E-18
 -1      1264 7.28852E-05 2.24045E-05-3.83121E-05-8.37422E-05 5.08304E-18-6.22400E-18
 -1      1265 1.84482E-05 1.63978E-05-1.82725E-05-3.06259E-05 6.13252E-18-5.24313E-18
 -1      1266 7.75271E-06-2.70037E-05-8.33960E-08 1.40671E-05 7.37257E-18-3.52196E-18
 -1      1267 2.42112E-05-8.33093E-05 1.33648E-05 2.58124E-05 6.14946E-18-1.87491E-18
 -1      1268 3.62326E-05-1.11571E-04 1.89810E-05 3.84106E-06 2.08910E-18-6.49145E-19
 -1      1269 2.85821E-05-9.30832E-05 1.53111E-05-2.14394E-05-1.13418E-18-1.88359E-19
 -1      1270 1.06539E-05-4.02300E-05 3.69588E-06-1.82658E-05-1.69915E-18-1.03804E-18
 -1      1271 1.25786E-05 9.49932E-06-1.37066E-05 1.95807E-05-4.37577E-18-3.46267E-18
 -1      1272 5.54805E-05 2.61721E-05-3.36069E-05 7.34276E-05-4.35206E-18-5.46167E-18
 -1      1273 1.39500E-04 3.17939E-07-5.26497E-05 1.09310E-04-2.88245E-18-4.23855E-18
 -1      1274 2.39317E-04-5.14410E-05-6.86692E-05 9.44141E-05-5.94405E-19-2.14892E-18
 -1      1275 3.04008E-04-9.01896E-05-7.69513E-05 2.94268E-05 1.19273E-19-2.24506E-18
 -1      1276 2.92082E-04-8.32900E-05-7.55283E-05-5.16284E-05 4.98691E-20-5.20502E-19
 -1      1277 2.17046E-04-3.93006E-05-6.53655E-05-1.05312E-04-1.25615E-18 2.78843E-18
 -1      1278 1.17828E-04 9.44184E-06-4.87274E-05-1.04840E-04-2.32595E-18 2.57159E-18
 -1      1279 4.09378E-05 2.63013E-05-2.88337E-05-6.10886E-05-3.97089E-18 3.40338E-18
 -1      1280 8.66100E-06-2.45240E-06-8.32106E-06-5.91370E-06-4.02341E-18 2.80537E-18
 -1      1281 1.63507E-05-5.99002E-05 8.44858E-06 2.39984E-05-5.24822E-18 2.31155E-18
 -1      1282 3.42745E-05-1.05936E-04 1.77596E-05 1.33885E-05 5.61032E-18 6.05814E-19
 -1      1283 1.04258E-04-2.19738E-05-3.78288E-05-1.72558E-05-1.55854E-19 5.31852E-18
 -1      1284 9.02393E-05-6.67445E-06-3.59846E-05-2.04450E-05-6.02399E-19 1.28643E-18
 -1      1285 9.25423E-05-6.73237E-06-3.71765E-05-2.57267E-05-7.18284E-19 2.26317E-18
 -1      1286 8.58834E-05-4.09753E-06-3.51197E-05-1.64044E-05-6.88479E-19-1.96168E-19
 -1      1287 8.71091E-05-4.08984E-06-3.55782E-05-1.88252E-05-7.40995E-19 4.59304E-19
 -1      1288 9.20676E-05-1.04556E-05-3.50679E-05-1.90000E-05-1.07846E-18 1.15297E-18
 -1      1289 8.41162E-05-3.19173E-06-3.46944E-05-1.27846E-05-6.28948E-19-1.01803E-18
 -1      1290 8.47091E-05-3.16232E-06-3.49105E-05-1.46001E-05-6.80220E-19-6.16481E-19
 -1      1291 8.78563E-05-7.39431E-06-3.45690E-05-1.53733E-05-1.10914E-18-8.52327E-20
 -1      1292 8.32335E-05-2.72672E-06-3.44911E-05-9.65453E-06-5.29389E-19-1.49346E-18
 -1      1293 8.35335E-05-2.70844E-06-3.45943E-05-1.12014E-05-5.72277E-19-1.25199E-18
 -1      1294 8.58933E-05-5.97961E-06-3.43174E-05-1.19153E-05-9.51986E-19-8.17069E-19
 -1      1295 8.27594E-05-2.45292E-06-3.43937E-05-6.88612E-06-4.10113E-19-1.82480E-18
 -1      1296 8.29206E-05-2.44467E-06-3.44442E-05-8.25480E-06-4.58437E-19-1.63409E-18
 -1      1297 8.48711E-05-5.20869E-06-3.41973E-05-8.90667E-06-8.06640E-19-1.19744E-18
 -1      1298 8.24936E-05-2.28351E-06-3.43469E-05-4.27401E-06-3.55635E-19-2.03444E-18
 -1      1299 8.25801E-05-2.27972E-06-3.43716E-05-5.57071E-06-3.78786E-19-1.93288E-18
 -1      1300 8.42981E-05-4.74621E-06-3.41424E-05-6.18466E-06-6.42115E-19-1.54255E-18
 -1      1301 8.23659E-05-2.19145E-06-3.43277E-05-1.78075E-06-2.37591E-19-2.17480E-18
 -1      1302 8.24026E-05-2.18995E-06-3.43376E-05-3.02578E-06-2.71069E-19-2.08643E-18
 -1      1303 8.39818E-05-4.47615E-06-3.41189E-05-3.62371E-06-5.23998E-19-1.66385E-18
 -1      1304 8.23408E-05-2.16310E-06-3.43258E-05 6.65802E-07-1.32746E-19-2.30664E-18
 -1      1305 8.23393E-05-2.16314E-06-3.43254E-05-5.63567E-07-1.64219E-19-2.24321E-18
 -1      1306 8.38432E-05-4.35312E-06-3.41107E-05-1.16373E-06-2.91919E-19-1.80861E-18
 -1      1307 8.24120E-05-2.19449E-06-3.43393E-05 3.13184E-06-2.20278E-20-2.41915E-18
 -1      1308 8.23721E-05-2.19604E-06-3.43287E-05 1.88409E-06-6.90599E-20-2.35209E-18
 -1      1309 8.38486E-05-4.35754E-06-3.41111E-05 1.26541E-06-1.73705E-19-1.93071E-18
 -1      1310 8.25984E-05-2.29037E-06-3.43746E-05 5.68642E-06 4.17164E-20-2.48535E-18
 -1      1311 8.25084E-05-2.29359E-06-3.43491E-05 4.38355E-06 2.15067E-20-2.45155E-18
 -1      1312 8.39985E-05-4.49021E-06-3.41203E-05 3.72996E-06-6.81680E-21-2.04097E-18
 -1      1313 8.29449E-05-2.45986E-06-3.44475E-05 8.36277E-06 1.46907E-19-2.41907E-18
 -1      1314 8.27803E-05-2.46840E-06-3.43966E-05 6.98517E-06 1.06544E-19-2.45032E-18
 -1      1315 8.43250E-05-4.76963E-06-3.41441E-05 6.27800E-06 1.31058E-19-2.08338E-18
 -1      1316 8.35805E-05-2.74086E-06-3.45996E-05 1.13621E-05 3.23064E-19-2.29584E-18
 -1      1317 8.32724E-05-2.75785E-06-3.44949E-05 9.79727E-06 2.60608E-19-2.37953E-18
 -1      1318 8.49149E-05-5.25005E-06-3.41986E-05 9.01522E-06 3.73965E-19-1.97867E-18
 -1      1319 8.47667E-05-3.20517E-06-3.49183E-05 1.48132E-05 4.89797E-19-1.99312E-18
 -1      1320 8.41738E-05-3.24190E-06-3.47001E-05 1.29718E-05 4.20102E-19-2.18917E-18
 -1      1321 8.59744E-05-6.06094E-06-3.43188E-05 1.20825E-05 6.05827E-19-1.83364E-18
 -1      1322 8.72072E-05-4.09095E-06-3.55994E-05 1.90631E-05 6.57509E-19-1.22039E-18
 -1      1323 8.59506E-05-4.15511E-06-3.51271E-05 1.66648E-05 5.71906E-19-1.67540E-18
 -1      1324 8.79810E-05-7.51672E-06-3.45711E-05 1.56123E-05 8.50950E-19-1.41552E-18
 -1      1325 9.33519E-05-6.78393E-06-3.70714E-05 2.50647E-05 6.75191E-19 4.57927E-19
 -1      1326 9.00532E-05-6.43148E-06-3.60067E-05 2.11223E-05 6.18175E-19-5.80112E-19
 -1      1327 9.22961E-05-1.06907E-05-3.50527E-05 1.96411E-05 1.05291E-18-4.50622E-19
 -1      1328 1.23407E-04-2.48765E-05-3.89491E-05 2.83267E-05 4.31034E-19 4.03781E-18
 -1      1329 9.99307E-05-1.43970E-05-3.72997E-05 2.40213E-05 4.16105E-19 1.45700E-18
 -1      1330 1.01544E-04-1.93134E-05-3.53571E-05 2.13665E-05 1.20977E-18 1.02787E-18
 -1      1331 1.02412E-04-2.77495E-05-3.46962E-05 7.32066E-06 6.98537E-19 3.69116E-18
 -1      1332 1.04962E-04-3.01755E-05-3.34681E-05-7.94591E-06-5.25902E-19 5.37421E-18
 -1      1333 9.80866E-05-2.77921E-05-3.07085E-05-4.97801E-06-5.42842E-19 4.76324E-18
 -1      1334 9.53388E-05-2.78001E-05-2.92048E-05-2.47991E-06-4.23940E-19 4.35570E-18
 -1      1335 9.31152E-05-2.75111E-05-2.81685E-05-2.03305E-06-4.67165E-19 3.72057E-18
 -1      1336 9.93492E-05-2.80123E-05-3.09415E-05-7.86525E-06-9.64400E-19 2.91755E-18
 -1      1337 9.14385E-05-2.71565E-05-2.75384E-05-8.25076E-07-3.82971E-19 3.46201E-18
 -1      1338 9.07336E-05-2.70640E-05-2.72399E-05-7.13725E-07-3.93970E-19 2.95037E-18
 -1      1339 9.46052E-05-2.77348E-05-2.87834E-05-3.09618E-06-7.82844E-19 2.32193E-18
 -1      1340 9.00026E-05-2.68867E-05-2.70026E-05-1.52714E-07-2.56856E-19 2.59510E-18
 -1      1341 8.99492E-05-2.69185E-05-2.69736E-05-9.28903E-08-2.44779E-19 2.30712E-18
 -1      1342 9.24373E-05-2.74717E-05-2.78731E-05-1.01633E-06-6.18374E-19 1.83735E-18
 -1      1343 8.97183E-05-2.68589E-05-2.69083E-05 1.88326E-07-8.31201E-20 2.21766E-18
 -1      1344 8.99641E-05-2.69574E-05-2.69796E-05 2.19923E-07-2.31892E-20 2.19531E-18
 -1      1345 9.15257E-05-2.73400E-05-2.75215E-05-1.16581E-08-2.95108E-19 1.38581E-18
 -1      1346 9.00109E-05-2.69725E-05-2.69995E-05 3.67833E-07-1.41349E-19 2.13008E-18
 -1      1347 9.04032E-05-2.71061E-05-2.71138E-05 3.83956E-07-2.55994E-19 1.88428E-18
 -1      1348 9.13427E-05-2.73459E-05-2.74364E-05 5.09205E-07-1.77430E-19 1.24521E-18
 -1      1349 9.06089E-05-2.71657E-05-2.71808E-05 4.62551E-07-1.90458E-19 1.94914E-18
 -1      1350 9.10736E-05-2.73158E-05-2.73161E-05 4.70441E-07-1.09818E-19 1.68352E-18
 -1      1351 9.15802E-05-2.74470E-05-2.74922E-05 7.86774E-07-2.99372E-19 1.23050E-18
 -1      1352 9.13735E-05-2.74019E-05-2.74111E-05 5.13983E-07-8.43935E-20 1.61667E-18
 -1      1353 9.18753E-05-2.75595E-05-2.75577E-05 5.18280E-07-1.36422E-19 1.50633E-18
 -1      1354 9.20651E-05-2.76067E-05-2.76295E-05 9.37940E-07-2.81346E-19 1.03181E-18
 -1      1355 9.22357E-05-2.76627E-05-2.76709E-05 5.47650E-07-8.22637E-20 1.22652E-18
 -1      1356 9.27618E-05-2.78250E-05-2.78254E-05 5.51551E-07-1.43114E-19 1.10088E-18
 -1      1357 9.27032E-05-2.78027E-05-2.78178E-05 1.02895E-06-3.22072E-19 7.37362E-19
 -1      1358 9.31685E-05-2.79412E-05-2.79526E-05 5.80489E-07-2.03024E-19 1.05412E-18
 -1      1359 9.37212E-05-2.81096E-05-2.81156E-05 5.86272E-07-1.19337E-19 9.55043E-19
 -1      1360 9.34475E-05-2.80240E-05-2.80417E-05 1.10157E-06-2.49749E-19 4.92884E-19
 -1      1361 9.41722E-05-2.82384E-05-2.82563E-05 6.24063E-07-1.09279E-20 7.77095E-19
 -1      1362 9.47640E-05-2.84175E-05-2.84312E-05 6.33326E-07-1.72047E-19 5.94238E-19
 -1      1363 9.42820E-05-2.82678E-05-2.82953E-05 1.18367E-06-1.22949E-19 2.86600E-19
 -1      1364 9.52656E-05-2.85609E-05-2.85874E-05 6.85851E-07-1.55603E-19 6.93207E-19
 -1      1365 9.59151E-05-2.87570E-05-2.87797E-05 6.99564E-07-1.59241E-19 2.22957E-19
 -1      1366 9.52108E-05-2.85369E-05-2.85789E-05 1.29368E-06-6.81795E-20-2.59436E-19
 -1      1367 9.64783E-05-2.89185E-05-2.89546E-05 7.69385E-07 5.17939E-20 2.95866E-19
 -1      1368 9.72070E-05-2.91390E-05-2.91703E-05 7.87796E-07-7.34185E-20 2.92997E-19
 -1      1369 9.62506E-05-2.88381E-05-2.88967E-05 1.44194E-06-1.57616E-19-8.68612E-20
 -1      1370 9.78435E-05-2.93224E-05-2.93675E-05 8.73460E-07-1.80049E-19 3.38075E-19
 -1      1371 9.86709E-05-2.95742E-05-2.96120E-05 8.95828E-07-2.97146E-19 5.33366E-20
 -1      1372 9.74240E-05-2.91802E-05-2.92542E-05 1.63004E-06-1.98598E-19-2.21804E-20
 -1      1373 9.93892E-05-2.97829E-05-2.98337E-05 9.90401E-07-2.66206E-19 3.04591E-19
 -1      1374 1.00326E-04-3.00707E-05-3.01098E-05 1.01452E-06-2.50584E-19 6.05496E-20
 -1      1375 9.87516E-05-2.95725E-05-2.96559E-05 1.84825E-06-3.06330E-19 9.76904E-20
 -1      1376 1.01126E-04-3.03058E-05-3.03550E-05 1.10334E-06-3.16615E-19 1.42847E-19
 -1      1377 1.02166E-04-3.06292E-05-3.06602E-05 1.12486E-06-3.58562E-19-5.37290E-19
 -1      1378 1.00243E-04-3.00221E-05-3.01021E-05 2.07115E-06-3.92788E-19 5.87641E-19
 -1      1379 1.03030E-04-3.08878E-05-3.09224E-05 1.18272E-06 5.57981E-20-4.43236E-19
 -1      1380 1.04137E-04-3.12377E-05-3.12450E-05 1.19431E-06 1.12816E-19-2.93788E-19
 -1      1381 1.01882E-04-3.05308E-05-3.05851E-05 2.25164E-06-2.52568E-19 1.17264E-19
 -1      1382 1.05022E-04-3.15101E-05-3.15095E-05 1.18307E-06 1.19237E-19-3.37040E-19
 -1      1383 1.06112E-04-3.18629E-05-3.18240E-05 1.17364E-06-6.01939E-20-2.79289E-19
 -1      1384 1.03617E-04-3.10904E-05-3.10844E-05 2.31459E-06 2.45129E-19 6.08160E-20
 -1      1385 1.06941E-04-3.21294E-05-3.20649E-05 1.04227E-06-2.30156E-19-5.30640E-19
 -1      1386 1.07869E-04-3.24412E-05-3.23284E-05 9.97150E-07-4.39345E-19-9.18151E-19
 -1      1387 1.05334E-04-3.16754E-05-3.15618E-05 2.15368E-06-1.73478E-19-2.44511E-19
 -1      1388 1.08525E-04-3.26692E-05-3.25075E-05 6.88639E-07 8.40515E-20-8.34102E-19
 -1      1389 1.09077E-04-3.28716E-05-3.26579E-05 5.91948E-07-3.16115E-20-6.99160E-19
 -1      1390 1.06847E-04-3.22340E-05-3.19587E-05 1.63900E-06-2.66987E-19-6.00047E-19
 -1      1391 1.09402E-04-3.30129E-05-3.27278E-05 6.31812E-08-1.32597E-19-3.14491E-19
 -1      1392 1.09314E-04-3.30154E-05-3.26914E-05-9.53175E-08-3.67731E-20-2.76086E-19
 -1      1393 1.07888E-04-3.26777E-05-3.21982E-05 6.47522E-07 1.93554E-19-8.03156E-19
 -1      1394 1.09136E-04-3.30088E-05-3.26046E-05-8.36014E-07-2.92491E-19-5.04713E-20
 -1      1395 1.08156E-04-3.27169E-05-3.23158E-05-1.04828E-06-1.29702E-19-1.78433E-19
 -1      1396 1.08125E-04-3.28761E-05-3.21972E-05-8.69500E-07-3.81628E-20-5.28550E-19
 -1      1397 1.07342E-04-3.25022E-05-3.20443E-05-1.89177E-06 9.16053E-20 1.72159E-19
 -1      1398 1.05358E-04-3.18580E-05-3.14805E-05-2.11591E-06 1.61148E-19 4.68700E-19
 -1      1399 1.07238E-04-3.26712E-05-3.18930E-05-2.78172E-06 4.59780E-20 3.23676E-19
 -1      1400 1.03900E-04-3.14068E-05-3.10397E-05-2.82092E-06 1.98811E-19 7.50180E-19
 -1      1401 1.01090E-04-3.04505E-05-3.02607E-05-2.97529E-06-4.43634E-20 7.68206E-19
 -1      1402 1.05056E-04-3.19314E-05-3.12798E-05-4.67649E-06 1.16494E-19 3.34618E-19
 -1      1403 9.92080E-05-2.98137E-05-2.97277E-05-3.21167E-06 9.13968E-20 6.95414E-19
 -1      1404 9.61411E-05-2.87338E-05-2.88944E-05-3.19884E-06 3.30641E-19 1.21705E-18
 -1      1405 1.01759E-04-3.06593E-05-3.04437E-05-5.86013E-06 1.56660E-19 5.93558E-19
 -1      1406 9.43092E-05-2.80754E-05-2.84014E-05-2.70593E-06 3.51373E-19 1.36690E-18
 -1      1407 9.18526E-05-2.71893E-05-2.77439E-05-2.47412E-06 2.45626E-19 1.40396E-18
 -1      1408 9.80281E-05-2.91054E-05-2.95675E-05-5.59206E-06 2.44055E-19 1.28175E-18
 -1      1409 9.06751E-05-2.67501E-05-2.74377E-05-1.27280E-06-1.28517E-19 1.13449E-18
 -1      1410 8.96603E-05-2.63795E-05-2.71681E-05-8.76514E-07-5.78332E-19 5.65765E-19
 -1      1411 9.49711E-05-2.77709E-05-2.88886E-05-3.54860E-06-3.60836E-19 4.25303E-19
 -1      1412 8.95875E-05-2.63523E-05-2.71490E-05 6.44662E-07 9.68198E-20 5.79285E-19
 -1      1413 9.03877E-05-2.66452E-05-2.73609E-05 1.05121E-06 4.56154E-19 7.93485E-19
 -1      1414 9.36938E-05-2.72011E-05-2.86131E-05-2.19403E-07-1.76064E-19-1.59982E-19
 -1      1415 9.14479E-05-2.70418E-05-2.76357E-05 2.31762E-06 6.93032E-19 1.25827E-18
 -1      1416 9.37661E-05-2.78793E-05-2.82554E-05 2.57469E-06 3.57368E-19 1.99789E-18
 -1      1417 9.47031E-05-2.76524E-05-2.88295E-05 3.19069E-06 8.28895E-19 7.49194E-19
 -1      1418 9.55509E-05-2.85239E-05-2.87337E-05 3.16408E-06-5.36074E-19 2.35991E-18
 -1      1419 9.85930E-05-2.95984E-05-2.95589E-05 3.20338E-06-7.12101E-19 2.06308E-18
 -1      1420 9.75954E-05-2.89189E-05-2.94690E-05 5.43523E-06 2.94946E-19 6.14192E-19
 -1      1421 1.00503E-04-3.02498E-05-3.00962E-05 3.04921E-06-3.88848E-19 2.34663E-18
 -1      1422 1.03386E-04-3.12355E-05-3.08937E-05 2.91115E-06-3.20648E-19 2.18720E-18
 -1      1423 1.01313E-04-3.04763E-05-3.03363E-05 5.92302E-06-8.47371E-19 1.69867E-18
 -1      1424 1.04919E-04-3.17164E-05-3.13532E-05 2.24821E-06-6.11750E-19 1.47116E-18
 -1      1425 1.07028E-04-3.24055E-05-3.19509E-05 2.02803E-06-1.09623E-18 3.91991E-19
 -1      1426 1.04721E-04-3.18054E-05-3.11927E-05 4.88822E-06-9.80576E-19 1.69282E-18
 -1      1427 1.07934E-04-3.26513E-05-3.22479E-05 1.18931E-06-9.32014E-19 1.99648E-19
 -1      1428 1.09046E-04-3.29877E-05-3.25737E-05 9.73359E-07-1.30615E-19-6.24052E-19
 -1      1429 1.07073E-04-3.26188E-05-3.18447E-05 3.04630E-06-1.51631E-18 9.99965E-19
 -1      1430 1.09309E-04-3.30204E-05-3.26863E-05 2.16591E-07 1.43843E-19-9.44541E-19
 -1      1431 1.09511E-04-3.30537E-05-3.27554E-05 5.18515E-08 1.69698E-19-6.91688E-19
 -1      1432 1.08136E-04-3.28893E-05-3.21947E-05 1.11765E-06-5.51491E-19 8.08407E-19
 -1      1433 1.09257E-04-3.29325E-05-3.27083E-05-4.98001E-07 1.53968E-19-3.59592E-19
 -1      1434 1.08793E-04-3.27564E-05-3.25839E-05-6.00152E-07 4.32645E-19-2.07278E-19
 -1      1435 1.08051E-04-3.27399E-05-3.22400E-05-4.45407E-07 3.26683E-19 1.56298E-18
 -1      1436 1.08195E-04-3.25436E-05-3.24237E-05-9.24890E-07 1.00172E-18-1.73073E-19
 -1      1437 1.07335E-04-3.22511E-05-3.21808E-05-9.73189E-07 6.91215E-19 1.00608E-18
 -1      1438 1.07135E-04-3.23306E-05-3.20396E-05-1.48195E-06 1.08925E-18 1.30135E-18
 -1      1439 1.06555E-04-3.19974E-05-3.19565E-05-1.11170E-06 2.13800E-19 2.86443E-19
 -1      1440 1.05524E-04-3.16610E-05-3.16597E-05-1.12172E-06 2.95588E-19 1.00561E-18
 -1      1441 1.05725E-04-3.17975E-05-3.16767E-05-2.02438E-06 7.07416E-19 9.05098E-19
 -1      1442 1.04689E-04-3.14017E-05-3.14115E-05-1.13027E-06 3.33017E-19 1.76293E-18
 -1      1443 1.03643E-04-3.10691E-05-3.11074E-05-1.11690E-06 6.93473E-19 2.19204E-18
 -1      1444 1.04103E-04-3.12354E-05-3.12312E-05-2.19017E-06 4.20963E-19 1.82210E-19
 -1      1445 1.02837E-04-3.08260E-05-3.08635E-05-1.04733E-06 1.48749E-19 2.02530E-18
 -1      1446 1.01871E-04-3.05241E-05-3.05807E-05-1.02201E-06-8.07669E-19 1.29712E-18
 -1      1447 1.02472E-04-3.07014E-05-3.07658E-05-2.10955E-06 6.58320E-19 5.88561E-19
 -1      1448 1.01143E-04-3.03088E-05-3.03581E-05-9.13714E-07-6.52675E-19 1.45373E-18
 -1      1449 1.00303E-04-3.00498E-05-3.01109E-05-8.84098E-07-7.07268E-19 3.25092E-19
 -1      1450 1.00957E-04-3.02255E-05-3.03225E-05-1.89139E-06-9.72381E-19 3.41324E-19
 -1      1451 9.96764E-05-2.98667E-05-2.99179E-05-7.63422E-07-1.10804E-18-5.66969E-19
 -1      1452 9.89773E-05-2.96535E-05-2.97114E-05-7.34092E-07-1.05983E-18-1.97731E-18
 -1      1453 9.96237E-05-2.98193E-05-2.99257E-05-1.61372E-06-1.60443E-18 3.31608E-19
 -1      1454 9.84564E-05-2.95027E-05-2.95504E-05-6.16682E-07 1.15635E-19-9.98407E-19
 -1      1455 9.78940E-05-2.93326E-05-2.93838E-05-5.90010E-07 3.73298E-20-6.96028E-19
 -1      1456 9.84970E-05-2.94838E-05-2.95860E-05-1.32622E-06-1.41385E-19-4.21715E-19
 -1      1457 9.74742E-05-2.92118E-05-2.92538E-05-4.83735E-07-4.76413E-19 7.79447E-19
 -1      1458 9.70352E-05-2.90800E-05-2.91235E-05-4.60616E-07 3.30239E-19 8.79545E-19
 -1      1459 9.75749E-05-2.92140E-05-2.93055E-05-1.05667E-06 1.10524E-18 1.24119E-18
 -1      1460 9.67065E-05-2.89857E-05-2.90216E-05-3.68055E-07 7.49254E-19 2.61264E-19
 -1      1461 9.63746E-05-2.88865E-05-2.89230E-05-3.48425E-07 6.18721E-19 1.04965E-18
 -1      1462 9.68416E-05-2.90020E-05-2.90810E-05-8.17357E-07 3.34434E-19 3.87371E-19
 -1      1463 9.61254E-05-2.88149E-05-2.88460E-05-2.68709E-07 1.06424E-18 1.42579E-18
 -1      1464 9.58859E-05-2.87434E-05-2.87749E-05-2.51868E-07 1.04310E-18 2.65332E-18
 -1      1465 9.62752E-05-2.88392E-05-2.89071E-05-6.10260E-07 1.43135E-18 7.96798E-19
 -1      1466 9.57054E-05-2.86911E-05-2.87196E-05-1.82005E-07-2.07827E-19 2.36673E-18
 -1      1467 9.55470E-05-2.86440E-05-2.86727E-05-1.66825E-07-4.20687E-19 1.77529E-18
 -1      1468 9.58533E-05-2.87177E-05-2.87776E-05-4.30795E-07 4.80603E-19 1.08852E-19
 -1      1469 9.54258E-05-2.86083E-05-2.86361E-05-1.03580E-07-2.37494E-19 1.80043E-18
 -1      1470 9.53418E-05-2.85841E-05-2.86106E-05-8.88122E-08-6.48882E-20 8.50636E-19
 -1      1471 9.55559E-05-2.86310E-05-2.86866E-05-2.71285E-07-3.63015E-19-3.45491E-19
 -1      1472 9.52682E-05-2.85606E-05-2.85889E-05-3.14257E-08-1.02789E-19 7.26094E-19
 -1      1473 9.52525E-05-2.85630E-05-2.85791E-05-1.67509E-08-1.79014E-19 5.50437E-19
 -1      1474 9.53639E-05-2.85754E-05-2.86272E-05-1.27949E-07-2.11952E-19 6.02134E-20
 -1      1475 9.52245E-05-2.85744E-05-2.85588E-05 1.69433E-08-6.21095E-19 8.19334E-19
 -1      1476 9.52591E-05-2.85693E-05-2.85812E-05-7.37308E-09-3.47140E-19 6.63900E-19
 -1      1477 9.63983E-05-2.83102E-05-2.97181E-05 2.98849E-06 5.85300E-19 2.40528E-18
 -1      1478 1.02347E-04-2.93427E-05-3.20984E-05 4.45440E-06 5.34637E-19 3.40973E-18
 -1      1479 1.02167E-04-2.66744E-05-3.26562E-05 1.27618E-05 1.04683E-18 1.95601E-18
 -1      1480 9.18698E-05-2.73806E-05-2.77136E-05 1.14400E-06 3.50883E-19 1.43074E-18
 -1      1481 9.38088E-05-2.75339E-05-2.86250E-05 1.46598E-06 3.58441E-19 2.01509E-18
 -1      1482 9.63467E-05-2.79884E-05-2.94915E-05 4.85122E-06 8.20351E-19 1.18450E-18
 -1      1483 9.00611E-05-2.69623E-05-2.70223E-05 3.19526E-07 2.30572E-19 6.79876E-19
 -1      1484 9.06655E-05-2.69768E-05-2.72915E-05 4.83098E-07 2.40974E-19 1.08391E-18
 -1      1485 9.29259E-05-2.75426E-05-2.80645E-05 1.83076E-06 6.27876E-19 6.24502E-19
 -1      1486 8.95818E-05-2.68548E-05-2.68585E-05-7.56805E-08 2.98000E-19 2.91697E-20
 -1      1487 8.96015E-05-2.67870E-05-2.68811E-05 1.50485E-08 2.39045E-19 4.81168E-19
 -1      1488 9.14071E-05-2.72803E-05-2.74919E-05 4.84634E-07 5.08703E-19 9.11884E-20
 -1      1489 8.97754E-05-2.69247E-05-2.69194E-05-2.76503E-07 5.59803E-20-9.27633E-20
 -1      1490 8.95170E-05-2.68077E-05-2.68450E-05-2.23423E-07 6.75277E-20-3.28225E-20
 -1      1491 9.09283E-05-2.72134E-05-2.73126E-05-1.86328E-07 3.04859E-19-8.61525E-20
 -1      1492 9.03258E-05-2.70950E-05-2.70877E-05-3.79989E-07-1.60479E-19 2.02335E-19
 -1      1493 8.99300E-05-2.69523E-05-2.69711E-05-3.47798E-07-7.63785E-20-3.45563E-20
 -1      1494 9.10273E-05-2.72784E-05-2.73276E-05-5.37609E-07-1.28734E-19 1.21056E-19
 -1      1495 9.10700E-05-2.73205E-05-2.73131E-05-4.33740E-07 1.19786E-19 2.20983E-19
 -1      1496 9.06057E-05-2.71656E-05-2.71760E-05-4.13228E-07 1.99930E-20 2.25906E-19
 -1      1497 9.14545E-05-2.74240E-05-2.74479E-05-7.25293E-07-3.17224E-20 9.65651E-20
 -1      1498 9.19264E-05-2.75773E-05-2.75720E-05-4.65396E-07 1.31043E-19-1.86308E-19
 -1      1499 9.14258E-05-2.74165E-05-2.74236E-05-4.50585E-07 1.56249E-19 1.65436E-22
 -1      1500 9.20758E-05-2.76179E-05-2.76304E-05-8.30694E-07 2.35104E-19 4.02440E-20
 -1      1501 9.28632E-05-2.78563E-05-2.78556E-05-4.93334E-07 1.44664E-19-6.35764E-19
 -1      1502 9.23354E-05-2.76900E-05-2.76984E-05-4.79864E-07 7.92365E-20-4.62480E-19
 -1      1503 9.28233E-05-2.78429E-05-2.78540E-05-9.02758E-07 2.77440E-19-3.89620E-19
 -1      1504 9.38824E-05-2.81584E-05-2.81645E-05-5.31091E-07 2.72606E-19-7.26145E-19
 -1      1505 9.33207E-05-2.79829E-05-2.79966E-05-5.15461E-07 1.98611E-19-5.42435E-19
 -1      1506 9.36713E-05-2.80931E-05-2.81105E-05-9.74746E-07 2.74932E-19-6.23858E-19
 -1      1507 9.50114E-05-2.84920E-05-2.85070E-05-5.89475E-07 1.84707E-19-1.08997E-18
 -1      1508 9.43965E-05-2.82999E-05-2.83226E-05-5.68626E-07 2.53665E-19-9.79370E-19
 -1      1509 9.46236E-05-2.83706E-05-2.84007E-05-1.07152E-06 3.76743E-19-3.31992E-19
 -1      1510 9.62980E-05-2.88715E-05-2.88975E-05-6.77599E-07 1.89567E-19-1.65336E-18
 -1      1511 9.56003E-05-2.86527E-05-2.86880E-05-6.48676E-07 1.33105E-19-1.55481E-18
 -1      1512 9.57060E-05-2.86838E-05-2.87319E-05-1.21303E-06 3.68798E-19-9.17227E-19
 -1      1513 9.78070E-05-2.93167E-05-2.93553E-05-8.03136E-07 7.44827E-20-2.05179E-18
 -1      1514 9.69878E-05-2.90582E-05-2.91093E-05-7.63414E-07 1.71982E-19-1.89811E-18
 -1      1515 9.69612E-05-2.90459E-05-2.91171E-05-1.41577E-06 3.49060E-19-1.34414E-18
 -1      1516 9.96153E-05-2.98510E-05-2.99035E-05-9.71692E-07 6.86097E-20-2.46157E-18
 -1      1517 9.86291E-05-2.95378E-05-2.96075E-05-9.18725E-07 1.52743E-19-2.41202E-18
 -1      1518 9.84452E-05-2.94744E-05-2.95725E-05-1.69264E-06 3.07069E-19-1.72648E-18
 -1      1519 1.01806E-04-3.05003E-05-3.05664E-05-1.18482E-06 9.65105E-20-2.71580E-18
 -1      1520 1.00604E-04-3.01165E-05-3.02064E-05-1.11697E-06 1.57318E-19-2.48583E-18
 -1      1521 1.00221E-04-2.99895E-05-3.01166E-05-2.05069E-06 2.58926E-19-1.74088E-18
 -1      1522 1.04454E-04-3.12895E-05-3.13654E-05-1.43578E-06-4.37992E-20-2.89029E-18
 -1      1523 1.02991E-04-3.08202E-05-3.09288E-05-1.35344E-06-6.86543E-20-2.94775E-18
 -1      1524 1.02351E-04-3.06128E-05-3.07665E-05-2.48562E-06 8.95671E-20-1.96771E-18
 -1      1525 1.07604E-04-3.22355E-05-3.23108E-05-1.70177E-06 2.20107E-19-2.59978E-18
 -1      1526 1.05853E-04-3.16725E-05-3.17916E-05-1.60978E-06 8.57621E-21-2.58578E-18
 -1      1527 1.04883E-04-3.13640E-05-3.15328E-05-2.97124E-06-2.27607E-20-2.33625E-18
 -1      1528 1.11220E-04-3.33357E-05-3.33872E-05-1.93125E-06-3.98316E-19-2.86639E-18
 -1      1529 1.09203E-04-3.26858E-05-3.27945E-05-1.84308E-06 1.96140E-19-2.79534E-18
 -1      1530 1.07821E-04-3.22555E-05-3.24109E-05-3.44149E-06 3.49795E-19-2.42767E-18
 -1      1531 1.15123E-04-3.45469E-05-3.45314E-05-2.02679E-06-2.33171E-19-2.30896E-18
 -1      1532 1.12950E-04-3.38476E-05-3.39028E-05-1.97073E-06-3.61770E-19-2.70100E-18
 -1      1533 1.11091E-04-3.32825E-05-3.33668E-05-3.76417E-06-4.73444E-19-2.41682E-18
 -1      1534 1.18884E-04-3.57538E-05-3.56037E-05-1.83001E-06-6.26387E-19-7.92571E-19
 -1      1535 1.16820E-04-3.50953E-05-3.50234E-05-1.85566E-06-7.01348E-19-1.56648E-18
 -1      1536 1.14477E-04-3.44059E-05-3.43197E-05-3.71211E-06-1.11176E-18-1.31094E-18
 -1      1537 1.21734E-04-3.67304E-05-3.63672E-05-1.13157E-06 4.27186E-19-8.55986E-19
 -1      1538 1.20258E-04-3.62787E-05-3.59786E-05-1.30914E-06 7.16669E-20-6.01168E-19
 -1      1539 1.17557E-04-3.55221E-05-3.51264E-05-2.95550E-06-3.46886E-19-1.22423E-20
 -1      1540 1.22559E-04-3.71184E-05-3.65041E-05 2.49476E-07 7.47910E-19-2.64640E-18
 -1      1541 1.22360E-04-3.71173E-05-3.64998E-05-1.48615E-07 5.62271E-19-1.37695E-18
 -1      1542 1.19649E-04-3.64233E-05-3.55843E-05-1.13483E-06 1.05899E-18-7.05612E-19
 -1      1543 1.20154E-04-3.64734E-05-3.57190E-05 2.26894E-06-1.22423E-20-3.16531E-18
 -1      1544 1.21960E-04-3.71872E-05-3.62750E-05 1.64770E-06 3.82356E-19-2.98936E-18
 -1      1545 1.19872E-04-3.67628E-05-3.54789E-05 1.90778E-06 7.53820E-19-1.52297E-18
 -1      1546 1.13928E-04-3.44810E-05-3.39497E-05 4.35489E-06-7.42835E-19-2.32976E-18
 -1      1547 1.18038E-04-3.60185E-05-3.50927E-05 3.67583E-06-7.11322E-19-3.53440E-18
 -1      1548 1.17415E-04-3.60909E-05-3.46971E-05 5.68665E-06-4.59833E-19-1.82316E-18
 -1      1549 1.04965E-04-3.13963E-05-3.15847E-05 5.32735E-06-2.21600E-19-9.76735E-19
 -1      1550 1.10600E-04-3.34464E-05-3.30583E-05 4.95228E-06-1.64040E-19-1.61381E-18
 -1      1551 1.12185E-04-3.41104E-05-3.33682E-05 8.67044E-06-9.24513E-19-1.54658E-18
 -1      1552 9.65382E-05-2.83720E-05-2.94745E-05 4.03795E-06-2.92041E-19-7.85941E-19
 -1      1553 1.01607E-04-3.01055E-05-3.07412E-05 4.31646E-06-4.17878E-19-1.19718E-18
 -1      1554 1.05576E-04-3.12083E-05-3.19230E-05 8.68372E-06-3.23805E-19-8.80941E-19
 -1      1555 9.27788E-05-2.70091E-05-2.85445E-05 5.99592E-07-5.29793E-20-1.03844E-18
 -1      1556 9.48091E-05-2.74968E-05-2.90395E-05 1.50993E-06-2.01700E-20-8.57250E-19
 -1      1557 1.00482E-04-2.87306E-05-3.09367E-05 4.60248E-06-4.87573E-20-9.47261E-19
 -1      1558 9.58593E-05-2.81833E-05-2.92473E-05-3.21778E-06-1.68189E-19-1.06641E-18
 -1      1559 9.37019E-05-2.71038E-05-2.87248E-05-2.17339E-06-3.83971E-19-1.29732E-18
 -1      1560 9.96957E-05-2.82263E-05-3.08357E-05-2.00569E-06-3.09935E-19-7.41028E-19
 -1      1561 1.04052E-04-3.11549E-05-3.12590E-05-5.24060E-06-4.92232E-19-9.43171E-19
 -1      1562 9.88930E-05-2.91418E-05-2.99652E-05-4.64602E-06-6.59362E-20-7.62012E-19
 -1      1563 1.03717E-04-3.01378E-05-3.16643E-05-7.48625E-06-3.94479E-19-4.51442E-19
 -1      1564 1.13214E-04-3.42985E-05-3.36613E-05-4.82780E-06-2.24341E-19-1.21337E-19
 -1      1565 1.07575E-04-3.23553E-05-3.21856E-05-4.84111E-06-2.39145E-19-8.28716E-19
 -1      1566 1.10221E-04-3.31640E-05-3.30601E-05-9.13428E-06-3.11794E-19-4.61315E-19
 -1      1567 1.19861E-04-3.64089E-05-3.55571E-05-2.91545E-06-6.43910E-19 7.64394E-19
 -1      1568 1.15802E-04-3.51910E-05-3.44324E-05-3.30619E-06-6.80419E-19-2.17423E-19
 -1      1569 1.16099E-04-3.56418E-05-3.44550E-05-7.13479E-06-5.71072E-19-4.12134E-20
 -1      1570 1.22694E-04-3.71720E-05-3.64909E-05-7.83768E-07-5.84651E-20 2.13143E-18
 -1      1571 1.20947E-04-3.67927E-05-3.59581E-05-1.24772E-06-6.67833E-20 1.26465E-18
 -1      1572 1.19455E-04-3.67872E-05-3.53812E-05-3.47838E-06-7.88389E-19 4.30160E-19
 -1      1573 1.22184E-04-3.68664E-05-3.64795E-05 8.05019E-07 1.32647E-18 6.50627E-20
 -1      1574 1.22428E-04-3.71116E-05-3.64984E-05 4.46745E-07 8.82562E-19 1.36347E-18
 -1      1575 1.19999E-04-3.67230E-05-3.56477E-05-4.05471E-08 1.22342E-18-7.41907E-19
 -1      1576 1.19526E-04-3.59388E-05-3.57992E-05 1.67932E-06-2.51599E-19-9.37679E-19
 -1      1577 1.21021E-04-3.65220E-05-3.61915E-05 1.47006E-06 3.05759E-19-6.94726E-19
 -1      1578 1.18403E-04-3.59227E-05-3.53207E-05 2.28610E-06 6.65093E-19-5.92341E-19
 -1      1579 1.15868E-04-3.47598E-05-3.47718E-05 1.98631E-06 3.65036E-19-2.62271E-18
 -1      1580 1.17923E-04-3.54582E-05-3.53468E-05 1.89776E-06 5.68672E-19-1.61380E-18
 -1      1581 1.15577E-04-3.48160E-05-3.45967E-05 3.44105E-06 1.18436E-18-1.65441E-18
 -1      1582 1.12020E-04-3.35646E-05-3.36486E-05 1.94332E-06 6.20862E-19-4.70024E-18
 -1      1583 1.14160E-04-3.42457E-05-3.42650E-05 1.93124E-06 4.49018E-19-3.92961E-18
 -1      1584 1.12281E-04-3.36678E-05-3.36848E-05 3.73538E-06 9.11381E-19-3.48487E-18
 -1      1585 1.08442E-04-3.24771E-05-3.25835E-05 1.72580E-06-3.53139E-19-4.34446E-18
 -1      1586 1.10407E-04-3.30776E-05-3.31588E-05 1.75401E-06-1.09545E-19-4.49264E-18
 -1      1587 1.09017E-04-3.26101E-05-3.27441E-05 3.52279E-06 2.13406E-19-3.84633E-18
 -1      1588 1.05345E-04-3.15480E-05-3.16513E-05 1.44647E-06-4.99640E-19-2.48177E-18
 -1      1589 1.07025E-04-3.20472E-05-3.21479E-05 1.49140E-06-4.18381E-19-3.39536E-18
 -1      1590 1.06060E-04-3.16962E-05-3.18712E-05 3.07173E-06-1.15077E-18-2.47997E-18
 -1      1591 1.02784E-04-3.07859E-05-3.08756E-05 1.16728E-06 4.22888E-20-1.32909E-18
 -1      1592 1.04157E-04-3.11856E-05-3.12838E-05 1.21558E-06-5.18510E-19-2.34495E-18
 -1      1593 1.03528E-04-3.09374E-05-3.11123E-05 2.54973E-06-7.15935E-19-1.30269E-18
 -1      1594 1.00732E-04-3.01785E-05-3.02519E-05 9.17066E-07-1.02985E-18-2.44065E-19
 -1      1595 1.01819E-04-3.04903E-05-3.05765E-05 9.62140E-07 1.33937E-20-3.08717E-19
 -1      1596 1.01440E-04-3.03245E-05-3.04806E-05 2.04674E-06-1.05255E-18 1.51835E-18
 -1      1597 9.91259E-05-2.97048E-05-2.97628E-05 7.05783E-07 1.03661E-19 1.87839E-18
 -1      1598 9.99679E-05-2.99431E-05-3.00147E-05 7.44937E-07-1.11460E-18 1.21973E-19
 -1      1599 9.97658E-05-2.98398E-05-2.99708E-05 1.60315E-06-1.26259E-18 2.29185E-18
 -1      1600 9.78932E-05-2.93420E-05-2.93869E-05 5.33536E-07-1.22478E-18 1.77124E-18
 -1      1601 9.85329E-05-2.95211E-05-2.95787E-05 5.66206E-07-1.06340E-19 1.92415E-18
 -1      1602 9.84520E-05-2.94629E-05-2.95691E-05 1.23118E-06-3.83856E-19 1.68691E-18
 -1      1603 9.69643E-05-2.90690E-05-2.91036E-05 3.95749E-07 7.86579E-19 1.90044E-18
 -1      1604 9.74414E-05-2.92011E-05-2.92468E-05 4.22483E-07 2.95719E-19 2.05490E-18
 -1      1605 9.74405E-05-2.91746E-05-2.92590E-05 9.28353E-07-1.50317E-19 2.41700E-18
 -1      1606 9.62799E-05-2.88678E-05-2.88950E-05 2.85774E-07 7.91690E-19 7.88965E-20
 -1      1607 9.66273E-05-2.89629E-05-2.89993E-05 3.07735E-07 6.83275E-19 2.96543E-19
 -1      1608 9.66767E-05-2.89576E-05-2.90246E-05 6.85160E-07 1.55241E-18 2.22275E-19
 -1      1609 9.57934E-05-2.87245E-05-2.87472E-05 1.96205E-07 8.35429E-19-1.24253E-18
 -1      1610 9.60362E-05-2.87897E-05-2.88199E-05 2.14918E-07 8.33666E-19-8.02526E-19
 -1      1611 9.61141E-05-2.87977E-05-2.88521E-05 4.88998E-07 1.36356E-18-1.17148E-18
 -1      1612 9.54719E-05-2.86293E-05-2.86500E-05 1.19813E-07 6.47028E-19-1.84500E-18
 -1      1613 9.56267E-05-2.86690E-05-2.86962E-05 1.37028E-07 6.48337E-19-9.89041E-19
 -1      1614 9.57157E-05-2.86838E-05-2.87305E-05 3.26525E-07 7.83465E-19-1.10113E-18
 -1      1615 9.52923E-05-2.85763E-05-2.85950E-05 5.02870E-08 6.09351E-19-3.61949E-18
 -1      1616 9.53692E-05-2.85925E-05-2.86188E-05 6.82677E-08 8.18665E-19-1.75649E-18
 -1      1617 9.54529E-05-2.86074E-05-2.86509E-05 1.86016E-07 1.17249E-18-1.16448E-18
 -1      1618 9.52340E-05-2.85646E-05-2.85697E-05-6.19467E-09-3.70701E-19-4.14873E-18
 -1      1619 9.52425E-05-2.85586E-05-2.85780E-05 9.37544E-09-1.69131E-19-4.56992E-18
 -1      1620 9.53024E-05-2.85675E-05-2.86027E-05 6.17695E-08 5.88187E-19-1.83582E-18
 -1      1621 9.52266E-05-2.85765E-05-2.85584E-05-1.54886E-08-2.38654E-18-2.73447E-18
 -1      1622 9.52461E-05-2.85401E-05-2.85902E-05 3.48556E-08-4.26220E-18-1.24112E-18
 -1      1623 9.52485E-05-2.85594E-05-2.85792E-05 2.03617E-08-3.44075E-18-9.12944E-19
 -1      1624 9.51992E-05-2.83909E-05-2.86341E-05 1.01931E-07-5.62673E-18-1.66512E-18
 -1      1625 9.52257E-05-2.84723E-05-2.86099E-05 8.86340E-08-3.77954E-18-2.30397E-18
 -1      1626 9.52355E-05-2.84477E-05-2.86260E-05 1.26967E-07-1.78725E-18-1.91562E-18
 -1      1627 9.51219E-05-2.81593E-05-2.86994E-05 1.51187E-07-4.12246E-18 1.84341E-18
 -1      1628 9.51655E-05-2.82896E-05-2.86624E-05 1.43186E-07-5.35994E-18 1.77843E-18
 -1      1629 9.51739E-05-2.82746E-05-2.86742E-05 2.41511E-07-1.86715E-18 1.68575E-20
 -1      1630 9.50309E-05-2.78856E-05-2.87770E-05 1.70139E-07-1.40509E-18 1.92705E-18
 -1      1631 9.50815E-05-2.80378E-05-2.87337E-05 1.68894E-07-4.39165E-18 2.65121E-18
 -1      1632 9.50918E-05-2.80480E-05-2.87343E-05 3.11895E-07-1.34788E-18 3.18429E-18
 -1      1633 9.49444E-05-2.76231E-05-2.88520E-05 1.57784E-07-2.66703E-18-1.92617E-20
 -1      1634 9.49914E-05-2.77656E-05-2.88113E-05 1.62558E-07-1.49495E-18-9.47926E-19
 -1      1635 9.50033E-05-2.78034E-05-2.87991E-05 3.22886E-07-1.88748E-18 5.08483E-19
 -1      1636 9.48739E-05-2.74079E-05-2.89138E-05 1.18027E-07-8.39064E-19 4.88960E-19
 -1      1637 9.49107E-05-2.75196E-05-2.88818E-05 1.27787E-07-2.63557E-18 1.42736E-18
 -1      1638 9.49227E-05-2.75780E-05-2.88594E-05 2.76765E-07-1.12108E-18 5.99232E-19
 -1      1639 9.48324E-05-2.72803E-05-2.89507E-05 5.89454E-08 1.03134E-18 6.20135E-19
 -1      1640 9.48520E-05-2.73399E-05-2.89336E-05 7.17235E-08-3.91108E-20 8.29665E-19
 -1      1641 9.48617E-05-2.74058E-05-2.89057E-05 1.83747E-07-1.12672E-18 1.25847E-18
 -1      1642 9.48260E-05-2.72598E-05-2.89567E-05-9.16617E-09 2.36921E-18 1.22388E-18
 -1      1643 9.48253E-05-2.72580E-05-2.89572E-05 4.50430E-09 1.62779E-18 1.14940E-18
 -1      1644 9.48298E-05-2.73152E-05-2.89303E-05 6.13384E-08 7.71829E-19 1.58150E-18
 -1      1645 9.48552E-05-2.73489E-05-2.89311E-05-7.52774E-08 3.16926E-18 1.45078E-18
 -1      1646 9.48346E-05-2.72863E-05-2.89490E-05-6.28815E-08 1.61247E-18 1.99368E-18
 -1      1647 9.48315E-05-2.73197E-05-2.89292E-05-6.99535E-08 1.58720E-18 2.92377E-19
 -1      1648 9.49152E-05-2.75324E-05-2.88783E-05-1.28864E-07 3.94706E-19-2.34622E-18
 -1      1649 9.48782E-05-2.74198E-05-2.89106E-05-1.19735E-07 2.97058E-18-2.12960E-18
 -1      1650 9.48662E-05-2.74177E-05-2.89028E-05-1.89137E-07 9.72083E-19-1.18614E-18
 -1      1651 9.49950E-05-2.77756E-05-2.88085E-05-1.60703E-07-5.03597E-19 7.78168E-19
 -1      1652 9.49484E-05-2.76346E-05-2.88488E-05-1.56442E-07 6.66296E-19-4.34421E-19
 -1      1653 9.49282E-05-2.75922E-05-2.88558E-05-2.76649E-07 1.55479E-18-2.70325E-18
 -1      1654 9.50841E-05-2.80459E-05-2.87313E-05-1.65539E-07 1.60012E-18 1.91344E-18
 -1      1655 9.50346E-05-2.78966E-05-2.87738E-05-1.67031E-07-6.41038E-19 2.75948E-18
 -1      1656 9.50080E-05-2.78169E-05-2.87955E-05-3.18363E-07 1.63094E-18 1.78266E-18
 -1      1657 9.51657E-05-2.82926E-05-2.86613E-05-1.39974E-07 2.10431E-18 8.80706E-19
 -1      1658 9.51234E-05-2.81649E-05-2.86975E-05-1.47586E-07 1.74607E-18 7.94191E-19
 -1      1659 9.50952E-05-2.80598E-05-2.87307E-05-3.05320E-07 2.10660E-18 2.71435E-18
 -1      1660 9.52262E-05-2.84706E-05-2.86100E-05-8.85314E-08 7.86024E-19-1.06091E-18
 -1      1661 9.51974E-05-2.83900E-05-2.86337E-05-1.01692E-07 1.57597E-18-1.71062E-19
 -1      1662 9.51735E-05-2.82795E-05-2.86717E-05-2.36066E-07 9.11719E-19-4.35058E-19
 -1      1663 9.52525E-05-2.85391E-05-2.85894E-05-4.40686E-08-3.07421E-19-1.80645E-19
 -1      1664 9.52470E-05-2.85141E-05-2.86015E-05-6.40049E-08 4.44359E-19-1.03965E-18
 -1      1665 9.52421E-05-2.84240E-05-2.86370E-05-1.61064E-07 4.08780E-19-1.69767E-18
 -1      1666 9.52885E-05-2.85118E-05-2.86168E-05-9.81183E-08-4.20969E-19-4.99351E-19
 -1      1667 1.94721E-05-6.16385E-05 1.28173E-05-4.65291E-06 3.61768E-18-6.60050E-19
 -1      1668 2.23804E-05-7.10945E-05 1.50524E-05 1.93701E-06 5.23562E-18-1.24747E-18
 -1      1669 1.89689E-05-3.82778E-05 3.80613E-06 1.07874E-06 2.22092E-18 3.28225E-19
 -1      1670 2.36284E-05-6.03345E-05 9.66231E-06-2.00827E-06 3.14927E-18 3.02629E-19
 -1      1671 3.56534E-05-1.30305E-05-1.18228E-05 2.73838E-05 8.06375E-19-4.97208E-19
 -1      1672 2.96545E-05-3.30635E-05-3.27518E-06 9.83784E-06 1.81943E-18 1.68560E-19
 -1      1673 7.50492E-05-2.42369E-06-3.05565E-05 5.83972E-05-4.58245E-19-7.03037E-20
 -1      1674 5.06061E-05-8.37190E-06-2.06604E-05 3.54662E-05-3.48131E-19-3.07473E-19
 -1      1675 1.37266E-04-1.61042E-05-4.88264E-05 7.62731E-05-9.74088E-20-6.60686E-20
 -1      1676 9.76604E-05-4.54872E-06-3.97022E-05 6.35733E-05 1.01644E-19 2.79521E-20
 -1      1677 2.06063E-04-4.34617E-05-6.43725E-05 6.15770E-05-1.45690E-19 2.35475E-19
 -1      1678 1.62174E-04-2.34778E-05-5.66318E-05 6.88565E-05-3.33307E-19 1.77877E-19
 -1      1679 2.54130E-04-6.43458E-05-7.43620E-05 2.56685E-05 3.85824E-19 1.60936E-20
 -1      1680 2.27054E-04-4.93919E-05-7.05551E-05 5.57123E-05 4.26163E-20 3.54907E-19
 -1      1681 2.47142E-04-5.96529E-05-7.43539E-05-2.68886E-05 5.58830E-19-1.72795E-19
 -1      1682 2.54640E-04-6.35564E-05-7.52754E-05 8.82942E-06 3.91541E-19 5.63700E-19
 -1      1683 2.00173E-04-3.81363E-05-6.54318E-05-5.90714E-05 1.53715E-18-1.58141E-18
 -1      1684 2.34120E-04-5.54563E-05-7.08080E-05-3.78863E-05 1.07044E-18-2.41828E-19
 -1      1685 1.38151E-04-1.44864E-05-5.10892E-05-7.16343E-05 2.65502E-18-3.12555E-18
 -1      1686 1.82613E-04-3.34978E-05-5.93978E-05-7.16808E-05 1.79232E-18-2.45978E-18
 -1      1687 7.82123E-05-3.26857E-06-3.29336E-05-5.46239E-05 3.66935E-18-3.26362E-18
 -1      1688 1.13623E-04-8.95329E-06-4.25526E-05-7.27721E-05 2.83756E-18-4.05559E-18
 -1      1689 4.02657E-05-1.48053E-05-1.43380E-05-2.54236E-05 4.31309E-18-3.39999E-18
 -1      1690 5.74617E-05-3.05252E-06-2.37480E-05-4.77040E-05 4.16571E-18-3.85061E-18
 -1      1691 2.52688E-05-4.26142E-05 1.89348E-06-2.56700E-06 4.47996E-18-2.23892E-18
 -1      1692 2.63270E-05-1.96444E-05-5.96217E-06-1.63401E-05 4.46895E-18-2.64105E-18
 -1      1693 2.40480E-05-6.99718E-05 1.30436E-05 2.71952E-06 3.02603E-18-1.04979E-18
 -1      1694 1.83125E-05-4.95712E-05 8.15591E-06 4.42718E-06 4.40034E-18-2.53972E-18
 -1      1695 2.20816E-05-7.28825E-05 1.55750E-05-3.39333E-06 4.31881E-19-1.33725E-18
 -1      1696 2.13431E-05-7.10958E-05 1.51783E-05 6.02741E-06 2.60717E-18-1.57400E-18
 -1      1697 1.86824E-05-5.57082E-05 1.04915E-05-4.73730E-06-4.08270E-19-1.27161E-19
 -1      1698 2.39018E-05-7.25675E-05 1.42860E-05-1.20975E-07 2.31240E-19-7.61694E-19
 -1      1699 2.42598E-05-2.59324E-05-2.41214E-06 1.37920E-05-1.55261E-18-2.51992E-18
 -1      1700 2.55161E-05-4.90997E-05 4.80332E-06 3.79370E-06-6.52215E-19-9.73029E-19
 -1      1701 4.80787E-05-4.58781E-06-1.93736E-05 4.17213E-05-2.76472E-18-2.07862E-18
 -1      1702 3.55881E-05-2.00709E-05-1.01971E-05 2.09097E-05-2.21245E-18-1.88550E-18
 -1      1703 9.81047E-05-4.97550E-06-3.80830E-05 6.86563E-05-2.89262E-18-3.56516E-18
 -1      1704 6.71658E-05-3.51498E-06-2.84386E-05 4.87280E-05-2.28021E-18-3.22296E-18
 -1      1705 1.62626E-04-2.42021E-05-5.53236E-05 7.70841E-05-1.68814E-18-1.87957E-18
 -1      1706 1.19785E-04-6.98513E-06-4.68475E-05 7.23751E-05-3.20009E-18-2.44708E-18
 -1      1707 2.23399E-04-5.10834E-05-6.84797E-05 4.52172E-05-3.56601E-19-1.26504E-18
 -1      1708 1.83846E-04-3.07340E-05-6.20622E-05 6.45460E-05-8.00976E-19-1.38405E-18
 -1      1709 2.51287E-04-6.33427E-05-7.42451E-05 5.77523E-07 2.87779E-19-1.00178E-18
 -1      1710 2.39521E-04-5.67405E-05-7.27498E-05 3.45756E-05-1.60725E-19-1.13333E-18
 -1      1711 2.29775E-04-5.17263E-05-7.07947E-05-4.71393E-05-6.96685E-19 5.82335E-19
 -1      1712 2.49836E-04-6.31418E-05-7.36553E-05-1.56208E-05-2.94344E-19-5.81488E-19
 -1      1713 1.72962E-04-2.52749E-05-5.96189E-05-7.50336E-05-1.69025E-18 1.96427E-18
 -1      1714 2.14826E-04-4.64507E-05-6.63646E-05-6.23117E-05-1.13513E-18 1.33662E-18
 -1      1715 1.06498E-04-4.05206E-06-4.29133E-05-6.90380E-05-2.14808E-18 2.11843E-18
 -1      1716 1.48509E-04-1.82094E-05-5.19392E-05-7.90308E-05-1.64451E-18 2.42336E-18
 -1      1717 5.52309E-05-3.78831E-06-2.38715E-05-4.19767E-05-3.30173E-18 2.32849E-18
 -1      1718 8.26884E-05-7.53696E-07-3.37685E-05-6.44896E-05-2.92565E-18 2.24972E-18
 -1      1719 3.16232E-05-2.95359E-05-5.14308E-06-1.39858E-05-2.66477E-18 1.02872E-18
 -1      1720 4.02238E-05-9.39101E-06-1.45878E-05-3.41020E-05-2.40727E-18 2.00323E-18
 -1      1721 2.36656E-05-5.96102E-05 9.19416E-06 1.31969E-06-1.21126E-18 1.08005E-18
 -1      1722 1.88638E-05-3.51372E-05 2.79372E-06-3.73119E-06-2.86805E-18 8.50421E-19
 -1      1723 2.35690E-05-7.60672E-05 1.59209E-05-2.89987E-06 5.53123E-18 1.86538E-18
 -1      1724 2.01073E-05-6.55779E-05 1.34806E-05 6.09863E-06 5.24313E-19 3.80784E-18
 -1      1725 1.13739E-04-3.11687E-05-3.45871E-05 4.55074E-05-1.25022E-18-6.58992E-19
 -1      1726 7.27428E-05-3.55562E-05-1.74030E-05 3.84793E-05 8.13152E-20-1.24726E-18
 -1      1727 9.52502E-05-2.85790E-05-2.85717E-05-1.04750E-08-3.29535E-18-1.17700E-18
 -1      1728 9.52581E-05-2.85328E-05-2.85959E-05 3.34901E-08-1.32083E-18-8.44764E-19
 -1      1729 1.85956E-05-4.53464E-05 7.47854E-06 1.40277E-05 1.49290E-18-1.12317E-18
 -1      1730 4.00691E-05-4.19641E-05-2.35390E-06 2.69950E-05 1.09437E-18-8.52221E-19
 -1      1731 1.12069E-05-4.71095E-05 1.12289E-05 4.33374E-07 1.75505E-18 1.16213E-18
 -1      1732 1.58372E-04-3.31113E-05-5.08235E-05 3.93442E-05-5.42525E-19-3.82012E-19
 -1      1733 1.93630E-04-3.43429E-05-6.38301E-05 2.46430E-05-5.50571E-20-4.22246E-19
 -1      1734 2.12790E-04-3.45421E-05-7.06817E-05 8.03982E-06 3.68036E-19 5.61159E-19
 -1      1735 2.01542E-04-3.13933E-05-6.80951E-05-1.07913E-05 1.02703E-18 2.04558E-19
 -1      1736 1.80058E-04-3.27294E-05-5.92133E-05-2.92540E-05 1.82747E-18-2.96462E-19
 -1      1737 1.43754E-04-3.22551E-05-4.54213E-05-4.38429E-05 1.67204E-18-1.12909E-18
 -1      1738 9.85867E-05-3.20352E-05-2.84730E-05-4.38224E-05 2.14723E-18-1.38998E-18
 -1      1739 5.91938E-05-3.67204E-05-1.17255E-05-3.43640E-05 2.45470E-18-2.20737E-18
 -1      1740 3.04179E-05-4.45114E-05 2.25134E-06-2.10349E-05 1.98883E-18-1.50158E-18
 -1      1741 1.44700E-05-4.89512E-05 1.03124E-05-7.19027E-06 9.77264E-19-1.72879E-18
 -1      1742 1.27332E-05-4.90180E-05 1.10786E-05 6.12203E-06 6.13675E-19-1.52254E-18
 -1      1743 2.61543E-05-4.47032E-05 4.35911E-06 2.17226E-05 1.10538E-19-9.00925E-19
 -1      1744 5.26714E-05-3.82379E-05-8.32823E-06 3.45797E-05-4.31987E-19-1.85818E-18
 -1      1745 8.84785E-05-3.24452E-05-2.43632E-05 4.32960E-05-9.42748E-19-1.84018E-18
 -1      1746 1.29419E-04-2.92308E-05-4.12579E-05 4.67289E-05-1.90582E-18-1.18076E-18
 -1      1747 1.69459E-04-3.03628E-05-5.61966E-05 3.61275E-05-1.47548E-18-1.64324E-19
 -1      1748 1.96082E-04-3.12922E-05-6.63641E-05 1.59291E-05-3.67401E-19-3.35849E-19
 -1      1749 2.09407E-04-3.38853E-05-6.99334E-05-3.73272E-06-1.19008E-19-2.81797E-19
 -1      1750 1.96034E-04-3.24835E-05-6.51927E-05-2.68995E-05-1.73705E-18 8.12305E-19
 -1      1751 1.63170E-04-2.99790E-05-5.36292E-05-4.37388E-05-1.68941E-18 1.97782E-18
 -1      1752 1.18776E-04-2.81589E-05-3.75742E-05-4.77150E-05-2.16332E-18 1.67289E-18
 -1      1753 7.76391E-05-3.34103E-05-1.99137E-05-4.13710E-05-1.59750E-18 1.40226E-18
 -1      1754 4.27237E-05-4.01956E-05-3.72854E-06-3.04157E-05-1.06218E-18 7.63918E-19
 -1      1755 1.93388E-05-4.82427E-05 8.02550E-06-1.46058E-05 1.69195E-18 4.01176E-18
 -1      1756 1.05884E-04-2.31299E-05-3.55501E-05-1.68275E-05-6.68891E-19 4.47636E-18
 -1      1757 8.91549E-05-1.05829E-05-3.37990E-05-1.32794E-05-1.17813E-18-1.37643E-19
 -1      1758 9.04636E-05-1.16266E-05-3.39292E-05-1.50892E-05-1.29378E-18 3.12026E-19
 -1      1759 9.24437E-05-1.38670E-05-3.38373E-05-1.59607E-05-1.21918E-18 8.67282E-19
 -1      1760 9.41296E-05-1.58078E-05-3.40700E-05-1.76230E-05-1.22554E-18 1.52450E-18
 -1      1761 9.33850E-05-1.63362E-05-3.30356E-05-1.37200E-05-1.31129E-18 6.20796E-19
 -1      1762 8.62622E-05-7.65567E-06-3.37596E-05-7.81730E-06-8.83856E-19-1.00665E-18
 -1      1763 8.66591E-05-7.95786E-06-3.37885E-05-9.20367E-06-9.94155E-19-8.22495E-19
 -1      1764 8.56529E-05-7.00684E-06-3.37648E-05-5.28347E-06-7.44650E-19-1.23464E-18
 -1      1765 8.58838E-05-7.18918E-06-3.37763E-05-6.58258E-06-7.92709E-19-1.13839E-18
 -1      1766 8.76404E-05-9.83148E-06-3.33779E-05-6.87558E-06-9.19973E-19-1.03645E-18
 -1      1767 8.53215E-05-6.63994E-06-3.37730E-05-2.86693E-06-5.24233E-19-1.31981E-18
 -1      1768 8.54406E-05-6.73708E-06-3.37769E-05-4.09922E-06-6.50052E-19-1.25276E-18
 -1      1769 8.70086E-05-9.10613E-06-3.34186E-05-4.49818E-06-7.05676E-19-1.20324E-18
 -1      1770 8.51918E-05-6.48777E-06-3.37786E-05-5.13445E-07-2.92878E-19-1.41222E-18
 -1      1771 8.52268E-05-6.51709E-06-3.37793E-05-1.71457E-06-4.04708E-19-1.38946E-18
 -1      1772 8.66780E-05-8.71820E-06-3.34431E-05-2.19680E-06-4.92218E-19-1.26351E-18
 -1      1773 8.52374E-05-6.52649E-06-3.37797E-05 1.83071E-06-1.36916E-19-1.57170E-18
 -1      1774 8.51958E-05-6.49252E-06-3.37786E-05 6.28513E-07-2.03229E-19-1.47826E-18
 -1      1775 8.65803E-05-8.60159E-06-3.34511E-05 6.42422E-08-2.58490E-19-1.38407E-18
 -1      1776 8.54672E-05-6.76296E-06-3.37773E-05 4.22021E-06 1.47933E-20-1.74150E-18
 -1      1777 8.53405E-05-6.65963E-06-3.37732E-05 2.98459E-06-5.59091E-20-1.67068E-18
 -1      1778 8.66967E-05-8.73850E-06-3.34425E-05 2.32666E-06-1.26088E-19-1.56548E-18
 -1      1779 8.59195E-05-7.22582E-06-3.37765E-05 6.66964E-06 2.34219E-19-1.71897E-18
 -1      1780 8.56850E-05-7.04010E-06-3.37651E-05 5.38742E-06 1.01894E-19-1.75214E-18
 -1      1781 8.70449E-05-9.14534E-06-3.34175E-05 4.61175E-06 7.77732E-20-1.69134E-18
 -1      1782 8.67207E-05-8.02628E-06-3.37874E-05 9.32519E-06 5.18632E-19-1.50019E-18
 -1      1783 8.63077E-05-7.70630E-06-3.37590E-05 7.90690E-06 3.50404E-19-1.57909E-18
 -1      1784 8.76932E-05-9.89152E-06-3.33758E-05 6.97458E-06 3.32931E-19-1.55629E-18
 -1      1785 8.81089E-05-9.38198E-06-3.38289E-05 1.22040E-05 7.95298E-19-1.40359E-18
 -1      1786 8.73833E-05-8.82220E-06-3.37643E-05 1.06112E-05 6.37697E-19-1.45892E-18
 -1      1787 8.88022E-05-1.11401E-05-3.33143E-05 9.44375E-06 6.46174E-19-1.39067E-18
 -1      1788 9.06124E-05-1.18355E-05-3.39209E-05 1.52568E-05 1.05321E-18-9.37295E-19
 -1      1789 8.92549E-05-1.07373E-05-3.37907E-05 1.34658E-05 8.73225E-19-1.24228E-18
 -1      1790 9.06732E-05-1.32115E-05-3.32164E-05 1.19180E-05 9.04304E-19-1.20612E-18
 -1      1791 9.57946E-05-1.70183E-05-3.39647E-05 1.76521E-05 1.22454E-18 5.25160E-20
 -1      1792 9.28091E-05-1.43343E-05-3.38100E-05 1.61535E-05 1.12167E-18-5.46019E-19
 -1      1793 9.39360E-05-1.68750E-05-3.30149E-05 1.38459E-05 1.16760E-18-6.64444E-19
 -1      1794 1.01788E-04-2.50577E-05-3.33159E-05 1.43953E-05 1.19072E-18 1.34435E-18
 -1      1795 9.79717E-05-1.95935E-05-3.35902E-05 1.69310E-05 1.20685E-18 5.22037E-19
 -1      1796 9.72460E-05-2.18316E-05-3.24013E-05 1.32112E-05 1.23693E-18 1.18452E-19
 -1      1797 9.86239E-05-2.60986E-05-3.13027E-05 9.41107E-06 1.16761E-18 9.98175E-19
 -1      1798 1.00032E-04-1.95369E-05-3.41765E-05-1.88365E-05-9.56565E-19 2.57625E-18
 -1      1799 9.52026E-05-2.72506E-05-2.91535E-05 4.03994E-06 8.30383E-19 5.53086E-19
 -1      1800 9.76224E-05-2.73540E-05-3.01588E-05 6.37511E-06 9.00661E-19 8.23041E-19
 -1      1801 9.74797E-05-2.55855E-05-3.08040E-05 8.72696E-06 1.07250E-18 3.54298E-19
 -1      1802 9.97120E-05-2.25151E-05-3.28037E-05-1.44324E-05-1.09985E-18 2.10673E-18
 -1      1803 9.68701E-05-2.69476E-05-2.98520E-05-5.66758E-06-9.00025E-19 1.83914E-18
 -1      1804 9.50753E-05-2.70037E-05-2.91460E-05-3.85585E-06-8.16222E-19 1.54937E-18
 -1      1805 9.42712E-05-2.72067E-05-2.86446E-05-2.36785E-06-7.99123E-19 1.47155E-18
 -1      1806 9.35193E-05-2.72905E-05-2.83459E-05-1.50431E-06-6.69401E-19 1.21562E-18
 -1      1807 9.54644E-05-2.65197E-05-2.95694E-05-4.40668E-06-9.25198E-19 9.96054E-19
 -1      1808 9.30159E-05-2.73440E-05-2.80857E-05-6.60105E-07-4.98886E-19 1.12964E-18
 -1      1809 9.27430E-05-2.74117E-05-2.79730E-05-2.05323E-07-3.51003E-19 1.01628E-18
 -1      1810 9.42906E-05-2.71963E-05-2.87758E-05-1.72950E-06-7.69324E-19 8.32799E-19
 -1      1811 9.24981E-05-2.74434E-05-2.78492E-05 2.77631E-07-2.03321E-19 9.51599E-19
 -1      1812 9.25094E-05-2.75270E-05-2.78330E-05 5.26508E-07-1.62271E-19 9.12766E-19
 -1      1813 9.36392E-05-2.75042E-05-2.83611E-05-2.12294E-07-3.65561E-19 6.54409E-19
 -1      1814 9.24507E-05-2.75658E-05-2.77918E-05 8.05950E-07-2.88484E-19 8.42229E-19
 -1      1815 9.26285E-05-2.76633E-05-2.78309E-05 9.44900E-07-2.38397E-19 8.86296E-19
 -1      1816 9.33909E-05-2.76938E-05-2.81695E-05 6.66661E-07-3.13732E-19 5.31864E-19
 -1      1817 9.26966E-05-2.77125E-05-2.78424E-05 1.11037E-06-3.18757E-19 7.63401E-19
 -1      1818 9.29746E-05-2.78183E-05-2.79153E-05 1.19183E-06-3.14579E-19 6.11843E-19
 -1      1819 9.34316E-05-2.78476E-05-2.81174E-05 1.18415E-06-4.10411E-19 4.20214E-19
 -1      1820 9.31297E-05-2.78764E-05-2.79620E-05 1.29799E-06-3.53786E-19 7.16458E-19
 -1      1821 9.34728E-05-2.79875E-05-2.80574E-05 1.35391E-06-3.68396E-19 6.39376E-19
 -1      1822 9.36715E-05-2.79893E-05-2.81568E-05 1.50295E-06-3.35701E-19 3.38735E-19
 -1      1823 9.36911E-05-2.80530E-05-2.81290E-05 1.43602E-06-4.22333E-19 5.75178E-19
 -1      1824 9.40834E-05-2.81693E-05-2.82413E-05 1.48738E-06-1.28644E-19 4.70805E-19
 -1      1825 9.40526E-05-2.81275E-05-2.82592E-05 1.72466E-06-4.27888E-19 4.37598E-19
 -1      1826 9.43526E-05-2.82421E-05-2.83324E-05 1.56915E-06-2.76570E-19 5.62062E-20
 -1      1827 9.47910E-05-2.83658E-05-2.84600E-05 1.63008E-06-3.36657E-19-1.69137E-19
 -1      1828 9.45419E-05-2.82676E-05-2.84080E-05 1.91618E-06-5.64030E-19-8.60810E-20
 -1      1829 9.51075E-05-2.84477E-05-2.85681E-05 1.72723E-06-1.36026E-19-4.63450E-19
 -1      1830 9.55973E-05-2.85831E-05-2.87116E-05 1.80664E-06-4.70004E-20-5.24957E-19
 -1      1831 9.51256E-05-2.84157E-05-2.85943E-05 2.12230E-06-4.93565E-19-4.43645E-19
 -1      1832 9.59630E-05-2.86774E-05-2.88362E-05 1.92822E-06-6.98434E-20-3.90311E-19
 -1      1833 9.65139E-05-2.88305E-05-2.89977E-05 2.03007E-06-1.49878E-19-4.39982E-19
 -1      1834 9.58037E-05-2.85807E-05-2.88143E-05 2.37126E-06-7.21517E-20-8.40003E-19
 -1      1835 9.69346E-05-2.89420E-05-2.91388E-05 2.17823E-06 1.81028E-20-1.91661E-19
 -1      1836 9.75575E-05-2.91198E-05-2.93207E-05 2.30069E-06 8.01947E-20 2.58679E-19
 -1      1837 9.65853E-05-2.87747E-05-2.90665E-05 2.67604E-06 1.15421E-19-4.40402E-19
 -1      1838 9.80399E-05-2.92550E-05-2.94782E-05 2.46921E-06-1.41724E-19 4.40269E-19
 -1      1839 9.87426E-05-2.94651E-05-2.96813E-05 2.60274E-06-2.59282E-19 6.44357E-19
 -1      1840 9.74846E-05-2.90138E-05-2.93498E-05 3.03257E-06 1.23501E-19 4.45744E-19
 -1      1841 9.92928E-05-2.96319E-05-2.98536E-05 2.77423E-06-1.99421E-19 5.79057E-19
 -1      1842 1.00075E-04-2.98812E-05-3.00762E-05 2.89872E-06-2.78553E-21 6.87847E-19
 -1      1843 9.85169E-05-2.93190E-05-2.96617E-05 3.41518E-06-1.91841E-19 3.76455E-19
 -1      1844 1.00695E-04-3.00890E-05-3.02591E-05 3.04084E-06-2.78173E-19 6.56503E-19
 -1      1845 1.01540E-04-3.03820E-05-3.04945E-05 3.12206E-06-1.81344E-19 5.11290E-19
 -1      1846 9.96936E-05-2.97159E-05-2.99959E-05 3.76950E-06-5.08627E-20 7.20455E-19
 -1      1847 1.02227E-04-3.06403E-05-3.06801E-05 3.18339E-06-2.19226E-20 3.84464E-19
 -1      1848 1.03094E-04-3.09755E-05-3.09147E-05 3.17003E-06 2.85354E-19 3.45489E-19
 -1      1849 1.01016E-04-3.02339E-05-3.03403E-05 4.00394E-06-2.42794E-19 7.41035E-19
 -1      1850 1.03832E-04-3.12907E-05-3.10905E-05 3.07774E-06 8.81874E-20-2.71133E-20
 -1      1851 1.04649E-04-3.16550E-05-3.13019E-05 2.90180E-06-3.53671E-19-6.62224E-20
 -1      1852 1.02468E-04-3.09001E-05-3.06759E-05 3.98264E-06-1.36065E-19 1.80743E-19
 -1      1853 1.05404E-04-3.20238E-05-3.14516E-05 2.56545E-06-5.25700E-19-1.12171E-19
 -1      1854 1.06058E-04-3.23826E-05-3.16086E-05 2.15139E-06-9.83634E-20-1.35031E-19
 -1      1855 1.04002E-04-3.17252E-05-3.09771E-05 3.52670E-06-4.53035E-19-5.57004E-19
 -1      1856 1.06764E-04-3.27780E-05-3.17139E-05 1.48079E-06 2.02322E-19-5.86455E-19
 -1      1857 1.07106E-04-3.30634E-05-3.17799E-05 7.71148E-07 2.62057E-19-6.00807E-19
 -1      1858 1.05519E-04-3.26743E-05-3.12156E-05 2.43655E-06-6.61017E-20-7.73968E-19
 -1      1859 1.07656E-04-3.34156E-05-3.18262E-05-2.81186E-07 3.03704E-19-9.68476E-19
 -1      1860 1.07516E-04-3.35177E-05-3.17683E-05-1.27729E-06 1.40918E-19-5.43674E-19
 -1      1861 1.06838E-04-3.36200E-05-3.13677E-05 5.55014E-07 1.22009E-19-9.09082E-19
 -1      1862 1.07751E-04-3.36989E-05-3.17510E-05-2.64350E-06 9.38949E-20-1.19007E-19
 -1      1863 1.06995E-04-3.34784E-05-3.15546E-05-3.78569E-06 5.28668E-19-9.01097E-20
 -1      1864 1.07676E-04-3.42946E-05-3.14267E-05-2.10956E-06 5.91596E-19-7.59768E-19
 -1      1865 1.06737E-04-3.33192E-05-3.14855E-05-5.19807E-06 3.17134E-19 3.90929E-19
 -1      1866 1.05350E-04-3.26644E-05-3.11709E-05-6.16905E-06-8.89451E-20 3.38734E-19
 -1      1867 1.07667E-04-3.42935E-05-3.14114E-05-5.20923E-06 7.37349E-19 2.22237E-19
 -1      1868 1.04499E-04-3.20409E-05-3.10783E-05-7.12987E-06-6.40238E-22 6.21352E-19
 -1      1869 1.02687E-04-3.09827E-05-3.07079E-05-7.48286E-06 1.78635E-19 5.70887E-19
 -1      1870 1.06494E-04-3.32156E-05-3.13662E-05-7.91450E-06 3.07546E-19 3.40180E-19
 -1      1871 1.01388E-04-2.99754E-05-3.06244E-05-7.40745E-06 1.96710E-19 6.17639E-19
 -1      1872 9.96125E-05-2.87946E-05-3.02912E-05-6.77232E-06-9.17509E-20 5.92725E-19
 -1      1873 1.04186E-04-3.10092E-05-3.13397E-05-9.00347E-06 1.84641E-19-4.90105E-20
 -1      1874 9.83589E-05-2.77926E-05-3.02379E-05-5.35366E-06-5.19416E-19 3.87140E-19
 -1      1875 9.72126E-05-2.69704E-05-3.00353E-05-3.73998E-06-6.53148E-19 4.42310E-20
 -1      1876 1.01422E-04-2.83122E-05-3.13502E-05-7.41174E-06-2.04625E-19-4.72335E-19
 -1      1877 9.66446E-05-2.65102E-05-3.00164E-05-1.31258E-06-2.20136E-19 3.80877E-19
 -1      1878 9.65741E-05-2.64592E-05-3.00037E-05 7.49600E-07 1.25076E-19 5.01410E-19
 -1      1879 9.94370E-05-2.63575E-05-3.13734E-05-3.10699E-06-2.01190E-19 1.59871E-19
 -1      1880 9.70272E-05-2.68272E-05-3.00178E-05 3.24006E-06 5.26464E-19 6.50880E-19
 -1      1881 9.80589E-05-2.75706E-05-3.01992E-05 4.94382E-06 1.16351E-18 5.80754E-19
 -1      1882 9.93118E-05-2.62364E-05-3.13744E-05 2.45545E-06 4.29651E-19 7.20092E-19
 -1      1883 9.92590E-05-2.85296E-05-3.02489E-05 6.51945E-06 1.25006E-18 2.15848E-19
 -1      1884 1.00990E-04-2.96919E-05-3.05716E-05 7.28822E-06 2.12949E-20 1.88227E-19
 -1      1885 1.01111E-04-2.80083E-05-3.13515E-05 7.01416E-06 6.12822E-19 3.36214E-19
 -1      1886 1.02319E-04-3.07246E-05-3.06545E-05 7.52783E-06-9.04700E-19 1.26267E-19
 -1      1887 1.04161E-04-3.18193E-05-3.10276E-05 7.28582E-06-7.00739E-19 2.76272E-19
 -1      1888 1.03851E-04-3.06743E-05-3.13409E-05 8.97491E-06 2.23729E-19-5.80102E-19
 -1      1889 1.05089E-04-3.25032E-05-3.11237E-05 6.42710E-06-4.51459E-19 9.33794E-19
 -1      1890 1.06551E-04-3.32155E-05-3.14516E-05 5.51027E-06-7.77490E-19 9.74637E-19
 -1      1891 1.06280E-04-3.29970E-05-3.13697E-05 8.18280E-06-1.44570E-19-8.66075E-19
 -1      1892 1.06885E-04-3.34287E-05-3.15274E-05 4.12768E-06-1.51540E-18 1.39877E-18
 -1      1893 1.07731E-04-3.36998E-05-3.17428E-05 2.99081E-06-1.05434E-18 1.63060E-18
 -1      1894 1.07618E-04-3.42260E-05-3.14199E-05 5.61650E-06-4.91014E-19 8.86048E-19
 -1      1895 1.07555E-04-3.35522E-05-3.17704E-05 1.60766E-06-8.80160E-19 1.94964E-18
 -1      1896 1.07778E-04-3.34843E-05-3.18491E-05 5.90078E-07-1.41375E-19 2.11967E-18
 -1      1897 1.07770E-04-3.43415E-05-3.14463E-05 2.52535E-06-9.95393E-19 2.51397E-18
 -1      1898 1.07269E-04-3.31470E-05-3.18153E-05-4.96275E-07 7.38705E-20 1.61958E-18
 -1      1899 1.06997E-04-3.28813E-05-3.17687E-05-1.23347E-06 3.00991E-19 1.83458E-18
 -1      1900 1.07035E-04-3.37278E-05-3.14055E-05-1.98261E-07-5.43163E-19 1.94358E-18
 -1      1901 1.06320E-04-3.24898E-05-3.16764E-05-1.93470E-06 9.77132E-19 1.68720E-18
 -1      1902 1.05721E-04-3.21417E-05-3.15366E-05-2.36962E-06 1.00085E-18 1.42440E-18
 -1      1903 1.05787E-04-3.28011E-05-3.12757E-05-2.15134E-06 6.18131E-19 2.03542E-18
 -1      1904 1.04992E-04-3.17724E-05-3.13998E-05-2.72328E-06 1.06097E-19 1.75274E-18
 -1      1905 1.04224E-04-3.14151E-05-3.12041E-05-2.90786E-06-3.33064E-19 1.61447E-18
 -1      1906 1.04323E-04-3.18494E-05-3.10614E-05-3.29348E-06 2.82129E-19 1.62185E-18
 -1      1907 1.03512E-04-3.10994E-05-3.10415E-05-3.00108E-06 5.39456E-19 1.30433E-18
 -1      1908 1.02694E-04-3.07714E-05-3.08226E-05-3.00981E-06 1.04914E-18 1.85565E-18
 -1      1909 1.02838E-04-3.10149E-05-3.07853E-05-3.76826E-06 1.24829E-19 2.23761E-18
 -1      1910 1.02039E-04-3.05153E-05-3.06515E-05-2.93361E-06 4.81267E-19 9.93298E-19
 -1      1911 1.01250E-04-3.02327E-05-3.04337E-05-2.83558E-06 4.43078E-19 8.07357E-19
 -1      1912 1.01441E-04-3.03420E-05-3.04765E-05-3.77290E-06 2.34131E-19 1.25244E-18
 -1      1913 1.00671E-04-3.00308E-05-3.02674E-05-2.66476E-06 2.37619E-19 7.16139E-19
 -1      1914 9.99589E-05-2.97970E-05-3.00661E-05-2.51295E-06-8.18494E-19 1.26323E-18
 -1      1915 1.00188E-04-2.98245E-05-3.01622E-05-3.48922E-06 3.95483E-20-3.56515E-20
 -1      1916 9.94609E-05-2.96404E-05-2.99136E-05-2.30110E-06-1.88605E-18 1.56045E-18
 -1      1917 9.88472E-05-2.94525E-05-2.97370E-05-2.13140E-06-1.24879E-18 1.73838E-18
 -1      1918 9.91028E-05-2.94374E-05-2.98629E-05-3.05770E-06-9.79070E-19 1.74859E-18
 -1      1919 9.84302E-05-2.93322E-05-2.96031E-05-1.91304E-06-5.01941E-19 1.15388E-18
 -1      1920 9.79196E-05-2.91846E-05-2.94542E-05-1.74709E-06 8.59824E-19 1.23565E-18
 -1      1921 9.81865E-05-2.91523E-05-2.95921E-05-2.57481E-06-7.02216E-19 2.31533E-18
 -1      1922 9.75779E-05-2.90928E-05-2.93408E-05-1.54189E-06 1.83296E-18 8.00185E-19
 -1      1923 9.71656E-05-2.89788E-05-2.92193E-05-1.39085E-06 9.54583E-19 1.10669E-18
 -1      1924 9.74302E-05-2.89441E-05-2.93568E-05-2.10000E-06 8.25645E-19 1.10906E-18
 -1      1925 9.68913E-05-2.89090E-05-2.91263E-05-1.20793E-06-1.17027E-19 1.58355E-18
 -1      1926 9.65676E-05-2.88224E-05-2.90302E-05-1.07576E-06 8.02134E-19 2.26468E-18
 -1      1927 9.68188E-05-2.87923E-05-2.91592E-05-1.66499E-06 7.21436E-19 1.66252E-18
 -1      1928 9.63518E-05-2.87692E-05-2.89563E-05-9.17171E-07 6.75636E-19 1.53505E-18
 -1      1929 9.61055E-05-2.87044E-05-2.88829E-05-8.03132E-07 1.04275E-18 1.18988E-18
 -1      1930 9.63339E-05-2.86808E-05-2.89985E-05-1.28216E-06 2.74625E-19 2.52391E-18
 -1      1931 9.59390E-05-2.86635E-05-2.88261E-05-6.66626E-07-3.00794E-19 6.07935E-20
 -1      1932 9.57592E-05-2.86161E-05-2.87725E-05-5.67311E-07-6.64023E-19-1.03618E-18
 -1      1933 9.59567E-05-2.85973E-05-2.88719E-05-9.51491E-07-4.85194E-19-2.31567E-19
 -1      1934 9.56328E-05-2.85844E-05-2.87303E-05-4.48304E-07 3.07352E-19-2.13637E-18
 -1      1935 9.55106E-05-2.85522E-05-2.86936E-05-3.59915E-07-3.13489E-19-1.54412E-18
 -1      1936 9.56687E-05-2.85326E-05-2.87754E-05-6.66132E-07-1.01977E-18-1.85478E-18
 -1      1937 9.54261E-05-2.85337E-05-2.86646E-05-2.60950E-07 3.20924E-19-1.21694E-18
 -1      1938 9.53508E-05-2.85179E-05-2.86400E-05-1.85569E-07 6.09699E-19-4.25748E-19
 -1      1939 9.53301E-05-2.84811E-05-2.86517E-05-2.24045E-07 1.22482E-19-1.22297E-18
 -1      1940 9.54638E-05-2.84923E-05-2.87053E-05-4.23650E-07 1.50126E-19-2.05706E-18
 -1      1941 9.31311E-05-2.73322E-05-2.81712E-05 1.56582E-06 7.45528E-19 7.43404E-20
 -1      1942 9.43114E-05-2.74347E-05-2.86029E-05 2.64218E-06 7.33848E-19 4.07939E-19
 -1      1943 9.51564E-05-2.70190E-05-2.92075E-05 4.01045E-06 8.62438E-19 9.40604E-20
 -1      1944 9.21213E-05-2.73268E-05-2.77439E-05 2.85793E-07 6.46193E-19-2.25403E-19
 -1      1945 9.25940E-05-2.73544E-05-2.79091E-05 8.44059E-07 6.03392E-19-2.90704E-20
 -1      1946 9.35862E-05-2.73444E-05-2.83967E-05 1.51923E-06 7.47626E-19-1.86235E-19
 -1      1947 9.18101E-05-2.73778E-05-2.75972E-05-4.04352E-07-4.37579E-20-5.75039E-20
 -1      1948 9.18918E-05-2.73433E-05-2.76333E-05-9.55808E-08 2.19166E-19-1.72613E-19
 -1      1949 9.28061E-05-2.74673E-05-2.80129E-05 1.68937E-07 3.34877E-19-2.42268E-19
 -1      1950 9.19298E-05-2.74896E-05-2.76057E-05-7.84463E-07-1.84752E-19-2.11503E-19
 -1      1951 9.17913E-05-2.74152E-05-2.75732E-05-6.07265E-07-8.47190E-20-5.05076E-20
 -1      1952 9.25677E-05-2.75732E-05-2.78657E-05-5.81194E-07-1.55349E-19-3.06983E-19
 -1      1953 9.23153E-05-2.76440E-05-2.77073E-05-9.99651E-07 1.82340E-19-2.52800E-19
 -1      1954 9.20490E-05-2.75462E-05-2.76348E-05-8.93294E-07-5.33271E-20-1.67701E-19
 -1      1955 9.26812E-05-2.76987E-05-2.78590E-05-1.00779E-06-9.81367E-21-5.50877E-19
 -1      1956 9.28714E-05-2.78264E-05-2.78687E-05-1.13409E-06 2.37394E-19-1.84996E-19
 -1      1957 9.25264E-05-2.77145E-05-2.77710E-05-1.06273E-06 2.71976E-19-7.74969E-20
 -1      1958 9.30236E-05-2.78449E-05-2.79412E-05-1.26270E-06 2.25207E-19-5.34146E-19
 -1      1959 9.35498E-05-2.80292E-05-2.80729E-05-1.24258E-06 3.02930E-19-5.54497E-19
 -1      1960 9.31487E-05-2.79071E-05-2.79568E-05-1.18234E-06 3.25989E-19-3.36325E-19
 -1      1961 9.35222E-05-2.80073E-05-2.80840E-05-1.43825E-06 4.78127E-19-3.02051E-19
 -1      1962 9.43348E-05-2.82516E-05-2.83138E-05-1.36433E-06 1.73741E-19-3.92067E-19
 -1      1963 9.38827E-05-2.81191E-05-2.81811E-05-1.29763E-06 2.55935E-19-4.36813E-19
 -1      1964 9.41405E-05-2.81838E-05-2.82726E-05-1.59648E-06 2.71616E-19-1.58373E-19
 -1      1965 9.52345E-05-2.84984E-05-2.85929E-05-1.52958E-06 6.47809E-19-3.86038E-19
 -1      1966 9.47237E-05-2.83518E-05-2.84415E-05-1.44236E-06 4.36880E-19-3.98367E-19
 -1      1967 9.48682E-05-2.83763E-05-2.85018E-05-1.78267E-06 3.87805E-19-2.88549E-19
 -1      1968 9.62751E-05-2.87791E-05-2.89174E-05-1.76273E-06 4.96108E-19-1.01620E-18
 -1      1969 9.56881E-05-2.86122E-05-2.87425E-05-1.64319E-06 5.23080E-19-6.52072E-19
 -1      1970 9.57148E-05-2.85907E-05-2.87729E-05-2.03197E-06 7.08251E-19-8.52718E-19
 -1      1971 9.74967E-05-2.91074E-05-2.92987E-05-2.08332E-06 6.61936E-19-1.45691E-18
 -1      1972 9.68085E-05-2.89116E-05-2.90932E-05-1.92151E-06 5.61178E-19-1.17167E-18
 -1      1973 9.67041E-05-2.88368E-05-2.90921E-05-2.37224E-06 7.23582E-19-1.15061E-18
 -1      1974 9.89487E-05-2.95010E-05-2.97507E-05-2.50469E-06 3.73781E-19-1.71188E-18
 -1      1975 9.81293E-05-2.92656E-05-2.95063E-05-2.29318E-06 2.94913E-19-1.47567E-18
 -1      1976 9.78710E-05-2.91282E-05-2.94683E-05-2.82419E-06 4.85782E-19-1.39189E-18
 -1      1977 1.00685E-04-2.99814E-05-3.02876E-05-3.02943E-06 1.76980E-19-1.34974E-18
 -1      1978 9.97021E-05-2.96940E-05-2.99958E-05-2.76556E-06 1.77559E-19-1.62184E-18
 -1      1979 9.92572E-05-2.94834E-05-2.99116E-05-3.39813E-06 2.86726E-19-1.28330E-18
 -1      1980 1.02752E-04-3.05736E-05-3.09200E-05-3.63990E-06-2.87528E-21-1.23840E-18
 -1      1981 1.01580E-04-3.02208E-05-3.05743E-05-3.33049E-06 1.40657E-19-1.15193E-18
 -1      1982 1.00907E-04-2.99268E-05-3.04301E-05-4.08628E-06 1.42637E-19-9.06730E-19
 -1      1983 1.05181E-04-3.13059E-05-3.16496E-05-4.28140E-06 3.33719E-19-1.81068E-18
 -1      1984 1.03805E-04-3.08750E-05-3.12486E-05-3.95132E-06 1.87787E-19-1.44915E-18
 -1      1985 1.02858E-04-3.04914E-05-3.10264E-05-4.84808E-06 4.61681E-19-5.57331E-19
 -1      1986 1.07958E-04-3.22074E-05-3.24599E-05-4.83559E-06 3.43050E-19-2.07159E-18
 -1      1987 1.06397E-04-3.16897E-05-3.20130E-05-4.54155E-06 4.87272E-19-1.99195E-18
 -1      1988 1.05136E-04-3.12221E-05-3.16916E-05-5.58620E-06 5.69675E-19-1.45504E-18
 -1      1989 1.10992E-04-3.33004E-05-3.33042E-05-5.08567E-06-1.21327E-18-1.59283E-18
 -1      1990 1.09321E-04-3.26986E-05-3.28391E-05-4.93482E-06-5.38075E-19-1.77641E-18
 -1      1991 1.07736E-04-3.21759E-05-3.23984E-05-6.11238E-06-4.45979E-19-1.37791E-18
 -1      1992 1.14072E-04-3.45783E-05-3.40943E-05-4.68686E-06-1.21438E-18-9.20844E-19
 -1      1993 1.12452E-04-3.39220E-05-3.36649E-05-4.85339E-06-1.29836E-18-1.53766E-18
 -1      1994 1.10597E-04-3.34125E-05-3.30942E-05-6.11043E-06-1.21340E-18-1.02478E-18
 -1      1995 1.16811E-04-3.59519E-05-3.46973E-05-3.18552E-06 2.08317E-19-9.05683E-19
 -1      1996 1.15519E-04-3.53266E-05-3.43868E-05-3.90225E-06-4.86640E-19-7.39480E-19
 -1      1997 1.13563E-04-3.49519E-05-3.37005E-05-5.12401E-06-6.93829E-19-1.01201E-18
 -1      1998 1.18605E-04-3.71529E-05-3.49596E-05-1.81581E-07 1.50681E-18-9.90784E-19
 -1      1999 1.18032E-04-3.67375E-05-3.48675E-05-1.65672E-06 1.03564E-18-7.33425E-19
 -1      2000 1.16307E-04-3.66630E-05-3.41285E-05-2.63993E-06 7.51054E-19-9.19441E-19
 -1      2001 1.18686E-04-3.76333E-05-3.47729E-05 4.28749E-06 2.65472E-19-1.05076E-18
 -1      2002 1.19253E-04-3.77233E-05-3.49741E-05 2.06726E-06 8.45683E-19-9.53283E-19
 -1      2003 1.18250E-04-3.81083E-05-3.43176E-05 1.62156E-06 7.97349E-19-3.95104E-19
 -1      2004 1.16314E-04-3.65771E-05-3.41738E-05 9.08352E-06-8.51321E-19-1.35509E-18
 -1      2005 1.18274E-04-3.75007E-05-3.46544E-05 6.70406E-06-4.95091E-19-1.10425E-18
 -1      2006 1.18513E-04-3.83626E-05-3.42954E-05 7.15652E-06-4.81949E-20-1.91112E-19
 -1      2007 1.11504E-04-3.35573E-05-3.33881E-05 1.16725E-05-6.82856E-19-1.12653E-18
 -1      2008 1.14575E-04-3.53231E-05-3.40041E-05 1.03995E-05-9.46963E-19-1.62652E-18
 -1      2009 1.16292E-04-3.63992E-05-3.41881E-05 1.19513E-05-8.44558E-19-5.58036E-19
 -1      2010 1.05906E-04-2.95642E-05-3.27468E-05 9.32217E-06-1.39721E-19-1.50328E-18
 -1      2011 1.09002E-04-3.14655E-05-3.32664E-05 1.04545E-05 1.50613E-20-1.30877E-18
 -1      2012 1.11888E-04-3.22427E-05-3.41482E-05 1.27687E-05-3.14858E-20-1.39109E-18
 -1      2013 1.02653E-04-2.71031E-05-3.24823E-05 1.98229E-06 9.18501E-20-4.32794E-19
 -1      2014 1.04258E-04-2.79956E-05-3.26993E-05 5.43240E-06-2.78250E-19-1.04100E-18
 -1      2015 1.07593E-04-2.80272E-05-3.42023E-05 7.41351E-06-3.23858E-19-1.05552E-18
 -1      2016 1.04173E-04-2.82389E-05-3.26576E-05-6.58983E-06-5.32069E-19-1.34440E-19
 -1      2017 1.03261E-04-2.73926E-05-3.24887E-05-2.71316E-06-1.17632E-19-3.21456E-19
 -1      2018 1.06438E-04-2.68022E-05-3.42334E-05-2.24717E-06-1.08976E-19-1.18231E-19
 -1      2019 1.09470E-04-3.20491E-05-3.32361E-05-1.13702E-05-4.98466E-19-1.16176E-19
 -1      2020 1.06574E-04-3.01226E-05-3.27381E-05-9.26504E-06-5.04263E-19 4.48927E-20
 -1      2021 1.09410E-04-2.96727E-05-3.42078E-05-1.05615E-05-3.78385E-19 7.71316E-19
 -1      2022 1.15192E-04-3.57662E-05-3.40134E-05-1.06806E-05-5.15496E-19-1.89285E-19
 -1      2023 1.11873E-04-3.39864E-05-3.33910E-05-1.09404E-05-4.14049E-19-5.56659E-19
 -1      2024 1.14157E-04-3.42853E-05-3.42161E-05-1.31223E-05-1.61360E-19 6.15925E-19
 -1      2025 1.18728E-04-3.76341E-05-3.46872E-05-6.48439E-06-7.36363E-19 2.47731E-19
 -1      2026 1.16338E-04-3.66934E-05-3.41789E-05-8.21175E-06-6.58224E-19 2.26555E-19
 -1      2027 1.17677E-04-3.76100E-05-3.42996E-05-1.01360E-05-7.97859E-19 8.15640E-19
 -1      2028 1.19464E-04-3.76456E-05-3.50051E-05-1.64935E-06 1.06184E-19-8.69218E-19
 -1      2029 1.18515E-04-3.75319E-05-3.47651E-05-3.64863E-06-6.52692E-19-1.21099E-19
 -1      2030 1.18680E-04-3.85098E-05-3.43676E-05-4.67711E-06-1.24739E-19-5.63724E-19
 -1      2031 1.18047E-04-3.65826E-05-3.48822E-05 2.05122E-06 1.54252E-18-6.48496E-19
 -1      2032 1.18379E-04-3.69838E-05-3.49354E-05 5.06530E-07 1.12211E-18-1.38207E-18
 -1      2033 1.17531E-04-3.75948E-05-3.42832E-05 4.36649E-07 1.01805E-18-1.28802E-18
 -1      2034 1.15419E-04-3.51723E-05-3.43854E-05 4.15834E-06 2.13499E-19-7.98812E-19
 -1      2035 1.16591E-04-3.57879E-05-3.46658E-05 3.25927E-06 1.20396E-18 9.66147E-22
 -1      2036 1.15139E-04-3.59269E-05-3.39724E-05 3.90411E-06 1.09402E-18-2.27547E-19
 -1      2037 1.12325E-04-3.38084E-05-3.36572E-05 4.95304E-06 1.82892E-18-2.22240E-18
 -1      2038 1.13902E-04-3.44567E-05-3.40670E-05 4.59247E-06 1.21639E-18-1.13232E-18
 -1      2039 1.12267E-04-3.42420E-05-3.34552E-05 5.64327E-06 1.71377E-18-5.61636E-19
 -1      2040 1.09230E-04-3.26334E-05-3.28389E-05 4.90475E-06 9.35970E-19-2.62673E-18
 -1      2041 1.10900E-04-3.32292E-05-3.32921E-05 4.89572E-06 9.05507E-19-2.10867E-18
 -1      2042 1.09368E-04-3.28313E-05-3.28095E-05 6.10118E-06 1.58459E-18-7.02961E-19
 -1      2043 1.06392E-04-3.16716E-05-3.20343E-05 4.41281E-06-1.42975E-18-2.21276E-18
 -1      2044 1.07964E-04-3.21831E-05-3.24726E-05 4.59284E-06 3.69958E-19-2.10692E-18
 -1      2045 1.06677E-04-3.17349E-05-3.21211E-05 5.78502E-06 5.15899E-19 5.17904E-19
 -1      2046 1.03925E-04-3.09034E-05-3.13041E-05 3.74618E-06-7.47404E-19-1.88576E-18
 -1      2047 1.05306E-04-3.13253E-05-3.16958E-05 4.00445E-06-1.67235E-18-2.82541E-18
 -1      2048 1.04302E-04-3.09057E-05-3.14564E-05 5.08882E-06-1.26660E-18-7.29477E-19
 -1      2049 1.01859E-04-3.02980E-05-3.06754E-05 3.06013E-06-1.99280E-18-3.30318E-19
 -1      2050 1.03018E-04-3.06370E-05-3.10080E-05 3.33169E-06-1.43661E-18-1.48435E-18
 -1      2051 1.02278E-04-3.02817E-05-3.08559E-05 4.26648E-06-1.79286E-18-1.16583E-18
 -1      2052 1.00175E-04-2.98256E-05-3.01539E-05 2.43194E-06-1.77052E-18 2.89900E-18
 -1      2053 1.01117E-04-3.00928E-05-3.04264E-05 2.68372E-06-1.82357E-18 1.24728E-18
 -1      2054 1.00598E-04-2.98106E-05-3.03382E-05 3.46013E-06-2.84220E-18 3.02226E-19
 -1      2055 9.88319E-05-2.94604E-05-2.97331E-05 1.89207E-06-3.52809E-20 1.86928E-18
 -1      2056 9.95788E-05-2.96676E-05-2.99506E-05 2.11041E-06-1.22159E-18 2.21029E-18
 -1      2057 9.92340E-05-2.94536E-05-2.99069E-05 2.73776E-06-1.12285E-18 1.85480E-18
 -1      2058 9.77804E-05-2.91807E-05-2.94011E-05 1.44529E-06-1.64834E-18 1.90509E-18
 -1      2059 9.83611E-05-2.93392E-05-2.95709E-05 1.62735E-06-2.17846E-19 2.08655E-18
 -1      2060 9.81466E-05-2.91829E-05-2.95572E-05 2.12333E-06-5.09249E-19 2.56502E-18
 -1      2061 9.69718E-05-2.89687E-05-2.91446E-05 1.08342E-06 2.02281E-18 5.91097E-19
 -1      2062 9.74147E-05-2.90883E-05-2.92745E-05 1.23201E-06-1.35624E-19 7.62337E-19
 -1      2063 9.72946E-05-2.89779E-05-2.92801E-05 1.61680E-06 7.24061E-19 1.03993E-18
 -1      2064 9.63620E-05-2.88097E-05-2.89507E-05 7.92226E-07 2.43325E-18-1.25344E-18
 -1      2065 9.66927E-05-2.88985E-05-2.90479E-05 9.12975E-07 2.61350E-18 6.19394E-19
 -1      2066 9.66382E-05-2.88228E-05-2.90653E-05 1.20601E-06 2.74781E-18 5.57129E-19
 -1      2067 9.59142E-05-2.86925E-05-2.88087E-05 5.55121E-07 1.55932E-18-1.31162E-18
 -1      2068 9.61536E-05-2.87567E-05-2.88789E-05 6.54964E-07 1.40209E-18-9.36059E-19
 -1      2069 9.61422E-05-2.87058E-05-2.89028E-05 8.73290E-07 1.88086E-18 5.35444E-19
 -1      2070 9.55990E-05-2.86087E-05-2.87094E-05 3.56517E-07 1.84565E-18-1.84192E-18
 -1      2071 9.57634E-05-2.86531E-05-2.87573E-05 4.42175E-07 1.81167E-18-1.16593E-18
 -1      2072 9.57767E-05-2.86183E-05-2.87837E-05 5.99766E-07 1.86880E-18-1.07633E-18
 -1      2073 9.53936E-05-2.85541E-05-2.86441E-05 1.86231E-07 7.46772E-19-1.83917E-18
 -1      2074 9.54943E-05-2.85810E-05-2.86742E-05 2.61315E-07 1.31180E-18-1.67279E-18
 -1      2075 9.55166E-05-2.85544E-05-2.86995E-05 3.69370E-07 1.53394E-18-1.89258E-18
 -1      2076 9.52937E-05-2.85341E-05-2.86091E-05 7.86267E-08-4.96403E-19-1.24514E-18
 -1      2077 9.53463E-05-2.85400E-05-2.86293E-05 1.39229E-07 1.52850E-19-2.11574E-18
 -1      2078 9.53654E-05-2.85159E-05-2.86508E-05 2.10610E-07 3.98858E-20-1.46802E-18
 -1      2079 9.52900E-05-2.85082E-05-2.86205E-05 1.10071E-07-1.57126E-18-3.13850E-19
 -1      2080 9.50673E-05-2.79482E-05-2.87667E-05 4.52310E-07-1.01976E-19 3.41405E-18
 -1      2081 9.51242E-05-2.80682E-05-2.87362E-05 4.30138E-07-4.81371E-19 3.08806E-18
 -1      2082 9.51811E-05-2.81878E-05-2.87117E-05 3.84866E-07-4.68264E-19 1.41668E-18
 -1      2083 9.52280E-05-2.82907E-05-2.86851E-05 3.29204E-07-7.10379E-19-1.51451E-18
 -1      2084 9.51669E-05-2.80950E-05-2.87453E-05 5.33150E-07 1.94092E-19 2.58347E-18
 -1      2085 9.52554E-05-2.83735E-05-2.86632E-05 2.57091E-07-1.53615E-18-2.64779E-18
 -1      2086 9.52814E-05-2.84473E-05-2.86414E-05 1.88074E-07-1.54360E-18-7.06797E-19
 -1      2087 9.53160E-05-2.84473E-05-2.86569E-05 2.39071E-07-1.06124E-18-4.30324E-19
 -1      2088 9.52637E-05-2.82992E-05-2.87003E-05 3.98953E-07 1.39631E-19-1.20769E-18
 -1      2089 9.49550E-05-2.77124E-05-2.88206E-05 4.42485E-07-1.16941E-18-6.50959E-19
 -1      2090 9.50104E-05-2.78303E-05-2.87906E-05 4.54853E-07-1.28046E-18 2.05862E-18
 -1      2091 9.50308E-05-2.78506E-05-2.87907E-05 5.83920E-07-3.72235E-19 1.47679E-18
 -1      2092 9.48574E-05-2.75058E-05-2.88680E-05 3.59063E-07-5.07970E-19 1.62841E-18
 -1      2093 9.49040E-05-2.76068E-05-2.88422E-05 4.02683E-07-1.21565E-18 1.53547E-18
 -1      2094 9.49002E-05-2.76195E-05-2.88327E-05 5.40065E-07-2.70951E-19 1.38958E-18
 -1      2095 9.47902E-05-2.73623E-05-2.89011E-05 2.18162E-07-3.94950E-19 1.20083E-18
 -1      2096 9.48203E-05-2.74286E-05-2.88841E-05 2.84408E-07-7.14054E-19 1.78981E-18
 -1      2097 9.47936E-05-2.74303E-05-2.88672E-05 4.09421E-07-9.83847E-20 1.51839E-18
 -1      2098 9.47619E-05-2.73014E-05-2.89150E-05 4.40464E-08-7.01448E-19 2.76013E-19
 -1      2099 9.47715E-05-2.73231E-05-2.89094E-05 1.21621E-07-6.08296E-19 1.32231E-18
 -1      2100 9.47261E-05-2.73098E-05-2.88893E-05 2.15324E-07-6.90602E-19 1.19919E-18
 -1      2101 9.47757E-05-2.73308E-05-2.89077E-05-1.35478E-07 2.78940E-19 7.04175E-19
 -1      2102 9.47637E-05-2.73049E-05-2.89143E-05-5.89846E-08-2.09798E-19 6.28327E-19
 -1      2103 9.47056E-05-2.72729E-05-2.88962E-05-1.04991E-08-2.05171E-18 1.27861E-18
 -1      2104 9.48291E-05-2.74455E-05-2.88804E-05-2.92625E-07 2.39475E-19-1.85087E-18
 -1      2105 9.47974E-05-2.73763E-05-2.88982E-05-2.29214E-07 6.56780E-19-2.75863E-20
 -1      2106 9.47338E-05-2.73237E-05-2.88868E-05-2.33024E-07-1.09197E-18 3.73069E-19
 -1      2107 9.49127E-05-2.76248E-05-2.88381E-05-4.01634E-07 1.42200E-18-1.08120E-18
 -1      2108 9.48668E-05-2.75249E-05-2.88638E-05-3.61788E-07 9.93650E-19-2.74024E-18
 -1      2109 9.48059E-05-2.74532E-05-2.88628E-05-4.17374E-07 4.99635E-19-1.10212E-18
 -1      2110 9.50181E-05-2.78492E-05-2.87858E-05-4.48198E-07 2.47079E-18 2.92665E-18
 -1      2111 9.49632E-05-2.77305E-05-2.88161E-05-4.37785E-07 2.27977E-18 1.59855E-18
 -1      2112 9.49120E-05-2.76444E-05-2.88274E-05-5.37284E-07 1.53273E-18 1.18706E-18
 -1      2113 9.51290E-05-2.80845E-05-2.87314E-05-4.20675E-07 2.06967E-18 2.19137E-18
 -1      2114 9.50739E-05-2.79665E-05-2.87615E-05-4.43372E-07 2.47636E-18 2.25574E-18
 -1      2115 9.50399E-05-2.78749E-05-2.87846E-05-5.74035E-07 2.41137E-18 2.72722E-18
 -1      2116 9.52287E-05-2.83049E-05-2.86811E-05-3.21649E-07 5.21519E-19-1.14722E-18
 -1      2117 9.51831E-05-2.82000E-05-2.87072E-05-3.75261E-07 6.15953E-19 5.39755E-19
 -1      2118 9.51710E-05-2.81136E-05-2.87391E-05-5.19579E-07 2.51306E-19 3.83478E-19
 -1      2119 5.79266E-05-3.98187E-05-8.22681E-06 3.90587E-05 4.63327E-19-1.47842E-18
 -1      2120 4.27190E-05-4.13061E-05-2.00180E-06 3.10966E-05 2.36322E-19-6.60686E-19
 -1      2121 1.18666E-05-2.87096E-05 6.37280E-06 2.58449E-06 5.96735E-19 2.54957E-19
 -1      2122 1.31234E-05-3.34167E-05 7.27810E-06-8.27977E-06 2.71051E-19 4.02891E-18
 -1      2123 2.88279E-05-3.56341E-05 1.82996E-06 2.64462E-05 1.67713E-19-1.29702E-18
 -1      2124 1.96699E-05-3.17812E-05 4.38801E-06 1.91119E-05 5.11184E-19-1.64579E-18
 -1      2125 4.43747E-05-3.58163E-05-4.06176E-06 3.54691E-05-3.21025E-19-7.54706E-19
 -1      2126 9.68795E-05-4.35309E-05-2.28334E-05 4.15652E-05-3.09167E-19-1.28198E-18
 -1      2127 7.79737E-05-4.55702E-05-1.49907E-05 3.72317E-05 7.72494E-19-1.60555E-18
 -1      2128 1.33289E-04-4.29640E-05-3.81903E-05 3.60776E-05-3.66765E-19 8.72444E-20
 -1      2129 1.12447E-04-4.39972E-05-3.00385E-05 3.48713E-05-6.05629E-19 4.30716E-19
 -1      2130 8.72818E-05-8.71411E-06-3.37674E-05-1.04915E-05-1.04030E-18-6.36095E-19
 -1      2131 8.79729E-05-9.23384E-06-3.38322E-05-1.20471E-05-1.13014E-18-3.76136E-19
 -1      2132 9.04943E-05-1.30372E-05-3.32449E-05-1.18186E-05-1.19184E-18-2.02547E-19
 -1      2133 8.87202E-05-1.10354E-05-3.33190E-05-9.35526E-06-1.03411E-18-6.54955E-19
 -1      2134 1.79982E-04-3.00822E-05-6.29447E-05 7.84445E-06-3.29919E-19-1.78300E-19
 -1      2135 1.65643E-04-3.03137E-05-5.76457E-05 1.01441E-05-2.21287E-19-6.06899E-19
 -1      2136 1.79230E-04-2.31098E-05-6.61528E-05-9.20068E-07 3.57448E-19 2.12248E-19
 -1      2137 1.80498E-04-2.55566E-05-6.53485E-05 5.61727E-06 4.65868E-20 2.24887E-19
 -1      2138 1.59243E-04-1.87077E-05-5.92462E-05-3.72410E-06-1.52466E-19 3.08108E-19
 -1      2139 1.70560E-04-2.40295E-05-6.23747E-05-4.79516E-06 1.34932E-18 5.06526E-19
 -1      2140 1.79407E-04-2.40125E-05-6.54392E-05-1.45568E-06 8.37292E-19 4.81538E-19
 -1      2141 1.59473E-04-3.64949E-05-5.24530E-05-1.51819E-05 1.01130E-18 6.97532E-19
 -1      2142 1.68604E-04-3.30186E-05-5.76794E-05-7.58318E-06 1.23709E-18 8.55080E-19
 -1      2143 1.36384E-04-4.22969E-05-4.05967E-05-2.75438E-05 7.17860E-19 4.23516E-20
 -1      2144 1.55187E-04-4.18480E-05-4.79999E-05-2.43554E-05 7.87741E-19 9.00396E-19
 -1      2145 1.54568E-04-4.22561E-05-4.73653E-05-3.76273E-06 1.73112E-19 1.80799E-18
 -1      2146 1.01058E-04-4.58443E-05-2.45960E-05-3.59048E-05 1.10792E-18 1.01644E-20
 -1      2147 1.21679E-04-4.46487E-05-3.27418E-05-3.82008E-05 7.23790E-19 3.21025E-19
 -1      2148 6.31486E-05-4.37922E-05-9.70563E-06-3.56060E-05 8.75832E-19-9.99393E-19
 -1      2149 8.13158E-05-4.17761E-05-1.72245E-05-4.16499E-05 9.22419E-19-1.21189E-18
 -1      2150 3.24704E-05-3.98166E-05 1.60766E-06-2.64181E-05 4.55280E-19-8.62703E-19
 -1      2151 4.54043E-05-3.80497E-05-3.88964E-06-3.49510E-05 6.86944E-19-1.16626E-18
 -1      2152 1.32663E-05-3.37102E-05 7.42208E-06-8.48420E-06 1.29702E-19-1.19262E-18
 -1      2153 1.93804E-05-3.53032E-05 5.47537E-06-1.80794E-05 5.27702E-19-1.37219E-18
 -1      2154 1.63146E-05-3.34615E-05 6.13247E-06 1.56897E-05 4.05941E-19-1.14095E-18
 -1      2155 1.21344E-05-3.18633E-05 7.29856E-06 5.81971E-06 6.18811E-19-1.72371E-18
 -1      2156 3.57775E-05-3.48106E-05-1.12833E-06 3.34976E-05 1.19432E-19-1.18775E-18
 -1      2157 2.50832E-05-3.74066E-05 3.81623E-06 2.37027E-05 3.35849E-19-5.00596E-19
 -1      2158 2.46060E-05-2.73663E-05 7.25690E-07 2.47481E-05 5.08643E-19-1.34382E-18
 -1      2159 7.29836E-05-4.06804E-05-1.40869E-05 4.30107E-05-9.48677E-20-1.54774E-18
 -1      2160 5.64534E-05-4.21874E-05-7.16485E-06 3.73385E-05 4.23516E-19-1.60245E-18
 -1      2161 1.10902E-04-4.29049E-05-2.88173E-05 4.11106E-05 1.57125E-19-5.03985E-19
 -1      2162 9.16284E-05-4.47521E-05-2.08788E-05 3.85428E-05 6.52215E-20-6.97743E-19
 -1      2163 1.43537E-04-3.80942E-05-4.42975E-05 3.45657E-05-1.21909E-18 1.21719E-18
 -1      2164 1.23927E-04-3.96933E-05-3.64191E-05 3.38609E-05-8.48727E-19 4.95514E-19
 -1      2165 1.64524E-04-3.22119E-05-5.62140E-05 1.49992E-05-6.83979E-19 1.52889E-18
 -1      2166 1.53346E-04-3.38814E-05-5.04998E-05 2.51063E-05-1.14619E-18 8.90655E-19
 -1      2167 1.49113E-04-4.12489E-05-4.54012E-05 1.50480E-05-5.32003E-19 2.99003E-18
 -1      2168 1.79080E-04-2.43116E-05-6.46908E-05 5.17025E-06-3.98105E-20-2.49239E-19
 -1      2169 1.66882E-04-2.37825E-05-6.07823E-05 8.63337E-06-1.54795E-19 2.24040E-19
 -1      2170 1.80217E-04-2.36401E-05-6.59254E-05-5.62436E-06-4.43422E-19 3.95988E-20
 -1      2171 1.81999E-04-2.40968E-05-6.64620E-05 2.28132E-06-1.23243E-19 6.55392E-20
 -1      2172 1.66675E-04-2.79487E-05-5.88339E-05-1.42356E-05-1.68962E-18 1.52466E-19
 -1      2173 1.75011E-04-2.64615E-05-6.26842E-05-7.41040E-06-1.29935E-18 3.38390E-19
 -1      2174 1.46634E-04-3.49552E-05-4.77455E-05-2.69414E-05-1.49522E-18 8.03411E-19
 -1      2175 1.64116E-04-3.45619E-05-5.45520E-05-2.30822E-05-1.42857E-18 7.51742E-19
 -1      2176 1.15416E-04-4.03695E-05-3.26577E-05-3.59028E-05-1.80333E-18 1.06387E-18
 -1      2177 1.36024E-04-3.89991E-05-4.08498E-05-3.65744E-05-1.53673E-18 1.43911E-18
 -1      2178 8.30419E-05-4.47592E-05-1.72254E-05-3.89142E-05-5.82759E-19 1.34509E-18
 -1      2179 1.01838E-04-4.19769E-05-2.54174E-05-4.26835E-05-9.95687E-19 1.85627E-18
 -1      2180 4.38365E-05-4.06114E-05-2.69033E-06-3.33458E-05 2.58769E-19 1.26727E-18
 -1      2181 6.06389E-05-3.89085E-05-9.65485E-06-4.20420E-05-9.03784E-19 4.72777E-19
 -1      2182 1.81514E-05-3.63126E-05 6.25241E-06-1.70443E-05 1.68009E-18 4.03018E-18
 -1      2183 2.59115E-05-3.43948E-05 2.55449E-06-2.65413E-05 1.31205E-18 2.90892E-18
 -1      2184 1.81978E-05-2.46787E-05 2.15844E-06-1.63143E-05-2.68933E-20 3.16197E-18
 -1      2185 1.61355E-04-3.95330E-05-5.16689E-05 2.01237E-05-2.10964E-20-8.97855E-20
 -1      2186 1.45057E-04-4.03283E-05-4.47307E-05 2.66974E-05-3.67189E-19-5.32360E-19
 -1      2187 1.44432E-04-5.01677E-05-3.98334E-05 1.87777E-05-2.83227E-19 6.60686E-20
 -1      2188 9.70948E-05-2.42865E-05-3.12765E-05-9.96833E-06-1.10135E-18 1.78723E-18
 -1      2189 1.58595E-04-3.58430E-05-5.19257E-05 2.75934E-06-2.13029E-19-6.01817E-19
 -1      2190 9.62882E-05-2.30845E-05-3.14393E-05-1.03367E-05-1.18324E-18 1.14712E-18
 -1      2191 1.87884E-05-2.58812E-05 2.70202E-06 1.20735E-05 1.43043E-19-2.38948E-18
 -1      2192 1.89978E-05-1.70855E-05-4.58434E-07 4.99644E-06-3.50248E-19 1.08420E-19
 -1      2193 2.60791E-05-2.15079E-05-2.09252E-06 2.14063E-05-5.92182E-19-2.45470E-18
 -1      2194 8.03987E-05-4.89157E-05-1.37635E-05 4.10816E-05 2.00747E-19-1.55288E-18
 -1      2195 9.52631E-05-2.83598E-05-2.86717E-05-3.00445E-07 3.37201E-19-1.98367E-18
 -1      2196 1.17733E-04-5.47730E-05-2.69180E-05 3.30391E-05-2.87991E-20 2.41404E-20
 -1      2197 4.21243E-05-3.47199E-05-3.49014E-06-3.68786E-05 8.49786E-19 2.57117E-18
 -1      2198 8.40436E-05-4.88538E-05-1.52821E-05-4.25461E-05-5.32360E-19 1.08799E-18
 -1      2199 1.20910E-04-5.24597E-05-2.91935E-05-3.23692E-05-5.61583E-19 6.38239E-19
 -1      2200 1.45357E-04-4.42633E-05-4.26236E-05-1.80538E-05-8.46186E-19-6.09864E-20
 -1      2201 1.55426E-04-2.94051E-05-5.30705E-05-3.37665E-06-1.53419E-18-3.68459E-19
 -1      2202 1.58954E-04-1.66748E-05-6.00316E-05 1.28795E-06-1.09521E-18 8.87691E-19
 -1      2203 1.60410E-04-2.68076E-05-5.65375E-05 5.10692E-06-1.19643E-19 6.05205E-19
 -1      2204 1.49632E-04-2.89954E-05-5.14256E-05-7.69802E-07 3.74812E-20 1.45774E-18
 -1      2205 1.48291E-04-1.98154E-05-5.54716E-05-5.23140E-06 8.42798E-19-1.21337E-19
 -1      2206 1.27502E-04-5.15872E-05-3.22924E-05 2.91313E-05 6.71274E-19 1.52551E-18
 -1      2207 5.47111E-05-3.95478E-05-6.76389E-06 4.05088E-05 5.93770E-19-1.23021E-18
 -1      2208 1.52822E-05-2.44376E-05 3.33733E-06-1.70437E-06-6.18599E-20-1.17653E-18
 -1      2209 3.17569E-05-3.19763E-05-4.90933E-07-2.89338E-05-5.85300E-19-9.46983E-19
 -1      2210 6.56127E-05-4.45546E-05-9.41794E-06-4.04559E-05-5.81065E-19-5.37919E-19
 -1      2211 1.39066E-04-5.37829E-05-3.61417E-05-2.13542E-05-2.81003E-19 1.38278E-18
 -1      2212 1.58758E-04-1.41621E-05-6.09893E-05 8.60340E-07 3.29496E-19 4.34448E-19
 -1      2213 1.58071E-04-2.55496E-05-5.61145E-05 4.12500E-06 8.48092E-19 7.42848E-19
 -1      2214 1.05255E-04-5.39784E-05-2.19582E-05-3.74469E-05-9.44442E-20 6.30193E-19
 -1      2215 9.55236E-05-5.12591E-05-1.89783E-05 4.09548E-05 6.43745E-19-6.53909E-19
 -1      2216 1.59800E-04-1.41960E-05-6.13864E-05-7.31413E-07-4.08270E-19 1.89947E-19
 -1      2217 9.51742E-05-2.63488E-05-2.94826E-05 4.13165E-06 8.17837E-19-2.46281E-19
 -1      2218 9.61348E-05-2.58347E-05-3.00549E-05 5.94658E-06 9.25436E-19-1.56410E-19
 -1      2219 8.81730E-05-1.11103E-05-3.30664E-05-3.61743E-06-6.40497E-19-1.12319E-18
 -1      2220 8.84066E-05-1.13859E-05-3.30456E-05-4.74916E-06-7.37434E-19-1.11779E-18
 -1      2221 8.87575E-05-1.18785E-05-3.29933E-05-5.75812E-06-8.29081E-19-1.08108E-18
 -1      2222 8.91622E-05-1.23586E-05-3.29604E-05-6.92424E-06-9.52538E-19-9.05412E-19
 -1      2223 8.99156E-05-1.37388E-05-3.26457E-05-4.83647E-06-7.00643E-19-1.00722E-18
 -1      2224 8.78256E-05-1.06389E-05-3.31141E-05 6.08009E-07-2.50821E-19-1.28907E-18
 -1      2225 8.78208E-05-1.06338E-05-3.31143E-05-4.90552E-07-3.83245E-19-1.26858E-18
 -1      2226 8.80085E-05-1.08703E-05-3.30936E-05 2.72414E-06-9.13671E-20-1.59193E-18
 -1      2227 8.78928E-05-1.07338E-05-3.31043E-05 1.61622E-06-1.87753E-19-1.48891E-18
 -1      2228 8.91282E-05-1.26594E-05-3.27748E-05 1.03209E-06-2.51805E-19-1.37888E-18
 -1      2229 8.84450E-05-1.14309E-05-3.30434E-05 4.83238E-06 1.52724E-19-1.63849E-18
 -1      2230 8.82050E-05-1.11482E-05-3.30643E-05 3.71818E-06-2.75906E-21-1.61779E-18
 -1      2231 8.93979E-05-1.30259E-05-3.27320E-05 2.97391E-06-3.09885E-20-1.55863E-18
 -1      2232 8.92233E-05-1.24316E-05-3.29563E-05 7.00644E-06 4.26552E-19-1.39277E-18
 -1      2233 8.88075E-05-1.19380E-05-3.29900E-05 5.84006E-06 2.83011E-19-1.52011E-18
 -1      2234 8.99599E-05-1.37928E-05-3.26417E-05 4.90517E-06 2.43648E-19-1.44763E-18
 -1      2235 9.04821E-05-1.40577E-05-3.28173E-05 9.15149E-06 7.29798E-19-1.28102E-18
 -1      2236 8.98095E-05-1.32410E-05-3.28691E-05 7.97386E-06 5.43099E-19-1.31501E-18
 -1      2237 9.08962E-05-1.50754E-05-3.24875E-05 6.78882E-06 4.80984E-19-1.28484E-18
 -1      2238 9.24535E-05-1.66409E-05-3.25913E-05 1.10412E-05 9.15748E-19-1.06920E-18
 -1      2239 9.13910E-05-1.52984E-05-3.26718E-05 9.95882E-06 7.87667E-19-1.22988E-18
 -1      2240 9.23091E-05-1.70498E-05-3.22331E-05 8.43420E-06 6.76822E-19-1.15137E-18
 -1      2241 9.42289E-05-2.70874E-05-2.87570E-05 1.66743E-06 7.30460E-19-3.60399E-19
 -1      2242 9.48086E-05-2.68638E-05-2.90476E-05 2.65745E-06 8.05902E-19-2.59897E-19
 -1      2243 9.53266E-05-2.58166E-05-2.97985E-05 4.26948E-06 8.51493E-19-4.90141E-19
 -1      2244 9.58801E-05-2.50622E-05-3.03044E-05-6.11927E-06-9.40848E-19 6.53226E-19
 -1      2245 9.52392E-05-2.58149E-05-2.97665E-05-4.18524E-06-8.91403E-19 5.74738E-19
 -1      2246 1.50911E-04-3.20700E-05-5.15578E-05-7.38549E-06-8.59527E-19-4.60786E-19
 -1      2247 1.50128E-04-4.19443E-05-4.63819E-05-2.02793E-06-1.14138E-19-1.16848E-18
 -1      2248 9.51376E-05-2.65037E-05-2.93574E-05-2.82993E-06-8.17183E-19 6.15590E-19
 -1      2249 9.46876E-05-2.68702E-05-2.90633E-05-1.74572E-06-6.69288E-19 4.90199E-19
 -1      2250 9.53471E-05-2.53304E-05-3.00145E-05-4.17559E-06-8.57403E-19 2.09201E-19
 -1      2251 9.45075E-05-2.71921E-05-2.88110E-05-8.60332E-07-5.40419E-19 5.25797E-19
 -1      2252 9.42796E-05-2.74026E-05-2.86574E-05-2.23120E-07-3.33743E-19 3.14094E-19
 -1      2253 9.50634E-05-2.66403E-05-2.93384E-05-1.74308E-06-6.45335E-19 1.77739E-19
 -1      2254 9.41558E-05-2.75775E-05-2.85109E-05 3.33469E-07-3.11296E-19 2.61146E-19
 -1      2255 9.41020E-05-2.77199E-05-2.84446E-05 7.12962E-07-3.18697E-19 2.58117E-19
 -1      2256 9.47984E-05-2.73469E-05-2.89216E-05-1.74760E-07-4.23366E-19 1.19693E-20
 -1      2257 9.40511E-05-2.78228E-05-2.83707E-05 1.06183E-06-3.27478E-19 2.39920E-19
 -1      2258 9.41194E-05-2.79305E-05-2.83614E-05 1.29378E-06-3.57182E-19 2.68784E-19
 -1      2259 9.46540E-05-2.77533E-05-2.86834E-05 8.18101E-07-3.46500E-19 8.54507E-20
 -1      2260 9.41339E-05-2.79956E-05-2.83382E-05 1.51994E-06-5.56065E-19 2.43526E-19
 -1      2261 9.42874E-05-2.80833E-05-2.83675E-05 1.67216E-06-4.50143E-19 1.82384E-19
 -1      2262 9.46385E-05-2.79961E-05-2.85700E-05 1.45452E-06-5.01916E-19 2.05039E-19
 -1      2263 9.43550E-05-2.81267E-05-2.83805E-05 1.83338E-06-3.31120E-19 1.67255E-21
 -1      2264 9.45708E-05-2.82026E-05-2.84372E-05 1.95016E-06-4.23355E-19 3.08072E-20
 -1      2265 9.47339E-05-2.81446E-05-2.85452E-05 1.88577E-06-5.81473E-19-7.92161E-20
 -1      2266 9.46814E-05-2.82332E-05-2.84769E-05 2.08680E-06-6.72001E-19 1.55917E-20
 -1      2267 9.49478E-05-2.83036E-05-2.85548E-05 2.19803E-06-8.33196E-19-2.82934E-19
 -1      2268 9.49197E-05-2.82347E-05-2.85847E-05 2.21690E-06-6.29988E-19-2.67417E-19
 -1      2269 9.50960E-05-2.83283E-05-2.86152E-05 2.33816E-06-7.03647E-19-1.85417E-19
 -1      2270 9.54096E-05-2.83995E-05-2.87107E-05 2.46369E-06-4.77638E-19-2.55800E-19
 -1      2271 9.51821E-05-2.82902E-05-2.86725E-05 2.52141E-06-7.32146E-19-4.78241E-20
 -1      2272 9.55944E-05-2.84250E-05-2.87879E-05 2.62575E-06-1.22200E-19-2.19138E-19
 -1      2273 9.59573E-05-2.85049E-05-2.88996E-05 2.77709E-06 1.02282E-19-2.69373E-19
 -1      2274 9.55161E-05-2.83303E-05-2.87980E-05 2.84939E-06-3.34237E-19 3.50911E-19
 -1      2275 9.61821E-05-2.85397E-05-2.89907E-05 2.97070E-06 2.34959E-19-1.40330E-19
 -1      2276 9.66002E-05-2.86380E-05-2.91176E-05 3.15098E-06 3.69917E-19 3.36732E-19
 -1      2277 9.59250E-05-2.83758E-05-2.89537E-05 3.23127E-06 3.10093E-19 4.48282E-19
 -1      2278 9.68722E-05-2.86933E-05-2.92202E-05 3.37631E-06 3.06675E-19 2.26970E-19
 -1      2279 9.73530E-05-2.88227E-05-2.93613E-05 3.57873E-06 4.53278E-20 1.76627E-19
 -1      2280 9.64205E-05-2.84520E-05-2.91336E-05 3.67823E-06 2.48427E-19 1.38124E-19
 -1      2281 9.76839E-05-2.89145E-05-2.94725E-05 3.82429E-06-3.58254E-19 3.29627E-19
 -1      2282 9.82344E-05-2.90913E-05-2.96253E-05 4.02922E-06-2.01359E-19 4.09410E-19
 -1      2283 9.70225E-05-2.85933E-05-2.93315E-05 4.17949E-06-5.42980E-20-1.18789E-19
 -1      2284 9.86412E-05-2.92413E-05-2.97412E-05 4.26840E-06-7.98891E-20 4.67100E-19
 -1      2285 9.92654E-05-2.94854E-05-2.99013E-05 4.43943E-06-1.64288E-19 6.06515E-19
 -1      2286 9.77605E-05-2.88465E-05-2.95402E-05 4.69673E-06-1.42996E-19 4.36947E-19
 -1      2287 9.97709E-05-2.97224E-05-3.00169E-05 4.62576E-06-3.71597E-19 5.64324E-19
 -1      2288 1.00466E-04-3.00562E-05-3.01769E-05 4.70553E-06-2.10554E-19 6.56865E-19
 -1      2289 9.86752E-05-2.92738E-05-2.97505E-05 5.15607E-06-3.67434E-19 5.19057E-19
 -1      2290 1.01099E-04-3.04137E-05-3.02865E-05 4.76770E-06-2.49591E-19 1.87785E-19
 -1      2291 1.01851E-04-3.08567E-05-3.04360E-05 4.67564E-06-5.04244E-19-4.76803E-20
 -1      2292 9.98185E-05-2.99513E-05-2.99522E-05 5.43850E-06-5.59066E-19 3.65458E-19
 -1      2293 1.02639E-04-3.13654E-05-3.05350E-05 4.51457E-06-7.25492E-19-1.62817E-19
 -1      2294 1.03415E-04-3.19209E-05-3.06620E-05 4.15107E-06-4.55536E-19-1.16386E-19
 -1      2295 1.01249E-04-3.09575E-05-3.01368E-05 5.37164E-06-8.00089E-19 3.02815E-20
 -1      2296 1.04374E-04-3.25889E-05-3.07501E-05 3.64443E-06-1.21945E-19-6.80998E-19
 -1      2297 1.05106E-04-3.32191E-05-3.08441E-05 2.90913E-06 2.54871E-20-6.99197E-19
 -1      2298 1.03013E-04-3.23396E-05-3.03029E-05 4.73004E-06-5.94111E-19 2.46048E-19
 -1      2299 1.06203E-04-3.39940E-05-3.09302E-05 1.93454E-06 1.99493E-19-7.35245E-19
 -1      2300 1.06776E-04-3.45825E-05-3.09875E-05 7.69620E-07 1.38783E-19-7.99184E-19
 -1      2301 1.05096E-04-3.40438E-05-3.04656E-05 3.25892E-06 8.00843E-20-3.25332E-19
 -1      2302 1.07880E-04-3.52989E-05-3.10944E-05-7.33719E-07 4.77194E-19-2.69816E-19
 -1      2303 1.08122E-04-3.56177E-05-3.11237E-05-2.26677E-06 9.34443E-19 2.70472E-20
 -1      2304 1.07340E-04-3.58034E-05-3.06666E-05 7.51567E-07 6.37963E-19-2.81542E-19
 -1      2305 1.08956E-04-3.59633E-05-3.12870E-05-4.18214E-06 8.59082E-19-1.22200E-19
 -1      2306 1.08675E-04-3.56948E-05-3.13108E-05-5.80689E-06 7.36273E-19 5.22935E-20
 -1      2307 1.09331E-04-3.70301E-05-3.09780E-05-2.77609E-06 6.34392E-19 3.86678E-20
 -1      2308 1.08849E-04-3.52717E-05-3.15642E-05-7.69459E-06 4.46914E-19-3.98442E-19
 -1      2309 1.07936E-04-3.41582E-05-3.16108E-05-8.86501E-06 3.32791E-20-1.11094E-19
 -1      2310 1.10382E-04-3.68460E-05-3.14828E-05-6.80891E-06 2.74043E-19-7.10508E-19
 -1      2311 1.07162E-04-3.27373E-05-3.19574E-05-9.90085E-06-2.39265E-19-7.50579E-19
 -1      2312 1.05781E-04-3.08908E-05-3.20382E-05-9.92151E-06 5.19006E-20-7.48913E-19
 -1      2313 1.09760E-04-3.44536E-05-3.22232E-05-1.00696E-05-3.82975E-19-1.43715E-18
 -1      2314 1.04302E-04-2.88412E-05-3.24072E-05-9.21173E-06-1.41762E-20-1.07524E-18
 -1      2315 1.02971E-04-2.69712E-05-3.24941E-05-7.66070E-06-1.00148E-19-1.23143E-18
 -1      2316 1.07381E-04-3.00593E-05-3.31139E-05-1.06629E-05-2.51337E-19-1.40746E-18
 -1      2317 1.01699E-04-2.53502E-05-3.27474E-05-4.98949E-06 3.32867E-19-1.17604E-18
 -1      2318 1.01096E-04-2.44814E-05-3.27891E-05-2.21189E-06 2.84034E-19-7.01776E-20
 -1      2319 1.04442E-04-2.54381E-05-3.38898E-05-7.20688E-06 2.26965E-19-1.73004E-18
 -1      2320 1.01010E-04-2.43743E-05-3.28058E-05 1.42059E-06 1.78036E-19-2.82786E-19
 -1      2321 1.01492E-04-2.50744E-05-3.27715E-05 4.28027E-06 6.56841E-19-3.45671E-19
 -1      2322 1.02984E-04-2.32630E-05-3.42284E-05-4.59438E-07 4.50314E-19-1.28481E-18
 -1      2323 1.02657E-04-2.65437E-05-3.25429E-05 7.12539E-06 8.51123E-19-2.96758E-19
 -1      2324 1.03916E-04-2.83276E-05-3.24591E-05 8.87624E-06 3.60283E-19-7.94424E-21
 -1      2325 1.04146E-04-2.49711E-05-3.39624E-05 6.53032E-06 5.67036E-19-1.24127E-18
 -1      2326 1.05446E-04-3.04009E-05-3.20964E-05 9.85495E-06-1.09567E-19-3.47158E-19
 -1      2327 1.06861E-04-3.22973E-05-3.20163E-05 1.00150E-05 1.84319E-19-4.74047E-19
 -1      2328 1.06989E-04-2.94126E-05-3.32234E-05 1.04684E-05-1.41715E-19 1.37324E-19
 -1      2329 1.07750E-04-3.38320E-05-3.16679E-05 9.16755E-06 5.35088E-19-1.13376E-18
 -1      2330 1.08751E-04-3.50601E-05-3.16206E-05 8.10012E-06 7.59666E-19-2.84372E-19
 -1      2331 1.09558E-04-3.40125E-05-3.23385E-05 1.03434E-05 1.26527E-19 4.60906E-19
 -1      2332 1.08683E-04-3.55981E-05-3.13560E-05 6.27010E-06 3.48311E-19-1.34141E-19
 -1      2333 1.09048E-04-3.59609E-05-3.13324E-05 4.67395E-06-2.93239E-19 8.62049E-19
 -1      2334 1.10430E-04-3.66879E-05-3.15800E-05 7.32376E-06 6.60494E-19 3.19135E-19
 -1      2335 1.08277E-04-3.56876E-05-3.11605E-05 2.73823E-06-8.06071E-19 2.38125E-18
 -1      2336 1.08098E-04-3.54219E-05-3.11360E-05 1.18380E-06-1.04758E-18 2.13455E-18
 -1      2337 1.09554E-04-3.70911E-05-3.10473E-05 3.31709E-06 2.70356E-19 8.22446E-19
 -1      2338 1.07013E-04-3.47286E-05-3.10277E-05-3.68262E-07-1.22289E-18 2.39390E-18
 -1      2339 1.06483E-04-3.41581E-05-3.09792E-05-1.57077E-06-1.61123E-19 2.48777E-18
 -1      2340 1.07645E-04-3.59809E-05-3.07204E-05-2.92208E-07-7.81107E-19 2.57578E-18
 -1      2341 1.05384E-04-3.33773E-05-3.08969E-05-2.59041E-06 4.13082E-19 1.90247E-18
 -1      2342 1.04681E-04-3.27450E-05-3.08136E-05-3.35846E-06 1.91654E-19 1.21761E-18
 -1      2343 1.05416E-04-3.42398E-05-3.05185E-05-2.89753E-06-6.48452E-19 2.84226E-18
 -1      2344 1.03714E-04-3.20584E-05-3.07328E-05-3.89322E-06 1.17077E-19 9.95513E-19
 -1      2345 1.02963E-04-3.14928E-05-3.06175E-05-4.27418E-06 3.22018E-19 1.70457E-18
 -1      2346 1.03321E-04-3.25042E-05-3.03650E-05-4.44261E-06 2.30395E-19 1.53984E-18
 -1      2347 1.02169E-04-3.09634E-05-3.05277E-05-4.44201E-06-3.11036E-19 1.48223E-18
 -1      2348 1.01442E-04-3.05098E-05-3.03907E-05-4.53310E-06-3.52267E-19 1.15352E-18
 -1      2349 1.01542E-04-3.10718E-05-3.02142E-05-5.11738E-06-4.13321E-20 1.21239E-18
 -1      2350 1.00811E-04-3.01347E-05-3.02917E-05-4.45719E-06-4.73888E-19 5.44335E-19
 -1      2351 1.00146E-04-2.97938E-05-3.01454E-05-4.35873E-06-5.67251E-19-3.46569E-19
 -1      2352 1.00107E-04-3.00160E-05-3.00487E-05-5.17413E-06-5.90396E-19-9.73662E-19
 -1      2353 9.96503E-05-2.95440E-05-3.00417E-05-4.14085E-06 7.59743E-19-4.89924E-19
 -1      2354 9.90659E-05-2.92979E-05-2.98971E-05-3.93559E-06 6.95532E-19 3.10276E-19
 -1      2355 9.89734E-05-2.92978E-05-2.98686E-05-4.84237E-06-4.14196E-19-4.48000E-19
 -1      2356 9.86768E-05-2.91399E-05-2.97944E-05-3.65008E-06-3.45927E-19 7.71549E-19
 -1      2357 9.81775E-05-2.89671E-05-2.96595E-05-3.39795E-06-5.09945E-19 1.68757E-18
 -1      2358 9.80852E-05-2.88412E-05-2.96821E-05-4.30043E-06 6.09180E-19 1.16106E-18
 -1      2359 9.78715E-05-2.88718E-05-2.95627E-05-3.09431E-06-3.28656E-19 2.41044E-18
 -1      2360 9.74549E-05-2.87527E-05-2.94425E-05-2.83441E-06 3.89102E-19 2.88953E-18
 -1      2361 9.73893E-05-2.85699E-05-2.94991E-05-3.67365E-06 3.87783E-19 3.01375E-18
 -1      2362 9.72138E-05-2.86980E-05-2.93551E-05-2.54260E-06 3.09629E-19 2.65002E-18
 -1      2363 9.68734E-05-2.86167E-05-2.92519E-05-2.29762E-06 3.05881E-19 2.27261E-18
 -1      2364 9.68432E-05-2.84211E-05-2.93281E-05-3.04269E-06 4.37707E-20 3.54185E-18
 -1      2365 9.66833E-05-2.85867E-05-2.91761E-05-2.03337E-06 5.40208E-19 1.60760E-18
 -1      2366 9.64105E-05-2.85311E-05-2.90904E-05-1.81416E-06 7.42324E-19 2.00477E-18
 -1      2367 9.64142E-05-2.83481E-05-2.91749E-05-2.45416E-06 3.19458E-19 2.93609E-18
 -1      2368 9.62604E-05-2.85146E-05-2.90267E-05-1.58336E-06-6.28460E-19 1.63576E-18
 -1      2369 9.60458E-05-2.84758E-05-2.89577E-05-1.39278E-06-6.23267E-19 1.18000E-18
 -1      2370 9.60770E-05-2.83179E-05-2.90428E-05-1.93027E-06-3.54108E-19 2.27955E-18
 -1      2371 9.59268E-05-2.84655E-05-2.89060E-05-1.19502E-06-7.56743E-19 5.10662E-19
 -1      2372 9.57612E-05-2.84369E-05-2.88523E-05-1.03124E-06-1.46948E-18 5.59696E-19
 -1      2373 9.58113E-05-2.83080E-05-2.89327E-05-1.47673E-06-1.43086E-18 8.40478E-19
 -1      2374 9.56657E-05-2.84286E-05-2.88113E-05-8.62305E-07-2.03060E-18-5.59749E-19
 -1      2375 9.55420E-05-2.84063E-05-2.87708E-05-7.21653E-07-1.35421E-18-9.35698E-19
 -1      2376 9.56002E-05-2.83035E-05-2.88435E-05-1.08942E-06-1.94532E-18-1.51501E-19
 -1      2377 5.95315E-05-3.64870E-05-9.62658E-06 4.02737E-05-7.89435E-19-6.51368E-19
 -1      2378 4.53271E-05-2.90946E-05-6.37053E-06 3.30169E-05-7.50683E-19-1.75230E-18
 -1      2379 9.34625E-05-2.76657E-05-2.81890E-05-6.41502E-07-2.28302E-22-6.26236E-19
 -1      2380 9.34945E-05-2.75570E-05-2.82340E-05-3.16856E-07 2.31123E-20-4.75360E-19
 -1      2381 9.35202E-05-2.78376E-05-2.81419E-05-1.16023E-06 9.00841E-20-8.57560E-19
 -1      2382 9.34085E-05-2.77396E-05-2.81301E-05-9.65930E-07 2.01129E-21-6.98679E-19
 -1      2383 9.41499E-05-2.77512E-05-2.84692E-05-7.63310E-07 1.15122E-19-8.56500E-19
 -1      2384 9.37672E-05-2.79866E-05-2.81844E-05-1.49047E-06 2.25664E-19-7.80033E-19
 -1      2385 9.35599E-05-2.78942E-05-2.81351E-05-1.36406E-06 1.33847E-19-8.89346E-19
 -1      2386 9.41598E-05-2.79510E-05-2.83851E-05-1.35811E-06 1.76577E-19-9.01125E-19
 -1      2387 9.41528E-05-2.81237E-05-2.82907E-05-1.73291E-06 4.27575E-19-4.95443E-19
 -1      2388 9.38770E-05-2.80345E-05-2.82145E-05-1.63355E-06 3.79305E-19-5.56912E-19
 -1      2389 9.43217E-05-2.80907E-05-2.83923E-05-1.75433E-06 1.74861E-19-9.67793E-19
 -1      2390 9.46499E-05-2.82552E-05-2.84466E-05-1.95839E-06 1.73819E-19-5.29193E-19
 -1      2391 9.43174E-05-2.81666E-05-2.83486E-05-1.85709E-06 3.76049E-19-4.61396E-19
 -1      2392 9.46000E-05-2.81933E-05-2.84661E-05-2.06095E-06 3.40440E-19-6.48616E-19
 -1      2393 9.52502E-05-2.83871E-05-2.86459E-05-2.21977E-06 7.22682E-19-7.50431E-19
 -1      2394 9.48613E-05-2.82955E-05-2.85274E-05-2.09452E-06 3.49433E-19-5.85521E-19
 -1      2395 9.49735E-05-2.82713E-05-2.85918E-05-2.35636E-06 4.58658E-19-9.35649E-19
 -1      2396 9.59599E-05-2.85272E-05-2.88881E-05-2.55808E-06 8.21534E-19-1.00260E-18
 -1      2397 9.55064E-05-2.84276E-05-2.87477E-05-2.39154E-06 9.58836E-19-8.28169E-19
 -1      2398 9.54338E-05-2.83340E-05-2.87619E-05-2.69954E-06 9.13070E-19-1.03088E-18
 -1      2399 9.67964E-05-2.86862E-05-2.91763E-05-3.00524E-06 8.18724E-19-1.13379E-18
 -1      2400 9.62640E-05-2.85713E-05-2.90107E-05-2.78389E-06 7.16710E-19-9.62787E-19
 -1      2401 9.59830E-05-2.83903E-05-2.89731E-05-3.13596E-06 6.75898E-19-6.75250E-19
 -1      2402 9.77855E-05-2.88786E-05-2.95154E-05-3.58355E-06 2.04581E-19-9.62074E-19
 -1      2403 9.71551E-05-2.87388E-05-2.93206E-05-3.29849E-06 7.18358E-19-1.02390E-18
 -1      2404 9.66316E-05-2.84518E-05-2.92250E-05-3.70000E-06 6.62914E-19-5.66276E-19
 -1      2405 9.89585E-05-2.91261E-05-2.99101E-05-4.30155E-06 1.51257E-19-6.59281E-19
 -1      2406 9.82089E-05-2.89480E-05-2.96821E-05-3.95124E-06 2.07833E-19-8.32215E-19
 -1      2407 9.73975E-05-2.85357E-05-2.95177E-05-4.41376E-06 2.08369E-19-5.10457E-19
 -1      2408 1.00351E-04-2.94618E-05-3.03621E-05-5.14468E-06 7.78857E-20-8.68209E-19
 -1      2409 9.94604E-05-2.92260E-05-3.00989E-05-4.74050E-06 5.00527E-21-9.62355E-19
 -1      2410 9.83060E-05-2.86704E-05-2.98500E-05-5.28181E-06 1.16973E-19-7.60789E-19
 -1      2411 1.01999E-04-2.99374E-05-3.08664E-05-6.05839E-06 5.99911E-19-7.57557E-19
 -1      2412 1.00951E-04-2.96157E-05-3.05699E-05-5.63446E-06 4.25745E-19-6.91511E-19
 -1      2413 9.93930E-05-2.89044E-05-3.02165E-05-6.28023E-06 1.36088E-19-9.53341E-19
 -1      2414 1.03942E-04-3.06329E-05-3.14073E-05-6.92159E-06 4.12320E-19-4.96111E-19
 -1      2415 1.02728E-04-3.01850E-05-3.10864E-05-6.54969E-06 7.64808E-19-4.44289E-19
 -1      2416 1.00712E-04-2.93198E-05-3.06057E-05-7.33783E-06 3.95488E-19-4.71888E-20
 -1      2417 1.06220E-04-3.16642E-05-3.19543E-05-7.51022E-06-8.23834E-19-4.99875E-19
 -1      2418 1.04849E-04-3.10375E-05-3.16277E-05-7.31877E-06-2.58296E-19-4.26186E-19
 -1      2419 1.02347E-04-3.00488E-05-3.09981E-05-8.30733E-06-3.39029E-19 5.58258E-19
 -1      2420 1.08866E-04-3.31731E-05-3.24629E-05-7.45933E-06-1.29371E-18-5.87090E-19
 -1      2421 1.07379E-04-3.23148E-05-3.21605E-05-7.64896E-06-1.26438E-18-5.73359E-19
 -1      2422 1.04429E-04-3.12847E-05-3.13680E-05-8.92616E-06-1.07305E-18 2.47478E-19
 -1      2423 1.11872E-04-3.52615E-05-3.28855E-05-6.25136E-06-2.95274E-19-9.94357E-19
 -1      2424 1.10374E-04-3.41651E-05-3.26439E-05-7.08624E-06-6.45482E-19-7.86510E-19
 -1      2425 1.07140E-04-3.32585E-05-3.16947E-05-8.77397E-06-7.55470E-19-3.74485E-19
 -1      2426 1.15083E-04-3.78012E-05-3.32033E-05-3.30300E-06 6.80419E-19-9.84636E-19
 -1      2427 1.13795E-04-3.66186E-05-3.30496E-05-5.03040E-06 1.72087E-19-1.02525E-18
 -1      2428 1.10659E-04-3.61205E-05-3.19880E-05-7.25328E-06 8.50821E-20-1.38288E-18
 -1      2429 1.18015E-04-4.01417E-05-3.34754E-05 1.68531E-06 5.01099E-19-1.81863E-19
 -1      2430 1.17306E-04-3.93060E-05-3.34031E-05-9.48031E-07 8.12384E-19-4.00306E-19
 -1      2431 1.14944E-04-3.95922E-05-3.23340E-05-3.69162E-06 4.08376E-19-1.09935E-18
 -1      2432 1.19618E-04-4.07393E-05-3.38838E-05 8.18482E-06-9.29784E-20-1.43053E-19
 -1      2433 1.20053E-04-4.11418E-05-3.38245E-05 5.18005E-06 2.92418E-19-2.95097E-19
 -1      2434 1.19426E-04-4.26253E-05-3.29457E-05 2.27839E-06 5.42841E-19-5.24881E-19
 -1      2435 1.18554E-04-3.77133E-05-3.46491E-05 1.36246E-05-3.75418E-19-1.14200E-18
 -1      2436 1.20377E-04-4.00376E-05-3.45152E-05 1.17202E-05-5.26686E-19-3.35954E-19
 -1      2437 1.22346E-04-4.26822E-05-3.41308E-05 9.81085E-06-1.96512E-19-4.50870E-19
 -1      2438 1.14570E-04-3.09538E-05-3.57954E-05 1.38941E-05-1.24805E-19-1.28562E-18
 -1      2439 1.17221E-04-3.46865E-05-3.55617E-05 1.49283E-05-7.35860E-20-1.28297E-18
 -1      2440 1.21684E-04-3.75921E-05-3.60526E-05 1.55813E-05-1.35525E-19-1.47119E-18
 -1      2441 1.10402E-04-2.47614E-05-3.67828E-05 6.51152E-06-2.01329E-19-6.00302E-19
 -1      2442 1.12225E-04-2.73834E-05-3.66094E-05 1.06531E-05-4.66133E-20-6.29408E-19
 -1      2443 1.17525E-04-2.88654E-05-3.80481E-05 1.42397E-05-3.92864E-19-5.47236E-19
 -1      2444 1.10332E-04-2.45707E-05-3.69188E-05-5.40077E-06-3.84871E-19-5.12495E-19
 -1      2445 1.09756E-04-2.36351E-05-3.69955E-05-2.82923E-07-3.56257E-19-7.00334E-19
 -1      2446 1.13978E-04-2.22225E-05-3.94332E-05 3.67286E-06-2.64962E-19-4.50251E-19
 -1      2447 1.14595E-04-3.07421E-05-3.61370E-05-1.37167E-05-4.03717E-19 5.16227E-20
 -1      2448 1.12158E-04-2.72314E-05-3.63540E-05-1.09062E-05-4.20525E-19 2.70432E-19
 -1      2449 1.15270E-04-2.41671E-05-3.91612E-05-9.42647E-06-1.01919E-18-5.85945E-19
 -1      2450 1.19119E-04-3.76816E-05-3.50356E-05-1.41341E-05-2.86238E-19 6.51669E-19
 -1      2451 1.16696E-04-3.44573E-05-3.52219E-05-1.46622E-05-2.66485E-19 3.99290E-19
 -1      2452 1.19783E-04-3.30467E-05-3.72242E-05-1.58467E-05-4.88156E-19-2.71567E-19
 -1      2453 1.20641E-04-4.10075E-05-3.41608E-05-8.83995E-06-7.28680E-19-2.10419E-19
 -1      2454 1.19453E-04-3.96588E-05-3.42468E-05-1.14275E-05-2.72305E-19 2.42000E-19
 -1      2455 1.22517E-04-4.06462E-05-3.50735E-05-1.34085E-05-4.37943E-20-8.64225E-19
 -1      2456 1.19002E-04-4.04972E-05-3.36182E-05-2.19299E-06 5.75843E-19-1.43491E-18
 -1      2457 1.19132E-04-4.07812E-05-3.36717E-05-5.06337E-06-7.78814E-19-6.07162E-19
 -1      2458 1.21320E-04-4.31665E-05-3.34985E-05-6.25274E-06-5.09478E-19-1.13971E-18
 -1      2459 1.15745E-04-3.80737E-05-3.32553E-05 3.06046E-06 1.18107E-18-8.65813E-19
 -1      2460 1.16761E-04-3.91369E-05-3.33585E-05 8.94469E-07 1.29214E-18-7.84083E-19
 -1      2461 1.17430E-04-4.14233E-05-3.26174E-05 7.45502E-07 6.56517E-19-9.09311E-19
 -1      2462 1.12213E-04-3.54040E-05-3.28951E-05 6.13670E-06 1.18890E-18 2.57386E-19
 -1      2463 1.13619E-04-3.65651E-05-3.30875E-05 4.89887E-06 6.88823E-19-5.17643E-19
 -1      2464 1.12895E-04-3.79376E-05-3.21735E-05 5.60106E-06 3.84553E-19-3.34671E-19
 -1      2465 1.09007E-04-3.32290E-05-3.24632E-05 7.39256E-06 1.67510E-18 9.86856E-19
 -1      2466 1.10496E-04-3.42010E-05-3.27320E-05 6.91880E-06 1.61075E-18 7.28033E-19
 -1      2467 1.08956E-04-3.46564E-05-3.18813E-05 8.08359E-06 1.22890E-18 5.11451E-19
 -1      2468 1.06274E-04-3.16697E-05-3.19664E-05 7.44019E-06 1.09292E-18 1.19984E-18
 -1      2469 1.07689E-04-3.24014E-05-3.22764E-05 7.46938E-06 1.89024E-18 1.27051E-18
 -1      2470 1.05864E-04-3.22171E-05-3.15888E-05 8.84106E-06 1.62537E-18 1.38167E-18
 -1      2471 1.03996E-04-3.06187E-05-3.14438E-05 6.81416E-06 1.93322E-19 1.31866E-18
 -1      2472 1.05264E-04-3.11451E-05-3.17600E-05 7.11753E-06 6.05208E-19 7.64795E-19
 -1      2473 1.03507E-04-3.06167E-05-3.12547E-05 8.52143E-06 1.01727E-18 5.75468E-19
 -1      2474 1.02113E-04-2.99254E-05-3.09350E-05 5.89036E-06-9.44010E-19-2.95718E-19
 -1      2475 1.03207E-04-3.02993E-05-3.12323E-05 6.30894E-06-4.05400E-19 1.12319E-18
 -1      2476 1.01698E-04-2.96475E-05-3.08889E-05 7.63727E-06 3.91691E-19 4.41802E-19
 -1      2477 1.00564E-04-2.94663E-05-3.04683E-05 4.89761E-06-2.36348E-18 5.52517E-19
 -1      2478 1.01483E-04-2.97328E-05-3.07324E-05 5.33585E-06-1.17786E-18 1.37331E-19
 -1      2479 1.00280E-04-2.90898E-05-3.05173E-05 6.52923E-06-1.12668E-18 1.72202E-18
 -1      2480 9.93006E-05-2.91572E-05-3.00593E-05 3.95923E-06-2.87488E-18-6.03447E-19
 -1      2481 1.00054E-04-2.93487E-05-3.02844E-05 4.36695E-06-3.29384E-18-5.81841E-19
 -1      2482 9.91479E-05-2.87795E-05-3.01637E-05 5.39939E-06-2.44517E-18 1.08032E-18
 -1      2483 9.82797E-05-2.89443E-05-2.97130E-05 3.13145E-06-6.09844E-19 3.45592E-19
 -1      2484 9.88860E-05-2.90832E-05-2.98990E-05 3.48701E-06-1.84845E-18 2.68903E-19
 -1      2485 9.82349E-05-2.86109E-05-2.98440E-05 4.35453E-06-2.66329E-18-1.54769E-18
 -1      2486 9.74647E-05-2.87944E-05-2.94279E-05 2.43119E-06-5.63055E-19 2.74983E-19
 -1      2487 9.79443E-05-2.88958E-05-2.95778E-05 2.72939E-06-8.04508E-20 5.02725E-19
 -1      2488 9.74980E-05-2.85206E-05-2.95665E-05 3.44140E-06-1.00601E-18-1.89058E-19
 -1      2489 9.68226E-05-2.86866E-05-2.91990E-05 1.85405E-06 1.33164E-18-2.16902E-21
 -1      2490 9.71958E-05-2.87611E-05-2.93171E-05 2.09840E-06-1.24784E-19-7.61627E-21
 -1      2491 9.69064E-05-2.84724E-05-2.93332E-05 2.67149E-06-1.00858E-19-3.08359E-19
 -1      2492 9.63239E-05-2.86068E-05-2.90195E-05 1.38472E-06 2.05503E-18 1.11957E-18
 -1      2493 9.66092E-05-2.86621E-05-2.91104E-05 1.58310E-06 2.14128E-18 5.14083E-19
 -1      2494 9.64354E-05-2.84451E-05-2.91426E-05 2.03694E-06 8.04494E-19 4.67920E-19
 -1      2495 9.59424E-05-2.85454E-05-2.88823E-05 1.00328E-06 1.97107E-18 2.16530E-18
 -1      2496 9.61561E-05-2.85870E-05-2.89504E-05 1.16525E-06 1.83460E-18 2.54668E-18
 -1      2497 9.60640E-05-2.84265E-05-2.89908E-05 1.51989E-06 1.24126E-18 2.64243E-18
 -1      2498 9.56552E-05-2.84968E-05-2.87803E-05 6.88370E-07 2.58569E-18 1.29126E-18
 -1      2499 9.58107E-05-2.85275E-05-2.88296E-05 8.23623E-07 2.57810E-18 1.81988E-18
 -1      2500 9.57723E-05-2.84089E-05-2.88729E-05 1.09985E-06 2.76716E-18 3.55914E-18
 -1      2501 9.54433E-05-2.84595E-05-2.87056E-05 4.26505E-07 1.06080E-18-5.58862E-19
 -1      2502 9.55537E-05-2.84814E-05-2.87407E-05 5.40792E-07 2.17642E-18-5.09355E-19
 -1      2503 9.55472E-05-2.83940E-05-2.87832E-05 7.52540E-07 3.28522E-18 1.28312E-18
 -1      2504 9.53654E-05-2.84550E-05-2.86731E-05 2.95939E-07-4.45993E-19-1.36396E-18
 -1      2505 9.48049E-05-2.75070E-05-2.88456E-05 6.26754E-07 5.87414E-19 2.38989E-18
 -1      2506 9.48822E-05-2.76149E-05-2.88278E-05 6.77495E-07 4.87906E-19-5.72210E-19
 -1      2507 9.46771E-05-2.73247E-05-2.88690E-05 4.44278E-07 4.81659E-19 1.98315E-18
 -1      2508 9.47331E-05-2.74033E-05-2.88559E-05 5.35976E-07 1.20431E-20 2.11416E-18
 -1      2509 9.47007E-05-2.73770E-05-2.88504E-05 6.79778E-07 9.31300E-19 1.51521E-18
 -1      2510 9.51500E-05-2.80068E-05-2.87781E-05 6.88390E-07 1.00142E-18 2.81932E-18
 -1      2511 9.52328E-05-2.81279E-05-2.87563E-05 6.43334E-07 1.78483E-18 1.02491E-18
 -1      2512 9.49710E-05-2.77447E-05-2.88144E-05 7.13240E-07-2.29520E-19-2.52271E-20
 -1      2513 9.50572E-05-2.78656E-05-2.87941E-05 7.15079E-07 5.19537E-20 3.05167E-18
 -1      2514 9.51119E-05-2.78964E-05-2.88045E-05 8.36299E-07 1.47305E-18 1.84675E-18
 -1      2515 9.48928E-05-2.76168E-05-2.88303E-05 8.19160E-07 1.03949E-18 9.21998E-19
 -1      2516 9.46041E-05-2.72206E-05-2.88819E-05 1.96654E-07-3.57486E-19 1.30141E-18
 -1      2517 9.46322E-05-2.72604E-05-2.88752E-05 3.14278E-07 8.20983E-20 8.13239E-19
 -1      2518 9.45630E-05-2.72052E-05-2.88642E-05 4.41080E-07 9.38565E-19 6.84019E-19
 -1      2519 9.45940E-05-2.72063E-05-2.88828E-05-7.79177E-08-1.63313E-18 1.42494E-18
 -1      2520 9.45913E-05-2.72027E-05-2.88835E-05 4.72432E-08-2.52670E-18 1.60939E-18
 -1      2521 9.44946E-05-2.71212E-05-2.88706E-05 1.39902E-07-4.67746E-19-2.04909E-19
 -1      2522 9.46466E-05-2.72822E-05-2.88718E-05-3.38595E-07-6.47452E-19 8.62226E-19
 -1      2523 9.46140E-05-2.72361E-05-2.88797E-05-2.24721E-07-1.57986E-18 2.84900E-18
 -1      2524 9.45028E-05-2.71334E-05-2.88690E-05-1.78765E-07-1.13882E-18 2.20833E-18
 -1      2525 9.47521E-05-2.74342E-05-2.88505E-05-5.44582E-07 6.30395E-19-1.18797E-18
 -1      2526 9.46952E-05-2.73538E-05-2.88643E-05-4.59876E-07 3.80500E-19-6.71270E-19
 -1      2527 9.45841E-05-2.72376E-05-2.88597E-05-4.67134E-07-2.57155E-20 4.03754E-19
 -1      2528 9.49004E-05-2.76489E-05-2.88208E-05-6.72694E-07 1.43162E-18 2.33251E-18
 -1      2529 9.48248E-05-2.75415E-05-2.88392E-05-6.27312E-07 6.82566E-19-3.71683E-19
 -1      2530 9.47268E-05-2.74203E-05-2.88433E-05-6.87447E-07 3.66908E-19-6.74753E-19
 -1      2531 9.50713E-05-2.78992E-05-2.87860E-05-6.99381E-07 1.08128E-18 2.40078E-18
 -1      2532 9.49880E-05-2.77786E-05-2.88068E-05-7.02857E-07 1.01454E-18 2.84502E-18
 -1      2533 9.49144E-05-2.76622E-05-2.88212E-05-8.09946E-07-1.11762E-19 2.22357E-18
 -1      2534 9.52382E-05-2.81537E-05-2.87481E-05-6.21455E-07-1.13717E-18-1.61819E-18
 -1      2535 9.51605E-05-2.80347E-05-2.87698E-05-6.72769E-07-1.25487E-19 5.76333E-21
 -1      2536 9.51195E-05-2.79349E-05-2.87939E-05-8.14918E-07-5.83224E-19 1.81848E-19
 -1      2537 9.53187E-05-2.83548E-05-2.86965E-05-3.98559E-07 4.04808E-19-1.75143E-18
 -1      2538 1.29436E-04-5.82552E-05-3.06334E-05 2.57489E-05-3.55754E-20 3.50460E-19
 -1      2539 1.14534E-04-5.76108E-05-2.44008E-05 3.13105E-05-1.05032E-19-1.11914E-19
 -1      2540 9.36693E-05-2.74430E-05-2.83695E-05 2.18276E-07 5.82633E-20-3.59878E-19
 -1      2541 9.39206E-05-2.73055E-05-2.85052E-05 7.78638E-07 4.36313E-19-3.31780E-19
 -1      2542 9.43369E-05-2.74413E-05-2.86843E-05 1.89594E-07 2.36653E-19-6.42522E-19
 -1      2543 9.68356E-05-5.28258E-05-1.88617E-05 4.00226E-05 1.27055E-19-7.87344E-19
 -1      2544 7.66376E-05-4.59833E-05-1.30034E-05 4.04492E-05-7.90705E-19-8.76573E-19
 -1      2545 3.79288E-05-2.78525E-05-4.12963E-06-3.24451E-05 2.88626E-19 2.70606E-18
 -1      2546 5.49925E-05-3.44946E-05-8.60735E-06-4.07336E-05 1.77665E-19 2.09725E-18
 -1      2547 2.17083E-05-1.76224E-05-1.37437E-06-1.33979E-05-7.73394E-19 2.56905E-18
 -1      2548 2.79430E-05-2.20238E-05-2.26534E-06-2.51407E-05-1.37219E-19 3.04953E-18
 -1      2549 4.11791E-05-2.33169E-05-7.08171E-06-2.95539E-05-6.21934E-19 2.73316E-18
 -1      2550 1.36502E-04-5.35653E-05-3.57162E-05 1.97566E-05 4.85456E-19 3.36251E-18
 -1      2551 1.24118E-04-5.60705E-05-2.91306E-05 2.59872E-05 8.04258E-19 2.32638E-18
 -1      2552 1.91204E-05-1.67747E-05-6.96173E-07 5.52514E-06-1.84336E-19-5.84453E-19
 -1      2553 2.06289E-05-1.84904E-05-7.01236E-07-1.15822E-05-7.52377E-19-2.94344E-19
 -1      2554 1.42878E-04-1.30343E-05-5.61713E-05 4.22970E-06 2.90532E-19 3.19702E-19
 -1      2555 1.43680E-04-1.26854E-05-5.67249E-05-1.52286E-06-1.94394E-19-2.32987E-19
 -1      2556 8.78777E-05-1.07157E-05-3.31053E-05-1.49862E-06-4.06820E-19-1.30442E-18
 -1      2557 8.79834E-05-1.08409E-05-3.30952E-05-2.60559E-06-5.40983E-19-1.19832E-18
 -1      2558 8.93694E-05-1.29919E-05-3.27345E-05-2.88518E-06-5.15109E-19-1.06349E-18
 -1      2559 8.91177E-05-1.26468E-05-3.27758E-05-9.26167E-07-3.72164E-19-1.23552E-18
 -1      2560 1.46518E-04-2.89025E-05-5.07646E-05 9.64333E-06 3.46013E-19 1.25234E-18
 -1      2561 1.46153E-04-1.98730E-05-5.47518E-05 8.07213E-06 1.00628E-18 5.88476E-19
 -1      2562 1.47497E-04-1.56693E-05-5.70611E-05-5.19107E-06 3.70577E-20-4.26905E-19
 -1      2563 1.48507E-04-2.06939E-05-5.50638E-05-8.26270E-06-2.47545E-19 8.44915E-20
 -1      2564 1.00327E-04-5.46145E-05-1.95838E-05-3.66334E-05-8.01081E-19 6.94355E-19
 -1      2565 1.18024E-04-5.81585E-05-2.58846E-05-3.18982E-05-3.73542E-19 1.55123E-18
 -1      2566 1.47459E-04-4.88583E-05-4.24890E-05 7.81937E-09 3.42440E-19 1.64282E-18
 -1      2567 1.48396E-04-4.18566E-05-4.63282E-05 5.22656E-06 1.76289E-19 1.91154E-18
 -1      2568 1.08390E-04-5.50411E-05-2.30311E-05 3.76540E-05 8.15904E-19 9.86370E-19
 -1      2569 9.13184E-05-5.06623E-05-1.71526E-05 4.04844E-05 6.41839E-19-2.63348E-19
 -1      2570 1.32235E-04-5.86925E-05-3.16127E-05-1.95263E-05-3.30131E-19 1.38363E-18
 -1      2571 1.43526E-04-5.51339E-05-3.82473E-05-1.07725E-05-7.48565E-20 1.07658E-18
 -1      2572 1.42607E-04-5.43698E-05-3.78943E-05-9.67301E-07 3.80159E-19 9.79805E-19
 -1      2573 6.43792E-05-4.06136E-05-9.98067E-06-3.97761E-05-1.14921E-18 6.50098E-20
 -1      2574 8.33700E-05-4.81207E-05-1.50632E-05-4.21055E-05-1.15832E-18-1.33355E-19
 -1      2575 9.89270E-05-5.28530E-05-1.93837E-05-3.66119E-05-1.43403E-18 5.83473E-19
 -1      2576 3.11908E-05-2.31926E-05-3.04156E-06-2.40744E-05-1.41730E-18-5.70477E-19
 -1      2577 4.46219E-05-2.93710E-05-6.27908E-06-3.52076E-05-1.45711E-18-3.81165E-19
 -1      2578 3.33807E-05-2.53015E-05-3.35053E-06 3.13587E-05 6.11346E-19-8.45127E-19
 -1      2579 2.44178E-05-2.06566E-05-1.32431E-06 2.01842E-05 8.05528E-19-1.36266E-18
 -1      2580 1.47513E-04-1.09625E-05-5.87068E-05-1.41271E-07-1.22693E-18 1.20816E-18
 -1      2581 1.44105E-04-1.20919E-05-5.71201E-05-2.79613E-06-2.79521E-19 8.50845E-19
 -1      2582 6.96710E-05-4.19892E-05-1.18963E-05 4.41165E-05 1.19305E-18-1.30591E-18
 -1      2583 4.99531E-05-3.37635E-05-6.65011E-06 3.83959E-05 9.51218E-19-1.05201E-18
 -1      2584 1.46353E-04-4.11416E-05-4.54902E-05 3.84771E-06 3.86459E-21 2.54449E-18
 -1      2585 1.41331E-04-4.79401E-05-4.02439E-05 1.05643E-05 9.93146E-20 3.19204E-18
 -1      2586 1.38807E-04-5.32591E-05-3.66094E-05 8.53029E-06 7.55845E-19 3.38030E-18
 -1      2587 1.43119E-04-1.59945E-05-5.49119E-05 4.98183E-06-1.16044E-18 1.37092E-18
 -1      2588 1.47083E-04-1.23092E-05-5.78966E-05 2.51042E-06-1.07658E-18 1.52927E-18
 -1      2589 1.35289E-04-9.32188E-06-5.41979E-05 2.30463E-06-1.06218E-18 1.73345E-18
 -1      2590 1.46422E-04-3.52836E-05-4.78663E-05 1.40480E-06-1.30020E-18-2.64698E-20
 -1      2591 1.44991E-04-2.65132E-05-5.14020E-05 5.97864E-06-1.54372E-18 8.04258E-19
 -1      2592 1.38874E-04-4.97373E-05-3.83558E-05-1.35374E-05-4.33840E-19-4.85138E-19
 -1      2593 1.46366E-04-4.38548E-05-4.43092E-05-6.40971E-06-8.61274E-19-6.02240E-19
 -1      2594 1.42200E-04-4.06321E-05-4.35547E-05 3.56566E-06-9.17019E-19 2.80368E-19
 -1      2595 1.18205E-04-5.61662E-05-2.65101E-05-2.99042E-05 6.25957E-19-4.52210E-19
 -1      2596 1.31409E-04-5.53594E-05-3.27787E-05-2.43719E-05-7.37977E-20-7.74400E-19
 -1      2597 7.91069E-05-4.58287E-05-1.39572E-05-4.22289E-05 3.21873E-20 1.53260E-19
 -1      2598 1.00146E-04-5.26474E-05-2.03702E-05-4.05531E-05 2.93073E-19 2.74174E-19
 -1      2599 9.50388E-05-2.00055E-05-3.22051E-05-1.16939E-05-1.23278E-18 6.60606E-19
 -1      2600 9.54390E-05-2.33410E-05-3.09242E-05-7.90271E-06-1.08735E-18 6.56407E-19
 -1      2601 9.50638E-05-2.25257E-05-3.10630E-05-7.57362E-06-1.04370E-18 2.97929E-19
 -1      2602 9.32082E-05-1.76050E-05-3.24187E-05-1.13412E-05-1.27658E-18 2.67279E-19
 -1      2603 9.62684E-05-2.50693E-05-3.05391E-05 7.54881E-06 1.03953E-18-1.52056E-19
 -1      2604 9.73800E-05-2.37538E-05-3.15753E-05 1.06520E-05 1.11491E-18-2.50934E-20
 -1      2605 9.58348E-05-2.12841E-05-3.20062E-05 1.18476E-05 1.18473E-18-3.93288E-19
 -1      2606 9.58436E-05-2.41375E-05-3.07647E-05 7.62099E-06 1.00893E-18-4.94543E-19
 -1      2607 1.46569E-04-5.21219E-05-4.09535E-05 9.03318E-06-4.07370E-19-8.27551E-19
 -1      2608 1.38049E-04-5.61651E-05-3.52233E-05 1.60416E-05-5.81170E-19-3.75447E-19
 -1      2609 1.35506E-04-5.98463E-05-3.22760E-05 1.56435E-05 1.72583E-20-7.60636E-19
 -1      2610 1.35435E-04-1.64716E-05-5.12022E-05 8.40845E-06 1.46537E-19 8.85679E-20
 -1      2611 9.08268E-05-1.49815E-05-3.24957E-05-6.71784E-06-9.07904E-19-7.07706E-19
 -1      2612 8.97435E-05-1.31539E-05-3.28759E-05-7.87885E-06-9.79728E-19-7.14307E-19
 -1      2613 9.03672E-05-1.38789E-05-3.28423E-05-9.10828E-06-1.09193E-18-5.62192E-19
 -1      2614 9.47539E-05-2.69001E-05-2.90936E-05 1.74364E-06 5.90670E-19-5.09886E-19
 -1      2615 9.42199E-05-1.90664E-05-3.22536E-05 1.15496E-05 1.04564E-18-7.78384E-19
 -1      2616 1.45984E-04-4.87823E-05-4.17160E-05-2.33828E-06-4.24152E-19-1.40099E-18
 -1      2617 9.20575E-05-1.62146E-05-3.25455E-05-1.03227E-05-1.16214E-18-8.98715E-20
 -1      2618 7.19004E-05-4.08347E-05-1.30074E-05-4.15491E-05 3.23567E-19 7.50895E-19
 -1      2619 8.68486E-05-4.52432E-05-1.77058E-05-3.86783E-05 3.61683E-19-4.20234E-19
 -1      2620 6.53730E-05-3.39463E-05-1.29318E-05-3.87662E-05 3.19755E-19 1.66527E-18
 -1      2621 1.36852E-04-5.48403E-05-3.50903E-05-1.18188E-05 2.14776E-19-1.05943E-18
 -1      2622 4.15714E-05-2.31960E-05-7.28542E-06 2.69039E-05-8.14634E-19-1.78809E-18
 -1      2623 1.11109E-04-5.72025E-05-2.28485E-05 3.22297E-05 3.48342E-19 5.15393E-19
 -1      2624 7.65113E-05-4.17934E-05-1.45217E-05 3.83388E-05-5.45489E-19-8.34539E-19
 -1      2625 9.53723E-05-2.83790E-05-2.87110E-05 4.58272E-07 5.07290E-19-7.58184E-19
 -1      2626 1.20626E-04-5.79635E-05-2.67629E-05 2.76451E-05 9.27289E-19 2.58705E-18
 -1      2627 9.53389E-05-2.82954E-05-2.87328E-05 5.41106E-07 1.76236E-18-6.98033E-19
 -1      2628 1.45067E-04-3.62008E-05-4.68495E-05-3.01044E-06 4.28387E-19 1.72752E-18
 -1      2629 1.39767E-04-4.15774E-05-4.20678E-05-5.06392E-06 6.24316E-19 1.83690E-18
 -1      2630 1.38624E-04-2.99288E-05-4.73630E-05-9.81014E-06 9.15219E-19 3.65495E-19
 -1      2631 9.54086E-05-2.83929E-05-2.87184E-05-5.05244E-07-4.09984E-19-1.82747E-18
 -1      2632 9.53149E-05-2.82651E-05-2.87373E-05-5.79778E-07-3.92861E-19-1.39973E-18
 -1      2633 9.53210E-05-2.81881E-05-2.87697E-05-7.43245E-07-1.40263E-18-4.33071E-19
 -1      2634 9.54918E-05-2.84031E-05-2.87480E-05-6.18787E-07-7.04082E-19-1.56831E-18
 -1      2635 8.56568E-05-4.68277E-05-1.61986E-05 4.08631E-05 1.33217E-18-4.64809E-19
 -1      2636 1.33865E-04-2.65486E-05-4.63161E-05 1.06946E-05-1.32899E-18 3.71318E-19
 -1      2637 1.39456E-04-2.14979E-05-5.09037E-05 8.34571E-06-1.28156E-18 9.25172E-19
 -1      2638 1.30225E-04-1.61018E-05-4.95499E-05 1.03059E-05-9.08866E-19 8.22257E-19
 -1      2639 9.47016E-05-2.05799E-05-3.17221E-05 9.60307E-06 9.20076E-19-7.47248E-19
 -1      2640 2.74075E-05-1.30216E-05-5.85887E-06 4.08216E-06-1.84019E-18-3.99800E-19
 -1      2641 2.40425E-05-1.55563E-05-3.05520E-06-4.77897E-06-1.10310E-18 2.06104E-18
 -1      2642 3.06682E-05-1.40398E-05-6.75720E-06-1.30033E-05-1.40920E-18 2.31282E-18
 -1      2643 4.90883E-05-2.87936E-05-8.17655E-06 3.53149E-05 1.30951E-18-1.02618E-18
 -1      2644 1.28048E-04-6.04864E-05-2.87256E-05-2.11747E-05-3.57342E-19 9.27501E-19
 -1      2645 9.53449E-05-2.82137E-05-2.87684E-05 7.12612E-07 3.24086E-18 4.86479E-20
 -1      2646 6.25068E-05-3.46441E-05-1.15206E-05-3.65607E-05-1.63414E-18-1.33196E-19
 -1      2647 1.41991E-04-1.51492E-05-5.45723E-05-5.84817E-06 3.45378E-19 9.62335E-19
 -1      2648 1.36258E-04-1.81949E-05-5.10702E-05-8.11584E-06 2.83968E-19 1.49332E-18
 -1      2649 1.32154E-04-1.09072E-05-5.24315E-05-6.34812E-06-6.08381E-19 2.85381E-18
 -1      2650 3.38545E-05-1.79122E-05-6.21312E-06-1.76652E-05-1.53292E-18-2.62580E-19
 -1      2651 2.77093E-05-1.61136E-05-4.39371E-06 1.16486E-05 3.89635E-20-5.62853E-19
 -1      2652 1.35762E-04-1.27138E-05-5.29039E-05-4.15868E-06-3.18908E-19-4.20287E-19
 -1      2653 1.43549E-04-2.74193E-05-5.00197E-05-1.13766E-05-1.13629E-18-9.46771E-19
 -1      2654 1.42680E-04-3.60806E-05-4.58658E-05 1.17896E-05 1.56489E-19 9.84252E-19
 -1      2655 1.13484E-04-5.67066E-05-2.42258E-05-3.18437E-05 9.17019E-19-1.54112E-18
 -1      2656 9.54578E-05-2.83056E-05-2.87823E-05-8.02636E-07-1.68350E-18-9.96598E-19
 -1      2657 9.05663E-05-1.50471E-05-3.23877E-05 3.13067E-06-1.88192E-20-1.45854E-18
 -1      2658 9.03726E-05-1.47682E-05-3.24226E-05 2.21159E-06-1.31540E-19-1.46909E-18
 -1      2659 9.02343E-05-1.45573E-05-3.24530E-05 1.39257E-06-2.16663E-19-1.38413E-18
 -1      2660 9.01672E-05-1.44619E-05-3.24647E-05 4.53238E-07-3.32559E-19-1.17586E-18
 -1      2661 9.14017E-05-1.64208E-05-3.21209E-05 1.59442E-06-1.74593E-19-1.38943E-18
 -1      2662 9.21660E-05-1.74799E-05-3.20459E-05 6.37200E-06 5.05554E-19-1.15211E-18
 -1      2663 9.16400E-05-1.66735E-05-3.21515E-05 5.53657E-06 3.95747E-19-1.16368E-18
 -1      2664 9.35779E-05-1.97298E-05-3.16911E-05 7.49832E-06 6.71398E-19-1.09159E-18
 -1      2665 9.27949E-05-1.84667E-05-3.18726E-05 6.91770E-06 5.61709E-19-1.13991E-18
 -1      2666 9.34536E-05-1.97838E-05-3.15497E-05 5.61530E-06 4.92213E-19-1.08140E-18
 -1      2667 9.52281E-05-2.53656E-05-2.99523E-05 3.86012E-06 7.43407E-19-6.14498E-19
 -1      2668 9.55517E-05-2.45227E-05-3.04085E-05 5.51323E-06 8.21341E-19-5.82184E-19
 -1      2669 9.50174E-05-2.66272E-05-2.93144E-05 1.60146E-06 5.22994E-19-6.13305E-19
 -1      2670 9.52652E-05-2.61385E-05-2.95888E-05 2.64239E-06 6.61936E-19-5.87672E-19
 -1      2671 9.52914E-05-2.49581E-05-3.01406E-05 3.67011E-06 7.03003E-19-7.51944E-19
 -1      2672 9.47028E-05-2.18792E-05-3.12163E-05 7.76318E-06 8.07437E-19-7.72236E-19
 -1      2673 9.28626E-05-1.79728E-05-3.20942E-05-8.72981E-06-1.13313E-18-1.85457E-19
 -1      2674 9.53886E-05-2.58323E-05-2.97796E-05-2.53300E-06-6.94498E-19-5.32992E-20
 -1      2675 9.52291E-05-2.63970E-05-2.95102E-05-1.50824E-06-5.76346E-19-8.99032E-20
 -1      2676 9.52602E-05-2.68936E-05-2.92768E-05-7.14199E-07-5.08707E-19 8.12498E-22
 -1      2677 9.51502E-05-2.72339E-05-2.91114E-05-5.54172E-08-3.88052E-19-2.67975E-20
 -1      2678 9.54368E-05-2.61906E-05-2.96831E-05-1.35383E-06-5.85449E-19-1.40415E-19
 -1      2679 9.51237E-05-2.75155E-05-2.89598E-05 4.76544E-07-3.00797E-19 1.76882E-20
 -1      2680 9.50791E-05-2.77208E-05-2.88684E-05 9.01344E-07-2.84806E-19 2.46447E-20
 -1      2681 9.54534E-05-2.71381E-05-2.92861E-05 4.06904E-08-4.10121E-19-5.58761E-22
 -1      2682 9.50466E-05-2.78761E-05-2.87780E-05 1.26027E-06-3.88064E-19 2.05740E-21
 -1      2683 9.50635E-05-2.80012E-05-2.87391E-05 1.54168E-06-6.07133E-19 2.57180E-20
 -1      2684 9.54071E-05-2.76842E-05-2.90316E-05 9.91470E-07-4.25907E-19-1.24549E-19
 -1      2685 9.50415E-05-2.80773E-05-2.86940E-05 1.79331E-06-6.69650E-19 9.63996E-20
 -1      2686 9.51094E-05-2.81506E-05-2.86929E-05 1.99563E-06-5.30096E-19 4.37884E-20
 -1      2687 9.53642E-05-2.79833E-05-2.88838E-05 1.64711E-06-6.11218E-19-3.28633E-20
 -1      2688 9.51027E-05-2.81747E-05-2.86816E-05 2.19175E-06-4.29304E-19-3.40736E-21
 -1      2689 9.52125E-05-2.82142E-05-2.87085E-05 2.36044E-06-6.27137E-19 1.66301E-20
 -1      2690 9.53441E-05-2.81193E-05-2.88156E-05 2.12929E-06-5.13317E-19-1.19251E-19
 -1      2691 9.52223E-05-2.82041E-05-2.87223E-05 2.53959E-06-6.24362E-19 2.56557E-19
 -1      2692 9.53691E-05-2.82233E-05-2.87706E-05 2.70648E-06-5.06074E-19 4.48306E-19
 -1      2693 9.53529E-05-2.81460E-05-2.88070E-05 2.53160E-06-4.56652E-19 5.01527E-19
 -1      2694 9.53965E-05-2.81929E-05-2.88032E-05 2.89635E-06-3.52478E-19 6.92782E-19
 -1      2695 9.55798E-05-2.82043E-05-2.88682E-05 3.08251E-06 2.84916E-20 8.94263E-19
 -1      2696 9.53935E-05-2.81022E-05-2.88425E-05 2.92293E-06-2.04296E-19 1.05159E-18
 -1      2697 9.56282E-05-2.81671E-05-2.89144E-05 3.30135E-06-9.65188E-21 7.64552E-19
 -1      2698 9.58515E-05-2.81846E-05-2.89925E-05 3.51817E-06 1.37076E-19 5.55586E-19
 -1      2699 9.54710E-05-2.80212E-05-2.89100E-05 3.35139E-06-1.24743E-19 1.06949E-18
 -1      2700 9.59284E-05-2.81569E-05-2.90476E-05 3.77514E-06 9.09311E-20 1.35273E-19
 -1      2701 9.61996E-05-2.81980E-05-2.91355E-05 4.02383E-06-3.45451E-21-2.71292E-20
 -1      2702 9.55965E-05-2.79386E-05-2.89992E-05 3.84618E-06-2.68678E-19 2.85013E-19
 -1      2703 9.63185E-05-2.82013E-05-2.91951E-05 4.31810E-06 2.12010E-19-1.49630E-19
 -1      2704 9.66499E-05-2.82900E-05-2.92894E-05 4.58784E-06 1.20156E-19 5.06043E-20
 -1      2705 9.57912E-05-2.78986E-05-2.91002E-05 4.41731E-06 7.47830E-20 8.89803E-20
 -1      2706 9.68337E-05-2.83546E-05-2.93487E-05 4.90635E-06-1.52078E-19 1.53689E-19
 -1      2707 9.72432E-05-2.85227E-05-2.94449E-05 5.17111E-06-1.43175E-19 2.83510E-19
 -1      2708 9.60911E-05-2.79609E-05-2.92032E-05 5.05288E-06 7.35816E-21 1.50938E-19
 -1      2709 9.75276E-05-2.86903E-05-2.94992E-05 5.48498E-06-1.62451E-19 4.12872E-19
 -1      2710 9.80393E-05-2.89796E-05-2.95924E-05 5.69937E-06-2.82719E-19 4.84841E-19
 -1      2711 9.65541E-05-2.82073E-05-2.92983E-05 5.71388E-06-1.49711E-19-6.50265E-21
 -1      2712 9.84771E-05-2.93045E-05-2.96380E-05 5.95850E-06-6.54255E-19 2.27469E-19
 -1      2713 9.91206E-05-2.97640E-05-2.97235E-05 6.05326E-06-7.38891E-19-7.94610E-23
 -1      2714 9.72677E-05-2.87468E-05-2.93768E-05 6.32599E-06-5.31929E-19 1.45180E-19
 -1      2715 9.97835E-05-3.03094E-05-2.97599E-05 6.17912E-06-4.81844E-19 1.31603E-19
 -1      2716 1.00589E-04-3.09855E-05-2.98356E-05 6.05810E-06-5.02067E-19 3.67624E-19
 -1      2717 9.83554E-05-2.97131E-05-2.94348E-05 6.76769E-06-6.15040E-19 3.29008E-20
 -1      2718 1.01561E-04-3.18073E-05-2.98699E-05 5.93523E-06-6.97256E-19 7.07625E-19
 -1      2719 1.02542E-04-3.27178E-05-2.99400E-05 5.47811E-06-5.11528E-19 4.55483E-19
 -1      2720 9.99737E-05-3.12442E-05-2.94804E-05 6.85413E-06-1.57848E-19 3.06393E-19
 -1      2721 1.03893E-04-3.38270E-05-2.99934E-05 4.94878E-06-3.44535E-19 7.55688E-19
 -1      2722 1.05016E-04-3.49085E-05-3.00745E-05 4.02856E-06 1.44829E-19 5.17891E-19
 -1      2723 1.02282E-04-3.34238E-05-2.95449E-05 6.31977E-06-4.59042E-19 8.15562E-19
 -1      2724 1.06739E-04-3.61981E-05-3.01896E-05 2.90503E-06 5.79270E-19 1.16137E-19
 -1      2725 1.07862E-04-3.72245E-05-3.03156E-05 1.43815E-06 5.78752E-19 1.97496E-19
 -1      2726 1.05361E-04-3.61579E-05-2.96983E-05 4.81426E-06 2.08603E-20 9.96747E-19
 -1      2727 1.09758E-04-3.83624E-05-3.05617E-05-4.19744E-07 6.96702E-19-1.66721E-19
 -1      2728 1.10590E-04-3.88753E-05-3.07832E-05-2.36225E-06 5.35580E-19-4.63244E-19
 -1      2729 1.09027E-04-3.89529E-05-3.00645E-05 1.96413E-06 3.78957E-19 1.71496E-19
 -1      2730 1.12160E-04-3.92500E-05-3.12434E-05-4.84907E-06 1.91527E-19-5.29847E-19
 -1      2731 1.12293E-04-3.86174E-05-3.16070E-05-6.88336E-06-2.46268E-20-5.93183E-19
 -1      2732 1.12594E-04-4.07083E-05-3.08171E-05-2.36753E-06 3.66345E-19-4.50365E-19
 -1      2733 1.12802E-04-3.74925E-05-3.23294E-05-9.35757E-06-5.50641E-19-1.25320E-18
 -1      2734 1.11945E-04-3.52624E-05-3.28428E-05-1.06656E-05-6.85093E-19-1.17987E-18
 -1      2735 1.14807E-04-3.98215E-05-3.21126E-05-7.56216E-06-6.72402E-19-3.29936E-19
 -1      2736 1.10809E-04-3.23177E-05-3.37677E-05-1.17213E-05-4.46078E-19-7.84129E-19
 -1      2737 1.09234E-04-2.89993E-05-3.43274E-05-1.11946E-05-5.81984E-19-9.29410E-19
 -1      2738 1.14210E-04-3.48251E-05-3.39637E-05-1.16833E-05-5.19681E-19-2.71666E-19
 -1      2739 1.07186E-04-2.54472E-05-3.51680E-05-9.51670E-06-4.95786E-19-1.15372E-18
 -1      2740 1.05809E-04-2.27444E-05-3.55605E-05-6.75213E-06 9.02355E-20-1.28326E-18
 -1      2741 1.10941E-04-2.71077E-05-3.59634E-05-1.13901E-05-7.31645E-19 2.13585E-19
 -1      2742 1.04691E-04-2.09766E-05-3.59380E-05-2.44927E-06 8.21476E-19-1.56390E-18
 -1      2743 1.04549E-04-2.07719E-05-3.59648E-05 1.43627E-06 6.51104E-19-1.58437E-18
 -1      2744 1.07450E-04-2.03992E-05-3.74087E-05-5.20318E-06 4.74683E-19-1.01295E-18
 -1      2745 1.05603E-04-2.23044E-05-3.56718E-05 5.85970E-06 7.97614E-19-1.15268E-18
 -1      2746 1.06659E-04-2.47103E-05-3.53236E-05 8.66319E-06 7.36720E-19-8.34116E-19
 -1      2747 1.07455E-04-2.01461E-05-3.74966E-05 4.30250E-06 9.44031E-19-1.54832E-18
 -1      2748 1.08763E-04-2.80443E-05-3.45219E-05 1.10552E-05 4.05941E-19-4.32864E-19
 -1      2749 1.10483E-04-3.15287E-05-3.39592E-05 1.18396E-05-1.33418E-19 2.18379E-19
 -1      2750 1.10123E-04-2.52559E-05-3.63083E-05 1.14704E-05 8.68751E-19-4.88579E-19
 -1      2751 1.11665E-04-3.45487E-05-3.30367E-05 1.09293E-05 6.66807E-20 1.02298E-18
 -1      2752 1.12745E-04-3.69716E-05-3.25192E-05 9.93888E-06 6.53319E-19 1.27439E-18
 -1      2753 1.13962E-04-3.38049E-05-3.43510E-05 1.22808E-05 4.79143E-19-3.28622E-20
 -1      2754 1.12367E-04-3.83834E-05-3.17595E-05 7.41373E-06 4.96543E-19 1.16615E-18
 -1      2755 1.12370E-04-3.91573E-05-3.13781E-05 5.48800E-06 7.54395E-19 8.74207E-19
 -1      2756 1.14964E-04-3.95368E-05-3.23797E-05 8.37609E-06 4.97877E-19 8.01042E-19
 -1      2757 1.10899E-04-3.89664E-05-3.08822E-05 2.94428E-06 6.14297E-19 9.87940E-19
 -1      2758 1.10134E-04-3.85478E-05-3.06451E-05 9.74187E-07 1.22810E-19 1.04443E-18
 -1      2759 1.12985E-04-4.07869E-05-3.09674E-05 3.08427E-06 8.68179E-19 1.84249E-18
 -1      2760 1.08236E-04-3.74545E-05-3.03792E-05-9.62269E-07-3.97047E-20 1.08643E-18
 -1      2761 1.07134E-04-3.64540E-05-3.02479E-05-2.47897E-06-9.40182E-20 1.85024E-18
 -1      2762 1.09501E-04-3.92245E-05-3.01514E-05-1.44262E-06 1.40844E-20 1.14889E-18
 -1      2763 1.05377E-04-3.51547E-05-3.01248E-05-3.66532E-06-1.04562E-18 2.44858E-18
 -1      2764 1.04252E-04-3.40601E-05-3.00452E-05-4.62950E-06-1.18421E-18 1.93017E-18
 -1      2765 1.05792E-04-3.64546E-05-2.97547E-05-4.43509E-06-3.14555E-19 2.82935E-19
 -1      2766 1.02855E-04-3.29134E-05-2.99918E-05-5.19806E-06-4.86170E-19 1.64874E-18
 -1      2767 1.01865E-04-3.19723E-05-2.99275E-05-5.68019E-06 8.17544E-21 1.53729E-18
 -1      2768 1.02631E-04-3.36649E-05-2.95917E-05-6.04178E-06-1.32612E-18 1.33374E-18
 -1      2769 1.00852E-04-3.11065E-05-2.98978E-05-5.81466E-06-4.83253E-19 1.08520E-18
 -1      2770 1.00040E-04-3.03972E-05-2.98305E-05-5.93885E-06-3.48911E-19-2.00381E-19
 -1      2771 1.00234E-04-3.13894E-05-2.95309E-05-6.62156E-06-1.16669E-18-3.72394E-19
 -1      2772 9.93467E-05-2.98114E-05-2.98011E-05-5.80088E-06-3.81321E-20-7.20040E-19
 -1      2773 9.87037E-05-2.93232E-05-2.97254E-05-5.68880E-06-1.13412E-18-8.83261E-19
 -1      2774 9.85442E-05-2.97607E-05-2.94963E-05-6.52922E-06-7.89787E-19-1.32344E-18
 -1      2775 9.82453E-05-2.89644E-05-2.96880E-05-5.39828E-06-1.21633E-19-4.95320E-19
 -1      2776 9.77423E-05-2.86530E-05-2.96057E-05-5.14887E-06 1.10495E-18 3.19406E-19
 -1      2777 9.74056E-05-2.87089E-05-2.94528E-05-6.03959E-06 3.52881E-19-1.59465E-19
 -1      2778 9.74450E-05-2.84583E-05-2.95597E-05-4.78821E-06 7.60292E-19 8.46675E-19
 -1      2779 9.70523E-05-2.82747E-05-2.94752E-05-4.47385E-06 3.73683E-19 1.56961E-18
 -1      2780 9.66592E-05-2.80993E-05-2.93900E-05-5.34592E-06 7.86531E-19 5.41957E-19
 -1      2781 9.68606E-05-2.81887E-05-2.94238E-05-4.09658E-06 6.29807E-19 1.60172E-18
 -1      2782 9.65533E-05-2.80911E-05-2.93417E-05-3.76596E-06 7.89036E-19 2.60252E-18
 -1      2783 9.61760E-05-2.77972E-05-2.93098E-05-4.57702E-06 5.63461E-19 7.69129E-19
 -1      2784 9.64286E-05-2.80715E-05-2.92887E-05-3.40461E-06-2.11468E-19 2.55771E-18
 -1      2785 9.61875E-05-2.80281E-05-2.92128E-05-3.08759E-06-6.50573E-19 1.66178E-18
 -1      2786 9.58634E-05-2.76925E-05-2.92192E-05-3.81432E-06-1.42018E-19 4.87619E-20
 -1      2787 9.61045E-05-2.80448E-05-2.91616E-05-2.75991E-06-6.29034E-19 1.79470E-18
 -1      2788 9.59151E-05-2.80326E-05-2.90943E-05-2.47251E-06 7.37120E-19 1.66817E-18
 -1      2789 9.56583E-05-2.77033E-05-2.91258E-05-3.10548E-06-1.63014E-19-5.25278E-19
 -1      2790 9.58571E-05-2.80653E-05-2.90475E-05-2.18600E-06 7.04031E-19 1.62246E-18
 -1      2791 9.57079E-05-2.80684E-05-2.89901E-05-1.93451E-06-3.14661E-19 2.38729E-18
 -1      2792 9.55195E-05-2.77726E-05-2.90361E-05-2.47453E-06 2.88378E-19-2.60641E-19
 -1      2793 9.56641E-05-2.81036E-05-2.89492E-05-1.68976E-06-1.35980E-18 8.66058E-19
 -1      2794 9.55464E-05-2.81121E-05-2.89017E-05-1.47379E-06-2.42518E-18-3.79519E-19
 -1      2795 9.54199E-05-2.78621E-05-2.89546E-05-1.92903E-06-1.76784E-18-4.81036E-20
 -1      2796 9.55094E-05-2.81427E-05-2.88674E-05-1.26832E-06-2.49673E-18 1.77885E-19
 -1      2797 9.54168E-05-2.81486E-05-2.88294E-05-1.08498E-06-2.29427E-18-3.55489E-19
 -1      2798 9.53419E-05-2.79497E-05-2.88839E-05-1.46523E-06-1.96932E-18-5.06582E-19
 -1      2799 9.65255E-05-5.00839E-05-1.99227E-05 3.74351E-05 1.20596E-18 4.08958E-19
 -1      2800 7.85803E-05-4.12927E-05-1.54219E-05 3.94998E-05 1.99159E-18-1.01835E-18
 -1      2801 9.46916E-05-2.77383E-05-2.86926E-05-8.36158E-07 1.70039E-19-8.77285E-19
 -1      2802 9.47388E-05-2.75627E-05-2.87717E-05-4.26497E-07 1.40387E-19-8.04469E-19
 -1      2803 9.49831E-05-2.81973E-05-2.86162E-05-2.25335E-06 3.32419E-19-6.84688E-19
 -1      2804 9.48221E-05-2.81496E-05-2.85718E-05-2.09150E-06 2.63473E-19-6.34553E-19
 -1      2805 9.52396E-05-2.82200E-05-2.87149E-05-2.60366E-06 5.12565E-19-8.75042E-19
 -1      2806 9.50333E-05-2.81916E-05-2.86467E-05-2.43410E-06 4.20559E-19-6.93983E-19
 -1      2807 9.51946E-05-2.81473E-05-2.87391E-05-2.48238E-06 3.39888E-19-6.15011E-19
 -1      2808 9.55604E-05-2.82063E-05-2.88568E-05-3.00944E-06 8.29666E-19-5.57579E-19
 -1      2809 9.53104E-05-2.81907E-05-2.87676E-05-2.80503E-06 7.35655E-19-7.63532E-19
 -1      2810 9.53184E-05-2.81023E-05-2.88106E-05-2.89060E-06 6.15193E-19-6.79354E-19
 -1      2811 9.59455E-05-2.81680E-05-2.90366E-05-3.51701E-06 4.94100E-19-4.20208E-19
 -1      2812 9.56488E-05-2.81586E-05-2.89277E-05-3.25697E-06 6.88603E-19-5.46019E-19
 -1      2813 9.54782E-05-2.80004E-05-2.89220E-05-3.36337E-06 6.86905E-19-5.49288E-19
 -1      2814 9.64003E-05-2.81190E-05-2.92508E-05-4.16077E-06 5.78008E-19-3.97544E-19
 -1      2815 9.60502E-05-2.81072E-05-2.91228E-05-3.83028E-06 5.35606E-19-4.73641E-19
 -1      2816 9.56706E-05-2.78562E-05-2.90656E-05-3.94751E-06 4.86753E-19-3.75649E-19
 -1      2817 9.69368E-05-2.80808E-05-2.94955E-05-4.96182E-06-2.94952E-20-2.30657E-19
 -1      2818 9.65228E-05-2.80534E-05-2.93491E-05-4.55343E-06 2.73650E-19-2.38226E-19
 -1      2819 9.58964E-05-2.76873E-05-2.92343E-05-4.67718E-06 3.59216E-19-4.54581E-20
 -1      2820 9.75759E-05-2.80900E-05-2.97643E-05-5.92285E-06 1.53928E-19-2.81423E-19
 -1      2821 9.70831E-05-2.80252E-05-2.96017E-05-5.44008E-06 1.02170E-19-1.88183E-19
 -1      2822 9.61631E-05-2.75218E-05-2.94192E-05-5.57269E-06 1.42247E-19 1.02638E-19
 -1      2823 9.83556E-05-2.82114E-05-3.00461E-05-7.01810E-06 2.02383E-19-3.77954E-19
 -1      2824 9.77619E-05-2.80721E-05-2.98721E-05-6.48211E-06 1.19686E-19-2.67859E-19
 -1      2825 9.64924E-05-2.74102E-05-2.96083E-05-6.63618E-06 5.05759E-20 1.61804E-19
 -1      2826 9.93455E-05-2.85565E-05-3.03235E-05-8.17675E-06-1.15110E-19 2.71978E-19
 -1      2827 9.86161E-05-2.82815E-05-3.01465E-05-7.63690E-06 4.25586E-20-3.27772E-19
 -1      2828 9.69333E-05-2.74427E-05-2.97848E-05-7.84350E-06-5.35609E-20 5.87061E-20
 -1      2829 1.00672E-04-2.93075E-05-3.05734E-05-9.25761E-06-4.10409E-19 4.89386E-19
 -1      2830 9.97505E-05-2.88007E-05-3.04053E-05-8.80661E-06-3.82149E-20 6.07673E-19
 -1      2831 9.75867E-05-2.77747E-05-2.99269E-05-9.13053E-06-2.67707E-19 3.01441E-19
 -1      2832 1.02547E-04-3.07338E-05-3.07731E-05-1.00134E-05-8.61765E-19-2.96892E-19
 -1      2833 1.01349E-04-2.98603E-05-3.06261E-05-9.80612E-06-5.82924E-19 2.27191E-19
 -1      2834 9.86435E-05-2.86562E-05-3.00117E-05-1.03706E-05-1.81431E-19-1.17824E-19
 -1      2835 1.05287E-04-3.31678E-05-3.09185E-05-1.00453E-05-1.85824E-19-1.14668E-18
 -1      2836 1.03705E-04-3.17785E-05-3.07961E-05-1.03155E-05-7.06004E-19-8.21680E-19
 -1      2837 1.00432E-04-3.04504E-05-3.00277E-05-1.13354E-05-1.83253E-19-8.33925E-19
 -1      2838 1.09245E-04-3.68513E-05-3.10620E-05-8.75708E-06 4.21961E-20-1.01440E-18
 -1      2839 1.07215E-04-3.48870E-05-3.09404E-05-9.81432E-06 1.43278E-19-1.08447E-18
 -1      2840 1.03449E-04-3.35938E-05-3.00049E-05-1.16190E-05-1.06042E-19-1.08684E-18
 -1      2841 1.14597E-04-4.14902E-05-3.13812E-05-5.35933E-06 2.08026E-19-8.92257E-19
 -1      2842 1.12232E-04-3.92670E-05-3.11746E-05-7.51786E-06-1.84302E-19-1.26134E-18
 -1      2843 1.08285E-04-3.84220E-05-3.00729E-05-1.05186E-05 4.12201E-20-8.36444E-19
 -1      2844 1.20621E-04-4.57351E-05-3.22341E-05 7.00869E-07 5.14945E-19 3.42691E-19
 -1      2845 1.18528E-04-4.41353E-05-3.17901E-05-2.64985E-06 6.70374E-19 3.38532E-20
 -1      2846 1.15225E-04-4.39345E-05-3.05997E-05-6.67086E-06-5.85776E-20-1.04860E-19
 -1      2847 1.25295E-04-4.57621E-05-3.41681E-05 9.09919E-06 1.57449E-19-5.49398E-19
 -1      2848 1.24744E-04-4.69688E-05-3.32590E-05 5.43330E-06 3.79171E-19 2.25999E-19
 -1      2849 1.23563E-04-4.92061E-05-3.20308E-05-2.76872E-07 6.72219E-19 7.74506E-19
 -1      2850 1.25225E-04-3.84883E-05-3.72293E-05 1.54779E-05-2.94370E-19-8.99873E-19
 -1      2851 1.27238E-04-4.35114E-05-3.60951E-05 1.36923E-05 2.76358E-19-6.99040E-19
 -1      2852 1.29482E-04-4.75190E-05-3.52420E-05 9.43115E-06 2.53501E-19-2.39234E-19
 -1      2853 1.24206E-04-2.24954E-05-4.40329E-05 1.30141E-05-2.81109E-19 2.43998E-19
 -1      2854 1.27573E-04-2.98628E-05-4.23437E-05 1.59294E-05-5.52213E-19-5.94935E-19
 -1      2855 1.20788E-04-1.60657E-05-4.54334E-05-9.49169E-07-7.32154E-19-2.23508E-19
 -1      2856 1.20912E-04-1.70359E-05-4.51430E-05 6.11972E-06-1.30655E-19-3.29986E-19
 -1      2857 1.25801E-04-3.78003E-05-3.80854E-05-1.63704E-05 6.33422E-20-8.85573E-19
 -1      2858 1.23309E-04-3.13956E-05-3.95345E-05-1.58011E-05-9.27713E-19-5.39414E-19
 -1      2859 1.26519E-04-4.60480E-05-3.46131E-05-1.01382E-05 6.26871E-19-8.22998E-19
 -1      2860 1.26042E-04-4.27053E-05-3.57851E-05-1.32710E-05 8.39846E-19-7.36747E-19
 -1      2861 1.30521E-04-4.26010E-05-3.77510E-05-1.41448E-05 3.09908E-19-7.66035E-19
 -1      2862 1.22166E-04-4.61597E-05-3.24468E-05-1.54699E-06-5.48280E-19-1.40664E-18
 -1      2863 1.23511E-04-4.64555E-05-3.31237E-05-5.25209E-06-5.88565E-19-1.56354E-18
 -1      2864 1.26950E-04-4.91582E-05-3.34480E-05-4.90598E-06 5.80165E-19-1.35869E-18
 -1      2865 1.15458E-04-4.18562E-05-3.14498E-05 5.26201E-06 2.15834E-19-1.16292E-18
 -1      2866 1.17862E-04-4.39583E-05-3.17538E-05 2.49637E-06-2.84146E-19-1.55627E-18
 -1      2867 1.20021E-04-4.74783E-05-3.12666E-05 3.64661E-06-3.40352E-19-3.32998E-18
 -1      2868 1.09741E-04-3.70435E-05-3.10809E-05 8.74461E-06 7.78489E-19-7.36017E-19
 -1      2869 1.12005E-04-3.92365E-05-3.12259E-05 7.14306E-06 6.63558E-19-3.72839E-19
 -1      2870 1.11638E-04-4.12849E-05-3.02961E-05 8.80717E-06-1.99781E-20-2.06661E-18
 -1      2871 1.05503E-04-3.32548E-05-3.09197E-05 1.00698E-05 9.13855E-19-3.26432E-19
 -1      2872 1.07306E-04-3.49518E-05-3.10307E-05 9.43699E-06 8.17225E-19-6.52274E-19
 -1      2873 1.05897E-04-3.59021E-05-3.00767E-05 1.10786E-05 7.14256E-19-2.24160E-18
 -1      2874 1.02603E-04-3.07363E-05-3.07789E-05 9.98862E-06 1.63017E-18 5.95046E-19
 -1      2875 1.03976E-04-3.18692E-05-3.09062E-05 9.99795E-06 1.45187E-18 4.53233E-20
 -1      2876 1.01988E-04-3.19165E-05-3.00793E-05 1.14220E-05 1.18587E-18-7.21089E-19
 -1      2877 1.00666E-04-2.92589E-05-3.05957E-05 9.15085E-06 1.10551E-18-2.72941E-19
 -1      2878 1.01703E-04-2.99443E-05-3.07466E-05 9.52459E-06 1.52230E-18 5.34335E-19
 -1      2879 9.96156E-05-2.94502E-05-3.00963E-05 1.07230E-05 1.41808E-18 2.93619E-19
 -1      2880 9.93407E-05-2.84805E-05-3.03685E-05 7.97757E-06-4.65613E-19 5.51280E-19
 -1      2881 1.00140E-04-2.88660E-05-3.05333E-05 8.52022E-06 5.07933E-19 4.88731E-19
 -1      2882 9.82217E-05-2.81208E-05-3.00552E-05 9.54067E-06 4.37468E-19 9.48079E-19
 -1      2883 9.83899E-05-2.81227E-05-3.01175E-05 6.71882E-06-1.57416E-18 1.33225E-18
 -1      2884 9.90205E-05-2.83250E-05-3.02831E-05 7.30737E-06-1.38091E-18 8.19321E-19
 -1      2885 9.73899E-05-2.75167E-05-2.99508E-05 8.18756E-06-8.12178E-19 6.23262E-19
 -1      2886 9.76723E-05-2.79975E-05-2.98646E-05 5.51377E-06-2.62482E-18 4.81736E-19
 -1      2887 9.81782E-05-2.80947E-05-3.00205E-05 6.07831E-06-1.65062E-18 1.82323E-18
 -1      2888 9.68633E-05-2.73295E-05-2.98026E-05 6.83933E-06-1.75134E-18 2.99789E-19
 -1      2889 9.71096E-05-2.79904E-05-2.96263E-05 4.43162E-06-2.43312E-18-8.07461E-20
 -1      2890 9.75181E-05-2.80305E-05-2.97660E-05 4.93747E-06-2.58429E-18 8.19789E-19
 -1      2891 9.64990E-05-2.73588E-05-2.96331E-05 5.59065E-06-2.25849E-18 2.37308E-18
 -1      2892 9.66586E-05-2.80361E-05-2.94129E-05 3.49882E-06-6.13243E-19-4.88660E-20
 -1      2893 9.69880E-05-2.80468E-05-2.95333E-05 3.93313E-06-1.81629E-18-8.04276E-20
 -1      2894 9.62241E-05-2.74851E-05-2.94610E-05 4.48650E-06-2.14137E-18 1.40080E-18
 -1      2895 9.62943E-05-2.80991E-05-2.92291E-05 2.71667E-06-2.26652E-19 6.56791E-19
 -1      2896 9.65580E-05-2.80963E-05-2.93296E-05 3.07928E-06 1.76468E-19 5.44230E-19
 -1      2897 9.60030E-05-2.76424E-05-2.92990E-05 3.54109E-06-4.67378E-19 1.05081E-18
 -1      2898 9.60000E-05-2.81603E-05-2.90760E-05 2.07300E-06 1.29410E-18 7.59889E-19
 -1      2899 9.62093E-05-2.81532E-05-2.91576E-05 2.37048E-06 4.71631E-19 1.22929E-19
 -1      2900 9.58191E-05-2.77959E-05-2.91545E-05 2.75020E-06 4.89736E-19 7.48884E-19
 -1      2901 9.57623E-05-2.82094E-05-2.89523E-05 1.54814E-06 6.26558E-19 1.74921E-18
 -1      2902 9.59266E-05-2.82033E-05-2.90167E-05 1.79051E-06 9.41233E-19 1.19789E-18
 -1      2903 9.56631E-05-2.79280E-05-2.90311E-05 2.09944E-06 5.72692E-19 1.11229E-18
 -1      2904 9.55732E-05-2.82429E-05-2.88548E-05 1.12109E-06 3.79419E-18 1.49956E-18
 -1      2905 9.56984E-05-2.82409E-05-2.89044E-05 1.31663E-06 2.11011E-18 1.93064E-18
 -1      2906 9.55265E-05-2.80298E-05-2.89290E-05 1.56842E-06 1.43627E-18 1.68101E-18
 -1      2907 9.54054E-05-2.82264E-05-2.87892E-05 8.26155E-07 4.28526E-18-3.83062E-19
 -1      2908 9.54997E-05-2.82248E-05-2.88273E-05 9.92520E-07 4.54730E-18 6.08360E-19
 -1      2909 9.53877E-05-2.80662E-05-2.88567E-05 1.19169E-06 4.15400E-18-9.32037E-19
 -1      2910 9.52673E-05-2.80547E-05-2.88098E-05 9.29648E-07 3.77739E-18-4.23077E-19
 -1      2911 1.27192E-04-5.84369E-05-2.97557E-05 1.96609E-05 8.36286E-19 3.49062E-18
 -1      2912 1.14105E-04-5.63068E-05-2.45134E-05 2.91764E-05 1.04418E-18 2.53602E-18
 -1      2913 9.43275E-05-2.69887E-05-2.88619E-05 7.21408E-08-9.22020E-19-1.22227E-18
 -1      2914 9.43455E-05-2.70068E-05-2.88611E-05 2.40450E-07 6.04521E-19-1.36099E-18
 -1      2915 5.78593E-05-2.80570E-05-1.22710E-05-3.24607E-05-1.39411E-18-1.50666E-19
 -1      2916 7.57875E-05-3.94277E-05-1.54330E-05-3.78366E-05-1.30750E-18-3.09802E-19
 -1      2917 9.45437E-05-2.72228E-05-2.88559E-05 7.32810E-07 7.70315E-19 3.96219E-19
 -1      2918 9.46447E-05-2.73289E-05-2.88488E-05 8.36175E-07 6.07139E-19 9.40554E-19
 -1      2919 9.43627E-05-2.70290E-05-2.88584E-05-2.93020E-07-1.09979E-18 3.44695E-18
 -1      2920 9.43344E-05-2.69989E-05-2.88609E-05-1.27954E-07-9.59987E-19 1.14318E-18
 -1      2921 9.41851E-05-2.68543E-05-2.88519E-05-3.59626E-08-2.32239E-19-7.31638E-19
 -1      2922 9.43892E-05-2.70549E-05-2.88611E-05 4.31208E-07 3.40345E-19 1.70704E-19
 -1      2923 9.44526E-05-2.71200E-05-2.88570E-05 5.78542E-07 7.37415E-19 1.58827E-18
 -1      2924 9.43810E-05-2.70452E-05-2.88547E-05 7.42112E-07-1.21371E-19 1.45139E-18
 -1      2925 9.42273E-05-2.68925E-05-2.88537E-05 3.76691E-07-3.01919E-20-5.44493E-19
 -1      2926 9.44853E-05-2.71655E-05-2.88510E-05-6.09262E-07-2.57646E-20 1.34536E-19
 -1      2927 9.44167E-05-2.70935E-05-2.88565E-05-4.72437E-07-1.40601E-18 3.36498E-18
 -1      2928 9.42554E-05-2.69308E-05-2.88497E-05-4.36034E-07-1.14214E-18 2.59895E-18
 -1      2929 9.46830E-05-2.73868E-05-2.88397E-05-8.44612E-07 4.03130E-19 2.58951E-19
 -1      2930 9.45807E-05-2.72783E-05-2.88480E-05-7.50437E-07 1.70602E-19-1.51590E-18
 -1      2931 9.44264E-05-2.71105E-05-2.88467E-05-7.74496E-07-6.67440E-19-2.41445E-19
 -1      2932 9.49271E-05-2.76672E-05-2.88248E-05-9.59566E-07-8.03503E-19 1.31526E-18
 -1      2933 9.48087E-05-2.75345E-05-2.88356E-05-9.26739E-07 2.45800E-19 1.04342E-18
 -1      2934 9.46768E-05-2.73734E-05-2.88424E-05-1.01002E-06-8.95658E-20 4.03403E-19
 -1      2935 9.48039E-05-2.73294E-05-2.89187E-05 1.17942E-07 2.29534E-19-7.38374E-19
 -1      2936 9.49555E-05-2.70458E-05-2.90767E-05 7.69715E-07 3.63355E-19-6.36557E-19
 -1      2937 9.52925E-05-2.64072E-05-2.95298E-05 1.50758E-06 5.29328E-19-7.32634E-19
 -1      2938 9.51960E-05-2.72468E-05-2.91316E-05 3.77108E-08 2.77786E-19-8.37348E-19
 -1      2939 9.01091E-05-4.65874E-05-1.84665E-05 3.69995E-05 2.93285E-20 4.69256E-19
 -1      2940 7.37570E-05-3.66997E-05-1.55345E-05 3.54302E-05-2.65757E-19 5.10337E-20
 -1      2941 1.31894E-04-5.66051E-05-3.21355E-05-1.20443E-05 7.87688E-19-1.80947E-19
 -1      2942 1.37184E-04-5.24271E-05-3.68062E-05-3.78373E-06 9.91095E-20 7.12778E-19
 -1      2943 4.16372E-05-1.84189E-05-9.17089E-06-2.44782E-05-2.33252E-19 3.25854E-18
 -1      2944 5.04260E-05-2.41009E-05-1.08200E-05-3.27132E-05-2.09641E-19 2.32722E-18
 -1      2945 1.26057E-04-1.02501E-05-5.01890E-05 5.43447E-06-6.45863E-19 1.78221E-18
 -1      2946 1.25869E-04-9.14792E-06-5.07594E-05-5.71069E-07-6.09228E-19 2.37390E-18
 -1      2947 9.32525E-05-4.77230E-05-1.90277E-05-3.51490E-05-1.11247E-18-5.92420E-19
 -1      2948 1.07452E-04-5.46486E-05-2.28136E-05-3.16398E-05-6.01605E-19-6.45836E-19
 -1      2949 1.17885E-04-2.05545E-05-4.19660E-05-8.46037E-06-1.19347E-18-3.05061E-19
 -1      2950 1.27020E-04-1.57794E-05-4.82130E-05-7.39931E-06-1.09394E-18-5.11396E-20
 -1      2951 1.31611E-04-2.05838E-05-4.83056E-05-1.24575E-05-1.02300E-18-8.25010E-19
 -1      2952 1.20627E-04-2.58760E-05-4.11246E-05-1.41230E-05-1.42714E-18-1.99145E-19
 -1      2953 5.98779E-05-3.13183E-05-1.21344E-05 3.80086E-05 1.53461E-18-1.07679E-18
 -1      2954 4.53329E-05-2.26080E-05-9.20428E-06 2.98258E-05 1.10040E-18-3.66977E-19
 -1      2955 9.47970E-05-2.81246E-05-2.85689E-05-1.89855E-06 8.30758E-21-7.39589E-19
 -1      2956 9.46890E-05-2.80498E-05-2.85541E-05-1.70883E-06 9.03128E-20-8.79969E-19
 -1      2957 9.51133E-05-2.81189E-05-2.87178E-05-2.07778E-06 3.67324E-20-5.49871E-19
 -1      2958 9.46940E-05-2.79826E-05-2.85871E-05-1.46101E-06 1.70433E-19-8.50113E-19
 -1      2959 9.46534E-05-2.78684E-05-2.86115E-05-1.19527E-06 1.65152E-19-9.09043E-19
 -1      2960 9.50832E-05-2.79922E-05-2.87608E-05-1.59767E-06 1.03642E-19-8.04245E-19
 -1      2961 9.52143E-05-2.39197E-05-3.05431E-05-5.18474E-06-9.29103E-19 1.63203E-21
 -1      2962 9.51711E-05-2.49362E-05-3.01201E-05-3.63948E-06-7.84470E-19-4.75451E-20
 -1      2963 9.52308E-05-2.46439E-05-3.02636E-05-3.34169E-06-7.30810E-19-2.56167E-19
 -1      2964 1.41632E-04-4.50052E-05-4.21891E-05-9.86103E-06-7.07749E-19-1.41878E-18
 -1      2965 1.41373E-04-5.35071E-05-3.76697E-05-2.04016E-06 3.98503E-20-1.39580E-18
 -1      2966 1.37479E-04-4.64338E-05-3.93570E-05 1.24615E-05 3.30925E-19 5.58406E-19
 -1      2967 1.33906E-04-3.50493E-05-4.28048E-05 1.55333E-05 1.35419E-19 8.22681E-20
 -1      2968 9.11950E-05-1.59880E-05-3.22593E-05 4.82675E-06 3.47290E-19-1.23990E-18
 -1      2969 9.08475E-05-1.54777E-05-3.23237E-05 3.91455E-06 1.57163E-19-1.34926E-18
 -1      2970 9.18063E-05-1.70500E-05-3.20221E-05 3.11310E-06 4.41363E-20-1.28670E-18
 -1      2971 9.24901E-05-1.81433E-05-3.18426E-05 4.50371E-06 2.79286E-19-1.07803E-18
 -1      2972 9.08102E-05-1.54298E-05-3.23282E-05-3.85327E-06-6.13338E-19-9.51605E-19
 -1      2973 9.11473E-05-1.59262E-05-3.22650E-05-4.76872E-06-7.41773E-19-9.02269E-19
 -1      2974 3.55229E-05-1.59244E-05-7.96130E-06 1.99021E-05 4.88156E-19-5.66665E-19
 -1      2975 3.08680E-05-1.23072E-05-7.54249E-06 4.52661E-06-4.40632E-19 5.42101E-19
 -1      2976 3.39141E-05-1.31570E-05-8.22688E-06-9.12229E-06-9.88408E-19 2.72956E-19
 -1      2977 4.26416E-05-1.80226E-05-1.01914E-05-2.18535E-05-1.57654E-18-8.85149E-20
 -1      2978 1.06980E-04-5.38139E-05-2.24786E-05-3.23285E-05 5.68783E-19-1.28482E-18
 -1      2979 1.22295E-04-5.84116E-05-2.76330E-05-2.42569E-05 1.04937E-18-1.28450E-18
 -1      2980 1.21227E-04-5.87020E-05-2.65818E-05-2.24386E-05-1.53525E-20 1.97332E-19
 -1      2981 1.31715E-04-5.93583E-05-3.12803E-05-1.25821E-05 2.72903E-19 3.95088E-19
 -1      2982 1.37663E-04-5.10844E-05-3.76206E-05 1.79511E-06 3.89602E-19 2.46508E-18
 -1      2983 1.34452E-04-5.52291E-05-3.38218E-05 8.19419E-06 7.48804E-19 3.02624E-18
 -1      2984 1.20571E-04-5.93272E-05-2.64059E-05 2.54057E-05 4.57504E-19-2.34549E-19
 -1      2985 1.05058E-04-5.37587E-05-2.17142E-05 3.21310E-05 2.24146E-19 5.18715E-19
 -1      2986 1.37695E-04-5.89803E-05-3.41587E-05 8.20666E-06 4.77991E-19-1.37664E-18
 -1      2987 1.30761E-04-6.00882E-05-3.01778E-05 1.54878E-05 6.01870E-19-7.98223E-19
 -1      2988 9.53454E-05-2.81723E-05-2.87879E-05-8.53785E-07-9.25999E-19-1.61635E-19
 -1      2989 9.52467E-05-2.80552E-05-2.87963E-05-8.94672E-07-1.56060E-18-4.24962E-19
 -1      2990 9.53980E-05-2.81671E-05-2.88099E-05-9.64742E-07-1.34364E-18 4.73163E-20
 -1      2991 5.16206E-05-2.40906E-05-1.15265E-05 2.93050E-05-1.45076E-18-1.12528E-18
 -1      2992 3.63407E-05-1.63233E-05-7.74487E-06 1.80517E-05-1.72260E-18-2.54915E-18
 -1      2993 1.37953E-04-4.60214E-05-3.96249E-05 3.55287E-06-3.56813E-19-1.40819E-19
 -1      2994 1.35912E-04-3.78302E-05-4.26229E-05 8.86171E-06-1.98206E-19 4.15152E-19
 -1      2995 1.34324E-04-4.94432E-05-3.65193E-05 2.33237E-06 1.31482E-19-2.89897E-19
 -1      2996 9.15803E-05-1.65988E-05-3.21595E-05-5.48364E-06-7.84411E-19-7.31605E-19
 -1      2997 9.20613E-05-1.73699E-05-3.20606E-05-6.33437E-06-9.40778E-19-5.32072E-19
 -1      2998 9.24416E-05-1.80734E-05-3.18512E-05-4.46126E-06-6.60622E-19-7.18966E-19
 -1      2999 9.12636E-05-1.62095E-05-3.21530E-05 2.70616E-08-2.60818E-19-1.20648E-18
 -1      3000 9.01627E-05-1.44568E-05-3.24651E-05-3.73632E-07-2.93585E-19-1.18254E-18
 -1      3001 9.02204E-05-1.45396E-05-3.24544E-05-1.31350E-06-3.07510E-19-1.19229E-18
 -1      3002 9.43651E-05-2.13848E-05-3.12821E-05 7.11624E-06 7.72821E-19-8.37921E-19
 -1      3003 4.07752E-05-1.55326E-05-1.02710E-05-1.68635E-05-9.50053E-19 2.25110E-18
 -1      3004 9.52877E-05-2.80153E-05-2.88329E-05-1.12990E-06-1.57040E-18-6.41045E-19
 -1      3005 1.37653E-04-5.52324E-05-3.53038E-05-7.27619E-07 5.97059E-19-1.54636E-18
 -1      3006 6.47637E-05-3.00575E-05-1.44367E-05-3.35360E-05 7.64553E-19 1.09585E-18
 -1      3007 1.25489E-04-5.86553E-05-2.85112E-05 1.71353E-05 7.09125E-19-3.56071E-19
 -1      3008 9.51113E-05-2.77257E-05-2.88888E-05-9.38269E-07 2.14968E-19-1.00173E-18
 -1      3009 1.35685E-04-4.51166E-05-3.90459E-05-5.51154E-06 7.83611E-19 1.85193E-18
 -1      3010 1.15861E-04-5.52056E-05-2.57819E-05-2.27948E-05-3.73753E-20-4.92854E-19
 -1      3011 9.96676E-05-5.02658E-05-2.09638E-05-3.47586E-05 2.97097E-19-2.26834E-18
 -1      3012 1.08742E-04-5.19941E-05-2.42193E-05-2.71626E-05 3.88497E-19-1.10282E-18
 -1      3013 9.08614E-05-4.38340E-05-1.98247E-05-3.46438E-05 2.91644E-19-1.43879E-18
 -1      3014 1.07665E-04-5.35894E-05-2.29121E-05 3.15114E-05 1.20819E-18 1.82822E-18
 -1      3015 9.96927E-05-4.81152E-05-2.18546E-05 3.20085E-05 1.45266E-18 1.31494E-18
 -1      3016 1.14722E-04-5.49081E-05-2.58665E-05 2.39304E-05 1.22510E-18 2.72720E-18
 -1      3017 4.01128E-05-1.27079E-05-1.11045E-05-1.10990E-06-4.37605E-19 6.42263E-19
 -1      3018 7.76355E-05-3.43452E-05-1.82228E-05 3.09157E-05-3.72694E-20-6.61744E-21
 -1      3019 6.50197E-05-2.95244E-05-1.46534E-05 3.25627E-05-4.65815E-19-6.76462E-19
 -1      3020 5.74655E-05-2.24616E-05-1.46735E-05 2.59026E-05-1.46118E-18-3.92070E-19
 -1      3021 1.27715E-04-2.97491E-05-4.23177E-05-1.59914E-05-6.57086E-19-4.67880E-19
 -1      3022 4.75533E-05-1.87922E-05-1.16683E-05 2.30368E-05 5.89429E-19-1.33090E-19
 -1      3023 1.29355E-04-5.65950E-05-3.12097E-05 1.15879E-05 6.36545E-19 2.14982E-18
 -1      3024 9.51265E-05-2.78791E-05-2.88187E-05 9.64006E-07 1.95820E-18 2.25361E-18
 -1      3025 9.51750E-05-2.78756E-05-2.88385E-05 1.09650E-06 2.52450E-18 2.19935E-19
 -1      3026 9.49980E-05-2.77345E-05-2.88315E-05 9.84507E-07 1.52375E-18 3.00991E-18
 -1      3027 8.76225E-05-4.22520E-05-1.90674E-05-3.33466E-05-7.92399E-19-9.93199E-19
 -1      3028 1.38526E-04-5.24141E-05-3.72371E-05 4.42845E-06 4.80374E-19 8.39621E-19
 -1      3029 1.33212E-04-5.04095E-05-3.55842E-05 7.08048E-06 5.27675E-19 4.40351E-19
 -1      3030 1.31584E-04-5.36375E-05-3.33278E-05 2.16091E-06 3.32196E-19 7.23737E-19
 -1      3031 1.36567E-04-5.81507E-05-3.36425E-05-4.08715E-06 1.96670E-19 6.85567E-19
 -1      3032 1.34824E-04-2.46019E-05-4.77002E-05-1.10022E-05 5.44007E-19 1.37590E-18
 -1      3033 1.31623E-04-3.01633E-05-4.37184E-05-1.16567E-05 5.81382E-19 1.44260E-18
 -1      3034 1.27613E-04-1.89152E-05-4.71989E-05-1.16569E-05-3.64436E-19 2.94291E-18
 -1      3035 9.51371E-05-2.79132E-05-2.88096E-05-9.26003E-07-1.24749E-18-1.69254E-19
 -1      3036 1.26283E-04-5.68267E-05-2.97857E-05-1.50429E-05 8.22257E-19 3.30502E-19
 -1      3037 1.32891E-04-3.33138E-05-4.30590E-05 1.19737E-05-3.62689E-19-1.39125E-19
 -1      3038 1.26547E-04-2.73615E-05-4.30813E-05 1.38703E-05 2.61416E-19 1.57654E-19
 -1      3039 1.29913E-04-3.79625E-05-3.95263E-05 1.11344E-05 4.05517E-19-8.85944E-19
 -1      3040 1.23651E-04-1.47468E-05-4.70149E-05 8.29930E-06-3.14355E-19 1.33699E-18
 -1      3041 3.85232E-05-1.40782E-05-9.77862E-06 9.61998E-06-2.76157E-18-9.85205E-19
 -1      3042 1.16970E-04-1.04885E-05-4.60327E-05-1.33479E-06-2.94979E-19 2.61679E-18
 -1      3043 1.24567E-04-1.04706E-05-4.95339E-05-3.46415E-06-3.97894E-19 2.41145E-18
 -1      3044 1.22350E-04-1.23330E-05-4.76747E-05-7.17246E-06-4.78574E-19 2.72925E-18
 -1      3045 5.39607E-05-2.25849E-05-1.28583E-05-2.66511E-05-1.35943E-18-4.76456E-19
 -1      3046 6.53154E-05-2.73644E-05-1.62125E-05-2.89926E-05-9.57253E-19-6.46498E-19
 -1      3047 5.19248E-05-1.76730E-05-1.43311E-05-1.96068E-05-7.60265E-19-2.73803E-19
 -1      3048 9.46295E-05-2.24076E-05-3.09446E-05 5.56991E-06 7.01854E-19-9.18518E-19
 -1      3049 7.37492E-05-3.55726E-05-1.58303E-05 3.59265E-05 1.61328E-18-7.91182E-19
 -1      3050 9.47540E-05-2.74561E-05-2.88463E-05 9.14752E-07 1.53739E-18 1.21466E-18
 -1      3051 9.48757E-05-2.75882E-05-2.88366E-05 9.59887E-07 1.37176E-18 9.72742E-19
 -1      3052 9.48767E-05-2.75542E-05-2.88492E-05 1.09905E-06 1.54944E-18 1.24367E-18
 -1      3053 9.46131E-05-2.72798E-05-2.88539E-05 9.87954E-07 8.46389E-19 1.48298E-19
 -1      3054 9.03489E-05-1.47382E-05-3.24252E-05-2.12946E-06-3.88682E-19-9.70632E-19
 -1      3055 9.05375E-05-1.50099E-05-3.23908E-05-3.06512E-06-5.83137E-19-8.87548E-19
 -1      3056 9.17735E-05-1.70064E-05-3.20269E-05-3.05684E-06-5.43736E-19-8.69044E-19
 -1      3057 9.13853E-05-1.64001E-05-3.21228E-05-1.53839E-06-3.29096E-19-9.97325E-19
 -1      3058 1.35035E-04-2.29782E-05-4.88591E-05-1.31662E-05-9.52912E-19-1.47775E-18
 -1      3059 1.38400E-04-3.18896E-05-4.58433E-05-1.47774E-05-1.20935E-18-1.09415E-18
 -1      3060 1.02004E-04-4.97541E-05-2.20789E-05 3.02855E-05 6.53909E-19 7.67729E-19
 -1      3061 9.51561E-05-2.78908E-05-2.88289E-05-1.10730E-06-2.53654E-18-1.18555E-18
 -1      3062 9.50241E-05-2.77691E-05-2.88248E-05-1.01967E-06-1.30599E-18 1.08261E-19
 -1      3063 9.49358E-05-2.76335E-05-2.88414E-05-1.15062E-06-1.28930E-18 1.26653E-19
 -1      3064 9.51807E-05-2.78612E-05-2.88478E-05-1.23589E-06-1.42743E-18-8.63464E-19
 -1      3065 1.30307E-04-5.73136E-05-3.12196E-05-7.22658E-06 4.78177E-19 5.74262E-19
 -1      3066 9.28859E-05-1.85782E-05-3.18420E-05-6.96530E-06-1.02040E-18-4.02020E-19
 -1      3067 9.42438E-05-2.09230E-05-3.14617E-05-7.63092E-06-1.12917E-18-3.01933E-20
 -1      3068 9.47535E-05-2.27249E-05-3.08733E-05-5.92627E-06-1.01546E-18-3.54993E-20
 -1      3069 9.35575E-05-1.99506E-05-3.15138E-05-5.63058E-06-9.07867E-19-3.61025E-19
 -1      3070 9.46059E-05-2.23897E-05-3.09428E-05-5.31737E-06-9.52321E-19-2.05708E-19
 -1      3071 3.96078E-05-1.21064E-05-1.13023E-05-8.08919E-06-2.44324E-18 8.75409E-19
 -1      3072 4.81148E-05-1.62432E-05-1.33966E-05-1.92154E-05-2.34416E-19 1.46950E-18
 -1      3073 9.42871E-05-2.17550E-05-3.11064E-05 4.82419E-06 4.18290E-19-1.01031E-18
 -1      3074 9.38191E-05-2.07946E-05-3.12988E-05 4.47655E-06 3.13125E-19-9.63617E-19
 -1      3075 1.31115E-04-5.09791E-05-3.42397E-05 1.08092E-06 5.58976E-19-1.18426E-18
 -1      3076 1.30511E-04-4.62855E-05-3.66121E-05 6.17045E-06 3.29853E-19-1.80942E-18
 -1      3077 9.55281E-05-2.54119E-05-3.00206E-05-1.89819E-06-5.47008E-19-2.08480E-19
 -1      3078 9.55439E-05-2.60814E-05-2.97803E-05-1.03461E-06-4.36794E-19-1.83598E-19
 -1      3079 6.22493E-05-2.51769E-05-1.55824E-05-2.90858E-05 1.05384E-18 1.22883E-18
 -1      3080 7.56232E-05-3.44927E-05-1.73746E-05-3.47240E-05 8.01240E-19 1.87671E-19
 -1      3081 1.36206E-04-3.90382E-05-4.19292E-05-1.36807E-05-8.42374E-19-1.05286E-18
 -1      3082 1.34892E-04-5.18478E-05-3.59200E-05-5.95067E-06 8.45154E-19-1.68681E-18
 -1      3083 1.33571E-04-5.61736E-05-3.30760E-05 1.79575E-06 1.37516E-18-1.69163E-18
 -1      3084 9.56737E-05-2.66542E-05-2.95660E-05-3.88445E-07-4.56490E-19-7.04941E-20
 -1      3085 9.56530E-05-2.70630E-05-2.94021E-05 2.07511E-07-3.94366E-19-1.77185E-19
 -1      3086 9.56648E-05-2.59454E-05-2.98822E-05-8.35893E-07-3.07679E-19-3.56227E-19
 -1      3087 9.56785E-05-2.73993E-05-2.92526E-05 6.70244E-07-3.97710E-19-1.19773E-19
 -1      3088 9.56504E-05-2.76407E-05-2.91495E-05 1.08027E-06-5.56089E-19-2.91401E-19
 -1      3089 9.58242E-05-2.69715E-05-2.95111E-05 3.14440E-07-4.23193E-19-4.24518E-19
 -1      3090 9.56168E-05-2.78177E-05-2.90507E-05 1.40931E-06-6.11800E-19-1.32430E-19
 -1      3091 9.55969E-05-2.79446E-05-2.89934E-05 1.70123E-06-5.70966E-19-1.12153E-19
 -1      3092 9.58212E-05-2.75709E-05-2.92536E-05 1.14058E-06-3.88574E-19-4.88691E-20
 -1      3093 9.55312E-05-2.80122E-05-2.89338E-05 1.94942E-06-4.35622E-19-2.46903E-20
 -1      3094 9.55251E-05-2.80602E-05-2.89110E-05 2.17687E-06-4.74549E-19 7.31366E-20
 -1      3095 9.57275E-05-2.78683E-05-2.90857E-05 1.74688E-06-4.21320E-19-9.72951E-20
 -1      3096 9.54414E-05-2.80515E-05-2.88810E-05 2.38689E-06-2.47419E-19 2.77758E-19
 -1      3097 9.54508E-05-2.80456E-05-2.88839E-05 2.59054E-06-1.01593E-19 6.91258E-19
 -1      3098 9.55834E-05-2.79536E-05-2.89868E-05 2.22811E-06-1.33141E-19 1.35318E-19
 -1      3099 9.53570E-05-2.79846E-05-2.88755E-05 2.79590E-06-1.75999E-19 7.61445E-19
 -1      3100 9.53835E-05-2.79446E-05-2.88971E-05 3.00532E-06-3.33674E-21 7.99186E-19
 -1      3101 9.54102E-05-2.78900E-05-2.89392E-05 2.66126E-06 4.89654E-20 5.24119E-19
 -1      3102 9.52859E-05-2.78517E-05-2.89035E-05 3.23111E-06-2.80600E-19 1.01324E-18
 -1      3103 9.53333E-05-2.77967E-05-2.89381E-05 3.46619E-06-4.55347E-19 5.96304E-19
 -1      3104 9.52221E-05-2.77276E-05-2.89277E-05 3.10604E-06-1.90932E-19 7.83972E-19
 -1      3105 9.52395E-05-2.76924E-05-2.89527E-05 3.72980E-06-4.36596E-19 8.87533E-19
 -1      3106 9.53155E-05-2.76440E-05-2.89951E-05 4.00125E-06-2.21664E-19 7.70732E-19
 -1      3107 9.50327E-05-2.75123E-05-2.89385E-05 3.60615E-06-4.12558E-19 9.91381E-19
 -1      3108 9.52381E-05-2.75533E-05-2.90119E-05 4.31258E-06-6.02370E-20 5.04991E-19
 -1      3109 9.53566E-05-2.75395E-05-2.90569E-05 4.62141E-06-1.15949E-19 3.91921E-19
 -1      3110 9.48616E-05-2.72948E-05-2.89585E-05 4.19045E-06-2.12172E-19 1.24393E-18
 -1      3111 9.53170E-05-2.74961E-05-2.90695E-05 4.98227E-06-2.41145E-19 4.54645E-19
 -1      3112 9.55015E-05-2.75548E-05-2.91119E-05 5.31817E-06-1.19809E-19 2.82250E-19
 -1      3113 9.47420E-05-2.71393E-05-2.89747E-05 4.87306E-06-2.06589E-19 4.98157E-19
 -1      3114 9.55352E-05-2.76051E-05-2.91143E-05 5.72073E-06-1.14139E-19 1.26361E-20
 -1      3115 9.58224E-05-2.77882E-05-2.91490E-05 6.05930E-06-1.74155E-19 2.81120E-20
 -1      3116 9.47292E-05-2.71326E-05-2.89741E-05 5.65186E-06-3.86982E-19 4.83533E-20
 -1      3117 9.59862E-05-2.79957E-05-2.91363E-05 6.48294E-06-3.98042E-19-1.43341E-19
 -1      3118 9.64299E-05-2.83707E-05-2.91596E-05 6.78148E-06-6.90913E-19 2.35551E-20
 -1      3119 9.49132E-05-2.73933E-05-2.89451E-05 6.50500E-06-2.50704E-19-3.67376E-19
 -1      3120 9.68095E-05-2.88177E-05-2.91302E-05 7.18657E-06-5.90858E-19-7.09288E-20
 -1      3121 9.74831E-05-2.94658E-05-2.91423E-05 7.37765E-06-2.24359E-19-6.26337E-20
 -1      3122 9.54329E-05-2.80795E-05-2.88805E-05 7.38319E-06-4.70376E-19-3.53787E-19
 -1      3123 9.81992E-05-3.02481E-05-2.91021E-05 7.69322E-06-1.60056E-19 1.43490E-19
 -1      3124 9.91887E-05-3.12487E-05-2.91122E-05 7.67576E-06-1.52252E-19 1.17190E-19
 -1      3125 9.64915E-05-2.93883E-05-2.87840E-05 8.19281E-06-1.05618E-19-7.36133E-20
 -1      3126 1.00393E-04-3.24537E-05-2.90817E-05 7.77763E-06 1.97522E-20 4.65087E-19
 -1      3127 1.01771E-04-3.38431E-05-2.91147E-05 7.40723E-06-1.70263E-19 6.71398E-19
 -1      3128 9.83615E-05-3.15322E-05-2.86820E-05 8.76223E-06 1.07471E-19 1.21999E-19
 -1      3129 1.03617E-04-3.54931E-05-2.91409E-05 7.08653E-06-4.43363E-19 1.20782E-18
 -1      3130 1.05378E-04-3.71781E-05-2.92465E-05 6.17529E-06-6.62158E-20 7.55948E-19
 -1      3131 1.01355E-04-3.46608E-05-2.86431E-05 8.78442E-06-5.04580E-20 4.57142E-19
 -1      3132 1.07927E-04-3.91136E-05-2.94175E-05 5.10264E-06 2.39469E-20 4.11720E-19
 -1      3133 1.09862E-04-4.07052E-05-2.96789E-05 3.46022E-06 3.56991E-19 2.33700E-19
 -1      3134 1.05724E-04-3.86859E-05-2.88064E-05 7.73646E-06-1.31347E-19 2.17967E-19
 -1      3135 1.12845E-04-4.23523E-05-3.01400E-05 1.28207E-06 7.86574E-20-2.60863E-19
 -1      3136 1.14441E-04-4.30397E-05-3.06655E-05-1.08307E-06-2.95993E-19-8.06705E-19
 -1      3137 1.11322E-04-4.28269E-05-2.94224E-05 4.85345E-06-2.03477E-19 1.95031E-19
 -1      3138 1.17002E-04-4.32595E-05-3.15890E-05-4.41760E-06-5.97555E-19-3.58189E-19
 -1      3139 1.17445E-04-4.18825E-05-3.24516E-05-6.94343E-06-7.37263E-19-2.77931E-19
 -1      3140 1.17090E-04-4.52483E-05-3.08552E-05-5.50325E-07-1.19293E-19-5.54820E-19
 -1      3141 1.18519E-04-3.96280E-05-3.39140E-05-1.05195E-05-3.51717E-19-7.08397E-21
 -1      3142 1.17112E-04-3.52021E-05-3.51103E-05-1.21735E-05-1.65542E-19 4.80577E-19
 -1      3143 1.20971E-04-4.30705E-05-3.34810E-05-7.58634E-06-4.62559E-19 2.06024E-19
 -1      3144 1.09797E-04-1.97129E-05-3.88967E-05-7.79999E-06-2.93709E-19 1.26176E-19
 -1      3145 1.08771E-04-1.70676E-05-3.94025E-05-3.62371E-06 9.03652E-19-4.39001E-20
 -1      3146 1.08480E-04-1.63105E-05-3.96384E-05 2.44491E-06 9.63659E-19-7.50756E-19
 -1      3147 1.09079E-04-1.81078E-05-3.93844E-05 7.22909E-06 6.68627E-19-5.97291E-19
 -1      3148 1.16212E-04-2.56267E-05-3.90104E-05 1.19792E-05 1.37632E-18-4.67920E-19
 -1      3149 1.18807E-04-3.16480E-05-3.76911E-05 1.35431E-05 1.12467E-18 4.92206E-20
 -1      3150 1.20219E-04-3.81014E-05-3.53269E-05 1.05385E-05 1.18905E-18 1.55642E-19
 -1      3151 1.21301E-04-4.21418E-05-3.39899E-05 9.10970E-06 1.27747E-18 3.18379E-19
 -1      3152 1.15120E-04-4.31169E-05-3.08758E-05 1.88055E-06 1.08540E-18 1.29109E-18
 -1      3153 1.13466E-04-4.26212E-05-3.02814E-05-6.77512E-07 8.72189E-19 8.62369E-19
 -1      3154 1.10452E-04-4.10503E-05-2.97794E-05-2.95121E-06-5.83129E-20 1.50494E-18
 -1      3155 1.08490E-04-3.94866E-05-2.94954E-05-4.66983E-06-3.73033E-19 1.21954E-18
 -1      3156 1.11987E-04-4.32294E-05-2.95458E-05-4.35825E-06 5.12000E-19 8.09274E-19
 -1      3157 1.05878E-04-3.75464E-05-2.93018E-05-5.82615E-06-5.89896E-19 7.92767E-19
 -1      3158 1.04081E-04-3.58411E-05-2.91860E-05-6.79924E-06-7.73485E-19 5.25407E-19
 -1      3159 1.06313E-04-3.91000E-05-2.88712E-05-7.40103E-06-3.84416E-19 1.65713E-18
 -1      3160 1.02144E-04-3.41309E-05-2.91520E-05-7.17444E-06-1.32675E-18 1.48409E-20
 -1      3161 1.00719E-04-3.26869E-05-2.91181E-05-7.57650E-06-1.76785E-18-1.27810E-19
 -1      3162 1.01785E-04-3.50130E-05-2.86759E-05-8.59099E-06-1.08992E-18 8.07222E-19
 -1      3163 9.94359E-05-3.14128E-05-2.91487E-05-7.48709E-06-1.68248E-18 1.08862E-19
 -1      3164 9.84041E-05-3.03538E-05-2.91424E-05-7.50949E-06-1.26573E-18 1.98028E-19
 -1      3165 9.86177E-05-3.17336E-05-2.87072E-05-8.62169E-06-2.01755E-18 2.53112E-19
 -1      3166 9.76268E-05-2.95075E-05-2.91868E-05-7.18002E-06-9.27779E-19-3.88370E-20
 -1      3167 9.69216E-05-2.88070E-05-2.91810E-05-6.97194E-06-7.60917E-19-8.74384E-19
 -1      3168 9.66098E-05-2.94413E-05-2.88133E-05-8.04109E-06-1.19304E-18 1.59001E-18
 -1      3169 9.64950E-05-2.83055E-05-2.92161E-05-6.53429E-06-6.34179E-21-8.70567E-19
 -1      3170 9.60299E-05-2.78871E-05-2.92002E-05-6.20129E-06 6.67316E-19-3.34373E-19
 -1      3171 9.54449E-05-2.80025E-05-2.89194E-05-7.17884E-06-1.17981E-19 2.42278E-19
 -1      3172 9.58285E-05-2.76343E-05-2.92183E-05-5.73149E-06 1.07147E-18-1.96353E-19
 -1      3173 9.55278E-05-2.74168E-05-2.91909E-05-5.34464E-06 9.92628E-19-1.38114E-19
 -1      3174 9.48424E-05-2.72078E-05-2.89945E-05-6.21865E-06 8.45102E-19-1.00101E-18
 -1      3175 9.54610E-05-2.73288E-05-2.91922E-05-4.88585E-06 4.94975E-19 7.90105E-19
 -1      3176 9.52680E-05-2.72434E-05-2.91561E-05-4.49123E-06 3.56364E-19 2.97464E-19
 -1      3177 9.45895E-05-2.68577E-05-2.90318E-05-5.26219E-06 1.25975E-18-7.04739E-19
 -1      3178 9.52751E-05-2.72558E-05-2.91445E-05-4.06721E-06-2.39724E-20-1.33405E-19
 -1      3179 9.51504E-05-2.72505E-05-2.91036E-05-3.69299E-06-9.08972E-20-2.30886E-19
 -1      3180 9.45383E-05-2.67915E-05-2.90359E-05-4.36506E-06 2.01937E-19-1.40596E-19
 -1      3181 9.51930E-05-2.73172E-05-2.90837E-05-3.31561E-06-4.79755E-19-8.50441E-19
 -1      3182 9.51105E-05-2.73553E-05-2.90418E-05-2.97732E-06-2.17974E-19-7.21237E-19
 -1      3183 9.45924E-05-2.68903E-05-2.90155E-05-3.55615E-06-1.01063E-19-4.48007E-20
 -1      3184 9.51651E-05-2.74450E-05-2.90177E-05-2.65082E-06 2.66841E-19-1.53864E-18
 -1      3185 9.51081E-05-2.75015E-05-2.89780E-05-2.35512E-06-1.91321E-19-2.29410E-18
 -1      3186 9.46918E-05-2.70712E-05-2.89800E-05-2.84789E-06 4.97237E-20-2.72074E-18
 -1      3187 9.51606E-05-2.75933E-05-2.89530E-05-2.07887E-06-8.37974E-19-7.38708E-19
 -1      3188 9.51203E-05-2.76525E-05-2.89175E-05-1.82587E-06-1.63857E-18-4.34652E-19
 -1      3189 9.48006E-05-2.72781E-05-2.89374E-05-2.24220E-06 6.45568E-19-3.47623E-18
 -1      3190 9.51782E-05-2.77410E-05-2.88978E-05-1.62290E-06-2.11142E-18-4.13830E-19
 -1      3191 9.51445E-05-2.77920E-05-2.88670E-05-1.40691E-06-1.59878E-18-6.18172E-19
 -1      3192 9.50069E-05-2.76672E-05-2.88617E-05-1.38132E-06-2.37995E-18-6.91602E-19
 -1      3193 9.49142E-05-2.74867E-05-2.88979E-05-1.76129E-06-1.93673E-18-8.47508E-19
 -1      3194 1.09159E-04-5.01240E-05-2.48174E-05-2.39680E-05-6.99940E-19-5.59591E-19
 -1      3195 1.19739E-04-5.51149E-05-2.78961E-05-1.71631E-05 1.00268E-19 2.67768E-19
 -1      3196 1.31771E-04-3.95600E-05-4.00302E-05-1.06261E-05 1.03089E-18 8.48356E-19
 -1      3197 1.31066E-04-4.63542E-05-3.62210E-05-6.03067E-06 7.71753E-19 1.73229E-18
 -1      3198 9.53559E-05-2.80556E-05-2.88380E-05-2.58495E-06 5.59001E-19-5.95611E-19
 -1      3199 9.53069E-05-2.80609E-05-2.88193E-05-2.37564E-06 3.83995E-19-6.33965E-19
 -1      3200 9.53656E-05-2.74967E-05-2.90779E-05-4.15768E-06 1.17548E-19-4.87973E-19
 -1      3201 9.52643E-05-2.75974E-05-2.90061E-05-3.82816E-06 3.02126E-19-5.52307E-19
 -1      3202 9.53669E-05-2.72050E-05-2.92024E-05-4.92818E-06 2.42339E-19-3.52897E-20
 -1      3203 9.52483E-05-2.73160E-05-2.91216E-05-4.52233E-06 2.04653E-19-2.47192E-19
 -1      3204 9.48306E-05-2.70371E-05-2.90529E-05-4.38815E-06 2.24175E-20-7.48427E-19
 -1      3205 9.53689E-05-2.69076E-05-2.93296E-05-5.86437E-06-5.26600E-20-3.33669E-20
 -1      3206 9.52264E-05-2.70088E-05-2.92453E-05-5.37608E-06 2.22759E-19 1.68458E-19
 -1      3207 9.45763E-05-2.66150E-05-2.91235E-05-5.20102E-06 8.45414E-20-1.93730E-19
 -1      3208 9.53922E-05-2.66647E-05-2.94424E-05-6.97033E-06 1.66676E-19-1.55610E-19
 -1      3209 9.52093E-05-2.67207E-05-2.93624E-05-6.40355E-06 2.89232E-20-1.24204E-19
 -1      3210 9.42787E-05-2.61844E-05-2.91794E-05-6.18316E-06 5.65685E-20 1.35089E-20
 -1      3211 9.54925E-05-2.65830E-05-2.95186E-05-8.23069E-06-3.55179E-19 3.00440E-19
 -1      3212 9.52330E-05-2.65322E-05-2.94534E-05-7.60346E-06-9.77209E-20 4.58373E-20
 -1      3213 9.39589E-05-2.58202E-05-2.91982E-05-7.34664E-06-4.60373E-20-9.79106E-20
 -1      3214 9.57914E-05-2.68456E-05-2.95313E-05-9.60346E-06-1.56602E-20-9.47252E-20
 -1      3215 9.53830E-05-2.65846E-05-2.94933E-05-8.95427E-06-7.46954E-20 7.10608E-20
 -1      3216 9.36806E-05-2.56538E-05-2.91521E-05-8.69583E-06 1.13189E-19 2.71030E-19
 -1      3217 9.65247E-05-2.77477E-05-2.94545E-05-1.10060E-05-4.27869E-19-4.52029E-19
 -1      3218 9.58357E-05-2.71139E-05-2.94547E-05-1.04047E-05-1.58913E-19-3.54156E-19
 -1      3219 9.35869E-05-2.59075E-05-2.90095E-05-1.02284E-05 3.58186E-20-6.44158E-19
 -1      3220 9.81062E-05-2.97237E-05-2.92789E-05-1.22829E-05-2.32536E-19-4.28434E-19
 -1      3221 9.69180E-05-2.84861E-05-2.93171E-05-1.18512E-05-1.57854E-19-1.33343E-19
 -1      3222 9.39601E-05-2.69362E-05-2.87429E-05-1.19288E-05-3.65887E-19-3.21381E-19
 -1      3223 1.01178E-04-3.33370E-05-2.90480E-05-1.31415E-05-1.56663E-19-5.95214E-19
 -1      3224 9.91826E-05-3.12098E-05-2.90917E-05-1.30871E-05-3.65539E-19-6.07721E-19
 -1      3225 9.52996E-05-2.92609E-05-2.83489E-05-1.37337E-05-7.85106E-20 2.05273E-20
 -1      3226 1.06579E-04-3.90030E-05-2.89206E-05-1.30033E-05-3.04919E-19-2.18781E-19
 -1      3227 1.03438E-04-3.57558E-05-2.88806E-05-1.36218E-05 1.71870E-19-1.03312E-19
 -1      3228 9.84377E-05-3.36132E-05-2.78955E-05-1.53986E-05-2.19681E-19 1.17969E-19
 -1      3229 1.17570E-04-4.91077E-05-2.92350E-05-1.06557E-05 2.09674E-19 8.99622E-19
 -1      3230 1.12705E-04-4.55680E-05-2.87241E-05-1.30517E-05-7.47146E-19 1.12465E-19
 -1      3231 1.22497E-04-5.20264E-05-3.01985E-05-7.16410E-06 3.95035E-19 8.98040E-19
 -1      3232 1.07123E-04-3.92967E-05-2.89369E-05 1.31025E-05 5.05225E-19-3.45056E-18
 -1      3233 1.11111E-04-4.26991E-05-2.92056E-05 1.13870E-05-3.94097E-19-3.36044E-18
 -1      3234 1.01299E-04-3.34272E-05-2.90291E-05 1.33450E-05 2.00127E-19-2.08197E-18
 -1      3235 1.03848E-04-3.60569E-05-2.90183E-05 1.30117E-05 2.20063E-19-3.28314E-18
 -1      3236 1.01531E-04-3.69282E-05-2.77838E-05 1.59784E-05 3.78683E-19-2.87567E-18
 -1      3237 9.80575E-05-2.97085E-05-2.92680E-05 1.23724E-05 6.16857E-19-7.69245E-19
 -1      3238 9.96344E-05-3.13840E-05-2.92183E-05 1.26431E-05 3.73484E-19-1.57189E-18
 -1      3239 9.68077E-05-3.12314E-05-2.81700E-05 1.45214E-05-4.63839E-19-1.30969E-18
 -1      3240 9.64158E-05-2.76644E-05-2.94604E-05 1.09651E-05 5.37364E-19 8.38098E-19
 -1      3241 9.73366E-05-2.85963E-05-2.94361E-05 1.15179E-05 8.52917E-19 4.52278E-19
 -1      3242 9.46088E-05-2.79271E-05-2.86083E-05 1.27013E-05-1.96773E-19 7.30938E-20
 -1      3243 9.56684E-05-2.67155E-05-2.95561E-05 9.44004E-06 5.22405E-19 1.32556E-18
 -1      3244 9.62031E-05-2.71613E-05-2.95709E-05 1.01065E-05 7.37435E-19 1.03168E-18
 -1      3245 9.37684E-05-2.62488E-05-2.89473E-05 1.08851E-05 3.49216E-19 9.63162E-19
 -1      3246 9.53771E-05-2.64174E-05-2.95626E-05 7.95091E-06-6.58093E-19 1.05329E-18
 -1      3247 9.56996E-05-2.65759E-05-2.96097E-05 8.63631E-06 5.74790E-19 1.62852E-18
 -1      3248 9.36334E-05-2.56001E-05-2.91575E-05 9.19409E-06 8.59569E-19 1.25504E-18
 -1      3249 9.52932E-05-2.64693E-05-2.95053E-05 6.57358E-06-2.25083E-18 1.11102E-18
 -1      3250 9.55039E-05-2.64727E-05-2.95724E-05 7.22409E-06-1.69606E-18 6.49189E-19
 -1      3251 9.38108E-05-2.55379E-05-2.92563E-05 7.66437E-06-3.40525E-19 1.98563E-18
 -1      3252 9.52886E-05-2.66859E-05-2.94099E-05 5.34509E-06-2.39137E-18 1.64519E-18
 -1      3253 9.54404E-05-2.66149E-05-2.94859E-05 5.93202E-06-2.49219E-18 7.75217E-19
 -1      3254 9.40910E-05-2.57753E-05-2.92738E-05 6.30444E-06-2.31492E-18 1.19910E-18
 -1      3255 9.53036E-05-2.69605E-05-2.92976E-05 4.27938E-06-1.60940E-18 2.64744E-19
 -1      3256 9.54223E-05-2.68613E-05-2.93738E-05 4.79047E-06-1.79465E-18 1.01573E-18
 -1      3257 9.43724E-05-2.61396E-05-2.92388E-05 5.11563E-06-1.48643E-18-8.60747E-19
 -1      3258 9.53142E-05-2.72354E-05-2.91830E-05 3.37530E-06-3.21958E-19 2.09814E-19
 -1      3259 9.54120E-05-2.71331E-05-2.92540E-05 3.80882E-06-1.25744E-18-3.72646E-19
 -1      3260 9.46133E-05-2.65325E-05-2.91746E-05 4.09410E-06-1.20136E-18-2.38660E-18
 -1      3261 9.53131E-05-2.74824E-05-2.90755E-05 2.62155E-06 6.75889E-19 8.39269E-19
 -1      3262 9.53955E-05-2.73894E-05-2.91383E-05 2.98228E-06 8.09475E-19 3.61589E-19
 -1      3263 9.48017E-05-2.69020E-05-2.90978E-05 3.23065E-06-9.23781E-20-1.67436E-18
 -1      3264 9.52985E-05-2.76861E-05-2.89806E-05 2.00269E-06 8.62527E-19 1.00978E-18
 -1      3265 9.53698E-05-2.76104E-05-2.90338E-05 2.29895E-06 1.23554E-18 1.34761E-18
 -1      3266 9.49396E-05-2.72236E-05-2.90198E-05 2.51176E-06 9.09421E-19 5.64636E-19
 -1      3267 9.52754E-05-2.78428E-05-2.89006E-05 1.49950E-06 3.35633E-18-2.05103E-18
 -1      3268 9.53351E-05-2.77878E-05-2.89440E-05 1.73720E-06 1.35238E-18-1.59649E-19
 -1      3269 9.50305E-05-2.74850E-05-2.89476E-05 1.92090E-06 2.03552E-18-1.04692E-18
 -1      3270 9.51897E-05-2.78602E-05-2.88542E-05 1.21609E-06 3.80804E-18-1.37899E-18
 -1      3271 9.52565E-05-2.78595E-05-2.88804E-05 1.36258E-06 3.85651E-18-1.75721E-18
 -1      3272 9.50418E-05-2.76253E-05-2.88940E-05 1.51343E-06 3.12015E-18-2.30787E-18
 -1      3273 9.50138E-05-2.76840E-05-2.88600E-05 1.24376E-06 1.97998E-18 1.57114E-18
 -1      3274 9.41024E-05-2.68047E-05-2.88416E-05-5.99213E-07-1.27176E-18 2.27116E-18
 -1      3275 9.40301E-05-2.67401E-05-2.88422E-05-4.03781E-07-3.24465E-19 2.34432E-18
 -1      3276 9.39830E-05-2.66885E-05-2.88420E-05-1.55524E-07-3.69279E-19-4.74907E-19
 -1      3277 9.39735E-05-2.66785E-05-2.88430E-05 6.26098E-08 6.32340E-20-1.82476E-18
 -1      3278 9.38225E-05-2.65346E-05-2.88333E-05-3.17693E-07-8.69367E-19 9.65140E-19
 -1      3279 8.13516E-05-3.53440E-05-1.91454E-05-3.06799E-05-9.85735E-19-1.07250E-18
 -1      3280 9.47556E-05-4.37605E-05-2.20934E-05-2.95197E-05-6.13411E-19-1.17161E-18
 -1      3281 5.59251E-05-2.17939E-05-1.44605E-05 2.72354E-05 5.64389E-19-2.72321E-19
 -1      3282 4.73100E-05-1.53391E-05-1.34113E-05 1.71261E-05 3.07129E-19 5.15631E-20
 -1      3283 9.43925E-05-2.20096E-05-3.10459E-05-4.95766E-06-9.12529E-19-2.45015E-19
 -1      3284 9.48678E-05-2.30818E-05-3.07323E-05-4.28608E-06-7.77733E-19-2.58137E-19
 -1      3285 9.50956E-05-2.42616E-05-3.03797E-05-3.07802E-06-7.01818E-19-2.80657E-19
 -1      3286 9.38275E-05-2.07984E-05-3.12977E-05-4.62538E-06-8.06296E-19-4.35253E-19
 -1      3287 9.43404E-05-2.70336E-05-2.88440E-05-9.63895E-07-8.57975E-19-3.44598E-19
 -1      3288 9.42133E-05-2.69202E-05-2.88444E-05-8.09359E-07-1.42406E-18 4.67887E-19
 -1      3289 9.40007E-05-2.67041E-05-2.88377E-05-7.96223E-07-8.24065E-19 8.33269E-19
 -1      3290 1.28801E-04-5.78890E-05-3.05966E-05 9.98172E-06 1.13089E-18-9.89970E-19
 -1      3291 1.19682E-04-5.55337E-05-2.73761E-05 1.80256E-05 7.73500E-19-3.07638E-19
 -1      3292 1.29220E-04-5.50194E-05-3.16808E-05 3.77095E-06 1.43873E-18-1.96845E-18
 -1      3293 9.46643E-05-2.73511E-05-2.88477E-05-1.19716E-06-9.81830E-19-9.37323E-19
 -1      3294 9.45037E-05-2.72010E-05-2.88485E-05-1.11033E-06-7.04758E-19 3.48143E-19
 -1      3295 9.43061E-05-2.69891E-05-2.88478E-05-1.16930E-06-8.75903E-19 3.67279E-19
 -1      3296 9.53669E-05-2.80725E-05-2.88371E-05-2.15885E-06 1.03568E-19-6.41873E-19
 -1      3297 9.53418E-05-2.80246E-05-2.88468E-05-1.92962E-06-1.43778E-20-6.76168E-19
 -1      3298 9.54815E-05-2.79752E-05-2.89346E-05-2.25091E-06 3.19275E-19-6.10037E-19
 -1      3299 9.53607E-05-2.77491E-05-2.89688E-05-3.53364E-06 6.66092E-19-7.63555E-19
 -1      3300 9.52752E-05-2.78271E-05-2.89105E-05-3.26673E-06 7.82254E-19-6.73502E-19
 -1      3301 9.50406E-05-2.74082E-05-2.89851E-05-3.72348E-06 3.00008E-19-3.47348E-19
 -1      3302 9.53556E-05-2.79411E-05-2.88856E-05-3.02408E-06 6.87117E-19-8.57307E-19
 -1      3303 9.52870E-05-2.79875E-05-2.88448E-05-2.79949E-06 6.56124E-19-7.83238E-19
 -1      3304 9.53581E-05-2.78991E-05-2.89132E-05-2.70324E-06 7.62801E-19-5.90684E-19
 -1      3305 9.52134E-05-2.77024E-05-2.89344E-05-3.17587E-06 6.19229E-19-8.46394E-19
 -1      3306 9.53921E-05-2.79630E-05-2.88970E-05-1.67209E-06-1.91848E-20-6.47366E-19
 -1      3307 9.53951E-05-2.78433E-05-2.89436E-05-1.37708E-06 1.23906E-19-6.65522E-19
 -1      3308 9.55850E-05-2.78982E-05-2.90130E-05-1.74890E-06 6.31852E-20-6.70311E-19
 -1      3309 1.10266E-04-5.19384E-05-2.50235E-05 2.48782E-05 4.97420E-19 6.51607E-19
 -1      3310 9.69801E-05-4.44185E-05-2.23192E-05 2.83180E-05 3.24996E-19 4.98638E-19
 -1      3311 4.40062E-05-1.19634E-05-1.32969E-05 6.24265E-06 9.99234E-20 7.81811E-19
 -1      3312 4.56112E-05-1.26764E-05-1.38696E-05-6.60782E-06-3.03516E-19 1.25234E-18
 -1      3313 1.29444E-04-5.46094E-05-3.26175E-05 4.92692E-06 5.51650E-19 1.60232E-18
 -1      3314 1.24689E-04-5.58751E-05-2.91439E-05 1.37068E-05 5.82176E-19 2.20462E-18
 -1      3315 8.33666E-05-3.91356E-05-1.88965E-05 3.43972E-05 1.52424E-18-1.55642E-20
 -1      3316 6.80365E-05-2.94947E-05-1.60658E-05 3.23158E-05 7.40783E-19-6.28551E-19
 -1      3317 4.77395E-05-1.52801E-05-1.36680E-05 1.58028E-05-2.96739E-18-1.70434E-18
 -1      3318 4.05795E-05-1.17142E-05-1.18932E-05 3.36241E-06-2.79443E-18-1.24535E-18
 -1      3319 4.82323E-05-1.27919E-05-1.46965E-05-5.63455E-07-2.48523E-18-6.37286E-19
 -1      3320 9.52296E-05-2.42017E-05-3.04422E-05 4.11968E-06 6.75347E-19-6.91272E-19
 -1      3321 9.46567E-05-2.26500E-05-3.08502E-05 4.62367E-06 5.61421E-19-8.24418E-19
 -1      3322 9.49295E-05-2.34734E-05-3.06237E-05 3.49465E-06 4.56943E-19-7.59268E-19
 -1      3323 9.52647E-05-2.51099E-05-3.00789E-05 2.81674E-06 5.99129E-19-6.88779E-19
 -1      3324 9.54284E-05-2.76810E-05-2.90362E-05-1.03046E-06 2.63774E-19-7.06839E-19
 -1      3325 9.54615E-05-2.74594E-05-2.91319E-05-6.09461E-07 2.78517E-19-6.14420E-19
 -1      3326 9.56606E-05-2.76174E-05-2.91665E-05-1.10893E-06 1.10746E-19-5.70930E-19
 -1      3327 1.20306E-04-5.53295E-05-2.76724E-05-1.79038E-05 1.32730E-18-4.58351E-19
 -1      3328 1.27808E-04-5.51899E-05-3.14582E-05-8.14682E-06 1.32070E-18-2.86985E-19
 -1      3329 1.26616E-04-5.21352E-05-3.19321E-05-3.15522E-06 1.88772E-18-1.28717E-18
 -1      3330 1.19240E-04-1.66631E-05-4.41444E-05 9.95001E-06 4.23516E-19 7.54415E-19
 -1      3331 1.14624E-04-1.29033E-05-4.43009E-05 3.62548E-06 2.78568E-19 1.35761E-18
 -1      3332 9.23271E-05-1.81295E-05-3.18142E-05 1.74243E-06-1.39512E-19-1.27609E-18
 -1      3333 9.22000E-05-1.79181E-05-3.18474E-05 1.01295E-06-2.59421E-19-1.29047E-18
 -1      3334 9.21361E-05-1.78123E-05-3.18664E-05 3.94222E-07-2.11515E-19-1.24213E-18
 -1      3335 9.21327E-05-1.78075E-05-3.18668E-05-3.47951E-07-1.98874E-19-1.23505E-18
 -1      3336 9.30616E-05-1.93510E-05-3.15716E-05 5.94032E-07-1.71969E-19-1.24146E-18
 -1      3337 9.43347E-05-2.18205E-05-3.10527E-05 3.47123E-06 2.26376E-19-9.93769E-19
 -1      3338 9.34279E-05-2.00695E-05-3.14634E-05 4.10467E-06 2.46800E-19-1.05356E-18
 -1      3339 9.30611E-05-1.93950E-05-3.15815E-05 3.52722E-06 1.84688E-19-1.11689E-18
 -1      3340 1.27507E-04-4.06032E-05-3.72697E-05 1.05075E-05 1.11644E-18-1.03973E-18
 -1      3341 9.56806E-05-2.70520E-05-2.94175E-05-2.23658E-07 3.12102E-19-4.46130E-19
 -1      3342 9.54554E-05-2.71485E-05-2.92798E-05-1.15132E-07 2.77872E-19-6.29332E-19
 -1      3343 9.55030E-05-2.67695E-05-2.94422E-05 5.11196E-07 3.41476E-19-5.92444E-19
 -1      3344 8.74682E-05-3.94098E-05-2.03308E-05-3.12101E-05 7.50048E-19-1.07393E-18
 -1      3345 1.30848E-04-3.28468E-05-4.27129E-05-1.63806E-05-6.79426E-19-1.31465E-18
 -1      3346 1.34732E-04-4.23994E-05-3.96115E-05-1.35784E-05-2.17952E-19-1.02269E-18
 -1      3347 1.27908E-04-2.42367E-05-4.44506E-05-1.50825E-05-1.00204E-18-9.43489E-19
 -1      3348 1.34461E-04-4.98562E-05-3.66029E-05-9.42359E-06 6.37505E-19-1.09278E-18
 -1      3349 1.18346E-04-5.36914E-05-2.75479E-05 1.72731E-05 1.01226E-18 1.95596E-18
 -1      3350 1.11245E-04-1.50836E-05-4.14365E-05-8.58279E-07 5.44960E-19 8.39224E-19
 -1      3351 1.12400E-04-2.35343E-05-3.80846E-05-1.14730E-05-1.03690E-18 2.18865E-19
 -1      3352 1.13868E-04-2.02813E-05-4.02485E-05-1.04629E-05-7.04996E-19 1.05945E-18
 -1      3353 1.14650E-04-2.89396E-05-3.69936E-05-1.28245E-05-9.18726E-19 8.70111E-19
 -1      3354 1.23668E-04-4.78085E-05-3.26974E-05 3.01788E-06 1.75434E-18 9.89308E-20
 -1      3355 1.18281E-04-4.28092E-05-3.23707E-05 6.18613E-06 6.98157E-19 1.25517E-18
 -1      3356 1.17487E-04-4.39750E-05-3.14502E-05 3.49245E-06 1.00354E-18 1.49614E-18
 -1      3357 1.21871E-04-5.06475E-05-3.04312E-05-4.63698E-06 1.93994E-18-6.58763E-19
 -1      3358 1.26764E-04-3.28372E-05-4.04967E-05-1.29963E-05 5.16108E-19 1.37770E-18
 -1      3359 5.63415E-05-1.88466E-05-1.55895E-05 2.01712E-05-2.11700E-18 4.88156E-19
 -1      3360 5.70800E-05-1.65120E-05-1.71486E-05 1.49497E-05-2.40633E-18 1.94394E-19
 -1      3361 6.56619E-05-2.34353E-05-1.80612E-05 2.41031E-05-1.04928E-18 8.00605E-19
 -1      3362 8.88784E-05-3.91034E-05-2.11202E-05 2.97908E-05 2.77350E-19 1.00797E-19
 -1      3363 7.94451E-05-3.19805E-05-2.01397E-05 2.74452E-05-2.67424E-19 3.75659E-19
 -1      3364 9.78457E-05-4.12721E-05-2.39560E-05 2.41885E-05 3.07473E-19-4.49589E-20
 -1      3365 9.34513E-05-4.33262E-05-2.11283E-05 3.16387E-05 1.45679E-18 9.97196E-19
 -1      3366 8.69865E-05-3.75685E-05-2.10293E-05 2.95205E-05 8.35016E-19 1.03809E-18
 -1      3367 1.01280E-04-4.65455E-05-2.36170E-05 2.68412E-05 1.20063E-18 1.32221E-18
 -1      3368 1.27938E-04-4.85001E-05-3.40582E-05-2.88089E-06 3.92236E-19 1.03439E-18
 -1      3369 1.06115E-04-4.28725E-05-2.72722E-05-1.72988E-05-7.30996E-19 3.35875E-19
 -1      3370 1.05534E-04-4.39062E-05-2.65074E-05 1.94613E-05 1.70293E-19-1.69980E-18
 -1      3371 1.12333E-04-4.62524E-05-2.81773E-05 1.42555E-05 2.88521E-20-2.23183E-18
 -1      3372 1.21607E-04-1.73279E-05-4.50209E-05-9.62993E-06-3.52366E-19 2.45468E-18
 -1      3373 9.30116E-05-1.93299E-05-3.15895E-05-3.48523E-06-5.36451E-19-6.70647E-19
 -1      3374 9.33662E-05-1.99921E-05-3.14768E-05-4.06896E-06-6.94453E-19-6.39554E-19
 -1      3375 6.72862E-05-2.57726E-05-1.73684E-05 2.69814E-05 5.38184E-19-3.06467E-19
 -1      3376 1.15454E-04-5.20712E-05-2.72255E-05 1.77243E-05 5.96735E-19-1.07353E-18
 -1      3377 9.41529E-05-2.68397E-05-2.88526E-05 7.54116E-07-4.44092E-19 1.61390E-18
 -1      3378 9.42725E-05-2.69439E-05-2.88543E-05 9.24163E-07 1.95216E-19 1.09361E-18
 -1      3379 9.24827E-05-1.84036E-05-3.17602E-05-2.28261E-06-4.48980E-19-7.88282E-19
 -1      3380 9.27277E-05-1.88243E-05-3.16917E-05-2.96720E-06-4.83939E-19-8.11770E-19
 -1      3381 9.37050E-05-2.05243E-05-3.13343E-05-2.69274E-06-4.75921E-19-6.63803E-19
 -1      3382 7.53707E-05-2.97151E-05-1.92859E-05-2.67901E-05-8.56456E-19-6.69632E-19
 -1      3383 9.39982E-05-2.66988E-05-2.88457E-05 3.16983E-07-1.13581E-19-6.16281E-19
 -1      3384 9.40559E-05-2.67474E-05-2.88472E-05 5.25703E-07-4.31262E-19 1.56213E-19
 -1      3385 9.39321E-05-2.66160E-05-2.88455E-05 7.12291E-07-2.41616E-19 5.84574E-19
 -1      3386 9.37973E-05-2.65029E-05-2.88358E-05 2.07274E-07-9.08779E-20-3.77303E-19
 -1      3387 5.22147E-05-1.45507E-05-1.57184E-05 1.09153E-05 4.42760E-19 7.42742E-19
 -1      3388 9.54177E-05-2.63624E-05-2.96038E-05 1.09709E-06 4.53997E-19-6.66306E-19
 -1      3389 9.54486E-05-2.57647E-05-2.98510E-05 2.01013E-06 5.59631E-19-6.28052E-19
 -1      3390 9.53558E-05-2.50313E-05-3.01358E-05 2.38885E-06 5.71361E-19-4.29569E-19
 -1      3391 9.55900E-05-2.62070E-05-2.97406E-05 9.22019E-07 3.73167E-19-3.13826E-19
 -1      3392 9.51408E-05-2.41149E-05-3.04579E-05-2.69071E-06-5.95772E-19-2.77194E-19
 -1      3393 1.24337E-04-5.47139E-05-2.99156E-05-9.94891E-06 2.65942E-19 1.12092E-18
 -1      3394 1.17187E-04-4.60881E-05-3.06244E-05-8.38817E-07 9.03202E-19 1.86697E-18
 -1      3395 1.13136E-04-1.27549E-05-4.33839E-05 6.51633E-07 4.04246E-19 1.43610E-18
 -1      3396 5.14556E-05-1.46082E-05-1.52854E-05-1.24142E-05-3.85268E-19 5.24631E-20
 -1      3397 5.85716E-05-1.81438E-05-1.73512E-05-1.73807E-05-3.18498E-19-1.76924E-19
 -1      3398 5.35376E-05-1.34398E-05-1.70102E-05-5.86080E-06 3.68023E-19 1.03010E-18
 -1      3399 1.07495E-04-4.93648E-05-2.47664E-05-2.43030E-05 6.49489E-19-1.53864E-18
 -1      3400 1.14893E-04-5.36930E-05-2.62182E-05-2.19344E-05 1.13031E-18-9.27564E-19
 -1      3401 1.18022E-04-5.24893E-05-2.79780E-05-1.46537E-05 1.70218E-18-1.31201E-18
 -1      3402 1.17327E-04-4.98454E-05-2.88433E-05 1.16146E-05 9.47089E-20-2.02107E-18
 -1      3403 1.19510E-04-3.28388E-05-3.72087E-05-1.29222E-05-4.34925E-19 9.46903E-19
 -1      3404 1.30845E-04-5.04626E-05-3.44838E-05-6.29436E-06 1.52048E-18-9.39465E-19
 -1      3405 1.27672E-04-5.17482E-05-3.27928E-05-1.10778E-06 9.45994E-19-2.05989E-18
 -1      3406 9.44119E-05-2.70827E-05-2.88599E-05 1.06302E-06 2.64104E-19-6.26279E-20
 -1      3407 9.45502E-05-2.72076E-05-2.88601E-05 1.15096E-06 7.62614E-19-3.29527E-19
 -1      3408 9.42012E-05-2.68524E-05-2.88594E-05 1.09980E-06 3.00370E-19 1.96628E-19
 -1      3409 5.38078E-05-1.62529E-05-1.60660E-05-1.66657E-05-7.34219E-19 6.12511E-20
 -1      3410 5.76016E-05-2.03119E-05-1.55025E-05-2.41567E-05 5.44589E-19 1.42413E-18
 -1      3411 6.73262E-05-2.45710E-05-1.80902E-05-2.55069E-05 4.97208E-19 6.83661E-19
 -1      3412 1.02183E-04-4.44803E-05-2.45174E-05-2.34933E-05-9.11037E-19-6.91272E-19
 -1      3413 9.27570E-05-1.88714E-05-3.16857E-05 3.00419E-06 1.62516E-19-1.09657E-18
 -1      3414 9.25068E-05-1.84380E-05-3.17560E-05 2.32903E-06-1.11211E-20-1.11177E-18
 -1      3415 9.32916E-05-1.97576E-05-3.14927E-05 1.71337E-06 3.93211E-21-1.02288E-18
 -1      3416 9.37545E-05-2.05962E-05-3.13262E-05 2.71890E-06 1.64634E-19-1.06441E-18
 -1      3417 9.48839E-05-2.75577E-05-2.88555E-05-1.33443E-06-2.23134E-18-5.51171E-19
 -1      3418 9.47664E-05-2.74495E-05-2.88524E-05-1.27001E-06-1.61976E-18-3.90538E-19
 -1      3419 9.46029E-05-2.72595E-05-2.88594E-05-1.38784E-06-1.68553E-18-1.07136E-18
 -1      3420 9.48459E-05-2.74692E-05-2.88728E-05-1.51151E-06-3.15635E-18-1.05122E-18
 -1      3421 1.25287E-04-5.25843E-05-3.08521E-05 5.19121E-06 5.71152E-19-2.40968E-18
 -1      3422 1.13224E-04-1.38467E-05-4.31324E-05-5.56894E-06 2.21287E-20 1.90421E-18
 -1      3423 9.59121E-05-2.65198E-05-2.97318E-05-2.39019E-08-2.98673E-19-4.21335E-19
 -1      3424 9.59434E-05-2.69532E-05-2.95734E-05 4.70880E-07-3.06931E-19-2.92157E-19
 -1      3425 9.59718E-05-2.72937E-05-2.94280E-05 8.36157E-07-2.22474E-19-2.75320E-19
 -1      3426 9.59411E-05-2.75348E-05-2.93198E-05 1.19619E-06-2.27807E-19-1.50249E-19
 -1      3427 9.60279E-05-2.68855E-05-2.96319E-05 5.42296E-07-2.76834E-19-2.04205E-19
 -1      3428 9.58794E-05-2.76992E-05-2.92170E-05 1.47226E-06-3.87401E-19-1.83927E-19
 -1      3429 9.58151E-05-2.78037E-05-2.91479E-05 1.74613E-06-3.22175E-19-1.35297E-20
 -1      3430 9.59948E-05-2.74496E-05-2.93769E-05 1.20215E-06-2.19762E-19-4.98503E-20
 -1      3431 9.56910E-05-2.78396E-05-2.90784E-05 1.96993E-06-2.46819E-19 1.52279E-19
 -1      3432 9.56076E-05-2.78456E-05-2.90391E-05 2.19986E-06-2.59598E-20 1.55991E-19
 -1      3433 9.58118E-05-2.76857E-05-2.91975E-05 1.71739E-06-2.35004E-19 2.23512E-20
 -1      3434 9.54385E-05-2.77883E-05-2.89943E-05 2.40500E-06 8.11257E-20 1.38332E-19
 -1      3435 9.53445E-05-2.77249E-05-2.89766E-05 2.62485E-06 4.27742E-20 3.46702E-19
 -1      3436 9.55222E-05-2.76793E-05-2.90758E-05 2.15788E-06 8.44429E-20 1.70703E-19
 -1      3437 9.51416E-05-2.76023E-05-2.89485E-05 2.83921E-06-8.51607E-20 3.27927E-19
 -1      3438 9.50432E-05-2.74945E-05-2.89451E-05 3.07474E-06-2.29340E-19 4.71891E-19
 -1      3439 9.51539E-05-2.74976E-05-2.89954E-05 2.58466E-06-1.18869E-20 1.54083E-19
 -1      3440 9.48154E-05-2.73318E-05-2.89261E-05 3.32058E-06-3.30186E-19 4.40642E-19
 -1      3441 9.47206E-05-2.72045E-05-2.89301E-05 3.59021E-06-4.03015E-19 6.93334E-19
 -1      3442 9.47264E-05-2.71974E-05-2.89403E-05 3.04791E-06-2.27913E-19 3.80608E-19
 -1      3443 9.44780E-05-2.70283E-05-2.89126E-05 3.88495E-06-4.52254E-19 7.60620E-19
 -1      3444 9.43995E-05-2.69108E-05-2.89172E-05 4.20026E-06-2.50961E-19 5.62154E-19
 -1      3445 9.42582E-05-2.68342E-05-2.88949E-05 3.58787E-06-4.02089E-19 4.13973E-20
 -1      3446 9.41579E-05-2.67542E-05-2.88933E-05 4.55722E-06-2.95549E-19 2.64588E-19
 -1      3447 9.41173E-05-2.66847E-05-2.88918E-05 4.92290E-06-3.33120E-19-9.41859E-21
 -1      3448 9.37740E-05-2.64708E-05-2.88432E-05 4.23681E-06-4.38871E-19 2.70178E-19
 -1      3449 9.39034E-05-2.65919E-05-2.88535E-05 5.35160E-06-5.35842E-19-1.48487E-19
 -1      3450 9.39367E-05-2.66226E-05-2.88392E-05 5.76476E-06-5.38551E-19-2.25446E-19
 -1      3451 9.33146E-05-2.61877E-05-2.87686E-05 5.02056E-06-4.08716E-19-3.22834E-19
 -1      3452 9.37947E-05-2.66541E-05-2.87788E-05 6.27093E-06-4.35014E-19-3.74134E-19
 -1      3453 9.39592E-05-2.68560E-05-2.87461E-05 6.71944E-06-4.84145E-19-1.32902E-19
 -1      3454 9.29483E-05-2.60931E-05-2.86546E-05 5.95973E-06-7.37993E-19-1.89519E-19
 -1      3455 9.39611E-05-2.70942E-05-2.86578E-05 7.30353E-06-4.13921E-19 1.24185E-19
 -1      3456 9.43436E-05-2.75618E-05-2.86048E-05 7.76167E-06-4.33956E-19-6.44694E-21
 -1      3457 9.27867E-05-2.63351E-05-2.84866E-05 7.07015E-06-2.62477E-19 2.11013E-19
 -1      3458 9.46022E-05-2.81158E-05-2.84879E-05 8.41214E-06-2.91557E-19 2.73020E-19
 -1      3459 9.53260E-05-2.89663E-05-2.84201E-05 8.83008E-06 4.95740E-20 3.38957E-19
 -1      3460 9.30080E-05-2.71143E-05-2.82566E-05 8.35769E-06-2.99375E-19 4.93217E-19
 -1      3461 9.60111E-05-2.99690E-05-2.82846E-05 9.50478E-06 2.53860E-19 1.36168E-19
 -1      3462 9.72334E-05-3.13283E-05-2.82226E-05 9.78794E-06 2.79702E-19 2.91587E-19
 -1      3463 9.38866E-05-2.86942E-05-2.79715E-05 9.79704E-06-6.44057E-20 5.23683E-19
 -1      3464 9.85825E-05-3.29161E-05-2.81010E-05 1.03701E-05 8.71989E-20 5.45631E-19
 -1      3465 1.00464E-04-3.48650E-05-2.80936E-05 1.03428E-05 8.90336E-20 9.08856E-19
 -1      3466 9.58245E-05-3.13890E-05-2.76702E-05 1.12727E-05 3.46410E-19 5.79237E-19
 -1      3467 1.02770E-04-3.71159E-05-2.80604E-05 1.05792E-05-1.52234E-19 1.86986E-19
 -1      3468 1.05386E-04-3.95806E-05-2.81995E-05 9.93754E-06-1.83666E-19 2.03641E-19
 -1      3469 9.93452E-05-3.54841E-05-2.74561E-05 1.24734E-05-2.36842E-19 8.89510E-19
 -1      3470 1.08948E-04-4.23765E-05-2.84097E-05 9.23945E-06-1.28235E-19 9.56634E-20
 -1      3471 1.12057E-04-4.47145E-05-2.88686E-05 7.47869E-06-3.29079E-19-9.88679E-20
 -1      3472 1.05106E-04-4.10833E-05-2.75510E-05 1.27173E-05-2.57601E-19-6.25282E-20
 -1      3473 1.19295E-04-5.15834E-05-2.91386E-05-1.00554E-05 1.67268E-18-7.69317E-19
 -1      3474 1.18582E-04-4.81131E-05-3.01165E-05-3.75775E-06 4.28584E-19 6.33819E-19
 -1      3475 1.16025E-04-4.66474E-05-2.95624E-05-5.07392E-06 2.10509E-19 6.81772E-19
 -1      3476 1.14699E-04-4.94945E-05-2.78406E-05-1.34512E-05 8.25939E-19-1.02029E-18
 -1      3477 1.18858E-04-2.25343E-05-4.14327E-05 1.10049E-05 1.02634E-18 2.39366E-19
 -1      3478 1.06097E-04-4.00876E-05-2.82685E-05-9.61989E-06 2.90089E-19 5.16560E-19
 -1      3479 1.03389E-04-3.76441E-05-2.80969E-05-1.04004E-05 1.20785E-19 2.88587E-19
 -1      3480 1.00923E-04-3.52774E-05-2.81132E-05-1.02382E-05-8.27379E-19 8.53715E-19
 -1      3481 9.89467E-05-3.32423E-05-2.81136E-05-1.03094E-05-1.66466E-18 3.41938E-19
 -1      3482 9.98787E-05-3.59608E-05-2.74673E-05-1.25024E-05 1.17910E-19-1.15340E-18
 -1      3483 9.74792E-05-3.15508E-05-2.82326E-05-9.72450E-06-1.46818E-18 8.67567E-19
 -1      3484 9.61779E-05-3.01072E-05-2.82944E-05-9.44252E-06-1.04388E-18 1.79449E-18
 -1      3485 9.60705E-05-3.16581E-05-2.76656E-05-1.13069E-05-1.13442E-18 2.35548E-20
 -1      3486 9.54073E-05-2.90189E-05-2.84323E-05-8.74563E-06-1.30290E-18 1.04851E-18
 -1      3487 9.46214E-05-2.80925E-05-2.85042E-05-8.30639E-06-1.36181E-18 1.06839E-18
 -1      3488 9.39394E-05-2.87615E-05-2.79671E-05-9.78908E-06-1.44984E-18 7.57878E-19
 -1      3489 9.42967E-05-2.74657E-05-2.86260E-05-7.61782E-06-1.32124E-18 8.64456E-19
 -1      3490 9.38667E-05-2.69353E-05-2.86843E-05-7.12352E-06-5.08064E-19 4.92741E-19
 -1      3491 9.29131E-05-2.70122E-05-2.82603E-05-8.28133E-06-1.37064E-18 1.05805E-18
 -1      3492 9.38106E-05-2.66364E-05-2.87769E-05-6.49207E-06 6.43658E-19-2.59456E-19
 -1      3493 9.36081E-05-2.63831E-05-2.88142E-05-5.99666E-06 1.14387E-18-6.37649E-19
 -1      3494 9.25748E-05-2.60927E-05-2.84997E-05-6.90452E-06-3.42040E-19 8.96205E-19
 -1      3495 9.37007E-05-2.63007E-05-2.88766E-05-5.43718E-06 1.47396E-18-7.52708E-19
 -1      3496 9.36340E-05-2.62282E-05-2.88936E-05-4.96945E-06 1.52639E-18-5.18613E-19
 -1      3497 9.26354E-05-2.57349E-05-2.86736E-05-5.69321E-06 1.53708E-18-4.75897E-19
 -1      3498 9.37981E-05-2.62780E-05-2.89302E-05-4.48348E-06 6.84325E-19-7.35519E-19
 -1      3499 9.38059E-05-2.63142E-05-2.89310E-05-4.05844E-06 1.49004E-19-4.78986E-19
 -1      3500 9.29047E-05-2.57328E-05-2.87870E-05-4.64607E-06 6.17850E-19-9.49252E-19
 -1      3501 9.39941E-05-2.64360E-05-2.89479E-05-3.64260E-06 1.40981E-19-1.06103E-18
 -1      3502 9.40377E-05-2.65304E-05-2.89376E-05-3.26728E-06-1.26138E-19-9.55439E-19
 -1      3503 9.32627E-05-2.59372E-05-2.88516E-05-3.75090E-06 9.41148E-20-2.46010E-18
 -1      3504 9.42221E-05-2.66829E-05-2.89409E-05-2.91664E-06-1.02006E-18-6.63948E-19
 -1      3505 9.42778E-05-2.68006E-05-2.89241E-05-2.59302E-06 3.61554E-20-1.61368E-18
 -1      3506 9.36375E-05-2.62442E-05-2.88801E-05-2.99382E-06-4.94689E-19 6.48029E-21
 -1      3507 9.44432E-05-2.69586E-05-2.89190E-05-2.30046E-06 1.11772E-18-2.33106E-18
 -1      3508 9.45027E-05-2.70776E-05-2.88999E-05-2.02895E-06 1.03703E-18-1.52424E-18
 -1      3509 9.39871E-05-2.65826E-05-2.88846E-05-2.36033E-06 3.36144E-19 1.88772E-18
 -1      3510 9.43023E-05-2.65774E-05-2.90190E-05-4.38753E-06 1.23980E-19-3.97227E-19
 -1      3511 9.44225E-05-2.67987E-05-2.89898E-05-4.02780E-06 8.21122E-20-3.83470E-19
 -1      3512 9.25709E-05-2.49669E-05-2.89636E-05-7.30997E-06-1.43861E-19 2.33743E-19
 -1      3513 9.27350E-05-2.51482E-05-2.89805E-05-6.70601E-06-8.15026E-20 2.26710E-20
 -1      3514 9.19110E-05-2.46691E-05-2.88042E-05-8.66399E-06 1.56597E-19-5.88766E-21
 -1      3515 9.20265E-05-2.47145E-05-2.88647E-05-7.96927E-06 2.02342E-19 2.07047E-19
 -1      3516 9.08789E-05-2.40108E-05-2.86455E-05-7.27882E-06-1.17017E-20-6.52031E-20
 -1      3517 9.13900E-05-2.48054E-05-2.85144E-05-1.02619E-05 1.12246E-19-1.97986E-21
 -1      3518 9.13534E-05-2.45791E-05-2.86354E-05-9.47125E-06 1.95334E-19-5.79026E-21
 -1      3519 8.97684E-05-2.35959E-05-2.83476E-05-8.68881E-06 1.87007E-19 3.45254E-19
 -1      3520 9.13032E-05-2.57469E-05-2.80588E-05-1.21647E-05-3.80183E-19-2.16662E-19
 -1      3521 9.09183E-05-2.50348E-05-2.82525E-05-1.12743E-05-2.02925E-19-2.32290E-19
 -1      3522 8.87041E-05-2.36406E-05-2.78768E-05-1.04614E-05 5.43089E-20 3.67496E-19
 -1      3523 9.21751E-05-2.80567E-05-2.74244E-05-1.44432E-05-2.01102E-19 2.54119E-19
 -1      3524 9.11197E-05-2.65411E-05-2.76847E-05-1.34688E-05-1.50890E-19 1.63312E-19
 -1      3525 8.79547E-05-2.45358E-05-2.71850E-05-1.27761E-05-4.63655E-19-4.41155E-19
 -1      3526 9.51814E-05-3.25964E-05-2.67307E-05-1.69313E-05-1.93319E-19 1.04618E-19
 -1      3527 9.26712E-05-2.97106E-05-2.69382E-05-1.61034E-05-1.28822E-19 1.25906E-19
 -1      3528 8.81264E-05-2.69584E-05-2.62420E-05-1.58857E-05 2.93748E-20-3.57557E-20
 -1      3529 9.76571E-05-3.85446E-05-2.53609E-05 2.08616E-05 3.90416E-19-1.25693E-18
 -1      3530 1.24465E-04-4.07409E-05-3.62153E-05-1.14171E-05 4.14464E-19 1.58448E-19
 -1      3531 1.21748E-04-3.25828E-05-3.83907E-05-1.24714E-05-1.55748E-19 5.93902E-19
 -1      3532 9.18381E-05-2.79818E-05-2.73630E-05 1.46721E-05-4.79445E-19 6.26970E-20
 -1      3533 9.35224E-05-3.01002E-05-2.70954E-05 1.56454E-05-3.57383E-20 2.26641E-19
 -1      3534 6.93495E-05-2.33516E-05-1.92439E-05-2.27460E-05-4.00157E-19-6.25957E-19
 -1      3535 8.19068E-05-3.08689E-05-2.18171E-05-2.43465E-05-2.78075E-19-9.59609E-19
 -1      3536 7.49131E-05-2.90507E-05-1.96057E-05 2.72399E-05 5.71655E-19-1.83753E-19
 -1      3537 6.46588E-05-2.16769E-05-1.82024E-05 2.24909E-05 2.58901E-19 4.90750E-20
 -1      3538 9.43785E-05-2.18612E-05-3.10455E-05-3.61195E-06-7.02781E-19-4.89936E-19
 -1      3539 1.18901E-04-5.18955E-05-2.88763E-05 1.14256E-05 1.53081E-19 8.82046E-19
 -1      3540 1.11900E-04-5.02283E-05-2.61235E-05 1.99749E-05 7.44429E-19 1.39724E-18
 -1      3541 9.35712E-05-3.19457E-05-2.63969E-05 1.76183E-05-3.84995E-19-7.77596E-19
 -1      3542 9.68293E-05-3.54004E-05-2.61876E-05 1.85449E-05-5.73488E-19-1.59214E-18
 -1      3543 8.88957E-05-3.33441E-05-2.38100E-05 2.29077E-05-4.42853E-19-6.04173E-19
 -1      3544 8.80596E-05-2.84575E-05-2.55375E-05 1.79386E-05-6.68484E-19 6.56252E-19
 -1      3545 9.10929E-05-2.46033E-05-2.85124E-05 1.01612E-05 9.36805E-19 1.04191E-18
 -1      3546 9.12976E-05-2.50751E-05-2.83520E-05 1.10335E-05-2.66109E-19 6.74665E-19
 -1      3547 9.16340E-05-2.44238E-05-2.88212E-05 8.43939E-06 2.80979E-19 1.17359E-18
 -1      3548 9.15956E-05-2.45231E-05-2.87285E-05 9.22115E-06 1.06548E-18 1.36144E-18
 -1      3549 8.91437E-05-2.33749E-05-2.81759E-05 9.35132E-06 6.63065E-19 8.79747E-19
 -1      3550 9.22963E-05-2.46768E-05-2.89950E-05 6.97088E-06 7.30138E-20 1.62295E-18
 -1      3551 9.21638E-05-2.45777E-05-2.89548E-05 7.66726E-06 1.38648E-19 1.42796E-18
 -1      3552 9.01969E-05-2.35278E-05-2.85598E-05 7.69401E-06 2.83247E-19 8.52375E-19
 -1      3553 9.29361E-05-2.51311E-05-2.90725E-05 5.70728E-06-1.92926E-18 2.16662E-19
 -1      3554 9.27842E-05-2.49401E-05-2.90685E-05 6.32149E-06-2.45466E-19 1.21056E-18
 -1      3555 9.12172E-05-2.40062E-05-2.87927E-05 6.32811E-06 4.86089E-19 7.08840E-19
 -1      3556 9.34922E-05-2.56499E-05-2.90864E-05 4.62171E-06-7.08264E-19-1.38512E-18
 -1      3557 9.33546E-05-2.54293E-05-2.91048E-05 5.15587E-06-1.59513E-18-8.02193E-19
 -1      3558 9.21188E-05-2.46193E-05-2.89181E-05 5.17457E-06-6.29036E-19-1.09006E-18
 -1      3559 9.39468E-05-2.61571E-05-2.90620E-05 3.69659E-06-8.63470E-19-2.38030E-18
 -1      3560 9.38352E-05-2.59411E-05-2.90923E-05 4.15392E-06-8.92835E-19-2.40423E-18
 -1      3561 9.28732E-05-2.52547E-05-2.89711E-05 4.19208E-06-2.41765E-19-1.41940E-18
 -1      3562 9.43028E-05-2.66131E-05-2.90173E-05 2.91796E-06-6.03515E-19-1.77519E-18
 -1      3563 9.42194E-05-2.64200E-05-2.90522E-05 3.30304E-06-7.54180E-19-2.51204E-18
 -1      3564 9.34822E-05-2.58511E-05-2.89785E-05 3.35692E-06-8.65316E-19-2.01515E-18
 -1      3565 9.45707E-05-2.70028E-05-2.89651E-05 2.27383E-06 1.07678E-18-1.30583E-18
 -1      3566 9.45142E-05-2.68402E-05-2.89996E-05 2.58913E-06 2.45488E-19-2.22701E-18
 -1      3567 9.39611E-05-2.63765E-05-2.89594E-05 2.65294E-06-5.14096E-20-3.09843E-18
 -1      3568 9.47709E-05-2.73143E-05-2.89132E-05 1.73549E-06 2.80249E-18-1.70528E-18
 -1      3569 9.47302E-05-2.71832E-05-2.89450E-05 1.99643E-06 1.79547E-18-8.94078E-19
 -1      3570 9.43156E-05-2.68061E-05-2.89269E-05 2.06827E-06 1.47739E-18-2.57936E-18
 -1      3571 9.36010E-05-2.63505E-05-2.88218E-05-5.02235E-07 4.09932E-19 1.88872E-18
 -1      3572 9.35398E-05-2.62992E-05-2.88209E-05-2.35977E-07 4.60322E-20 4.76523E-19
 -1      3573 9.21901E-05-1.79052E-05-3.18488E-05-9.67085E-07-2.30590E-19-1.00777E-18
 -1      3574 9.23072E-05-1.81033E-05-3.18167E-05-1.69551E-06-4.16574E-19-7.90967E-19
 -1      3575 9.32738E-05-1.97356E-05-3.14961E-05-1.67497E-06-3.80051E-19-7.92440E-19
 -1      3576 9.09704E-05-2.55930E-05-2.80310E-05 1.22170E-05-1.05795E-18 9.24886E-19
 -1      3577 9.16824E-05-2.67050E-05-2.77984E-05 1.31743E-05-8.95652E-19 2.57477E-19
 -1      3578 8.82512E-05-2.38610E-05-2.75917E-05 1.14459E-05-3.01466E-19 7.73556E-19
 -1      3579 5.75355E-05-1.65078E-05-1.74146E-05 1.60868E-05 1.99238E-19-1.50401E-19
 -1      3580 5.41922E-05-1.35350E-05-1.73110E-05 5.98639E-06 3.62702E-19 4.89744E-19
 -1      3581 6.58423E-05-1.98289E-05-1.94731E-05 1.74308E-05-4.01547E-20-2.09058E-19
 -1      3582 9.52849E-05-2.44166E-05-3.03680E-05 2.66246E-06 5.00299E-19-5.21354E-19
 -1      3583 9.49854E-05-2.35679E-05-3.06139E-05 2.88381E-06 3.47270E-19-7.49579E-19
 -1      3584 9.54240E-05-2.51123E-05-3.01393E-05 1.82288E-06 4.60952E-19-4.81480E-19
 -1      3585 9.32235E-05-2.54668E-05-2.90311E-05-6.16072E-06-1.92466E-20-1.16230E-19
 -1      3586 9.33871E-05-2.57024E-05-2.90203E-05-5.64387E-06-8.30132E-20 2.44690E-20
 -1      3587 9.19086E-05-2.46408E-05-2.88185E-05-6.12468E-06-1.32827E-19-8.10058E-21
 -1      3588 9.38066E-05-2.60304E-05-2.90404E-05-5.19280E-06-1.53791E-19-1.46313E-19
 -1      3589 9.39506E-05-2.62726E-05-2.90152E-05-4.75846E-06-4.85215E-20-3.54042E-19
 -1      3590 9.35716E-05-2.60155E-05-2.89466E-05-4.37252E-06 4.72687E-20-2.02122E-19
 -1      3591 9.28090E-05-2.53382E-05-2.89077E-05-5.16737E-06-4.75683E-19-2.43743E-19
 -1      3592 8.31452E-05-3.44609E-05-2.07242E-05-2.83736E-05 1.43072E-18-1.08902E-18
 -1      3593 9.64118E-05-4.32362E-05-2.27603E-05-2.83101E-05 8.05025E-19-2.40081E-18
 -1      3594 9.57248E-05-2.78334E-05-2.90962E-05-1.77327E-06 5.08529E-20-5.44558E-19
 -1      3595 9.57738E-05-2.77311E-05-2.91571E-05-1.48415E-06 1.95902E-20-5.92641E-19
 -1      3596 9.48708E-05-2.33324E-05-3.06650E-05-2.40450E-06-5.54763E-19-4.69034E-19
 -1      3597 1.12289E-04-4.47089E-05-2.89742E-05-7.07721E-06 9.91809E-19-3.01023E-19
 -1      3598 1.09180E-04-4.24473E-05-2.84824E-05-8.98697E-06 7.04235E-19 2.46788E-19
 -1      3599 1.05329E-04-4.09943E-05-2.76297E-05-1.22711E-05 8.58516E-19-1.24014E-18
 -1      3600 1.12212E-04-4.64022E-05-2.83308E-05-1.05655E-05 1.86195E-19-4.43945E-19
 -1      3601 9.58292E-05-3.67603E-05-2.51440E-05-2.10331E-05-6.66774E-19-7.50809E-19
 -1      3602 9.55550E-05-2.78698E-05-2.90059E-05-2.25337E-06 4.91521E-19-6.52072E-19
 -1      3603 9.56149E-05-2.78660E-05-2.90341E-05-2.01260E-06 1.06966E-19-5.76969E-19
 -1      3604 9.57639E-05-2.77162E-05-2.91646E-05-1.77441E-06 1.21644E-19-6.85882E-19
 -1      3605 9.47142E-05-2.70617E-05-2.89886E-05-3.72371E-06 2.61059E-19-1.91105E-19
 -1      3606 9.48130E-05-2.72454E-05-2.89636E-05-3.42638E-06 4.21854E-19-1.74702E-19
 -1      3607 9.42070E-05-2.66210E-05-2.89615E-05-3.71353E-06 3.63664E-19-5.54846E-19
 -1      3608 9.42544E-05-2.69272E-05-2.88521E-05-1.40009E-06-9.83538E-19 3.05653E-19
 -1      3609 9.40503E-05-2.67607E-05-2.88441E-05-1.24736E-06-7.36060E-19 3.59849E-20
 -1      3610 9.56287E-05-2.52797E-05-3.01541E-05-1.21352E-06-3.50588E-19-4.00148E-19
 -1      3611 9.57478E-05-2.59373E-05-2.99293E-05-5.23068E-07-2.69518E-19-4.86033E-19
 -1      3612 9.58397E-05-2.58737E-05-2.99814E-05-3.34948E-07-2.94164E-19-4.88520E-19
 -1      3613 5.23011E-05-1.27773E-05-1.68303E-05 3.46046E-06-2.48859E-18-1.56188E-18
 -1      3614 5.15476E-05-1.26136E-05-1.62592E-05-6.54197E-06-1.43851E-18-1.23323E-18
 -1      3615 9.47080E-05-2.73712E-05-2.88629E-05 1.21197E-06 8.80128E-19 3.31626E-19
 -1      3616 9.48612E-05-2.75185E-05-2.88607E-05 1.24205E-06 1.06692E-18 2.01255E-18
 -1      3617 9.48611E-05-2.74851E-05-2.88747E-05 1.37050E-06 1.31783E-18 4.86746E-19
 -1      3618 9.45106E-05-2.71477E-05-2.88697E-05 1.30685E-06 7.24957E-19 5.77086E-19
 -1      3619 9.38558E-05-2.65749E-05-2.88323E-05-1.01725E-06-5.13720E-19-5.51942E-19
 -1      3620 9.37143E-05-2.64616E-05-2.88274E-05-7.93035E-07-1.86535E-19 7.40221E-19
 -1      3621 9.34434E-05-2.61983E-05-2.88145E-05-7.29676E-07 7.41263E-20 6.12418E-19
 -1      3622 9.37739E-05-2.64918E-05-2.88340E-05-1.26726E-06-6.40465E-19-1.54847E-19
 -1      3623 9.58279E-05-2.75711E-05-2.92555E-05-1.18208E-06 6.31307E-20-5.68907E-19
 -1      3624 9.58577E-05-2.73367E-05-2.93589E-05-7.96170E-07 1.95115E-19-4.71306E-19
 -1      3625 9.59235E-05-2.74823E-05-2.93334E-05-1.21275E-06 6.65853E-20-7.24371E-19
 -1      3626 8.86957E-05-3.26074E-05-2.40339E-05-2.21606E-05-1.86314E-19-7.23221E-19
 -1      3627 1.21314E-04-2.52050E-05-4.16123E-05-1.35287E-05-6.38769E-19 1.66143E-18
 -1      3628 1.18391E-04-1.91030E-05-4.28582E-05-1.04586E-05-4.05411E-19 1.87372E-18
 -1      3629 9.44215E-05-2.21284E-05-3.10049E-05-2.42778E-06-5.45379E-19-6.22658E-19
 -1      3630 9.52524E-05-2.41219E-05-3.04670E-05-1.68680E-06-4.43332E-19-4.81354E-19
 -1      3631 9.52885E-05-2.41558E-05-3.04888E-05-1.31198E-06-3.21161E-19-5.43620E-19
 -1      3632 9.41751E-05-2.16021E-05-3.11114E-05-1.99654E-06-4.49876E-19-7.31699E-19
 -1      3633 9.47167E-05-2.28930E-05-3.07894E-05 2.65833E-06 2.36307E-19-9.22393E-19
 -1      3634 9.58330E-05-2.70055E-05-2.95035E-05-3.85986E-07 3.08466E-19-4.98403E-19
 -1      3635 9.58224E-05-2.65890E-05-2.96616E-05 1.51009E-07 3.54144E-19-4.26234E-19
 -1      3636 9.59494E-05-2.69222E-05-2.95843E-05-4.76664E-07 2.34530E-19-5.41647E-19
 -1      3637 9.37436E-05-2.07260E-05-3.13056E-05 7.50994E-07-1.69331E-19-1.18001E-18
 -1      3638 9.36900E-05-2.06203E-05-3.13256E-05 2.24309E-07-1.26134E-19-1.35866E-18
 -1      3639 5.81201E-05-1.57255E-05-1.79140E-05-1.16520E-05-7.90378E-19-1.44334E-18
 -1      3640 1.16607E-04-4.72460E-05-2.96094E-05 5.35678E-06 3.51717E-21-1.84805E-19
 -1      3641 1.19667E-04-4.81381E-05-3.06663E-05 1.93114E-06 8.98848E-20 1.76236E-19
 -1      3642 1.23217E-04-4.96988E-05-3.14589E-05 7.45444E-07-1.13582E-19 2.98500E-19
 -1      3643 1.25013E-04-4.75685E-05-3.32193E-05-3.03763E-06-1.08235E-19 6.59918E-19
 -1      3644 7.69971E-05-2.95574E-05-2.01082E-05-2.70324E-05 7.29891E-19-5.88701E-19
 -1      3645 8.60114E-05-3.35161E-05-2.23389E-05-2.45965E-05 5.96635E-19-1.60374E-18
 -1      3646 7.05058E-05-2.43829E-05-1.98144E-05-2.29353E-05-3.64489E-19-2.46884E-19
 -1      3647 9.46630E-05-2.72316E-05-2.88972E-05-1.86080E-06-1.72254E-19-2.57218E-18
 -1      3648 9.47264E-05-2.73417E-05-2.88808E-05-1.65821E-06-2.22262E-18-1.94415E-18
 -1      3649 9.45984E-05-2.72291E-05-2.88726E-05-1.60248E-06-1.81535E-18-1.82844E-18
 -1      3650 9.43166E-05-2.69203E-05-2.88809E-05-1.91511E-06 6.16720E-19-1.86872E-19
 -1      3651 7.66631E-05-2.78859E-05-2.06476E-05 2.36697E-05-7.00734E-19 9.37586E-19
 -1      3652 1.05127E-04-4.60167E-05-2.53121E-05 2.12472E-05 6.60792E-19 7.63891E-19
 -1      3653 9.53310E-05-2.77318E-05-2.89676E-05-2.69942E-06 7.44169E-19-4.53849E-19
 -1      3654 9.54008E-05-2.78045E-05-2.89713E-05-2.46803E-06 7.41770E-19-4.30098E-19
 -1      3655 9.55052E-05-2.77012E-05-2.90594E-05-2.24311E-06 3.78925E-19-6.59769E-19
 -1      3656 8.79526E-05-2.54988E-05-2.67642E-05 1.42348E-05-8.29602E-19 5.05434E-19
 -1      3657 5.96788E-05-1.43744E-05-1.92933E-05 5.39822E-06 2.58726E-19 7.17040E-19
 -1      3658 5.55344E-05-1.29899E-05-1.78802E-05 4.47498E-07 4.75071E-19 1.58001E-18
 -1      3659 5.82643E-05-1.42746E-05-1.89274E-05-5.28508E-06 3.55403E-19 1.09355E-18
 -1      3660 9.32947E-05-2.60603E-05-2.88095E-05-9.57099E-08 6.09012E-19 1.13162E-19
 -1      3661 9.35210E-05-2.62744E-05-2.88223E-05 8.41994E-08-5.76253E-20-6.26142E-19
 -1      3662 9.35511E-05-2.62951E-05-2.88259E-05 3.56938E-07-2.20742E-19-1.22969E-18
 -1      3663 9.48729E-05-2.74531E-05-2.88927E-05 1.51485E-06 2.00961E-18-5.43976E-19
 -1      3664 9.47316E-05-2.71212E-05-2.89737E-05-3.16333E-06 3.75465E-19-1.69146E-19
 -1      3665 9.50531E-05-2.74539E-05-2.89665E-05-3.17347E-06 3.90167E-19-3.08144E-19
 -1      3666 9.51352E-05-2.75881E-05-2.89526E-05-2.92080E-06 5.81523E-19-3.98125E-19
 -1      3667 9.45896E-05-2.71702E-05-2.88915E-05 1.58080E-06 1.27992E-18-9.80086E-19
 -1      3668 1.02819E-04-4.49842E-05-2.46687E-05-2.30485E-05 8.90602E-19-1.71986E-18
 -1      3669 9.38455E-05-2.09159E-05-3.12637E-05 1.14563E-06-4.98417E-20-9.89547E-19
 -1      3670 9.44568E-05-2.20115E-05-3.10291E-05 7.36445E-07 4.05127E-21-9.39529E-19
 -1      3671 9.40047E-05-2.12365E-05-3.12037E-05 1.64757E-06 1.38227E-19-8.17409E-19
 -1      3672 1.13077E-04-4.69035E-05-2.84084E-05 1.03849E-05-1.68573E-19-2.32451E-19
 -1      3673 9.30561E-05-1.93429E-05-3.15726E-05-5.55647E-07-2.24060E-19-1.08559E-18
 -1      3674 9.36320E-05-2.63601E-05-2.88346E-05 6.69883E-07 5.43907E-20-1.96321E-19
 -1      3675 9.37526E-05-2.64542E-05-2.88425E-05 9.16474E-07 3.35939E-19 2.83081E-19
 -1      3676 9.33582E-05-2.60982E-05-2.88205E-05 5.60329E-07 5.43436E-19-3.91059E-19
 -1      3677 9.39083E-05-2.65926E-05-2.88551E-05 1.13623E-06 5.81459E-19 5.53941E-20
 -1      3678 9.40774E-05-2.67215E-05-2.88630E-05 1.29082E-06 8.55601E-19 4.20674E-19
 -1      3679 9.36263E-05-2.63104E-05-2.88451E-05 1.11442E-06 3.73656E-19 7.52576E-20
 -1      3680 8.99686E-05-3.67012E-05-2.28753E-05 2.48705E-05 5.13027E-19 1.47697E-18
 -1      3681 8.25860E-05-3.28042E-05-2.10742E-05 2.69776E-05 4.90101E-19 9.25728E-19
 -1      3682 7.94532E-05-2.88280E-05-2.16269E-05 2.35275E-05 5.08696E-19 5.02132E-19
 -1      3683 5.66203E-05-1.41297E-05-1.78181E-05 8.88128E-06-2.39238E-18-4.01626E-19
 -1      3684 5.85681E-05-1.39001E-05-1.91031E-05 3.30352E-06-1.78316E-18-1.11771E-18
 -1      3685 6.24578E-05-1.71766E-05-1.93522E-05 1.34445E-05-2.03995E-18 1.44366E-19
 -1      3686 6.69449E-05-2.01124E-05-1.98824E-05-1.71333E-05-3.16049E-20-2.60860E-19
 -1      3687 9.44718E-05-2.71265E-05-2.88655E-05-1.52625E-06-1.20897E-18-7.85261E-19
 -1      3688 9.42264E-05-2.68792E-05-2.88629E-05-1.62860E-06-5.29168E-19-3.47873E-20
 -1      3689 9.60578E-05-2.65076E-05-2.98036E-05 2.55816E-07-1.82756E-19-3.08851E-19
 -1      3690 9.60871E-05-2.69114E-05-2.96518E-05 6.36956E-07-1.25791E-19-2.76019E-19
 -1      3691 6.05586E-05-1.48737E-05-1.96119E-05-7.49304E-06-1.50246E-18-1.14371E-18
 -1      3692 6.40124E-05-1.80050E-05-1.94571E-05-1.63735E-05-1.21250E-18-3.56866E-19
 -1      3693 9.60836E-05-2.72167E-05-2.95122E-05 9.02410E-07-8.85634E-20-2.13979E-19
 -1      3694 9.60236E-05-2.74239E-05-2.94024E-05 1.19383E-06-2.17742E-19 3.36544E-21
 -1      3695 9.61035E-05-2.68667E-05-2.96705E-05 6.42338E-07 2.77108E-20-2.79278E-19
 -1      3696 9.59107E-05-2.75460E-05-2.92986E-05 1.40451E-06-1.72220E-19 2.31197E-19
 -1      3697 9.57875E-05-2.76043E-05-2.92218E-05 1.64106E-06-3.31980E-20 2.71929E-19
 -1      3698 9.59875E-05-2.73316E-05-2.94223E-05 1.12353E-06-5.69041E-20 2.17850E-20
 -1      3699 9.55916E-05-2.75879E-05-2.91456E-05 1.82551E-06 1.99327E-20 3.22710E-19
 -1      3700 9.54225E-05-2.75353E-05-2.90934E-05 2.03909E-06-2.27144E-20 1.89388E-19
 -1      3701 9.56807E-05-2.74570E-05-2.92372E-05 1.52279E-06-2.58549E-20 2.46980E-19
 -1      3702 9.51607E-05-2.74155E-05-2.90366E-05 2.22305E-06-1.73815E-20 2.48057E-19
 -1      3703 9.49572E-05-2.72833E-05-2.90008E-05 2.44084E-06-1.12584E-19 2.73390E-19
 -1      3704 9.52262E-05-2.73246E-05-2.90988E-05 1.89199E-06-5.19582E-20 1.54453E-19
 -1      3705 9.46407E-05-2.70899E-05-2.89550E-05 2.64689E-06-3.58515E-19 2.66789E-19
 -1      3706 9.44120E-05-2.69063E-05-2.89276E-05 2.89099E-06-3.33045E-19 1.20520E-19
 -1      3707 9.46517E-05-2.70017E-05-2.89904E-05 2.27838E-06-3.10030E-19-1.92247E-21
 -1      3708 9.40493E-05-2.66673E-05-2.88842E-05 3.13916E-06-2.68700E-19-1.91341E-20
 -1      3709 9.38053E-05-2.64612E-05-2.88572E-05 3.42764E-06-4.21113E-19 1.66547E-19
 -1      3710 9.39767E-05-2.65478E-05-2.88949E-05 2.72362E-06-3.63419E-19 1.52977E-19
 -1      3711 9.34059E-05-2.62071E-05-2.88071E-05 3.73689E-06-4.54810E-19 9.60707E-20
 -1      3712 9.31623E-05-2.60134E-05-2.87721E-05 4.08471E-06-4.37229E-19 1.12751E-19
 -1      3713 9.32180E-05-2.60227E-05-2.87941E-05 3.26674E-06-4.13622E-19-1.65309E-19
 -1      3714 9.27405E-05-2.57820E-05-2.87054E-05 4.47446E-06-3.38509E-19 2.41622E-19
 -1      3715 9.25240E-05-2.56466E-05-2.86536E-05 4.89458E-06-3.45960E-19 1.46877E-20
 -1      3716 9.23981E-05-2.54950E-05-2.86684E-05 3.94717E-06-4.09748E-19 1.26632E-19
 -1      3717 9.21044E-05-2.54879E-05-2.85597E-05 5.38647E-06-5.43999E-19 2.80928E-20
 -1      3718 9.19591E-05-2.54726E-05-2.84827E-05 5.89084E-06-7.45405E-19 1.74078E-19
 -1      3719 9.15538E-05-2.50524E-05-2.84967E-05 4.80872E-06-3.89127E-19 1.68966E-19
 -1      3720 9.15830E-05-2.54540E-05-2.83511E-05 6.51196E-06-4.93128E-19 4.64249E-19
 -1      3721 9.15808E-05-2.56438E-05-2.82420E-05 7.11241E-06-7.19170E-20 5.01977E-19
 -1      3722 9.07474E-05-2.48103E-05-2.82568E-05 5.90497E-06-2.87529E-19 6.95770E-19
 -1      3723 9.13199E-05-2.58589E-05-2.80636E-05 7.89697E-06-1.56464E-19 2.27619E-19
 -1      3724 9.15741E-05-2.63708E-05-2.79199E-05 8.60114E-06-1.93212E-19 5.79799E-19
 -1      3725 9.00857E-05-2.49283E-05-2.79271E-05 7.30840E-06-2.89628E-19 9.22265E-19
 -1      3726 9.15467E-05-2.69468E-05-2.76906E-05 9.58627E-06-1.18480E-19 5.78742E-19
 -1      3727 9.22300E-05-2.79353E-05-2.75201E-05 1.03837E-05 7.66844E-20 3.93032E-19
 -1      3728 8.97480E-05-2.56290E-05-2.74914E-05 9.10913E-06 5.59969E-20 5.82054E-19
 -1      3729 9.26402E-05-2.90517E-05-2.72453E-05 1.15976E-05 6.44679E-19 2.37989E-19
 -1      3730 9.39991E-05-3.07136E-05-2.70762E-05 1.24187E-05 4.25883E-19 5.87697E-19
 -1      3731 9.00332E-05-2.72324E-05-2.69464E-05 1.14111E-05 2.26869E-19 1.72408E-19
 -1      3732 9.51713E-05-3.25610E-05-2.67914E-05 1.37861E-05-3.44732E-19 7.73889E-19
 -1      3733 9.74786E-05-3.50754E-05-2.66975E-05 1.44710E-05-4.74517E-19 5.13199E-19
 -1      3734 9.14637E-05-3.01701E-05-2.63194E-05 1.42721E-05 2.93552E-19-5.94983E-20
 -1      3735 1.07748E-04-4.69349E-05-2.61349E-05-1.92118E-05 2.71117E-19-1.20944E-18
 -1      3736 1.10131E-04-4.62750E-05-2.73428E-05-1.43543E-05 4.35163E-20-5.68197E-19
 -1      3737 1.06217E-04-4.33463E-05-2.68661E-05-1.54381E-05 6.61063E-19-8.56881E-19
 -1      3738 9.77986E-05-4.07119E-05-2.44168E-05-2.24824E-05 4.86515E-19-1.03460E-18
 -1      3739 8.77581E-05-2.25455E-05-2.79381E-05-8.13444E-06 1.24431E-19 1.51947E-19
 -1      3740 8.83321E-05-2.27306E-05-2.81406E-05-7.41114E-06 2.12348E-19 1.54845E-19
 -1      3741 9.37269E-05-2.62202E-05-2.89291E-05-3.51907E-06 3.30853E-19-6.55649E-19
 -1      3742 9.40207E-05-2.65129E-05-2.89392E-05-3.23122E-06 4.15383E-19-5.64675E-19
 -1      3743 9.43695E-05-2.18239E-05-3.10719E-05 1.10698E-08-1.19989E-19-1.23001E-18
 -1      3744 9.36868E-05-2.06162E-05-3.13260E-05-1.93606E-07-1.79965E-19-1.21884E-18
 -1      3745 9.37371E-05-2.07152E-05-3.13072E-05-7.18994E-07-2.41941E-19-8.90151E-19
 -1      3746 9.41975E-05-3.09776E-05-2.70513E-05-1.25829E-05-2.18604E-19-1.07289E-18
 -1      3747 9.27394E-05-2.91964E-05-2.72188E-05-1.17052E-05-5.80901E-19 7.83340E-22
 -1      3748 9.22387E-05-2.80023E-05-2.74958E-05-1.04670E-05-1.54181E-18 1.27626E-19
 -1      3749 9.14687E-05-2.69126E-05-2.76695E-05-9.63469E-06-1.78196E-18 5.19535E-20
 -1      3750 8.99899E-05-2.73066E-05-2.68998E-05-1.15891E-05-9.23189E-19-6.60427E-19
 -1      3751 9.14241E-05-2.62505E-05-2.79059E-05-8.59800E-06-1.07322E-18-2.00238E-20
 -1      3752 9.11031E-05-2.56602E-05-2.80549E-05-7.85167E-06-8.75599E-19-2.35765E-19
 -1      3753 8.95375E-05-2.54983E-05-2.74572E-05-9.19086E-06-1.35600E-18-1.99406E-19
 -1      3754 9.13053E-05-2.53748E-05-2.82388E-05-7.01533E-06-7.67427E-19 5.73139E-19
 -1      3755 9.12533E-05-2.51212E-05-2.83521E-05-6.36738E-06 2.57612E-19 9.98524E-19
 -1      3756 8.97501E-05-2.46390E-05-2.79066E-05-7.28446E-06-4.67641E-19-3.76258E-19
 -1      3757 9.15740E-05-2.50804E-05-2.84860E-05-5.69492E-06 1.08440E-18 8.70957E-19
 -1      3758 9.16699E-05-2.50429E-05-2.85643E-05-5.13995E-06 1.66871E-18 7.01070E-20
 -1      3759 9.03010E-05-2.43907E-05-2.82444E-05-5.77893E-06 8.47907E-19 5.67748E-19
 -1      3760 9.20322E-05-2.51506E-05-2.86560E-05-4.59740E-06 1.10111E-18-8.28431E-19
 -1      3761 9.21988E-05-2.52420E-05-2.87049E-05-4.12524E-06 2.87185E-19-1.02693E-18
 -1      3762 9.09970E-05-2.45224E-05-2.84842E-05-4.58448E-06 3.99143E-19-2.98908E-19
 -1      3763 9.25576E-05-2.54302E-05-2.87637E-05-3.68540E-06 2.85743E-19-2.83376E-19
 -1      3764 9.27476E-05-2.55899E-05-2.87900E-05-3.28595E-06 1.59642E-19-4.49324E-19
 -1      3765 9.17229E-05-2.48713E-05-2.86450E-05-3.62874E-06 6.31793E-19 6.85648E-19
 -1      3766 9.30788E-05-2.58132E-05-2.88244E-05-2.92897E-06 4.80587E-19 5.72297E-19
 -1      3767 9.32651E-05-2.60002E-05-2.88348E-05-2.59451E-06 5.32284E-19 1.88712E-18
 -1      3768 9.24132E-05-2.53271E-05-2.87457E-05-2.85817E-06 1.11711E-18 1.86795E-18
 -1      3769 9.35545E-05-2.62269E-05-2.88523E-05-2.30642E-06 2.37751E-19 2.20186E-18
 -1      3770 9.37246E-05-2.64116E-05-2.88529E-05-2.02825E-06 6.81620E-19 2.02906E-18
 -1      3771 9.30319E-05-2.58140E-05-2.88032E-05-2.23878E-06 9.34736E-19 1.73845E-18
 -1      3772 9.40592E-05-2.67149E-05-2.88637E-05-1.77535E-06 1.45451E-19 8.24240E-19
 -1      3773 8.93079E-05-2.31239E-05-2.83596E-05-6.80434E-06 6.46409E-20 8.85838E-20
 -1      3774 8.98618E-05-2.34433E-05-2.84848E-05-6.21936E-06-2.65934E-19-1.17654E-20
 -1      3775 8.74869E-05-2.21247E-05-2.79887E-05-6.26925E-06 3.19590E-20-1.35519E-19
 -1      3776 8.46338E-05-2.29826E-05-2.63802E-05-1.22972E-05-4.12028E-19-5.41294E-19
 -1      3777 8.48728E-05-2.24047E-05-2.68166E-05-1.10269E-05-3.72516E-19-2.84537E-19
 -1      3778 8.37200E-05-2.49069E-05-2.51227E-05-1.58219E-05 4.49252E-19-7.95642E-19
 -1      3779 8.32715E-05-2.34470E-05-2.56857E-05-1.40264E-05 5.48553E-20-7.40902E-19
 -1      3780 8.03508E-05-2.11718E-05-2.53304E-05-1.20420E-05-2.39055E-20-7.66060E-19
 -1      3781 8.89038E-05-2.27638E-05-2.83683E-05 6.53522E-06 8.88406E-19 6.43713E-19
 -1      3782 8.83616E-05-2.25341E-05-2.82055E-05 7.22562E-06 8.88200E-19 1.40881E-18
 -1      3783 9.79992E-05-3.56492E-05-2.66967E-05-1.46014E-05 5.62592E-19-1.68286E-18
 -1      3784 9.55265E-05-3.30047E-05-2.67666E-05-1.38943E-05 7.60584E-20-9.54618E-19
 -1      3785 9.16945E-05-3.05501E-05-2.62858E-05-1.45195E-05 1.40677E-19-1.38884E-18
 -1      3786 8.22978E-05-2.67872E-05-2.38101E-05-1.92022E-05 4.73088E-19-6.37134E-19
 -1      3787 9.02603E-05-2.34741E-05-2.86402E-05 5.37609E-06 5.85150E-19 1.80460E-19
 -1      3788 8.97651E-05-2.31552E-05-2.85444E-05 5.95567E-06 1.23847E-18 9.64774E-19
 -1      3789 8.81081E-05-2.22025E-05-2.82236E-05 5.51104E-06 1.16376E-18 1.19102E-18
 -1      3790 8.73454E-05-2.22369E-05-2.79334E-05 7.96008E-06 4.96423E-19 1.22300E-18
 -1      3791 8.68200E-05-2.22022E-05-2.76789E-05 8.81546E-06 7.15909E-19-6.45149E-20
 -1      3792 8.62441E-05-2.14247E-05-2.77534E-05 6.70578E-06 7.78119E-19 5.80157E-19
 -1      3793 9.13985E-05-2.42363E-05-2.87978E-05 4.40179E-06 2.96141E-19-5.25624E-19
 -1      3794 9.09755E-05-2.38924E-05-2.87484E-05 4.89774E-06 2.90513E-19 2.43061E-19
 -1      3795 8.96690E-05-2.30709E-05-2.85247E-05 4.54729E-06 6.28479E-19 1.18782E-18
 -1      3796 9.23278E-05-2.49716E-05-2.88782E-05 3.57220E-06 7.97812E-20-2.22886E-18
 -1      3797 9.19818E-05-2.46406E-05-2.88593E-05 3.99802E-06 1.19298E-19-1.49574E-18
 -1      3798 9.09530E-05-2.39374E-05-2.87073E-05 3.73782E-06 5.09581E-19 4.96632E-19
 -1      3799 9.30711E-05-2.56383E-05-2.89087E-05 2.86365E-06-1.60572E-19-2.88918E-18
 -1      3800 9.27953E-05-2.53379E-05-2.89087E-05 3.22846E-06-8.64757E-20-2.10880E-18
 -1      3801 9.19910E-05-2.47451E-05-2.88093E-05 3.04550E-06 5.80708E-19-1.88159E-18
 -1      3802 9.36419E-05-2.62078E-05-2.89079E-05 2.25869E-06-3.83659E-19-1.95318E-18
 -1      3803 9.34395E-05-2.59555E-05-2.89196E-05 2.57484E-06-9.10933E-19-2.46779E-18
 -1      3804 9.28150E-05-2.54641E-05-2.88584E-05 2.45333E-06-6.80598E-19-1.97666E-18
 -1      3805 9.59847E-05-2.74455E-05-2.93766E-05-1.22999E-06 6.93674E-21-7.97352E-19
 -1      3806 9.60372E-05-2.72351E-05-2.94832E-05-9.06687E-07 1.00618E-19-7.19189E-19
 -1      3807 9.38256E-05-2.08910E-05-3.12663E-05-1.11734E-06-2.75862E-19-7.65245E-19
 -1      3808 9.39740E-05-2.11985E-05-3.12073E-05-1.60223E-06-3.71896E-19-8.14331E-19
 -1      3809 9.44464E-05-2.19870E-05-3.10313E-05-7.22705E-07-2.47417E-19-8.35177E-19
 -1      3810 8.56531E-05-2.21075E-05-2.72733E-05 9.81154E-06 6.32736E-19 2.58116E-19
 -1      3811 8.52713E-05-2.24437E-05-2.68994E-05 1.09367E-05-4.15082E-19 5.09264E-19
 -1      3812 8.40625E-05-2.08807E-05-2.70461E-05 8.29096E-06 3.96189E-19-4.65645E-20
 -1      3813 7.15955E-05-2.23179E-05-2.10792E-05 1.88059E-05 9.09667E-20-6.94567E-20
 -1      3814 6.55273E-05-1.77093E-05-2.04119E-05 1.31287E-05-2.32616E-19-1.20279E-19
 -1      3815 9.52553E-05-2.40467E-05-3.05011E-05 1.87047E-06 2.23772E-19-8.68749E-19
 -1      3816 9.45780E-05-2.24857E-05-3.09120E-05 2.34893E-06 1.97633E-19-1.15411E-18
 -1      3817 9.55868E-05-2.55132E-05-3.00226E-05 1.34646E-06 3.30595E-19-4.31468E-19
 -1      3818 9.54591E-05-2.49035E-05-3.02420E-05 1.56057E-06 2.93889E-19-5.86550E-19
 -1      3819 9.54056E-05-2.45400E-05-3.03756E-05 1.35866E-06 2.60192E-19-9.34546E-19
 -1      3820 9.56779E-05-2.60459E-05-2.98497E-05 7.07606E-07 2.13570E-19-4.62095E-19
 -1      3821 9.06915E-05-2.38923E-05-2.86255E-05-5.73980E-06-1.76701E-19 1.59224E-19
 -1      3822 9.11858E-05-2.42629E-05-2.86968E-05-5.25357E-06-4.13254E-19-1.25847E-19
 -1      3823 8.92764E-05-2.30405E-05-2.83681E-05-5.28630E-06-1.46569E-19-2.95519E-20
 -1      3824 9.43911E-05-2.70019E-05-2.88852E-05 1.51945E-06 1.41168E-18 3.43596E-20
 -1      3825 8.39847E-05-2.27216E-05-2.63109E-05 1.23395E-05-6.59567E-19 5.60385E-19
 -1      3826 8.39952E-05-2.37212E-05-2.58027E-05 1.39400E-05-9.28705E-19 9.33688E-19
 -1      3827 8.16329E-05-2.08295E-05-2.60096E-05 1.05722E-05-1.53084E-19-1.20653E-20
 -1      3828 8.61309E-05-2.23802E-05-2.73008E-05-9.87913E-06-4.62518E-21 2.39535E-19
 -1      3829 8.66321E-05-2.22938E-05-2.76075E-05-8.94467E-06 4.73405E-19 2.67930E-19
 -1      3830 8.30044E-05-2.09459E-05-2.65626E-05-9.36116E-06 1.78242E-19 2.38298E-19
 -1      3831 1.21361E-04-5.19559E-05-2.97940E-05 7.88839E-06 2.34608E-19 3.67599E-19
 -1      3832 7.64753E-05-2.53457E-05-2.18881E-05 2.05704E-05-8.21787E-19 7.83505E-19
 -1      3833 9.41000E-05-2.67154E-05-2.88819E-05 1.58649E-06 1.11610E-18 2.07429E-19
 -1      3834 9.57726E-05-2.52999E-05-3.01877E-05-6.00806E-07-1.51052E-19-5.19544E-19
 -1      3835 9.59149E-05-2.59647E-05-2.99873E-05-9.01171E-08-2.19771E-19-4.18369E-19
 -1      3836 9.59624E-05-2.59612E-05-2.99976E-05 2.77396E-08-4.80330E-20-5.18841E-19
 -1      3837 9.43406E-05-2.19651E-05-3.10249E-05 1.96695E-06 1.83503E-19-1.03487E-18
 -1      3838 6.42316E-05-1.64436E-05-2.01373E-05-1.22012E-05 2.17649E-19 1.02690E-19
 -1      3839 7.22996E-05-2.14701E-05-2.17837E-05-1.68739E-05 1.67143E-19-7.09231E-19
 -1      3840 9.57754E-05-2.76318E-05-2.92050E-05-1.72400E-06 1.84847E-19-6.16083E-19
 -1      3841 9.58842E-05-2.75715E-05-2.92756E-05-1.46810E-06-4.02468E-20-7.35777E-19
 -1      3842 9.59779E-05-2.73469E-05-2.94124E-05-1.18672E-06-2.16117E-20-8.22521E-19
 -1      3843 7.74767E-05-2.32447E-05-2.32145E-05-1.72857E-05 5.37359E-19-1.18710E-18
 -1      3844 9.36704E-05-2.63758E-05-2.88371E-05-1.71494E-06-6.37893E-19 1.05276E-18
 -1      3845 9.60300E-05-2.69195E-05-2.96231E-05-5.98239E-07 8.40416E-20-6.53813E-19
 -1      3846 9.60071E-05-2.65152E-05-2.97751E-05-1.60589E-07 1.88276E-19-6.78665E-19
 -1      3847 9.60691E-05-2.68626E-05-2.96591E-05-6.32710E-07 2.27128E-19-7.95894E-19
 -1      3848 7.21799E-05-2.24431E-05-2.11760E-05-1.82716E-05-1.29792E-18-6.30920E-19
 -1      3849 9.57775E-05-2.59581E-05-2.99234E-05 5.05089E-07 3.47029E-19-5.27912E-19
 -1      3850 9.20060E-05-3.61869E-05-2.38753E-05-2.28674E-05 9.51579E-19-1.51854E-18
 -1      3851 9.72446E-05-3.82724E-05-2.52249E-05-1.95059E-05 8.32580E-19-1.37117E-18
 -1      3852 9.99281E-05-3.78623E-05-2.64974E-05 1.56779E-05-7.27112E-19 2.92189E-19
 -1      3853 1.03258E-04-4.13591E-05-2.65733E-05 1.59136E-05-3.02437E-19-2.21018E-19
 -1      3854 9.32438E-05-2.58499E-05-2.88926E-05-3.78873E-06 8.39190E-20-4.05254E-19
 -1      3855 9.31054E-05-2.57300E-05-2.88672E-05-3.28179E-06 1.06500E-19-4.35626E-19
 -1      3856 9.28894E-05-2.55084E-05-2.88753E-05-4.13063E-06-1.23218E-19-3.35115E-19
 -1      3857 9.75584E-05-3.66035E-05-2.61305E-05-1.64959E-05 8.54782E-19-1.18117E-18
 -1      3858 9.25170E-05-3.32373E-05-2.53435E-05-1.78947E-05 6.56532E-19-7.44226E-19
 -1      3859 9.39768E-05-2.64301E-05-2.89432E-05-2.80958E-06 5.57034E-19-1.59342E-20
 -1      3860 9.44198E-05-2.68179E-05-2.89700E-05-3.00470E-06 3.32701E-19-1.71593E-19
 -1      3861 9.46611E-05-2.70463E-05-2.89829E-05-2.75770E-06 3.36406E-19-1.05519E-19
 -1      3862 8.53953E-05-2.13628E-05-2.74134E-05-7.55593E-06 3.72847E-19 9.02777E-20
 -1      3863 9.34111E-05-2.61738E-05-2.88194E-05-1.47339E-06-1.00578E-18-2.80031E-19
 -1      3864 6.95682E-05-1.81598E-05-2.19265E-05 1.08635E-05-6.55018E-19-2.36316E-19
 -1      3865 6.39899E-05-1.58445E-05-2.05041E-05 9.27475E-06-2.64784E-19-5.90964E-19
 -1      3866 6.35601E-05-1.50308E-05-2.08789E-05 4.16647E-06-1.25381E-19 5.42789E-19
 -1      3867 9.47232E-05-2.25916E-05-3.08918E-05-1.40499E-06-4.41299E-19-7.09098E-19
 -1      3868 9.29852E-05-2.58119E-05-2.87899E-05-2.94112E-07 1.00171E-18 4.08239E-19
 -1      3869 9.29600E-05-2.57867E-05-2.87914E-05 4.60051E-08 1.05534E-18 1.47362E-19
 -1      3870 9.51611E-05-2.74904E-05-2.90010E-05-2.68756E-06 5.42357E-19-1.93563E-19
 -1      3871 1.03157E-04-4.07385E-05-2.66961E-05-1.57162E-05 6.67694E-19-1.16282E-18
 -1      3872 1.15182E-04-4.93701E-05-2.83101E-05 1.16348E-05 2.15596E-19 3.77962E-19
 -1      3873 6.45398E-05-1.57615E-05-2.07934E-05-6.76020E-06 5.74977E-19 8.25672E-19
 -1      3874 9.39337E-05-2.65112E-05-2.88954E-05 1.82733E-06 5.23316E-19-9.08976E-19
 -1      3875 9.34791E-05-2.61260E-05-2.88639E-05 1.74116E-06-6.45753E-19-9.50950E-19
 -1      3876 7.41310E-05-1.98249E-05-2.33267E-05-1.30256E-05 5.81286E-19-5.93737E-19
 -1      3877 7.68781E-05-2.52165E-05-2.19570E-05 2.00694E-05 2.17053E-19-7.53065E-21
 -1      3878 7.56016E-05-2.27675E-05-2.26497E-05 1.63789E-05-2.50371E-19 3.28642E-19
 -1      3879 8.26818E-05-2.87704E-05-2.31465E-05 2.03815E-05-4.60839E-20 7.09304E-19
 -1      3880 9.07875E-05-2.39927E-05-2.86119E-05-4.49334E-06-5.30897E-19-2.97514E-20
 -1      3881 9.18837E-05-2.47150E-05-2.87843E-05-4.86200E-06-6.07207E-19-1.63864E-19
 -1      3882 9.23070E-05-2.50866E-05-2.88210E-05-4.45433E-06-3.35551E-19-1.28647E-19
 -1      3883 9.54379E-05-2.75567E-05-2.90911E-05-2.14778E-06 2.69854E-19-2.02785E-19
 -1      3884 9.55919E-05-2.76140E-05-2.91343E-05-1.92276E-06 1.67847E-19-4.17821E-19
 -1      3885 9.56980E-05-2.74822E-05-2.92344E-05-1.63027E-06 3.82314E-20-2.46276E-19
 -1      3886 9.48431E-05-2.29084E-05-3.08137E-05 1.36477E-06 1.82449E-19-9.18471E-19
 -1      3887 9.29977E-05-2.58085E-05-2.87991E-05 4.44704E-07 8.06840E-19 6.64787E-21
 -1      3888 9.30862E-05-2.58741E-05-2.88095E-05 7.69881E-07 4.78170E-19 1.32170E-19
 -1      3889 9.26893E-05-2.55262E-05-2.87776E-05 2.60071E-07 1.05116E-18 4.06129E-19
 -1      3890 9.31362E-05-2.58885E-05-2.88227E-05 1.15309E-06 1.78340E-19 5.80806E-19
 -1      3891 9.33187E-05-2.60324E-05-2.88390E-05 1.37620E-06-2.64421E-19 5.52904E-19
 -1      3892 9.29932E-05-2.56878E-05-2.88417E-05 1.79787E-06-1.68433E-18-6.70011E-19
 -1      3893 9.27444E-05-2.55532E-05-2.87981E-05 1.05621E-06 1.72045E-19 1.48507E-19
 -1      3894 9.68289E-05-3.96348E-05-2.42849E-05 2.28762E-05 9.20487E-20 8.96950E-19
 -1      3895 9.20854E-05-3.54321E-05-2.42505E-05 2.13468E-05-3.72986E-19 4.35517E-19
 -1      3896 8.09789E-05-2.52369E-05-2.38126E-05 1.77666E-05-9.55256E-19 1.30890E-18
 -1      3897 6.97189E-05-2.03072E-05-2.09950E-05 1.72492E-05-1.49136E-18 1.76822E-18
 -1      3898 9.49034E-05-3.50135E-05-2.57813E-05 1.72396E-05-9.07475E-19-8.33202E-20
 -1      3899 7.75965E-05-2.08436E-05-2.42122E-05 1.34620E-05-7.84374E-19 1.97038E-18
 -1      3900 8.11722E-05-2.38439E-05-2.46290E-05 1.57220E-05-1.31161E-18 1.49729E-18
 -1      3901 6.77473E-05-1.77628E-05-2.14645E-05 1.20910E-05-1.48368E-18 9.24934E-19
 -1      3902 9.49327E-05-2.31374E-05-3.07840E-05 7.02263E-07 1.74262E-19-7.63962E-19
 -1      3903 9.48631E-05-2.29491E-05-3.08275E-05 3.98342E-07 4.77197E-20-1.04510E-18
 -1      3904 9.53571E-05-2.42719E-05-3.04758E-05-9.80130E-07-3.55890E-19-5.51154E-19
 -1      3905 9.48278E-05-2.28702E-05-3.08487E-05 1.72655E-07-7.35962E-20-1.21033E-18
 -1      3906 9.48250E-05-2.28668E-05-3.08491E-05-1.55045E-07-2.00953E-19-1.08824E-18
 -1      3907 9.53111E-05-2.38316E-05-3.06167E-05 1.88475E-07 6.15655E-21-9.16568E-19
 -1      3908 6.28390E-05-1.46931E-05-2.06473E-05 2.35218E-06-1.46839E-18-1.45019E-18
 -1      3909 6.10065E-05-1.38152E-05-1.99082E-05-2.78182E-06-1.42687E-18-2.28950E-18
 -1      3910 6.52038E-05-1.58164E-05-2.11870E-05-7.30066E-06-1.59802E-18-1.13382E-18
 -1      3911 8.56429E-05-3.14519E-05-2.32414E-05-2.18999E-05 5.58403E-19-1.01066E-18
 -1      3912 1.05079E-04-4.36546E-05-2.63837E-05 1.71785E-05 1.23620E-19 2.11573E-19
 -1      3913 1.11113E-04-4.62589E-05-2.75994E-05 1.34043E-05 1.84756E-19 4.55379E-20
 -1      3914 9.32182E-05-2.60142E-05-2.88012E-05-9.86301E-07-9.52840E-19-1.67506E-19
 -1      3915 9.30796E-05-2.59053E-05-2.87946E-05-6.82903E-07 6.19037E-20 5.04874E-19
 -1      3916 9.27508E-05-2.55983E-05-2.87743E-05-5.57388E-07 4.42589E-19-5.72636E-19
 -1      3917 9.60565E-05-2.71678E-05-2.95246E-05 8.14291E-07 1.56077E-19-7.04627E-19
 -1      3918 9.59459E-05-2.73131E-05-2.94159E-05 1.03081E-06 6.62327E-20-6.00643E-19
 -1      3919 9.57672E-05-2.73720E-05-2.93137E-05 1.16968E-06 5.98258E-22-3.98595E-19
 -1      3920 9.55714E-05-2.73646E-05-2.92322E-05 1.35612E-06 5.00331E-21-2.97333E-19
 -1      3921 9.58424E-05-2.72189E-05-2.94070E-05 8.69686E-07 2.27561E-19-9.95939E-19
 -1      3922 9.52965E-05-2.72808E-05-2.91523E-05 1.49055E-06 7.56704E-20-3.88434E-19
 -1      3923 9.50343E-05-2.71568E-05-2.90899E-05 1.67201E-06 3.36301E-20-1.97946E-19
 -1      3924 9.53904E-05-2.71988E-05-2.92217E-05 1.13784E-06 7.77102E-20-5.47580E-19
 -1      3925 9.46773E-05-2.69651E-05-2.90238E-05 1.81982E-06-1.76107E-19-1.53937E-19
 -1      3926 9.43600E-05-2.67557E-05-2.89720E-05 2.01781E-06-2.89801E-19-3.58765E-20
 -1      3927 9.47627E-05-2.69181E-05-2.90723E-05 1.41090E-06-8.59684E-20-3.38983E-19
 -1      3928 9.39299E-05-2.64860E-05-2.89106E-05 2.19691E-06-3.86510E-19 3.95624E-20
 -1      3929 9.35659E-05-2.62200E-05-2.88604E-05 2.43042E-06-4.02032E-19 2.39296E-20
 -1      3930 9.39807E-05-2.64401E-05-2.89410E-05 1.72376E-06-3.98246E-19-2.87805E-19
 -1      3931 9.30670E-05-2.58999E-05-2.87939E-05 2.65988E-06-4.90958E-19 9.21805E-20
 -1      3932 9.26658E-05-2.56079E-05-2.87359E-05 2.94797E-06-4.33040E-19 1.36146E-19
 -1      3933 9.30575E-05-2.58236E-05-2.88088E-05 2.10919E-06-2.86223E-19-2.06243E-19
 -1      3934 9.21030E-05-2.52690E-05-2.86531E-05 3.24800E-06-4.58607E-19-1.33474E-19
 -1      3935 9.16781E-05-2.49877E-05-2.85767E-05 3.61080E-06-5.42577E-19-1.12346E-19
 -1      3936 9.20031E-05-2.51259E-05-2.86543E-05 2.60785E-06-5.30162E-19 1.57446E-20
 -1      3937 9.10559E-05-2.46663E-05-2.84652E-05 4.00713E-06-4.04891E-19-1.41195E-19
 -1      3938 9.06311E-05-2.44431E-05-2.83590E-05 4.46954E-06-1.19637E-19 1.72815E-19
 -1      3939 9.08250E-05-2.44114E-05-2.84535E-05 3.26467E-06-5.29565E-19-2.15048E-19
 -1      3940 8.99606E-05-2.41876E-05-2.82045E-05 4.99778E-06 7.38424E-21 3.23781E-19
 -1      3941 8.95768E-05-2.40842E-05-2.80567E-05 5.59168E-06-2.22392E-20 5.01613E-19
 -1      3942 8.95344E-05-2.37588E-05-2.81785E-05 4.14372E-06 1.65395E-19 1.66036E-19
 -1      3943 8.88773E-05-2.39568E-05-2.78432E-05 6.30508E-06-7.56633E-20 7.23039E-19
 -1      3944 8.86055E-05-2.40619E-05-2.76426E-05 7.07587E-06-1.16764E-19 8.14664E-19
 -1      3945 8.81612E-05-2.32744E-05-2.77978E-05 5.32826E-06 1.53109E-19 4.73168E-19
 -1      3946 8.79206E-05-2.41544E-05-2.73527E-05 8.04850E-06-3.34195E-19 1.10479E-18
 -1      3947 8.78781E-05-2.45960E-05-2.70921E-05 9.05320E-06-9.26302E-20 8.66774E-19
 -1      3948 8.67631E-05-2.30956E-05-2.72753E-05 6.96281E-06-2.26517E-19 9.10959E-19
 -1      3949 8.72771E-05-2.50124E-05-2.67098E-05 1.03784E-05-1.88237E-19 5.65355E-19
 -1      3950 8.76518E-05-2.59840E-05-2.63874E-05 1.17142E-05 1.16755E-19 1.37735E-19
 -1      3951 8.54470E-05-2.34264E-05-2.65724E-05 9.22985E-06-2.52843E-19 4.75123E-19
 -1      3952 8.75976E-05-2.44377E-05-2.70375E-05-9.20632E-06-1.22529E-18-8.13131E-19
 -1      3953 8.75729E-05-2.39123E-05-2.73071E-05-8.14806E-06-1.13618E-18-4.92257E-19
 -1      3954 8.82122E-05-2.37482E-05-2.76071E-05-7.11672E-06-6.53433E-19-2.43499E-19
 -1      3955 8.84258E-05-2.35744E-05-2.78137E-05-6.29535E-06-2.99503E-19 3.27133E-20
 -1      3956 8.63002E-05-2.27506E-05-2.72213E-05-7.07524E-06-8.31224E-19-3.26687E-19
 -1      3957 8.90763E-05-2.36405E-05-2.80321E-05-5.53465E-06 8.04693E-19 1.02500E-20
 -1      3958 8.94047E-05-2.36854E-05-2.81821E-05-4.89308E-06 1.02862E-18 1.67840E-19
 -1      3959 8.76099E-05-2.28054E-05-2.77596E-05-5.33803E-06 2.74370E-20 8.23667E-20
 -1      3960 9.00201E-05-2.38869E-05-2.83360E-05-4.32134E-06 1.58557E-19 1.53663E-19
 -1      3961 9.03873E-05-2.40605E-05-2.84394E-05-3.81424E-06 2.80538E-19-2.83070E-19
 -1      3962 8.88789E-05-2.31791E-05-2.81446E-05-4.06462E-06 5.12907E-19-8.52686E-19
 -1      3963 9.09466E-05-2.43344E-05-2.85440E-05-3.37840E-06 1.06681E-18 4.83814E-20
 -1      3964 9.13085E-05-2.45739E-05-2.86116E-05-2.97337E-06 1.11633E-18 6.83902E-19
 -1      3965 9.00511E-05-2.37319E-05-2.84117E-05-3.11107E-06 8.71459E-19 1.05559E-18
 -1      3966 9.17994E-05-2.48737E-05-2.86795E-05-2.63656E-06 1.10042E-18 7.35606E-19
 -1      3967 9.21357E-05-2.51407E-05-2.87202E-05-2.30784E-06 1.67393E-18 1.34015E-18
 -1      3968 9.10967E-05-2.43655E-05-2.85905E-05-2.38977E-06 9.70492E-19 4.96692E-19
 -1      3969 9.25540E-05-2.54388E-05-2.87618E-05-2.05102E-06 1.04541E-18 6.05108E-19
 -1      3970 9.28404E-05-2.56906E-05-2.87835E-05-1.78801E-06-1.64888E-19-6.29370E-20
 -1      3971 9.20024E-05-2.50173E-05-2.87049E-05-1.83710E-06 1.19168E-18 4.42979E-19
 -1      3972 8.58881E-05-2.13202E-05-2.76770E-05-5.28756E-06 7.23866E-20-1.05996E-19
 -1      3973 8.68785E-05-2.17926E-05-2.79185E-05-4.81361E-06-4.93748E-20-3.25490E-20
 -1      3974 8.68674E-05-2.98655E-05-2.44531E-05-1.82974E-05 4.66275E-19-1.83463E-18
 -1      3975 8.82088E-05-2.94842E-05-2.51523E-05-1.64971E-05-5.80350E-20-1.39488E-18
 -1      3976 8.92418E-05-2.28750E-05-2.84590E-05 3.53153E-06-3.56238E-19 1.49371E-18
 -1      3977 8.85211E-05-2.24167E-05-2.83359E-05 3.91686E-06 3.50240E-19 1.36680E-18
 -1      3978 7.65266E-05-1.93940E-05-2.44382E-05-1.02718E-05 3.43115E-19-3.81521E-19
 -1      3979 7.79190E-05-1.92904E-05-2.51942E-05-8.84853E-06 9.53144E-20-1.52056E-19
 -1      3980 8.70677E-05-2.74261E-05-2.55581E-05-1.45843E-05-5.76838E-19-1.62109E-18
 -1      3981 9.52383E-05-2.38970E-05-3.05778E-05-7.48981E-07-3.20989E-19-6.57605E-19
 -1      3982 9.49859E-05-2.72725E-05-2.90183E-05-2.55891E-06 3.56583E-19-4.03057E-20
 -1      3983 9.51826E-05-2.74243E-05-2.90423E-05-2.33471E-06 5.21174E-19-9.70259E-20
 -1      3984 9.52651E-05-2.73419E-05-2.91083E-05-2.01798E-06 2.55560E-19-3.71392E-20
 -1      3985 9.48620E-05-2.29490E-05-3.08282E-05-3.79351E-07-2.75191E-19-9.48909E-19
 -1      3986 9.49432E-05-2.31467E-05-3.07857E-05-7.06232E-07-3.37510E-19-6.64343E-19
 -1      3987 9.53142E-05-2.38368E-05-3.06167E-05-1.71165E-07-1.89271E-19-9.08153E-19
 -1      3988 9.06322E-05-2.38094E-05-2.86510E-05 2.92769E-06 1.09201E-18 4.28695E-19
 -1      3989 9.00456E-05-2.33733E-05-2.85780E-05 3.26078E-06 4.69308E-19 1.01025E-18
 -1      3990 8.90744E-05-2.27368E-05-2.84112E-05 2.66892E-06 5.32742E-19 9.55491E-19
 -1      3991 8.54181E-05-2.09219E-05-2.76716E-05 5.07917E-06 1.37124E-18-3.10638E-19
 -1      3992 8.43820E-05-2.05242E-05-2.73740E-05 5.66060E-06 1.01107E-18 6.77663E-20
 -1      3993 9.17470E-05-2.46563E-05-2.87632E-05 2.40136E-06 1.28551E-18-3.58352E-19
 -1      3994 9.12795E-05-2.42619E-05-2.87238E-05 2.69351E-06 1.16018E-18 1.63314E-19
 -1      3995 9.05075E-05-2.37164E-05-2.86101E-05 2.24552E-06 1.23404E-18 5.65009E-19
 -1      3996 9.25945E-05-2.53681E-05-2.88203E-05 1.97284E-06-1.00551E-18-2.01677E-19
 -1      3997 9.22246E-05-2.50206E-05-2.88021E-05 2.22083E-06 5.34172E-19-4.10986E-20
 -1      3998 9.16102E-05-2.45546E-05-2.87269E-05 1.88932E-06 6.87772E-19 7.28016E-19
 -1      3999 9.24381E-05-2.52406E-05-2.87906E-05 1.58021E-06-6.33474E-19 7.82185E-19
 -1      4000 7.17209E-05-2.03847E-05-2.20843E-05-1.45723E-05-1.36486E-18-9.41920E-19
 -1      4001 7.84570E-05-2.59239E-05-2.24272E-05-2.02653E-05-6.81756E-19-1.30087E-18
 -1      4002 8.33131E-05-2.03828E-05-2.69733E-05-6.33807E-06 2.91063E-19 6.18038E-19
 -1      4003 8.44679E-05-2.07715E-05-2.73337E-05-5.69963E-06 3.68111E-19 4.00939E-19
 -1      4004 8.41644E-05-2.04088E-05-2.72858E-05-4.13032E-06 1.95409E-20 9.38106E-20
 -1      4005 8.28300E-05-2.00392E-05-2.69546E-05 6.17779E-06 9.17464E-19 5.28475E-19
 -1      4006 8.16137E-05-1.97569E-05-2.65141E-05 6.98129E-06 1.37629E-19 8.32304E-19
 -1      4007 8.23691E-05-1.94948E-05-2.69001E-05 4.41696E-06 1.03564E-18 2.59470E-19
 -1      4008 9.57081E-05-2.53553E-05-3.01447E-05 7.99716E-07 3.12671E-19-8.84492E-19
 -1      4009 9.54583E-05-2.45428E-05-3.03889E-05 1.04306E-06 2.06475E-19-1.15720E-18
 -1      4010 9.58558E-05-2.59900E-05-2.99510E-05 2.26385E-07 2.66091E-19-8.65748E-19
 -1      4011 7.96135E-05-1.93516E-05-2.58932E-05 7.76570E-06-1.26947E-19 1.99162E-19
 -1      4012 7.82343E-05-1.93493E-05-2.52505E-05 9.01434E-06-3.79778E-19 7.58274E-19
 -1      4013 7.88948E-05-1.84339E-05-2.58398E-05 5.44889E-06-8.96498E-20 3.17215E-19
 -1      4014 8.75261E-05-2.18940E-05-2.81496E-05 4.23183E-06 8.20845E-19 9.29590E-19
 -1      4015 8.66548E-05-2.14429E-05-2.79541E-05 4.69097E-06 1.13058E-18 3.06767E-20
 -1      4016 8.73029E-05-2.16843E-05-2.80969E-05 3.14649E-06-6.23144E-20 5.36558E-19
 -1      4017 6.48548E-05-1.46526E-05-2.13289E-05-1.76419E-06 1.31960E-19 8.39257E-19
 -1      4018 6.89153E-05-1.67922E-05-2.23539E-05-7.92066E-06 4.16985E-19 1.25076E-19
 -1      4019 8.02248E-05-1.96880E-05-2.59399E-05-7.87388E-06 1.33631E-19 1.51525E-19
 -1      4020 8.15304E-05-1.98952E-05-2.64672E-05-6.94135E-06 3.89149E-19 5.51165E-19
 -1      4021 8.10184E-05-1.92447E-05-2.64202E-05-4.91637E-06 2.18418E-19 2.77081E-19
 -1      4022 9.58841E-05-2.55261E-05-3.01600E-05-1.73965E-07-1.36604E-19-6.80763E-19
 -1      4023 9.60305E-05-2.61069E-05-2.99713E-05 1.83007E-07 3.69038E-20-6.83863E-19
 -1      4024 9.22629E-05-2.51997E-05-2.87442E-05 5.03782E-08 7.08249E-19 1.36127E-18
 -1      4025 9.23116E-05-2.52129E-05-2.87530E-05 4.81144E-07-1.18238E-19-4.22239E-20
 -1      4026 8.99309E-05-3.22955E-05-2.45864E-05 1.91923E-05-5.04828E-19 1.48459E-19
 -1      4027 7.52824E-05-1.88485E-05-2.42694E-05 9.78212E-06-7.53853E-19 6.82924E-19
 -1      4028 7.20266E-05-1.83731E-05-2.30169E-05 1.09269E-05-7.14574E-19 1.19840E-18
 -1      4029 6.67036E-05-1.56670E-05-2.16376E-05 7.60890E-06-9.27053E-19-1.28598E-18
 -1      4030 7.40143E-05-1.72190E-05-2.42079E-05 6.53896E-06-1.57776E-20 1.70685E-19
 -1      4031 9.53561E-05-2.41663E-05-3.05200E-05 1.02324E-06 1.93372E-19-9.28016E-19
 -1      4032 9.50735E-05-2.34489E-05-3.06949E-05 8.30753E-07 1.91741E-19-6.92989E-19
 -1      4033 9.54662E-05-2.42462E-05-3.05042E-05 4.63801E-07 1.99100E-19-8.09713E-19
 -1      4034 9.56775E-05-2.49850E-05-3.02889E-05 5.23794E-07 1.51027E-19-8.35995E-19
 -1      4035 8.75881E-05-2.60485E-05-2.63308E-05-1.19288E-05-7.09903E-19-1.47240E-18
 -1      4036 8.70628E-05-2.49495E-05-2.66415E-05-1.05969E-05-8.39583E-19-1.22538E-18
 -1      4037 8.51111E-05-2.32462E-05-2.64925E-05-9.49040E-06-6.44034E-19-1.79112E-18
 -1      4038 7.22090E-05-1.79084E-05-2.32207E-05-9.60333E-06 3.33486E-19 7.77980E-20
 -1      4039 8.80331E-05-2.23604E-05-2.81502E-05-4.50251E-06-7.57478E-20-5.99044E-20
 -1      4040 8.88698E-05-2.28581E-05-2.83086E-05-4.12475E-06-2.78970E-19-1.06124E-19
 -1      4041 8.66976E-05-2.15962E-05-2.78733E-05-3.57265E-06-1.78469E-19 4.10844E-20
 -1      4042 9.59630E-05-2.73204E-05-2.94193E-05-1.12592E-06 1.10163E-20-4.88583E-19
 -1      4043 9.60556E-05-2.71612E-05-2.95264E-05-8.75311E-07 1.38301E-20-4.21750E-19
 -1      4044 9.61158E-05-2.65816E-05-2.98012E-05 3.82496E-07 2.69683E-20-7.90684E-19
 -1      4045 9.61193E-05-2.69255E-05-2.96572E-05 6.54893E-07 3.82340E-20-7.60844E-19
 -1      4046 9.60834E-05-2.69081E-05-2.96445E-05 5.71674E-07 1.22171E-19-1.23150E-18
 -1      4047 9.60536E-05-2.61685E-05-2.99493E-05 2.10282E-07 2.29792E-20-1.01213E-18
 -1      4048 9.55976E-05-2.46435E-05-3.03966E-05-3.75001E-07-3.04989E-19-5.88720E-19
 -1      4049 8.68187E-05-2.90536E-05-2.47694E-05 1.71005E-05-3.05388E-19-4.82705E-19
 -1      4050 9.20528E-05-2.49064E-05-2.87662E-05-3.83518E-06-2.90119E-19-2.34082E-20
 -1      4051 9.55948E-05-2.46431E-05-3.04165E-05 1.80357E-07 7.79049E-22-7.52783E-19
 -1      4052 9.55714E-05-2.45717E-05-3.04371E-05 3.91519E-08-1.54713E-19-8.65109E-19
 -1      4053 7.15892E-05-1.67055E-05-2.35893E-05-5.05232E-06 2.25907E-19 1.33603E-19
 -1      4054 8.73022E-05-2.69510E-05-2.58927E-05 1.34373E-05 3.45195E-19 7.95119E-20
 -1      4055 8.83908E-05-2.87711E-05-2.55366E-05 1.51908E-05-5.69861E-20-2.38033E-19
 -1      4056 9.25465E-05-2.53286E-05-2.88089E-05-2.87989E-06 1.89031E-21 1.06273E-20
 -1      4057 9.30305E-05-2.57201E-05-2.88550E-05-2.64695E-06 3.03532E-19 1.51711E-19
 -1      4058 9.26236E-05-2.55160E-05-2.87626E-05-1.26617E-06-4.61043E-19-1.87039E-18
 -1      4059 9.30536E-05-2.58537E-05-2.87972E-05-1.46341E-06-1.05893E-18-3.53794E-19
 -1      4060 9.46913E-05-2.69768E-05-2.90171E-05-2.39950E-06 4.28089E-19 1.71597E-19
 -1      4061 9.35733E-05-2.61117E-05-2.89125E-05-2.48469E-06 4.99594E-19 2.38622E-19
 -1      4062 9.39703E-05-2.64328E-05-2.89516E-05-2.28216E-06 6.25570E-19 2.14251E-19
 -1      4063 9.30862E-05-2.57199E-05-2.88616E-05-2.09324E-06 3.42954E-19 2.78707E-19
 -1      4064 9.61057E-05-2.69035E-05-2.96605E-05-6.77720E-07 9.94558E-20-4.66700E-19
 -1      4065 9.60966E-05-2.65538E-05-2.98070E-05-3.55229E-07 2.46589E-19-4.72324E-19
 -1      4066 9.60855E-05-2.68764E-05-2.96609E-05-6.25252E-07 1.08733E-19-8.21222E-20
 -1      4067 8.51061E-05-2.05887E-05-2.76166E-05 3.70380E-06 1.37556E-18-5.90875E-19
 -1      4068 7.37759E-05-1.99082E-05-2.29576E-05 1.24464E-05-4.42322E-19-3.98966E-20
 -1      4069 7.15734E-05-1.81021E-05-2.29819E-05 8.84411E-06-4.63861E-19 2.72837E-20
 -1      4070 8.22683E-05-2.53835E-05-2.42875E-05 1.59869E-05-3.70193E-19-3.45388E-19
 -1      4071 7.69745E-05-1.81598E-05-2.51451E-05-6.13715E-06 6.51320E-19 1.75303E-19
 -1      4072 8.37836E-05-2.48099E-05-2.53028E-05-1.33363E-05-9.91723E-20-2.66760E-18
 -1      4073 7.04580E-05-1.78759E-05-2.23250E-05-1.07876E-05-1.38122E-18-1.39827E-18
 -1      4074 7.54873E-05-2.09094E-05-2.33822E-05-1.30088E-05-4.44371E-19-1.71640E-18
 -1      4075 9.59280E-05-2.59923E-05-2.99790E-05 8.78358E-08 1.75298E-19-8.71447E-19
 -1      4076 8.87694E-05-2.27564E-05-2.82711E-05-3.12648E-06-3.20757E-19-2.88476E-19
 -1      4077 8.98197E-05-2.34126E-05-2.84639E-05-3.86867E-06-4.83020E-19-8.94987E-20
 -1      4078 9.05220E-05-2.39002E-05-2.85655E-05-3.55315E-06-6.47613E-19 4.58984E-20
 -1      4079 9.56511E-05-2.48099E-05-3.03571E-05-2.05510E-07-2.32715E-19-7.00538E-19
 -1      4080 7.75471E-05-2.24237E-05-2.36367E-05 1.39228E-05-6.25167E-19-8.22019E-20
 -1      4081 9.56171E-05-2.73883E-05-2.92409E-05-1.48948E-06-3.05684E-20-2.84381E-19
 -1      4082 9.57952E-05-2.73895E-05-2.93180E-05-1.28189E-06-4.29350E-20-4.92418E-19
 -1      4083 9.58806E-05-2.72298E-05-2.94216E-05-9.87350E-07-5.96281E-20-5.27979E-19
 -1      4084 6.82488E-05-1.58596E-05-2.23510E-05 1.77562E-06-4.11966E-19 2.69452E-19
 -1      4085 9.23096E-05-2.52052E-05-2.87625E-05 8.80535E-07-3.34459E-19 5.01705E-19
 -1      4086 6.88901E-05-1.66590E-05-2.24814E-05-6.55879E-06-1.25779E-18-1.15556E-18
 -1      4087 6.73648E-05-1.55068E-05-2.22536E-05 2.37614E-06-7.63147E-19-1.33844E-18
 -1      4088 8.45069E-05-2.86288E-05-2.38803E-05-1.86156E-05 3.78326E-19-2.08076E-18
 -1      4089 8.44858E-05-2.47181E-05-2.56573E-05 1.24522E-05-3.53711E-20 1.92535E-19
 -1      4090 9.56319E-05-2.47631E-05-3.03758E-05 2.39709E-07 5.90620E-20-7.92124E-19
 -1      4091 9.58824E-05-2.53665E-05-3.02085E-05 5.13297E-08-6.79449E-20-7.07584E-19
 -1      4092 7.16188E-05-1.64121E-05-2.36634E-05-1.87446E-06-1.03432E-19 1.83033E-19
 -1      4093 7.42060E-05-1.72673E-05-2.43896E-05-3.45677E-06 5.86110E-19-3.70488E-19
 -1      4094 9.24373E-05-2.53584E-05-2.87486E-05-8.47603E-07 2.07563E-19-1.36886E-18
 -1      4095 9.23181E-05-2.52623E-05-2.87425E-05-4.46386E-07 6.05378E-19 1.29374E-19
 -1      4096 9.19401E-05-2.49273E-05-2.87138E-05-2.43923E-07 1.17454E-20 2.64281E-19
 -1      4097 9.60039E-05-2.59488E-05-3.00309E-05-9.17631E-08-8.06222E-20-6.10258E-19
 -1      4098 9.59845E-05-2.58307E-05-3.00710E-05-7.13509E-08-1.07436E-19-7.81094E-19
 -1      4099 9.54969E-05-2.71856E-05-2.92789E-05 7.48653E-07 1.83526E-19-6.52135E-19
 -1      4100 9.52217E-05-2.71013E-05-2.91957E-05 8.75940E-07 2.18978E-19-6.09242E-19
 -1      4101 9.48708E-05-2.69443E-05-2.91151E-05 9.52110E-07-8.11266E-20-5.46846E-19
 -1      4102 9.45125E-05-2.67414E-05-2.90455E-05 1.08636E-06-3.02819E-19-6.04693E-19
 -1      4103 9.49985E-05-2.69313E-05-2.91676E-05 5.56058E-07 3.31382E-20-8.08053E-19
 -1      4104 9.40694E-05-2.64769E-05-2.89732E-05 1.18227E-06-5.07022E-19-3.43644E-19
 -1      4105 9.36365E-05-2.61868E-05-2.89078E-05 1.33842E-06-4.71803E-19-5.01761E-19
 -1      4106 9.42131E-05-2.64974E-05-2.90135E-05 7.14208E-07-3.17983E-19-7.16218E-19
 -1      4107 9.30962E-05-2.58361E-05-2.88339E-05 1.47384E-06-2.22195E-19-6.31080E-19
 -1      4108 9.26010E-05-2.54858E-05-2.87626E-05 1.67503E-06-2.42626E-19-5.58952E-19
 -1      4109 9.32256E-05-2.58487E-05-2.88650E-05 9.21714E-07-4.14061E-19-6.79705E-19
 -1      4110 9.19672E-05-2.50846E-05-2.86750E-05 1.85890E-06-4.46772E-19-4.78255E-19
 -1      4111 9.14104E-05-2.47024E-05-2.85863E-05 2.12191E-06-6.47964E-19-4.48218E-19
 -1      4112 9.20730E-05-2.50780E-05-2.87008E-05 1.19411E-06-2.38106E-19-9.27834E-19
 -1      4113 9.06829E-05-2.42786E-05-2.84717E-05 2.37147E-06-5.43571E-19-3.24728E-20
 -1      4114 9.00545E-05-2.38933E-05-2.83527E-05 2.71555E-06-1.73265E-19 1.91095E-19
 -1      4115 9.07470E-05-2.42213E-05-2.84977E-05 1.57528E-06-3.13980E-19-2.65601E-19
 -1      4116 8.92281E-05-2.34745E-05-2.81959E-05 3.06836E-06 1.39644E-19 1.97123E-19
 -1      4117 8.85422E-05-2.31311E-05-2.80309E-05 3.52268E-06 3.95469E-19 3.68404E-19
 -1      4118 8.92119E-05-2.33038E-05-2.82225E-05 2.13737E-06-3.29367E-20-7.44959E-21
 -1      4119 8.75691E-05-2.27376E-05-2.78117E-05 4.04440E-06 3.91360E-19 2.32508E-19
 -1      4120 8.68724E-05-2.24877E-05-2.75836E-05 4.67724E-06 2.23531E-19 5.41639E-19
 -1      4121 8.73832E-05-2.23518E-05-2.78339E-05 2.94734E-06 4.30045E-19-1.91709E-19
 -1      4122 8.57469E-05-2.21919E-05-2.72765E-05 5.39951E-06 2.04591E-19 7.78467E-19
 -1      4123 8.50610E-05-2.21061E-05-2.69639E-05 6.27816E-06 1.72348E-19 7.95113E-19
 -1      4124 8.53553E-05-2.15344E-05-2.72960E-05 4.07499E-06 5.82803E-19-3.49189E-19
 -1      4125 8.37377E-05-2.19554E-05-2.65366E-05 7.31514E-06-5.26316E-19 7.50355E-19
 -1      4126 8.32252E-05-2.21632E-05-2.61406E-05 8.52869E-06-3.91726E-19 5.93765E-19
 -1      4127 8.29830E-05-2.08707E-05-2.65434E-05 5.70073E-06-2.00505E-19 4.99195E-19
 -1      4128 9.57456E-05-2.51084E-05-3.02860E-05 2.96552E-07 9.57100E-20-7.01228E-19
 -1      4129 9.14982E-05-2.46138E-05-2.86673E-05-5.73285E-07 2.61304E-19 3.89203E-19
 -1      4130 9.14260E-05-2.45464E-05-2.86682E-05-5.01761E-08 2.04099E-19 1.82266E-18
 -1      4131 9.44153E-05-2.67361E-05-2.90057E-05-2.13144E-06 4.79867E-19-1.14391E-19
 -1      4132 9.47455E-05-2.69727E-05-2.90483E-05-1.94199E-06 3.61523E-19-1.56346E-19
 -1      4133 9.40451E-05-2.64123E-05-2.89789E-05-1.81522E-06 2.33354E-19-1.53218E-19
 -1      4134 8.51140E-05-2.06513E-05-2.76526E-05 2.20754E-06 8.71635E-19 5.40821E-19
 -1      4135 8.38612E-05-2.00873E-05-2.73567E-05 2.39309E-06 1.52541E-18 3.23603E-19
 -1      4136 8.62793E-05-2.20133E-05-2.75356E-05-4.72612E-06-2.96254E-19 2.97135E-19
 -1      4137 8.69345E-05-2.22094E-05-2.77691E-05-4.06896E-06 2.27443E-19-3.32692E-19
 -1      4138 8.78581E-05-2.25384E-05-2.79913E-05-3.51597E-06 4.01513E-19-4.19854E-19
 -1      4139 8.84751E-05-2.28306E-05-2.81552E-05-3.03054E-06 8.35795E-19-7.14189E-19
 -1      4140 8.66976E-05-2.17435E-05-2.77855E-05-2.92356E-06 1.07056E-19-1.33445E-18
 -1      4141 8.92573E-05-2.32036E-05-2.83081E-05-2.63293E-06 9.01647E-19-8.19701E-19
 -1      4142 8.98191E-05-2.35444E-05-2.84196E-05-2.26662E-06 6.82840E-19-1.54169E-20
 -1      4143 8.83760E-05-2.25607E-05-2.81684E-05-2.10474E-06 1.01610E-18-9.83270E-19
 -1      4144 7.99000E-05-2.26571E-05-2.45147E-05 1.26153E-05-4.56994E-19-5.33383E-20
 -1      4145 9.22061E-05-2.51605E-05-2.87293E-05-1.17870E-06-1.06919E-19-1.47119E-18
 -1      4146 7.11355E-05-1.63634E-05-2.35534E-05 2.88878E-06-4.04214E-19-7.99950E-19
 -1      4147 6.90386E-05-1.54537E-05-2.27695E-05-1.97208E-06-8.99125E-19-3.59501E-19
 -1      4148 7.26186E-05-1.72673E-05-2.37442E-05-5.16205E-06-4.57047E-19-5.49887E-19
 -1      4149 7.42883E-05-1.71116E-05-2.45617E-05 2.81078E-06-2.45663E-19-3.03024E-19
 -1      4150 9.58516E-05-2.56149E-05-3.01027E-05 1.39215E-07 1.55853E-19-7.64824E-19
 -1      4151 8.45290E-05-2.17384E-05-2.68962E-05-6.41729E-06-8.87131E-19-6.07308E-19
 -1      4152 8.51853E-05-2.17689E-05-2.72196E-05-5.50309E-06-6.87574E-19-1.13936E-19
 -1      4153 8.47223E-05-2.10097E-05-2.72352E-05-4.08592E-06-3.26129E-19-6.10544E-19
 -1      4154 9.55882E-05-2.46097E-05-3.04251E-05-2.13386E-08-8.38982E-20-8.25036E-19
 -1      4155 9.56034E-05-2.46848E-05-3.04043E-05-1.53513E-07-2.26392E-19-7.55129E-19
 -1      4156 9.59213E-05-2.54804E-05-3.01766E-05-8.42668E-09-1.71851E-19-6.95849E-19
 -1      4157 9.58674E-05-2.52808E-05-3.02364E-05 1.05875E-08-1.14465E-19-7.13785E-19
 -1      4158 9.05107E-05-2.38031E-05-2.85999E-05 1.50097E-06 1.31512E-18 3.69697E-19
 -1      4159 8.98571E-05-2.33313E-05-2.85211E-05 1.65268E-06 1.40587E-18 4.36562E-19
 -1      4160 8.27832E-05-1.98817E-05-2.69855E-05-2.60069E-06 8.80087E-20-2.87604E-19
 -1      4161 8.42309E-05-2.04879E-05-2.73439E-05-2.40232E-06 6.85497E-20-3.06411E-19
 -1      4162 9.13078E-05-2.44171E-05-2.86697E-05-3.33651E-06-5.75538E-19 1.28552E-19
 -1      4163 9.18930E-05-2.48668E-05-2.87355E-05-3.06649E-06-3.00310E-19-2.25330E-20
 -1      4164 9.19018E-05-2.48517E-05-2.87242E-05-2.40069E-06-1.26230E-19 3.28685E-19
 -1      4165 9.04814E-05-2.38541E-05-2.85393E-05-2.74256E-06-4.06539E-19 2.00415E-19
 -1      4166 9.59273E-05-2.71390E-05-2.94823E-05 5.48130E-07 3.90237E-19-8.90462E-19
 -1      4167 9.57469E-05-2.72058E-05-2.93766E-05 6.79629E-07 2.72805E-19-7.65236E-19
 -1      4168 9.55955E-05-2.71088E-05-2.93470E-05 4.22803E-07 4.54062E-19-8.10246E-19
 -1      4169 8.04362E-05-2.18693E-05-2.51320E-05 1.06324E-05-2.89292E-19 3.37885E-19
 -1      4170 8.23375E-05-1.94859E-05-2.69748E-05 2.45343E-06 1.38346E-18-3.91830E-19
 -1      4171 8.07276E-05-1.89226E-05-2.65349E-05 2.70931E-06 3.15953E-19-1.36394E-19
 -1      4172 8.27310E-05-1.94489E-05-2.70286E-05 8.62870E-07 8.43969E-19 7.23948E-20
 -1      4173 7.88430E-05-1.82671E-05-2.60006E-05 2.58325E-06-1.05337E-19-8.17341E-20
 -1      4174 7.67793E-05-1.77390E-05-2.53488E-05 3.03706E-06 3.08391E-19-8.79392E-20
 -1      4175 7.51126E-05-1.70607E-05-2.48077E-05-5.69231E-07-6.07647E-20-2.99098E-19
 -1      4176 7.94084E-05-1.82565E-05-2.61066E-05 4.24148E-07 7.27404E-19-1.17661E-18
 -1      4177 7.64740E-05-1.78196E-05-2.51838E-05-3.01757E-06 6.43341E-19-2.63927E-19
 -1      4178 8.73139E-05-2.17712E-05-2.81083E-05 1.98025E-06-7.73175E-19 1.84871E-18
 -1      4179 8.63117E-05-2.12267E-05-2.79115E-05 2.14575E-06-8.39605E-20 1.36589E-18
 -1      4180 8.54037E-05-2.06660E-05-2.76754E-05 9.90691E-07 3.55095E-19 2.66932E-18
 -1      4181 7.92271E-05-1.86131E-05-2.60066E-05-2.90520E-06 3.73308E-19-8.85915E-19
 -1      4182 8.10323E-05-1.92234E-05-2.65278E-05-2.60919E-06 1.28316E-19-6.87098E-19
 -1      4183 8.15522E-05-1.92790E-05-2.66141E-05-6.80037E-07 3.30540E-19-1.56570E-18
 -1      4184 9.17955E-05-2.48662E-05-2.86879E-05-1.44134E-06 4.09156E-19-1.07363E-18
 -1      4185 9.15975E-05-2.47060E-05-2.86711E-05-1.00598E-06 1.99481E-19-2.14361E-18
 -1      4186 9.10870E-05-2.42995E-05-2.86189E-05-8.37623E-07 5.70196E-19-1.02908E-18
 -1      4187 9.13654E-05-2.45381E-05-2.86402E-05-1.67286E-06 1.50308E-18-9.04105E-20
 -1      4188 8.90806E-05-2.28256E-05-2.84087E-05 1.74512E-06 1.30449E-18 5.74143E-19
 -1      4189 8.82738E-05-2.23139E-05-2.82814E-05 1.90578E-06 4.36918E-19 1.18558E-18
 -1      4190 8.92257E-05-2.28672E-05-2.84041E-05 9.87463E-07 1.80085E-18 9.95065E-19
 -1      4191 7.89656E-05-2.02199E-05-2.51060E-05 8.45483E-06-5.51617E-19 3.30184E-19
 -1      4192 9.59995E-05-2.60080E-05-2.99895E-05-9.92612E-08 1.31158E-19-6.96376E-19
 -1      4193 9.50948E-05-2.71761E-05-2.91088E-05-1.81405E-06 2.25206E-19-2.98555E-19
 -1      4194 9.53500E-05-2.73059E-05-2.91644E-05-1.62422E-06 3.57359E-20-4.01543E-19
 -1      4195 9.48533E-05-2.69560E-05-2.90972E-05-1.54735E-06 1.85433E-19-5.46096E-19
 -1      4196 8.56067E-05-2.11149E-05-2.76580E-05-2.38026E-06-2.77048E-19-1.28293E-19
 -1      4197 8.67737E-05-2.17142E-05-2.79015E-05-2.21705E-06-2.77594E-19-6.82792E-20
 -1      4198 8.46167E-05-2.05868E-05-2.73899E-05-9.27332E-07 6.15224E-20-5.06218E-19
 -1      4199 7.07173E-05-1.63256E-05-2.32465E-05 3.44578E-06-4.07429E-19-1.86486E-19
 -1      4200 8.27169E-05-2.19415E-05-2.60441E-05-8.85268E-06 1.41190E-19-1.61545E-18
 -1      4201 8.32067E-05-2.16460E-05-2.64515E-05-7.54074E-06-3.47275E-19-8.91324E-19
 -1      4202 8.23679E-05-2.04177E-05-2.64566E-05-5.75426E-06-3.72977E-19-3.00123E-19
 -1      4203 9.19202E-05-2.48728E-05-2.87360E-05 9.94230E-07-8.68014E-20 3.30362E-19
 -1      4204 9.60980E-05-2.62796E-05-2.99124E-05-9.54438E-08-5.58627E-20-7.97673E-19
 -1      4205 9.59824E-05-2.58113E-05-3.00788E-05-3.86170E-09-8.12732E-20-7.32469E-19
 -1      4206 9.59908E-05-2.58546E-05-3.00673E-05 7.15651E-09-1.48092E-19-7.05931E-19
 -1      4207 8.70880E-05-2.18805E-05-2.79356E-05-1.04402E-06-2.95782E-19-2.08595E-19
 -1      4208 8.79060E-05-2.23197E-05-2.81188E-05-2.18969E-06-9.33002E-20-2.39284E-19
 -1      4209 8.88595E-05-2.28905E-05-2.82842E-05-2.03675E-06-1.17561E-19-1.79016E-19
 -1      4210 9.60136E-05-2.60588E-05-2.99797E-05-1.64176E-07 2.08119E-21-4.82155E-19
 -1      4211 9.61082E-05-2.64374E-05-2.98523E-05-3.16135E-07-4.89766E-20-4.02221E-19
 -1      4212 9.54589E-05-2.72322E-05-2.92396E-05-1.28480E-06 5.07350E-20-6.54963E-19
 -1      4213 9.60049E-05-2.59146E-05-3.00414E-05 7.52081E-08-2.63485E-19-6.86646E-19
 -1      4214 9.60434E-05-2.60676E-05-2.99956E-05 1.15792E-07-1.42674E-19-7.55580E-19
 -1      4215 9.61240E-05-2.65169E-05-2.98264E-05 3.07136E-07 1.73040E-20-9.51494E-19
 -1      4216 9.61181E-05-2.63398E-05-2.98937E-05 1.00411E-07-1.79487E-19-5.59119E-19
 -1      4217 9.26509E-05-2.54272E-05-2.88145E-05-1.60106E-06 2.03903E-19-2.99152E-19
 -1      4218 9.31867E-05-2.58254E-05-2.88776E-05-1.46464E-06 1.18463E-19-4.38588E-19
 -1      4219 9.60401E-05-2.70335E-05-2.95706E-05-6.43945E-07 1.64544E-19-4.13305E-19
 -1      4220 9.61042E-05-2.67961E-05-2.97053E-05-4.54270E-07 1.65846E-19-3.63505E-19
 -1      4221 9.60856E-05-2.66686E-05-2.97528E-05-3.28990E-07 1.11642E-19-6.04890E-19
 -1      4222 7.70815E-05-1.77496E-05-2.53459E-05-2.85064E-07 1.33563E-19-1.30982E-18
 -1      4223 9.04799E-05-2.39268E-05-2.85223E-05-1.97676E-06 7.12358E-19 3.27224E-19
 -1      4224 9.09878E-05-2.42823E-05-2.85949E-05-1.69544E-06 1.43654E-18 1.69493E-19
 -1      4225 8.75253E-05-2.18086E-05-2.81132E-05 1.02439E-06 7.62214E-19 1.59371E-18
 -1      4226 9.57201E-05-2.72231E-05-2.93525E-05-8.95423E-07 8.58268E-21-8.77628E-19
 -1      4227 9.58965E-05-2.71709E-05-2.94556E-05-7.45864E-07 5.31499E-20-6.82357E-19
 -1      4228 9.58933E-05-2.70801E-05-2.94934E-05-5.38219E-07 1.53903E-19-7.51027E-19
 -1      4229 9.13732E-05-2.44643E-05-2.86709E-05 5.37074E-07 9.20299E-19 9.18610E-19
 -1      4230 9.14154E-05-2.44824E-05-2.86945E-05 1.27928E-06 3.88913E-19 4.66932E-20
 -1      4231 9.09427E-05-2.41012E-05-2.86498E-05 1.42020E-06 9.63624E-19 2.68179E-19
 -1      4232 9.09030E-05-2.41212E-05-2.86169E-05 2.09666E-07 4.99552E-19 6.52673E-19
 -1      4233 7.43425E-05-1.79411E-05-2.41512E-05 5.03850E-06-3.76175E-19-6.06754E-20
 -1      4234 9.13527E-05-2.45087E-05-2.86527E-05-1.80001E-06-2.18593E-19-8.95025E-21
 -1      4235 9.20047E-05-2.49785E-05-2.87334E-05-1.66911E-06 6.44955E-20-1.36017E-20
 -1      4236 9.21892E-05-2.50756E-05-2.87509E-05-1.01805E-06-8.32920E-20-5.78166E-19
 -1      4237 9.04332E-05-2.37372E-05-2.85712E-05 8.65505E-07 1.12682E-18 7.34654E-19
 -1      4238 7.64797E-05-1.82173E-05-2.50212E-05-4.39124E-06 1.51506E-19-1.00850E-18
 -1      4239 7.78155E-05-1.95615E-05-2.48702E-05-8.29548E-06 9.73046E-20-1.56979E-18
 -1      4240 7.92928E-05-2.13465E-05-2.48923E-05-1.05666E-05 1.80018E-19-1.87444E-18
 -1      4241 9.61019E-05-2.67865E-05-2.97111E-05 3.55978E-07 1.70826E-19-9.95151E-19
 -1      4242 9.60339E-05-2.70216E-05-2.95771E-05 5.11558E-07 2.91481E-19-9.92902E-19
 -1      4243 9.59520E-05-2.70144E-05-2.95420E-05 3.29968E-07 3.95349E-19-7.45748E-19
 -1      4244 9.60935E-05-2.66776E-05-2.97518E-05 2.36719E-07 8.32099E-20-7.44513E-19
 -1      4245 8.08310E-05-2.50626E-05-2.38181E-05-1.66693E-05-1.32812E-19-3.18445E-18
 -1      4246 7.74332E-05-1.86606E-05-2.52657E-05 3.72130E-06-5.89704E-19-1.41349E-20
 -1      4247 8.97935E-05-2.34096E-05-2.84286E-05-1.53064E-06 8.46901E-19-4.09381E-19
 -1      4248 8.57832E-05-2.12237E-05-2.77091E-05-1.19832E-06 8.66807E-20 8.96464E-19
 -1      4249 8.45553E-05-2.06638E-05-2.74374E-05-1.34043E-06 4.22648E-19 7.06556E-19
 -1      4250 9.51758E-05-2.70771E-05-2.91815E-05-1.10443E-06 5.81186E-20-7.92016E-19
 -1      4251 9.54530E-05-2.71784E-05-2.92622E-05-9.80546E-07-1.25566E-20-7.16841E-19
 -1      4252 9.54480E-05-2.71083E-05-2.92896E-05-7.00404E-07-1.54148E-20-8.35110E-19
 -1      4253 9.43812E-05-2.66051E-05-2.90513E-05 2.07237E-07-1.09746E-19-1.18883E-18
 -1      4254 9.39220E-05-2.63215E-05-2.89767E-05 3.00645E-07-2.91346E-19-1.15790E-18
 -1      4255 9.32535E-05-2.58694E-05-2.88831E-05-5.77704E-08-3.36284E-19-8.79948E-19
 -1      4256 9.26939E-05-2.54899E-05-2.88066E-05 2.97334E-08-1.71223E-19-6.63114E-19
 -1      4257 9.20418E-05-2.50459E-05-2.87217E-05 3.61856E-08-1.50732E-19-4.48380E-19
 -1      4258 9.13978E-05-2.46017E-05-2.86302E-05 1.48826E-07-9.96715E-20-3.14265E-19
 -1      4259 8.92780E-05-2.33108E-05-2.82892E-05 1.05087E-06-2.18081E-19-3.46394E-19
 -1      4260 8.84006E-05-2.28057E-05-2.81244E-05 1.37305E-06 7.94534E-20-1.58816E-19
 -1      4261 8.69431E-05-2.19949E-05-2.78589E-05 8.24649E-07 3.66875E-20-4.30916E-19
 -1      4262 8.58910E-05-2.14882E-05-2.76207E-05 1.20289E-06 1.78871E-19-5.20408E-19
 -1      4263 8.44996E-05-2.09017E-05-2.73048E-05 1.40586E-06 5.63375E-19-7.44421E-19
 -1      4264 8.32973E-05-2.04272E-05-2.69737E-05 1.96632E-06 4.99467E-19-5.28079E-19
 -1      4265 8.15512E-05-1.98395E-05-2.65183E-05 2.28014E-06 2.23178E-19-7.44687E-19
 -1      4266 8.01647E-05-1.94213E-05-2.60615E-05 3.11531E-06-2.64310E-19-6.05961E-19
 -1      4267 9.38452E-05-2.62627E-05-2.89660E-05-1.06023E-06 6.88653E-20-8.24060E-19
 -1      4268 9.42912E-05-2.65626E-05-2.90266E-05-9.62518E-07 1.99522E-20-9.48289E-19
 -1      4269 8.93694E-05-2.31348E-05-2.84034E-05-3.86064E-07 1.27575E-18 9.88240E-19
 -1      4270 8.85704E-05-2.26423E-05-2.82821E-05-4.24618E-07 1.84630E-18 9.34391E-19
 -1      4271 9.60905E-05-2.66524E-05-2.97630E-05-1.93398E-07 9.66947E-20-7.82443E-19
 -1      4272 8.33907E-05-2.02649E-05-2.71073E-05-1.93247E-06-1.85569E-19 3.99553E-19
 -1      4273 8.67600E-05-2.16595E-05-2.79400E-05-7.86095E-07 4.64799E-19 4.72294E-19
 -1      4274 8.77477E-05-2.21955E-05-2.81238E-05-7.09953E-07 1.52441E-18 4.36353E-19
 -1      4275 9.34999E-05-2.59923E-05-2.89231E-05-5.78324E-07-1.09708E-19-1.16647E-18
 -1      4276 8.18407E-05-1.96885E-05-2.67119E-05-2.17038E-06-2.49529E-19-1.42476E-19
 -1      4277 9.57163E-05-2.71228E-05-2.93985E-05 8.88887E-08 4.39125E-19-7.64902E-19
 -1      4278 9.54671E-05-2.71031E-05-2.93004E-05 1.46071E-07 3.45224E-19-8.90897E-19
 -1      4279 9.08370E-05-2.41321E-05-2.85788E-05-1.27546E-06 5.35365E-19-1.92833E-18
 -1      4280 9.51488E-05-2.69974E-05-2.92109E-05 1.38648E-07 1.34405E-19-1.28034E-18
 -1      4281 9.47980E-05-2.68361E-05-2.91289E-05 2.07372E-07-6.14827E-20-1.19951E-18
 -1      4282 9.45681E-05-2.66900E-05-2.90925E-05-2.22203E-07 2.70281E-22-1.65059E-18
 -1      4283 9.52955E-05-2.70168E-05-2.92580E-05-2.05560E-07 1.35275E-19-1.37860E-18
 -1      4284 8.97890E-05-2.34632E-05-2.84335E-05-1.99851E-06-2.66081E-19-3.44796E-19
 -1      4285 9.05755E-05-2.39879E-05-2.85462E-05-1.85681E-06-2.41001E-19 4.18866E-20
 -1      4286 8.91177E-05-2.30432E-05-2.83022E-05-1.11468E-06-6.55703E-20-3.00560E-19
 -1      4287 9.48221E-05-2.68983E-05-2.91146E-05-1.21386E-06-4.85967E-20-5.48755E-19
 -1      4288 8.16859E-05-2.36912E-05-2.47978E-05-1.35171E-05-2.31660E-20-2.19837E-18
 -1      4289 9.00658E-05-2.35720E-05-2.85090E-05-2.08130E-07 9.34832E-19 1.10400E-18
 -1      4290 8.04235E-05-1.92890E-05-2.62450E-05-2.98030E-06 2.82062E-19-9.72854E-19
 -1      4291 9.06843E-05-2.40340E-05-2.85706E-05-8.55091E-07 5.02280E-19 7.66111E-20
 -1      4292 9.08829E-05-2.42977E-05-2.85487E-05 6.97941E-07-2.36881E-19-2.42283E-19
 -1      4293 9.01625E-05-2.38280E-05-2.84325E-05 8.99689E-07-2.42188E-19-1.68151E-19
 -1      4294 9.60423E-05-2.69266E-05-2.96155E-05-2.33795E-07 3.12130E-19-7.74170E-19
 -1      4295 9.60736E-05-2.66290E-05-2.97643E-05-2.66865E-08 8.56066E-20-6.71493E-19
 -1      4296 9.60800E-05-2.66928E-05-2.97426E-05 8.70091E-08-3.17117E-20-4.79138E-19
 -1      4297 9.58941E-05-2.70711E-05-2.94978E-05-3.23444E-07 2.11448E-19-7.29699E-19
 -1      4298 9.04351E-05-2.37791E-05-2.85621E-05 2.44747E-07 5.52326E-19 7.68693E-19
 -1      4299 8.95772E-05-2.33914E-05-2.83549E-05 1.23403E-07-2.64327E-19-2.35002E-19
 -1      4300 9.07971E-05-2.41260E-05-2.85616E-05-1.09851E-06-1.51588E-19-6.05906E-19
 -1      4301 8.73557E-05-2.20607E-05-2.79651E-05-3.45125E-07-2.48320E-19-4.06959E-19
 -1      4302 7.87187E-05-1.88311E-05-2.57278E-05-3.59586E-06 4.52579E-19-1.06995E-18
 -1      4303 9.53894E-05-2.70939E-05-2.92735E-05-4.69809E-07 1.42108E-20-1.03706E-18
 -1      4304 9.56564E-05-2.71350E-05-2.93649E-05-4.02223E-07 5.02247E-20-8.75662E-19
 -1      4305 9.09614E-05-2.42680E-05-2.85799E-05-5.30464E-07-2.16956E-19-3.50723E-19
 -1      4306 9.50792E-05-2.69656E-05-2.91862E-05-4.99442E-07-8.61870E-20-1.35916E-18
 -1      4307 9.46728E-05-2.67494E-05-2.91083E-05-5.21867E-07-6.49296E-20-1.37888E-18
 -1      4308 9.60448E-05-2.68962E-05-2.96300E-05 1.22952E-07 2.44527E-19-5.04242E-19
 -1      4309 9.59412E-05-2.70386E-05-2.95322E-05 1.42623E-07 2.83424E-19-5.83715E-19
 -1      4310 9.58327E-05-2.70444E-05-2.94791E-05-1.18358E-07 2.49686E-19-6.58977E-19
 -1      4311 9.02088E-05-2.37846E-05-2.84716E-05-5.24192E-07-3.86030E-19-2.91489E-19
 -1      4312 8.93385E-05-2.32428E-05-2.83311E-05-4.70517E-07-1.81127E-19-3.06098E-19
 -1      4313 8.84533E-05-2.27048E-05-2.81794E-05-4.21339E-07-4.50777E-20-6.92243E-20
 -3
    1PSTEP                         4           1           1          
  100CL  101 1.000000000        4313                     0    1           1
 -4  ERROR       1    1
 -5  STR(%)      1    1    0    0
 -1         1 1.22346E+01
 -1         2 2.67087E+01
 -1         3 1.30957E-02
 -1         4 1.44805E-02
 -1         5 1.40449E+01
 -1         6 1.31486E+01
 -1         7 1.31486E+01
 -1         8 3.64680E+00
 -1         9 1.80783E+00
 -1        10 1.28335E+00
 -1        11 1.03870E+00
 -1        12 8.92429E-01
 -1        13 8.02174E-01
 -1        14 7.48549E-01
 -1        15 7.50602E-01
 -1        16 8.06560E-01
 -1        17 8.94122E-01
 -1        18 1.04532E+00
 -1        19 1.29946E+00
 -1        20 1.81944E+00
 -1        21 3.48842E+00
 -1        22 8.63435E+00
 -1        23 1.31486E+01
 -1        24 4.33674E+00
 -1        25 3.36248E+00
 -1        26 2.13522E+00
 -1        27 1.38892E+00
 -1        28 1.05777E+00
 -1        29 8.29309E-01
 -1        30 6.61761E-01
 -1        31 5.35120E-01
 -1        32 4.38898E-01
 -1        33 3.65855E-01
 -1        34 3.20992E-01
 -1        35 3.56545E-01
 -1        36 3.98550E-01
 -1        37 4.41270E-01
 -1        38 4.75010E-01
 -1        39 5.98791E-01
 -1        40 7.54077E-01
 -1        41 8.90507E-01
 -1        42 9.64137E-01
 -1        43 9.64137E-01
 -1        44 1.00826E+00
 -1        45 1.00826E+00
 -1        46 1.31651E+00
 -1        47 1.92373E+00
 -1        48 2.83988E+00
 -1        49 3.18304E+00
 -1        50 3.18304E+00
 -1        51 3.17203E+00
 -1        52 2.92055E+00
 -1        53 2.05588E+00
 -1        54 1.34977E+00
 -1        55 1.00387E+00
 -1        56 1.00387E+00
 -1        57 9.53745E-01
 -1        58 9.53745E-01
 -1        59 8.89423E-01
 -1        60 7.55513E-01
 -1        61 6.00518E-01
 -1        62 4.78398E-01
 -1        63 3.99851E-01
 -1        64 3.43361E-01
 -1        65 2.83810E-01
 -1        66 2.27176E-01
 -1        67 1.76283E-01
 -1        68 1.34158E-01
 -1        69 1.19036E-01
 -1        70 9.43519E-02
 -1        71 5.08510E-02
 -1        72 1.40449E+01
 -1        73 3.41216E+00
 -1        74 2.43336E+00
 -1        75 1.68925E+00
 -1        76 1.17213E+00
 -1        77 9.52810E-01
 -1        78 7.92640E-01
 -1        79 6.67775E-01
 -1        80 5.71451E-01
 -1        81 5.00301E-01
 -1        82 4.52126E-01
 -1        83 4.24670E-01
 -1        84 4.18722E-01
 -1        85 4.79760E-01
 -1        86 5.70478E-01
 -1        87 6.71422E-01
 -1        88 7.69566E-01
 -1        89 8.41768E-01
 -1        90 8.64692E-01
 -1        91 1.12686E+00
 -1        92 1.41357E+00
 -1        93 1.55852E+00
 -1        94 1.89110E+00
 -1        95 1.96026E+00
 -1        96 2.32383E+00
 -1        97 3.15386E+00
 -1        98 4.42606E+00
 -1        99 5.00828E+00
 -1       100 5.00828E+00
 -1       101 4.65838E+00
 -1       102 2.80462E+00
 -1       103 1.70698E+00
 -1       104 1.57488E+00
 -1       105 1.80627E+00
 -1       106 1.80627E+00
 -1       107 1.72061E+00
 -1       108 1.48349E+00
 -1       109 1.24295E+00
 -1       110 1.00585E+00
 -1       111 7.81509E-01
 -1       112 5.86264E-01
 -1       113 4.28197E-01
 -1       114 3.34949E-01
 -1       115 2.56485E-01
 -1       116 1.92053E-01
 -1       117 1.39200E-01
 -1       118 9.43305E-02
 -1       119 7.36433E-02
 -1       120 4.21417E-02
 -1       121 1.68374E-02
 -1       122 1.78806E-02
 -1       123 1.78806E-02
 -1       124 1.15356E-02
 -1       125 7.06381E-03
 -1       126 1.33466E-02
 -1       127 1.73709E-02
 -1       128 1.84288E-02
 -1       129 1.84288E-02
 -1       130 1.69097E-02
 -1       131 1.25112E-02
 -1       132 6.50542E-03
 -1       133 1.13104E-02
 -1       134 1.69069E-02
 -1       135 2.18363E-02
 -1       136 2.34800E-02
 -1       137 2.67087E+01
 -1       138 4.74989E+01
 -1       139 4.74989E+01
 -1       140 2.08649E+01
 -1       141 1.26660E+01
 -1       142 1.26660E+01
 -1       143 1.25691E+01
 -1       144 1.36520E+01
 -1       145 1.36520E+01
 -1       146 1.28701E+01
 -1       147 2.90381E+01
 -1       148 3.05617E+01
 -1       149 2.86087E+01
 -1       150 2.48234E+01
 -1       151 2.46869E+01
 -1       152 2.55559E+01
 -1       153 3.70308E+01
 -1       154 3.70308E+01
 -1       155 1.39947E+01
 -1       156 1.33666E+01
 -1       157 1.33666E+01
 -1       158 1.22346E+01
 -1       159 1.19222E+01
 -1       160 1.73449E+01
 -1       161 4.52833E+01
 -1       162 4.52833E+01
 -1       163 2.44441E+01
 -1       164 6.05710E+00
 -1       165 2.28248E+00
 -1       166 1.50041E+00
 -1       167 1.15079E+00
 -1       168 9.67182E-01
 -1       169 8.58306E-01
 -1       170 7.90377E-01
 -1       171 7.50602E-01
 -1       172 7.93894E-01
 -1       173 8.61612E-01
 -1       174 9.75022E-01
 -1       175 1.16578E+00
 -1       176 1.51956E+00
 -1       177 2.25131E+00
 -1       178 3.91850E+00
 -1       179 1.40449E+01
 -1       180 4.33674E+00
 -1       181 3.36248E+00
 -1       182 2.13522E+00
 -1       183 1.46681E+00
 -1       184 1.05777E+00
 -1       185 8.29309E-01
 -1       186 6.61761E-01
 -1       187 5.35120E-01
 -1       188 4.38898E-01
 -1       189 3.65855E-01
 -1       190 3.09526E-01
 -1       191 3.20992E-01
 -1       192 3.56545E-01
 -1       193 3.98550E-01
 -1       194 4.41270E-01
 -1       195 5.19152E-01
 -1       196 6.21462E-01
 -1       197 7.54077E-01
 -1       198 8.90507E-01
 -1       199 9.64137E-01
 -1       200 9.14229E-01
 -1       201 1.00826E+00
 -1       202 9.48010E-01
 -1       203 1.31651E+00
 -1       204 1.92373E+00
 -1       205 2.83988E+00
 -1       206 3.18304E+00
 -1       207 3.17203E+00
 -1       208 2.92055E+00
 -1       209 2.05588E+00
 -1       210 1.34977E+00
 -1       211 1.00176E+00
 -1       212 1.00387E+00
 -1       213 9.30133E-01
 -1       214 9.53745E-01
 -1       215 8.89423E-01
 -1       216 7.55513E-01
 -1       217 6.26044E-01
 -1       218 5.33119E-01
 -1       219 4.45218E-01
 -1       220 3.53360E-01
 -1       221 2.83810E-01
 -1       222 2.27176E-01
 -1       223 1.76800E-01
 -1       224 1.37369E-01
 -1       225 1.19036E-01
 -1       226 9.43519E-02
 -1       227 5.29642E-02
 -1       228 3.41216E+00
 -1       229 2.43336E+00
 -1       230 1.68925E+00
 -1       231 1.17213E+00
 -1       232 9.52810E-01
 -1       233 7.92640E-01
 -1       234 6.67775E-01
 -1       235 5.71451E-01
 -1       236 5.00301E-01
 -1       237 4.52126E-01
 -1       238 4.24670E-01
 -1       239 4.14963E-01
 -1       240 4.18722E-01
 -1       241 4.91962E-01
 -1       242 5.73643E-01
 -1       243 6.71422E-01
 -1       244 7.69566E-01
 -1       245 8.41768E-01
 -1       246 9.81363E-01
 -1       247 1.15722E+00
 -1       248 1.41357E+00
 -1       249 1.55852E+00
 -1       250 1.89110E+00
 -1       251 1.96026E+00
 -1       252 2.32383E+00
 -1       253 3.15386E+00
 -1       254 4.42606E+00
 -1       255 5.00828E+00
 -1       256 4.65838E+00
 -1       257 2.80462E+00
 -1       258 1.70698E+00
 -1       259 1.43777E+00
 -1       260 1.57488E+00
 -1       261 1.80627E+00
 -1       262 1.72061E+00
 -1       263 1.48349E+00
 -1       264 1.24295E+00
 -1       265 1.02215E+00
 -1       266 8.16525E-01
 -1       267 6.28961E-01
 -1       268 4.68911E-01
 -1       269 3.38906E-01
 -1       270 2.56485E-01
 -1       271 1.92053E-01
 -1       272 1.39200E-01
 -1       273 9.85152E-02
 -1       274 7.36433E-02
 -1       275 4.21417E-02
 -1       276 2.69552E-02
 -1       277 2.98652E-02
 -1       278 2.98652E-02
 -1       279 1.61810E-02
 -1       280 2.54392E-02
 -1       281 3.36378E-02
 -1       282 3.66624E-02
 -1       283 3.66624E-02
 -1       284 3.64297E-02
 -1       285 3.22579E-02
 -1       286 2.38272E-02
 -1       287 1.58477E-02
 -1       288 2.89710E-02
 -1       289 2.89710E-02
 -1       290 3.35838E-02
 -1       291 3.19240E+01
 -1       292 2.94163E+01
 -1       293 4.74989E+01
 -1       294 2.19699E+01
 -1       295 1.12011E+01
 -1       296 1.26660E+01
 -1       297 1.22245E+01
 -1       298 1.25691E+01
 -1       299 1.36520E+01
 -1       300 1.20428E+01
 -1       301 1.28701E+01
 -1       302 3.05617E+01
 -1       303 3.05617E+01
 -1       304 2.50882E+01
 -1       305 2.81334E+01
 -1       306 2.81334E+01
 -1       307 3.37682E+01
 -1       308 3.70308E+01
 -1       309 1.39947E+01
 -1       310 1.13950E+01
 -1       311 1.33666E+01
 -1       312 1.22270E+01
 -1       313 1.22346E+01
 -1       314 1.19222E+01
 -1       315 1.06041E+01
 -1       316 1.77371E+01
 -1       317 4.52833E+01
 -1       318 3.94883E+01
 -1       319 3.12651E+01
 -1       320 1.03309E+00
 -1       321 2.46248E+00
 -1       322 7.85794E-01
 -1       323 6.88427E-01
 -1       324 6.26176E-01
 -1       325 5.82191E-01
 -1       326 5.85517E-01
 -1       327 6.29081E-01
 -1       328 6.95631E-01
 -1       329 7.90552E-01
 -1       330 9.25516E-01
 -1       331 1.14601E+00
 -1       332 1.31347E+00
 -1       333 2.20083E+00
 -1       334 1.91243E+00
 -1       335 1.74402E+00
 -1       336 1.28248E+00
 -1       337 9.21599E-01
 -1       338 6.80290E-01
 -1       339 5.78637E-01
 -1       340 4.87369E-01
 -1       341 4.06876E-01
 -1       342 3.36746E-01
 -1       343 2.75304E-01
 -1       344 2.53582E-01
 -1       345 2.83399E-01
 -1       346 3.16836E-01
 -1       347 3.66788E-01
 -1       348 4.55259E-01
 -1       349 5.30429E-01
 -1       350 6.09106E-01
 -1       351 6.90760E-01
 -1       352 7.18358E-01
 -1       353 6.50944E-01
 -1       354 5.13714E-01
 -1       355 4.86051E-01
 -1       356 8.76756E-01
 -1       357 1.33872E+00
 -1       358 1.74342E+00
 -1       359 2.01000E+00
 -1       360 1.91055E+00
 -1       361 2.01815E+00
 -1       362 1.79751E+00
 -1       363 1.37888E+00
 -1       364 9.47142E-01
 -1       365 5.21782E-01
 -1       366 5.03967E-01
 -1       367 6.27783E-01
 -1       368 7.09632E-01
 -1       369 6.91297E-01
 -1       370 6.15264E-01
 -1       371 5.47374E-01
 -1       372 4.83970E-01
 -1       373 4.05978E-01
 -1       374 3.25583E-01
 -1       375 2.50552E-01
 -1       376 1.85064E-01
 -1       377 1.37369E-01
 -1       378 1.02553E-01
 -1       379 7.27630E-02
 -1       380 5.00512E-02
 -1       381 1.14511E+00
 -1       382 9.02439E-01
 -1       383 7.12720E-01
 -1       384 5.49765E-01
 -1       385 4.69781E-01
 -1       386 4.23228E-01
 -1       387 3.82568E-01
 -1       388 3.50388E-01
 -1       389 3.27709E-01
 -1       390 3.13988E-01
 -1       391 3.52996E-01
 -1       392 4.69114E-01
 -1       393 6.33852E-01
 -1       394 8.14415E-01
 -1       395 9.96085E-01
 -1       396 1.15015E+00
 -1       397 1.28759E+00
 -1       398 1.32896E+00
 -1       399 1.32896E+00
 -1       400 1.17055E+00
 -1       401 1.08368E+00
 -1       402 1.29149E+00
 -1       403 2.13406E+00
 -1       404 2.63608E+00
 -1       405 2.94296E+00
 -1       406 2.74700E+00
 -1       407 2.77048E+00
 -1       408 1.98504E+00
 -1       409 1.03225E+00
 -1       410 1.01646E+00
 -1       411 1.26911E+00
 -1       412 1.32727E+00
 -1       413 1.33358E+00
 -1       414 1.22824E+00
 -1       415 1.09755E+00
 -1       416 9.39792E-01
 -1       417 7.67064E-01
 -1       418 6.02874E-01
 -1       419 4.58848E-01
 -1       420 3.38906E-01
 -1       421 2.45974E-01
 -1       422 1.87294E-01
 -1       423 1.38905E-01
 -1       424 9.85152E-02
 -1       425 6.34003E-02
 -1       426 3.42344E-02
 -1       427 3.27822E-02
 -1       428 5.31110E-02
 -1       429 5.31110E-02
 -1       430 3.54872E-02
 -1       431 4.80580E-02
 -1       432 5.36162E-02
 -1       433 5.36162E-02
 -1       434 5.24052E-02
 -1       435 5.24052E-02
 -1       436 4.55753E-02
 -1       437 3.22161E-02
 -1       438 3.31054E-02
 -1       439 4.65004E-02
 -1       440 2.94163E+01
 -1       441 3.19240E+01
 -1       442 2.55525E+01
 -1       443 1.67157E+01
 -1       444 9.72406E+00
 -1       445 9.12156E-01
 -1       446 1.02780E+01
 -1       447 1.10980E+01
 -1       448 1.07888E+01
 -1       449 8.54015E+00
 -1       450 6.79552E+00
 -1       451 1.19720E+01
 -1       452 2.08782E+01
 -1       453 2.43237E+01
 -1       454 3.79738E+01
 -1       455 3.79738E+01
 -1       456 2.51302E+01
 -1       457 2.23941E+01
 -1       458 1.30436E+01
 -1       459 7.44427E+00
 -1       460 7.18483E+00
 -1       461 1.02089E+01
 -1       462 9.90825E+00
 -1       463 1.05283E+01
 -1       464 8.19315E+00
 -1       465 8.56141E+00
 -1       466 1.50755E+01
 -1       467 2.76480E+01
 -1       468 2.67284E+01
 -1       469 6.55824E+00
 -1       470 3.19240E+01
 -1       471 7.76984E+00
 -1       472 1.06000E+00
 -1       473 4.80741E-01
 -1       474 5.06119E-01
 -1       475 4.26068E-01
 -1       476 4.52061E-01
 -1       477 4.81982E-01
 -1       478 5.06442E-01
 -1       479 5.06442E-01
 -1       480 5.93239E-01
 -1       481 9.02439E-01
 -1       482 7.96524E-01
 -1       483 4.59860E+00
 -1       484 7.09132E-01
 -1       485 5.91026E-01
 -1       486 4.72446E-01
 -1       487 3.91813E-01
 -1       488 3.41660E-01
 -1       489 2.86759E-01
 -1       490 2.30432E-01
 -1       491 1.73503E-01
 -1       492 1.96411E-01
 -1       493 2.22392E-01
 -1       494 3.08912E-01
 -1       495 3.99630E-01
 -1       496 4.84212E-01
 -1       497 5.56950E-01
 -1       498 6.12502E-01
 -1       499 6.90004E-01
 -1       500 7.30311E-01
 -1       501 7.13708E-01
 -1       502 8.86284E-01
 -1       503 9.34956E-01
 -1       504 1.24926E+00
 -1       505 1.36466E+00
 -1       506 1.74579E+00
 -1       507 1.88276E+00
 -1       508 2.03451E+00
 -1       509 1.81947E+00
 -1       510 1.40142E+00
 -1       511 1.26217E+00
 -1       512 9.08686E-01
 -1       513 9.03945E-01
 -1       514 7.34010E-01
 -1       515 7.41036E-01
 -1       516 7.10392E-01
 -1       517 6.41265E-01
 -1       518 5.79730E-01
 -1       519 5.17307E-01
 -1       520 4.43172E-01
 -1       521 3.64600E-01
 -1       522 2.89414E-01
 -1       523 2.22106E-01
 -1       524 1.64794E-01
 -1       525 1.18022E-01
 -1       526 8.12455E-02
 -1       527 2.19825E+01
 -1       528 5.49765E-01
 -1       529 4.69781E-01
 -1       530 4.05693E-01
 -1       531 3.42558E-01
 -1       532 2.82466E-01
 -1       533 2.25092E-01
 -1       534 2.44157E-01
 -1       535 2.86211E-01
 -1       536 3.97217E-01
 -1       537 5.46853E-01
 -1       538 7.14937E-01
 -1       539 8.94710E-01
 -1       540 1.07055E+00
 -1       541 1.21473E+00
 -1       542 1.32966E+00
 -1       543 1.53301E+00
 -1       544 1.68986E+00
 -1       545 1.75281E+00
 -1       546 2.29312E+00
 -1       547 2.07654E+00
 -1       548 3.68657E+00
 -1       549 7.25097E+00
 -1       550 5.44045E+00
 -1       551 2.85949E+00
 -1       552 2.13386E+00
 -1       553 1.92868E+00
 -1       554 2.13478E+00
 -1       555 1.74645E+00
 -1       556 1.60831E+00
 -1       557 1.42798E+00
 -1       558 1.26878E+00
 -1       559 1.14495E+00
 -1       560 9.88347E-01
 -1       561 8.16557E-01
 -1       562 6.51550E-01
 -1       563 5.04810E-01
 -1       564 3.80761E-01
 -1       565 2.79667E-01
 -1       566 1.99689E-01
 -1       567 1.38210E-01
 -1       568 9.11303E-02
 -1       569 6.33250E-02
 -1       570 6.11040E-02
 -1       571 7.16407E-02
 -1       572 5.29060E-02
 -1       573 5.21187E-02
 -1       574 7.16407E-02
 -1       575 7.14262E-02
 -1       576 7.14262E-02
 -1       577 6.88452E-02
 -1       578 5.71403E-02
 -1       579 5.54100E-02
 -1       580 5.54100E-02
 -1       581 8.41147E+00
 -1       582 7.12720E-01
 -1       583 1.33932E+01
 -1       584 2.02258E+01
 -1       585 2.67284E+01
 -1       586 7.58082E+00
 -1       587 3.79738E+01
 -1       588 8.16743E+00
 -1       589 4.51791E-01
 -1       590 7.25097E+00
 -1       591 6.66482E+00
 -1       592 9.55993E+00
 -1       593 3.60087E+00
 -1       594 1.15730E+01
 -1       595 6.77938E+00
 -1       596 1.54688E+01
 -1       597 2.43237E+01
 -1       598 2.51302E+01
 -1       599 7.86455E+00
 -1       600 1.78814E+01
 -1       601 3.92661E+00
 -1       602 7.66419E+00
 -1       603 5.08399E+00
 -1       604 4.36536E+00
 -1       605 8.33309E+00
 -1       606 1.28883E+01
 -1       607 8.72960E-01
 -1       608 1.32507E+00
 -1       609 4.80885E+00
 -1       610 7.09941E-01
 -1       611 1.21499E+01
 -1       612 5.20376E+00
 -1       613 5.00512E-02
 -1       614 6.04201E+00
 -1       615 2.08847E+01
 -1       616 5.80466E+00
 -1       617 3.54982E-01
 -1       618 3.38427E-01
 -1       619 3.59799E-01
 -1       620 3.37043E-01
 -1       621 5.36857E-01
 -1       622 5.17744E-01
 -1       623 3.96279E-01
 -1       624 3.75654E-01
 -1       625 3.25101E-01
 -1       626 2.61637E-01
 -1       627 2.22986E-01
 -1       628 1.79271E-01
 -1       629 1.28401E-01
 -1       630 1.13205E-01
 -1       631 1.60715E-01
 -1       632 2.45357E-01
 -1       633 3.37381E-01
 -1       634 4.34668E-01
 -1       635 5.32691E-01
 -1       636 6.23137E-01
 -1       637 7.23402E-01
 -1       638 8.68748E-01
 -1       639 9.98448E-01
 -1       640 1.07535E+00
 -1       641 1.40758E+00
 -1       642 1.54220E+00
 -1       643 1.87514E+00
 -1       644 1.74579E+00
 -1       645 2.39303E+00
 -1       646 2.33930E+00
 -1       647 4.51279E+00
 -1       648 3.27865E+00
 -1       649 1.97825E+00
 -1       650 1.26217E+00
 -1       651 1.45638E+00
 -1       652 1.10581E+00
 -1       653 1.02658E+00
 -1       654 9.00144E-01
 -1       655 7.59302E-01
 -1       656 6.51586E-01
 -1       657 5.69310E-01
 -1       658 4.79907E-01
 -1       659 3.92629E-01
 -1       660 3.12709E-01
 -1       661 2.42702E-01
 -1       662 1.83425E-01
 -1       663 1.34815E-01
 -1       664 8.69086E-02
 -1       665 1.05526E+01
 -1       666 3.84735E-01
 -1       667 2.25999E-01
 -1       668 1.71380E-01
 -1       669 1.52338E-01
 -1       670 1.92595E-01
 -1       671 3.03189E-01
 -1       672 4.32833E-01
 -1       673 5.84488E-01
 -1       674 7.60200E-01
 -1       675 9.59877E-01
 -1       676 1.17901E+00
 -1       677 1.40424E+00
 -1       678 1.59791E+00
 -1       679 2.05141E+00
 -1       680 2.67393E+00
 -1       681 2.29312E+00
 -1       682 4.54426E+00
 -1       683 3.68657E+00
 -1       684 2.85949E+00
 -1       685 2.20510E+00
 -1       686 4.78760E+00
 -1       687 2.78817E+00
 -1       688 2.23430E+00
 -1       689 1.82109E+00
 -1       690 1.52371E+00
 -1       691 1.30923E+00
 -1       692 1.08972E+00
 -1       693 8.85057E-01
 -1       694 7.04263E-01
 -1       695 5.49942E-01
 -1       696 4.21529E-01
 -1       697 3.16908E-01
 -1       698 2.33269E-01
 -1       699 1.67616E-01
 -1       700 1.15489E-01
 -1       701 7.81832E-02
 -1       702 5.80694E+00
 -1       703 9.75972E-02
 -1       704 1.28314E+01
 -1       705 9.29851E-02
 -1       706 9.54916E-02
 -1       707 9.75972E-02
 -1       708 9.54916E-02
 -1       709 8.74130E-02
 -1       710 6.46383E-02
 -1       711 4.60865E-01
 -1       712 1.02766E+01
 -1       713 4.93523E+00
 -1       714 1.48459E+01
 -1       715 6.11415E+00
 -1       716 8.68545E+00
 -1       717 5.44045E+00
 -1       718 1.39750E+01
 -1       719 2.74310E-01
 -1       720 3.13425E-01
 -1       721 4.01322E-01
 -1       722 3.09842E+00
 -1       723 3.59799E-01
 -1       724 3.59519E-01
 -1       725 1.51906E+01
 -1       726 1.46487E+01
 -1       727 6.79933E+00
 -1       728 6.16897E+00
 -1       729 4.39823E+00
 -1       730 7.27737E+00
 -1       731 4.92809E+00
 -1       732 5.54100E-02
 -1       733 1.59074E+01
 -1       734 2.45848E+00
 -1       735 4.19640E-01
 -1       736 3.37748E-01
 -1       737 7.20292E+00
 -1       738 5.93882E+00
 -1       739 1.03275E+01
 -1       740 7.09742E-02
 -1       741 4.54426E+00
 -1       742 4.58057E+00
 -1       743 4.51279E+00
 -1       744 5.76159E+00
 -1       745 9.67810E+00
 -1       746 7.67404E-02
 -1       747 3.54322E-01
 -1       748 3.75552E+00
 -1       749 6.38929E-02
 -1       750 4.36006E-01
 -1       751 1.18113E+01
 -1       752 2.40500E-01
 -1       753 3.27865E+00
 -1       754 2.27328E-01
 -1       755 9.47257E+00
 -1       756 3.01772E+00
 -1       757 2.38341E-01
 -1       758 2.19909E-01
 -1       759 1.81934E-01
 -1       760 1.41029E-01
 -1       761 1.01486E-01
 -1       762 9.28532E-02
 -1       763 1.26233E-01
 -1       764 1.90902E-01
 -1       765 2.71861E-01
 -1       766 3.65872E-01
 -1       767 4.84065E-01
 -1       768 6.13819E-01
 -1       769 7.64261E-01
 -1       770 9.18067E-01
 -1       771 1.15625E+00
 -1       772 1.45094E+00
 -1       773 1.75940E+00
 -1       774 2.05626E+00
 -1       775 1.87514E+00
 -1       776 1.87514E+00
 -1       777 4.32401E+00
 -1       778 4.99333E+00
 -1       779 1.96318E+00
 -1       780 1.75790E+00
 -1       781 1.50065E+00
 -1       782 1.20594E+00
 -1       783 9.50181E-01
 -1       784 8.01348E-01
 -1       785 6.55177E-01
 -1       786 5.31508E-01
 -1       787 4.21523E-01
 -1       788 3.27099E-01
 -1       789 2.53250E-01
 -1       790 1.93712E-01
 -1       791 1.42171E-01
 -1       792 9.98432E-02
 -1       793 6.12333E+00
 -1       794 2.64352E+00
 -1       795 1.20371E-01
 -1       796 2.12018E-01
 -1       797 3.21774E-01
 -1       798 4.59961E-01
 -1       799 6.21484E-01
 -1       800 8.03988E-01
 -1       801 1.04162E+00
 -1       802 1.35569E+00
 -1       803 1.79215E+00
 -1       804 2.31807E+00
 -1       805 4.04942E+00
 -1       806 3.78904E+00
 -1       807 3.19976E+00
 -1       808 2.08584E+00
 -1       809 1.58622E+00
 -1       810 1.21481E+00
 -1       811 9.40806E-01
 -1       812 7.43129E-01
 -1       813 5.79519E-01
 -1       814 4.40696E-01
 -1       815 3.27064E-01
 -1       816 2.36439E-01
 -1       817 1.73324E-01
 -1       818 1.23049E-01
 -1       819 9.63281E-02
 -1       820 1.23502E-01
 -1       821 1.23502E-01
 -1       822 9.22295E+00
 -1       823 9.65405E+00
 -1       824 2.68958E-01
 -1       825 1.22157E-01
 -1       826 4.78760E+00
 -1       827 1.03089E-01
 -1       828 1.65225E-01
 -1       829 1.25272E-01
 -1       830 8.64853E-02
 -1       831 2.12895E-01
 -1       832 5.90099E+00
 -1       833 9.24522E+00
 -1       834 5.01621E+00
 -1       835 8.35635E+00
 -1       836 1.18113E+01
 -1       837 2.76380E-01
 -1       838 2.61706E-01
 -1       839 3.28138E+00
 -1       840 2.83266E-01
 -1       841 2.74937E-01
 -1       842 2.79191E-01
 -1       843 2.92178E-01
 -1       844 2.71115E+00
 -1       845 2.24652E+00
 -1       846 7.31958E+00
 -1       847 7.31958E+00
 -1       848 5.28987E+00
 -1       849 2.78159E-01
 -1       850 1.27908E-01
 -1       851 2.83087E-01
 -1       852 1.27908E-01
 -1       853 2.66303E-01
 -1       854 7.27625E+00
 -1       855 4.34752E+00
 -1       856 1.21702E-01
 -1       857 7.74289E+00
 -1       858 2.83266E-01
 -1       859 9.15085E-02
 -1       860 1.53933E-01
 -1       861 1.49083E-01
 -1       862 1.24804E-01
 -1       863 1.12260E-01
 -1       864 1.26161E-01
 -1       865 1.38490E-01
 -1       866 1.90902E-01
 -1       867 2.71861E-01
 -1       868 3.61832E-01
 -1       869 4.58358E-01
 -1       870 5.87423E-01
 -1       871 7.36641E-01
 -1       872 9.83863E-01
 -1       873 1.29664E+00
 -1       874 1.63443E+00
 -1       875 2.09894E+00
 -1       876 3.58793E+00
 -1       877 3.03813E+00
 -1       878 2.70173E+00
 -1       879 1.76069E+00
 -1       880 1.35018E+00
 -1       881 1.03473E+00
 -1       882 7.74929E-01
 -1       883 6.18720E-01
 -1       884 4.95200E-01
 -1       885 4.05544E-01
 -1       886 3.23194E-01
 -1       887 2.50757E-01
 -1       888 1.88798E-01
 -1       889 3.07432E-01
 -1       890 7.94358E-01
 -1       891 1.03487E+00
 -1       892 1.32458E+00
 -1       893 1.71369E+00
 -1       894 2.38344E+00
 -1       895 3.67101E+00
 -1       896 3.75649E+00
 -1       897 7.27625E+00
 -1       898 6.34380E+00
 -1       899 4.84386E+00
 -1       900 6.65220E+00
 -1       901 1.50872E+00
 -1       902 1.19511E+00
 -1       903 9.35513E-01
 -1       904 7.23741E-01
 -1       905 5.53538E-01
 -1       906 4.17921E-01
 -1       907 3.10550E-01
 -1       908 2.24672E-01
 -1       909 1.67371E-01
 -1       910 1.63574E-01
 -1       911 2.83087E-01
 -1       912 2.04860E+00
 -1       913 5.98837E+00
 -1       914 1.61397E-01
 -1       915 5.97818E-01
 -1       916 4.37799E-01
 -1       917 6.38055E+00
 -1       918 1.45933E-01
 -1       919 2.29095E+00
 -1       920 1.15602E-01
 -1       921 2.01026E-01
 -1       922 1.58628E-01
 -1       923 1.38033E-01
 -1       924 6.55802E+00
 -1       925 1.06038E-01
 -1       926 1.63574E-01
 -1       927 1.76581E-01
 -1       928 2.08427E-01
 -1       929 1.87764E-01
 -1       930 2.11219E-01
 -1       931 3.07004E+00
 -1       932 5.95824E+00
 -1       933 1.34372E-01
 -1       934 1.21099E-01
 -1       935 5.46736E+00
 -1       936 1.60561E-01
 -1       937 1.37332E-01
 -1       938 2.23591E-01
 -1       939 2.06523E-01
 -1       940 2.06523E-01
 -1       941 4.04357E+00
 -1       942 5.41882E+00
 -1       943 1.02929E-01
 -1       944 5.09767E+00
 -1       945 1.04028E-01
 -1       946 1.17974E-01
 -1       947 1.41047E-01
 -1       948 1.62375E-01
 -1       949 1.84998E-01
 -1       950 2.57379E-01
 -1       951 3.49190E-01
 -1       952 4.58358E-01
 -1       953 5.87423E-01
 -1       954 7.36641E-01
 -1       955 9.54846E-01
 -1       956 1.26915E+00
 -1       957 1.91266E+00
 -1       958 3.45125E+00
 -1       959 4.04951E+00
 -1       960 1.25545E+00
 -1       961 2.65721E-01
 -1       962 2.09479E-01
 -1       963 1.99427E+00
 -1       964 1.32759E+00
 -1       965 9.91445E-01
 -1       966 7.66791E-01
 -1       967 6.18720E-01
 -1       968 4.91432E-01
 -1       969 3.84990E-01
 -1       970 2.97492E-01
 -1       971 2.24944E-01
 -1       972 9.30764E-01
 -1       973 2.38181E+00
 -1       974 3.33548E+00
 -1       975 1.10296E+00
 -1       976 2.58832E+00
 -1       977 8.28467E-01
 -1       978 1.48883E+00
 -1       979 6.26803E-01
 -1       980 4.74342E-01
 -1       981 3.57442E-01
 -1       982 2.68575E-01
 -1       983 1.21553E-01
 -1       984 2.09479E-01
 -1       985 2.00830E+00
 -1       986 4.16733E+00
 -1       987 2.23591E-01
 -1       988 1.64781E-01
 -1       989 6.93597E-01
 -1       990 3.44614E+00
 -1       991 1.71369E+00
 -1       992 1.57473E-01
 -1       993 5.46736E+00
 -1       994 1.17579E-01
 -1       995 1.24667E-01
 -1       996 3.28729E+00
 -1       997 3.58793E+00
 -1       998 3.76006E-01
 -1       999 1.86908E-01
 -1      1000 4.16733E+00
 -1      1001 1.99514E-01
 -1      1002 3.45125E+00
 -1      1003 5.14795E-01
 -1      1004 1.39476E-01
 -1      1005 1.99514E-01
 -1      1006 2.43901E-01
 -1      1007 5.85981E+00
 -1      1008 1.50568E-01
 -1      1009 1.42863E-01
 -1      1010 3.94472E+00
 -1      1011 1.97214E-01
 -1      1012 1.19667E-01
 -1      1013 1.41047E-01
 -1      1014 1.67307E-01
 -1      1015 1.92391E-01
 -1      1016 2.38448E-01
 -1      1017 3.02995E-01
 -1      1018 4.06407E-01
 -1      1019 5.41770E-01
 -1      1020 7.20292E-01
 -1      1021 9.54846E-01
 -1      1022 1.26915E+00
 -1      1023 2.46059E+00
 -1      1024 1.29535E+00
 -1      1025 9.91445E-01
 -1      1026 7.48759E-01
 -1      1027 5.67441E-01
 -1      1028 4.31121E-01
 -1      1029 3.26729E-01
 -1      1030 2.78509E-01
 -1      1031 9.65584E-01
 -1      1032 2.77170E+00
 -1      1033 6.29017E-01
 -1      1034 2.91486E+00
 -1      1035 1.53483E-01
 -1      1036 1.57473E-01
 -1      1037 4.76252E-01
 -1      1038 1.16261E+00
 -1      1039 3.61921E-01
 -1      1040 3.09192E-01
 -1      1041 4.39638E+00
 -1      1042 1.35971E+00
 -1      1043 1.65198E+00
 -1      1044 1.01008E-01
 -1      1045 2.62822E+00
 -1      1046 8.44759E-01
 -1      1047 4.10038E+00
 -1      1048 2.04849E+00
 -1      1049 8.16867E-02
 -1      1050 2.57140E-01
 -1      1051 3.67820E+00
 -1      1052 1.50568E-01
 -1      1053 3.27175E+00
 -1      1054 7.08120E-01
 -1      1055 1.17579E-01
 -1      1056 9.30598E-02
 -1      1057 8.20868E-02
 -1      1058 2.70664E+00
 -1      1059 2.91152E-01
 -1      1060 2.97073E-01
 -1      1061 9.06891E-02
 -1      1062 2.79869E+00
 -1      1063 3.78228E+00
 -1      1064 5.26948E-01
 -1      1065 1.44914E-01
 -1      1066 7.51624E-02
 -1      1067 2.79869E+00
 -1      1068 2.78509E-01
 -1      1069 8.57808E-02
 -1      1070 1.67307E-01
 -1      1071 1.92391E-01
 -1      1072 2.66333E-01
 -1      1073 3.09656E-01
 -1      1074 3.52116E-01
 -1      1075 4.24389E-01
 -1      1076 7.75039E-01
 -1      1077 1.12201E+00
 -1      1078 1.63534E+00
 -1      1079 2.79869E+00
 -1      1080 2.48871E-01
 -1      1081 2.25390E-01
 -1      1082 8.72080E-01
 -1      1083 8.42120E-01
 -1      1084 6.05599E-01
 -1      1085 4.41638E-01
 -1      1086 3.18303E+00
 -1      1087 1.20501E+00
 -1      1088 8.20868E-02
 -1      1089 3.73306E-01
 -1      1090 1.12201E+00
 -1      1091 3.93680E-01
 -1      1092 1.47056E-01
 -1      1093 1.20060E+00
 -1      1094 2.39303E+00
 -1      1095 6.44477E-01
 -1      1096 1.85289E+00
 -1      1097 2.78509E-01
 -1      1098 4.89733E-01
 -1      1099 1.56618E-01
 -1      1100 7.75039E-01
 -1      1101 3.18303E+00
 -1      1102 9.66046E-02
 -1      1103 7.12308E-01
 -1      1104 9.66046E-02
 -1      1105 2.97073E-01
 -1      1106 1.15289E-01
 -1      1107 3.29551E-01
 -1      1108 1.46701E-01
 -1      1109 3.09192E-01
 -1      1110 3.57239E-01
 -1      1111 9.24125E-02
 -1      1112 2.40928E-01
 -1      1113 2.97073E-01
 -1      1114 7.12308E-01
 -1      1115 1.60714E-01
 -1      1116 2.40928E-01
 -1      1117 4.50745E-01
 -1      1118 4.24389E-01
 -1      1119 1.47056E-01
 -1      1120 1.31486E+01
 -1      1121 8.39768E+00
 -1      1122 2.72731E+00
 -1      1123 1.54559E+00
 -1      1124 1.16103E+00
 -1      1125 9.65566E-01
 -1      1126 8.47302E-01
 -1      1127 7.75361E-01
 -1      1128 7.49575E-01
 -1      1129 7.78581E-01
 -1      1130 8.50341E-01
 -1      1131 9.69719E-01
 -1      1132 1.17239E+00
 -1      1133 1.55945E+00
 -1      1134 2.65393E+00
 -1      1135 6.06139E+00
 -1      1136 1.13396E+01
 -1      1137 1.31486E+01
 -1      1138 8.74265E+00
 -1      1139 3.84961E+00
 -1      1140 2.74885E+00
 -1      1141 1.76207E+00
 -1      1142 1.22334E+00
 -1      1143 9.43538E-01
 -1      1144 7.45535E-01
 -1      1145 5.98440E-01
 -1      1146 4.87009E-01
 -1      1147 4.02376E-01
 -1      1148 3.43423E-01
 -1      1149 3.38768E-01
 -1      1150 3.77548E-01
 -1      1151 4.19910E-01
 -1      1152 4.58140E-01
 -1      1153 5.36901E-01
 -1      1154 6.76434E-01
 -1      1155 8.22292E-01
 -1      1156 9.27322E-01
 -1      1157 9.64137E-01
 -1      1158 9.86196E-01
 -1      1159 1.00826E+00
 -1      1160 1.16238E+00
 -1      1161 1.62012E+00
 -1      1162 2.38180E+00
 -1      1163 3.01146E+00
 -1      1164 3.18304E+00
 -1      1165 3.17753E+00
 -1      1166 3.04629E+00
 -1      1167 2.48822E+00
 -1      1168 1.70283E+00
 -1      1169 1.17682E+00
 -1      1170 1.00387E+00
 -1      1171 9.78808E-01
 -1      1172 9.53745E-01
 -1      1173 9.21584E-01
 -1      1174 8.22468E-01
 -1      1175 6.78015E-01
 -1      1176 5.39458E-01
 -1      1177 4.39124E-01
 -1      1178 3.71606E-01
 -1      1179 3.13585E-01
 -1      1180 2.55493E-01
 -1      1181 2.01730E-01
 -1      1182 1.55221E-01
 -1      1183 1.26597E-01
 -1      1184 1.06694E-01
 -1      1185 7.26015E-02
 -1      1186 3.26658E-02
 -1      1187 1.40449E+01
 -1      1188 8.72854E+00
 -1      1189 2.92276E+00
 -1      1190 2.06130E+00
 -1      1191 1.43069E+00
 -1      1192 1.06247E+00
 -1      1193 8.72725E-01
 -1      1194 7.30208E-01
 -1      1195 6.19613E-01
 -1      1196 5.35876E-01
 -1      1197 4.76213E-01
 -1      1198 4.38398E-01
 -1      1199 4.21696E-01
 -1      1200 4.49241E-01
 -1      1201 5.25119E-01
 -1      1202 6.20950E-01
 -1      1203 7.20494E-01
 -1      1204 8.05667E-01
 -1      1205 8.53230E-01
 -1      1206 9.95774E-01
 -1      1207 1.27021E+00
 -1      1208 1.48604E+00
 -1      1209 1.72481E+00
 -1      1210 1.92568E+00
 -1      1211 2.14204E+00
 -1      1212 2.73885E+00
 -1      1213 3.78996E+00
 -1      1214 4.71717E+00
 -1      1215 5.00828E+00
 -1      1216 4.83333E+00
 -1      1217 3.73150E+00
 -1      1218 2.25580E+00
 -1      1219 1.64093E+00
 -1      1220 1.69057E+00
 -1      1221 1.80627E+00
 -1      1222 1.76344E+00
 -1      1223 1.60205E+00
 -1      1224 1.36322E+00
 -1      1225 1.12440E+00
 -1      1226 8.93679E-01
 -1      1227 6.83886E-01
 -1      1228 5.07231E-01
 -1      1229 3.81573E-01
 -1      1230 2.95717E-01
 -1      1231 2.24269E-01
 -1      1232 1.65627E-01
 -1      1233 1.16765E-01
 -1      1234 8.39869E-02
 -1      1235 5.78925E-02
 -1      1236 2.76187E-02
 -1      1237 1.49666E-02
 -1      1238 1.73590E-02
 -1      1239 1.78806E-02
 -1      1240 1.47081E-02
 -1      1241 9.29971E-03
 -1      1242 1.02052E-02
 -1      1243 1.53587E-02
 -1      1244 1.78998E-02
 -1      1245 1.84288E-02
 -1      1246 1.76692E-02
 -1      1247 1.47105E-02
 -1      1248 9.50833E-03
 -1      1249 8.90789E-03
 -1      1250 1.41087E-02
 -1      1251 1.93716E-02
 -1      1252 2.26582E-02
 -1      1253 1.89803E-02
 -1      1254 2.67087E+01
 -1      1255 3.71038E+01
 -1      1256 4.74989E+01
 -1      1257 3.41819E+01
 -1      1258 1.67654E+01
 -1      1259 1.26660E+01
 -1      1260 1.26175E+01
 -1      1261 1.31105E+01
 -1      1262 1.36520E+01
 -1      1263 1.32610E+01
 -1      1264 2.09541E+01
 -1      1265 2.97999E+01
 -1      1266 2.95852E+01
 -1      1267 2.67160E+01
 -1      1268 2.47551E+01
 -1      1269 2.51214E+01
 -1      1270 3.12934E+01
 -1      1271 3.70308E+01
 -1      1272 2.55127E+01
 -1      1273 1.36806E+01
 -1      1274 1.33666E+01
 -1      1275 1.28006E+01
 -1      1276 1.22346E+01
 -1      1277 1.20784E+01
 -1      1278 1.46336E+01
 -1      1279 3.13141E+01
 -1      1280 4.52833E+01
 -1      1281 3.48637E+01
 -1      1282 2.55764E+01
 -1      1283 1.31486E+01
 -1      1284 4.85195E+00
 -1      1285 9.60283E+00
 -1      1286 2.04515E+00
 -1      1287 2.96464E+00
 -1      1288 4.16979E+00
 -1      1289 1.39188E+00
 -1      1290 1.65412E+00
 -1      1291 1.89144E+00
 -1      1292 1.09475E+00
 -1      1293 1.21707E+00
 -1      1294 1.32560E+00
 -1      1295 9.29806E-01
 -1      1296 1.00294E+00
 -1      1297 1.05899E+00
 -1      1298 8.30240E-01
 -1      1299 8.75368E-01
 -1      1300 9.12744E-01
 -1      1301 7.69463E-01
 -1      1302 7.96276E-01
 -1      1303 8.24341E-01
 -1      1304 7.50602E-01
 -1      1305 7.49575E-01
 -1      1306 7.70490E-01
 -1      1307 8.00227E-01
 -1      1308 7.72248E-01
 -1      1309 7.72248E-01
 -1      1310 8.77867E-01
 -1      1311 8.34086E-01
 -1      1312 8.27753E-01
 -1      1313 1.01017E+00
 -1      1314 9.34572E-01
 -1      1315 9.18317E-01
 -1      1316 1.23262E+00
 -1      1317 1.10555E+00
 -1      1318 1.07040E+00
 -1      1319 1.66950E+00
 -1      1320 1.40951E+00
 -1      1321 1.34267E+00
 -1      1322 2.86986E+00
 -1      1323 2.03538E+00
 -1      1324 1.88543E+00
 -1      1325 6.27643E+00
 -1      1326 3.70346E+00
 -1      1327 3.08490E+00
 -1      1328 1.40449E+01
 -1      1329 1.13396E+01
 -1      1330 8.98171E+00
 -1      1331 1.40449E+01
 -1      1332 8.74265E+00
 -1      1333 4.33674E+00
 -1      1334 3.84961E+00
 -1      1335 3.36248E+00
 -1      1336 3.84961E+00
 -1      1337 2.74885E+00
 -1      1338 2.13522E+00
 -1      1339 2.74885E+00
 -1      1340 1.80101E+00
 -1      1341 1.42786E+00
 -1      1342 1.80101E+00
 -1      1343 1.22334E+00
 -1      1344 1.05777E+00
 -1      1345 1.26229E+00
 -1      1346 9.43538E-01
 -1      1347 8.29309E-01
 -1      1348 9.43538E-01
 -1      1349 7.45535E-01
 -1      1350 6.61761E-01
 -1      1351 7.45535E-01
 -1      1352 5.98440E-01
 -1      1353 5.35120E-01
 -1      1354 5.98440E-01
 -1      1355 4.87009E-01
 -1      1356 4.38898E-01
 -1      1357 4.87009E-01
 -1      1358 4.02376E-01
 -1      1359 3.65855E-01
 -1      1360 4.02376E-01
 -1      1361 3.37690E-01
 -1      1362 3.15259E-01
 -1      1363 3.37690E-01
 -1      1364 3.20992E-01
 -1      1365 3.38768E-01
 -1      1366 3.15259E-01
 -1      1367 3.56545E-01
 -1      1368 3.77548E-01
 -1      1369 3.38768E-01
 -1      1370 3.98550E-01
 -1      1371 4.19910E-01
 -1      1372 3.77548E-01
 -1      1373 4.41270E-01
 -1      1374 4.58140E-01
 -1      1375 4.19910E-01
 -1      1376 4.97081E-01
 -1      1377 5.58972E-01
 -1      1378 4.80211E-01
 -1      1379 6.10126E-01
 -1      1380 6.87769E-01
 -1      1381 5.70307E-01
 -1      1382 7.54077E-01
 -1      1383 8.22292E-01
 -1      1384 6.87769E-01
 -1      1385 8.90507E-01
 -1      1386 9.27322E-01
 -1      1387 8.22292E-01
 -1      1388 9.64137E-01
 -1      1389 9.64137E-01
 -1      1390 9.27322E-01
 -1      1391 9.39183E-01
 -1      1392 9.61242E-01
 -1      1393 9.39183E-01
 -1      1394 1.00826E+00
 -1      1395 1.00826E+00
 -1      1396 9.61242E-01
 -1      1397 9.78132E-01
 -1      1398 1.13226E+00
 -1      1399 9.78132E-01
 -1      1400 1.31651E+00
 -1      1401 1.62012E+00
 -1      1402 1.13226E+00
 -1      1403 1.92373E+00
 -1      1404 2.38180E+00
 -1      1405 1.62012E+00
 -1      1406 2.83988E+00
 -1      1407 3.01146E+00
 -1      1408 2.38180E+00
 -1      1409 3.18304E+00
 -1      1410 3.18304E+00
 -1      1411 3.01146E+00
 -1      1412 3.17753E+00
 -1      1413 3.17203E+00
 -1      1414 3.17753E+00
 -1      1415 3.04629E+00
 -1      1416 2.92055E+00
 -1      1417 3.04629E+00
 -1      1418 2.48822E+00
 -1      1419 2.05588E+00
 -1      1420 2.48822E+00
 -1      1421 1.70283E+00
 -1      1422 1.34977E+00
 -1      1423 1.70283E+00
 -1      1424 1.17577E+00
 -1      1425 1.00281E+00
 -1      1426 1.17577E+00
 -1      1427 1.00387E+00
 -1      1428 1.00387E+00
 -1      1429 1.00281E+00
 -1      1430 9.67002E-01
 -1      1431 9.41939E-01
 -1      1432 9.67002E-01
 -1      1433 9.53745E-01
 -1      1434 9.53745E-01
 -1      1435 9.41939E-01
 -1      1436 9.21584E-01
 -1      1437 8.89423E-01
 -1      1438 9.21584E-01
 -1      1439 8.22468E-01
 -1      1440 7.55513E-01
 -1      1441 8.22468E-01
 -1      1442 6.90778E-01
 -1      1443 6.13281E-01
 -1      1444 6.90778E-01
 -1      1445 5.66818E-01
 -1      1446 5.05758E-01
 -1      1447 5.79581E-01
 -1      1448 4.61808E-01
 -1      1449 4.22534E-01
 -1      1450 4.89168E-01
 -1      1451 3.76605E-01
 -1      1452 3.48360E-01
 -1      1453 3.99289E-01
 -1      1454 3.13585E-01
 -1      1455 2.83810E-01
 -1      1456 3.18585E-01
 -1      1457 2.55493E-01
 -1      1458 2.27176E-01
 -1      1459 2.55493E-01
 -1      1460 2.01988E-01
 -1      1461 1.76542E-01
 -1      1462 2.01988E-01
 -1      1463 1.56826E-01
 -1      1464 1.35764E-01
 -1      1465 1.57085E-01
 -1      1466 1.26597E-01
 -1      1467 1.19036E-01
 -1      1468 1.28203E-01
 -1      1469 1.06694E-01
 -1      1470 9.43519E-02
 -1      1471 1.06694E-01
 -1      1472 7.36580E-02
 -1      1473 5.19076E-02
 -1      1474 7.36580E-02
 -1      1475 3.71655E-02
 -1      1476 3.82221E-02
 -1      1477 3.41216E+00
 -1      1478 8.72854E+00
 -1      1479 8.72854E+00
 -1      1480 2.43336E+00
 -1      1481 2.92276E+00
 -1      1482 2.92276E+00
 -1      1483 1.68925E+00
 -1      1484 2.06130E+00
 -1      1485 2.06130E+00
 -1      1486 1.17213E+00
 -1      1487 1.43069E+00
 -1      1488 1.43069E+00
 -1      1489 9.52810E-01
 -1      1490 1.06247E+00
 -1      1491 1.06247E+00
 -1      1492 7.92640E-01
 -1      1493 8.72725E-01
 -1      1494 8.72725E-01
 -1      1495 6.67775E-01
 -1      1496 7.30208E-01
 -1      1497 7.30208E-01
 -1      1498 5.71451E-01
 -1      1499 6.19613E-01
 -1      1500 6.19613E-01
 -1      1501 5.00301E-01
 -1      1502 5.35876E-01
 -1      1503 5.35876E-01
 -1      1504 4.52126E-01
 -1      1505 4.76213E-01
 -1      1506 4.76213E-01
 -1      1507 4.24670E-01
 -1      1508 4.38398E-01
 -1      1509 4.38398E-01
 -1      1510 4.16842E-01
 -1      1511 4.19816E-01
 -1      1512 4.19816E-01
 -1      1513 4.49241E-01
 -1      1514 4.18722E-01
 -1      1515 4.16842E-01
 -1      1516 5.31220E-01
 -1      1517 4.85861E-01
 -1      1518 4.55342E-01
 -1      1519 6.22533E-01
 -1      1520 5.72061E-01
 -1      1521 5.32803E-01
 -1      1522 7.20494E-01
 -1      1523 6.71422E-01
 -1      1524 6.22533E-01
 -1      1525 8.05667E-01
 -1      1526 7.69566E-01
 -1      1527 7.20494E-01
 -1      1528 8.53230E-01
 -1      1529 8.41768E-01
 -1      1530 8.05667E-01
 -1      1531 1.05411E+00
 -1      1532 9.23028E-01
 -1      1533 9.11566E-01
 -1      1534 1.28539E+00
 -1      1535 1.14204E+00
 -1      1536 1.06929E+00
 -1      1537 1.48604E+00
 -1      1538 1.41357E+00
 -1      1539 1.28539E+00
 -1      1540 1.72481E+00
 -1      1541 1.55852E+00
 -1      1542 1.48604E+00
 -1      1543 1.92568E+00
 -1      1544 1.89110E+00
 -1      1545 1.72481E+00
 -1      1546 2.14204E+00
 -1      1547 1.96026E+00
 -1      1548 1.92568E+00
 -1      1549 2.73885E+00
 -1      1550 2.32383E+00
 -1      1551 2.14204E+00
 -1      1552 3.78996E+00
 -1      1553 3.15386E+00
 -1      1554 2.73885E+00
 -1      1555 4.71717E+00
 -1      1556 4.42606E+00
 -1      1557 3.78996E+00
 -1      1558 5.00828E+00
 -1      1559 5.00828E+00
 -1      1560 4.71717E+00
 -1      1561 4.65838E+00
 -1      1562 4.83333E+00
 -1      1563 4.83333E+00
 -1      1564 2.80462E+00
 -1      1565 3.73150E+00
 -1      1566 3.73150E+00
 -1      1567 1.70698E+00
 -1      1568 2.25580E+00
 -1      1569 2.25580E+00
 -1      1570 1.50632E+00
 -1      1571 1.57237E+00
 -1      1572 1.57237E+00
 -1      1573 1.69057E+00
 -1      1574 1.57488E+00
 -1      1575 1.50632E+00
 -1      1576 1.80627E+00
 -1      1577 1.80627E+00
 -1      1578 1.69057E+00
 -1      1579 1.72061E+00
 -1      1580 1.76344E+00
 -1      1581 1.76344E+00
 -1      1582 1.48349E+00
 -1      1583 1.60205E+00
 -1      1584 1.60205E+00
 -1      1585 1.24295E+00
 -1      1586 1.36322E+00
 -1      1587 1.36322E+00
 -1      1588 1.01400E+00
 -1      1589 1.13255E+00
 -1      1590 1.13255E+00
 -1      1591 7.99017E-01
 -1      1592 9.11187E-01
 -1      1593 9.19339E-01
 -1      1594 6.07613E-01
 -1      1595 7.05235E-01
 -1      1596 7.22743E-01
 -1      1597 4.48554E-01
 -1      1598 5.27588E-01
 -1      1599 5.48936E-01
 -1      1600 3.36927E-01
 -1      1601 3.83552E-01
 -1      1602 4.03909E-01
 -1      1603 2.56485E-01
 -1      1604 2.95717E-01
 -1      1605 2.97695E-01
 -1      1606 1.92053E-01
 -1      1607 2.24269E-01
 -1      1608 2.24269E-01
 -1      1609 1.39200E-01
 -1      1610 1.65627E-01
 -1      1611 1.65627E-01
 -1      1612 9.64228E-02
 -1      1613 1.18858E-01
 -1      1614 1.18858E-01
 -1      1615 7.36433E-02
 -1      1616 8.39869E-02
 -1      1617 8.60793E-02
 -1      1618 4.21417E-02
 -1      1619 5.78925E-02
 -1      1620 5.78925E-02
 -1      1621 2.94895E-02
 -1      1622 2.24179E-02
 -1      1623 2.18963E-02
 -1      1624 2.38729E-02
 -1      1625 2.38729E-02
 -1      1626 2.84102E-02
 -1      1627 2.07004E-02
 -1      1628 2.38729E-02
 -1      1629 2.98652E-02
 -1      1630 1.16224E-02
 -1      1631 1.38583E-02
 -1      1632 2.30231E-02
 -1      1633 1.93929E-02
 -1      1634 1.62515E-02
 -1      1635 2.08101E-02
 -1      1636 2.55043E-02
 -1      1637 2.34922E-02
 -1      1638 2.95385E-02
 -1      1639 2.75456E-02
 -1      1640 2.70166E-02
 -1      1641 3.51501E-02
 -1      1642 2.75456E-02
 -1      1643 2.75456E-02
 -1      1644 3.66624E-02
 -1      1645 2.66697E-02
 -1      1646 2.74292E-02
 -1      1647 3.65460E-02
 -1      1648 2.23846E-02
 -1      1649 2.45838E-02
 -1      1650 3.43438E-02
 -1      1651 1.51663E-02
 -1      1652 1.81692E-02
 -1      1653 2.80425E-02
 -1      1654 1.35790E-02
 -1      1655 1.11766E-02
 -1      1656 1.98374E-02
 -1      1657 2.29390E-02
 -1      1658 2.01407E-02
 -1      1659 2.24094E-02
 -1      1660 2.54037E-02
 -1      1661 2.29390E-02
 -1      1662 2.89710E-02
 -1      1663 2.85319E-02
 -1      1664 2.77101E-02
 -1      1665 3.12774E-02
 -1      1666 4.32740E-02
 -1      1667 2.93163E+01
 -1      1668 2.93163E+01
 -1      1669 3.84576E+01
 -1      1670 2.80625E+01
 -1      1671 4.74989E+01
 -1      1672 4.74989E+01
 -1      1673 2.14174E+01
 -1      1674 3.47344E+01
 -1      1675 1.19336E+01
 -1      1676 1.60330E+01
 -1      1677 1.26660E+01
 -1      1678 1.26660E+01
 -1      1679 1.23968E+01
 -1      1680 1.24452E+01
 -1      1681 1.31105E+01
 -1      1682 1.25691E+01
 -1      1683 1.36520E+01
 -1      1684 1.36520E+01
 -1      1685 1.24564E+01
 -1      1686 1.28474E+01
 -1      1687 2.09541E+01
 -1      1688 1.28701E+01
 -1      1689 3.05617E+01
 -1      1690 2.97999E+01
 -1      1691 2.95852E+01
 -1      1692 3.05617E+01
 -1      1693 2.49558E+01
 -1      1694 2.68485E+01
 -1      1695 2.64102E+01
 -1      1696 2.64784E+01
 -1      1697 2.68447E+01
 -1      1698 2.64102E+01
 -1      1699 3.53995E+01
 -1      1700 2.96621E+01
 -1      1701 3.70308E+01
 -1      1702 3.70308E+01
 -1      1703 1.39947E+01
 -1      1704 2.55127E+01
 -1      1705 1.23808E+01
 -1      1706 1.26948E+01
 -1      1707 1.33666E+01
 -1      1708 1.33666E+01
 -1      1709 1.22308E+01
 -1      1710 1.27968E+01
 -1      1711 1.22346E+01
 -1      1712 1.22346E+01
 -1      1713 1.19222E+01
 -1      1714 1.20784E+01
 -1      1715 1.39745E+01
 -1      1716 1.12632E+01
 -1      1717 3.15102E+01
 -1      1718 1.75410E+01
 -1      1719 4.52833E+01
 -1      1720 4.52833E+01
 -1      1721 3.19662E+01
 -1      1722 4.23858E+01
 -1      1723 2.89869E+01
 -1      1724 2.78546E+01
 -1      1725 1.65855E+01
 -1      1726 3.47344E+01
 -1      1727 2.94895E-02
 -1      1728 3.45484E-02
 -1      1729 3.06702E+01
 -1      1730 3.84576E+01
 -1      1731 3.15946E+01
 -1      1732 1.19336E+01
 -1      1733 1.24452E+01
 -1      1734 1.23968E+01
 -1      1735 1.31105E+01
 -1      1736 1.28474E+01
 -1      1737 1.24564E+01
 -1      1738 2.17159E+01
 -1      1739 3.05617E+01
 -1      1740 2.78250E+01
 -1      1741 2.66108E+01
 -1      1742 2.81334E+01
 -1      1743 3.09508E+01
 -1      1744 3.53995E+01
 -1      1745 2.55127E+01
 -1      1746 1.26948E+01
 -1      1747 1.23808E+01
 -1      1748 1.27968E+01
 -1      1749 1.22308E+01
 -1      1750 1.20784E+01
 -1      1751 1.12632E+01
 -1      1752 1.41706E+01
 -1      1753 3.15102E+01
 -1      1754 4.23858E+01
 -1      1755 3.53767E+01
 -1      1756 9.60283E+00
 -1      1757 1.26675E+00
 -1      1758 1.65778E+00
 -1      1759 2.37248E+00
 -1      1760 4.25979E+00
 -1      1761 1.74778E+00
 -1      1762 8.76488E-01
 -1      1763 9.68294E-01
 -1      1764 7.73367E-01
 -1      1765 8.27805E-01
 -1      1766 7.37111E-01
 -1      1767 7.08276E-01
 -1      1768 7.42241E-01
 -1      1769 6.57301E-01
 -1      1770 6.66397E-01
 -1      1771 6.86284E-01
 -1      1772 6.04183E-01
 -1      1773 6.89706E-01
 -1      1774 6.68060E-01
 -1      1775 5.83854E-01
 -1      1776 7.45346E-01
 -1      1777 7.11488E-01
 -1      1778 6.07299E-01
 -1      1779 8.35326E-01
 -1      1780 7.78622E-01
 -1      1781 6.62356E-01
 -1      1782 9.78167E-01
 -1      1783 8.82787E-01
 -1      1784 7.43091E-01
 -1      1785 1.22254E+00
 -1      1786 1.04565E+00
 -1      1787 8.58034E-01
 -1      1788 1.69866E+00
 -1      1789 1.33279E+00
 -1      1790 1.03576E+00
 -1      1791 2.61598E+00
 -1      1792 1.78239E+00
 -1      1793 1.22974E+00
 -1      1794 8.12288E+00
 -1      1795 3.05967E+00
 -1      1796 1.75715E+00
 -1      1797 2.80650E+00
 -1      1798 5.19692E+00
 -1      1799 2.17290E+00
 -1      1800 2.66230E+00
 -1      1801 2.05663E+00
 -1      1802 3.39961E+00
 -1      1803 2.55325E+00
 -1      1804 1.93962E+00
 -1      1805 1.70885E+00
 -1      1806 1.37465E+00
 -1      1807 1.51325E+00
 -1      1808 1.19420E+00
 -1      1809 9.89683E-01
 -1      1810 1.10204E+00
 -1      1811 8.69029E-01
 -1      1812 7.54800E-01
 -1      1813 8.00945E-01
 -1      1814 7.03973E-01
 -1      1815 6.20199E-01
 -1      1816 6.29463E-01
 -1      1817 5.74565E-01
 -1      1818 5.11245E-01
 -1      1819 5.33003E-01
 -1      1820 4.70998E-01
 -1      1821 4.22887E-01
 -1      1822 4.47123E-01
 -1      1823 3.87822E-01
 -1      1824 3.51300E-01
 -1      1825 3.71811E-01
 -1      1826 3.20579E-01
 -1      1827 2.92415E-01
 -1      1828 3.06025E-01
 -1      1829 2.81554E-01
 -1      1830 2.87287E-01
 -1      1831 2.64443E-01
 -1      1832 3.02195E-01
 -1      1833 3.19972E-01
 -1      1834 2.68490E-01
 -1      1835 3.36690E-01
 -1      1836 3.57693E-01
 -1      1837 3.00117E-01
 -1      1838 3.82669E-01
 -1      1839 4.04029E-01
 -1      1840 3.41812E-01
 -1      1841 4.48265E-01
 -1      1842 4.87206E-01
 -1      1843 4.11023E-01
 -1      1844 5.24791E-01
 -1      1845 5.75945E-01
 -1      1846 4.92844E-01
 -1      1847 6.15284E-01
 -1      1848 6.81591E-01
 -1      1849 5.69768E-01
 -1      1850 7.22418E-01
 -1      1851 7.90634E-01
 -1      1852 6.49933E-01
 -1      1853 8.04433E-01
 -1      1854 8.41248E-01
 -1      1855 7.04559E-01
 -1      1856 8.07541E-01
 -1      1857 7.82587E-01
 -1      1858 6.84651E-01
 -1      1859 7.13972E-01
 -1      1860 7.60985E-01
 -1      1861 5.82329E-01
 -1      1862 7.47153E-01
 -1      1863 7.17030E-01
 -1      1864 4.99882E-01
 -1      1865 9.12383E-01
 -1      1866 1.09663E+00
 -1      1867 6.81404E-01
 -1      1868 1.32761E+00
 -1      1869 1.63122E+00
 -1      1870 1.10774E+00
 -1      1871 1.83357E+00
 -1      1872 2.29165E+00
 -1      1873 1.54107E+00
 -1      1874 2.42494E+00
 -1      1875 2.59652E+00
 -1      1876 1.87671E+00
 -1      1877 2.54679E+00
 -1      1878 2.54129E+00
 -1      1879 1.96028E+00
 -1      1880 2.59509E+00
 -1      1881 2.46935E+00
 -1      1882 1.96435E+00
 -1      1883 2.35903E+00
 -1      1884 1.92670E+00
 -1      1885 1.90783E+00
 -1      1886 1.71738E+00
 -1      1887 1.36433E+00
 -1      1888 1.58820E+00
 -1      1889 1.14846E+00
 -1      1890 9.74450E-01
 -1      1891 1.16301E+00
 -1      1892 7.61770E-01
 -1      1893 7.62826E-01
 -1      1894 7.34462E-01
 -1      1895 7.53919E-01
 -1      1896 7.17050E-01
 -1      1897 5.12874E-01
 -1      1898 7.78958E-01
 -1      1899 7.90764E-01
 -1      1900 5.65875E-01
 -1      1901 8.31689E-01
 -1      1902 7.99527E-01
 -1      1903 6.68708E-01
 -1      1904 7.90360E-01
 -1      1905 7.23405E-01
 -1      1906 7.00465E-01
 -1      1907 6.85389E-01
 -1      1908 6.20654E-01
 -1      1909 6.53281E-01
 -1      1910 5.86709E-01
 -1      1911 5.40246E-01
 -1      1912 5.81319E-01
 -1      1913 5.08544E-01
 -1      1914 4.64594E-01
 -1      1915 5.15672E-01
 -1      1916 4.25598E-01
 -1      1917 3.79669E-01
 -1      1918 4.44974E-01
 -1      1919 3.39472E-01
 -1      1920 3.04697E-01
 -1      1921 3.65781E-01
 -1      1922 2.67181E-01
 -1      1923 2.38864E-01
 -1      1924 2.88067E-01
 -1      1925 2.06120E-01
 -1      1926 1.80932E-01
 -1      1927 2.17808E-01
 -1      1928 1.57085E-01
 -1      1929 1.37369E-01
 -1      1930 1.61217E-01
 -1      1931 1.19961E-01
 -1      1932 1.10795E-01
 -1      1933 1.19961E-01
 -1      1934 9.58996E-02
 -1      1935 8.35575E-02
 -1      1936 8.76580E-02
 -1      1937 7.22016E-02
 -1      1938 5.15077E-02
 -1      1939 4.18175E-02
 -1      1940 6.14071E-02
 -1      1941 1.41718E+00
 -1      1942 1.78923E+00
 -1      1943 1.52877E+00
 -1      1944 1.03728E+00
 -1      1945 1.29584E+00
 -1      1946 1.02377E+00
 -1      1947 8.32765E-01
 -1      1948 9.42424E-01
 -1      1949 8.07580E-01
 -1      1950 6.71203E-01
 -1      1951 7.51288E-01
 -1      1952 6.31243E-01
 -1      1953 5.68778E-01
 -1      1954 6.31211E-01
 -1      1955 5.09773E-01
 -1      1956 4.97340E-01
 -1      1957 5.45502E-01
 -1      1958 4.46505E-01
 -1      1959 4.41434E-01
 -1      1960 4.77010E-01
 -1      1961 4.02898E-01
 -1      1962 4.01257E-01
 -1      1963 4.25344E-01
 -1      1964 3.66478E-01
 -1      1965 3.76190E-01
 -1      1966 3.89918E-01
 -1      1967 3.39049E-01
 -1      1968 3.64475E-01
 -1      1969 3.69329E-01
 -1      1970 3.20849E-01
 -1      1971 3.85859E-01
 -1      1972 3.83979E-01
 -1      1973 3.33492E-01
 -1      1974 4.80538E-01
 -1      1975 4.43918E-01
 -1      1976 4.11055E-01
 -1      1977 6.03748E-01
 -1      1978 5.62907E-01
 -1      1979 5.51483E-01
 -1      1980 7.42918E-01
 -1      1981 6.94029E-01
 -1      1982 7.24134E-01
 -1      1983 8.82825E-01
 -1      1984 8.33754E-01
 -1      1985 9.05250E-01
 -1      1986 9.95961E-01
 -1      1987 9.59860E-01
 -1      1988 1.07312E+00
 -1      1989 1.13448E+00
 -1      1990 1.06468E+00
 -1      1991 1.21887E+00
 -1      1992 1.24309E+00
 -1      1993 1.15516E+00
 -1      1994 1.30827E+00
 -1      1995 1.37126E+00
 -1      1996 1.24309E+00
 -1      1997 1.32896E+00
 -1      1998 1.36454E+00
 -1      1999 1.29206E+00
 -1      2000 1.24976E+00
 -1      2001 1.48739E+00
 -1      2002 1.32110E+00
 -1      2003 1.12711E+00
 -1      2004 1.62588E+00
 -1      2005 1.59129E+00
 -1      2006 1.18758E+00
 -1      2007 2.22895E+00
 -1      2008 2.04716E+00
 -1      2009 1.71278E+00
 -1      2010 2.89497E+00
 -1      2011 2.47995E+00
 -1      2012 2.38507E+00
 -1      2013 3.68451E+00
 -1      2014 3.04841E+00
 -1      2015 2.78952E+00
 -1      2016 3.87764E+00
 -1      2017 3.58653E+00
 -1      2018 2.84498E+00
 -1      2019 3.71443E+00
 -1      2020 3.88938E+00
 -1      2021 2.75874E+00
 -1      2022 2.39483E+00
 -1      2023 3.32171E+00
 -1      2024 2.37776E+00
 -1      2025 1.36961E+00
 -1      2026 1.91843E+00
 -1      2027 1.50865E+00
 -1      2028 1.22711E+00
 -1      2029 1.36172E+00
 -1      2030 1.02435E+00
 -1      2031 1.42200E+00
 -1      2032 1.35344E+00
 -1      2033 1.14278E+00
 -1      2034 1.56677E+00
 -1      2035 1.45108E+00
 -1      2036 1.29819E+00
 -1      2037 1.52709E+00
 -1      2038 1.56992E+00
 -1      2039 1.33043E+00
 -1      2040 1.35587E+00
 -1      2041 1.47443E+00
 -1      2042 1.28091E+00
 -1      2043 1.17025E+00
 -1      2044 1.29052E+00
 -1      2045 1.16290E+00
 -1      2046 9.80972E-01
 -1      2047 1.09137E+00
 -1      2048 1.01867E+00
 -1      2049 7.91794E-01
 -1      2050 8.94609E-01
 -1      2051 8.53428E-01
 -1      2052 6.15917E-01
 -1      2053 7.09699E-01
 -1      2054 6.84969E-01
 -1      2055 4.63880E-01
 -1      2056 5.43905E-01
 -1      2057 5.30861E-01
 -1      2058 3.38906E-01
 -1      2059 4.03909E-01
 -1      2060 3.98877E-01
 -1      2061 2.51229E-01
 -1      2062 2.92440E-01
 -1      2063 2.92440E-01
 -1      2064 1.89673E-01
 -1      2065 2.21889E-01
 -1      2066 2.16634E-01
 -1      2067 1.39052E-01
 -1      2068 1.65479E-01
 -1      2069 1.63099E-01
 -1      2070 9.85152E-02
 -1      2071 1.18858E-01
 -1      2072 1.18710E-01
 -1      2073 6.85218E-02
 -1      2074 8.09578E-02
 -1      2075 8.09578E-02
 -1      2076 3.81880E-02
 -1      2077 5.39388E-02
 -1      2078 4.88173E-02
 -1      2079 3.05948E-02
 -1      2080 2.44816E-02
 -1      2081 3.13237E-02
 -1      2082 4.14881E-02
 -1      2083 4.14881E-02
 -1      2084 4.29466E-02
 -1      2085 4.14881E-02
 -1      2086 4.00331E-02
 -1      2087 4.36727E-02
 -1      2088 5.31110E-02
 -1      2089 3.04632E-02
 -1      2090 2.58341E-02
 -1      2091 3.41347E-02
 -1      2092 4.08479E-02
 -1      2093 3.67486E-02
 -1      2094 4.17726E-02
 -1      2095 4.51393E-02
 -1      2096 4.36270E-02
 -1      2097 5.08371E-02
 -1      2098 4.51393E-02
 -1      2099 4.51393E-02
 -1      2100 5.36162E-02
 -1      2101 4.44175E-02
 -1      2102 4.45338E-02
 -1      2103 5.30107E-02
 -1      2104 4.23316E-02
 -1      2105 4.44175E-02
 -1      2106 5.24052E-02
 -1      2107 3.47012E-02
 -1      2108 3.89166E-02
 -1      2109 4.89902E-02
 -1      2110 2.40319E-02
 -1      2111 2.80216E-02
 -1      2112 3.88957E-02
 -1      2113 3.10382E-02
 -1      2114 2.44766E-02
 -1      2115 3.26608E-02
 -1      2116 3.77357E-02
 -1      2117 3.77357E-02
 -1      2118 3.98029E-02
 -1      2119 3.84576E+01
 -1      2120 2.94163E+01
 -1      2121 3.19240E+01
 -1      2122 3.15946E+01
 -1      2123 2.74844E+01
 -1      2124 2.87382E+01
 -1      2125 2.74844E+01
 -1      2126 1.93428E+01
 -1      2127 3.21073E+01
 -1      2128 1.04626E+01
 -1      2129 1.58470E+01
 -1      2130 1.03148E+00
 -1      2131 1.20628E+00
 -1      2132 9.72622E-01
 -1      2133 8.48975E-01
 -1      2134 1.12512E+01
 -1      2135 1.14720E+01
 -1      2136 1.18335E+01
 -1      2137 1.16612E+01
 -1      2138 1.06880E+01
 -1      2139 1.22204E+01
 -1      2140 1.16790E+01
 -1      2141 1.02915E+01
 -1      2142 1.10961E+01
 -1      2143 9.83279E+00
 -1      2144 9.41914E+00
 -1      2145 7.66784E+00
 -1      2146 2.12669E+01
 -1      2147 1.24210E+01
 -1      2148 2.57200E+01
 -1      2149 2.57200E+01
 -1      2150 2.47060E+01
 -1      2151 2.74427E+01
 -1      2152 3.30536E+01
 -1      2153 3.15310E+01
 -1      2154 3.30536E+01
 -1      2155 3.30536E+01
 -1      2156 2.94492E+01
 -1      2157 2.66318E+01
 -1      2158 3.15520E+01
 -1      2159 2.97125E+01
 -1      2160 2.80812E+01
 -1      2161 1.35192E+01
 -1      2162 2.50372E+01
 -1      2163 9.41964E+00
 -1      2164 1.07195E+01
 -1      2165 1.02757E+01
 -1      2166 9.28991E+00
 -1      2167 7.31455E+00
 -1      2168 1.12180E+01
 -1      2169 1.17877E+01
 -1      2170 1.10714E+01
 -1      2171 1.10676E+01
 -1      2172 1.12252E+01
 -1      2173 1.13815E+01
 -1      2174 9.39865E+00
 -1      2175 1.00577E+01
 -1      2176 1.31493E+01
 -1      2177 9.58278E+00
 -1      2178 3.01794E+01
 -1      2179 1.64063E+01
 -1      2180 3.35682E+01
 -1      2181 3.64657E+01
 -1      2182 2.89968E+01
 -1      2183 3.31084E+01
 -1      2184 2.93262E+01
 -1      2185 9.61212E+00
 -1      2186 8.87969E+00
 -1      2187 8.14115E+00
 -1      2188 2.91248E+00
 -1      2189 8.41810E+00
 -1      2190 2.10325E+00
 -1      2191 3.19240E+01
 -1      2192 3.19240E+01
 -1      2193 2.87382E+01
 -1      2194 2.30660E+01
 -1      2195 4.00421E-02
 -1      2196 1.32199E+01
 -1      2197 2.71882E+01
 -1      2198 2.13618E+01
 -1      2199 1.18185E+01
 -1      2200 8.37728E+00
 -1      2201 9.36072E+00
 -1      2202 1.02183E+01
 -1      2203 1.05682E+01
 -1      2204 7.47733E+00
 -1      2205 8.98937E+00
 -1      2206 1.02439E+01
 -1      2207 2.37621E+01
 -1      2208 3.79738E+01
 -1      2209 3.11488E+01
 -1      2210 2.26009E+01
 -1      2211 9.38377E+00
 -1      2212 1.09434E+01
 -1      2213 9.66450E+00
 -1      2214 1.64251E+01
 -1      2215 1.77189E+01
 -1      2216 1.00586E+01
 -1      2217 1.10255E+00
 -1      2218 1.48622E+00
 -1      2219 5.53458E-01
 -1      2220 5.84584E-01
 -1      2221 5.97273E-01
 -1      2222 6.45956E-01
 -1      2223 4.93430E-01
 -1      2224 5.05793E-01
 -1      2225 5.04130E-01
 -1      2226 5.40571E-01
 -1      2227 5.18789E-01
 -1      2228 4.39064E-01
 -1      2229 5.88806E-01
 -1      2230 5.55531E-01
 -1      2231 4.67021E-01
 -1      2232 6.48497E-01
 -1      2233 6.01037E-01
 -1      2234 4.94212E-01
 -1      2235 7.15979E-01
 -1      2236 6.48497E-01
 -1      2237 5.06442E-01
 -1      2238 8.69626E-01
 -1      2239 7.59377E-01
 -1      2240 5.49840E-01
 -1      2241 9.02439E-01
 -1      2242 1.02377E+00
 -1      2243 9.81218E-01
 -1      2244 1.27027E+00
 -1      2245 1.03950E+00
 -1      2246 7.43828E+00
 -1      2247 5.57842E+00
 -1      2248 9.95808E-01
 -1      2249 8.15366E-01
 -1      2250 7.52828E-01
 -1      2251 7.56313E-01
 -1      2252 6.35658E-01
 -1      2253 6.50079E-01
 -1      2254 5.76368E-01
 -1      2255 5.25541E-01
 -1      2256 5.31736E-01
 -1      2257 4.85225E-01
 -1      2258 4.39591E-01
 -1      2259 4.32130E-01
 -1      2260 4.14515E-01
 -1      2261 3.74268E-01
 -1      2262 3.66737E-01
 -1      2263 3.46817E-01
 -1      2264 3.11752E-01
 -1      2265 3.14209E-01
 -1      2266 2.83589E-01
 -1      2267 2.52868E-01
 -1      2268 2.58595E-01
 -1      2269 2.24403E-01
 -1      2270 2.13542E-01
 -1      2271 2.01967E-01
 -1      2272 2.24996E-01
 -1      2273 2.39905E-01
 -1      2274 1.84957E-01
 -1      2275 2.52895E-01
 -1      2276 2.69614E-01
 -1      2277 2.09401E-01
 -1      2278 3.12874E-01
 -1      2279 3.37850E-01
 -1      2280 2.65652E-01
 -1      2281 3.83209E-01
 -1      2282 4.27444E-01
 -1      2283 3.54271E-01
 -1      2284 4.69736E-01
 -1      2285 5.07321E-01
 -1      2286 4.41921E-01
 -1      2287 5.43690E-01
 -1      2288 5.83028E-01
 -1      2289 5.20581E-01
 -1      2290 6.10804E-01
 -1      2291 6.51631E-01
 -1      2292 5.84726E-01
 -1      2293 6.90382E-01
 -1      2294 7.04181E-01
 -1      2295 6.51253E-01
 -1      2296 7.24335E-01
 -1      2297 6.90628E-01
 -1      2298 7.10158E-01
 -1      2299 6.82326E-01
 -1      2300 6.13711E-01
 -1      2301 7.22010E-01
 -1      2302 6.99999E-01
 -1      2303 6.86167E-01
 -1      2304 7.99996E-01
 -1      2305 7.10503E-01
 -1      2306 9.05856E-01
 -1      2307 9.10620E-01
 -1      2308 1.06301E+00
 -1      2309 1.29399E+00
 -1      2310 1.09211E+00
 -1      2311 1.35169E+00
 -1      2312 1.55404E+00
 -1      2313 1.30696E+00
 -1      2314 1.74460E+00
 -1      2315 1.87790E+00
 -1      2316 1.55522E+00
 -1      2317 1.94638E+00
 -1      2318 1.89665E+00
 -1      2319 1.81427E+00
 -1      2320 1.97253E+00
 -1      2321 2.02633E+00
 -1      2322 1.95863E+00
 -1      2323 1.91881E+00
 -1      2324 1.80849E+00
 -1      2325 1.92699E+00
 -1      2326 1.59947E+00
 -1      2327 1.39015E+00
 -1      2328 1.61045E+00
 -1      2329 1.32052E+00
 -1      2330 1.10466E+00
 -1      2331 1.33180E+00
 -1      2332 9.27914E-01
 -1      2333 7.15234E-01
 -1      2334 1.08543E+00
 -1      2335 7.12863E-01
 -1      2336 7.03956E-01
 -1      2337 9.06316E-01
 -1      2338 6.18989E-01
 -1      2339 6.80897E-01
 -1      2340 8.18978E-01
 -1      2341 6.84409E-01
 -1      2342 7.25334E-01
 -1      2343 7.37523E-01
 -1      2344 7.10012E-01
 -1      2345 7.00844E-01
 -1      2346 7.25714E-01
 -1      2347 6.66281E-01
 -1      2348 6.28265E-01
 -1      2349 6.75829E-01
 -1      2350 5.97497E-01
 -1      2351 5.63552E-01
 -1      2352 6.10498E-01
 -1      2353 5.32340E-01
 -1      2354 5.00638E-01
 -1      2355 5.48518E-01
 -1      2356 4.63571E-01
 -1      2357 4.24575E-01
 -1      2358 4.80239E-01
 -1      2359 3.85289E-01
 -1      2360 3.45092E-01
 -1      2361 4.03886E-01
 -1      2362 3.07499E-01
 -1      2363 2.69983E-01
 -1      2364 3.27007E-01
 -1      2365 2.36329E-01
 -1      2366 2.03585E-01
 -1      2367 2.55760E-01
 -1      2368 1.74929E-01
 -1      2369 1.51082E-01
 -1      2370 1.93450E-01
 -1      2371 1.27696E-01
 -1      2372 1.10288E-01
 -1      2373 1.41408E-01
 -1      2374 9.18992E-02
 -1      2375 7.70043E-02
 -1      2376 9.96338E-02
 -1      2377 2.56994E+01
 -1      2378 2.37675E+01
 -1      2379 5.49765E-01
 -1      2380 6.31243E-01
 -1      2381 4.69781E-01
 -1      2382 5.09773E-01
 -1      2383 5.09773E-01
 -1      2384 4.14461E-01
 -1      2385 4.37737E-01
 -1      2386 4.37737E-01
 -1      2387 3.62563E-01
 -1      2388 3.82893E-01
 -1      2389 3.74126E-01
 -1      2390 3.16427E-01
 -1      2391 3.32517E-01
 -1      2392 3.12512E-01
 -1      2393 2.76400E-01
 -1      2394 2.87740E-01
 -1      2395 2.53779E-01
 -1      2396 2.79073E-01
 -1      2397 2.85933E-01
 -1      2398 2.34624E-01
 -1      2399 3.19604E-01
 -1      2400 3.00100E-01
 -1      2401 2.65184E-01
 -1      2402 4.33165E-01
 -1      2403 3.75106E-01
 -1      2404 3.41714E-01
 -1      2405 5.90352E-01
 -1      2406 5.07983E-01
 -1      2407 4.72035E-01
 -1      2408 7.64676E-01
 -1      2409 6.74395E-01
 -1      2410 6.30895E-01
 -1      2411 9.45397E-01
 -1      2412 8.54562E-01
 -1      2413 8.04824E-01
 -1      2414 1.11035E+00
 -1      2415 1.03332E+00
 -1      2416 9.82628E-01
 -1      2417 1.25116E+00
 -1      2418 1.18244E+00
 -1      2419 1.14264E+00
 -1      2420 1.32931E+00
 -1      2421 1.30863E+00
 -1      2422 1.27220E+00
 -1      2423 1.43099E+00
 -1      2424 1.43099E+00
 -1      2425 1.43134E+00
 -1      2426 1.43021E+00
 -1      2427 1.50941E+00
 -1      2428 1.61144E+00
 -1      2429 1.41824E+00
 -1      2430 1.46168E+00
 -1      2431 1.72134E+00
 -1      2432 1.79230E+00
 -1      2433 1.68840E+00
 -1      2434 2.02296E+00
 -1      2435 2.10530E+00
 -1      2436 1.68402E+00
 -1      2437 2.18483E+00
 -1      2438 3.16132E+00
 -1      2439 2.91032E+00
 -1      2440 2.88156E+00
 -1      2441 5.09697E+00
 -1      2442 4.94352E+00
 -1      2443 5.46877E+00
 -1      2444 4.09373E+00
 -1      2445 4.19171E+00
 -1      2446 6.34571E+00
 -1      2447 2.81499E+00
 -1      2448 2.80325E+00
 -1      2449 4.14997E+00
 -1      2450 2.05945E+00
 -1      2451 2.45217E+00
 -1      2452 2.49668E+00
 -1      2453 1.48046E+00
 -1      2454 1.95686E+00
 -1      2455 2.03127E+00
 -1      2456 1.57562E+00
 -1      2457 1.58351E+00
 -1      2458 2.03173E+00
 -1      2459 1.50778E+00
 -1      2460 1.38145E+00
 -1      2461 1.94061E+00
 -1      2462 1.46779E+00
 -1      2463 1.43871E+00
 -1      2464 1.67738E+00
 -1      2465 1.38078E+00
 -1      2466 1.37763E+00
 -1      2467 1.51815E+00
 -1      2468 1.24851E+00
 -1      2469 1.30118E+00
 -1      2470 1.34838E+00
 -1      2471 1.12125E+00
 -1      2472 1.18660E+00
 -1      2473 1.20686E+00
 -1      2474 9.64069E-01
 -1      2475 1.04295E+00
 -1      2476 1.06665E+00
 -1      2477 7.91811E-01
 -1      2478 8.78174E-01
 -1      2479 9.02452E-01
 -1      2480 6.27212E-01
 -1      2481 7.09307E-01
 -1      2482 7.34053E-01
 -1      2483 4.81829E-01
 -1      2484 5.53842E-01
 -1      2485 5.78180E-01
 -1      2486 3.59834E-01
 -1      2487 4.19805E-01
 -1      2488 4.42786E-01
 -1      2489 2.62821E-01
 -1      2490 3.09287E-01
 -1      2491 3.30214E-01
 -1      2492 1.93491E-01
 -1      2493 2.22832E-01
 -1      2494 2.39678E-01
 -1      2495 1.38557E-01
 -1      2496 1.62752E-01
 -1      2497 1.68949E-01
 -1      2498 9.48227E-02
 -1      2499 1.15017E-01
 -1      2500 1.14670E-01
 -1      2501 6.33627E-02
 -1      2502 8.09201E-02
 -1      2503 7.72276E-02
 -1      2504 5.82557E-02
 -1      2505 5.45810E-02
 -1      2506 4.82956E-02
 -1      2507 6.26285E-02
 -1      2508 5.98494E-02
 -1      2509 6.63724E-02
 -1      2510 4.28441E-02
 -1      2511 5.30085E-02
 -1      2512 4.38029E-02
 -1      2513 4.24504E-02
 -1      2514 5.25123E-02
 -1      2515 5.66113E-02
 -1      2516 6.26285E-02
 -1      2517 6.26285E-02
 -1      2518 7.16407E-02
 -1      2519 6.19157E-02
 -1      2520 6.25212E-02
 -1      2521 7.15335E-02
 -1      2522 6.19157E-02
 -1      2523 6.19157E-02
 -1      2524 7.14262E-02
 -1      2525 5.72103E-02
 -1      2526 6.06252E-02
 -1      2527 7.01357E-02
 -1      2528 4.46782E-02
 -1      2529 5.13578E-02
 -1      2530 6.29928E-02
 -1      2531 4.42577E-02
 -1      2532 4.38131E-02
 -1      2533 5.62751E-02
 -1      2534 5.09552E-02
 -1      2535 4.42577E-02
 -1      2536 5.54100E-02
 -1      2537 4.82758E-02
 -1      2538 9.06776E+00
 -1      2539 1.25636E+01
 -1      2540 7.12720E-01
 -1      2541 8.07580E-01
 -1      2542 6.31243E-01
 -1      2543 1.50545E+01
 -1      2544 2.14048E+01
 -1      2545 2.34771E+01
 -1      2546 2.39369E+01
 -1      2547 2.93262E+01
 -1      2548 2.67284E+01
 -1      2549 2.34771E+01
 -1      2550 7.51255E+00
 -1      2551 1.03122E+01
 -1      2552 3.79738E+01
 -1      2553 3.79738E+01
 -1      2554 9.47814E+00
 -1      2555 9.63270E+00
 -1      2556 5.16991E-01
 -1      2557 5.38984E-01
 -1      2558 4.66266E-01
 -1      2559 4.38930E-01
 -1      2560 7.89556E+00
 -1      2561 9.01991E+00
 -1      2562 8.88139E+00
 -1      2563 8.47139E+00
 -1      2564 1.52191E+01
 -1      2565 1.07660E+01
 -1      2566 5.19819E+00
 -1      2567 6.07051E+00
 -1      2568 1.23083E+01
 -1      2569 1.69836E+01
 -1      2570 9.37570E+00
 -1      2571 6.78745E+00
 -1      2572 5.19012E+00
 -1      2573 1.98962E+01
 -1      2574 1.81735E+01
 -1      2575 1.25144E+01
 -1      2576 3.11488E+01
 -1      2577 2.43237E+01
 -1      2578 2.51302E+01
 -1      2579 3.15520E+01
 -1      2580 8.88640E+00
 -1      2581 9.03673E+00
 -1      2582 2.01378E+01
 -1      2583 2.15058E+01
 -1      2584 5.55572E+00
 -1      2585 5.68544E+00
 -1      2586 5.75371E+00
 -1      2587 9.09624E+00
 -1      2588 8.78622E+00
 -1      2589 7.76437E+00
 -1      2590 6.63857E+00
 -1      2591 7.80614E+00
 -1      2592 6.46338E+00
 -1      2593 6.27925E+00
 -1      2594 4.72468E+00
 -1      2595 1.17043E+01
 -1      2596 8.44725E+00
 -1      2597 2.02682E+01
 -1      2598 1.39819E+01
 -1      2599 1.66772E+00
 -1      2600 1.30849E+00
 -1      2601 8.34742E-01
 -1      2602 9.53024E-01
 -1      2603 1.61875E+00
 -1      2604 1.76295E+00
 -1      2605 1.31927E+00
 -1      2606 1.19253E+00
 -1      2607 5.68355E+00
 -1      2608 7.26645E+00
 -1      2609 6.61016E+00
 -1      2610 7.70920E+00
 -1      2611 6.08030E-01
 -1      2612 7.47867E-01
 -1      2613 8.11048E-01
 -1      2614 8.07580E-01
 -1      2615 1.23554E+00
 -1      2616 4.70372E+00
 -1      2617 8.92558E-01
 -1      2618 1.98990E+01
 -1      2619 1.25191E+01
 -1      2620 1.61879E+01
 -1      2621 6.34922E+00
 -1      2622 2.69533E+01
 -1      2623 1.09023E+01
 -1      2624 1.76879E+01
 -1      2625 5.82180E-02
 -1      2626 9.57692E+00
 -1      2627 5.82180E-02
 -1      2628 6.19430E+00
 -1      2629 4.56518E+00
 -1      2630 6.48680E+00
 -1      2631 5.00512E-02
 -1      2632 4.82758E-02
 -1      2633 5.27306E-02
 -1      2634 6.14071E-02
 -1      2635 1.47272E+01
 -1      2636 5.56300E+00
 -1      2637 8.28515E+00
 -1      2638 6.85310E+00
 -1      2639 9.59153E-01
 -1      2640 2.64044E+01
 -1      2641 2.64044E+01
 -1      2642 2.38066E+01
 -1      2643 2.15058E+01
 -1      2644 8.16965E+00
 -1      2645 5.81155E-02
 -1      2646 1.98962E+01
 -1      2647 8.00678E+00
 -1      2648 6.78725E+00
 -1      2649 6.83460E+00
 -1      2650 3.11488E+01
 -1      2651 3.15520E+01
 -1      2652 7.41613E+00
 -1      2653 5.63171E+00
 -1      2654 5.42592E+00
 -1      2655 1.06107E+01
 -1      2656 6.56484E-02
 -1      2657 4.18482E-01
 -1      2658 4.03521E-01
 -1      2659 3.95244E-01
 -1      2660 3.82247E-01
 -1      2661 3.46704E-01
 -1      2662 4.33120E-01
 -1      2663 4.33120E-01
 -1      2664 4.65141E-01
 -1      2665 4.21742E-01
 -1      2666 3.48421E-01
 -1      2667 7.19648E-01
 -1      2668 7.98427E-01
 -1      2669 6.15232E-01
 -1      2670 7.10092E-01
 -1      2671 5.27301E-01
 -1      2672 8.26618E-01
 -1      2673 7.91451E-01
 -1      2674 5.52706E-01
 -1      2675 4.93652E-01
 -1      2676 4.83340E-01
 -1      2677 4.24050E-01
 -1      2678 3.85966E-01
 -1      2679 3.98774E-01
 -1      2680 3.58457E-01
 -1      2681 3.50378E-01
 -1      2682 3.26725E-01
 -1      2683 3.01648E-01
 -1      2684 2.93369E-01
 -1      2685 2.82323E-01
 -1      2686 2.54872E-01
 -1      2687 2.42311E-01
 -1      2688 2.33015E-01
 -1      2689 2.04851E-01
 -1      2690 2.01128E-01
 -1      2691 1.79416E-01
 -1      2692 1.50952E-01
 -1      2693 1.53836E-01
 -1      2694 1.43354E-01
 -1      2695 1.54808E-01
 -1      2696 1.20803E-01
 -1      2697 1.78563E-01
 -1      2698 1.91553E-01
 -1      2699 1.36960E-01
 -1      2700 2.33874E-01
 -1      2701 2.77135E-01
 -1      2702 2.03036E-01
 -1      2703 3.23147E-01
 -1      2704 3.68506E-01
 -1      2705 2.91369E-01
 -1      2706 4.17149E-01
 -1      2707 4.59440E-01
 -1      2708 3.86025E-01
 -1      2709 5.08452E-01
 -1      2710 5.44821E-01
 -1      2711 4.83680E-01
 -1      2712 5.90044E-01
 -1      2713 6.17819E-01
 -1      2714 5.77914E-01
 -1      2715 6.67952E-01
 -1      2716 7.06703E-01
 -1      2717 6.73270E-01
 -1      2718 7.79376E-01
 -1      2719 7.99530E-01
 -1      2720 7.96075E-01
 -1      2721 8.64379E-01
 -1      2722 8.56078E-01
 -1      2723 9.33598E-01
 -1      2724 8.94531E-01
 -1      2725 9.80819E-01
 -1      2726 1.03690E+00
 -1      2727 1.14693E+00
 -1      2728 1.17127E+00
 -1      2729 1.24147E+00
 -1      2730 1.23858E+00
 -1      2731 1.39573E+00
 -1      2732 1.47489E+00
 -1      2733 1.56220E+00
 -1      2734 1.61990E+00
 -1      2735 1.70867E+00
 -1      2736 1.55522E+00
 -1      2737 1.74579E+00
 -1      2738 1.81047E+00
 -1      2739 2.06941E+00
 -1      2740 2.13789E+00
 -1      2741 2.06941E+00
 -1      2742 2.11103E+00
 -1      2743 2.18690E+00
 -1      2744 2.36616E+00
 -1      2745 3.27365E+00
 -1      2746 3.16613E+00
 -1      2747 3.42605E+00
 -1      2748 2.54906E+00
 -1      2749 2.34003E+00
 -1      2750 3.89572E+00
 -1      2751 1.68983E+00
 -1      2752 1.62021E+00
 -1      2753 2.62845E+00
 -1      2754 1.26217E+00
 -1      2755 1.08543E+00
 -1      2756 1.62021E+00
 -1      2757 1.18253E+00
 -1      2758 1.18016E+00
 -1      2759 1.35928E+00
 -1      2760 1.00488E+00
 -1      2761 9.19912E-01
 -1      2762 1.28110E+00
 -1      2763 8.80295E-01
 -1      2764 8.83808E-01
 -1      2765 1.06620E+00
 -1      2766 8.20590E-01
 -1      2767 8.05268E-01
 -1      2768 9.63362E-01
 -1      2769 7.34847E-01
 -1      2770 7.00284E-01
 -1      2771 8.29723E-01
 -1      2772 6.46426E-01
 -1      2773 6.15658E-01
 -1      2774 7.05444E-01
 -1      2775 5.74520E-01
 -1      2776 5.43308E-01
 -1      2777 6.10448E-01
 -1      2778 4.98607E-01
 -1      2779 4.61540E-01
 -1      2780 5.24608E-01
 -1      2781 4.17901E-01
 -1      2782 3.78614E-01
 -1      2783 4.36268E-01
 -1      2784 3.38654E-01
 -1      2785 3.01061E-01
 -1      2786 3.52669E-01
 -1      2787 2.66058E-01
 -1      2788 2.32404E-01
 -1      2789 2.77705E-01
 -1      2790 2.02766E-01
 -1      2791 1.74109E-01
 -1      2792 2.13063E-01
 -1      2793 1.49804E-01
 -1      2794 1.26418E-01
 -1      2795 1.59120E-01
 -1      2796 1.02465E-01
 -1      2797 8.40771E-02
 -1      2798 1.10862E-01
 -1      2799 1.10628E+01
 -1      2800 1.42170E+01
 -1      2801 4.27258E-01
 -1      2802 4.67250E-01
 -1      2803 2.54232E-01
 -1      2804 2.84279E-01
 -1      2805 1.98236E-01
 -1      2806 2.26923E-01
 -1      2807 1.98690E-01
 -1      2808 1.98247E-01
 -1      2809 1.88715E-01
 -1      2810 1.61859E-01
 -1      2811 2.39403E-01
 -1      2812 2.18376E-01
 -1      2813 1.72466E-01
 -1      2814 3.50203E-01
 -1      2815 2.94700E-01
 -1      2816 2.47892E-01
 -1      2817 4.89843E-01
 -1      2818 4.15025E-01
 -1      2819 3.68011E-01
 -1      2820 6.49712E-01
 -1      2821 5.65670E-01
 -1      2822 5.08660E-01
 -1      2823 8.27455E-01
 -1      2824 7.37568E-01
 -1      2825 6.72344E-01
 -1      2826 1.01521E+00
 -1      2827 9.27293E-01
 -1      2828 8.60038E-01
 -1      2829 1.19687E+00
 -1      2830 1.12478E+00
 -1      2831 1.06944E+00
 -1      2832 1.36695E+00
 -1      2833 1.30949E+00
 -1      2834 1.29162E+00
 -1      2835 1.56546E+00
 -1      2836 1.46378E+00
 -1      2837 1.50107E+00
 -1      2838 1.87064E+00
 -1      2839 1.79221E+00
 -1      2840 1.82466E+00
 -1      2841 2.21337E+00
 -1      2842 2.18190E+00
 -1      2843 2.36267E+00
 -1      2844 2.29312E+00
 -1      2845 2.02296E+00
 -1      2846 2.48352E+00
 -1      2847 3.31040E+00
 -1      2848 3.41869E+00
 -1      2849 3.41869E+00
 -1      2850 3.68657E+00
 -1      2851 2.88156E+00
 -1      2852 4.11542E+00
 -1      2853 7.25097E+00
 -1      2854 5.46877E+00
 -1      2855 6.80394E+00
 -1      2856 7.70920E+00
 -1      2857 2.49668E+00
 -1      2858 2.85949E+00
 -1      2859 2.06689E+00
 -1      2860 2.16948E+00
 -1      2861 2.53230E+00
 -1      2862 3.46119E+00
 -1      2863 3.35814E+00
 -1      2864 3.49635E+00
 -1      2865 2.26731E+00
 -1      2866 2.46147E+00
 -1      2867 3.78788E+00
 -1      2868 1.92131E+00
 -1      2869 1.99038E+00
 -1      2870 2.51124E+00
 -1      2871 1.62453E+00
 -1      2872 1.71470E+00
 -1      2873 2.02770E+00
 -1      2874 1.39624E+00
 -1      2875 1.47584E+00
 -1      2876 1.67240E+00
 -1      2877 1.22709E+00
 -1      2878 1.28901E+00
 -1      2879 1.41647E+00
 -1      2880 1.03903E+00
 -1      2881 1.11733E+00
 -1      2882 1.19948E+00
 -1      2883 8.50807E-01
 -1      2884 9.36702E-01
 -1      2885 9.87386E-01
 -1      2886 6.77906E-01
 -1      2887 7.60410E-01
 -1      2888 7.94660E-01
 -1      2889 5.27376E-01
 -1      2890 6.00746E-01
 -1      2891 6.27102E-01
 -1      2892 4.01145E-01
 -1      2893 4.63169E-01
 -1      2894 4.85735E-01
 -1      2895 2.98288E-01
 -1      2896 3.48835E-01
 -1      2897 3.69219E-01
 -1      2898 2.16479E-01
 -1      2899 2.56468E-01
 -1      2900 2.75089E-01
 -1      2901 1.52913E-01
 -1      2902 1.83652E-01
 -1      2903 2.00442E-01
 -1      2904 1.03310E-01
 -1      2905 1.26850E-01
 -1      2906 1.41552E-01
 -1      2907 7.07541E-02
 -1      2908 8.46567E-02
 -1      2909 9.68361E-02
 -1      2910 6.55446E-02
 -1      2911 6.69388E+00
 -1      2912 8.68997E+00
 -1      2913 8.45117E-02
 -1      2914 8.46189E-02
 -1      2915 1.85776E+01
 -1      2916 1.41501E+01
 -1      2917 8.23129E-02
 -1      2918 7.70446E-02
 -1      2919 8.34589E-02
 -1      2920 8.34589E-02
 -1      2921 9.65444E-02
 -1      2922 8.46189E-02
 -1      2923 8.46189E-02
 -1      2924 9.52911E-02
 -1      2925 9.75972E-02
 -1      2926 8.21684E-02
 -1      2927 8.34589E-02
 -1      2928 9.54916E-02
 -1      2929 7.22766E-02
 -1      2930 7.81291E-02
 -1      2931 9.14523E-02
 -1      2932 6.00242E-02
 -1      2933 6.08893E-02
 -1      2934 7.60257E-02
 -1      2935 5.05315E-01
 -1      2936 5.86792E-01
 -1      2937 4.89304E-01
 -1      2938 4.22800E-01
 -1      2939 1.18349E+01
 -1      2940 1.61296E+01
 -1      2941 6.63416E+00
 -1      2942 4.65029E+00
 -1      2943 2.07871E+01
 -1      2944 1.75358E+01
 -1      2945 6.88917E+00
 -1      2946 6.98935E+00
 -1      2947 1.20771E+01
 -1      2948 9.12269E+00
 -1      2949 5.44045E+00
 -1      2950 6.80394E+00
 -1      2951 6.05263E+00
 -1      2952 4.14997E+00
 -1      2953 1.59282E+01
 -1      2954 1.95526E+01
 -1      2955 3.08434E-01
 -1      2956 3.40001E-01
 -1      2957 2.50154E-01
 -1      2958 3.59559E-01
 -1      2959 3.91603E-01
 -1      2960 2.93867E-01
 -1      2961 5.98923E-01
 -1      2962 5.55227E-01
 -1      2963 3.98800E-01
 -1      2964 3.84851E+00
 -1      2965 3.95364E+00
 -1      2966 3.64372E+00
 -1      2967 5.46877E+00
 -1      2968 4.33120E-01
 -1      2969 4.20890E-01
 -1      2970 3.57390E-01
 -1      2971 3.59799E-01
 -1      2972 4.20130E-01
 -1      2973 4.32819E-01
 -1      2974 2.01604E+01
 -1      2975 2.65822E+01
 -1      2976 2.63112E+01
 -1      2977 1.94862E+01
 -1      2978 9.84382E+00
 -1      2979 7.56621E+00
 -1      2980 7.86445E+00
 -1      2981 6.47417E+00
 -1      2982 4.16242E+00
 -1      2983 5.98953E+00
 -1      2984 7.84442E+00
 -1      2985 1.03353E+01
 -1      2986 4.86847E+00
 -1      2987 6.66978E+00
 -1      2988 5.27306E-02
 -1      2989 5.54100E-02
 -1      2990 6.83278E-02
 -1      2991 1.89450E+01
 -1      2992 2.39157E+01
 -1      2993 3.41192E+00
 -1      2994 3.77124E+00
 -1      2995 3.69686E+00
 -1      2996 4.62879E-01
 -1      2997 5.64790E-01
 -1      2998 3.89579E-01
 -1      2999 3.38087E-01
 -1      3000 3.81908E-01
 -1      3001 3.94770E-01
 -1      3002 5.65048E-01
 -1      3003 1.78653E+01
 -1      3004 7.11593E-02
 -1      3005 4.01326E+00
 -1      3006 1.34979E+01
 -1      3007 6.10273E+00
 -1      3008 3.49080E-01
 -1      3009 4.80099E+00
 -1      3010 7.42721E+00
 -1      3011 1.00456E+01
 -1      3012 7.00112E+00
 -1      3013 9.67642E+00
 -1      3014 8.75591E+00
 -1      3015 8.24570E+00
 -1      3016 5.87288E+00
 -1      3017 1.49196E+01
 -1      3018 1.03020E+01
 -1      3019 1.61550E+01
 -1      3020 1.31174E+01
 -1      3021 4.14997E+00
 -1      3022 1.45828E+01
 -1      3023 5.10258E+00
 -1      3024 6.19401E-02
 -1      3025 7.45787E-02
 -1      3026 6.15465E-02
 -1      3027 1.07584E+01
 -1      3028 4.07257E+00
 -1      3029 4.11542E+00
 -1      3030 4.54426E+00
 -1      3031 5.66182E+00
 -1      3032 6.17520E+00
 -1      3033 4.89217E+00
 -1      3034 5.19261E+00
 -1      3035 5.54100E-02
 -1      3036 5.86728E+00
 -1      3037 4.79839E+00
 -1      3038 5.27740E+00
 -1      3039 3.48564E+00
 -1      3040 6.07808E+00
 -1      3041 1.83961E+01
 -1      3042 5.93787E+00
 -1      3043 6.81307E+00
 -1      3044 5.78312E+00
 -1      3045 1.70009E+01
 -1      3046 1.12548E+01
 -1      3047 1.21634E+01
 -1      3048 4.36950E-01
 -1      3049 1.22638E+01
 -1      3050 6.89222E-02
 -1      3051 6.44295E-02
 -1      3052 7.38573E-02
 -1      3053 8.48628E-02
 -1      3054 4.03057E-01
 -1      3055 4.17531E-01
 -1      3056 3.56920E-01
 -1      3057 3.46035E-01
 -1      3058 5.21017E+00
 -1      3059 4.17706E+00
 -1      3060 8.77700E+00
 -1      3061 5.96514E-02
 -1      3062 5.96514E-02
 -1      3063 6.42656E-02
 -1      3064 7.54007E-02
 -1      3065 5.35662E+00
 -1      3066 5.72973E-01
 -1      3067 6.54483E-01
 -1      3068 6.16265E-01
 -1      3069 4.27823E-01
 -1      3070 4.18664E-01
 -1      3071 1.63480E+01
 -1      3072 1.33286E+01
 -1      3073 2.88772E-01
 -1      3074 3.00149E-01
 -1      3075 4.10694E+00
 -1      3076 2.86856E+00
 -1      3077 3.11803E-01
 -1      3078 3.01491E-01
 -1      3079 1.21592E+01
 -1      3080 1.08112E+01
 -1      3081 3.42697E+00
 -1      3082 3.05807E+00
 -1      3083 3.97291E+00
 -1      3084 3.06998E-01
 -1      3085 2.81721E-01
 -1      3086 2.32835E-01
 -1      3087 2.72505E-01
 -1      3088 2.40773E-01
 -1      3089 2.29125E-01
 -1      3090 2.21785E-01
 -1      3091 2.02460E-01
 -1      3092 2.00922E-01
 -1      3093 1.82007E-01
 -1      3094 1.60150E-01
 -1      3095 1.61482E-01
 -1      3096 1.40378E-01
 -1      3097 1.14944E-01
 -1      3098 1.21257E-01
 -1      3099 1.10627E-01
 -1      3100 1.03029E-01
 -1      3101 9.71695E-02
 -1      3102 1.19719E-01
 -1      3103 1.43474E-01
 -1      3104 1.09543E-01
 -1      3105 1.75809E-01
 -1      3106 2.18130E-01
 -1      3107 1.58568E-01
 -1      3108 2.58609E-01
 -1      3109 3.04621E-01
 -1      3110 2.31382E-01
 -1      3111 3.51626E-01
 -1      3112 4.00270E-01
 -1      3113 3.18866E-01
 -1      3114 4.59367E-01
 -1      3115 5.08378E-01
 -1      3116 4.24968E-01
 -1      3117 5.73255E-01
 -1      3118 6.18478E-01
 -1      3119 5.48942E-01
 -1      3120 6.93699E-01
 -1      3121 7.43831E-01
 -1      3122 6.89040E-01
 -1      3123 8.20734E-01
 -1      3124 8.93408E-01
 -1      3125 8.41164E-01
 -1      3126 1.01250E+00
 -1      3127 1.07735E+00
 -1      3128 1.03716E+00
 -1      3129 1.22470E+00
 -1      3130 1.26315E+00
 -1      3131 1.30360E+00
 -1      3132 1.41738E+00
 -1      3133 1.58349E+00
 -1      3134 1.60517E+00
 -1      3135 1.73192E+00
 -1      3136 1.79923E+00
 -1      3137 1.90783E+00
 -1      3138 1.70867E+00
 -1      3139 1.87514E+00
 -1      3140 1.96570E+00
 -1      3141 1.87514E+00
 -1      3142 1.81047E+00
 -1      3143 1.87514E+00
 -1      3144 3.35852E+00
 -1      3145 3.33165E+00
 -1      3146 3.66631E+00
 -1      3147 4.75306E+00
 -1      3148 4.51279E+00
 -1      3149 3.89572E+00
 -1      3150 3.27865E+00
 -1      3151 2.62845E+00
 -1      3152 1.61267E+00
 -1      3153 1.70978E+00
 -1      3154 1.60714E+00
 -1      3155 1.43185E+00
 -1      3156 1.86054E+00
 -1      3157 1.30323E+00
 -1      3158 1.26362E+00
 -1      3159 1.62927E+00
 -1      3160 1.11626E+00
 -1      3161 1.05304E+00
 -1      3162 1.35330E+00
 -1      3163 9.25163E-01
 -1      3164 8.54742E-01
 -1      3165 1.07806E+00
 -1      3166 7.80325E-01
 -1      3167 7.26467E-01
 -1      3168 8.75765E-01
 -1      3169 6.53381E-01
 -1      3170 6.12243E-01
 -1      3171 7.28262E-01
 -1      3172 5.50409E-01
 -1      3173 5.05707E-01
 -1      3174 5.93342E-01
 -1      3175 4.50715E-01
 -1      3176 4.07076E-01
 -1      3177 4.76516E-01
 -1      3178 3.59864E-01
 -1      3179 3.19904E-01
 -1      3180 3.74311E-01
 -1      3181 2.82979E-01
 -1      3182 2.47976E-01
 -1      3183 2.90174E-01
 -1      3184 2.18207E-01
 -1      3185 1.88569E-01
 -1      3186 2.23481E-01
 -1      3187 1.62798E-01
 -1      3188 1.38493E-01
 -1      3189 1.67942E-01
 -1      3190 1.17329E-01
 -1      3191 9.33759E-02
 -1      3192 8.18680E-02
 -1      3193 1.21007E-01
 -1      3194 7.40439E+00
 -1      3195 6.14615E+00
 -1      3196 3.92364E+00
 -1      3197 3.52087E+00
 -1      3198 1.45875E-01
 -1      3199 1.73185E-01
 -1      3200 2.57604E-01
 -1      3201 2.02306E-01
 -1      3202 3.77304E-01
 -1      3203 3.12482E-01
 -1      3204 2.66896E-01
 -1      3205 5.22224E-01
 -1      3206 4.46397E-01
 -1      3207 3.90867E-01
 -1      3208 6.90842E-01
 -1      3209 6.02986E-01
 -1      3210 5.40722E-01
 -1      3211 8.81932E-01
 -1      3212 7.82094E-01
 -1      3213 7.12736E-01
 -1      3214 1.11031E+00
 -1      3215 1.00075E+00
 -1      3216 9.22804E-01
 -1      3217 1.37997E+00
 -1      3218 1.26735E+00
 -1      3219 1.19866E+00
 -1      3220 1.69503E+00
 -1      3221 1.59820E+00
 -1      3222 1.57392E+00
 -1      3223 2.18474E+00
 -1      3224 1.95799E+00
 -1      3225 2.05511E+00
 -1      3226 3.36167E+00
 -1      3227 3.05041E+00
 -1      3228 3.18374E+00
 -1      3229 4.20822E+00
 -1      3230 4.39863E+00
 -1      3231 5.33380E+00
 -1      3232 3.01167E+00
 -1      3233 3.28860E+00
 -1      3234 2.51042E+00
 -1      3235 2.71703E+00
 -1      3236 3.49440E+00
 -1      3237 1.80477E+00
 -1      3238 1.95347E+00
 -1      3239 2.64280E+00
 -1      3240 1.44773E+00
 -1      3241 1.55496E+00
 -1      3242 1.83603E+00
 -1      3243 1.15226E+00
 -1      3244 1.26202E+00
 -1      3245 1.40051E+00
 -1      3246 9.12932E-01
 -1      3247 1.01526E+00
 -1      3248 1.07781E+00
 -1      3249 7.23696E-01
 -1      3250 8.14093E-01
 -1      3251 8.41968E-01
 -1      3252 5.64730E-01
 -1      3253 6.41891E-01
 -1      3254 6.61324E-01
 -1      3255 4.31112E-01
 -1      3256 4.95319E-01
 -1      3257 5.10107E-01
 -1      3258 3.21986E-01
 -1      3259 3.74297E-01
 -1      3260 3.83880E-01
 -1      3261 2.34854E-01
 -1      3262 2.76674E-01
 -1      3263 2.81752E-01
 -1      3264 1.70470E-01
 -1      3265 2.03297E-01
 -1      3266 2.04882E-01
 -1      3267 1.19269E-01
 -1      3268 1.45333E-01
 -1      3269 1.48187E-01
 -1      3270 8.72556E-02
 -1      3271 1.05909E-01
 -1      3272 1.09689E-01
 -1      3273 8.36512E-02
 -1      3274 1.09497E-01
 -1      3275 1.09497E-01
 -1      3276 1.09497E-01
 -1      3277 1.10550E-01
 -1      3278 1.23502E-01
 -1      3279 1.10272E+01
 -1      3280 8.95420E+00
 -1      3281 1.18145E+01
 -1      3282 1.24223E+01
 -1      3283 3.52482E-01
 -1      3284 3.35140E-01
 -1      3285 3.32619E-01
 -1      3286 3.44299E-01
 -1      3287 1.04785E-01
 -1      3288 1.08825E-01
 -1      3289 1.22830E-01
 -1      3290 4.85785E+00
 -1      3291 6.03249E+00
 -1      3292 3.90266E+00
 -1      3293 8.38636E-02
 -1      3294 9.52510E-02
 -1      3295 1.12623E-01
 -1      3296 1.95612E-01
 -1      3297 2.19767E-01
 -1      3298 1.42798E-01
 -1      3299 1.58933E-01
 -1      3300 1.38805E-01
 -1      3301 1.68645E-01
 -1      3302 1.19412E-01
 -1      3303 1.28933E-01
 -1      3304 1.03428E-01
 -1      3305 1.05879E-01
 -1      3306 2.43602E-01
 -1      3307 2.63160E-01
 -1      3308 1.89060E-01
 -1      3309 6.58918E+00
 -1      3310 8.08881E+00
 -1      3311 1.22179E+01
 -1      3312 1.19469E+01
 -1      3313 4.70722E+00
 -1      3314 5.41157E+00
 -1      3315 9.45446E+00
 -1      3316 1.11657E+01
 -1      3317 1.38593E+01
 -1      3318 1.63480E+01
 -1      3319 1.18113E+01
 -1      3320 4.06619E-01
 -1      3321 3.06711E-01
 -1      3322 2.58440E-01
 -1      3323 3.97062E-01
 -1      3324 2.87565E-01
 -1      3325 3.23220E-01
 -1      3326 2.37300E-01
 -1      3327 5.04036E+00
 -1      3328 4.10831E+00
 -1      3329 3.28002E+00
 -1      3330 5.51767E+00
 -1      3331 5.55374E+00
 -1      3332 3.19124E-01
 -1      3333 3.10846E-01
 -1      3334 3.06682E-01
 -1      3335 3.06343E-01
 -1      3336 2.79102E-01
 -1      3337 2.59846E-01
 -1      3338 3.19495E-01
 -1      3339 3.19495E-01
 -1      3340 3.89572E+00
 -1      3341 2.76942E-01
 -1      3342 3.38457E-01
 -1      3343 3.76521E-01
 -1      3344 8.33774E+00
 -1      3345 3.30751E+00
 -1      3346 2.97896E+00
 -1      3347 4.59799E+00
 -1      3348 2.65176E+00
 -1      3349 5.47751E+00
 -1      3350 4.65867E+00
 -1      3351 2.55209E+00
 -1      3352 3.51758E+00
 -1      3353 2.22847E+00
 -1      3354 2.76258E+00
 -1      3355 2.11238E+00
 -1      3356 1.75434E+00
 -1      3357 2.76395E+00
 -1      3358 3.61204E+00
 -1      3359 1.16135E+01
 -1      3360 9.56544E+00
 -1      3361 8.82352E+00
 -1      3362 8.79811E+00
 -1      3363 8.82352E+00
 -1      3364 6.61029E+00
 -1      3365 7.92122E+00
 -1      3366 6.82311E+00
 -1      3367 5.61434E+00
 -1      3368 3.82986E+00
 -1      3369 5.08637E+00
 -1      3370 4.84501E+00
 -1      3371 4.34458E+00
 -1      3372 5.17108E+00
 -1      3373 3.18839E-01
 -1      3374 3.48899E-01
 -1      3375 9.00520E+00
 -1      3376 5.34430E+00
 -1      3377 1.12753E-01
 -1      3378 1.10447E-01
 -1      3379 3.18705E-01
 -1      3380 3.21303E-01
 -1      3381 2.80623E-01
 -1      3382 9.45053E+00
 -1      3383 1.12753E-01
 -1      3384 1.12753E-01
 -1      3385 1.27908E-01
 -1      3386 1.25705E-01
 -1      3387 9.44964E+00
 -1      3388 3.63584E-01
 -1      3389 3.92023E-01
 -1      3390 2.71341E-01
 -1      3391 2.79241E-01
 -1      3392 2.48143E-01
 -1      3393 5.33380E+00
 -1      3394 2.10485E+00
 -1      3395 5.37746E+00
 -1      3396 1.09625E+01
 -1      3397 8.47718E+00
 -1      3398 8.26074E+00
 -1      3399 5.77522E+00
 -1      3400 5.57343E+00
 -1      3401 3.81445E+00
 -1      3402 5.34430E+00
 -1      3403 2.29314E+00
 -1      3404 2.61141E+00
 -1      3405 3.90266E+00
 -1      3406 1.07344E-01
 -1      3407 9.92213E-02
 -1      3408 1.24805E-01
 -1      3409 9.77709E+00
 -1      3410 1.12944E+01
 -1      3411 8.60773E+00
 -1      3412 7.67314E+00
 -1      3413 3.21532E-01
 -1      3414 3.19124E-01
 -1      3415 2.83266E-01
 -1      3416 2.81229E-01
 -1      3417 7.77007E-02
 -1      3418 7.80734E-02
 -1      3419 9.72987E-02
 -1      3420 9.56759E-02
 -1      3421 4.78760E+00
 -1      3422 5.04280E+00
 -1      3423 1.96137E-01
 -1      3424 1.86921E-01
 -1      3425 1.84496E-01
 -1      3426 1.65509E-01
 -1      3427 1.51508E-01
 -1      3428 1.53369E-01
 -1      3429 1.32917E-01
 -1      3430 1.36944E-01
 -1      3431 1.26644E-01
 -1      3432 1.06873E-01
 -1      3433 1.18532E-01
 -1      3434 1.13823E-01
 -1      3435 1.09507E-01
 -1      3436 1.19210E-01
 -1      3437 1.15672E-01
 -1      3438 1.32362E-01
 -1      3439 1.32326E-01
 -1      3440 1.58568E-01
 -1      3441 1.90902E-01
 -1      3442 1.64696E-01
 -1      3443 2.31382E-01
 -1      3444 2.71861E-01
 -1      3445 2.31382E-01
 -1      3446 3.16847E-01
 -1      3447 3.63852E-01
 -1      3448 3.16847E-01
 -1      3449 4.12115E-01
 -1      3450 4.71211E-01
 -1      3451 4.10095E-01
 -1      3452 5.35744E-01
 -1      3453 6.00621E-01
 -1      3454 5.22890E-01
 -1      3455 6.75230E-01
 -1      3456 7.50451E-01
 -1      3457 6.62032E-01
 -1      3458 8.74062E-01
 -1      3459 9.50965E-01
 -1      3460 8.60252E-01
 -1      3461 1.10735E+00
 -1      3462 1.22644E+00
 -1      3463 1.14025E+00
 -1      3464 1.39534E+00
 -1      3465 1.54269E+00
 -1      3466 1.46553E+00
 -1      3467 1.77494E+00
 -1      3468 1.92917E+00
 -1      3469 1.86668E+00
 -1      3470 2.67366E+00
 -1      3471 2.82209E+00
 -1      3472 2.84343E+00
 -1      3473 3.15976E+00
 -1      3474 2.64232E+00
 -1      3475 2.50065E+00
 -1      3476 3.69283E+00
 -1      3477 4.75306E+00
 -1      3478 2.22981E+00
 -1      3479 2.10119E+00
 -1      3480 1.63067E+00
 -1      3481 1.48332E+00
 -1      3482 2.23121E+00
 -1      3483 1.27806E+00
 -1      3484 1.15018E+00
 -1      3485 1.55544E+00
 -1      3486 9.92455E-01
 -1      3487 9.18038E-01
 -1      3488 1.19245E+00
 -1      3489 7.88138E-01
 -1      3490 7.15053E-01
 -1      3491 9.04828E-01
 -1      3492 6.36948E-01
 -1      3493 5.75114E-01
 -1      3494 6.96824E-01
 -1      3495 5.13354E-01
 -1      3496 4.58361E-01
 -1      3497 5.56960E-01
 -1      3498 4.13534E-01
 -1      3499 3.66321E-01
 -1      3500 4.50372E-01
 -1      3501 3.25146E-01
 -1      3502 2.88222E-01
 -1      3503 3.64369E-01
 -1      3504 2.52003E-01
 -1      3505 2.22235E-01
 -1      3506 2.86975E-01
 -1      3507 1.91255E-01
 -1      3508 1.65485E-01
 -1      3509 2.19777E-01
 -1      3510 3.14603E-01
 -1      3511 2.59725E-01
 -1      3512 7.99173E-01
 -1      3513 7.07921E-01
 -1      3514 1.03825E+00
 -1      3515 9.19429E-01
 -1      3516 9.14614E-01
 -1      3517 1.34014E+00
 -1      3518 1.18310E+00
 -1      3519 1.17973E+00
 -1      3520 1.75292E+00
 -1      3521 1.53469E+00
 -1      3522 1.51913E+00
 -1      3523 2.35076E+00
 -1      3524 2.08779E+00
 -1      3525 2.04856E+00
 -1      3526 3.86021E+00
 -1      3527 2.99454E+00
 -1      3528 3.02722E+00
 -1      3529 5.55431E+00
 -1      3530 2.25933E+00
 -1      3531 2.67733E+00
 -1      3532 2.92117E+00
 -1      3533 3.47812E+00
 -1      3534 8.47718E+00
 -1      3535 8.24960E+00
 -1      3536 7.35008E+00
 -1      3537 7.99893E+00
 -1      3538 2.73559E-01
 -1      3539 4.93004E+00
 -1      3540 5.39134E+00
 -1      3541 4.92598E+00
 -1      3542 5.22062E+00
 -1      3543 6.98589E+00
 -1      3544 5.20434E+00
 -1      3545 1.36177E+00
 -1      3546 1.54747E+00
 -1      3547 1.06796E+00
 -1      3548 1.20496E+00
 -1      3549 1.35192E+00
 -1      3550 8.39321E-01
 -1      3551 9.38159E-01
 -1      3552 1.06531E+00
 -1      3553 6.51630E-01
 -1      3554 7.33435E-01
 -1      3555 8.29627E-01
 -1      3556 4.97117E-01
 -1      3557 5.66528E-01
 -1      3558 6.38639E-01
 -1      3559 3.72492E-01
 -1      3560 4.29308E-01
 -1      3561 4.85729E-01
 -1      3562 2.73494E-01
 -1      3563 3.18807E-01
 -1      3564 3.64235E-01
 -1      3565 1.98998E-01
 -1      3566 2.30555E-01
 -1      3567 2.67611E-01
 -1      3568 1.45210E-01
 -1      3569 1.70348E-01
 -1      3570 1.96021E-01
 -1      3571 1.43538E-01
 -1      3572 1.43538E-01
 -1      3573 3.10418E-01
 -1      3574 3.18705E-01
 -1      3575 2.83087E-01
 -1      3576 1.81741E+00
 -1      3577 2.06722E+00
 -1      3578 1.77866E+00
 -1      3579 7.82121E+00
 -1      3580 7.61679E+00
 -1      3581 6.16609E+00
 -1      3582 2.18888E-01
 -1      3583 2.00948E-01
 -1      3584 2.13850E-01
 -1      3585 6.09651E-01
 -1      3586 5.28890E-01
 -1      3587 6.96088E-01
 -1      3588 4.48880E-01
 -1      3589 3.79786E-01
 -1      3590 3.72615E-01
 -1      3591 5.17809E-01
 -1      3592 7.92656E+00
 -1      3593 6.79173E+00
 -1      3594 1.55579E-01
 -1      3595 1.79414E-01
 -1      3596 2.52744E-01
 -1      3597 2.12707E+00
 -1      3598 2.02443E+00
 -1      3599 2.49634E+00
 -1      3600 2.66454E+00
 -1      3601 6.63618E+00
 -1      3602 1.17986E-01
 -1      3603 1.40413E-01
 -1      3604 1.30768E-01
 -1      3605 2.06522E-01
 -1      3606 1.63149E-01
 -1      3607 2.54229E-01
 -1      3608 1.30858E-01
 -1      3609 1.40393E-01
 -1      3610 1.82681E-01
 -1      3611 1.88187E-01
 -1      3612 1.45983E-01
 -1      3613 9.18466E+00
 -1      3614 9.18466E+00
 -1      3615 9.13895E-02
 -1      3616 8.85064E-02
 -1      3617 1.01183E-01
 -1      3618 1.13870E-01
 -1      3619 1.42866E-01
 -1      3620 1.43538E-01
 -1      3621 1.63574E-01
 -1      3622 1.61101E-01
 -1      3623 1.94738E-01
 -1      3624 2.19143E-01
 -1      3625 1.61257E-01
 -1      3626 6.44698E+00
 -1      3627 3.64586E+00
 -1      3628 4.45229E+00
 -1      3629 2.43293E-01
 -1      3630 2.17878E-01
 -1      3631 1.73230E-01
 -1      3632 2.45757E-01
 -1      3633 2.20294E-01
 -1      3634 2.24735E-01
 -1      3635 2.39971E-01
 -1      3636 1.82172E-01
 -1      3637 2.47242E-01
 -1      3638 2.43078E-01
 -1      3639 7.15046E+00
 -1      3640 2.56315E+00
 -1      3641 2.47259E+00
 -1      3642 3.44567E+00
 -1      3643 3.44567E+00
 -1      3644 7.71540E+00
 -1      3645 6.16939E+00
 -1      3646 6.85056E+00
 -1      3647 1.38272E-01
 -1      3648 1.17108E-01
 -1      3649 1.12940E-01
 -1      3650 1.61585E-01
 -1      3651 7.31958E+00
 -1      3652 5.06687E+00
 -1      3653 1.03792E-01
 -1      3654 1.20735E-01
 -1      3655 1.18351E-01
 -1      3656 2.90255E+00
 -1      3657 5.72786E+00
 -1      3658 7.35629E+00
 -1      3659 6.37180E+00
 -1      3660 1.62067E-01
 -1      3661 1.42032E-01
 -1      3662 1.44235E-01
 -1      3663 1.14544E-01
 -1      3664 1.69179E-01
 -1      3665 1.31302E-01
 -1      3666 1.11909E-01
 -1      3667 1.36705E-01
 -1      3668 5.36404E+00
 -1      3669 2.53429E-01
 -1      3670 2.17405E-01
 -1      3671 2.53429E-01
 -1      3672 3.32898E+00
 -1      3673 2.79012E-01
 -1      3674 1.67216E-01
 -1      3675 1.67216E-01
 -1      3676 1.83542E-01
 -1      3677 1.67216E-01
 -1      3678 1.64113E-01
 -1      3679 2.06523E-01
 -1      3680 4.66672E+00
 -1      3681 6.19996E+00
 -1      3682 5.19368E+00
 -1      3683 8.61506E+00
 -1      3684 5.98842E+00
 -1      3685 6.36920E+00
 -1      3686 7.27625E+00
 -1      3687 1.18730E-01
 -1      3688 1.46500E-01
 -1      3689 1.28431E-01
 -1      3690 1.26006E-01
 -1      3691 5.82785E+00
 -1      3692 6.42028E+00
 -1      3693 1.26556E-01
 -1      3694 1.14416E-01
 -1      3695 1.03479E-01
 -1      3696 1.21389E-01
 -1      3697 1.15117E-01
 -1      3698 1.11001E-01
 -1      3699 1.26653E-01
 -1      3700 1.33604E-01
 -1      3701 1.29510E-01
 -1      3702 1.44268E-01
 -1      3703 1.50433E-01
 -1      3704 1.51711E-01
 -1      3705 1.61744E-01
 -1      3706 1.87950E-01
 -1      3707 1.73686E-01
 -1      3708 2.24141E-01
 -1      3709 2.64620E-01
 -1      3710 2.21188E-01
 -1      3711 3.10526E-01
 -1      3712 3.55511E-01
 -1      3713 3.03285E-01
 -1      3714 4.10095E-01
 -1      3715 4.58358E-01
 -1      3716 4.03774E-01
 -1      3717 5.22890E-01
 -1      3718 5.87423E-01
 -1      3719 5.22890E-01
 -1      3720 6.62032E-01
 -1      3721 7.36641E-01
 -1      3722 6.62032E-01
 -1      3723 8.45744E-01
 -1      3724 9.69355E-01
 -1      3725 8.45744E-01
 -1      3726 1.12651E+00
 -1      3727 1.28289E+00
 -1      3728 1.11200E+00
 -1      3729 1.60465E+00
 -1      3730 1.77355E+00
 -1      3731 1.59091E+00
 -1      3732 2.54284E+00
 -1      3733 2.77509E+00
 -1      3734 2.68196E+00
 -1      3735 4.19852E+00
 -1      3736 3.54382E+00
 -1      3737 3.17023E+00
 -1      3738 5.21503E+00
 -1      3739 1.29001E+00
 -1      3740 1.14516E+00
 -1      3741 2.86576E-01
 -1      3742 2.33373E-01
 -1      3743 2.10349E-01
 -1      3744 2.42208E-01
 -1      3745 2.46283E-01
 -1      3746 1.87748E+00
 -1      3747 1.67222E+00
 -1      3748 1.33889E+00
 -1      3749 1.18116E+00
 -1      3750 1.66093E+00
 -1      3751 1.01309E+00
 -1      3752 8.83187E-01
 -1      3753 1.15952E+00
 -1      3754 7.70860E-01
 -1      3755 6.92755E-01
 -1      3756 8.79118E-01
 -1      3757 6.18720E-01
 -1      3758 5.56960E-01
 -1      3759 6.92755E-01
 -1      3760 4.93316E-01
 -1      3761 4.48488E-01
 -1      3762 5.55076E-01
 -1      3763 3.95267E-01
 -1      3764 3.54092E-01
 -1      3765 4.38211E-01
 -1      3766 3.10343E-01
 -1      3767 2.74124E-01
 -1      3768 3.41241E-01
 -1      3769 2.37850E-01
 -1      3770 2.06871E-01
 -1      3771 2.61218E-01
 -1      3772 1.73713E-01
 -1      3773 9.82817E-01
 -1      3774 8.62561E-01
 -1      3775 1.09311E+00
 -1      3776 2.38263E+00
 -1      3777 2.04775E+00
 -1      3778 3.50324E+00
 -1      3779 2.85946E+00
 -1      3780 2.85864E+00
 -1      3781 1.01924E+00
 -1      3782 1.14903E+00
 -1      3783 2.64502E+00
 -1      3784 2.17451E+00
 -1      3785 2.29129E+00
 -1      3786 5.47363E+00
 -1      3787 7.76104E-01
 -1      3788 8.81990E-01
 -1      3789 9.65713E-01
 -1      3790 1.34197E+00
 -1      3791 1.49878E+00
 -1      3792 1.29589E+00
 -1      3793 5.90170E-01
 -1      3794 6.75272E-01
 -1      3795 7.27635E-01
 -1      3796 4.46131E-01
 -1      3797 5.13940E-01
 -1      3798 5.50573E-01
 -1      3799 3.33996E-01
 -1      3800 3.87681E-01
 -1      3801 4.15892E-01
 -1      3802 2.46623E-01
 -1      3803 2.89562E-01
 -1      3804 3.13009E-01
 -1      3805 1.33743E-01
 -1      3806 1.49067E-01
 -1      3807 2.46283E-01
 -1      3808 2.46283E-01
 -1      3809 2.09479E-01
 -1      3810 1.75851E+00
 -1      3811 2.02845E+00
 -1      3812 1.74857E+00
 -1      3813 5.25557E+00
 -1      3814 5.07785E+00
 -1      3815 1.92494E-01
 -1      3816 2.51391E-01
 -1      3817 2.15542E-01
 -1      3818 1.63089E-01
 -1      3819 1.94186E-01
 -1      3820 2.28480E-01
 -1      3821 7.43978E-01
 -1      3822 6.45708E-01
 -1      3823 8.12181E-01
 -1      3824 1.44537E-01
 -1      3825 2.74737E+00
 -1      3826 3.60131E+00
 -1      3827 2.72722E+00
 -1      3828 1.71369E+00
 -1      3829 1.51913E+00
 -1      3830 2.04775E+00
 -1      3831 4.04312E+00
 -1      3832 6.98589E+00
 -1      3833 1.86947E-01
 -1      3834 1.47753E-01
 -1      3835 1.55703E-01
 -1      3836 1.30201E-01
 -1      3837 2.53429E-01
 -1      3838 6.37180E+00
 -1      3839 6.37180E+00
 -1      3840 1.16590E-01
 -1      3841 1.31756E-01
 -1      3842 1.19566E-01
 -1      3843 5.30586E+00
 -1      3844 1.91786E-01
 -1      3845 1.50624E-01
 -1      3846 1.56215E-01
 -1      3847 1.23110E-01
 -1      3848 5.52796E+00
 -1      3849 1.76273E-01
 -1      3850 4.83392E+00
 -1      3851 3.66840E+00
 -1      3852 2.84343E+00
 -1      3853 3.58793E+00
 -1      3854 3.41719E-01
 -1      3855 3.20863E-01
 -1      3856 4.06902E-01
 -1      3857 2.99451E+00
 -1      3858 2.93780E+00
 -1      3859 2.26314E-01
 -1      3860 1.93967E-01
 -1      3861 1.62120E-01
 -1      3862 1.48457E+00
 -1      3863 1.94259E-01
 -1      3864 4.16733E+00
 -1      3865 5.07785E+00
 -1      3866 4.81734E+00
 -1      3867 2.08953E-01
 -1      3868 1.81544E-01
 -1      3869 1.80037E-01
 -1      3870 1.29216E-01
 -1      3871 3.37562E+00
 -1      3872 3.95695E+00
 -1      3873 5.46736E+00
 -1      3874 2.15597E-01
 -1      3875 2.37549E-01
 -1      3876 4.40142E+00
 -1      3877 4.89753E+00
 -1      3878 3.80929E+00
 -1      3879 3.74741E+00
 -1      3880 6.04196E-01
 -1      3881 5.56307E-01
 -1      3882 4.76297E-01
 -1      3883 1.30288E-01
 -1      3884 1.27539E-01
 -1      3885 1.28527E-01
 -1      3886 2.23591E-01
 -1      3887 1.80037E-01
 -1      3888 2.03018E-01
 -1      3889 1.99514E-01
 -1      3890 2.25212E-01
 -1      3891 2.25212E-01
 -1      3892 2.56238E-01
 -1      3893 2.21707E-01
 -1      3894 4.43890E+00
 -1      3895 3.81575E+00
 -1      3896 6.25601E+00
 -1      3897 6.58970E+00
 -1      3898 3.51959E+00
 -1      3899 4.65298E+00
 -1      3900 4.80815E+00
 -1      3901 5.63932E+00
 -1      3902 1.87080E-01
 -1      3903 1.80893E-01
 -1      3904 1.82950E-01
 -1      3905 1.77041E-01
 -1      3906 1.76171E-01
 -1      3907 1.46715E-01
 -1      3908 4.68177E+00
 -1      3909 5.25137E+00
 -1      3910 4.52119E+00
 -1      3911 4.62276E+00
 -1      3912 4.21589E+00
 -1      3913 4.21589E+00
 -1      3914 1.80394E-01
 -1      3915 1.80394E-01
 -1      3916 1.98364E-01
 -1      3917 1.11848E-01
 -1      3918 1.18820E-01
 -1      3919 1.29510E-01
 -1      3920 1.41047E-01
 -1      3921 1.30357E-01
 -1      3922 1.54177E-01
 -1      3923 1.64841E-01
 -1      3924 1.54177E-01
 -1      3925 1.77383E-01
 -1      3926 1.88694E-01
 -1      3927 1.79849E-01
 -1      3928 2.11723E-01
 -1      3929 2.47913E-01
 -1      3930 2.15419E-01
 -1      3931 2.80187E-01
 -1      3932 3.26093E-01
 -1      3933 2.70722E-01
 -1      3934 3.77799E-01
 -1      3935 4.32382E-01
 -1      3936 3.54701E-01
 -1      3937 5.00064E-01
 -1      3938 5.64596E-01
 -1      3939 4.74088E-01
 -1      3940 6.53857E-01
 -1      3941 7.28467E-01
 -1      3942 6.31031E-01
 -1      3943 8.45744E-01
 -1      3944 9.54846E-01
 -1      3945 8.37569E-01
 -1      3946 1.11200E+00
 -1      3947 1.26915E+00
 -1      3948 1.11200E+00
 -1      3949 1.86487E+00
 -1      3950 2.18663E+00
 -1      3951 1.86487E+00
 -1      3952 1.31147E+00
 -1      3953 1.14340E+00
 -1      3954 9.91445E-01
 -1      3955 8.79118E-01
 -1      3956 1.14340E+00
 -1      3957 7.57775E-01
 -1      3958 6.83739E-01
 -1      3959 8.70102E-01
 -1      3960 5.93080E-01
 -1      3961 5.29436E-01
 -1      3962 6.58100E-01
 -1      3963 4.61277E-01
 -1      3964 4.08055E-01
 -1      3965 4.99281E-01
 -1      3966 3.55859E-01
 -1      3967 3.12110E-01
 -1      3968 3.78925E-01
 -1      3969 2.88000E-01
 -1      3970 2.51726E-01
 -1      3971 3.02619E-01
 -1      3972 1.11052E+00
 -1      3973 9.48174E-01
 -1      3974 3.02950E+00
 -1      3975 2.68001E+00
 -1      3976 6.27910E-01
 -1      3977 7.28742E-01
 -1      3978 3.12517E+00
 -1      3979 2.64834E+00
 -1      3980 2.38298E+00
 -1      3981 1.83476E-01
 -1      3982 1.45408E-01
 -1      3983 1.37291E-01
 -1      3984 1.46480E-01
 -1      3985 1.83476E-01
 -1      3986 1.83476E-01
 -1      3987 1.50168E-01
 -1      3988 4.75297E-01
 -1      3989 5.51528E-01
 -1      3990 5.52634E-01
 -1      3991 1.13278E+00
 -1      3992 1.32572E+00
 -1      3993 3.59681E-01
 -1      3994 4.18132E-01
 -1      3995 4.19086E-01
 -1      3996 2.88883E-01
 -1      3997 3.33317E-01
 -1      3998 3.35556E-01
 -1      3999 2.76546E-01
 -1      4000 4.74703E+00
 -1      4001 5.17731E+00
 -1      4002 1.53670E+00
 -1      4003 1.30758E+00
 -1      4004 1.16265E+00
 -1      4005 1.57040E+00
 -1      4006 1.83014E+00
 -1      4007 1.40729E+00
 -1      4008 1.32895E-01
 -1      4009 1.62299E-01
 -1      4010 1.44386E-01
 -1      4011 2.31826E+00
 -1      4012 3.03718E+00
 -1      4013 2.14010E+00
 -1      4014 8.36613E-01
 -1      4015 9.73859E-01
 -1      4016 7.36888E-01
 -1      4017 4.78387E+00
 -1      4018 4.78387E+00
 -1      4019 2.21515E+00
 -1      4020 1.88109E+00
 -1      4021 1.70410E+00
 -1      4022 1.19580E-01
 -1      4023 9.23079E-02
 -1      4024 2.28327E-01
 -1      4025 2.28327E-01
 -1      4026 3.74741E+00
 -1      4027 3.56217E+00
 -1      4028 4.76901E+00
 -1      4029 4.54851E+00
 -1      4030 3.15321E+00
 -1      4031 1.87080E-01
 -1      4032 1.87080E-01
 -1      4033 1.50568E-01
 -1      4034 1.25788E-01
 -1      4035 2.63301E+00
 -1      4036 2.29967E+00
 -1      4037 2.28355E+00
 -1      4038 4.19111E+00
 -1      4039 8.19442E-01
 -1      4040 7.00859E-01
 -1      4041 8.36852E-01
 -1      4042 1.17579E-01
 -1      4043 1.19566E-01
 -1      4044 9.79944E-02
 -1      4045 9.85439E-02
 -1      4046 1.06364E-01
 -1      4047 8.73732E-02
 -1      4048 1.57473E-01
 -1      4049 3.45125E+00
 -1      4050 4.45401E-01
 -1      4051 1.16327E-01
 -1      4052 1.12475E-01
 -1      4053 3.50762E+00
 -1      4054 2.30965E+00
 -1      4055 3.07895E+00
 -1      4056 3.33579E-01
 -1      4057 2.78436E-01
 -1      4058 2.37862E-01
 -1      4059 2.11079E-01
 -1      4060 1.70196E-01
 -1      4061 2.81397E-01
 -1      4062 2.41990E-01
 -1      4063 2.94112E-01
 -1      4064 1.06121E-01
 -1      4065 1.07678E-01
 -1      4066 1.04134E-01
 -1      4067 1.00368E+00
 -1      4068 3.48301E+00
 -1      4069 3.48301E+00
 -1      4070 3.07895E+00
 -1      4071 2.48167E+00
 -1      4072 3.02173E+00
 -1      4073 4.43998E+00
 -1      4074 4.08933E+00
 -1      4075 1.12837E-01
 -1      4076 6.17534E-01
 -1      4077 6.10273E-01
 -1      4078 5.20872E-01
 -1      4079 1.19580E-01
 -1      4080 3.12497E+00
 -1      4081 1.42195E-01
 -1      4082 1.31246E-01
 -1      4083 1.31246E-01
 -1      4084 4.13386E+00
 -1      4085 2.50520E-01
 -1      4086 3.86350E+00
 -1      4087 3.81146E+00
 -1      4088 3.84184E+00
 -1      4089 2.58361E+00
 -1      4090 1.12865E-01
 -1      4091 7.86246E-02
 -1      4092 3.44954E+00
 -1      4093 2.85677E+00
 -1      4094 2.37862E-01
 -1      4095 2.39011E-01
 -1      4096 2.67824E-01
 -1      4097 8.04716E-02
 -1      4098 8.39338E-02
 -1      4099 1.54177E-01
 -1      4100 1.67307E-01
 -1      4101 1.79849E-01
 -1      4102 1.92391E-01
 -1      4103 1.79849E-01
 -1      4104 2.29362E-01
 -1      4105 2.52391E-01
 -1      4106 2.29362E-01
 -1      4107 2.74052E-01
 -1      4108 3.06326E-01
 -1      4109 2.87995E-01
 -1      4110 3.27556E-01
 -1      4111 3.79262E-01
 -1      4112 3.30886E-01
 -1      4113 4.15398E-01
 -1      4114 4.83079E-01
 -1      4115 3.88253E-01
 -1      4116 6.58405E-01
 -1      4117 7.47666E-01
 -1      4118 5.99714E-01
 -1      4119 9.21149E-01
 -1      4120 1.03843E+00
 -1      4121 9.48523E-01
 -1      4122 1.29509E+00
 -1      4123 1.45224E+00
 -1      4124 1.37867E+00
 -1      4125 2.03392E+00
 -1      4126 2.62964E+00
 -1      4127 2.21701E+00
 -1      4128 1.12865E-01
 -1      4129 2.63690E-01
 -1      4130 2.53005E-01
 -1      4131 2.06149E-01
 -1      4132 1.89437E-01
 -1      4133 2.61231E-01
 -1      4134 8.58419E-01
 -1      4135 1.01734E+00
 -1      4136 9.16782E-01
 -1      4137 7.95439E-01
 -1      4138 6.77179E-01
 -1      4139 5.86520E-01
 -1      4140 7.23859E-01
 -1      4141 5.04539E-01
 -1      4142 4.36380E-01
 -1      4143 5.23619E-01
 -1      4144 2.75266E+00
 -1      4145 2.78509E-01
 -1      4146 3.43061E+00
 -1      4147 3.56387E+00
 -1      4148 3.48266E+00
 -1      4149 2.90563E+00
 -1      4150 1.37617E-01
 -1      4151 1.25018E+00
 -1      4152 1.09823E+00
 -1      4153 1.02357E+00
 -1      4154 1.12475E-01
 -1      4155 1.19780E-01
 -1      4156 8.18867E-02
 -1      4157 8.20868E-02
 -1      4158 3.67613E-01
 -1      4159 4.24779E-01
 -1      4160 1.24086E+00
 -1      4161 1.04380E+00
 -1      4162 4.54238E-01
 -1      4163 3.84843E-01
 -1      4164 3.42416E-01
 -1      4165 4.60314E-01
 -1      4166 1.33362E-01
 -1      4167 1.44052E-01
 -1      4168 1.57182E-01
 -1      4169 2.62964E+00
 -1      4170 1.18160E+00
 -1      4171 1.42629E+00
 -1      4172 1.03634E+00
 -1      4173 2.02250E+00
 -1      4174 2.51063E+00
 -1      4175 2.78803E+00
 -1      4176 1.79682E+00
 -1      4177 2.42359E+00
 -1      4178 6.36747E-01
 -1      4179 7.44618E-01
 -1      4180 7.58278E-01
 -1      4181 1.95069E+00
 -1      4182 1.60630E+00
 -1      4183 1.48745E+00
 -1      4184 2.78509E-01
 -1      4185 2.78509E-01
 -1      4186 2.63690E-01
 -1      4187 3.02619E-01
 -1      4188 4.82993E-01
 -1      4189 5.59375E-01
 -1      4190 4.31520E-01
 -1      4191 2.79869E+00
 -1      4192 9.99146E-02
 -1      4193 1.55051E-01
 -1      4194 1.48047E-01
 -1      4195 1.91004E-01
 -1      4196 8.70312E-01
 -1      4197 7.41580E-01
 -1      4198 9.48523E-01
 -1      4199 3.48301E+00
 -1      4200 3.22739E+00
 -1      4201 2.23919E+00
 -1      4202 2.19402E+00
 -1      4203 2.83166E-01
 -1      4204 9.11927E-02
 -1      4205 8.93457E-02
 -1      4206 8.93457E-02
 -1      4207 7.43674E-01
 -1      4208 7.10214E-01
 -1      4209 6.19628E-01
 -1      4210 8.29258E-02
 -1      4211 8.82349E-02
 -1      4212 1.50766E-01
 -1      4213 8.93457E-02
 -1      4214 8.91456E-02
 -1      4215 9.48322E-02
 -1      4216 9.66046E-02
 -1      4217 2.94112E-01
 -1      4218 2.97073E-01
 -1      4219 1.16434E-01
 -1      4220 1.02989E-01
 -1      4221 1.00535E-01
 -1      4222 2.32579E+00
 -1      4223 3.80336E-01
 -1      4224 3.28140E-01
 -1      4225 5.67105E-01
 -1      4226 1.45807E-01
 -1      4227 1.32140E-01
 -1      4228 1.30995E-01
 -1      4229 2.83166E-01
 -1      4230 3.09192E-01
 -1      4231 3.35556E-01
 -1      4232 2.79031E-01
 -1      4233 2.79869E+00
 -1      4234 3.75459E-01
 -1      4235 3.24195E-01
 -1      4236 3.27156E-01
 -1      4237 3.41249E-01
 -1      4238 3.18303E+00
 -1      4239 3.48266E+00
 -1      4240 3.52701E+00
 -1      4241 9.27361E-02
 -1      4242 1.06040E-01
 -1      4243 1.19734E-01
 -1      4244 9.45085E-02
 -1      4245 3.58404E+00
 -1      4246 2.79869E+00
 -1      4247 3.85595E-01
 -1      4248 7.43298E-01
 -1      4249 8.57100E-01
 -1      4250 1.98773E-01
 -1      4251 1.92921E-01
 -1      4252 1.93814E-01
 -1      4253 2.44732E-01
 -1      4254 2.81703E-01
 -1      4255 2.81703E-01
 -1      4256 3.03364E-01
 -1      4257 3.33447E-01
 -1      4258 3.54677E-01
 -1      4259 5.68349E-01
 -1      4260 7.43674E-01
 -1      4261 7.75039E-01
 -1      4262 9.48523E-01
 -1      4263 1.12201E+00
 -1      4264 1.37867E+00
 -1      4265 1.74411E+00
 -1      4266 2.32579E+00
 -1      4267 2.97073E-01
 -1      4268 2.61231E-01
 -1      4269 4.07472E-01
 -1      4270 4.65686E-01
 -1      4271 1.05947E-01
 -1      4272 1.03855E+00
 -1      4273 6.25038E-01
 -1      4274 5.47666E-01
 -1      4275 2.97073E-01
 -1      4276 1.20281E+00
 -1      4277 1.53885E-01
 -1      4278 1.64011E-01
 -1      4279 3.04030E-01
 -1      4280 2.04118E-01
 -1      4281 2.16659E-01
 -1      4282 2.69000E-01
 -1      4283 2.00821E-01
 -1      4284 4.88847E-01
 -1      4285 4.22213E-01
 -1      4286 5.81527E-01
 -1      4287 2.33159E-01
 -1      4288 3.83407E+00
 -1      4289 3.51429E-01
 -1      4290 2.19182E+00
 -1      4291 2.89211E-01
 -1      4292 3.88253E-01
 -1      4293 4.24389E-01
 -1      4294 1.31173E-01
 -1      4295 1.21831E-01
 -1      4296 1.21831E-01
 -1      4297 1.46879E-01
 -1      4298 3.11088E-01
 -1      4299 5.68349E-01
 -1      4300 4.03992E-01
 -1      4301 7.43674E-01
 -1      4302 2.78803E+00
 -1      4303 2.00821E-01
 -1      4304 1.53707E-01
 -1      4305 3.90814E-01
 -1      4306 2.40928E-01
 -1      4307 2.69000E-01
 -1      4308 1.19734E-01
 -1      4309 1.47056E-01
 -1      4310 1.53885E-01
 -1      4311 4.37567E-01
 -1      4312 5.81527E-01
 -1      4313 7.12308E-01
 -3
 9999
