    1C
    1UUSER                                                              
    1UDATE              27.october.2022                                 
    1UTIME              01:04:01                                        
    1UHOST                                                              
    1UPGM               CalculiX                                        
    1UVERSION           Version 2.17                             
    1UCOMPILETIME       Thu Jul 23 21:43:50 CEST 2020                    
    1UDIR                                                               
    1UDBN                                                               
    1UMAT    1SOLIDMATERIAL                                             
    2C                          4316                                     1
 -1         1 1.22736E+02 2.63639E+01 0.00000E+00
 -1         2 1.34905E+02 2.16438E+01 0.00000E+00
 -1         3 1.50000E+02 0.00000E+00 0.00000E+00
 -1         4 1.50000E+02 5.00000E+01 0.00000E+00
 -1         5 0.00000E+00 0.00000E+00 0.00000E+00
 -1         6 0.00000E+00 5.00000E+01 0.00000E+00
 -1         7 0.00000E+00 4.70500E+01 0.00000E+00
 -1         8 0.00000E+00 4.41000E+01 0.00000E+00
 -1         9 0.00000E+00 4.11500E+01 0.00000E+00
 -1        10 0.00000E+00 3.82000E+01 0.00000E+00
 -1        11 0.00000E+00 3.52500E+01 0.00000E+00
 -1        12 0.00000E+00 3.23500E+01 0.00000E+00
 -1        13 0.00000E+00 2.94000E+01 0.00000E+00
 -1        14 0.00000E+00 2.64500E+01 0.00000E+00
 -1        15 0.00000E+00 2.35000E+01 0.00000E+00
 -1        16 0.00000E+00 2.05500E+01 0.00000E+00
 -1        17 0.00000E+00 1.76000E+01 0.00000E+00
 -1        18 0.00000E+00 1.47000E+01 0.00000E+00
 -1        19 0.00000E+00 1.17500E+01 0.00000E+00
 -1        20 0.00000E+00 8.80000E+00 0.00000E+00
 -1        21 0.00000E+00 5.85000E+00 0.00000E+00
 -1        22 0.00000E+00 2.90000E+00 0.00000E+00
 -1        23 3.15000E+00 5.00000E+01 0.00000E+00
 -1        24 6.15000E+00 5.00000E+01 0.00000E+00
 -1        25 9.15000E+00 5.00000E+01 0.00000E+00
 -1        26 1.21500E+01 5.00000E+01 0.00000E+00
 -1        27 1.51500E+01 5.00000E+01 0.00000E+00
 -1        28 1.81500E+01 5.00000E+01 0.00000E+00
 -1        29 2.11500E+01 5.00000E+01 0.00000E+00
 -1        30 2.41500E+01 5.00000E+01 0.00000E+00
 -1        31 2.71500E+01 5.00000E+01 0.00000E+00
 -1        32 3.01500E+01 5.00000E+01 0.00000E+00
 -1        33 3.31500E+01 5.00000E+01 0.00000E+00
 -1        34 3.61500E+01 5.00000E+01 0.00000E+00
 -1        35 3.91500E+01 5.00000E+01 0.00000E+00
 -1        36 4.21500E+01 5.00000E+01 0.00000E+00
 -1        37 4.51500E+01 5.00000E+01 0.00000E+00
 -1        38 4.81500E+01 5.00000E+01 0.00000E+00
 -1        39 5.11500E+01 5.00000E+01 0.00000E+00
 -1        40 5.41500E+01 5.00000E+01 0.00000E+00
 -1        41 5.71500E+01 5.00000E+01 0.00000E+00
 -1        42 6.01500E+01 5.00000E+01 0.00000E+00
 -1        43 6.31500E+01 5.00000E+01 0.00000E+00
 -1        44 6.61500E+01 5.00000E+01 0.00000E+00
 -1        45 6.91500E+01 5.00000E+01 0.00000E+00
 -1        46 7.21500E+01 5.00000E+01 0.00000E+00
 -1        47 7.51500E+01 5.00000E+01 0.00000E+00
 -1        48 7.81500E+01 5.00000E+01 0.00000E+00
 -1        49 8.11500E+01 5.00000E+01 0.00000E+00
 -1        50 8.41500E+01 5.00000E+01 0.00000E+00
 -1        51 8.71500E+01 5.00000E+01 0.00000E+00
 -1        52 9.01500E+01 5.00000E+01 0.00000E+00
 -1        53 9.31500E+01 5.00000E+01 0.00000E+00
 -1        54 9.61500E+01 5.00000E+01 0.00000E+00
 -1        55 9.91500E+01 5.00000E+01 0.00000E+00
 -1        56 1.02150E+02 5.00000E+01 0.00000E+00
 -1        57 1.05150E+02 5.00000E+01 0.00000E+00
 -1        58 1.08150E+02 5.00000E+01 0.00000E+00
 -1        59 1.11150E+02 5.00000E+01 0.00000E+00
 -1        60 1.14150E+02 5.00000E+01 0.00000E+00
 -1        61 1.17150E+02 5.00000E+01 0.00000E+00
 -1        62 1.20150E+02 5.00000E+01 0.00000E+00
 -1        63 1.23150E+02 5.00000E+01 0.00000E+00
 -1        64 1.26150E+02 5.00000E+01 0.00000E+00
 -1        65 1.29150E+02 5.00000E+01 0.00000E+00
 -1        66 1.32150E+02 5.00000E+01 0.00000E+00
 -1        67 1.35150E+02 5.00000E+01 0.00000E+00
 -1        68 1.38150E+02 5.00000E+01 0.00000E+00
 -1        69 1.41150E+02 5.00000E+01 0.00000E+00
 -1        70 1.44150E+02 5.00000E+01 0.00000E+00
 -1        71 1.47150E+02 5.00000E+01 0.00000E+00
 -1        72 3.15000E+00 0.00000E+00 0.00000E+00
 -1        73 6.15000E+00 0.00000E+00 0.00000E+00
 -1        74 9.15000E+00 0.00000E+00 0.00000E+00
 -1        75 1.21500E+01 0.00000E+00 0.00000E+00
 -1        76 1.51500E+01 0.00000E+00 0.00000E+00
 -1        77 1.81500E+01 0.00000E+00 0.00000E+00
 -1        78 2.11500E+01 0.00000E+00 0.00000E+00
 -1        79 2.41500E+01 0.00000E+00 0.00000E+00
 -1        80 2.71500E+01 0.00000E+00 0.00000E+00
 -1        81 3.01500E+01 0.00000E+00 0.00000E+00
 -1        82 3.31500E+01 0.00000E+00 0.00000E+00
 -1        83 3.61500E+01 0.00000E+00 0.00000E+00
 -1        84 3.91500E+01 0.00000E+00 0.00000E+00
 -1        85 4.21500E+01 0.00000E+00 0.00000E+00
 -1        86 4.51500E+01 0.00000E+00 0.00000E+00
 -1        87 4.81500E+01 0.00000E+00 0.00000E+00
 -1        88 5.11500E+01 0.00000E+00 0.00000E+00
 -1        89 5.41500E+01 0.00000E+00 0.00000E+00
 -1        90 5.71500E+01 0.00000E+00 0.00000E+00
 -1        91 6.01500E+01 0.00000E+00 0.00000E+00
 -1        92 6.31500E+01 0.00000E+00 0.00000E+00
 -1        93 6.61500E+01 0.00000E+00 0.00000E+00
 -1        94 6.91500E+01 0.00000E+00 0.00000E+00
 -1        95 7.21500E+01 0.00000E+00 0.00000E+00
 -1        96 7.51500E+01 0.00000E+00 0.00000E+00
 -1        97 7.81500E+01 0.00000E+00 0.00000E+00
 -1        98 8.11500E+01 0.00000E+00 0.00000E+00
 -1        99 8.41500E+01 0.00000E+00 0.00000E+00
 -1       100 8.71500E+01 0.00000E+00 0.00000E+00
 -1       101 9.01500E+01 0.00000E+00 0.00000E+00
 -1       102 9.31500E+01 0.00000E+00 0.00000E+00
 -1       103 9.61500E+01 0.00000E+00 0.00000E+00
 -1       104 9.91500E+01 0.00000E+00 0.00000E+00
 -1       105 1.02150E+02 0.00000E+00 0.00000E+00
 -1       106 1.05150E+02 0.00000E+00 0.00000E+00
 -1       107 1.08150E+02 0.00000E+00 0.00000E+00
 -1       108 1.11150E+02 0.00000E+00 0.00000E+00
 -1       109 1.14150E+02 0.00000E+00 0.00000E+00
 -1       110 1.17150E+02 0.00000E+00 0.00000E+00
 -1       111 1.20150E+02 0.00000E+00 0.00000E+00
 -1       112 1.23150E+02 0.00000E+00 0.00000E+00
 -1       113 1.26150E+02 0.00000E+00 0.00000E+00
 -1       114 1.29150E+02 0.00000E+00 0.00000E+00
 -1       115 1.32150E+02 0.00000E+00 0.00000E+00
 -1       116 1.35150E+02 0.00000E+00 0.00000E+00
 -1       117 1.38150E+02 0.00000E+00 0.00000E+00
 -1       118 1.41150E+02 0.00000E+00 0.00000E+00
 -1       119 1.44150E+02 0.00000E+00 0.00000E+00
 -1       120 1.47150E+02 0.00000E+00 0.00000E+00
 -1       121 1.50000E+02 2.95000E+00 0.00000E+00
 -1       122 1.50000E+02 5.90000E+00 0.00000E+00
 -1       123 1.50000E+02 8.85000E+00 0.00000E+00
 -1       124 1.50000E+02 1.18000E+01 0.00000E+00
 -1       125 1.50000E+02 1.47500E+01 0.00000E+00
 -1       126 1.50000E+02 1.77000E+01 0.00000E+00
 -1       127 1.50000E+02 2.06500E+01 0.00000E+00
 -1       128 1.50000E+02 2.35500E+01 0.00000E+00
 -1       129 1.50000E+02 2.65000E+01 0.00000E+00
 -1       130 1.50000E+02 2.94000E+01 0.00000E+00
 -1       131 1.50000E+02 3.23500E+01 0.00000E+00
 -1       132 1.50000E+02 3.53000E+01 0.00000E+00
 -1       133 1.50000E+02 3.82500E+01 0.00000E+00
 -1       134 1.50000E+02 4.12000E+01 0.00000E+00
 -1       135 1.50000E+02 4.41500E+01 0.00000E+00
 -1       136 1.50000E+02 4.71000E+01 0.00000E+00
 -1       137 1.34743E+02 2.01436E+01 0.00000E+00
 -1       138 1.34258E+02 1.87038E+01 0.00000E+00
 -1       139 1.33479E+02 1.74086E+01 0.00000E+00
 -1       140 1.32492E+02 1.63558E+01 0.00000E+00
 -1       141 1.31269E+02 1.55047E+01 0.00000E+00
 -1       142 1.29878E+02 1.49275E+01 0.00000E+00
 -1       143 1.28348E+02 1.46578E+01 0.00000E+00
 -1       144 1.26908E+02 1.47152E+01 0.00000E+00
 -1       145 1.25397E+02 1.51086E+01 0.00000E+00
 -1       146 1.23965E+02 1.58578E+01 0.00000E+00
 -1       147 1.22863E+02 1.67887E+01 0.00000E+00
 -1       148 1.21981E+02 1.79153E+01 0.00000E+00
 -1       149 1.21288E+02 1.93614E+01 0.00000E+00
 -1       150 1.20957E+02 2.07989E+01 0.00000E+00
 -1       151 1.20934E+02 2.22794E+01 0.00000E+00
 -1       152 1.21236E+02 2.37683E+01 0.00000E+00
 -1       153 1.21813E+02 2.50911E+01 0.00000E+00
 -1       154 1.23786E+02 2.73036E+01 0.00000E+00
 -1       155 1.24966E+02 2.79969E+01 0.00000E+00
 -1       156 1.26272E+02 2.84505E+01 0.00000E+00
 -1       157 1.27758E+02 2.86422E+01 0.00000E+00
 -1       158 1.29104E+02 2.85403E+01 0.00000E+00
 -1       159 1.30456E+02 2.81624E+01 0.00000E+00
 -1       160 1.31669E+02 2.75456E+01 0.00000E+00
 -1       161 1.32750E+02 2.66969E+01 0.00000E+00
 -1       162 1.33648E+02 2.56472E+01 0.00000E+00
 -1       163 1.34362E+02 2.43468E+01 0.00000E+00
 -1       164 1.34776E+02 2.29816E+01 0.00000E+00
 -1       165 2.59800E+00 4.55750E+01 0.00000E+00
 -1       166 2.59800E+00 4.26250E+01 0.00000E+00
 -1       167 2.59800E+00 3.96750E+01 0.00000E+00
 -1       168 2.59800E+00 3.67250E+01 0.00000E+00
 -1       169 2.59800E+00 3.38250E+01 0.00000E+00
 -1       170 2.59800E+00 3.08750E+01 0.00000E+00
 -1       171 2.59800E+00 2.79250E+01 0.00000E+00
 -1       172 2.59800E+00 2.49750E+01 0.00000E+00
 -1       173 2.59800E+00 2.20250E+01 0.00000E+00
 -1       174 2.59800E+00 1.90750E+01 0.00000E+00
 -1       175 2.59800E+00 1.61750E+01 0.00000E+00
 -1       176 2.59800E+00 1.32250E+01 0.00000E+00
 -1       177 2.59800E+00 1.02750E+01 0.00000E+00
 -1       178 2.59800E+00 7.32500E+00 0.00000E+00
 -1       179 2.59800E+00 4.37500E+00 0.00000E+00
 -1       180 2.87400E+00 2.18750E+00 0.00000E+00
 -1       181 4.65000E+00 4.74020E+01 0.00000E+00
 -1       182 7.65000E+00 4.74020E+01 0.00000E+00
 -1       183 1.06500E+01 4.74020E+01 0.00000E+00
 -1       184 1.36500E+01 4.74020E+01 0.00000E+00
 -1       185 1.66500E+01 4.74020E+01 0.00000E+00
 -1       186 1.96500E+01 4.74020E+01 0.00000E+00
 -1       187 2.26500E+01 4.74020E+01 0.00000E+00
 -1       188 2.56500E+01 4.74020E+01 0.00000E+00
 -1       189 2.86500E+01 4.74020E+01 0.00000E+00
 -1       190 3.16500E+01 4.74020E+01 0.00000E+00
 -1       191 3.46500E+01 4.74020E+01 0.00000E+00
 -1       192 3.76500E+01 4.74020E+01 0.00000E+00
 -1       193 4.06500E+01 4.74020E+01 0.00000E+00
 -1       194 4.36500E+01 4.74020E+01 0.00000E+00
 -1       195 4.66500E+01 4.74020E+01 0.00000E+00
 -1       196 4.96500E+01 4.74020E+01 0.00000E+00
 -1       197 5.26500E+01 4.74020E+01 0.00000E+00
 -1       198 5.56500E+01 4.74020E+01 0.00000E+00
 -1       199 5.86500E+01 4.74020E+01 0.00000E+00
 -1       200 6.16500E+01 4.74020E+01 0.00000E+00
 -1       201 6.46500E+01 4.74020E+01 0.00000E+00
 -1       202 6.76500E+01 4.74020E+01 0.00000E+00
 -1       203 7.06500E+01 4.74020E+01 0.00000E+00
 -1       204 7.36500E+01 4.74020E+01 0.00000E+00
 -1       205 7.66500E+01 4.74020E+01 0.00000E+00
 -1       206 7.96500E+01 4.74020E+01 0.00000E+00
 -1       207 8.26500E+01 4.74020E+01 0.00000E+00
 -1       208 8.56500E+01 4.74020E+01 0.00000E+00
 -1       209 8.86500E+01 4.74020E+01 0.00000E+00
 -1       210 9.16500E+01 4.74020E+01 0.00000E+00
 -1       211 9.46500E+01 4.74020E+01 0.00000E+00
 -1       212 9.76500E+01 4.74020E+01 0.00000E+00
 -1       213 1.00650E+02 4.74020E+01 0.00000E+00
 -1       214 1.03650E+02 4.74020E+01 0.00000E+00
 -1       215 1.06650E+02 4.74020E+01 0.00000E+00
 -1       216 1.09650E+02 4.74020E+01 0.00000E+00
 -1       217 1.12650E+02 4.74020E+01 0.00000E+00
 -1       218 1.15650E+02 4.74020E+01 0.00000E+00
 -1       219 1.18650E+02 4.74020E+01 0.00000E+00
 -1       220 1.21650E+02 4.74020E+01 0.00000E+00
 -1       221 1.24650E+02 4.74020E+01 0.00000E+00
 -1       222 1.27650E+02 4.74020E+01 0.00000E+00
 -1       223 1.30650E+02 4.74020E+01 0.00000E+00
 -1       224 1.33650E+02 4.74020E+01 0.00000E+00
 -1       225 1.36650E+02 4.74020E+01 0.00000E+00
 -1       226 1.39650E+02 4.74020E+01 0.00000E+00
 -1       227 1.42650E+02 4.74020E+01 0.00000E+00
 -1       228 1.45650E+02 4.74020E+01 0.00000E+00
 -1       229 5.87400E+00 2.18750E+00 0.00000E+00
 -1       230 8.87400E+00 2.18750E+00 0.00000E+00
 -1       231 1.18740E+01 2.18750E+00 0.00000E+00
 -1       232 1.48740E+01 2.18750E+00 0.00000E+00
 -1       233 1.78740E+01 2.18750E+00 0.00000E+00
 -1       234 2.08740E+01 2.18750E+00 0.00000E+00
 -1       235 2.38740E+01 2.18750E+00 0.00000E+00
 -1       236 2.68740E+01 2.18750E+00 0.00000E+00
 -1       237 2.98740E+01 2.18750E+00 0.00000E+00
 -1       238 3.28740E+01 2.18750E+00 0.00000E+00
 -1       239 3.58740E+01 2.18750E+00 0.00000E+00
 -1       240 3.88740E+01 2.18750E+00 0.00000E+00
 -1       241 4.18740E+01 2.18750E+00 0.00000E+00
 -1       242 4.48740E+01 2.18750E+00 0.00000E+00
 -1       243 4.78740E+01 2.18750E+00 0.00000E+00
 -1       244 5.08740E+01 2.18750E+00 0.00000E+00
 -1       245 5.38740E+01 2.18750E+00 0.00000E+00
 -1       246 5.68740E+01 2.18750E+00 0.00000E+00
 -1       247 5.98740E+01 2.18750E+00 0.00000E+00
 -1       248 6.28740E+01 2.18750E+00 0.00000E+00
 -1       249 6.58740E+01 2.18750E+00 0.00000E+00
 -1       250 6.88740E+01 2.18750E+00 0.00000E+00
 -1       251 7.18740E+01 2.18750E+00 0.00000E+00
 -1       252 7.48740E+01 2.18750E+00 0.00000E+00
 -1       253 7.78740E+01 2.18750E+00 0.00000E+00
 -1       254 8.08740E+01 2.18750E+00 0.00000E+00
 -1       255 8.38740E+01 2.18750E+00 0.00000E+00
 -1       256 8.68740E+01 2.18750E+00 0.00000E+00
 -1       257 8.98740E+01 2.18750E+00 0.00000E+00
 -1       258 9.28740E+01 2.18750E+00 0.00000E+00
 -1       259 9.58740E+01 2.18750E+00 0.00000E+00
 -1       260 9.88740E+01 2.18750E+00 0.00000E+00
 -1       261 1.01874E+02 2.18750E+00 0.00000E+00
 -1       262 1.04874E+02 2.18750E+00 0.00000E+00
 -1       263 1.07874E+02 2.18750E+00 0.00000E+00
 -1       264 1.10874E+02 2.18750E+00 0.00000E+00
 -1       265 1.13874E+02 2.18750E+00 0.00000E+00
 -1       266 1.16874E+02 2.18750E+00 0.00000E+00
 -1       267 1.19874E+02 2.18750E+00 0.00000E+00
 -1       268 1.22874E+02 2.18750E+00 0.00000E+00
 -1       269 1.25874E+02 2.18750E+00 0.00000E+00
 -1       270 1.28874E+02 2.18750E+00 0.00000E+00
 -1       271 1.31874E+02 2.18750E+00 0.00000E+00
 -1       272 1.34874E+02 2.18750E+00 0.00000E+00
 -1       273 1.37874E+02 2.18750E+00 0.00000E+00
 -1       274 1.40874E+02 2.18750E+00 0.00000E+00
 -1       275 1.43874E+02 2.18750E+00 0.00000E+00
 -1       276 1.46874E+02 2.18750E+00 0.00000E+00
 -1       277 1.47402E+02 4.42500E+00 0.00000E+00
 -1       278 1.47402E+02 7.37500E+00 0.00000E+00
 -1       279 1.47402E+02 1.03250E+01 0.00000E+00
 -1       280 1.47402E+02 1.32750E+01 0.00000E+00
 -1       281 1.47402E+02 1.62250E+01 0.00000E+00
 -1       282 1.47402E+02 1.91750E+01 0.00000E+00
 -1       283 1.47402E+02 2.20750E+01 0.00000E+00
 -1       284 1.47402E+02 2.50250E+01 0.00000E+00
 -1       285 1.47402E+02 2.79250E+01 0.00000E+00
 -1       286 1.47402E+02 3.08750E+01 0.00000E+00
 -1       287 1.47402E+02 3.38250E+01 0.00000E+00
 -1       288 1.47402E+02 3.67750E+01 0.00000E+00
 -1       289 1.47402E+02 3.97250E+01 0.00000E+00
 -1       290 1.47402E+02 4.26750E+01 0.00000E+00
 -1       291 1.46526E+02 4.50385E+01 0.00000E+00
 -1       292 1.36113E+02 2.07540E+01 0.00000E+00
 -1       293 1.35888E+02 1.89567E+01 0.00000E+00
 -1       294 1.34979E+02 1.73880E+01 0.00000E+00
 -1       295 1.33870E+02 1.60531E+01 0.00000E+00
 -1       296 1.32573E+02 1.49350E+01 0.00000E+00
 -1       297 1.31070E+02 1.40190E+01 0.00000E+00
 -1       298 1.29353E+02 1.34337E+01 0.00000E+00
 -1       299 1.27580E+02 1.34751E+01 0.00000E+00
 -1       300 1.25826E+02 1.36575E+01 0.00000E+00
 -1       301 1.23964E+02 1.41121E+01 0.00000E+00
 -1       302 1.22632E+02 1.53968E+01 0.00000E+00
 -1       303 1.21467E+02 1.66048E+01 0.00000E+00
 -1       304 1.20314E+02 1.80057E+01 0.00000E+00
 -1       305 1.19941E+02 1.98078E+01 0.00000E+00
 -1       306 1.19733E+02 2.15209E+01 0.00000E+00
 -1       307 1.19814E+02 2.32809E+01 0.00000E+00
 -1       308 1.20413E+02 2.49148E+01 0.00000E+00
 -1       309 1.21022E+02 2.66361E+01 0.00000E+00
 -1       310 1.22453E+02 2.77373E+01 0.00000E+00
 -1       311 1.23762E+02 2.86956E+01 0.00000E+00
 -1       312 1.25221E+02 2.93689E+01 0.00000E+00
 -1       313 1.26838E+02 2.99150E+01 0.00000E+00
 -1       314 1.28523E+02 2.98002E+01 0.00000E+00
 -1       315 1.30107E+02 2.95190E+01 0.00000E+00
 -1       316 1.31612E+02 2.89347E+01 0.00000E+00
 -1       317 1.32959E+02 2.80745E+01 0.00000E+00
 -1       318 1.34120E+02 2.69601E+01 0.00000E+00
 -1       319 1.35067E+02 2.55810E+01 0.00000E+00
 -1       320 1.35810E+02 2.40403E+01 0.00000E+00
 -1       321 1.36048E+02 2.24291E+01 0.00000E+00
 -1       322 5.19600E+00 4.11500E+01 0.00000E+00
 -1       323 5.19600E+00 4.41000E+01 0.00000E+00
 -1       324 5.19600E+00 3.52750E+01 0.00000E+00
 -1       325 5.19600E+00 3.23250E+01 0.00000E+00
 -1       326 5.19600E+00 2.93750E+01 0.00000E+00
 -1       327 5.19600E+00 2.64250E+01 0.00000E+00
 -1       328 5.19600E+00 2.34750E+01 0.00000E+00
 -1       329 5.19600E+00 2.05250E+01 0.00000E+00
 -1       330 5.19600E+00 1.76250E+01 0.00000E+00
 -1       331 5.19600E+00 1.46750E+01 0.00000E+00
 -1       332 5.19600E+00 1.17250E+01 0.00000E+00
 -1       333 5.19600E+00 8.77500E+00 0.00000E+00
 -1       334 5.19600E+00 5.82500E+00 0.00000E+00
 -1       335 5.53500E+00 4.00625E+00 0.00000E+00
 -1       336 8.53500E+00 4.00625E+00 0.00000E+00
 -1       337 9.15000E+00 4.48040E+01 0.00000E+00
 -1       338 1.21500E+01 4.48040E+01 0.00000E+00
 -1       339 1.51500E+01 4.48040E+01 0.00000E+00
 -1       340 1.81500E+01 4.48040E+01 0.00000E+00
 -1       341 2.11500E+01 4.48040E+01 0.00000E+00
 -1       342 2.41500E+01 4.48040E+01 0.00000E+00
 -1       343 2.71500E+01 4.48040E+01 0.00000E+00
 -1       344 3.01500E+01 4.48040E+01 0.00000E+00
 -1       345 3.31500E+01 4.48040E+01 0.00000E+00
 -1       346 3.61500E+01 4.48040E+01 0.00000E+00
 -1       347 3.91500E+01 4.48040E+01 0.00000E+00
 -1       348 4.21500E+01 4.48040E+01 0.00000E+00
 -1       349 4.51500E+01 4.48040E+01 0.00000E+00
 -1       350 4.81500E+01 4.48040E+01 0.00000E+00
 -1       351 5.11500E+01 4.48040E+01 0.00000E+00
 -1       352 5.41500E+01 4.48040E+01 0.00000E+00
 -1       353 5.71500E+01 4.48040E+01 0.00000E+00
 -1       354 6.01500E+01 4.48040E+01 0.00000E+00
 -1       355 6.31500E+01 4.48040E+01 0.00000E+00
 -1       356 6.61500E+01 4.48040E+01 0.00000E+00
 -1       357 6.91500E+01 4.48040E+01 0.00000E+00
 -1       358 7.21500E+01 4.48040E+01 0.00000E+00
 -1       359 7.51500E+01 4.48040E+01 0.00000E+00
 -1       360 7.81500E+01 4.48040E+01 0.00000E+00
 -1       361 8.11500E+01 4.48040E+01 0.00000E+00
 -1       362 8.41500E+01 4.48040E+01 0.00000E+00
 -1       363 8.71500E+01 4.48040E+01 0.00000E+00
 -1       364 9.01500E+01 4.48040E+01 0.00000E+00
 -1       365 9.31500E+01 4.48040E+01 0.00000E+00
 -1       366 9.61500E+01 4.48040E+01 0.00000E+00
 -1       367 9.91500E+01 4.48040E+01 0.00000E+00
 -1       368 1.02150E+02 4.48040E+01 0.00000E+00
 -1       369 1.05150E+02 4.48040E+01 0.00000E+00
 -1       370 1.08150E+02 4.48040E+01 0.00000E+00
 -1       371 1.11150E+02 4.48040E+01 0.00000E+00
 -1       372 1.14150E+02 4.48040E+01 0.00000E+00
 -1       373 1.17150E+02 4.48040E+01 0.00000E+00
 -1       374 1.20150E+02 4.48040E+01 0.00000E+00
 -1       375 1.23150E+02 4.48040E+01 0.00000E+00
 -1       376 1.26150E+02 4.48040E+01 0.00000E+00
 -1       377 1.29150E+02 4.48040E+01 0.00000E+00
 -1       378 1.32150E+02 4.48040E+01 0.00000E+00
 -1       379 1.35150E+02 4.48040E+01 0.00000E+00
 -1       380 1.38150E+02 4.48040E+01 0.00000E+00
 -1       381 1.41150E+02 4.48040E+01 0.00000E+00
 -1       382 1.43838E+02 4.49212E+01 0.00000E+00
 -1       383 1.15350E+01 4.00625E+00 0.00000E+00
 -1       384 1.45350E+01 4.00625E+00 0.00000E+00
 -1       385 1.75350E+01 4.00625E+00 0.00000E+00
 -1       386 2.05350E+01 4.00625E+00 0.00000E+00
 -1       387 2.35350E+01 4.00625E+00 0.00000E+00
 -1       388 2.65350E+01 4.00625E+00 0.00000E+00
 -1       389 2.95350E+01 4.00625E+00 0.00000E+00
 -1       390 3.25350E+01 4.00625E+00 0.00000E+00
 -1       391 3.55350E+01 4.00625E+00 0.00000E+00
 -1       392 3.85350E+01 4.00625E+00 0.00000E+00
 -1       393 4.15350E+01 4.00625E+00 0.00000E+00
 -1       394 4.45350E+01 4.00625E+00 0.00000E+00
 -1       395 4.75350E+01 4.00625E+00 0.00000E+00
 -1       396 5.05350E+01 4.00625E+00 0.00000E+00
 -1       397 5.35350E+01 4.00625E+00 0.00000E+00
 -1       398 5.65350E+01 4.00625E+00 0.00000E+00
 -1       399 5.95350E+01 4.00625E+00 0.00000E+00
 -1       400 6.25350E+01 4.00625E+00 0.00000E+00
 -1       401 6.55350E+01 4.00625E+00 0.00000E+00
 -1       402 6.85350E+01 4.00625E+00 0.00000E+00
 -1       403 7.15350E+01 4.00625E+00 0.00000E+00
 -1       404 7.45350E+01 4.00625E+00 0.00000E+00
 -1       405 7.75350E+01 4.00625E+00 0.00000E+00
 -1       406 8.05350E+01 4.00625E+00 0.00000E+00
 -1       407 8.35350E+01 4.00625E+00 0.00000E+00
 -1       408 8.65350E+01 4.00625E+00 0.00000E+00
 -1       409 8.95350E+01 4.00625E+00 0.00000E+00
 -1       410 9.25350E+01 4.00625E+00 0.00000E+00
 -1       411 9.55350E+01 4.00625E+00 0.00000E+00
 -1       412 9.85350E+01 4.00625E+00 0.00000E+00
 -1       413 1.01535E+02 4.00625E+00 0.00000E+00
 -1       414 1.04535E+02 4.00625E+00 0.00000E+00
 -1       415 1.07535E+02 4.00625E+00 0.00000E+00
 -1       416 1.10535E+02 4.00625E+00 0.00000E+00
 -1       417 1.13535E+02 4.00625E+00 0.00000E+00
 -1       418 1.16535E+02 4.00625E+00 0.00000E+00
 -1       419 1.19535E+02 4.00625E+00 0.00000E+00
 -1       420 1.22535E+02 4.00625E+00 0.00000E+00
 -1       421 1.25535E+02 4.00625E+00 0.00000E+00
 -1       422 1.28535E+02 4.00625E+00 0.00000E+00
 -1       423 1.31535E+02 4.00625E+00 0.00000E+00
 -1       424 1.34535E+02 4.00625E+00 0.00000E+00
 -1       425 1.37535E+02 4.00625E+00 0.00000E+00
 -1       426 1.40535E+02 4.00625E+00 0.00000E+00
 -1       427 1.43535E+02 4.00625E+00 0.00000E+00
 -1       428 1.45469E+02 4.21562E+00 0.00000E+00
 -1       429 1.44804E+02 1.18000E+01 0.00000E+00
 -1       430 1.44804E+02 8.85000E+00 0.00000E+00
 -1       431 1.45136E+02 6.53281E+00 0.00000E+00
 -1       432 1.44804E+02 1.47500E+01 0.00000E+00
 -1       433 1.44804E+02 1.77000E+01 0.00000E+00
 -1       434 1.44804E+02 2.06000E+01 0.00000E+00
 -1       435 1.44804E+02 2.35500E+01 0.00000E+00
 -1       436 1.44804E+02 2.64500E+01 0.00000E+00
 -1       437 1.44804E+02 2.94000E+01 0.00000E+00
 -1       438 1.44804E+02 3.23500E+01 0.00000E+00
 -1       439 1.44804E+02 3.53000E+01 0.00000E+00
 -1       440 1.44804E+02 3.82500E+01 0.00000E+00
 -1       441 1.44804E+02 4.12000E+01 0.00000E+00
 -1       442 1.36627E+02 1.74807E+01 0.00000E+00
 -1       443 1.37375E+02 2.16418E+01 0.00000E+00
 -1       444 1.37702E+02 1.96423E+01 0.00000E+00
 -1       445 1.35615E+02 1.57316E+01 0.00000E+00
 -1       446 1.34067E+02 1.45122E+01 0.00000E+00
 -1       447 5.19600E+00 3.82125E+01 0.00000E+00
 -1       448 1.30657E+02 1.24201E+01 0.00000E+00
 -1       449 1.28432E+02 1.19910E+01 0.00000E+00
 -1       450 1.26678E+02 1.21735E+01 0.00000E+00
 -1       451 1.24587E+02 1.26256E+01 0.00000E+00
 -1       452 1.22223E+02 1.36407E+01 0.00000E+00
 -1       453 1.21058E+02 1.48487E+01 0.00000E+00
 -1       454 1.19696E+02 1.63220E+01 0.00000E+00
 -1       455 1.18612E+02 1.85926E+01 0.00000E+00
 -1       456 1.18384E+02 2.04882E+01 0.00000E+00
 -1       457 1.18395E+02 2.24646E+01 0.00000E+00
 -1       458 1.18503E+02 2.46880E+01 0.00000E+00
 -1       459 1.19112E+02 2.64092E+01 0.00000E+00
 -1       460 1.20845E+02 2.83467E+01 0.00000E+00
 -1       461 1.22154E+02 2.93050E+01 0.00000E+00
 -1       462 1.23843E+02 3.04374E+01 0.00000E+00
 -1       463 1.25460E+02 3.09834E+01 0.00000E+00
 -1       464 1.27791E+02 3.14852E+01 0.00000E+00
 -1       465 1.29541E+02 3.09358E+01 0.00000E+00
 -1       466 1.31389E+02 3.05915E+01 0.00000E+00
 -1       467 1.33074E+02 2.97381E+01 0.00000E+00
 -1       468 1.34437E+02 2.84525E+01 0.00000E+00
 -1       469 1.35800E+02 2.70995E+01 0.00000E+00
 -1       470 1.36606E+02 2.53733E+01 0.00000E+00
 -1       471 1.37543E+02 2.34729E+01 0.00000E+00
 -1       472 1.32627E+02 1.31557E+01 0.00000E+00
 -1       473 1.18935E+02 2.81198E+01 0.00000E+00
 -1       474 1.22847E+02 1.21542E+01 0.00000E+00
 -1       475 1.00350E+01 6.60425E+00 0.00000E+00
 -1       476 7.79400E+00 3.08500E+01 0.00000E+00
 -1       477 7.79400E+00 3.38000E+01 0.00000E+00
 -1       478 7.79400E+00 2.49500E+01 0.00000E+00
 -1       479 7.79400E+00 2.20000E+01 0.00000E+00
 -1       480 7.79400E+00 1.91000E+01 0.00000E+00
 -1       481 7.79400E+00 1.61500E+01 0.00000E+00
 -1       482 7.79400E+00 1.32000E+01 0.00000E+00
 -1       483 7.79400E+00 1.02500E+01 0.00000E+00
 -1       484 1.30350E+01 6.60425E+00 0.00000E+00
 -1       485 1.06500E+01 4.22060E+01 0.00000E+00
 -1       486 1.34351E+02 1.27683E+01 0.00000E+00
 -1       487 1.36500E+01 4.22060E+01 0.00000E+00
 -1       488 1.66500E+01 4.22060E+01 0.00000E+00
 -1       489 1.96500E+01 4.22060E+01 0.00000E+00
 -1       490 2.26500E+01 4.22060E+01 0.00000E+00
 -1       491 2.56500E+01 4.22060E+01 0.00000E+00
 -1       492 2.86500E+01 4.22060E+01 0.00000E+00
 -1       493 3.16500E+01 4.22060E+01 0.00000E+00
 -1       494 3.46500E+01 4.22060E+01 0.00000E+00
 -1       495 3.76500E+01 4.22060E+01 0.00000E+00
 -1       496 4.06500E+01 4.22060E+01 0.00000E+00
 -1       497 4.36500E+01 4.22060E+01 0.00000E+00
 -1       498 4.66500E+01 4.22060E+01 0.00000E+00
 -1       499 4.96500E+01 4.22060E+01 0.00000E+00
 -1       500 5.26500E+01 4.22060E+01 0.00000E+00
 -1       501 5.56500E+01 4.22060E+01 0.00000E+00
 -1       502 5.86500E+01 4.22060E+01 0.00000E+00
 -1       503 6.16500E+01 4.22060E+01 0.00000E+00
 -1       504 6.46500E+01 4.22060E+01 0.00000E+00
 -1       505 6.76500E+01 4.22060E+01 0.00000E+00
 -1       506 7.06500E+01 4.22060E+01 0.00000E+00
 -1       507 7.36500E+01 4.22060E+01 0.00000E+00
 -1       508 7.66500E+01 4.22060E+01 0.00000E+00
 -1       509 7.96500E+01 4.22060E+01 0.00000E+00
 -1       510 8.26500E+01 4.22060E+01 0.00000E+00
 -1       511 8.56500E+01 4.22060E+01 0.00000E+00
 -1       512 8.86500E+01 4.22060E+01 0.00000E+00
 -1       513 9.16500E+01 4.22060E+01 0.00000E+00
 -1       514 9.46500E+01 4.22060E+01 0.00000E+00
 -1       515 9.76500E+01 4.22060E+01 0.00000E+00
 -1       516 1.00650E+02 4.22060E+01 0.00000E+00
 -1       517 1.03650E+02 4.22060E+01 0.00000E+00
 -1       518 1.06650E+02 4.22060E+01 0.00000E+00
 -1       519 1.09650E+02 4.22060E+01 0.00000E+00
 -1       520 1.12650E+02 4.22060E+01 0.00000E+00
 -1       521 1.15650E+02 4.22060E+01 0.00000E+00
 -1       522 1.18650E+02 4.22060E+01 0.00000E+00
 -1       523 1.21650E+02 4.22060E+01 0.00000E+00
 -1       524 1.24650E+02 4.22060E+01 0.00000E+00
 -1       525 1.27650E+02 4.22060E+01 0.00000E+00
 -1       526 1.30650E+02 4.22060E+01 0.00000E+00
 -1       527 1.33650E+02 4.22060E+01 0.00000E+00
 -1       528 1.36650E+02 4.22060E+01 0.00000E+00
 -1       529 1.39650E+02 4.22060E+01 0.00000E+00
 -1       530 1.90350E+01 6.60425E+00 0.00000E+00
 -1       531 2.20350E+01 6.60425E+00 0.00000E+00
 -1       532 2.50350E+01 6.60425E+00 0.00000E+00
 -1       533 2.80350E+01 6.60425E+00 0.00000E+00
 -1       534 3.10350E+01 6.60425E+00 0.00000E+00
 -1       535 3.40350E+01 6.60425E+00 0.00000E+00
 -1       536 3.70350E+01 6.60425E+00 0.00000E+00
 -1       537 4.00350E+01 6.60425E+00 0.00000E+00
 -1       538 4.30350E+01 6.60425E+00 0.00000E+00
 -1       539 4.60350E+01 6.60425E+00 0.00000E+00
 -1       540 4.90350E+01 6.60425E+00 0.00000E+00
 -1       541 5.20350E+01 6.60425E+00 0.00000E+00
 -1       542 5.50350E+01 6.60425E+00 0.00000E+00
 -1       543 5.80350E+01 6.60425E+00 0.00000E+00
 -1       544 6.10350E+01 6.60425E+00 0.00000E+00
 -1       545 6.40350E+01 6.60425E+00 0.00000E+00
 -1       546 6.70350E+01 6.60425E+00 0.00000E+00
 -1       547 7.00350E+01 6.60425E+00 0.00000E+00
 -1       548 7.30350E+01 6.60425E+00 0.00000E+00
 -1       549 7.60350E+01 6.60425E+00 0.00000E+00
 -1       550 7.90350E+01 6.60425E+00 0.00000E+00
 -1       551 8.20350E+01 6.60425E+00 0.00000E+00
 -1       552 8.50350E+01 6.60425E+00 0.00000E+00
 -1       553 8.80350E+01 6.60425E+00 0.00000E+00
 -1       554 9.10350E+01 6.60425E+00 0.00000E+00
 -1       555 9.40350E+01 6.60425E+00 0.00000E+00
 -1       556 9.70350E+01 6.60425E+00 0.00000E+00
 -1       557 1.00035E+02 6.60425E+00 0.00000E+00
 -1       558 1.03035E+02 6.60425E+00 0.00000E+00
 -1       559 1.06035E+02 6.60425E+00 0.00000E+00
 -1       560 1.09035E+02 6.60425E+00 0.00000E+00
 -1       561 1.12035E+02 6.60425E+00 0.00000E+00
 -1       562 1.15035E+02 6.60425E+00 0.00000E+00
 -1       563 1.18035E+02 6.60425E+00 0.00000E+00
 -1       564 1.21035E+02 6.60425E+00 0.00000E+00
 -1       565 1.24035E+02 6.60425E+00 0.00000E+00
 -1       566 1.27035E+02 6.60425E+00 0.00000E+00
 -1       567 1.30035E+02 6.60425E+00 0.00000E+00
 -1       568 1.33035E+02 6.60425E+00 0.00000E+00
 -1       569 1.36035E+02 6.60425E+00 0.00000E+00
 -1       570 1.39035E+02 6.60425E+00 0.00000E+00
 -1       571 1.42035E+02 6.60425E+00 0.00000E+00
 -1       572 1.42419E+02 1.62250E+01 0.00000E+00
 -1       573 1.42419E+02 1.91250E+01 0.00000E+00
 -1       574 1.42206E+02 1.03250E+01 0.00000E+00
 -1       575 1.42206E+02 1.32750E+01 0.00000E+00
 -1       576 1.42419E+02 2.20750E+01 0.00000E+00
 -1       577 1.42419E+02 2.49750E+01 0.00000E+00
 -1       578 1.42419E+02 2.79250E+01 0.00000E+00
 -1       579 1.42419E+02 3.08750E+01 0.00000E+00
 -1       580 1.42419E+02 3.38250E+01 0.00000E+00
 -1       581 1.42419E+02 3.67750E+01 0.00000E+00
 -1       582 1.42419E+02 3.97250E+01 0.00000E+00
 -1       583 1.39231E+02 2.09185E+01 0.00000E+00
 -1       584 1.37605E+02 1.57468E+01 0.00000E+00
 -1       585 1.60350E+01 6.60425E+00 0.00000E+00
 -1       586 1.39399E+02 2.27496E+01 0.00000E+00
 -1       587 1.38680E+02 1.79083E+01 0.00000E+00
 -1       588 7.92300E+00 4.16780E+01 0.00000E+00
 -1       589 1.38387E+02 2.50700E+01 0.00000E+00
 -1       590 1.16904E+02 2.36514E+01 0.00000E+00
 -1       591 1.25270E+02 1.07232E+01 0.00000E+00
 -1       592 7.79400E+00 2.79000E+01 0.00000E+00
 -1       593 1.29901E+02 1.03570E+01 0.00000E+00
 -1       594 1.27024E+02 1.05407E+01 0.00000E+00
 -1       595 1.17909E+02 1.68630E+01 0.00000E+00
 -1       596 1.20527E+02 1.31704E+01 0.00000E+00
 -1       597 1.29180E+02 3.28469E+01 0.00000E+00
 -1       598 1.19164E+02 1.46438E+01 0.00000E+00
 -1       599 1.16795E+02 1.93352E+01 0.00000E+00
 -1       600 1.16758E+02 2.14859E+01 0.00000E+00
 -1       601 1.17191E+02 2.61204E+01 0.00000E+00
 -1       602 1.20585E+02 3.00747E+01 0.00000E+00
 -1       603 1.22274E+02 3.12070E+01 0.00000E+00
 -1       604 1.24130E+02 3.22560E+01 0.00000E+00
 -1       605 1.26265E+02 3.29110E+01 0.00000E+00
 -1       606 1.31028E+02 3.25025E+01 0.00000E+00
 -1       607 1.32969E+02 3.16200E+01 0.00000E+00
 -1       608 1.34932E+02 3.03430E+01 0.00000E+00
 -1       609 1.36295E+02 2.89900E+01 0.00000E+00
 -1       610 1.37581E+02 2.67962E+01 0.00000E+00
 -1       611 1.32125E+02 1.14951E+01 0.00000E+00
 -1       612 7.61550E+00 6.21462E+00 0.00000E+00
 -1       613 1.35898E+02 1.39877E+01 0.00000E+00
 -1       614 7.79400E+00 3.67375E+01 0.00000E+00
 -1       615 1.27653E+02 3.42727E+01 0.00000E+00
 -1       616 1.23530E+02 1.02518E+01 0.00000E+00
 -1       617 1.17013E+02 2.78310E+01 0.00000E+00
 -1       618 1.16092E+02 1.76056E+01 0.00000E+00
 -1       619 1.33848E+02 1.11077E+01 0.00000E+00
 -1       620 1.21151E+02 1.16839E+01 0.00000E+00
 -1       621 1.41784E+02 4.22645E+01 0.00000E+00
 -1       622 1.03920E+01 2.05500E+01 0.00000E+00
 -1       623 1.03920E+01 2.35000E+01 0.00000E+00
 -1       624 1.03920E+01 1.46750E+01 0.00000E+00
 -1       625 1.03920E+01 1.17250E+01 0.00000E+00
 -1       626 1.15350E+01 9.20225E+00 0.00000E+00
 -1       627 1.36186E+02 1.20309E+01 0.00000E+00
 -1       628 1.31794E+02 9.39929E+00 0.00000E+00
 -1       629 1.38346E+02 2.87181E+01 0.00000E+00
 -1       630 1.51500E+01 3.96080E+01 0.00000E+00
 -1       631 1.81500E+01 3.96080E+01 0.00000E+00
 -1       632 2.11500E+01 3.96080E+01 0.00000E+00
 -1       633 2.41500E+01 3.96080E+01 0.00000E+00
 -1       634 2.71500E+01 3.96080E+01 0.00000E+00
 -1       635 3.01500E+01 3.96080E+01 0.00000E+00
 -1       636 3.31500E+01 3.96080E+01 0.00000E+00
 -1       637 3.61500E+01 3.96080E+01 0.00000E+00
 -1       638 3.91500E+01 3.96080E+01 0.00000E+00
 -1       639 4.21500E+01 3.96080E+01 0.00000E+00
 -1       640 4.51500E+01 3.96080E+01 0.00000E+00
 -1       641 4.81500E+01 3.96080E+01 0.00000E+00
 -1       642 5.11500E+01 3.96080E+01 0.00000E+00
 -1       643 5.41500E+01 3.96080E+01 0.00000E+00
 -1       644 5.71500E+01 3.96080E+01 0.00000E+00
 -1       645 6.01500E+01 3.96080E+01 0.00000E+00
 -1       646 6.31500E+01 3.96080E+01 0.00000E+00
 -1       647 6.61500E+01 3.96080E+01 0.00000E+00
 -1       648 6.91500E+01 3.96080E+01 0.00000E+00
 -1       649 7.21500E+01 3.96080E+01 0.00000E+00
 -1       650 7.51500E+01 3.96080E+01 0.00000E+00
 -1       651 7.81500E+01 3.96080E+01 0.00000E+00
 -1       652 8.11500E+01 3.96080E+01 0.00000E+00
 -1       653 8.41500E+01 3.96080E+01 0.00000E+00
 -1       654 8.71500E+01 3.96080E+01 0.00000E+00
 -1       655 9.01500E+01 3.96080E+01 0.00000E+00
 -1       656 9.31500E+01 3.96080E+01 0.00000E+00
 -1       657 9.61500E+01 3.96080E+01 0.00000E+00
 -1       658 9.91500E+01 3.96080E+01 0.00000E+00
 -1       659 1.02150E+02 3.96080E+01 0.00000E+00
 -1       660 1.05150E+02 3.96080E+01 0.00000E+00
 -1       661 1.08150E+02 3.96080E+01 0.00000E+00
 -1       662 1.11150E+02 3.96080E+01 0.00000E+00
 -1       663 1.14150E+02 3.96080E+01 0.00000E+00
 -1       664 1.17150E+02 3.96080E+01 0.00000E+00
 -1       665 1.20150E+02 3.96080E+01 0.00000E+00
 -1       666 1.23150E+02 3.96080E+01 0.00000E+00
 -1       667 1.26150E+02 3.96080E+01 0.00000E+00
 -1       668 1.29150E+02 3.96080E+01 0.00000E+00
 -1       669 1.32150E+02 3.96080E+01 0.00000E+00
 -1       670 1.35150E+02 3.96080E+01 0.00000E+00
 -1       671 1.38150E+02 3.96080E+01 0.00000E+00
 -1       672 2.35350E+01 9.20225E+00 0.00000E+00
 -1       673 1.34977E+02 3.25597E+01 0.00000E+00
 -1       674 1.32708E+02 3.36226E+01 0.00000E+00
 -1       675 2.05350E+01 9.20225E+00 0.00000E+00
 -1       676 2.95350E+01 9.20225E+00 0.00000E+00
 -1       677 3.25350E+01 9.20225E+00 0.00000E+00
 -1       678 3.55350E+01 9.20225E+00 0.00000E+00
 -1       679 3.85350E+01 9.20225E+00 0.00000E+00
 -1       680 4.15350E+01 9.20225E+00 0.00000E+00
 -1       681 4.45350E+01 9.20225E+00 0.00000E+00
 -1       682 4.75350E+01 9.20225E+00 0.00000E+00
 -1       683 5.05350E+01 9.20225E+00 0.00000E+00
 -1       684 5.35350E+01 9.20225E+00 0.00000E+00
 -1       685 5.65350E+01 9.20225E+00 0.00000E+00
 -1       686 5.95350E+01 9.20225E+00 0.00000E+00
 -1       687 6.25350E+01 9.20225E+00 0.00000E+00
 -1       688 6.55350E+01 9.20225E+00 0.00000E+00
 -1       689 6.85350E+01 9.20225E+00 0.00000E+00
 -1       690 7.15350E+01 9.20225E+00 0.00000E+00
 -1       691 7.45350E+01 9.20225E+00 0.00000E+00
 -1       692 7.75350E+01 9.20225E+00 0.00000E+00
 -1       693 8.05350E+01 9.20225E+00 0.00000E+00
 -1       694 8.35350E+01 9.20225E+00 0.00000E+00
 -1       695 8.65350E+01 9.20225E+00 0.00000E+00
 -1       696 8.95350E+01 9.20225E+00 0.00000E+00
 -1       697 9.25350E+01 9.20225E+00 0.00000E+00
 -1       698 9.55350E+01 9.20225E+00 0.00000E+00
 -1       699 9.85350E+01 9.20225E+00 0.00000E+00
 -1       700 1.01535E+02 9.20225E+00 0.00000E+00
 -1       701 1.04535E+02 9.20225E+00 0.00000E+00
 -1       702 1.07535E+02 9.20225E+00 0.00000E+00
 -1       703 1.10535E+02 9.20225E+00 0.00000E+00
 -1       704 1.13535E+02 9.20225E+00 0.00000E+00
 -1       705 1.16535E+02 9.20225E+00 0.00000E+00
 -1       706 1.19535E+02 9.20225E+00 0.00000E+00
 -1       707 1.37535E+02 9.20225E+00 0.00000E+00
 -1       708 1.39870E+02 9.76363E+00 0.00000E+00
 -1       709 1.39933E+02 1.49215E+01 0.00000E+00
 -1       710 1.39902E+02 1.23425E+01 0.00000E+00
 -1       711 1.40201E+02 2.64500E+01 0.00000E+00
 -1       712 1.40033E+02 2.94000E+01 0.00000E+00
 -1       713 1.40033E+02 3.23500E+01 0.00000E+00
 -1       714 1.40033E+02 3.53000E+01 0.00000E+00
 -1       715 1.39539E+02 1.95355E+01 0.00000E+00
 -1       716 9.78035E+00 3.93914E+01 0.00000E+00
 -1       717 1.75350E+01 9.20225E+00 0.00000E+00
 -1       718 2.65350E+01 9.20225E+00 0.00000E+00
 -1       719 1.24652E+01 3.94997E+01 0.00000E+00
 -1       720 1.03920E+01 1.76125E+01 0.00000E+00
 -1       721 1.45350E+01 9.20225E+00 0.00000E+00
 -1       722 1.15177E+02 2.51034E+01 0.00000E+00
 -1       723 1.18450E+02 3.02037E+01 0.00000E+00
 -1       724 1.03920E+01 3.23250E+01 0.00000E+00
 -1       725 1.22399E+02 3.31516E+01 0.00000E+00
 -1       726 1.15062E+02 2.03810E+01 0.00000E+00
 -1       727 1.18340E+02 1.25150E+01 0.00000E+00
 -1       728 1.24645E+02 3.43834E+01 0.00000E+00
 -1       729 1.14952E+02 2.26947E+01 0.00000E+00
 -1       730 1.37983E+02 1.36727E+01 0.00000E+00
 -1       731 1.16898E+02 1.48263E+01 0.00000E+00
 -1       732 1.20475E+02 3.20655E+01 0.00000E+00
 -1       733 1.40284E+02 3.96665E+01 0.00000E+00
 -1       734 1.30403E+02 3.42784E+01 0.00000E+00
 -1       735 1.36822E+02 3.08839E+01 0.00000E+00
 -1       736 1.40552E+02 1.79604E+01 0.00000E+00
 -1       737 1.03920E+01 3.52625E+01 0.00000E+00
 -1       738 1.03920E+01 2.64500E+01 0.00000E+00
 -1       739 1.15000E+02 2.68140E+01 0.00000E+00
 -1       740 1.34942E+02 8.85599E+00 0.00000E+00
 -1       741 1.26034E+02 3.57451E+01 0.00000E+00
 -1       742 1.41319E+02 2.42497E+01 0.00000E+00
 -1       743 1.39979E+02 1.59150E+01 0.00000E+00
 -1       744 1.14358E+02 1.86514E+01 0.00000E+00
 -1       745 1.03920E+01 2.93875E+01 0.00000E+00
 -1       746 1.39092E+02 3.74540E+01 0.00000E+00
 -1       747 1.40825E+02 2.00218E+01 0.00000E+00
 -1       748 1.29900E+01 1.32000E+01 0.00000E+00
 -1       749 1.20347E+02 3.45399E+01 0.00000E+00
 -1       750 1.96500E+01 3.70100E+01 0.00000E+00
 -1       751 2.26500E+01 3.70100E+01 0.00000E+00
 -1       752 2.56500E+01 3.70100E+01 0.00000E+00
 -1       753 2.86500E+01 3.70100E+01 0.00000E+00
 -1       754 3.16500E+01 3.70100E+01 0.00000E+00
 -1       755 3.46500E+01 3.70100E+01 0.00000E+00
 -1       756 3.76500E+01 3.70100E+01 0.00000E+00
 -1       757 4.06500E+01 3.70100E+01 0.00000E+00
 -1       758 4.36500E+01 3.70100E+01 0.00000E+00
 -1       759 4.66500E+01 3.70100E+01 0.00000E+00
 -1       760 4.96500E+01 3.70100E+01 0.00000E+00
 -1       761 5.26500E+01 3.70100E+01 0.00000E+00
 -1       762 5.56500E+01 3.70100E+01 0.00000E+00
 -1       763 5.86500E+01 3.70100E+01 0.00000E+00
 -1       764 6.16500E+01 3.70100E+01 0.00000E+00
 -1       765 6.46500E+01 3.70100E+01 0.00000E+00
 -1       766 6.76500E+01 3.70100E+01 0.00000E+00
 -1       767 7.06500E+01 3.70100E+01 0.00000E+00
 -1       768 7.36500E+01 3.70100E+01 0.00000E+00
 -1       769 7.66500E+01 3.70100E+01 0.00000E+00
 -1       770 7.96500E+01 3.70100E+01 0.00000E+00
 -1       771 8.26500E+01 3.70100E+01 0.00000E+00
 -1       772 8.56500E+01 3.70100E+01 0.00000E+00
 -1       773 8.86500E+01 3.70100E+01 0.00000E+00
 -1       774 9.16500E+01 3.70100E+01 0.00000E+00
 -1       775 9.46500E+01 3.70100E+01 0.00000E+00
 -1       776 9.76500E+01 3.70100E+01 0.00000E+00
 -1       777 1.00650E+02 3.70100E+01 0.00000E+00
 -1       778 1.03650E+02 3.70100E+01 0.00000E+00
 -1       779 1.06650E+02 3.70100E+01 0.00000E+00
 -1       780 1.09650E+02 3.70100E+01 0.00000E+00
 -1       781 1.12650E+02 3.70100E+01 0.00000E+00
 -1       782 1.15650E+02 3.70100E+01 0.00000E+00
 -1       783 1.18650E+02 3.70100E+01 0.00000E+00
 -1       784 1.24650E+02 3.70550E+01 0.00000E+00
 -1       785 1.30650E+02 3.72226E+01 0.00000E+00
 -1       786 1.33650E+02 3.72226E+01 0.00000E+00
 -1       787 1.36371E+02 3.73383E+01 0.00000E+00
 -1       788 3.40350E+01 1.18003E+01 0.00000E+00
 -1       789 3.10350E+01 1.18003E+01 0.00000E+00
 -1       790 4.00350E+01 1.18003E+01 0.00000E+00
 -1       791 4.30350E+01 1.18003E+01 0.00000E+00
 -1       792 4.60350E+01 1.18003E+01 0.00000E+00
 -1       793 4.90350E+01 1.18003E+01 0.00000E+00
 -1       794 5.20350E+01 1.18003E+01 0.00000E+00
 -1       795 5.50350E+01 1.18003E+01 0.00000E+00
 -1       796 5.80350E+01 1.18003E+01 0.00000E+00
 -1       797 6.10350E+01 1.18003E+01 0.00000E+00
 -1       798 6.40350E+01 1.18003E+01 0.00000E+00
 -1       799 6.70350E+01 1.18003E+01 0.00000E+00
 -1       800 7.00350E+01 1.18003E+01 0.00000E+00
 -1       801 7.30350E+01 1.18003E+01 0.00000E+00
 -1       802 7.60350E+01 1.18003E+01 0.00000E+00
 -1       803 7.90350E+01 1.18003E+01 0.00000E+00
 -1       804 8.20350E+01 1.18003E+01 0.00000E+00
 -1       805 8.50350E+01 1.18003E+01 0.00000E+00
 -1       806 8.80350E+01 1.18003E+01 0.00000E+00
 -1       807 9.10350E+01 1.18003E+01 0.00000E+00
 -1       808 9.40350E+01 1.18003E+01 0.00000E+00
 -1       809 9.70350E+01 1.18003E+01 0.00000E+00
 -1       810 1.00035E+02 1.18003E+01 0.00000E+00
 -1       811 1.03035E+02 1.18003E+01 0.00000E+00
 -1       812 1.06035E+02 1.18003E+01 0.00000E+00
 -1       813 1.09035E+02 1.18003E+01 0.00000E+00
 -1       814 1.12035E+02 1.18003E+01 0.00000E+00
 -1       815 1.15035E+02 1.18003E+01 0.00000E+00
 -1       816 1.12857E+02 2.41050E+01 0.00000E+00
 -1       817 1.37648E+02 3.38250E+01 0.00000E+00
 -1       818 1.90350E+01 1.18003E+01 0.00000E+00
 -1       819 1.37997E+02 3.12715E+01 0.00000E+00
 -1       820 1.22697E+02 3.52713E+01 0.00000E+00
 -1       821 3.70350E+01 1.18003E+01 0.00000E+00
 -1       822 1.29023E+02 3.64934E+01 0.00000E+00
 -1       823 2.20350E+01 1.18003E+01 0.00000E+00
 -1       824 1.32071E+02 3.57613E+01 0.00000E+00
 -1       825 1.16121E+02 2.99922E+01 0.00000E+00
 -1       826 1.14526E+02 1.56447E+01 0.00000E+00
 -1       827 1.66500E+01 3.70100E+01 0.00000E+00
 -1       828 1.13127E+02 2.14489E+01 0.00000E+00
 -1       829 1.37625E+01 1.12011E+01 0.00000E+00
 -1       830 1.29900E+01 2.20250E+01 0.00000E+00
 -1       831 1.34712E+02 3.49478E+01 0.00000E+00
 -1       832 1.18188E+02 3.25206E+01 0.00000E+00
 -1       833 1.29900E+01 2.49750E+01 0.00000E+00
 -1       834 1.14107E+02 2.89752E+01 0.00000E+00
 -1       835 1.29900E+01 1.61375E+01 0.00000E+00
 -1       836 1.29900E+01 3.37938E+01 0.00000E+00
 -1       837 1.39652E+01 3.69017E+01 0.00000E+00
 -1       838 1.21650E+02 3.70100E+01 0.00000E+00
 -1       839 2.50350E+01 1.18003E+01 0.00000E+00
 -1       840 2.80350E+01 1.18003E+01 0.00000E+00
 -1       841 1.12679E+02 2.58156E+01 0.00000E+00
 -1       842 1.38145E+02 1.18023E+01 0.00000E+00
 -1       843 1.29900E+01 1.90812E+01 0.00000E+00
 -1       844 1.29900E+01 3.08563E+01 0.00000E+00
 -1       845 1.12423E+02 1.97194E+01 0.00000E+00
 -1       846 1.63988E+01 1.15007E+01 0.00000E+00
 -1       847 1.12590E+02 1.67126E+01 0.00000E+00
 -1       848 2.41500E+01 3.44120E+01 0.00000E+00
 -1       849 2.71500E+01 3.44120E+01 0.00000E+00
 -1       850 3.01500E+01 3.44120E+01 0.00000E+00
 -1       851 3.31500E+01 3.44120E+01 0.00000E+00
 -1       852 3.61500E+01 3.44120E+01 0.00000E+00
 -1       853 3.91500E+01 3.44120E+01 0.00000E+00
 -1       854 4.21500E+01 3.44120E+01 0.00000E+00
 -1       855 4.51500E+01 3.44120E+01 0.00000E+00
 -1       856 4.81500E+01 3.44120E+01 0.00000E+00
 -1       857 5.11500E+01 3.44120E+01 0.00000E+00
 -1       858 5.41500E+01 3.44120E+01 0.00000E+00
 -1       859 5.71500E+01 3.44120E+01 0.00000E+00
 -1       860 6.01500E+01 3.44120E+01 0.00000E+00
 -1       861 6.31500E+01 3.44120E+01 0.00000E+00
 -1       862 6.61500E+01 3.44120E+01 0.00000E+00
 -1       863 6.91500E+01 3.44120E+01 0.00000E+00
 -1       864 7.21500E+01 3.44120E+01 0.00000E+00
 -1       865 7.51500E+01 3.44120E+01 0.00000E+00
 -1       866 7.81500E+01 3.44120E+01 0.00000E+00
 -1       867 8.11500E+01 3.44120E+01 0.00000E+00
 -1       868 8.41500E+01 3.44120E+01 0.00000E+00
 -1       869 8.71500E+01 3.44120E+01 0.00000E+00
 -1       870 9.01500E+01 3.44120E+01 0.00000E+00
 -1       871 9.31500E+01 3.44120E+01 0.00000E+00
 -1       872 9.61500E+01 3.44120E+01 0.00000E+00
 -1       873 9.91500E+01 3.44120E+01 0.00000E+00
 -1       874 1.02150E+02 3.44120E+01 0.00000E+00
 -1       875 1.05150E+02 3.44120E+01 0.00000E+00
 -1       876 1.08150E+02 3.44120E+01 0.00000E+00
 -1       877 1.11150E+02 3.44120E+01 0.00000E+00
 -1       878 1.14150E+02 3.44120E+01 0.00000E+00
 -1       879 3.25350E+01 1.43982E+01 0.00000E+00
 -1       880 4.45350E+01 1.43982E+01 0.00000E+00
 -1       881 4.15350E+01 1.43982E+01 0.00000E+00
 -1       882 5.05350E+01 1.43982E+01 0.00000E+00
 -1       883 5.35350E+01 1.43982E+01 0.00000E+00
 -1       884 5.65350E+01 1.43982E+01 0.00000E+00
 -1       885 5.95350E+01 1.43982E+01 0.00000E+00
 -1       886 6.25350E+01 1.43982E+01 0.00000E+00
 -1       887 6.55350E+01 1.43982E+01 0.00000E+00
 -1       888 6.85350E+01 1.43982E+01 0.00000E+00
 -1       889 7.15350E+01 1.43982E+01 0.00000E+00
 -1       890 7.45350E+01 1.43982E+01 0.00000E+00
 -1       891 7.75350E+01 1.43982E+01 0.00000E+00
 -1       892 8.05350E+01 1.43982E+01 0.00000E+00
 -1       893 8.35350E+01 1.43982E+01 0.00000E+00
 -1       894 8.65350E+01 1.43982E+01 0.00000E+00
 -1       895 8.95350E+01 1.43982E+01 0.00000E+00
 -1       896 9.25350E+01 1.43982E+01 0.00000E+00
 -1       897 9.55350E+01 1.43982E+01 0.00000E+00
 -1       898 9.85350E+01 1.43982E+01 0.00000E+00
 -1       899 1.01535E+02 1.43982E+01 0.00000E+00
 -1       900 1.04535E+02 1.43982E+01 0.00000E+00
 -1       901 1.07535E+02 1.43982E+01 0.00000E+00
 -1       902 1.10535E+02 1.43982E+01 0.00000E+00
 -1       903 1.17867E+02 3.50276E+01 0.00000E+00
 -1       904 2.05350E+01 1.43982E+01 0.00000E+00
 -1       905 1.15437E+02 3.26602E+01 0.00000E+00
 -1       906 1.81500E+01 3.44120E+01 0.00000E+00
 -1       907 1.29900E+01 2.79188E+01 0.00000E+00
 -1       908 1.10618E+02 2.25356E+01 0.00000E+00
 -1       909 4.75350E+01 1.43982E+01 0.00000E+00
 -1       910 2.11500E+01 3.44120E+01 0.00000E+00
 -1       911 1.13424E+02 3.16432E+01 0.00000E+00
 -1       912 1.55880E+01 1.46687E+01 0.00000E+00
 -1       913 1.55880E+01 3.23250E+01 0.00000E+00
 -1       914 1.55880E+01 2.35000E+01 0.00000E+00
 -1       915 1.61190E+01 3.46675E+01 0.00000E+00
 -1       916 3.55350E+01 1.43982E+01 0.00000E+00
 -1       917 2.95350E+01 1.43982E+01 0.00000E+00
 -1       918 3.85350E+01 1.43982E+01 0.00000E+00
 -1       919 1.11787E+02 2.79768E+01 0.00000E+00
 -1       920 2.35350E+01 1.43982E+01 0.00000E+00
 -1       921 1.10441E+02 2.42462E+01 0.00000E+00
 -1       922 1.75351E+01 1.43983E+01 0.00000E+00
 -1       923 1.09915E+02 2.08061E+01 0.00000E+00
 -1       924 1.55880E+01 2.05562E+01 0.00000E+00
 -1       925 1.55880E+01 2.64438E+01 0.00000E+00
 -1       926 1.76190E+01 3.20695E+01 0.00000E+00
 -1       927 2.56500E+01 3.18140E+01 0.00000E+00
 -1       928 1.55880E+01 2.93875E+01 0.00000E+00
 -1       929 2.86500E+01 3.18140E+01 0.00000E+00
 -1       930 3.16500E+01 3.18140E+01 0.00000E+00
 -1       931 3.46500E+01 3.18140E+01 0.00000E+00
 -1       932 3.76500E+01 3.18140E+01 0.00000E+00
 -1       933 4.06500E+01 3.18140E+01 0.00000E+00
 -1       934 4.36500E+01 3.18140E+01 0.00000E+00
 -1       935 4.66500E+01 3.18140E+01 0.00000E+00
 -1       936 4.96500E+01 3.18140E+01 0.00000E+00
 -1       937 5.26500E+01 3.18140E+01 0.00000E+00
 -1       938 5.56500E+01 3.18140E+01 0.00000E+00
 -1       939 5.86500E+01 3.18140E+01 0.00000E+00
 -1       940 6.16500E+01 3.18140E+01 0.00000E+00
 -1       941 6.46500E+01 3.18140E+01 0.00000E+00
 -1       942 6.76500E+01 3.18140E+01 0.00000E+00
 -1       943 7.06500E+01 3.18140E+01 0.00000E+00
 -1       944 7.36500E+01 3.18140E+01 0.00000E+00
 -1       945 7.66500E+01 3.18140E+01 0.00000E+00
 -1       946 7.96500E+01 3.18140E+01 0.00000E+00
 -1       947 8.26500E+01 3.18140E+01 0.00000E+00
 -1       948 8.56500E+01 3.18140E+01 0.00000E+00
 -1       949 8.86500E+01 3.18140E+01 0.00000E+00
 -1       950 9.16500E+01 3.18140E+01 0.00000E+00
 -1       951 9.46500E+01 3.18140E+01 0.00000E+00
 -1       952 9.76500E+01 3.18140E+01 0.00000E+00
 -1       953 1.00650E+02 3.18140E+01 0.00000E+00
 -1       954 1.03650E+02 3.18140E+01 0.00000E+00
 -1       955 1.06650E+02 3.18140E+01 0.00000E+00
 -1       956 1.09650E+02 3.18140E+01 0.00000E+00
 -1       957 5.50350E+01 1.69963E+01 0.00000E+00
 -1       958 5.20350E+01 1.69963E+01 0.00000E+00
 -1       959 6.10350E+01 1.69963E+01 0.00000E+00
 -1       960 6.40350E+01 1.69963E+01 0.00000E+00
 -1       961 6.70350E+01 1.69963E+01 0.00000E+00
 -1       962 7.00350E+01 1.69963E+01 0.00000E+00
 -1       963 7.30350E+01 1.69963E+01 0.00000E+00
 -1       964 7.60350E+01 1.69963E+01 0.00000E+00
 -1       965 7.90350E+01 1.69963E+01 0.00000E+00
 -1       966 8.20350E+01 1.69963E+01 0.00000E+00
 -1       967 8.50350E+01 1.69963E+01 0.00000E+00
 -1       968 8.80350E+01 1.69963E+01 0.00000E+00
 -1       969 9.10350E+01 1.69963E+01 0.00000E+00
 -1       970 9.40350E+01 1.69963E+01 0.00000E+00
 -1       971 9.70350E+01 1.69963E+01 0.00000E+00
 -1       972 1.00035E+02 1.69963E+01 0.00000E+00
 -1       973 1.03035E+02 1.69963E+01 0.00000E+00
 -1       974 1.06035E+02 1.69963E+01 0.00000E+00
 -1       975 1.09035E+02 1.69963E+01 0.00000E+00
 -1       976 5.80350E+01 1.69963E+01 0.00000E+00
 -1       977 2.65350E+01 1.43982E+01 0.00000E+00
 -1       978 1.90351E+01 1.69963E+01 0.00000E+00
 -1       979 1.55880E+01 1.76125E+01 0.00000E+00
 -1       980 4.30350E+01 1.69963E+01 0.00000E+00
 -1       981 2.26500E+01 3.18140E+01 0.00000E+00
 -1       982 2.01345E+01 3.19417E+01 0.00000E+00
 -1       983 1.73115E+01 1.73044E+01 0.00000E+00
 -1       984 3.10350E+01 1.69963E+01 0.00000E+00
 -1       985 4.00350E+01 1.69963E+01 0.00000E+00
 -1       986 4.90350E+01 1.69963E+01 0.00000E+00
 -1       987 1.09549E+02 2.64074E+01 0.00000E+00
 -1       988 3.40350E+01 1.69963E+01 0.00000E+00
 -1       989 2.20351E+01 1.69963E+01 0.00000E+00
 -1       990 1.81860E+01 2.49719E+01 0.00000E+00
 -1       991 1.08212E+02 2.25067E+01 0.00000E+00
 -1       992 4.60350E+01 1.69963E+01 0.00000E+00
 -1       993 1.81860E+01 2.20281E+01 0.00000E+00
 -1       994 5.65350E+01 1.95942E+01 0.00000E+00
 -1       995 2.71500E+01 2.92160E+01 0.00000E+00
 -1       996 3.01500E+01 2.92160E+01 0.00000E+00
 -1       997 3.31500E+01 2.92160E+01 0.00000E+00
 -1       998 3.61500E+01 2.92160E+01 0.00000E+00
 -1       999 3.91500E+01 2.92160E+01 0.00000E+00
 -1      1000 4.21500E+01 2.92160E+01 0.00000E+00
 -1      1001 4.51500E+01 2.92160E+01 0.00000E+00
 -1      1002 4.81500E+01 2.92160E+01 0.00000E+00
 -1      1003 5.11500E+01 2.92160E+01 0.00000E+00
 -1      1004 5.41500E+01 2.92160E+01 0.00000E+00
 -1      1005 5.71500E+01 2.92160E+01 0.00000E+00
 -1      1006 6.01500E+01 2.92160E+01 0.00000E+00
 -1      1007 6.31500E+01 2.92160E+01 0.00000E+00
 -1      1008 6.61500E+01 2.92160E+01 0.00000E+00
 -1      1009 6.91500E+01 2.92160E+01 0.00000E+00
 -1      1010 7.21500E+01 2.92160E+01 0.00000E+00
 -1      1011 7.51500E+01 2.92160E+01 0.00000E+00
 -1      1012 7.81500E+01 2.92160E+01 0.00000E+00
 -1      1013 8.11500E+01 2.92160E+01 0.00000E+00
 -1      1014 8.41500E+01 2.92160E+01 0.00000E+00
 -1      1015 8.71500E+01 2.92160E+01 0.00000E+00
 -1      1016 9.01500E+01 2.92160E+01 0.00000E+00
 -1      1017 9.31500E+01 2.92160E+01 0.00000E+00
 -1      1018 9.61500E+01 2.92160E+01 0.00000E+00
 -1      1019 9.91500E+01 2.92160E+01 0.00000E+00
 -1      1020 1.02150E+02 2.92160E+01 0.00000E+00
 -1      1021 1.05150E+02 2.92160E+01 0.00000E+00
 -1      1022 6.85350E+01 1.95942E+01 0.00000E+00
 -1      1023 2.80350E+01 1.69963E+01 0.00000E+00
 -1      1024 5.35350E+01 1.95942E+01 0.00000E+00
 -1      1025 6.55350E+01 1.95942E+01 0.00000E+00
 -1      1026 6.25350E+01 1.95942E+01 0.00000E+00
 -1      1027 7.15350E+01 1.95942E+01 0.00000E+00
 -1      1028 7.45350E+01 1.95942E+01 0.00000E+00
 -1      1029 7.75350E+01 1.95942E+01 0.00000E+00
 -1      1030 8.05350E+01 1.95942E+01 0.00000E+00
 -1      1031 8.35350E+01 1.95942E+01 0.00000E+00
 -1      1032 8.65350E+01 1.95942E+01 0.00000E+00
 -1      1033 8.95350E+01 1.95942E+01 0.00000E+00
 -1      1034 9.25350E+01 1.95942E+01 0.00000E+00
 -1      1035 9.55350E+01 1.95942E+01 0.00000E+00
 -1      1036 9.85350E+01 1.95942E+01 0.00000E+00
 -1      1037 1.01535E+02 1.95942E+01 0.00000E+00
 -1      1038 1.04535E+02 1.95942E+01 0.00000E+00
 -1      1039 1.07225E+02 2.02002E+01 0.00000E+00
 -1      1040 5.95350E+01 1.95942E+01 0.00000E+00
 -1      1041 2.50350E+01 1.69963E+01 0.00000E+00
 -1      1042 3.70350E+01 1.69963E+01 0.00000E+00
 -1      1043 1.07320E+02 2.46679E+01 0.00000E+00
 -1      1044 1.81860E+01 2.79156E+01 0.00000E+00
 -1      1045 1.77488E+01 1.96663E+01 0.00000E+00
 -1      1046 4.45350E+01 1.95942E+01 0.00000E+00
 -1      1047 1.08099E+02 2.91107E+01 0.00000E+00
 -1      1048 2.41500E+01 2.92160E+01 0.00000E+00
 -1      1049 2.16345E+01 2.93438E+01 0.00000E+00
 -1      1050 4.15350E+01 1.95942E+01 0.00000E+00
 -1      1051 1.06332E+02 2.23613E+01 0.00000E+00
 -1      1052 5.05350E+01 1.95942E+01 0.00000E+00
 -1      1053 2.07488E+01 1.96663E+01 0.00000E+00
 -1      1054 3.25350E+01 1.95942E+01 0.00000E+00
 -1      1055 4.75350E+01 1.95942E+01 0.00000E+00
 -1      1056 2.07840E+01 2.64438E+01 0.00000E+00
 -1      1057 2.95350E+01 1.95942E+01 0.00000E+00
 -1      1058 2.07840E+01 2.35000E+01 0.00000E+00
 -1      1059 3.16500E+01 2.66180E+01 0.00000E+00
 -1      1060 3.46500E+01 2.66180E+01 0.00000E+00
 -1      1061 3.76500E+01 2.66180E+01 0.00000E+00
 -1      1062 4.06500E+01 2.66180E+01 0.00000E+00
 -1      1063 4.36500E+01 2.66180E+01 0.00000E+00
 -1      1064 4.66500E+01 2.66180E+01 0.00000E+00
 -1      1065 4.96500E+01 2.66180E+01 0.00000E+00
 -1      1066 5.26500E+01 2.66180E+01 0.00000E+00
 -1      1067 5.56500E+01 2.66180E+01 0.00000E+00
 -1      1068 5.86500E+01 2.66180E+01 0.00000E+00
 -1      1069 6.16500E+01 2.66180E+01 0.00000E+00
 -1      1070 6.46500E+01 2.66180E+01 0.00000E+00
 -1      1071 6.76500E+01 2.66180E+01 0.00000E+00
 -1      1072 7.06500E+01 2.66180E+01 0.00000E+00
 -1      1073 7.36500E+01 2.66180E+01 0.00000E+00
 -1      1074 7.66500E+01 2.66180E+01 0.00000E+00
 -1      1075 7.96500E+01 2.66180E+01 0.00000E+00
 -1      1076 8.26500E+01 2.66180E+01 0.00000E+00
 -1      1077 8.56500E+01 2.66180E+01 0.00000E+00
 -1      1078 8.86500E+01 2.66180E+01 0.00000E+00
 -1      1079 9.16500E+01 2.66180E+01 0.00000E+00
 -1      1080 9.46500E+01 2.66180E+01 0.00000E+00
 -1      1081 9.76500E+01 2.66180E+01 0.00000E+00
 -1      1082 1.00650E+02 2.66180E+01 0.00000E+00
 -1      1083 1.03650E+02 2.66180E+01 0.00000E+00
 -1      1084 7.30350E+01 2.21922E+01 0.00000E+00
 -1      1085 5.50350E+01 2.21922E+01 0.00000E+00
 -1      1086 6.70350E+01 2.21922E+01 0.00000E+00
 -1      1087 6.40350E+01 2.21922E+01 0.00000E+00
 -1      1088 7.60350E+01 2.21922E+01 0.00000E+00
 -1      1089 7.90350E+01 2.21922E+01 0.00000E+00
 -1      1090 8.20350E+01 2.21922E+01 0.00000E+00
 -1      1091 8.50350E+01 2.21922E+01 0.00000E+00
 -1      1092 8.80350E+01 2.21922E+01 0.00000E+00
 -1      1093 9.10350E+01 2.21922E+01 0.00000E+00
 -1      1094 9.40350E+01 2.21922E+01 0.00000E+00
 -1      1095 9.70350E+01 2.21922E+01 0.00000E+00
 -1      1096 1.00035E+02 2.21922E+01 0.00000E+00
 -1      1097 1.03035E+02 2.21922E+01 0.00000E+00
 -1      1098 2.56500E+01 2.66180E+01 0.00000E+00
 -1      1099 6.10350E+01 2.21922E+01 0.00000E+00
 -1      1100 7.00350E+01 2.21922E+01 0.00000E+00
 -1      1101 3.55350E+01 1.95942E+01 0.00000E+00
 -1      1102 4.60350E+01 2.21922E+01 0.00000E+00
 -1      1103 5.80350E+01 2.21922E+01 0.00000E+00
 -1      1104 2.86500E+01 2.66180E+01 0.00000E+00
 -1      1105 2.37487E+01 1.96662E+01 0.00000E+00
 -1      1106 4.30350E+01 2.21922E+01 0.00000E+00
 -1      1107 5.20350E+01 2.21922E+01 0.00000E+00
 -1      1108 4.90350E+01 2.21922E+01 0.00000E+00
 -1      1109 2.32995E+01 2.63160E+01 0.00000E+00
 -1      1110 2.66419E+01 1.96302E+01 0.00000E+00
 -1      1111 3.85350E+01 1.95942E+01 0.00000E+00
 -1      1112 3.40350E+01 2.21922E+01 0.00000E+00
 -1      1113 3.10350E+01 2.21922E+01 0.00000E+00
 -1      1114 1.03491E+02 2.44897E+01 0.00000E+00
 -1      1115 3.91500E+01 2.40200E+01 0.00000E+00
 -1      1116 1.00491E+02 2.44897E+01 0.00000E+00
 -1      1117 2.71500E+01 2.40200E+01 0.00000E+00
 -1      1118 2.35241E+01 2.29911E+01 0.00000E+00
 -1      1119 3.70350E+01 2.21922E+01 0.00000E+00
 -1      1120 2.53371E+01 2.35056E+01 0.00000E+00
 -1      1121 0.00000E+00 4.85250E+01 0.00000E+00
 -1      1122 0.00000E+00 4.55750E+01 0.00000E+00
 -1      1123 0.00000E+00 4.26250E+01 0.00000E+00
 -1      1124 0.00000E+00 3.96750E+01 0.00000E+00
 -1      1125 0.00000E+00 3.67250E+01 0.00000E+00
 -1      1126 0.00000E+00 3.38000E+01 0.00000E+00
 -1      1127 0.00000E+00 3.08750E+01 0.00000E+00
 -1      1128 0.00000E+00 2.79250E+01 0.00000E+00
 -1      1129 0.00000E+00 2.49750E+01 0.00000E+00
 -1      1130 0.00000E+00 2.20250E+01 0.00000E+00
 -1      1131 0.00000E+00 1.90750E+01 0.00000E+00
 -1      1132 0.00000E+00 1.61500E+01 0.00000E+00
 -1      1133 0.00000E+00 1.32250E+01 0.00000E+00
 -1      1134 0.00000E+00 1.02750E+01 0.00000E+00
 -1      1135 0.00000E+00 7.32500E+00 0.00000E+00
 -1      1136 0.00000E+00 4.37500E+00 0.00000E+00
 -1      1137 0.00000E+00 1.45000E+00 0.00000E+00
 -1      1138 1.57500E+00 5.00000E+01 0.00000E+00
 -1      1139 4.65000E+00 5.00000E+01 0.00000E+00
 -1      1140 7.65000E+00 5.00000E+01 0.00000E+00
 -1      1141 1.06500E+01 5.00000E+01 0.00000E+00
 -1      1142 1.36500E+01 5.00000E+01 0.00000E+00
 -1      1143 1.66500E+01 5.00000E+01 0.00000E+00
 -1      1144 1.96500E+01 5.00000E+01 0.00000E+00
 -1      1145 2.26500E+01 5.00000E+01 0.00000E+00
 -1      1146 2.56500E+01 5.00000E+01 0.00000E+00
 -1      1147 2.86500E+01 5.00000E+01 0.00000E+00
 -1      1148 3.16500E+01 5.00000E+01 0.00000E+00
 -1      1149 3.46500E+01 5.00000E+01 0.00000E+00
 -1      1150 3.76500E+01 5.00000E+01 0.00000E+00
 -1      1151 4.06500E+01 5.00000E+01 0.00000E+00
 -1      1152 4.36500E+01 5.00000E+01 0.00000E+00
 -1      1153 4.66500E+01 5.00000E+01 0.00000E+00
 -1      1154 4.96500E+01 5.00000E+01 0.00000E+00
 -1      1155 5.26500E+01 5.00000E+01 0.00000E+00
 -1      1156 5.56500E+01 5.00000E+01 0.00000E+00
 -1      1157 5.86500E+01 5.00000E+01 0.00000E+00
 -1      1158 6.16500E+01 5.00000E+01 0.00000E+00
 -1      1159 6.46500E+01 5.00000E+01 0.00000E+00
 -1      1160 6.76500E+01 5.00000E+01 0.00000E+00
 -1      1161 7.06500E+01 5.00000E+01 0.00000E+00
 -1      1162 7.36500E+01 5.00000E+01 0.00000E+00
 -1      1163 7.66500E+01 5.00000E+01 0.00000E+00
 -1      1164 7.96500E+01 5.00000E+01 0.00000E+00
 -1      1165 8.26500E+01 5.00000E+01 0.00000E+00
 -1      1166 8.56500E+01 5.00000E+01 0.00000E+00
 -1      1167 8.86500E+01 5.00000E+01 0.00000E+00
 -1      1168 9.16500E+01 5.00000E+01 0.00000E+00
 -1      1169 9.46500E+01 5.00000E+01 0.00000E+00
 -1      1170 9.76500E+01 5.00000E+01 0.00000E+00
 -1      1171 1.00650E+02 5.00000E+01 0.00000E+00
 -1      1172 1.03650E+02 5.00000E+01 0.00000E+00
 -1      1173 1.06650E+02 5.00000E+01 0.00000E+00
 -1      1174 1.09650E+02 5.00000E+01 0.00000E+00
 -1      1175 1.12650E+02 5.00000E+01 0.00000E+00
 -1      1176 1.15650E+02 5.00000E+01 0.00000E+00
 -1      1177 1.18650E+02 5.00000E+01 0.00000E+00
 -1      1178 1.21650E+02 5.00000E+01 0.00000E+00
 -1      1179 1.24650E+02 5.00000E+01 0.00000E+00
 -1      1180 1.27650E+02 5.00000E+01 0.00000E+00
 -1      1181 1.30650E+02 5.00000E+01 0.00000E+00
 -1      1182 1.33650E+02 5.00000E+01 0.00000E+00
 -1      1183 1.36650E+02 5.00000E+01 0.00000E+00
 -1      1184 1.39650E+02 5.00000E+01 0.00000E+00
 -1      1185 1.42650E+02 5.00000E+01 0.00000E+00
 -1      1186 1.45650E+02 5.00000E+01 0.00000E+00
 -1      1187 1.48575E+02 5.00000E+01 0.00000E+00
 -1      1188 1.57500E+00 0.00000E+00 0.00000E+00
 -1      1189 4.65000E+00 0.00000E+00 0.00000E+00
 -1      1190 7.65000E+00 0.00000E+00 0.00000E+00
 -1      1191 1.06500E+01 0.00000E+00 0.00000E+00
 -1      1192 1.36500E+01 0.00000E+00 0.00000E+00
 -1      1193 1.66500E+01 0.00000E+00 0.00000E+00
 -1      1194 1.96500E+01 0.00000E+00 0.00000E+00
 -1      1195 2.26500E+01 0.00000E+00 0.00000E+00
 -1      1196 2.56500E+01 0.00000E+00 0.00000E+00
 -1      1197 2.86500E+01 0.00000E+00 0.00000E+00
 -1      1198 3.16500E+01 0.00000E+00 0.00000E+00
 -1      1199 3.46500E+01 0.00000E+00 0.00000E+00
 -1      1200 3.76500E+01 0.00000E+00 0.00000E+00
 -1      1201 4.06500E+01 0.00000E+00 0.00000E+00
 -1      1202 4.36500E+01 0.00000E+00 0.00000E+00
 -1      1203 4.66500E+01 0.00000E+00 0.00000E+00
 -1      1204 4.96500E+01 0.00000E+00 0.00000E+00
 -1      1205 5.26500E+01 0.00000E+00 0.00000E+00
 -1      1206 5.56500E+01 0.00000E+00 0.00000E+00
 -1      1207 5.86500E+01 0.00000E+00 0.00000E+00
 -1      1208 6.16500E+01 0.00000E+00 0.00000E+00
 -1      1209 6.46500E+01 0.00000E+00 0.00000E+00
 -1      1210 6.76500E+01 0.00000E+00 0.00000E+00
 -1      1211 7.06500E+01 0.00000E+00 0.00000E+00
 -1      1212 7.36500E+01 0.00000E+00 0.00000E+00
 -1      1213 7.66500E+01 0.00000E+00 0.00000E+00
 -1      1214 7.96500E+01 0.00000E+00 0.00000E+00
 -1      1215 8.26500E+01 0.00000E+00 0.00000E+00
 -1      1216 8.56500E+01 0.00000E+00 0.00000E+00
 -1      1217 8.86500E+01 0.00000E+00 0.00000E+00
 -1      1218 9.16500E+01 0.00000E+00 0.00000E+00
 -1      1219 9.46500E+01 0.00000E+00 0.00000E+00
 -1      1220 9.76500E+01 0.00000E+00 0.00000E+00
 -1      1221 1.00650E+02 0.00000E+00 0.00000E+00
 -1      1222 1.03650E+02 0.00000E+00 0.00000E+00
 -1      1223 1.06650E+02 0.00000E+00 0.00000E+00
 -1      1224 1.09650E+02 0.00000E+00 0.00000E+00
 -1      1225 1.12650E+02 0.00000E+00 0.00000E+00
 -1      1226 1.15650E+02 0.00000E+00 0.00000E+00
 -1      1227 1.18650E+02 0.00000E+00 0.00000E+00
 -1      1228 1.21650E+02 0.00000E+00 0.00000E+00
 -1      1229 1.24650E+02 0.00000E+00 0.00000E+00
 -1      1230 1.27650E+02 0.00000E+00 0.00000E+00
 -1      1231 1.30650E+02 0.00000E+00 0.00000E+00
 -1      1232 1.33650E+02 0.00000E+00 0.00000E+00
 -1      1233 1.36650E+02 0.00000E+00 0.00000E+00
 -1      1234 1.39650E+02 0.00000E+00 0.00000E+00
 -1      1235 1.42650E+02 0.00000E+00 0.00000E+00
 -1      1236 1.45650E+02 0.00000E+00 0.00000E+00
 -1      1237 1.48575E+02 0.00000E+00 0.00000E+00
 -1      1238 1.50000E+02 1.47500E+00 0.00000E+00
 -1      1239 1.50000E+02 4.42500E+00 0.00000E+00
 -1      1240 1.50000E+02 7.37500E+00 0.00000E+00
 -1      1241 1.50000E+02 1.03250E+01 0.00000E+00
 -1      1242 1.50000E+02 1.32750E+01 0.00000E+00
 -1      1243 1.50000E+02 1.62250E+01 0.00000E+00
 -1      1244 1.50000E+02 1.91750E+01 0.00000E+00
 -1      1245 1.50000E+02 2.21000E+01 0.00000E+00
 -1      1246 1.50000E+02 2.50250E+01 0.00000E+00
 -1      1247 1.50000E+02 2.79500E+01 0.00000E+00
 -1      1248 1.50000E+02 3.08750E+01 0.00000E+00
 -1      1249 1.50000E+02 3.38250E+01 0.00000E+00
 -1      1250 1.50000E+02 3.67750E+01 0.00000E+00
 -1      1251 1.50000E+02 3.97250E+01 0.00000E+00
 -1      1252 1.50000E+02 4.26750E+01 0.00000E+00
 -1      1253 1.50000E+02 4.56250E+01 0.00000E+00
 -1      1254 1.50000E+02 4.85500E+01 0.00000E+00
 -1      1255 1.34865E+02 2.08893E+01 0.00000E+00
 -1      1256 1.34540E+02 1.94105E+01 0.00000E+00
 -1      1257 1.33903E+02 1.80351E+01 0.00000E+00
 -1      1258 1.33013E+02 1.68567E+01 0.00000E+00
 -1      1259 1.31903E+02 1.58976E+01 0.00000E+00
 -1      1260 1.30589E+02 1.51786E+01 0.00000E+00
 -1      1261 1.29121E+02 1.47501E+01 0.00000E+00
 -1      1262 1.27627E+02 1.46493E+01 0.00000E+00
 -1      1263 1.26142E+02 1.48696E+01 0.00000E+00
 -1      1264 1.24660E+02 1.54418E+01 0.00000E+00
 -1      1265 1.23390E+02 1.62948E+01 0.00000E+00
 -1      1266 1.22393E+02 1.73294E+01 0.00000E+00
 -1      1267 1.21593E+02 1.86184E+01 0.00000E+00
 -1      1268 1.21084E+02 2.00714E+01 0.00000E+00
 -1      1269 1.20906E+02 2.15385E+01 0.00000E+00
 -1      1270 1.21044E+02 2.30320E+01 0.00000E+00
 -1      1271 1.21490E+02 2.44446E+01 0.00000E+00
 -1      1272 1.22239E+02 2.57535E+01 0.00000E+00
 -1      1273 1.23238E+02 2.68603E+01 0.00000E+00
 -1      1274 1.24359E+02 2.76792E+01 0.00000E+00
 -1      1275 1.25608E+02 2.82560E+01 0.00000E+00
 -1      1276 1.27010E+02 2.85862E+01 0.00000E+00
 -1      1277 1.28434E+02 2.86238E+01 0.00000E+00
 -1      1278 1.29790E+02 2.83853E+01 0.00000E+00
 -1      1279 1.31078E+02 2.78836E+01 0.00000E+00
 -1      1280 1.32230E+02 2.71478E+01 0.00000E+00
 -1      1281 1.33225E+02 2.61942E+01 0.00000E+00
 -1      1282 1.34040E+02 2.50160E+01 0.00000E+00
 -1      1283 1.34604E+02 2.36748E+01 0.00000E+00
 -1      1284 1.34873E+02 2.23158E+01 0.00000E+00
 -1      1285 1.57500E+00 4.85250E+01 0.00000E+00
 -1      1286 1.29900E+00 4.48375E+01 0.00000E+00
 -1      1287 1.29900E+00 4.63125E+01 0.00000E+00
 -1      1288 1.29900E+00 4.18875E+01 0.00000E+00
 -1      1289 1.29900E+00 4.33625E+01 0.00000E+00
 -1      1290 2.59800E+00 4.41000E+01 0.00000E+00
 -1      1291 1.29900E+00 3.89375E+01 0.00000E+00
 -1      1292 1.29900E+00 4.04125E+01 0.00000E+00
 -1      1293 2.59800E+00 4.11500E+01 0.00000E+00
 -1      1294 1.29900E+00 3.59875E+01 0.00000E+00
 -1      1295 1.29900E+00 3.74625E+01 0.00000E+00
 -1      1296 2.59800E+00 3.82000E+01 0.00000E+00
 -1      1297 1.29900E+00 3.30875E+01 0.00000E+00
 -1      1298 1.29900E+00 3.45375E+01 0.00000E+00
 -1      1299 2.59800E+00 3.52750E+01 0.00000E+00
 -1      1300 1.29900E+00 3.01375E+01 0.00000E+00
 -1      1301 1.29900E+00 3.16125E+01 0.00000E+00
 -1      1302 2.59800E+00 3.23500E+01 0.00000E+00
 -1      1303 1.29900E+00 2.71875E+01 0.00000E+00
 -1      1304 1.29900E+00 2.86625E+01 0.00000E+00
 -1      1305 2.59800E+00 2.94000E+01 0.00000E+00
 -1      1306 1.29900E+00 2.42375E+01 0.00000E+00
 -1      1307 1.29900E+00 2.57125E+01 0.00000E+00
 -1      1308 2.59800E+00 2.64500E+01 0.00000E+00
 -1      1309 1.29900E+00 2.12875E+01 0.00000E+00
 -1      1310 1.29900E+00 2.27625E+01 0.00000E+00
 -1      1311 2.59800E+00 2.35000E+01 0.00000E+00
 -1      1312 1.29900E+00 1.83375E+01 0.00000E+00
 -1      1313 1.29900E+00 1.98125E+01 0.00000E+00
 -1      1314 2.59800E+00 2.05500E+01 0.00000E+00
 -1      1315 1.29900E+00 1.54375E+01 0.00000E+00
 -1      1316 1.29900E+00 1.68875E+01 0.00000E+00
 -1      1317 2.59800E+00 1.76250E+01 0.00000E+00
 -1      1318 1.29900E+00 1.24875E+01 0.00000E+00
 -1      1319 1.29900E+00 1.39625E+01 0.00000E+00
 -1      1320 2.59800E+00 1.47000E+01 0.00000E+00
 -1      1321 1.29900E+00 9.53750E+00 0.00000E+00
 -1      1322 1.29900E+00 1.10125E+01 0.00000E+00
 -1      1323 2.59800E+00 1.17500E+01 0.00000E+00
 -1      1324 1.29900E+00 6.58750E+00 0.00000E+00
 -1      1325 1.29900E+00 8.06250E+00 0.00000E+00
 -1      1326 2.59800E+00 8.80000E+00 0.00000E+00
 -1      1327 1.29900E+00 3.63750E+00 0.00000E+00
 -1      1328 1.29900E+00 5.11250E+00 0.00000E+00
 -1      1329 2.59800E+00 5.85000E+00 0.00000E+00
 -1      1330 1.43700E+00 1.09375E+00 0.00000E+00
 -1      1331 1.43700E+00 2.54375E+00 0.00000E+00
 -1      1332 2.73600E+00 3.28125E+00 0.00000E+00
 -1      1333 3.01200E+00 1.09375E+00 0.00000E+00
 -1      1334 3.90000E+00 4.87010E+01 0.00000E+00
 -1      1335 5.40000E+00 4.87010E+01 0.00000E+00
 -1      1336 6.90000E+00 4.87010E+01 0.00000E+00
 -1      1337 8.40000E+00 4.87010E+01 0.00000E+00
 -1      1338 6.15000E+00 4.74020E+01 0.00000E+00
 -1      1339 9.90000E+00 4.87010E+01 0.00000E+00
 -1      1340 1.14000E+01 4.87010E+01 0.00000E+00
 -1      1341 9.15000E+00 4.74020E+01 0.00000E+00
 -1      1342 1.29000E+01 4.87010E+01 0.00000E+00
 -1      1343 1.44000E+01 4.87010E+01 0.00000E+00
 -1      1344 1.21500E+01 4.74020E+01 0.00000E+00
 -1      1345 1.59000E+01 4.87010E+01 0.00000E+00
 -1      1346 1.74000E+01 4.87010E+01 0.00000E+00
 -1      1347 1.51500E+01 4.74020E+01 0.00000E+00
 -1      1348 1.89000E+01 4.87010E+01 0.00000E+00
 -1      1349 2.04000E+01 4.87010E+01 0.00000E+00
 -1      1350 1.81500E+01 4.74020E+01 0.00000E+00
 -1      1351 2.19000E+01 4.87010E+01 0.00000E+00
 -1      1352 2.34000E+01 4.87010E+01 0.00000E+00
 -1      1353 2.11500E+01 4.74020E+01 0.00000E+00
 -1      1354 2.49000E+01 4.87010E+01 0.00000E+00
 -1      1355 2.64000E+01 4.87010E+01 0.00000E+00
 -1      1356 2.41500E+01 4.74020E+01 0.00000E+00
 -1      1357 2.79000E+01 4.87010E+01 0.00000E+00
 -1      1358 2.94000E+01 4.87010E+01 0.00000E+00
 -1      1359 2.71500E+01 4.74020E+01 0.00000E+00
 -1      1360 3.09000E+01 4.87010E+01 0.00000E+00
 -1      1361 3.24000E+01 4.87010E+01 0.00000E+00
 -1      1362 3.01500E+01 4.74020E+01 0.00000E+00
 -1      1363 3.39000E+01 4.87010E+01 0.00000E+00
 -1      1364 3.54000E+01 4.87010E+01 0.00000E+00
 -1      1365 3.31500E+01 4.74020E+01 0.00000E+00
 -1      1366 3.69000E+01 4.87010E+01 0.00000E+00
 -1      1367 3.84000E+01 4.87010E+01 0.00000E+00
 -1      1368 3.61500E+01 4.74020E+01 0.00000E+00
 -1      1369 3.99000E+01 4.87010E+01 0.00000E+00
 -1      1370 4.14000E+01 4.87010E+01 0.00000E+00
 -1      1371 3.91500E+01 4.74020E+01 0.00000E+00
 -1      1372 4.29000E+01 4.87010E+01 0.00000E+00
 -1      1373 4.44000E+01 4.87010E+01 0.00000E+00
 -1      1374 4.21500E+01 4.74020E+01 0.00000E+00
 -1      1375 4.59000E+01 4.87010E+01 0.00000E+00
 -1      1376 4.74000E+01 4.87010E+01 0.00000E+00
 -1      1377 4.51500E+01 4.74020E+01 0.00000E+00
 -1      1378 4.89000E+01 4.87010E+01 0.00000E+00
 -1      1379 5.04000E+01 4.87010E+01 0.00000E+00
 -1      1380 4.81500E+01 4.74020E+01 0.00000E+00
 -1      1381 5.19000E+01 4.87010E+01 0.00000E+00
 -1      1382 5.34000E+01 4.87010E+01 0.00000E+00
 -1      1383 5.11500E+01 4.74020E+01 0.00000E+00
 -1      1384 5.49000E+01 4.87010E+01 0.00000E+00
 -1      1385 5.64000E+01 4.87010E+01 0.00000E+00
 -1      1386 5.41500E+01 4.74020E+01 0.00000E+00
 -1      1387 5.79000E+01 4.87010E+01 0.00000E+00
 -1      1388 5.94000E+01 4.87010E+01 0.00000E+00
 -1      1389 5.71500E+01 4.74020E+01 0.00000E+00
 -1      1390 6.09000E+01 4.87010E+01 0.00000E+00
 -1      1391 6.24000E+01 4.87010E+01 0.00000E+00
 -1      1392 6.01500E+01 4.74020E+01 0.00000E+00
 -1      1393 6.39000E+01 4.87010E+01 0.00000E+00
 -1      1394 6.54000E+01 4.87010E+01 0.00000E+00
 -1      1395 6.31500E+01 4.74020E+01 0.00000E+00
 -1      1396 6.69000E+01 4.87010E+01 0.00000E+00
 -1      1397 6.84000E+01 4.87010E+01 0.00000E+00
 -1      1398 6.61500E+01 4.74020E+01 0.00000E+00
 -1      1399 6.99000E+01 4.87010E+01 0.00000E+00
 -1      1400 7.14000E+01 4.87010E+01 0.00000E+00
 -1      1401 6.91500E+01 4.74020E+01 0.00000E+00
 -1      1402 7.29000E+01 4.87010E+01 0.00000E+00
 -1      1403 7.44000E+01 4.87010E+01 0.00000E+00
 -1      1404 7.21500E+01 4.74020E+01 0.00000E+00
 -1      1405 7.59000E+01 4.87010E+01 0.00000E+00
 -1      1406 7.74000E+01 4.87010E+01 0.00000E+00
 -1      1407 7.51500E+01 4.74020E+01 0.00000E+00
 -1      1408 7.89000E+01 4.87010E+01 0.00000E+00
 -1      1409 8.04000E+01 4.87010E+01 0.00000E+00
 -1      1410 7.81500E+01 4.74020E+01 0.00000E+00
 -1      1411 8.19000E+01 4.87010E+01 0.00000E+00
 -1      1412 8.34000E+01 4.87010E+01 0.00000E+00
 -1      1413 8.11500E+01 4.74020E+01 0.00000E+00
 -1      1414 8.49000E+01 4.87010E+01 0.00000E+00
 -1      1415 8.64000E+01 4.87010E+01 0.00000E+00
 -1      1416 8.41500E+01 4.74020E+01 0.00000E+00
 -1      1417 8.79000E+01 4.87010E+01 0.00000E+00
 -1      1418 8.94000E+01 4.87010E+01 0.00000E+00
 -1      1419 8.71500E+01 4.74020E+01 0.00000E+00
 -1      1420 9.09000E+01 4.87010E+01 0.00000E+00
 -1      1421 9.24000E+01 4.87010E+01 0.00000E+00
 -1      1422 9.01500E+01 4.74020E+01 0.00000E+00
 -1      1423 9.39000E+01 4.87010E+01 0.00000E+00
 -1      1424 9.54000E+01 4.87010E+01 0.00000E+00
 -1      1425 9.31500E+01 4.74020E+01 0.00000E+00
 -1      1426 9.69000E+01 4.87010E+01 0.00000E+00
 -1      1427 9.84000E+01 4.87010E+01 0.00000E+00
 -1      1428 9.61500E+01 4.74020E+01 0.00000E+00
 -1      1429 9.99000E+01 4.87010E+01 0.00000E+00
 -1      1430 1.01400E+02 4.87010E+01 0.00000E+00
 -1      1431 9.91500E+01 4.74020E+01 0.00000E+00
 -1      1432 1.02900E+02 4.87010E+01 0.00000E+00
 -1      1433 1.04400E+02 4.87010E+01 0.00000E+00
 -1      1434 1.02150E+02 4.74020E+01 0.00000E+00
 -1      1435 1.05900E+02 4.87010E+01 0.00000E+00
 -1      1436 1.07400E+02 4.87010E+01 0.00000E+00
 -1      1437 1.05150E+02 4.74020E+01 0.00000E+00
 -1      1438 1.08900E+02 4.87010E+01 0.00000E+00
 -1      1439 1.10400E+02 4.87010E+01 0.00000E+00
 -1      1440 1.08150E+02 4.74020E+01 0.00000E+00
 -1      1441 1.11900E+02 4.87010E+01 0.00000E+00
 -1      1442 1.13400E+02 4.87010E+01 0.00000E+00
 -1      1443 1.11150E+02 4.74020E+01 0.00000E+00
 -1      1444 1.14900E+02 4.87010E+01 0.00000E+00
 -1      1445 1.16400E+02 4.87010E+01 0.00000E+00
 -1      1446 1.14150E+02 4.74020E+01 0.00000E+00
 -1      1447 1.17900E+02 4.87010E+01 0.00000E+00
 -1      1448 1.19400E+02 4.87010E+01 0.00000E+00
 -1      1449 1.17150E+02 4.74020E+01 0.00000E+00
 -1      1450 1.20900E+02 4.87010E+01 0.00000E+00
 -1      1451 1.22400E+02 4.87010E+01 0.00000E+00
 -1      1452 1.20150E+02 4.74020E+01 0.00000E+00
 -1      1453 1.23900E+02 4.87010E+01 0.00000E+00
 -1      1454 1.25400E+02 4.87010E+01 0.00000E+00
 -1      1455 1.23150E+02 4.74020E+01 0.00000E+00
 -1      1456 1.26900E+02 4.87010E+01 0.00000E+00
 -1      1457 1.28400E+02 4.87010E+01 0.00000E+00
 -1      1458 1.26150E+02 4.74020E+01 0.00000E+00
 -1      1459 1.29900E+02 4.87010E+01 0.00000E+00
 -1      1460 1.31400E+02 4.87010E+01 0.00000E+00
 -1      1461 1.29150E+02 4.74020E+01 0.00000E+00
 -1      1462 1.32900E+02 4.87010E+01 0.00000E+00
 -1      1463 1.34400E+02 4.87010E+01 0.00000E+00
 -1      1464 1.32150E+02 4.74020E+01 0.00000E+00
 -1      1465 1.35900E+02 4.87010E+01 0.00000E+00
 -1      1466 1.37400E+02 4.87010E+01 0.00000E+00
 -1      1467 1.35150E+02 4.74020E+01 0.00000E+00
 -1      1468 1.38900E+02 4.87010E+01 0.00000E+00
 -1      1469 1.40400E+02 4.87010E+01 0.00000E+00
 -1      1470 1.38150E+02 4.74020E+01 0.00000E+00
 -1      1471 1.41900E+02 4.87010E+01 0.00000E+00
 -1      1472 1.43400E+02 4.87010E+01 0.00000E+00
 -1      1473 1.41150E+02 4.74020E+01 0.00000E+00
 -1      1474 1.44900E+02 4.87010E+01 0.00000E+00
 -1      1475 1.46400E+02 4.87010E+01 0.00000E+00
 -1      1476 1.44150E+02 4.74020E+01 0.00000E+00
 -1      1477 1.48575E+02 4.85500E+01 0.00000E+00
 -1      1478 1.47825E+02 4.72510E+01 0.00000E+00
 -1      1479 6.01200E+00 1.09375E+00 0.00000E+00
 -1      1480 4.51200E+00 1.09375E+00 0.00000E+00
 -1      1481 4.37400E+00 2.18750E+00 0.00000E+00
 -1      1482 9.01200E+00 1.09375E+00 0.00000E+00
 -1      1483 7.51200E+00 1.09375E+00 0.00000E+00
 -1      1484 7.37400E+00 2.18750E+00 0.00000E+00
 -1      1485 1.20120E+01 1.09375E+00 0.00000E+00
 -1      1486 1.05120E+01 1.09375E+00 0.00000E+00
 -1      1487 1.03740E+01 2.18750E+00 0.00000E+00
 -1      1488 1.50120E+01 1.09375E+00 0.00000E+00
 -1      1489 1.35120E+01 1.09375E+00 0.00000E+00
 -1      1490 1.33740E+01 2.18750E+00 0.00000E+00
 -1      1491 1.80120E+01 1.09375E+00 0.00000E+00
 -1      1492 1.65120E+01 1.09375E+00 0.00000E+00
 -1      1493 1.63740E+01 2.18750E+00 0.00000E+00
 -1      1494 2.10120E+01 1.09375E+00 0.00000E+00
 -1      1495 1.95120E+01 1.09375E+00 0.00000E+00
 -1      1496 1.93740E+01 2.18750E+00 0.00000E+00
 -1      1497 2.40120E+01 1.09375E+00 0.00000E+00
 -1      1498 2.25120E+01 1.09375E+00 0.00000E+00
 -1      1499 2.23740E+01 2.18750E+00 0.00000E+00
 -1      1500 2.70120E+01 1.09375E+00 0.00000E+00
 -1      1501 2.55120E+01 1.09375E+00 0.00000E+00
 -1      1502 2.53740E+01 2.18750E+00 0.00000E+00
 -1      1503 3.00120E+01 1.09375E+00 0.00000E+00
 -1      1504 2.85120E+01 1.09375E+00 0.00000E+00
 -1      1505 2.83740E+01 2.18750E+00 0.00000E+00
 -1      1506 3.30120E+01 1.09375E+00 0.00000E+00
 -1      1507 3.15120E+01 1.09375E+00 0.00000E+00
 -1      1508 3.13740E+01 2.18750E+00 0.00000E+00
 -1      1509 3.60120E+01 1.09375E+00 0.00000E+00
 -1      1510 3.45120E+01 1.09375E+00 0.00000E+00
 -1      1511 3.43740E+01 2.18750E+00 0.00000E+00
 -1      1512 3.90120E+01 1.09375E+00 0.00000E+00
 -1      1513 3.75120E+01 1.09375E+00 0.00000E+00
 -1      1514 3.73740E+01 2.18750E+00 0.00000E+00
 -1      1515 4.20120E+01 1.09375E+00 0.00000E+00
 -1      1516 4.05120E+01 1.09375E+00 0.00000E+00
 -1      1517 4.03740E+01 2.18750E+00 0.00000E+00
 -1      1518 4.50120E+01 1.09375E+00 0.00000E+00
 -1      1519 4.35120E+01 1.09375E+00 0.00000E+00
 -1      1520 4.33740E+01 2.18750E+00 0.00000E+00
 -1      1521 4.80120E+01 1.09375E+00 0.00000E+00
 -1      1522 4.65120E+01 1.09375E+00 0.00000E+00
 -1      1523 4.63740E+01 2.18750E+00 0.00000E+00
 -1      1524 5.10120E+01 1.09375E+00 0.00000E+00
 -1      1525 4.95120E+01 1.09375E+00 0.00000E+00
 -1      1526 4.93740E+01 2.18750E+00 0.00000E+00
 -1      1527 5.40120E+01 1.09375E+00 0.00000E+00
 -1      1528 5.25120E+01 1.09375E+00 0.00000E+00
 -1      1529 5.23740E+01 2.18750E+00 0.00000E+00
 -1      1530 5.70120E+01 1.09375E+00 0.00000E+00
 -1      1531 5.55120E+01 1.09375E+00 0.00000E+00
 -1      1532 5.53740E+01 2.18750E+00 0.00000E+00
 -1      1533 6.00120E+01 1.09375E+00 0.00000E+00
 -1      1534 5.85120E+01 1.09375E+00 0.00000E+00
 -1      1535 5.83740E+01 2.18750E+00 0.00000E+00
 -1      1536 6.30120E+01 1.09375E+00 0.00000E+00
 -1      1537 6.15120E+01 1.09375E+00 0.00000E+00
 -1      1538 6.13740E+01 2.18750E+00 0.00000E+00
 -1      1539 6.60120E+01 1.09375E+00 0.00000E+00
 -1      1540 6.45120E+01 1.09375E+00 0.00000E+00
 -1      1541 6.43740E+01 2.18750E+00 0.00000E+00
 -1      1542 6.90120E+01 1.09375E+00 0.00000E+00
 -1      1543 6.75120E+01 1.09375E+00 0.00000E+00
 -1      1544 6.73740E+01 2.18750E+00 0.00000E+00
 -1      1545 7.20120E+01 1.09375E+00 0.00000E+00
 -1      1546 7.05120E+01 1.09375E+00 0.00000E+00
 -1      1547 7.03740E+01 2.18750E+00 0.00000E+00
 -1      1548 7.50120E+01 1.09375E+00 0.00000E+00
 -1      1549 7.35120E+01 1.09375E+00 0.00000E+00
 -1      1550 7.33740E+01 2.18750E+00 0.00000E+00
 -1      1551 7.80120E+01 1.09375E+00 0.00000E+00
 -1      1552 7.65120E+01 1.09375E+00 0.00000E+00
 -1      1553 7.63740E+01 2.18750E+00 0.00000E+00
 -1      1554 8.10120E+01 1.09375E+00 0.00000E+00
 -1      1555 7.95120E+01 1.09375E+00 0.00000E+00
 -1      1556 7.93740E+01 2.18750E+00 0.00000E+00
 -1      1557 8.40120E+01 1.09375E+00 0.00000E+00
 -1      1558 8.25120E+01 1.09375E+00 0.00000E+00
 -1      1559 8.23740E+01 2.18750E+00 0.00000E+00
 -1      1560 8.70120E+01 1.09375E+00 0.00000E+00
 -1      1561 8.55120E+01 1.09375E+00 0.00000E+00
 -1      1562 8.53740E+01 2.18750E+00 0.00000E+00
 -1      1563 9.00120E+01 1.09375E+00 0.00000E+00
 -1      1564 8.85120E+01 1.09375E+00 0.00000E+00
 -1      1565 8.83740E+01 2.18750E+00 0.00000E+00
 -1      1566 9.30120E+01 1.09375E+00 0.00000E+00
 -1      1567 9.15120E+01 1.09375E+00 0.00000E+00
 -1      1568 9.13740E+01 2.18750E+00 0.00000E+00
 -1      1569 9.60120E+01 1.09375E+00 0.00000E+00
 -1      1570 9.45120E+01 1.09375E+00 0.00000E+00
 -1      1571 9.43740E+01 2.18750E+00 0.00000E+00
 -1      1572 9.90120E+01 1.09375E+00 0.00000E+00
 -1      1573 9.75120E+01 1.09375E+00 0.00000E+00
 -1      1574 9.73740E+01 2.18750E+00 0.00000E+00
 -1      1575 1.02012E+02 1.09375E+00 0.00000E+00
 -1      1576 1.00512E+02 1.09375E+00 0.00000E+00
 -1      1577 1.00374E+02 2.18750E+00 0.00000E+00
 -1      1578 1.05012E+02 1.09375E+00 0.00000E+00
 -1      1579 1.03512E+02 1.09375E+00 0.00000E+00
 -1      1580 1.03374E+02 2.18750E+00 0.00000E+00
 -1      1581 1.08012E+02 1.09375E+00 0.00000E+00
 -1      1582 1.06512E+02 1.09375E+00 0.00000E+00
 -1      1583 1.06374E+02 2.18750E+00 0.00000E+00
 -1      1584 1.11012E+02 1.09375E+00 0.00000E+00
 -1      1585 1.09512E+02 1.09375E+00 0.00000E+00
 -1      1586 1.09374E+02 2.18750E+00 0.00000E+00
 -1      1587 1.14012E+02 1.09375E+00 0.00000E+00
 -1      1588 1.12512E+02 1.09375E+00 0.00000E+00
 -1      1589 1.12374E+02 2.18750E+00 0.00000E+00
 -1      1590 1.17012E+02 1.09375E+00 0.00000E+00
 -1      1591 1.15512E+02 1.09375E+00 0.00000E+00
 -1      1592 1.15374E+02 2.18750E+00 0.00000E+00
 -1      1593 1.20012E+02 1.09375E+00 0.00000E+00
 -1      1594 1.18512E+02 1.09375E+00 0.00000E+00
 -1      1595 1.18374E+02 2.18750E+00 0.00000E+00
 -1      1596 1.23012E+02 1.09375E+00 0.00000E+00
 -1      1597 1.21512E+02 1.09375E+00 0.00000E+00
 -1      1598 1.21374E+02 2.18750E+00 0.00000E+00
 -1      1599 1.26012E+02 1.09375E+00 0.00000E+00
 -1      1600 1.24512E+02 1.09375E+00 0.00000E+00
 -1      1601 1.24374E+02 2.18750E+00 0.00000E+00
 -1      1602 1.29012E+02 1.09375E+00 0.00000E+00
 -1      1603 1.27512E+02 1.09375E+00 0.00000E+00
 -1      1604 1.27374E+02 2.18750E+00 0.00000E+00
 -1      1605 1.32012E+02 1.09375E+00 0.00000E+00
 -1      1606 1.30512E+02 1.09375E+00 0.00000E+00
 -1      1607 1.30374E+02 2.18750E+00 0.00000E+00
 -1      1608 1.35012E+02 1.09375E+00 0.00000E+00
 -1      1609 1.33512E+02 1.09375E+00 0.00000E+00
 -1      1610 1.33374E+02 2.18750E+00 0.00000E+00
 -1      1611 1.38012E+02 1.09375E+00 0.00000E+00
 -1      1612 1.36512E+02 1.09375E+00 0.00000E+00
 -1      1613 1.36374E+02 2.18750E+00 0.00000E+00
 -1      1614 1.41012E+02 1.09375E+00 0.00000E+00
 -1      1615 1.39512E+02 1.09375E+00 0.00000E+00
 -1      1616 1.39374E+02 2.18750E+00 0.00000E+00
 -1      1617 1.44012E+02 1.09375E+00 0.00000E+00
 -1      1618 1.42512E+02 1.09375E+00 0.00000E+00
 -1      1619 1.42374E+02 2.18750E+00 0.00000E+00
 -1      1620 1.47012E+02 1.09375E+00 0.00000E+00
 -1      1621 1.45512E+02 1.09375E+00 0.00000E+00
 -1      1622 1.45374E+02 2.18750E+00 0.00000E+00
 -1      1623 1.48575E+02 1.47500E+00 0.00000E+00
 -1      1624 1.48701E+02 5.16250E+00 0.00000E+00
 -1      1625 1.48701E+02 3.68750E+00 0.00000E+00
 -1      1626 1.48701E+02 8.11250E+00 0.00000E+00
 -1      1627 1.48701E+02 6.63750E+00 0.00000E+00
 -1      1628 1.47402E+02 5.90000E+00 0.00000E+00
 -1      1629 1.48701E+02 1.10625E+01 0.00000E+00
 -1      1630 1.48701E+02 9.58750E+00 0.00000E+00
 -1      1631 1.47402E+02 8.85000E+00 0.00000E+00
 -1      1632 1.48701E+02 1.40125E+01 0.00000E+00
 -1      1633 1.48701E+02 1.25375E+01 0.00000E+00
 -1      1634 1.47402E+02 1.18000E+01 0.00000E+00
 -1      1635 1.48701E+02 1.69625E+01 0.00000E+00
 -1      1636 1.48701E+02 1.54875E+01 0.00000E+00
 -1      1637 1.47402E+02 1.47500E+01 0.00000E+00
 -1      1638 1.48701E+02 1.99125E+01 0.00000E+00
 -1      1639 1.48701E+02 1.84375E+01 0.00000E+00
 -1      1640 1.47402E+02 1.77000E+01 0.00000E+00
 -1      1641 1.48701E+02 2.28125E+01 0.00000E+00
 -1      1642 1.48701E+02 2.13625E+01 0.00000E+00
 -1      1643 1.47402E+02 2.06250E+01 0.00000E+00
 -1      1644 1.48701E+02 2.57625E+01 0.00000E+00
 -1      1645 1.48701E+02 2.42875E+01 0.00000E+00
 -1      1646 1.47402E+02 2.35500E+01 0.00000E+00
 -1      1647 1.48701E+02 2.86625E+01 0.00000E+00
 -1      1648 1.48701E+02 2.72125E+01 0.00000E+00
 -1      1649 1.47402E+02 2.64750E+01 0.00000E+00
 -1      1650 1.48701E+02 3.16125E+01 0.00000E+00
 -1      1651 1.48701E+02 3.01375E+01 0.00000E+00
 -1      1652 1.47402E+02 2.94000E+01 0.00000E+00
 -1      1653 1.48701E+02 3.45625E+01 0.00000E+00
 -1      1654 1.48701E+02 3.30875E+01 0.00000E+00
 -1      1655 1.47402E+02 3.23500E+01 0.00000E+00
 -1      1656 1.48701E+02 3.75125E+01 0.00000E+00
 -1      1657 1.48701E+02 3.60375E+01 0.00000E+00
 -1      1658 1.47402E+02 3.53000E+01 0.00000E+00
 -1      1659 1.48701E+02 4.04625E+01 0.00000E+00
 -1      1660 1.48701E+02 3.89875E+01 0.00000E+00
 -1      1661 1.47402E+02 3.82500E+01 0.00000E+00
 -1      1662 1.48701E+02 4.34125E+01 0.00000E+00
 -1      1663 1.48701E+02 4.19375E+01 0.00000E+00
 -1      1664 1.47402E+02 4.12000E+01 0.00000E+00
 -1      1665 1.48263E+02 4.60692E+01 0.00000E+00
 -1      1666 1.48263E+02 4.45942E+01 0.00000E+00
 -1      1667 1.46964E+02 4.38568E+01 0.00000E+00
 -1      1668 1.46088E+02 4.62202E+01 0.00000E+00
 -1      1669 1.35428E+02 2.04488E+01 0.00000E+00
 -1      1670 1.35509E+02 2.11989E+01 0.00000E+00
 -1      1671 1.35073E+02 1.88302E+01 0.00000E+00
 -1      1672 1.35315E+02 1.95502E+01 0.00000E+00
 -1      1673 1.34229E+02 1.73983E+01 0.00000E+00
 -1      1674 1.34619E+02 1.80459E+01 0.00000E+00
 -1      1675 1.33181E+02 1.62044E+01 0.00000E+00
 -1      1676 1.33674E+02 1.67309E+01 0.00000E+00
 -1      1677 1.31921E+02 1.52198E+01 0.00000E+00
 -1      1678 1.32532E+02 1.56454E+01 0.00000E+00
 -1      1679 1.30474E+02 1.44733E+01 0.00000E+00
 -1      1680 1.31169E+02 1.47618E+01 0.00000E+00
 -1      1681 1.28851E+02 1.40458E+01 0.00000E+00
 -1      1682 1.29616E+02 1.41806E+01 0.00000E+00
 -1      1683 1.27244E+02 1.40951E+01 0.00000E+00
 -1      1684 1.27964E+02 1.40665E+01 0.00000E+00
 -1      1685 1.25611E+02 1.43831E+01 0.00000E+00
 -1      1686 1.26367E+02 1.41864E+01 0.00000E+00
 -1      1687 1.23965E+02 1.49850E+01 0.00000E+00
 -1      1688 1.24680E+02 1.46104E+01 0.00000E+00
 -1      1689 1.22747E+02 1.60928E+01 0.00000E+00
 -1      1690 1.23299E+02 1.56273E+01 0.00000E+00
 -1      1691 1.21724E+02 1.72600E+01 0.00000E+00
 -1      1692 1.22165E+02 1.66967E+01 0.00000E+00
 -1      1693 1.20801E+02 1.86836E+01 0.00000E+00
 -1      1694 1.21148E+02 1.79605E+01 0.00000E+00
 -1      1695 1.20449E+02 2.03034E+01 0.00000E+00
 -1      1696 1.20614E+02 1.95846E+01 0.00000E+00
 -1      1697 1.20334E+02 2.19001E+01 0.00000E+00
 -1      1698 1.20345E+02 2.11599E+01 0.00000E+00
 -1      1699 1.20525E+02 2.35246E+01 0.00000E+00
 -1      1700 1.20374E+02 2.27801E+01 0.00000E+00
 -1      1701 1.21113E+02 2.50029E+01 0.00000E+00
 -1      1702 1.20824E+02 2.43416E+01 0.00000E+00
 -1      1703 1.21879E+02 2.65000E+01 0.00000E+00
 -1      1704 1.21417E+02 2.58636E+01 0.00000E+00
 -1      1705 1.23120E+02 2.75205E+01 0.00000E+00
 -1      1706 1.22594E+02 2.70506E+01 0.00000E+00
 -1      1707 1.24364E+02 2.83462E+01 0.00000E+00
 -1      1708 1.23774E+02 2.79996E+01 0.00000E+00
 -1      1709 1.25746E+02 2.89097E+01 0.00000E+00
 -1      1710 1.25094E+02 2.86829E+01 0.00000E+00
 -1      1711 1.27298E+02 2.92786E+01 0.00000E+00
 -1      1712 1.26555E+02 2.91827E+01 0.00000E+00
 -1      1713 1.28813E+02 2.91703E+01 0.00000E+00
 -1      1714 1.28140E+02 2.92212E+01 0.00000E+00
 -1      1715 1.30282E+02 2.88407E+01 0.00000E+00
 -1      1716 1.29606E+02 2.90297E+01 0.00000E+00
 -1      1717 1.31641E+02 2.82402E+01 0.00000E+00
 -1      1718 1.31034E+02 2.85486E+01 0.00000E+00
 -1      1719 1.32854E+02 2.73857E+01 0.00000E+00
 -1      1720 1.32314E+02 2.78101E+01 0.00000E+00
 -1      1721 1.33884E+02 2.63037E+01 0.00000E+00
 -1      1722 1.33435E+02 2.68285E+01 0.00000E+00
 -1      1723 1.34715E+02 2.49639E+01 0.00000E+00
 -1      1724 1.34357E+02 2.56141E+01 0.00000E+00
 -1      1725 1.35293E+02 2.35109E+01 0.00000E+00
 -1      1726 1.35086E+02 2.41935E+01 0.00000E+00
 -1      1727 1.35476E+02 2.20364E+01 0.00000E+00
 -1      1728 1.35412E+02 2.27053E+01 0.00000E+00
 -1      1729 1.33221E+02 1.54940E+01 0.00000E+00
 -1      1730 1.34424E+02 1.67205E+01 0.00000E+00
 -1      1731 1.48437E+02 2.56875E+00 0.00000E+00
 -1      1732 1.47138E+02 3.30625E+00 0.00000E+00
 -1      1733 1.36000E+02 1.98554E+01 0.00000E+00
 -1      1734 1.35433E+02 1.81723E+01 0.00000E+00
 -1      1735 1.36080E+02 2.15915E+01 0.00000E+00
 -1      1736 1.31821E+02 1.44770E+01 0.00000E+00
 -1      1737 1.30212E+02 1.37263E+01 0.00000E+00
 -1      1738 1.28466E+02 1.34544E+01 0.00000E+00
 -1      1739 1.26703E+02 1.35663E+01 0.00000E+00
 -1      1740 1.24895E+02 1.38848E+01 0.00000E+00
 -1      1741 1.23298E+02 1.47545E+01 0.00000E+00
 -1      1742 1.22050E+02 1.60008E+01 0.00000E+00
 -1      1743 1.20891E+02 1.73052E+01 0.00000E+00
 -1      1744 1.20128E+02 1.89068E+01 0.00000E+00
 -1      1745 1.19837E+02 2.06644E+01 0.00000E+00
 -1      1746 1.19774E+02 2.24009E+01 0.00000E+00
 -1      1747 1.20114E+02 2.40979E+01 0.00000E+00
 -1      1748 1.20717E+02 2.57754E+01 0.00000E+00
 -1      1749 1.21737E+02 2.71867E+01 0.00000E+00
 -1      1750 1.23107E+02 2.82164E+01 0.00000E+00
 -1      1751 1.24492E+02 2.90323E+01 0.00000E+00
 -1      1752 1.26030E+02 2.96420E+01 0.00000E+00
 -1      1753 1.27680E+02 2.98576E+01 0.00000E+00
 -1      1754 1.29315E+02 2.96596E+01 0.00000E+00
 -1      1755 1.30860E+02 2.92269E+01 0.00000E+00
 -1      1756 1.32285E+02 2.85046E+01 0.00000E+00
 -1      1757 1.33539E+02 2.75173E+01 0.00000E+00
 -1      1758 1.34594E+02 2.62706E+01 0.00000E+00
 -1      1759 1.35439E+02 2.48106E+01 0.00000E+00
 -1      1760 1.35929E+02 2.32347E+01 0.00000E+00
 -1      1761 2.87400E+00 4.77875E+01 0.00000E+00
 -1      1762 3.89700E+00 4.04125E+01 0.00000E+00
 -1      1763 3.89700E+00 4.18875E+01 0.00000E+00
 -1      1764 3.89700E+00 4.33625E+01 0.00000E+00
 -1      1765 3.89700E+00 4.48375E+01 0.00000E+00
 -1      1766 5.19600E+00 4.26250E+01 0.00000E+00
 -1      1767 3.89700E+00 3.45500E+01 0.00000E+00
 -1      1768 3.89700E+00 3.60000E+01 0.00000E+00
 -1      1769 3.89700E+00 3.16000E+01 0.00000E+00
 -1      1770 3.89700E+00 3.30750E+01 0.00000E+00
 -1      1771 5.19600E+00 3.38000E+01 0.00000E+00
 -1      1772 3.89700E+00 2.86500E+01 0.00000E+00
 -1      1773 3.89700E+00 3.01250E+01 0.00000E+00
 -1      1774 5.19600E+00 3.08500E+01 0.00000E+00
 -1      1775 3.89700E+00 2.57000E+01 0.00000E+00
 -1      1776 3.89700E+00 2.71750E+01 0.00000E+00
 -1      1777 5.19600E+00 2.79000E+01 0.00000E+00
 -1      1778 3.89700E+00 2.27500E+01 0.00000E+00
 -1      1779 3.89700E+00 2.42250E+01 0.00000E+00
 -1      1780 5.19600E+00 2.49500E+01 0.00000E+00
 -1      1781 3.89700E+00 1.98000E+01 0.00000E+00
 -1      1782 3.89700E+00 2.12750E+01 0.00000E+00
 -1      1783 5.19600E+00 2.20000E+01 0.00000E+00
 -1      1784 3.89700E+00 1.69000E+01 0.00000E+00
 -1      1785 3.89700E+00 1.83500E+01 0.00000E+00
 -1      1786 5.19600E+00 1.90750E+01 0.00000E+00
 -1      1787 3.89700E+00 1.39500E+01 0.00000E+00
 -1      1788 3.89700E+00 1.54250E+01 0.00000E+00
 -1      1789 5.19600E+00 1.61500E+01 0.00000E+00
 -1      1790 3.89700E+00 1.10000E+01 0.00000E+00
 -1      1791 3.89700E+00 1.24750E+01 0.00000E+00
 -1      1792 5.19600E+00 1.32000E+01 0.00000E+00
 -1      1793 3.89700E+00 8.05000E+00 0.00000E+00
 -1      1794 3.89700E+00 9.52500E+00 0.00000E+00
 -1      1795 5.19600E+00 1.02500E+01 0.00000E+00
 -1      1796 3.89700E+00 5.10000E+00 0.00000E+00
 -1      1797 3.89700E+00 6.57500E+00 0.00000E+00
 -1      1798 5.19600E+00 7.30000E+00 0.00000E+00
 -1      1799 4.20450E+00 3.09687E+00 0.00000E+00
 -1      1800 4.06650E+00 4.19063E+00 0.00000E+00
 -1      1801 5.36550E+00 4.91563E+00 0.00000E+00
 -1      1802 5.70450E+00 3.09687E+00 0.00000E+00
 -1      1803 3.62400E+00 4.64885E+01 0.00000E+00
 -1      1804 8.70450E+00 3.09687E+00 0.00000E+00
 -1      1805 7.20450E+00 3.09687E+00 0.00000E+00
 -1      1806 7.03500E+00 4.00625E+00 0.00000E+00
 -1      1807 4.92300E+00 4.57510E+01 0.00000E+00
 -1      1808 8.40000E+00 4.61030E+01 0.00000E+00
 -1      1809 9.90000E+00 4.61030E+01 0.00000E+00
 -1      1810 1.14000E+01 4.61030E+01 0.00000E+00
 -1      1811 1.29000E+01 4.61030E+01 0.00000E+00
 -1      1812 1.06500E+01 4.48040E+01 0.00000E+00
 -1      1813 1.44000E+01 4.61030E+01 0.00000E+00
 -1      1814 1.59000E+01 4.61030E+01 0.00000E+00
 -1      1815 1.36500E+01 4.48040E+01 0.00000E+00
 -1      1816 1.74000E+01 4.61030E+01 0.00000E+00
 -1      1817 1.89000E+01 4.61030E+01 0.00000E+00
 -1      1818 1.66500E+01 4.48040E+01 0.00000E+00
 -1      1819 2.04000E+01 4.61030E+01 0.00000E+00
 -1      1820 2.19000E+01 4.61030E+01 0.00000E+00
 -1      1821 1.96500E+01 4.48040E+01 0.00000E+00
 -1      1822 2.34000E+01 4.61030E+01 0.00000E+00
 -1      1823 2.49000E+01 4.61030E+01 0.00000E+00
 -1      1824 2.26500E+01 4.48040E+01 0.00000E+00
 -1      1825 2.64000E+01 4.61030E+01 0.00000E+00
 -1      1826 2.79000E+01 4.61030E+01 0.00000E+00
 -1      1827 2.56500E+01 4.48040E+01 0.00000E+00
 -1      1828 2.94000E+01 4.61030E+01 0.00000E+00
 -1      1829 3.09000E+01 4.61030E+01 0.00000E+00
 -1      1830 2.86500E+01 4.48040E+01 0.00000E+00
 -1      1831 3.24000E+01 4.61030E+01 0.00000E+00
 -1      1832 3.39000E+01 4.61030E+01 0.00000E+00
 -1      1833 3.16500E+01 4.48040E+01 0.00000E+00
 -1      1834 3.54000E+01 4.61030E+01 0.00000E+00
 -1      1835 3.69000E+01 4.61030E+01 0.00000E+00
 -1      1836 3.46500E+01 4.48040E+01 0.00000E+00
 -1      1837 3.84000E+01 4.61030E+01 0.00000E+00
 -1      1838 3.99000E+01 4.61030E+01 0.00000E+00
 -1      1839 3.76500E+01 4.48040E+01 0.00000E+00
 -1      1840 4.14000E+01 4.61030E+01 0.00000E+00
 -1      1841 4.29000E+01 4.61030E+01 0.00000E+00
 -1      1842 4.06500E+01 4.48040E+01 0.00000E+00
 -1      1843 4.44000E+01 4.61030E+01 0.00000E+00
 -1      1844 4.59000E+01 4.61030E+01 0.00000E+00
 -1      1845 4.36500E+01 4.48040E+01 0.00000E+00
 -1      1846 4.74000E+01 4.61030E+01 0.00000E+00
 -1      1847 4.89000E+01 4.61030E+01 0.00000E+00
 -1      1848 4.66500E+01 4.48040E+01 0.00000E+00
 -1      1849 5.04000E+01 4.61030E+01 0.00000E+00
 -1      1850 5.19000E+01 4.61030E+01 0.00000E+00
 -1      1851 4.96500E+01 4.48040E+01 0.00000E+00
 -1      1852 5.34000E+01 4.61030E+01 0.00000E+00
 -1      1853 5.49000E+01 4.61030E+01 0.00000E+00
 -1      1854 5.26500E+01 4.48040E+01 0.00000E+00
 -1      1855 5.64000E+01 4.61030E+01 0.00000E+00
 -1      1856 5.79000E+01 4.61030E+01 0.00000E+00
 -1      1857 5.56500E+01 4.48040E+01 0.00000E+00
 -1      1858 5.94000E+01 4.61030E+01 0.00000E+00
 -1      1859 6.09000E+01 4.61030E+01 0.00000E+00
 -1      1860 5.86500E+01 4.48040E+01 0.00000E+00
 -1      1861 6.24000E+01 4.61030E+01 0.00000E+00
 -1      1862 6.39000E+01 4.61030E+01 0.00000E+00
 -1      1863 6.16500E+01 4.48040E+01 0.00000E+00
 -1      1864 6.54000E+01 4.61030E+01 0.00000E+00
 -1      1865 6.69000E+01 4.61030E+01 0.00000E+00
 -1      1866 6.46500E+01 4.48040E+01 0.00000E+00
 -1      1867 6.84000E+01 4.61030E+01 0.00000E+00
 -1      1868 6.99000E+01 4.61030E+01 0.00000E+00
 -1      1869 6.76500E+01 4.48040E+01 0.00000E+00
 -1      1870 7.14000E+01 4.61030E+01 0.00000E+00
 -1      1871 7.29000E+01 4.61030E+01 0.00000E+00
 -1      1872 7.06500E+01 4.48040E+01 0.00000E+00
 -1      1873 7.44000E+01 4.61030E+01 0.00000E+00
 -1      1874 7.59000E+01 4.61030E+01 0.00000E+00
 -1      1875 7.36500E+01 4.48040E+01 0.00000E+00
 -1      1876 7.74000E+01 4.61030E+01 0.00000E+00
 -1      1877 7.89000E+01 4.61030E+01 0.00000E+00
 -1      1878 7.66500E+01 4.48040E+01 0.00000E+00
 -1      1879 8.04000E+01 4.61030E+01 0.00000E+00
 -1      1880 8.19000E+01 4.61030E+01 0.00000E+00
 -1      1881 7.96500E+01 4.48040E+01 0.00000E+00
 -1      1882 8.34000E+01 4.61030E+01 0.00000E+00
 -1      1883 8.49000E+01 4.61030E+01 0.00000E+00
 -1      1884 8.26500E+01 4.48040E+01 0.00000E+00
 -1      1885 8.64000E+01 4.61030E+01 0.00000E+00
 -1      1886 8.79000E+01 4.61030E+01 0.00000E+00
 -1      1887 8.56500E+01 4.48040E+01 0.00000E+00
 -1      1888 8.94000E+01 4.61030E+01 0.00000E+00
 -1      1889 9.09000E+01 4.61030E+01 0.00000E+00
 -1      1890 8.86500E+01 4.48040E+01 0.00000E+00
 -1      1891 9.24000E+01 4.61030E+01 0.00000E+00
 -1      1892 9.39000E+01 4.61030E+01 0.00000E+00
 -1      1893 9.16500E+01 4.48040E+01 0.00000E+00
 -1      1894 9.54000E+01 4.61030E+01 0.00000E+00
 -1      1895 9.69000E+01 4.61030E+01 0.00000E+00
 -1      1896 9.46500E+01 4.48040E+01 0.00000E+00
 -1      1897 9.84000E+01 4.61030E+01 0.00000E+00
 -1      1898 9.99000E+01 4.61030E+01 0.00000E+00
 -1      1899 9.76500E+01 4.48040E+01 0.00000E+00
 -1      1900 1.01400E+02 4.61030E+01 0.00000E+00
 -1      1901 1.02900E+02 4.61030E+01 0.00000E+00
 -1      1902 1.00650E+02 4.48040E+01 0.00000E+00
 -1      1903 1.04400E+02 4.61030E+01 0.00000E+00
 -1      1904 1.05900E+02 4.61030E+01 0.00000E+00
 -1      1905 1.03650E+02 4.48040E+01 0.00000E+00
 -1      1906 1.07400E+02 4.61030E+01 0.00000E+00
 -1      1907 1.08900E+02 4.61030E+01 0.00000E+00
 -1      1908 1.06650E+02 4.48040E+01 0.00000E+00
 -1      1909 1.10400E+02 4.61030E+01 0.00000E+00
 -1      1910 1.11900E+02 4.61030E+01 0.00000E+00
 -1      1911 1.09650E+02 4.48040E+01 0.00000E+00
 -1      1912 1.13400E+02 4.61030E+01 0.00000E+00
 -1      1913 1.14900E+02 4.61030E+01 0.00000E+00
 -1      1914 1.12650E+02 4.48040E+01 0.00000E+00
 -1      1915 1.16400E+02 4.61030E+01 0.00000E+00
 -1      1916 1.17900E+02 4.61030E+01 0.00000E+00
 -1      1917 1.15650E+02 4.48040E+01 0.00000E+00
 -1      1918 1.19400E+02 4.61030E+01 0.00000E+00
 -1      1919 1.20900E+02 4.61030E+01 0.00000E+00
 -1      1920 1.18650E+02 4.48040E+01 0.00000E+00
 -1      1921 1.22400E+02 4.61030E+01 0.00000E+00
 -1      1922 1.23900E+02 4.61030E+01 0.00000E+00
 -1      1923 1.21650E+02 4.48040E+01 0.00000E+00
 -1      1924 1.25400E+02 4.61030E+01 0.00000E+00
 -1      1925 1.26900E+02 4.61030E+01 0.00000E+00
 -1      1926 1.24650E+02 4.48040E+01 0.00000E+00
 -1      1927 1.28400E+02 4.61030E+01 0.00000E+00
 -1      1928 1.29900E+02 4.61030E+01 0.00000E+00
 -1      1929 1.27650E+02 4.48040E+01 0.00000E+00
 -1      1930 1.31400E+02 4.61030E+01 0.00000E+00
 -1      1931 1.32900E+02 4.61030E+01 0.00000E+00
 -1      1932 1.30650E+02 4.48040E+01 0.00000E+00
 -1      1933 1.34400E+02 4.61030E+01 0.00000E+00
 -1      1934 1.35900E+02 4.61030E+01 0.00000E+00
 -1      1935 1.33650E+02 4.48040E+01 0.00000E+00
 -1      1936 1.37400E+02 4.61030E+01 0.00000E+00
 -1      1937 1.38900E+02 4.61030E+01 0.00000E+00
 -1      1938 1.36650E+02 4.48040E+01 0.00000E+00
 -1      1939 1.40400E+02 4.61030E+01 0.00000E+00
 -1      1940 1.41900E+02 4.61030E+01 0.00000E+00
 -1      1941 1.39650E+02 4.48040E+01 0.00000E+00
 -1      1942 1.43244E+02 4.61616E+01 0.00000E+00
 -1      1943 1.44744E+02 4.61616E+01 0.00000E+00
 -1      1944 1.45182E+02 4.49799E+01 0.00000E+00
 -1      1945 1.42494E+02 4.48626E+01 0.00000E+00
 -1      1946 1.17045E+01 3.09687E+00 0.00000E+00
 -1      1947 1.02045E+01 3.09687E+00 0.00000E+00
 -1      1948 1.00350E+01 4.00625E+00 0.00000E+00
 -1      1949 1.47045E+01 3.09687E+00 0.00000E+00
 -1      1950 1.32045E+01 3.09687E+00 0.00000E+00
 -1      1951 1.30350E+01 4.00625E+00 0.00000E+00
 -1      1952 1.77045E+01 3.09687E+00 0.00000E+00
 -1      1953 1.62045E+01 3.09687E+00 0.00000E+00
 -1      1954 1.60350E+01 4.00625E+00 0.00000E+00
 -1      1955 2.07045E+01 3.09687E+00 0.00000E+00
 -1      1956 1.92045E+01 3.09687E+00 0.00000E+00
 -1      1957 1.90350E+01 4.00625E+00 0.00000E+00
 -1      1958 2.37045E+01 3.09687E+00 0.00000E+00
 -1      1959 2.22045E+01 3.09687E+00 0.00000E+00
 -1      1960 2.20350E+01 4.00625E+00 0.00000E+00
 -1      1961 2.67045E+01 3.09687E+00 0.00000E+00
 -1      1962 2.52045E+01 3.09687E+00 0.00000E+00
 -1      1963 2.50350E+01 4.00625E+00 0.00000E+00
 -1      1964 2.97045E+01 3.09687E+00 0.00000E+00
 -1      1965 2.82045E+01 3.09687E+00 0.00000E+00
 -1      1966 2.80350E+01 4.00625E+00 0.00000E+00
 -1      1967 3.27045E+01 3.09687E+00 0.00000E+00
 -1      1968 3.12045E+01 3.09687E+00 0.00000E+00
 -1      1969 3.10350E+01 4.00625E+00 0.00000E+00
 -1      1970 3.57045E+01 3.09687E+00 0.00000E+00
 -1      1971 3.42045E+01 3.09687E+00 0.00000E+00
 -1      1972 3.40350E+01 4.00625E+00 0.00000E+00
 -1      1973 3.87045E+01 3.09687E+00 0.00000E+00
 -1      1974 3.72045E+01 3.09687E+00 0.00000E+00
 -1      1975 3.70350E+01 4.00625E+00 0.00000E+00
 -1      1976 4.17045E+01 3.09687E+00 0.00000E+00
 -1      1977 4.02045E+01 3.09687E+00 0.00000E+00
 -1      1978 4.00350E+01 4.00625E+00 0.00000E+00
 -1      1979 4.47045E+01 3.09687E+00 0.00000E+00
 -1      1980 4.32045E+01 3.09687E+00 0.00000E+00
 -1      1981 4.30350E+01 4.00625E+00 0.00000E+00
 -1      1982 4.77045E+01 3.09687E+00 0.00000E+00
 -1      1983 4.62045E+01 3.09687E+00 0.00000E+00
 -1      1984 4.60350E+01 4.00625E+00 0.00000E+00
 -1      1985 5.07045E+01 3.09687E+00 0.00000E+00
 -1      1986 4.92045E+01 3.09687E+00 0.00000E+00
 -1      1987 4.90350E+01 4.00625E+00 0.00000E+00
 -1      1988 5.37045E+01 3.09687E+00 0.00000E+00
 -1      1989 5.22045E+01 3.09687E+00 0.00000E+00
 -1      1990 5.20350E+01 4.00625E+00 0.00000E+00
 -1      1991 5.67045E+01 3.09687E+00 0.00000E+00
 -1      1992 5.52045E+01 3.09687E+00 0.00000E+00
 -1      1993 5.50350E+01 4.00625E+00 0.00000E+00
 -1      1994 5.97045E+01 3.09687E+00 0.00000E+00
 -1      1995 5.82045E+01 3.09687E+00 0.00000E+00
 -1      1996 5.80350E+01 4.00625E+00 0.00000E+00
 -1      1997 6.27045E+01 3.09687E+00 0.00000E+00
 -1      1998 6.12045E+01 3.09687E+00 0.00000E+00
 -1      1999 6.10350E+01 4.00625E+00 0.00000E+00
 -1      2000 6.57045E+01 3.09687E+00 0.00000E+00
 -1      2001 6.42045E+01 3.09687E+00 0.00000E+00
 -1      2002 6.40350E+01 4.00625E+00 0.00000E+00
 -1      2003 6.87045E+01 3.09687E+00 0.00000E+00
 -1      2004 6.72045E+01 3.09687E+00 0.00000E+00
 -1      2005 6.70350E+01 4.00625E+00 0.00000E+00
 -1      2006 7.17045E+01 3.09687E+00 0.00000E+00
 -1      2007 7.02045E+01 3.09687E+00 0.00000E+00
 -1      2008 7.00350E+01 4.00625E+00 0.00000E+00
 -1      2009 7.47045E+01 3.09687E+00 0.00000E+00
 -1      2010 7.32045E+01 3.09687E+00 0.00000E+00
 -1      2011 7.30350E+01 4.00625E+00 0.00000E+00
 -1      2012 7.77045E+01 3.09687E+00 0.00000E+00
 -1      2013 7.62045E+01 3.09687E+00 0.00000E+00
 -1      2014 7.60350E+01 4.00625E+00 0.00000E+00
 -1      2015 8.07045E+01 3.09687E+00 0.00000E+00
 -1      2016 7.92045E+01 3.09687E+00 0.00000E+00
 -1      2017 7.90350E+01 4.00625E+00 0.00000E+00
 -1      2018 8.37045E+01 3.09687E+00 0.00000E+00
 -1      2019 8.22045E+01 3.09687E+00 0.00000E+00
 -1      2020 8.20350E+01 4.00625E+00 0.00000E+00
 -1      2021 8.67045E+01 3.09687E+00 0.00000E+00
 -1      2022 8.52045E+01 3.09687E+00 0.00000E+00
 -1      2023 8.50350E+01 4.00625E+00 0.00000E+00
 -1      2024 8.97045E+01 3.09687E+00 0.00000E+00
 -1      2025 8.82045E+01 3.09687E+00 0.00000E+00
 -1      2026 8.80350E+01 4.00625E+00 0.00000E+00
 -1      2027 9.27045E+01 3.09687E+00 0.00000E+00
 -1      2028 9.12045E+01 3.09687E+00 0.00000E+00
 -1      2029 9.10350E+01 4.00625E+00 0.00000E+00
 -1      2030 9.57045E+01 3.09687E+00 0.00000E+00
 -1      2031 9.42045E+01 3.09687E+00 0.00000E+00
 -1      2032 9.40350E+01 4.00625E+00 0.00000E+00
 -1      2033 9.87045E+01 3.09687E+00 0.00000E+00
 -1      2034 9.72045E+01 3.09687E+00 0.00000E+00
 -1      2035 9.70350E+01 4.00625E+00 0.00000E+00
 -1      2036 1.01704E+02 3.09687E+00 0.00000E+00
 -1      2037 1.00204E+02 3.09687E+00 0.00000E+00
 -1      2038 1.00035E+02 4.00625E+00 0.00000E+00
 -1      2039 1.04704E+02 3.09687E+00 0.00000E+00
 -1      2040 1.03204E+02 3.09687E+00 0.00000E+00
 -1      2041 1.03035E+02 4.00625E+00 0.00000E+00
 -1      2042 1.07704E+02 3.09687E+00 0.00000E+00
 -1      2043 1.06204E+02 3.09687E+00 0.00000E+00
 -1      2044 1.06035E+02 4.00625E+00 0.00000E+00
 -1      2045 1.10704E+02 3.09687E+00 0.00000E+00
 -1      2046 1.09204E+02 3.09687E+00 0.00000E+00
 -1      2047 1.09035E+02 4.00625E+00 0.00000E+00
 -1      2048 1.13704E+02 3.09687E+00 0.00000E+00
 -1      2049 1.12204E+02 3.09687E+00 0.00000E+00
 -1      2050 1.12035E+02 4.00625E+00 0.00000E+00
 -1      2051 1.16704E+02 3.09687E+00 0.00000E+00
 -1      2052 1.15204E+02 3.09687E+00 0.00000E+00
 -1      2053 1.15035E+02 4.00625E+00 0.00000E+00
 -1      2054 1.19704E+02 3.09687E+00 0.00000E+00
 -1      2055 1.18204E+02 3.09687E+00 0.00000E+00
 -1      2056 1.18035E+02 4.00625E+00 0.00000E+00
 -1      2057 1.22704E+02 3.09687E+00 0.00000E+00
 -1      2058 1.21204E+02 3.09687E+00 0.00000E+00
 -1      2059 1.21035E+02 4.00625E+00 0.00000E+00
 -1      2060 1.25704E+02 3.09687E+00 0.00000E+00
 -1      2061 1.24204E+02 3.09687E+00 0.00000E+00
 -1      2062 1.24035E+02 4.00625E+00 0.00000E+00
 -1      2063 1.28704E+02 3.09687E+00 0.00000E+00
 -1      2064 1.27204E+02 3.09687E+00 0.00000E+00
 -1      2065 1.27035E+02 4.00625E+00 0.00000E+00
 -1      2066 1.31704E+02 3.09687E+00 0.00000E+00
 -1      2067 1.30204E+02 3.09687E+00 0.00000E+00
 -1      2068 1.30035E+02 4.00625E+00 0.00000E+00
 -1      2069 1.34704E+02 3.09687E+00 0.00000E+00
 -1      2070 1.33204E+02 3.09687E+00 0.00000E+00
 -1      2071 1.33035E+02 4.00625E+00 0.00000E+00
 -1      2072 1.37704E+02 3.09687E+00 0.00000E+00
 -1      2073 1.36204E+02 3.09687E+00 0.00000E+00
 -1      2074 1.36035E+02 4.00625E+00 0.00000E+00
 -1      2075 1.40704E+02 3.09687E+00 0.00000E+00
 -1      2076 1.39204E+02 3.09687E+00 0.00000E+00
 -1      2077 1.39035E+02 4.00625E+00 0.00000E+00
 -1      2078 1.43704E+02 3.09687E+00 0.00000E+00
 -1      2079 1.42204E+02 3.09687E+00 0.00000E+00
 -1      2080 1.42035E+02 4.00625E+00 0.00000E+00
 -1      2081 1.46171E+02 3.20156E+00 0.00000E+00
 -1      2082 1.44671E+02 3.20156E+00 0.00000E+00
 -1      2083 1.44502E+02 4.11094E+00 0.00000E+00
 -1      2084 1.46435E+02 4.32031E+00 0.00000E+00
 -1      2085 1.46103E+02 1.25375E+01 0.00000E+00
 -1      2086 1.46103E+02 1.10625E+01 0.00000E+00
 -1      2087 1.46103E+02 9.58750E+00 0.00000E+00
 -1      2088 1.46103E+02 8.11250E+00 0.00000E+00
 -1      2089 1.44804E+02 1.03250E+01 0.00000E+00
 -1      2090 1.46269E+02 6.95391E+00 0.00000E+00
 -1      2091 1.46269E+02 5.47891E+00 0.00000E+00
 -1      2092 1.45302E+02 5.37422E+00 0.00000E+00
 -1      2093 1.44970E+02 7.69141E+00 0.00000E+00
 -1      2094 1.46103E+02 1.54875E+01 0.00000E+00
 -1      2095 1.46103E+02 1.40125E+01 0.00000E+00
 -1      2096 1.44804E+02 1.32750E+01 0.00000E+00
 -1      2097 1.46103E+02 1.84375E+01 0.00000E+00
 -1      2098 1.46103E+02 1.69625E+01 0.00000E+00
 -1      2099 1.44804E+02 1.62250E+01 0.00000E+00
 -1      2100 1.46103E+02 2.13375E+01 0.00000E+00
 -1      2101 1.46103E+02 1.98875E+01 0.00000E+00
 -1      2102 1.44804E+02 1.91500E+01 0.00000E+00
 -1      2103 1.46103E+02 2.42875E+01 0.00000E+00
 -1      2104 1.46103E+02 2.28125E+01 0.00000E+00
 -1      2105 1.44804E+02 2.20750E+01 0.00000E+00
 -1      2106 1.46103E+02 2.71875E+01 0.00000E+00
 -1      2107 1.46103E+02 2.57375E+01 0.00000E+00
 -1      2108 1.44804E+02 2.50000E+01 0.00000E+00
 -1      2109 1.46103E+02 3.01375E+01 0.00000E+00
 -1      2110 1.46103E+02 2.86625E+01 0.00000E+00
 -1      2111 1.44804E+02 2.79250E+01 0.00000E+00
 -1      2112 1.46103E+02 3.30875E+01 0.00000E+00
 -1      2113 1.46103E+02 3.16125E+01 0.00000E+00
 -1      2114 1.44804E+02 3.08750E+01 0.00000E+00
 -1      2115 1.46103E+02 3.60375E+01 0.00000E+00
 -1      2116 1.46103E+02 3.45625E+01 0.00000E+00
 -1      2117 1.44804E+02 3.38250E+01 0.00000E+00
 -1      2118 1.46103E+02 3.89875E+01 0.00000E+00
 -1      2119 1.46103E+02 3.75125E+01 0.00000E+00
 -1      2120 1.44804E+02 3.67750E+01 0.00000E+00
 -1      2121 1.46103E+02 4.19375E+01 0.00000E+00
 -1      2122 1.46103E+02 4.04625E+01 0.00000E+00
 -1      2123 1.44804E+02 3.97250E+01 0.00000E+00
 -1      2124 1.35803E+02 1.74344E+01 0.00000E+00
 -1      2125 1.36258E+02 1.82187E+01 0.00000E+00
 -1      2126 1.36744E+02 2.11979E+01 0.00000E+00
 -1      2127 1.36711E+02 2.20354E+01 0.00000E+00
 -1      2128 1.36795E+02 1.92995E+01 0.00000E+00
 -1      2129 1.36907E+02 2.01981E+01 0.00000E+00
 -1      2130 1.34742E+02 1.58923E+01 0.00000E+00
 -1      2131 1.35297E+02 1.65598E+01 0.00000E+00
 -1      2132 1.33320E+02 1.47236E+01 0.00000E+00
 -1      2133 1.33969E+02 1.52826E+01 0.00000E+00
 -1      2134 3.89700E+00 3.74688E+01 0.00000E+00
 -1      2135 3.89700E+00 3.89437E+01 0.00000E+00
 -1      2136 5.19600E+00 3.96813E+01 0.00000E+00
 -1      2137 5.19600E+00 3.67438E+01 0.00000E+00
 -1      2138 1.30005E+02 1.29269E+01 0.00000E+00
 -1      2139 1.30863E+02 1.32195E+01 0.00000E+00
 -1      2140 1.28006E+02 1.27331E+01 0.00000E+00
 -1      2141 1.28893E+02 1.27124E+01 0.00000E+00
 -1      2142 1.26252E+02 1.29155E+01 0.00000E+00
 -1      2143 1.27129E+02 1.28243E+01 0.00000E+00
 -1      2144 1.27555E+02 1.20823E+01 0.00000E+00
 -1      2145 1.24276E+02 1.33689E+01 0.00000E+00
 -1      2146 1.25207E+02 1.31416E+01 0.00000E+00
 -1      2147 1.22428E+02 1.45188E+01 0.00000E+00
 -1      2148 1.23094E+02 1.38764E+01 0.00000E+00
 -1      2149 1.21263E+02 1.57267E+01 0.00000E+00
 -1      2150 1.21845E+02 1.51227E+01 0.00000E+00
 -1      2151 1.21641E+02 1.42447E+01 0.00000E+00
 -1      2152 1.20005E+02 1.71639E+01 0.00000E+00
 -1      2153 1.20581E+02 1.64634E+01 0.00000E+00
 -1      2154 1.19277E+02 1.92002E+01 0.00000E+00
 -1      2155 1.19463E+02 1.82991E+01 0.00000E+00
 -1      2156 1.19058E+02 2.10045E+01 0.00000E+00
 -1      2157 1.19162E+02 2.01480E+01 0.00000E+00
 -1      2158 1.19105E+02 2.28728E+01 0.00000E+00
 -1      2159 1.19064E+02 2.19927E+01 0.00000E+00
 -1      2160 1.19458E+02 2.48014E+01 0.00000E+00
 -1      2161 1.19159E+02 2.39844E+01 0.00000E+00
 -1      2162 1.20067E+02 2.65226E+01 0.00000E+00
 -1      2163 1.19763E+02 2.56620E+01 0.00000E+00
 -1      2164 1.18808E+02 2.55486E+01 0.00000E+00
 -1      2165 1.21649E+02 2.80420E+01 0.00000E+00
 -1      2166 1.20933E+02 2.74914E+01 0.00000E+00
 -1      2167 1.22958E+02 2.90003E+01 0.00000E+00
 -1      2168 1.22303E+02 2.85211E+01 0.00000E+00
 -1      2169 1.21499E+02 2.88258E+01 0.00000E+00
 -1      2170 1.24532E+02 2.99032E+01 0.00000E+00
 -1      2171 1.23803E+02 2.95665E+01 0.00000E+00
 -1      2172 1.26149E+02 3.04492E+01 0.00000E+00
 -1      2173 1.25341E+02 3.01762E+01 0.00000E+00
 -1      2174 1.24652E+02 3.07104E+01 0.00000E+00
 -1      2175 1.28157E+02 3.06427E+01 0.00000E+00
 -1      2176 1.27315E+02 3.07001E+01 0.00000E+00
 -1      2177 1.29824E+02 3.02274E+01 0.00000E+00
 -1      2178 1.29032E+02 3.03680E+01 0.00000E+00
 -1      2179 1.31501E+02 2.97631E+01 0.00000E+00
 -1      2180 1.30748E+02 3.00552E+01 0.00000E+00
 -1      2181 1.33016E+02 2.89063E+01 0.00000E+00
 -1      2182 1.32343E+02 2.93364E+01 0.00000E+00
 -1      2183 1.34278E+02 2.77063E+01 0.00000E+00
 -1      2184 1.33698E+02 2.82635E+01 0.00000E+00
 -1      2185 1.35434E+02 2.63403E+01 0.00000E+00
 -1      2186 1.34960E+02 2.70298E+01 0.00000E+00
 -1      2187 1.36208E+02 2.47068E+01 0.00000E+00
 -1      2188 1.35837E+02 2.54772E+01 0.00000E+00
 -1      2189 1.36795E+02 2.29510E+01 0.00000E+00
 -1      2190 1.36676E+02 2.37566E+01 0.00000E+00
 -1      2191 1.31849E+02 1.35873E+01 0.00000E+00
 -1      2192 1.32600E+02 1.40453E+01 0.00000E+00
 -1      2193 1.34841E+02 1.51219E+01 0.00000E+00
 -1      2194 6.42300E+00 4.57510E+01 0.00000E+00
 -1      2195 1.33347E+02 1.38339E+01 0.00000E+00
 -1      2196 1.31642E+02 1.27879E+01 0.00000E+00
 -1      2197 7.17300E+00 4.44520E+01 0.00000E+00
 -1      2198 1.37165E+02 1.85615E+01 0.00000E+00
 -1      2199 1.37539E+02 2.06420E+01 0.00000E+00
 -1      2200 1.45665E+02 4.31193E+01 0.00000E+00
 -1      2201 1.36121E+02 1.66061E+01 0.00000E+00
 -1      2202 1.37459E+02 2.25574E+01 0.00000E+00
 -1      2203 1.37074E+02 2.44231E+01 0.00000E+00
 -1      2204 1.36203E+02 2.62364E+01 0.00000E+00
 -1      2205 1.35118E+02 2.77760E+01 0.00000E+00
 -1      2206 1.33755E+02 2.90953E+01 0.00000E+00
 -1      2207 1.32231E+02 3.01648E+01 0.00000E+00
 -1      2208 1.30465E+02 3.07637E+01 0.00000E+00
 -1      2209 1.26626E+02 3.12343E+01 0.00000E+00
 -1      2210 1.22999E+02 2.98712E+01 0.00000E+00
 -1      2211 1.19978E+02 2.73779E+01 0.00000E+00
 -1      2212 1.19023E+02 2.72645E+01 0.00000E+00
 -1      2213 1.19890E+02 2.82333E+01 0.00000E+00
 -1      2214 1.18449E+02 2.35763E+01 0.00000E+00
 -1      2215 1.18390E+02 2.14764E+01 0.00000E+00
 -1      2216 1.18498E+02 1.95404E+01 0.00000E+00
 -1      2217 1.20377E+02 1.55853E+01 0.00000E+00
 -1      2218 1.25633E+02 1.23996E+01 0.00000E+00
 -1      2219 1.29544E+02 1.22056E+01 0.00000E+00
 -1      2220 1.23405E+02 1.31332E+01 0.00000E+00
 -1      2221 1.23717E+02 1.23899E+01 0.00000E+00
 -1      2222 1.22535E+02 1.28975E+01 0.00000E+00
 -1      2223 1.19154E+02 1.74573E+01 0.00000E+00
 -1      2224 1.28666E+02 3.12105E+01 0.00000E+00
 -1      2225 1.07850E+01 5.30525E+00 0.00000E+00
 -1      2226 9.28500E+00 5.30525E+00 0.00000E+00
 -1      2227 6.49500E+00 3.01125E+01 0.00000E+00
 -1      2228 6.49500E+00 3.15875E+01 0.00000E+00
 -1      2229 6.49500E+00 3.30625E+01 0.00000E+00
 -1      2230 6.49500E+00 3.45375E+01 0.00000E+00
 -1      2231 7.79400E+00 3.23250E+01 0.00000E+00
 -1      2232 6.49500E+00 2.42125E+01 0.00000E+00
 -1      2233 6.49500E+00 2.56875E+01 0.00000E+00
 -1      2234 6.49500E+00 2.12625E+01 0.00000E+00
 -1      2235 6.49500E+00 2.27375E+01 0.00000E+00
 -1      2236 7.79400E+00 2.34750E+01 0.00000E+00
 -1      2237 6.49500E+00 1.83625E+01 0.00000E+00
 -1      2238 6.49500E+00 1.98125E+01 0.00000E+00
 -1      2239 7.79400E+00 2.05500E+01 0.00000E+00
 -1      2240 6.49500E+00 1.54125E+01 0.00000E+00
 -1      2241 6.49500E+00 1.68875E+01 0.00000E+00
 -1      2242 7.79400E+00 1.76250E+01 0.00000E+00
 -1      2243 6.49500E+00 1.24625E+01 0.00000E+00
 -1      2244 6.49500E+00 1.39375E+01 0.00000E+00
 -1      2245 7.79400E+00 1.46750E+01 0.00000E+00
 -1      2246 6.49500E+00 9.51250E+00 0.00000E+00
 -1      2247 6.49500E+00 1.09875E+01 0.00000E+00
 -1      2248 7.79400E+00 1.17250E+01 0.00000E+00
 -1      2249 1.37850E+01 5.30525E+00 0.00000E+00
 -1      2250 1.22850E+01 5.30525E+00 0.00000E+00
 -1      2251 1.15350E+01 6.60425E+00 0.00000E+00
 -1      2252 9.90000E+00 4.35050E+01 0.00000E+00
 -1      2253 1.14000E+01 4.35050E+01 0.00000E+00
 -1      2254 1.33489E+02 1.29620E+01 0.00000E+00
 -1      2255 1.34209E+02 1.36403E+01 0.00000E+00
 -1      2256 1.29000E+01 4.35050E+01 0.00000E+00
 -1      2257 1.44000E+01 4.35050E+01 0.00000E+00
 -1      2258 1.21500E+01 4.22060E+01 0.00000E+00
 -1      2259 1.59000E+01 4.35050E+01 0.00000E+00
 -1      2260 1.74000E+01 4.35050E+01 0.00000E+00
 -1      2261 1.51500E+01 4.22060E+01 0.00000E+00
 -1      2262 1.89000E+01 4.35050E+01 0.00000E+00
 -1      2263 2.04000E+01 4.35050E+01 0.00000E+00
 -1      2264 1.81500E+01 4.22060E+01 0.00000E+00
 -1      2265 2.19000E+01 4.35050E+01 0.00000E+00
 -1      2266 2.34000E+01 4.35050E+01 0.00000E+00
 -1      2267 2.11500E+01 4.22060E+01 0.00000E+00
 -1      2268 2.49000E+01 4.35050E+01 0.00000E+00
 -1      2269 2.64000E+01 4.35050E+01 0.00000E+00
 -1      2270 2.41500E+01 4.22060E+01 0.00000E+00
 -1      2271 2.79000E+01 4.35050E+01 0.00000E+00
 -1      2272 2.94000E+01 4.35050E+01 0.00000E+00
 -1      2273 2.71500E+01 4.22060E+01 0.00000E+00
 -1      2274 3.09000E+01 4.35050E+01 0.00000E+00
 -1      2275 3.24000E+01 4.35050E+01 0.00000E+00
 -1      2276 3.01500E+01 4.22060E+01 0.00000E+00
 -1      2277 3.39000E+01 4.35050E+01 0.00000E+00
 -1      2278 3.54000E+01 4.35050E+01 0.00000E+00
 -1      2279 3.31500E+01 4.22060E+01 0.00000E+00
 -1      2280 3.69000E+01 4.35050E+01 0.00000E+00
 -1      2281 3.84000E+01 4.35050E+01 0.00000E+00
 -1      2282 3.61500E+01 4.22060E+01 0.00000E+00
 -1      2283 3.99000E+01 4.35050E+01 0.00000E+00
 -1      2284 4.14000E+01 4.35050E+01 0.00000E+00
 -1      2285 3.91500E+01 4.22060E+01 0.00000E+00
 -1      2286 4.29000E+01 4.35050E+01 0.00000E+00
 -1      2287 4.44000E+01 4.35050E+01 0.00000E+00
 -1      2288 4.21500E+01 4.22060E+01 0.00000E+00
 -1      2289 4.59000E+01 4.35050E+01 0.00000E+00
 -1      2290 4.74000E+01 4.35050E+01 0.00000E+00
 -1      2291 4.51500E+01 4.22060E+01 0.00000E+00
 -1      2292 4.89000E+01 4.35050E+01 0.00000E+00
 -1      2293 5.04000E+01 4.35050E+01 0.00000E+00
 -1      2294 4.81500E+01 4.22060E+01 0.00000E+00
 -1      2295 5.19000E+01 4.35050E+01 0.00000E+00
 -1      2296 5.34000E+01 4.35050E+01 0.00000E+00
 -1      2297 5.11500E+01 4.22060E+01 0.00000E+00
 -1      2298 5.49000E+01 4.35050E+01 0.00000E+00
 -1      2299 5.64000E+01 4.35050E+01 0.00000E+00
 -1      2300 5.41500E+01 4.22060E+01 0.00000E+00
 -1      2301 5.79000E+01 4.35050E+01 0.00000E+00
 -1      2302 5.94000E+01 4.35050E+01 0.00000E+00
 -1      2303 5.71500E+01 4.22060E+01 0.00000E+00
 -1      2304 6.09000E+01 4.35050E+01 0.00000E+00
 -1      2305 6.24000E+01 4.35050E+01 0.00000E+00
 -1      2306 6.01500E+01 4.22060E+01 0.00000E+00
 -1      2307 6.39000E+01 4.35050E+01 0.00000E+00
 -1      2308 6.54000E+01 4.35050E+01 0.00000E+00
 -1      2309 6.31500E+01 4.22060E+01 0.00000E+00
 -1      2310 6.69000E+01 4.35050E+01 0.00000E+00
 -1      2311 6.84000E+01 4.35050E+01 0.00000E+00
 -1      2312 6.61500E+01 4.22060E+01 0.00000E+00
 -1      2313 6.99000E+01 4.35050E+01 0.00000E+00
 -1      2314 7.14000E+01 4.35050E+01 0.00000E+00
 -1      2315 6.91500E+01 4.22060E+01 0.00000E+00
 -1      2316 7.29000E+01 4.35050E+01 0.00000E+00
 -1      2317 7.44000E+01 4.35050E+01 0.00000E+00
 -1      2318 7.21500E+01 4.22060E+01 0.00000E+00
 -1      2319 7.59000E+01 4.35050E+01 0.00000E+00
 -1      2320 7.74000E+01 4.35050E+01 0.00000E+00
 -1      2321 7.51500E+01 4.22060E+01 0.00000E+00
 -1      2322 7.89000E+01 4.35050E+01 0.00000E+00
 -1      2323 8.04000E+01 4.35050E+01 0.00000E+00
 -1      2324 7.81500E+01 4.22060E+01 0.00000E+00
 -1      2325 8.19000E+01 4.35050E+01 0.00000E+00
 -1      2326 8.34000E+01 4.35050E+01 0.00000E+00
 -1      2327 8.11500E+01 4.22060E+01 0.00000E+00
 -1      2328 8.49000E+01 4.35050E+01 0.00000E+00
 -1      2329 8.64000E+01 4.35050E+01 0.00000E+00
 -1      2330 8.41500E+01 4.22060E+01 0.00000E+00
 -1      2331 8.79000E+01 4.35050E+01 0.00000E+00
 -1      2332 8.94000E+01 4.35050E+01 0.00000E+00
 -1      2333 8.71500E+01 4.22060E+01 0.00000E+00
 -1      2334 9.09000E+01 4.35050E+01 0.00000E+00
 -1      2335 9.24000E+01 4.35050E+01 0.00000E+00
 -1      2336 9.01500E+01 4.22060E+01 0.00000E+00
 -1      2337 9.39000E+01 4.35050E+01 0.00000E+00
 -1      2338 9.54000E+01 4.35050E+01 0.00000E+00
 -1      2339 9.31500E+01 4.22060E+01 0.00000E+00
 -1      2340 9.69000E+01 4.35050E+01 0.00000E+00
 -1      2341 9.84000E+01 4.35050E+01 0.00000E+00
 -1      2342 9.61500E+01 4.22060E+01 0.00000E+00
 -1      2343 9.99000E+01 4.35050E+01 0.00000E+00
 -1      2344 1.01400E+02 4.35050E+01 0.00000E+00
 -1      2345 9.91500E+01 4.22060E+01 0.00000E+00
 -1      2346 1.02900E+02 4.35050E+01 0.00000E+00
 -1      2347 1.04400E+02 4.35050E+01 0.00000E+00
 -1      2348 1.02150E+02 4.22060E+01 0.00000E+00
 -1      2349 1.05900E+02 4.35050E+01 0.00000E+00
 -1      2350 1.07400E+02 4.35050E+01 0.00000E+00
 -1      2351 1.05150E+02 4.22060E+01 0.00000E+00
 -1      2352 1.08900E+02 4.35050E+01 0.00000E+00
 -1      2353 1.10400E+02 4.35050E+01 0.00000E+00
 -1      2354 1.08150E+02 4.22060E+01 0.00000E+00
 -1      2355 1.11900E+02 4.35050E+01 0.00000E+00
 -1      2356 1.13400E+02 4.35050E+01 0.00000E+00
 -1      2357 1.11150E+02 4.22060E+01 0.00000E+00
 -1      2358 1.14900E+02 4.35050E+01 0.00000E+00
 -1      2359 1.16400E+02 4.35050E+01 0.00000E+00
 -1      2360 1.14150E+02 4.22060E+01 0.00000E+00
 -1      2361 1.17900E+02 4.35050E+01 0.00000E+00
 -1      2362 1.19400E+02 4.35050E+01 0.00000E+00
 -1      2363 1.17150E+02 4.22060E+01 0.00000E+00
 -1      2364 1.20900E+02 4.35050E+01 0.00000E+00
 -1      2365 1.22400E+02 4.35050E+01 0.00000E+00
 -1      2366 1.20150E+02 4.22060E+01 0.00000E+00
 -1      2367 1.23900E+02 4.35050E+01 0.00000E+00
 -1      2368 1.25400E+02 4.35050E+01 0.00000E+00
 -1      2369 1.23150E+02 4.22060E+01 0.00000E+00
 -1      2370 1.26900E+02 4.35050E+01 0.00000E+00
 -1      2371 1.28400E+02 4.35050E+01 0.00000E+00
 -1      2372 1.26150E+02 4.22060E+01 0.00000E+00
 -1      2373 1.29900E+02 4.35050E+01 0.00000E+00
 -1      2374 1.31400E+02 4.35050E+01 0.00000E+00
 -1      2375 1.29150E+02 4.22060E+01 0.00000E+00
 -1      2376 1.32900E+02 4.35050E+01 0.00000E+00
 -1      2377 1.34400E+02 4.35050E+01 0.00000E+00
 -1      2378 1.32150E+02 4.22060E+01 0.00000E+00
 -1      2379 1.35900E+02 4.35050E+01 0.00000E+00
 -1      2380 1.37400E+02 4.35050E+01 0.00000E+00
 -1      2381 1.35150E+02 4.22060E+01 0.00000E+00
 -1      2382 1.38900E+02 4.35050E+01 0.00000E+00
 -1      2383 1.40400E+02 4.35050E+01 0.00000E+00
 -1      2384 1.38150E+02 4.22060E+01 0.00000E+00
 -1      2385 1.97850E+01 5.30525E+00 0.00000E+00
 -1      2386 1.82850E+01 5.30525E+00 0.00000E+00
 -1      2387 2.27850E+01 5.30525E+00 0.00000E+00
 -1      2388 2.12850E+01 5.30525E+00 0.00000E+00
 -1      2389 2.05350E+01 6.60425E+00 0.00000E+00
 -1      2390 2.57850E+01 5.30525E+00 0.00000E+00
 -1      2391 2.42850E+01 5.30525E+00 0.00000E+00
 -1      2392 2.35350E+01 6.60425E+00 0.00000E+00
 -1      2393 2.87850E+01 5.30525E+00 0.00000E+00
 -1      2394 2.72850E+01 5.30525E+00 0.00000E+00
 -1      2395 2.65350E+01 6.60425E+00 0.00000E+00
 -1      2396 3.17850E+01 5.30525E+00 0.00000E+00
 -1      2397 3.02850E+01 5.30525E+00 0.00000E+00
 -1      2398 2.95350E+01 6.60425E+00 0.00000E+00
 -1      2399 3.47850E+01 5.30525E+00 0.00000E+00
 -1      2400 3.32850E+01 5.30525E+00 0.00000E+00
 -1      2401 3.25350E+01 6.60425E+00 0.00000E+00
 -1      2402 3.77850E+01 5.30525E+00 0.00000E+00
 -1      2403 3.62850E+01 5.30525E+00 0.00000E+00
 -1      2404 3.55350E+01 6.60425E+00 0.00000E+00
 -1      2405 4.07850E+01 5.30525E+00 0.00000E+00
 -1      2406 3.92850E+01 5.30525E+00 0.00000E+00
 -1      2407 3.85350E+01 6.60425E+00 0.00000E+00
 -1      2408 4.37850E+01 5.30525E+00 0.00000E+00
 -1      2409 4.22850E+01 5.30525E+00 0.00000E+00
 -1      2410 4.15350E+01 6.60425E+00 0.00000E+00
 -1      2411 4.67850E+01 5.30525E+00 0.00000E+00
 -1      2412 4.52850E+01 5.30525E+00 0.00000E+00
 -1      2413 4.45350E+01 6.60425E+00 0.00000E+00
 -1      2414 4.97850E+01 5.30525E+00 0.00000E+00
 -1      2415 4.82850E+01 5.30525E+00 0.00000E+00
 -1      2416 4.75350E+01 6.60425E+00 0.00000E+00
 -1      2417 5.27850E+01 5.30525E+00 0.00000E+00
 -1      2418 5.12850E+01 5.30525E+00 0.00000E+00
 -1      2419 5.05350E+01 6.60425E+00 0.00000E+00
 -1      2420 5.57850E+01 5.30525E+00 0.00000E+00
 -1      2421 5.42850E+01 5.30525E+00 0.00000E+00
 -1      2422 5.35350E+01 6.60425E+00 0.00000E+00
 -1      2423 5.87850E+01 5.30525E+00 0.00000E+00
 -1      2424 5.72850E+01 5.30525E+00 0.00000E+00
 -1      2425 5.65350E+01 6.60425E+00 0.00000E+00
 -1      2426 6.17850E+01 5.30525E+00 0.00000E+00
 -1      2427 6.02850E+01 5.30525E+00 0.00000E+00
 -1      2428 5.95350E+01 6.60425E+00 0.00000E+00
 -1      2429 6.47850E+01 5.30525E+00 0.00000E+00
 -1      2430 6.32850E+01 5.30525E+00 0.00000E+00
 -1      2431 6.25350E+01 6.60425E+00 0.00000E+00
 -1      2432 6.77850E+01 5.30525E+00 0.00000E+00
 -1      2433 6.62850E+01 5.30525E+00 0.00000E+00
 -1      2434 6.55350E+01 6.60425E+00 0.00000E+00
 -1      2435 7.07850E+01 5.30525E+00 0.00000E+00
 -1      2436 6.92850E+01 5.30525E+00 0.00000E+00
 -1      2437 6.85350E+01 6.60425E+00 0.00000E+00
 -1      2438 7.37850E+01 5.30525E+00 0.00000E+00
 -1      2439 7.22850E+01 5.30525E+00 0.00000E+00
 -1      2440 7.15350E+01 6.60425E+00 0.00000E+00
 -1      2441 7.67850E+01 5.30525E+00 0.00000E+00
 -1      2442 7.52850E+01 5.30525E+00 0.00000E+00
 -1      2443 7.45350E+01 6.60425E+00 0.00000E+00
 -1      2444 7.97850E+01 5.30525E+00 0.00000E+00
 -1      2445 7.82850E+01 5.30525E+00 0.00000E+00
 -1      2446 7.75350E+01 6.60425E+00 0.00000E+00
 -1      2447 8.27850E+01 5.30525E+00 0.00000E+00
 -1      2448 8.12850E+01 5.30525E+00 0.00000E+00
 -1      2449 8.05350E+01 6.60425E+00 0.00000E+00
 -1      2450 8.57850E+01 5.30525E+00 0.00000E+00
 -1      2451 8.42850E+01 5.30525E+00 0.00000E+00
 -1      2452 8.35350E+01 6.60425E+00 0.00000E+00
 -1      2453 8.87850E+01 5.30525E+00 0.00000E+00
 -1      2454 8.72850E+01 5.30525E+00 0.00000E+00
 -1      2455 8.65350E+01 6.60425E+00 0.00000E+00
 -1      2456 9.17850E+01 5.30525E+00 0.00000E+00
 -1      2457 9.02850E+01 5.30525E+00 0.00000E+00
 -1      2458 8.95350E+01 6.60425E+00 0.00000E+00
 -1      2459 9.47850E+01 5.30525E+00 0.00000E+00
 -1      2460 9.32850E+01 5.30525E+00 0.00000E+00
 -1      2461 9.25350E+01 6.60425E+00 0.00000E+00
 -1      2462 9.77850E+01 5.30525E+00 0.00000E+00
 -1      2463 9.62850E+01 5.30525E+00 0.00000E+00
 -1      2464 9.55350E+01 6.60425E+00 0.00000E+00
 -1      2465 1.00785E+02 5.30525E+00 0.00000E+00
 -1      2466 9.92850E+01 5.30525E+00 0.00000E+00
 -1      2467 9.85350E+01 6.60425E+00 0.00000E+00
 -1      2468 1.03785E+02 5.30525E+00 0.00000E+00
 -1      2469 1.02285E+02 5.30525E+00 0.00000E+00
 -1      2470 1.01535E+02 6.60425E+00 0.00000E+00
 -1      2471 1.06785E+02 5.30525E+00 0.00000E+00
 -1      2472 1.05285E+02 5.30525E+00 0.00000E+00
 -1      2473 1.04535E+02 6.60425E+00 0.00000E+00
 -1      2474 1.09785E+02 5.30525E+00 0.00000E+00
 -1      2475 1.08285E+02 5.30525E+00 0.00000E+00
 -1      2476 1.07535E+02 6.60425E+00 0.00000E+00
 -1      2477 1.12785E+02 5.30525E+00 0.00000E+00
 -1      2478 1.11285E+02 5.30525E+00 0.00000E+00
 -1      2479 1.10535E+02 6.60425E+00 0.00000E+00
 -1      2480 1.15785E+02 5.30525E+00 0.00000E+00
 -1      2481 1.14285E+02 5.30525E+00 0.00000E+00
 -1      2482 1.13535E+02 6.60425E+00 0.00000E+00
 -1      2483 1.18785E+02 5.30525E+00 0.00000E+00
 -1      2484 1.17285E+02 5.30525E+00 0.00000E+00
 -1      2485 1.16535E+02 6.60425E+00 0.00000E+00
 -1      2486 1.21785E+02 5.30525E+00 0.00000E+00
 -1      2487 1.20285E+02 5.30525E+00 0.00000E+00
 -1      2488 1.19535E+02 6.60425E+00 0.00000E+00
 -1      2489 1.24785E+02 5.30525E+00 0.00000E+00
 -1      2490 1.23285E+02 5.30525E+00 0.00000E+00
 -1      2491 1.22535E+02 6.60425E+00 0.00000E+00
 -1      2492 1.27785E+02 5.30525E+00 0.00000E+00
 -1      2493 1.26285E+02 5.30525E+00 0.00000E+00
 -1      2494 1.25535E+02 6.60425E+00 0.00000E+00
 -1      2495 1.30785E+02 5.30525E+00 0.00000E+00
 -1      2496 1.29285E+02 5.30525E+00 0.00000E+00
 -1      2497 1.28535E+02 6.60425E+00 0.00000E+00
 -1      2498 1.33785E+02 5.30525E+00 0.00000E+00
 -1      2499 1.32285E+02 5.30525E+00 0.00000E+00
 -1      2500 1.31535E+02 6.60425E+00 0.00000E+00
 -1      2501 1.36785E+02 5.30525E+00 0.00000E+00
 -1      2502 1.35285E+02 5.30525E+00 0.00000E+00
 -1      2503 1.34535E+02 6.60425E+00 0.00000E+00
 -1      2504 1.39785E+02 5.30525E+00 0.00000E+00
 -1      2505 1.38285E+02 5.30525E+00 0.00000E+00
 -1      2506 1.37535E+02 6.60425E+00 0.00000E+00
 -1      2507 1.42785E+02 5.30525E+00 0.00000E+00
 -1      2508 1.41285E+02 5.30525E+00 0.00000E+00
 -1      2509 1.40535E+02 6.60425E+00 0.00000E+00
 -1      2510 1.44336E+02 5.26953E+00 0.00000E+00
 -1      2511 1.43611E+02 1.69625E+01 0.00000E+00
 -1      2512 1.43611E+02 1.54875E+01 0.00000E+00
 -1      2513 1.43611E+02 1.98625E+01 0.00000E+00
 -1      2514 1.43611E+02 1.84125E+01 0.00000E+00
 -1      2515 1.42419E+02 1.76750E+01 0.00000E+00
 -1      2516 1.43505E+02 1.10625E+01 0.00000E+00
 -1      2517 1.43505E+02 9.58750E+00 0.00000E+00
 -1      2518 1.43505E+02 1.40125E+01 0.00000E+00
 -1      2519 1.43505E+02 1.25375E+01 0.00000E+00
 -1      2520 1.42206E+02 1.18000E+01 0.00000E+00
 -1      2521 1.43611E+02 2.28125E+01 0.00000E+00
 -1      2522 1.43611E+02 2.13375E+01 0.00000E+00
 -1      2523 1.42419E+02 2.06000E+01 0.00000E+00
 -1      2524 1.43611E+02 2.57125E+01 0.00000E+00
 -1      2525 1.43611E+02 2.42625E+01 0.00000E+00
 -1      2526 1.42419E+02 2.35250E+01 0.00000E+00
 -1      2527 1.43611E+02 2.86625E+01 0.00000E+00
 -1      2528 1.43611E+02 2.71875E+01 0.00000E+00
 -1      2529 1.42419E+02 2.64500E+01 0.00000E+00
 -1      2530 1.43611E+02 3.16125E+01 0.00000E+00
 -1      2531 1.43611E+02 3.01375E+01 0.00000E+00
 -1      2532 1.42419E+02 2.94000E+01 0.00000E+00
 -1      2533 1.43611E+02 3.45625E+01 0.00000E+00
 -1      2534 1.43611E+02 3.30875E+01 0.00000E+00
 -1      2535 1.42419E+02 3.23500E+01 0.00000E+00
 -1      2536 1.43611E+02 3.75125E+01 0.00000E+00
 -1      2537 1.43611E+02 3.60375E+01 0.00000E+00
 -1      2538 1.42419E+02 3.53000E+01 0.00000E+00
 -1      2539 1.43611E+02 4.04625E+01 0.00000E+00
 -1      2540 1.43611E+02 3.89875E+01 0.00000E+00
 -1      2541 1.42419E+02 3.82500E+01 0.00000E+00
 -1      2542 1.38467E+02 2.02804E+01 0.00000E+00
 -1      2543 1.38303E+02 2.12802E+01 0.00000E+00
 -1      2544 1.36610E+02 1.57392E+01 0.00000E+00
 -1      2545 1.37116E+02 1.66138E+01 0.00000E+00
 -1      2546 1.67850E+01 5.30525E+00 0.00000E+00
 -1      2547 1.52850E+01 5.30525E+00 0.00000E+00
 -1      2548 1.75350E+01 6.60425E+00 0.00000E+00
 -1      2549 1.44321E+02 4.30606E+01 0.00000E+00
 -1      2550 1.38387E+02 2.21957E+01 0.00000E+00
 -1      2551 1.38471E+02 2.31112E+01 0.00000E+00
 -1      2552 1.39315E+02 2.18341E+01 0.00000E+00
 -1      2553 1.37654E+02 1.76945E+01 0.00000E+00
 -1      2554 1.38191E+02 1.87753E+01 0.00000E+00
 -1      2555 1.38143E+02 1.68276E+01 0.00000E+00
 -1      2556 6.55950E+00 4.28890E+01 0.00000E+00
 -1      2557 8.53650E+00 4.32410E+01 0.00000E+00
 -1      2558 9.28650E+00 4.19420E+01 0.00000E+00
 -1      2559 6.55950E+00 4.14140E+01 0.00000E+00
 -1      2560 1.37965E+02 2.42714E+01 0.00000E+00
 -1      2561 1.37497E+02 2.52216E+01 0.00000E+00
 -1      2562 1.17704E+02 2.41697E+01 0.00000E+00
 -1      2563 1.17649E+02 2.30580E+01 0.00000E+00
 -1      2564 1.24929E+02 1.16744E+01 0.00000E+00
 -1      2565 1.25974E+02 1.14483E+01 0.00000E+00
 -1      2566 6.49500E+00 2.71625E+01 0.00000E+00
 -1      2567 6.49500E+00 2.86375E+01 0.00000E+00
 -1      2568 7.79400E+00 2.93750E+01 0.00000E+00
 -1      2569 7.79400E+00 2.64250E+01 0.00000E+00
 -1      2570 1.29167E+02 1.11740E+01 0.00000E+00
 -1      2571 1.30279E+02 1.13885E+01 0.00000E+00
 -1      2572 1.26851E+02 1.13571E+01 0.00000E+00
 -1      2573 1.27728E+02 1.12659E+01 0.00000E+00
 -1      2574 1.26147E+02 1.06320E+01 0.00000E+00
 -1      2575 1.18260E+02 1.77278E+01 0.00000E+00
 -1      2576 1.18802E+02 1.65925E+01 0.00000E+00
 -1      2577 1.20793E+02 1.40095E+01 0.00000E+00
 -1      2578 1.21375E+02 1.34056E+01 0.00000E+00
 -1      2579 1.29361E+02 3.18914E+01 0.00000E+00
 -1      2580 1.28486E+02 3.21660E+01 0.00000E+00
 -1      2581 1.19430E+02 1.54829E+01 0.00000E+00
 -1      2582 1.20111E+02 1.47462E+01 0.00000E+00
 -1      2583 1.19846E+02 1.39071E+01 0.00000E+00
 -1      2584 1.17590E+02 1.99117E+01 0.00000E+00
 -1      2585 1.17704E+02 1.89639E+01 0.00000E+00
 -1      2586 1.17577E+02 2.19752E+01 0.00000E+00
 -1      2587 1.17571E+02 2.09870E+01 0.00000E+00
 -1      2588 1.18151E+02 2.62648E+01 0.00000E+00
 -1      2589 1.17847E+02 2.54042E+01 0.00000E+00
 -1      2590 1.21370E+02 2.96898E+01 0.00000E+00
 -1      2591 1.20715E+02 2.92107E+01 0.00000E+00
 -1      2592 1.23059E+02 3.08222E+01 0.00000E+00
 -1      2593 1.22214E+02 3.02560E+01 0.00000E+00
 -1      2594 1.21430E+02 3.06408E+01 0.00000E+00
 -1      2595 1.24795E+02 3.16197E+01 0.00000E+00
 -1      2596 1.23986E+02 3.13467E+01 0.00000E+00
 -1      2597 1.27028E+02 3.21981E+01 0.00000E+00
 -1      2598 1.25862E+02 3.19472E+01 0.00000E+00
 -1      2599 1.31208E+02 3.15470E+01 0.00000E+00
 -1      2600 1.30285E+02 3.17192E+01 0.00000E+00
 -1      2601 1.30104E+02 3.26747E+01 0.00000E+00
 -1      2602 1.33021E+02 3.06790E+01 0.00000E+00
 -1      2603 1.32179E+02 3.11057E+01 0.00000E+00
 -1      2604 1.34684E+02 2.93978E+01 0.00000E+00
 -1      2605 1.34003E+02 3.00406E+01 0.00000E+00
 -1      2606 1.36048E+02 2.80448E+01 0.00000E+00
 -1      2607 1.35366E+02 2.87213E+01 0.00000E+00
 -1      2608 1.35614E+02 2.96665E+01 0.00000E+00
 -1      2609 1.37094E+02 2.60847E+01 0.00000E+00
 -1      2610 1.36691E+02 2.69479E+01 0.00000E+00
 -1      2611 1.37984E+02 2.59331E+01 0.00000E+00
 -1      2612 1.31391E+02 1.19576E+01 0.00000E+00
 -1      2613 1.32376E+02 1.23254E+01 0.00000E+00
 -1      2614 8.07525E+00 5.11044E+00 0.00000E+00
 -1      2615 6.57525E+00 5.11044E+00 0.00000E+00
 -1      2616 6.40575E+00 6.01981E+00 0.00000E+00
 -1      2617 8.82525E+00 6.40944E+00 0.00000E+00
 -1      2618 1.34983E+02 1.42499E+01 0.00000E+00
 -1      2619 1.35756E+02 1.48596E+01 0.00000E+00
 -1      2620 1.35124E+02 1.33780E+01 0.00000E+00
 -1      2621 1.31013E+02 1.09260E+01 0.00000E+00
 -1      2622 7.79400E+00 3.52687E+01 0.00000E+00
 -1      2623 6.49500E+00 3.60062E+01 0.00000E+00
 -1      2624 6.49500E+00 3.74750E+01 0.00000E+00
 -1      2625 1.45350E+01 6.60425E+00 0.00000E+00
 -1      2626 6.40575E+00 7.49481E+00 0.00000E+00
 -1      2627 1.38893E+02 2.39098E+01 0.00000E+00
 -1      2628 1.36938E+02 2.78931E+01 0.00000E+00
 -1      2629 1.43586E+02 6.56853E+00 0.00000E+00
 -1      2630 1.42312E+02 1.47500E+01 0.00000E+00
 -1      2631 1.43419E+02 7.72713E+00 0.00000E+00
 -1      2632 1.31998E+02 3.20613E+01 0.00000E+00
 -1      2633 1.27722E+02 3.28789E+01 0.00000E+00
 -1      2634 1.26959E+02 3.35919E+01 0.00000E+00
 -1      2635 1.28417E+02 3.35598E+01 0.00000E+00
 -1      2636 1.23202E+02 3.17315E+01 0.00000E+00
 -1      2637 7.70475E+00 8.23231E+00 0.00000E+00
 -1      2638 1.24059E+02 1.14387E+01 0.00000E+00
 -1      2639 1.24400E+02 1.04875E+01 0.00000E+00
 -1      2640 1.23189E+02 1.12030E+01 0.00000E+00
 -1      2641 6.55950E+00 3.99453E+01 0.00000E+00
 -1      2642 1.17047E+02 2.48859E+01 0.00000E+00
 -1      2643 1.16831E+02 2.25686E+01 0.00000E+00
 -1      2644 1.18063E+02 2.71201E+01 0.00000E+00
 -1      2645 1.17102E+02 2.69757E+01 0.00000E+00
 -1      2646 1.17974E+02 2.79754E+01 0.00000E+00
 -1      2647 1.18536E+02 1.57534E+01 0.00000E+00
 -1      2648 1.16443E+02 1.84704E+01 0.00000E+00
 -1      2649 1.17352E+02 1.80991E+01 0.00000E+00
 -1      2650 1.17000E+02 1.72343E+01 0.00000E+00
 -1      2651 1.19760E+02 2.90972E+01 0.00000E+00
 -1      2652 1.36752E+02 1.48673E+01 0.00000E+00
 -1      2653 1.42120E+02 8.46463E+00 0.00000E+00
 -1      2654 1.33238E+02 1.21317E+01 0.00000E+00
 -1      2655 1.34100E+02 1.19380E+01 0.00000E+00
 -1      2656 1.32986E+02 1.13014E+01 0.00000E+00
 -1      2657 1.21687E+02 1.26623E+01 0.00000E+00
 -1      2658 1.21999E+02 1.19191E+01 0.00000E+00
 -1      2659 1.20839E+02 1.24272E+01 0.00000E+00
 -1      2660 1.28463E+02 1.04488E+01 0.00000E+00
 -1      2661 1.16777E+02 2.04105E+01 0.00000E+00
 -1      2662 1.25197E+02 3.25835E+01 0.00000E+00
 -1      2663 1.42811E+02 4.35929E+01 0.00000E+00
 -1      2664 1.43294E+02 4.17323E+01 0.00000E+00
 -1      2665 1.42101E+02 4.09948E+01 0.00000E+00
 -1      2666 1.41467E+02 4.35342E+01 0.00000E+00
 -1      2667 1.33950E+02 3.09815E+01 0.00000E+00
 -1      2668 1.40717E+02 4.22352E+01 0.00000E+00
 -1      2669 9.09300E+00 1.98250E+01 0.00000E+00
 -1      2670 9.09300E+00 2.12750E+01 0.00000E+00
 -1      2671 9.09300E+00 2.27500E+01 0.00000E+00
 -1      2672 9.09300E+00 2.42250E+01 0.00000E+00
 -1      2673 1.03920E+01 2.20250E+01 0.00000E+00
 -1      2674 9.09300E+00 1.39375E+01 0.00000E+00
 -1      2675 9.09300E+00 1.54125E+01 0.00000E+00
 -1      2676 9.09300E+00 1.09875E+01 0.00000E+00
 -1      2677 9.09300E+00 1.24625E+01 0.00000E+00
 -1      2678 1.03920E+01 1.32000E+01 0.00000E+00
 -1      2679 1.22850E+01 7.90325E+00 0.00000E+00
 -1      2680 1.07850E+01 7.90325E+00 0.00000E+00
 -1      2681 1.35268E+02 1.23996E+01 0.00000E+00
 -1      2682 1.36042E+02 1.30093E+01 0.00000E+00
 -1      2683 1.30848E+02 9.87813E+00 0.00000E+00
 -1      2684 1.31959E+02 1.04472E+01 0.00000E+00
 -1      2685 8.91450E+00 8.42712E+00 0.00000E+00
 -1      2686 1.37963E+02 2.77572E+01 0.00000E+00
 -1      2687 1.37320E+02 2.88541E+01 0.00000E+00
 -1      2688 1.44000E+01 4.09070E+01 0.00000E+00
 -1      2689 1.59000E+01 4.09070E+01 0.00000E+00
 -1      2690 1.74000E+01 4.09070E+01 0.00000E+00
 -1      2691 1.89000E+01 4.09070E+01 0.00000E+00
 -1      2692 1.66500E+01 3.96080E+01 0.00000E+00
 -1      2693 2.04000E+01 4.09070E+01 0.00000E+00
 -1      2694 2.19000E+01 4.09070E+01 0.00000E+00
 -1      2695 1.96500E+01 3.96080E+01 0.00000E+00
 -1      2696 2.34000E+01 4.09070E+01 0.00000E+00
 -1      2697 2.49000E+01 4.09070E+01 0.00000E+00
 -1      2698 2.26500E+01 3.96080E+01 0.00000E+00
 -1      2699 2.64000E+01 4.09070E+01 0.00000E+00
 -1      2700 2.79000E+01 4.09070E+01 0.00000E+00
 -1      2701 2.56500E+01 3.96080E+01 0.00000E+00
 -1      2702 2.94000E+01 4.09070E+01 0.00000E+00
 -1      2703 3.09000E+01 4.09070E+01 0.00000E+00
 -1      2704 2.86500E+01 3.96080E+01 0.00000E+00
 -1      2705 3.24000E+01 4.09070E+01 0.00000E+00
 -1      2706 3.39000E+01 4.09070E+01 0.00000E+00
 -1      2707 3.16500E+01 3.96080E+01 0.00000E+00
 -1      2708 3.54000E+01 4.09070E+01 0.00000E+00
 -1      2709 3.69000E+01 4.09070E+01 0.00000E+00
 -1      2710 3.46500E+01 3.96080E+01 0.00000E+00
 -1      2711 3.84000E+01 4.09070E+01 0.00000E+00
 -1      2712 3.99000E+01 4.09070E+01 0.00000E+00
 -1      2713 3.76500E+01 3.96080E+01 0.00000E+00
 -1      2714 4.14000E+01 4.09070E+01 0.00000E+00
 -1      2715 4.29000E+01 4.09070E+01 0.00000E+00
 -1      2716 4.06500E+01 3.96080E+01 0.00000E+00
 -1      2717 4.44000E+01 4.09070E+01 0.00000E+00
 -1      2718 4.59000E+01 4.09070E+01 0.00000E+00
 -1      2719 4.36500E+01 3.96080E+01 0.00000E+00
 -1      2720 4.74000E+01 4.09070E+01 0.00000E+00
 -1      2721 4.89000E+01 4.09070E+01 0.00000E+00
 -1      2722 4.66500E+01 3.96080E+01 0.00000E+00
 -1      2723 5.04000E+01 4.09070E+01 0.00000E+00
 -1      2724 5.19000E+01 4.09070E+01 0.00000E+00
 -1      2725 4.96500E+01 3.96080E+01 0.00000E+00
 -1      2726 5.34000E+01 4.09070E+01 0.00000E+00
 -1      2727 5.49000E+01 4.09070E+01 0.00000E+00
 -1      2728 5.26500E+01 3.96080E+01 0.00000E+00
 -1      2729 5.64000E+01 4.09070E+01 0.00000E+00
 -1      2730 5.79000E+01 4.09070E+01 0.00000E+00
 -1      2731 5.56500E+01 3.96080E+01 0.00000E+00
 -1      2732 5.94000E+01 4.09070E+01 0.00000E+00
 -1      2733 6.09000E+01 4.09070E+01 0.00000E+00
 -1      2734 5.86500E+01 3.96080E+01 0.00000E+00
 -1      2735 6.24000E+01 4.09070E+01 0.00000E+00
 -1      2736 6.39000E+01 4.09070E+01 0.00000E+00
 -1      2737 6.16500E+01 3.96080E+01 0.00000E+00
 -1      2738 6.54000E+01 4.09070E+01 0.00000E+00
 -1      2739 6.69000E+01 4.09070E+01 0.00000E+00
 -1      2740 6.46500E+01 3.96080E+01 0.00000E+00
 -1      2741 6.84000E+01 4.09070E+01 0.00000E+00
 -1      2742 6.99000E+01 4.09070E+01 0.00000E+00
 -1      2743 6.76500E+01 3.96080E+01 0.00000E+00
 -1      2744 7.14000E+01 4.09070E+01 0.00000E+00
 -1      2745 7.29000E+01 4.09070E+01 0.00000E+00
 -1      2746 7.06500E+01 3.96080E+01 0.00000E+00
 -1      2747 7.44000E+01 4.09070E+01 0.00000E+00
 -1      2748 7.59000E+01 4.09070E+01 0.00000E+00
 -1      2749 7.36500E+01 3.96080E+01 0.00000E+00
 -1      2750 7.74000E+01 4.09070E+01 0.00000E+00
 -1      2751 7.89000E+01 4.09070E+01 0.00000E+00
 -1      2752 7.66500E+01 3.96080E+01 0.00000E+00
 -1      2753 8.04000E+01 4.09070E+01 0.00000E+00
 -1      2754 8.19000E+01 4.09070E+01 0.00000E+00
 -1      2755 7.96500E+01 3.96080E+01 0.00000E+00
 -1      2756 8.34000E+01 4.09070E+01 0.00000E+00
 -1      2757 8.49000E+01 4.09070E+01 0.00000E+00
 -1      2758 8.26500E+01 3.96080E+01 0.00000E+00
 -1      2759 8.64000E+01 4.09070E+01 0.00000E+00
 -1      2760 8.79000E+01 4.09070E+01 0.00000E+00
 -1      2761 8.56500E+01 3.96080E+01 0.00000E+00
 -1      2762 8.94000E+01 4.09070E+01 0.00000E+00
 -1      2763 9.09000E+01 4.09070E+01 0.00000E+00
 -1      2764 8.86500E+01 3.96080E+01 0.00000E+00
 -1      2765 9.24000E+01 4.09070E+01 0.00000E+00
 -1      2766 9.39000E+01 4.09070E+01 0.00000E+00
 -1      2767 9.16500E+01 3.96080E+01 0.00000E+00
 -1      2768 9.54000E+01 4.09070E+01 0.00000E+00
 -1      2769 9.69000E+01 4.09070E+01 0.00000E+00
 -1      2770 9.46500E+01 3.96080E+01 0.00000E+00
 -1      2771 9.84000E+01 4.09070E+01 0.00000E+00
 -1      2772 9.99000E+01 4.09070E+01 0.00000E+00
 -1      2773 9.76500E+01 3.96080E+01 0.00000E+00
 -1      2774 1.01400E+02 4.09070E+01 0.00000E+00
 -1      2775 1.02900E+02 4.09070E+01 0.00000E+00
 -1      2776 1.00650E+02 3.96080E+01 0.00000E+00
 -1      2777 1.04400E+02 4.09070E+01 0.00000E+00
 -1      2778 1.05900E+02 4.09070E+01 0.00000E+00
 -1      2779 1.03650E+02 3.96080E+01 0.00000E+00
 -1      2780 1.07400E+02 4.09070E+01 0.00000E+00
 -1      2781 1.08900E+02 4.09070E+01 0.00000E+00
 -1      2782 1.06650E+02 3.96080E+01 0.00000E+00
 -1      2783 1.10400E+02 4.09070E+01 0.00000E+00
 -1      2784 1.11900E+02 4.09070E+01 0.00000E+00
 -1      2785 1.09650E+02 3.96080E+01 0.00000E+00
 -1      2786 1.13400E+02 4.09070E+01 0.00000E+00
 -1      2787 1.14900E+02 4.09070E+01 0.00000E+00
 -1      2788 1.12650E+02 3.96080E+01 0.00000E+00
 -1      2789 1.16400E+02 4.09070E+01 0.00000E+00
 -1      2790 1.17900E+02 4.09070E+01 0.00000E+00
 -1      2791 1.15650E+02 3.96080E+01 0.00000E+00
 -1      2792 1.19400E+02 4.09070E+01 0.00000E+00
 -1      2793 1.20900E+02 4.09070E+01 0.00000E+00
 -1      2794 1.18650E+02 3.96080E+01 0.00000E+00
 -1      2795 1.22400E+02 4.09070E+01 0.00000E+00
 -1      2796 1.23900E+02 4.09070E+01 0.00000E+00
 -1      2797 1.21650E+02 3.96080E+01 0.00000E+00
 -1      2798 1.25400E+02 4.09070E+01 0.00000E+00
 -1      2799 1.26900E+02 4.09070E+01 0.00000E+00
 -1      2800 1.24650E+02 3.96080E+01 0.00000E+00
 -1      2801 1.28400E+02 4.09070E+01 0.00000E+00
 -1      2802 1.29900E+02 4.09070E+01 0.00000E+00
 -1      2803 1.27650E+02 3.96080E+01 0.00000E+00
 -1      2804 1.31400E+02 4.09070E+01 0.00000E+00
 -1      2805 1.32900E+02 4.09070E+01 0.00000E+00
 -1      2806 1.30650E+02 3.96080E+01 0.00000E+00
 -1      2807 1.34400E+02 4.09070E+01 0.00000E+00
 -1      2808 1.35900E+02 4.09070E+01 0.00000E+00
 -1      2809 1.33650E+02 3.96080E+01 0.00000E+00
 -1      2810 1.37400E+02 4.09070E+01 0.00000E+00
 -1      2811 1.38900E+02 4.09070E+01 0.00000E+00
 -1      2812 1.36650E+02 3.96080E+01 0.00000E+00
 -1      2813 2.42850E+01 7.90325E+00 0.00000E+00
 -1      2814 2.27850E+01 7.90325E+00 0.00000E+00
 -1      2815 1.34954E+02 3.14514E+01 0.00000E+00
 -1      2816 1.33973E+02 3.20899E+01 0.00000E+00
 -1      2817 1.32838E+02 3.26213E+01 0.00000E+00
 -1      2818 1.31868E+02 3.30625E+01 0.00000E+00
 -1      2819 2.12850E+01 7.90325E+00 0.00000E+00
 -1      2820 1.97850E+01 7.90325E+00 0.00000E+00
 -1      2821 2.20350E+01 9.20225E+00 0.00000E+00
 -1      2822 3.02850E+01 7.90325E+00 0.00000E+00
 -1      2823 2.87850E+01 7.90325E+00 0.00000E+00
 -1      2824 3.32850E+01 7.90325E+00 0.00000E+00
 -1      2825 3.17850E+01 7.90325E+00 0.00000E+00
 -1      2826 3.10350E+01 9.20225E+00 0.00000E+00
 -1      2827 3.62850E+01 7.90325E+00 0.00000E+00
 -1      2828 3.47850E+01 7.90325E+00 0.00000E+00
 -1      2829 3.40350E+01 9.20225E+00 0.00000E+00
 -1      2830 3.92850E+01 7.90325E+00 0.00000E+00
 -1      2831 3.77850E+01 7.90325E+00 0.00000E+00
 -1      2832 3.70350E+01 9.20225E+00 0.00000E+00
 -1      2833 4.22850E+01 7.90325E+00 0.00000E+00
 -1      2834 4.07850E+01 7.90325E+00 0.00000E+00
 -1      2835 4.00350E+01 9.20225E+00 0.00000E+00
 -1      2836 4.52850E+01 7.90325E+00 0.00000E+00
 -1      2837 4.37850E+01 7.90325E+00 0.00000E+00
 -1      2838 4.30350E+01 9.20225E+00 0.00000E+00
 -1      2839 4.82850E+01 7.90325E+00 0.00000E+00
 -1      2840 4.67850E+01 7.90325E+00 0.00000E+00
 -1      2841 4.60350E+01 9.20225E+00 0.00000E+00
 -1      2842 5.12850E+01 7.90325E+00 0.00000E+00
 -1      2843 4.97850E+01 7.90325E+00 0.00000E+00
 -1      2844 4.90350E+01 9.20225E+00 0.00000E+00
 -1      2845 5.42850E+01 7.90325E+00 0.00000E+00
 -1      2846 5.27850E+01 7.90325E+00 0.00000E+00
 -1      2847 5.20350E+01 9.20225E+00 0.00000E+00
 -1      2848 5.72850E+01 7.90325E+00 0.00000E+00
 -1      2849 5.57850E+01 7.90325E+00 0.00000E+00
 -1      2850 5.50350E+01 9.20225E+00 0.00000E+00
 -1      2851 6.02850E+01 7.90325E+00 0.00000E+00
 -1      2852 5.87850E+01 7.90325E+00 0.00000E+00
 -1      2853 5.80350E+01 9.20225E+00 0.00000E+00
 -1      2854 6.32850E+01 7.90325E+00 0.00000E+00
 -1      2855 6.17850E+01 7.90325E+00 0.00000E+00
 -1      2856 6.10350E+01 9.20225E+00 0.00000E+00
 -1      2857 6.62850E+01 7.90325E+00 0.00000E+00
 -1      2858 6.47850E+01 7.90325E+00 0.00000E+00
 -1      2859 6.40350E+01 9.20225E+00 0.00000E+00
 -1      2860 6.92850E+01 7.90325E+00 0.00000E+00
 -1      2861 6.77850E+01 7.90325E+00 0.00000E+00
 -1      2862 6.70350E+01 9.20225E+00 0.00000E+00
 -1      2863 7.22850E+01 7.90325E+00 0.00000E+00
 -1      2864 7.07850E+01 7.90325E+00 0.00000E+00
 -1      2865 7.00350E+01 9.20225E+00 0.00000E+00
 -1      2866 7.52850E+01 7.90325E+00 0.00000E+00
 -1      2867 7.37850E+01 7.90325E+00 0.00000E+00
 -1      2868 7.30350E+01 9.20225E+00 0.00000E+00
 -1      2869 7.82850E+01 7.90325E+00 0.00000E+00
 -1      2870 7.67850E+01 7.90325E+00 0.00000E+00
 -1      2871 7.60350E+01 9.20225E+00 0.00000E+00
 -1      2872 8.12850E+01 7.90325E+00 0.00000E+00
 -1      2873 7.97850E+01 7.90325E+00 0.00000E+00
 -1      2874 7.90350E+01 9.20225E+00 0.00000E+00
 -1      2875 8.42850E+01 7.90325E+00 0.00000E+00
 -1      2876 8.27850E+01 7.90325E+00 0.00000E+00
 -1      2877 8.20350E+01 9.20225E+00 0.00000E+00
 -1      2878 8.72850E+01 7.90325E+00 0.00000E+00
 -1      2879 8.57850E+01 7.90325E+00 0.00000E+00
 -1      2880 8.50350E+01 9.20225E+00 0.00000E+00
 -1      2881 9.02850E+01 7.90325E+00 0.00000E+00
 -1      2882 8.87850E+01 7.90325E+00 0.00000E+00
 -1      2883 8.80350E+01 9.20225E+00 0.00000E+00
 -1      2884 9.32850E+01 7.90325E+00 0.00000E+00
 -1      2885 9.17850E+01 7.90325E+00 0.00000E+00
 -1      2886 9.10350E+01 9.20225E+00 0.00000E+00
 -1      2887 9.62850E+01 7.90325E+00 0.00000E+00
 -1      2888 9.47850E+01 7.90325E+00 0.00000E+00
 -1      2889 9.40350E+01 9.20225E+00 0.00000E+00
 -1      2890 9.92850E+01 7.90325E+00 0.00000E+00
 -1      2891 9.77850E+01 7.90325E+00 0.00000E+00
 -1      2892 9.70350E+01 9.20225E+00 0.00000E+00
 -1      2893 1.02285E+02 7.90325E+00 0.00000E+00
 -1      2894 1.00785E+02 7.90325E+00 0.00000E+00
 -1      2895 1.00035E+02 9.20225E+00 0.00000E+00
 -1      2896 1.05285E+02 7.90325E+00 0.00000E+00
 -1      2897 1.03785E+02 7.90325E+00 0.00000E+00
 -1      2898 1.03035E+02 9.20225E+00 0.00000E+00
 -1      2899 1.08285E+02 7.90325E+00 0.00000E+00
 -1      2900 1.06785E+02 7.90325E+00 0.00000E+00
 -1      2901 1.06035E+02 9.20225E+00 0.00000E+00
 -1      2902 1.11285E+02 7.90325E+00 0.00000E+00
 -1      2903 1.09785E+02 7.90325E+00 0.00000E+00
 -1      2904 1.09035E+02 9.20225E+00 0.00000E+00
 -1      2905 1.14285E+02 7.90325E+00 0.00000E+00
 -1      2906 1.12785E+02 7.90325E+00 0.00000E+00
 -1      2907 1.12035E+02 9.20225E+00 0.00000E+00
 -1      2908 1.17285E+02 7.90325E+00 0.00000E+00
 -1      2909 1.15785E+02 7.90325E+00 0.00000E+00
 -1      2910 1.15035E+02 9.20225E+00 0.00000E+00
 -1      2911 1.20285E+02 7.90325E+00 0.00000E+00
 -1      2912 1.18785E+02 7.90325E+00 0.00000E+00
 -1      2913 1.18035E+02 9.20225E+00 0.00000E+00
 -1      2914 1.23783E+02 8.42804E+00 0.00000E+00
 -1      2915 1.22283E+02 8.42804E+00 0.00000E+00
 -1      2916 1.27030E+02 8.57249E+00 0.00000E+00
 -1      2917 1.25530E+02 8.57249E+00 0.00000E+00
 -1      2918 1.28530E+02 8.57249E+00 0.00000E+00
 -1      2919 1.32415E+02 8.00177E+00 0.00000E+00
 -1      2920 1.30915E+02 8.00177E+00 0.00000E+00
 -1      2921 1.38285E+02 7.90325E+00 0.00000E+00
 -1      2922 1.36785E+02 7.90325E+00 0.00000E+00
 -1      2923 1.40953E+02 8.18394E+00 0.00000E+00
 -1      2924 1.39453E+02 8.18394E+00 0.00000E+00
 -1      2925 1.38703E+02 9.48294E+00 0.00000E+00
 -1      2926 1.41038E+02 1.00443E+01 0.00000E+00
 -1      2927 1.41176E+02 1.55732E+01 0.00000E+00
 -1      2928 1.41070E+02 1.40982E+01 0.00000E+00
 -1      2929 1.41054E+02 1.28088E+01 0.00000E+00
 -1      2930 1.41054E+02 1.13338E+01 0.00000E+00
 -1      2931 1.39886E+02 1.10531E+01 0.00000E+00
 -1      2932 1.39917E+02 1.36320E+01 0.00000E+00
 -1      2933 1.41310E+02 2.71875E+01 0.00000E+00
 -1      2934 1.41310E+02 2.57125E+01 0.00000E+00
 -1      2935 1.41226E+02 3.01375E+01 0.00000E+00
 -1      2936 1.41226E+02 2.86625E+01 0.00000E+00
 -1      2937 1.41226E+02 3.30875E+01 0.00000E+00
 -1      2938 1.41226E+02 3.16125E+01 0.00000E+00
 -1      2939 1.40033E+02 3.08750E+01 0.00000E+00
 -1      2940 1.41226E+02 3.60375E+01 0.00000E+00
 -1      2941 1.41226E+02 3.45625E+01 0.00000E+00
 -1      2942 1.40033E+02 3.38250E+01 0.00000E+00
 -1      2943 1.39109E+02 1.87219E+01 0.00000E+00
 -1      2944 1.38620E+02 1.95889E+01 0.00000E+00
 -1      2945 1.39385E+02 2.02270E+01 0.00000E+00
 -1      2946 8.85168E+00 4.05347E+01 0.00000E+00
 -1      2947 1.02152E+01 4.07987E+01 0.00000E+00
 -1      2948 1.40825E+02 2.14968E+01 0.00000E+00
 -1      2949 1.40909E+02 2.24123E+01 0.00000E+00
 -1      2950 1.82850E+01 7.90325E+00 0.00000E+00
 -1      2951 1.67850E+01 7.90325E+00 0.00000E+00
 -1      2952 1.90350E+01 9.20225E+00 0.00000E+00
 -1      2953 2.72850E+01 7.90325E+00 0.00000E+00
 -1      2954 2.57850E+01 7.90325E+00 0.00000E+00
 -1      2955 2.50350E+01 9.20225E+00 0.00000E+00
 -1      2956 2.80350E+01 9.20225E+00 0.00000E+00
 -1      2957 1.15576E+01 4.08528E+01 0.00000E+00
 -1      2958 1.30576E+01 4.08528E+01 0.00000E+00
 -1      2959 1.38076E+01 3.95538E+01 0.00000E+00
 -1      2960 1.11228E+01 3.94455E+01 0.00000E+00
 -1      2961 9.09300E+00 1.68813E+01 0.00000E+00
 -1      2962 9.09300E+00 1.83563E+01 0.00000E+00
 -1      2963 1.03920E+01 1.90812E+01 0.00000E+00
 -1      2964 1.03920E+01 1.61437E+01 0.00000E+00
 -1      2965 1.52850E+01 7.90325E+00 0.00000E+00
 -1      2966 1.37850E+01 7.90325E+00 0.00000E+00
 -1      2967 1.30350E+01 9.20225E+00 0.00000E+00
 -1      2968 1.60350E+01 9.20225E+00 0.00000E+00
 -1      2969 1.16184E+02 2.56119E+01 0.00000E+00
 -1      2970 1.16040E+02 2.43774E+01 0.00000E+00
 -1      2971 7.48818E+00 3.88019E+01 0.00000E+00
 -1      2972 1.19517E+02 3.01392E+01 0.00000E+00
 -1      2973 1.18692E+02 2.91618E+01 0.00000E+00
 -1      2974 9.09300E+00 3.15875E+01 0.00000E+00
 -1      2975 9.09300E+00 3.30625E+01 0.00000E+00
 -1      2976 1.23264E+02 3.27038E+01 0.00000E+00
 -1      2977 1.22337E+02 3.21793E+01 0.00000E+00
 -1      2978 1.15910E+02 2.09334E+01 0.00000E+00
 -1      2979 1.15929E+02 1.98581E+01 0.00000E+00
 -1      2980 1.18752E+02 1.35794E+01 0.00000E+00
 -1      2981 1.19434E+02 1.28427E+01 0.00000E+00
 -1      2982 1.25455E+02 3.36472E+01 0.00000E+00
 -1      2983 1.24387E+02 3.33197E+01 0.00000E+00
 -1      2984 1.15928E+02 2.31731E+01 0.00000E+00
 -1      2985 1.15855E+02 2.20903E+01 0.00000E+00
 -1      2986 1.36940E+02 1.38302E+01 0.00000E+00
 -1      2987 1.37794E+02 1.47098E+01 0.00000E+00
 -1      2988 1.17403E+02 1.58447E+01 0.00000E+00
 -1      2989 1.18031E+02 1.47350E+01 0.00000E+00
 -1      2990 1.21375E+02 3.16362E+01 0.00000E+00
 -1      2991 1.20530E+02 3.10701E+01 0.00000E+00
 -1      2992 1.41034E+02 4.09655E+01 0.00000E+00
 -1      2993 1.41351E+02 3.96958E+01 0.00000E+00
 -1      2994 1.39967E+02 4.09362E+01 0.00000E+00
 -1      2995 1.30715E+02 3.33905E+01 0.00000E+00
 -1      2996 1.29791E+02 3.35627E+01 0.00000E+00
 -1      2997 1.36559E+02 2.99370E+01 0.00000E+00
 -1      2998 1.35877E+02 3.06135E+01 0.00000E+00
 -1      2999 1.39294E+02 2.57600E+01 0.00000E+00
 -1      3000 1.38891E+02 2.66231E+01 0.00000E+00
 -1      3001 1.39616E+02 1.79344E+01 0.00000E+00
 -1      3002 1.40045E+02 1.87480E+01 0.00000E+00
 -1      3003 9.09300E+00 3.45313E+01 0.00000E+00
 -1      3004 9.09300E+00 3.60000E+01 0.00000E+00
 -1      3005 1.03920E+01 3.37938E+01 0.00000E+00
 -1      3006 1.37584E+02 2.98010E+01 0.00000E+00
 -1      3007 1.03920E+01 2.49750E+01 0.00000E+00
 -1      3008 9.09300E+00 2.57000E+01 0.00000E+00
 -1      3009 9.09300E+00 2.71750E+01 0.00000E+00
 -1      3010 1.16095E+02 2.64672E+01 0.00000E+00
 -1      3011 1.15088E+02 2.59587E+01 0.00000E+00
 -1      3012 1.16007E+02 2.73225E+01 0.00000E+00
 -1      3013 1.37084E+02 1.28518E+01 0.00000E+00
 -1      3014 1.39217E+02 3.96372E+01 0.00000E+00
 -1      3015 1.21437E+02 3.26085E+01 0.00000E+00
 -1      3016 1.32821E+02 1.02535E+01 0.00000E+00
 -1      3017 1.16495E+02 1.62159E+01 0.00000E+00
 -1      3018 9.66450E+00 9.72612E+00 0.00000E+00
 -1      3019 1.39273E+02 2.75840E+01 0.00000E+00
 -1      3020 1.33842E+02 3.30911E+01 0.00000E+00
 -1      3021 1.31555E+02 3.39505E+01 0.00000E+00
 -1      3022 1.21533E+02 9.72704E+00 0.00000E+00
 -1      3023 1.29968E+02 8.48061E+00 0.00000E+00
 -1      3024 1.33988E+02 7.73012E+00 0.00000E+00
 -1      3025 1.33368E+02 9.12764E+00 0.00000E+00
 -1      3026 1.34395E+02 9.98186E+00 0.00000E+00
 -1      3027 1.35488E+02 7.73012E+00 0.00000E+00
 -1      3028 1.36238E+02 9.02912E+00 0.00000E+00
 -1      3029 1.15065E+02 2.38991E+01 0.00000E+00
 -1      3030 1.35017E+02 1.15693E+01 0.00000E+00
 -1      3031 1.41485E+02 1.85427E+01 0.00000E+00
 -1      3032 1.41485E+02 1.70927E+01 0.00000E+00
 -1      3033 1.26149E+02 3.43281E+01 0.00000E+00
 -1      3034 1.25339E+02 3.50643E+01 0.00000E+00
 -1      3035 1.26844E+02 3.50089E+01 0.00000E+00
 -1      3036 1.29028E+02 3.42756E+01 0.00000E+00
 -1      3037 1.41351E+02 3.82207E+01 0.00000E+00
 -1      3038 1.09635E+01 1.04636E+01 0.00000E+00
 -1      3039 1.17732E+02 2.90174E+01 0.00000E+00
 -1      3040 1.41869E+02 2.31623E+01 0.00000E+00
 -1      3041 1.40359E+02 2.34996E+01 0.00000E+00
 -1      3042 1.22340E+02 1.09679E+01 0.00000E+00
 -1      3043 1.38792E+02 1.58309E+01 0.00000E+00
 -1      3044 1.39329E+02 1.69117E+01 0.00000E+00
 -1      3045 1.15577E+02 1.89933E+01 0.00000E+00
 -1      3046 1.15225E+02 1.81285E+01 0.00000E+00
 -1      3047 1.14710E+02 1.95162E+01 0.00000E+00
 -1      3048 1.35899E+02 3.17218E+01 0.00000E+00
 -1      3049 1.17619E+02 1.36706E+01 0.00000E+00
 -1      3050 1.15007E+02 2.15379E+01 0.00000E+00
 -1      3051 1.19746E+02 1.20994E+01 0.00000E+00
 -1      3052 9.09300E+00 2.86437E+01 0.00000E+00
 -1      3053 9.09300E+00 3.01187E+01 0.00000E+00
 -1      3054 1.03920E+01 3.08563E+01 0.00000E+00
 -1      3055 1.03920E+01 2.79188E+01 0.00000E+00
 -1      3056 1.23522E+02 3.37675E+01 0.00000E+00
 -1      3057 1.40265E+02 1.69377E+01 0.00000E+00
 -1      3058 8.78718E+00 3.80644E+01 0.00000E+00
 -1      3059 1.19462E+02 3.11346E+01 0.00000E+00
 -1      3060 1.38981E+02 1.47939E+01 0.00000E+00
 -1      3061 1.39688E+02 3.85602E+01 0.00000E+00
 -1      3062 1.40755E+02 3.71145E+01 0.00000E+00
 -1      3063 1.39562E+02 3.63770E+01 0.00000E+00
 -1      3064 1.38621E+02 3.85310E+01 0.00000E+00
 -1      3065 1.40688E+02 1.89911E+01 0.00000E+00
 -1      3066 1.40182E+02 1.97787E+01 0.00000E+00
 -1      3067 1.40028E+02 2.04701E+01 0.00000E+00
 -1      3068 1.41622E+02 1.95734E+01 0.00000E+00
 -1      3069 1.39853E+02 2.46598E+01 0.00000E+00
 -1      3070 1.40117E+02 2.79250E+01 0.00000E+00
 -1      3071 1.39189E+02 2.90590E+01 0.00000E+00
 -1      3072 1.16910E+01 1.24625E+01 0.00000E+00
 -1      3073 1.16910E+01 1.39375E+01 0.00000E+00
 -1      3074 1.41622E+02 2.10484E+01 0.00000E+00
 -1      3075 1.21373E+02 3.38458E+01 0.00000E+00
 -1      3076 1.20411E+02 3.33027E+01 0.00000E+00
 -1      3077 1.89000E+01 3.83090E+01 0.00000E+00
 -1      3078 2.04000E+01 3.83090E+01 0.00000E+00
 -1      3079 2.19000E+01 3.83090E+01 0.00000E+00
 -1      3080 2.34000E+01 3.83090E+01 0.00000E+00
 -1      3081 2.11500E+01 3.70100E+01 0.00000E+00
 -1      3082 2.49000E+01 3.83090E+01 0.00000E+00
 -1      3083 2.64000E+01 3.83090E+01 0.00000E+00
 -1      3084 2.41500E+01 3.70100E+01 0.00000E+00
 -1      3085 2.79000E+01 3.83090E+01 0.00000E+00
 -1      3086 2.94000E+01 3.83090E+01 0.00000E+00
 -1      3087 2.71500E+01 3.70100E+01 0.00000E+00
 -1      3088 3.09000E+01 3.83090E+01 0.00000E+00
 -1      3089 3.24000E+01 3.83090E+01 0.00000E+00
 -1      3090 3.01500E+01 3.70100E+01 0.00000E+00
 -1      3091 3.39000E+01 3.83090E+01 0.00000E+00
 -1      3092 3.54000E+01 3.83090E+01 0.00000E+00
 -1      3093 3.31500E+01 3.70100E+01 0.00000E+00
 -1      3094 3.69000E+01 3.83090E+01 0.00000E+00
 -1      3095 3.84000E+01 3.83090E+01 0.00000E+00
 -1      3096 3.61500E+01 3.70100E+01 0.00000E+00
 -1      3097 3.99000E+01 3.83090E+01 0.00000E+00
 -1      3098 4.14000E+01 3.83090E+01 0.00000E+00
 -1      3099 3.91500E+01 3.70100E+01 0.00000E+00
 -1      3100 4.29000E+01 3.83090E+01 0.00000E+00
 -1      3101 4.44000E+01 3.83090E+01 0.00000E+00
 -1      3102 4.21500E+01 3.70100E+01 0.00000E+00
 -1      3103 4.59000E+01 3.83090E+01 0.00000E+00
 -1      3104 4.74000E+01 3.83090E+01 0.00000E+00
 -1      3105 4.51500E+01 3.70100E+01 0.00000E+00
 -1      3106 4.89000E+01 3.83090E+01 0.00000E+00
 -1      3107 5.04000E+01 3.83090E+01 0.00000E+00
 -1      3108 4.81500E+01 3.70100E+01 0.00000E+00
 -1      3109 5.19000E+01 3.83090E+01 0.00000E+00
 -1      3110 5.34000E+01 3.83090E+01 0.00000E+00
 -1      3111 5.11500E+01 3.70100E+01 0.00000E+00
 -1      3112 5.49000E+01 3.83090E+01 0.00000E+00
 -1      3113 5.64000E+01 3.83090E+01 0.00000E+00
 -1      3114 5.41500E+01 3.70100E+01 0.00000E+00
 -1      3115 5.79000E+01 3.83090E+01 0.00000E+00
 -1      3116 5.94000E+01 3.83090E+01 0.00000E+00
 -1      3117 5.71500E+01 3.70100E+01 0.00000E+00
 -1      3118 6.09000E+01 3.83090E+01 0.00000E+00
 -1      3119 6.24000E+01 3.83090E+01 0.00000E+00
 -1      3120 6.01500E+01 3.70100E+01 0.00000E+00
 -1      3121 6.39000E+01 3.83090E+01 0.00000E+00
 -1      3122 6.54000E+01 3.83090E+01 0.00000E+00
 -1      3123 6.31500E+01 3.70100E+01 0.00000E+00
 -1      3124 6.69000E+01 3.83090E+01 0.00000E+00
 -1      3125 6.84000E+01 3.83090E+01 0.00000E+00
 -1      3126 6.61500E+01 3.70100E+01 0.00000E+00
 -1      3127 6.99000E+01 3.83090E+01 0.00000E+00
 -1      3128 7.14000E+01 3.83090E+01 0.00000E+00
 -1      3129 6.91500E+01 3.70100E+01 0.00000E+00
 -1      3130 7.29000E+01 3.83090E+01 0.00000E+00
 -1      3131 7.44000E+01 3.83090E+01 0.00000E+00
 -1      3132 7.21500E+01 3.70100E+01 0.00000E+00
 -1      3133 7.59000E+01 3.83090E+01 0.00000E+00
 -1      3134 7.74000E+01 3.83090E+01 0.00000E+00
 -1      3135 7.51500E+01 3.70100E+01 0.00000E+00
 -1      3136 7.89000E+01 3.83090E+01 0.00000E+00
 -1      3137 8.04000E+01 3.83090E+01 0.00000E+00
 -1      3138 7.81500E+01 3.70100E+01 0.00000E+00
 -1      3139 8.19000E+01 3.83090E+01 0.00000E+00
 -1      3140 8.34000E+01 3.83090E+01 0.00000E+00
 -1      3141 8.11500E+01 3.70100E+01 0.00000E+00
 -1      3142 8.49000E+01 3.83090E+01 0.00000E+00
 -1      3143 8.64000E+01 3.83090E+01 0.00000E+00
 -1      3144 8.41500E+01 3.70100E+01 0.00000E+00
 -1      3145 8.79000E+01 3.83090E+01 0.00000E+00
 -1      3146 8.94000E+01 3.83090E+01 0.00000E+00
 -1      3147 8.71500E+01 3.70100E+01 0.00000E+00
 -1      3148 9.09000E+01 3.83090E+01 0.00000E+00
 -1      3149 9.24000E+01 3.83090E+01 0.00000E+00
 -1      3150 9.01500E+01 3.70100E+01 0.00000E+00
 -1      3151 9.39000E+01 3.83090E+01 0.00000E+00
 -1      3152 9.54000E+01 3.83090E+01 0.00000E+00
 -1      3153 9.31500E+01 3.70100E+01 0.00000E+00
 -1      3154 9.69000E+01 3.83090E+01 0.00000E+00
 -1      3155 9.84000E+01 3.83090E+01 0.00000E+00
 -1      3156 9.61500E+01 3.70100E+01 0.00000E+00
 -1      3157 9.99000E+01 3.83090E+01 0.00000E+00
 -1      3158 1.01400E+02 3.83090E+01 0.00000E+00
 -1      3159 9.91500E+01 3.70100E+01 0.00000E+00
 -1      3160 1.02900E+02 3.83090E+01 0.00000E+00
 -1      3161 1.04400E+02 3.83090E+01 0.00000E+00
 -1      3162 1.02150E+02 3.70100E+01 0.00000E+00
 -1      3163 1.05900E+02 3.83090E+01 0.00000E+00
 -1      3164 1.07400E+02 3.83090E+01 0.00000E+00
 -1      3165 1.05150E+02 3.70100E+01 0.00000E+00
 -1      3166 1.08900E+02 3.83090E+01 0.00000E+00
 -1      3167 1.10400E+02 3.83090E+01 0.00000E+00
 -1      3168 1.08150E+02 3.70100E+01 0.00000E+00
 -1      3169 1.11900E+02 3.83090E+01 0.00000E+00
 -1      3170 1.13400E+02 3.83090E+01 0.00000E+00
 -1      3171 1.11150E+02 3.70100E+01 0.00000E+00
 -1      3172 1.14900E+02 3.83090E+01 0.00000E+00
 -1      3173 1.16400E+02 3.83090E+01 0.00000E+00
 -1      3174 1.14150E+02 3.70100E+01 0.00000E+00
 -1      3175 1.17900E+02 3.83090E+01 0.00000E+00
 -1      3176 1.19400E+02 3.83090E+01 0.00000E+00
 -1      3177 1.17150E+02 3.70100E+01 0.00000E+00
 -1      3178 1.23900E+02 3.83315E+01 0.00000E+00
 -1      3179 1.25400E+02 3.83315E+01 0.00000E+00
 -1      3180 1.29900E+02 3.84153E+01 0.00000E+00
 -1      3181 1.31400E+02 3.84153E+01 0.00000E+00
 -1      3182 1.32900E+02 3.84153E+01 0.00000E+00
 -1      3183 1.34400E+02 3.84153E+01 0.00000E+00
 -1      3184 1.32150E+02 3.72226E+01 0.00000E+00
 -1      3185 1.35760E+02 3.84732E+01 0.00000E+00
 -1      3186 1.37260E+02 3.84732E+01 0.00000E+00
 -1      3187 1.37731E+02 3.73962E+01 0.00000E+00
 -1      3188 1.35010E+02 3.72805E+01 0.00000E+00
 -1      3189 3.47850E+01 1.05013E+01 0.00000E+00
 -1      3190 3.32850E+01 1.05013E+01 0.00000E+00
 -1      3191 3.17850E+01 1.05013E+01 0.00000E+00
 -1      3192 3.02850E+01 1.05013E+01 0.00000E+00
 -1      3193 3.25350E+01 1.18003E+01 0.00000E+00
 -1      3194 4.07850E+01 1.05013E+01 0.00000E+00
 -1      3195 3.92850E+01 1.05013E+01 0.00000E+00
 -1      3196 4.37850E+01 1.05013E+01 0.00000E+00
 -1      3197 4.22850E+01 1.05013E+01 0.00000E+00
 -1      3198 4.15350E+01 1.18003E+01 0.00000E+00
 -1      3199 4.67850E+01 1.05013E+01 0.00000E+00
 -1      3200 4.52850E+01 1.05013E+01 0.00000E+00
 -1      3201 4.45350E+01 1.18003E+01 0.00000E+00
 -1      3202 4.97850E+01 1.05013E+01 0.00000E+00
 -1      3203 4.82850E+01 1.05013E+01 0.00000E+00
 -1      3204 4.75350E+01 1.18003E+01 0.00000E+00
 -1      3205 5.27850E+01 1.05013E+01 0.00000E+00
 -1      3206 5.12850E+01 1.05013E+01 0.00000E+00
 -1      3207 5.05350E+01 1.18003E+01 0.00000E+00
 -1      3208 5.57850E+01 1.05013E+01 0.00000E+00
 -1      3209 5.42850E+01 1.05013E+01 0.00000E+00
 -1      3210 5.35350E+01 1.18003E+01 0.00000E+00
 -1      3211 5.87850E+01 1.05013E+01 0.00000E+00
 -1      3212 5.72850E+01 1.05013E+01 0.00000E+00
 -1      3213 5.65350E+01 1.18003E+01 0.00000E+00
 -1      3214 6.17850E+01 1.05013E+01 0.00000E+00
 -1      3215 6.02850E+01 1.05013E+01 0.00000E+00
 -1      3216 5.95350E+01 1.18003E+01 0.00000E+00
 -1      3217 6.47850E+01 1.05013E+01 0.00000E+00
 -1      3218 6.32850E+01 1.05013E+01 0.00000E+00
 -1      3219 6.25350E+01 1.18003E+01 0.00000E+00
 -1      3220 6.77850E+01 1.05013E+01 0.00000E+00
 -1      3221 6.62850E+01 1.05013E+01 0.00000E+00
 -1      3222 6.55350E+01 1.18003E+01 0.00000E+00
 -1      3223 7.07850E+01 1.05013E+01 0.00000E+00
 -1      3224 6.92850E+01 1.05013E+01 0.00000E+00
 -1      3225 6.85350E+01 1.18003E+01 0.00000E+00
 -1      3226 7.37850E+01 1.05013E+01 0.00000E+00
 -1      3227 7.22850E+01 1.05013E+01 0.00000E+00
 -1      3228 7.15350E+01 1.18003E+01 0.00000E+00
 -1      3229 7.67850E+01 1.05013E+01 0.00000E+00
 -1      3230 7.52850E+01 1.05013E+01 0.00000E+00
 -1      3231 7.45350E+01 1.18003E+01 0.00000E+00
 -1      3232 7.97850E+01 1.05013E+01 0.00000E+00
 -1      3233 7.82850E+01 1.05013E+01 0.00000E+00
 -1      3234 7.75350E+01 1.18003E+01 0.00000E+00
 -1      3235 8.27850E+01 1.05013E+01 0.00000E+00
 -1      3236 8.12850E+01 1.05013E+01 0.00000E+00
 -1      3237 8.05350E+01 1.18003E+01 0.00000E+00
 -1      3238 8.57850E+01 1.05013E+01 0.00000E+00
 -1      3239 8.42850E+01 1.05013E+01 0.00000E+00
 -1      3240 8.35350E+01 1.18003E+01 0.00000E+00
 -1      3241 8.87850E+01 1.05013E+01 0.00000E+00
 -1      3242 8.72850E+01 1.05013E+01 0.00000E+00
 -1      3243 8.65350E+01 1.18003E+01 0.00000E+00
 -1      3244 9.17850E+01 1.05013E+01 0.00000E+00
 -1      3245 9.02850E+01 1.05013E+01 0.00000E+00
 -1      3246 8.95350E+01 1.18003E+01 0.00000E+00
 -1      3247 9.47850E+01 1.05013E+01 0.00000E+00
 -1      3248 9.32850E+01 1.05013E+01 0.00000E+00
 -1      3249 9.25350E+01 1.18003E+01 0.00000E+00
 -1      3250 9.77850E+01 1.05013E+01 0.00000E+00
 -1      3251 9.62850E+01 1.05013E+01 0.00000E+00
 -1      3252 9.55350E+01 1.18003E+01 0.00000E+00
 -1      3253 1.00785E+02 1.05013E+01 0.00000E+00
 -1      3254 9.92850E+01 1.05013E+01 0.00000E+00
 -1      3255 9.85350E+01 1.18003E+01 0.00000E+00
 -1      3256 1.03785E+02 1.05013E+01 0.00000E+00
 -1      3257 1.02285E+02 1.05013E+01 0.00000E+00
 -1      3258 1.01535E+02 1.18003E+01 0.00000E+00
 -1      3259 1.06785E+02 1.05013E+01 0.00000E+00
 -1      3260 1.05285E+02 1.05013E+01 0.00000E+00
 -1      3261 1.04535E+02 1.18003E+01 0.00000E+00
 -1      3262 1.09785E+02 1.05013E+01 0.00000E+00
 -1      3263 1.08285E+02 1.05013E+01 0.00000E+00
 -1      3264 1.07535E+02 1.18003E+01 0.00000E+00
 -1      3265 1.12785E+02 1.05013E+01 0.00000E+00
 -1      3266 1.11285E+02 1.05013E+01 0.00000E+00
 -1      3267 1.10535E+02 1.18003E+01 0.00000E+00
 -1      3268 1.15785E+02 1.05013E+01 0.00000E+00
 -1      3269 1.14285E+02 1.05013E+01 0.00000E+00
 -1      3270 1.13535E+02 1.18003E+01 0.00000E+00
 -1      3271 1.18938E+02 1.08586E+01 0.00000E+00
 -1      3272 1.17438E+02 1.08586E+01 0.00000E+00
 -1      3273 1.24653E+02 8.66372E+00 0.00000E+00
 -1      3274 1.14017E+02 2.46042E+01 0.00000E+00
 -1      3275 1.13905E+02 2.33998E+01 0.00000E+00
 -1      3276 1.36861E+02 1.06166E+01 0.00000E+00
 -1      3277 1.35564E+02 1.04435E+01 0.00000E+00
 -1      3278 1.41869E+02 2.46123E+01 0.00000E+00
 -1      3279 1.40760E+02 2.53498E+01 0.00000E+00
 -1      3280 1.38841E+02 3.45625E+01 0.00000E+00
 -1      3281 1.38841E+02 3.30875E+01 0.00000E+00
 -1      3282 1.97850E+01 1.05013E+01 0.00000E+00
 -1      3283 1.82850E+01 1.05013E+01 0.00000E+00
 -1      3284 1.39015E+02 3.18108E+01 0.00000E+00
 -1      3285 1.39015E+02 3.03358E+01 0.00000E+00
 -1      3286 1.38171E+02 2.99948E+01 0.00000E+00
 -1      3287 1.37822E+02 3.25483E+01 0.00000E+00
 -1      3288 1.23671E+02 3.48273E+01 0.00000E+00
 -1      3289 1.22548E+02 3.42114E+01 0.00000E+00
 -1      3290 3.77850E+01 1.05013E+01 0.00000E+00
 -1      3291 3.62850E+01 1.05013E+01 0.00000E+00
 -1      3292 3.55350E+01 1.18003E+01 0.00000E+00
 -1      3293 3.85350E+01 1.18003E+01 0.00000E+00
 -1      3294 1.29713E+02 3.53859E+01 0.00000E+00
 -1      3295 1.28338E+02 3.53831E+01 0.00000E+00
 -1      3296 2.27850E+01 1.05013E+01 0.00000E+00
 -1      3297 2.12850E+01 1.05013E+01 0.00000E+00
 -1      3298 2.05350E+01 1.18003E+01 0.00000E+00
 -1      3299 1.32389E+02 3.46919E+01 0.00000E+00
 -1      3300 1.31237E+02 3.50199E+01 0.00000E+00
 -1      3301 1.17285E+02 3.00980E+01 0.00000E+00
 -1      3302 1.16567E+02 2.89116E+01 0.00000E+00
 -1      3303 1.15309E+02 1.66252E+01 0.00000E+00
 -1      3304 1.15712E+02 1.52355E+01 0.00000E+00
 -1      3305 1.59000E+01 3.83090E+01 0.00000E+00
 -1      3306 1.74000E+01 3.83090E+01 0.00000E+00
 -1      3307 1.81500E+01 3.70100E+01 0.00000E+00
 -1      3308 1.14040E+02 2.20718E+01 0.00000E+00
 -1      3309 1.14094E+02 2.09149E+01 0.00000E+00
 -1      3310 1.26488E+01 1.02017E+01 0.00000E+00
 -1      3311 1.20772E+01 1.14631E+01 0.00000E+00
 -1      3312 1.33763E+01 1.22006E+01 0.00000E+00
 -1      3313 1.41488E+01 1.02017E+01 0.00000E+00
 -1      3314 1.15966E+02 1.33133E+01 0.00000E+00
 -1      3315 1.16688E+02 1.21576E+01 0.00000E+00
 -1      3316 1.16910E+01 2.12875E+01 0.00000E+00
 -1      3317 1.16910E+01 2.27625E+01 0.00000E+00
 -1      3318 1.34845E+02 3.37538E+01 0.00000E+00
 -1      3319 1.33710E+02 3.42852E+01 0.00000E+00
 -1      3320 1.19331E+02 3.22930E+01 0.00000E+00
 -1      3321 1.18319E+02 3.13622E+01 0.00000E+00
 -1      3322 1.00862E+01 3.73269E+01 0.00000E+00
 -1      3323 1.16910E+01 2.42375E+01 0.00000E+00
 -1      3324 1.16910E+01 2.57125E+01 0.00000E+00
 -1      3325 1.29900E+01 2.35000E+01 0.00000E+00
 -1      3326 1.15560E+02 2.84031E+01 0.00000E+00
 -1      3327 1.14554E+02 2.78946E+01 0.00000E+00
 -1      3328 1.15114E+02 2.94837E+01 0.00000E+00
 -1      3329 1.29900E+01 1.46687E+01 0.00000E+00
 -1      3330 1.16910E+01 1.54063E+01 0.00000E+00
 -1      3331 1.16910E+01 1.68750E+01 0.00000E+00
 -1      3332 1.38370E+02 3.56395E+01 0.00000E+00
 -1      3333 1.16910E+01 3.30594E+01 0.00000E+00
 -1      3334 1.16910E+01 3.45281E+01 0.00000E+00
 -1      3335 1.36312E+02 3.31924E+01 0.00000E+00
 -1      3336 1.36180E+02 3.43864E+01 0.00000E+00
 -1      3337 1.21522E+02 3.49056E+01 0.00000E+00
 -1      3338 1.32152E+01 3.82007E+01 0.00000E+00
 -1      3339 1.45576E+01 3.82548E+01 0.00000E+00
 -1      3340 1.53076E+01 3.69558E+01 0.00000E+00
 -1      3341 1.26837E+02 3.67742E+01 0.00000E+00
 -1      3342 1.27587E+02 3.80507E+01 0.00000E+00
 -1      3343 1.20900E+02 3.83090E+01 0.00000E+00
 -1      3344 1.22400E+02 3.83090E+01 0.00000E+00
 -1      3345 1.29087E+02 3.80507E+01 0.00000E+00
 -1      3346 1.14286E+01 3.73811E+01 0.00000E+00
 -1      3347 2.57850E+01 1.05013E+01 0.00000E+00
 -1      3348 2.42850E+01 1.05013E+01 0.00000E+00
 -1      3349 2.35350E+01 1.18003E+01 0.00000E+00
 -1      3350 2.95350E+01 1.18003E+01 0.00000E+00
 -1      3351 2.87850E+01 1.05013E+01 0.00000E+00
 -1      3352 2.72850E+01 1.05013E+01 0.00000E+00
 -1      3353 1.20343E+02 1.04431E+01 0.00000E+00
 -1      3354 1.20150E+02 3.70100E+01 0.00000E+00
 -1      3355 1.14442E+02 1.71481E+01 0.00000E+00
 -1      3356 1.13928E+02 2.54595E+01 0.00000E+00
 -1      3357 1.12768E+02 2.49603E+01 0.00000E+00
 -1      3358 1.13840E+02 2.63148E+01 0.00000E+00
 -1      3359 1.39008E+02 1.07829E+01 0.00000E+00
 -1      3360 1.37840E+02 1.05023E+01 0.00000E+00
 -1      3361 1.39024E+02 1.20724E+01 0.00000E+00
 -1      3362 1.19267E+02 3.35303E+01 0.00000E+00
 -1      3363 1.14780E+02 1.37225E+01 0.00000E+00
 -1      3364 1.16910E+01 1.83469E+01 0.00000E+00
 -1      3365 1.16910E+01 1.98156E+01 0.00000E+00
 -1      3366 1.29900E+01 2.05531E+01 0.00000E+00
 -1      3367 1.29900E+01 1.76094E+01 0.00000E+00
 -1      3368 1.17154E+02 3.12564E+01 0.00000E+00
 -1      3369 1.24648E+02 3.57192E+01 0.00000E+00
 -1      3370 1.23674E+02 3.61631E+01 0.00000E+00
 -1      3371 1.37166E+02 1.19166E+01 0.00000E+00
 -1      3372 1.38064E+02 1.27375E+01 0.00000E+00
 -1      3373 1.33391E+02 3.53545E+01 0.00000E+00
 -1      3374 1.12992E+02 2.27769E+01 0.00000E+00
 -1      3375 1.29837E+02 3.68580E+01 0.00000E+00
 -1      3376 1.37409E+02 3.10777E+01 0.00000E+00
 -1      3377 1.37235E+02 3.23545E+01 0.00000E+00
 -1      3378 1.16910E+01 3.01219E+01 0.00000E+00
 -1      3379 1.16910E+01 3.15906E+01 0.00000E+00
 -1      3380 1.29900E+01 3.23250E+01 0.00000E+00
 -1      3381 1.13742E+02 2.00502E+01 0.00000E+00
 -1      3382 1.13391E+02 1.91854E+01 0.00000E+00
 -1      3383 1.12775E+02 2.05841E+01 0.00000E+00
 -1      3384 1.30547E+02 3.61274E+01 0.00000E+00
 -1      3385 1.69669E+01 1.03515E+01 0.00000E+00
 -1      3386 1.54669E+01 1.03515E+01 0.00000E+00
 -1      3387 1.50806E+01 1.13509E+01 0.00000E+00
 -1      3388 1.77169E+01 1.16505E+01 0.00000E+00
 -1      3389 1.41199E+02 1.60700E+01 0.00000E+00
 -1      3390 1.23150E+02 3.70325E+01 0.00000E+00
 -1      3391 1.38942E+02 1.30076E+01 0.00000E+00
 -1      3392 1.13474E+02 1.76820E+01 0.00000E+00
 -1      3393 1.13558E+02 1.61787E+01 0.00000E+00
 -1      3394 1.12507E+02 1.82160E+01 0.00000E+00
 -1      3395 2.34000E+01 3.57110E+01 0.00000E+00
 -1      3396 2.49000E+01 3.57110E+01 0.00000E+00
 -1      3397 2.64000E+01 3.57110E+01 0.00000E+00
 -1      3398 2.79000E+01 3.57110E+01 0.00000E+00
 -1      3399 2.56500E+01 3.44120E+01 0.00000E+00
 -1      3400 2.94000E+01 3.57110E+01 0.00000E+00
 -1      3401 3.09000E+01 3.57110E+01 0.00000E+00
 -1      3402 2.86500E+01 3.44120E+01 0.00000E+00
 -1      3403 3.24000E+01 3.57110E+01 0.00000E+00
 -1      3404 3.39000E+01 3.57110E+01 0.00000E+00
 -1      3405 3.16500E+01 3.44120E+01 0.00000E+00
 -1      3406 3.54000E+01 3.57110E+01 0.00000E+00
 -1      3407 3.69000E+01 3.57110E+01 0.00000E+00
 -1      3408 3.46500E+01 3.44120E+01 0.00000E+00
 -1      3409 3.84000E+01 3.57110E+01 0.00000E+00
 -1      3410 3.99000E+01 3.57110E+01 0.00000E+00
 -1      3411 3.76500E+01 3.44120E+01 0.00000E+00
 -1      3412 4.14000E+01 3.57110E+01 0.00000E+00
 -1      3413 4.29000E+01 3.57110E+01 0.00000E+00
 -1      3414 4.06500E+01 3.44120E+01 0.00000E+00
 -1      3415 4.44000E+01 3.57110E+01 0.00000E+00
 -1      3416 4.59000E+01 3.57110E+01 0.00000E+00
 -1      3417 4.36500E+01 3.44120E+01 0.00000E+00
 -1      3418 4.74000E+01 3.57110E+01 0.00000E+00
 -1      3419 4.89000E+01 3.57110E+01 0.00000E+00
 -1      3420 4.66500E+01 3.44120E+01 0.00000E+00
 -1      3421 5.04000E+01 3.57110E+01 0.00000E+00
 -1      3422 5.19000E+01 3.57110E+01 0.00000E+00
 -1      3423 4.96500E+01 3.44120E+01 0.00000E+00
 -1      3424 5.34000E+01 3.57110E+01 0.00000E+00
 -1      3425 5.49000E+01 3.57110E+01 0.00000E+00
 -1      3426 5.26500E+01 3.44120E+01 0.00000E+00
 -1      3427 5.64000E+01 3.57110E+01 0.00000E+00
 -1      3428 5.79000E+01 3.57110E+01 0.00000E+00
 -1      3429 5.56500E+01 3.44120E+01 0.00000E+00
 -1      3430 5.94000E+01 3.57110E+01 0.00000E+00
 -1      3431 6.09000E+01 3.57110E+01 0.00000E+00
 -1      3432 5.86500E+01 3.44120E+01 0.00000E+00
 -1      3433 6.24000E+01 3.57110E+01 0.00000E+00
 -1      3434 6.39000E+01 3.57110E+01 0.00000E+00
 -1      3435 6.16500E+01 3.44120E+01 0.00000E+00
 -1      3436 6.54000E+01 3.57110E+01 0.00000E+00
 -1      3437 6.69000E+01 3.57110E+01 0.00000E+00
 -1      3438 6.46500E+01 3.44120E+01 0.00000E+00
 -1      3439 6.84000E+01 3.57110E+01 0.00000E+00
 -1      3440 6.99000E+01 3.57110E+01 0.00000E+00
 -1      3441 6.76500E+01 3.44120E+01 0.00000E+00
 -1      3442 7.14000E+01 3.57110E+01 0.00000E+00
 -1      3443 7.29000E+01 3.57110E+01 0.00000E+00
 -1      3444 7.06500E+01 3.44120E+01 0.00000E+00
 -1      3445 7.44000E+01 3.57110E+01 0.00000E+00
 -1      3446 7.59000E+01 3.57110E+01 0.00000E+00
 -1      3447 7.36500E+01 3.44120E+01 0.00000E+00
 -1      3448 7.74000E+01 3.57110E+01 0.00000E+00
 -1      3449 7.89000E+01 3.57110E+01 0.00000E+00
 -1      3450 7.66500E+01 3.44120E+01 0.00000E+00
 -1      3451 8.04000E+01 3.57110E+01 0.00000E+00
 -1      3452 8.19000E+01 3.57110E+01 0.00000E+00
 -1      3453 7.96500E+01 3.44120E+01 0.00000E+00
 -1      3454 8.34000E+01 3.57110E+01 0.00000E+00
 -1      3455 8.49000E+01 3.57110E+01 0.00000E+00
 -1      3456 8.26500E+01 3.44120E+01 0.00000E+00
 -1      3457 8.64000E+01 3.57110E+01 0.00000E+00
 -1      3458 8.79000E+01 3.57110E+01 0.00000E+00
 -1      3459 8.56500E+01 3.44120E+01 0.00000E+00
 -1      3460 8.94000E+01 3.57110E+01 0.00000E+00
 -1      3461 9.09000E+01 3.57110E+01 0.00000E+00
 -1      3462 8.86500E+01 3.44120E+01 0.00000E+00
 -1      3463 9.24000E+01 3.57110E+01 0.00000E+00
 -1      3464 9.39000E+01 3.57110E+01 0.00000E+00
 -1      3465 9.16500E+01 3.44120E+01 0.00000E+00
 -1      3466 9.54000E+01 3.57110E+01 0.00000E+00
 -1      3467 9.69000E+01 3.57110E+01 0.00000E+00
 -1      3468 9.46500E+01 3.44120E+01 0.00000E+00
 -1      3469 9.84000E+01 3.57110E+01 0.00000E+00
 -1      3470 9.99000E+01 3.57110E+01 0.00000E+00
 -1      3471 9.76500E+01 3.44120E+01 0.00000E+00
 -1      3472 1.01400E+02 3.57110E+01 0.00000E+00
 -1      3473 1.02900E+02 3.57110E+01 0.00000E+00
 -1      3474 1.00650E+02 3.44120E+01 0.00000E+00
 -1      3475 1.04400E+02 3.57110E+01 0.00000E+00
 -1      3476 1.05900E+02 3.57110E+01 0.00000E+00
 -1      3477 1.03650E+02 3.44120E+01 0.00000E+00
 -1      3478 1.07400E+02 3.57110E+01 0.00000E+00
 -1      3479 1.08900E+02 3.57110E+01 0.00000E+00
 -1      3480 1.06650E+02 3.44120E+01 0.00000E+00
 -1      3481 1.10400E+02 3.57110E+01 0.00000E+00
 -1      3482 1.11900E+02 3.57110E+01 0.00000E+00
 -1      3483 1.09650E+02 3.44120E+01 0.00000E+00
 -1      3484 1.13400E+02 3.57110E+01 0.00000E+00
 -1      3485 1.14900E+02 3.57110E+01 0.00000E+00
 -1      3486 1.12650E+02 3.44120E+01 0.00000E+00
 -1      3487 1.27529E+02 3.61193E+01 0.00000E+00
 -1      3488 3.32850E+01 1.30992E+01 0.00000E+00
 -1      3489 3.17850E+01 1.30992E+01 0.00000E+00
 -1      3490 4.52850E+01 1.30992E+01 0.00000E+00
 -1      3491 4.37850E+01 1.30992E+01 0.00000E+00
 -1      3492 4.22850E+01 1.30992E+01 0.00000E+00
 -1      3493 4.07850E+01 1.30992E+01 0.00000E+00
 -1      3494 4.30350E+01 1.43982E+01 0.00000E+00
 -1      3495 5.12850E+01 1.30992E+01 0.00000E+00
 -1      3496 4.97850E+01 1.30992E+01 0.00000E+00
 -1      3497 5.42850E+01 1.30992E+01 0.00000E+00
 -1      3498 5.27850E+01 1.30992E+01 0.00000E+00
 -1      3499 5.20350E+01 1.43982E+01 0.00000E+00
 -1      3500 5.72850E+01 1.30992E+01 0.00000E+00
 -1      3501 5.57850E+01 1.30992E+01 0.00000E+00
 -1      3502 5.50350E+01 1.43982E+01 0.00000E+00
 -1      3503 6.02850E+01 1.30992E+01 0.00000E+00
 -1      3504 5.87850E+01 1.30992E+01 0.00000E+00
 -1      3505 5.80350E+01 1.43982E+01 0.00000E+00
 -1      3506 6.32850E+01 1.30992E+01 0.00000E+00
 -1      3507 6.17850E+01 1.30992E+01 0.00000E+00
 -1      3508 6.10350E+01 1.43982E+01 0.00000E+00
 -1      3509 6.62850E+01 1.30992E+01 0.00000E+00
 -1      3510 6.47850E+01 1.30992E+01 0.00000E+00
 -1      3511 6.40350E+01 1.43982E+01 0.00000E+00
 -1      3512 6.92850E+01 1.30992E+01 0.00000E+00
 -1      3513 6.77850E+01 1.30992E+01 0.00000E+00
 -1      3514 6.70350E+01 1.43982E+01 0.00000E+00
 -1      3515 7.22850E+01 1.30992E+01 0.00000E+00
 -1      3516 7.07850E+01 1.30992E+01 0.00000E+00
 -1      3517 7.00350E+01 1.43982E+01 0.00000E+00
 -1      3518 7.52850E+01 1.30992E+01 0.00000E+00
 -1      3519 7.37850E+01 1.30992E+01 0.00000E+00
 -1      3520 7.30350E+01 1.43982E+01 0.00000E+00
 -1      3521 7.82850E+01 1.30992E+01 0.00000E+00
 -1      3522 7.67850E+01 1.30992E+01 0.00000E+00
 -1      3523 7.60350E+01 1.43982E+01 0.00000E+00
 -1      3524 8.12850E+01 1.30992E+01 0.00000E+00
 -1      3525 7.97850E+01 1.30992E+01 0.00000E+00
 -1      3526 7.90350E+01 1.43982E+01 0.00000E+00
 -1      3527 8.42850E+01 1.30992E+01 0.00000E+00
 -1      3528 8.27850E+01 1.30992E+01 0.00000E+00
 -1      3529 8.20350E+01 1.43982E+01 0.00000E+00
 -1      3530 8.72850E+01 1.30992E+01 0.00000E+00
 -1      3531 8.57850E+01 1.30992E+01 0.00000E+00
 -1      3532 8.50350E+01 1.43982E+01 0.00000E+00
 -1      3533 9.02850E+01 1.30992E+01 0.00000E+00
 -1      3534 8.87850E+01 1.30992E+01 0.00000E+00
 -1      3535 8.80350E+01 1.43982E+01 0.00000E+00
 -1      3536 9.32850E+01 1.30992E+01 0.00000E+00
 -1      3537 9.17850E+01 1.30992E+01 0.00000E+00
 -1      3538 9.10350E+01 1.43982E+01 0.00000E+00
 -1      3539 9.62850E+01 1.30992E+01 0.00000E+00
 -1      3540 9.47850E+01 1.30992E+01 0.00000E+00
 -1      3541 9.40350E+01 1.43982E+01 0.00000E+00
 -1      3542 9.92850E+01 1.30992E+01 0.00000E+00
 -1      3543 9.77850E+01 1.30992E+01 0.00000E+00
 -1      3544 9.70350E+01 1.43982E+01 0.00000E+00
 -1      3545 1.02285E+02 1.30992E+01 0.00000E+00
 -1      3546 1.00785E+02 1.30992E+01 0.00000E+00
 -1      3547 1.00035E+02 1.43982E+01 0.00000E+00
 -1      3548 1.05285E+02 1.30992E+01 0.00000E+00
 -1      3549 1.03785E+02 1.30992E+01 0.00000E+00
 -1      3550 1.03035E+02 1.43982E+01 0.00000E+00
 -1      3551 1.08285E+02 1.30992E+01 0.00000E+00
 -1      3552 1.06785E+02 1.30992E+01 0.00000E+00
 -1      3553 1.06035E+02 1.43982E+01 0.00000E+00
 -1      3554 1.11285E+02 1.30992E+01 0.00000E+00
 -1      3555 1.09785E+02 1.30992E+01 0.00000E+00
 -1      3556 1.09035E+02 1.43982E+01 0.00000E+00
 -1      3557 1.13280E+02 1.37225E+01 0.00000E+00
 -1      3558 1.19107E+02 3.47838E+01 0.00000E+00
 -1      3559 1.18027E+02 3.37741E+01 0.00000E+00
 -1      3560 1.25342E+02 3.64001E+01 0.00000E+00
 -1      3561 1.21786E+01 3.60821E+01 0.00000E+00
 -1      3562 1.34776E+01 3.53477E+01 0.00000E+00
 -1      3563 1.39956E+02 1.54182E+01 0.00000E+00
 -1      3564 2.12850E+01 1.30992E+01 0.00000E+00
 -1      3565 1.97850E+01 1.30992E+01 0.00000E+00
 -1      3566 1.16813E+02 3.25904E+01 0.00000E+00
 -1      3567 1.15779E+02 3.13262E+01 0.00000E+00
 -1      3568 1.74000E+01 3.57110E+01 0.00000E+00
 -1      3569 1.89000E+01 3.57110E+01 0.00000E+00
 -1      3570 1.16910E+01 2.71844E+01 0.00000E+00
 -1      3571 1.16910E+01 2.86531E+01 0.00000E+00
 -1      3572 1.29900E+01 2.93875E+01 0.00000E+00
 -1      3573 1.11737E+02 2.33203E+01 0.00000E+00
 -1      3574 1.11873E+02 2.19923E+01 0.00000E+00
 -1      3575 4.82850E+01 1.30992E+01 0.00000E+00
 -1      3576 4.67850E+01 1.30992E+01 0.00000E+00
 -1      3577 4.60350E+01 1.43982E+01 0.00000E+00
 -1      3578 4.90350E+01 1.43982E+01 0.00000E+00
 -1      3579 1.37009E+02 3.55817E+01 0.00000E+00
 -1      3580 1.22174E+02 3.61406E+01 0.00000E+00
 -1      3581 2.04000E+01 3.57110E+01 0.00000E+00
 -1      3582 2.19000E+01 3.57110E+01 0.00000E+00
 -1      3583 2.26500E+01 3.44120E+01 0.00000E+00
 -1      3584 1.20998E+02 3.57750E+01 0.00000E+00
 -1      3585 1.19498E+02 3.57750E+01 0.00000E+00
 -1      3586 1.18258E+02 3.60188E+01 0.00000E+00
 -1      3587 1.14772E+02 3.08177E+01 0.00000E+00
 -1      3588 1.13766E+02 3.03092E+01 0.00000E+00
 -1      3589 1.14431E+02 3.21517E+01 0.00000E+00
 -1      3590 1.42890E+01 1.39344E+01 0.00000E+00
 -1      3591 1.42890E+01 1.54031E+01 0.00000E+00
 -1      3592 1.42890E+01 3.15906E+01 0.00000E+00
 -1      3593 1.42890E+01 3.30594E+01 0.00000E+00
 -1      3594 1.16008E+02 3.47198E+01 0.00000E+00
 -1      3595 1.16758E+02 3.60188E+01 0.00000E+00
 -1      3596 1.42890E+01 2.27625E+01 0.00000E+00
 -1      3597 1.42890E+01 2.42375E+01 0.00000E+00
 -1      3598 1.35542E+02 3.61430E+01 0.00000E+00
 -1      3599 1.45545E+01 3.42306E+01 0.00000E+00
 -1      3600 1.50421E+01 3.57846E+01 0.00000E+00
 -1      3601 1.63845E+01 3.58387E+01 0.00000E+00
 -1      3602 1.58535E+01 3.34963E+01 0.00000E+00
 -1      3603 3.47850E+01 1.30992E+01 0.00000E+00
 -1      3604 3.40350E+01 1.43982E+01 0.00000E+00
 -1      3605 3.62850E+01 1.30992E+01 0.00000E+00
 -1      3606 1.34181E+02 3.60852E+01 0.00000E+00
 -1      3607 1.71345E+01 3.45397E+01 0.00000E+00
 -1      3608 2.65350E+01 1.18003E+01 0.00000E+00
 -1      3609 3.02850E+01 1.30992E+01 0.00000E+00
 -1      3610 2.87850E+01 1.30992E+01 0.00000E+00
 -1      3611 3.10350E+01 1.43982E+01 0.00000E+00
 -1      3612 4.00350E+01 1.43982E+01 0.00000E+00
 -1      3613 3.92850E+01 1.30992E+01 0.00000E+00
 -1      3614 3.77850E+01 1.30992E+01 0.00000E+00
 -1      3615 1.12530E+02 1.50215E+01 0.00000E+00
 -1      3616 1.13393E+02 2.73954E+01 0.00000E+00
 -1      3617 1.12233E+02 2.68962E+01 0.00000E+00
 -1      3618 1.12947E+02 2.84760E+01 0.00000E+00
 -1      3619 1.29900E+01 2.64469E+01 0.00000E+00
 -1      3620 1.32860E+02 3.64920E+01 0.00000E+00
 -1      3621 1.31360E+02 3.64920E+01 0.00000E+00
 -1      3622 1.16652E+02 3.38439E+01 0.00000E+00
 -1      3623 2.27850E+01 1.30992E+01 0.00000E+00
 -1      3624 2.20350E+01 1.43982E+01 0.00000E+00
 -1      3625 2.42850E+01 1.30992E+01 0.00000E+00
 -1      3626 1.11560E+02 2.50309E+01 0.00000E+00
 -1      3627 1.11649E+02 2.41756E+01 0.00000E+00
 -1      3628 1.10530E+02 2.33909E+01 0.00000E+00
 -1      3629 1.90350E+01 1.43983E+01 0.00000E+00
 -1      3630 1.82850E+01 1.30993E+01 0.00000E+00
 -1      3631 1.96500E+01 3.44120E+01 0.00000E+00
 -1      3632 1.69669E+01 1.29495E+01 0.00000E+00
 -1      3633 1.10267E+02 2.16708E+01 0.00000E+00
 -1      3634 1.11521E+02 2.11275E+01 0.00000E+00
 -1      3635 1.11169E+02 2.02627E+01 0.00000E+00
 -1      3636 1.42890E+01 1.98188E+01 0.00000E+00
 -1      3637 1.42890E+01 2.12906E+01 0.00000E+00
 -1      3638 1.55880E+01 2.20281E+01 0.00000E+00
 -1      3639 1.46944E+01 1.23503E+01 0.00000E+00
 -1      3640 1.59934E+01 1.30847E+01 0.00000E+00
 -1      3641 1.55880E+01 2.49719E+01 0.00000E+00
 -1      3642 1.42890E+01 2.57094E+01 0.00000E+00
 -1      3643 1.42890E+01 2.71812E+01 0.00000E+00
 -1      3644 1.68690E+01 3.33685E+01 0.00000E+00
 -1      3645 1.78845E+01 3.32407E+01 0.00000E+00
 -1      3646 1.66035E+01 3.21973E+01 0.00000E+00
 -1      3647 2.49000E+01 3.31130E+01 0.00000E+00
 -1      3648 2.64000E+01 3.31130E+01 0.00000E+00
 -1      3649 1.42890E+01 3.01219E+01 0.00000E+00
 -1      3650 1.55880E+01 3.08563E+01 0.00000E+00
 -1      3651 1.42890E+01 2.86531E+01 0.00000E+00
 -1      3652 2.79000E+01 3.31130E+01 0.00000E+00
 -1      3653 2.94000E+01 3.31130E+01 0.00000E+00
 -1      3654 2.71500E+01 3.18140E+01 0.00000E+00
 -1      3655 3.09000E+01 3.31130E+01 0.00000E+00
 -1      3656 3.24000E+01 3.31130E+01 0.00000E+00
 -1      3657 3.01500E+01 3.18140E+01 0.00000E+00
 -1      3658 3.39000E+01 3.31130E+01 0.00000E+00
 -1      3659 3.54000E+01 3.31130E+01 0.00000E+00
 -1      3660 3.31500E+01 3.18140E+01 0.00000E+00
 -1      3661 3.69000E+01 3.31130E+01 0.00000E+00
 -1      3662 3.84000E+01 3.31130E+01 0.00000E+00
 -1      3663 3.61500E+01 3.18140E+01 0.00000E+00
 -1      3664 3.99000E+01 3.31130E+01 0.00000E+00
 -1      3665 4.14000E+01 3.31130E+01 0.00000E+00
 -1      3666 3.91500E+01 3.18140E+01 0.00000E+00
 -1      3667 4.29000E+01 3.31130E+01 0.00000E+00
 -1      3668 4.44000E+01 3.31130E+01 0.00000E+00
 -1      3669 4.21500E+01 3.18140E+01 0.00000E+00
 -1      3670 4.59000E+01 3.31130E+01 0.00000E+00
 -1      3671 4.74000E+01 3.31130E+01 0.00000E+00
 -1      3672 4.51500E+01 3.18140E+01 0.00000E+00
 -1      3673 4.89000E+01 3.31130E+01 0.00000E+00
 -1      3674 5.04000E+01 3.31130E+01 0.00000E+00
 -1      3675 4.81500E+01 3.18140E+01 0.00000E+00
 -1      3676 5.19000E+01 3.31130E+01 0.00000E+00
 -1      3677 5.34000E+01 3.31130E+01 0.00000E+00
 -1      3678 5.11500E+01 3.18140E+01 0.00000E+00
 -1      3679 5.49000E+01 3.31130E+01 0.00000E+00
 -1      3680 5.64000E+01 3.31130E+01 0.00000E+00
 -1      3681 5.41500E+01 3.18140E+01 0.00000E+00
 -1      3682 5.79000E+01 3.31130E+01 0.00000E+00
 -1      3683 5.94000E+01 3.31130E+01 0.00000E+00
 -1      3684 5.71500E+01 3.18140E+01 0.00000E+00
 -1      3685 6.09000E+01 3.31130E+01 0.00000E+00
 -1      3686 6.24000E+01 3.31130E+01 0.00000E+00
 -1      3687 6.01500E+01 3.18140E+01 0.00000E+00
 -1      3688 6.39000E+01 3.31130E+01 0.00000E+00
 -1      3689 6.54000E+01 3.31130E+01 0.00000E+00
 -1      3690 6.31500E+01 3.18140E+01 0.00000E+00
 -1      3691 6.69000E+01 3.31130E+01 0.00000E+00
 -1      3692 6.84000E+01 3.31130E+01 0.00000E+00
 -1      3693 6.61500E+01 3.18140E+01 0.00000E+00
 -1      3694 6.99000E+01 3.31130E+01 0.00000E+00
 -1      3695 7.14000E+01 3.31130E+01 0.00000E+00
 -1      3696 6.91500E+01 3.18140E+01 0.00000E+00
 -1      3697 7.29000E+01 3.31130E+01 0.00000E+00
 -1      3698 7.44000E+01 3.31130E+01 0.00000E+00
 -1      3699 7.21500E+01 3.18140E+01 0.00000E+00
 -1      3700 7.59000E+01 3.31130E+01 0.00000E+00
 -1      3701 7.74000E+01 3.31130E+01 0.00000E+00
 -1      3702 7.51500E+01 3.18140E+01 0.00000E+00
 -1      3703 7.89000E+01 3.31130E+01 0.00000E+00
 -1      3704 8.04000E+01 3.31130E+01 0.00000E+00
 -1      3705 7.81500E+01 3.18140E+01 0.00000E+00
 -1      3706 8.19000E+01 3.31130E+01 0.00000E+00
 -1      3707 8.34000E+01 3.31130E+01 0.00000E+00
 -1      3708 8.11500E+01 3.18140E+01 0.00000E+00
 -1      3709 8.49000E+01 3.31130E+01 0.00000E+00
 -1      3710 8.64000E+01 3.31130E+01 0.00000E+00
 -1      3711 8.41500E+01 3.18140E+01 0.00000E+00
 -1      3712 8.79000E+01 3.31130E+01 0.00000E+00
 -1      3713 8.94000E+01 3.31130E+01 0.00000E+00
 -1      3714 8.71500E+01 3.18140E+01 0.00000E+00
 -1      3715 9.09000E+01 3.31130E+01 0.00000E+00
 -1      3716 9.24000E+01 3.31130E+01 0.00000E+00
 -1      3717 9.01500E+01 3.18140E+01 0.00000E+00
 -1      3718 9.39000E+01 3.31130E+01 0.00000E+00
 -1      3719 9.54000E+01 3.31130E+01 0.00000E+00
 -1      3720 9.31500E+01 3.18140E+01 0.00000E+00
 -1      3721 9.69000E+01 3.31130E+01 0.00000E+00
 -1      3722 9.84000E+01 3.31130E+01 0.00000E+00
 -1      3723 9.61500E+01 3.18140E+01 0.00000E+00
 -1      3724 9.99000E+01 3.31130E+01 0.00000E+00
 -1      3725 1.01400E+02 3.31130E+01 0.00000E+00
 -1      3726 9.91500E+01 3.18140E+01 0.00000E+00
 -1      3727 1.02900E+02 3.31130E+01 0.00000E+00
 -1      3728 1.04400E+02 3.31130E+01 0.00000E+00
 -1      3729 1.02150E+02 3.18140E+01 0.00000E+00
 -1      3730 1.05900E+02 3.31130E+01 0.00000E+00
 -1      3731 1.07400E+02 3.31130E+01 0.00000E+00
 -1      3732 1.05150E+02 3.18140E+01 0.00000E+00
 -1      3733 1.08900E+02 3.31130E+01 0.00000E+00
 -1      3734 1.10400E+02 3.31130E+01 0.00000E+00
 -1      3735 1.08150E+02 3.18140E+01 0.00000E+00
 -1      3736 1.38958E+02 1.42971E+01 0.00000E+00
 -1      3737 1.14794E+02 3.35361E+01 0.00000E+00
 -1      3738 5.57850E+01 1.56973E+01 0.00000E+00
 -1      3739 5.42850E+01 1.56973E+01 0.00000E+00
 -1      3740 5.27850E+01 1.56973E+01 0.00000E+00
 -1      3741 5.12850E+01 1.56973E+01 0.00000E+00
 -1      3742 5.35350E+01 1.69963E+01 0.00000E+00
 -1      3743 6.17850E+01 1.56973E+01 0.00000E+00
 -1      3744 6.02850E+01 1.56973E+01 0.00000E+00
 -1      3745 6.47850E+01 1.56973E+01 0.00000E+00
 -1      3746 6.32850E+01 1.56973E+01 0.00000E+00
 -1      3747 6.25350E+01 1.69963E+01 0.00000E+00
 -1      3748 6.77850E+01 1.56973E+01 0.00000E+00
 -1      3749 6.62850E+01 1.56973E+01 0.00000E+00
 -1      3750 6.55350E+01 1.69963E+01 0.00000E+00
 -1      3751 7.07850E+01 1.56973E+01 0.00000E+00
 -1      3752 6.92850E+01 1.56973E+01 0.00000E+00
 -1      3753 6.85350E+01 1.69963E+01 0.00000E+00
 -1      3754 7.37850E+01 1.56973E+01 0.00000E+00
 -1      3755 7.22850E+01 1.56973E+01 0.00000E+00
 -1      3756 7.15350E+01 1.69963E+01 0.00000E+00
 -1      3757 7.67850E+01 1.56973E+01 0.00000E+00
 -1      3758 7.52850E+01 1.56973E+01 0.00000E+00
 -1      3759 7.45350E+01 1.69963E+01 0.00000E+00
 -1      3760 7.97850E+01 1.56973E+01 0.00000E+00
 -1      3761 7.82850E+01 1.56973E+01 0.00000E+00
 -1      3762 7.75350E+01 1.69963E+01 0.00000E+00
 -1      3763 8.27850E+01 1.56973E+01 0.00000E+00
 -1      3764 8.12850E+01 1.56973E+01 0.00000E+00
 -1      3765 8.05350E+01 1.69963E+01 0.00000E+00
 -1      3766 8.57850E+01 1.56973E+01 0.00000E+00
 -1      3767 8.42850E+01 1.56973E+01 0.00000E+00
 -1      3768 8.35350E+01 1.69963E+01 0.00000E+00
 -1      3769 8.87850E+01 1.56973E+01 0.00000E+00
 -1      3770 8.72850E+01 1.56973E+01 0.00000E+00
 -1      3771 8.65350E+01 1.69963E+01 0.00000E+00
 -1      3772 9.17850E+01 1.56973E+01 0.00000E+00
 -1      3773 9.02850E+01 1.56973E+01 0.00000E+00
 -1      3774 8.95350E+01 1.69963E+01 0.00000E+00
 -1      3775 9.47850E+01 1.56973E+01 0.00000E+00
 -1      3776 9.32850E+01 1.56973E+01 0.00000E+00
 -1      3777 9.25350E+01 1.69963E+01 0.00000E+00
 -1      3778 9.77850E+01 1.56973E+01 0.00000E+00
 -1      3779 9.62850E+01 1.56973E+01 0.00000E+00
 -1      3780 9.55350E+01 1.69963E+01 0.00000E+00
 -1      3781 1.00785E+02 1.56973E+01 0.00000E+00
 -1      3782 9.92850E+01 1.56973E+01 0.00000E+00
 -1      3783 9.85350E+01 1.69963E+01 0.00000E+00
 -1      3784 1.03785E+02 1.56973E+01 0.00000E+00
 -1      3785 1.02285E+02 1.56973E+01 0.00000E+00
 -1      3786 1.01535E+02 1.69963E+01 0.00000E+00
 -1      3787 1.06785E+02 1.56973E+01 0.00000E+00
 -1      3788 1.05285E+02 1.56973E+01 0.00000E+00
 -1      3789 1.04535E+02 1.69963E+01 0.00000E+00
 -1      3790 1.09785E+02 1.56973E+01 0.00000E+00
 -1      3791 1.08285E+02 1.56973E+01 0.00000E+00
 -1      3792 1.07535E+02 1.69963E+01 0.00000E+00
 -1      3793 1.11563E+02 1.55554E+01 0.00000E+00
 -1      3794 1.13787E+02 3.30276E+01 0.00000E+00
 -1      3795 5.87850E+01 1.56973E+01 0.00000E+00
 -1      3796 5.72850E+01 1.56973E+01 0.00000E+00
 -1      3797 5.95350E+01 1.69963E+01 0.00000E+00
 -1      3798 2.72850E+01 1.30992E+01 0.00000E+00
 -1      3799 2.57850E+01 1.30992E+01 0.00000E+00
 -1      3800 2.80350E+01 1.43982E+01 0.00000E+00
 -1      3801 1.97850E+01 1.56973E+01 0.00000E+00
 -1      3802 1.82851E+01 1.56973E+01 0.00000E+00
 -1      3803 1.55880E+01 1.61406E+01 0.00000E+00
 -1      3804 1.42890E+01 1.68750E+01 0.00000E+00
 -1      3805 1.42890E+01 1.83469E+01 0.00000E+00
 -1      3806 1.65615E+01 1.45335E+01 0.00000E+00
 -1      3807 4.37850E+01 1.56973E+01 0.00000E+00
 -1      3808 4.22850E+01 1.56973E+01 0.00000E+00
 -1      3809 2.19000E+01 3.31130E+01 0.00000E+00
 -1      3810 2.34000E+01 3.31130E+01 0.00000E+00
 -1      3811 2.41500E+01 3.18140E+01 0.00000E+00
 -1      3812 1.91423E+01 3.31769E+01 0.00000E+00
 -1      3813 2.06423E+01 3.31769E+01 0.00000E+00
 -1      3814 2.13923E+01 3.18779E+01 0.00000E+00
 -1      3815 1.88768E+01 3.20056E+01 0.00000E+00
 -1      3816 1.10813E+02 1.68544E+01 0.00000E+00
 -1      3817 1.74233E+01 1.58513E+01 0.00000E+00
 -1      3818 1.64498E+01 1.59866E+01 0.00000E+00
 -1      3819 1.64498E+01 1.74584E+01 0.00000E+00
 -1      3820 1.81733E+01 1.71503E+01 0.00000E+00
 -1      3821 1.55880E+01 2.79156E+01 0.00000E+00
 -1      3822 1.66035E+01 3.07285E+01 0.00000E+00
 -1      3823 1.11537E+02 3.17286E+01 0.00000E+00
 -1      3824 1.12287E+02 3.30276E+01 0.00000E+00
 -1      3825 5.65350E+01 1.69963E+01 0.00000E+00
 -1      3826 3.17850E+01 1.56973E+01 0.00000E+00
 -1      3827 3.02850E+01 1.56973E+01 0.00000E+00
 -1      3828 4.07850E+01 1.56973E+01 0.00000E+00
 -1      3829 3.92850E+01 1.56973E+01 0.00000E+00
 -1      3830 4.15350E+01 1.69963E+01 0.00000E+00
 -1      3831 5.05350E+01 1.69963E+01 0.00000E+00
 -1      3832 4.97850E+01 1.56973E+01 0.00000E+00
 -1      3833 4.82850E+01 1.56973E+01 0.00000E+00
 -1      3834 1.12605E+02 2.98100E+01 0.00000E+00
 -1      3835 1.10668E+02 2.71921E+01 0.00000E+00
 -1      3836 1.11114E+02 2.61115E+01 0.00000E+00
 -1      3837 1.09995E+02 2.53268E+01 0.00000E+00
 -1      3838 3.70350E+01 1.43982E+01 0.00000E+00
 -1      3839 3.47850E+01 1.56973E+01 0.00000E+00
 -1      3840 3.32850E+01 1.56973E+01 0.00000E+00
 -1      3841 3.25350E+01 1.69963E+01 0.00000E+00
 -1      3842 2.12850E+01 1.56973E+01 0.00000E+00
 -1      3843 2.05351E+01 1.69963E+01 0.00000E+00
 -1      3844 2.27850E+01 1.56973E+01 0.00000E+00
 -1      3845 2.50350E+01 1.43982E+01 0.00000E+00
 -1      3846 1.10729E+02 1.83578E+01 0.00000E+00
 -1      3847 1.68870E+01 2.42359E+01 0.00000E+00
 -1      3848 1.68870E+01 2.57078E+01 0.00000E+00
 -1      3849 1.55880E+01 1.90844E+01 0.00000E+00
 -1      3850 1.09415E+02 2.25212E+01 0.00000E+00
 -1      3851 1.09063E+02 2.16564E+01 0.00000E+00
 -1      3852 4.67850E+01 1.56973E+01 0.00000E+00
 -1      3853 4.52850E+01 1.56973E+01 0.00000E+00
 -1      3854 4.75350E+01 1.69963E+01 0.00000E+00
 -1      3855 1.09475E+02 1.89012E+01 0.00000E+00
 -1      3856 1.68870E+01 2.12922E+01 0.00000E+00
 -1      3857 1.68870E+01 2.27641E+01 0.00000E+00
 -1      3858 1.81860E+01 2.35000E+01 0.00000E+00
 -1      3859 1.09327E+02 2.33765E+01 0.00000E+00
 -1      3860 4.45350E+01 1.69963E+01 0.00000E+00
 -1      3861 1.10718E+02 2.98954E+01 0.00000E+00
 -1      3862 5.72850E+01 1.82952E+01 0.00000E+00
 -1      3863 5.57850E+01 1.82952E+01 0.00000E+00
 -1      3864 2.64000E+01 3.05150E+01 0.00000E+00
 -1      3865 2.79000E+01 3.05150E+01 0.00000E+00
 -1      3866 2.94000E+01 3.05150E+01 0.00000E+00
 -1      3867 3.09000E+01 3.05150E+01 0.00000E+00
 -1      3868 2.86500E+01 2.92160E+01 0.00000E+00
 -1      3869 3.24000E+01 3.05150E+01 0.00000E+00
 -1      3870 3.39000E+01 3.05150E+01 0.00000E+00
 -1      3871 3.16500E+01 2.92160E+01 0.00000E+00
 -1      3872 3.54000E+01 3.05150E+01 0.00000E+00
 -1      3873 3.69000E+01 3.05150E+01 0.00000E+00
 -1      3874 3.46500E+01 2.92160E+01 0.00000E+00
 -1      3875 3.84000E+01 3.05150E+01 0.00000E+00
 -1      3876 3.99000E+01 3.05150E+01 0.00000E+00
 -1      3877 3.76500E+01 2.92160E+01 0.00000E+00
 -1      3878 4.14000E+01 3.05150E+01 0.00000E+00
 -1      3879 4.29000E+01 3.05150E+01 0.00000E+00
 -1      3880 4.06500E+01 2.92160E+01 0.00000E+00
 -1      3881 4.44000E+01 3.05150E+01 0.00000E+00
 -1      3882 4.59000E+01 3.05150E+01 0.00000E+00
 -1      3883 4.36500E+01 2.92160E+01 0.00000E+00
 -1      3884 4.74000E+01 3.05150E+01 0.00000E+00
 -1      3885 4.89000E+01 3.05150E+01 0.00000E+00
 -1      3886 4.66500E+01 2.92160E+01 0.00000E+00
 -1      3887 5.04000E+01 3.05150E+01 0.00000E+00
 -1      3888 5.19000E+01 3.05150E+01 0.00000E+00
 -1      3889 4.96500E+01 2.92160E+01 0.00000E+00
 -1      3890 5.34000E+01 3.05150E+01 0.00000E+00
 -1      3891 5.49000E+01 3.05150E+01 0.00000E+00
 -1      3892 5.26500E+01 2.92160E+01 0.00000E+00
 -1      3893 5.64000E+01 3.05150E+01 0.00000E+00
 -1      3894 5.79000E+01 3.05150E+01 0.00000E+00
 -1      3895 5.56500E+01 2.92160E+01 0.00000E+00
 -1      3896 5.94000E+01 3.05150E+01 0.00000E+00
 -1      3897 6.09000E+01 3.05150E+01 0.00000E+00
 -1      3898 5.86500E+01 2.92160E+01 0.00000E+00
 -1      3899 6.24000E+01 3.05150E+01 0.00000E+00
 -1      3900 6.39000E+01 3.05150E+01 0.00000E+00
 -1      3901 6.16500E+01 2.92160E+01 0.00000E+00
 -1      3902 6.54000E+01 3.05150E+01 0.00000E+00
 -1      3903 6.69000E+01 3.05150E+01 0.00000E+00
 -1      3904 6.46500E+01 2.92160E+01 0.00000E+00
 -1      3905 6.84000E+01 3.05150E+01 0.00000E+00
 -1      3906 6.99000E+01 3.05150E+01 0.00000E+00
 -1      3907 6.76500E+01 2.92160E+01 0.00000E+00
 -1      3908 7.14000E+01 3.05150E+01 0.00000E+00
 -1      3909 7.29000E+01 3.05150E+01 0.00000E+00
 -1      3910 7.06500E+01 2.92160E+01 0.00000E+00
 -1      3911 7.44000E+01 3.05150E+01 0.00000E+00
 -1      3912 7.59000E+01 3.05150E+01 0.00000E+00
 -1      3913 7.36500E+01 2.92160E+01 0.00000E+00
 -1      3914 7.74000E+01 3.05150E+01 0.00000E+00
 -1      3915 7.89000E+01 3.05150E+01 0.00000E+00
 -1      3916 7.66500E+01 2.92160E+01 0.00000E+00
 -1      3917 8.04000E+01 3.05150E+01 0.00000E+00
 -1      3918 8.19000E+01 3.05150E+01 0.00000E+00
 -1      3919 7.96500E+01 2.92160E+01 0.00000E+00
 -1      3920 8.34000E+01 3.05150E+01 0.00000E+00
 -1      3921 8.49000E+01 3.05150E+01 0.00000E+00
 -1      3922 8.26500E+01 2.92160E+01 0.00000E+00
 -1      3923 8.64000E+01 3.05150E+01 0.00000E+00
 -1      3924 8.79000E+01 3.05150E+01 0.00000E+00
 -1      3925 8.56500E+01 2.92160E+01 0.00000E+00
 -1      3926 8.94000E+01 3.05150E+01 0.00000E+00
 -1      3927 9.09000E+01 3.05150E+01 0.00000E+00
 -1      3928 8.86500E+01 2.92160E+01 0.00000E+00
 -1      3929 9.24000E+01 3.05150E+01 0.00000E+00
 -1      3930 9.39000E+01 3.05150E+01 0.00000E+00
 -1      3931 9.16500E+01 2.92160E+01 0.00000E+00
 -1      3932 9.54000E+01 3.05150E+01 0.00000E+00
 -1      3933 9.69000E+01 3.05150E+01 0.00000E+00
 -1      3934 9.46500E+01 2.92160E+01 0.00000E+00
 -1      3935 9.84000E+01 3.05150E+01 0.00000E+00
 -1      3936 9.99000E+01 3.05150E+01 0.00000E+00
 -1      3937 9.76500E+01 2.92160E+01 0.00000E+00
 -1      3938 1.01400E+02 3.05150E+01 0.00000E+00
 -1      3939 1.02900E+02 3.05150E+01 0.00000E+00
 -1      3940 1.00650E+02 2.92160E+01 0.00000E+00
 -1      3941 1.04400E+02 3.05150E+01 0.00000E+00
 -1      3942 1.05900E+02 3.05150E+01 0.00000E+00
 -1      3943 1.03650E+02 2.92160E+01 0.00000E+00
 -1      3944 6.92850E+01 1.82952E+01 0.00000E+00
 -1      3945 6.77850E+01 1.82952E+01 0.00000E+00
 -1      3946 2.95350E+01 1.69963E+01 0.00000E+00
 -1      3947 2.87850E+01 1.56973E+01 0.00000E+00
 -1      3948 2.72850E+01 1.56973E+01 0.00000E+00
 -1      3949 5.42850E+01 1.82952E+01 0.00000E+00
 -1      3950 5.27850E+01 1.82952E+01 0.00000E+00
 -1      3951 5.50350E+01 1.95942E+01 0.00000E+00
 -1      3952 6.62850E+01 1.82952E+01 0.00000E+00
 -1      3953 6.47850E+01 1.82952E+01 0.00000E+00
 -1      3954 6.70350E+01 1.95942E+01 0.00000E+00
 -1      3955 6.32850E+01 1.82952E+01 0.00000E+00
 -1      3956 6.17850E+01 1.82952E+01 0.00000E+00
 -1      3957 6.40350E+01 1.95942E+01 0.00000E+00
 -1      3958 7.22850E+01 1.82952E+01 0.00000E+00
 -1      3959 7.07850E+01 1.82952E+01 0.00000E+00
 -1      3960 7.00350E+01 1.95942E+01 0.00000E+00
 -1      3961 7.52850E+01 1.82952E+01 0.00000E+00
 -1      3962 7.37850E+01 1.82952E+01 0.00000E+00
 -1      3963 7.30350E+01 1.95942E+01 0.00000E+00
 -1      3964 7.82850E+01 1.82952E+01 0.00000E+00
 -1      3965 7.67850E+01 1.82952E+01 0.00000E+00
 -1      3966 7.60350E+01 1.95942E+01 0.00000E+00
 -1      3967 8.12850E+01 1.82952E+01 0.00000E+00
 -1      3968 7.97850E+01 1.82952E+01 0.00000E+00
 -1      3969 7.90350E+01 1.95942E+01 0.00000E+00
 -1      3970 8.42850E+01 1.82952E+01 0.00000E+00
 -1      3971 8.27850E+01 1.82952E+01 0.00000E+00
 -1      3972 8.20350E+01 1.95942E+01 0.00000E+00
 -1      3973 8.72850E+01 1.82952E+01 0.00000E+00
 -1      3974 8.57850E+01 1.82952E+01 0.00000E+00
 -1      3975 8.50350E+01 1.95942E+01 0.00000E+00
 -1      3976 9.02850E+01 1.82952E+01 0.00000E+00
 -1      3977 8.87850E+01 1.82952E+01 0.00000E+00
 -1      3978 8.80350E+01 1.95942E+01 0.00000E+00
 -1      3979 9.32850E+01 1.82952E+01 0.00000E+00
 -1      3980 9.17850E+01 1.82952E+01 0.00000E+00
 -1      3981 9.10350E+01 1.95942E+01 0.00000E+00
 -1      3982 9.62850E+01 1.82952E+01 0.00000E+00
 -1      3983 9.47850E+01 1.82952E+01 0.00000E+00
 -1      3984 9.40350E+01 1.95942E+01 0.00000E+00
 -1      3985 9.92850E+01 1.82952E+01 0.00000E+00
 -1      3986 9.77850E+01 1.82952E+01 0.00000E+00
 -1      3987 9.70350E+01 1.95942E+01 0.00000E+00
 -1      3988 1.02285E+02 1.82952E+01 0.00000E+00
 -1      3989 1.00785E+02 1.82952E+01 0.00000E+00
 -1      3990 1.00035E+02 1.95942E+01 0.00000E+00
 -1      3991 1.05285E+02 1.82952E+01 0.00000E+00
 -1      3992 1.03785E+02 1.82952E+01 0.00000E+00
 -1      3993 1.03035E+02 1.95942E+01 0.00000E+00
 -1      3994 1.08130E+02 1.85982E+01 0.00000E+00
 -1      3995 1.06630E+02 1.85982E+01 0.00000E+00
 -1      3996 1.05880E+02 1.98972E+01 0.00000E+00
 -1      3997 1.08570E+02 2.05031E+01 0.00000E+00
 -1      3998 6.02850E+01 1.82952E+01 0.00000E+00
 -1      3999 5.87850E+01 1.82952E+01 0.00000E+00
 -1      4000 5.80350E+01 1.95942E+01 0.00000E+00
 -1      4001 2.57850E+01 1.56973E+01 0.00000E+00
 -1      4002 2.42850E+01 1.56973E+01 0.00000E+00
 -1      4003 2.35350E+01 1.69963E+01 0.00000E+00
 -1      4004 2.65350E+01 1.69963E+01 0.00000E+00
 -1      4005 3.77850E+01 1.56973E+01 0.00000E+00
 -1      4006 3.62850E+01 1.56973E+01 0.00000E+00
 -1      4007 3.55350E+01 1.69963E+01 0.00000E+00
 -1      4008 3.85350E+01 1.69963E+01 0.00000E+00
 -1      4009 1.08880E+02 2.44571E+01 0.00000E+00
 -1      4010 1.07766E+02 2.35873E+01 0.00000E+00
 -1      4011 1.08434E+02 2.55377E+01 0.00000E+00
 -1      4012 1.68870E+01 2.71797E+01 0.00000E+00
 -1      4013 1.68870E+01 2.86516E+01 0.00000E+00
 -1      4014 1.81860E+01 2.64438E+01 0.00000E+00
 -1      4015 1.66684E+01 1.86394E+01 0.00000E+00
 -1      4016 1.66684E+01 2.01113E+01 0.00000E+00
 -1      4017 1.79674E+01 2.08472E+01 0.00000E+00
 -1      4018 1.75301E+01 1.84853E+01 0.00000E+00
 -1      4019 4.52850E+01 1.82952E+01 0.00000E+00
 -1      4020 4.37850E+01 1.82952E+01 0.00000E+00
 -1      4021 1.08875E+02 3.04624E+01 0.00000E+00
 -1      4022 1.09943E+02 2.85438E+01 0.00000E+00
 -1      4023 1.08824E+02 2.77591E+01 0.00000E+00
 -1      4024 1.07375E+02 3.04624E+01 0.00000E+00
 -1      4025 1.79025E+01 2.99926E+01 0.00000E+00
 -1      4026 1.07719E+02 2.13534E+01 0.00000E+00
 -1      4027 2.34000E+01 3.05150E+01 0.00000E+00
 -1      4028 2.49000E+01 3.05150E+01 0.00000E+00
 -1      4029 2.56500E+01 2.92160E+01 0.00000E+00
 -1      4030 2.08845E+01 3.06427E+01 0.00000E+00
 -1      4031 2.21423E+01 3.05789E+01 0.00000E+00
 -1      4032 2.28923E+01 2.92799E+01 0.00000E+00
 -1      4033 1.06625E+02 2.91634E+01 0.00000E+00
 -1      4034 4.22850E+01 1.82952E+01 0.00000E+00
 -1      4035 4.07850E+01 1.82952E+01 0.00000E+00
 -1      4036 4.30350E+01 1.95942E+01 0.00000E+00
 -1      4037 6.10350E+01 1.95942E+01 0.00000E+00
 -1      4038 1.91602E+01 2.99287E+01 0.00000E+00
 -1      4039 1.06826E+02 2.35146E+01 0.00000E+00
 -1      4040 1.07272E+02 2.24340E+01 0.00000E+00
 -1      4041 1.06779E+02 2.12808E+01 0.00000E+00
 -1      4042 5.12850E+01 1.82952E+01 0.00000E+00
 -1      4043 4.97850E+01 1.82952E+01 0.00000E+00
 -1      4044 5.20350E+01 1.95942E+01 0.00000E+00
 -1      4045 1.83919E+01 1.83313E+01 0.00000E+00
 -1      4046 1.98919E+01 1.83313E+01 0.00000E+00
 -1      4047 1.92488E+01 1.96663E+01 0.00000E+00
 -1      4048 2.13919E+01 1.83313E+01 0.00000E+00
 -1      4049 3.32850E+01 1.82952E+01 0.00000E+00
 -1      4050 3.17850E+01 1.82952E+01 0.00000E+00
 -1      4051 4.82850E+01 1.82952E+01 0.00000E+00
 -1      4052 4.67850E+01 1.82952E+01 0.00000E+00
 -1      4053 4.90350E+01 1.95942E+01 0.00000E+00
 -1      4054 1.94850E+01 2.57078E+01 0.00000E+00
 -1      4055 1.94850E+01 2.71797E+01 0.00000E+00
 -1      4056 4.60350E+01 1.95942E+01 0.00000E+00
 -1      4057 3.10350E+01 1.95942E+01 0.00000E+00
 -1      4058 3.02850E+01 1.82952E+01 0.00000E+00
 -1      4059 2.87850E+01 1.82952E+01 0.00000E+00
 -1      4060 1.94850E+01 2.27641E+01 0.00000E+00
 -1      4061 1.94850E+01 2.42359E+01 0.00000E+00
 -1      4062 2.07840E+01 2.49719E+01 0.00000E+00
 -1      4063 3.09000E+01 2.79170E+01 0.00000E+00
 -1      4064 3.24000E+01 2.79170E+01 0.00000E+00
 -1      4065 3.39000E+01 2.79170E+01 0.00000E+00
 -1      4066 3.54000E+01 2.79170E+01 0.00000E+00
 -1      4067 3.31500E+01 2.66180E+01 0.00000E+00
 -1      4068 3.69000E+01 2.79170E+01 0.00000E+00
 -1      4069 3.84000E+01 2.79170E+01 0.00000E+00
 -1      4070 3.61500E+01 2.66180E+01 0.00000E+00
 -1      4071 3.99000E+01 2.79170E+01 0.00000E+00
 -1      4072 4.14000E+01 2.79170E+01 0.00000E+00
 -1      4073 3.91500E+01 2.66180E+01 0.00000E+00
 -1      4074 4.29000E+01 2.79170E+01 0.00000E+00
 -1      4075 4.44000E+01 2.79170E+01 0.00000E+00
 -1      4076 4.21500E+01 2.66180E+01 0.00000E+00
 -1      4077 4.59000E+01 2.79170E+01 0.00000E+00
 -1      4078 4.74000E+01 2.79170E+01 0.00000E+00
 -1      4079 4.51500E+01 2.66180E+01 0.00000E+00
 -1      4080 4.89000E+01 2.79170E+01 0.00000E+00
 -1      4081 5.04000E+01 2.79170E+01 0.00000E+00
 -1      4082 4.81500E+01 2.66180E+01 0.00000E+00
 -1      4083 5.19000E+01 2.79170E+01 0.00000E+00
 -1      4084 5.34000E+01 2.79170E+01 0.00000E+00
 -1      4085 5.11500E+01 2.66180E+01 0.00000E+00
 -1      4086 5.49000E+01 2.79170E+01 0.00000E+00
 -1      4087 5.64000E+01 2.79170E+01 0.00000E+00
 -1      4088 5.41500E+01 2.66180E+01 0.00000E+00
 -1      4089 5.79000E+01 2.79170E+01 0.00000E+00
 -1      4090 5.94000E+01 2.79170E+01 0.00000E+00
 -1      4091 5.71500E+01 2.66180E+01 0.00000E+00
 -1      4092 6.09000E+01 2.79170E+01 0.00000E+00
 -1      4093 6.24000E+01 2.79170E+01 0.00000E+00
 -1      4094 6.01500E+01 2.66180E+01 0.00000E+00
 -1      4095 6.39000E+01 2.79170E+01 0.00000E+00
 -1      4096 6.54000E+01 2.79170E+01 0.00000E+00
 -1      4097 6.31500E+01 2.66180E+01 0.00000E+00
 -1      4098 6.69000E+01 2.79170E+01 0.00000E+00
 -1      4099 6.84000E+01 2.79170E+01 0.00000E+00
 -1      4100 6.61500E+01 2.66180E+01 0.00000E+00
 -1      4101 6.99000E+01 2.79170E+01 0.00000E+00
 -1      4102 7.14000E+01 2.79170E+01 0.00000E+00
 -1      4103 6.91500E+01 2.66180E+01 0.00000E+00
 -1      4104 7.29000E+01 2.79170E+01 0.00000E+00
 -1      4105 7.44000E+01 2.79170E+01 0.00000E+00
 -1      4106 7.21500E+01 2.66180E+01 0.00000E+00
 -1      4107 7.59000E+01 2.79170E+01 0.00000E+00
 -1      4108 7.74000E+01 2.79170E+01 0.00000E+00
 -1      4109 7.51500E+01 2.66180E+01 0.00000E+00
 -1      4110 7.89000E+01 2.79170E+01 0.00000E+00
 -1      4111 8.04000E+01 2.79170E+01 0.00000E+00
 -1      4112 7.81500E+01 2.66180E+01 0.00000E+00
 -1      4113 8.19000E+01 2.79170E+01 0.00000E+00
 -1      4114 8.34000E+01 2.79170E+01 0.00000E+00
 -1      4115 8.11500E+01 2.66180E+01 0.00000E+00
 -1      4116 8.49000E+01 2.79170E+01 0.00000E+00
 -1      4117 8.64000E+01 2.79170E+01 0.00000E+00
 -1      4118 8.41500E+01 2.66180E+01 0.00000E+00
 -1      4119 8.79000E+01 2.79170E+01 0.00000E+00
 -1      4120 8.94000E+01 2.79170E+01 0.00000E+00
 -1      4121 8.71500E+01 2.66180E+01 0.00000E+00
 -1      4122 9.09000E+01 2.79170E+01 0.00000E+00
 -1      4123 9.24000E+01 2.79170E+01 0.00000E+00
 -1      4124 9.01500E+01 2.66180E+01 0.00000E+00
 -1      4125 9.39000E+01 2.79170E+01 0.00000E+00
 -1      4126 9.54000E+01 2.79170E+01 0.00000E+00
 -1      4127 9.31500E+01 2.66180E+01 0.00000E+00
 -1      4128 9.69000E+01 2.79170E+01 0.00000E+00
 -1      4129 9.84000E+01 2.79170E+01 0.00000E+00
 -1      4130 9.61500E+01 2.66180E+01 0.00000E+00
 -1      4131 9.99000E+01 2.79170E+01 0.00000E+00
 -1      4132 1.01400E+02 2.79170E+01 0.00000E+00
 -1      4133 9.91500E+01 2.66180E+01 0.00000E+00
 -1      4134 1.02900E+02 2.79170E+01 0.00000E+00
 -1      4135 1.04400E+02 2.79170E+01 0.00000E+00
 -1      4136 1.02150E+02 2.66180E+01 0.00000E+00
 -1      4137 7.37850E+01 2.08932E+01 0.00000E+00
 -1      4138 7.22850E+01 2.08932E+01 0.00000E+00
 -1      4139 5.57850E+01 2.08932E+01 0.00000E+00
 -1      4140 5.42850E+01 2.08932E+01 0.00000E+00
 -1      4141 6.77850E+01 2.08932E+01 0.00000E+00
 -1      4142 6.62850E+01 2.08932E+01 0.00000E+00
 -1      4143 6.47850E+01 2.08932E+01 0.00000E+00
 -1      4144 6.32850E+01 2.08932E+01 0.00000E+00
 -1      4145 6.55350E+01 2.21922E+01 0.00000E+00
 -1      4146 7.67850E+01 2.08932E+01 0.00000E+00
 -1      4147 7.52850E+01 2.08932E+01 0.00000E+00
 -1      4148 7.45350E+01 2.21922E+01 0.00000E+00
 -1      4149 7.97850E+01 2.08932E+01 0.00000E+00
 -1      4150 7.82850E+01 2.08932E+01 0.00000E+00
 -1      4151 7.75350E+01 2.21922E+01 0.00000E+00
 -1      4152 8.27850E+01 2.08932E+01 0.00000E+00
 -1      4153 8.12850E+01 2.08932E+01 0.00000E+00
 -1      4154 8.05350E+01 2.21922E+01 0.00000E+00
 -1      4155 8.57850E+01 2.08932E+01 0.00000E+00
 -1      4156 8.42850E+01 2.08932E+01 0.00000E+00
 -1      4157 8.35350E+01 2.21922E+01 0.00000E+00
 -1      4158 8.87850E+01 2.08932E+01 0.00000E+00
 -1      4159 8.72850E+01 2.08932E+01 0.00000E+00
 -1      4160 8.65350E+01 2.21922E+01 0.00000E+00
 -1      4161 9.17850E+01 2.08932E+01 0.00000E+00
 -1      4162 9.02850E+01 2.08932E+01 0.00000E+00
 -1      4163 8.95350E+01 2.21922E+01 0.00000E+00
 -1      4164 9.47850E+01 2.08932E+01 0.00000E+00
 -1      4165 9.32850E+01 2.08932E+01 0.00000E+00
 -1      4166 9.25350E+01 2.21922E+01 0.00000E+00
 -1      4167 9.77850E+01 2.08932E+01 0.00000E+00
 -1      4168 9.62850E+01 2.08932E+01 0.00000E+00
 -1      4169 9.55350E+01 2.21922E+01 0.00000E+00
 -1      4170 1.00785E+02 2.08932E+01 0.00000E+00
 -1      4171 9.92850E+01 2.08932E+01 0.00000E+00
 -1      4172 9.85350E+01 2.21922E+01 0.00000E+00
 -1      4173 1.03785E+02 2.08932E+01 0.00000E+00
 -1      4174 1.02285E+02 2.08932E+01 0.00000E+00
 -1      4175 1.01535E+02 2.21922E+01 0.00000E+00
 -1      4176 1.05434E+02 2.09778E+01 0.00000E+00
 -1      4177 2.49000E+01 2.79170E+01 0.00000E+00
 -1      4178 2.64000E+01 2.79170E+01 0.00000E+00
 -1      4179 6.17850E+01 2.08932E+01 0.00000E+00
 -1      4180 6.02850E+01 2.08932E+01 0.00000E+00
 -1      4181 6.25350E+01 2.21922E+01 0.00000E+00
 -1      4182 7.07850E+01 2.08932E+01 0.00000E+00
 -1      4183 6.92850E+01 2.08932E+01 0.00000E+00
 -1      4184 6.85350E+01 2.21922E+01 0.00000E+00
 -1      4185 2.12092E+01 2.78937E+01 0.00000E+00
 -1      4186 1.99102E+01 2.86297E+01 0.00000E+00
 -1      4187 1.07709E+02 2.68893E+01 0.00000E+00
 -1      4188 3.47850E+01 1.82952E+01 0.00000E+00
 -1      4189 3.40350E+01 1.95942E+01 0.00000E+00
 -1      4190 3.62850E+01 1.82952E+01 0.00000E+00
 -1      4191 4.67850E+01 2.08932E+01 0.00000E+00
 -1      4192 4.52850E+01 2.08932E+01 0.00000E+00
 -1      4193 1.06235E+02 2.69419E+01 0.00000E+00
 -1      4194 5.87850E+01 2.08932E+01 0.00000E+00
 -1      4195 5.72850E+01 2.08932E+01 0.00000E+00
 -1      4196 5.95350E+01 2.21922E+01 0.00000E+00
 -1      4197 1.94674E+01 2.08472E+01 0.00000E+00
 -1      4198 2.79000E+01 2.79170E+01 0.00000E+00
 -1      4199 2.94000E+01 2.79170E+01 0.00000E+00
 -1      4200 3.01500E+01 2.66180E+01 0.00000E+00
 -1      4201 1.05485E+02 2.56429E+01 0.00000E+00
 -1      4202 2.43919E+01 1.83313E+01 0.00000E+00
 -1      4203 2.28919E+01 1.83313E+01 0.00000E+00
 -1      4204 2.22488E+01 1.96663E+01 0.00000E+00
 -1      4205 4.37850E+01 2.08932E+01 0.00000E+00
 -1      4206 4.22850E+01 2.08932E+01 0.00000E+00
 -1      4207 4.45350E+01 2.21922E+01 0.00000E+00
 -1      4208 5.65350E+01 2.21922E+01 0.00000E+00
 -1      4209 7.15350E+01 2.21922E+01 0.00000E+00
 -1      4210 5.35350E+01 2.21922E+01 0.00000E+00
 -1      4211 5.27850E+01 2.08932E+01 0.00000E+00
 -1      4212 5.12850E+01 2.08932E+01 0.00000E+00
 -1      4213 4.97850E+01 2.08932E+01 0.00000E+00
 -1      4214 4.82850E+01 2.08932E+01 0.00000E+00
 -1      4215 5.05350E+01 2.21922E+01 0.00000E+00
 -1      4216 1.04684E+02 2.22768E+01 0.00000E+00
 -1      4217 2.07664E+01 2.15831E+01 0.00000E+00
 -1      4218 2.20417E+01 2.63799E+01 0.00000E+00
 -1      4219 2.24670E+01 2.78299E+01 0.00000E+00
 -1      4220 2.37248E+01 2.77660E+01 0.00000E+00
 -1      4221 2.73384E+01 1.83132E+01 0.00000E+00
 -1      4222 2.58384E+01 1.83133E+01 0.00000E+00
 -1      4223 2.51953E+01 1.96482E+01 0.00000E+00
 -1      4224 2.80884E+01 1.96122E+01 0.00000E+00
 -1      4225 4.75350E+01 2.21922E+01 0.00000E+00
 -1      4226 3.92850E+01 1.82952E+01 0.00000E+00
 -1      4227 3.77850E+01 1.82952E+01 0.00000E+00
 -1      4228 4.00350E+01 1.95942E+01 0.00000E+00
 -1      4229 3.47850E+01 2.08932E+01 0.00000E+00
 -1      4230 3.32850E+01 2.08932E+01 0.00000E+00
 -1      4231 3.17850E+01 2.08932E+01 0.00000E+00
 -1      4232 3.02850E+01 2.08932E+01 0.00000E+00
 -1      4233 3.25350E+01 2.21922E+01 0.00000E+00
 -1      4234 2.44748E+01 2.64670E+01 0.00000E+00
 -1      4235 2.20417E+01 2.49080E+01 0.00000E+00
 -1      4236 1.03571E+02 2.55538E+01 0.00000E+00
 -1      4237 1.05405E+02 2.45788E+01 0.00000E+00
 -1      4238 1.04912E+02 2.34255E+01 0.00000E+00
 -1      4239 1.02071E+02 2.55538E+01 0.00000E+00
 -1      4240 2.71500E+01 2.66180E+01 0.00000E+00
 -1      4241 3.28425E+01 2.44051E+01 0.00000E+00
 -1      4242 3.43425E+01 2.44051E+01 0.00000E+00
 -1      4243 3.84000E+01 2.53190E+01 0.00000E+00
 -1      4244 3.99000E+01 2.53190E+01 0.00000E+00
 -1      4245 4.18425E+01 2.44051E+01 0.00000E+00
 -1      4246 4.33425E+01 2.44051E+01 0.00000E+00
 -1      4247 4.48425E+01 2.44051E+01 0.00000E+00
 -1      4248 4.63425E+01 2.44051E+01 0.00000E+00
 -1      4249 4.78425E+01 2.44051E+01 0.00000E+00
 -1      4250 4.93425E+01 2.44051E+01 0.00000E+00
 -1      4251 5.08425E+01 2.44051E+01 0.00000E+00
 -1      4252 5.23425E+01 2.44051E+01 0.00000E+00
 -1      4253 5.38425E+01 2.44051E+01 0.00000E+00
 -1      4254 5.53425E+01 2.44051E+01 0.00000E+00
 -1      4255 5.68425E+01 2.44051E+01 0.00000E+00
 -1      4256 5.83425E+01 2.44051E+01 0.00000E+00
 -1      4257 5.98425E+01 2.44051E+01 0.00000E+00
 -1      4258 6.13425E+01 2.44051E+01 0.00000E+00
 -1      4259 6.28425E+01 2.44051E+01 0.00000E+00
 -1      4260 6.43425E+01 2.44051E+01 0.00000E+00
 -1      4261 6.58425E+01 2.44051E+01 0.00000E+00
 -1      4262 6.73425E+01 2.44051E+01 0.00000E+00
 -1      4263 6.88425E+01 2.44051E+01 0.00000E+00
 -1      4264 7.03425E+01 2.44051E+01 0.00000E+00
 -1      4265 7.18425E+01 2.44051E+01 0.00000E+00
 -1      4266 7.33425E+01 2.44051E+01 0.00000E+00
 -1      4267 7.48425E+01 2.44051E+01 0.00000E+00
 -1      4268 7.63425E+01 2.44051E+01 0.00000E+00
 -1      4269 7.78425E+01 2.44051E+01 0.00000E+00
 -1      4270 7.93425E+01 2.44051E+01 0.00000E+00
 -1      4271 8.08425E+01 2.44051E+01 0.00000E+00
 -1      4272 8.23425E+01 2.44051E+01 0.00000E+00
 -1      4273 8.38425E+01 2.44051E+01 0.00000E+00
 -1      4274 8.53425E+01 2.44051E+01 0.00000E+00
 -1      4275 8.68425E+01 2.44051E+01 0.00000E+00
 -1      4276 8.83425E+01 2.44051E+01 0.00000E+00
 -1      4277 8.98425E+01 2.44051E+01 0.00000E+00
 -1      4278 9.13425E+01 2.44051E+01 0.00000E+00
 -1      4279 9.28425E+01 2.44051E+01 0.00000E+00
 -1      4280 9.43425E+01 2.44051E+01 0.00000E+00
 -1      4281 9.58425E+01 2.44051E+01 0.00000E+00
 -1      4282 9.73425E+01 2.44051E+01 0.00000E+00
 -1      4283 9.90706E+01 2.55538E+01 0.00000E+00
 -1      4284 1.00571E+02 2.55538E+01 0.00000E+00
 -1      4285 1.01991E+02 2.44897E+01 0.00000E+00
 -1      4286 2.64000E+01 2.53190E+01 0.00000E+00
 -1      4287 2.79000E+01 2.53190E+01 0.00000E+00
 -1      4288 1.01763E+02 2.33410E+01 0.00000E+00
 -1      4289 1.00263E+02 2.33410E+01 0.00000E+00
 -1      4290 2.21364E+01 2.13287E+01 0.00000E+00
 -1      4291 2.21541E+01 2.32456E+01 0.00000E+00
 -1      4292 2.34118E+01 2.46536E+01 0.00000E+00
 -1      4293 2.36364E+01 2.13287E+01 0.00000E+00
 -1      4294 1.03263E+02 2.33410E+01 0.00000E+00
 -1      4295 3.70350E+01 1.95942E+01 0.00000E+00
 -1      4296 3.62850E+01 2.08932E+01 0.00000E+00
 -1      4297 3.55350E+01 2.21922E+01 0.00000E+00
 -1      4298 3.77850E+01 2.08932E+01 0.00000E+00
 -1      4299 2.98425E+01 2.44051E+01 0.00000E+00
 -1      4300 3.13425E+01 2.44051E+01 0.00000E+00
 -1      4301 2.43183E+01 2.49108E+01 0.00000E+00
 -1      4302 2.54935E+01 2.50618E+01 0.00000E+00
 -1      4303 2.62435E+01 2.37628E+01 0.00000E+00
 -1      4304 2.44306E+01 2.32483E+01 0.00000E+00
 -1      4305 3.58425E+01 2.44051E+01 0.00000E+00
 -1      4306 4.10925E+01 2.31061E+01 0.00000E+00
 -1      4307 3.73425E+01 2.44051E+01 0.00000E+00
 -1      4308 9.87631E+01 2.33410E+01 0.00000E+00
 -1      4309 3.80925E+01 2.31061E+01 0.00000E+00
 -1      4310 4.03425E+01 2.18071E+01 0.00000E+00
 -1      4311 2.83425E+01 2.18071E+01 0.00000E+00
 -1      4312 2.68959E+01 2.18251E+01 0.00000E+00
 -1      4313 2.90925E+01 2.31061E+01 0.00000E+00
 -1      4314 2.50830E+01 2.13107E+01 0.00000E+00
 -1      4315 3.88425E+01 2.18071E+01 0.00000E+00
 -1      4316 2.59895E+01 2.15679E+01 0.00000E+00
 -3
    3C                          2076                                     1
 -1       165    8    0    1
 -2         6         7        23      1121      1285      1138
 -1       166    8    0    1
 -2         7         8       165      1122      1286      1287
 -1       167    8    0    1
 -2         8         9       166      1123      1288      1289
 -1       168    8    0    1
 -2         8       166       165      1289      1290      1286
 -1       169    8    0    1
 -2         9        10       167      1124      1291      1292
 -1       170    8    0    1
 -2         9       167       166      1292      1293      1288
 -1       171    8    0    1
 -2        10        11       168      1125      1294      1295
 -1       172    8    0    1
 -2        10       168       167      1295      1296      1291
 -1       173    8    0    1
 -2        11        12       169      1126      1297      1298
 -1       174    8    0    1
 -2        11       169       168      1298      1299      1294
 -1       175    8    0    1
 -2        12        13       170      1127      1300      1301
 -1       176    8    0    1
 -2        12       170       169      1301      1302      1297
 -1       177    8    0    1
 -2        13        14       171      1128      1303      1304
 -1       178    8    0    1
 -2        13       171       170      1304      1305      1300
 -1       179    8    0    1
 -2        14        15       172      1129      1306      1307
 -1       180    8    0    1
 -2        14       172       171      1307      1308      1303
 -1       181    8    0    1
 -2        15        16       173      1130      1309      1310
 -1       182    8    0    1
 -2        15       173       172      1310      1311      1306
 -1       183    8    0    1
 -2        16        17       174      1131      1312      1313
 -1       184    8    0    1
 -2        16       174       173      1313      1314      1309
 -1       185    8    0    1
 -2        17        18       175      1132      1315      1316
 -1       186    8    0    1
 -2        17       175       174      1316      1317      1312
 -1       187    8    0    1
 -2        18        19       176      1133      1318      1319
 -1       188    8    0    1
 -2        18       176       175      1319      1320      1315
 -1       189    8    0    1
 -2        19        20       177      1134      1321      1322
 -1       190    8    0    1
 -2        19       177       176      1322      1323      1318
 -1       191    8    0    1
 -2        20        21       178      1135      1324      1325
 -1       192    8    0    1
 -2        20       178       177      1325      1326      1321
 -1       193    8    0    1
 -2        21        22       179      1136      1327      1328
 -1       194    8    0    1
 -2        21       179       178      1328      1329      1324
 -1       195    8    0    1
 -2        22         5       180      1137      1330      1331
 -1       196    8    0    1
 -2       179        22       180      1327      1331      1332
 -1       197    8    0    1
 -2         5        72       180      1188      1333      1330
 -1       198    8    0    1
 -2        24        23       181      1139      1334      1335
 -1       199    8    0    1
 -2        25        24       182      1140      1336      1337
 -1       200    8    0    1
 -2        24       181       182      1335      1338      1336
 -1       201    8    0    1
 -2        26        25       183      1141      1339      1340
 -1       202    8    0    1
 -2        25       182       183      1337      1341      1339
 -1       203    8    0    1
 -2        27        26       184      1142      1342      1343
 -1       204    8    0    1
 -2        26       183       184      1340      1344      1342
 -1       205    8    0    1
 -2        28        27       185      1143      1345      1346
 -1       206    8    0    1
 -2        27       184       185      1343      1347      1345
 -1       207    8    0    1
 -2        29        28       186      1144      1348      1349
 -1       208    8    0    1
 -2        28       185       186      1346      1350      1348
 -1       209    8    0    1
 -2        30        29       187      1145      1351      1352
 -1       210    8    0    1
 -2        29       186       187      1349      1353      1351
 -1       211    8    0    1
 -2        31        30       188      1146      1354      1355
 -1       212    8    0    1
 -2        30       187       188      1352      1356      1354
 -1       213    8    0    1
 -2        32        31       189      1147      1357      1358
 -1       214    8    0    1
 -2        31       188       189      1355      1359      1357
 -1       215    8    0    1
 -2        33        32       190      1148      1360      1361
 -1       216    8    0    1
 -2        32       189       190      1358      1362      1360
 -1       217    8    0    1
 -2        34        33       191      1149      1363      1364
 -1       218    8    0    1
 -2        33       190       191      1361      1365      1363
 -1       219    8    0    1
 -2        35        34       192      1150      1366      1367
 -1       220    8    0    1
 -2        34       191       192      1364      1368      1366
 -1       221    8    0    1
 -2        36        35       193      1151      1369      1370
 -1       222    8    0    1
 -2        35       192       193      1367      1371      1369
 -1       223    8    0    1
 -2        37        36       194      1152      1372      1373
 -1       224    8    0    1
 -2        36       193       194      1370      1374      1372
 -1       225    8    0    1
 -2        38        37       195      1153      1375      1376
 -1       226    8    0    1
 -2        37       194       195      1373      1377      1375
 -1       227    8    0    1
 -2        39        38       196      1154      1378      1379
 -1       228    8    0    1
 -2        38       195       196      1376      1380      1378
 -1       229    8    0    1
 -2        40        39       197      1155      1381      1382
 -1       230    8    0    1
 -2        39       196       197      1379      1383      1381
 -1       231    8    0    1
 -2        41        40       198      1156      1384      1385
 -1       232    8    0    1
 -2        40       197       198      1382      1386      1384
 -1       233    8    0    1
 -2        42        41       199      1157      1387      1388
 -1       234    8    0    1
 -2        41       198       199      1385      1389      1387
 -1       235    8    0    1
 -2        43        42       200      1158      1390      1391
 -1       236    8    0    1
 -2        42       199       200      1388      1392      1390
 -1       237    8    0    1
 -2        44        43       201      1159      1393      1394
 -1       238    8    0    1
 -2        43       200       201      1391      1395      1393
 -1       239    8    0    1
 -2        45        44       202      1160      1396      1397
 -1       240    8    0    1
 -2        44       201       202      1394      1398      1396
 -1       241    8    0    1
 -2        46        45       203      1161      1399      1400
 -1       242    8    0    1
 -2        45       202       203      1397      1401      1399
 -1       243    8    0    1
 -2        47        46       204      1162      1402      1403
 -1       244    8    0    1
 -2        46       203       204      1400      1404      1402
 -1       245    8    0    1
 -2        48        47       205      1163      1405      1406
 -1       246    8    0    1
 -2        47       204       205      1403      1407      1405
 -1       247    8    0    1
 -2        49        48       206      1164      1408      1409
 -1       248    8    0    1
 -2        48       205       206      1406      1410      1408
 -1       249    8    0    1
 -2        50        49       207      1165      1411      1412
 -1       250    8    0    1
 -2        49       206       207      1409      1413      1411
 -1       251    8    0    1
 -2        51        50       208      1166      1414      1415
 -1       252    8    0    1
 -2        50       207       208      1412      1416      1414
 -1       253    8    0    1
 -2        52        51       209      1167      1417      1418
 -1       254    8    0    1
 -2        51       208       209      1415      1419      1417
 -1       255    8    0    1
 -2        53        52       210      1168      1420      1421
 -1       256    8    0    1
 -2        52       209       210      1418      1422      1420
 -1       257    8    0    1
 -2        54        53       211      1169      1423      1424
 -1       258    8    0    1
 -2        53       210       211      1421      1425      1423
 -1       259    8    0    1
 -2        55        54       212      1170      1426      1427
 -1       260    8    0    1
 -2        54       211       212      1424      1428      1426
 -1       261    8    0    1
 -2        56        55       213      1171      1429      1430
 -1       262    8    0    1
 -2        55       212       213      1427      1431      1429
 -1       263    8    0    1
 -2        57        56       214      1172      1432      1433
 -1       264    8    0    1
 -2        56       213       214      1430      1434      1432
 -1       265    8    0    1
 -2        58        57       215      1173      1435      1436
 -1       266    8    0    1
 -2        57       214       215      1433      1437      1435
 -1       267    8    0    1
 -2        59        58       216      1174      1438      1439
 -1       268    8    0    1
 -2        58       215       216      1436      1440      1438
 -1       269    8    0    1
 -2        60        59       217      1175      1441      1442
 -1       270    8    0    1
 -2        59       216       217      1439      1443      1441
 -1       271    8    0    1
 -2        61        60       218      1176      1444      1445
 -1       272    8    0    1
 -2        60       217       218      1442      1446      1444
 -1       273    8    0    1
 -2        62        61       219      1177      1447      1448
 -1       274    8    0    1
 -2        61       218       219      1445      1449      1447
 -1       275    8    0    1
 -2        63        62       220      1178      1450      1451
 -1       276    8    0    1
 -2        62       219       220      1448      1452      1450
 -1       277    8    0    1
 -2        64        63       221      1179      1453      1454
 -1       278    8    0    1
 -2        63       220       221      1451      1455      1453
 -1       279    8    0    1
 -2        65        64       222      1180      1456      1457
 -1       280    8    0    1
 -2        64       221       222      1454      1458      1456
 -1       281    8    0    1
 -2        66        65       223      1181      1459      1460
 -1       282    8    0    1
 -2        65       222       223      1457      1461      1459
 -1       283    8    0    1
 -2        67        66       224      1182      1462      1463
 -1       284    8    0    1
 -2        66       223       224      1460      1464      1462
 -1       285    8    0    1
 -2        68        67       225      1183      1465      1466
 -1       286    8    0    1
 -2        67       224       225      1463      1467      1465
 -1       287    8    0    1
 -2        69        68       226      1184      1468      1469
 -1       288    8    0    1
 -2        68       225       226      1466      1470      1468
 -1       289    8    0    1
 -2        70        69       227      1185      1471      1472
 -1       290    8    0    1
 -2        69       226       227      1469      1473      1471
 -1       291    8    0    1
 -2        71        70       228      1186      1474      1475
 -1       292    8    0    1
 -2        70       227       228      1472      1476      1474
 -1       293    8    0    1
 -2         4        71       136      1187      1477      1254
 -1       294    8    0    1
 -2       136        71       228      1477      1475      1478
 -1       295    8    0    1
 -2        72        73       229      1189      1479      1480
 -1       296    8    0    1
 -2        72       229       180      1480      1481      1333
 -1       297    8    0    1
 -2        73        74       230      1190      1482      1483
 -1       298    8    0    1
 -2        73       230       229      1483      1484      1479
 -1       299    8    0    1
 -2        74        75       231      1191      1485      1486
 -1       300    8    0    1
 -2        74       231       230      1486      1487      1482
 -1       301    8    0    1
 -2        75        76       232      1192      1488      1489
 -1       302    8    0    1
 -2        75       232       231      1489      1490      1485
 -1       303    8    0    1
 -2        76        77       233      1193      1491      1492
 -1       304    8    0    1
 -2        76       233       232      1492      1493      1488
 -1       305    8    0    1
 -2        77        78       234      1194      1494      1495
 -1       306    8    0    1
 -2        77       234       233      1495      1496      1491
 -1       307    8    0    1
 -2        78        79       235      1195      1497      1498
 -1       308    8    0    1
 -2        78       235       234      1498      1499      1494
 -1       309    8    0    1
 -2        79        80       236      1196      1500      1501
 -1       310    8    0    1
 -2        79       236       235      1501      1502      1497
 -1       311    8    0    1
 -2        80        81       237      1197      1503      1504
 -1       312    8    0    1
 -2        80       237       236      1504      1505      1500
 -1       313    8    0    1
 -2        81        82       238      1198      1506      1507
 -1       314    8    0    1
 -2        81       238       237      1507      1508      1503
 -1       315    8    0    1
 -2        82        83       239      1199      1509      1510
 -1       316    8    0    1
 -2        82       239       238      1510      1511      1506
 -1       317    8    0    1
 -2        83        84       240      1200      1512      1513
 -1       318    8    0    1
 -2        83       240       239      1513      1514      1509
 -1       319    8    0    1
 -2        84        85       241      1201      1515      1516
 -1       320    8    0    1
 -2        84       241       240      1516      1517      1512
 -1       321    8    0    1
 -2        85        86       242      1202      1518      1519
 -1       322    8    0    1
 -2        85       242       241      1519      1520      1515
 -1       323    8    0    1
 -2        86        87       243      1203      1521      1522
 -1       324    8    0    1
 -2        86       243       242      1522      1523      1518
 -1       325    8    0    1
 -2        87        88       244      1204      1524      1525
 -1       326    8    0    1
 -2        87       244       243      1525      1526      1521
 -1       327    8    0    1
 -2        88        89       245      1205      1527      1528
 -1       328    8    0    1
 -2        88       245       244      1528      1529      1524
 -1       329    8    0    1
 -2        89        90       246      1206      1530      1531
 -1       330    8    0    1
 -2        89       246       245      1531      1532      1527
 -1       331    8    0    1
 -2        90        91       247      1207      1533      1534
 -1       332    8    0    1
 -2        90       247       246      1534      1535      1530
 -1       333    8    0    1
 -2        91        92       248      1208      1536      1537
 -1       334    8    0    1
 -2        91       248       247      1537      1538      1533
 -1       335    8    0    1
 -2        92        93       249      1209      1539      1540
 -1       336    8    0    1
 -2        92       249       248      1540      1541      1536
 -1       337    8    0    1
 -2        93        94       250      1210      1542      1543
 -1       338    8    0    1
 -2        93       250       249      1543      1544      1539
 -1       339    8    0    1
 -2        94        95       251      1211      1545      1546
 -1       340    8    0    1
 -2        94       251       250      1546      1547      1542
 -1       341    8    0    1
 -2        95        96       252      1212      1548      1549
 -1       342    8    0    1
 -2        95       252       251      1549      1550      1545
 -1       343    8    0    1
 -2        96        97       253      1213      1551      1552
 -1       344    8    0    1
 -2        96       253       252      1552      1553      1548
 -1       345    8    0    1
 -2        97        98       254      1214      1554      1555
 -1       346    8    0    1
 -2        97       254       253      1555      1556      1551
 -1       347    8    0    1
 -2        98        99       255      1215      1557      1558
 -1       348    8    0    1
 -2        98       255       254      1558      1559      1554
 -1       349    8    0    1
 -2        99       100       256      1216      1560      1561
 -1       350    8    0    1
 -2        99       256       255      1561      1562      1557
 -1       351    8    0    1
 -2       100       101       257      1217      1563      1564
 -1       352    8    0    1
 -2       100       257       256      1564      1565      1560
 -1       353    8    0    1
 -2       101       102       258      1218      1566      1567
 -1       354    8    0    1
 -2       101       258       257      1567      1568      1563
 -1       355    8    0    1
 -2       102       103       259      1219      1569      1570
 -1       356    8    0    1
 -2       102       259       258      1570      1571      1566
 -1       357    8    0    1
 -2       103       104       260      1220      1572      1573
 -1       358    8    0    1
 -2       103       260       259      1573      1574      1569
 -1       359    8    0    1
 -2       104       105       261      1221      1575      1576
 -1       360    8    0    1
 -2       104       261       260      1576      1577      1572
 -1       361    8    0    1
 -2       105       106       262      1222      1578      1579
 -1       362    8    0    1
 -2       105       262       261      1579      1580      1575
 -1       363    8    0    1
 -2       106       107       263      1223      1581      1582
 -1       364    8    0    1
 -2       106       263       262      1582      1583      1578
 -1       365    8    0    1
 -2       107       108       264      1224      1584      1585
 -1       366    8    0    1
 -2       107       264       263      1585      1586      1581
 -1       367    8    0    1
 -2       108       109       265      1225      1587      1588
 -1       368    8    0    1
 -2       108       265       264      1588      1589      1584
 -1       369    8    0    1
 -2       109       110       266      1226      1590      1591
 -1       370    8    0    1
 -2       109       266       265      1591      1592      1587
 -1       371    8    0    1
 -2       110       111       267      1227      1593      1594
 -1       372    8    0    1
 -2       110       267       266      1594      1595      1590
 -1       373    8    0    1
 -2       111       112       268      1228      1596      1597
 -1       374    8    0    1
 -2       111       268       267      1597      1598      1593
 -1       375    8    0    1
 -2       112       113       269      1229      1599      1600
 -1       376    8    0    1
 -2       112       269       268      1600      1601      1596
 -1       377    8    0    1
 -2       113       114       270      1230      1602      1603
 -1       378    8    0    1
 -2       113       270       269      1603      1604      1599
 -1       379    8    0    1
 -2       114       115       271      1231      1605      1606
 -1       380    8    0    1
 -2       114       271       270      1606      1607      1602
 -1       381    8    0    1
 -2       115       116       272      1232      1608      1609
 -1       382    8    0    1
 -2       115       272       271      1609      1610      1605
 -1       383    8    0    1
 -2       116       117       273      1233      1611      1612
 -1       384    8    0    1
 -2       116       273       272      1612      1613      1608
 -1       385    8    0    1
 -2       117       118       274      1234      1614      1615
 -1       386    8    0    1
 -2       117       274       273      1615      1616      1611
 -1       387    8    0    1
 -2       118       119       275      1235      1617      1618
 -1       388    8    0    1
 -2       118       275       274      1618      1619      1614
 -1       389    8    0    1
 -2       119       120       276      1236      1620      1621
 -1       390    8    0    1
 -2       119       276       275      1621      1622      1617
 -1       391    8    0    1
 -2       120         3       121      1237      1238      1623
 -1       392    8    0    1
 -2       121       122       277      1239      1624      1625
 -1       393    8    0    1
 -2       122       123       278      1240      1626      1627
 -1       394    8    0    1
 -2       122       278       277      1627      1628      1624
 -1       395    8    0    1
 -2       123       124       279      1241      1629      1630
 -1       396    8    0    1
 -2       123       279       278      1630      1631      1626
 -1       397    8    0    1
 -2       124       125       280      1242      1632      1633
 -1       398    8    0    1
 -2       124       280       279      1633      1634      1629
 -1       399    8    0    1
 -2       125       126       281      1243      1635      1636
 -1       400    8    0    1
 -2       125       281       280      1636      1637      1632
 -1       401    8    0    1
 -2       126       127       282      1244      1638      1639
 -1       402    8    0    1
 -2       126       282       281      1639      1640      1635
 -1       403    8    0    1
 -2       127       128       283      1245      1641      1642
 -1       404    8    0    1
 -2       127       283       282      1642      1643      1638
 -1       405    8    0    1
 -2       128       129       284      1246      1644      1645
 -1       406    8    0    1
 -2       128       284       283      1645      1646      1641
 -1       407    8    0    1
 -2       129       130       285      1247      1647      1648
 -1       408    8    0    1
 -2       129       285       284      1648      1649      1644
 -1       409    8    0    1
 -2       130       131       286      1248      1650      1651
 -1       410    8    0    1
 -2       130       286       285      1651      1652      1647
 -1       411    8    0    1
 -2       131       132       287      1249      1653      1654
 -1       412    8    0    1
 -2       131       287       286      1654      1655      1650
 -1       413    8    0    1
 -2       132       133       288      1250      1656      1657
 -1       414    8    0    1
 -2       132       288       287      1657      1658      1653
 -1       415    8    0    1
 -2       133       134       289      1251      1659      1660
 -1       416    8    0    1
 -2       133       289       288      1660      1661      1656
 -1       417    8    0    1
 -2       134       135       290      1252      1662      1663
 -1       418    8    0    1
 -2       134       290       289      1663      1664      1659
 -1       419    8    0    1
 -2       135       136       291      1253      1665      1666
 -1       420    8    0    1
 -2       290       135       291      1662      1666      1667
 -1       421    8    0    1
 -2       136       228       291      1478      1668      1665
 -1       422    8    0    1
 -2         2       137       292      1255      1669      1670
 -1       423    8    0    1
 -2       137       138       293      1256      1671      1672
 -1       424    8    0    1
 -2       138       139       294      1257      1673      1674
 -1       425    8    0    1
 -2       139       140       295      1258      1675      1676
 -1       426    8    0    1
 -2       140       141       296      1259      1677      1678
 -1       427    8    0    1
 -2       141       142       297      1260      1679      1680
 -1       428    8    0    1
 -2       142       143       298      1261      1681      1682
 -1       429    8    0    1
 -2       143       144       299      1262      1683      1684
 -1       430    8    0    1
 -2       144       145       300      1263      1685      1686
 -1       431    8    0    1
 -2       145       146       301      1264      1687      1688
 -1       432    8    0    1
 -2       146       147       302      1265      1689      1690
 -1       433    8    0    1
 -2       147       148       303      1266      1691      1692
 -1       434    8    0    1
 -2       148       149       304      1267      1693      1694
 -1       435    8    0    1
 -2       149       150       305      1268      1695      1696
 -1       436    8    0    1
 -2       150       151       306      1269      1697      1698
 -1       437    8    0    1
 -2       151       152       307      1270      1699      1700
 -1       438    8    0    1
 -2       152       153       308      1271      1701      1702
 -1       439    8    0    1
 -2       153         1       309      1272      1703      1704
 -1       440    8    0    1
 -2         1       154       310      1273      1705      1706
 -1       441    8    0    1
 -2       154       155       311      1274      1707      1708
 -1       442    8    0    1
 -2       155       156       312      1275      1709      1710
 -1       443    8    0    1
 -2       156       157       313      1276      1711      1712
 -1       444    8    0    1
 -2       157       158       314      1277      1713      1714
 -1       445    8    0    1
 -2       158       159       315      1278      1715      1716
 -1       446    8    0    1
 -2       159       160       316      1279      1717      1718
 -1       447    8    0    1
 -2       160       161       317      1280      1719      1720
 -1       448    8    0    1
 -2       161       162       318      1281      1721      1722
 -1       449    8    0    1
 -2       162       163       319      1282      1723      1724
 -1       450    8    0    1
 -2       163       164       320      1283      1725      1726
 -1       451    8    0    1
 -2       164         2       321      1284      1727      1728
 -1       452    8    0    1
 -2       295       140       296      1675      1678      1729
 -1       453    8    0    1
 -2       294       139       295      1673      1676      1730
 -1       454    8    0    1
 -2       120       121       276      1623      1731      1620
 -1       455    8    0    1
 -2       121       277       276      1625      1732      1731
 -1       456    8    0    1
 -2       292       137       293      1669      1672      1733
 -1       457    8    0    1
 -2       293       138       294      1671      1674      1734
 -1       458    8    0    1
 -2         2       292       321      1670      1735      1727
 -1       459    8    0    1
 -2       141       297       296      1680      1736      1677
 -1       460    8    0    1
 -2       142       298       297      1682      1737      1679
 -1       461    8    0    1
 -2       143       299       298      1684      1738      1681
 -1       462    8    0    1
 -2       144       300       299      1686      1739      1683
 -1       463    8    0    1
 -2       145       301       300      1688      1740      1685
 -1       464    8    0    1
 -2       146       302       301      1690      1741      1687
 -1       465    8    0    1
 -2       147       303       302      1692      1742      1689
 -1       466    8    0    1
 -2       148       304       303      1694      1743      1691
 -1       467    8    0    1
 -2       149       305       304      1696      1744      1693
 -1       468    8    0    1
 -2       150       306       305      1698      1745      1695
 -1       469    8    0    1
 -2       151       307       306      1700      1746      1697
 -1       470    8    0    1
 -2       152       308       307      1702      1747      1699
 -1       471    8    0    1
 -2       153       309       308      1704      1748      1701
 -1       472    8    0    1
 -2         1       310       309      1706      1749      1703
 -1       473    8    0    1
 -2       154       311       310      1708      1750      1705
 -1       474    8    0    1
 -2       155       312       311      1710      1751      1707
 -1       475    8    0    1
 -2       156       313       312      1712      1752      1709
 -1       476    8    0    1
 -2       157       314       313      1714      1753      1711
 -1       477    8    0    1
 -2       158       315       314      1716      1754      1713
 -1       478    8    0    1
 -2       159       316       315      1718      1755      1715
 -1       479    8    0    1
 -2       160       317       316      1720      1756      1717
 -1       480    8    0    1
 -2       161       318       317      1722      1757      1719
 -1       481    8    0    1
 -2       162       319       318      1724      1758      1721
 -1       482    8    0    1
 -2       163       320       319      1726      1759      1723
 -1       483    8    0    1
 -2       164       321       320      1728      1760      1725
 -1       484    8    0    1
 -2        23         7       165      1285      1287      1761
 -1       485    8    0    1
 -2       166       167       322      1293      1762      1763
 -1       486    8    0    1
 -2       165       166       323      1290      1764      1765
 -1       487    8    0    1
 -2       166       322       323      1763      1766      1764
 -1       488    8    0    1
 -2       168       169       324      1299      1767      1768
 -1       489    8    0    1
 -2       169       170       325      1302      1769      1770
 -1       490    8    0    1
 -2       169       325       324      1770      1771      1767
 -1       491    8    0    1
 -2       170       171       326      1305      1772      1773
 -1       492    8    0    1
 -2       170       326       325      1773      1774      1769
 -1       493    8    0    1
 -2       171       172       327      1308      1775      1776
 -1       494    8    0    1
 -2       171       327       326      1776      1777      1772
 -1       495    8    0    1
 -2       172       173       328      1311      1778      1779
 -1       496    8    0    1
 -2       172       328       327      1779      1780      1775
 -1       497    8    0    1
 -2       173       174       329      1314      1781      1782
 -1       498    8    0    1
 -2       173       329       328      1782      1783      1778
 -1       499    8    0    1
 -2       174       175       330      1317      1784      1785
 -1       500    8    0    1
 -2       174       330       329      1785      1786      1781
 -1       501    8    0    1
 -2       175       176       331      1320      1787      1788
 -1       502    8    0    1
 -2       175       331       330      1788      1789      1784
 -1       503    8    0    1
 -2       176       177       332      1323      1790      1791
 -1       504    8    0    1
 -2       176       332       331      1791      1792      1787
 -1       505    8    0    1
 -2       177       178       333      1326      1793      1794
 -1       506    8    0    1
 -2       177       333       332      1794      1795      1790
 -1       507    8    0    1
 -2       178       179       334      1329      1796      1797
 -1       508    8    0    1
 -2       178       334       333      1797      1798      1793
 -1       509    8    0    1
 -2       179       180       335      1332      1799      1800
 -1       510    8    0    1
 -2       334       179       335      1796      1800      1801
 -1       511    8    0    1
 -2       180       229       335      1481      1802      1799
 -1       512    8    0    1
 -2       181        23       165      1334      1761      1803
 -1       513    8    0    1
 -2       229       230       336      1484      1804      1805
 -1       514    8    0    1
 -2       229       336       335      1805      1806      1802
 -1       515    8    0    1
 -2       181       165       323      1803      1765      1807
 -1       516    8    0    1
 -2       183       182       337      1341      1808      1809
 -1       517    8    0    1
 -2       184       183       338      1344      1810      1811
 -1       518    8    0    1
 -2       183       337       338      1809      1812      1810
 -1       519    8    0    1
 -2       185       184       339      1347      1813      1814
 -1       520    8    0    1
 -2       184       338       339      1811      1815      1813
 -1       521    8    0    1
 -2       186       185       340      1350      1816      1817
 -1       522    8    0    1
 -2       185       339       340      1814      1818      1816
 -1       523    8    0    1
 -2       187       186       341      1353      1819      1820
 -1       524    8    0    1
 -2       186       340       341      1817      1821      1819
 -1       525    8    0    1
 -2       188       187       342      1356      1822      1823
 -1       526    8    0    1
 -2       187       341       342      1820      1824      1822
 -1       527    8    0    1
 -2       189       188       343      1359      1825      1826
 -1       528    8    0    1
 -2       188       342       343      1823      1827      1825
 -1       529    8    0    1
 -2       190       189       344      1362      1828      1829
 -1       530    8    0    1
 -2       189       343       344      1826      1830      1828
 -1       531    8    0    1
 -2       191       190       345      1365      1831      1832
 -1       532    8    0    1
 -2       190       344       345      1829      1833      1831
 -1       533    8    0    1
 -2       192       191       346      1368      1834      1835
 -1       534    8    0    1
 -2       191       345       346      1832      1836      1834
 -1       535    8    0    1
 -2       193       192       347      1371      1837      1838
 -1       536    8    0    1
 -2       192       346       347      1835      1839      1837
 -1       537    8    0    1
 -2       194       193       348      1374      1840      1841
 -1       538    8    0    1
 -2       193       347       348      1838      1842      1840
 -1       539    8    0    1
 -2       195       194       349      1377      1843      1844
 -1       540    8    0    1
 -2       194       348       349      1841      1845      1843
 -1       541    8    0    1
 -2       196       195       350      1380      1846      1847
 -1       542    8    0    1
 -2       195       349       350      1844      1848      1846
 -1       543    8    0    1
 -2       197       196       351      1383      1849      1850
 -1       544    8    0    1
 -2       196       350       351      1847      1851      1849
 -1       545    8    0    1
 -2       198       197       352      1386      1852      1853
 -1       546    8    0    1
 -2       197       351       352      1850      1854      1852
 -1       547    8    0    1
 -2       199       198       353      1389      1855      1856
 -1       548    8    0    1
 -2       198       352       353      1853      1857      1855
 -1       549    8    0    1
 -2       200       199       354      1392      1858      1859
 -1       550    8    0    1
 -2       199       353       354      1856      1860      1858
 -1       551    8    0    1
 -2       201       200       355      1395      1861      1862
 -1       552    8    0    1
 -2       200       354       355      1859      1863      1861
 -1       553    8    0    1
 -2       202       201       356      1398      1864      1865
 -1       554    8    0    1
 -2       201       355       356      1862      1866      1864
 -1       555    8    0    1
 -2       203       202       357      1401      1867      1868
 -1       556    8    0    1
 -2       202       356       357      1865      1869      1867
 -1       557    8    0    1
 -2       204       203       358      1404      1870      1871
 -1       558    8    0    1
 -2       203       357       358      1868      1872      1870
 -1       559    8    0    1
 -2       205       204       359      1407      1873      1874
 -1       560    8    0    1
 -2       204       358       359      1871      1875      1873
 -1       561    8    0    1
 -2       206       205       360      1410      1876      1877
 -1       562    8    0    1
 -2       205       359       360      1874      1878      1876
 -1       563    8    0    1
 -2       207       206       361      1413      1879      1880
 -1       564    8    0    1
 -2       206       360       361      1877      1881      1879
 -1       565    8    0    1
 -2       208       207       362      1416      1882      1883
 -1       566    8    0    1
 -2       207       361       362      1880      1884      1882
 -1       567    8    0    1
 -2       209       208       363      1419      1885      1886
 -1       568    8    0    1
 -2       208       362       363      1883      1887      1885
 -1       569    8    0    1
 -2       210       209       364      1422      1888      1889
 -1       570    8    0    1
 -2       209       363       364      1886      1890      1888
 -1       571    8    0    1
 -2       211       210       365      1425      1891      1892
 -1       572    8    0    1
 -2       210       364       365      1889      1893      1891
 -1       573    8    0    1
 -2       212       211       366      1428      1894      1895
 -1       574    8    0    1
 -2       211       365       366      1892      1896      1894
 -1       575    8    0    1
 -2       213       212       367      1431      1897      1898
 -1       576    8    0    1
 -2       212       366       367      1895      1899      1897
 -1       577    8    0    1
 -2       214       213       368      1434      1900      1901
 -1       578    8    0    1
 -2       213       367       368      1898      1902      1900
 -1       579    8    0    1
 -2       215       214       369      1437      1903      1904
 -1       580    8    0    1
 -2       214       368       369      1901      1905      1903
 -1       581    8    0    1
 -2       216       215       370      1440      1906      1907
 -1       582    8    0    1
 -2       215       369       370      1904      1908      1906
 -1       583    8    0    1
 -2       217       216       371      1443      1909      1910
 -1       584    8    0    1
 -2       216       370       371      1907      1911      1909
 -1       585    8    0    1
 -2       218       217       372      1446      1912      1913
 -1       586    8    0    1
 -2       217       371       372      1910      1914      1912
 -1       587    8    0    1
 -2       219       218       373      1449      1915      1916
 -1       588    8    0    1
 -2       218       372       373      1913      1917      1915
 -1       589    8    0    1
 -2       220       219       374      1452      1918      1919
 -1       590    8    0    1
 -2       219       373       374      1916      1920      1918
 -1       591    8    0    1
 -2       221       220       375      1455      1921      1922
 -1       592    8    0    1
 -2       220       374       375      1919      1923      1921
 -1       593    8    0    1
 -2       222       221       376      1458      1924      1925
 -1       594    8    0    1
 -2       221       375       376      1922      1926      1924
 -1       595    8    0    1
 -2       223       222       377      1461      1927      1928
 -1       596    8    0    1
 -2       222       376       377      1925      1929      1927
 -1       597    8    0    1
 -2       224       223       378      1464      1930      1931
 -1       598    8    0    1
 -2       223       377       378      1928      1932      1930
 -1       599    8    0    1
 -2       225       224       379      1467      1933      1934
 -1       600    8    0    1
 -2       224       378       379      1931      1935      1933
 -1       601    8    0    1
 -2       226       225       380      1470      1936      1937
 -1       602    8    0    1
 -2       225       379       380      1934      1938      1936
 -1       603    8    0    1
 -2       227       226       381      1473      1939      1940
 -1       604    8    0    1
 -2       226       380       381      1937      1941      1939
 -1       605    8    0    1
 -2       228       227       382      1476      1942      1943
 -1       606    8    0    1
 -2       291       228       382      1668      1943      1944
 -1       607    8    0    1
 -2       227       381       382      1940      1945      1942
 -1       608    8    0    1
 -2       230       231       383      1487      1946      1947
 -1       609    8    0    1
 -2       230       383       336      1947      1948      1804
 -1       610    8    0    1
 -2       231       232       384      1490      1949      1950
 -1       611    8    0    1
 -2       231       384       383      1950      1951      1946
 -1       612    8    0    1
 -2       232       233       385      1493      1952      1953
 -1       613    8    0    1
 -2       232       385       384      1953      1954      1949
 -1       614    8    0    1
 -2       233       234       386      1496      1955      1956
 -1       615    8    0    1
 -2       233       386       385      1956      1957      1952
 -1       616    8    0    1
 -2       234       235       387      1499      1958      1959
 -1       617    8    0    1
 -2       234       387       386      1959      1960      1955
 -1       618    8    0    1
 -2       235       236       388      1502      1961      1962
 -1       619    8    0    1
 -2       235       388       387      1962      1963      1958
 -1       620    8    0    1
 -2       236       237       389      1505      1964      1965
 -1       621    8    0    1
 -2       236       389       388      1965      1966      1961
 -1       622    8    0    1
 -2       237       238       390      1508      1967      1968
 -1       623    8    0    1
 -2       237       390       389      1968      1969      1964
 -1       624    8    0    1
 -2       238       239       391      1511      1970      1971
 -1       625    8    0    1
 -2       238       391       390      1971      1972      1967
 -1       626    8    0    1
 -2       239       240       392      1514      1973      1974
 -1       627    8    0    1
 -2       239       392       391      1974      1975      1970
 -1       628    8    0    1
 -2       240       241       393      1517      1976      1977
 -1       629    8    0    1
 -2       240       393       392      1977      1978      1973
 -1       630    8    0    1
 -2       241       242       394      1520      1979      1980
 -1       631    8    0    1
 -2       241       394       393      1980      1981      1976
 -1       632    8    0    1
 -2       242       243       395      1523      1982      1983
 -1       633    8    0    1
 -2       242       395       394      1983      1984      1979
 -1       634    8    0    1
 -2       243       244       396      1526      1985      1986
 -1       635    8    0    1
 -2       243       396       395      1986      1987      1982
 -1       636    8    0    1
 -2       244       245       397      1529      1988      1989
 -1       637    8    0    1
 -2       244       397       396      1989      1990      1985
 -1       638    8    0    1
 -2       245       246       398      1532      1991      1992
 -1       639    8    0    1
 -2       245       398       397      1992      1993      1988
 -1       640    8    0    1
 -2       246       247       399      1535      1994      1995
 -1       641    8    0    1
 -2       246       399       398      1995      1996      1991
 -1       642    8    0    1
 -2       247       248       400      1538      1997      1998
 -1       643    8    0    1
 -2       247       400       399      1998      1999      1994
 -1       644    8    0    1
 -2       248       249       401      1541      2000      2001
 -1       645    8    0    1
 -2       248       401       400      2001      2002      1997
 -1       646    8    0    1
 -2       249       250       402      1544      2003      2004
 -1       647    8    0    1
 -2       249       402       401      2004      2005      2000
 -1       648    8    0    1
 -2       250       251       403      1547      2006      2007
 -1       649    8    0    1
 -2       250       403       402      2007      2008      2003
 -1       650    8    0    1
 -2       251       252       404      1550      2009      2010
 -1       651    8    0    1
 -2       251       404       403      2010      2011      2006
 -1       652    8    0    1
 -2       252       253       405      1553      2012      2013
 -1       653    8    0    1
 -2       252       405       404      2013      2014      2009
 -1       654    8    0    1
 -2       253       254       406      1556      2015      2016
 -1       655    8    0    1
 -2       253       406       405      2016      2017      2012
 -1       656    8    0    1
 -2       254       255       407      1559      2018      2019
 -1       657    8    0    1
 -2       254       407       406      2019      2020      2015
 -1       658    8    0    1
 -2       255       256       408      1562      2021      2022
 -1       659    8    0    1
 -2       255       408       407      2022      2023      2018
 -1       660    8    0    1
 -2       256       257       409      1565      2024      2025
 -1       661    8    0    1
 -2       256       409       408      2025      2026      2021
 -1       662    8    0    1
 -2       257       258       410      1568      2027      2028
 -1       663    8    0    1
 -2       257       410       409      2028      2029      2024
 -1       664    8    0    1
 -2       258       259       411      1571      2030      2031
 -1       665    8    0    1
 -2       258       411       410      2031      2032      2027
 -1       666    8    0    1
 -2       259       260       412      1574      2033      2034
 -1       667    8    0    1
 -2       259       412       411      2034      2035      2030
 -1       668    8    0    1
 -2       260       261       413      1577      2036      2037
 -1       669    8    0    1
 -2       260       413       412      2037      2038      2033
 -1       670    8    0    1
 -2       261       262       414      1580      2039      2040
 -1       671    8    0    1
 -2       261       414       413      2040      2041      2036
 -1       672    8    0    1
 -2       262       263       415      1583      2042      2043
 -1       673    8    0    1
 -2       262       415       414      2043      2044      2039
 -1       674    8    0    1
 -2       263       264       416      1586      2045      2046
 -1       675    8    0    1
 -2       263       416       415      2046      2047      2042
 -1       676    8    0    1
 -2       264       265       417      1589      2048      2049
 -1       677    8    0    1
 -2       264       417       416      2049      2050      2045
 -1       678    8    0    1
 -2       265       266       418      1592      2051      2052
 -1       679    8    0    1
 -2       265       418       417      2052      2053      2048
 -1       680    8    0    1
 -2       266       267       419      1595      2054      2055
 -1       681    8    0    1
 -2       266       419       418      2055      2056      2051
 -1       682    8    0    1
 -2       267       268       420      1598      2057      2058
 -1       683    8    0    1
 -2       267       420       419      2058      2059      2054
 -1       684    8    0    1
 -2       268       269       421      1601      2060      2061
 -1       685    8    0    1
 -2       268       421       420      2061      2062      2057
 -1       686    8    0    1
 -2       269       270       422      1604      2063      2064
 -1       687    8    0    1
 -2       269       422       421      2064      2065      2060
 -1       688    8    0    1
 -2       270       271       423      1607      2066      2067
 -1       689    8    0    1
 -2       270       423       422      2067      2068      2063
 -1       690    8    0    1
 -2       271       272       424      1610      2069      2070
 -1       691    8    0    1
 -2       271       424       423      2070      2071      2066
 -1       692    8    0    1
 -2       272       273       425      1613      2072      2073
 -1       693    8    0    1
 -2       272       425       424      2073      2074      2069
 -1       694    8    0    1
 -2       273       274       426      1616      2075      2076
 -1       695    8    0    1
 -2       273       426       425      2076      2077      2072
 -1       696    8    0    1
 -2       274       275       427      1619      2078      2079
 -1       697    8    0    1
 -2       274       427       426      2079      2080      2075
 -1       698    8    0    1
 -2       275       276       428      1622      2081      2082
 -1       699    8    0    1
 -2       427       275       428      2078      2082      2083
 -1       700    8    0    1
 -2       276       277       428      1732      2084      2081
 -1       701    8    0    1
 -2       279       280       429      1634      2085      2086
 -1       702    8    0    1
 -2       278       279       430      1631      2087      2088
 -1       703    8    0    1
 -2       279       429       430      2086      2089      2087
 -1       704    8    0    1
 -2       277       278       431      1628      2090      2091
 -1       705    8    0    1
 -2       428       277       431      2084      2091      2092
 -1       706    8    0    1
 -2       278       430       431      2088      2093      2090
 -1       707    8    0    1
 -2       280       281       432      1637      2094      2095
 -1       708    8    0    1
 -2       280       432       429      2095      2096      2085
 -1       709    8    0    1
 -2       281       282       433      1640      2097      2098
 -1       710    8    0    1
 -2       281       433       432      2098      2099      2094
 -1       711    8    0    1
 -2       282       283       434      1643      2100      2101
 -1       712    8    0    1
 -2       282       434       433      2101      2102      2097
 -1       713    8    0    1
 -2       283       284       435      1646      2103      2104
 -1       714    8    0    1
 -2       283       435       434      2104      2105      2100
 -1       715    8    0    1
 -2       284       285       436      1649      2106      2107
 -1       716    8    0    1
 -2       284       436       435      2107      2108      2103
 -1       717    8    0    1
 -2       285       286       437      1652      2109      2110
 -1       718    8    0    1
 -2       285       437       436      2110      2111      2106
 -1       719    8    0    1
 -2       286       287       438      1655      2112      2113
 -1       720    8    0    1
 -2       286       438       437      2113      2114      2109
 -1       721    8    0    1
 -2       287       288       439      1658      2115      2116
 -1       722    8    0    1
 -2       287       439       438      2116      2117      2112
 -1       723    8    0    1
 -2       288       289       440      1661      2118      2119
 -1       724    8    0    1
 -2       288       440       439      2119      2120      2115
 -1       725    8    0    1
 -2       289       290       441      1664      2121      2122
 -1       726    8    0    1
 -2       289       441       440      2122      2123      2118
 -1       727    8    0    1
 -2       293       294       442      1734      2124      2125
 -1       728    8    0    1
 -2       321       292       443      1735      2126      2127
 -1       729    8    0    1
 -2       292       293       444      1733      2128      2129
 -1       730    8    0    1
 -2       294       295       445      1730      2130      2131
 -1       731    8    0    1
 -2       295       296       446      1729      2132      2133
 -1       732    8    0    1
 -2       167       168       447      1296      2134      2135
 -1       733    8    0    1
 -2       322       167       447      1762      2135      2136
 -1       734    8    0    1
 -2       168       324       447      1768      2137      2134
 -1       735    8    0    1
 -2       297       298       448      1737      2138      2139
 -1       736    8    0    1
 -2       298       299       449      1738      2140      2141
 -1       737    8    0    1
 -2       299       300       450      1739      2142      2143
 -1       738    8    0    1
 -2       299       450       449      2143      2144      2140
 -1       739    8    0    1
 -2       300       301       451      1740      2145      2146
 -1       740    8    0    1
 -2       301       302       452      1741      2147      2148
 -1       741    8    0    1
 -2       302       303       453      1742      2149      2150
 -1       742    8    0    1
 -2       302       453       452      2150      2151      2147
 -1       743    8    0    1
 -2       303       304       454      1743      2152      2153
 -1       744    8    0    1
 -2       304       305       455      1744      2154      2155
 -1       745    8    0    1
 -2       305       306       456      1745      2156      2157
 -1       746    8    0    1
 -2       306       307       457      1746      2158      2159
 -1       747    8    0    1
 -2       307       308       458      1747      2160      2161
 -1       748    8    0    1
 -2       308       309       459      1748      2162      2163
 -1       749    8    0    1
 -2       308       459       458      2163      2164      2160
 -1       750    8    0    1
 -2       309       310       460      1749      2165      2166
 -1       751    8    0    1
 -2       310       311       461      1750      2167      2168
 -1       752    8    0    1
 -2       310       461       460      2168      2169      2165
 -1       753    8    0    1
 -2       311       312       462      1751      2170      2171
 -1       754    8    0    1
 -2       312       313       463      1752      2172      2173
 -1       755    8    0    1
 -2       312       463       462      2173      2174      2170
 -1       756    8    0    1
 -2       313       314       464      1753      2175      2176
 -1       757    8    0    1
 -2       314       315       465      1754      2177      2178
 -1       758    8    0    1
 -2       315       316       466      1755      2179      2180
 -1       759    8    0    1
 -2       316       317       467      1756      2181      2182
 -1       760    8    0    1
 -2       317       318       468      1757      2183      2184
 -1       761    8    0    1
 -2       318       319       469      1758      2185      2186
 -1       762    8    0    1
 -2       319       320       470      1759      2187      2188
 -1       763    8    0    1
 -2       320       321       471      1760      2189      2190
 -1       764    8    0    1
 -2       296       297       472      1736      2191      2192
 -1       765    8    0    1
 -2       445       295       446      2130      2133      2193
 -1       766    8    0    1
 -2       181       323       182      1807      2194      1338
 -1       767    8    0    1
 -2       446       296       472      2132      2192      2195
 -1       768    8    0    1
 -2       297       448       472      2139      2196      2191
 -1       769    8    0    1
 -2       337       182       323      1808      2194      2197
 -1       770    8    0    1
 -2       444       293       442      2128      2125      2198
 -1       771    8    0    1
 -2       443       292       444      2126      2129      2199
 -1       772    8    0    1
 -2       441       290       291      2121      1667      2200
 -1       773    8    0    1
 -2       442       294       445      2124      2131      2201
 -1       774    8    0    1
 -2       321       443       471      2127      2202      2189
 -1       775    8    0    1
 -2       470       320       471      2187      2190      2203
 -1       776    8    0    1
 -2       469       319       470      2185      2188      2204
 -1       777    8    0    1
 -2       468       318       469      2183      2186      2205
 -1       778    8    0    1
 -2       467       317       468      2181      2184      2206
 -1       779    8    0    1
 -2       466       316       467      2179      2182      2207
 -1       780    8    0    1
 -2       465       315       466      2177      2180      2208
 -1       781    8    0    1
 -2       463       313       464      2172      2176      2209
 -1       782    8    0    1
 -2       461       311       462      2167      2171      2210
 -1       783    8    0    1
 -2       459       309       473      2162      2211      2212
 -1       784    8    0    1
 -2       309       460       473      2166      2213      2211
 -1       785    8    0    1
 -2       457       307       458      2158      2161      2214
 -1       786    8    0    1
 -2       456       306       457      2156      2159      2215
 -1       787    8    0    1
 -2       455       305       456      2154      2157      2216
 -1       788    8    0    1
 -2       453       303       454      2149      2153      2217
 -1       789    8    0    1
 -2       450       300       451      2142      2146      2218
 -1       790    8    0    1
 -2       448       298       449      2138      2141      2219
 -1       791    8    0    1
 -2       451       301       474      2145      2220      2221
 -1       792    8    0    1
 -2       301       452       474      2148      2222      2220
 -1       793    8    0    1
 -2       454       304       455      2152      2155      2223
 -1       794    8    0    1
 -2       464       314       465      2175      2178      2224
 -1       795    8    0    1
 -2       336       383       475      1948      2225      2226
 -1       796    8    0    1
 -2       325       326       476      1774      2227      2228
 -1       797    8    0    1
 -2       324       325       477      1771      2229      2230
 -1       798    8    0    1
 -2       325       476       477      2228      2231      2229
 -1       799    8    0    1
 -2       327       328       478      1780      2232      2233
 -1       800    8    0    1
 -2       328       329       479      1783      2234      2235
 -1       801    8    0    1
 -2       328       479       478      2235      2236      2232
 -1       802    8    0    1
 -2       329       330       480      1786      2237      2238
 -1       803    8    0    1
 -2       329       480       479      2238      2239      2234
 -1       804    8    0    1
 -2       330       331       481      1789      2240      2241
 -1       805    8    0    1
 -2       330       481       480      2241      2242      2237
 -1       806    8    0    1
 -2       331       332       482      1792      2243      2244
 -1       807    8    0    1
 -2       331       482       481      2244      2245      2240
 -1       808    8    0    1
 -2       332       333       483      1795      2246      2247
 -1       809    8    0    1
 -2       332       483       482      2247      2248      2243
 -1       810    8    0    1
 -2       383       384       484      1951      2249      2250
 -1       811    8    0    1
 -2       383       484       475      2250      2251      2225
 -1       812    8    0    1
 -2       338       337       485      1812      2252      2253
 -1       813    8    0    1
 -2       446       472       486      2195      2254      2255
 -1       814    8    0    1
 -2       339       338       487      1815      2256      2257
 -1       815    8    0    1
 -2       338       485       487      2253      2258      2256
 -1       816    8    0    1
 -2       340       339       488      1818      2259      2260
 -1       817    8    0    1
 -2       339       487       488      2257      2261      2259
 -1       818    8    0    1
 -2       341       340       489      1821      2262      2263
 -1       819    8    0    1
 -2       340       488       489      2260      2264      2262
 -1       820    8    0    1
 -2       342       341       490      1824      2265      2266
 -1       821    8    0    1
 -2       341       489       490      2263      2267      2265
 -1       822    8    0    1
 -2       343       342       491      1827      2268      2269
 -1       823    8    0    1
 -2       342       490       491      2266      2270      2268
 -1       824    8    0    1
 -2       344       343       492      1830      2271      2272
 -1       825    8    0    1
 -2       343       491       492      2269      2273      2271
 -1       826    8    0    1
 -2       345       344       493      1833      2274      2275
 -1       827    8    0    1
 -2       344       492       493      2272      2276      2274
 -1       828    8    0    1
 -2       346       345       494      1836      2277      2278
 -1       829    8    0    1
 -2       345       493       494      2275      2279      2277
 -1       830    8    0    1
 -2       347       346       495      1839      2280      2281
 -1       831    8    0    1
 -2       346       494       495      2278      2282      2280
 -1       832    8    0    1
 -2       348       347       496      1842      2283      2284
 -1       833    8    0    1
 -2       347       495       496      2281      2285      2283
 -1       834    8    0    1
 -2       349       348       497      1845      2286      2287
 -1       835    8    0    1
 -2       348       496       497      2284      2288      2286
 -1       836    8    0    1
 -2       350       349       498      1848      2289      2290
 -1       837    8    0    1
 -2       349       497       498      2287      2291      2289
 -1       838    8    0    1
 -2       351       350       499      1851      2292      2293
 -1       839    8    0    1
 -2       350       498       499      2290      2294      2292
 -1       840    8    0    1
 -2       352       351       500      1854      2295      2296
 -1       841    8    0    1
 -2       351       499       500      2293      2297      2295
 -1       842    8    0    1
 -2       353       352       501      1857      2298      2299
 -1       843    8    0    1
 -2       352       500       501      2296      2300      2298
 -1       844    8    0    1
 -2       354       353       502      1860      2301      2302
 -1       845    8    0    1
 -2       353       501       502      2299      2303      2301
 -1       846    8    0    1
 -2       355       354       503      1863      2304      2305
 -1       847    8    0    1
 -2       354       502       503      2302      2306      2304
 -1       848    8    0    1
 -2       356       355       504      1866      2307      2308
 -1       849    8    0    1
 -2       355       503       504      2305      2309      2307
 -1       850    8    0    1
 -2       357       356       505      1869      2310      2311
 -1       851    8    0    1
 -2       356       504       505      2308      2312      2310
 -1       852    8    0    1
 -2       358       357       506      1872      2313      2314
 -1       853    8    0    1
 -2       357       505       506      2311      2315      2313
 -1       854    8    0    1
 -2       359       358       507      1875      2316      2317
 -1       855    8    0    1
 -2       358       506       507      2314      2318      2316
 -1       856    8    0    1
 -2       360       359       508      1878      2319      2320
 -1       857    8    0    1
 -2       359       507       508      2317      2321      2319
 -1       858    8    0    1
 -2       361       360       509      1881      2322      2323
 -1       859    8    0    1
 -2       360       508       509      2320      2324      2322
 -1       860    8    0    1
 -2       362       361       510      1884      2325      2326
 -1       861    8    0    1
 -2       361       509       510      2323      2327      2325
 -1       862    8    0    1
 -2       363       362       511      1887      2328      2329
 -1       863    8    0    1
 -2       362       510       511      2326      2330      2328
 -1       864    8    0    1
 -2       364       363       512      1890      2331      2332
 -1       865    8    0    1
 -2       363       511       512      2329      2333      2331
 -1       866    8    0    1
 -2       365       364       513      1893      2334      2335
 -1       867    8    0    1
 -2       364       512       513      2332      2336      2334
 -1       868    8    0    1
 -2       366       365       514      1896      2337      2338
 -1       869    8    0    1
 -2       365       513       514      2335      2339      2337
 -1       870    8    0    1
 -2       367       366       515      1899      2340      2341
 -1       871    8    0    1
 -2       366       514       515      2338      2342      2340
 -1       872    8    0    1
 -2       368       367       516      1902      2343      2344
 -1       873    8    0    1
 -2       367       515       516      2341      2345      2343
 -1       874    8    0    1
 -2       369       368       517      1905      2346      2347
 -1       875    8    0    1
 -2       368       516       517      2344      2348      2346
 -1       876    8    0    1
 -2       370       369       518      1908      2349      2350
 -1       877    8    0    1
 -2       369       517       518      2347      2351      2349
 -1       878    8    0    1
 -2       371       370       519      1911      2352      2353
 -1       879    8    0    1
 -2       370       518       519      2350      2354      2352
 -1       880    8    0    1
 -2       372       371       520      1914      2355      2356
 -1       881    8    0    1
 -2       371       519       520      2353      2357      2355
 -1       882    8    0    1
 -2       373       372       521      1917      2358      2359
 -1       883    8    0    1
 -2       372       520       521      2356      2360      2358
 -1       884    8    0    1
 -2       374       373       522      1920      2361      2362
 -1       885    8    0    1
 -2       373       521       522      2359      2363      2361
 -1       886    8    0    1
 -2       375       374       523      1923      2364      2365
 -1       887    8    0    1
 -2       374       522       523      2362      2366      2364
 -1       888    8    0    1
 -2       376       375       524      1926      2367      2368
 -1       889    8    0    1
 -2       375       523       524      2365      2369      2367
 -1       890    8    0    1
 -2       377       376       525      1929      2370      2371
 -1       891    8    0    1
 -2       376       524       525      2368      2372      2370
 -1       892    8    0    1
 -2       378       377       526      1932      2373      2374
 -1       893    8    0    1
 -2       377       525       526      2371      2375      2373
 -1       894    8    0    1
 -2       379       378       527      1935      2376      2377
 -1       895    8    0    1
 -2       378       526       527      2374      2378      2376
 -1       896    8    0    1
 -2       380       379       528      1938      2379      2380
 -1       897    8    0    1
 -2       379       527       528      2377      2381      2379
 -1       898    8    0    1
 -2       381       380       529      1941      2382      2383
 -1       899    8    0    1
 -2       380       528       529      2380      2384      2382
 -1       900    8    0    1
 -2       385       386       530      1957      2385      2386
 -1       901    8    0    1
 -2       386       387       531      1960      2387      2388
 -1       902    8    0    1
 -2       386       531       530      2388      2389      2385
 -1       903    8    0    1
 -2       387       388       532      1963      2390      2391
 -1       904    8    0    1
 -2       387       532       531      2391      2392      2387
 -1       905    8    0    1
 -2       388       389       533      1966      2393      2394
 -1       906    8    0    1
 -2       388       533       532      2394      2395      2390
 -1       907    8    0    1
 -2       389       390       534      1969      2396      2397
 -1       908    8    0    1
 -2       389       534       533      2397      2398      2393
 -1       909    8    0    1
 -2       390       391       535      1972      2399      2400
 -1       910    8    0    1
 -2       390       535       534      2400      2401      2396
 -1       911    8    0    1
 -2       391       392       536      1975      2402      2403
 -1       912    8    0    1
 -2       391       536       535      2403      2404      2399
 -1       913    8    0    1
 -2       392       393       537      1978      2405      2406
 -1       914    8    0    1
 -2       392       537       536      2406      2407      2402
 -1       915    8    0    1
 -2       393       394       538      1981      2408      2409
 -1       916    8    0    1
 -2       393       538       537      2409      2410      2405
 -1       917    8    0    1
 -2       394       395       539      1984      2411      2412
 -1       918    8    0    1
 -2       394       539       538      2412      2413      2408
 -1       919    8    0    1
 -2       395       396       540      1987      2414      2415
 -1       920    8    0    1
 -2       395       540       539      2415      2416      2411
 -1       921    8    0    1
 -2       396       397       541      1990      2417      2418
 -1       922    8    0    1
 -2       396       541       540      2418      2419      2414
 -1       923    8    0    1
 -2       397       398       542      1993      2420      2421
 -1       924    8    0    1
 -2       397       542       541      2421      2422      2417
 -1       925    8    0    1
 -2       398       399       543      1996      2423      2424
 -1       926    8    0    1
 -2       398       543       542      2424      2425      2420
 -1       927    8    0    1
 -2       399       400       544      1999      2426      2427
 -1       928    8    0    1
 -2       399       544       543      2427      2428      2423
 -1       929    8    0    1
 -2       400       401       545      2002      2429      2430
 -1       930    8    0    1
 -2       400       545       544      2430      2431      2426
 -1       931    8    0    1
 -2       401       402       546      2005      2432      2433
 -1       932    8    0    1
 -2       401       546       545      2433      2434      2429
 -1       933    8    0    1
 -2       402       403       547      2008      2435      2436
 -1       934    8    0    1
 -2       402       547       546      2436      2437      2432
 -1       935    8    0    1
 -2       403       404       548      2011      2438      2439
 -1       936    8    0    1
 -2       403       548       547      2439      2440      2435
 -1       937    8    0    1
 -2       404       405       549      2014      2441      2442
 -1       938    8    0    1
 -2       404       549       548      2442      2443      2438
 -1       939    8    0    1
 -2       405       406       550      2017      2444      2445
 -1       940    8    0    1
 -2       405       550       549      2445      2446      2441
 -1       941    8    0    1
 -2       406       407       551      2020      2447      2448
 -1       942    8    0    1
 -2       406       551       550      2448      2449      2444
 -1       943    8    0    1
 -2       407       408       552      2023      2450      2451
 -1       944    8    0    1
 -2       407       552       551      2451      2452      2447
 -1       945    8    0    1
 -2       408       409       553      2026      2453      2454
 -1       946    8    0    1
 -2       408       553       552      2454      2455      2450
 -1       947    8    0    1
 -2       409       410       554      2029      2456      2457
 -1       948    8    0    1
 -2       409       554       553      2457      2458      2453
 -1       949    8    0    1
 -2       410       411       555      2032      2459      2460
 -1       950    8    0    1
 -2       410       555       554      2460      2461      2456
 -1       951    8    0    1
 -2       411       412       556      2035      2462      2463
 -1       952    8    0    1
 -2       411       556       555      2463      2464      2459
 -1       953    8    0    1
 -2       412       413       557      2038      2465      2466
 -1       954    8    0    1
 -2       412       557       556      2466      2467      2462
 -1       955    8    0    1
 -2       413       414       558      2041      2468      2469
 -1       956    8    0    1
 -2       413       558       557      2469      2470      2465
 -1       957    8    0    1
 -2       414       415       559      2044      2471      2472
 -1       958    8    0    1
 -2       414       559       558      2472      2473      2468
 -1       959    8    0    1
 -2       415       416       560      2047      2474      2475
 -1       960    8    0    1
 -2       415       560       559      2475      2476      2471
 -1       961    8    0    1
 -2       416       417       561      2050      2477      2478
 -1       962    8    0    1
 -2       416       561       560      2478      2479      2474
 -1       963    8    0    1
 -2       417       418       562      2053      2480      2481
 -1       964    8    0    1
 -2       417       562       561      2481      2482      2477
 -1       965    8    0    1
 -2       418       419       563      2056      2483      2484
 -1       966    8    0    1
 -2       418       563       562      2484      2485      2480
 -1       967    8    0    1
 -2       419       420       564      2059      2486      2487
 -1       968    8    0    1
 -2       419       564       563      2487      2488      2483
 -1       969    8    0    1
 -2       420       421       565      2062      2489      2490
 -1       970    8    0    1
 -2       420       565       564      2490      2491      2486
 -1       971    8    0    1
 -2       421       422       566      2065      2492      2493
 -1       972    8    0    1
 -2       421       566       565      2493      2494      2489
 -1       973    8    0    1
 -2       422       423       567      2068      2495      2496
 -1       974    8    0    1
 -2       422       567       566      2496      2497      2492
 -1       975    8    0    1
 -2       423       424       568      2071      2498      2499
 -1       976    8    0    1
 -2       423       568       567      2499      2500      2495
 -1       977    8    0    1
 -2       424       425       569      2074      2501      2502
 -1       978    8    0    1
 -2       424       569       568      2502      2503      2498
 -1       979    8    0    1
 -2       425       426       570      2077      2504      2505
 -1       980    8    0    1
 -2       425       570       569      2505      2506      2501
 -1       981    8    0    1
 -2       426       427       571      2080      2507      2508
 -1       982    8    0    1
 -2       426       571       570      2508      2509      2504
 -1       983    8    0    1
 -2       427       428       431      2083      2092      2510
 -1       984    8    0    1
 -2       432       433       572      2099      2511      2512
 -1       985    8    0    1
 -2       433       434       573      2102      2513      2514
 -1       986    8    0    1
 -2       433       573       572      2514      2515      2511
 -1       987    8    0    1
 -2       430       429       574      2089      2516      2517
 -1       988    8    0    1
 -2       429       432       575      2096      2518      2519
 -1       989    8    0    1
 -2       429       575       574      2519      2520      2516
 -1       990    8    0    1
 -2       434       435       576      2105      2521      2522
 -1       991    8    0    1
 -2       434       576       573      2522      2523      2513
 -1       992    8    0    1
 -2       435       436       577      2108      2524      2525
 -1       993    8    0    1
 -2       435       577       576      2525      2526      2521
 -1       994    8    0    1
 -2       436       437       578      2111      2527      2528
 -1       995    8    0    1
 -2       436       578       577      2528      2529      2524
 -1       996    8    0    1
 -2       437       438       579      2114      2530      2531
 -1       997    8    0    1
 -2       437       579       578      2531      2532      2527
 -1       998    8    0    1
 -2       438       439       580      2117      2533      2534
 -1       999    8    0    1
 -2       438       580       579      2534      2535      2530
 -1      1000    8    0    1
 -2       439       440       581      2120      2536      2537
 -1      1001    8    0    1
 -2       439       581       580      2537      2538      2533
 -1      1002    8    0    1
 -2       440       441       582      2123      2539      2540
 -1      1003    8    0    1
 -2       440       582       581      2540      2541      2536
 -1      1004    8    0    1
 -2       443       444       583      2199      2542      2543
 -1      1005    8    0    1
 -2       442       445       584      2201      2544      2545
 -1      1006    8    0    1
 -2       384       385       585      1954      2546      2547
 -1      1007    8    0    1
 -2       385       530       585      2386      2548      2546
 -1      1008    8    0    1
 -2       441       291       382      2200      1944      2549
 -1      1009    8    0    1
 -2       471       443       586      2202      2550      2551
 -1      1010    8    0    1
 -2       443       583       586      2543      2552      2550
 -1      1011    8    0    1
 -2       444       442       587      2198      2553      2554
 -1      1012    8    0    1
 -2       442       584       587      2545      2555      2553
 -1      1013    8    0    1
 -2       337       323       588      2197      2556      2557
 -1      1014    8    0    1
 -2       485       337       588      2252      2557      2558
 -1      1015    8    0    1
 -2       323       322       588      1766      2559      2556
 -1      1016    8    0    1
 -2       470       471       589      2203      2560      2561
 -1      1017    8    0    1
 -2       457       458       590      2214      2562      2563
 -1      1018    8    0    1
 -2       450       451       591      2218      2564      2565
 -1      1019    8    0    1
 -2       326       327       592      1777      2566      2567
 -1      1020    8    0    1
 -2       476       326       592      2227      2567      2568
 -1      1021    8    0    1
 -2       327       478       592      2233      2569      2566
 -1      1022    8    0    1
 -2       448       449       593      2219      2570      2571
 -1      1023    8    0    1
 -2       449       450       594      2144      2572      2573
 -1      1024    8    0    1
 -2       450       591       594      2565      2574      2572
 -1      1025    8    0    1
 -2       454       455       595      2223      2575      2576
 -1      1026    8    0    1
 -2       452       453       596      2151      2577      2578
 -1      1027    8    0    1
 -2       464       465       597      2224      2579      2580
 -1      1028    8    0    1
 -2       453       454       598      2217      2581      2582
 -1      1029    8    0    1
 -2       453       598       596      2582      2583      2577
 -1      1030    8    0    1
 -2       455       456       599      2216      2584      2585
 -1      1031    8    0    1
 -2       456       457       600      2215      2586      2587
 -1      1032    8    0    1
 -2       458       459       601      2164      2588      2589
 -1      1033    8    0    1
 -2       460       461       602      2169      2590      2591
 -1      1034    8    0    1
 -2       461       462       603      2210      2592      2593
 -1      1035    8    0    1
 -2       461       603       602      2593      2594      2590
 -1      1036    8    0    1
 -2       462       463       604      2174      2595      2596
 -1      1037    8    0    1
 -2       463       464       605      2209      2597      2598
 -1      1038    8    0    1
 -2       465       466       606      2208      2599      2600
 -1      1039    8    0    1
 -2       465       606       597      2600      2601      2579
 -1      1040    8    0    1
 -2       466       467       607      2207      2602      2603
 -1      1041    8    0    1
 -2       467       468       608      2206      2604      2605
 -1      1042    8    0    1
 -2       468       469       609      2205      2606      2607
 -1      1043    8    0    1
 -2       468       609       608      2607      2608      2604
 -1      1044    8    0    1
 -2       469       470       610      2204      2609      2610
 -1      1045    8    0    1
 -2       470       589       610      2561      2611      2609
 -1      1046    8    0    1
 -2       472       448       611      2196      2612      2613
 -1      1047    8    0    1
 -2       335       336       612      1806      2614      2615
 -1      1048    8    0    1
 -2       334       335       612      1801      2615      2616
 -1      1049    8    0    1
 -2       336       475       612      2226      2617      2614
 -1      1050    8    0    1
 -2       445       446       613      2193      2618      2619
 -1      1051    8    0    1
 -2       446       486       613      2255      2620      2618
 -1      1052    8    0    1
 -2       448       593       611      2571      2621      2612
 -1      1053    8    0    1
 -2       324       477       614      2230      2622      2623
 -1      1054    8    0    1
 -2       324       614       447      2623      2624      2137
 -1      1055    8    0    1
 -2       484       384       585      2249      2547      2625
 -1      1056    8    0    1
 -2       333       334       612      1798      2616      2626
 -1      1057    8    0    1
 -2       589       471       586      2560      2551      2627
 -1      1058    8    0    1
 -2       609       469       610      2606      2610      2628
 -1      1059    8    0    1
 -2       427       431       571      2510      2629      2507
 -1      1060    8    0    1
 -2       432       572       575      2512      2630      2518
 -1      1061    8    0    1
 -2       431       430       571      2093      2631      2629
 -1      1062    8    0    1
 -2       606       466       607      2599      2603      2632
 -1      1063    8    0    1
 -2       605       464       615      2597      2633      2634
 -1      1064    8    0    1
 -2       464       597       615      2580      2635      2633
 -1      1065    8    0    1
 -2       603       462       604      2592      2596      2636
 -1      1066    8    0    1
 -2       333       612       483      2626      2637      2246
 -1      1067    8    0    1
 -2       591       451       616      2564      2638      2639
 -1      1068    8    0    1
 -2       451       474       616      2221      2640      2638
 -1      1069    8    0    1
 -2       588       322       447      2559      2136      2641
 -1      1070    8    0    1
 -2       590       458       601      2562      2589      2642
 -1      1071    8    0    1
 -2       457       590       600      2563      2643      2586
 -1      1072    8    0    1
 -2       601       459       617      2588      2644      2645
 -1      1073    8    0    1
 -2       459       473       617      2212      2646      2644
 -1      1074    8    0    1
 -2       598       454       595      2581      2576      2647
 -1      1075    8    0    1
 -2       455       599       618      2585      2648      2649
 -1      1076    8    0    1
 -2       455       618       595      2649      2650      2575
 -1      1077    8    0    1
 -2       473       460       602      2213      2591      2651
 -1      1078    8    0    1
 -2       584       445       613      2544      2619      2652
 -1      1079    8    0    1
 -2       571       430       574      2631      2517      2653
 -1      1080    8    0    1
 -2       486       472       619      2254      2654      2655
 -1      1081    8    0    1
 -2       472       611       619      2613      2656      2654
 -1      1082    8    0    1
 -2       474       452       620      2222      2657      2658
 -1      1083    8    0    1
 -2       452       596       620      2578      2659      2657
 -1      1084    8    0    1
 -2       449       594       593      2573      2660      2570
 -1      1085    8    0    1
 -2       599       456       600      2584      2587      2661
 -1      1086    8    0    1
 -2       604       463       605      2595      2598      2662
 -1      1087    8    0    1
 -2       441       382       621      2549      2663      2664
 -1      1088    8    0    1
 -2       582       441       621      2539      2664      2665
 -1      1089    8    0    1
 -2       382       381       621      1945      2666      2663
 -1      1090    8    0    1
 -2       607       467       608      2602      2605      2667
 -1      1091    8    0    1
 -2       621       381       529      2666      2383      2668
 -1      1092    8    0    1
 -2       479       480       622      2239      2669      2670
 -1      1093    8    0    1
 -2       478       479       623      2236      2671      2672
 -1      1094    8    0    1
 -2       479       622       623      2670      2673      2671
 -1      1095    8    0    1
 -2       481       482       624      2245      2674      2675
 -1      1096    8    0    1
 -2       482       483       625      2248      2676      2677
 -1      1097    8    0    1
 -2       482       625       624      2677      2678      2674
 -1      1098    8    0    1
 -2       475       484       626      2251      2679      2680
 -1      1099    8    0    1
 -2       613       486       627      2620      2681      2682
 -1      1100    8    0    1
 -2       611       593       628      2621      2683      2684
 -1      1101    8    0    1
 -2       612       475       483      2617      2685      2637
 -1      1102    8    0    1
 -2       609       610       629      2628      2686      2687
 -1      1103    8    0    1
 -2       488       487       630      2261      2688      2689
 -1      1104    8    0    1
 -2       489       488       631      2264      2690      2691
 -1      1105    8    0    1
 -2       488       630       631      2689      2692      2690
 -1      1106    8    0    1
 -2       490       489       632      2267      2693      2694
 -1      1107    8    0    1
 -2       489       631       632      2691      2695      2693
 -1      1108    8    0    1
 -2       491       490       633      2270      2696      2697
 -1      1109    8    0    1
 -2       490       632       633      2694      2698      2696
 -1      1110    8    0    1
 -2       492       491       634      2273      2699      2700
 -1      1111    8    0    1
 -2       491       633       634      2697      2701      2699
 -1      1112    8    0    1
 -2       493       492       635      2276      2702      2703
 -1      1113    8    0    1
 -2       492       634       635      2700      2704      2702
 -1      1114    8    0    1
 -2       494       493       636      2279      2705      2706
 -1      1115    8    0    1
 -2       493       635       636      2703      2707      2705
 -1      1116    8    0    1
 -2       495       494       637      2282      2708      2709
 -1      1117    8    0    1
 -2       494       636       637      2706      2710      2708
 -1      1118    8    0    1
 -2       496       495       638      2285      2711      2712
 -1      1119    8    0    1
 -2       495       637       638      2709      2713      2711
 -1      1120    8    0    1
 -2       497       496       639      2288      2714      2715
 -1      1121    8    0    1
 -2       496       638       639      2712      2716      2714
 -1      1122    8    0    1
 -2       498       497       640      2291      2717      2718
 -1      1123    8    0    1
 -2       497       639       640      2715      2719      2717
 -1      1124    8    0    1
 -2       499       498       641      2294      2720      2721
 -1      1125    8    0    1
 -2       498       640       641      2718      2722      2720
 -1      1126    8    0    1
 -2       500       499       642      2297      2723      2724
 -1      1127    8    0    1
 -2       499       641       642      2721      2725      2723
 -1      1128    8    0    1
 -2       501       500       643      2300      2726      2727
 -1      1129    8    0    1
 -2       500       642       643      2724      2728      2726
 -1      1130    8    0    1
 -2       502       501       644      2303      2729      2730
 -1      1131    8    0    1
 -2       501       643       644      2727      2731      2729
 -1      1132    8    0    1
 -2       503       502       645      2306      2732      2733
 -1      1133    8    0    1
 -2       502       644       645      2730      2734      2732
 -1      1134    8    0    1
 -2       504       503       646      2309      2735      2736
 -1      1135    8    0    1
 -2       503       645       646      2733      2737      2735
 -1      1136    8    0    1
 -2       505       504       647      2312      2738      2739
 -1      1137    8    0    1
 -2       504       646       647      2736      2740      2738
 -1      1138    8    0    1
 -2       506       505       648      2315      2741      2742
 -1      1139    8    0    1
 -2       505       647       648      2739      2743      2741
 -1      1140    8    0    1
 -2       507       506       649      2318      2744      2745
 -1      1141    8    0    1
 -2       506       648       649      2742      2746      2744
 -1      1142    8    0    1
 -2       508       507       650      2321      2747      2748
 -1      1143    8    0    1
 -2       507       649       650      2745      2749      2747
 -1      1144    8    0    1
 -2       509       508       651      2324      2750      2751
 -1      1145    8    0    1
 -2       508       650       651      2748      2752      2750
 -1      1146    8    0    1
 -2       510       509       652      2327      2753      2754
 -1      1147    8    0    1
 -2       509       651       652      2751      2755      2753
 -1      1148    8    0    1
 -2       511       510       653      2330      2756      2757
 -1      1149    8    0    1
 -2       510       652       653      2754      2758      2756
 -1      1150    8    0    1
 -2       512       511       654      2333      2759      2760
 -1      1151    8    0    1
 -2       511       653       654      2757      2761      2759
 -1      1152    8    0    1
 -2       513       512       655      2336      2762      2763
 -1      1153    8    0    1
 -2       512       654       655      2760      2764      2762
 -1      1154    8    0    1
 -2       514       513       656      2339      2765      2766
 -1      1155    8    0    1
 -2       513       655       656      2763      2767      2765
 -1      1156    8    0    1
 -2       515       514       657      2342      2768      2769
 -1      1157    8    0    1
 -2       514       656       657      2766      2770      2768
 -1      1158    8    0    1
 -2       516       515       658      2345      2771      2772
 -1      1159    8    0    1
 -2       515       657       658      2769      2773      2771
 -1      1160    8    0    1
 -2       517       516       659      2348      2774      2775
 -1      1161    8    0    1
 -2       516       658       659      2772      2776      2774
 -1      1162    8    0    1
 -2       518       517       660      2351      2777      2778
 -1      1163    8    0    1
 -2       517       659       660      2775      2779      2777
 -1      1164    8    0    1
 -2       519       518       661      2354      2780      2781
 -1      1165    8    0    1
 -2       518       660       661      2778      2782      2780
 -1      1166    8    0    1
 -2       520       519       662      2357      2783      2784
 -1      1167    8    0    1
 -2       519       661       662      2781      2785      2783
 -1      1168    8    0    1
 -2       521       520       663      2360      2786      2787
 -1      1169    8    0    1
 -2       520       662       663      2784      2788      2786
 -1      1170    8    0    1
 -2       522       521       664      2363      2789      2790
 -1      1171    8    0    1
 -2       521       663       664      2787      2791      2789
 -1      1172    8    0    1
 -2       523       522       665      2366      2792      2793
 -1      1173    8    0    1
 -2       522       664       665      2790      2794      2792
 -1      1174    8    0    1
 -2       524       523       666      2369      2795      2796
 -1      1175    8    0    1
 -2       523       665       666      2793      2797      2795
 -1      1176    8    0    1
 -2       525       524       667      2372      2798      2799
 -1      1177    8    0    1
 -2       524       666       667      2796      2800      2798
 -1      1178    8    0    1
 -2       526       525       668      2375      2801      2802
 -1      1179    8    0    1
 -2       525       667       668      2799      2803      2801
 -1      1180    8    0    1
 -2       527       526       669      2378      2804      2805
 -1      1181    8    0    1
 -2       526       668       669      2802      2806      2804
 -1      1182    8    0    1
 -2       528       527       670      2381      2807      2808
 -1      1183    8    0    1
 -2       527       669       670      2805      2809      2807
 -1      1184    8    0    1
 -2       529       528       671      2384      2810      2811
 -1      1185    8    0    1
 -2       528       670       671      2808      2812      2810
 -1      1186    8    0    1
 -2       531       532       672      2392      2813      2814
 -1      1187    8    0    1
 -2       607       608       673      2667      2815      2816
 -1      1188    8    0    1
 -2       606       607       674      2632      2817      2818
 -1      1189    8    0    1
 -2       530       531       675      2389      2819      2820
 -1      1190    8    0    1
 -2       531       672       675      2814      2821      2819
 -1      1191    8    0    1
 -2       533       534       676      2398      2822      2823
 -1      1192    8    0    1
 -2       534       535       677      2401      2824      2825
 -1      1193    8    0    1
 -2       534       677       676      2825      2826      2822
 -1      1194    8    0    1
 -2       535       536       678      2404      2827      2828
 -1      1195    8    0    1
 -2       535       678       677      2828      2829      2824
 -1      1196    8    0    1
 -2       536       537       679      2407      2830      2831
 -1      1197    8    0    1
 -2       536       679       678      2831      2832      2827
 -1      1198    8    0    1
 -2       537       538       680      2410      2833      2834
 -1      1199    8    0    1
 -2       537       680       679      2834      2835      2830
 -1      1200    8    0    1
 -2       538       539       681      2413      2836      2837
 -1      1201    8    0    1
 -2       538       681       680      2837      2838      2833
 -1      1202    8    0    1
 -2       539       540       682      2416      2839      2840
 -1      1203    8    0    1
 -2       539       682       681      2840      2841      2836
 -1      1204    8    0    1
 -2       540       541       683      2419      2842      2843
 -1      1205    8    0    1
 -2       540       683       682      2843      2844      2839
 -1      1206    8    0    1
 -2       541       542       684      2422      2845      2846
 -1      1207    8    0    1
 -2       541       684       683      2846      2847      2842
 -1      1208    8    0    1
 -2       542       543       685      2425      2848      2849
 -1      1209    8    0    1
 -2       542       685       684      2849      2850      2845
 -1      1210    8    0    1
 -2       543       544       686      2428      2851      2852
 -1      1211    8    0    1
 -2       543       686       685      2852      2853      2848
 -1      1212    8    0    1
 -2       544       545       687      2431      2854      2855
 -1      1213    8    0    1
 -2       544       687       686      2855      2856      2851
 -1      1214    8    0    1
 -2       545       546       688      2434      2857      2858
 -1      1215    8    0    1
 -2       545       688       687      2858      2859      2854
 -1      1216    8    0    1
 -2       546       547       689      2437      2860      2861
 -1      1217    8    0    1
 -2       546       689       688      2861      2862      2857
 -1      1218    8    0    1
 -2       547       548       690      2440      2863      2864
 -1      1219    8    0    1
 -2       547       690       689      2864      2865      2860
 -1      1220    8    0    1
 -2       548       549       691      2443      2866      2867
 -1      1221    8    0    1
 -2       548       691       690      2867      2868      2863
 -1      1222    8    0    1
 -2       549       550       692      2446      2869      2870
 -1      1223    8    0    1
 -2       549       692       691      2870      2871      2866
 -1      1224    8    0    1
 -2       550       551       693      2449      2872      2873
 -1      1225    8    0    1
 -2       550       693       692      2873      2874      2869
 -1      1226    8    0    1
 -2       551       552       694      2452      2875      2876
 -1      1227    8    0    1
 -2       551       694       693      2876      2877      2872
 -1      1228    8    0    1
 -2       552       553       695      2455      2878      2879
 -1      1229    8    0    1
 -2       552       695       694      2879      2880      2875
 -1      1230    8    0    1
 -2       553       554       696      2458      2881      2882
 -1      1231    8    0    1
 -2       553       696       695      2882      2883      2878
 -1      1232    8    0    1
 -2       554       555       697      2461      2884      2885
 -1      1233    8    0    1
 -2       554       697       696      2885      2886      2881
 -1      1234    8    0    1
 -2       555       556       698      2464      2887      2888
 -1      1235    8    0    1
 -2       555       698       697      2888      2889      2884
 -1      1236    8    0    1
 -2       556       557       699      2467      2890      2891
 -1      1237    8    0    1
 -2       556       699       698      2891      2892      2887
 -1      1238    8    0    1
 -2       557       558       700      2470      2893      2894
 -1      1239    8    0    1
 -2       557       700       699      2894      2895      2890
 -1      1240    8    0    1
 -2       558       559       701      2473      2896      2897
 -1      1241    8    0    1
 -2       558       701       700      2897      2898      2893
 -1      1242    8    0    1
 -2       559       560       702      2476      2899      2900
 -1      1243    8    0    1
 -2       559       702       701      2900      2901      2896
 -1      1244    8    0    1
 -2       560       561       703      2479      2902      2903
 -1      1245    8    0    1
 -2       560       703       702      2903      2904      2899
 -1      1246    8    0    1
 -2       561       562       704      2482      2905      2906
 -1      1247    8    0    1
 -2       561       704       703      2906      2907      2902
 -1      1248    8    0    1
 -2       562       563       705      2485      2908      2909
 -1      1249    8    0    1
 -2       562       705       704      2909      2910      2905
 -1      1250    8    0    1
 -2       563       564       706      2488      2911      2912
 -1      1251    8    0    1
 -2       563       706       705      2912      2913      2908
 -1      1252    8    0    1
 -2       564       565       616      2491      2914      2915
 -1      1253    8    0    1
 -2       565       566       594      2494      2916      2917
 -1      1254    8    0    1
 -2       566       567       594      2497      2918      2916
 -1      1255    8    0    1
 -2       567       568       628      2500      2919      2920
 -1      1256    8    0    1
 -2       569       570       707      2506      2921      2922
 -1      1257    8    0    1
 -2       570       571       708      2509      2923      2924
 -1      1258    8    0    1
 -2       707       570       708      2921      2924      2925
 -1      1259    8    0    1
 -2       571       574       708      2653      2926      2923
 -1      1260    8    0    1
 -2       575       572       709      2630      2927      2928
 -1      1261    8    0    1
 -2       574       575       710      2520      2929      2930
 -1      1262    8    0    1
 -2       708       574       710      2926      2930      2931
 -1      1263    8    0    1
 -2       575       709       710      2928      2932      2929
 -1      1264    8    0    1
 -2       577       578       711      2529      2933      2934
 -1      1265    8    0    1
 -2       578       579       712      2532      2935      2936
 -1      1266    8    0    1
 -2       579       580       713      2535      2937      2938
 -1      1267    8    0    1
 -2       579       713       712      2938      2939      2935
 -1      1268    8    0    1
 -2       580       581       714      2538      2940      2941
 -1      1269    8    0    1
 -2       580       714       713      2941      2942      2937
 -1      1270    8    0    1
 -2       444       587       715      2554      2943      2944
 -1      1271    8    0    1
 -2       583       444       715      2542      2944      2945
 -1      1272    8    0    1
 -2       485       588       716      2558      2946      2947
 -1      1273    8    0    1
 -2       586       583       576      2552      2948      2949
 -1      1274    8    0    1
 -2       585       530       717      2548      2950      2951
 -1      1275    8    0    1
 -2       530       675       717      2820      2952      2950
 -1      1276    8    0    1
 -2       532       533       718      2395      2953      2954
 -1      1277    8    0    1
 -2       672       532       718      2813      2954      2955
 -1      1278    8    0    1
 -2       533       676       718      2823      2956      2953
 -1      1279    8    0    1
 -2       487       485       719      2258      2957      2958
 -1      1280    8    0    1
 -2       630       487       719      2688      2958      2959
 -1      1281    8    0    1
 -2       485       716       719      2947      2960      2957
 -1      1282    8    0    1
 -2       480       481       720      2242      2961      2962
 -1      1283    8    0    1
 -2       622       480       720      2669      2962      2963
 -1      1284    8    0    1
 -2       481       624       720      2675      2964      2961
 -1      1285    8    0    1
 -2       484       585       721      2625      2965      2966
 -1      1286    8    0    1
 -2       626       484       721      2679      2966      2967
 -1      1287    8    0    1
 -2       585       717       721      2951      2968      2965
 -1      1288    8    0    1
 -2       590       601       722      2642      2969      2970
 -1      1289    8    0    1
 -2       588       447       716      2641      2971      2946
 -1      1290    8    0    1
 -2       473       602       723      2651      2972      2973
 -1      1291    8    0    1
 -2       477       476       724      2231      2974      2975
 -1      1292    8    0    1
 -2       603       604       725      2636      2976      2977
 -1      1293    8    0    1
 -2       599       600       726      2661      2978      2979
 -1      1294    8    0    1
 -2       596       598       727      2583      2980      2981
 -1      1295    8    0    1
 -2       604       605       728      2662      2982      2983
 -1      1296    8    0    1
 -2       600       590       729      2643      2984      2985
 -1      1297    8    0    1
 -2       584       613       730      2652      2986      2987
 -1      1298    8    0    1
 -2       598       595       731      2647      2988      2989
 -1      1299    8    0    1
 -2       602       603       732      2594      2990      2991
 -1      1300    8    0    1
 -2       582       621       733      2665      2992      2993
 -1      1301    8    0    1
 -2       621       529       733      2668      2994      2992
 -1      1302    8    0    1
 -2       597       606       734      2601      2995      2996
 -1      1303    8    0    1
 -2       608       609       735      2608      2997      2998
 -1      1304    8    0    1
 -2       610       589       711      2611      2999      3000
 -1      1305    8    0    1
 -2       715       587       736      2943      3001      3002
 -1      1306    8    0    1
 -2       614       477       737      2622      3003      3004
 -1      1307    8    0    1
 -2       477       724       737      2975      3005      3003
 -1      1308    8    0    1
 -2       735       609       629      2997      2687      3006
 -1      1309    8    0    1
 -2       478       623       738      2672      3007      3008
 -1      1310    8    0    1
 -2       478       738       592      3008      3009      2569
 -1      1311    8    0    1
 -2       722       601       739      2969      3010      3011
 -1      1312    8    0    1
 -2       601       617       739      2645      3012      3010
 -1      1313    8    0    1
 -2       613       627       730      2682      3013      2986
 -1      1314    8    0    1
 -2       733       529       671      2994      2811      3014
 -1      1315    8    0    1
 -2       732       603       725      2990      2977      3015
 -1      1316    8    0    1
 -2       611       628       619      2684      3016      2656
 -1      1317    8    0    1
 -2       731       595       618      2988      2650      3017
 -1      1318    8    0    1
 -2       483       475       626      2685      2680      3018
 -1      1319    8    0    1
 -2       629       610       711      2686      3000      3019
 -1      1320    8    0    1
 -2       607       673       674      2816      3020      2817
 -1      1321    8    0    1
 -2       606       674       734      2818      3021      2995
 -1      1322    8    0    1
 -2       564       616       706      2915      3022      2911
 -1      1323    8    0    1
 -2       594       567       593      2918      3023      2660
 -1      1324    8    0    1
 -2       628       568       740      2919      3024      3025
 -1      1325    8    0    1
 -2       619       628       740      3016      3025      3026
 -1      1326    8    0    1
 -2       568       569       740      2503      3027      3024
 -1      1327    8    0    1
 -2       569       707       740      2922      3028      3027
 -1      1328    8    0    1
 -2       729       590       722      2984      2970      3029
 -1      1329    8    0    1
 -2       486       619       627      2655      3030      2681
 -1      1330    8    0    1
 -2       572       573       736      2515      3031      3032
 -1      1331    8    0    1
 -2       728       605       741      2982      3033      3034
 -1      1332    8    0    1
 -2       605       615       741      2634      3035      3033
 -1      1333    8    0    1
 -2       615       597       734      2635      2996      3036
 -1      1334    8    0    1
 -2       581       582       733      2541      2993      3037
 -1      1335    8    0    1
 -2       625       483       626      2676      3018      3038
 -1      1336    8    0    1
 -2       473       723       617      2973      3039      2646
 -1      1337    8    0    1
 -2       586       576       742      2949      3040      3041
 -1      1338    8    0    1
 -2       616       474       620      2640      2658      3042
 -1      1339    8    0    1
 -2       587       584       743      2555      3043      3044
 -1      1340    8    0    1
 -2       567       628       593      2920      2683      3023
 -1      1341    8    0    1
 -2       618       599       744      2648      3045      3046
 -1      1342    8    0    1
 -2       599       726       744      2979      3047      3045
 -1      1343    8    0    1
 -2       673       608       735      2815      2998      3048
 -1      1344    8    0    1
 -2       727       598       731      2980      2989      3049
 -1      1345    8    0    1
 -2       726       600       729      2978      2985      3050
 -1      1346    8    0    1
 -2       620       596       727      2659      2981      3051
 -1      1347    8    0    1
 -2       476       592       745      2568      3052      3053
 -1      1348    8    0    1
 -2       724       476       745      2974      3053      3054
 -1      1349    8    0    1
 -2       592       738       745      3009      3055      3052
 -1      1350    8    0    1
 -2       725       604       728      2976      2983      3056
 -1      1351    8    0    1
 -2       587       743       736      3044      3057      3001
 -1      1352    8    0    1
 -2       716       447       614      2971      2624      3058
 -1      1353    8    0    1
 -2       723       602       732      2972      2991      3059
 -1      1354    8    0    1
 -2       584       730       743      2987      3060      3043
 -1      1355    8    0    1
 -2       581       733       746      3037      3061      3062
 -1      1356    8    0    1
 -2       714       581       746      2940      3062      3063
 -1      1357    8    0    1
 -2       733       671       746      3014      3064      3061
 -1      1358    8    0    1
 -2       715       736       747      3002      3065      3066
 -1      1359    8    0    1
 -2       583       715       747      2945      3066      3067
 -1      1360    8    0    1
 -2       736       573       747      3031      3068      3065
 -1      1361    8    0    1
 -2       589       586       742      2627      3041      3069
 -1      1362    8    0    1
 -2       629       711       712      3019      3070      3071
 -1      1363    8    0    1
 -2       624       625       748      2678      3072      3073
 -1      1364    8    0    1
 -2       583       747       576      3067      3074      2948
 -1      1365    8    0    1
 -2       732       725       749      3015      3075      3076
 -1      1366    8    0    1
 -2       632       631       750      2695      3077      3078
 -1      1367    8    0    1
 -2       633       632       751      2698      3079      3080
 -1      1368    8    0    1
 -2       632       750       751      3078      3081      3079
 -1      1369    8    0    1
 -2       634       633       752      2701      3082      3083
 -1      1370    8    0    1
 -2       633       751       752      3080      3084      3082
 -1      1371    8    0    1
 -2       635       634       753      2704      3085      3086
 -1      1372    8    0    1
 -2       634       752       753      3083      3087      3085
 -1      1373    8    0    1
 -2       636       635       754      2707      3088      3089
 -1      1374    8    0    1
 -2       635       753       754      3086      3090      3088
 -1      1375    8    0    1
 -2       637       636       755      2710      3091      3092
 -1      1376    8    0    1
 -2       636       754       755      3089      3093      3091
 -1      1377    8    0    1
 -2       638       637       756      2713      3094      3095
 -1      1378    8    0    1
 -2       637       755       756      3092      3096      3094
 -1      1379    8    0    1
 -2       639       638       757      2716      3097      3098
 -1      1380    8    0    1
 -2       638       756       757      3095      3099      3097
 -1      1381    8    0    1
 -2       640       639       758      2719      3100      3101
 -1      1382    8    0    1
 -2       639       757       758      3098      3102      3100
 -1      1383    8    0    1
 -2       641       640       759      2722      3103      3104
 -1      1384    8    0    1
 -2       640       758       759      3101      3105      3103
 -1      1385    8    0    1
 -2       642       641       760      2725      3106      3107
 -1      1386    8    0    1
 -2       641       759       760      3104      3108      3106
 -1      1387    8    0    1
 -2       643       642       761      2728      3109      3110
 -1      1388    8    0    1
 -2       642       760       761      3107      3111      3109
 -1      1389    8    0    1
 -2       644       643       762      2731      3112      3113
 -1      1390    8    0    1
 -2       643       761       762      3110      3114      3112
 -1      1391    8    0    1
 -2       645       644       763      2734      3115      3116
 -1      1392    8    0    1
 -2       644       762       763      3113      3117      3115
 -1      1393    8    0    1
 -2       646       645       764      2737      3118      3119
 -1      1394    8    0    1
 -2       645       763       764      3116      3120      3118
 -1      1395    8    0    1
 -2       647       646       765      2740      3121      3122
 -1      1396    8    0    1
 -2       646       764       765      3119      3123      3121
 -1      1397    8    0    1
 -2       648       647       766      2743      3124      3125
 -1      1398    8    0    1
 -2       647       765       766      3122      3126      3124
 -1      1399    8    0    1
 -2       649       648       767      2746      3127      3128
 -1      1400    8    0    1
 -2       648       766       767      3125      3129      3127
 -1      1401    8    0    1
 -2       650       649       768      2749      3130      3131
 -1      1402    8    0    1
 -2       649       767       768      3128      3132      3130
 -1      1403    8    0    1
 -2       651       650       769      2752      3133      3134
 -1      1404    8    0    1
 -2       650       768       769      3131      3135      3133
 -1      1405    8    0    1
 -2       652       651       770      2755      3136      3137
 -1      1406    8    0    1
 -2       651       769       770      3134      3138      3136
 -1      1407    8    0    1
 -2       653       652       771      2758      3139      3140
 -1      1408    8    0    1
 -2       652       770       771      3137      3141      3139
 -1      1409    8    0    1
 -2       654       653       772      2761      3142      3143
 -1      1410    8    0    1
 -2       653       771       772      3140      3144      3142
 -1      1411    8    0    1
 -2       655       654       773      2764      3145      3146
 -1      1412    8    0    1
 -2       654       772       773      3143      3147      3145
 -1      1413    8    0    1
 -2       656       655       774      2767      3148      3149
 -1      1414    8    0    1
 -2       655       773       774      3146      3150      3148
 -1      1415    8    0    1
 -2       657       656       775      2770      3151      3152
 -1      1416    8    0    1
 -2       656       774       775      3149      3153      3151
 -1      1417    8    0    1
 -2       658       657       776      2773      3154      3155
 -1      1418    8    0    1
 -2       657       775       776      3152      3156      3154
 -1      1419    8    0    1
 -2       659       658       777      2776      3157      3158
 -1      1420    8    0    1
 -2       658       776       777      3155      3159      3157
 -1      1421    8    0    1
 -2       660       659       778      2779      3160      3161
 -1      1422    8    0    1
 -2       659       777       778      3158      3162      3160
 -1      1423    8    0    1
 -2       661       660       779      2782      3163      3164
 -1      1424    8    0    1
 -2       660       778       779      3161      3165      3163
 -1      1425    8    0    1
 -2       662       661       780      2785      3166      3167
 -1      1426    8    0    1
 -2       661       779       780      3164      3168      3166
 -1      1427    8    0    1
 -2       663       662       781      2788      3169      3170
 -1      1428    8    0    1
 -2       662       780       781      3167      3171      3169
 -1      1429    8    0    1
 -2       664       663       782      2791      3172      3173
 -1      1430    8    0    1
 -2       663       781       782      3170      3174      3172
 -1      1431    8    0    1
 -2       665       664       783      2794      3175      3176
 -1      1432    8    0    1
 -2       664       782       783      3173      3177      3175
 -1      1433    8    0    1
 -2       667       666       784      2800      3178      3179
 -1      1434    8    0    1
 -2       669       668       785      2806      3180      3181
 -1      1435    8    0    1
 -2       670       669       786      2809      3182      3183
 -1      1436    8    0    1
 -2       669       785       786      3181      3184      3182
 -1      1437    8    0    1
 -2       671       670       787      2812      3185      3186
 -1      1438    8    0    1
 -2       746       671       787      3064      3186      3187
 -1      1439    8    0    1
 -2       670       786       787      3183      3188      3185
 -1      1440    8    0    1
 -2       677       678       788      2829      3189      3190
 -1      1441    8    0    1
 -2       676       677       789      2826      3191      3192
 -1      1442    8    0    1
 -2       677       788       789      3190      3193      3191
 -1      1443    8    0    1
 -2       679       680       790      2835      3194      3195
 -1      1444    8    0    1
 -2       680       681       791      2838      3196      3197
 -1      1445    8    0    1
 -2       680       791       790      3197      3198      3194
 -1      1446    8    0    1
 -2       681       682       792      2841      3199      3200
 -1      1447    8    0    1
 -2       681       792       791      3200      3201      3196
 -1      1448    8    0    1
 -2       682       683       793      2844      3202      3203
 -1      1449    8    0    1
 -2       682       793       792      3203      3204      3199
 -1      1450    8    0    1
 -2       683       684       794      2847      3205      3206
 -1      1451    8    0    1
 -2       683       794       793      3206      3207      3202
 -1      1452    8    0    1
 -2       684       685       795      2850      3208      3209
 -1      1453    8    0    1
 -2       684       795       794      3209      3210      3205
 -1      1454    8    0    1
 -2       685       686       796      2853      3211      3212
 -1      1455    8    0    1
 -2       685       796       795      3212      3213      3208
 -1      1456    8    0    1
 -2       686       687       797      2856      3214      3215
 -1      1457    8    0    1
 -2       686       797       796      3215      3216      3211
 -1      1458    8    0    1
 -2       687       688       798      2859      3217      3218
 -1      1459    8    0    1
 -2       687       798       797      3218      3219      3214
 -1      1460    8    0    1
 -2       688       689       799      2862      3220      3221
 -1      1461    8    0    1
 -2       688       799       798      3221      3222      3217
 -1      1462    8    0    1
 -2       689       690       800      2865      3223      3224
 -1      1463    8    0    1
 -2       689       800       799      3224      3225      3220
 -1      1464    8    0    1
 -2       690       691       801      2868      3226      3227
 -1      1465    8    0    1
 -2       690       801       800      3227      3228      3223
 -1      1466    8    0    1
 -2       691       692       802      2871      3229      3230
 -1      1467    8    0    1
 -2       691       802       801      3230      3231      3226
 -1      1468    8    0    1
 -2       692       693       803      2874      3232      3233
 -1      1469    8    0    1
 -2       692       803       802      3233      3234      3229
 -1      1470    8    0    1
 -2       693       694       804      2877      3235      3236
 -1      1471    8    0    1
 -2       693       804       803      3236      3237      3232
 -1      1472    8    0    1
 -2       694       695       805      2880      3238      3239
 -1      1473    8    0    1
 -2       694       805       804      3239      3240      3235
 -1      1474    8    0    1
 -2       695       696       806      2883      3241      3242
 -1      1475    8    0    1
 -2       695       806       805      3242      3243      3238
 -1      1476    8    0    1
 -2       696       697       807      2886      3244      3245
 -1      1477    8    0    1
 -2       696       807       806      3245      3246      3241
 -1      1478    8    0    1
 -2       697       698       808      2889      3247      3248
 -1      1479    8    0    1
 -2       697       808       807      3248      3249      3244
 -1      1480    8    0    1
 -2       698       699       809      2892      3250      3251
 -1      1481    8    0    1
 -2       698       809       808      3251      3252      3247
 -1      1482    8    0    1
 -2       699       700       810      2895      3253      3254
 -1      1483    8    0    1
 -2       699       810       809      3254      3255      3250
 -1      1484    8    0    1
 -2       700       701       811      2898      3256      3257
 -1      1485    8    0    1
 -2       700       811       810      3257      3258      3253
 -1      1486    8    0    1
 -2       701       702       812      2901      3259      3260
 -1      1487    8    0    1
 -2       701       812       811      3260      3261      3256
 -1      1488    8    0    1
 -2       702       703       813      2904      3262      3263
 -1      1489    8    0    1
 -2       702       813       812      3263      3264      3259
 -1      1490    8    0    1
 -2       703       704       814      2907      3265      3266
 -1      1491    8    0    1
 -2       703       814       813      3266      3267      3262
 -1      1492    8    0    1
 -2       704       705       815      2910      3268      3269
 -1      1493    8    0    1
 -2       704       815       814      3269      3270      3265
 -1      1494    8    0    1
 -2       705       706       727      2913      3271      3272
 -1      1495    8    0    1
 -2       565       594       591      2917      2574      3273
 -1      1496    8    0    1
 -2       729       722       816      3029      3274      3275
 -1      1497    8    0    1
 -2       740       707       627      3028      3276      3277
 -1      1498    8    0    1
 -2       576       577       742      2526      3278      3040
 -1      1499    8    0    1
 -2       589       742       711      3069      3279      2999
 -1      1500    8    0    1
 -2       573       576       747      2523      3074      3068
 -1      1501    8    0    1
 -2       713       714       817      2942      3280      3281
 -1      1502    8    0    1
 -2       578       712       711      2936      3070      2933
 -1      1503    8    0    1
 -2       717       675       818      2952      3282      3283
 -1      1504    8    0    1
 -2       712       713       819      2939      3284      3285
 -1      1505    8    0    1
 -2       629       712       819      3071      3285      3286
 -1      1506    8    0    1
 -2       713       817       819      3281      3287      3284
 -1      1507    8    0    1
 -2       725       728       820      3056      3288      3289
 -1      1508    8    0    1
 -2       627       619       740      3030      3026      3277
 -1      1509    8    0    1
 -2       678       679       821      2832      3290      3291
 -1      1510    8    0    1
 -2       788       678       821      3189      3291      3292
 -1      1511    8    0    1
 -2       679       790       821      3195      3293      3290
 -1      1512    8    0    1
 -2       615       734       822      3036      3294      3295
 -1      1513    8    0    1
 -2       675       672       823      2821      3296      3297
 -1      1514    8    0    1
 -2       675       823       818      3297      3298      3282
 -1      1515    8    0    1
 -2       734       674       824      3021      3299      3300
 -1      1516    8    0    1
 -2       617       723       825      3039      3301      3302
 -1      1517    8    0    1
 -2       731       618       826      3017      3303      3304
 -1      1518    8    0    1
 -2       631       630       827      2692      3305      3306
 -1      1519    8    0    1
 -2       631       827       750      3306      3307      3077
 -1      1520    8    0    1
 -2       726       729       828      3050      3308      3309
 -1      1521    8    0    1
 -2       625       626       829      3038      3310      3311
 -1      1522    8    0    1
 -2       748       625       829      3072      3311      3312
 -1      1523    8    0    1
 -2       626       721       829      2967      3313      3310
 -1      1524    8    0    1
 -2       577       711       742      2934      3279      3278
 -1      1525    8    0    1
 -2       727       731       815      3049      3314      3315
 -1      1526    8    0    1
 -2       623       622       830      2673      3316      3317
 -1      1527    8    0    1
 -2       674       673       831      3020      3318      3319
 -1      1528    8    0    1
 -2       723       732       832      3059      3320      3321
 -1      1529    8    0    1
 -2       716       614       737      3058      3004      3322
 -1      1530    8    0    1
 -2       705       727       815      3272      3315      3268
 -1      1531    8    0    1
 -2       565       591       616      3273      2639      2914
 -1      1532    8    0    1
 -2       738       623       833      3007      3323      3324
 -1      1533    8    0    1
 -2       623       830       833      3317      3325      3323
 -1      1534    8    0    1
 -2       739       617       834      3012      3326      3327
 -1      1535    8    0    1
 -2       617       825       834      3302      3328      3326
 -1      1536    8    0    1
 -2       624       748       835      3073      3329      3330
 -1      1537    8    0    1
 -2       624       835       720      3330      3331      2964
 -1      1538    8    0    1
 -2       817       714       746      3280      3063      3332
 -1      1539    8    0    1
 -2       737       724       836      3005      3333      3334
 -1      1540    8    0    1
 -2       831       673       817      3318      3335      3336
 -1      1541    8    0    1
 -2       749       725       820      3075      3289      3337
 -1      1542    8    0    1
 -2       630       719       837      2959      3338      3339
 -1      1543    8    0    1
 -2       630       837       827      3339      3340      3305
 -1      1544    8    0    1
 -2       667       784       822      3179      3341      3342
 -1      1545    8    0    1
 -2       666       665       838      2797      3343      3344
 -1      1546    8    0    1
 -2       668       667       822      2803      3342      3345
 -1      1547    8    0    1
 -2       719       716       737      2960      3322      3346
 -1      1548    8    0    1
 -2       672       718       839      2955      3347      3348
 -1      1549    8    0    1
 -2       672       839       823      3348      3349      3296
 -1      1550    8    0    1
 -2       676       789       840      3192      3350      3351
 -1      1551    8    0    1
 -2       676       840       718      3351      3352      2956
 -1      1552    8    0    1
 -2       727       706       620      3271      3353      3051
 -1      1553    8    0    1
 -2       838       665       783      3343      3176      3354
 -1      1554    8    0    1
 -2       618       744       826      3046      3355      3303
 -1      1555    8    0    1
 -2       816       722       841      3274      3356      3357
 -1      1556    8    0    1
 -2       722       739       841      3011      3358      3356
 -1      1557    8    0    1
 -2       707       708       842      2925      3359      3360
 -1      1558    8    0    1
 -2       708       710       842      2931      3361      3359
 -1      1559    8    0    1
 -2       832       732       749      3320      3076      3362
 -1      1560    8    0    1
 -2       815       731       826      3314      3304      3363
 -1      1561    8    0    1
 -2       616       620       706      3042      3353      3022
 -1      1562    8    0    1
 -2       622       720       843      2963      3364      3365
 -1      1563    8    0    1
 -2       830       622       843      3316      3365      3366
 -1      1564    8    0    1
 -2       720       835       843      3331      3367      3364
 -1      1565    8    0    1
 -2       825       723       832      3301      3321      3368
 -1      1566    8    0    1
 -2       820       728       784      3288      3369      3370
 -1      1567    8    0    1
 -2       730       627       842      3013      3371      3372
 -1      1568    8    0    1
 -2       824       674       831      3299      3319      3373
 -1      1569    8    0    1
 -2       707       842       627      3360      3371      3276
 -1      1570    8    0    1
 -2       729       816       828      3275      3374      3308
 -1      1571    8    0    1
 -2       785       668       822      3180      3345      3375
 -1      1572    8    0    1
 -2       735       629       819      3006      3286      3376
 -1      1573    8    0    1
 -2       673       735       817      3048      3377      3335
 -1      1574    8    0    1
 -2       724       745       844      3054      3378      3379
 -1      1575    8    0    1
 -2       724       844       836      3379      3380      3333
 -1      1576    8    0    1
 -2       744       726       845      3047      3381      3382
 -1      1577    8    0    1
 -2       726       828       845      3309      3383      3381
 -1      1578    8    0    1
 -2       822       734       824      3294      3300      3384
 -1      1579    8    0    1
 -2       721       717       846      2968      3385      3386
 -1      1580    8    0    1
 -2       829       721       846      3313      3386      3387
 -1      1581    8    0    1
 -2       717       818       846      3283      3388      3385
 -1      1582    8    0    1
 -2       572       736       743      3032      3057      3389
 -1      1583    8    0    1
 -2       666       838       784      3344      3390      3178
 -1      1584    8    0    1
 -2       730       842       710      3372      3361      3391
 -1      1585    8    0    1
 -2       826       744       847      3355      3392      3393
 -1      1586    8    0    1
 -2       744       845       847      3382      3394      3392
 -1      1587    8    0    1
 -2       752       751       848      3084      3395      3396
 -1      1588    8    0    1
 -2       753       752       849      3087      3397      3398
 -1      1589    8    0    1
 -2       752       848       849      3396      3399      3397
 -1      1590    8    0    1
 -2       754       753       850      3090      3400      3401
 -1      1591    8    0    1
 -2       753       849       850      3398      3402      3400
 -1      1592    8    0    1
 -2       755       754       851      3093      3403      3404
 -1      1593    8    0    1
 -2       754       850       851      3401      3405      3403
 -1      1594    8    0    1
 -2       756       755       852      3096      3406      3407
 -1      1595    8    0    1
 -2       755       851       852      3404      3408      3406
 -1      1596    8    0    1
 -2       757       756       853      3099      3409      3410
 -1      1597    8    0    1
 -2       756       852       853      3407      3411      3409
 -1      1598    8    0    1
 -2       758       757       854      3102      3412      3413
 -1      1599    8    0    1
 -2       757       853       854      3410      3414      3412
 -1      1600    8    0    1
 -2       759       758       855      3105      3415      3416
 -1      1601    8    0    1
 -2       758       854       855      3413      3417      3415
 -1      1602    8    0    1
 -2       760       759       856      3108      3418      3419
 -1      1603    8    0    1
 -2       759       855       856      3416      3420      3418
 -1      1604    8    0    1
 -2       761       760       857      3111      3421      3422
 -1      1605    8    0    1
 -2       760       856       857      3419      3423      3421
 -1      1606    8    0    1
 -2       762       761       858      3114      3424      3425
 -1      1607    8    0    1
 -2       761       857       858      3422      3426      3424
 -1      1608    8    0    1
 -2       763       762       859      3117      3427      3428
 -1      1609    8    0    1
 -2       762       858       859      3425      3429      3427
 -1      1610    8    0    1
 -2       764       763       860      3120      3430      3431
 -1      1611    8    0    1
 -2       763       859       860      3428      3432      3430
 -1      1612    8    0    1
 -2       765       764       861      3123      3433      3434
 -1      1613    8    0    1
 -2       764       860       861      3431      3435      3433
 -1      1614    8    0    1
 -2       766       765       862      3126      3436      3437
 -1      1615    8    0    1
 -2       765       861       862      3434      3438      3436
 -1      1616    8    0    1
 -2       767       766       863      3129      3439      3440
 -1      1617    8    0    1
 -2       766       862       863      3437      3441      3439
 -1      1618    8    0    1
 -2       768       767       864      3132      3442      3443
 -1      1619    8    0    1
 -2       767       863       864      3440      3444      3442
 -1      1620    8    0    1
 -2       769       768       865      3135      3445      3446
 -1      1621    8    0    1
 -2       768       864       865      3443      3447      3445
 -1      1622    8    0    1
 -2       770       769       866      3138      3448      3449
 -1      1623    8    0    1
 -2       769       865       866      3446      3450      3448
 -1      1624    8    0    1
 -2       771       770       867      3141      3451      3452
 -1      1625    8    0    1
 -2       770       866       867      3449      3453      3451
 -1      1626    8    0    1
 -2       772       771       868      3144      3454      3455
 -1      1627    8    0    1
 -2       771       867       868      3452      3456      3454
 -1      1628    8    0    1
 -2       773       772       869      3147      3457      3458
 -1      1629    8    0    1
 -2       772       868       869      3455      3459      3457
 -1      1630    8    0    1
 -2       774       773       870      3150      3460      3461
 -1      1631    8    0    1
 -2       773       869       870      3458      3462      3460
 -1      1632    8    0    1
 -2       775       774       871      3153      3463      3464
 -1      1633    8    0    1
 -2       774       870       871      3461      3465      3463
 -1      1634    8    0    1
 -2       776       775       872      3156      3466      3467
 -1      1635    8    0    1
 -2       775       871       872      3464      3468      3466
 -1      1636    8    0    1
 -2       777       776       873      3159      3469      3470
 -1      1637    8    0    1
 -2       776       872       873      3467      3471      3469
 -1      1638    8    0    1
 -2       778       777       874      3162      3472      3473
 -1      1639    8    0    1
 -2       777       873       874      3470      3474      3472
 -1      1640    8    0    1
 -2       779       778       875      3165      3475      3476
 -1      1641    8    0    1
 -2       778       874       875      3473      3477      3475
 -1      1642    8    0    1
 -2       780       779       876      3168      3478      3479
 -1      1643    8    0    1
 -2       779       875       876      3476      3480      3478
 -1      1644    8    0    1
 -2       781       780       877      3171      3481      3482
 -1      1645    8    0    1
 -2       780       876       877      3479      3483      3481
 -1      1646    8    0    1
 -2       782       781       878      3174      3484      3485
 -1      1647    8    0    1
 -2       781       877       878      3482      3486      3484
 -1      1648    8    0    1
 -2       615       822       741      3295      3487      3035
 -1      1649    8    0    1
 -2       789       788       879      3193      3488      3489
 -1      1650    8    0    1
 -2       791       792       880      3201      3490      3491
 -1      1651    8    0    1
 -2       790       791       881      3198      3492      3493
 -1      1652    8    0    1
 -2       791       880       881      3491      3494      3492
 -1      1653    8    0    1
 -2       793       794       882      3207      3495      3496
 -1      1654    8    0    1
 -2       794       795       883      3210      3497      3498
 -1      1655    8    0    1
 -2       794       883       882      3498      3499      3495
 -1      1656    8    0    1
 -2       795       796       884      3213      3500      3501
 -1      1657    8    0    1
 -2       795       884       883      3501      3502      3497
 -1      1658    8    0    1
 -2       796       797       885      3216      3503      3504
 -1      1659    8    0    1
 -2       796       885       884      3504      3505      3500
 -1      1660    8    0    1
 -2       797       798       886      3219      3506      3507
 -1      1661    8    0    1
 -2       797       886       885      3507      3508      3503
 -1      1662    8    0    1
 -2       798       799       887      3222      3509      3510
 -1      1663    8    0    1
 -2       798       887       886      3510      3511      3506
 -1      1664    8    0    1
 -2       799       800       888      3225      3512      3513
 -1      1665    8    0    1
 -2       799       888       887      3513      3514      3509
 -1      1666    8    0    1
 -2       800       801       889      3228      3515      3516
 -1      1667    8    0    1
 -2       800       889       888      3516      3517      3512
 -1      1668    8    0    1
 -2       801       802       890      3231      3518      3519
 -1      1669    8    0    1
 -2       801       890       889      3519      3520      3515
 -1      1670    8    0    1
 -2       802       803       891      3234      3521      3522
 -1      1671    8    0    1
 -2       802       891       890      3522      3523      3518
 -1      1672    8    0    1
 -2       803       804       892      3237      3524      3525
 -1      1673    8    0    1
 -2       803       892       891      3525      3526      3521
 -1      1674    8    0    1
 -2       804       805       893      3240      3527      3528
 -1      1675    8    0    1
 -2       804       893       892      3528      3529      3524
 -1      1676    8    0    1
 -2       805       806       894      3243      3530      3531
 -1      1677    8    0    1
 -2       805       894       893      3531      3532      3527
 -1      1678    8    0    1
 -2       806       807       895      3246      3533      3534
 -1      1679    8    0    1
 -2       806       895       894      3534      3535      3530
 -1      1680    8    0    1
 -2       807       808       896      3249      3536      3537
 -1      1681    8    0    1
 -2       807       896       895      3537      3538      3533
 -1      1682    8    0    1
 -2       808       809       897      3252      3539      3540
 -1      1683    8    0    1
 -2       808       897       896      3540      3541      3536
 -1      1684    8    0    1
 -2       809       810       898      3255      3542      3543
 -1      1685    8    0    1
 -2       809       898       897      3543      3544      3539
 -1      1686    8    0    1
 -2       810       811       899      3258      3545      3546
 -1      1687    8    0    1
 -2       810       899       898      3546      3547      3542
 -1      1688    8    0    1
 -2       811       812       900      3261      3548      3549
 -1      1689    8    0    1
 -2       811       900       899      3549      3550      3545
 -1      1690    8    0    1
 -2       812       813       901      3264      3551      3552
 -1      1691    8    0    1
 -2       812       901       900      3552      3553      3548
 -1      1692    8    0    1
 -2       813       814       902      3267      3554      3555
 -1      1693    8    0    1
 -2       813       902       901      3555      3556      3551
 -1      1694    8    0    1
 -2       814       815       826      3270      3363      3557
 -1      1695    8    0    1
 -2       832       749       903      3362      3558      3559
 -1      1696    8    0    1
 -2       728       741       784      3034      3560      3369
 -1      1697    8    0    1
 -2       719       737       837      3346      3561      3338
 -1      1698    8    0    1
 -2       737       836       837      3334      3562      3561
 -1      1699    8    0    1
 -2       572       743       709      3389      3563      2927
 -1      1700    8    0    1
 -2       818       823       904      3298      3564      3565
 -1      1701    8    0    1
 -2       825       832       905      3368      3566      3567
 -1      1702    8    0    1
 -2       750       827       906      3307      3568      3569
 -1      1703    8    0    1
 -2       745       738       907      3055      3570      3571
 -1      1704    8    0    1
 -2       745       907       844      3571      3572      3378
 -1      1705    8    0    1
 -2       828       816       908      3374      3573      3574
 -1      1706    8    0    1
 -2       792       793       909      3204      3575      3576
 -1      1707    8    0    1
 -2       880       792       909      3490      3576      3577
 -1      1708    8    0    1
 -2       793       882       909      3496      3578      3575
 -1      1709    8    0    1
 -2       817       746       787      3332      3187      3579
 -1      1710    8    0    1
 -2       784       838       820      3390      3580      3370
 -1      1711    8    0    1
 -2       751       750       910      3081      3581      3582
 -1      1712    8    0    1
 -2       751       910       848      3582      3583      3395
 -1      1713    8    0    1
 -2       820       838       749      3580      3584      3337
 -1      1714    8    0    1
 -2       749       838       783      3584      3354      3585
 -1      1715    8    0    1
 -2       749       783       903      3585      3586      3558
 -1      1716    8    0    1
 -2       834       825       911      3328      3587      3588
 -1      1717    8    0    1
 -2       825       905       911      3567      3589      3587
 -1      1718    8    0    1
 -2       835       748       912      3329      3590      3591
 -1      1719    8    0    1
 -2       836       844       913      3380      3592      3593
 -1      1720    8    0    1
 -2       782       878       903      3485      3594      3595
 -1      1721    8    0    1
 -2       833       830       914      3325      3596      3597
 -1      1722    8    0    1
 -2       831       817       787      3336      3579      3598
 -1      1723    8    0    1
 -2       837       836       915      3562      3599      3600
 -1      1724    8    0    1
 -2       827       837       915      3340      3600      3601
 -1      1725    8    0    1
 -2       836       913       915      3593      3602      3599
 -1      1726    8    0    1
 -2       783       782       903      3177      3595      3586
 -1      1727    8    0    1
 -2       735       819       817      3376      3287      3377
 -1      1728    8    0    1
 -2       879       788       916      3488      3603      3604
 -1      1729    8    0    1
 -2       788       821       916      3292      3605      3603
 -1      1730    8    0    1
 -2       787       786       831      3188      3606      3598
 -1      1731    8    0    1
 -2       827       915       906      3601      3607      3568
 -1      1732    8    0    1
 -2       839       718       840      3347      3352      3608
 -1      1733    8    0    1
 -2       840       789       917      3350      3609      3610
 -1      1734    8    0    1
 -2       789       879       917      3489      3611      3609
 -1      1735    8    0    1
 -2       790       881       918      3493      3612      3613
 -1      1736    8    0    1
 -2       790       918       821      3613      3614      3293
 -1      1737    8    0    1
 -2       814       826       902      3557      3615      3554
 -1      1738    8    0    1
 -2       841       739       919      3358      3616      3617
 -1      1739    8    0    1
 -2       739       834       919      3327      3618      3616
 -1      1740    8    0    1
 -2       738       833       907      3324      3619      3570
 -1      1741    8    0    1
 -2       831       786       824      3606      3620      3373
 -1      1742    8    0    1
 -2       824       786       785      3620      3184      3621
 -1      1743    8    0    1
 -2       832       903       905      3559      3622      3566
 -1      1744    8    0    1
 -2       904       823       920      3564      3623      3624
 -1      1745    8    0    1
 -2       823       839       920      3349      3625      3623
 -1      1746    8    0    1
 -2       816       841       921      3357      3626      3627
 -1      1747    8    0    1
 -2       816       921       908      3627      3628      3573
 -1      1748    8    0    1
 -2       818       904       922      3565      3629      3630
 -1      1749    8    0    1
 -2       824       785       822      3621      3375      3384
 -1      1750    8    0    1
 -2       750       906       910      3569      3631      3581
 -1      1751    8    0    1
 -2       818       922       846      3630      3632      3388
 -1      1752    8    0    1
 -2       828       908       923      3574      3633      3634
 -1      1753    8    0    1
 -2       828       923       845      3634      3635      3383
 -1      1754    8    0    1
 -2       830       843       924      3366      3636      3637
 -1      1755    8    0    1
 -2       830       924       914      3637      3638      3596
 -1      1756    8    0    1
 -2       912       748       846      3590      3639      3640
 -1      1757    8    0    1
 -2       833       914       925      3597      3641      3642
 -1      1758    8    0    1
 -2       833       925       907      3642      3643      3619
 -1      1759    8    0    1
 -2       906       915       926      3607      3644      3645
 -1      1760    8    0    1
 -2       915       913       926      3602      3646      3644
 -1      1761    8    0    1
 -2       849       848       927      3399      3647      3648
 -1      1762    8    0    1
 -2       913       844       928      3592      3649      3650
 -1      1763    8    0    1
 -2       844       907       928      3572      3651      3649
 -1      1764    8    0    1
 -2       850       849       929      3402      3652      3653
 -1      1765    8    0    1
 -2       849       927       929      3648      3654      3652
 -1      1766    8    0    1
 -2       851       850       930      3405      3655      3656
 -1      1767    8    0    1
 -2       850       929       930      3653      3657      3655
 -1      1768    8    0    1
 -2       852       851       931      3408      3658      3659
 -1      1769    8    0    1
 -2       851       930       931      3656      3660      3658
 -1      1770    8    0    1
 -2       853       852       932      3411      3661      3662
 -1      1771    8    0    1
 -2       852       931       932      3659      3663      3661
 -1      1772    8    0    1
 -2       854       853       933      3414      3664      3665
 -1      1773    8    0    1
 -2       853       932       933      3662      3666      3664
 -1      1774    8    0    1
 -2       855       854       934      3417      3667      3668
 -1      1775    8    0    1
 -2       854       933       934      3665      3669      3667
 -1      1776    8    0    1
 -2       856       855       935      3420      3670      3671
 -1      1777    8    0    1
 -2       855       934       935      3668      3672      3670
 -1      1778    8    0    1
 -2       857       856       936      3423      3673      3674
 -1      1779    8    0    1
 -2       856       935       936      3671      3675      3673
 -1      1780    8    0    1
 -2       858       857       937      3426      3676      3677
 -1      1781    8    0    1
 -2       857       936       937      3674      3678      3676
 -1      1782    8    0    1
 -2       859       858       938      3429      3679      3680
 -1      1783    8    0    1
 -2       858       937       938      3677      3681      3679
 -1      1784    8    0    1
 -2       860       859       939      3432      3682      3683
 -1      1785    8    0    1
 -2       859       938       939      3680      3684      3682
 -1      1786    8    0    1
 -2       861       860       940      3435      3685      3686
 -1      1787    8    0    1
 -2       860       939       940      3683      3687      3685
 -1      1788    8    0    1
 -2       862       861       941      3438      3688      3689
 -1      1789    8    0    1
 -2       861       940       941      3686      3690      3688
 -1      1790    8    0    1
 -2       863       862       942      3441      3691      3692
 -1      1791    8    0    1
 -2       862       941       942      3689      3693      3691
 -1      1792    8    0    1
 -2       864       863       943      3444      3694      3695
 -1      1793    8    0    1
 -2       863       942       943      3692      3696      3694
 -1      1794    8    0    1
 -2       865       864       944      3447      3697      3698
 -1      1795    8    0    1
 -2       864       943       944      3695      3699      3697
 -1      1796    8    0    1
 -2       866       865       945      3450      3700      3701
 -1      1797    8    0    1
 -2       865       944       945      3698      3702      3700
 -1      1798    8    0    1
 -2       867       866       946      3453      3703      3704
 -1      1799    8    0    1
 -2       866       945       946      3701      3705      3703
 -1      1800    8    0    1
 -2       868       867       947      3456      3706      3707
 -1      1801    8    0    1
 -2       867       946       947      3704      3708      3706
 -1      1802    8    0    1
 -2       869       868       948      3459      3709      3710
 -1      1803    8    0    1
 -2       868       947       948      3707      3711      3709
 -1      1804    8    0    1
 -2       870       869       949      3462      3712      3713
 -1      1805    8    0    1
 -2       869       948       949      3710      3714      3712
 -1      1806    8    0    1
 -2       871       870       950      3465      3715      3716
 -1      1807    8    0    1
 -2       870       949       950      3713      3717      3715
 -1      1808    8    0    1
 -2       872       871       951      3468      3718      3719
 -1      1809    8    0    1
 -2       871       950       951      3716      3720      3718
 -1      1810    8    0    1
 -2       873       872       952      3471      3721      3722
 -1      1811    8    0    1
 -2       872       951       952      3719      3723      3721
 -1      1812    8    0    1
 -2       874       873       953      3474      3724      3725
 -1      1813    8    0    1
 -2       873       952       953      3722      3726      3724
 -1      1814    8    0    1
 -2       875       874       954      3477      3727      3728
 -1      1815    8    0    1
 -2       874       953       954      3725      3729      3727
 -1      1816    8    0    1
 -2       876       875       955      3480      3730      3731
 -1      1817    8    0    1
 -2       875       954       955      3728      3732      3730
 -1      1818    8    0    1
 -2       877       876       956      3483      3733      3734
 -1      1819    8    0    1
 -2       876       955       956      3731      3735      3733
 -1      1820    8    0    1
 -2       730       710       709      3391      2932      3736
 -1      1821    8    0    1
 -2       903       878       905      3594      3737      3622
 -1      1822    8    0    1
 -2       883       884       957      3502      3738      3739
 -1      1823    8    0    1
 -2       882       883       958      3499      3740      3741
 -1      1824    8    0    1
 -2       883       957       958      3739      3742      3740
 -1      1825    8    0    1
 -2       885       886       959      3508      3743      3744
 -1      1826    8    0    1
 -2       886       887       960      3511      3745      3746
 -1      1827    8    0    1
 -2       886       960       959      3746      3747      3743
 -1      1828    8    0    1
 -2       887       888       961      3514      3748      3749
 -1      1829    8    0    1
 -2       887       961       960      3749      3750      3745
 -1      1830    8    0    1
 -2       888       889       962      3517      3751      3752
 -1      1831    8    0    1
 -2       888       962       961      3752      3753      3748
 -1      1832    8    0    1
 -2       889       890       963      3520      3754      3755
 -1      1833    8    0    1
 -2       889       963       962      3755      3756      3751
 -1      1834    8    0    1
 -2       890       891       964      3523      3757      3758
 -1      1835    8    0    1
 -2       890       964       963      3758      3759      3754
 -1      1836    8    0    1
 -2       891       892       965      3526      3760      3761
 -1      1837    8    0    1
 -2       891       965       964      3761      3762      3757
 -1      1838    8    0    1
 -2       892       893       966      3529      3763      3764
 -1      1839    8    0    1
 -2       892       966       965      3764      3765      3760
 -1      1840    8    0    1
 -2       893       894       967      3532      3766      3767
 -1      1841    8    0    1
 -2       893       967       966      3767      3768      3763
 -1      1842    8    0    1
 -2       894       895       968      3535      3769      3770
 -1      1843    8    0    1
 -2       894       968       967      3770      3771      3766
 -1      1844    8    0    1
 -2       895       896       969      3538      3772      3773
 -1      1845    8    0    1
 -2       895       969       968      3773      3774      3769
 -1      1846    8    0    1
 -2       896       897       970      3541      3775      3776
 -1      1847    8    0    1
 -2       896       970       969      3776      3777      3772
 -1      1848    8    0    1
 -2       897       898       971      3544      3778      3779
 -1      1849    8    0    1
 -2       897       971       970      3779      3780      3775
 -1      1850    8    0    1
 -2       898       899       972      3547      3781      3782
 -1      1851    8    0    1
 -2       898       972       971      3782      3783      3778
 -1      1852    8    0    1
 -2       899       900       973      3550      3784      3785
 -1      1853    8    0    1
 -2       899       973       972      3785      3786      3781
 -1      1854    8    0    1
 -2       900       901       974      3553      3787      3788
 -1      1855    8    0    1
 -2       900       974       973      3788      3789      3784
 -1      1856    8    0    1
 -2       901       902       975      3556      3790      3791
 -1      1857    8    0    1
 -2       901       975       974      3791      3792      3787
 -1      1858    8    0    1
 -2       826       847       902      3393      3793      3615
 -1      1859    8    0    1
 -2       905       878       911      3737      3794      3589
 -1      1860    8    0    1
 -2       884       885       976      3505      3795      3796
 -1      1861    8    0    1
 -2       885       959       976      3744      3797      3795
 -1      1862    8    0    1
 -2       839       840       977      3608      3798      3799
 -1      1863    8    0    1
 -2       840       917       977      3610      3800      3798
 -1      1864    8    0    1
 -2       922       904       978      3629      3801      3802
 -1      1865    8    0    1
 -2       709       743       730      3563      3060      3736
 -1      1866    8    0    1
 -2       835       912       979      3591      3803      3804
 -1      1867    8    0    1
 -2       835       979       843      3804      3805      3367
 -1      1868    8    0    1
 -2       846       922       912      3632      3806      3640
 -1      1869    8    0    1
 -2       748       829       846      3312      3387      3639
 -1      1870    8    0    1
 -2       881       880       980      3494      3807      3808
 -1      1871    8    0    1
 -2       848       910       981      3583      3809      3810
 -1      1872    8    0    1
 -2       848       981       927      3810      3811      3647
 -1      1873    8    0    1
 -2       910       906       982      3631      3812      3813
 -1      1874    8    0    1
 -2       981       910       982      3809      3813      3814
 -1      1875    8    0    1
 -2       906       926       982      3645      3815      3812
 -1      1876    8    0    1
 -2       902       847       975      3793      3816      3790
 -1      1877    8    0    1
 -2       912       922       983      3806      3817      3818
 -1      1878    8    0    1
 -2       979       912       983      3803      3818      3819
 -1      1879    8    0    1
 -2       922       978       983      3802      3820      3817
 -1      1880    8    0    1
 -2       907       925       928      3643      3821      3651
 -1      1881    8    0    1
 -2       926       913       928      3646      3650      3822
 -1      1882    8    0    1
 -2       877       956       911      3734      3823      3824
 -1      1883    8    0    1
 -2       884       976       957      3796      3825      3738
 -1      1884    8    0    1
 -2       822       784       741      3341      3560      3487
 -1      1885    8    0    1
 -2       877       911       878      3824      3794      3486
 -1      1886    8    0    1
 -2       917       879       984      3611      3826      3827
 -1      1887    8    0    1
 -2       918       881       985      3612      3828      3829
 -1      1888    8    0    1
 -2       881       980       985      3808      3830      3828
 -1      1889    8    0    1
 -2       882       958       986      3741      3831      3832
 -1      1890    8    0    1
 -2       882       986       909      3832      3833      3578
 -1      1891    8    0    1
 -2       919       834       911      3618      3588      3834
 -1      1892    8    0    1
 -2       841       919       987      3617      3835      3836
 -1      1893    8    0    1
 -2       841       987       921      3836      3837      3626
 -1      1894    8    0    1
 -2       821       918       916      3614      3838      3605
 -1      1895    8    0    1
 -2       879       916       988      3604      3839      3840
 -1      1896    8    0    1
 -2       879       988       984      3840      3841      3826
 -1      1897    8    0    1
 -2       978       904       989      3801      3842      3843
 -1      1898    8    0    1
 -2       904       920       989      3624      3844      3842
 -1      1899    8    0    1
 -2       920       839       977      3625      3799      3845
 -1      1900    8    0    1
 -2       847       845       975      3394      3846      3816
 -1      1901    8    0    1
 -2       925       914       990      3641      3847      3848
 -1      1902    8    0    1
 -2       843       979       924      3805      3849      3636
 -1      1903    8    0    1
 -2       923       908       991      3633      3850      3851
 -1      1904    8    0    1
 -2       880       909       992      3577      3852      3853
 -1      1905    8    0    1
 -2       909       986       992      3833      3854      3852
 -1      1906    8    0    1
 -2       975       845       923      3846      3635      3855
 -1      1907    8    0    1
 -2       914       924       993      3638      3856      3857
 -1      1908    8    0    1
 -2       914       993       990      3857      3858      3847
 -1      1909    8    0    1
 -2       908       921       991      3628      3859      3850
 -1      1910    8    0    1
 -2       980       880       992      3807      3853      3860
 -1      1911    8    0    1
 -2       911       956       919      3823      3861      3834
 -1      1912    8    0    1
 -2       957       976       994      3825      3862      3863
 -1      1913    8    0    1
 -2       929       927       995      3654      3864      3865
 -1      1914    8    0    1
 -2       930       929       996      3657      3866      3867
 -1      1915    8    0    1
 -2       929       995       996      3865      3868      3866
 -1      1916    8    0    1
 -2       931       930       997      3660      3869      3870
 -1      1917    8    0    1
 -2       930       996       997      3867      3871      3869
 -1      1918    8    0    1
 -2       932       931       998      3663      3872      3873
 -1      1919    8    0    1
 -2       931       997       998      3870      3874      3872
 -1      1920    8    0    1
 -2       933       932       999      3666      3875      3876
 -1      1921    8    0    1
 -2       932       998       999      3873      3877      3875
 -1      1922    8    0    1
 -2       934       933      1000      3669      3878      3879
 -1      1923    8    0    1
 -2       933       999      1000      3876      3880      3878
 -1      1924    8    0    1
 -2       935       934      1001      3672      3881      3882
 -1      1925    8    0    1
 -2       934      1000      1001      3879      3883      3881
 -1      1926    8    0    1
 -2       936       935      1002      3675      3884      3885
 -1      1927    8    0    1
 -2       935      1001      1002      3882      3886      3884
 -1      1928    8    0    1
 -2       937       936      1003      3678      3887      3888
 -1      1929    8    0    1
 -2       936      1002      1003      3885      3889      3887
 -1      1930    8    0    1
 -2       938       937      1004      3681      3890      3891
 -1      1931    8    0    1
 -2       937      1003      1004      3888      3892      3890
 -1      1932    8    0    1
 -2       939       938      1005      3684      3893      3894
 -1      1933    8    0    1
 -2       938      1004      1005      3891      3895      3893
 -1      1934    8    0    1
 -2       940       939      1006      3687      3896      3897
 -1      1935    8    0    1
 -2       939      1005      1006      3894      3898      3896
 -1      1936    8    0    1
 -2       941       940      1007      3690      3899      3900
 -1      1937    8    0    1
 -2       940      1006      1007      3897      3901      3899
 -1      1938    8    0    1
 -2       942       941      1008      3693      3902      3903
 -1      1939    8    0    1
 -2       941      1007      1008      3900      3904      3902
 -1      1940    8    0    1
 -2       943       942      1009      3696      3905      3906
 -1      1941    8    0    1
 -2       942      1008      1009      3903      3907      3905
 -1      1942    8    0    1
 -2       944       943      1010      3699      3908      3909
 -1      1943    8    0    1
 -2       943      1009      1010      3906      3910      3908
 -1      1944    8    0    1
 -2       945       944      1011      3702      3911      3912
 -1      1945    8    0    1
 -2       944      1010      1011      3909      3913      3911
 -1      1946    8    0    1
 -2       946       945      1012      3705      3914      3915
 -1      1947    8    0    1
 -2       945      1011      1012      3912      3916      3914
 -1      1948    8    0    1
 -2       947       946      1013      3708      3917      3918
 -1      1949    8    0    1
 -2       946      1012      1013      3915      3919      3917
 -1      1950    8    0    1
 -2       948       947      1014      3711      3920      3921
 -1      1951    8    0    1
 -2       947      1013      1014      3918      3922      3920
 -1      1952    8    0    1
 -2       949       948      1015      3714      3923      3924
 -1      1953    8    0    1
 -2       948      1014      1015      3921      3925      3923
 -1      1954    8    0    1
 -2       950       949      1016      3717      3926      3927
 -1      1955    8    0    1
 -2       949      1015      1016      3924      3928      3926
 -1      1956    8    0    1
 -2       951       950      1017      3720      3929      3930
 -1      1957    8    0    1
 -2       950      1016      1017      3927      3931      3929
 -1      1958    8    0    1
 -2       952       951      1018      3723      3932      3933
 -1      1959    8    0    1
 -2       951      1017      1018      3930      3934      3932
 -1      1960    8    0    1
 -2       953       952      1019      3726      3935      3936
 -1      1961    8    0    1
 -2       952      1018      1019      3933      3937      3935
 -1      1962    8    0    1
 -2       954       953      1020      3729      3938      3939
 -1      1963    8    0    1
 -2       953      1019      1020      3936      3940      3938
 -1      1964    8    0    1
 -2       955       954      1021      3732      3941      3942
 -1      1965    8    0    1
 -2       954      1020      1021      3939      3943      3941
 -1      1966    8    0    1
 -2       961       962      1022      3753      3944      3945
 -1      1967    8    0    1
 -2       917       984      1023      3827      3946      3947
 -1      1968    8    0    1
 -2       917      1023       977      3947      3948      3800
 -1      1969    8    0    1
 -2       958       957      1024      3742      3949      3950
 -1      1970    8    0    1
 -2       957       994      1024      3863      3951      3949
 -1      1971    8    0    1
 -2       960       961      1025      3750      3952      3953
 -1      1972    8    0    1
 -2       961      1022      1025      3945      3954      3952
 -1      1973    8    0    1
 -2       959       960      1026      3747      3955      3956
 -1      1974    8    0    1
 -2       960      1025      1026      3953      3957      3955
 -1      1975    8    0    1
 -2       962       963      1027      3756      3958      3959
 -1      1976    8    0    1
 -2       962      1027      1022      3959      3960      3944
 -1      1977    8    0    1
 -2       963       964      1028      3759      3961      3962
 -1      1978    8    0    1
 -2       963      1028      1027      3962      3963      3958
 -1      1979    8    0    1
 -2       964       965      1029      3762      3964      3965
 -1      1980    8    0    1
 -2       964      1029      1028      3965      3966      3961
 -1      1981    8    0    1
 -2       965       966      1030      3765      3967      3968
 -1      1982    8    0    1
 -2       965      1030      1029      3968      3969      3964
 -1      1983    8    0    1
 -2       966       967      1031      3768      3970      3971
 -1      1984    8    0    1
 -2       966      1031      1030      3971      3972      3967
 -1      1985    8    0    1
 -2       967       968      1032      3771      3973      3974
 -1      1986    8    0    1
 -2       967      1032      1031      3974      3975      3970
 -1      1987    8    0    1
 -2       968       969      1033      3774      3976      3977
 -1      1988    8    0    1
 -2       968      1033      1032      3977      3978      3973
 -1      1989    8    0    1
 -2       969       970      1034      3777      3979      3980
 -1      1990    8    0    1
 -2       969      1034      1033      3980      3981      3976
 -1      1991    8    0    1
 -2       970       971      1035      3780      3982      3983
 -1      1992    8    0    1
 -2       970      1035      1034      3983      3984      3979
 -1      1993    8    0    1
 -2       971       972      1036      3783      3985      3986
 -1      1994    8    0    1
 -2       971      1036      1035      3986      3987      3982
 -1      1995    8    0    1
 -2       972       973      1037      3786      3988      3989
 -1      1996    8    0    1
 -2       972      1037      1036      3989      3990      3985
 -1      1997    8    0    1
 -2       973       974      1038      3789      3991      3992
 -1      1998    8    0    1
 -2       973      1038      1037      3992      3993      3988
 -1      1999    8    0    1
 -2       974       975      1039      3792      3994      3995
 -1      2000    8    0    1
 -2      1038       974      1039      3991      3995      3996
 -1      2001    8    0    1
 -2       975       923      1039      3855      3997      3994
 -1      2002    8    0    1
 -2       976       959      1040      3797      3998      3999
 -1      2003    8    0    1
 -2       976      1040       994      3999      4000      3862
 -1      2004    8    0    1
 -2       920       977      1041      3845      4001      4002
 -1      2005    8    0    1
 -2       989       920      1041      3844      4002      4003
 -1      2006    8    0    1
 -2       977      1023      1041      3948      4004      4001
 -1      2007    8    0    1
 -2       916       918      1042      3838      4005      4006
 -1      2008    8    0    1
 -2       988       916      1042      3839      4006      4007
 -1      2009    8    0    1
 -2       918       985      1042      3829      4008      4005
 -1      2010    8    0    1
 -2       991       921      1043      3859      4009      4010
 -1      2011    8    0    1
 -2       921       987      1043      3837      4011      4009
 -1      2012    8    0    1
 -2       928       925      1044      3821      4012      4013
 -1      2013    8    0    1
 -2       925       990      1044      3848      4014      4012
 -1      2014    8    0    1
 -2       924       979      1045      3849      4015      4016
 -1      2015    8    0    1
 -2       993       924      1045      3856      4016      4017
 -1      2016    8    0    1
 -2       979       983      1045      3819      4018      4015
 -1      2017    8    0    1
 -2       980       992      1046      3860      4019      4020
 -1      2018    8    0    1
 -2       919       956      1047      3861      4021      4022
 -1      2019    8    0    1
 -2       987       919      1047      3835      4022      4023
 -1      2020    8    0    1
 -2       956       955      1047      3735      4024      4021
 -1      2021    8    0    1
 -2       926       928      1044      3822      4013      4025
 -1      2022    8    0    1
 -2       923       991      1039      3851      4026      3997
 -1      2023    8    0    1
 -2       927       981      1048      3811      4027      4028
 -1      2024    8    0    1
 -2       927      1048       995      4028      4029      3864
 -1      2025    8    0    1
 -2       981       982      1049      3814      4030      4031
 -1      2026    8    0    1
 -2       981      1049      1048      4031      4032      4027
 -1      2027    8    0    1
 -2       955      1021      1047      3942      4033      4024
 -1      2028    8    0    1
 -2       985       980      1050      3830      4034      4035
 -1      2029    8    0    1
 -2       980      1046      1050      4020      4036      4034
 -1      2030    8    0    1
 -2       959      1026      1040      3956      4037      3998
 -1      2031    8    0    1
 -2       926      1044       982      4025      4038      3815
 -1      2032    8    0    1
 -2       991      1043      1051      4010      4039      4040
 -1      2033    8    0    1
 -2       991      1051      1039      4040      4041      4026
 -1      2034    8    0    1
 -2       986       958      1052      3831      4042      4043
 -1      2035    8    0    1
 -2       958      1024      1052      3950      4044      4042
 -1      2036    8    0    1
 -2       983       978      1045      3820      4045      4018
 -1      2037    8    0    1
 -2      1045       978      1053      4045      4046      4047
 -1      2038    8    0    1
 -2       978       989      1053      3843      4048      4046
 -1      2039    8    0    1
 -2       984       988      1054      3841      4049      4050
 -1      2040    8    0    1
 -2       992       986      1055      3854      4051      4052
 -1      2041    8    0    1
 -2       986      1052      1055      4043      4053      4051
 -1      2042    8    0    1
 -2      1044       990      1056      4014      4054      4055
 -1      2043    8    0    1
 -2      1046       992      1055      4019      4052      4056
 -1      2044    8    0    1
 -2       984      1054      1057      4050      4057      4058
 -1      2045    8    0    1
 -2       984      1057      1023      4058      4059      3946
 -1      2046    8    0    1
 -2       990       993      1058      3858      4060      4061
 -1      2047    8    0    1
 -2       990      1058      1056      4061      4062      4054
 -1      2048    8    0    1
 -2       997       996      1059      3871      4063      4064
 -1      2049    8    0    1
 -2       998       997      1060      3874      4065      4066
 -1      2050    8    0    1
 -2       997      1059      1060      4064      4067      4065
 -1      2051    8    0    1
 -2       999       998      1061      3877      4068      4069
 -1      2052    8    0    1
 -2       998      1060      1061      4066      4070      4068
 -1      2053    8    0    1
 -2      1000       999      1062      3880      4071      4072
 -1      2054    8    0    1
 -2       999      1061      1062      4069      4073      4071
 -1      2055    8    0    1
 -2      1001      1000      1063      3883      4074      4075
 -1      2056    8    0    1
 -2      1000      1062      1063      4072      4076      4074
 -1      2057    8    0    1
 -2      1002      1001      1064      3886      4077      4078
 -1      2058    8    0    1
 -2      1001      1063      1064      4075      4079      4077
 -1      2059    8    0    1
 -2      1003      1002      1065      3889      4080      4081
 -1      2060    8    0    1
 -2      1002      1064      1065      4078      4082      4080
 -1      2061    8    0    1
 -2      1004      1003      1066      3892      4083      4084
 -1      2062    8    0    1
 -2      1003      1065      1066      4081      4085      4083
 -1      2063    8    0    1
 -2      1005      1004      1067      3895      4086      4087
 -1      2064    8    0    1
 -2      1004      1066      1067      4084      4088      4086
 -1      2065    8    0    1
 -2      1006      1005      1068      3898      4089      4090
 -1      2066    8    0    1
 -2      1005      1067      1068      4087      4091      4089
 -1      2067    8    0    1
 -2      1007      1006      1069      3901      4092      4093
 -1      2068    8    0    1
 -2      1006      1068      1069      4090      4094      4092
 -1      2069    8    0    1
 -2      1008      1007      1070      3904      4095      4096
 -1      2070    8    0    1
 -2      1007      1069      1070      4093      4097      4095
 -1      2071    8    0    1
 -2      1009      1008      1071      3907      4098      4099
 -1      2072    8    0    1
 -2      1008      1070      1071      4096      4100      4098
 -1      2073    8    0    1
 -2      1010      1009      1072      3910      4101      4102
 -1      2074    8    0    1
 -2      1009      1071      1072      4099      4103      4101
 -1      2075    8    0    1
 -2      1011      1010      1073      3913      4104      4105
 -1      2076    8    0    1
 -2      1010      1072      1073      4102      4106      4104
 -1      2077    8    0    1
 -2      1012      1011      1074      3916      4107      4108
 -1      2078    8    0    1
 -2      1011      1073      1074      4105      4109      4107
 -1      2079    8    0    1
 -2      1013      1012      1075      3919      4110      4111
 -1      2080    8    0    1
 -2      1012      1074      1075      4108      4112      4110
 -1      2081    8    0    1
 -2      1014      1013      1076      3922      4113      4114
 -1      2082    8    0    1
 -2      1013      1075      1076      4111      4115      4113
 -1      2083    8    0    1
 -2      1015      1014      1077      3925      4116      4117
 -1      2084    8    0    1
 -2      1014      1076      1077      4114      4118      4116
 -1      2085    8    0    1
 -2      1016      1015      1078      3928      4119      4120
 -1      2086    8    0    1
 -2      1015      1077      1078      4117      4121      4119
 -1      2087    8    0    1
 -2      1017      1016      1079      3931      4122      4123
 -1      2088    8    0    1
 -2      1016      1078      1079      4120      4124      4122
 -1      2089    8    0    1
 -2      1018      1017      1080      3934      4125      4126
 -1      2090    8    0    1
 -2      1017      1079      1080      4123      4127      4125
 -1      2091    8    0    1
 -2      1019      1018      1081      3937      4128      4129
 -1      2092    8    0    1
 -2      1018      1080      1081      4126      4130      4128
 -1      2093    8    0    1
 -2      1020      1019      1082      3940      4131      4132
 -1      2094    8    0    1
 -2      1019      1081      1082      4129      4133      4131
 -1      2095    8    0    1
 -2      1021      1020      1083      3943      4134      4135
 -1      2096    8    0    1
 -2      1020      1082      1083      4132      4136      4134
 -1      2097    8    0    1
 -2      1027      1028      1084      3963      4137      4138
 -1      2098    8    0    1
 -2      1024       994      1085      3951      4139      4140
 -1      2099    8    0    1
 -2      1025      1022      1086      3954      4141      4142
 -1      2100    8    0    1
 -2      1026      1025      1087      3957      4143      4144
 -1      2101    8    0    1
 -2      1025      1086      1087      4142      4145      4143
 -1      2102    8    0    1
 -2      1028      1029      1088      3966      4146      4147
 -1      2103    8    0    1
 -2      1028      1088      1084      4147      4148      4137
 -1      2104    8    0    1
 -2      1029      1030      1089      3969      4149      4150
 -1      2105    8    0    1
 -2      1029      1089      1088      4150      4151      4146
 -1      2106    8    0    1
 -2      1030      1031      1090      3972      4152      4153
 -1      2107    8    0    1
 -2      1030      1090      1089      4153      4154      4149
 -1      2108    8    0    1
 -2      1031      1032      1091      3975      4155      4156
 -1      2109    8    0    1
 -2      1031      1091      1090      4156      4157      4152
 -1      2110    8    0    1
 -2      1032      1033      1092      3978      4158      4159
 -1      2111    8    0    1
 -2      1032      1092      1091      4159      4160      4155
 -1      2112    8    0    1
 -2      1033      1034      1093      3981      4161      4162
 -1      2113    8    0    1
 -2      1033      1093      1092      4162      4163      4158
 -1      2114    8    0    1
 -2      1034      1035      1094      3984      4164      4165
 -1      2115    8    0    1
 -2      1034      1094      1093      4165      4166      4161
 -1      2116    8    0    1
 -2      1035      1036      1095      3987      4167      4168
 -1      2117    8    0    1
 -2      1035      1095      1094      4168      4169      4164
 -1      2118    8    0    1
 -2      1036      1037      1096      3990      4170      4171
 -1      2119    8    0    1
 -2      1036      1096      1095      4171      4172      4167
 -1      2120    8    0    1
 -2      1037      1038      1097      3993      4173      4174
 -1      2121    8    0    1
 -2      1037      1097      1096      4174      4175      4170
 -1      2122    8    0    1
 -2      1038      1039      1051      3996      4041      4176
 -1      2123    8    0    1
 -2       995      1048      1098      4029      4177      4178
 -1      2124    8    0    1
 -2      1040      1026      1099      4037      4179      4180
 -1      2125    8    0    1
 -2      1026      1087      1099      4144      4181      4179
 -1      2126    8    0    1
 -2      1022      1027      1100      3960      4182      4183
 -1      2127    8    0    1
 -2      1022      1100      1086      4183      4184      4141
 -1      2128    8    0    1
 -2      1044      1056      1049      4055      4185      4186
 -1      2129    8    0    1
 -2      1043       987      1047      4011      4023      4187
 -1      2130    8    0    1
 -2      1054       988      1101      4049      4188      4189
 -1      2131    8    0    1
 -2       988      1042      1101      4007      4190      4188
 -1      2132    8    0    1
 -2      1046      1055      1102      4056      4191      4192
 -1      2133    8    0    1
 -2      1047      1021      1043      4033      4193      4187
 -1      2134    8    0    1
 -2       994      1040      1103      4000      4194      4195
 -1      2135    8    0    1
 -2      1040      1099      1103      4180      4196      4194
 -1      2136    8    0    1
 -2       993      1045      1053      4017      4047      4197
 -1      2137    8    0    1
 -2       996       995      1104      3868      4198      4199
 -1      2138    8    0    1
 -2       996      1104      1059      4199      4200      4063
 -1      2139    8    0    1
 -2      1043      1021      1083      4193      4135      4201
 -1      2140    8    0    1
 -2       989      1041      1105      4003      4202      4203
 -1      2141    8    0    1
 -2       989      1105      1053      4203      4204      4048
 -1      2142    8    0    1
 -2      1044      1049       982      4186      4030      4038
 -1      2143    8    0    1
 -2      1050      1046      1106      4036      4205      4206
 -1      2144    8    0    1
 -2      1046      1102      1106      4192      4207      4205
 -1      2145    8    0    1
 -2      1085       994      1103      4139      4195      4208
 -1      2146    8    0    1
 -2      1027      1084      1100      4138      4209      4182
 -1      2147    8    0    1
 -2      1024      1085      1107      4140      4210      4211
 -1      2148    8    0    1
 -2      1024      1107      1052      4211      4212      4044
 -1      2149    8    0    1
 -2      1055      1052      1108      4053      4213      4214
 -1      2150    8    0    1
 -2      1052      1107      1108      4212      4215      4213
 -1      2151    8    0    1
 -2      1038      1051      1097      4176      4216      4173
 -1      2152    8    0    1
 -2       993      1053      1058      4197      4217      4060
 -1      2153    8    0    1
 -2      1049      1056      1109      4185      4218      4219
 -1      2154    8    0    1
 -2      1049      1109      1048      4219      4220      4032
 -1      2155    8    0    1
 -2      1041      1023      1110      4004      4221      4222
 -1      2156    8    0    1
 -2      1105      1041      1110      4202      4222      4223
 -1      2157    8    0    1
 -2      1023      1057      1110      4059      4224      4221
 -1      2158    8    0    1
 -2      1102      1055      1108      4191      4214      4225
 -1      2159    8    0    1
 -2      1042       985      1111      4008      4226      4227
 -1      2160    8    0    1
 -2       985      1050      1111      4035      4228      4226
 -1      2161    8    0    1
 -2      1054      1101      1112      4189      4229      4230
 -1      2162    8    0    1
 -2      1057      1054      1113      4057      4231      4232
 -1      2163    8    0    1
 -2      1054      1112      1113      4230      4233      4231
 -1      2164    8    0    1
 -2      1048      1109      1098      4220      4234      4177
 -1      2165    8    0    1
 -2      1056      1058      1109      4062      4235      4218
 -1      2166    8    0    1
 -2      1043      1083      1114      4201      4236      4237
 -1      2167    8    0    1
 -2      1051      1043      1114      4039      4237      4238
 -1      2168    8    0    1
 -2      1083      1082      1114      4136      4239      4236
 -1      2169    8    0    1
 -2      1104       995      1098      4198      4178      4240
 -1      2170    8    0    1
 -2      1060      1059      1112      4067      4241      4242
 -1      2171    8    0    1
 -2      1062      1061      1115      4073      4243      4244
 -1      2172    8    0    1
 -2      1063      1062      1106      4076      4245      4246
 -1      2173    8    0    1
 -2      1064      1063      1102      4079      4247      4248
 -1      2174    8    0    1
 -2      1065      1064      1108      4082      4249      4250
 -1      2175    8    0    1
 -2      1066      1065      1107      4085      4251      4252
 -1      2176    8    0    1
 -2      1067      1066      1085      4088      4253      4254
 -1      2177    8    0    1
 -2      1068      1067      1103      4091      4255      4256
 -1      2178    8    0    1
 -2      1069      1068      1099      4094      4257      4258
 -1      2179    8    0    1
 -2      1070      1069      1087      4097      4259      4260
 -1      2180    8    0    1
 -2      1071      1070      1086      4100      4261      4262
 -1      2181    8    0    1
 -2      1072      1071      1100      4103      4263      4264
 -1      2182    8    0    1
 -2      1073      1072      1084      4106      4265      4266
 -1      2183    8    0    1
 -2      1074      1073      1088      4109      4267      4268
 -1      2184    8    0    1
 -2      1075      1074      1089      4112      4269      4270
 -1      2185    8    0    1
 -2      1076      1075      1090      4115      4271      4272
 -1      2186    8    0    1
 -2      1077      1076      1091      4118      4273      4274
 -1      2187    8    0    1
 -2      1078      1077      1092      4121      4275      4276
 -1      2188    8    0    1
 -2      1079      1078      1093      4124      4277      4278
 -1      2189    8    0    1
 -2      1080      1079      1094      4127      4279      4280
 -1      2190    8    0    1
 -2      1081      1080      1095      4130      4281      4282
 -1      2191    8    0    1
 -2      1082      1081      1116      4133      4283      4284
 -1      2192    8    0    1
 -2      1082      1116      1114      4284      4285      4239
 -1      2193    8    0    1
 -2      1104      1098      1117      4240      4286      4287
 -1      2194    8    0    1
 -2      1088      1089      1074      4151      4269      4268
 -1      2195    8    0    1
 -2      1085      1103      1067      4208      4255      4254
 -1      2196    8    0    1
 -2      1084      1088      1073      4148      4267      4266
 -1      2197    8    0    1
 -2      1086      1100      1071      4184      4263      4262
 -1      2198    8    0    1
 -2      1089      1090      1075      4154      4271      4270
 -1      2199    8    0    1
 -2      1090      1091      1076      4157      4273      4272
 -1      2200    8    0    1
 -2      1091      1092      1077      4160      4275      4274
 -1      2201    8    0    1
 -2      1092      1093      1078      4163      4277      4276
 -1      2202    8    0    1
 -2      1093      1094      1079      4166      4279      4278
 -1      2203    8    0    1
 -2      1094      1095      1080      4169      4281      4280
 -1      2204    8    0    1
 -2      1096      1097      1116      4175      4288      4289
 -1      2205    8    0    1
 -2      1085      1066      1107      4253      4252      4210
 -1      2206    8    0    1
 -2      1058      1053      1118      4217      4290      4291
 -1      2207    8    0    1
 -2      1109      1058      1118      4235      4291      4292
 -1      2208    8    0    1
 -2      1053      1105      1118      4204      4293      4290
 -1      2209    8    0    1
 -2      1099      1087      1069      4181      4259      4258
 -1      2210    8    0    1
 -2      1097      1051      1114      4216      4238      4294
 -1      2211    8    0    1
 -2      1100      1084      1072      4209      4265      4264
 -1      2212    8    0    1
 -2      1101      1042      1111      4190      4227      4295
 -1      2213    8    0    1
 -2      1102      1108      1064      4225      4249      4248
 -1      2214    8    0    1
 -2      1112      1101      1119      4229      4296      4297
 -1      2215    8    0    1
 -2      1101      1111      1119      4295      4298      4296
 -1      2216    8    0    1
 -2      1059      1104      1113      4200      4299      4300
 -1      2217    8    0    1
 -2      1098      1109      1120      4234      4301      4302
 -1      2218    8    0    1
 -2      1117      1098      1120      4286      4302      4303
 -1      2219    8    0    1
 -2      1109      1118      1120      4292      4304      4301
 -1      2220    8    0    1
 -2      1087      1086      1070      4145      4261      4260
 -1      2221    8    0    1
 -2      1102      1063      1106      4247      4246      4207
 -1      2222    8    0    1
 -2      1103      1099      1068      4196      4257      4256
 -1      2223    8    0    1
 -2      1112      1059      1113      4241      4300      4233
 -1      2224    8    0    1
 -2      1060      1112      1119      4242      4297      4305
 -1      2225    8    0    1
 -2      1065      1108      1107      4250      4215      4251
 -1      2226    8    0    1
 -2      1062      1115      1106      4244      4306      4245
 -1      2227    8    0    1
 -2      1061      1060      1119      4070      4305      4307
 -1      2228    8    0    1
 -2      1097      1114      1116      4294      4285      4288
 -1      2229    8    0    1
 -2      1081      1095      1116      4282      4308      4283
 -1      2230    8    0    1
 -2      1115      1061      1119      4243      4307      4309
 -1      2231    8    0    1
 -2      1095      1096      1116      4172      4289      4308
 -1      2232    8    0    1
 -2      1050      1106      1115      4206      4306      4310
 -1      2233    8    0    1
 -2      1110      1057      1117      4224      4311      4312
 -1      2234    8    0    1
 -2      1113      1104      1117      4299      4287      4313
 -1      2235    8    0    1
 -2      1057      1113      1117      4232      4313      4311
 -1      2236    8    0    1
 -2      1118      1105      1110      4293      4223      4314
 -1      2237    8    0    1
 -2      1111      1050      1115      4228      4310      4315
 -1      2238    8    0    1
 -2      1115      1119      1111      4309      4298      4315
 -1      2239    8    0    1
 -2      1118      1110      1120      4314      4316      4304
 -1      2240    8    0    1
 -2      1110      1117      1120      4312      4303      4316
 -3
    1PSTEP                         1           1           1          
  100CL  101 1.000000000        4316                     0    1           1
 -4  DISP        4    1
 -5  D1          1    2    1    0
 -5  D2          1    2    2    0
 -5  D3          1    2    3    0
 -5  ALL         1    2    0    0    1ALL
 -1         1 1.10079E-02-3.78584E-04-4.41525E-14
 -1         2 1.52819E-02 3.83128E-04-5.14093E-14
 -1         3 1.46680E-02 4.98068E-04-5.84151E-14
 -1         4 1.41468E-02 7.08110E-05-6.55247E-14
 -1         5 0.00000E+00 0.00000E+00 0.00000E+00
 -1         6 0.00000E+00 0.00000E+00 0.00000E+00
 -1         7 0.00000E+00 0.00000E+00 0.00000E+00
 -1         8 0.00000E+00 0.00000E+00 0.00000E+00
 -1         9 0.00000E+00 0.00000E+00 0.00000E+00
 -1        10 0.00000E+00 0.00000E+00 0.00000E+00
 -1        11 0.00000E+00 0.00000E+00 0.00000E+00
 -1        12 0.00000E+00 0.00000E+00 0.00000E+00
 -1        13 0.00000E+00 0.00000E+00 0.00000E+00
 -1        14 0.00000E+00 0.00000E+00 0.00000E+00
 -1        15 0.00000E+00 0.00000E+00 0.00000E+00
 -1        16 0.00000E+00 0.00000E+00 0.00000E+00
 -1        17 0.00000E+00 0.00000E+00 0.00000E+00
 -1        18 0.00000E+00 0.00000E+00 0.00000E+00
 -1        19 0.00000E+00 0.00000E+00 0.00000E+00
 -1        20 0.00000E+00 0.00000E+00 0.00000E+00
 -1        21 0.00000E+00 0.00000E+00 0.00000E+00
 -1        22 0.00000E+00 0.00000E+00 0.00000E+00
 -1        23 4.11414E-04-2.60740E-04-3.68968E-18
 -1        24 7.03437E-04-4.00985E-04-8.91146E-17
 -1        25 9.73554E-04-4.98371E-04-2.50396E-16
 -1        26 1.23810E-03-5.67134E-04-4.85682E-16
 -1        27 1.50169E-03-6.16421E-04-7.90275E-16
 -1        28 1.76642E-03-6.51616E-04-1.16248E-15
 -1        29 2.03325E-03-6.76434E-04-1.60011E-15
 -1        30 2.30254E-03-6.93578E-04-2.10277E-15
 -1        31 2.57434E-03-7.05070E-04-2.66969E-15
 -1        32 2.84851E-03-7.12444E-04-3.30055E-15
 -1        33 3.12482E-03-7.16859E-04-3.99609E-15
 -1        34 3.40298E-03-7.19183E-04-4.74994E-15
 -1        35 3.68270E-03-7.20055E-04-5.56488E-15
 -1        36 3.96372E-03-7.19934E-04-6.43502E-15
 -1        37 4.24577E-03-7.19139E-04-7.35710E-15
 -1        38 4.52865E-03-7.17878E-04-8.33109E-15
 -1        39 4.81217E-03-7.16272E-04-9.34861E-15
 -1        40 5.09621E-03-7.14378E-04-1.04161E-14
 -1        41 5.38067E-03-7.12202E-04-1.15339E-14
 -1        42 5.66551E-03-7.09711E-04-1.27091E-14
 -1        43 5.95073E-03-7.06851E-04-1.39383E-14
 -1        44 6.23641E-03-7.03552E-04-1.52263E-14
 -1        45 6.52268E-03-6.99745E-04-1.65696E-14
 -1        46 6.80974E-03-6.95382E-04-1.79723E-14
 -1        47 7.09789E-03-6.90452E-04-1.94286E-14
 -1        48 7.38753E-03-6.85015E-04-2.09338E-14
 -1        49 7.67917E-03-6.79244E-04-2.24793E-14
 -1        50 7.97344E-03-6.73471E-04-2.40586E-14
 -1        51 8.27107E-03-6.68258E-04-2.56794E-14
 -1        52 8.57286E-03-6.64469E-04-2.73482E-14
 -1        53 8.87964E-03-6.63352E-04-2.90593E-14
 -1        54 9.19208E-03-6.66609E-04-3.08028E-14
 -1        55 9.51054E-03-6.76416E-04-3.25755E-14
 -1        56 9.83472E-03-6.95342E-04-3.43766E-14
 -1        57 1.01633E-02-7.26068E-04-3.62062E-14
 -1        58 1.04933E-02-7.70792E-04-3.80603E-14
 -1        59 1.08200E-02-8.30222E-04-3.99328E-14
 -1        60 1.11370E-02-9.02194E-04-4.18219E-14
 -1        61 1.14369E-02-9.80248E-04-4.37249E-14
 -1        62 1.17135E-02-1.05294E-03-4.56427E-14
 -1        63 1.19641E-02-1.10492E-03-4.76044E-14
 -1        64 1.21920E-02-1.12032E-03-4.95942E-14
 -1        65 1.24061E-02-1.08756E-03-5.16021E-14
 -1        66 1.26183E-02-1.00321E-03-5.36153E-14
 -1        67 1.28392E-02-8.72561E-04-5.56256E-14
 -1        68 1.30753E-02-7.06677E-04-5.76303E-14
 -1        69 1.33281E-02-5.18157E-04-5.96237E-14
 -1        70 1.35960E-02-3.18293E-04-6.16029E-14
 -1        71 1.38757E-02-1.16442E-04-6.36019E-14
 -1        72 4.13859E-04 2.61444E-04 5.98039E-17
 -1        73 7.03261E-04 4.03692E-04 9.12966E-17
 -1        74 9.74090E-04 5.00145E-04 8.80609E-17
 -1        75 1.23893E-03 5.68847E-04 4.09185E-17
 -1        76 1.50265E-03 6.18181E-04-5.45760E-17
 -1        77 1.76745E-03 6.53467E-04-2.04592E-16
 -1        78 2.03431E-03 6.78397E-04-4.10432E-16
 -1        79 2.30363E-03 6.95662E-04-6.70325E-16
 -1        80 2.57544E-03 7.07283E-04-9.90219E-16
 -1        81 2.84962E-03 7.14789E-04-1.37097E-15
 -1        82 3.12593E-03 7.19337E-04-1.81045E-15
 -1        83 3.40410E-03 7.21795E-04-2.30753E-15
 -1        84 3.68382E-03 7.22802E-04-2.86063E-15
 -1        85 3.96484E-03 7.22817E-04-3.47110E-15
 -1        86 4.24689E-03 7.22157E-04-4.13961E-15
 -1        87 4.52976E-03 7.21030E-04-4.86956E-15
 -1        88 4.81327E-03 7.19556E-04-5.66199E-15
 -1        89 5.09729E-03 7.17790E-04-6.51877E-15
 -1        90 5.38173E-03 7.15733E-04-7.43939E-15
 -1        91 5.66653E-03 7.13349E-04-8.40979E-15
 -1        92 5.95171E-03 7.10570E-04-9.43460E-15
 -1        93 6.23733E-03 7.07312E-04-1.05170E-14
 -1        94 6.52352E-03 7.03483E-04-1.16632E-14
 -1        95 6.81050E-03 6.98996E-04-1.28711E-14
 -1        96 7.09860E-03 6.93787E-04-1.41366E-14
 -1        97 7.38826E-03 6.87846E-04-1.54525E-14
 -1        98 7.68009E-03 6.81246E-04-1.68205E-14
 -1        99 7.97490E-03 6.74206E-04-1.82303E-14
 -1       100 8.27372E-03 6.67161E-04-1.96889E-14
 -1       101 8.57789E-03 6.60881E-04-2.12065E-14
 -1       102 8.88903E-03 6.56625E-04-2.27651E-14
 -1       103 9.20910E-03 6.56361E-04-2.43619E-14
 -1       104 9.54023E-03 6.63047E-04-2.59732E-14
 -1       105 9.88454E-03 6.80949E-04-2.76059E-14
 -1       106 1.02435E-02 7.15908E-04-2.92835E-14
 -1       107 1.06170E-02 7.75278E-04-3.10186E-14
 -1       108 1.10015E-02 8.67012E-04-3.27917E-14
 -1       109 1.13881E-02 9.97073E-04-3.46000E-14
 -1       110 1.17615E-02 1.16443E-03-3.64503E-14
 -1       111 1.21021E-02 1.35447E-03-3.83295E-14
 -1       112 1.23935E-02 1.53508E-03-4.02387E-14
 -1       113 1.26339E-02 1.66271E-03-4.21737E-14
 -1       114 1.28421E-02 1.70065E-03-4.41305E-14
 -1       115 1.30496E-02 1.63950E-03-4.61142E-14
 -1       116 1.32813E-02 1.50014E-03-4.81207E-14
 -1       117 1.35431E-02 1.31703E-03-5.01624E-14
 -1       118 1.38249E-02 1.11771E-03-5.22375E-14
 -1       119 1.41123E-02 9.13348E-04-5.43321E-14
 -1       120 1.43976E-02 7.03207E-04-5.64290E-14
 -1       121 1.48818E-02 4.12784E-04-5.89071E-14
 -1       122 1.51038E-02 3.28752E-04-5.94114E-14
 -1       123 1.53398E-02 2.56860E-04-5.98967E-14
 -1       124 1.55849E-02 2.14733E-04-6.03643E-14
 -1       125 1.58173E-02 2.21062E-04-6.08274E-14
 -1       126 1.59984E-02 2.84608E-04-6.12837E-14
 -1       127 1.60847E-02 3.93326E-04-6.17099E-14
 -1       128 1.60511E-02 5.11823E-04-6.21010E-14
 -1       129 1.59027E-02 6.04282E-04-6.25043E-14
 -1       130 1.56793E-02 6.40675E-04-6.28924E-14
 -1       131 1.54187E-02 6.17280E-04-6.32649E-14
 -1       132 1.51612E-02 5.46412E-04-6.36192E-14
 -1       133 1.49259E-02 4.49077E-04-6.39855E-14
 -1       134 1.47155E-02 3.44312E-04-6.43680E-14
 -1       135 1.45224E-02 2.44518E-04-6.47510E-14
 -1       136 1.43348E-02 1.54108E-04-6.51390E-14
 -1       137 1.52259E-02 6.00539E-04-5.10813E-14
 -1       138 1.50439E-02 8.07700E-04-5.05462E-14
 -1       139 1.47514E-02 9.95802E-04-4.98392E-14
 -1       140 1.43854E-02 1.14734E-03-4.90273E-14
 -1       141 1.39390E-02 1.26614E-03-4.80834E-14
 -1       142 1.34410E-02 1.33870E-03-4.70735E-14
 -1       143 1.29043E-02 1.35715E-03-4.60206E-14
 -1       144 1.24046E-02 1.32102E-03-4.50876E-14
 -1       145 1.18900E-02 1.22815E-03-4.41715E-14
 -1       146 1.14134E-02 1.08308E-03-4.33743E-14
 -1       147 1.10497E-02 9.23745E-04-4.28200E-14
 -1       148 1.07640E-02 7.46158E-04-4.24401E-14
 -1       149 1.05418E-02 5.36998E-04-4.22176E-14
 -1       150 1.04370E-02 3.38834E-04-4.22064E-14
 -1       151 1.04308E-02 1.42887E-04-4.23898E-14
 -1       152 1.05274E-02-4.85691E-05-4.27972E-14
 -1       153 1.07118E-02-2.17677E-04-4.33643E-14
 -1       154 1.13474E-02-4.98302E-04-4.49763E-14
 -1       155 1.17332E-02-5.85980E-04-4.58451E-14
 -1       156 1.21662E-02-6.41224E-04-4.67632E-14
 -1       157 1.26644E-02-6.59626E-04-4.77627E-14
 -1       158 1.31269E-02-6.37206E-04-4.86279E-14
 -1       159 1.36003E-02-5.75247E-04-4.94562E-14
 -1       160 1.40354E-02-4.80038E-04-5.01587E-14
 -1       161 1.44335E-02-3.52775E-04-5.07454E-14
 -1       162 1.47743E-02-1.98187E-04-5.11742E-14
 -1       163 1.50547E-02-8.33700E-06-5.14450E-14
 -1       164 1.52235E-02 1.88948E-04-5.15145E-14
 -1       165 2.40426E-04-1.25511E-04-2.58616E-17
 -1       166 2.25287E-04-9.46048E-05-3.18654E-17
 -1       167 2.19518E-04-7.27622E-05-3.37729E-17
 -1       168 2.16711E-04-5.50880E-05-3.36746E-17
 -1       169 2.15211E-04-3.99527E-05-3.25532E-17
 -1       170 2.14370E-04-2.59067E-05-3.07778E-17
 -1       171 2.13949E-04-1.26399E-05-2.84671E-17
 -1       172 2.13826E-04 2.72532E-07-2.60344E-17
 -1       173 2.13968E-04 1.31973E-05-2.34120E-17
 -1       174 2.14412E-04 2.65040E-05-2.03390E-17
 -1       175 2.15260E-04 4.03806E-05-1.64799E-17
 -1       176 2.16814E-04 5.58988E-05-1.13502E-17
 -1       177 2.19678E-04 7.38011E-05-4.38085E-18
 -1       178 2.25458E-04 9.60047E-05 5.28210E-18
 -1       179 2.39356E-04 1.27587E-04 1.91531E-17
 -1       180 2.97737E-04 1.85497E-04 3.56669E-17
 -1       181 4.68670E-04-2.63545E-04-6.76000E-17
 -1       182 7.66848E-04-3.82137E-04-1.98446E-16
 -1       183 1.05074E-03-4.65029E-04-3.98587E-16
 -1       184 1.32817E-03-5.23825E-04-6.67052E-16
 -1       185 1.60281E-03-5.65545E-04-1.00183E-15
 -1       186 1.87675E-03-5.94881E-04-1.40104E-15
 -1       187 2.15111E-03-6.15142E-04-1.86486E-15
 -1       188 2.42648E-03-6.28755E-04-2.39143E-15
 -1       189 2.70313E-03-6.37539E-04-2.98042E-15
 -1       190 2.98112E-03-6.42858E-04-3.63253E-15
 -1       191 3.26038E-03-6.45733E-04-4.34495E-15
 -1       192 3.54082E-03-6.46919E-04-5.11631E-15
 -1       193 3.82227E-03-6.46959E-04-5.94619E-15
 -1       194 4.10459E-03-6.46233E-04-6.83156E-15
 -1       195 4.38762E-03-6.44995E-04-7.76852E-15
 -1       196 4.67126E-03-6.43399E-04-8.75289E-15
 -1       197 4.95539E-03-6.41522E-04-9.78534E-15
 -1       198 5.23993E-03-6.39385E-04-1.08680E-14
 -1       199 5.52487E-03-6.36962E-04-1.20046E-14
 -1       200 5.81018E-03-6.34195E-04-1.31961E-14
 -1       201 6.09592E-03-6.31009E-04-1.44445E-14
 -1       202 6.38217E-03-6.27317E-04-1.57491E-14
 -1       203 6.66908E-03-6.23040E-04-1.71109E-14
 -1       204 6.95686E-03-6.18125E-04-1.85291E-14
 -1       205 7.24578E-03-6.12570E-04-1.99974E-14
 -1       206 7.53620E-03-6.06461E-04-2.15100E-14
 -1       207 7.82854E-03-6.00018E-04-2.30596E-14
 -1       208 8.12332E-03-5.93656E-04-2.46512E-14
 -1       209 8.42108E-03-5.88060E-04-2.62872E-14
 -1       210 8.72240E-03-5.84277E-04-2.79669E-14
 -1       211 9.02777E-03-5.83801E-04-2.96835E-14
 -1       212 9.33753E-03-5.88641E-04-3.14311E-14
 -1       213 9.65168E-03-6.01327E-04-3.32061E-14
 -1       214 9.96965E-03-6.24756E-04-3.50105E-14
 -1       215 1.02901E-02-6.61788E-04-3.68451E-14
 -1       216 1.06105E-02-7.14434E-04-3.87032E-14
 -1       217 1.09275E-02-7.82564E-04-4.05773E-14
 -1       218 1.12366E-02-8.62273E-04-4.24667E-14
 -1       219 1.15334E-02-9.44448E-04-4.43679E-14
 -1       220 1.18149E-02-1.01464E-03-4.63002E-14
 -1       221 1.20807E-02-1.05536E-03-4.82702E-14
 -1       222 1.23345E-02-1.05086E-03-5.02586E-14
 -1       223 1.25826E-02-9.92582E-04-5.22607E-14
 -1       224 1.28319E-02-8.81978E-04-5.42686E-14
 -1       225 1.30877E-02-7.28841E-04-5.62726E-14
 -1       226 1.33519E-02-5.46652E-04-5.82702E-14
 -1       227 1.36242E-02-3.48198E-04-6.02613E-14
 -1       228 1.39030E-02-1.43948E-04-6.22554E-14
 -1       229 6.04626E-04 3.31032E-04 5.07034E-17
 -1       230 8.93757E-04 4.32652E-04 3.16621E-17
 -1       231 1.17269E-03 5.04411E-04-2.90769E-17
 -1       232 1.44708E-03 5.55520E-04-1.36945E-16
 -1       233 1.71994E-03 5.91803E-04-2.97508E-16
 -1       234 1.99289E-03 6.17244E-04-5.13099E-16
 -1       235 2.26677E-03 6.34717E-04-7.83800E-16
 -1       236 2.54199E-03 6.46361E-04-1.11297E-15
 -1       237 2.81867E-03 6.53783E-04-1.50047E-15
 -1       238 3.09680E-03 6.58192E-04-1.94623E-15
 -1       239 3.37626E-03 6.60487E-04-2.44949E-15
 -1       240 3.65690E-03 6.61331E-04-3.00989E-15
 -1       241 3.93856E-03 6.61194E-04-3.62767E-15
 -1       242 4.22106E-03 6.60401E-04-4.30416E-15
 -1       243 4.50426E-03 6.59163E-04-5.04083E-15
 -1       244 4.78802E-03 6.57601E-04-5.83872E-15
 -1       245 5.07226E-03 6.55765E-04-6.69970E-15
 -1       246 5.35691E-03 6.53654E-04-7.62113E-15
 -1       247 5.64193E-03 6.51223E-04-8.59681E-15
 -1       248 5.92734E-03 6.48398E-04-9.63028E-15
 -1       249 6.21322E-03 6.45083E-04-1.07193E-14
 -1       250 6.49967E-03 6.41170E-04-1.18699E-14
 -1       251 6.78689E-03 6.36554E-04-1.30766E-14
 -1       252 7.07515E-03 6.31146E-04-1.43396E-14
 -1       253 7.36482E-03 6.24901E-04-1.56574E-14
 -1       254 7.65641E-03 6.17851E-04-1.70254E-14
 -1       255 7.95054E-03 6.10157E-04-1.84387E-14
 -1       256 8.24804E-03 6.02182E-04-1.98991E-14
 -1       257 8.54990E-03 5.94604E-04-2.14119E-14
 -1       258 8.85731E-03 5.88573E-04-2.29693E-14
 -1       259 9.17165E-03 5.85928E-04-2.45628E-14
 -1       260 9.49438E-03 5.89496E-04-2.61804E-14
 -1       261 9.82688E-03 6.03448E-04-2.78253E-14
 -1       262 1.01701E-02 6.33634E-04-2.95103E-14
 -1       263 1.05238E-02 6.87674E-04-3.12417E-14
 -1       264 1.08861E-02 7.74266E-04-3.30096E-14
 -1       265 1.12519E-02 9.00834E-04-3.48135E-14
 -1       266 1.16126E-02 1.06854E-03-3.66556E-14
 -1       267 1.19568E-02 1.26492E-03-3.85296E-14
 -1       268 1.22743E-02 1.45815E-03-4.04362E-14
 -1       269 1.25619E-02 1.60145E-03-4.23661E-14
 -1       270 1.28282E-02 1.65217E-03-4.43236E-14
 -1       271 1.30905E-02 1.59694E-03-4.63046E-14
 -1       272 1.33627E-02 1.45754E-03-4.83103E-14
 -1       273 1.36488E-02 1.27227E-03-5.03468E-14
 -1       274 1.39432E-02 1.07198E-03-5.24170E-14
 -1       275 1.42377E-02 8.68694E-04-5.45047E-14
 -1       276 1.45279E-02 6.60389E-04-5.65998E-14
 -1       277 1.47436E-02 5.60130E-04-5.73419E-14
 -1       278 1.49746E-02 4.82340E-04-5.78323E-14
 -1       279 1.52228E-02 4.17470E-04-5.83097E-14
 -1       280 1.54762E-02 3.75982E-04-5.87771E-14
 -1       281 1.57020E-02 3.66635E-04-5.92310E-14
 -1       282 1.58518E-02 3.89331E-04-5.96709E-14
 -1       283 1.58825E-02 4.29484E-04-6.00937E-14
 -1       284 1.57818E-02 4.65136E-04-6.05060E-14
 -1       285 1.55786E-02 4.74080E-04-6.08948E-14
 -1       286 1.53153E-02 4.47195E-04-6.12818E-14
 -1       287 1.50424E-02 3.87419E-04-6.16581E-14
 -1       288 1.47894E-02 3.05418E-04-6.20365E-14
 -1       289 1.45657E-02 2.12749E-04-6.24169E-14
 -1       290 1.43667E-02 1.18353E-04-6.28019E-14
 -1       291 1.41331E-02-1.47421E-05-6.25262E-14
 -1       292 1.52982E-02 4.44838E-04-5.21103E-14
 -1       293 1.51259E-02 5.61107E-04-5.16943E-14
 -1       294 1.48093E-02 7.35635E-04-5.08474E-14
 -1       295 1.44157E-02 9.36840E-04-4.98978E-14
 -1       296 1.39819E-02 1.13962E-03-4.88587E-14
 -1       297 1.35308E-02 1.31752E-03-4.77159E-14
 -1       298 1.30941E-02 1.42944E-03-4.64861E-14
 -1       299 1.26865E-02 1.42538E-03-4.53291E-14
 -1       300 1.22775E-02 1.32266E-03-4.42202E-14
 -1       301 1.18553E-02 1.11719E-03-4.30986E-14
 -1       302 1.13977E-02 8.95546E-04-4.24548E-14
 -1       303 1.10228E-02 6.86187E-04-4.19055E-14
 -1       304 1.07012E-02 4.79107E-04-4.13908E-14
 -1       305 1.04711E-02 3.47876E-04-4.14255E-14
 -1       306 1.03912E-02 2.31548E-04-4.15454E-14
 -1       307 1.04544E-02 1.21641E-04-4.18556E-14
 -1       308 1.06505E-02-7.78420E-06-4.24710E-14
 -1       309 1.09722E-02-1.43369E-04-4.31137E-14
 -1       310 1.13244E-02-3.42641E-04-4.41877E-14
 -1       311 1.16968E-02-5.08744E-04-4.51715E-14
 -1       312 1.20709E-02-6.45014E-04-4.62128E-14
 -1       313 1.24642E-02-7.34692E-04-4.73415E-14
 -1       314 1.28476E-02-7.30297E-04-4.84247E-14
 -1       315 1.32333E-02-6.51437E-04-4.94217E-14
 -1       316 1.36360E-02-5.05382E-04-5.03239E-14
 -1       317 1.40473E-02-3.20523E-04-5.10856E-14
 -1       318 1.44559E-02-1.24169E-04-5.16906E-14
 -1       319 1.48390E-02 6.19737E-05-5.21188E-14
 -1       320 1.51360E-02 2.23944E-04-5.23923E-14
 -1       321 1.52928E-02 3.36190E-04-5.23127E-14
 -1       322 4.55409E-04-1.64789E-04-1.14017E-16
 -1       323 4.74296E-04-2.12968E-04-1.06679E-16
 -1       324 4.40427E-04-9.39991E-05-1.13367E-16
 -1       325 4.37457E-04-6.48983E-05-1.09037E-16
 -1       326 4.35829E-04-3.78964E-05-1.03575E-16
 -1       327 4.35115E-04-1.20144E-05-9.67617E-17
 -1       328 4.35146E-04 1.35320E-05-8.92400E-17
 -1       329 4.35927E-04 3.94711E-05-8.08205E-17
 -1       330 4.37600E-04 6.61221E-05-7.07374E-17
 -1       331 4.40668E-04 9.53931E-05-5.83741E-17
 -1       332 4.46069E-04 1.28303E-04-4.25820E-17
 -1       333 4.55919E-04 1.67284E-04-2.23210E-17
 -1       334 4.75927E-04 2.17030E-04 4.62480E-18
 -1       335 5.32065E-04 2.69961E-04 2.44555E-17
 -1       336 8.24575E-04 3.73497E-04-5.07542E-18
 -1       337 8.63346E-04-3.57386E-04-3.13389E-16
 -1       338 1.14973E-03-4.26158E-04-5.48122E-16
 -1       339 1.43254E-03-4.75350E-04-8.47572E-16
 -1       340 1.71329E-03-5.10116E-04-1.21006E-15
 -1       341 1.99310E-03-5.34259E-04-1.63609E-15
 -1       342 2.27274E-03-5.50607E-04-2.12344E-15
 -1       343 2.55266E-03-5.61278E-04-2.67178E-15
 -1       344 2.83312E-03-5.67868E-04-3.28152E-15
 -1       345 3.11424E-03-5.71573E-04-3.95324E-15
 -1       346 3.39605E-03-5.73277E-04-4.68360E-15
 -1       347 3.67851E-03-5.73625E-04-5.47213E-15
 -1       348 3.96156E-03-5.73071E-04-6.31723E-15
 -1       349 4.24513E-03-5.71926E-04-7.21768E-15
 -1       350 4.52916E-03-5.70385E-04-8.16746E-15
 -1       351 4.81357E-03-5.68556E-04-9.16514E-15
 -1       352 5.09832E-03-5.66479E-04-1.02120E-14
 -1       353 5.38338E-03-5.64144E-04-1.13112E-14
 -1       354 5.66874E-03-5.61499E-04-1.24648E-14
 -1       355 5.95444E-03-5.58469E-04-1.36757E-14
 -1       356 6.24052E-03-5.54961E-04-1.49412E-14
 -1       357 6.52707E-03-5.50878E-04-1.62638E-14
 -1       358 6.81421E-03-5.46140E-04-1.76437E-14
 -1       359 7.10213E-03-5.40698E-04-1.90739E-14
 -1       360 7.39105E-03-5.34571E-04-2.05516E-14
 -1       361 7.68125E-03-5.27882E-04-2.20721E-14
 -1       362 7.97306E-03-5.20913E-04-2.36331E-14
 -1       363 8.26686E-03-5.14174E-04-2.52373E-14
 -1       364 8.56308E-03-5.08489E-04-2.68872E-14
 -1       365 8.86217E-03-5.05086E-04-2.85759E-14
 -1       366 9.16455E-03-5.05691E-04-3.02965E-14
 -1       367 9.47059E-03-5.12586E-04-3.20495E-14
 -1       368 9.78047E-03-5.28579E-04-3.38304E-14
 -1       369 1.00941E-02-5.56790E-04-3.56405E-14
 -1       370 1.04109E-02-6.00136E-04-3.74781E-14
 -1       371 1.07293E-02-6.60326E-04-3.93359E-14
 -1       372 1.10470E-02-7.36319E-04-4.12115E-14
 -1       373 1.13604E-02-8.22387E-04-4.30987E-14
 -1       374 1.16652E-02-9.06585E-04-4.50092E-14
 -1       375 1.19586E-02-9.71153E-04-4.69548E-14
 -1       376 1.22407E-02-9.96343E-04-4.89286E-14
 -1       377 1.25154E-02-9.67237E-04-5.09201E-14
 -1       378 1.27888E-02-8.79924E-04-5.29154E-14
 -1       379 1.30659E-02-7.42288E-04-5.49168E-14
 -1       380 1.33480E-02-5.68973E-04-5.69172E-14
 -1       381 1.36337E-02-3.74743E-04-5.89119E-14
 -1       382 1.38837E-02-1.95617E-04-6.07135E-14
 -1       383 1.11009E-03 4.47826E-04-7.49387E-17
 -1       384 1.39087E-03 5.00907E-04-1.91473E-16
 -1       385 1.66922E-03 5.38548E-04-3.59122E-16
 -1       386 1.94667E-03 5.64876E-04-5.80855E-16
 -1       387 2.22413E-03 5.82901E-04-8.57228E-16
 -1       388 2.50216E-03 5.94864E-04-1.19164E-15
 -1       389 2.78102E-03 6.02449E-04-1.58377E-15
 -1       390 3.06082E-03 6.06919E-04-2.03296E-15
 -1       391 3.34154E-03 6.09214E-04-2.53995E-15
 -1       392 3.62313E-03 6.10020E-04-3.10343E-15
 -1       393 3.90549E-03 6.09830E-04-3.72507E-15
 -1       394 4.18851E-03 6.08981E-04-4.40573E-15
 -1       395 4.47210E-03 6.07690E-04-5.14561E-15
 -1       396 4.75617E-03 6.06084E-04-5.94571E-15
 -1       397 5.04064E-03 6.04216E-04-6.80805E-15
 -1       398 5.32547E-03 6.02083E-04-7.72967E-15
 -1       399 5.61065E-03 5.99641E-04-8.70823E-15
 -1       400 5.89619E-03 5.96809E-04-9.74591E-15
 -1       401 6.18215E-03 5.93488E-04-1.08383E-14
 -1       402 6.46862E-03 5.89560E-04-1.19881E-14
 -1       403 6.75576E-03 5.84909E-04-1.31943E-14
 -1       404 7.04378E-03 5.79430E-04-1.44553E-14
 -1       405 7.33299E-03 5.73056E-04-1.57716E-14
 -1       406 7.62375E-03 5.65788E-04-1.71381E-14
 -1       407 7.91655E-03 5.57745E-04-1.85518E-14
 -1       408 8.21200E-03 5.49235E-04-2.00108E-14
 -1       409 8.51082E-03 5.40859E-04-2.15225E-14
 -1       410 8.81389E-03 5.33663E-04-2.30771E-14
 -1       411 9.12217E-03 5.29346E-04-2.46697E-14
 -1       412 9.43677E-03 5.30552E-04-2.62901E-14
 -1       413 9.75877E-03 5.41220E-04-2.79396E-14
 -1       414 1.00892E-02 5.66957E-04-2.96261E-14
 -1       415 1.04287E-02 6.15231E-04-3.13557E-14
 -1       416 1.07771E-02 6.94953E-04-3.31197E-14
 -1       417 1.11330E-02 8.14630E-04-3.49193E-14
 -1       418 1.14921E-02 9.77976E-04-3.67532E-14
 -1       419 1.18464E-02 1.17638E-03-3.86241E-14
 -1       420 1.21859E-02 1.38071E-03-4.05264E-14
 -1       421 1.25037E-02 1.54199E-03-4.24541E-14
 -1       422 1.28034E-02 1.60919E-03-4.44084E-14
 -1       423 1.30988E-02 1.56189E-03-4.63886E-14
 -1       424 1.34020E-02 1.42293E-03-4.83901E-14
 -1       425 1.37139E-02 1.23604E-03-5.04200E-14
 -1       426 1.40269E-02 1.03632E-03-5.24850E-14
 -1       427 1.43331E-02 8.36616E-04-5.45691E-14
 -1       428 1.45404E-02 7.00179E-04-5.59561E-14
 -1       429 1.51010E-02 5.22945E-04-5.67297E-14
 -1       430 1.48411E-02 6.05697E-04-5.62555E-14
 -1       431 1.46849E-02 6.54454E-04-5.61086E-14
 -1       432 1.53621E-02 4.57878E-04-5.71897E-14
 -1       433 1.55780E-02 4.21787E-04-5.76387E-14
 -1       434 1.56861E-02 4.13827E-04-5.80719E-14
 -1       435 1.56478E-02 4.14470E-04-5.84985E-14
 -1       436 1.54733E-02 3.97913E-04-5.89024E-14
 -1       437 1.52103E-02 3.49519E-04-5.92991E-14
 -1       438 1.49227E-02 2.72904E-04-5.96935E-14
 -1       439 1.46523E-02 1.80253E-04-6.00820E-14
 -1       440 1.44149E-02 8.24624E-05-6.04700E-14
 -1       441 1.42089E-02-1.40010E-05-6.08598E-14
 -1       442 1.49415E-02 5.82890E-04-5.19797E-14
 -1       443 1.53365E-02 3.92847E-04-5.31079E-14
 -1       444 1.52640E-02 4.51231E-04-5.30356E-14
 -1       445 1.45418E-02 7.57168E-04-5.10241E-14
 -1       446 1.41166E-02 9.84799E-04-4.97898E-14
 -1       447 4.45681E-04-1.26398E-04-1.15271E-16
 -1       448 1.32642E-02 1.39779E-03-4.71870E-14
 -1       449 1.28572E-02 1.47837E-03-4.56531E-14
 -1       450 1.25497E-02 1.42664E-03-4.45363E-14
 -1       451 1.21585E-02 1.24667E-03-4.32596E-14
 -1       452 1.16566E-02 9.31303E-04-4.19175E-14
 -1       453 1.13120E-02 7.27666E-04-4.13695E-14
 -1       454 1.09284E-02 5.10530E-04-4.07402E-14
 -1       455 1.05518E-02 3.30533E-04-4.04071E-14
 -1       456 1.03986E-02 2.53499E-04-4.05527E-14
 -1       457 1.03858E-02 1.88604E-04-4.08590E-14
 -1       458 1.05431E-02 1.07120E-04-4.12587E-14
 -1       459 1.07856E-02 6.97412E-06-4.18897E-14
 -1       460 1.12410E-02-2.14850E-04-4.32596E-14
 -1       461 1.15532E-02-3.81254E-04-4.42308E-14
 -1       462 1.19464E-02-5.81532E-04-4.54791E-14
 -1       463 1.22548E-02-7.09805E-04-4.66004E-14
 -1       464 1.26594E-02-7.81064E-04-4.81883E-14
 -1       465 1.29831E-02-7.24363E-04-4.92535E-14
 -1       466 1.33365E-02-5.81936E-04-5.04183E-14
 -1       467 1.37328E-02-3.74081E-04-5.14067E-14
 -1       468 1.41648E-02-1.52084E-04-5.21256E-14
 -1       469 1.45917E-02 6.58885E-05-5.28429E-14
 -1       470 1.49694E-02 2.19658E-04-5.31351E-14
 -1       471 1.52525E-02 3.38392E-04-5.34953E-14
 -1       472 1.36776E-02 1.20676E-03-4.86124E-14
 -1       473 1.09890E-02-8.19712E-05-4.20300E-14
 -1       474 1.19203E-02 1.08354E-03-4.20730E-14
 -1       475 9.31318E-04 3.46019E-04-9.45085E-17
 -1       476 6.65798E-04-7.51236E-05-2.26385E-16
 -1       477 6.69775E-04-1.15880E-04-2.35519E-16
 -1       478 6.63117E-04 1.10426E-06-2.01140E-16
 -1       479 6.63840E-04 3.87605E-05-1.85483E-16
 -1       480 6.65986E-04 7.68091E-05-1.67936E-16
 -1       481 6.70088E-04 1.17717E-04-1.46835E-16
 -1       482 6.77111E-04 1.62332E-04-1.21373E-16
 -1       483 6.89043E-04 2.12695E-04-8.99007E-17
 -1       484 1.21722E-03 4.06519E-04-2.06297E-16
 -1       485 9.76352E-04-3.28611E-04-4.34569E-16
 -1       486 1.39037E-02 1.05943E-03-4.97023E-14
 -1       487 1.26228E-03-3.83510E-04-7.00185E-16
 -1       488 1.54732E-03-4.23283E-04-1.02752E-15
 -1       489 1.83146E-03-4.51376E-04-1.41663E-15
 -1       490 2.11502E-03-4.70694E-04-1.86617E-15
 -1       491 2.39831E-03-4.83531E-04-2.37518E-15
 -1       492 2.68157E-03-4.91660E-04-2.94448E-15
 -1       493 2.96497E-03-4.96430E-04-3.57447E-15
 -1       494 3.24860E-03-4.98853E-04-4.26417E-15
 -1       495 3.53250E-03-4.99673E-04-5.01186E-15
 -1       496 3.81667E-03-4.99425E-04-5.81674E-15
 -1       497 4.10111E-03-4.98478E-04-6.67787E-15
 -1       498 4.38579E-03-4.97075E-04-7.59088E-15
 -1       499 4.67069E-03-4.95359E-04-8.55405E-15
 -1       500 4.95579E-03-4.93397E-04-9.56604E-15
 -1       501 5.24108E-03-4.91200E-04-1.06288E-14
 -1       502 5.52656E-03-4.88730E-04-1.17452E-14
 -1       503 5.81222E-03-4.85922E-04-1.29178E-14
 -1       504 6.09811E-03-4.82684E-04-1.41473E-14
 -1       505 6.38425E-03-4.78915E-04-1.54317E-14
 -1       506 6.67072E-03-4.74517E-04-1.67716E-14
 -1       507 6.95760E-03-4.69413E-04-1.81657E-14
 -1       508 7.24502E-03-4.63568E-04-1.96064E-14
 -1       509 7.53312E-03-4.57025E-04-2.10947E-14
 -1       510 7.82210E-03-4.49947E-04-2.26257E-14
 -1       511 8.11220E-03-4.42675E-04-2.41961E-14
 -1       512 8.40374E-03-4.35797E-04-2.58163E-14
 -1       513 8.69708E-03-4.30241E-04-2.74775E-14
 -1       514 8.99273E-03-4.27361E-04-2.91734E-14
 -1       515 9.29129E-03-4.29030E-04-3.09022E-14
 -1       516 9.59351E-03-4.37694E-04-3.26598E-14
 -1       517 9.90024E-03-4.56345E-04-3.44448E-14
 -1       518 1.02123E-02-4.88314E-04-3.62600E-14
 -1       519 1.05303E-02-5.36731E-04-3.80999E-14
 -1       520 1.08538E-02-6.03419E-04-3.99606E-14
 -1       521 1.11804E-02-6.86980E-04-4.18349E-14
 -1       522 1.15059E-02-7.80102E-04-4.37261E-14
 -1       523 1.18244E-02-8.67189E-04-4.56484E-14
 -1       524 1.21317E-02-9.25235E-04-4.76039E-14
 -1       525 1.24290E-02-9.30686E-04-4.95800E-14
 -1       526 1.27226E-02-8.70496E-04-5.15683E-14
 -1       527 1.30198E-02-7.49172E-04-5.35628E-14
 -1       528 1.33227E-02-5.83975E-04-5.55587E-14
 -1       529 1.36282E-02-3.94308E-04-5.75559E-14
 -1       530 1.78412E-03 4.81135E-04-5.79347E-16
 -1       531 2.06614E-03 5.02533E-04-8.45207E-16
 -1       532 2.34791E-03 5.16913E-04-1.16694E-15
 -1       533 2.62977E-03 5.26189E-04-1.54601E-15
 -1       534 2.91193E-03 5.31812E-04-1.98176E-15
 -1       535 3.19450E-03 5.34870E-04-2.47501E-15
 -1       536 3.47750E-03 5.36165E-04-3.02487E-15
 -1       537 3.76094E-03 5.36276E-04-3.63175E-15
 -1       538 4.04479E-03 5.35609E-04-4.29758E-15
 -1       539 4.32899E-03 5.34432E-04-5.02286E-15
 -1       540 4.61352E-03 5.32909E-04-5.80575E-15
 -1       541 4.89832E-03 5.31124E-04-6.65076E-15
 -1       542 5.18339E-03 5.29094E-04-7.55450E-15
 -1       543 5.46870E-03 5.26790E-04-8.51636E-15
 -1       544 5.75426E-03 5.24143E-04-9.53705E-15
 -1       545 6.04011E-03 5.21058E-04-1.06150E-14
 -1       546 6.32628E-03 5.17418E-04-1.17474E-14
 -1       547 6.61288E-03 5.13098E-04-1.29356E-14
 -1       548 6.90000E-03 5.07976E-04-1.41769E-14
 -1       549 7.18781E-03 5.01954E-04-1.54731E-14
 -1       550 7.47650E-03 4.94980E-04-1.68216E-14
 -1       551 7.76632E-03 4.87090E-04-1.82179E-14
 -1       552 8.05757E-03 4.78461E-04-1.96608E-14
 -1       553 8.35060E-03 4.69498E-04-2.11540E-14
 -1       554 8.64584E-03 4.60943E-04-2.26945E-14
 -1       555 8.94379E-03 4.54044E-04-2.42737E-14
 -1       556 9.24506E-03 4.50771E-04-2.58860E-14
 -1       557 9.55047E-03 4.54109E-04-2.75300E-14
 -1       558 9.86113E-03 4.68399E-04-2.92051E-14
 -1       559 1.01787E-02 4.99686E-04-3.09199E-14
 -1       560 1.05055E-02 5.55921E-04-3.26701E-14
 -1       561 1.08447E-02 6.46623E-04-3.44532E-14
 -1       562 1.11986E-02 7.81062E-04-3.62691E-14
 -1       563 1.15666E-02 9.63325E-04-3.81214E-14
 -1       564 1.19399E-02 1.18161E-03-4.00070E-14
 -1       565 1.23046E-02 1.39391E-03-4.19206E-14
 -1       566 1.26505E-02 1.53247E-03-4.38608E-14
 -1       567 1.29849E-02 1.54009E-03-4.58275E-14
 -1       568 1.33280E-02 1.42367E-03-4.78188E-14
 -1       569 1.36813E-02 1.23819E-03-4.98309E-14
 -1       570 1.40325E-02 1.03842E-03-5.18758E-14
 -1       571 1.43676E-02 8.46906E-04-5.39545E-14
 -1       572 1.52727E-02 4.79232E-04-5.57612E-14
 -1       573 1.54767E-02 4.27398E-04-5.61994E-14
 -1       574 1.46924E-02 6.93057E-04-5.46817E-14
 -1       575 1.49718E-02 5.77719E-04-5.51542E-14
 -1       576 1.55286E-02 4.05106E-04-5.66403E-14
 -1       577 1.53964E-02 3.77072E-04-5.70560E-14
 -1       578 1.51299E-02 3.12197E-04-5.74642E-14
 -1       579 1.48193E-02 2.11776E-04-5.78664E-14
 -1       580 1.45271E-02 9.54502E-05-5.82690E-14
 -1       581 1.42759E-02-1.98012E-05-5.86658E-14
 -1       582 1.40639E-02-1.26705E-04-5.90645E-14
 -1       583 1.53774E-02 4.09926E-04-5.42768E-14
 -1       584 1.47642E-02 6.25242E-04-5.23806E-14
 -1       585 1.50135E-03 4.50213E-04-3.66918E-16
 -1       586 1.53618E-02 3.82955E-04-5.46610E-14
 -1       587 1.51414E-02 4.88150E-04-5.34469E-14
 -1       588 7.12682E-04-2.51714E-04-2.48669E-16
 -1       589 1.51213E-02 3.10105E-04-5.43083E-14
 -1       590 1.04009E-02 1.58772E-04-4.01164E-14
 -1       591 1.23790E-02 1.36559E-03-4.33888E-14
 -1       592 6.63728E-04-3.65163E-05-2.14824E-16
 -1       593 1.30443E-02 1.47705E-03-4.63577E-14
 -1       594 1.26374E-02 1.47109E-03-4.44983E-14
 -1       595 1.07113E-02 3.75800E-04-3.96995E-14
 -1       596 1.14710E-02 7.83988E-04-4.07632E-14
 -1       597 1.28344E-02-7.66558E-04-4.92931E-14
 -1       598 1.11137E-02 5.73225E-04-4.01383E-14
 -1       599 1.04201E-02 2.53505E-04-3.93895E-14
 -1       600 1.03421E-02 2.05641E-04-3.96987E-14
 -1       601 1.06111E-02 7.36242E-05-4.06584E-14
 -1       602 1.14188E-02-3.01102E-04-4.33464E-14
 -1       603 1.17636E-02-4.91334E-04-4.45820E-14
 -1       604 1.20985E-02-6.65976E-04-4.59211E-14
 -1       605 1.24199E-02-7.78097E-04-4.73941E-14
 -1       606 1.31182E-02-6.61456E-04-5.04586E-14
 -1       607 1.34813E-02-4.69463E-04-5.16119E-14
 -1       608 1.39305E-02-2.12558E-04-5.27323E-14
 -1       609 1.43215E-02-7.98105E-06-5.34510E-14
 -1       610 1.48181E-02 2.04838E-04-5.40053E-14
 -1       611 1.34325E-02 1.31964E-03-4.80135E-14
 -1       612 7.03864E-04 2.90879E-04-3.01713E-17
 -1       613 1.42941E-02 8.46067E-04-5.09394E-14
 -1       614 6.76585E-04-1.60108E-04-2.41598E-16
 -1       615 1.25925E-02-8.07380E-04-4.84941E-14
 -1       616 1.21442E-02 1.23674E-03-4.21964E-14
 -1       617 1.07623E-02-4.84466E-06-4.07938E-14
 -1       618 1.05158E-02 2.90868E-04-3.86865E-14
 -1       619 1.36643E-02 1.19447E-03-4.90984E-14
 -1       620 1.17056E-02 9.37682E-04-4.09167E-14
 -1       621 1.38405E-02-2.53942E-04-5.89862E-14
 -1       622 8.99724E-04 7.41096E-05-3.11020E-16
 -1       623 8.97630E-04 2.51777E-05-3.37370E-16
 -1       624 9.11819E-04 1.78223E-04-2.44870E-16
 -1       625 9.24212E-04 2.36787E-04-2.01902E-16
 -1       626 1.04892E-03 3.13920E-04-2.04274E-16
 -1       627 1.40938E-02 9.50814E-04-5.08216E-14
 -1       628 1.32720E-02 1.40949E-03-4.74522E-14
 -1       629 1.46159E-02 1.38085E-04-5.47969E-14
 -1       630 1.38332E-03-3.37074E-04-8.54914E-16
 -1       631 1.66952E-03-3.68015E-04-1.20740E-15
 -1       632 1.95574E-03-3.89832E-04-1.61938E-15
 -1       633 2.24178E-03-4.04682E-04-2.09072E-15
 -1       634 2.52764E-03-4.14355E-04-2.62044E-15
 -1       635 2.81335E-03-4.20274E-04-3.21014E-15
 -1       636 3.09897E-03-4.23531E-04-3.85946E-15
 -1       637 3.38454E-03-4.24948E-04-4.56572E-15
 -1       638 3.67009E-03-4.25124E-04-5.33041E-15
 -1       639 3.95564E-03-4.24484E-04-6.15129E-15
 -1       640 4.24120E-03-4.23314E-04-7.02569E-15
 -1       641 4.52679E-03-4.21794E-04-7.95341E-15
 -1       642 4.81241E-03-4.20022E-04-8.92904E-15
 -1       643 5.09805E-03-4.18030E-04-9.95575E-15
 -1       644 5.38373E-03-4.15803E-04-1.10363E-14
 -1       645 5.66945E-03-4.13289E-04-1.21720E-14
 -1       646 5.95521E-03-4.10408E-04-1.33652E-14
 -1       647 6.24102E-03-4.07065E-04-1.46134E-14
 -1       648 6.52691E-03-4.03157E-04-1.59138E-14
 -1       649 6.81288E-03-3.98589E-04-1.72696E-14
 -1       650 7.09897E-03-3.93293E-04-1.86747E-14
 -1       651 7.38522E-03-3.87249E-04-2.01280E-14
 -1       652 7.67171E-03-3.80520E-04-2.16267E-14
 -1       653 7.95856E-03-3.73294E-04-2.31658E-14
 -1       654 8.24593E-03-3.65941E-04-2.47520E-14
 -1       655 8.53411E-03-3.59079E-04-2.63845E-14
 -1       656 8.82353E-03-3.53660E-04-2.80566E-14
 -1       657 9.11486E-03-3.51052E-04-2.97606E-14
 -1       658 9.40908E-03-3.53143E-04-3.14927E-14
 -1       659 9.70760E-03-3.62422E-04-3.32568E-14
 -1       660 1.00123E-02-3.82032E-04-3.50502E-14
 -1       661 1.03252E-02-4.15707E-04-3.68696E-14
 -1       662 1.06484E-02-4.67383E-04-3.87131E-14
 -1       663 1.09823E-02-5.40039E-04-4.05725E-14
 -1       664 1.13244E-02-6.33098E-04-4.24471E-14
 -1       665 1.16678E-02-7.37488E-04-4.43508E-14
 -1       666 1.20032E-02-8.31135E-04-4.62850E-14
 -1       667 1.23257E-02-8.81009E-04-4.82417E-14
 -1       668 1.26394E-02-8.57056E-04-5.02220E-14
 -1       669 1.29558E-02-7.54793E-04-5.22096E-14
 -1       670 1.32812E-02-5.94166E-04-5.41984E-14
 -1       671 1.36118E-02-4.04804E-04-5.61907E-14
 -1       672 2.19074E-03 4.37569E-04-1.12808E-15
 -1       673 1.36904E-02-3.32134E-04-5.30829E-14
 -1       674 1.32864E-02-5.65598E-04-5.17321E-14
 -1       675 1.90574E-03 4.20767E-04-8.18200E-16
 -1       676 2.76019E-03 4.55595E-04-1.91739E-15
 -1       677 3.04488E-03 4.59584E-04-2.39717E-15
 -1       678 3.32962E-03 4.61524E-04-2.93301E-15
 -1       679 3.61447E-03 4.62077E-04-3.52680E-15
 -1       680 3.89943E-03 4.61711E-04-4.17824E-15
 -1       681 4.18452E-03 4.60748E-04-4.88848E-15
 -1       682 4.46973E-03 4.59393E-04-5.65697E-15
 -1       683 4.75505E-03 4.57760E-04-6.48373E-15
 -1       684 5.04047E-03 4.55895E-04-7.37090E-15
 -1       685 5.32601E-03 4.53789E-04-8.31607E-15
 -1       686 5.61165E-03 4.51392E-04-9.31881E-15
 -1       687 5.89741E-03 4.48620E-04-1.03792E-14
 -1       688 6.18332E-03 4.45367E-04-1.14955E-14
 -1       689 6.46938E-03 4.41515E-04-1.26665E-14
 -1       690 6.75564E-03 4.36941E-04-1.38902E-14
 -1       691 7.04214E-03 4.31533E-04-1.51665E-14
 -1       692 7.32893E-03 4.25214E-04-1.64967E-14
 -1       693 7.61607E-03 4.17969E-04-1.78769E-14
 -1       694 7.90362E-03 4.09890E-04-1.93042E-14
 -1       695 8.19163E-03 4.01232E-04-2.07803E-14
 -1       696 8.48019E-03 3.92505E-04-2.23044E-14
 -1       697 8.76940E-03 3.84578E-04-2.38711E-14
 -1       698 9.05942E-03 3.78834E-04-2.54729E-14
 -1       699 9.35062E-03 3.77358E-04-2.71097E-14
 -1       700 9.64376E-03 3.83173E-04-2.87780E-14
 -1       701 9.94042E-03 4.00534E-04-3.04781E-14
 -1       702 1.02435E-02 4.35300E-04-3.22157E-14
 -1       703 1.05582E-02 4.95486E-04-3.39857E-14
 -1       704 1.08916E-02 5.91809E-04-3.57872E-14
 -1       705 1.12515E-02 7.37342E-04-3.76223E-14
 -1       706 1.16408E-02 9.41421E-04-3.94887E-14
 -1       707 1.40304E-02 1.01725E-03-5.12766E-14
 -1       708 1.43701E-02 8.42680E-04-5.29715E-14
 -1       709 1.49044E-02 5.81333E-04-5.38429E-14
 -1       710 1.46175E-02 7.10386E-04-5.34107E-14
 -1       711 1.50912E-02 3.06528E-04-5.57412E-14
 -1       712 1.47205E-02 1.78535E-04-5.60379E-14
 -1       713 1.43903E-02 3.15473E-05-5.64479E-14
 -1       714 1.41206E-02-1.08520E-04-5.68592E-14
 -1       715 1.53315E-02 4.32986E-04-5.42811E-14
 -1       716 8.72369E-04-2.47145E-04-3.72484E-16
 -1       717 1.62038E-03 3.96252E-04-5.62430E-16
 -1       718 2.47552E-03 4.48657E-04-1.49396E-15
 -1       719 1.12695E-03-2.97113E-04-5.89654E-16
 -1       720 9.04185E-04 1.24613E-04-2.80639E-16
 -1       721 1.33467E-03 3.61562E-04-3.58271E-16
 -1       722 1.04045E-02 1.17006E-04-3.92675E-14
 -1       723 1.11458E-02-1.90235E-04-4.20209E-14
 -1       724 9.03811E-04-1.22201E-04-3.96970E-16
 -1       725 1.18791E-02-5.90048E-04-4.49318E-14
 -1       726 1.03083E-02 2.08629E-04-3.84872E-14
 -1       727 1.12447E-02 6.54440E-04-3.92801E-14
 -1       728 1.22054E-02-7.48022E-04-4.65480E-14
 -1       729 1.02947E-02 1.69608E-04-3.87725E-14
 -1       730 1.45294E-02 7.29835E-04-5.23076E-14
 -1       731 1.08491E-02 4.37825E-04-3.87509E-14
 -1       732 1.15574E-02-4.14106E-04-4.35546E-14
 -1       733 1.38408E-02-2.66462E-04-5.76267E-14
 -1       734 1.29439E-02-7.31328E-04-5.03036E-14
 -1       735 1.41329E-02-8.71968E-05-5.40754E-14
 -1       736 1.52736E-02 4.59508E-04-5.47388E-14
 -1       737 9.11219E-04-1.75585E-04-4.09364E-16
 -1       738 8.97567E-04-2.31567E-05-3.60480E-16
 -1       739 1.05059E-02 5.99909E-05-3.94055E-14
 -1       740 1.36661E-02 1.21681E-03-4.94646E-14
 -1       741 1.23718E-02-8.12637E-04-4.76389E-14
 -1       742 1.53736E-02 3.76291E-04-5.61957E-14
 -1       743 1.50219E-02 5.36823E-04-5.40304E-14
 -1       744 1.03470E-02 2.35274E-04-3.77898E-14
 -1       745 8.99517E-04-7.18235E-05-3.80257E-16
 -1       746 1.38496E-02-2.61360E-04-5.65229E-14
 -1       747 1.54202E-02 4.20572E-04-5.52374E-14
 -1       748 1.16153E-03 2.43630E-04-3.61642E-16
 -1       749 1.16395E-02-5.37469E-04-4.38085E-14
 -1       750 1.79729E-03-3.09543E-04-1.38584E-15
 -1       751 2.08494E-03-3.25661E-04-1.81880E-15
 -1       752 2.37273E-03-3.36487E-04-2.31054E-15
 -1       753 2.66043E-03-3.43373E-04-2.86064E-15
 -1       754 2.94792E-03-3.47409E-04-3.46990E-15
 -1       755 3.23518E-03-3.49441E-04-4.13649E-15
 -1       756 3.52219E-03-3.50099E-04-4.85961E-15
 -1       757 3.80899E-03-3.49841E-04-5.64010E-15
 -1       758 4.09558E-03-3.48987E-04-6.47517E-15
 -1       759 4.38199E-03-3.47745E-04-7.36355E-15
 -1       760 4.66825E-03-3.46237E-04-8.30336E-15
 -1       761 4.95437E-03-3.44523E-04-9.29370E-15
 -1       762 5.24037E-03-3.42607E-04-1.03384E-14
 -1       763 5.52625E-03-3.40456E-04-1.14386E-14
 -1       764 5.81201E-03-3.38009E-04-1.25933E-14
 -1       765 6.09764E-03-3.35183E-04-1.38047E-14
 -1       766 6.38310E-03-3.31883E-04-1.50703E-14
 -1       767 6.66838E-03-3.28010E-04-1.63867E-14
 -1       768 6.95344E-03-3.23478E-04-1.77553E-14
 -1       769 7.23823E-03-3.18226E-04-1.91741E-14
 -1       770 7.52272E-03-3.12243E-04-2.06380E-14
 -1       771 7.80691E-03-3.05594E-04-2.21464E-14
 -1       772 8.09082E-03-2.98463E-04-2.36977E-14
 -1       773 8.37458E-03-2.91196E-04-2.52980E-14
 -1       774 8.65848E-03-2.84361E-04-2.69430E-14
 -1       775 8.94303E-03-2.78818E-04-2.86240E-14
 -1       776 9.22914E-03-2.75813E-04-3.03373E-14
 -1       777 9.51826E-03-2.77092E-04-3.20792E-14
 -1       778 9.81258E-03-2.85071E-04-3.38476E-14
 -1       779 1.01151E-02-3.03092E-04-3.56458E-14
 -1       780 1.04298E-02-3.35720E-04-3.74738E-14
 -1       781 1.07603E-02-3.88769E-04-3.93181E-14
 -1       782 1.11086E-02-4.68075E-04-4.11766E-14
 -1       783 1.14718E-02-5.76195E-04-4.30589E-14
 -1       784 1.21953E-02-8.06384E-04-4.69175E-14
 -1       785 1.28696E-02-7.69617E-04-5.08842E-14
 -1       786 1.32177E-02-6.12139E-04-5.28688E-14
 -1       787 1.35359E-02-4.38548E-04-5.46888E-14
 -1       788 3.18000E-03 3.86050E-04-2.82959E-15
 -1       789 2.89344E-03 3.83405E-04-2.30710E-15
 -1       790 3.75268E-03 3.87161E-04-4.04732E-15
 -1       791 4.03883E-03 3.86506E-04-4.74313E-15
 -1       792 4.32489E-03 3.85405E-04-5.49650E-15
 -1       793 4.61088E-03 3.84005E-04-6.30815E-15
 -1       794 4.89680E-03 3.82377E-04-7.17831E-15
 -1       795 5.18267E-03 3.80537E-04-8.10628E-15
 -1       796 5.46850E-03 3.78455E-04-9.09191E-15
 -1       797 5.75428E-03 3.76070E-04-1.01333E-14
 -1       798 6.04001E-03 3.73292E-04-1.12333E-14
 -1       799 6.32567E-03 3.70017E-04-1.23865E-14
 -1       800 6.61124E-03 3.66135E-04-1.35939E-14
 -1       801 6.89669E-03 3.61540E-04-1.48534E-14
 -1       802 7.18195E-03 3.56146E-04-1.61637E-14
 -1       803 7.46695E-03 3.49915E-04-1.75288E-14
 -1       804 7.75157E-03 3.42886E-04-1.89422E-14
 -1       805 8.03566E-03 3.35220E-04-2.04009E-14
 -1       806 8.31902E-03 3.27255E-04-2.19084E-14
 -1       807 8.60144E-03 3.19588E-04-2.34605E-14
 -1       808 8.88269E-03 3.13153E-04-2.50487E-14
 -1       809 9.16262E-03 3.09336E-04-2.66742E-14
 -1       810 9.44134E-03 3.10081E-04-2.83384E-14
 -1       811 9.71956E-03 3.18035E-04-3.00295E-14
 -1       812 9.99914E-03 3.36774E-04-3.17547E-14
 -1       813 1.02840E-02 3.71307E-04-3.35154E-14
 -1       814 1.05814E-02 4.29573E-04-3.53046E-14
 -1       815 1.09048E-02 5.24419E-04-3.71249E-14
 -1       816 1.02282E-02 1.26466E-04-3.76984E-14
 -1       817 1.39452E-02-1.93734E-04-5.50480E-14
 -1       818 1.74570E-03 3.39133E-04-7.77658E-16
 -1       819 1.42471E-02-2.98100E-05-5.49210E-14
 -1       820 1.19594E-02-6.86484E-04-4.54132E-14
 -1       821 3.46641E-03 3.87130E-04-3.40948E-15
 -1       822 1.27054E-02-8.11438E-04-4.97084E-14
 -1       823 2.03273E-03 3.57724E-04-1.07647E-15
 -1       824 1.30920E-02-6.68380E-04-5.16180E-14
 -1       825 1.08512E-02-1.04470E-04-4.05431E-14
 -1       826 1.05601E-02 3.30139E-04-3.74213E-14
 -1       827 1.51020E-03-2.86559E-04-1.01092E-15
 -1       828 1.02071E-02 1.74093E-04-3.74685E-14
 -1       829 1.24622E-03 3.00856E-04-3.64289E-16
 -1       830 1.13821E-03 5.90575E-05-5.01515E-16
 -1       831 1.34722E-02-4.61618E-04-5.32493E-14
 -1       832 1.12711E-02-3.21849E-04-4.21746E-14
 -1       833 1.13684E-03 1.19620E-06-5.36687E-16
 -1       834 1.05740E-02-2.71330E-05-3.91576E-14
 -1       835 1.14978E-03 1.79117E-04-4.15287E-16
 -1       836 1.14921E-03-1.76128E-04-6.15027E-16
 -1       837 1.25387E-03-2.56226E-04-7.23719E-16
 -1       838 1.18388E-02-7.00666E-04-4.49738E-14
 -1       839 2.31978E-03 3.70330E-04-1.42973E-15
 -1       840 2.60670E-03 3.78481E-04-1.83998E-15
 -1       841 1.02809E-02 8.49800E-05-3.78365E-14
 -1       842 1.43402E-02 8.33365E-04-5.21183E-14
 -1       843 1.14234E-03 1.17940E-04-4.61430E-16
 -1       844 1.14198E-03-1.15199E-04-5.93475E-16
 -1       845 1.02005E-02 1.96011E-04-3.67795E-14
 -1       846 1.49561E-03 3.24171E-04-5.49653E-16
 -1       847 1.03397E-02 2.64608E-04-3.64172E-14
 -1       848 2.21828E-03-2.58951E-04-2.01554E-15
 -1       849 2.50734E-03-2.66289E-04-2.52700E-15
 -1       850 2.79635E-03-2.70815E-04-3.09604E-15
 -1       851 3.08510E-03-2.73317E-04-3.72237E-15
 -1       852 3.37351E-03-2.74408E-04-4.40554E-15
 -1       853 3.66154E-03-2.74541E-04-5.14457E-15
 -1       854 3.94920E-03-2.74043E-04-5.93926E-15
 -1       855 4.23651E-03-2.73134E-04-6.78879E-15
 -1       856 4.52349E-03-2.71954E-04-7.69062E-15
 -1       857 4.81018E-03-2.70578E-04-8.64450E-15
 -1       858 5.09660E-03-2.69031E-04-9.65211E-15
 -1       859 5.38276E-03-2.67301E-04-1.07143E-14
 -1       860 5.66864E-03-2.65347E-04-1.18335E-14
 -1       861 5.95423E-03-2.63103E-04-1.30070E-14
 -1       862 6.23949E-03-2.60490E-04-1.42369E-14
 -1       863 6.52435E-03-2.57420E-04-1.55187E-14
 -1       864 6.80872E-03-2.53803E-04-1.68494E-14
 -1       865 7.09250E-03-2.49560E-04-1.82305E-14
 -1       866 7.37556E-03-2.44632E-04-1.96615E-14
 -1       867 7.65780E-03-2.39002E-04-2.11373E-14
 -1       868 7.93910E-03-2.32714E-04-2.26563E-14
 -1       869 8.21942E-03-2.25899E-04-2.42234E-14
 -1       870 8.49882E-03-2.18813E-04-2.58365E-14
 -1       871 8.77755E-03-2.11880E-04-2.74931E-14
 -1       872 9.05620E-03-2.05746E-04-2.91830E-14
 -1       873 9.33583E-03-2.01374E-04-3.09050E-14
 -1       874 9.61826E-03-2.00206E-04-3.26528E-14
 -1       875 9.90638E-03-2.04463E-04-3.44288E-14
 -1       876 1.02045E-02-2.17748E-04-3.62340E-14
 -1       877 1.05186E-02-2.46019E-04-3.80661E-14
 -1       878 1.08556E-02-2.98492E-04-3.99121E-14
 -1       879 3.02937E-03 3.09881E-04-2.71555E-15
 -1       880 4.17922E-03 3.10855E-04-5.32657E-15
 -1       881 3.89220E-03 3.11633E-04-4.58805E-15
 -1       882 4.75250E-03 3.08435E-04-6.97502E-15
 -1       883 5.03881E-03 3.06924E-04-7.88734E-15
 -1       884 5.32493E-03 3.05219E-04-8.85673E-15
 -1       885 5.61085E-03 3.03279E-04-9.88145E-15
 -1       886 5.89654E-03 3.01039E-04-1.09614E-14
 -1       887 6.18199E-03 2.98417E-04-1.20988E-14
 -1       888 6.46712E-03 2.95321E-04-1.32883E-14
 -1       889 6.75185E-03 2.91661E-04-1.45304E-14
 -1       890 7.03604E-03 2.87361E-04-1.58256E-14
 -1       891 7.31954E-03 2.82378E-04-1.71742E-14
 -1       892 7.60210E-03 2.76725E-04-1.85707E-14
 -1       893 7.88345E-03 2.70506E-04-2.00151E-14
 -1       894 8.16321E-03 2.63954E-04-2.15041E-14
 -1       895 8.44094E-03 2.57480E-04-2.30393E-14
 -1       896 8.71612E-03 2.51725E-04-2.46164E-14
 -1       897 8.98817E-03 2.47612E-04-2.62312E-14
 -1       898 9.25656E-03 2.46375E-04-2.78850E-14
 -1       899 9.52093E-03 2.49573E-04-2.95712E-14
 -1       900 9.78143E-03 2.59109E-04-3.12884E-14
 -1       901 1.00392E-02 2.77375E-04-3.30397E-14
 -1       902 1.02981E-02 3.07912E-04-3.48205E-14
 -1       903 1.13309E-02-4.48353E-04-4.23062E-14
 -1       904 1.87587E-03 2.78795E-04-1.01258E-15
 -1       905 1.09332E-02-2.37151E-04-4.04785E-14
 -1       906 1.64156E-03-2.31780E-04-1.16659E-15
 -1       907 1.13804E-03-5.65185E-05-5.67336E-16
 -1       908 1.00714E-02 1.36397E-04-3.61056E-14
 -1       909 4.46598E-03 3.09758E-04-6.12197E-15
 -1       910 1.92950E-03-2.47825E-04-1.56214E-15
 -1       911 1.06543E-02-1.46762E-04-3.90988E-14
 -1       912 1.40128E-03 2.37080E-04-5.70683E-16
 -1       913 1.39018E-03-1.64232E-04-8.54704E-16
 -1       914 1.38097E-03 3.41123E-05-7.40554E-16
 -1       915 1.44857E-03-2.23736E-04-9.33366E-16
 -1       916 3.31729E-03 3.11467E-04-3.28159E-15
 -1       917 2.74114E-03 3.06635E-04-2.20554E-15
 -1       918 3.60490E-03 3.11924E-04-3.90627E-15
 -1       919 1.03115E-02 1.48837E-05-3.75928E-14
 -1       920 2.16417E-03 2.92118E-04-1.35371E-15
 -1       921 1.00829E-02 1.04259E-04-3.62479E-14
 -1       922 1.58830E-03 2.59725E-04-7.24179E-16
 -1       923 1.00330E-02 1.59482E-04-3.54263E-14
 -1       924 1.38414E-03 9.99946E-05-6.91013E-16
 -1       925 1.38088E-03-3.12572E-05-7.84278E-16
 -1       926 1.58288E-03-1.69910E-04-1.07581E-15
 -1       927 2.35519E-03-1.89824E-04-2.20875E-15
 -1       928 1.38384E-03-9.71011E-05-8.22598E-16
 -1       929 2.64518E-03-1.94281E-04-2.73783E-15
 -1       930 2.93507E-03-1.96914E-04-3.32353E-15
 -1       931 3.22465E-03-1.98246E-04-3.96635E-15
 -1       932 3.51379E-03-1.98680E-04-4.66556E-15
 -1       933 3.80246E-03-1.98512E-04-5.41991E-15
 -1       934 4.09064E-03-1.97948E-04-6.22953E-15
 -1       935 4.37836E-03-1.97126E-04-7.09363E-15
 -1       936 4.66566E-03-1.96128E-04-8.00941E-15
 -1       937 4.95255E-03-1.94992E-04-8.97947E-15
 -1       938 5.23906E-03-1.93721E-04-1.00050E-14
 -1       939 5.52518E-03-1.92294E-04-1.10861E-14
 -1       940 5.81089E-03-1.90666E-04-1.22232E-14
 -1       941 6.09613E-03-1.88781E-04-1.34146E-14
 -1       942 6.38084E-03-1.86566E-04-1.46600E-14
 -1       943 6.66487E-03-1.83945E-04-1.59568E-14
 -1       944 6.94810E-03-1.80838E-04-1.73041E-14
 -1       945 7.23034E-03-1.77169E-04-1.86985E-14
 -1       946 7.51138E-03-1.72873E-04-2.01424E-14
 -1       947 7.79101E-03-1.67906E-04-2.16281E-14
 -1       948 8.06901E-03-1.62259E-04-2.31596E-14
 -1       949 8.34523E-03-1.55964E-04-2.47391E-14
 -1       950 8.61961E-03-1.49122E-04-2.63658E-14
 -1       951 8.89229E-03-1.41920E-04-2.80308E-14
 -1       952 9.16375E-03-1.34675E-04-2.97290E-14
 -1       953 9.43499E-03-1.27927E-04-3.14588E-14
 -1       954 9.70787E-03-1.22647E-04-3.32176E-14
 -1       955 9.98549E-03-1.20677E-04-3.50003E-14
 -1       956 1.02730E-02-1.25909E-04-3.68108E-14
 -1       957 5.18106E-03 2.31578E-04-8.61251E-15
 -1       958 4.89457E-03 2.32860E-04-7.65920E-15
 -1       959 5.75303E-03 2.28461E-04-1.06829E-14
 -1       960 6.03845E-03 2.26528E-04-1.18016E-14
 -1       961 6.32339E-03 2.24259E-04-1.29752E-14
 -1       962 6.60774E-03 2.21587E-04-1.42006E-14
 -1       963 6.89134E-03 2.18454E-04-1.54804E-14
 -1       964 7.17397E-03 2.14825E-04-1.68115E-14
 -1       965 7.45534E-03 2.10707E-04-1.81942E-14
 -1       966 7.73509E-03 2.06175E-04-1.96233E-14
 -1       967 8.01277E-03 2.01398E-04-2.10955E-14
 -1       968 8.28780E-03 1.96675E-04-2.26116E-14
 -1       969 8.55951E-03 1.92467E-04-2.41742E-14
 -1       970 8.82709E-03 1.89425E-04-2.57784E-14
 -1       971 9.08958E-03 1.88395E-04-2.74222E-14
 -1       972 9.34590E-03 1.90381E-04-2.91022E-14
 -1       973 9.59483E-03 1.96434E-04-3.08134E-14
 -1       974 9.83515E-03 2.07605E-04-3.25541E-14
 -1       975 1.00653E-02 2.25106E-04-3.43271E-14
 -1       976 5.46722E-03 2.30125E-04-9.62031E-15
 -1       977 2.45269E-03 3.01020E-04-1.75130E-15
 -1       978 1.72167E-03 2.02499E-04-9.36940E-16
 -1       979 1.39070E-03 1.67341E-04-6.34844E-16
 -1       980 4.03300E-03 2.35711E-04-5.14659E-15
 -1       981 2.06550E-03-1.82896E-04-1.73634E-15
 -1       982 1.82362E-03-1.77960E-04-1.38633E-15
 -1       983 1.55572E-03 1.85407E-04-7.78335E-16
 -1       984 2.87853E-03 2.33347E-04-2.59049E-15
 -1       985 3.74502E-03 2.36142E-04-4.42290E-15
 -1       986 4.60774E-03 2.33992E-04-6.76410E-15
 -1       987 1.00750E-02 4.94512E-05-3.60153E-14
 -1       988 3.16777E-03 2.35270E-04-3.14329E-15
 -1       989 2.01010E-03 2.15249E-04-1.26697E-15
 -1       990 1.62746E-03 1.56244E-06-1.02944E-15
 -1       991 9.91713E-03 1.19403E-04-3.46541E-14
 -1       992 4.32056E-03 2.34959E-04-5.92786E-15
 -1       993 1.62920E-03 7.32701E-05-9.70683E-16
 -1       994 5.32350E-03 1.56511E-04-9.35003E-15
 -1       995 2.49526E-03-1.18486E-04-2.39615E-15
 -1       996 2.78585E-03-1.20703E-04-2.94144E-15
 -1       997 3.07627E-03-1.21929E-04-3.54333E-15
 -1       998 3.36628E-03-1.22456E-04-4.20205E-15
 -1       999 3.65578E-03-1.22507E-04-4.91667E-15
 -1      1000 3.94473E-03-1.22240E-04-5.68617E-15
 -1      1001 4.23313E-03-1.21766E-04-6.51074E-15
 -1      1002 4.52101E-03-1.21155E-04-7.38962E-15
 -1      1003 4.80838E-03-1.20445E-04-8.32258E-15
 -1      1004 5.09528E-03-1.19648E-04-9.30916E-15
 -1      1005 5.38171E-03-1.18757E-04-1.03522E-14
 -1      1006 5.66764E-03-1.17749E-04-1.14509E-14
 -1      1007 5.95304E-03-1.16588E-04-1.26037E-14
 -1      1008 6.23781E-03-1.15228E-04-1.38119E-14
 -1      1009 6.52183E-03-1.13613E-04-1.50739E-14
 -1      1010 6.80494E-03-1.11679E-04-1.63877E-14
 -1      1011 7.08690E-03-1.09355E-04-1.77480E-14
 -1      1012 7.36748E-03-1.06563E-04-1.91565E-14
 -1      1013 7.64636E-03-1.03220E-04-2.06119E-14
 -1      1014 7.92321E-03-9.92373E-05-2.21108E-14
 -1      1015 8.19770E-03-9.45197E-05-2.36541E-14
 -1      1016 8.46950E-03-8.89658E-05-2.52467E-14
 -1      1017 8.73836E-03-8.24685E-05-2.68848E-14
 -1      1018 9.00414E-03-7.49243E-05-2.85575E-14
 -1      1019 9.26695E-03-6.62394E-05-3.02638E-14
 -1      1020 9.52726E-03-5.64414E-05-3.20031E-14
 -1      1021 9.78637E-03-4.58309E-05-3.37711E-14
 -1      1022 6.46434E-03 1.51049E-04-1.38639E-14
 -1      1023 2.58900E-03 2.29820E-04-2.09275E-15
 -1      1024 5.03702E-03 1.57456E-04-8.35757E-15
 -1      1025 6.18005E-03 1.52744E-04-1.26530E-14
 -1      1026 5.89508E-03 1.54191E-04-1.14964E-14
 -1      1027 6.74776E-03 1.49073E-04-1.51286E-14
 -1      1028 7.03008E-03 1.46797E-04-1.64442E-14
 -1      1029 7.31101E-03 1.44234E-04-1.78112E-14
 -1      1030 7.59016E-03 1.41444E-04-1.92258E-14
 -1      1031 7.86705E-03 1.38561E-04-2.06841E-14
 -1      1032 8.14110E-03 1.35812E-04-2.21834E-14
 -1      1033 8.41160E-03 1.33548E-04-2.37284E-14
 -1      1034 8.67767E-03 1.32259E-04-2.53202E-14
 -1      1035 8.93826E-03 1.32581E-04-2.69532E-14
 -1      1036 9.19206E-03 1.35293E-04-2.86249E-14
 -1      1037 9.43735E-03 1.41188E-04-3.03298E-14
 -1      1038 9.67177E-03 1.51015E-04-3.20620E-14
 -1      1039 9.86155E-03 1.52968E-04-3.37306E-14
 -1      1040 5.60953E-03 1.55433E-04-1.03968E-14
 -1      1041 2.29940E-03 2.24049E-04-1.65139E-15
 -1      1042 3.45661E-03 2.36081E-04-3.75451E-15
 -1      1043 9.87276E-03 7.32919E-05-3.44318E-14
 -1      1044 1.62901E-03-7.01268E-05-1.08111E-15
 -1      1045 1.59130E-03 1.29653E-04-8.74694E-16
 -1      1046 4.17492E-03 1.59610E-04-5.72231E-15
 -1      1047 1.00389E-02-3.29055E-05-3.55139E-14
 -1      1048 2.20487E-03-1.14913E-04-1.90735E-15
 -1      1049 1.96217E-03-1.13943E-04-1.54306E-15
 -1      1050 3.88660E-03 1.60020E-04-4.95618E-15
 -1      1051 9.78602E-03 1.10302E-04-3.35173E-14
 -1      1052 4.75011E-03 1.58291E-04-7.42267E-15
 -1      1053 1.87900E-03 1.39835E-04-1.19720E-15
 -1      1054 3.01853E-03 1.58862E-04-2.99472E-15
 -1      1055 4.46275E-03 1.59017E-04-6.54536E-15
 -1      1056 1.87703E-03-3.65353E-05-1.36932E-15
 -1      1057 2.72833E-03 1.56950E-04-2.45420E-15
 -1      1058 1.87712E-03 3.98901E-05-1.30187E-15
 -1      1059 2.92899E-03-4.58717E-05-3.13709E-15
 -1      1060 3.21956E-03-4.61632E-05-3.75456E-15
 -1      1061 3.50967E-03-4.62254E-05-4.42961E-15
 -1      1062 3.79918E-03-4.61410E-05-5.15896E-15
 -1      1063 4.08812E-03-4.59492E-05-5.94320E-15
 -1      1064 4.37648E-03-4.56959E-05-6.78316E-15
 -1      1065 4.66427E-03-4.53963E-05-7.67894E-15
 -1      1066 4.95154E-03-4.50605E-05-8.62890E-15
 -1      1067 5.23828E-03-4.46888E-05-9.63153E-15
 -1      1068 5.52450E-03-4.42734E-05-1.06914E-14
 -1      1069 5.81016E-03-4.37999E-05-1.18047E-14
 -1      1070 6.09517E-03-4.32468E-05-1.29756E-14
 -1      1071 6.37941E-03-4.25851E-05-1.42009E-14
 -1      1072 6.66273E-03-4.17770E-05-1.54792E-14
 -1      1073 6.94490E-03-4.07729E-05-1.68071E-14
 -1      1074 7.22563E-03-3.95082E-05-1.81834E-14
 -1      1075 7.50460E-03-3.78978E-05-1.96055E-14
 -1      1076 7.78139E-03-3.58286E-05-2.10705E-14
 -1      1077 8.05556E-03-3.31507E-05-2.25809E-14
 -1      1078 8.32661E-03-2.96667E-05-2.41381E-14
 -1      1079 8.59399E-03-2.51200E-05-2.57444E-14
 -1      1080 8.85713E-03-1.91849E-05-2.73912E-14
 -1      1081 9.11545E-03-1.15217E-05-2.90719E-14
 -1      1082 9.36841E-03-1.54192E-06-3.07879E-14
 -1      1083 9.61539E-03 1.10277E-05-3.25339E-14
 -1      1084 6.88755E-03 7.79449E-05-1.60683E-14
 -1      1085 5.17978E-03 8.23816E-05-9.07075E-15
 -1      1086 6.32151E-03 7.98475E-05-1.35184E-14
 -1      1087 6.03705E-03 8.06247E-05-1.23222E-14
 -1      1088 7.16864E-03 7.68455E-05-1.74204E-14
 -1      1089 7.44797E-03 7.57136E-05-1.88194E-14
 -1      1090 7.72511E-03 7.46572E-05-2.02623E-14
 -1      1091 7.99950E-03 7.38541E-05-2.17479E-14
 -1      1092 8.27051E-03 7.35722E-05-2.32781E-14
 -1      1093 8.53735E-03 7.41906E-05-2.48552E-14
 -1      1094 8.79909E-03 7.62136E-05-2.64763E-14
 -1      1095 9.05449E-03 8.02095E-05-2.81397E-14
 -1      1096 9.30219E-03 8.70561E-05-2.98371E-14
 -1      1097 9.54002E-03 9.73167E-05-3.15645E-14
 -1      1098 2.34730E-03-4.41747E-05-2.07257E-15
 -1      1099 5.75188E-03 8.12955E-05-1.11841E-14
 -1      1100 6.60508E-03 7.89535E-05-1.47684E-14
 -1      1101 3.30838E-03 1.59827E-04-3.59091E-15
 -1      1102 4.31778E-03 8.35364E-05-6.31364E-15
 -1      1103 5.46610E-03 8.18758E-05-1.01009E-14
 -1      1104 2.63811E-03-4.52471E-05-2.57601E-15
 -1      1105 2.16835E-03 1.47065E-04-1.57307E-15
 -1      1106 4.02939E-03 8.37738E-05-5.50632E-15
 -1      1107 4.89296E-03 8.28255E-05-8.09546E-15
 -1      1108 4.60563E-03 8.32124E-05-7.17703E-15
 -1      1109 2.11963E-03-3.47114E-05-1.70887E-15
 -1      1110 2.44824E-03 1.52826E-04-1.98754E-15
 -1      1111 3.59774E-03 1.60138E-04-4.24531E-15
 -1      1112 3.16080E-03 8.34633E-05-3.41789E-15
 -1      1113 2.87025E-03 8.26780E-05-2.83550E-15
 -1      1114 9.58129E-03 5.52676E-05-3.21503E-14
 -1      1115 3.65441E-03 3.01821E-05-4.64838E-15
 -1      1116 9.34161E-03 4.28225E-05-3.04113E-14
 -1      1117 2.49245E-03 2.88833E-05-2.23051E-15
 -1      1118 2.14187E-03 5.57294E-05-1.64792E-15
 -1      1119 3.45090E-03 8.38231E-05-4.05783E-15
 -1      1120 2.31700E-03 4.27157E-05-1.92775E-15
 -1      1121 0.00000E+00 0.00000E+00 0.00000E+00
 -1      1122 0.00000E+00 0.00000E+00 0.00000E+00
 -1      1123 0.00000E+00 0.00000E+00 0.00000E+00
 -1      1124 0.00000E+00 0.00000E+00 0.00000E+00
 -1      1125 0.00000E+00 0.00000E+00 0.00000E+00
 -1      1126 0.00000E+00 0.00000E+00 0.00000E+00
 -1      1127 0.00000E+00 0.00000E+00 0.00000E+00
 -1      1128 0.00000E+00 0.00000E+00 0.00000E+00
 -1      1129 0.00000E+00 0.00000E+00 0.00000E+00
 -1      1130 0.00000E+00 0.00000E+00 0.00000E+00
 -1      1131 0.00000E+00 0.00000E+00 0.00000E+00
 -1      1132 0.00000E+00 0.00000E+00 0.00000E+00
 -1      1133 0.00000E+00 0.00000E+00 0.00000E+00
 -1      1134 0.00000E+00 0.00000E+00 0.00000E+00
 -1      1135 0.00000E+00 0.00000E+00 0.00000E+00
 -1      1136 0.00000E+00 0.00000E+00 0.00000E+00
 -1      1137 0.00000E+00 0.00000E+00 0.00000E+00
 -1      1138 2.11679E-04-1.48332E-04-3.04932E-18
 -1      1139 5.51678E-04-3.37506E-04-5.73678E-17
 -1      1140 8.33537E-04-4.58994E-04-1.78433E-16
 -1      1141 1.10316E-03-5.40681E-04-3.76909E-16
 -1      1142 1.36863E-03-5.97946E-04-6.47553E-16
 -1      1143 1.63350E-03-6.38683E-04-9.86190E-16
 -1      1144 1.89964E-03-6.67543E-04-1.39056E-15
 -1      1145 2.16788E-03-6.87653E-04-1.86073E-15
 -1      1146 2.43851E-03-7.01302E-04-2.39544E-15
 -1      1147 2.71154E-03-7.10221E-04-2.99379E-15
 -1      1148 2.98680E-03-7.15721E-04-3.65677E-15
 -1      1149 3.26404E-03-7.18792E-04-4.38094E-15
 -1      1150 3.54297E-03-7.20167E-04-5.16559E-15
 -1      1151 3.82333E-03-7.20382E-04-6.00900E-15
 -1      1152 4.10485E-03-7.19812E-04-6.90435E-15
 -1      1153 4.38730E-03-7.18709E-04-7.85117E-15
 -1      1154 4.67049E-03-7.17231E-04-8.84710E-15
 -1      1155 4.95426E-03-7.15459E-04-9.88946E-15
 -1      1156 5.23851E-03-7.13419E-04-1.09813E-14
 -1      1157 5.52316E-03-7.11091E-04-1.21299E-14
 -1      1158 5.80820E-03-7.08429E-04-1.33315E-14
 -1      1159 6.09367E-03-7.05362E-04-1.45908E-14
 -1      1160 6.37966E-03-7.01816E-04-1.59082E-14
 -1      1161 6.66635E-03-6.97724E-04-1.72798E-14
 -1      1162 6.95400E-03-6.93045E-04-1.87070E-14
 -1      1163 7.24294E-03-6.87791E-04-2.01873E-14
 -1      1164 7.53364E-03-6.82062E-04-2.17127E-14
 -1      1165 7.82666E-03-6.76089E-04-2.32750E-14
 -1      1166 8.12266E-03-6.70296E-04-2.48767E-14
 -1      1167 8.42242E-03-6.65372E-04-2.65204E-14
 -1      1168 8.72673E-03-6.62358E-04-2.82079E-14
 -1      1169 9.03632E-03-6.62725E-04-2.99359E-14
 -1      1170 9.35169E-03-6.68445E-04-3.16944E-14
 -1      1171 9.67286E-03-6.81981E-04-3.34813E-14
 -1      1172 9.99898E-03-7.06137E-04-3.52971E-14
 -1      1173 1.03280E-02-7.43641E-04-3.71357E-14
 -1      1174 1.06561E-02-7.96336E-04-3.89962E-14
 -1      1175 1.09777E-02-8.63901E-04-4.08773E-14
 -1      1176 1.12861E-02-9.42265E-04-4.27744E-14
 -1      1177 1.15744E-02-1.02230E-03-4.46874E-14
 -1      1178 1.18381E-02-1.08983E-03-4.66252E-14
 -1      1179 1.20775E-02-1.12798E-03-4.86025E-14
 -1      1180 1.22986E-02-1.12177E-03-5.06026E-14
 -1      1181 1.25117E-02-1.06303E-03-5.26144E-14
 -1      1182 1.27285E-02-9.53013E-04-5.46253E-14
 -1      1183 1.29572E-02-8.00880E-04-5.66302E-14
 -1      1184 1.32019E-02-6.19536E-04-5.86292E-14
 -1      1185 1.34623E-02-4.21581E-04-6.06160E-14
 -1      1186 1.37361E-02-2.17823E-04-6.26040E-14
 -1      1187 1.40121E-02-2.19909E-05-6.45656E-14
 -1      1188 2.28438E-04 1.60710E-04 2.93683E-17
 -1      1189 5.53851E-04 3.42139E-04 7.17877E-17
 -1      1190 8.34467E-04 4.61164E-04 8.49608E-17
 -1      1191 1.10406E-03 5.42369E-04 5.88180E-17
 -1      1192 1.36953E-03 5.99627E-04-1.41759E-17
 -1      1193 1.63446E-03 6.40452E-04-1.37030E-16
 -1      1194 1.90064E-03 6.69419E-04-3.16031E-16
 -1      1195 2.16892E-03 6.89648E-04-5.48064E-16
 -1      1196 2.43959E-03 7.03425E-04-8.38034E-16
 -1      1197 2.71264E-03 7.12476E-04-1.18852E-15
 -1      1198 2.98790E-03 7.18112E-04-1.59860E-15
 -1      1199 3.26515E-03 7.21320E-04-2.06683E-15
 -1      1200 3.54409E-03 7.22834E-04-2.59332E-15
 -1      1201 3.82444E-03 7.23186E-04-3.17594E-15
 -1      1202 4.10596E-03 7.22753E-04-3.81414E-15
 -1      1203 4.38841E-03 7.21788E-04-4.51397E-15
 -1      1204 4.67159E-03 7.20446E-04-5.27501E-15
 -1      1205 4.95535E-03 7.18807E-04-6.09827E-15
 -1      1206 5.23958E-03 7.16894E-04-6.98779E-15
 -1      1207 5.52420E-03 7.14684E-04-7.93441E-15
 -1      1208 5.80920E-03 7.12121E-04-8.93270E-15
 -1      1209 6.09462E-03 7.09125E-04-9.98499E-15
 -1      1210 6.38055E-03 7.05600E-04-1.10971E-14
 -1      1211 6.66717E-03 7.01451E-04-1.22735E-14
 -1      1212 6.95476E-03 6.96591E-04-1.35111E-14
 -1      1213 7.24370E-03 6.90970E-04-1.48016E-14
 -1      1214 7.53452E-03 6.84599E-04-1.61433E-14
 -1      1215 7.82794E-03 6.77598E-04-1.75312E-14
 -1      1216 8.12487E-03 6.70254E-04-1.89659E-14
 -1      1217 8.42649E-03 6.63118E-04-2.04560E-14
 -1      1218 8.73428E-03 6.57137E-04-2.19910E-14
 -1      1219 9.05000E-03 6.53842E-04-2.35716E-14
 -1      1220 9.37565E-03 6.55611E-04-2.51754E-14
 -1      1221 9.71334E-03 6.66004E-04-2.67932E-14
 -1      1222 1.00648E-02 6.90128E-04-2.84463E-14
 -1      1223 1.04306E-02 7.34880E-04-3.01510E-14
 -1      1224 1.08091E-02 8.08645E-04-3.19075E-14
 -1      1225 1.11942E-02 9.19687E-04-3.37014E-14
 -1      1226 1.15743E-02 1.07218E-03-3.55308E-14
 -1      1227 1.19319E-02 1.25955E-03-3.73953E-14
 -1      1228 1.22486E-02 1.45767E-03-3.92906E-14
 -1      1229 1.25144E-02 1.62479E-03-4.12112E-14
 -1      1230 1.27374E-02 1.71516E-03-4.31539E-14
 -1      1231 1.29439E-02 1.70206E-03-4.51232E-14
 -1      1232 1.31631E-02 1.59313E-03-4.71228E-14
 -1      1233 1.34107E-02 1.42166E-03-4.91465E-14
 -1      1234 1.36836E-02 1.22343E-03-5.12019E-14
 -1      1235 1.39687E-02 1.01884E-03-5.32866E-14
 -1      1236 1.42548E-02 8.11230E-04-5.53820E-14
 -1      1237 1.45320E-02 6.02987E-04-5.74251E-14
 -1      1238 1.47736E-02 4.57721E-04-5.86598E-14
 -1      1239 1.49903E-02 3.73122E-04-5.91569E-14
 -1      1240 1.52205E-02 2.95142E-04-5.96564E-14
 -1      1241 1.54666E-02 2.37572E-04-6.01256E-14
 -1      1242 1.57157E-02 2.18564E-04-6.05944E-14
 -1      1243 1.59354E-02 2.52426E-04-6.10551E-14
 -1      1244 1.60796E-02 3.38320E-04-6.15000E-14
 -1      1245 1.61083E-02 4.52449E-04-6.19028E-14
 -1      1246 1.60115E-02 5.58374E-04-6.22963E-14
 -1      1247 1.58128E-02 6.22077E-04-6.26995E-14
 -1      1248 1.55577E-02 6.27805E-04-6.30835E-14
 -1      1249 1.52888E-02 5.79873E-04-6.34400E-14
 -1      1250 1.50378E-02 4.95630E-04-6.38009E-14
 -1      1251 1.48147E-02 3.94938E-04-6.41774E-14
 -1      1252 1.46153E-02 2.93214E-04-6.45606E-14
 -1      1253 1.44280E-02 1.98829E-04-6.49455E-14
 -1      1254 1.42420E-02 1.12918E-04-6.53412E-14
 -1      1255 1.53206E-02 4.76806E-04-5.12752E-14
 -1      1256 1.51802E-02 6.66106E-04-5.08336E-14
 -1      1257 1.49103E-02 8.57895E-04-5.02082E-14
 -1      1258 1.45487E-02 1.04109E-03-4.94501E-14
 -1      1259 1.41245E-02 1.20439E-03-4.85703E-14
 -1      1260 1.36525E-02 1.33129E-03-4.75909E-14
 -1      1261 1.31535E-02 1.39921E-03-4.65573E-14
 -1      1262 1.26621E-02 1.39428E-03-4.55582E-14
 -1      1263 1.21782E-02 1.31400E-03-4.46225E-14
 -1      1264 1.16909E-02 1.16372E-03-4.37557E-14
 -1      1265 1.12617E-02 9.81034E-04-4.30757E-14
 -1      1266 1.09137E-02 7.93730E-04-4.26091E-14
 -1      1267 1.06280E-02 5.98537E-04-4.23059E-14
 -1      1268 1.04413E-02 4.10455E-04-4.21936E-14
 -1      1269 1.03769E-02 2.39570E-04-4.22695E-14
 -1      1270 1.04309E-02 7.22371E-05-4.25594E-14
 -1      1271 1.05955E-02-9.16553E-05-4.30586E-14
 -1      1272 1.08639E-02-2.57521E-04-4.37427E-14
 -1      1273 1.12076E-02-4.14922E-04-4.45573E-14
 -1      1274 1.15813E-02-5.44698E-04-4.54066E-14
 -1      1275 1.19856E-02-6.42694E-04-4.63041E-14
 -1      1276 1.24321E-02-6.98271E-04-4.72695E-14
 -1      1277 1.28876E-02-6.99825E-04-4.82101E-14
 -1      1278 1.33338E-02-6.45119E-04-4.90643E-14
 -1      1279 1.37773E-02-5.41306E-04-4.98282E-14
 -1      1280 1.41994E-02-4.02054E-04-5.04793E-14
 -1      1281 1.45897E-02-2.38751E-04-5.09931E-14
 -1      1282 1.49331E-02-5.81970E-05-5.13379E-14
 -1      1283 1.51870E-02 1.26495E-04-5.14974E-14
 -1      1284 1.53174E-02 2.99552E-04-5.14801E-14
 -1      1285 1.66712E-04-1.10339E-04-1.24683E-17
 -1      1286 1.12549E-04-5.69680E-05-2.05998E-17
 -1      1287 1.17632E-04-6.75775E-05-1.81875E-17
 -1      1288 1.08427E-04-4.34819E-05-2.40015E-17
 -1      1289 1.10292E-04-4.95976E-05-2.32019E-17
 -1      1290 2.26347E-04-1.07612E-04-5.50775E-17
 -1      1291 1.06843E-04-3.36037E-05-2.49095E-17
 -1      1292 1.07690E-04-3.83255E-05-2.47469E-17
 -1      1293 2.19112E-04-8.24421E-05-6.01868E-17
 -1      1294 1.06061E-04-2.53435E-05-2.48960E-17
 -1      1295 1.06493E-04-2.93761E-05-2.50451E-17
 -1      1296 2.15869E-04-6.32626E-05-6.13658E-17
 -1      1297 1.05655E-04-1.80852E-05-2.42048E-17
 -1      1298 1.05886E-04-2.16519E-05-2.45165E-17
 -1      1299 2.14204E-04-4.71737E-05-6.07018E-17
 -1      1300 1.05433E-04-1.12354E-05-2.31748E-17
 -1      1301 1.05557E-04-1.46194E-05-2.35814E-17
 -1      1302 2.13282E-04-3.27434E-05-5.87502E-17
 -1      1303 1.05332E-04-4.68756E-06-2.16976E-17
 -1      1304 1.05385E-04-7.93986E-06-2.21313E-17
 -1      1305 2.12783E-04-1.91843E-05-5.59177E-17
 -1      1306 1.05320E-04 1.74228E-06-2.00713E-17
 -1      1307 1.05318E-04-1.47011E-06-2.05456E-17
 -1      1308 2.12567E-04-6.15859E-06-5.22721E-17
 -1      1309 1.05394E-04 8.22182E-06-1.81739E-17
 -1      1310 1.05336E-04 4.96300E-06-1.86618E-17
 -1      1311 2.12575E-04 6.70613E-06-4.81928E-17
 -1      1312 1.05573E-04 1.49271E-05-1.60462E-17
 -1      1313 1.05444E-04 1.15280E-05-1.66967E-17
 -1      1314 2.12809E-04 1.97579E-05-4.35985E-17
 -1      1315 1.05908E-04 2.19444E-05-1.33086E-17
 -1      1316 1.05672E-04 1.83538E-05-1.41624E-17
 -1      1317 2.13324E-04 3.32567E-05-3.81639E-17
 -1      1318 1.06535E-04 2.98102E-05-9.67650E-18
 -1      1319 1.06094E-04 2.57336E-05-1.08962E-17
 -1      1320 2.14270E-04 4.77820E-05-3.12928E-17
 -1      1321 1.07729E-04 3.89091E-05-5.13641E-18
 -1      1322 1.06876E-04 3.41153E-05-6.85758E-18
 -1      1323 2.15980E-04 6.41936E-05-2.26734E-17
 -1      1324 1.10271E-04 5.03373E-05 1.08420E-18
 -1      1325 1.08432E-04 4.41528E-05-1.50433E-18
 -1      1326 2.19214E-04 8.36922E-05-1.15739E-17
 -1      1327 1.16947E-04 6.76131E-05 9.43256E-18
 -1      1328 1.12196E-04 5.77670E-05 5.55654E-18
 -1      1329 2.26334E-04 1.09431E-04 2.83248E-18
 -1      1330 1.57591E-04 1.09857E-04 2.10877E-17
 -1      1331 1.35673E-04 8.60858E-05 1.48671E-17
 -1      1332 2.56061E-04 1.52081E-04 1.95427E-17
 -1      1333 3.35111E-04 2.20730E-04 4.00748E-17
 -1      1334 4.21574E-04-2.61728E-04-5.54298E-17
 -1      1335 5.74687E-04-3.36783E-04-9.84185E-17
 -1      1336 7.21893E-04-3.97382E-04-1.61790E-16
 -1      1337 8.65080E-04-4.46676E-04-2.43403E-16
 -1      1338 6.12128E-04-3.30870E-04-1.43819E-16
 -1      1339 1.00512E-03-4.87750E-04-3.42892E-16
 -1      1340 1.14299E-03-5.21744E-04-4.60393E-16
 -1      1341 9.05396E-04-4.31566E-04-3.08903E-16
 -1      1342 1.27951E-03-5.50524E-04-5.94726E-16
 -1      1343 1.41518E-03-5.74570E-04-7.46365E-16
 -1      1344 1.18786E-03-5.00996E-04-5.43131E-16
 -1      1345 1.55045E-03-5.94948E-04-9.14836E-16
 -1      1346 1.68557E-03-6.11990E-04-1.09971E-15
 -1      1347 1.46484E-03-5.49787E-04-8.44756E-16
 -1      1348 1.82079E-03-6.26326E-04-1.30050E-15
 -1      1349 1.95621E-03-6.38250E-04-1.51745E-15
 -1      1350 1.73957E-03-5.84121E-04-1.21188E-15
 -1      1351 2.09195E-03-6.48163E-04-1.75044E-15
 -1      1352 2.22807E-03-6.56316E-04-2.00007E-15
 -1      1353 2.01394E-03-6.07983E-04-1.64285E-15
 -1      1354 2.36461E-03-6.62985E-04-2.26544E-15
 -1      1355 2.50159E-03-6.68376E-04-2.54633E-15
 -1      1356 2.28891E-03-6.24190E-04-2.13763E-15
 -1      1357 2.63901E-03-6.72684E-04-2.84332E-15
 -1      1358 2.77688E-03-6.76073E-04-3.15645E-15
 -1      1359 2.56497E-03-6.34821E-04-2.69537E-15
 -1      1360 2.91517E-03-6.78685E-04-3.48459E-15
 -1      1361 3.05388E-03-6.80648E-04-3.82856E-15
 -1      1362 2.84230E-03-6.41433E-04-3.31556E-15
 -1      1363 3.19298E-03-6.82062E-04-4.18784E-15
 -1      1364 3.33245E-03-6.83027E-04-4.56188E-15
 -1      1365 3.12092E-03-6.45195E-04-3.99770E-15
 -1      1366 3.47227E-03-6.83612E-04-4.95094E-15
 -1      1367 3.61240E-03-6.83892E-04-5.35481E-15
 -1      1368 3.40076E-03-6.46972E-04-4.73977E-15
 -1      1369 3.75282E-03-6.83914E-04-5.77279E-15
 -1      1370 3.89351E-03-6.83734E-04-6.20483E-15
 -1      1371 3.68168E-03-6.47398E-04-5.54076E-15
 -1      1372 4.03445E-03-6.83380E-04-6.64930E-15
 -1      1373 4.17560E-03-6.82892E-04-7.10704E-15
 -1      1374 3.96355E-03-6.46922E-04-6.39698E-15
 -1      1375 4.31695E-03-6.82286E-04-7.57838E-15
 -1      1376 4.45848E-03-6.81588E-04-8.06135E-15
 -1      1377 4.24621E-03-6.45848E-04-7.30774E-15
 -1      1378 4.60016E-03-6.80806E-04-8.55589E-15
 -1      1379 4.74200E-03-6.79955E-04-9.06281E-15
 -1      1380 4.52953E-03-6.44373E-04-8.26798E-15
 -1      1381 4.88396E-03-6.79035E-04-9.58141E-15
 -1      1382 5.02604E-03-6.78054E-04-1.01120E-14
 -1      1383 4.81340E-03-6.42603E-04-9.27547E-15
 -1      1384 5.16823E-03-6.77005E-04-1.06569E-14
 -1      1385 5.31052E-03-6.75892E-04-1.12148E-14
 -1      1386 5.09773E-03-6.40582E-04-1.03341E-14
 -1      1387 5.45292E-03-6.74702E-04-1.17855E-14
 -1      1388 5.59541E-03-6.73436E-04-1.23703E-14
 -1      1389 5.38247E-03-6.38302E-04-1.14439E-14
 -1      1390 5.73801E-03-6.72078E-04-1.29689E-14
 -1      1391 5.88071E-03-6.70626E-04-1.35817E-14
 -1      1392 5.66760E-03-6.35716E-04-1.26090E-14
 -1      1393 6.02353E-03-6.69062E-04-1.42087E-14
 -1      1394 6.16647E-03-6.67383E-04-1.48501E-14
 -1      1395 5.95313E-03-6.32751E-04-1.38294E-14
 -1      1396 6.30956E-03-6.65571E-04-1.55055E-14
 -1      1397 6.45281E-03-6.63624E-04-1.61750E-14
 -1      1398 6.23915E-03-6.29321E-04-1.51064E-14
 -1      1399 6.59624E-03-6.61525E-04-1.68585E-14
 -1      1400 6.73990E-03-6.59277E-04-1.75555E-14
 -1      1401 6.52576E-03-6.25336E-04-1.64396E-14
 -1      1402 6.88380E-03-6.56864E-04-1.82662E-14
 -1      1403 7.02799E-03-6.54300E-04-1.89901E-14
 -1      1404 6.81314E-03-6.20720E-04-1.78288E-14
 -1      1405 7.17252E-03-6.51574E-04-1.97275E-14
 -1      1406 7.31743E-03-6.48712E-04-2.04755E-14
 -1      1407 7.10154E-03-6.15435E-04-1.92700E-14
 -1      1408 7.46279E-03-6.45715E-04-2.12339E-14
 -1      1409 7.60865E-03-6.42627E-04-2.20030E-14
 -1      1410 7.39126E-03-6.09507E-04-2.07596E-14
 -1      1411 7.75507E-03-6.39466E-04-2.27810E-14
 -1      1412 7.90214E-03-6.36304E-04-2.35710E-14
 -1      1413 7.68271E-03-6.03072E-04-2.22912E-14
 -1      1414 8.04994E-03-6.33187E-04-2.43692E-14
 -1      1415 8.19853E-03-6.30217E-04-2.51774E-14
 -1      1416 7.97635E-03-5.96425E-04-2.38628E-14
 -1      1417 8.34801E-03-6.27482E-04-2.59971E-14
 -1      1418 8.49845E-03-6.25126E-04-2.68274E-14
 -1      1419 8.27268E-03-5.90093E-04-2.54759E-14
 -1      1420 8.64994E-03-6.23293E-04-2.76690E-14
 -1      1421 8.80254E-03-6.22174E-04-2.85209E-14
 -1      1422 8.57228E-03-5.84922E-04-2.71325E-14
 -1      1423 8.95633E-03-6.21988E-04-2.93826E-14
 -1      1424 9.11135E-03-6.22975E-04-3.02508E-14
 -1      1425 8.87564E-03-5.82170E-04-2.88311E-14
 -1      1426 9.26761E-03-6.25442E-04-3.11271E-14
 -1      1427 9.42512E-03-6.29672E-04-3.20105E-14
 -1      1428 9.18317E-03-5.83602E-04-3.05630E-14
 -1      1429 9.58383E-03-6.36065E-04-3.29013E-14
 -1      1430 9.74363E-03-6.44920E-04-3.37997E-14
 -1      1431 9.49501E-03-5.91538E-04-3.23249E-14
 -1      1432 9.90438E-03-6.56709E-04-3.47051E-14
 -1      1433 1.00659E-02-6.71691E-04-3.56172E-14
 -1      1434 9.81085E-03-6.08817E-04-3.41156E-14
 -1      1435 1.02278E-02-6.90336E-04-3.65340E-14
 -1      1436 1.03897E-02-7.12772E-04-3.74553E-14
 -1      1437 1.01297E-02-6.38540E-04-3.59333E-14
 -1      1438 1.05512E-02-7.39319E-04-3.83842E-14
 -1      1439 1.07117E-02-7.69829E-04-3.93198E-14
 -1      1440 1.04498E-02-6.83479E-04-3.77763E-14
 -1      1441 1.08706E-02-8.04243E-04-4.02586E-14
 -1      1442 1.10273E-02-8.41966E-04-4.12023E-14
 -1      1443 1.07681E-02-7.44996E-04-3.96400E-14
 -1      1444 1.11810E-02-8.82292E-04-4.21480E-14
 -1      1445 1.13310E-02-9.24028E-04-4.30969E-14
 -1      1446 1.10808E-02-8.21456E-04-4.15226E-14
 -1      1447 1.14769E-02-9.65655E-04-4.40529E-14
 -1      1448 1.16181E-02-1.00537E-03-4.50145E-14
 -1      1449 1.13837E-02-9.06465E-04-4.34200E-14
 -1      1450 1.17545E-02-1.04097E-03-4.59829E-14
 -1      1451 1.18859E-02-1.07032E-03-4.69592E-14
 -1      1452 1.16729E-02-9.87811E-04-4.53384E-14
 -1      1453 1.20128E-02-1.09102E-03-4.79445E-14
 -1      1454 1.21357E-02-1.10119E-03-4.89368E-14
 -1      1455 1.19468E-02-1.04844E-03-4.72902E-14
 -1      1456 1.22554E-02-1.09906E-03-4.99334E-14
 -1      1457 1.23730E-02-1.08359E-03-5.09341E-14
 -1      1458 1.22068E-02-1.07029E-03-4.92677E-14
 -1      1459 1.24894E-02-1.05432E-03-5.19364E-14
 -1      1460 1.26058E-02-1.01138E-03-5.29415E-14
 -1      1461 1.24580E-02-1.04008E-03-5.12632E-14
 -1      1462 1.27232E-02-9.55688E-04-5.39461E-14
 -1      1463 1.28423E-02-8.88386E-04-5.49476E-14
 -1      1464 1.27071E-02-9.54068E-04-5.32670E-14
 -1      1465 1.29639E-02-8.11210E-04-5.59497E-14
 -1      1466 1.30883E-02-7.25784E-04-5.69485E-14
 -1      1467 1.29600E-02-8.18691E-04-5.52701E-14
 -1      1468 1.32155E-02-6.33953E-04-5.79477E-14
 -1      1469 1.33457E-02-5.37289E-04-5.89464E-14
 -1      1470 1.32203E-02-6.46822E-04-5.72708E-14
 -1      1471 1.34786E-02-4.37302E-04-5.99427E-14
 -1      1472 1.36141E-02-3.35319E-04-6.09357E-14
 -1      1473 1.34887E-02-4.52535E-04-5.92659E-14
 -1      1474 1.37518E-02-2.32512E-04-6.19335E-14
 -1      1475 1.38915E-02-1.30220E-04-6.29347E-14
 -1      1476 1.37641E-02-2.47749E-04-6.12595E-14
 -1      1477 1.41065E-02 1.96527E-05-6.43742E-14
 -1      1478 1.41185E-02 7.42844E-06-6.36986E-14
 -1      1479 6.43137E-04 3.71997E-04 6.09999E-17
 -1      1480 4.92994E-04 3.03678E-04 5.42643E-17
 -1      1481 4.44922E-04 2.65879E-04 3.89906E-17
 -1      1482 9.28760E-04 4.71959E-04 4.76371E-17
 -1      1483 7.87877E-04 4.26468E-04 5.90890E-17
 -1      1484 7.44815E-04 3.90694E-04 3.60904E-17
 -1      1485 1.20369E-03 5.41387E-04-8.22638E-18
 -1      1486 1.06701E-03 5.09703E-04 2.55465E-17
 -1      1487 1.03090E-03 4.76135E-04-4.94667E-18
 -1      1488 1.47429E-03 5.90601E-04-1.11700E-16
 -1      1489 1.33921E-03 5.68132E-04-5.37900E-17
 -1      1490 1.30885E-03 5.35971E-04-9.04767E-17
 -1      1491 1.74388E-03 6.25526E-04-2.67717E-16
 -1      1492 1.60904E-03 6.09608E-04-1.82607E-16
 -1      1493 1.58313E-03 5.78280E-04-2.25229E-16
 -1      1494 2.01414E-03 6.50032E-04-4.78079E-16
 -1      1495 1.87884E-03 6.38909E-04-3.66040E-16
 -1      1496 1.85634E-03 6.08043E-04-4.13596E-16
 -1      1497 2.28589E-03 6.66870E-04-7.44034E-16
 -1      1498 2.14979E-03 6.59278E-04-6.04212E-16
 -1      1499 2.12991E-03 6.28645E-04-6.56688E-16
 -1      1500 2.55944E-03 6.78087E-04-1.06881E-15
 -1      1501 2.42243E-03 6.73080E-04-8.98709E-16
 -1      1502 2.40453E-03 6.42540E-04-9.56524E-16
 -1      1503 2.83484E-03 6.85227E-04-1.45255E-15
 -1      1504 2.69691E-03 6.82089E-04-1.25318E-15
 -1      1505 2.68050E-03 6.51558E-04-1.31468E-15
 -1      1506 3.11200E-03 6.89455E-04-1.89535E-15
 -1      1507 2.97321E-03 6.87647E-04-1.66676E-15
 -1      1508 2.95791E-03 6.57076E-04-1.73151E-15
 -1      1509 3.39073E-03 6.91643E-04-2.39548E-15
 -1      1510 3.25118E-03 6.90761E-04-2.13799E-15
 -1      1511 3.23670E-03 6.60127E-04-2.20636E-15
 -1      1512 3.67083E-03 6.92427E-04-2.95353E-15
 -1      1513 3.53062E-03 6.92179E-04-2.66697E-15
 -1      1514 3.51674E-03 6.61471E-04-2.73853E-15
 -1      1515 3.95209E-03 6.92264E-04-3.56723E-15
 -1      1516 3.81133E-03 6.92442E-04-3.25334E-15
 -1      1517 3.79787E-03 6.61660E-04-3.32773E-15
 -1      1518 4.23429E-03 6.91467E-04-4.23970E-15
 -1      1519 4.09308E-03 6.91930E-04-3.89586E-15
 -1      1520 4.07992E-03 6.61080E-04-3.97448E-15
 -1      1521 4.51727E-03 6.90238E-04-4.97356E-15
 -1      1522 4.37570E-03 6.90898E-04-4.59933E-15
 -1      1523 4.36276E-03 6.59988E-04-4.68149E-15
 -1      1524 4.80086E-03 6.88693E-04-5.76907E-15
 -1      1525 4.65900E-03 6.89501E-04-5.36348E-15
 -1      1526 4.64622E-03 6.58542E-04-5.44881E-15
 -1      1527 5.08497E-03 6.86879E-04-6.62674E-15
 -1      1528 4.94286E-03 6.87819E-04-6.19025E-15
 -1      1529 4.93022E-03 6.56820E-04-6.27788E-15
 -1      1530 5.36949E-03 6.84793E-04-7.54672E-15
 -1      1531 5.22718E-03 6.85872E-04-7.07962E-15
 -1      1532 5.21465E-03 6.54841E-04-7.16949E-15
 -1      1533 5.65441E-03 6.82391E-04-8.52237E-15
 -1      1534 5.51191E-03 6.83635E-04-8.02789E-15
 -1      1535 5.49949E-03 6.52577E-04-8.11871E-15
 -1      1536 5.93974E-03 6.79597E-04-9.54995E-15
 -1      1537 5.79703E-03 6.81047E-04-9.02867E-15
 -1      1538 5.78471E-03 6.49965E-04-9.12349E-15
 -1      1539 6.22554E-03 6.76317E-04-1.06373E-14
 -1      1540 6.08258E-03 6.78022E-04-1.00864E-14
 -1      1541 6.07037E-03 6.46913E-04-1.01842E-14
 -1      1542 6.51195E-03 6.72447E-04-1.17817E-14
 -1      1543 6.36866E-03 6.74459E-04-1.12019E-14
 -1      1544 6.35656E-03 6.43315E-04-1.13032E-14
 -1      1545 6.79918E-03 6.67882E-04-1.29898E-14
 -1      1546 6.65545E-03 6.70251E-04-1.23781E-14
 -1      1547 6.64343E-03 6.39057E-04-1.24802E-14
 -1      1548 7.08753E-03 6.62540E-04-1.42541E-14
 -1      1549 6.94319E-03 6.65304E-04-1.36158E-14
 -1      1550 6.93122E-03 6.34031E-04-1.37165E-14
 -1      1551 7.37742E-03 6.56378E-04-1.55700E-14
 -1      1552 7.23225E-03 6.59549E-04-1.49047E-14
 -1      1553 7.22026E-03 6.28159E-04-1.50068E-14
 -1      1554 7.66941E-03 6.49432E-04-1.69358E-14
 -1      1555 7.52311E-03 6.52980E-04-1.62476E-14
 -1      1556 7.51098E-03 6.21414E-04-1.63490E-14
 -1      1557 7.96424E-03 6.41868E-04-1.83470E-14
 -1      1558 7.81642E-03 6.45688E-04-1.76360E-14
 -1      1559 7.80395E-03 6.13867E-04-1.77389E-14
 -1      1560 8.26284E-03 6.34055E-04-1.98118E-14
 -1      1561 8.11301E-03 6.37930E-04-1.90720E-14
 -1      1562 8.09990E-03 6.05744E-04-1.91766E-14
 -1      1563 8.56637E-03 6.26676E-04-2.13209E-14
 -1      1564 8.41391E-03 6.30216E-04-2.05606E-14
 -1      1565 8.39973E-03 5.97518E-04-2.06637E-14
 -1      1566 8.87621E-03 6.20886E-04-2.28790E-14
 -1      1567 8.72041E-03 6.23441E-04-2.20949E-14
 -1      1568 8.70454E-03 5.90040E-04-2.21967E-14
 -1      1569 9.19399E-03 6.18536E-04-2.44716E-14
 -1      1570 9.03400E-03 6.19079E-04-2.36710E-14
 -1      1571 9.01558E-03 5.84728E-04-2.37719E-14
 -1      1572 9.52139E-03 6.22483E-04-2.60851E-14
 -1      1573 9.35637E-03 6.19444E-04-2.52767E-14
 -1      1574 9.33424E-03 5.83835E-04-2.53762E-14
 -1      1575 9.85996E-03 6.36960E-04-2.77274E-14
 -1      1576 9.68918E-03 6.28041E-04-2.69019E-14
 -1      1577 9.66187E-03 5.90803E-04-2.70078E-14
 -1      1578 1.02106E-02 6.67954E-04-2.94068E-14
 -1      1579 1.00337E-02 6.49951E-04-2.85608E-14
 -1      1580 9.99956E-03 6.10672E-04-2.86717E-14
 -1      1581 1.05729E-02 7.23321E-04-3.11381E-14
 -1      1582 1.03904E-02 6.92126E-04-3.02661E-14
 -1      1583 1.03476E-02 6.50409E-04-3.03781E-14
 -1      1584 1.09437E-02 8.12088E-04-3.29089E-14
 -1      1585 1.07575E-02 7.63183E-04-3.20189E-14
 -1      1586 1.07050E-02 7.18787E-04-3.21281E-14
 -1      1587 1.13162E-02 9.41945E-04-3.47191E-14
 -1      1588 1.11303E-02 8.71927E-04-3.38097E-14
 -1      1589 1.10682E-02 8.25039E-04-3.39160E-14
 -1      1590 1.16792E-02 1.11391E-03-3.65628E-14
 -1      1591 1.14998E-02 1.02350E-03-3.56366E-14
 -1      1592 1.14309E-02 9.75154E-04-3.57399E-14
 -1      1593 1.20190E-02 1.31452E-03-3.84392E-14
 -1      1594 1.18530E-02 1.21260E-03-3.74967E-14
 -1      1595 1.17833E-02 1.16505E-03-3.75975E-14
 -1      1596 1.23238E-02 1.51021E-03-4.03452E-14
 -1      1597 1.21763E-02 1.41587E-03-3.93887E-14
 -1      1598 1.21146E-02 1.37243E-03-3.94868E-14
 -1      1599 1.25915E-02 1.65267E-03-4.22779E-14
 -1      1600 1.24618E-02 1.59086E-03-4.13093E-14
 -1      1601 1.24174E-02 1.55449E-03-4.14050E-14
 -1      1602 1.28344E-02 1.69953E-03-4.42315E-14
 -1      1603 1.27147E-02 1.68923E-03-4.32524E-14
 -1      1604 1.26940E-02 1.66053E-03-4.33487E-14
 -1      1605 1.30738E-02 1.63840E-03-4.62161E-14
 -1      1606 1.29531E-02 1.68124E-03-4.52201E-14
 -1      1607 1.29578E-02 1.65776E-03-4.53171E-14
 -1      1608 1.33272E-02 1.49282E-03-4.82294E-14
 -1      1609 1.31981E-02 1.57360E-03-4.72190E-14
 -1      1610 1.32253E-02 1.55185E-03-4.73143E-14
 -1      1611 1.35997E-02 1.30259E-03-5.02628E-14
 -1      1612 1.34613E-02 1.40101E-03-4.92428E-14
 -1      1613 1.35053E-02 1.37874E-03-4.93349E-14
 -1      1614 1.38853E-02 1.09900E-03-5.23318E-14
 -1      1615 1.37415E-02 1.20143E-03-5.12932E-14
 -1      1616 1.37963E-02 1.17841E-03-5.13852E-14
 -1      1617 1.41745E-02 8.93627E-04-5.44203E-14
 -1      1618 1.40300E-02 9.96570E-04-5.33743E-14
 -1      1619 1.40910E-02 9.73748E-04-5.34620E-14
 -1      1620 1.44618E-02 6.83922E-04-5.65153E-14
 -1      1621 1.43185E-02 7.89687E-04-5.54683E-14
 -1      1622 1.43830E-02 7.67925E-04-5.55541E-14
 -1      1623 1.46379E-02 5.60990E-04-5.76680E-14
 -1      1624 1.49227E-02 4.49888E-04-5.83717E-14
 -1      1625 1.48114E-02 4.89709E-04-5.81251E-14
 -1      1626 1.51587E-02 3.78294E-04-5.88612E-14
 -1      1627 1.50383E-02 4.12312E-04-5.86171E-14
 -1      1628 1.48564E-02 5.23840E-04-5.75854E-14
 -1      1629 1.54115E-02 3.26988E-04-5.93317E-14
 -1      1630 1.52836E-02 3.49276E-04-5.90974E-14
 -1      1631 1.50988E-02 4.52763E-04-5.80673E-14
 -1      1632 1.56635E-02 3.08294E-04-5.97997E-14
 -1      1633 1.55394E-02 3.12848E-04-5.95686E-14
 -1      1634 1.53574E-02 3.99083E-04-5.85417E-14
 -1      1635 1.58763E-02 3.29746E-04-6.02556E-14
 -1      1636 1.57777E-02 3.13939E-04-6.00276E-14
 -1      1637 1.56096E-02 3.72477E-04-5.90048E-14
 -1      1638 1.59998E-02 3.86265E-04-6.06930E-14
 -1      1639 1.59520E-02 3.54605E-04-6.04776E-14
 -1      1640 1.58109E-02 3.78063E-04-5.94549E-14
 -1      1641 1.59973E-02 4.56320E-04-6.10939E-14
 -1      1642 1.60150E-02 4.21228E-04-6.08958E-14
 -1      1643 1.59086E-02 4.09198E-04-5.98832E-14
 -1      1644 1.58658E-02 5.14412E-04-6.14980E-14
 -1      1645 1.59465E-02 4.88755E-04-6.12968E-14
 -1      1646 1.58721E-02 4.47079E-04-6.02950E-14
 -1      1647 1.56426E-02 5.36596E-04-6.18936E-14
 -1      1648 1.57629E-02 5.30685E-04-6.16969E-14
 -1      1649 1.57089E-02 4.68686E-04-6.06977E-14
 -1      1650 1.53714E-02 5.15647E-04-6.22727E-14
 -1      1651 1.55096E-02 5.31475E-04-6.20877E-14
 -1      1652 1.54615E-02 4.58777E-04-6.10906E-14
 -1      1653 1.51001E-02 4.56718E-04-6.26396E-14
 -1      1654 1.52337E-02 4.90152E-04-6.24565E-14
 -1      1655 1.51812E-02 4.14602E-04-6.14723E-14
 -1      1656 1.48535E-02 3.73054E-04-6.30148E-14
 -1      1657 1.49729E-02 4.17049E-04-6.28264E-14
 -1      1658 1.49111E-02 3.43691E-04-6.18489E-14
 -1      1659 1.46369E-02 2.78371E-04-6.33953E-14
 -1      1660 1.47416E-02 3.26326E-04-6.32043E-14
 -1      1661 1.46709E-02 2.56987E-04-6.22301E-14
 -1      1662 1.44427E-02 1.82916E-04-6.37812E-14
 -1      1663 1.45377E-02 2.30248E-04-6.35896E-14
 -1      1664 1.44611E-02 1.64191E-04-6.26149E-14
 -1      1665 1.42342E-02 7.16759E-05-6.38372E-14
 -1      1666 1.43263E-02 1.16509E-04-6.36406E-14
 -1      1667 1.42477E-02 5.09844E-05-6.26711E-14
 -1      1668 1.40183E-02-8.01761E-05-6.23972E-14
 -1      1669 1.53146E-02 4.76163E-04-5.15982E-14
 -1      1670 1.53533E-02 4.18889E-04-5.17639E-14
 -1      1671 1.51030E-02 6.10823E-04-5.11147E-14
 -1      1672 1.52204E-02 5.43376E-04-5.13873E-14
 -1      1673 1.47602E-02 7.99124E-04-5.03382E-14
 -1      1674 1.49332E-02 7.12258E-04-5.06923E-14
 -1      1675 1.43527E-02 1.00459E-03-4.94634E-14
 -1      1676 1.45471E-02 9.10941E-04-4.98693E-14
 -1      1677 1.39066E-02 1.20651E-03-4.84755E-14
 -1      1678 1.41164E-02 1.11438E-03-4.89485E-14
 -1      1679 1.34505E-02 1.37018E-03-4.74042E-14
 -1      1680 1.36563E-02 1.30118E-03-4.79061E-14
 -1      1681 1.30044E-02 1.45618E-03-4.62655E-14
 -1      1682 1.32058E-02 1.42903E-03-4.67904E-14
 -1      1683 1.25887E-02 1.42915E-03-4.52198E-14
 -1      1684 1.27767E-02 1.45283E-03-4.56874E-14
 -1      1685 1.21585E-02 1.30139E-03-4.42035E-14
 -1      1686 1.23618E-02 1.37448E-03-4.46629E-14
 -1      1687 1.17185E-02 1.08219E-03-4.32386E-14
 -1      1688 1.19278E-02 1.19127E-03-4.36387E-14
 -1      1689 1.12749E-02 8.64050E-04-4.26371E-14
 -1      1690 1.14594E-02 9.66061E-04-4.29149E-14
 -1      1691 1.09091E-02 6.58797E-04-4.21734E-14
 -1      1692 1.10715E-02 7.50532E-04-4.23629E-14
 -1      1693 1.05991E-02 4.59571E-04-4.18100E-14
 -1      1694 1.07378E-02 5.40908E-04-4.19177E-14
 -1      1695 1.04058E-02 3.27873E-04-4.18226E-14
 -1      1696 1.04744E-02 3.88630E-04-4.18261E-14
 -1      1697 1.03605E-02 2.09173E-04-4.19638E-14
 -1      1698 1.03637E-02 2.62257E-04-4.18734E-14
 -1      1699 1.04596E-02 9.13332E-05-4.23204E-14
 -1      1700 1.03954E-02 1.47260E-04-4.21150E-14
 -1      1701 1.06807E-02-4.74643E-05-4.29172E-14
 -1      1702 1.05657E-02 1.72193E-05-4.26310E-14
 -1      1703 1.10288E-02-2.00259E-04-4.36358E-14
 -1      1704 1.08597E-02-1.16775E-04-4.32456E-14
 -1      1705 1.13891E-02-3.94919E-04-4.45852E-14
 -1      1706 1.12162E-02-3.14329E-04-4.41757E-14
 -1      1707 1.17687E-02-5.56573E-04-4.55097E-14
 -1      1708 1.15935E-02-4.84318E-04-4.50785E-14
 -1      1709 1.21522E-02-6.83780E-04-4.64894E-14
 -1      1710 1.19748E-02-6.30629E-04-4.60312E-14
 -1      1711 1.25602E-02-7.55521E-04-4.75561E-14
 -1      1712 1.23729E-02-7.32595E-04-4.70574E-14
 -1      1713 1.29494E-02-7.36558E-04-4.85357E-14
 -1      1714 1.27741E-02-7.53571E-04-4.80995E-14
 -1      1715 1.33508E-02-6.41377E-04-4.94488E-14
 -1      1716 1.31619E-02-6.95147E-04-4.90352E-14
 -1      1717 1.37623E-02-4.86604E-04-5.02490E-14
 -1      1718 1.35721E-02-5.64008E-04-4.98984E-14
 -1      1719 1.41808E-02-2.97625E-04-5.09258E-14
 -1      1720 1.39870E-02-3.88020E-04-5.06280E-14
 -1      1721 1.45873E-02-1.02209E-04-5.14469E-14
 -1      1722 1.44026E-02-1.91973E-04-5.12296E-14
 -1      1723 1.49616E-02 8.33365E-05-5.17825E-14
 -1      1724 1.47951E-02-6.75189E-07-5.16514E-14
 -1      1725 1.52274E-02 2.39273E-04-5.19481E-14
 -1      1726 1.51203E-02 1.75174E-04-5.19119E-14
 -1      1727 1.53494E-02 3.55852E-04-5.18596E-14
 -1      1728 1.53117E-02 3.03827E-04-5.19089E-14
 -1      1729 1.41622E-02 1.01549E-03-4.93811E-14
 -1      1730 1.46033E-02 7.89805E-04-5.03699E-14
 -1      1731 1.47041E-02 5.40016E-04-5.77555E-14
 -1      1732 1.46340E-02 6.12585E-04-5.69709E-14
 -1      1733 1.52704E-02 4.73474E-04-5.19024E-14
 -1      1734 1.49948E-02 5.96922E-04-5.12670E-14
 -1      1735 1.53639E-02 3.91061E-04-5.22104E-14
 -1      1736 1.37088E-02 1.23872E-03-4.82938E-14
 -1      1737 1.32763E-02 1.41437E-03-4.71101E-14
 -1      1738 1.28881E-02 1.48388E-03-4.59182E-14
 -1      1739 1.25031E-02 1.42407E-03-4.47831E-14
 -1      1740 1.21044E-02 1.24446E-03-4.36625E-14
 -1      1741 1.16740E-02 9.93359E-04-4.27775E-14
 -1      1742 1.12348E-02 7.51991E-04-4.21805E-14
 -1      1743 1.08562E-02 5.31074E-04-4.16517E-14
 -1      1744 1.05488E-02 3.75472E-04-4.14148E-14
 -1      1745 1.03767E-02 2.73888E-04-4.14872E-14
 -1      1746 1.03687E-02 1.89878E-04-4.16942E-14
 -1      1747 1.05167E-02 9.69313E-05-4.21578E-14
 -1      1748 1.08049E-02-2.82262E-05-4.27928E-14
 -1      1749 1.11704E-02-2.03046E-04-4.36534E-14
 -1      1750 1.15533E-02-4.09807E-04-4.46822E-14
 -1      1751 1.19294E-02-5.89630E-04-4.56935E-14
 -1      1752 1.23028E-02-7.27519E-04-4.67803E-14
 -1      1753 1.26581E-02-7.83149E-04-4.78886E-14
 -1      1754 1.30190E-02-7.36522E-04-4.89319E-14
 -1      1755 1.33938E-02-6.02947E-04-4.98829E-14
 -1      1756 1.37968E-02-4.08412E-04-5.07129E-14
 -1      1757 1.42201E-02-1.90434E-04-5.13988E-14
 -1      1758 1.46446E-02 1.78359E-05-5.19126E-14
 -1      1759 1.50191E-02 1.91873E-04-5.22523E-14
 -1      1760 1.52714E-02 3.08252E-04-5.23467E-14
 -1      1761 2.85265E-04-1.76221E-04-4.43032E-17
 -1      1762 3.32180E-04-1.16747E-04-9.29839E-17
 -1      1763 3.36336E-04-1.32995E-04-9.12763E-17
 -1      1764 3.42233E-04-1.51983E-04-8.79695E-17
 -1      1765 3.51790E-04-1.73988E-04-8.24400E-17
 -1      1766 4.58355E-04-1.88057E-04-1.33154E-16
 -1      1767 3.24545E-04-6.53589E-05-9.21572E-17
 -1      1768 3.25696E-04-7.66462E-05-9.33634E-17
 -1      1769 3.23055E-04-4.38716E-05-8.87013E-17
 -1      1770 3.23708E-04-5.43575E-05-9.05715E-17
 -1      1771 4.36483E-04-7.92679E-05-1.34577E-16
 -1      1772 3.22269E-04-2.37611E-05-8.40528E-17
 -1      1773 3.22601E-04-3.36704E-05-8.66142E-17
 -1      1774 4.34487E-04-5.12986E-05-1.29115E-16
 -1      1775 3.21974E-04-4.33535E-06-7.85640E-17
 -1      1776 3.22071E-04-1.39832E-05-8.15185E-17
 -1      1777 4.33464E-04-2.49137E-05-1.22379E-16
 -1      1778 3.22097E-04 1.49735E-05-7.22621E-17
 -1      1779 3.21983E-04 5.31561E-06-7.56231E-17
 -1      1780 4.33166E-04 7.56729E-07-1.14207E-16
 -1      1781 3.22665E-04 3.47138E-05-6.51199E-17
 -1      1782 3.22312E-04 2.47721E-05-6.88739E-17
 -1      1783 4.33523E-04 2.64557E-05-1.04991E-16
 -1      1784 3.23797E-04 5.51435E-05-5.63243E-17
 -1      1785 3.23132E-04 4.47845E-05-6.09186E-17
 -1      1786 4.34602E-04 5.27007E-05-9.40410E-17
 -1      1787 3.25859E-04 7.77885E-05-4.56449E-17
 -1      1788 3.24658E-04 6.62104E-05-5.15403E-17
 -1      1789 4.36662E-04 8.05713E-05-8.12745E-17
 -1      1790 3.29554E-04 1.03623E-04-3.21601E-17
 -1      1791 3.27402E-04 9.02740E-05-3.94650E-17
 -1      1792 4.40317E-04 1.11534E-04-6.55536E-17
 -1      1793 3.36595E-04 1.35081E-04-1.46232E-17
 -1      1794 3.32409E-04 1.18582E-04-2.42048E-17
 -1      1795 4.46797E-04 1.47299E-04-4.56991E-17
 -1      1796 3.52327E-04 1.77578E-04 8.03665E-18
 -1      1797 3.42829E-04 1.54731E-04-4.30970E-18
 -1      1798 4.59341E-04 1.91421E-04-2.03694E-17
 -1      1799 4.07733E-04 2.33664E-04 2.77149E-17
 -1      1800 3.78120E-04 2.02638E-04 1.62224E-17
 -1      1801 4.95893E-04 2.43964E-04 4.28260E-18
 -1      1802 5.58596E-04 3.02476E-04 2.77149E-17
 -1      1803 3.40051E-04-1.90891E-04-6.66784E-17
 -1      1804 8.53649E-04 4.07080E-04 1.27394E-18
 -1      1805 7.07228E-04 3.59343E-04 1.93801E-17
 -1      1806 6.73458E-04 3.28774E-04 4.28260E-18
 -1      1807 4.58992E-04-2.36691E-04-1.09260E-16
 -1      1808 8.07303E-04-3.74074E-04-2.74642E-16
 -1      1809 9.52586E-04-4.15256E-04-3.75188E-16
 -1      1810 1.09544E-03-4.49946E-04-4.92187E-16
 -1      1811 1.23713E-03-4.78844E-04-6.25856E-16
 -1      1812 1.00401E-03-3.97869E-04-4.42246E-16
 -1      1813 1.37755E-03-5.03332E-04-7.75950E-16
 -1      1814 1.51726E-03-5.23710E-04-9.42456E-16
 -1      1815 1.28972E-03-4.55839E-04-7.08770E-16
 -1      1816 1.65645E-03-5.40898E-04-1.12474E-15
 -1      1817 1.79531E-03-5.55134E-04-1.32297E-15
 -1      1818 1.57216E-03-4.96796E-04-1.03947E-15
 -1      1819 1.93405E-03-5.67027E-04-1.53702E-15
 -1      1820 2.07273E-03-5.76781E-04-1.76652E-15
 -1      1821 1.85282E-03-5.25362E-04-1.43308E-15
 -1      1822 2.21151E-03-5.84814E-04-2.01213E-15
 -1      1823 2.35037E-03-5.91298E-04-2.27325E-15
 -1      1824 2.13275E-03-5.44879E-04-1.88932E-15
 -1      1825 2.48944E-03-5.96529E-04-2.54998E-15
 -1      1826 2.62868E-03-6.00648E-04-2.84213E-15
 -1      1827 2.41266E-03-5.57803E-04-2.40715E-15
 -1      1828 2.76817E-03-6.03868E-04-3.14974E-15
 -1      1829 2.90786E-03-6.06301E-04-3.47228E-15
 -1      1830 2.69292E-03-5.65971E-04-2.98657E-15
 -1      1831 3.04782E-03-6.08101E-04-3.81085E-15
 -1      1832 3.18798E-03-6.09355E-04-4.16411E-15
 -1      1833 2.97375E-03-5.70757E-04-3.62721E-15
 -1      1834 3.32840E-03-6.10172E-04-4.53184E-15
 -1      1835 3.46902E-03-6.10618E-04-4.91451E-15
 -1      1836 3.25524E-03-5.73183E-04-4.32762E-15
 -1      1837 3.60986E-03-6.10768E-04-5.31231E-15
 -1      1838 3.75089E-03-6.10674E-04-5.72380E-15
 -1      1839 3.53738E-03-5.73999E-04-5.08706E-15
 -1      1840 3.89211E-03-6.10383E-04-6.14858E-15
 -1      1841 4.03349E-03-6.09933E-04-6.58738E-15
 -1      1842 3.82013E-03-5.73742E-04-5.90356E-15
 -1      1843 4.17504E-03-6.09354E-04-7.03974E-15
 -1      1844 4.31673E-03-6.08670E-04-7.50536E-15
 -1      1845 4.10344E-03-5.72783E-04-6.77507E-15
 -1      1846 4.45855E-03-6.07897E-04-7.98257E-15
 -1      1847 4.60050E-03-6.07052E-04-8.47120E-15
 -1      1848 4.38723E-03-5.71365E-04-7.69933E-15
 -1      1849 4.74256E-03-6.06139E-04-8.97305E-15
 -1      1850 4.88473E-03-6.05168E-04-9.48663E-15
 -1      1851 4.67144E-03-5.69633E-04-8.67249E-15
 -1      1852 5.02699E-03-6.04134E-04-1.00129E-14
 -1      1853 5.16935E-03-6.03042E-04-1.05525E-14
 -1      1854 4.95601E-03-5.67655E-04-9.69506E-15
 -1      1855 5.31180E-03-6.01881E-04-1.11063E-14
 -1      1856 5.45434E-03-6.00652E-04-1.16718E-14
 -1      1857 5.24092E-03-5.65438E-04-1.07692E-14
 -1      1858 5.59697E-03-5.99338E-04-1.22512E-14
 -1      1859 5.73969E-03-5.97939E-04-1.28448E-14
 -1      1860 5.52614E-03-5.62948E-04-1.18968E-14
 -1      1861 5.88251E-03-5.96434E-04-1.34528E-14
 -1      1862 6.02543E-03-5.94821E-04-1.40748E-14
 -1      1863 5.81168E-03-5.60116E-04-1.30788E-14
 -1      1864 6.16847E-03-5.93079E-04-1.47105E-14
 -1      1865 6.31164E-03-5.91204E-04-1.53606E-14
 -1      1866 6.09758E-03-5.56852E-04-1.43178E-14
 -1      1867 6.45495E-03-5.89176E-04-1.60243E-14
 -1      1868 6.59844E-03-5.86994E-04-1.67024E-14
 -1      1869 6.38391E-03-5.53055E-04-1.56123E-14
 -1      1870 6.74210E-03-5.84638E-04-1.73945E-14
 -1      1871 6.88598E-03-5.82114E-04-1.80989E-14
 -1      1872 6.67079E-03-5.48629E-04-1.69629E-14
 -1      1873 7.03010E-03-5.79407E-04-1.88163E-14
 -1      1874 7.17450E-03-5.76530E-04-1.95463E-14
 -1      1875 6.95836E-03-5.43499E-04-1.83666E-14
 -1      1876 7.31920E-03-5.73480E-04-2.02878E-14
 -1      1877 7.46428E-03-5.70282E-04-2.10401E-14
 -1      1878 7.24682E-03-5.37637E-04-1.98192E-14
 -1      1879 7.60974E-03-5.66951E-04-2.18025E-14
 -1      1880 7.75567E-03-5.63528E-04-2.25755E-14
 -1      1881 7.53642E-03-5.31100E-04-2.13178E-14
 -1      1882 7.90208E-03-5.60058E-04-2.33595E-14
 -1      1883 8.04908E-03-5.56604E-04-2.41537E-14
 -1      1884 7.82747E-03-5.24071E-04-2.28585E-14
 -1      1885 8.19666E-03-5.53252E-04-2.49590E-14
 -1      1886 8.34495E-03-5.50097E-04-2.57736E-14
 -1      1887 8.12031E-03-5.16927E-04-2.44425E-14
 -1      1888 8.49394E-03-5.47280E-04-2.65987E-14
 -1      1889 8.64376E-03-5.44937E-04-2.74353E-14
 -1      1890 8.41534E-03-5.10316E-04-2.60683E-14
 -1      1891 8.79439E-03-5.43281E-04-2.82808E-14
 -1      1892 8.94594E-03-5.42495E-04-2.91366E-14
 -1      1893 8.71299E-03-5.05248E-04-2.77349E-14
 -1      1894 9.09842E-03-5.42882E-04-3.00022E-14
 -1      1895 9.25186E-03-5.44677E-04-3.08727E-14
 -1      1896 9.01367E-03-5.03202E-04-2.94421E-14
 -1      1897 9.40629E-03-5.48277E-04-3.17501E-14
 -1      1898 9.56164E-03-5.53966E-04-3.26359E-14
 -1      1899 9.31777E-03-5.06207E-04-3.11796E-14
 -1      1900 9.71799E-03-5.62220E-04-3.35277E-14
 -1      1901 9.87510E-03-5.73352E-04-3.44279E-14
 -1      1902 9.62556E-03-5.16886E-04-3.29442E-14
 -1      1903 1.00331E-02-5.87859E-04-3.53363E-14
 -1      1904 1.01915E-02-6.06030E-04-3.62487E-14
 -1      1905 9.93711E-03-5.38352E-04-3.47386E-14
 -1      1906 1.03506E-02-6.28265E-04-3.71687E-14
 -1      1907 1.05095E-02-6.54724E-04-3.80936E-14
 -1      1908 1.02521E-02-5.73877E-04-3.65633E-14
 -1      1909 1.06685E-02-6.85510E-04-3.90230E-14
 -1      1910 1.08266E-02-7.20477E-04-3.99591E-14
 -1      1911 1.05696E-02-6.26135E-04-3.84098E-14
 -1      1912 1.09841E-02-7.59175E-04-4.08980E-14
 -1      1913 1.11397E-02-8.00925E-04-4.18401E-14
 -1      1914 1.08878E-02-6.95886E-04-4.02745E-14
 -1      1915 1.12936E-02-8.44492E-04-4.27872E-14
 -1      1916 1.14449E-02-8.88460E-04-4.37392E-14
 -1      1917 1.12037E-02-7.80092E-04-4.21575E-14
 -1      1918 1.15934E-02-9.30761E-04-4.46986E-14
 -1      1919 1.17386E-02-9.69279E-04-4.56648E-14
 -1      1920 1.15133E-02-8.69908E-04-4.40579E-14
 -1      1921 1.18804E-02-1.00143E-03-4.66384E-14
 -1      1922 1.20193E-02-1.02487E-03-4.76183E-14
 -1      1923 1.18127E-02-9.49780E-04-4.59882E-14
 -1      1924 1.21548E-02-1.03723E-03-4.86043E-14
 -1      1925 1.22886E-02-1.03675E-03-4.95975E-14
 -1      1926 1.21002E-02-9.99544E-04-4.79445E-14
 -1      1927 1.24201E-02-1.02212E-03-5.05922E-14
 -1      1928 1.25514E-02-9.92913E-04-5.15895E-14
 -1      1929 1.23778E-02-1.00026E-03-4.99235E-14
 -1      1930 1.26820E-02-9.49381E-04-5.25921E-14
 -1      1931 1.28139E-02-8.92457E-04-5.35934E-14
 -1      1932 1.26510E-02-9.41673E-04-5.19170E-14
 -1      1933 1.29465E-02-8.23650E-04-5.45917E-14
 -1      1934 1.30808E-02-7.44727E-04-5.55914E-14
 -1      1935 1.29260E-02-8.26223E-04-5.39155E-14
 -1      1936 1.32165E-02-6.57710E-04-5.65926E-14
 -1      1937 1.33537E-02-5.64332E-04-5.75911E-14
 -1      1938 1.32059E-02-6.66551E-04-5.59130E-14
 -1      1939 1.34922E-02-4.66439E-04-5.85921E-14
 -1      1940 1.36317E-02-3.65354E-04-5.95888E-14
 -1      1941 1.34903E-02-4.78697E-04-5.79151E-14
 -1      1942 1.37541E-02-2.74914E-04-6.04896E-14
 -1      1943 1.38949E-02-1.71268E-04-6.14891E-14
 -1      1944 1.40080E-02-1.06226E-04-6.16235E-14
 -1      1945 1.37585E-02-2.88699E-04-5.98153E-14
 -1      1946 1.13874E-03 4.80043E-04-6.56891E-17
 -1      1947 9.96948E-04 4.46791E-04-2.66578E-17
 -1      1948 9.64556E-04 4.17334E-04-4.65123E-17
 -1      1949 1.41789E-03 5.31532E-04-1.79612E-16
 -1      1950 1.27872E-03 5.08078E-04-1.16552E-16
 -1      1951 1.24907E-03 4.79938E-04-1.40580E-16
 -1      1952 1.69431E-03 5.67844E-04-3.44559E-16
 -1      1953 1.55626E-03 5.51340E-04-2.55262E-16
 -1      1954 1.52937E-03 5.24164E-04-2.83194E-16
 -1      1955 1.96993E-03 5.93161E-04-5.62796E-16
 -1      1956 1.83213E-03 5.81707E-04-4.46895E-16
 -1      1957 1.80765E-03 5.55167E-04-4.78174E-16
 -1      1958 2.24582E-03 6.10441E-04-8.37316E-16
 -1      1959 2.10780E-03 6.02680E-04-6.93117E-16
 -1      1960 2.08532E-03 5.76545E-04-7.27296E-16
 -1      1961 2.52253E-03 6.21865E-04-1.16896E-15
 -1      1962 2.38405E-03 6.16791E-04-9.95772E-16
 -1      1963 2.36318E-03 5.90901E-04-1.03280E-15
 -1      1964 2.80032E-03 6.29066E-04-1.55834E-15
 -1      1965 2.66129E-03 6.25923E-04-1.35621E-15
 -1      1966 2.64168E-03 6.00173E-04-1.39571E-15
 -1      1967 3.07926E-03 6.33266E-04-2.00633E-15
 -1      1968 2.93965E-03 6.31489E-04-1.77511E-15
 -1      1969 2.92104E-03 6.05808E-04-1.81654E-15
 -1      1970 3.35931E-03 6.35377E-04-2.51151E-15
 -1      1971 3.21916E-03 6.34544E-04-2.25186E-15
 -1      1972 3.20131E-03 6.08888E-04-2.29522E-15
 -1      1973 3.64038E-03 6.36061E-04-3.07401E-15
 -1      1974 3.49973E-03 6.35870E-04-2.78564E-15
 -1      1975 3.48246E-03 6.10211E-04-2.83078E-15
 -1      1976 3.92233E-03 6.35794E-04-3.69361E-15
 -1      1977 3.78126E-03 6.36028E-04-3.37625E-15
 -1      1978 3.76442E-03 6.10351E-04-3.42315E-15
 -1      1979 4.20505E-03 6.34899E-04-4.37172E-15
 -1      1980 4.06361E-03 6.35413E-04-4.02509E-15
 -1      1981 4.04710E-03 6.09711E-04-4.07363E-15
 -1      1982 4.48840E-03 6.33584E-04-5.11115E-15
 -1      1983 4.34665E-03 6.34287E-04-4.73429E-15
 -1      1984 4.33040E-03 6.08559E-04-4.78446E-15
 -1      1985 4.77228E-03 6.31968E-04-5.91053E-15
 -1      1986 4.63028E-03 6.32810E-04-5.50302E-15
 -1      1987 4.61421E-03 6.07060E-04-5.55509E-15
 -1      1988 5.05662E-03 6.30097E-04-6.77182E-15
 -1      1989 4.91440E-03 6.31064E-04-6.33343E-15
 -1      1990 4.89848E-03 6.05294E-04-6.38671E-15
 -1      1991 5.34135E-03 6.27967E-04-7.69182E-15
 -1      1992 5.19894E-03 6.29067E-04-7.22443E-15
 -1      1993 5.18313E-03 6.03283E-04-7.27813E-15
 -1      1994 5.62646E-03 6.25528E-04-8.67135E-15
 -1      1995 5.48386E-03 6.26789E-04-8.17403E-15
 -1      1996 5.46814E-03 6.00998E-04-8.22802E-15
 -1      1997 5.91196E-03 6.22700E-04-9.70453E-15
 -1      1998 5.76916E-03 6.24167E-04-9.18116E-15
 -1      1999 5.75350E-03 5.98371E-04-9.23636E-15
 -1      2000 6.19792E-03 6.19380E-04-1.07961E-14
 -1      2001 6.05488E-03 6.21106E-04-1.02421E-14
 -1      2002 6.03927E-03 5.95309E-04-1.02997E-14
 -1      2003 6.48445E-03 6.15452E-04-1.19437E-14
 -1      2004 6.34110E-03 6.17496E-04-1.13632E-14
 -1      2005 6.32551E-03 5.91695E-04-1.14197E-14
 -1      2006 6.77172E-03 6.10795E-04-1.31508E-14
 -1      2007 6.62798E-03 6.13216E-04-1.25404E-14
 -1      2008 6.61235E-03 5.87408E-04-1.25983E-14
 -1      2009 7.05999E-03 6.05306E-04-1.44137E-14
 -1      2010 6.91571E-03 6.08154E-04-1.37750E-14
 -1      2011 6.89997E-03 5.82325E-04-1.38326E-14
 -1      2012 7.34960E-03 5.98917E-04-1.57287E-14
 -1      2013 7.20460E-03 6.02218E-04-1.50644E-14
 -1      2014 7.18865E-03 5.76350E-04-1.51205E-14
 -1      2015 7.64098E-03 5.91626E-04-1.70955E-14
 -1      2016 7.49503E-03 5.95370E-04-1.64063E-14
 -1      2017 7.47871E-03 5.69430E-04-1.64618E-14
 -1      2018 7.93471E-03 5.83554E-04-1.85082E-14
 -1      2019 7.78751E-03 5.87662E-04-1.77966E-14
 -1      2020 7.77058E-03 5.61602E-04-1.78520E-14
 -1      2021 8.23149E-03 5.75006E-04-1.99718E-14
 -1      2022 8.08266E-03 5.79295E-04-1.92329E-14
 -1      2023 8.06482E-03 5.53047E-04-1.92891E-14
 -1      2024 8.53219E-03 5.66588E-04-2.14793E-14
 -1      2025 8.38128E-03 5.70712E-04-2.07198E-14
 -1      2026 8.36208E-03 5.44173E-04-2.07738E-14
 -1      2027 8.83780E-03 5.59355E-04-2.30350E-14
 -1      2028 8.68429E-03 5.62718E-04-2.22516E-14
 -1      2029 8.66315E-03 5.35747E-04-2.23056E-14
 -1      2030 9.14948E-03 5.55037E-04-2.46239E-14
 -1      2031 8.99277E-03 5.56676E-04-2.38258E-14
 -1      2032 8.96893E-03 5.29070E-04-2.38791E-14
 -1      2033 9.46840E-03 5.56343E-04-2.62427E-14
 -1      2034 9.30791E-03 5.54765E-04-2.54300E-14
 -1      2035 9.28043E-03 5.26237E-04-2.54836E-14
 -1      2036 9.79570E-03 5.67353E-04-2.78932E-14
 -1      2037 9.63090E-03 5.60327E-04-2.70643E-14
 -1      2038 9.59867E-03 5.30481E-04-2.71191E-14
 -1      2039 1.01322E-02 5.93928E-04-2.95789E-14
 -1      2040 9.96273E-03 5.78291E-04-2.87313E-14
 -1      2041 9.92465E-03 5.46579E-04-2.87874E-14
 -1      2042 1.04779E-02 6.43935E-04-3.13065E-14
 -1      2043 1.03039E-02 6.15520E-04-3.04373E-14
 -1      2044 1.02592E-02 5.81243E-04-3.04952E-14
 -1      2045 1.08319E-02 7.26783E-04-3.30727E-14
 -1      2046 1.06541E-02 6.80782E-04-3.21853E-14
 -1      2047 1.06025E-02 6.43169E-04-3.22413E-14
 -1      2048 1.11909E-02 8.51308E-04-3.48770E-14
 -1      2049 1.10113E-02 7.83601E-04-3.39700E-14
 -1      2050 1.09542E-02 7.42112E-04-3.40239E-14
 -1      2051 1.15491E-02 1.02083E-03-3.67149E-14
 -1      2052 1.13710E-02 9.30881E-04-3.57917E-14
 -1      2053 1.13117E-02 8.85876E-04-3.58423E-14
 -1      2054 1.18976E-02 1.22502E-03-3.85864E-14
 -1      2055 1.17256E-02 1.12023E-03-3.76473E-14
 -1      2056 1.16696E-02 1.07393E-03-3.76959E-14
 -1      2057 1.22263E-02 1.43191E-03-4.04879E-14
 -1      2058 1.20651E-02 1.33097E-03-3.95330E-14
 -1      2059 1.20182E-02 1.28779E-03-3.95801E-14
 -1      2060 1.25301E-02 1.59087E-03-4.24177E-14
 -1      2061 1.23810E-02 1.52053E-03-4.14489E-14
 -1      2062 1.23474E-02 1.48519E-03-4.14935E-14
 -1      2063 1.28141E-02 1.65245E-03-4.43726E-14
 -1      2064 1.26729E-02 1.63538E-03-4.33927E-14
 -1      2065 1.26540E-02 1.60979E-03-4.34338E-14
 -1      2066 1.30944E-02 1.59887E-03-4.63526E-14
 -1      2067 1.29532E-02 1.63881E-03-4.53594E-14
 -1      2068 1.29482E-02 1.61963E-03-4.54018E-14
 -1      2069 1.33831E-02 1.45425E-03-4.83602E-14
 -1      2070 1.32370E-02 1.53518E-03-4.73523E-14
 -1      2071 1.32463E-02 1.51774E-03-4.73922E-14
 -1      2072 1.36821E-02 1.26260E-03-5.03919E-14
 -1      2073 1.35317E-02 1.36191E-03-4.93717E-14
 -1      2074 1.35551E-02 1.34357E-03-4.94067E-14
 -1      2075 1.39853E-02 1.05890E-03-5.24568E-14
 -1      2076 1.38340E-02 1.16132E-03-5.14223E-14
 -1      2077 1.38698E-02 1.14254E-03-5.14556E-14
 -1      2078 1.42848E-02 8.55699E-04-5.45403E-14
 -1      2079 1.41361E-02 9.57490E-04-5.34966E-14
 -1      2080 1.41808E-02 9.40015E-04-5.35312E-14
 -1      2081 1.45333E-02 6.83338E-04-5.62803E-14
 -1      2082 1.43875E-02 7.86841E-04-5.52315E-14
 -1      2083 1.44367E-02 7.71279E-04-5.52650E-14
 -1      2084 1.46417E-02 6.33581E-04-5.66491E-14
 -1      2085 1.53010E-02 4.51843E-04-5.77516E-14
 -1      2086 1.51680E-02 4.80691E-04-5.75159E-14
 -1      2087 1.50370E-02 5.15289E-04-5.72780E-14
 -1      2088 1.49100E-02 5.52119E-04-5.70396E-14
 -1      2089 1.49729E-02 5.64762E-04-5.64910E-14
 -1      2090 1.48306E-02 5.72668E-04-5.69657E-14
 -1      2091 1.47138E-02 6.12513E-04-5.67229E-14
 -1      2092 1.46107E-02 6.80178E-04-5.60307E-14
 -1      2093 1.47618E-02 6.33009E-04-5.61784E-14
 -1      2094 1.55533E-02 4.12192E-04-5.82100E-14
 -1      2095 1.54313E-02 4.28241E-04-5.79826E-14
 -1      2096 1.52433E-02 4.87571E-04-5.69609E-14
 -1      2097 1.57426E-02 4.02557E-04-5.86591E-14
 -1      2098 1.56597E-02 4.04139E-04-5.84353E-14
 -1      2099 1.54967E-02 4.34596E-04-5.74183E-14
 -1      2100 1.58128E-02 4.15738E-04-5.90797E-14
 -1      2101 1.57949E-02 4.08513E-04-5.88722E-14
 -1      2102 1.56717E-02 4.13883E-04-5.78582E-14
 -1      2103 1.57387E-02 4.30871E-04-5.94987E-14
 -1      2104 1.57939E-02 4.25894E-04-5.92915E-14
 -1      2105 1.57113E-02 4.14777E-04-5.82870E-14
 -1      2106 1.55423E-02 4.24781E-04-5.98968E-14
 -1      2107 1.56528E-02 4.32061E-04-5.96977E-14
 -1      2108 1.55962E-02 4.10627E-04-5.87001E-14
 -1      2109 1.52713E-02 3.86751E-04-6.02943E-14
 -1      2110 1.54120E-02 4.09727E-04-6.00975E-14
 -1      2111 1.53625E-02 3.78334E-04-5.91018E-14
 -1      2112 1.49849E-02 3.20447E-04-6.06800E-14
 -1      2113 1.51273E-02 3.56002E-04-6.04893E-14
 -1      2114 1.50726E-02 3.13119E-04-5.95010E-14
 -1      2115 1.47196E-02 2.36322E-04-6.10639E-14
 -1      2116 1.48485E-02 2.79322E-04-6.08714E-14
 -1      2117 1.47844E-02 2.25750E-04-5.98936E-14
 -1      2118 1.44880E-02 1.44202E-04-6.14478E-14
 -1      2119 1.45996E-02 1.90277E-04-6.12543E-14
 -1      2120 1.45270E-02 1.29137E-04-6.02801E-14
 -1      2121 1.42862E-02 5.08402E-05-6.18371E-14
 -1      2122 1.43840E-02 9.71053E-05-6.16416E-14
 -1      2123 1.43059E-02 3.17555E-05-6.06698E-14
 -1      2124 1.48760E-02 5.97775E-04-5.14100E-14
 -1      2125 1.50520E-02 5.27291E-04-5.18359E-14
 -1      2126 1.53688E-02 4.02127E-04-5.26107E-14
 -1      2127 1.53654E-02 3.81377E-04-5.27087E-14
 -1      2128 1.52301E-02 4.57409E-04-5.23628E-14
 -1      2129 1.53240E-02 4.29139E-04-5.25753E-14
 -1      2130 1.44467E-02 7.94588E-04-5.04611E-14
 -1      2131 1.46545E-02 6.93039E-04-5.09362E-14
 -1      2132 1.40022E-02 1.04101E-03-4.93278E-14
 -1      2133 1.42157E-02 9.23487E-04-4.98467E-14
 -1      2134 3.27170E-04-8.89386E-05-9.36344E-17
 -1      2135 3.29257E-04-1.02108E-04-9.36886E-17
 -1      2136 4.46299E-04-1.45070E-04-1.37870E-16
 -1      2137 4.39992E-04-1.09905E-04-1.37707E-16
 -1      2138 1.31605E-02 1.45485E-03-4.68447E-14
 -1      2139 1.33394E-02 1.38354E-03-4.74587E-14
 -1      2140 1.27889E-02 1.50315E-03-4.55012E-14
 -1      2141 1.29461E-02 1.50033E-03-4.60784E-14
 -1      2142 1.24626E-02 1.41371E-03-4.43889E-14
 -1      2143 1.26252E-02 1.47403E-03-4.49457E-14
 -1      2144 1.27132E-02 1.50198E-03-4.51036E-14
 -1      2145 1.20674E-02 1.19150E-03-4.31844E-14
 -1      2146 1.22544E-02 1.31138E-03-4.37477E-14
 -1      2147 1.15911E-02 8.83660E-04-4.21855E-14
 -1      2148 1.18013E-02 1.01386E-03-4.25076E-14
 -1      2149 1.12065E-02 6.59035E-04-4.16388E-14
 -1      2150 1.13984E-02 7.71052E-04-4.19125E-14
 -1      2151 1.15205E-02 8.03430E-04-4.16421E-14
 -1      2152 1.08188E-02 4.45625E-04-4.10687E-14
 -1      2153 1.09959E-02 5.38890E-04-4.13230E-14
 -1      2154 1.04849E-02 3.06790E-04-4.09248E-14
 -1      2155 1.06093E-02 3.51288E-04-4.09048E-14
 -1      2156 1.03532E-02 2.41403E-04-4.10510E-14
 -1      2157 1.03981E-02 2.68137E-04-4.09929E-14
 -1      2158 1.03830E-02 1.85811E-04-4.13533E-14
 -1      2159 1.03473E-02 2.10195E-04-4.11980E-14
 -1      2160 1.05836E-02 1.06047E-04-4.18616E-14
 -1      2161 1.04737E-02 1.46778E-04-4.15526E-14
 -1      2162 1.08886E-02-1.17245E-05-4.25021E-14
 -1      2163 1.07229E-02 5.14757E-05-4.21808E-14
 -1      2164 1.06473E-02 9.74138E-05-4.15724E-14
 -1      2165 1.13265E-02-2.37067E-04-4.37265E-14
 -1      2166 1.11401E-02-1.34557E-04-4.31916E-14
 -1      2167 1.16744E-02-4.30411E-04-4.47042E-14
 -1      2168 1.14979E-02-3.31803E-04-4.42153E-14
 -1      2169 1.14314E-02-2.70740E-04-4.37487E-14
 -1      2170 1.20526E-02-6.29805E-04-4.58464E-14
 -1      2171 1.18904E-02-5.43639E-04-4.53283E-14
 -1      2172 1.23770E-02-7.60769E-04-4.69735E-14
 -1      2173 1.22195E-02-7.03198E-04-4.64083E-14
 -1      2174 1.21389E-02-6.67714E-04-4.60398E-14
 -1      2175 1.27385E-02-8.03666E-04-4.83117E-14
 -1      2176 1.25912E-02-8.02804E-04-4.77687E-14
 -1      2177 1.30644E-02-7.23600E-04-4.93476E-14
 -1      2178 1.29104E-02-7.72952E-04-4.88472E-14
 -1      2179 1.34226E-02-5.54319E-04-5.03819E-14
 -1      2180 1.32513E-02-6.44503E-04-4.99304E-14
 -1      2181 1.38265E-02-3.27514E-04-5.12553E-14
 -1      2182 1.36361E-02-4.38069E-04-5.08742E-14
 -1      2183 1.42673E-02-9.45080E-05-5.19198E-14
 -1      2184 1.40624E-02-2.04411E-04-5.16112E-14
 -1      2185 1.47026E-02 1.18969E-04-5.24861E-14
 -1      2186 1.44997E-02 2.72933E-05-5.22754E-14
 -1      2187 1.50763E-02 2.64756E-04-5.27619E-14
 -1      2188 1.49117E-02 2.01725E-04-5.26279E-14
 -1      2189 1.53168E-02 3.54649E-04-5.29009E-14
 -1      2190 1.52304E-02 3.27719E-04-5.29384E-14
 -1      2191 1.35601E-02 1.27601E-03-4.81710E-14
 -1      2192 1.37602E-02 1.16516E-03-4.87420E-14
 -1      2193 1.43061E-02 8.35549E-04-5.04090E-14
 -1      2194 6.07928E-04-2.98091E-04-1.70979E-16
 -1      2195 1.38512E-02 1.08915E-03-4.92056E-14
 -1      2196 1.34317E-02 1.32861E-03-4.79056E-14
 -1      2197 6.63645E-04-2.92370E-04-2.17030E-16
 -1      2198 1.51508E-02 4.73088E-04-5.25075E-14
 -1      2199 1.53602E-02 4.11696E-04-5.30722E-14
 -1      2200 1.41687E-02-1.61902E-05-6.16991E-14
 -1      2201 1.47474E-02 6.22860E-04-5.15028E-14
 -1      2202 1.53524E-02 3.76952E-04-5.32999E-14
 -1      2203 1.51573E-02 3.19993E-04-5.33137E-14
 -1      2204 1.47920E-02 1.90248E-04-5.29921E-14
 -1      2205 1.43610E-02-2.24631E-06-5.24895E-14
 -1      2206 1.39086E-02-2.45284E-04-5.17739E-14
 -1      2207 1.34923E-02-4.87819E-04-5.09230E-14
 -1      2208 1.31307E-02-6.87406E-04-4.98462E-14
 -1      2209 1.24794E-02-7.93735E-04-4.73945E-14
 -1      2210 1.17948E-02-4.79504E-04-4.48569E-14
 -1      2211 1.10168E-02-5.49103E-05-4.25732E-14
 -1      2212 1.08995E-02 6.42154E-07-4.19592E-14
 -1      2213 1.11336E-02-1.06417E-04-4.26433E-14
 -1      2214 1.04198E-02 1.72216E-04-4.10560E-14
 -1      2215 1.03406E-02 2.20353E-04-4.07072E-14
 -1      2216 1.04336E-02 2.66741E-04-4.04870E-14
 -1      2217 1.11316E-02 5.75184E-04-4.10558E-14
 -1      2218 1.23853E-02 1.37545E-03-4.39064E-14
 -1      2219 1.30399E-02 1.48965E-03-4.64253E-14
 -1      2220 1.19511E-02 1.09487E-03-4.25894E-14
 -1      2221 1.20741E-02 1.17220E-03-4.26712E-14
 -1      2222 1.18363E-02 1.00042E-03-4.19962E-14
 -1      2223 1.07142E-02 3.73787E-04-4.05791E-14
 -1      2224 1.28070E-02-7.98525E-04-4.87270E-14
 -1      2225 1.01667E-03 3.99770E-04-9.94349E-17
 -1      2226 8.72189E-04 3.63388E-04-5.88722E-17
 -1      2227 5.47750E-04-5.52865E-05-1.81035E-16
 -1      2228 5.48791E-04-7.20009E-05-1.85222E-16
 -1      2229 5.50216E-04-8.93218E-05-1.88827E-16
 -1      2230 5.52083E-04-1.07306E-04-1.92012E-16
 -1      2231 6.65255E-04-9.54717E-05-2.53121E-16
 -1      2232 5.46362E-04 8.85377E-06-1.59730E-16
 -1      2233 5.46342E-04-6.97957E-06-1.65761E-16
 -1      2234 5.47120E-04 4.08566E-05-1.46516E-16
 -1      2235 5.46618E-04 2.47861E-05-1.53455E-16
 -1      2236 6.61290E-04 1.99257E-05-2.13344E-16
 -1      2237 5.48955E-04 7.34708E-05-1.31351E-16
 -1      2238 5.47887E-04 5.69821E-05-1.39415E-16
 -1      2239 6.62622E-04 5.77732E-05-1.95698E-16
 -1      2240 5.52358E-04 1.08937E-04-1.13109E-16
 -1      2241 5.50428E-04 9.08651E-05-1.22556E-16
 -1      2242 6.65494E-04 9.72344E-05-1.75031E-16
 -1      2243 5.58253E-04 1.48266E-04-9.06935E-17
 -1      2244 5.54927E-04 1.28044E-04-1.02525E-16
 -1      2245 6.70600E-04 1.39999E-04-1.50230E-16
 -1      2246 5.68601E-04 1.93862E-04-6.30735E-17
 -1      2247 5.62752E-04 1.70145E-04-7.77508E-17
 -1      2248 6.79270E-04 1.87537E-04-1.20306E-16
 -1      2249 1.30215E-03 4.56713E-04-2.15024E-16
 -1      2250 1.15981E-03 4.30770E-04-1.51165E-16
 -1      2251 1.07184E-03 3.81290E-04-1.57413E-16
 -1      2252 9.15237E-04-3.46328E-04-3.93267E-16
 -1      2253 1.05934E-03-3.79649E-04-5.10253E-16
 -1      2254 1.37550E-02 1.12842E-03-4.91652E-14
 -1      2255 1.39610E-02 1.00482E-03-4.97537E-14
 -1      2256 1.20261E-03-4.08042E-04-6.43135E-16
 -1      2257 1.34543E-03-4.31917E-04-7.91928E-16
 -1      2258 1.11701E-03-3.60474E-04-5.79262E-16
 -1      2259 1.48761E-03-4.52136E-04-9.56321E-16
 -1      2260 1.62940E-03-4.68978E-04-1.13649E-15
 -1      2261 1.40336E-03-4.07238E-04-8.75371E-16
 -1      2262 1.77083E-03-4.83117E-04-1.33204E-15
 -1      2263 1.91202E-03-4.94765E-04-1.54297E-15
 -1      2264 1.68850E-03-4.40482E-04-1.23301E-15
 -1      2265 2.05306E-03-5.04419E-04-1.76919E-15
 -1      2266 2.19399E-03-5.12254E-04-2.01063E-15
 -1      2267 1.97270E-03-4.63545E-04-1.65162E-15
 -1      2268 2.33490E-03-5.18631E-04-2.26708E-15
 -1      2269 2.47579E-03-5.23694E-04-2.53942E-15
 -1      2270 2.25635E-03-4.79072E-04-2.13024E-15
 -1      2271 2.61675E-03-5.27706E-04-2.82656E-15
 -1      2272 2.75775E-03-5.30782E-04-3.12898E-15
 -1      2273 2.53977E-03-4.89099E-04-2.66952E-15
 -1      2274 2.89886E-03-5.33115E-04-3.44653E-15
 -1      2275 3.04004E-03-5.34794E-04-3.77950E-15
 -1      2276 2.82320E-03-4.95182E-04-3.26952E-15
 -1      2277 3.18135E-03-5.35957E-04-4.12673E-15
 -1      2278 3.32275E-03-5.36674E-04-4.48866E-15
 -1      2279 3.10677E-03-4.98490E-04-3.92930E-15
 -1      2280 3.46427E-03-5.37042E-04-4.86544E-15
 -1      2281 3.60589E-03-5.37113E-04-5.25678E-15
 -1      2282 3.39057E-03-4.99888E-04-4.64738E-15
 -1      2283 3.74763E-03-5.36953E-04-5.66162E-15
 -1      2284 3.88946E-03-5.36600E-04-6.08056E-15
 -1      2285 3.67463E-03-5.00005E-04-5.42313E-15
 -1      2286 4.03140E-03-5.36097E-04-6.51359E-15
 -1      2287 4.17343E-03-5.35470E-04-6.95997E-15
 -1      2288 3.95895E-03-4.99283E-04-6.25530E-15
 -1      2289 4.31555E-03-5.34744E-04-7.41924E-15
 -1      2290 4.45774E-03-5.33935E-04-7.89084E-15
 -1      2291 4.24351E-03-4.98020E-04-7.14176E-15
 -1      2292 4.60002E-03-5.33057E-04-8.37466E-15
 -1      2293 4.74236E-03-5.32119E-04-8.87139E-15
 -1      2294 4.52831E-03-4.96401E-04-8.07980E-15
 -1      2295 4.88478E-03-5.31121E-04-9.38050E-15
 -1      2296 5.02727E-03-5.30069E-04-9.90126E-15
 -1      2297 4.81331E-03-4.94525E-04-9.06714E-15
 -1      2298 5.16982E-03-5.28955E-04-1.04352E-14
 -1      2299 5.31243E-03-5.27780E-04-1.09839E-14
 -1      2300 5.09851E-03-4.92426E-04-1.01050E-14
 -1      2301 5.45511E-03-5.26532E-04-1.15451E-14
 -1      2302 5.59785E-03-5.25206E-04-1.21193E-14
 -1      2303 5.38390E-03-4.90084E-04-1.11951E-14
 -1      2304 5.74066E-03-5.23787E-04-1.27082E-14
 -1      2305 5.88354E-03-5.22270E-04-1.33117E-14
 -1      2306 5.66948E-03-4.87444E-04-1.23404E-14
 -1      2307 6.02650E-03-5.20634E-04-1.39283E-14
 -1      2308 6.16954E-03-5.18875E-04-1.45590E-14
 -1      2309 5.95526E-03-4.84421E-04-1.35416E-14
 -1      2310 6.31267E-03-5.16970E-04-1.52044E-14
 -1      2311 6.45592E-03-5.14916E-04-1.58624E-14
 -1      2312 6.24130E-03-4.80914E-04-1.47991E-14
 -1      2313 6.59927E-03-5.12692E-04-1.65357E-14
 -1      2314 6.74277E-03-5.10297E-04-1.72219E-14
 -1      2315 6.52762E-03-4.76817E-04-1.61110E-14
 -1      2316 6.88640E-03-5.07714E-04-1.79199E-14
 -1      2317 7.03022E-03-5.04946E-04-1.86310E-14
 -1      2318 6.81433E-03-4.72035E-04-1.74770E-14
 -1      2319 7.17421E-03-5.01985E-04-1.93547E-14
 -1      2320 7.31843E-03-4.98845E-04-2.00902E-14
 -1      2321 7.10150E-03-4.66500E-04-1.88934E-14
 -1      2322 7.46288E-03-4.95530E-04-2.08363E-14
 -1      2323 7.60763E-03-4.92065E-04-2.15934E-14
 -1      2324 7.38929E-03-4.60204E-04-2.03578E-14
 -1      2325 7.75266E-03-4.88480E-04-2.23605E-14
 -1      2326 7.89806E-03-4.84818E-04-2.31392E-14
 -1      2327 7.67785E-03-4.53236E-04-2.18660E-14
 -1      2328 8.04382E-03-4.81141E-04-2.39285E-14
 -1      2329 8.19003E-03-4.77519E-04-2.47289E-14
 -1      2330 7.96740E-03-4.45830E-04-2.34166E-14
 -1      2331 8.33669E-03-4.74059E-04-2.55399E-14
 -1      2332 8.48390E-03-4.70866E-04-2.63609E-14
 -1      2333 8.25820E-03-4.38434E-04-2.50124E-14
 -1      2334 8.63165E-03-4.68110E-04-2.71923E-14
 -1      2335 8.78006E-03-4.65942E-04-2.80333E-14
 -1      2336 8.55060E-03-4.31790E-04-2.66519E-14
 -1      2337 8.92914E-03-4.64603E-04-2.88834E-14
 -1      2338 9.07898E-03-4.64306E-04-2.97443E-14
 -1      2339 8.84502E-03-4.27030E-04-2.83292E-14
 -1      2340 9.22963E-03-4.65372E-04-3.06097E-14
 -1      2341 9.38115E-03-4.68087E-04-3.14820E-14
 -1      2342 9.14198E-03-4.25772E-04-3.00402E-14
 -1      2343 9.53364E-03-4.72845E-04-3.23642E-14
 -1      2344 9.68707E-03-4.80009E-04-3.32512E-14
 -1      2345 9.44219E-03-4.30212E-04-3.17838E-14
 -1      2346 9.84164E-03-4.90017E-04-3.41463E-14
 -1      2347 9.99718E-03-5.03290E-04-3.50495E-14
 -1      2348 9.74646E-03-4.43150E-04-3.35560E-14
 -1      2349 1.01540E-02-5.20239E-04-3.59599E-14
 -1      2350 1.03117E-02-5.41285E-04-3.68747E-14
 -1      2351 1.00557E-02-4.67901E-04-3.53570E-14
 -1      2352 1.04707E-02-5.66677E-04-3.77955E-14
 -1      2353 1.06303E-02-5.96696E-04-3.87223E-14
 -1      2354 1.03708E-02-5.07960E-04-3.71832E-14
 -1      2355 1.07908E-02-6.31240E-04-3.96526E-14
 -1      2356 1.09514E-02-6.70167E-04-4.05875E-14
 -1      2357 1.06919E-02-5.66207E-04-3.90319E-14
 -1      2358 1.11123E-02-7.12786E-04-4.15259E-14
 -1      2359 1.12722E-02-7.58161E-04-4.24693E-14
 -1      2360 1.10178E-02-6.43379E-04-4.08971E-14
 -1      2361 1.14312E-02-8.04808E-04-4.34207E-14
 -1      2362 1.15881E-02-8.50642E-04-4.43783E-14
 -1      2363 1.13452E-02-7.35605E-04-4.27826E-14
 -1      2364 1.17425E-02-8.93410E-04-4.53394E-14
 -1      2365 1.18942E-02-9.29988E-04-4.63088E-14
 -1      2366 1.16683E-02-8.31428E-04-4.46929E-14
 -1      2367 1.20425E-02-9.57781E-04-4.72874E-14
 -1      2368 1.21884E-02-9.73709E-04-4.82705E-14
 -1      2369 1.19813E-02-9.10386E-04-4.66302E-14
 -1      2370 1.23314E-02-9.75731E-04-4.92572E-14
 -1      2371 1.24737E-02-9.62114E-04-5.02484E-14
 -1      2372 1.22819E-02-9.47018E-04-4.85926E-14
 -1      2373 1.26146E-02-9.32400E-04-5.12439E-14
 -1      2374 1.27567E-02-8.87140E-04-5.22435E-14
 -1      2375 1.25747E-02-9.20945E-04-5.05724E-14
 -1      2376 1.28992E-02-8.27376E-04-5.32410E-14
 -1      2377 1.30437E-02-7.55549E-04-5.42368E-14
 -1      2378 1.28681E-02-8.27524E-04-5.25639E-14
 -1      2379 1.31893E-02-6.73586E-04-5.52370E-14
 -1      2380 1.33362E-02-5.84060E-04-5.62357E-14
 -1      2381 1.31679E-02-6.79406E-04-5.45596E-14
 -1      2382 1.34838E-02-4.88909E-04-5.72349E-14
 -1      2383 1.36314E-02-3.89849E-04-5.82373E-14
 -1      2384 1.34731E-02-4.97216E-04-5.65560E-14
 -1      2385 1.86536E-03 5.25230E-04-5.96975E-16
 -1      2386 1.72512E-03 5.12478E-04-4.81955E-16
 -1      2387 2.14546E-03 5.44516E-04-8.69029E-16
 -1      2388 2.00546E-03 5.35849E-04-7.26077E-16
 -1      2389 1.92466E-03 4.94612E-04-7.20845E-16
 -1      2390 2.42554E-03 5.57314E-04-1.19673E-15
 -1      2391 2.28549E-03 5.51621E-04-1.02566E-15
 -1      2392 2.20678E-03 5.11880E-04-1.01489E-15
 -1      2393 2.70596E-03 5.65431E-04-1.58218E-15
 -1      2394 2.56570E-03 5.61876E-04-1.38253E-15
 -1      2395 2.48873E-03 5.23201E-04-1.36525E-15
 -1      2396 2.98694E-03 5.70221E-04-2.02518E-15
 -1      2397 2.84638E-03 5.68179E-04-1.79610E-15
 -1      2398 2.77083E-03 5.30245E-04-1.77279E-15
 -1      2399 3.26855E-03 5.72691E-04-2.52528E-15
 -1      2400 3.12767E-03 5.71699E-04-2.26812E-15
 -1      2401 3.05324E-03 5.34266E-04-2.23721E-15
 -1      2402 3.55079E-03 5.73581E-04-3.08174E-15
 -1      2403 3.40960E-03 5.73299E-04-2.79620E-15
 -1      2404 3.33605E-03 5.36197E-04-2.75862E-15
 -1      2405 3.83363E-03 5.73419E-04-3.69628E-15
 -1      2406 3.69214E-03 5.73607E-04-3.38187E-15
 -1      2407 3.61929E-03 5.36714E-04-3.33697E-15
 -1      2408 4.11700E-03 5.72569E-04-4.36938E-15
 -1      2409 3.97526E-03 5.73063E-04-4.02566E-15
 -1      2410 3.90294E-03 5.36299E-04-3.97394E-15
 -1      2411 4.40085E-03 5.71270E-04-5.10257E-15
 -1      2412 4.25887E-03 5.71965E-04-4.72846E-15
 -1      2413 4.18696E-03 5.35281E-04-4.67016E-15
 -1      2414 4.68510E-03 5.69660E-04-5.89458E-15
 -1      2415 4.54293E-03 5.70497E-04-5.49087E-15
 -1      2416 4.47132E-03 5.33866E-04-5.42410E-15
 -1      2417 4.96971E-03 5.67803E-04-6.74765E-15
 -1      2418 4.82737E-03 5.68760E-04-6.31342E-15
 -1      2419 4.75599E-03 5.32172E-04-6.23781E-15
 -1      2420 5.25464E-03 5.65703E-04-7.65878E-15
 -1      2421 5.11214E-03 5.66783E-04-7.19612E-15
 -1      2422 5.04093E-03 5.30243E-04-7.11165E-15
 -1      2423 5.53989E-03 5.63317E-04-8.63032E-15
 -1      2424 5.39723E-03 5.64547E-04-8.13669E-15
 -1      2425 5.32612E-03 5.28069E-04-8.04445E-15
 -1      2426 5.82545E-03 5.60568E-04-9.65862E-15
 -1      2427 5.68263E-03 5.61991E-04-9.13780E-15
 -1      2428 5.61156E-03 5.25596E-04-9.03611E-15
 -1      2429 6.11138E-03 5.57351E-04-1.07425E-14
 -1      2430 5.96837E-03 5.59022E-04-1.01936E-14
 -1      2431 5.89728E-03 5.22737E-04-1.00842E-14
 -1      2432 6.39775E-03 5.53545E-04-1.18828E-14
 -1      2433 6.25450E-03 5.55526E-04-1.13057E-14
 -1      2434 6.18331E-03 5.19380E-04-1.11882E-14
 -1      2435 6.68468E-03 5.49021E-04-1.30802E-14
 -1      2436 6.54113E-03 5.51377E-04-1.24742E-14
 -1      2437 6.46972E-03 5.15399E-04-1.23486E-14
 -1      2438 6.97234E-03 5.43657E-04-1.43316E-14
 -1      2439 6.82840E-03 5.46446E-04-1.36991E-14
 -1      2440 6.75662E-03 5.10662E-04-1.35637E-14
 -1      2441 7.26094E-03 5.37355E-04-1.56362E-14
 -1      2442 7.11650E-03 5.40622E-04-1.49768E-14
 -1      2443 7.04413E-03 5.05047E-04-1.48315E-14
 -1      2444 7.55079E-03 5.30074E-04-1.69938E-14
 -1      2445 7.40568E-03 5.33831E-04-1.63094E-14
 -1      2446 7.33244E-03 4.98466E-04-1.61547E-14
 -1      2447 7.84222E-03 5.21869E-04-1.83976E-14
 -1      2448 7.69626E-03 5.26072E-04-1.76896E-14
 -1      2449 7.62176E-03 4.90891E-04-1.75265E-14
 -1      2450 8.13570E-03 5.12954E-04-1.98518E-14
 -1      2451 7.98865E-03 5.17473E-04-1.91186E-14
 -1      2452 7.91236E-03 4.82401E-04-1.89469E-14
 -1      2453 8.43174E-03 5.03797E-04-2.13520E-14
 -1      2454 8.28333E-03 5.08360E-04-2.05958E-14
 -1      2455 8.20457E-03 4.73254E-04-2.04158E-14
 -1      2456 8.73095E-03 4.95248E-04-2.28972E-14
 -1      2457 8.58087E-03 4.99373E-04-2.21182E-14
 -1      2458 8.49877E-03 4.63976E-04-2.19314E-14
 -1      2459 9.03406E-03 4.88738E-04-2.44795E-14
 -1      2460 8.88193E-03 4.91625E-04-2.36839E-14
 -1      2461 8.79539E-03 4.55507E-04-2.34882E-14
 -1      2462 9.34185E-03 4.86537E-04-2.60954E-14
 -1      2463 9.18727E-03 4.86928E-04-2.52833E-14
 -1      2464 9.09497E-03 4.49393E-04-2.50816E-14
 -1      2465 9.65525E-03 4.92111E-04-2.77427E-14
 -1      2466 9.49775E-03 4.88100E-04-2.69143E-14
 -1      2467 9.39817E-03 4.48050E-04-2.67094E-14
 -1      2468 9.97532E-03 5.10522E-04-2.94267E-14
 -1      2469 9.81437E-03 4.99348E-04-2.85815E-14
 -1      2470 9.70592E-03 4.55102E-04-2.83707E-14
 -1      2471 1.03033E-02 5.48793E-04-3.11475E-14
 -1      2472 1.01383E-02 5.26671E-04-3.02831E-14
 -1      2473 1.00196E-02 4.75772E-04-3.00681E-14
 -1      2474 1.06407E-02 6.15929E-04-3.29030E-14
 -1      2475 1.04709E-02 5.78107E-04-3.20199E-14
 -1      2476 1.03412E-02 5.17240E-04-3.17998E-14
 -1      2477 1.09887E-02 7.21941E-04-3.46956E-14
 -1      2478 1.08136E-02 6.63394E-04-3.37949E-14
 -1      2479 1.06738E-02 5.88751E-04-3.35659E-14
 -1      2480 1.13470E-02 8.74686E-04-3.65216E-14
 -1      2481 1.11672E-02 7.92078E-04-3.56046E-14
 -1      2482 1.10208E-02 7.00791E-04-3.53674E-14
 -1      2483 1.17113E-02 1.07294E-03-3.83823E-14
 -1      2484 1.15296E-02 9.68787E-04-3.74472E-14
 -1      2485 1.13839E-02 8.62140E-04-3.72005E-14
 -1      2486 1.20708E-02 1.29484E-03-4.02740E-14
 -1      2487 1.18931E-02 1.18356E-03-3.93256E-14
 -1      2488 1.17589E-02 1.07176E-03-3.90698E-14
 -1      2489 1.24123E-02 1.49048E-03-4.21947E-14
 -1      2490 1.22442E-02 1.40007E-03-4.12300E-14
 -1      2491 1.21317E-02 1.30310E-03-4.09690E-14
 -1      2492 1.27307E-02 1.59742E-03-4.41416E-14
 -1      2493 1.25722E-02 1.55967E-03-4.31637E-14
 -1      2494 1.24838E-02 1.49777E-03-4.28957E-14
 -1      2495 1.30416E-02 1.57311E-03-4.61131E-14
 -1      2496 1.28840E-02 1.60079E-03-4.51234E-14
 -1      2497 1.28160E-02 1.57904E-03-4.48474E-14
 -1      2498 1.33635E-02 1.43905E-03-4.81091E-14
 -1      2499 1.32004E-02 1.51661E-03-4.71070E-14
 -1      2500 1.31474E-02 1.51490E-03-4.68238E-14
 -1      2501 1.36966E-02 1.24720E-03-5.01336E-14
 -1      2502 1.35294E-02 1.34659E-03-4.91190E-14
 -1      2503 1.34959E-02 1.34833E-03-4.88273E-14
 -1      2504 1.40294E-02 1.04396E-03-5.21896E-14
 -1      2505 1.38645E-02 1.14523E-03-5.11577E-14
 -1      2506 1.38526E-02 1.14393E-03-5.08608E-14
 -1      2507 1.43500E-02 8.46808E-04-5.42665E-14
 -1      2508 1.41922E-02 9.44892E-04-5.32252E-14
 -1      2509 1.42002E-02 9.44240E-04-5.29200E-14
 -1      2510 1.45063E-02 7.47153E-04-5.53380E-14
 -1      2511 1.54511E-02 4.41005E-04-5.67019E-14
 -1      2512 1.53299E-02 4.68800E-04-5.64759E-14
 -1      2513 1.56118E-02 4.14094E-04-5.71369E-14
 -1      2514 1.55485E-02 4.24110E-04-5.69211E-14
 -1      2515 1.54095E-02 4.41054E-04-5.59838E-14
 -1      2516 1.49039E-02 6.03427E-04-5.57055E-14
 -1      2517 1.47702E-02 6.54180E-04-5.54668E-14
 -1      2518 1.51837E-02 5.08980E-04-5.61727E-14
 -1      2519 1.50429E-02 5.53326E-04-5.59393E-14
 -1      2520 1.48324E-02 6.30393E-04-5.49202E-14
 -1      2521 1.56147E-02 4.07963E-04-5.75661E-14
 -1      2522 1.56357E-02 4.12026E-04-5.73524E-14
 -1      2523 1.55535E-02 4.11721E-04-5.64208E-14
 -1      2524 1.54526E-02 3.87767E-04-5.79760E-14
 -1      2525 1.55510E-02 4.02737E-04-5.77745E-14
 -1      2526 1.55092E-02 3.98270E-04-5.68466E-14
 -1      2527 1.51795E-02 3.30020E-04-5.83847E-14
 -1      2528 1.53242E-02 3.64054E-04-5.81810E-14
 -1      2529 1.52916E-02 3.57648E-04-5.72620E-14
 -1      2530 1.48744E-02 2.39262E-04-5.87839E-14
 -1      2531 1.50267E-02 2.87119E-04-5.85838E-14
 -1      2532 1.49832E-02 2.71691E-04-5.76681E-14
 -1      2533 1.45895E-02 1.33748E-04-5.91789E-14
 -1      2534 1.47278E-02 1.86656E-04-5.89820E-14
 -1      2535 1.46696E-02 1.56840E-04-5.80695E-14
 -1      2536 1.43439E-02 2.74183E-05-5.95721E-14
 -1      2537 1.44619E-02 7.96355E-05-5.93765E-14
 -1      2538 1.43935E-02 3.65076E-05-5.84695E-14
 -1      2539 1.41351E-02-7.35282E-05-5.99678E-14
 -1      2540 1.42356E-02-2.42199E-05-5.97703E-14
 -1      2541 1.41622E-02-7.65489E-05-5.88695E-14
 -1      2542 1.53652E-02 4.09975E-04-5.36553E-14
 -1      2543 1.53947E-02 4.01339E-04-5.36910E-14
 -1      2544 1.46458E-02 6.45750E-04-5.17019E-14
 -1      2545 1.48499E-02 5.64294E-04-5.21800E-14
 -1      2546 1.58459E-03 4.97044E-04-3.79999E-16
 -1      2547 1.44365E-03 4.78717E-04-2.91068E-16
 -1      2548 1.64192E-03 4.69189E-04-4.81454E-16
 -1      2549 1.40418E-02-1.07899E-04-6.07899E-14
 -1      2550 1.53880E-02 3.89619E-04-5.38845E-14
 -1      2551 1.53444E-02 3.81871E-04-5.40751E-14
 -1      2552 1.54192E-02 3.98023E-04-5.44668E-14
 -1      2553 1.50598E-02 4.90493E-04-5.27101E-14
 -1      2554 1.52319E-02 4.43961E-04-5.32416E-14
 -1      2555 1.49767E-02 5.18708E-04-5.29134E-14
 -1      2556 5.88507E-04-2.37943E-04-1.92663E-16
 -1      2557 7.81345E-04-3.04755E-04-3.02126E-16
 -1      2558 8.40757E-04-2.93561E-04-3.55849E-16
 -1      2559 5.78984E-04-2.10170E-04-1.96878E-16
 -1      2560 1.52190E-02 3.49483E-04-5.38985E-14
 -1      2561 1.50653E-02 3.08259E-04-5.37199E-14
 -1      2562 1.04448E-02 1.64818E-04-4.06838E-14
 -1      2563 1.03659E-02 1.87816E-04-4.04842E-14
 -1      2564 1.23136E-02 1.33125E-03-4.33350E-14
 -1      2565 1.24800E-02 1.42873E-03-4.39756E-14
 -1      2566 5.46556E-04-2.28952E-05-1.71277E-16
 -1      2567 5.47016E-04-3.89323E-05-1.76427E-16
 -1      2568 6.62472E-04-5.58034E-05-2.42238E-16
 -1      2569 6.61237E-04-1.77015E-05-2.28943E-16
 -1      2570 1.29504E-02 1.51849E-03-4.60089E-14
 -1      2571 1.31181E-02 1.47264E-03-4.67765E-14
 -1      2572 1.26147E-02 1.48467E-03-4.45276E-14
 -1      2573 1.27408E-02 1.51647E-03-4.50827E-14
 -1      2574 1.25248E-02 1.45333E-03-4.39519E-14
 -1      2575 1.06200E-02 3.19162E-04-4.00649E-14
 -1      2576 1.08159E-02 3.96791E-04-4.02248E-14
 -1      2577 1.14314E-02 7.27263E-04-4.10706E-14
 -1      2578 1.15972E-02 8.34293E-04-4.13419E-14
 -1      2579 1.28853E-02-7.79195E-04-4.92794E-14
 -1      2580 1.27516E-02-8.12202E-04-4.87427E-14
 -1      2581 1.10393E-02 5.02936E-04-4.04429E-14
 -1      2582 1.12340E-02 6.09403E-04-4.07565E-14
 -1      2583 1.13113E-02 6.49244E-04-4.04570E-14
 -1      2584 1.03829E-02 2.38508E-04-3.99786E-14
 -1      2585 1.04601E-02 2.60134E-04-3.99065E-14
 -1      2586 1.03307E-02 2.06972E-04-4.02782E-14
 -1      2587 1.03367E-02 2.18614E-04-4.01272E-14
 -1      2588 1.06926E-02 8.16729E-05-4.12719E-14
 -1      2589 1.05697E-02 1.22952E-04-4.09560E-14
 -1      2590 1.15240E-02-3.17402E-04-4.37916E-14
 -1      2591 1.13700E-02-2.29917E-04-4.33072E-14
 -1      2592 1.18927E-02-5.36227E-04-4.50303E-14
 -1      2593 1.17119E-02-4.26357E-04-4.44102E-14
 -1      2594 1.16246E-02-3.85403E-04-4.39632E-14
 -1      2595 1.22054E-02-7.08106E-04-4.62625E-14
 -1      2596 1.20709E-02-6.36651E-04-4.57028E-14
 -1      2597 1.25416E-02-8.16642E-04-4.77976E-14
 -1      2598 1.23745E-02-7.75234E-04-4.70023E-14
 -1      2599 1.31844E-02-6.43102E-04-5.04475E-14
 -1      2600 1.30339E-02-7.23178E-04-4.98635E-14
 -1      2601 1.29583E-02-7.47649E-04-4.98799E-14
 -1      2602 1.35559E-02-4.21776E-04-5.15177E-14
 -1      2603 1.33756E-02-5.35522E-04-5.10232E-14
 -1      2604 1.40014E-02-1.57694E-04-5.24361E-14
 -1      2605 1.37963E-02-2.77202E-04-5.20763E-14
 -1      2606 1.44318E-02 6.68541E-05-5.31523E-14
 -1      2607 1.42156E-02-4.25743E-05-5.27930E-14
 -1      2608 1.41021E-02-8.74915E-05-5.30958E-14
 -1      2609 1.48979E-02 2.52855E-04-5.35743E-14
 -1      2610 1.47044E-02 1.82893E-04-5.34279E-14
 -1      2611 1.49934E-02 2.93307E-04-5.41564E-14
 -1      2612 1.33214E-02 1.38221E-03-4.76048E-14
 -1      2613 1.35067E-02 1.27585E-03-4.83175E-14
 -1      2614 7.57940E-04 3.34186E-04-3.03848E-17
 -1      2615 6.11515E-04 2.84828E-04-8.70072E-18
 -1      2616 5.84786E-04 2.58058E-04-1.97596E-17
 -1      2617 8.13761E-04 3.22855E-04-7.01208E-17
 -1      2618 1.41741E-02 8.84091E-04-5.03694E-14
 -1      2619 1.43890E-02 7.67910E-04-5.09887E-14
 -1      2620 1.40709E-02 9.35036E-04-5.03296E-14
 -1      2621 1.32075E-02 1.43754E-03-4.71859E-14
 -1      2622 6.70184E-04-1.37952E-04-2.61089E-16
 -1      2623 5.54543E-04-1.26216E-04-1.94330E-16
 -1      2624 5.57741E-04-1.46213E-04-1.95536E-16
 -1      2625 1.35788E-03 4.32695E-04-2.94524E-16
 -1      2626 5.72279E-04 2.27860E-04-3.88280E-17
 -1      2627 1.52951E-02 3.71868E-04-5.44812E-14
 -1      2628 1.45698E-02 1.36776E-04-5.37305E-14
 -1      2629 1.45285E-02 7.53612E-04-5.50300E-14
 -1      2630 1.51375E-02 5.16151E-04-5.54611E-14
 -1      2631 1.46038E-02 7.24820E-04-5.51051E-14
 -1      2632 1.32672E-02-5.86680E-04-5.10415E-14
 -1      2633 1.26297E-02-8.26393E-04-4.83455E-14
 -1      2634 1.25207E-02-8.24799E-04-4.79491E-14
 -1      2635 1.27042E-02-8.20350E-04-4.88974E-14
 -1      2636 1.19681E-02-5.90404E-04-4.52516E-14
 -1      2637 6.89563E-04 2.51209E-04-7.38748E-17
 -1      2638 1.21930E-02 1.25261E-03-4.27361E-14
 -1      2639 1.22821E-02 1.32115E-03-4.28011E-14
 -1      2640 1.20734E-02 1.16914E-03-4.21394E-14
 -1      2641 5.71744E-04-1.85292E-04-1.98626E-16
 -1      2642 1.04766E-02 1.44181E-04-4.03852E-14
 -1      2643 1.03298E-02 1.92460E-04-3.99068E-14
 -1      2644 1.07875E-02 4.00246E-05-4.13417E-14
 -1      2645 1.06847E-02 6.25352E-05-4.07246E-14
 -1      2646 1.08790E-02-8.48942E-06-4.14086E-14
 -1      2647 1.09070E-02 4.33498E-04-3.99285E-14
 -1      2648 1.04481E-02 2.51398E-04-3.90530E-14
 -1      2649 1.05271E-02 2.77635E-04-3.95574E-14
 -1      2650 1.05987E-02 3.00456E-04-3.92057E-14
 -1      2651 1.12235E-02-1.60362E-04-4.26866E-14
 -1      2652 1.45251E-02 6.99026E-04-5.16643E-14
 -1      2653 1.45228E-02 7.71399E-04-5.43230E-14
 -1      2654 1.36265E-02 1.20151E-03-4.88635E-14
 -1      2655 1.37459E-02 1.12785E-03-4.94095E-14
 -1      2656 1.35220E-02 1.26768E-03-4.85601E-14
 -1      2657 1.17278E-02 9.19274E-04-4.14198E-14
 -1      2658 1.18422E-02 1.00346E-03-4.14998E-14
 -1      2659 1.16201E-02 8.48159E-04-4.08478E-14
 -1      2660 1.28403E-02 1.52925E-03-4.54290E-14
 -1      2661 1.03401E-02 2.19128E-04-3.95509E-14
 -1      2662 1.22855E-02-7.53459E-04-4.66622E-14
 -1      2663 1.38625E-02-2.28505E-04-5.98519E-14
 -1      2664 1.40221E-02-1.36850E-04-5.99229E-14
 -1      2665 1.39471E-02-1.93912E-04-5.90269E-14
 -1      2666 1.37346E-02-3.18710E-04-5.89503E-14
 -1      2667 1.36709E-02-3.39500E-04-5.21763E-14
 -1      2668 1.37327E-02-3.28609E-04-5.82722E-14
 -1      2669 7.80152E-04 7.73213E-05-2.51576E-16
 -1      2670 7.78887E-04 5.54628E-05-2.63393E-16
 -1      2671 7.78038E-04 3.35543E-05-2.74615E-16
 -1      2672 7.77614E-04 1.18938E-05-2.85226E-16
 -1      2673 8.96443E-04 4.96738E-05-3.43082E-16
 -1      2674 7.91522E-04 1.73108E-04-1.92419E-16
 -1      2675 7.87508E-04 1.47695E-04-2.09305E-16
 -1      2676 8.03405E-04 2.28302E-04-1.53794E-16
 -1      2677 7.96772E-04 1.99912E-04-1.74109E-16
 -1      2678 9.14824E-04 2.07803E-04-2.39351E-16
 -1      2679 1.12985E-03 3.61927E-04-2.20811E-16
 -1      2680 9.86244E-04 3.32859E-04-1.59811E-16
 -1      2681 1.39738E-02 9.92074E-04-5.02698E-14
 -1      2682 1.41640E-02 8.82636E-04-5.08898E-14
 -1      2683 1.31465E-02 1.47316E-03-4.69056E-14
 -1      2684 1.33192E-02 1.38483E-03-4.77358E-14
 -1      2685 8.03111E-04 2.78209E-04-1.08434E-16
 -1      2686 1.47111E-02 2.00906E-04-5.44075E-14
 -1      2687 1.44631E-02 9.79394E-05-5.41270E-14
 -1      2688 1.32016E-03-3.62745E-04-7.96577E-16
 -1      2689 1.46339E-03-3.81732E-04-9.59072E-16
 -1      2690 1.60644E-03-3.97817E-04-1.13641E-15
 -1      2691 1.74937E-03-4.11234E-04-1.32903E-15
 -1      2692 1.52498E-03-3.55405E-04-1.04258E-15
 -1      2693 1.89215E-03-4.22450E-04-1.53661E-15
 -1      2694 2.03480E-03-4.31653E-04-1.75879E-15
 -1      2695 1.81167E-03-3.81320E-04-1.42436E-15
 -1      2696 2.17736E-03-4.39219E-04-1.99659E-15
 -1      2697 2.31982E-03-4.45301E-04-2.24884E-15
 -1      2698 2.09812E-03-3.99194E-04-1.86570E-15
 -1      2699 2.46224E-03-4.50188E-04-2.51622E-15
 -1      2700 2.60460E-03-4.54002E-04-2.79839E-15
 -1      2701 2.38430E-03-4.11046E-04-2.36615E-15
 -1      2702 2.74696E-03-4.56962E-04-3.09590E-15
 -1      2703 2.88929E-03-4.59161E-04-3.40856E-15
 -1      2704 2.67024E-03-4.18496E-04-2.92600E-15
 -1      2705 3.03164E-03-4.60763E-04-3.73521E-15
 -1      2706 3.17398E-03-4.61840E-04-4.07651E-15
 -1      2707 2.95602E-03-4.22800E-04-3.54503E-15
 -1      2708 3.31636E-03-4.62508E-04-4.43313E-15
 -1      2709 3.45875E-03-4.62822E-04-4.80409E-15
 -1      2710 3.24168E-03-4.24912E-04-4.22268E-15
 -1      2711 3.60117E-03-4.62865E-04-5.18857E-15
 -1      2712 3.74361E-03-4.62675E-04-5.58761E-15
 -1      2713 3.52729E-03-4.25534E-04-4.95784E-15
 -1      2714 3.88610E-03-4.62309E-04-6.00091E-15
 -1      2715 4.02860E-03-4.61793E-04-6.42742E-15
 -1      2716 3.81288E-03-4.25170E-04-5.74959E-15
 -1      2717 4.17114E-03-4.61164E-04-6.86749E-15
 -1      2718 4.31371E-03-4.60438E-04-7.32068E-15
 -1      2719 4.09846E-03-4.24169E-04-6.59680E-15
 -1      2720 4.45631E-03-4.59636E-04-7.78721E-15
 -1      2721 4.59894E-03-4.58768E-04-8.26620E-15
 -1      2722 4.38405E-03-4.22756E-04-7.49757E-15
 -1      2723 4.74160E-03-4.57843E-04-8.75649E-15
 -1      2724 4.88428E-03-4.56863E-04-9.25983E-15
 -1      2725 4.66966E-03-4.21064E-04-8.44879E-15
 -1      2726 5.02700E-03-4.55828E-04-9.77675E-15
 -1      2727 5.16974E-03-4.54739E-04-1.03061E-14
 -1      2728 4.95530E-03-4.19154E-04-9.45035E-15
 -1      2729 5.31251E-03-4.53586E-04-1.08487E-14
 -1      2730 5.45531E-03-4.52367E-04-1.14054E-14
 -1      2731 5.24097E-03-4.17030E-04-1.05050E-14
 -1      2732 5.59814E-03-4.51069E-04-1.19756E-14
 -1      2733 5.74101E-03-4.49684E-04-1.25596E-14
 -1      2734 5.52668E-03-4.14652E-04-1.16137E-14
 -1      2735 5.88390E-03-4.48197E-04-1.31586E-14
 -1      2736 6.02683E-03-4.46600E-04-1.37709E-14
 -1      2737 5.81243E-03-4.11951E-04-1.27774E-14
 -1      2738 6.16980E-03-4.44875E-04-1.43969E-14
 -1      2739 6.31282E-03-4.43012E-04-1.50368E-14
 -1      2740 6.09823E-03-4.08834E-04-1.39985E-14
 -1      2741 6.45588E-03-4.40994E-04-1.56899E-14
 -1      2742 6.59901E-03-4.38812E-04-1.63567E-14
 -1      2743 6.38410E-03-4.05197E-04-1.52719E-14
 -1      2744 6.74219E-03-4.36453E-04-1.70371E-14
 -1      2745 6.88544E-03-4.33909E-04-1.77291E-14
 -1      2746 6.67005E-03-4.00935E-04-1.65995E-14
 -1      2747 7.02877E-03-4.31171E-04-1.84350E-14
 -1      2748 7.17220E-03-4.28240E-04-1.91526E-14
 -1      2749 6.95609E-03-3.95958E-04-1.79797E-14
 -1      2750 7.31572E-03-4.25117E-04-1.98823E-14
 -1      2751 7.45937E-03-4.21809E-04-2.06220E-14
 -1      2752 7.24228E-03-3.90212E-04-1.94090E-14
 -1      2753 7.60314E-03-4.18335E-04-2.13732E-14
 -1      2754 7.74708E-03-4.14716E-04-2.21352E-14
 -1      2755 7.52866E-03-3.83706E-04-2.08834E-14
 -1      2756 7.89119E-03-4.10996E-04-2.29078E-14
 -1      2757 8.03551E-03-4.07215E-04-2.36915E-14
 -1      2758 7.81532E-03-3.76552E-04-2.24023E-14
 -1      2759 8.18006E-03-4.03452E-04-2.44881E-14
 -1      2760 8.32490E-03-3.99776E-04-2.52953E-14
 -1      2761 8.10240E-03-3.69015E-04-2.39648E-14
 -1      2762 8.47003E-03-3.96310E-04-2.61128E-14
 -1      2763 8.61556E-03-3.93166E-04-2.69399E-14
 -1      2764 8.39011E-03-3.61573E-04-2.55748E-14
 -1      2765 8.76151E-03-3.90519E-04-2.77764E-14
 -1      2766 8.90798E-03-3.88540E-04-2.86217E-14
 -1      2767 8.67879E-03-3.54996E-04-2.72255E-14
 -1      2768 9.05504E-03-3.87466E-04-2.94751E-14
 -1      2769 9.20282E-03-3.87544E-04-3.03357E-14
 -1      2770 8.96900E-03-3.50435E-04-2.89111E-14
 -1      2771 9.35143E-03-3.89072E-04-3.12058E-14
 -1      2772 9.50099E-03-3.92398E-04-3.20831E-14
 -1      2773 9.26155E-03-3.49523E-04-3.06301E-14
 -1      2774 9.65174E-03-3.97866E-04-3.29675E-14
 -1      2775 9.80375E-03-4.05948E-04-3.38582E-14
 -1      2776 9.55767E-03-3.54469E-04-3.23798E-14
 -1      2777 9.95736E-03-4.16998E-04-3.47561E-14
 -1      2778 1.01126E-02-4.31615E-04-3.56616E-14
 -1      2779 9.85904E-03-3.68147E-04-3.41580E-14
 -1      2780 1.02698E-02-4.50099E-04-3.65740E-14
 -1      2781 1.04290E-02-4.73120E-04-3.74909E-14
 -1      2782 1.01678E-02-3.94124E-04-3.59644E-14
 -1      2783 1.05905E-02-5.00809E-04-3.84121E-14
 -1      2784 1.07538E-02-5.33727E-04-3.93388E-14
 -1      2785 1.04863E-02-4.36506E-04-3.77954E-14
 -1      2786 1.09194E-02-5.71685E-04-4.02703E-14
 -1      2787 1.10861E-02-6.14631E-04-4.12046E-14
 -1      2788 1.08160E-02-4.99288E-04-3.96444E-14
 -1      2789 1.12541E-02-6.61796E-04-4.21458E-14
 -1      2790 1.14218E-02-7.11872E-04-4.30954E-14
 -1      2791 1.11560E-02-5.84500E-04-4.15124E-14
 -1      2792 1.15888E-02-7.63175E-04-4.40477E-14
 -1      2793 1.17536E-02-8.12406E-04-4.50072E-14
 -1      2794 1.15013E-02-6.88319E-04-4.34027E-14
 -1      2795 1.19155E-02-8.57061E-04-4.59759E-14
 -1      2796 1.20740E-02-8.92040E-04-4.69492E-14
 -1      2797 1.18424E-02-7.95313E-04-4.53223E-14
 -1      2798 1.22285E-02-9.14617E-04-4.79314E-14
 -1      2799 1.23809E-02-9.20664E-04-4.89136E-14
 -1      2800 1.21700E-02-8.75345E-04-4.72678E-14
 -1      2801 1.25304E-02-9.08795E-04-4.99014E-14
 -1      2802 1.26811E-02-8.77599E-04-5.08961E-14
 -1      2803 1.24832E-02-8.93488E-04-4.92344E-14
 -1      2804 1.28322E-02-8.27755E-04-5.18896E-14
 -1      2805 1.29860E-02-7.62748E-04-5.28852E-14
 -1      2806 1.27934E-02-8.28487E-04-5.12159E-14
 -1      2807 1.31417E-02-6.84485E-04-5.38817E-14
 -1      2808 1.32996E-02-5.97285E-04-5.48776E-14
 -1      2809 1.31122E-02-6.90211E-04-5.32042E-14
 -1      2810 1.34588E-02-5.03391E-04-5.58766E-14
 -1      2811 1.36177E-02-4.05727E-04-5.68771E-14
 -1      2812 1.34413E-02-5.08409E-04-5.51951E-14
 -1      2813 2.26924E-03 4.78605E-04-1.16510E-15
 -1      2814 2.12742E-03 4.71747E-04-1.00034E-15
 -1      2815 1.37732E-02-2.67069E-04-5.29133E-14
 -1      2816 1.35607E-02-3.99358E-04-5.23532E-14
 -1      2817 1.33490E-02-5.29189E-04-5.16750E-14
 -1      2818 1.31828E-02-6.30000E-04-5.10978E-14
 -1      2819 1.98550E-03 4.63268E-04-8.49418E-16
 -1      2820 1.84345E-03 4.53004E-04-7.11928E-16
 -1      2821 2.04765E-03 4.31340E-04-9.82368E-16
 -1      2822 2.83631E-03 4.94600E-04-1.96762E-15
 -1      2823 2.69454E-03 4.91986E-04-1.74585E-15
 -1      2824 3.11998E-03 4.97935E-04-2.45358E-15
 -1      2825 2.97813E-03 4.96556E-04-2.20330E-15
 -1      2826 2.90242E-03 4.58586E-04-2.16679E-15
 -1      2827 3.40387E-03 4.99397E-04-2.99675E-15
 -1      2828 3.26191E-03 4.98862E-04-2.71816E-15
 -1      2829 3.18720E-03 4.61300E-04-2.67421E-15
 -1      2830 3.68801E-03 4.99604E-04-3.59763E-15
 -1      2831 3.54591E-03 4.99630E-04-3.28994E-15
 -1      2832 3.47204E-03 4.62351E-04-3.23968E-15
 -1      2833 3.97239E-03 4.98989E-04-4.25663E-15
 -1      2834 3.83017E-03 4.99380E-04-3.91977E-15
 -1      2835 3.75698E-03 4.62298E-04-3.86240E-15
 -1      2836 4.25701E-03 4.97845E-04-4.97402E-15
 -1      2837 4.11467E-03 4.98471E-04-4.60774E-15
 -1      2838 4.04202E-03 4.61526E-04-4.54315E-15
 -1      2839 4.54185E-03 4.96350E-04-5.75041E-15
 -1      2840 4.39941E-03 4.97134E-04-5.35496E-15
 -1      2841 4.32718E-03 4.60291E-04-5.28279E-15
 -1      2842 4.82689E-03 4.94600E-04-6.58584E-15
 -1      2843 4.68435E-03 4.95504E-04-6.16087E-15
 -1      2844 4.61245E-03 4.58746E-04-6.08105E-15
 -1      2845 5.11213E-03 4.92624E-04-7.48024E-15
 -1      2846 4.96949E-03 4.93640E-04-7.02532E-15
 -1      2847 4.89783E-03 4.56966E-04-6.93706E-15
 -1      2848 5.39754E-03 4.90397E-04-8.43299E-15
 -1      2849 5.25481E-03 4.91544E-04-7.94913E-15
 -1      2850 5.18332E-03 4.54965E-04-7.85198E-15
 -1      2851 5.68315E-03 4.87857E-04-9.44569E-15
 -1      2852 5.54032E-03 4.89170E-04-8.93286E-15
 -1      2853 5.46891E-03 4.52707E-04-8.82615E-15
 -1      2854 5.96896E-03 4.84909E-04-1.05128E-14
 -1      2855 5.82603E-03 4.86439E-04-9.97199E-15
 -1      2856 5.75463E-03 4.50122E-04-9.85750E-15
 -1      2857 6.25502E-03 4.81437E-04-1.16371E-14
 -1      2858 6.11196E-03 4.83245E-04-1.10680E-14
 -1      2859 6.04048E-03 4.47110E-04-1.09451E-14
 -1      2860 6.54138E-03 4.77312E-04-1.28152E-14
 -1      2861 6.39815E-03 4.79462E-04-1.22190E-14
 -1      2862 6.32649E-03 4.43554E-04-1.20877E-14
 -1      2863 6.82810E-03 4.72404E-04-1.40489E-14
 -1      2864 6.68468E-03 4.74962E-04-1.34260E-14
 -1      2865 6.61268E-03 4.39325E-04-1.32850E-14
 -1      2866 7.11529E-03 4.66598E-04-1.53336E-14
 -1      2867 6.97162E-03 4.69617E-04-1.46845E-14
 -1      2868 6.89909E-03 4.34297E-04-1.45352E-14
 -1      2869 7.40307E-03 4.59813E-04-1.66732E-14
 -1      2870 7.25909E-03 4.63328E-04-1.59964E-14
 -1      2871 7.18578E-03 4.28366E-04-1.58372E-14
 -1      2872 7.69157E-03 4.52045E-04-1.80612E-14
 -1      2873 7.54720E-03 4.56047E-04-1.73613E-14
 -1      2874 7.47279E-03 4.21468E-04-1.71933E-14
 -1      2875 7.98097E-03 4.43403E-04-1.94971E-14
 -1      2876 7.83612E-03 4.47820E-04-1.87724E-14
 -1      2877 7.76017E-03 4.13622E-04-1.85982E-14
 -1      2878 8.27145E-03 4.34190E-04-2.09821E-14
 -1      2879 8.12603E-03 4.38842E-04-2.02342E-14
 -1      2880 8.04799E-03 4.04975E-04-2.00493E-14
 -1      2881 8.56324E-03 4.24995E-04-2.25099E-14
 -1      2882 8.41714E-03 4.29545E-04-2.17403E-14
 -1      2883 8.33629E-03 3.95876E-04-2.15478E-14
 -1      2884 8.85662E-03 4.16836E-04-2.40811E-14
 -1      2885 8.70968E-03 4.20712E-04-2.32918E-14
 -1      2886 8.62515E-03 3.86972E-04-2.30916E-14
 -1      2887 9.15195E-03 4.11345E-04-2.56875E-14
 -1      2888 9.00397E-03 4.13640E-04-2.48808E-14
 -1      2889 8.91467E-03 3.79342E-04-2.46760E-14
 -1      2890 9.44980E-03 4.11019E-04-2.73268E-14
 -1      2891 9.30046E-03 4.10356E-04-2.65028E-14
 -1      2892 9.20508E-03 3.74665E-04-2.62941E-14
 -1      2893 9.75116E-03 4.19532E-04-2.90015E-14
 -1      2894 9.59992E-03 4.13898E-04-2.81585E-14
 -1      2895 9.49689E-03 3.75440E-04-2.79466E-14
 -1      2896 1.00578E-02 4.42101E-04-3.07095E-14
 -1      2897 9.90366E-03 4.28648E-04-2.98517E-14
 -1      2898 9.79124E-03 3.85257E-04-2.96316E-14
 -1      2899 1.03728E-02 4.85869E-04-3.24519E-14
 -1      2900 1.02141E-02 4.60724E-04-3.15772E-14
 -1      2901 1.00904E-02 4.09139E-04-3.13516E-14
 -1      2902 1.07009E-02 5.60231E-04-3.42282E-14
 -1      2903 1.05350E-02 5.18343E-04-3.33355E-14
 -1      2904 1.03986E-02 4.54012E-04-3.31059E-14
 -1      2905 1.10482E-02 6.76462E-04-3.60386E-14
 -1      2906 1.08722E-02 6.12022E-04-3.51294E-14
 -1      2907 1.07226E-02 5.29546E-04-3.48910E-14
 -1      2908 1.14188E-02 8.45361E-04-3.78802E-14
 -1      2909 1.12312E-02 7.53438E-04-3.69553E-14
 -1      2910 1.10713E-02 6.48617E-04-3.67101E-14
 -1      2911 1.18097E-02 1.06751E-03-3.97578E-14
 -1      2912 1.16138E-02 9.50186E-04-3.88157E-14
 -1      2913 1.14521E-02 8.25570E-04-3.85613E-14
 -1      2914 1.22527E-02 1.33449E-03-4.20664E-14
 -1      2915 1.20565E-02 1.21190E-03-4.11095E-14
 -1      2916 1.26524E-02 1.52542E-03-4.41895E-14
 -1      2917 1.24673E-02 1.45621E-03-4.32151E-14
 -1      2918 1.28349E-02 1.55008E-03-4.51697E-14
 -1      2919 1.32875E-02 1.43287E-03-4.76367E-14
 -1      2920 1.31038E-02 1.50676E-03-4.66442E-14
 -1      2921 1.40248E-02 1.03269E-03-5.15872E-14
 -1      2922 1.38379E-02 1.13602E-03-5.05642E-14
 -1      2923 1.43660E-02 8.50854E-04-5.34680E-14
 -1      2924 1.41889E-02 9.43276E-04-5.24339E-14
 -1      2925 1.41952E-02 9.25993E-04-5.21321E-14
 -1      2926 1.45322E-02 7.63119E-04-5.38301E-14
 -1      2927 1.51088E-02 5.09890E-04-5.48058E-14
 -1      2928 1.49408E-02 5.71083E-04-5.44993E-14
 -1      2929 1.48017E-02 6.31178E-04-5.42832E-14
 -1      2930 1.46535E-02 7.00418E-04-5.40477E-14
 -1      2931 1.44851E-02 7.71824E-04-5.31988E-14
 -1      2932 1.47597E-02 6.31181E-04-5.36322E-14
 -1      2933 1.51197E-02 3.21028E-04-5.66045E-14
 -1      2934 1.52731E-02 3.61082E-04-5.63967E-14
 -1      2935 1.47709E-02 2.02032E-04-5.69573E-14
 -1      2936 1.49412E-02 2.64522E-04-5.67538E-14
 -1      2937 1.44569E-02 6.47917E-05-5.73636E-14
 -1      2938 1.46080E-02 1.32868E-04-5.71615E-14
 -1      2939 1.45469E-02 1.15435E-04-5.62511E-14
 -1      2940 1.41958E-02-6.62386E-05-5.77647E-14
 -1      2941 1.43202E-02-3.03363E-06-5.75627E-14
 -1      2942 1.42425E-02-3.75902E-05-5.66591E-14
 -1      2943 1.52737E-02 4.35801E-04-5.38631E-14
 -1      2944 1.53266E-02 4.20338E-04-5.36585E-14
 -1      2945 1.53944E-02 4.11212E-04-5.42774E-14
 -1      2946 7.88867E-04-2.52477E-04-3.29475E-16
 -1      2947 9.20057E-04-2.88261E-04-4.24384E-16
 -1      2948 1.54803E-02 4.02568E-04-5.54537E-14
 -1      2949 1.54711E-02 4.00991E-04-5.56457E-14
 -1      2950 1.70123E-03 4.40535E-04-5.87895E-16
 -1      2951 1.55877E-03 4.25655E-04-4.77198E-16
 -1      2952 1.76214E-03 4.11215E-04-6.99487E-16
 -1      2953 2.55277E-03 4.88540E-04-1.53825E-15
 -1      2954 2.41103E-03 4.84158E-04-1.34471E-15
 -1      2955 2.33276E-03 4.44818E-04-1.32057E-15
 -1      2956 2.61764E-03 4.53440E-04-1.71556E-15
 -1      2957 1.04827E-03-3.15829E-04-5.30636E-16
 -1      2958 1.19154E-03-3.41478E-04-6.64006E-16
 -1      2959 1.25306E-03-3.19914E-04-7.35767E-16
 -1      2960 9.96746E-04-2.74833E-04-4.95467E-16
 -1      2961 7.84355E-04 1.23442E-04-2.24484E-16
 -1      2962 7.81961E-04 1.00008E-04-2.38768E-16
 -1      2963 8.99564E-04 9.94368E-05-3.13741E-16
 -1      2964 9.05316E-04 1.51571E-04-2.79643E-16
 -1      2965 1.41610E-03 4.07830E-04-3.79308E-16
 -1      2966 1.27305E-03 3.86796E-04-2.93900E-16
 -1      2967 1.18968E-03 3.41473E-04-2.89509E-16
 -1      2968 1.47612E-03 3.82182E-04-4.68931E-16
 -1      2969 1.04893E-02 1.23204E-04-3.99595E-14
 -1      2970 1.03886E-02 1.55986E-04-3.96886E-14
 -1      2971 6.52868E-04-1.88374E-04-2.47862E-16
 -1      2972 1.13013E-02-2.19623E-04-4.26847E-14
 -1      2973 1.10919E-02-1.09385E-04-4.20276E-14
 -1      2974 7.81694E-04-9.79514E-05-3.27009E-16
 -1      2975 7.84013E-04-1.21299E-04-3.33080E-16
 -1      2976 1.20142E-02-6.36886E-04-4.54279E-14
 -1      2977 1.18606E-02-5.44279E-04-4.47581E-14
 -1      2978 1.03009E-02 2.04117E-04-3.90950E-14
 -1      2979 1.03383E-02 2.16255E-04-3.89455E-14
 -1      2980 1.12035E-02 5.88692E-04-3.97173E-14
 -1      2981 1.13766E-02 6.93356E-04-4.00277E-14
 -1      2982 1.23255E-02-7.85642E-04-4.69806E-14
 -1      2983 1.21838E-02-7.26483E-04-4.62411E-14
 -1      2984 1.03232E-02 1.78591E-04-3.94404E-14
 -1      2985 1.02939E-02 1.89807E-04-3.92351E-14
 -1      2986 1.43997E-02 7.59952E-04-5.16291E-14
 -1      2987 1.46366E-02 6.51588E-04-5.23469E-14
 -1      2988 1.07855E-02 3.76803E-04-3.92362E-14
 -1      2989 1.09839E-02 4.69288E-04-3.94506E-14
 -1      2990 1.16890E-02-4.43678E-04-4.40692E-14
 -1      2991 1.15244E-02-3.45710E-04-4.34546E-14
 -1      2992 1.38384E-02-2.65069E-04-5.83089E-14
 -1      2993 1.39500E-02-1.99691E-04-5.83490E-14
 -1      2994 1.37287E-02-3.35787E-04-5.75920E-14
 -1      2995 1.30079E-02-7.20778E-04-5.03855E-14
 -1      2996 1.28816E-02-7.75588E-04-4.97992E-14
 -1      2997 1.42021E-02-2.75216E-05-5.37676E-14
 -1      2998 1.40107E-02-1.31065E-04-5.34093E-14
 -1      2999 1.51188E-02 3.32100E-04-5.50234E-14
 -1      3000 1.49696E-02 2.91201E-04-5.48749E-14
 -1      3001 1.52278E-02 4.51109E-04-5.40936E-14
 -1      3002 1.53307E-02 4.31388E-04-5.45120E-14
 -1      3003 7.87073E-04-1.45436E-04-3.38041E-16
 -1      3004 7.90944E-04-1.70589E-04-3.41984E-16
 -1      3005 9.04842E-04-1.49037E-04-4.24655E-16
 -1      3006 1.43647E-02 5.00872E-05-5.44401E-14
 -1      3007 8.95415E-04 1.00994E-06-3.68669E-16
 -1      3008 7.77584E-04-9.71952E-06-2.94876E-16
 -1      3009 7.77949E-04-3.13634E-05-3.03956E-16
 -1      3010 1.05553E-02 9.21628E-05-4.00289E-14
 -1      3011 1.04427E-02 1.07329E-04-3.93344E-14
 -1      3012 1.06235E-02 5.48293E-05-4.00970E-14
 -1      3013 1.42984E-02 8.21004E-04-5.15698E-14
 -1      3014 1.37228E-02-3.40393E-04-5.69122E-14
 -1      3015 1.17460E-02-5.03325E-04-4.42446E-14
 -1      3016 1.34339E-02 1.32529E-03-4.82801E-14
 -1      3017 1.06660E-02 3.32898E-04-3.87335E-14
 -1      3018 8.64866E-04 2.66528E-04-1.54445E-16
 -1      3019 1.48744E-02 2.56428E-04-5.52712E-14
 -1      3020 1.34620E-02-4.59100E-04-5.24081E-14
 -1      3021 1.30951E-02-6.74927E-04-5.10167E-14
 -1      3022 1.19048E-02 1.08442E-03-4.08464E-14
 -1      3023 1.30013E-02 1.53435E-03-4.60975E-14
 -1      3024 1.34741E-02 1.34077E-03-4.86461E-14
 -1      3025 1.34547E-02 1.33057E-03-4.84607E-14
 -1      3026 1.36408E-02 1.21191E-03-4.92904E-14
 -1      3027 1.36625E-02 1.23645E-03-4.96567E-14
 -1      3028 1.38365E-02 1.11972E-03-5.03779E-14
 -1      3029 1.03196E-02 1.57829E-04-3.90190E-14
 -1      3030 1.38548E-02 1.06980E-03-4.99652E-14
 -1      3031 1.54048E-02 4.29757E-04-5.54726E-14
 -1      3032 1.52889E-02 4.59277E-04-5.52524E-14
 -1      3033 1.24112E-02-8.16982E-04-4.75266E-14
 -1      3034 1.23052E-02-8.03927E-04-4.71018E-14
 -1      3035 1.24849E-02-8.35382E-04-4.80728E-14
 -1      3036 1.27631E-02-8.09405E-04-4.94002E-14
 -1      3037 1.40484E-02-1.45697E-04-5.81469E-14
 -1      3038 9.82956E-04 2.75768E-04-2.18873E-16
 -1      3039 1.09598E-02-6.81137E-05-4.14083E-14
 -1      3040 1.54926E-02 3.99399E-04-5.64166E-14
 -1      3041 1.53963E-02 3.88613E-04-5.54288E-14
 -1      3042 1.19569E-02 1.09438E-03-4.15622E-14
 -1      3043 1.49022E-02 5.49103E-04-5.32048E-14
 -1      3044 1.50922E-02 4.89501E-04-5.37400E-14
 -1      3045 1.03707E-02 2.28017E-04-3.85963E-14
 -1      3046 1.04115E-02 2.43182E-04-3.82496E-14
 -1      3047 1.03055E-02 2.11591E-04-3.81444E-14
 -1      3048 1.38876E-02-2.02093E-04-5.35820E-14
 -1      3049 1.10515E-02 5.17568E-04-3.90260E-14
 -1      3050 1.02669E-02 1.88688E-04-3.86323E-14
 -1      3051 1.14895E-02 7.73297E-04-4.01044E-14
 -1      3052 7.78730E-04-5.31445E-05-3.12372E-16
 -1      3053 7.79952E-04-7.53297E-05-3.20029E-16
 -1      3054 8.99280E-04-9.70846E-05-4.09788E-16
 -1      3055 8.96313E-04-4.75215E-05-3.90760E-16
 -1      3056 1.20702E-02-6.89621E-04-4.57440E-14
 -1      3057 1.51730E-02 4.76596E-04-5.43884E-14
 -1      3058 7.69982E-04-2.02375E-04-3.25491E-16
 -1      3059 1.13738E-02-2.85697E-04-4.27895E-14
 -1      3060 1.47887E-02 6.01335E-04-5.31720E-14
 -1      3061 1.38404E-02-2.68465E-04-5.70776E-14
 -1      3062 1.40599E-02-1.41241E-04-5.75956E-14
 -1      3063 1.39748E-02-1.87010E-04-5.66930E-14
 -1      3064 1.37218E-02-3.38590E-04-5.63605E-14
 -1      3065 1.53854E-02 4.25322E-04-5.49888E-14
 -1      3066 1.54067E-02 4.14429E-04-5.47568E-14
 -1      3067 1.54301E-02 4.08907E-04-5.47543E-14
 -1      3068 1.54747E-02 4.17414E-04-5.57187E-14
 -1      3069 1.52754E-02 3.69610E-04-5.52489E-14
 -1      3070 1.49176E-02 2.64457E-04-5.58933E-14
 -1      3071 1.46669E-02 1.78074E-04-5.54235E-14
 -1      3072 1.04026E-03 2.43249E-04-2.90376E-16
 -1      3073 1.03363E-03 2.11527E-04-3.16316E-16
 -1      3074 1.55159E-02 4.06527E-04-5.59351E-14
 -1      3075 1.17788E-02-5.63321E-04-4.43736E-14
 -1      3076 1.16279E-02-4.75524E-04-4.36877E-14
 -1      3077 1.73166E-03-3.40476E-04-1.31552E-15
 -1      3078 1.87533E-03-3.50692E-04-1.51921E-15
 -1      3079 2.01898E-03-3.59192E-04-1.73777E-15
 -1      3080 2.16262E-03-3.66131E-04-1.97123E-15
 -1      3081 1.94013E-03-3.19380E-04-1.61356E-15
 -1      3082 2.30622E-03-3.71785E-04-2.21932E-15
 -1      3083 2.44976E-03-3.76282E-04-2.48208E-15
 -1      3084 2.22815E-03-3.32523E-04-2.07585E-15
 -1      3085 2.59325E-03-3.79842E-04-2.75934E-15
 -1      3086 2.73668E-03-3.82565E-04-3.05202E-15
 -1      3087 2.51612E-03-3.41079E-04-2.59666E-15
 -1      3088 2.88006E-03-3.84624E-04-3.35848E-15
 -1      3089 3.02338E-03-3.86093E-04-3.67976E-15
 -1      3090 2.80387E-03-3.46283E-04-3.17583E-15
 -1      3091 3.16666E-03-3.87102E-04-4.01618E-15
 -1      3092 3.30989E-03-3.87706E-04-4.36679E-15
 -1      3093 3.09136E-03-3.49105E-04-3.81337E-15
 -1      3094 3.45308E-03-3.88001E-04-4.73138E-15
 -1      3095 3.59623E-03-3.88026E-04-5.10955E-15
 -1      3096 3.37858E-03-3.50281E-04-4.50834E-15
 -1      3097 3.73935E-03-3.87849E-04-5.50260E-15
 -1      3098 3.88243E-03-3.87496E-04-5.90959E-15
 -1      3099 3.66555E-03-3.50350E-04-5.25982E-15
 -1      3100 4.02549E-03-3.87013E-04-6.32978E-15
 -1      3101 4.16852E-03-3.86417E-04-6.76348E-15
 -1      3102 3.95228E-03-3.49696E-04-6.06699E-15
 -1      3103 4.31154E-03-3.85737E-04-7.21091E-15
 -1      3104 4.45453E-03-3.84983E-04-7.67165E-15
 -1      3105 4.23881E-03-3.48576E-04-6.92794E-15
 -1      3106 4.59751E-03-3.84169E-04-8.14386E-15
 -1      3107 4.74047E-03-3.83301E-04-8.62839E-15
 -1      3108 4.52517E-03-3.47151E-04-7.84186E-15
 -1      3109 4.88342E-03-3.82383E-04-9.12732E-15
 -1      3110 5.02635E-03-3.81415E-04-9.63910E-15
 -1      3111 4.81137E-03-3.45507E-04-8.80710E-15
 -1      3112 5.16928E-03-3.80395E-04-1.01639E-14
 -1      3113 5.31219E-03-3.79317E-04-1.07024E-14
 -1      3114 5.09745E-03-3.43671E-04-9.82537E-15
 -1      3115 5.45509E-03-3.78176E-04-1.12536E-14
 -1      3116 5.59799E-03-3.76962E-04-1.18192E-14
 -1      3117 5.38340E-03-3.41626E-04-1.08968E-14
 -1      3118 5.74087E-03-3.75665E-04-1.23996E-14
 -1      3119 5.88374E-03-3.74274E-04-1.29939E-14
 -1      3120 5.66924E-03-3.39321E-04-1.20238E-14
 -1      3121 6.02661E-03-3.72776E-04-1.36019E-14
 -1      3122 6.16946E-03-3.71160E-04-1.42231E-14
 -1      3123 5.95494E-03-3.36679E-04-1.32077E-14
 -1      3124 6.31230E-03-3.69411E-04-1.48574E-14
 -1      3125 6.45513E-03-3.67517E-04-1.55051E-14
 -1      3126 6.24050E-03-3.33607E-04-1.44455E-14
 -1      3127 6.59793E-03-3.65465E-04-1.61670E-14
 -1      3128 6.74074E-03-3.63242E-04-1.68407E-14
 -1      3129 6.52589E-03-3.30004E-04-1.57366E-14
 -1      3130 6.88351E-03-3.60841E-04-1.75274E-14
 -1      3131 7.02628E-03-3.58250E-04-1.82272E-14
 -1      3132 6.81107E-03-3.25770E-04-1.70792E-14
 -1      3133 7.16902E-03-3.55469E-04-1.89393E-14
 -1      3134 7.31176E-03-3.52492E-04-1.96627E-14
 -1      3135 7.09601E-03-3.20824E-04-1.84723E-14
 -1      3136 7.45447E-03-3.49329E-04-2.03969E-14
 -1      3137 7.59719E-03-3.45982E-04-2.11420E-14
 -1      3138 7.38065E-03-3.15122E-04-1.99128E-14
 -1      3139 7.73989E-03-3.42480E-04-2.19004E-14
 -1      3140 7.88261E-03-3.38837E-04-2.26683E-14
 -1      3141 7.66497E-03-3.08679E-04-2.14003E-14
 -1      3142 8.02534E-03-3.35106E-04-2.34457E-14
 -1      3143 8.16813E-03-3.31321E-04-2.42364E-14
 -1      3144 7.94897E-03-3.01609E-04-2.29304E-14
 -1      3145 8.31097E-03-3.27565E-04-2.50391E-14
 -1      3146 8.45394E-03-3.23903E-04-2.58519E-14
 -1      3147 8.23273E-03-2.94161E-04-2.45052E-14
 -1      3148 8.59705E-03-3.20456E-04-2.66747E-14
 -1      3149 8.74041E-03-3.17333E-04-2.75076E-14
 -1      3150 8.51643E-03-2.86778E-04-2.61256E-14
 -1      3151 8.88407E-03-3.14696E-04-2.83485E-14
 -1      3152 9.02817E-03-3.12723E-04-2.91981E-14
 -1      3153 8.80047E-03-2.80158E-04-2.77883E-14
 -1      3154 9.17283E-03-3.11615E-04-3.00551E-14
 -1      3155 9.31822E-03-3.11649E-04-3.09214E-14
 -1      3156 9.08554E-03-2.75337E-04-2.94829E-14
 -1      3157 9.46456E-03-3.13062E-04-3.17945E-14
 -1      3158 9.61209E-03-3.16271E-04-3.26746E-14
 -1      3159 9.37285E-03-2.73794E-04-3.12107E-14
 -1      3160 9.76114E-03-3.21534E-04-3.35615E-14
 -1      3161 9.91198E-03-3.29468E-04-3.44552E-14
 -1      3162 9.66424E-03-2.77595E-04-3.29662E-14
 -1      3163 1.00651E-02-3.40326E-04-3.53564E-14
 -1      3164 1.02207E-02-3.54987E-04-3.62650E-14
 -1      3165 9.96245E-03-2.89610E-04-3.47508E-14
 -1      3166 1.03796E-02-3.73660E-04-3.71798E-14
 -1      3167 1.05416E-02-3.97476E-04-3.80975E-14
 -1      3168 1.02712E-02-3.13849E-04-3.65626E-14
 -1      3169 1.07075E-02-4.26521E-04-3.90194E-14
 -1      3170 1.08768E-02-4.61981E-04-3.99467E-14
 -1      3171 1.05946E-02-3.55773E-04-3.83975E-14
 -1      3172 1.10503E-02-5.03695E-04-4.08791E-14
 -1      3173 1.12261E-02-5.52066E-04-4.18177E-14
 -1      3174 1.09362E-02-4.22130E-04-4.02479E-14
 -1      3175 1.14046E-02-6.06119E-04-4.27613E-14
 -1      3176 1.15829E-02-6.64162E-04-4.37121E-14
 -1      3177 1.12959E-02-5.18579E-04-4.21206E-14
 -1      3178 1.21046E-02-8.29710E-04-4.66098E-14
 -1      3179 1.22703E-02-8.62270E-04-4.75866E-14
 -1      3180 1.27471E-02-8.32158E-04-5.05537E-14
 -1      3181 1.29092E-02-7.75569E-04-5.15456E-14
 -1      3182 1.30741E-02-6.99810E-04-5.25391E-14
 -1      3183 1.32434E-02-6.12135E-04-5.35321E-14
 -1      3184 1.30343E-02-7.12144E-04-5.18740E-14
 -1      3185 1.33965E-02-5.26755E-04-5.44457E-14
 -1      3186 1.35688E-02-4.27686E-04-5.54455E-14
 -1      3187 1.36871E-02-3.53843E-04-5.56081E-14
 -1      3188 1.33676E-02-5.35472E-04-5.37784E-14
 -1      3189 3.25491E-03 4.24357E-04-2.89973E-15
 -1      3190 3.11206E-03 4.23503E-04-2.62788E-15
 -1      3191 2.96918E-03 4.22195E-04-2.36962E-15
 -1      3192 2.82627E-03 4.20370E-04-2.12611E-15
 -1      3193 3.03655E-03 3.85499E-04-2.57791E-15
 -1      3194 3.82622E-03 4.24798E-04-4.13152E-15
 -1      3195 3.68341E-03 4.25028E-04-3.80184E-15
 -1      3196 4.11185E-03 4.23914E-04-4.83417E-15
 -1      3197 3.96904E-03 4.24420E-04-4.47594E-15
 -1      3198 3.89576E-03 3.87151E-04-4.40561E-15
 -1      3199 4.39748E-03 4.22626E-04-5.59562E-15
 -1      3200 4.25467E-03 4.23312E-04-5.20744E-15
 -1      3201 4.18189E-03 3.86192E-04-5.13009E-15
 -1      3202 4.68313E-03 4.21064E-04-6.41486E-15
 -1      3203 4.54031E-03 4.21875E-04-5.99770E-15
 -1      3204 4.46793E-03 3.84884E-04-5.91206E-15
 -1      3205 4.96880E-03 4.19283E-04-7.29191E-15
 -1      3206 4.82596E-03 4.20200E-04-6.84625E-15
 -1      3207 4.75390E-03 3.83332E-04-6.75211E-15
 -1      3208 5.25450E-03 4.17283E-04-8.22763E-15
 -1      3209 5.11165E-03 4.18312E-04-7.75276E-15
 -1      3210 5.03981E-03 3.81575E-04-7.65074E-15
 -1      3211 5.54023E-03 4.15020E-04-9.22270E-15
 -1      3212 5.39736E-03 4.16188E-04-8.71753E-15
 -1      3213 5.32567E-03 3.79602E-04-8.60749E-15
 -1      3214 5.82600E-03 4.12419E-04-1.02731E-14
 -1      3215 5.68311E-03 4.13767E-04-9.74149E-15
 -1      3216 5.61149E-03 3.77362E-04-9.62217E-15
 -1      3217 6.11182E-03 4.09378E-04-1.13802E-14
 -1      3218 5.96891E-03 4.10960E-04-1.08196E-14
 -1      3219 5.89726E-03 3.74776E-04-1.06923E-14
 -1      3220 6.39769E-03 4.05780E-04-1.25410E-14
 -1      3221 6.25475E-03 4.07656E-04-1.19542E-14
 -1      3222 6.18298E-03 3.71744E-04-1.18180E-14
 -1      3223 6.68361E-03 4.01501E-04-1.37573E-14
 -1      3224 6.54064E-03 4.03732E-04-1.31419E-14
 -1      3225 6.46862E-03 3.68152E-04-1.29975E-14
 -1      3226 6.96958E-03 3.96424E-04-1.50243E-14
 -1      3227 6.82658E-03 3.99068E-04-1.43844E-14
 -1      3228 6.75416E-03 3.63883E-04-1.42306E-14
 -1      3229 7.25558E-03 3.90457E-04-1.63448E-14
 -1      3230 7.11257E-03 3.93556E-04-1.56786E-14
 -1      3231 7.03954E-03 3.58834E-04-1.55165E-14
 -1      3232 7.54161E-03 3.83561E-04-1.77169E-14
 -1      3233 7.39858E-03 3.87126E-04-1.70243E-14
 -1      3234 7.32470E-03 3.52932E-04-1.68547E-14
 -1      3235 7.82761E-03 3.75781E-04-1.91364E-14
 -1      3236 7.68460E-03 3.79777E-04-1.84209E-14
 -1      3237 7.60953E-03 3.46161E-04-1.82419E-14
 -1      3238 8.11353E-03 3.67305E-04-2.06042E-14
 -1      3239 7.97056E-03 3.71617E-04-1.98631E-14
 -1      3240 7.89390E-03 3.38600E-04-1.96764E-14
 -1      3241 8.39927E-03 3.58528E-04-2.21174E-14
 -1      3242 8.25640E-03 3.62928E-04-2.13557E-14
 -1      3243 8.17762E-03 3.30478E-04-2.11596E-14
 -1      3244 8.68476E-03 3.50144E-04-2.36743E-14
 -1      3245 8.54202E-03 3.54242E-04-2.28906E-14
 -1      3246 8.46046E-03 3.22230E-04-2.26890E-14
 -1      3247 8.96992E-03 3.43270E-04-2.52696E-14
 -1      3248 8.82734E-03 3.46447E-04-2.44677E-14
 -1      3249 8.74217E-03 3.14588E-04-2.42574E-14
 -1      3250 9.25485E-03 3.39581E-04-2.69026E-14
 -1      3251 9.11236E-03 3.40917E-04-2.60827E-14
 -1      3252 9.02253E-03 3.08673E-04-2.58664E-14
 -1      3253 9.54000E-03 3.41492E-04-2.85658E-14
 -1      3254 9.39730E-03 3.39669E-04-2.77295E-14
 -1      3255 9.30147E-03 3.06101E-04-2.75111E-14
 -1      3256 9.82658E-03 3.52377E-04-3.02631E-14
 -1      3257 9.68293E-03 3.45554E-04-2.94091E-14
 -1      3258 9.57934E-03 3.09101E-04-2.91858E-14
 -1      3259 1.01173E-02 3.76884E-04-3.19949E-14
 -1      3260 9.97112E-03 3.62510E-04-3.11253E-14
 -1      3261 9.85740E-03 3.20666E-04-3.08953E-14
 -1      3262 1.04174E-02 4.21547E-04-3.37588E-14
 -1      3263 1.02657E-02 3.95996E-04-3.28731E-14
 -1      3264 1.01386E-02 3.44868E-04-3.26391E-14
 -1      3265 1.07357E-02 4.96247E-04-3.55547E-14
 -1      3266 1.05736E-02 4.53871E-04-3.46521E-14
 -1      3267 1.04290E-02 3.87605E-04-3.44131E-14
 -1      3268 1.10847E-02 6.16005E-04-3.73813E-14
 -1      3269 1.09060E-02 5.48514E-04-3.64646E-14
 -1      3270 1.07399E-02 4.59054E-04-3.62175E-14
 -1      3271 1.14715E-02 7.89483E-04-3.93960E-14
 -1      3272 1.12709E-02 6.84972E-04-3.84601E-14
 -1      3273 1.23589E-02 1.39608E-03-4.26669E-14
 -1      3274 1.02988E-02 1.35863E-04-3.84802E-14
 -1      3275 1.02473E-02 1.55129E-04-3.82349E-14
 -1      3276 1.40401E-02 9.82129E-04-5.10599E-14
 -1      3277 1.38424E-02 1.09079E-03-5.01516E-14
 -1      3278 1.54082E-02 3.84813E-04-5.66261E-14
 -1      3279 1.52681E-02 3.62506E-04-5.59701E-14
 -1      3280 1.40269E-02-1.49430E-04-5.59572E-14
 -1      3281 1.41596E-02-7.26379E-05-5.57530E-14
 -1      3282 1.82457E-03 3.81173E-04-8.15374E-16
 -1      3283 1.68122E-03 3.69574E-04-6.82939E-16
 -1      3284 1.43116E-02 1.06344E-05-5.56920E-14
 -1      3285 1.44826E-02 9.53310E-05-5.54850E-14
 -1      3286 1.44172E-02 7.27363E-05-5.48659E-14
 -1      3287 1.40759E-02-1.06703E-04-5.49915E-14
 -1      3288 1.20971E-02-7.30642E-04-4.59876E-14
 -1      3289 1.19460E-02-6.48541E-04-4.51762E-14
 -1      3290 3.54059E-03 4.25059E-04-3.48688E-15
 -1      3291 3.39776E-03 4.24860E-04-3.18593E-15
 -1      3292 3.32312E-03 3.87169E-04-3.12971E-15
 -1      3293 3.60951E-03 3.87576E-04-3.73890E-15
 -1      3294 1.28118E-02-7.97501E-04-5.00070E-14
 -1      3295 1.26533E-02-8.34476E-04-4.91018E-14
 -1      3296 2.11107E-03 3.98785E-04-1.11986E-15
 -1      3297 1.96785E-03 3.90852E-04-9.61064E-16
 -1      3298 1.88824E-03 3.50461E-04-9.36276E-16
 -1      3299 1.31669E-02-6.34192E-04-5.16728E-14
 -1      3300 1.30083E-02-7.18803E-04-5.09590E-14
 -1      3301 1.10044E-02-1.22930E-04-4.12825E-14
 -1      3302 1.08185E-02-3.33387E-05-4.06699E-14
 -1      3303 1.05342E-02 2.90259E-04-3.80667E-14
 -1      3304 1.06947E-02 3.56384E-04-3.80929E-14
 -1      3305 1.44458E-03-3.13744E-04-9.51984E-16
 -1      3306 1.58807E-03-3.28224E-04-1.12619E-15
 -1      3307 1.65235E-03-3.00149E-04-1.20997E-15
 -1      3308 1.02305E-02 1.74688E-04-3.81198E-14
 -1      3309 1.02383E-02 1.86963E-04-3.79807E-14
 -1      3310 1.14501E-03 3.10552E-04-2.93439E-16
 -1      3311 1.08236E-03 2.71625E-04-2.91244E-16
 -1      3312 1.20146E-03 2.73062E-04-3.79010E-16
 -1      3313 1.28817E-03 3.32524E-04-3.77221E-16
 -1      3314 1.08930E-02 4.63479E-04-3.79452E-14
 -1      3315 1.10782E-02 5.64172E-04-3.82048E-14
 -1      3316 1.01651E-03 6.81990E-05-4.18312E-16
 -1      3317 1.01533E-03 4.12196E-05-4.34833E-16
 -1      3318 1.35544E-02-4.03195E-04-5.31709E-14
 -1      3319 1.33637E-02-5.20810E-04-5.24925E-14
 -1      3320 1.14307E-02-3.54479E-04-4.28661E-14
 -1      3321 1.12325E-02-2.42725E-04-4.21035E-14
 -1      3322 8.87885E-04-2.11802E-04-4.13420E-16
 -1      3323 1.01473E-03 1.44465E-05-4.49971E-16
 -1      3324 1.01470E-03-1.22276E-05-4.64255E-16
 -1      3325 1.13541E-03 3.01629E-05-5.38198E-16
 -1      3326 1.06729E-02 6.96333E-06-3.99752E-14
 -1      3327 1.05398E-02 3.35465E-05-3.92818E-14
 -1      3328 1.07094E-02-4.51668E-05-3.98507E-14
 -1      3329 1.15304E-03 2.11799E-04-4.05193E-16
 -1      3330 1.02829E-03 1.81151E-04-3.39938E-16
 -1      3331 1.02411E-03 1.51825E-04-3.61825E-16
 -1      3332 1.38832E-02-2.32075E-04-5.57917E-14
 -1      3333 1.02363E-03-1.49094E-04-5.20553E-16
 -1      3334 1.02768E-03-1.78327E-04-5.28169E-16
 -1      3335 1.38045E-02-2.56369E-04-5.40693E-14
 -1      3336 1.36925E-02-3.29323E-04-5.41504E-14
 -1      3337 1.18181E-02-6.19513E-04-4.46148E-14
 -1      3338 1.18783E-03-2.78750E-04-6.75851E-16
 -1      3339 1.31607E-03-2.97289E-04-8.07907E-16
 -1      3340 1.38018E-03-2.73435E-04-8.80589E-16
 -1      3341 1.24530E-02-8.53099E-04-4.83100E-14
 -1      3342 1.25090E-02-8.70059E-04-4.89785E-14
 -1      3343 1.17606E-02-7.24087E-04-4.46701E-14
 -1      3344 1.19350E-02-7.80083E-04-4.56337E-14
 -1      3345 1.26702E-02-8.49564E-04-4.99656E-14
 -1      3346 1.01424E-03-2.34381E-04-5.17015E-16
 -1      3347 2.39731E-03 4.10493E-04-1.48075E-15
 -1      3348 2.25423E-03 4.05286E-04-1.29316E-15
 -1      3349 2.17560E-03 3.65679E-04-1.26281E-15
 -1      3350 2.74979E-03 3.81955E-04-2.08289E-15
 -1      3351 2.68333E-03 4.17886E-04-1.89708E-15
 -1      3352 2.54035E-03 4.14657E-04-1.68169E-15
 -1      3353 1.16990E-02 9.32606E-04-4.02115E-14
 -1      3354 1.16653E-02-6.42203E-04-4.40184E-14
 -1      3355 1.04328E-02 2.62043E-04-3.76149E-14
 -1      3356 1.03357E-02 1.14905E-04-3.85510E-14
 -1      3357 1.02404E-02 1.15600E-04-3.77682E-14
 -1      3358 1.03792E-02 8.98029E-05-3.86190E-14
 -1      3359 1.43464E-02 8.34225E-04-5.25523E-14
 -1      3360 1.41667E-02 9.22500E-04-5.17087E-14
 -1      3361 1.44752E-02 7.59215E-04-5.27702E-14
 -1      3362 1.14772E-02-4.25992E-04-4.29952E-14
 -1      3363 1.07319E-02 4.04863E-04-3.72820E-14
 -1      3364 1.02080E-03 1.23285E-04-3.82330E-16
 -1      3365 1.01832E-03 9.55165E-05-4.01060E-16
 -1      3366 1.13808E-03 8.86169E-05-5.00088E-16
 -1      3367 1.14370E-03 1.48763E-04-4.56043E-16
 -1      3368 1.10724E-02-1.93266E-04-4.13602E-14
 -1      3369 1.22165E-02-7.93777E-04-4.67424E-14
 -1      3370 1.20960E-02-7.66446E-04-4.61709E-14
 -1      3371 1.42053E-02 8.78959E-04-5.14774E-14
 -1      3372 1.44210E-02 7.68217E-04-5.22201E-14
 -1      3373 1.32643E-02-5.82222E-04-5.24336E-14
 -1      3374 1.01915E-02 1.54975E-04-3.75859E-14
 -1      3375 1.27842E-02-8.11237E-04-5.02941E-14
 -1      3376 1.41771E-02-4.46497E-05-5.45040E-14
 -1      3377 1.40137E-02-1.35959E-04-5.45671E-14
 -1      3378 1.01804E-03-9.29829E-05-5.01172E-16
 -1      3379 1.02043E-03-1.20692E-04-5.11554E-16
 -1      3380 1.14323E-03-1.45890E-04-6.24988E-16
 -1      3381 1.02423E-02 1.95532E-04-3.76348E-14
 -1      3382 1.02559E-02 2.05430E-04-3.72895E-14
 -1      3383 1.01845E-02 1.81215E-04-3.71268E-14
 -1      3384 1.28869E-02-7.72053E-04-5.06600E-14
 -1      3385 1.55631E-03 3.61498E-04-5.73028E-16
 -1      3386 1.41295E-03 3.45310E-04-4.65434E-16
 -1      3387 1.36910E-03 3.15062E-04-4.67115E-16
 -1      3388 1.61928E-03 3.33890E-04-6.73994E-16
 -1      3389 1.51635E-02 4.91693E-04-5.48966E-14
 -1      3390 1.20284E-02-7.70630E-04-4.59490E-14
 -1      3391 1.45671E-02 7.06027E-04-5.28622E-14
 -1      3392 1.03346E-02 2.36873E-04-3.71083E-14
 -1      3393 1.04369E-02 2.79553E-04-3.69247E-14
 -1      3394 1.02477E-02 2.17525E-04-3.66036E-14
 -1      3395 2.15034E-03-2.93431E-04-1.93596E-15
 -1      3396 2.29469E-03-2.98349E-04-2.17948E-15
 -1      3397 2.43903E-03-3.02315E-04-2.43753E-15
 -1      3398 2.58334E-03-3.05424E-04-2.71041E-15
 -1      3399 2.36212E-03-2.63654E-04-2.28234E-15
 -1      3400 2.72761E-03-3.07842E-04-2.99697E-15
 -1      3401 2.87180E-03-3.09643E-04-3.29797E-15
 -1      3402 2.65136E-03-2.69373E-04-2.82191E-15
 -1      3403 3.01592E-03-3.10957E-04-3.61409E-15
 -1      3404 3.15995E-03-3.11838E-04-3.94460E-15
 -1      3405 2.94040E-03-2.72704E-04-3.41903E-15
 -1      3406 3.30390E-03-3.12387E-04-4.28973E-15
 -1      3407 3.44777E-03-3.12642E-04-4.64811E-15
 -1      3408 3.22910E-03-2.74350E-04-4.07407E-15
 -1      3409 3.59155E-03-3.12676E-04-5.01999E-15
 -1      3410 3.73525E-03-3.12515E-04-5.40652E-15
 -1      3411 3.51741E-03-2.74841E-04-4.78479E-15
 -1      3412 3.87887E-03-3.12211E-04-5.80737E-15
 -1      3413 4.02242E-03-3.11781E-04-6.22121E-15
 -1      3414 3.80532E-03-2.74566E-04-5.55098E-15
 -1      3415 4.16590E-03-3.11261E-04-6.64861E-15
 -1      3416 4.30931E-03-3.10658E-04-7.08969E-15
 -1      3417 4.09285E-03-2.73793E-04-6.37343E-15
 -1      3418 4.45266E-03-3.09995E-04-7.54324E-15
 -1      3419 4.59595E-03-3.09275E-04-8.00968E-15
 -1      3420 4.38003E-03-2.72698E-04-7.24849E-15
 -1      3421 4.73919E-03-3.08510E-04-8.49070E-15
 -1      3422 4.88237E-03-3.07698E-04-8.98415E-15
 -1      3423 4.66689E-03-2.71386E-04-8.17738E-15
 -1      3424 5.02551E-03-3.06843E-04-9.48964E-15
 -1      3425 5.16859E-03-3.05940E-04-1.00098E-14
 -1      3426 4.95346E-03-2.69901E-04-9.15827E-15
 -1      3427 5.31162E-03-3.04988E-04-1.05439E-14
 -1      3428 5.45461E-03-3.03978E-04-1.10907E-14
 -1      3429 5.23976E-03-2.68249E-04-1.01924E-14
 -1      3430 5.59754E-03-3.02905E-04-1.16517E-14
 -1      3431 5.74042E-03-3.01757E-04-1.22280E-14
 -1      3432 5.52580E-03-2.66399E-04-1.12838E-14
 -1      3433 5.88325E-03-3.00526E-04-1.28166E-14
 -1      3434 6.02602E-03-2.99199E-04-1.34194E-14
 -1      3435 5.81155E-03-2.64294E-04-1.24289E-14
 -1      3436 6.16873E-03-2.97766E-04-1.40359E-14
 -1      3437 6.31137E-03-2.96213E-04-1.46661E-14
 -1      3438 6.09699E-03-2.61859E-04-1.36291E-14
 -1      3439 6.45393E-03-2.94530E-04-1.53093E-14
 -1      3440 6.59641E-03-2.92702E-04-1.59654E-14
 -1      3441 6.38207E-03-2.59007E-04-1.48851E-14
 -1      3442 6.73879E-03-2.90721E-04-1.66341E-14
 -1      3443 6.88108E-03-2.88571E-04-1.73147E-14
 -1      3444 6.66669E-03-2.55644E-04-1.61913E-14
 -1      3445 7.02325E-03-2.86249E-04-1.80081E-14
 -1      3446 7.16530E-03-2.83742E-04-1.87142E-14
 -1      3447 6.95078E-03-2.51679E-04-1.75476E-14
 -1      3448 7.30721E-03-2.81053E-04-1.94321E-14
 -1      3449 7.44899E-03-2.78171E-04-2.01611E-14
 -1      3450 7.23420E-03-2.47039E-04-1.89537E-14
 -1      3451 7.59061E-03-2.75113E-04-2.09017E-14
 -1      3452 7.73208E-03-2.71872E-04-2.16540E-14
 -1      3453 7.51683E-03-2.41677E-04-2.04077E-14
 -1      3454 7.87337E-03-2.68482E-04-2.24163E-14
 -1      3455 8.01451E-03-2.64944E-04-2.31893E-14
 -1      3456 7.79855E-03-2.35596E-04-2.19040E-14
 -1      3457 8.15549E-03-2.61314E-04-2.39747E-14
 -1      3458 8.29634E-03-2.57611E-04-2.47724E-14
 -1      3459 8.07928E-03-2.28874E-04-2.34471E-14
 -1      3460 8.43706E-03-2.53912E-04-2.55808E-14
 -1      3461 8.57773E-03-2.50265E-04-2.63992E-14
 -1      3462 8.35901E-03-2.21691E-04-2.50372E-14
 -1      3463 8.71836E-03-2.46773E-04-2.72278E-14
 -1      3464 8.85908E-03-2.43528E-04-2.80661E-14
 -1      3465 8.63788E-03-2.14369E-04-2.66703E-14
 -1      3466 8.99995E-03-2.40657E-04-2.89111E-14
 -1      3467 9.14118E-03-2.38322E-04-2.97654E-14
 -1      3468 8.91630E-03-2.07419E-04-2.83405E-14
 -1      3469 9.28288E-03-2.36672E-04-3.06265E-14
 -1      3470 9.42536E-03-2.35986E-04-3.14965E-14
 -1      3471 9.19509E-03-2.01614E-04-3.00446E-14
 -1      3472 9.56885E-03-2.36421E-04-3.23739E-14
 -1      3473 9.71379E-03-2.38449E-04-3.32562E-14
 -1      3474 9.47571E-03-1.98099E-04-3.17797E-14
 -1      3475 9.86055E-03-2.42226E-04-3.41467E-14
 -1      3476 1.00097E-02-2.48547E-04-3.50439E-14
 -1      3477 9.76056E-03-1.98617E-04-3.35441E-14
 -1      3478 1.01619E-02-2.57561E-04-3.59468E-14
 -1      3479 1.03176E-02-2.70579E-04-3.68586E-14
 -1      3480 1.00534E-02-2.05933E-04-3.53334E-14
 -1      3481 1.04779E-02-2.87742E-04-3.77736E-14
 -1      3482 1.06431E-02-3.11016E-04-3.86922E-14
 -1      3483 1.03597E-02-2.24718E-04-3.71499E-14
 -1      3484 1.08144E-02-3.40397E-04-3.96175E-14
 -1      3485 1.09912E-02-3.78639E-04-4.05475E-14
 -1      3486 1.06867E-02-2.62745E-04-3.89874E-14
 -1      3487 1.25448E-02-8.46301E-04-4.86743E-14
 -1      3488 3.10455E-03 3.48494E-04-2.79121E-15
 -1      3489 2.96082E-03 3.47316E-04-2.52511E-15
 -1      3490 4.25215E-03 3.48370E-04-5.43004E-15
 -1      3491 4.10890E-03 3.48915E-04-5.05001E-15
 -1      3492 3.96559E-03 3.49365E-04-4.68442E-15
 -1      3493 3.82223E-03 3.49708E-04-4.33289E-15
 -1      3494 4.03570E-03 3.11482E-04-4.96764E-15
 -1      3495 4.82477E-03 3.45565E-04-7.09472E-15
 -1      3496 4.68167E-03 3.46345E-04-6.65674E-15
 -1      3497 5.11086E-03 3.43861E-04-8.01402E-15
 -1      3498 4.96783E-03 3.44737E-04-7.54708E-15
 -1      3499 4.89572E-03 3.07790E-04-7.44099E-15
 -1      3500 5.39684E-03 3.41943E-04-8.99100E-15
 -1      3501 5.25387E-03 3.42931E-04-8.49513E-15
 -1      3502 5.18195E-03 3.06166E-04-8.38110E-15
 -1      3503 5.68268E-03 3.39759E-04-1.00252E-14
 -1      3504 5.53978E-03 3.40889E-04-9.50084E-15
 -1      3505 5.46799E-03 3.04334E-04-9.37793E-15
 -1      3506 5.96839E-03 3.37227E-04-1.11136E-14
 -1      3507 5.82556E-03 3.38542E-04-1.05620E-14
 -1      3508 5.75381E-03 3.02237E-04-1.04301E-14
 -1      3509 6.25394E-03 3.34250E-04-1.22579E-14
 -1      3510 6.11119E-03 3.35801E-04-1.16789E-14
 -1      3511 6.03940E-03 2.99800E-04-1.15380E-14
 -1      3512 6.53928E-03 3.30722E-04-1.34559E-14
 -1      3513 6.39663E-03 3.32562E-04-1.28506E-14
 -1      3514 6.32471E-03 2.96928E-04-1.27011E-14
 -1      3515 6.82433E-03 3.26538E-04-1.47075E-14
 -1      3516 6.68184E-03 3.28719E-04-1.40758E-14
 -1      3517 6.60966E-03 2.93527E-04-1.39182E-14
 -1      3518 7.10901E-03 3.21611E-04-1.60108E-14
 -1      3519 6.96672E-03 3.24173E-04-1.53520E-14
 -1      3520 6.89415E-03 2.89507E-04-1.51867E-14
 -1      3521 7.39318E-03 3.15888E-04-1.73655E-14
 -1      3522 7.25116E-03 3.18852E-04-1.66815E-14
 -1      3523 7.17801E-03 2.84798E-04-1.65069E-14
 -1      3524 7.67665E-03 3.09383E-04-1.87695E-14
 -1      3525 7.53501E-03 3.12734E-04-1.80615E-14
 -1      3526 7.46106E-03 2.79376E-04-1.78796E-14
 -1      3527 7.95919E-03 3.02213E-04-2.02204E-14
 -1      3528 7.81804E-03 3.05877E-04-1.94895E-14
 -1      3529 7.74302E-03 2.73285E-04-1.92998E-14
 -1      3530 8.24048E-03 2.94641E-04-2.17181E-14
 -1      3531 8.09999E-03 2.98464E-04-2.09636E-14
 -1      3532 8.02355E-03 2.66676E-04-2.07662E-14
 -1      3533 8.52016E-03 2.87143E-04-2.32601E-14
 -1      3534 8.38052E-03 2.90859E-04-2.24843E-14
 -1      3535 8.30224E-03 2.59853E-04-2.22767E-14
 -1      3536 8.79782E-03 2.80471E-04-2.48420E-14
 -1      3537 8.65924E-03 2.83666E-04-2.40455E-14
 -1      3538 8.57856E-03 2.53318E-04-2.38321E-14
 -1      3539 9.07305E-03 2.75722E-04-2.64647E-14
 -1      3540 8.93573E-03 2.77799E-04-2.56477E-14
 -1      3541 8.85194E-03 2.47830E-04-2.54280E-14
 -1      3542 9.34561E-03 2.74406E-04-2.81205E-14
 -1      3543 9.20962E-03 2.74554E-04-2.72893E-14
 -1      3544 9.12179E-03 2.44434E-04-2.70635E-14
 -1      3545 9.61563E-03 2.78494E-04-2.98080E-14
 -1      3546 9.48083E-03 2.75657E-04-2.89599E-14
 -1      3547 9.38760E-03 2.44480E-04-2.87323E-14
 -1      3548 9.88418E-03 2.90512E-04-3.15308E-14
 -1      3549 9.74985E-03 2.83330E-04-3.06647E-14
 -1      3550 9.64918E-03 2.49602E-04-3.04322E-14
 -1      3551 1.01541E-02 3.13814E-04-3.32846E-14
 -1      3552 1.00185E-02 3.00409E-04-3.24038E-14
 -1      3553 9.90712E-03 2.61720E-04-3.21664E-14
 -1      3554 1.04317E-02 3.53594E-04-3.50681E-14
 -1      3555 1.02910E-02 3.31017E-04-3.41733E-14
 -1      3556 1.01637E-02 2.83270E-04-3.39322E-14
 -1      3557 1.05834E-02 3.66380E-04-3.63704E-14
 -1      3558 1.14965E-02-4.87901E-04-4.30611E-14
 -1      3559 1.13207E-02-3.80866E-04-4.22467E-14
 -1      3560 1.22904E-02-8.27873E-04-4.72873E-14
 -1      3561 1.07913E-03-2.16770E-04-5.75657E-16
 -1      3562 1.19872E-03-2.15945E-04-6.88753E-16
 -1      3563 1.49714E-02 5.41060E-04-5.39404E-14
 -1      3564 1.95313E-03 3.19042E-04-1.06236E-15
 -1      3565 1.80914E-03 3.10447E-04-9.08670E-16
 -1      3566 1.11086E-02-2.64081E-04-4.13286E-14
 -1      3567 1.09075E-02-1.58685E-04-4.05146E-14
 -1      3568 1.57398E-03-2.60699E-04-1.10788E-15
 -1      3569 1.71778E-03-2.71181E-04-1.29322E-15
 -1      3570 1.01522E-03-3.89308E-05-4.77564E-16
 -1      3571 1.01632E-03-6.57677E-05-4.89856E-16
 -1      3572 1.13783E-03-8.59747E-05-6.00756E-16
 -1      3573 1.01338E-02 1.36563E-04-3.69025E-14
 -1      3574 1.01280E-02 1.55764E-04-3.67907E-14
 -1      3575 4.53853E-03 3.47076E-04-6.23323E-15
 -1      3576 4.39537E-03 3.47755E-04-5.82454E-15
 -1      3577 4.32262E-03 3.10485E-04-5.73443E-15
 -1      3578 4.60929E-03 3.09234E-04-6.55884E-15
 -1      3579 1.37159E-02-3.24558E-04-5.48739E-14
 -1      3580 1.19123E-02-7.00752E-04-4.51986E-14
 -1      3581 1.86182E-03-2.80019E-04-1.49312E-15
 -1      3582 2.00604E-03-2.87362E-04-1.70732E-15
 -1      3583 2.07291E-03-2.54654E-04-1.80024E-15
 -1      3584 1.17612E-02-6.28782E-04-4.43957E-14
 -1      3585 1.15693E-02-5.56520E-04-4.34417E-14
 -1      3586 1.14149E-02-5.12878E-04-4.26890E-14
 -1      3587 1.07599E-02-1.11353E-04-3.98203E-14
 -1      3588 1.06193E-02-7.44726E-05-3.91297E-14
 -1      3589 1.07953E-02-1.78815E-04-3.97902E-14
 -1      3590 1.27926E-03 2.42888E-04-4.75545E-16
 -1      3591 1.27311E-03 2.08687E-04-5.06607E-16
 -1      3592 1.26371E-03-1.39703E-04-7.37772E-16
 -1      3593 1.26753E-03-1.72221E-04-7.50485E-16
 -1      3594 1.10962E-02-3.60104E-04-4.11084E-14
 -1      3595 1.12274E-02-4.54341E-04-4.17461E-14
 -1      3596 1.25740E-03 4.78499E-05-6.33296E-16
 -1      3597 1.25666E-03 1.67841E-05-6.54004E-16
 -1      3598 1.34928E-02-4.55450E-04-5.39737E-14
 -1      3599 1.29650E-03-2.01032E-04-7.85708E-16
 -1      3600 1.34912E-03-2.42205E-04-8.45732E-16
 -1      3601 1.47745E-03-2.55768E-04-9.91544E-16
 -1      3602 1.41738E-03-1.94284E-04-9.13495E-16
 -1      3603 3.24822E-03 3.49287E-04-3.07122E-15
 -1      3604 3.17313E-03 3.11243E-04-3.00928E-15
 -1      3605 3.39181E-03 3.49740E-04-3.36519E-15
 -1      3606 1.33260E-02-5.50092E-04-5.30598E-14
 -1      3607 1.54350E-03-2.29064E-04-1.06614E-15
 -1      3608 2.46280E-03 3.75712E-04-1.64503E-15
 -1      3609 2.81701E-03 3.45640E-04-2.27391E-15
 -1      3610 2.67314E-03 3.43403E-04-2.03712E-15
 -1      3611 2.88494E-03 3.09003E-04-2.47075E-15
 -1      3612 3.74850E-03 3.12098E-04-4.25769E-15
 -1      3613 3.67882E-03 3.49905E-04-3.99577E-15
 -1      3614 3.53535E-03 3.49935E-04-3.67305E-15
 -1      3615 1.04290E-02 3.03507E-04-3.61225E-14
 -1      3616 1.04087E-02 5.17611E-05-3.84990E-14
 -1      3617 1.02900E-02 6.11138E-05-3.77192E-14
 -1      3618 1.04345E-02 9.07737E-06-3.83766E-14
 -1      3619 1.13533E-03-2.76965E-05-5.71862E-16
 -1      3620 1.31456E-02-6.52614E-04-5.22400E-14
 -1      3621 1.29684E-02-7.38928E-04-5.12481E-14
 -1      3622 1.11444E-02-3.32496E-04-4.13955E-14
 -1      3623 2.09715E-03 3.26179E-04-1.22973E-15
 -1      3624 2.01904E-03 2.86940E-04-1.19345E-15
 -1      3625 2.24120E-03 3.31994E-04-1.41070E-15
 -1      3626 1.01666E-02 1.03634E-04-3.70443E-14
 -1      3627 1.01466E-02 1.21057E-04-3.69737E-14
 -1      3628 1.00639E-02 1.23951E-04-3.61830E-14
 -1      3629 1.73073E-03 2.71011E-04-8.78068E-16
 -1      3630 1.66530E-03 3.00129E-04-7.68076E-16
 -1      3631 1.78420E-03-2.41293E-04-1.37625E-15
 -1      3632 1.53986E-03 2.93382E-04-6.51565E-16
 -1      3633 1.00383E-02 1.47874E-04-3.57721E-14
 -1      3634 1.01120E-02 1.64807E-04-3.64494E-14
 -1      3635 1.01044E-02 1.73683E-04-3.61079E-14
 -1      3636 1.26108E-03 1.10619E-04-5.87949E-16
 -1      3637 1.25886E-03 7.90656E-05-6.11422E-16
 -1      3638 1.38056E-03 6.71656E-05-7.34859E-16
 -1      3639 1.32612E-03 2.85586E-04-4.66614E-16
 -1      3640 1.44602E-03 2.80970E-04-5.78679E-16
 -1      3641 1.37896E-03 1.42883E-06-7.81805E-16
 -1      3642 1.25662E-03-1.41514E-05-6.73290E-16
 -1      3643 1.25727E-03-4.51404E-05-6.91491E-16
 -1      3644 1.51379E-03-1.98189E-04-1.02373E-15
 -1      3645 1.61049E-03-2.01223E-04-1.14017E-15
 -1      3646 1.48483E-03-1.68045E-04-9.81311E-16
 -1      3647 2.28555E-03-2.25241E-04-2.13119E-15
 -1      3648 2.43042E-03-2.28434E-04-2.38411E-15
 -1      3649 1.26075E-03-1.07782E-04-7.23868E-16
 -1      3650 1.38495E-03-1.30906E-04-8.58797E-16
 -1      3651 1.25864E-03-7.63343E-05-7.08323E-16
 -1      3652 2.57531E-03-2.30974E-04-2.65140E-15
 -1      3653 2.72016E-03-2.32927E-04-2.93236E-15
 -1      3654 2.49951E-03-1.92733E-04-2.48418E-15
 -1      3655 2.86496E-03-2.34410E-04-3.22768E-15
 -1      3656 3.00967E-03-2.35471E-04-3.53800E-15
 -1      3657 2.78966E-03-1.96136E-04-3.04111E-15
 -1      3658 3.15430E-03-2.36205E-04-3.86263E-15
 -1      3659 3.29881E-03-2.36647E-04-4.20155E-15
 -1      3660 3.07955E-03-1.97998E-04-3.65517E-15
 -1      3661 3.44322E-03-2.36867E-04-4.55358E-15
 -1      3662 3.58750E-03-2.36890E-04-4.91900E-15
 -1      3663 3.36902E-03-1.98782E-04-4.32557E-15
 -1      3664 3.73168E-03-2.36769E-04-5.29949E-15
 -1      3665 3.87574E-03-2.36517E-04-5.69354E-15
 -1      3666 3.65801E-03-1.98836E-04-5.05199E-15
 -1      3667 4.01970E-03-2.36173E-04-6.10203E-15
 -1      3668 4.16355E-03-2.35744E-04-6.52355E-15
 -1      3669 3.94650E-03-1.98410E-04-5.83435E-15
 -1      3670 4.30729E-03-2.35257E-04-6.95798E-15
 -1      3671 4.45094E-03-2.34712E-04-7.40563E-15
 -1      3672 4.23450E-03-1.97672E-04-6.67120E-15
 -1      3673 4.59450E-03-2.34126E-04-7.86678E-15
 -1      3674 4.73796E-03-2.33498E-04-8.34234E-15
 -1      3675 4.52204E-03-1.96731E-04-7.56127E-15
 -1      3676 4.88134E-03-2.32836E-04-8.83023E-15
 -1      3677 5.02463E-03-2.32135E-04-9.33115E-15
 -1      3678 4.80916E-03-1.95642E-04-8.50496E-15
 -1      3679 5.16785E-03-2.31398E-04-9.84578E-15
 -1      3680 5.31098E-03-2.30617E-04-1.03751E-14
 -1      3681 5.09588E-03-1.94425E-04-9.50267E-15
 -1      3682 5.45402E-03-2.29791E-04-1.09185E-14
 -1      3683 5.59698E-03-2.28910E-04-1.14751E-14
 -1      3684 5.38222E-03-1.93067E-04-1.05559E-14
 -1      3685 5.73985E-03-2.27970E-04-1.20447E-14
 -1      3686 5.88263E-03-2.26958E-04-1.26284E-14
 -1      3687 5.66815E-03-1.91534E-04-1.16638E-14
 -1      3688 6.02530E-03-2.25870E-04-1.32272E-14
 -1      3689 6.16786E-03-2.24690E-04-1.38388E-14
 -1      3690 5.95364E-03-1.89773E-04-1.28267E-14
 -1      3691 6.31030E-03-2.23414E-04-1.44631E-14
 -1      3692 6.45261E-03-2.22023E-04-1.51010E-14
 -1      3693 6.23863E-03-1.87717E-04-1.40453E-14
 -1      3694 6.59477E-03-2.20515E-04-1.57522E-14
 -1      3695 6.73677E-03-2.18869E-04-1.64159E-14
 -1      3696 6.52302E-03-1.85289E-04-1.53157E-14
 -1      3697 6.87858E-03-2.17085E-04-1.70911E-14
 -1      3698 7.02020E-03-2.15142E-04-1.77788E-14
 -1      3699 6.80666E-03-1.82406E-04-1.66372E-14
 -1      3700 7.16159E-03-2.13043E-04-1.84798E-14
 -1      3701 7.30275E-03-2.10767E-04-1.91923E-14
 -1      3702 7.08939E-03-1.78987E-04-1.80091E-14
 -1      3703 7.44364E-03-2.08325E-04-1.99160E-14
 -1      3704 7.58425E-03-2.05694E-04-2.06507E-14
 -1      3705 7.37102E-03-1.74957E-04-1.94285E-14
 -1      3706 7.72454E-03-2.02897E-04-2.13959E-14
 -1      3707 7.86452E-03-1.99911E-04-2.21535E-14
 -1      3708 7.65131E-03-1.70255E-04-2.08922E-14
 -1      3709 8.00414E-03-1.96771E-04-2.29231E-14
 -1      3710 8.14343E-03-1.93461E-04-2.37033E-14
 -1      3711 7.93005E-03-1.64846E-04-2.24011E-14
 -1      3712 8.28234E-03-1.90029E-04-2.44954E-14
 -1      3713 8.42092E-03-1.86468E-04-2.52994E-14
 -1      3714 8.20704E-03-1.58731E-04-2.39565E-14
 -1      3715 8.55914E-03-1.82843E-04-2.61140E-14
 -1      3716 8.69709E-03-1.79165E-04-2.69378E-14
 -1      3717 8.48216E-03-1.51963E-04-2.55580E-14
 -1      3718 8.83475E-03-1.75511E-04-2.77719E-14
 -1      3719 8.97230E-03-1.71929E-04-2.86133E-14
 -1      3720 8.75543E-03-1.44663E-04-2.72035E-14
 -1      3721 9.10975E-03-1.68505E-04-2.94635E-14
 -1      3722 9.24738E-03-1.65349E-04-3.03213E-14
 -1      3723 9.02715E-03-1.37050E-04-2.88837E-14
 -1      3724 9.38525E-03-1.62548E-04-3.11865E-14
 -1      3725 9.52380E-03-1.60342E-04-3.20619E-14
 -1      3726 9.29805E-03-1.29491E-04-3.05956E-14
 -1      3727 9.66321E-03-1.58804E-04-3.29402E-14
 -1      3728 9.80413E-03-1.58419E-04-3.38269E-14
 -1      3729 9.56956E-03-1.22624E-04-3.23378E-14
 -1      3730 9.94690E-03-1.59220E-04-3.47213E-14
 -1      3731 1.00925E-02-1.62212E-04-3.56204E-14
 -1      3732 9.84426E-03-1.17649E-04-3.41076E-14
 -1      3733 1.02415E-02-1.67436E-04-3.65278E-14
 -1      3734 1.03952E-02-1.76752E-04-3.74399E-14
 -1      3735 1.01264E-02-1.17022E-04-3.59049E-14
 -1      3736 1.47235E-02 6.29497E-04-5.30793E-14
 -1      3737 1.09023E-02-2.60573E-04-4.01991E-14
 -1      3738 5.25308E-03 2.68511E-04-8.75083E-15
 -1      3739 5.10996E-03 2.69291E-04-8.26376E-15
 -1      3740 4.96677E-03 2.70026E-04-7.79075E-15
 -1      3741 4.82351E-03 2.70721E-04-7.33177E-15
 -1      3742 5.03789E-03 2.32299E-04-8.14407E-15
 -1      3743 5.82487E-03 2.64826E-04-1.08389E-14
 -1      3744 5.68203E-03 2.65847E-04-1.02968E-14
 -1      3745 6.11029E-03 2.62528E-04-1.19656E-14
 -1      3746 5.96763E-03 2.63723E-04-1.13950E-14
 -1      3747 5.89587E-03 2.27549E-04-1.12503E-14
 -1      3748 6.39531E-03 2.59819E-04-1.31480E-14
 -1      3749 6.25285E-03 2.61231E-04-1.25507E-14
 -1      3750 6.18107E-03 2.25438E-04-1.23972E-14
 -1      3751 6.67981E-03 2.56616E-04-1.43826E-14
 -1      3752 6.53763E-03 2.58286E-04-1.37582E-14
 -1      3753 6.46574E-03 2.22951E-04-1.35975E-14
 -1      3754 6.96365E-03 2.52847E-04-1.56691E-14
 -1      3755 6.82182E-03 2.54808E-04-1.50196E-14
 -1      3756 6.74973E-03 2.20020E-04-1.48501E-14
 -1      3757 7.24662E-03 2.48465E-04-1.70075E-14
 -1      3758 7.10525E-03 2.50738E-04-1.63317E-14
 -1      3759 7.03286E-03 2.16592E-04-1.61554E-14
 -1      3760 7.52845E-03 2.43473E-04-1.83959E-14
 -1      3761 7.38769E-03 2.46049E-04-1.76955E-14
 -1      3762 7.31487E-03 2.12647E-04-1.75106E-14
 -1      3763 7.80880E-03 2.37948E-04-1.98317E-14
 -1      3764 7.66883E-03 2.40777E-04-1.91077E-14
 -1      3765 7.59543E-03 2.08215E-04-1.89148E-14
 -1      3766 8.08724E-03 2.32077E-04-2.13124E-14
 -1      3767 7.94828E-03 2.35051E-04-2.05676E-14
 -1      3768 7.87411E-03 2.03407E-04-2.03659E-14
 -1      3769 8.36322E-03 2.26198E-04-2.28368E-14
 -1      3770 8.22556E-03 2.29128E-04-2.20690E-14
 -1      3771 8.15040E-03 1.98446E-04-2.18607E-14
 -1      3772 8.63611E-03 2.20836E-04-2.44066E-14
 -1      3773 8.50008E-03 2.23434E-04-2.36165E-14
 -1      3774 8.42365E-03 1.93698E-04-2.33996E-14
 -1      3775 8.90515E-03 2.16741E-04-2.60164E-14
 -1      3776 8.77113E-03 2.18606E-04-2.52057E-14
 -1      3777 8.69309E-03 1.89705E-04-2.49834E-14
 -1      3778 9.16952E-03 2.14895E-04-2.76648E-14
 -1      3779 9.03794E-03 2.15508E-04-2.68361E-14
 -1      3780 8.95779E-03 1.87202E-04-2.66066E-14
 -1      3781 9.42840E-03 2.16472E-04-2.93451E-14
 -1      3782 9.29965E-03 2.15229E-04-2.85011E-14
 -1      3783 9.21669E-03 1.87094E-04-2.82673E-14
 -1      3784 9.68112E-03 2.22760E-04-3.10591E-14
 -1      3785 9.55547E-03 2.19004E-04-3.01975E-14
 -1      3786 9.46856E-03 1.90369E-04-2.99616E-14
 -1      3787 9.92748E-03 2.35112E-04-3.28041E-14
 -1      3788 9.80491E-03 2.28163E-04-3.19273E-14
 -1      3789 9.71205E-03 1.97950E-04-3.16862E-14
 -1      3790 1.01683E-02 2.54910E-04-3.45796E-14
 -1      3791 1.00481E-02 2.43984E-04-3.36881E-14
 -1      3792 9.94576E-03 2.10631E-04-3.34426E-14
 -1      3793 1.03168E-02 2.75280E-04-3.56223E-14
 -1      3794 1.07615E-02-2.13490E-04-3.95079E-14
 -1      3795 5.53912E-03 2.66796E-04-9.76765E-15
 -1      3796 5.39614E-03 2.67682E-04-9.25215E-15
 -1      3797 5.61024E-03 2.29355E-04-1.01603E-14
 -1      3798 2.52921E-03 3.40456E-04-1.81414E-15
 -1      3799 2.38522E-03 3.36716E-04-1.60530E-15
 -1      3800 2.59645E-03 3.04787E-04-1.98822E-15
 -1      3801 1.79721E-03 2.40999E-04-9.93007E-16
 -1      3802 1.65320E-03 2.32460E-04-8.44675E-16
 -1      3803 1.39377E-03 2.02637E-04-6.20394E-16
 -1      3804 1.26809E-03 1.75301E-04-5.35365E-16
 -1      3805 1.26414E-03 1.42651E-04-5.62511E-16
 -1      3806 1.49315E-03 2.49666E-04-6.61011E-16
 -1      3807 4.10611E-03 2.73513E-04-5.25517E-15
 -1      3808 3.96238E-03 2.73889E-04-4.88264E-15
 -1      3809 1.99605E-03-2.16391E-04-1.66803E-15
 -1      3810 2.14074E-03-2.21256E-04-1.89223E-15
 -1      3811 2.20941E-03-1.87194E-04-1.98389E-15
 -1      3812 1.73088E-03-2.06342E-04-1.29456E-15
 -1      3813 1.87511E-03-2.13226E-04-1.49259E-15
 -1      3814 1.94337E-03-1.81314E-04-1.57487E-15
 -1      3815 1.70175E-03-1.74929E-04-1.24511E-15
 -1      3816 1.01949E-02 2.33664E-04-3.53733E-14
 -1      3817 1.57005E-03 2.23010E-04-7.69160E-16
 -1      3818 1.47647E-03 2.12856E-04-6.87709E-16
 -1      3819 1.47153E-03 1.77129E-04-7.21686E-16
 -1      3820 1.63724E-03 1.94744E-04-8.72796E-16
 -1      3821 1.38037E-03-6.42863E-05-8.23208E-16
 -1      3822 1.48120E-03-1.32949E-04-9.64249E-16
 -1      3823 1.04599E-02-1.24594E-04-3.79526E-14
 -1      3824 1.05935E-02-1.90724E-04-3.85834E-14
 -1      3825 5.32424E-03 2.30921E-04-9.12462E-15
 -1      3826 2.95357E-03 2.72045E-04-2.67128E-15
 -1      3827 2.80907E-03 2.70623E-04-2.41223E-15
 -1      3828 3.81856E-03 2.74163E-04-4.52358E-15
 -1      3829 3.67464E-03 2.74324E-04-4.17889E-15
 -1      3830 3.88896E-03 2.36147E-04-4.79436E-15
 -1      3831 4.75121E-03 2.33524E-04-7.22027E-15
 -1      3832 4.68018E-03 2.71373E-04-6.88737E-15
 -1      3833 4.53678E-03 2.71986E-04-6.45775E-15
 -1      3834 1.04748E-02-4.69372E-05-3.83502E-14
 -1      3835 1.01818E-02 4.22822E-05-3.68067E-14
 -1      3836 1.01736E-02 7.48861E-05-3.69250E-14
 -1      3837 1.00696E-02 8.30167E-05-3.61375E-14
 -1      3838 3.46099E-03 3.12124E-04-3.60481E-15
 -1      3839 3.24230E-03 2.73748E-04-3.23213E-15
 -1      3840 3.09798E-03 2.73072E-04-2.94453E-15
 -1      3841 3.02283E-03 2.34820E-04-2.87707E-15
 -1      3842 1.94149E-03 2.48184E-04-1.15420E-15
 -1      3843 1.86460E-03 2.10082E-04-1.11281E-15
 -1      3844 2.08598E-03 2.54141E-04-1.32926E-15
 -1      3845 2.30774E-03 2.97778E-04-1.56280E-15
 -1      3846 1.01283E-02 2.02613E-04-3.55529E-14
 -1      3847 1.50230E-03 1.87203E-05-8.97421E-16
 -1      3848 1.50226E-03-1.57173E-05-9.22222E-16
 -1      3849 1.38534E-03 1.33912E-04-6.81245E-16
 -1      3850 9.98694E-03 1.28792E-04-3.53855E-14
 -1      3851 9.96438E-03 1.39067E-04-3.50484E-14
 -1      3852 4.39330E-03 2.72550E-04-6.04249E-15
 -1      3853 4.24975E-03 2.73066E-04-5.64143E-15
 -1      3854 4.46418E-03 2.34601E-04-6.35489E-15
 -1      3855 1.00309E-02 1.85462E-04-3.48838E-14
 -1      3856 1.50480E-03 8.78849E-05-8.42655E-16
 -1      3857 1.50315E-03 5.32177E-05-8.70709E-16
 -1      3858 1.62654E-03 3.74855E-05-1.01939E-15
 -1      3859 9.98801E-03 1.14529E-04-3.54572E-14
 -1      3860 4.17677E-03 2.35500E-04-5.54644E-15
 -1      3861 1.02989E-02-4.76537E-05-3.72091E-14
 -1      3862 5.39542E-03 1.93415E-04-9.50113E-15
 -1      3863 5.25230E-03 1.94041E-04-8.99404E-15
 -1      3864 2.42413E-03-1.54766E-04-2.32128E-15
 -1      3865 2.56938E-03-1.56563E-04-2.58277E-15
 -1      3866 2.71463E-03-1.57967E-04-2.85850E-15
 -1      3867 2.85984E-03-1.59015E-04-3.14768E-15
 -1      3868 2.63994E-03-1.19975E-04-2.67939E-15
 -1      3869 3.00497E-03-1.59784E-04-3.45173E-15
 -1      3870 3.15001E-03-1.60298E-04-3.77020E-15
 -1      3871 2.93063E-03-1.21616E-04-3.25278E-15
 -1      3872 3.29493E-03-1.60622E-04-4.10273E-15
 -1      3873 3.43972E-03-1.60769E-04-4.44852E-15
 -1      3874 3.22099E-03-1.22425E-04-3.88323E-15
 -1      3875 3.58439E-03-1.60791E-04-4.80837E-15
 -1      3876 3.72891E-03-1.60694E-04-5.18257E-15
 -1      3877 3.51086E-03-1.22658E-04-4.56957E-15
 -1      3878 3.87330E-03-1.60516E-04-5.57032E-15
 -1      3879 4.01756E-03-1.60259E-04-5.97229E-15
 -1      3880 3.80016E-03-1.22507E-04-5.31107E-15
 -1      3881 4.16169E-03-1.59951E-04-6.38771E-15
 -1      3882 4.30568E-03-1.59592E-04-6.81619E-15
 -1      3883 4.08890E-03-1.22103E-04-6.10773E-15
 -1      3884 4.44956E-03-1.59200E-04-7.25839E-15
 -1      3885 4.59331E-03-1.58770E-04-7.71433E-15
 -1      3886 4.37708E-03-1.21537E-04-6.95947E-15
 -1      3887 4.73695E-03-1.58317E-04-8.18304E-15
 -1      3888 4.88048E-03-1.57832E-04-8.66608E-15
 -1      3889 4.66473E-03-1.20859E-04-7.86567E-15
 -1      3890 5.02390E-03-1.57325E-04-9.16290E-15
 -1      3891 5.16720E-03-1.56787E-04-9.67256E-15
 -1      3892 4.95190E-03-1.20094E-04-8.82602E-15
 -1      3893 5.31040E-03-1.56221E-04-1.01960E-14
 -1      3894 5.45349E-03-1.55618E-04-1.07342E-14
 -1      3895 5.23858E-03-1.19243E-04-9.84022E-15
 -1      3896 5.59646E-03-1.54978E-04-1.12858E-14
 -1      3897 5.73931E-03-1.54292E-04-1.18501E-14
 -1      3898 5.52478E-03-1.18289E-04-1.09102E-14
 -1      3899 5.88204E-03-1.53557E-04-1.24292E-14
 -1      3900 6.02462E-03-1.52760E-04-1.30226E-14
 -1      3901 5.81047E-03-1.17203E-04-1.20356E-14
 -1      3902 6.16706E-03-1.51901E-04-1.36298E-14
 -1      3903 6.30934E-03-1.50963E-04-1.42489E-14
 -1      3904 6.09557E-03-1.15940E-04-1.32159E-14
 -1      3905 6.45143E-03-1.49945E-04-1.48813E-14
 -1      3906 6.59332E-03-1.48829E-04-1.55276E-14
 -1      3907 6.37998E-03-1.14449E-04-1.44505E-14
 -1      3908 6.73499E-03-1.47616E-04-1.61860E-14
 -1      3909 6.87642E-03-1.46284E-04-1.68567E-14
 -1      3910 6.66356E-03-1.12668E-04-1.57369E-14
 -1      3911 7.01757E-03-1.44837E-04-1.75400E-14
 -1      3912 7.15843E-03-1.43248E-04-1.82357E-14
 -1      3913 6.94610E-03-1.10526E-04-1.70739E-14
 -1      3914 7.29894E-03-1.41527E-04-1.89423E-14
 -1      3915 7.43910E-03-1.39643E-04-1.96606E-14
 -1      3916 7.22736E-03-1.07949E-04-1.84582E-14
 -1      3917 7.57884E-03-1.37611E-04-2.03904E-14
 -1      3918 7.71816E-03-1.35396E-04-2.11301E-14
 -1      3919 7.50706E-03-1.04850E-04-1.98906E-14
 -1      3920 7.85699E-03-1.33019E-04-2.18827E-14
 -1      3921 7.99533E-03-1.30441E-04-2.26464E-14
 -1      3922 7.78487E-03-1.01141E-04-2.13671E-14
 -1      3923 8.13310E-03-1.27693E-04-2.34226E-14
 -1      3924 8.27033E-03-1.24731E-04-2.42087E-14
 -1      3925 8.06044E-03-9.67216E-05-2.28897E-14
 -1      3926 8.40695E-03-1.21594E-04-2.50068E-14
 -1      3927 8.54298E-03-1.18236E-04-2.58165E-14
 -1      3928 8.33343E-03-9.14853E-05-2.44588E-14
 -1      3929 8.67837E-03-1.14705E-04-2.66353E-14
 -1      3930 8.81319E-03-1.10956E-04-2.74648E-14
 -1      3931 8.60352E-03-8.53113E-05-2.60710E-14
 -1      3932 8.94739E-03-1.07043E-04-2.83035E-14
 -1      3933 9.08113E-03-1.02936E-04-2.91492E-14
 -1      3934 8.87052E-03-7.80659E-05-2.77241E-14
 -1      3935 9.21435E-03-9.86913E-05-3.00053E-14
 -1      3936 9.34735E-03-9.43101E-05-3.08677E-14
 -1      3937 9.13437E-03-6.96133E-05-2.94146E-14
 -1      3938 9.48007E-03-8.98376E-05-3.17362E-14
 -1      3939 9.61307E-03-8.54105E-05-3.26129E-14
 -1      3940 9.39536E-03-5.98150E-05-3.11353E-14
 -1      3941 9.74629E-03-8.10114E-05-3.34966E-14
 -1      3942 9.88067E-03-7.70965E-05-3.43870E-14
 -1      3943 9.65433E-03-4.86532E-05-3.28850E-14
 -1      3944 6.53604E-03 1.86358E-04-1.40492E-14
 -1      3945 6.39398E-03 1.87506E-04-1.34338E-14
 -1      3946 2.73330E-03 2.32243E-04-2.35144E-15
 -1      3947 2.66450E-03 2.68698E-04-2.16755E-15
 -1      3948 2.51987E-03 2.66210E-04-1.93679E-15
 -1      3949 5.10909E-03 1.94627E-04-8.50249E-15
 -1      3950 4.96577E-03 1.95182E-04-8.02361E-15
 -1      3951 5.18035E-03 1.57035E-04-8.86272E-15
 -1      3952 6.25175E-03 1.88560E-04-1.28311E-14
 -1      3953 6.10936E-03 1.89536E-04-1.22408E-14
 -1      3954 6.32236E-03 1.51916E-04-1.32674E-14
 -1      3955 5.96681E-03 1.90432E-04-1.16653E-14
 -1      3956 5.82414E-03 1.91264E-04-1.11043E-14
 -1      3957 6.03771E-03 1.53498E-04-1.20836E-14
 -1      3958 6.81949E-03 1.83776E-04-1.53207E-14
 -1      3959 6.67788E-03 1.85120E-04-1.46782E-14
 -1      3960 6.60623E-03 1.50062E-04-1.45047E-14
 -1      3961 7.10188E-03 1.80783E-04-1.66442E-14
 -1      3962 6.96083E-03 1.82336E-04-1.59770E-14
 -1      3963 6.88912E-03 1.47906E-04-1.57953E-14
 -1      3964 7.38290E-03 1.77384E-04-1.80162E-14
 -1      3965 7.24258E-03 1.79138E-04-1.73234E-14
 -1      3966 7.17075E-03 1.45441E-04-1.71357E-14
 -1      3967 7.66217E-03 1.73640E-04-1.94358E-14
 -1      3968 7.52278E-03 1.75557E-04-1.87198E-14
 -1      3969 7.45079E-03 1.42696E-04-1.85238E-14
 -1      3970 7.93919E-03 1.69694E-04-2.09021E-14
 -1      3971 7.80099E-03 1.71692E-04-2.01640E-14
 -1      3972 7.72878E-03 1.39763E-04-1.99604E-14
 -1      3973 8.21337E-03 1.65800E-04-2.24099E-14
 -1      3974 8.07667E-03 1.67737E-04-2.16509E-14
 -1      3975 8.00418E-03 1.36815E-04-2.14394E-14
 -1      3976 8.48396E-03 1.62351E-04-2.39639E-14
 -1      3977 8.34915E-03 1.64013E-04-2.31812E-14
 -1      3978 8.27634E-03 1.34133E-04-2.29621E-14
 -1      3979 8.75009E-03 1.59901E-04-2.55618E-14
 -1      3980 8.61763E-03 1.60992E-04-2.47582E-14
 -1      3981 8.54444E-03 1.32136E-04-2.45309E-14
 -1      3982 9.01066E-03 1.59164E-04-2.71995E-14
 -1      3983 8.88113E-03 1.59312E-04-2.63756E-14
 -1      3984 8.80748E-03 1.31380E-04-2.61438E-14
 -1      3985 9.26435E-03 1.60982E-04-2.88731E-14
 -1      3986 9.13844E-03 1.59760E-04-2.80321E-14
 -1      3987 9.06425E-03 1.32565E-04-2.77953E-14
 -1      3988 9.50948E-03 1.66195E-04-3.05782E-14
 -1      3989 9.38806E-03 1.63210E-04-2.97206E-14
 -1      3990 9.31315E-03 1.36504E-04-2.94800E-14
 -1      3991 9.74380E-03 1.75451E-04-3.23152E-14
 -1      3992 9.62808E-03 1.70436E-04-3.14437E-14
 -1      3993 9.55205E-03 1.43903E-04-3.11979E-14
 -1      3994 9.94616E-03 1.82716E-04-3.40372E-14
 -1      3995 9.83820E-03 1.75802E-04-3.31509E-14
 -1      3996 9.76260E-03 1.49413E-04-3.29013E-14
 -1      3997 9.94126E-03 1.53518E-04-3.45825E-14
 -1      3998 5.68134E-03 1.92032E-04-1.05562E-14
 -1      3999 5.53843E-03 1.92748E-04-1.00224E-14
 -1      4000 5.46663E-03 1.56016E-04-9.88157E-15
 -1      4001 2.37522E-03 2.63022E-04-1.72017E-15
 -1      4002 2.23057E-03 2.59053E-04-1.51772E-15
 -1      4003 2.15381E-03 2.20670E-04-1.46989E-15
 -1      4004 2.44353E-03 2.27768E-04-1.88274E-15
 -1      4005 3.53063E-03 2.74328E-04-3.84945E-15
 -1      4006 3.38651E-03 2.74157E-04-3.53377E-15
 -1      4007 3.31199E-03 2.36066E-04-3.45951E-15
 -1      4008 3.60070E-03 2.36405E-04-4.09853E-15
 -1      4009 9.97327E-03 9.16241E-05-3.53418E-14
 -1      4010 9.88556E-03 9.86652E-05-3.45516E-14
 -1      4011 9.96346E-03 6.62832E-05-3.52266E-14
 -1      4012 1.50300E-03-5.02057E-05-9.45357E-16
 -1      4013 1.50456E-03-8.48570E-05-9.67325E-16
 -1      4014 1.62644E-03-3.43500E-05-1.07515E-15
 -1      4015 1.48912E-03 1.50048E-04-7.67290E-16
 -1      4016 1.48592E-03 1.15027E-04-7.98528E-16
 -1      4017 1.60858E-03 1.01898E-04-9.40776E-16
 -1      4018 1.57177E-03 1.58130E-04-8.44011E-16
 -1      4019 4.24769E-03 1.97455E-04-5.84281E-15
 -1      4020 4.10375E-03 1.97791E-04-5.44948E-15
 -1      4021 1.01498E-02-6.99311E-05-3.61664E-14
 -1      4022 1.01741E-02-2.48015E-06-3.65549E-14
 -1      4023 1.00530E-02 1.45860E-05-3.57707E-14
 -1      4024 1.00120E-02-7.20963E-05-3.52630E-14
 -1      4025 1.60365E-03-1.20531E-04-1.09967E-15
 -1      4026 9.87805E-03 1.35165E-04-3.42017E-14
 -1      4027 2.13385E-03-1.49667E-04-1.84058E-15
 -1      4028 2.27893E-03-1.52485E-04-2.07401E-15
 -1      4029 2.34921E-03-1.17167E-04-2.16262E-15
 -1      4030 1.89135E-03-1.46878E-04-1.48391E-15
 -1      4031 2.01250E-03-1.48549E-04-1.65709E-15
 -1      4032 2.08243E-03-1.14943E-04-1.73859E-15
 -1      4033 9.90944E-03-3.53299E-05-3.46424E-14
 -1      4034 3.95969E-03 1.98061E-04-5.06919E-15
 -1      4035 3.81551E-03 1.98264E-04-4.70327E-15
 -1      4036 4.03072E-03 1.59948E-04-5.34848E-15
 -1      4037 5.75243E-03 1.54850E-04-1.09553E-14
 -1      4038 1.72403E-03-1.23153E-04-1.24915E-15
 -1      4039 9.81920E-03 9.35811E-05-3.39819E-14
 -1      4040 9.84550E-03 1.14948E-04-3.40934E-14
 -1      4041 9.81400E-03 1.30723E-04-3.36336E-14
 -1      4042 4.82236E-03 1.95703E-04-7.55799E-15
 -1      4043 4.67885E-03 1.96195E-04-7.10773E-15
 -1      4044 4.89363E-03 1.57936E-04-7.89973E-15
 -1      4045 1.65467E-03 1.66026E-04-9.24648E-16
 -1      4046 1.79867E-03 1.72337E-04-1.08092E-15
 -1      4047 1.73359E-03 1.35562E-04-1.04695E-15
 -1      4048 1.94310E-03 1.77662E-04-1.25095E-15
 -1      4049 3.09272E-03 1.97340E-04-3.08827E-15
 -1      4050 2.94781E-03 1.96546E-04-2.80699E-15
 -1      4051 4.53524E-03 1.96651E-04-6.67180E-15
 -1      4052 4.39152E-03 1.97076E-04-6.25003E-15
 -1      4053 4.60646E-03 1.58732E-04-6.99264E-15
 -1      4054 1.75062E-03-1.69679E-05-1.21187E-15
 -1      4055 1.75141E-03-5.42069E-05-1.24063E-15
 -1      4056 4.31884E-03 1.59415E-04-6.14304E-15
 -1      4057 2.87298E-03 1.58308E-04-2.73554E-15
 -1      4058 2.80281E-03 1.95428E-04-2.54091E-15
 -1      4059 2.65775E-03 1.93951E-04-2.28886E-15
 -1      4060 1.75157E-03 5.74638E-05-1.14797E-15
 -1      4061 1.75067E-03 2.02213E-05-1.18093E-15
 -1      4062 1.87547E-03 1.67977E-06-1.35520E-15
 -1      4063 2.85663E-03-8.35639E-05-3.05788E-15
 -1      4064 3.00201E-03-8.39649E-05-3.35575E-15
 -1      4065 3.14730E-03-8.42410E-05-3.66809E-15
 -1      4066 3.29246E-03-8.43993E-05-3.99436E-15
 -1      4067 3.07390E-03-4.61082E-05-3.45684E-15
 -1      4068 3.43750E-03-8.44739E-05-4.33406E-15
 -1      4069 3.58239E-03-8.44671E-05-4.68779E-15
 -1      4070 3.36437E-03-4.62651E-05-4.10249E-15
 -1      4071 3.72714E-03-8.44085E-05-5.05511E-15
 -1      4072 3.87173E-03-8.42930E-05-5.43651E-15
 -1      4073 3.65428E-03-4.62426E-05-4.80379E-15
 -1      4074 4.01618E-03-8.41431E-05-5.83261E-15
 -1      4075 4.16048E-03-8.39572E-05-6.24152E-15
 -1      4076 3.94358E-03-4.60835E-05-5.56062E-15
 -1      4077 4.30464E-03-8.37519E-05-6.66428E-15
 -1      4078 4.44866E-03-8.35205E-05-7.10131E-15
 -1      4079 4.23228E-03-4.58529E-05-6.37301E-15
 -1      4080 4.59254E-03-8.32756E-05-7.55121E-15
 -1      4081 4.73629E-03-8.30109E-05-8.01519E-15
 -1      4082 4.52040E-03-4.55693E-05-7.24059E-15
 -1      4083 4.87991E-03-8.27349E-05-8.49250E-15
 -1      4084 5.02341E-03-8.24408E-05-8.98377E-15
 -1      4085 4.80796E-03-4.52471E-05-8.16252E-15
 -1      4086 5.16677E-03-8.21340E-05-9.48765E-15
 -1      4087 5.31002E-03-8.18074E-05-1.00055E-14
 -1      4088 5.09499E-03-4.48906E-05-9.13812E-15
 -1      4089 5.45313E-03-8.14638E-05-1.05389E-14
 -1      4090 5.59611E-03-8.10956E-05-1.10851E-14
 -1      4091 5.38150E-03-4.44958E-05-1.01705E-14
 -1      4092 5.73894E-03-8.07039E-05-1.16446E-14
 -1      4093 5.88163E-03-8.02800E-05-1.22179E-14
 -1      4094 5.66745E-03-4.40512E-05-1.12569E-14
 -1      4095 6.02416E-03-7.98241E-05-1.28062E-14
 -1      4096 6.16651E-03-7.93259E-05-1.34075E-14
 -1      4097 5.95280E-03-4.35386E-05-1.23986E-14
 -1      4098 6.30867E-03-7.87852E-05-1.40221E-14
 -1      4099 6.45061E-03-7.81895E-05-1.46496E-14
 -1      4100 6.23745E-03-4.29324E-05-1.35961E-14
 -1      4101 6.59232E-03-7.75389E-05-1.52911E-14
 -1      4102 6.73377E-03-7.68177E-05-1.59448E-14
 -1      4103 6.52125E-03-4.21990E-05-1.48472E-14
 -1      4104 6.87492E-03-7.60272E-05-1.66104E-14
 -1      4105 7.01575E-03-7.51472E-05-1.72884E-14
 -1      4106 6.80400E-03-4.12945E-05-1.61496E-14
 -1      4107 7.15622E-03-7.41807E-05-1.79785E-14
 -1      4108 7.29629E-03-7.31020E-05-1.86801E-14
 -1      4109 7.08545E-03-4.01613E-05-1.75006E-14
 -1      4110 7.43590E-03-7.19164E-05-1.93938E-14
 -1      4111 7.57503E-03-7.05911E-05-2.01182E-14
 -1      4112 7.36528E-03-3.87240E-05-1.88995E-14
 -1      4113 7.71362E-03-6.91342E-05-2.08540E-14
 -1      4114 7.85162E-03-6.75038E-05-2.16011E-14
 -1      4115 7.64312E-03-3.68819E-05-2.03439E-14
 -1      4116 7.98896E-03-6.57111E-05-2.23600E-14
 -1      4117 8.12562E-03-6.37035E-05-2.31307E-14
 -1      4118 7.91853E-03-3.45014E-05-2.18333E-14
 -1      4119 8.26150E-03-6.14946E-05-2.39118E-14
 -1      4120 8.39660E-03-5.90196E-05-2.47049E-14
 -1      4121 8.19101E-03-3.14037E-05-2.33682E-14
 -1      4122 8.53081E-03-5.62939E-05-2.55100E-14
 -1      4123 8.66413E-03-5.32383E-05-2.63240E-14
 -1      4124 8.46004E-03-2.73530E-05-2.49489E-14
 -1      4125 8.79645E-03-4.98702E-05-2.71469E-14
 -1      4126 8.92783E-03-4.60951E-05-2.79810E-14
 -1      4127 8.72503E-03-2.20408E-05-2.65734E-14
 -1      4128 9.05808E-03-4.19489E-05-2.88241E-14
 -1      4129 9.18736E-03-3.72715E-05-2.96760E-14
 -1      4130 8.98536E-03-1.50756E-05-2.82359E-14
 -1      4131 9.31549E-03-3.21560E-05-3.05351E-14
 -1      4132 9.44266E-03-2.63985E-05-3.13999E-14
 -1      4133 9.24041E-03-5.91841E-06-2.99336E-14
 -1      4134 9.56858E-03-2.01562E-05-3.22739E-14
 -1      4135 9.69369E-03-1.31801E-05-3.31554E-14
 -1      4136 9.48959E-03 5.92375E-06-3.16637E-14
 -1      4137 6.95870E-03 1.12428E-04-1.62720E-14
 -1      4138 6.81769E-03 1.13286E-04-1.56110E-14
 -1      4139 5.25167E-03 1.19537E-04-9.22644E-15
 -1      4140 5.10839E-03 1.19900E-04-8.72893E-15
 -1      4141 6.39292E-03 1.15523E-04-1.37080E-14
 -1      4142 6.25085E-03 1.16170E-04-1.30993E-14
 -1      4143 6.10858E-03 1.16763E-04-1.25050E-14
 -1      4144 5.96613E-03 1.17316E-04-1.19244E-14
 -1      4145 6.17944E-03 8.02440E-05-1.29295E-14
 -1      4146 7.23960E-03 1.10578E-04-1.76289E-14
 -1      4147 7.09935E-03 1.11531E-04-1.69445E-14
 -1      4148 7.02829E-03 7.73533E-05-1.67501E-14
 -1      4149 7.51868E-03 1.08587E-04-1.90328E-14
 -1      4150 7.37939E-03 1.09603E-04-1.83256E-14
 -1      4151 7.30849E-03 7.62020E-05-1.81253E-14
 -1      4152 7.79548E-03 1.06573E-04-2.04856E-14
 -1      4153 7.65739E-03 1.07584E-04-1.97534E-14
 -1      4154 7.58670E-03 7.50575E-05-1.95456E-14
 -1      4155 8.06939E-03 1.04734E-04-2.19778E-14
 -1      4156 7.93283E-03 1.05631E-04-2.12266E-14
 -1      4157 7.86240E-03 7.40594E-05-2.10108E-14
 -1      4158 8.33972E-03 1.03377E-04-2.35171E-14
 -1      4159 8.20505E-03 1.03994E-04-2.27421E-14
 -1      4160 8.13500E-03 7.34281E-05-2.25199E-14
 -1      4161 8.60561E-03 1.02935E-04-2.51018E-14
 -1      4162 8.47328E-03 1.03040E-04-2.43037E-14
 -1      4163 8.40376E-03 7.34870E-05-2.40748E-14
 -1      4164 8.86597E-03 1.03968E-04-2.67281E-14
 -1      4165 8.73655E-03 1.03273E-04-2.59090E-14
 -1      4166 8.66780E-03 7.46814E-05-2.56740E-14
 -1      4167 9.11951E-03 1.07167E-04-2.83922E-14
 -1      4168 8.99369E-03 1.05299E-04-2.75552E-14
 -1      4169 8.92601E-03 7.75715E-05-2.73143E-14
 -1      4170 9.36441E-03 1.13336E-04-3.00899E-14
 -1      4171 9.24317E-03 1.09934E-04-2.92378E-14
 -1      4172 9.17704E-03 8.28415E-05-2.89920E-14
 -1      4173 9.59821E-03 1.23096E-04-3.18197E-14
 -1      4174 9.48293E-03 1.17848E-04-3.09502E-14
 -1      4175 9.41906E-03 9.12414E-05-3.07029E-14
 -1      4176 9.72012E-03 1.29100E-04-3.27970E-14
 -1      4177 2.27486E-03-8.00550E-05-2.00853E-15
 -1      4178 2.42024E-03-8.12789E-05-2.24977E-15
 -1      4179 5.82352E-03 1.17825E-04-1.13570E-14
 -1      4180 5.68076E-03 1.18301E-04-1.08044E-14
 -1      4181 5.89460E-03 8.09744E-05-1.17622E-14
 -1      4182 6.67637E-03 1.14082E-04-1.49638E-14
 -1      4183 6.53477E-03 1.14832E-04-1.43290E-14
 -1      4184 6.46347E-03 7.93985E-05-1.41512E-14
 -1      4185 1.91802E-03-7.50841E-05-1.47457E-15
 -1      4186 1.79390E-03-9.19211E-05-1.32021E-15
 -1      4187 9.94020E-03 2.99260E-05-3.49831E-14
 -1      4188 3.23752E-03 1.97886E-04-3.38289E-15
 -1      4189 3.16316E-03 1.59656E-04-3.30336E-15
 -1      4190 3.38220E-03 1.98206E-04-3.69176E-15
 -1      4191 4.39019E-03 1.21393E-04-6.44638E-15
 -1      4192 4.24617E-03 1.21626E-04-6.03283E-15
 -1      4193 9.82445E-03 1.94832E-05-3.41093E-14
 -1      4194 5.53785E-03 1.18740E-04-1.02641E-14
 -1      4195 5.39482E-03 1.19153E-04-9.73814E-15
 -1      4196 5.60911E-03 8.16044E-05-1.06501E-14
 -1      4197 1.75234E-03 1.06119E-04-1.10021E-15
 -1      4198 2.56569E-03-8.22525E-05-2.50540E-15
 -1      4199 2.71117E-03-8.29963E-05-2.77446E-15
 -1      4200 2.78301E-03-4.56775E-05-2.86762E-15
 -1      4201 9.74324E-03 4.40646E-05-3.34870E-14
 -1      4202 2.23275E-03 1.85772E-04-1.63197E-15
 -1      4203 2.08782E-03 1.82111E-04-1.43468E-15
 -1      4204 2.02251E-03 1.44163E-04-1.39643E-15
 -1      4205 4.10202E-03 1.21822E-04-5.63261E-15
 -1      4206 3.95772E-03 1.21986E-04-5.24549E-15
 -1      4207 4.17356E-03 8.37150E-05-5.91984E-15
 -1      4208 5.32304E-03 8.21515E-05-9.59351E-15
 -1      4209 6.74650E-03 7.84314E-05-1.54255E-14
 -1      4210 5.03644E-03 8.26313E-05-8.59123E-15
 -1      4211 4.96499E-03 1.20238E-04-8.24407E-15
 -1      4212 4.82148E-03 1.20560E-04-7.77334E-15
 -1      4213 4.67784E-03 1.20858E-04-7.31690E-15
 -1      4214 4.53408E-03 1.21139E-04-6.87444E-15
 -1      4215 4.74934E-03 8.30536E-05-7.64479E-15
 -1      4216 9.66015E-03 1.02849E-04-3.25429E-14
 -1      4217 1.87616E-03 9.00096E-05-1.26884E-15
 -1      4218 1.99711E-03-3.58088E-05-1.55293E-15
 -1      4219 2.03935E-03-7.50825E-05-1.64529E-15
 -1      4220 2.16091E-03-7.47492E-05-1.82585E-15
 -1      4221 2.51777E-03 1.91584E-04-2.05970E-15
 -1      4222 2.37267E-03 1.89176E-04-1.83497E-15
 -1      4223 2.30742E-03 1.50511E-04-1.79270E-15
 -1      4224 2.58764E-03 1.55359E-04-2.23301E-15
 -1      4225 4.46172E-03 8.34189E-05-6.75398E-15
 -1      4226 3.67119E-03 1.98365E-04-4.35174E-15
 -1      4227 3.52676E-03 1.98360E-04-4.01464E-15
 -1      4228 3.74207E-03 1.60252E-04-4.61030E-15
 -1      4229 3.23413E-03 1.21787E-04-3.52343E-15
 -1      4230 3.08901E-03 1.21431E-04-3.22182E-15
 -1      4231 2.94377E-03 1.20898E-04-2.93424E-15
 -1      4232 2.79845E-03 1.20182E-04-2.66073E-15
 -1      4233 3.01513E-03 8.32490E-05-3.13805E-15
 -1      4234 2.23250E-03-3.95210E-05-1.90402E-15
 -1      4235 1.99678E-03 3.44431E-06-1.51658E-15
 -1      4236 9.59278E-03 3.51450E-05-3.23480E-14
 -1      4237 9.72429E-03 6.49666E-05-3.32916E-14
 -1      4238 9.67919E-03 8.34142E-05-3.28404E-14
 -1      4239 9.47284E-03 2.79558E-05-3.14748E-14
 -1      4240 2.49194E-03-4.48721E-05-2.33544E-15
 -1      4241 3.04385E-03 1.86189E-05-3.29892E-15
 -1      4242 3.18920E-03 1.87167E-05-3.60634E-15
 -1      4243 3.58164E-03-8.04061E-06-4.55593E-15
 -1      4244 3.72648E-03-8.00004E-06-4.91722E-15
 -1      4245 3.91385E-03 1.89036E-05-5.35302E-15
 -1      4246 4.05832E-03 1.89128E-05-5.74473E-15
 -1      4247 4.20264E-03 1.89075E-05-6.14894E-15
 -1      4248 4.34682E-03 1.89072E-05-6.56761E-15
 -1      4249 4.49085E-03 1.88943E-05-7.00022E-15
 -1      4250 4.63474E-03 1.88855E-05-7.44618E-15
 -1      4251 4.77849E-03 1.88667E-05-7.90680E-15
 -1      4252 4.92211E-03 1.88514E-05-8.38069E-15
 -1      4253 5.06559E-03 1.88276E-05-8.86815E-15
 -1      4254 5.20894E-03 1.88066E-05-9.36982E-15
 -1      4255 5.35216E-03 1.87779E-05-9.88443E-15
 -1      4256 5.49524E-03 1.87515E-05-1.04135E-14
 -1      4257 5.63818E-03 1.87178E-05-1.09571E-14
 -1      4258 5.78096E-03 1.86867E-05-1.15125E-14
 -1      4259 5.92359E-03 1.86483E-05-1.20832E-14
 -1      4260 6.06603E-03 1.86143E-05-1.26678E-14
 -1      4261 6.20829E-03 1.85735E-05-1.32656E-14
 -1      4262 6.35033E-03 1.85411E-05-1.38772E-14
 -1      4263 6.49214E-03 1.85034E-05-1.45020E-14
 -1      4264 6.63369E-03 1.84815E-05-1.51401E-14
 -1      4265 6.77494E-03 1.84579E-05-1.57913E-14
 -1      4266 6.91586E-03 1.84627E-05-1.64544E-14
 -1      4267 7.05642E-03 1.84733E-05-1.71294E-14
 -1      4268 7.19657E-03 1.85321E-05-1.78177E-14
 -1      4269 7.33625E-03 1.86099E-05-1.85163E-14
 -1      4270 7.47542E-03 1.87661E-05-1.92266E-14
 -1      4271 7.61402E-03 1.89633E-05-1.99482E-14
 -1      4272 7.75199E-03 1.92830E-05-2.06813E-14
 -1      4273 7.88924E-03 1.96780E-05-2.14239E-14
 -1      4274 8.02573E-03 2.02584E-05-2.21797E-14
 -1      4275 8.16134E-03 2.09641E-05-2.29470E-14
 -1      4276 8.29603E-03 2.19422E-05-2.37241E-14
 -1      4277 8.42966E-03 2.31159E-05-2.45139E-14
 -1      4278 8.56218E-03 2.46786E-05-2.53145E-14
 -1      4279 8.69343E-03 2.65301E-05-2.61263E-14
 -1      4280 8.82336E-03 2.89253E-05-2.69464E-14
 -1      4281 8.95175E-03 3.17201E-05-2.77768E-14
 -1      4282 9.07858E-03 3.53060E-05-2.86177E-14
 -1      4283 9.22695E-03 1.64119E-05-2.97477E-14
 -1      4284 9.35098E-03 2.17841E-05-3.06076E-14
 -1      4285 9.45928E-03 4.91326E-05-3.12849E-14
 -1      4286 2.41878E-03-7.91834E-06-2.17046E-15
 -1      4287 2.56431E-03-7.99689E-06-2.41919E-15
 -1      4288 9.43709E-03 7.03331E-05-3.09943E-14
 -1      4289 9.31737E-03 6.50363E-05-3.01323E-14
 -1      4290 2.00866E-03 9.91975E-05-1.43157E-15
 -1      4291 2.00826E-03 4.78777E-05-1.48809E-15
 -1      4292 2.12925E-03 1.04562E-05-1.69850E-15
 -1      4293 2.15366E-03 1.01537E-04-1.63064E-15
 -1      4294 9.55419E-03 7.68186E-05-3.18628E-14
 -1      4295 3.45287E-03 1.60221E-04-3.92805E-15
 -1      4296 3.37914E-03 1.22019E-04-3.83965E-15
 -1      4297 3.30558E-03 8.37792E-05-3.74832E-15
 -1      4298 3.52400E-03 1.22127E-04-4.16983E-15
 -1      4299 2.75289E-03 1.83580E-05-2.72704E-15
 -1      4300 2.89841E-03 1.85137E-05-3.00602E-15
 -1      4301 2.21697E-03 3.49662E-06-1.83688E-15
 -1      4302 2.33086E-03-6.59364E-07-2.01903E-15
 -1      4303 2.40390E-03 3.59627E-05-2.09430E-15
 -1      4304 2.22848E-03 4.94647E-05-1.80284E-15
 -1      4305 3.33442E-03 1.87753E-05-3.92762E-15
 -1      4306 3.84183E-03 5.70820E-05-5.08573E-15
 -1      4307 3.47949E-03 1.88307E-05-4.26285E-15
 -1      4308 9.19502E-03 6.06547E-05-2.92776E-14
 -1      4309 3.55234E-03 5.70802E-05-4.36519E-15
 -1      4310 3.77009E-03 9.52673E-05-4.82180E-15
 -1      4311 2.60904E-03 9.26587E-05-2.36333E-15
 -1      4312 2.46875E-03 9.11452E-05-2.12912E-15
 -1      4313 2.68065E-03 5.56865E-05-2.54249E-15
 -1      4314 2.29371E-03 1.03879E-04-1.83485E-15
 -1      4315 3.62542E-03 9.52963E-05-4.46503E-15
 -1      4316 2.38119E-03 9.76167E-05-1.97898E-15
 -3
    1PSTEP                         2           1           1          
  100CL  101 1.000000000        4316                     0    1           1
 -4  STRESS      6    1
 -5  SXX         1    4    1    1
 -5  SYY         1    4    2    2
 -5  SZZ         1    4    3    3
 -5  SXY         1    4    1    2
 -5  SYZ         1    4    2    3
 -5  SZX         1    4    3    1
 -1         1 8.31570E+00 7.64608E+00-4.13531E-01 8.14332E+00-1.07669E-12-8.85569E-13
 -1         2-8.73428E-01-3.04667E+01-4.23131E+00-1.48659E-01 9.33401E-13-1.35555E-13
 -1         3 1.99732E+01-2.64001E-02 8.01499E-02-2.75852E-02-3.88398E-13-3.67052E-13
 -1         4 2.00402E+01 4.23351E-02 2.41962E-02-4.07258E-02 3.77499E-14 2.10569E-13
 -1         5 3.27688E+01 6.14289E+00 2.74237E+00 6.22425E+00-2.86854E-14 1.76299E-12
 -1         6 3.57527E+01 1.22634E+01 5.12530E+00-8.64657E+00-1.07983E-13 9.17821E-13
 -1         7 2.08200E+01 6.10004E+00-1.28569E-01-4.72518E+00-1.59178E-14-1.05194E-13
 -1         8 1.96729E+01 5.93526E+00 5.10124E-02-3.27418E+00-9.58261E-15-3.47997E-13
 -1         9 1.91375E+01 5.77205E+00 4.91103E-02-2.52587E+00-3.58220E-15-4.38780E-13
 -1        10 1.88954E+01 5.69216E+00 5.10589E-02-1.95070E+00 2.05825E-15-4.55442E-13
 -1        11 1.87735E+01 5.65116E+00 5.02492E-02-1.45552E+00 3.16457E-15-4.40722E-13
 -1        12 1.87095E+01 5.62942E+00 4.87232E-02-1.01473E+00 6.30225E-15-4.09876E-13
 -1        13 1.86758E+01 5.61793E+00 4.73962E-02-5.95114E-01 6.75816E-15-3.65806E-13
 -1        14 1.86616E+01 5.61306E+00 4.66764E-02-1.91133E-01 9.88077E-15-3.22773E-13
 -1        15 1.86621E+01 5.61323E+00 4.67185E-02 2.08109E-01 1.22288E-14-2.75205E-13
 -1        16 1.86773E+01 5.61842E+00 4.75411E-02 6.12927E-01 1.55166E-14-2.29516E-13
 -1        17 1.87124E+01 5.63019E+00 4.90599E-02 1.03455E+00 1.40187E-14-1.63977E-13
 -1        18 1.87775E+01 5.65231E+00 5.08152E-02 1.47853E+00 1.72306E-14-7.49487E-14
 -1        19 1.89011E+01 5.69380E+00 5.15347E-02 1.97959E+00 2.31083E-14 5.13131E-14
 -1        20 1.91430E+01 5.77464E+00 4.88016E-02 2.56319E+00 2.38681E-14 2.34177E-13
 -1        21 1.96683E+01 5.94985E+00 4.59630E-02 3.30826E+00 2.69784E-14 5.22137E-13
 -1        22 2.12027E+01 6.38176E+00 1.39751E-01 4.52271E+00-1.54043E-15 9.87609E-13
 -1        23 2.30309E+01-1.37929E+00-9.38383E-01-7.11058E-01-7.41004E-14 5.62189E-13
 -1        24 1.93689E+01-9.94934E-02-3.09830E-01 6.32466E-02-1.09314E-14 2.77008E-13
 -1        25 1.86811E+01-5.63223E-02-6.87732E-02 6.07334E-02-1.35178E-14 1.24570E-14
 -1        26 1.84790E+01-2.20874E-02-6.47347E-03 3.29775E-02-6.21313E-15-1.98886E-13
 -1        27 1.84908E+01-1.18006E-02 1.58205E-03 2.26216E-02-1.89161E-15-2.74872E-13
 -1        28 1.86055E+01-6.23406E-03 1.79209E-03 1.63275E-02-4.25896E-15-3.29039E-13
 -1        29 1.87658E+01-3.07551E-03 1.73434E-03 1.21807E-02-7.25055E-15-4.16574E-13
 -1        30 1.89404E+01-1.21618E-03 1.92060E-03 9.22667E-03 1.41878E-14-5.08556E-13
 -1        31 1.91115E+01-1.16406E-04 2.08682E-03 7.00673E-03-9.41918E-15-5.61538E-13
 -1        32 1.92694E+01 5.14416E-04 2.12487E-03 5.28737E-03 7.56628E-15-6.99525E-13
 -1        33 1.94089E+01 8.45423E-04 2.04159E-03 3.93721E-03 8.53603E-15-8.12849E-13
 -1        34 1.95284E+01 9.81774E-04 1.87447E-03 2.87272E-03-3.06397E-14-8.65894E-13
 -1        35 1.96280E+01 9.91700E-04 1.65855E-03 2.03458E-03 1.88412E-14-8.99097E-13
 -1        36 1.97091E+01 9.20163E-04 1.41902E-03 1.37731E-03-2.45749E-15-7.08109E-13
 -1        37 1.97740E+01 7.96308E-04 1.17146E-03 8.64624E-04-1.29743E-14-7.30526E-13
 -1        38 1.98251E+01 6.37941E-04 9.23367E-04 4.67421E-04-9.68523E-15-6.96755E-13
 -1        39 1.98654E+01 4.54483E-04 6.75716E-04 1.62987E-04-1.57712E-14-7.73227E-13
 -1        40 1.98977E+01 2.49079E-04 4.24198E-04-6.51711E-05-5.65768E-14-7.52592E-13
 -1        41 1.99254E+01 2.02481E-05 1.60266E-04-2.27144E-04 3.92113E-14-9.36478E-13
 -1        42 1.99518E+01-2.36701E-04-1.27975E-04-3.26149E-04 2.62120E-14-8.54434E-13
 -1        43 1.99808E+01-5.28263E-04-4.54861E-04-3.57794E-04-4.41203E-14-8.08310E-13
 -1        44 2.00167E+01-8.61105E-04-8.36028E-04-3.09082E-04-1.19218E-14-7.99551E-13
 -1        45 2.00644E+01-1.23992E-03-1.28668E-03-1.57232E-04 4.19081E-14-7.15682E-13
 -1        46 2.01297E+01-1.66439E-03-1.81879E-03 1.31529E-04 2.88440E-14-6.60430E-13
 -1        47 2.02192E+01-2.12482E-03-2.43639E-03 6.02777E-04-4.34375E-14-5.94745E-13
 -1        48 2.03404E+01-2.59579E-03-3.12789E-03 1.31349E-03-2.09339E-14-8.02651E-13
 -1        49 2.05014E+01-3.02726E-03-3.85361E-03 2.32887E-03 5.95116E-14-5.82382E-13
 -1        50 2.07099E+01-3.33280E-03-4.52635E-03 3.71346E-03-3.36620E-14-5.51362E-13
 -1        51 2.09727E+01-3.37513E-03-4.98255E-03 5.51170E-03-2.93374E-15-3.60214E-13
 -1        52 2.12929E+01-2.95187E-03-4.94311E-03 7.70989E-03-9.01933E-14-4.91255E-13
 -1        53 2.16667E+01-1.78832E-03-3.96885E-03 1.01685E-02 4.76375E-15-5.06830E-13
 -1        54 2.20791E+01 4.46461E-04-1.43186E-03 1.25124E-02 1.83465E-15-3.41735E-13
 -1        55 2.24963E+01 4.07179E-03 3.44276E-03 1.39775E-02 2.89847E-14-3.47851E-13
 -1        56 2.28596E+01 9.23431E-03 1.13596E-02 1.32461E-02-6.73217E-14-2.41799E-13
 -1        57 2.30788E+01 1.56188E-02 2.24182E-02 8.39430E-03 5.31650E-14 3.90768E-14
 -1        58 2.30342E+01 2.20657E-02 3.51939E-02-2.78775E-03-4.32848E-14-8.14544E-14
 -1        59 2.25943E+01 2.62839E-02 4.56789E-02-2.17153E-02 2.41257E-14-4.26375E-13
 -1        60 2.16584E+01 2.51284E-02 4.71806E-02-4.69815E-02-5.36843E-14-2.88316E-13
 -1        61 2.02239E+01 1.59539E-02 3.26632E-02-7.21193E-02-1.28619E-15-3.83769E-13
 -1        62 1.84543E+01-1.10979E-03 2.32970E-04-8.56484E-02 1.48986E-14-4.67543E-13
 -1        63 1.66922E+01-2.13384E-02-4.11099E-02-7.62205E-02-6.97485E-14-7.93164E-13
 -1        64 1.53662E+01-3.66034E-02-7.30524E-02-4.15530E-02-5.27063E-14-8.88784E-13
 -1        65 1.48062E+01-4.00595E-02-7.89577E-02 6.15260E-03 2.67260E-14-8.07739E-13
 -1        66 1.50769E+01-3.09836E-02-5.73987E-02 4.65173E-02 1.09288E-13-3.48976E-13
 -1        67 1.59633E+01-1.53114E-02-2.34627E-02 6.54634E-02-8.12132E-15-9.76302E-15
 -1        68 1.71181E+01-8.07970E-04 3.98200E-03 6.38849E-02 1.23789E-13 3.30357E-13
 -1        69 1.82503E+01 8.78816E-03 1.84754E-02 5.38332E-02-3.28112E-15 7.65023E-13
 -1        70 1.92039E+01 1.40907E-02 2.95064E-02 4.39824E-02 6.78575E-15 7.97622E-13
 -1        71 1.98735E+01 4.29545E-03 4.38186E-02 2.76431E-02 2.82945E-14 6.88774E-13
 -1        72 2.10435E+01-4.04900E-01-9.80434E-01-3.11655E-01 1.10155E-14 1.78409E-12
 -1        73 1.93334E+01-6.58832E-02-2.91122E-01-5.38413E-02-1.17311E-15 1.65763E-12
 -1        74 1.86905E+01-2.05065E-02-6.42685E-02-2.03501E-02 1.15531E-14 1.51882E-12
 -1        75 1.84881E+01-9.87934E-03-9.31180E-03-1.54514E-02-9.26234E-16 1.37932E-12
 -1        76 1.84999E+01-5.16557E-03 6.77628E-04-1.23853E-02 7.25272E-15 1.32593E-12
 -1        77 1.86137E+01-2.61275E-03 1.74222E-03-1.01180E-02 8.53329E-15 1.21314E-12
 -1        78 1.87730E+01-1.14053E-03 1.88040E-03-8.38305E-03-1.85630E-14 1.24387E-12
 -1        79 1.89466E+01-2.73943E-04 2.07679E-03-6.95467E-03 2.32065E-14 1.16737E-12
 -1        80 1.91168E+01 2.28442E-04 2.22169E-03-5.72717E-03-1.58141E-14 9.75362E-13
 -1        81 1.92737E+01 5.01692E-04 2.23762E-03-4.65878E-03 1.23608E-14 9.62890E-13
 -1        82 1.94124E+01 6.27644E-04 2.13511E-03-3.73041E-03 2.46193E-15 8.76423E-13
 -1        83 1.95312E+01 6.58296E-04 1.95141E-03-2.92953E-03 2.76598E-15 7.95332E-13
 -1        84 1.96301E+01 6.27600E-04 1.72128E-03-2.24423E-03-2.51188E-15 7.99745E-13
 -1        85 1.97107E+01 5.57656E-04 1.46984E-03-1.66147E-03-4.20450E-14 9.59585E-13
 -1        86 1.97749E+01 4.62220E-04 1.21258E-03-1.16682E-03 2.84639E-14 8.26972E-13
 -1        87 1.98254E+01 3.48883E-04 9.56863E-04-7.45120E-04-1.84809E-14 7.82074E-13
 -1        88 1.98650E+01 2.20496E-04 7.03363E-04-3.81196E-04 3.20020E-15 7.53358E-13
 -1        89 1.98966E+01 7.61430E-05 4.47216E-04-6.06199E-05 3.73715E-14 4.65649E-13
 -1        90 1.99234E+01-8.81917E-05 1.78780E-04 2.29600E-04-7.53540E-14 3.96581E-13
 -1        91 1.99488E+01-2.79172E-04-1.15965E-04 5.00298E-04-8.61278E-15 5.88688E-13
 -1        92 1.99766E+01-5.05798E-04-4.55334E-04 7.59336E-04-2.91596E-14 6.99911E-13
 -1        93 2.00113E+01-7.79157E-04-8.62200E-04 1.01052E-03-3.84991E-14 9.53803E-13
 -1        94 2.00582E+01-1.11209E-03-1.36454E-03 1.25196E-03 6.05761E-14 7.62322E-13
 -1        95 2.01238E+01-1.51857E-03-1.99621E-03 1.47356E-03-2.16934E-14 5.44412E-13
 -1        96 2.02163E+01-2.01226E-03-2.79754E-03 1.65276E-03 1.06341E-13 7.63567E-13
 -1        97 2.03455E+01-2.60359E-03-3.81528E-03 1.74760E-03-4.24836E-14 7.16001E-13
 -1        98 2.05241E+01-3.29358E-03-5.09986E-03 1.68540E-03-3.78106E-14 8.65497E-13
 -1        99 2.07671E+01-4.06203E-03-6.69639E-03 1.34436E-03-4.06766E-14 7.94121E-13
 -1       100 2.10930E+01-4.84540E-03-8.62089E-03 5.25387E-04 2.02746E-14 7.30584E-13
 -1       101 2.15226E+01-5.49845E-03-1.08048E-02-1.08794E-03-8.11493E-15 7.78880E-13
 -1       102 2.20781E+01-5.73249E-03-1.29759E-02-3.97637E-03 8.32813E-14 6.21001E-13
 -1       103 2.27791E+01-5.02985E-03-1.44244E-02-8.81281E-03-1.09951E-13 9.87828E-13
 -1       104 2.36337E+01-2.55927E-03-1.36018E-02-1.63897E-02 2.31869E-14 1.50342E-12
 -1       105 2.46225E+01 2.80853E-03-7.59606E-03-2.72474E-02 5.01957E-15 1.46318E-12
 -1       106 2.56701E+01 1.21330E-02 8.10994E-03-4.06257E-02 2.69672E-14 1.11373E-12
 -1       107 2.66050E+01 2.52957E-02 3.83538E-02-5.23351E-02-1.94660E-14 5.05544E-13
 -1       108 2.71207E+01 3.88847E-02 8.33633E-02-5.19214E-02 6.48604E-14 2.62165E-13
 -1       109 2.67808E+01 4.41719E-02 1.28881E-01-2.21229E-02-4.14369E-14 2.79547E-13
 -1       110 2.51531E+01 2.98793E-02 1.38460E-01 5.10901E-02 2.64142E-14 1.65666E-13
 -1       111 2.21442E+01-5.71466E-03 6.98297E-02 1.52477E-01-3.59188E-14-2.33147E-14
 -1       112 1.83965E+01-4.60749E-02-7.68068E-02 2.20773E-01-4.48879E-14 1.64251E-13
 -1       113 1.52891E+01-5.94539E-02-2.15535E-01 1.81457E-01-2.48239E-15 1.38348E-13
 -1       114 1.41810E+01-4.03146E-02-2.26494E-01 3.34938E-02-7.71145E-14 2.51692E-13
 -1       115 1.52557E+01-6.19700E-03-1.09334E-01-1.10187E-01 1.03713E-13-3.96523E-13
 -1       116 1.74193E+01 1.82970E-02 3.47656E-02-1.61112E-01-5.30847E-15-1.15810E-14
 -1       117 1.92717E+01 2.28032E-02 1.07924E-01-1.14509E-01-1.23471E-14-4.37969E-13
 -1       118 2.00938E+01 1.23032E-02 8.90270E-02-3.46559E-02-1.33161E-14-4.57103E-13
 -1       119 2.00799E+01-2.67139E-04 2.85106E-02 1.68486E-02 8.08159E-15-7.39054E-13
 -1       120 1.99313E+01 2.25043E-02 2.50037E-02-8.07378E-03 1.87371E-13-7.47350E-13
 -1       121 1.99876E+01-4.56336E-02-2.51133E-02-4.16302E-02-6.08378E-13 1.34412E-13
 -1       122 1.99468E+01 3.12852E-01-1.05509E-01-6.91266E-03-4.16858E-13 6.69677E-14
 -1       123 1.99383E+01 1.74384E+00-1.44345E-01 6.90305E-02 5.92644E-13 2.24938E-13
 -1       124 1.99573E+01 4.55022E+00-1.21130E-01 1.69626E-01-2.19998E-13-3.41524E-15
 -1       125 2.00130E+01 8.46559E+00-4.81159E-03 2.42038E-01-6.55309E-14-3.91606E-14
 -1       126 2.00855E+01 1.23560E+01 1.68435E-01 2.13560E-01 6.23807E-14 8.35070E-14
 -1       127 2.01300E+01 1.45535E+01 2.87974E-01 5.90603E-02 1.07414E-12-1.82901E-14
 -1       128 2.01249E+01 1.39462E+01 2.65943E-01-1.27273E-01 8.00068E-13-2.50885E-13
 -1       129 2.00634E+01 1.07419E+01 1.15942E-01-2.47294E-01 1.87975E-14 1.16774E-13
 -1       130 1.99909E+01 6.42401E+00-4.72526E-02-2.41174E-01 2.00104E-13 1.69720E-13
 -1       131 1.99425E+01 2.44432E+00-1.41441E-01-1.55414E-01 1.17190E-12 1.34570E-13
 -1       132 1.99285E+01-1.90945E-01-1.51326E-01-5.54896E-02 8.22561E-13 2.85963E-13
 -1       133 1.99408E+01-1.33948E+00-1.11575E-01 1.81343E-02 2.05546E-13 3.91111E-14
 -1       134 1.99663E+01-1.35220E+00-5.51112E-02 5.93117E-02-1.05065E-13-6.33844E-14
 -1       135 1.99977E+01-7.73260E-01-1.60878E-04 7.88207E-02-1.55974E-13-1.68624E-13
 -1       136 2.00036E+01-1.72682E-01 2.63371E-02 5.12396E-02-6.48435E-13-1.09342E-15
 -1       137-1.82742E+00-2.44275E+01-3.82352E+00-4.73538E+00 3.35509E-13 1.41540E-13
 -1       138-1.67692E+00-1.00371E+01-2.64085E+00-3.28122E+00 1.21092E-12 5.93359E-13
 -1       139 4.30379E+00 4.93878E+00-9.66214E-01 4.88903E+00 1.52067E-12 1.14736E-12
 -1       140 1.88719E+01 1.26264E+01 7.87493E-01 1.52796E+01 8.83849E-13 8.38551E-13
 -1       141 4.08125E+01 1.16960E+01 2.45093E+00 2.11693E+01 3.97460E-13 5.91194E-13
 -1       142 6.19384E+01 5.83165E+00 3.67004E+00 1.72717E+01 2.95181E-14 2.35978E-13
 -1       143 7.28016E+01 1.28997E+00 4.15266E+00 4.75760E+00 7.52835E-14-5.54008E-13
 -1       144 6.81417E+01 2.15745E+00 3.79069E+00-9.44404E+00 1.73871E-14-8.16902E-13
 -1       145 4.93458E+01 7.28983E+00 2.61793E+00-1.79266E+01 1.70974E-14-3.17191E-13
 -1       146 2.56232E+01 1.03146E+01 9.80084E-01-1.59229E+01 7.80487E-14-1.42997E-13
 -1       147 8.06398E+00 6.91219E+00-5.94545E-01-7.61675E+00-2.94209E-13 1.23346E-13
 -1       148-5.04108E-01-3.61137E+00-1.93812E+00 1.05633E+00-2.97429E-13 8.92064E-14
 -1       149-2.41327E+00-1.75110E+01-2.98042E+00 5.44542E+00 1.06315E-12-1.30174E-13
 -1       150-1.01533E+00-2.66354E+01-3.48522E+00 3.01568E+00 2.58940E-12-1.06297E-13
 -1       151-9.11068E-01-2.64180E+01-3.44315E+00-2.23061E+00 1.79354E-12-6.76820E-14
 -1       152-1.88182E+00-1.69995E+01-2.86209E+00-4.66633E+00-2.37699E-13-9.56873E-14
 -1       153-4.99838E-01-3.66789E+00-1.81756E+00-1.05951E+00-1.12943E-12-7.94587E-13
 -1       154 2.40126E+01 1.16129E+01 1.00451E+00 1.64482E+01-8.28726E-13-9.62785E-13
 -1       155 4.36820E+01 9.09564E+00 2.26571E+00 1.92710E+01-5.11730E-13-1.17939E-12
 -1       156 6.17363E+01 3.99182E+00 3.26377E+00 1.39068E+01-4.64649E-13-1.25333E-12
 -1       157 7.12212E+01 9.57429E-01 3.78303E+00 1.62255E+00 7.27890E-14-1.12386E-12
 -1       158 6.76037E+01 2.75119E+00 3.67978E+00-1.13802E+01 1.38870E-13-7.57255E-13
 -1       159 5.26956E+01 8.16001E+00 3.01109E+00-1.97772E+01-3.22325E-13 4.80171E-13
 -1       160 3.29072E+01 1.26080E+01 1.88957E+00-1.98996E+01-2.56573E-13 7.62279E-13
 -1       161 1.45579E+01 1.15946E+01 4.33234E-01-1.28863E+01-4.89941E-13 3.91576E-13
 -1       162 2.60355E+00 2.95783E+00-1.16556E+00-3.07531E+00-1.87605E-12 1.11905E-12
 -1       163-1.93601E+00-1.21013E+01-2.75669E+00 4.02152E+00-1.28120E-12 6.74932E-13
 -1       164-1.55376E+00-2.52785E+01-3.83006E+00 4.41686E+00-2.22988E-13 1.49904E-13
 -1       165 2.10147E+01 3.69401E+00-5.73671E-02-3.60997E+00-1.64514E-13-1.90598E-13
 -1       166 1.99919E+01 4.20741E+00-4.57990E-02-2.80865E+00-1.07769E-13-3.24640E-13
 -1       167 1.95072E+01 4.47805E+00-3.17242E-02-2.19454E+00-5.25031E-14-3.75339E-13
 -1       168 1.92680E+01 4.61459E+00-2.38239E-02-1.67424E+00 1.45218E-15-3.79134E-13
 -1       169 1.91365E+01 4.69723E+00-1.95853E-02-1.21863E+00 4.10055E-14-3.51516E-13
 -1       170 1.90625E+01 4.74796E+00-1.74486E-02-7.91874E-01 7.60093E-14-3.26572E-13
 -1       171 1.90252E+01 4.77577E+00-1.64255E-02-3.86774E-01 1.02702E-13-2.77001E-13
 -1       172 1.90143E+01 4.78431E+00-1.61314E-02 8.26041E-03 1.39361E-13-2.33642E-13
 -1       173 1.90269E+01 4.77451E+00-1.64641E-02 4.03623E-01 1.71795E-13-1.94558E-13
 -1       174 1.90662E+01 4.74497E+00-1.75178E-02 8.09756E-01 1.94028E-13-1.52487E-13
 -1       175 1.91411E+01 4.69256E+00-1.96862E-02 1.23115E+00 2.13160E-13-7.63053E-14
 -1       176 1.92769E+01 4.60542E+00-2.40059E-02 1.69777E+00 2.42499E-13 1.57270E-14
 -1       177 1.95242E+01 4.45962E+00-3.28498E-02 2.22609E+00 2.48348E-13 1.50900E-13
 -1       178 2.00142E+01 4.18388E+00-4.72100E-02 2.84635E+00 2.42019E-13 3.60181E-13
 -1       179 2.11362E+01 3.46366E+00-5.97747E-02 3.53635E+00 1.76522E-13 6.72268E-13
 -1       180 2.24207E+01 1.14332E+00-3.36466E-01 3.01455E+00 9.14156E-14 1.03169E-12
 -1       181 2.19730E+01 8.58280E-01 6.08841E-04-1.95856E+00-1.54848E-13 2.67598E-14
 -1       182 2.04490E+01 1.90046E-01-9.98701E-03-7.63825E-01-1.33579E-13-3.21626E-14
 -1       183 1.96737E+01 1.01669E-01 1.35728E-02-2.85441E-01-1.08561E-13-6.47919E-14
 -1       184 1.93342E+01 4.72340E-02 1.00112E-02-6.76515E-02-4.43892E-14-1.33141E-13
 -1       185 1.92048E+01 2.25784E-02 5.16941E-03 3.96940E-02-3.36609E-14-1.38200E-13
 -1       186 1.91917E+01 9.52012E-03 2.43333E-03 9.23209E-02-6.91623E-14-1.48697E-13
 -1       187 1.92406E+01 2.11546E-03 1.12697E-03 1.14686E-01-3.52093E-14-1.61083E-13
 -1       188 1.93200E+01-2.12894E-03 4.91284E-04 1.19570E-01-2.77388E-14-1.79776E-13
 -1       189 1.94110E+01-4.44665E-03 1.54993E-04 1.14379E-01-6.99056E-14-1.94893E-13
 -1       190 1.95026E+01-5.53835E-03-3.27306E-05 1.03706E-01-6.92208E-14-2.34231E-13
 -1       191 1.95883E+01-5.84155E-03-1.35046E-04 9.04916E-02-8.32189E-14-3.48887E-13
 -1       192 1.96648E+01-5.64396E-03-1.83369E-04 7.66333E-02 1.62306E-14-3.46483E-13
 -1       193 1.97309E+01-5.13735E-03-1.96205E-04 6.33402E-02 3.00905E-14-3.41709E-13
 -1       194 1.97865E+01-4.44694E-03-1.85393E-04 5.13664E-02-8.22453E-15-3.54082E-13
 -1       195 1.98327E+01-3.64914E-03-1.58555E-04 4.11745E-02-2.55024E-14-2.01113E-13
 -1       196 1.98710E+01-2.78349E-03-1.20376E-04 3.30548E-02-4.94071E-14-1.95780E-13
 -1       197 1.99032E+01-1.86127E-03-7.34174E-05 2.72157E-02-7.12904E-14-3.08888E-13
 -1       198 1.99315E+01-8.72049E-04-1.87140E-05 2.38522E-02-4.59741E-14-3.51654E-13
 -1       199 1.99584E+01 2.10889E-04 4.37412E-05 2.31973E-02-2.26712E-14-3.53939E-13
 -1       200 1.99868E+01 1.42562E-03 1.14539E-04 2.55588E-02-1.24344E-16-5.13381E-13
 -1       201 2.00198E+01 2.81616E-03 1.94356E-04 3.13423E-02 2.81924E-14-3.84234E-13
 -1       202 2.00611E+01 4.42554E-03 2.83340E-04 4.10559E-02-3.85979E-15-3.59474E-13
 -1       203 2.01148E+01 6.28567E-03 3.80292E-04 5.52925E-02 9.84373E-14-3.64445E-13
 -1       204 2.01855E+01 8.40205E-03 4.81532E-04 7.46784E-02 5.74243E-14-3.44138E-13
 -1       205 2.02783E+01 1.07302E-02 5.79364E-04 9.97709E-02-1.01330E-13-1.87912E-13
 -1       206 2.03986E+01 1.31402E-02 6.60079E-04 1.30881E-01 2.66175E-14-2.26298E-13
 -1       207 2.05514E+01 1.53639E-02 7.01593E-04 1.67783E-01-2.01413E-14-3.97586E-13
 -1       208 2.07411E+01 1.69217E-02 6.71223E-04 2.09275E-01 6.23658E-14-3.43278E-13
 -1       209 2.09697E+01 1.70273E-02 5.24840E-04 2.52528E-01-1.04219E-13-3.54586E-13
 -1       210 2.12353E+01 1.44835E-02 2.09903E-04 2.92213E-01-6.49925E-14-3.27519E-13
 -1       211 2.15295E+01 7.61119E-03-3.23530E-04 3.19429E-01 2.30150E-14-3.00232E-13
 -1       212 2.18341E+01-5.68109E-03-1.09910E-03 3.20682E-01-1.17383E-14-2.18182E-13
 -1       213 2.21175E+01-2.74767E-02-2.07560E-03 2.77494E-01 5.36426E-14-1.78413E-13
 -1       214 2.23321E+01-5.87506E-02-3.10110E-03 1.67895E-01 1.83684E-13 6.54678E-14
 -1       215 2.24142E+01-9.72813E-02-3.88720E-03-2.82448E-02-3.81607E-14-8.94580E-14
 -1       216 2.22905E+01-1.34739E-01-4.04544E-03-3.17960E-01-1.70244E-13-6.63844E-14
 -1       217 2.18943E+01-1.54586E-01-3.28822E-03-6.77976E-01-9.28641E-14-2.44186E-13
 -1       218 2.11959E+01-1.34600E-01-1.62496E-03-1.03791E+00-1.18508E-13-3.25056E-13
 -1       219 2.02391E+01-5.87214E-02 4.60455E-04-1.28034E+00-1.42812E-13-5.09905E-13
 -1       220 1.91678E+01 6.37572E-02 2.12682E-03-1.27848E+00-1.00821E-13-3.45209E-13
 -1       221 1.82084E+01 1.88216E-01 3.13692E-03-9.70852E-01-1.37358E-13-5.21392E-13
 -1       222 1.75902E+01 2.53405E-01 3.71325E-03-4.27033E-01 2.05357E-13-3.60330E-13
 -1       223 1.74357E+01 2.26186E-01 4.17200E-03 1.64421E-01 2.12813E-13-5.99327E-14
 -1       224 1.76999E+01 1.30744E-01 4.16320E-03 6.03510E-01 2.01723E-13-5.22464E-14
 -1       225 1.82117E+01 2.69554E-02 2.91859E-03 7.95367E-01 2.93680E-13 1.85250E-13
 -1       226 1.87802E+01-3.83180E-02 9.11930E-04 7.78083E-01 2.98688E-13 1.94450E-13
 -1       227 1.92757E+01-6.54896E-02-3.04050E-04 6.50011E-01 1.21018E-13 1.07151E-13
 -1       228 1.96624E+01-1.04184E-01 1.74884E-03 4.62286E-01-8.25720E-14 2.40061E-13
 -1       229 2.09650E+01 2.77012E-01-5.13302E-02 1.16460E+00 8.01963E-14 9.28796E-13
 -1       230 1.98705E+01 1.26845E-01 8.31087E-03 4.42907E-01 9.25805E-14 8.26960E-13
 -1       231 1.93645E+01 5.80712E-02 1.27345E-02 1.49848E-01 7.69155E-14 7.56329E-13
 -1       232 1.91551E+01 2.77275E-02 7.62801E-03 1.05545E-02 4.57902E-14 6.94423E-13
 -1       233 1.91056E+01 1.30801E-02 3.82215E-03-5.85970E-02 4.35972E-14 7.05929E-13
 -1       234 1.91417E+01 5.13002E-03 1.90453E-03-9.10394E-02-4.66933E-15 6.35470E-13
 -1       235 1.92211E+01 5.81925E-04 1.00117E-03-1.02799E-01 8.18885E-14 5.86286E-13
 -1       236 1.93190E+01-2.01029E-03 5.40619E-04-1.02586E-01 6.84046E-14 5.34977E-13
 -1       237 1.94207E+01-3.39250E-03 2.77293E-04-9.56034E-02 4.06998E-14 4.33203E-13
 -1       238 1.95177E+01-4.00098E-03 1.16870E-04-8.51183E-02 3.25886E-14 4.62298E-13
 -1       239 1.96055E+01-4.11262E-03 1.93495E-05-7.32308E-02 4.14169E-14 4.77648E-13
 -1       240 1.96819E+01-3.91063E-03-3.63123E-05-6.12873E-02 7.75336E-15 4.80901E-13
 -1       241 1.97466E+01-3.51704E-03-6.31749E-05-5.01361E-02 1.52144E-14 3.68006E-13
 -1       242 1.98003E+01-3.01052E-03-6.99066E-05-4.02975E-02 4.90845E-14 2.62679E-13
 -1       243 1.98443E+01-2.43740E-03-6.22877E-05-3.20873E-02-1.99691E-14 3.72477E-13
 -1       244 1.98804E+01-1.81917E-03-4.40430E-05-2.57082E-02 7.41444E-14 3.17651E-13
 -1       245 1.99109E+01-1.15768E-03-1.73704E-05-2.13215E-02 1.73350E-13 2.71180E-13
 -1       246 1.99381E+01-4.38729E-04 1.66706E-05-1.91034E-02-2.97641E-14 1.55949E-13
 -1       247 1.99650E+01 3.65640E-04 5.78744E-05-1.92922E-02-6.48702E-14 1.54102E-13
 -1       248 1.99946E+01 1.29576E-03 1.06648E-04-2.22282E-02-1.40789E-13 3.06234E-13
 -1       249 2.00306E+01 2.40380E-03 1.63762E-04-2.83911E-02-1.05619E-13 4.44561E-13
 -1       250 2.00776E+01 3.75364E-03 2.30039E-04-3.84337E-02 2.15872E-13 4.11730E-13
 -1       251 2.01408E+01 5.42089E-03 3.05880E-04-5.32154E-02 3.86972E-14 3.27169E-13
 -1       252 2.02268E+01 7.49184E-03 3.90470E-04-7.38306E-02-5.30405E-14 3.37754E-13
 -1       253 2.03432E+01 1.00595E-02 4.80417E-04-1.01627E-01-6.44531E-14 5.50636E-13
 -1       254 2.04995E+01 1.32127E-02 5.67430E-04-1.38194E-01-5.18998E-14 6.11094E-13
 -1       255 2.07069E+01 1.70091E-02 6.34543E-04-1.85291E-01 2.73583E-14 5.80008E-13
 -1       256 2.09778E+01 2.14183E-02 6.50543E-04-2.44636E-01 1.80953E-16 5.70018E-13
 -1       257 2.13260E+01 2.62027E-02 5.63368E-04-3.17425E-01 1.36263E-15 6.03873E-13
 -1       258 2.17645E+01 3.06914E-02 2.96804E-04-4.03334E-01 3.40759E-14 4.42501E-13
 -1       259 2.23027E+01 3.33726E-02-2.36746E-04-4.98609E-01-3.33118E-13 6.21640E-13
 -1       260 2.29407E+01 3.12429E-02-1.08131E-03-5.92683E-01-9.42896E-14 8.08994E-13
 -1       261 2.36592E+01 1.89670E-02-2.10350E-03-6.62829E-01 1.16300E-13 9.74973E-13
 -1       262 2.44049E+01-1.16251E-02-2.78318E-03-6.67248E-01 1.18815E-13 8.33459E-13
 -1       263 2.50722E+01-6.99174E-02-2.05740E-03-5.40103E-01 2.79679E-13 7.51114E-13
 -1       264 2.54889E+01-1.59305E-01 1.29790E-03-1.99302E-01 1.40617E-13 4.12588E-13
 -1       265 2.54252E+01-2.60660E-01 7.14909E-03 4.13726E-01-5.85140E-14 4.08677E-13
 -1       266 2.46574E+01-3.10944E-01 1.14907E-02 1.24282E+00 1.47267E-13 3.97118E-13
 -1       267 2.31182E+01-2.14295E-01 5.83143E-03 2.00576E+00 3.45947E-15 5.94264E-13
 -1       268 2.10993E+01 6.15691E-02-1.46127E-02 2.22404E+00-4.34457E-14 4.93531E-13
 -1       269 1.92837E+01 3.93892E-01-3.62867E-02 1.55492E+00 9.71653E-14 3.30134E-13
 -1       270 1.84333E+01 4.95180E-01-3.61518E-02 2.37209E-01-4.90823E-14 1.21986E-13
 -1       271 1.87251E+01 2.87471E-01-1.44703E-02-8.88817E-01 3.25412E-13 9.43169E-14
 -1       272 1.96271E+01-3.04718E-02 7.93902E-03-1.23113E+00-8.21589E-14 9.73718E-14
 -1       273 2.04044E+01-2.18037E-01 1.57122E-02-8.38867E-01 2.23586E-13 1.66534E-13
 -1       274 2.06673E+01-2.02562E-01 9.75743E-03-2.21014E-01 3.43245E-14 5.94901E-14
 -1       275 2.04785E+01-5.64024E-02 1.05488E-03 1.44748E-01 2.27495E-13-2.69140E-13
 -1       276 2.01550E+01 7.73928E-02 2.08556E-03 1.11229E-01 9.52407E-15-2.30044E-13
 -1       277 2.02281E+01 3.31615E-01 4.26522E-03 3.58593E-01 1.32993E-14 2.94301E-13
 -1       278 2.03875E+01 9.83087E-01 4.22507E-03 1.08724E+00 1.04295E-13 5.60954E-13
 -1       279 2.04243E+01 2.24752E+00-1.84595E-03 2.05552E+00 6.11629E-14-2.64984E-13
 -1       280 2.02214E+01 4.18108E+00-3.77243E-03 2.82755E+00 9.99530E-14 2.05416E-13
 -1       281 1.97505E+01 6.42188E+00-2.71843E-03 2.79523E+00 2.37159E-13 1.76274E-14
 -1       282 1.92442E+01 8.18708E+00 1.81706E-03 1.57582E+00 1.82911E-13 2.22714E-13
 -1       283 1.90746E+01 8.63957E+00 3.98888E-03-4.36303E-01 5.97261E-14-4.68688E-14
 -1       284 1.93806E+01 7.51093E+00 7.25032E-04-2.31441E+00 3.74274E-13-2.61570E-13
 -1       285 1.99063E+01 5.33759E+00-2.40865E-03-3.16220E+00 2.90124E-13 1.46729E-13
 -1       286 2.03207E+01 2.92483E+00-2.00606E-03-2.88759E+00 3.82543E-13 6.09013E-13
 -1       287 2.04688E+01 1.00490E+00 3.13323E-03-1.94273E+00 3.45592E-13-4.59650E-14
 -1       288 2.04123E+01-1.54409E-01 7.01671E-03-8.90197E-01 1.63747E-14-3.02491E-13
 -1       289 2.02664E+01-6.12569E-01 7.41000E-03-7.72240E-02-9.16203E-14-7.82248E-14
 -1       290 2.00793E+01-5.79002E-01 3.73511E-03 3.62065E-01-1.37115E-13-2.84947E-13
 -1       291 1.99501E+01-3.35737E-01 4.03468E-03 5.45523E-01-2.40607E-13-3.82568E-13
 -1       292-8.82991E-01-1.25819E+01-1.13122E+00 1.48363E+00 3.93977E-13-2.13440E-14
 -1       293 4.24124E+00-9.68095E+00-7.45363E-01 5.17903E+00 5.06206E-13 5.90999E-13
 -1       294 1.18655E+01-6.20054E+00-5.15435E-01 6.87874E+00 2.84328E-13 2.78499E-13
 -1       295 2.18131E+01-1.07485E+00-3.78373E-02 8.40661E+00 6.68410E-13 1.08552E-13
 -1       296 3.31667E+01 3.17241E+00 5.07426E-01 8.93626E+00 6.66189E-13 3.11640E-13
 -1       297 4.28949E+01 5.82252E+00 8.62590E-01 6.99079E+00 3.55001E-13 1.06054E-13
 -1       298 4.81248E+01 7.53428E+00 1.01676E+00 3.72727E+00 3.19772E-13 1.61773E-13
 -1       299 5.08520E+01 7.04744E+00 1.21440E+00 2.89275E-01 2.33813E-13 8.22536E-14
 -1       300 4.55931E+01 5.71399E+00 8.99962E-01-3.08196E+00-2.05794E-13-9.98646E-14
 -1       301 3.60746E+01 1.89026E+00 3.35291E-01-4.11835E+00-4.68375E-14-4.59910E-14
 -1       302 2.48674E+01-5.09839E-01 4.07110E-02-6.86816E+00-1.07692E-13-3.05422E-13
 -1       303 1.42054E+01-4.53060E+00-4.00622E-01-5.77859E+00-3.13083E-14 3.92186E-14
 -1       304 6.47424E+00-8.55748E+00-5.75359E-01-4.61308E+00 4.69541E-13 5.48943E-13
 -1       305 1.96102E-02-1.21595E+01-9.80525E-01-1.61094E+00 6.61887E-13 4.76466E-13
 -1       306-1.66604E+00-1.33750E+01-1.06886E+00 3.39963E-01 6.47854E-13-1.93179E-13
 -1       307 2.13352E-01-1.14133E+01-8.84439E-01 2.49237E+00 5.78676E-13-7.65235E-13
 -1       308 5.28460E+00-8.31312E+00-6.89960E-01 4.49730E+00 1.98563E-13-5.37370E-13
 -1       309 1.56397E+01-5.03503E+00-2.25469E-01 6.87331E+00-7.24421E-15-1.24928E-13
 -1       310 2.41132E+01 3.52446E-01 7.38279E-02 7.66670E+00-3.28626E-13-2.55324E-13
 -1       311 3.44931E+01 3.51519E+00 4.90752E-01 7.48041E+00-2.60986E-13-6.86784E-13
 -1       312 4.33337E+01 5.59423E+00 8.14845E-01 5.57008E+00-1.78794E-13-6.37879E-13
 -1       313 4.75597E+01 7.25964E+00 8.87627E-01 1.49184E+00-1.45273E-13-1.00199E-12
 -1       314 5.02970E+01 7.30133E+00 1.11336E+00-2.17548E+00-1.52045E-13-8.68444E-13
 -1       315 4.67563E+01 6.85684E+00 1.03066E+00-5.87785E+00-3.93574E-13-9.17266E-13
 -1       316 3.92366E+01 5.27712E+00 7.54752E-01-8.23742E+00-2.02748E-13-3.91465E-13
 -1       317 2.95557E+01 2.41891E+00 3.65885E-01-8.99589E+00-1.41137E-13 3.07421E-13
 -1       318 1.92503E+01-1.70012E+00-1.09107E-01-8.21172E+00-8.00471E-13-2.25819E-13
 -1       319 9.67204E+00-6.57030E+00-6.08687E-01-6.33930E+00-5.91249E-13 4.22051E-13
 -1       320 2.86009E+00-1.05708E+01-9.36016E-01-4.30772E+00 1.20459E-14 6.27276E-13
 -1       321-1.02563E+00-1.32216E+01-1.23296E+00-1.42784E+00-1.69864E-14 5.42427E-13
 -1       322 2.01465E+01 3.01501E+00-1.78022E-02-2.10971E+00-1.08129E-13-2.63489E-13
 -1       323 2.07560E+01 2.20990E+00-1.78571E-02-2.36295E+00-1.58817E-13-1.95413E-13
 -1       324 1.95822E+01 3.69229E+00-1.56034E-02-1.31812E+00 2.36979E-14-2.66190E-13
 -1       325 1.94597E+01 3.84850E+00-1.36926E-02-9.23545E-01 6.35241E-14-2.56079E-13
 -1       326 1.93904E+01 3.93957E+00-1.27042E-02-5.43685E-01 1.11012E-13-2.23311E-13
 -1       327 1.93597E+01 3.98095E+00-1.22896E-02-1.73179E-01 1.38797E-13-1.78229E-13
 -1       328 1.93610E+01 3.97935E+00-1.23088E-02 1.94324E-01 1.90668E-13-1.40931E-13
 -1       329 1.93945E+01 3.93445E+00-1.27555E-02 5.65161E-01 2.19816E-13-1.10586E-13
 -1       330 1.94656E+01 3.84114E+00-1.37633E-02 9.38991E-01 2.50558E-13-6.75241E-14
 -1       331 1.95928E+01 3.67886E+00-1.56516E-02 1.33292E+00 2.68328E-13 2.33307E-14
 -1       332 1.98088E+01 3.41011E+00-1.88298E-02 1.73813E+00 2.90052E-13 1.11047E-13
 -1       333 2.01798E+01 2.95526E+00-2.29390E-02 2.12668E+00 2.73249E-13 2.42317E-13
 -1       334 2.07500E+01 2.12942E+00-3.04681E-02 2.32170E+00 2.11067E-13 4.49226E-13
 -1       335 2.10968E+01 1.18770E+00-2.49205E-02 1.92153E+00 1.38655E-13 6.40293E-13
 -1       336 2.03932E+01 4.89285E-01 8.33299E-03 9.26933E-01 1.34556E-13 5.40739E-13
 -1       337 2.04599E+01 6.75140E-01 1.25591E-02-1.02531E+00-1.30393E-13-1.51544E-13
 -1       338 2.00380E+01 3.37269E-01 7.18634E-03-4.57456E-01-9.86052E-14-1.21242E-13
 -1       339 1.97841E+01 1.76580E-01 4.16853E-03-1.48245E-01-3.94183E-14-1.05996E-13
 -1       340 1.96488E+01 9.04755E-02 1.90580E-03 2.29132E-02-5.28731E-14-1.15019E-13
 -1       341 1.95935E+01 4.13186E-02 7.90780E-04 1.14042E-01-4.67851E-14-8.95149E-14
 -1       342 1.95883E+01 1.23145E-02 2.70422E-04 1.57147E-01-4.78332E-14-1.10661E-13
 -1       343 1.96123E+01-4.71924E-03 1.26925E-05 1.71111E-01-3.88667E-14-1.04819E-13
 -1       344 1.96516E+01-1.42370E-02-1.22297E-04 1.67676E-01-7.12937E-14-1.11689E-13
 -1       345 1.96972E+01-1.89003E-02-1.90105E-04 1.54414E-01-1.10355E-13-1.12453E-13
 -1       346 1.97434E+01-2.04089E-02-2.16691E-04 1.36293E-01-2.65679E-14-3.84771E-14
 -1       347 1.97871E+01-1.98866E-02-2.16904E-04 1.16582E-01-2.26899E-14-6.16054E-14
 -1       348 1.98266E+01-1.80800E-02-2.00215E-04 9.74123E-02 3.89990E-14-8.42245E-14
 -1       349 1.98613E+01-1.54716E-02-1.72722E-04 8.01628E-02-6.39208E-15-1.09991E-13
 -1       350 1.98915E+01-1.23501E-02-1.38131E-04 6.57296E-02-7.11911E-14-1.67000E-13
 -1       351 1.99179E+01-8.85893E-03-9.83797E-05 5.47279E-02-1.15702E-13-2.08934E-13
 -1       352 1.99418E+01-5.03129E-03-5.40886E-05 4.76422E-02-1.04860E-13-2.15173E-13
 -1       353 1.99646E+01-8.18135E-04-4.91621E-06 4.49380E-02-2.59667E-14-1.65202E-13
 -1       354 1.99882E+01 3.88830E-03 5.01297E-05 4.71429E-02-9.65590E-14-2.57664E-13
 -1       355 2.00145E+01 9.23106E-03 1.12376E-04 5.49000E-02 4.60207E-14-2.85174E-13
 -1       356 2.00461E+01 1.53612E-02 1.83109E-04 6.89916E-02 1.21062E-13-2.47093E-13
 -1       357 2.00855E+01 2.24018E-02 2.63062E-04 9.03259E-02 5.38264E-14-1.05744E-13
 -1       358 2.01357E+01 3.03955E-02 3.51694E-04 1.19876E-01 1.52568E-14-1.27240E-13
 -1       359 2.02002E+01 3.92278E-02 4.46128E-04 1.58549E-01 3.26453E-15-1.33814E-13
 -1       360 2.02823E+01 4.85133E-02 5.39633E-04 2.06956E-01-1.27749E-14-1.22518E-13
 -1       361 2.03857E+01 5.74303E-02 6.19536E-04 2.65040E-01-2.96732E-14-1.90300E-13
 -1       362 2.05134E+01 6.44925E-02 6.64569E-04 3.31508E-01 1.03333E-15-1.88835E-13
 -1       363 2.06680E+01 6.72518E-02 6.41960E-04 4.03015E-01-6.84172E-14-3.26302E-13
 -1       364 2.08505E+01 6.19585E-02 5.05321E-04 4.73044E-01-1.67604E-14-2.54258E-13
 -1       365 2.10596E+01 4.32810E-02 1.95508E-04 5.30506E-01 3.16422E-14-2.33417E-13
 -1       366 2.12903E+01 4.33829E-03-3.51120E-04 5.58244E-01 1.00832E-13-1.83107E-13
 -1       367 2.15327E+01-6.24223E-02-1.18136E-03 5.31939E-01 5.70785E-14 5.14881E-14
 -1       368 2.17700E+01-1.62595E-01-2.28381E-03 4.20600E-01 1.12382E-13-8.00755E-14
 -1       369 2.19758E+01-2.94288E-01-3.52535E-03 1.90740E-01 2.80592E-15-2.13944E-13
 -1       370 2.21116E+01-4.39248E-01-4.58036E-03-1.82670E-01-1.34708E-13-1.77171E-13
 -1       371 2.21256E+01-5.53069E-01-4.88934E-03-6.95727E-01-1.18466E-13-1.42354E-13
 -1       372 2.19583E+01-5.63469E-01-4.02006E-03-1.28693E+00-9.74628E-14 3.02470E-14
 -1       373 2.15648E+01-3.92895E-01-1.77656E-03-1.81388E+00-1.30457E-13 4.02436E-14
 -1       374 2.09593E+01-1.74489E-02 1.25151E-03-2.06816E+00 2.36443E-15 1.16138E-13
 -1       375 2.02589E+01 4.66439E-01 3.38660E-03-1.86391E+00-1.21763E-13 1.83185E-13
 -1       376 1.96718E+01 8.46863E-01 4.72636E-03-1.17973E+00 1.45562E-13 5.49476E-13
 -1       377 1.93870E+01 9.21283E-01 5.39783E-03-2.38513E-01 3.29228E-13 2.12728E-13
 -1       378 1.94349E+01 6.70160E-01 5.49371E-03 5.95442E-01 2.56743E-13 2.26706E-13
 -1       379 1.96695E+01 2.71634E-01 3.76083E-03 1.05753E+00 3.03864E-13 1.75376E-13
 -1       380 1.98947E+01-5.20956E-02 1.53080E-03 1.12368E+00 4.64458E-14-1.06836E-13
 -1       381 1.99879E+01-2.05278E-01-1.68679E-03 9.54881E-01 4.61559E-14-2.79789E-13
 -1       382 1.99511E+01-2.45927E-01-8.48744E-04 7.54721E-01-2.64055E-14-3.21604E-13
 -1       383 1.98918E+01 2.28497E-01 1.07961E-02 3.98266E-01 1.28720E-13 5.20975E-13
 -1       384 1.96034E+01 1.15349E-01 6.17558E-03 1.19573E-01 6.85636E-14 4.61945E-13
 -1       385 1.94690E+01 5.76481E-02 2.80746E-03-2.92456E-02 4.76954E-14 4.08413E-13
 -1       386 1.94294E+01 2.57335E-02 1.17649E-03-1.06075E-01 3.00899E-14 3.55451E-13
 -1       387 1.94453E+01 7.24585E-03 4.46837E-04-1.41193E-01 7.90620E-14 2.90879E-13
 -1       388 1.94914E+01-3.49527E-03 9.86926E-05-1.51529E-01 1.04271E-13 3.28528E-13
 -1       389 1.95516E+01-9.45373E-03-8.38207E-05-1.47286E-01 9.41613E-14 2.92987E-13
 -1       390 1.96160E+01-1.23534E-02-1.80185E-04-1.34914E-01 1.63748E-15 2.59363E-13
 -1       391 1.96784E+01-1.32776E-02-2.24279E-04-1.18590E-01 2.12594E-14 2.55810E-13
 -1       392 1.97356E+01-1.29379E-02-2.34616E-04-1.01037E-01 3.69584E-14 2.72047E-13
 -1       393 1.97860E+01-1.18075E-02-2.22982E-04-8.40109E-02 9.20578E-14 2.56187E-13
 -1       394 1.98293E+01-1.01936E-02-1.97120E-04-6.86323E-02 4.58566E-14 2.52376E-13
 -1       395 1.98661E+01-8.28131E-03-1.61884E-04-5.56124E-02 8.55087E-15 2.22109E-13
 -1       396 1.98974E+01-6.16303E-03-1.19958E-04-4.54254E-02 1.13032E-13 1.27452E-13
 -1       397 1.99248E+01-3.85870E-03-7.23161E-05-3.84384E-02 1.46757E-13 1.57369E-13
 -1       398 1.99500E+01-1.32981E-03-1.86019E-05-3.50136E-02 9.27521E-14 2.23257E-13
 -1       399 1.99753E+01 1.51126E-03 4.26475E-05-3.55910E-02-9.80823E-14 1.71247E-13
 -1       400 2.00032E+01 4.79504E-03 1.13829E-04-4.07582E-02-9.13276E-14 1.52842E-13
 -1       401 2.00367E+01 8.69144E-03 1.98144E-04-5.13098E-02-1.14406E-13 4.86879E-14
 -1       402 2.00792E+01 1.34074E-02 2.99454E-04-6.83019E-02 1.88523E-13 2.83109E-14
 -1       403 2.01349E+01 1.91840E-02 4.22057E-04-9.30973E-02 9.13082E-14 1.87761E-13
 -1       404 2.02088E+01 2.62890E-02 5.70218E-04-1.27401E-01-1.06136E-13 1.30313E-13
 -1       405 2.03067E+01 3.49982E-02 7.47205E-04-1.73271E-01-1.40703E-13 2.64497E-13
 -1       406 2.04354E+01 4.55510E-02 9.53327E-04-2.33077E-01 1.96429E-14 2.80219E-13
 -1       407 2.06027E+01 5.80543E-02 1.18214E-03-3.09353E-01 1.04791E-13 3.61364E-13
 -1       408 2.08170E+01 7.22846E-02 1.41362E-03-4.04442E-01 8.94136E-15 4.09857E-13
 -1       409 2.10873E+01 8.73043E-02 1.60278E-03-5.19737E-01 1.82992E-14 4.91909E-13
 -1       410 2.14217E+01 1.00757E-01 1.66340E-03-6.54207E-01-5.41396E-15 6.10272E-13
 -1       411 2.18263E+01 1.07664E-01 1.45043E-03-8.01715E-01-1.59819E-13 5.39322E-13
 -1       412 2.23022E+01 9.85934E-02 7.55399E-04-9.46462E-01-2.95923E-13 2.32352E-13
 -1       413 2.28422E+01 5.74722E-02-6.55775E-04-1.05607E+00-1.14001E-13 2.94531E-13
 -1       414 2.34252E+01-3.94015E-02-2.91006E-03-1.07279E+00 1.90873E-13 5.23400E-13
 -1       415 2.40090E+01-2.18432E-01-5.80548E-03-9.07006E-01 2.86451E-13 6.45775E-13
 -1       416 2.45198E+01-4.88163E-01-8.46701E-03-4.45362E-01 2.84609E-13 7.35127E-13
 -1       417 2.48393E+01-7.95361E-01-9.61670E-03 4.02572E-01-3.30088E-14 4.99164E-13
 -1       418 2.47942E+01-9.63950E-01-8.53801E-03 1.59134E+00 3.09267E-14 4.62349E-13
 -1       419 2.42034E+01-7.11856E-01-7.94095E-03 2.77194E+00-4.56198E-14 5.22539E-13
 -1       420 2.30545E+01 1.05911E-01-1.58452E-02 3.25701E+00 7.86029E-14 4.62604E-13
 -1       421 2.17478E+01 1.14915E+00-2.45070E-02 2.46905E+00 1.03046E-13 2.33617E-13
 -1       422 2.10000E+01 1.56149E+00-2.13105E-02 5.93169E-01 4.57655E-14 2.81109E-13
 -1       423 2.11082E+01 9.59509E-01-1.19674E-02-1.09949E+00 2.98740E-13 4.55270E-13
 -1       424 2.16109E+01-3.84618E-02-3.62227E-03-1.65800E+00 1.02346E-13 4.48747E-13
 -1       425 2.18549E+01-6.60809E-01-3.81263E-03-1.09736E+00 1.60347E-13 2.11390E-13
 -1       426 2.16045E+01-6.44843E-01-4.16907E-03-1.79907E-01 2.02266E-13 7.05946E-14
 -1       427 2.10158E+01-2.34087E-01-2.83887E-03 3.96036E-01 3.46036E-13 2.59114E-13
 -1       428 2.06191E+01 7.98670E-02 5.30159E-04 5.01477E-01 9.61807E-14 3.19697E-13
 -1       429 2.12891E+01 9.16547E-01 1.13971E-02 3.80069E+00 2.40302E-13-5.34349E-14
 -1       430 2.15183E+01 2.09064E-01 6.76899E-03 2.32349E+00-2.67466E-13 3.73440E-13
 -1       431 2.10801E+01 1.44353E-01 5.62386E-03 1.22464E+00-8.62657E-14 2.66886E-13
 -1       432 2.00513E+01 2.27976E+00 1.53278E-02 4.63123E+00 3.10446E-13 2.92422E-14
 -1       433 1.81028E+01 3.98432E+00 1.67813E-02 3.77870E+00 2.50971E-15-2.87964E-16
 -1       434 1.66876E+01 5.10783E+00 1.95931E-02 1.05401E+00-2.87053E-13 9.42614E-14
 -1       435 1.69646E+01 4.82990E+00 2.04202E-02-2.39226E+00 5.26020E-14-1.59265E-14
 -1       436 1.86800E+01 3.32711E+00 1.62052E-02-4.61860E+00 2.89042E-13 6.21343E-14
 -1       437 2.05334E+01 1.53884E+00 1.01006E-02-4.89007E+00 1.66006E-13 2.98599E-13
 -1       438 2.15354E+01 2.55818E-01 1.18812E-02-3.71326E+00 5.23962E-15 6.06608E-13
 -1       439 2.16397E+01-3.87997E-01 1.34905E-02-2.07903E+00 1.75363E-13-4.07514E-13
 -1       440 2.12406E+01-5.76911E-01 1.16534E-02-6.64030E-01-6.40536E-15-1.28374E-13
 -1       441 2.06671E+01-5.16573E-01 6.17758E-03 2.80192E-01 8.61948E-14-1.16821E-13
 -1       442 1.33218E+01-6.73617E+00-3.85844E-02 8.56346E+00 2.73392E-14-2.33188E-13
 -1       443 1.42458E+00-5.42492E+00-1.38038E-01-1.57328E-01 8.58328E-14 3.40505E-13
 -1       444 5.45856E+00-4.44568E+00 5.24353E-02 5.36919E+00 3.47972E-13 3.87385E-13
 -1       445 2.27389E+01-6.51715E+00-8.12726E-03 7.84352E+00-3.25018E-13-9.14060E-14
 -1       446 3.01389E+01-3.37070E+00 2.77951E-02 5.50516E+00 2.72934E-13-5.97855E-14
 -1       447 1.98031E+01 3.43128E+00-1.76708E-02-1.73759E+00-3.79414E-14-2.90528E-13
 -1       448 3.78618E+01 5.92050E+00 7.57116E-02 8.01479E-01 3.38979E-13 5.06609E-13
 -1       449 3.81022E+01 8.71362E+00 1.14721E-01 1.19192E+00 3.45723E-13 7.87074E-13
 -1       450 3.84901E+01 7.39428E+00 1.14277E-01 1.79894E+00-2.49800E-15 6.93057E-13
 -1       451 3.61847E+01 3.08542E+00 2.67625E-02 1.22118E+00-2.33889E-13 4.90386E-13
 -1       452 3.07296E+01-3.50571E+00-2.98173E-02-1.58045E+00-6.99926E-14 3.43045E-13
 -1       453 2.49234E+01-6.03392E+00-1.31907E-02-4.60425E+00-4.11934E-13-3.35204E-13
 -1       454 1.64591E+01-7.28394E+00-3.30412E-03-6.53413E+00 6.15341E-14 5.38706E-13
 -1       455 6.45270E+00-6.41636E+00-4.95268E-04-5.53557E+00 2.23196E-13 6.32758E-13
 -1       456 1.40790E+00-5.98693E+00-5.40134E-02-1.99897E+00-2.06717E-13 2.58821E-13
 -1       457 1.17617E+00-6.01038E+00-7.10995E-02 2.45818E+00-1.36571E-13-6.34326E-13
 -1       458 7.20584E+00-5.87317E+00 4.89029E-02 6.53581E+00 1.49297E-13-4.67890E-13
 -1       459 1.45998E+01-6.54076E+00 5.16398E-02 7.52648E+00 3.55577E-13-3.21337E-13
 -1       460 2.45645E+01-5.12514E+00 1.42504E-02 5.42240E+00 1.30951E-13-1.70253E-13
 -1       461 3.02284E+01-2.44636E+00-7.16764E-03 3.33295E+00 1.08545E-13-1.34129E-13
 -1       462 3.49588E+01 2.09131E+00 1.15276E-02 3.45054E-01 1.53190E-13-6.17284E-14
 -1       463 3.70538E+01 6.04641E+00 1.87450E-02-8.09056E-01 1.68879E-13-2.36589E-13
 -1       464 3.69356E+01 8.86821E+00-2.37860E-02-9.65063E-01-2.11636E-13-5.91305E-13
 -1       465 3.90098E+01 7.98980E+00 1.18297E-01-9.54713E-01-1.99007E-13-7.30027E-13
 -1       466 3.68964E+01 4.51723E+00 5.64475E-02-1.33342E+00-3.97710E-13-8.30752E-13
 -1       467 3.37727E+01-7.21564E-02 4.80972E-02-3.37380E+00-4.39104E-13-5.25524E-13
 -1       468 2.79843E+01-3.83264E+00 2.75151E-02-6.41908E+00-4.95826E-13-2.25792E-14
 -1       469 2.01217E+01-6.28452E+00-2.28104E-02-8.47131E+00-3.23880E-13-1.86136E-13
 -1       470 1.10692E+01-6.63149E+00-8.67743E-02-8.32801E+00 2.40447E-13 5.54785E-13
 -1       471 4.63174E+00-4.83389E+00-1.88296E-02-5.29395E+00 2.31620E-14 5.32463E-13
 -1       472 3.52122E+01 6.94827E-01 2.26739E-02 1.99790E+00 5.03779E-13 3.87246E-13
 -1       473 2.13871E+01-6.79598E+00 3.66732E-02 6.24877E+00 3.42615E-13 1.59538E-13
 -1       474 3.20919E+01-1.33238E+00-9.48603E-02 1.87809E+00-1.05849E-13 4.77479E-13
 -1       475 2.03742E+01 8.32024E-01 4.01112E-03 9.71436E-01 1.57781E-13 2.75711E-13
 -1       476 1.97320E+01 3.10423E+00-5.33929E-03-6.33511E-01 8.24641E-14-2.11016E-13
 -1       477 1.98290E+01 2.93047E+00-5.72046E-03-9.49226E-01 4.79310E-14-2.25431E-13
 -1       478 1.96640E+01 3.22692E+00-5.01997E-03 8.82169E-03 1.48990E-13-1.16025E-13
 -1       479 1.96826E+01 3.19390E+00-5.10195E-03 3.30293E-01 1.83931E-13-9.25514E-14
 -1       480 1.97365E+01 3.09707E+00-5.41343E-03 6.45578E-01 2.15181E-13-8.09522E-14
 -1       481 1.98354E+01 2.91919E+00-5.94535E-03 9.61091E-01 2.53401E-13-9.57307E-15
 -1       482 1.99911E+01 2.63408E+00-6.52735E-03 1.25619E+00 2.55856E-13 6.09168E-14
 -1       483 2.02338E+01 2.18787E+00-5.70378E-03 1.50091E+00 2.55896E-13 1.55437E-13
 -1       484 2.01126E+01 4.53619E-01 5.07573E-03 4.63520E-01 1.31711E-13 2.36118E-13
 -1       485 2.03447E+01 9.72943E-01 2.77918E-03-9.39466E-01-8.15835E-14-1.48445E-13
 -1       486 3.15356E+01-3.31535E+00-7.86289E-02 1.96515E+00 1.68992E-14 2.21545E-13
 -1       487 2.01726E+01 5.45492E-01 2.34033E-03-4.67167E-01-5.12125E-14-1.24077E-13
 -1       488 2.00251E+01 3.03719E-01 1.12019E-03-1.65883E-01-3.73568E-14-1.14142E-13
 -1       489 1.99244E+01 1.61606E-01 4.67469E-04 1.55644E-02-6.59817E-14-1.17287E-13
 -1       490 1.98655E+01 7.52579E-02 1.59185E-04 1.18084E-01-6.61749E-14-1.21426E-13
 -1       491 1.98380E+01 2.24635E-02 2.13683E-05 1.69300E-01-3.39598E-14-1.35818E-13
 -1       492 1.98318E+01-9.12274E-03-4.76116E-05 1.87772E-01-5.53820E-14-1.81462E-13
 -1       493 1.98388E+01-2.68877E-02-8.28364E-05 1.86050E-01-4.99178E-14-1.41928E-13
 -1       494 1.98533E+01-3.55314E-02-9.81658E-05 1.72657E-01-3.46567E-14-2.06743E-14
 -1       495 1.98714E+01-3.81649E-02-1.00683E-04 1.53376E-01 9.49498E-15 2.21529E-14
 -1       496 1.98905E+01-3.68801E-02-9.49174E-05 1.32098E-01 1.42375E-14 7.23764E-14
 -1       497 1.99094E+01-3.30702E-02-8.38989E-05 1.11422E-01-5.38393E-14-4.43235E-15
 -1       498 1.99272E+01-2.76252E-02-6.95540E-05 9.30795E-02-1.13052E-13-1.31126E-14
 -1       499 1.99438E+01-2.10616E-02-5.29818E-05 7.82490E-02-6.15533E-14 3.14701E-14
 -1       500 1.99596E+01-1.36153E-02-3.46294E-05 6.77929E-02-1.50198E-13 3.77294E-14
 -1       501 1.99750E+01-5.31168E-03-1.44745E-05 6.24340E-02-1.09967E-13-1.24105E-13
 -1       502 1.99910E+01 3.97703E-03 7.84986E-06 6.28855E-02-7.60442E-14-1.09704E-13
 -1       503 2.00085E+01 1.44801E-02 3.29295E-05 6.99413E-02-8.81510E-14-8.26075E-14
 -1       504 2.00288E+01 2.64736E-02 6.14286E-05 8.45288E-02 8.46107E-14-2.23329E-13
 -1       505 2.00534E+01 4.02136E-02 9.39125E-05 1.07719E-01 1.60931E-13-2.39013E-13
 -1       506 2.00838E+01 5.58462E-02 1.30598E-04 1.40686E-01 3.37767E-14-1.37756E-13
 -1       507 2.01219E+01 7.32789E-02 1.70988E-04 1.84599E-01 2.25801E-14-6.60412E-14
 -1       508 2.01699E+01 9.19951E-02 2.13329E-04 2.40416E-01-5.62220E-15-1.31216E-13
 -1       509 2.02297E+01 1.10788E-01 2.53838E-04 3.08559E-01-1.14229E-13-1.24610E-13
 -1       510 2.03041E+01 1.27391E-01 2.85636E-04 3.88400E-01-4.33791E-14-2.77321E-13
 -1       511 2.03955E+01 1.37991E-01 2.97400E-04 4.77531E-01-1.06542E-13-2.16147E-13
 -1       512 2.05070E+01 1.36642E-01 2.71908E-04 5.70753E-01 2.20559E-14-1.11080E-13
 -1       513 2.06423E+01 1.14671E-01 1.85110E-04 6.58750E-01-1.61472E-14-7.63521E-14
 -1       514 2.08058E+01 6.03768E-02 6.30230E-06 7.26496E-01-5.20810E-14-1.45804E-13
 -1       515 2.10028E+01-4.03651E-02-2.97455E-04 7.51583E-01 1.43539E-13-3.22362E-13
 -1       516 2.12392E+01-2.01373E-01-7.51219E-04 7.02998E-01-4.70472E-14-3.75244E-13
 -1       517 2.15189E+01-4.29359E-01-1.34858E-03 5.41604E-01 9.68947E-14-2.21165E-13
 -1       518 2.18374E+01-7.10849E-01-2.00261E-03 2.24932E-01 4.82722E-15-9.84364E-14
 -1       519 2.21698E+01-9.92821E-01-2.46611E-03-2.78987E-01-1.84621E-14 3.01851E-13
 -1       520 2.24553E+01-1.16428E+00-2.20568E-03-9.63189E-01-5.73381E-14 3.60179E-13
 -1       521 2.25899E+01-1.06150E+00-1.62821E-03-1.73578E+00-2.25814E-13 2.30700E-13
 -1       522 2.24599E+01-5.38093E-01-8.36762E-04-2.37513E+00-1.03811E-13 2.02605E-13
 -1       523 2.20386E+01 3.79366E-01-5.33307E-04-2.56077E+00 2.25667E-13 3.21657E-13
 -1       524 2.14830E+01 1.36266E+00-3.57637E-03-2.04917E+00 9.20351E-14 5.67159E-13
 -1       525 2.10974E+01 1.89630E+00-3.61616E-03-9.31628E-01-3.29389E-14 3.20767E-13
 -1       526 2.10734E+01 1.66089E+00-8.06668E-04 2.85997E-01 2.79778E-13 2.29329E-13
 -1       527 2.12714E+01 8.83204E-01-1.16072E-03 1.06950E+00 1.98313E-13 1.49972E-13
 -1       528 2.13948E+01 7.98772E-02 6.54333E-04 1.22983E+00-2.12545E-13-2.04152E-13
 -1       529 2.12327E+01-3.66521E-01 1.43121E-03 9.67352E-01-4.04279E-14-3.60865E-13
 -1       530 1.98105E+01 1.28931E-01 1.00101E-03-2.01987E-02 8.46399E-14 1.41290E-13
 -1       531 1.97526E+01 5.94634E-02 3.64233E-04-1.18651E-01 9.28858E-14 1.25048E-13
 -1       532 1.97337E+01 1.76644E-02 8.32196E-05-1.66686E-01 9.46423E-14 1.11190E-13
 -1       533 1.97396E+01-7.13328E-03-5.33368E-05-1.83210E-01 7.68377E-14 1.16761E-13
 -1       534 1.97598E+01-2.10373E-02-1.23270E-04-1.80554E-01 7.48836E-14 1.74388E-13
 -1       535 1.97871E+01-2.78255E-02-1.55524E-04-1.66916E-01 7.89846E-14 1.37271E-13
 -1       536 1.98169E+01-2.99562E-02-1.64129E-04-1.47780E-01 5.46030E-14 7.02738E-14
 -1       537 1.98464E+01-2.90697E-02-1.57548E-04-1.26803E-01 3.01076E-15 7.88789E-14
 -1       538 1.98739E+01-2.62581E-02-1.41362E-04-1.06399E-01 2.90680E-14 7.39532E-14
 -1       539 1.98990E+01-2.22208E-02-1.19149E-04-8.81577E-02 4.30028E-14 8.19937E-14
 -1       540 1.99215E+01-1.73651E-02-9.30284E-05-7.31429E-02 5.31999E-14 1.45927E-13
 -1       541 1.99420E+01-1.18753E-02-6.39076E-05-6.21229E-02 1.30977E-13 1.19419E-13
 -1       542 1.99614E+01-5.76086E-03-3.18300E-05-5.57433E-02-3.46077E-15 2.41356E-13
 -1       543 1.99808E+01 1.11078E-03 3.88629E-06-5.46651E-02-8.21265E-14 3.07960E-13
 -1       544 2.00018E+01 8.99043E-03 4.45214E-05-5.96748E-02-3.83315E-14 2.87007E-13
 -1       545 2.00260E+01 1.82311E-02 9.18745E-05-7.17741E-02-1.54724E-14 2.06903E-13
 -1       546 2.00555E+01 2.92758E-02 1.48194E-04-9.22540E-02 5.59843E-14 3.20279E-14
 -1       547 2.00926E+01 4.26454E-02 2.16089E-04-1.22753E-01 5.98356E-14 6.89235E-14
 -1       548 2.01400E+01 5.89186E-02 2.98373E-04-1.65295E-01-5.92882E-15 1.37189E-13
 -1       549 2.02008E+01 7.86926E-02 3.97721E-04-2.22302E-01-9.36902E-14-6.41452E-14
 -1       550 2.02782E+01 1.02498E-01 5.15960E-04-2.96541E-01-7.67739E-14-1.38921E-13
 -1       551 2.03759E+01 1.30627E-01 6.52615E-04-3.90984E-01-3.56550E-14 5.52041E-14
 -1       552 2.04975E+01 1.62795E-01 8.02141E-04-5.08475E-01-9.10792E-15 2.04658E-13
 -1       553 2.06468E+01 1.97495E-01 9.48912E-04-6.51082E-01-1.32933E-13 3.17755E-13
 -1       554 2.08274E+01 2.30844E-01 1.05889E-03-8.18893E-01-1.29391E-13 6.22785E-13
 -1       555 2.10430E+01 2.54605E-01 1.06762E-03-1.00792E+00-1.39332E-14 6.72051E-13
 -1       556 2.12987E+01 2.53097E-01 8.66557E-04-1.20658E+00-7.61385E-14 4.99381E-13
 -1       557 2.16031E+01 1.99065E-01 2.97637E-04-1.39028E+00-1.48489E-13 2.34854E-13
 -1       558 2.19728E+01 4.99388E-02-8.28703E-04-1.51351E+00-1.11655E-13 1.03722E-13
 -1       559 2.24379E+01-2.50376E-01-2.61817E-03-1.50009E+00 1.28430E-13 2.62657E-13
 -1       560 2.30424E+01-7.50833E-01-4.97955E-03-1.23414E+00 1.88357E-13 4.32137E-13
 -1       561 2.38199E+01-1.42813E+00-7.11121E-03-5.68912E-01 2.17395E-13 5.69747E-13
 -1       562 2.47316E+01-2.07701E+00-9.03084E-03 6.19707E-01 3.06805E-14 5.85442E-13
 -1       563 2.55428E+01-2.16492E+00-1.13495E-02 2.26153E+00 1.38618E-13 5.24822E-13
 -1       564 2.57679E+01-1.05371E+00-1.76278E-02 3.75960E+00-1.90148E-14 2.10240E-13
 -1       565 2.48603E+01 1.30172E+00-1.11155E-01 4.02936E+00 2.39780E-13 2.07305E-13
 -1       566 2.45565E+01 3.23121E+00-5.45994E-02 2.18723E+00-6.19522E-14 2.11567E-13
 -1       567 2.40437E+01 3.11970E+00-1.24444E-01-5.40373E-01-8.30100E-14 3.90152E-13
 -1       568 2.46902E+01 8.03017E-01-4.54162E-02-1.88375E+00 2.86529E-13 3.65184E-13
 -1       569 2.45844E+01-1.16609E+00-2.51146E-02-1.37634E+00 2.65100E-13 1.89452E-13
 -1       570 2.37142E+01-1.68388E+00-1.31616E-02-4.48753E-02 3.68152E-13 2.87851E-14
 -1       571 2.24473E+01-1.02226E+00-2.90287E-03 1.00959E+00 4.57706E-14 1.54185E-13
 -1       572 1.84832E+01 3.44841E-01 6.88389E-02 5.92863E+00 2.17616E-13-3.08689E-13
 -1       573 1.46289E+01 2.16180E+00 8.70103E-02 3.73127E+00-2.07587E-13-1.71703E-13
 -1       574 2.31276E+01-1.54701E+00 1.16462E-02 3.28265E+00-2.99858E-14 6.22445E-13
 -1       575 2.18977E+01-1.30364E+00 2.84553E-02 5.30679E+00 4.02066E-14 1.59911E-13
 -1       576 1.31752E+01 2.91535E+00 9.98566E-02-9.74732E-01-8.60076E-14 6.51049E-13
 -1       577 1.55675E+01 1.71453E+00 1.01539E-01-5.08953E+00 2.07874E-13 1.78406E-13
 -1       578 1.96541E+01-2.33451E-01 4.82327E-02-6.39402E+00 2.41261E-13-1.33777E-13
 -1       579 2.24259E+01-1.36440E+00 2.01451E-02-5.17580E+00-1.45738E-14 4.83934E-13
 -1       580 2.32009E+01-1.50007E+00 1.11498E-02-3.08357E+00-3.19848E-14 2.04622E-13
 -1       581 2.27291E+01-1.18193E+00 5.93506E-03-1.21583E+00 9.57244E-14-5.67432E-13
 -1       582 2.17327E+01-7.39981E-01 3.41828E-03 4.93818E-02 4.10501E-15-3.61010E-14
 -1       583 6.87099E+00-7.44850E-01 2.12622E-01 1.61945E+00 4.19591E-13 6.06987E-13
 -1       584 2.07155E+01-6.00236E+00 8.17745E-02 8.18258E+00-1.04555E-13-1.29691E-13
 -1       585 1.99253E+01 2.46352E-01 2.45826E-03 1.58194E-01 9.95886E-14 1.66406E-13
 -1       586 7.65280E+00-5.48920E-01 2.28753E-01-3.00371E+00 1.85900E-13 6.13148E-13
 -1       587 1.29483E+01-3.43985E+00 1.56494E-01 7.70241E+00 1.13853E-13-5.72473E-13
 -1       588 2.03979E+01 1.75575E+00-5.96519E-03-1.53649E+00-9.96098E-14-1.96221E-13
 -1       589 1.14959E+01-3.53426E+00 1.50357E-01-7.86202E+00 2.66245E-13 4.74995E-13
 -1       590 6.22400E+00-3.15621E+00 1.62193E-01 4.60458E+00-1.61246E-13-5.58109E-13
 -1       591 3.17876E+01 4.37136E+00-1.62427E-01 3.56745E+00-1.32908E-13 6.63615E-13
 -1       592 1.96797E+01 3.19831E+00-5.09680E-03-3.12719E-01 1.22407E-13-1.76867E-13
 -1       593 3.12535E+01 6.12608E+00-2.14564E-01-5.42925E-01 1.11133E-13 2.87673E-13
 -1       594 3.13685E+01 7.00964E+00-1.99256E-01 2.45237E+00 5.79259E-14 7.60350E-13
 -1       595 1.36269E+01-5.85929E+00 8.45496E-02-6.45106E+00 1.67269E-13 8.50438E-13
 -1       596 2.79034E+01-5.90597E+00-4.02361E-02-1.71938E+00-2.44763E-13 2.01811E-13
 -1       597 3.15972E+01 7.61529E+00-2.07789E-01 7.97282E-02-3.47847E-13-4.97158E-13
 -1       598 2.25810E+01-7.05031E+00 5.48598E-02-4.86442E+00-1.58241E-13-1.78923E-13
 -1       599 6.70302E+00-3.00806E+00 1.92920E-01-3.85248E+00-1.91919E-13 2.18603E-13
 -1       600 4.06456E+00-2.43072E+00 1.86793E-01 2.90864E-01-4.30689E-13-6.75571E-14
 -1       601 1.33194E+01-4.78363E+00 1.53476E-01 7.02403E+00 1.47431E-13-2.26756E-13
 -1       602 2.83079E+01-5.09130E+00-2.03269E-02 2.44133E+00 4.06272E-13 9.87960E-14
 -1       603 3.13210E+01-1.48191E+00-9.24813E-02-6.37864E-01 1.98591E-13-1.03667E-14
 -1       604 3.19351E+01 3.05853E+00-1.52519E-01-2.55040E+00 2.73559E-13-2.04337E-13
 -1       605 3.12460E+01 6.81005E+00-2.05443E-01-2.29087E+00 2.41598E-13-3.03889E-13
 -1       606 3.20941E+01 5.17012E+00-1.74823E-01 9.88304E-01-4.43201E-13-1.26218E-13
 -1       607 3.25103E+01 7.85649E-01-1.15246E-01 9.57945E-02-7.13228E-13-4.17263E-13
 -1       608 3.04848E+01-3.87577E+00-5.52272E-02-3.03653E+00-3.78432E-13-2.28886E-13
 -1       609 2.64722E+01-5.87628E+00 4.94574E-02-6.36970E+00-1.24879E-13-6.32057E-13
 -1       610 1.79384E+01-5.55717E+00 8.38817E-02-8.89247E+00 2.78041E-13 1.84856E-13
 -1       611 3.29552E+01 2.38565E+00-1.48719E-01-8.13174E-01 2.76404E-13 8.35026E-14
 -1       612 2.05861E+01 1.30525E+00-9.99648E-04 1.54740E+00 1.90844E-13 3.49439E-13
 -1       613 2.78853E+01-6.08047E+00 1.49906E-02 5.24657E+00-1.98820E-13 7.07767E-14
 -1       614 1.99726E+01 2.64938E+00-9.82499E-03-1.23862E+00 5.52915E-15-2.35094E-13
 -1       615 2.83453E+01 6.94378E+00-1.66417E-01-1.20568E+00-8.87485E-15 2.50370E-13
 -1       616 3.02290E+01 6.84698E-01-1.28146E-01 4.16127E+00 2.12746E-14 3.33220E-13
 -1       617 1.86187E+01-5.59300E+00 7.74067E-02 6.33433E+00 3.46417E-13 4.03882E-13
 -1       618 1.18902E+01-3.42168E+00 1.32573E-01-5.33118E+00 7.04367E-14 4.30843E-13
 -1       619 3.10698E+01-1.35495E+00-9.43963E-02-6.60787E-01 3.55965E-13 6.09998E-14
 -1       620 2.97826E+01-4.23897E+00-7.23632E-02 1.35733E+00-9.41122E-14 1.26829E-13
 -1       621 2.09363E+01-4.55094E-01 8.61910E-04 7.24003E-01-6.87384E-14-2.28240E-13
 -1       622 1.99592E+01 2.44946E+00-1.58557E-03 3.93986E-01 1.74046E-13-6.60618E-14
 -1       623 1.99272E+01 2.52438E+00-1.51399E-03 1.35687E-01 1.47352E-13-9.32631E-14
 -1       624 2.01198E+01 2.04611E+00-1.58434E-03 8.49972E-01 2.20187E-13 3.00679E-14
 -1       625 2.02394E+01 1.67542E+00-2.21774E-03 9.91329E-01 2.28823E-13 1.09585E-13
 -1       626 2.03195E+01 1.03688E+00 2.86183E-03 8.31005E-01 1.69336E-13 1.35847E-13
 -1       627 2.90604E+01-4.80251E+00-4.14123E-02 2.26604E+00 2.48074E-14 5.05401E-13
 -1       628 2.88195E+01 2.79463E+00-1.60134E-01-1.80376E+00-3.35981E-14-7.65915E-14
 -1       629 2.31941E+01-5.08869E+00 7.25242E-02-7.33903E+00 3.73444E-13-4.55381E-13
 -1       630 2.02394E+01 6.75139E-01 6.26993E-04-3.94105E-01-3.62456E-14-1.33124E-13
 -1       631 2.01673E+01 3.91676E-01 1.99184E-04-1.39421E-01-6.12802E-14-1.16492E-13
 -1       632 2.01018E+01 2.12168E-01 5.75290E-05 2.23724E-02-7.23910E-14-1.28618E-13
 -1       633 2.00515E+01 9.78093E-02 5.09711E-06 1.17210E-01-6.91944E-14-1.63245E-13
 -1       634 2.00163E+01 2.60166E-02-1.60785E-05 1.65763E-01-4.88430E-14-1.36301E-13
 -1       635 1.99937E+01-1.73906E-02-2.66499E-05 1.83614E-01 1.87657E-14-6.74677E-14
 -1       636 1.99806E+01-4.16814E-02-3.18538E-05 1.82102E-01 5.82757E-14 7.59224E-14
 -1       637 1.99741E+01-5.31043E-02-3.32923E-05 1.69289E-01 5.90119E-15 1.04605E-13
 -1       638 1.99723E+01-5.59364E-02-3.20161E-05 1.50813E-01-2.83750E-14 4.29207E-14
 -1       639 1.99734E+01-5.30984E-02-2.89418E-05 1.30555E-01-2.53422E-14 5.38005E-15
 -1       640 1.99765E+01-4.65351E-02-2.47041E-05 1.11162E-01-3.84820E-14 2.61712E-15
 -1       641 1.99809E+01-3.74669E-02-1.97329E-05 9.44475E-02-1.17360E-13 3.42666E-14
 -1       642 1.99861E+01-2.65710E-02-1.42133E-05 8.16988E-02-1.87231E-13 3.04727E-16
 -1       643 1.99921E+01-1.41157E-02-8.21217E-06 7.39127E-02-2.20895E-13-2.24180E-14
 -1       644 1.99989E+01-6.69023E-05-1.65638E-06 7.19693E-02-6.34914E-14 6.09413E-14
 -1       645 2.00066E+01 1.58227E-02 5.62905E-06 7.67600E-02-5.64691E-14 2.65638E-15
 -1       646 2.00155E+01 3.39255E-02 1.38721E-05 8.92723E-02-6.45897E-14 6.91831E-14
 -1       647 2.00260E+01 5.46431E-02 2.33095E-05 1.10632E-01 2.32576E-14 4.01879E-15
 -1       648 2.00385E+01 7.82835E-02 3.41300E-05 1.42099E-01 1.70054E-13-2.00027E-13
 -1       649 2.00536E+01 1.04897E-01 4.63906E-05 1.85005E-01 6.85632E-14 1.13150E-14
 -1       650 2.00720E+01 1.34042E-01 5.98937E-05 2.40615E-01-2.56582E-14 5.96183E-14
 -1       651 2.00948E+01 1.64460E-01 7.40018E-05 3.09900E-01-6.49405E-14 1.53386E-13
 -1       652 2.01234E+01 1.93617E-01 8.73670E-05 3.93173E-01-1.77081E-13 1.80730E-13
 -1       653 2.01599E+01 2.17101E-01 9.75445E-05 4.89571E-01-3.95621E-14 7.55282E-14
 -1       654 2.02079E+01 2.27852E-01 1.00466E-04 5.96328E-01-5.09130E-14-4.22310E-14
 -1       655 2.02730E+01 2.15298E-01 8.97782E-05 7.07803E-01-6.44394E-14-1.39570E-13
 -1       656 2.03641E+01 1.64587E-01 5.65628E-05 8.14198E-01-2.93076E-14-1.71128E-13
 -1       657 2.04949E+01 5.64106E-02-1.31656E-05 8.99910E-01-6.64470E-14-1.27346E-13
 -1       658 2.06854E+01-1.31521E-01-1.37755E-04 9.41432E-01 1.05193E-13-1.05593E-13
 -1       659 2.09618E+01-4.19364E-01-3.42736E-04 9.04845E-01 5.07086E-14 7.02529E-14
 -1       660 2.13529E+01-8.13011E-01-6.51654E-04 7.43489E-01 4.60581E-14-1.04151E-14
 -1       661 2.18774E+01-1.28054E+00-1.03396E-03 3.98912E-01 1.00182E-13-1.40412E-14
 -1       662 2.25173E+01-1.71707E+00-1.30360E-03-1.85870E-01 1.48771E-14-1.34833E-13
 -1       663 2.31832E+01-1.91206E+00-5.07846E-04-1.02776E+00-9.45537E-14-5.58922E-15
 -1       664 2.36722E+01-1.55178E+00-2.52805E-03-2.01933E+00-2.52369E-14 4.18210E-13
 -1       665 2.37603E+01-4.13627E-01-7.65336E-03-2.80611E+00 1.55499E-13 6.36473E-13
 -1       666 2.33886E+01 1.32525E+00-1.33528E-02-2.85906E+00 1.44866E-13 4.44882E-13
 -1       667 2.28655E+01 2.86908E+00-1.89347E-02-1.88401E+00 4.25450E-14 4.74175E-13
 -1       668 2.27419E+01 3.04352E+00-2.33982E-02-2.84686E-01-3.37427E-15 6.04210E-13
 -1       669 2.29926E+01 2.00626E+00-1.94528E-02 9.85767E-01-5.93449E-15 2.95293E-13
 -1       670 2.32089E+01 4.59917E-01-8.44138E-03 1.28643E+00-2.93958E-13-1.23864E-13
 -1       671 2.29384E+01-5.77421E-01-2.15345E-03 8.26530E-01-2.73967E-13 1.46397E-15
 -1       672 1.99732E+01 8.76108E-02 5.60004E-05-1.19670E-01 1.07411E-13 6.24844E-14
 -1       673 2.97637E+01-2.06240E+00-6.86171E-02-3.68708E-01-4.28371E-13-1.59272E-13
 -1       674 2.95718E+01 2.03585E+00-1.30541E-01 1.39970E+00-6.24834E-13 1.16972E-13
 -1       675 2.00270E+01 1.89141E-01 1.73024E-04-2.13588E-02 7.81709E-14 8.04490E-14
 -1       676 1.99254E+01-1.35777E-02-2.90330E-05-1.87505E-01 4.77650E-14 1.23603E-13
 -1       677 1.99206E+01-3.49311E-02-4.51238E-05-1.85732E-01 6.62710E-14 8.45766E-14
 -1       678 1.99230E+01-4.51402E-02-5.20433E-05-1.72424E-01 1.01622E-13 1.30609E-13
 -1       679 1.99295E+01-4.79489E-02-5.26983E-05-1.53316E-01 2.17991E-14 1.16712E-13
 -1       680 1.99383E+01-4.59007E-02-4.92144E-05-1.32321E-01 3.58121E-14 1.38306E-13
 -1       681 1.99482E+01-4.06907E-02-4.30593E-05-1.12085E-01 3.78054E-14 1.78372E-13
 -1       682 1.99584E+01-3.33843E-02-3.52872E-05-9.43991E-02-4.72869E-14 1.31026E-13
 -1       683 1.99687E+01-2.45737E-02-2.62893E-05-8.05235E-02 6.01879E-14 2.37285E-13
 -1       684 1.99793E+01-1.44867E-02-1.62376E-05-7.14244E-02-5.98764E-14 3.87963E-13
 -1       685 1.99903E+01-3.06105E-03-5.00358E-06-6.79637E-02-4.75666E-14 3.22978E-13
 -1       686 2.00023E+01 9.99873E-03 7.74917E-06-7.10464E-02-3.12298E-14 2.46964E-13
 -1       687 2.00159E+01 2.51813E-02 2.25634E-05-8.17350E-02 6.77665E-14 1.70648E-13
 -1       688 2.00319E+01 4.31374E-02 4.01629E-05-1.01339E-01 7.46494E-14 1.51741E-13
 -1       689 2.00510E+01 6.46513E-02 6.14323E-05-1.31479E-01 8.16101E-14 1.23935E-13
 -1       690 2.00742E+01 9.06056E-02 8.73901E-05-1.74130E-01 1.15873E-13 1.30481E-13
 -1       691 2.01023E+01 1.21923E-01 1.19135E-04-2.31625E-01-6.18229E-14 1.27030E-13
 -1       692 2.01360E+01 1.59461E-01 1.57724E-04-3.06618E-01-5.74246E-14 1.16098E-13
 -1       693 2.01757E+01 2.03803E-01 2.03915E-04-4.01968E-01-1.26810E-13 1.44392E-13
 -1       694 2.02216E+01 2.54877E-01 2.57633E-04-5.20516E-01-3.72033E-14 4.35070E-14
 -1       695 2.02735E+01 3.11246E-01 3.16912E-04-6.64677E-01-1.54181E-13 1.02676E-13
 -1       696 2.03309E+01 3.68856E-01 3.75853E-04-8.35777E-01-2.19854E-13 5.35647E-14
 -1       697 2.03941E+01 4.18905E-01 4.21024E-04-1.03299E+00-4.12432E-14 1.98193E-14
 -1       698 2.04663E+01 4.44423E-01 4.26868E-04-1.25174E+00 4.93664E-14-5.41750E-14
 -1       699 2.05579E+01 4.15249E-01 3.49787E-04-1.48125E+00 6.97433E-16-1.11292E-13
 -1       700 2.06946E+01 2.81871E-01 1.31878E-04-1.70073E+00-1.25946E-13-2.25013E-13
 -1       701 2.09302E+01-2.91233E-02-2.84857E-04-1.87292E+00-3.41657E-14-2.06983E-13
 -1       702 2.13628E+01-6.09801E-01-7.46447E-04-1.93226E+00 7.87595E-14 1.65795E-14
 -1       703 2.21496E+01-1.53469E+00-7.27981E-04-1.75490E+00 1.05569E-13 9.38919E-17
 -1       704 2.34445E+01-2.71966E+00 4.55380E-04-1.14290E+00 1.10544E-13 1.93996E-13
 -1       705 2.53120E+01-3.74063E+00-6.61815E-03 2.03402E-01 5.53224E-14 1.05402E-13
 -1       706 2.72239E+01-3.45959E+00-3.78414E-02 2.26394E+00 1.92202E-13 1.45893E-13
 -1       707 2.64904E+01-3.03572E+00-2.09372E-02 5.01799E-01 1.01101E-13 2.56236E-14
 -1       708 2.49007E+01-2.87866E+00 1.34586E-03 2.23299E+00-1.07054E-14 4.56719E-13
 -1       709 2.11191E+01-3.41328E+00 8.86479E-02 6.82802E+00-1.47486E-14 1.37869E-13
 -1       710 2.44206E+01-3.68573E+00 2.22182E-02 4.67722E+00-9.67221E-14 5.01068E-13
 -1       711 1.67769E+01-2.01205E+00 1.02617E-01-7.65436E+00 3.92547E-13 3.07414E-13
 -1       712 2.27604E+01-3.47967E+00 4.25458E-02-6.63881E+00 2.75703E-13-2.80566E-13
 -1       713 2.49996E+01-3.13416E+00 6.09527E-03-3.85034E+00-2.31507E-13 5.33027E-13
 -1       714 2.45681E+01-2.07731E+00-8.91912E-03-1.53292E+00-2.05672E-13-7.67147E-14
 -1       715 9.68200E+00-1.03741E+00 1.80761E-01 4.71700E+00 2.51042E-13 2.08611E-13
 -1       716 2.02809E+01 1.67907E+00 7.94971E-05-1.14009E+00-4.40077E-14-1.87188E-13
 -1       717 2.01055E+01 3.52985E-01 6.09185E-04 1.48587E-01 1.18120E-13 8.56118E-14
 -1       718 1.99412E+01 2.44611E-02 6.42881E-07-1.69446E-01 5.91493E-14 6.27006E-14
 -1       719 2.02910E+01 1.07639E+00-1.60629E-04-7.22567E-01-3.48891E-14-1.47350E-13
 -1       720 2.00233E+01 2.29493E+00-1.65470E-03 6.37593E-01 1.96440E-13-2.37268E-14
 -1       721 2.02061E+01 6.13841E-01 9.76029E-04 4.19865E-01 1.45214E-13 1.01562E-13
 -1       722 1.14500E+01-2.34245E+00 1.40840E-01 5.22703E+00-6.26617E-14-1.36613E-13
 -1       723 2.51850E+01-6.07381E+00 2.07494E-02 3.51007E+00 5.31127E-13 1.30869E-13
 -1       724 2.00179E+01 2.30535E+00-1.55288E-03-6.29167E-01 4.86507E-14-1.87645E-13
 -1       725 2.95331E+01-1.18693E-01-1.05192E-01-2.63179E+00 3.42275E-13-7.06137E-14
 -1       726 7.80671E+00-9.88211E-01 1.67339E-01-1.49160E+00-2.53507E-13-4.26117E-14
 -1       727 2.55713E+01-6.10238E+00 2.24331E-02-2.05909E+00 3.38531E-14-1.36456E-13
 -1       728 2.83158E+01 3.83616E+00-1.41682E-01-3.20288E+00 3.67331E-13-5.93969E-15
 -1       729 7.89087E+00-9.33193E-01 1.62033E-01 2.28229E+00-3.03460E-13-1.78205E-13
 -1       730 2.52190E+01-5.62665E+00 2.07147E-02 5.82772E+00-1.53606E-13 4.53663E-13
 -1       731 1.95787E+01-5.59060E+00 8.89510E-02-5.17073E+00 2.57606E-13 2.39643E-13
 -1       732 2.88040E+01-3.71646E+00-4.76780E-02-3.92591E-01 2.88886E-13 1.29237E-13
 -1       733 2.24130E+01-8.11513E-01 1.91616E-04 4.03309E-01-9.19538E-14-9.29059E-14
 -1       734 2.85672E+01 5.47677E+00-1.69864E-01 9.74263E-01-6.49501E-13 6.52707E-14
 -1       735 2.81162E+01-4.79449E+00-8.93437E-03-3.77502E+00 2.19182E-14-3.33150E-13
 -1       736 1.44459E+01-7.06110E-01 1.36035E-01 6.22769E+00-6.93196E-14-7.18106E-13
 -1       737 2.01186E+01 2.06329E+00-1.17450E-03-8.53920E-01 1.80976E-14-1.97131E-13
 -1       738 1.99263E+01 2.52606E+00-1.50187E-03-1.26504E-01 1.32698E-13-1.33891E-13
 -1       739 1.53095E+01-3.37028E+00 8.74926E-02 5.69241E+00 4.62807E-14 2.70471E-13
 -1       740 2.75026E+01-1.43192E+00-7.64594E-02-1.32888E+00 3.25902E-13-3.30890E-13
 -1       741 2.63183E+01 4.80323E+00-1.19651E-01-2.35042E+00 1.03247E-13 5.75966E-13
 -1       742 1.33184E+01 1.01815E+00 1.67367E-01-4.86274E+00 1.23786E-13 1.52760E-13
 -1       743 1.89910E+01-2.96296E+00 1.06282E-01 7.44965E+00-1.16813E-13-2.76945E-13
 -1       744 1.09184E+01-1.33787E+00 1.03155E-01-3.45358E+00-1.34009E-13 1.97342E-14
 -1       745 1.99562E+01 2.45520E+00-1.53217E-03-3.84193E-01 8.94622E-14-1.46007E-13
 -1       746 2.40486E+01-1.31499E+00 1.44737E-04-1.19667E-02-8.05207E-14-5.38234E-13
 -1       747 1.12347E+01 8.94229E-01 1.46264E-01 3.04138E+00 7.82607E-14 1.67297E-13
 -1       748 2.02714E+01 1.30130E+00 8.41761E-04 6.30347E-01 1.71007E-13 7.06950E-14
 -1       749 2.73255E+01-2.09047E+00-3.93917E-02-2.18835E+00 1.86201E-13-1.66660E-13
 -1       750 2.02615E+01 4.32572E-01-5.77013E-05-9.35624E-02-7.19469E-14-1.46851E-13
 -1       751 2.02213E+01 2.33760E-01-2.34743E-05 3.58453E-02-7.97728E-14-1.30789E-13
 -1       752 2.01798E+01 1.03183E-01-1.47209E-05 1.12829E-01-3.73797E-14-1.04682E-13
 -1       753 2.01422E+01 2.00104E-02-1.13738E-05 1.52172E-01 7.67718E-14-4.76228E-14
 -1       754 2.01103E+01-3.02804E-02-9.92858E-06 1.65957E-01 8.40021E-14-6.08589E-14
 -1       755 2.00842E+01-5.78768E-02-9.19188E-06 1.63463E-01 3.20657E-14-5.82945E-14
 -1       756 2.00636E+01-6.99658E-02-8.42810E-06 1.51518E-01 1.06901E-14-3.85552E-16
 -1       757 2.00477E+01-7.15915E-02-7.58650E-06 1.35010E-01-3.17186E-14 8.52597E-14
 -1       758 2.00357E+01-6.62320E-02-6.65574E-06 1.17365E-01-7.17179E-14-5.62947E-14
 -1       759 2.00269E+01-5.61826E-02-5.61015E-06 1.00962E-01-1.05737E-13-9.21694E-14
 -1       760 2.00206E+01-4.28440E-02-4.33150E-06 8.74779E-02-1.95035E-13-6.05441E-14
 -1       761 2.00163E+01-2.69426E-02-2.95395E-06 7.81575E-02-1.59034E-13-4.86700E-14
 -1       762 2.00133E+01-8.69667E-03-1.52084E-06 7.40150E-02-1.41701E-13-4.23353E-15
 -1       763 2.00112E+01 1.20459E-02 1.39637E-08 7.59923E-02-7.12727E-14-7.24885E-14
 -1       764 2.00094E+01 3.56840E-02 1.71749E-06 8.50706E-02-1.13301E-14-2.83014E-14
 -1       765 2.00075E+01 6.27367E-02 3.66643E-06 1.02343E-01-1.11263E-13 8.73436E-15
 -1       766 2.00048E+01 9.36979E-02 5.94307E-06 1.29048E-01 5.14807E-14 5.05575E-14
 -1       767 2.00009E+01 1.28850E-01 8.62901E-06 1.66555E-01 1.67619E-13 1.61839E-16
 -1       768 1.99954E+01 1.68013E-01 1.17948E-05 2.16307E-01 4.94613E-14-4.57825E-14
 -1       769 1.99880E+01 2.10194E-01 1.54847E-05 2.79700E-01-7.43110E-14-9.77986E-14
 -1       770 1.99790E+01 2.53113E-01 1.96936E-05 3.57882E-01-4.22470E-14-1.15152E-13
 -1       771 1.99692E+01 2.92560E-01 2.43299E-05 4.51478E-01-2.19814E-13 2.04710E-14
 -1       772 1.99613E+01 3.21566E-01 2.91378E-05 5.60199E-01-6.94079E-14-4.01426E-14
 -1       773 1.99601E+01 3.29400E-01 3.35209E-05 6.82328E-01-4.39367E-14 6.34237E-14
 -1       774 1.99748E+01 3.00466E-01 3.62863E-05 8.14009E-01-7.64874E-14 1.91152E-13
 -1       775 2.00206E+01 2.13388E-01 3.74082E-05 9.48223E-01-1.07152E-13 1.57118E-13
 -1       776 2.01217E+01 4.08536E-02 2.85633E-05 1.07309E+00 8.72078E-14-2.32159E-14
 -1       777 2.03145E+01-2.48398E-01-2.48482E-06 1.16888E+00 1.34855E-13-1.14385E-13
 -1       778 2.06493E+01-6.82828E-01-8.32044E-05 1.20249E+00-1.43898E-14-1.27099E-13
 -1       779 2.11876E+01-1.27110E+00-2.58715E-04 1.11802E+00-1.49917E-13-3.68226E-13
 -1       780 2.19838E+01-1.96403E+00-4.41875E-04 8.26347E-01-4.58404E-14-2.41210E-13
 -1       781 2.30382E+01-2.59070E+00-5.84839E-04 2.11401E-01 3.48639E-14-1.58291E-13
 -1       782 2.42208E+01-2.81859E+00-5.12230E-03-8.06340E-01 3.01997E-13-4.43141E-14
 -1       783 2.51902E+01-2.00689E+00-1.24218E-02-2.13281E+00 2.17626E-13 9.58153E-14
 -1       784 2.51188E+01 3.08042E+00-7.50265E-02-3.00070E+00 8.34680E-14 2.39798E-13
 -1       785 2.48777E+01 3.75754E+00-4.84410E-02 7.40571E-01-2.87863E-13 1.68975E-13
 -1       786 2.51865E+01 1.30172E+00-4.96200E-02 1.42115E+00-4.99059E-13-1.54250E-13
 -1       787 2.49195E+01-5.80475E-01-2.47610E-02 8.85607E-01-3.66090E-13-3.67769E-13
 -1       788 2.00405E+01-5.07140E-02-1.41920E-05-1.73183E-01 5.63504E-14 2.99536E-14
 -1       789 2.00610E+01-2.45569E-02-1.14593E-05-1.75471E-01 6.53438E-14 5.37926E-14
 -1       790 2.00160E+01-6.48087E-02-1.36369E-05-1.43011E-01-5.77403E-15 7.03493E-14
 -1       791 2.00097E+01-6.06665E-02-1.20154E-05-1.24007E-01-1.43015E-14 8.30522E-14
 -1       792 2.00061E+01-5.22788E-02-1.04038E-05-1.06112E-01 2.74589E-14 2.01628E-13
 -1       793 2.00046E+01-4.09474E-02-8.29003E-06-9.10836E-02-2.24080E-14 1.62362E-13
 -1       794 2.00047E+01-2.73532E-02-5.89405E-06-8.02071E-02-6.81484E-14 2.35063E-13
 -1       795 2.00060E+01-1.16800E-02-3.15196E-06-7.45241E-02-3.91453E-14 1.88055E-13
 -1       796 2.00083E+01 6.27834E-03-5.72934E-08-7.50086E-02-2.09844E-15 1.38220E-13
 -1       797 2.00112E+01 2.70404E-02 3.48729E-06-8.26999E-02-1.40754E-14 1.45960E-13
 -1       798 2.00146E+01 5.13771E-02 7.64681E-06-9.88029E-02 6.29193E-14 2.44001E-13
 -1       799 2.00181E+01 8.02603E-02 1.26391E-05-1.24757E-01 3.81082E-15 3.34860E-13
 -1       800 2.00211E+01 1.14807E-01 1.87304E-05-1.62275E-01 5.93813E-14 3.88027E-13
 -1       801 2.00229E+01 1.56205E-01 2.62380E-05-2.13350E-01 4.70965E-14 3.25034E-13
 -1       802 2.00222E+01 2.05595E-01 3.55381E-05-2.80214E-01-3.42573E-14 1.81383E-13
 -1       803 2.00173E+01 2.63865E-01 4.70805E-05-3.65257E-01-1.53392E-13 1.98674E-13
 -1       804 2.00058E+01 3.31293E-01 6.14137E-05-4.70879E-01-6.05776E-14 1.13106E-13
 -1       805 1.99844E+01 4.06918E-01 7.91972E-05-5.99274E-01-9.58581E-14 1.03647E-13
 -1       806 1.99492E+01 4.87465E-01 1.01029E-04-7.52181E-01-1.33281E-13 9.07000E-15
 -1       807 1.98964E+01 5.65553E-01 1.26414E-04-9.30616E-01-4.08371E-14-3.01245E-13
 -1       808 1.98235E+01 6.26833E-01 1.51574E-04-1.13474E+00-2.59820E-15-4.02661E-13
 -1       809 1.97334E+01 6.45592E-01 1.72346E-04-1.36407E+00 7.15913E-14-1.93354E-13
 -1       810 1.96405E+01 5.78411E-01 1.89096E-04-1.61800E+00 5.48436E-14-1.85643E-13
 -1       811 1.95837E+01 3.56526E-01 2.40624E-04-1.89587E+00-5.69121E-14-3.52731E-13
 -1       812 1.96460E+01-1.20681E-01 5.85378E-04-2.19403E+00-1.02761E-13-4.83133E-13
 -1       813 1.99794E+01-9.79538E-01 2.22099E-03-2.49297E+00-3.87130E-14-2.58248E-13
 -1       814 2.09074E+01-2.36978E+00-3.08827E-03-2.67921E+00 9.26052E-14 5.95127E-14
 -1       815 2.28092E+01-4.15274E+00 3.43800E-02-2.52656E+00 2.18005E-13-1.68736E-13
 -1       816 1.17734E+01-5.32541E-01 8.51875E-02 3.10260E+00 1.04649E-13 9.76406E-14
 -1       817 2.69479E+01-2.84962E+00-1.36709E-02-1.27582E+00-3.69526E-13 2.32959E-13
 -1       818 2.02200E+01 4.13383E-01-1.54523E-04 1.10929E-01 1.14434E-13 1.11655E-13
 -1       819 2.66870E+01-4.43945E+00-2.09651E-02-4.15832E+00-3.52105E-14-1.37266E-13
 -1       820 2.71734E+01 1.02446E+00-8.11765E-02-3.28290E+00 2.61045E-13-1.87158E-13
 -1       821 2.00259E+01-6.25669E-02-1.44675E-05-1.60619E-01 3.01985E-14 8.17233E-14
 -1       822 2.53609E+01 5.14578E+00-8.53579E-02-2.24596E-01-3.01495E-14 2.68318E-13
 -1       823 2.01702E+01 2.23647E-01 4.55516E-06-3.24359E-02 1.06041E-13 5.12809E-14
 -1       824 2.66550E+01 2.99534E+00-8.48325E-02 1.43969E+00-5.28810E-13-1.05294E-13
 -1       825 2.21198E+01-5.28743E+00 2.13350E-02 4.25070E+00 3.12917E-13 2.31755E-13
 -1       826 1.67151E+01-3.18598E+00 7.95548E-02-4.70655E+00 1.00199E-13 3.44441E-13
 -1       827 2.02874E+01 7.31885E-01 2.89606E-05-2.90500E-01-2.00355E-14-1.64140E-13
 -1       828 1.00663E+01 1.59926E-02 9.87079E-02 2.64323E-01-3.05684E-13-1.49741E-13
 -1       829 2.02762E+01 9.43626E-01 1.33039E-05 5.52468E-01 1.52837E-13 9.53732E-14
 -1       830 2.01378E+01 1.88876E+00-3.33098E-04 1.99085E-01 1.41539E-13-5.68895E-14
 -1       831 2.75180E+01-2.61791E-01-5.22983E-02 1.02657E+00-4.22745E-13-1.03421E-13
 -1       832 2.64313E+01-4.79902E+00-3.02525E-03 8.13177E-01 3.60508E-13-2.00520E-13
 -1       833 2.01261E+01 1.92694E+00-3.15264E-04 3.28035E-03 1.12582E-13-9.93021E-14
 -1       834 1.90177E+01-3.74098E+00 2.72704E-02 4.68099E+00 1.28664E-13 4.56867E-13
 -1       835 2.02183E+01 1.58233E+00-2.75197E-04 5.33891E-01 1.73339E-13 1.46883E-14
 -1       836 2.02149E+01 1.59014E+00-8.43599E-04-5.29014E-01-1.90787E-14-1.69089E-13
 -1       837 2.02877E+01 1.12327E+00 3.14118E-04-5.34354E-01-3.25556E-14-1.58978E-13
 -1       838 2.55293E+01 1.72566E-01-4.20047E-02-3.17356E+00 1.65625E-13 3.97104E-14
 -1       839 2.01253E+01 1.00601E-01-6.38445E-06-1.16942E-01 8.83515E-14 3.47204E-14
 -1       840 2.00889E+01 2.26417E-02-8.43726E-06-1.60105E-01 7.57583E-15 5.09737E-14
 -1       841 1.40528E+01-1.35030E+00 5.28925E-02 4.09018E+00 1.85265E-13 4.58262E-14
 -1       842 2.64918E+01-4.52831E+00-2.52661E-03 3.39710E+00-2.16896E-13 2.99955E-13
 -1       843 2.01703E+01 1.77539E+00-3.53005E-04 3.81480E-01 1.58641E-13-3.44961E-14
 -1       844 2.01679E+01 1.78187E+00-2.65403E-04-3.75617E-01 3.57011E-14-1.24293E-13
 -1       845 1.15669E+01-2.96077E-02 6.00572E-02-1.63317E+00-3.07723E-13-1.08144E-13
 -1       846 2.02539E+01 6.30614E-01-4.09085E-04 2.96996E-01 1.35941E-13 9.35479E-14
 -1       847 1.49132E+01-1.28528E+00 6.38667E-02-3.61414E+00-2.12001E-13 1.81495E-13
 -1       848 2.03037E+01 2.26782E-01-2.14620E-05 4.73326E-02-1.04166E-14-5.69331E-14
 -1       849 2.02674E+01 9.12834E-02-8.30719E-06 1.02871E-01 3.32451E-14-1.00611E-14
 -1       850 2.02281E+01 4.75788E-03-5.90363E-06 1.30394E-01 4.04559E-14-6.50301E-14
 -1       851 2.01901E+01-4.69147E-02-4.22630E-06 1.38770E-01 4.85080E-14-1.34613E-13
 -1       852 2.01555E+01-7.41684E-02-2.48088E-06 1.35002E-01 3.87990E-14-1.11598E-13
 -1       853 2.01252E+01-8.45711E-02-1.43082E-06 1.24349E-01 1.15524E-14-1.26423E-13
 -1       854 2.00996E+01-8.35251E-02-1.34258E-06 1.10638E-01-1.22984E-13-8.47029E-14
 -1       855 2.00783E+01-7.47480E-02-1.61997E-06 9.65691E-02-1.06160E-13-5.80979E-14
 -1       856 2.00607E+01-6.06385E-02-1.34519E-06 8.40609E-02-1.08670E-13-1.05556E-13
 -1       857 2.00462E+01-4.26065E-02-9.78680E-07 7.45116E-02-1.70118E-13-2.86297E-14
 -1       858 2.00338E+01-2.13051E-02-7.61474E-07 6.90015E-02-8.40069E-14-2.78770E-16
 -1       859 2.00226E+01 3.18287E-03-6.52825E-07 6.84623E-02-1.08001E-13 1.10127E-13
 -1       860 2.00115E+01 3.11789E-02-6.14808E-07 7.38057E-02 2.16189E-14 1.17175E-13
 -1       861 1.99994E+01 6.32534E-02-6.26083E-07 8.60149E-02 1.62063E-14 1.20428E-13
 -1       862 1.99849E+01 1.00062E-01-6.70132E-07 1.06205E-01-4.93896E-15 1.45918E-13
 -1       863 1.99666E+01 1.42151E-01-7.26512E-07 1.35653E-01 3.33487E-14-3.03697E-14
 -1       864 1.99431E+01 1.89707E-01-7.64449E-07 1.75803E-01 1.02979E-13-9.07030E-14
 -1       865 1.99131E+01 2.42221E-01-7.34401E-07 2.28232E-01-6.82775E-14-1.09692E-13
 -1       866 1.98753E+01 2.98039E-01-5.50971E-07 2.94601E-01-7.55540E-14-8.24659E-14
 -1       867 1.98292E+01 3.53757E-01-5.41906E-08 3.76568E-01-1.60417E-13-1.14366E-13
 -1       868 1.97754E+01 4.03438E-01 1.06397E-06 4.75689E-01-9.46918E-14 7.27448E-14
 -1       869 1.97165E+01 4.37627E-01 3.33748E-06 5.93315E-01-1.56780E-14 8.37887E-14
 -1       870 1.96586E+01 4.42187E-01 7.49584E-06 7.30463E-01 8.62504E-14 6.98596E-14
 -1       871 1.96134E+01 3.97018E-01 1.53422E-05 8.87612E-01-1.40820E-13 3.11572E-14
 -1       872 1.96007E+01 2.74892E-01 4.25653E-05 1.06419E+00-2.17693E-13 1.84585E-14
 -1       873 1.96537E+01 4.07592E-02 8.18046E-05 1.25703E+00-2.12092E-13-4.24472E-13
 -1       874 1.98236E+01-3.46812E-01 1.38031E-04 1.45643E+00 8.40182E-14-6.02937E-13
 -1       875 2.01873E+01-9.30344E-01 2.27420E-04 1.63729E+00-3.90592E-14-3.61767E-13
 -1       876 2.08540E+01-1.73510E+00 5.11208E-04 1.73608E+00-2.19945E-14-1.68882E-13
 -1       877 2.19460E+01-2.71138E+00 5.78355E-05 1.61786E+00 5.08556E-14-1.99567E-13
 -1       878 2.35524E+01-3.62411E+00 9.60027E-03 1.07961E+00 1.93774E-13-9.75736E-14
 -1       879 2.01566E+01-3.97717E-02 6.95995E-08-1.52308E-01 4.73236E-14-5.19569E-14
 -1       880 2.00610E+01-7.14011E-02 1.33487E-07-1.06451E-01-5.02952E-14 1.02433E-13
 -1       881 2.00782E+01-7.85824E-02 2.70232E-06-1.22224E-01-2.23193E-14 9.77978E-14
 -1       882 2.00366E+01-4.32344E-02-4.21440E-07-8.08866E-02-5.79596E-14 2.10479E-13
 -1       883 2.00279E+01-2.42892E-02-3.18640E-07-7.38026E-02-8.25827E-14 1.62420E-13
 -1       884 2.00207E+01-2.36234E-03-7.00602E-08-7.19010E-02-7.32297E-14 1.92094E-13
 -1       885 2.00138E+01 2.29563E-02 2.72100E-07-7.61440E-02-3.76971E-14 2.53053E-13
 -1       886 2.00065E+01 5.24391E-02 7.15994E-07-8.75644E-02-2.90797E-14 2.68128E-13
 -1       887 1.99973E+01 8.71384E-02 1.29648E-06-1.07336E-01 3.78819E-14 2.32207E-13
 -1       888 1.99848E+01 1.28306E-01 2.06445E-06-1.36808E-01 1.92394E-14 1.73515E-13
 -1       889 1.99672E+01 1.77300E-01 3.09113E-06-1.77508E-01 1.06150E-13 1.96336E-13
 -1       890 1.99418E+01 2.35456E-01 4.48211E-06-2.31101E-01-4.03035E-14 3.49906E-13
 -1       891 1.99057E+01 3.03895E-01 6.40690E-06-2.99311E-01-1.66303E-13 3.39317E-13
 -1       892 1.98546E+01 3.83214E-01 9.16406E-06-3.83804E-01-6.92552E-14 3.19906E-13
 -1       893 1.97834E+01 4.72988E-01 1.33250E-05-4.86065E-01-3.04897E-14 2.10905E-13
 -1       894 1.96858E+01 5.70972E-01 1.99527E-05-6.07314E-01-2.85303E-14 1.56863E-13
 -1       895 1.95542E+01 6.71820E-01 3.03274E-05-7.48598E-01 9.81427E-14-2.09967E-14
 -1       896 1.93810E+01 7.65129E-01 4.19374E-05-9.11276E-01 9.95280E-14 7.89671E-15
 -1       897 1.91591E+01 8.32566E-01 4.17994E-05-1.09836E+00-7.72954E-14-1.15437E-13
 -1       898 1.88855E+01 8.43545E-01 3.04446E-05-1.31749E+00 5.09033E-14-1.08746E-13
 -1       899 1.85674E+01 7.48375E-01 6.40327E-05-1.58573E+00 2.35440E-14 5.06287E-15
 -1       900 1.82331E+01 4.70806E-01 3.09505E-04-1.93524E+00-1.09948E-13 7.24595E-14
 -1       901 1.79553E+01-1.07876E-01 2.38186E-04-2.42312E+00-1.12662E-13-1.76962E-14
 -1       902 1.79609E+01-1.14316E+00 1.22050E-02-3.10878E+00-2.16694E-13-1.69678E-14
 -1       903 2.58037E+01-3.36835E+00-9.47098E-03-9.16937E-01 2.82716E-13-3.60766E-14
 -1       904 2.02999E+01 4.29322E-01-4.41056E-05 6.36481E-02 1.53741E-13 6.22522E-14
 -1       905 2.38569E+01-4.49088E+00-2.09644E-03 1.93051E+00 3.26599E-13-3.97094E-13
 -1       906 2.03317E+01 7.27509E-01-1.46137E-04-1.87806E-01-4.30554E-14-1.32697E-13
 -1       907 2.01364E+01 1.89188E+00-2.99606E-04-1.92646E-01 1.01667E-13-1.16917E-13
 -1       908 1.27284E+01 4.35608E-01 3.65355E-02 1.08345E+00-2.19768E-14 2.60828E-13
 -1       909 2.00473E+01-5.91491E-02-2.12393E-07-9.21572E-02-5.72540E-14 1.42270E-13
 -1       910 2.03292E+01 4.30911E-01 3.63353E-05-4.64501E-02-4.41959E-14-9.25000E-14
 -1       911 2.17562E+01-3.79969E+00 2.45040E-02 3.03661E+00 1.18783E-13-1.65497E-13
 -1       912 2.03013E+01 1.00432E+00-5.17962E-04 3.66046E-01 1.32417E-13 2.92425E-14
 -1       913 2.02955E+01 1.21173E+00 2.00721E-04-2.99978E-01 4.34080E-15-8.22971E-14
 -1       914 2.02743E+01 1.40590E+00 2.09473E-07 6.96200E-02 1.18523E-13-5.02578E-14
 -1       915 2.03117E+01 9.77832E-01 4.42725E-05-3.18569E-01-1.83902E-14-1.68279E-13
 -1       916 2.01257E+01-6.71963E-02-2.02580E-06-1.48827E-01 1.88192E-14-5.58017E-16
 -1       917 2.01919E+01 1.12693E-02 3.57813E-06-1.41869E-01 3.11228E-14-1.31731E-15
 -1       918 2.00997E+01-7.84055E-02-2.18951E-07-1.37368E-01 1.56261E-14 6.15324E-14
 -1       919 1.71385E+01-2.06441E+00 1.52911E-02 4.06705E+00 6.43296E-14 3.59551E-13
 -1       920 2.02684E+01 2.28988E-01-1.48643E-05-4.51585E-02 1.34632E-13 7.27361E-14
 -1       921 1.36768E+01 5.25968E-02 2.91114E-02 2.27639E+00 1.06924E-15 2.11512E-13
 -1       922 2.03128E+01 7.28126E-01 3.84442E-04 2.30450E-01 1.21751E-13 5.69925E-14
 -1       923 1.32193E+01 6.43021E-01 1.94378E-02-3.04619E-01-9.15492E-14-9.10695E-14
 -1       924 2.02832E+01 1.33829E+00-2.03388E-04 1.96172E-01 1.49546E-13-1.89500E-14
 -1       925 2.02739E+01 1.40728E+00 2.57847E-05-6.50896E-02 9.62422E-14-1.04346E-13
 -1       926 2.03451E+01 9.19862E-01 1.43575E-04-1.91878E-01 8.45045E-15-4.47961E-14
 -1       927 2.03585E+01 1.96252E-01-1.14236E-05 5.04231E-02-1.24613E-14 9.89751E-15
 -1       928 2.02836E+01 1.34277E+00 1.79383E-04-1.94029E-01 4.13670E-14-5.43006E-14
 -1       929 2.03233E+01 6.55063E-02-1.78283E-06 8.51612E-02 3.41018E-14-1.15283E-14
 -1       930 2.02817E+01-1.71602E-02-1.84623E-06 1.01213E-01 2.67438E-14-4.50737E-14
 -1       931 2.02392E+01-6.51893E-02-7.84703E-07 1.04641E-01 6.13785E-15-5.96328E-14
 -1       932 2.01988E+01-8.88072E-02 1.04604E-06 1.00195E-01 1.41613E-14-6.63947E-14
 -1       933 2.01623E+01-9.54502E-02 3.02199E-06 9.15267E-02-5.97997E-15-1.33171E-13
 -1       934 2.01303E+01-9.05832E-02 5.94484E-07 8.12492E-02-9.74441E-14-8.65932E-14
 -1       935 2.01028E+01-7.77784E-02 7.29801E-07 7.12418E-02-9.13924E-14-2.04013E-14
 -1       936 2.00792E+01-5.93296E-02 7.54132E-07 6.28943E-02-7.85146E-14-3.48697E-14
 -1       937 2.00584E+01-3.65010E-02 3.48078E-07 5.72338E-02-8.12376E-14 1.32814E-13
 -1       938 2.00395E+01-9.75559E-03-3.91591E-07 5.50952E-02-7.77363E-14 1.24171E-13
 -1       939 2.00210E+01 2.10311E-02-1.40840E-06 5.72512E-02 8.92608E-14 2.00115E-13
 -1       940 2.00011E+01 5.63857E-02-2.71627E-06 6.45046E-02-1.30071E-14 3.06935E-13
 -1       941 1.99783E+01 9.70583E-02-4.37004E-06 7.77605E-02 4.68920E-15 2.16105E-13
 -1       942 1.99503E+01 1.43826E-01-6.44453E-06 9.80816E-02-7.52529E-14 2.10570E-13
 -1       943 1.99150E+01 1.97260E-01-9.02780E-06 1.26732E-01 8.70629E-15 2.52567E-14
 -1       944 1.98701E+01 2.57417E-01-1.22211E-05 1.65211E-01-1.17762E-14-1.42630E-13
 -1       945 1.98131E+01 3.23446E-01-1.61410E-05 2.15292E-01-3.82662E-14-6.65713E-14
 -1       946 1.97419E+01 3.93063E-01-2.09141E-05 2.79073E-01 2.96225E-14 4.93164E-14
 -1       947 1.96550E+01 4.61876E-01-2.66363E-05 3.59063E-01-1.59266E-14 1.42008E-13
 -1       948 1.95519E+01 5.22545E-01-3.32661E-05 4.58344E-01-1.03932E-13 5.03571E-14
 -1       949 1.94346E+01 5.63748E-01-4.05240E-05 5.80845E-01-2.77727E-14-6.64393E-14
 -1       950 1.93083E+01 5.68969E-01-4.79074E-05 7.31746E-01 5.71777E-14-2.35243E-14
 -1       951 1.91841E+01 5.15144E-01-5.10326E-05 9.18020E-01-2.29760E-13 2.18644E-13
 -1       952 1.90820E+01 3.71140E-01 4.13624E-05 1.14902E+00-3.73428E-13 2.56144E-13
 -1       953 1.90374E+01 9.52355E-02 2.12415E-04 1.43545E+00-2.06643E-13 2.35368E-13
 -1       954 1.91086E+01-3.63701E-01 5.89621E-04 1.78600E+00 2.43457E-14-4.32326E-15
 -1       955 1.93900E+01-1.07064E+00 2.81588E-04 2.19902E+00 3.24391E-14-1.85569E-13
 -1       956 2.00660E+01-2.09114E+00 8.44631E-04 2.62885E+00 1.09021E-14-1.04014E-14
 -1       957 2.00387E+01-1.50708E-02 2.33172E-06-6.22770E-02-5.22190E-14 4.93027E-14
 -1       958 2.00546E+01-3.95981E-02 3.61111E-06-6.56976E-02-3.00487E-14 1.94799E-13
 -1       959 2.00076E+01 4.63601E-02-1.21237E-07-7.02708E-02-2.79243E-14 6.82761E-14
 -1       960 1.99890E+01 8.49237E-02-1.38422E-06-8.33819E-02 5.26872E-14 1.76795E-14
 -1       961 1.99659E+01 1.30335E-01-2.71886E-06-1.03818E-01-5.73700E-15 7.88018E-14
 -1       962 1.99354E+01 1.84015E-01-4.15825E-06-1.32611E-01 5.14006E-15 2.17790E-13
 -1       963 1.98946E+01 2.47390E-01-5.72720E-06-1.70828E-01-7.02858E-14 3.08324E-13
 -1       964 1.98393E+01 3.21700E-01-7.43779E-06-2.19483E-01-6.36745E-14 3.34795E-13
 -1       965 1.97648E+01 4.07728E-01-9.28273E-06-2.79419E-01-9.75986E-14 1.95246E-13
 -1       966 1.96648E+01 5.05409E-01-1.11922E-05-3.51184E-01-7.08151E-14 1.63777E-13
 -1       967 1.95320E+01 6.13263E-01-1.28254E-05-4.34939E-01 3.25981E-14 2.67044E-13
 -1       968 1.93571E+01 7.27582E-01-1.31670E-05-5.30549E-01 5.78267E-15 3.23478E-13
 -1       969 1.91290E+01 8.41238E-01-1.13430E-05-6.38064E-01 7.52112E-14 2.70036E-13
 -1       970 1.88345E+01 9.42060E-01-1.71691E-05-7.58821E-01-1.74410E-14 2.41174E-13
 -1       971 1.84579E+01 1.01110E+00-9.06672E-05-8.97963E-01 1.26940E-13 2.80084E-13
 -1       972 1.79799E+01 1.02009E+00-1.15046E-04-1.07054E+00-2.46775E-14 2.80645E-13
 -1       973 1.73778E+01 9.23747E-01-3.90467E-05-1.31073E+00-1.32633E-13 2.59393E-13
 -1       974 1.66243E+01 6.55707E-01 1.89271E-03-1.68725E+00-1.24718E-13 2.21706E-13
 -1       975 1.56995E+01 1.38192E-01 7.55333E-03-2.31508E+00-8.93210E-14 1.52397E-13
 -1       976 2.00235E+01 1.33671E-02 1.10559E-06-6.35274E-02-1.06290E-13 3.04728E-15
 -1       977 2.02302E+01 9.61564E-02 2.57487E-06-1.09528E-01 3.70198E-14 7.23281E-14
 -1       978 2.03557E+01 6.94308E-01-2.16602E-04 1.36168E-01 1.41187E-13-2.53348E-14
 -1       979 2.02966E+01 1.20467E+00-2.14707E-04 3.01121E-01 1.50424E-13 8.64265E-15
 -1       980 2.01183E+01-8.79802E-02 8.83071E-06-9.49632E-02-3.24136E-14 1.71946E-13
 -1       981 2.03788E+01 3.93275E-01 2.79944E-05-9.77310E-03 7.16042E-15 5.66225E-14
 -1       982 2.03759E+01 6.17953E-01-1.96705E-04-8.59705E-02-1.12607E-14 2.21280E-14
 -1       983 2.03369E+01 9.31423E-01 7.66694E-04 2.16111E-01 1.17242E-13-1.48123E-14
 -1       984 2.02597E+01-8.07100E-03 1.68499E-05-1.15881E-01 7.74504E-14 8.67768E-14
 -1       985 2.01475E+01-9.11384E-02 7.64305E-06-1.06835E-01-5.43365E-14 1.05251E-13
 -1       986 2.00725E+01-6.03679E-02 5.05516E-06-7.29549E-02-1.17988E-13 2.28362E-13
 -1       987 1.56939E+01-5.12005E-01-1.02786E-03 2.92470E+00 7.32061E-14 1.68364E-13
 -1       988 2.02191E+01-5.75652E-02 7.81442E-06-1.21081E-01 2.38791E-15 8.97397E-14
 -1       989 2.03581E+01 4.06971E-01-4.80792E-05 2.20303E-02 1.16050E-13 2.00882E-14
 -1       990 2.03674E+01 9.98114E-01 4.38918E-05 1.09202E-03 9.69562E-14-5.45069E-14
 -1       991 1.43327E+01 7.68560E-01 1.60359E-02 7.49462E-01-1.54135E-13 2.20224E-13
 -1       992 2.00934E+01-7.69034E-02 5.42750E-06-8.30931E-02-1.13140E-13 2.24571E-13
 -1       993 2.03677E+01 9.68765E-01 3.41360E-04 7.97891E-02 1.36812E-13 1.58540E-14
 -1       994 2.00384E+01-3.81574E-04 1.03619E-06-4.61988E-02-6.29983E-14 1.12908E-13
 -1       995 2.03894E+01 1.49326E-01-9.36410E-06 4.14311E-02-1.81303E-14 2.55002E-14
 -1       996 2.03520E+01 3.09221E-02-2.29545E-05 5.86968E-02-2.22558E-14 1.22440E-14
 -1       997 2.03075E+01-4.20884E-02-1.55373E-05 6.56961E-02 3.05313E-14-1.91224E-15
 -1       998 2.02617E+01-8.24810E-02-1.21978E-05 6.59136E-02 1.05524E-14-6.50298E-15
 -1       999 2.02179E+01-9.99336E-02 8.87227E-06 6.19563E-02-7.04241E-15 1.98324E-14
 -1      1000 2.01780E+01-1.01479E-01-1.07281E-06 5.61527E-02-1.89551E-14 3.03658E-14
 -1      1001 2.01427E+01-9.21656E-02 5.62430E-06 4.96654E-02-1.35106E-13-8.09745E-14
 -1      1002 2.01116E+01-7.51280E-02 3.51092E-06 4.38062E-02-5.92433E-14-6.47181E-14
 -1      1003 2.00842E+01-5.24601E-02 2.05257E-06 3.93406E-02-2.33135E-14-3.46397E-14
 -1      1004 2.00593E+01-2.51166E-02-7.21340E-07 3.68864E-02-4.30523E-14 4.52387E-15
 -1      1005 2.00354E+01 6.71803E-03-4.49718E-06 3.70016E-02 4.21508E-14 1.16959E-13
 -1      1006 2.00106E+01 4.34210E-02-9.20276E-06 4.02452E-02 1.22690E-13 8.07665E-14
 -1      1007 1.99828E+01 8.57415E-02-1.48737E-05 4.72438E-02-5.84056E-14 2.22717E-14
 -1      1008 1.99496E+01 1.34608E-01-2.15938E-05 5.87513E-02-5.78697E-14-7.96439E-14
 -1      1009 1.99083E+01 1.90912E-01-2.94633E-05 7.57095E-02-1.30956E-13-1.37937E-13
 -1      1010 1.98560E+01 2.55243E-01-3.85845E-05 9.93145E-02-7.18675E-15-1.99500E-14
 -1      1011 1.97892E+01 3.27553E-01-4.90661E-05 1.31102E-01 5.36607E-14-8.57807E-14
 -1      1012 1.97045E+01 4.06726E-01-6.10612E-05 1.73065E-01 4.27335E-14 5.96376E-14
 -1      1013 1.95987E+01 4.90032E-01-7.48625E-05 2.27829E-01-7.04580E-14 1.25201E-14
 -1      1014 1.94686E+01 5.72455E-01-9.11022E-05 2.98920E-01-3.18074E-14-9.14815E-14
 -1      1015 1.93119E+01 6.45892E-01-1.11313E-04 3.91185E-01-8.16636E-14 8.20626E-14
 -1      1016 1.91276E+01 6.98223E-01-1.41060E-04 5.11458E-01 2.49168E-14-3.05142E-14
 -1      1017 1.89172E+01 7.12170E-01-1.87058E-04 6.69514E-01 4.05601E-14-2.16804E-13
 -1      1018 1.86853E+01 6.64468E-01-2.69264E-04 8.79225E-01-1.43824E-13-6.08684E-14
 -1      1019 1.84443E+01 5.22022E-01-9.79633E-05 1.16239E+00-2.34430E-13 2.42297E-13
 -1      1020 1.82135E+01 2.42876E-01-5.35208E-04 1.54852E+00-2.71850E-13 3.42116E-13
 -1      1021 1.80516E+01-2.43646E-01-1.34620E-03 2.09541E+00 1.78085E-14 3.11935E-13
 -1      1022 1.99249E+01 1.77335E-01-2.11354E-05-8.53689E-02-6.47975E-14 1.09975E-13
 -1      1023 2.03001E+01 7.60773E-02 5.99179E-06-9.53264E-02 5.14213E-14 7.20959E-14
 -1      1024 2.00602E+01-3.02998E-02 5.05491E-06-4.68568E-02 1.75192E-14 8.16253E-14
 -1      1025 1.99621E+01 1.21886E-01-1.45293E-05-6.81631E-02-1.42449E-14 8.37475E-14
 -1      1026 1.99917E+01 7.46775E-02-8.70243E-06-5.62799E-02 2.81810E-14-3.00640E-14
 -1      1027 1.98763E+01 2.42444E-01-2.86555E-05-1.08412E-01-5.18635E-14 1.46257E-13
 -1      1028 1.98123E+01 3.18465E-01-3.72533E-05-1.37665E-01-8.70008E-14 1.59944E-13
 -1      1029 1.97277E+01 4.06227E-01-4.71662E-05-1.73228E-01-1.30818E-13 2.69864E-13
 -1      1030 1.96165E+01 5.05795E-01-5.88059E-05-2.14769E-01 3.21715E-15 2.49994E-13
 -1      1031 1.94712E+01 6.16032E-01-7.28616E-05-2.61361E-01-8.21279E-14 8.55434E-14
 -1      1032 1.92824E+01 7.34053E-01-8.99471E-05-3.11381E-01-1.18945E-14 1.55196E-13
 -1      1033 1.90388E+01 8.54576E-01-1.08942E-04-3.62629E-01 3.24868E-14 3.68737E-14
 -1      1034 1.87254E+01 9.69125E-01-1.47614E-04-4.13063E-01 8.82148E-14 6.08547E-14
 -1      1035 1.83239E+01 1.06416E+00-1.46794E-04-4.61827E-01-1.43738E-14-4.71084E-14
 -1      1036 1.78046E+01 1.12503E+00-2.69445E-04-5.09450E-01 1.58452E-14 1.66107E-13
 -1      1037 1.71257E+01 1.12678E+00-3.84022E-04-5.70962E-01-5.96981E-14 9.10904E-14
 -1      1038 1.62172E+01 1.04679E+00 3.24377E-03-6.72664E-01-1.73763E-13-1.20271E-13
 -1      1039 1.49483E+01 8.98057E-01 6.91597E-03-5.56222E-01 1.56567E-14-2.80891E-13
 -1      1040 2.00163E+01 3.43213E-02-3.54117E-06-4.91503E-02-3.39854E-14 1.29286E-14
 -1      1041 2.03354E+01 2.08496E-01-4.09464E-05-5.20155E-02 8.53684E-14 1.09276E-13
 -1      1042 2.01813E+01-8.28109E-02 6.14281E-06-1.16689E-01 2.34232E-14 8.68950E-14
 -1      1043 1.54352E+01 4.50704E-01 6.71929E-04 1.70012E+00-3.89899E-13 3.03682E-13
 -1      1044 2.03678E+01 9.71338E-01-4.75412E-05-7.97875E-02 5.90387E-14-3.30620E-14
 -1      1045 2.03532E+01 9.68655E-01 4.92209E-04 1.49348E-01 1.49933E-13-4.03957E-14
 -1      1046 2.01385E+01-9.19266E-02 1.48722E-05-6.43222E-02-9.52075E-14 2.29804E-13
 -1      1047 1.79917E+01-9.47498E-01 1.12183E-02 2.80086E+00 1.14229E-13 1.75093E-13
 -1      1048 2.04118E+01 3.29428E-01-1.00991E-05 1.01802E-02-1.78018E-14-6.92444E-15
 -1      1049 2.04112E+01 5.37445E-01 1.73088E-04-3.17098E-02 3.87807E-14-8.19127E-15
 -1      1050 2.01730E+01-9.98216E-02-3.98651E-05-7.27692E-02-9.91560E-14 1.74641E-13
 -1      1051 1.52876E+01 9.18388E-01 7.55486E-03 4.84668E-01-1.50290E-13-1.91220E-13
 -1      1052 2.00833E+01-5.58313E-02 8.47181E-06-5.05438E-02-6.56852E-14 4.96396E-14
 -1      1053 2.03977E+01 6.01304E-01-1.42205E-04 5.65509E-02 9.75516E-14 4.98755E-15
 -1      1054 2.02977E+01-3.19804E-02 7.67510E-06-8.30248E-02 4.92101E-14 1.44472E-13
 -1      1055 2.01090E+01-7.67427E-02 1.11884E-05-5.66230E-02-1.02322E-13 1.57721E-13
 -1      1056 2.04156E+01 6.65565E-01-9.68688E-06-1.71795E-02 5.61303E-14-4.53053E-14
 -1      1057 2.03420E+01 4.42120E-02-1.50715E-04-7.24102E-02 6.21921E-14 1.75913E-13
 -1      1058 2.04169E+01 6.64371E-01-6.81840E-05 1.75802E-02 8.86739E-14 1.27695E-14
 -1      1059 2.03568E+01-5.35417E-03 7.90314E-05 2.42411E-02 3.50841E-14 7.49989E-14
 -1      1060 2.03098E+01-6.51731E-02 6.32150E-05 2.58214E-02-1.95172E-15 8.32048E-14
 -1      1061 2.02611E+01-9.53139E-02-3.95478E-05 2.51480E-02-5.90145E-14 7.70258E-14
 -1      1062 2.02169E+01-1.06165E-01 1.80551E-05 2.29442E-02-4.94092E-14-1.33094E-14
 -1      1063 2.01765E+01-1.02060E-01 6.85301E-07 2.03398E-02-9.73415E-14-4.82537E-14
 -1      1064 2.01403E+01-8.80717E-02 2.62159E-05 1.81525E-02-6.66251E-14 1.11213E-14
 -1      1065 2.01081E+01-6.71952E-02 1.98809E-05 1.61880E-02-5.13405E-14 2.91663E-14
 -1      1066 2.00791E+01-4.08361E-02 1.58396E-05 1.48881E-02-3.68759E-14 3.70384E-14
 -1      1067 2.00517E+01-9.59303E-03 1.35563E-05 1.45244E-02 5.95243E-14 3.89102E-14
 -1      1068 2.00243E+01 2.66596E-02 1.29856E-05 1.53599E-02 7.58568E-14 3.20410E-14
 -1      1069 1.99946E+01 6.85648E-02 1.41602E-05 1.76991E-02-3.05524E-14 8.49918E-15
 -1      1070 1.99600E+01 1.17092E-01 1.72159E-05 2.19352E-02-1.84510E-13-1.18775E-15
 -1      1071 1.99176E+01 1.73338E-01 2.24438E-05 2.86049E-02-1.52249E-13-9.59608E-14
 -1      1072 1.98641E+01 2.38303E-01 3.03572E-05 3.84595E-02-2.95873E-14-1.13010E-13
 -1      1073 1.97956E+01 3.12614E-01 4.17914E-05 5.25630E-02-2.74139E-14-1.86448E-13
 -1      1074 1.97079E+01 3.96182E-01 5.80526E-05 7.24296E-02 9.05833E-14-2.69613E-13
 -1      1075 1.95965E+01 4.87765E-01 8.10985E-05 1.00220E-01 5.07043E-15-3.31264E-13
 -1      1076 1.94562E+01 5.84452E-01 1.13594E-04 1.39017E-01-8.35633E-14-3.17027E-13
 -1      1077 1.92819E+01 6.81056E-01 1.58136E-04 1.93218E-01 1.00888E-13-2.05888E-13
 -1      1078 1.90679E+01 7.69452E-01 2.12787E-04 2.69079E-01-4.09515E-14 2.03911E-14
 -1      1079 1.88083E+01 8.37900E-01 2.50152E-04 3.75459E-01-1.52125E-13 1.61934E-13
 -1      1080 1.84964E+01 8.69139E-01-1.41407E-04 5.25430E-01-5.57944E-14 6.46794E-14
 -1      1081 1.81388E+01 8.44083E-01 1.23014E-03 7.31616E-01-3.05519E-14 4.31873E-14
 -1      1082 1.77105E+01 7.28153E-01 4.00730E-04 1.02862E+00-3.63728E-14 2.59678E-13
 -1      1083 1.72107E+01 4.88833E-01 7.91140E-04 1.45156E+00-1.78948E-15 6.39799E-13
 -1      1084 1.98149E+01 2.98346E-01-1.90622E-05-6.18922E-02-1.02091E-13 2.35029E-13
 -1      1085 2.00560E+01-1.63408E-02-4.83346E-06-2.55418E-02-6.81830E-15 1.39339E-13
 -1      1086 1.99301E+01 1.60218E-01-5.44824E-06-4.05151E-02-8.13574E-14 1.39813E-13
 -1      1087 1.99696E+01 1.05521E-01-2.96489E-06-3.33811E-02-2.91624E-14 5.18948E-14
 -1      1088 1.97303E+01 3.83742E-01-3.23563E-05-7.54921E-02-1.12620E-13 1.80612E-13
 -1      1089 1.96205E+01 4.80321E-01-5.20809E-05-8.98755E-02-1.05443E-13 5.15122E-15
 -1      1090 1.94788E+01 5.86976E-01-8.05933E-05-1.03316E-01 3.82928E-14 1.32773E-13
 -1      1091 1.92971E+01 7.00982E-01-1.21099E-04-1.13096E-01 1.24354E-13 4.15998E-14
 -1      1092 1.90659E+01 8.17493E-01-1.76268E-04-1.15229E-01 1.39774E-13-1.42936E-13
 -1      1093 1.87728E+01 9.29139E-01-2.32543E-04-1.04151E-01 5.80059E-14-2.14107E-13
 -1      1094 1.84007E+01 1.02670E+00-8.05387E-05-7.21187E-02-4.21202E-14-3.05989E-14
 -1      1095 1.79211E+01 1.09910E+00-7.07888E-04-1.93420E-02-6.05473E-14 1.57962E-13
 -1      1096 1.73420E+01 1.10761E+00 1.78594E-03 6.46142E-02 2.31911E-14-5.91479E-14
 -1      1097 1.65236E+01 1.06906E+00-9.24946E-04 2.08591E-01 4.73577E-14-1.68900E-13
 -1      1098 2.04252E+01 2.50722E-01 8.65657E-05 9.95027E-03 1.38241E-14-6.97162E-15
 -1      1099 2.00018E+01 5.86709E-02-2.36633E-06-2.86240E-02-1.17471E-14-1.05228E-14
 -1      1100 1.98799E+01 2.24097E-01-1.05065E-05-5.00709E-02-8.29484E-14 2.18485E-13
 -1      1101 2.02533E+01-7.55623E-02 1.06076E-05-8.40937E-02 5.52277E-14 1.29980E-13
 -1      1102 2.01429E+01-9.05070E-02-4.43653E-06-3.29136E-02-4.12480E-14 1.48245E-13
 -1      1103 2.00298E+01 1.83945E-02-3.12861E-06-2.60851E-02 5.34563E-14 3.95219E-14
 -1      1104 2.03977E+01 9.37161E-02-2.72114E-05 1.93734E-02 1.07823E-14 4.04369E-14
 -1      1105 2.03972E+01 3.43050E-01 1.77244E-04-8.66828E-03 2.79356E-14 1.64793E-14
 -1      1106 2.01791E+01-1.02595E-01 2.24458E-05-3.69695E-02-1.35711E-13 1.56401E-13
 -1      1107 2.00825E+01-4.61617E-02-7.10494E-06-2.67270E-02-5.59421E-14 1.48736E-13
 -1      1108 2.01110E+01-7.11208E-02-9.44272E-06-2.93196E-02-3.88383E-14 1.15546E-13
 -1      1109 2.04338E+01 4.23223E-01-7.41962E-05-2.05586E-03 2.24032E-14 6.85580E-15
 -1      1110 2.03795E+01 1.63904E-01 2.58693E-04-4.68572E-02 4.89265E-14 1.09344E-13
 -1      1111 2.02111E+01-9.54805E-02-5.16157E-05-7.99944E-02-5.15799E-14 1.17497E-13
 -1      1112 2.03116E+01-5.64433E-02-1.13344E-05-4.46482E-02 4.83534E-14 8.45495E-14
 -1      1113 2.03579E+01 8.80721E-03 5.93207E-05-4.01434E-02 7.86910E-14 4.62978E-14
 -1      1114 1.66730E+01 8.42317E-01 3.28230E-04 9.43271E-01 1.34683E-13 2.44892E-13
 -1      1115 2.02427E+01-1.03841E-01 7.57434E-05-1.54263E-02-9.04604E-14 1.09882E-13
 -1      1116 1.73686E+01 9.63711E-01-2.63428E-03 6.13004E-01 1.58840E-13 2.11936E-13
 -1      1117 2.04179E+01 1.66295E-01 7.25351E-05-8.14586E-03-7.07217E-15-2.56654E-14
 -1      1118 2.04326E+01 3.99528E-01 1.64070E-04 1.22395E-03-1.90541E-15-1.20949E-14
 -1      1119 2.02654E+01-9.13766E-02 4.80041E-05-4.41381E-02-2.30621E-14 1.11044E-13
 -1      1120 2.04267E+01 2.70801E-01-6.58594E-04-8.46758E-03-4.14561E-14-1.88742E-14
 -1      1121 2.79642E+01 9.08690E+00 2.32534E+00-6.69820E+00-3.44724E-14 3.94851E-13
 -1      1122 2.05487E+01 6.22756E+00 2.09815E-01-3.90368E+00-1.40166E-14-1.94983E-13
 -1      1123 1.94351E+01 5.85314E+00 7.53280E-02-2.88744E+00-6.14786E-15-3.83934E-13
 -1      1124 1.90264E+01 5.72604E+00 6.04066E-02-2.23463E+00-1.89432E-15-4.39438E-13
 -1      1125 1.88396E+01 5.66915E+00 5.75380E-02-1.70107E+00 2.84495E-16-4.43370E-13
 -1      1126 1.87456E+01 5.64035E+00 5.54954E-02-1.23374E+00 1.39298E-15-4.18486E-13
 -1      1127 1.86963E+01 5.62501E+00 5.37199E-02-8.04085E-01 2.06042E-15-3.81708E-13
 -1      1128 1.86721E+01 5.61739E+00 5.24941E-02-3.92730E-01 3.87169E-15-3.37186E-13
 -1      1129 1.86652E+01 5.61521E+00 5.21026E-02 8.46792E-03 4.54487E-15-2.92949E-13
 -1      1130 1.86732E+01 5.61775E+00 5.26170E-02 4.10076E-01 6.38075E-15-2.45852E-13
 -1      1131 1.86985E+01 5.62576E+00 5.40093E-02 8.22802E-01 5.90240E-15-1.91997E-13
 -1      1132 1.87495E+01 5.64171E+00 5.62232E-02 1.25513E+00 7.49487E-15-1.13430E-13
 -1      1133 1.88450E+01 5.67104E+00 5.84438E-02 1.72686E+00 1.00232E-14-4.28650E-15
 -1      1134 1.90318E+01 5.72768E+00 6.04091E-02 2.26790E+00 1.08386E-14 1.49141E-13
 -1      1135 1.94319E+01 5.85034E+00 6.92462E-02 2.92809E+00 1.09079E-14 3.85018E-13
 -1      1136 2.04547E+01 6.18242E+00 1.53341E-01 3.87825E+00 6.82787E-15 7.56107E-13
 -1      1137 2.52185E+01 7.99473E+00 1.43047E+00 5.84630E+00 7.77156E-16 1.36688E-12
 -1      1138 2.88138E+01 3.61632E+00 1.27115E+00-4.21704E+00-1.22846E-13 7.46625E-13
 -1      1139 2.02294E+01-1.77775E-01-6.16371E-01-1.09838E-01-4.21607E-14 4.61742E-13
 -1      1140 1.88359E+01-9.63573E-02-2.36341E-01 6.25440E-02-1.01811E-14 1.46150E-13
 -1      1141 1.85023E+01-4.80648E-02-5.95865E-02 4.05164E-02-1.24492E-14-1.19543E-13
 -1      1142 1.84476E+01-2.46286E-02-1.52086E-02 2.68061E-02-3.30942E-15-2.36863E-13
 -1      1143 1.85299E+01-1.30547E-02-4.97899E-03 1.90895E-02-6.06351E-15-3.18620E-13
 -1      1144 1.86773E+01-6.60645E-03-1.46919E-03 1.41489E-02-3.11545E-15-3.68932E-13
 -1      1145 1.88504E+01-2.83014E-03 5.73264E-04 1.07222E-02-5.95400E-15-4.72100E-13
 -1      1146 1.90265E+01-5.89668E-04 1.89933E-03 8.18853E-03 2.90963E-15-5.31891E-13
 -1      1147 1.91928E+01 7.13372E-04 2.65487E-03 6.23815E-03-6.15487E-15-6.54189E-13
 -1      1148 1.93424E+01 1.42057E-03 2.97494E-03 4.70585E-03 6.91465E-15-7.99360E-13
 -1      1149 1.94722E+01 1.74164E-03 2.99309E-03 3.49276E-03-1.23116E-14-8.19811E-13
 -1      1150 1.95817E+01 1.81201E-03 2.81666E-03 2.53199E-03-6.99495E-15-9.25239E-13
 -1      1151 1.96718E+01 1.72126E-03 2.52250E-03 1.77366E-03 1.81067E-14-8.00234E-13
 -1      1152 1.97444E+01 1.52832E-03 2.16159E-03 1.17835E-03-1.84104E-14-7.12778E-13
 -1      1153 1.98019E+01 1.27030E-03 1.76458E-03 7.14291E-04 5.84683E-15-7.49675E-13
 -1      1154 1.98470E+01 9.68274E-04 1.34630E-03 3.56158E-04-1.38189E-14-7.03254E-13
 -1      1155 1.98827E+01 6.31218E-04 9.09265E-04 8.47694E-05-1.08329E-14-7.46522E-13
 -1      1156 1.99121E+01 2.59059E-04 4.46374E-04-1.12825E-04-1.91639E-14-8.26753E-13
 -1      1157 1.99384E+01-1.54895E-04-5.68280E-05-2.42964E-04 4.02292E-14-9.45883E-13
 -1      1158 1.99654E+01-6.21710E-04-6.20077E-04-3.04748E-04-8.17262E-15-8.06501E-13
 -1      1159 1.99969E+01-1.15442E-03-1.26610E-03-2.89181E-04-1.18755E-14-8.25303E-13
 -1      1160 2.00376E+01-1.76502E-03-2.01758E-03-1.78130E-04 4.14374E-15-7.58172E-13
 -1      1161 2.00928E+01-2.46038E-03-2.89265E-03 5.67625E-05 1.77337E-14-6.84727E-13
 -1      1162 2.01689E+01-3.23619E-03-3.89790E-03 4.54904E-04 9.06610E-16-6.10485E-13
 -1      1163 2.02728E+01-4.06816E-03-5.01723E-03 1.06666E-03-4.43212E-14-7.31155E-13
 -1      1164 2.04124E+01-4.89929E-03-6.19469E-03 1.95114E-03 6.79213E-14-7.53799E-13
 -1      1165 2.05958E+01-5.62200E-03-7.30832E-03 3.16953E-03-1.81890E-14-6.28102E-13
 -1      1166 2.08306E+01-6.05447E-03-8.13242E-03 4.77024E-03-9.04355E-15-4.11666E-13
 -1      1167 2.11222E+01-5.91245E-03-8.28682E-03 6.75949E-03-1.45967E-14-4.47723E-13
 -1      1168 2.14711E+01-4.78254E-03-7.17855E-03 9.04825E-03-6.17373E-14-5.60357E-13
 -1      1169 2.18689E+01-2.11320E-03-3.95780E-03 1.13649E-02 3.97565E-14-3.29924E-13
 -1      1170 2.22926E+01 2.74115E-03 2.45359E-03 1.31279E-02-3.86556E-15-4.10047E-13
 -1      1171 2.26969E+01 1.03590E-02 1.31440E-02 1.32951E-02 3.33141E-14-3.00121E-13
 -1      1172 2.30078E+01 2.08844E-02 2.86264E-02 1.02674E-02-1.41684E-15-1.59255E-13
 -1      1173 2.31185E+01 3.33836E-02 4.77359E-02 2.03134E-03 9.07781E-15 9.02303E-14
 -1      1174 2.28979E+01 4.50305E-02 6.61482E-02-1.31477E-02-2.91134E-14-3.59357E-13
 -1      1175 2.22199E+01 5.05838E-02 7.54690E-02-3.52144E-02 2.78458E-14-4.05190E-13
 -1      1176 2.10201E+01 4.33465E-02 6.48927E-02-6.02467E-02-4.45399E-14-3.74825E-13
 -1      1177 1.93713E+01 1.87695E-02 2.72290E-02-7.93640E-02 1.86938E-14-2.98483E-13
 -1      1178 1.75332E+01-2.00067E-02-3.21596E-02-8.12581E-02-2.29938E-14-7.30166E-13
 -1      1179 1.59176E+01-5.90584E-02-9.14857E-02-5.91193E-02-4.31946E-14-7.68052E-13
 -1      1180 1.49372E+01-7.96996E-02-1.22357E-01-1.78385E-02-3.08868E-15-8.74675E-13
 -1      1181 1.48068E+01-7.17390E-02-1.09816E-01 2.63164E-02 7.10786E-14-5.75904E-13
 -1      1182 1.54387E+01-4.23584E-02-6.48976E-02 5.61280E-02 4.59415E-14-3.85178E-14
 -1      1183 1.65194E+01-9.79443E-03-1.52863E-02 6.50050E-02 2.08394E-14 1.37571E-13
 -1      1184 1.77038E+01 1.17305E-02 1.79661E-02 5.93116E-02 3.75075E-14 4.34278E-13
 -1      1185 1.87684E+01 2.13972E-02 3.62197E-02 4.97013E-02-7.93766E-15 1.01034E-12
 -1      1186 1.96046E+01 2.97404E-02 5.92367E-02 3.84386E-02-2.38052E-14 5.41737E-13
 -1      1187 1.99867E+01 1.09134E-02 3.52395E-02 1.88567E-03 7.93665E-14 5.51698E-13
 -1      1188 2.77935E+01 5.25749E-01 3.76936E-01 1.96665E+00-2.08653E-14 1.80589E-12
 -1      1189 2.00870E+01-6.62513E-02-5.73636E-01 1.29450E-01-4.28824E-15 1.73378E-12
 -1      1190 1.89104E+01-4.06185E-02-1.93236E-01 1.94061E-02-3.69756E-15 1.61768E-12
 -1      1191 1.85312E+01-2.14339E-02-5.05757E-02 1.45296E-03 9.30983E-15 1.44906E-12
 -1      1192 1.84604E+01-1.24233E-02-1.34318E-02-4.08642E-03-4.55799E-15 1.38162E-12
 -1      1193 1.85363E+01-7.41791E-03-4.68881E-03-5.54666E-03 1.38008E-14 1.26394E-12
 -1      1194 1.86806E+01-4.33756E-03-1.95720E-03-5.74199E-03-8.41438E-15 1.23010E-12
 -1      1195 1.88520E+01-2.36028E-03-3.65298E-04-5.46998E-03-1.06645E-14 1.25404E-12
 -1      1196 1.90271E+01-1.07985E-03 7.62307E-04-4.98215E-03 7.26757E-15 1.05748E-12
 -1      1197 1.91928E+01-2.63493E-04 1.48559E-03-4.39318E-03-2.06997E-15 9.89617E-13
 -1      1198 1.93421E+01 2.36121E-04 1.86930E-03-3.77044E-03 1.51192E-14 9.08259E-13
 -1      1199 1.94718E+01 5.17479E-04 2.00181E-03-3.15613E-03-5.53340E-15 8.44989E-13
 -1      1200 1.95812E+01 6.48154E-04 1.96298E-03-2.57552E-03 1.68514E-14 8.01369E-13
 -1      1201 1.96712E+01 6.74551E-04 1.81333E-03-2.04175E-03-4.07219E-14 8.88077E-13
 -1      1202 1.97437E+01 6.27652E-04 1.59433E-03-1.55903E-03 5.43757E-15 9.02601E-13
 -1      1203 1.98011E+01 5.26663E-04 1.33146E-03-1.12508E-03 8.55701E-15 8.11127E-13
 -1      1204 1.98460E+01 3.81449E-04 1.03703E-03-7.33117E-04-1.89476E-14 7.87140E-13
 -1      1205 1.98814E+01 1.94145E-04 7.12457E-04-3.73399E-04 1.42757E-14 6.43860E-13
 -1      1206 1.99103E+01-3.98012E-05 3.49698E-04-3.44351E-05-4.57059E-18 3.90242E-13
 -1      1207 1.99360E+01-3.31034E-04-6.78340E-05 2.96004E-04-3.14049E-14 5.40064E-13
 -1      1208 1.99621E+01-6.96033E-04-5.65000E-04 6.30003E-04-5.98133E-15 6.63719E-13
 -1      1209 1.99926E+01-1.15713E-03-1.17518E-03 9.78589E-04-2.17523E-14 8.39786E-13
 -1      1210 2.00325E+01-1.74268E-03-1.94102E-03 1.35059E-03-3.30582E-14 9.24986E-13
 -1      1211 2.00876E+01-2.48710E-03-2.91550E-03 1.75092E-03 4.90880E-14 5.78537E-13
 -1      1212 2.01650E+01-3.43024E-03-4.16294E-03 2.17773E-03 1.24706E-14 6.37306E-13
 -1      1213 2.02738E+01-4.61506E-03-5.75903E-03 2.61750E-03 3.02610E-14 7.06147E-13
 -1      1214 2.04250E+01-6.08131E-03-7.78750E-03 3.03639E-03-2.57063E-14 8.09181E-13
 -1      1215 2.06324E+01-7.85086E-03-1.03287E-02 3.36538E-03-3.29038E-14 8.68547E-13
 -1      1216 2.09125E+01-9.89698E-03-1.34297E-02 3.47492E-03-1.62225E-14 7.45170E-13
 -1      1217 2.12851E+01-1.20839E-02-1.70358E-02 3.13421E-03 1.31170E-14 7.21104E-13
 -1      1218 2.17720E+01-1.40563E-02-2.08465E-02 1.95047E-03 3.38720E-14 6.85417E-13
 -1      1219 2.23949E+01-1.50548E-02-2.40359E-02-7.06588E-04 2.36601E-14 6.83426E-13
 -1      1220 2.31695E+01-1.36525E-02-2.47714E-02-5.75905E-03-3.88754E-14 1.26097E-12
 -1      1221 2.40943E+01-7.48907E-03-1.95380E-02-1.43344E-02-4.61622E-14 1.49841E-12
 -1      1222 2.51282E+01 6.66997E-03-2.61435E-03-2.72512E-02-2.03403E-14 1.35549E-12
 -1      1223 2.61568E+01 3.17539E-02 3.30973E-02-4.35899E-02 5.50833E-14 7.83089E-13
 -1      1224 2.69481E+01 6.69359E-02 9.15158E-02-5.80019E-02 1.57929E-14 4.03216E-13
 -1      1225 2.71252E+01 1.01500E-01 1.62665E-01-5.77664E-02 6.62231E-15 2.75901E-13
 -1      1226 2.62203E+01 1.10592E-01 2.09613E-01-2.46023E-02-2.64146E-14 2.61693E-13
 -1      1227 2.39054E+01 6.65259E-02 1.73691E-01 5.02911E-02 1.35647E-14 4.51861E-14
 -1      1228 2.04009E+01-2.68655E-02 2.22241E-02 1.42223E-01-3.38982E-14 9.49518E-14
 -1      1229 1.67499E+01-1.16268E-01-1.86363E-01 1.88638E-01 4.20063E-15 1.17212E-13
 -1      1230 1.44630E+01-1.25288E-01-3.02069E-01 1.38030E-01-4.65149E-14 3.53113E-13
 -1      1231 1.44469E+01-6.26545E-02-2.36007E-01 1.50694E-02 7.32713E-14-1.39069E-13
 -1      1232 1.62064E+01 1.12325E-02-6.17090E-02-9.16345E-02-2.34665E-15-2.43666E-13
 -1      1233 1.83658E+01 4.34947E-02 8.35335E-02-1.22107E-01-5.65459E-14-1.14686E-13
 -1      1234 1.97627E+01 2.92221E-02 1.18516E-01-8.22783E-02 3.54829E-14-5.52114E-13
 -1      1235 2.01291E+01-5.19338E-03 6.33382E-02-2.23908E-02 3.29623E-14-5.71373E-13
 -1      1236 1.99654E+01-2.07654E-02 6.66808E-03 2.31137E-03 9.36904E-14-8.01455E-13
 -1      1237 1.99486E+01 2.23204E-02 5.75914E-02-1.67620E-02-2.35281E-14-5.74398E-13
 -1      1238 2.00146E+01-5.70369E-02 2.67511E-02-2.09377E-02-5.92536E-13-6.98617E-15
 -1      1239 1.99328E+01-2.53399E-02-1.11445E-01-2.55520E-02-5.57237E-13-4.26751E-14
 -1      1240 1.98840E+01 8.03244E-01-1.93079E-01 3.18553E-02 7.47596E-14 1.21082E-13
 -1      1241 1.98754E+01 2.91273E+00-2.06764E-01 1.19810E-01 3.52343E-13 3.11140E-14
 -1      1242 1.99413E+01 6.40326E+00-9.86907E-02 2.05797E-01-9.07607E-14 3.47682E-14
 -1      1243 2.00843E+01 1.05727E+01 1.30236E-01 2.28298E-01-1.95677E-13-5.96303E-14
 -1      1244 2.02340E+01 1.38910E+01 3.65942E-01 1.38136E-01 5.51170E-13 5.84394E-14
 -1      1245 2.02888E+01 1.47689E+01 4.45145E-01-3.65508E-02 1.15628E-12-1.16074E-13
 -1      1246 2.01935E+01 1.27065E+01 3.04213E-01-1.88333E-01 2.95819E-13-1.42627E-13
 -1      1247 2.00380E+01 8.65300E+00 5.44480E-02-2.44253E-01 7.03049E-14 1.81632E-13
 -1      1248 1.99084E+01 4.26805E+00-1.48658E-01-1.98755E-01 6.58695E-13 5.52960E-14
 -1      1249 1.98582E+01 8.59063E-01-2.29863E-01-1.05857E-01 1.12824E-12 8.59764E-14
 -1      1250 1.98707E+01-1.01190E+00-2.06796E-01-1.99108E-02 4.96776E-13 6.45491E-14
 -1      1251 1.99138E+01-1.50950E+00-1.33048E-01 3.68758E-02-8.72635E-14-3.68542E-14
 -1      1252 1.99768E+01-1.11557E+00-4.17462E-02 6.43428E-02-6.57668E-14-9.46123E-14
 -1      1253 2.00057E+01-4.22179E-01 3.07381E-02 5.94528E-02-3.06845E-13-7.84606E-14
 -1      1254 1.99965E+01-2.67761E-02 2.31349E-02 1.54623E-02-4.58706E-13 1.70714E-14
 -1      1255-1.37647E+00-2.98045E+01-4.66188E+00-2.83873E+00 4.81892E-13 2.68466E-14
 -1      1256-2.27235E+00-1.86150E+01-3.74456E+00-4.81562E+00 7.79599E-13 3.45390E-13
 -1      1257 5.66565E-01-2.81360E+00-2.08185E+00 8.87255E-02 1.43641E-12 9.12492E-13
 -1      1258 1.11154E+01 9.45221E+00-3.27256E-02 1.01260E+01 1.28519E-12 1.03451E-12
 -1      1259 3.02359E+01 1.31194E+01 1.99927E+00 1.89940E+01 5.01599E-13 6.92779E-13
 -1      1260 5.30854E+01 9.47661E+00 3.73704E+00 2.02767E+01 2.87437E-13 4.01457E-13
 -1      1261 6.99805E+01 3.88829E+00 4.71457E+00 1.15940E+01 2.07057E-14-8.92619E-14
 -1      1262 7.33635E+01 1.78838E+00 4.80021E+00-2.54366E+00-2.83801E-14-7.69163E-13
 -1      1263 6.09109E+01 5.04764E+00 3.87924E+00-1.46212E+01 1.36391E-13-5.95302E-13
 -1      1264 3.81569E+01 9.70227E+00 2.23641E+00-1.77125E+01 2.79776E-14-8.88178E-14
 -1      1265 1.66327E+01 9.45683E+00 3.95316E-01-1.21004E+01-6.55032E-14-1.33227E-13
 -1      1266 3.05392E+00 1.75190E+00-1.44516E+00-2.85351E+00-3.96350E-13 2.02061E-13
 -1      1267-2.04844E+00-1.12533E+01-2.79086E+00 3.97322E+00 2.77778E-13 4.77396E-15
 -1      1268-1.81093E+00-2.37403E+01-3.70551E+00 4.84313E+00 1.95988E-12-2.10026E-13
 -1      1269-9.14476E-01-2.84231E+01-3.96112E+00 4.18292E-01 2.63331E-12-7.87287E-14
 -1      1270-1.55913E+00-2.32067E+01-3.59430E+00-3.97490E+00 5.91083E-13-4.97935E-14
 -1      1271-1.63481E+00-1.10890E+01-2.65879E+00-3.64608E+00-7.22089E-13-4.76952E-13
 -1      1272 3.27147E+00 2.19849E+00-1.21990E+00 3.18418E+00-1.17795E-12-8.01137E-13
 -1      1273 1.58287E+01 1.03040E+01 3.79347E-01 1.25470E+01-9.87654E-13-1.03229E-12
 -1      1274 3.44035E+01 1.11283E+01 2.01142E+00 1.85377E+01-6.32605E-13-1.01785E-12
 -1      1275 5.43381E+01 7.07929E+00 3.38068E+00 1.74607E+01-5.08260E-13-1.35891E-12
 -1      1276 6.87856E+01 2.80707E+00 4.24906E+00 8.18075E+00-2.10679E-13-1.19371E-12
 -1      1277 7.20067E+01 2.03343E+00 4.51644E+00-5.09852E+00 9.67906E-14-9.94621E-13
 -1      1278 6.20973E+01 5.83884E+00 3.99203E+00-1.63296E+01-4.29656E-14-1.47993E-13
 -1      1279 4.38249E+01 1.11462E+01 2.95370E+00-2.06702E+01-4.20886E-13 7.98028E-13
 -1      1280 2.38890E+01 1.29749E+01 1.45232E+00-1.69143E+01-2.88880E-13 4.14557E-13
 -1      1281 8.13818E+00 7.84358E+00-3.29163E-01-7.94179E+00-1.28164E-12 8.70415E-13
 -1      1282-2.70579E-01-4.87904E+00-2.20305E+00 1.15940E+00-1.77325E-12 1.01508E-12
 -1      1283-2.13113E+00-2.00888E+01-3.77551E+00 4.91160E+00-7.94920E-13 2.79277E-13
 -1      1284-1.32693E+00-3.00434E+01-4.66724E+00 2.47451E+00 6.64135E-13 2.35298E-14
 -1      1285 2.22680E+01 1.83826E+00-7.25888E-01-2.79049E+00-4.73510E-14 2.25098E-13
 -1      1286 2.03605E+01 4.69031E+00-4.86374E-02-3.30669E+00-7.67997E-14-2.87055E-13
 -1      1287 2.08680E+01 4.81081E+00-1.13352E-01-4.16098E+00-1.16768E-13-1.85879E-13
 -1      1288 1.95321E+01 4.99328E+00-1.96953E-02-2.65400E+00-5.39430E-14-4.14290E-13
 -1      1289 1.98307E+01 5.09026E+00 2.64125E-04-3.04514E+00-7.04367E-14-3.68344E-13
 -1      1290 2.05271E+01 3.95276E+00-2.58939E-02-3.07468E+00-1.24796E-13-2.40891E-13
 -1      1291 1.91842E+01 5.08444E+00-3.55431E-03-2.07033E+00-2.15852E-14-4.46154E-13
 -1      1292 1.93331E+01 5.13970E+00 1.05614E-02-2.36314E+00-3.48575E-14-4.39003E-13
 -1      1293 1.97537E+01 4.36591E+00-2.45166E-02-2.48888E+00-7.88657E-14-3.49096E-13
 -1      1294 1.90090E+01 5.13081E+00 3.27025E-03-1.56420E+00 6.20684E-15-4.38618E-13
 -1      1295 1.90869E+01 5.16044E+00 1.25490E-02-1.81423E+00-2.52923E-15-4.46018E-13
 -1      1296 1.93917E+01 4.55491E+00-2.00465E-02-1.93156E+00-2.69021E-14-3.73417E-13
 -1      1297 1.89150E+01 5.16068E+00 6.50811E-03-1.11669E+00 2.90900E-14-4.10340E-13
 -1      1298 1.89576E+01 5.17704E+00 1.26732E-02-1.33807E+00 2.11133E-14-4.24903E-13
 -1      1299 1.92055E+01 4.66160E+00-1.61238E-02-1.44412E+00 1.91592E-14-3.62238E-13
 -1      1300 1.88633E+01 5.18037E+00 8.17521E-03-6.93631E-01 4.56904E-14-3.74194E-13
 -1      1301 1.88863E+01 5.18923E+00 1.19544E-02-9.03782E-01 4.37012E-14-3.97526E-13
 -1      1302 1.91021E+01 4.72692E+00-1.40392E-02-1.00403E+00 5.81935E-14-3.39489E-13
 -1      1303 1.88393E+01 5.19225E+00 9.27676E-03-2.89084E-01 6.41815E-14-3.23980E-13
 -1      1304 1.88492E+01 5.19609E+00 1.10525E-02-4.91126E-01 5.80343E-14-3.48744E-13
 -1      1305 1.90463E+01 4.76575E+00-1.29362E-02-5.88646E-01 8.08342E-14-2.97432E-13
 -1      1306 1.88356E+01 5.19719E+00 1.02109E-02 1.08168E-01 8.34699E-14-2.77441E-13
 -1      1307 1.88352E+01 5.19705E+00 1.01390E-02-9.14239E-02 7.84904E-14-3.03141E-13
 -1      1308 1.90220E+01 4.78375E+00-1.24794E-02-1.89053E-01 1.14692E-13-2.52246E-13
 -1      1309 1.88510E+01 5.19573E+00 1.11514E-02 5.08454E-01 1.03612E-13-2.33639E-13
 -1      1310 1.88403E+01 5.19161E+00 9.21473E-03 3.05991E-01 9.70331E-14-2.59796E-13
 -1      1311 1.90229E+01 4.78312E+00-1.24953E-02 2.05702E-01 1.45502E-13-2.14575E-13
 -1      1312 1.88897E+01 5.18808E+00 1.20877E-02 9.22595E-01 1.14330E-13-1.78449E-13
 -1      1313 1.88658E+01 5.17903E+00 8.12345E-03 7.11479E-01 1.12283E-13-2.13614E-13
 -1      1314 1.90489E+01 4.76369E+00-1.29810E-02 6.05968E-01 1.75644E-13-1.70326E-13
 -1      1315 1.89619E+01 5.17514E+00 1.28967E-02 1.35572E+00 1.27663E-13-9.46812E-14
 -1      1316 1.89185E+01 5.15836E+00 6.43863E-03 1.13287E+00 1.21643E-13-1.42339E-13
 -1      1317 1.91065E+01 4.72328E+00-1.40029E-02 1.01918E+00 1.93407E-13-1.11470E-13
 -1      1318 1.90949E+01 5.15674E+00 1.28298E-02 1.84032E+00 1.47221E-13 1.69621E-14
 -1      1319 1.90152E+01 5.12634E+00 3.13413E-03 1.58754E+00 1.35610E-13-4.75835E-14
 -1      1320 1.92123E+01 4.65493E+00-1.61459E-02 1.46221E+00 2.14922E-13-2.27734E-14
 -1      1321 1.93440E+01 5.13355E+00 1.01806E-02 2.39741E+00 1.55789E-13 1.81126E-13
 -1      1322 1.91937E+01 5.07638E+00-4.38440E-03 2.10012E+00 1.44183E-13 8.48210E-14
 -1      1323 1.94053E+01 4.54250E+00-1.99830E-02 1.95785E+00 2.30612E-13 8.28053E-14
 -1      1324 1.98560E+01 5.09953E+00 6.06795E-03 3.08357E+00 1.52878E-13 4.31578E-13
 -1      1325 1.95438E+01 4.98449E+00-2.05443E-02 2.69616E+00 1.41241E-13 2.85123E-13
 -1      1326 1.97751E+01 4.34648E+00-2.45578E-02 2.52772E+00 2.33607E-13 2.62207E-13
 -1      1327 2.11041E+01 4.90707E+00 8.33087E-03 4.05375E+00 9.82825E-14 8.22398E-13
 -1      1328 2.03350E+01 4.73392E+00-4.79618E-02 3.41602E+00 1.08344E-13 5.90791E-13
 -1      1329 2.05652E+01 3.91597E+00-2.24037E-02 3.17812E+00 1.99382E-13 5.21569E-13
 -1      1330 2.72036E+01 3.20542E+00 9.29014E-01 4.58220E+00 2.10665E-14 1.38389E-12
 -1      1331 2.20209E+01 3.52224E+00-1.81993E-01 3.88485E+00 3.51386E-14 1.01302E-12
 -1      1332 2.21132E+01 2.56180E+00-3.25380E-02 3.45638E+00 1.41099E-13 8.61117E-13
 -1      1333 2.14279E+01 3.59567E-01-7.63533E-01 1.18374E+00 5.69961E-14 1.39827E-12
 -1      1334 2.20023E+01 1.31406E-01-4.00894E-01-1.28553E+00-1.04639E-13 2.74919E-13
 -1      1335 2.06798E+01 3.06697E-01-1.64838E-01-8.05589E-01-8.84987E-14 1.49575E-13
 -1      1336 2.00823E+01 1.53472E-01-7.35228E-02-4.01995E-01-6.59785E-14 1.11924E-13
 -1      1337 1.96126E+01 9.11677E-02-1.49256E-02-3.29848E-01-7.22720E-14-4.52763E-15
 -1      1338 2.09736E+01 3.69026E-01-1.04292E-01-1.27358E+00-1.53280E-13 5.83561E-15
 -1      1339 1.92553E+01 6.45031E-02 3.04005E-03-1.35250E-01-6.35924E-14-2.81476E-14
 -1      1340 1.91011E+01 4.12742E-02 1.32223E-02-1.17449E-01-5.71904E-14-1.24366E-13
 -1      1341 1.99231E+01 1.33896E-01-3.51426E-02-5.03764E-01-1.25844E-13-4.89730E-14
 -1      1342 1.89408E+01 3.15468E-02 1.32410E-02-2.79047E-02-2.71718E-14-1.60316E-13
 -1      1343 1.89215E+01 1.94014E-02 1.10574E-02-1.85129E-02-2.01644E-14-2.04139E-13
 -1      1344 1.94460E+01 5.54698E-02-8.51751E-03-1.69807E-01-8.42000E-14-1.01166E-13
 -1      1345 1.88656E+01 1.60200E-02 8.77710E-03 2.51544E-02-1.87949E-14-2.08875E-13
 -1      1346 1.89081E+01 9.07588E-03 6.43844E-03 2.97864E-02-1.63595E-14-2.31041E-13
 -1      1347 1.92373E+01 2.44368E-02-3.49735E-03-1.09077E-02-3.75030E-14-1.48655E-13
 -1      1348 1.89082E+01 7.85468E-03 4.67238E-03 5.09471E-02-4.08884E-14-2.36370E-13
 -1      1349 1.89787E+01 3.49680E-03 3.64175E-03 5.28357E-02-3.68061E-14-2.89070E-13
 -1      1350 1.91806E+01 1.01974E-02-2.21215E-03 6.77901E-02-5.46973E-14-1.32596E-13
 -1      1351 1.90083E+01 3.18195E-03 2.44110E-03 6.16175E-02-2.53320E-14-2.88941E-13
 -1      1352 1.90890E+01 3.19570E-04 2.20981E-03 6.18813E-02-2.06675E-14-3.25809E-13
 -1      1353 1.92069E+01 2.76987E-03-1.31891E-03 1.04599E-01-4.29917E-14-1.67337E-13
 -1      1354 1.91326E+01 4.32026E-04 1.33019E-03 6.35396E-02 1.89853E-15-3.34261E-13
 -1      1355 1.92135E+01-1.48123E-03 1.43759E-03 6.28503E-02-1.74414E-14-3.46320E-13
 -1      1356 1.92761E+01-1.31919E-03-5.53940E-04 1.17820E-01-3.31324E-14-1.68315E-13
 -1      1357 1.92620E+01-1.15914E-03 7.45044E-04 6.04249E-02-4.07150E-14-3.90283E-13
 -1      1358 1.93376E+01-2.43190E-03 9.68655E-04 5.92136E-02-3.62128E-14-4.41699E-13
 -1      1359 1.93643E+01-3.53202E-03 6.80390E-06 1.17408E-01-5.24528E-14-2.00720E-13
 -1      1360 1.93857E+01-2.01520E-03 4.08564E-04 5.45854E-02-3.78393E-14-4.50760E-13
 -1      1361 1.94532E+01-2.84023E-03 6.57079E-04 5.31353E-02-3.51622E-14-5.27303E-13
 -1      1362 1.94574E+01-4.60292E-03 3.61447E-04 1.09302E-01-7.64795E-14-2.04411E-13
 -1      1363 1.94977E+01-2.39472E-03 2.04664E-04 4.75063E-02-2.61798E-14-5.66025E-13
 -1      1364 1.95559E+01-2.90153E-03 4.41833E-04 4.60022E-02-5.39774E-14-6.16847E-13
 -1      1365 1.95470E+01-4.95491E-03 5.53998E-04 9.72388E-02-6.37656E-14-3.03333E-13
 -1      1366 1.95955E+01-2.46534E-03 8.09481E-05 4.01457E-02-1.85167E-14-5.95384E-13
 -1      1367 1.96443E+01-2.74479E-03 2.92677E-04 3.87055E-02 1.32577E-14-6.33275E-13
 -1      1368 1.96286E+01-4.85437E-03 6.32309E-04 8.36209E-02-4.71637E-14-3.59666E-13
 -1      1369 1.96782E+01-2.33867E-03 9.62960E-06 3.31125E-02 2.57116E-14-5.83760E-13
 -1      1370 1.97182E+01-2.45556E-03 1.91592E-04 3.18087E-02 1.57662E-15-5.24442E-13
 -1      1371 1.97000E+01-4.47603E-03 6.34171E-04 6.99897E-02 3.88155E-14-3.50853E-13
 -1      1372 1.97466E+01-2.08866E-03-2.62051E-05 2.67842E-02-4.60659E-15-5.33422E-13
 -1      1373 1.97788E+01-2.08891E-03 1.26577E-04 2.56594E-02-1.97648E-14-5.39103E-13
 -1      1374 1.97608E+01-3.93440E-03 5.86341E-04 5.73187E-02 8.07319E-15-3.72342E-13
 -1      1375 1.98023E+01-1.76221E-03-3.76794E-05 2.13892E-02-9.24532E-15-4.61325E-13
 -1      1376 1.98278E+01-1.67747E-03 8.92433E-05 2.04676E-02-1.61100E-14-4.59032E-13
 -1      1377 1.98114E+01-3.30127E-03 5.06620E-04 4.62104E-02-2.53172E-14-2.89029E-13
 -1      1378 1.98471E+01-1.38604E-03-3.24039E-05 1.70675E-02-3.47681E-14-4.66045E-13
 -1      1379 1.98674E+01-1.23702E-03 7.36162E-05 1.63643E-02-5.02775E-14-5.10987E-13
 -1      1380 1.98533E+01-2.61657E-03 4.05961E-04 3.70365E-02-3.42964E-14-1.85452E-13
 -1      1381 1.98836E+01-9.71463E-04-1.57456E-05 1.39173E-02-2.85049E-14-5.26900E-13
 -1      1382 1.99000E+01-7.70523E-04 7.54026E-05 1.34451E-02-6.96563E-14-5.56983E-13
 -1      1383 1.98881E+01-1.89592E-03 2.90116E-04 3.00428E-02-5.26695E-14-2.08834E-13
 -1      1384 1.99142E+01-5.17882E-04 8.33520E-06 1.20297E-02-5.10443E-14-5.76926E-13
 -1      1385 1.99284E+01-2.71319E-04 9.14617E-05 1.18043E-02-3.30300E-15-6.00080E-13
 -1      1386 1.99178E+01-1.13617E-03 1.60886E-04 2.54281E-02-8.24875E-14-3.90559E-13
 -1      1387 1.99418E+01-1.56563E-05 3.66494E-05 1.15154E-02 9.23111E-15-6.54041E-13
 -1      1388 1.99555E+01 2.74223E-04 1.19346E-04 1.15596E-02 1.53144E-15-6.42107E-13
 -1      1389 1.99449E+01-3.19760E-04 1.71032E-05 2.34045E-02-2.79139E-14-3.09223E-13
 -1      1390 1.99696E+01 5.51434E-04 6.62300E-05 1.25241E-02 2.36124E-14-7.02033E-13
 -1      1391 1.99846E+01 8.84132E-04 1.56837E-04 1.28707E-02-2.46142E-14-6.83922E-13
 -1      1392 1.99720E+01 5.81458E-04-1.44529E-04 2.42411E-02-6.34326E-15-4.73869E-13
 -1      1393 2.00010E+01 1.20361E-03 9.38068E-05 1.52569E-02 8.35156E-15-5.75663E-13
 -1      1394 2.00195E+01 1.57792E-03 2.01419E-04 1.59501E-02 1.71847E-14-5.70919E-13
 -1      1395 2.00020E+01 1.60241E-03-3.28628E-04 2.82942E-02 8.42249E-15-4.57748E-13
 -1      1396 2.00401E+01 1.96191E-03 1.15265E-04 1.99698E-02-1.61973E-14-5.70710E-13
 -1      1397 2.00645E+01 2.37276E-03 2.49637E-04 2.10654E-02 2.75478E-14-5.60334E-13
 -1      1398 2.00384E+01 2.78012E-03-5.40225E-04 3.60209E-02-4.46355E-15-3.69630E-13
 -1      1399 2.00914E+01 2.84373E-03 1.25079E-04 2.69662E-02 5.95569E-14-5.50225E-13
 -1      1400 2.01246E+01 3.27794E-03 2.96313E-04 2.85293E-02 4.44703E-14-5.22333E-13
 -1      1401 2.00849E+01 4.14714E-03-7.83604E-04 4.79735E-02 5.58652E-14-3.46596E-13
 -1      1402 2.01601E+01 3.85606E-03 1.15758E-04 3.65736E-02 4.36259E-14-4.82179E-13
 -1      1403 2.02053E+01 4.28659E-03 3.33613E-04 3.86721E-02-1.46273E-14-4.19638E-13
 -1      1404 2.01461E+01 5.72154E-03-1.06067E-03 6.47652E-02 8.13512E-14-3.66603E-13
 -1      1405 2.02521E+01 4.98523E-03 7.74226E-05 4.90946E-02-7.13304E-14-3.96070E-13
 -1      1406 2.03129E+01 5.36318E-03 3.50068E-04 5.17876E-02-6.14680E-14-4.28143E-13
 -1      1407 2.02268E+01 7.49132E-03-1.36859E-03 8.69944E-02-3.26292E-14-2.87469E-13
 -1      1408 2.03737E+01 6.18126E-03-2.19030E-06 6.47209E-02 1.85689E-14-4.94763E-13
 -1      1409 2.04540E+01 6.42516E-03 3.29841E-04 6.80385E-02 7.13855E-14-4.20863E-13
 -1      1410 2.03322E+01 9.39035E-03-1.69629E-03 1.15105E-01-5.21992E-14-1.60144E-13
 -1      1411 2.05315E+01 7.33463E-03-1.36689E-04 8.33923E-02 6.12054E-15-4.81160E-13
 -1      1412 2.06350E+01 7.31670E-03 2.52935E-04 8.73017E-02-5.59157E-14-4.99793E-13
 -1      1413 2.04678E+01 1.12621E-02-2.01940E-03 1.49158E-01 1.96358E-14-3.38992E-13
 -1      1414 2.07315E+01 8.24346E-03-3.37814E-04 1.04577E-01 3.35054E-14-3.96945E-13
 -1      1415 2.08611E+01 7.77344E-03 9.77217E-05 1.08931E-01 2.29532E-14-3.74445E-13
 -1      1416 2.06384E+01 1.28068E-02-2.29296E-03 1.88461E-01 2.62981E-14-3.38299E-13
 -1      1417 2.09778E+01 8.56994E-03-6.08158E-04 1.26946E-01-8.27845E-14-3.34192E-13
 -1      1418 2.11346E+01 7.37999E-03-1.51883E-04 1.31406E-01-1.13200E-13-4.46343E-13
 -1      1419 2.08475E+01 1.35105E-02-2.44145E-03 2.31033E-01-3.28541E-14-3.48511E-13
 -1      1420 2.12705E+01 7.78998E-03-9.27251E-04 1.47932E-01-8.14439E-14-3.92808E-13
 -1      1421 2.14523E+01 5.52970E-03-4.91475E-04 1.51858E-01-4.08478E-14-4.39341E-13
 -1      1422 2.10956E+01 1.25597E-02-2.34606E-03 2.72839E-01-6.69676E-14-3.72868E-13
 -1      1423 2.16033E+01 5.15188E-03-1.22882E-03 1.63162E-01 4.46405E-14-3.17804E-13
 -1      1424 2.18018E+01 1.41384E-03-8.71246E-04 1.65489E-01 2.38015E-14-2.51080E-13
 -1      1425 2.13782E+01 8.76453E-03-1.83114E-03 3.06813E-01-2.78250E-14-3.21719E-13
 -1      1426 2.19587E+01-3.14623E-04-1.37127E-03 1.65904E-01-1.70104E-14-2.98640E-13
 -1      1427 2.21569E+01-5.90021E-03-1.16451E-03 1.65008E-01 1.10441E-14-2.95170E-13
 -1      1428 2.16827E+01 5.56105E-04-6.56656E-04 3.21796E-01-1.84251E-14-2.60700E-13
 -1      1429 2.23035E+01-9.65224E-03-1.11537E-03 1.46769E-01 5.88193E-14-2.62641E-13
 -1      1430 2.24721E+01-1.71944E-02-1.14764E-03 1.40435E-01 8.83646E-15-2.89336E-13
 -1      1431 2.19848E+01-1.38074E-02 1.46598E-03 3.01786E-01 3.22672E-14-1.72014E-13
 -1      1432 2.25836E+01-2.35490E-02-1.45886E-04 9.43197E-02 1.34528E-14-6.22453E-14
 -1      1433 2.26794E+01-3.24839E-02-5.33039E-04 7.99630E-02 1.02343E-13 4.11858E-14
 -1      1434 2.22453E+01-3.55914E-02 4.80016E-03 2.26420E-01 1.08064E-13-1.09798E-13
 -1      1435 2.27222E+01-4.14696E-02 1.80180E-03-2.44094E-03 6.76022E-15 5.49062E-14
 -1      1436 2.26890E+01-4.99751E-02 8.86407E-04-2.69980E-02-4.30923E-14-4.96114E-14
 -1      1437 2.24080E+01-6.42259E-02 9.40060E-03 7.42666E-02 1.03072E-13 2.00942E-14
 -1      1438 2.26244E+01-6.03355E-02 4.65898E-03-1.48525E-01-1.14883E-13-1.06294E-13
 -1      1439 2.24026E+01-6.48253E-02 2.93496E-03-1.83450E-01-9.38694E-14-2.21311E-13
 -1      1440 2.24018E+01-9.52043E-02 1.47801E-02-1.68976E-01-1.15811E-13-1.24142E-13
 -1      1441 2.21948E+01-7.33147E-02 7.61308E-03-3.34111E-01 8.66755E-15-3.05495E-13
 -1      1442 2.17419E+01-6.86928E-02 4.73148E-03-3.75228E-01-2.79620E-14-2.94983E-13
 -1      1443 2.21520E+01-1.18023E-01 1.94762E-02-4.96164E-01-1.42403E-13-1.63082E-13
 -1      1444 2.13743E+01-7.02556E-02 8.98767E-03-5.25269E-01-8.92914E-14-2.64497E-13
 -1      1445 2.06949E+01-5.19395E-02 4.69734E-03-5.62149E-01-3.45939E-14-3.76227E-13
 -1      1446 2.16034E+01-1.16682E-01 2.08116E-02-8.61169E-01-1.11252E-13-3.27028E-13
 -1      1447 2.01899E+01-4.21014E-02 6.85919E-03-6.62402E-01-6.43769E-14-4.09818E-13
 -1      1448 1.93638E+01-1.00369E-02 1.35697E-03-6.79615E-01-1.06751E-13-4.97678E-13
 -1      1449 2.07564E+01-7.60279E-02 1.56174E-02-1.16938E+00-8.52946E-14-4.15412E-13
 -1      1450 1.87976E+01 1.05583E-02 6.41726E-04-6.77550E-01-6.29661E-14-4.58390E-13
 -1      1451 1.79818E+01 4.83032E-02-4.98229E-03-6.61587E-01-1.05584E-13-6.38288E-13
 -1      1452 1.97041E+01 5.49246E-03 2.40341E-03-1.29556E+00-1.29239E-13-4.22013E-13
 -1      1453 1.74752E+01 7.10083E-02-7.20347E-03-5.32301E-01-8.24375E-14-6.36359E-13
 -1      1454 1.68609E+01 9.96445E-02-1.12991E-02-4.81892E-01-5.63664E-14-6.95877E-13
 -1      1455 1.86416E+01 1.04862E-01-1.56702E-02-1.14103E+00-1.20900E-13-4.07563E-13
 -1      1456 1.65369E+01 1.11339E-01-1.22498E-02-2.54774E-01-2.72837E-14-6.58161E-13
 -1      1457 1.62694E+01 1.17868E-01-1.33602E-02-1.86315E-01 5.07927E-14-6.13749E-13
 -1      1458 1.78161E+01 1.80164E-01-3.01677E-02-7.07590E-01 7.33441E-15-4.58230E-13
 -1      1459 1.61937E+01 1.11306E-01-1.14192E-02 6.06486E-02 1.28359E-13-3.94258E-13
 -1      1460 1.63031E+01 9.43414E-02-9.39692E-03 1.21050E-01 1.71555E-13-2.17645E-13
 -1      1461 1.74218E+01 1.95376E-01-3.28323E-02-1.27851E-01 2.54205E-13-1.94742E-13
 -1      1462 1.64509E+01 7.51327E-02-6.05260E-03 3.05199E-01 1.69945E-13-2.83745E-13
 -1      1463 1.68458E+01 4.58752E-02-2.08623E-03 3.38594E-01 1.28989E-13 2.90393E-15
 -1      1464 1.74991E+01 1.47357E-01-2.27378E-02 3.96386E-01 1.82840E-13-1.66511E-13
 -1      1465 1.71248E+01 2.72808E-02-6.19728E-04 4.20306E-01 1.32760E-13-1.31770E-14
 -1      1466 1.76532E+01 2.65980E-04 3.66908E-03 4.25202E-01 2.33775E-13 2.77382E-13
 -1      1467 1.79247E+01 6.79235E-02-7.60477E-03 7.13064E-01 2.28160E-13 5.39343E-14
 -1      1468 1.79608E+01-7.81473E-03 1.54034E-03 4.19542E-01 2.02358E-13 2.43985E-13
 -1      1469 1.84895E+01-2.52746E-02 5.94549E-03 4.07920E-01 1.26800E-13 4.08815E-13
 -1      1470 1.84977E+01-9.63084E-04 3.90891E-03 7.95581E-01 3.11273E-13 2.48612E-13
 -1      1471 1.87583E+01-2.42553E-02 1.74658E-03 3.55040E-01 1.03108E-13 3.93699E-13
 -1      1472 1.92071E+01-3.66495E-02 7.23133E-03 3.38415E-01 7.18566E-14 4.67192E-13
 -1      1473 1.90489E+01-4.03949E-02 8.73912E-03 7.17218E-01 2.15254E-13 1.01428E-13
 -1      1474 1.94127E+01-3.85900E-02 5.77940E-03 2.55707E-01-5.72754E-14 4.99694E-13
 -1      1475 1.97340E+01-5.45474E-02 1.40276E-02 2.35345E-01-5.62042E-14 5.04215E-13
 -1      1476 1.94970E+01-6.87246E-02 1.27567E-02 5.55832E-01 1.54733E-14 1.89336E-13
 -1      1477 1.99317E+01-6.61041E-02 2.95730E-02 5.39785E-02-3.51875E-13 3.78847E-13
 -1      1478 1.98756E+01-1.62434E-01 1.67481E-02 2.61531E-01-3.09933E-13 1.63756E-13
 -1      1479 2.02608E+01 7.54733E-02-1.52087E-01 4.83770E-01 4.66051E-14 1.27823E-12
 -1      1480 2.15310E+01 2.16135E-01-2.29285E-01 7.20756E-01 4.56857E-14 1.33618E-12
 -1      1481 2.17295E+01 8.81739E-01-8.54766E-02 2.06467E+00 8.57300E-14 9.95426E-13
 -1      1482 1.93327E+01 3.23824E-02-2.13303E-02 1.85933E-01 5.62796E-14 1.16502E-12
 -1      1483 1.97533E+01 1.13622E-01-6.26971E-02 2.37945E-01 4.16715E-14 1.22222E-12
 -1      1484 2.03045E+01 1.87670E-01-5.51942E-02 7.86024E-01 7.98389E-14 8.82723E-13
 -1      1485 1.89512E+01 1.51077E-02 5.66714E-03 5.34233E-02 3.58281E-14 1.05682E-12
 -1      1486 1.90896E+01 5.16321E-02 9.79456E-04 7.97420E-02 4.56198E-14 1.11627E-12
 -1      1487 1.95596E+01 7.18398E-02-1.21590E-02 2.98830E-01 9.28511E-14 8.04705E-13
 -1      1488 1.88409E+01 7.12312E-03 6.97567E-03-9.08184E-03 3.39906E-14 1.00224E-12
 -1      1489 1.88554E+01 2.58665E-02 1.10898E-02 5.32384E-03 1.72102E-14 1.02767E-12
 -1      1490 1.92244E+01 3.10391E-02-2.46674E-03 8.33208E-02 4.69043E-14 7.37027E-13
 -1      1491 1.88672E+01 3.21058E-03 4.78189E-03-3.93408E-02 3.02462E-14 9.46899E-13
 -1      1492 1.88233E+01 1.38147E-02 8.52024E-03-3.12151E-02 2.86492E-14 9.87462E-13
 -1      1493 1.91080E+01 1.32659E-02-1.62249E-03-2.16709E-02 4.82986E-14 6.98655E-13
 -1      1494 1.89615E+01 1.05104E-03 3.29368E-03-5.27687E-02-2.71061E-15 9.19789E-13
 -1      1495 1.88909E+01 7.28335E-03 5.36690E-03-4.82910E-02-7.27315E-15 9.18002E-13
 -1      1496 1.91093E+01 4.53843E-03-1.63740E-03-7.31604E-02 8.45829E-15 6.86212E-13
 -1      1497 1.90860E+01-1.99746E-04 2.51176E-03-5.67018E-02 5.56257E-14 8.70957E-13
 -1      1498 1.90058E+01 3.44536E-03 3.43006E-03-5.44849E-02 2.31601E-14 8.96204E-13
 -1      1499 1.91722E+01-1.20811E-04-1.38182E-03-9.57769E-02 3.04352E-14 6.12248E-13
 -1      1500 1.92188E+01-9.08893E-04 2.04754E-03-5.51718E-02 2.20202E-14 7.39549E-13
 -1      1501 1.91385E+01 1.10972E-03 2.32751E-03-5.43771E-02 5.44434E-14 8.20254E-13
 -1      1502 1.92641E+01-2.64451E-03-1.00583E-03-1.01917E-01 9.66675E-14 5.69637E-13
 -1      1503 1.93473E+01-1.27309E-03 1.70384E-03-5.06122E-02 3.10637E-14 7.08357E-13
 -1      1504 1.92724E+01-3.01183E-04 1.64922E-03-5.06980E-02 3.21287E-15 7.09834E-13
 -1      1505 1.93662E+01-3.91840E-03-6.62418E-04-9.85789E-02 2.83189E-14 4.93509E-13
 -1      1506 1.94647E+01-1.41285E-03 1.41438E-03-4.45602E-02 1.87147E-14 6.71784E-13
 -1      1507 1.93980E+01-1.11208E-03 1.18902E-03-4.51657E-02 2.56585E-14 6.91240E-13
 -1      1508 1.94671E+01-4.42317E-03-3.97552E-04-9.00280E-02 5.53419E-14 4.31545E-13
 -1      1509 1.95677E+01-1.40763E-03 1.16128E-03-3.80023E-02 2.88606E-14 6.17815E-13
 -1      1510 1.95102E+01-1.52489E-03 8.57716E-04-3.88844E-02 2.48193E-14 6.65811E-13
 -1      1511 1.95605E+01-4.44877E-03-2.07823E-04-7.89699E-02 3.37084E-14 4.95238E-13
 -1      1512 1.96553E+01-1.31111E-03 9.39915E-04-3.15671E-02 4.70218E-16 6.35379E-13
 -1      1513 1.96072E+01-1.67288E-03 6.13650E-04-3.25616E-02 1.37946E-15 6.04333E-13
 -1      1514 1.96433E+01-4.18136E-03-7.82317E-05-6.71423E-02 2.40159E-14 4.79602E-13
 -1      1515 1.97279E+01-1.15914E-03 7.48222E-04-2.56452E-02-2.58818E-14 6.57420E-13
 -1      1516 1.96885E+01-1.64604E-03 4.33595E-04-2.66422E-02-1.18534E-14 5.84061E-13
 -1      1517 1.97143E+01-3.74332E-03 5.44965E-06-5.56527E-02 1.60054E-14 4.53902E-13
 -1      1518 1.97869E+01-9.74472E-04 5.83909E-04-2.04715E-02 4.91672E-14 5.47638E-13
 -1      1519 1.97553E+01-1.50452E-03 3.02415E-04-2.13980E-02 2.73529E-14 5.96287E-13
 -1      1520 1.97737E+01-3.21392E-03 5.41467E-05-4.51925E-02 4.40199E-14 3.19074E-13
 -1      1521 1.98343E+01-7.69792E-04 4.43940E-04-1.61845E-02-1.31743E-14 5.75040E-13
 -1      1522 1.98093E+01-1.28656E-03 2.09352E-04-1.69909E-02 3.10505E-15 5.78205E-13
 -1      1523 1.98226E+01-2.64135E-03 7.54792E-05-3.61845E-02 3.74329E-15 3.13465E-13
 -1      1524 1.98723E+01-5.49950E-04 3.24547E-04-1.28718E-02 2.86328E-14 5.44179E-13
 -1      1525 1.98525E+01-1.01354E-03 1.46479E-04-1.35218E-02 1.10410E-14 5.56141E-13
 -1      1526 1.98627E+01-2.05041E-03 7.41414E-05-2.88907E-02 3.15863E-14 3.75836E-13
 -1      1527 1.99035E+01-3.13489E-04 2.21384E-04-1.06048E-02 9.65452E-14 3.72000E-13
 -1      1528 1.98876E+01-6.93407E-04 1.07926E-04-1.10666E-02 9.69876E-14 4.87434E-13
 -1      1529 1.98959E+01-1.44797E-03 5.22073E-05-2.34943E-02 1.16205E-13 2.96017E-13
 -1      1530 1.99307E+01-5.37069E-05 1.29637E-04-9.46712E-03-8.27441E-14 2.85414E-13
 -1      1531 1.99171E+01-3.23003E-04 8.94343E-05-9.70658E-03 1.24048E-14 2.97819E-13
 -1      1532 1.99246E+01-8.26805E-04 9.29297E-06-2.01638E-02 1.04563E-13 2.22215E-13
 -1      1533 1.99571E+01 2.40680E-04 4.40948E-05-9.57789E-03-3.49704E-14 3.87584E-13
 -1      1534 1.99440E+01 1.10490E-04 8.80494E-05-9.55184E-03-6.69724E-14 2.62217E-13
 -1      1535 1.99513E+01-1.68223E-04-5.74019E-05-1.91049E-02-6.83795E-14 1.15701E-13
 -1      1536 1.99861E+01 5.85158E-04-4.08672E-05-1.11125E-02-8.24621E-14 4.74892E-13
 -1      1537 1.99717E+01 6.28739E-04 1.01896E-04-1.07627E-02-6.33804E-14 4.06332E-13
 -1      1538 1.99792E+01 5.56255E-04-1.53173E-04-2.06039E-02-8.13062E-14 2.79625E-13
 -1      1539 2.00218E+01 9.99277E-04-1.31399E-04-1.43215E-02-3.71891E-14 6.76223E-13
 -1      1540 2.00040E+01 1.26200E-03 1.29962E-04-1.35682E-02-7.27534E-14 5.48164E-13
 -1      1541 2.00115E+01 1.38390E-03-2.86028E-04-2.50665E-02-1.44915E-13 3.81682E-13
 -1      1542 2.00692E+01 1.50662E-03-2.34430E-04-1.95488E-02 1.21545E-13 5.89989E-13
 -1      1543 2.00453E+01 2.04925E-03 1.71838E-04-1.82842E-02 3.37905E-14 6.75942E-13
 -1      1544 2.00523E+01 2.36036E-03-4.67041E-04-3.30530E-02 4.31895E-14 4.82416E-13
 -1      1545 2.01343E+01 2.13468E-03-3.58092E-04-2.72492E-02 1.68319E-14 4.36294E-13
 -1      1546 2.01010E+01 3.03850E-03 2.27330E-04-2.53304E-02 9.45354E-14 5.47550E-13
 -1      1547 2.01065E+01 3.53943E-03-7.10845E-04-4.53120E-02 1.77678E-13 3.82084E-13
 -1      1548 2.02242E+01 2.91417E-03-5.12359E-04-3.80055E-02 6.12596E-15 5.59668E-13
 -1      1549 2.01775E+01 4.28678E-03 2.95815E-04-3.52461E-02-7.27662E-14 4.80832E-13
 -1      1550 2.01799E+01 4.98263E-03-1.03622E-03-6.28112E-02-4.19341E-14 3.15271E-13
 -1      1551 2.03480E+01 3.87697E-03-7.09913E-04-5.25386E-02-7.12453E-14 6.13876E-13
 -1      1552 2.02831E+01 5.85876E-03 3.75144E-04-4.87007E-02 2.50260E-14 6.50469E-13
 -1      1553 2.02796E+01 6.75723E-03-1.46661E-03-8.67610E-02-3.52844E-14 4.31048E-13
 -1      1554 2.05166E+01 5.05077E-03-9.67101E-04-7.17057E-02-4.58344E-14 7.66848E-13
 -1      1555 2.04273E+01 7.82176E-03 4.59783E-04-6.64939E-02-6.45235E-14 6.93793E-13
 -1      1556 2.04141E+01 8.93072E-03-2.03021E-03-1.18619E-01-8.43652E-14 5.81075E-13
 -1      1557 2.07432E+01 6.44707E-03-1.30433E-03-9.64636E-02-2.26024E-15 7.48675E-13
 -1      1558 2.06221E+01 1.02327E-02 5.37828E-04-8.95254E-02-4.30363E-15 7.36318E-13
 -1      1559 2.05935E+01 1.15568E-02-2.75863E-03-1.60053E-01 3.51737E-15 6.08474E-13
 -1      1560 2.10432E+01 8.03598E-03-1.74394E-03-1.27761E-01-1.96041E-14 6.50216E-13
 -1      1561 2.08816E+01 1.31081E-02 5.86685E-04-1.18705E-01-6.57332E-14 6.29458E-13
 -1      1562 2.08298E+01 1.46439E-02-3.68196E-03-2.12800E-01-1.80658E-14 5.67459E-13
 -1      1563 2.14339E+01 9.69636E-03-2.30006E-03-1.66284E-01-9.99721E-15 7.34315E-13
 -1      1564 2.12216E+01 1.63612E-02 5.68227E-04-1.54738E-01 2.91520E-15 6.91641E-13
 -1      1565 2.11360E+01 1.80888E-02-4.81562E-03-2.78340E-01-1.11014E-14 6.24408E-13
 -1      1566 2.19325E+01 1.11231E-02-2.94795E-03-2.11915E-01 4.64227E-14 5.81322E-13
 -1      1567 2.16594E+01 1.96781E-02 4.27334E-04-1.97668E-01 4.07265E-14 6.04232E-13
 -1      1568 2.15258E+01 2.15446E-02-6.12934E-03-3.57175E-01 6.34488E-14 4.87170E-13
 -1      1569 2.25530E+01 1.16680E-02-3.54760E-03-2.62686E-01-2.39792E-13 8.23808E-13
 -1      1570 2.22104E+01 2.22915E-02 1.05301E-04-2.45993E-01-1.03419E-13 6.47832E-13
 -1      1571 2.20110E+01 2.41755E-02-7.48065E-03-4.47420E-01-1.28492E-13 5.06957E-13
 -1      1572 2.32983E+01 1.01004E-02-3.68455E-03-3.12901E-01-1.57927E-14 1.17990E-12
 -1      1573 2.28838E+01 2.26094E-02-4.07281E-04-2.95067E-01-1.04737E-13 9.59094E-13
 -1      1574 2.25975E+01 2.42389E-02-8.48633E-03-5.42218E-01-2.34861E-13 7.16142E-13
 -1      1575 2.41471E+01 4.33657E-03-2.40932E-03-3.50117E-01 9.69714E-14 1.17831E-12
 -1      1576 2.36723E+01 1.77127E-02-9.40756E-04-3.34513E-01 4.02295E-14 1.18608E-12
 -1      1577 2.32780E+01 1.84793E-02-8.31217E-03-6.25454E-01-4.11730E-14 8.80440E-13
 -1      1578 2.50325E+01-8.60322E-03 2.01203E-03-3.51205E-01 8.41072E-14 9.24712E-13
 -1      1579 2.45364E+01 2.96593E-03-9.24664E-04-3.44723E-01 6.89162E-14 1.11373E-12
 -1      1580 2.40197E+01 1.54038E-03-5.42792E-03-6.65635E-01 1.05782E-13 9.62475E-13
 -1      1581 2.58138E+01-3.16573E-02 1.18550E-02-2.79501E-01 1.52960E-13 6.13808E-13
 -1      1582 2.53807E+01-2.73881E-02 8.13559E-04-2.93879E-01 1.95888E-13 8.85084E-13
 -1      1583 2.47476E+01-3.37579E-02 2.39287E-03-6.09727E-01 2.56855E-13 7.72236E-13
 -1      1584 2.62523E+01-6.45909E-02 2.81811E-02-8.92346E-02 1.21730E-13 3.55461E-13
 -1      1585 2.60273E+01-7.68674E-02 5.77303E-03-1.40264E-01 6.87662E-14 4.84016E-13
 -1      1586 2.53261E+01-9.31127E-02 1.71719E-02-3.83741E-01 1.97408E-13 6.38262E-13
 -1      1587 2.60235E+01-9.76589E-02 4.65412E-02 2.51430E-01-6.94427E-14 3.59171E-13
 -1      1588 2.62050E+01-1.38518E-01 1.42228E-02 1.50845E-01-1.18759E-14 3.30635E-13
 -1      1589 2.55517E+01-1.71450E-01 3.79567E-02 8.49999E-02 4.56787E-14 3.85203E-13
 -1      1590 2.48181E+01-1.05440E-01 5.20319E-02 7.07976E-01 6.19192E-14 2.58293E-13
 -1      1591 2.55927E+01-1.83355E-01 2.18849E-02 5.65244E-01 4.16889E-14 3.14290E-13
 -1      1592 2.51815E+01-2.36929E-01 5.64195E-02 8.03986E-01 4.29101E-14 4.27269E-13
 -1      1593 2.25759E+01-5.63553E-02 2.33517E-02 1.11842E+00 4.26048E-15 2.49356E-13
 -1      1594 2.39694E+01-1.61265E-01 1.76729E-02 9.82018E-01 8.23178E-14 3.31513E-13
 -1      1595 2.40391E+01-2.22616E-01 5.57402E-02 1.61176E+00 9.26169E-14 4.98185E-13
 -1      1596 1.97628E+01 4.94516E-02-4.42725E-02 1.21628E+00-5.92321E-14 3.20993E-13
 -1      1597 2.14733E+01-3.96090E-02-9.05944E-03 1.16752E+00-7.09168E-14 2.24432E-13
 -1      1598 2.22086E+01-6.54485E-02 2.17478E-02 2.12552E+00-4.72079E-14 5.23838E-13
 -1      1599 1.73709E+01 1.53673E-01-1.13544E-01 8.20216E-01 4.26430E-14 1.72237E-13
 -1      1600 1.87846E+01 1.39557E-01-5.12497E-02 9.16092E-01 3.81015E-14 2.54796E-13
 -1      1601 2.01906E+01 2.05427E-01-3.35649E-02 1.91870E+00 3.59782E-14 4.09964E-13
 -1      1602 1.64112E+01 1.63339E-01-1.17864E-01 7.90913E-02-7.31012E-14 1.84830E-13
 -1      1603 1.69289E+01 2.49816E-01-7.52398E-02 2.75110E-01-5.80820E-14 1.36217E-13
 -1      1604 1.87651E+01 4.23339E-01-6.77233E-02 9.14989E-01 1.41692E-14 2.40002E-13
 -1      1605 1.70548E+01 7.45768E-02-5.35034E-02-5.34622E-01 2.41323E-13-1.47243E-13
 -1      1606 1.65996E+01 2.01450E-01-5.40295E-02-3.69343E-01 1.80210E-13 1.13687E-13
 -1      1607 1.84640E+01 3.77687E-01-5.92296E-02-3.32006E-01 2.10578E-13 8.88317E-14
 -1      1608 1.85281E+01-3.09997E-02 2.54901E-02-7.02129E-01-8.60015E-14 1.97758E-14
 -1      1609 1.75768E+01 5.63896E-02-6.59963E-03-6.50475E-01-7.21133E-14-1.73625E-13
 -1      1610 1.90961E+01 1.24002E-01-2.46269E-02-1.07819E+00 6.28629E-14 1.02224E-13
 -1      1611 1.98068E+01-7.94143E-02 6.46756E-02-4.66341E-01 5.16375E-14-6.05627E-14
 -1      1612 1.89776E+01-6.77064E-02 3.09530E-02-5.15602E-01 8.49616E-14 1.03278E-13
 -1      1613 1.99867E+01-1.32648E-01 3.21041E-03-1.04516E+00 9.06792E-14 1.69913E-13
 -1      1614 2.03519E+01-5.96794E-02 5.39996E-02-1.19113E-01-3.80607E-14-1.93276E-13
 -1      1615 1.99686E+01-9.77683E-02 3.94521E-02-1.95624E-01 1.15481E-14-2.66176E-13
 -1      1616 2.05366E+01-2.21112E-01 1.14173E-02-5.25539E-01 1.31764E-13 8.08277E-14
 -1      1617 2.02801E+01-1.01282E-02 2.07540E-02 8.07072E-02 7.66232E-14-4.65153E-13
 -1      1618 2.02648E+01-4.77615E-02 2.41456E-02 3.95370E-02 1.08783E-13-3.03991E-13
 -1      1619 2.05748E+01-1.39310E-01 4.66762E-03-2.18081E-02 1.60543E-13-7.31546E-14
 -1      1620 2.00607E+01 3.40706E-02 1.40599E-02 4.98308E-02 3.92481E-14-4.77959E-13
 -1      1621 2.01179E+01 2.67180E-02 9.74225E-03 6.85653E-02 2.82491E-14-5.18780E-13
 -1      1622 2.03099E+01 1.42376E-02 1.47915E-03 1.45104E-01 1.55037E-13-3.54121E-13
 -1      1623 1.99844E+01 1.09083E-02 8.51167E-03-1.32044E-02-2.21203E-13-2.25841E-13
 -1      1624 2.01185E+01 4.03196E-01-1.60997E-02 2.07879E-01-1.48173E-13 6.88147E-14
 -1      1625 2.00955E+01 1.72525E-01-8.49095E-04 1.49949E-01-2.44665E-13 1.09721E-13
 -1      1626 2.01823E+01 1.46240E+00-2.52127E-02 6.16630E-01 2.80609E-13 3.77764E-13
 -1      1627 2.01662E+01 7.41871E-01-2.49630E-02 5.15832E-01-1.16592E-13 3.51953E-13
 -1      1628 2.02621E+01 5.39590E-01-4.01514E-02 7.01050E-01 8.81049E-14 3.80253E-13
 -1      1629 2.01717E+01 3.45827E+00-2.99208E-02 1.13832E+00-6.14370E-14-2.85542E-13
 -1      1630 2.02031E+01 2.12902E+00-3.75822E-02 1.02168E+00 2.83724E-13 4.58002E-14
 -1      1631 2.03424E+01 1.47909E+00-5.31873E-02 1.56741E+00 1.00627E-13 2.64604E-13
 -1      1632 2.00442E+01 6.27149E+00-1.52214E-02 1.52550E+00 2.21906E-14 1.88183E-13
 -1      1633 2.01403E+01 4.48299E+00-3.18328E-02 1.45828E+00-1.50047E-13 2.08788E-13
 -1      1634 2.02602E+01 3.11318E+00-4.82669E-02 2.46723E+00 7.91311E-14-1.83464E-13
 -1      1635 1.98147E+01 9.20344E+00 1.96631E-02 1.44612E+00 1.47785E-13 4.78645E-14
 -1      1636 1.99481E+01 7.46979E+00-7.04719E-04 1.50675E+00 4.85723E-14-6.94757E-14
 -1      1637 1.99792E+01 5.31982E+00-9.69797E-04 2.87120E+00 1.72272E-13 8.63771E-14
 -1      1638 1.96122E+01 1.11158E+01 5.42538E-02 7.31247E-01 5.14422E-13 3.73070E-14
 -1      1639 1.97053E+01 1.01538E+01 4.21423E-02 9.34913E-01 1.86087E-13 6.63948E-14
 -1      1640 1.95854E+01 7.49517E+00 7.53613E-02 2.25077E+00 2.51417E-13 1.18922E-13
 -1      1641 1.95927E+01 1.10854E+01 5.99379E-02-3.54049E-01 4.90295E-13-1.16102E-13
 -1      1642 1.95744E+01 1.13585E+01 6.30385E-02-1.08321E-01 5.84343E-13 1.54252E-14
 -1      1643 1.93223E+01 8.71997E+00 1.32591E-01 5.90516E-01 7.22183E-14 1.00996E-13
 -1      1644 1.97736E+01 9.05536E+00 2.90126E-02-1.30265E+00 2.87742E-13-4.09846E-14
 -1      1645 1.96633E+01 1.04829E+01 4.80631E-02-1.13799E+00 5.58553E-13-3.21167E-13
 -1      1646 1.93721E+01 8.36272E+00 1.20778E-01-1.41481E+00 1.85560E-13-2.72116E-13
 -1      1647 2.00148E+01 5.94739E+00-1.09285E-02-1.67759E+00 2.86354E-13 2.18972E-13
 -1      1648 1.98876E+01 7.89236E+00 9.94199E-03-1.66070E+00 2.09152E-13 1.16215E-13
 -1      1649 1.97059E+01 6.55974E+00 5.31696E-02-2.80482E+00 3.78086E-13-3.39312E-14
 -1      1650 2.01804E+01 2.82391E+00-3.45207E-02-1.47565E+00 7.73562E-13 4.57837E-13
 -1      1651 2.00978E+01 4.66060E+00-1.95447E-02-1.56770E+00 3.27988E-13 3.51687E-13
 -1      1652 2.00830E+01 4.10165E+00-1.94712E-02-3.07774E+00 3.03299E-13 4.16776E-13
 -1      1653 2.02208E+01 5.50178E-01-3.43189E-02-9.54787E-01 5.33205E-13 2.43208E-15
 -1      1654 2.01995E+01 1.80892E+00-2.79676E-02-1.08134E+00 7.26391E-13-9.01015E-14
 -1      1655 2.03219E+01 1.83242E+00-5.60253E-02-2.43414E+00 4.20657E-13 2.93618E-13
 -1      1656 2.01786E+01-6.42965E-01-2.19970E-02-4.04983E-01 1.06814E-13-1.46645E-13
 -1      1657 2.01982E+01-5.38369E-02-2.12871E-02-5.12094E-01 3.81528E-13 7.84737E-14
 -1      1658 2.03655E+01 2.69180E-01-5.79097E-02-1.41035E+00 1.46191E-13-1.15626E-13
 -1      1659 2.01056E+01-9.33378E-01-8.48603E-03 5.76223E-03-1.67279E-13-6.36192E-14
 -1      1660 2.01422E+01-8.71963E-01-1.06830E-02-6.16046E-02 1.90126E-15-7.51638E-14
 -1      1661 2.02835E+01-5.10292E-01-4.21255E-02-4.66620E-01-8.50292E-14-3.83332E-13
 -1      1662 2.00360E+01-6.73238E-01 5.28576E-03 2.06332E-01-1.81834E-13-1.94562E-13
 -1      1663 2.00590E+01-9.06255E-01-3.77478E-03 1.91601E-01-6.73836E-14-1.54614E-13
 -1      1664 2.01527E+01-6.70821E-01-2.06025E-02 1.67427E-01-9.88098E-14-9.23758E-14
 -1      1665 1.99593E+01-2.91896E-01 6.97364E-03 2.75915E-01-4.04152E-13-1.78907E-13
 -1      1666 1.99906E+01-5.50797E-01-1.15299E-04 3.11387E-01-1.96614E-13-2.24496E-13
 -1      1667 2.00400E+01-4.49211E-01 1.13236E-02 4.58861E-01-1.62325E-13-3.24495E-13
 -1      1668 1.97987E+01-2.11377E-01 1.56089E-03 5.05557E-01-1.69182E-13-1.68534E-13
 -1      1669-7.50132E-01-1.78096E+01-2.05630E+00-1.19366E+00 3.06088E-13 1.18738E-13
 -1      1670-7.09266E-01-2.05352E+01-2.32914E+00 3.54933E-01 6.32466E-13-1.71640E-13
 -1      1671 2.18213E+00-9.66604E+00-1.30944E+00 1.16599E+00 8.45546E-13 5.97467E-13
 -1      1672 1.14982E+00-1.58070E+01-1.97078E+00 3.25238E-01 4.78839E-13 4.34638E-13
 -1      1673 8.62830E+00-5.66931E-01-4.95537E-01 5.63211E+00 9.14824E-13 6.75016E-13
 -1      1674 4.92451E+00-7.33944E+00-1.44842E+00 2.16899E+00 7.94698E-13 3.85469E-13
 -1      1675 2.02377E+01 5.88621E+00 4.33491E-01 1.13474E+01 8.21343E-13 4.98934E-13
 -1      1676 1.28751E+01 1.93278E+00-6.19095E-01 7.08257E+00 9.94316E-13 6.47926E-13
 -1      1677 3.60735E+01 7.62609E+00 1.31596E+00 1.46861E+01 5.11369E-13 4.00568E-13
 -1      1678 2.58600E+01 7.26804E+00 3.55164E-01 1.23709E+01 7.80043E-13 5.69989E-13
 -1      1679 5.09836E+01 5.86684E+00 1.88448E+00 1.20882E+01 1.86379E-13 1.50990E-13
 -1      1680 4.15626E+01 7.73352E+00 1.21147E+00 1.38506E+01 3.91187E-13 3.48610E-13
 -1      1681 5.90510E+01 4.23491E+00 2.11600E+00 4.60837E+00 1.87128E-13-1.05471E-13
 -1      1682 5.42690E+01 5.79446E+00 1.81653E+00 9.89491E+00 1.34587E-13 1.76636E-13
 -1      1683 5.85853E+01 3.99990E+00 2.03074E+00-4.08709E+00 5.70655E-14-4.19220E-13
 -1      1684 6.06178E+01 3.75551E+00 2.19799E+00 2.00451E+00 1.88349E-13-3.16011E-13
 -1      1685 4.70198E+01 5.59272E+00 1.30673E+00-1.02167E+01-6.52534E-14-2.64677E-13
 -1      1686 5.55606E+01 4.03475E+00 2.00746E+00-6.46137E+00-6.79318E-14-4.27325E-13
 -1      1687 3.10263E+01 5.20838E+00 3.54937E-01-1.01293E+01 7.10543E-15-6.21725E-15
 -1      1688 4.15235E+01 4.72134E+00 1.21733E+00-1.06017E+01-7.18314E-14-1.48326E-13
 -1      1689 1.61689E+01 2.99141E+00-4.74429E-01-7.59601E+00-1.78080E-13-1.28342E-13
 -1      1690 2.46632E+01 5.05919E+00 4.42076E-01-1.09532E+01-3.99680E-15-2.49578E-13
 -1      1691 6.63107E+00-3.59602E+00-1.14038E+00-2.74135E+00-1.46327E-13 6.31717E-14
 -1      1692 1.14365E+01 1.37936E+00-2.99285E-01-6.36701E+00-1.86073E-13 4.77396E-15
 -1      1693 1.93326E+00-1.21614E+01-1.59107E+00 1.01148E-01 6.81233E-13 2.40752E-13
 -1      1694 3.82315E+00-6.09600E+00-9.48200E-01-1.79771E+00 1.24789E-13 2.94598E-13
 -1      1695-5.39268E-01-1.85642E+01-2.00531E+00 9.12030E-01 1.49170E-12 1.35308E-13
 -1      1696-5.56652E-01-1.44419E+01-1.64220E+00 1.68203E+00 8.86402E-13 1.86309E-13
 -1      1697-9.24369E-01-1.92079E+01-1.93184E+00-5.98207E-01 1.27576E-12-2.63178E-13
 -1      1698-9.88388E-01-1.93351E+01-1.96395E+00 1.30842E+00 1.60949E-12-8.17402E-14
 -1      1699-1.59731E-01-1.38427E+01-1.52810E+00-7.81097E-01 2.13052E-13-3.49935E-13
 -1      1700-3.33362E-01-1.80200E+01-1.90496E+00-3.99410E-02 1.04583E-12-3.79363E-13
 -1      1701 2.88272E+00-5.79788E+00-1.00431E+00 1.59251E+00-4.67848E-13-6.86007E-13
 -1      1702 1.36594E+00-1.19008E+01-1.67645E+00-7.58606E-02-3.14193E-14-3.18134E-13
 -1      1703 1.23569E+01 1.13621E+00-1.76958E-01 7.07939E+00-5.52003E-13-5.09925E-13
 -1      1704 7.52010E+00-3.94582E+00-9.80220E-01 3.48810E+00-5.17808E-13-4.83613E-13
 -1      1705 2.38089E+01 6.25027E+00 5.85047E-01 1.16775E+01-6.00520E-13-5.73763E-13
 -1      1706 1.60343E+01 3.92271E+00-3.02104E-01 8.30248E+00-7.01550E-13-5.88418E-13
 -1      1707 3.82818E+01 6.46859E+00 1.22708E+00 1.31121E+01-3.82916E-13-8.94396E-13
 -1      1708 2.91330E+01 6.84224E+00 4.45128E-01 1.21113E+01-5.57776E-13-8.66196E-13
 -1      1709 5.12994E+01 4.83185E+00 1.70640E+00 9.79268E+00-3.31561E-13-9.68448E-13
 -1      1710 4.31356E+01 6.50441E+00 1.13666E+00 1.22139E+01-2.94431E-13-8.95506E-13
 -1      1711 5.81145E+01 3.89363E+00 1.89693E+00 1.94290E+00 3.27516E-15-1.05066E-12
 -1      1712 5.39359E+01 4.84410E+00 1.59809E+00 7.17032E+00-2.65676E-13-1.05715E-12
 -1      1713 5.80846E+01 4.46423E+00 1.95606E+00-6.33835E+00 4.16334E-16-8.79186E-13
 -1      1714 5.95529E+01 3.71857E+00 1.96265E+00-7.39561E-01-1.98175E-14-9.70432E-13
 -1      1715 4.92480E+01 6.63800E+00 1.58142E+00-1.24564E+01-3.20716E-13-2.25042E-13
 -1      1716 5.59902E+01 4.75508E+00 2.00001E+00-8.77512E+00-1.55931E-13-7.37854E-13
 -1      1717 3.58471E+01 8.07075E+00 9.46603E-01-1.40291E+01-2.32148E-13 3.02869E-13
 -1      1718 4.49396E+01 6.85876E+00 1.65443E+00-1.38262E+01-2.89546E-13 1.21902E-13
 -1      1719 2.19482E+01 6.47763E+00 1.54370E-01-1.12260E+01-2.67453E-13 3.48166E-13
 -1      1720 3.06602E+01 7.62754E+00 1.04103E+00-1.40173E+01-1.83409E-13 5.30020E-13
 -1      1721 1.07652E+01 6.58913E-01-7.35908E-01-6.07044E+00-1.22879E-12 4.57523E-13
 -1      1722 1.69434E+01 4.95819E+00 2.30136E-01-1.01035E+01-6.55920E-13 1.37668E-13
 -1      1723 3.63869E+00-8.61480E+00-1.57826E+00-1.42991E+00-9.67892E-13 7.13596E-13
 -1      1724 6.64221E+00-1.74915E+00-6.63168E-01-4.50432E+00-1.23745E-12 7.87703E-13
 -1      1725 5.83943E-01-1.68433E+01-2.10982E+00 6.55837E-02-1.96287E-13 2.88693E-13
 -1      1726 1.24439E+00-1.11077E+01-1.49833E+00-3.40166E-01-5.87752E-13 5.26773E-13
 -1      1727-7.26715E-01-2.08495E+01-2.37051E+00-4.70000E-01 4.28213E-13 2.08111E-13
 -1      1728-7.39330E-01-1.85375E+01-2.13302E+00 1.10297E+00-2.45359E-14 4.07091E-13
 -1      1729 2.78377E+01 1.36231E+00 4.22133E-01 8.82754E+00 7.97695E-13 3.18634E-13
 -1      1730 1.66990E+01-3.86463E+00-3.66924E-01 7.56828E+00 4.30211E-13 1.79412E-13
 -1      1731 2.00689E+01 5.68837E-02-1.50201E-03 3.47511E-02-2.91267E-13 4.64819E-15
 -1      1732 2.01634E+01 1.61087E-01-1.75044E-02 2.22716E-01-2.93637E-14 1.69389E-13
 -1      1733 1.06667E+00-1.19699E+01-1.33523E+00 3.31993E+00 3.94129E-13 4.65739E-13
 -1      1734 7.62734E+00-8.78160E+00-9.55904E-01 5.84583E+00 4.27991E-13 3.74693E-13
 -1      1735-1.56419E+00-1.41598E+01-1.68198E+00 3.34828E-03 1.93054E-13 1.16518E-13
 -1      1736 3.90588E+01 5.11804E+00 1.13881E+00 8.17910E+00 4.96880E-13 1.57763E-13
 -1      1737 4.69589E+01 7.42353E+00 1.53960E+00 5.52917E+00 2.86660E-13 4.61853E-14
 -1      1738 5.09788E+01 8.12342E+00 1.75928E+00 2.10574E+00 3.21798E-13 1.83423E-13
 -1      1739 4.96441E+01 7.12546E+00 1.65310E+00-1.49894E+00-5.05151E-14-3.77476E-15
 -1      1740 4.14557E+01 4.32976E+00 9.40258E-01-3.69696E+00-1.45765E-13-1.25011E-13
 -1      1741 3.14560E+01 1.16850E+00 5.59994E-01-5.98250E+00 6.71685E-15-8.08242E-14
 -1      1742 1.94924E+01-2.45742E+00-1.66692E-01-6.35180E+00-1.19016E-13-2.19602E-13
 -1      1743 9.98248E+00-7.17432E+00-7.28055E-01-4.94638E+00 2.20601E-13 2.83856E-13
 -1      1744 2.76820E+00-1.08902E+01-1.05803E+00-3.10293E+00 5.72653E-13 5.60163E-13
 -1      1745-1.35842E+00-1.37620E+01-1.43151E+00-5.58327E-01 7.23865E-13 2.15716E-13
 -1      1746-1.22883E+00-1.33542E+01-1.36584E+00 1.36326E+00 6.10428E-13-6.02574E-13
 -1      1747 2.29038E+00-1.06762E+01-1.11650E+00 3.34084E+00 4.14002E-13-6.10956E-13
 -1      1748 1.02753E+01-6.56858E+00-4.92888E-01 5.90604E+00 8.68194E-14-3.49332E-13
 -1      1749 1.95196E+01-2.61859E+00-2.15305E-01 6.97078E+00-2.29261E-13-3.03868E-13
 -1      1750 2.97351E+01 2.30795E+00 5.05396E-01 7.77569E+00-3.36842E-13-4.80616E-13
 -1      1751 3.98342E+01 5.15581E+00 1.08144E+00 6.71777E+00-1.79010E-13-6.02185E-13
 -1      1752 4.69098E+01 7.06886E+00 1.42862E+00 3.69672E+00-2.18048E-13-8.59979E-13
 -1      1753 5.02922E+01 8.08088E+00 1.60757E+00-2.67580E-01-1.48770E-13-9.88182E-13
 -1      1754 5.00157E+01 7.74022E+00 1.67126E+00-4.18163E+00-2.81886E-13-9.03055E-13
 -1      1755 4.40754E+01 6.73370E+00 1.37949E+00-7.26453E+00-3.31069E-13-6.76237E-13
 -1      1756 3.50765E+01 4.36447E+00 8.99522E-01-8.79262E+00-1.81855E-13-7.54952E-15
 -1      1757 2.46406E+01 6.02010E-01 2.66074E-01-8.70200E+00-5.25024E-13 7.61613E-14
 -1      1758 1.43540E+01-4.29855E+00-4.27444E-01-7.25719E+00-7.38187E-13 2.27596E-14
 -1      1759 5.84823E+00-9.34204E+00-1.08083E+00-5.16749E+00-2.98428E-13 6.33660E-13
 -1      1760 3.09944E-01-1.27859E+01-1.50041E+00-2.81375E+00 7.23310E-14 5.69544E-13
 -1      1761 2.28610E+01 1.98498E+00-2.35776E-02-2.72223E+00-1.24616E-13 1.58817E-13
 -1      1762 1.98238E+01 3.71445E+00-3.55638E-02-2.15161E+00-7.84667E-14-2.94178E-13
 -1      1763 2.00592E+01 3.56222E+00-4.02553E-02-2.44461E+00-1.09438E-13-2.70114E-13
 -1      1764 2.03648E+01 3.18183E+00-4.57199E-02-2.58456E+00-1.25847E-13-2.18964E-13
 -1      1765 2.05850E+01 2.81005E+00-1.42519E-01-2.85300E+00-1.57797E-13-1.64938E-13
 -1      1766 2.04246E+01 2.69346E+00-4.43981E-03-2.22556E+00-1.28234E-13-2.28692E-13
 -1      1767 1.93538E+01 4.18963E+00-2.02072E-02-1.27039E+00 2.95586E-14-2.81011E-13
 -1      1768 1.94273E+01 4.14931E+00-1.75049E-02-1.49461E+00 1.39168E-14-2.98412E-13
 -1      1769 1.92574E+01 4.29478E+00-1.67984E-02-8.59470E-01 7.16259E-14-2.63612E-13
 -1      1770 1.93002E+01 4.27105E+00-1.43347E-02-1.07016E+00 5.28039E-14-2.76357E-13
 -1      1771 1.95260E+01 3.78302E+00-9.21299E-03-1.11988E+00 3.73462E-14-2.61709E-13
 -1      1772 1.92056E+01 4.35520E+00-1.48052E-02-4.66613E-01 1.06289E-13-2.25285E-13
 -1      1773 1.92277E+01 4.34241E+00-1.33103E-02-6.66856E-01 9.33513E-14-2.48083E-13
 -1      1774 1.94287E+01 3.90335E+00-9.19728E-03-7.33000E-01 8.78331E-14-2.40506E-13
 -1      1775 1.91861E+01 4.38084E+00-1.36678E-02-8.35885E-02 1.42902E-13-1.78399E-13
 -1      1776 1.91926E+01 4.37692E+00-1.32151E-02-2.78966E-01 1.21639E-13-2.06196E-13
 -1      1777 1.93782E+01 3.96794E+00-9.15610E-03-3.58144E-01 1.17890E-13-2.02522E-13
 -1      1778 1.91943E+01 4.37556E+00-1.31678E-02 2.98009E-01 1.83691E-13-1.42643E-13
 -1      1779 1.91866E+01 4.38001E+00-1.37508E-02 1.02474E-01 1.63618E-13-1.65992E-13
 -1      1780 1.93633E+01 3.98737E+00-9.14421E-03 1.05600E-02 1.58751E-13-1.60066E-13
 -1      1781 1.92317E+01 4.33837E+00-1.33257E-02 6.86598E-01 2.08490E-13-1.12941E-13
 -1      1782 1.92084E+01 4.35206E+00-1.49155E-02 4.85860E-01 2.00100E-13-1.33522E-13
 -1      1783 1.93808E+01 3.96466E+00-9.18666E-03 3.79446E-01 2.03753E-13-1.23429E-13
 -1      1784 1.93056E+01 4.26497E+00-1.44070E-02 1.08413E+00 2.33533E-13-5.19567E-14
 -1      1785 1.92620E+01 4.28943E+00-1.69717E-02 8.76218E-01 2.20944E-13-9.02490E-14
 -1      1786 1.94339E+01 3.89716E+00-9.19204E-03 7.51466E-01 2.27365E-13-8.68767E-14
 -1      1787 1.94376E+01 4.13777E+00-1.74001E-02 1.51403E+00 2.58869E-13 3.38583E-14
 -1      1788 1.93609E+01 4.18034E+00-2.05022E-02 1.28454E+00 2.39918E-13-1.13225E-14
 -1      1789 1.95339E+01 3.77325E+00-9.23784E-03 1.13510E+00 2.55499E-13-2.05669E-14
 -1      1790 1.96674E+01 3.92120E+00-2.51902E-02 1.97903E+00 2.71906E-13 1.41841E-13
 -1      1791 1.95343E+01 3.99797E+00-2.69054E-02 1.72172E+00 2.66024E-13 7.55299E-14
 -1      1792 1.97078E+01 3.56615E+00-8.69463E-03 1.53470E+00 2.70252E-13 6.73940E-14
 -1      1793 2.00767E+01 3.52283E+00-4.51811E-02 2.47146E+00 2.56944E-13 3.05155E-13
 -1      1794 1.98363E+01 3.68330E+00-3.97260E-02 2.18235E+00 2.60334E-13 2.05884E-13
 -1      1795 2.00048E+01 3.22296E+00-5.27058E-03 1.93396E+00 2.82691E-13 1.81723E-13
 -1      1796 2.09226E+01 2.68181E+00-5.76445E-02 2.85724E+00 1.92920E-13 5.56187E-13
 -1      1797 2.04149E+01 3.09695E+00-5.04299E-02 2.61541E+00 2.23985E-13 4.09721E-13
 -1      1798 2.05186E+01 2.60996E+00 3.18799E-03 2.24395E+00 2.36469E-13 3.48773E-13
 -1      1799 2.17331E+01 1.21296E+00-1.22091E-01 2.32943E+00 1.24650E-13 8.35929E-13
 -1      1800 2.12765E+01 2.26303E+00 1.16634E-04 2.73996E+00 1.52709E-13 6.57058E-13
 -1      1801 2.09392E+01 1.68502E+00-2.29544E-02 2.13965E+00 1.71044E-13 5.45931E-13
 -1      1802 2.09546E+01 7.78667E-01-6.24420E-02 1.52373E+00 1.14388E-13 7.98063E-13
 -1      1803 2.17989E+01 2.45826E+00 9.08499E-02-3.04776E+00-1.51386E-13-4.43118E-14
 -1      1804 2.01041E+01 2.97953E-01-8.91106E-03 6.56577E-01 1.16913E-13 6.90205E-13
 -1      1805 2.06560E+01 4.40413E-01-1.24651E-02 1.03362E+00 9.95662E-14 7.32764E-13
 -1      1806 2.07470E+01 8.45120E-01 2.24496E-03 1.41462E+00 1.29979E-13 5.93121E-13
 -1      1807 2.15091E+01 1.74276E+00 7.94471E-02-2.33664E+00-1.55435E-13-8.31071E-14
 -1      1808 2.05236E+01 5.00464E-01 3.25310E-02-9.21121E-01-1.24116E-13-9.21108E-14
 -1      1809 2.00918E+01 3.51869E-01 7.58442E-03-6.29335E-01-1.05907E-13-1.16861E-13
 -1      1810 1.98972E+01 2.57401E-01 2.74155E-02-3.90937E-01-1.10337E-13-9.77699E-14
 -1      1811 1.97064E+01 1.78161E-01 1.04093E-02-2.53053E-01-7.49704E-14-1.26794E-13
 -1      1812 2.02014E+01 4.83851E-01-5.72670E-03-7.22440E-01-1.19984E-13-1.38433E-13
 -1      1813 1.95845E+01 1.32770E-01 1.66792E-02-1.19453E-01-4.14339E-14-1.13279E-13
 -1      1814 1.95065E+01 9.30481E-02 6.97935E-03-4.86797E-02-3.03013E-14-1.29624E-13
 -1      1815 1.98753E+01 2.44158E-01-5.70272E-03-2.95119E-01-7.02160E-14-1.14282E-13
 -1      1816 1.94417E+01 6.83349E-02 8.69079E-03 2.47784E-02-4.86512E-14-1.23845E-13
 -1      1817 1.94273E+01 4.66109E-02 4.11043E-03 6.08976E-02-6.57243E-14-1.26627E-13
 -1      1818 1.96928E+01 1.25158E-01-4.60790E-03-5.83604E-02-4.48309E-14-1.05852E-13
 -1      1819 1.94012E+01 3.22460E-02 4.23127E-03 9.95037E-02-5.89978E-14-1.10677E-13
 -1      1820 1.94210E+01 1.97767E-02 2.42396E-03 1.16183E-01-2.55061E-14-1.22307E-13
 -1      1821 1.96063E+01 6.07503E-02-3.44607E-03 7.10295E-02-6.18443E-14-1.13667E-13
 -1      1822 1.94192E+01 1.11117E-02 1.84554E-03 1.33955E-01-3.98259E-14-1.28461E-13
 -1      1823 1.94561E+01 3.89875E-03 1.43521E-03 1.39249E-01-4.10120E-14-1.37916E-13
 -1      1824 1.95820E+01 2.37809E-02-2.32745E-03 1.37149E-01-3.93271E-14-9.64608E-14
 -1      1825 1.94684E+01-1.32556E-03 5.42632E-04 1.44439E-01-3.99749E-14-1.52764E-13
 -1      1826 1.95124E+01-5.34587E-03 8.17898E-04 1.43054E-01-4.25145E-14-1.51587E-13
 -1      1827 1.95953E+01 2.15894E-03-1.42697E-03 1.65077E-01-5.42888E-14-1.21516E-13
 -1      1828 1.95321E+01-8.37038E-03-1.80304E-04 1.40780E-01-6.90255E-14-1.32205E-13
 -1      1829 1.95771E+01-1.03754E-02 4.17933E-04 1.35645E-01-7.75592E-14-1.63993E-13
 -1      1830 1.96295E+01-1.02054E-02-7.79564E-04 1.69953E-01-3.46697E-14-8.73168E-14
 -1      1831 1.95998E+01-1.19532E-02-5.68171E-04 1.29203E-01-8.40838E-14-1.85347E-13
 -1      1832 1.96424E+01-1.26690E-02 1.60989E-04 1.22206E-01-9.23662E-14-2.10162E-13
 -1      1833 1.96735E+01-1.67190E-02-3.45071E-04 1.61348E-01-1.16085E-13-1.38638E-13
 -1      1834 1.96653E+01-1.32892E-02-7.50369E-04 1.13752E-01-6.77621E-14-1.77574E-13
 -1      1835 1.97036E+01-1.31856E-02 4.46544E-06 1.06119E-01 8.11325E-15-1.71053E-13
 -1      1836 1.97205E+01-1.94602E-02-6.97948E-05 1.45486E-01-6.78257E-14-7.74072E-14
 -1      1837 1.97252E+01-1.31766E-02-8.03259E-04 9.70670E-02 1.03217E-14-1.96450E-13
 -1      1838 1.97584E+01-1.25633E-02-7.94625E-05 8.95904E-02 1.89542E-14-2.00581E-13
 -1      1839 1.97660E+01-1.97693E-02 9.15385E-05 1.26457E-01-7.84198E-15-7.03001E-14
 -1      1840 1.97778E+01-1.21467E-02-7.75384E-04 8.08582E-02 3.54158E-14-2.42351E-13
 -1      1841 1.98060E+01-1.12247E-02-1.09653E-04 7.40399E-02 1.80504E-14-2.19831E-13
 -1      1842 1.98078E+01-1.85317E-02 1.72650E-04 1.06943E-01 5.42806E-15-7.04512E-14
 -1      1843 1.98231E+01-1.05461E-02-6.98551E-04 6.62180E-02-2.60409E-15-2.18117E-13
 -1      1844 1.98465E+01-9.43875E-03-9.84831E-05 6.03733E-02-1.05667E-14-1.54642E-13
 -1      1845 1.98449E+01-1.63273E-02 1.97538E-04 8.86857E-02 1.81529E-14-1.14957E-13
 -1      1846 1.98613E+01-8.58737E-03-5.93499E-04 5.38431E-02-5.06031E-14-1.72442E-13
 -1      1847 1.98809E+01-7.36065E-03-5.33371E-05 4.91752E-02-5.25302E-14-1.45069E-13
 -1      1848 1.98773E+01-1.35182E-02 1.82756E-04 7.28123E-02-4.12288E-14-1.36683E-13
 -1      1849 1.98938E+01-6.38314E-03-4.73301E-04 4.41972E-02-6.53298E-14-1.65064E-13
 -1      1850 1.99103E+01-5.05953E-03 2.23169E-05 4.08528E-02-8.81004E-14-2.18013E-13
 -1      1851 1.99053E+01-1.03056E-02 1.39268E-04 6.00715E-02-8.32707E-14-1.81634E-13
 -1      1852 1.99221E+01-3.97015E-03-3.45633E-04 3.76329E-02-1.08331E-13-2.61067E-13
 -1      1853 1.99367E+01-2.53937E-03 1.28078E-04 3.57446E-02-8.35784E-14-2.91915E-13
 -1      1854 1.99302E+01-6.76901E-03 7.38892E-05 5.10075E-02-1.37893E-13-2.11676E-13
 -1      1855 1.99478E+01-1.32813E-03-2.14426E-04 3.44828E-02-1.13130E-14-2.58290E-13
 -1      1856 1.99618E+01 2.44409E-04 2.65844E-04 3.42004E-02-2.41191E-15-2.37606E-13
 -1      1857 1.99532E+01-2.89649E-03-9.61374E-06 4.60912E-02-4.36706E-14-1.93817E-13
 -1      1858 1.99733E+01 1.60467E-03-8.11447E-05 3.51275E-02-7.28990E-14-2.70043E-13
 -1      1859 1.99881E+01 3.37016E-03 4.39007E-04 3.66406E-02-6.16612E-14-3.35174E-13
 -1      1860 1.99760E+01 1.39114E-03-1.09621E-04 4.58162E-02-7.13359E-14-2.13545E-13
 -1      1861 2.00010E+01 4.91672E-03 5.41646E-05 4.00411E-02 2.57162E-14-3.63509E-13
 -1      1862 2.00182E+01 6.93470E-03 6.51450E-04 4.35920E-02 4.62108E-14-3.27400E-13
 -1      1863 2.00005E+01 6.21797E-03-2.25862E-04 5.07664E-02-3.39222E-14-3.23510E-13
 -1      1864 2.00336E+01 8.70673E-03 1.91923E-04 4.98150E-02 5.18275E-14-3.07265E-13
 -1      1865 2.00550E+01 1.10347E-02 9.06158E-04 5.57019E-02 4.18709E-14-2.67888E-13
 -1      1866 2.00288E+01 1.17289E-02-3.58652E-04 6.16539E-02 8.84192E-14-2.39278E-13
 -1      1867 2.00743E+01 1.30625E-02 3.32088E-04 6.51556E-02 7.47818E-15-1.71467E-13
 -1      1868 2.01020E+01 1.57413E-02 1.20321E-03 7.37208E-02 8.88310E-14-2.20484E-13
 -1      1869 2.00637E+01 1.80594E-02-5.08082E-04 7.93255E-02 6.99353E-14-1.51050E-13
 -1      1870 2.01266E+01 1.80307E-02 4.73158E-04 8.68456E-02 5.39452E-14-2.35244E-13
 -1      1871 2.01630E+01 2.10625E-02 1.53682E-03 9.84439E-02 4.82602E-14-2.60556E-13
 -1      1872 2.01079E+01 2.52930E-02-6.73132E-04 1.04726E-01 4.85687E-14-1.24407E-13
 -1      1873 2.01946E+01 2.35722E-02 6.11081E-04 1.15654E-01 4.84018E-14-2.44242E-13
 -1      1874 2.02421E+01 2.68882E-02 1.89103E-03 1.30592E-01-4.39402E-14-1.77584E-13
 -1      1875 2.01645E+01 3.33989E-02-8.50666E-04 1.38803E-01 3.06542E-14-1.43792E-13
 -1      1876 2.02825E+01 2.94965E-02 7.38061E-04 1.52173E-01-6.94417E-14-2.11790E-13
 -1      1877 2.03437E+01 3.29077E-02 2.23370E-03 1.70603E-01-3.20313E-14-1.78011E-13
 -1      1878 2.02371E+01 4.21394E-02-1.03431E-03 1.82328E-01-1.18993E-14-1.49363E-13
 -1      1879 2.03947E+01 3.53641E-02 8.41365E-04 1.96545E-01-4.01189E-14-2.48471E-13
 -1      1880 2.04722E+01 3.84927E-02 2.50843E-03 2.18297E-01-3.21235E-14-3.19120E-13
 -1      1881 2.03291E+01 5.09337E-02-1.21331E-03 2.35598E-01-3.99151E-14-1.18346E-13
 -1      1882 2.05353E+01 4.03506E-02 9.02425E-04 2.48039E-01 1.97206E-14-2.94724E-13
 -1      1883 2.06310E+01 4.25346E-02 2.62480E-03 2.72365E-01 2.26134E-14-2.48338E-13
 -1      1884 2.04442E+01 5.86659E-02-1.37140E-03 2.97969E-01 1.21360E-14-2.19777E-13
 -1      1885 2.07076E+01 4.30650E-02 8.96776E-04 3.04421E-01-1.60767E-14-3.63523E-13
 -1      1886 2.08222E+01 4.32403E-02 2.44843E-03 3.29630E-01-4.91483E-14-3.50089E-13
 -1      1887 2.05851E+01 6.34259E-02-1.48597E-03 3.67164E-01-5.01952E-14-2.88982E-13
 -1      1888 2.09131E+01 4.13316E-02 7.95695E-04 3.61079E-01-3.73939E-14-3.38433E-13
 -1      1889 2.10452E+01 3.79093E-02 1.79515E-03 3.84048E-01-3.65735E-14-2.90831E-13
 -1      1890 2.07540E+01 6.21952E-02-1.52725E-03 4.38310E-01-3.82859E-14-2.72326E-13
 -1      1891 2.11499E+01 3.19844E-02 5.70381E-04 4.09886E-01-4.21910E-14-3.06853E-13
 -1      1892 2.12948E+01 2.27823E-02 4.38679E-04 4.25475E-01 3.01405E-14-2.71973E-13
 -1      1893 2.09508E+01 5.05391E-02-1.45714E-03 5.02674E-01-7.77541E-15-2.67650E-13
 -1      1894 2.14112E+01 1.08078E-02 1.98660E-04 4.37916E-01 2.77813E-14-2.69189E-13
 -1      1895 2.15592E+01-6.83228E-03-1.85171E-03 4.38422E-01 1.87819E-14-1.61844E-13
 -1      1896 2.11727E+01 2.24792E-02-1.22547E-03 5.46202E-01 8.68331E-14-1.91986E-13
 -1      1897 2.16828E+01-2.70862E-02-3.29284E-04 4.26383E-01 3.33112E-14-6.17481E-14
 -1      1898 2.18175E+01-5.57369E-02-5.21871E-03 4.01372E-01 5.71730E-14-3.49005E-15
 -1      1899 2.14126E+01-2.90607E-02-7.60321E-04 5.48193E-01 7.65223E-14-7.10444E-14
 -1      1900 2.19404E+01-8.59100E-02-1.01445E-03 3.50677E-01 8.83195E-14-6.23356E-14
 -1      1901 2.20376E+01-1.26670E-01-9.54306E-03 2.87858E-01 2.00172E-13 6.25997E-15
 -1      1902 2.16573E+01-1.10522E-01 5.15743E-05 4.80926E-01 6.47210E-14 7.34146E-15
 -1      1903 2.21467E+01-1.66146E-01-1.87177E-03 1.83171E-01 1.16749E-13-7.18197E-14
 -1      1904 2.21753E+01-2.16072E-01-1.41882E-02 7.13659E-02 1.02670E-14-1.64103E-13
 -1      1905 2.18854E+01-2.23662E-01 1.38988E-03 3.11867E-01 8.88456E-14-1.66610E-13
 -1      1906 2.22509E+01-2.59280E-01-2.96620E-03-9.86978E-02-8.85229E-14-1.99957E-13
 -1      1907 2.21763E+01-3.07871E-01-1.77414E-02-2.63377E-01-1.10455E-13-1.11102E-13
 -1      1908 2.20640E+01-3.58421E-01 3.49343E-03 1.10649E-02-8.01364E-14-1.97673E-13
 -1      1909 2.21909E+01-3.41263E-01-4.39263E-03-4.96714E-01-1.47983E-13-1.02412E-13
 -1      1910 2.19843E+01-3.67911E-01-1.80527E-02-7.01416E-01-1.66551E-13-1.62240E-13
 -1      1911 2.21473E+01-4.83757E-01 6.52931E-03-4.33256E-01-1.01527E-13-1.60736E-13
 -1      1912 2.19049E+01-3.69371E-01-6.19954E-03-9.69244E-01-1.19101E-13-1.12108E-13
 -1      1913 2.15579E+01-3.46378E-01-1.30323E-02-1.17495E+00-1.23928E-13-1.32331E-13
 -1      1914 2.20772E+01-5.42047E-01 1.01303E-02-9.89951E-01-1.16345E-13-9.02499E-14
 -1      1915 2.13581E+01-2.92025E-01-7.74377E-03-1.41165E+00-1.51937E-13-1.14641E-13
 -1      1916 2.08976E+01-1.99076E-01-2.43710E-03-1.55244E+00-1.37381E-13-1.93298E-13
 -1      1917 2.17972E+01-4.60504E-01 1.25312E-02-1.55796E+00-1.48124E-13 4.25883E-14
 -1      1918 2.05826E+01-8.14707E-02-7.27684E-03-1.66367E+00-2.27882E-14-1.34726E-13
 -1      1919 2.00791E+01 7.04798E-02 1.01057E-02-1.66684E+00 8.32819E-15-6.40304E-14
 -1      1920 2.12860E+01-1.91910E-01 1.06295E-02-1.95982E+00-1.42386E-14 1.04316E-13
 -1      1921 1.97109E+01 2.21484E-01-2.79603E-03-1.57051E+00-9.87626E-14-1.30200E-14
 -1      1922 1.92654E+01 3.76962E-01 1.80991E-02-1.39913E+00-1.20101E-13-1.08690E-13
 -1      1923 2.06073E+01 2.25172E-01 1.95822E-03-1.99193E+00-1.03137E-13 7.58686E-14
 -1      1924 1.89571E+01 4.95739E-01 6.57806E-03-1.08804E+00-9.66414E-14-2.98138E-14
 -1      1925 1.86661E+01 5.77567E-01 1.72762E-02-7.80213E-01 2.01329E-13 1.59648E-13
 -1      1926 1.99327E+01 6.39656E-01-1.07674E-02-1.54303E+00 1.62856E-14 3.41406E-13
 -1      1927 1.85215E+01 6.00871E-01 1.69190E-02-3.54962E-01 3.69453E-13 4.86612E-15
 -1      1928 1.84363E+01 5.66912E-01 9.85664E-03-1.97374E-02 3.34293E-13 9.78054E-14
 -1      1929 1.94790E+01 8.56505E-01-1.80857E-02-7.12956E-01 2.20103E-13 4.11324E-13
 -1      1930 1.84711E+01 4.88860E-01 2.13672E-02 3.58535E-01 1.80111E-13 7.91337E-14
 -1      1931 1.85765E+01 3.69593E-01 2.48232E-03 6.05510E-01 1.85417E-13 1.90140E-13
 -1      1932 1.93686E+01 7.74220E-01-1.32666E-02 1.93084E-01 3.37714E-13 1.51229E-13
 -1      1933 1.87097E+01 2.45394E-01 1.60625E-02 8.18456E-01 2.19900E-13 2.29275E-13
 -1      1934 1.89375E+01 1.16048E-01-8.59493E-04 9.23243E-01 2.75177E-13 2.13288E-13
 -1      1935 1.95350E+01 4.63823E-01-2.16053E-03 8.48617E-01 2.47555E-13 2.80518E-13
 -1      1936 1.90612E+01 1.49612E-02 4.57541E-03 9.58436E-01 1.57501E-13 1.51776E-13
 -1      1937 1.93297E+01-6.53960E-02 1.19343E-04 9.44532E-01 2.18317E-13 6.02435E-14
 -1      1938 1.97891E+01 1.15567E-01 6.86503E-03 1.10736E+00 1.95649E-13 3.53563E-14
 -1      1939 1.93839E+01-1.14619E-01-5.74661E-03 8.72515E-01 2.05541E-13-4.54949E-14
 -1      1940 1.96279E+01-1.41488E-01 2.28905E-03 7.95582E-01 8.76868E-14 2.78944E-14
 -1      1941 1.99616E+01-1.19528E-01 7.81799E-03 1.04555E+00 6.70717E-14-2.97273E-13
 -1      1942 1.96062E+01-1.61821E-01-8.83873E-03 7.04517E-01 4.32753E-14 3.03811E-14
 -1      1943 1.98026E+01-1.87736E-01 2.18185E-03 5.92447E-01-6.23633E-15-8.69164E-14
 -1      1944 1.99584E+01-2.81638E-01 6.03180E-03 6.48441E-01-1.24016E-13-3.70604E-13
 -1      1945 1.99959E+01-2.09470E-01 1.11801E-02 8.51365E-01 2.05339E-14-2.31281E-13
 -1      1946 1.96217E+01 1.42056E-01 7.88606E-03 2.58925E-01 1.17949E-13 6.35532E-13
 -1      1947 1.98936E+01 2.04114E-01 1.64351E-02 4.31944E-01 1.16166E-13 6.78483E-13
 -1      1948 2.01049E+01 3.50570E-01-1.53395E-03 6.54413E-01 1.36176E-13 5.43740E-13
 -1      1949 1.93797E+01 7.19329E-02 6.95121E-03 5.59198E-02 5.95296E-14 5.78905E-13
 -1      1950 1.94945E+01 1.01819E-01 1.41966E-02 1.44458E-01 6.87670E-14 6.06994E-13
 -1      1951 1.97125E+01 1.65213E-01-1.94399E-03 2.55622E-01 9.59901E-14 4.93035E-13
 -1      1952 1.92896E+01 3.61678E-02 4.43297E-03-4.95709E-02 4.55413E-14 5.58228E-13
 -1      1953 1.93195E+01 5.19830E-02 8.33670E-03-2.33979E-03 4.63908E-14 5.51735E-13
 -1      1954 1.95125E+01 8.07061E-02-2.82392E-03 4.36036E-02 6.24435E-14 4.36759E-13
 -1      1955 1.92882E+01 1.62181E-02 2.86345E-03-1.02086E-01 1.54178E-14 5.03310E-13
 -1      1956 1.92728E+01 2.50861E-02 4.35124E-03-7.74432E-02 3.04446E-14 5.51283E-13
 -1      1957 1.94337E+01 3.74994E-02-2.84055E-03-6.83276E-02 3.31647E-14 3.93431E-13
 -1      1958 1.93357E+01 4.56990E-03 1.98770E-03-1.24175E-01 7.81130E-14 4.56877E-13
 -1      1959 1.92972E+01 9.61054E-03 2.14489E-03-1.12736E-01 4.28006E-14 4.81640E-13
 -1      1960 1.94274E+01 1.36513E-02-2.31086E-03-1.23885E-01 5.86915E-14 3.27312E-13
 -1      1961 1.94074E+01-2.23513E-03 1.44443E-03-1.28353E-01 9.44351E-14 4.50842E-13
 -1      1962 1.93588E+01 5.17951E-04 9.45223E-04-1.24856E-01 1.05538E-13 4.63215E-13
 -1      1963 1.94621E+01 4.55291E-05-1.69090E-03-1.46401E-01 9.36552E-14 2.92490E-13
 -1      1964 1.94880E+01-6.02427E-03 1.06207E-03-1.22156E-01 6.10825E-14 3.43833E-13
 -1      1965 1.94370E+01-4.69404E-03 2.71568E-04-1.23393E-01 6.48095E-14 4.23870E-13
 -1      1966 1.95178E+01-7.58231E-03-1.16836E-03-1.49340E-01 9.21614E-14 3.37528E-13
 -1      1967 1.95684E+01-7.87243E-03 7.76433E-04-1.10343E-01 8.69677E-15 3.52802E-13
 -1      1968 1.95194E+01-7.43886E-03-1.12154E-04-1.14260E-01 2.82608E-14 3.28147E-13
 -1      1969 1.95818E+01-1.15110E-02-7.75965E-04-1.40980E-01 5.98448E-14 2.73654E-13
 -1      1970 1.96432E+01-8.46149E-03 5.60637E-04-9.59907E-02 1.77201E-14 3.88450E-13
 -1      1971 1.95987E+01-8.58613E-03-3.21041E-04-1.01239E-01 2.66310E-14 3.71026E-13
 -1      1972 1.96463E+01-1.30879E-02-4.94978E-04-1.26609E-01 1.00292E-14 2.49661E-13
 -1      1973 1.97098E+01-8.24185E-03 3.99569E-04-8.10932E-02 1.83347E-14 4.02062E-13
 -1      1974 1.96709E+01-8.70128E-03-4.18310E-04-8.67841E-02 3.37874E-14 3.93107E-13
 -1      1975 1.97068E+01-1.31667E-02-2.99681E-04-1.09664E-01 2.69271E-14 2.73069E-13
 -1      1976 1.97671E+01-7.51352E-03 2.82816E-04-6.69250E-02 7.39051E-14 3.07878E-13
 -1      1977 1.97341E+01-8.16050E-03-4.42835E-04-7.24774E-02 5.88360E-14 3.75687E-13
 -1      1978 1.97610E+01-1.23065E-02-1.68546E-04-9.23765E-02 6.04726E-14 2.63815E-13
 -1      1979 1.98154E+01-6.47099E-03 2.02877E-04-5.42867E-02 5.24796E-14 2.34986E-13
 -1      1980 1.97880E+01-7.21167E-03-4.19897E-04-5.93245E-02 5.49283E-14 2.80055E-13
 -1      1981 1.98081E+01-1.08735E-02-8.54584E-05-7.61803E-02 7.53144E-14 2.57402E-13
 -1      1982 1.98557E+01-5.23057E-03 1.54578E-04-4.36791E-02-1.59272E-14 2.86000E-13
 -1      1983 1.98332E+01-6.00984E-03-3.65955E-04-4.79565E-02 1.85450E-15 2.50461E-13
 -1      1984 1.98482E+01-9.09709E-03-3.88518E-05-6.19864E-02 1.96169E-14 2.59573E-13
 -1      1985 1.98893E+01-3.84888E-03 1.34789E-04-3.54330E-02 1.07734E-13 2.22754E-13
 -1      1986 1.98708E+01-4.64013E-03-2.91235E-04-3.87783E-02 2.96910E-14 2.52626E-13
 -1      1987 1.98822E+01-7.10493E-03-2.07493E-05-5.03843E-02 5.09825E-14 1.28025E-13
 -1      1988 1.99182E+01-2.33561E-03 1.42310E-04-2.98090E-02 1.37967E-13 2.28408E-13
 -1      1989 1.99025E+01-3.13356E-03-2.01373E-04-3.20811E-02 1.10421E-13 2.28697E-13
 -1      1990 1.99113E+01-4.94680E-03-2.59562E-05-4.17917E-02 1.32506E-13 1.74269E-13
 -1      1991 1.99445E+01-6.62322E-04 1.77817E-04-2.70761E-02 3.63835E-14 2.00752E-13
 -1      1992 1.99304E+01-1.47780E-03-9.85552E-05-2.81287E-02 1.52152E-13 2.59397E-13
 -1      1993 1.99374E+01-2.61083E-03-5.15560E-05-3.65704E-02 1.49452E-13 2.05939E-13
 -1      1994 1.99706E+01 1.23169E-03 2.43885E-04-2.75762E-02-9.74748E-14 1.40379E-13
 -1      1995 1.99568E+01 3.75321E-04 1.76875E-05-2.72285E-02-6.07938E-14 1.48256E-13
 -1      1996 1.99624E+01-3.45380E-05-9.65233E-05-3.51186E-02-1.78401E-14 1.82987E-13
 -1      1997 1.99994E+01 3.43566E-03 3.45063E-04-3.17789E-02-1.36415E-13 2.44669E-13
 -1      1998 1.99842E+01 2.50508E-03 1.49878E-04-2.97891E-02-8.32902E-14 1.67189E-13
 -1      1999 1.99886E+01 2.88783E-03-1.61411E-04-3.79469E-02-8.93116E-14 1.38035E-13
 -1      2000 2.00344E+01 6.06521E-03 4.87965E-04-4.03298E-02-1.20451E-13 2.06457E-13
 -1      2001 2.00159E+01 5.01885E-03 3.02118E-04-3.63712E-02-1.43530E-13 1.63880E-13
 -1      2002 2.00187E+01 6.30082E-03-2.48103E-04-4.57426E-02-1.17637E-13 1.21947E-13
 -1      2003 2.00795E+01 9.26097E-03 6.81284E-04-5.40942E-02 2.33213E-13 2.09792E-13
 -1      2004 2.00554E+01 8.05040E-03 4.79635E-04-4.77321E-02 3.78345E-14 2.33300E-13
 -1      2005 2.00561E+01 1.03851E-02-3.59605E-04-5.94266E-02 3.27505E-14 4.26934E-14
 -1      2006 2.01393E+01 1.31866E-02 9.35608E-04-7.41971E-02 5.56371E-14 2.19568E-13
 -1      2007 2.01070E+01 1.17583E-02 6.88253E-04-6.48663E-02 1.92371E-13 2.73704E-13
 -1      2008 2.01045E+01 1.53550E-02-4.99820E-04-8.02032E-02 1.52356E-13 1.28730E-13
 -1      2009 2.02198E+01 1.80235E-02 1.26270E-03-1.02054E-01-7.12560E-14 2.03588E-13
 -1      2010 2.01760E+01 1.63220E-02 9.33591E-04-8.90394E-02-6.50722E-14 1.87935E-13
 -1      2011 2.01684E+01 2.14540E-02-6.73327E-04-1.09601E-01-5.89258E-15 1.54173E-13
 -1      2012 2.03277E+01 2.39575E-02 1.67363E-03-1.39385E-01-9.50071E-14 4.14843E-13
 -1      2013 2.02684E+01 2.19331E-02 1.21970E-03-1.21808E-01-7.14567E-14 2.92315E-13
 -1      2014 2.02531E+01 2.89424E-02-8.85122E-04-1.49494E-01-1.29052E-13 2.12714E-13
 -1      2015 2.04712E+01 3.11467E-02 2.17468E-03-1.88187E-01-2.79761E-14 4.26712E-13
 -1      2016 2.03917E+01 2.87712E-02 1.54661E-03-1.65009E-01-1.85169E-14 4.52132E-13
 -1      2017 2.03651E+01 3.80672E-02-1.14040E-03-2.02095E-01-4.40441E-14 2.83444E-13
 -1      2018 2.06597E+01 3.96523E-02 2.75893E-03-2.50617E-01 4.58425E-14 4.82023E-13
 -1      2019 2.05544E+01 3.69530E-02 1.90600E-03-2.20684E-01 1.02615E-14 4.61942E-13
 -1      2020 2.05115E+01 4.89943E-02-1.44444E-03-2.69854E-01 3.91620E-14 2.66876E-13
 -1      2021 2.09037E+01 4.92963E-02 3.39060E-03-3.28703E-01 3.98136E-14 4.78547E-13
 -1      2022 2.07663E+01 4.64242E-02 2.27381E-03-2.90872E-01-8.21305E-15 4.66055E-13
 -1      2023 2.07006E+01 6.16669E-02-1.80284E-03-3.55224E-01 3.76695E-14 4.25891E-13
 -1      2024 2.12144E+01 5.93868E-02 3.97805E-03-4.23702E-01-7.20821E-15 5.05432E-13
 -1      2025 2.10383E+01 5.67460E-02 2.59839E-03-3.77134E-01 1.71055E-14 5.50542E-13
 -1      2026 2.09411E+01 7.55238E-02-2.22223E-03-4.60109E-01 3.35691E-15 4.45709E-13
 -1      2027 2.16022E+01 6.82147E-02 4.33275E-03-5.34831E-01 6.31092E-15 5.06467E-13
 -1      2028 2.13811E+01 6.66954E-02 2.78402E-03-4.79607E-01 4.85454E-14 5.37124E-13
 -1      2029 2.12418E+01 8.89708E-02-2.71100E-03-5.84776E-01 4.45668E-14 5.27420E-13
 -1      2030 2.20742E+01 7.22019E-02 4.11909E-03-6.56915E-01-2.55201E-13 5.30672E-13
 -1      2031 2.18043E+01 7.35645E-02 2.67292E-03-5.95200E-01-9.76988E-14 5.02517E-13
 -1      2032 2.16101E+01 9.84522E-02-3.27720E-03-7.25813E-01-8.82458E-14 5.86389E-13
 -1      2033 2.26301E+01 6.46296E-02 2.82251E-03-7.76331E-01-1.63715E-13 4.44549E-13
 -1      2034 2.23126E+01 7.20484E-02 2.03923E-03-7.14443E-01-3.16771E-13 3.79970E-13
 -1      2035 2.20503E+01 9.69753E-02-3.91435E-03-8.72569E-01-2.55367E-13 3.49391E-13
 -1      2036 2.32549E+01 3.41886E-02-1.89928E-04-8.64769E-01 1.41057E-14 6.81252E-13
 -1      2037 2.29015E+01 5.27742E-02 6.22151E-04-8.16438E-01-1.15787E-13 5.17247E-13
 -1      2038 2.25603E+01 7.21540E-02-4.55564E-03-1.00147E+00-1.96859E-13 2.47170E-13
 -1      2039 2.39095E+01-3.54006E-02-5.37287E-03-8.71329E-01 1.20951E-13 7.14097E-13
 -1      2040 2.35495E+01 1.16507E-03-1.75913E-03-8.61945E-01 1.64415E-13 8.17724E-13
 -1      2041 2.31269E+01 4.66262E-03-4.96517E-03-1.06815E+00 6.02628E-14 4.82637E-13
 -1      2042 2.45191E+01-1.61146E-01-1.22854E-02-7.16914E-01 2.75278E-13 7.38785E-13
 -1      2043 2.42069E+01-1.00988E-01-5.01623E-03-7.86759E-01 1.91749E-13 7.39409E-13
 -1      2044 2.37200E+01-1.29773E-01-4.54082E-03-9.99606E-01 2.13444E-13 5.03879E-13
 -1      2045 2.49629E+01-3.45350E-01-1.85781E-02-3.03093E-01 2.24954E-13 5.41617E-13
 -1      2046 2.47819E+01-2.65623E-01-8.56984E-03-5.03028E-01 2.52770E-13 7.37601E-13
 -1      2047 2.42828E+01-3.47652E-01-2.07009E-03-6.93967E-01 2.95687E-13 7.54396E-13
 -1      2048 2.50761E+01-5.44166E-01-1.95666E-02 4.43044E-01-5.26263E-14 3.73286E-13
 -1      2049 2.51295E+01-4.73882E-01-1.15343E-02 7.46421E-02 9.02056E-15 3.84510E-13
 -1      2050 2.47187E+01-6.26153E-01 3.91043E-03-4.63953E-02 1.44058E-13 6.29394E-13
 -1      2051 2.46762E+01-6.30601E-01-1.11237E-02 1.46353E+00 1.32248E-13 4.82871E-13
 -1      2052 2.50537E+01-6.35855E-01-1.33708E-02 9.56042E-01-3.30985E-15 5.15428E-13
 -1      2053 2.48789E+01-8.50966E-01 1.37846E-02 9.74128E-01-2.33164E-14 4.35982E-13
 -1      2054 2.36448E+01-4.21434E-01 1.14463E-03 2.42920E+00-5.97673E-14 6.49800E-13
 -1      2055 2.43634E+01-5.75678E-01-1.47344E-02 1.95088E+00 6.07327E-14 5.39232E-13
 -1      2056 2.45742E+01-7.95945E-01 2.23544E-02 2.18197E+00-3.79557E-15 4.74312E-13
 -1      2057 2.21026E+01 1.37983E-01-1.98801E-03 2.75201E+00 4.05596E-14 5.36685E-13
 -1      2058 2.30366E+01-1.46898E-01-1.70603E-02 2.59353E+00-2.75097E-14 5.45508E-13
 -1      2059 2.36908E+01-2.66638E-01 1.36813E-02 3.05880E+00-2.17760E-14 4.92460E-13
 -1      2060 2.05444E+01 7.87271E-01-2.76659E-02 1.98853E+00 7.34031E-14 2.43345E-13
 -1      2061 2.14220E+01 5.32257E-01-1.55755E-02 2.35458E+00 5.26038E-14 3.29604E-13
 -1      2062 2.24261E+01 6.16424E-01-1.83350E-02 2.93064E+00 1.49845E-13 3.15633E-13
 -1      2063 1.97106E+01 9.82181E-01-5.02865E-02 3.77002E-01-2.59584E-14 2.39052E-13
 -1      2064 2.01787E+01 9.99653E-01-5.14653E-03 1.11587E+00 4.76702E-14 2.84041E-13
 -1      2065 2.13549E+01 1.34405E+00-3.25270E-02 1.55819E+00 4.55400E-14 1.97085E-13
 -1      2066 1.98854E+01 5.57777E-01-4.19582E-02-1.01870E+00 2.57655E-13 1.98681E-13
 -1      2067 1.98282E+01 8.14097E-01 2.89202E-03-4.03849E-01 1.41942E-13 2.19987E-13
 -1      2068 2.10374E+01 1.22585E+00-3.07748E-02-2.93958E-01 2.02650E-13 3.22128E-13
 -1      2069 2.06028E+01-6.99391E-02-8.03278E-03-1.45067E+00 7.41629E-14 2.33053E-13
 -1      2070 2.02068E+01 2.10524E-01 2.93330E-03-1.27198E+00 1.70090E-13 3.60021E-13
 -1      2071 2.13632E+01 4.74767E-01-1.48293E-03-1.44289E+00 1.65923E-13 5.31446E-13
 -1      2072 2.11517E+01-4.30182E-01 2.16983E-02-9.65547E-01 2.41868E-13 1.40252E-13
 -1      2073 2.07522E+01-3.22236E-01-7.60159E-03-1.17158E+00 9.18987E-14 2.01030E-13
 -1      2074 2.17434E+01-3.24083E-01 8.49566E-03-1.40561E+00 7.71963E-14 3.00704E-13
 -1      2075 2.11831E+01-3.88640E-01 3.18454E-02-1.98684E-01 8.26405E-14 1.25163E-13
 -1      2076 2.10004E+01-4.59433E-01-1.27933E-02-5.09614E-01 2.02454E-13 1.88899E-13
 -1      2077 2.17288E+01-6.40971E-01 5.23399E-04-6.26186E-01 2.10417E-13 1.40008E-13
 -1      2078 2.07898E+01-1.02452E-01 2.65766E-02 2.64993E-01 3.64087E-13-2.51812E-14
 -1      2079 2.08379E+01-2.57759E-01-1.04009E-02 1.02523E-01 2.62197E-13 1.92019E-13
 -1      2080 2.12947E+01-4.44858E-01-9.05103E-03 1.42996E-01 2.55853E-13 1.29312E-13
 -1      2081 2.03856E+01 1.21631E-01 1.56435E-02 3.03256E-01 2.53486E-14 4.75158E-14
 -1      2082 2.05389E+01-2.48441E-02-1.08388E-02 3.25558E-01 1.25294E-13 6.26062E-15
 -1      2083 2.08126E+01-1.23109E-01-1.46596E-02 4.55895E-01 2.49763E-13 2.79953E-13
 -1      2084 2.04496E+01 2.40627E-01 1.70675E-02 4.35631E-01 2.49366E-14 4.00454E-13
 -1      2085 2.06706E+01 2.54915E+00-1.68529E-04 3.32852E+00 2.76470E-13 9.68149E-15
 -1      2086 2.09141E+01 1.62630E+00 1.72418E-02 2.89205E+00 1.39099E-13-1.27457E-13
 -1      2087 2.09775E+01 1.27269E+00 2.65639E-02 2.22232E+00-6.85407E-14 9.81923E-14
 -1      2088 2.09413E+01 6.34595E-01 3.47132E-03 1.69354E+00-9.60022E-14 4.71565E-13
 -1      2089 2.13599E+01 5.01009E-01-2.45601E-02 3.05993E+00-7.31006E-14 2.23630E-13
 -1      2090 2.07798E+01 6.23259E-01 3.27805E-02 1.16346E+00 1.27598E-14 3.74974E-13
 -1      2091 2.06306E+01 2.77403E-01 6.98844E-03 7.68769E-01-3.14479E-14 3.25781E-13
 -1      2092 2.08392E+01 1.14565E-01 7.00271E-04 8.34314E-01 6.47030E-14 2.71196E-13
 -1      2093 2.13174E+01 1.56397E-01 2.37602E-03 1.74924E+00-1.83808E-13 3.62294E-13
 -1      2094 1.97114E+01 4.27793E+00-4.25795E-02 3.68518E+00 2.42847E-13 2.72490E-14
 -1      2095 2.02819E+01 3.27196E+00 3.69344E-02 3.69251E+00 2.53863E-13 1.18214E-13
 -1      2096 2.06364E+01 1.54105E+00-1.75410E-02 4.27451E+00 3.15342E-13 6.62673E-14
 -1      2097 1.84772E+01 5.96223E+00-6.10223E-02 2.60139E+00 1.26765E-13 1.72577E-13
 -1      2098 1.90947E+01 5.20258E+00 3.48673E-02 3.28608E+00 9.48824E-14 6.01602E-15
 -1      2099 1.90902E+01 3.15858E+00 2.57572E-02 4.30958E+00 1.51594E-13 4.87457E-15
 -1      2100 1.78230E+01 6.75736E+00-3.36460E-02 2.23431E-01-8.68481E-14 1.52725E-14
 -1      2101 1.80310E+01 6.57353E+00 9.03892E-04 1.36932E+00 1.00180E-14 2.37629E-13
 -1      2102 1.74644E+01 4.69451E+00 8.51685E-02 2.49813E+00-1.18638E-13 1.08538E-13
 -1      2103 1.82805E+01 6.11681E+00 1.20513E-02-2.39330E+00 8.93834E-14-2.23987E-13
 -1      2104 1.79121E+01 6.61155E+00-4.24652E-02-1.32402E+00 8.20871E-15-1.38556E-13
 -1      2105 1.69236E+01 5.16721E+00 1.11579E-01-6.83453E-01-9.86043E-14 5.66838E-14
 -1      2106 1.94648E+01 4.34786E+00 3.74315E-02-3.87405E+00 2.61825E-13 2.12330E-14
 -1      2107 1.88252E+01 5.30616E+00-5.75297E-02-3.40247E+00 3.22312E-13-4.99600E-16
 -1      2108 1.78879E+01 4.19104E+00 7.25802E-02-3.60249E+00 1.63549E-13 4.43950E-14
 -1      2109 2.05537E+01 2.28370E+00 3.30173E-02-3.85083E+00 2.36334E-13 4.43696E-13
 -1      2110 2.00535E+01 3.38965E+00-3.01732E-02-4.01527E+00 2.25913E-13 2.65367E-13
 -1      2111 1.95947E+01 2.42665E+00 5.88351E-03-4.85128E+00 2.55837E-13 9.89729E-14
 -1      2112 2.10483E+01 6.83506E-01 2.00074E-02-2.79499E+00 2.73242E-13 3.78877E-13
 -1      2113 2.08703E+01 1.60859E+00 1.22898E-02-3.32594E+00 1.64308E-13 5.54858E-13
 -1      2114 2.09962E+01 8.26921E-01-2.45620E-02-4.34414E+00 1.06391E-14 4.44389E-13
 -1      2115 2.10138E+01-2.31270E-01 9.80716E-03-1.46335E+00 1.11547E-13-3.22508E-13
 -1      2116 2.10821E+01 3.61596E-01 3.89837E-02-2.04842E+00 2.95295E-13-6.11646E-14
 -1      2117 2.15519E+01-1.41715E-01-2.24670E-02-2.89480E+00 1.73649E-13 9.76884E-14
 -1      2118 2.07138E+01-5.71417E-01 3.17219E-03-3.59121E-01-2.75162E-14-1.07319E-13
 -1      2119 2.08905E+01-3.08058E-01 4.31854E-02-8.11442E-01 1.33135E-14-3.06900E-13
 -1      2120 2.14139E+01-5.40085E-01-1.25371E-02-1.35112E+00 4.28445E-14-3.84554E-13
 -1      2121 2.03253E+01-5.38287E-01-1.01278E-03 3.34374E-01-7.12763E-14-2.63559E-13
 -1      2122 2.05410E+01-5.18385E-01 3.45547E-02 6.67010E-02 3.97321E-14 5.01231E-14
 -1      2123 2.09420E+01-5.82512E-01-5.79368E-03-1.78492E-01 8.20251E-14 4.19855E-14
 -1      2124 1.28344E+01-6.43065E+00-1.69433E-01 7.89231E+00 1.39333E-13 7.70703E-14
 -1      2125 8.72305E+00-7.89167E+00-3.71618E-01 6.74754E+00 2.96208E-13 3.85803E-14
 -1      2126 3.75835E-01-8.70967E+00-5.20899E-01 8.58959E-01 2.42278E-13 2.13940E-13
 -1      2127 3.10679E-01-9.02547E+00-5.70414E-01-1.04806E+00-1.39055E-14 3.69205E-13
 -1      2128 4.97413E+00-6.85992E+00-2.18668E-01 5.54228E+00 4.34208E-13 5.18696E-13
 -1      2129 2.42519E+00-8.09420E+00-4.40202E-01 3.27413E+00 3.45501E-13 2.80720E-13
 -1      2130 2.24738E+01-3.90481E+00 7.03089E-02 8.14240E+00 1.39000E-13-1.27010E-13
 -1      2131 1.74185E+01-6.28907E+00-3.00610E-01 7.42169E+00-9.11493E-14 2.52576E-15
 -1      2132 3.13690E+01-8.65009E-02 2.45525E-01 7.15987E+00 4.70290E-13 1.88849E-13
 -1      2133 2.58934E+01-2.40169E+00-1.40650E-01 6.90891E+00 4.54858E-13 1.34337E-14
 -1      2134 1.95239E+01 4.01769E+00-2.49901E-02-1.69936E+00-1.65124E-14-3.08503E-13
 -1      2135 1.96483E+01 3.94396E+00-2.46543E-02-1.95568E+00-4.87379E-14-3.03296E-13
 -1      2136 1.99644E+01 3.23751E+00-1.87401E-02-1.92517E+00-7.41187E-14-2.78232E-13
 -1      2137 1.96950E+01 3.58963E+00-6.67885E-03-1.51968E+00-6.61797E-16-2.82193E-13
 -1      2138 4.23721E+01 6.69111E+00 3.97283E-01 2.54719E+00 2.87992E-13 3.29847E-13
 -1      2139 4.01216E+01 5.51345E+00 2.80785E-01 3.54032E+00 3.30208E-13 3.40172E-13
 -1      2140 4.39260E+01 7.67855E+00 4.76390E-01 1.11747E+00 3.25462E-13 5.08552E-13
 -1      2141 4.26310E+01 7.81645E+00 3.39173E-01 2.07804E+00 4.18443E-13 4.97907E-13
 -1      2142 4.17422E+01 6.26354E+00 2.96521E-01-2.67550E-01-7.68274E-14 2.67064E-13
 -1      2143 4.41229E+01 7.11082E+00 5.10793E-01 7.55286E-01 1.67921E-13 5.02598E-13
 -1      2144 3.89836E+01 8.48939E+00 4.31767E-01 1.45253E+00 1.64813E-13 7.73367E-13
 -1      2145 3.61654E+01 2.44352E+00 1.31699E-01-1.45561E+00-1.39375E-13 1.58540E-13
 -1      2146 4.07777E+01 4.50707E+00 5.07309E-01-1.24262E+00-2.01700E-13 2.01172E-13
 -1      2147 2.79814E+01-2.38769E+00-1.13858E-01-4.03611E+00 2.33147E-15 5.52891E-14
 -1      2148 3.27027E+01-9.11036E-01-1.63218E-03-2.78412E+00-2.69507E-14 1.94955E-13
 -1      2149 1.96346E+01-5.35784E+00-2.91849E-01-5.28341E+00-1.88516E-13-1.86851E-13
 -1      2150 2.49115E+01-3.34532E+00 5.32141E-02-5.66695E+00-2.88214E-13-3.79252E-13
 -1      2151 2.82099E+01-4.56920E+00 1.28207E-01-3.13303E+00-1.63203E-13 1.87073E-14
 -1      2152 1.14708E+01-7.65802E+00-2.75998E-01-5.57491E+00 3.26239E-13 4.77922E-13
 -1      2153 1.56999E+01-6.01673E+00-9.46381E-02-6.26183E+00 5.50671E-14 3.55604E-13
 -1      2154 3.22507E+00-8.96072E+00-4.46670E-01-3.47625E+00 4.32043E-13 5.10925E-13
 -1      2155 6.50679E+00-7.32839E+00-1.84856E-01-5.20778E+00 3.23019E-13 6.53450E-13
 -1      2156-9.29983E-02-9.27537E+00-4.55242E-01-6.22326E-01 2.11553E-13 7.01661E-14
 -1      2157 9.20181E-01-8.79192E+00-3.75998E-01-2.06764E+00 2.41029E-13 3.76976E-13
 -1      2158 8.16907E-01-8.40909E+00-3.51882E-01 2.67754E+00 1.96287E-13-7.36633E-13
 -1      2159-1.70482E-01-9.34855E+00-4.75128E-01 1.16122E+00 2.05218E-13-3.09641E-13
 -1      2160 6.56644E+00-7.08044E+00-1.99847E-01 5.77087E+00 2.50244E-13-4.57162E-13
 -1      2161 3.71666E+00-8.22276E+00-3.49685E-01 4.48852E+00 3.21021E-13-6.24834E-13
 -1      2162 1.48921E+01-5.95641E+00-1.35184E-01 7.10641E+00 2.19269E-13-1.15297E-13
 -1      2163 1.00085E+01-7.44145E+00-3.67276E-01 6.06524E+00 3.19300E-13-3.82639E-13
 -1      2164 1.09100E+01-6.40565E+00 8.57989E-03 7.05964E+00 3.03535E-13-3.93630E-13
 -1      2165 2.46071E+01-2.45627E+00 1.57895E-01 6.58937E+00-4.02456E-14-2.66842E-13
 -1      2166 2.02214E+01-4.87175E+00-7.92262E-02 6.31331E+00 7.90479E-14-9.07607E-14
 -1      2167 3.20311E+01 5.40260E-01 2.13950E-01 5.32340E+00-6.51146E-14-4.02012E-13
 -1      2168 2.71462E+01-1.39447E+00-1.21098E-01 5.42768E+00-9.57012E-14-1.91736E-13
 -1      2169 2.75666E+01-3.81452E+00 6.01397E-02 4.37491E+00 5.00711E-14-1.92735E-13
 -1      2170 3.85611E+01 3.78428E+00 2.91720E-01 2.93634E+00-2.55074E-14-3.03868E-13
 -1      2171 3.46132E+01 2.35452E+00 4.39442E-02 3.60980E+00-2.38212E-14-2.76779E-13
 -1      2172 4.16327E+01 6.56026E+00 2.59550E-01 5.52390E-01 2.44249E-14-5.80647E-13
 -1      2173 3.98699E+01 5.45885E+00 2.21124E-01 1.99981E+00-1.87628E-14-4.27769E-13
 -1      2174 3.65636E+01 4.44313E+00 2.92874E-01-2.21428E-01 1.48992E-13-1.90292E-13
 -1      2175 4.31605E+01 7.95674E+00 3.96550E-01-1.18259E+00-2.33480E-13-7.20847E-13
 -1      2176 4.17557E+01 7.84377E+00 2.11433E-01-1.42030E-01-2.14107E-13-7.98694E-13
 -1      2177 4.24927E+01 7.10593E+00 3.54975E-01-3.07817E+00-2.17493E-13-8.77798E-13
 -1      2178 4.40421E+01 7.49560E+00 4.12869E-01-1.75964E+00-1.75193E-13-7.48096E-13
 -1      2179 3.78647E+01 4.44061E+00 1.79555E-01-4.47131E+00-3.10904E-13-7.24198E-13
 -1      2180 4.12656E+01 5.71838E+00 4.39333E-01-3.71772E+00-3.91465E-13-9.92761E-13
 -1      2181 3.16345E+01 7.29645E-01 1.63140E-02-6.01122E+00-2.72837E-13-1.17684E-13
 -1      2182 3.60920E+01 2.58122E+00 3.37939E-01-5.74272E+00-3.63751E-13-5.31131E-13
 -1      2183 2.35171E+01-2.92936E+00-1.72379E-01-7.27678E+00-6.42819E-13-4.72955E-14
 -1      2184 2.85980E+01-6.52126E-01 2.15148E-01-7.66613E+00-2.90323E-13 5.30687E-14
 -1      2185 1.49903E+01-6.37360E+00-3.51002E-01-7.47774E+00-4.22107E-13-4.19109E-15
 -1      2186 1.98155E+01-4.03876E+00 2.09509E-02-8.36942E+00-5.76983E-13-3.41893E-13
 -1      2187 6.91047E+00-8.27318E+00-4.77908E-01-6.22947E+00 1.57652E-13 7.28834E-13
 -1      2188 1.06050E+01-6.53060E+00-2.30953E-01-7.50077E+00-1.47993E-13 3.59858E-13
 -1      2189 1.88394E+00-8.59687E+00-5.37752E-01-3.20025E+00 5.82034E-14 4.97935E-13
 -1      2190 3.97399E+00-7.42655E+00-3.13670E-01-5.08378E+00 2.28151E-14 5.36293E-13
 -1      2191 3.84098E+01 3.21550E+00 3.10551E-01 4.51368E+00 5.14144E-13 3.42948E-13
 -1      2192 3.42458E+01 1.47409E+00 8.78644E-02 5.18105E+00 5.38070E-13 3.66485E-13
 -1      2193 2.65266E+01-5.07410E+00 3.26577E-02 6.60157E+00-3.35842E-14-7.28861E-14
 -1      2194 2.07371E+01 1.10846E+00-2.09073E-02-1.61522E+00-1.42525E-13-1.15706E-13
 -1      2195 3.32925E+01-1.05846E+00 2.30758E-01 3.89390E+00 4.47711E-13 1.89904E-13
 -1      2196 3.70671E+01 3.57875E+00 2.53837E-01 1.41111E+00 5.02098E-13 4.49751E-13
 -1      2197 2.06284E+01 1.33220E+00-1.78618E-02-1.67683E+00-1.50976E-13-1.64599E-13
 -1      2198 9.05050E+00-6.06088E+00-1.27215E-01 7.06669E+00 2.03060E-13 8.04912E-14
 -1      2199 3.11160E+00-5.24772E+00-1.95047E-01 2.68159E+00 2.05586E-13 4.41647E-13
 -1      2200 2.02621E+01-4.35489E-01 1.57750E-03 4.48701E-01-8.52530E-14-3.29853E-13
 -1      2201 1.80867E+01-6.83475E+00-7.26738E-02 8.30387E+00-1.55986E-13-1.01009E-13
 -1      2202 2.76217E+00-5.50623E+00-2.49607E-01-2.77203E+00 8.04079E-14 3.84803E-13
 -1      2203 7.56337E+00-6.17978E+00-1.89227E-01-6.80373E+00 1.21902E-13 5.80480E-13
 -1      2204 1.55723E+01-6.64071E+00-1.11893E-01-8.52983E+00-3.71370E-14 1.55305E-13
 -1      2205 2.41996E+01-5.17060E+00 3.89114E-02-7.40129E+00-5.10758E-13-2.51466E-14
 -1      2206 3.13236E+01-1.79080E+00 1.88139E-01-5.01178E+00-3.92270E-13-2.54741E-13
 -1      2207 3.58999E+01 2.49820E+00 2.74175E-01-2.38328E+00-4.52624E-13-6.51645E-13
 -1      2208 3.86172E+01 6.67067E+00 3.73576E-01-1.19340E+00-2.67009E-13-8.22065E-13
 -1      2209 3.78798E+01 7.82257E+00 2.56492E-01-8.81081E-01 5.00155E-14-4.46504E-13
 -1      2210 3.31654E+01 3.19031E-02 1.95545E-01 1.93423E+00 1.09891E-13-5.25135E-14
 -1      2211 1.89689E+01-6.01549E+00-1.64677E-02 6.60163E+00 1.68199E-13 5.32907E-15
 -1      2212 1.83488E+01-6.37950E+00 1.99932E-01 7.02602E+00 2.92155E-13-6.64052E-14
 -1      2213 2.25701E+01-6.45392E+00-1.93643E-01 5.82243E+00 2.45665E-13-3.85941E-14
 -1      2214 3.89121E+00-6.23771E+00-1.39914E-01 4.59439E+00 2.30371E-15-6.33660E-13
 -1      2215 9.74756E-01-6.41455E+00-2.30530E-01 2.19267E-01-1.69566E-13-1.43774E-13
 -1      2216 3.68742E+00-6.46155E+00-1.44681E-01-3.79137E+00 4.75453E-14 4.24882E-13
 -1      2217 2.07182E+01-6.86265E+00-4.79430E-02-5.55261E+00-2.32481E-13 9.04832E-14
 -1      2218 3.80421E+01 5.56944E+00 2.98379E-01 1.52516E+00-1.36113E-13 4.88776E-13
 -1      2219 3.87525E+01 7.72707E+00 3.69034E-01 1.02149E+00 3.32123E-13 6.77514E-13
 -1      2220 3.40367E+01 4.77767E-02 1.01520E-01-7.60794E-01-3.22728E-14 2.56573E-13
 -1      2221 3.38216E+01 6.33299E-01-1.45226E-01 1.69128E+00-1.51212E-13 5.71765E-13
 -1      2222 3.18782E+01-2.19992E+00 1.10118E-01 6.13376E-02-1.19502E-13 3.97737E-13
 -1      2223 1.11832E+01-7.19639E+00-1.04907E-01-6.17615E+00 1.87128E-13 5.93664E-13
 -1      2224 3.86805E+01 8.86922E+00 3.42534E-01-9.51381E-01-2.60514E-13-6.25444E-13
 -1      2225 2.01494E+01 5.06490E-01 3.73184E-03 6.77417E-01 1.40757E-13 3.99022E-13
 -1      2226 2.04171E+01 7.00018E-01 2.07819E-02 9.69043E-01 1.47580E-13 4.10969E-13
 -1      2227 1.95590E+01 3.51623E+00-1.11126E-02-5.91234E-01 9.88211E-14-2.14468E-13
 -1      2228 1.95946E+01 3.47018E+00-1.05074E-02-7.75641E-01 7.36660E-14-2.35418E-13
 -1      2229 1.96417E+01 3.38163E+00-1.27927E-02-9.39840E-01 5.91079E-14-2.39905E-13
 -1      2230 1.97028E+01 3.30101E+00-1.27686E-02-1.12970E+00 3.34933E-14-2.43485E-13
 -1      2231 1.97861E+01 3.03349E+00 3.08202E-04-7.91559E-01 6.66558E-14-2.21314E-13
 -1      2232 1.95114E+01 3.59886E+00-9.61602E-03 9.94297E-02 1.72549E-13-1.29801E-13
 -1      2233 1.95107E+01 3.59967E+00-9.62368E-03-8.00231E-02 1.42069E-13-1.50937E-13
 -1      2234 1.95377E+01 3.55944E+00-9.71811E-03 4.45418E-01 2.06412E-13-9.78505E-14
 -1      2235 1.95201E+01 3.58201E+00-1.01374E-02 2.64609E-01 1.88701E-13-1.18767E-13
 -1      2236 1.96776E+01 3.22161E+00-8.99149E-04 1.69546E-01 1.63658E-13-1.05937E-13
 -1      2237 1.95998E+01 3.46290E+00-1.06052E-02 7.89347E-01 2.35904E-13-7.53252E-14
 -1      2238 1.95633E+01 3.50991E+00-1.12080E-02 6.07925E-01 2.15936E-13-9.63413E-14
 -1      2239 1.97145E+01 3.15807E+00-5.01355E-04 4.87928E-01 1.98741E-13-8.56767E-14
 -1      2240 1.97108E+01 3.28913E+00-1.29466E-02 1.14267E+00 2.65300E-13 9.83155E-15
 -1      2241 1.96480E+01 3.37247E+00-1.28722E-02 9.53409E-01 2.49070E-13-4.31946E-14
 -1      2242 1.97919E+01 3.02439E+00 2.71976E-04 8.03566E-01 2.27401E-13-4.80497E-14
 -1      2243 1.98905E+01 3.00353E+00-1.81644E-02 1.48964E+00 2.74846E-13 8.83503E-14
 -1      2244 1.97907E+01 3.14483E+00-1.51796E-02 1.29926E+00 2.60535E-13 4.36561E-14
 -1      2245 1.99214E+01 2.79923E+00 1.96057E-03 1.10977E+00 2.51570E-13 2.69264E-14
 -1      2246 2.01695E+01 2.54391E+00-2.83953E-02 1.79398E+00 2.69183E-13 1.96090E-13
 -1      2247 2.00180E+01 2.78330E+00-1.70953E-02 1.61950E+00 2.72816E-13 1.31844E-13
 -1      2248 2.01166E+01 2.44850E+00 5.81682E-03 1.37544E+00 2.54692E-13 1.19136E-13
 -1      2249 1.98724E+01 2.68255E-01 4.73185E-03 2.84843E-01 1.03606E-13 3.50253E-13
 -1      2250 2.00330E+01 3.68027E-01 2.01699E-02 4.42007E-01 1.22994E-13 3.78334E-13
 -1      2251 2.02117E+01 6.34647E-01-2.24607E-03 7.04223E-01 1.46097E-13 2.65371E-13
 -1      2252 2.04029E+01 8.55672E-01 1.35226E-02-9.99034E-01-1.06104E-13-1.51476E-13
 -1      2253 2.01905E+01 6.27000E-01-4.67909E-03-6.91179E-01-8.18859E-14-1.40300E-13
 -1      2254 3.30250E+01-1.39092E+00-9.95046E-02 1.99482E+00 2.20770E-13 2.49800E-13
 -1      2255 3.10495E+01-3.36058E+00-1.83330E-02 3.56524E+00 1.68254E-13 1.04972E-13
 -1      2256 2.01254E+01 4.69873E-01 1.62004E-02-4.74268E-01-6.79842E-14-1.12971E-13
 -1      2257 1.99847E+01 3.44486E-01 9.15902E-05-3.02858E-01-4.19998E-14-1.16304E-13
 -1      2258 2.02459E+01 7.49435E-01-6.64443E-04-6.93326E-01-6.89858E-14-1.30139E-13
 -1      2259 1.99211E+01 2.59474E-01 1.08803E-02-1.65576E-01-4.60040E-14-1.05761E-13
 -1      2260 1.98425E+01 1.87968E-01 7.27946E-04-6.83990E-02-4.12678E-14-1.09867E-13
 -1      2261 2.00813E+01 4.16104E-01-3.62544E-03-3.09973E-01-4.70676E-14-1.23736E-13
 -1      2262 1.97981E+01 1.38433E-01 6.40613E-03 1.36072E-02-4.51653E-14-1.11218E-13
 -1      2263 1.97630E+01 9.60458E-02 7.16963E-04 6.68347E-02-5.09314E-14-1.05406E-13
 -1      2264 1.99603E+01 2.27117E-01-3.60629E-03-7.10119E-02-4.69179E-14-1.22091E-13
 -1      2265 1.97370E+01 6.60964E-02 3.57884E-03 1.12433E-01-5.31839E-14-1.13117E-13
 -1      2266 1.97296E+01 4.05094E-02 6.09703E-04 1.38876E-01-4.33758E-14-1.21308E-13
 -1      2267 1.98845E+01 1.14579E-01-2.91966E-03 6.94904E-02-7.90754E-14-1.25643E-13
 -1      2268 1.97178E+01 2.22019E-02 1.85461E-03 1.60963E-01-4.29244E-14-1.23996E-13
 -1      2269 1.97269E+01 6.89008E-03 4.85800E-04 1.70929E-01-3.78139E-14-1.17020E-13
 -1      2270 1.98446E+01 4.63039E-02-2.11547E-03 1.45406E-01-4.52369E-14-1.14181E-13
 -1      2271 1.97248E+01-4.08573E-03 7.92804E-04 1.78108E-01-3.92488E-14-1.27225E-13
 -1      2272 1.97427E+01-1.28430E-02 3.66951E-04 1.78086E-01-4.07170E-14-1.50855E-13
 -1      2273 1.98303E+01 5.05828E-03-1.42782E-03 1.79614E-01-3.77050E-14-1.49264E-13
 -1      2274 1.97466E+01-1.90368E-02 1.42868E-04 1.76149E-01-6.34058E-14-1.51756E-13
 -1      2275 1.97685E+01-2.35215E-02 2.67234E-04 1.70362E-01-8.70913E-14-1.24635E-13
 -1      2276 1.98325E+01-1.89511E-02-9.07603E-04 1.87557E-01-5.65976E-14-1.76311E-13
 -1      2277 1.97758E+01-2.65512E-02-2.40323E-04 1.63226E-01-6.31020E-14-6.61070E-14
 -1      2278 1.97986E+01-2.82391E-02 1.92333E-04 1.54466E-01-2.81884E-14-3.98304E-14
 -1      2279 1.98444E+01-3.17021E-02-5.37932E-04 1.79707E-01-4.59611E-14-8.09118E-14
 -1      2280 1.98075E+01-2.91773E-02-4.47623E-04 1.44780E-01-1.24897E-14-4.01832E-15
 -1      2281 1.98293E+01-2.90502E-02 1.42712E-04 1.34897E-01-7.56800E-15-2.01998E-14
 -1      2282 1.98616E+01-3.70456E-02-2.87457E-04 1.63172E-01-1.56859E-14-9.19422E-15
 -1      2283 1.98386E+01-2.86198E-02-5.39374E-04 1.24435E-01-2.06124E-14 3.82824E-14
 -1      2284 1.98585E+01-2.73328E-02 1.16862E-04 1.14647E-01 2.84900E-14 4.22972E-14
 -1      2285 1.98807E+01-3.75407E-02-1.26937E-04 1.42759E-01 1.42872E-14 3.88965E-14
 -1      2286 1.98676E+01-2.60170E-02-5.56903E-04 1.04588E-01-5.44229E-16-4.54644E-14
 -1      2287 1.98853E+01-2.39959E-02 1.13359E-04 9.56919E-02-2.57044E-14-5.49221E-14
 -1      2288 1.99000E+01-3.48980E-02-3.29089E-05 1.21693E-01-1.41794E-14 2.47742E-14
 -1      2289 1.98938E+01-2.21041E-02-5.28769E-04 8.68174E-02-7.71477E-14-8.61594E-14
 -1      2290 1.99093E+01-1.96069E-02 1.31737E-04 7.93371E-02-9.87252E-14-1.13361E-13
 -1      2291 1.99185E+01-3.02358E-02 1.23489E-05 1.02124E-01-8.54726E-14-4.60286E-16
 -1      2292 1.99172E+01-1.73194E-02-4.74581E-04 7.21752E-02-6.56590E-14-9.20150E-14
 -1      2293 1.99309E+01-1.44786E-02 1.72685E-04 6.64742E-02-1.02282E-13-1.18669E-13
 -1      2294 1.99357E+01-2.42409E-02 2.16662E-05 8.54957E-02-8.22791E-14-1.02440E-14
 -1      2295 1.99384E+01-1.18783E-02-4.07554E-04 6.14112E-02-1.36156E-13-1.29029E-13
 -1      2296 1.99509E+01-8.73227E-03 2.38009E-04 5.77737E-02-1.12912E-13-7.84194E-14
 -1      2297 1.99518E+01-1.72785E-02 4.07674E-06 7.28198E-02-1.19678E-13 4.06501E-15
 -1      2298 1.99582E+01-5.82851E-03-3.36345E-04 5.51355E-02-6.18529E-14-1.57612E-13
 -1      2299 1.99702E+01-2.34523E-03 3.30415E-04 5.38287E-02-4.90661E-14-1.26908E-13
 -1      2300 1.99672E+01-9.47173E-03-3.42622E-05 6.48826E-02-1.28161E-13-1.31434E-14
 -1      2301 1.99777E+01 9.05971E-04-2.66366E-04 5.39416E-02-8.68560E-14-1.58280E-13
 -1      2302 1.99901E+01 4.80817E-03 4.53150E-04 5.52596E-02-7.83388E-14-1.85167E-13
 -1      2303 1.99827E+01-7.65265E-04-8.93119E-05 6.23973E-02-9.98671E-14-1.56287E-13
 -1      2304 1.99983E+01 8.48612E-03-2.00730E-04 5.84924E-02-7.83196E-14-2.09015E-13
 -1      2305 2.00123E+01 1.29187E-02 6.09424E-04 6.27849E-02-2.76719E-14-2.26324E-13
 -1      2306 1.99992E+01 9.02191E-03-1.58482E-04 6.61145E-02-8.35249E-14-8.25695E-14
 -1      2307 2.00218E+01 1.71188E-02-1.40900E-04 6.95738E-02 4.13052E-14-2.62119E-13
 -1      2308 2.00385E+01 2.22001E-02 8.01525E-04 7.72589E-02 1.21973E-13-2.50722E-13
 -1      2309 2.00178E+01 2.01438E-02-2.40038E-04 7.68935E-02-1.26680E-14-1.50575E-13
 -1      2310 2.00501E+01 2.70100E-02-8.70891E-05 8.81124E-02 1.52518E-13-2.81296E-13
 -1      2311 2.00708E+01 3.28355E-02 1.02948E-03 9.96693E-02 1.17700E-13-1.95137E-13
 -1      2312 2.00399E+01 3.28675E-02-3.32587E-04 9.57339E-02 1.34240E-13-2.48755E-13
 -1      2313 2.00852E+01 3.83035E-02-3.83822E-05 1.15149E-01 5.22787E-14-1.89544E-13
 -1      2314 2.01115E+01 4.49037E-02 1.28907E-03 1.31085E-01 2.73576E-14-1.53858E-13
 -1      2315 2.00670E+01 4.73958E-02-4.34656E-04 1.23761E-01 1.06912E-13-1.74787E-13
 -1      2316 2.01296E+01 5.09922E-02 7.46452E-06 1.51756E-01 2.80253E-14-1.16951E-13
 -1      2317 2.01631E+01 5.82717E-02 1.56902E-03 1.72535E-01 3.78370E-14-8.94722E-14
 -1      2318 2.01009E+01 6.37586E-02-5.44430E-04 1.62154E-01 8.89904E-15-1.31819E-13
 -1      2319 2.01860E+01 6.47908E-02 5.46582E-05 1.98867E-01-1.81593E-14-1.34265E-13
 -1      2320 2.02285E+01 7.24392E-02 1.84703E-03 2.24789E-01 1.25745E-14-1.23462E-13
 -1      2321 2.01435E+01 8.16567E-02-6.59794E-04 2.11987E-01 6.61659E-15-9.26173E-14
 -1      2322 2.02572E+01 7.89507E-02 1.10593E-04 2.56999E-01-4.42750E-14-1.09648E-13
 -1      2323 2.03103E+01 8.63160E-02 2.08460E-03 2.88007E-01-5.96051E-14-1.21014E-13
 -1      2324 2.01970E+01 1.00236E-01-7.78912E-04 2.73967E-01-3.19446E-14-1.09176E-13
 -1      2325 2.03463E+01 9.19996E-02 1.87839E-04 3.25813E-01 1.23214E-15-1.97271E-13
 -1      2326 2.04114E+01 9.79147E-02 2.22061E-03 3.61196E-01-1.89102E-14-1.63217E-13
 -1      2327 2.02638E+01 1.17770E-01-9.01683E-04 3.48017E-01-7.73068E-14-2.16387E-13
 -1      2328 2.04561E+01 1.01390E-01 3.06991E-04 4.03462E-01-8.40358E-14-1.96547E-13
 -1      2329 2.05343E+01 1.03951E-01 2.16422E-03 4.41439E-01-8.45956E-14-2.63580E-13
 -1      2330 2.03463E+01 1.31232E-01-1.03243E-03 4.32658E-01-9.99784E-14-2.14300E-13
 -1      2331 2.05895E+01 1.03062E-01 5.00053E-04 4.85674E-01-2.66714E-17-1.92922E-13
 -1      2332 2.06808E+01 9.93766E-02 1.78880E-03 5.22829E-01 2.98943E-14-1.82950E-13
 -1      2333 2.04476E+01 1.35749E-01-1.18388E-03 5.24137E-01-9.08090E-15-1.46650E-13
 -1      2334 2.07487E+01 9.09775E-02 8.13006E-04 5.64530E-01-4.92076E-15-1.61750E-13
 -1      2335 2.08521E+01 7.69575E-02 9.30530E-04 5.95112E-01 1.03378E-14-1.69220E-13
 -1      2336 2.05709E+01 1.24014E-01-1.38146E-03 6.15261E-01-2.72436E-15-8.40828E-14
 -1      2337 2.09354E+01 5.68019E-02 1.30320E-03 6.26963E-01-1.53801E-14-2.37817E-13
 -1      2338 2.10476E+01 2.71755E-02-6.01164E-04 6.42155E-01 4.43062E-14-2.04904E-13
 -1      2339 2.07202E+01 8.58301E-02-1.66434E-03 6.93935E-01-5.03216E-14-1.14742E-13
 -1      2340 2.11498E+01-9.84454E-03 2.02299E-03 6.53181E-01 1.69558E-13-2.53203E-13
 -1      2341 2.12651E+01-6.09277E-02-2.98798E-03 6.40577E-01 1.28982E-13-9.22364E-14
 -1      2342 2.09002E+01 8.25469E-03-2.07450E-03 7.41517E-01 4.95519E-14-2.54342E-13
 -1      2343 2.13900E+01-1.19739E-01 2.97161E-03 6.15537E-01 1.88054E-14-1.54413E-13
 -1      2344 2.14990E+01-1.96860E-01-6.31817E-03 5.59394E-01 3.48631E-14-2.24114E-13
 -1      2345 2.11167E+01-1.22713E-01-2.61623E-03 7.31340E-01 2.98470E-14-3.42490E-13
 -1      2346 2.16490E+01-2.79643E-01 3.99471E-03 4.79084E-01 1.03395E-13-2.19222E-13
 -1      2347 2.17381E+01-3.82136E-01-1.04106E-02 3.62350E-01 7.44817E-14-2.50429E-13
 -1      2348 2.13746E+01-3.17311E-01-3.16240E-03 6.28267E-01 3.77599E-14-3.02773E-13
 -1      2349 2.19108E+01-4.83459E-01 4.63166E-03 2.06195E-01-1.88504E-14-2.21786E-13
 -1      2350 2.19614E+01-5.98750E-01-1.45127E-02 1.58071E-02-6.86113E-14-1.40688E-13
 -1      2351 2.16745E+01-5.71922E-01-3.29141E-03 3.91175E-01 2.51745E-14-1.92744E-13
 -1      2352 2.21423E+01-6.98557E-01 3.99184E-03-2.30923E-01-1.28798E-13 3.22625E-14
 -1      2353 2.21316E+01-7.94168E-01-1.69060E-02-4.94041E-01-6.76239E-14 4.87927E-14
 -1      2354 2.20030E+01-8.52652E-01-2.14093E-03-1.80039E-02 1.28297E-14 1.28355E-13
 -1      2355 2.22857E+01-8.51493E-01 9.32192E-04-8.25849E-01-6.74990E-14 7.29626E-14
 -1      2356 2.21909E+01-8.71639E-01-1.49022E-02-1.13240E+00-7.86632E-14 2.10318E-13
 -1      2357 2.23195E+01-1.07658E+00 1.46290E-03-6.13448E-01-4.62527E-14 2.42958E-13
 -1      2358 2.22590E+01-8.27658E-01-5.67691E-03-1.50136E+00-1.48607E-13 1.35545E-13
 -1      2359 2.20686E+01-7.07607E-01-6.18012E-03-1.78059E+00-1.74662E-13 1.25620E-13
 -1      2360 2.25421E+01-1.10465E+00 7.92087E-03-1.34848E+00-1.51494E-13 3.33993E-13
 -1      2361 2.19866E+01-5.11781E-01-1.42379E-02-2.07798E+00-4.59429E-14 6.07624E-14
 -1      2362 2.17155E+01-2.24286E-01 8.16019E-03-2.22153E+00-3.08681E-14 1.59892E-13
 -1      2363 2.25560E+01-7.84738E-01 1.37539E-02-2.06846E+00-1.53934E-13 1.68129E-13
 -1      2364 2.14703E+01 1.10589E-01-1.93690E-02-2.29684E+00 5.09104E-14 1.09956E-13
 -1      2365 2.11705E+01 4.95434E-01 2.00587E-02-2.20209E+00 5.22152E-14 2.16254E-13
 -1      2366 2.22799E+01-6.27810E-02 1.31087E-02-2.49810E+00 9.25952E-15 2.56456E-13
 -1      2367 2.08547E+01 8.49775E-01-1.55125E-02-1.94829E+00 4.54628E-15 3.55144E-13
 -1      2368 2.06048E+01 1.15867E+00 1.90424E-02-1.59713E+00 2.11198E-13 5.37015E-13
 -1      2369 2.17719E+01 8.76760E-01 6.21993E-04-2.34235E+00 1.80913E-13 4.45852E-13
 -1      2370 2.03917E+01 1.35050E+00 6.80014E-04-1.06466E+00 1.09339E-13 4.14381E-13
 -1      2371 2.02552E+01 1.40855E+00 5.04065E-03-5.73054E-01 8.49182E-14 1.98224E-13
 -1      2372 2.12753E+01 1.61481E+00-1.67250E-02-1.51167E+00 2.49557E-14 5.05418E-13
 -1      2373 2.02539E+01 1.32646E+00 1.80014E-02 8.14060E-03 2.45444E-13 1.25401E-13
 -1      2374 2.02455E+01 1.11761E+00-9.56542E-03 4.39010E-01 2.95417E-13 1.72835E-13
 -1      2375 2.10689E+01 1.77052E+00-1.35961E-02-3.10508E-01 1.10108E-13 1.91657E-13
 -1      2376 2.03766E+01 8.39879E-01 2.15668E-02 8.21116E-01 2.07356E-13 1.25685E-13
 -1      2377 2.04482E+01 5.16739E-01-1.61235E-02 1.04983E+00 2.21301E-13 1.13302E-13
 -1      2378 2.11761E+01 1.27221E+00-2.71962E-03 7.09911E-01 2.44573E-13 2.37953E-13
 -1      2379 2.05411E+01 2.26150E-01 1.16845E-02 1.14225E+00 1.07528E-13-7.29022E-14
 -1      2380 2.06240E+01-2.61467E-02-1.00963E-02 1.16238E+00-6.74140E-14-2.41718E-13
 -1      2381 2.13606E+01 4.96398E-01 1.16577E-02 1.17847E+00-2.82109E-15 1.00582E-13
 -1      2382 2.05621E+01-1.91907E-01-1.45502E-03 1.05160E+00-5.38486E-14-3.49985E-13
 -1      2383 2.05934E+01-2.96226E-01-2.86012E-03 9.54813E-01-1.91980E-14-3.85808E-13
 -1      2384 2.13490E+01-1.32932E-01 1.48413E-02 1.11033E+00-1.37550E-13-3.71863E-13
 -1      2385 1.96252E+01 7.25712E-02 2.06882E-03-6.66282E-02 5.89524E-14 2.29687E-13
 -1      2386 1.96525E+01 1.04315E-01 6.91090E-03-2.04786E-02 6.16740E-14 2.80330E-13
 -1      2387 1.96017E+01 3.06754E-02 1.33344E-03-1.32275E-01 8.49263E-14 1.91277E-13
 -1      2388 1.95985E+01 4.96161E-02 3.68134E-03-1.09786E-01 6.85181E-14 2.19735E-13
 -1      2389 1.97693E+01 8.98298E-02-3.17027E-03-7.20396E-02 9.40674E-14 1.23221E-13
 -1      2390 1.96137E+01 5.59157E-03 8.65482E-04-1.60640E-01 8.92439E-14 1.97542E-13
 -1      2391 1.95937E+01 1.68657E-02 1.81360E-03-1.52438E-01 8.39313E-14 1.83456E-13
 -1      2392 1.97352E+01 3.57918E-02-2.27961E-03-1.44310E-01 9.32123E-14 1.28076E-13
 -1      2393 1.96458E+01-9.07074E-03 5.43452E-04-1.66199E-01 8.47415E-14 2.07563E-13
 -1      2394 1.96175E+01-2.60936E-03 7.14587E-04-1.66566E-01 7.78829E-14 2.23279E-13
 -1      2395 1.97317E+01 3.60532E-03-1.50873E-03-1.75975E-01 7.79024E-14 1.05864E-13
 -1      2396 1.96875E+01-1.70259E-02 3.18618E-04-1.58284E-01 5.65635E-14 2.05162E-13
 -1      2397 1.96563E+01-1.36745E-02 6.14421E-05-1.63565E-01 1.00211E-13 2.21056E-13
 -1      2398 1.97469E+01-1.49843E-02-9.31255E-04-1.82499E-01 8.19594E-14 1.50593E-13
 -1      2399 1.97321E+01-2.05985E-02 1.66865E-04-1.43035E-01 4.96754E-14 1.68420E-13
 -1      2400 1.97014E+01-1.92741E-02-3.14041E-04-1.50840E-01 4.25946E-14 1.91060E-13
 -1      2401 1.97721E+01-2.48256E-02-5.26845E-04-1.74076E-01 7.60192E-14 1.64636E-13
 -1      2402 1.97755E+01-2.13123E-02 7.17814E-05-1.24520E-01 4.63811E-14 1.54719E-13
 -1      2403 1.97470E+01-2.13005E-02-5.10054E-04-1.33277E-01 4.90464E-14 1.62677E-13
 -1      2404 1.98016E+01-2.89660E-02-2.57095E-04-1.57504E-01 6.70950E-14 9.93505E-14
 -1      2405 1.98155E+01-2.01859E-02 2.10337E-05-1.05420E-01 5.09936E-14 1.62337E-13
 -1      2406 1.97901E+01-2.10101E-02-5.89079E-04-1.14099E-01 2.92884E-14 1.36732E-13
 -1      2407 1.98317E+01-2.94023E-02-8.72474E-05-1.37322E-01 2.54798E-14 6.16422E-14
 -1      2408 1.98510E+01-1.78920E-02 5.85099E-06-8.74849E-02 2.59529E-14 2.00821E-13
 -1      2409 1.98291E+01-1.92414E-02-5.92900E-04-9.54200E-02 6.12312E-14 1.86876E-13
 -1      2410 1.98605E+01-2.74624E-02 9.74748E-06-1.16549E-01 2.03819E-14 1.01687E-13
 -1      2411 1.98820E+01-1.48532E-02 2.08017E-05-7.18522E-02 4.12886E-14 1.50995E-13
 -1      2412 1.98633E+01-1.65378E-02-5.49859E-04-7.86101E-02 3.49901E-14 2.04699E-13
 -1      2413 1.98869E+01-2.40146E-02 5.38439E-05-9.71707E-02 4.13687E-14 8.12955E-14
 -1      2414 1.99091E+01-1.13037E-02 6.33750E-05-5.92841E-02 9.02754E-14 1.03383E-13
 -1      2415 1.98931E+01-1.32252E-02-4.78956E-04-6.45693E-02 5.40145E-14 1.60734E-13
 -1      2416 1.99106E+01-1.95933E-02 5.90331E-05-8.05041E-02 5.19747E-14 1.09368E-13
 -1      2417 1.99333E+01-7.33275E-03 1.33737E-04-5.03445E-02 1.26189E-13 1.12628E-13
 -1      2418 1.99192E+01-9.46372E-03-3.92504E-04-5.39266E-02 1.22595E-13 1.41338E-13
 -1      2419 1.99320E+01-1.44822E-02 3.48787E-05-6.74569E-02 8.11921E-14 1.34249E-13
 -1      2420 1.99559E+01-2.91460E-03 2.34442E-04-4.55373E-02 5.60858E-14 2.02163E-13
 -1      2421 1.99427E+01-5.28437E-03-2.98070E-04-4.71934E-02 1.06540E-13 1.76959E-13
 -1      2422 1.99517E+01-8.77084E-03-1.24628E-05-5.87295E-02 6.55182E-14 1.88155E-13
 -1      2423 1.99786E+01 2.07104E-03 3.70258E-04-4.54154E-02-8.05169E-14 2.33736E-13
 -1      2424 1.99653E+01-6.14037E-04-1.99845E-04-4.48839E-02-1.67217E-15 2.68870E-13
 -1      2425 1.99709E+01-2.39421E-03-7.94575E-05-5.49703E-02-4.27058E-14 3.01974E-13
 -1      2426 2.00034E+01 7.82447E-03 5.48024E-04-5.06707E-02-4.91389E-14 1.80442E-13
 -1      2427 1.99887E+01 4.70699E-03-9.96817E-05-4.76131E-02-7.16614E-14 2.50545E-13
 -1      2428 1.99907E+01 4.83994E-03-1.64409E-04-5.68987E-02-7.01080E-14 2.61198E-13
 -1      2429 2.00326E+01 1.46163E-02 7.76513E-04-6.22083E-02-6.78606E-14 1.41862E-13
 -1      2430 2.00151E+01 1.09131E-02 2.05715E-06-5.61760E-02-4.72894E-14 2.06466E-13
 -1      2431 2.00129E+01 1.32321E-02-2.66787E-04-6.54056E-02-1.98828E-14 2.46144E-13
 -1      2432 2.00691E+01 2.27800E-02 1.06618E-03-8.12102E-02 1.08029E-13 1.76329E-15
 -1      2433 2.00469E+01 1.83049E-02 1.05780E-04-7.16156E-02-3.01991E-15 4.09915E-14
 -1      2434 2.00393E+01 2.31778E-02-3.86563E-04-8.16346E-02 3.45422E-14 8.79609E-14
 -1      2435 2.01161E+01 3.27033E-02 1.42862E-03-1.09187E-01 5.93461E-14 1.21714E-13
 -1      2436 2.00871E+01 2.72419E-02 2.12003E-04-9.52795E-02 1.09767E-13 5.87471E-14
 -1      2437 2.00720E+01 3.51560E-02-5.23479E-04-1.07048E-01 6.08849E-14 5.83257E-14
 -1      2438 2.01773E+01 4.48131E-02 1.87548E-03-1.48013E-01-4.18944E-14 1.27365E-13
 -1      2439 2.01391E+01 3.81315E-02 3.20691E-04-1.28863E-01 4.48739E-14 1.42377E-13
 -1      2440 2.01136E+01 4.97148E-02-6.76226E-04-1.43477E-01 1.83575E-14 1.03077E-13
 -1      2441 2.02574E+01 5.95416E-02 2.41619E-03-1.99935E-01-1.43186E-13 9.21183E-14
 -1      2442 2.02070E+01 5.14069E-02 4.30573E-04-1.74430E-01-1.31514E-13 9.81852E-14
 -1      2443 2.01670E+01 6.74420E-02-8.41521E-04-1.93144E-01-7.00073E-14 7.65098E-14
 -1      2444 2.03612E+01 7.72555E-02 3.05363E-03-2.67526E-01-2.32894E-14 8.90260E-14
 -1      2445 2.02952E+01 6.74790E-02 5.38458E-04-2.34401E-01-1.04135E-13 7.92607E-14
 -1      2446 2.02353E+01 8.89061E-02-1.01324E-03-2.58646E-01-8.06637E-14-1.33509E-13
 -1      2447 2.04944E+01 9.81079E-02 3.77610E-03-3.53531E-01 5.87597E-14 1.81588E-13
 -1      2448 2.04089E+01 8.66351E-02 6.38720E-04-3.11453E-01 9.11987E-15 1.78713E-13
 -1      2449 2.03220E+01 1.14529E-01-1.18200E-03-3.42864E-01-4.97410E-14-3.79931E-14
 -1      2450 2.06630E+01 1.21747E-01 4.54321E-03-4.60515E-01-6.38086E-15 2.76211E-13
 -1      2451 2.05540E+01 1.08834E-01 7.23384E-04-4.08286E-01 8.64894E-14 2.86469E-13
 -1      2452 2.04309E+01 1.44334E-01-1.33615E-03-4.48724E-01-1.46532E-14 1.69159E-13
 -1      2453 2.08731E+01 1.46768E-01 5.26250E-03-5.90145E-01-5.96359E-14 4.43026E-13
 -1      2454 2.07363E+01 1.33310E-01 7.83866E-04-5.27117E-01-6.99124E-14 4.02305E-13
 -1      2455 2.05657E+01 1.77454E-01-1.46624E-03-5.78718E-01-1.01664E-13 2.25849E-13
 -1      2456 2.11305E+01 1.69723E-01 5.75368E-03-7.41828E-01-9.16387E-14 6.65116E-13
 -1      2457 2.09621E+01 1.57841E-01 8.16618E-04-6.68694E-01-3.66092E-14 5.82569E-13
 -1      2458 2.07302E+01 2.11234E-01-1.57651E-03-7.33991E-01-1.06063E-13 4.73222E-13
 -1      2459 2.14397E+01 1.83455E-01 5.70057E-03-9.10289E-01-4.74616E-14 6.15213E-13
 -1      2460 2.12372E+01 1.77471E-01 8.37134E-04-8.30489E-01-1.90002E-14 7.22291E-13
 -1      2461 2.09281E+01 2.39652E-01-1.70915E-03-9.12709E-01-9.76681E-14 7.04033E-13
 -1      2462 2.18035E+01 1.74570E-01 4.60120E-03-1.08152E+00-1.94794E-13 3.51991E-13
 -1      2463 2.15672E+01 1.82441E-01 9.08674E-04-1.00357E+00-8.17202E-14 5.37649E-13
 -1      2464 2.11638E+01 2.50760E-01-1.98670E-03-1.10728E+00-3.27225E-14 5.75783E-13
 -1      2465 2.22221E+01 1.20273E-01 1.74698E-03-1.22657E+00-1.07634E-13 2.11053E-13
 -1      2466 2.19569E+01 1.55266E-01 1.19073E-03-1.16755E+00-1.97244E-13 2.82100E-13
 -1      2467 2.14437E+01 2.23014E-01-2.66923E-03-1.29991E+00-1.30749E-13 3.52317E-13
 -1      2468 2.26933E+01-1.37239E-02-3.69874E-03-1.29331E+00 3.32140E-14 2.80830E-13
 -1      2469 2.24113E+01 6.77070E-02 1.98776E-03-1.28307E+00-1.24550E-13 1.76765E-13
 -1      2470 2.17797E+01 1.21247E-01-4.19582E-03-1.45595E+00-1.38082E-13 1.43946E-13
 -1      2471 2.32111E+01-2.68852E-01-1.24132E-02-1.19840E+00 1.58757E-13 4.76996E-13
 -1      2472 2.29349E+01-1.19286E-01 3.72493E-03-1.28253E+00 1.05419E-13 3.91640E-13
 -1      2473 2.21937E+01-1.04442E-01-7.09651E-03-1.51506E+00-1.85952E-15 1.80717E-13
 -1      2474 2.37612E+01-6.70032E-01-2.38338E-02-8.26953E-01 2.20881E-13 6.76511E-13
 -1      2475 2.35288E+01-4.44370E-01 6.50215E-03-1.06272E+00 2.35260E-13 5.90953E-13
 -1      2476 2.27218E+01-5.07495E-01-1.15060E-02-1.38176E+00 1.43787E-13 3.40675E-13
 -1      2477 2.43024E+01-1.16813E+00-3.49355E-02-6.13830E-02 9.46448E-14 6.23599E-13
 -1      2478 2.41709E+01-9.06441E-01 9.16538E-03-4.94365E-01 2.22412E-13 7.04244E-13
 -1      2479 2.34053E+01-1.10038E+00-1.56403E-02-9.23487E-01 2.07027E-13 5.37007E-13
 -1      2480 2.47323E+01-1.54682E+00-3.79444E-02 1.13592E+00 2.31551E-14 4.83101E-13
 -1      2481 2.47770E+01-1.39003E+00 7.00389E-03 5.24584E-01 5.95062E-14 6.05755E-13
 -1      2482 2.42496E+01-1.76604E+00-1.55384E-02-2.78708E-03 1.70363E-13 5.24658E-13
 -1      2483 2.48578E+01-1.37181E+00-2.07391E-02 2.54871E+00 3.91527E-14 4.13461E-13
 -1      2484 2.51365E+01-1.56544E+00-8.21247E-03 1.92687E+00 7.18826E-14 4.62793E-13
 -1      2485 2.51327E+01-2.12901E+00-6.30015E-03 1.42127E+00 7.00212E-14 6.09836E-13
 -1      2486 2.44462E+01-2.67355E-01 5.40715E-03 3.50634E+00-4.91274E-15 3.65836E-13
 -1      2487 2.49305E+01-9.52612E-01-4.42371E-02 3.23272E+00-6.69924E-14 3.06199E-13
 -1      2488 2.56885E+01-1.55730E+00 8.11376E-04 3.05233E+00 4.06611E-14 3.16051E-13
 -1      2489 2.34774E+01 1.41388E+00-3.12953E-02 3.20396E+00 1.74381E-13 2.80879E-13
 -1      2490 2.40886E+01 5.33451E-01-8.75656E-02 3.56941E+00 1.65548E-13 2.97609E-13
 -1      2491 2.55709E+01 1.32899E-01-1.02564E-02 3.97982E+00 1.08025E-13 2.38929E-13
 -1      2492 2.27786E+01 2.47975E+00-3.13988E-02 1.37625E+00 2.44874E-14 2.64708E-13
 -1      2493 2.31421E+01 2.13871E+00-5.47290E-02 2.27714E+00 1.52101E-14 2.88342E-13
 -1      2494 2.48543E+01 2.32952E+00-3.94374E-02 3.09850E+00 6.98434E-14 2.17082E-13
 -1      2495 2.26847E+01 1.79728E+00-8.83687E-02-7.93007E-01 2.04226E-13 4.49522E-13
 -1      2496 2.26207E+01 2.32323E+00-6.04542E-02 5.33320E-03 9.70196E-14 4.47873E-13
 -1      2497 2.43480E+01 3.36494E+00-5.51071E-02 8.92314E-01-5.44287E-14 3.15952E-13
 -1      2498 2.30844E+01 2.11300E-01-6.49121E-02-1.71945E+00 2.39600E-13 3.53168E-13
 -1      2499 2.29201E+01 1.05097E+00 9.20688E-03-1.49049E+00 2.87409E-13 6.08306E-13
 -1      2500 2.45863E+01 1.99670E+00-2.96696E-02-1.29842E+00 9.22387E-14 4.68233E-13
 -1      2501 2.31749E+01-9.68023E-01-2.26312E-02-1.21100E+00 2.11826E-13 1.61471E-13
 -1      2502 2.30800E+01-4.96578E-01-5.69158E-03-1.52210E+00 2.04357E-13 3.69016E-13
 -1      2503 2.46975E+01-1.43593E-01-5.27807E-03-1.69273E+00 2.82104E-13 2.65558E-13
 -1      2504 2.26529E+01-1.11462E+00 1.33958E-02-1.14430E-01 3.41665E-13-4.11704E-14
 -1      2505 2.27451E+01-1.17348E+00-2.87351E-02-5.72620E-01 3.21081E-13 1.62400E-13
 -1      2506 2.41791E+01-1.43914E+00-7.65930E-04-7.09511E-01 3.39339E-13 9.93951E-14
 -1      2507 2.17221E+01-5.30524E-01 2.55278E-02 6.76959E-01 1.26243E-13 1.99304E-13
 -1      2508 2.19774E+01-8.77450E-01-3.06566E-02 4.09016E-01 1.96103E-13 7.97713E-14
 -1      2509 2.30684E+01-1.34146E+00-2.17007E-04 5.04895E-01 2.04398E-13 1.12621E-13
 -1      2510 2.10502E+01-1.05386E-01-1.22336E-02 8.14262E-01 6.05028E-14 2.51811E-13
 -1      2511 1.79925E+01 2.07524E+00-5.05188E-02 4.79972E+00 1.31608E-13-1.82028E-13
 -1      2512 1.95288E+01 1.39019E+00 1.11684E-01 5.22019E+00 2.32619E-13-2.02092E-13
 -1      2513 1.54455E+01 3.54959E+00-2.66474E-02 2.33151E+00-2.79589E-13-6.42889E-14
 -1      2514 1.66070E+01 3.11433E+00 1.05559E-01 3.74337E+00-9.79585E-14-7.14706E-14
 -1      2515 1.65935E+01 1.26905E+00 9.07129E-02 4.94912E+00 1.08448E-13-2.02602E-13
 -1      2516 2.21826E+01-3.17020E-01 2.49088E-02 3.55760E+00 8.37824E-14 2.25246E-13
 -1      2517 2.23098E+01-6.72175E-01 2.78753E-03 2.78810E+00-1.24839E-13 4.55436E-13
 -1      2518 2.07729E+01 4.42017E-01-1.88496E-02 4.97323E+00 2.24537E-13 1.16972E-13
 -1      2519 2.17088E+01-1.25690E-01 6.00193E-02 4.51694E+00 1.66732E-13 7.41221E-14
 -1      2520 2.25194E+01-1.49098E+00-1.16315E-02 4.31797E+00-1.46515E-14 3.53174E-13
 -1      2521 1.51573E+01 3.82364E+00 5.87955E-02-1.70422E+00 2.63379E-14 3.89216E-13
 -1      2522 1.49448E+01 3.96433E+00 4.56804E-02 9.95097E-02-3.00242E-13 2.87742E-13
 -1      2523 1.37882E+01 2.64071E+00 1.30844E-01 1.44391E+00-2.17864E-13 1.42553E-13
 -1      2524 1.74190E+01 2.57211E+00 1.22349E-01-4.81615E+00 3.18284E-13 1.91840E-13
 -1      2525 1.60326E+01 3.16805E+00-3.02105E-02-3.67759E+00 1.53644E-13 1.74361E-13
 -1      2526 1.42913E+01 2.33653E+00 1.16242E-01-3.10608E+00 4.86694E-14 4.27880E-13
 -1      2527 2.03199E+01 7.42161E-01 9.71150E-02-5.57829E+00 2.52266E-13 9.31373E-14
 -1      2528 1.88727E+01 1.46356E+00-4.96145E-02-5.48220E+00 2.69816E-13 4.75626E-14
 -1      2529 1.76234E+01 6.93609E-01 5.94267E-02-5.89184E+00 2.55067E-13 1.20653E-13
 -1      2530 2.20654E+01-5.07047E-01 4.17559E-02-4.40883E+00-4.51705E-14 5.42150E-13
 -1      2531 2.13342E+01 6.61734E-02-9.57785E-03-5.03908E+00 4.16511E-14 2.87906E-13
 -1      2532 2.10065E+01-8.74837E-01-7.84707E-03-5.85658E+00 1.11425E-13 6.83550E-14
 -1      2533 2.24061E+01-9.42830E-01 3.45778E-03-2.57507E+00 7.41026E-14-1.64768E-13
 -1      2534 2.23649E+01-6.02825E-01 2.96124E-02-3.40760E+00-3.69761E-14 4.21151E-13
 -1      2535 2.28017E+01-1.47073E+00-1.02073E-02-4.12722E+00-3.47517E-14 4.56685E-13
 -1      2536 2.19176E+01-8.85740E-01-1.31029E-02-9.49715E-01 2.51422E-14-3.19735E-13
 -1      2537 2.22317E+01-7.47610E-01 3.89576E-02-1.65536E+00 1.23622E-13-4.99413E-13
 -1      2538 2.29657E+01-1.33002E+00 4.44174E-03-2.12693E+00 1.10338E-13-3.89353E-13
 -1      2539 2.11507E+01-6.41837E-01-1.19742E-02 1.44234E-01 1.24132E-13-1.99151E-14
 -1      2540 2.15618E+01-6.40261E-01 3.36267E-02-3.07967E-01 1.60440E-15 4.54766E-14
 -1      2541 2.22479E+01-9.39761E-01 9.01988E-03-5.42688E-01-5.61703E-15-2.65793E-13
 -1      2542 6.00442E+00-2.51144E+00 1.33584E-01 3.40510E+00 3.39867E-13 4.70846E-13
 -1      2543 4.29077E+00-2.96259E+00 8.43784E-02 6.78224E-01 2.35832E-13 4.42757E-13
 -1      2544 2.14633E+01-6.37033E+00-3.18044E-02 8.12187E+00-2.10165E-13-6.48336E-14
 -1      2545 1.72776E+01-6.19775E+00 6.50037E-02 8.27106E+00-1.17129E-14-2.79034E-13
 -1      2546 1.97061E+01 1.43363E-01 3.27144E-03 5.94675E-02 7.34772E-14 2.90268E-13
 -1      2547 1.97845E+01 1.98179E-01 1.23810E-02 1.45694E-01 7.87924E-14 3.23181E-13
 -1      2548 1.98502E+01 1.80958E-01-3.85896E-03 6.48453E-02 8.77233E-14 1.59932E-13
 -1      2549 2.03172E+01-3.98523E-01-3.55952E-03 5.53543E-01-3.23526E-15-3.12168E-13
 -1      2550 4.61198E+00-2.84034E+00 5.97760E-02-1.50885E+00 1.26239E-13 4.63463E-13
 -1      2551 6.14983E+00-2.57742E+00 1.33892E-01-4.20954E+00 7.98528E-14 5.97855E-13
 -1      2552 7.22403E+00-7.81409E-01 1.77562E-01-6.57115E-01 3.40261E-13 6.11400E-13
 -1      2553 1.29628E+01-5.16899E+00 2.87180E-02 8.25029E+00 2.48135E-14-3.89466E-13
 -1      2554 9.25260E+00-3.84949E+00 1.08970E-01 6.51877E+00 2.32481E-13-1.01308E-13
 -1      2555 1.68892E+01-4.82708E+00 1.37759E-01 8.09244E+00 5.26801E-14-3.31110E-13
 -1      2556 2.05482E+01 1.95515E+00-1.37177E-02-1.89519E+00-1.22307E-13-2.07272E-13
 -1      2557 2.04103E+01 1.20904E+00-8.81607E-03-1.28884E+00-1.21862E-13-1.76854E-13
 -1      2558 2.03829E+01 1.38504E+00 9.18643E-03-1.23767E+00-9.77491E-14-1.61997E-13
 -1      2559 2.02956E+01 2.39760E+00 6.99661E-04-1.83540E+00-1.02070E-13-2.23670E-13
 -1      2560 8.06662E+00-4.04966E+00 8.28971E-02-6.52465E+00 1.02335E-13 5.23137E-13
 -1      2561 1.12923E+01-5.17102E+00 2.06923E-02-8.18827E+00 2.15772E-13 5.34461E-13
 -1      2562 6.47259E+00-4.57705E+00 4.29919E-02 5.57688E+00-1.04361E-14-5.17475E-13
 -1      2563 3.85907E+00-4.47383E+00 8.60600E-02 3.45297E+00-1.10190E-13-6.14064E-13
 -1      2564 3.40059E+01 3.74475E+00-1.18911E-01 2.54279E+00-2.71921E-13 5.39624E-13
 -1      2565 3.49039E+01 5.91861E+00-5.65145E-02 2.49253E+00-1.41220E-13 6.90004E-13
 -1      2566 1.95181E+01 3.58503E+00-1.00914E-02-2.45197E-01 1.31470E-13-1.79178E-13
 -1      2567 1.95342E+01 3.56431E+00-9.66603E-03-4.25898E-01 1.14478E-13-2.00132E-13
 -1      2568 1.97106E+01 3.16381E+00-5.59193E-04-4.73129E-01 9.98942E-14-1.93779E-13
 -1      2569 1.96761E+01 3.22372E+00-9.13591E-04-1.51942E-01 1.30464E-13-1.51169E-13
 -1      2570 3.44175E+01 7.41489E+00-1.04810E-01 5.88044E-01 2.17160E-13 6.26874E-13
 -1      2571 3.44305E+01 6.00310E+00-1.20881E-01-7.24811E-02 2.25764E-13 4.57134E-13
 -1      2572 3.47906E+01 6.86967E+00-1.81505E-01 2.28842E+00-5.31797E-14 7.39270E-13
 -1      2573 3.45297E+01 7.75388E+00-1.62309E-01 1.59521E+00 1.82743E-13 7.12194E-13
 -1      2574 3.20753E+01 5.79308E+00-6.79241E-03 3.05299E+00-5.82867E-14 8.13322E-13
 -1      2575 1.01907E+01-5.98016E+00 9.25969E-02-6.01509E+00 1.92457E-13 7.32081E-13
 -1      2576 1.47518E+01-6.67185E+00-2.69615E-02-6.58158E+00 9.07607E-14 7.50303E-13
 -1      2577 2.65315E+01-5.96505E+00-3.26834E-02-2.96951E+00-2.99150E-13 8.04912E-15
 -1      2578 2.89915E+01-4.76229E+00-1.06859E-01-1.66822E+00-1.45078E-13 2.59265E-13
 -1      2579 3.52024E+01 7.71788E+00-7.23177E-02-2.51129E-01-3.01481E-13-5.73375E-13
 -1      2580 3.39731E+01 8.21490E+00-1.84680E-01-4.56220E-01-3.03868E-13-5.52083E-13
 -1      2581 1.97095E+01-7.02970E+00 6.95295E-02-5.55529E+00-1.13604E-13 1.68622E-13
 -1      2582 2.34930E+01-6.69750E+00-5.08992E-02-4.78233E+00-3.05256E-13-2.65565E-13
 -1      2583 2.54847E+01-6.54284E+00 5.11026E-02-3.24369E+00-2.29566E-13 1.15186E-15
 -1      2584 4.15819E+00-4.41484E+00 9.20258E-02-2.85717E+00-2.19935E-13 2.13995E-13
 -1      2585 6.44481E+00-4.66525E+00 7.43579E-02-4.68562E+00 1.97897E-14 4.59521E-13
 -1      2586 2.61665E+00-4.12222E+00 6.64994E-02 1.45523E+00-3.12951E-13-3.69316E-13
 -1      2587 2.72928E+00-4.12724E+00 7.37146E-02-9.22744E-01-3.54765E-13 1.44884E-13
 -1      2588 1.37724E+01-5.75026E+00 4.33338E-02 7.27443E+00 2.38837E-13-3.47181E-13
 -1      2589 1.05020E+01-5.30467E+00 1.30125E-01 6.66370E+00 1.27343E-13-3.45390E-13
 -1      2590 2.90652E+01-3.90503E+00-7.56809E-02 2.96677E+00 2.30593E-13-1.38223E-14
 -1      2591 2.65838E+01-5.07600E+00 1.53424E-02 3.78938E+00 2.48301E-13-1.26288E-14
 -1      2592 3.28551E+01 1.80796E-01-1.20767E-01-4.11678E-02 1.72917E-13-1.13798E-14
 -1      2593 3.08979E+01-1.93805E+00-5.64310E-02 1.23518E+00 1.79586E-13-2.66454E-15
 -1      2594 3.00091E+01-3.25270E+00 1.71066E-03 8.40683E-01 2.21989E-13-2.22600E-14
 -1      2595 3.41604E+01 4.38637E+00-1.54353E-01-1.56769E+00 1.76081E-13-2.24432E-13
 -1      2596 3.33653E+01 2.57417E+00-1.03659E-01-1.24300E+00 2.58765E-13-2.08777E-13
 -1      2597 3.38603E+01 7.78613E+00-1.87169E-01-1.54449E+00 4.87388E-14-5.56749E-13
 -1      2598 3.41759E+01 6.46592E+00-1.06118E-01-1.74161E+00 1.69531E-13-3.22325E-13
 -1      2599 3.43188E+01 4.78976E+00-1.31285E-01-7.85685E-04-4.10089E-13-3.40339E-13
 -1      2600 3.51807E+01 6.46898E+00-1.14089E-01-6.89820E-02-3.22076E-13-4.22856E-13
 -1      2601 3.21502E+01 6.55969E+00-7.38954E-02 5.22903E-01-3.58824E-13-3.01467E-13
 -1      2602 3.31461E+01 3.77501E-01-5.40713E-02-1.46546E+00-5.56652E-13-4.80838E-13
 -1      2603 3.43579E+01 2.51971E+00-1.19576E-01-7.01625E-01-5.43093E-13-5.64659E-13
 -1      2604 2.93709E+01-3.85978E+00-2.08352E-02-4.60198E+00-3.72702E-13-2.09888E-13
 -1      2605 3.17848E+01-2.14637E+00-9.44451E-02-3.26527E+00-4.16958E-13-4.07785E-13
 -1      2606 2.35257E+01-5.93993E+00 5.88140E-02-7.31807E+00-2.00784E-13-3.28904E-13
 -1      2607 2.70220E+01-5.03685E+00-2.54330E-02-6.44707E+00-3.83554E-13-3.95850E-13
 -1      2608 2.86653E+01-4.88869E+00 4.71604E-02-4.69669E+00-2.92155E-13-4.51417E-13
 -1      2609 1.47094E+01-5.91736E+00 4.71362E-02-8.48277E+00 2.81497E-13 3.99375E-13
 -1      2610 1.87569E+01-6.02704E+00-4.32189E-02-8.75827E+00-1.83742E-14 5.67671E-14
 -1      2611 1.47887E+01-4.70713E+00 1.01862E-01-8.44236E+00 3.33233E-13 4.24966E-13
 -1      2612 3.51907E+01 4.03949E+00-8.62873E-02 1.09747E-01 3.54106E-13 2.91156E-13
 -1      2613 3.41156E+01 1.61060E+00-5.19369E-02 5.44558E-01 3.91687E-13 2.16549E-13
 -1      2614 2.04916E+01 8.74958E-01-7.31125E-03 1.22630E+00 1.64320E-13 4.49528E-13
 -1      2615 2.08421E+01 1.25694E+00-6.05169E-03 1.72702E+00 1.58915E-13 4.89485E-13
 -1      2616 2.06478E+01 1.71563E+00-1.57935E-02 1.92114E+00 2.00359E-13 4.01925E-13
 -1      2617 2.04500E+01 1.05807E+00-9.39824E-03 1.24100E+00 1.76736E-13 3.21618E-13
 -1      2618 2.87918E+01-4.93371E+00-4.31199E-02 5.44929E+00 5.96745E-15-5.24858E-14
 -1      2619 2.54019E+01-6.12998E+00 2.95836E-02 6.42063E+00-2.83440E-13 7.99361E-15
 -1      2620 2.99578E+01-4.73280E+00 2.11591E-02 3.56020E+00-4.12448E-14 1.64979E-13
 -1      2621 3.24988E+01 4.41213E+00-8.88624E-02-7.54076E-01 1.37140E-13 2.44332E-13
 -1      2622 1.99128E+01 2.81069E+00 1.13878E-03-1.09700E+00 2.46101E-14-2.29354E-13
 -1      2623 1.97799E+01 3.15644E+00-1.61813E-02-1.28669E+00 1.91173E-14-2.49904E-13
 -1      2624 1.98830E+01 3.01299E+00-1.85347E-02-1.47658E+00-1.28147E-14-2.63693E-13
 -1      2625 1.99958E+01 3.40287E-01-3.52996E-03 3.04036E-01 1.18346E-13 2.05013E-13
 -1      2626 2.04232E+01 2.11580E+00-1.27793E-02 1.87411E+00 2.29866E-13 2.94809E-13
 -1      2627 9.30435E+00-2.16919E+00 1.56219E-01-5.50229E+00 1.65812E-13 4.98684E-13
 -1      2628 2.23783E+01-5.85359E+00 8.46274E-02-7.78239E+00 1.21708E-13-2.39725E-13
 -1      2629 2.17238E+01-4.70590E-01-1.13040E-02 1.17456E+00-3.18435E-14 2.38998E-13
 -1      2630 2.02288E+01-5.84573E-01 2.19721E-02 5.73059E+00 7.19598E-14-2.57294E-14
 -1      2631 2.20464E+01-4.53053E-01 1.44527E-02 1.69507E+00-8.59278E-14 2.06422E-13
 -1      2632 3.26227E+01 3.10836E+00-4.74247E-02 5.48337E-01-5.82590E-13-2.80692E-13
 -1      2633 3.22547E+01 7.76782E+00-1.35214E-01-1.09533E+00-1.40221E-13-2.18811E-13
 -1      2634 2.98106E+01 6.91563E+00-1.56240E-01-1.68128E+00 8.48766E-14-1.16018E-14
 -1      2635 3.00087E+01 7.37472E+00-1.51643E-01-5.93127E-01-2.02421E-13-2.12970E-13
 -1      2636 3.19279E+01 8.67384E-01-3.84666E-02-1.58730E+00 2.98192E-13-2.25486E-13
 -1      2637 2.04371E+01 1.80808E+00 1.25373E-02 1.56184E+00 2.19326E-13 2.47644E-13
 -1      2638 3.30725E+01 1.65393E+00-1.11988E-01 2.85259E+00-1.29341E-13 4.13780E-13
 -1      2639 3.09642E+01 2.52426E+00-1.69139E-01 3.97581E+00-5.39291E-14 4.58189E-13
 -1      2640 3.14494E+01-5.36746E-02-2.02154E-02 3.00070E+00-9.88237E-14 3.63681E-13
 -1      2641 2.01192E+01 2.61305E+00-9.99945E-03-1.67571E+00-7.16263E-14-2.44679E-13
 -1      2642 9.72732E+00-4.05269E+00 1.54791E-01 5.98427E+00-2.15938E-14-3.66818E-13
 -1      2643 5.07181E+00-2.87565E+00 1.64356E-01 2.47039E+00-2.78444E-13-3.62488E-13
 -1      2644 1.69286E+01-5.98509E+00 1.33718E-01 6.89895E+00 3.52635E-13-1.61746E-14
 -1      2645 1.60558E+01-5.12476E+00 1.39360E-01 6.70779E+00 3.16969E-13 4.44644E-14
 -1      2646 1.95419E+01-6.35741E+00-1.06008E-01 6.26159E+00 3.71481E-13 3.57110E-13
 -1      2647 1.82523E+01-6.58695E+00 1.04057E-01-5.83539E+00 2.84217E-14 3.74062E-13
 -1      2648 9.37837E+00-3.14357E+00 1.86728E-01-4.67955E+00-4.72261E-14 3.15831E-13
 -1      2649 9.51351E+00-4.73657E+00 1.29099E-01-5.42487E+00 1.12049E-13 5.05262E-13
 -1      2650 1.24738E+01-4.75583E+00-3.74946E-03-5.87493E+00 1.02307E-13 6.20198E-13
 -1      2651 2.50457E+01-5.99957E+00 5.82058E-02 4.48775E+00 4.02123E-13 1.50463E-13
 -1      2652 2.44459E+01-6.19304E+00 7.75313E-02 6.76200E+00-1.94955E-13-3.83027E-15
 -1      2653 2.28162E+01-1.32067E+00-1.29844E-02 2.10620E+00 2.71271E-14 3.27845E-13
 -1      2654 3.29767E+01-5.21426E-01-7.22328E-02 5.63644E-01 2.97137E-13 1.62204E-13
 -1      2655 3.14017E+01-2.14319E+00-1.29996E-02 6.40647E-01 1.46910E-13 1.55514E-13
 -1      2656 3.18442E+01 4.32332E-01-1.61426E-01-7.43888E-01 3.07199E-13-1.49047E-14
 -1      2657 3.03746E+01-3.86717E+00-1.62236E-02-5.54988E-02-9.87196E-14 2.63289E-13
 -1      2658 3.06209E+01-2.91069E+00-2.12975E-01 1.53037E+00-8.21600E-14 2.82441E-13
 -1      2659 2.89364E+01-4.86052E+00 2.18662E-02-1.86316E-01-1.93942E-13 1.17406E-13
 -1      2660 3.17969E+01 7.03885E+00-3.25716E-02 1.00341E+00 1.56486E-13 5.66304E-13
 -1      2661 5.25758E+00-2.83185E+00 1.66979E-01-1.84785E+00-2.97089E-13 1.11078E-13
 -1      2662 3.19511E+01 5.13056E+00-6.71560E-02-2.46763E+00 2.19574E-13-2.39558E-13
 -1      2663 2.04134E+01-3.50009E-01-1.85221E-03 7.34306E-01-3.92752E-14-3.75354E-13
 -1      2664 2.08728E+01-4.80355E-01 1.87450E-02 4.89366E-01 4.31599E-14-1.65399E-13
 -1      2665 2.13085E+01-6.11111E-01-1.20814E-02 3.96205E-01-2.88451E-14-9.31397E-14
 -1      2666 2.04271E+01-3.36024E-01-1.34467E-02 8.39320E-01-2.54141E-14-3.31304E-13
 -1      2667 3.18227E+01-1.52967E+00-4.37047E-03-1.45498E+00-5.99430E-13-3.29542E-13
 -1      2668 2.11114E+01-3.89784E-01 1.62391E-02 8.40012E-01-4.44061E-14-2.53614E-13
 -1      2669 1.98441E+01 2.76518E+00-6.29889E-03 5.16068E-01 1.94780E-13-7.51166E-14
 -1      2670 1.98192E+01 2.81495E+00-5.69985E-03 3.65241E-01 1.77908E-13-7.86723E-14
 -1      2671 1.98022E+01 2.85247E+00-5.61255E-03 2.29779E-01 1.63867E-13-9.75773E-14
 -1      2672 1.97936E+01 2.86937E+00-5.43146E-03 7.52058E-02 1.47565E-13-9.87296E-14
 -1      2673 1.99487E+01 2.50117E+00 3.64653E-03 2.65118E-01 1.61727E-13-8.49794E-14
 -1      2674 2.00433E+01 2.32412E+00-1.07249E-02 1.04560E+00 2.40964E-13 3.59396E-14
 -1      2675 1.99790E+01 2.47308E+00-6.30975E-03 9.10065E-01 2.39721E-13 8.04044E-15
 -1      2676 2.02171E+01 1.90825E+00-1.20222E-02 1.22683E+00 2.45700E-13 1.29903E-13
 -1      2677 2.01243E+01 2.14639E+00-4.80182E-03 1.13341E+00 2.42168E-13 8.01455E-14
 -1      2678 2.01891E+01 1.88666E+00 6.43370E-03 9.26068E-01 2.23400E-13 7.19618E-14
 -1      2679 2.02134E+01 7.26971E-01-3.49309E-03 6.42224E-01 1.53782E-13 1.81448E-13
 -1      2680 2.03553E+01 9.51858E-01 9.14696E-03 9.06063E-01 1.62483E-13 2.04483E-13
 -1      2681 3.00952E+01-4.26111E+00-1.31716E-01 2.27530E+00 1.69517E-14 3.61933E-13
 -1      2682 2.85767E+01-5.22584E+00 4.62556E-02 3.65676E+00-2.51882E-15 2.91323E-13
 -1      2683 2.98561E+01 4.42366E+00-2.25812E-01-1.21591E+00-1.04639E-14 3.83304E-14
 -1      2684 3.10404E+01 2.56922E+00-1.40362E-01-1.42956E+00 1.72085E-15 2.45914E-14
 -1      2685 2.03386E+01 1.50033E+00-1.89908E-03 1.26658E+00 2.06287E-13 2.14600E-13
 -1      2686 2.07554E+01-5.19364E+00 1.34294E-01-8.01478E+00 3.18190E-13-1.37466E-13
 -1      2687 2.44467E+01-5.64658E+00-5.79620E-02-6.96366E+00 1.52128E-13-5.22683E-13
 -1      2688 2.02158E+01 6.27177E-01 7.80665E-03-4.36918E-01-3.83748E-14-1.34097E-13
 -1      2689 2.01328E+01 4.76047E-01-3.07937E-03-2.77768E-01-3.30644E-14-1.27573E-13
 -1      2690 2.01066E+01 3.62484E-01 6.62257E-03-1.58188E-01-4.36778E-14-1.16157E-13
 -1      2691 2.00475E+01 2.67771E-01-1.74439E-03-6.04960E-02-6.73459E-14-1.32556E-13
 -1      2692 2.01957E+01 5.28659E-01-1.51888E-03-2.61588E-01-5.31552E-14-1.20551E-13
 -1      2693 2.00213E+01 1.97498E-01 4.53718E-03 1.48039E-02-7.81502E-14-1.20050E-13
 -1      2694 1.99854E+01 1.37925E-01-8.36020E-04 7.13555E-02-7.30797E-14-1.32606E-13
 -1      2695 2.01264E+01 2.98638E-01-2.06921E-03-5.50821E-02-6.91231E-14-1.20420E-13
 -1      2696 1.99644E+01 9.37619E-02 2.90046E-03 1.14690E-01-5.79770E-14-1.26016E-13
 -1      2697 1.99463E+01 5.64582E-02-2.98861E-04 1.44088E-01-4.56688E-14-1.48965E-13
 -1      2698 2.00698E+01 1.52396E-01-1.89471E-03 7.21626E-02-6.80607E-14-1.48421E-13
 -1      2699 1.99312E+01 2.89783E-02 1.73588E-03 1.65514E-01-4.33431E-14-1.39625E-13
 -1      2700 1.99252E+01 6.19753E-03-9.11059E-07 1.77353E-01-5.32643E-14-1.56536E-13
 -1      2701 2.00286E+01 5.99760E-02-1.51865E-03 1.43080E-01-5.80390E-14-1.37639E-13
 -1      2702 1.99154E+01-1.02967E-02 9.31016E-04 1.84368E-01-2.62724E-14-1.47588E-13
 -1      2703 1.99171E+01-2.34218E-02 1.56477E-04 1.85229E-01-1.69277E-14-1.11221E-13
 -1      2704 2.00012E+01 2.92412E-03-1.13791E-03 1.75716E-01-1.79123E-14-1.28183E-13
 -1      2705 1.99113E+01-3.25695E-02 3.92499E-04 1.83248E-01 6.18354E-15-4.53869E-14
 -1      2706 1.99176E+01-3.92355E-02 2.34284E-04 1.77643E-01 1.39294E-14 2.01028E-14
 -1      2707 1.99844E+01-3.04983E-02-8.17366E-04 1.83482E-01 3.70872E-14 1.11344E-14
 -1      2708 1.99146E+01-4.34586E-02 4.61699E-05 1.70492E-01-2.53283E-14 5.16812E-14
 -1      2709 1.99232E+01-4.58229E-02 2.68726E-04 1.61506E-01-4.35578E-15 5.70130E-14
 -1      2710 1.99755E+01-4.80384E-02-5.68891E-04 1.76036E-01 3.93166E-14 9.41056E-14
 -1      2711 1.99222E+01-4.67680E-02-1.64671E-04 1.51847E-01 5.40705E-16 3.77221E-14
 -1      2712 1.99318E+01-4.62995E-02 2.81430E-04 1.41574E-01 4.65928E-15 1.34075E-14
 -1      2713 1.99720E+01-5.49398E-02-3.85934E-04 1.60196E-01-1.96640E-14 8.73814E-14
 -1      2714 1.99321E+01-4.50864E-02-2.82700E-04 1.31231E-01-1.22481E-14 7.90314E-15
 -1      2715 1.99417E+01-4.27728E-02 2.86059E-04 1.21079E-01-4.13183E-14-1.58988E-14
 -1      2716 1.99720E+01-5.47826E-02-2.57154E-04 1.40695E-01-3.19825E-14 3.17911E-15
 -1      2717 1.99429E+01-4.01451E-02-3.39669E-04 1.11290E-01-6.15235E-14-5.69470E-15
 -1      2718 1.99521E+01-3.66233E-02 2.92060E-04 1.02206E-01-7.70717E-14 3.05677E-15
 -1      2719 1.99744E+01-4.99827E-02-1.71050E-04 1.20779E-01-1.67163E-14 3.27743E-14
 -1      2720 1.99539E+01-3.30463E-02-3.58969E-04 9.38115E-02-1.08277E-13 2.17525E-14
 -1      2721 1.99627E+01-2.86921E-02 3.06412E-04 8.64453E-02-8.06529E-14 7.54275E-14
 -1      2722 1.99783E+01-4.21098E-02-1.17976E-04 1.02662E-01-9.23177E-14-2.96371E-14
 -1      2723 1.99648E+01-2.44219E-02-3.57615E-04 8.00423E-02-1.23393E-13 5.02795E-14
 -1      2724 1.99732E+01-1.94145E-02 3.34630E-04 7.48706E-02-1.68199E-13 2.82703E-14
 -1      2725 1.99832E+01-3.21025E-02-9.01914E-05 8.78835E-02-1.57796E-13 3.02810E-14
 -1      2726 1.99757E+01-1.45503E-02-3.47926E-04 7.09209E-02-1.92531E-13 1.48134E-14
 -1      2727 1.99840E+01-8.92183E-03 3.81279E-04 6.83398E-02-2.03355E-13-7.10048E-14
 -1      2728 1.99889E+01-2.04260E-02-8.16079E-05 7.75777E-02-1.80157E-13-2.57515E-14
 -1      2729 1.99868E+01-3.44589E-03-3.38762E-04 6.72553E-02-1.19568E-13-3.06785E-14
 -1      2730 1.99955E+01 2.87854E-03 4.50221E-04 6.76482E-02-4.97773E-14-4.79908E-14
 -1      2731 1.99952E+01-7.19151E-03-8.75479E-05 7.26765E-02-1.51680E-13 4.93992E-14
 -1      2732 1.99986E+01 9.06555E-03-3.36337E-04 6.98523E-02-5.39377E-14-2.70844E-14
 -1      2733 2.00082E+01 1.62320E-02 5.44556E-04 7.36377E-02-7.10970E-14-4.01551E-14
 -1      2734 2.00024E+01 7.74605E-03-1.04411E-04 7.40610E-02-5.54480E-14 5.40534E-15
 -1      2735 2.00119E+01 2.32775E-02-3.44722E-04 7.96058E-02-7.54119E-14 4.41777E-15
 -1      2736 2.00230E+01 3.14653E-02 6.66308E-04 8.72639E-02 2.44480E-14-5.64488E-14
 -1      2737 2.00106E+01 2.47000E-02-1.29380E-04 8.26680E-02-5.72495E-14-9.80425E-15
 -1      2738 2.00273E+01 3.95266E-02-3.66000E-04 9.75443E-02 7.62242E-14-8.58053E-14
 -1      2739 2.00407E+01 4.89037E-02 8.15822E-04 1.09623E-01 9.74419E-14-1.23562E-13
 -1      2740 2.00202E+01 4.40602E-02-1.60242E-04 9.95535E-02-1.41607E-14 6.40210E-14
 -1      2741 2.00459E+01 5.81002E-02-4.00029E-04 1.24834E-01 1.58333E-13-1.78369E-13
 -1      2742 2.00623E+01 6.87634E-02 9.90827E-04 1.41928E-01 1.17986E-13-1.24116E-13
 -1      2743 2.00315E+01 6.61842E-02-1.95388E-04 1.25912E-01 8.68485E-14-1.33470E-13
 -1      2744 2.00687E+01 7.91101E-02-4.43691E-04 1.62728E-01 5.46708E-14-6.74727E-14
 -1      2745 2.00892E+01 9.10015E-02 1.18510E-03 1.85424E-01 4.32500E-14 7.37419E-15
 -1      2746 2.00452E+01 9.12533E-02-2.34099E-04 1.63042E-01 1.26955E-13-1.53129E-13
 -1      2747 2.00971E+01 1.02316E-01-4.89504E-04 2.12442E-01-1.55561E-14-1.58537E-15
 -1      2748 2.01226E+01 1.15103E-01 1.38668E-03 2.41213E-01-2.82575E-14-4.88027E-14
 -1      2749 2.00618E+01 1.19074E-01-2.77316E-04 2.12250E-01 5.08168E-15 7.62961E-14
 -1      2750 2.01325E+01 1.26871E-01-5.23378E-04 2.74937E-01-1.92772E-14-1.58494E-14
 -1      2751 2.01641E+01 1.39782E-01 1.57569E-03 3.09982E-01-8.95392E-14-1.17263E-14
 -1      2752 2.00823E+01 1.48795E-01-3.29184E-04 2.74668E-01-2.29534E-14 8.47530E-14
 -1      2753 2.01768E+01 1.50972E-01-5.21276E-04 3.50570E-01-1.48341E-13-4.25390E-14
 -1      2754 2.02156E+01 1.62560E-01 1.72172E-03 3.91561E-01-1.03838E-13-1.34222E-13
 -1      2755 2.01078E+01 1.78517E-01-3.99785E-04 3.50955E-01-1.43485E-13 1.72593E-13
 -1      2756 2.02324E+01 1.71375E-01-4.44594E-04 4.38581E-01-5.95814E-14-1.76675E-13
 -1      2757 2.02796E+01 1.79220E-01 1.78098E-03 4.84303E-01-8.56835E-14-1.26170E-13
 -1      2758 2.01402E+01 2.04753E-01-5.09557E-04 4.40862E-01-9.92888E-14 1.47819E-13
 -1      2759 2.03025E+01 1.82779E-01-2.34346E-04 5.36353E-01-4.86600E-14-1.60412E-13
 -1      2760 2.03593E+01 1.83121E-01 1.69317E-03 5.84221E-01-1.50482E-14-1.00169E-13
 -1      2761 2.01821E+01 2.21740E-01-6.95724E-04 5.42612E-01-4.32869E-14-7.70484E-15
 -1      2762 2.03915E+01 1.77108E-01 1.95018E-04 6.38417E-01-5.05153E-14-1.35901E-13
 -1      2763 2.04593E+01 1.64471E-01 1.37799E-03 6.83843E-01-2.17651E-14-1.05538E-13
 -1      2764 2.02380E+01 2.20609E-01-1.02041E-03 6.52048E-01-5.69063E-14-4.94112E-14
 -1      2765 2.05058E+01 1.42835E-01 9.59743E-04 7.35140E-01-2.90149E-14-1.14756E-13
 -1      2766 2.05863E+01 1.09798E-01 7.29875E-04 7.70787E-01-5.15613E-14-9.57069E-14
 -1      2767 2.03150E+01 1.88560E-01-1.57803E-03 7.61512E-01-2.37121E-14-2.04234E-13
 -1      2768 2.06547E+01 6.47240E-02 2.20042E-03 8.11099E-01-5.31280E-14-1.12075E-13
 -1      2769 2.07499E+01 2.17208E-03-3.90316E-04 8.26095E-01 3.67032E-14-2.55241E-13
 -1      2770 2.04239E+01 1.08376E-01-2.49551E-03 8.58383E-01-8.94164E-14-1.70727E-13
 -1      2771 2.08511E+01-7.51796E-02 4.05200E-03 8.43216E-01 3.13261E-14-2.64433E-13
 -1      2772 2.09628E+01-1.76638E-01-2.16472E-03 8.22571E-01-5.30003E-14-2.92523E-13
 -1      2773 2.05812E+01-4.09225E-02-3.90916E-03 9.23208E-01 4.01320E-14-1.06837E-13
 -1      2774 2.11110E+01-2.93789E-01 6.55385E-03 7.98954E-01-9.69670E-16-1.14856E-13
 -1      2775 2.12400E+01-4.40057E-01-4.80760E-03 7.23700E-01 1.11213E-13-5.13761E-14
 -1      2776 2.08099E+01-2.80735E-01-5.88597E-03 9.27401E-01 5.95590E-14-2.66632E-14
 -1      2777 2.14502E+01-5.97918E-01 9.45071E-03 6.35581E-01 6.45219E-14-1.07949E-13
 -1      2778 2.15931E+01-7.83632E-01-8.42465E-03 4.84754E-01 2.46515E-14 7.37149E-15
 -1      2779 2.11376E+01-6.24120E-01-8.23529E-03 8.30801E-01 7.08921E-14-4.55370E-14
 -1      2780 2.18741E+01-9.66838E-01 1.18581E-02 3.03412E-01 6.44223E-14 2.32464E-14
 -1      2781 2.20183E+01-1.16258E+00-1.25644E-02 6.00842E-02 1.05454E-13 2.29179E-13
 -1      2782 2.15901E+01-1.05756E+00-1.01308E-02 5.80763E-01 8.56795E-14 3.39507E-15
 -1      2783 2.23581E+01-1.32618E+00 1.19100E-02-2.40300E-01-1.95848E-14 1.32318E-13
 -1      2784 2.24768E+01-1.46391E+00-1.53975E-02-5.75948E-01-3.45522E-14 1.32171E-13
 -1      2785 2.21717E+01-1.51090E+00-9.72229E-03 1.18660E-01 2.73082E-14-9.07401E-14
 -1      2786 2.28225E+01-1.52278E+00 6.92758E-03-9.97930E-01-8.56817E-14 3.12973E-13
 -1      2787 2.28744E+01-1.49072E+00-1.30605E-02-1.38652E+00-2.33285E-13 2.45915E-13
 -1      2788 2.28347E+01-1.82381E+00-4.22658E-03-5.94616E-01 3.94303E-15-1.16529E-13
 -1      2789 2.31136E+01-1.32810E+00-7.42454E-03-1.86648E+00-1.64828E-13 2.75408E-13
 -1      2790 2.30605E+01-1.00791E+00-2.77521E-03-2.20236E+00-1.09156E-13 3.04679E-13
 -1      2791 2.34402E+01-1.72686E+00 8.36334E-03-1.52197E+00-9.12910E-14 2.10006E-13
 -1      2792 2.30699E+01-5.47994E-01-2.72327E-02-2.56438E+00-2.82489E-15 4.72988E-13
 -1      2793 2.29105E+01 6.96294E-02 1.31165E-02-2.68398E+00 1.98561E-13 5.25029E-13
 -1      2794 2.37593E+01-9.64130E-01 1.57346E-02-2.43320E+00 6.59798E-14 5.53517E-13
 -1      2795 2.26677E+01 7.44013E-01-3.95042E-02-2.68228E+00 2.13473E-13 4.33770E-13
 -1      2796 2.24589E+01 1.43685E+00 1.73505E-02-2.44221E+00 1.48450E-13 4.20260E-13
 -1      2797 2.36284E+01 4.81421E-01 1.05357E-02-2.88437E+00 1.32020E-13 5.29470E-13
 -1      2798 2.21600E+01 2.01627E+00-3.22705E-02-1.95893E+00 1.00909E-14 5.27645E-13
 -1      2799 2.19832E+01 2.39841E+00-6.68723E-03-1.39517E+00-7.66748E-15 5.23618E-13
 -1      2800 2.31767E+01 2.08344E+00-1.14339E-02-2.42303E+00 1.32288E-13 3.67525E-13
 -1      2801 2.19361E+01 2.49756E+00-1.79693E-04-6.00799E-01 2.89786E-15 4.86301E-13
 -1      2802 2.18895E+01 2.30773E+00-2.60192E-02 2.51308E-03 1.77764E-13 3.96051E-13
 -1      2803 2.28152E+01 2.98855E+00-2.02084E-02-1.05786E+00-1.27277E-14 5.50591E-13
 -1      2804 2.20514E+01 1.91592E+00 1.59771E-02 6.23547E-01 1.85005E-13 2.92439E-13
 -1      2805 2.20884E+01 1.34619E+00-4.06147E-02 1.00161E+00 1.42594E-13 1.80731E-13
 -1      2806 2.28882E+01 2.55440E+00-1.91991E-02 3.87869E-01 5.86163E-14 4.72291E-13
 -1      2807 2.22481E+01 7.57790E-01 1.30892E-02 1.17968E+00-1.92277E-14 4.77815E-14
 -1      2808 2.22588E+01 1.99839E-01-2.88002E-02 1.23321E+00-2.74138E-13-8.82355E-14
 -1      2809 2.31532E+01 1.25613E+00 4.19660E-03 1.18431E+00-2.06724E-13 4.30680E-14
 -1      2810 2.21659E+01-2.12698E-01 1.02534E-04 1.04305E+00-3.70521E-13-1.17722E-13
 -1      2811 2.20579E+01-4.89317E-01-9.62248E-03 8.86516E-01-1.78603E-13-1.46171E-13
 -1      2812 2.31353E+01-5.19967E-02 1.72699E-02 1.08040E+00-2.63076E-13-1.21829E-13
 -1      2813 1.98554E+01 4.91286E-02 4.23726E-05-1.44164E-01 1.05454E-13 1.02954E-13
 -1      2814 1.98694E+01 8.10485E-02 3.16176E-03-1.15906E-01 9.52508E-14 1.26090E-13
 -1      2815 3.02809E+01-2.75656E+00 7.96398E-03-1.59028E+00-4.12306E-13-2.63040E-13
 -1      2816 3.08787E+01-8.55465E-01-1.85779E-01-2.28657E-01-6.29205E-13-3.06852E-13
 -1      2817 3.10898E+01 1.55885E+00-7.42312E-02 8.39279E-01-6.29885E-13-1.75859E-13
 -1      2818 3.06873E+01 3.45000E+00-2.15738E-01 1.11272E+00-5.18779E-13-1.78191E-14
 -1      2819 1.98924E+01 1.18671E-01-2.61137E-04-7.14540E-02 8.18445E-14 1.03430E-13
 -1      2820 1.99281E+01 1.70325E-01 5.20165E-03-1.59835E-02 8.22477E-14 1.08971E-13
 -1      2821 1.99918E+01 1.35297E-01-2.33554E-03-7.30120E-02 9.32338E-14 8.01155E-14
 -1      2822 1.98435E+01-1.85093E-02 2.36585E-04-1.84402E-01 4.63129E-14 1.49846E-13
 -1      2823 1.98351E+01-7.38401E-03 8.80831E-04-1.84029E-01 7.07658E-14 1.16132E-13
 -1      2824 1.98545E+01-3.19722E-02 2.45138E-04-1.76524E-01 7.14569E-14 1.39627E-13
 -1      2825 1.98417E+01-2.62893E-02 2.97049E-04-1.82367E-01 5.08536E-14 1.57397E-13
 -1      2826 1.99202E+01-2.52092E-02-8.48281E-04-1.87256E-01 4.73456E-14 1.02761E-13
 -1      2827 1.98703E+01-3.77359E-02 2.36553E-04-1.60194E-01 7.10893E-14 9.92970E-14
 -1      2828 1.98558E+01-3.56531E-02-6.52091E-05-1.69267E-01 1.05890E-13 1.39689E-13
 -1      2829 1.99201E+01-4.06172E-02-5.48603E-04-1.79427E-01 9.28503E-14 9.51694E-14
 -1      2830 1.98882E+01-3.84244E-02 2.24774E-04-1.40090E-01 3.24813E-16 1.23056E-13
 -1      2831 1.98735E+01-3.86979E-02-2.75341E-04-1.50389E-01 2.57724E-14 1.21707E-13
 -1      2832 1.99252E+01-4.68714E-02-3.37613E-04-1.63020E-01 5.37836E-14 1.25141E-13
 -1      2833 1.99063E+01-3.58084E-02 2.17625E-04-1.19366E-01 2.87718E-14 1.10296E-13
 -1      2834 1.98923E+01-3.76035E-02-3.82853E-04-1.29553E-01 1.00510E-14 1.15282E-13
 -1      2835 1.99333E+01-4.70877E-02-1.96710E-04-1.42834E-01 2.26574E-14 9.23987E-14
 -1      2836 1.99237E+01-3.10503E-02 2.20488E-04-1.00129E-01 2.70405E-14 1.04131E-13
 -1      2837 1.99108E+01-3.38276E-02-4.23374E-04-1.09318E-01 3.05644E-14 7.60112E-14
 -1      2838 1.99430E+01-4.33626E-02-1.09330E-04-1.22128E-01 5.65682E-14 1.93155E-13
 -1      2839 1.99401E+01-2.48603E-02 2.37643E-04-8.38029E-02-1.10482E-14 1.47344E-13
 -1      2840 1.99284E+01-2.83011E-02-4.22596E-04-9.13919E-02-1.06005E-14 8.79306E-14
 -1      2841 1.99531E+01-3.70586E-02-6.22987E-05-1.03105E-01 7.66686E-15 1.33197E-13
 -1      2842 1.99556E+01-1.76061E-02 2.73220E-04-7.13973E-02 1.01898E-13 1.86162E-13
 -1      2843 1.99448E+01-2.15594E-02-3.98696E-04-7.69515E-02 3.91526E-14 1.98334E-13
 -1      2844 1.99635E+01-2.89923E-02-4.59117E-05-8.72789E-02-1.07958E-14 1.75585E-13
 -1      2845 1.99707E+01-9.38951E-03 3.31562E-04-6.37171E-02-5.08647E-14 3.19918E-13
 -1      2846 1.99604E+01-1.38356E-02-3.64623E-04-6.68736E-02 5.16961E-14 2.57328E-13
 -1      2847 1.99739E+01-1.95646E-02-5.27033E-05-7.57542E-02 1.63140E-14 3.25631E-13
 -1      2848 1.99861E+01-9.91907E-05 4.17483E-04-6.15234E-02-5.78885E-14 3.25348E-13
 -1      2849 1.99756E+01-5.12406E-03-3.29722E-04-6.19187E-02-3.16362E-14 3.23549E-13
 -1      2850 1.99846E+01-8.85217E-03-7.74429E-05-6.94381E-02-6.31104E-14 3.98073E-13
 -1      2851 2.00027E+01 1.05499E-02 5.36343E-04-6.56626E-02-3.69262E-14 2.77408E-13
 -1      2852 1.99915E+01 4.77350E-03-3.00846E-04-6.28738E-02-5.22180E-14 2.84744E-13
 -1      2853 1.99959E+01 3.32799E-03-1.16217E-04-6.92084E-02-3.01970E-14 2.52474E-13
 -1      2854 2.00219E+01 2.29887E-02 6.94070E-04-7.71674E-02 2.29451E-14 1.95384E-13
 -1      2855 2.00088E+01 1.62144E-02-2.83371E-04-7.06665E-02 5.57547E-15 2.47073E-13
 -1      2856 2.00085E+01 1.73711E-02-1.65825E-04-7.60447E-02 7.66827E-15 2.01445E-13
 -1      2857 2.00449E+01 3.77719E-02 8.96989E-04-9.73384E-02 4.67877E-14 1.25747E-13
 -1      2858 2.00290E+01 2.96905E-02-2.81978E-04-8.64541E-02 4.69425E-14 1.74245E-13
 -1      2859 2.00231E+01 3.38493E-02-2.23120E-04-9.11297E-02 8.95897E-14 1.58259E-13
 -1      2860 2.00733E+01 5.55575E-02 1.15142E-03-1.27805E-01 8.39249E-14 9.15666E-14
 -1      2861 2.00534E+01 4.58079E-02-3.01297E-04-1.11694E-01 5.09365E-14 1.40307E-13
 -1      2862 2.00404E+01 5.34835E-02-2.84277E-04-1.15926E-01 5.55372E-14 1.38688E-13
 -1      2863 2.01090E+01 7.70771E-02 1.46294E-03-1.70563E-01 5.11639E-14 1.35079E-13
 -1      2864 2.00837E+01 6.52629E-02-3.46378E-04-1.48196E-01 1.05460E-13 1.07596E-13
 -1      2865 2.00613E+01 7.71117E-02-3.43989E-04-1.52231E-01 1.10649E-13 1.22819E-13
 -1      2866 2.01538E+01 1.03084E-01 1.83503E-03-2.27984E-01-4.52754E-14 1.69417E-14
 -1      2867 2.01215E+01 8.88044E-02-4.22899E-04-1.98141E-01-3.88172E-14 1.47088E-13
 -1      2868 2.00867E+01 1.05644E-01-3.94638E-04-2.02199E-01 1.12591E-14 1.12118E-13
 -1      2869 2.02097E+01 1.34254E-01 2.26699E-03-3.02766E-01-5.68220E-14-7.02283E-14
 -1      2870 2.01688E+01 1.17163E-01-5.36852E-04-2.64071E-01-2.51698E-16 3.67333E-15
 -1      2871 2.01174E+01 1.39982E-01-4.25667E-04-2.68326E-01-4.61393E-14 1.47474E-13
 -1      2872 2.02788E+01 1.70988E-01 2.75053E-03-3.97807E-01-1.02792E-13 3.18761E-14
 -1      2873 2.02273E+01 1.50912E-01-6.93173E-04-3.48809E-01-8.46375E-14-1.56477E-14
 -1      2874 2.01540E+01 1.80862E-01-4.23640E-04-3.53376E-01-1.00079E-13 1.30075E-13
 -1      2875 2.03629E+01 2.13036E-01 3.26480E-03-5.15919E-01-1.26816E-14 8.26851E-14
 -1      2876 2.02991E+01 1.90197E-01-8.92328E-04-4.55266E-01-2.67269E-14 6.17006E-14
 -1      2877 2.01969E+01 2.28562E-01-3.74145E-04-4.60211E-01-6.80239E-14 1.23255E-13
 -1      2878 2.04636E+01 2.58811E-01 3.76946E-03-6.59308E-01-1.32092E-13 1.69589E-13
 -1      2879 2.03857E+01 2.34232E-01-1.12310E-03-5.86081E-01-6.05932E-14 1.71037E-13
 -1      2880 2.02460E+01 2.82351E-01-2.67713E-04-5.91482E-01-1.08353E-13 7.79148E-15
 -1      2881 2.05826E+01 3.04154E-01 4.19603E-03-8.28642E-01-1.52867E-13 2.95854E-13
 -1      2882 2.04889E+01 2.80379E-01-1.34876E-03-7.42946E-01-1.24020E-13 1.94027E-13
 -1      2883 2.03010E+01 3.39499E-01-1.13788E-04-7.49095E-01-1.66826E-13 6.99148E-14
 -1      2884 2.07218E+01 3.40261E-01 4.43831E-03-1.02149E+00-3.17346E-14 3.37898E-13
 -1      2885 2.06108E+01 3.22548E-01-1.48199E-03-9.25457E-01-9.52002E-14 3.22079E-13
 -1      2886 2.03619E+01 3.93567E-01 3.05103E-05-9.33357E-01-1.67689E-13 6.68264E-14
 -1      2887 2.08855E+01 3.50384E-01 4.34131E-03-1.22980E+00-5.71756E-14 2.81566E-13
 -1      2888 2.07551E+01 3.48575E-01-1.34178E-03-1.12922E+00-1.13997E-14 2.71619E-13
 -1      2889 2.04300E+01 4.31584E-01 6.64309E-06-1.14165E+00 4.17634E-14-5.33745E-14
 -1      2890 2.10836E+01 3.05212E-01 3.68713E-03-1.43607E+00-8.52756E-14 1.04367E-13
 -1      2891 2.09302E+01 3.36260E-01-5.87233E-04-1.34282E+00-2.67798E-14 2.12618E-13
 -1      2892 2.05111E+01 4.29738E-01-5.32602E-04-1.36642E+00 2.41166E-14-7.21937E-14
 -1      2893 2.13378E+01 1.57852E-01 2.15576E-03-1.60755E+00-1.05802E-13-2.61733E-14
 -1      2894 2.11544E+01 2.48348E-01 1.37100E-03-1.54302E+00-1.57470E-13-1.19701E-14
 -1      2895 2.06218E+01 3.47642E-01-2.23329E-03-1.59208E+00-5.15564E-14-1.64442E-13
 -1      2896 2.16908E+01-1.57704E-01-7.67744E-04-1.68829E+00 6.91482E-14-4.17556E-14
 -1      2897 2.14646E+01 2.84939E-02 5.43953E-03-1.68754E+00-7.37635E-14-1.96634E-14
 -1      2898 2.07987E+01 1.22812E-01-6.12775E-03-1.78993E+00-9.19013E-14-1.81835E-13
 -1      2899 2.22135E+01-7.14170E-01-6.32803E-03-1.58871E+00 1.06004E-13 1.55765E-13
 -1      2900 2.19268E+01-3.95170E-01 1.28424E-02-1.70401E+00 1.34687E-13 1.06086E-13
 -1      2901 2.11138E+01-3.29185E-01-1.34979E-02-1.90916E+00 1.81853E-14-7.97221E-14
 -1      2902 2.29970E+01-1.53349E+00-1.50020E-02-1.17271E+00 1.63303E-13 2.10331E-13
 -1      2903 2.26391E+01-1.08234E+00 2.40308E-02-1.47256E+00 1.65304E-13 2.04929E-13
 -1      2904 2.16893E+01-1.09454E+00-2.52586E-02-1.85866E+00 1.02610E-13 3.54118E-14
 -1      2905 2.40973E+01-2.46832E+00-2.72889E-02-2.77123E-01 9.26030E-14 3.49154E-13
 -1      2906 2.36914E+01-1.98925E+00 3.62508E-02-8.21834E-01 2.31799E-13 3.09526E-13
 -1      2907 2.26893E+01-2.17124E+00-3.86684E-02-1.47342E+00 1.09108E-13 2.20449E-14
 -1      2908 2.54213E+01-2.97616E+00-3.03707E-02 1.20066E+00 8.90676E-14 3.74231E-13
 -1      2909 2.50560E+01-2.81227E+00 3.46490E-02 4.30476E-01-2.01707E-14 3.77354E-13
 -1      2910 2.42187E+01-3.29541E+00-5.19833E-02-5.18256E-01 5.72264E-14 1.65748E-13
 -1      2911 2.64992E+01-2.16610E+00-2.04064E-02 3.00281E+00 1.36318E-13 2.15166E-13
 -1      2912 2.64285E+01-2.81873E+00-1.08865E-02 2.24718E+00 1.86367E-13 3.87308E-13
 -1      2913 2.61996E+01-3.63733E+00-4.92782E-02 1.19643E+00 1.29525E-13 1.24832E-13
 -1      2914 2.74363E+01 1.34285E+00-7.94826E-02 4.05146E+00 1.75873E-13 2.72470E-13
 -1      2915 2.77274E+01-4.37567E-01-1.02211E-01 3.92972E+00 4.32362E-14 2.89387E-13
 -1      2916 2.75231E+01 4.98462E+00-1.74271E-01 2.32434E+00-6.71685E-15 3.84782E-13
 -1      2917 2.77160E+01 3.93720E+00-1.59907E-01 3.38892E+00 1.35864E-13 4.70665E-13
 -1      2918 2.74570E+01 5.27381E+00-1.64179E-01 8.90492E-01-3.42504E-14 4.25798E-13
 -1      2919 2.66248E+01 1.57821E+00-1.52148E-01-1.78096E+00 2.34576E-13 1.70003E-13
 -1      2920 2.64449E+01 3.21379E+00-7.58037E-02-1.05329E+00-6.02851E-14 2.14429E-13
 -1      2921 2.50836E+01-2.33965E+00-7.44095E-03 2.29261E-01 2.36394E-13 4.85775E-14
 -1      2922 2.55138E+01-2.08118E+00-4.22553E-02-4.23600E-01 2.03190E-13 5.54903E-14
 -1      2923 2.36946E+01-1.89199E+00 1.50957E-02 1.56795E+00-5.12264E-15 2.31086E-13
 -1      2924 2.43027E+01-2.32776E+00-3.87168E-02 1.08074E+00 1.34258E-13 1.59871E-13
 -1      2925 2.56669E+01-2.99156E+00-7.86925E-03 1.38296E+00 9.82088E-14 2.76796E-13
 -1      2926 2.39646E+01-2.17175E+00 1.68100E-02 2.75157E+00-5.11250E-14 6.03977E-13
 -1      2927 1.95968E+01-1.58966E+00 4.93718E-02 6.38355E+00 3.25573E-14-9.72694E-14
 -1      2928 2.17448E+01-2.26624E+00 1.23017E-01 6.02900E+00-3.23908E-14 1.33095E-13
 -1      2929 2.30250E+01-2.51089E+00 1.79934E-03 4.98947E+00-4.53283E-14 2.07915E-13
 -1      2930 2.38575E+01-2.55853E+00 4.72401E-02 3.94441E+00-6.55118E-14 5.54341E-13
 -1      2931 2.46679E+01-3.30062E+00-1.07271E-02 3.45758E+00-5.80265E-14 5.75889E-13
 -1      2932 2.28017E+01-3.62885E+00 1.24637E-02 5.86744E+00-4.54775E-14 2.76067E-13
 -1      2933 1.86056E+01-9.80699E-01 1.80580E-01-6.94112E+00 2.54984E-13 2.75543E-14
 -1      2934 1.57933E+01-2.05779E-01 3.86709E-03-6.31555E+00 2.40058E-13 2.44860E-13
 -1      2935 2.27383E+01-2.35968E+00 7.57428E-02-5.86374E+00 6.58223E-14 1.41805E-13
 -1      2936 2.09508E+01-1.88467E+00-7.93186E-04-6.53090E+00 1.81535E-13-3.56135E-13
 -1      2937 2.40649E+01-2.32810E+00-3.98947E-03-3.47792E+00-1.68334E-13 4.35586E-13
 -1      2938 2.36957E+01-2.23727E+00 3.27687E-02-4.51506E+00-1.20804E-13 6.14910E-13
 -1      2939 2.39710E+01-3.32889E+00 9.42774E-03-5.22315E+00 4.07625E-14 1.80621E-13
 -1      2940 2.36137E+01-1.65667E+00-1.33569E-02-1.40475E+00-1.56611E-14-3.84597E-13
 -1      2941 2.39664E+01-1.77427E+00 3.66327E-02-2.27976E+00-1.15442E-13 8.58554E-14
 -1      2942 2.48271E+01-2.56388E+00 4.76636E-03-2.63032E+00-2.74643E-13 2.00162E-13
 -1      2943 1.12422E+01-2.22093E+00 1.74894E-01 6.11959E+00 2.08611E-13-2.00451E-13
 -1      2944 7.80443E+00-2.66147E+00 1.49663E-01 5.00688E+00 3.13055E-13 2.37921E-13
 -1      2945 8.25179E+00-9.33217E-01 1.93372E-01 3.26986E+00 3.10460E-13 4.17943E-13
 -1      2946 2.03203E+01 1.70982E+00-9.82572E-03-1.33128E+00-6.91070E-14-1.89806E-13
 -1      2947 2.02878E+01 1.32823E+00-7.04983E-03-1.03414E+00-6.43084E-14-1.71169E-13
 -1      2948 1.02015E+01 1.18343E+00 1.75079E-01 2.87116E-01 2.06628E-13 6.09429E-13
 -1      2949 1.05901E+01 1.27992E+00 1.82550E-01-2.00323E+00 1.24817E-13 6.63553E-13
 -1      2950 1.99617E+01 2.31211E-01-7.81277E-04 6.21347E-02 9.71210E-14 1.18911E-13
 -1      2951 2.00273E+01 3.15085E-01 7.81417E-03 1.59908E-01 1.06167E-13 1.15476E-13
 -1      2952 2.00564E+01 2.65827E-01-2.73541E-03 6.00235E-02 9.65374E-14 8.74044E-14
 -1      2953 1.98418E+01 6.54709E-03 1.84622E-04-1.76956E-01 7.05719E-14 8.76941E-14
 -1      2954 1.98418E+01 2.58944E-02 1.78596E-03-1.65940E-01 8.82543E-14 9.56371E-14
 -1      2955 1.99512E+01 5.38472E-02-1.76655E-03-1.46211E-01 8.50312E-14 5.80550E-14
 -1      2956 1.99291E+01 3.96122E-03-1.25405E-03-1.79530E-01 5.81776E-14 9.14914E-14
 -1      2957 2.03192E+01 1.03593E+00 5.01440E-03-8.32998E-01-5.16924E-14-1.44698E-13
 -1      2958 2.02255E+01 7.98849E-01-5.15265E-03-5.92701E-01-3.97423E-14-1.36497E-13
 -1      2959 2.02619E+01 8.78897E-01 2.26777E-03-5.53714E-01-3.43364E-14-1.39551E-13
 -1      2960 2.02797E+01 1.38631E+00 1.95209E-03-9.19279E-01-4.40026E-14-1.62577E-13
 -1      2961 1.99229E+01 2.59608E+00-7.88383E-03 7.94212E-01 2.27860E-13-1.86858E-14
 -1      2962 1.98790E+01 2.68825E+00-6.12343E-03 6.45255E-01 2.08278E-13-5.18940E-14
 -1      2963 1.99975E+01 2.38860E+00 4.33489E-03 5.16569E-01 1.81975E-13-4.82732E-14
 -1      2964 2.00792E+01 2.19081E+00 5.60118E-03 7.45457E-01 2.06622E-13 6.02697E-15
 -1      2965 2.00707E+01 4.15530E-01-1.54276E-03 2.87382E-01 1.33082E-13 1.29832E-13
 -1      2966 2.01718E+01 5.53792E-01 1.04320E-02 4.50085E-01 1.36352E-13 1.57857E-13
 -1      2967 2.02539E+01 8.21577E-01 6.15627E-04 6.16772E-01 1.57182E-13 1.13939E-13
 -1      2968 2.01462E+01 4.76964E-01-2.18640E-03 2.79963E-01 1.32755E-13 9.28617E-14
 -1      2969 1.21462E+01-3.63241E+00 8.91259E-02 6.12571E+00 1.56819E-14-1.72307E-13
 -1      2970 9.04864E+00-2.66177E+00 2.00106E-01 4.92489E+00-1.49200E-13-3.29375E-13
 -1      2971 2.00855E+01 2.52682E+00-2.11222E-03-1.45710E+00-4.52692E-14-2.30913E-13
 -1      2972 2.63840E+01-5.82275E+00-1.35931E-01 3.07576E+00 5.20056E-13 1.24428E-13
 -1      2973 2.34828E+01-6.12209E+00 1.39186E-01 4.76181E+00 4.87971E-13 2.89019E-13
 -1      2974 1.98740E+01 2.69717E+00-5.98538E-03-6.34960E-01 7.07997E-14-2.01893E-13
 -1      2975 1.99170E+01 2.60750E+00-7.57767E-03-7.84007E-01 4.44762E-14-2.10212E-13
 -1      2976 3.05345E+01 1.33067E+00-1.99503E-01-2.52245E+00 3.25781E-13-1.02571E-13
 -1      2977 3.04813E+01-6.71852E-01-5.82032E-02-1.72910E+00 3.32803E-13-2.34257E-14
 -1      2978 5.96337E+00-1.68992E+00 1.76791E-01-5.96169E-01-3.39402E-13-5.26246E-14
 -1      2979 7.12189E+00-2.03618E+00 1.40228E-01-2.65551E+00-2.56239E-13 1.00281E-13
 -1      2980 2.43064E+01-6.37665E+00 1.20597E-01-3.32663E+00-8.44463E-14-9.63812E-14
 -1      2981 2.65465E+01-6.20173E+00-7.47562E-02-1.99971E+00-1.16906E-13 2.54519E-14
 -1      2982 2.95964E+01 5.21020E+00-2.28605E-01-2.67214E+00 3.36509E-13-1.48270E-13
 -1      2983 3.01349E+01 3.57136E+00-1.18390E-01-2.97622E+00 3.28848E-13-1.01905E-13
 -1      2984 6.92984E+00-2.05420E+00 1.11371E-01 3.43858E+00-2.30968E-13-3.93130E-13
 -1      2985 6.01936E+00-1.64349E+00 1.72875E-01 1.27775E+00-3.16756E-13-1.05943E-13
 -1      2986 2.63226E+01-6.02010E+00-6.84150E-02 5.62847E+00-1.54779E-13 3.36176E-13
 -1      2987 2.31584E+01-5.63352E+00 1.14450E-01 6.87771E+00-2.01755E-13 1.74469E-13
 -1      2988 1.69235E+01-5.55965E+00 1.92701E-01-5.76496E+00 2.43194E-13 5.13117E-13
 -1      2989 2.06769E+01-6.50706E+00-6.53404E-02-5.08352E+00 8.11573E-14-5.80092E-15
 -1      2990 2.97772E+01-2.77246E+00-1.61957E-01-4.04886E-01 1.81756E-13 1.12479E-13
 -1      2991 2.87125E+01-4.19532E+00 4.48299E-02 8.74189E-01 3.70984E-13 8.30863E-14
 -1      2992 2.16560E+01-6.26163E-01 2.06276E-03 5.67825E-01-1.44796E-13-1.72785E-13
 -1      2993 2.20788E+01-8.01118E-01-2.71514E-03 2.15277E-01-5.70899E-14-1.13907E-13
 -1      2994 2.17858E+01-5.82254E-01-1.06806E-02 6.88239E-01-9.22586E-14-2.62826E-13
 -1      2995 3.03487E+01 5.36656E+00-1.47395E-01 1.03285E+00-5.04430E-13-4.21191E-14
 -1      2996 3.00319E+01 6.44740E+00-2.20313E-01 4.04918E-01-4.79089E-13-2.08084E-13
 -1      2997 2.74447E+01-5.16329E+00 9.22115E-02-4.92314E+00-4.41869E-14-3.93990E-13
 -1      2998 2.89521E+01-4.49353E+00-1.38434E-01-3.55410E+00-1.31624E-13-1.85615E-13
 -1      2999 1.43865E+01-2.56295E+00 1.95345E-01-7.59175E+00 3.89799E-13 3.99347E-13
 -1      3000 1.70870E+01-3.78235E+00 4.82261E-02-8.36753E+00 3.65319E-13 2.42667E-13
 -1      3001 1.36769E+01-2.10982E+00 1.10879E-01 6.93821E+00 3.44863E-14-7.20701E-13
 -1      3002 1.20421E+01-8.17718E-01 1.58173E-01 5.46582E+00 6.34492E-14-2.21601E-13
 -1      3003 1.99718E+01 2.48978E+00-5.42376E-03-9.01332E-01 3.90789E-14-2.08455E-13
 -1      3004 2.00329E+01 2.36014E+00-6.76023E-03-1.03562E+00 1.21811E-14-2.10778E-13
 -1      3005 2.00723E+01 2.20517E+00 5.91680E-03-7.39237E-01 3.21449E-14-1.94568E-13
 -1      3006 2.58208E+01-4.99837E+00 6.61875E-02-5.66339E+00 2.00062E-13-4.94008E-13
 -1      3007 1.99320E+01 2.53872E+00 3.43636E-03 4.60263E-03 1.37462E-13-1.04457E-13
 -1      3008 1.97930E+01 2.87021E+00-5.48111E-03-6.18585E-02 1.43025E-13-1.20076E-13
 -1      3009 1.98005E+01 2.85558E+00-5.53692E-03-2.16514E-01 1.25967E-13-1.53158E-13
 -1      3010 1.45072E+01-4.04715E+00 1.68329E-01 6.29527E+00 1.15047E-13 5.33185E-14
 -1      3011 1.33434E+01-2.90402E+00 9.33689E-02 5.55078E+00-1.28023E-14 2.68674E-14
 -1      3012 1.67362E+01-4.48950E+00 4.93049E-02 5.95300E+00 2.26305E-13 3.15227E-13
 -1      3013 2.72655E+01-5.29161E+00 1.54072E-02 4.10919E+00 1.54043E-14 5.09509E-13
 -1      3014 2.26909E+01-6.57306E-01 1.57088E-02 6.06559E-01-1.55843E-13-6.53861E-15
 -1      3015 2.93020E+01-1.91590E+00-4.32117E-02-1.55405E+00 2.78708E-13 6.89171E-14
 -1      3016 3.01186E+01 8.62615E-01-1.00734E-01-1.21872E+00 1.52628E-13-5.55112E-14
 -1      3017 1.57773E+01-4.51096E+00 1.57677E-01-5.44893E+00 2.18409E-13 4.24105E-13
 -1      3018 2.02908E+01 1.58799E+00-1.13293E-03 1.16549E+00 2.13085E-13 1.57190E-13
 -1      3019 1.99299E+01-3.67272E+00 9.85331E-02-7.62008E+00 4.46809E-13-6.94930E-14
 -1      3020 2.98197E+01-4.18802E-02-7.64238E-02 5.71108E-01-5.86191E-13-7.50372E-14
 -1      3021 2.91895E+01 3.78232E+00-1.29485E-01 1.21302E+00-5.96995E-13 1.53599E-13
 -1      3022 2.85511E+01-1.65554E+00-1.03384E-01 3.26990E+00 1.17656E-13 2.52798E-13
 -1      3023 2.72172E+01 4.38881E+00-2.83028E-01-6.51157E-01-4.52416E-14 1.65312E-13
 -1      3024 2.60909E+01-1.81013E-01-4.56849E-02-1.58440E+00 3.23304E-13-1.49256E-14
 -1      3025 2.81806E+01 6.00660E-01-9.27499E-02-1.66484E+00 2.47163E-13-1.99313E-13
 -1      3026 2.92470E+01-1.46999E+00-1.12700E-01-9.74030E-01 3.93338E-13-1.23332E-13
 -1      3027 2.60076E+01-1.38730E+00-7.03041E-02-1.31229E+00 2.70301E-13-7.76219E-14
 -1      3028 2.70355E+01-2.24186E+00-2.86423E-02-4.24333E-01 1.33046E-13-1.65756E-13
 -1      3029 9.69021E+00-1.66134E+00 1.75836E-01 3.84929E+00-1.83617E-13-2.44527E-13
 -1      3030 3.01302E+01-3.13047E+00-5.50387E-02 7.31156E-01 1.61531E-13 3.69677E-13
 -1      3031 1.42524E+01 6.38562E-01 1.47740E-02 4.96445E+00-1.10190E-13-3.63112E-13
 -1      3032 1.67572E+01-9.34739E-02 1.71057E-01 6.02866E+00 1.16782E-13-4.75092E-13
 -1      3033 2.87085E+01 5.67872E+00-1.51087E-01-2.32701E+00 1.49852E-13 2.35922E-13
 -1      3034 2.73919E+01 4.29049E+00-1.13349E-01-2.72951E+00 1.97745E-13 2.98334E-13
 -1      3035 2.72607E+01 5.92538E+00-1.37707E-01-1.82134E+00 5.32074E-14 5.15747E-13
 -1      3036 2.85993E+01 6.33140E+00-1.51805E-01-7.09755E-02-3.12056E-13 9.07746E-14
 -1      3037 2.26196E+01-1.04145E+00-2.85294E-03-3.78443E-01-6.63488E-15-2.34767E-13
 -1      3038 2.02805E+01 1.36663E+00 2.30707E-03 9.19466E-01 2.00878E-13 1.30525E-13
 -1      3039 2.20325E+01-5.91964E+00 7.57354E-02 5.08403E+00 4.06258E-13 3.79738E-13
 -1      3040 1.30876E+01 1.87530E+00 7.00743E-02-2.85892E+00 8.57404E-14 6.01907E-13
 -1      3041 1.05042E+01 2.77680E-01 1.76642E-01-3.91674E+00 1.76931E-13 4.54858E-13
 -1      3042 3.02932E+01-1.77259E+00-8.89704E-02 2.69695E+00-5.88973E-14 2.74142E-13
 -1      3043 1.95852E+01-4.58916E+00 5.78340E-03 7.90016E+00-1.23290E-13-1.41859E-13
 -1      3044 1.62277E+01-3.10116E+00 1.65948E-01 7.50525E+00-5.23054E-14-4.31211E-13
 -1      3045 9.09743E+00-2.12069E+00 1.95523E-01-3.59546E+00-1.69996E-13 8.53484E-14
 -1      3046 1.10722E+01-2.45755E+00 9.79032E-03-4.32419E+00-1.52933E-14 2.11234E-13
 -1      3047 9.41117E+00-1.15728E+00 1.46617E-01-2.54447E+00-2.33216E-13-4.02872E-14
 -1      3048 2.91216E+01-3.48302E+00-1.03535E-02-2.07202E+00-1.88842E-13-2.71838E-13
 -1      3049 2.27851E+01-5.92218E+00 9.69385E-02-3.69289E+00 6.61832E-14 5.23696E-14
 -1      3050 7.78289E+00-9.48037E-01 1.88098E-01 3.92303E-01-2.43163E-13-5.35127E-14
 -1      3051 2.75654E+01-5.30395E+00-4.17871E-02-3.43929E-01-4.29518E-14-6.51146E-14
 -1      3052 1.98161E+01 2.82012E+00-5.67752E-03-3.51605E-01 1.11972E-13-1.55435E-13
 -1      3053 1.98404E+01 2.77184E+00-6.15835E-03-5.05140E-01 8.35190E-14-1.74020E-13
 -1      3054 1.99933E+01 2.39638E+00 4.34448E-03-5.07442E-01 6.46837E-14-1.69444E-13
 -1      3055 1.99467E+01 2.50473E+00 3.65848E-03-2.55631E-01 1.12357E-13-1.45037E-13
 -1      3056 2.90896E+01 1.95639E+00-9.41410E-02-2.96780E+00 3.53023E-13-1.31936E-13
 -1      3057 1.69065E+01-1.84979E+00 1.59054E-01 6.82222E+00-9.81160E-14-5.12437E-13
 -1      3058 2.01444E+01 2.17325E+00 5.13014E-04-1.20632E+00-1.92909E-14-2.12081E-13
 -1      3059 2.71858E+01-4.99544E+00 6.66760E-03 1.56428E+00 4.72157E-13-6.45317E-15
 -1      3060 2.20663E+01-4.37640E+00 8.26633E-02 6.76468E+00-8.29059E-14-1.64382E-14
 -1      3061 2.32229E+01-1.05069E+00 4.20741E-03 1.75518E-01-6.88598E-14-2.89709E-13
 -1      3062 2.34202E+01-1.30799E+00 5.43670E-03-6.42286E-01-1.33101E-14-4.77084E-13
 -1      3063 2.43208E+01-1.71328E+00-1.07900E-02-7.72601E-01-8.93521E-14-2.59842E-13
 -1      3064 2.34476E+01-9.43792E-01-1.66613E-02 3.86130E-01-1.42493E-13-3.08542E-13
 -1      3065 1.27713E+01 1.12893E-01 1.54427E-01 4.73544E+00 6.58501E-15-2.33508E-13
 -1      3066 1.03856E+01-1.24832E-01 1.21319E-01 3.90312E+00 1.64709E-13 2.04392E-13
 -1      3067 9.10375E+00 9.74560E-02 1.69036E-01 2.30681E+00 2.53020E-13 4.01429E-13
 -1      3068 1.30862E+01 1.61263E+00 1.83158E-01 3.37466E+00-1.06452E-13 3.69149E-15
 -1      3069 1.22179E+01-1.21888E+00 1.23520E-01-6.38691E+00 2.11137E-13 2.21406E-13
 -1      3070 1.98513E+01-2.81182E+00 5.62902E-02-7.30791E+00 3.53190E-13-2.23085E-14
 -1      3071 2.29741E+01-4.26833E+00 6.49644E-02-7.00640E+00 3.65596E-13-3.16358E-13
 -1      3072 2.02396E+01 1.47539E+00-7.99269E-03 8.00636E-01 1.98214E-13 8.94800E-14
 -1      3073 2.01999E+01 1.66988E+00-4.72660E-04 7.45816E-01 1.89464E-13 5.84389E-14
 -1      3074 1.20388E+01 1.90821E+00 8.55795E-02 9.61759E-01-1.27346E-14 3.65097E-13
 -1      3075 2.82197E+01-1.27058E+00-1.40124E-01-2.30735E+00 2.78465E-13-1.50283E-13
 -1      3076 2.81591E+01-2.70736E+00 2.24311E-02-1.40484E+00 2.47618E-13-2.86438E-14
 -1      3077 2.02206E+01 4.22658E-01 4.01733E-03-1.19971E-01-6.44702E-14-1.20494E-13
 -1      3078 2.01814E+01 3.14917E-01-2.31279E-03-3.51368E-02-7.47855E-14-1.29341E-13
 -1      3079 2.01672E+01 2.31232E-01 3.16546E-03 2.62184E-02-8.57475E-14-1.28976E-13
 -1      3080 2.01368E+01 1.60586E-01-1.31462E-03 7.70539E-02-8.97775E-14-1.54507E-13
 -1      3081 2.02371E+01 3.31359E-01-8.97947E-04-2.62071E-02-7.63916E-14-1.36447E-13
 -1      3082 2.01200E+01 1.06468E-01 2.23780E-03 1.12786E-01-5.74513E-14-1.34761E-13
 -1      3083 2.00988E+01 6.11912E-02-6.35932E-04 1.39815E-01-3.99782E-14-1.12748E-13
 -1      3084 2.01963E+01 1.66830E-01-1.02316E-03 7.62483E-02-5.98642E-14-1.14914E-13
 -1      3085 2.00825E+01 2.71046E-02 1.47016E-03 1.57316E-01 2.47756E-15-9.19777E-14
 -1      3086 2.00688E+01-7.84746E-04-2.01424E-04 1.68359E-01 4.06756E-14-4.55329E-14
 -1      3087 2.01573E+01 6.02026E-02-9.70116E-04 1.33820E-01 1.80533E-14-8.69616E-14
 -1      3088 2.00543E+01-2.11805E-02 8.87649E-04 1.73607E-01 6.02611E-14-2.02663E-14
 -1      3089 2.00462E+01-3.71416E-02 6.51974E-05 1.74432E-01 6.07355E-14 2.44414E-14
 -1      3090 2.01231E+01-6.27321E-03-8.41739E-04 1.59928E-01 8.45371E-14-4.53457E-14
 -1      3091 2.00339E+01-4.81778E-02 4.69032E-04 1.71968E-01 4.30944E-14 2.69006E-14
 -1      3092 2.00299E+01-5.60031E-02 2.21331E-04 1.66718E-01 4.22504E-14 1.67788E-14
 -1      3093 2.00948E+01-4.49813E-02-6.96438E-04 1.65235E-01 4.38744E-14-6.79620E-14
 -1      3094 2.00199E+01-6.06858E-02 1.80869E-04 1.59861E-01 4.86214E-15 5.08493E-14
 -1      3095 2.00186E+01-6.30222E-02 3.06944E-04 1.51456E-01-2.12044E-14 4.51337E-14
 -1      3096 2.00720E+01-6.46233E-02-5.59957E-04 1.57771E-01 2.37296E-14-4.14539E-14
 -1      3097 2.00106E+01-6.34399E-02-1.00162E-05 1.42566E-01-3.32923E-14 5.56615E-14
 -1      3098 2.00111E+01-6.21195E-02 3.49361E-04 1.33032E-01-1.50679E-14 5.64778E-14
 -1      3099 2.00541E+01-7.13183E-02-4.42453E-04 1.43373E-01-7.28475E-15 4.26671E-14
 -1      3100 2.00049E+01-5.97022E-02-1.32175E-04 1.23754E-01-3.57029E-14-6.34751E-15
 -1      3101 2.00066E+01-5.59577E-02 3.68124E-04 1.14484E-01-4.51981E-14 7.55997E-15
 -1      3102 2.00405E+01-6.93234E-02-3.45426E-04 1.26178E-01-4.05955E-14 3.65329E-14
 -1      3103 2.00018E+01-5.16444E-02-2.08891E-04 1.05953E-01-7.39682E-14-7.22474E-14
 -1      3104 2.00044E+01-4.62572E-02 3.77329E-04 9.79075E-02-1.24116E-13-4.19545E-14
 -1      3105 2.00304E+01-6.15203E-02-2.67241E-04 1.09072E-01-9.06861E-14-1.04406E-13
 -1      3106 2.00007E+01-4.06173E-02-2.58241E-04 9.09196E-02-1.61618E-13-2.24753E-14
 -1      3107 2.00039E+01-3.40289E-02 3.87154E-04 8.47843E-02-1.96034E-13-5.01229E-14
 -1      3108 2.00231E+01-4.97523E-02-2.05308E-04 9.40684E-02-1.55208E-13-4.58004E-14
 -1      3109 2.00011E+01-2.73535E-02-2.94201E-04 7.99293E-02-1.82367E-13-2.80890E-14
 -1      3110 2.00047E+01-1.97490E-02 4.04950E-04 7.62342E-02-1.86216E-13-3.58907E-14
 -1      3111 2.00180E+01-3.50773E-02-1.56190E-04 8.26203E-02-1.85633E-13-6.46426E-14
 -1      3112 2.00026E+01-1.21202E-02-3.27626E-04 7.39954E-02-1.61173E-13 2.79087E-14
 -1      3113 2.00066E+01-3.49428E-03 4.36197E-04 7.32036E-02-1.00464E-13 7.19148E-14
 -1      3114 2.00144E+01-1.79625E-02-1.16472E-04 7.58489E-02-1.29803E-13-3.17627E-14
 -1      3115 2.00048E+01 5.15840E-03-3.66781E-04 7.40345E-02-7.46567E-14 1.87727E-14
 -1      3116 2.00095E+01 1.49456E-02 4.84874E-04 7.66075E-02-6.03266E-14 1.14304E-14
 -1      3117 2.00120E+01 1.56354E-03-8.28745E-05 7.47267E-02-1.21370E-13-4.37843E-14
 -1      3118 2.00077E+01 2.47932E-02-4.17760E-04 8.09878E-02-3.80574E-14 1.19232E-14
 -1      3119 2.00131E+01 3.59619E-02 5.53607E-04 8.74288E-02-4.89146E-14 4.31419E-14
 -1      3120 2.00101E+01 2.37808E-02-5.22885E-05 8.02114E-02-3.12371E-14-5.43543E-14
 -1      3121 2.00112E+01 4.72235E-02-4.84629E-04 9.58992E-02-1.01929E-13 6.40522E-14
 -1      3122 2.00174E+01 6.00156E-02 6.43649E-04 1.06774E-01-6.05503E-14 3.10832E-14
 -1      3123 2.00083E+01 4.91523E-02-2.19538E-05 9.33381E-02-6.26899E-14-7.91789E-15
 -1      3124 2.00150E+01 7.28963E-02-5.69184E-04 1.19953E-01 5.67539E-15 3.74475E-14
 -1      3125 2.00224E+01 8.75027E-02 7.54710E-04 1.35890E-01 1.11761E-13-5.19569E-14
 -1      3126 2.00060E+01 7.81882E-02 1.02075E-05 1.15272E-01-6.31836E-14 4.14539E-15
 -1      3127 2.00192E+01 1.02114E-01-6.70245E-04 1.54465E-01 1.64044E-13-6.64688E-14
 -1      3128 2.00281E+01 1.18578E-01 8.84655E-04 1.76122E-01 1.23151E-13-2.33721E-14
 -1      3129 2.00029E+01 1.11280E-01 4.49658E-05 1.47318E-01 1.28561E-13 7.13548E-14
 -1      3130 2.00239E+01 1.34826E-01-7.82364E-04 2.00821E-01 5.31002E-14-4.31732E-15
 -1      3131 2.00347E+01 1.52909E-01 1.02919E-03 2.28822E-01 6.65994E-15 5.06653E-14
 -1      3132 1.99983E+01 1.48478E-01 8.06729E-05 1.90887E-01 1.30785E-13-6.71543E-14
 -1      3133 2.00294E+01 1.70346E-01-8.93781E-04 2.60348E-01-1.81067E-14 2.59868E-14
 -1      3134 2.00425E+01 1.89340E-01 1.18163E-03 2.95168E-01-3.64876E-14 9.36546E-14
 -1      3135 1.99920E+01 1.89195E-01 1.11380E-04 2.47406E-01-3.31166E-14-8.47896E-14
 -1      3136 2.00362E+01 2.06950E-01-9.83401E-04 3.34093E-01-8.73776E-14 5.00663E-14
 -1      3137 2.00523E+01 2.25423E-01 1.33302E-03 3.75892E-01-1.39105E-13 9.34786E-14
 -1      3138 1.99838E+01 2.31786E-01 1.23785E-04 3.18154E-01-5.47442E-14-1.26352E-13
 -1      3139 2.00457E+01 2.41334E-01-1.01650E-03 4.22505E-01-1.87345E-13 1.14183E-13
 -1      3140 2.00658E+01 2.56792E-01 1.47254E-03 4.70880E-01-1.10248E-13 1.20435E-13
 -1      3141 1.99745E+01 2.72985E-01 9.24854E-05 4.04035E-01-1.31035E-13-7.17517E-14
 -1      3142 2.00602E+01 2.67908E-01-9.38800E-04 5.24971E-01-5.16791E-14 7.28220E-14
 -1      3143 2.00859E+01 2.76364E-01 1.58815E-03 5.78624E-01-7.84767E-14-3.12903E-14
 -1      3144 1.99654E+01 3.07165E-01-2.70837E-05 5.05234E-01-1.46081E-13 2.21567E-14
 -1      3145 2.00841E+01 2.77918E-01-6.68625E-04 6.39190E-01-6.95952E-14 1.91259E-14
 -1      3146 2.01182E+01 2.73402E-01 1.66601E-03 6.95483E-01-7.21022E-14-1.64672E-14
 -1      3147 1.99604E+01 3.25408E-01-3.08475E-04 6.20773E-01-4.30025E-14-1.31759E-14
 -1      3148 2.01251E+01 2.58482E-01-8.68426E-05 7.60314E-01-1.16780E-13-2.71301E-14
 -1      3149 2.01716E+01 2.32571E-01 1.68576E-03 8.14703E-01-3.29162E-14-2.95666E-14
 -1      3150 1.99659E+01 3.14437E-01-8.66540E-04 7.47900E-01-7.71695E-14 1.10096E-13
 -1      3151 2.01954E+01 1.91770E-01 9.76064E-04 8.79786E-01-8.27181E-14-1.48750E-14
 -1      3152 2.02608E+01 1.33354E-01 1.60106E-03 9.25078E-01-1.22530E-13-1.03817E-14
 -1      3153 1.99938E+01 2.55591E-01-1.86968E-03 8.81225E-01-6.09998E-14 1.99340E-13
 -1      3154 2.03146E+01 5.48806E-02 2.74436E-03 9.83651E-01-2.11636E-15-5.72493E-14
 -1      3155 2.04080E+01-4.93434E-02 1.29370E-03 1.00905E+00 1.40516E-13-2.66578E-14
 -1      3156 2.00630E+01 1.24265E-01-3.54705E-03 1.01139E+00-2.64787E-14 4.96456E-14
 -1      3157 2.05110E+01-1.78397E-01 5.48989E-03 1.05001E+00 1.92214E-13-6.31709E-14
 -1      3158 2.06446E+01-3.41749E-01 4.82380E-04 1.03993E+00 8.09036E-14-3.02737E-14
 -1      3159 2.02032E+01-1.09167E-01-6.16915E-03 1.12274E+00 1.18084E-13-7.24901E-14
 -1      3160 2.08234E+01-5.31691E-01 9.44870E-03 1.04510E+00-6.62464E-15-6.99351E-14
 -1      3161 2.10094E+01-7.61824E-01-1.41372E-03 9.77825E-01 3.71171E-14-9.94435E-14
 -1      3162 2.04567E+01-4.74964E-01-9.96251E-03 1.18919E+00 3.74004E-14-1.05808E-13
 -1      3163 2.12961E+01-1.01195E+00 1.45338E-02 9.17687E-01-5.98840E-14-1.37932E-13
 -1      3164 2.15410E+01-1.29829E+00-5.19373E-03 7.65093E-01-4.15628E-14-2.19468E-13
 -1      3165 2.08795E+01-9.92045E-01-1.48499E-02 1.16686E+00-3.58725E-14-2.26687E-13
 -1      3166 2.19630E+01-1.58045E+00 1.96643E-02 5.95149E-01 7.75768E-15-1.98702E-13
 -1      3167 2.22554E+01-1.87182E+00-1.10581E-02 3.27322E-01 3.35060E-14-1.81041E-13
 -1      3168 2.15322E+01-1.63984E+00-1.96864E-02 9.83852E-01-8.50735E-14-4.38172E-13
 -1      3169 2.28092E+01-2.10688E+00 2.14815E-02-5.59028E-03 5.54535E-14-2.06274E-13
 -1      3170 2.31084E+01-2.28294E+00-1.59463E-02-4.04142E-01 1.90492E-14-2.02509E-13
 -1      3171 2.24505E+01-2.30499E+00-2.09368E-02 5.37045E-01-1.35549E-14-1.57014E-13
 -1      3172 2.37181E+01-2.33160E+00 1.09325E-02-9.28644E-01 1.02591E-13-7.79021E-14
 -1      3173 2.39513E+01-2.18222E+00-1.49569E-02-1.42711E+00 1.28169E-13 1.79140E-13
 -1      3174 2.35844E+01-2.71267E+00-1.26140E-02-2.75105E-01 1.82137E-13-5.48129E-14
 -1      3175 2.44040E+01-1.80431E+00-1.89291E-02-2.06401E+00 1.42073E-13 3.23340E-13
 -1      3176 2.44795E+01-1.14375E+00-8.27309E-03-2.48383E+00 1.69276E-13 3.53247E-13
 -1      3177 2.47202E+01-2.41146E+00 5.51355E-03-1.47204E+00 2.46634E-13 2.25488E-14
 -1      3178 2.41997E+01 2.02985E+00-7.76904E-02-2.85204E+00 9.40324E-14 3.79290E-13
 -1      3179 2.39814E+01 3.08440E+00-2.30727E-02-2.42581E+00 1.30056E-13 3.92963E-13
 -1      3180 2.37638E+01 3.46570E+00-2.07490E-02 1.81041E-01-1.53294E-13 4.22119E-13
 -1      3181 2.38479E+01 2.75418E+00-7.90206E-02 8.44832E-01-1.44527E-13 2.37474E-13
 -1      3182 2.41110E+01 1.78557E+00-1.75765E-04 1.20650E+00-3.18183E-13 7.97687E-14
 -1      3183 2.41363E+01 7.57835E-01-6.66889E-02 1.30969E+00-4.62384E-13-5.70976E-14
 -1      3184 2.50932E+01 2.54319E+00-3.82061E-02 1.15417E+00-3.73784E-13-5.45605E-14
 -1      3185 2.40675E+01 1.07923E-02-6.60077E-04 1.08339E+00-2.91529E-13-2.30576E-13
 -1      3186 2.38947E+01-6.43069E-01-2.86537E-02 8.12369E-01-2.09077E-13-2.19475E-13
 -1      3187 2.45089E+01-9.30744E-01 2.53025E-03 4.37855E-01-2.09791E-13-5.22407E-13
 -1      3188 2.51336E+01 3.76319E-01 2.04181E-03 1.19249E+00-4.68171E-13-2.28673E-13
 -1      3189 1.99824E+01-4.84967E-02 2.29344E-04-1.73111E-01 7.00276E-14 7.53622E-14
 -1      3190 1.99821E+01-4.11674E-02 4.46327E-04-1.78637E-01 7.42002E-14 4.49363E-14
 -1      3191 1.99917E+01-3.09697E-02 1.03201E-04-1.80998E-01 7.40942E-14 5.83052E-14
 -1      3192 1.99956E+01-1.62749E-02 9.15966E-04-1.80249E-01 5.85401E-14 1.04825E-13
 -1      3193 2.00482E+01-3.85603E-02-7.39934E-04-1.74896E-01 8.15233E-14 3.90804E-14
 -1      3194 1.99777E+01-5.51779E-02 3.27124E-04-1.37863E-01 6.70527E-15 9.03256E-14
 -1      3195 1.99733E+01-5.60723E-02-6.76980E-05-1.47858E-01 2.55977E-14 8.32467E-14
 -1      3196 1.99794E+01-5.02974E-02 3.41027E-04-1.18215E-01 1.24462E-14 1.65472E-13
 -1      3197 1.99742E+01-5.33473E-02-1.88768E-04-1.28002E-01 1.41911E-14 1.32140E-13
 -1      3198 2.00119E+01-6.30908E-02-3.07138E-04-1.33508E-01-1.02713E-14 6.48469E-14
 -1      3199 1.99827E+01-4.23033E-02 3.49864E-04-1.00415E-01 3.55816E-15 1.73398E-13
 -1      3200 1.99772E+01-4.67963E-02-2.57675E-04-1.09031E-01 5.25231E-14 2.14542E-13
 -1      3201 2.00072E+01-5.67286E-02-2.27810E-04-1.14972E-01 8.60181E-15 1.30671E-13
 -1      3202 1.99871E+01-3.21148E-02 3.63031E-04-8.59660E-02 1.34493E-14 1.88848E-13
 -1      3203 1.99814E+01-3.76473E-02-2.94973E-04-9.27318E-02-4.81513E-14 1.69849E-13
 -1      3204 2.00048E+01-4.68051E-02-1.72650E-04-9.84475E-02-1.70031E-14 1.85447E-13
 -1      3205 1.99924E+01-2.01636E-02 3.87664E-04-7.59952E-02-7.32456E-14 3.15232E-13
 -1      3206 1.99866E+01-2.65694E-02-3.16022E-04-8.03884E-02-4.35151E-15 2.67697E-13
 -1      3207 2.00042E+01-3.43024E-02-1.35408E-04-8.54478E-02-4.58556E-14 2.02744E-13
 -1      3208 1.99987E+01-6.49312E-03 4.29622E-04-7.14528E-02-4.94304E-14 2.42830E-13
 -1      3209 1.99925E+01-1.37953E-02-3.33113E-04-7.30128E-02-4.17924E-14 3.03270E-13
 -1      3210 2.00050E+01-1.96477E-02-1.11683E-04-7.71270E-02-4.60621E-14 2.31612E-13
 -1      3211 2.00059E+01 9.16077E-03 4.93708E-04-7.32771E-02-2.24498E-14 1.81622E-13
 -1      3212 1.99991E+01 7.88757E-04-3.55857E-04-7.15296E-02-2.28813E-14 1.81606E-13
 -1      3213 2.00068E+01-2.82420E-03-9.69830E-05-7.44863E-02-2.69407E-14 1.43988E-13
 -1      3214 2.00143E+01 2.73116E-02 5.84002E-04-8.25178E-02 4.98764E-14 1.57304E-13
 -1      3215 2.00066E+01 1.75737E-02-3.92360E-04-7.69163E-02-2.31810E-14 1.96269E-13
 -1      3216 2.00094E+01 1.65359E-02-8.67868E-05-7.85277E-02-2.31912E-14 1.48825E-13
 -1      3217 2.00241E+01 4.86766E-02 7.03837E-04-1.00430E-01 5.64899E-14 1.84674E-13
 -1      3218 2.00150E+01 3.71765E-02-4.49898E-04-9.03114E-02 6.76411E-14 1.76528E-13
 -1      3219 2.00126E+01 3.90830E-02-7.60740E-05-9.03699E-02 4.65382E-14 1.67377E-13
 -1      3220 2.00355E+01 7.41365E-02 8.55552E-04-1.28540E-01 4.73186E-14 2.21226E-13
 -1      3221 2.00247E+01 6.03983E-02-5.35491E-04-1.13094E-01 5.39699E-14 2.45096E-13
 -1      3222 2.00160E+01 6.56950E-02-5.87584E-05-1.11332E-01 4.37292E-14 3.10205E-13
 -1      3223 2.00488E+01 1.04689E-01 1.04004E-03-1.68685E-01 8.44223E-14 2.65554E-13
 -1      3224 2.00357E+01 8.81822E-02-6.56311E-04-1.46937E-01 8.58444E-14 2.50276E-13
 -1      3225 2.00193E+01 9.74250E-02-2.70516E-05-1.42991E-01 3.10174E-14 3.37761E-13
 -1      3226 2.00638E+01 1.41380E-01 1.25607E-03-2.23019E-01-4.26637E-14 2.51116E-13
 -1      3227 2.00481E+01 1.21559E-01-8.19856E-04-1.93830E-01 5.38823E-14 2.67377E-13
 -1      3228 2.00218E+01 1.35437E-01 2.92001E-05-1.87198E-01 6.20640E-14 3.75977E-13
 -1      3229 2.00804E+01 1.85191E-01 1.49957E-03-2.93972E-01-7.63777E-14 1.68905E-13
 -1      3230 2.00616E+01 1.61561E-01-1.03371E-03-2.56064E-01-2.89505E-14 1.87750E-13
 -1      3231 2.00226E+01 1.80910E-01 1.23034E-04-2.46070E-01 2.21847E-14 2.46403E-13
 -1      3232 2.00979E+01 2.36829E-01 1.76305E-03-3.84149E-01-1.42876E-13 1.51267E-13
 -1      3233 2.00757E+01 2.09067E-01-1.30458E-03-3.36172E-01-1.09628E-13 1.44257E-13
 -1      3234 2.00202E+01 2.34879E-01 2.70346E-04-3.21923E-01-1.12136E-13 1.90033E-13
 -1      3235 2.01150E+01 2.96353E-01 2.03592E-03-4.96146E-01-4.20606E-14 1.37948E-13
 -1      3236 2.00894E+01 2.64524E-01-1.63600E-03-4.36795E-01-8.07520E-14 1.23573E-13
 -1      3237 2.00126E+01 2.97950E-01 4.88482E-04-4.17159E-01-1.01559E-13 1.10040E-13
 -1      3238 2.01301E+01 3.62509E-01 2.30710E-03-6.32245E-01-1.67258E-13 8.36833E-14
 -1      3239 2.01012E+01 3.27451E-01-2.02366E-03-5.60461E-01-6.95082E-14 1.15168E-13
 -1      3240 1.99971E+01 3.69808E-01 7.91844E-04-5.34086E-01-7.09267E-14 1.45135E-13
 -1      3241 2.01409E+01 4.31564E-01 2.57203E-03-7.93961E-01-2.08758E-13-1.46467E-14
 -1      3242 2.01090E+01 3.95552E-01-2.44693E-03-7.09247E-01-1.31670E-13 5.75003E-14
 -1      3243 1.99700E+01 4.48353E-01 1.18160E-03-6.74685E-01-1.12095E-13 4.41164E-14
 -1      3244 2.01457E+01 4.95370E-01 2.84865E-03-9.81404E-01-5.59054E-14-1.88731E-13
 -1      3245 2.01107E+01 4.63209E-01-2.85429E-03-8.84302E-01-1.72482E-13-1.08037E-13
 -1      3246 1.99274E+01 5.28253E-01 1.62476E-03-8.40343E-01-1.15176E-13-1.05206E-13
 -1      3247 2.01452E+01 5.38244E-01 3.20551E-03-1.19246E+00 4.68055E-14-2.19051E-13
 -1      3248 2.01056E+01 5.19012E-01-3.13790E-03-1.08522E+00 6.54484E-15-1.34974E-13
 -1      3249 1.98659E+01 5.98584E-01 2.01517E-03-1.03165E+00 8.51456E-15-3.75055E-13
 -1      3250 2.01467E+01 5.32261E-01 3.79391E-03-1.42174E+00 4.14968E-14-1.82708E-13
 -1      3251 2.00971E+01 5.41903E-01-3.08260E-03-1.30926E+00 9.37250E-14-8.41555E-14
 -1      3252 1.97852E+01 6.39135E-01 2.10229E-03-1.24842E+00-2.32963E-15-2.93540E-13
 -1      3253 2.01712E+01 4.30942E-01 4.87214E-03-1.65906E+00-3.04692E-14-2.14424E-13
 -1      3254 2.00987E+01 4.95628E-01-2.27397E-03-1.55028E+00 1.51993E-14-1.90905E-13
 -1      3255 1.96925E+01 6.14903E-01 1.37671E-03-1.49007E+00 9.03225E-14-2.53591E-13
 -1      3256 2.02670E+01 1.62807E-01 6.72433E-03-1.88639E+00-2.20944E-14-2.86006E-13
 -1      3257 2.01447E+01 3.22134E-01 8.06810E-05-1.79668E+00-9.65354E-14-2.88376E-13
 -1      3258 1.96118E+01 4.68959E-01-1.05942E-03-1.75592E+00-1.33099E-14-1.94693E-13
 -1      3259 2.05270E+01-3.70169E-01 9.53881E-03-2.07047E+00-6.04887E-15-2.23664E-13
 -1      3260 2.03063E+01-6.31849E-02 5.50373E-03-2.02636E+00-5.63886E-14-3.18725E-13
 -1      3261 1.95991E+01 1.15140E-01-6.64466E-03-2.04401E+00-6.40693E-14-4.18101E-13
 -1      3262 2.11100E+01-1.27779E+00 1.21880E-02-2.14411E+00 5.34954E-14-6.25740E-14
 -1      3263 2.07161E+01-7.65437E-01 1.73911E-02-2.19332E+00 8.64612E-14-1.07691E-13
 -1      3264 1.97662E+01-5.64761E-01-1.73804E-02-2.34209E+00-7.41559E-14-4.35358E-13
 -1      3265 2.22436E+01-2.57910E+00 1.75205E-02-1.96428E+00 8.03420E-14 1.20941E-13
 -1      3266 2.15955E+01-1.87118E+00 4.12046E-02-2.18716E+00 8.73086E-14 7.63374E-14
 -1      3267 2.03002E+01-1.70738E+00-4.07573E-02-2.59720E+00 3.23049E-14-3.82645E-14
 -1      3268 2.41372E+01-4.02940E+00 1.14184E-02-1.17923E+00 1.05322E-13-6.84171E-14
 -1      3269 2.32348E+01-3.31759E+00 7.76118E-02-1.74357E+00 8.20516E-14 4.40628E-14
 -1      3270 2.16233E+01-3.38011E+00-7.83025E-02-2.63309E+00 1.50267E-13-1.29625E-13
 -1      3271 2.66612E+01-4.73396E+00-2.81362E-03 1.56578E-01 1.02622E-13-9.97119E-14
 -1      3272 2.55767E+01-4.77465E+00 5.11492E-02-7.65315E-01 1.18878E-13-8.27081E-14
 -1      3273 2.79139E+01 2.51589E+00-2.38760E-01 3.96726E+00 1.37917E-13 4.01568E-13
 -1      3274 1.14806E+01-1.46929E+00 6.75039E-02 4.13710E+00 1.11786E-14-1.52101E-14
 -1      3275 9.96265E+00-6.91104E-01 1.49148E-01 2.71379E+00-1.91774E-13-8.57786E-14
 -1      3276 2.78441E+01-3.85163E+00-1.39220E-02 1.29592E+00-2.61726E-14 2.30399E-13
 -1      3277 2.84904E+01-2.98718E+00-4.87296E-02 3.67736E-01 9.69259E-14 9.82270E-14
 -1      3278 1.46286E+01 1.50615E+00 2.35426E-01-4.94103E+00 9.78627E-14 9.77413E-14
 -1      3279 1.49214E+01-5.53746E-01 1.14974E-01-6.31754E+00 2.26812E-13 1.59386E-13
 -1      3280 2.56128E+01-2.46968E+00-3.37983E-02-1.47502E+00-2.79995E-13 1.10608E-13
 -1      3281 2.60685E+01-3.04622E+00 2.65156E-02-2.57627E+00-3.02973E-13 3.13926E-13
 -1      3282 2.01240E+01 2.93526E-01-2.01460E-03 4.38328E-02 9.53209E-14 8.70612E-14
 -1      3283 2.01699E+01 3.94583E-01 4.50769E-03 1.34402E-01 1.15082E-13 9.66791E-14
 -1      3284 2.57949E+01-3.84265E+00-2.53686E-02-4.03979E+00-8.81586E-14 2.16493E-13
 -1      3285 2.48407E+01-4.02122E+00 5.17163E-02-5.37398E+00 1.86254E-13-2.20364E-13
 -1      3286 2.50825E+01-4.73970E+00 2.83374E-02-5.71712E+00 1.38986E-13-3.19451E-13
 -1      3287 2.69651E+01-3.54665E+00 1.84582E-02-2.68005E+00-2.23329E-13 8.22328E-14
 -1      3288 2.76601E+01 2.38191E+00-1.40322E-01-3.22576E+00 2.90018E-13-7.65082E-14
 -1      3289 2.83846E+01 5.55422E-01-5.97053E-02-3.01436E+00 2.63622E-13-1.87822E-13
 -1      3290 1.99783E+01-5.53818E-02 2.95601E-04-1.57209E-01 3.51562E-14 1.09280E-13
 -1      3291 1.99754E+01-5.29975E-02 1.32655E-04-1.66003E-01 6.60659E-14 1.21255E-13
 -1      3292 2.00313E+01-5.73191E-02-5.59342E-04-1.67208E-01 3.52843E-14 4.46088E-14
 -1      3293 2.00196E+01-6.41768E-02-4.15024E-04-1.51940E-01 2.31544E-14 8.17357E-14
 -1      3294 2.69331E+01 5.36572E+00-1.14653E-01 4.35119E-01-3.92492E-13 8.31141E-14
 -1      3295 2.67900E+01 5.91946E+00-1.68617E-01-7.76604E-01 3.44585E-14 2.78659E-13
 -1      3296 2.00726E+01 1.50166E-01-1.14385E-03-7.68228E-02 1.07004E-13 3.83722E-14
 -1      3297 2.01053E+01 2.15611E-01 3.70928E-03-2.34866E-02 9.34107E-14 6.89626E-14
 -1      3298 2.01891E+01 3.15887E-01-1.49131E-03 3.58502E-02 1.14374E-13 8.42095E-14
 -1      3299 2.81417E+01 2.67444E+00-5.21836E-02 1.46080E+00-5.74804E-13 2.43347E-14
 -1      3300 2.75011E+01 4.11270E+00-1.69437E-01 1.15740E+00-6.30079E-13-2.67564E-14
 -1      3301 2.33329E+01-5.85402E+00-9.03480E-02 4.00212E+00 3.85338E-13 2.08930E-13
 -1      3302 2.05066E+01-5.28718E+00 1.06353E-01 5.24429E+00 2.50522E-13 3.99278E-13
 -1      3303 1.45334E+01-3.15913E+00 2.11779E-01-4.98616E+00 7.59809E-14 3.60989E-13
 -1      3304 1.76932E+01-4.53888E+00-5.97703E-02-4.99873E+00 1.91881E-13 2.87097E-13
 -1      3305 2.02671E+01 7.13062E-01 3.37683E-03-3.45808E-01-2.70948E-14-1.52054E-13
 -1      3306 2.02263E+01 5.51525E-01-3.41007E-03-2.14577E-01-3.25870E-14-1.35342E-13
 -1      3307 2.02719E+01 5.78789E-01-5.05844E-04-1.88396E-01-4.07868E-14-1.51572E-13
 -1      3308 8.87343E+00-4.95891E-01 9.09986E-02 1.25300E+00-3.45644E-13-1.56236E-13
 -1      3309 8.91084E+00-5.11793E-01 1.15276E-01-5.92809E-01-2.28265E-13-7.74519E-14
 -1      3310 2.02898E+01 9.89786E-01-7.75425E-04 6.89523E-01 1.53857E-13 1.04664E-13
 -1      3311 2.02685E+01 1.31142E+00 4.56644E-03 7.72824E-01 1.85827E-13 1.05601E-13
 -1      3312 2.02830E+01 1.13089E+00 5.32913E-03 5.96813E-01 1.69103E-13 8.30072E-14
 -1      3313 2.02322E+01 7.75765E-01-3.85288E-03 4.82386E-01 1.49013E-13 1.01972E-13
 -1      3314 2.15709E+01-4.72277E+00 1.65738E-01-3.69669E+00 2.51955E-13 6.04187E-14
 -1      3315 2.37600E+01-5.18879E+00-7.42499E-02-2.35896E+00 1.33459E-13-1.55168E-13
 -1      3316 2.00440E+01 2.16068E+00-4.29074E-03 2.92543E-01 1.61960E-13-6.18221E-14
 -1      3317 2.00307E+01 2.19948E+00-3.31782E-03 1.70835E-01 1.46023E-13-8.01204E-14
 -1      3318 2.86867E+01-9.68039E-01-3.26712E-03 4.05358E-01-4.37005E-13-9.53126E-14
 -1      3319 2.83900E+01 6.82830E-01-1.65378E-01 1.12959E+00-5.83575E-13 1.00475E-14
 -1      3320 2.73437E+01-4.44621E+00-1.32840E-01 2.94749E-01 3.22099E-13 7.29278E-15
 -1      3321 2.60427E+01-5.20874E+00 1.17217E-01 2.02784E+00 4.80904E-13-1.69594E-13
 -1      3322 2.01967E+01 1.89127E+00 1.06920E-03-1.00651E+00-1.11179E-14-1.91912E-13
 -1      3323 2.00236E+01 2.21824E+00-3.67572E-03 6.59645E-02 1.33404E-13-9.05769E-14
 -1      3324 2.00232E+01 2.21914E+00-3.62532E-03-5.80702E-02 1.20178E-13-1.17910E-13
 -1      3325 2.01376E+01 1.92238E+00 4.96116E-03 1.01475E-01 1.27569E-13-7.55083E-14
 -1      3326 1.88188E+01-4.59960E+00 6.06338E-02 5.50234E+00 1.83714E-13 4.19061E-13
 -1      3327 1.71853E+01-3.55851E+00 4.42083E-02 5.25715E+00 5.93414E-14 3.46299E-13
 -1      3328 2.05344E+01-4.45820E+00 4.71583E-02 4.39202E+00 2.35265E-13 3.75505E-13
 -1      3329 2.02504E+01 1.46232E+00 6.24489E-03 5.85957E-01 1.70079E-13 4.25047E-14
 -1      3330 2.01582E+01 1.80128E+00-6.96640E-03 6.85257E-01 1.94441E-13 2.44539E-14
 -1      3331 2.01229E+01 1.93087E+00-2.51138E-03 5.89764E-01 1.79594E-13-2.09284E-15
 -1      3332 2.54176E+01-1.99910E+00-1.81737E-02-6.06784E-01-2.21122E-13-4.35710E-14
 -1      3333 2.01195E+01 1.94039E+00-2.37934E-03-5.83635E-01 1.94520E-14-1.70257E-13
 -1      3334 2.01558E+01 1.80924E+00-7.36075E-03-6.82286E-01 5.34100E-15-2.01663E-13
 -1      3335 2.80924E+01-2.69157E+00-1.34969E-01-9.56202E-01-3.50234E-13 6.99787E-14
 -1      3336 2.73708E+01-1.64204E+00-2.61907E-03-8.07074E-02-3.67460E-13-9.02056E-17
 -1      3337 2.73448E+01-5.14557E-01-2.95930E-02-2.79648E+00 2.27450E-13-2.35353E-13
 -1      3338 2.02858E+01 1.10314E+00-6.57278E-04-6.31022E-01-2.83700E-14-1.62426E-13
 -1      3339 2.02567E+01 8.92672E-01-4.34631E-03-4.63311E-01-3.25392E-14-1.54998E-13
 -1      3340 2.02871E+01 9.29173E-01 1.84022E-03-4.08481E-01-3.16952E-14-1.68634E-13
 -1      3341 2.52549E+01 4.36322E+00-6.80088E-02-1.69694E+00 1.40242E-13 2.67827E-13
 -1      3342 2.40243E+01 3.98711E+00-6.42062E-02-1.12561E+00 4.04399E-14 3.97103E-13
 -1      3343 2.45815E+01-2.43276E-01-5.85615E-02-2.94624E+00 1.30820E-13 2.87555E-13
 -1      3344 2.44647E+01 8.84013E-01 1.12894E-04-3.02052E+00 1.51656E-13 3.18740E-13
 -1      3345 2.39986E+01 3.95455E+00-6.03300E-02-2.97545E-01-6.95902E-14 5.06243E-13
 -1      3346 2.02173E+01 1.56840E+00-1.95510E-03-8.07335E-01-1.94236E-14-1.72482E-13
 -1      3347 2.00343E+01 5.89877E-02-5.10103E-04-1.43833E-01 6.90144E-14 3.69713E-14
 -1      3348 2.00543E+01 1.00609E-01 2.50963E-03-1.15784E-01 1.00348E-13 2.91328E-14
 -1      3349 2.01425E+01 1.60099E-01-1.37575E-03-7.68123E-02 9.38068E-14 4.03198E-14
 -1      3350 2.00716E+01-2.19448E-03-9.55620E-04-1.68724E-01 2.33139E-14 5.19256E-14
 -1      3351 2.00081E+01 2.35349E-03-1.22712E-04-1.74315E-01 2.91160E-14 8.51176E-14
 -1      3352 2.00186E+01 2.79229E-02 1.58808E-03-1.62974E-01 3.35604E-14 4.88882E-14
 -1      3353 2.85441E+01-3.88136E+00-3.07987E-02 1.84800E+00 1.76716E-14 7.08461E-14
 -1      3354 2.54335E+01-9.22203E-01 1.72705E-03-2.69005E+00 1.53745E-13 2.17153E-14
 -1      3355 1.38038E+01-2.23251E+00 1.33702E-01-4.20516E+00-4.65392E-14 2.54199E-13
 -1      3356 1.29335E+01-1.79543E+00 1.37912E-01 4.57963E+00 9.94066E-14 1.07483E-14
 -1      3357 1.28713E+01-1.01425E+00 4.07976E-02 3.66009E+00 1.43670E-13 8.78672E-14
 -1      3358 1.45522E+01-2.36639E+00 4.36335E-02 4.85835E+00 1.40690E-13 1.62759E-13
 -1      3359 2.57823E+01-3.69755E+00 2.14103E-02 2.81635E+00-1.05360E-13 4.43987E-13
 -1      3360 2.65718E+01-3.83642E+00-3.18607E-02 1.98336E+00-5.79337E-14 1.65213E-13
 -1      3361 2.54149E+01-4.11318E+00 1.36559E-02 3.98591E+00-1.77660E-13 4.70725E-13
 -1      3362 2.70177E+01-3.48768E+00-1.68336E-02-7.34681E-01 2.30723E-13-1.84748E-14
 -1      3363 1.99880E+01-3.76756E+00 7.76828E-02-3.73647E+00 2.29851E-13 1.12476E-13
 -1      3364 2.00898E+01 2.02484E+00-5.40419E-03 5.04585E-01 1.78103E-13-2.83103E-14
 -1      3365 2.00644E+01 2.10511E+00-3.06478E-03 3.91294E-01 1.71550E-13-4.88043E-14
 -1      3366 2.01601E+01 1.84743E+00 5.22446E-03 2.91120E-01 1.53672E-13-4.57778E-14
 -1      3367 2.02011E+01 1.69580E+00 5.74339E-03 4.59468E-01 1.62053E-13-3.35897E-15
 -1      3368 2.44168E+01-5.18536E+00 1.52062E-02 2.64189E+00 3.94643E-13-1.20397E-13
 -1      3369 2.67068E+01 3.42675E+00-8.81185E-02-3.10941E+00 1.55806E-13 1.94164E-13
 -1      3370 2.62104E+01 2.17628E+00-3.84207E-02-3.10614E+00 1.67248E-13 5.62744E-14
 -1      3371 2.76151E+01-4.73148E+00-4.90882E-02 2.90652E+00-8.08173E-14 4.02546E-13
 -1      3372 2.59716E+01-4.95669E+00 4.61561E-02 4.53303E+00-1.64604E-13 4.01582E-13
 -1      3373 2.71713E+01 1.34036E+00-6.11159E-02 1.27745E+00-4.28518E-13-1.59470E-13
 -1      3374 1.08574E+01-2.33620E-01 1.10583E-01 1.75407E+00-1.44242E-13-7.64666E-14
 -1      3375 2.51317E+01 4.35679E+00-8.69411E-02 3.20431E-01-2.12524E-13 2.41949E-13
 -1      3376 2.72702E+01-4.64695E+00-6.45380E-02-3.97588E+00-5.57887E-14-2.65322E-13
 -1      3377 2.76039E+01-3.66728E+00 1.79293E-02-2.40173E+00-2.63614E-13-3.47639E-14
 -1      3378 2.00615E+01 2.11125E+00-3.06482E-03-3.83433E-01 6.34463E-14-1.39931E-13
 -1      3379 2.00860E+01 2.03333E+00-5.28973E-03-4.97735E-01 4.33632E-14-1.61546E-13
 -1      3380 2.01978E+01 1.70321E+00 5.37218E-03-4.53882E-01 9.93929E-16-1.37984E-13
 -1      3381 9.86639E+00-4.90319E-01 1.33159E-01-1.51074E+00-2.41668E-13-6.41431E-14
 -1      3382 1.10145E+01-7.52090E-01 7.85232E-04-2.47829E+00-2.14656E-13-4.29656E-14
 -1      3383 1.08857E+01 6.22695E-03 1.07653E-01-7.52571E-01-2.75876E-13-7.11584E-14
 -1      3384 2.60720E+01 4.15226E+00-7.61334E-02 7.03487E-01-3.80834E-13 5.27529E-14
 -1      3385 2.01760E+01 4.88749E-01-2.16706E-03 2.20395E-01 1.28231E-13 8.57444E-14
 -1      3386 2.02326E+01 6.35156E-01 4.23108E-03 3.62078E-01 1.33071E-13 9.01227E-14
 -1      3387 2.02562E+01 7.76766E-01-4.82596E-03 4.19306E-01 1.45755E-13 8.81025E-14
 -1      3388 2.02284E+01 5.22496E-01-2.00008E-03 1.98994E-01 1.25142E-13 1.14076E-13
 -1      3389 1.85238E+01-1.32536E+00 2.77506E-02 6.65813E+00 6.50938E-14-2.80290E-13
 -1      3390 2.54249E+01 1.63049E+00-3.03303E-02-3.13313E+00 1.46494E-13 1.46026E-13
 -1      3391 2.49411E+01-4.58881E+00 6.50087E-02 5.21373E+00-1.83610E-13 5.04159E-13
 -1      3392 1.30772E+01-1.26317E+00 1.36942E-01-3.56611E+00-1.72109E-13 1.23589E-13
 -1      3393 1.56022E+01-2.23840E+00 3.22021E-02-4.11131E+00-7.45654E-14 3.27280E-13
 -1      3394 1.32776E+01-6.25922E-01 1.08921E-01-2.71110E+00-2.71561E-13 3.72966E-15
 -1      3395 2.02662E+01 2.36289E-01 2.12099E-03 3.96408E-02-4.84420E-14-9.65561E-14
 -1      3396 2.02416E+01 1.60809E-01-1.28827E-03 8.02922E-02-2.87964E-14-8.00494E-14
 -1      3397 2.02267E+01 1.01783E-01 1.61998E-03 1.06226E-01 1.35720E-15-6.40628E-14
 -1      3398 2.02051E+01 5.28822E-02-6.61264E-04 1.27867E-01 7.03672E-14-3.42287E-14
 -1      3399 2.02829E+01 1.58034E-01-4.43204E-04 7.65260E-02 1.22066E-14-2.72403E-14
 -1      3400 2.01877E+01 1.55978E-02 1.13359E-03 1.39988E-01 6.58076E-14-6.05632E-14
 -1      3401 2.01698E+01-1.44322E-02-2.27524E-04 1.48578E-01 6.47927E-14-8.75091E-14
 -1      3402 2.02451E+01 4.70133E-02-5.89960E-04 1.17620E-01 4.84943E-14-2.21349E-14
 -1      3403 2.01521E+01-3.64555E-02 7.38195E-04 1.51366E-01 6.00956E-14-1.31267E-13
 -1      3404 2.01379E+01-5.32684E-02 5.39144E-05 1.51528E-01 2.50801E-14-1.11132E-13
 -1      3405 2.02066E+01-2.20181E-02-6.27814E-04 1.35229E-01 3.52670E-14-1.12070E-13
 -1      3406 2.01212E+01-6.46961E-02 4.37502E-04 1.48484E-01 3.70794E-14-8.64038E-14
 -1      3407 2.01103E+01-7.23783E-02 2.26179E-04 1.43654E-01 4.51117E-14-5.07067E-14
 -1      3408 2.01706E+01-6.13774E-02-6.02864E-04 1.37275E-01 4.46936E-14-1.29835E-13
 -1      3409 2.00954E+01-7.65438E-02 2.17770E-04 1.37386E-01 1.22572E-14-5.15503E-14
 -1      3410 2.00872E+01-7.80103E-02 3.23091E-04 1.30045E-01-1.20643E-14-2.26325E-14
 -1      3411 2.01384E+01-8.00858E-02-5.44132E-04 1.29874E-01 2.28116E-14-1.00221E-13
 -1      3412 2.00743E+01-7.72670E-02 6.11653E-05 1.22435E-01-1.08727E-13-1.89633E-14
 -1      3413 2.00683E+01-7.45538E-02 3.70802E-04 1.14332E-01-1.18619E-13-7.45687E-14
 -1      3414 2.01108E+01-8.46487E-02-4.73003E-04 1.17557E-01-4.85362E-14-1.02874E-13
 -1      3415 2.00574E+01-7.05098E-02-5.06501E-05 1.06703E-01-9.20516E-14-7.52997E-14
 -1      3416 2.00532E+01-6.49707E-02 3.90059E-04 9.90608E-02-9.73909E-14-8.12245E-14
 -1      3417 2.00876E+01-7.96249E-02-3.95595E-04 1.03573E-01-1.08894E-13-6.15058E-14
 -1      3418 2.00440E+01-5.86589E-02-1.33287E-04 9.23437E-02-1.09096E-13-8.20687E-14
 -1      3419 2.00413E+01-5.11282E-02 3.95708E-04 8.60338E-02-1.61607E-13-7.83736E-14
 -1      3420 2.00685E+01-6.80818E-02-3.19180E-04 9.02167E-02-9.11471E-14-8.94349E-14
 -1      3421 2.00335E+01-4.31501E-02-1.99518E-04 8.09042E-02-1.83688E-13-6.79774E-14
 -1      3422 2.00318E+01-3.40697E-02 3.97817E-04 7.65725E-02-1.57728E-13-3.18820E-14
 -1      3423 2.00527E+01-5.19207E-02-2.44531E-04 7.91375E-02-1.59993E-13-1.08447E-13
 -1      3424 2.00250E+01-2.46982E-02-2.60491E-04 7.35535E-02-1.07558E-13-5.11130E-14
 -1      3425 2.00241E+01-1.42120E-02 4.03805E-04 7.17243E-02-1.28493E-13-4.26797E-14
 -1      3426 2.00394E+01-3.21704E-02-1.71281E-04 7.15670E-02-1.14801E-13-2.26143E-14
 -1      3427 2.00178E+01-3.47403E-03-3.25192E-04 7.12707E-02-1.61132E-13 2.75421E-14
 -1      3428 2.00174E+01 8.49290E-03 4.18983E-04 7.24253E-02-1.06606E-13-3.46948E-14
 -1      3429 2.00279E+01-9.19598E-03-9.79988E-05 6.85047E-02-9.62142E-14 8.00912E-14
 -1      3430 2.00111E+01 2.07444E-02-4.00728E-04 7.49878E-02-3.61270E-14-4.33051E-14
 -1      3431 2.00109E+01 3.44137E-02 4.46913E-04 7.96201E-02 1.38215E-14-3.74249E-14
 -1      3432 2.00169E+01 1.71260E-02-2.22145E-05 7.08679E-02-5.79575E-14 1.03187E-13
 -1      3433 2.00040E+01 4.84312E-02-4.92597E-04 8.56918E-02-1.03461E-14 6.51937E-15
 -1      3434 2.00039E+01 6.40997E-02 4.89840E-04 9.43445E-02-6.17900E-14 2.59433E-14
 -1      3435 2.00055E+01 4.72461E-02 5.89424E-05 7.96008E-02 4.06835E-14 1.10060E-13
 -1      3436 1.99956E+01 8.01679E-02-6.04563E-04 1.04491E-01-6.85583E-14 5.37521E-14
 -1      3437 1.99952E+01 9.81259E-02 5.49028E-04 1.17772E-01 1.66326E-14 4.80639E-14
 -1      3438 1.99924E+01 8.17819E-02 1.48139E-04 9.57506E-02-1.05404E-14 1.41124E-13
 -1      3439 1.99849E+01 1.16474E-01-7.38191E-04 1.32644E-01 6.65756E-14 1.01231E-14
 -1      3440 1.99842E+01 1.36903E-01 6.25115E-04 1.51224E-01 1.11406E-13-3.51027E-14
 -1      3441 1.99763E+01 1.21338E-01 2.47064E-04 1.20513E-01 1.29981E-15 6.66341E-14
 -1      3442 1.99711E+01 1.57589E-01-8.91983E-04 1.71561E-01 1.25515E-13-6.25777E-14
 -1      3443 1.99697E+01 1.80426E-01 7.18618E-04 1.96141E-01 7.19949E-14-6.65967E-14
 -1      3444 1.99557E+01 1.66284E-01 3.55281E-04 1.55249E-01 9.53909E-14-8.60862E-14
 -1      3445 1.99531E+01 2.03181E-01-1.06005E-03 2.22748E-01-4.79400E-14-8.31229E-14
 -1      3446 1.99509E+01 2.27934E-01 8.30818E-04 2.54009E-01-1.10177E-13-1.14799E-13
 -1      3447 1.99293E+01 2.16457E-01 4.68485E-04 2.01471E-01 4.92201E-15-1.07350E-13
 -1      3448 1.99303E+01 2.51950E-01-1.23013E-03 2.87725E-01-9.59816E-14-8.26849E-14
 -1      3449 1.99275E+01 2.77446E-01 9.65308E-04 3.26238E-01-2.14560E-14-9.54968E-14
 -1      3450 1.98958E+01 2.70769E-01 5.75861E-04 2.60802E-01-6.63602E-14-7.57515E-14
 -1      3451 1.99025E+01 3.01090E-01-1.38084E-03 3.67880E-01-9.10757E-14-1.38745E-13
 -1      3452 1.98996E+01 3.25141E-01 1.13050E-03 4.13979E-01-2.16114E-13-8.18024E-14
 -1      3453 1.98542E+01 3.26675E-01 6.56125E-04 3.34904E-01-1.28572E-13-9.41823E-14
 -1      3454 1.98707E+01 3.45579E-01-1.47765E-03 4.64275E-01-2.01771E-13 2.99413E-14
 -1      3455 1.98689E+01 3.64557E-01 1.34316E-03 5.17895E-01-1.12695E-13 1.12517E-14
 -1      3456 1.98044E+01 3.79472E-01 6.71662E-04 4.25389E-01-1.12235E-13-2.44906E-14
 -1      3457 1.98375E+01 3.77283E-01-1.46676E-03 5.77391E-01-3.39287E-14 1.56977E-14
 -1      3458 1.98392E+01 3.85594E-01 1.63231E-03 6.37850E-01-1.05485E-15 8.79258E-14
 -1      3459 1.97480E+01 4.21407E-01 5.59855E-04 5.33716E-01-6.25258E-14 8.13702E-14
 -1      3460 1.98086E+01 3.83882E-01-1.26536E-03 7.06793E-01 3.19035E-14 8.71635E-14
 -1      3461 1.98184E+01 3.73380E-01 2.04136E-03 7.72508E-01 4.20752E-14 1.97972E-13
 -1      3462 1.96890E+01 4.40589E-01 2.20482E-04 6.61072E-01 4.56857E-14 4.69267E-14
 -1      3463 1.97946E+01 3.47715E-01-7.44345E-04 8.50658E-01-1.13461E-13 1.54090E-13
 -1      3464 1.98200E+01 3.07146E-01 2.62446E-03 9.18728E-01-1.23074E-13 1.43417E-13
 -1      3465 1.96358E+01 4.19746E-01-5.01437E-04 8.08213E-01-2.38248E-14 5.06769E-14
 -1      3466 1.98136E+01 2.44806E-01 3.09589E-04 1.00497E+00-1.57158E-13 8.65067E-14
 -1      3467 1.98666E+01 1.59462E-01 3.40932E-03 1.07048E+00-5.93809E-14-5.77507E-15
 -1      3468 1.96036E+01 3.34969E-01-1.83728E-03 9.75116E-01-1.93088E-13 4.66304E-14
 -1      3469 1.98950E+01 4.45776E-02 2.22303E-03 1.16187E+00-2.11256E-14-2.34880E-13
 -1      3470 1.99932E+01-1.03249E-01 4.32040E-03 1.21653E+00-3.65583E-14-3.21070E-13
 -1      3471 1.96179E+01 1.54746E-01-4.12934E-03 1.16001E+00-2.10053E-13-2.11759E-13
 -1      3472 2.00834E+01-2.88247E-01 5.51976E-03 1.30613E+00 7.30333E-14-3.81815E-13
 -1      3473 2.02508E+01-5.17016E-01 5.00353E-03 1.33577E+00 1.49791E-14-3.38174E-13
 -1      3474 1.97192E+01-1.59687E-01-7.84948E-03 1.35665E+00-4.73669E-14-5.35594E-13
 -1      3475 2.04435E+01-7.87155E-01 1.09657E-02 1.40786E+00-6.67362E-14-2.17408E-13
 -1      3476 2.07080E+01-1.10981E+00 4.39015E-03 1.38796E+00-1.28896E-13-3.29709E-13
 -1      3477 1.99696E+01-6.50952E-01-1.36075E-02 1.54816E+00 1.90145E-14-4.90521E-13
 -1      3478 2.10605E+01-1.46628E+00 1.93932E-02 1.40708E+00-8.63289E-14-2.00593E-13
 -1      3479 2.14433E+01-1.87201E+00 5.72123E-04 1.29682E+00-3.74176E-14-1.61315E-13
 -1      3480 2.04595E+01-1.35453E+00-2.20248E-02 1.69202E+00-2.64868E-14-2.26633E-13
 -1      3481 2.20218E+01-2.27730E+00 3.04733E-02 1.19306E+00-2.44128E-14-1.33345E-13
 -1      3482 2.25154E+01-2.69211E+00-7.65139E-03 9.33975E-01 5.04501E-14-1.33165E-13
 -1      3483 2.13067E+01-2.26268E+00-3.32413E-02 1.69147E+00-9.54401E-15-2.48842E-13
 -1      3484 2.33509E+01-3.03552E+00 3.46393E-02 5.97183E-01 1.02996E-13-5.52915E-14
 -1      3485 2.38860E+01-3.27045E+00-1.92042E-02 1.40800E-01 2.84683E-13-1.14787E-14
 -1      3486 2.26477E+01-3.18915E+00-2.57236E-02 1.36595E+00 1.27834E-13-1.55624E-13
 -1      3487 2.59382E+01 5.24469E+00-4.30778E-02-1.29269E+00 1.43677E-13 4.42917E-13
 -1      3488 2.00993E+01-4.62429E-02 5.97818E-05-1.63149E-01 5.03217E-14 9.25411E-15
 -1      3489 2.01109E+01-2.98010E-02 8.07741E-04-1.62819E-01 5.49096E-14-3.62859E-15
 -1      3490 2.00341E+01-6.13645E-02 3.89182E-04-1.06550E-01-1.96652E-14 1.21977E-13
 -1      3491 2.00357E+01-6.60628E-02-8.09522E-05-1.14988E-01-3.38150E-14 9.03367E-14
 -1      3492 2.00446E+01-6.93383E-02 3.69455E-04-1.23416E-01-1.57498E-14 9.65522E-14
 -1      3493 2.00478E+01-7.13964E-02 3.54081E-05-1.32246E-01-2.30769E-14 9.40160E-14
 -1      3494 2.00684E+01-7.54513E-02-3.72189E-04-1.14317E-01-4.00916E-14 1.20070E-13
 -1      3495 2.00211E+01-3.45828E-02 4.04307E-04-8.07764E-02-5.87088E-14 1.92369E-13
 -1      3496 2.00206E+01-4.25376E-02-2.22060E-04-8.59099E-02-3.06652E-14 1.85008E-13
 -1      3497 2.00175E+01-1.71760E-02 4.17465E-04-7.43844E-02-6.47561E-14 1.90041E-13
 -1      3498 2.00163E+01-2.64146E-02-2.74240E-04-7.69843E-02-6.88539E-14 1.87028E-13
 -1      3499 2.00317E+01-3.39735E-02-1.71212E-04-7.71472E-02-8.09794E-14 1.82037E-13
 -1      3500 2.00150E+01 2.87214E-03 4.42174E-04-7.36734E-02-5.96552E-14 1.90067E-13
 -1      3501 2.00132E+01-7.75257E-03-3.28946E-04-7.32374E-02-7.32051E-14 1.94177E-13
 -1      3502 2.00239E+01-1.34756E-02-1.12720E-04-7.26144E-02-5.93381E-14 1.70830E-13
 -1      3503 2.00131E+01 2.60359E-02 4.81926E-04-7.96419E-02-4.09542E-14 2.05527E-13
 -1      3504 2.00108E+01 1.37386E-02-3.95317E-04-7.56435E-02-2.04371E-14 1.85709E-13
 -1      3505 2.00170E+01 1.02073E-02-5.26265E-05-7.37440E-02-5.07697E-14 2.24256E-13
 -1      3506 2.00111E+01 5.30928E-02 5.38575E-04-9.34052E-02 2.63653E-14 2.77485E-13
 -1      3507 2.00085E+01 3.86902E-02-4.81515E-04-8.52451E-02-2.05661E-14 2.19663E-13
 -1      3508 2.00101E+01 3.76728E-02 1.44507E-05-8.15298E-02-3.35993E-14 2.87753E-13
 -1      3509 2.00082E+01 8.50557E-02 6.12219E-04-1.16264E-01 5.48618E-15 3.27478E-13
 -1      3510 2.00054E+01 6.80027E-02-5.95207E-04-1.03238E-01 5.26948E-14 2.82658E-13
 -1      3511 2.00020E+01 6.98415E-02 9.54281E-05-9.70729E-02 2.72274E-15 2.02366E-13
 -1      3512 2.00035E+01 1.23105E-01 7.00924E-04-1.49743E-01 1.98475E-14 2.39660E-13
 -1      3513 2.00008E+01 1.02780E-01-7.43930E-04-1.31023E-01 6.22283E-16 2.32602E-13
 -1      3514 1.99914E+01 1.07876E-01 1.99135E-04-1.21634E-01 3.99303E-14 2.58098E-13
 -1      3515 1.99955E+01 1.68502E-01 8.00358E-04-1.95590E-01 1.01920E-13 2.06504E-13
 -1      3516 1.99932E+01 1.44254E-01-9.35305E-04-1.70230E-01 8.57359E-14 2.68800E-13
 -1      3517 1.99767E+01 1.53094E-01 3.36789E-04-1.56653E-01 5.39170E-14 1.64059E-13
 -1      3518 1.99824E+01 2.22468E-01 9.03540E-04-2.55740E-01-4.82807E-14 2.40505E-13
 -1      3519 1.99811E+01 1.93686E-01-1.17706E-03-2.22696E-01 3.31952E-14 2.70029E-13
 -1      3520 1.99558E+01 2.06858E-01 5.22470E-04-2.03729E-01 4.62187E-14 2.71287E-13
 -1      3521 1.99617E+01 2.85983E-01 1.00119E-03-3.32229E-01-1.72160E-13 2.90757E-13
 -1      3522 1.99622E+01 2.52207E-01-1.47687E-03-2.90412E-01-1.06910E-13 2.66276E-13
 -1      3523 1.99257E+01 2.70420E-01 7.73401E-04-2.64559E-01-1.28477E-13 3.58475E-13
 -1      3524 1.99300E+01 3.59454E-01 1.08365E-03-4.27069E-01-4.06994E-14 2.15353E-13
 -1      3525 1.99337E+01 3.20566E-01-1.84188E-03-3.75423E-01-9.00410E-14 3.07815E-13
 -1      3526 1.98831E+01 3.44663E-01 1.10961E-03-3.40845E-01-1.06961E-13 3.14117E-13
 -1      3527 1.98832E+01 4.42163E-01 1.14598E-03-5.42076E-01-7.34102E-14 1.10792E-13
 -1      3528 1.98916E+01 3.98696E-01-2.27791E-03-4.79684E-01-6.54842E-14 1.67764E-13
 -1      3529 1.98232E+01 4.29703E-01 1.55225E-03-4.34170E-01-4.58983E-14 2.51574E-13
 -1      3530 1.98161E+01 5.31342E-01 1.19892E-03-6.78713E-01-1.00746E-13 8.01542E-14
 -1      3531 1.98312E+01 4.84997E-01-2.78817E-03-6.04920E-01-6.66721E-14 1.07441E-13
 -1      3532 1.97405E+01 5.24235E-01 2.11920E-03-5.45887E-01-2.41164E-14 1.66457E-13
 -1      3533 1.97231E+01 6.20675E-01 1.28875E-03-8.38018E-01 4.99007E-14-1.42830E-13
 -1      3534 1.97468E+01 5.75149E-01-3.37172E-03-7.52530E-01 5.65357E-15-2.89630E-14
 -1      3535 1.96280E+01 6.24487E-01 2.81524E-03-6.77123E-01 2.51235E-14 5.75037E-14
 -1      3536 1.95993E+01 6.97956E-01 1.53598E-03-1.02081E+00 4.87197E-14-2.03657E-13
 -1      3537 1.96327E+01 6.60217E-01-4.02386E-03-9.23687E-01 4.39277E-14-1.44671E-13
 -1      3538 1.94782E+01 7.22581E-01 3.61309E-03-8.29051E-01 1.02350E-13-1.47669E-14
 -1      3539 1.94430E+01 7.41542E-01 2.20336E-03-1.22852E+00-5.78728E-14-1.89497E-13
 -1      3540 1.94843E+01 7.23751E-01-4.73428E-03-1.11992E+00-6.68940E-14-3.20987E-13
 -1      3541 1.92834E+01 8.04115E-01 4.42590E-03-1.00377E+00 1.89435E-14-2.93700E-14
 -1      3542 1.92611E+01 7.15025E-01 3.76277E-03-1.46505E+00 5.21648E-14-1.16364E-13
 -1      3543 1.93019E+01 7.37448E-01-5.43738E-03-1.34464E+00 6.10770E-14-1.28424E-13
 -1      3544 1.90382E+01 8.44506E-01 5.04577E-03-1.20641E+00-6.98058E-15-1.26377E-13
 -1      3545 1.90781E+01 5.59959E-01 7.00601E-03-1.73927E+00 1.97220E-14-1.07304E-13
 -1      3546 1.90977E+01 6.54758E-01-5.89009E-03-1.60562E+00 6.92497E-14-5.54659E-14
 -1      3547 1.87434E+01 8.03236E-01 5.03495E-03-1.44910E+00 1.53354E-14-7.87631E-14
 -1      3548 1.89530E+01 1.88387E-01 1.32777E-02-2.06666E+00-1.00548E-13-1.58329E-13
 -1      3549 1.89076E+01 4.03402E-01-5.35480E-03-1.91773E+00-7.51095E-14-1.55912E-13
 -1      3550 1.84145E+01 6.16366E-01 3.70472E-03-1.75597E+00-3.74989E-14 8.40527E-14
 -1      3551 1.89995E+01-5.28040E-01 2.14451E-02-2.46683E+00-1.35092E-13-1.83927E-13
 -1      3552 1.88147E+01-1.22460E-01-1.72434E-03-2.30511E+00-1.26159E-13-2.62918E-13
 -1      3553 1.80956E+01 1.88450E-01-1.04451E-04-2.17063E+00-1.04731E-13 7.34884E-14
 -1      3554 1.95221E+01-1.74239E+00 3.83147E-02-2.89832E+00-9.59332E-14 5.88037E-14
 -1      3555 1.90028E+01-1.05701E+00 1.74501E-02-2.77508E+00-1.88533E-13-1.34264E-13
 -1      3556 1.79185E+01-6.44388E-01-6.40562E-03-2.75674E+00-1.83108E-13-5.88121E-14
 -1      3557 1.91122E+01-2.74135E+00 7.12195E-02-3.62126E+00 1.19389E-13 1.64089E-13
 -1      3558 2.64565E+01-2.80298E+00-6.03108E-02-1.52052E+00 2.00940E-13-8.08104E-14
 -1      3559 2.62551E+01-3.89609E+00 6.61327E-02-1.69965E-01 2.89980E-13-8.18443E-14
 -1      3560 2.56282E+01 3.84602E+00-1.62357E-01-2.69435E+00 9.04138E-14 3.52038E-13
 -1      3561 2.02182E+01 1.58308E+00 2.00364E-03-6.99159E-01-1.49944E-14-1.75716E-13
 -1      3562 2.02573E+01 1.36731E+00 3.32620E-03-5.38021E-01-2.88423E-14-1.69509E-13
 -1      3563 2.00558E+01-3.13426E+00 1.32078E-01 7.11100E+00-3.50553E-14-7.94087E-14
 -1      3564 2.02345E+01 3.20022E-01-2.17482E-03 1.54310E-02 1.31384E-13 7.30703E-14
 -1      3565 2.02652E+01 4.29464E-01 3.06856E-03 8.93184E-02 1.32526E-13 9.07761E-14
 -1      3566 2.49410E+01-4.80522E+00-8.21720E-02 1.46540E+00 3.47358E-13-3.31363E-13
 -1      3567 2.31489E+01-4.78860E+00 5.73687E-02 3.03420E+00 3.09687E-13-1.43506E-13
 -1      3568 2.03113E+01 7.35396E-01 1.41593E-03-2.41036E-01-3.12692E-14-1.42272E-13
 -1      3569 2.02958E+01 5.72858E-01-2.60665E-03-1.41663E-01-5.64539E-14-1.48996E-13
 -1      3570 2.00295E+01 2.20183E+00-3.34110E-03-1.62926E-01 1.17181E-13-1.29691E-13
 -1      3571 2.00418E+01 2.16519E+00-4.21853E-03-2.84429E-01 9.23098E-14-1.34239E-13
 -1      3572 2.01582E+01 1.85240E+00 5.33224E-03-2.84836E-01 6.78983E-14-1.18114E-13
 -1      3573 1.21492E+01-6.35279E-02 3.34665E-02 2.05047E+00 8.02564E-14 1.72945E-13
 -1      3574 1.14502E+01 2.48814E-01 7.40875E-02 7.09297E-01-1.44183E-13 2.45221E-14
 -1      3575 2.00265E+01-4.94415E-02 3.97497E-04-9.18659E-02-2.58298E-14 1.40873E-13
 -1      3576 2.00269E+01-5.59834E-02-1.62235E-04-9.89881E-02-1.81461E-14 1.62242E-13
 -1      3577 2.00532E+01-6.56389E-02-2.99626E-04-9.92042E-02-5.64158E-14 1.11900E-13
 -1      3578 2.00412E+01-5.14726E-02-2.32297E-04-8.63687E-02-4.85899E-14 1.91425E-13
 -1      3579 2.59968E+01-1.61001E+00-9.59749E-03-1.19585E-01-3.74343E-13-1.96423E-14
 -1      3580 2.62780E+01 4.67338E-01-1.15025E-01-3.19688E+00 2.34996E-13-9.73180E-14
 -1      3581 2.02990E+01 4.38660E-01 2.37601E-03-7.20814E-02-6.29664E-14-1.27018E-13
 -1      3582 2.02746E+01 3.26225E-01-2.06955E-03-5.27522E-03-5.47780E-14-1.05289E-13
 -1      3583 2.03146E+01 3.27302E-01-1.77272E-04 2.36781E-03-3.70531E-14-6.93905E-14
 -1      3584 2.64480E+01-8.10984E-01-1.86345E-02-2.69914E+00 1.40898E-13-1.07091E-13
 -1      3585 2.61981E+01-2.09860E+00-3.74635E-02-2.14629E+00 1.70234E-13-5.58477E-14
 -1      3586 2.54326E+01-2.64101E+00-2.31962E-02-1.49004E+00 2.35692E-13-2.83096E-14
 -1      3587 2.19169E+01-4.53784E+00 9.63721E-03 3.64586E+00 2.04821E-13 9.58608E-15
 -1      3588 2.05209E+01-3.73998E+00 6.64667E-02 3.87411E+00 1.28906E-13 1.99852E-13
 -1      3589 2.27386E+01-4.11516E+00 2.83991E-03 2.43692E+00 2.25067E-13-3.66608E-13
 -1      3590 2.02775E+01 1.14148E+00-4.89727E-03 4.92890E-01 1.51847E-13 4.78452E-14
 -1      3591 2.02654E+01 1.28599E+00-1.58914E-04 4.53315E-01 1.52092E-13 1.32368E-14
 -1      3592 2.02350E+01 1.48926E+00-9.54075E-04-3.41445E-01 1.91702E-14-9.91528E-14
 -1      3593 2.02478E+01 1.39124E+00-4.45354E-03-4.08980E-01-1.38994E-14-1.24658E-13
 -1      3594 2.46346E+01-3.63301E+00-2.40947E-02 1.21632E-01 2.76761E-13-1.43204E-14
 -1      3595 2.50074E+01-3.08895E+00 6.90948E-03-8.42641E-01 3.16972E-13-5.64505E-14
 -1      3596 2.02018E+01 1.63943E+00-3.33651E-03 1.30554E-01 1.28331E-13-5.36786E-14
 -1      3597 2.01978E+01 1.65924E+00-2.65047E-03 3.99504E-02 1.12374E-13-8.72241E-14
 -1      3598 2.61223E+01-5.51126E-01-8.93586E-02 9.10257E-01-4.47781E-13-1.45137E-13
 -1      3599 2.02698E+01 1.28168E+00 1.96335E-03-4.25833E-01-1.96078E-14-1.70522E-13
 -1      3600 2.02939E+01 1.04537E+00-2.73465E-03-4.23197E-01-2.53853E-14-1.63554E-13
 -1      3601 2.02938E+01 8.55114E-01-2.19835E-03-3.04180E-01-2.48943E-14-1.66045E-13
 -1      3602 2.03052E+01 1.09877E+00 1.34365E-03-3.11019E-01-1.05664E-14-1.28089E-13
 -1      3603 2.00846E+01-5.75110E-02 4.55150E-04-1.60229E-01 3.16258E-14 6.66633E-15
 -1      3604 2.01389E+01-5.43444E-02-6.34668E-04-1.51012E-01 3.79316E-14-2.49155E-14
 -1      3605 2.00766E+01-6.52809E-02 2.25903E-04-1.55094E-01 1.79458E-14 2.48367E-14
 -1      3606 2.63558E+01 6.94277E-01-1.63251E-02 1.21719E+00-4.02109E-13-1.12702E-13
 -1      3607 2.03201E+01 8.58628E-01 1.41098E-03-2.51931E-01-2.96105E-14-1.40046E-13
 -1      3608 2.01028E+01 6.00091E-02-1.18833E-03-1.39960E-01 5.00195E-14 4.68081E-14
 -1      3609 2.01272E+01-8.50802E-03-2.15984E-04-1.59093E-01 3.04546E-14 1.27087E-14
 -1      3610 2.01432E+01 2.05395E-02 1.28298E-03-1.49550E-01 1.97472E-14 1.93689E-14
 -1      3611 2.01715E+01-1.52702E-02-7.03255E-04-1.47830E-01 3.46368E-14-5.94053E-14
 -1      3612 2.00874E+01-7.90644E-02-4.52116E-04-1.29875E-01-4.18807E-16 7.41922E-14
 -1      3613 2.00586E+01-7.15937E-02 3.21251E-04-1.40521E-01 6.11273E-15 7.49087E-14
 -1      3614 2.00638E+01-6.97082E-02 2.06951E-04-1.48448E-01 3.13847E-14 6.53229E-14
 -1      3615 1.73103E+01-2.15986E+00 5.95706E-03-3.82500E+00-2.54206E-14 1.65187E-13
 -1      3616 1.63612E+01-2.64259E+00 8.49966E-02 4.81552E+00 8.82523E-14 2.64459E-13
 -1      3617 1.55655E+01-1.70302E+00 2.10757E-02 4.11848E+00 1.25761E-13 1.64160E-13
 -1      3618 1.79044E+01-2.98110E+00-3.66293E-02 4.39350E+00 1.12929E-13 4.02171E-13
 -1      3619 2.01370E+01 1.92392E+00 4.98449E-03-9.48989E-02 1.04573E-13-1.11796E-13
 -1      3620 2.58307E+01 1.94836E+00-1.36164E-01 1.39436E+00-4.28733E-13-1.38851E-13
 -1      3621 2.58234E+01 3.51734E+00-2.50981E-02 1.09286E+00-4.02414E-13 6.61866E-14
 -1      3622 2.49453E+01-4.07543E+00-1.98123E-02 5.36856E-01 3.26782E-13-1.32547E-13
 -1      3623 2.02237E+01 2.33299E-01 2.57100E-03-3.65199E-02 1.16684E-13 6.67515E-14
 -1      3624 2.02812E+01 3.28000E-01-4.14301E-04 6.97944E-03 1.50211E-13 6.35653E-14
 -1      3625 2.01969E+01 1.60173E-01-1.31031E-03-8.13733E-02 1.08901E-13 6.76520E-14
 -1      3626 1.37695E+01-6.42657E-01 2.80703E-02 3.14946E+00 1.32900E-13 6.52395E-14
 -1      3627 1.28698E+01-1.90932E-01 1.02776E-01 2.63066E+00 1.24108E-13 1.84738E-13
 -1      3628 1.31315E+01 2.06394E-01 9.42617E-03 1.72688E+00-5.88790E-14 2.97658E-13
 -1      3629 2.03049E+01 5.74708E-01-4.45868E-05 1.43580E-01 1.34187E-13 5.76084E-14
 -1      3630 2.02672E+01 5.62705E-01-2.10935E-03 1.71059E-01 1.16944E-13 9.73517E-14
 -1      3631 2.03305E+01 5.77233E-01 4.87170E-04-1.14948E-01-4.47587E-14-1.23976E-13
 -1      3632 2.02861E+01 6.86209E-01 1.14089E-03 2.67518E-01 1.28654E-13 8.68574E-14
 -1      3633 1.30137E+01 5.18740E-01 3.55668E-02 3.78391E-01-4.50594E-14 8.03108E-14
 -1      3634 1.17810E+01 3.38851E-01 6.80930E-02 1.28861E-03-2.00823E-13-4.67230E-14
 -1      3635 1.23177E+01 2.62402E-01-3.21662E-03-9.64486E-01-2.06224E-13-8.63545E-14
 -1      3636 2.02214E+01 1.54793E+00-3.96061E-03 2.85291E-01 1.47567E-13-3.32033E-14
 -1      3637 2.02107E+01 1.60633E+00-2.02332E-03 2.01450E-01 1.44641E-13-3.50172E-14
 -1      3638 2.02847E+01 1.38530E+00 4.80774E-03 1.33555E-01 1.36634E-13-1.77447E-14
 -1      3639 2.02716E+01 9.56050E-01 1.88139E-03 4.62919E-01 1.55776E-13 7.70472E-14
 -1      3640 2.02850E+01 8.22904E-01 1.89324E-03 3.37462E-01 1.42302E-13 7.75813E-14
 -1      3641 2.02796E+01 1.42050E+00 5.01722E-03 2.20064E-03 1.05061E-13-8.15757E-14
 -1      3642 2.01975E+01 1.65984E+00-2.68775E-03-3.44643E-02 1.05676E-13-1.01366E-13
 -1      3643 2.02013E+01 1.64171E+00-3.20560E-03-1.25004E-01 9.96287E-14-1.07066E-13
 -1      3644 2.03277E+01 9.50346E-01-5.80929E-05-2.54609E-01-9.18798E-15-9.54104E-14
 -1      3645 2.03340E+01 8.22830E-01-1.79581E-03-1.88633E-01-2.41054E-14-7.85333E-14
 -1      3646 2.03188E+01 1.06481E+00-1.60064E-04-2.44468E-01 8.84774E-15-6.49354E-14
 -1      3647 2.03334E+01 2.15607E-01 1.32633E-03 4.76094E-02 7.21393E-15-2.40877E-14
 -1      3648 2.03127E+01 1.40754E-01-1.03689E-03 7.67630E-02 5.15621E-15-1.44756E-14
 -1      3649 2.02191E+01 1.55307E+00-4.04253E-03-2.79917E-01 4.68277E-14-9.02196E-14
 -1      3650 2.02951E+01 1.28882E+00 4.35303E-03-2.49254E-01 3.09799E-14-5.63753E-14
 -1      3651 2.02086E+01 1.60960E+00-2.30755E-03-1.96731E-01 7.76006E-14-9.22971E-14
 -1      3652 2.02975E+01 8.15879E-02 1.08007E-03 9.28510E-02 3.32946E-14-1.26892E-14
 -1      3653 2.02760E+01 3.31756E-02-5.19474E-04 1.08072E-01 4.12071E-14-2.83824E-14
 -1      3654 2.03392E+01 1.30227E-01-1.34053E-04 6.87526E-02 8.59027E-15-9.09698E-15
 -1      3655 2.02568E+01-3.89553E-03 8.01545E-04 1.14801E-01 1.99622E-14-2.71609E-14
 -1      3656 2.02365E+01-3.31596E-02-1.47209E-04 1.20390E-01 3.39497E-14-5.95954E-14
 -1      3657 2.03004E+01 2.34023E-02-3.73672E-04 9.38403E-02 2.86680E-14-1.65142E-14
 -1      3658 2.02162E+01-5.44802E-02 5.60745E-04 1.20872E-01 3.70723E-14-6.76004E-14
 -1      3659 2.01981E+01-7.01914E-02 9.77345E-05 1.20259E-01 9.26204E-15-1.03340E-13
 -1      3660 2.02583E+01-4.19903E-02-5.03205E-04 1.03348E-01 2.13288E-14-6.39989E-14
 -1      3661 2.01784E+01-8.04880E-02 3.67006E-04 1.16930E-01 1.67522E-14-8.73697E-14
 -1      3662 2.01628E+01-8.67669E-02 2.48450E-04 1.12707E-01 1.90150E-14-9.96053E-14
 -1      3663 2.02169E+01-7.77855E-02-5.45021E-04 1.02668E-01 6.46188E-16-7.04146E-14
 -1      3664 2.01447E+01-8.94528E-02 2.14710E-04 1.07410E-01 6.10845E-15-1.32247E-13
 -1      3665 2.01317E+01-8.92856E-02 3.28562E-04 1.01492E-01-3.31170E-14-9.40718E-14
 -1      3666 2.01787E+01-9.28477E-02-5.31665E-04 9.59713E-02-4.68850E-17-9.17579E-14
 -1      3667 2.01157E+01-8.68203E-02 9.58539E-05 9.55465E-02-9.74958E-14-1.01381E-13
 -1      3668 2.01051E+01-8.22778E-02 3.63353E-04 8.92792E-02-1.12878E-13-4.83290E-14
 -1      3669 2.01447E+01-9.36341E-02-4.78820E-04 8.64124E-02-5.31981E-14-1.34796E-13
 -1      3670 2.00910E+01-7.62784E-02-7.72662E-07 8.36176E-02-8.82597E-14-2.19351E-14
 -1      3671 2.00824E+01-6.86992E-02 3.72520E-04 7.79774E-02-8.09524E-14-1.52571E-14
 -1      3672 2.01152E+01-8.46966E-02-4.09968E-04 7.62011E-02-8.29077E-14-4.41606E-14
 -1      3673 2.00702E+01-6.01942E-02-8.17722E-05 7.32850E-02-1.00708E-13-3.91930E-14
 -1      3674 2.00633E+01-5.03786E-02 3.66913E-04 6.89822E-02-1.45963E-13-2.06346E-17
 -1      3675 2.00899E+01-6.89646E-02-3.28752E-04 6.69744E-02-9.01819E-14-3.70459E-14
 -1      3676 2.00524E+01-3.99275E-02-1.57155E-04 6.57668E-02-1.19072E-13 1.01503E-13
 -1      3677 2.00466E+01-2.82531E-02 3.55684E-04 6.33496E-02-9.93460E-14 1.05126E-13
 -1      3678 2.00680E+01-4.82164E-02-2.38011E-04 5.99330E-02-7.52892E-14 3.59384E-14
 -1      3679 2.00366E+01-1.60563E-02-2.35332E-04 6.20248E-02-6.44259E-14 9.65263E-14
 -1      3680 2.00315E+01-2.58069E-03 3.45409E-04 6.19632E-02-4.75480E-14 1.54323E-13
 -1      3681 2.00485E+01-2.33182E-02-1.40221E-04 5.60007E-02-9.78051E-14 1.31850E-13
 -1      3682 2.00216E+01 1.14246E-02-3.23017E-04 6.29162E-02-7.47334E-15 1.59031E-13
 -1      3683 2.00166E+01 2.68720E-02 3.40411E-04 6.56640E-02 3.72568E-14 2.23902E-13
 -1      3684 2.00300E+01 5.56413E-03-3.44286E-05 5.59772E-02 1.70376E-14 1.28929E-13
 -1      3685 2.00059E+01 4.29271E-02-4.26163E-04 6.93032E-02 2.46622E-14 2.78213E-13
 -1      3686 2.00005E+01 6.06601E-02 3.43559E-04 7.53425E-02 2.29864E-14 2.51008E-13
 -1      3687 2.00112E+01 3.87605E-02 8.17728E-05 6.06468E-02 3.86134E-14 2.50830E-13
 -1      3688 1.99882E+01 7.91019E-02-5.49849E-04 8.21349E-02 2.63453E-14 1.83983E-13
 -1      3689 1.99817E+01 9.94903E-02 3.56932E-04 9.20060E-02 2.93161E-14 2.11008E-13
 -1      3690 1.99902E+01 7.69143E-02 2.11384E-04 7.08609E-02-1.80515E-14 2.31100E-13
 -1      3691 1.99667E+01 1.20659E-01-6.98009E-04 1.02504E-01-6.13596E-14 1.74947E-13
 -1      3692 1.99585E+01 1.44027E-01 3.82508E-04 1.16822E-01-6.03949E-14 7.38015E-14
 -1      3693 1.99652E+01 1.20795E-01 3.57213E-04 8.76013E-02-3.03884E-14 2.15966E-13
 -1      3694 1.99397E+01 1.68153E-01-8.73004E-04 1.31686E-01 2.44480E-14 3.18608E-14
 -1      3695 1.99290E+01 1.94648E-01 4.23049E-04 1.51141E-01 7.23419E-14-1.21844E-14
 -1      3696 1.99340E+01 1.71080E-01 5.20866E-04 1.12030E-01-3.97627E-14 1.32991E-13
 -1      3697 1.99051E+01 2.21706E-01-1.07499E-03 1.71151E-01 5.83406E-14-1.00205E-13
 -1      3698 1.98914E+01 2.51131E-01 4.83391E-04 1.96503E-01 3.09979E-15-9.00051E-14
 -1      3699 1.98944E+01 2.28085E-01 7.01373E-04 1.45527E-01 1.89245E-14-1.18458E-13
 -1      3700 1.98612E+01 2.80641E-01-1.30106E-03 2.22574E-01-2.13718E-14-1.10470E-13
 -1      3701 1.98439E+01 3.12226E-01 5.72442E-04 2.54628E-01-4.99099E-14-1.08993E-13
 -1      3702 1.98440E+01 2.91414E-01 8.93283E-04 1.89728E-01-2.24794E-14-7.80211E-14
 -1      3703 1.98064E+01 3.42995E-01-1.54419E-03 2.87826E-01-3.38071E-14-6.48930E-14
 -1      3704 1.97851E+01 3.75102E-01 7.06301E-04 3.27404E-01-5.92450E-14 2.49958E-14
 -1      3705 1.97805E+01 3.59490E-01 1.08402E-03 2.46566E-01-1.46756E-14-5.19981E-14
 -1      3706 1.97396E+01 4.04882E-01-1.79176E-03 3.68975E-01-7.47240E-14 7.22865E-14
 -1      3707 1.97148E+01 4.34621E-01 9.12969E-04 4.16887E-01-4.26893E-14 1.44383E-13
 -1      3708 1.97021E+01 4.28956E-01 1.25018E-03 3.18338E-01 1.86622E-14 1.51599E-13
 -1      3709 1.96609E+01 4.59678E-01-2.02318E-03 4.68312E-01-7.03608E-14 5.22012E-14
 -1      3710 1.96340E+01 4.82432E-01 1.23892E-03 5.25334E-01-7.54873E-14 6.33601E-14
 -1      3711 1.96076E+01 4.93915E-01 1.35224E-03 4.07834E-01-7.54074E-14 5.69111E-14
 -1      3712 1.95728E+01 4.97018E-01-2.20512E-03 5.88425E-01-3.95318E-14 8.74353E-15
 -1      3713 1.95470E+01 5.05876E-01 1.75663E-03 6.55287E-01 1.72789E-14-2.84362E-14
 -1      3714 1.94977E+01 5.44976E-01 1.32624E-03 5.18540E-01-5.81610E-14 4.44139E-15
 -1      3715 1.94810E+01 5.01623E-01-2.28118E-03 7.32327E-01 2.94003E-14 2.79408E-15
 -1      3716 1.94623E+01 4.86748E-01 2.57430E-03 8.09686E-01-2.17100E-14 1.73429E-14
 -1      3717 1.93756E+01 5.68124E-01 1.06940E-03 6.54992E-01 2.02585E-15-6.49585E-14
 -1      3718 1.93974E+01 4.52028E-01-2.14500E-03 9.03603E-01-1.86001E-13 1.08147E-13
 -1      3719 1.93960E+01 3.99994E-01 3.85085E-03 9.91906E-01-2.15409E-13 1.37401E-13
 -1      3720 1.92491E+01 5.43422E-01 4.21506E-04 8.23234E-01-9.46278E-14 8.32829E-14
 -1      3721 1.93424E+01 3.19331E-01-1.54094E-03 1.10634E+00-2.89500E-13 9.23252E-14
 -1      3722 1.93751E+01 2.12385E-01 5.74497E-03 1.20531E+00-3.26756E-13-6.92460E-14
 -1      3723 1.91328E+01 4.43443E-01-8.65929E-04 1.03138E+00-2.68900E-13 2.18854E-13
 -1      3724 1.93512E+01 6.59667E-02-7.02247E-05 1.34389E+00-2.26101E-13-6.35600E-14
 -1      3725 1.94438E+01-1.17988E-01 8.34928E-03 1.45074E+00-4.73434E-14-1.67483E-13
 -1      3726 1.90533E+01 2.31612E-01-3.11736E-03 1.28960E+00-3.08851E-13 2.74246E-13
 -1      3727 1.94804E+01-3.53221E-01 3.11425E-03 1.61480E+00 6.11915E-14-2.69130E-13
 -1      3728 1.96710E+01-6.39417E-01 1.17450E-02 1.72032E+00 5.53781E-14-1.84556E-13
 -1      3729 1.90554E+01-1.39917E-01-7.10798E-03 1.60749E+00-8.24005E-14 8.48234E-14
 -1      3730 1.98194E+01-9.88185E-01 9.34006E-03 1.90444E+00 2.52688E-14-3.07091E-13
 -1      3731 2.01616E+01-1.40213E+00 1.48510E-02 1.98345E+00 2.30762E-15-2.16352E-13
 -1      3732 1.92118E+01-7.26777E-01-1.35503E-02 1.98872E+00 5.08090E-14-1.01124E-13
 -1      3733 2.05103E+01-1.87009E+00 2.46033E-02 2.15592E+00-4.36446E-14-2.26665E-13
 -1      3734 2.10538E+01-2.42384E+00 1.35021E-02 2.16039E+00-3.63876E-14-1.47185E-13
 -1      3735 1.96376E+01-1.60667E+00-2.83456E-02 2.41170E+00 1.54536E-14-1.01654E-13
 -1      3736 2.29376E+01-4.61982E+00 3.04295E-03 6.42147E+00-6.01741E-14 2.46424E-13
 -1      3737 2.38040E+01-3.98054E+00 5.43963E-02 1.51124E+00 2.64353E-13-2.49093E-13
 -1      3738 2.00302E+01-7.95734E-03 3.81280E-04-6.72962E-02-8.13825E-14 9.14225E-14
 -1      3739 2.00333E+01-2.02377E-02-2.47850E-04-6.80105E-02-7.55006E-14 9.02164E-14
 -1      3740 2.00418E+01-3.12535E-02 3.85028E-04-6.99932E-02-6.60093E-14 1.78004E-13
 -1      3741 2.00457E+01-4.18208E-02-1.74776E-04-7.31888E-02-5.65226E-14 2.00013E-13
 -1      3742 2.00461E+01-2.75424E-02-1.54842E-04-6.38084E-02-3.57310E-14 1.27068E-13
 -1      3743 2.00073E+01 5.03116E-02 3.90524E-04-7.90459E-02-2.62397E-14 1.84523E-13
 -1      3744 2.00103E+01 3.37795E-02-4.26947E-04-7.33282E-02-2.68831E-14 1.75433E-13
 -1      3745 1.99934E+01 8.70317E-02 4.03861E-04-9.54344E-02 3.58559E-14 8.59773E-14
 -1      3746 1.99972E+01 6.76099E-02-5.47879E-04-8.56830E-02 6.75687E-15 1.24015E-13
 -1      3747 1.99986E+01 6.57755E-02 1.68426E-04-7.65400E-02 1.58947E-14 4.50079E-14
 -1      3748 1.99754E+01 1.30412E-01 4.19247E-04-1.20317E-01 1.92946E-14 1.64456E-13
 -1      3749 1.99808E+01 1.07440E-01-6.98950E-04-1.05895E-01 3.21936E-14 1.34094E-13
 -1      3750 1.99782E+01 1.07919E-01 3.18737E-04-9.32716E-02 2.49533E-14 5.08678E-14
 -1      3751 1.99512E+01 1.81831E-01 4.30530E-04-1.54961E-01 5.48278E-14 2.39820E-13
 -1      3752 1.99590E+01 1.54601E-01-8.86806E-04-1.35164E-01 3.85958E-14 2.08702E-13
 -1      3753 1.99519E+01 1.57660E-01 5.06401E-04-1.17842E-01 1.09946E-14 1.60227E-13
 -1      3754 1.99179E+01 2.42651E-01 4.28625E-04-2.00719E-01-8.04399E-14 3.98756E-13
 -1      3755 1.99294E+01 2.10485E-01-1.11801E-03-1.74796E-01-8.81893E-16 2.86496E-13
 -1      3756 1.99169E+01 2.16441E-01 7.44871E-04-1.51303E-01-2.98574E-14 2.42671E-13
 -1      3757 1.98718E+01 3.14027E-01 4.01706E-04-2.58940E-01-1.18526E-13 3.29294E-13
 -1      3758 1.98886E+01 2.76380E-01-1.39928E-03-2.26145E-01-6.73029E-14 3.88370E-13
 -1      3759 1.98697E+01 2.85613E-01 1.05071E-03-1.94699E-01-9.82616E-14 3.54076E-13
 -1      3760 1.98084E+01 3.96622E-01 3.36551E-04-3.30857E-01-1.05212E-13 2.01317E-13
 -1      3761 1.98326E+01 3.53241E-01-1.73803E-03-2.90508E-01-9.09870E-14 2.73166E-13
 -1      3762 1.98059E+01 3.66214E-01 1.44403E-03-2.48966E-01-4.21583E-14 2.80391E-13
 -1      3763 1.97221E+01 4.90168E-01 2.22367E-04-4.17459E-01-2.03031E-14 1.93911E-13
 -1      3764 1.97563E+01 4.41333E-01-2.14392E-03-3.69012E-01-7.37068E-14 2.42633E-13
 -1      3765 1.97201E+01 4.58631E-01 1.94894E-03-3.14806E-01-1.24774E-13 1.20098E-13
 -1      3766 1.96058E+01 5.92802E-01 5.94187E-05-5.19412E-01 7.93773E-15 2.20670E-13
 -1      3767 1.96532E+01 5.39685E-01-2.63204E-03-4.62504E-01 2.69663E-14 2.68249E-13
 -1      3768 1.96057E+01 5.62131E-01 2.59396E-03-3.92574E-01 4.98181E-15 1.99808E-13
 -1      3769 1.94514E+01 7.00051E-01-1.25399E-04-6.37155E-01 2.46588E-14 1.34203E-13
 -1      3770 1.95157E+01 6.45268E-01-3.22912E-03-5.71556E-01 1.30196E-14 2.45909E-13
 -1      3771 1.94543E+01 6.74162E-01 3.41246E-03-4.82276E-01 3.64831E-15 2.56194E-13
 -1      3772 1.92492E+01 8.03298E-01-2.62056E-04-7.71403E-01 9.23661E-14 1.01122E-13
 -1      3773 1.93342E+01 7.51730E-01-3.98534E-03-6.96751E-01 8.44526E-14 1.48276E-13
 -1      3774 1.92559E+01 7.89361E-01 4.44095E-03-5.83838E-01 2.36809E-14 2.84139E-13
 -1      3775 1.89894E+01 8.87683E-01-1.85721E-04-9.24352E-01-2.84560E-14 1.01085E-13
 -1      3776 1.90983E+01 8.47536E-01-5.00629E-03-8.39481E-01 3.10294E-14 1.70609E-13
 -1      3777 1.89987E+01 8.98102E-01 5.70767E-03-6.97902E-01 4.55560E-14 2.58435E-13
 -1      3778 1.86631E+01 9.29247E-01 4.79775E-04-1.10250E+00 6.87774E-14 3.30039E-14
 -1      3779 1.87965E+01 9.13520E-01-6.51445E-03-1.00393E+00 3.73565E-14 9.08039E-14
 -1      3780 1.86684E+01 9.84986E-01 7.28097E-03-8.27545E-01 5.12640E-14 1.89290E-13
 -1      3781 1.82648E+01 8.90083E-01 2.49234E-03-1.32218E+00-4.09451E-14 6.99515E-14
 -1      3782 1.84176E+01 9.19361E-01-8.75017E-03-1.20143E+00 4.36857E-14 3.51720E-14
 -1      3783 1.82478E+01 1.02643E+00 9.22698E-03-9.82446E-01 7.10776E-14 2.93594E-13
 -1      3784 1.77990E+01 7.10142E-01 6.72561E-03-1.61667E+00-1.26421E-13 1.15125E-13
 -1      3785 1.79549E+01 8.16429E-01-1.19092E-02-1.45733E+00-1.04808E-13 1.13364E-13
 -1      3786 1.77166E+01 9.86389E-01 1.19534E-02-1.18659E+00-1.21399E-13 2.34601E-13
 -1      3787 1.72968E+01 3.02650E-01 1.70496E-02-2.04142E+00-7.88734E-14 4.91230E-14
 -1      3788 1.74150E+01 5.31170E-01-1.52614E-02-1.81622E+00-1.12035E-13 6.49174E-14
 -1      3789 1.70597E+01 8.08472E-01 1.82274E-02-1.49096E+00-1.02133E-13 2.80086E-13
 -1      3790 1.68310E+01-4.76877E-01 3.59167E-02-2.72158E+00-1.50728E-13 5.19289E-15
 -1      3791 1.68090E+01-3.04552E-02-1.68669E-02-2.37179E+00-6.51018E-14 6.31717E-14
 -1      3792 1.62355E+01 4.28277E-01 3.30542E-02-1.97318E+00-8.15047E-14 2.37321E-13
 -1      3793 1.63824E+01-1.22815E+00-1.26472E-03-3.33571E+00-1.67392E-13 9.28702E-14
 -1      3794 2.26777E+01-3.74724E+00 1.23604E-03 2.04212E+00 1.78248E-13-2.95679E-13
 -1      3795 2.00191E+01 1.89932E-02 3.82668E-04-7.00059E-02-7.62784E-14 1.21397E-13
 -1      3796 2.00219E+01 4.79143E-03-3.29321E-04-6.77576E-02-8.44134E-14 8.32641E-14
 -1      3797 2.00155E+01 2.98688E-02 4.46860E-05-6.66510E-02-6.76570E-14 4.51436E-14
 -1      3798 2.01601E+01 5.63418E-02-6.52030E-04-1.35228E-01 1.37052E-14 6.93926E-14
 -1      3799 2.01814E+01 1.03506E-01 1.87865E-03-1.11365E-01 5.52571E-14 6.35878E-14
 -1      3800 2.02080E+01 5.25601E-02-7.21952E-04-1.26834E-01 2.99224E-14 4.47809E-14
 -1      3801 2.03260E+01 5.56115E-01-2.43369E-03 1.00468E-01 1.45354E-13 2.59116E-14
 -1      3802 2.03349E+01 7.15384E-01 1.09470E-03 1.83304E-01 1.35617E-13 5.76186E-15
 -1      3803 2.03036E+01 1.11466E+00 3.00825E-03 3.35683E-01 1.37588E-13 4.45981E-15
 -1      3804 2.02502E+01 1.38301E+00-4.66805E-03 4.13474E-01 1.68789E-13 8.36869E-15
 -1      3805 2.02363E+01 1.48226E+00-1.27126E-03 3.44900E-01 1.52764E-13-1.51363E-14
 -1      3806 2.03049E+01 8.72042E-01 1.13242E-03 2.98792E-01 1.30873E-13 4.52477E-14
 -1      3807 2.00903E+01-7.92975E-02 3.77382E-04-1.01053E-01-3.43286E-14 1.54654E-13
 -1      3808 2.00989E+01-8.29956E-02 8.99571E-05-1.08193E-01-2.06003E-14 1.41409E-13
 -1      3809 2.03558E+01 4.16276E-01 1.20787E-03-2.93118E-02-2.18247E-14-2.48268E-14
 -1      3810 2.03405E+01 3.05726E-01-1.53198E-03 1.86104E-02 1.61371E-15-7.27742E-15
 -1      3811 2.03679E+01 2.93588E-01 2.07356E-04 2.16745E-02-3.66984E-15 5.11565E-14
 -1      3812 2.03548E+01 6.74190E-01 5.36509E-04-1.35428E-01-3.67428E-14-5.59389E-14
 -1      3813 2.03499E+01 5.22192E-01-1.68131E-03-6.60880E-02-3.34908E-14-4.12575E-14
 -1      3814 2.03767E+01 5.08616E-01 1.28644E-03-4.68800E-02-6.85412E-15 4.71961E-14
 -1      3815 2.03604E+01 7.70160E-01 8.67812E-04-1.36120E-01-3.69660E-15-1.81446E-14
 -1      3816 1.52486E+01-6.08364E-01-6.72578E-03-2.94270E+00-1.79695E-13 8.47308E-14
 -1      3817 2.03222E+01 8.30840E-01-7.54957E-04 2.23199E-01 1.26958E-13 9.19202E-15
 -1      3818 2.03160E+01 9.67479E-01-1.44485E-03 2.89091E-01 1.21993E-13-4.45927E-15
 -1      3819 2.03167E+01 1.06791E+00 5.54395E-04 2.59809E-01 1.27614E-13-6.29949E-16
 -1      3820 2.03458E+01 8.15084E-01 1.02445E-03 1.76079E-01 1.31657E-13-2.25068E-14
 -1      3821 2.02848E+01 1.38820E+00 5.17801E-03-1.30011E-01 6.31055E-14-8.08018E-14
 -1      3822 2.03156E+01 1.12716E+00-1.13143E-03-1.97784E-01 2.86422E-14-5.36872E-14
 -1      3823 2.07334E+01-2.98280E+00-3.64562E-02 2.85485E+00 4.35442E-14-7.18696E-15
 -1      3824 2.18853E+01-3.17096E+00 3.49441E-02 2.22472E+00 9.59235E-14-2.05749E-13
 -1      3825 2.00308E+01-9.57838E-04-6.09492E-05-6.26893E-02-9.00105E-14 9.44696E-15
 -1      3826 2.02087E+01-2.52515E-02-1.72146E-04-1.34472E-01 6.69592E-14 2.76846E-14
 -1      3827 2.02279E+01 4.32210E-03 9.55250E-04-1.27737E-01 6.42626E-14 5.49980E-14
 -1      3828 2.01136E+01-8.47052E-02 3.38389E-04-1.14923E-01-4.88253E-14 8.34490E-14
 -1      3829 2.01245E+01-8.41598E-02 2.22597E-04-1.21582E-01-2.75499E-14 6.50660E-14
 -1      3830 2.01312E+01-9.01906E-02-4.87108E-04-1.00968E-01-5.31446E-14 1.45695E-13
 -1      3831 2.00628E+01-5.02898E-02-2.41231E-04-6.91835E-02-7.86230E-14 2.18796E-13
 -1      3832 2.00551E+01-5.11877E-02 3.90225E-04-7.72006E-02-6.83568E-14 2.21978E-13
 -1      3833 2.00602E+01-5.99919E-02-1.00948E-04-8.23716E-02-7.84239E-14 1.83575E-13
 -1      3834 1.94776E+01-2.98911E+00 3.63823E-02 3.71162E+00 2.63782E-14 2.61156E-13
 -1      3835 1.63559E+01-1.22704E+00 1.98030E-02 3.42791E+00 1.00302E-13 2.76513E-13
 -1      3836 1.49985E+01-8.69709E-01 6.34974E-02 3.48650E+00 1.32433E-13 5.57956E-14
 -1      3837 1.46501E+01-2.64126E-01-7.73380E-03 2.66722E+00 2.18133E-14 9.58730E-14
 -1      3838 2.01108E+01-7.35136E-02-5.47607E-04-1.43332E-01 1.64670E-14 4.07927E-14
 -1      3839 2.01732E+01-6.30510E-02 8.46244E-05-1.35379E-01 1.04275E-14 4.61958E-14
 -1      3840 2.01895E+01-4.68667E-02 6.42060E-04-1.35794E-01 3.35500E-14 2.74394E-14
 -1      3841 2.02371E+01-3.36557E-02-5.35727E-04-1.18974E-01 4.61582E-14 9.54445E-14
 -1      3842 2.03317E+01 4.24118E-01 1.86525E-03 4.43472E-02 1.32464E-13 4.09837E-14
 -1      3843 2.03569E+01 5.50563E-01 8.55086E-04 7.69440E-02 1.29813E-13 1.02728E-16
 -1      3844 2.03123E+01 3.13022E-01-1.85782E-03-1.13778E-02 1.24664E-13 5.45877E-14
 -1      3845 2.02461E+01 1.61319E-01-6.58909E-04-7.89459E-02 8.84286E-14 7.35158E-14
 -1      3846 1.37629E+01 9.06640E-02 5.16876E-02-2.01558E+00-2.25042E-13-4.28269E-14
 -1      3847 2.03179E+01 1.19522E+00-2.49220E-03 3.18099E-02 1.15673E-13-5.03887E-14
 -1      3848 2.03176E+01 1.19581E+00-2.52376E-03-2.86198E-02 9.81178E-14-9.34398E-14
 -1      3849 2.02949E+01 1.28348E+00 3.95481E-03 2.49550E-01 1.42483E-13-4.80670E-15
 -1      3850 1.36421E+01 6.39942E-01 6.42502E-02 9.03661E-01-9.43872E-14 2.81391E-13
 -1      3851 1.37013E+01 6.65153E-01-1.25585E-02 2.74807E-01-1.40162E-13 7.67181E-14
 -1      3852 2.00710E+01-6.75128E-02 3.90722E-04-8.79442E-02-1.03006E-13 1.75083E-13
 -1      3853 2.00777E+01-7.41817E-02-1.94977E-05-9.44898E-02-7.32140E-14 1.49814E-13
 -1      3854 2.00819E+01-6.90403E-02-3.22540E-04-7.79274E-02-1.27043E-13 2.27254E-13
 -1      3855 1.43951E+01 4.01810E-01 1.70420E-02-1.41151E+00-6.77878E-14-5.58928E-15
 -1      3856 2.03206E+01 1.14777E+00-2.59949E-03 1.33705E-01 1.55811E-13 3.86422E-15
 -1      3857 2.03189E+01 1.18160E+00-1.79276E-03 7.81374E-02 1.34448E-13-1.19312E-14
 -1      3858 2.03724E+01 9.96016E-01 4.57290E-03 4.09924E-02 1.15080E-13-1.59914E-14
 -1      3859 1.39521E+01 3.90457E-01 3.07550E-03 1.47725E+00-7.31394E-14 2.65638E-13
 -1      3860 2.01045E+01-8.29392E-02-4.04488E-04-8.89654E-02-6.42201E-14 1.94600E-13
 -1      3861 1.87453E+01-2.08476E+00 2.23509E-02 3.35206E+00 1.48386E-14 2.33334E-13
 -1      3862 2.00313E+01 7.11083E-03 2.88866E-04-5.50078E-02-6.84376E-14 6.65452E-14
 -1      3863 2.00385E+01-8.19939E-03-2.19068E-04-5.42241E-02-1.75297E-14 1.07609E-13
 -1      3864 2.03753E+01 1.75267E-01 6.89383E-04 4.51084E-02-1.34010E-14 1.50566E-14
 -1      3865 2.03562E+01 1.05604E-01-6.88268E-04 6.34687E-02 9.51873E-15 1.17838E-15
 -1      3866 2.03391E+01 5.02793E-02 6.41072E-04 7.11247E-02 4.74181E-15-6.51189E-15
 -1      3867 2.03172E+01 5.83087E-03-2.89572E-04 8.02877E-02 1.01996E-14-3.39064E-14
 -1      3868 2.03692E+01 8.96398E-02-6.43266E-05 5.06288E-02-1.96775E-14 8.50876E-15
 -1      3869 2.02960E+01-2.80777E-02 5.18834E-04 8.26696E-02 3.21277E-14-6.23511E-14
 -1      3870 2.02740E+01-5.41214E-02-4.65894E-06 8.55828E-02 2.05852E-14-6.38526E-14
 -1      3871 2.03278E+01-6.35661E-03-3.92555E-04 6.25274E-02 6.61314E-15 1.63183E-14
 -1      3872 2.02517E+01-7.27595E-02 4.03814E-04 8.45662E-02 4.41683E-15-3.47108E-14
 -1      3873 2.02311E+01-8.57792E-02 1.70168E-04 8.35055E-02 8.42666E-15-4.84467E-14
 -1      3874 2.02825E+01-6.31067E-02-5.20463E-04 6.59820E-02 2.02182E-14-1.98173E-14
 -1      3875 2.02094E+01-9.36455E-02 3.02015E-04 8.04729E-02-2.59452E-15-3.03051E-14
 -1      3876 2.01909E+01-9.75143E-02 2.78182E-04 7.72092E-02-1.56369E-14-6.71477E-14
 -1      3877 2.02378E+01-9.20207E-02-5.59223E-04 6.40692E-02 2.30432E-15-2.80509E-15
 -1      3878 2.01710E+01-9.80350E-02 2.10555E-04 7.33526E-02-2.17972E-14-6.49284E-14
 -1      3879 2.01550E+01-9.57313E-02 3.23308E-04 6.91170E-02-5.72167E-14-3.62680E-14
 -1      3880 2.01961E+01-1.01395E-01-5.38954E-04 5.90764E-02-1.64892E-14 3.75957E-14
 -1      3881 2.01372E+01-9.11653E-02 1.21470E-04 6.50721E-02-9.32717E-14-4.02582E-14
 -1      3882 2.01235E+01-8.45437E-02 3.37420E-04 6.08269E-02-1.15378E-13-4.62566E-14
 -1      3883 2.01588E+01-9.74806E-02-4.91238E-04 5.29080E-02-6.28525E-14-3.07792E-14
 -1      3884 2.01077E+01-7.64329E-02 4.23344E-05 5.72343E-02-1.06302E-13-8.62772E-14
 -1      3885 2.00960E+01-6.67487E-02 3.26013E-04 5.36643E-02-6.14987E-14-6.30018E-14
 -1      3886 2.01258E+01-8.41759E-02-4.17479E-04 4.66839E-02-1.12948E-13-9.96947E-14
 -1      3887 2.00820E+01-5.60313E-02-3.44438E-05 5.09241E-02-2.21818E-14-6.32017E-14
 -1      3888 2.00719E+01-4.39714E-02 3.01561E-04 4.85375E-02-3.74412E-14-4.81599E-15
 -1      3889 2.00969E+01-6.41977E-02-3.19603E-04 4.14965E-02-2.40622E-14-4.29692E-14
 -1      3890 2.00590E+01-3.10919E-02-1.16294E-04 4.69614E-02-5.20919E-14 3.63622E-14
 -1      3891 2.00498E+01-1.69081E-02 2.71149E-04 4.61739E-02-8.30910E-14 4.60721E-14
 -1      3892 2.00711E+01-3.90608E-02-2.09298E-04 3.80126E-02-3.55779E-14-3.13809E-14
 -1      3893 2.00374E+01-1.95002E-03-2.07226E-04 4.60469E-02-3.72622E-14 1.00832E-13
 -1      3894 2.00284E+01 1.44203E-02 2.39163E-04 4.72375E-02 8.47352E-14 1.22867E-13
 -1      3895 2.00470E+01-9.33170E-03-8.73804E-05 3.68200E-02-1.48171E-14 4.90527E-14
 -1      3896 2.00155E+01 3.16335E-02-3.12487E-04 4.88509E-02 1.19056E-13 1.33731E-13
 -1      3897 2.00060E+01 5.04723E-02 2.08450E-04 5.24073E-02 5.02584E-14 1.60931E-13
 -1      3898 2.00230E+01 2.50894E-02 4.80885E-05 3.84742E-02 9.68319E-14 8.09828E-14
 -1      3899 1.99914E+01 7.02856E-02-4.37455E-04 5.60932E-02-2.86623E-14 1.78902E-13
 -1      3900 1.99805E+01 9.20025E-02 1.81057E-04 6.24459E-02-2.21853E-14 7.99786E-14
 -1      3901 1.99971E+01 6.47711E-02 2.00462E-04 4.35653E-02 1.88183E-14 5.15035E-14
 -1      3902 1.99631E+01 1.14835E-01-5.87448E-04 6.86087E-02-4.91586E-14 1.01883E-13
 -1      3903 1.99497E+01 1.39868E-01 1.59023E-04 7.82588E-02-5.77934E-14 7.49564E-14
 -1      3904 1.99671E+01 1.10559E-01 3.73852E-04 5.27811E-02-4.19682E-14-3.95605E-14
 -1      3905 1.99282E+01 1.66108E-01-7.67573E-04 8.74048E-02-1.03762E-13 9.71560E-14
 -1      3906 1.99113E+01 1.94804E-01 1.45346E-04 1.00946E-01-8.82037E-14-5.99770E-14
 -1      3907 1.99305E+01 1.63370E-01 5.72349E-04 6.69670E-02-1.06019E-13-9.79374E-14
 -1      3908 1.98839E+01 2.24672E-01-9.82595E-04 1.13716E-01 2.22951E-14-3.53909E-14
 -1      3909 1.98624E+01 2.57142E-01 1.45258E-04 1.31853E-01-2.51842E-15-1.13742E-13
 -1      3910 1.98843E+01 2.23950E-01 7.99072E-04 8.71886E-02-5.53311E-14-8.67324E-14
 -1      3911 1.98276E+01 2.90524E-01-1.23686E-03 1.49063E-01 9.97612E-16-1.19218E-13
 -1      3912 1.98002E+01 3.26445E-01 1.68031E-04 1.72636E-01-2.92306E-15-5.49054E-14
 -1      3913 1.98255E+01 2.92575E-01 1.05499E-03 1.14808E-01 2.35655E-14-3.72144E-14
 -1      3914 1.97563E+01 3.62666E-01-1.53443E-03 1.95330E-01-3.41308E-14 4.10411E-14
 -1      3915 1.97221E+01 4.01035E-01 2.29589E-04 2.25346E-01 2.62466E-14 5.54040E-14
 -1      3916 1.97506E+01 3.68666E-01 1.33754E-03 1.51583E-01 4.42360E-14-1.26506E-14
 -1      3917 1.96672E+01 4.38573E-01-1.87961E-03 2.54876E-01-4.57311E-14 1.66881E-14
 -1      3918 1.96255E+01 4.77389E-01 3.56404E-04 2.92563E-01-2.88027E-14 2.03760E-14
 -1      3919 1.96564E+01 4.50297E-01 1.63893E-03 1.99814E-01-3.08638E-14 4.75342E-14
 -1      3920 1.95581E+01 5.13516E-01-2.27805E-03 3.30710E-01 6.61262E-15-4.07694E-14
 -1      3921 1.95089E+01 5.49392E-01 5.91489E-04 3.77615E-01-5.98007E-14-1.97612E-14
 -1      3922 1.95394E+01 5.33584E-01 1.94425E-03 2.62562E-01-1.39816E-14-5.99363E-14
 -1      3923 1.94276E+01 5.79732E-01-2.73816E-03 4.26783E-01-7.72974E-14 6.18344E-14
 -1      3924 1.93720E+01 6.07436E-01 1.00374E-03 4.84929E-01-1.65432E-14-1.41176E-14
 -1      3925 1.93971E+01 6.11951E-01 2.22902E-03 3.43991E-01-6.25278E-14 3.51627E-15
 -1      3926 1.92763E+01 6.25444E-01-3.27130E-03 5.48445E-01 1.72462E-14-7.41393E-14
 -1      3927 1.92172E+01 6.37347E-01 1.69606E-03 6.20585E-01 5.23339E-14-1.97746E-14
 -1      3928 1.92276E+01 6.75262E-01 2.45349E-03 4.49901E-01-1.88526E-14 9.72201E-15
 -1      3929 1.91075E+01 6.33715E-01-3.88497E-03 7.03124E-01 6.05841E-14-1.46482E-13
 -1      3930 1.90510E+01 6.19202E-01 2.83199E-03 7.93069E-01-7.87639E-14 1.79467E-15
 -1      3931 1.90311E+01 7.08763E-01 2.54218E-03 5.88564E-01 1.34287E-14-1.40147E-13
 -1      3932 1.89296E+01 5.81317E-01-4.53065E-03 9.01284E-01-2.04113E-13 1.11092E-13
 -1      3933 1.88860E+01 5.26119E-01 4.67395E-03 1.01431E+00-2.71999E-13 1.20198E-13
 -1      3934 1.88102E+01 6.91936E-01 2.33407E-03 7.71734E-01-4.86642E-14-8.74790E-14
 -1      3935 1.87593E+01 4.36556E-01-4.87581E-03 1.15800E+00-2.87117E-13 2.99018E-13
 -1      3936 1.87474E+01 3.21144E-01 7.81216E-03 1.30030E+00-2.22302E-13 2.91730E-13
 -1      3937 1.85724E+01 5.95762E-01 1.39825E-03 1.01749E+00-1.72786E-13 6.43878E-14
 -1      3938 1.86261E+01 1.56859E-01-5.01092E-03 1.49270E+00-2.32131E-13 2.70885E-13
 -1      3939 1.86758E+01-4.35280E-02 1.21675E-02 1.67044E+00-1.49794E-13 1.66320E-13
 -1      3940 1.83340E+01 3.85259E-01 3.11860E-04 1.35028E+00-2.72305E-13 3.11441E-13
 -1      3941 1.85895E+01-3.16073E-01-3.62764E-03 1.92585E+00 1.66400E-14 5.81303E-14
 -1      3942 1.87550E+01-6.33842E-01 2.00647E-02 2.13746E+00 1.01312E-13 6.62271E-14
 -1      3943 1.81377E+01 1.07827E-02 3.06021E-03 1.81285E+00-1.43238E-13 2.70539E-13
 -1      3944 1.99297E+01 1.81313E-01 1.26438E-04-1.08730E-01-2.82031E-14 1.41910E-13
 -1      3945 1.99443E+01 1.52632E-01-7.46455E-04-9.50593E-02-3.40661E-14 9.16893E-14
 -1      3946 2.02775E+01 3.30625E-02-4.86792E-04-1.06385E-01 5.63102E-14 6.79997E-14
 -1      3947 2.02463E+01 4.13868E-02-5.64547E-04-1.18853E-01 3.72096E-14 5.81932E-14
 -1      3948 2.02677E+01 8.99090E-02 1.31338E-03-1.01073E-01 4.79515E-14 6.70560E-14
 -1      3949 2.00499E+01-2.20910E-02 3.17406E-04-5.47751E-02 8.90497E-15 1.00609E-13
 -1      3950 2.00575E+01-3.52745E-02-1.32324E-04-5.61729E-02 5.97599E-15 1.39990E-13
 -1      3951 2.00489E+01-1.55088E-02-1.11182E-04-4.63854E-02-1.36204E-14 1.12155E-13
 -1      3952 1.99638E+01 1.26768E-01 1.82569E-04-8.58700E-02-1.89520E-14 9.21288E-14
 -1      3953 1.99748E+01 1.02418E-01-5.76548E-04-7.60869E-02 4.31350E-14 3.27306E-14
 -1      3954 1.99449E+01 1.50156E-01 5.45665E-04-7.65323E-02-5.59897E-14 1.01145E-13
 -1      3955 1.99904E+01 8.04546E-02 2.24200E-04-6.98180E-02 3.70453E-14-9.37797E-15
 -1      3956 1.99991E+01 5.97230E-02-4.35523E-04-6.34643E-02-4.10106E-15-2.78772E-14
 -1      3957 1.99777E+01 9.85999E-02 3.35894E-04-6.20103E-02 1.87334E-14 1.95333E-14
 -1      3958 1.98846E+01 2.45492E-01 4.56751E-05-1.39174E-01-6.06089E-14 1.58975E-13
 -1      3959 1.99044E+01 2.11785E-01-9.49994E-04-1.21165E-01-5.64338E-14 1.44500E-13
 -1      3960 1.99027E+01 2.10717E-01 8.03746E-04-9.66382E-02-5.39402E-14 1.42679E-13
 -1      3961 1.98245E+01 3.20525E-01-7.32752E-05-1.77879E-01-9.23114E-14 2.44831E-13
 -1      3962 1.98514E+01 2.81220E-01-1.19161E-03-1.55133E-01-6.43664E-14 1.92593E-13
 -1      3963 1.98473E+01 2.81636E-01 1.12458E-03-1.22776E-01-7.31071E-14 1.77206E-13
 -1      3964 1.97443E+01 4.07187E-01-2.47217E-04-2.25295E-01-9.52009E-14 2.71129E-13
 -1      3965 1.97809E+01 3.61974E-01-1.47607E-03-1.97535E-01-6.42726E-14 2.61324E-13
 -1      3966 1.97742E+01 3.63975E-01 1.52577E-03-1.55189E-01-1.06441E-13 2.02969E-13
 -1      3967 1.96379E+01 5.05445E-01-4.95047E-04-2.81504E-01-9.39316E-14 1.63696E-13
 -1      3968 1.96873E+01 4.54475E-01-1.81022E-03-2.48644E-01-8.91094E-14 2.36512E-13
 -1      3969 1.96778E+01 4.58207E-01 2.02914E-03-1.93769E-01-5.23026E-14 3.10638E-13
 -1      3970 1.94976E+01 6.13970E-01-8.34524E-04-3.46091E-01-4.42375E-14 2.27255E-13
 -1      3971 1.95636E+01 5.58114E-01-2.20715E-03-3.08294E-01-1.14117E-13 1.50861E-13
 -1      3972 1.95514E+01 5.63832E-01 2.66297E-03-2.37895E-01-5.98010E-14 1.12026E-13
 -1      3973 1.93143E+01 7.29473E-01-1.27429E-03-4.18141E-01-2.13798E-14 2.87076E-13
 -1      3974 1.94016E+01 6.70668E-01-2.69453E-03-3.75790E-01 4.98832E-15 2.46649E-13
 -1      3975 1.93868E+01 6.78882E-01 3.46688E-03-2.86295E-01-2.92929E-14 8.77677E-14
 -1      3976 1.90765E+01 8.45839E-01-1.79378E-03-4.96538E-01 4.82281E-14 1.85300E-13
 -1      3977 1.91907E+01 7.87534E-01-3.32956E-03-4.50027E-01 1.23969E-14 2.53741E-13
 -1      3978 1.91738E+01 7.99335E-01 4.50246E-03-3.37051E-01-2.62257E-14 1.04719E-13
 -1      3979 1.87701E+01 9.52831E-01-2.38804E-03-5.80927E-01 3.94079E-14 2.06985E-13
 -1      3980 1.89177E+01 9.00696E-01-4.22196E-03-5.30089E-01 6.75910E-14 2.08292E-13
 -1      3981 1.88996E+01 9.18442E-01 5.86446E-03-3.87973E-01 5.77224E-14 2.66815E-14
 -1      3982 1.83777E+01 1.03483E+00-2.96318E-03-6.73231E-01 2.95860E-14 1.44642E-13
 -1      3983 1.85663E+01 9.97150E-01-5.59590E-03-6.16285E-01-2.46287E-14 9.13033E-14
 -1      3984 1.85476E+01 1.02539E+00 7.64163E-03-4.37760E-01 9.07962E-14-8.73119E-15
 -1      3985 1.78747E+01 1.07101E+00-3.26952E-03-7.81430E-01-1.16247E-14 3.08403E-13
 -1      3986 1.81136E+01 1.05850E+00-7.98573E-03-7.12195E-01 6.70370E-14 2.72735E-13
 -1      3987 1.80959E+01 1.10624E+00 1.03662E-02-4.85530E-01-3.82569E-14 2.37711E-15
 -1      3988 1.72264E+01 1.02737E+00-3.39299E-03-9.28958E-01-1.07375E-13 1.61269E-13
 -1      3989 1.75267E+01 1.05832E+00-1.19436E-02-8.32580E-01-4.48607E-14 2.32821E-13
 -1      3990 1.75091E+01 1.14208E+00 1.41436E-02-5.39611E-01 1.65699E-14 1.96371E-13
 -1      3991 1.63527E+01 8.47762E-01-1.17033E-02-1.16854E+00-1.40139E-13 1.28485E-13
 -1      3992 1.67522E+01 9.58852E-01-1.89806E-02-1.00516E+00-1.18323E-13 1.45645E-13
 -1      3993 1.67376E+01 1.10758E+00 2.18444E-02-6.17045E-01-1.25382E-13-4.16585E-14
 -1      3994 1.51722E+01 5.18409E-01-1.36694E-02-1.41516E+00-3.20802E-14 1.93873E-14
 -1      3995 1.56940E+01 7.51993E-01-2.33874E-02-1.15577E+00-8.73121E-14 2.33958E-14
 -1      3996 1.56966E+01 1.01205E+00 4.30322E-02-6.12145E-01-8.30156E-14-2.10295E-13
 -1      3997 1.41826E+01 8.45158E-01 6.06015E-02-4.43822E-01-3.09652E-14-2.27651E-13
 -1      3998 2.00121E+01 4.09791E-02 2.58273E-04-5.97834E-02-7.00364E-14 2.86750E-15
 -1      3999 2.00196E+01 2.32174E-02-3.18210E-04-5.64207E-02-8.13346E-14-4.76927E-15
 -1      4000 2.00273E+01 1.69419E-02 1.60244E-05-4.75095E-02-4.91735E-14 2.57990E-14
 -1      4001 2.02826E+01 1.48827E-01-1.12629E-03-8.08693E-02 6.76237E-14 9.36741E-14
 -1      4002 2.03046E+01 2.23605E-01 1.62039E-03-4.70507E-02 9.97566E-14 9.71213E-14
 -1      4003 2.03452E+01 3.06810E-01-5.76096E-06-1.63592E-02 9.53040E-14 7.83588E-14
 -1      4004 2.03156E+01 1.41302E-01-3.44278E-04-7.47694E-02 8.02279E-14 8.78676E-14
 -1      4005 2.01413E+01-8.07820E-02 2.42437E-04-1.27449E-01-8.23307E-15 7.35980E-14
 -1      4006 2.01548E+01-7.38553E-02 3.99171E-04-1.32054E-01-8.92393E-16 4.93751E-14
 -1      4007 2.01980E+01-7.09669E-02-5.55800E-04-1.19200E-01 3.63286E-15 7.89733E-14
 -1      4008 2.01625E+01-8.77303E-02-5.35087E-04-1.11899E-01-1.05667E-15 9.72705E-14
 -1      4009 1.46919E+01 2.81089E-01 4.91081E-02 1.94376E+00-2.16504E-13 1.74288E-13
 -1      4010 1.48384E+01 5.79749E-01-1.03697E-02 1.23163E+00-2.66465E-13 1.35325E-13
 -1      4011 1.54699E+01-4.12815E-02-2.01971E-02 2.30845E+00-1.74481E-13 2.33312E-13
 -1      4012 2.03184E+01 1.18318E+00-1.91491E-03-7.44978E-02 8.36680E-14-7.28172E-14
 -1      4013 2.03212E+01 1.15265E+00-2.20461E-03-1.31482E-01 3.72964E-14-3.12335E-14
 -1      4014 2.03718E+01 9.97110E-01 4.44769E-03-3.87288E-02 7.98214E-14-6.58255E-14
 -1      4015 2.03202E+01 1.08351E+00-2.15492E-03 2.21433E-01 1.48155E-13-1.14420E-14
 -1      4016 2.03180E+01 1.14847E+00-1.06502E-03 1.74554E-01 1.55916E-13-2.98527E-14
 -1      4017 2.03653E+01 9.76806E-01 4.04986E-03 1.14552E-01 1.46952E-13 2.17425E-15
 -1      4018 2.03449E+01 9.55037E-01 1.74801E-03 1.83198E-01 1.30231E-13-3.08364E-14
 -1      4019 2.01167E+01-8.39892E-02 3.61016E-04-7.40755E-02-9.69515E-14 2.38753E-13
 -1      4020 2.01291E+01-8.97231E-02 1.38596E-04-7.92250E-02-6.62256E-14 1.97815E-13
 -1      4021 1.90841E+01-1.49066E+00 3.07661E-02 2.69929E+00 7.78340E-14 1.28651E-13
 -1      4022 1.75698E+01-1.50665E+00-2.77696E-03 3.39590E+00 5.22924E-14 2.47102E-13
 -1      4023 1.68430E+01-7.51978E-01-1.17254E-03 2.87927E+00 7.72550E-14 1.82505E-13
 -1      4024 1.86904E+01-1.02119E+00-2.52720E-03 2.46784E+00 7.57412E-14 5.47461E-14
 -1      4025 2.03589E+01 9.57128E-01 2.23783E-03-1.38736E-01 3.42289E-14-3.35339E-14
 -1      4026 1.46119E+01 8.06799E-01-2.49812E-03 6.52921E-02-8.37581E-14-4.90831E-14
 -1      4027 2.03959E+01 3.63316E-01 3.92635E-04-4.42820E-04-9.64054E-15 2.52891E-14
 -1      4028 2.03846E+01 2.60153E-01-1.01723E-03 3.01229E-02-3.25641E-14 1.03611E-14
 -1      4029 2.04001E+01 2.38306E-01 2.68718E-04 2.65578E-02-2.72040E-14 1.70708E-14
 -1      4030 2.03923E+01 5.77713E-01-6.97950E-04-5.98325E-02 2.51729E-14 1.95139E-14
 -1      4031 2.03925E+01 4.64094E-01-1.31257E-03-1.99768E-02 3.00931E-14 1.87002E-14
 -1      4032 2.04108E+01 4.34878E-01 7.31617E-04-9.54822E-03 1.76963E-14-1.77663E-14
 -1      4033 1.79935E+01-6.09178E-01-6.35882E-03 2.43798E+00 1.08110E-13 3.12670E-13
 -1      4034 2.01460E+01-9.32796E-02 3.30277E-04-8.40286E-02-7.17257E-14 1.66175E-13
 -1      4035 2.01612E+01-9.46494E-02 3.47978E-04-8.88285E-02-7.38279E-14 1.57157E-13
 -1      4036 2.01534E+01-9.63406E-02-6.55006E-04-6.86060E-02-8.70327E-14 2.05699E-13
 -1      4037 2.00043E+01 5.46305E-02 1.62554E-04-5.25272E-02-1.37809E-14-3.26112E-14
 -1      4038 2.03752E+01 7.94505E-01-5.29337E-04-8.89058E-02 3.35879E-14-1.00912E-14
 -1      4039 1.53288E+01 6.80535E-01 9.43766E-04 1.05761E+00-2.80222E-13 5.03473E-14
 -1      4040 1.48821E+01 8.85305E-01 4.68365E-02 6.13412E-01-1.66574E-13 6.02851E-14
 -1      4041 1.50536E+01 8.70381E-01-1.89392E-02-1.74196E-02-4.14963E-14-2.33200E-13
 -1      4042 2.00695E+01-4.71515E-02 3.42632E-04-5.83876E-02-3.72608E-14 1.15288E-13
 -1      4043 2.00782E+01-5.82713E-02-5.21914E-05-6.15550E-02-1.07661E-13 1.50282E-13
 -1      4044 2.00710E+01-4.33622E-02-2.24374E-04-4.85818E-02-1.97879E-14 6.04979E-14
 -1      4045 2.03524E+01 8.29181E-01-1.64902E-03 1.44440E-01 1.40269E-13-4.18969E-14
 -1      4046 2.03779E+01 6.51158E-01 9.74634E-04 9.63001E-02 1.21838E-13-1.54622E-14
 -1      4047 2.03750E+01 7.80879E-01-3.83543E-05 1.01940E-01 1.21161E-13-1.07198E-14
 -1      4048 2.03763E+01 5.02143E-01-1.37198E-03 3.92952E-02 1.10997E-13-9.74203E-15
 -1      4049 2.02590E+01-4.55225E-02-6.62668E-05-1.02442E-01 2.75973E-14 1.17148E-13
 -1      4050 2.02804E+01-1.80896E-02 7.06464E-04-9.85734E-02 5.28364E-14 1.02761E-13
 -1      4051 2.00914E+01-6.80406E-02 3.59881E-04-6.51108E-02-1.35124E-13 1.86571E-13
 -1      4052 2.01017E+01-7.68180E-02 2.67640E-05-6.95727E-02-1.17283E-13 2.13986E-13
 -1      4053 2.00951E+01-6.67055E-02-3.26242E-04-5.34927E-02-9.23692E-14 1.11690E-13
 -1      4054 2.03909E+01 8.25419E-01-1.64722E-03-1.10160E-02 7.60451E-14-4.71950E-14
 -1      4055 2.03892E+01 8.09801E-01-2.42891E-03-4.49923E-02 5.28569E-14-5.20126E-14
 -1      4056 2.01224E+01-8.48912E-02-4.18062E-04-6.04250E-02-9.19814E-14 2.04858E-13
 -1      4057 2.03166E+01 5.91735E-03-5.25862E-04-7.84647E-02 4.45118E-14 1.55229E-13
 -1      4058 2.03003E+01 1.73346E-02-3.55601E-04-9.42970E-02 5.26107E-14 1.19023E-13
 -1      4059 2.03231E+01 6.31962E-02 1.11610E-03-8.22851E-02 5.20788E-14 1.24533E-13
 -1      4060 2.03898E+01 8.10884E-01-2.01809E-03 4.59311E-02 1.05908E-13-3.38341E-15
 -1      4061 2.03900E+01 8.24876E-01-1.95132E-03 1.24479E-02 9.18114E-14-1.63254E-14
 -1      4062 2.04199E+01 6.73288E-01 2.90457E-03-6.19831E-04 7.55489E-14-1.03055E-15
 -1      4063 2.03544E+01 1.37398E-02 3.08203E-04 4.04695E-02 6.85857E-15 8.05098E-14
 -1      4064 2.03324E+01-2.38522E-02 2.13420E-04 4.57570E-02 2.99884E-14 8.93958E-14
 -1      4065 2.03089E+01-5.28146E-02 3.33431E-04 4.47680E-02 3.46773E-15 7.79108E-14
 -1      4066 2.02861E+01-7.36576E-02 3.14316E-04 4.65576E-02 6.08204E-17 7.68857E-14
 -1      4067 2.03296E+01-3.73451E-02-1.05497E-03 2.45998E-02 1.31140E-14 6.63035E-14
 -1      4068 2.02624E+01-8.85573E-02 2.92977E-04 4.45010E-02-1.25703E-14 5.84489E-14
 -1      4069 2.02401E+01-9.75827E-02 2.32520E-04 4.38643E-02-1.60140E-14 7.47532E-14
 -1      4070 2.02829E+01-8.20251E-02-8.60490E-04 2.53587E-02-2.74883E-14 7.67968E-14
 -1      4071 2.02179E+01-1.02179E-01 2.97000E-04 4.21962E-02-3.68725E-14 3.60202E-14
 -1      4072 2.01983E+01-1.03189E-01 4.47633E-04 4.05274E-02-5.05039E-14 2.08969E-14
 -1      4073 2.02356E+01-1.01401E-01-7.88458E-04 2.41364E-02-5.20888E-14 6.63663E-14
 -1      4074 2.01776E+01-1.01393E-01 2.06283E-04 3.77916E-02-6.90240E-14-6.69969E-15
 -1      4075 2.01601E+01-9.65711E-02 3.71925E-04 3.56761E-02-1.36832E-13-7.23411E-14
 -1      4076 2.01944E+01-1.05566E-01-8.74744E-04 2.13531E-02-7.42952E-14-5.50829E-14
 -1      4077 2.01417E+01-8.97917E-02 1.93865E-04 3.34864E-02-1.22191E-13-4.51541E-14
 -1      4078 2.01263E+01-8.10624E-02 3.42896E-04 3.14845E-02-6.58065E-14-4.19130E-15
 -1      4079 2.01557E+01-9.62124E-02-8.86717E-04 1.90904E-02-7.61577E-14-8.48228E-15
 -1      4080 2.01100E+01-7.09963E-02 1.13015E-04 2.96663E-02-3.46176E-14-7.62549E-15
 -1      4081 2.00965E+01-5.93335E-02 2.95095E-04 2.81447E-02-4.31533E-14 3.55535E-14
 -1      4082 2.01220E+01-7.85878E-02-7.16753E-04 1.70128E-02-6.18856E-14 2.61075E-15
 -1      4083 2.00817E+01-4.66527E-02 2.76307E-05 2.68663E-02-2.23422E-14 3.54035E-14
 -1      4084 2.00694E+01-3.25491E-02 2.42476E-04 2.61369E-02-1.39648E-14 8.33910E-14
 -1      4085 2.00920E+01-5.46931E-02-5.05876E-04 1.53953E-02-5.73320E-14 1.13404E-14
 -1      4086 2.00555E+01-1.75450E-02-6.91195E-05 2.55337E-02-8.65302E-16 9.04895E-14
 -1      4087 2.00437E+01-1.08931E-03 1.87426E-04 2.58729E-02 5.85173E-14 1.02698E-13
 -1      4088 2.00645E+01-2.56102E-02-2.70351E-04 1.45700E-02 1.38321E-14 8.31605E-14
 -1      4089 2.00297E+01 1.62884E-02-1.81409E-04 2.60826E-02 6.32674E-14 1.06774E-13
 -1      4090 2.00175E+01 3.53024E-02 1.31283E-04 2.77587E-02 9.95643E-14 9.28751E-14
 -1      4091 2.00378E+01 8.43231E-03-8.63993E-06 1.48053E-02 6.93763E-14-6.53048E-15
 -1      4092 2.00022E+01 5.53466E-02-3.14240E-04 2.89498E-02 2.25615E-14 1.04043E-13
 -1      4093 1.99887E+01 7.73250E-02 7.46497E-05 3.22532E-02-7.71003E-14 6.33177E-14
 -1      4094 2.00100E+01 4.78315E-02 2.86821E-04 1.63863E-02 3.38974E-14 3.57054E-14
 -1      4095 1.99708E+01 1.00477E-01-4.73703E-04 3.46505E-02-1.14714E-13 4.27115E-14
 -1      4096 1.99548E+01 1.25930E-01 1.81738E-05 3.99221E-02-9.13975E-14-4.01759E-14
 -1      4097 1.99787E+01 9.34089E-02 6.26862E-04 1.96629E-02-1.06193E-13-1.47359E-14
 -1      4098 1.99329E+01 1.52677E-01-6.67008E-04 4.38355E-02-9.31188E-14-1.19232E-13
 -1      4099 1.99129E+01 1.82114E-01-3.65002E-05 5.14953E-02-1.28587E-13-1.72686E-13
 -1      4100 1.99413E+01 1.46215E-01 1.02430E-03 2.51004E-02-1.66913E-13-4.67482E-14
 -1      4101 1.98852E+01 2.12877E-01-9.02608E-04 5.73563E-02-4.43798E-14-1.67890E-13
 -1      4102 1.98599E+01 2.46682E-01-8.55532E-05 6.79367E-02-7.92564E-15-1.11177E-13
 -1      4103 1.98946E+01 2.07317E-01 1.49295E-03 3.33426E-02-9.75371E-14-1.07014E-13
 -1      4104 1.98245E+01 2.81665E-01-1.19053E-03 7.63464E-02-4.21973E-14-1.10071E-13
 -1      4105 1.97923E+01 3.19935E-01-1.21446E-04 9.05354E-02-2.36280E-15-1.14024E-13
 -1      4106 1.98351E+01 2.77547E-01 2.04677E-03 4.52949E-02-1.80703E-14-1.58495E-13
 -1      4107 1.97469E+01 3.58947E-01-1.54317E-03 1.02332E-01 9.03991E-14-1.71899E-13
 -1      4108 1.97061E+01 4.01295E-01-1.30866E-04 1.21034E-01 1.00799E-13-1.07086E-13
 -1      4109 1.97589E+01 3.57191E-01 2.69936E-03 6.22423E-02 3.22154E-14-2.14211E-13
 -1      4110 1.96484E+01 4.43510E-01-1.97681E-03 1.37385E-01 2.31183E-14-1.29623E-13
 -1      4111 1.95976E+01 4.88813E-01-9.20037E-05 1.61811E-01-3.18417E-14-8.50016E-14
 -1      4112 1.96614E+01 4.45600E-01 3.46411E-03 8.60140E-02 5.53824E-14-2.71538E-13
 -1      4113 1.95249E+01 5.32485E-01-2.51462E-03 1.84348E-01-9.48884E-14-8.43318E-14
 -1      4114 1.94626E+01 5.78582E-01 2.89777E-05 2.16155E-01-1.09405E-13-1.61314E-13
 -1      4115 1.95381E+01 5.40717E-01 4.35577E-03 1.19218E-01-4.31018E-14-3.44859E-13
 -1      4116 1.93720E+01 6.20695E-01-3.19215E-03 2.47160E-01-7.61428E-16-1.35460E-13
 -1      4117 1.92974E+01 6.64042E-01 2.82317E-04 2.88665E-01-9.35282E-15-4.41236E-14
 -1      4118 1.93838E+01 6.38513E-01 5.39361E-03 1.65574E-01 5.01763E-15-2.69440E-13
 -1      4119 1.91859E+01 6.99920E-01-4.06664E-03 3.31344E-01-1.03104E-13 4.43261E-14
 -1      4120 1.90989E+01 7.35211E-01 7.40858E-04 3.85861E-01-4.54063E-14-1.47023E-14
 -1      4121 1.91932E+01 7.32358E-01 6.60195E-03 2.30373E-01 3.94260E-14-1.30485E-13
 -1      4122 1.89629E+01 7.58122E-01-5.22584E-03 4.44771E-01-6.45414E-14 3.02807E-14
 -1      4123 1.88650E+01 7.77851E-01 1.54052E-03 5.17136E-01-6.23144E-14-5.00038E-14
 -1      4124 1.89605E+01 8.12317E-01 7.97566E-03 3.21117E-01-8.61794E-14 6.11276E-14
 -1      4125 1.87004E+01 7.78428E-01-6.79967E-03 5.99011E-01-3.55814E-14-1.00060E-13
 -1      4126 1.85944E+01 7.71814E-01 2.54313E-03 6.96567E-01-7.40285E-14-8.21819E-14
 -1      4127 1.86789E+01 8.64050E-01 9.15936E-03 4.48371E-01-1.35532E-13 1.79443E-13
 -1      4128 1.83975E+01 7.42389E-01-7.62210E-03 8.09546E-01-9.38455E-14-4.47161E-14
 -1      4129 1.82869E+01 6.92810E-01 3.96558E-03 9.46876E-01-1.76525E-13 6.57387E-14
 -1      4130 1.83393E+01 8.61829E-01 7.23195E-03 6.25277E-01-5.02918E-15 3.26506E-14
 -1      4131 1.80599E+01 6.11047E-01-8.26060E-03 1.10003E+00-1.64347E-13 1.86885E-13
 -1      4132 1.79486E+01 5.01722E-01 4.90026E-03 1.29013E+00-1.45724E-13 2.63697E-13
 -1      4133 1.79372E+01 7.82074E-01 1.15978E-03 8.78734E-01-9.05741E-14 9.86549E-14
 -1      4134 1.76713E+01 3.49826E-01-1.44943E-02 1.50218E+00-1.76543E-13 4.66442E-13
 -1      4135 1.75860E+01 1.46590E-01-1.54744E-03 1.78462E+00-7.79871E-14 5.01303E-13
 -1      4136 1.74633E+01 6.06586E-01 7.24897E-05 1.23598E+00 2.54174E-14 4.70113E-13
 -1      4137 1.98126E+01 3.07677E-01-5.16306E-04-9.91344E-02-7.46384E-14 1.97445E-13
 -1      4138 1.98447E+01 2.68781E-01-9.14818E-04-8.62024E-02-4.44756E-14 2.04389E-13
 -1      4139 2.00474E+01-7.89361E-03 2.24961E-04-3.59730E-02-6.14917E-14 1.55210E-13
 -1      4140 2.00580E+01-2.34934E-02-7.32478E-05-3.59697E-02-1.03083E-14 1.01022E-13
 -1      4141 1.99271E+01 1.68660E-01-1.50191E-04-6.26687E-02-8.36521E-14 1.25491E-13
 -1      4142 1.99456E+01 1.40004E-01-5.44974E-04-5.48077E-02-5.70842E-14 1.08669E-13
 -1      4143 1.99657E+01 1.13785E-01-2.75258E-05-5.06234E-02-2.67688E-14 9.85415E-14
 -1      4144 1.99802E+01 8.93020E-02-3.99217E-04-4.50854E-02 1.58892E-14 6.46181E-14
 -1      4145 1.99520E+01 1.33591E-01 8.12252E-04-3.68915E-02-5.47174E-14 9.29648E-14
 -1      4146 1.97276E+01 3.93781E-01-7.95062E-04-1.23444E-01-1.63050E-13 2.05126E-13
 -1      4147 1.97701E+01 3.49189E-01-1.14283E-03-1.08032E-01-8.97491E-14 1.54650E-13
 -1      4148 1.97792E+01 3.43457E-01 2.38924E-03-6.86359E-02-9.02340E-14 2.33522E-13
 -1      4149 1.96165E+01 4.91216E-01-1.17014E-03-1.51060E-01-2.79026E-14 1.48274E-13
 -1      4150 1.96727E+01 4.41064E-01-1.40091E-03-1.33516E-01-1.55172E-13 1.88757E-13
 -1      4151 1.96842E+01 4.35268E-01 3.13265E-03-8.26572E-02-1.28512E-13 1.13734E-13
 -1      4152 1.94721E+01 5.98815E-01-1.67457E-03-1.80638E-01 2.15918E-14 1.18299E-13
 -1      4153 1.95458E+01 5.43899E-01-1.69159E-03-1.61659E-01 5.57726E-14 2.11273E-13
 -1      4154 1.95611E+01 5.37884E-01 4.02155E-03-9.66273E-02-2.78744E-14 3.05372E-14
 -1      4155 1.92858E+01 7.13723E-01-2.35114E-03-2.09993E-01 3.84179E-14 4.10461E-14
 -1      4156 1.93818E+01 6.55767E-01-2.02387E-03-1.90690E-01 4.08611E-14 8.80656E-14
 -1      4157 1.94028E+01 6.49422E-01 5.08739E-03-1.08336E-01 9.90546E-14 1.51716E-13
 -1      4158 1.90468E+01 8.30834E-01-3.25801E-03-2.36016E-01 6.87834E-14-1.23689E-13
 -1      4159 1.91711E+01 7.72779E-01-2.42304E-03-2.17885E-01 6.31998E-14 2.72137E-14
 -1      4160 1.92005E+01 7.66138E-01 6.37860E-03-1.14447E-01 1.06027E-13-5.74402E-14
 -1      4161 1.87411E+01 9.42238E-01-4.47742E-03-2.54879E-01 5.25428E-14-1.32151E-13
 -1      4162 1.89017E+01 8.88535E-01-2.94658E-03-2.39520E-01 3.91945E-14-1.41207E-13
 -1      4163 1.89436E+01 8.81966E-01 7.97498E-03-1.10208E-01 8.37531E-14-2.10103E-13
 -1      4164 1.83508E+01 1.03722E+00-5.67289E-03-2.62867E-01 3.62893E-14-4.76922E-14
 -1      4165 1.85570E+01 9.93981E-01-3.66157E-03-2.51351E-01 8.85561E-14-5.38735E-14
 -1      4166 1.86178E+01 9.88252E-01 9.97043E-03-8.91338E-02 1.15030E-14-1.74746E-13
 -1      4167 1.78518E+01 1.09717E+00-7.22389E-03-2.57993E-01-3.71889E-14 1.21660E-13
 -1      4168 1.81146E+01 1.07190E+00-5.76813E-03-2.52035E-01-4.21623E-14 5.92735E-14
 -1      4169 1.81988E+01 1.07370E+00 1.14737E-02-4.45127E-02-7.20780E-14 7.88661E-14
 -1      4170 1.72014E+01 1.11081E+00-8.01891E-03-2.41140E-01-1.74173E-14 8.54799E-14
 -1      4171 1.75437E+01 1.11455E+00-6.89815E-03-2.31385E-01 1.73775E-14 9.18377E-14
 -1      4172 1.76689E+01 1.11024E+00 9.94364E-03 1.00009E-02-1.98702E-14 2.64207E-14
 -1      4173 1.63256E+01 1.04621E+00-1.17769E-02-2.17489E-01-1.04541E-13-1.57018E-13
 -1      4174 1.67842E+01 1.09035E+00-1.15598E-02-1.96697E-01-2.64257E-14-7.42627E-14
 -1      4175 1.69705E+01 1.09479E+00 1.00159E-02 1.40781E-01 6.97504E-14-1.07444E-13
 -1      4176 1.57095E+01 9.73746E-01-6.93170E-03-1.28755E-01-1.67087E-13-2.38616E-13
 -1      4177 2.04185E+01 2.90093E-01-2.26737E-04 9.51074E-03 1.27855E-16 3.58624E-16
 -1      4178 2.04072E+01 1.98685E-01-4.42026E-04 2.55988E-02-1.06150E-14 1.92311E-14
 -1      4179 1.99967E+01 6.69115E-02 7.11906E-05-4.24016E-02-5.90224E-15 8.37074E-15
 -1      4180 2.00088E+01 4.59253E-02-2.75088E-04-3.89612E-02-1.29739E-14 5.18104E-14
 -1      4181 1.99868E+01 8.24347E-02 4.42821E-04-3.09605E-02-1.17028E-14 1.95270E-14
 -1      4182 1.98774E+01 2.32893E-01-3.08033E-04-7.88070E-02-8.98081E-14 1.77042E-13
 -1      4183 1.99017E+01 1.99395E-01-7.15997E-04-6.84483E-02-1.16611E-13 1.53091E-13
 -1      4184 1.99083E+01 1.93337E-01 1.24823E-03-4.52274E-02-8.94007E-14 1.95329E-13
 -1      4185 2.04150E+01 6.05191E-01 1.21978E-03-2.50595E-02 4.47734E-14-2.90899E-14
 -1      4186 2.03921E+01 7.48326E-01 3.76071E-04-5.77114E-02 4.80367E-14-2.54239E-14
 -1      4187 1.66177E+01-2.18929E-01 1.27143E-02 2.33947E+00-1.18416E-13 2.91917E-13
 -1      4188 2.02375E+01-6.52706E-02 4.80458E-04-1.01865E-01 2.73835E-14 1.11649E-13
 -1      4189 2.02735E+01-5.46444E-02-5.12366E-04-8.38785E-02 6.22017E-14 1.48236E-13
 -1      4190 2.02181E+01-7.93834E-02 1.83607E-04-1.00835E-01 4.74445E-14 9.18884E-14
 -1      4191 2.01263E+01-8.29922E-02 3.74276E-04-4.51226E-02-4.33292E-14 1.56024E-13
 -1      4192 2.01410E+01-9.08256E-02 2.01657E-04-4.80507E-02-6.33251E-14 2.08741E-13
 -1      4193 1.67559E+01 7.56022E-02-7.39106E-03 1.98396E+00-1.92327E-13 4.82711E-13
 -1      4194 2.00231E+01 2.67211E-02 1.53762E-04-3.76484E-02 2.71804E-14 5.48251E-14
 -1      4195 2.00340E+01 8.64166E-03-1.68111E-04-3.60573E-02-3.25930E-14 7.90419E-14
 -1      4196 2.00161E+01 3.85439E-02 1.24478E-04-2.73324E-02 2.63066E-14-2.68975E-14
 -1      4197 2.03821E+01 7.79069E-01-1.61450E-03 7.28849E-02 1.07794E-13 1.60726E-14
 -1      4198 2.03937E+01 1.23144E-01 2.59194E-04 3.00616E-02-1.03385E-14 3.96203E-14
 -1      4199 2.03752E+01 6.19335E-02-1.10216E-04 3.98404E-02-1.10494E-14 4.85093E-14
 -1      4200 2.03746E+01 4.28595E-02-6.63975E-04 2.10805E-02 2.96749E-14 6.39402E-14
 -1      4201 1.64085E+01 4.65570E-01 6.53604E-03 1.58562E+00-1.77242E-13 5.22069E-13
 -1      4202 2.03656E+01 2.72415E-01-1.34574E-03-3.12109E-02 6.35719E-14 6.13206E-14
 -1      4203 2.03787E+01 3.76874E-01 4.65333E-04 7.89028E-03 6.90199E-14 2.30638E-14
 -1      4204 2.03975E+01 4.71288E-01 5.27966E-04 2.36734E-02 5.58755E-14 1.40218E-14
 -1      4205 2.01594E+01-9.68459E-02 3.89471E-04-5.11628E-02-1.20865E-13 1.85419E-13
 -1      4206 2.01774E+01-1.00697E-01 5.11927E-04-5.45895E-02-1.17070E-13 1.72990E-13
 -1      4207 2.01583E+01-9.77162E-02-9.30804E-04-3.50916E-02-8.75137E-14 1.80933E-13
 -1      4208 2.00424E+01 7.47901E-04-1.56100E-04-2.58181E-02 9.59676E-15 8.67138E-14
 -1      4209 1.98522E+01 2.62957E-01 1.76778E-03-5.59146E-02-8.59627E-14 2.23760E-13
 -1      4210 2.00680E+01-3.17972E-02-4.09245E-04-2.61760E-02-2.33176E-14 1.47478E-13
 -1      4211 2.00716E+01-3.76781E-02 2.86699E-04-3.69648E-02-2.77364E-14 9.93883E-14
 -1      4212 2.00829E+01-5.09845E-02 1.49199E-05-3.82687E-02-6.21981E-14 7.84754E-14
 -1      4213 2.00974E+01-6.28625E-02 3.37906E-04-4.01820E-02-4.89254E-14 8.72609E-14
 -1      4214 2.01102E+01-7.37346E-02 1.01456E-04-4.24756E-02-5.60918E-14 1.21268E-13
 -1      4215 2.00949E+01-5.94396E-02-6.40563E-04-2.81167E-02-4.98797E-14 1.30307E-13
 -1      4216 1.59680E+01 1.00733E+00 1.66658E-02 3.44234E-01-7.59119E-14-2.17767E-13
 -1      4217 2.04103E+01 6.44098E-01 2.68268E-03 3.76540E-02 8.90130E-14 9.22439E-15
 -1      4218 2.04235E+01 5.43857E-01-8.09101E-05-9.14565E-03 4.24434E-14-1.32242E-14
 -1      4219 2.04229E+01 4.81001E-01-1.78867E-04-1.59075E-02 2.48157E-14-1.83809E-15
 -1      4220 2.04224E+01 3.77701E-01-2.21704E-04 4.46704E-03 8.92372E-15-2.04570E-14
 -1      4221 2.03380E+01 1.18296E-01-7.52399E-04-7.29056E-02 6.13190E-14 1.08436E-13
 -1      4222 2.03588E+01 1.89454E-01 1.27004E-03-4.89775E-02 7.81271E-14 1.02242E-13
 -1      4223 2.03860E+01 2.48199E-01-1.13188E-03-2.98104E-02 4.13334E-14 4.20576E-14
 -1      4224 2.03571E+01 1.02610E-01-9.61666E-04-6.24207E-02 6.27108E-14 1.61548E-13
 -1      4225 2.01245E+01-8.18456E-02-8.42612E-04-3.12783E-02-3.95206E-14 9.87306E-14
 -1      4226 2.01802E+01-9.34956E-02 2.80429E-04-9.40376E-02-3.33437E-14 1.22563E-13
 -1      4227 2.01971E+01-8.84443E-02 2.73028E-04-9.78168E-02 1.97913E-14 1.08683E-13
 -1      4228 2.01906E+01-9.89371E-02-6.82959E-04-7.66499E-02-8.13917E-14 1.38540E-13
 -1      4229 2.02823E+01-6.60887E-02 1.10842E-04-6.51222E-02 5.73614E-14 1.29353E-13
 -1      4230 2.03054E+01-4.27635E-02 6.40239E-04-6.28823E-02 6.08493E-14 1.24230E-13
 -1      4231 2.03273E+01-1.23576E-02-1.91810E-04-6.30750E-02 6.68616E-14 1.22451E-13
 -1      4232 2.03513E+01 2.72537E-02 5.38444E-04-5.59522E-02 7.75201E-14 1.17231E-13
 -1      4233 2.03308E+01-2.54235E-02-1.06206E-03-4.37058E-02 6.68420E-14 8.17873E-14
 -1      4234 2.04280E+01 3.36989E-01 6.26247E-05 3.59534E-03 1.45390E-14-9.68081E-15
 -1      4235 2.04246E+01 5.40008E-01-1.28178E-03 4.02270E-03 6.33905E-14 2.65813E-14
 -1      4236 1.69710E+01 6.63811E-01 9.14026E-03 1.20066E+00 1.20512E-13 4.49530E-13
 -1      4237 1.60708E+01 6.59447E-01-2.51552E-03 1.28632E+00-2.00177E-13 2.23310E-13
 -1      4238 1.59636E+01 8.61589E-01-1.22223E-02 7.36422E-01-7.65586E-14-6.74007E-14
 -1      4239 1.71950E+01 7.77063E-01-3.16642E-03 9.88160E-01 1.12888E-13 4.08205E-13
 -1      4240 2.04097E+01 1.71318E-01 4.44129E-05 1.49268E-02 8.06282E-15 1.18304E-14
 -1      4241 2.03385E+01-3.10278E-02 4.69783E-04-9.76067E-03 3.98041E-14 4.49381E-14
 -1      4242 2.03149E+01-5.88760E-02 8.52577E-04-8.36217E-03 2.04364E-14 3.71383E-14
 -1      4243 2.02534E+01-9.89710E-02 5.04934E-04 5.25161E-03-8.13925E-14 5.87404E-14
 -1      4244 2.02316E+01-1.04653E-01 7.48564E-04 4.34138E-03-5.49546E-14 4.24092E-14
 -1      4245 2.02001E+01-1.04579E-01 2.43301E-04-7.92336E-03-7.97713E-14 4.22597E-14
 -1      4246 2.01807E+01-1.01432E-01 6.20924E-04-7.70875E-03-9.67081E-14 5.06938E-14
 -1      4247 2.01626E+01-9.59563E-02 5.92930E-04-6.71618E-03-6.48234E-14 6.07177E-14
 -1      4248 2.01443E+01-8.88040E-02 5.40093E-04-6.95696E-03-5.81831E-14 5.53819E-14
 -1      4249 2.01281E+01-7.92964E-02 5.48087E-04-5.96683E-03-5.83110E-14 4.50833E-14
 -1      4250 2.01117E+01-6.87997E-02 4.23446E-04-6.27187E-03-5.67697E-14 6.62959E-14
 -1      4251 2.00971E+01-5.64447E-02 4.07833E-04-5.55132E-03-6.38840E-14 8.03234E-14
 -1      4252 2.00822E+01-4.32141E-02 2.86350E-04-5.71728E-03-7.43922E-14 7.07460E-14
 -1      4253 2.00687E+01-2.84502E-02 2.37475E-04-5.46325E-03-2.39560E-14 7.17854E-14
 -1      4254 2.00546E+01-1.27108E-02 1.40649E-04-5.38727E-03 3.44903E-14 5.41211E-14
 -1      4255 2.00412E+01 4.41932E-03 4.31701E-05-5.73230E-03 4.84092E-14 2.26088E-14
 -1      4256 2.00271E+01 2.27876E-02-1.57934E-05-5.31828E-03 6.97831E-14 5.64450E-15
 -1      4257 2.00127E+01 4.25376E-02-1.78538E-04-6.36073E-03 3.67641E-14 3.47196E-15
 -1      4258 1.99974E+01 6.39072E-02-1.88421E-04-5.49731E-03 7.02951E-15-1.74291E-14
 -1      4259 1.99808E+01 8.67357E-02-4.35228E-04-7.30299E-03-2.54947E-14-3.18353E-14
 -1      4260 1.99630E+01 1.11642E-01-3.83810E-04-5.84385E-03-1.16718E-13-2.16428E-14
 -1      4261 1.99427E+01 1.38124E-01-7.37224E-04-8.43315E-03-1.41697E-13 5.86004E-14
 -1      4262 1.99209E+01 1.67174E-01-6.08678E-04-6.17252E-03-1.16642E-13 5.76122E-14
 -1      4263 1.98951E+01 1.97904E-01-1.09705E-03-9.49243E-03-8.63202E-14 1.11641E-13
 -1      4264 1.98677E+01 2.31667E-01-8.69052E-04-6.13134E-03-3.94674E-14 8.17939E-14
 -1      4265 1.98343E+01 2.67150E-01-1.52928E-03-1.00095E-02-1.01130E-13 8.72689E-14
 -1      4266 1.97993E+01 3.06030E-01-1.16949E-03-5.10797E-03-7.94852E-14 3.34511E-14
 -1      4267 1.97560E+01 3.46536E-01-2.05084E-03-9.18530E-03-4.92718E-14 1.71570E-15
 -1      4268 1.97112E+01 3.90611E-01-1.51248E-03-2.09394E-03-2.06021E-14-5.02194E-14
 -1      4269 1.96550E+01 4.36001E-01-2.68219E-03-5.73221E-03-1.83176E-14-1.40803E-13
 -1      4270 1.95981E+01 4.84817E-01-1.89829E-03 4.50428E-03-2.40707E-14-2.02887E-13
 -1      4271 1.95256E+01 5.34325E-01-3.44992E-03 2.34043E-03-4.31625E-15-1.87317E-13
 -1      4272 1.94541E+01 5.86660E-01-2.32576E-03 1.71187E-02 5.96811E-15-1.25004E-13
 -1      4273 1.93614E+01 6.38629E-01-4.39150E-03 1.80048E-02 8.75665E-14-1.23575E-13
 -1      4274 1.92725E+01 6.92213E-01-2.79345E-03 3.93482E-02 1.38551E-13-4.71108E-14
 -1      4275 1.91545E+01 7.43813E-01-5.56031E-03 4.55690E-02 1.39369E-13-1.33567E-13
 -1      4276 1.90455E+01 7.95050E-01-3.29425E-03 7.63740E-02 9.18000E-14-3.78745E-14
 -1      4277 1.88962E+01 8.42012E-01-7.01029E-03 9.11478E-02 4.25114E-14 7.68851E-15
 -1      4278 1.87640E+01 8.85740E-01-3.75156E-03 1.35482E-01-2.01476E-14 1.49024E-14
 -1      4279 1.85755E+01 9.22402E-01-8.61360E-03 1.63459E-01-1.51955E-13 1.45942E-13
 -1      4280 1.84177E+01 9.51641E-01-3.66353E-03 2.27323E-01-8.98642E-14 1.28772E-13
 -1      4281 1.81789E+01 9.76598E-01-7.94344E-03 2.76715E-01-6.05115E-14 1.75259E-13
 -1      4282 1.79961E+01 9.80554E-01-7.70618E-04 3.61691E-01 3.35096E-14 1.55430E-13
 -1      4283 1.77591E+01 8.98587E-01-2.12960E-03 6.69175E-01 7.21617E-14 1.74508E-13
 -1      4284 1.75620E+01 8.42688E-01 5.67898E-03 8.14519E-01 4.91312E-14 2.96825E-13
 -1      4285 1.70403E+01 9.00280E-01 2.90179E-03 7.78575E-01 2.03550E-13 2.94152E-13
 -1      4286 2.04213E+01 2.08405E-01-6.71447E-05 3.99059E-04 7.55017E-15-1.44387E-14
 -1      4287 2.04089E+01 1.29271E-01 2.84111E-04 5.37843E-03 9.87055E-15 3.01269E-15
 -1      4288 1.69395E+01 1.00571E+00-7.87543E-03 4.28573E-01 1.13625E-13 2.25161E-14
 -1      4289 1.73451E+01 1.03483E+00-2.11214E-03 3.40975E-01 1.01835E-13-2.16055E-14
 -1      4290 2.04137E+01 4.98816E-01-1.39976E-03 2.34210E-02 5.70860E-14 1.06286E-15
 -1      4291 2.04227E+01 5.30089E-01-5.51184E-04 1.04798E-02 4.65236E-14 1.07868E-14
 -1      4292 2.04351E+01 4.19680E-01 2.44617E-03-3.77239E-04 1.33887E-14 1.96717E-14
 -1      4293 2.04180E+01 3.75541E-01 1.69606E-03-2.92862E-03 1.67931E-14-4.53428E-15
 -1      4294 1.65910E+01 9.60422E-01 3.15264E-03 5.65361E-01 9.06046E-14-9.81192E-15
 -1      4295 2.02297E+01-8.62288E-02-6.19206E-04-8.21260E-02-1.80307E-15 1.06421E-13
 -1      4296 2.02598E+01-8.23532E-02 5.46526E-04-6.28593E-02 2.21005E-14 1.33485E-13
 -1      4297 2.02845E+01-7.55612E-02-1.09101E-03-4.52307E-02 9.57407E-15 9.45173E-14
 -1      4298 2.02386E+01-9.26292E-02 4.24076E-04-6.18419E-02-4.77212E-14 1.32061E-13
 -1      4299 2.03812E+01 5.13646E-02 2.38522E-04-9.95375E-03 4.83543E-14 1.21003E-14
 -1      4300 2.03613E+01 4.62444E-03 8.72770E-04-6.73380E-03 5.35368E-14 2.34201E-14
 -1      4301 2.04301E+01 3.45689E-01-8.70299E-04-2.36492E-03-4.25143E-17 4.26289E-15
 -1      4302 2.04275E+01 2.63796E-01 4.93743E-04 2.03719E-03-4.58321E-15 1.64909E-15
 -1      4303 2.04193E+01 2.20203E-01-6.37159E-04-1.04938E-02-3.24951E-14-1.77307E-14
 -1      4304 2.04280E+01 3.31505E-01-1.39477E-03-4.00769E-03-2.84192E-14-3.39473E-14
 -1      4305 2.02911E+01-7.83743E-02 4.78513E-04-9.58589E-03-1.19392E-14 5.47456E-14
 -1      4306 2.02074E+01-1.04751E-01-8.29535E-04-2.64748E-02-1.18874E-13 1.33502E-13
 -1      4307 2.02664E+01-9.24254E-02 4.05540E-04-8.97639E-03-5.21559E-14 6.34623E-14
 -1      4308 1.76360E+01 1.04454E+00-1.40280E-03 2.81741E-01 7.46581E-14 1.47691E-13
 -1      4309 2.02522E+01-9.81704E-02-6.91525E-04-3.00761E-02-5.16362E-14 1.09886E-13
 -1      4310 2.02088E+01-1.02215E-01 1.29732E-06-4.53451E-02-1.04495E-13 1.54375E-13
 -1      4311 2.03830E+01 1.03819E-01-1.98005E-04-3.91225E-02 3.82293E-14 6.76513E-14
 -1      4312 2.04018E+01 1.70294E-01 9.49558E-04-2.60196E-02 1.24024E-14 4.40602E-14
 -1      4313 2.03860E+01 8.36353E-02-4.00958E-04-2.33506E-02 4.58141E-14 3.94342E-15
 -1      4314 2.04068E+01 2.76812E-01-4.62034E-04-1.94672E-02 1.89262E-14 2.31291E-14
 -1      4315 2.02291E+01-9.85239E-02 3.01904E-04-4.72994E-02-8.40032E-14 1.38777E-13
 -1      4316 2.04075E+01 2.21816E-01 1.55983E-03-2.48835E-02-1.71956E-15 3.28383E-14
 -3
    1PSTEP                         3           1           1          
  100CL  101 1.000000000        4316                     0    1           1
 -4  TOSTRAIN    6    1
 -5  EXX         1    4    1    1
 -5  EYY         1    4    2    2
 -5  EZZ         1    4    3    3
 -5  EXY         1    4    1    2
 -5  EYZ         1    4    2    3
 -5  EZX         1    4    3    1
 -1         1 2.92663E-05 2.51211E-05-2.47717E-05 5.04110E-05-6.66488E-18-5.48242E-18
 -1         2 4.54093E-05-1.37787E-04 2.46224E-05-9.20271E-07 5.77843E-18-8.39198E-19
 -1         3 9.50336E-05-2.87733E-05-2.81137E-05-1.70766E-07-2.40439E-18-2.27223E-18
 -1         4 9.53343E-05-2.84618E-05-2.85740E-05-2.52112E-07 2.33690E-19 1.30352E-18
 -1         5 1.43349E-04-2.14784E-05-4.25292E-05 3.85310E-05-1.77930E-19 1.09143E-17
 -1         6 1.45410E-04 2.57581E-10-4.41883E-05-5.35264E-05-6.68309E-19 5.68190E-18
 -1         7 9.06121E-05-5.11379E-07-3.90694E-05-2.92511E-05-9.86793E-20-6.51183E-19
 -1         8 8.51284E-05 8.61767E-08-3.63401E-05-2.02687E-05-5.93452E-20-2.15431E-18
 -1         9 8.28152E-05 7.64601E-08-3.53513E-05-1.56363E-05-2.21684E-20-2.71627E-18
 -1        10 8.17736E-05 3.91430E-08-3.48820E-05-1.20758E-05 1.27584E-20-2.81939E-18
 -1        11 8.12529E-05 1.91784E-08-3.46531E-05-9.01039E-06 1.95943E-20-2.72827E-18
 -1        12 8.09815E-05 9.21934E-09-3.45379E-05-6.28168E-06 3.90098E-20-2.53733E-18
 -1        13 8.08389E-05 4.67148E-09-3.44796E-05-3.68404E-06 4.18380E-20-2.26451E-18
 -1        14 8.07793E-05 2.79395E-09-3.44558E-05-1.18320E-06 6.11671E-20-1.99812E-18
 -1        15 8.07815E-05 2.77664E-09-3.44566E-05 1.28829E-06 7.57005E-20-1.70365E-18
 -1        16 8.08455E-05 4.56101E-09-3.44819E-05 3.79431E-06 9.60547E-20-1.42082E-18
 -1        17 8.09932E-05 8.43634E-09-3.45414E-05 6.40438E-06 8.67828E-20-1.01509E-18
 -1        18 8.12693E-05 1.81897E-08-3.46578E-05 9.15278E-06 1.06657E-19-4.63956E-19
 -1        19 8.17975E-05 3.81921E-08-3.48901E-05 1.22546E-05 1.43063E-19 3.17646E-19
 -1        20 8.28378E-05 8.14877E-08-3.53642E-05 1.58674E-05 1.47794E-19 1.44967E-18
 -1        21 8.50932E-05 1.69363E-07-3.63785E-05 2.04797E-05 1.66839E-19 3.23227E-18
 -1        22 9.16488E-05-9.98661E-08-3.87409E-05 2.79977E-05-9.84676E-21 6.11368E-18
 -1        23 1.12982E-04-3.81288E-05-3.53994E-05-4.40179E-06-4.58668E-19 3.47982E-18
 -1        24 9.28177E-05-2.77010E-05-2.90031E-05 3.91526E-07-6.76932E-20 1.71477E-18
 -1        25 8.91363E-05-2.68572E-05-2.69343E-05 3.75969E-07-8.36826E-20 7.70535E-20
 -1        26 8.80362E-05-2.64945E-05-2.63979E-05 2.04146E-07-3.84598E-20-1.23124E-18
 -1        27 8.80661E-05-2.64739E-05-2.63911E-05 1.40038E-07-1.17104E-20-1.70160E-18
 -1        28 8.86038E-05-2.66115E-05-2.65618E-05 1.01075E-07-2.63649E-20-2.03692E-18
 -1        29 8.93628E-05-2.68254E-05-2.67956E-05 7.54040E-08-4.48841E-20-2.57880E-18
 -1        30 9.01914E-05-2.70662E-05-2.70468E-05 5.71175E-08 8.78293E-20-3.14821E-18
 -1        31 9.10045E-05-2.73057E-05-2.72921E-05 4.33750E-08-5.83094E-20-3.47620E-18
 -1        32 9.17551E-05-2.75282E-05-2.75183E-05 3.27313E-08 4.68389E-20-4.33040E-18
 -1        33 9.24193E-05-2.77259E-05-2.77185E-05 2.43732E-08 5.28422E-20-5.03192E-18
 -1        34 9.29883E-05-2.78957E-05-2.78902E-05 1.77835E-08-1.89675E-19-5.36030E-18
 -1        35 9.34629E-05-2.80376E-05-2.80335E-05 1.25950E-08 1.16636E-19-5.56584E-18
 -1        36 9.38497E-05-2.81536E-05-2.81505E-05 8.52619E-09-1.52130E-20-4.38353E-18
 -1        37 9.41590E-05-2.82464E-05-2.82441E-05 5.35243E-09-8.03171E-20-4.52231E-18
 -1        38 9.44031E-05-2.83199E-05-2.83181E-05 2.89356E-09-5.99561E-20-4.31324E-18
 -1        39 9.45953E-05-2.83779E-05-2.83765E-05 1.00897E-09-9.76312E-20-4.78665E-18
 -1        40 9.47501E-05-2.84247E-05-2.84237E-05-4.03440E-10-3.50238E-19-4.65890E-18
 -1        41 9.48827E-05-2.84650E-05-2.84641E-05-1.40613E-09 2.42737E-19-5.79725E-18
 -1        42 9.50093E-05-2.85036E-05-2.85029E-05-2.01902E-09 1.62265E-19-5.28936E-18
 -1        43 9.51483E-05-2.85459E-05-2.85455E-05-2.21491E-09-2.73126E-19-5.00382E-18
 -1        44 9.53200E-05-2.85982E-05-2.85980E-05-1.91337E-09-7.38020E-20-4.94960E-18
 -1        45 9.55483E-05-2.86675E-05-2.86678E-05-9.73341E-10 2.59431E-19-4.43041E-18
 -1        46 9.58606E-05-2.87620E-05-2.87630E-05 8.14226E-10 1.78558E-19-4.08838E-18
 -1        47 9.62884E-05-2.88912E-05-2.88931E-05 3.73147E-09-2.68899E-19-3.68175E-18
 -1        48 9.68674E-05-2.90657E-05-2.90690E-05 8.13115E-09-1.29591E-19-4.96879E-18
 -1        49 9.76354E-05-2.92966E-05-2.93017E-05 1.44168E-08 3.68406E-19-3.60522E-18
 -1        50 9.86300E-05-2.95950E-05-2.96024E-05 2.29881E-08-2.08384E-19-3.41319E-18
 -1        51 9.98820E-05-2.99700E-05-2.99799E-05 3.41201E-08-1.81614E-20-2.22989E-18
 -1        52 1.01406E-04-3.04254E-05-3.04377E-05 4.77279E-08-5.58339E-19-3.04110E-18
 -1        53 1.03183E-04-3.09553E-05-3.09688E-05 6.29476E-08 2.94896E-20-3.13753E-18
 -1        54 1.05140E-04-3.15373E-05-3.15490E-05 7.74577E-08 1.13578E-20-2.11550E-18
 -1        55 1.07115E-04-3.21232E-05-3.21271E-05 8.65272E-08 1.79429E-19-2.15336E-18
 -1        56 1.08826E-04-3.26289E-05-3.26157E-05 8.19998E-08-4.16752E-19-1.49686E-18
 -1        57 1.09845E-04-3.29273E-05-3.28853E-05 5.19647E-08 3.29117E-19 2.41899E-19
 -1        58 1.09605E-04-3.28512E-05-3.27699E-05-1.72575E-08-2.67951E-19-5.04248E-19
 -1        59 1.07489E-04-3.22177E-05-3.20977E-05-1.34428E-07 1.49351E-19-2.63950E-18
 -1        60 1.03032E-04-3.08883E-05-3.07518E-05-2.90838E-07-3.32331E-19-1.78479E-18
 -1        61 9.62350E-05-2.88620E-05-2.87586E-05-4.46453E-07-7.96492E-21-2.37574E-18
 -1        62 8.78789E-05-2.63689E-05-2.63606E-05-5.30204E-07 9.22285E-20-2.89436E-18
 -1        63 7.95757E-05-2.38888E-05-2.40112E-05-4.71841E-07-4.31776E-19-4.91006E-18
 -1        64 7.33291E-05-2.20217E-05-2.22473E-05-2.57233E-07-3.26281E-19-5.50205E-18
 -1        65 7.06755E-05-2.12296E-05-2.14704E-05 3.80875E-08 1.65439E-19-5.00029E-18
 -1        66 7.19211E-05-2.16040E-05-2.17675E-05 2.87964E-07 6.76543E-19-2.16033E-18
 -1        67 7.60712E-05-2.28441E-05-2.28946E-05 4.05249E-07-5.02752E-20-6.04834E-20
 -1        68 8.15102E-05-2.44639E-05-2.44343E-05 3.95478E-07 7.66315E-19 2.04504E-18
 -1        69 8.68671E-05-2.60564E-05-2.59964E-05 3.33253E-07-2.03122E-20 4.73581E-18
 -1        70 9.13847E-05-2.74091E-05-2.73137E-05 2.72272E-07 4.20067E-20 4.93769E-18
 -1        71 9.45670E-05-2.84328E-05-2.81882E-05 1.71124E-07 1.75157E-19 4.26383E-18
 -1        72 1.02186E-04-3.05896E-05-3.41524E-05-1.92929E-06 6.81597E-20 1.10443E-17
 -1        73 9.25738E-05-2.75170E-05-2.89113E-05-3.33303E-07-7.26265E-21 1.02615E-17
 -1        74 8.91235E-05-2.67065E-05-2.69775E-05-1.25977E-07 7.15098E-20 9.40224E-18
 -1        75 8.80662E-05-2.64454E-05-2.64419E-05-9.56518E-08-5.73278E-21 8.53861E-18
 -1        76 8.81011E-05-2.64540E-05-2.64178E-05-7.66710E-08 4.48965E-20 8.20810E-18
 -1        77 8.86379E-05-2.66059E-05-2.65790E-05-6.26351E-08 5.28250E-20 7.50989E-18
 -1        78 8.93941E-05-2.68267E-05-2.68080E-05-5.18951E-08-1.14914E-19 7.70013E-18
 -1        79 9.02193E-05-2.70708E-05-2.70563E-05-4.30527E-08 1.43659E-19 7.22657E-18
 -1        80 9.10287E-05-2.73118E-05-2.72994E-05-3.54539E-08-9.78965E-20 6.03796E-18
 -1        81 9.17756E-05-2.75347E-05-2.75239E-05-2.88401E-08 7.65193E-20 5.96075E-18
 -1        82 9.24363E-05-2.77321E-05-2.77228E-05-2.30930E-08 1.52406E-20 5.42548E-18
 -1        83 9.30020E-05-2.79014E-05-2.78934E-05-1.81352E-08 1.71225E-20 4.92348E-18
 -1        84 9.34735E-05-2.80425E-05-2.80357E-05-1.38929E-08-1.55495E-20 4.95080E-18
 -1        85 9.38574E-05-2.81575E-05-2.81519E-05-1.02853E-08-2.60279E-19 5.94029E-18
 -1        86 9.41638E-05-2.82494E-05-2.82447E-05-7.22317E-09 1.76205E-19 5.11935E-18
 -1        87 9.44048E-05-2.83217E-05-2.83179E-05-4.61265E-09-1.14406E-19 4.84141E-18
 -1        88 9.45938E-05-2.83785E-05-2.83755E-05-2.35979E-09 1.98107E-20 4.66364E-18
 -1        89 9.47449E-05-2.84240E-05-2.84217E-05-3.75266E-10 2.31347E-19 2.88259E-18
 -1        90 9.48731E-05-2.84626E-05-2.84610E-05 1.42133E-09-4.66477E-19 2.45503E-18
 -1        91 9.49946E-05-2.84994E-05-2.84984E-05 3.09708E-09-5.33172E-20 3.64426E-18
 -1        92 9.51279E-05-2.85397E-05-2.85394E-05 4.70065E-09-1.80512E-19 4.33278E-18
 -1        93 9.52941E-05-2.85900E-05-2.85905E-05 6.25557E-09-2.38328E-19 5.90450E-18
 -1        94 9.55187E-05-2.86579E-05-2.86595E-05 7.75025E-09 3.74995E-19 4.71913E-18
 -1        95 9.58328E-05-2.87527E-05-2.87557E-05 9.12206E-09-1.34293E-19 3.37017E-18
 -1        96 9.62748E-05-2.88860E-05-2.88908E-05 1.02313E-08 6.58303E-19 4.72685E-18
 -1        97 9.68926E-05-2.90720E-05-2.90795E-05 1.08185E-08-2.62994E-19 4.43239E-18
 -1        98 9.77456E-05-2.93285E-05-2.93397E-05 1.04334E-08-2.34066E-19 5.35783E-18
 -1        99 9.89064E-05-2.96771E-05-2.96934E-05 8.32222E-09-2.51807E-19 4.91599E-18
 -1       100 1.00462E-04-3.01436E-05-3.01669E-05 3.25240E-09 1.25509E-19 4.52266E-18
 -1       101 1.02512E-04-3.07573E-05-3.07901E-05-6.73484E-09-5.02330E-20 4.82164E-18
 -1       102 1.05161E-04-3.15489E-05-3.15938E-05-2.46156E-08 5.15551E-19 3.84430E-18
 -1       103 1.08500E-04-3.25449E-05-3.26030E-05-5.45555E-08-6.80647E-19 6.11513E-18
 -1       104 1.12565E-04-3.37552E-05-3.38235E-05-1.01460E-07 1.43537E-19 9.30687E-18
 -1       105 1.17257E-04-3.51507E-05-3.52151E-05-1.68674E-07 3.10729E-20 9.05781E-18
 -1       106 1.22209E-04-3.66253E-05-3.66502E-05-2.51492E-07 1.66940E-19 6.89452E-18
 -1       107 1.26600E-04-3.79415E-05-3.78607E-05-3.23979E-07-1.20502E-19 3.12954E-18
 -1       108 1.28972E-04-3.86778E-05-3.84025E-05-3.21418E-07 4.01510E-19 1.62293E-18
 -1       109 1.27280E-04-3.82320E-05-3.77076E-05-1.36951E-07-2.56502E-19 1.73049E-18
 -1       110 1.19536E-04-3.59885E-05-3.53163E-05 3.16272E-07 1.63507E-19 1.02544E-18
 -1       111 1.05357E-04-3.17615E-05-3.12939E-05 9.43903E-07-2.22355E-19-1.44207E-19
 -1       112 8.77778E-05-2.63904E-05-2.65806E-05 1.36669E-06-2.77875E-19 1.01697E-18
 -1       113 7.31982E-05-2.18168E-05-2.27830E-05 1.12330E-06-1.53425E-20 8.56403E-19
 -1       114 6.79098E-05-2.01270E-05-2.12795E-05 2.07343E-07-4.77373E-19 1.55812E-18
 -1       115 7.28114E-05-2.16672E-05-2.23057E-05-6.82109E-07 6.42041E-19-2.45444E-18
 -1       116 8.28733E-05-2.48473E-05-2.47453E-05-9.97358E-07-3.28688E-20-7.18390E-20
 -1       117 9.15834E-05-2.75766E-05-2.70497E-05-7.08865E-07-7.64282E-20-2.71127E-18
 -1       118 9.55401E-05-2.87741E-05-2.82991E-05-2.14537E-07-8.24310E-20-2.82967E-18
 -1       119 9.55782E-05-2.87276E-05-2.85494E-05 1.04301E-07 5.00300E-20-4.57510E-18
 -1       120 9.48433E-05-2.84019E-05-2.83864E-05-4.99805E-08 1.15992E-18-4.62645E-18
 -1       121 9.52802E-05-2.87352E-05-2.86081E-05-2.57711E-07-3.76619E-18 8.32073E-19
 -1       122 9.46888E-05-2.68550E-05-2.94449E-05-4.27927E-08-2.58055E-18 4.14565E-19
 -1       123 9.26594E-05-1.99731E-05-3.16619E-05 4.27332E-07 3.66871E-18 1.39248E-18
 -1       124 8.87075E-05-6.66965E-06-3.55876E-05 1.05006E-06-1.36176E-18-2.11361E-20
 -1       125 8.32133E-05 1.17292E-05-4.07066E-05 1.49833E-06-4.05623E-19-2.42423E-19
 -1       126 7.77533E-05 2.99039E-05-4.55430E-05 1.32204E-06 3.86088E-19 5.16922E-19
 -1       127 7.46549E-05 4.01338E-05-4.81765E-05 3.65611E-07 6.64939E-18-1.13218E-19
 -1       128 7.55299E-05 3.72805E-05-4.74066E-05-7.87883E-07 4.95273E-18-1.55311E-18
 -1       129 8.00286E-05 2.23244E-05-4.34555E-05-1.53087E-06 1.16096E-19 7.22886E-19
 -1       130 8.60852E-05 2.09956E-06-3.79606E-05-1.49298E-06 1.23884E-18 1.05065E-18
 -1       131 9.16744E-05-1.66476E-05-3.26547E-05-9.62086E-07 7.25457E-18 8.33044E-19
 -1       132 9.53867E-05-2.91624E-05-2.89172E-05-3.43507E-07 5.09202E-18 1.77026E-18
 -1       133 9.70292E-05-3.47060E-05-2.71046E-05 1.12260E-07 1.27242E-18 2.42099E-19
 -1       134 9.70880E-05-3.48835E-05-2.68540E-05 3.67168E-07-6.50362E-19-3.92383E-19
 -1       135 9.63320E-05-3.22501E-05-2.74642E-05 4.87937E-07-9.65551E-19-1.04386E-18
 -1       136 9.54645E-05-2.94366E-05-2.82045E-05 3.17197E-07-4.01414E-18-6.76965E-21
 -1       137 3.16566E-05-1.08248E-04 1.92998E-05-2.93143E-05 2.07820E-18 8.76150E-19
 -1       138 1.01260E-05-4.16273E-05 4.15877E-06-2.03123E-05 7.49412E-18 3.67295E-18
 -1       139 1.48192E-05 1.87500E-05-1.78047E-05 3.02654E-05 9.41519E-18 7.10407E-18
 -1       140 7.07036E-05 3.20408E-05-4.12476E-05 9.45880E-05 5.47014E-18 5.19189E-18
 -1       141 1.74135E-04-6.10960E-06-6.33410E-05 1.31048E-04 2.46084E-18 3.66003E-18
 -1       142 2.81371E-04-6.59565E-05-7.93379E-05 1.06920E-04 1.82483E-19 1.46156E-18
 -1       143 3.38899E-04-1.03792E-04-8.60705E-05 2.94518E-05 4.66159E-19-3.42969E-18
 -1       144 3.15987E-04-9.24869E-05-8.23764E-05-5.84631E-05 1.07553E-19-5.05636E-18
 -1       145 2.20826E-04-3.95204E-05-6.84417E-05-1.10974E-04 1.05667E-19-1.96469E-18
 -1       146 1.05880E-04 1.11123E-05-4.66726E-05-9.85703E-05 4.83656E-19-8.87267E-19
 -1       147 2.93747E-05 2.22446E-05-2.42257E-05-4.71513E-05-1.82239E-18 7.64024E-19
 -1       148 5.52733E-06-1.37081E-05-3.34990E-06 6.53918E-06-1.84272E-18 5.52477E-19
 -1       149 1.77817E-05-7.56803E-05 1.42707E-05 3.37097E-05 6.58187E-18-8.05528E-19
 -1       150 3.81945E-05-1.20406E-04 2.29047E-05 1.86685E-05 1.60290E-17-6.58158E-19
 -1       151 3.83203E-05-1.19580E-04 2.26455E-05-1.38085E-05 1.11020E-17-4.18884E-19
 -1       152 1.94127E-05-7.41732E-05 1.33444E-05-2.88868E-05-1.47130E-18-5.92288E-19
 -1       153 5.45618E-06-1.41556E-05-2.70116E-06-6.55886E-06-6.99099E-18-4.91872E-18
 -1       154 9.63208E-05 1.95609E-05-4.61102E-05 1.01822E-04-5.12921E-18-5.96269E-18
 -1       155 1.91779E-04-2.23270E-05-6.46075E-05 1.19297E-04-3.16748E-18-7.30015E-18
 -1       156 2.83617E-04-7.38486E-05-7.83555E-05 8.60896E-05-2.87631E-18-7.76052E-18
 -1       157 3.32377E-04-1.02590E-04-8.50979E-05 1.00444E-05 4.50542E-19-6.95726E-18
 -1       158 3.12735E-04-8.87326E-05-8.29843E-05-7.04487E-05 8.59699E-19-4.68769E-18
 -1       159 2.34973E-04-4.07238E-05-7.25980E-05-1.22431E-04-1.99519E-18 2.97139E-18
 -1       160 1.35990E-04 1.03286E-05-5.60239E-05-1.23188E-04-1.58819E-18 4.71882E-18
 -1       161 5.21406E-05 3.37965E-05-3.52977E-05-7.97723E-05-3.03280E-18 2.42548E-18
 -1       162 9.83745E-06 1.20307E-05-1.34951E-05-1.90377E-05-1.16141E-17 6.92746E-18
 -1       163 1.20066E-05-5.09212E-05 6.92613E-06 2.48951E-05-7.93119E-18 4.17884E-18
 -1       164 3.41848E-05-1.12683E-04 2.00934E-05 2.73425E-05-1.37918E-18 9.27925E-19
 -1       165 9.48746E-05-1.23485E-05-3.55713E-05-2.23474E-05-1.01845E-18-1.17994E-18
 -1       166 8.92541E-05-8.45906E-06-3.47885E-05-1.73869E-05-6.67118E-19-2.00969E-18
 -1       167 8.65394E-05-6.49801E-06-3.44157E-05-1.35852E-05-3.25016E-19-2.32352E-18
 -1       168 8.51941E-05-5.51740E-06-3.42314E-05-1.03643E-05 8.99311E-21-2.34701E-18
 -1       169 8.44438E-05-4.94209E-06-3.41414E-05-7.54390E-06 2.53844E-19-2.17605E-18
 -1       170 8.40159E-05-4.59786E-06-3.40980E-05-4.90208E-06 4.70532E-19-2.02164E-18
 -1       171 8.37970E-05-4.41358E-06-3.40796E-05-2.39431E-06 6.35772E-19-1.71479E-18
 -1       172 8.37324E-05-4.35775E-06-3.40748E-05 5.11359E-08 8.62712E-19-1.44634E-18
 -1       173 8.38070E-05-4.42200E-06-3.40804E-05 2.49862E-06 1.06349E-18-1.20438E-18
 -1       174 8.40381E-05-4.61734E-06-3.40994E-05 5.01278E-06 1.20112E-18-9.43952E-19
 -1       175 8.44723E-05-4.97072E-06-3.41418E-05 7.62138E-06 1.31956E-18-4.72353E-19
 -1       176 8.52501E-05-5.57363E-06-3.42320E-05 1.05100E-05 1.50118E-18 9.73360E-20
 -1       177 8.66485E-05-6.60852E-06-3.44191E-05 1.37806E-05 1.53739E-18 9.34185E-19
 -1       178 8.93960E-05-8.60098E-06-3.47934E-05 1.76203E-05 1.49824E-18 2.22968E-18
 -1       179 9.57859E-05-1.36156E-05-3.54273E-05 2.18917E-05 1.09277E-18 4.16174E-18
 -1       180 1.05613E-04-2.61045E-05-3.52651E-05 1.86615E-05 5.65878E-19 6.38695E-18
 -1       181 1.03406E-04-2.73038E-05-3.26132E-05-1.21244E-05-9.58577E-19 1.65648E-19
 -1       182 9.71192E-05-2.82937E-05-2.95320E-05-4.72844E-06-8.26929E-19-1.99096E-19
 -1       183 9.35195E-05-2.76405E-05-2.81859E-05-1.76701E-06-6.72041E-19-4.01083E-19
 -1       184 9.19858E-05-2.74097E-05-2.76401E-05-4.18795E-07-2.74791E-19-8.24216E-19
 -1       185 9.14119E-05-2.73353E-05-2.74431E-05 2.45725E-07-2.08378E-19-8.55533E-19
 -1       186 9.13719E-05-2.73749E-05-2.74187E-05 5.71510E-07-4.28147E-19-9.20510E-19
 -1       187 9.16172E-05-2.74781E-05-2.74842E-05 7.09962E-07-2.17963E-19-9.97179E-19
 -1       188 9.20021E-05-2.76108E-05-2.75946E-05 7.40194E-07-1.71716E-19-1.11290E-18
 -1       189 9.24396E-05-2.77514E-05-2.77229E-05 7.08060E-07-4.32749E-19-1.20648E-18
 -1       190 9.28775E-05-2.78872E-05-2.78531E-05 6.41988E-07-4.28509E-19-1.45000E-18
 -1       191 9.32862E-05-2.80109E-05-2.79756E-05 5.60186E-07-5.15164E-19-2.15978E-18
 -1       192 9.36503E-05-2.81192E-05-2.80854E-05 4.74397E-07 1.00475E-19-2.14490E-18
 -1       193 9.39641E-05-2.82111E-05-2.81806E-05 3.92106E-07 1.86275E-19-2.11534E-18
 -1       194 9.42282E-05-2.82874E-05-2.82610E-05 3.17982E-07-5.09137E-20-2.19193E-18
 -1       195 9.44471E-05-2.83496E-05-2.83280E-05 2.54890E-07-1.57872E-19-1.24498E-18
 -1       196 9.46279E-05-2.84002E-05-2.83837E-05 2.04625E-07-3.05853E-19-1.21197E-18
 -1       197 9.47797E-05-2.84418E-05-2.84308E-05 1.68478E-07-4.41322E-19-1.91217E-18
 -1       198 9.49130E-05-2.84776E-05-2.84724E-05 1.47657E-07-2.84601E-19-2.17691E-18
 -1       199 9.50397E-05-2.85111E-05-2.85121E-05 1.43602E-07-1.40345E-19-2.19105E-18
 -1       200 9.51731E-05-2.85460E-05-2.85541E-05 1.58221E-07-7.69821E-22-3.17807E-18
 -1       201 9.53283E-05-2.85867E-05-2.86029E-05 1.94024E-07 1.74524E-19-2.37859E-18
 -1       202 9.55225E-05-2.86381E-05-2.86637E-05 2.54156E-07-2.38935E-20-2.22531E-18
 -1       203 9.57753E-05-2.87061E-05-2.87426E-05 3.42287E-07 6.09374E-19-2.25609E-18
 -1       204 9.61088E-05-2.87971E-05-2.88462E-05 4.62295E-07 3.55483E-19-2.13038E-18
 -1       205 9.65472E-05-2.89187E-05-2.89816E-05 6.17630E-07-6.27282E-19-1.16326E-18
 -1       206 9.71163E-05-2.90792E-05-2.91564E-05 8.10214E-07 1.64775E-19-1.40089E-18
 -1       207 9.78410E-05-2.92870E-05-2.93778E-05 1.03866E-06-1.24684E-19-2.46125E-18
 -1       208 9.87421E-05-2.95505E-05-2.96511E-05 1.29551E-06 3.86073E-19-2.12505E-18
 -1       209 9.98308E-05-2.98764E-05-2.99786E-05 1.56327E-06-6.45165E-19-2.19506E-18
 -1       210 1.01100E-04-3.02675E-05-3.03559E-05 1.80893E-06-4.02335E-19-2.02750E-18
 -1       211 1.02511E-04-3.07198E-05-3.07689E-05 1.97742E-06 1.42474E-19-1.85858E-18
 -1       212 1.03981E-04-3.12170E-05-3.11887E-05 1.98518E-06-7.26662E-20-1.35065E-18
 -1       213 1.05364E-04-3.17243E-05-3.15670E-05 1.71782E-06 3.32072E-19-1.10446E-18
 -1       214 1.06432E-04-3.21783E-05-3.18338E-05 1.03935E-06 1.13709E-18 4.05278E-19
 -1       215 1.06879E-04-3.24780E-05-3.18999E-05-1.74848E-07-2.36235E-19-5.53786E-19
 -1       216 1.06343E-04-3.24794E-05-3.16703E-05-1.96832E-06-1.05389E-18-4.10955E-19
 -1       217 1.04484E-04-3.20091E-05-3.10724E-05-4.19699E-06-5.74871E-19-1.51163E-18
 -1       218 1.01127E-04-3.09185E-05-3.00953E-05-6.42513E-06-7.33618E-19-2.01226E-18
 -1       219 9.64599E-05-2.91933E-05-2.88269E-05-7.92592E-06-8.84071E-19-3.15656E-18
 -1       220 9.11813E-05-2.70821E-05-2.74636E-05-7.91439E-06-6.24128E-19-2.13701E-18
 -1       221 8.64334E-05-2.51202E-05-2.62660E-05-6.01004E-06-8.50325E-19-3.22765E-18
 -1       222 8.33954E-05-2.39274E-05-2.54731E-05-2.64354E-06 1.27127E-18-2.23061E-18
 -1       223 8.26982E-05-2.38371E-05-2.52114E-05 1.01784E-06 1.31741E-18-3.71017E-19
 -1       224 8.40927E-05-2.46690E-05-2.54526E-05 3.73601E-06 1.24876E-18-3.23447E-19
 -1       225 8.66797E-05-2.58925E-05-2.60413E-05 4.92370E-06 1.81802E-18 1.14679E-18
 -1       226 8.94830E-05-2.70126E-05-2.67698E-05 4.81670E-06 1.84902E-18 1.20374E-18
 -1       227 9.18832E-05-2.78482E-05-2.74446E-05 4.02388E-06 7.49161E-19 6.63316E-19
 -1       228 9.37766E-05-2.85877E-05-2.79319E-05 2.86177E-06-5.11169E-19 1.48609E-18
 -1       229 9.95107E-05-2.85575E-05-3.05901E-05 7.20944E-06 4.96441E-19 5.74969E-18
 -1       230 9.44283E-05-2.77943E-05-2.85281E-05 2.74181E-06 5.73117E-19 5.11928E-18
 -1       231 9.21105E-05-2.74052E-05-2.76858E-05 9.27628E-07 4.76148E-19 4.68205E-18
 -1       232 9.11643E-05-2.72433E-05-2.73677E-05 6.53372E-08 2.83465E-19 4.29881E-18
 -1       233 9.09551E-05-2.72369E-05-2.72942E-05-3.62743E-07 2.69886E-19 4.37004E-18
 -1       234 9.11411E-05-2.73236E-05-2.73436E-05-5.63577E-07-2.89058E-20 3.93387E-18
 -1       235 9.15269E-05-2.74574E-05-2.74548E-05-6.36372E-07 5.06929E-19 3.62939E-18
 -1       236 9.19973E-05-2.76089E-05-2.75931E-05-6.35059E-07 4.23457E-19 3.31176E-18
 -1       237 9.24840E-05-2.77604E-05-2.77377E-05-5.91830E-07 2.51951E-19 2.68173E-18
 -1       238 9.29471E-05-2.79017E-05-2.78762E-05-5.26923E-07 2.01739E-19 2.86184E-18
 -1       239 9.33653E-05-2.80274E-05-2.80019E-05-4.53333E-07 2.56390E-19 2.95687E-18
 -1       240 9.37290E-05-2.81356E-05-2.81116E-05-3.79398E-07 4.79972E-20 2.97700E-18
 -1       241 9.40366E-05-2.82261E-05-2.82047E-05-3.10366E-07 9.41850E-20 2.27813E-18
 -1       242 9.42914E-05-2.83003E-05-2.82821E-05-2.49461E-07 3.03857E-19 1.62611E-18
 -1       243 9.45000E-05-2.83605E-05-2.83458E-05-1.98635E-07-1.23618E-19 2.30581E-18
 -1       244 9.46713E-05-2.84092E-05-2.83982E-05-1.59146E-07 4.58989E-19 1.96641E-18
 -1       245 9.48154E-05-2.84496E-05-2.84425E-05-1.31990E-07 1.07312E-18 1.67873E-18
 -1       246 9.49441E-05-2.84852E-05-2.84823E-05-1.18259E-07-1.84254E-19 9.65400E-19
 -1       247 9.50707E-05-2.85197E-05-2.85216E-05-1.19428E-07-4.01577E-19 9.53966E-19
 -1       248 9.52102E-05-2.85576E-05-2.85650E-05-1.37603E-07-8.71553E-19 1.89573E-18
 -1       249 9.53803E-05-2.86040E-05-2.86178E-05-1.75754E-07-6.53831E-19 2.75205E-18
 -1       250 9.56020E-05-2.86648E-05-2.86866E-05-2.37923E-07 1.33635E-18 2.54880E-18
 -1       251 9.59006E-05-2.87473E-05-2.87789E-05-3.29429E-07 2.39554E-19 2.02533E-18
 -1       252 9.63066E-05-2.88603E-05-2.89042E-05-4.57047E-07-3.28347E-19 2.09086E-18
 -1       253 9.68573E-05-2.90145E-05-2.90738E-05-6.29118E-07-3.98995E-19 3.40870E-18
 -1       254 9.75971E-05-2.92229E-05-2.93012E-05-8.55485E-07-3.21284E-19 3.78296E-18
 -1       255 9.85788E-05-2.95011E-05-2.96025E-05-1.14704E-06 1.69362E-19 3.59053E-18
 -1       256 9.98627E-05-2.98672E-05-2.99958E-05-1.51441E-06 1.12331E-21 3.52868E-18
 -1       257 1.01514E-04-3.03417E-05-3.05004E-05-1.96501E-06 8.43228E-21 3.73826E-18
 -1       258 1.03596E-04-3.09463E-05-3.11345E-05-2.49683E-06 2.10948E-19 2.73929E-18
 -1       259 1.06156E-04-3.17018E-05-3.19098E-05-3.08663E-06-2.06216E-18 3.84825E-18
 -1       260 1.09199E-04-3.26222E-05-3.28223E-05-3.66899E-06-5.83697E-19 5.00806E-18
 -1       261 1.12639E-04-3.37056E-05-3.38360E-05-4.10323E-06 7.19952E-19 6.03554E-18
 -1       262 1.16234E-04-3.49155E-05-3.48608E-05-4.13058E-06 7.35522E-19 5.15950E-18
 -1       263 1.19494E-04-3.61474E-05-3.57273E-05-3.34349E-06 1.73136E-18 4.64975E-18
 -1       264 1.21602E-04-3.71732E-05-3.61790E-05-1.23378E-06 8.70485E-19 2.55412E-18
 -1       265 1.21435E-04-3.75732E-05-3.59153E-05 2.56116E-06-3.62199E-19 2.52991E-18
 -1       266 1.17844E-04-3.67219E-05-3.47259E-05 7.69366E-06 9.11646E-19 2.45836E-18
 -1       267 1.10385E-04-3.40548E-05-3.26922E-05 1.24166E-05 2.14207E-20 3.67878E-18
 -1       268 1.00406E-04-2.98278E-05-3.02994E-05 1.37679E-05-2.68956E-19 3.05521E-18
 -1       269 9.13163E-05-2.56206E-05-2.82837E-05 9.62572E-06 6.01539E-19 2.04365E-18
 -1       270 8.71219E-05-2.39236E-05-2.72128E-05 1.46844E-06-3.03873E-19 7.55146E-19
 -1       271 8.87773E-05-2.53606E-05-2.72298E-05-5.50220E-06 2.01448E-18 5.83884E-19
 -1       272 9.34945E-05-2.81951E-05-2.79574E-05-7.62126E-06-5.08603E-19 6.02810E-19
 -1       273 9.74528E-05-3.02098E-05-2.87628E-05-5.19299E-06 1.38410E-18 1.03091E-18
 -1       274 9.86912E-05-3.05032E-05-2.91889E-05-1.36818E-06 2.12476E-19 3.68275E-19
 -1       275 9.75959E-05-2.95251E-05-2.91694E-05 8.96056E-07 1.40830E-18-1.66611E-18
 -1       276 9.58627E-05-2.84273E-05-2.88935E-05 6.88559E-07 5.89581E-20-1.42409E-18
 -1       277 9.58444E-05-2.73242E-05-2.93507E-05 2.21986E-06 8.23243E-20 1.82188E-18
 -1       278 9.56731E-05-2.44497E-05-3.05094E-05 6.73052E-06 6.45639E-19 3.47258E-18
 -1       279 9.40505E-05-1.84725E-05-3.23971E-05 1.27247E-05 3.78640E-19-1.64039E-18
 -1       280 9.03250E-05-8.97249E-06-3.48787E-05 1.75039E-05 6.18837E-19 1.27162E-18
 -1       281 8.48797E-05 2.36929E-06-3.74021E-05 1.73038E-05 1.46819E-18 1.09142E-19
 -1       282 7.99406E-05 1.14918E-05-3.91789E-05 9.75507E-06 1.13230E-18 1.37869E-18
 -1       283 7.84833E-05 1.38857E-05-3.95726E-05-2.70092E-06 3.69728E-19-2.90162E-19
 -1       284 8.15577E-05 8.07872E-06-3.84130E-05-1.43273E-05 2.31690E-18-1.61925E-18
 -1       285 8.71703E-05-3.01709E-06-3.60742E-05-1.95755E-05 1.79605E-18 9.08327E-19
 -1       286 9.25895E-05-1.50989E-05-3.32174E-05-1.78755E-05 2.36817E-18 3.77009E-18
 -1       287 9.60306E-05-2.44604E-05-3.06618E-05-1.20264E-05 2.13938E-18-2.84530E-19
 -1       288 9.74118E-05-2.99057E-05-2.89064E-05-5.51074E-06 1.01365E-19-1.87256E-18
 -1       289 9.73711E-05-3.18795E-05-2.80416E-05-4.78053E-07-5.67175E-19-4.84255E-19
 -1       290 9.64375E-05-3.14472E-05-2.78398E-05 2.24136E-06-8.48806E-19-1.76395E-18
 -1       291 9.54742E-05-3.01046E-05-2.80013E-05 3.37705E-06-1.48947E-18-2.36828E-18
 -1       292 1.53855E-05-5.70365E-05 1.38488E-05 9.18435E-06 2.43882E-18-1.32243E-19
 -1       293 3.50911E-05-5.10939E-05 4.22167E-06 3.20606E-05 3.13402E-18 3.65855E-18
 -1       294 6.60968E-05-4.57408E-05-1.05473E-05 4.25827E-05 1.75865E-18 1.72435E-18
 -1       295 1.05462E-04-3.62259E-05-2.98063E-05 5.20409E-05 4.13881E-18 6.71062E-19
 -1       296 1.52680E-04-3.29991E-05-4.94967E-05 5.53197E-05 4.12410E-18 1.93060E-18
 -1       297 1.94711E-04-3.47844E-05-6.54887E-05 4.32763E-05 2.19752E-18 6.55180E-19
 -1       298 2.16950E-04-3.43247E-05-7.46713E-05 2.30736E-05 1.97962E-18 1.00130E-18
 -1       299 2.30350E-04-4.08213E-05-7.69306E-05 1.79075E-06 1.44811E-18 5.09490E-19
 -1       300 2.07662E-04-3.92092E-05-6.90103E-05-1.90788E-05-1.27394E-18-6.17911E-19
 -1       301 1.68604E-04-4.30129E-05-5.26389E-05-2.54946E-05-2.89685E-19-2.85027E-19
 -1       302 1.19086E-04-3.80108E-05-3.46026E-05-4.25172E-05-6.66191E-19-1.88994E-18
 -1       303 7.46892E-05-4.12954E-05-1.57288E-05-3.57722E-05-1.94182E-19 2.42781E-19
 -1       304 4.38766E-05-4.91769E-05 2.36259E-07-2.85572E-05 2.90659E-18 3.39820E-18
 -1       305 1.88648E-05-5.65295E-05 1.26735E-05-9.97249E-06 4.09773E-18 2.94979E-18
 -1       306 1.27005E-05-5.97833E-05 1.63974E-05 2.10453E-06 4.01041E-18-1.19601E-18
 -1       307 1.85842E-05-5.33904E-05 1.17883E-05 1.54290E-05 3.58263E-18-4.73714E-18
 -1       308 3.80263E-05-4.61501E-05 1.04093E-06 2.78404E-05 1.22947E-18-3.32670E-18
 -1       309 8.19896E-05-4.59966E-05-1.62231E-05 4.25491E-05-4.42575E-20-7.73659E-19
 -1       310 1.14216E-04-3.28745E-05-3.45993E-05 4.74605E-05-2.03394E-18-1.57993E-18
 -1       311 1.58530E-04-3.32380E-05-5.19607E-05 4.63073E-05-1.61540E-18-4.25211E-18
 -1       312 1.97195E-04-3.64302E-05-6.60169E-05 3.44815E-05-1.10689E-18-3.94971E-18
 -1       313 2.14836E-04-3.46408E-05-7.40866E-05 9.23520E-06-8.99231E-19-6.20303E-18
 -1       314 2.27489E-04-3.86752E-05-7.69817E-05-1.34672E-05-9.41477E-19-5.37612E-18
 -1       315 2.11381E-04-3.56156E-05-7.16824E-05-3.63867E-05-2.43638E-18-5.67809E-18
 -1       316 1.78224E-04-3.20014E-05-5.99970E-05-5.09936E-05-1.25520E-18-2.42484E-18
 -1       317 1.36763E-04-3.12266E-05-4.39357E-05-5.56889E-05-8.74138E-19 1.90159E-18
 -1       318 9.42526E-05-3.54403E-05-2.55912E-05-5.08345E-05-4.95535E-18-1.39845E-18
 -1       319 5.63131E-05-4.42348E-05-7.32957E-06-3.92433E-05-3.65961E-18 2.61246E-18
 -1       320 3.00577E-05-5.30856E-05 6.55802E-06-2.66669E-05 7.41154E-20 3.88306E-18
 -1       321 1.57654E-05-5.97333E-05 1.44819E-05-8.83904E-06-1.04714E-19 3.35817E-18
 -1       322 9.16541E-05-1.43981E-05-3.31727E-05-1.30601E-05-6.69374E-19-1.63111E-18
 -1       323 9.57065E-05-1.91025E-05-3.28934E-05-1.46278E-05-9.83147E-19-1.20970E-18
 -1       324 8.79962E-05-1.03700E-05-3.33236E-05-8.15981E-06 1.46703E-19-1.64786E-18
 -1       325 8.71867E-05-9.45377E-06-3.33626E-05-5.71718E-06 3.93244E-19-1.58526E-18
 -1       326 8.67254E-05-8.92254E-06-3.33890E-05-3.36567E-06 6.87220E-19-1.38240E-18
 -1       327 8.65195E-05-8.68224E-06-3.34023E-05-1.07206E-06 8.59220E-19-1.10333E-18
 -1       328 8.65281E-05-8.69171E-06-3.34020E-05 1.20296E-06 1.18032E-18-8.72427E-19
 -1       329 8.67526E-05-8.95282E-06-3.33879E-05 3.49862E-06 1.36077E-18-6.84571E-19
 -1       330 8.72256E-05-9.49718E-06-3.33609E-05 5.81280E-06 1.55108E-18-4.18001E-19
 -1       331 8.80661E-05-1.04490E-05-3.33198E-05 8.25144E-06 1.66108E-18 1.44432E-19
 -1       332 8.94830E-05-1.20328E-05-3.32596E-05 1.07599E-05 1.79556E-18 6.87433E-19
 -1       333 9.19054E-05-1.47229E-05-3.31594E-05 1.31652E-05 1.69154E-18 1.50007E-18
 -1       334 9.58111E-05-1.94593E-05-3.28300E-05 1.43724E-05 1.30661E-18 2.78094E-18
 -1       335 9.87997E-05-2.44469E-05-3.19536E-05 1.18952E-05 8.58336E-19 3.96372E-18
 -1       336 9.63998E-05-2.68152E-05-2.97925E-05 5.73816E-06 8.32951E-19 3.34743E-18
 -1       337 9.64458E-05-2.60315E-05-3.01332E-05-6.34717E-06-8.07219E-19-9.38130E-19
 -1       338 9.49268E-05-2.70299E-05-2.90732E-05-2.83187E-06-6.10411E-19-7.50548E-19
 -1       339 9.39520E-05-2.74282E-05-2.84955E-05-9.17709E-07-2.44021E-19-6.56165E-19
 -1       340 9.34339E-05-2.76417E-05-2.81899E-05 1.41844E-07-3.27311E-19-7.12024E-19
 -1       341 9.32424E-05-2.77951E-05-2.80460E-05 7.05976E-07-2.89622E-19-5.54140E-19
 -1       342 9.32596E-05-2.79250E-05-2.79996E-05 9.72812E-07-2.96110E-19-6.85045E-19
 -1       343 9.33985E-05-2.80400E-05-2.80107E-05 1.05926E-06-2.40603E-19-6.48882E-19
 -1       344 9.35994E-05-2.81413E-05-2.80539E-05 1.03799E-06-4.41342E-19-6.91407E-19
 -1       345 9.38233E-05-2.82285E-05-2.81127E-05 9.55893E-07-6.83149E-19-6.96139E-19
 -1       346 9.40459E-05-2.83018E-05-2.81768E-05 8.43717E-07-1.64468E-19-2.38191E-19
 -1       347 9.42532E-05-2.83617E-05-2.82400E-05 7.21696E-07-1.40461E-19-3.81367E-19
 -1       348 9.44384E-05-2.84095E-05-2.82988E-05 6.03029E-07 2.41422E-19-5.21389E-19
 -1       349 9.45999E-05-2.84467E-05-2.83520E-05 4.96246E-07-3.95699E-20-6.80897E-19
 -1       350 9.47390E-05-2.84750E-05-2.83994E-05 4.06897E-07-4.40707E-19-1.03381E-18
 -1       351 9.48599E-05-2.84962E-05-2.84419E-05 3.38792E-07-7.16252E-19-1.29340E-18
 -1       352 9.49681E-05-2.85121E-05-2.84813E-05 2.94928E-07-6.49132E-19-1.33202E-18
 -1       353 9.50707E-05-2.85247E-05-2.85197E-05 2.78188E-07-1.60747E-19-1.02268E-18
 -1       354 9.51761E-05-2.85361E-05-2.85598E-05 2.91837E-07-5.97746E-19-1.59506E-18
 -1       355 9.52939E-05-2.85484E-05-2.86048E-05 3.39857E-07 2.84890E-19-1.76536E-18
 -1       356 9.54352E-05-2.85643E-05-2.86583E-05 4.27091E-07 7.49434E-19-1.52962E-18
 -1       357 9.56126E-05-2.85872E-05-2.87243E-05 5.59160E-07 3.33211E-19-6.54609E-19
 -1       358 9.58405E-05-2.86211E-05-2.88071E-05 7.42089E-07 9.44468E-20-7.87679E-19
 -1       359 9.61347E-05-2.86713E-05-2.89113E-05 9.81494E-07 2.02087E-20-8.28371E-19
 -1       360 9.65125E-05-2.87445E-05-2.90415E-05 1.28116E-06-7.90831E-20-7.58444E-19
 -1       361 9.69917E-05-2.88498E-05-2.92015E-05 1.64072E-06-1.83691E-19-1.17805E-18
 -1       362 9.75899E-05-2.89987E-05-2.93939E-05 2.05219E-06 6.39679E-21-1.16898E-18
 -1       363 9.83223E-05-2.92064E-05-2.96188E-05 2.49486E-06-4.23535E-19-2.01997E-18
 -1       364 9.91991E-05-2.94922E-05-2.98726E-05 2.92837E-06-1.03755E-19-1.57398E-18
 -1       365 1.00222E-04-2.98793E-05-3.01460E-05 3.28409E-06 1.95881E-19-1.44497E-18
 -1       366 1.01377E-04-3.03935E-05-3.04226E-05 3.45580E-06 6.24196E-19-1.13352E-18
 -1       367 1.02628E-04-3.10566E-05-3.06775E-05 3.29296E-06 3.53343E-19 3.18734E-19
 -1       368 1.03902E-04-3.18711E-05-3.08787E-05 2.60371E-06 6.95696E-19-4.95706E-19
 -1       369 1.05072E-04-3.27904E-05-3.09904E-05 1.18077E-06 1.73683E-20-1.32442E-18
 -1       370 1.05927E-04-3.36731E-05-3.09823E-05-1.13082E-06-8.33908E-19-1.09677E-18
 -1       371 1.06157E-04-3.42346E-05-3.08411E-05-4.30688E-06-7.33360E-19-8.81239E-19
 -1       372 1.05374E-04-3.40464E-05-3.05831E-05-7.96670E-06-6.03337E-19 1.87243E-19
 -1       373 1.03253E-04-3.26753E-05-3.02541E-05-1.12288E-05-8.07592E-19 2.49127E-19
 -1       374 9.98292E-05-3.00267E-05-2.99109E-05-1.28029E-05 1.46374E-20 7.18951E-19
 -1       375 9.57997E-05-2.67250E-05-2.95915E-05-1.15385E-05-7.53768E-19 1.13400E-18
 -1       376 9.24586E-05-2.40766E-05-2.92899E-05-7.30308E-06 9.01097E-19 3.40152E-18
 -1       377 9.09952E-05-2.33163E-05-2.89861E-05-1.47651E-06 2.03809E-18 1.31689E-18
 -1       378 9.15817E-05-2.45807E-05-2.86953E-05 3.68607E-06 1.58936E-18 1.40342E-18
 -1       379 9.32708E-05-2.68112E-05-2.84694E-05 6.54661E-06 1.88106E-18 1.08566E-18
 -1       380 9.48091E-05-2.86713E-05-2.83393E-05 6.95613E-06 2.87521E-19-6.61369E-19
 -1       381 9.54762E-05-2.95293E-05-2.82689E-05 5.91117E-06 2.85727E-19-1.73202E-18
 -1       382 9.53580E-05-2.96715E-05-2.81543E-05 4.67208E-06-1.63466E-19-1.99088E-18
 -1       383 9.43812E-05-2.73442E-05-2.86919E-05 2.46546E-06 7.96840E-19 3.22509E-18
 -1       384 9.31761E-05-2.74645E-05-2.81403E-05 7.40214E-07 4.24441E-19 2.85966E-18
 -1       385 9.26233E-05-2.75424E-05-2.78819E-05-1.81044E-07 2.95258E-19 2.52827E-18
 -1       386 9.24825E-05-2.76354E-05-2.77874E-05-6.56656E-07 1.86271E-19 2.20041E-18
 -1       387 9.25856E-05-2.77451E-05-2.77872E-05-8.74055E-07 4.89431E-19 1.80068E-18
 -1       388 9.28209E-05-2.78616E-05-2.78394E-05-9.38036E-07 6.45489E-19 2.03374E-18
 -1       389 9.31166E-05-2.79758E-05-2.79178E-05-9.11773E-07 5.82903E-19 1.81373E-18
 -1       390 9.34273E-05-2.80814E-05-2.80060E-05-8.35184E-07 1.01367E-20 1.60558E-18
 -1       391 9.37260E-05-2.81749E-05-2.80941E-05-7.34132E-07 1.31606E-19 1.58358E-18
 -1       392 9.39978E-05-2.82550E-05-2.81763E-05-6.25465E-07 2.28790E-19 1.68410E-18
 -1       393 9.42363E-05-2.83216E-05-2.82499E-05-5.20067E-07 5.69881E-19 1.58592E-18
 -1       394 9.44403E-05-2.83759E-05-2.83140E-05-4.24867E-07 2.83874E-19 1.56232E-18
 -1       395 9.46127E-05-2.84194E-05-2.83691E-05-3.44267E-07 5.29339E-20 1.37496E-18
 -1       396 9.47587E-05-2.84541E-05-2.84167E-05-2.81205E-07 6.99725E-19 7.88990E-19
 -1       397 9.48857E-05-2.84823E-05-2.84588E-05-2.37952E-07 9.08494E-19 9.74189E-19
 -1       398 9.50021E-05-2.85064E-05-2.84983E-05-2.16751E-07 5.74179E-19 1.38206E-18
 -1       399 9.51185E-05-2.85291E-05-2.85382E-05-2.20325E-07-6.07176E-19 1.06010E-18
 -1       400 9.52464E-05-2.85534E-05-2.85823E-05-2.52312E-07-5.65362E-19 9.46164E-19
 -1       401 9.54000E-05-2.85827E-05-2.86353E-05-3.17632E-07-7.08230E-19 3.01401E-19
 -1       402 9.55956E-05-2.86211E-05-2.87023E-05-4.22821E-07 1.16705E-18 1.75258E-19
 -1       403 9.58525E-05-2.86734E-05-2.87896E-05-5.76316E-07 5.65242E-19 1.16233E-18
 -1       404 9.61941E-05-2.87454E-05-2.89046E-05-7.88673E-07-6.57030E-19 8.06699E-19
 -1       405 9.66476E-05-2.88440E-05-2.90560E-05-1.07263E-06-8.71018E-19 1.63736E-18
 -1       406 9.72451E-05-2.89779E-05-2.92540E-05-1.44286E-06 1.21598E-19 1.73469E-18
 -1       407 9.80234E-05-2.91576E-05-2.95097E-05-1.91504E-06 6.48704E-19 2.23702E-18
 -1       408 9.90234E-05-2.93964E-05-2.98351E-05-2.50369E-06 5.53516E-20 2.53721E-18
 -1       409 1.00289E-04-2.97112E-05-3.02418E-05-3.21742E-06 1.13281E-19 3.04515E-18
 -1       410 1.01862E-04-3.01250E-05-3.07385E-05-4.04985E-06-3.35161E-20 3.77787E-18
 -1       411 1.03779E-04-3.06698E-05-3.13273E-05-4.96299E-06-9.89353E-19 3.33866E-18
 -1       412 1.06059E-04-3.13919E-05-3.19976E-05-5.85905E-06-1.83190E-18 1.43837E-18
 -1       413 1.08691E-04-3.23571E-05-3.27170E-05-6.53755E-06-7.05722E-19 1.82329E-18
 -1       414 1.11609E-04-3.36480E-05-3.34221E-05-6.64109E-06 1.18160E-18 3.24010E-18
 -1       415 1.14649E-04-3.53304E-05-3.40141E-05-5.61480E-06 1.77327E-18 3.99765E-18
 -1       416 1.17471E-04-3.73408E-05-3.43713E-05-2.75700E-06 1.76186E-18 4.55079E-18
 -1       417 1.19432E-04-3.92584E-05-3.43942E-05 2.49211E-06-2.04347E-19 3.09006E-18
 -1       418 1.19457E-04-3.99983E-05-3.40839E-05 9.85117E-06 1.91453E-19 2.86216E-18
 -1       419 1.16282E-04-3.79547E-05-3.35971E-05 1.71596E-05-2.82406E-19 3.23475E-18
 -1       420 1.09655E-04-3.24080E-05-3.31617E-05 2.01625E-05 4.86587E-19 2.86375E-18
 -1       421 1.01954E-04-2.55611E-05-3.28266E-05 1.52846E-05 6.37908E-19 1.44622E-18
 -1       422 9.77995E-05-2.25338E-05-3.23321E-05 3.67200E-06 2.83280E-19 1.74021E-18
 -1       423 9.91616E-05-2.55684E-05-3.15823E-05-6.80639E-06 1.84932E-18 2.81835E-18
 -1       424 1.02969E-04-3.10508E-05-3.08351E-05-1.02638E-05 6.33569E-19 2.77796E-18
 -1       425 1.05020E-04-3.43626E-05-3.02954E-05-6.79316E-06 9.92628E-19 1.30861E-18
 -1       426 1.03806E-04-3.39283E-05-2.99622E-05-1.11371E-06 1.25213E-18 4.37014E-19
 -1       427 1.00414E-04-3.11332E-05-2.97016E-05 2.45165E-06 2.14213E-18 1.60405E-18
 -1       428 9.80712E-05-2.90763E-05-2.95674E-05 3.10438E-06 5.95398E-19 1.97908E-18
 -1       429 1.00051E-04-2.60648E-05-3.16681E-05 2.35281E-05 1.48759E-18-3.30790E-19
 -1       430 1.02160E-04-2.97546E-05-3.10069E-05 1.43835E-05-1.65574E-18 2.31178E-18
 -1       431 1.00167E-04-2.94350E-05-3.02938E-05 7.58113E-06-5.34024E-19 1.65215E-18
 -1       432 9.22038E-05-1.78106E-05-3.18286E-05 2.86695E-05 1.92182E-18 1.81007E-19
 -1       433 8.04877E-05-6.91211E-06-3.14730E-05 2.33920E-05 1.55311E-20-1.81318E-21
 -1       434 7.21398E-05 4.55582E-07-3.10430E-05 6.52483E-06-1.77699E-18 5.83513E-19
 -1       435 7.38550E-05-1.26483E-06-3.10378E-05-1.48093E-05 3.25640E-19-9.85867E-20
 -1       436 8.41761E-05-1.08655E-05-3.13615E-05-2.85913E-05 1.78930E-18 3.84646E-19
 -1       437 9.55652E-05-2.20200E-05-3.14836E-05-3.02719E-05 1.02767E-18 1.84847E-18
 -1       438 1.02167E-04-2.95636E-05-3.10737E-05-2.29869E-05 3.24379E-20 3.75520E-18
 -1       439 1.03581E-04-3.27807E-05-3.02953E-05-1.28702E-05 1.08558E-18-2.52271E-18
 -1       440 1.01953E-04-3.31076E-05-2.94641E-05-4.11066E-06-3.96484E-20-7.94699E-19
 -1       441 9.91437E-05-3.19931E-05-2.87570E-05 1.73452E-06 5.33584E-19-7.23179E-19
 -1       442 7.31153E-05-5.10530E-05-9.59178E-06 5.30119E-05 1.69407E-19-1.44340E-18
 -1       443 1.47308E-05-2.76709E-05 5.05745E-06-9.73938E-07 5.31343E-19 2.10805E-18
 -1       444 3.22692E-05-2.90427E-05-1.19728E-06 3.32379E-05 2.15438E-18 2.39859E-18
 -1       445 1.17602E-04-6.35066E-05-2.32127E-05 4.85551E-05-2.01128E-18-5.65977E-19
 -1       446 1.48294E-04-5.91463E-05-3.81079E-05 3.40796E-05 1.68962E-18-3.69942E-19
 -1       447 8.94240E-05-1.19255E-05-3.32762E-05-1.07565E-05-2.34877E-19-1.79850E-18
 -1       448 1.71728E-04-2.60036E-05-6.21856E-05 4.96154E-06 2.09821E-18 3.13635E-18
 -1       449 1.68827E-04-1.31022E-05-6.63335E-05 7.37857E-06 2.14003E-18 4.87233E-18
 -1       450 1.72560E-04-1.99383E-05-6.50050E-05 1.11363E-05-1.52466E-20 4.29027E-18
 -1       451 1.67862E-04-3.70382E-05-5.59728E-05 7.55969E-06-1.44784E-18 3.03555E-18
 -1       452 1.51382E-04-6.05506E-05-3.90332E-05-9.78373E-06-4.33337E-19 2.12330E-18
 -1       453 1.27321E-04-6.43189E-05-2.70477E-05-2.85025E-05-2.55010E-18-2.07491E-18
 -1       454 8.87870E-05-5.81937E-05-1.31231E-05-4.04494E-05 3.81059E-19 3.33490E-18
 -1       455 3.98941E-05-3.97715E-05-5.42718E-08-3.42678E-05 1.38193E-18 3.91700E-18
 -1       456 1.53342E-05-3.04433E-05 6.28425E-06-1.23746E-05-1.27971E-18 1.60237E-18
 -1       457 1.42886E-05-3.01995E-05 6.56745E-06 1.52173E-05-8.45551E-19-3.92695E-18
 -1       458 4.26339E-05-3.83314E-05-1.67095E-06 4.04598E-05 9.24007E-19-2.89643E-18
 -1       459 7.87928E-05-5.20770E-05-1.12669E-05 4.65925E-05 2.20091E-18-1.98920E-18
 -1       460 1.24275E-04-5.95179E-05-2.77026E-05 3.35672E-05 8.11034E-19-1.05376E-18
 -1       461 1.47450E-04-5.48225E-05-3.97227E-05 2.06325E-05 6.71750E-19-8.30198E-19
 -1       462 1.63466E-04-3.99989E-05-5.28738E-05 2.13605E-06 9.48253E-19-3.82329E-19
 -1       463 1.67782E-04-2.41684E-05-6.14825E-05-5.00844E-06 1.04524E-18-1.46484E-18
 -1       464 1.63249E-04-1.05015E-05-6.55472E-05-5.97420E-06-1.31036E-18-3.66045E-18
 -1       465 1.74178E-04-1.78506E-05-6.65789E-05-5.91013E-06-1.23180E-18-4.51956E-18
 -1       466 1.69163E-04-3.12792E-05-5.88936E-05-8.25452E-06-2.46174E-18-5.14213E-18
 -1       467 1.60857E-04-4.86590E-05-4.79145E-05-2.08855E-05-2.71829E-18-3.25292E-18
 -1       468 1.38694E-04-5.82675E-05-3.43713E-05-3.97371E-05-3.06933E-18-1.39972E-19
 -1       469 1.04828E-04-5.86389E-05-1.98759E-05-5.24415E-05-2.00429E-18-1.15223E-18
 -1       470 6.23080E-05-4.72677E-05-6.75280E-06-5.15544E-05 1.48845E-18 3.43451E-18
 -1       471 2.89884E-05-2.96084E-05 1.99129E-07-3.27720E-05 1.43360E-19 3.29644E-18
 -1       472 1.66652E-04-4.70269E-05-5.11878E-05 1.23679E-05 3.11858E-18 2.39689E-18
 -1       473 1.11500E-04-6.29673E-05-2.06699E-05 3.86829E-05 2.12097E-18 9.87603E-19
 -1       474 1.54857E-04-5.20547E-05-4.43939E-05 1.16263E-05-6.55312E-19 2.95540E-18
 -1       475 9.58257E-05-2.51497E-05-3.02755E-05 6.01365E-06 9.76735E-19 1.70679E-18
 -1       476 8.95347E-05-1.33988E-05-3.26485E-05-3.92174E-06 5.10493E-19-1.30629E-18
 -1       477 9.02454E-05-1.43643E-05-3.25407E-05-5.87616E-06 2.96715E-19-1.39552E-18
 -1       478 8.90355E-05-1.27180E-05-3.27253E-05 5.46105E-08 9.22320E-19-7.18252E-19
 -1       479 8.91712E-05-1.29016E-05-3.27050E-05 2.04467E-06 1.13862E-18-5.72939E-19
 -1       480 8.95669E-05-1.34394E-05-3.26452E-05 3.99643E-06 1.33207E-18-5.01132E-19
 -1       481 9.02925E-05-1.44269E-05-3.25349E-05 5.94961E-06 1.56867E-18-5.92609E-20
 -1       482 9.14422E-05-1.60062E-05-3.23528E-05 7.77641E-06 1.58387E-18 3.77105E-19
 -1       483 9.32340E-05-1.84788E-05-3.20581E-05 9.29138E-06 1.58412E-18 9.62226E-19
 -1       484 9.51191E-05-2.65795E-05-2.93562E-05 2.86941E-06 8.15350E-19 1.46168E-18
 -1       485 9.54857E-05-2.44348E-05-3.04405E-05-5.81574E-06-5.05040E-19-9.18944E-19
 -1       486 1.55018E-04-6.07259E-05-4.06891E-05 1.21652E-05 1.04605E-19 1.37124E-18
 -1       487 9.52775E-05-2.62238E-05-2.95862E-05-2.89199E-06-3.17030E-19-7.68093E-19
 -1       488 9.49222E-05-2.71626E-05-2.90358E-05-1.02690E-06-2.31256E-19-7.06594E-19
 -1       489 9.46464E-05-2.76945E-05-2.86920E-05 9.63509E-08-4.08458E-19-7.26064E-19
 -1       490 9.44901E-05-2.80212E-05-2.84861E-05 7.30995E-07-4.09654E-19-7.51688E-19
 -1       491 9.44348E-05-2.82331E-05-2.83721E-05 1.04805E-06-2.10228E-19-8.40781E-19
 -1       492 9.44501E-05-2.83745E-05-2.83183E-05 1.16240E-06-3.42841E-19-1.12334E-18
 -1       493 9.45088E-05-2.84690E-05-2.83031E-05 1.15174E-06-3.09015E-19-8.78603E-19
 -1       494 9.45902E-05-2.85309E-05-2.83115E-05 1.06883E-06-2.14541E-19-1.27983E-19
 -1       495 9.46802E-05-2.85692E-05-2.83336E-05 9.49469E-07 5.87785E-20 1.37137E-19
 -1       496 9.47697E-05-2.85905E-05-2.83628E-05 8.17748E-07 8.81371E-20 4.48045E-19
 -1       497 9.48540E-05-2.85993E-05-2.83951E-05 6.89755E-07-3.33291E-19-2.74384E-20
 -1       498 9.49310E-05-2.85989E-05-2.84283E-05 5.76206E-07-6.99843E-19-8.11732E-20
 -1       499 9.50009E-05-2.85914E-05-2.84614E-05 4.84399E-07-3.81044E-19 1.94815E-19
 -1       500 9.50652E-05-2.85785E-05-2.84944E-05 4.19670E-07-9.29798E-19 2.33563E-19
 -1       501 9.51268E-05-2.85610E-05-2.85282E-05 3.86496E-07-6.80746E-19-7.68271E-19
 -1       502 9.51894E-05-2.85396E-05-2.85642E-05 3.89291E-07-4.70750E-19-6.79119E-19
 -1       503 9.52578E-05-2.85146E-05-2.86041E-05 4.32970E-07-5.45697E-19-5.11380E-19
 -1       504 9.53373E-05-2.84866E-05-2.86501E-05 5.23273E-07 5.23781E-19-1.38251E-18
 -1       505 9.54346E-05-2.84563E-05-2.87046E-05 6.66832E-07 9.96240E-19-1.47961E-18
 -1       506 9.55571E-05-2.84254E-05-2.87703E-05 8.70914E-07 2.09094E-19-8.52772E-19
 -1       507 9.57138E-05-2.83969E-05-2.88495E-05 1.14275E-06 1.39782E-19-4.08827E-19
 -1       508 9.59152E-05-2.83763E-05-2.89445E-05 1.48829E-06-3.48043E-20-8.12290E-19
 -1       509 9.61735E-05-2.83724E-05-2.90567E-05 1.91013E-06-7.07129E-19-7.71396E-19
 -1       510 9.65036E-05-2.83996E-05-2.91864E-05 2.40438E-06-2.68537E-19-1.71675E-18
 -1       511 9.69237E-05-2.84797E-05-2.93321E-05 2.95615E-06-6.59547E-19-1.33805E-18
 -1       512 9.74569E-05-2.86455E-05-2.94897E-05 3.53324E-06 1.36536E-19-6.87635E-19
 -1       513 9.81327E-05-2.89433E-05-2.96520E-05 4.07798E-06-9.99591E-20-4.72656E-19
 -1       514 9.89889E-05-2.94351E-05-2.98088E-05 4.49736E-06-3.22406E-19-9.02594E-19
 -1       515 1.00071E-04-3.01958E-05-2.99478E-05 4.65266E-06 8.88577E-19-1.99558E-18
 -1       516 1.01428E-04-3.12996E-05-3.00576E-05 4.35190E-06-2.91245E-19-2.32294E-18
 -1       517 1.03086E-04-3.27840E-05-3.01344E-05 3.35278E-06 5.99825E-19-1.36912E-18
 -1       518 1.05006E-04-3.45784E-05-3.01903E-05 1.39243E-06 2.98825E-20-6.09369E-19
 -1       519 1.06992E-04-3.63953E-05-3.02646E-05-1.72706E-06-1.14287E-19 1.86860E-18
 -1       520 1.08597E-04-3.76201E-05-3.04263E-05-5.96260E-06-3.54954E-19 2.22968E-18
 -1       521 1.09090E-04-3.73237E-05-3.07626E-05-1.07453E-05-1.39790E-18 1.42815E-18
 -1       522 1.07722E-04-3.46467E-05-3.13208E-05-1.47032E-05-6.42638E-19 1.25422E-18
 -1       523 1.04405E-04-2.96765E-05-3.20282E-05-1.58524E-05 1.39699E-18 1.99121E-18
 -1       524 1.00358E-04-2.41960E-05-3.26536E-05-1.26853E-05 5.69739E-19 3.51098E-18
 -1       525 9.77602E-05-2.11040E-05-3.28654E-05-5.76722E-06-2.03910E-19 1.98569E-18
 -1       526 9.79779E-05-2.21947E-05-3.24814E-05 1.77046E-06 1.73196E-18 1.41966E-18
 -1       527 1.00032E-04-2.61803E-05-3.16549E-05 6.62070E-06 1.22766E-18 9.28394E-19
 -1       528 1.01765E-04-3.01846E-05-3.06750E-05 7.61323E-06-1.31576E-18-1.26380E-18
 -1       529 1.01630E-04-3.20799E-05-2.98021E-05 5.98837E-06-2.50267E-19-2.23393E-18
 -1       530 9.41500E-05-2.76882E-05-2.84801E-05-1.25039E-07 5.23962E-19 8.74650E-19
 -1       531 9.39744E-05-2.79353E-05-2.83012E-05-7.34505E-07 5.75008E-19 7.74109E-19
 -1       532 9.39446E-05-2.81070E-05-2.82158E-05-1.03186E-06 5.85881E-19 6.88320E-19
 -1       533 9.40082E-05-2.82333E-05-2.81894E-05-1.13416E-06 4.75662E-19 7.22809E-19
 -1       534 9.41243E-05-2.83282E-05-2.81988E-05-1.11771E-06 4.63565E-19 1.07955E-18
 -1       535 9.42643E-05-2.83996E-05-2.82283E-05-1.03329E-06 4.88952E-19 8.49775E-19
 -1       536 9.44094E-05-2.84523E-05-2.82679E-05-9.14831E-07 3.38018E-19 4.35028E-19
 -1       537 9.45484E-05-2.84902E-05-2.83112E-05-7.84970E-07 1.86381E-20 4.88298E-19
 -1       538 9.46755E-05-2.85162E-05-2.83545E-05-6.58661E-07 1.79945E-19 4.57805E-19
 -1       539 9.47888E-05-2.85327E-05-2.83959E-05-5.45738E-07 2.66208E-19 5.07580E-19
 -1       540 9.48890E-05-2.85418E-05-2.84349E-05-4.52790E-07 3.29333E-19 9.03355E-19
 -1       541 9.49788E-05-2.85450E-05-2.84719E-05-3.84570E-07 8.10809E-19 7.39259E-19
 -1       542 9.50624E-05-2.85436E-05-2.85081E-05-3.45078E-07-2.14238E-20 1.49411E-18
 -1       543 9.51451E-05-2.85387E-05-2.85456E-05-3.38403E-07-5.08402E-19 1.90642E-18
 -1       544 9.52337E-05-2.85312E-05-2.85866E-05-3.69415E-07-2.37290E-19 1.77671E-18
 -1       545 9.53357E-05-2.85219E-05-2.86342E-05-4.44316E-07-9.57812E-20 1.28083E-18
 -1       546 9.54603E-05-2.85115E-05-2.86918E-05-5.71096E-07 3.46569E-19 1.98268E-19
 -1       547 9.56178E-05-2.85010E-05-2.87636E-05-7.59898E-07 3.70411E-19 4.26669E-19
 -1       548 9.58203E-05-2.84913E-05-2.88542E-05-1.02326E-06-3.67023E-20 8.49264E-19
 -1       549 9.60812E-05-2.84841E-05-2.89688E-05-1.37616E-06-5.79987E-19-3.97089E-19
 -1       550 9.64157E-05-2.84815E-05-2.91128E-05-1.83573E-06-4.75267E-19-8.59987E-19
 -1       551 9.68405E-05-2.84873E-05-2.92919E-05-2.42038E-06-2.20722E-19 3.41740E-19
 -1       552 9.73735E-05-2.85081E-05-2.95109E-05-3.14770E-06-5.63823E-20 1.26693E-18
 -1       553 9.80346E-05-2.85563E-05-2.97731E-05-4.03051E-06-8.22919E-19 1.96705E-18
 -1       554 9.88466E-05-2.86556E-05-3.00781E-05-5.06934E-06-8.00993E-19 3.85534E-18
 -1       555 9.98395E-05-2.88505E-05-3.04201E-05-6.23948E-06-8.62526E-20 4.16031E-18
 -1       556 1.01060E-04-2.92228E-05-3.07842E-05-7.46932E-06-4.71333E-19 3.09141E-18
 -1       557 1.02587E-04-2.99141E-05-3.11446E-05-8.60649E-06-9.19220E-19 1.45386E-18
 -1       558 1.04562E-04-3.11508E-05-3.14651E-05-9.36937E-06-6.91199E-19 6.42087E-19
 -1       559 1.07209E-04-3.32427E-05-3.17089E-05-9.28628E-06 7.95043E-19 1.62597E-18
 -1       560 1.10805E-04-3.64860E-05-3.18688E-05-7.63992E-06 1.16602E-18 2.67513E-18
 -1       561 1.15478E-04-4.08189E-05-3.20221E-05-3.52183E-06 1.34578E-18 3.52701E-18
 -1       562 1.20750E-04-4.52085E-05-3.24068E-05 3.83628E-06 1.89933E-19 3.62417E-18
 -1       563 1.24741E-04-4.67826E-05-3.34510E-05 1.40000E-05 8.58109E-19 3.24890E-18
 -1       564 1.24235E-04-4.18038E-05-3.53899E-05 2.32737E-05-1.17719E-19 1.30149E-18
 -1       565 1.16682E-04-2.91573E-05-3.79037E-05 2.49437E-05 1.48435E-18 1.28333E-18
 -1       566 1.12398E-04-1.96161E-05-3.99568E-05 1.35400E-05-3.83514E-19 1.30972E-18
 -1       567 1.10215E-04-1.93147E-05-3.93975E-05-3.34516E-06-5.13778E-19 2.41523E-18
 -1       568 1.16490E-04-3.13830E-05-3.66352E-05-1.16613E-05 1.77377E-18 2.26067E-18
 -1       569 1.18771E-04-4.06376E-05-3.35744E-05-8.52019E-06 1.64108E-18 1.17279E-18
 -1       570 1.15349E-04-4.18771E-05-3.15345E-05-2.77799E-07 2.27904E-18 1.78196E-19
 -1       571 1.08356E-04-3.69313E-05-3.06210E-05 6.24983E-06 2.83342E-19 9.54480E-19
 -1       572 8.74245E-05-2.48609E-05-2.65695E-05 3.67011E-05 1.34714E-18-1.91093E-18
 -1       573 6.64489E-05-1.07285E-05-2.35724E-05 2.30983E-05-1.28505E-18-1.06292E-18
 -1       574 1.12325E-04-4.04228E-05-3.07740E-05 2.03212E-05-1.85629E-19 3.85323E-18
 -1       575 1.06096E-04-3.75309E-05-2.92846E-05 3.28516E-05 2.48909E-19 9.89917E-19
 -1       576 5.84317E-05-5.08178E-06-2.25110E-05-6.03406E-06-5.32436E-19 4.03029E-18
 -1       577 7.15367E-05-1.42200E-05-2.42052E-05-3.15066E-05 1.28683E-18 1.10448E-18
 -1       578 9.38554E-05-2.92578E-05-2.75141E-05-3.95820E-05 1.49352E-18-8.28100E-19
 -1       579 1.08711E-04-3.85630E-05-2.99920E-05-3.20406E-05-9.02156E-20 2.99578E-18
 -1       580 1.12608E-04-4.03033E-05-3.09482E-05-1.90887E-05-1.97999E-19 1.26671E-18
 -1       581 1.09914E-04-3.81068E-05-3.07534E-05-7.52657E-06 5.92580E-19-3.51267E-18
 -1       582 1.04541E-04-3.45753E-05-2.99733E-05 3.05697E-07 2.54135E-20-2.23481E-19
 -1       583 3.34793E-05-1.36664E-05-7.73915E-06 1.00252E-05 2.59749E-18 3.75744E-18
 -1       584 1.07103E-04-5.82930E-05-2.06294E-05 5.06541E-05-6.47292E-19-8.02868E-19
 -1       585 9.45270E-05-2.72951E-05-2.88050E-05 9.79295E-07 6.16501E-19 1.03013E-18
 -1       586 3.68993E-05-1.38733E-05-9.05910E-06-1.85944E-05 1.15080E-18 3.79545E-18
 -1       587 6.63493E-05-3.51014E-05-1.28383E-05 4.76816E-05 7.04943E-19-3.54393E-18
 -1       588 9.46329E-05-2.07706E-05-3.16764E-05-9.51158E-06-6.16627E-19-1.21471E-18
 -1       589 5.95767E-05-3.34674E-05-1.06578E-05-4.86697E-05 1.64827E-18 2.94053E-18
 -1       590 3.39153E-05-2.41527E-05-3.61021E-06 2.85046E-05-9.98202E-19-3.45462E-18
 -1       591 1.45357E-04-2.43628E-05-5.24291E-05 2.20842E-05-8.22416E-19 4.10837E-18
 -1       592 8.91512E-05-1.28765E-05-3.27072E-05-1.93588E-06 7.57759E-19-1.09489E-18
 -1       593 1.40381E-04-1.51695E-05-5.44212E-05-3.36097E-06 6.87685E-19 1.78078E-18
 -1       594 1.39645E-04-1.11482E-05-5.57748E-05 1.51813E-05 3.58613E-19 4.70695E-18
 -1       595 7.31399E-05-4.74892E-05-1.06940E-05-3.99351E-05 1.03566E-18 5.26473E-18
 -1       596 1.41368E-04-6.79282E-05-3.16165E-05-1.06438E-05-1.51518E-18 1.24916E-18
 -1       597 1.39881E-04-8.57876E-06-5.70074E-05 4.93556E-07-2.15358E-18-3.07761E-18
 -1       598 1.17522E-04-6.59098E-05-2.19254E-05-3.01131E-05-9.79382E-19-1.10763E-18
 -1       599 3.59408E-05-2.41754E-05-4.35985E-06-2.38487E-05-1.18794E-18 1.35335E-18
 -1       600 2.25606E-05-1.76482E-05-1.44456E-06 1.80059E-06-2.66619E-18-4.18328E-19
 -1       601 7.00401E-05-4.20261E-05-1.14631E-05 4.34821E-05 9.12625E-19-1.40390E-18
 -1       602 1.42102E-04-6.46550E-05-3.32633E-05 1.51130E-05 2.51487E-18 6.11611E-19
 -1       603 1.51397E-04-5.16689E-05-4.30677E-05-3.94868E-06 1.22936E-18-6.38451E-20
 -1       604 1.47921E-04-3.08393E-05-5.07172E-05-1.57882E-05 1.69343E-18-1.26494E-18
 -1       605 1.39355E-04-1.19148E-05-5.53440E-05-1.41816E-05 1.49586E-18-1.88121E-18
 -1       606 1.45693E-04-2.09793E-05-5.40670E-05 6.11807E-06-2.74312E-18-7.81282E-19
 -1       607 1.53853E-04-4.25375E-05-4.81144E-05 5.93013E-07-4.41513E-18-2.58319E-18
 -1       608 1.50781E-04-6.19269E-05-3.82759E-05-1.87976E-05-2.34264E-18-1.41666E-18
 -1       609 1.34382E-04-6.58704E-05-2.91873E-05-3.94315E-05-7.73023E-19-3.91266E-18
 -1       610 9.32401E-05-5.22089E-05-1.72881E-05-5.50486E-05 1.72096E-18 1.14445E-18
 -1       611 1.53734E-04-3.55062E-05-5.11952E-05-5.03393E-06 1.71117E-18 5.16902E-19
 -1       612 9.61659E-05-2.31918E-05-3.12781E-05 9.57914E-06 1.18141E-18 2.16319E-18
 -1       613 1.41452E-04-6.88122E-05-3.10784E-05 3.24788E-05-1.23069E-18 4.38128E-19
 -1       614 9.13367E-05-1.59021E-05-3.23639E-05-7.66767E-06 3.42280E-20-1.45534E-18
 -1       615 1.25296E-04-7.18988E-06-5.12054E-05-7.46376E-06-5.47924E-20 1.54989E-18
 -1       616 1.43152E-04-3.97407E-05-4.47726E-05 2.57602E-05 1.31555E-19 2.06290E-18
 -1       617 9.65399E-05-5.33421E-05-1.82395E-05 3.92125E-05 2.14456E-18 2.50020E-18
 -1       618 6.13188E-05-3.34691E-05-1.14666E-05-3.30026E-05 4.35984E-19 2.66715E-18
 -1       619 1.50022E-04-5.07027E-05-4.28993E-05-4.09059E-06 2.20362E-18 3.77618E-19
 -1       620 1.47981E-04-6.26288E-05-3.68355E-05 8.40250E-06-5.82600E-19 7.84988E-19
 -1       621 1.00346E-04-3.20773E-05-2.92547E-05 4.48192E-06-4.25523E-19-1.41291E-18
 -1       622 9.15471E-05-1.68468E-05-3.20200E-05 2.43896E-06 1.07743E-18-4.08954E-19
 -1       623 9.12875E-05-1.64445E-05-3.20810E-05 8.39970E-07 9.12178E-19-5.77342E-19
 -1       624 9.28879E-05-1.89970E-05-3.16732E-05 5.26173E-06 1.36306E-18 1.86134E-19
 -1       625 9.39879E-05-2.09321E-05-3.13175E-05 6.13680E-06 1.41652E-18 6.78381E-19
 -1       626 9.52742E-05-2.40944E-05-3.04955E-05 5.14432E-06 1.04828E-18 8.40962E-19
 -1       627 1.45303E-04-6.43247E-05-3.48513E-05 1.40279E-05 1.53551E-19 3.12868E-18
 -1       628 1.33472E-04-2.76342E-05-4.59256E-05-1.11661E-05-2.08211E-19-4.74074E-19
 -1       629 1.17614E-04-5.74699E-05-2.55195E-05-4.54321E-05 2.31192E-18-2.81903E-18
 -1       630 9.54129E-05-2.56994E-05-2.98750E-05-2.43970E-06-2.24377E-19-8.24099E-19
 -1       631 9.54749E-05-2.69456E-05-2.93690E-05-8.63082E-07-3.79353E-19-7.21139E-19
 -1       632 9.54199E-05-2.77067E-05-2.90197E-05 1.38496E-07-4.48135E-19-7.96204E-19
 -1       633 9.53434E-05-2.81792E-05-2.87847E-05 7.25586E-07-4.28346E-19-1.01056E-18
 -1       634 9.52786E-05-2.84708E-05-2.86320E-05 1.02615E-06-3.02362E-19-8.43766E-19
 -1       635 9.52331E-05-2.86452E-05-2.85377E-05 1.13666E-06 1.16169E-19-4.17657E-19
 -1       636 9.52051E-05-2.87421E-05-2.84843E-05 1.12730E-06 3.60754E-19 4.69996E-19
 -1       637 9.51908E-05-2.87873E-05-2.84588E-05 1.04798E-06 3.65312E-20 6.47557E-19
 -1       638 9.51859E-05-2.87981E-05-2.84520E-05 9.33605E-07-1.75655E-19 2.65700E-19
 -1       639 9.51873E-05-2.87862E-05-2.84577E-05 8.08199E-07-1.56880E-19 3.33051E-20
 -1       640 9.51927E-05-2.87594E-05-2.84715E-05 6.88148E-07-2.38222E-19 1.62012E-20
 -1       641 9.52005E-05-2.87225E-05-2.84907E-05 5.84675E-07-7.26516E-19 2.12127E-19
 -1       642 9.52100E-05-2.86781E-05-2.85137E-05 5.05754E-07-1.15905E-18 1.88641E-21
 -1       643 9.52208E-05-2.86274E-05-2.85401E-05 4.57555E-07-1.36744E-18-1.38778E-19
 -1       644 9.52329E-05-2.85702E-05-2.85698E-05 4.45524E-07-3.93042E-19 3.77256E-19
 -1       645 9.52469E-05-2.85055E-05-2.86034E-05 4.75181E-07-3.49571E-19 1.64443E-20
 -1       646 9.52634E-05-2.84320E-05-2.86420E-05 5.52638E-07-3.99841E-19 4.28277E-19
 -1       647 9.52836E-05-2.83483E-05-2.86865E-05 6.84866E-07 1.43976E-19 2.48782E-20
 -1       648 9.53094E-05-2.82536E-05-2.87380E-05 8.79662E-07 1.05271E-18-1.23826E-18
 -1       649 9.53432E-05-2.81485E-05-2.87976E-05 1.14527E-06 4.24439E-19 7.00454E-20
 -1       650 9.53894E-05-2.80361E-05-2.88655E-05 1.48952E-06-1.58836E-19 3.69066E-19
 -1       651 9.54545E-05-2.79238E-05-2.89415E-05 1.91843E-06-4.02013E-19 9.49532E-19
 -1       652 9.55489E-05-2.78258E-05-2.90239E-05 2.43393E-06-1.09622E-18 1.11880E-18
 -1       653 9.56893E-05-2.77662E-05-2.91096E-05 3.03068E-06-2.44908E-19 4.67556E-19
 -1       654 9.59025E-05-2.77836E-05-2.91935E-05 3.69155E-06-3.15176E-19-2.61430E-19
 -1       655 9.62303E-05-2.79363E-05-2.92686E-05 4.38164E-06-3.98911E-19-8.64004E-19
 -1       656 9.67365E-05-2.83079E-05-2.93264E-05 5.04027E-06-1.81428E-19-1.05936E-18
 -1       657 9.75141E-05-2.90098E-05-2.93590E-05 5.57087E-06-4.11339E-19-7.88335E-19
 -1       658 9.86898E-05-3.01766E-05-2.93633E-05 5.82791E-06 6.51196E-19-6.53671E-19
 -1       659 1.00418E-04-3.19419E-05-2.93479E-05 5.60142E-06 3.13910E-19 4.34899E-19
 -1       660 1.02843E-04-3.43747E-05-2.93458E-05 4.60255E-06 2.85121E-19-6.44749E-20
 -1       661 1.06009E-04-3.73498E-05-2.94290E-05 2.46946E-06 6.20171E-19-8.69203E-20
 -1       662 1.09680E-04-4.03422E-05-2.97208E-05-1.15062E-06 9.20964E-20-8.34677E-19
 -1       663 1.13128E-04-4.22231E-05-3.03897E-05-6.36233E-06-5.85336E-19-3.45997E-20
 -1       664 1.14945E-04-4.12033E-05-3.16127E-05-1.25006E-05-1.56228E-19 2.58892E-18
 -1       665 1.13746E-04-3.59020E-05-3.33888E-05-1.73712E-05 9.62615E-19 3.94007E-18
 -1       666 1.09500E-04-2.70824E-05-3.53690E-05-1.76989E-05 8.96794E-19 2.75402E-18
 -1       667 1.04812E-04-1.89757E-05-3.68538E-05-1.16629E-05 2.63381E-19 2.93537E-18
 -1       668 1.03980E-04-1.79620E-05-3.69477E-05-1.76234E-06-2.08744E-20 3.74034E-18
 -1       669 1.06650E-04-2.32651E-05-3.58053E-05 6.10237E-06-3.67467E-20 1.82800E-18
 -1       670 1.09874E-04-3.09534E-05-3.38528E-05 7.96362E-06-1.81975E-18-7.66775E-19
 -1       671 1.10058E-04-3.55156E-05-3.19544E-05 5.11662E-06-1.69599E-18 9.06052E-21
 -1       672 9.49852E-05-2.81160E-05-2.86580E-05-7.40816E-07 6.64924E-19 3.86808E-19
 -1       673 1.44776E-04-5.22425E-05-3.99001E-05-2.28248E-06-2.65181E-18-9.85946E-19
 -1       674 1.38096E-04-3.23645E-05-4.57754E-05 8.66480E-06-3.86792E-18 7.24028E-19
 -1       675 9.50962E-05-2.77096E-05-2.88794E-05-1.32221E-07 4.83915E-19 4.98018E-19
 -1       676 9.49021E-05-2.85294E-05-2.84455E-05-1.16075E-06 2.95688E-19 7.65160E-19
 -1       677 9.49100E-05-2.86243E-05-2.84083E-05-1.14977E-06 4.10249E-19 5.23570E-19
 -1       678 9.49358E-05-2.86762E-05-2.83971E-05-1.06739E-06 6.29086E-19 8.08529E-19
 -1       679 9.49710E-05-2.86990E-05-2.84025E-05-9.49096E-07 1.34947E-19 7.22502E-19
 -1       680 9.50100E-05-2.87018E-05-2.84180E-05-8.19130E-07 2.21694E-19 8.56181E-19
 -1       681 9.50494E-05-2.86911E-05-2.84395E-05-6.93858E-07 2.34033E-19 1.10421E-18
 -1       682 9.50877E-05-2.86709E-05-2.84645E-05-5.84375E-07-2.92729E-19 8.11111E-19
 -1       683 9.51244E-05-2.86438E-05-2.84918E-05-4.98479E-07 3.72592E-19 1.46891E-18
 -1       684 9.51602E-05-2.86108E-05-2.85212E-05-4.42151E-07-3.70663E-19 2.40167E-18
 -1       685 9.51963E-05-2.85722E-05-2.85532E-05-4.20728E-07-2.94460E-19 1.99939E-18
 -1       686 9.52348E-05-2.85271E-05-2.85890E-05-4.39811E-07-1.93327E-19 1.52883E-18
 -1       687 9.52778E-05-2.84743E-05-2.86300E-05-5.05978E-07 4.19507E-19 1.05639E-18
 -1       688 9.53281E-05-2.84116E-05-2.86784E-05-6.27335E-07 4.62115E-19 9.39347E-19
 -1       689 9.53885E-05-2.83365E-05-2.87364E-05-8.13918E-07 5.05206E-19 7.67215E-19
 -1       690 9.54618E-05-2.82461E-05-2.88064E-05-1.07795E-06 7.17308E-19 8.07742E-19
 -1       691 9.55508E-05-2.81371E-05-2.88911E-05-1.43387E-06-3.82713E-19 7.86378E-19
 -1       692 9.56575E-05-2.80065E-05-2.89927E-05-1.89811E-06-3.55486E-19 7.18699E-19
 -1       693 9.57833E-05-2.78522E-05-2.91126E-05-2.48837E-06-7.85014E-19 8.93854E-19
 -1       694 9.59289E-05-2.76747E-05-2.92509E-05-3.22224E-06-2.30306E-19 2.69329E-19
 -1       695 9.60952E-05-2.74804E-05-2.94052E-05-4.11467E-06-9.54451E-19 6.35610E-19
 -1       696 9.62861E-05-2.72882E-05-2.95692E-05-5.17386E-06-1.36100E-18 3.31591E-19
 -1       697 9.65157E-05-2.71402E-05-2.97309E-05-6.39470E-06-2.55315E-19 1.22691E-19
 -1       698 9.68232E-05-2.71219E-05-2.98705E-05-7.74886E-06 3.05602E-19-3.35369E-19
 -1       699 9.73012E-05-2.73916E-05-2.99600E-05-9.16964E-06 4.31726E-21-6.88949E-19
 -1       700 9.81430E-05-2.82217E-05-2.99658E-05-1.05283E-05-7.79668E-19-1.39294E-18
 -1       701 9.97094E-05-3.00385E-05-2.98600E-05-1.15943E-05-2.11501E-19-1.28132E-18
 -1       702 1.02600E-04-3.34210E-05-2.96507E-05-1.19616E-05 4.87560E-19 1.02633E-19
 -1       703 1.07668E-04-3.89493E-05-2.94534E-05-1.08637E-05 6.53528E-19 5.86264E-22
 -1       704 1.15525E-04-4.64436E-05-2.96048E-05-7.07508E-06 6.84327E-19 1.20092E-18
 -1       705 1.25886E-04-5.39630E-05-3.08477E-05 1.25916E-06 3.42483E-19 6.52503E-19
 -1       706 1.34634E-04-5.53114E-05-3.41292E-05 1.40148E-05 1.18982E-18 9.03168E-19
 -1       707 1.30511E-04-5.22693E-05-3.36064E-05 3.10637E-06 6.25871E-19 1.58660E-19
 -1       708 1.22685E-04-4.92823E-05-3.14536E-05 1.38233E-05-6.62758E-20 2.82731E-18
 -1       709 1.05316E-04-4.65504E-05-2.48718E-05 4.22687E-05-9.12810E-20 8.53492E-19
 -1       710 1.21522E-04-5.24694E-05-2.95154E-05 2.89542E-05-5.98786E-19 3.10184E-18
 -1       711 8.26176E-05-3.36947E-05-2.06040E-05-4.73842E-05 2.43008E-18 1.90310E-18
 -1       712 1.13293E-04-4.91455E-05-2.73414E-05-4.10974E-05 1.70671E-18-1.73689E-18
 -1       713 1.23514E-04-5.06470E-05-3.12073E-05-2.38354E-05-1.43314E-18 3.29969E-18
 -1       714 1.19971E-04-4.49765E-05-3.21721E-05-9.48949E-06-1.27321E-18-4.74901E-19
 -1       715 4.73286E-05-1.90297E-05-1.14887E-05 2.92005E-05 1.55412E-18 1.29151E-18
 -1       716 9.41767E-05-2.09772E-05-3.13709E-05-7.05773E-06-2.72428E-19-1.15878E-18
 -1       717 9.52352E-05-2.70421E-05-2.92235E-05 9.19822E-07 7.31221E-19 5.29977E-19
 -1       718 9.49231E-05-2.83709E-05-2.85224E-05-1.04895E-06 3.66162E-19 3.88147E-19
 -1       719 9.50862E-05-2.38612E-05-3.05255E-05-4.47303E-06-2.15980E-19-9.12164E-19
 -1       720 9.20729E-05-1.76741E-05-3.18911E-05 3.94700E-06 1.21606E-18-1.46880E-19
 -1       721 9.53414E-05-2.59443E-05-2.97382E-05 2.59916E-06 8.98946E-19 6.28716E-19
 -1       722 5.76691E-05-2.77129E-05-1.23402E-05 3.23578E-05-3.87875E-19-8.45657E-19
 -1       723 1.28576E-04-6.49312E-05-2.72030E-05 2.17290E-05 3.28792E-18 8.10147E-19
 -1       724 9.20323E-05-1.76170E-05-3.18978E-05-3.89485E-06 3.01171E-19-1.16161E-18
 -1       725 1.40954E-04-4.26051E-05-4.25216E-05-1.62921E-05 2.11885E-18-4.37043E-19
 -1       726 3.83475E-05-1.60973E-05-8.94386E-06-9.23371E-06-1.56931E-18-2.63851E-19
 -1       727 1.30454E-04-6.56214E-05-2.77059E-05-1.27467E-05 2.09522E-19-8.44770E-19
 -1       728 1.29559E-04-2.19813E-05-4.66061E-05-1.98274E-05 2.27397E-18-3.67401E-20
 -1       729 3.86772E-05-1.59479E-05-9.16795E-06 1.41285E-05-1.87856E-18-1.10305E-18
 -1       730 1.28099E-04-6.28503E-05-2.78904E-05 3.60764E-05-9.50821E-19 2.80841E-18
 -1       731 1.01091E-04-5.47185E-05-1.95594E-05-3.20093E-05 1.59459E-18 1.48350E-18
 -1       732 1.42539E-04-5.87778E-05-3.60664E-05-2.43033E-06 1.78832E-18 8.00128E-19
 -1       733 1.07887E-04-3.58831E-05-3.08583E-05 2.49667E-06-5.69238E-19-5.75132E-19
 -1       734 1.28453E-04-1.44877E-05-4.94431E-05 6.03115E-06-4.02060E-18 4.04008E-19
 -1       735 1.40749E-04-6.29841E-05-3.33592E-05-2.33692E-05 1.35644E-19-2.06239E-18
 -1       736 6.96045E-05-2.41938E-05-1.89805E-05 3.85523E-05-4.29075E-19-4.44544E-18
 -1       737 9.28571E-05-1.89140E-05-3.16940E-05-5.28617E-06 1.12033E-19-1.22033E-18
 -1       738 9.12806E-05-1.64351E-05-3.20820E-05-7.83119E-07 8.21466E-19-8.28852E-19
 -1       739 7.75922E-05-3.80447E-05-1.66394E-05 3.52388E-05 2.86509E-19 1.67431E-18
 -1       740 1.33120E-04-4.59990E-05-3.76080E-05-8.22641E-06 2.01750E-18-2.04836E-18
 -1       741 1.18634E-04-1.45541E-05-4.50291E-05-1.45502E-05 6.39113E-19 3.56550E-18
 -1       742 6.17275E-05-1.44171E-05-1.96838E-05-3.01027E-05 7.66254E-19 9.45553E-19
 -1       743 9.45142E-05-4.13911E-05-2.23911E-05 4.61169E-05-7.23260E-19-1.71442E-18
 -1       744 5.37560E-05-2.21158E-05-1.31952E-05-2.13793E-05-8.29563E-19 1.22132E-19
 -1       745 9.15241E-05-1.68152E-05-3.20235E-05-2.37834E-06 5.53814E-19-9.03854E-19
 -1       746 1.16396E-04-4.06173E-05-3.24759E-05-7.40798E-08-4.98472E-19-3.33193E-18
 -1       747 5.20121E-05-1.20003E-05-1.66305E-05 1.88276E-05 4.84450E-19 1.03560E-18
 -1       748 9.46701E-05-2.27636E-05-3.08141E-05 3.90215E-06 1.05862E-18 4.37635E-19
 -1       749 1.33164E-04-4.89348E-05-3.62376E-05-1.35469E-05 1.15269E-18-1.03169E-18
 -1       750 9.58654E-05-2.68850E-05-2.95632E-05-5.79196E-07-4.45385E-19-9.09075E-19
 -1       751 9.59581E-05-2.77744E-05-2.92217E-05 2.21899E-07-4.93832E-19-8.09644E-19
 -1       752 9.59470E-05-2.83370E-05-2.89758E-05 6.98466E-07-2.31398E-19-6.48030E-19
 -1       753 9.58867E-05-2.86793E-05-2.88032E-05 9.42019E-07 4.75254E-19-2.94808E-19
 -1       754 9.58064E-05-2.88731E-05-2.86857E-05 1.02736E-06 5.20013E-19-3.76746E-19
 -1       755 9.57218E-05-2.89673E-05-2.86091E-05 1.01191E-06 1.98502E-19-3.60871E-19
 -1       756 9.56408E-05-2.89954E-05-2.85623E-05 9.37967E-07 6.61765E-20-2.38673E-21
 -1       757 9.55673E-05-2.89804E-05-2.85373E-05 8.35777E-07-1.96353E-19 5.27798E-19
 -1       758 9.55025E-05-2.89378E-05-2.85278E-05 7.26547E-07-4.43968E-19-3.48491E-19
 -1       759 9.54463E-05-2.88773E-05-2.85296E-05 6.25002E-07-6.54562E-19-5.70572E-19
 -1       760 9.53975E-05-2.88049E-05-2.85397E-05 5.41530E-07-1.20736E-18-3.74797E-19
 -1       761 9.53541E-05-2.87230E-05-2.85562E-05 4.83832E-07-9.84496E-19-3.01290E-19
 -1       762 9.53140E-05-2.86319E-05-2.85780E-05 4.58188E-07-8.77195E-19-2.62076E-20
 -1       763 9.52742E-05-2.85301E-05-2.86046E-05 4.70428E-07-4.41212E-19-4.48739E-19
 -1       764 9.52320E-05-2.84150E-05-2.86359E-05 5.26627E-07-7.01385E-20-1.75199E-19
 -1       765 9.51840E-05-2.82833E-05-2.86717E-05 6.33553E-07-6.88771E-19 5.40698E-20
 -1       766 9.51271E-05-2.81321E-05-2.87121E-05 7.98866E-07 3.18690E-19 3.12975E-19
 -1       767 9.50584E-05-2.79592E-05-2.87568E-05 1.03105E-06 1.03764E-18 1.00183E-21
 -1       768 9.49763E-05-2.77649E-05-2.88049E-05 1.33905E-06 3.06189E-19-2.83416E-19
 -1       769 9.48809E-05-2.75535E-05-2.88546E-05 1.73147E-06-4.60020E-19-6.05420E-19
 -1       770 9.47764E-05-2.73361E-05-2.89029E-05 2.21546E-06-2.61529E-19-7.12846E-19
 -1       771 9.46735E-05-2.71343E-05-2.89453E-05 2.79486E-06-1.36075E-18 1.26725E-19
 -1       772 9.45942E-05-2.69849E-05-2.89753E-05 3.46790E-06-4.29668E-19-2.48502E-19
 -1       773 9.45775E-05-2.69459E-05-2.89849E-05 4.22393E-06-2.71989E-19 3.92623E-19
 -1       774 9.46888E-05-2.71047E-05-2.89645E-05 5.03910E-06-4.73493E-19 1.18332E-18
 -1       775 9.50311E-05-2.75847E-05-2.89055E-05 5.86995E-06-6.63324E-19 9.72636E-19
 -1       776 9.57592E-05-2.85508E-05-2.88035E-05 6.64296E-06 5.39858E-19-1.43718E-19
 -1       777 9.70906E-05-3.02036E-05-2.86659E-05 7.23591E-06 8.34817E-19-7.08099E-19
 -1       778 9.93057E-05-3.27505E-05-2.85240E-05 7.44399E-06-8.90798E-20-7.86803E-19
 -1       779 1.02710E-04-3.63205E-05-2.84534E-05 6.92106E-06-9.28059E-19-2.27949E-18
 -1       780 1.07491E-04-4.07574E-05-2.86018E-05 5.11548E-06-2.83775E-19-1.49320E-18
 -1       781 1.13407E-04-4.52475E-05-2.92134E-05 1.30867E-06 2.15821E-19-9.79891E-19
 -1       782 1.19371E-04-4.80157E-05-3.05990E-05-4.99163E-06 1.86951E-18-2.74323E-19
 -1       783 1.22838E-04-4.55249E-05-3.31782E-05-1.32031E-05 1.34720E-18 5.93141E-19
 -1       784 1.15320E-04-2.11082E-05-4.06419E-05-1.85757E-05 5.16710E-19 1.48444E-18
 -1       785 1.13167E-04-1.75774E-05-4.11382E-05 4.58449E-06-1.78200E-18 1.04605E-18
 -1       786 1.18147E-04-2.97112E-05-3.80766E-05 8.79757E-06-3.08938E-18-9.54897E-19
 -1       787 1.19529E-04-3.83281E-05-3.48880E-05 5.48233E-06-2.26627E-18-2.27667E-18
 -1       788 9.55034E-05-2.88708E-05-2.85569E-05-1.07208E-06 3.48836E-19 1.85427E-19
 -1       789 9.55638E-05-2.87755E-05-2.86236E-05-1.08625E-06 4.04509E-19 3.33002E-19
 -1       790 9.54070E-05-2.89029E-05-2.85018E-05-8.85307E-07-3.57440E-20 4.35496E-19
 -1       791 9.53709E-05-2.88741E-05-2.84987E-05-7.67663E-07-8.85329E-20 5.14133E-19
 -1       792 9.53418E-05-2.88291E-05-2.85055E-05-6.56886E-07 1.69984E-19 1.24817E-18
 -1       793 9.53184E-05-2.87729E-05-2.85195E-05-5.63851E-07-1.38716E-19 1.00510E-18
 -1       794 9.52994E-05-2.87083E-05-2.85391E-05-4.96520E-07-4.21871E-19 1.45515E-18
 -1       795 9.52833E-05-2.86356E-05-2.85633E-05-4.61340E-07-2.42328E-19 1.16415E-18
 -1       796 9.52685E-05-2.85533E-05-2.85922E-05-4.64339E-07-1.29903E-20 8.55645E-19
 -1       797 9.52529E-05-2.84587E-05-2.86261E-05-5.11952E-07-8.71337E-20 9.03559E-19
 -1       798 9.52343E-05-2.83477E-05-2.86657E-05-6.11637E-07 3.89500E-19 1.51048E-18
 -1       799 9.52095E-05-2.82151E-05-2.87119E-05-7.72305E-07 2.35908E-20 2.07295E-18
 -1       800 9.51745E-05-2.80549E-05-2.87655E-05-1.00456E-06 3.67599E-19 2.40207E-18
 -1       801 9.51237E-05-2.78603E-05-2.88271E-05-1.32074E-06 2.91550E-19 2.01211E-18
 -1       802 9.50500E-05-2.76241E-05-2.88966E-05-1.73466E-06-2.12069E-19 1.12285E-18
 -1       803 9.49435E-05-2.73397E-05-2.89729E-05-2.26112E-06-9.49572E-19 1.22989E-18
 -1       804 9.47923E-05-2.70022E-05-2.90527E-05-2.91496E-06-3.75004E-19 7.00177E-19
 -1       805 9.45824E-05-2.66116E-05-2.91301E-05-3.70979E-06-5.93407E-19 6.41623E-19
 -1       806 9.42999E-05-2.61778E-05-2.91948E-05-4.65636E-06-8.25071E-19 5.61475E-20
 -1       807 9.39366E-05-2.57305E-05-2.92308E-05-5.76095E-06-2.52801E-19-1.86485E-18
 -1       808 9.35021E-05-2.53346E-05-2.92141E-05-7.02459E-06-1.60842E-20-2.49267E-18
 -1       809 9.30459E-05-2.51165E-05-2.91120E-05-8.44427E-06 4.43184E-19-1.19695E-18
 -1       810 9.26998E-05-2.53038E-05-2.88833E-05-1.00162E-05 3.39508E-19-1.14922E-18
 -1       811 9.27461E-05-2.62793E-05-2.84849E-05-1.17363E-05-3.52313E-19-2.18357E-18
 -1       812 9.37239E-05-2.86412E-05-2.78905E-05-1.35821E-05-6.36136E-19-2.99082E-18
 -1       813 9.65360E-05-3.32096E-05-2.71320E-05-1.54327E-05-2.39652E-19-1.59868E-18
 -1       814 1.02949E-04-4.11480E-05-2.64971E-05-1.65856E-05 5.73266E-19 3.68393E-19
 -1       815 1.14499E-04-5.24087E-05-2.64884E-05-1.56406E-05 1.34957E-18-1.04456E-18
 -1       816 5.67028E-05-1.94767E-05-1.56527E-05 1.92066E-05 6.47835E-19 6.04398E-19
 -1       817 1.32414E-04-5.20471E-05-3.44912E-05-7.89791E-06-2.28755E-18 1.44212E-18
 -1       818 9.56955E-05-2.69170E-05-2.94770E-05 6.86705E-07 7.08400E-19 6.91200E-19
 -1       819 1.33453E-04-5.92346E-05-3.18821E-05-2.57420E-05-2.17946E-19-8.49733E-19
 -1       820 1.28050E-04-3.38248E-05-4.06692E-05-2.03227E-05 1.61594E-18-1.15852E-18
 -1       821 9.54510E-05-2.89064E-05-2.85192E-05-9.94309E-07 1.86943E-19 5.05906E-19
 -1       822 1.13537E-04-1.16042E-05-4.39875E-05-1.39036E-06-1.86691E-19 1.66101E-18
 -1       823 9.57289E-05-2.77496E-05-2.91340E-05-2.00794E-07 6.56446E-19 3.17453E-19
 -1       824 1.22771E-04-2.36939E-05-4.27617E-05 8.91238E-06-3.27368E-18-6.51838E-19
 -1       825 1.12855E-04-5.68084E-05-2.39446E-05 2.63139E-05 1.93711E-18 1.43466E-18
 -1       826 8.40335E-05-3.91637E-05-1.89485E-05-2.91358E-05 6.20293E-19 2.13229E-18
 -1       827 9.55610E-05-2.54968E-05-3.00274E-05-1.79834E-06-1.24029E-19-1.01611E-18
 -1       828 4.77708E-05-1.44453E-05-1.39332E-05 1.63629E-06-1.89232E-18-9.26919E-19
 -1       829 9.52053E-05-2.44726E-05-3.03140E-05 3.42004E-06 9.46134E-19 5.90406E-19
 -1       830 9.31963E-05-1.97736E-05-3.14680E-05 1.23243E-06 8.76194E-19-3.52173E-19
 -1       831 1.31487E-04-4.04834E-05-3.91865E-05 6.35498E-06-2.61699E-18-6.40225E-19
 -1       832 1.32723E-04-6.06071E-05-3.09176E-05 5.03395E-06 2.23172E-18-1.24133E-18
 -1       833 9.30863E-05-1.95752E-05-3.15059E-05 2.03069E-08 6.96935E-19-6.14727E-19
 -1       834 9.58657E-05-4.50213E-05-2.16940E-05 2.89775E-05 7.96505E-19 2.82823E-18
 -1       835 9.40176E-05-2.13480E-05-3.11451E-05 3.30504E-06 1.07305E-18 9.09278E-20
 -1       836 9.39909E-05-2.13051E-05-3.11540E-05-3.27485E-06-1.18106E-19-1.04674E-18
 -1       837 9.50030E-05-2.36340E-05-3.05856E-05-3.30790E-06-2.01534E-19-9.84151E-19
 -1       838 1.21381E-04-3.55886E-05-3.69169E-05-1.96458E-05 1.02531E-18 2.45805E-19
 -1       839 9.56911E-05-2.82714E-05-2.88942E-05-7.23924E-07 5.46938E-19 2.14936E-19
 -1       840 9.56292E-05-2.85906E-05-2.87308E-05-9.91127E-07 4.68979E-20 3.15551E-19
 -1       841 6.87714E-05-2.65809E-05-1.78945E-05 2.53201E-05 1.14689E-18 2.83677E-19
 -1       842 1.32624E-04-5.94052E-05-3.13884E-05 2.10297E-05-1.34269E-18 1.85687E-18
 -1       843 9.35132E-05-2.03600E-05-3.13526E-05 2.36154E-06 9.82064E-19-2.13547E-19
 -1       844 9.34927E-05-2.03259E-05-3.13581E-05-2.32525E-06 2.21007E-19-7.69433E-19
 -1       845 5.50369E-05-1.67509E-05-1.61958E-05-1.01101E-05-1.90495E-18-6.69460E-19
 -1       846 9.55468E-05-2.59306E-05-2.98369E-05 1.83855E-06 8.41541E-19 5.79106E-19
 -1       847 7.27599E-05-2.75161E-05-1.91643E-05-2.23732E-05-1.31239E-18 1.12353E-18
 -1       848 9.63601E-05-2.79253E-05-2.93293E-05 2.93011E-07-6.44838E-20-3.52443E-19
 -1       849 9.63811E-05-2.85187E-05-2.90839E-05 6.36818E-07 2.05803E-19-6.22828E-20
 -1       850 9.63177E-05-2.88747E-05-2.89042E-05 8.07201E-07 2.50441E-19-4.02567E-19
 -1       851 9.62103E-05-2.90664E-05-2.87760E-05 8.59055E-07 3.00288E-19-8.33319E-19
 -1       852 9.60843E-05-2.91467E-05-2.86876E-05 8.35730E-07 2.40185E-19-6.90846E-19
 -1       853 9.59552E-05-2.91530E-05-2.86295E-05 7.69778E-07 7.15146E-20-7.82619E-19
 -1       854 9.58315E-05-2.91114E-05-2.85943E-05 6.84904E-07-7.61329E-19-5.24351E-19
 -1       855 9.57175E-05-2.90392E-05-2.85764E-05 5.97809E-07-6.57180E-19-3.59654E-19
 -1       856 9.56138E-05-2.89469E-05-2.85715E-05 5.20377E-07-6.72720E-19-6.53441E-19
 -1       857 9.55189E-05-2.88403E-05-2.85765E-05 4.61262E-07-1.05311E-18-1.77231E-19
 -1       858 9.54296E-05-2.87212E-05-2.85893E-05 4.27152E-07-5.20043E-19-1.72572E-21
 -1       859 9.53413E-05-2.85886E-05-2.86083E-05 4.23814E-07-6.68577E-19 6.81739E-19
 -1       860 9.52485E-05-2.84394E-05-2.86325E-05 4.56892E-07 1.33831E-19 7.25368E-19
 -1       861 9.51448E-05-2.82693E-05-2.86609E-05 5.32473E-07 1.00325E-19 7.45508E-19
 -1       862 9.50230E-05-2.80733E-05-2.86927E-05 6.57459E-07-3.05746E-20 9.03303E-19
 -1       863 9.48759E-05-2.78468E-05-2.87268E-05 8.39759E-07 2.06444E-19-1.88003E-19
 -1       864 9.46963E-05-2.75868E-05-2.87612E-05 1.08830E-06 6.37487E-19-5.61495E-19
 -1       865 9.44782E-05-2.72938E-05-2.87933E-05 1.41287E-06-4.22670E-19-6.79044E-19
 -1       866 9.42185E-05-2.69741E-05-2.88191E-05 1.82372E-06-4.67715E-19-5.10503E-19
 -1       867 9.39195E-05-2.66429E-05-2.88328E-05 2.33113E-06-9.93055E-19-7.07977E-19
 -1       868 9.35923E-05-2.63294E-05-2.88269E-05 2.94474E-06-5.86188E-19 4.50325E-19
 -1       869 9.32630E-05-2.60825E-05-2.87916E-05 3.67290E-06-9.70546E-20 5.18692E-19
 -1       870 9.29809E-05-2.59781E-05-2.87154E-05 4.52192E-06 5.33931E-19 4.32464E-19
 -1       871 9.28297E-05-2.61285E-05-2.85862E-05 5.49474E-06-8.71743E-19 1.92878E-19
 -1       872 9.29440E-05-2.66921E-05-2.83935E-05 6.58783E-06-1.34763E-18 1.14267E-19
 -1       873 9.35307E-05-2.78827E-05-2.81345E-05 7.78160E-06-1.31295E-18-2.62769E-18
 -1       874 9.48932E-05-2.99711E-05-2.78233E-05 9.01598E-06 5.20113E-19-3.73246E-18
 -1       875 9.74589E-05-3.32696E-05-2.75089E-05 1.01356E-05-2.41794E-19-2.23951E-18
 -1       876 1.01783E-04-3.80546E-05-2.73103E-05 1.07472E-05-1.36156E-19-1.04546E-18
 -1       877 1.08378E-04-4.42628E-05-2.74778E-05 1.00153E-05 3.14825E-19-1.23541E-18
 -1       878 1.17318E-04-5.09176E-05-2.84232E-05 6.68327E-06 1.19955E-18-6.04027E-19
 -1       879 9.60407E-05-2.89846E-05-2.87384E-05-9.42858E-07 2.92955E-19-3.21638E-19
 -1       880 9.56304E-05-2.89985E-05-2.85565E-05-6.58982E-07-3.11352E-19 6.34108E-19
 -1       881 9.57228E-05-2.90574E-05-2.85709E-05-7.56627E-07-1.38167E-19 6.05415E-19
 -1       882 9.54739E-05-2.88295E-05-2.85619E-05-5.00726E-07-3.58798E-19 1.30297E-18
 -1       883 9.54058E-05-2.87270E-05-2.85766E-05-4.56873E-07-5.11226E-19 1.00546E-18
 -1       884 9.53399E-05-2.86122E-05-2.85976E-05-4.45102E-07-4.53327E-19 1.18915E-18
 -1       885 9.52712E-05-2.84819E-05-2.86240E-05-4.71368E-07-2.33363E-19 1.56652E-18
 -1       886 9.51939E-05-2.83309E-05-2.86556E-05-5.42065E-07-1.80017E-19 1.65984E-18
 -1       887 9.51007E-05-2.81526E-05-2.86920E-05-6.64459E-07 2.34507E-19 1.43747E-18
 -1       888 9.49825E-05-2.79388E-05-2.87330E-05-8.46907E-07 1.19101E-19 1.07414E-18
 -1       889 9.48284E-05-2.76802E-05-2.87778E-05-1.09886E-06 6.57122E-19 1.21541E-18
 -1       890 9.46248E-05-2.73671E-05-2.88247E-05-1.43063E-06-2.49498E-19 2.16608E-18
 -1       891 9.43549E-05-2.69896E-05-2.88708E-05-1.85288E-06-1.02950E-18 2.10053E-18
 -1       892 9.39983E-05-2.65389E-05-2.89111E-05-2.37593E-06-4.28722E-19 1.98037E-18
 -1       893 9.35310E-05-2.60097E-05-2.89377E-05-3.00898E-06-1.88746E-19 1.30560E-18
 -1       894 9.29260E-05-2.54036E-05-2.89381E-05-3.75956E-06-1.76616E-19 9.71054E-19
 -1       895 9.21556E-05-2.47355E-05-2.88942E-05-4.63418E-06 6.07550E-19-1.29979E-19
 -1       896 9.11974E-05-2.40437E-05-2.87800E-05-5.64123E-06 6.16125E-19 4.88841E-20
 -1       897 9.00445E-05-2.34056E-05-2.85594E-05-6.79936E-06-4.78495E-19-7.14609E-19
 -1       898 8.87258E-05-2.29624E-05-2.81842E-05-8.15591E-06 3.15115E-19-6.73191E-19
 -1       899 8.73471E-05-2.29613E-05-2.75937E-05-9.81645E-06 1.45748E-19 3.13419E-20
 -1       900 8.61512E-05-2.38058E-05-2.67184E-05-1.19800E-05-6.80630E-19 4.48559E-19
 -1       901 8.56550E-05-2.61644E-05-2.54951E-05-1.50003E-05-6.97432E-19-1.09548E-19
 -1       902 8.71438E-05-3.11195E-05-2.39672E-05-1.92449E-05-1.34144E-18-1.05040E-19
 -1       903 1.27700E-04-5.28886E-05-3.20956E-05-5.67628E-06 1.75015E-18-2.23322E-19
 -1       904 9.60532E-05-2.69555E-05-2.96135E-05 3.94012E-07 9.51729E-19 3.85371E-19
 -1       905 1.20023E-04-5.54634E-05-2.76757E-05 1.19508E-05 2.02179E-18-2.45821E-18
 -1       906 9.57785E-05-2.55808E-05-3.00853E-05-1.16261E-06-2.66533E-19-8.21458E-19
 -1       907 9.31855E-05-1.97569E-05-3.14704E-05-1.19257E-06 6.29366E-19-7.23770E-19
 -1       908 5.99370E-05-1.61613E-05-1.86318E-05 6.70708E-06-1.36058E-19 1.61463E-18
 -1       909 9.55479E-05-2.89207E-05-2.85545E-05-5.70497E-07-3.54429E-19 8.80721E-19
 -1       910 9.61900E-05-2.69898E-05-2.96571E-05-2.87548E-07-2.73593E-19-5.72619E-19
 -1       911 1.08994E-04-4.92091E-05-2.55355E-05 1.87981E-05 7.35317E-19-1.02451E-18
 -1       912 9.52391E-05-2.42187E-05-3.04391E-05 2.26600E-06 8.19725E-19 1.81025E-19
 -1       913 9.49137E-05-2.32237E-05-3.07236E-05-1.85701E-06 2.68719E-20-5.09458E-19
 -1       914 9.45357E-05-2.22685E-05-3.09717E-05 4.30981E-07 7.33715E-19-3.11120E-19
 -1       915 9.53254E-05-2.43604E-05-3.04134E-05-1.97210E-06-1.13844E-19-1.04173E-18
 -1       916 9.59328E-05-2.90710E-05-2.86551E-05-9.21308E-07 1.16500E-19-3.45436E-21
 -1       917 9.61359E-05-2.87919E-05-2.88617E-05-8.78234E-07 1.92665E-19-8.15480E-21
 -1       918 9.58247E-05-2.90872E-05-2.86018E-05-8.50370E-07 9.67328E-20 3.80915E-19
 -1       919 8.45394E-05-3.43360E-05-2.14617E-05 2.51770E-05 3.98238E-19 2.22578E-18
 -1       920 9.61890E-05-2.78644E-05-2.92820E-05-2.79553E-07 8.33434E-19 4.50271E-19
 -1       921 6.50111E-05-1.93295E-05-1.94749E-05 1.40919E-05 6.61496E-21 1.30935E-18
 -1       922 9.56869E-05-2.55516E-05-3.00566E-05 1.42660E-06 7.53694E-19 3.52810E-19
 -1       923 6.20026E-05-1.58505E-05-1.97107E-05-1.88574E-06-5.66741E-19-5.63753E-19
 -1       924 9.46750E-05-2.26029E-05-3.08888E-05 1.21440E-06 9.25764E-19-1.17309E-19
 -1       925 9.45321E-05-2.22615E-05-3.09730E-05-4.02935E-07 5.95785E-19-6.45954E-19
 -1       926 9.55671E-05-2.46843E-05-3.03778E-05-1.18781E-06 5.23123E-20-2.77309E-19
 -1       927 9.66648E-05-2.81490E-05-2.93640E-05 3.12143E-07-7.71414E-20 6.12704E-20
 -1       928 9.46700E-05-2.25827E-05-3.08939E-05-1.20113E-06 2.56081E-19-3.36146E-19
 -1       929 9.66839E-05-2.87213E-05-2.91268E-05 5.27188E-07 2.11106E-19-7.13659E-20
 -1       930 9.66042E-05-2.90556E-05-2.89494E-05 6.26556E-07 1.65557E-19-2.79027E-19
 -1       931 9.64701E-05-2.92235E-05-2.88200E-05 6.47777E-07 3.79963E-20-3.69155E-19
 -1       932 9.63116E-05-2.92783E-05-2.87286E-05 6.20252E-07 8.76655E-20-4.11015E-19
 -1       933 9.61473E-05-2.92578E-05-2.86669E-05 5.66594E-07-3.70188E-20-8.24393E-19
 -1       934 9.59882E-05-2.91890E-05-2.86282E-05 5.02971E-07-6.03226E-19-5.36053E-19
 -1       935 9.58388E-05-2.90887E-05-2.86072E-05 4.41020E-07-5.65763E-19-1.26294E-19
 -1       936 9.56998E-05-2.89670E-05-2.85997E-05 3.89345E-07-4.86043E-19-2.15860E-19
 -1       937 9.55686E-05-2.88287E-05-2.86028E-05 3.54304E-07-5.02900E-19 8.22184E-19
 -1       938 9.54402E-05-2.86743E-05-2.86139E-05 3.41065E-07-4.81225E-19 7.68679E-19
 -1       939 9.53078E-05-2.85012E-05-2.86314E-05 3.54412E-07 5.52567E-19 1.23881E-18
 -1       940 9.51630E-05-2.83046E-05-2.86536E-05 3.99314E-07-8.05200E-20 1.90007E-18
 -1       941 9.49960E-05-2.80782E-05-2.86791E-05 4.81374E-07 2.90284E-20 1.33779E-18
 -1       942 9.47960E-05-2.78155E-05-2.87059E-05 6.07172E-07-4.65852E-19 1.30353E-18
 -1       943 9.45516E-05-2.75107E-05-2.87319E-05 7.84529E-07 5.38960E-20 1.56351E-19
 -1       944 9.42516E-05-2.71600E-05-2.87536E-05 1.02273E-06-7.29001E-20-8.82949E-19
 -1       945 9.38859E-05-2.67641E-05-2.87665E-05 1.33276E-06-2.36886E-19-4.12108E-19
 -1       946 9.34474E-05-2.63309E-05-2.87643E-05 1.72759E-06 1.83377E-19 3.05292E-19
 -1       947 9.29352E-05-2.58791E-05-2.87385E-05 2.22277E-06-9.85935E-20 8.79098E-19
 -1       948 9.23580E-05-2.54430E-05-2.86780E-05 2.83737E-06-6.43388E-19 3.11735E-19
 -1       949 9.17405E-05-2.50792E-05-2.85693E-05 3.59571E-06-1.71926E-19-4.11291E-19
 -1       950 9.11317E-05-2.48739E-05-2.83964E-05 4.52986E-06 3.53957E-19-1.45627E-19
 -1       951 9.06169E-05-2.49527E-05-2.81420E-05 5.68298E-06-1.42232E-18 1.35351E-18
 -1       952 9.03364E-05-2.54927E-05-2.77900E-05 7.11300E-06-2.31170E-18 1.58565E-18
 -1       953 9.05180E-05-2.67431E-05-2.73314E-05 8.88614E-06-1.27922E-18 1.45704E-18
 -1       954 9.15120E-05-2.90307E-05-2.67756E-05 1.10562E-05 1.50711E-19-2.67643E-20
 -1       955 9.38624E-05-3.27987E-05-2.61692E-05 1.36130E-05 2.00811E-19-1.14876E-18
 -1       956 9.85386E-05-3.86248E-05-2.56744E-05 1.62738E-05 6.74905E-20-6.43910E-20
 -1       957 9.54440E-05-2.86985E-05-2.86052E-05-3.85525E-07-3.23260E-19 3.05207E-19
 -1       958 9.55547E-05-2.88380E-05-2.85929E-05-4.06699E-07-1.86016E-19 1.20590E-18
 -1       959 9.52078E-05-2.83615E-05-2.86485E-05-4.35010E-07-1.72865E-19 4.22662E-19
 -1       960 9.50646E-05-2.81514E-05-2.86771E-05-5.16174E-07 3.26159E-19 1.09444E-19
 -1       961 9.48894E-05-2.79020E-05-2.87089E-05-6.42681E-07-3.55148E-20 4.87821E-19
 -1       962 9.46678E-05-2.76029E-05-2.87421E-05-8.20927E-07 3.18194E-20 1.34822E-18
 -1       963 9.43826E-05-2.72427E-05-2.87742E-05-1.05751E-06-4.35102E-19 1.90867E-18
 -1       964 9.40133E-05-2.68100E-05-2.88015E-05-1.35870E-06-3.94176E-19 2.07254E-18
 -1       965 9.35354E-05-2.62938E-05-2.88179E-05-1.72974E-06-6.04182E-19 1.20867E-18
 -1       966 9.29200E-05-2.56859E-05-2.88147E-05-2.17400E-06-4.38379E-19 1.01386E-18
 -1       967 9.21335E-05-2.49825E-05-2.87790E-05-2.69248E-06 2.01798E-19 1.65313E-18
 -1       968 9.11372E-05-2.41883E-05-2.86924E-05-3.28435E-06 3.57973E-20 2.00248E-18
 -1       969 8.98885E-05-2.33212E-05-2.85289E-05-3.94992E-06 4.65593E-19 1.67165E-18
 -1       970 8.83425E-05-2.24204E-05-2.82524E-05-4.69746E-06-1.07968E-19 1.49298E-18
 -1       971 8.64507E-05-2.15536E-05-2.78134E-05-5.55882E-06 7.85816E-19 1.73385E-18
 -1       972 8.41614E-05-2.08278E-05-2.71434E-05-6.62716E-06-1.52765E-19 1.73733E-18
 -1       973 8.14320E-05-2.04266E-05-2.61453E-05-8.11404E-06-8.21061E-19 1.60576E-18
 -1       974 7.82239E-05-2.06293E-05-2.46767E-05-1.04449E-05-7.72061E-19 1.37246E-18
 -1       975 7.45512E-05-2.17806E-05-2.25893E-05-1.43315E-05-5.52940E-19 9.43424E-19
 -1       976 9.53310E-05-2.85414E-05-2.86241E-05-3.93265E-07-6.57983E-19 1.88642E-20
 -1       977 9.61971E-05-2.84424E-05-2.90377E-05-6.78033E-07 2.29170E-19 4.47745E-19
 -1       978 9.59402E-05-2.57730E-05-3.00724E-05 8.42945E-07 8.74015E-19-1.56835E-19
 -1       979 9.49300E-05-2.32584E-05-3.07172E-05 1.86408E-06 9.31197E-19 5.35019E-20
 -1       980 9.59270E-05-2.91594E-05-2.86147E-05-5.87868E-07-2.00656E-19 1.06442E-18
 -1       981 9.64801E-05-2.72399E-05-2.96743E-05-6.05001E-08 4.43266E-20 3.50520E-19
 -1       982 9.61456E-05-2.61655E-05-2.99922E-05-5.32198E-07-6.97094E-20 1.36983E-19
 -1       983 9.55105E-05-2.46184E-05-3.03796E-05 1.33783E-06 7.25783E-19-9.16951E-20
 -1       984 9.64862E-05-2.89809E-05-2.89308E-05-7.17361E-07 4.79455E-19 5.37190E-19
 -1       985 9.60705E-05-2.92161E-05-2.86519E-05-6.61360E-07-3.36369E-19 6.51552E-19
 -1       986 9.56695E-05-2.89625E-05-2.85887E-05-4.51626E-07-7.30402E-19 1.41367E-18
 -1       987 7.54656E-05-2.48565E-05-2.16933E-05 1.81053E-05 4.53186E-19 1.04224E-18
 -1       988 9.63635E-05-2.91585E-05-2.88021E-05-7.49551E-07 1.47823E-20 5.55532E-19
 -1       989 9.63619E-05-2.71449E-05-2.96646E-05 1.36378E-07 7.18404E-19 1.24356E-19
 -1       990 9.55616E-05-2.43434E-05-3.05219E-05 6.76014E-09 6.00205E-19-3.37424E-19
 -1       991 6.71300E-05-1.68384E-05-2.14968E-05 4.63952E-06-9.54163E-19 1.36330E-18
 -1       992 9.57927E-05-2.90711E-05-2.85950E-05-5.14386E-07-7.00389E-19 1.39020E-18
 -1       993 9.56046E-05-2.44840E-05-3.04790E-05 4.93932E-07 8.46929E-19 9.81436E-20
 -1       994 9.54217E-05-2.86282E-05-2.86258E-05-2.85993E-07-3.89989E-19 6.98957E-19
 -1       995 9.68790E-05-2.84166E-05-2.93411E-05 2.56478E-07-1.12235E-19 1.57859E-19
 -1       996 9.68700E-05-2.89270E-05-2.91185E-05 3.63361E-07-1.37774E-19 7.57964E-20
 -1       997 9.67627E-05-2.92112E-05-2.89507E-05 4.06690E-07 1.89004E-19-1.18377E-20
 -1       998 9.66020E-05-2.93380E-05-2.88275E-05 4.08036E-07 6.53243E-20-4.02566E-20
 -1       999 9.64186E-05-2.93586E-05-2.87400E-05 3.83539E-07-4.35959E-20 1.22772E-19
 -1      1000 9.62308E-05-2.93090E-05-2.86808E-05 3.47612E-07-1.17341E-19 1.87979E-19
 -1      1001 9.60492E-05-2.92142E-05-2.86436E-05 3.07453E-07-8.36373E-19-5.01271E-19
 -1      1002 9.58770E-05-2.90887E-05-2.86236E-05 2.71181E-07-3.66744E-19-4.00636E-19
 -1      1003 9.57141E-05-2.89416E-05-2.86168E-05 2.43537E-07-1.44322E-19-2.14436E-19
 -1      1004 9.55564E-05-2.87758E-05-2.86203E-05 2.28344E-07-2.66514E-19 2.80049E-20
 -1      1005 9.53969E-05-2.85899E-05-2.86316E-05 2.29057E-07 2.60933E-19 7.24033E-19
 -1      1006 9.52263E-05-2.83797E-05-2.86486E-05 2.49137E-07 7.59507E-19 4.99983E-19
 -1      1007 9.50336E-05-2.81385E-05-2.86694E-05 2.92461E-07-3.61559E-19 1.37872E-19
 -1      1008 9.48059E-05-2.78584E-05-2.86919E-05 3.63699E-07-3.58241E-19-4.93033E-19
 -1      1009 9.45290E-05-2.75314E-05-2.87134E-05 4.68678E-07-8.10681E-19-8.53895E-19
 -1      1010 9.41876E-05-2.71502E-05-2.87305E-05 6.14804E-07-4.44894E-20-1.23500E-19
 -1      1011 9.37663E-05-2.67104E-05-2.87384E-05 8.11584E-07 3.32185E-19-5.31023E-19
 -1      1012 9.32502E-05-2.62125E-05-2.87307E-05 1.07136E-06 2.64541E-19 3.69185E-19
 -1      1013 9.26273E-05-2.56646E-05-2.86986E-05 1.41037E-06-4.36168E-19 7.75052E-20
 -1      1014 9.18899E-05-2.50862E-05-2.86305E-05 1.85046E-06-1.96903E-19-5.66314E-19
 -1      1015 9.10388E-05-2.45126E-05-2.85116E-05 2.42162E-06-5.05536E-19 5.08007E-19
 -1      1016 9.00866E-05-2.40001E-05-2.83233E-05 3.16617E-06 1.54246E-19-1.88898E-19
 -1      1017 8.90648E-05-2.36330E-05-2.80428E-05 4.14461E-06 2.51086E-19-1.34212E-18
 -1      1018 8.80288E-05-2.35288E-05-2.76438E-05 5.44282E-06-8.90340E-19-3.76805E-19
 -1      1019 8.70845E-05-2.38631E-05-2.70952E-05 7.19575E-06-1.45123E-18 1.49993E-18
 -1      1020 8.63848E-05-2.48620E-05-2.63688E-05 9.58608E-06-1.68288E-18 2.11786E-18
 -1      1021 8.63101E-05-2.69463E-05-2.54464E-05 1.29716E-05 1.10242E-19 1.93103E-18
 -1      1022 9.46270E-05-2.76196E-05-2.87175E-05-5.28474E-07-4.01128E-19 6.80795E-19
 -1      1023 9.65587E-05-2.86379E-05-2.91089E-05-5.90116E-07 3.18323E-19 4.46308E-19
 -1      1024 9.55680E-05-2.88017E-05-2.86141E-05-2.90066E-07 1.08452E-19 5.05300E-19
 -1      1025 9.48837E-05-2.79369E-05-2.86915E-05-4.21962E-07-8.81830E-20 5.18437E-19
 -1      1026 9.50917E-05-2.82039E-05-2.86662E-05-3.48400E-07 1.74454E-19-1.86110E-19
 -1      1027 9.43027E-05-2.72402E-05-2.87412E-05-6.71124E-07-3.21060E-19 9.05399E-19
 -1      1028 9.38893E-05-2.67867E-05-2.87584E-05-8.52213E-07-5.38577E-19 9.90129E-19
 -1      1029 9.33614E-05-2.62480E-05-2.87630E-05-1.07236E-06-8.09828E-19 1.67058E-18
 -1      1030 9.26896E-05-2.56150E-05-2.87465E-05-1.32952E-06 1.99157E-20 1.54758E-18
 -1      1031 9.18398E-05-2.48823E-05-2.86963E-05-1.61795E-06-5.08411E-19 5.29554E-19
 -1      1032 9.07725E-05-2.40507E-05-2.85954E-05-1.92760E-06-7.36329E-20 9.60737E-19
 -1      1033 8.94403E-05-2.31287E-05-2.84196E-05-2.24485E-06 2.01109E-19 2.28266E-19
 -1      1034 8.77843E-05-2.21355E-05-2.81357E-05-2.55706E-06 5.46091E-19 3.76719E-19
 -1      1035 8.57364E-05-2.11093E-05-2.76979E-05-2.85893E-06-8.89800E-20-2.91623E-19
 -1      1036 8.31768E-05-2.00774E-05-2.70435E-05-3.15374E-06 9.80899E-20 1.02828E-18
 -1      1037 7.99419E-05-1.90991E-05-2.60768E-05-3.53453E-06-3.69562E-19 5.63892E-19
 -1      1038 7.57246E-05-1.81873E-05-2.46474E-05-4.16411E-06-1.07567E-18-7.44534E-19
 -1      1039 6.98895E-05-1.70881E-05-2.26047E-05-3.44328E-06 9.69257E-20-1.73885E-18
 -1      1040 9.52666E-05-2.84312E-05-2.86437E-05-3.04264E-07-2.10386E-19 8.00343E-20
 -1      1041 9.65375E-05-2.80577E-05-2.93486E-05-3.22001E-07 5.28471E-19 6.76468E-19
 -1      1042 9.62195E-05-2.92247E-05-2.87120E-05-7.22359E-07 1.45000E-19 5.37922E-19
 -1      1043 7.28561E-05-1.99050E-05-2.26910E-05 1.05246E-05-2.41366E-18 1.87993E-18
 -1      1044 9.56020E-05-2.44714E-05-3.04847E-05-4.93923E-07 3.65478E-19-2.04669E-19
 -1      1045 9.55356E-05-2.44641E-05-3.04575E-05 9.24533E-07 9.28154E-19-2.50069E-19
 -1      1046 9.60291E-05-2.92071E-05-2.86379E-05-3.98185E-07-5.89380E-19 1.42260E-18
 -1      1047 8.70122E-05-3.02303E-05-2.42954E-05 1.73387E-05 7.07130E-19 1.08390E-18
 -1      1048 9.67283E-05-2.75909E-05-2.96303E-05 6.30202E-08-1.10201E-19-4.28655E-20
 -1      1049 9.64281E-05-2.65998E-05-2.99258E-05-1.96299E-07 2.40071E-19-5.07079E-20
 -1      1050 9.62046E-05-2.92939E-05-2.86762E-05-4.50476E-07-6.13823E-19 1.08111E-18
 -1      1051 7.14753E-05-1.74769E-05-2.31154E-05 3.00033E-06-9.30366E-19-1.18374E-18
 -1      1052 9.57143E-05-2.89562E-05-2.86106E-05-3.12890E-07-4.06622E-19 3.07293E-19
 -1      1053 9.62732E-05-2.62760E-05-2.99993E-05 3.50077E-07 6.03891E-19 3.08753E-20
 -1      1054 9.67016E-05-2.91491E-05-2.89511E-05-5.13963E-07 3.04634E-19 8.94348E-19
 -1      1055 9.58669E-05-2.90927E-05-2.86175E-05-3.50523E-07-6.33419E-19 9.76367E-19
 -1      1056 9.62664E-05-2.59958E-05-3.01160E-05-1.06349E-07 3.47473E-19-2.80462E-19
 -1      1057 9.68035E-05-2.88492E-05-2.91238E-05-4.48254E-07 3.84999E-19 1.08898E-18
 -1      1058 9.62743E-05-2.60032E-05-3.01164E-05 1.08830E-07 5.48934E-19 7.90495E-20
 -1      1059 9.69446E-05-2.91067E-05-2.90731E-05 1.50064E-07 2.17187E-19 4.64279E-19
 -1      1060 9.68064E-05-2.93245E-05-2.89206E-05 1.59847E-07-1.20820E-20 5.15077E-19
 -1      1061 9.66177E-05-2.93983E-05-2.88085E-05 1.55678E-07-3.65328E-19 4.76827E-19
 -1      1062 9.64226E-05-2.93869E-05-2.87295E-05 1.42035E-07-3.05867E-19-8.23912E-20
 -1      1063 9.62245E-05-2.93096E-05-2.86778E-05 1.25913E-07-6.02590E-19-2.98713E-19
 -1      1064 9.60317E-05-2.91912E-05-2.86458E-05 1.12373E-07-4.12441E-19 6.88461E-20
 -1      1065 9.58488E-05-2.90458E-05-2.86298E-05 1.00211E-07-3.17822E-19 1.80553E-19
 -1      1066 9.56729E-05-2.88788E-05-2.86260E-05 9.21642E-08-2.28280E-19 2.29286E-19
 -1      1067 9.54981E-05-2.86910E-05-2.86316E-05 8.99132E-08 3.68484E-19 2.40873E-19
 -1      1068 9.53157E-05-2.84792E-05-2.86442E-05 9.50852E-08 4.69590E-19 1.98349E-19
 -1      1069 9.51142E-05-2.82372E-05-2.86615E-05 1.09566E-07-1.89134E-19 5.26140E-20
 -1      1070 9.48802E-05-2.79567E-05-2.86814E-05 1.35789E-07-1.14221E-18-7.35277E-21
 -1      1071 9.45980E-05-2.76283E-05-2.87012E-05 1.77078E-07-9.42493E-19-5.94043E-19
 -1      1072 9.42503E-05-2.72425E-05-2.87175E-05 2.38083E-07-1.83159E-19-6.99589E-19
 -1      1073 9.38181E-05-2.67908E-05-2.87258E-05 3.25390E-07-1.69705E-19-1.15420E-18
 -1      1074 9.32813E-05-2.62677E-05-2.87199E-05 4.48374E-07 5.60754E-19-1.66903E-18
 -1      1075 9.26197E-05-2.56724E-05-2.86914E-05 6.20408E-07 3.13881E-20-2.05068E-18
 -1      1076 9.18135E-05-2.50116E-05-2.86290E-05 8.60579E-07-5.17297E-19-1.96255E-18
 -1      1077 9.08452E-05-2.43026E-05-2.85177E-05 1.19611E-06 6.24544E-19-1.27454E-18
 -1      1078 8.96998E-05-2.35760E-05-2.83380E-05 1.66573E-06-2.53509E-19 1.26231E-19
 -1      1079 8.83658E-05-2.28793E-05-2.80648E-05 2.32427E-06-9.41725E-19 1.00245E-18
 -1      1080 8.68366E-05-2.22845E-05-2.76657E-05 3.25266E-06-3.45395E-19 4.00396E-19
 -1      1081 8.51676E-05-2.18949E-05-2.71125E-05 4.52905E-06-1.89131E-19 2.67350E-19
 -1      1082 8.32948E-05-2.18338E-05-2.63390E-05 6.36767E-06-2.25165E-19 1.60753E-18
 -1      1083 8.12563E-05-2.22601E-05-2.52813E-05 8.98586E-06-1.10776E-20 3.96065E-18
 -1      1084 9.39305E-05-2.68863E-05-2.87333E-05-3.83142E-07-6.31989E-19 1.45494E-18
 -1      1085 9.55280E-05-2.87292E-05-2.86281E-05-1.58116E-07-4.22085E-20 8.62575E-19
 -1      1086 9.46763E-05-2.77086E-05-2.87004E-05-2.50808E-07-5.03641E-19 8.65511E-19
 -1      1087 9.49425E-05-2.80255E-05-2.86787E-05-2.06645E-07-1.80529E-19 3.21254E-19
 -1      1088 9.34058E-05-2.63588E-05-2.87345E-05-4.67332E-07-6.97173E-19 1.11808E-18
 -1      1089 9.27450E-05-2.57420E-05-2.87157E-05-5.56372E-07-6.52740E-19 3.18885E-20
 -1      1090 9.19177E-05-2.50316E-05-2.86658E-05-6.39574E-07 2.37050E-19 8.21927E-19
 -1      1091 9.08900E-05-2.42292E-05-2.85693E-05-7.00118E-07 7.69807E-19 2.57523E-19
 -1      1092 8.96225E-05-2.33440E-05-2.84057E-05-7.13321E-07 8.65268E-19-8.84839E-19
 -1      1093 8.80672E-05-2.23935E-05-2.81467E-05-6.44743E-07 3.59085E-19-1.32542E-18
 -1      1094 8.61557E-05-2.13975E-05-2.77538E-05-4.46449E-07-2.60745E-19-1.89422E-19
 -1      1095 8.37692E-05-2.03667E-05-2.71750E-05-1.19736E-07-3.74816E-19 9.77860E-19
 -1      1096 8.09959E-05-1.95025E-05-2.63480E-05 3.99993E-07 1.43563E-19-3.66155E-19
 -1      1097 7.71581E-05-1.85131E-05-2.51368E-05 1.29128E-06 2.93168E-19-1.04557E-18
 -1      1098 9.69048E-05-2.79851E-05-2.95367E-05 6.15969E-08 8.55779E-20-4.31576E-20
 -1      1099 9.51630E-05-2.82947E-05-2.86579E-05-1.77196E-07-7.27201E-20-6.51412E-20
 -1      1100 9.43460E-05-2.73327E-05-2.87200E-05-3.09963E-07-5.13490E-19 1.35253E-18
 -1      1101 9.65523E-05-2.92932E-05-2.88253E-05-5.20580E-07 3.41886E-19 8.04641E-19
 -1      1102 9.60481E-05-2.92066E-05-2.86464E-05-2.03751E-07-2.55345E-19 9.17708E-19
 -1      1103 9.53537E-05-2.85264E-05-2.86403E-05-1.61479E-07 3.30920E-19 2.44659E-19
 -1      1104 9.69983E-05-2.86933E-05-2.92736E-05 1.19931E-07 6.67474E-20 2.50323E-19
 -1      1105 9.66391E-05-2.75055E-05-2.96280E-05-5.36608E-08 1.72935E-19 1.02014E-19
 -1      1106 9.62373E-05-2.93158E-05-2.86806E-05-2.28859E-07-8.40116E-19 9.68195E-19
 -1      1107 9.56967E-05-2.89090E-05-2.86233E-05-1.65453E-07-3.46308E-19 9.20747E-19
 -1      1108 9.58682E-05-2.90686E-05-2.86284E-05-1.81502E-07-2.40428E-19 7.15285E-19
 -1      1109 9.66993E-05-2.71757E-05-2.97961E-05-1.27267E-08 1.38686E-19 4.24406E-20
 -1      1110 9.68107E-05-2.83334E-05-2.93465E-05-2.90069E-07 3.02878E-19 6.76893E-19
 -1      1111 9.63800E-05-2.93276E-05-2.87369E-05-4.95203E-07-3.19304E-19 7.27365E-19
 -1      1112 9.68024E-05-2.92853E-05-2.89359E-05-2.76394E-07 2.99331E-19 5.23402E-19
 -1      1113 9.69295E-05-2.90408E-05-2.90949E-05-2.48507E-07 4.87135E-19 2.86605E-19
 -1      1114 7.81915E-05-1.98080E-05-2.50203E-05 5.83930E-06 8.33749E-19 1.51600E-18
 -1      1115 9.65419E-05-2.94127E-05-2.87694E-05-9.54960E-08-5.59993E-19 6.80219E-19
 -1      1116 8.13345E-05-2.02194E-05-2.62015E-05 3.79479E-06 9.83295E-19 1.31198E-18
 -1      1117 9.69903E-05-2.83766E-05-2.94056E-05-5.04268E-08-4.37800E-20-1.58881E-19
 -1      1118 9.67270E-05-2.72871E-05-2.97594E-05 7.57683E-09-1.17954E-20-7.48729E-20
 -1      1119 9.66324E-05-2.93858E-05-2.88198E-05-2.73236E-07-1.42765E-19 6.87415E-19
 -1      1120 9.68839E-05-2.78905E-05-2.95709E-05-5.24183E-08-2.56633E-19-1.16841E-19
 -1      1121 1.16859E-04 2.57581E-10-4.18571E-05-4.14650E-05-2.13452E-19 2.44433E-18
 -1      1122 8.86546E-05 7.19292E-11-3.72527E-05-2.41657E-05-8.67150E-20-1.20707E-18
 -1      1123 8.40789E-05 4.14619E-11-3.57674E-05-1.78746E-05-3.80106E-20-2.37679E-18
 -1      1124 8.23354E-05 3.20118E-11-3.50729E-05-1.38334E-05-1.17526E-20-2.72033E-18
 -1      1125 8.15314E-05 2.73394E-11-3.47385E-05-1.05304E-05 1.74701E-21-2.74467E-18
 -1      1126 8.11281E-05 2.45981E-11-3.45729E-05-7.63744E-06 8.61591E-21-2.59062E-18
 -1      1127 8.09175E-05 2.29429E-11-3.44889E-05-4.97767E-06 1.27551E-20-2.36294E-18
 -1      1128 8.08151E-05 2.20495E-11-3.44493E-05-2.43118E-06 2.39700E-20-2.08734E-18
 -1      1129 8.07859E-05 2.17790E-11-3.44382E-05 5.24205E-08 2.81341E-20-1.81349E-18
 -1      1130 8.08195E-05 2.20937E-11-3.44508E-05 2.53856E-06 3.94979E-20-1.52194E-18
 -1      1131 8.09265E-05 2.30447E-11-3.44918E-05 5.09353E-06 3.65448E-20-1.18854E-18
 -1      1132 8.11432E-05 2.47626E-11-3.45768E-05 7.76984E-06 4.63817E-20-7.02197E-19
 -1      1133 8.15531E-05 2.76379E-11-3.47446E-05 1.06901E-05 6.20452E-20-2.65360E-20
 -1      1134 8.23591E-05 3.25001E-11-3.50831E-05 1.40394E-05 6.71538E-20 9.23253E-19
 -1      1135 8.40761E-05 4.19288E-11-3.57877E-05 1.81263E-05 6.74979E-20 2.38346E-18
 -1      1136 8.83521E-05 6.67528E-11-3.73228E-05 2.40082E-05 4.19281E-20 4.68060E-18
 -1      1137 1.06624E-04 1.63937E-10-4.06358E-05 3.61914E-05 4.02341E-21 8.46186E-18
 -1      1138 1.30226E-04-2.57579E-05-4.02756E-05-2.61055E-05-7.60424E-19 4.62184E-18
 -1      1139 9.74649E-05-2.88651E-05-3.15803E-05-6.79948E-07-2.60992E-19 2.85810E-18
 -1      1140 9.01699E-05-2.70296E-05-2.78962E-05 3.87177E-07-6.30245E-20 9.04777E-19
 -1      1141 8.82602E-05-2.65757E-05-2.66470E-05 2.50816E-07-7.70635E-20-7.40122E-19
 -1      1142 8.79028E-05-2.64493E-05-2.63910E-05 1.65943E-07-2.04843E-20-1.46629E-18
 -1      1143 8.82634E-05-2.65263E-05-2.64763E-05 1.18173E-07-3.75375E-20-1.97242E-18
 -1      1144 8.89512E-05-2.67113E-05-2.66795E-05 8.75887E-08-1.92857E-20-2.28387E-18
 -1      1145 8.97670E-05-2.69434E-05-2.69224E-05 6.63754E-08-3.68579E-20-2.92253E-18
 -1      1146 9.06005E-05-2.71862E-05-2.71708E-05 5.06909E-08 1.80119E-20-3.29267E-18
 -1      1147 9.13894E-05-2.74186E-05-2.74066E-05 3.86171E-08-3.81016E-20-4.04973E-18
 -1      1148 9.21002E-05-2.76294E-05-2.76198E-05 2.91315E-08 4.28049E-20-4.94842E-18
 -1      1149 9.27180E-05-2.78134E-05-2.78057E-05 2.16219E-08-7.62143E-20-5.07503E-18
 -1      1150 9.32396E-05-2.79693E-05-2.79630E-05 1.56742E-08-4.33021E-20-5.72767E-18
 -1      1151 9.36692E-05-2.80980E-05-2.80930E-05 1.09798E-08 1.12089E-19-4.95383E-18
 -1      1152 9.40156E-05-2.82021E-05-2.81982E-05 7.29456E-09-1.13969E-19-4.41243E-18
 -1      1153 9.42903E-05-2.82849E-05-2.82818E-05 4.42180E-09 3.61947E-20-4.64084E-18
 -1      1154 9.45063E-05-2.83502E-05-2.83478E-05 2.20479E-09-8.55452E-20-4.35347E-18
 -1      1155 9.46774E-05-2.84022E-05-2.84005E-05 5.24763E-10-6.70609E-20-4.62132E-18
 -1      1156 9.48185E-05-2.84453E-05-2.84441E-05-6.98441E-10-1.18634E-19-5.11799E-18
 -1      1157 9.49453E-05-2.84841E-05-2.84835E-05-1.50407E-09 2.49038E-19-5.85547E-18
 -1      1158 9.50749E-05-2.85240E-05-2.85240E-05-1.88654E-09-5.05924E-20-4.99262E-18
 -1      1159 9.52266E-05-2.85706E-05-2.85713E-05-1.79017E-09-7.35148E-20-5.10902E-18
 -1      1160 9.54224E-05-2.86306E-05-2.86322E-05-1.10271E-09 2.56514E-20-4.69345E-18
 -1      1161 9.56879E-05-2.87117E-05-2.87143E-05 3.51387E-10 1.09780E-19-4.23878E-18
 -1      1162 9.60525E-05-2.88225E-05-2.88266E-05 2.81607E-09 5.61159E-21-3.77920E-18
 -1      1163 9.65501E-05-2.89733E-05-2.89792E-05 6.60316E-09-2.74369E-19-4.52620E-18
 -1      1164 9.72176E-05-2.91750E-05-2.91830E-05 1.20785E-08 4.20465E-19-4.66637E-18
 -1      1165 9.80936E-05-2.94389E-05-2.94493E-05 1.96209E-08-1.12597E-19-3.88825E-18
 -1      1166 9.92135E-05-2.97752E-05-2.97880E-05 2.95301E-08-5.59844E-20-2.54840E-18
 -1      1167 1.00602E-04-3.01908E-05-3.02055E-05 4.18445E-08-9.03604E-20-2.77162E-18
 -1      1168 1.02260E-04-3.06855E-05-3.07003E-05 5.60130E-08-3.82183E-19-3.46888E-18
 -1      1169 1.04146E-04-3.12457E-05-3.12572E-05 7.03543E-08 2.46112E-19-2.04238E-18
 -1      1170 1.06148E-04-3.18370E-05-3.18387E-05 8.12681E-08-2.39287E-20-2.53840E-18
 -1      1171 1.08047E-04-3.23936E-05-3.23764E-05 8.23030E-08 2.06230E-19-1.85789E-18
 -1      1172 1.09490E-04-3.28097E-05-3.27617E-05 6.35601E-08-8.76977E-21-9.85860E-19
 -1      1173 1.09972E-04-3.29356E-05-3.28468E-05 1.25750E-08 5.61987E-20 5.58565E-19
 -1      1174 1.08879E-04-3.25914E-05-3.24607E-05-8.13906E-08-1.80223E-19-2.22457E-18
 -1      1175 1.05629E-04-3.16096E-05-3.14556E-05-2.17994E-07 1.72378E-19-2.50830E-18
 -1      1176 9.99413E-05-2.99151E-05-2.97817E-05-3.72956E-07-2.75729E-19-2.32029E-18
 -1      1177 9.21783E-05-2.76227E-05-2.75704E-05-4.91301E-07 1.15723E-19-1.84770E-18
 -1      1178 8.35659E-05-2.50967E-05-2.51720E-05-5.03027E-07-1.42343E-19-4.52009E-18
 -1      1179 7.60131E-05-2.28899E-05-2.30907E-05-3.65977E-07-2.67401E-19-4.75466E-18
 -1      1180 7.14180E-05-2.15435E-05-2.18076E-05-1.10429E-07-1.91244E-20-5.41466E-18
 -1      1181 7.07680E-05-2.13373E-05-2.15730E-05 1.62911E-07 4.40007E-19-3.56511E-18
 -1      1182 7.36707E-05-2.21642E-05-2.23038E-05 3.47459E-07 2.84401E-19-2.38493E-19
 -1      1183 7.86995E-05-2.36239E-05-2.36579E-05 4.02412E-07 1.29005E-19 8.51480E-19
 -1      1184 8.42616E-05-2.52610E-05-2.52224E-05 3.67167E-07 2.32190E-19 2.68843E-18
 -1      1185 8.92911E-05-2.67619E-05-2.66701E-05 3.07675E-07-4.91395E-20 6.25444E-18
 -1      1186 9.32281E-05-2.79496E-05-2.77670E-05 2.37953E-07-1.47367E-19 3.35362E-18
 -1      1187 9.51091E-05-2.85509E-05-2.84003E-05 1.16732E-08 4.91316E-19 3.41527E-18
 -1      1188 1.31060E-04-3.77399E-05-3.86611E-05 1.21745E-05-1.29199E-19 1.11791E-17
 -1      1189 9.65666E-05-2.81918E-05-3.13327E-05 8.01356E-07-2.65757E-20 1.07331E-17
 -1      1190 9.03836E-05-2.69322E-05-2.78770E-05 1.20133E-07-2.28964E-20 1.00142E-17
 -1      1191 8.83466E-05-2.65029E-05-2.66833E-05 8.99451E-09 5.76313E-20 8.97040E-18
 -1      1192 8.79434E-05-2.64119E-05-2.64181E-05-2.52969E-08-2.82151E-20 8.55284E-18
 -1      1193 8.82854E-05-2.65090E-05-2.64922E-05-3.43365E-08 8.54329E-20 7.82439E-18
 -1      1194 8.89642E-05-2.67044E-05-2.66897E-05-3.55456E-08-5.20880E-20 7.61495E-18
 -1      1195 8.97752E-05-2.69421E-05-2.69297E-05-3.38618E-08-6.60185E-20 7.76308E-18
 -1      1196 9.06057E-05-2.71878E-05-2.71764E-05-3.08419E-08 4.49897E-20 6.54632E-18
 -1      1197 9.13927E-05-2.74217E-05-2.74109E-05-2.71959E-08-1.28141E-20 6.12621E-18
 -1      1198 9.21022E-05-2.76331E-05-2.76230E-05-2.33408E-08 9.35950E-20 5.62256E-18
 -1      1199 9.27192E-05-2.78172E-05-2.78080E-05-1.95379E-08-3.42543E-20 5.23089E-18
 -1      1200 9.32400E-05-2.79728E-05-2.79647E-05-1.59437E-08 1.04318E-19 4.96086E-18
 -1      1201 9.36689E-05-2.81011E-05-2.80941E-05-1.26394E-08-2.52088E-19 5.49762E-18
 -1      1202 9.40146E-05-2.82046E-05-2.81986E-05-9.65111E-09 3.36611E-20 5.58753E-18
 -1      1203 9.42882E-05-2.82867E-05-2.82817E-05-6.96476E-09 5.29719E-20 5.02126E-18
 -1      1204 9.45028E-05-2.83511E-05-2.83471E-05-4.53834E-09-1.17295E-19 4.87277E-18
 -1      1205 9.46721E-05-2.84021E-05-2.83989E-05-2.31152E-09 8.83733E-20 3.98580E-18
 -1      1206 9.48106E-05-2.84440E-05-2.84416E-05-2.13170E-10-2.82922E-23 2.41578E-18
 -1      1207 9.49339E-05-2.84815E-05-2.84798E-05 1.83241E-09-1.94412E-19 3.34325E-18
 -1      1208 9.50593E-05-2.85197E-05-2.85189E-05 3.90002E-09-3.70273E-20 4.10873E-18
 -1      1209 9.52063E-05-2.85647E-05-2.85648E-05 6.05793E-09-1.34657E-19 5.19867E-18
 -1      1210 9.53982E-05-2.86234E-05-2.86246E-05 8.36081E-09-2.04646E-19 5.72610E-18
 -1      1211 9.56629E-05-2.87042E-05-2.87069E-05 1.08390E-08 3.03878E-19 3.58142E-18
 -1      1212 9.60349E-05-2.88176E-05-2.88221E-05 1.34812E-08 7.71989E-20 3.94523E-18
 -1      1213 9.65568E-05-2.89763E-05-2.89834E-05 1.62035E-08 1.87330E-19 4.37138E-18
 -1      1214 9.72818E-05-2.91964E-05-2.92070E-05 1.87967E-08-1.59134E-19 5.00921E-18
 -1      1215 9.82754E-05-2.94975E-05-2.95128E-05 2.08333E-08-2.03690E-19 5.37672E-18
 -1      1216 9.96169E-05-2.99030E-05-2.99249E-05 2.15114E-08-1.00425E-19 4.61295E-18
 -1      1217 1.01399E-04-3.04405E-05-3.04712E-05 1.94022E-08 8.11985E-20 4.46397E-18
 -1      1218 1.03726E-04-3.11400E-05-3.11821E-05 1.20744E-08 2.09687E-19 4.24308E-18
 -1      1219 1.06698E-04-3.20300E-05-3.20856E-05-4.37411E-09 1.46466E-19 4.23073E-18
 -1      1220 1.10386E-04-3.31290E-05-3.31978E-05-3.56513E-08-2.40653E-19 7.80599E-18
 -1      1221 1.14773E-04-3.44281E-05-3.45027E-05-8.87369E-08-2.85768E-19 9.27586E-18
 -1      1222 1.19652E-04-3.58620E-05-3.59194E-05-1.68698E-07-1.25916E-19 8.39113E-18
 -1      1223 1.24464E-04-3.72629E-05-3.72546E-05-2.69842E-07 3.40992E-19 4.84770E-18
 -1      1224 1.28098E-04-3.83093E-05-3.81571E-05-3.59059E-07 9.77628E-20 2.49605E-18
 -1      1225 1.28790E-04-3.84994E-05-3.81207E-05-3.57601E-07 4.09951E-20 1.70792E-18
 -1      1226 1.24401E-04-3.72304E-05-3.66174E-05-1.52300E-07-1.63510E-19 1.61984E-18
 -1      1227 1.13492E-04-3.40819E-05-3.34185E-05 3.11326E-07 8.39621E-20 2.79521E-19
 -1      1228 9.71539E-05-2.93039E-05-2.90000E-05 8.80430E-07-2.09844E-19 5.87841E-19
 -1      1229 8.01940E-05-2.42159E-05-2.46498E-05 1.16776E-06 2.60132E-20 7.25272E-19
 -1      1230 6.94818E-05-2.08265E-05-2.19208E-05 8.54469E-07-2.87938E-19 2.18587E-18
 -1      1231 6.92212E-05-2.05996E-05-2.16727E-05 9.32866E-08 4.53586E-19-8.60850E-19
 -1      1232 7.72455E-05-2.30104E-05-2.34619E-05-5.67261E-07-1.45253E-20-1.50814E-18
 -1      1233 8.72747E-05-2.61491E-05-2.59012E-05-7.55902E-07-3.50053E-19-7.09814E-19
 -1      1234 9.38969E-05-2.82625E-05-2.77098E-05-5.09342E-07 2.19663E-19-3.41778E-18
 -1      1235 9.57698E-05-2.88711E-05-2.84468E-05-1.38610E-07 2.04052E-19-3.53708E-18
 -1      1236 9.50932E-05-2.86303E-05-2.84605E-05 1.43085E-08 5.79991E-19-4.96139E-18
 -1      1237 9.48793E-05-2.84740E-05-2.82557E-05-1.03765E-07-1.45663E-19-3.55580E-18
 -1      1238 9.53510E-05-2.89021E-05-2.83835E-05-1.29615E-07-3.66812E-18-4.32467E-20
 -1      1239 9.51134E-05-2.84369E-05-2.89699E-05-1.58179E-07-3.44961E-18-2.64188E-19
 -1      1240 9.38141E-05-2.43049E-05-3.04726E-05 1.97200E-07 4.62692E-19 7.49558E-19
 -1      1241 9.07789E-05-1.42279E-05-3.35390E-05 7.41678E-07 2.18143E-18 1.92614E-19
 -1      1242 8.59519E-05 2.14518E-06-3.81050E-05 1.27398E-06-5.62006E-19 2.15236E-19
 -1      1243 8.03497E-05 2.14681E-05-4.31755E-05 1.41327E-06-1.21147E-18-3.69148E-19
 -1      1244 7.59854E-05 3.67193E-05-4.70075E-05 8.55125E-07 3.41206E-18 3.61789E-19
 -1      1245 7.48789E-05 4.07081E-05-4.79626E-05-2.26267E-07 7.15809E-18-7.18575E-19
 -1      1246 7.75727E-05 3.12249E-05-4.55514E-05-1.16587E-06 1.83129E-18-8.82913E-19
 -1      1247 8.29797E-05 1.25013E-05-4.07278E-05-1.51204E-06 4.34528E-19 1.12440E-18
 -1      1248 8.89173E-05-7.90422E-06-3.52457E-05-1.23039E-06 4.07762E-18 3.42301E-19
 -1      1249 9.36640E-05-2.39497E-05-3.06907E-05-6.55307E-07 6.98421E-18 5.32241E-19
 -1      1250 9.63632E-05-3.29098E-05-2.79258E-05-1.23257E-07 3.07521E-18 3.99581E-19
 -1      1251 9.71742E-05-3.54463E-05-2.69255E-05 2.28279E-07-5.40248E-19-2.28156E-19
 -1      1252 9.67808E-05-3.37909E-05-2.71434E-05 3.98313E-07-4.06946E-19-5.85694E-19
 -1      1253 9.58245E-05-3.06339E-05-2.78301E-05 3.68041E-07-1.89950E-18-4.85708E-19
 -1      1254 9.52265E-05-2.87269E-05-2.84180E-05 9.57191E-08-2.83961E-18 1.05681E-19
 -1      1255 4.26831E-05-1.33300E-04 2.23448E-05-1.75731E-05 2.98283E-18 1.66151E-19
 -1      1256 2.11215E-05-8.00473E-05 1.20078E-05-2.98110E-05 4.82470E-18 2.13749E-18
 -1      1257 9.69143E-06-1.12334E-05-6.70353E-06 5.49253E-07 8.88876E-18 5.64971E-18
 -1      1258 3.94740E-05 2.91781E-05-2.95381E-05 6.26847E-05 7.95533E-18 6.40357E-18
 -1      1259 1.22382E-04 1.64234E-05-5.24158E-05 1.17582E-04 3.10268E-18 4.29107E-18
 -1      1260 2.33911E-04-3.60482E-05-7.15789E-05 1.25523E-04 1.77919E-18 2.48689E-18
 -1      1261 3.20951E-04-8.81916E-05-8.30766E-05 7.17724E-05 1.28008E-19-5.53960E-19
 -1      1262 3.39938E-04-1.03146E-04-8.45018E-05-1.57465E-05-1.75706E-19-4.76160E-18
 -1      1263 2.77299E-04-6.85210E-05-7.57540E-05-9.05122E-05 8.44068E-19-3.68375E-18
 -1      1264 1.64644E-04-1.15034E-05-5.77206E-05-1.09649E-04 1.74489E-19-5.48877E-19
 -1      1265 6.51286E-05 2.07068E-05-3.53882E-05-7.49074E-05-4.06576E-19-8.25010E-19
 -1      1266 1.41043E-05 6.04415E-06-1.37472E-05-1.76646E-05-2.45470E-18 1.24937E-18
 -1      1267 1.03086E-05-4.66737E-05 5.71263E-06 2.45961E-05 1.71948E-18 3.04932E-20
 -1      1268 3.05848E-05-1.05168E-04 1.88564E-05 2.99813E-05 1.21321E-17-1.29998E-18
 -1      1269 4.19085E-05-1.28383E-04 2.30483E-05 2.58943E-06 1.63009E-17-4.87520E-19
 -1      1270 3.08628E-05-1.03146E-04 1.82641E-05-2.46065E-05 3.65749E-18-3.08320E-19
 -1      1271 1.18549E-05-4.66710E-05 5.51597E-06-2.25710E-05-4.46895E-18-2.95360E-18
 -1      1272 1.41805E-05 7.53821E-06-1.36233E-05 1.97116E-05-7.29126E-18-4.95768E-18
 -1      1273 6.01130E-05 2.59122E-05-3.55261E-05 7.76716E-05-6.11219E-18-6.39510E-18
 -1      1274 1.45055E-04 9.70654E-07-5.54672E-05 1.14757E-04-3.91668E-18-6.30023E-18
 -1      1275 2.43810E-04-4.87444E-05-7.16406E-05 1.08090E-04-3.14588E-18-8.41527E-18
 -1      1276 3.17470E-04-9.09683E-05-8.20417E-05 5.06428E-05-1.30425E-18-7.38952E-18
 -1      1277 3.33532E-04-9.96358E-05-8.42648E-05-3.15622E-05 5.99143E-19-6.15708E-18
 -1      1278 2.81657E-04-6.66093E-05-7.80419E-05-1.01088E-04-2.65545E-19-9.17337E-19
 -1      1279 1.88547E-04-1.37494E-05-6.44649E-05-1.27958E-04-2.60547E-18 4.93990E-18
 -1      1280 9.31466E-05 2.55836E-05-4.57469E-05-1.04708E-04-1.79063E-18 2.56820E-18
 -1      1281 2.80184E-05 2.61947E-05-2.43985E-05-4.91634E-05-7.93162E-18 5.39052E-18
 -1      1282 8.82880E-06-1.96998E-05-3.13409E-06 7.17724E-06-1.09775E-17 6.28329E-18
 -1      1283 2.39436E-05-8.72229E-05 1.37641E-05 3.04051E-05-4.92041E-18 1.72879E-18
 -1      1284 4.32680E-05-1.34501E-04 2.25899E-05 1.53184E-05 4.11192E-18 1.45690E-19
 -1      1285 1.04449E-04-2.20208E-05-3.78942E-05-1.72745E-05-2.93073E-19 1.39316E-18
 -1      1286 9.03238E-05-6.68215E-06-3.60185E-05-2.04700E-05-4.75503E-19-1.77692E-18
 -1      1287 9.26609E-05-6.74093E-06-3.72238E-05-2.57585E-05-7.22943E-19-1.15069E-18
 -1      1288 8.59049E-05-4.09734E-06-3.51301E-05-1.64295E-05-3.33943E-19-2.56466E-18
 -1      1289 8.71596E-05-4.09060E-06-3.56001E-05-1.88508E-05-4.36010E-19-2.28024E-18
 -1      1290 9.21385E-05-1.04648E-05-3.50946E-05-1.90337E-05-7.72573E-19-1.49115E-18
 -1      1291 8.40950E-05-3.18932E-06-3.46864E-05-1.28163E-05-1.33633E-19-2.76191E-18
 -1      1292 8.47047E-05-3.15897E-06-3.49108E-05-1.46290E-05-2.15782E-19-2.71765E-18
 -1      1293 8.78635E-05-7.39457E-06-3.45734E-05-1.54074E-05-4.88209E-19-2.16110E-18
 -1      1294 8.31848E-05-2.72803E-06-3.44699E-05-9.68313E-06 3.84209E-20-2.71524E-18
 -1      1295 8.35000E-05-2.71143E-06-3.45793E-05-1.12309E-05-1.56304E-20-2.76105E-18
 -1      1296 8.58630E-05-5.98374E-06-3.43049E-05-1.19573E-05-1.66535E-19-2.31161E-18
 -1      1297 8.26896E-05-2.45604E-06-3.43628E-05-6.91282E-06 1.80084E-19-2.54024E-18
 -1      1298 8.28602E-05-2.44777E-06-3.44177E-05-8.28327E-06 1.30708E-19-2.63037E-18
 -1      1299 8.48184E-05-5.21532E-06-3.41726E-05-8.93976E-06 1.18604E-19-2.24241E-18
 -1      1300 8.24132E-05-2.29087E-06-3.43092E-05-4.29391E-06 2.82843E-19-2.31642E-18
 -1      1301 8.25047E-05-2.28696E-06-3.43368E-05-5.59484E-06 2.70534E-19-2.46090E-18
 -1      1302 8.42297E-05-4.75950E-06-3.41083E-05-6.21540E-06 3.60245E-19-2.10159E-18
 -1      1303 8.22802E-05-2.20156E-06-3.42866E-05-1.78957E-06 3.97315E-19-2.00559E-18
 -1      1304 8.23194E-05-2.19996E-06-3.42978E-05-3.04030E-06 3.59259E-19-2.15891E-18
 -1      1305 8.39067E-05-4.49641E-06-3.40787E-05-3.64400E-06 5.00404E-19-1.84124E-18
 -1      1306 8.22540E-05-2.17402E-06-3.42839E-05 6.69613E-07 5.16717E-19-1.71748E-18
 -1      1307 8.22526E-05-2.17406E-06-3.42835E-05-5.65958E-07 4.85893E-19-1.87659E-18
 -1      1308 8.37649E-05-4.37672E-06-3.40676E-05-1.17033E-06 7.10001E-19-1.56151E-18
 -1      1309 8.23281E-05-2.20430E-06-3.42993E-05 3.14757E-06 6.41409E-19-1.44632E-18
 -1      1310 8.22860E-05-2.20593E-06-3.42874E-05 1.89423E-06 6.00681E-19-1.60824E-18
 -1      1311 8.37698E-05-4.38091E-06-3.40680E-05 1.27340E-06 9.00729E-19-1.32828E-18
 -1      1312 8.25222E-05-2.29742E-06-3.43393E-05 5.71130E-06 7.07756E-19-1.10466E-18
 -1      1313 8.24271E-05-2.30078E-06-3.43111E-05 4.40439E-06 6.95086E-19-1.32235E-18
 -1      1314 8.39224E-05-4.50995E-06-3.40798E-05 3.75123E-06 1.08732E-18-1.05438E-18
 -1      1315 8.28831E-05-2.46327E-06-3.44200E-05 8.39254E-06 7.90288E-19-5.86120E-19
 -1      1316 8.27096E-05-2.47194E-06-3.43648E-05 7.01299E-06 7.53026E-19-8.81152E-19
 -1      1317 8.42560E-05-4.78326E-06-3.41093E-05 6.30921E-06 1.19728E-18-6.90041E-19
 -1      1318 8.35429E-05-2.74081E-06-3.45841E-05 1.13924E-05 9.11355E-19 1.04992E-19
 -1      1319 8.32207E-05-2.75788E-06-3.44730E-05 9.82761E-06 8.39482E-19-2.94569E-19
 -1      1320 8.48604E-05-5.25676E-06-3.41729E-05 9.05180E-06 1.33047E-18-1.40978E-19
 -1      1321 8.47660E-05-3.20333E-06-3.49194E-05 1.48411E-05 9.64426E-19 1.12134E-18
 -1      1322 8.41527E-05-3.24003E-06-3.46924E-05 1.30008E-05 8.92561E-19 5.25107E-19
 -1      1323 8.59455E-05-6.06238E-06-3.43063E-05 1.21200E-05 1.42760E-18 5.12587E-19
 -1      1324 8.72585E-05-4.09086E-06-3.56218E-05 1.90888E-05 9.46295E-19 2.67167E-18
 -1      1325 8.59742E-05-4.15467E-06-3.51382E-05 1.66905E-05 8.74350E-19 1.76503E-18
 -1      1326 8.79928E-05-7.51749E-06-3.45763E-05 1.56478E-05 1.44612E-18 1.62323E-18
 -1      1327 9.34735E-05-6.79353E-06-3.71191E-05 2.50946E-05 6.08276E-19 5.09088E-18
 -1      1328 9.01389E-05-6.43893E-06-3.60411E-05 2.11468E-05 6.70638E-19 3.65728E-18
 -1      1329 9.23674E-05-1.06994E-05-3.50798E-05 1.96741E-05 1.23423E-18 3.22884E-18
 -1      1330 1.23635E-04-2.49256E-05-3.90176E-05 2.83660E-05 1.30125E-19 8.56774E-18
 -1      1331 1.00090E-04-1.44259E-05-3.73568E-05 2.40491E-05 2.17370E-19 6.27101E-18
 -1      1332 1.01688E-04-1.93448E-05-3.54050E-05 2.13966E-05 8.73437E-19 5.33059E-18
 -1      1333 1.02615E-04-2.78083E-05-3.47608E-05 7.32791E-06 3.52842E-19 8.65646E-18
 -1      1334 1.05158E-04-3.02334E-05-3.35286E-05-7.95803E-06-6.47874E-19 1.70169E-18
 -1      1335 9.82725E-05-2.78466E-05-3.07656E-05-4.98698E-06-5.47819E-19 9.25913E-19
 -1      1336 9.55156E-05-2.78531E-05-2.92583E-05-2.48854E-06-4.08455E-19 6.92889E-19
 -1      1337 9.32843E-05-2.75625E-05-2.82193E-05-2.04192E-06-4.47366E-19-2.80315E-20
 -1      1338 9.94960E-05-2.80560E-05-3.09861E-05-7.88407E-06-9.48889E-19 3.61312E-20
 -1      1339 9.15954E-05-2.72047E-05-2.75852E-05-8.37264E-07-3.93665E-19-1.74303E-19
 -1      1340 9.08797E-05-2.71096E-05-2.72833E-05-7.27068E-07-3.54047E-19-7.69926E-19
 -1      1341 9.47306E-05-2.77737E-05-2.88201E-05-3.11854E-06-7.79032E-19-3.03132E-19
 -1      1342 9.01304E-05-2.69270E-05-2.70403E-05-1.72744E-07-1.68206E-19-9.92431E-19
 -1      1343 9.00590E-05-2.69542E-05-2.70058E-05-1.14603E-07-1.24828E-19-1.26373E-18
 -1      1344 9.25328E-05-2.75036E-05-2.78998E-05-1.05119E-06-5.21236E-19-6.26262E-19
 -1      1345 8.98006E-05-2.68871E-05-2.69319E-05 1.55718E-07-1.16350E-19-1.29305E-18
 -1      1346 9.00165E-05-2.69776E-05-2.69939E-05 1.84392E-07-1.01273E-19-1.43028E-18
 -1      1347 9.15761E-05-2.73604E-05-2.75334E-05-6.75238E-08-2.32160E-19-9.20248E-19
 -1      1348 9.00213E-05-2.69810E-05-2.70007E-05 3.15387E-07-2.53119E-19-1.46325E-18
 -1      1349 9.03648E-05-2.71010E-05-2.71001E-05 3.27078E-07-2.27847E-19-1.78949E-18
 -1      1350 9.13250E-05-2.73492E-05-2.74260E-05 4.19653E-07-3.38605E-19-8.20838E-19
 -1      1351 9.05076E-05-2.71430E-05-2.71476E-05 3.81442E-07-1.56816E-19-1.78869E-18
 -1      1352 9.08962E-05-2.72716E-05-2.72599E-05 3.83075E-07-1.27942E-19-2.01692E-18
 -1      1353 9.14595E-05-2.74234E-05-2.74487E-05 6.47520E-07-2.66139E-19-1.03590E-18
 -1      1354 9.11049E-05-2.73321E-05-2.73265E-05 3.93341E-07 1.17527E-20-2.06924E-18
 -1      1355 9.14928E-05-2.74569E-05-2.74389E-05 3.89073E-07-1.07971E-19-2.14389E-18
 -1      1356 9.17935E-05-2.75427E-05-2.75380E-05 7.29365E-07-2.05105E-19-1.04195E-18
 -1      1357 9.17244E-05-2.75237E-05-2.75119E-05 3.74059E-07-2.52045E-19-2.41604E-18
 -1      1358 9.20860E-05-2.76381E-05-2.76171E-05 3.66560E-07-2.24174E-19-2.73433E-18
 -1      1359 9.22160E-05-2.76801E-05-2.76582E-05 7.26811E-07-3.24708E-19-1.24255E-18
 -1      1360 9.23151E-05-2.77040E-05-2.76890E-05 3.37910E-07-2.34243E-19-2.79042E-18
 -1      1361 9.26373E-05-2.78047E-05-2.77831E-05 3.28933E-07-2.17671E-19-3.26425E-18
 -1      1362 9.26604E-05-2.78187E-05-2.77880E-05 6.76630E-07-4.73444E-19-1.26540E-18
 -1      1363 9.28495E-05-2.78656E-05-2.78495E-05 2.94087E-07-1.62065E-19-3.50397E-18
 -1      1364 9.31270E-05-2.79515E-05-2.79308E-05 2.84776E-07-3.34146E-19-3.81858E-18
 -1      1365 9.30874E-05-2.79487E-05-2.79146E-05 6.01955E-07-3.94739E-19-1.87778E-18
 -1      1366 9.33151E-05-2.80054E-05-2.79896E-05 2.48521E-07-1.14627E-19-3.68571E-18
 -1      1367 9.35476E-05-2.80767E-05-2.80579E-05 2.39605E-07 8.20716E-20-3.92027E-18
 -1      1368 9.34755E-05-2.80649E-05-2.80309E-05 5.17653E-07-2.91965E-19-2.22650E-18
 -1      1369 9.37090E-05-2.81228E-05-2.81083E-05 2.04982E-07 1.59167E-19-3.61375E-18
 -1      1370 9.38993E-05-2.81808E-05-2.81644E-05 1.96911E-07 9.75990E-21-3.24655E-18
 -1      1371 9.38150E-05-2.81651E-05-2.81334E-05 4.33269E-07 2.40287E-19-2.17195E-18
 -1      1372 9.40346E-05-2.82194E-05-2.82066E-05 1.65807E-07-2.85166E-20-3.30214E-18
 -1      1373 9.41874E-05-2.82655E-05-2.82518E-05 1.58844E-07-1.22354E-19-3.33730E-18
 -1      1374 9.41036E-05-2.82492E-05-2.82212E-05 3.54830E-07 4.99764E-20-2.30497E-18
 -1      1375 9.42991E-05-2.82973E-05-2.82866E-05 1.32409E-07-5.72328E-20-2.85582E-18
 -1      1376 9.44203E-05-2.83335E-05-2.83226E-05 1.26704E-07-9.97284E-20-2.84162E-18
 -1      1377 9.43442E-05-2.83185E-05-2.82949E-05 2.86065E-07-1.56725E-19-1.78923E-18
 -1      1378 9.45122E-05-2.83596E-05-2.83512E-05 1.05656E-07-2.15231E-19-2.88504E-18
 -1      1379 9.46082E-05-2.83880E-05-2.83798E-05 1.01303E-07-3.11241E-19-3.16325E-18
 -1      1380 9.45427E-05-2.83749E-05-2.83562E-05 2.29274E-07-2.12311E-19-1.14804E-18
 -1      1381 9.46851E-05-2.84097E-05-2.84038E-05 8.61548E-08-1.76459E-19-3.26176E-18
 -1      1382 9.47629E-05-2.84324E-05-2.84271E-05 8.32318E-08-4.31206E-19-3.44799E-18
 -1      1383 9.47075E-05-2.84210E-05-2.84075E-05 1.85979E-07-3.26049E-19-1.29278E-18
 -1      1384 9.48301E-05-2.84513E-05-2.84480E-05 7.44694E-08-3.15988E-19-3.57145E-18
 -1      1385 9.48973E-05-2.84705E-05-2.84683E-05 7.30741E-08-2.04471E-20-3.71478E-18
 -1      1386 9.48483E-05-2.84597E-05-2.84517E-05 1.57412E-07-5.10637E-19-2.41775E-18
 -1      1387 9.49609E-05-2.84884E-05-2.84881E-05 7.12856E-08 5.71450E-20-4.04883E-18
 -1      1388 9.50255E-05-2.85067E-05-2.85076E-05 7.15592E-08 9.48036E-21-3.97495E-18
 -1      1389 9.49763E-05-2.84943E-05-2.84922E-05 1.44885E-07-1.72800E-19-1.91423E-18
 -1      1390 9.50923E-05-2.85254E-05-2.85284E-05 7.75304E-08 1.46172E-19-4.34592E-18
 -1      1391 9.51633E-05-2.85454E-05-2.85499E-05 7.96756E-08-1.52374E-19-4.23380E-18
 -1      1392 9.51041E-05-2.85284E-05-2.85329E-05 1.50064E-07-3.92678E-20-2.93348E-18
 -1      1393 9.52410E-05-2.85673E-05-2.85741E-05 9.44477E-08 5.17001E-20-3.56363E-18
 -1      1394 9.53285E-05-2.85921E-05-2.86006E-05 9.87389E-08 1.06382E-19-3.53426E-18
 -1      1395 9.52458E-05-2.85662E-05-2.85781E-05 1.75154E-07 5.21393E-20-2.83368E-18
 -1      1396 9.54260E-05-2.86195E-05-2.86309E-05 1.23622E-07-1.00269E-19-3.53297E-18
 -1      1397 9.55417E-05-2.86527E-05-2.86658E-05 1.30405E-07 1.70534E-19-3.46874E-18
 -1      1398 9.54176E-05-2.86122E-05-2.86328E-05 2.22986E-07-2.76311E-20-2.28819E-18
 -1      1399 9.56690E-05-2.86886E-05-2.87054E-05 1.66933E-07 3.68686E-19-3.40616E-18
 -1      1400 9.58263E-05-2.87342E-05-2.87527E-05 1.76610E-07 2.75292E-19-3.23349E-18
 -1      1401 9.56378E-05-2.86719E-05-2.87024E-05 2.96978E-07 3.45833E-19-2.14560E-18
 -1      1402 9.59947E-05-2.87819E-05-2.88051E-05 2.26408E-07 2.70065E-19-2.98492E-18
 -1      1403 9.62092E-05-2.88448E-05-2.88693E-05 2.39398E-07-9.05502E-20-2.59776E-18
 -1      1404 9.59273E-05-2.87514E-05-2.87934E-05 4.00928E-07 5.03603E-19-2.26945E-18
 -1      1405 9.64312E-05-2.89079E-05-2.89383E-05 3.03919E-07-4.41568E-19-2.45186E-18
 -1      1406 9.67201E-05-2.89934E-05-2.90245E-05 3.20590E-07-3.80515E-19-2.65041E-18
 -1      1407 9.63093E-05-2.88578E-05-2.89126E-05 5.38537E-07-2.01989E-19-1.77957E-18
 -1      1408 9.70088E-05-2.90759E-05-2.91141E-05 4.00653E-07 1.14950E-19-3.06281E-18
 -1      1409 9.73905E-05-2.91899E-05-2.92277E-05 4.21191E-07 4.41911E-19-2.60534E-18
 -1      1410 9.68091E-05-2.89989E-05-2.90675E-05 7.12558E-07-3.23137E-19-9.91367E-19
 -1      1411 9.77590E-05-2.92957E-05-2.93419E-05 5.16238E-07 3.78898E-20-2.97861E-18
 -1      1412 9.82513E-05-2.94441E-05-2.94879E-05 5.40439E-07-3.46144E-19-3.09395E-18
 -1      1413 9.74525E-05-2.91832E-05-2.92654E-05 9.23356E-07 1.21556E-19-2.09852E-18
 -1      1414 9.87102E-05-2.95767E-05-2.96298E-05 6.47379E-07 2.07415E-19-2.45728E-18
 -1      1415 9.93274E-05-2.97647E-05-2.98122E-05 6.74332E-07 1.42092E-19-2.31799E-18
 -1      1416 9.82630E-05-2.94192E-05-2.95126E-05 1.16666E-06 1.62797E-19-2.09423E-18
 -1      1417 9.98827E-05-2.99265E-05-2.99834E-05 7.85859E-07-5.12476E-19-2.06881E-18
 -1      1418 1.00631E-04-3.01569E-05-3.02035E-05 8.13463E-07-7.00761E-19-2.76307E-18
 -1      1419 9.92580E-05-2.97143E-05-2.98131E-05 1.43020E-06-2.03382E-19-2.15745E-18
 -1      1420 1.01278E-04-3.03481E-05-3.04020E-05 9.15767E-07-5.04176E-19-2.43167E-18
 -1      1421 1.02146E-04-3.06191E-05-3.06563E-05 9.40075E-07-2.52868E-19-2.71974E-18
 -1      1422 1.00441E-04-3.00734E-05-3.01657E-05 1.68900E-06-4.14562E-19-2.30823E-18
 -1      1423 1.02867E-04-3.08356E-05-3.08751E-05 1.01005E-06 2.76345E-19-1.96737E-18
 -1      1424 1.03817E-04-3.11374E-05-3.11516E-05 1.02446E-06 1.47343E-19-1.55429E-18
 -1      1425 1.01791E-04-3.04960E-05-3.05616E-05 1.89932E-06-1.72250E-19-1.99159E-18
 -1      1426 1.04568E-04-3.13692E-05-3.13757E-05 1.02702E-06-1.05302E-19-1.84874E-18
 -1      1427 1.05519E-04-3.16791E-05-3.16498E-05 1.02148E-06 6.83681E-20-1.82724E-18
 -1      1428 1.03251E-04-3.09717E-05-3.09792E-05 1.99207E-06-1.14061E-19-1.61386E-18
 -1      1429 1.06222E-04-3.19065E-05-3.18536E-05 9.08571E-07 3.64115E-19-1.62588E-18
 -1      1430 1.07036E-04-3.21833E-05-3.20840E-05 8.69358E-07 5.47015E-20-1.79113E-18
 -1      1431 1.04707E-04-3.14747E-05-3.13802E-05 1.86820E-06 1.99748E-19-1.06485E-18
 -1      1432 1.07575E-04-3.23742E-05-3.22293E-05 5.83884E-07 8.32772E-20-3.85321E-19
 -1      1433 1.08044E-04-3.25530E-05-3.23552E-05 4.95009E-07 6.33551E-19 2.54964E-19
 -1      1434 1.05974E-04-3.19554E-05-3.17053E-05 1.40165E-06 6.68971E-19-6.79694E-19
 -1      1435 1.08258E-04-3.26604E-05-3.23925E-05-1.51106E-08 4.18487E-20 3.39892E-19
 -1      1436 1.08113E-04-3.26521E-05-3.23373E-05-1.67131E-07-2.66762E-19-3.07122E-19
 -1      1437 1.06783E-04-3.23307E-05-3.18749E-05 4.59745E-07 6.38074E-19 1.24388E-19
 -1      1438 1.07815E-04-3.26145E-05-3.22122E-05-9.19439E-07-7.11183E-19-6.58016E-19
 -1      1439 1.06768E-04-3.23166E-05-3.18971E-05-1.13564E-06-5.81084E-19-1.37002E-18
 -1      1440 1.06790E-04-3.24770E-05-3.17962E-05-1.04604E-06-7.16927E-19-7.68494E-19
 -1      1441 1.05784E-04-3.20669E-05-3.15659E-05-2.06831E-06 5.36542E-20-1.89119E-18
 -1      1442 1.03624E-04-3.13938E-05-3.09393E-05-2.32284E-06-1.73086E-19-1.82607E-18
 -1      1443 1.05626E-04-3.22355E-05-3.13843E-05-3.07149E-06-8.81536E-19-1.00956E-18
 -1      1444 1.01870E-04-3.08821E-05-3.03916E-05-3.25167E-06-5.52749E-19-1.63737E-18
 -1      1445 9.86148E-05-2.98182E-05-2.94676E-05-3.47997E-06-2.14154E-19-2.32897E-18
 -1      1446 1.03010E-04-3.14473E-05-3.05962E-05-5.33105E-06-6.88691E-19-2.02447E-18
 -1      1447 9.61930E-05-2.90531E-05-2.87500E-05-4.10059E-06-3.98526E-19-2.53700E-18
 -1      1448 9.22209E-05-2.77123E-05-2.76418E-05-4.20714E-06-6.60838E-19-3.08082E-18
 -1      1449 9.89264E-05-3.00364E-05-2.94691E-05-7.23901E-06-5.28016E-19-2.57160E-18
 -1      1450 8.94964E-05-2.68043E-05-2.68657E-05-4.19436E-06-3.89794E-19-2.83772E-18
 -1      1451 8.55657E-05-2.54511E-05-2.57810E-05-4.09554E-06-6.53612E-19-3.95136E-18
 -1      1452 9.38180E-05-2.81261E-05-2.81452E-05-8.02013E-06-8.00048E-19-2.61246E-18
 -1      1453 8.31241E-05-2.46162E-05-2.51003E-05-3.29519E-06-5.10324E-19-3.93942E-18
 -1      1454 8.01636E-05-2.35963E-05-2.42831E-05-2.98314E-06-3.48938E-19-4.30785E-18
 -1      1455 8.86420E-05-2.61091E-05-2.68552E-05-7.06354E-06-7.48433E-19-2.52302E-18
 -1      1456 7.86057E-05-2.30765E-05-2.38416E-05-1.57717E-06-1.68884E-19-4.07433E-18
 -1      1457 7.73239E-05-2.26616E-05-2.34740E-05-1.15338E-06 3.14435E-19-3.79939E-18
 -1      1458 8.46245E-05-2.45506E-05-2.58527E-05-4.38032E-06 4.54089E-20-2.83665E-18
 -1      1459 7.69703E-05-2.25876E-05-2.33473E-05 3.75444E-07 7.94616E-19-2.44065E-18
 -1      1460 7.75123E-05-2.28274E-05-2.34696E-05 7.49356E-07 1.06202E-18-1.34733E-18
 -1      1461 8.27288E-05-2.39110E-05-2.53238E-05-7.91461E-07 1.57364E-18-1.20554E-18
 -1      1462 7.82390E-05-2.31349E-05-2.36375E-05 1.88933E-06 1.05203E-18-1.75656E-18
 -1      1463 8.01554E-05-2.38439E-05-2.41408E-05 2.09606E-06 7.98507E-19 1.79995E-20
 -1      1464 8.31512E-05-2.42646E-05-2.53175E-05 2.45382E-06 1.13188E-18-1.03078E-18
 -1      1465 8.15083E-05-2.43331E-05-2.45059E-05 2.60189E-06 8.21844E-19-8.15534E-20
 -1      1466 8.40570E-05-2.52228E-05-2.52017E-05 2.63220E-06 1.44718E-18 1.71707E-18
 -1      1467 8.52693E-05-2.52723E-05-2.57399E-05 4.41421E-06 1.41242E-18 3.33890E-19
 -1      1468 8.55368E-05-2.56978E-05-2.56399E-05 2.59717E-06 1.25269E-18 1.51039E-18
 -1      1469 8.80729E-05-2.65424E-05-2.63492E-05 2.52522E-06 7.84952E-19 2.53072E-18
 -1      1470 8.80802E-05-2.64355E-05-2.64053E-05 4.92503E-06 1.92693E-18 1.53901E-18
 -1      1471 8.93573E-05-2.69155E-05-2.67546E-05 2.19787E-06 6.38279E-19 2.43718E-18
 -1      1472 9.15043E-05-2.76235E-05-2.73519E-05 2.09495E-06 4.44828E-19 2.89219E-18
 -1      1473 9.07542E-05-2.74175E-05-2.71134E-05 4.43992E-06 1.33253E-18 6.27896E-19
 -1      1474 9.24883E-05-2.79244E-05-2.76498E-05 1.58295E-06-3.54566E-19 3.09339E-18
 -1      1475 9.40295E-05-2.84713E-05-2.80468E-05 1.45690E-06-3.47939E-19 3.12134E-18
 -1      1476 9.29228E-05-2.81983E-05-2.76939E-05 3.44086E-06 9.57842E-20 1.17208E-18
 -1      1477 9.49650E-05-2.88309E-05-2.82386E-05 3.34153E-07-2.17828E-18 2.34524E-18
 -1      1478 9.48538E-05-2.91911E-05-2.80819E-05 1.61900E-06-1.91862E-18 1.01373E-18
 -1      1479 9.65895E-05-2.83674E-05-2.97761E-05 2.99476E-06 2.88547E-19 7.91285E-18
 -1      1480 1.02547E-04-2.94018E-05-3.21591E-05 4.46182E-06 2.82803E-19 8.27159E-18
 -1      1481 1.02336E-04-2.67213E-05-3.27088E-05 1.27813E-05 5.30666E-19 6.16216E-18
 -1      1482 9.20449E-05-2.74335E-05-2.77660E-05 1.15101E-06 3.48395E-19 7.21201E-18
 -1      1483 9.39904E-05-2.75883E-05-2.86798E-05 1.47299E-06 2.57948E-19 7.56617E-18
 -1      1484 9.64987E-05-2.80339E-05-2.95373E-05 4.86586E-06 4.94217E-19 5.46447E-18
 -1      1485 9.02140E-05-2.70093E-05-2.70677E-05 3.30716E-07 2.21790E-19 6.54222E-18
 -1      1486 9.08279E-05-2.70264E-05-2.73400E-05 4.93641E-07 2.82399E-19 6.91028E-18
 -1      1487 9.30555E-05-2.75828E-05-2.81028E-05 1.84990E-06 5.74804E-19 4.98152E-18
 -1      1488 8.96986E-05-2.68917E-05-2.68926E-05-5.62209E-08 2.10422E-19 6.20434E-18
 -1      1489 8.97349E-05-2.68290E-05-2.69204E-05 3.29571E-08 1.06541E-19 6.36175E-18
 -1      1490 9.15039E-05-2.73121E-05-2.75195E-05 5.15795E-07 2.90373E-19 4.56254E-18
 -1      1491 8.98324E-05-2.69447E-05-2.69350E-05-2.43538E-07 1.87239E-19 5.86175E-18
 -1      1492 8.96028E-05-2.68368E-05-2.68696E-05-1.93236E-07 1.77352E-19 6.11283E-18
 -1      1493 9.09737E-05-2.72316E-05-2.73238E-05-1.34153E-07 2.98991E-19 4.32502E-18
 -1      1494 9.02868E-05-2.70876E-05-2.70737E-05-3.26663E-07-1.67802E-20 5.69393E-18
 -1      1495 8.99388E-05-2.69600E-05-2.69719E-05-2.98944E-07-4.50243E-20 5.68288E-18
 -1      1496 9.09926E-05-2.72751E-05-2.73133E-05-4.52898E-07 5.23605E-20 4.24798E-18
 -1      1497 9.08823E-05-2.72702E-05-2.72534E-05-3.51011E-07 3.44349E-19 5.39162E-18
 -1      1498 9.04938E-05-2.71396E-05-2.71397E-05-3.37287E-07 1.43372E-19 5.54792E-18
 -1      1499 9.12981E-05-2.73874E-05-2.73952E-05-5.92905E-07 1.88409E-19 3.79011E-18
 -1      1500 9.15162E-05-2.74626E-05-2.74443E-05-3.41540E-07 1.36315E-19 4.57816E-18
 -1      1501 9.11309E-05-2.73388E-05-2.73313E-05-3.36620E-07 3.37031E-19 5.07775E-18
 -1      1502 9.17392E-05-2.75313E-05-2.75212E-05-6.30914E-07 5.98418E-19 3.52632E-18
 -1      1503 9.21294E-05-2.76475E-05-2.76291E-05-3.13313E-07 1.92299E-19 4.38507E-18
 -1      1504 9.17715E-05-2.75358E-05-2.75238E-05-3.13844E-07 1.98891E-20 4.39421E-18
 -1      1505 9.22265E-05-2.76837E-05-2.76635E-05-6.10250E-07 1.75307E-19 3.05505E-18
 -1      1506 9.26892E-05-2.78155E-05-2.77980E-05-2.75849E-07 1.15853E-19 4.15866E-18
 -1      1507 9.23712E-05-2.77184E-05-2.77041E-05-2.79597E-07 1.58838E-19 4.27910E-18
 -1      1508 9.27073E-05-2.78306E-05-2.78057E-05-5.57316E-07 3.42593E-19 2.67147E-18
 -1      1509 9.31800E-05-2.79623E-05-2.79464E-05-2.35253E-07 1.78661E-19 3.82457E-18
 -1      1510 9.29068E-05-2.78803E-05-2.78655E-05-2.40713E-07 1.53643E-19 4.12169E-18
 -1      1511 9.31520E-05-2.79645E-05-2.79382E-05-4.88861E-07 2.08671E-19 3.06576E-18
 -1      1512 9.35972E-05-2.80866E-05-2.80727E-05-1.95415E-07 2.91085E-21 3.93330E-18
 -1      1513 9.33689E-05-2.80191E-05-2.80049E-05-2.01572E-07 8.53940E-21 3.74111E-18
 -1      1514 9.35456E-05-2.80817E-05-2.80563E-05-4.15643E-07 1.48670E-19 2.96896E-18
 -1      1515 9.39430E-05-2.81893E-05-2.81775E-05-1.58756E-07-1.60221E-19 4.06974E-18
 -1      1516 9.37566E-05-2.81349E-05-2.81220E-05-1.64928E-07-7.33780E-20 3.61562E-18
 -1      1517 9.38829E-05-2.81811E-05-2.81579E-05-3.44517E-07 9.90809E-20 2.80987E-18
 -1      1518 9.42240E-05-2.82725E-05-2.82628E-05-1.26728E-07 3.04368E-19 3.39014E-18
 -1      1519 9.40747E-05-2.82295E-05-2.82183E-05-1.32463E-07 1.69328E-19 3.69130E-18
 -1      1520 9.41651E-05-2.82635E-05-2.82433E-05-2.79763E-07 2.72504E-19 1.97522E-18
 -1      1521 9.44494E-05-2.83390E-05-2.83315E-05-1.00190E-07-8.15553E-20 3.55977E-18
 -1      1522 9.43314E-05-2.83054E-05-2.82961E-05-1.05182E-07 1.92218E-20 3.57937E-18
 -1      1523 9.43972E-05-2.83307E-05-2.83139E-05-2.23999E-07 2.31724E-20 1.94050E-18
 -1      1524 9.46302E-05-2.83920E-05-2.83866E-05-7.96826E-08 1.77251E-19 3.36872E-18
 -1      1525 9.45372E-05-2.83658E-05-2.83586E-05-8.37062E-08 6.83492E-20 3.44278E-18
 -1      1526 9.45871E-05-2.83852E-05-2.83720E-05-1.78847E-07 1.95534E-19 2.32661E-18
 -1      1527 9.47786E-05-2.84353E-05-2.84320E-05-6.56489E-08 5.97661E-19 2.30286E-18
 -1      1528 9.47036E-05-2.84143E-05-2.84093E-05-6.85077E-08 6.00399E-19 3.01745E-18
 -1      1529 9.47444E-05-2.84297E-05-2.84204E-05-1.45441E-07 7.19365E-19 1.83249E-18
 -1      1530 9.49080E-05-2.84729E-05-2.84717E-05-5.86060E-08-5.12226E-19 1.76685E-18
 -1      1531 9.48436E-05-2.84546E-05-2.84521E-05-6.00884E-08 7.67917E-20 1.84364E-18
 -1      1532 9.48801E-05-2.84676E-05-2.84625E-05-1.24824E-07 6.47296E-19 1.37561E-18
 -1      1533 9.50332E-05-2.85090E-05-2.85102E-05-5.92917E-08-2.16484E-19 2.39933E-18
 -1      1534 9.49713E-05-2.84911E-05-2.84912E-05-5.91304E-08-4.14591E-19 1.62325E-18
 -1      1535 9.50067E-05-2.85026E-05-2.85019E-05-1.18268E-07-4.23301E-19 7.16242E-19
 -1      1536 9.51709E-05-2.85487E-05-2.85525E-05-6.87919E-08-5.10479E-19 2.93981E-18
 -1      1537 9.51025E-05-2.85282E-05-2.85315E-05-6.66259E-08-3.92355E-19 2.51539E-18
 -1      1538 9.51383E-05-2.85388E-05-2.85432E-05-1.27548E-07-5.03324E-19 1.73101E-18
 -1      1539 9.53408E-05-2.85977E-05-2.86047E-05-8.86571E-08-2.30218E-19 4.18614E-18
 -1      1540 9.52552E-05-2.85713E-05-2.85783E-05-8.39933E-08-4.50378E-19 3.39340E-18
 -1      1541 9.52912E-05-2.85808E-05-2.85912E-05-1.55174E-07-8.97091E-19 2.36279E-18
 -1      1542 9.55660E-05-2.86628E-05-2.86736E-05-1.21016E-07 7.52419E-19 3.65231E-18
 -1      1543 9.54506E-05-2.86266E-05-2.86382E-05-1.13188E-07 2.09180E-19 4.18441E-18
 -1      1544 9.54845E-05-2.86343E-05-2.86518E-05-2.04614E-07 2.67364E-19 2.98638E-18
 -1      1545 9.58750E-05-2.87526E-05-2.87680E-05-1.68686E-07 1.04197E-19 2.70087E-18
 -1      1546 9.57142E-05-2.87015E-05-2.87189E-05-1.56808E-07 5.85220E-19 3.38960E-18
 -1      1547 9.57413E-05-2.87057E-05-2.87320E-05-2.80503E-07 1.09991E-18 2.36528E-18
 -1      1548 9.63023E-05-2.88771E-05-2.88983E-05-2.35272E-07 3.79221E-20 3.46461E-18
 -1      1549 9.60770E-05-2.88051E-05-2.88298E-05-2.18190E-07-4.50457E-19 2.97658E-18
 -1      1550 9.60893E-05-2.88033E-05-2.88405E-05-3.88831E-07-2.59592E-19 1.95168E-18
 -1      1551 9.68907E-05-2.90491E-05-2.90775E-05-3.25239E-07-4.41043E-19 3.80018E-18
 -1      1552 9.65771E-05-2.89484E-05-2.89824E-05-3.01481E-07 1.54923E-19 4.02672E-18
 -1      1553 9.65620E-05-2.89366E-05-2.89875E-05-5.37092E-07-2.18429E-19 2.66839E-18
 -1      1554 9.76923E-05-2.92840E-05-2.93213E-05-4.43892E-07-2.83735E-19 4.74715E-18
 -1      1555 9.72610E-05-2.91453E-05-2.91908E-05-4.11629E-07-3.99431E-19 4.29491E-18
 -1      1556 9.72001E-05-2.91176E-05-2.91854E-05-7.34311E-07-5.22260E-19 3.59713E-18
 -1      1557 9.87698E-05-2.96006E-05-2.96486E-05-5.97156E-07-1.39918E-20 4.63466E-18
 -1      1558 9.81852E-05-2.94122E-05-2.94722E-05-5.54205E-07-2.66427E-20 4.55816E-18
 -1      1559 9.80520E-05-2.93604E-05-2.94490E-05-9.90804E-07 2.17747E-20 3.76674E-18
 -1      1560 1.00197E-04-3.00210E-05-3.00815E-05-7.90903E-07-1.21359E-19 4.02515E-18
 -1      1561 9.94164E-05-2.97692E-05-2.98467E-05-7.34842E-07-4.06920E-19 3.89664E-18
 -1      1562 9.91739E-05-2.96819E-05-2.97953E-05-1.31734E-06-1.11836E-19 3.51284E-18
 -1      1563 1.02056E-04-3.05704E-05-3.06446E-05-1.02938E-06-6.18897E-20 4.54575E-18
 -1      1564 1.01031E-04-3.02395E-05-3.03373E-05-9.57901E-07 1.80441E-20 4.28159E-18
 -1      1565 1.00629E-04-3.01013E-05-3.02431E-05-1.72306E-06-6.87189E-20 3.86539E-18
 -1      1566 1.04429E-04-3.12750E-05-3.13621E-05-1.31185E-06 2.87379E-19 3.59866E-18
 -1      1567 1.03111E-04-3.08489E-05-3.09681E-05-1.22366E-06 2.52118E-19 3.74048E-18
 -1      1568 1.02482E-04-3.06398E-05-3.08111E-05-2.21108E-06 3.92775E-19 3.01581E-18
 -1      1569 1.07384E-04-3.21579E-05-3.22521E-05-1.62615E-06-1.48443E-18 5.09975E-18
 -1      1570 1.05732E-04-3.16232E-05-3.17605E-05-1.52281E-06-6.40210E-19 4.01040E-18
 -1      1571 1.04790E-04-3.13184E-05-3.15144E-05-2.76974E-06-7.95423E-19 3.13831E-18
 -1      1572 1.10935E-04-3.32299E-05-3.33152E-05-1.93701E-06-9.77645E-20 7.30412E-18
 -1      1573 1.08939E-04-3.25829E-05-3.27254E-05-1.82660E-06-6.48371E-19 5.93725E-18
 -1      1574 1.07585E-04-3.21546E-05-3.23572E-05-3.35659E-06-1.45390E-18 4.43326E-18
 -1      1575 1.14983E-04-3.44718E-05-3.45135E-05-2.16739E-06 6.00299E-19 7.29436E-18
 -1      1576 1.12701E-04-3.37318E-05-3.38473E-05-2.07080E-06 2.49039E-19 7.34240E-18
 -1      1577 1.10833E-04-3.31544E-05-3.33203E-05-3.87186E-06-2.54879E-19 5.45035E-18
 -1      1578 1.19212E-04-3.58046E-05-3.57389E-05-2.17413E-06 5.20661E-19 5.72446E-18
 -1      1579 1.16837E-04-3.50366E-05-3.50607E-05-2.13400E-06 4.26624E-19 6.89453E-18
 -1      1580 1.14385E-04-3.42987E-05-3.43419E-05-4.12059E-06 6.54842E-19 5.95818E-18
 -1      1581 1.22951E-04-3.70445E-05-3.67751E-05-1.73024E-06 9.46893E-19 3.79976E-18
 -1      1582 1.20898E-04-3.63897E-05-3.62151E-05-1.81925E-06 1.21265E-18 5.47906E-18
 -1      1583 1.17890E-04-3.55178E-05-3.52940E-05-3.77450E-06 1.59007E-18 4.78050E-18
 -1      1584 1.25063E-04-3.78511E-05-3.72768E-05-5.52404E-07 7.53581E-19 2.20048E-18
 -1      1585 1.24041E-04-3.75561E-05-3.70445E-05-8.68300E-07 4.25694E-19 2.99629E-18
 -1      1586 1.20709E-04-3.66481E-05-3.59654E-05-2.37554E-06 1.22204E-18 3.95115E-18
 -1      1587 1.23994E-04-3.77079E-05-3.68152E-05 1.55647E-06-4.29869E-19 2.22349E-18
 -1      1588 1.24963E-04-3.81157E-05-3.71702E-05 9.33805E-07-7.35066E-20 2.04679E-18
 -1      1589 1.21866E-04-3.73731E-05-3.60768E-05 5.26190E-07 2.82790E-19 2.38459E-18
 -1      1590 1.18258E-04-3.60309E-05-3.50561E-05 4.38271E-06 3.83296E-19 1.59893E-18
 -1      1591 1.22101E-04-3.74654E-05-3.61949E-05 3.49913E-06 2.58080E-19 1.94563E-18
 -1      1592 1.20170E-04-3.71824E-05-3.53664E-05 4.97706E-06 2.65651E-19 2.64501E-18
 -1      1593 1.07551E-04-3.25530E-05-3.20596E-05 6.92352E-06 2.63771E-20 1.54361E-18
 -1      1594 1.14345E-04-3.50351E-05-3.39274E-05 6.07916E-06 5.09570E-19 2.05215E-18
 -1      1595 1.14710E-04-3.54813E-05-3.37581E-05 9.97757E-06 5.73335E-19 3.08405E-18
 -1      1596 9.41010E-05-2.79338E-05-2.85140E-05 7.52933E-06-3.66679E-19 1.98746E-18
 -1      1597 1.02323E-04-3.08518E-05-3.06627E-05 7.22749E-06-4.39008E-19 1.38935E-18
 -1      1598 1.05818E-04-3.20693E-05-3.15295E-05 1.31580E-05-2.92235E-19 3.24281E-18
 -1      1599 8.26612E-05-2.39216E-05-2.55758E-05 5.07753E-06 2.63957E-19 1.06610E-18
 -1      1600 8.93243E-05-2.60974E-05-2.72785E-05 5.67105E-06 2.35872E-19 1.57718E-18
 -1      1601 9.59000E-05-2.78175E-05-2.92970E-05 1.18776E-05 2.22717E-19 2.53787E-18
 -1      1602 7.80836E-05-2.24984E-05-2.42392E-05 4.89613E-07-4.52541E-19 1.14417E-18
 -1      1603 8.03645E-05-2.28871E-05-2.48993E-05 1.70306E-06-3.59539E-19 8.43221E-19
 -1      1604 8.88497E-05-2.46947E-05-2.77346E-05 5.66422E-06 8.77738E-20 1.48570E-18
 -1      1605 8.11833E-05-2.39325E-05-2.47254E-05-3.30957E-06 1.49390E-18-9.11407E-19
 -1      1606 7.88352E-05-2.26773E-05-2.42588E-05-2.28641E-06 1.11561E-18 7.03831E-19
 -1      1607 8.74688E-05-2.44940E-05-2.71987E-05-2.05527E-06 1.30353E-18 5.49896E-19
 -1      1608 8.82368E-05-2.66527E-05-2.63030E-05-4.34651E-06-5.32389E-19 1.22290E-19
 -1      1609 8.36279E-05-2.48318E-05-2.52217E-05-4.02675E-06-4.46416E-19-1.07467E-18
 -1      1610 9.07921E-05-2.66545E-05-2.75746E-05-6.67451E-06 3.89165E-19 6.32787E-19
 -1      1611 9.43391E-05-2.87660E-05-2.78740E-05-2.88687E-06 3.19656E-19-3.74918E-19
 -1      1612 9.04221E-05-2.74775E-05-2.68668E-05-3.19182E-06 5.25955E-19 6.39298E-19
 -1      1613 9.53595E-05-2.91886E-05-2.83476E-05-6.47004E-06 5.61338E-19 1.05186E-18
 -1      1614 9.69222E-05-2.94355E-05-2.87318E-05-7.37366E-07-2.35614E-19-1.19647E-18
 -1      1615 9.51719E-05-2.90485E-05-2.81991E-05-1.21100E-06 7.14816E-20-1.64780E-18
 -1      1616 9.80928E-05-3.04072E-05-2.89677E-05-3.25333E-06 8.15679E-19 5.00345E-19
 -1      1617 9.65566E-05-2.90494E-05-2.88582E-05 4.99616E-07 4.74332E-19-2.87952E-18
 -1      1618 9.65326E-05-2.92116E-05-2.87664E-05 2.44753E-07 6.73424E-19-1.88187E-18
 -1      1619 9.81677E-05-3.00627E-05-2.91714E-05-1.35003E-07 9.93834E-19-4.52857E-19
 -1      1620 9.54583E-05-2.85160E-05-2.86398E-05 3.08476E-07 2.42973E-19-2.95880E-18
 -1      1621 9.57474E-05-2.86265E-05-2.87316E-05 4.24452E-07 1.74866E-19-3.21150E-18
 -1      1622 9.66913E-05-2.89484E-05-2.90274E-05 8.98263E-07 9.59755E-19-2.19219E-18
 -1      1623 9.51362E-05-2.85094E-05-2.85242E-05-8.17414E-08-1.36937E-18-1.39806E-18
 -1      1624 9.52496E-05-2.67978E-05-2.93934E-05 1.28687E-06-9.17271E-19 4.26005E-19
 -1      1625 9.54475E-05-2.78851E-05-2.89583E-05 9.28253E-07-1.51461E-18 6.79241E-19
 -1      1626 9.40530E-05-2.18320E-05-3.10410E-05 3.81723E-06 1.73705E-18 2.33853E-18
 -1      1627 9.50051E-05-2.52404E-05-2.99875E-05 3.19325E-06-7.21761E-19 2.17875E-18
 -1      1628 9.57725E-05-2.63190E-05-2.99078E-05 4.33983E-06 5.45410E-19 2.35396E-18
 -1      1629 9.11580E-05-1.23060E-05-3.38996E-05 7.04674E-06-3.80212E-19-1.76763E-18
 -1      1630 9.32175E-05-1.86697E-05-3.20820E-05 6.32468E-06 1.75643E-18 2.83544E-19
 -1      1631 9.48316E-05-2.19413E-05-3.14268E-05 9.70301E-06 6.22933E-19 1.63802E-18
 -1      1632 8.65109E-05 1.25148E-06-3.76663E-05 9.44356E-06 1.37431E-19 1.16494E-18
 -1      1633 8.95475E-05-7.37885E-06-3.53278E-05 9.02745E-06-9.28772E-19 1.29250E-18
 -1      1634 9.20988E-05-1.40496E-05-3.36204E-05 1.52733E-05 4.89876E-19-1.13574E-18
 -1      1635 8.11798E-05 1.54911E-05-4.13608E-05 8.95215E-06 9.14796E-19 2.96303E-19
 -1      1636 8.43210E-05 7.07409E-06-3.91718E-05 9.32749E-06 3.01014E-19-4.30094E-19
 -1      1637 8.75408E-05-3.20790E-06-3.61461E-05 1.77741E-05 1.06652E-18 5.34716E-19
 -1      1638 7.74341E-05 2.48373E-05-4.36387E-05 4.52676E-06 3.18445E-18 2.30975E-19
 -1      1639 7.92691E-05 2.01407E-05-4.24551E-05 5.78756E-06 1.15196E-18 4.11023E-19
 -1      1640 8.24490E-05 7.60440E-06-3.83277E-05 1.39333E-05 1.55642E-18 7.36204E-19
 -1      1641 7.73765E-05 2.47126E-05-4.35405E-05-2.19173E-06 3.03513E-18-7.18787E-19
 -1      1642 7.68952E-05 2.60345E-05-4.38897E-05-6.70556E-07 3.61737E-18 9.55030E-20
 -1      1643 7.93646E-05 1.37309E-05-3.94291E-05 3.65558E-06 4.47061E-19 6.25216E-19
 -1      1644 8.11822E-05 1.48314E-05-4.10460E-05-8.06403E-06 1.78110E-18-2.53713E-19
 -1      1645 7.85903E-05 2.17596E-05-4.28371E-05-7.04469E-06 3.45759E-18-1.98817E-18
 -1      1646 8.01286E-05 1.19756E-05-3.90460E-05-8.75835E-06 1.14868E-18-1.68454E-18
 -1      1647 8.68280E-05-2.56065E-07-3.71409E-05-1.03851E-05 1.77263E-18 1.35553E-18
 -1      1648 8.34139E-05 9.15762E-06-3.96383E-05-1.02805E-05 1.29458E-18 7.19422E-19
 -1      1649 8.43907E-05 3.00957E-06-3.72692E-05-1.73632E-05 2.34059E-18-2.10064E-19
 -1      1650 9.21122E-05-1.53326E-05-3.30276E-05-9.13499E-06 4.78870E-18 2.83421E-18
 -1      1651 8.90738E-05-6.48990E-06-3.54622E-05-9.70483E-06 2.03044E-18 2.17711E-18
 -1      1652 8.98015E-05-9.13048E-06-3.46422E-05-1.90527E-05 1.87755E-18 2.58005E-18
 -1      1653 9.55527E-05-2.62180E-05-2.98363E-05-5.91059E-06 3.30078E-18 1.50613E-20
 -1      1654 9.36438E-05-2.02026E-05-3.15738E-05-6.69402E-06 4.49674E-18-5.57798E-19
 -1      1655 9.42333E-05-2.02254E-05-3.19158E-05-1.50685E-05 2.60410E-18 1.81765E-18
 -1      1656 9.70384E-05-3.18569E-05-2.80128E-05-2.50704E-06 6.61228E-19-9.07794E-19
 -1      1657 9.62893E-05-2.90806E-05-2.88791E-05-3.17011E-06 2.36179E-18 4.85800E-19
 -1      1658 9.66769E-05-2.77291E-05-2.97539E-05-8.73074E-06 9.04995E-19-7.15769E-19
 -1      1659 9.70867E-05-3.31549E-05-2.74294E-05 3.56709E-08-1.03555E-18-3.93844E-19
 -1      1660 9.71762E-05-3.29115E-05-2.75798E-05-3.81362E-07 1.17526E-20-4.65312E-19
 -1      1661 9.73773E-05-3.13462E-05-2.84480E-05-2.88860E-06-5.26365E-19-2.37302E-18
 -1      1662 9.63635E-05-3.18362E-05-2.76359E-05 1.27730E-06-1.12565E-18-1.20443E-18
 -1      1663 9.68191E-05-3.29658E-05-2.73790E-05 1.18610E-06-4.17111E-19-9.57137E-19
 -1      1664 9.69532E-05-3.19546E-05-2.79294E-05 1.03645E-06-6.11664E-19-5.71866E-19
 -1      1665 9.54514E-05-2.99133E-05-2.80631E-05 1.70804E-06-2.50187E-18-1.10752E-18
 -1      1666 9.59806E-05-3.11807E-05-2.77718E-05 1.92763E-06-1.21711E-18-1.38974E-18
 -1      1667 9.60542E-05-3.07839E-05-2.79330E-05 2.84057E-06-1.00486E-18-2.00877E-18
 -1      1668 9.45793E-05-2.92926E-05-2.79745E-05 3.12964E-06-1.04732E-18-1.04330E-18
 -1      1669 2.48079E-05-8.07987E-05 1.67221E-05-7.38934E-06 1.89524E-18 7.34801E-19
 -1      1670 2.92859E-05-9.34461E-05 1.92581E-05 2.19721E-06 3.91562E-18-1.06303E-18
 -1      1671 2.60703E-05-4.72755E-05 4.45589E-06 7.21805E-06 5.23551E-18 3.69815E-18
 -1      1672 3.08722E-05-7.40987E-05 1.15542E-05 2.01338E-06 2.96546E-18 2.69055E-18
 -1      1673 4.26050E-05-1.43179E-05-1.38759E-05 3.48654E-05 5.66326E-18 4.17926E-18
 -1      1674 3.60041E-05-3.99156E-05-3.44731E-06 1.34271E-05 4.91787E-18 2.38609E-18
 -1      1675 8.73418E-05-1.50070E-06-3.52556E-05 7.02455E-05 5.08643E-18 3.08828E-18
 -1      1676 5.94332E-05-8.30483E-06-2.41021E-05 4.38445E-05 6.15624E-18 4.01155E-18
 -1      1677 1.59004E-04-1.70988E-05-5.61615E-05 9.09140E-05 3.16536E-18 2.47842E-18
 -1      1678 1.12253E-04-2.84059E-06-4.56346E-05 7.65815E-05 4.82724E-18 3.52874E-18
 -1      1679 2.31706E-04-4.75884E-05-7.22411E-05 7.48317E-05 1.15355E-18 9.34277E-19
 -1      1680 1.85138E-04-2.42795E-05-6.46541E-05 8.57417E-05 2.42167E-18 2.15655E-18
 -1      1681 2.72123E-04-6.72152E-05-8.03323E-05 2.85280E-05 1.15874E-18-6.53062E-19
 -1      1682 2.47551E-04-5.25294E-05-7.71547E-05 6.12542E-05 8.33480E-19 1.09267E-18
 -1      1683 2.70363E-04-6.75472E-05-7.97373E-05-2.53010E-05 3.53636E-19-2.59446E-18
 -1      1684 2.80151E-04-7.18535E-05-8.14953E-05 1.24089E-05 1.16594E-18-1.95617E-18
 -1      1685 2.14047E-04-4.24058E-05-6.89382E-05-6.32460E-05-4.04246E-19-1.63816E-18
 -1      1686 2.55943E-04-6.30270E-05-7.55769E-05-3.99990E-05-4.20658E-19-2.64444E-18
 -1      1687 1.39797E-04-2.00286E-05-5.00737E-05-6.27054E-05 4.53163E-20-4.06576E-20
 -1      1688 1.89247E-04-3.85758E-05-6.02673E-05-6.56297E-05-4.43845E-19-9.19031E-19
 -1      1689 7.33990E-05-8.17584E-06-2.96310E-05-4.70229E-05-1.10114E-18-7.93670E-19
 -1      1690 1.09585E-04-1.17734E-05-4.03555E-05-6.78054E-05-2.45640E-20-1.54584E-18
 -1      1691 3.83428E-05-2.49677E-05-9.76617E-06-1.69703E-05-9.06325E-19 3.91329E-19
 -1      1692 5.29164E-05-9.34186E-06-1.97335E-05-3.94148E-05-1.15196E-18 3.04932E-20
 -1      1693 2.88524E-05-5.84002E-05 7.03508E-06 6.26156E-07 4.21738E-18 1.49046E-18
 -1      1694 2.82686E-05-3.31356E-05-1.26831E-06-1.11287E-05 7.72494E-19 1.82409E-18
 -1      1695 2.68171E-05-8.47658E-05 1.77416E-05 5.64590E-06 9.23393E-18 8.37504E-19
 -1      1696 2.03265E-05-6.56296E-05 1.36065E-05 1.04125E-05 5.48877E-18 1.15355E-18
 -1      1697 2.57978E-05-8.73857E-05 1.95611E-05-3.70319E-06 7.89689E-18-1.62927E-18
 -1      1698 2.57207E-05-8.78545E-05 1.96815E-05 8.09976E-06 9.96323E-18-5.06102E-19
 -1      1699 2.11977E-05-6.35064E-05 1.27268E-05-4.83536E-06 1.31883E-18-2.16602E-18
 -1      1700 2.68768E-05-8.26121E-05 1.71479E-05-2.47254E-07 6.47345E-18-2.34840E-18
 -1      1701 2.34447E-05-3.02924E-05-6.17938E-07 9.85841E-06-2.89601E-18-4.24618E-18
 -1      1702 2.59005E-05-5.62268E-05 7.06668E-06-4.69614E-07-1.93971E-19-1.96935E-18
 -1      1703 5.74719E-05-1.19894E-05-2.01185E-05 4.38248E-05-3.41778E-18-3.15604E-18
 -1      1704 4.28472E-05-2.81323E-05-9.77382E-06 2.15930E-05-3.20602E-18-2.99341E-18
 -1      1705 1.03611E-04-5.08533E-06-4.01558E-05 7.22890E-05-3.71678E-18-3.55246E-18
 -1      1706 7.11817E-05-3.79504E-06-2.99487E-05 5.13963E-05-4.34189E-18-3.64394E-18
 -1      1707 1.71300E-04-2.56384E-05-5.80858E-05 8.11700E-05-2.37000E-18-5.53790E-18
 -1      1708 1.28318E-04-9.67242E-06-4.92736E-05 7.49750E-05-3.45166E-18-5.36172E-18
 -1      1709 2.34943E-04-5.27138E-05-7.20618E-05 6.06214E-05-2.05263E-18-5.99869E-18
 -1      1710 1.94492E-04-3.22728E-05-6.55017E-05 7.56100E-05-1.82218E-18-5.54552E-18
 -1      1711 2.68464E-04-6.71895E-05-7.95501E-05 1.20275E-05 2.03288E-20-6.50394E-18
 -1      1712 2.47634E-04-5.62671E-05-7.63615E-05 4.43877E-05-1.64494E-18-6.54502E-18
 -1      1713 2.67421E-04-6.45141E-05-8.00408E-05-3.92374E-05 2.54110E-21-5.44303E-18
 -1      1714 2.75469E-04-7.01719E-05-8.10418E-05-4.57824E-06-1.22608E-19-6.00740E-18
 -1      1715 2.22772E-04-4.10039E-05-7.23066E-05-7.71109E-05-1.98502E-18-1.39337E-18
 -1      1716 2.56970E-04-6.01999E-05-7.72551E-05-5.43222E-05-9.65300E-19-4.56678E-18
 -1      1717 1.57819E-04-1.41303E-05-5.82322E-05-8.68470E-05-1.43741E-18 1.87533E-18
 -1      1718 2.01837E-04-3.39022E-05-6.61194E-05-8.55908E-05-1.79211E-18 7.53859E-19
 -1      1719 9.50410E-05-7.29238E-07-3.98732E-05-6.94940E-05-1.65595E-18 2.15655E-18
 -1      1720 1.33617E-04-8.96590E-06-4.97395E-05-8.67738E-05-1.13418E-18 3.28141E-18
 -1      1721 5.13727E-05-1.11898E-05-1.98244E-05-3.75789E-05-7.60636E-18 2.83163E-18
 -1      1722 7.32709E-05-9.23198E-07-3.01921E-05-6.25457E-05-4.06068E-18 8.50421E-19
 -1      1723 3.18886E-05-4.39663E-05-4.06810E-07-8.85180E-06-5.99022E-18 4.41728E-18
 -1      1724 3.50757E-05-1.68708E-05-1.01480E-05-2.78839E-05-7.66395E-18 4.87722E-18
 -1      1725 2.98566E-05-7.80264E-05 1.31809E-05 4.05994E-07-1.21549E-18 1.78724E-18
 -1      1726 2.39343E-05-5.25312E-05 6.95556E-06-2.10579E-06-3.63885E-18 3.26118E-18
 -1      1727 2.97108E-05-9.48585E-05 1.95350E-05-2.90952E-06 2.65121E-18 1.28813E-18
 -1      1728 2.60087E-05-8.41706E-05 1.73811E-05 6.82789E-06-1.50772E-19 2.52035E-18
 -1      1729 1.30011E-04-3.38840E-05-3.97041E-05 5.46467E-05 4.93820E-18 1.97274E-18
 -1      1730 8.55640E-05-4.17345E-05-2.00821E-05 4.68513E-05 2.66222E-18 1.11215E-18
 -1      1731 9.54869E-05-2.83968E-05-2.87582E-05 2.15126E-07-1.80309E-18 2.87727E-20
 -1      1732 9.58112E-05-2.80128E-05-2.91184E-05 1.37872E-06-1.81755E-19 1.04860E-18
 -1      1733 2.40868E-05-5.66160E-05 9.21781E-06 2.05519E-05 2.44030E-18 2.88330E-18
 -1      1734 5.02314E-05-5.13478E-05-2.90298E-06 3.61884E-05 2.64952E-18 2.31928E-18
 -1      1735 1.51826E-05-6.27903E-05 1.44534E-05 2.07274E-08 1.19516E-18 7.20825E-19
 -1      1736 1.77056E-04-3.30536E-05-5.76869E-05 5.06325E-05 3.07642E-18 9.77476E-19
 -1      1737 2.10809E-04-3.39334E-05-7.03577E-05 3.42282E-05 1.77453E-18 2.85450E-19
 -1      1738 2.28638E-04-3.66572E-05-7.60542E-05 1.30355E-05 1.99222E-18 1.13555E-18
 -1      1739 2.23860E-04-3.93510E-05-7.32274E-05-9.27918E-06-3.12555E-19-2.37169E-20
 -1      1740 1.89880E-04-3.99478E-05-6.09304E-05-2.28859E-05-9.02275E-19-7.74188E-19
 -1      1741 1.47321E-04-4.01728E-05-4.39397E-05-3.70346E-05 4.31987E-20-5.00596E-19
 -1      1742 9.65695E-05-3.93101E-05-2.51294E-05-3.93206E-05-7.36919E-19-1.35864E-18
 -1      1743 5.88247E-05-4.73840E-05-7.47858E-06-3.06205E-05 1.36626E-18 1.75696E-18
 -1      1744 3.02509E-05-5.43014E-05 6.56467E-06-1.92086E-05 3.54441E-18 3.46775E-18
 -1      1745 1.52363E-05-6.15475E-05 1.47838E-05-3.45631E-06 4.48123E-18 1.33577E-18
 -1      1746 1.51771E-05-5.98848E-05 1.43289E-05 8.43921E-06 3.77861E-18-3.73033E-18
 -1      1747 2.77533E-05-5.25162E-05 6.66312E-06 2.06814E-05 2.56312E-18-3.78200E-18
 -1      1748 5.90177E-05-4.52538E-05-7.64235E-06 3.65612E-05 5.37866E-19-2.16290E-18
 -1      1749 9.69991E-05-4.00471E-05-2.51696E-05 4.31524E-05-1.41793E-18-1.88126E-18
 -1      1750 1.37577E-04-3.22105E-05-4.33692E-05 4.81352E-05-2.08455E-18-2.97563E-18
 -1      1751 1.80776E-04-3.38994E-05-5.91217E-05 4.15862E-05-1.10813E-18-3.72864E-18
 -1      1752 2.11241E-04-3.53937E-05-7.03095E-05 2.28845E-05-1.34975E-18-5.32403E-18
 -1      1753 2.25646E-04-3.56621E-05-7.57350E-05-1.65645E-06-9.20301E-19-6.11727E-18
 -1      1754 2.24725E-04-3.69803E-05-7.45500E-05-2.58863E-05-1.74531E-18-5.59042E-18
 -1      1755 1.98293E-04-3.28704E-05-6.60154E-05-4.49709E-05-2.04961E-18-4.18688E-18
 -1      1756 1.59511E-04-3.06111E-05-5.20608E-05-5.44305E-05-1.12571E-18-4.65868E-20
 -1      1757 1.16096E-04-3.27142E-05-3.47938E-05-5.38695E-05-3.24922E-18 4.70103E-19
 -1      1758 7.51037E-05-4.03643E-05-1.64003E-05-4.49254E-05-4.56890E-18 1.41031E-19
 -1      1759 4.27385E-05-5.12965E-05-1.55628E-07-3.19892E-05-1.84823E-18 3.92261E-18
 -1      1760 2.18849E-05-5.91845E-05 1.06780E-05-1.74184E-05 4.47657E-19 3.52577E-18
 -1      1761 1.06060E-04-2.31726E-05-3.56065E-05-1.68519E-05-7.71396E-19 9.82982E-19
 -1      1762 8.91434E-05-1.05810E-05-3.37954E-05-1.33195E-05-4.85750E-19-1.82109E-18
 -1      1763 9.04886E-05-1.16356E-05-3.39366E-05-1.51333E-05-6.77474E-19-1.67210E-18
 -1      1764 9.24952E-05-1.38757E-05-3.38558E-05-1.59997E-05-7.79034E-19-1.35552E-18
 -1      1765 9.42130E-05-1.58223E-05-3.41001E-05-1.76615E-05-9.76867E-19-1.02099E-18
 -1      1766 9.34187E-05-1.63457E-05-3.30470E-05-1.37773E-05-7.93825E-19-1.41571E-18
 -1      1767 8.62047E-05-7.66882E-06-3.37297E-05-7.86434E-06 1.82982E-19-1.73962E-18
 -1      1768 8.66084E-05-7.96968E-06-3.37642E-05-9.25237E-06 8.61558E-20-1.84731E-18
 -1      1769 8.55903E-05-7.03517E-06-3.37259E-05-5.32053E-06 4.43399E-19-1.63188E-18
 -1      1770 8.58246E-05-7.21288E-06-3.37414E-05-6.62478E-06 3.26882E-19-1.71078E-18
 -1      1771 8.75899E-05-9.86678E-06-3.33425E-05-6.93260E-06 2.31192E-19-1.62011E-18
 -1      1772 8.52549E-05-6.67641E-06-3.37289E-05-2.88855E-06 6.57979E-19-1.39463E-18
 -1      1773 8.53759E-05-6.77096E-06-3.37349E-05-4.12816E-06 5.77889E-19-1.53574E-18
 -1      1774 8.69545E-05-9.15475E-06-3.33753E-05-4.53762E-06 5.43729E-19-1.48885E-18
 -1      1775 8.51238E-05-6.52811E-06-3.37322E-05-5.17452E-07 8.84633E-19-1.10440E-18
 -1      1776 8.51595E-05-6.55664E-06-3.37337E-05-1.72693E-06 7.53003E-19-1.27647E-18
 -1      1777 8.66215E-05-8.77506E-06-3.33952E-05-2.21708E-06 7.29794E-19-1.25371E-18
 -1      1778 8.51693E-05-6.56558E-06-3.37339E-05 1.84482E-06 1.13714E-18-8.83032E-19
 -1      1779 8.51274E-05-6.53263E-06-3.37321E-05 6.34361E-07 1.01287E-18-1.02758E-18
 -1      1780 8.65231E-05-8.66132E-06-3.34017E-05 6.53711E-08 9.82747E-19-9.90863E-19
 -1      1781 8.54011E-05-6.79595E-06-3.37351E-05 4.25037E-06 1.29065E-18-6.99173E-19
 -1      1782 8.52727E-05-6.69519E-06-3.37288E-05 3.00771E-06 1.23871E-18-8.26545E-19
 -1      1783 8.66390E-05-8.79444E-06-3.33945E-05 2.34895E-06 1.26133E-18-7.64090E-19
 -1      1784 8.58591E-05-7.24942E-06-3.37408E-05 6.71130E-06 1.44568E-18-3.21634E-19
 -1      1785 8.56205E-05-7.06710E-06-3.37258E-05 5.42421E-06 1.36775E-18-5.58698E-19
 -1      1786 8.69881E-05-9.19164E-06-3.33738E-05 4.65193E-06 1.40750E-18-5.37813E-19
 -1      1787 8.66740E-05-8.03954E-06-3.37620E-05 9.37258E-06 1.60253E-18 2.09614E-19
 -1      1788 8.62523E-05-7.72280E-06-3.37280E-05 7.95193E-06 1.48521E-18-7.00920E-20
 -1      1789 8.76414E-05-9.92454E-06-3.33399E-05 7.02680E-06 1.58166E-18-1.27320E-19
 -1      1790 8.80886E-05-9.38793E-06-3.38180E-05 1.22512E-05 1.68323E-18 8.78056E-19
 -1      1791 8.73474E-05-8.82974E-06-3.37456E-05 1.06583E-05 1.64682E-18 4.67589E-19
 -1      1792 8.87645E-05-1.11599E-05-3.32899E-05 9.50054E-06 1.67299E-18 4.17190E-19
 -1      1793 9.06352E-05-1.18410E-05-3.39287E-05 1.52995E-05 1.59058E-18 1.88902E-18
 -1      1794 8.92535E-05-1.07413E-05-3.37886E-05 1.35098E-05 1.61158E-18 1.27452E-18
 -1      1795 9.06644E-05-1.32234E-05-3.32076E-05 1.19722E-05 1.74999E-18 1.12495E-18
 -1      1796 9.58824E-05-1.70365E-05-3.39950E-05 1.76877E-05 1.19426E-18 3.44308E-18
 -1      1797 9.28617E-05-1.43447E-05-3.38285E-05 1.61906E-05 1.38658E-18 2.53633E-18
 -1      1798 9.39745E-05-1.68885E-05-3.30256E-05 1.38911E-05 1.46385E-18 2.15909E-18
 -1      1799 1.01933E-04-2.50969E-05-3.33615E-05 1.44203E-05 7.71647E-19 5.17474E-18
 -1      1800 9.80837E-05-1.96188E-05-3.36274E-05 1.69616E-05 9.45342E-19 4.06772E-18
 -1      1801 9.73363E-05-2.18565E-05-3.24297E-05 1.32455E-05 1.05883E-18 3.37958E-18
 -1      1802 9.87607E-05-2.61380E-05-3.13449E-05 9.43262E-06 7.08093E-19 4.94041E-18
 -1      1803 1.00163E-04-1.95650E-05-3.42204E-05-1.88671E-05-9.37136E-19-2.74227E-19
 -1      1804 9.53208E-05-2.72886E-05-2.91882E-05 4.06453E-06 7.23737E-19 4.27267E-18
 -1      1805 9.77505E-05-2.73936E-05-3.01971E-05 6.39862E-06 6.16349E-19 4.53617E-18
 -1      1806 9.75846E-05-2.56174E-05-3.08352E-05 8.75715E-06 8.04602E-19 3.67169E-18
 -1      1807 9.98211E-05-2.25419E-05-3.28386E-05-1.44649E-05-9.62229E-19-5.14520E-19
 -1      1808 9.69701E-05-2.69828E-05-2.98795E-05-5.70218E-06-7.68338E-19-5.70208E-19
 -1      1809 9.51615E-05-2.70378E-05-2.91691E-05-3.89588E-06-6.55630E-19-7.23419E-19
 -1      1810 9.43419E-05-2.72381E-05-2.86618E-05-2.42009E-06-6.83013E-19-6.05245E-19
 -1      1811 9.35705E-05-2.73184E-05-2.83569E-05-1.56652E-06-4.64101E-19-7.84925E-19
 -1      1812 9.55140E-05-2.65469E-05-2.95776E-05-4.47225E-06-7.42768E-19-8.56962E-19
 -1      1813 9.30461E-05-2.73695E-05-2.80881E-05-7.39473E-07-2.56492E-19-7.01251E-19
 -1      1814 9.27453E-05-2.74333E-05-2.79661E-05-3.01351E-07-1.87578E-19-8.02433E-19
 -1      1815 9.43037E-05-2.72225E-05-2.87693E-05-1.82692E-06-4.34670E-19-7.07461E-19
 -1      1816 9.24694E-05-2.74609E-05-2.78301E-05 1.53390E-07-3.01176E-19-7.66657E-19
 -1      1817 9.24383E-05-2.75371E-05-2.78002E-05 3.76985E-07-4.06864E-19-7.83878E-19
 -1      1818 9.36032E-05-2.75301E-05-2.83334E-05-3.61278E-07-2.77526E-19-6.55276E-19
 -1      1819 9.23345E-05-2.75685E-05-2.77419E-05 6.15975E-07-3.65225E-19-6.85144E-19
 -1      1820 9.24491E-05-2.76535E-05-2.77609E-05 7.19225E-07-1.57895E-19-7.57142E-19
 -1      1821 9.32816E-05-2.77148E-05-2.81122E-05 4.39707E-07-3.82846E-19-7.03654E-19
 -1      1822 9.24536E-05-2.76914E-05-2.77487E-05 8.29244E-07-2.46541E-19-7.95237E-19
 -1      1823 9.26405E-05-2.77779E-05-2.77932E-05 8.62020E-07-2.53883E-19-8.53765E-19
 -1      1824 9.32169E-05-2.78577E-05-2.80193E-05 8.49019E-07-2.43454E-19-5.97138E-19
 -1      1825 9.27080E-05-2.78191E-05-2.78076E-05 8.94149E-07-2.47464E-19-9.45679E-19
 -1      1826 9.29228E-05-2.79015E-05-2.78634E-05 8.85569E-07-2.63185E-19-9.38398E-19
 -1      1827 9.33098E-05-2.79809E-05-2.80031E-05 1.02191E-06-3.36074E-19-7.52242E-19
 -1      1828 9.30224E-05-2.79427E-05-2.78920E-05 8.71498E-07-4.27301E-19-8.18410E-19
 -1      1829 9.32387E-05-2.80174E-05-2.79505E-05 8.39707E-07-4.80128E-19-1.01519E-18
 -1      1830 9.34893E-05-2.80896E-05-2.80312E-05 1.05209E-06-2.14622E-19-5.40533E-19
 -1      1831 9.33505E-05-2.80559E-05-2.79854E-05 7.99829E-07-5.20519E-19-1.14739E-18
 -1      1832 9.35530E-05-2.81211E-05-2.80417E-05 7.56512E-07-5.71790E-19-1.30100E-18
 -1      1833 9.37079E-05-2.81842E-05-2.80828E-05 9.98821E-07-7.18620E-19-8.58233E-19
 -1      1834 9.36644E-05-2.81555E-05-2.80779E-05 7.04178E-07-4.19479E-19-1.09927E-18
 -1      1835 9.38453E-05-2.82107E-05-2.81291E-05 6.56929E-07 5.02248E-20-1.05890E-18
 -1      1836 9.39349E-05-2.82647E-05-2.81446E-05 9.00627E-07-4.19873E-19-4.79188E-19
 -1      1837 9.39493E-05-2.82404E-05-2.81638E-05 6.00891E-07 6.38960E-20-1.21612E-18
 -1      1838 9.41055E-05-2.82859E-05-2.82087E-05 5.54607E-07 1.17335E-19-1.24169E-18
 -1      1839 9.41519E-05-2.83314E-05-2.82085E-05 7.82830E-07-4.85456E-20-4.35191E-19
 -1      1840 9.41987E-05-2.83108E-05-2.82404E-05 5.00551E-07 2.19241E-19-1.50027E-18
 -1      1841 9.43303E-05-2.83475E-05-2.82787E-05 4.58342E-07 1.11741E-19-1.36086E-18
 -1      1842 9.43492E-05-2.83854E-05-2.82696E-05 6.62029E-07 3.36021E-20-4.36127E-19
 -1      1843 9.44115E-05-2.83679E-05-2.83069E-05 4.09921E-07-1.61205E-20-1.35025E-18
 -1      1844 9.45208E-05-2.83969E-05-2.83391E-05 3.73739E-07-6.54124E-20-9.57308E-19
 -1      1845 9.45227E-05-2.84279E-05-2.83256E-05 5.49007E-07 1.12375E-19-7.11637E-19
 -1      1846 9.45909E-05-2.84134E-05-2.83639E-05 3.33314E-07-3.13257E-19-1.06750E-18
 -1      1847 9.46813E-05-2.84362E-05-2.83910E-05 3.04418E-07-3.25187E-19-8.98046E-19
 -1      1848 9.46726E-05-2.84607E-05-2.83759E-05 4.50743E-07-2.55226E-19-8.46136E-19
 -1      1849 9.47423E-05-2.84495E-05-2.84129E-05 2.73602E-07-4.04422E-19-1.02182E-18
 -1      1850 9.48184E-05-2.84675E-05-2.84360E-05 2.52899E-07-5.45383E-19-1.34960E-18
 -1      1851 9.48019E-05-2.84855E-05-2.84208E-05 3.71871E-07-5.15485E-19-1.12440E-18
 -1      1852 9.48731E-05-2.84785E-05-2.84561E-05 2.32965E-07-6.70622E-19-1.61613E-18
 -1      1853 9.49400E-05-2.84932E-05-2.84767E-05 2.21276E-07-5.17390E-19-1.80710E-18
 -1      1854 9.49153E-05-2.85041E-05-2.84617E-05 3.15761E-07-8.53625E-19-1.31037E-18
 -1      1855 9.49919E-05-2.85029E-05-2.84960E-05 2.13465E-07-7.00330E-20-1.59894E-18
 -1      1856 9.50556E-05-2.85161E-05-2.85160E-05 2.11717E-07-1.49308E-20-1.47089E-18
 -1      1857 9.50194E-05-2.85184E-05-2.85005E-05 2.85326E-07-2.70342E-19-1.19982E-18
 -1      1858 9.51090E-05-2.85256E-05-2.85360E-05 2.17456E-07-4.51279E-19-1.67169E-18
 -1      1859 9.51761E-05-2.85390E-05-2.85572E-05 2.26823E-07-3.81712E-19-2.07489E-18
 -1      1860 9.51219E-05-2.85303E-05-2.85396E-05 2.83624E-07-4.41603E-19-1.32195E-18
 -1      1861 9.52358E-05-2.85495E-05-2.85796E-05 2.47873E-07 1.59195E-19-2.25029E-18
 -1      1862 9.53138E-05-2.85653E-05-2.86042E-05 2.69855E-07 2.86067E-19-2.02676E-18
 -1      1863 9.52317E-05-2.85421E-05-2.85820E-05 3.14268E-07-2.09995E-19-2.00268E-18
 -1      1864 9.53854E-05-2.85782E-05-2.86310E-05 3.08379E-07 3.20836E-19-1.90212E-18
 -1      1865 9.54829E-05-2.85987E-05-2.86614E-05 3.44821E-07 2.59202E-19-1.65835E-18
 -1      1866 9.53592E-05-2.85563E-05-2.86311E-05 3.81667E-07 5.47357E-19-1.48125E-18
 -1      1867 9.55727E-05-2.86158E-05-2.86946E-05 4.03344E-07 4.62932E-20-1.06146E-18
 -1      1868 9.56995E-05-2.86439E-05-2.87339E-05 4.56367E-07 5.49906E-19-1.36490E-18
 -1      1869 9.55163E-05-2.85757E-05-2.86906E-05 4.91063E-07 4.32932E-19-9.35073E-19
 -1      1870 9.58147E-05-2.86672E-05-2.87759E-05 5.37615E-07 3.33946E-19-1.45627E-18
 -1      1871 9.59818E-05-2.87061E-05-2.88270E-05 6.09414E-07 2.98753E-19-1.61297E-18
 -1      1872 9.57165E-05-2.86041E-05-2.87648E-05 6.48303E-07 3.00663E-19-7.70138E-19
 -1      1873 9.61303E-05-2.87381E-05-2.88802E-05 7.15954E-07 2.99630E-19-1.51198E-18
 -1      1874 9.63498E-05-2.87919E-05-2.89467E-05 8.08425E-07-2.72010E-19-1.09933E-18
 -1      1875 9.59749E-05-2.86462E-05-2.88582E-05 8.59254E-07 1.89765E-19-8.90138E-19
 -1      1876 9.65402E-05-2.88356E-05-2.90136E-05 9.42026E-07-4.29877E-19-1.31108E-18
 -1      1877 9.68247E-05-2.89090E-05-2.90989E-05 1.05611E-06-1.98290E-19-1.10197E-18
 -1      1878 9.63083E-05-2.87080E-05-2.89752E-05 1.12869E-06-7.36625E-20-9.24629E-19
 -1      1879 9.70659E-05-2.89681E-05-2.91818E-05 1.21671E-06-2.48356E-19-1.53815E-18
 -1      1880 9.74279E-05-2.90662E-05-2.92890E-05 1.35136E-06-1.98861E-19-1.97551E-18
 -1      1881 9.67344E-05-2.87973E-05-2.91202E-05 1.45846E-06-2.47093E-19-7.32620E-19
 -1      1882 9.77283E-05-2.91453E-05-2.93895E-05 1.53548E-06 1.22079E-19-1.82448E-18
 -1      1883 9.81781E-05-2.92740E-05-2.95211E-05 1.68607E-06 1.39988E-19-1.53733E-18
 -1      1884 9.72713E-05-2.89246E-05-2.92963E-05 1.84457E-06 7.51274E-20-1.36052E-18
 -1      1885 9.85450E-05-2.93786E-05-2.96396E-05 1.88451E-06-9.95222E-20-2.25038E-18
 -1      1886 9.90881E-05-2.95436E-05-2.97961E-05 2.04057E-06-3.04250E-19-2.16722E-18
 -1      1887 9.79359E-05-2.91032E-05-2.95050E-05 2.27292E-06-3.10732E-19-1.78894E-18
 -1      1888 9.95260E-05-2.96802E-05-2.99311E-05 2.23525E-06-2.31486E-19-2.09506E-18
 -1      1889 1.00159E-04-2.98866E-05-3.01102E-05 2.37744E-06-2.26408E-19-1.80038E-18
 -1      1890 9.87417E-05-2.93502E-05-2.97446E-05 2.71335E-06-2.37009E-19-1.68583E-18
 -1      1891 1.00667E-04-3.00626E-05-3.02571E-05 2.53739E-06-2.61182E-19-1.89957E-18
 -1      1892 1.01371E-04-3.03133E-05-3.04516E-05 2.63389E-06 1.86584E-19-1.68364E-18
 -1      1893 9.96954E-05-2.96869E-05-3.00088E-05 3.11179E-06-4.81336E-20-1.65688E-18
 -1      1894 1.01943E-04-3.05363E-05-3.06020E-05 2.71091E-06 1.71980E-19-1.66641E-18
 -1      1895 1.02675E-04-3.08288E-05-3.07979E-05 2.71404E-06 1.16269E-19-1.00190E-18
 -1      1896 1.00792E-04-3.01379E-05-3.02846E-05 3.38125E-06 5.37539E-19-1.18848E-18
 -1      1897 1.03291E-04-3.11040E-05-3.09384E-05 2.63952E-06 2.06213E-19-3.82252E-19
 -1      1898 1.03980E-04-3.14258E-05-3.11131E-05 2.48468E-06 3.53927E-19-2.16060E-20
 -1      1899 1.02007E-04-3.07267E-05-3.05515E-05 3.39358E-06 4.73710E-19-4.39798E-19
 -1      1900 1.04602E-04-3.17510E-05-3.12255E-05 2.17086E-06 5.46738E-19-3.85883E-19
 -1      1901 1.05136E-04-3.20718E-05-3.13468E-05 1.78198E-06 1.23916E-18 3.87518E-20
 -1      1902 1.03288E-04-3.14654E-05-3.07809E-05 2.97716E-06 4.00653E-19 4.54470E-20
 -1      1903 1.05701E-04-3.24267E-05-3.14098E-05 1.13392E-06 7.22734E-19-4.44598E-19
 -1      1904 1.05926E-04-3.26876E-05-3.14379E-05 4.41789E-07 6.35606E-20-1.01588E-18
 -1      1905 1.04534E-04-3.23318E-05-3.09387E-05 1.93060E-06 5.49997E-19-1.03139E-18
 -1      1906 1.06332E-04-3.30175E-05-3.14308E-05-6.10987E-07-5.48001E-19-1.23783E-18
 -1      1907 1.06067E-04-3.31211E-05-3.13251E-05-1.63043E-06-6.83774E-19-6.87773E-19
 -1      1908 1.05574E-04-3.32318E-05-3.09914E-05 6.84970E-08-4.96087E-19-1.22369E-18
 -1      1909 1.06165E-04-3.33201E-05-3.12347E-05-3.07490E-06-9.16086E-19-6.33979E-19
 -1      1910 1.05239E-04-3.31324E-05-3.09666E-05-4.34210E-06-1.03102E-18-1.00435E-18
 -1      1911 1.06145E-04-3.39519E-05-3.09168E-05-2.68206E-06-6.28502E-19-9.95033E-19
 -1      1912 1.04846E-04-3.30428E-05-3.07946E-05-6.00008E-06-7.37289E-19-6.94003E-19
 -1      1913 1.03170E-04-3.24277E-05-3.03642E-05-7.27349E-06-7.67160E-19-8.19193E-19
 -1      1914 1.05890E-04-3.41345E-05-3.07163E-05-6.12826E-06-7.20236E-19-5.58690E-19
 -1      1915 1.02133E-04-3.18911E-05-3.01312E-05-8.73880E-06-9.40557E-19-7.09688E-19
 -1      1916 9.98005E-05-3.07983E-05-2.95810E-05-9.61037E-06-8.50457E-19-1.19659E-18
 -1      1917 1.04436E-04-3.33497E-05-3.04213E-05-9.64451E-06-9.16959E-19 2.63641E-19
 -1      1918 9.81390E-05-2.97812E-05-2.93219E-05-1.02989E-05-1.41067E-19-8.34030E-19
 -1      1919 9.54995E-05-2.83632E-05-2.87369E-05-1.03185E-05 5.15565E-20-3.96398E-19
 -1      1920 1.01621E-04-3.13376E-05-3.00838E-05-1.21322E-05-8.81427E-20 6.45763E-19
 -1      1921 9.35488E-05-2.70997E-05-2.84881E-05-9.72223E-06-6.11386E-19-8.06071E-20
 -1      1922 9.11757E-05-2.57528E-05-2.79744E-05-8.66126E-06-7.43483E-19-6.72839E-19
 -1      1923 9.78054E-05-2.83695E-05-2.97513E-05-1.23310E-05-6.38466E-19 4.69665E-19
 -1      1924 8.95543E-05-2.47303E-05-2.77584E-05-6.73547E-06-5.98283E-19-1.84567E-19
 -1      1925 8.80366E-05-2.39403E-05-2.74087E-05-4.82989E-06 1.24633E-18 9.88296E-19
 -1      1926 9.40191E-05-2.54139E-05-2.94403E-05-9.55208E-06 1.00817E-19 2.11346E-18
 -1      1927 8.73152E-05-2.36222E-05-2.72372E-05-2.19739E-06 2.28709E-18 3.01259E-20
 -1      1928 8.69682E-05-2.36521E-05-2.71006E-05-1.22184E-07 2.06943E-18 6.05466E-19
 -1      1929 9.15595E-05-2.37227E-05-2.91369E-05-4.41354E-06 1.36255E-18 2.54629E-18
 -1      1930 8.72286E-05-2.40899E-05-2.69839E-05 2.21950E-06 1.11497E-18 4.89875E-19
 -1      1931 8.79280E-05-2.47814E-05-2.70540E-05 3.74839E-06 1.14782E-18 1.17706E-18
 -1      1932 9.11444E-05-2.39637E-05-2.88386E-05 1.19528E-06 2.09062E-18 9.36185E-19
 -1      1933 8.87203E-05-2.55825E-05-2.70022E-05 5.06664E-06 1.36129E-18 1.41931E-18
 -1      1934 9.00138E-05-2.64997E-05-2.72234E-05 5.71531E-06 1.70348E-18 1.32034E-18
 -1      1935 9.23644E-05-2.56954E-05-2.85801E-05 5.25334E-06 1.53247E-18 1.73654E-18
 -1      1936 9.07395E-05-2.71655E-05-2.72298E-05 5.93318E-06 9.75008E-19 9.39571E-19
 -1      1937 9.21395E-05-2.79255E-05-2.75199E-05 5.84710E-06 1.35149E-18 3.72936E-19
 -1      1938 9.40588E-05-2.77296E-05-2.84025E-05 6.85507E-06 1.21116E-18 2.18867E-19
 -1      1939 9.24764E-05-2.82289E-05-2.75550E-05 5.40128E-06 1.27240E-18-2.81629E-19
 -1      1940 9.36650E-05-2.87169E-05-2.78268E-05 4.92503E-06 5.42821E-19 1.72679E-19
 -1      1941 9.52147E-05-2.90969E-05-2.83085E-05 6.47248E-06 4.15209E-19-1.84026E-18
 -1      1942 9.36065E-05-2.87668E-05-2.78197E-05 4.36129E-06 2.67897E-19 1.88074E-19
 -1      1943 9.45630E-05-2.91865E-05-2.80108E-05 3.66753E-06-3.86062E-20-5.38055E-19
 -1      1944 9.54335E-05-2.98617E-05-2.80809E-05 4.01416E-06-7.67729E-19-2.29422E-18
 -1      1945 9.55017E-05-2.95790E-05-2.82130E-05 5.27035E-06 1.27114E-19-1.43174E-18
 -1      1946 9.32225E-05-2.73658E-05-2.81964E-05 1.60287E-06 7.30162E-19 3.93423E-18
 -1      1947 9.44163E-05-2.74709E-05-2.86327E-05 2.67394E-06 7.19118E-19 4.20015E-18
 -1      1948 9.52391E-05-2.70497E-05-2.92294E-05 4.05113E-06 8.43010E-19 3.36602E-18
 -1      1949 9.21716E-05-2.73527E-05-2.77549E-05 3.46170E-07 3.68512E-19 3.58370E-18
 -1      1950 9.26652E-05-2.73847E-05-2.79271E-05 8.94261E-07 4.25707E-19 3.75758E-18
 -1      1951 9.36356E-05-2.73711E-05-2.84059E-05 1.58242E-06 5.94220E-19 3.05212E-18
 -1      1952 9.17971E-05-2.73906E-05-2.75871E-05-3.06867E-07 2.81920E-19 3.45570E-18
 -1      1953 9.19115E-05-2.73637E-05-2.76339E-05-1.44844E-08 2.87182E-19 3.41550E-18
 -1      1954 9.28053E-05-2.74866E-05-2.80037E-05 2.69927E-07 3.86556E-19 2.70374E-18
 -1      1955 9.18213E-05-2.74814E-05-2.75641E-05-6.31960E-07 9.54434E-20 3.11573E-18
 -1      1956 9.17330E-05-2.74193E-05-2.75476E-05-4.79411E-07 1.88466E-19 3.41271E-18
 -1      1957 9.24918E-05-2.75798E-05-2.78295E-05-4.22980E-07 2.05304E-19 2.43553E-18
 -1      1958 9.20654E-05-2.76035E-05-2.76195E-05-7.68702E-07 4.83557E-19 2.82829E-18
 -1      1959 9.18745E-05-2.75247E-05-2.75709E-05-6.97891E-07 2.64956E-19 2.98158E-18
 -1      1960 9.24952E-05-2.76851E-05-2.77839E-05-7.66904E-07 3.63328E-19 2.02622E-18
 -1      1961 9.24173E-05-2.77376E-05-2.77148E-05-7.94568E-07 5.84598E-19 2.79093E-18
 -1      1962 9.21824E-05-2.76542E-05-2.76516E-05-7.72919E-07 6.53332E-19 2.86752E-18
 -1      1963 9.26792E-05-2.78004E-05-2.78112E-05-9.06290E-07 5.79771E-19 1.81065E-18
 -1      1964 9.28073E-05-2.78703E-05-2.78264E-05-7.56202E-07 3.78130E-19 2.12849E-18
 -1      1965 9.25634E-05-2.77899E-05-2.77591E-05-7.63863E-07 4.01202E-19 2.62396E-18
 -1      1966 9.29544E-05-2.79170E-05-2.78773E-05-9.24488E-07 5.70523E-19 2.08946E-18
 -1      1967 9.31930E-05-2.79935E-05-2.79399E-05-6.83073E-07 5.38372E-20 2.18401E-18
 -1      1968 9.29604E-05-2.79201E-05-2.78748E-05-7.07321E-07 1.74948E-19 2.03139E-18
 -1      1969 9.32641E-05-2.80277E-05-2.79612E-05-8.72733E-07 3.70468E-19 1.69405E-18
 -1      1970 9.35504E-05-2.81028E-05-2.80470E-05-5.94228E-07 1.09696E-19 2.40469E-18
 -1      1971 9.33400E-05-2.80386E-05-2.79874E-05-6.26717E-07 1.64858E-19 2.29683E-18
 -1      1972 9.35730E-05-2.81277E-05-2.80497E-05-7.83768E-07 6.20857E-20 1.54552E-18
 -1      1973 9.38672E-05-2.81966E-05-2.81431E-05-5.02006E-07 1.13501E-19 2.48896E-18
 -1      1974 9.36840E-05-2.81421E-05-2.80908E-05-5.37235E-07 2.09160E-19 2.43352E-18
 -1      1975 9.38610E-05-2.82148E-05-2.81351E-05-6.78870E-07 1.66692E-19 1.69043E-18
 -1      1976 9.41394E-05-2.82749E-05-2.82266E-05-4.14298E-07 4.57508E-19 1.90591E-18
 -1      1977 9.39843E-05-2.82298E-05-2.81821E-05-4.48670E-07 3.64223E-19 2.32568E-18
 -1      1978 9.41177E-05-2.82883E-05-2.82132E-05-5.71855E-07 3.74354E-19 1.63314E-18
 -1      1979 9.43681E-05-2.83389E-05-2.82975E-05-3.36060E-07 3.24874E-19 1.45468E-18
 -1      1980 9.42395E-05-2.83023E-05-2.82603E-05-3.67247E-07 3.40032E-19 1.73367E-18
 -1      1981 9.43397E-05-2.83489E-05-2.82821E-05-4.71593E-07 4.66232E-19 1.59344E-18
 -1      1982 9.45581E-05-2.83904E-05-2.83571E-05-2.70394E-07-9.85969E-20 1.77048E-18
 -1      1983 9.44527E-05-2.83612E-05-2.83262E-05-2.96873E-07 1.14800E-20 1.55047E-18
 -1      1984 9.45281E-05-2.83978E-05-2.83417E-05-3.83726E-07 1.21438E-19 1.60688E-18
 -1      1985 9.47164E-05-2.84318E-05-2.84072E-05-2.19347E-07 6.66927E-19 1.37895E-18
 -1      1986 9.46298E-05-2.84085E-05-2.83816E-05-2.40056E-07 1.83801E-19 1.56388E-18
 -1      1987 9.46871E-05-2.84369E-05-2.83930E-05-3.11903E-07 3.15606E-19 7.92535E-19
 -1      1988 9.48517E-05-2.84659E-05-2.84506E-05-1.84532E-07 8.54082E-19 1.41395E-18
 -1      1989 9.47787E-05-2.84468E-05-2.84287E-05-1.98597E-07 6.83558E-19 1.41574E-18
 -1      1990 9.48230E-05-2.84683E-05-2.84378E-05-2.58710E-07 8.20277E-19 1.07881E-18
 -1      1991 9.49743E-05-2.84955E-05-2.84903E-05-1.67614E-07 2.25231E-19 1.24275E-18
 -1      1992 9.49090E-05-2.84789E-05-2.84704E-05-1.74130E-07 9.41896E-19 1.60579E-18
 -1      1993 9.49439E-05-2.84944E-05-2.84785E-05-2.26388E-07 9.25180E-19 1.27486E-18
 -1      1994 9.50959E-05-2.85239E-05-2.85300E-05-1.70710E-07-6.03415E-19 8.69011E-19
 -1      1995 9.50316E-05-2.85079E-05-2.85101E-05-1.68557E-07-3.76343E-19 9.17776E-19
 -1      1996 9.50591E-05-2.85177E-05-2.85181E-05-2.17401E-07-1.10439E-19 1.13277E-18
 -1      1997 9.52300E-05-2.85548E-05-2.85739E-05-1.96726E-07-8.44474E-19 1.51462E-18
 -1      1998 9.51592E-05-2.85372E-05-2.85518E-05-1.84409E-07-5.15606E-19 1.03498E-18
 -1      1999 9.51798E-05-2.85411E-05-2.85600E-05-2.34910E-07-5.52881E-19 8.54500E-19
 -1      2000 9.53926E-05-2.85924E-05-2.86269E-05-2.49660E-07-7.45648E-19 1.27806E-18
 -1      2001 9.53062E-05-2.85707E-05-2.85999E-05-2.25155E-07-8.88516E-19 1.01450E-18
 -1      2002 9.53187E-05-2.85678E-05-2.86084E-05-2.83169E-07-7.28229E-19 7.54908E-19
 -1      2003 9.56022E-05-2.86418E-05-2.86949E-05-3.34869E-07 1.44370E-18 1.29872E-18
 -1      2004 9.54897E-05-2.86129E-05-2.86598E-05-2.95484E-07 2.34213E-19 1.44424E-18
 -1      2005 9.54909E-05-2.86016E-05-2.86681E-05-3.67879E-07 2.02742E-19 2.64293E-19
 -1      2006 9.58815E-05-2.87090E-05-2.87849E-05-4.59315E-07 3.44420E-19 1.35923E-18
 -1      2007 9.57301E-05-2.86693E-05-2.87379E-05-4.01553E-07 1.19087E-18 1.69436E-18
 -1      2008 9.57143E-05-2.86468E-05-2.87450E-05-4.96496E-07 9.43156E-19 7.96902E-19
 -1      2009 9.62573E-05-2.88014E-05-2.89052E-05-6.31763E-07-4.41109E-19 1.26031E-18
 -1      2010 9.60515E-05-2.87465E-05-2.88417E-05-5.51196E-07-4.02828E-19 1.16341E-18
 -1      2011 9.60101E-05-2.87088E-05-2.88458E-05-6.78479E-07-3.64770E-20 9.54401E-19
 -1      2012 9.67621E-05-2.89279E-05-2.90659E-05-8.62859E-07-5.88139E-19 2.56807E-18
 -1      2013 9.64832E-05-2.88522E-05-2.89804E-05-7.54049E-07-4.42351E-19 1.80957E-18
 -1      2014 9.64034E-05-2.87940E-05-2.89786E-05-9.25442E-07-7.98892E-19 1.31680E-18
 -1      2015 9.74343E-05-2.90993E-05-2.92787E-05-1.16497E-06-1.73184E-19 2.64155E-18
 -1      2016 9.70599E-05-2.89962E-05-2.91647E-05-1.02148E-06-1.14628E-19 2.79891E-18
 -1      2017 9.69240E-05-2.89101E-05-2.91528E-05-1.25106E-06-2.72653E-19 1.75465E-18
 -1      2018 9.83187E-05-2.93289E-05-2.95573E-05-1.55144E-06 2.83789E-19 2.98395E-18
 -1      2019 9.78224E-05-2.91901E-05-2.94071E-05-1.36614E-06 6.35242E-20 2.85964E-18
 -1      2020 9.76061E-05-2.90668E-05-2.93791E-05-1.67053E-06 2.42433E-19 1.65209E-18
 -1      2021 9.94661E-05-2.96325E-05-2.99167E-05-2.03483E-06 2.46467E-19 2.96244E-18
 -1      2022 9.88176E-05-2.94483E-05-2.97216E-05-1.80063E-06-5.08435E-20 2.88510E-18
 -1      2023 9.84888E-05-2.92761E-05-2.96690E-05-2.19901E-06 2.33190E-19 2.63647E-18
 -1      2024 1.00930E-04-3.00292E-05-3.03722E-05-2.62292E-06-4.46231E-20 3.12887E-18
 -1      2025 1.00097E-04-2.97882E-05-3.01234E-05-2.33464E-06 1.05892E-19 3.40812E-18
 -1      2026 9.96149E-05-2.95531E-05-3.00344E-05-2.84829E-06 2.07821E-20 2.75915E-18
 -1      2027 1.02764E-04-3.05416E-05-3.09371E-05-3.31086E-06 3.90694E-20 3.13527E-18
 -1      2028 1.01716E-04-3.02308E-05-3.06265E-05-2.96899E-06 3.00520E-19 3.32505E-18
 -1      2029 1.01028E-04-2.99179E-05-3.04854E-05-3.62004E-06 2.75890E-19 3.26498E-18
 -1      2030 1.05006E-04-3.11967E-05-3.16181E-05-4.06662E-06-1.57982E-18 3.28511E-18
 -1      2031 1.03721E-04-3.08024E-05-3.12413E-05-3.68457E-06-6.04798E-19 3.11082E-18
 -1      2032 1.02769E-04-3.03981E-05-3.10278E-05-4.49313E-06-5.46283E-19 3.63002E-18
 -1      2033 1.07666E-04-3.20250E-05-3.24076E-05-4.80586E-06-1.01348E-18 2.75197E-18
 -1      2034 1.06144E-04-3.15349E-05-3.19683E-05-4.42274E-06-1.96097E-18 2.35220E-18
 -1      2035 1.04869E-04-3.10331E-05-3.16576E-05-5.40162E-06-1.58084E-18 2.16290E-18
 -1      2036 1.10689E-04-3.30582E-05-3.32711E-05-5.35333E-06 8.73209E-20 4.21727E-18
 -1      2037 1.08979E-04-3.24661E-05-3.27889E-05-5.05414E-06-7.16774E-19 3.20200E-18
 -1      2038 1.07333E-04-3.18788E-05-3.23537E-05-6.19955E-06-1.21865E-18 1.53010E-18
 -1      2039 1.13913E-04-3.43174E-05-3.41315E-05-5.39394E-06 7.48746E-19 4.42060E-18
 -1      2040 1.12142E-04-3.36341E-05-3.36522E-05-5.33585E-06 1.01781E-18 5.06210E-18
 -1      2041 1.10129E-04-3.30091E-05-3.30687E-05-6.61238E-06 3.73054E-19 2.98775E-18
 -1      2042 1.17005E-04-3.57771E-05-3.48556E-05-4.43804E-06 1.70410E-18 4.57343E-18
 -1      2043 1.15422E-04-3.50550E-05-3.44608E-05-4.87041E-06 1.18703E-18 4.57729E-18
 -1      2044 1.13144E-04-3.44972E-05-3.37220E-05-6.18804E-06 1.32132E-18 3.11925E-18
 -1      2045 1.19391E-04-3.72792E-05-3.52564E-05-1.87629E-06 1.39258E-18 3.35287E-18
 -1      2046 1.18401E-04-3.66554E-05-3.50641E-05-3.11398E-06 1.56477E-18 4.56610E-18
 -1      2047 1.16132E-04-3.63422E-05-3.42029E-05-4.29599E-06 1.83045E-18 4.67007E-18
 -1      2048 1.20215E-04-3.83864E-05-3.51388E-05 2.74266E-06-3.25777E-19 2.31081E-18
 -1      2049 1.20358E-04-3.81393E-05-3.52772E-05 4.62070E-07 5.58248E-20 2.38030E-18
 -1      2050 1.18597E-04-3.82997E-05-3.43993E-05-2.87209E-07 8.91793E-19 3.89625E-18
 -1      2051 1.18423E-04-3.82387E-05-3.44039E-05 9.05997E-06 8.18671E-19 2.98921E-18
 -1      2052 1.20231E-04-3.87998E-05-3.49463E-05 5.91835E-06-2.04347E-20 3.19075E-18
 -1      2053 1.19667E-04-3.96133E-05-3.42600E-05 6.03032E-06-1.44340E-19 2.69894E-18
 -1      2054 1.13195E-04-3.57867E-05-3.31707E-05 1.50379E-05-3.69988E-19 4.02256E-18
 -1      2055 1.16860E-04-3.75252E-05-3.40527E-05 1.20769E-05 3.75964E-19 3.33810E-18
 -1      2056 1.18125E-04-3.89281E-05-3.38624E-05 1.35074E-05-2.34919E-20 2.93620E-18
 -1      2057 1.05056E-04-3.09152E-05-3.17817E-05 1.70362E-05 2.51092E-19 3.32235E-18
 -1      2058 1.09932E-04-3.35846E-05-3.27808E-05 1.60552E-05-1.70298E-19 3.37696E-18
 -1      2059 1.13175E-04-3.51332E-05-3.33979E-05 1.89354E-05-1.34804E-19 3.04856E-18
 -1      2060 9.67453E-05-2.55607E-05-3.06056E-05 1.23100E-05 4.54460E-19 1.50642E-18
 -1      2061 1.01272E-04-2.80461E-05-3.14374E-05 1.45760E-05 3.25658E-19 2.04045E-18
 -1      2062 1.05936E-04-2.90757E-05-3.30052E-05 1.81420E-05 9.27580E-19 1.95392E-18
 -1      2063 9.25287E-05-2.34091E-05-2.98006E-05 2.33382E-06-1.60672E-19 1.47985E-18
 -1      2064 9.46682E-05-2.40591E-05-3.02792E-05 6.90779E-06 2.95244E-19 1.75835E-18
 -1      2065 9.98162E-05-2.40603E-05-3.25819E-05 9.64591E-06 2.81903E-19 1.22006E-18
 -1      2066 9.39556E-05-2.56917E-05-2.94044E-05-6.30625E-06 1.59500E-18 1.22997E-18
 -1      2067 9.32527E-05-2.44534E-05-2.94752E-05-2.50002E-06 8.78611E-19 1.36184E-18
 -1      2068 9.84710E-05-2.41721E-05-3.19512E-05-1.81974E-06 1.25451E-18 1.99412E-18
 -1      2069 9.82199E-05-2.97541E-05-2.93709E-05-8.98034E-06 4.59105E-19 1.44271E-18
 -1      2070 9.59178E-05-2.78685E-05-2.91536E-05-7.87415E-06 1.05294E-18 2.22870E-18
 -1      2071 1.01054E-04-2.82560E-05-3.12042E-05-8.93218E-06 1.02712E-18 3.28992E-18
 -1      2072 1.01306E-04-3.22962E-05-2.94988E-05-5.97719E-06 1.49727E-18 8.68222E-19
 -1      2073 9.92913E-05-3.11696E-05-2.92219E-05-7.25265E-06 5.68895E-19 1.24448E-18
 -1      2074 1.03991E-04-3.26174E-05-3.05585E-05-8.70140E-06 4.77880E-19 1.86151E-18
 -1      2075 1.01382E-04-3.21577E-05-2.95547E-05-1.22995E-06 5.11581E-19 7.74817E-19
 -1      2076 1.00677E-04-3.21701E-05-2.94052E-05-3.15475E-06 1.25329E-18 1.16938E-18
 -1      2077 1.04386E-04-3.40942E-05-3.01230E-05-3.87639E-06 1.30258E-18 8.66713E-19
 -1      2078 9.91075E-05-3.02256E-05-2.94268E-05 1.64043E-06 2.25387E-18-1.55874E-19
 -1      2079 9.96113E-05-3.09810E-05-2.94498E-05 6.34668E-07 1.62311E-18 1.18869E-18
 -1      2080 1.02052E-04-3.25265E-05-2.98287E-05 8.85214E-07 1.58386E-18 8.00506E-19
 -1      2081 9.68784E-05-2.85655E-05-2.92216E-05 1.87730E-06 1.56926E-19 2.94139E-19
 -1      2082 9.78554E-05-2.94441E-05-2.93574E-05 2.01536E-06 7.75624E-19 3.87518E-20
 -1      2083 9.93045E-05-3.02976E-05-2.96262E-05 2.82221E-06 1.54615E-18 1.73305E-18
 -1      2084 9.70107E-05-2.80922E-05-2.94761E-05 2.69676E-06 1.54359E-19 2.47899E-18
 -1      2085 9.47902E-05-1.73904E-05-3.31719E-05 2.06051E-05 1.71148E-18 5.99276E-20
 -1      2086 9.72431E-05-2.21576E-05-3.21185E-05 1.79032E-05 8.61088E-19-7.89024E-19
 -1      2087 9.80366E-05-2.39453E-05-3.16594E-05 1.37572E-05-4.24304E-19 6.07852E-19
 -1      2088 9.88088E-05-2.68992E-05-3.08061E-05 1.04838E-05-5.94299E-19 2.91919E-18
 -1      2089 1.01033E-04-2.80933E-05-3.13468E-05 1.89424E-05-4.52531E-19 1.38438E-18
 -1      2090 9.80140E-05-2.67643E-05-3.04196E-05 7.20239E-06 7.89825E-20 2.32127E-18
 -1      2091 9.78346E-05-2.81613E-05-2.98353E-05 4.75905E-06-1.94679E-19 2.01675E-18
 -1      2092 9.90694E-05-2.92257E-05-2.99306E-05 5.16480E-06 4.00537E-19 1.67883E-18
 -1      2093 1.01285E-04-2.97120E-05-3.06655E-05 1.08287E-05-1.13786E-18 2.24277E-18
 -1      2094 8.78133E-05-7.72723E-06-3.44732E-05 2.28130E-05 1.50338E-18 1.68679E-19
 -1      2095 9.18536E-05-1.34462E-05-3.34725E-05 2.28584E-05 1.57154E-18 7.31800E-19
 -1      2096 9.60922E-05-2.21172E-05-3.17656E-05 2.64613E-05 1.95212E-18 4.10212E-19
 -1      2097 7.95565E-05 2.08269E-06-3.52041E-05 1.61038E-05 7.84750E-19 1.06829E-18
 -1      2098 8.34451E-05-2.55377E-06-3.45444E-05 2.03424E-05 5.87417E-19 3.72165E-20
 -1      2099 8.63566E-05-1.22676E-05-3.16613E-05 2.66783E-05 9.38431E-19 3.01226E-20
 -1      2100 7.52659E-05 6.76461E-06-3.52750E-05 1.38314E-06-5.37634E-19 9.45501E-20
 -1      2101 7.64700E-05 5.54265E-06-3.51451E-05 8.47673E-06 6.20187E-20 1.47098E-18
 -1      2102 7.63356E-05-2.71596E-06-3.12500E-05 1.54646E-05-7.34427E-19 6.71882E-19
 -1      2103 7.82944E-05 2.99549E-06-3.47959E-05-1.48157E-05 5.53338E-19-1.38657E-18
 -1      2104 7.59116E-05 5.95543E-06-3.52361E-05-8.19632E-06 5.08154E-20-8.57780E-19
 -1      2105 7.30473E-05 2.69831E-07-3.10269E-05-4.23090E-06-6.10401E-19 3.50883E-19
 -1      2106 8.64251E-05-7.15633E-06-3.38399E-05-2.39822E-05 1.62088E-18 1.31462E-19
 -1      2107 8.21458E-05-1.54356E-06-3.47473E-05-2.10629E-05 1.99525E-18-3.12343E-21
 -1      2108 7.90895E-05-5.70046E-06-3.11957E-05-2.23011E-05 1.01244E-18 2.74836E-19
 -1      2109 9.45653E-05-1.85349E-05-3.24677E-05-2.38385E-05 1.46301E-18 2.74669E-18
 -1      2110 9.06936E-05-1.24635E-05-3.36339E-05-2.48564E-05 1.39853E-18 1.64275E-18
 -1      2111 8.98328E-05-1.64453E-05-3.14310E-05-3.00317E-05 1.58375E-18 6.12696E-19
 -1      2112 9.92251E-05-2.68428E-05-3.09502E-05-1.73023E-05 1.69150E-18 2.34545E-18
 -1      2113 9.70669E-05-2.21723E-05-3.20542E-05-2.05891E-05 1.01714E-18 3.43484E-18
 -1      2114 9.88357E-05-2.60218E-05-3.12929E-05-2.68923E-05 6.58568E-20 2.75098E-18
 -1      2115 1.00382E-04-3.11350E-05-2.96426E-05-9.05882E-06 6.90530E-19-1.99646E-18
 -1      2116 9.98189E-05-2.84512E-05-3.04483E-05-1.26807E-05 1.82802E-18-3.78624E-19
 -1      2117 1.02863E-04-3.14312E-05-3.06930E-05-1.79202E-05 1.07497E-18 6.04735E-19
 -1      2118 9.94491E-05-3.23168E-05-2.87598E-05-2.22313E-06-1.70353E-19-6.64339E-19
 -1      2119 9.98571E-05-3.13722E-05-2.91979E-05-5.02321E-06 8.24228E-20-1.89987E-18
 -1      2120 1.02760E-04-3.31452E-05-2.98794E-05-8.36411E-06 2.65229E-19-2.38056E-18
 -1      2121 9.75575E-05-3.15979E-05-2.82720E-05 2.06994E-06-4.41231E-19-1.63155E-18
 -1      2122 9.85056E-05-3.18622E-05-2.84392E-05 4.12911E-07 2.45957E-19 3.10285E-19
 -1      2123 1.00564E-04-3.26828E-05-2.91126E-05-1.10495E-06 5.07770E-19 2.59920E-19
 -1      2124 7.05451E-05-4.87150E-05-9.95511E-06 4.88572E-05 8.62280E-19 4.77144E-19
 -1      2125 5.33431E-05-4.95100E-05-2.95730E-06 4.17705E-05 1.83340E-18 2.38969E-19
 -1      2126 1.49762E-05-4.12674E-05 9.42501E-06 5.31736E-06 1.49967E-18 1.32476E-18
 -1      2127 1.51878E-05-4.26074E-05 9.73345E-06-6.48799E-06-8.61856E-20 2.28614E-18
 -1      2128 3.37986E-05-3.94598E-05 1.65270E-06 3.43093E-05 2.68806E-18 3.21110E-18
 -1      2129 2.37405E-05-4.13795E-05 6.00239E-06 2.02684E-05 2.13876E-18 1.73769E-18
 -1      2130 1.12496E-04-5.08002E-05-2.61924E-05 5.04053E-05 8.60585E-19-7.86470E-19
 -1      2131 9.23589E-05-5.44020E-05-1.73306E-05 4.59438E-05-5.63700E-19 1.63054E-20
 -1      2132 1.49149E-04-4.55756E-05-4.35202E-05 4.43230E-05 2.91125E-18 1.16891E-18
 -1      2133 1.26934E-04-4.82263E-05-3.42293E-05 4.27694E-05 2.81554E-18 8.38563E-20
 -1      2134 8.72673E-05-8.72377E-06-3.37499E-05-1.05198E-05-1.02220E-19-1.90979E-18
 -1      2135 8.79641E-05-9.25298E-06-3.38206E-05-1.21066E-05-3.01712E-19-1.87753E-18
 -1      2136 9.04703E-05-1.30771E-05-3.32348E-05-1.19177E-05-4.58830E-19-1.72239E-18
 -1      2137 8.86672E-05-1.10327E-05-3.32956E-05-9.40757E-06-4.09951E-21-1.74691E-18
 -1      2138 1.91646E-04-2.92367E-05-6.81985E-05 1.57683E-05 1.78216E-18 2.04135E-18
 -1      2139 1.82778E-04-3.14632E-05-6.38559E-05 2.19163E-05 2.04389E-18 2.10572E-18
 -1      2140 1.97522E-04-2.68675E-05-7.14523E-05 6.91770E-06 2.01509E-18 3.14810E-18
 -1      2141 1.91354E-04-2.41648E-05-7.04527E-05 1.28641E-05 2.59023E-18 3.08235E-18
 -1      2142 1.89401E-04-3.02289E-05-6.71676E-05-1.65626E-06-4.75609E-19 1.65383E-18
 -1      2143 1.99221E-04-2.99014E-05-7.07587E-05 4.67558E-06 1.03973E-18 3.11136E-18
 -1      2144 1.72892E-04-1.58820E-05-6.57625E-05 8.99187E-06 1.02067E-18 4.78743E-18
 -1      2145 1.68537E-04-4.02172E-05-5.45285E-05-9.01094E-06-8.62809E-19 9.80441E-19
 -1      2146 1.87016E-04-3.75164E-05-6.22768E-05-7.69243E-06-1.24853E-18 1.24556E-18
 -1      2147 1.36818E-04-5.11807E-05-3.71046E-05-2.49854E-05 1.43996E-20 3.42201E-19
 -1      2148 1.57031E-04-5.10541E-05-4.54245E-05-1.72350E-05-1.66865E-19 1.20660E-18
 -1      2149 1.01569E-04-5.31460E-05-2.17851E-05-3.27068E-05-1.16806E-18-1.15662E-18
 -1      2150 1.23329E-04-5.15940E-05-3.05554E-05-3.50811E-05-1.78385E-18-2.34840E-18
 -1      2151 1.40677E-04-6.22411E-05-3.31619E-05-1.93949E-05-1.00988E-18 1.16044E-19
 -1      2152 6.59574E-05-5.24594E-05-6.76118E-06-3.45113E-05 2.02017E-18 2.95866E-18
 -1      2153 8.34919E-05-5.09443E-05-1.42837E-05-3.87637E-05 3.41354E-19 2.20144E-18
 -1      2154 2.87966E-05-4.66393E-05 6.06678E-06-2.15197E-05 2.67493E-18 3.16324E-18
 -1      2155 4.17179E-05-4.39285E-05 2.93447E-07-3.22386E-05 2.00027E-18 4.04522E-18
 -1      2156 1.34580E-05-4.33852E-05 1.12156E-05-3.85249E-06 1.30957E-18 4.34528E-19
 -1      2157 1.74788E-05-4.26437E-05 9.45487E-06-1.27997E-05 1.49226E-18 2.33400E-18
 -1      2158 1.64057E-05-4.07076E-05 9.17035E-06 1.65752E-05 1.21507E-18-4.56085E-18
 -1      2159 1.32220E-05-4.35946E-05 1.13361E-05 7.18851E-06 1.27034E-18-1.91684E-18
 -1      2160 4.16691E-05-4.28115E-05-2.17364E-07 3.57244E-05 1.54922E-18-2.83015E-18
 -1      2161 2.99447E-05-4.39659E-05 4.77211E-06 2.77861E-05 1.98756E-18-3.86840E-18
 -1      2162 7.96169E-05-4.94451E-05-1.34090E-05 4.39920E-05 1.35737E-18-7.14049E-19
 -1      2163 5.88151E-05-4.92087E-05-5.41622E-06 3.75467E-05 1.97613E-18-2.36875E-18
 -1      2164 6.10909E-05-4.61010E-05-6.39388E-06 4.37025E-05 1.87830E-18-2.43670E-18
 -1      2165 1.20460E-04-4.70751E-05-3.08921E-05 4.07914E-05-2.49028E-19-1.65171E-18
 -1      2166 1.03365E-04-5.19733E-05-2.23053E-05 3.90824E-05 4.90009E-19-5.61795E-19
 -1      2167 1.51452E-04-4.34917E-05-4.55117E-05 3.29544E-05-4.03399E-19-2.48858E-18
 -1      2168 1.31433E-04-4.52476E-05-3.73648E-05 3.35999E-05-5.92500E-19-1.18627E-18
 -1      2169 1.36633E-04-5.76312E-05-3.36452E-05 2.70828E-05 3.10014E-19-1.19347E-18
 -1      2170 1.77802E-04-3.74837E-05-5.91043E-05 1.81773E-05-1.57866E-19-1.88126E-18
 -1      2171 1.61398E-04-3.82982E-05-5.26017E-05 2.23464E-05-1.47648E-19-1.71270E-18
 -1      2172 1.88508E-04-2.86067E-05-6.76111E-05 3.41956E-06 1.50772E-19-3.59438E-18
 -1      2173 1.81743E-04-3.12784E-05-6.37024E-05 1.23798E-05-1.16467E-19-2.64740E-18
 -1      2174 1.67347E-04-3.14944E-05-5.71864E-05-1.37074E-06 9.21995E-19-1.17695E-18
 -1      2175 1.93593E-04-2.43351E-05-7.11363E-05-7.32078E-06-1.44546E-18-4.46254E-18
 -1      2176 1.87329E-04-2.26018E-05-6.98496E-05-8.79235E-07-1.32603E-18-4.94392E-18
 -1      2177 1.91688E-04-2.73732E-05-6.91649E-05-1.90553E-05-1.34594E-18-5.43372E-18
 -1      2178 1.98427E-04-2.78138E-05-7.16593E-05-1.08930E-05-1.08505E-18-4.63136E-18
 -1      2179 1.73708E-04-3.32032E-05-5.95812E-05-2.76796E-05-1.92478E-18-4.48419E-18
 -1      2180 1.87706E-04-3.23480E-05-6.50279E-05-2.30145E-05-2.42357E-18-6.14565E-18
 -1      2181 1.49575E-04-4.17409E-05-4.61568E-05-3.72123E-05-1.68941E-18-7.28448E-19
 -1      2182 1.67697E-04-3.97513E-05-5.36383E-05-3.55502E-05-2.25173E-18-3.28861E-18
 -1      2183 1.16417E-04-4.72989E-05-3.02318E-05-4.50467E-05-3.97894E-18-2.93920E-19
 -1      2184 1.36805E-04-4.42669E-05-3.88981E-05-4.74570E-05-1.79698E-18 3.28649E-19
 -1      2185 8.09887E-05-5.12637E-05-1.39809E-05-4.62908E-05-2.61225E-18-2.58345E-20
 -1      2186 1.00099E-04-4.75700E-05-2.24385E-05-5.18107E-05-3.57194E-18-2.11716E-18
 -1      2187 4.54086E-05-4.85855E-05-3.29018E-07-3.85634E-05 9.75782E-19 4.51172E-18
 -1      2188 6.01593E-05-4.59181E-05-6.92033E-06-4.64333E-05-9.16490E-19 2.22770E-18
 -1      2189 2.20206E-05-4.28606E-05 7.02918E-06-1.98111E-05 3.60201E-19 3.08278E-18
 -1      2190 2.99812E-05-4.05936E-05 3.43856E-06-3.14710E-05 1.40607E-19 3.32037E-18
 -1      2191 1.77867E-04-4.00029E-05-5.79859E-05 2.79418E-05 3.18273E-18 2.12182E-18
 -1      2192 1.60844E-04-4.20286E-05-5.06100E-05 3.20731E-05 3.33106E-18 2.26920E-18
 -1      2193 1.33519E-04-6.21041E-05-3.04909E-05 4.08669E-05-2.07523E-19-4.51469E-19
 -1      2194 9.71942E-05-2.43161E-05-3.13074E-05-9.99899E-06-8.82291E-19-7.16246E-19
 -1      2195 1.59718E-04-5.29307E-05-4.49498E-05 2.41051E-05 2.77149E-18 1.17526E-18
 -1      2196 1.71035E-04-3.62740E-05-5.68568E-05 8.73543E-06 3.10819E-18 2.78462E-18
 -1      2197 9.63528E-05-2.30998E-05-3.14573E-05-1.03804E-05-9.34608E-19-1.01891E-18
 -1      2198 5.19377E-05-4.16089E-05-4.87667E-06 4.37462E-05 1.25784E-18 4.98691E-19
 -1      2199 2.25925E-05-2.91557E-05 2.12280E-06 1.66003E-05 1.27267E-18 2.73422E-18
 -1      2200 9.71061E-05-3.10219E-05-2.83162E-05 2.77767E-06-5.27758E-19-2.04194E-18
 -1      2201 9.59948E-05-5.82807E-05-1.64203E-05 5.14049E-05-9.66465E-19-6.25216E-19
 -1      2202 2.13758E-05-2.98095E-05 2.73148E-06-1.71602E-05 4.97844E-19 2.38270E-18
 -1      2203 4.51146E-05-3.99620E-05-2.87762E-06-4.21183E-05 7.54706E-19 3.59375E-18
 -1      2204 8.38003E-05-5.37087E-05-1.32922E-05-5.28037E-05-2.29546E-19 9.61475E-19
 -1      2205 1.22567E-04-5.92484E-05-2.69990E-05-4.58175E-05-3.16113E-18-1.55854E-19
 -1      2206 1.51450E-04-5.35444E-05-4.12938E-05-3.10253E-05-2.42823E-18-1.57718E-18
 -1      2207 1.66991E-04-3.97810E-05-5.35488E-05-1.47537E-05-2.80188E-18-4.03399E-18
 -1      2208 1.73828E-04-2.39360E-05-6.29180E-05-7.38774E-06-1.65256E-18-5.08897E-18
 -1      2209 1.68839E-04-1.72302E-05-6.40678E-05-5.45431E-06 3.09167E-19-2.76408E-18
 -1      2210 1.57606E-04-4.75066E-05-4.64936E-05 1.19738E-05 6.80167E-19-3.25684E-19
 -1      2211 9.89453E-05-5.57201E-05-1.85833E-05 4.08672E-05 1.04143E-18 3.30343E-20
 -1      2212 9.62032E-05-5.68768E-05-1.61470E-05 4.34944E-05 1.80863E-18-4.11023E-19
 -1      2213 1.16973E-04-6.26993E-05-2.39452E-05 3.60436E-05 1.52085E-18-2.39075E-19
 -1      2214 2.76405E-05-3.50624E-05 2.68588E-06 2.84414E-05 1.39760E-20-3.92261E-18
 -1      2215 1.41347E-05-3.16086E-05 6.67336E-06 1.35736E-06-1.04971E-18-8.89385E-19
 -1      2216 2.69966E-05-3.58303E-05 3.27408E-06-2.34704E-05 2.94132E-19 2.63004E-18
 -1      2217 1.08530E-04-6.22082E-05-2.00219E-05-3.43733E-05-1.43996E-18 5.60101E-19
 -1      2218 1.72770E-04-2.82510E-05-6.08813E-05 9.44148E-06-8.42586E-19 3.02560E-18
 -1      2219 1.72970E-04-1.90924E-05-6.46421E-05 6.32350E-06 2.05617E-18 4.19451E-18
 -1      2220 1.61866E-04-4.85414E-05-4.82087E-05-4.70968E-06-1.99900E-19 1.58819E-18
 -1      2221 1.60358E-04-4.50933E-05-4.99128E-05 1.04698E-05-9.36077E-19 3.53933E-18
 -1      2222 1.54786E-04-5.61734E-05-4.18731E-05 3.79709E-07-7.39724E-19 2.46190E-18
 -1      2223 6.36836E-05-5.00946E-05-6.19495E-06-3.82333E-05 1.15832E-18 3.67517E-18
 -1      2224 1.71033E-04-1.35128E-05-6.62971E-05-5.88950E-06-1.61275E-18-3.87179E-18
 -1      2225 9.52204E-05-2.63783E-05-2.94906E-05 4.19353E-06 8.71372E-19 2.47014E-18
 -1      2226 9.61948E-05-2.58636E-05-3.00684E-05 5.99884E-06 9.13604E-19 2.54409E-18
 -1      2227 8.81306E-05-1.11815E-05-3.30175E-05-3.66002E-06 6.11749E-19-1.32766E-18
 -1      2228 8.83654E-05-1.14527E-05-3.29998E-05-4.80158E-06 4.56028E-19-1.45735E-18
 -1      2229 8.87192E-05-1.19383E-05-3.29514E-05-5.81806E-06 3.65907E-19-1.48513E-18
 -1      2230 8.91252E-05-1.24095E-05-3.29233E-05-6.99337E-06 2.07338E-19-1.50729E-18
 -1      2231 8.98854E-05-1.38210E-05-3.25979E-05-4.90013E-06 4.12632E-19-1.37004E-18
 -1      2232 8.77841E-05-1.07223E-05-3.30605E-05 6.15517E-07 1.06816E-18-8.03530E-19
 -1      2233 8.77797E-05-1.07174E-05-3.30607E-05-4.95381E-07 8.79475E-19-9.34383E-19
 -1      2234 8.79654E-05-1.09473E-05-3.30421E-05 2.75735E-06 1.27779E-18-6.05734E-19
 -1      2235 8.78504E-05-1.08142E-05-3.30514E-05 1.63806E-06 1.16815E-18-7.35218E-19
 -1      2236 8.91017E-05-1.27685E-05-3.27174E-05 1.04957E-06 1.01312E-18-6.55802E-19
 -1      2237 8.84004E-05-1.14945E-05-3.29972E-05 4.88644E-06 1.46036E-18-4.66292E-19
 -1      2238 8.81606E-05-1.12177E-05-3.30151E-05 3.76335E-06 1.33674E-18-5.96404E-19
 -1      2239 8.93679E-05-1.31245E-05-3.26775E-05 3.02051E-06 1.23030E-18-5.30375E-19
 -1      2240 8.91808E-05-1.24773E-05-3.29187E-05 7.07365E-06 1.64233E-18 6.08606E-20
 -1      2241 8.87623E-05-1.19907E-05-3.29476E-05 5.90205E-06 1.54186E-18-2.67398E-19
 -1      2242 8.99260E-05-1.38726E-05-3.25934E-05 4.97445E-06 1.40772E-18-2.97448E-19
 -1      2243 9.04519E-05-1.40865E-05-3.27923E-05 9.22160E-06 1.70143E-18 5.46925E-19
 -1      2244 8.97706E-05-1.32754E-05-3.28373E-05 8.04305E-06 1.61283E-18 2.70256E-19
 -1      2245 9.08623E-05-1.51323E-05-3.24488E-05 6.87001E-06 1.55734E-18 1.66684E-19
 -1      2246 9.24519E-05-1.66592E-05-3.25830E-05 1.11056E-05 1.66637E-18 1.21389E-18
 -1      2247 9.13722E-05-1.53189E-05-3.26547E-05 1.00255E-05 1.68886E-18 8.16169E-19
 -1      2248 9.22873E-05-1.70868E-05-3.22082E-05 8.51464E-06 1.57666E-18 7.37511E-19
 -1      2249 9.42405E-05-2.71185E-05-2.87498E-05 1.76332E-06 6.41369E-19 2.16824E-18
 -1      2250 9.48407E-05-2.68949E-05-2.90483E-05 2.73624E-06 7.61387E-19 2.34206E-18
 -1      2251 9.53428E-05-2.58485E-05-2.97912E-05 4.35947E-06 9.04406E-19 1.64278E-18
 -1      2252 9.59151E-05-2.50917E-05-3.03050E-05-6.18450E-06-6.56831E-19-9.37712E-19
 -1      2253 9.52561E-05-2.58511E-05-2.97615E-05-4.27873E-06-5.06916E-19-8.68527E-19
 -1      2254 1.59391E-04-5.36598E-05-4.56653E-05 1.23489E-05 1.36666E-18 1.54668E-18
 -1      2255 1.52682E-04-6.03330E-05-3.96429E-05 2.20705E-05 1.04153E-18 6.49674E-19
 -1      2256 9.51408E-05-2.65362E-05-2.93446E-05-2.93595E-06-4.20855E-19-6.99343E-19
 -1      2257 9.46730E-05-2.69093E-05-2.90413E-05-1.87484E-06-2.60003E-19-7.19975E-19
 -1      2258 9.53393E-05-2.53530E-05-2.99965E-05-4.29202E-06-4.27058E-19-8.05619E-19
 -1      2259 9.44764E-05-2.72387E-05-2.87776E-05-1.02499E-06-2.84787E-19-6.54710E-19
 -1      2260 9.42184E-05-2.74524E-05-2.86115E-05-4.23422E-07-2.55469E-19-6.80128E-19
 -1      2261 9.50361E-05-2.67010E-05-2.92993E-05-1.91888E-06-2.91372E-19-7.65986E-19
 -1      2262 9.40696E-05-2.76329E-05-2.84502E-05 8.42353E-08-2.79596E-19-6.88495E-19
 -1      2263 9.39712E-05-2.77765E-05-2.83666E-05 4.13739E-07-3.15289E-19-6.52515E-19
 -1      2264 9.47297E-05-2.74280E-05-2.88563E-05-4.39597E-07-2.90444E-19-7.55800E-19
 -1      2265 9.38864E-05-2.78861E-05-2.82732E-05 6.96013E-07-3.29233E-19-7.00248E-19
 -1      2266 9.38919E-05-2.79932E-05-2.82402E-05 8.59710E-07-2.68516E-19-7.50956E-19
 -1      2267 9.45284E-05-2.78566E-05-2.85840E-05 4.30179E-07-4.89514E-19-7.77790E-19
 -1      2268 9.38601E-05-2.80653E-05-2.81912E-05 9.96436E-07-2.65723E-19-7.67597E-19
 -1      2269 9.39270E-05-2.81491E-05-2.81888E-05 1.05813E-06-2.34086E-19-7.24412E-19
 -1      2270 9.44351E-05-2.81260E-05-2.84257E-05 9.00134E-07-2.80038E-19-7.06834E-19
 -1      2271 9.39322E-05-2.81988E-05-2.81686E-05 1.10257E-06-2.42969E-19-7.87582E-19
 -1      2272 9.40306E-05-2.82655E-05-2.81837E-05 1.10244E-06-2.52057E-19-9.33861E-19
 -1      2273 9.44247E-05-2.83028E-05-2.83430E-05 1.11189E-06-2.33412E-19-9.24016E-19
 -1      2274 9.40585E-05-2.83003E-05-2.81816E-05 1.09044E-06-3.92512E-19-9.39443E-19
 -1      2275 9.41689E-05-2.83531E-05-2.82058E-05 1.05462E-06-5.39137E-19-7.71551E-19
 -1      2276 9.44686E-05-2.84210E-05-2.83093E-05 1.16107E-06-3.50366E-19-1.09145E-18
 -1      2277 9.42088E-05-2.83773E-05-2.82144E-05 1.01045E-06-3.90632E-19-4.09234E-19
 -1      2278 9.43190E-05-2.84184E-05-2.82424E-05 9.56219E-07-1.74500E-19-2.46569E-19
 -1      2279 9.45434E-05-2.84994E-05-2.83065E-05 1.11247E-06-2.84521E-19-5.00883E-19
 -1      2280 9.43636E-05-2.84347E-05-2.82568E-05 8.96255E-07-7.73174E-20-2.48754E-20
 -1      2281 9.44665E-05-2.84661E-05-2.82854E-05 8.35075E-07-4.68494E-20-1.25046E-19
 -1      2282 9.46322E-05-2.85497E-05-2.83221E-05 1.01011E-06-9.71031E-20-5.69166E-20
 -1      2283 9.45112E-05-2.84764E-05-2.83025E-05 7.70310E-07-1.27600E-19 2.36986E-19
 -1      2284 9.46033E-05-2.84997E-05-2.83297E-05 7.09718E-07 1.76367E-19 2.61840E-19
 -1      2285 9.47239E-05-2.85796E-05-2.83480E-05 8.83744E-07 8.84446E-20 2.40788E-19
 -1      2286 9.46456E-05-2.85054E-05-2.83478E-05 6.47451E-07-3.36911E-21-2.81446E-19
 -1      2287 9.47260E-05-2.85220E-05-2.83727E-05 5.92379E-07-1.59123E-19-3.39994E-19
 -1      2288 9.48119E-05-2.85947E-05-2.83789E-05 7.53336E-07-8.77771E-20 1.53364E-19
 -1      2289 9.47647E-05-2.85242E-05-2.83907E-05 5.37441E-07-4.77581E-19-5.33368E-19
 -1      2290 9.48341E-05-2.85354E-05-2.84132E-05 4.91134E-07-6.11156E-19-7.01757E-19
 -1      2291 9.48931E-05-2.85990E-05-2.84117E-05 6.32196E-07-5.29116E-19-2.84939E-21
 -1      2292 9.48694E-05-2.85350E-05-2.84307E-05 4.46799E-07-4.06461E-19-5.69617E-19
 -1      2293 9.49297E-05-2.85420E-05-2.84513E-05 4.11507E-07-6.33173E-19-7.34618E-19
 -1      2294 9.49665E-05-2.85950E-05-2.84448E-05 5.29259E-07-5.09347E-19-6.34151E-20
 -1      2295 9.49623E-05-2.85394E-05-2.84684E-05 3.80164E-07-8.42872E-19-7.98749E-19
 -1      2296 9.50164E-05-2.85432E-05-2.84877E-05 3.57647E-07-6.98982E-19-4.85454E-19
 -1      2297 9.50333E-05-2.85849E-05-2.84779E-05 4.50789E-07-7.40865E-19 2.51644E-20
 -1      2298 9.50476E-05-2.85389E-05-2.85049E-05 3.41315E-07-3.82899E-19-9.75691E-19
 -1      2299 9.50990E-05-2.85405E-05-2.85239E-05 3.33226E-07-3.03742E-19-7.85618E-19
 -1      2300 9.50957E-05-2.85697E-05-2.85113E-05 4.01654E-07-7.93376E-19-8.13639E-20
 -1      2301 9.51308E-05-2.85348E-05-2.85421E-05 3.33924E-07-5.37680E-19-9.79831E-19
 -1      2302 9.51836E-05-2.85351E-05-2.85621E-05 3.42083E-07-4.84955E-19-1.14627E-18
 -1      2303 9.51570E-05-2.85503E-05-2.85461E-05 3.86269E-07-6.18225E-19-9.67490E-19
 -1      2304 9.52184E-05-2.85284E-05-2.85821E-05 3.62096E-07-4.84835E-19-1.29390E-18
 -1      2305 9.52774E-05-2.85284E-05-2.86046E-05 3.88668E-07-1.71302E-19-1.40105E-18
 -1      2306 9.52216E-05-2.85271E-05-2.85839E-05 4.09280E-07-5.17059E-19-5.11145E-19
 -1      2307 9.53178E-05-2.85209E-05-2.86278E-05 4.30695E-07 2.55699E-19-1.62264E-18
 -1      2308 9.53886E-05-2.85219E-05-2.86543E-05 4.78269E-07 7.55069E-19-1.55209E-18
 -1      2309 9.52944E-05-2.85006E-05-2.86268E-05 4.76007E-07-7.84211E-20-9.32129E-19
 -1      2310 9.54380E-05-2.85142E-05-2.86819E-05 5.45458E-07 9.44159E-19-1.74136E-18
 -1      2311 9.55268E-05-2.85177E-05-2.87146E-05 6.17000E-07 7.28618E-19-1.20799E-18
 -1      2312 9.53815E-05-2.84714E-05-2.86769E-05 5.92639E-07 8.31012E-19-1.53991E-18
 -1      2313 9.55890E-05-2.85106E-05-2.87480E-05 7.12830E-07 3.23630E-19-1.17337E-18
 -1      2314 9.57030E-05-2.85187E-05-2.87887E-05 8.11479E-07 1.69357E-19-9.52456E-19
 -1      2315 9.54900E-05-2.84408E-05-2.87369E-05 7.66143E-07 6.61834E-19-1.08201E-18
 -1      2316 9.57823E-05-2.85137E-05-2.88294E-05 9.39442E-07 1.73490E-19-7.23981E-19
 -1      2317 9.59294E-05-2.85292E-05-2.88802E-05 1.06807E-06 2.34229E-19-5.53876E-19
 -1      2318 9.56282E-05-2.84112E-05-2.88092E-05 1.00381E-06 5.50893E-20-8.16023E-19
 -1      2319 9.60311E-05-2.85287E-05-2.89294E-05 1.23108E-06-1.12415E-19-8.31165E-19
 -1      2320 9.62199E-05-2.85555E-05-2.89925E-05 1.39155E-06 7.78418E-20-7.64286E-19
 -1      2321 9.58058E-05-2.83867E-05-2.88962E-05 1.31230E-06 4.09598E-20-5.73345E-19
 -1      2322 9.63500E-05-2.85631E-05-2.90511E-05 1.59094E-06-2.74084E-19-6.78772E-19
 -1      2323 9.65895E-05-2.86067E-05-2.91281E-05 1.78290E-06-3.68984E-19-7.49132E-19
 -1      2324 9.60342E-05-2.83745E-05-2.89998E-05 1.69598E-06-1.97752E-19-6.75851E-19
 -1      2325 9.67553E-05-2.86283E-05-2.91966E-05 2.01694E-06 7.62743E-21-1.22120E-18
 -1      2326 9.70542E-05-2.86961E-05-2.92885E-05 2.23598E-06-1.17064E-19-1.01039E-18
 -1      2327 9.63272E-05-2.83861E-05-2.91208E-05 2.15439E-06-4.78566E-19-1.33954E-18
 -1      2328 9.72647E-05-2.87406E-05-2.93664E-05 2.49762E-06-5.20221E-19-1.21672E-18
 -1      2329 9.76308E-05-2.88428E-05-2.94729E-05 2.73272E-06-5.23687E-19-1.63169E-18
 -1      2330 9.67013E-05-2.84398E-05-2.92586E-05 2.67836E-06-6.18914E-19-1.32662E-18
 -1      2331 9.78971E-05-2.89234E-05-2.95584E-05 3.00655E-06-1.65229E-22-1.19428E-18
 -1      2332 9.83357E-05-2.90734E-05-2.96775E-05 3.23656E-06 1.85059E-19-1.13255E-18
 -1      2333 9.71774E-05-2.85628E-05-2.94104E-05 3.24466E-06-5.62154E-20-9.07834E-19
 -1      2334 9.86722E-05-2.92089E-05-2.97671E-05 3.49471E-06-3.04620E-20-1.00131E-18
 -1      2335 9.91842E-05-2.94235E-05-2.98942E-05 3.68403E-06 6.39961E-20-1.04755E-18
 -1      2336 9.77815E-05-2.87945E-05-2.95707E-05 3.80876E-06-1.68649E-20-5.20513E-19
 -1      2337 9.96093E-05-2.96391E-05-2.99826E-05 3.88120E-06-9.52097E-20-1.47220E-18
 -1      2338 1.00189E-04-2.99377E-05-3.01097E-05 3.97525E-06 2.74277E-19-1.26845E-18
 -1      2339 9.85472E-05-2.91891E-05-2.97308E-05 4.29579E-06-3.11515E-19-7.10305E-19
 -1      2340 1.00725E-04-3.02638E-05-3.01904E-05 4.04350E-06 1.04965E-18-1.56745E-18
 -1      2341 1.01354E-04-3.06646E-05-3.03059E-05 3.96548E-06 7.98462E-19-5.70988E-19
 -1      2342 9.95160E-05-2.98152E-05-2.98791E-05 4.59034E-06 3.06750E-19-1.57450E-18
 -1      2343 1.02024E-04-3.11315E-05-3.03719E-05 3.81047E-06 1.16413E-19-9.55891E-19
 -1      2344 1.02666E-04-3.16412E-05-3.04617E-05 3.46291E-06 2.15816E-19-1.38737E-18
 -1      2345 1.00735E-04-3.07473E-05-3.00039E-05 4.52734E-06 1.84767E-19-2.12018E-18
 -1      2346 1.03484E-04-3.22645E-05-3.05086E-05 2.96576E-06 6.40067E-19-1.35709E-18
 -1      2347 1.04076E-04-3.28593E-05-3.05581E-05 2.24312E-06 4.61077E-19-1.55028E-18
 -1      2348 1.02242E-04-3.20417E-05-3.00969E-05 3.88927E-06 2.33752E-19-1.87431E-18
 -1      2349 1.05021E-04-3.36099E-05-3.05884E-05 1.27645E-06-1.16695E-19-1.37296E-18
 -1      2350 1.05454E-04-3.42038E-05-3.05871E-05 9.78534E-08-4.24739E-19-8.70926E-19
 -1      2351 1.04033E-04-3.36823E-05-3.01622E-05 2.42156E-06 1.55844E-19-1.19318E-18
 -1      2352 1.06432E-04-3.49640E-05-3.06149E-05-1.42952E-06-7.97319E-19 1.99720E-19
 -1      2353 1.06547E-04-3.53741E-05-3.05625E-05-3.05835E-06-4.18623E-19 3.02050E-19
 -1      2354 1.05997E-04-3.54901E-05-3.02250E-05-1.11452E-07 7.94234E-20 7.94578E-19
 -1      2355 1.07338E-04-3.58928E-05-3.06159E-05-5.11240E-06-4.17852E-19 4.51673E-19
 -1      2356 1.06938E-04-3.58307E-05-3.05271E-05-7.01008E-06-4.86961E-19 1.30197E-18
 -1      2357 1.07819E-04-3.70137E-05-3.03401E-05-3.79753E-06-2.86328E-19 1.50402E-18
 -1      2358 1.07186E-04-3.57318E-05-3.06433E-05-9.29411E-06-9.19937E-19 8.39088E-19
 -1      2359 1.06108E-04-3.48873E-05-3.05451E-05-1.10227E-05-1.08124E-18 7.77646E-19
 -1      2360 1.08910E-04-3.74745E-05-3.05871E-05-8.34775E-06-9.37823E-19 2.06758E-18
 -1      2361 1.05450E-04-3.38262E-05-3.07462E-05-1.28637E-05-2.84408E-19 3.76149E-19
 -1      2362 1.03716E-04-3.21019E-05-3.06629E-05-1.37523E-05-1.91089E-19 9.89811E-19
 -1      2363 1.08511E-04-3.59794E-05-3.10363E-05-1.28048E-05-9.52923E-19 1.04080E-18
 -1      2364 1.02109E-04-3.01176E-05-3.09221E-05-1.42185E-05 3.15160E-19 6.80684E-19
 -1      2365 1.00076E-04-2.79131E-05-3.08559E-05-1.36320E-05 3.23232E-19 1.33872E-18
 -1      2366 1.06166E-04-3.21461E-05-3.16763E-05-1.54645E-05 5.73195E-20 1.58758E-18
 -1      2367 9.81165E-05-2.57238E-05-3.10803E-05-1.20608E-05 2.81473E-20 2.19852E-18
 -1      2368 9.64354E-05-2.39451E-05-3.09999E-05-9.88700E-06 1.30742E-18 3.32438E-18
 -1      2369 1.02422E-04-2.69285E-05-3.23523E-05-1.45002E-05 1.11993E-18 2.76004E-18
 -1      2370 9.51732E-05-2.27011E-05-3.10571E-05-6.59076E-06 6.76859E-19 2.56522E-18
 -1      2371 9.44338E-05-2.22358E-05-3.09242E-05-3.54748E-06 5.25690E-19 1.22710E-18
 -1      2372 9.90278E-05-2.26798E-05-3.27797E-05-9.35797E-06 1.54484E-19 3.12878E-18
 -1      2373 9.45263E-05-2.26433E-05-3.07433E-05 5.03942E-08 1.51943E-18 7.76291E-19
 -1      2374 9.48244E-05-2.35866E-05-3.05643E-05 2.71768E-06 1.82878E-18 1.06993E-18
 -1      2375 9.78184E-05-2.16480E-05-3.26925E-05-1.92219E-06 6.81623E-19 1.18644E-18
 -1      2376 9.58010E-05-2.51409E-05-3.02066E-05 5.08310E-06 1.28363E-18 7.78051E-19
 -1      2377 9.66571E-05-2.67280E-05-3.00267E-05 6.49897E-06 1.36996E-18 7.01400E-19
 -1      2378 9.90252E-05-2.41896E-05-3.20820E-05 4.39469E-06 1.51403E-18 1.47304E-18
 -1      2379 9.74751E-05-2.82842E-05-2.96119E-05 7.07110E-06 6.65649E-19-4.51300E-19
 -1      2380 9.82613E-05-2.95729E-05-2.94736E-05 7.19571E-06-4.17327E-19-1.49635E-18
 -1      2381 1.00992E-04-2.81681E-05-3.11688E-05 7.29527E-06-1.74634E-20 6.22647E-19
 -1      2382 9.81912E-05-3.02862E-05-2.91073E-05 6.50990E-06-3.33348E-19-2.16657E-18
 -1      2383 9.84910E-05-3.08256E-05-2.90096E-05 5.91075E-06-1.18842E-19-2.38834E-18
 -1      2384 1.01831E-04-3.11528E-05-3.02380E-05 6.87350E-06-8.51500E-19-2.30201E-18
 -1      2385 9.33465E-05-2.76933E-05-2.81298E-05-4.12460E-07 3.64945E-19 1.42187E-18
 -1      2386 9.34242E-05-2.75881E-05-2.81910E-05-1.26772E-07 3.81792E-19 1.73538E-18
 -1      2387 9.32957E-05-2.78583E-05-2.80399E-05-8.18848E-07 5.25734E-19 1.18410E-18
 -1      2388 9.32503E-05-2.77669E-05-2.80513E-05-6.79626E-07 4.24160E-19 1.36027E-18
 -1      2389 9.40159E-05-2.78096E-05-2.83853E-05-4.45960E-07 5.82323E-19 7.62799E-19
 -1      2390 9.33896E-05-2.79942E-05-2.80235E-05-9.94435E-07 5.52462E-19 1.22288E-18
 -1      2391 9.32765E-05-2.79132E-05-2.80064E-05-9.43664E-07 5.19575E-19 1.13568E-18
 -1      2392 9.39292E-05-2.80194E-05-2.82551E-05-8.93348E-07 5.77028E-19 7.92853E-19
 -1      2393 9.35638E-05-2.81095E-05-2.80499E-05-1.02885E-06 5.24590E-19 1.28492E-18
 -1      2394 9.34193E-05-2.80384E-05-2.80179E-05-1.03112E-06 4.82132E-19 1.38221E-18
 -1      2395 9.39577E-05-2.81689E-05-2.82005E-05-1.08937E-06 4.82253E-19 6.55348E-19
 -1      2396 9.37740E-05-2.82066E-05-2.80992E-05-9.79850E-07 3.50155E-19 1.27005E-18
 -1      2397 9.36211E-05-2.81457E-05-2.80607E-05-1.01255E-06 6.20357E-19 1.36844E-18
 -1      2398 9.40555E-05-2.82799E-05-2.81929E-05-1.12976E-06 5.07368E-19 9.32240E-19
 -1      2399 9.39917E-05-2.82871E-05-2.81585E-05-8.85453E-07 3.07515E-19 1.04260E-18
 -1      2400 9.38440E-05-2.82361E-05-2.81188E-05-9.33774E-07 2.63681E-19 1.18275E-18
 -1      2401 9.41889E-05-2.83633E-05-2.82129E-05-1.07762E-06 4.70595E-19 1.01918E-18
 -1      2402 9.41995E-05-2.83523E-05-2.82200E-05-7.70838E-07 2.87121E-19 9.57787E-19
 -1      2403 9.40646E-05-2.83107E-05-2.81820E-05-8.25046E-07 3.03621E-19 1.00705E-18
 -1      2404 9.43349E-05-2.84255E-05-2.82478E-05-9.75022E-07 4.15350E-19 6.15027E-19
 -1      2405 9.43882E-05-2.84040E-05-2.82789E-05-6.52601E-07 3.15675E-19 1.00494E-18
 -1      2406 9.42696E-05-2.83708E-05-2.82444E-05-7.06329E-07 1.81310E-19 8.46439E-19
 -1      2407 9.44790E-05-2.84710E-05-2.82895E-05-8.50090E-07 1.57732E-19 3.81595E-19
 -1      2408 9.45541E-05-2.84438E-05-2.83330E-05-5.41573E-07 1.60661E-19 1.24318E-18
 -1      2409 9.44525E-05-2.84180E-05-2.83026E-05-5.90695E-07 3.79050E-19 1.15685E-18
 -1      2410 9.46132E-05-2.85030E-05-2.83329E-05-7.21492E-07 1.26174E-19 6.29491E-19
 -1      2411 9.46976E-05-2.84737E-05-2.83816E-05-4.44799E-07 2.55596E-19 9.34729E-19
 -1      2412 9.46115E-05-2.84541E-05-2.83551E-05-4.86634E-07 2.16605E-19 1.26719E-18
 -1      2413 9.47338E-05-2.85243E-05-2.83753E-05-6.01533E-07 2.56091E-19 5.03258E-19
 -1      2414 9.48215E-05-2.84955E-05-2.84252E-05-3.66997E-07 5.58848E-19 6.39990E-19
 -1      2415 9.47485E-05-2.84810E-05-2.84021E-05-3.99715E-07 3.34375E-19 9.95023E-19
 -1      2416 9.48404E-05-2.85371E-05-2.84155E-05-4.98358E-07 3.21748E-19 6.77041E-19
 -1      2417 9.49308E-05-2.85113E-05-2.84650E-05-3.11656E-07 7.81172E-19 6.97219E-19
 -1      2418 9.48672E-05-2.85004E-05-2.84443E-05-3.33832E-07 7.58920E-19 8.74949E-19
 -1      2419 9.49349E-05-2.85433E-05-2.84534E-05-4.17590E-07 5.02618E-19 8.31066E-19
 -1      2420 9.50319E-05-2.85226E-05-2.85031E-05-2.81897E-07 3.47197E-19 1.25148E-18
 -1      2421 9.49734E-05-2.85144E-05-2.84835E-05-2.92149E-07 6.59533E-19 1.09546E-18
 -1      2422 9.50208E-05-2.85442E-05-2.84900E-05-3.63564E-07 4.05589E-19 1.16477E-18
 -1      2423 9.51326E-05-2.85315E-05-2.85420E-05-2.81143E-07-4.98438E-19 1.44694E-18
 -1      2424 9.50742E-05-2.85245E-05-2.85220E-05-2.77853E-07-1.03515E-20 1.66443E-18
 -1      2425 9.51029E-05-2.85411E-05-2.85268E-05-3.40292E-07-2.64369E-19 1.86936E-18
 -1      2426 9.52421E-05-2.85397E-05-2.85848E-05-3.13675E-07-3.04193E-19 1.11702E-18
 -1      2427 9.51779E-05-2.85328E-05-2.85626E-05-2.94748E-07-4.43618E-19 1.55100E-18
 -1      2428 9.51872E-05-2.85349E-05-2.85659E-05-3.52230E-07-4.34002E-19 1.61694E-18
 -1      2429 9.53713E-05-2.85495E-05-2.86352E-05-3.85099E-07-4.20089E-19 8.78191E-19
 -1      2430 9.52944E-05-2.85410E-05-2.86086E-05-3.47756E-07-2.92744E-19 1.27812E-18
 -1      2431 9.52810E-05-2.85265E-05-2.86100E-05-4.04892E-07-1.23084E-19 1.52375E-18
 -1      2432 9.55330E-05-2.85632E-05-2.86976E-05-5.02730E-07 6.68751E-19 1.09155E-20
 -1      2433 9.54352E-05-2.85514E-05-2.86641E-05-4.43335E-07-1.86946E-20 2.53757E-19
 -1      2434 9.53925E-05-2.85166E-05-2.86625E-05-5.05357E-07 2.13833E-19 5.44520E-19
 -1      2435 9.57420E-05-2.85835E-05-2.87771E-05-6.75918E-07 3.67380E-19 7.53468E-19
 -1      2436 9.56138E-05-2.85665E-05-2.87338E-05-5.89826E-07 6.79512E-19 3.63673E-19
 -1      2437 9.55314E-05-2.85061E-05-2.87270E-05-6.62679E-07 3.76907E-19 3.61064E-19
 -1      2438 9.60159E-05-2.86141E-05-2.88799E-05-9.16269E-07-2.59347E-19 7.88449E-19
 -1      2439 9.58458E-05-2.85891E-05-2.88232E-05-7.97722E-07 2.77791E-19 8.81382E-19
 -1      2440 9.57090E-05-2.84960E-05-2.88080E-05-8.88190E-07 1.13642E-19 6.38096E-19
 -1      2441 9.63751E-05-2.86590E-05-2.90126E-05-1.23769E-06-8.86390E-19 5.70256E-19
 -1      2442 9.61496E-05-2.86229E-05-2.89385E-05-1.07981E-06-8.14134E-19 6.07813E-19
 -1      2443 9.59380E-05-2.84876E-05-2.89103E-05-1.19565E-06-4.33379E-19 4.73633E-19
 -1      2444 9.68432E-05-2.87239E-05-2.91832E-05-1.65611E-06-1.44172E-19 5.51114E-19
 -1      2445 9.65465E-05-2.86726E-05-2.90869E-05-1.45105E-06-6.44645E-19 4.90661E-19
 -1      2446 9.62329E-05-2.84827E-05-2.90394E-05-1.60114E-06-4.99346E-19-8.26485E-19
 -1      2447 9.74467E-05-2.88159E-05-2.93999E-05-2.18853E-06 3.63752E-19 1.12411E-18
 -1      2448 9.70608E-05-2.87440E-05-2.92764E-05-1.92804E-06 5.64567E-20 1.10632E-18
 -1      2449 9.66096E-05-2.84844E-05-2.92007E-05-2.12249E-06-3.07920E-19-2.35196E-19
 -1      2450 9.82148E-05-2.89453E-05-2.96709E-05-2.85081E-06-3.95004E-20 1.70988E-18
 -1      2451 9.77195E-05-2.88456E-05-2.95148E-05-2.52748E-06 5.35411E-19 1.77338E-18
 -1      2452 9.70858E-05-2.84978E-05-2.93996E-05-2.77781E-06-9.07099E-20 1.04717E-18
 -1      2453 9.91787E-05-2.91274E-05-3.00034E-05-3.65328E-06-3.69174E-19 2.74254E-18
 -1      2454 9.85526E-05-2.89896E-05-2.98100E-05-3.26311E-06-4.32790E-19 2.49046E-18
 -1      2455 9.76805E-05-2.85325E-05-2.96401E-05-3.58254E-06-6.29352E-19 1.39811E-18
 -1      2456 1.00371E-04-2.93865E-05-3.04015E-05-4.59227E-06-5.67290E-19 4.11738E-18
 -1      2457 9.95926E-05-2.91953E-05-3.01674E-05-4.13953E-06-2.26628E-19 3.60638E-18
 -1      2458 9.84156E-05-2.86064E-05-2.99238E-05-4.54376E-06-6.56582E-19 2.92947E-18
 -1      2459 1.01824E-04-2.97627E-05-3.08631E-05-5.63512E-06-2.93810E-19 3.80846E-18
 -1      2460 1.00875E-04-2.94950E-05-3.05884E-05-5.14112E-06-1.17620E-19 4.47133E-18
 -1      2461 9.93176E-05-2.87536E-05-3.02477E-05-5.65010E-06-6.04612E-19 4.35830E-18
 -1      2462 1.03570E-04-3.03231E-05-3.13753E-05-6.69511E-06-1.20587E-18 2.17899E-18
 -1      2463 1.02439E-04-2.99428E-05-3.10666E-05-6.21261E-06-5.05886E-19 3.32831E-18
 -1      2464 1.00425E-04-2.90370E-05-3.06017E-05-6.85459E-06-2.02568E-19 3.56437E-18
 -1      2465 1.05645E-04-3.11757E-05-3.19094E-05-7.59303E-06-6.66306E-19 1.30652E-18
 -1      2466 1.04333E-04-3.06294E-05-3.15832E-05-7.22770E-06-1.22103E-18 1.74633E-18
 -1      2467 1.01798E-04-2.95681E-05-3.09652E-05-8.04706E-06-8.09398E-19 2.18101E-18
 -1      2468 1.08088E-04-3.24791E-05-3.24170E-05-8.00618E-06 2.05612E-19 1.73847E-18
 -1      2469 1.06621E-04-3.16965E-05-3.21034E-05-7.94284E-06-7.71024E-19 1.09426E-18
 -1      2470 1.03546E-04-3.05305E-05-3.13071E-05-9.01304E-06-8.54794E-19 8.91099E-19
 -1      2471 1.10931E-04-3.44212E-05-3.28337E-05-7.41869E-06 9.82780E-19 2.95284E-18
 -1      2472 1.09379E-04-3.33376E-05-3.25761E-05-7.93947E-06 6.52594E-19 2.42444E-18
 -1      2473 1.05844E-04-3.21925E-05-3.15899E-05-9.37897E-06-1.15102E-20 1.11872E-18
 -1      2474 1.14140E-04-3.71012E-05-3.31009E-05-5.11924E-06 1.36736E-18 4.18793E-18
 -1      2475 1.12667E-04-3.57378E-05-3.29467E-05-6.57873E-06 1.45638E-18 3.65828E-18
 -1      2476 1.08940E-04-3.48599E-05-3.17895E-05-8.55373E-06 8.90113E-19 2.10894E-18
 -1      2477 1.17444E-04-4.02303E-05-3.32153E-05-3.79990E-07 5.85902E-19 3.86037E-18
 -1      2478 1.16381E-04-3.88594E-05-3.31913E-05-3.06035E-06 1.37683E-18 4.35960E-18
 -1      2479 1.13048E-04-3.86537E-05-3.19387E-05-5.71682E-06 1.28159E-18 3.32433E-18
 -1      2480 1.20037E-04-4.26435E-05-3.33028E-05 7.03188E-06 1.43360E-19 2.99062E-18
 -1      2481 1.19962E-04-4.20249E-05-3.33766E-05 3.24742E-06 3.68373E-19 3.74991E-18
 -1      2482 1.18020E-04-4.30299E-05-3.21934E-05-1.72534E-08 1.05464E-18 3.24788E-18
 -1      2483 1.20360E-04-4.20140E-05-3.36502E-05 1.57778E-05 2.42384E-19 2.55953E-18
 -1      2484 1.21946E-04-4.33520E-05-3.37120E-05 1.19283E-05 4.45003E-19 2.86491E-18
 -1      2485 1.22730E-04-4.60329E-05-3.28924E-05 8.79831E-06 4.33456E-19 3.77518E-18
 -1      2486 1.16785E-04-3.62040E-05-3.45154E-05 2.17059E-05-3.04270E-20 2.26469E-18
 -1      2487 1.20141E-04-4.00881E-05-3.44648E-05 2.00121E-05-4.14722E-19 1.89551E-18
 -1      2488 1.24550E-04-4.41147E-05-3.44692E-05 1.88954E-05 2.51714E-19 1.95651E-18
 -1      2489 1.09822E-04-2.67616E-05-3.57079E-05 1.98340E-05 1.07949E-18 1.73879E-18
 -1      2490 1.14070E-04-3.17469E-05-3.55913E-05 2.20963E-05 1.02480E-18 1.84234E-18
 -1      2491 1.21591E-04-3.58824E-05-3.67686E-05 2.46370E-05 6.68759E-19 1.47908E-18
 -1      2492 1.04972E-04-2.06876E-05-3.62328E-05 8.51966E-06 1.51566E-19 1.63868E-18
 -1      2493 1.07224E-04-2.27977E-05-3.63761E-05 1.40966E-05 9.40736E-20 1.78498E-18
 -1      2494 1.15082E-04-2.43569E-05-3.90219E-05 1.91812E-05 4.32357E-19 1.34383E-18
 -1      2495 1.05581E-04-2.37221E-05-3.53951E-05-4.90909E-06 1.26425E-18 2.78277E-18
 -1      2496 1.04485E-04-2.11660E-05-3.59221E-05 3.30150E-08 6.00599E-19 2.77253E-18
 -1      2497 1.11215E-04-1.86806E-05-3.98523E-05 5.52385E-06-3.36907E-19 1.95594E-18
 -1      2498 1.09717E-04-3.18788E-05-3.35887E-05-1.06442E-05 1.48326E-18 2.18628E-18
 -1      2499 1.07629E-04-2.77516E-05-3.42006E-05-9.22683E-06 1.77922E-18 3.76572E-18
 -1      2500 1.14268E-04-2.55729E-05-3.81171E-05-8.03783E-06 5.71006E-19 2.89859E-18
 -1      2501 1.11772E-04-3.76843E-05-3.18319E-05-7.49667E-06 1.31130E-18 9.99582E-19
 -1      2502 1.10622E-04-3.53279E-05-3.22891E-05-9.42251E-06 1.26507E-18 2.28439E-18
 -1      2503 1.17820E-04-3.59584E-05-3.51022E-05-1.04788E-05 1.74637E-18 1.64395E-18
 -1      2504 1.09444E-04-3.76881E-05-3.07052E-05-7.08379E-07 2.11507E-18-2.54863E-19
 -1      2505 1.10027E-04-3.80400E-05-3.09534E-05-3.54479E-06 1.98764E-18 1.00533E-18
 -1      2506 1.17195E-04-4.13935E-05-3.24893E-05-4.39221E-06 2.10066E-18 6.15304E-19
 -1      2507 1.04160E-04-3.35943E-05-3.01521E-05 4.19070E-06 7.81507E-19 1.23378E-18
 -1      2508 1.05951E-04-3.55308E-05-3.02887E-05 2.53200E-06 1.21398E-18 4.93817E-19
 -1      2509 1.11766E-04-3.93424E-05-3.10395E-05 3.12554E-06 1.26532E-18 6.97178E-19
 -1      2510 1.00407E-04-3.05560E-05-2.99794E-05 5.04067E-06 3.74547E-19 1.55881E-18
 -1      2511 8.27861E-05-1.57493E-05-2.89088E-05 2.97125E-05 8.14707E-19-1.12687E-18
 -1      2512 9.08489E-05-2.14379E-05-2.93525E-05 3.23155E-05 1.44003E-18-1.25104E-18
 -1      2513 6.85171E-05-5.12408E-06-2.72627E-05 1.44332E-05-1.73077E-18-3.97894E-19
 -1      2514 7.44812E-05-9.04497E-06-2.76707E-05 2.31732E-05-6.06431E-19-4.42469E-19
 -1      2515 7.70743E-05-1.77915E-05-2.50860E-05 3.06374E-05 6.71300E-19-1.25419E-18
 -1      2516 1.06049E-04-3.32347E-05-3.11180E-05 2.20232E-05 5.18653E-19 1.39439E-18
 -1      2517 1.07194E-04-3.50760E-05-3.08977E-05 1.72597E-05-7.72812E-19 2.81937E-18
 -1      2518 9.83142E-05-2.75438E-05-3.03968E-05 3.07866E-05 1.39000E-18 7.24094E-19
 -1      2519 1.03469E-04-3.16969E-05-3.05472E-05 2.79620E-05 1.03215E-18 4.58847E-19
 -1      2520 1.09382E-04-3.92539E-05-3.00960E-05 2.67303E-05-9.06855E-20 2.18632E-18
 -1      2521 6.66313E-05-3.52949E-06-2.68356E-05-1.05500E-05 1.63047E-19 2.40944E-18
 -1      2522 6.54372E-05-2.53723E-06-2.67955E-05 6.16013E-07-1.85864E-18 1.78136E-18
 -1      2523 6.16986E-05-7.30948E-06-2.28468E-05 8.93852E-06-1.34867E-18 8.82502E-19
 -1      2524 7.90985E-05-1.28110E-05-2.79762E-05-2.98143E-05 1.97030E-18 1.18754E-18
 -1      2525 7.18630E-05-7.77457E-06-2.75733E-05-2.27661E-05 9.51139E-19 1.07928E-18
 -1      2526 6.45497E-05-9.45584E-06-2.32004E-05-1.92281E-05 3.01279E-19 2.64878E-18
 -1      2527 9.55626E-05-2.56331E-05-2.96263E-05-3.45323E-05 1.56165E-18 5.76578E-19
 -1      2528 8.78502E-05-1.99208E-05-2.92881E-05-3.39374E-05 1.67028E-18 2.94476E-19
 -1      2529 8.28450E-05-2.19582E-05-2.58841E-05-3.64733E-05 1.57898E-18 7.46977E-19
 -1      2530 1.05738E-04-3.39961E-05-3.05987E-05-2.72927E-05-2.79627E-19 3.35617E-18
 -1      2531 1.01510E-04-3.01486E-05-3.06175E-05-3.11943E-05 2.57842E-19 1.78227E-18
 -1      2532 1.01292E-04-3.41639E-05-2.87968E-05-3.62550E-05 6.89776E-19 4.23159E-19
 -1      2533 1.08038E-04-3.65033E-05-3.06453E-05-1.59409E-05 4.58735E-19-1.02000E-18
 -1      2534 1.07318E-04-3.48628E-05-3.09477E-05-2.10947E-05-2.28895E-19 2.60713E-18
 -1      2535 1.10695E-04-3.95627E-05-3.05214E-05-2.55494E-05-2.15127E-19 2.82710E-18
 -1      2536 1.05654E-04-3.55100E-05-3.01080E-05-5.87919E-06 1.55649E-19-1.97931E-18
 -1      2537 1.06877E-04-3.53752E-05-3.05060E-05-1.02475E-05 7.65284E-19-3.09160E-18
 -1      2538 1.11254E-04-3.91479E-05-3.08869E-05-1.31667E-05 6.83043E-19-2.41028E-18
 -1      2539 1.01652E-04-3.32545E-05-2.93554E-05 8.92879E-07 7.68436E-19-1.23283E-19
 -1      2540 1.03542E-04-3.38995E-05-2.97278E-05-1.90646E-06 9.93775E-21 2.81519E-19
 -1      2541 1.07272E-04-3.62707E-05-3.03972E-05-3.35949E-06-3.47697E-20-1.64538E-18
 -1      2542 3.19894E-05-2.07278E-05-4.35385E-06 2.10792E-05 2.10414E-18 2.91464E-18
 -1      2543 2.45440E-05-2.03578E-05-1.49561E-06 4.19853E-06 1.45993E-18 2.74100E-18
 -1      2544 1.11352E-04-6.09513E-05-2.17128E-05 5.02782E-05-1.30083E-18-4.01202E-19
 -1      2545 9.10352E-05-5.42882E-05-1.55188E-05 5.12018E-05-7.26331E-20-1.72742E-18
 -1      2546 9.36291E-05-2.74736E-05-2.83408E-05 3.68132E-07 4.54858E-19 1.79690E-18
 -1      2547 9.39113E-05-2.73376E-05-2.84878E-05 9.01915E-07 4.87762E-19 2.00064E-18
 -1      2548 9.42719E-05-2.74902E-05-2.86343E-05 4.01423E-07 5.43050E-19 9.90055E-19
 -1      2549 9.73228E-05-3.09172E-05-2.84722E-05 3.42669E-06-2.00244E-20-1.93247E-18
 -1      2550 2.59340E-05-2.01994E-05-2.24626E-06-9.34052E-06 7.81467E-19 2.86890E-18
 -1      2551 3.27757E-05-2.12502E-05-4.46587E-06-2.60590E-05 4.94455E-19 3.70111E-18
 -1      2552 3.52628E-05-1.42947E-05-8.35822E-06-4.06785E-06 2.10643E-18 3.78454E-18
 -1      2553 6.90707E-05-4.31735E-05-1.09972E-05 5.10732E-05 1.53736E-19-2.41087E-18
 -1      2554 4.94036E-05-3.17046E-05-7.19982E-06 4.03543E-05 1.43932E-18-6.26804E-19
 -1      2555 8.71239E-05-4.73104E-05-1.65756E-05 5.00961E-05 3.26108E-19-2.04982E-18
 -1      2556 9.50753E-05-2.00248E-05-3.22130E-05-1.17321E-05-7.57115E-19-1.28311E-18
 -1      2557 9.54775E-05-2.33877E-05-3.09268E-05-7.97851E-06-7.54389E-19-1.09481E-18
 -1      2558 9.50696E-05-2.25361E-05-3.10533E-05-7.66174E-06-6.05116E-19-1.00284E-18
 -1      2559 9.32198E-05-1.75776E-05-3.24156E-05-1.13620E-05-6.31867E-19-1.38463E-18
 -1      2560 4.40793E-05-3.09262E-05-5.34377E-06-4.03907E-05 6.33157E-19 3.23905E-18
 -1      2561 6.11303E-05-4.07853E-05-8.64610E-06-5.06893E-05 1.33619E-18 3.30851E-18
 -1      2562 3.72991E-05-3.11035E-05-2.50319E-06 3.45235E-05-6.45863E-20-3.20306E-18
 -1      2563 2.46448E-05-2.69398E-05 1.28803E-06 2.13755E-05-6.82073E-19-3.80191E-18
 -1      2564 1.56753E-04-3.05779E-05-5.44957E-05 1.57411E-05-1.68305E-18 3.34091E-18
 -1      2565 1.57835E-04-2.15982E-05-5.85870E-05 1.54299E-05-8.74138E-19 4.27159E-18
 -1      2566 8.78362E-05-1.07970E-05-3.30525E-05-1.51789E-06 8.13859E-19-1.10921E-18
 -1      2567 8.79419E-05-1.09193E-05-3.30439E-05-2.63651E-06 7.08674E-19-1.23891E-18
 -1      2568 8.93409E-05-1.30914E-05-3.26803E-05-2.92890E-06 6.18393E-19-1.19958E-18
 -1      2569 8.90918E-05-1.27564E-05-3.27184E-05-9.40596E-07 8.07635E-19-9.35809E-19
 -1      2570 1.53450E-04-1.37092E-05-6.02597E-05 3.64027E-06 1.34509E-18 3.88047E-18
 -1      2571 1.55552E-04-2.04276E-05-5.83379E-05-4.48692E-07 1.39760E-18 2.83015E-18
 -1      2572 1.56115E-04-1.67288E-05-6.03789E-05 1.41664E-05-3.29496E-19 4.57641E-18
 -1      2573 1.53582E-04-1.21730E-05-6.11780E-05 9.87511E-06 1.13079E-18 4.40883E-18
 -1      2574 1.44474E-04-1.82261E-05-5.41301E-05 1.88995E-05-3.60836E-19 5.03487E-18
 -1      2575 5.69377E-05-4.31673E-05-5.57404E-06-3.72363E-05 1.19178E-18 4.53184E-18
 -1      2576 7.98165E-05-5.28062E-05-1.16712E-05-4.07431E-05 5.61795E-19 4.64481E-18
 -1      2577 1.34909E-04-6.62604E-05-2.95362E-05-1.83827E-05-1.85161E-18 4.99749E-20
 -1      2578 1.45011E-04-6.39413E-05-3.51220E-05-1.03271E-05-8.97855E-19 1.60492E-18
 -1      2579 1.56708E-04-1.34341E-05-6.16591E-05-1.55461E-06-1.86601E-18-3.54970E-18
 -1      2580 1.50305E-04-9.15053E-06-6.11480E-05-2.82422E-06-1.88126E-18-3.41762E-18
 -1      2581 1.03798E-04-6.17306E-05-1.77830E-05-3.43899E-05-7.03461E-19 1.04386E-18
 -1      2582 1.21512E-04-6.53816E-05-2.42360E-05-2.96049E-05-1.88931E-18-1.64409E-18
 -1      2583 1.30630E-04-6.76362E-05-2.68165E-05-2.00800E-05-1.42132E-18 7.09390E-21
 -1      2584 2.59764E-05-2.70948E-05 8.04858E-07-1.76872E-05-1.36161E-18 1.32455E-18
 -1      2585 3.72480E-05-3.15286E-05-2.18815E-06-2.90062E-05 1.22820E-19 2.84476E-18
 -1      2586 1.82541E-05-2.34627E-05 2.46747E-06 9.00855E-06-1.93738E-18-2.28699E-18
 -1      2587 1.87873E-05-2.36578E-05 2.34810E-06-5.71223E-06-2.19614E-18 8.97008E-19
 -1      2588 7.37358E-05-4.71190E-05-1.12539E-05 4.50322E-05 1.47828E-18-2.14935E-18
 -1      2589 5.74018E-05-4.04491E-05-6.80511E-06 4.12515E-05 7.88164E-19-2.13833E-18
 -1      2590 1.44093E-04-6.00090E-05-3.63035E-05 1.83657E-05 1.42725E-18-8.55503E-20
 -1      2591 1.33819E-04-6.21702E-05-3.06524E-05 2.34580E-05 1.53726E-18-7.83505E-20
 -1      2592 1.56367E-04-4.59024E-05-4.77692E-05-2.54848E-07 1.07044E-18-7.05155E-20
 -1      2593 1.49982E-04-5.32881E-05-4.16400E-05 7.64634E-06 1.11168E-18-1.69407E-20
 -1      2594 1.47545E-04-5.83616E-05-3.82152E-05 5.20423E-06 1.37421E-18-1.37855E-19
 -1      2595 1.56623E-04-2.76925E-05-5.58018E-05-9.70473E-06 1.08992E-18-1.38935E-18
 -1      2596 1.55353E-04-3.52587E-05-5.18357E-05-7.69473E-06 1.60153E-18-1.29194E-18
 -1      2597 1.50384E-04-1.10277E-05-6.03862E-05-9.56113E-06 3.01544E-19-3.44642E-18
 -1      2598 1.53657E-04-1.78810E-05-5.85650E-05-1.07814E-05 1.04990E-18-1.99540E-18
 -1      2599 1.56768E-04-2.60309E-05-5.64945E-05-4.86376E-09-2.53813E-18-2.10657E-18
 -1      2600 1.58449E-04-1.92904E-05-6.00428E-05-4.27031E-07-1.99370E-18-2.61797E-18
 -1      2601 1.43831E-04-1.45867E-05-5.56518E-05 3.23702E-06-2.22113E-18-1.86644E-18
 -1      2602 1.57376E-04-4.54767E-05-4.81483E-05-9.07191E-06-3.44594E-18-2.97690E-18
 -1      2603 1.60180E-04-3.69133E-05-5.32517E-05-4.34339E-06-3.36177E-18-3.49507E-18
 -1      2604 1.45405E-04-6.03086E-05-3.65437E-05-2.84884E-05-2.30721E-18-1.29977E-18
 -1      2605 1.54557E-04-5.54928E-05-4.27903E-05-2.02136E-05-2.58117E-18-2.52416E-18
 -1      2606 1.20429E-04-6.19776E-05-2.48425E-05-4.53023E-05-1.24260E-18-2.03606E-18
 -1      2607 1.35908E-04-6.25515E-05-3.15284E-05-3.99104E-05-2.37445E-18-2.45047E-18
 -1      2608 1.43418E-04-6.42973E-05-3.37420E-05-2.90747E-05-1.80852E-18-2.79457E-18
 -1      2609 7.84307E-05-4.92586E-05-1.23356E-05-5.25124E-05 1.74235E-18 2.47238E-18
 -1      2610 9.79902E-05-5.54340E-05-1.83913E-05-5.42179E-05-1.14349E-19 3.51466E-19
 -1      2611 7.70015E-05-4.36872E-05-1.39172E-05-5.22622E-05 2.06274E-18 2.63099E-18
 -1      2612 1.61927E-04-3.09134E-05-5.64540E-05 6.79387E-07 2.19170E-18 1.80249E-18
 -1      2613 1.60228E-04-4.09928E-05-5.12847E-05 3.37107E-06 2.42442E-18 1.34085E-18
 -1      2614 9.63396E-05-2.50968E-05-3.05585E-05 7.59140E-06 1.01721E-18 2.78279E-18
 -1      2615 9.74609E-05-2.37803E-05-3.15988E-05 1.06911E-05 9.83776E-19 3.03015E-18
 -1      2616 9.58945E-05-2.13046E-05-3.20230E-05 1.18927E-05 1.24032E-18 2.48811E-18
 -1      2617 9.58830E-05-2.41625E-05-3.07706E-05 7.68239E-06 1.09409E-18 1.99097E-18
 -1      2618 1.44214E-04-6.45634E-05-3.42883E-05 3.37337E-05 3.68459E-20-3.24837E-19
 -1      2619 1.29676E-04-6.55211E-05-2.73904E-05 3.97467E-05-1.75421E-18 4.93397E-20
 -1      2620 1.49387E-04-6.53642E-05-3.59349E-05 2.20393E-05-2.55380E-19 1.02110E-18
 -1      2621 1.48580E-04-2.52898E-05-5.31531E-05-4.66809E-06 8.48515E-19 1.51280E-18
 -1      2622 9.08058E-05-1.50642E-05-3.24566E-05-6.79095E-06 1.52348E-19-1.41981E-18
 -1      2623 8.97038E-05-1.32032E-05-3.28432E-05-7.96521E-06 1.18345E-19-1.54703E-18
 -1      2624 9.04032E-05-1.40302E-05-3.27968E-05-9.14076E-06-7.93303E-20-1.63239E-18
 -1      2625 9.47372E-05-2.69400E-05-2.90684E-05 1.88213E-06 7.32614E-19 1.26913E-18
 -1      2626 9.42491E-05-1.90825E-05-3.22595E-05 1.16016E-05 1.42298E-18 1.82503E-18
 -1      2627 4.71821E-05-2.38446E-05-9.44918E-06-3.40618E-05 1.02660E-18 3.08701E-18
 -1      2628 1.14805E-04-5.99642E-05-2.32038E-05-4.81767E-05 7.53436E-19-1.48392E-18
 -1      2629 1.04135E-04-3.32588E-05-3.04156E-05 7.27110E-06-1.97114E-19 1.47951E-18
 -1      2630 9.71313E-05-3.17133E-05-2.79585E-05 3.54751E-05 4.45486E-19-1.59322E-19
 -1      2631 1.05609E-04-3.36729E-05-3.07788E-05 1.04933E-05-5.31937E-19 1.27787E-18
 -1      2632 1.50974E-04-3.17344E-05-5.12702E-05 3.39447E-06-3.60624E-18-1.73790E-18
 -1      2633 1.42690E-04-8.89538E-06-5.78189E-05-6.78059E-06-8.67997E-19-1.35450E-18
 -1      2634 1.32299E-04-9.43185E-06-5.32101E-05-1.04079E-05 5.25584E-19-7.18390E-20
 -1      2635 1.32580E-04-7.53518E-06-5.41270E-05-3.67174E-06-1.25319E-18-1.31842E-18
 -1      2636 1.50854E-04-4.14260E-05-4.70336E-05-9.82613E-06 1.84600E-18-1.39549E-18
 -1      2637 9.47187E-05-2.06039E-05-3.17192E-05 9.66852E-06 1.35773E-18 1.53303E-18
 -1      2638 1.55285E-04-3.92106E-05-5.01425E-05 1.76589E-05-8.00764E-19 2.56164E-18
 -1      2639 1.44084E-04-3.19727E-05-4.86461E-05 2.46122E-05-3.33731E-19 2.83629E-18
 -1      2640 1.49865E-04-4.51545E-05-4.49473E-05 1.85758E-05-6.11981E-19 2.25120E-18
 -1      2641 9.20873E-05-1.62844E-05-3.25223E-05-1.03734E-05-4.43399E-19-1.51468E-18
 -1      2642 5.18890E-05-3.34158E-05-7.36951E-06 3.70455E-05-1.33831E-19-2.27068E-18
 -1      2643 2.80247E-05-2.11738E-05-2.35473E-06 1.52929E-05-1.72366E-18-2.24358E-18
 -1      2644 8.89716E-05-5.28752E-05-1.49969E-05 4.27078E-05 2.18302E-18-1.00162E-19
 -1      2645 8.35783E-05-4.75396E-05-1.49522E-05 4.15244E-05 1.96205E-18 2.75074E-19
 -1      2646 1.02290E-04-5.80389E-05-1.93397E-05 3.87622E-05 2.29980E-18 2.21070E-18
 -1      2647 9.61768E-05-5.75897E-05-1.61692E-05-3.61238E-05 1.76183E-19 2.31568E-18
 -1      2648 4.88830E-05-2.86338E-05-8.01768E-06-2.89686E-05-2.92226E-19 1.95538E-18
 -1      2649 5.18845E-05-3.63303E-05-6.20944E-06-3.35825E-05 6.93932E-19 3.12746E-18
 -1      2650 6.61986E-05-4.04612E-05-1.10436E-05-3.63686E-05 6.33369E-19 3.83918E-18
 -1      2651 1.27753E-04-6.44321E-05-2.69316E-05 2.77813E-05 2.48922E-18 9.31524E-19
 -1      2652 1.25146E-04-6.45242E-05-2.57064E-05 4.18600E-05-1.20702E-18-2.37169E-20
 -1      2653 1.10554E-04-3.88649E-05-3.07697E-05 1.30384E-05 1.67930E-19 2.02951E-18
 -1      2654 1.57880E-04-4.94893E-05-4.67086E-05 3.48923E-06 1.83938E-18 1.00373E-18
 -1      2655 1.52612E-04-5.50467E-05-4.18598E-05 3.96591E-06 9.09422E-19 9.62653E-19
 -1      2656 1.51252E-04-4.32024E-05-4.68781E-05-4.60502E-06 1.90201E-18-9.23266E-20
 -1      2657 1.50189E-04-6.17843E-05-3.79451E-05-3.43564E-07-6.11081E-19 1.62948E-18
 -1      2658 1.50276E-04-5.73003E-05-4.06002E-05 9.47371E-06-5.08617E-19 1.74828E-18
 -1      2659 1.44705E-04-6.45143E-05-3.42900E-05-1.15338E-06-1.20062E-18 7.26648E-19
 -1      2660 1.41405E-04-1.18593E-05-5.56348E-05 6.21158E-06 9.68370E-19 3.50563E-18
 -1      2661 2.88431E-05-2.12344E-05-2.67019E-06-1.14391E-05-1.83912E-18 6.88003E-19
 -1      2662 1.44915E-04-2.11172E-05-5.32936E-05-1.52758E-05 1.35928E-18-1.48305E-18
 -1      2663 9.77094E-05-3.08261E-05-2.86708E-05 4.54570E-06-2.43132E-19-2.32362E-18
 -1      2664 1.00054E-04-3.21325E-05-2.90428E-05 3.02941E-06 2.67178E-19-1.02390E-18
 -1      2665 1.02359E-04-3.33334E-05-2.96252E-05 2.45270E-06-1.78566E-19-5.76578E-19
 -1      2666 9.77713E-05-3.07625E-05-2.87656E-05 5.19579E-06-1.57326E-19-2.05093E-18
 -1      2667 1.53728E-04-5.27389E-05-4.32966E-05-9.00705E-06-3.71073E-18-2.03987E-18
 -1      2668 1.01064E-04-3.20384E-05-2.95249E-05 5.20007E-06-2.74894E-19-1.56999E-18
 -1      2669 9.05546E-05-1.51722E-05-3.23290E-05 3.19471E-06 1.20578E-18-4.65003E-19
 -1      2670 9.03639E-05-1.49005E-05-3.23616E-05 2.26101E-06 1.10134E-18-4.87019E-19
 -1      2671 9.02293E-05-1.46976E-05-3.23906E-05 1.42244E-06 1.01442E-18-6.04052E-19
 -1      2672 9.01640E-05-1.46052E-05-3.24016E-05 4.65560E-07 9.13499E-19-6.11182E-19
 -1      2673 9.14154E-05-1.65930E-05-3.20538E-05 1.64120E-06 1.00116E-18-5.26065E-19
 -1      2674 9.21393E-05-1.75507E-05-3.20045E-05 6.47279E-06 1.49168E-18 2.22482E-19
 -1      2675 9.16139E-05-1.67558E-05-3.21044E-05 5.63374E-06 1.48399E-18 4.97764E-20
 -1      2676 9.35629E-05-1.97774E-05-3.16649E-05 7.59468E-06 1.52100E-18 8.04162E-19
 -1      2677 9.27708E-05-1.85213E-05-3.18382E-05 7.01636E-06 1.49914E-18 4.96140E-19
 -1      2678 9.34343E-05-1.98667E-05-3.15062E-05 5.73280E-06 1.38296E-18 4.45477E-19
 -1      2679 9.52206E-05-2.54095E-05-2.99314E-05 3.97567E-06 9.51992E-19 1.12325E-18
 -1      2680 9.55571E-05-2.45594E-05-3.03952E-05 5.60896E-06 1.00584E-18 1.26585E-18
 -1      2681 1.49586E-04-6.30960E-05-3.75331E-05 1.40852E-05 1.04926E-19 2.24019E-18
 -1      2682 1.43479E-04-6.57749E-05-3.31381E-05 2.26371E-05-1.54584E-20 1.80344E-18
 -1      2683 1.36175E-04-2.12639E-05-5.00463E-05-7.52706E-06-6.52215E-20 2.37169E-19
 -1      2684 1.44342E-04-3.19085E-05-4.86822E-05-8.84967E-06 1.03762E-20 1.52042E-19
 -1      2685 9.47099E-05-2.19080E-05-3.12075E-05 7.84074E-06 1.27701E-18 1.32848E-18
 -1      2686 1.06063E-04-5.45740E-05-2.15915E-05-4.96153E-05 1.96978E-18-8.50977E-19
 -1      2687 1.24562E-04-6.17295E-05-2.71333E-05-4.31084E-05 9.41795E-19-3.23565E-18
 -1      2688 9.53584E-05-2.59043E-05-2.97385E-05-2.70473E-06-2.37558E-19-8.30123E-19
 -1      2689 9.51948E-05-2.64899E-05-2.94559E-05-1.71952E-06-2.04683E-19-7.89735E-19
 -1      2690 9.52183E-05-2.70070E-05-2.92100E-05-9.79257E-07-2.70386E-19-7.19067E-19
 -1      2691 9.50840E-05-2.73616E-05-2.90301E-05-3.74499E-07-4.16903E-19-8.20585E-19
 -1      2692 9.54169E-05-2.63314E-05-2.96134E-05-1.61936E-06-3.29056E-19-7.46270E-19
 -1      2693 9.50509E-05-2.76679E-05-2.88624E-05 9.16433E-08-4.83787E-19-7.43165E-19
 -1      2694 9.49729E-05-2.78926E-05-2.87516E-05 4.41724E-07-4.52398E-19-8.20893E-19
 -1      2695 9.54164E-05-2.73270E-05-2.91885E-05-3.40984E-07-4.27905E-19-7.45458E-19
 -1      2696 9.49306E-05-2.80783E-05-2.86407E-05 7.09987E-07-3.58905E-19-7.80099E-19
 -1      2697 9.49020E-05-2.82254E-05-2.85768E-05 8.91973E-07-2.82712E-19-9.22165E-19
 -1      2698 9.53556E-05-2.79428E-05-2.88979E-05 4.46721E-07-4.21328E-19-9.18796E-19
 -1      2699 9.48668E-05-2.83377E-05-2.85063E-05 1.02461E-06-2.68314E-19-8.64344E-19
 -1      2700 9.48732E-05-2.84351E-05-2.84735E-05 1.09790E-06-3.29732E-19-9.69035E-19
 -1      2701 9.52910E-05-2.83246E-05-2.87053E-05 8.85731E-07-3.59289E-19-8.52053E-19
 -1      2702 9.48486E-05-2.85009E-05-2.84314E-05 1.14133E-06-1.62639E-19-9.13641E-19
 -1      2703 9.48768E-05-2.85648E-05-2.84189E-05 1.14666E-06-1.04791E-19-6.88508E-19
 -1      2704 9.52411E-05-2.85576E-05-2.85827E-05 1.08776E-06-1.10885E-19-7.93515E-19
 -1      2705 9.48616E-05-2.86003E-05-2.83963E-05 1.13439E-06 3.82792E-20-2.80967E-19
 -1      2706 9.49014E-05-2.86409E-05-2.83965E-05 1.09970E-06 8.62293E-20 1.24446E-19
 -1      2707 9.52087E-05-2.86933E-05-2.85095E-05 1.13584E-06 2.29588E-19 6.89273E-20
 -1      2708 9.48934E-05-2.86564E-05-2.83871E-05 1.05543E-06-1.56794E-19 3.19931E-19
 -1      2709 9.49376E-05-2.86804E-05-2.83950E-05 9.99799E-07-2.69643E-20 3.52937E-19
 -1      2710 9.51909E-05-2.87644E-05-2.84705E-05 1.08975E-06 2.43388E-19 5.82559E-19
 -1      2711 9.49348E-05-2.86828E-05-2.83943E-05 9.40007E-07 3.34729E-21 2.33518E-19
 -1      2712 9.49790E-05-2.86949E-05-2.84065E-05 8.76410E-07 2.88432E-20 8.29989E-20
 -1      2713 9.51836E-05-2.87924E-05-2.84547E-05 9.91691E-07-1.21730E-19 5.40932E-19
 -1      2714 9.49795E-05-2.86887E-05-2.84114E-05 8.12385E-07-7.58217E-20 4.89242E-20
 -1      2715 9.50212E-05-2.86923E-05-2.84257E-05 7.49539E-07-2.55780E-19-9.84209E-20
 -1      2716 9.51835E-05-2.87920E-05-2.84544E-05 8.70971E-07-1.97987E-19 1.96802E-20
 -1      2717 9.50239E-05-2.86805E-05-2.84341E-05 6.88937E-07-3.80860E-19-3.52529E-20
 -1      2718 9.50621E-05-2.86779E-05-2.84493E-05 6.32703E-07-4.77110E-19 1.89229E-20
 -1      2719 9.51880E-05-2.87727E-05-2.84643E-05 7.47679E-07-1.03482E-19 2.02888E-19
 -1      2720 9.50661E-05-2.86624E-05-2.84600E-05 5.80738E-07-6.70285E-19 1.34658E-19
 -1      2721 9.51008E-05-2.86552E-05-2.84756E-05 5.35138E-07-4.99280E-19 4.66932E-19
 -1      2722 9.51952E-05-2.87408E-05-2.84809E-05 6.35526E-07-5.71491E-19-1.83468E-19
 -1      2723 9.51058E-05-2.86369E-05-2.84879E-05 4.95500E-07-7.63864E-19 3.11254E-19
 -1      2724 9.51378E-05-2.86261E-05-2.85038E-05 4.63485E-07-1.04123E-18 1.75007E-19
 -1      2725 9.52042E-05-2.87002E-05-2.85020E-05 5.44041E-07-9.76835E-19 1.87454E-19
 -1      2726 9.51434E-05-2.86054E-05-2.85175E-05 4.39034E-07-1.19186E-18 9.17019E-20
 -1      2727 9.51741E-05-2.85916E-05-2.85340E-05 4.23056E-07-1.25886E-18-4.39554E-19
 -1      2728 9.52144E-05-2.86527E-05-2.85267E-05 4.80243E-07-1.11526E-18-1.59414E-19
 -1      2729 9.51805E-05-2.85685E-05-2.85492E-05 4.16342E-07-7.40184E-19-1.89915E-19
 -1      2730 9.52118E-05-2.85519E-05-2.85669E-05 4.18775E-07-3.08145E-19-2.97086E-19
 -1      2731 9.52258E-05-2.85987E-05-2.85548E-05 4.49902E-07-9.38971E-19 3.05805E-19
 -1      2732 9.52191E-05-2.85258E-05-2.85840E-05 4.32419E-07-3.33900E-19-1.67665E-19
 -1      2733 9.52532E-05-2.85066E-05-2.86038E-05 4.55852E-07-4.40124E-19-2.48579E-19
 -1      2734 9.52386E-05-2.85378E-05-2.85864E-05 4.58473E-07-3.43249E-19 3.34616E-20
 -1      2735 9.52619E-05-2.84771E-05-2.86233E-05 4.92798E-07-4.66835E-19 2.73482E-20
 -1      2736 9.53016E-05-2.84554E-05-2.86460E-05 5.40205E-07 1.51345E-19-3.49445E-19
 -1      2737 9.52534E-05-2.84688E-05-2.86225E-05 5.11754E-07-3.54402E-19-6.06930E-20
 -1      2738 9.53122E-05-2.84217E-05-2.86687E-05 6.03846E-07 4.71864E-19-5.31175E-19
 -1      2739 9.53608E-05-2.83978E-05-2.86955E-05 6.78620E-07 6.03212E-19-7.64907E-19
 -1      2740 9.52714E-05-2.83902E-05-2.86639E-05 6.16284E-07-8.76616E-20 3.96320E-19
 -1      2741 9.53742E-05-2.83597E-05-2.87219E-05 7.72784E-07 9.80156E-19-1.10419E-18
 -1      2742 9.54353E-05-2.83345E-05-2.87540E-05 8.78605E-07 7.30387E-19-7.68337E-19
 -1      2743 9.52939E-05-2.83010E-05-2.87119E-05 7.79453E-07 5.37633E-19-8.26244E-19
 -1      2744 9.54529E-05-2.82922E-05-2.87847E-05 1.00737E-06 3.38438E-19-4.17688E-19
 -1      2745 9.55311E-05-2.82672E-05-2.88232E-05 1.14786E-06 2.67738E-19 4.56497E-20
 -1      2746 9.53232E-05-2.82011E-05-2.87674E-05 1.00931E-06 7.85912E-19-9.47940E-19
 -1      2747 9.55548E-05-2.82222E-05-2.88586E-05 1.31512E-06-9.62999E-20-9.81428E-21
 -1      2748 9.56553E-05-2.82004E-05-2.89043E-05 1.49323E-06-1.74928E-19-3.02112E-19
 -1      2749 9.53628E-05-2.80923E-05-2.88312E-05 1.31393E-06 3.14580E-20 4.72309E-19
 -1      2750 9.56884E-05-2.81558E-05-2.89444E-05 1.70199E-06-1.19335E-19-9.81154E-20
 -1      2751 9.58174E-05-2.81424E-05-2.89980E-05 1.91894E-06-5.54291E-19-7.25917E-20
 -1      2752 9.54180E-05-2.79800E-05-2.89031E-05 1.70033E-06-1.42092E-19 5.24661E-19
 -1      2753 9.58652E-05-2.81044E-05-2.90422E-05 2.17020E-06-9.18299E-19-2.63337E-19
 -1      2754 9.60301E-05-2.81078E-05-2.91035E-05 2.42395E-06-6.42806E-19-8.30896E-19
 -1      2755 9.54972E-05-2.78748E-05-2.89824E-05 2.17258E-06-8.88242E-19 1.06843E-18
 -1      2756 9.61008E-05-2.80868E-05-2.91504E-05 2.71503E-06-3.68837E-19-1.09370E-18
 -1      2757 9.63110E-05-2.81200E-05-2.92184E-05 2.99807E-06-5.30422E-19-7.81053E-19
 -1      2758 9.56139E-05-2.77960E-05-2.90666E-05 2.72915E-06-6.14645E-19 9.15069E-19
 -1      2759 9.64179E-05-2.81329E-05-2.92658E-05 3.32028E-06-3.01229E-19-9.93029E-19
 -1      2760 9.66851E-05-2.82151E-05-2.93383E-05 3.61661E-06-9.31550E-20-6.20092E-19
 -1      2761 9.57895E-05-2.77747E-05-2.91517E-05 3.35903E-06-2.67967E-19-4.76967E-20
 -1      2762 9.68490E-05-2.82876E-05-2.93828E-05 3.95211E-06-3.12714E-19-8.41290E-19
 -1      2763 9.71884E-05-2.84464E-05-2.94560E-05 4.23332E-06-1.34736E-19-6.53329E-19
 -1      2764 9.60579E-05-2.78595E-05-2.92315E-05 4.03648E-06-3.52277E-19-3.05879E-19
 -1      2765 9.74412E-05-2.86152E-05-2.94935E-05 4.55087E-06-1.79616E-19-7.10394E-19
 -1      2766 9.78722E-05-2.88872E-05-2.95624E-05 4.77154E-06-3.19189E-19-5.92471E-19
 -1      2767 9.64708E-05-2.81212E-05-2.92982E-05 4.71412E-06-1.46789E-19-1.26431E-18
 -1      2768 9.82601E-05-2.92016E-05-2.95887E-05 5.02109E-06-3.28887E-19-6.93800E-19
 -1      2769 9.88064E-05-2.96318E-05-2.96476E-05 5.11392E-06 2.27211E-19-1.58006E-18
 -1      2770 9.71053E-05-2.86573E-05-2.93437E-05 5.31380E-06-5.53530E-19-1.05688E-18
 -1      2771 9.93924E-05-3.01510E-05-2.96605E-05 5.21991E-06 1.93923E-19-1.63696E-18
 -1      2772 1.00078E-04-3.07849E-05-2.97049E-05 5.09211E-06-3.28097E-19-1.81085E-18
 -1      2773 9.80699E-05-2.95910E-05-2.93619E-05 5.71510E-06 2.48436E-19-6.61370E-19
 -1      2774 1.00939E-04-3.15669E-05-2.97076E-05 4.94591E-06-6.00295E-21-7.11016E-19
 -1      2775 1.01778E-04-3.24315E-05-2.97371E-05 4.48005E-06 6.88462E-19-3.18043E-19
 -1      2776 9.95040E-05-3.10568E-05-2.93553E-05 5.74105E-06 3.68698E-19-1.65058E-19
 -1      2777 1.02984E-04-3.35039E-05-2.97440E-05 3.93455E-06 3.99421E-19-6.68256E-19
 -1      2778 1.03956E-04-3.45668E-05-2.97679E-05 3.00086E-06 1.52607E-19 4.56314E-20
 -1      2779 1.01559E-04-3.31568E-05-2.93442E-05 5.14305E-06 4.38855E-19-2.81896E-19
 -1      2780 1.05527E-04-3.58697E-05-2.98111E-05 1.87826E-06 3.98804E-19 1.43905E-19
 -1      2781 1.06528E-04-3.69729E-05-2.98538E-05 3.71950E-07 6.52811E-19 1.41873E-18
 -1      2782 1.04335E-04-3.58645E-05-2.93804E-05 3.59520E-06 5.30395E-19 2.10166E-20
 -1      2783 1.08345E-04-3.82724E-05-2.99889E-05-1.48757E-06-1.21239E-19 8.19108E-19
 -1      2784 1.09146E-04-3.90587E-05-3.00917E-05-3.56539E-06-2.13894E-19 8.18200E-19
 -1      2785 1.07752E-04-3.88548E-05-2.95617E-05 7.34564E-07 1.69051E-19-5.61724E-19
 -1      2786 1.10844E-04-3.98647E-05-3.03951E-05-6.17766E-06-5.30411E-19 1.93745E-18
 -1      2787 1.11074E-04-3.97577E-05-3.06103E-05-8.58324E-06-1.44415E-18 1.52233E-18
 -1      2788 1.11348E-04-4.12998E-05-3.00357E-05-3.68096E-06 2.44035E-20-7.21367E-19
 -1      2789 1.11972E-04-3.93331E-05-3.11574E-05-1.15544E-05-1.02036E-18 1.70491E-18
 -1      2790 1.11256E-04-3.77392E-05-3.15170E-05-1.36337E-05-6.75729E-19 1.88611E-18
 -1      2791 1.14075E-04-4.17211E-05-3.09793E-05-9.42169E-06-5.65135E-19 1.30004E-18
 -1      2792 1.10679E-04-3.55276E-05-3.23039E-05-1.58747E-05-1.74891E-20 2.92802E-18
 -1      2793 1.08979E-04-3.24165E-05-3.27663E-05-1.66151E-05 1.22918E-18 3.25019E-18
 -1      2794 1.14495E-04-3.85555E-05-3.24896E-05-1.50626E-05 4.08455E-19 3.42654E-18
 -1      2795 1.06935E-04-2.87831E-05-3.36334E-05-1.66046E-05 1.32150E-18 2.68525E-18
 -1      2796 1.04870E-04-2.52667E-05-3.40541E-05-1.51185E-05 9.18978E-19 2.60161E-18
 -1      2797 1.11813E-04-3.14774E-05-3.43924E-05-1.78556E-05 8.17268E-19 3.27767E-18
 -1      2798 1.02690E-04-2.20098E-05-3.46913E-05-1.21267E-05 6.24554E-20 3.26638E-18
 -1      2799 1.01265E-04-1.99741E-05-3.48628E-05-8.63680E-06-4.74735E-20 3.24145E-18
 -1      2800 1.07405E-04-2.31721E-05-3.61403E-05-1.49997E-05 8.18922E-19 2.27516E-18
 -1      2801 1.00890E-04-1.94438E-05-3.49060E-05-3.71923E-06 1.79333E-20 3.01043E-18
 -1      2802 1.00976E-04-2.02444E-05-3.46914E-05 1.55572E-08 1.10044E-18 2.45175E-18
 -1      2803 1.04403E-04-1.83331E-05-3.69588E-05-6.54865E-06-7.87873E-20 3.40842E-18
 -1      2804 1.02247E-04-2.24014E-05-3.41629E-05 3.86006E-06 1.14527E-18 1.81035E-18
 -1      2805 1.03318E-04-2.50864E-05-3.36714E-05 6.20044E-06 8.82727E-19 1.11881E-18
 -1      2806 1.05370E-04-2.05061E-05-3.64380E-05 2.40110E-06 3.62874E-19 2.92371E-18
 -1      2807 1.04842E-04-2.81932E-05-3.28033E-05 7.30277E-06-1.19015E-19 2.95788E-19
 -1      2808 1.05750E-04-3.08056E-05-3.22210E-05 7.63413E-06-1.69705E-18-5.46219E-19
 -1      2809 1.08453E-04-2.71005E-05-3.48505E-05 7.33143E-06-1.27973E-18 2.66617E-19
 -1      2810 1.05856E-04-3.26786E-05-3.13613E-05 6.45701E-06-2.29370E-18-7.28754E-19
 -1      2811 1.05750E-04-3.38276E-05-3.08580E-05 5.48796E-06-1.10564E-18-9.04872E-19
 -1      2812 1.10218E-04-3.33227E-05-3.28939E-05 6.68816E-06-1.62857E-18-7.54184E-19
 -1      2813 9.44794E-05-2.81310E-05-2.84349E-05-8.92442E-07 6.52809E-19 6.37336E-19
 -1      2814 9.44960E-05-2.80035E-05-2.84856E-05-7.17514E-07 5.89647E-19 7.80556E-19
 -1      2815 1.48121E-04-5.63963E-05-3.92826E-05-9.84458E-06-2.55235E-18-1.62810E-18
 -1      2816 1.48529E-04-4.79207E-05-4.37750E-05-1.41549E-06-3.89503E-18-1.89947E-18
 -1      2817 1.45926E-04-3.68848E-05-4.69944E-05 5.19554E-06-3.89921E-18-1.08865E-18
 -1      2818 1.41510E-04-2.71023E-05-4.97949E-05 6.88827E-06-3.21163E-18-1.10432E-19
 -1      2819 9.45566E-05-2.78523E-05-2.85885E-05-4.42334E-07 5.06657E-19 6.40281E-19
 -1      2820 9.46450E-05-2.76651E-05-2.86873E-05-9.89456E-08 5.09153E-19 6.74583E-19
 -1      2821 9.50090E-05-2.79121E-05-2.87641E-05-4.51979E-07 5.77161E-19 4.95954E-19
 -1      2822 9.45189E-05-2.84363E-05-2.83203E-05-1.14153E-06 2.86699E-19 9.27620E-19
 -1      2823 9.44624E-05-2.83723E-05-2.83212E-05-1.13923E-06 4.38074E-19 7.18914E-19
 -1      2824 9.45903E-05-2.85161E-05-2.83167E-05-1.09277E-06 4.42352E-19 8.64359E-19
 -1      2825 9.45215E-05-2.84709E-05-2.83064E-05-1.12894E-06 3.14808E-19 9.74363E-19
 -1      2826 9.48955E-05-2.85763E-05-2.84255E-05-1.15921E-06 2.93092E-19 6.36138E-19
 -1      2827 9.46741E-05-2.85662E-05-2.83311E-05-9.91676E-07 4.40077E-19 6.14695E-19
 -1      2828 9.46025E-05-2.85351E-05-2.83148E-05-1.04784E-06 6.55508E-19 8.64742E-19
 -1      2829 9.49162E-05-2.86498E-05-2.84018E-05-1.11074E-06 5.74787E-19 5.89144E-19
 -1      2830 9.47602E-05-2.85950E-05-2.83557E-05-8.67225E-07 2.01077E-21 7.61774E-19
 -1      2831 9.46913E-05-2.85746E-05-2.83367E-05-9.30979E-07 1.59543E-19 7.53426E-19
 -1      2832 9.49494E-05-2.86873E-05-2.83992E-05-1.00917E-06 3.32946E-19 7.74685E-19
 -1      2833 9.48427E-05-2.86084E-05-2.83854E-05-7.38933E-07 1.78111E-19 6.82787E-19
 -1      2834 9.47796E-05-2.85961E-05-2.83657E-05-8.01997E-07 6.22206E-20 7.13648E-19
 -1      2835 9.49882E-05-2.87001E-05-2.84099E-05-8.84212E-07 1.40260E-19 5.71992E-19
 -1      2836 9.49188E-05-2.86106E-05-2.84170E-05-6.19848E-07 1.67393E-19 6.44620E-19
 -1      2837 9.48625E-05-2.86045E-05-2.83978E-05-6.76729E-07 1.89208E-19 4.70545E-19
 -1      2838 9.50285E-05-2.86963E-05-2.84285E-05-7.56032E-07 3.50184E-19 1.19572E-18
 -1      2839 9.49880E-05-2.86046E-05-2.84492E-05-5.18780E-07-6.83938E-20 9.12129E-19
 -1      2840 9.49381E-05-2.86033E-05-2.84307E-05-5.65759E-07-6.56225E-20 5.44332E-19
 -1      2841 9.50680E-05-2.86809E-05-2.84518E-05-6.38269E-07 4.74615E-20 8.24554E-19
 -1      2842 9.50514E-05-2.85922E-05-2.84815E-05-4.41983E-07 6.30798E-19 1.15243E-18
 -1      2843 9.50067E-05-2.85947E-05-2.84637E-05-4.76366E-07 2.42373E-19 1.22778E-18
 -1      2844 9.51056E-05-2.86572E-05-2.84780E-05-5.40298E-07-6.68310E-20 1.08695E-18
 -1      2845 9.51114E-05-2.85747E-05-2.85145E-05-3.94439E-07-3.14877E-19 1.98045E-18
 -1      2846 9.50697E-05-2.85802E-05-2.84968E-05-4.13980E-07 3.20023E-19 1.59299E-18
 -1      2847 9.51417E-05-2.86272E-05-2.85064E-05-4.68955E-07 1.00991E-19 2.01581E-18
 -1      2848 9.51713E-05-2.85526E-05-2.85494E-05-3.80859E-07-3.58358E-19 2.01406E-18
 -1      2849 9.51299E-05-2.85606E-05-2.85309E-05-3.83306E-07-1.95843E-19 2.00292E-18
 -1      2850 9.51773E-05-2.85914E-05-2.85371E-05-4.29855E-07-3.90683E-19 2.46426E-18
 -1      2851 9.52353E-05-2.85259E-05-2.85879E-05-4.06483E-07-2.28591E-19 1.71729E-18
 -1      2852 9.51910E-05-2.85361E-05-2.85675E-05-3.89219E-07-3.23254E-19 1.76270E-18
 -1      2853 9.52141E-05-2.85496E-05-2.85709E-05-4.28433E-07-1.86934E-19 1.56293E-18
 -1      2854 9.53084E-05-2.84942E-05-2.86322E-05-4.77703E-07 1.42041E-19 1.20952E-18
 -1      2855 9.52574E-05-2.85064E-05-2.86086E-05-4.37459E-07 3.45148E-20 1.52950E-18
 -1      2856 9.52541E-05-2.85007E-05-2.86092E-05-4.70753E-07 4.74703E-20 1.24704E-18
 -1      2857 9.53965E-05-2.84569E-05-2.86852E-05-6.02571E-07 2.89638E-19 7.78436E-19
 -1      2858 9.53343E-05-2.84711E-05-2.86566E-05-5.35192E-07 2.90596E-19 1.07866E-18
 -1      2859 9.53000E-05-2.84429E-05-2.86538E-05-5.64136E-07 5.54603E-19 9.79701E-19
 -1      2860 9.55062E-05-2.84132E-05-2.87500E-05-7.91173E-07 5.19535E-19 5.66841E-19
 -1      2861 9.54275E-05-2.84292E-05-2.87146E-05-6.91442E-07 3.15321E-19 8.68566E-19
 -1      2862 9.53544E-05-2.83740E-05-2.87069E-05-7.17639E-07 3.43801E-19 8.58546E-19
 -1      2863 9.56448E-05-2.83622E-05-2.88302E-05-1.05587E-06 3.16729E-19 8.36201E-19
 -1      2864 9.55438E-05-2.83797E-05-2.87858E-05-9.17404E-07 6.52849E-19 6.66073E-19
 -1      2865 9.54203E-05-2.82913E-05-2.87708E-05-9.42385E-07 6.84970E-19 7.60305E-19
 -1      2866 9.58204E-05-2.83028E-05-2.89296E-05-1.41133E-06-2.80276E-19 1.04877E-19
 -1      2867 9.56904E-05-2.83215E-05-2.88739E-05-1.22659E-06-2.40297E-19 9.10542E-19
 -1      2868 9.55006E-05-2.81917E-05-2.88481E-05-1.25171E-06 6.96995E-20 6.94065E-19
 -1      2869 9.60417E-05-2.82349E-05-2.90520E-05-1.87427E-06-3.51755E-19-4.34746E-19
 -1      2870 9.58751E-05-2.82538E-05-2.89824E-05-1.63473E-06-1.55758E-21 2.27397E-20
 -1      2871 9.55977E-05-2.80719E-05-2.89411E-05-1.66107E-06-2.85624E-19 9.12932E-19
 -1      2872 9.63175E-05-2.81594E-05-2.92009E-05-2.46261E-06-6.36329E-19 1.97328E-19
 -1      2873 9.61061E-05-2.81766E-05-2.91151E-05-2.15929E-06-5.23946E-19-9.68665E-20
 -1      2874 9.57136E-05-2.79296E-05-2.90518E-05-2.18756E-06-6.19537E-19 8.05228E-19
 -1      2875 9.66570E-05-2.80800E-05-2.93786E-05-3.19378E-06-7.85052E-20 5.11860E-19
 -1      2876 9.63919E-05-2.80917E-05-2.92747E-05-2.81831E-06-1.65452E-19 3.81956E-19
 -1      2877 9.58496E-05-2.77637E-05-2.91810E-05-2.84892E-06-4.21101E-19 7.63009E-19
 -1      2878 9.70706E-05-2.80067E-05-2.95855E-05-4.08143E-06-8.17713E-19 1.04984E-18
 -1      2879 9.67419E-05-2.80055E-05-2.94624E-05-3.62812E-06-3.75101E-19 1.05880E-18
 -1      2880 9.60065E-05-2.75779E-05-2.93275E-05-3.66155E-06-6.70756E-19 4.82330E-20
 -1      2881 9.75717E-05-2.79613E-05-2.98182E-05-5.12969E-06-9.46321E-19 1.83148E-18
 -1      2882 9.71677E-05-2.79328E-05-2.96769E-05-4.59919E-06-7.67742E-19 1.20112E-18
 -1      2883 9.61868E-05-2.73847E-05-2.94870E-05-4.63726E-06-1.03273E-18 4.32806E-19
 -1      2884 9.81828E-05-2.79886E-05-3.00675E-05-6.32349E-06-1.96452E-19 2.09175E-18
 -1      2885 9.76880E-05-2.79059E-05-2.99118E-05-5.72902E-06-5.89335E-19 1.99382E-18
 -1      2886 9.63992E-05-2.72143E-05-2.96505E-05-5.77793E-06-1.03808E-18 4.13687E-19
 -1      2887 9.89482E-05-2.81742E-05-3.03164E-05-7.61307E-06-3.53944E-19 1.74303E-18
 -1      2888 9.83378E-05-2.79884E-05-3.01545E-05-6.99043E-06-7.05693E-20 1.68145E-18
 -1      2889 9.66690E-05-2.71305E-05-2.98022E-05-7.06735E-06 2.58536E-19-3.30413E-19
 -1      2890 9.99568E-05-2.86713E-05-3.05379E-05-8.88996E-06-5.27896E-19 6.46081E-19
 -1      2891 9.91882E-05-2.82982E-05-3.03835E-05-8.31270E-06-1.65780E-19 1.31621E-18
 -1      2892 9.70589E-05-2.72545E-05-2.99181E-05-8.45878E-06 1.49293E-19-4.46913E-19
 -1      2893 1.01380E-04-2.97340E-05-3.06978E-05-9.95152E-06-6.54966E-19-1.62025E-19
 -1      2894 1.00379E-04-2.90399E-05-3.05688E-05-9.55204E-06-9.74816E-19-7.41006E-20
 -1      2895 9.77055E-05-2.78011E-05-2.99670E-05-9.85571E-06-3.19159E-19-1.01798E-18
 -1      2896 1.03516E-04-3.17368E-05-3.07653E-05-1.04513E-05 4.28060E-19-2.58488E-19
 -1      2897 1.02164E-04-3.05358E-05-3.06785E-05-1.04467E-05-4.56631E-19-1.21726E-19
 -1      2898 9.88749E-05-2.91189E-05-2.99171E-05-1.10805E-05-5.68913E-19-1.12565E-18
 -1      2899 1.06808E-04-3.51253E-05-3.07434E-05-9.83488E-06 6.56219E-19 9.64262E-19
 -1      2900 1.04959E-04-3.32240E-05-3.06983E-05-1.05486E-05 8.33780E-19 6.56724E-19
 -1      2901 1.01031E-04-3.17108E-05-2.97565E-05-1.18186E-05 1.12577E-19-4.93518E-19
 -1      2902 1.11722E-04-4.01338E-05-3.07336E-05-7.25962E-06 1.01092E-18 1.30206E-18
 -1      2903 1.09317E-04-3.75299E-05-3.06809E-05-9.11583E-06 1.02331E-18 1.26861E-18
 -1      2904 1.04882E-04-3.61607E-05-2.95414E-05-1.15060E-05 6.35204E-19 2.19216E-19
 -1      2905 1.18314E-04-4.61396E-05-3.10285E-05-1.71552E-06 5.73256E-19 2.16144E-18
 -1      2906 1.15606E-04-4.33693E-05-3.08305E-05-5.08754E-06 1.43494E-18 1.91612E-18
 -1      2907 1.11201E-04-4.26972E-05-2.94956E-05-9.12117E-06 6.75438E-19 1.36475E-19
 -1      2908 1.25349E-04-5.04449E-05-3.22091E-05 7.43267E-06 5.51359E-19 2.31667E-18
 -1      2909 1.23283E-04-4.92356E-05-3.16118E-05 2.66485E-06-1.24868E-19 2.33600E-18
 -1      2910 1.20109E-04-5.02163E-05-3.01379E-05-3.20825E-06 3.54275E-19 1.02606E-18
 -1      2911 1.29310E-04-4.81416E-05-3.48587E-05 1.85888E-05 8.43870E-19 1.33199E-18
 -1      2912 1.29892E-04-5.11620E-05-3.37801E-05 1.39111E-05 1.15370E-18 2.39763E-18
 -1      2913 1.30027E-04-5.46783E-05-3.24665E-05 7.40646E-06 8.01796E-19 7.72778E-19
 -1      2914 1.28844E-04-3.26867E-05-4.14915E-05 2.50804E-05 1.08844E-18 1.68668E-18
 -1      2915 1.32806E-04-4.15482E-05-3.94722E-05 2.43269E-05 2.67504E-19 1.79142E-18
 -1      2916 1.24190E-04-1.53334E-05-4.72694E-05 1.43888E-05-4.15046E-20 2.38204E-18
 -1      2917 1.26585E-04-2.06172E-05-4.59803E-05 2.09790E-05 8.41104E-19 2.91374E-18
 -1      2918 1.23448E-04-1.38764E-05-4.75401E-05 5.51257E-06-2.12182E-19 2.63594E-18
 -1      2919 1.24748E-04-3.03028E-05-4.10145E-05-1.10250E-05 1.45203E-18 1.05241E-18
 -1      2920 1.21445E-04-2.23664E-05-4.27305E-05-6.52035E-06-3.73012E-19 1.32744E-18
 -1      2921 1.22799E-04-4.69642E-05-3.25268E-05 1.41924E-06 1.46340E-18 3.00710E-19
 -1      2922 1.24528E-04-4.62983E-05-3.36763E-05-2.62228E-06 1.25783E-18 3.43512E-19
 -1      2923 1.15513E-04-4.28805E-05-3.10747E-05 9.70635E-06-3.17075E-20 1.43053E-18
 -1      2924 1.19108E-04-4.57474E-05-3.15771E-05 6.69027E-06 8.31121E-19 9.89672E-19
 -1      2925 1.26508E-04-5.09012E-05-3.24308E-05 8.56119E-06 6.07958E-19 1.71349E-18
 -1      2926 1.17196E-04-4.46009E-05-3.10526E-05 1.70335E-05-3.16496E-19 3.73890E-18
 -1      2927 9.55184E-05-3.56358E-05-2.54893E-05 3.95172E-05 2.01541E-19-6.02082E-19
 -1      2928 1.06608E-04-4.20313E-05-2.72407E-05 3.73224E-05-2.00535E-19 8.23951E-19
 -1      2929 1.13227E-04-4.48521E-05-2.92973E-05 3.08872E-05-2.80646E-19 1.28708E-18
 -1      2930 1.17195E-04-4.63330E-05-3.02021E-05 2.44178E-05-4.05570E-19 3.43163E-18
 -1      2931 1.22197E-04-5.09418E-05-3.05758E-05 2.14041E-05-3.59221E-19 3.56503E-18
 -1      2932 1.13746E-04-4.98719E-05-2.73305E-05 3.63222E-05-2.81533E-19 1.70894E-18
 -1      2933 8.97413E-05-3.15075E-05-2.43186E-05-4.29688E-05 1.57853E-18 1.70651E-19
 -1      2934 7.54947E-05-2.35473E-05-2.22495E-05-3.90963E-05 1.48612E-18 1.51587E-18
 -1      2935 1.11540E-04-4.38281E-05-2.87516E-05-3.62994E-05 4.07449E-19 8.77837E-19
 -1      2936 1.02459E-04-3.89032E-05-2.72410E-05-4.04294E-05 1.12372E-18-2.20469E-18
 -1      2937 1.17926E-04-4.54589E-05-3.10716E-05-2.15300E-05-1.04207E-18 2.69649E-18
 -1      2938 1.15986E-04-4.45514E-05-3.04988E-05-2.79503E-05-7.47818E-19 3.80659E-18
 -1      2939 1.18890E-04-5.01096E-05-2.94438E-05-3.23338E-05 2.52310E-19 1.11812E-18
 -1      2940 1.14832E-04-4.16038E-05-3.14308E-05-8.69607E-06-9.69588E-20-2.38084E-18
 -1      2941 1.16608E-04-4.27390E-05-3.15287E-05-1.41128E-05-7.14631E-19 5.31483E-19
 -1      2942 1.21880E-04-4.76830E-05-3.17819E-05-1.62829E-05-1.70017E-18 1.23909E-18
 -1      2943 5.64574E-05-2.68860E-05-1.20548E-05 3.78832E-05 1.29141E-18-1.24112E-18
 -1      2944 4.07522E-05-2.40367E-05-6.63440E-06 3.09950E-05 1.93822E-18 1.47341E-18
 -1      2945 4.03511E-05-1.65084E-05-9.53428E-06 2.02420E-05 1.92202E-18 2.58705E-18
 -1      2946 9.43349E-05-2.08730E-05-3.15184E-05-8.24128E-06-4.27798E-19-1.17499E-18
 -1      2947 9.47210E-05-2.26475E-05-3.09136E-05-6.40183E-06-3.98102E-19-1.05962E-18
 -1      2948 4.66376E-05-9.18825E-06-1.54304E-05 1.77739E-06 1.27915E-18 3.77290E-18
 -1      2949 4.83396E-05-9.29458E-06-1.60878E-05-1.24009E-05 7.72706E-19 4.10769E-18
 -1      2950 9.47267E-05-2.74146E-05-2.88508E-05 3.84644E-07 6.01226E-19 7.36115E-19
 -1      2951 9.49066E-05-2.71211E-05-2.90233E-05 9.89908E-07 6.57221E-19 7.14852E-19
 -1      2952 9.51311E-05-2.73823E-05-2.90448E-05 3.71574E-07 5.97613E-19 5.41075E-19
 -1      2953 9.44750E-05-2.83145E-05-2.83539E-05-1.09544E-06 4.36874E-19 5.42868E-19
 -1      2954 9.44450E-05-2.82246E-05-2.83738E-05-1.02725E-06 5.46336E-19 5.92039E-19
 -1      2955 9.49312E-05-2.82427E-05-2.85870E-05-9.05113E-07 5.26383E-19 3.59388E-19
 -1      2956 9.48967E-05-2.84495E-05-2.84818E-05-1.11138E-06 3.60147E-19 5.66376E-19
 -1      2957 9.52708E-05-2.41015E-05-3.04834E-05-5.15666E-06-3.20002E-19-8.95748E-19
 -1      2958 9.51783E-05-2.50822E-05-3.00594E-05-3.66910E-06-2.46026E-19-8.44981E-19
 -1      2959 9.52265E-05-2.47636E-05-3.01904E-05-3.42775E-06-2.12559E-19-8.63888E-19
 -1      2960 9.45867E-05-2.23723E-05-3.09421E-05-5.69078E-06-2.72396E-19-1.00643E-18
 -1      2961 9.11735E-05-1.60877E-05-3.22075E-05 4.91655E-06 1.41056E-18-1.15675E-19
 -1      2962 9.08301E-05-1.55886E-05-3.22680E-05 3.99443E-06 1.28934E-18-3.21247E-19
 -1      2963 9.18079E-05-1.71998E-05-3.19596E-05 3.19781E-06 1.12651E-18-2.98832E-19
 -1      2964 9.24775E-05-1.82601E-05-3.17876E-05 4.61473E-06 1.27909E-18 3.73100E-20
 -1      2965 9.49833E-05-2.66915E-05-2.92734E-05 1.77903E-06 8.23843E-19 8.03719E-19
 -1      2966 9.52502E-05-2.61947E-05-2.95583E-05 2.78624E-06 8.44085E-19 9.77208E-19
 -1      2967 9.52726E-05-2.50228E-05-3.01049E-05 3.81811E-06 9.73032E-19 7.05339E-19
 -1      2968 9.52560E-05-2.65059E-05-2.94721E-05 1.73310E-06 8.21817E-19 5.74858E-19
 -1      2969 6.29008E-05-3.47762E-05-1.17381E-05 3.79210E-05 9.70912E-20-1.06694E-18
 -1      2970 4.66054E-05-2.58876E-05-8.17123E-06 3.04874E-05-9.23689E-19-2.03881E-18
 -1      2971 9.20386E-05-1.66581E-05-3.23134E-05-9.02015E-06-2.80237E-19-1.42945E-18
 -1      2972 1.34151E-04-6.52247E-05-3.00205E-05 1.90404E-05 3.21925E-18 7.70324E-19
 -1      2973 1.20370E-04-6.28985E-05-2.41382E-05 2.94779E-05 3.02084E-18 1.78915E-18
 -1      2974 9.07935E-05-1.55392E-05-3.22730E-05-3.93070E-06 4.38284E-19-1.24981E-18
 -1      2975 9.11288E-05-1.60254E-05-3.22140E-05-4.85337E-06 2.75329E-19-1.30131E-18
 -1      2976 1.43787E-04-3.69992E-05-4.64717E-05-1.56152E-05 2.01689E-18-6.34957E-19
 -1      2977 1.46192E-04-4.66608E-05-4.28621E-05-1.07040E-05 2.06030E-18-1.44843E-19
 -1      2978 3.05586E-05-1.68189E-05-5.26305E-06-3.69057E-06-2.10108E-18-3.25896E-19
 -1      2979 3.66222E-05-2.00706E-05-6.59754E-06-1.64389E-05-1.58618E-18 6.20875E-19
 -1      2980 1.24682E-04-6.52607E-05-2.50397E-05-2.05934E-05-5.22725E-19-5.96682E-19
 -1      2981 1.35378E-04-6.73487E-05-2.94199E-05-1.23792E-05-7.23684E-19 1.57548E-19
 -1      2982 1.33819E-04-1.71435E-05-5.08123E-05-1.65418E-05 2.08328E-18-9.17866E-19
 -1      2983 1.38567E-04-2.58743E-05-4.87156E-05-1.84242E-05 2.03606E-18-6.30934E-19
 -1      2984 3.57747E-05-1.98408E-05-6.43487E-06 2.12865E-05-1.42979E-18-2.43353E-18
 -1      2985 3.07645E-05-1.66722E-05-5.42803E-06 7.90990E-06-1.96087E-18-6.55815E-19
 -1      2986 1.34044E-04-6.61732E-05-2.93294E-05 3.48429E-05-9.57888E-19 2.08105E-18
 -1      2987 1.18162E-04-6.00732E-05-2.44905E-05 4.25763E-05-1.24895E-18 1.08000E-18
 -1      2988 8.82550E-05-5.09262E-05-1.53164E-05-3.56878E-05 1.50550E-18 3.17643E-18
 -1      2989 1.07851E-04-6.04311E-05-2.05538E-05-3.14694E-05 5.02608E-19-3.58930E-20
 -1      2990 1.45988E-04-5.55097E-05-3.93494E-05-2.50644E-06 1.12518E-18 6.96473E-19
 -1      2991 1.42655E-04-6.10596E-05-3.48110E-05 5.41165E-06 2.29654E-18 5.14573E-19
 -1      2992 1.04015E-04-3.39218E-05-3.00327E-05 3.51511E-06-8.96357E-19-1.06962E-18
 -1      2993 1.06285E-04-3.53521E-05-3.04096E-05 1.33267E-06-3.53409E-19-7.05139E-19
 -1      2994 1.04589E-04-3.38800E-05-3.03416E-05 4.26052E-06-5.71125E-19-1.62702E-18
 -1      2995 1.37062E-04-1.75897E-05-5.17237E-05 6.39385E-06-3.12280E-18-2.60886E-19
 -1      2996 1.34113E-04-1.18860E-05-5.31623E-05 2.50663E-06-2.96589E-18-1.28813E-18
 -1      2997 1.37933E-04-6.39255E-05-3.13915E-05-3.04766E-05-2.73486E-19-2.43903E-18
 -1      2998 1.44484E-04-6.25602E-05-3.56001E-05-2.20015E-05-8.14846E-19-1.14889E-18
 -1      2999 7.18896E-05-3.30358E-05-1.59606E-05-4.69965E-05 2.41330E-18 2.47249E-18
 -1      3000 8.67013E-05-4.24901E-05-1.87770E-05-5.17990E-05 2.26126E-18 1.50232E-18
 -1      3001 6.79838E-05-2.97436E-05-1.59964E-05 4.29509E-05 2.13558E-19-4.46132E-18
 -1      3002 5.82856E-05-2.13229E-05-1.52816E-05 3.38361E-05 3.92706E-19-1.37198E-18
 -1      3003 9.15546E-05-1.66672E-05-3.21138E-05-5.57967E-06 2.41917E-19-1.29043E-18
 -1      3004 9.20328E-05-1.73700E-05-3.20222E-05-6.41099E-06 7.54062E-20-1.30482E-18
 -1      3005 9.24239E-05-1.81824E-05-3.17968E-05-4.57623E-06 1.98992E-19-1.20447E-18
 -1      3006 1.30002E-04-6.07831E-05-2.94311E-05-3.50591E-05 1.23857E-18-3.05816E-18
 -1      3007 9.12825E-05-1.63900E-05-3.20846E-05 2.84925E-08 8.50954E-19-6.46639E-19
 -1      3008 9.01598E-05-1.46002E-05-3.24021E-05-3.82934E-07 8.85393E-19-7.43331E-19
 -1      3009 9.02165E-05-1.46805E-05-3.23922E-05-1.34033E-06 7.79794E-19-9.48123E-19
 -1      3010 7.46233E-05-4.02373E-05-1.41414E-05 3.89707E-05 7.12143E-19 3.30131E-19
 -1      3011 6.75553E-05-3.30241E-05-1.44688E-05 3.43620E-05-7.92505E-20 1.66442E-19
 -1      3012 8.60394E-05-4.53579E-05-1.72605E-05 3.68519E-05 1.40099E-18 1.95146E-18
 -1      3013 1.37373E-04-6.41709E-05-3.13179E-05 2.54379E-05 9.55030E-20 3.15409E-18
 -1      3014 1.08968E-04-3.55680E-05-3.14018E-05 3.75489E-06-9.64742E-19-4.04773E-20
 -1      3015 1.42332E-04-5.09217E-05-3.93288E-05-9.62033E-06 1.72530E-18 4.26799E-19
 -1      3016 1.42333E-04-3.87749E-05-4.47385E-05-7.54445E-06 9.44759E-19-3.43684E-19
 -1      3017 8.13488E-05-4.42450E-05-1.53439E-05-3.37315E-05 1.35197E-18 2.62538E-18
 -1      3018 9.43561E-05-2.14234E-05-3.12608E-05 7.21492E-06 1.31910E-18 9.73082E-19
 -1      3019 1.00011E-04-4.61013E-05-2.27554E-05-4.71719E-05 2.76599E-18-4.30134E-19
 -1      3020 1.42167E-04-4.26898E-05-4.29036E-05 3.53543E-06-3.62880E-18-4.64386E-19
 -1      3021 1.33779E-04-2.35033E-05-4.77192E-05 7.50917E-06-3.69560E-18 9.50794E-19
 -1      3022 1.38471E-04-4.85232E-05-3.89146E-05 2.02422E-05 7.28342E-19 1.56505E-18
 -1      3023 1.23740E-04-1.75783E-05-4.64992E-05-4.03097E-06-2.80156E-19 1.02332E-18
 -1      3024 1.24566E-04-3.80694E-05-3.72317E-05-9.80820E-06 2.00143E-18-9.23531E-20
 -1      3025 1.33468E-04-3.72653E-05-4.15578E-05-1.03062E-05 1.52995E-18-1.23376E-18
 -1      3026 1.41532E-04-4.86203E-05-4.02181E-05-6.02971E-06 2.43496E-18-7.63600E-19
 -1      3027 1.25928E-04-4.36595E-05-3.55066E-05-8.12371E-06 1.67329E-18-4.80532E-19
 -1      3028 1.31984E-04-4.92568E-05-3.55559E-05-2.62682E-06 8.23634E-19-1.02607E-18
 -1      3029 4.82660E-05-2.20055E-05-1.06325E-05 2.38289E-05-1.13667E-18-1.51344E-18
 -1      3030 1.48028E-04-5.78715E-05-3.88331E-05 4.52620E-06 9.99975E-19 2.28847E-18
 -1      3031 6.69351E-05-1.73409E-05-2.12024E-05 3.07323E-05-6.82073E-19-2.24781E-18
 -1      3032 7.96854E-05-2.46284E-05-2.29908E-05 3.73203E-05 7.22863E-19-2.94116E-18
 -1      3033 1.28810E-04-1.37547E-05-4.98440E-05-1.44053E-05 9.27713E-19 1.46039E-18
 -1      3034 1.24470E-04-1.85384E-05-4.58003E-05-1.68970E-05 1.22417E-18 1.84684E-18
 -1      3035 1.21545E-04-1.05311E-05-4.80645E-05-1.12750E-05 3.29496E-19 3.19271E-18
 -1      3036 1.27359E-04-1.04898E-05-5.06239E-05-4.39372E-07-1.93187E-18 5.61900E-19
 -1      3037 1.09204E-04-3.72690E-05-3.08395E-05-2.34274E-06-4.10745E-20-1.45332E-18
 -1      3038 9.46183E-05-2.24677E-05-3.09135E-05 5.69193E-06 1.24353E-18 8.08009E-19
 -1      3039 1.13265E-04-5.97720E-05-2.26577E-05 3.14726E-05 2.51505E-18 2.35075E-18
 -1      3040 5.95427E-05-9.86664E-06-2.10419E-05-1.76981E-05 5.30772E-19 3.72599E-18
 -1      3041 4.93709E-05-1.39360E-05-1.45615E-05-2.42465E-05 1.09516E-18 2.81554E-18
 -1      3042 1.46913E-04-5.15898E-05-4.11675E-05 1.66954E-05-3.64621E-19 1.69703E-18
 -1      3043 9.98107E-05-4.98403E-05-2.13954E-05 4.89058E-05-7.63388E-19-8.78267E-19
 -1      3044 8.14680E-05-3.81870E-05-1.79620E-05 4.64611E-05-3.23567E-19-2.66942E-18
 -1      3045 4.60713E-05-2.33742E-05-9.03570E-06-2.22576E-05-1.05223E-18 5.28337E-19
 -1      3046 5.62217E-05-2.75341E-05-1.22601E-05-2.67688E-05-9.45501E-20 1.30771E-18
 -1      3047 4.62589E-05-1.91649E-05-1.10931E-05-1.57515E-05-1.44371E-18-2.49451E-19
 -1      3048 1.43665E-04-5.81733E-05-3.66759E-05-1.28268E-05-1.16902E-18-1.68284E-18
 -1      3049 1.16822E-04-6.08895E-05-2.36283E-05-2.28608E-05 4.09752E-19 3.24136E-19
 -1      3050 3.81470E-05-1.59016E-05-8.86837E-06 2.42854E-06-1.50528E-18-3.31190E-19
 -1      3051 1.38900E-04-6.45763E-05-3.20010E-05-2.12909E-06-2.65915E-19-4.03188E-19
 -1      3052 9.03420E-05-1.48715E-05-3.23646E-05-2.17660E-06 6.93161E-19-9.62220E-19
 -1      3053 9.05270E-05-1.51354E-05-3.23325E-05-3.12706E-06 5.17022E-19-1.07726E-18
 -1      3054 9.17768E-05-1.71568E-05-3.19646E-05-3.14131E-06 4.00423E-19-1.04894E-18
 -1      3055 9.14009E-05-1.65732E-05-3.20561E-05-1.58248E-06 6.95546E-19-8.97852E-19
 -1      3056 1.35862E-04-3.21060E-05-4.47997E-05-1.83721E-05 2.18545E-18-8.16593E-19
 -1      3057 8.29224E-05-3.31879E-05-2.07522E-05 4.22328E-05-6.07323E-19-3.17224E-18
 -1      3058 9.28201E-05-1.84296E-05-3.18799E-05-7.46772E-06-1.19419E-19-1.31288E-18
 -1      3059 1.36583E-04-6.26342E-05-3.16687E-05 9.68366E-06 2.92290E-18-3.97576E-20
 -1      3060 1.11211E-04-5.24813E-05-2.48776E-05 4.18766E-05-5.13408E-19-1.01776E-19
 -1      3061 1.12080E-04-3.81849E-05-3.16546E-05 1.08654E-06-4.26283E-19-1.79345E-18
 -1      3062 1.13386E-04-3.96938E-05-3.15630E-05-3.97605E-06-8.23988E-20-2.95338E-18
 -1      3063 1.18276E-04-4.28871E-05-3.23478E-05-4.78277E-06-5.53131E-19-1.60855E-18
 -1      3064 1.13027E-04-3.79670E-05-3.22277E-05 2.39033E-06-8.82109E-19-1.91002E-18
 -1      3065 6.04336E-05-1.79277E-05-1.76706E-05 2.93146E-05 4.08164E-20-1.44557E-18
 -1      3066 4.94603E-05-1.56043E-05-1.40805E-05 2.41622E-05 1.01962E-18 1.26504E-18
 -1      3067 4.29705E-05-1.27828E-05-1.23396E-05 1.42803E-05 1.56632E-18 2.48498E-18
 -1      3068 5.97499E-05-1.12771E-05-2.01261E-05 2.08907E-05-6.58972E-19 2.28699E-20
 -1      3069 5.97455E-05-2.34349E-05-1.51247E-05-3.95380E-05 1.30718E-18 1.37050E-18
 -1      3070 9.84666E-05-4.18291E-05-2.40741E-05-4.52395E-05 2.18651E-18-1.38066E-19
 -1      3071 1.15405E-04-5.32383E-05-2.64131E-05-4.33730E-05 2.26338E-18-1.95842E-18
 -1      3072 9.42829E-05-2.18767E-05-3.10595E-05 4.95632E-06 1.22703E-18 5.53924E-19
 -1      3073 9.38050E-05-2.09044E-05-3.12448E-05 4.61695E-06 1.17287E-18 3.61765E-19
 -1      3074 5.44793E-05-8.23384E-06-1.95168E-05 5.95375E-06-7.88138E-20 2.26041E-18
 -1      3075 1.36395E-04-4.61641E-05-3.91660E-05-1.42836E-05 1.72384E-18-9.30360E-19
 -1      3076 1.37927E-04-5.31516E-05-3.62529E-05-8.69661E-06 1.53286E-18-1.77242E-19
 -1      3077 9.56792E-05-2.68797E-05-2.94713E-05-7.42679E-07-3.99101E-19-7.45913E-19
 -1      3078 9.56554E-05-2.73277E-05-2.92915E-05-2.17514E-07-4.62958E-19-8.00681E-19
 -1      3079 9.56992E-05-2.77136E-05-2.91255E-05 1.62305E-07-5.30818E-19-7.98421E-19
 -1      3080 9.56621E-05-2.80003E-05-2.90026E-05 4.77000E-07-5.55766E-19-9.56473E-19
 -1      3081 9.58950E-05-2.73310E-05-2.93878E-05-1.62234E-07-4.72900E-19-8.44673E-19
 -1      3082 9.56544E-05-2.82391E-05-2.88844E-05 6.98199E-07-3.55651E-19-8.34237E-19
 -1      3083 9.56220E-05-2.84203E-05-2.88030E-05 8.65520E-07-2.47484E-19-6.97965E-19
 -1      3084 9.59362E-05-2.80560E-05-2.90951E-05 4.72013E-07-3.70588E-19-7.11370E-19
 -1      3085 9.55902E-05-2.85623E-05-2.87210E-05 9.73864E-07 1.53372E-20-5.69385E-19
 -1      3086 9.55670E-05-2.86731E-05-2.86695E-05 1.04222E-06 2.51801E-19-2.81870E-19
 -1      3087 9.59025E-05-2.85081E-05-2.88867E-05 8.28408E-07 1.11758E-19-5.38334E-19
 -1      3088 9.55256E-05-2.87511E-05-2.86145E-05 1.07471E-06 3.73045E-19-1.25458E-19
 -1      3089 9.55111E-05-2.88144E-05-2.85841E-05 1.07982E-06 3.75982E-19 1.51304E-19
 -1      3090 9.58347E-05-2.87760E-05-2.87424E-05 9.90028E-07 5.23325E-19-2.80711E-19
 -1      3091 9.54679E-05-2.88500E-05-2.85489E-05 1.06456E-06 2.66775E-19 1.66527E-19
 -1      3092 9.54601E-05-2.88811E-05-2.85331E-05 1.03206E-06 2.61550E-19 1.03868E-19
 -1      3093 9.57547E-05-2.89200E-05-2.86459E-05 1.02288E-06 2.71603E-19-4.20717E-19
 -1      3094 9.54191E-05-2.88890E-05-2.85122E-05 9.89613E-07 3.00989E-20 3.14781E-19
 -1      3095 9.54161E-05-2.88985E-05-2.85065E-05 9.37582E-07-1.31265E-19 2.79399E-19
 -1      3096 9.56740E-05-2.89812E-05-2.85846E-05 9.76680E-07 1.46898E-19-2.56619E-19
 -1      3097 9.53790E-05-2.88886E-05-2.84959E-05 8.82549E-07-2.06095E-19 3.44571E-19
 -1      3098 9.53793E-05-2.88836E-05-2.84969E-05 8.23534E-07-9.32772E-20 3.49624E-19
 -1      3099 9.55984E-05-2.89878E-05-2.85490E-05 8.87550E-07-4.50961E-20 2.64130E-19
 -1      3100 9.53467E-05-2.88625E-05-2.84937E-05 7.66096E-07-2.21018E-19-3.92941E-20
 -1      3101 9.53490E-05-2.88479E-05-2.84992E-05 7.08713E-07-2.79798E-19 4.67998E-20
 -1      3102 9.55306E-05-2.89590E-05-2.85319E-05 7.81104E-07-2.51306E-19 2.26156E-19
 -1      3103 9.53208E-05-2.88197E-05-2.85012E-05 6.55899E-07-4.57899E-19-4.47246E-19
 -1      3104 9.53244E-05-2.87985E-05-2.85098E-05 6.06094E-07-7.68339E-19-2.59718E-19
 -1      3105 9.54712E-05-2.89074E-05-2.85283E-05 6.75205E-07-5.61390E-19-6.46320E-19
 -1      3106 9.53000E-05-2.87655E-05-2.85157E-05 5.62835E-07-1.00049E-18-1.39133E-19
 -1      3107 9.53045E-05-2.87395E-05-2.85265E-05 5.24855E-07-1.21355E-18-3.10285E-19
 -1      3108 9.54194E-05-2.88410E-05-2.85343E-05 5.82328E-07-9.60809E-19-2.83526E-19
 -1      3109 9.52829E-05-2.87029E-05-2.85353E-05 4.94801E-07-1.12894E-18-1.73884E-19
 -1      3110 9.52881E-05-2.86728E-05-2.85480E-05 4.71926E-07-1.15277E-18-2.22181E-19
 -1      3111 9.53739E-05-2.87639E-05-2.85477E-05 5.11459E-07-1.14916E-18-4.00169E-19
 -1      3112 9.52681E-05-2.86324E-05-2.85593E-05 4.58067E-07-9.97739E-19 1.72768E-19
 -1      3113 9.52740E-05-2.85982E-05-2.85738E-05 4.53165E-07-6.21923E-19 4.45187E-19
 -1      3114 9.53326E-05-2.86774E-05-2.85669E-05 4.69541E-07-8.03539E-19-1.96626E-19
 -1      3115 9.52543E-05-2.85533E-05-2.85875E-05 4.58309E-07-4.62160E-19 1.16212E-19
 -1      3116 9.52611E-05-2.85145E-05-2.86040E-05 4.74237E-07-3.73450E-19 7.07596E-20
 -1      3117 9.52929E-05-2.85810E-05-2.85911E-05 4.62594E-07-7.51340E-19-2.71046E-19
 -1      3118 9.52402E-05-2.84638E-05-2.86199E-05 5.01353E-07-2.35594E-19 7.38106E-20
 -1      3119 9.52482E-05-2.84197E-05-2.86388E-05 5.41226E-07-3.02805E-19 2.67069E-19
 -1      3120 9.52522E-05-2.84725E-05-2.86201E-05 4.96547E-07-1.93373E-19-3.36479E-19
 -1      3121 9.52245E-05-2.83618E-05-2.86571E-05 5.93661E-07-6.30987E-19 3.96514E-19
 -1      3122 9.52343E-05-2.83114E-05-2.86790E-05 6.60984E-07-3.74835E-19 1.92420E-19
 -1      3123 9.52073E-05-2.83492E-05-2.86536E-05 5.77807E-07-3.88080E-19-4.90155E-20
 -1      3124 9.52062E-05-2.82449E-05-2.86997E-05 7.42565E-07 3.51334E-20 2.31818E-19
 -1      3125 9.52187E-05-2.81878E-05-2.87249E-05 8.41223E-07 6.91856E-19-3.21638E-19
 -1      3126 9.51552E-05-2.82078E-05-2.86917E-05 7.13587E-07-3.91137E-19 2.56619E-20
 -1      3127 9.51847E-05-2.81117E-05-2.87480E-05 9.56212E-07 1.01551E-18-4.11473E-19
 -1      3128 9.52014E-05-2.80482E-05-2.87768E-05 1.09028E-06 7.62364E-19-1.44684E-19
 -1      3129 9.50927E-05-2.80457E-05-2.87343E-05 9.11967E-07 7.95857E-19 4.41720E-19
 -1      3130 9.51606E-05-2.79625E-05-2.88020E-05 1.24318E-06 3.28715E-19-2.67263E-20
 -1      3131 9.51833E-05-2.78943E-05-2.88345E-05 1.41652E-06 4.12282E-20 3.13643E-19
 -1      3132 9.50178E-05-2.78621E-05-2.87807E-05 1.18168E-06 8.09623E-19-4.15717E-19
 -1      3133 9.51360E-05-2.78010E-05-2.88610E-05 1.61168E-06-1.12089E-19 1.60871E-19
 -1      3134 9.51682E-05-2.77322E-05-2.88970E-05 1.82723E-06-2.25876E-19 5.79766E-19
 -1      3135 9.49294E-05-2.76592E-05-2.88297E-05 1.53156E-06-2.05008E-19-5.24888E-19
 -1      3136 9.51163E-05-2.76363E-05-2.89235E-05 2.06819E-06-5.40909E-19 3.09934E-19
 -1      3137 9.51632E-05-2.75746E-05-2.89618E-05 2.32695E-06-8.61126E-19 5.78677E-19
 -1      3138 9.48299E-05-2.74448E-05-2.88789E-05 1.96953E-06-3.38893E-19-7.82178E-19
 -1      3139 9.51122E-05-2.74860E-05-2.89863E-05 2.61550E-06-1.15975E-18 7.06848E-19
 -1      3140 9.51824E-05-2.74447E-05-2.90252E-05 2.91497E-06-6.82486E-19 7.45550E-19
 -1      3141 9.47263E-05-2.72351E-05-2.89245E-05 2.50117E-06-8.11166E-19-4.44177E-19
 -1      3142 9.51433E-05-2.73803E-05-2.90446E-05 3.24982E-06-3.19918E-19 4.50803E-19
 -1      3143 9.52502E-05-2.73804E-05-2.90814E-05 3.58196E-06-4.85808E-19-1.93702E-19
 -1      3144 9.46348E-05-2.70593E-05-2.89610E-05 3.12764E-06-9.04312E-19 1.37161E-19
 -1      3145 9.52427E-05-2.73673E-05-2.90918E-05 3.95689E-06-4.30828E-19 1.18399E-19
 -1      3146 9.54078E-05-2.74407E-05-2.91229E-05 4.30537E-06-4.46347E-19-1.01940E-19
 -1      3147 9.45849E-05-2.69648E-05-2.89811E-05 3.84288E-06-2.66206E-19-8.15651E-20
 -1      3148 9.54646E-05-2.75191E-05-2.91198E-05 4.70671E-06-7.22924E-19-1.67948E-19
 -1      3149 9.57204E-05-2.77114E-05-2.91407E-05 5.04340E-06-2.03767E-19-1.83031E-19
 -1      3150 9.46278E-05-2.70242E-05-2.89761E-05 4.62986E-06-4.77716E-19 6.81547E-19
 -1      3151 9.58934E-05-2.79388E-05-2.91199E-05 5.44629E-06-5.12065E-19-9.20832E-20
 -1      3152 9.62870E-05-2.83112E-05-2.91268E-05 5.72668E-06-7.58519E-19-6.42676E-20
 -1      3153 9.48460E-05-2.73428E-05-2.89366E-05 5.45520E-06-3.77618E-19 1.23401E-18
 -1      3154 9.66537E-05-2.87634E-05-2.90861E-05 6.08927E-06-1.31014E-20-3.54400E-19
 -1      3155 9.72497E-05-2.93911E-05-2.90777E-05 6.24653E-06 8.69863E-19-1.65025E-19
 -1      3156 9.53659E-05-2.80647E-05-2.88559E-05 6.26098E-06-1.63916E-19 3.07330E-19
 -1      3157 9.79186E-05-3.01588E-05-2.90205E-05 6.50006E-06 1.18990E-18-3.91058E-19
 -1      3158 9.87950E-05-3.11203E-05-2.90017E-05 6.43764E-06 5.00833E-19-1.87409E-19
 -1      3159 9.63704E-05-2.93727E-05-2.87351E-05 6.95031E-06 7.30997E-19-4.48748E-19
 -1      3160 9.99051E-05-3.22931E-05-2.89432E-05 6.46964E-06-4.10100E-20-4.32931E-19
 -1      3161 1.01135E-04-3.36392E-05-2.89318E-05 6.05320E-06 2.29771E-19-6.15603E-19
 -1      3162 9.81057E-05-3.14714E-05-2.85928E-05 7.36164E-06 2.31526E-19-6.55004E-19
 -1      3163 1.02835E-04-3.52626E-05-2.89081E-05 5.68092E-06-3.70712E-19-8.53864E-19
 -1      3164 1.04438E-04-3.69478E-05-2.89429E-05 4.73629E-06-2.57293E-19-1.35861E-18
 -1      3165 1.00865E-04-3.45307E-05-2.84814E-05 7.22340E-06-2.22067E-19-1.40330E-18
 -1      3166 1.06815E-04-3.89297E-05-2.90242E-05 3.68426E-06 4.80228E-20-1.23006E-18
 -1      3167 1.08668E-04-4.06910E-05-2.91720E-05 2.02628E-06 2.07420E-19-1.12073E-18
 -1      3168 1.04905E-04-3.85409E-05-2.85114E-05 6.09051E-06-5.26646E-19-2.71249E-18
 -1      3169 1.11594E-04-4.26480E-05-2.94724E-05-3.46065E-08 3.43287E-19-1.27693E-18
 -1      3170 1.13324E-04-4.38604E-05-2.98266E-05-2.50183E-06 1.17920E-19-1.25363E-18
 -1      3171 1.10230E-04-4.30184E-05-2.88790E-05 3.32456E-06-8.39125E-20-9.71989E-19
 -1      3172 1.16259E-04-4.50015E-05-3.05001E-05-5.74875E-06 6.35084E-19-4.82250E-19
 -1      3173 1.17193E-04-4.45863E-05-3.11699E-05-8.83449E-06 7.93425E-19 1.10896E-18
 -1      3174 1.16200E-04-4.65914E-05-2.98768E-05-1.70303E-06 1.12752E-18-3.39318E-19
 -1      3175 1.18814E-04-4.34278E-05-3.23754E-05-1.27772E-05 8.79492E-19 2.00163E-18
 -1      3176 1.18215E-04-4.04053E-05-3.33762E-05-1.53761E-05 1.04790E-18 2.18677E-18
 -1      3177 1.21152E-04-4.68056E-05-3.18433E-05-9.11265E-06 1.52678E-18 1.39592E-19
 -1      3178 1.12448E-04-2.47941E-05-3.78407E-05-1.76555E-05 5.82097E-19 2.34797E-18
 -1      3179 1.09824E-04-1.95385E-05-3.87753E-05-1.50169E-05 8.05052E-19 2.43264E-18
 -1      3180 1.08240E-04-1.74153E-05-3.89981E-05 1.12073E-06-9.48889E-19 2.61311E-18
 -1      3181 1.09740E-04-2.08404E-05-3.83793E-05 5.22991E-06-8.94679E-19 1.47010E-18
 -1      3182 1.12264E-04-2.59413E-05-3.69959E-05 7.46882E-06-1.96967E-18 4.93797E-19
 -1      3183 1.13948E-04-3.07765E-05-3.58807E-05 8.10763E-06-2.86237E-18-3.53461E-19
 -1      3184 1.15913E-04-2.36824E-05-3.96624E-05 7.14485E-06-2.31380E-18-3.37728E-19
 -1      3185 1.14593E-04-3.43298E-05-3.44007E-05 6.70672E-06-1.80471E-18-1.42738E-18
 -1      3186 1.14744E-04-3.71566E-05-3.33531E-05 5.02895E-06-1.29429E-18-1.35865E-18
 -1      3187 1.18035E-04-3.94485E-05-3.36711E-05 2.71053E-06-1.29869E-18-3.23395E-18
 -1      3188 1.19143E-04-3.41160E-05-3.64330E-05 7.38205E-06-2.89819E-18-1.41560E-18
 -1      3189 9.52234E-05-2.87776E-05-2.84760E-05-1.07164E-06 4.33504E-19 4.66528E-19
 -1      3190 9.52112E-05-2.87426E-05-2.84850E-05-1.10585E-06 4.59335E-19 2.78177E-19
 -1      3191 9.52425E-05-2.87071E-05-2.85148E-05-1.12047E-06 4.58679E-19 3.60937E-19
 -1      3192 9.52393E-05-2.86440E-05-2.85376E-05-1.11583E-06 3.62391E-19 6.48919E-19
 -1      3193 9.55239E-05-2.88229E-05-2.85888E-05-1.08269E-06 5.04668E-19 2.41926E-19
 -1      3194 9.52101E-05-2.88028E-05-2.84591E-05-8.53436E-07 4.15088E-20 5.59158E-19
 -1      3195 9.51911E-05-2.88002E-05-2.84535E-05-9.15311E-07 1.58462E-19 5.15337E-19
 -1      3196 9.52113E-05-2.87820E-05-2.84685E-05-7.31810E-07 7.70478E-20 1.02435E-18
 -1      3197 9.51919E-05-2.87884E-05-2.84593E-05-7.92395E-07 8.78499E-20 8.18011E-19
 -1      3198 9.53851E-05-2.88884E-05-2.84997E-05-8.26475E-07-6.35842E-20 4.01433E-19
 -1      3199 9.52155E-05-2.87486E-05-2.84846E-05-6.21614E-07 2.20267E-20 1.07341E-18
 -1      3200 9.51967E-05-2.87613E-05-2.84732E-05-6.74955E-07 3.25143E-19 1.32812E-18
 -1      3201 9.53536E-05-2.88515E-05-2.85017E-05-7.11728E-07 5.32493E-20 8.08916E-19
 -1      3202 9.52220E-05-2.87064E-05-2.85054E-05-5.32171E-07 8.32576E-20 1.16906E-18
 -1      3203 9.52039E-05-2.87237E-05-2.84925E-05-5.74054E-07-2.98079E-19 1.05145E-18
 -1      3204 9.53280E-05-2.88009E-05-2.85122E-05-6.09437E-07-1.05257E-19 1.14801E-18
 -1      3205 9.52303E-05-2.86572E-05-2.85300E-05-4.70447E-07-4.53425E-19 1.95144E-18
 -1      3206 9.52126E-05-2.86783E-05-2.85158E-05-4.97642E-07-2.69379E-20 1.65717E-18
 -1      3207 9.53073E-05-2.87406E-05-2.85291E-05-5.28962E-07-2.83868E-19 1.25508E-18
 -1      3208 9.52404E-05-2.86010E-05-2.85582E-05-4.42327E-07-3.05998E-19 1.50323E-18
 -1      3209 9.52225E-05-2.86259E-05-2.85426E-05-4.51984E-07-2.58715E-19 1.87739E-18
 -1      3210 9.52900E-05-2.86719E-05-2.85510E-05-4.77453E-07-2.85146E-19 1.43379E-18
 -1      3211 9.52523E-05-2.85369E-05-2.85906E-05-4.53620E-07-1.38975E-19 1.12433E-18
 -1      3212 9.52332E-05-2.85659E-05-2.85730E-05-4.42802E-07-1.41646E-19 1.12423E-18
 -1      3213 9.52746E-05-2.85944E-05-2.85776E-05-4.61106E-07-1.66776E-19 8.91353E-19
 -1      3214 9.52662E-05-2.84626E-05-2.86280E-05-5.10825E-07 3.08759E-19 9.73787E-19
 -1      3215 9.52448E-05-2.84966E-05-2.86078E-05-4.76149E-07-1.43502E-19 1.21500E-18
 -1      3216 9.52594E-05-2.85060E-05-2.86089E-05-4.86124E-07-1.43565E-19 9.21299E-19
 -1      3217 9.52822E-05-2.83750E-05-2.86720E-05-6.21708E-07 3.49699E-19 1.14322E-18
 -1      3218 9.52573E-05-2.84152E-05-2.86482E-05-5.59071E-07 4.18731E-19 1.09279E-18
 -1      3219 9.52423E-05-2.84032E-05-2.86456E-05-5.59432E-07 2.88093E-19 1.03614E-18
 -1      3220 9.53001E-05-2.82704E-05-2.87240E-05-7.95723E-07 2.92924E-19 1.36950E-18
 -1      3221 9.52702E-05-2.83183E-05-2.86956E-05-7.00106E-07 3.34099E-19 1.51726E-18
 -1      3222 9.52207E-05-2.82814E-05-2.86885E-05-6.89201E-07 2.70704E-19 1.92032E-18
 -1      3223 9.53193E-05-2.81441E-05-2.87857E-05-1.04424E-06 5.22614E-19 1.64391E-18
 -1      3224 9.52831E-05-2.82016E-05-2.87515E-05-9.09610E-07 5.31418E-19 1.54933E-18
 -1      3225 9.51910E-05-2.81351E-05-2.87383E-05-8.85182E-07 1.92013E-19 2.09090E-18
 -1      3226 9.53383E-05-2.79912E-05-2.88586E-05-1.38060E-06-2.64109E-19 1.55453E-18
 -1      3227 9.52944E-05-2.80601E-05-2.88176E-05-1.19990E-06 3.33557E-19 1.65519E-18
 -1      3228 9.51485E-05-2.79577E-05-2.87960E-05-1.15885E-06 3.84206E-19 2.32748E-18
 -1      3229 9.53544E-05-2.78066E-05-2.89438E-05-1.81983E-06-4.72814E-19 1.04560E-18
 -1      3230 9.53020E-05-2.78886E-05-2.88951E-05-1.58516E-06-1.79217E-19 1.16226E-18
 -1      3231 9.50871E-05-2.77424E-05-2.88616E-05-1.52329E-06 1.37334E-19 1.52535E-18
 -1      3232 9.53635E-05-2.75861E-05-2.90412E-05-2.37807E-06-8.84472E-19 9.36413E-19
 -1      3233 9.53018E-05-2.76822E-05-2.89845E-05-2.08107E-06-6.78648E-19 8.93021E-19
 -1      3234 9.49984E-05-2.74822E-05-2.89346E-05-1.99286E-06-6.94177E-19 1.17640E-18
 -1      3235 9.53597E-05-2.73275E-05-2.91495E-05-3.07138E-06-2.60375E-19 8.53964E-19
 -1      3236 9.52884E-05-2.74372E-05-2.90849E-05-2.70397E-06-4.99893E-19 7.64975E-19
 -1      3237 9.48719E-05-2.71714E-05-2.90128E-05-2.58241E-06-6.28698E-19 6.81201E-19
 -1      3238 9.53363E-05-2.70343E-05-2.92641E-05-3.91390E-06-1.03541E-18 5.18040E-19
 -1      3239 9.52552E-05-2.71538E-05-2.91935E-05-3.46952E-06-4.30288E-19 7.12948E-19
 -1      3240 9.46946E-05-2.68074E-05-2.90917E-05-3.30625E-06-4.39070E-19 8.98455E-19
 -1      3241 9.52887E-05-2.67213E-05-2.93769E-05-4.91500E-06-1.29231E-18-9.06697E-20
 -1      3242 9.51955E-05-2.68401E-05-2.93039E-05-4.39058E-06-8.15097E-19 3.55954E-19
 -1      3243 9.44528E-05-2.63952E-05-2.91634E-05-4.17662E-06-6.93922E-19 2.73101E-19
 -1      3244 9.52201E-05-2.64247E-05-2.94737E-05-6.07536E-06-3.46081E-19-1.16833E-18
 -1      3245 9.51076E-05-2.65197E-05-2.94049E-05-5.47425E-06-1.06775E-18-6.68800E-19
 -1      3246 9.41353E-05-2.59545E-05-2.92146E-05-5.20212E-06-7.12995E-19-6.51275E-19
 -1      3247 9.51562E-05-2.62204E-05-2.95326E-05-7.38188E-06 2.89749E-19-1.35603E-18
 -1      3248 9.50038E-05-2.62463E-05-2.94786E-05-6.71801E-06 4.05157E-20-8.35551E-19
 -1      3249 9.37418E-05-2.55324E-05-2.92255E-05-6.38641E-06 5.27094E-20-2.32177E-18
 -1      3250 9.51707E-05-2.62518E-05-2.95232E-05-8.80126E-06 2.56885E-19-1.13105E-18
 -1      3251 9.49306E-05-2.61252E-05-2.94989E-05-8.10492E-06 5.80203E-19-5.20963E-19
 -1      3252 9.32993E-05-2.52241E-05-2.91677E-05-7.72834E-06-1.44212E-20-1.81715E-18
 -1      3253 9.54310E-05-2.67709E-05-2.94085E-05-1.02704E-05-1.88619E-19-1.32739E-18
 -1      3254 9.50034E-05-2.63491E-05-2.94313E-05-9.59697E-06 9.40907E-20-1.18179E-18
 -1      3255 9.28934E-05-2.52060E-05-2.90040E-05-9.22425E-06 5.59139E-19-1.56985E-18
 -1      3256 9.62675E-05-2.81872E-05-2.91535E-05-1.16777E-05-1.36775E-19-1.77051E-18
 -1      3257 9.54666E-05-2.72442E-05-2.92379E-05-1.11223E-05-5.97600E-19-1.78519E-18
 -1      3258 9.27210E-05-2.57822E-05-2.86918E-05-1.08700E-05-8.23945E-20-1.20525E-18
 -1      3259 9.82628E-05-3.11006E-05-2.87500E-05-1.28172E-05-3.74456E-20-1.38459E-18
 -1      3260 9.67791E-05-2.93178E-05-2.88925E-05-1.25441E-05-3.49072E-19-1.97306E-18
 -1      3261 9.31740E-05-2.74409E-05-2.81948E-05-1.26534E-05-3.96619E-19-2.58824E-18
 -1      3262 1.02332E-04-3.62593E-05-2.82737E-05-1.32731E-05 3.31163E-19-3.87359E-19
 -1      3263 9.97169E-05-3.32643E-05-2.84182E-05-1.35777E-05 5.35236E-19-6.66665E-19
 -1      3264 9.49563E-05-3.09019E-05-2.75134E-05-1.44986E-05-4.59059E-19-2.69507E-18
 -1      3265 1.09581E-04-4.40830E-05-2.80086E-05-1.21598E-05 4.97347E-19 7.48665E-19
 -1      3266 1.05450E-04-3.98200E-05-2.79814E-05-1.35395E-05 5.40486E-19 4.72572E-19
 -1      3267 9.91649E-05-3.70724E-05-2.67552E-05-1.60779E-05 1.99982E-19-2.36878E-19
 -1      3268 1.20679E-04-5.36856E-05-2.86711E-05-7.29998E-06 6.52030E-19-4.23520E-19
 -1      3269 1.15270E-04-4.91015E-05-2.80836E-05-1.07935E-05 5.07948E-19 2.72755E-19
 -1      3270 1.07908E-04-4.68743E-05-2.64345E-05-1.63001E-05 9.30208E-19-8.02458E-19
 -1      3271 1.33725E-04-6.06261E-05-3.13381E-05 9.69293E-07 6.35255E-19-6.17275E-19
 -1      3272 1.28542E-04-5.93476E-05-2.94736E-05-4.73766E-06 7.35918E-19-5.11965E-19
 -1      3273 1.29670E-04-2.75554E-05-4.46080E-05 2.45592E-05 8.53703E-19 2.48599E-18
 -1      3274 5.66719E-05-2.34938E-05-1.39804E-05 2.56106E-05 6.92449E-20-9.40207E-20
 -1      3275 4.82154E-05-1.77364E-05-1.25348E-05 1.67997E-05-1.18720E-18-5.30878E-19
 -1      3276 1.38113E-04-5.80985E-05-3.43413E-05 8.02239E-06-1.62002E-19 1.42630E-18
 -1      3277 1.40006E-04-5.48557E-05-3.66652E-05 2.27646E-06 6.00017E-19 6.08064E-19
 -1      3278 6.71720E-05-1.40622E-05-2.19285E-05-3.05873E-05 6.05787E-19 6.04887E-19
 -1      3279 7.16809E-05-2.41174E-05-1.99777E-05-3.91086E-05 1.40417E-18 9.86582E-19
 -1      3280 1.25542E-04-4.83018E-05-3.32225E-05-9.13109E-06-1.73330E-18 6.84704E-19
 -1      3281 1.28450E-04-5.17845E-05-3.27627E-05-1.59483E-05-1.87556E-18 1.94336E-18
 -1      3282 9.54123E-05-2.73480E-05-2.91775E-05 2.71346E-07 5.90082E-19 5.38950E-19
 -1      3283 9.54772E-05-2.69417E-05-2.93564E-05 8.32010E-07 7.12412E-19 5.98490E-19
 -1      3284 1.28359E-04-5.51120E-05-3.14812E-05-2.50082E-05-5.45727E-19 1.34020E-18
 -1      3285 1.23960E-04-5.47092E-05-2.94958E-05-3.32675E-05 1.15297E-18-1.36416E-18
 -1      3286 1.26171E-04-5.84425E-05-2.89261E-05-3.53917E-05 8.60480E-19-1.97757E-18
 -1      3287 1.33445E-04-5.54367E-05-3.33670E-05-1.65908E-05-1.38251E-18 5.09067E-19
 -1      3288 1.28512E-04-2.79715E-05-4.35853E-05-1.99690E-05 1.79529E-18-4.73597E-19
 -1      3289 1.34457E-04-3.78192E-05-4.16272E-05-1.86603E-05 1.63191E-18-1.16255E-18
 -1      3290 9.52135E-05-2.88046E-05-2.84599E-05-9.73197E-07 2.17634E-19 6.76497E-19
 -1      3291 9.51965E-05-2.87889E-05-2.84600E-05-1.02764E-06 4.08979E-19 7.50627E-19
 -1      3292 9.54700E-05-2.88883E-05-2.85370E-05-1.03510E-06 2.18426E-19 2.76150E-19
 -1      3293 9.54237E-05-2.89044E-05-2.85097E-05-9.40579E-07 1.43337E-19 5.05983E-19
 -1      3294 1.20751E-04-1.27610E-05-4.66871E-05 2.69359E-06-2.42971E-18 5.14520E-19
 -1      3295 1.19356E-04-9.84270E-06-4.75308E-05-4.80755E-06 2.13452E-19 1.72500E-18
 -1      3296 9.53710E-05-2.79585E-05-2.88951E-05-4.75569E-07 6.62406E-19 2.37542E-19
 -1      3297 9.54260E-05-2.77004E-05-2.90121E-05-1.45393E-07 5.78257E-19 4.26911E-19
 -1      3298 9.56895E-05-2.73352E-05-2.92999E-05 2.21930E-07 7.08026E-19 5.21297E-19
 -1      3299 1.30262E-04-2.73925E-05-4.42716E-05 9.04308E-06-3.55817E-18 1.50613E-19
 -1      3300 1.25324E-04-1.94609E-05-4.59694E-05 7.16484E-06-3.90048E-18-1.65648E-19
 -1      3301 1.19601E-04-6.10799E-05-2.54000E-05 2.47750E-05 2.38546E-18 1.29339E-18
 -1      3302 1.05052E-04-5.46241E-05-2.12356E-05 3.24646E-05 1.55092E-18 2.47175E-18
 -1      3303 7.34173E-05-3.61081E-05-1.52405E-05-3.08667E-05 4.70421E-19 2.23468E-18
 -1      3304 9.08227E-05-4.68043E-05-1.90765E-05-3.09445E-05 1.18786E-18 1.77729E-18
 -1      3305 9.54863E-05-2.55622E-05-2.99555E-05-2.14072E-06-1.67730E-19-9.41286E-19
 -1      3306 9.55326E-05-2.62635E-05-2.96988E-05-1.32833E-06-2.01729E-19-8.37829E-19
 -1      3307 9.57067E-05-2.62030E-05-2.97891E-05-1.16626E-06-2.52489E-19-9.38302E-19
 -1      3308 4.28329E-05-1.51677E-05-1.15346E-05 7.75664E-06-2.13968E-18-9.67100E-19
 -1      3309 4.29990E-05-1.53316E-05-1.14497E-05-3.66977E-06-1.41307E-18-4.79421E-19
 -1      3310 9.52054E-05-2.42711E-05-3.04032E-05 4.26847E-06 9.52446E-19 6.47918E-19
 -1      3311 9.46369E-05-2.27167E-05-3.08068E-05 4.78415E-06 1.15036E-18 6.53723E-19
 -1      3312 9.49625E-05-2.35981E-05-3.05659E-05 3.69456E-06 1.04682E-18 5.13853E-19
 -1      3313 9.52410E-05-2.52035E-05-3.00297E-05 2.98620E-06 9.22464E-19 6.31255E-19
 -1      3314 1.09229E-04-5.35417E-05-2.32795E-05-2.28843E-05 1.55971E-18 3.74005E-19
 -1      3315 1.20661E-04-5.85453E-05-2.68838E-05-1.46031E-05 8.26201E-19-9.60482E-19
 -1      3316 9.23669E-05-1.83392E-05-3.17414E-05 1.81098E-06 1.00261E-18-3.82709E-19
 -1      3317 9.22470E-05-1.81369E-05-3.17732E-05 1.05755E-06 9.03952E-19-4.95985E-19
 -1      3318 1.37991E-04-4.55861E-05-3.96137E-05 2.50936E-06-2.70532E-18-5.90011E-19
 -1      3319 1.34451E-04-3.70693E-05-4.23201E-05 6.99272E-06-3.61249E-18 6.22569E-20
 -1      3320 1.36750E-04-6.00451E-05-3.33433E-05 1.82464E-06 1.99396E-18 4.51574E-20
 -1      3321 1.31287E-04-6.21749E-05-2.92047E-05 1.25533E-05 2.97704E-18-1.04984E-18
 -1      3322 9.34712E-05-1.98478E-05-3.15491E-05-6.23075E-06-6.88250E-20-1.18802E-18
 -1      3323 9.21867E-05-1.80368E-05-3.17915E-05 4.08352E-07 8.25836E-19-5.60714E-19
 -1      3324 9.21836E-05-1.80321E-05-3.17921E-05-3.59482E-07 7.43961E-19-7.29917E-19
 -1      3325 9.31400E-05-1.96209E-05-3.14906E-05 6.28176E-07 7.89713E-19-4.67433E-19
 -1      3326 9.60977E-05-4.88735E-05-2.00244E-05 3.40621E-05 1.13730E-18 2.59420E-18
 -1      3327 8.68553E-05-4.15589E-05-1.92563E-05 3.25443E-05 3.67348E-19 2.14373E-18
 -1      3328 1.04084E-04-5.06317E-05-2.27414E-05 2.71887E-05 1.45645E-18 2.32456E-18
 -1      3329 9.43326E-05-2.19746E-05-3.09885E-05 3.62736E-06 1.05287E-18 2.63124E-19
 -1      3330 9.34280E-05-2.02099E-05-3.14038E-05 4.24207E-06 1.20368E-18 1.51381E-19
 -1      3331 9.30684E-05-1.95488E-05-3.15173E-05 3.65092E-06 1.11177E-18-1.29557E-20
 -1      3332 1.23918E-04-4.58044E-05-3.35416E-05-3.75628E-06-1.36883E-18-2.69740E-19
 -1      3333 9.30386E-05-1.94988E-05-3.15255E-05-3.61298E-06 1.20418E-19-1.05397E-18
 -1      3334 9.34060E-05-2.01681E-05-3.14137E-05-4.22367E-06 3.30641E-20-1.24839E-18
 -1      3335 1.37811E-04-5.27561E-05-3.69296E-05-5.91935E-06-2.16810E-18 4.33231E-19
 -1      3336 1.32687E-04-4.69167E-05-3.67679E-05-4.99617E-07-2.27477E-18-5.29396E-22
 -1      3337 1.30991E-04-4.14720E-05-3.84698E-05-1.73115E-05 1.40793E-18-1.45690E-18
 -1      3338 9.50238E-05-2.37256E-05-3.05587E-05-3.90633E-06-1.75624E-19-1.00549E-18
 -1      3339 9.51914E-05-2.46811E-05-3.02341E-05-2.86812E-06-2.01434E-19-9.59512E-19
 -1      3340 9.52750E-05-2.45595E-05-3.03001E-05-2.52869E-06-1.96208E-19-1.04392E-18
 -1      3341 1.14125E-04-1.52040E-05-4.26354E-05-1.05049E-05 8.68103E-19 1.65799E-18
 -1      3342 1.08797E-04-1.52424E-05-4.03220E-05-6.96805E-06 2.50298E-19 2.45825E-18
 -1      3343 1.17486E-04-3.61912E-05-3.50477E-05-1.82386E-05 8.09830E-19 1.78009E-18
 -1      3344 1.15236E-04-3.07402E-05-3.62119E-05-1.86985E-05 9.38883E-19 1.97313E-18
 -1      3345 1.08716E-04-1.53663E-05-4.02204E-05-1.84194E-06-4.30796E-19 3.13387E-18
 -1      3346 9.40351E-05-2.14105E-05-3.11318E-05-4.99779E-06-1.20241E-19-1.06774E-18
 -1      3347 9.53178E-05-2.83388E-05-2.87071E-05-8.90396E-07 4.27232E-19 2.28870E-19
 -1      3348 9.53492E-05-2.81734E-05-2.87807E-05-7.16757E-07 6.21202E-19 1.80346E-19
 -1      3349 9.56899E-05-2.80106E-05-2.90102E-05-4.75504E-07 5.80709E-19 2.49599E-19
 -1      3350 9.55836E-05-2.86828E-05-2.86751E-05-1.04448E-06 1.44324E-19 3.21444E-19
 -1      3351 9.52735E-05-2.85716E-05-2.85869E-05-1.07909E-06 1.80242E-19 5.26918E-19
 -1      3352 9.52847E-05-2.84674E-05-2.86304E-05-1.00889E-06 2.07755E-19 3.02642E-19
 -1      3353 1.41513E-04-5.92159E-05-3.53791E-05 1.14400E-05 1.09386E-19 4.38445E-19
 -1      3354 1.22427E-04-4.07275E-05-3.50079E-05-1.66527E-05 9.51761E-19 1.34453E-19
 -1      3355 6.87309E-05-3.05418E-05-1.58938E-05-2.60320E-05-2.88097E-19 1.57368E-18
 -1      3356 6.39558E-05-2.72231E-05-1.52548E-05 2.83501E-05 6.15369E-19 6.64921E-20
 -1      3357 6.26825E-05-2.32756E-05-1.67444E-05 2.26577E-05 8.89385E-19 5.44007E-19
 -1      3358 7.26144E-05-3.21197E-05-1.72005E-05 3.00755E-05 8.70975E-19 1.00749E-18
 -1      3359 1.28025E-04-5.44699E-05-3.14478E-05 1.74345E-05-6.52215E-19 2.74850E-18
 -1      3360 1.32059E-04-5.61829E-05-3.26309E-05 1.22779E-05-3.58646E-19 1.02275E-18
 -1      3361 1.26880E-04-5.59130E-05-3.03660E-05 2.46747E-05-1.09979E-18 2.91402E-18
 -1      3362 1.33662E-04-5.51807E-05-3.36945E-05-4.54802E-06 1.42829E-18-1.14349E-19
 -1      3363 1.00452E-04-4.66060E-05-2.28021E-05-2.31306E-05 1.42302E-18 6.96274E-19
 -1      3364 9.27808E-05-1.90499E-05-3.16181E-05 3.12362E-06 1.10254E-18-1.75253E-19
 -1      3365 9.25421E-05-1.86348E-05-3.16854E-05 2.42230E-06 1.06197E-18-3.02121E-19
 -1      3366 9.33538E-05-2.00103E-05-3.14145E-05 1.80217E-06 9.51300E-19-2.83386E-19
 -1      3367 9.37650E-05-2.07917E-05-3.12540E-05 2.84432E-06 1.00318E-18-2.07930E-20
 -1      3368 1.23656E-04-5.95951E-05-2.74011E-05 1.63545E-05 2.44308E-18-7.45323E-19
 -1      3369 1.22406E-04-2.17088E-05-4.34675E-05-1.92487E-05 9.64612E-19 1.20199E-18
 -1      3370 1.21757E-04-2.70253E-05-4.07353E-05-1.92285E-05 1.03539E-18 3.48395E-19
 -1      3371 1.38330E-04-6.19109E-05-3.29247E-05 1.79927E-05-5.00305E-19 2.49192E-18
 -1      3372 1.30689E-04-6.07715E-05-2.98015E-05 2.80616E-05-1.01893E-18 2.48599E-18
 -1      3373 1.27560E-04-3.23462E-05-4.10220E-05 7.90803E-06-2.65280E-18-9.87217E-19
 -1      3374 5.18776E-05-1.67810E-05-1.46502E-05 1.08585E-05-8.92932E-19-4.73438E-19
 -1      3375 1.13575E-04-1.50317E-05-4.25405E-05 1.98362E-06-1.31560E-18 1.49778E-18
 -1      3376 1.36589E-04-6.09936E-05-3.26263E-05-2.46126E-05-3.45325E-19-1.64242E-18
 -1      3377 1.36661E-04-5.69230E-05-3.41098E-05-1.48678E-05-1.63190E-18-2.15252E-19
 -1      3378 9.25192E-05-1.86013E-05-3.16899E-05-2.37363E-06 3.92763E-19-8.66238E-19
 -1      3379 9.27504E-05-1.90042E-05-3.16242E-05-3.08122E-06 2.68439E-19-1.00005E-18
 -1      3380 9.37392E-05-2.07512E-05-3.12616E-05-2.80975E-06 6.15257E-21-8.54184E-19
 -1      3381 4.74930E-05-1.66199E-05-1.27603E-05-9.35222E-06-1.49603E-18-3.97047E-19
 -1      3382 5.35231E-05-1.93174E-05-1.46568E-05-1.53418E-05-1.32884E-18-2.65915E-19
 -1      3383 5.16740E-05-1.56751E-05-1.50473E-05-4.65877E-06-1.70780E-18-4.40563E-19
 -1      3384 1.18329E-04-1.73642E-05-4.35400E-05 4.35492E-06-2.35750E-18 3.26584E-19
 -1      3385 9.53811E-05-2.64924E-05-2.95314E-05 1.36435E-06 7.93809E-19 5.30799E-19
 -1      3386 9.54325E-05-2.58853E-05-2.97910E-05 2.24144E-06 8.23773E-19 5.57903E-19
 -1      3387 9.53553E-05-2.52316E-05-3.00701E-05 2.59570E-06 9.02292E-19 5.45397E-19
 -1      3388 9.55822E-05-2.64068E-05-2.96537E-05 1.23187E-06 7.74691E-19 7.06185E-19
 -1      3389 9.00624E-05-3.28135E-05-2.44371E-05 4.12170E-05 4.03029E-19-1.73515E-18
 -1      3390 1.18785E-04-2.85138E-05-3.87950E-05-1.93956E-05 9.06855E-19 9.03969E-19
 -1      3391 1.25230E-04-5.75745E-05-2.87652E-05 3.22755E-05-1.13667E-18 3.12098E-18
 -1      3392 6.38811E-05-2.48924E-05-1.62250E-05-2.20759E-05-1.06546E-18 7.65083E-19
 -1      3393 7.74478E-05-3.29939E-05-1.89378E-05-2.54509E-05-4.61580E-19 2.02600E-18
 -1      3394 6.39650E-05-2.21041E-05-1.75551E-05-1.67830E-05-1.68108E-18 2.30816E-20
 -1      3395 9.61649E-05-2.78295E-05-2.92791E-05 2.45396E-07-2.99879E-19-5.97728E-19
 -1      3396 9.61607E-05-2.81490E-05-2.91524E-05 4.97047E-07-1.78263E-19-4.95544E-19
 -1      3397 9.61701E-05-2.84130E-05-2.90330E-05 6.57590E-07 8.40157E-21-3.96579E-19
 -1      3398 9.61404E-05-2.86117E-05-2.89432E-05 7.91559E-07 4.35606E-19-2.11892E-19
 -1      3399 9.63602E-05-2.82224E-05-2.92035E-05 4.73732E-07 7.55646E-20-1.68630E-19
 -1      3400 9.61078E-05-2.87669E-05-2.88564E-05 8.66590E-07 4.07380E-19-3.74915E-19
 -1      3401 9.60677E-05-2.88824E-05-2.87945E-05 9.19766E-07 4.01098E-19-5.41723E-19
 -1      3402 9.63389E-05-2.86968E-05-2.89915E-05 7.28122E-07 3.00203E-19-1.37026E-19
 -1      3403 9.60132E-05-2.89633E-05-2.87331E-05 9.37025E-07 3.72020E-19-8.12605E-19
 -1      3404 9.59707E-05-2.90221E-05-2.86921E-05 9.38031E-07 1.55258E-19-6.87957E-19
 -1      3405 9.62543E-05-2.89705E-05-2.88381E-05 8.37129E-07 2.18320E-19-6.93768E-19
 -1      3406 9.59072E-05-2.90533E-05-2.86501E-05 9.19186E-07 2.29539E-19-5.34880E-19
 -1      3407 9.58664E-05-2.90740E-05-2.86245E-05 8.89289E-07 2.79263E-19-3.13899E-19
 -1      3408 9.61388E-05-2.91065E-05-2.87303E-05 8.49796E-07 2.76675E-19-8.03740E-19
 -1      3409 9.58014E-05-2.90725E-05-2.85973E-05 8.50487E-07 7.58778E-20-3.19121E-19
 -1      3410 9.57643E-05-2.90679E-05-2.85830E-05 8.05038E-07-7.46836E-20-1.40106E-19
 -1      3411 9.60125E-05-2.91498E-05-2.86574E-05 8.03981E-07 1.41215E-19-6.20418E-19
 -1      3412 9.57022E-05-2.90456E-05-2.85669E-05 7.57933E-07-6.73070E-19-1.17392E-19
 -1      3413 9.56694E-05-2.90246E-05-2.85608E-05 7.07767E-07-7.34306E-19-4.61616E-19
 -1      3414 9.58873E-05-2.91321E-05-2.86110E-05 7.27735E-07-3.00462E-19-6.36840E-19
 -1      3415 9.56122E-05-2.89891E-05-2.85529E-05 6.60541E-07-5.69843E-19-4.66141E-19
 -1      3416 9.55838E-05-2.89574E-05-2.85528E-05 6.13234E-07-6.02896E-19-5.02819E-19
 -1      3417 9.57697E-05-2.90752E-05-2.85847E-05 6.41168E-07-6.74108E-19-3.80750E-19
 -1      3418 9.55318E-05-2.89135E-05-2.85512E-05 5.71651E-07-6.75355E-19-5.08045E-19
 -1      3419 9.55070E-05-2.88744E-05-2.85554E-05 5.32590E-07-1.00042E-18-4.85170E-19
 -1      3420 9.56618E-05-2.89930E-05-2.85735E-05 5.58484E-07-5.64244E-19-5.53645E-19
 -1      3421 9.54595E-05-2.88245E-05-2.85586E-05 5.00836E-07-1.13712E-18-4.20813E-19
 -1      3422 9.54375E-05-2.87796E-05-2.85663E-05 4.74020E-07-9.76413E-19-1.97365E-19
 -1      3423 9.55634E-05-2.88936E-05-2.85737E-05 4.89899E-07-9.90432E-19-6.71341E-19
 -1      3424 9.53928E-05-2.87244E-05-2.85731E-05 4.55331E-07-6.65835E-19-3.16414E-19
 -1      3425 9.53725E-05-2.86741E-05-2.85836E-05 4.44008E-07-7.95433E-19-2.64208E-19
 -1      3426 9.54721E-05-2.87807E-05-2.85826E-05 4.43034E-07-7.10674E-19-1.39993E-19
 -1      3427 9.53283E-05-2.86130E-05-2.85935E-05 4.41200E-07-9.97481E-19 1.70499E-19
 -1      3428 9.53082E-05-2.85564E-05-2.86064E-05 4.48347E-07-6.59944E-19-2.14777E-19
 -1      3429 9.53840E-05-2.86549E-05-2.85986E-05 4.24077E-07-5.95612E-19 4.95802E-19
 -1      3430 9.52618E-05-2.84879E-05-2.86188E-05 4.64210E-07-2.23644E-19-2.68079E-19
 -1      3431 9.52404E-05-2.84238E-05-2.86341E-05 4.92886E-07 8.55615E-20-2.31678E-19
 -1      3432 9.52943E-05-2.85140E-05-2.86202E-05 4.38706E-07-3.58785E-19 6.38778E-19
 -1      3433 9.51885E-05-2.83458E-05-2.86486E-05 5.30473E-07-6.40472E-20 4.03580E-20
 -1      3434 9.51642E-05-2.82724E-05-2.86662E-05 5.84038E-07-3.82510E-19 1.60601E-19
 -1      3435 9.51968E-05-2.83544E-05-2.86465E-05 4.92767E-07 2.51850E-19 6.81326E-19
 -1      3436 9.51034E-05-2.81825E-05-2.86825E-05 6.46846E-07-4.24408E-19 3.32751E-19
 -1      3437 9.50745E-05-2.80982E-05-2.87022E-05 7.29065E-07 1.02963E-19 2.97539E-19
 -1      3438 9.50849E-05-2.81714E-05-2.86767E-05 5.92742E-07-6.52500E-20 8.73624E-19
 -1      3439 9.50010E-05-2.79942E-05-2.87198E-05 8.21132E-07 4.12135E-19 6.26667E-20
 -1      3440 9.49662E-05-2.78978E-05-2.87414E-05 9.36149E-07 6.89656E-19-2.17302E-19
 -1      3441 9.49515E-05-2.79601E-05-2.87097E-05 7.46034E-07 8.04640E-21 4.12497E-19
 -1      3442 9.48765E-05-2.77784E-05-2.87595E-05 1.06204E-06 7.77000E-19-3.87386E-19
 -1      3443 9.48349E-05-2.76700E-05-2.87824E-05 1.21421E-06 4.45683E-19-4.12265E-19
 -1      3444 9.47893E-05-2.77169E-05-2.87441E-05 9.61066E-07 5.90515E-19-5.32915E-19
 -1      3445 9.47259E-05-2.75354E-05-2.87997E-05 1.37891E-06-2.96772E-19-5.14571E-19
 -1      3446 9.46777E-05-2.74171E-05-2.88230E-05 1.57244E-06-6.82045E-19-7.10658E-19
 -1      3447 9.45917E-05-2.74404E-05-2.87775E-05 1.24720E-06 3.04697E-20-6.64546E-19
 -1      3448 9.45480E-05-2.72703E-05-2.88376E-05 1.78115E-06-5.94172E-19-5.11859E-19
 -1      3449 9.44952E-05-2.71481E-05-2.88596E-05 2.01957E-06-1.32823E-19-5.91170E-19
 -1      3450 9.43542E-05-2.71340E-05-2.88066E-05 1.61449E-06-4.10801E-19-4.68938E-19
 -1      3451 9.43459E-05-2.69965E-05-2.88689E-05 2.27735E-06-5.63802E-19-8.58895E-19
 -1      3452 9.42940E-05-2.68814E-05-2.88871E-05 2.56273E-06-1.33785E-18-5.06396E-19
 -1      3453 9.40760E-05-2.68084E-05-2.88267E-05 2.07321E-06-7.95920E-19-5.83034E-19
 -1      3454 9.41309E-05-2.67390E-05-2.88875E-05 2.87409E-06-1.24906E-18 1.85351E-19
 -1      3455 9.40910E-05-2.66501E-05-2.88985E-05 3.20602E-06-6.97636E-19 6.96534E-20
 -1      3456 9.37637E-05-2.64860E-05-2.88309E-05 2.63336E-06-6.94786E-19-1.51608E-19
 -1      3457 9.39273E-05-2.65406E-05-2.88852E-05 3.57432E-06-2.10035E-19 9.71762E-20
 -1      3458 9.39193E-05-2.65079E-05-2.88848E-05 3.94860E-06-6.53013E-21 5.44303E-19
 -1      3459 9.34353E-05-2.62055E-05-2.88108E-05 3.30395E-06-3.87064E-19 5.03720E-19
 -1      3460 9.37799E-05-2.64681E-05-2.88524E-05 4.37538E-06 1.97498E-19 5.39584E-19
 -1      3461 9.38369E-05-2.65369E-05-2.88357E-05 4.78219E-06 2.60466E-19 1.22554E-18
 -1      3462 9.31275E-05-2.60294E-05-2.87555E-05 4.09235E-06 2.82816E-19 2.90499E-19
 -1      3463 9.37642E-05-2.66211E-05-2.87782E-05 5.26598E-06-7.02378E-19 9.53890E-19
 -1      3464 9.39385E-05-2.68555E-05-2.87406E-05 5.68736E-06-7.61885E-19 8.87821E-19
 -1      3465 9.29051E-05-2.60517E-05-2.86532E-05 5.00323E-06-1.47487E-19 3.13714E-19
 -1      3466 9.40004E-05-2.71399E-05-2.86534E-05 6.22124E-06-9.72885E-19 5.35518E-19
 -1      3467 9.43703E-05-2.76264E-05-2.85925E-05 6.62676E-06-3.67596E-19-3.57506E-20
 -1      3468 9.28747E-05-2.64075E-05-2.84925E-05 6.03643E-06-1.19531E-18 2.88664E-19
 -1      3469 9.46710E-05-2.82123E-05-2.84745E-05 7.19254E-06-1.30778E-19-1.45402E-18
 -1      3470 9.53471E-05-2.90596E-05-2.83937E-05 7.53087E-06-2.26313E-19-1.98758E-18
 -1      3471 9.32033E-05-2.72827E-05-2.82663E-05 7.18099E-06-1.30033E-18-1.31089E-18
 -1      3472 9.60390E-05-3.00710E-05-2.82525E-05 8.08557E-06 4.52111E-19-2.36362E-18
 -1      3473 9.71639E-05-3.13989E-05-2.81673E-05 8.26903E-06 9.27282E-20-2.09346E-18
 -1      3474 9.41403E-05-2.89195E-05-2.79796E-05 8.39828E-06-2.93223E-19-3.31558E-18
 -1      3475 9.84589E-05-3.29690E-05-2.80283E-05 8.71530E-06-4.13129E-19-1.34586E-18
 -1      3476 1.00189E-04-3.48740E-05-2.79766E-05 8.59216E-06-7.97926E-19-2.04105E-18
 -1      3477 9.60427E-05-3.16083E-05-2.76629E-05 9.58386E-06 1.17709E-19-3.03656E-18
 -1      3478 1.02355E-04-3.70964E-05-2.78993E-05 8.71049E-06-5.34420E-19-1.24177E-18
 -1      3479 1.04785E-04-3.95485E-05-2.79563E-05 8.02795E-06-2.31634E-19-9.98610E-19
 -1      3480 9.93926E-05-3.56465E-05-2.73977E-05 1.04744E-05-1.63964E-19-1.40296E-18
 -1      3481 1.08075E-04-4.23475E-05-2.80613E-05 7.38564E-06-1.51124E-19-8.25467E-19
 -1      3482 1.11073E-04-4.49734E-05-2.83554E-05 5.78175E-06 3.12304E-19-8.24343E-19
 -1      3483 1.04740E-04-4.11653E-05-2.73640E-05 1.04710E-05-5.90839E-20-1.54045E-18
 -1      3484 1.15482E-04-4.78628E-05-2.88571E-05 3.69685E-06 6.37591E-19-3.42272E-19
 -1      3485 1.18442E-04-4.96690E-05-2.95423E-05 8.71618E-07 1.76232E-18-7.10565E-20
 -1      3486 1.12439E-04-4.75035E-05-2.79204E-05 8.45590E-06 7.91357E-19-9.63381E-19
 -1      3487 1.16084E-04-1.20183E-05-4.47521E-05-8.00238E-06 8.89385E-19 2.74187E-18
 -1      3488 9.57770E-05-2.89336E-05-2.86470E-05-1.00997E-06 3.11515E-19 5.72874E-20
 -1      3489 9.58075E-05-2.88729E-05-2.86834E-05-1.00793E-06 3.39917E-19-2.24627E-20
 -1      3490 9.54878E-05-2.89130E-05-2.85307E-05-6.59596E-07-1.21737E-19 7.55098E-19
 -1      3491 9.55027E-05-2.89369E-05-2.85285E-05-7.11829E-07-2.09331E-19 5.59227E-19
 -1      3492 9.55491E-05-2.89659E-05-2.85344E-05-7.64004E-07-9.74985E-20 5.97704E-19
 -1      3493 9.55675E-05-2.89797E-05-2.85375E-05-8.18669E-07-1.42857E-19 5.82004E-19
 -1      3494 9.56720E-05-2.90279E-05-2.85631E-05-7.07679E-07-2.48186E-19 7.43292E-19
 -1      3495 9.53876E-05-2.87669E-05-2.85503E-05-5.00045E-07-3.63435E-19 1.19085E-18
 -1      3496 9.53974E-05-2.88031E-05-2.85412E-05-5.31823E-07-1.89832E-19 1.14529E-18
 -1      3497 9.53453E-05-2.86788E-05-2.85699E-05-4.60475E-07-4.00871E-19 1.17644E-18
 -1      3498 9.53536E-05-2.87200E-05-2.85582E-05-4.76570E-07-4.26239E-19 1.15779E-18
 -1      3499 9.54377E-05-2.87782E-05-2.85690E-05-4.77578E-07-5.01301E-19 1.12689E-18
 -1      3500 9.53047E-05-2.85798E-05-2.85948E-05-4.56074E-07-3.69294E-19 1.17660E-18
 -1      3501 9.53124E-05-2.86267E-05-2.85807E-05-4.53374E-07-4.53175E-19 1.20205E-18
 -1      3502 9.53713E-05-2.86696E-05-2.85869E-05-4.49517E-07-3.67331E-19 1.05752E-18
 -1      3503 9.52624E-05-2.84668E-05-2.86250E-05-4.93021E-07-2.53526E-19 1.27231E-18
 -1      3504 9.52705E-05-2.85209E-05-2.86084E-05-4.68269E-07-1.26515E-19 1.14963E-18
 -1      3505 9.53046E-05-2.85471E-05-2.86106E-05-4.56510E-07-3.14289E-19 1.38825E-18
 -1      3506 9.52142E-05-2.83352E-05-2.86605E-05-5.78222E-07 1.63214E-19 1.71776E-18
 -1      3507 9.52239E-05-2.83986E-05-2.86411E-05-5.27707E-07-1.27314E-19 1.35982E-18
 -1      3508 9.52322E-05-2.84064E-05-2.86396E-05-5.04708E-07-2.07996E-19 1.78133E-18
 -1      3509 9.51549E-05-2.81790E-05-2.87018E-05-7.19731E-07 3.39621E-20 2.02725E-18
 -1      3510 9.51678E-05-2.82545E-05-2.86792E-05-6.39090E-07 3.26206E-19 1.74979E-18
 -1      3511 9.51477E-05-2.82418E-05-2.86736E-05-6.00927E-07 1.68551E-20 1.25274E-18
 -1      3512 9.50779E-05-2.79912E-05-2.87489E-05-9.26982E-07 1.22865E-19 1.48361E-18
 -1      3513 9.50960E-05-2.80820E-05-2.87229E-05-8.11095E-07 3.85221E-21 1.43991E-18
 -1      3514 9.50430E-05-2.80458E-05-2.87124E-05-7.52974E-07 2.47187E-19 1.59775E-18
 -1      3515 9.49748E-05-2.77638E-05-2.88019E-05-1.21080E-06 6.30932E-19 1.27836E-18
 -1      3516 9.50009E-05-2.78734E-05-2.87722E-05-1.05380E-06 5.30746E-19 1.66400E-18
 -1      3517 9.49082E-05-2.78097E-05-2.87553E-05-9.69759E-07 3.33772E-19 1.01560E-18
 -1      3518 9.48351E-05-2.74882E-05-2.88598E-05-1.58315E-06-2.98881E-19 1.48884E-18
 -1      3519 9.48731E-05-2.76204E-05-2.88267E-05-1.37859E-06 2.05494E-19 1.67161E-18
 -1      3520 9.47312E-05-2.75239E-05-2.88013E-05-1.26118E-06 2.86116E-19 1.67939E-18
 -1      3521 9.46456E-05-2.71563E-05-2.89204E-05-2.05666E-06-1.06575E-18 1.79993E-18
 -1      3522 9.47001E-05-2.73144E-05-2.88848E-05-1.79779E-06-6.61823E-19 1.64837E-18
 -1      3523 9.44970E-05-2.71787E-05-2.88479E-05-1.63775E-06-7.95335E-19 2.21913E-18
 -1      3524 9.43898E-05-2.67613E-05-2.89798E-05-2.64376E-06-2.51949E-19 1.33314E-18
 -1      3525 9.44671E-05-2.69476E-05-2.89435E-05-2.32405E-06-5.57397E-19 1.90552E-18
 -1      3526 9.41873E-05-2.67647E-05-2.88915E-05-2.11000E-06-6.62137E-19 1.94453E-18
 -1      3527 9.40486E-05-2.63007E-05-2.90308E-05-3.35571E-06-4.54444E-19 6.85856E-19
 -1      3528 9.41558E-05-2.65148E-05-2.89970E-05-2.96947E-06-4.05378E-19 1.03854E-18
 -1      3529 9.37801E-05-2.62749E-05-2.89253E-05-2.68772E-06-2.84132E-19 1.55736E-18
 -1      3530 9.36015E-05-2.57802E-05-2.90620E-05-4.20155E-06-6.23664E-19 4.96192E-19
 -1      3531 9.37455E-05-2.60168E-05-2.90364E-05-3.74474E-06-4.12732E-19 6.65109E-19
 -1      3532 9.32503E-05-2.57073E-05-2.89395E-05-3.37930E-06-1.49292E-19 1.03045E-18
 -1      3533 9.30308E-05-2.52221E-05-2.90563E-05-5.18773E-06 3.08909E-19-8.84183E-19
 -1      3534 9.32157E-05-2.54661E-05-2.90475E-05-4.65852E-06 3.49984E-20-1.79295E-19
 -1      3535 9.25706E-05-2.50703E-05-2.89187E-05-4.19171E-06 1.55527E-19 3.55975E-19
 -1      3536 9.23306E-05-2.46775E-05-2.89887E-05-6.31930E-06 3.01598E-19-1.26074E-18
 -1      3537 9.25515E-05-2.48970E-05-2.90090E-05-5.71806E-06 2.71934E-19-8.95580E-19
 -1      3538 9.17159E-05-2.43903E-05-2.88411E-05-5.13222E-06 6.33595E-19-9.14144E-20
 -1      3539 9.15234E-05-2.42478E-05-2.88246E-05-7.60511E-06-3.58260E-19-1.17307E-18
 -1      3540 9.17551E-05-2.43815E-05-2.88911E-05-6.93286E-06-4.14106E-19-1.98706E-18
 -1      3541 9.06709E-05-2.37250E-05-2.86754E-05-6.21382E-06 1.17269E-19-1.81814E-19
 -1      3542 9.06926E-05-2.41163E-05-2.85194E-05-9.06934E-06 3.22924E-19-7.20349E-19
 -1      3543 9.08683E-05-2.40548E-05-2.86536E-05-8.32397E-06 3.78096E-19-7.95003E-19
 -1      3544 8.94446E-05-2.31832E-05-2.83799E-05-7.46828E-06-4.32132E-20-7.82330E-19
 -1      3545 9.00379E-05-2.45979E-05-2.80209E-05-1.07669E-05 1.22088E-19-6.64261E-19
 -1      3546 9.00144E-05-2.41561E-05-2.82458E-05-9.93953E-06 4.28689E-19-3.43361E-19
 -1      3547 8.80995E-05-2.29585E-05-2.78998E-05-8.97063E-06 9.49328E-20-4.87580E-19
 -1      3548 8.99644E-05-2.61976E-05-2.72816E-05-1.27936E-05-6.22440E-19-9.80129E-19
 -1      3549 8.94674E-05-2.50822E-05-2.76126E-05-1.18717E-05-4.64963E-19-9.65168E-19
 -1      3550 8.68024E-05-2.33767E-05-2.71693E-05-1.08703E-05-2.32137E-19 5.20326E-19
 -1      3551 9.11976E-05-2.96873E-05-2.62857E-05-1.52708E-05-8.36285E-19-1.13860E-18
 -1      3552 8.97711E-05-2.74588E-05-2.67114E-05-1.42697E-05-7.80982E-19-1.62759E-18
 -1      3553 8.59005E-05-2.49533E-05-2.61206E-05-1.34372E-05-6.48333E-19 4.54928E-19
 -1      3554 9.53969E-05-3.62406E-05-2.52172E-05-1.79420E-05-5.93878E-19 3.64006E-19
 -1      3555 9.19746E-05-3.22051E-05-2.55537E-05-1.71791E-05-1.16712E-18-8.31154E-19
 -1      3556 8.62558E-05-2.86572E-05-2.47078E-05-1.70655E-05-1.13353E-18-3.64077E-19
 -1      3557 9.48249E-05-4.04589E-05-2.30478E-05-2.24173E-05 7.39102E-19 1.01576E-18
 -1      3558 1.30074E-04-5.10564E-05-3.40780E-05-9.41275E-06 1.24393E-18-5.00239E-19
 -1      3559 1.30495E-04-5.61545E-05-3.16265E-05-1.05217E-06 1.79510E-18-5.06658E-19
 -1      3560 1.16777E-04-1.80654E-05-4.28792E-05-1.66793E-05 5.59624E-19 2.17927E-18
 -1      3561 9.40126E-05-2.13475E-05-3.11351E-05-4.32813E-06-9.28221E-20-1.08777E-18
 -1      3562 9.45055E-05-2.24328E-05-3.08765E-05-3.33061E-06-1.78548E-19-1.04934E-18
 -1      3563 9.97926E-05-4.37649E-05-2.35447E-05 4.40204E-05-2.16946E-19-4.91544E-19
 -1      3564 9.59005E-05-2.73794E-05-2.93739E-05 9.55253E-08 8.13331E-19 4.52339E-19
 -1      3565 9.58829E-05-2.69096E-05-2.95492E-05 5.52923E-07 8.20398E-19 5.61947E-19
 -1      3566 1.25749E-04-5.83946E-05-2.91567E-05 9.07153E-06 2.15030E-18-2.05131E-18
 -1      3567 1.16992E-04-5.59547E-05-2.59558E-05 1.87832E-05 1.91711E-18-8.88385E-19
 -1      3568 9.56679E-05-2.55163E-05-3.00600E-05-1.49213E-06-1.93571E-19-8.80732E-19
 -1      3569 9.58321E-05-2.62624E-05-2.98248E-05-8.76961E-07-3.49476E-19-9.22354E-19
 -1      3570 9.22377E-05-1.81239E-05-3.17749E-05-1.00859E-06 7.25405E-19-8.02852E-19
 -1      3571 9.23500E-05-1.83147E-05-3.17443E-05-1.76075E-06 5.71442E-19-8.31003E-19
 -1      3572 9.33377E-05-1.99842E-05-3.14184E-05-1.76327E-06 4.20323E-19-7.31182E-19
 -1      3573 5.78965E-05-1.77064E-05-1.71059E-05 1.26934E-05 4.96809E-19 1.07049E-18
 -1      3574 5.40633E-05-1.52784E-05-1.63600E-05 4.39088E-06-8.92574E-19 1.51778E-19
 -1      3575 9.54344E-05-2.88453E-05-2.85368E-05-5.68694E-07-1.59899E-19 8.72073E-19
 -1      3576 9.54464E-05-2.88762E-05-2.85307E-05-6.12783E-07-1.12333E-19 1.00435E-18
 -1      3577 9.55855E-05-2.89595E-05-2.85550E-05-6.14121E-07-3.49241E-19 6.92711E-19
 -1      3578 9.55081E-05-2.88750E-05-2.85578E-05-5.34663E-07-3.00794E-19 1.18501E-18
 -1      3579 1.26108E-04-4.47913E-05-3.48840E-05-7.40290E-07-2.31736E-18-1.21596E-19
 -1      3580 1.24630E-04-3.51502E-05-3.87553E-05-1.97902E-05 1.45473E-18-6.02426E-19
 -1      3581 9.60317E-05-2.69131E-05-2.96139E-05-4.46218E-07-3.89792E-19-7.86303E-19
 -1      3582 9.60826E-05-2.74073E-05-2.94396E-05-3.26561E-08-3.39102E-19-6.51789E-19
 -1      3583 9.62687E-05-2.74620E-05-2.94892E-05 1.46579E-08-2.29377E-19-4.29560E-19
 -1      3584 1.27128E-04-4.16181E-05-3.67131E-05-1.67090E-05 8.72232E-19-6.62949E-19
 -1      3585 1.27805E-04-4.73657E-05-3.46063E-05-1.32866E-05 1.05384E-18-3.45722E-19
 -1      3586 1.24913E-04-4.88753E-05-3.26698E-05-9.22408E-06 1.45904E-18-1.75256E-19
 -1      3587 1.10835E-04-5.29323E-05-2.47813E-05 2.25696E-05 1.26794E-18 5.93254E-20
 -1      3588 1.02966E-04-4.72199E-05-2.36562E-05 2.39826E-05 7.98011E-19 1.23717E-18
 -1      3589 1.14154E-04-5.20837E-05-2.65913E-05 1.50857E-05 1.39327E-18-2.26948E-18
 -1      3590 9.49358E-05-2.35252E-05-3.06219E-05 3.05122E-06 9.40007E-19 2.96185E-19
 -1      3591 9.46652E-05-2.28266E-05-3.07885E-05 2.80624E-06 9.41518E-19 8.19422E-20
 -1      3592 9.42308E-05-2.18140E-05-3.10391E-05-2.11371E-06 1.18672E-19-6.13803E-19
 -1      3593 9.44371E-05-2.22942E-05-3.09341E-05-2.53178E-06-8.60437E-20-7.71691E-19
 -1      3594 1.22532E-04-5.24580E-05-3.01171E-05 7.52963E-07 1.71328E-18-8.86456E-20
 -1      3595 1.23486E-04-5.04441E-05-3.12792E-05-5.21635E-06 1.96220E-18-3.49457E-19
 -1      3596 9.38617E-05-2.10481E-05-3.12176E-05 8.08193E-07 7.94428E-19-3.32296E-19
 -1      3597 9.38136E-05-2.09491E-05-3.12370E-05 2.47312E-07 6.95651E-19-5.39958E-19
 -1      3598 1.25307E-04-3.98144E-05-3.69558E-05 5.63493E-06-2.77199E-18-8.98450E-19
 -1      3599 9.46893E-05-2.28565E-05-3.07785E-05-2.63611E-06-1.21382E-19-1.05561E-18
 -1      3600 9.51480E-05-2.40094E-05-3.04976E-05-2.61979E-06-1.57147E-19-1.01247E-18
 -1      3601 9.54189E-05-2.49161E-05-3.02233E-05-1.88302E-06-1.54107E-19-1.02790E-18
 -1      3602 9.51198E-05-2.37771E-05-3.05707E-05-1.92536E-06-6.54112E-20-7.92929E-19
 -1      3603 9.57224E-05-2.89668E-05-2.86079E-05-9.91894E-07 1.95779E-19 4.12678E-20
 -1      3604 9.59779E-05-2.90277E-05-2.86952E-05-9.34838E-07 2.34815E-19-1.54239E-19
 -1      3605 9.56957E-05-2.89920E-05-2.85865E-05-9.60108E-07 1.11093E-19 1.53751E-19
 -1      3606 1.24535E-04-3.43218E-05-3.87208E-05 7.53498E-06-2.48927E-18-6.97704E-19
 -1      3607 9.55339E-05-2.49421E-05-3.02487E-05-1.55957E-06-1.83303E-19-8.66952E-19
 -1      3608 9.56436E-05-2.84308E-05-2.88097E-05-8.66417E-07 3.09645E-19 2.89764E-19
 -1      3609 9.58561E-05-2.87933E-05-2.87420E-05-9.84861E-07 1.88529E-19 7.86729E-20
 -1      3610 9.58889E-05-2.86801E-05-2.87993E-05-9.25787E-07 1.22245E-19 1.19903E-19
 -1      3611 9.60778E-05-2.88882E-05-2.87980E-05-9.15140E-07 2.14418E-19-3.67747E-19
 -1      3612 9.57679E-05-2.90721E-05-2.85855E-05-8.03985E-07-2.59264E-21 4.59285E-19
 -1      3613 9.56188E-05-2.89965E-05-2.85513E-05-8.69893E-07 3.78407E-20 4.63720E-19
 -1      3614 9.56412E-05-2.89948E-05-2.85620E-05-9.18966E-07 1.94286E-19 4.04380E-19
 -1      3615 8.55071E-05-3.50226E-05-2.16152E-05-2.36786E-05-1.57389E-19 1.02255E-18
 -1      3616 8.15641E-05-3.60783E-05-1.91932E-05 2.98104E-05 5.46310E-19 1.63705E-18
 -1      3617 7.65242E-05-3.03761E-05-1.97032E-05 2.54954E-05 7.78529E-19 1.01617E-18
 -1      3618 8.95702E-05-3.97212E-05-2.14935E-05 2.71979E-05 6.99107E-19 2.48959E-18
 -1      3619 9.31348E-05-1.96127E-05-3.14918E-05-5.87470E-07 6.47358E-19-6.92069E-19
 -1      3620 1.20414E-04-2.74286E-05-4.03328E-05 8.63177E-06-2.65412E-18-8.59593E-19
 -1      3621 1.17980E-04-2.01055E-05-4.20349E-05 6.76532E-06-2.49118E-18 4.09673E-19
 -1      3622 1.24638E-04-5.50147E-05-2.99085E-05 3.32340E-06 2.02295E-18-8.20504E-19
 -1      3623 9.59666E-05-2.77838E-05-2.92121E-05-2.26075E-07 7.22332E-19 4.13223E-19
 -1      3624 9.61089E-05-2.74106E-05-2.94436E-05 4.32061E-08 9.29875E-19 3.93499E-19
 -1      3625 9.59488E-05-2.80881E-05-2.90878E-05-5.03739E-07 6.74149E-19 4.18798E-19
 -1      3626 6.64471E-05-2.27711E-05-1.86190E-05 1.94967E-05 8.22716E-19 4.03876E-19
 -1      3627 6.14107E-05-1.94414E-05-1.76232E-05 1.62851E-05 7.68300E-19 1.14360E-18
 -1      3628 6.22226E-05-1.77899E-05-1.90092E-05 1.06902E-05-3.64492E-19 1.84264E-18
 -1      3629 9.58691E-05-2.62702E-05-2.98282E-05 8.88828E-07 8.30682E-19 3.56623E-19
 -1      3630 9.57094E-05-2.62705E-05-2.97670E-05 1.05894E-06 7.23939E-19 6.02653E-19
 -1      3631 9.59865E-05-2.62955E-05-2.98658E-05-7.11586E-07-2.77077E-19-7.67473E-19
 -1      3632 9.56184E-05-2.57141E-05-2.99550E-05 1.65606E-06 7.96428E-19 5.37688E-19
 -1      3633 6.11780E-05-1.61716E-05-1.91626E-05 2.34242E-06-2.78952E-19 4.97182E-19
 -1      3634 5.55187E-05-1.53137E-05-1.69898E-05 7.97708E-09-1.24319E-18-2.89182E-19
 -1      3635 5.82855E-05-1.63426E-05-1.79869E-05-5.97063E-06-1.27664E-18-5.34584E-19
 -1      3636 9.40865E-05-2.15109E-05-3.11178E-05 1.76609E-06 9.13509E-19-2.05544E-19
 -1      3637 9.39494E-05-2.12203E-05-3.11768E-05 1.24707E-06 8.95397E-19-2.16773E-19
 -1      3638 9.46077E-05-2.23883E-05-3.09342E-05 8.26769E-07 8.45830E-19-1.09848E-19
 -1      3639 9.51630E-05-2.44095E-05-3.03163E-05 2.86569E-06 9.64327E-19 4.76959E-19
 -1      3640 9.54171E-05-2.50627E-05-3.01452E-05 2.08905E-06 8.80917E-19 4.80265E-19
 -1      3641 9.45330E-05-2.22137E-05-3.09762E-05 1.36230E-08 6.50380E-19-5.04992E-19
 -1      3642 9.38114E-05-2.09458E-05-3.12376E-05-2.13351E-07 6.54187E-19-6.27505E-19
 -1      3643 9.38559E-05-2.10367E-05-3.12196E-05-7.73833E-07 6.16749E-19-6.62789E-19
 -1      3644 9.54411E-05-2.45141E-05-3.03975E-05-1.57615E-06-5.68780E-20-5.90636E-19
 -1      3645 9.56555E-05-2.51277E-05-3.02326E-05-1.16773E-06-1.49224E-19-4.86159E-19
 -1      3646 9.52354E-05-2.39561E-05-3.05488E-05-1.51337E-06 5.47719E-20-4.01981E-19
 -1      3647 9.65159E-05-2.80229E-05-2.93494E-05 2.94725E-07 4.46577E-20-1.49114E-19
 -1      3648 9.65275E-05-2.83464E-05-2.92242E-05 4.75200E-07 3.19195E-20-8.96109E-20
 -1      3649 9.40686E-05-2.14831E-05-3.11224E-05-1.73282E-06 2.89886E-19-5.58502E-19
 -1      3650 9.47959E-05-2.28619E-05-3.08134E-05-1.54300E-06 1.91781E-19-3.48990E-19
 -1      3651 9.39352E-05-2.12013E-05-3.11798E-05-1.21786E-06 4.80384E-19-5.71363E-19
 -1      3652 9.65367E-05-2.86095E-05-2.91079E-05 5.74792E-07 2.06109E-19-7.85523E-20
 -1      3653 9.65056E-05-2.88070E-05-2.90155E-05 6.69019E-07 2.55092E-19-1.75701E-19
 -1      3654 9.66673E-05-2.84356E-05-2.92426E-05 4.25612E-07 5.31777E-20-5.63147E-20
 -1      3655 9.64654E-05-2.89580E-05-2.89289E-05 7.10673E-07 1.23576E-19-1.68139E-19
 -1      3656 9.64119E-05-2.90670E-05-2.88626E-05 7.45272E-07 2.10165E-19-3.68924E-19
 -1      3657 9.66358E-05-2.88887E-05-2.90358E-05 5.80916E-07 1.77469E-19-1.02231E-19
 -1      3658 9.63445E-05-2.91405E-05-2.87997E-05 7.48256E-07 2.29495E-19-4.18479E-19
 -1      3659 9.62814E-05-2.91888E-05-2.87537E-05 7.44462E-07 5.73365E-20-6.39721E-19
 -1      3660 9.65288E-05-2.91397E-05-2.88828E-05 6.39774E-07 1.32036E-19-3.96183E-19
 -1      3661 9.62018E-05-2.92100E-05-2.87095E-05 7.23851E-07 1.03704E-19-5.40860E-19
 -1      3662 9.61371E-05-2.92176E-05-2.86789E-05 6.97712E-07 1.17712E-19-6.16604E-19
 -1      3663 9.63830E-05-2.92510E-05-2.87728E-05 6.35564E-07 4.00014E-21-4.35900E-19
 -1      3664 9.60546E-05-2.92044E-05-2.86493E-05 6.64918E-07 3.78142E-20-8.18674E-19
 -1      3665 9.59925E-05-2.91853E-05-2.86305E-05 6.28286E-07-2.05010E-19-5.82349E-19
 -1      3666 9.62224E-05-2.92681E-05-2.86966E-05 5.94108E-07-2.90172E-22-5.68025E-19
 -1      3667 9.59127E-05-2.91502E-05-2.86122E-05 5.91478E-07-6.03546E-19-6.27598E-19
 -1      3668 9.58554E-05-2.91138E-05-2.86022E-05 5.52681E-07-6.98769E-19-2.99180E-19
 -1      3669 9.60617E-05-2.92234E-05-2.86467E-05 5.34934E-07-3.29322E-19-8.34454E-19
 -1      3670 9.57805E-05-2.90647E-05-2.85925E-05 5.17632E-07-5.46369E-19-1.35789E-19
 -1      3671 9.57283E-05-2.90169E-05-2.85893E-05 4.82717E-07-5.01134E-19-9.44488E-20
 -1      3672 9.59085E-05-2.91388E-05-2.86170E-05 4.71721E-07-5.13238E-19-2.73375E-19
 -1      3673 9.56586E-05-2.89583E-05-2.85862E-05 4.53669E-07-6.23429E-19-2.42624E-19
 -1      3674 9.56108E-05-2.89022E-05-2.85881E-05 4.27033E-07-9.03580E-19-1.27728E-22
 -1      3675 9.57653E-05-2.90278E-05-2.86029E-05 4.14603E-07-5.58269E-19-2.29332E-19
 -1      3676 9.55451E-05-2.88362E-05-2.85901E-05 4.07128E-07-7.37111E-19 6.28349E-19
 -1      3677 9.55001E-05-2.87731E-05-2.85960E-05 3.92164E-07-6.14999E-19 6.50777E-19
 -1      3678 9.56312E-05-2.88979E-05-2.86009E-05 3.71013E-07-4.66076E-19 2.22476E-19
 -1      3679 9.54358E-05-2.86999E-05-2.86019E-05 3.83963E-07-3.98827E-19 5.97544E-19
 -1      3680 9.53913E-05-2.86292E-05-2.86111E-05 3.83582E-07-2.94345E-19 9.55331E-19
 -1      3681 9.55025E-05-2.87515E-05-2.86081E-05 3.46671E-07-6.05460E-19 8.16212E-19
 -1      3682 9.53250E-05-2.85474E-05-2.86201E-05 3.89481E-07-4.62635E-20 9.84479E-19
 -1      3683 9.52782E-05-2.84676E-05-2.86319E-05 4.06491E-07 2.30637E-19 1.38606E-18
 -1      3684 9.53732E-05-2.85878E-05-2.86224E-05 3.46525E-07 1.05471E-19 7.98135E-19
 -1      3685 9.52056E-05-2.83749E-05-2.86433E-05 4.29020E-07 1.52671E-19 1.72227E-18
 -1      3686 9.51534E-05-2.82838E-05-2.86572E-05 4.66406E-07 1.42297E-19 1.55386E-18
 -1      3687 9.52358E-05-2.84029E-05-2.86424E-05 3.75433E-07 2.39035E-19 1.55276E-18
 -1      3688 9.50697E-05-2.81771E-05-2.86702E-05 5.08454E-07 1.63090E-19 1.13894E-18
 -1      3689 9.50084E-05-2.80720E-05-2.86857E-05 5.69561E-07 1.81480E-19 1.30624E-18
 -1      3690 9.50811E-05-2.81914E-05-2.86663E-05 4.38663E-07-1.11747E-19 1.43062E-18
 -1      3691 9.49082E-05-2.79483E-05-2.86996E-05 6.34551E-07-3.79845E-19 1.08300E-18
 -1      3692 9.48341E-05-2.78268E-05-2.87160E-05 7.23183E-07-3.73873E-19 4.56866E-19
 -1      3693 9.48991E-05-2.79469E-05-2.86925E-05 5.42294E-07-1.88118E-19 1.33693E-18
 -1      3694 9.47117E-05-2.76832E-05-2.87296E-05 8.15196E-07 1.51345E-19 1.97233E-19
 -1      3695 9.46213E-05-2.75437E-05-2.87460E-05 9.35635E-07 4.47831E-19-7.54275E-20
 -1      3696 9.46786E-05-2.76632E-05-2.87190E-05 6.93518E-07-2.46150E-19 8.23276E-19
 -1      3697 9.44711E-05-2.73786E-05-2.87577E-05 1.05950E-06 3.61156E-19-6.20315E-19
 -1      3698 9.43613E-05-2.72211E-05-2.87727E-05 1.21645E-06 1.91892E-20-5.57175E-19
 -1      3699 9.44084E-05-2.73354E-05-2.87431E-05 9.00882E-07 1.17152E-19-7.33311E-19
 -1      3700 9.41783E-05-2.70350E-05-2.87803E-05 1.37784E-06-1.32301E-19-6.83865E-19
 -1      3701 9.40477E-05-2.68624E-05-2.87917E-05 1.57627E-06-3.08966E-19-6.74718E-19
 -1      3702 9.40777E-05-2.69622E-05-2.87606E-05 1.17451E-06-1.39158E-19-4.82988E-19
 -1      3703 9.38284E-05-2.66593E-05-2.87922E-05 1.78178E-06-2.09282E-19-4.01718E-19
 -1      3704 9.36780E-05-2.64793E-05-2.87970E-05 2.02679E-06-3.66755E-19 1.54736E-19
 -1      3705 9.36779E-05-2.65476E-05-2.87663E-05 1.52636E-06-9.08487E-20-3.21893E-19
 -1      3706 9.34220E-05-2.62688E-05-2.87863E-05 2.28413E-06-4.62577E-19 4.47488E-19
 -1      3707 9.32577E-05-2.60956E-05-2.87805E-05 2.58073E-06-2.64267E-19 8.93801E-19
 -1      3708 9.32049E-05-2.61050E-05-2.87527E-05 1.97067E-06 1.15528E-19 9.38470E-19
 -1      3709 9.29695E-05-2.58952E-05-2.87533E-05 2.89907E-06-4.35567E-19 3.23150E-19
 -1      3710 9.28044E-05-2.57531E-05-2.87319E-05 3.25207E-06-4.67302E-19 3.92229E-19
 -1      3711 9.26622E-05-2.56609E-05-2.87101E-05 2.52468E-06-4.66808E-19 3.52307E-19
 -1      3712 9.24968E-05-2.55912E-05-2.86816E-05 3.64263E-06-2.44721E-19 5.41266E-20
 -1      3713 9.23556E-05-2.55178E-05-2.86385E-05 4.05654E-06 1.06965E-19-1.76033E-19
 -1      3714 9.20658E-05-2.52607E-05-2.86261E-05 3.21001E-06-3.60044E-19 2.74943E-20
 -1      3715 9.20535E-05-2.54381E-05-2.85575E-05 4.53345E-06 1.82002E-19 1.72969E-20
 -1      3716 9.19786E-05-2.54891E-05-2.84864E-05 5.01234E-06-1.34396E-19 1.07361E-19
 -1      3717 9.14518E-05-2.49756E-05-2.84860E-05 4.05471E-06 1.25412E-20-4.02124E-19
 -1      3718 9.17257E-05-2.55549E-05-2.83665E-05 5.59373E-06-1.15143E-18 6.69484E-19
 -1      3719 9.17850E-05-2.58094E-05-2.82617E-05 6.14037E-06-1.33348E-18 8.50580E-19
 -1      3720 9.08853E-05-2.49116E-05-2.82730E-05 5.09621E-06-5.85791E-19 5.15561E-19
 -1      3721 9.16527E-05-2.61092E-05-2.80955E-05 6.84879E-06-1.79214E-18 5.71537E-19
 -1      3722 9.19510E-05-2.66756E-05-2.79548E-05 7.46143E-06-2.02277E-18-4.28666E-19
 -1      3723 9.04765E-05-2.52198E-05-2.79702E-05 6.38472E-06-1.66462E-18 1.35481E-18
 -1      3724 9.20545E-05-2.73304E-05-2.77392E-05 8.31934E-06-1.39967E-18-3.93467E-19
 -1      3725 9.27459E-05-2.83506E-05-2.75685E-05 8.98078E-06-2.93078E-19-1.03680E-18
 -1      3726 9.04037E-05-2.61117E-05-2.75647E-05 7.98322E-06-1.91193E-18 1.69771E-18
 -1      3727 9.32642E-05-2.95157E-05-2.73098E-05 9.99637E-06 3.78805E-19-1.66604E-18
 -1      3728 9.45680E-05-3.11630E-05-2.71320E-05 1.06496E-05 3.42816E-19-1.14249E-18
 -1      3729 9.09499E-05-2.78781E-05-2.70559E-05 9.95114E-06-5.10098E-19 5.25098E-19
 -1      3730 9.57763E-05-3.30324E-05-2.68572E-05 1.17894E-05 1.56428E-19-1.90104E-18
 -1      3731 9.79896E-05-3.55004E-05-2.67286E-05 1.22785E-05 1.42829E-20-1.33932E-18
 -1      3732 9.25424E-05-3.08869E-05-2.64717E-05 1.23111E-05 3.14532E-19-6.26010E-19
 -1      3733 1.00305E-04-3.82407E-05-2.65117E-05 1.33461E-05-2.70178E-19-1.40317E-18
 -1      3734 1.03699E-04-4.16382E-05-2.65499E-05 1.33738E-05-2.25258E-19-9.11149E-19
 -1      3735 9.58483E-05-3.56641E-05-2.58935E-05 1.49295E-05 9.56634E-20-6.29286E-19
 -1      3736 1.15822E-04-5.47715E-05-2.61538E-05 3.97520E-05-3.72483E-19 1.52548E-18
 -1      3737 1.18961E-04-5.30384E-05-2.80602E-05 9.35532E-06 1.63647E-18-1.54201E-18
 -1      3738 9.53926E-05-2.86530E-05-2.86013E-05-4.16596E-07-5.03796E-19 5.65949E-19
 -1      3739 9.54259E-05-2.87150E-05-2.85913E-05-4.21018E-07-4.67384E-19 5.58483E-19
 -1      3740 9.54813E-05-2.87805E-05-2.85847E-05-4.33291E-07-4.08629E-19 1.10193E-18
 -1      3741 9.55157E-05-2.88356E-05-2.85778E-05-4.53074E-07-3.49902E-19 1.23817E-18
 -1      3742 9.54973E-05-2.87682E-05-2.85987E-05-3.95004E-07-2.21192E-19 7.86609E-19
 -1      3743 9.52006E-05-2.83429E-05-2.86519E-05-4.89332E-07-1.62436E-19 1.14228E-18
 -1      3744 9.52397E-05-2.84247E-05-2.86365E-05-4.53937E-07-1.66419E-19 1.08601E-18
 -1      3745 9.50817E-05-2.81481E-05-2.86844E-05-5.90784E-07 2.21965E-19 5.32240E-19
 -1      3746 9.51289E-05-2.82447E-05-2.86666E-05-5.30419E-07 4.18282E-20 7.67711E-19
 -1      3747 9.51374E-05-2.82565E-05-2.86626E-05-4.73819E-07 9.83958E-20 2.78621E-19
 -1      3748 9.49343E-05-2.79159E-05-2.87207E-05-7.44817E-07 1.19443E-19 1.01806E-18
 -1      3749 9.49940E-05-2.80313E-05-2.87008E-05-6.55539E-07 1.99293E-19 8.30106E-19
 -1      3750 9.49796E-05-2.80268E-05-2.86929E-05-5.77395E-07 1.54473E-19 3.14896E-19
 -1      3751 9.47454E-05-2.76365E-05-2.87595E-05-9.59285E-07 3.39410E-19 1.48460E-18
 -1      3752 9.48233E-05-2.77754E-05-2.87379E-05-8.36728E-07 2.38926E-19 1.29196E-18
 -1      3753 9.47830E-05-2.77526E-05-2.87255E-05-7.29497E-07 6.80617E-20 9.91883E-19
 -1      3754 9.44997E-05-2.72992E-05-2.87987E-05-1.24255E-06-4.97961E-19 2.46849E-18
 -1      3755 9.46026E-05-2.74666E-05-2.87765E-05-1.08207E-06-5.45939E-21 1.77355E-18
 -1      3756 9.45320E-05-2.74231E-05-2.87583E-05-9.36637E-07-1.84832E-19 1.50225E-18
 -1      3757 9.41783E-05-2.68935E-05-2.88349E-05-1.60296E-06-7.33729E-19 2.03849E-18
 -1      3758 9.43146E-05-2.70941E-05-2.88137E-05-1.39994E-06-4.16637E-19 2.40420E-18
 -1      3759 9.42080E-05-2.70267E-05-2.87883E-05-1.20528E-06-6.08286E-19 2.19190E-18
 -1      3760 9.37587E-05-2.64095E-05-2.88627E-05-2.04816E-06-6.51314E-19 1.24625E-18
 -1      3761 9.39387E-05-2.66477E-05-2.88452E-05-1.79838E-06-5.63253E-19 1.69103E-18
 -1      3762 9.37886E-05-2.65523E-05-2.88104E-05-1.54122E-06-2.60980E-19 1.73575E-18
 -1      3763 9.32141E-05-2.58406E-05-2.88736E-05-2.58427E-06-1.25686E-19 1.20040E-18
 -1      3764 9.34500E-05-2.61186E-05-2.88639E-05-2.28436E-06-4.56280E-19 1.50201E-18
 -1      3765 9.32474E-05-2.59904E-05-2.88175E-05-1.94880E-06-7.72408E-19 7.43465E-19
 -1      3766 9.25142E-05-2.51856E-05-2.88549E-05-3.21541E-06 4.91386E-20 1.36605E-18
 -1      3767 9.28196E-05-2.55024E-05-2.88596E-05-2.86312E-06 1.66935E-19 1.66059E-18
 -1      3768 9.25535E-05-2.53350E-05-2.87988E-05-2.43022E-06 3.08398E-20 1.23691E-18
 -1      3769 9.16256E-05-2.44539E-05-2.87883E-05-3.94429E-06 1.52649E-19 8.30781E-19
 -1      3770 9.20145E-05-2.48022E-05-2.88167E-05-3.53820E-06 8.05978E-20 1.52230E-18
 -1      3771 9.16714E-05-2.45864E-05-2.87386E-05-2.98552E-06 2.25847E-20 1.58596E-18
 -1      3772 9.05156E-05-2.36732E-05-2.86477E-05-4.77535E-06 5.71790E-19 6.25995E-19
 -1      3773 9.09995E-05-2.40350E-05-2.87132E-05-4.31322E-06 5.22802E-19 9.17900E-19
 -1      3774 9.05608E-05-2.37559E-05-2.86150E-05-3.61423E-06 1.46596E-19 1.75896E-18
 -1      3775 8.91581E-05-2.29005E-05-2.83968E-05-5.72218E-06-1.76156E-19 6.25764E-19
 -1      3776 8.97409E-05-2.32403E-05-2.85180E-05-5.19679E-06 1.92086E-19 1.05615E-18
 -1      3777 8.91787E-05-2.28724E-05-2.83968E-05-4.32034E-06 2.82013E-19 1.59984E-18
 -1      3778 8.75435E-05-2.22372E-05-2.79867E-05-6.82498E-06 4.25765E-19 2.04309E-19
 -1      3779 8.82116E-05-2.24928E-05-2.81882E-05-6.21480E-06 2.31255E-19 5.62120E-19
 -1      3780 8.74795E-05-2.19891E-05-2.80416E-05-5.12290E-06 3.17348E-19 1.17180E-18
 -1      3781 8.57003E-05-2.18577E-05-2.73523E-05-8.18491E-06-2.53469E-19 4.33035E-19
 -1      3782 8.64021E-05-2.19205E-05-2.76659E-05-7.43743E-06 2.70435E-19 2.17732E-19
 -1      3783 8.54147E-05-2.11937E-05-2.74906E-05-6.08181E-06 4.40003E-19 1.81749E-18
 -1      3784 8.37329E-05-2.20551E-05-2.64096E-05-1.00080E-05-7.82609E-19 7.12677E-19
 -1      3785 8.43504E-05-2.17451E-05-2.68729E-05-9.02157E-06-6.48813E-19 7.01779E-19
 -1      3786 8.29385E-05-2.06294E-05-2.66616E-05-7.34553E-06-7.51520E-19 1.45229E-18
 -1      3787 8.19089E-05-2.32929E-05-2.50609E-05-1.26374E-05-4.88265E-19 3.04095E-19
 -1      3788 8.21914E-05-2.23273E-05-2.57100E-05-1.12432E-05-6.93550E-19 4.01869E-19
 -1      3789 8.00559E-05-2.05472E-05-2.54392E-05-9.22974E-06-6.32256E-19 1.73386E-18
 -1      3790 8.07775E-05-2.63664E-05-2.31920E-05-1.68479E-05-9.33086E-19 3.21591E-20
 -1      3791 8.01104E-05-2.41338E-05-2.40496E-05-1.46825E-05-4.03007E-19 3.91071E-19
 -1      3792 7.66529E-05-2.12014E-05-2.36480E-05-1.22149E-05-5.04547E-19 1.46914E-18
 -1      3793 7.97675E-05-2.92499E-05-2.16549E-05-2.06496E-05-1.03624E-18 5.74910E-19
 -1      3794 1.13341E-04-5.02426E-05-2.70377E-05 1.26417E-05 1.10343E-18-1.83040E-18
 -1      3795 9.53013E-05-2.85088E-05-2.86240E-05-4.33370E-07-4.72200E-19 7.51503E-19
 -1      3796 9.53360E-05-2.85794E-05-2.86111E-05-4.19452E-07-5.22559E-19 5.15445E-19
 -1      3797 9.52694E-05-2.84515E-05-2.86361E-05-4.12602E-07-4.18829E-19 2.79460E-19
 -1      3798 9.59207E-05-2.85309E-05-2.88837E-05-8.37126E-07 8.48414E-20 4.29573E-19
 -1      3799 9.59514E-05-2.83404E-05-2.89695E-05-6.89402E-07 3.42068E-19 3.93638E-19
 -1      3800 9.61545E-05-2.86173E-05-2.89471E-05-7.85162E-07 1.85234E-19 2.77215E-19
 -1      3801 9.59994E-05-2.63855E-05-2.98432E-05 6.21944E-07 8.99809E-19 1.60405E-19
 -1      3802 9.58092E-05-2.56448E-05-3.00666E-05 1.13474E-06 8.39536E-19 3.56684E-20
 -1      3803 9.50870E-05-2.37015E-05-3.05831E-05 2.07804E-06 8.51736E-19 2.76080E-20
 -1      3804 9.44605E-05-2.23364E-05-3.09268E-05 2.55960E-06 1.04488E-18 5.18059E-20
 -1      3805 9.42477E-05-2.18488E-05-3.10326E-05 2.13510E-06 9.45680E-19-9.37010E-20
 -1      3806 9.54426E-05-2.48560E-05-3.02474E-05 1.84967E-06 8.10167E-19 2.80105E-19
 -1      3807 9.57811E-05-2.90786E-05-2.85854E-05-6.25567E-07-2.12510E-19 9.57382E-19
 -1      3808 9.58276E-05-2.91081E-05-2.85937E-05-6.69769E-07-1.27526E-19 8.75389E-19
 -1      3809 9.63362E-05-2.70992E-05-2.96687E-05-1.81454E-07-1.35105E-19-1.53690E-19
 -1      3810 9.64252E-05-2.75999E-05-2.95020E-05 1.15207E-07 9.98971E-21-4.50506E-20
 -1      3811 9.65703E-05-2.76993E-05-2.95154E-05 1.34175E-07-2.27178E-20 3.16683E-19
 -1      3812 9.59636E-05-2.58686E-05-3.00388E-05-8.38361E-07-2.27456E-19-3.46289E-19
 -1      3813 9.61606E-05-2.65822E-05-2.98253E-05-4.09116E-07-2.07324E-19-2.55403E-19
 -1      3814 9.63036E-05-2.66895E-05-2.98301E-05-2.90209E-07-4.24302E-20 2.92167E-19
 -1      3815 9.58528E-05-2.54201E-05-3.01824E-05-8.42648E-07-2.28836E-20-1.12324E-19
 -1      3816 7.34912E-05-2.46711E-05-2.09467E-05-1.82167E-05-1.11240E-18 5.24472E-19
 -1      3817 9.55868E-05-2.50743E-05-3.02223E-05 1.38171E-06 7.85929E-19 5.69028E-20
 -1      3818 9.53629E-05-2.44138E-05-3.04119E-05 1.78961E-06 7.55196E-19-2.76055E-20
 -1      3819 9.52198E-05-2.39394E-05-3.05468E-05 1.60834E-06 7.89993E-19-3.89979E-21
 -1      3820 9.57189E-05-2.51856E-05-3.02250E-05 1.09001E-06 8.15020E-19-1.39327E-19
 -1      3821 9.46037E-05-2.23752E-05-3.09368E-05-8.04831E-07 3.90653E-19-5.00201E-19
 -1      3822 9.51321E-05-2.36532E-05-3.06378E-05-1.22438E-06 1.77308E-19-3.32349E-19
 -1      3823 1.03043E-04-4.37708E-05-2.55315E-05 1.76729E-05 2.69568E-19-4.44957E-20
 -1      3824 1.08696E-04-4.64145E-05-2.65684E-05 1.37721E-05 5.93814E-19-1.27368E-18
 -1      3825 9.53864E-05-2.86200E-05-2.86144E-05-3.88077E-07-5.57208E-19 5.84812E-20
 -1      3826 9.62683E-05-2.89896E-05-2.88343E-05-8.32447E-07 4.14509E-19 1.71381E-19
 -1      3827 9.63157E-05-2.88778E-05-2.88986E-05-7.90752E-07 3.97816E-19 3.40464E-19
 -1      3828 9.58998E-05-2.91376E-05-2.86112E-05-7.11427E-07-3.02252E-19 5.16589E-19
 -1      3829 9.59511E-05-2.91504E-05-2.86281E-05-7.52648E-07-1.70547E-19 4.02789E-19
 -1      3830 9.59926E-05-2.91877E-05-2.86324E-05-6.25038E-07-3.28991E-19 9.01920E-19
 -1      3831 9.56091E-05-2.89002E-05-2.85904E-05-4.28279E-07-4.86714E-19 1.35445E-18
 -1      3832 9.55732E-05-2.88945E-05-2.85752E-05-4.77908E-07-4.23161E-19 1.37415E-18
 -1      3833 9.56105E-05-2.89429E-05-2.85722E-05-5.09919E-07-4.85481E-19 1.13642E-18
 -1      3834 9.69688E-05-4.21110E-05-2.33818E-05 2.29767E-05 1.63319E-19 1.61668E-18
 -1      3835 7.96100E-05-2.92370E-05-2.15184E-05 2.12204E-05 6.20921E-19 1.71173E-18
 -1      3836 7.25732E-05-2.56586E-05-1.98816E-05 2.15831E-05 8.19832E-19 3.45404E-19
 -1      3837 7.01505E-05-2.21753E-05-2.05881E-05 1.65113E-05 1.35036E-19 5.93479E-19
 -1      3838 9.58715E-05-2.90790E-05-2.86273E-05-8.87292E-07 1.01939E-19 2.52526E-19
 -1      3839 9.61526E-05-2.91192E-05-2.87283E-05-8.38060E-07 6.45510E-20 2.85974E-19
 -1      3840 9.62067E-05-2.90663E-05-2.87722E-05-8.40628E-07 2.07691E-19 1.69863E-19
 -1      3841 9.64158E-05-2.90696E-05-2.88646E-05-7.36508E-07 2.85741E-19 5.90847E-19
 -1      3842 9.62090E-05-2.70283E-05-2.96423E-05 2.74530E-07 8.20018E-19 2.53708E-19
 -1      3843 9.61500E-05-2.64608E-05-2.98638E-05 4.76320E-07 8.03603E-19 6.35998E-22
 -1      3844 9.62808E-05-2.75243E-05-2.94736E-05-7.04337E-08 7.71732E-19 3.37924E-19
 -1      3845 9.61803E-05-2.81538E-05-2.91565E-05-4.88713E-07 5.47415E-19 4.55098E-19
 -1      3846 6.53343E-05-1.93034E-05-1.95447E-05-1.24774E-05-1.39313E-18-2.65108E-19
 -1      3847 9.50478E-05-2.33304E-05-3.07448E-05 1.96918E-07 7.16068E-19-3.11930E-19
 -1      3848 9.50460E-05-2.33273E-05-3.07455E-05-1.77170E-07 6.07396E-19-5.78437E-19
 -1      3849 9.48033E-05-2.28866E-05-3.08075E-05 1.54484E-06 8.82040E-19-2.97552E-20
 -1      3850 6.39566E-05-1.65332E-05-2.00970E-05 5.59409E-06-5.84301E-19 1.74195E-18
 -1      3851 6.43120E-05-1.63879E-05-2.05833E-05 1.70119E-06-8.67672E-19 4.74908E-19
 -1      3852 9.56723E-05-2.89950E-05-2.85746E-05-5.44417E-07-6.37658E-19 1.08385E-18
 -1      3853 9.57139E-05-2.90356E-05-2.85765E-05-5.84937E-07-4.53230E-19 9.27419E-19
 -1      3854 9.57272E-05-2.90167E-05-2.85913E-05-4.82408E-07-7.86457E-19 1.40681E-18
 -1      3855 6.79497E-05-1.86754E-05-2.10573E-05-8.73789E-06-4.19652E-19-3.45828E-20
 -1      3856 9.51287E-05-2.35601E-05-3.06815E-05 8.27695E-07 9.64545E-19 2.39214E-20
 -1      3857 9.50714E-05-2.33978E-05-3.07236E-05 4.83708E-07 8.32299E-19-7.38597E-20
 -1      3858 9.55818E-05-2.43670E-05-3.05045E-05 2.53763E-07 7.12399E-19-9.89941E-20
 -1      3859 6.58763E-05-1.80766E-05-2.04747E-05 9.14489E-06-4.52759E-19 1.64441E-18
 -1      3860 9.58547E-05-2.91151E-05-2.86041E-05-5.50738E-07-3.97553E-19 1.20467E-18
 -1      3861 9.22095E-05-3.67383E-05-2.36943E-05 2.07508E-05 9.18485E-20 1.44444E-18
 -1      3862 9.53766E-05-2.85827E-05-2.86249E-05-3.40524E-07-4.23661E-19 4.11947E-19
 -1      3863 9.54335E-05-2.86652E-05-2.86158E-05-3.35673E-07-1.08517E-19 6.66153E-19
 -1      3864 9.67739E-05-2.82740E-05-2.93547E-05 2.79243E-07-8.29587E-20 9.32073E-20
 -1      3865 9.67846E-05-2.85765E-05-2.92345E-05 3.92902E-07 5.89255E-20 7.29475E-21
 -1      3866 9.67801E-05-2.88173E-05-2.91246E-05 4.40296E-07 2.93541E-20-4.03116E-20
 -1      3867 9.67408E-05-2.89964E-05-2.90343E-05 4.97019E-07 6.31406E-20-2.09897E-19
 -1      3868 9.68684E-05-2.86720E-05-2.92273E-05 3.13416E-07-1.21813E-19 5.26733E-20
 -1      3869 9.66870E-05-2.91287E-05-2.89517E-05 5.11764E-07 1.98886E-19-3.85983E-19
 -1      3870 9.66203E-05-2.92206E-05-2.88856E-05 5.29798E-07 1.27432E-19-3.95278E-19
 -1      3871 9.68087E-05-2.90694E-05-2.90325E-05 3.87075E-07 4.09385E-20 1.01018E-19
 -1      3872 9.65399E-05-2.92780E-05-2.88251E-05 5.23505E-07 2.73422E-20-2.14877E-19
 -1      3873 9.64607E-05-2.93102E-05-2.87782E-05 5.16939E-07 5.21650E-20-2.99908E-19
 -1      3874 9.66744E-05-2.92748E-05-2.88874E-05 4.08460E-07 1.25160E-19-1.22679E-19
 -1      3875 9.63686E-05-2.93169E-05-2.87354E-05 4.98166E-07-1.60612E-20-1.87603E-19
 -1      3876 9.62863E-05-2.93090E-05-2.87036E-05 4.77962E-07-9.68000E-20-4.15676E-19
 -1      3877 9.65026E-05-2.93485E-05-2.87823E-05 3.96619E-07 1.42648E-20-1.73648E-20
 -1      3878 9.61923E-05-2.92829E-05-2.86747E-05 4.54088E-07-1.34935E-19-4.01938E-19
 -1      3879 9.61126E-05-2.92492E-05-2.86546E-05 4.27867E-07-3.54199E-19-2.24516E-19
 -1      3880 9.63175E-05-2.93336E-05-2.87093E-05 3.65711E-07-1.02076E-19 2.32735E-19
 -1      3881 9.60214E-05-2.92017E-05-2.86366E-05 4.02827E-07-5.77396E-19-2.49217E-19
 -1      3882 9.59465E-05-2.91509E-05-2.86255E-05 3.76547E-07-7.14247E-19-2.86350E-19
 -1      3883 9.61341E-05-2.92617E-05-2.86613E-05 3.27526E-07-3.89087E-19-1.90538E-19
 -1      3884 9.58601E-05-2.90893E-05-2.86159E-05 3.54307E-07-6.58062E-19-5.34097E-19
 -1      3885 9.57903E-05-2.90269E-05-2.86117E-05 3.32207E-07-3.80707E-19-3.90011E-19
 -1      3886 9.59580E-05-2.91514E-05-2.86329E-05 2.88995E-07-6.99202E-19-6.17158E-19
 -1      3887 9.57086E-05-2.89553E-05-2.86087E-05 3.15244E-07-1.37316E-19-3.91248E-19
 -1      3888 9.56427E-05-2.88839E-05-2.86098E-05 3.00470E-07-2.31779E-19-2.98133E-20
 -1      3889 9.57917E-05-2.90151E-05-2.86197E-05 2.56883E-07-1.48957E-19-2.66000E-19
 -1      3890 9.55636E-05-2.88036E-05-2.86118E-05 2.90714E-07-3.22474E-19 2.25100E-19
 -1      3891 9.54991E-05-2.87235E-05-2.86171E-05 2.85838E-07-5.14373E-19 2.85208E-19
 -1      3892 9.56326E-05-2.88587E-05-2.86182E-05 2.35316E-07-2.20244E-19-1.94263E-19
 -1      3893 9.54191E-05-2.86338E-05-2.86230E-05 2.85052E-07-2.30671E-19 6.24196E-19
 -1      3894 9.53525E-05-2.85437E-05-2.86315E-05 2.92423E-07 5.24551E-19 7.60604E-19
 -1      3895 9.54753E-05-2.86829E-05-2.86256E-05 2.27934E-07-9.17247E-20 3.03659E-19
 -1      3896 9.52669E-05-2.84424E-05-2.86402E-05 3.02410E-07 7.37014E-19 8.27858E-19
 -1      3897 9.51941E-05-2.83399E-05-2.86511E-05 3.24426E-07 3.11124E-19 9.96238E-19
 -1      3898 9.53116E-05-2.84849E-05-2.86399E-05 2.38174E-07 5.99435E-19 5.01322E-19
 -1      3899 9.50974E-05-2.82238E-05-2.86617E-05 3.47244E-07-1.77433E-19 1.10749E-18
 -1      3900 9.50134E-05-2.81057E-05-2.86741E-05 3.86570E-07-1.37338E-19 4.95106E-19
 -1      3901 9.51315E-05-2.82592E-05-2.86589E-05 2.69690E-07 1.16494E-19 3.18831E-19
 -1      3902 9.48992E-05-2.79711E-05-2.86856E-05 4.24721E-07-3.04315E-19 6.30702E-19
 -1      3903 9.47987E-05-2.78338E-05-2.86987E-05 4.84459E-07-3.57768E-19 4.64016E-19
 -1      3904 9.49231E-05-2.79985E-05-2.86806E-05 3.26740E-07-2.59803E-19-2.44899E-19
 -1      3905 9.46598E-05-2.76767E-05-2.87098E-05 5.41077E-07-6.42336E-19 6.01442E-19
 -1      3906 9.45370E-05-2.75172E-05-2.87223E-05 6.24901E-07-5.46023E-19-3.71286E-19
 -1      3907 9.46728E-05-2.76950E-05-2.87028E-05 4.14557E-07-6.56309E-19-6.06279E-19
 -1      3908 9.43659E-05-2.73344E-05-2.87313E-05 7.03955E-07 1.38017E-19-2.19087E-19
 -1      3909 9.42151E-05-2.71505E-05-2.87415E-05 8.16231E-07-1.55902E-20-7.04118E-19
 -1      3910 9.43661E-05-2.73409E-05-2.87223E-05 5.39739E-07-3.42526E-19-5.36915E-19
 -1      3911 9.40039E-05-2.69399E-05-2.87461E-05 9.22771E-07 6.17578E-21-7.38014E-19
 -1      3912 9.38203E-05-2.67318E-05-2.87516E-05 1.06870E-06-1.80950E-20-3.39890E-19
 -1      3913 9.39875E-05-2.69304E-05-2.87350E-05 7.10716E-07 1.45882E-19-2.30375E-19
 -1      3914 9.35617E-05-2.64941E-05-2.87487E-05 1.20919E-06-2.11286E-19 2.54064E-19
 -1      3915 9.33416E-05-2.62651E-05-2.87462E-05 1.39500E-06 1.62479E-19 3.42977E-19
 -1      3916 9.35220E-05-2.64615E-05-2.87355E-05 9.38372E-07 2.73842E-19-7.83134E-20
 -1      3917 9.30295E-05-2.60049E-05-2.87315E-05 1.57780E-06-2.83097E-19 1.03307E-19
 -1      3918 9.27724E-05-2.57637E-05-2.87168E-05 1.81110E-06-1.78303E-19 1.26137E-19
 -1      3919 9.29561E-05-2.59386E-05-2.87160E-05 1.23695E-06-1.91062E-19 2.94259E-19
 -1      3920 9.24034E-05-2.54915E-05-2.86846E-05 2.04725E-06 4.09352E-20-2.52382E-19
 -1      3921 9.21137E-05-2.52545E-05-2.86519E-05 2.33762E-06-3.70194E-19-1.22331E-19
 -1      3922 9.22799E-05-2.53754E-05-2.86665E-05 1.62539E-06-8.65528E-20-3.71034E-19
 -1      3923 9.16881E-05-2.49892E-05-2.85950E-05 2.64199E-06-4.78508E-19 3.82785E-19
 -1      3924 9.13783E-05-2.47831E-05-2.85372E-05 3.00194E-06-1.02411E-19-8.73951E-20
 -1      3925 9.14897E-05-2.47993E-05-2.85737E-05 2.12947E-06-3.87077E-19 2.17673E-20
 -1      3926 9.09029E-05-2.45545E-05-2.84466E-05 3.39514E-06 1.06762E-19-4.58958E-19
 -1      3927 9.05975E-05-2.44206E-05-2.83555E-05 3.84172E-06 3.23972E-19-1.22414E-19
 -1      3928 9.05920E-05-2.42560E-05-2.84210E-05 2.78510E-06-1.16707E-19 6.01840E-20
 -1      3929 9.00885E-05-2.42732E-05-2.82203E-05 4.35267E-06 3.75044E-19-9.06793E-19
 -1      3930 8.98302E-05-2.42711E-05-2.80867E-05 4.90947E-06-4.87586E-19 1.11100E-20
 -1      3931 8.96080E-05-2.38158E-05-2.81877E-05 3.64349E-06 8.31298E-20-8.67579E-19
 -1      3932 8.93170E-05-2.42676E-05-2.78943E-05 5.57937E-06-1.26355E-18 6.87714E-19
 -1      3933 8.91753E-05-2.44814E-05-2.77094E-05 6.27908E-06-1.68380E-18 7.44085E-19
 -1      3934 8.85806E-05-2.35801E-05-2.78491E-05 4.77740E-06-3.01255E-19-5.41537E-19
 -1      3935 8.87132E-05-2.47132E-05-2.74458E-05 7.16855E-06-1.77739E-18 1.85107E-18
 -1      3936 8.88033E-05-2.52639E-05-2.72036E-05 8.04945E-06-1.37615E-18 1.80595E-18
 -1      3937 8.75870E-05-2.36971E-05-2.73765E-05 6.29873E-06-1.06962E-18 3.98591E-19
 -1      3938 8.84790E-05-2.58547E-05-2.68567E-05 9.24055E-06-1.43700E-18 1.67691E-18
 -1      3939 8.89773E-05-2.69044E-05-2.65596E-05 1.03408E-05-9.27299E-19 1.02960E-18
 -1      3940 8.67538E-05-2.43573E-05-2.67403E-05 8.35889E-06-1.68570E-18 1.92797E-18
 -1      3941 8.89783E-05-2.80564E-05-2.61222E-05 1.19219E-05 1.03010E-19 3.59852E-19
 -1      3942 9.01864E-05-2.98398E-05-2.57918E-05 1.32319E-05 6.27166E-19 4.09976E-19
 -1      3943 8.63503E-05-2.58640E-05-2.59118E-05 1.12224E-05-8.86711E-19 1.67477E-18
 -1      3944 9.46441E-05-2.76078E-05-2.87294E-05-6.73090E-07-1.74591E-19 8.78489E-19
 -1      3945 9.47557E-05-2.77639E-05-2.87134E-05-5.88462E-07-2.10886E-19 5.67601E-19
 -1      3946 9.65131E-05-2.88097E-05-2.90174E-05-6.58573E-07 3.48587E-19 4.20950E-19
 -1      3947 9.63526E-05-2.87254E-05-2.89851E-05-7.35757E-07 2.30345E-19 3.60243E-19
 -1      3948 9.63824E-05-2.85276E-05-2.90760E-05-6.25690E-07 2.96842E-19 4.15108E-19
 -1      3949 9.55068E-05-2.87484E-05-2.86097E-05-3.39084E-07 5.51260E-20 6.22815E-19
 -1      3950 9.55626E-05-2.88214E-05-2.86038E-05-3.47737E-07 3.69942E-20 8.66606E-19
 -1      3951 9.54932E-05-2.87150E-05-2.86196E-05-2.87148E-07-8.43166E-20 6.94290E-19
 -1      3952 9.48845E-05-2.79163E-05-2.87000E-05-5.31576E-07-1.17322E-19 5.70321E-19
 -1      3953 9.49728E-05-2.80469E-05-2.86845E-05-4.71014E-07 2.67026E-19 2.02618E-19
 -1      3954 9.47604E-05-2.77784E-05-2.87046E-05-4.73772E-07-3.46603E-19 6.26138E-19
 -1      3955 9.50770E-05-2.81749E-05-2.86715E-05-4.32207E-07 2.29328E-19-5.80541E-20
 -1      3956 9.51492E-05-2.82851E-05-2.86576E-05-3.92874E-07-2.53875E-20-1.72573E-19
 -1      3957 9.49906E-05-2.80705E-05-2.86788E-05-3.83873E-07 1.15969E-19 1.20921E-19
 -1      3958 9.43379E-05-2.72377E-05-2.87571E-05-8.61556E-07-3.75198E-19 9.84134E-19
 -1      3959 9.44815E-05-2.74250E-05-2.87419E-05-7.50068E-07-3.49352E-19 8.94526E-19
 -1      3960 9.44725E-05-2.74301E-05-2.87296E-05-5.98237E-07-3.33916E-19 8.83249E-19
 -1      3961 9.39446E-05-2.67943E-05-2.87790E-05-1.10116E-06-5.71451E-19 1.51562E-18
 -1      3962 9.41306E-05-2.70183E-05-2.87666E-05-9.60349E-07-3.98459E-19 1.19224E-18
 -1      3963 9.41070E-05-2.70138E-05-2.87503E-05-7.60043E-07-4.52568E-19 1.09699E-18
 -1      3964 9.34392E-05-2.62668E-05-2.87890E-05-1.39469E-06-5.89339E-19 1.67842E-18
 -1      3965 9.36798E-05-2.65327E-05-2.87826E-05-1.22284E-06-3.97878E-19 1.61772E-18
 -1      3966 9.36406E-05-2.65178E-05-2.87615E-05-9.60694E-07-6.58921E-19 1.25647E-18
 -1      3967 9.27924E-05-2.56465E-05-2.87785E-05-1.74264E-06-5.81482E-19 1.01336E-18
 -1      3968 9.31022E-05-2.59579E-05-2.87825E-05-1.53923E-06-5.51630E-19 1.46412E-18
 -1      3969 9.30463E-05-2.59321E-05-2.87560E-05-1.19952E-06-3.23778E-19 1.92300E-18
 -1      3970 9.19700E-05-2.49289E-05-2.87348E-05-2.14247E-06-2.73851E-19 1.40681E-18
 -1      3971 9.23660E-05-2.52872E-05-2.87559E-05-1.90849E-06-7.06440E-19 9.33904E-19
 -1      3972 9.22926E-05-2.52494E-05-2.87233E-05-1.47268E-06-3.70197E-19 6.93497E-19
 -1      3973 9.09326E-05-2.41164E-05-2.86400E-05-2.58849E-06-1.32352E-19 1.77713E-18
 -1      3974 9.14343E-05-2.45191E-05-2.86875E-05-2.32632E-06 3.08799E-20 1.52687E-18
 -1      3975 9.13432E-05-2.44676E-05-2.86487E-05-1.77230E-06-1.81337E-19 5.43324E-19
 -1      3976 8.96347E-05-2.32218E-05-2.84690E-05-3.07381E-06 2.98555E-19 1.14710E-18
 -1      3977 9.02639E-05-2.36603E-05-2.85562E-05-2.78588E-06 7.67424E-20 1.57078E-18
 -1      3978 9.01556E-05-2.35913E-05-2.85116E-05-2.08651E-06-1.62350E-19 6.48262E-19
 -1      3979 8.80239E-05-2.22738E-05-2.81870E-05-3.59622E-06 2.43953E-19 1.28134E-18
 -1      3980 8.88038E-05-2.27303E-05-2.83321E-05-3.28151E-06 4.18419E-19 1.28942E-18
 -1      3981 8.86778E-05-2.26343E-05-2.82836E-05-2.40174E-06 3.57329E-19 1.65171E-19
 -1      3982 8.60389E-05-2.13219E-05-2.77463E-05-4.16762E-06 1.83152E-19 8.95402E-19
 -1      3983 8.69945E-05-2.17670E-05-2.79744E-05-3.81510E-06-1.52464E-19 5.65211E-19
 -1      3984 8.68464E-05-2.16247E-05-2.79251E-05-2.70995E-06 5.62071E-19-5.40509E-20
 -1      3985 8.35923E-05-2.04306E-05-2.70809E-05-4.83742E-06-7.19622E-20 1.90916E-18
 -1      3986 8.47543E-05-2.08246E-05-2.74267E-05-4.40883E-06 4.14990E-19 1.68836E-18
 -1      3987 8.45760E-05-2.05983E-05-2.73823E-05-3.00566E-06-2.36828E-19 1.47172E-20
 -1      3988 8.05676E-05-1.97120E-05-2.60930E-05-5.75069E-06-6.64706E-19 9.98328E-19
 -1      3989 8.19659E-05-1.99815E-05-2.66070E-05-5.15407E-06-2.77709E-19 1.44127E-18
 -1      3990 8.17247E-05-1.95946E-05-2.65771E-05-3.34045E-06 1.02577E-19 1.21563E-18
 -1      3991 7.66756E-05-1.93073E-05-2.46278E-05-7.23383E-06-8.67527E-19 7.95384E-19
 -1      3992 7.84297E-05-1.93386E-05-2.53919E-05-6.22243E-06-7.32475E-19 9.01612E-19
 -1      3993 7.80892E-05-1.86678E-05-2.53890E-05-3.81980E-06-7.76175E-19-2.57888E-19
 -1      3994 7.15274E-05-1.91864E-05-2.24802E-05-8.76049E-06-1.98590E-19 1.20014E-19
 -1      3995 7.36924E-05-1.88057E-05-2.36056E-05-7.15474E-06-5.40500E-19 1.44826E-19
 -1      3996 7.32386E-05-1.76660E-05-2.36646E-05-3.78947E-06-5.13907E-19-1.30182E-18
 -1      3997 6.62423E-05-1.63229E-05-2.11797E-05-2.74747E-06-1.91678E-19-1.40928E-18
 -1      3998 9.52368E-05-2.83940E-05-2.86460E-05-3.70087E-07-4.33558E-19 1.77512E-20
 -1      3999 9.52989E-05-2.84885E-05-2.86342E-05-3.49271E-07-5.03500E-19-2.95241E-20
 -1      4000 9.53438E-05-2.85298E-05-2.86345E-05-2.94106E-07-3.04407E-19 1.59708E-19
 -1      4001 9.63729E-05-2.82649E-05-2.91931E-05-5.00619E-07 4.18623E-19 5.79887E-19
 -1      4002 9.63670E-05-2.79442E-05-2.93184E-05-2.91266E-07 6.17541E-19 6.01227E-19
 -1      4003 9.64438E-05-2.76036E-05-2.95030E-05-1.01271E-07 5.89977E-19 4.85078E-19
 -1      4004 9.65395E-05-2.83489E-05-2.92258E-05-4.62858E-07 4.96649E-19 5.43942E-19
 -1      4005 9.60258E-05-2.91582E-05-2.86567E-05-7.88968E-07-5.09666E-20 4.55607E-19
 -1      4006 9.60801E-05-2.91448E-05-2.86851E-05-8.17476E-07-5.52433E-21 3.05656E-19
 -1      4007 9.62833E-05-2.91915E-05-2.87556E-05-7.37904E-07 2.24891E-20 4.88882E-19
 -1      4008 9.61381E-05-2.92206E-05-2.86808E-05-6.92708E-07-6.54136E-21 6.02151E-19
 -1      4009 6.94899E-05-1.97201E-05-2.11562E-05 1.20328E-05-1.34027E-18 1.07892E-18
 -1      4010 6.98456E-05-1.84222E-05-2.20753E-05 7.62437E-06-1.64955E-18 8.37729E-19
 -1      4011 7.37538E-05-2.22675E-05-2.21370E-05 1.42904E-05-1.08012E-18 1.44429E-18
 -1      4012 9.50667E-05-2.33893E-05-3.07256E-05-4.61177E-07 5.17945E-19-4.50773E-19
 -1      4013 9.51239E-05-2.35383E-05-3.06874E-05-8.13937E-07 2.30882E-19-1.93350E-19
 -1      4014 9.55776E-05-2.43607E-05-3.05058E-05-2.39749E-07 4.94133E-19-4.07491E-19
 -1      4015 9.52181E-05-2.38662E-05-3.05870E-05 1.37078E-06 9.17151E-19-7.08313E-20
 -1      4016 9.51133E-05-2.35553E-05-3.06715E-05 1.08057E-06 9.65192E-19-1.84802E-19
 -1      4017 9.55764E-05-2.44476E-05-3.04695E-05 7.09134E-07 9.09701E-19 1.34596E-20
 -1      4018 9.55137E-05-2.45189E-05-3.04202E-05 1.13408E-06 8.06191E-19-1.90892E-19
 -1      4019 9.59134E-05-2.91386E-05-2.86165E-05-4.58563E-07-6.00176E-19 1.47799E-18
 -1      4020 9.59810E-05-2.91833E-05-2.86271E-05-4.90440E-07-4.09968E-19 1.22457E-18
 -1      4021 9.29623E-05-3.44054E-05-2.49870E-05 1.67099E-05 4.81832E-19 7.96409E-19
 -1      4022 8.58222E-05-3.22704E-05-2.29606E-05 2.10222E-05 3.23719E-19 1.52968E-18
 -1      4023 8.12805E-05-2.76405E-05-2.29927E-05 1.78240E-05 4.78249E-19 1.12979E-18
 -1      4024 9.04643E-05-3.15597E-05-2.52538E-05 1.52771E-05 4.68872E-19 3.38907E-19
 -1      4025 9.55764E-05-2.45295E-05-3.04408E-05-8.58842E-07 2.11893E-19-2.07591E-19
 -1      4026 6.84314E-05-1.70286E-05-2.20386E-05 4.04189E-07-5.18500E-19-3.03853E-19
 -1      4027 9.66036E-05-2.74074E-05-2.96541E-05-2.74127E-09-5.96794E-20 1.56551E-19
 -1      4028 9.66993E-05-2.78806E-05-2.94973E-05 1.86475E-07-2.01587E-19 6.41404E-20
 -1      4029 9.68025E-05-2.80086E-05-2.94821E-05 1.64405E-07-1.68406E-19 1.05676E-19
 -1      4030 9.62820E-05-2.63799E-05-2.99605E-05-3.70392E-07 1.55832E-19 1.20800E-19
 -1      4031 9.64459E-05-2.69203E-05-2.98014E-05-1.23666E-07 1.86291E-19 1.15763E-19
 -1      4032 9.65719E-05-2.70884E-05-2.97760E-05-5.91080E-08 1.09549E-19-1.09982E-19
 -1      4033 8.65627E-05-2.85968E-05-2.48650E-05 1.50923E-05 6.69249E-19 1.93557E-18
 -1      4034 9.60663E-05-2.92247E-05-2.86452E-05-5.20177E-07-4.44016E-19 1.02870E-18
 -1      4035 9.61403E-05-2.92529E-05-2.86648E-05-5.49890E-07-4.57030E-19 9.72877E-19
 -1      4036 9.61070E-05-2.92484E-05-2.86560E-05-4.24704E-07-5.38774E-19 1.27337E-18
 -1      4037 9.51803E-05-2.83177E-05-2.86548E-05-3.25169E-07-8.53104E-20-2.01879E-19
 -1      4038 9.58904E-05-2.53233E-05-3.02449E-05-5.50370E-07 2.07925E-19-6.24696E-20
 -1      4039 7.20206E-05-1.86589E-05-2.28659E-05 6.54708E-06-1.73471E-18 3.11670E-19
 -1      4040 6.95356E-05-1.71113E-05-2.23019E-05 3.79731E-06-1.03117E-18 3.73197E-19
 -1      4041 7.04674E-05-1.73334E-05-2.28387E-05-1.07836E-07-2.56881E-19-1.44362E-18
 -1      4042 9.56359E-05-2.88957E-05-2.86017E-05-3.61447E-07-2.30662E-19 7.13685E-19
 -1      4043 9.56937E-05-2.89605E-05-2.86001E-05-3.81055E-07-6.66474E-19 9.30316E-19
 -1      4044 9.56383E-05-2.88790E-05-2.86119E-05-3.00744E-07-1.22497E-19 3.74511E-19
 -1      4045 9.57341E-05-2.51240E-05-3.02673E-05 8.94153E-07 8.68331E-19-2.59362E-19
 -1      4046 9.61061E-05-2.60120E-05-3.00369E-05 5.96144E-07 7.54235E-19-9.57182E-20
 -1      4047 9.59082E-05-2.53886E-05-3.02228E-05 6.31057E-07 7.50042E-19-6.63604E-20
 -1      4048 9.63145E-05-2.67158E-05-2.98328E-05 2.43256E-07 6.87122E-19-6.03080E-20
 -1      4049 9.65365E-05-2.91581E-05-2.88767E-05-6.34167E-07 1.70841E-19 7.25199E-19
 -1      4050 9.65981E-05-2.90591E-05-2.89428E-05-6.10216E-07 3.27082E-19 6.36139E-19
 -1      4051 9.57702E-05-2.90266E-05-2.86031E-05-4.03067E-07-8.36484E-19 1.15496E-18
 -1      4052 9.58321E-05-2.90825E-05-2.86068E-05-4.30688E-07-7.26038E-19 1.32467E-18
 -1      4053 9.57866E-05-2.90244E-05-2.86135E-05-3.31146E-07-5.71809E-19 6.91413E-19
 -1      4054 9.59228E-05-2.51970E-05-3.03169E-05-6.81941E-08 4.70756E-19-2.92160E-19
 -1      4055 9.59382E-05-2.52678E-05-3.02959E-05-2.78524E-07 3.27209E-19-3.21983E-19
 -1      4056 9.59430E-05-2.91500E-05-2.86271E-05-3.74060E-07-5.69409E-19 1.26817E-18
 -1      4057 9.67380E-05-2.89948E-05-2.90347E-05-4.85734E-07 2.75550E-19 9.60941E-19
 -1      4058 9.66440E-05-2.89174E-05-2.90269E-05-5.83743E-07 3.25685E-19 7.36809E-19
 -1      4059 9.66849E-05-2.87337E-05-2.91180E-05-5.09384E-07 3.22393E-19 7.70918E-19
 -1      4060 9.59386E-05-2.52640E-05-3.02962E-05 2.84336E-07 6.55620E-19-2.09447E-20
 -1      4061 9.59198E-05-2.51979E-05-3.03163E-05 7.70582E-08 5.68356E-19-1.01062E-19
 -1      4062 9.62717E-05-2.59693E-05-3.01193E-05-3.83705E-09 4.67684E-19-6.37922E-21
 -1      4063 9.69057E-05-2.90127E-05-2.90959E-05 2.50526E-07 4.24577E-20 4.98394E-19
 -1      4064 9.68547E-05-2.91602E-05-2.90112E-05 2.83258E-07 1.85643E-19 5.53403E-19
 -1      4065 9.67842E-05-2.92647E-05-2.89357E-05 2.77135E-07 2.14669E-20 4.82305E-19
 -1      4066 9.67053E-05-2.93313E-05-2.88734E-05 2.88213E-07 3.76471E-22 4.75959E-19
 -1      4067 9.68624E-05-2.92186E-05-2.89939E-05 1.52284E-07 8.11823E-20 4.10451E-19
 -1      4068 9.66135E-05-2.93683E-05-2.88183E-05 2.75483E-07-7.78160E-20 3.61827E-19
 -1      4069 9.65207E-05-2.93795E-05-2.87740E-05 2.71541E-07-9.91342E-20 4.62758E-19
 -1      4070 9.67036E-05-2.93649E-05-2.88625E-05 1.56983E-07-1.70166E-19 4.75409E-19
 -1      4071 9.64213E-05-2.93697E-05-2.87353E-05 2.61214E-07-2.28258E-19 2.22983E-19
 -1      4072 9.63294E-05-2.93468E-05-2.87052E-05 2.50884E-07-3.12644E-19 1.29362E-19
 -1      4073 9.65062E-05-2.93898E-05-2.87670E-05 1.49416E-07-3.22454E-19 4.10839E-19
 -1      4074 9.62285E-05-2.93083E-05-2.86793E-05 2.33948E-07-4.27291E-19-4.14742E-20
 -1      4075 9.61377E-05-2.92605E-05-2.86604E-05 2.20852E-07-8.47055E-19-4.47826E-19
 -1      4076 9.63161E-05-2.93506E-05-2.87026E-05 1.32186E-07-4.59923E-19-3.40989E-19
 -1      4077 9.60411E-05-2.92018E-05-2.86447E-05 2.07297E-07-7.56423E-19-2.79526E-19
 -1      4078 9.59548E-05-2.91383E-05-2.86344E-05 1.94904E-07-4.07374E-19-2.59461E-20
 -1      4079 9.61182E-05-2.92507E-05-2.86606E-05 1.18179E-07-4.71452E-19-5.25094E-20
 -1      4080 9.58633E-05-2.90669E-05-2.86267E-05 1.83649E-07-2.14299E-19-4.72055E-20
 -1      4081 9.57818E-05-2.89922E-05-2.86231E-05 1.74229E-07-2.67140E-19 2.20093E-19
 -1      4082 9.59323E-05-2.91189E-05-2.86368E-05 1.05317E-07-3.83101E-19 1.61618E-20
 -1      4083 9.56938E-05-2.89104E-05-2.86214E-05 1.66315E-07-1.38309E-19 2.19165E-19
 -1      4084 9.56149E-05-2.88260E-05-2.86230E-05 1.61800E-07-8.64487E-20 5.16230E-19
 -1      4085 9.57550E-05-2.89626E-05-2.86271E-05 9.53044E-08-3.54912E-19 7.02023E-20
 -1      4086 9.55275E-05-2.87341E-05-2.86260E-05 1.58066E-07-5.35661E-21 5.60173E-19
 -1      4087 9.54476E-05-2.86394E-05-2.86315E-05 1.60166E-07 3.62250E-19 6.35751E-19
 -1      4088 9.55821E-05-2.87851E-05-2.86282E-05 9.01951E-08 8.56274E-20 5.14803E-19
 -1      4089 9.53563E-05-2.85360E-05-2.86379E-05 1.61464E-07 3.91655E-19 6.60980E-19
 -1      4090 9.52710E-05-2.84286E-05-2.86463E-05 1.71840E-07 6.16350E-19 5.74941E-19
 -1      4091 9.54060E-05-2.85853E-05-2.86375E-05 9.16521E-08 4.29472E-19-4.04268E-20
 -1      4092 9.51700E-05-2.83106E-05-2.86552E-05 1.79213E-07 1.39666E-19 6.44075E-19
 -1      4093 9.50739E-05-2.81872E-05-2.86654E-05 1.99663E-07-4.77288E-19 3.91967E-19
 -1      4094 9.52169E-05-2.83583E-05-2.86527E-05 1.01439E-07 2.09841E-19 2.21033E-19
 -1      4095 9.49564E-05-2.80506E-05-2.86756E-05 2.14503E-07-7.10137E-19 2.64405E-19
 -1      4096 9.48429E-05-2.79072E-05-2.86867E-05 2.47137E-07-5.65794E-19-2.48708E-19
 -1      4097 9.50025E-05-2.80971E-05-2.86715E-05 1.21723E-07-6.57387E-19-9.12223E-20
 -1      4098 9.47012E-05-2.77475E-05-2.86968E-05 2.71363E-07-5.76450E-19-7.38103E-19
 -1      4099 9.45633E-05-2.75798E-05-2.87074E-05 3.18781E-07-7.96014E-19-1.06901E-18
 -1      4100 9.47483E-05-2.77928E-05-2.86916E-05 1.55384E-07-1.03327E-18-2.89394E-19
 -1      4101 9.43886E-05-2.73924E-05-2.87158E-05 3.55063E-07-2.74732E-19-1.03932E-18
 -1      4102 9.42187E-05-2.71965E-05-2.87241E-05 4.20561E-07-4.90634E-20-6.88241E-19
 -1      4103 9.44379E-05-2.74358E-05-2.87099E-05 2.06406E-07-6.03801E-19-6.62470E-19
 -1      4104 9.40016E-05-2.69777E-05-2.87287E-05 4.72621E-07-2.61222E-19-6.81389E-19
 -1      4105 9.37920E-05-2.67510E-05-2.87323E-05 5.60457E-07-1.46268E-20-7.05861E-19
 -1      4106 9.40535E-05-2.70172E-05-2.87226E-05 2.80397E-07-1.11864E-19-9.81163E-19
 -1      4107 9.35222E-05-2.64984E-05-2.87300E-05 6.33481E-07 5.59613E-19-1.06413E-18
 -1      4108 9.32656E-05-2.62405E-05-2.87255E-05 7.49256E-07 6.23991E-19-6.62916E-19
 -1      4109 9.35757E-05-2.65299E-05-2.87244E-05 3.85310E-07 1.99429E-19-1.32607E-18
 -1      4110 9.29331E-05-2.59544E-05-2.87122E-05 8.50476E-07 1.43113E-19-8.02427E-19
 -1      4111 9.26236E-05-2.56687E-05-2.86953E-05 1.00169E-06-1.97116E-19-5.26200E-19
 -1      4112 9.29844E-05-2.59708E-05-2.87078E-05 5.32468E-07 3.42844E-19-1.68095E-18
 -1      4113 9.22184E-05-2.53534E-05-2.86653E-05 1.14120E-06-5.87405E-19-5.22054E-19
 -1      4114 9.18523E-05-2.50486E-05-2.86301E-05 1.33810E-06-6.77272E-19-9.98609E-19
 -1      4115 9.22599E-05-2.53430E-05-2.86633E-05 7.38019E-07-2.66820E-19-2.13484E-18
 -1      4116 9.13655E-05-2.47140E-05-2.85762E-05 1.53004E-06-4.71338E-21-8.38560E-19
 -1      4117 9.09434E-05-2.44060E-05-2.85150E-05 1.78697E-06-5.78979E-20-2.73146E-19
 -1      4118 9.13839E-05-2.46583E-05-2.85776E-05 1.02498E-06 3.10615E-20-1.66796E-18
 -1      4119 9.03672E-05-2.40696E-05-2.84276E-05 2.05118E-06-6.38262E-19 2.74401E-19
 -1      4120 8.98960E-05-2.37843E-05-2.83310E-05 2.38866E-06-2.81086E-19-9.10137E-20
 -1      4121 9.03403E-05-2.39408E-05-2.84336E-05 1.42612E-06 2.44066E-19-8.07764E-19
 -1      4122 8.92240E-05-2.34723E-05-2.81978E-05 2.75335E-06-3.99542E-19 1.87452E-19
 -1      4123 8.87199E-05-2.32481E-05-2.80539E-05 3.20132E-06-3.85756E-19-3.09547E-19
 -1      4124 8.91163E-05-2.32297E-05-2.82089E-05 1.98787E-06-5.33492E-19 3.78409E-19
 -1      4125 8.79470E-05-2.29983E-05-2.78592E-05 3.70816E-06-2.20266E-19-6.19421E-19
 -1      4126 8.74387E-05-2.28918E-05-2.76540E-05 4.31208E-06-4.58271E-19-5.08746E-19
 -1      4127 8.76997E-05-2.25827E-05-2.78749E-05 2.77563E-06-8.39008E-19 1.11084E-18
 -1      4128 8.65577E-05-2.27361E-05-2.73791E-05 5.01147E-06-5.80949E-19-2.76814E-19
 -1      4129 8.60852E-05-2.28307E-05-2.70950E-05 5.86161E-06-1.09277E-18 4.06954E-19
 -1      4130 8.60883E-05-2.21053E-05-2.73957E-05 3.87076E-06-3.11343E-20 2.02122E-19
 -1      4131 8.51386E-05-2.28784E-05-2.67122E-05 6.80970E-06-1.01739E-18 1.15691E-18
 -1      4132 8.47459E-05-2.32587E-05-2.63343E-05 7.98653E-06-9.02099E-19 1.63241E-18
 -1      4133 8.42964E-05-2.19021E-05-2.67363E-05 5.43978E-06-5.60697E-19 6.10722E-19
 -1      4134 8.36698E-05-2.35581E-05-2.58134E-05 9.29922E-06-1.09289E-18 2.88750E-18
 -1      4135 8.35357E-05-2.44226E-05-2.53397E-05 1.10476E-05-4.82774E-19 3.10330E-18
 -1      4136 8.22918E-05-2.20591E-05-2.58137E-05 7.65128E-06 1.57346E-19 2.91022E-18
 -1      4137 9.39070E-05-2.68379E-05-2.87457E-05-6.13689E-07-4.62047E-19 1.22228E-18
 -1      4138 9.41158E-05-2.70683E-05-2.87379E-05-5.33634E-07-2.75325E-19 1.26526E-18
 -1      4139 9.54746E-05-2.86770E-05-2.86267E-05-2.22690E-07-3.80663E-19 9.60826E-19
 -1      4140 9.55481E-05-2.87661E-05-2.86211E-05-2.22669E-07-6.38133E-20 6.25372E-19
 -1      4141 9.46501E-05-2.76639E-05-2.87089E-05-3.87949E-07-5.17846E-19 7.76851E-19
 -1      4142 9.47797E-05-2.78262E-05-2.86963E-05-3.39286E-07-3.53378E-19 6.72711E-19
 -1      4143 9.49121E-05-2.79805E-05-2.86851E-05-3.13383E-07-1.65711E-19 6.10019E-19
 -1      4144 9.50170E-05-2.81174E-05-2.86727E-05-2.79100E-07 9.83616E-20 4.00017E-19
 -1      4145 9.48173E-05-2.78678E-05-2.86898E-05-2.28376E-07-3.38727E-19 5.75496E-19
 -1      4146 9.33797E-05-2.63060E-05-2.87487E-05-7.64180E-07-1.00936E-18 1.26983E-18
 -1      4147 9.36463E-05-2.65786E-05-2.87473E-05-6.68772E-07-5.55590E-19 9.57358E-19
 -1      4148 9.36926E-05-2.66239E-05-2.87353E-05-4.24889E-07-5.58591E-19 1.44561E-18
 -1      4149 9.27119E-05-2.56828E-05-2.87309E-05-9.35131E-07-1.72731E-19 9.17884E-19
 -1      4150 9.30512E-05-2.60015E-05-2.87406E-05-8.26529E-07-9.60588E-19 1.16849E-18
 -1      4151 9.31081E-05-2.60521E-05-2.87272E-05-5.11687E-07-7.95548E-19 7.04066E-19
 -1      4152 9.18714E-05-2.49634E-05-2.86808E-05-1.11823E-06 1.33663E-19 7.32329E-19
 -1      4153 9.23006E-05-2.53302E-05-2.87076E-05-1.00075E-06 3.45259E-19 1.30788E-18
 -1      4154 9.23741E-05-2.53889E-05-2.86937E-05-5.98169E-07-1.72556E-19 1.89040E-19
 -1      4155 9.08209E-05-2.41491E-05-2.85820E-05-1.29996E-06 2.37825E-19 2.54095E-19
 -1      4156 9.13604E-05-2.45627E-05-2.86347E-05-1.18046E-06 2.52949E-19 5.45168E-19
 -1      4157 9.14592E-05-2.46330E-05-2.86218E-05-6.70654E-07 6.13195E-19 9.39192E-19
 -1      4158 8.95167E-05-2.32487E-05-2.84121E-05-1.46105E-06 4.25802E-19-7.65697E-19
 -1      4159 9.01906E-05-2.37040E-05-2.85029E-05-1.34881E-06 3.91237E-19 1.68466E-19
 -1      4160 9.03274E-05-2.37901E-05-2.84934E-05-7.08484E-07 6.56354E-19-3.55582E-19
 -1      4161 8.79037E-05-2.22797E-05-2.81404E-05-1.57782E-06 3.25265E-19-8.18075E-19
 -1      4162 8.87430E-05-2.27671E-05-2.82858E-05-1.48274E-06 2.42632E-19-8.74137E-19
 -1      4163 8.89362E-05-2.28738E-05-2.82842E-05-6.82241E-07 5.18472E-19-1.30064E-18
 -1      4164 8.59112E-05-2.12682E-05-2.77242E-05-1.62727E-06 2.24649E-19-2.95237E-19
 -1      4165 8.69518E-05-2.17715E-05-2.79474E-05-1.55598E-06 5.48204E-19-3.33502E-19
 -1      4166 8.72302E-05-2.19051E-05-2.79612E-05-5.51781E-07 7.12099E-20-1.08176E-18
 -1      4167 8.34515E-05-2.02677E-05-2.71044E-05-1.59710E-06-2.30217E-19 7.53131E-19
 -1      4168 8.47371E-05-2.07655E-05-2.74368E-05-1.56022E-06-2.61004E-19 3.66931E-19
 -1      4169 8.51105E-05-2.09018E-05-2.74775E-05-2.75555E-07-4.46197E-19 4.88218E-19
 -1      4170 8.03362E-05-1.92725E-05-2.61985E-05-1.49277E-06-1.07823E-19 5.29161E-19
 -1      4171 8.19592E-05-1.97452E-05-2.66875E-05-1.43238E-06 1.07576E-19 5.68518E-19
 -1      4172 8.25373E-05-1.99686E-05-2.67800E-05 6.19104E-08-1.23007E-19 1.63555E-19
 -1      4173 7.62631E-05-1.83235E-05-2.48729E-05-1.34636E-06-6.47160E-19-9.72021E-19
 -1      4174 7.83838E-05-1.87688E-05-2.55902E-05-1.21765E-06-1.63589E-19-4.59721E-19
 -1      4175 7.92338E-05-1.90447E-05-2.57599E-05 8.71504E-07 4.31786E-19-6.65129E-19
 -1      4176 7.34258E-05-1.77953E-05-2.38662E-05-7.97056E-07-1.03435E-18-1.47714E-18
 -1      4177 9.68171E-05-2.77876E-05-2.95848E-05 5.88760E-08 7.91508E-22 2.22000E-21
 -1      4178 9.68941E-05-2.82064E-05-2.94391E-05 1.58469E-07-6.57120E-20 1.19049E-19
 -1      4179 9.51266E-05-2.82482E-05-2.86620E-05-2.62486E-07-3.65377E-20 5.18188E-20
 -1      4180 9.52148E-05-2.83649E-05-2.86509E-05-2.41188E-07-8.03148E-20 3.20731E-19
 -1      4181 9.50569E-05-2.81607E-05-2.86683E-05-1.91660E-07-7.24460E-20 1.20882E-19
 -1      4182 9.43223E-05-2.72869E-05-2.87305E-05-4.87853E-07-5.55955E-19 1.09598E-18
 -1      4183 9.44860E-05-2.74804E-05-2.87192E-05-4.23727E-07-7.21878E-19 9.47704E-19
 -1      4184 9.45235E-05-2.75216E-05-2.87107E-05-2.79979E-07-5.53433E-19 1.20918E-18
 -1      4185 9.63482E-05-2.62842E-05-3.00231E-05-1.55130E-07 2.77169E-19-1.80080E-19
 -1      4186 9.60358E-05-2.55687E-05-3.01989E-05-3.57261E-07 2.97370E-19-1.57386E-19
 -1      4187 7.94266E-05-2.48003E-05-2.33663E-05 1.44824E-05-7.33041E-19 1.80710E-18
 -1      4188 9.64618E-05-2.92223E-05-2.88152E-05-6.30594E-07 1.69517E-19 6.91161E-19
 -1      4189 9.66190E-05-2.92216E-05-2.88865E-05-5.19248E-07 3.85058E-19 9.17654E-19
 -1      4190 9.63899E-05-2.92613E-05-2.87687E-05-6.24217E-07 2.93704E-19 5.68833E-19
 -1      4191 9.59576E-05-2.91476E-05-2.86315E-05-2.79331E-07-2.68228E-19 9.65862E-19
 -1      4192 9.60392E-05-2.92057E-05-2.86422E-05-2.97457E-07-3.92013E-19 1.29221E-18
 -1      4193 7.96924E-05-2.35664E-05-2.40801E-05 1.22817E-05-1.19059E-18 2.98821E-18
 -1      4194 9.53097E-05-2.84774E-05-2.86419E-05-2.33062E-07 1.68260E-19 3.39394E-19
 -1      4195 9.53878E-05-2.85786E-05-2.86331E-05-2.23212E-07-2.01766E-19 4.89307E-19
 -1      4196 9.52594E-05-2.84110E-05-2.86489E-05-1.69201E-07 1.62850E-19-1.66508E-19
 -1      4197 9.59469E-05-2.54051E-05-3.02379E-05 4.51192E-07 6.67298E-19 9.94972E-20
 -1      4198 9.69366E-05-2.85478E-05-2.93086E-05 1.86096E-07-6.40003E-20 2.45268E-19
 -1      4199 9.69362E-05-2.88123E-05-2.91964E-05 2.46631E-07-6.84013E-20 3.00296E-19
 -1      4200 9.69616E-05-2.89015E-05-2.91710E-05 1.30498E-07 1.83702E-19 3.95820E-19
 -1      4201 7.74615E-05-2.12331E-05-2.40748E-05 9.81574E-06-1.09721E-18 3.23186E-18
 -1      4202 9.65916E-05-2.77945E-05-2.94892E-05-1.93210E-07 3.93540E-19 3.79604E-19
 -1      4203 9.65025E-05-2.73185E-05-2.96486E-05 4.88446E-08 4.27266E-19 1.42776E-19
 -1      4204 9.64570E-05-2.68958E-05-2.98101E-05 1.46550E-07 3.45896E-19 8.68020E-20
 -1      4205 9.61350E-05-2.92609E-05-2.86590E-05-3.16722E-07-7.48211E-19 1.14783E-18
 -1      4206 9.62261E-05-2.93051E-05-2.86786E-05-3.37935E-07-7.24719E-19 1.07089E-18
 -1      4207 9.61328E-05-2.92615E-05-2.86624E-05-2.17234E-07-5.41752E-19 1.12006E-18
 -1      4208 9.54391E-05-2.86282E-05-2.86338E-05-1.59827E-07 5.94085E-20 5.36800E-19
 -1      4209 9.41561E-05-2.71106E-05-2.87275E-05-3.46138E-07-5.32150E-19 1.38518E-18
 -1      4210 9.56080E-05-2.88194E-05-2.86251E-05-1.62042E-07-1.44347E-19 9.12957E-19
 -1      4211 9.56323E-05-2.88535E-05-2.86185E-05-2.28830E-07-1.71701E-19 6.15261E-19
 -1      4212 9.57057E-05-2.89327E-05-2.86170E-05-2.36902E-07-3.85036E-19 4.85800E-19
 -1      4213 9.57913E-05-2.90104E-05-2.86192E-05-2.48746E-07-3.02871E-19 5.40187E-19
 -1      4214 9.58679E-05-2.90801E-05-2.86230E-05-2.62944E-07-3.47235E-19 7.50708E-19
 -1      4215 9.57757E-05-2.89891E-05-2.86251E-05-1.74056E-07-3.08779E-19 8.06661E-19
 -1      4216 7.45750E-05-1.80384E-05-2.41710E-05 2.13097E-06-4.69932E-19-1.34808E-18
 -1      4217 9.62682E-05-2.60943E-05-3.00650E-05 2.33096E-07 5.51033E-19 5.71036E-20
 -1      4218 9.64782E-05-2.65866E-05-2.99538E-05-5.66159E-08 2.62745E-19-8.18639E-20
 -1      4219 9.65648E-05-2.68848E-05-2.98635E-05-9.84753E-08 1.53621E-19-1.13787E-20
 -1      4220 9.67102E-05-2.73759E-05-2.97155E-05 2.76531E-08 5.52421E-20-1.26639E-19
 -1      4221 9.66796E-05-2.84899E-05-2.92268E-05-4.51320E-07 3.79593E-19 6.71269E-19
 -1      4222 9.66743E-05-2.81837E-05-2.93486E-05-3.03194E-07 4.83644E-19 6.32926E-19
 -1      4223 9.67231E-05-2.79393E-05-2.94828E-05-1.84541E-07 2.55873E-19 2.60356E-19
 -1      4224 9.67936E-05-2.85916E-05-2.92328E-05-3.86414E-07 3.88210E-19 1.00006E-18
 -1      4225 9.59492E-05-2.91379E-05-2.86364E-05-1.93627E-07-2.44652E-19 6.11189E-19
 -1      4226 9.62293E-05-2.92745E-05-2.86940E-05-5.82138E-07-2.06413E-19 7.58722E-19
 -1      4227 9.63024E-05-2.92745E-05-2.87253E-05-6.05532E-07 1.22518E-19 6.72798E-19
 -1      4228 9.62879E-05-2.93138E-05-2.87056E-05-4.74500E-07-5.03853E-19 8.57629E-19
 -1      4229 9.66765E-05-2.92896E-05-2.88797E-05-4.03138E-07 3.55094E-19 8.00755E-19
 -1      4230 9.67528E-05-2.92123E-05-2.89436E-05-3.89271E-07 3.76687E-19 7.69041E-19
 -1      4231 9.68147E-05-2.90976E-05-2.90223E-05-3.90464E-07 4.13905E-19 7.58029E-19
 -1      4232 9.68714E-05-2.89443E-05-2.91097E-05-3.46370E-07 4.79887E-19 7.25713E-19
 -1      4233 9.68514E-05-2.91636E-05-2.90128E-05-2.70560E-07 4.13784E-19 5.06303E-19
 -1      4234 9.67946E-05-2.75782E-05-2.96640E-05 2.22569E-08 9.00034E-20-5.99288E-20
 -1      4235 9.64906E-05-2.66048E-05-2.99556E-05 2.49024E-08 3.92417E-19 1.64551E-19
 -1      4236 7.98528E-05-2.10963E-05-2.51490E-05 7.43266E-06 7.46025E-19 2.78280E-18
 -1      4237 7.55894E-05-1.98145E-05-2.39124E-05 7.96295E-06-1.23919E-18 1.38239E-18
 -1      4238 7.48039E-05-1.86849E-05-2.40942E-05 4.55880E-06-4.73934E-19-4.17243E-19
 -1      4239 8.07754E-05-2.08595E-05-2.56895E-05 6.11718E-06 6.98829E-19 2.52698E-18
 -1      4240 9.69443E-05-2.83410E-05-2.94013E-05 9.24043E-08 4.99125E-20 7.32357E-20
 -1      4241 9.68937E-05-2.92034E-05-2.90084E-05-6.04232E-08 2.46407E-19 2.78188E-19
 -1      4242 9.68204E-05-2.93028E-05-2.89331E-05-5.17658E-08 1.26511E-19 2.29904E-19
 -1      4243 9.65856E-05-2.94055E-05-2.87897E-05 3.25099E-08-5.03858E-19 3.63631E-19
 -1      4244 9.64894E-05-2.94017E-05-2.87492E-05 2.68752E-08-3.40195E-19 2.62533E-19
 -1      4245 9.63399E-05-2.93556E-05-2.87067E-05-4.90494E-08-4.93822E-19 2.61608E-19
 -1      4246 9.62428E-05-2.93135E-05-2.86818E-05-4.77208E-08-5.98669E-19 3.13819E-19
 -1      4247 9.61485E-05-2.92615E-05-2.86638E-05-4.15764E-08-4.01288E-19 3.75872E-19
 -1      4248 9.60513E-05-2.92012E-05-2.86481E-05-4.30669E-08-3.60181E-19 3.42840E-19
 -1      4249 9.59604E-05-2.91328E-05-2.86385E-05-3.69375E-08-3.60973E-19 2.79087E-19
 -1      4250 9.58676E-05-2.90592E-05-2.86307E-05-3.88258E-08-3.51431E-19 4.10403E-19
 -1      4251 9.57805E-05-2.89795E-05-2.86276E-05-3.43653E-08-3.95472E-19 4.97240E-19
 -1      4252 9.56911E-05-2.88951E-05-2.86258E-05-3.53927E-08-4.60523E-19 4.37952E-19
 -1      4253 9.56054E-05-2.88053E-05-2.86278E-05-3.38201E-08-1.48299E-19 4.44386E-19
 -1      4254 9.55163E-05-2.87102E-05-2.86307E-05-3.33497E-08 2.13511E-19 3.35035E-19
 -1      4255 9.54279E-05-2.86093E-05-2.86364E-05-3.54857E-08 2.99676E-19 1.39959E-19
 -1      4256 9.53346E-05-2.85016E-05-2.86428E-05-3.29227E-08 4.31991E-19 3.49422E-20
 -1      4257 9.52381E-05-2.83868E-05-2.86512E-05-3.93759E-08 2.27588E-19 2.14931E-20
 -1      4258 9.51347E-05-2.82631E-05-2.86599E-05-3.40309E-08 4.35160E-20-1.07895E-19
 -1      4259 9.50234E-05-2.81304E-05-2.86700E-05-4.52090E-08-1.57824E-19-1.97076E-19
 -1      4260 9.49030E-05-2.79864E-05-2.86799E-05-3.61762E-08-7.22542E-19-1.33979E-19
 -1      4261 9.47690E-05-2.78308E-05-2.86904E-05-5.22052E-08-8.77172E-19 3.62765E-19
 -1      4262 9.46236E-05-2.76615E-05-2.87002E-05-3.82108E-08-7.22068E-19 3.56647E-19
 -1      4263 9.44576E-05-2.74777E-05-2.87096E-05-5.87627E-08-5.34363E-19 6.91109E-19
 -1      4264 9.42783E-05-2.72780E-05-2.87175E-05-3.79559E-08-2.44322E-19 5.06343E-19
 -1      4265 9.40698E-05-2.70605E-05-2.87237E-05-6.19638E-08-6.26042E-19 5.40236E-19
 -1      4266 9.38468E-05-2.68257E-05-2.87275E-05-3.16208E-08-4.92051E-19 2.07079E-19
 -1      4267 9.35839E-05-2.65697E-05-2.87276E-05-5.68614E-08-3.05015E-19 1.06209E-20
 -1      4268 9.33068E-05-2.62966E-05-2.87240E-05-1.29625E-08-1.27536E-19-3.10882E-19
 -1      4269 9.29760E-05-2.59985E-05-2.87141E-05-3.54851E-08-1.13394E-19-8.71639E-19
 -1      4270 9.26343E-05-2.56859E-05-2.86989E-05 2.78837E-08-1.49009E-19-1.25597E-18
 -1      4271 9.22207E-05-2.53444E-05-2.86735E-05 1.44884E-08-2.67196E-20-1.15958E-18
 -1      4272 9.18039E-05-2.49947E-05-2.86408E-05 1.05973E-07 3.69449E-20-7.73832E-19
 -1      4273 9.12909E-05-2.46117E-05-2.85923E-05 1.11458E-07 5.42077E-19-7.64985E-19
 -1      4274 9.07891E-05-2.42319E-05-2.85344E-05 2.43584E-07 8.57699E-19-2.91638E-19
 -1      4275 9.01575E-05-2.38137E-05-2.84527E-05 2.82094E-07 8.62764E-19-8.26842E-19
 -1      4276 8.95619E-05-2.34172E-05-2.83594E-05 4.72792E-07 5.68286E-19-2.34461E-19
 -1      4277 8.87891E-05-2.29750E-05-2.82309E-05 5.64248E-07 2.63166E-19 4.75960E-20
 -1      4278 8.80925E-05-2.25826E-05-2.80890E-05 8.38701E-07-1.24723E-19 9.22521E-20
 -1      4279 8.71493E-05-2.21317E-05-2.78952E-05 1.01189E-06-9.40674E-19 9.03451E-19
 -1      4280 8.63490E-05-2.17741E-05-2.76879E-05 1.40724E-06-5.56304E-19 7.97157E-19
 -1      4281 8.51822E-05-2.13080E-05-2.74028E-05 1.71300E-06-3.74596E-19 1.08494E-18
 -1      4282 8.42958E-05-2.10383E-05-2.71131E-05 2.23904E-06 2.07440E-19 9.62187E-19
 -1      4283 8.32865E-05-2.10881E-05-2.66640E-05 4.14251E-06 4.46715E-19 1.08029E-18
 -1      4284 8.24164E-05-2.10838E-05-2.62653E-05 5.04226E-06 3.04145E-19 1.83749E-18
 -1      4285 7.98541E-05-2.00604E-05-2.56156E-05 4.81975E-06 1.26007E-18 1.82094E-18
 -1      4286 9.69465E-05-2.81807E-05-2.94713E-05 2.47037E-09 4.67392E-20-8.93826E-20
 -1      4287 9.70002E-05-2.85404E-05-2.93389E-05 3.32950E-08 6.11035E-20 1.86500E-20
 -1      4288 7.92389E-05-1.93990E-05-2.56735E-05 2.65307E-06 7.03390E-19 1.39387E-19
 -1      4289 8.11202E-05-1.98478E-05-2.62670E-05 2.11080E-06 6.30407E-19-1.33749E-19
 -1      4290 9.64973E-05-2.67851E-05-2.98816E-05 1.44987E-07 3.53390E-19 6.57970E-21
 -1      4291 9.64946E-05-2.66503E-05-2.99352E-05 6.48751E-08 2.88003E-19 6.67754E-20
 -1      4292 9.67070E-05-2.71980E-05-2.97809E-05-2.33529E-09 8.28824E-20 1.21777E-19
 -1      4293 9.66896E-05-2.73827E-05-2.96970E-05-1.81296E-08 1.03957E-19-2.80693E-20
 -1      4294 7.76281E-05-1.91325E-05-2.50584E-05 3.49985E-06 5.60886E-19-6.07399E-20
 -1      4295 9.64558E-05-2.93093E-05-2.87793E-05-5.08399E-07-1.11618E-20 6.58794E-19
 -1      4296 9.65922E-05-2.93355E-05-2.88223E-05-3.89129E-07 1.36813E-19 8.26334E-19
 -1      4297 9.67023E-05-2.93361E-05-2.88751E-05-2.80000E-07 5.92681E-20 5.85107E-19
 -1      4298 9.65058E-05-2.93539E-05-2.87779E-05-3.82831E-07-2.95417E-19 8.17522E-19
 -1      4299 9.69795E-05-2.88717E-05-2.91882E-05-6.16185E-08 2.99336E-19 7.49065E-20
 -1      4300 9.69508E-05-2.90668E-05-2.90900E-05-4.16854E-08 3.31418E-19 1.44982E-19
 -1      4301 9.67935E-05-2.75384E-05-2.96838E-05-1.46400E-08-2.63147E-22 2.63892E-20
 -1      4302 9.68960E-05-2.79266E-05-2.95566E-05 1.26112E-08-2.83723E-20 1.02087E-20
 -1      4303 9.69209E-05-2.81209E-05-2.94880E-05-6.49618E-08-2.01160E-19-1.09762E-19
 -1      4304 9.68044E-05-2.76022E-05-2.96630E-05-2.48095E-08-1.75928E-19-2.10150E-19
 -1      4305 9.67357E-05-2.93612E-05-2.88731E-05-5.93413E-08-7.39094E-20 3.38901E-19
 -1      4306 9.63767E-05-2.93654E-05-2.87221E-05-1.63892E-07-7.35886E-19 8.26438E-19
 -1      4307 9.66384E-05-2.93928E-05-2.88181E-05-5.55681E-08-3.22870E-19 3.92862E-19
 -1      4308 8.24905E-05-2.02182E-05-2.66931E-05 1.74411E-06 4.62168E-19 9.14279E-19
 -1      4309 9.65801E-05-2.93981E-05-2.87947E-05-1.86185E-07-3.19652E-19 6.80248E-19
 -1      4310 9.63782E-05-2.93564E-05-2.87236E-05-2.80708E-07-6.46872E-19 9.55657E-19
 -1      4311 9.69140E-05-2.86239E-05-2.92679E-05-2.42187E-07 2.36658E-19 4.18794E-19
 -1      4312 9.69066E-05-2.83358E-05-2.93841E-05-1.61074E-07 7.67766E-20 2.72754E-19
 -1      4313 9.69575E-05-2.87241E-05-2.92443E-05-1.44551E-07 2.83611E-19 2.44117E-20
 -1      4314 9.67805E-05-2.78338E-05-2.95502E-05-1.20512E-07 1.17162E-19 1.43180E-19
 -1      4315 9.64692E-05-2.93682E-05-2.87565E-05-2.92806E-07-5.20020E-19 8.59096E-19
 -1      4316 9.68594E-05-2.80995E-05-2.94630E-05-1.54041E-07-1.06449E-20 2.03285E-19
 -3
    1PSTEP                         4           1           1          
  100CL  101 1.000000000        4316                     0    1           1
 -4  ERROR       1    1
 -5  STR(%)      1    1    0    0
 -1         1 3.78852E+01
 -1         2 2.45365E+01
 -1         3 1.66053E-01
 -1         4 1.73506E-01
 -1         5 1.40389E+01
 -1         6 1.31431E+01
 -1         7 1.31431E+01
 -1         8 3.66367E+00
 -1         9 1.82522E+00
 -1        10 1.28934E+00
 -1        11 1.04645E+00
 -1        12 9.00015E-01
 -1        13 8.08882E-01
 -1        14 7.53804E-01
 -1        15 7.55769E-01
 -1        16 8.13156E-01
 -1        17 9.00882E-01
 -1        18 1.05270E+00
 -1        19 1.30791E+00
 -1        20 1.83592E+00
 -1        21 3.50548E+00
 -1        22 8.64104E+00
 -1        23 1.31431E+01
 -1        24 4.31749E+00
 -1        25 3.34036E+00
 -1        26 2.11087E+00
 -1        27 1.36215E+00
 -1        28 1.01385E+00
 -1        29 7.74799E-01
 -1        30 5.94886E-01
 -1        31 4.54541E-01
 -1        32 3.46916E-01
 -1        33 2.67925E-01
 -1        34 2.04396E-01
 -1        35 1.54270E-01
 -1        36 1.15571E-01
 -1        37 8.65013E-02
 -1        38 6.54801E-02
 -1        39 5.11566E-02
 -1        40 4.23985E-02
 -1        41 3.96338E-02
 -1        42 4.66633E-02
 -1        43 5.66469E-02
 -1        44 6.88689E-02
 -1        45 8.47272E-02
 -1        46 1.14509E-01
 -1        47 1.52100E-01
 -1        48 1.97405E-01
 -1        49 2.49267E-01
 -1        50 3.04806E-01
 -1        51 3.58598E-01
 -1        52 4.41246E-01
 -1        53 5.58264E-01
 -1        54 7.08403E-01
 -1        55 8.51873E-01
 -1        56 9.46313E-01
 -1        57 9.58830E-01
 -1        58 1.11753E+00
 -1        59 1.11753E+00
 -1        60 1.58193E+00
 -1        61 2.01258E+00
 -1        62 3.33101E+00
 -1        63 4.38753E+00
 -1        64 4.67818E+00
 -1        65 4.67818E+00
 -1        66 4.43327E+00
 -1        67 4.05264E+00
 -1        68 3.09061E+00
 -1        69 2.01044E+00
 -1        70 1.16190E+00
 -1        71 8.26190E-01
 -1        72 1.40389E+01
 -1        73 3.39457E+00
 -1        74 2.41287E+00
 -1        75 1.66561E+00
 -1        76 1.14446E+00
 -1        77 9.05902E-01
 -1        78 7.31190E-01
 -1        79 5.87654E-01
 -1        80 4.67970E-01
 -1        81 3.68296E-01
 -1        82 2.93890E-01
 -1        83 2.31870E-01
 -1        84 1.80585E-01
 -1        85 1.39241E-01
 -1        86 1.06854E-01
 -1        87 8.24191E-02
 -1        88 6.50074E-02
 -1        89 5.38285E-02
 -1        90 4.93573E-02
 -1        91 5.81744E-02
 -1        92 7.25042E-02
 -1        93 9.25273E-02
 -1        94 1.18483E-01
 -1        95 1.50544E-01
 -1        96 1.88621E-01
 -1        97 2.32056E-01
 -1        98 2.97990E-01
 -1        99 3.88221E-01
 -1       100 4.94777E-01
 -1       101 6.14221E-01
 -1       102 7.37472E-01
 -1       103 8.46351E-01
 -1       104 9.09441E-01
 -1       105 1.10164E+00
 -1       106 1.47229E+00
 -1       107 1.79233E+00
 -1       108 2.09035E+00
 -1       109 2.61723E+00
 -1       110 2.75367E+00
 -1       111 3.77597E+00
 -1       112 5.58488E+00
 -1       113 7.00656E+00
 -1       114 7.21261E+00
 -1       115 7.21261E+00
 -1       116 5.94396E+00
 -1       117 3.43112E+00
 -1       118 1.47240E+00
 -1       119 5.54901E-01
 -1       120 4.36691E-01
 -1       121 4.67656E-01
 -1       122 9.01105E-01
 -1       123 1.16648E+00
 -1       124 1.16648E+00
 -1       125 1.05768E+00
 -1       126 1.43913E+00
 -1       127 1.98955E+00
 -1       128 1.98955E+00
 -1       129 9.10290E-01
 -1       130 1.23202E+00
 -1       131 1.23202E+00
 -1       132 1.22019E+00
 -1       133 9.34080E-01
 -1       134 5.94203E-01
 -1       135 1.87236E-01
 -1       136 4.67811E-01
 -1       137 2.47935E+01
 -1       138 4.70550E+01
 -1       139 4.70550E+01
 -1       140 1.92305E+01
 -1       141 1.27497E+01
 -1       142 1.30230E+01
 -1       143 1.30230E+01
 -1       144 1.27666E+01
 -1       145 1.27666E+01
 -1       146 1.49622E+01
 -1       147 3.91752E+01
 -1       148 3.91752E+01
 -1       149 2.45872E+01
 -1       150 2.33201E+01
 -1       151 2.38723E+01
 -1       152 2.45463E+01
 -1       153 3.78852E+01
 -1       154 1.38860E+01
 -1       155 1.20634E+01
 -1       156 1.26943E+01
 -1       157 1.26943E+01
 -1       158 1.19988E+01
 -1       159 1.19988E+01
 -1       160 1.15511E+01
 -1       161 2.24915E+01
 -1       162 3.44134E+01
 -1       163 3.44134E+01
 -1       164 2.44082E+01
 -1       165 6.07766E+00
 -1       166 2.29898E+00
 -1       167 1.50782E+00
 -1       168 1.15807E+00
 -1       169 9.73625E-01
 -1       170 8.64594E-01
 -1       171 7.95998E-01
 -1       172 7.55769E-01
 -1       173 7.99428E-01
 -1       174 8.67246E-01
 -1       175 9.81076E-01
 -1       176 1.17262E+00
 -1       177 1.52773E+00
 -1       178 2.26096E+00
 -1       179 3.93109E+00
 -1       180 1.40389E+01
 -1       181 4.31749E+00
 -1       182 3.34036E+00
 -1       183 2.11087E+00
 -1       184 1.44675E+00
 -1       185 1.02498E+00
 -1       186 7.74799E-01
 -1       187 5.94886E-01
 -1       188 4.67358E-01
 -1       189 3.67179E-01
 -1       190 2.89134E-01
 -1       191 2.32309E-01
 -1       192 1.84095E-01
 -1       193 1.44322E-01
 -1       194 1.12364E-01
 -1       195 8.73783E-02
 -1       196 6.84405E-02
 -1       197 5.46245E-02
 -1       198 4.50334E-02
 -1       199 3.96338E-02
 -1       200 4.66633E-02
 -1       201 5.66469E-02
 -1       202 7.03860E-02
 -1       203 9.27450E-02
 -1       204 1.20986E-01
 -1       205 1.55036E-01
 -1       206 1.97405E-01
 -1       207 2.49267E-01
 -1       208 3.26888E-01
 -1       209 4.12021E-01
 -1       210 4.96239E-01
 -1       211 5.85256E-01
 -1       212 7.08403E-01
 -1       213 8.51873E-01
 -1       214 9.46313E-01
 -1       215 9.58830E-01
 -1       216 1.11753E+00
 -1       217 1.09995E+00
 -1       218 1.58193E+00
 -1       219 2.26751E+00
 -1       220 3.33101E+00
 -1       221 4.38753E+00
 -1       222 4.67818E+00
 -1       223 4.43327E+00
 -1       224 4.05264E+00
 -1       225 3.09061E+00
 -1       226 2.19914E+00
 -1       227 1.41435E+00
 -1       228 8.26190E-01
 -1       229 3.39457E+00
 -1       230 2.41287E+00
 -1       231 1.66561E+00
 -1       232 1.14446E+00
 -1       233 9.05902E-01
 -1       234 7.31190E-01
 -1       235 5.87654E-01
 -1       236 4.67970E-01
 -1       237 3.68296E-01
 -1       238 2.93890E-01
 -1       239 2.31870E-01
 -1       240 1.83526E-01
 -1       241 1.44194E-01
 -1       242 1.12581E-01
 -1       243 8.80291E-02
 -1       244 6.98225E-02
 -1       245 5.72772E-02
 -1       246 4.97871E-02
 -1       247 5.43852E-02
 -1       248 6.43923E-02
 -1       249 7.88450E-02
 -1       250 9.76244E-02
 -1       251 1.20476E-01
 -1       252 1.52855E-01
 -1       253 2.02822E-01
 -1       254 2.64839E-01
 -1       255 3.39469E-01
 -1       256 4.25887E-01
 -1       257 5.22990E-01
 -1       258 6.20923E-01
 -1       259 7.37472E-01
 -1       260 8.46351E-01
 -1       261 9.98497E-01
 -1       262 1.24969E+00
 -1       263 1.47229E+00
 -1       264 1.79233E+00
 -1       265 2.09035E+00
 -1       266 2.61723E+00
 -1       267 2.75367E+00
 -1       268 3.77597E+00
 -1       269 5.58488E+00
 -1       270 7.00656E+00
 -1       271 7.21261E+00
 -1       272 5.94396E+00
 -1       273 3.43112E+00
 -1       274 1.74280E+00
 -1       275 8.97005E-01
 -1       276 6.26072E-01
 -1       277 1.27309E+00
 -1       278 1.80543E+00
 -1       279 2.06842E+00
 -1       280 2.06842E+00
 -1       281 2.22207E+00
 -1       282 4.19735E+00
 -1       283 4.19735E+00
 -1       284 3.77238E+00
 -1       285 1.99642E+00
 -1       286 2.13468E+00
 -1       287 2.13468E+00
 -1       288 1.95879E+00
 -1       289 1.44045E+00
 -1       290 8.70095E-01
 -1       291 8.17204E-01
 -1       292 2.94103E+01
 -1       293 2.72204E+01
 -1       294 4.70550E+01
 -1       295 2.05936E+01
 -1       296 1.11297E+01
 -1       297 1.27497E+01
 -1       298 1.30230E+01
 -1       299 1.21964E+01
 -1       300 1.27666E+01
 -1       301 1.22192E+01
 -1       302 1.49622E+01
 -1       303 3.91752E+01
 -1       304 3.42047E+01
 -1       305 2.60085E+01
 -1       306 2.60085E+01
 -1       307 2.53213E+01
 -1       308 3.59906E+01
 -1       309 3.78852E+01
 -1       310 1.38860E+01
 -1       311 1.08569E+01
 -1       312 1.20634E+01
 -1       313 1.26943E+01
 -1       314 1.17821E+01
 -1       315 1.19988E+01
 -1       316 1.15511E+01
 -1       317 1.11986E+01
 -1       318 2.51423E+01
 -1       319 3.44134E+01
 -1       320 3.05904E+01
 -1       321 2.94103E+01
 -1       322 1.04844E+00
 -1       323 2.48005E+00
 -1       324 7.95343E-01
 -1       325 6.95045E-01
 -1       326 6.31904E-01
 -1       327 5.87642E-01
 -1       328 5.90844E-01
 -1       329 6.34556E-01
 -1       330 7.01311E-01
 -1       331 7.96532E-01
 -1       332 9.31998E-01
 -1       333 1.16035E+00
 -1       334 1.32928E+00
 -1       335 2.20049E+00
 -1       336 1.91393E+00
 -1       337 1.72892E+00
 -1       338 1.26694E+00
 -1       339 9.06569E-01
 -1       340 6.55400E-01
 -1       341 5.38027E-01
 -1       342 4.40782E-01
 -1       343 3.55081E-01
 -1       344 2.89569E-01
 -1       345 2.34218E-01
 -1       346 1.86677E-01
 -1       347 1.51257E-01
 -1       348 1.21962E-01
 -1       349 9.74455E-02
 -1       350 7.74716E-02
 -1       351 6.15577E-02
 -1       352 4.90742E-02
 -1       353 3.92990E-02
 -1       354 3.83215E-02
 -1       355 4.17799E-02
 -1       356 5.35720E-02
 -1       357 7.03860E-02
 -1       358 9.27450E-02
 -1       359 1.27223E-01
 -1       360 1.75329E-01
 -1       361 2.33492E-01
 -1       362 3.00658E-01
 -1       363 3.73544E-01
 -1       364 4.45600E-01
 -1       365 5.08947E-01
 -1       366 5.77660E-01
 -1       367 6.57562E-01
 -1       368 6.92882E-01
 -1       369 6.41782E-01
 -1       370 5.80447E-01
 -1       371 5.45875E-01
 -1       372 1.00072E+00
 -1       373 1.68098E+00
 -1       374 2.21420E+00
 -1       375 2.82216E+00
 -1       376 3.09884E+00
 -1       377 2.96790E+00
 -1       378 2.90167E+00
 -1       379 2.63355E+00
 -1       380 2.10845E+00
 -1       381 1.55855E+00
 -1       382 1.27301E+00
 -1       383 1.13018E+00
 -1       384 8.90765E-01
 -1       385 7.03196E-01
 -1       386 5.44309E-01
 -1       387 4.37102E-01
 -1       388 3.70441E-01
 -1       389 3.06509E-01
 -1       390 2.50914E-01
 -1       391 2.05468E-01
 -1       392 1.65677E-01
 -1       393 1.32042E-01
 -1       394 1.04448E-01
 -1       395 8.26789E-02
 -1       396 6.63223E-02
 -1       397 5.46781E-02
 -1       398 4.73296E-02
 -1       399 4.45876E-02
 -1       400 4.87054E-02
 -1       401 5.68350E-02
 -1       402 7.32621E-02
 -1       403 9.72746E-02
 -1       404 1.28463E-01
 -1       405 1.75881E-01
 -1       406 2.52114E-01
 -1       407 3.51877E-01
 -1       408 4.78949E-01
 -1       409 6.35355E-01
 -1       410 8.19035E-01
 -1       411 1.02011E+00
 -1       412 1.21573E+00
 -1       413 1.38245E+00
 -1       414 1.52194E+00
 -1       415 1.52194E+00
 -1       416 1.49721E+00
 -1       417 1.18179E+00
 -1       418 1.29404E+00
 -1       419 2.34336E+00
 -1       420 3.57530E+00
 -1       421 4.20819E+00
 -1       422 4.62453E+00
 -1       423 4.02544E+00
 -1       424 3.57701E+00
 -1       425 3.19416E+00
 -1       426 2.56149E+00
 -1       427 1.66427E+00
 -1       428 8.27432E-01
 -1       429 3.07824E+00
 -1       430 2.50022E+00
 -1       431 1.66427E+00
 -1       432 4.01123E+00
 -1       433 5.34886E+00
 -1       434 6.81802E+00
 -1       435 6.81802E+00
 -1       436 4.30006E+00
 -1       437 3.50557E+00
 -1       438 2.86596E+00
 -1       439 2.32172E+00
 -1       440 1.94101E+00
 -1       441 1.37895E+00
 -1       442 2.72204E+01
 -1       443 3.66571E+01
 -1       444 3.66571E+01
 -1       445 1.59072E+01
 -1       446 9.01323E+00
 -1       447 9.11063E-01
 -1       448 9.92324E+00
 -1       449 1.12994E+01
 -1       450 1.06707E+01
 -1       451 8.17417E+00
 -1       452 6.52976E+00
 -1       453 1.39915E+01
 -1       454 2.34067E+01
 -1       455 2.12423E+01
 -1       456 3.24259E+01
 -1       457 3.24259E+01
 -1       458 2.01318E+01
 -1       459 2.26557E+01
 -1       460 1.24730E+01
 -1       461 7.22158E+00
 -1       462 8.39726E+00
 -1       463 9.92526E+00
 -1       464 1.15649E+01
 -1       465 1.03866E+01
 -1       466 9.39971E+00
 -1       467 6.61356E+00
 -1       468 9.95132E+00
 -1       469 1.78022E+01
 -1       470 3.05904E+01
 -1       471 3.07956E+01
 -1       472 7.98201E+00
 -1       473 1.18545E+01
 -1       474 4.80168E+00
 -1       475 1.04736E+00
 -1       476 4.86585E-01
 -1       477 5.14610E-01
 -1       478 4.31608E-01
 -1       479 4.57567E-01
 -1       480 4.87175E-01
 -1       481 5.11262E-01
 -1       482 5.11262E-01
 -1       483 6.09476E-01
 -1       484 8.90765E-01
 -1       485 8.02996E-01
 -1       486 4.52903E+00
 -1       487 7.01687E-01
 -1       488 5.88341E-01
 -1       489 4.75871E-01
 -1       490 3.77106E-01
 -1       491 3.22267E-01
 -1       492 2.72121E-01
 -1       493 2.24684E-01
 -1       494 1.86132E-01
 -1       495 1.52442E-01
 -1       496 1.23117E-01
 -1       497 9.84052E-02
 -1       498 7.90415E-02
 -1       499 6.33042E-02
 -1       500 4.99858E-02
 -1       501 3.92990E-02
 -1       502 3.33248E-02
 -1       503 3.36429E-02
 -1       504 4.12948E-02
 -1       505 5.34630E-02
 -1       506 8.00945E-02
 -1       507 1.13825E-01
 -1       508 1.55787E-01
 -1       509 2.06651E-01
 -1       510 2.66211E-01
 -1       511 3.32808E-01
 -1       512 4.02582E-01
 -1       513 4.68611E-01
 -1       514 5.34274E-01
 -1       515 5.77760E-01
 -1       516 6.26539E-01
 -1       517 6.50630E-01
 -1       518 6.28138E-01
 -1       519 8.12606E-01
 -1       520 9.42948E-01
 -1       521 1.37200E+00
 -1       522 1.81812E+00
 -1       523 2.14019E+00
 -1       524 2.47145E+00
 -1       525 2.46327E+00
 -1       526 2.47235E+00
 -1       527 2.24461E+00
 -1       528 2.07564E+00
 -1       529 2.02361E+00
 -1       530 5.44309E-01
 -1       531 4.37102E-01
 -1       532 3.70441E-01
 -1       533 3.06509E-01
 -1       534 2.50914E-01
 -1       535 2.06199E-01
 -1       536 1.66973E-01
 -1       537 1.33515E-01
 -1       538 1.08216E-01
 -1       539 8.73575E-02
 -1       540 6.99834E-02
 -1       541 5.57495E-02
 -1       542 4.41205E-02
 -1       543 3.74493E-02
 -1       544 3.56982E-02
 -1       545 4.27326E-02
 -1       546 5.53961E-02
 -1       547 7.68495E-02
 -1       548 1.14753E-01
 -1       549 1.65281E-01
 -1       550 2.31742E-01
 -1       551 3.17716E-01
 -1       552 4.26715E-01
 -1       553 5.61469E-01
 -1       554 7.22627E-01
 -1       555 9.06562E-01
 -1       556 1.10207E+00
 -1       557 1.28624E+00
 -1       558 1.43626E+00
 -1       559 1.58509E+00
 -1       560 1.81705E+00
 -1       561 1.98055E+00
 -1       562 2.21325E+00
 -1       563 2.84027E+00
 -1       564 3.98805E+00
 -1       565 7.80400E+00
 -1       566 5.94697E+00
 -1       567 9.48206E+00
 -1       568 4.02544E+00
 -1       569 3.43730E+00
 -1       570 3.22300E+00
 -1       571 3.06789E+00
 -1       572 7.66504E+00
 -1       573 7.66504E+00
 -1       574 3.33222E+00
 -1       575 5.06456E+00
 -1       576 1.45127E+01
 -1       577 7.61710E+00
 -1       578 7.35668E+00
 -1       579 4.53371E+00
 -1       580 2.87816E+00
 -1       581 2.36189E+00
 -1       582 1.78697E+00
 -1       583 3.66571E+01
 -1       584 1.18649E+01
 -1       585 7.03196E-01
 -1       586 3.07956E+01
 -1       587 1.95945E+01
 -1       588 8.71946E-01
 -1       589 2.13649E+01
 -1       590 2.31830E+01
 -1       591 7.80400E+00
 -1       592 4.57481E-01
 -1       593 9.48206E+00
 -1       594 9.48206E+00
 -1       595 1.83807E+01
 -1       596 6.99291E+00
 -1       597 8.79398E+00
 -1       598 1.21845E+01
 -1       599 2.22226E+01
 -1       600 3.24259E+01
 -1       601 1.73374E+01
 -1       602 8.08625E+00
 -1       603 3.82315E+00
 -1       604 5.70326E+00
 -1       605 7.54308E+00
 -1       606 7.79936E+00
 -1       607 4.75123E+00
 -1       608 4.86331E+00
 -1       609 9.86860E+00
 -1       610 1.31843E+01
 -1       611 5.46010E+00
 -1       612 1.32788E+00
 -1       613 7.87463E+00
 -1       614 5.31317E-01
 -1       615 7.68214E+00
 -1       616 5.81980E+00
 -1       617 9.64076E+00
 -1       618 1.54353E+01
 -1       619 3.97961E+00
 -1       620 4.52783E+00
 -1       621 1.78697E+00
 -1       622 3.58518E-01
 -1       623 3.42821E-01
 -1       624 3.62030E-01
 -1       625 3.38143E-01
 -1       626 5.43819E-01
 -1       627 4.43541E+00
 -1       628 6.50060E+00
 -1       629 7.54564E+00
 -1       630 3.96741E-01
 -1       631 3.83806E-01
 -1       632 3.42716E-01
 -1       633 2.93078E-01
 -1       634 2.43415E-01
 -1       635 2.12207E-01
 -1       636 1.79750E-01
 -1       637 1.48807E-01
 -1       638 1.20919E-01
 -1       639 9.77942E-02
 -1       640 7.90415E-02
 -1       641 6.33042E-02
 -1       642 4.99858E-02
 -1       643 3.88024E-02
 -1       644 3.00776E-02
 -1       645 2.33204E-02
 -1       646 2.77635E-02
 -1       647 4.16579E-02
 -1       648 6.41821E-02
 -1       649 9.23785E-02
 -1       650 1.27497E-01
 -1       651 1.70654E-01
 -1       652 2.22638E-01
 -1       653 2.83616E-01
 -1       654 3.52706E-01
 -1       655 4.29582E-01
 -1       656 5.08048E-01
 -1       657 5.77760E-01
 -1       658 6.63771E-01
 -1       659 7.71290E-01
 -1       660 8.74643E-01
 -1       661 9.52207E-01
 -1       662 1.30383E+00
 -1       663 1.58121E+00
 -1       664 1.83331E+00
 -1       665 2.08648E+00
 -1       666 2.47145E+00
 -1       667 3.30469E+00
 -1       668 3.34485E+00
 -1       669 2.75922E+00
 -1       670 2.24461E+00
 -1       671 2.38008E+00
 -1       672 3.27175E-01
 -1       673 3.00140E+00
 -1       674 3.70317E+00
 -1       675 3.95849E-01
 -1       676 2.32799E-01
 -1       677 1.95570E-01
 -1       678 1.61536E-01
 -1       679 1.33663E-01
 -1       680 1.08942E-01
 -1       681 8.77531E-02
 -1       682 7.00325E-02
 -1       683 5.57495E-02
 -1       684 4.41205E-02
 -1       685 3.53765E-02
 -1       686 2.89101E-02
 -1       687 3.21690E-02
 -1       688 4.06309E-02
 -1       689 6.49335E-02
 -1       690 9.66209E-02
 -1       691 1.37967E-01
 -1       692 1.91594E-01
 -1       693 2.60478E-01
 -1       694 3.47891E-01
 -1       695 4.57290E-01
 -1       696 5.92080E-01
 -1       697 7.55227E-01
 -1       698 9.48585E-01
 -1       699 1.17318E+00
 -1       700 1.41888E+00
 -1       701 1.67543E+00
 -1       702 1.94200E+00
 -1       703 2.56875E+00
 -1       704 3.15635E+00
 -1       705 3.86136E+00
 -1       706 4.52783E+00
 -1       707 3.43730E+00
 -1       708 3.22300E+00
 -1       709 5.26222E+00
 -1       710 5.10525E+00
 -1       711 9.73313E+00
 -1       712 7.40626E+00
 -1       713 3.79926E+00
 -1       714 2.75105E+00
 -1       715 1.49501E+01
 -1       716 5.31317E-01
 -1       717 4.63552E-01
 -1       718 2.72649E-01
 -1       719 4.02368E-01
 -1       720 3.62030E-01
 -1       721 5.14866E-01
 -1       722 1.37521E+01
 -1       723 8.17500E+00
 -1       724 3.58910E-01
 -1       725 2.68995E+00
 -1       726 1.48629E+01
 -1       727 7.69943E+00
 -1       728 4.79380E+00
 -1       729 1.59493E+01
 -1       730 6.74542E+00
 -1       731 1.22531E+01
 -1       732 4.99344E+00
 -1       733 2.02361E+00
 -1       734 5.23360E+00
 -1       735 5.62530E+00
 -1       736 1.15319E+01
 -1       737 3.78939E-01
 -1       738 3.42343E-01
 -1       739 8.26002E+00
 -1       740 3.61984E+00
 -1       741 5.80080E+00
 -1       742 1.39634E+01
 -1       743 9.87639E+00
 -1       744 1.07966E+01
 -1       745 3.57569E-01
 -1       746 2.70265E+00
 -1       747 1.22694E+01
 -1       748 2.40822E-01
 -1       749 2.93944E+00
 -1       750 2.55123E-01
 -1       751 2.48171E-01
 -1       752 2.26378E-01
 -1       753 1.98057E-01
 -1       754 1.71462E-01
 -1       755 1.50294E-01
 -1       756 1.28039E-01
 -1       757 1.06590E-01
 -1       758 8.69536E-02
 -1       759 6.95424E-02
 -1       760 5.43362E-02
 -1       761 4.10270E-02
 -1       762 2.91026E-02
 -1       763 1.78933E-02
 -1       764 1.67138E-02
 -1       765 2.74635E-02
 -1       766 4.58912E-02
 -1       767 6.88172E-02
 -1       768 9.88478E-02
 -1       769 1.36131E-01
 -1       770 1.81015E-01
 -1       771 2.33221E-01
 -1       772 2.94727E-01
 -1       773 3.75530E-01
 -1       774 4.68819E-01
 -1       775 5.71427E-01
 -1       776 6.80343E-01
 -1       777 8.05778E-01
 -1       778 1.00912E+00
 -1       779 1.25966E+00
 -1       780 1.49927E+00
 -1       781 1.94357E+00
 -1       782 2.75542E+00
 -1       783 2.46728E+00
 -1       784 3.86312E+00
 -1       785 3.34485E+00
 -1       786 2.75922E+00
 -1       787 2.81500E+00
 -1       788 1.62740E-01
 -1       789 1.88397E-01
 -1       790 1.12928E-01
 -1       791 9.14035E-02
 -1       792 7.26858E-02
 -1       793 5.66318E-02
 -1       794 4.32275E-02
 -1       795 3.32336E-02
 -1       796 2.41330E-02
 -1       797 1.96617E-02
 -1       798 2.78468E-02
 -1       799 4.71783E-02
 -1       800 7.15367E-02
 -1       801 1.02553E-01
 -1       802 1.42111E-01
 -1       803 1.94966E-01
 -1       804 2.70530E-01
 -1       805 3.67961E-01
 -1       806 4.91512E-01
 -1       807 6.44895E-01
 -1       808 8.29806E-01
 -1       809 1.04294E+00
 -1       810 1.30908E+00
 -1       811 1.67367E+00
 -1       812 2.23450E+00
 -1       813 2.95232E+00
 -1       814 4.86920E+00
 -1       815 8.29435E+00
 -1       816 9.81940E+00
 -1       817 2.96615E+00
 -1       818 3.05423E-01
 -1       819 3.99493E+00
 -1       820 2.68995E+00
 -1       821 1.36995E-01
 -1       822 4.73756E+00
 -1       823 2.86096E-01
 -1       824 3.69644E+00
 -1       825 5.66167E+00
 -1       826 1.07966E+01
 -1       827 2.32282E-01
 -1       828 9.81940E+00
 -1       829 2.81868E-01
 -1       830 2.88602E-01
 -1       831 2.81500E+00
 -1       832 5.36709E+00
 -1       833 2.81664E-01
 -1       834 5.85321E+00
 -1       835 2.80115E-01
 -1       836 2.82575E-01
 -1       837 2.64642E-01
 -1       838 2.40412E+00
 -1       839 2.53570E-01
 -1       840 2.16841E-01
 -1       841 5.25014E+00
 -1       842 3.07309E+00
 -1       843 2.88602E-01
 -1       844 2.88834E-01
 -1       845 9.22917E+00
 -1       846 2.72253E-01
 -1       847 7.95050E+00
 -1       848 1.82267E-01
 -1       849 1.75016E-01
 -1       850 1.59327E-01
 -1       851 1.39694E-01
 -1       852 1.23127E-01
 -1       853 1.06716E-01
 -1       854 9.00799E-02
 -1       855 7.43016E-02
 -1       856 5.98978E-02
 -1       857 4.69832E-02
 -1       858 3.53999E-02
 -1       859 2.47795E-02
 -1       860 2.51089E-02
 -1       861 2.82120E-02
 -1       862 4.39842E-02
 -1       863 6.66586E-02
 -1       864 9.53992E-02
 -1       865 1.31337E-01
 -1       866 1.75563E-01
 -1       867 2.28838E-01
 -1       868 2.91277E-01
 -1       869 3.61837E-01
 -1       870 4.37522E-01
 -1       871 5.34746E-01
 -1       872 6.61940E-01
 -1       873 8.55973E-01
 -1       874 1.10904E+00
 -1       875 1.38738E+00
 -1       876 1.83422E+00
 -1       877 2.32539E+00
 -1       878 2.75542E+00
 -1       879 1.51908E-01
 -1       880 7.99182E-02
 -1       881 9.73386E-02
 -1       882 5.02355E-02
 -1       883 3.78256E-02
 -1       884 2.65250E-02
 -1       885 2.10925E-02
 -1       886 2.36978E-02
 -1       887 3.97827E-02
 -1       888 6.21687E-02
 -1       889 9.23860E-02
 -1       890 1.32783E-01
 -1       891 1.85542E-01
 -1       892 2.54024E-01
 -1       893 3.42326E-01
 -1       894 4.55473E-01
 -1       895 5.99690E-01
 -1       896 7.82943E-01
 -1       897 1.01549E+00
 -1       898 1.30908E+00
 -1       899 1.67367E+00
 -1       900 2.16671E+00
 -1       901 3.12790E+00
 -1       902 4.59333E+00
 -1       903 3.02403E+00
 -1       904 2.07753E-01
 -1       905 3.29772E+00
 -1       906 1.41772E-01
 -1       907 2.88834E-01
 -1       908 6.92653E+00
 -1       909 6.41965E-02
 -1       910 1.74286E-01
 -1       911 5.85321E+00
 -1       912 1.65067E-01
 -1       913 2.05562E-01
 -1       914 2.17425E-01
 -1       915 1.76028E-01
 -1       916 1.34758E-01
 -1       917 1.75565E-01
 -1       918 1.15973E-01
 -1       919 5.85321E+00
 -1       920 2.09220E-01
 -1       921 3.77922E+00
 -1       922 1.81100E-01
 -1       923 7.83936E+00
 -1       924 2.17425E-01
 -1       925 2.16878E-01
 -1       926 1.29910E-01
 -1       927 1.35928E-01
 -1       928 2.16878E-01
 -1       929 1.35225E-01
 -1       930 1.26425E-01
 -1       931 1.13169E-01
 -1       932 9.80275E-02
 -1       933 8.55246E-02
 -1       934 7.26516E-02
 -1       935 6.02832E-02
 -1       936 4.88485E-02
 -1       937 3.85324E-02
 -1       938 3.01353E-02
 -1       939 3.05983E-02
 -1       940 3.34880E-02
 -1       941 3.90859E-02
 -1       942 5.79619E-02
 -1       943 8.29422E-02
 -1       944 1.14768E-01
 -1       945 1.54921E-01
 -1       946 2.04984E-01
 -1       947 2.66591E-01
 -1       948 3.41329E-01
 -1       949 4.30512E-01
 -1       950 5.34746E-01
 -1       951 6.52273E-01
 -1       952 8.24241E-01
 -1       953 1.08161E+00
 -1       954 1.55277E+00
 -1       955 2.26501E+00
 -1       956 4.26925E+00
 -1       957 3.16621E-02
 -1       958 4.20653E-02
 -1       959 3.01801E-02
 -1       960 3.56130E-02
 -1       961 5.48892E-02
 -1       962 8.10462E-02
 -1       963 1.15015E-01
 -1       964 1.58967E-01
 -1       965 2.15557E-01
 -1       966 2.88133E-01
 -1       967 3.81136E-01
 -1       968 5.00820E-01
 -1       969 6.56434E-01
 -1       970 8.63447E-01
 -1       971 1.14882E+00
 -1       972 1.56017E+00
 -1       973 2.14410E+00
 -1       974 3.35732E+00
 -1       975 7.83936E+00
 -1       976 2.78714E-02
 -1       977 1.96281E-01
 -1       978 1.12337E-01
 -1       979 2.04018E-01
 -1       980 8.03706E-02
 -1       981 1.23467E-01
 -1       982 9.07042E-02
 -1       983 1.01451E-01
 -1       984 1.40487E-01
 -1       985 9.48313E-02
 -1       986 5.35935E-02
 -1       987 4.28800E+00
 -1       988 1.24595E-01
 -1       989 1.44726E-01
 -1       990 1.52875E-01
 -1       991 3.66569E+00
 -1       992 6.63815E-02
 -1       993 1.52488E-01
 -1       994 3.20598E-02
 -1       995 1.01736E-01
 -1       996 1.03129E-01
 -1       997 9.77601E-02
 -1       998 8.84395E-02
 -1       999 7.72385E-02
 -1      1000 6.55592E-02
 -1      1001 5.52253E-02
 -1      1002 4.59787E-02
 -1      1003 3.75873E-02
 -1      1004 3.40686E-02
 -1      1005 3.36838E-02
 -1      1006 3.58829E-02
 -1      1007 4.10131E-02
 -1      1008 5.07698E-02
 -1      1009 6.55072E-02
 -1      1010 9.04949E-02
 -1      1011 1.23417E-01
 -1      1012 1.65780E-01
 -1      1013 2.20022E-01
 -1      1014 2.89303E-01
 -1      1015 3.77885E-01
 -1      1016 4.91503E-01
 -1      1017 6.38198E-01
 -1      1018 8.24241E-01
 -1      1019 1.06650E+00
 -1      1020 1.41247E+00
 -1      1021 3.58750E+00
 -1      1022 6.42226E-02
 -1      1023 1.52100E-01
 -1      1024 3.35513E-02
 -1      1025 4.52298E-02
 -1      1026 3.73104E-02
 -1      1027 9.01082E-02
 -1      1028 1.23309E-01
 -1      1029 1.65560E-01
 -1      1030 2.18978E-01
 -1      1031 2.86329E-01
 -1      1032 3.71618E-01
 -1      1033 4.81545E-01
 -1      1034 6.26529E-01
 -1      1035 8.27478E-01
 -1      1036 1.12717E+00
 -1      1037 1.59075E+00
 -1      1038 2.25377E+00
 -1      1039 3.66569E+00
 -1      1040 3.33082E-02
 -1      1041 1.55365E-01
 -1      1042 1.08824E-01
 -1      1043 4.28800E+00
 -1      1044 1.52875E-01
 -1      1045 1.39580E-01
 -1      1046 6.12826E-02
 -1      1047 4.28800E+00
 -1      1048 8.99369E-02
 -1      1049 9.37231E-02
 -1      1050 9.58791E-02
 -1      1051 2.29625E+00
 -1      1052 4.23669E-02
 -1      1053 9.35273E-02
 -1      1054 1.10213E-01
 -1      1055 5.22510E-02
 -1      1056 1.00551E-01
 -1      1057 1.19915E-01
 -1      1058 1.00551E-01
 -1      1059 8.41542E-02
 -1      1060 8.05257E-02
 -1      1061 6.55794E-02
 -1      1062 8.68241E-02
 -1      1063 5.73620E-02
 -1      1064 4.95115E-02
 -1      1065 4.15512E-02
 -1      1066 3.66949E-02
 -1      1067 3.40686E-02
 -1      1068 3.58829E-02
 -1      1069 4.10131E-02
 -1      1070 5.07698E-02
 -1      1071 6.55072E-02
 -1      1072 8.63155E-02
 -1      1073 1.16676E-01
 -1      1074 1.57181E-01
 -1      1075 2.11223E-01
 -1      1076 2.83775E-01
 -1      1077 3.82328E-01
 -1      1078 5.18188E-01
 -1      1079 7.06729E-01
 -1      1080 9.63919E-01
 -1      1081 1.09698E+00
 -1      1082 1.55984E+00
 -1      1083 3.15243E+00
 -1      1084 1.01463E-01
 -1      1085 3.47050E-02
 -1      1086 5.84393E-02
 -1      1087 4.52298E-02
 -1      1088 1.34211E-01
 -1      1089 1.76523E-01
 -1      1090 2.30729E-01
 -1      1091 3.00047E-01
 -1      1092 3.89269E-01
 -1      1093 5.18188E-01
 -1      1094 7.06729E-01
 -1      1095 1.09698E+00
 -1      1096 1.24593E+00
 -1      1097 2.12516E+00
 -1      1098 6.53765E-02
 -1      1099 3.73104E-02
 -1      1100 7.67275E-02
 -1      1101 9.91901E-02
 -1      1102 5.73620E-02
 -1      1103 3.33082E-02
 -1      1104 9.05248E-02
 -1      1105 1.03764E-01
 -1      1106 8.68241E-02
 -1      1107 4.15512E-02
 -1      1108 4.95115E-02
 -1      1109 5.73284E-02
 -1      1110 1.19915E-01
 -1      1111 9.58791E-02
 -1      1112 8.41542E-02
 -1      1113 9.05248E-02
 -1      1114 2.72657E+00
 -1      1115 9.58791E-02
 -1      1116 1.55984E+00
 -1      1117 1.19915E-01
 -1      1118 1.00270E-01
 -1      1119 8.05257E-02
 -1      1120 6.92744E-02
 -1      1121 1.31431E+01
 -1      1122 8.40340E+00
 -1      1123 2.74445E+00
 -1      1124 1.55728E+00
 -1      1125 1.16789E+00
 -1      1126 9.73232E-01
 -1      1127 8.54448E-01
 -1      1128 7.81343E-01
 -1      1129 7.54787E-01
 -1      1130 7.84462E-01
 -1      1131 8.57019E-01
 -1      1132 9.76792E-01
 -1      1133 1.18031E+00
 -1      1134 1.57192E+00
 -1      1135 2.67070E+00
 -1      1136 6.07326E+00
 -1      1137 1.13399E+01
 -1      1138 1.31431E+01
 -1      1139 8.73032E+00
 -1      1140 3.82892E+00
 -1      1141 2.72561E+00
 -1      1142 1.73651E+00
 -1      1143 1.18800E+00
 -1      1144 8.94326E-01
 -1      1145 6.84843E-01
 -1      1146 5.24713E-01
 -1      1147 4.00728E-01
 -1      1148 3.07420E-01
 -1      1149 2.36160E-01
 -1      1150 1.79333E-01
 -1      1151 1.34921E-01
 -1      1152 1.01036E-01
 -1      1153 7.59907E-02
 -1      1154 5.83183E-02
 -1      1155 4.67776E-02
 -1      1156 4.10162E-02
 -1      1157 4.31485E-02
 -1      1158 5.16551E-02
 -1      1159 6.27579E-02
 -1      1160 7.67981E-02
 -1      1161 9.96182E-02
 -1      1162 1.33304E-01
 -1      1163 1.74752E-01
 -1      1164 2.23336E-01
 -1      1165 2.77036E-01
 -1      1166 3.31702E-01
 -1      1167 3.99922E-01
 -1      1168 4.99755E-01
 -1      1169 6.33333E-01
 -1      1170 7.80138E-01
 -1      1171 8.99093E-01
 -1      1172 9.52572E-01
 -1      1173 1.03818E+00
 -1      1174 1.11753E+00
 -1      1175 1.34973E+00
 -1      1176 1.79726E+00
 -1      1177 2.67180E+00
 -1      1178 3.85927E+00
 -1      1179 4.53286E+00
 -1      1180 4.67818E+00
 -1      1181 4.55573E+00
 -1      1182 4.24296E+00
 -1      1183 3.57163E+00
 -1      1184 2.55053E+00
 -1      1185 1.58617E+00
 -1      1186 9.94047E-01
 -1      1187 4.99848E-01
 -1      1188 1.40389E+01
 -1      1189 8.71671E+00
 -1      1190 2.90372E+00
 -1      1191 2.03924E+00
 -1      1192 1.40503E+00
 -1      1193 1.02518E+00
 -1      1194 8.18546E-01
 -1      1195 6.59422E-01
 -1      1196 5.27812E-01
 -1      1197 4.18133E-01
 -1      1198 3.31093E-01
 -1      1199 2.62880E-01
 -1      1200 2.06228E-01
 -1      1201 1.59913E-01
 -1      1202 1.23048E-01
 -1      1203 9.46368E-02
 -1      1204 7.37133E-02
 -1      1205 5.94180E-02
 -1      1206 5.15929E-02
 -1      1207 5.37658E-02
 -1      1208 6.53393E-02
 -1      1209 8.25158E-02
 -1      1210 1.05505E-01
 -1      1211 1.34513E-01
 -1      1212 1.69582E-01
 -1      1213 2.10338E-01
 -1      1214 2.65023E-01
 -1      1215 3.43105E-01
 -1      1216 4.41499E-01
 -1      1217 5.54499E-01
 -1      1218 6.75847E-01
 -1      1219 7.91912E-01
 -1      1220 8.77896E-01
 -1      1221 1.00554E+00
 -1      1222 1.28697E+00
 -1      1223 1.63231E+00
 -1      1224 1.94134E+00
 -1      1225 2.35379E+00
 -1      1226 2.68545E+00
 -1      1227 3.26482E+00
 -1      1228 4.68043E+00
 -1      1229 6.29572E+00
 -1      1230 7.10958E+00
 -1      1231 7.21261E+00
 -1      1232 6.57829E+00
 -1      1233 4.68754E+00
 -1      1234 2.45176E+00
 -1      1235 1.01365E+00
 -1      1236 4.95796E-01
 -1      1237 3.01372E-01
 -1      1238 3.16855E-01
 -1      1239 6.84381E-01
 -1      1240 1.03379E+00
 -1      1241 1.16648E+00
 -1      1242 1.11208E+00
 -1      1243 1.24841E+00
 -1      1244 1.71434E+00
 -1      1245 1.98955E+00
 -1      1246 1.44992E+00
 -1      1247 1.07115E+00
 -1      1248 1.23202E+00
 -1      1249 1.22611E+00
 -1      1250 1.07714E+00
 -1      1251 7.64142E-01
 -1      1252 3.90720E-01
 -1      1253 3.27523E-01
 -1      1254 3.20659E-01
 -1      1255 2.46650E+01
 -1      1256 3.59243E+01
 -1      1257 4.70550E+01
 -1      1258 3.31427E+01
 -1      1259 1.59901E+01
 -1      1260 1.28864E+01
 -1      1261 1.30230E+01
 -1      1262 1.28948E+01
 -1      1263 1.27666E+01
 -1      1264 1.38644E+01
 -1      1265 2.70687E+01
 -1      1266 3.91752E+01
 -1      1267 3.18812E+01
 -1      1268 2.39536E+01
 -1      1269 2.35962E+01
 -1      1270 2.42093E+01
 -1      1271 3.12158E+01
 -1      1272 3.78852E+01
 -1      1273 2.58856E+01
 -1      1274 1.29747E+01
 -1      1275 1.23788E+01
 -1      1276 1.26943E+01
 -1      1277 1.23466E+01
 -1      1278 1.19988E+01
 -1      1279 1.17750E+01
 -1      1280 1.70213E+01
 -1      1281 2.84524E+01
 -1      1282 3.44134E+01
 -1      1283 2.94108E+01
 -1      1284 2.44723E+01
 -1      1285 1.31431E+01
 -1      1286 4.87066E+00
 -1      1287 9.61040E+00
 -1      1288 2.06210E+00
 -1      1289 2.98133E+00
 -1      1290 4.18832E+00
 -1      1291 1.39858E+00
 -1      1292 1.66652E+00
 -1      1293 1.90340E+00
 -1      1294 1.10226E+00
 -1      1295 1.22371E+00
 -1      1296 1.33295E+00
 -1      1297 9.36820E-01
 -1      1298 1.01004E+00
 -1      1299 1.06585E+00
 -1      1300 8.36738E-01
 -1      1301 8.82304E-01
 -1      1302 9.19110E-01
 -1      1303 7.74901E-01
 -1      1304 8.02440E-01
 -1      1305 8.30296E-01
 -1      1306 7.55769E-01
 -1      1307 7.54787E-01
 -1      1308 7.75883E-01
 -1      1309 8.06292E-01
 -1      1310 7.77598E-01
 -1      1311 7.77598E-01
 -1      1312 8.84064E-01
 -1      1313 8.40201E-01
 -1      1314 8.33337E-01
 -1      1315 1.01689E+00
 -1      1316 9.40979E-01
 -1      1317 9.24161E-01
 -1      1318 1.24026E+00
 -1      1319 1.11266E+00
 -1      1320 1.07685E+00
 -1      1321 1.68183E+00
 -1      1322 1.41782E+00
 -1      1323 1.35018E+00
 -1      1324 2.88322E+00
 -1      1325 2.04844E+00
 -1      1326 1.89434E+00
 -1      1327 6.28606E+00
 -1      1328 3.71829E+00
 -1      1329 3.09602E+00
 -1      1330 1.40389E+01
 -1      1331 1.13399E+01
 -1      1332 8.98497E+00
 -1      1333 1.40389E+01
 -1      1334 8.73032E+00
 -1      1335 4.31749E+00
 -1      1336 3.82892E+00
 -1      1337 3.34036E+00
 -1      1338 3.82892E+00
 -1      1339 2.72561E+00
 -1      1340 2.11087E+00
 -1      1341 2.72561E+00
 -1      1342 1.77881E+00
 -1      1343 1.40445E+00
 -1      1344 1.77881E+00
 -1      1345 1.19357E+00
 -1      1346 1.01942E+00
 -1      1347 1.23587E+00
 -1      1348 8.94326E-01
 -1      1349 7.74799E-01
 -1      1350 8.99892E-01
 -1      1351 6.84843E-01
 -1      1352 5.94886E-01
 -1      1353 6.84843E-01
 -1      1354 5.31122E-01
 -1      1355 4.60949E-01
 -1      1356 5.31122E-01
 -1      1357 4.10860E-01
 -1      1358 3.57048E-01
 -1      1359 4.17269E-01
 -1      1360 3.18025E-01
 -1      1361 2.78529E-01
 -1      1362 3.28157E-01
 -1      1363 2.50117E-01
 -1      1364 2.18353E-01
 -1      1365 2.60722E-01
 -1      1366 1.94245E-01
 -1      1367 1.69183E-01
 -1      1368 2.08202E-01
 -1      1369 1.49296E-01
 -1      1370 1.29947E-01
 -1      1371 1.64208E-01
 -1      1372 1.13968E-01
 -1      1373 9.94329E-02
 -1      1374 1.28343E-01
 -1      1375 8.69398E-02
 -1      1376 7.64292E-02
 -1      1377 9.98713E-02
 -1      1378 6.69603E-02
 -1      1379 5.97985E-02
 -1      1380 7.79094E-02
 -1      1381 5.28905E-02
 -1      1382 4.85115E-02
 -1      1383 6.15325E-02
 -1      1384 4.37160E-02
 -1      1385 4.23336E-02
 -1      1386 4.98289E-02
 -1      1387 3.96338E-02
 -1      1388 4.31485E-02
 -1      1389 4.23336E-02
 -1      1390 4.66633E-02
 -1      1391 5.16551E-02
 -1      1392 4.31485E-02
 -1      1393 5.66469E-02
 -1      1394 6.27579E-02
 -1      1395 5.16551E-02
 -1      1396 6.96275E-02
 -1      1397 7.75566E-02
 -1      1398 6.35165E-02
 -1      1399 8.87361E-02
 -1      1400 1.03627E-01
 -1      1401 8.15655E-02
 -1      1402 1.17748E-01
 -1      1403 1.36543E-01
 -1      1404 1.06866E-01
 -1      1405 1.53568E-01
 -1      1406 1.76220E-01
 -1      1407 1.38011E-01
 -1      1408 1.97405E-01
 -1      1409 2.23336E-01
 -1      1410 1.76220E-01
 -1      1411 2.49267E-01
 -1      1412 2.77036E-01
 -1      1413 2.23336E-01
 -1      1414 3.15847E-01
 -1      1415 3.42743E-01
 -1      1416 2.88077E-01
 -1      1417 3.85310E-01
 -1      1418 4.26633E-01
 -1      1419 3.69454E-01
 -1      1420 4.68743E-01
 -1      1421 5.27252E-01
 -1      1422 4.54130E-01
 -1      1423 5.71760E-01
 -1      1424 6.46830E-01
 -1      1425 5.40748E-01
 -1      1426 7.08403E-01
 -1      1427 7.80138E-01
 -1      1428 6.46830E-01
 -1      1429 8.51873E-01
 -1      1430 8.99093E-01
 -1      1431 7.80138E-01
 -1      1432 9.46313E-01
 -1      1433 9.52572E-01
 -1      1434 8.99093E-01
 -1      1435 9.58830E-01
 -1      1436 1.03818E+00
 -1      1437 9.52572E-01
 -1      1438 1.11753E+00
 -1      1439 1.11753E+00
 -1      1440 1.03818E+00
 -1      1441 1.10874E+00
 -1      1442 1.34094E+00
 -1      1443 1.10874E+00
 -1      1444 1.58193E+00
 -1      1445 1.79726E+00
 -1      1446 1.34094E+00
 -1      1447 2.14005E+00
 -1      1448 2.79926E+00
 -1      1449 1.92472E+00
 -1      1450 3.33101E+00
 -1      1451 3.85927E+00
 -1      1452 2.79926E+00
 -1      1453 4.38753E+00
 -1      1454 4.53286E+00
 -1      1455 3.85927E+00
 -1      1456 4.67818E+00
 -1      1457 4.67818E+00
 -1      1458 4.53286E+00
 -1      1459 4.55573E+00
 -1      1460 4.43327E+00
 -1      1461 4.55573E+00
 -1      1462 4.24296E+00
 -1      1463 4.05264E+00
 -1      1464 4.24296E+00
 -1      1465 3.57163E+00
 -1      1466 3.09061E+00
 -1      1467 3.57163E+00
 -1      1468 2.64488E+00
 -1      1469 2.10479E+00
 -1      1470 2.64488E+00
 -1      1471 1.71239E+00
 -1      1472 1.28812E+00
 -1      1473 1.80674E+00
 -1      1474 9.94047E-01
 -1      1475 8.26190E-01
 -1      1476 1.12027E+00
 -1      1477 6.47001E-01
 -1      1478 6.47001E-01
 -1      1479 3.39457E+00
 -1      1480 8.71671E+00
 -1      1481 8.71671E+00
 -1      1482 2.41287E+00
 -1      1483 2.90372E+00
 -1      1484 2.90372E+00
 -1      1485 1.66561E+00
 -1      1486 2.03924E+00
 -1      1487 2.03924E+00
 -1      1488 1.14446E+00
 -1      1489 1.40503E+00
 -1      1490 1.40503E+00
 -1      1491 9.05902E-01
 -1      1492 1.02518E+00
 -1      1493 1.02518E+00
 -1      1494 7.31190E-01
 -1      1495 8.18546E-01
 -1      1496 8.18546E-01
 -1      1497 5.87654E-01
 -1      1498 6.59422E-01
 -1      1499 6.59422E-01
 -1      1500 4.67970E-01
 -1      1501 5.27812E-01
 -1      1502 5.27812E-01
 -1      1503 3.68296E-01
 -1      1504 4.18133E-01
 -1      1505 4.18133E-01
 -1      1506 2.93890E-01
 -1      1507 3.31093E-01
 -1      1508 3.31093E-01
 -1      1509 2.31870E-01
 -1      1510 2.62880E-01
 -1      1511 2.62880E-01
 -1      1512 1.82056E-01
 -1      1513 2.07698E-01
 -1      1514 2.07698E-01
 -1      1515 1.41718E-01
 -1      1516 1.62390E-01
 -1      1517 1.63860E-01
 -1      1518 1.09718E-01
 -1      1519 1.25911E-01
 -1      1520 1.28388E-01
 -1      1521 8.52242E-02
 -1      1522 9.74418E-02
 -1      1523 1.00305E-01
 -1      1524 6.74150E-02
 -1      1525 7.61208E-02
 -1      1526 7.89258E-02
 -1      1527 5.55529E-02
 -1      1528 6.11423E-02
 -1      1529 6.35499E-02
 -1      1530 4.95722E-02
 -1      1531 5.18078E-02
 -1      1532 5.35322E-02
 -1      1533 5.62798E-02
 -1      1534 5.18713E-02
 -1      1535 5.20862E-02
 -1      1536 6.84482E-02
 -1      1537 6.12833E-02
 -1      1538 5.93887E-02
 -1      1539 8.56862E-02
 -1      1540 7.56746E-02
 -1      1541 7.16186E-02
 -1      1542 1.08054E-01
 -1      1543 9.50759E-02
 -1      1544 8.82347E-02
 -1      1545 1.35510E-01
 -1      1546 1.19479E-01
 -1      1547 1.09050E-01
 -1      1548 1.70738E-01
 -1      1549 1.51699E-01
 -1      1550 1.36665E-01
 -1      1551 2.17439E-01
 -1      1552 1.95721E-01
 -1      1553 1.77839E-01
 -1      1554 2.81415E-01
 -1      1555 2.48447E-01
 -1      1556 2.33831E-01
 -1      1557 3.63845E-01
 -1      1558 3.18729E-01
 -1      1559 3.02154E-01
 -1      1560 4.60332E-01
 -1      1561 4.07054E-01
 -1      1562 3.82678E-01
 -1      1563 5.68606E-01
 -1      1564 5.08884E-01
 -1      1565 4.74439E-01
 -1      1566 6.79198E-01
 -1      1567 6.17572E-01
 -1      1568 5.71957E-01
 -1      1569 7.91912E-01
 -1      1570 7.37472E-01
 -1      1571 6.79198E-01
 -1      1572 8.77896E-01
 -1      1573 8.46351E-01
 -1      1574 7.91912E-01
 -1      1575 1.05007E+00
 -1      1576 9.53969E-01
 -1      1577 9.22424E-01
 -1      1578 1.36099E+00
 -1      1579 1.17566E+00
 -1      1580 1.12409E+00
 -1      1581 1.63231E+00
 -1      1582 1.47229E+00
 -1      1583 1.36099E+00
 -1      1584 1.94134E+00
 -1      1585 1.79233E+00
 -1      1586 1.63231E+00
 -1      1587 2.35379E+00
 -1      1588 2.09035E+00
 -1      1589 1.94134E+00
 -1      1590 2.68545E+00
 -1      1591 2.61723E+00
 -1      1592 2.35379E+00
 -1      1593 3.26482E+00
 -1      1594 2.75367E+00
 -1      1595 2.68545E+00
 -1      1596 4.68043E+00
 -1      1597 3.77597E+00
 -1      1598 3.26482E+00
 -1      1599 6.29572E+00
 -1      1600 5.58488E+00
 -1      1601 4.68043E+00
 -1      1602 7.10958E+00
 -1      1603 7.00656E+00
 -1      1604 6.29572E+00
 -1      1605 7.21261E+00
 -1      1606 7.21261E+00
 -1      1607 7.10958E+00
 -1      1608 5.94396E+00
 -1      1609 6.57829E+00
 -1      1610 6.57829E+00
 -1      1611 3.43112E+00
 -1      1612 4.68754E+00
 -1      1613 4.68754E+00
 -1      1614 1.60760E+00
 -1      1615 2.58696E+00
 -1      1616 2.58696E+00
 -1      1617 7.25953E-01
 -1      1618 1.18470E+00
 -1      1619 1.31990E+00
 -1      1620 5.31382E-01
 -1      1621 5.90486E-01
 -1      1622 7.61539E-01
 -1      1623 4.52174E-01
 -1      1624 1.08710E+00
 -1      1625 8.70375E-01
 -1      1626 1.48595E+00
 -1      1627 1.35327E+00
 -1      1628 1.53926E+00
 -1      1629 1.61745E+00
 -1      1630 1.61745E+00
 -1      1631 1.93693E+00
 -1      1632 1.56305E+00
 -1      1633 1.61745E+00
 -1      1634 2.06842E+00
 -1      1635 1.83060E+00
 -1      1636 1.63987E+00
 -1      1637 2.14524E+00
 -1      1638 3.09345E+00
 -1      1639 2.81824E+00
 -1      1640 3.20971E+00
 -1      1641 3.09345E+00
 -1      1642 3.09345E+00
 -1      1643 4.19735E+00
 -1      1644 2.34133E+00
 -1      1645 2.88096E+00
 -1      1646 3.98486E+00
 -1      1647 1.61422E+00
 -1      1648 1.45335E+00
 -1      1649 2.88440E+00
 -1      1650 1.68335E+00
 -1      1651 1.68335E+00
 -1      1652 2.06555E+00
 -1      1653 1.67744E+00
 -1      1654 1.68335E+00
 -1      1655 2.13468E+00
 -1      1656 1.44644E+00
 -1      1657 1.58949E+00
 -1      1658 2.04674E+00
 -1      1659 1.01733E+00
 -1      1660 1.18727E+00
 -1      1661 1.69962E+00
 -1      1662 5.28665E-01
 -1      1663 7.32149E-01
 -1      1664 1.15527E+00
 -1      1665 6.42508E-01
 -1      1666 5.02220E-01
 -1      1667 8.43650E-01
 -1      1668 8.21697E-01
 -1      1669 2.71019E+01
 -1      1670 2.69734E+01
 -1      1671 3.71377E+01
 -1      1672 2.60070E+01
 -1      1673 4.70550E+01
 -1      1674 4.70550E+01
 -1      1675 1.99120E+01
 -1      1676 3.38243E+01
 -1      1677 1.19397E+01
 -1      1678 1.51801E+01
 -1      1679 1.28864E+01
 -1      1680 1.27497E+01
 -1      1681 1.30230E+01
 -1      1682 1.30230E+01
 -1      1683 1.24815E+01
 -1      1684 1.26097E+01
 -1      1685 1.27666E+01
 -1      1686 1.27666E+01
 -1      1687 1.35907E+01
 -1      1688 1.24929E+01
 -1      1689 2.70687E+01
 -1      1690 1.49622E+01
 -1      1691 3.91752E+01
 -1      1692 3.91752E+01
 -1      1693 2.93960E+01
 -1      1694 3.66899E+01
 -1      1695 2.46643E+01
 -1      1696 2.52978E+01
 -1      1697 2.49404E+01
 -1      1698 2.46643E+01
 -1      1699 2.49338E+01
 -1      1700 2.45968E+01
 -1      1701 3.69379E+01
 -1      1702 3.02684E+01
 -1      1703 3.78852E+01
 -1      1704 3.78852E+01
 -1      1705 1.38860E+01
 -1      1706 2.58856E+01
 -1      1707 1.14601E+01
 -1      1708 1.23714E+01
 -1      1709 1.23788E+01
 -1      1710 1.20634E+01
 -1      1711 1.26943E+01
 -1      1712 1.26943E+01
 -1      1713 1.18905E+01
 -1      1714 1.22382E+01
 -1      1715 1.19988E+01
 -1      1716 1.19988E+01
 -1      1717 1.15511E+01
 -1      1718 1.17750E+01
 -1      1719 1.68451E+01
 -1      1720 1.13749E+01
 -1      1721 2.97779E+01
 -1      1722 2.38169E+01
 -1      1723 3.44134E+01
 -1      1724 3.44134E+01
 -1      1725 2.74993E+01
 -1      1726 3.25019E+01
 -1      1727 2.69734E+01
 -1      1728 2.69093E+01
 -1      1729 1.58616E+01
 -1      1730 3.38243E+01
 -1      1731 5.46864E-01
 -1      1732 9.49583E-01
 -1      1733 2.83154E+01
 -1      1734 3.71377E+01
 -1      1735 2.94103E+01
 -1      1736 1.19397E+01
 -1      1737 1.28864E+01
 -1      1738 1.26097E+01
 -1      1739 1.24815E+01
 -1      1740 1.24929E+01
 -1      1741 1.35907E+01
 -1      1742 2.70687E+01
 -1      1743 3.66899E+01
 -1      1744 3.01066E+01
 -1      1745 2.60085E+01
 -1      1746 2.56649E+01
 -1      1747 3.06560E+01
 -1      1748 3.69379E+01
 -1      1749 2.58856E+01
 -1      1750 1.23714E+01
 -1      1751 1.14601E+01
 -1      1752 1.23788E+01
 -1      1753 1.22382E+01
 -1      1754 1.18905E+01
 -1      1755 1.17750E+01
 -1      1756 1.13749E+01
 -1      1757 1.81705E+01
 -1      1758 2.97779E+01
 -1      1759 3.25019E+01
 -1      1760 3.00003E+01
 -1      1761 9.61040E+00
 -1      1762 1.27813E+00
 -1      1763 1.67371E+00
 -1      1764 2.38952E+00
 -1      1765 4.27885E+00
 -1      1766 1.76425E+00
 -1      1767 8.84484E-01
 -1      1768 9.76709E-01
 -1      1769 7.79819E-01
 -1      1770 8.34335E-01
 -1      1771 7.45194E-01
 -1      1772 7.13951E-01
 -1      1773 7.48249E-01
 -1      1774 6.63475E-01
 -1      1775 6.71706E-01
 -1      1776 6.91820E-01
 -1      1777 6.09773E-01
 -1      1778 6.95136E-01
 -1      1779 6.73306E-01
 -1      1780 5.89243E-01
 -1      1781 7.50901E-01
 -1      1782 7.16992E-01
 -1      1783 6.12700E-01
 -1      1784 8.41193E-01
 -1      1785 7.84278E-01
 -1      1786 6.67933E-01
 -1      1787 9.84576E-01
 -1      1788 8.88804E-01
 -1      1789 7.48921E-01
 -1      1790 1.22986E+00
 -1      1791 1.05231E+00
 -1      1792 8.64265E-01
 -1      1793 1.71066E+00
 -1      1794 1.34404E+00
 -1      1795 1.04618E+00
 -1      1796 2.63019E+00
 -1      1797 1.79512E+00
 -1      1798 1.24482E+00
 -1      1799 8.11967E+00
 -1      1800 3.06579E+00
 -1      1801 1.76488E+00
 -1      1802 2.79753E+00
 -1      1803 5.19758E+00
 -1      1804 2.16340E+00
 -1      1805 2.65425E+00
 -1      1806 2.05721E+00
 -1      1807 3.39877E+00
 -1      1808 2.53464E+00
 -1      1809 1.91989E+00
 -1      1810 1.68891E+00
 -1      1811 1.35684E+00
 -1      1812 1.49793E+00
 -1      1813 1.17666E+00
 -1      1814 9.65777E-01
 -1      1815 1.08676E+00
 -1      1816 8.40192E-01
 -1      1817 7.15099E-01
 -1      1818 7.80984E-01
 -1      1819 6.56413E-01
 -1      1820 5.66456E-01
 -1      1821 5.96713E-01
 -1      1822 5.17834E-01
 -1      1823 4.54070E-01
 -1      1824 4.89404E-01
 -1      1825 4.11219E-01
 -1      1826 3.61130E-01
 -1      1827 3.97931E-01
 -1      1828 3.28374E-01
 -1      1829 2.89351E-01
 -1      1830 3.22325E-01
 -1      1831 2.61676E-01
 -1      1832 2.33264E-01
 -1      1833 2.61893E-01
 -1      1834 2.09493E-01
 -1      1835 1.85386E-01
 -1      1836 2.10447E-01
 -1      1837 1.67676E-01
 -1      1838 1.47789E-01
 -1      1839 1.68967E-01
 -1      1840 1.33142E-01
 -1      1841 1.17163E-01
 -1      1842 1.36609E-01
 -1      1843 1.04905E-01
 -1      1844 9.24119E-02
 -1      1845 1.09704E-01
 -1      1846 8.24249E-02
 -1      1847 7.29560E-02
 -1      1848 8.74585E-02
 -1      1849 6.49991E-02
 -1      1850 5.80911E-02
 -1      1851 6.95146E-02
 -1      1852 5.18494E-02
 -1      1853 4.70538E-02
 -1      1854 5.53159E-02
 -1      1855 4.21662E-02
 -1      1856 3.94664E-02
 -1      1857 4.41866E-02
 -1      1858 3.89777E-02
 -1      1859 4.24924E-02
 -1      1860 3.88103E-02
 -1      1861 4.42216E-02
 -1      1862 4.92134E-02
 -1      1863 4.00507E-02
 -1      1864 5.51095E-02
 -1      1865 6.19790E-02
 -1      1866 4.76760E-02
 -1      1867 7.03860E-02
 -1      1868 8.15655E-02
 -1      1869 6.19790E-02
 -1      1870 9.27450E-02
 -1      1871 1.06866E-01
 -1      1872 8.15655E-02
 -1      1873 1.24105E-01
 -1      1874 1.41130E-01
 -1      1875 1.09984E-01
 -1      1876 1.65183E-01
 -1      1877 1.86367E-01
 -1      1878 1.51276E-01
 -1      1879 2.15449E-01
 -1      1880 2.41379E-01
 -1      1881 2.04411E-01
 -1      1882 2.74962E-01
 -1      1883 3.13773E-01
 -1      1884 2.67075E-01
 -1      1885 3.50216E-01
 -1      1886 3.92783E-01
 -1      1887 3.37101E-01
 -1      1888 4.28811E-01
 -1      1889 4.70920E-01
 -1      1890 4.09572E-01
 -1      1891 5.02593E-01
 -1      1892 5.47102E-01
 -1      1893 4.77274E-01
 -1      1894 5.81458E-01
 -1      1895 6.43031E-01
 -1      1896 5.43303E-01
 -1      1897 6.82982E-01
 -1      1898 7.54717E-01
 -1      1899 6.17611E-01
 -1      1900 7.72377E-01
 -1      1901 8.19598E-01
 -1      1902 6.75222E-01
 -1      1903 7.94048E-01
 -1      1904 8.00306E-01
 -1      1905 6.67332E-01
 -1      1906 7.69638E-01
 -1      1907 8.48988E-01
 -1      1908 6.11114E-01
 -1      1909 8.31702E-01
 -1      1910 8.22914E-01
 -1      1911 5.63161E-01
 -1      1912 1.05034E+00
 -1      1913 1.29133E+00
 -1      1914 7.73297E-01
 -1      1915 1.63146E+00
 -1      1916 1.97425E+00
 -1      1917 1.34085E+00
 -1      1918 2.24086E+00
 -1      1919 2.77260E+00
 -1      1920 1.94759E+00
 -1      1921 3.07659E+00
 -1      1922 3.60485E+00
 -1      1923 2.51818E+00
 -1      1924 3.74319E+00
 -1      1925 3.88851E+00
 -1      1926 2.96050E+00
 -1      1927 3.82304E+00
 -1      1928 3.70059E+00
 -1      1929 3.03337E+00
 -1      1930 3.66747E+00
 -1      1931 3.47716E+00
 -1      1932 2.93479E+00
 -1      1933 3.34309E+00
 -1      1934 2.86208E+00
 -1      1935 2.76761E+00
 -1      1936 2.59953E+00
 -1      1937 2.15379E+00
 -1      1938 2.37100E+00
 -1      1939 1.87884E+00
 -1      1940 1.48645E+00
 -1      1941 1.83350E+00
 -1      1942 1.34368E+00
 -1      1943 1.04960E+00
 -1      1944 1.04511E+00
 -1      1945 1.41578E+00
 -1      1946 1.39790E+00
 -1      1947 1.77153E+00
 -1      1948 1.52206E+00
 -1      1949 1.01761E+00
 -1      1950 1.27819E+00
 -1      1951 1.01047E+00
 -1      1952 8.04549E-01
 -1      1953 9.23828E-01
 -1      1954 7.96981E-01
 -1      1955 6.37749E-01
 -1      1956 7.25105E-01
 -1      1957 6.23752E-01
 -1      1958 5.12378E-01
 -1      1959 5.84146E-01
 -1      1960 4.90705E-01
 -1      1961 4.19205E-01
 -1      1962 4.79047E-01
 -1      1963 4.03771E-01
 -1      1964 3.37402E-01
 -1      1965 3.87239E-01
 -1      1966 3.38475E-01
 -1      1967 2.72402E-01
 -1      1968 3.09605E-01
 -1      1969 2.78711E-01
 -1      1970 2.18669E-01
 -1      1971 2.49679E-01
 -1      1972 2.28191E-01
 -1      1973 1.74602E-01
 -1      1974 1.98774E-01
 -1      1975 1.85573E-01
 -1      1976 1.38118E-01
 -1      1977 1.57784E-01
 -1      1978 1.48860E-01
 -1      1979 1.08515E-01
 -1      1980 1.24321E-01
 -1      1981 1.18245E-01
 -1      1982 8.53540E-02
 -1      1983 9.76301E-02
 -1      1984 9.35636E-02
 -1      1985 6.80724E-02
 -1      1986 7.71757E-02
 -1      1987 7.45006E-02
 -1      1988 5.59777E-02
 -1      1989 6.22503E-02
 -1      1990 6.05002E-02
 -1      1991 4.85584E-02
 -1      1992 5.23034E-02
 -1      1993 5.10039E-02
 -1      1994 4.94864E-02
 -1      1995 4.71873E-02
 -1      1996 4.59586E-02
 -1      1997 5.65488E-02
 -1      1998 5.15453E-02
 -1      1999 4.66465E-02
 -1      2000 6.78400E-02
 -1      2001 6.06136E-02
 -1      2002 5.27702E-02
 -1      2003 8.54432E-02
 -1      2004 7.60536E-02
 -1      2005 6.50486E-02
 -1      2006 1.08875E-01
 -1      2007 9.74495E-02
 -1      2008 8.52683E-02
 -1      2009 1.40659E-01
 -1      2010 1.24469E-01
 -1      2011 1.12869E-01
 -1      2012 1.89352E-01
 -1      2013 1.64368E-01
 -1      2014 1.52172E-01
 -1      2015 2.58477E-01
 -1      2016 2.27468E-01
 -1      2017 2.13997E-01
 -1      2018 3.45673E-01
 -1      2019 3.08358E-01
 -1      2020 3.01996E-01
 -1      2021 4.52418E-01
 -1      2022 4.09209E-01
 -1      2023 4.15413E-01
 -1      2024 5.79173E-01
 -1      2025 5.30621E-01
 -1      2026 5.57152E-01
 -1      2027 7.19979E-01
 -1      2028 6.71012E-01
 -1      2029 7.27195E-01
 -1      2030 8.78793E-01
 -1      2031 8.20518E-01
 -1      2032 9.19574E-01
 -1      2033 1.03104E+00
 -1      2034 9.76601E-01
 -1      2035 1.11792E+00
 -1      2036 1.19048E+00
 -1      2037 1.11440E+00
 -1      2038 1.29909E+00
 -1      2039 1.38581E+00
 -1      2040 1.26022E+00
 -1      2041 1.45220E+00
 -1      2042 1.49712E+00
 -1      2043 1.38581E+00
 -1      2044 1.52194E+00
 -1      2045 1.64477E+00
 -1      2046 1.48475E+00
 -1      2047 1.50957E+00
 -1      2048 1.63607E+00
 -1      2049 1.48706E+00
 -1      2050 1.33950E+00
 -1      2051 1.95564E+00
 -1      2052 1.69220E+00
 -1      2053 1.23792E+00
 -1      2054 2.54852E+00
 -1      2055 2.48030E+00
 -1      2056 1.81870E+00
 -1      2057 3.67564E+00
 -1      2058 3.16448E+00
 -1      2059 2.95933E+00
 -1      2060 4.89653E+00
 -1      2061 3.99208E+00
 -1      2062 3.89174E+00
 -1      2063 5.81554E+00
 -1      2064 5.10471E+00
 -1      2065 4.41636E+00
 -1      2066 5.61902E+00
 -1      2067 5.51600E+00
 -1      2068 4.32499E+00
 -1      2069 4.76049E+00
 -1      2070 5.39481E+00
 -1      2071 3.80122E+00
 -1      2072 3.31264E+00
 -1      2073 4.56906E+00
 -1      2074 3.38558E+00
 -1      2075 2.15215E+00
 -1      2076 2.99631E+00
 -1      2077 2.87783E+00
 -1      2078 1.28064E+00
 -1      2079 1.70354E+00
 -1      2080 2.11288E+00
 -1      2081 7.26752E-01
 -1      2082 8.62218E-01
 -1      2083 1.24585E+00
 -1      2084 1.05026E+00
 -1      2085 2.57333E+00
 -1      2086 2.57333E+00
 -1      2087 2.28432E+00
 -1      2088 2.15283E+00
 -1      2089 2.78923E+00
 -1      2090 1.73485E+00
 -1      2091 1.46868E+00
 -1      2092 1.24585E+00
 -1      2093 2.08225E+00
 -1      2094 3.11665E+00
 -1      2095 3.03982E+00
 -1      2096 3.54473E+00
 -1      2097 4.77311E+00
 -1      2098 3.78547E+00
 -1      2099 4.68005E+00
 -1      2100 5.50768E+00
 -1      2101 5.50768E+00
 -1      2102 6.08344E+00
 -1      2103 5.29520E+00
 -1      2104 5.50768E+00
 -1      2105 6.81802E+00
 -1      2106 3.14824E+00
 -1      2107 4.03622E+00
 -1      2108 5.55904E+00
 -1      2109 2.82012E+00
 -1      2110 2.75099E+00
 -1      2111 3.90281E+00
 -1      2112 2.50032E+00
 -1      2113 2.50032E+00
 -1      2114 3.18576E+00
 -1      2115 2.14026E+00
 -1      2116 2.22820E+00
 -1      2117 2.59384E+00
 -1      2118 1.69073E+00
 -1      2119 1.94990E+00
 -1      2120 2.13137E+00
 -1      2121 1.12452E+00
 -1      2122 1.40970E+00
 -1      2123 1.65998E+00
 -1      2124 3.71377E+01
 -1      2125 2.72204E+01
 -1      2126 3.30337E+01
 -1      2127 3.30337E+01
 -1      2128 3.19388E+01
 -1      2129 3.30337E+01
 -1      2130 1.82504E+01
 -1      2131 3.14811E+01
 -1      2132 1.00714E+01
 -1      2133 1.48034E+01
 -1      2134 1.03457E+00
 -1      2135 1.20944E+00
 -1      2136 9.79751E-01
 -1      2137 8.53203E-01
 -1      2138 1.14731E+01
 -1      2139 1.13365E+01
 -1      2140 1.17479E+01
 -1      2141 1.21612E+01
 -1      2142 1.17186E+01
 -1      2143 1.14335E+01
 -1      2144 1.09850E+01
 -1      2145 1.01967E+01
 -1      2146 1.04704E+01
 -1      2147 1.07460E+01
 -1      2148 9.37449E+00
 -1      2149 2.65833E+01
 -1      2150 1.44768E+01
 -1      2151 1.02606E+01
 -1      2152 2.88057E+01
 -1      2153 3.12909E+01
 -1      2154 2.36254E+01
 -1      2155 2.77235E+01
 -1      2156 2.92172E+01
 -1      2157 2.92172E+01
 -1      2158 2.88736E+01
 -1      2159 2.92172E+01
 -1      2160 2.80612E+01
 -1      2161 2.27266E+01
 -1      2162 3.02705E+01
 -1      2163 2.93232E+01
 -1      2164 2.13937E+01
 -1      2165 1.31795E+01
 -1      2166 2.51791E+01
 -1      2167 9.03922E+00
 -1      2168 1.05538E+01
 -1      2169 9.84728E+00
 -1      2170 1.02303E+01
 -1      2171 9.62706E+00
 -1      2172 1.13098E+01
 -1      2173 1.09943E+01
 -1      2174 9.16126E+00
 -1      2175 1.16735E+01
 -1      2176 1.21296E+01
 -1      2177 1.11927E+01
 -1      2178 1.10844E+01
 -1      2179 1.04754E+01
 -1      2180 1.06993E+01
 -1      2181 8.90608E+00
 -1      2182 9.08235E+00
 -1      2183 1.75468E+01
 -1      2184 1.05750E+01
 -1      2185 2.61078E+01
 -1      2186 2.14723E+01
 -1      2187 3.05904E+01
 -1      2188 3.25019E+01
 -1      2189 3.01030E+01
 -1      2190 3.06930E+01
 -1      2191 1.03659E+01
 -1      2192 9.55584E+00
 -1      2193 1.24602E+01
 -1      2194 2.91020E+00
 -1      2195 8.49762E+00
 -1      2196 8.95263E+00
 -1      2197 2.10448E+00
 -1      2198 3.19388E+01
 -1      2199 3.66571E+01
 -1      2200 1.09808E+00
 -1      2201 2.15638E+01
 -1      2202 3.37264E+01
 -1      2203 3.06930E+01
 -1      2204 2.41963E+01
 -1      2205 1.38768E+01
 -1      2206 8.28244E+00
 -1      2207 8.00664E+00
 -1      2208 9.89315E+00
 -1      2209 1.07451E+01
 -1      2210 7.80942E+00
 -1      2211 2.48699E+01
 -1      2212 1.72551E+01
 -1      2213 1.21637E+01
 -1      2214 2.62788E+01
 -1      2215 3.24259E+01
 -1      2216 2.68341E+01
 -1      2217 1.86991E+01
 -1      2218 9.42243E+00
 -1      2219 1.06113E+01
 -1      2220 8.51045E+00
 -1      2221 6.48793E+00
 -1      2222 5.66572E+00
 -1      2223 2.23245E+01
 -1      2224 1.09757E+01
 -1      2225 1.08877E+00
 -1      2226 1.48065E+00
 -1      2227 5.59245E-01
 -1      2228 5.90815E-01
 -1      2229 6.04828E-01
 -1      2230 6.54976E-01
 -1      2231 5.00598E-01
 -1      2232 5.11226E-01
 -1      2233 5.09625E-01
 -1      2234 5.46061E-01
 -1      2235 5.24205E-01
 -1      2236 4.44588E-01
 -1      2237 5.94243E-01
 -1      2238 5.60865E-01
 -1      2239 4.72371E-01
 -1      2240 6.53897E-01
 -1      2241 6.06287E-01
 -1      2242 4.99219E-01
 -1      2243 7.21630E-01
 -1      2244 6.53897E-01
 -1      2245 5.11262E-01
 -1      2246 8.84915E-01
 -1      2247 7.70737E-01
 -1      2248 5.60369E-01
 -1      2249 8.90765E-01
 -1      2250 1.01047E+00
 -1      2251 9.69065E-01
 -1      2252 1.26596E+00
 -1      2253 1.03497E+00
 -1      2254 6.25552E+00
 -1      2255 6.77113E+00
 -1      2256 9.84314E-01
 -1      2257 8.04128E-01
 -1      2258 7.52341E-01
 -1      2259 7.47455E-01
 -1      2260 6.21870E-01
 -1      2261 6.45014E-01
 -1      2262 5.65635E-01
 -1      2263 5.06949E-01
 -1      2264 5.32106E-01
 -1      2265 4.57566E-01
 -1      2266 4.08944E-01
 -1      2267 4.26488E-01
 -1      2268 3.81524E-01
 -1      2269 3.38674E-01
 -1      2270 3.49687E-01
 -1      2271 3.13601E-01
 -1      2272 2.80845E-01
 -1      2273 2.97194E-01
 -1      2274 2.57126E-01
 -1      2275 2.29451E-01
 -1      2276 2.48403E-01
 -1      2277 2.10175E-01
 -1      2278 1.86404E-01
 -1      2279 2.05408E-01
 -1      2280 1.69560E-01
 -1      2281 1.51849E-01
 -1      2282 1.69287E-01
 -1      2283 1.37187E-01
 -1      2284 1.22539E-01
 -1      2285 1.37780E-01
 -1      2286 1.10184E-01
 -1      2287 9.79254E-02
 -1      2288 1.10761E-01
 -1      2289 8.82435E-02
 -1      2290 7.82565E-02
 -1      2291 8.87233E-02
 -1      2292 7.03879E-02
 -1      2293 6.24309E-02
 -1      2294 7.11728E-02
 -1      2295 5.57717E-02
 -1      2296 4.95300E-02
 -1      2297 5.66450E-02
 -1      2298 4.41866E-02
 -1      2299 3.92990E-02
 -1      2300 4.46424E-02
 -1      2301 3.63119E-02
 -1      2302 3.58232E-02
 -1      2303 3.63119E-02
 -1      2304 3.59822E-02
 -1      2305 3.77114E-02
 -1      2306 3.34838E-02
 -1      2307 4.15373E-02
 -1      2308 4.74334E-02
 -1      2309 3.74688E-02
 -1      2310 5.35175E-02
 -1      2311 6.19245E-02
 -1      2312 4.73789E-02
 -1      2313 7.52402E-02
 -1      2314 8.64197E-02
 -1      2315 6.67787E-02
 -1      2316 1.03285E-01
 -1      2317 1.20524E-01
 -1      2318 9.69595E-02
 -1      2319 1.41505E-01
 -1      2320 1.65558E-01
 -1      2321 1.34806E-01
 -1      2322 1.90990E-01
 -1      2323 2.20072E-01
 -1      2324 1.81219E-01
 -1      2325 2.49851E-01
 -1      2326 2.83434E-01
 -1      2327 2.36431E-01
 -1      2328 3.16733E-01
 -1      2329 3.53176E-01
 -1      2330 2.99509E-01
 -1      2331 3.88063E-01
 -1      2332 4.24091E-01
 -1      2333 3.67695E-01
 -1      2334 4.57105E-01
 -1      2335 4.88779E-01
 -1      2336 4.35597E-01
 -1      2337 5.21610E-01
 -1      2338 5.55966E-01
 -1      2339 5.01442E-01
 -1      2340 5.77710E-01
 -1      2341 6.17661E-01
 -1      2342 5.56017E-01
 -1      2343 6.42050E-01
 -1      2344 6.59710E-01
 -1      2345 6.02149E-01
 -1      2346 6.71756E-01
 -1      2347 6.46206E-01
 -1      2348 6.38584E-01
 -1      2349 6.34960E-01
 -1      2350 6.04293E-01
 -1      2351 6.39384E-01
 -1      2352 6.96527E-01
 -1      2353 6.79240E-01
 -1      2354 7.20372E-01
 -1      2355 7.44411E-01
 -1      2356 9.71833E-01
 -1      2357 8.77777E-01
 -1      2358 1.18636E+00
 -1      2359 1.52649E+00
 -1      2360 1.15747E+00
 -1      2361 1.74955E+00
 -1      2362 2.01616E+00
 -1      2363 1.59506E+00
 -1      2364 2.17719E+00
 -1      2365 2.48118E+00
 -1      2366 1.97916E+00
 -1      2367 2.64681E+00
 -1      2368 2.78515E+00
 -1      2369 2.30582E+00
 -1      2370 2.78106E+00
 -1      2371 2.71559E+00
 -1      2372 2.46736E+00
 -1      2373 2.72013E+00
 -1      2374 2.68701E+00
 -1      2375 2.46781E+00
 -1      2376 2.57314E+00
 -1      2377 2.43908E+00
 -1      2378 2.35848E+00
 -1      2379 2.35459E+00
 -1      2380 2.09204E+00
 -1      2381 2.16012E+00
 -1      2382 2.06603E+00
 -1      2383 1.79108E+00
 -1      2384 2.04962E+00
 -1      2385 5.44309E-01
 -1      2386 6.23752E-01
 -1      2387 4.37102E-01
 -1      2388 4.90705E-01
 -1      2389 4.90705E-01
 -1      2390 3.70441E-01
 -1      2391 4.03771E-01
 -1      2392 4.03771E-01
 -1      2393 3.06509E-01
 -1      2394 3.38475E-01
 -1      2395 3.38475E-01
 -1      2396 2.50914E-01
 -1      2397 2.78711E-01
 -1      2398 2.78711E-01
 -1      2399 2.05834E-01
 -1      2400 2.28556E-01
 -1      2401 2.28556E-01
 -1      2402 1.66325E-01
 -1      2403 1.86220E-01
 -1      2404 1.86586E-01
 -1      2405 1.32778E-01
 -1      2406 1.49596E-01
 -1      2407 1.50244E-01
 -1      2408 1.06332E-01
 -1      2409 1.20129E-01
 -1      2410 1.20865E-01
 -1      2411 8.50182E-02
 -1      2412 9.59029E-02
 -1      2413 9.77866E-02
 -1      2414 6.81529E-02
 -1      2415 7.63311E-02
 -1      2416 7.86704E-02
 -1      2417 5.52138E-02
 -1      2418 6.10359E-02
 -1      2419 6.28665E-02
 -1      2420 4.57250E-02
 -1      2421 4.93993E-02
 -1      2422 4.99350E-02
 -1      2423 4.10184E-02
 -1      2424 4.23895E-02
 -1      2425 4.07849E-02
 -1      2426 4.22018E-02
 -1      2427 4.01429E-02
 -1      2428 3.65737E-02
 -1      2429 4.97838E-02
 -1      2430 4.57190E-02
 -1      2431 3.92154E-02
 -1      2432 6.43291E-02
 -1      2433 5.61156E-02
 -1      2434 4.90643E-02
 -1      2435 8.70620E-02
 -1      2436 7.50558E-02
 -1      2437 6.61228E-02
 -1      2438 1.21608E-01
 -1      2439 1.06014E-01
 -1      2440 9.58012E-02
 -1      2441 1.70581E-01
 -1      2442 1.46872E-01
 -1      2443 1.40017E-01
 -1      2444 2.41928E-01
 -1      2445 2.03811E-01
 -1      2446 1.98511E-01
 -1      2447 3.34797E-01
 -1      2448 2.84915E-01
 -1      2449 2.74729E-01
 -1      2450 4.52832E-01
 -1      2451 3.89296E-01
 -1      2452 3.72215E-01
 -1      2453 5.98412E-01
 -1      2454 5.20209E-01
 -1      2455 4.94092E-01
 -1      2456 7.70831E-01
 -1      2457 6.78991E-01
 -1      2458 6.42048E-01
 -1      2459 9.63338E-01
 -1      2460 8.62798E-01
 -1      2461 8.14595E-01
 -1      2462 1.15890E+00
 -1      2463 1.06109E+00
 -1      2464 1.00431E+00
 -1      2465 1.33435E+00
 -1      2466 1.25098E+00
 -1      2467 1.19415E+00
 -1      2468 1.47910E+00
 -1      2469 1.40936E+00
 -1      2470 1.36125E+00
 -1      2471 1.55351E+00
 -1      2472 1.55351E+00
 -1      2473 1.51067E+00
 -1      2474 1.65713E+00
 -1      2475 1.66950E+00
 -1      2476 1.70107E+00
 -1      2477 1.58117E+00
 -1      2478 1.73888E+00
 -1      2479 1.89880E+00
 -1      2480 1.75365E+00
 -1      2481 1.69752E+00
 -1      2482 2.09690E+00
 -1      2483 2.59181E+00
 -1      2484 2.06716E+00
 -1      2485 2.52676E+00
 -1      2486 3.78168E+00
 -1      2487 3.16571E+00
 -1      2488 3.41416E+00
 -1      2489 6.00609E+00
 -1      2490 5.68965E+00
 -1      2491 5.89603E+00
 -1      2492 5.28575E+00
 -1      2493 5.07758E+00
 -1      2494 6.87549E+00
 -1      2495 6.75375E+00
 -1      2496 7.05330E+00
 -1      2497 7.71452E+00
 -1      2498 3.80122E+00
 -1      2499 4.02544E+00
 -1      2500 6.75375E+00
 -1      2501 3.31573E+00
 -1      2502 3.50715E+00
 -1      2503 3.73137E+00
 -1      2504 2.89225E+00
 -1      2505 3.20858E+00
 -1      2506 3.33015E+00
 -1      2507 2.36608E+00
 -1      2508 2.81469E+00
 -1      2509 3.14544E+00
 -1      2510 1.66427E+00
 -1      2511 6.50695E+00
 -1      2512 5.83814E+00
 -1      2513 7.24153E+00
 -1      2514 6.50695E+00
 -1      2515 7.66504E+00
 -1      2516 3.20523E+00
 -1      2517 2.91622E+00
 -1      2518 4.53790E+00
 -1      2519 4.07140E+00
 -1      2520 4.19839E+00
 -1      2521 1.06654E+01
 -1      2522 1.06654E+01
 -1      2523 1.10889E+01
 -1      2524 5.95858E+00
 -1      2525 7.21756E+00
 -1      2526 1.10649E+01
 -1      2527 5.43112E+00
 -1      2528 5.82837E+00
 -1      2529 7.48689E+00
 -1      2530 3.69984E+00
 -1      2531 4.01964E+00
 -1      2532 5.94520E+00
 -1      2533 2.59994E+00
 -1      2534 2.87206E+00
 -1      2535 3.70594E+00
 -1      2536 2.15145E+00
 -1      2537 2.34181E+00
 -1      2538 2.62002E+00
 -1      2539 1.58296E+00
 -1      2540 1.86399E+00
 -1      2541 2.07443E+00
 -1      2542 3.66571E+01
 -1      2543 3.66571E+01
 -1      2544 1.38860E+01
 -1      2545 1.95427E+01
 -1      2546 7.03196E-01
 -1      2547 7.96981E-01
 -1      2548 6.23752E-01
 -1      2549 1.32598E+00
 -1      2550 3.37264E+01
 -1      2551 3.07956E+01
 -1      2552 3.37264E+01
 -1      2553 2.34075E+01
 -1      2554 2.81258E+01
 -1      2555 1.57297E+01
 -1      2556 1.67600E+00
 -1      2557 1.30043E+00
 -1      2558 8.37471E-01
 -1      2559 9.60193E-01
 -1      2560 2.60803E+01
 -1      2561 2.59777E+01
 -1      2562 2.16574E+01
 -1      2563 2.78044E+01
 -1      2564 7.98909E+00
 -1      2565 9.23734E+00
 -1      2566 5.22562E-01
 -1      2567 5.44693E-01
 -1      2568 4.72033E-01
 -1      2569 4.44545E-01
 -1      2570 1.03907E+01
 -1      2571 9.70265E+00
 -1      2572 1.00764E+01
 -1      2573 1.03907E+01
 -1      2574 8.64303E+00
 -1      2575 1.98115E+01
 -1      2576 2.08937E+01
 -1      2577 1.04922E+01
 -1      2578 6.76133E+00
 -1      2579 9.59029E+00
 -1      2580 1.01794E+01
 -1      2581 1.77956E+01
 -1      2582 1.30880E+01
 -1      2583 9.58870E+00
 -1      2584 2.73242E+01
 -1      2585 2.17324E+01
 -1      2586 3.24259E+01
 -1      2587 3.24259E+01
 -1      2588 1.99966E+01
 -1      2589 1.87346E+01
 -1      2590 7.65391E+00
 -1      2591 1.02796E+01
 -1      2592 6.11020E+00
 -1      2593 5.52237E+00
 -1      2594 5.95470E+00
 -1      2595 7.81426E+00
 -1      2596 7.05026E+00
 -1      2597 9.55398E+00
 -1      2598 8.73417E+00
 -1      2599 8.59954E+00
 -1      2600 9.09298E+00
 -1      2601 8.29667E+00
 -1      2602 5.68240E+00
 -1      2603 7.07547E+00
 -1      2604 7.40732E+00
 -1      2605 5.73844E+00
 -1      2606 1.38354E+01
 -1      2607 9.90996E+00
 -1      2608 7.36596E+00
 -1      2609 2.18874E+01
 -1      2610 1.54933E+01
 -1      2611 1.72746E+01
 -1      2612 7.69167E+00
 -1      2613 6.72106E+00
 -1      2614 1.62091E+00
 -1      2615 1.76418E+00
 -1      2616 1.32858E+00
 -1      2617 1.18762E+00
 -1      2618 8.44393E+00
 -1      2619 1.18909E+01
 -1      2620 6.20183E+00
 -1      2621 7.47108E+00
 -1      2622 5.22964E-01
 -1      2623 6.63330E-01
 -1      2624 7.21190E-01
 -1      2625 7.96981E-01
 -1      2626 1.24412E+00
 -1      2627 2.60803E+01
 -1      2628 1.15265E+01
 -1      2629 2.36608E+00
 -1      2630 6.36480E+00
 -1      2631 2.78405E+00
 -1      2632 6.27530E+00
 -1      2633 9.62351E+00
 -1      2634 7.61261E+00
 -1      2635 8.23806E+00
 -1      2636 4.76321E+00
 -1      2637 9.68677E-01
 -1      2638 6.99699E+00
 -1      2639 6.81190E+00
 -1      2640 5.31074E+00
 -1      2641 8.91505E-01
 -1      2642 2.02602E+01
 -1      2643 2.78044E+01
 -1      2644 1.61482E+01
 -1      2645 1.34891E+01
 -1      2646 1.07476E+01
 -1      2647 1.52826E+01
 -1      2648 1.88289E+01
 -1      2649 1.83388E+01
 -1      2650 1.69080E+01
 -1      2651 9.97036E+00
 -1      2652 9.86977E+00
 -1      2653 3.20005E+00
 -1      2654 5.98081E+00
 -1      2655 4.25432E+00
 -1      2656 4.71986E+00
 -1      2657 5.52880E+00
 -1      2658 4.66476E+00
 -1      2659 5.76037E+00
 -1      2660 9.48206E+00
 -1      2661 2.73242E+01
 -1      2662 6.62317E+00
 -1      2663 1.52999E+00
 -1      2664 1.58296E+00
 -1      2665 1.78697E+00
 -1      2666 1.67276E+00
 -1      2667 4.80727E+00
 -1      2668 1.90529E+00
 -1      2669 4.22846E-01
 -1      2670 4.08042E-01
 -1      2671 4.00194E-01
 -1      2672 3.87215E-01
 -1      2673 3.50669E-01
 -1      2674 4.36646E-01
 -1      2675 4.36646E-01
 -1      2676 4.73809E-01
 -1      2677 4.24703E-01
 -1      2678 3.50087E-01
 -1      2679 7.17292E-01
 -1      2680 7.95592E-01
 -1      2681 4.48222E+00
 -1      2682 6.15502E+00
 -1      2683 7.99133E+00
 -1      2684 5.98035E+00
 -1      2685 8.28420E-01
 -1      2686 1.03650E+01
 -1      2687 8.70712E+00
 -1      2688 5.49214E-01
 -1      2689 4.92541E-01
 -1      2690 4.86074E-01
 -1      2691 4.29839E-01
 -1      2692 3.90273E-01
 -1      2693 4.09293E-01
 -1      2694 3.59911E-01
 -1      2695 3.63261E-01
 -1      2696 3.35092E-01
 -1      2697 3.07673E-01
 -1      2698 3.17897E-01
 -1      2699 2.82841E-01
 -1      2700 2.57768E-01
 -1      2701 2.68247E-01
 -1      2702 2.42164E-01
 -1      2703 2.18445E-01
 -1      2704 2.27811E-01
 -1      2705 2.02217E-01
 -1      2706 1.82941E-01
 -1      2707 1.95978E-01
 -1      2708 1.67469E-01
 -1      2709 1.50625E-01
 -1      2710 1.64278E-01
 -1      2711 1.36681E-01
 -1      2712 1.22018E-01
 -1      2713 1.34863E-01
 -1      2714 1.10455E-01
 -1      2715 9.80997E-02
 -1      2716 1.09357E-01
 -1      2717 8.87233E-02
 -1      2718 7.90415E-02
 -1      2719 8.84178E-02
 -1      2720 7.11728E-02
 -1      2721 6.33042E-02
 -1      2722 7.11728E-02
 -1      2723 5.66450E-02
 -1      2724 4.99858E-02
 -1      2725 5.66450E-02
 -1      2726 4.43941E-02
 -1      2727 3.90507E-02
 -1      2728 4.43941E-02
 -1      2729 3.46883E-02
 -1      2730 3.17012E-02
 -1      2731 3.44400E-02
 -1      2732 2.83226E-02
 -1      2733 2.84816E-02
 -1      2734 2.66990E-02
 -1      2735 3.07032E-02
 -1      2736 3.45291E-02
 -1      2737 2.55420E-02
 -1      2738 4.14763E-02
 -1      2739 4.75605E-02
 -1      2740 3.47107E-02
 -1      2741 5.88226E-02
 -1      2742 7.21383E-02
 -1      2743 5.29200E-02
 -1      2744 8.62365E-02
 -1      2745 1.03102E-01
 -1      2746 7.82803E-02
 -1      2747 1.20661E-01
 -1      2748 1.41642E-01
 -1      2749 1.09938E-01
 -1      2750 1.63221E-01
 -1      2751 1.88653E-01
 -1      2752 1.49076E-01
 -1      2753 2.14645E-01
 -1      2754 2.44424E-01
 -1      2755 1.96646E-01
 -1      2756 2.74913E-01
 -1      2757 3.08212E-01
 -1      2758 2.53127E-01
 -1      2759 3.42757E-01
 -1      2760 3.77644E-01
 -1      2761 3.18161E-01
 -1      2762 4.16082E-01
 -1      2763 4.49097E-01
 -1      2764 3.91144E-01
 -1      2765 4.88330E-01
 -1      2766 5.21161E-01
 -1      2767 4.68815E-01
 -1      2768 5.56017E-01
 -1      2769 5.77760E-01
 -1      2770 5.42904E-01
 -1      2771 6.20766E-01
 -1      2772 6.45155E-01
 -1      2773 6.20766E-01
 -1      2774 6.98914E-01
 -1      2775 7.10960E-01
 -1      2776 7.17530E-01
 -1      2777 7.62637E-01
 -1      2778 7.51391E-01
 -1      2779 8.22967E-01
 -1      2780 7.90173E-01
 -1      2781 8.82407E-01
 -1      2782 9.13425E-01
 -1      2783 1.05822E+00
 -1      2784 1.12339E+00
 -1      2785 1.12802E+00
 -1      2786 1.26208E+00
 -1      2787 1.47660E+00
 -1      2788 1.44252E+00
 -1      2789 1.60265E+00
 -1      2790 1.82572E+00
 -1      2791 1.70726E+00
 -1      2792 1.95230E+00
 -1      2793 2.11334E+00
 -1      2794 1.95990E+00
 -1      2795 2.30582E+00
 -1      2796 2.47145E+00
 -1      2797 2.27897E+00
 -1      2798 2.88807E+00
 -1      2799 2.88398E+00
 -1      2800 2.88807E+00
 -1      2801 2.90406E+00
 -1      2802 2.90860E+00
 -1      2803 3.32477E+00
 -1      2804 2.61579E+00
 -1      2805 2.50192E+00
 -1      2806 3.05204E+00
 -1      2807 2.24461E+00
 -1      2808 2.16012E+00
 -1      2809 2.50192E+00
 -1      2810 2.22786E+00
 -1      2811 2.20184E+00
 -1      2812 2.31235E+00
 -1      2813 3.48808E-01
 -1      2814 3.82138E-01
 -1      2815 3.93236E+00
 -1      2816 3.87631E+00
 -1      2817 4.22720E+00
 -1      2818 5.75127E+00
 -1      2819 4.16475E-01
 -1      2820 4.70079E-01
 -1      2821 3.61512E-01
 -1      2822 2.41857E-01
 -1      2823 2.69654E-01
 -1      2824 2.00884E-01
 -1      2825 2.23242E-01
 -1      2826 2.14184E-01
 -1      2827 1.64254E-01
 -1      2828 1.83867E-01
 -1      2829 1.78553E-01
 -1      2830 1.33589E-01
 -1      2831 1.50318E-01
 -1      2832 1.47599E-01
 -1      2833 1.08579E-01
 -1      2834 1.21228E-01
 -1      2835 1.21302E-01
 -1      2836 8.75553E-02
 -1      2837 9.79844E-02
 -1      2838 9.83474E-02
 -1      2839 7.00080E-02
 -1      2840 7.86950E-02
 -1      2841 7.88928E-02
 -1      2842 5.57495E-02
 -1      2843 6.28665E-02
 -1      2844 6.28910E-02
 -1      2845 4.41205E-02
 -1      2846 4.99350E-02
 -1      2847 4.99350E-02
 -1      2848 3.64129E-02
 -1      2849 3.97485E-02
 -1      2850 3.97485E-02
 -1      2851 3.23041E-02
 -1      2852 3.31797E-02
 -1      2853 3.21433E-02
 -1      2854 3.74508E-02
 -1      2855 3.39336E-02
 -1      2856 3.05395E-02
 -1      2857 4.80135E-02
 -1      2858 4.16817E-02
 -1      2859 3.64000E-02
 -1      2860 7.08915E-02
 -1      2861 6.01648E-02
 -1      2862 5.27822E-02
 -1      2863 1.05687E-01
 -1      2864 8.67352E-02
 -1      2865 8.07772E-02
 -1      2866 1.51624E-01
 -1      2867 1.26360E-01
 -1      2868 1.17294E-01
 -1      2869 2.11668E-01
 -1      2870 1.78438E-01
 -1      2871 1.64780E-01
 -1      2872 2.89097E-01
 -1      2873 2.46110E-01
 -1      2874 2.26036E-01
 -1      2875 3.87303E-01
 -1      2876 3.32804E-01
 -1      2877 3.04185E-01
 -1      2878 5.09380E-01
 -1      2879 4.42003E-01
 -1      2880 4.02591E-01
 -1      2881 6.57354E-01
 -1      2882 5.76775E-01
 -1      2883 5.24685E-01
 -1      2884 8.30895E-01
 -1      2885 7.38927E-01
 -1      2886 6.73654E-01
 -1      2887 1.02533E+00
 -1      2888 9.27573E-01
 -1      2889 8.51906E-01
 -1      2890 1.22971E+00
 -1      2891 1.13762E+00
 -1      2892 1.06088E+00
 -1      2893 1.42757E+00
 -1      2894 1.35256E+00
 -1      2895 1.29603E+00
 -1      2896 1.63026E+00
 -1      2897 1.55585E+00
 -1      2898 1.54716E+00
 -1      2899 1.87953E+00
 -1      2900 1.76354E+00
 -1      2901 1.80872E+00
 -1      2902 2.27465E+00
 -1      2903 2.19290E+00
 -1      2904 2.25538E+00
 -1      2905 2.68480E+00
 -1      2906 2.56845E+00
 -1      2907 2.86255E+00
 -1      2908 3.35081E+00
 -1      2909 3.03730E+00
 -1      2910 3.50885E+00
 -1      2911 4.25794E+00
 -1      2912 3.68405E+00
 -1      2913 4.19460E+00
 -1      2914 6.81190E+00
 -1      2915 4.90393E+00
 -1      2916 7.71452E+00
 -1      2917 8.64303E+00
 -1      2918 9.48206E+00
 -1      2919 5.26302E+00
 -1      2920 7.99133E+00
 -1      2921 3.33015E+00
 -1      2922 3.43730E+00
 -1      2923 3.14544E+00
 -1      2924 3.22300E+00
 -1      2925 3.33015E+00
 -1      2926 3.27761E+00
 -1      2927 6.46363E+00
 -1      2928 5.16339E+00
 -1      2929 5.08491E+00
 -1      2930 4.21874E+00
 -1      2931 4.16413E+00
 -1      2932 5.18374E+00
 -1      2933 8.54490E+00
 -1      2934 8.67511E+00
 -1      2935 5.96999E+00
 -1      2936 7.38147E+00
 -1      2937 3.33871E+00
 -1      2938 4.16649E+00
 -1      2939 5.60276E+00
 -1      2940 2.55647E+00
 -1      2941 2.81460E+00
 -1      2942 3.27516E+00
 -1      2943 1.72723E+01
 -1      2944 2.58036E+01
 -1      2945 2.58036E+01
 -1      2946 7.01632E-01
 -1      2947 6.67156E-01
 -1      2948 2.55849E+01
 -1      2949 2.26542E+01
 -1      2950 5.03930E-01
 -1      2951 5.83374E-01
 -1      2952 4.29701E-01
 -1      2953 2.89579E-01
 -1      2954 3.21545E-01
 -1      2955 2.99912E-01
 -1      2956 2.52724E-01
 -1      2957 6.02682E-01
 -1      2958 5.52027E-01
 -1      2959 3.99554E-01
 -1      2960 4.66842E-01
 -1      2961 4.36646E-01
 -1      2962 4.24603E-01
 -1      2963 3.60274E-01
 -1      2964 3.62030E-01
 -1      2965 6.09031E-01
 -1      2966 7.02815E-01
 -1      2967 5.29343E-01
 -1      2968 4.89209E-01
 -1      2969 1.55448E+01
 -1      2970 1.84675E+01
 -1      2971 7.21190E-01
 -1      2972 8.13062E+00
 -1      2973 1.00147E+01
 -1      2974 4.22747E-01
 -1      2975 4.36760E-01
 -1      2976 4.19661E+00
 -1      2977 3.25655E+00
 -1      2978 2.36444E+01
 -1      2979 1.85427E+01
 -1      2980 9.94196E+00
 -1      2981 7.34617E+00
 -1      2982 6.16844E+00
 -1      2983 5.24853E+00
 -1      2984 1.95661E+01
 -1      2985 2.41876E+01
 -1      2986 7.31002E+00
 -1      2987 9.30516E+00
 -1      2988 1.53169E+01
 -1      2989 1.22188E+01
 -1      2990 4.40830E+00
 -1      2991 6.53984E+00
 -1      2992 1.90529E+00
 -1      2993 1.90529E+00
 -1      2994 2.02361E+00
 -1      2995 6.51648E+00
 -1      2996 7.01379E+00
 -1      2997 7.74695E+00
 -1      2998 5.24431E+00
 -1      2999 1.55490E+01
 -1      3000 1.14587E+01
 -1      3001 1.55632E+01
 -1      3002 1.32410E+01
 -1      3003 4.46775E-01
 -1      3004 4.55128E-01
 -1      3005 3.68924E-01
 -1      3006 6.58547E+00
 -1      3007 3.42582E-01
 -1      3008 3.86976E-01
 -1      3009 3.99912E-01
 -1      3010 1.27987E+01
 -1      3011 1.10061E+01
 -1      3012 8.95039E+00
 -1      3013 5.59042E+00
 -1      3014 2.20184E+00
 -1      3015 3.84170E+00
 -1      3016 5.24011E+00
 -1      3017 1.38442E+01
 -1      3018 5.76648E-01
 -1      3019 8.63939E+00
 -1      3020 3.35229E+00
 -1      3021 4.46839E+00
 -1      3022 5.17382E+00
 -1      3023 9.48206E+00
 -1      3024 3.82264E+00
 -1      3025 5.06022E+00
 -1      3026 3.79973E+00
 -1      3027 3.52857E+00
 -1      3028 3.52857E+00
 -1      3029 1.48507E+01
 -1      3030 4.20751E+00
 -1      3031 9.59846E+00
 -1      3032 9.59846E+00
 -1      3033 6.67194E+00
 -1      3034 5.29730E+00
 -1      3035 6.74147E+00
 -1      3036 6.45787E+00
 -1      3037 2.19275E+00
 -1      3038 4.40981E-01
 -1      3039 8.90788E+00
 -1      3040 1.42381E+01
 -1      3041 2.23795E+01
 -1      3042 5.17382E+00
 -1      3043 1.08707E+01
 -1      3044 1.47355E+01
 -1      3045 1.65096E+01
 -1      3046 1.31159E+01
 -1      3047 1.28298E+01
 -1      3048 4.31335E+00
 -1      3049 9.97628E+00
 -1      3050 1.54061E+01
 -1      3051 6.11363E+00
 -1      3052 4.07525E-01
 -1      3053 4.22077E-01
 -1      3054 3.58239E-01
 -1      3055 3.49956E-01
 -1      3056 3.74188E+00
 -1      3057 1.07041E+01
 -1      3058 5.31317E-01
 -1      3059 6.58422E+00
 -1      3060 8.31091E+00
 -1      3061 2.36313E+00
 -1      3062 2.53227E+00
 -1      3063 2.72685E+00
 -1      3064 2.54136E+00
 -1      3065 1.19006E+01
 -1      3066 1.36097E+01
 -1      3067 2.44633E+01
 -1      3068 9.96721E+00
 -1      3069 1.76642E+01
 -1      3070 8.56969E+00
 -1      3071 7.47595E+00
 -1      3072 2.89482E-01
 -1      3073 3.01426E-01
 -1      3074 1.33910E+01
 -1      3075 2.81470E+00
 -1      3076 3.96644E+00
 -1      3077 3.19465E-01
 -1      3078 2.98920E-01
 -1      3079 2.95443E-01
 -1      3080 2.70625E-01
 -1      3081 2.51647E-01
 -1      3082 2.59728E-01
 -1      3083 2.34896E-01
 -1      3084 2.37275E-01
 -1      3085 2.20736E-01
 -1      3086 2.05132E-01
 -1      3087 2.12217E-01
 -1      3088 1.91834E-01
 -1      3089 1.75606E-01
 -1      3090 1.84760E-01
 -1      3091 1.65022E-01
 -1      3092 1.49551E-01
 -1      3093 1.60878E-01
 -1      3094 1.38423E-01
 -1      3095 1.24479E-01
 -1      3096 1.39167E-01
 -1      3097 1.13754E-01
 -1      3098 1.02192E-01
 -1      3099 1.17314E-01
 -1      3100 9.23739E-02
 -1      3101 8.29975E-02
 -1      3102 9.67716E-02
 -1      3103 7.42919E-02
 -1      3104 6.64233E-02
 -1      3105 7.82480E-02
 -1      3106 5.88202E-02
 -1      3107 5.21610E-02
 -1      3108 6.19393E-02
 -1      3109 4.55064E-02
 -1      3110 3.99147E-02
 -1      3111 4.76816E-02
 -1      3112 3.39525E-02
 -1      3113 2.95901E-02
 -1      3114 3.50648E-02
 -1      3115 2.39855E-02
 -1      3116 2.06069E-02
 -1      3117 2.34979E-02
 -1      3118 2.00171E-02
 -1      3119 2.22387E-02
 -1      3120 1.73036E-02
 -1      3121 2.76135E-02
 -1      3122 3.45607E-02
 -1      3123 2.20887E-02
 -1      3124 4.37745E-02
 -1      3125 5.50366E-02
 -1      3126 3.66773E-02
 -1      3127 6.64996E-02
 -1      3128 8.05978E-02
 -1      3129 5.73542E-02
 -1      3130 9.56131E-02
 -1      3131 1.13172E-01
 -1      3132 8.38325E-02
 -1      3133 1.31814E-01
 -1      3134 1.53393E-01
 -1      3135 1.17489E-01
 -1      3136 1.75835E-01
 -1      3137 2.01827E-01
 -1      3138 1.58573E-01
 -1      3139 2.27930E-01
 -1      3140 2.58418E-01
 -1      3141 2.07118E-01
 -1      3142 2.89171E-01
 -1      3143 3.23716E-01
 -1      3144 2.63974E-01
 -1      3145 3.64118E-01
 -1      3146 4.02556E-01
 -1      3147 3.35129E-01
 -1      3148 4.49200E-01
 -1      3149 4.88433E-01
 -1      3150 4.22174E-01
 -1      3151 5.39738E-01
 -1      3152 5.74594E-01
 -1      3153 5.20123E-01
 -1      3154 6.29051E-01
 -1      3155 6.72057E-01
 -1      3156 6.25885E-01
 -1      3157 7.34774E-01
 -1      3158 7.88534E-01
 -1      3159 7.43060E-01
 -1      3160 8.90203E-01
 -1      3161 9.41880E-01
 -1      3162 9.07447E-01
 -1      3163 1.06715E+00
 -1      3164 1.10593E+00
 -1      3165 1.13439E+00
 -1      3166 1.22574E+00
 -1      3167 1.40155E+00
 -1      3168 1.37946E+00
 -1      3169 1.62370E+00
 -1      3170 1.76239E+00
 -1      3171 1.72142E+00
 -1      3172 2.16831E+00
 -1      3173 2.29436E+00
 -1      3174 2.34949E+00
 -1      3175 2.15029E+00
 -1      3176 2.27688E+00
 -1      3177 2.61135E+00
 -1      3178 3.16729E+00
 -1      3179 3.58391E+00
 -1      3180 3.34485E+00
 -1      3181 3.05204E+00
 -1      3182 2.75922E+00
 -1      3183 2.50192E+00
 -1      3184 3.05204E+00
 -1      3185 2.52980E+00
 -1      3186 2.59754E+00
 -1      3187 2.75882E+00
 -1      3188 2.78711E+00
 -1      3189 1.62138E-01
 -1      3190 1.79155E-01
 -1      3191 1.91984E-01
 -1      3192 2.10598E-01
 -1      3193 1.75568E-01
 -1      3194 1.10935E-01
 -1      3195 1.23295E-01
 -1      3196 8.95783E-02
 -1      3197 1.00173E-01
 -1      3198 1.02166E-01
 -1      3199 7.13591E-02
 -1      3200 8.02194E-02
 -1      3201 8.20446E-02
 -1      3202 5.61906E-02
 -1      3203 6.33321E-02
 -1      3204 6.46588E-02
 -1      3205 4.36740E-02
 -1      3206 4.94885E-02
 -1      3207 4.99296E-02
 -1      3208 3.43051E-02
 -1      3209 3.86770E-02
 -1      3210 3.82306E-02
 -1      3211 2.65215E-02
 -1      3212 2.97547E-02
 -1      3213 2.86833E-02
 -1      3214 2.59154E-02
 -1      3215 2.42859E-02
 -1      3216 2.18973E-02
 -1      3217 3.42389E-02
 -1      3218 3.00079E-02
 -1      3219 2.37543E-02
 -1      3220 5.60559E-02
 -1      3221 4.39046E-02
 -1      3222 3.75126E-02
 -1      3223 8.40788E-02
 -1      3224 6.82351E-02
 -1      3225 5.93575E-02
 -1      3226 1.20260E-01
 -1      3227 9.95868E-02
 -1      3228 8.70448E-02
 -1      3229 1.66853E-01
 -1      3230 1.40039E-01
 -1      3231 1.22332E-01
 -1      3232 2.27722E-01
 -1      3233 1.93280E-01
 -1      3234 1.68539E-01
 -1      3235 3.09211E-01
 -1      3236 2.65504E-01
 -1      3237 2.32748E-01
 -1      3238 4.12626E-01
 -1      3239 3.57926E-01
 -1      3240 3.19246E-01
 -1      3241 5.41796E-01
 -1      3242 4.74401E-01
 -1      3243 4.29737E-01
 -1      3244 7.00061E-01
 -1      3245 6.18488E-01
 -1      3246 5.68204E-01
 -1      3247 8.89195E-01
 -1      3248 7.92517E-01
 -1      3249 7.37351E-01
 -1      3250 1.10806E+00
 -1      3251 9.95762E-01
 -1      3252 9.36373E-01
 -1      3253 1.36398E+00
 -1      3254 1.24113E+00
 -1      3255 1.17601E+00
 -1      3256 1.67455E+00
 -1      3257 1.54628E+00
 -1      3258 1.49138E+00
 -1      3259 2.08825E+00
 -1      3260 1.95497E+00
 -1      3261 1.95409E+00
 -1      3262 2.76054E+00
 -1      3263 2.44716E+00
 -1      3264 2.59341E+00
 -1      3265 4.01277E+00
 -1      3266 3.71897E+00
 -1      3267 3.91076E+00
 -1      3268 6.07786E+00
 -1      3269 5.72535E+00
 -1      3270 6.58177E+00
 -1      3271 6.11363E+00
 -1      3272 5.78039E+00
 -1      3273 7.80400E+00
 -1      3274 1.17858E+01
 -1      3275 1.28843E+01
 -1      3276 3.93636E+00
 -1      3277 4.02763E+00
 -1      3278 1.07903E+01
 -1      3279 1.18483E+01
 -1      3280 2.85860E+00
 -1      3281 3.38271E+00
 -1      3282 3.50636E-01
 -1      3283 3.84488E-01
 -1      3284 3.89710E+00
 -1      3285 5.70060E+00
 -1      3286 5.77029E+00
 -1      3287 3.48054E+00
 -1      3288 3.74188E+00
 -1      3289 2.68995E+00
 -1      3290 1.35329E-01
 -1      3291 1.49265E-01
 -1      3292 1.49867E-01
 -1      3293 1.24962E-01
 -1      3294 4.98558E+00
 -1      3295 6.20985E+00
 -1      3296 3.06635E-01
 -1      3297 3.40973E-01
 -1      3298 2.95760E-01
 -1      3299 3.69981E+00
 -1      3300 4.46502E+00
 -1      3301 6.91833E+00
 -1      3302 7.65122E+00
 -1      3303 1.31159E+01
 -1      3304 1.15248E+01
 -1      3305 3.14511E-01
 -1      3306 3.08044E-01
 -1      3307 2.43703E-01
 -1      3308 1.28843E+01
 -1      3309 1.23412E+01
 -1      3310 4.12844E-01
 -1      3311 3.10006E-01
 -1      3312 2.61345E-01
 -1      3313 3.98367E-01
 -1      3314 1.02737E+01
 -1      3315 7.99689E+00
 -1      3316 3.23560E-01
 -1      3317 3.15711E-01
 -1      3318 2.90820E+00
 -1      3319 3.25908E+00
 -1      3320 5.18027E+00
 -1      3321 6.77105E+00
 -1      3322 4.55128E-01
 -1      3323 3.12242E-01
 -1      3324 3.12003E-01
 -1      3325 2.85133E-01
 -1      3326 7.74699E+00
 -1      3327 7.05661E+00
 -1      3328 5.75744E+00
 -1      3329 2.60468E-01
 -1      3330 3.21072E-01
 -1      3331 3.21072E-01
 -1      3332 2.83440E+00
 -1      3333 3.20742E-01
 -1      3334 3.30757E-01
 -1      3335 2.98377E+00
 -1      3336 2.89057E+00
 -1      3337 2.81470E+00
 -1      3338 3.33505E-01
 -1      3339 3.30691E-01
 -1      3340 2.48462E-01
 -1      3341 4.30034E+00
 -1      3342 4.02112E+00
 -1      3343 2.24530E+00
 -1      3344 2.43778E+00
 -1      3345 4.04121E+00
 -1      3346 3.90653E-01
 -1      3347 2.63109E-01
 -1      3348 2.90373E-01
 -1      3349 2.69833E-01
 -1      3350 2.02619E-01
 -1      3351 2.24820E-01
 -1      3352 2.44745E-01
 -1      3353 4.52783E+00
 -1      3354 2.43570E+00
 -1      3355 1.07966E+01
 -1      3356 9.50113E+00
 -1      3357 7.53477E+00
 -1      3358 6.75508E+00
 -1      3359 3.14804E+00
 -1      3360 3.25519E+00
 -1      3361 4.08917E+00
 -1      3362 4.15326E+00
 -1      3363 9.54546E+00
 -1      3364 3.25316E-01
 -1      3365 3.23560E-01
 -1      3366 2.88602E-01
 -1      3367 2.84358E-01
 -1      3368 5.51438E+00
 -1      3369 4.32846E+00
 -1      3370 3.27654E+00
 -1      3371 3.75425E+00
 -1      3372 4.90925E+00
 -1      3373 3.25572E+00
 -1      3374 9.81940E+00
 -1      3375 4.04121E+00
 -1      3376 4.81012E+00
 -1      3377 4.29572E+00
 -1      3378 3.23202E-01
 -1      3379 3.23872E-01
 -1      3380 2.85705E-01
 -1      3381 1.20461E+01
 -1      3382 1.00129E+01
 -1      3383 9.52429E+00
 -1      3384 4.21700E+00
 -1      3385 3.67903E-01
 -1      3386 3.93560E-01
 -1      3387 2.77061E-01
 -1      3388 2.88838E-01
 -1      3389 8.77072E+00
 -1      3390 3.13362E+00
 -1      3391 5.92534E+00
 -1      3392 9.37353E+00
 -1      3393 9.37353E+00
 -1      3394 8.58984E+00
 -1      3395 2.15219E-01
 -1      3396 2.04323E-01
 -1      3397 2.00697E-01
 -1      3398 1.86536E-01
 -1      3399 1.78642E-01
 -1      3400 1.78692E-01
 -1      3401 1.65395E-01
 -1      3402 1.67172E-01
 -1      3403 1.55578E-01
 -1      3404 1.44994E-01
 -1      3405 1.49511E-01
 -1      3406 1.36710E-01
 -1      3407 1.25583E-01
 -1      3408 1.31410E-01
 -1      3409 1.17378E-01
 -1      3410 1.06653E-01
 -1      3411 1.14921E-01
 -1      3412 9.83347E-02
 -1      3413 8.85167E-02
 -1      3414 9.83979E-02
 -1      3415 8.06276E-02
 -1      3416 7.19220E-02
 -1      3417 8.21907E-02
 -1      3418 6.47201E-02
 -1      3419 5.71170E-02
 -1      3420 6.70997E-02
 -1      3421 5.06597E-02
 -1      3422 4.40051E-02
 -1      3423 5.34405E-02
 -1      3424 3.82135E-02
 -1      3425 3.22512E-02
 -1      3426 4.11915E-02
 -1      3427 2.69410E-02
 -1      3428 2.13364E-02
 -1      3429 3.00897E-02
 -1      3430 2.15011E-02
 -1      3431 2.09114E-02
 -1      3432 2.49442E-02
 -1      3433 2.24629E-02
 -1      3434 2.78378E-02
 -1      3435 2.66605E-02
 -1      3436 3.57239E-02
 -1      3437 4.49377E-02
 -1      3438 3.60981E-02
 -1      3439 5.62749E-02
 -1      3440 6.77379E-02
 -1      3441 5.53214E-02
 -1      3442 8.21082E-02
 -1      3443 9.71235E-02
 -1      3444 8.10289E-02
 -1      3445 1.15092E-01
 -1      3446 1.33734E-01
 -1      3447 1.13368E-01
 -1      3448 1.55847E-01
 -1      3449 1.78289E-01
 -1      3450 1.53450E-01
 -1      3451 2.04927E-01
 -1      3452 2.31029E-01
 -1      3453 2.02200E-01
 -1      3454 2.62249E-01
 -1      3455 2.93002E-01
 -1      3456 2.60057E-01
 -1      3457 3.28282E-01
 -1      3458 3.68683E-01
 -1      3459 3.26557E-01
 -1      3460 4.06526E-01
 -1      3461 4.53170E-01
 -1      3462 3.99679E-01
 -1      3463 5.01782E-01
 -1      3464 5.53087E-01
 -1      3465 4.86134E-01
 -1      3466 6.16684E-01
 -1      3467 6.71141E-01
 -1      3468 5.98343E-01
 -1      3469 7.68158E-01
 -1      3470 8.30875E-01
 -1      3471 7.58957E-01
 -1      3472 9.57406E-01
 -1      3473 1.05908E+00
 -1      3474 9.82504E-01
 -1      3475 1.19825E+00
 -1      3476 1.32352E+00
 -1      3477 1.24821E+00
 -1      3478 1.54694E+00
 -1      3479 1.66674E+00
 -1      3480 1.61080E+00
 -1      3481 1.91233E+00
 -1      3482 2.13448E+00
 -1      3483 2.07980E+00
 -1      3484 2.34949E+00
 -1      3485 2.75542E+00
 -1      3486 2.54041E+00
 -1      3487 5.26918E+00
 -1      3488 1.57324E-01
 -1      3489 1.70153E-01
 -1      3490 7.63020E-02
 -1      3491 8.56608E-02
 -1      3492 9.43711E-02
 -1      3493 1.05133E-01
 -1      3494 8.86284E-02
 -1      3495 4.67315E-02
 -1      3496 5.34336E-02
 -1      3497 3.55296E-02
 -1      3498 4.05266E-02
 -1      3499 4.40306E-02
 -1      3500 2.53290E-02
 -1      3501 2.98793E-02
 -1      3502 3.21753E-02
 -1      3503 2.03771E-02
 -1      3504 2.26127E-02
 -1      3505 2.38088E-02
 -1      3506 2.57723E-02
 -1      3507 2.16797E-02
 -1      3508 2.23951E-02
 -1      3509 4.34805E-02
 -1      3510 3.38147E-02
 -1      3511 3.17402E-02
 -1      3512 6.68527E-02
 -1      3513 5.46735E-02
 -1      3514 5.09757E-02
 -1      3515 9.74694E-02
 -1      3516 8.19613E-02
 -1      3517 7.72773E-02
 -1      3518 1.37447E-01
 -1      3519 1.17668E-01
 -1      3520 1.12585E-01
 -1      3521 1.90254E-01
 -1      3522 1.63826E-01
 -1      3523 1.59162E-01
 -1      3524 2.62277E-01
 -1      3525 2.24495E-01
 -1      3526 2.19783E-01
 -1      3527 3.55143E-01
 -1      3528 3.06428E-01
 -1      3529 2.98175E-01
 -1      3530 4.73492E-01
 -1      3531 4.11717E-01
 -1      3532 3.98899E-01
 -1      3533 6.22293E-01
 -1      3534 5.45601E-01
 -1      3535 5.27581E-01
 -1      3536 8.06374E-01
 -1      3537 7.13919E-01
 -1      3538 6.91316E-01
 -1      3539 1.02922E+00
 -1      3540 9.22648E-01
 -1      3541 8.99217E-01
 -1      3542 1.30908E+00
 -1      3543 1.17601E+00
 -1      3544 1.16228E+00
 -1      3545 1.67367E+00
 -1      3546 1.49138E+00
 -1      3547 1.49138E+00
 -1      3548 2.20061E+00
 -1      3549 1.92019E+00
 -1      3550 1.92019E+00
 -1      3551 3.04011E+00
 -1      3552 2.68120E+00
 -1      3553 2.64730E+00
 -1      3554 4.73126E+00
 -1      3555 3.77283E+00
 -1      3556 3.86061E+00
 -1      3557 7.83288E+00
 -1      3558 2.98173E+00
 -1      3559 4.19556E+00
 -1      3560 4.83196E+00
 -1      3561 3.21790E-01
 -1      3562 2.73608E-01
 -1      3563 7.56931E+00
 -1      3564 2.46924E-01
 -1      3565 2.56588E-01
 -1      3566 4.33240E+00
 -1      3567 4.47969E+00
 -1      3568 1.87027E-01
 -1      3569 1.98448E-01
 -1      3570 3.15589E-01
 -1      3571 3.23202E-01
 -1      3572 2.88834E-01
 -1      3573 8.37296E+00
 -1      3574 8.37296E+00
 -1      3575 6.04142E-02
 -1      3576 6.84412E-02
 -1      3577 7.20574E-02
 -1      3578 5.72160E-02
 -1      3579 2.89057E+00
 -1      3580 2.54703E+00
 -1      3581 2.14705E-01
 -1      3582 2.11228E-01
 -1      3583 1.78277E-01
 -1      3584 2.67178E+00
 -1      3585 2.70336E+00
 -1      3586 2.74565E+00
 -1      3587 5.75744E+00
 -1      3588 5.85321E+00
 -1      3589 4.57546E+00
 -1      3590 2.02944E-01
 -1      3591 2.22591E-01
 -1      3592 2.47198E-01
 -1      3593 2.44068E-01
 -1      3594 2.88972E+00
 -1      3595 2.88972E+00
 -1      3596 2.53014E-01
 -1      3597 2.49544E-01
 -1      3598 2.81500E+00
 -1      3599 2.29301E-01
 -1      3600 2.20335E-01
 -1      3601 2.04155E-01
 -1      3602 1.90795E-01
 -1      3603 1.48749E-01
 -1      3604 1.43333E-01
 -1      3605 1.35877E-01
 -1      3606 2.78711E+00
 -1      3607 1.58900E-01
 -1      3608 2.35206E-01
 -1      3609 1.81981E-01
 -1      3610 1.96203E-01
 -1      3611 1.63737E-01
 -1      3612 1.06656E-01
 -1      3613 1.14450E-01
 -1      3614 1.26484E-01
 -1      3615 7.69494E+00
 -1      3616 7.05661E+00
 -1      3617 5.55168E+00
 -1      3618 5.85321E+00
 -1      3619 2.85249E-01
 -1      3620 3.22783E+00
 -1      3621 3.52064E+00
 -1      3622 3.16087E+00
 -1      3623 2.47658E-01
 -1      3624 2.08487E-01
 -1      3625 2.31395E-01
 -1      3626 4.51468E+00
 -1      3627 6.79931E+00
 -1      3628 5.35287E+00
 -1      3629 1.94427E-01
 -1      3630 2.43262E-01
 -1      3631 1.58029E-01
 -1      3632 2.26677E-01
 -1      3633 7.38294E+00
 -1      3634 8.82938E+00
 -1      3635 8.53427E+00
 -1      3636 2.53014E-01
 -1      3637 2.53014E-01
 -1      3638 2.17425E-01
 -1      3639 2.56537E-01
 -1      3640 2.18660E-01
 -1      3641 2.17151E-01
 -1      3642 2.49271E-01
 -1      3643 2.52856E-01
 -1      3644 1.52969E-01
 -1      3645 1.35841E-01
 -1      3646 1.67736E-01
 -1      3647 1.59098E-01
 -1      3648 1.55472E-01
 -1      3649 2.52856E-01
 -1      3650 2.11220E-01
 -1      3651 2.52856E-01
 -1      3652 1.55120E-01
 -1      3653 1.47276E-01
 -1      3654 1.35577E-01
 -1      3655 1.42876E-01
 -1      3656 1.33059E-01
 -1      3657 1.30825E-01
 -1      3658 1.26431E-01
 -1      3659 1.18148E-01
 -1      3660 1.19797E-01
 -1      3661 1.10577E-01
 -1      3662 1.02372E-01
 -1      3663 1.05598E-01
 -1      3664 9.61203E-02
 -1      3665 8.78022E-02
 -1      3666 9.17761E-02
 -1      3667 8.13657E-02
 -1      3668 7.34766E-02
 -1      3669 7.90881E-02
 -1      3670 6.72924E-02
 -1      3671 6.00905E-02
 -1      3672 6.64674E-02
 -1      3673 5.43732E-02
 -1      3674 4.79159E-02
 -1      3675 5.45659E-02
 -1      3676 4.27578E-02
 -1      3677 3.69661E-02
 -1      3678 4.36905E-02
 -1      3679 3.27676E-02
 -1      3680 2.74574E-02
 -1      3681 3.43338E-02
 -1      3682 2.76889E-02
 -1      3683 2.78536E-02
 -1      3684 3.03668E-02
 -1      3685 2.92985E-02
 -1      3686 3.08500E-02
 -1      3687 3.20431E-02
 -1      3688 3.36490E-02
 -1      3689 4.15351E-02
 -1      3690 3.62870E-02
 -1      3691 5.09731E-02
 -1      3692 6.23102E-02
 -1      3693 4.85239E-02
 -1      3694 7.48004E-02
 -1      3695 8.91707E-02
 -1      3696 7.04520E-02
 -1      3697 1.05083E-01
 -1      3698 1.23052E-01
 -1      3699 9.88549E-02
 -1      3700 1.43129E-01
 -1      3701 1.65242E-01
 -1      3702 1.34844E-01
 -1      3703 1.90273E-01
 -1      3704 2.16911E-01
 -1      3705 1.79952E-01
 -1      3706 2.47714E-01
 -1      3707 2.78934E-01
 -1      3708 2.35787E-01
 -1      3709 3.16303E-01
 -1      3710 3.51583E-01
 -1      3711 3.03960E-01
 -1      3712 3.96174E-01
 -1      3713 4.34017E-01
 -1      3714 3.85921E-01
 -1      3715 4.86134E-01
 -1      3716 5.34746E-01
 -1      3717 4.82629E-01
 -1      3718 5.93510E-01
 -1      3719 6.57107E-01
 -1      3720 5.93510E-01
 -1      3721 7.43091E-01
 -1      3722 8.40107E-01
 -1      3723 7.38257E-01
 -1      3724 9.68794E-01
 -1      3725 1.09532E+00
 -1      3726 9.52928E-01
 -1      3727 1.33090E+00
 -1      3728 1.47007E+00
 -1      3729 1.31719E+00
 -1      3730 1.82619E+00
 -1      3731 2.04961E+00
 -1      3732 1.90889E+00
 -1      3733 3.05173E+00
 -1      3734 3.29732E+00
 -1      3735 3.26713E+00
 -1      3736 6.00382E+00
 -1      3737 3.02657E+00
 -1      3738 2.90935E-02
 -1      3739 3.47439E-02
 -1      3740 3.99455E-02
 -1      3741 4.61504E-02
 -1      3742 3.68637E-02
 -1      3743 2.69389E-02
 -1      3744 2.56363E-02
 -1      3745 3.76978E-02
 -1      3746 2.96554E-02
 -1      3747 3.28965E-02
 -1      3748 5.85290E-02
 -1      3749 4.73359E-02
 -1      3750 4.52511E-02
 -1      3751 8.67161E-02
 -1      3752 7.16075E-02
 -1      3753 6.79677E-02
 -1      3754 1.23899E-01
 -1      3755 1.03701E-01
 -1      3756 9.80308E-02
 -1      3757 1.72254E-01
 -1      3758 1.45875E-01
 -1      3759 1.36991E-01
 -1      3760 2.34790E-01
 -1      3761 2.00549E-01
 -1      3762 1.87262E-01
 -1      3763 3.15229E-01
 -1      3764 2.71078E-01
 -1      3765 2.51845E-01
 -1      3766 4.18305E-01
 -1      3767 3.61731E-01
 -1      3768 3.34635E-01
 -1      3769 5.50255E-01
 -1      3770 4.78146E-01
 -1      3771 4.40978E-01
 -1      3772 7.19688E-01
 -1      3773 6.28062E-01
 -1      3774 5.78627E-01
 -1      3775 9.39469E-01
 -1      3776 8.23195E-01
 -1      3777 7.59940E-01
 -1      3778 1.22895E+00
 -1      3779 1.08216E+00
 -1      3780 1.00613E+00
 -1      3781 1.61692E+00
 -1      3782 1.43462E+00
 -1      3783 1.35450E+00
 -1      3784 2.15540E+00
 -1      3785 1.90888E+00
 -1      3786 1.85213E+00
 -1      3787 3.24261E+00
 -1      3788 2.76201E+00
 -1      3789 2.75071E+00
 -1      3790 6.21634E+00
 -1      3791 5.48363E+00
 -1      3792 5.59834E+00
 -1      3793 6.27191E+00
 -1      3794 4.30431E+00
 -1      3795 2.44820E-02
 -1      3796 2.71982E-02
 -1      3797 2.90258E-02
 -1      3798 2.06561E-01
 -1      3799 2.24926E-01
 -1      3800 1.85923E-01
 -1      3801 1.60045E-01
 -1      3802 1.46719E-01
 -1      3803 1.84543E-01
 -1      3804 2.42066E-01
 -1      3805 2.46310E-01
 -1      3806 1.73084E-01
 -1      3807 8.01444E-02
 -1      3808 8.88546E-02
 -1      3809 1.48876E-01
 -1      3810 1.52867E-01
 -1      3811 1.29698E-01
 -1      3812 1.16238E-01
 -1      3813 1.32495E-01
 -1      3814 1.07085E-01
 -1      3815 1.10307E-01
 -1      3816 7.89493E+00
 -1      3817 1.41276E-01
 -1      3818 1.33259E-01
 -1      3819 1.52735E-01
 -1      3820 1.06894E-01
 -1      3821 2.16878E-01
 -1      3822 1.73394E-01
 -1      3823 5.06123E+00
 -1      3824 4.08930E+00
 -1      3825 2.97668E-02
 -1      3826 1.46198E-01
 -1      3827 1.58026E-01
 -1      3828 9.60850E-02
 -1      3829 1.05402E-01
 -1      3830 8.76010E-02
 -1      3831 4.78294E-02
 -1      3832 5.19145E-02
 -1      3833 5.88950E-02
 -1      3834 5.85321E+00
 -1      3835 5.07061E+00
 -1      3836 4.76907E+00
 -1      3837 4.03361E+00
 -1      3838 1.25365E-01
 -1      3839 1.29677E-01
 -1      3840 1.38251E-01
 -1      3841 1.32541E-01
 -1      3842 1.76239E-01
 -1      3843 1.28531E-01
 -1      3844 1.76973E-01
 -1      3845 2.02751E-01
 -1      3846 8.53427E+00
 -1      3847 1.85150E-01
 -1      3848 1.84876E-01
 -1      3849 2.10722E-01
 -1      3850 5.29611E+00
 -1      3851 5.75252E+00
 -1      3852 6.52890E-02
 -1      3853 7.31498E-02
 -1      3854 5.99875E-02
 -1      3855 7.83936E+00
 -1      3856 1.84957E-01
 -1      3857 1.84957E-01
 -1      3858 1.52682E-01
 -1      3859 3.72246E+00
 -1      3860 7.33761E-02
 -1      3861 5.06123E+00
 -1      3862 2.99656E-02
 -1      3863 3.18609E-02
 -1      3864 1.18832E-01
 -1      3865 1.18480E-01
 -1      3866 1.19177E-01
 -1      3867 1.14777E-01
 -1      3868 1.02433E-01
 -1      3869 1.12092E-01
 -1      3870 1.05464E-01
 -1      3871 1.00445E-01
 -1      3872 1.00804E-01
 -1      3873 9.32335E-02
 -1      3874 9.30998E-02
 -1      3875 8.76330E-02
 -1      3876 8.13816E-02
 -1      3877 8.28390E-02
 -1      3878 7.55419E-02
 -1      3879 6.91054E-02
 -1      3880 7.13989E-02
 -1      3881 6.39384E-02
 -1      3882 5.77543E-02
 -1      3883 6.03923E-02
 -1      3884 5.31309E-02
 -1      3885 4.74136E-02
 -1      3886 5.06020E-02
 -1      3887 4.32179E-02
 -1      3888 3.80598E-02
 -1      3889 4.17830E-02
 -1      3890 3.63005E-02
 -1      3891 3.21020E-02
 -1      3892 3.58279E-02
 -1      3893 3.19095E-02
 -1      3894 3.21410E-02
 -1      3895 3.38762E-02
 -1      3896 3.32406E-02
 -1      3897 3.46855E-02
 -1      3898 3.47833E-02
 -1      3899 3.72506E-02
 -1      3900 4.00495E-02
 -1      3901 3.84480E-02
 -1      3902 4.49279E-02
 -1      3903 5.43658E-02
 -1      3904 4.58914E-02
 -1      3905 6.17345E-02
 -1      3906 7.42247E-02
 -1      3907 5.81385E-02
 -1      3908 8.67186E-02
 -1      3909 1.02631E-01
 -1      3910 7.80010E-02
 -1      3911 1.19092E-01
 -1      3912 1.39169E-01
 -1      3913 1.06956E-01
 -1      3914 1.60351E-01
 -1      3915 1.85382E-01
 -1      3916 1.44599E-01
 -1      3917 2.12503E-01
 -1      3918 2.43306E-01
 -1      3919 1.92901E-01
 -1      3920 2.77947E-01
 -1      3921 3.15316E-01
 -1      3922 2.54662E-01
 -1      3923 3.59607E-01
 -1      3924 4.04198E-01
 -1      3925 3.33594E-01
 -1      3926 4.61007E-01
 -1      3927 5.13124E-01
 -1      3928 4.34694E-01
 -1      3929 5.86472E-01
 -1      3930 6.45236E-01
 -1      3931 5.64850E-01
 -1      3932 7.38257E-01
 -1      3933 8.24241E-01
 -1      3934 7.31220E-01
 -1      3935 9.45369E-01
 -1      3936 1.07406E+00
 -1      3937 9.45369E-01
 -1      3938 1.24704E+00
 -1      3939 1.48262E+00
 -1      3940 1.23948E+00
 -1      3941 2.57014E+00
 -1      3942 2.92625E+00
 -1      3943 2.49999E+00
 -1      3944 7.26344E-02
 -1      3945 5.95559E-02
 -1      3946 1.46293E-01
 -1      3947 1.63832E-01
 -1      3948 1.74190E-01
 -1      3949 3.26067E-02
 -1      3950 3.78083E-02
 -1      3951 3.28056E-02
 -1      3952 5.00595E-02
 -1      3953 4.04214E-02
 -1      3954 5.47262E-02
 -1      3955 3.64617E-02
 -1      3956 3.37452E-02
 -1      3957 4.12701E-02
 -1      3958 1.02562E-01
 -1      3959 8.55772E-02
 -1      3960 7.71654E-02
 -1      3961 1.41138E-01
 -1      3962 1.19162E-01
 -1      3963 1.06709E-01
 -1      3964 1.90558E-01
 -1      3965 1.62263E-01
 -1      3966 1.44434E-01
 -1      3967 2.53556E-01
 -1      3968 2.17267E-01
 -1      3969 1.92269E-01
 -1      3970 3.33733E-01
 -1      3971 2.87231E-01
 -1      3972 2.52654E-01
 -1      3973 4.36219E-01
 -1      3974 3.76377E-01
 -1      3975 3.28974E-01
 -1      3976 5.68989E-01
 -1      3977 4.91183E-01
 -1      3978 4.26582E-01
 -1      3979 7.44988E-01
 -1      3980 6.41481E-01
 -1      3981 5.54037E-01
 -1      3982 9.88149E-01
 -1      3983 8.45462E-01
 -1      3984 7.27003E-01
 -1      3985 1.34367E+00
 -1      3986 1.13800E+00
 -1      3987 9.77326E-01
 -1      3988 1.86742E+00
 -1      3989 1.57546E+00
 -1      3990 1.35896E+00
 -1      3991 2.80555E+00
 -1      3992 2.19893E+00
 -1      3993 1.92226E+00
 -1      3994 5.75252E+00
 -1      3995 3.51151E+00
 -1      3996 2.95973E+00
 -1      3997 5.75252E+00
 -1      3998 3.17442E-02
 -1      3999 3.05898E-02
 -1      4000 3.26840E-02
 -1      4001 1.75823E-01
 -1      4002 1.82293E-01
 -1      4003 1.50046E-01
 -1      4004 1.53733E-01
 -1      4005 1.12398E-01
 -1      4006 1.21791E-01
 -1      4007 1.16710E-01
 -1      4008 1.01828E-01
 -1      4009 4.03361E+00
 -1      4010 3.97685E+00
 -1      4011 4.28800E+00
 -1      4012 1.84876E-01
 -1      4013 1.84876E-01
 -1      4014 1.52875E-01
 -1      4015 1.71799E-01
 -1      4016 1.78502E-01
 -1      4017 1.46034E-01
 -1      4018 1.20515E-01
 -1      4019 6.38321E-02
 -1      4020 7.08266E-02
 -1      4021 4.27862E+00
 -1      4022 5.07061E+00
 -1      4023 4.28800E+00
 -1      4024 3.27650E+00
 -1      4025 1.41393E-01
 -1      4026 3.66569E+00
 -1      4027 1.06702E-01
 -1      4028 1.12933E-01
 -1      4029 9.58364E-02
 -1      4030 9.22136E-02
 -1      4031 1.08595E-01
 -1      4032 9.18300E-02
 -1      4033 3.93775E+00
 -1      4034 8.81249E-02
 -1      4035 9.53552E-02
 -1      4036 7.85809E-02
 -1      4037 3.53093E-02
 -1      4038 1.21790E-01
 -1      4039 3.29213E+00
 -1      4040 2.98097E+00
 -1      4041 2.98097E+00
 -1      4042 4.22161E-02
 -1      4043 4.79802E-02
 -1      4044 3.79591E-02
 -1      4045 1.25958E-01
 -1      4046 1.02932E-01
 -1      4047 1.16553E-01
 -1      4048 1.19126E-01
 -1      4049 1.17404E-01
 -1      4050 1.25350E-01
 -1      4051 5.29222E-02
 -1      4052 5.93163E-02
 -1      4053 4.73089E-02
 -1      4054 1.26713E-01
 -1      4055 1.26713E-01
 -1      4056 5.67668E-02
 -1      4057 1.15064E-01
 -1      4058 1.30201E-01
 -1      4059 1.36007E-01
 -1      4060 1.26520E-01
 -1      4061 1.26713E-01
 -1      4062 1.00551E-01
 -1      4063 9.36417E-02
 -1      4064 9.09571E-02
 -1      4065 8.91429E-02
 -1      4066 8.44826E-02
 -1      4067 8.23400E-02
 -1      4068 7.70094E-02
 -1      4069 7.14090E-02
 -1      4070 7.30526E-02
 -1      4071 8.20313E-02
 -1      4072 7.61916E-02
 -1      4073 7.62018E-02
 -1      4074 6.14606E-02
 -1      4075 5.62937E-02
 -1      4076 7.20931E-02
 -1      4077 5.23684E-02
 -1      4078 4.77451E-02
 -1      4079 5.34368E-02
 -1      4080 4.37649E-02
 -1      4081 3.95692E-02
 -1      4082 4.55314E-02
 -1      4083 3.71411E-02
 -1      4084 3.53818E-02
 -1      4085 3.91231E-02
 -1      4086 3.40686E-02
 -1      4087 3.38762E-02
 -1      4088 3.53818E-02
 -1      4089 3.47833E-02
 -1      4090 3.58829E-02
 -1      4091 3.49758E-02
 -1      4092 3.84480E-02
 -1      4093 4.10131E-02
 -1      4094 3.84480E-02
 -1      4095 4.58914E-02
 -1      4096 5.07698E-02
 -1      4097 4.58914E-02
 -1      4098 5.81385E-02
 -1      4099 6.55072E-02
 -1      4100 5.81385E-02
 -1      4101 7.59113E-02
 -1      4102 8.84052E-02
 -1      4103 7.59113E-02
 -1      4104 1.03585E-01
 -1      4105 1.20046E-01
 -1      4106 1.01496E-01
 -1      4107 1.40299E-01
 -1      4108 1.61481E-01
 -1      4109 1.36928E-01
 -1      4110 1.88502E-01
 -1      4111 2.15622E-01
 -1      4112 1.84202E-01
 -1      4113 2.51898E-01
 -1      4114 2.86539E-01
 -1      4115 2.47499E-01
 -1      4116 3.35816E-01
 -1      4117 3.80106E-01
 -1      4118 3.33051E-01
 -1      4119 4.48036E-01
 -1      4120 5.04845E-01
 -1      4121 4.50258E-01
 -1      4122 5.99116E-01
 -1      4123 6.72463E-01
 -1      4124 6.12458E-01
 -1      4125 8.01059E-01
 -1      4126 8.94080E-01
 -1      4127 8.35324E-01
 -1      4128 9.60612E-01
 -1      4129 1.08174E+00
 -1      4130 1.03045E+00
 -1      4131 1.31317E+00
 -1      4132 1.48616E+00
 -1      4133 1.32841E+00
 -1      4134 2.28245E+00
 -1      4135 3.36996E+00
 -1      4136 2.35613E+00
 -1      4137 1.12386E-01
 -1      4138 9.57855E-02
 -1      4139 3.33824E-02
 -1      4140 3.41282E-02
 -1      4141 6.13310E-02
 -1      4142 5.18346E-02
 -1      4143 4.52298E-02
 -1      4144 4.12701E-02
 -1      4145 5.18346E-02
 -1      4146 1.49885E-01
 -1      4147 1.28760E-01
 -1      4148 1.17837E-01
 -1      4149 1.97751E-01
 -1      4150 1.71041E-01
 -1      4151 1.55367E-01
 -1      4152 2.58529E-01
 -1      4153 2.24854E-01
 -1      4154 2.03626E-01
 -1      4155 3.35832E-01
 -1      4156 2.93188E-01
 -1      4157 2.65388E-01
 -1      4158 4.35407E-01
 -1      4159 3.80443E-01
 -1      4160 3.44658E-01
 -1      4161 5.72358E-01
 -1      4162 4.99867E-01
 -1      4163 4.53728E-01
 -1      4164 7.67103E-01
 -1      4165 6.66629E-01
 -1      4166 6.12458E-01
 -1      4167 1.11208E+00
 -1      4168 9.62230E-01
 -1      4169 9.01856E-01
 -1      4170 1.41834E+00
 -1      4171 1.18655E+00
 -1      4172 1.17146E+00
 -1      4173 2.18947E+00
 -1      4174 1.85796E+00
 -1      4175 1.68555E+00
 -1      4176 2.27501E+00
 -1      4177 7.76567E-02
 -1      4178 8.35562E-02
 -1      4179 3.73104E-02
 -1      4180 3.53093E-02
 -1      4181 4.12701E-02
 -1      4182 8.34179E-02
 -1      4183 7.04751E-02
 -1      4184 6.75834E-02
 -1      4185 9.71370E-02
 -1      4186 1.23299E-01
 -1      4187 4.28800E+00
 -1      4188 1.11892E-01
 -1      4189 1.04701E-01
 -1      4190 1.04007E-01
 -1      4191 5.48065E-02
 -1      4192 5.93223E-02
 -1      4193 3.93775E+00
 -1      4194 3.33082E-02
 -1      4195 3.26840E-02
 -1      4196 3.53093E-02
 -1      4197 1.23008E-01
 -1      4198 9.61303E-02
 -1      4199 9.68270E-02
 -1      4200 8.73395E-02
 -1      4201 3.72021E+00
 -1      4202 1.29565E-01
 -1      4203 1.24245E-01
 -1      4204 9.86456E-02
 -1      4205 7.40534E-02
 -1      4206 9.13516E-02
 -1      4207 7.20931E-02
 -1      4208 3.40066E-02
 -1      4209 8.90951E-02
 -1      4210 3.81281E-02
 -1      4211 3.75513E-02
 -1      4212 4.19590E-02
 -1      4213 4.59392E-02
 -1      4214 5.08812E-02
 -1      4215 4.55314E-02
 -1      4216 2.21071E+00
 -1      4217 9.70391E-02
 -1      4218 7.89396E-02
 -1      4219 7.55257E-02
 -1      4220 7.36327E-02
 -1      4221 1.36007E-01
 -1      4222 1.37640E-01
 -1      4223 1.11839E-01
 -1      4224 1.19915E-01
 -1      4225 5.34368E-02
 -1      4226 9.53552E-02
 -1      4227 1.02352E-01
 -1      4228 9.58791E-02
 -1      4229 9.16721E-02
 -1      4230 9.71835E-02
 -1      4231 1.00369E-01
 -1      4232 1.05220E-01
 -1      4233 8.73395E-02
 -1      4234 6.13525E-02
 -1      4235 7.89396E-02
 -1      4236 2.93950E+00
 -1      4237 3.50729E+00
 -1      4238 2.51141E+00
 -1      4239 2.14321E+00
 -1      4240 7.79507E-02
 -1      4241 8.41542E-02
 -1      4242 8.23400E-02
 -1      4243 8.07293E-02
 -1      4244 9.13516E-02
 -1      4245 8.68241E-02
 -1      4246 7.20931E-02
 -1      4247 5.73620E-02
 -1      4248 5.34368E-02
 -1      4249 4.95115E-02
 -1      4250 4.55314E-02
 -1      4251 4.15512E-02
 -1      4252 3.91231E-02
 -1      4253 3.57000E-02
 -1      4254 3.43868E-02
 -1      4255 3.36884E-02
 -1      4256 3.45956E-02
 -1      4257 3.65966E-02
 -1      4258 3.91617E-02
 -1      4259 4.31215E-02
 -1      4260 4.79998E-02
 -1      4261 5.46046E-02
 -1      4262 6.19732E-02
 -1      4263 7.11173E-02
 -1      4264 8.15215E-02
 -1      4265 9.38891E-02
 -1      4266 1.09069E-01
 -1      4267 1.25443E-01
 -1      4268 1.45696E-01
 -1      4269 1.66852E-01
 -1      4270 1.93873E-01
 -1      4271 2.20976E-01
 -1      4272 2.57252E-01
 -1      4273 2.91911E-01
 -1      4274 3.41188E-01
 -1      4275 3.85798E-01
 -1      4276 4.53728E-01
 -1      4277 5.18188E-01
 -1      4278 6.12458E-01
 -1      4279 7.06729E-01
 -1      4280 8.35324E-01
 -1      4281 1.03045E+00
 -1      4282 1.09698E+00
 -1      4283 1.32841E+00
 -1      4284 1.55984E+00
 -1      4285 2.14321E+00
 -1      4286 9.26456E-02
 -1      4287 1.05220E-01
 -1      4288 1.84250E+00
 -1      4289 1.40289E+00
 -1      4290 9.68988E-02
 -1      4291 1.00411E-01
 -1      4292 7.87993E-02
 -1      4293 1.02017E-01
 -1      4294 2.42587E+00
 -1      4295 9.75346E-02
 -1      4296 8.98579E-02
 -1      4297 8.23400E-02
 -1      4298 8.82024E-02
 -1      4299 9.05248E-02
 -1      4300 8.73395E-02
 -1      4301 6.33014E-02
 -1      4302 6.73255E-02
 -1      4303 9.45945E-02
 -1      4304 8.47723E-02
 -1      4305 8.05257E-02
 -1      4306 9.13516E-02
 -1      4307 7.30526E-02
 -1      4308 1.32841E+00
 -1      4309 8.82024E-02
 -1      4310 9.58791E-02
 -1      4311 1.19915E-01
 -1      4312 1.19915E-01
 -1      4313 1.05220E-01
 -1      4314 1.10092E-01
 -1      4315 9.58791E-02
 -1      4316 9.45945E-02
 -3
 9999
