    1C
    1UUSER                                                              
    1UDATE              26.october.2022                                 
    1UTIME              23:36:58                                        
    1UHOST                                                              
    1UPGM               CalculiX                                        
    1UVERSION           Version 2.17                             
    1UCOMPILETIME       Thu Jul 23 21:43:50 CEST 2020                    
    1UDIR                                                               
    1UDBN                                                               
    1UMAT    1SOLIDMATERIAL                                             
    2C                          4357                                     1
 -1         1 7.05494E+01 3.34230E+01 0.00000E+00
 -1         2 7.53184E+01 2.67880E+01 0.00000E+00
 -1         3 1.50000E+02 0.00000E+00 0.00000E+00
 -1         4 1.50000E+02 5.00000E+01 0.00000E+00
 -1         5 0.00000E+00 0.00000E+00 0.00000E+00
 -1         6 0.00000E+00 5.00000E+01 0.00000E+00
 -1         7 0.00000E+00 4.70500E+01 0.00000E+00
 -1         8 0.00000E+00 4.41000E+01 0.00000E+00
 -1         9 0.00000E+00 4.11500E+01 0.00000E+00
 -1        10 0.00000E+00 3.82000E+01 0.00000E+00
 -1        11 0.00000E+00 3.52500E+01 0.00000E+00
 -1        12 0.00000E+00 3.23500E+01 0.00000E+00
 -1        13 0.00000E+00 2.94000E+01 0.00000E+00
 -1        14 0.00000E+00 2.64500E+01 0.00000E+00
 -1        15 0.00000E+00 2.35000E+01 0.00000E+00
 -1        16 0.00000E+00 2.05500E+01 0.00000E+00
 -1        17 0.00000E+00 1.76000E+01 0.00000E+00
 -1        18 0.00000E+00 1.47000E+01 0.00000E+00
 -1        19 0.00000E+00 1.17500E+01 0.00000E+00
 -1        20 0.00000E+00 8.80000E+00 0.00000E+00
 -1        21 0.00000E+00 5.85000E+00 0.00000E+00
 -1        22 0.00000E+00 2.90000E+00 0.00000E+00
 -1        23 3.15000E+00 5.00000E+01 0.00000E+00
 -1        24 6.15000E+00 5.00000E+01 0.00000E+00
 -1        25 9.15000E+00 5.00000E+01 0.00000E+00
 -1        26 1.21500E+01 5.00000E+01 0.00000E+00
 -1        27 1.51500E+01 5.00000E+01 0.00000E+00
 -1        28 1.81500E+01 5.00000E+01 0.00000E+00
 -1        29 2.11500E+01 5.00000E+01 0.00000E+00
 -1        30 2.41500E+01 5.00000E+01 0.00000E+00
 -1        31 2.71500E+01 5.00000E+01 0.00000E+00
 -1        32 3.01500E+01 5.00000E+01 0.00000E+00
 -1        33 3.31500E+01 5.00000E+01 0.00000E+00
 -1        34 3.61500E+01 5.00000E+01 0.00000E+00
 -1        35 3.91500E+01 5.00000E+01 0.00000E+00
 -1        36 4.21500E+01 5.00000E+01 0.00000E+00
 -1        37 4.51500E+01 5.00000E+01 0.00000E+00
 -1        38 4.81500E+01 5.00000E+01 0.00000E+00
 -1        39 5.11500E+01 5.00000E+01 0.00000E+00
 -1        40 5.41500E+01 5.00000E+01 0.00000E+00
 -1        41 5.71500E+01 5.00000E+01 0.00000E+00
 -1        42 6.01500E+01 5.00000E+01 0.00000E+00
 -1        43 6.31500E+01 5.00000E+01 0.00000E+00
 -1        44 6.61500E+01 5.00000E+01 0.00000E+00
 -1        45 6.91500E+01 5.00000E+01 0.00000E+00
 -1        46 7.21500E+01 5.00000E+01 0.00000E+00
 -1        47 7.51500E+01 5.00000E+01 0.00000E+00
 -1        48 7.81500E+01 5.00000E+01 0.00000E+00
 -1        49 8.11500E+01 5.00000E+01 0.00000E+00
 -1        50 8.41500E+01 5.00000E+01 0.00000E+00
 -1        51 8.71500E+01 5.00000E+01 0.00000E+00
 -1        52 9.01500E+01 5.00000E+01 0.00000E+00
 -1        53 9.31500E+01 5.00000E+01 0.00000E+00
 -1        54 9.61500E+01 5.00000E+01 0.00000E+00
 -1        55 9.91500E+01 5.00000E+01 0.00000E+00
 -1        56 1.02150E+02 5.00000E+01 0.00000E+00
 -1        57 1.05150E+02 5.00000E+01 0.00000E+00
 -1        58 1.08150E+02 5.00000E+01 0.00000E+00
 -1        59 1.11150E+02 5.00000E+01 0.00000E+00
 -1        60 1.14150E+02 5.00000E+01 0.00000E+00
 -1        61 1.17150E+02 5.00000E+01 0.00000E+00
 -1        62 1.20150E+02 5.00000E+01 0.00000E+00
 -1        63 1.23150E+02 5.00000E+01 0.00000E+00
 -1        64 1.26150E+02 5.00000E+01 0.00000E+00
 -1        65 1.29150E+02 5.00000E+01 0.00000E+00
 -1        66 1.32150E+02 5.00000E+01 0.00000E+00
 -1        67 1.35150E+02 5.00000E+01 0.00000E+00
 -1        68 1.38150E+02 5.00000E+01 0.00000E+00
 -1        69 1.41150E+02 5.00000E+01 0.00000E+00
 -1        70 1.44150E+02 5.00000E+01 0.00000E+00
 -1        71 1.47150E+02 5.00000E+01 0.00000E+00
 -1        72 3.15000E+00 0.00000E+00 0.00000E+00
 -1        73 6.15000E+00 0.00000E+00 0.00000E+00
 -1        74 9.15000E+00 0.00000E+00 0.00000E+00
 -1        75 1.21500E+01 0.00000E+00 0.00000E+00
 -1        76 1.51500E+01 0.00000E+00 0.00000E+00
 -1        77 1.81500E+01 0.00000E+00 0.00000E+00
 -1        78 2.11500E+01 0.00000E+00 0.00000E+00
 -1        79 2.41500E+01 0.00000E+00 0.00000E+00
 -1        80 2.71500E+01 0.00000E+00 0.00000E+00
 -1        81 3.01500E+01 0.00000E+00 0.00000E+00
 -1        82 3.31500E+01 0.00000E+00 0.00000E+00
 -1        83 3.61500E+01 0.00000E+00 0.00000E+00
 -1        84 3.91500E+01 0.00000E+00 0.00000E+00
 -1        85 4.21500E+01 0.00000E+00 0.00000E+00
 -1        86 4.51500E+01 0.00000E+00 0.00000E+00
 -1        87 4.81500E+01 0.00000E+00 0.00000E+00
 -1        88 5.11500E+01 0.00000E+00 0.00000E+00
 -1        89 5.41500E+01 0.00000E+00 0.00000E+00
 -1        90 5.71500E+01 0.00000E+00 0.00000E+00
 -1        91 6.01500E+01 0.00000E+00 0.00000E+00
 -1        92 6.31500E+01 0.00000E+00 0.00000E+00
 -1        93 6.61500E+01 0.00000E+00 0.00000E+00
 -1        94 6.91500E+01 0.00000E+00 0.00000E+00
 -1        95 7.21500E+01 0.00000E+00 0.00000E+00
 -1        96 7.51500E+01 0.00000E+00 0.00000E+00
 -1        97 7.81500E+01 0.00000E+00 0.00000E+00
 -1        98 8.11500E+01 0.00000E+00 0.00000E+00
 -1        99 8.41500E+01 0.00000E+00 0.00000E+00
 -1       100 8.71500E+01 0.00000E+00 0.00000E+00
 -1       101 9.01500E+01 0.00000E+00 0.00000E+00
 -1       102 9.31500E+01 0.00000E+00 0.00000E+00
 -1       103 9.61500E+01 0.00000E+00 0.00000E+00
 -1       104 9.91500E+01 0.00000E+00 0.00000E+00
 -1       105 1.02150E+02 0.00000E+00 0.00000E+00
 -1       106 1.05150E+02 0.00000E+00 0.00000E+00
 -1       107 1.08150E+02 0.00000E+00 0.00000E+00
 -1       108 1.11150E+02 0.00000E+00 0.00000E+00
 -1       109 1.14150E+02 0.00000E+00 0.00000E+00
 -1       110 1.17150E+02 0.00000E+00 0.00000E+00
 -1       111 1.20150E+02 0.00000E+00 0.00000E+00
 -1       112 1.23150E+02 0.00000E+00 0.00000E+00
 -1       113 1.26150E+02 0.00000E+00 0.00000E+00
 -1       114 1.29150E+02 0.00000E+00 0.00000E+00
 -1       115 1.32150E+02 0.00000E+00 0.00000E+00
 -1       116 1.35150E+02 0.00000E+00 0.00000E+00
 -1       117 1.38150E+02 0.00000E+00 0.00000E+00
 -1       118 1.41150E+02 0.00000E+00 0.00000E+00
 -1       119 1.44150E+02 0.00000E+00 0.00000E+00
 -1       120 1.47150E+02 0.00000E+00 0.00000E+00
 -1       121 1.50000E+02 2.95000E+00 0.00000E+00
 -1       122 1.50000E+02 5.90000E+00 0.00000E+00
 -1       123 1.50000E+02 8.85000E+00 0.00000E+00
 -1       124 1.50000E+02 1.18000E+01 0.00000E+00
 -1       125 1.50000E+02 1.47500E+01 0.00000E+00
 -1       126 1.50000E+02 1.76500E+01 0.00000E+00
 -1       127 1.50000E+02 2.06000E+01 0.00000E+00
 -1       128 1.50000E+02 2.35500E+01 0.00000E+00
 -1       129 1.50000E+02 2.65000E+01 0.00000E+00
 -1       130 1.50000E+02 2.94500E+01 0.00000E+00
 -1       131 1.50000E+02 3.24000E+01 0.00000E+00
 -1       132 1.50000E+02 3.53000E+01 0.00000E+00
 -1       133 1.50000E+02 3.82500E+01 0.00000E+00
 -1       134 1.50000E+02 4.12000E+01 0.00000E+00
 -1       135 1.50000E+02 4.41500E+01 0.00000E+00
 -1       136 1.50000E+02 4.71000E+01 0.00000E+00
 -1       137 7.51566E+01 2.52915E+01 0.00000E+00
 -1       138 7.46770E+01 2.38608E+01 0.00000E+00
 -1       139 7.38797E+01 2.25368E+01 0.00000E+00
 -1       140 7.27290E+01 2.13523E+01 0.00000E+00
 -1       141 7.15167E+01 2.05614E+01 0.00000E+00
 -1       142 6.99875E+01 1.99899E+01 0.00000E+00
 -1       143 6.85383E+01 1.97914E+01 0.00000E+00
 -1       144 6.69885E+01 1.99155E+01 0.00000E+00
 -1       145 6.55568E+01 2.03558E+01 0.00000E+00
 -1       146 6.42656E+01 2.10806E+01 0.00000E+00
 -1       147 6.31775E+01 2.20371E+01 0.00000E+00
 -1       148 6.23225E+01 2.31757E+01 0.00000E+00
 -1       149 6.16683E+01 2.46026E+01 0.00000E+00
 -1       150 6.13567E+01 2.60569E+01 0.00000E+00
 -1       151 6.13752E+01 2.76778E+01 0.00000E+00
 -1       152 6.17109E+01 2.90990E+01 0.00000E+00
 -1       153 6.24128E+01 3.05461E+01 0.00000E+00
 -1       154 6.33758E+01 3.17448E+01 0.00000E+00
 -1       155 6.45826E+01 3.27077E+01 0.00000E+00
 -1       156 6.59755E+01 3.33842E+01 0.00000E+00
 -1       157 6.74972E+01 3.37396E+01 0.00000E+00
 -1       158 6.90572E+01 3.37489E+01 0.00000E+00
 -1       159 7.18380E+01 3.28388E+01 0.00000E+00
 -1       160 7.30525E+01 3.19444E+01 0.00000E+00
 -1       161 7.40381E+01 3.08235E+01 0.00000E+00
 -1       162 7.47237E+01 2.96116E+01 0.00000E+00
 -1       163 7.51631E+01 2.82545E+01 0.00000E+00
 -1       164 2.59800E+00 4.55750E+01 0.00000E+00
 -1       165 2.59800E+00 4.26250E+01 0.00000E+00
 -1       166 2.59800E+00 3.96750E+01 0.00000E+00
 -1       167 2.59800E+00 3.67250E+01 0.00000E+00
 -1       168 2.59800E+00 3.38250E+01 0.00000E+00
 -1       169 2.59800E+00 3.08750E+01 0.00000E+00
 -1       170 2.59800E+00 2.79250E+01 0.00000E+00
 -1       171 2.59800E+00 2.49750E+01 0.00000E+00
 -1       172 2.59800E+00 2.20250E+01 0.00000E+00
 -1       173 2.59800E+00 1.90750E+01 0.00000E+00
 -1       174 2.59800E+00 1.61750E+01 0.00000E+00
 -1       175 2.59800E+00 1.32250E+01 0.00000E+00
 -1       176 2.59800E+00 1.02750E+01 0.00000E+00
 -1       177 2.59800E+00 7.32500E+00 0.00000E+00
 -1       178 2.59800E+00 4.37500E+00 0.00000E+00
 -1       179 2.87400E+00 2.18750E+00 0.00000E+00
 -1       180 4.65000E+00 4.74020E+01 0.00000E+00
 -1       181 7.65000E+00 4.74020E+01 0.00000E+00
 -1       182 1.06500E+01 4.74020E+01 0.00000E+00
 -1       183 1.36500E+01 4.74020E+01 0.00000E+00
 -1       184 1.66500E+01 4.74020E+01 0.00000E+00
 -1       185 1.96500E+01 4.74020E+01 0.00000E+00
 -1       186 2.26500E+01 4.74020E+01 0.00000E+00
 -1       187 2.56500E+01 4.74020E+01 0.00000E+00
 -1       188 2.86500E+01 4.74020E+01 0.00000E+00
 -1       189 3.16500E+01 4.74020E+01 0.00000E+00
 -1       190 3.46500E+01 4.74020E+01 0.00000E+00
 -1       191 3.76500E+01 4.74020E+01 0.00000E+00
 -1       192 4.06500E+01 4.74020E+01 0.00000E+00
 -1       193 4.36500E+01 4.74020E+01 0.00000E+00
 -1       194 4.66500E+01 4.74020E+01 0.00000E+00
 -1       195 4.96500E+01 4.74020E+01 0.00000E+00
 -1       196 5.26500E+01 4.74020E+01 0.00000E+00
 -1       197 5.56500E+01 4.74020E+01 0.00000E+00
 -1       198 5.86500E+01 4.74020E+01 0.00000E+00
 -1       199 6.16500E+01 4.74020E+01 0.00000E+00
 -1       200 6.46500E+01 4.74020E+01 0.00000E+00
 -1       201 6.76500E+01 4.74020E+01 0.00000E+00
 -1       202 7.06500E+01 4.74020E+01 0.00000E+00
 -1       203 7.36500E+01 4.74020E+01 0.00000E+00
 -1       204 7.66500E+01 4.74020E+01 0.00000E+00
 -1       205 7.96500E+01 4.74020E+01 0.00000E+00
 -1       206 8.26500E+01 4.74020E+01 0.00000E+00
 -1       207 8.56500E+01 4.74020E+01 0.00000E+00
 -1       208 8.86500E+01 4.74020E+01 0.00000E+00
 -1       209 9.16500E+01 4.74020E+01 0.00000E+00
 -1       210 9.46500E+01 4.74020E+01 0.00000E+00
 -1       211 9.76500E+01 4.74020E+01 0.00000E+00
 -1       212 1.00650E+02 4.74020E+01 0.00000E+00
 -1       213 1.03650E+02 4.74020E+01 0.00000E+00
 -1       214 1.06650E+02 4.74020E+01 0.00000E+00
 -1       215 1.09650E+02 4.74020E+01 0.00000E+00
 -1       216 1.12650E+02 4.74020E+01 0.00000E+00
 -1       217 1.15650E+02 4.74020E+01 0.00000E+00
 -1       218 1.18650E+02 4.74020E+01 0.00000E+00
 -1       219 1.21650E+02 4.74020E+01 0.00000E+00
 -1       220 1.24650E+02 4.74020E+01 0.00000E+00
 -1       221 1.27650E+02 4.74020E+01 0.00000E+00
 -1       222 1.30650E+02 4.74020E+01 0.00000E+00
 -1       223 1.33650E+02 4.74020E+01 0.00000E+00
 -1       224 1.36650E+02 4.74020E+01 0.00000E+00
 -1       225 1.39650E+02 4.74020E+01 0.00000E+00
 -1       226 1.42650E+02 4.74020E+01 0.00000E+00
 -1       227 1.45650E+02 4.74020E+01 0.00000E+00
 -1       228 5.87400E+00 2.18750E+00 0.00000E+00
 -1       229 8.87400E+00 2.18750E+00 0.00000E+00
 -1       230 1.18740E+01 2.18750E+00 0.00000E+00
 -1       231 1.48740E+01 2.18750E+00 0.00000E+00
 -1       232 1.78740E+01 2.18750E+00 0.00000E+00
 -1       233 2.08740E+01 2.18750E+00 0.00000E+00
 -1       234 2.38740E+01 2.18750E+00 0.00000E+00
 -1       235 2.68740E+01 2.18750E+00 0.00000E+00
 -1       236 2.98740E+01 2.18750E+00 0.00000E+00
 -1       237 3.28740E+01 2.18750E+00 0.00000E+00
 -1       238 3.58740E+01 2.18750E+00 0.00000E+00
 -1       239 3.88740E+01 2.18750E+00 0.00000E+00
 -1       240 4.18740E+01 2.18750E+00 0.00000E+00
 -1       241 4.48740E+01 2.18750E+00 0.00000E+00
 -1       242 4.78740E+01 2.18750E+00 0.00000E+00
 -1       243 5.08740E+01 2.18750E+00 0.00000E+00
 -1       244 5.38740E+01 2.18750E+00 0.00000E+00
 -1       245 5.68740E+01 2.18750E+00 0.00000E+00
 -1       246 5.98740E+01 2.18750E+00 0.00000E+00
 -1       247 6.28740E+01 2.18750E+00 0.00000E+00
 -1       248 6.58740E+01 2.18750E+00 0.00000E+00
 -1       249 6.88740E+01 2.18750E+00 0.00000E+00
 -1       250 7.18740E+01 2.18750E+00 0.00000E+00
 -1       251 7.48740E+01 2.18750E+00 0.00000E+00
 -1       252 7.78740E+01 2.18750E+00 0.00000E+00
 -1       253 8.08740E+01 2.18750E+00 0.00000E+00
 -1       254 8.38740E+01 2.18750E+00 0.00000E+00
 -1       255 8.68740E+01 2.18750E+00 0.00000E+00
 -1       256 8.98740E+01 2.18750E+00 0.00000E+00
 -1       257 9.28740E+01 2.18750E+00 0.00000E+00
 -1       258 9.58740E+01 2.18750E+00 0.00000E+00
 -1       259 9.88740E+01 2.18750E+00 0.00000E+00
 -1       260 1.01874E+02 2.18750E+00 0.00000E+00
 -1       261 1.04874E+02 2.18750E+00 0.00000E+00
 -1       262 1.07874E+02 2.18750E+00 0.00000E+00
 -1       263 1.10874E+02 2.18750E+00 0.00000E+00
 -1       264 1.13874E+02 2.18750E+00 0.00000E+00
 -1       265 1.16874E+02 2.18750E+00 0.00000E+00
 -1       266 1.19874E+02 2.18750E+00 0.00000E+00
 -1       267 1.22874E+02 2.18750E+00 0.00000E+00
 -1       268 1.25874E+02 2.18750E+00 0.00000E+00
 -1       269 1.28874E+02 2.18750E+00 0.00000E+00
 -1       270 1.31874E+02 2.18750E+00 0.00000E+00
 -1       271 1.34874E+02 2.18750E+00 0.00000E+00
 -1       272 1.37874E+02 2.18750E+00 0.00000E+00
 -1       273 1.40874E+02 2.18750E+00 0.00000E+00
 -1       274 1.43874E+02 2.18750E+00 0.00000E+00
 -1       275 1.46874E+02 2.18750E+00 0.00000E+00
 -1       276 1.47402E+02 4.42500E+00 0.00000E+00
 -1       277 1.47402E+02 7.37500E+00 0.00000E+00
 -1       278 1.47402E+02 1.03250E+01 0.00000E+00
 -1       279 1.47402E+02 1.32750E+01 0.00000E+00
 -1       280 1.47402E+02 1.61750E+01 0.00000E+00
 -1       281 1.47402E+02 1.91250E+01 0.00000E+00
 -1       282 1.47402E+02 2.20750E+01 0.00000E+00
 -1       283 1.47402E+02 2.50250E+01 0.00000E+00
 -1       284 1.47402E+02 2.79750E+01 0.00000E+00
 -1       285 1.47402E+02 3.09250E+01 0.00000E+00
 -1       286 1.47402E+02 3.38250E+01 0.00000E+00
 -1       287 1.47402E+02 3.67750E+01 0.00000E+00
 -1       288 1.47402E+02 3.97250E+01 0.00000E+00
 -1       289 1.47402E+02 4.26750E+01 0.00000E+00
 -1       290 1.46526E+02 4.50385E+01 0.00000E+00
 -1       291 7.64429E+01 2.59094E+01 0.00000E+00
 -1       292 7.61458E+01 2.41642E+01 0.00000E+00
 -1       293 7.53887E+01 2.25301E+01 0.00000E+00
 -1       294 7.42942E+01 2.09830E+01 0.00000E+00
 -1       295 7.27854E+01 1.99414E+01 0.00000E+00
 -1       296 7.12645E+01 1.89045E+01 0.00000E+00
 -1       297 6.94274E+01 1.86895E+01 0.00000E+00
 -1       298 6.76533E+01 1.84779E+01 0.00000E+00
 -1       299 6.59163E+01 1.89768E+01 0.00000E+00
 -1       300 6.42768E+01 1.95879E+01 0.00000E+00
 -1       301 6.29211E+01 2.06482E+01 0.00000E+00
 -1       302 6.17805E+01 2.18784E+01 0.00000E+00
 -1       303 6.05887E+01 2.32442E+01 0.00000E+00
 -1       304 6.02451E+01 2.50582E+01 0.00000E+00
 -1       305 5.98185E+01 2.68851E+01 0.00000E+00
 -1       306 6.03632E+01 2.86672E+01 0.00000E+00
 -1       307 6.06695E+01 3.04979E+01 0.00000E+00
 -1       308 6.18838E+01 3.19572E+01 0.00000E+00
 -1       309 6.30662E+01 3.33704E+01 0.00000E+00
 -1       310 6.46761E+01 3.42873E+01 0.00000E+00
 -1       311 6.64606E+01 3.47426E+01 0.00000E+00
 -1       312 6.82700E+01 3.49566E+01 0.00000E+00
 -1       313 7.00978E+01 3.49341E+01 0.00000E+00
 -1       314 7.16943E+01 3.42351E+01 0.00000E+00
 -1       315 7.32636E+01 3.35028E+01 0.00000E+00
 -1       316 7.45187E+01 3.22398E+01 0.00000E+00
 -1       317 7.54361E+01 3.08145E+01 0.00000E+00
 -1       318 7.60968E+01 2.93065E+01 0.00000E+00
 -1       319 7.65297E+01 2.76578E+01 0.00000E+00
 -1       320 5.19600E+00 4.11500E+01 0.00000E+00
 -1       321 5.19600E+00 4.41000E+01 0.00000E+00
 -1       322 5.19600E+00 3.52750E+01 0.00000E+00
 -1       323 5.19600E+00 3.23250E+01 0.00000E+00
 -1       324 5.19600E+00 2.93750E+01 0.00000E+00
 -1       325 5.19600E+00 2.64250E+01 0.00000E+00
 -1       326 5.19600E+00 2.34750E+01 0.00000E+00
 -1       327 5.19600E+00 2.05250E+01 0.00000E+00
 -1       328 5.19600E+00 1.76250E+01 0.00000E+00
 -1       329 5.19600E+00 1.46750E+01 0.00000E+00
 -1       330 5.19600E+00 1.17250E+01 0.00000E+00
 -1       331 5.19600E+00 8.77500E+00 0.00000E+00
 -1       332 5.19600E+00 5.82500E+00 0.00000E+00
 -1       333 5.53500E+00 4.00625E+00 0.00000E+00
 -1       334 8.53500E+00 4.00625E+00 0.00000E+00
 -1       335 9.15000E+00 4.48040E+01 0.00000E+00
 -1       336 1.21500E+01 4.48040E+01 0.00000E+00
 -1       337 1.51500E+01 4.48040E+01 0.00000E+00
 -1       338 1.81500E+01 4.48040E+01 0.00000E+00
 -1       339 2.11500E+01 4.48040E+01 0.00000E+00
 -1       340 2.41500E+01 4.48040E+01 0.00000E+00
 -1       341 2.71500E+01 4.48040E+01 0.00000E+00
 -1       342 3.01500E+01 4.48040E+01 0.00000E+00
 -1       343 3.31500E+01 4.48040E+01 0.00000E+00
 -1       344 3.61500E+01 4.48040E+01 0.00000E+00
 -1       345 3.91500E+01 4.48040E+01 0.00000E+00
 -1       346 4.21500E+01 4.48040E+01 0.00000E+00
 -1       347 4.51500E+01 4.48040E+01 0.00000E+00
 -1       348 4.81500E+01 4.48040E+01 0.00000E+00
 -1       349 5.11500E+01 4.48040E+01 0.00000E+00
 -1       350 5.41500E+01 4.48040E+01 0.00000E+00
 -1       351 5.71500E+01 4.48040E+01 0.00000E+00
 -1       352 6.01500E+01 4.48040E+01 0.00000E+00
 -1       353 6.31500E+01 4.48040E+01 0.00000E+00
 -1       354 6.61500E+01 4.48040E+01 0.00000E+00
 -1       355 6.91500E+01 4.48040E+01 0.00000E+00
 -1       356 7.21500E+01 4.48040E+01 0.00000E+00
 -1       357 7.51500E+01 4.48040E+01 0.00000E+00
 -1       358 7.81500E+01 4.48040E+01 0.00000E+00
 -1       359 8.11500E+01 4.48040E+01 0.00000E+00
 -1       360 8.41500E+01 4.48040E+01 0.00000E+00
 -1       361 8.71500E+01 4.48040E+01 0.00000E+00
 -1       362 9.01500E+01 4.48040E+01 0.00000E+00
 -1       363 9.31500E+01 4.48040E+01 0.00000E+00
 -1       364 9.61500E+01 4.48040E+01 0.00000E+00
 -1       365 9.91500E+01 4.48040E+01 0.00000E+00
 -1       366 1.02150E+02 4.48040E+01 0.00000E+00
 -1       367 1.05150E+02 4.48040E+01 0.00000E+00
 -1       368 1.08150E+02 4.48040E+01 0.00000E+00
 -1       369 1.11150E+02 4.48040E+01 0.00000E+00
 -1       370 1.14150E+02 4.48040E+01 0.00000E+00
 -1       371 1.17150E+02 4.48040E+01 0.00000E+00
 -1       372 1.20150E+02 4.48040E+01 0.00000E+00
 -1       373 1.23150E+02 4.48040E+01 0.00000E+00
 -1       374 1.26150E+02 4.48040E+01 0.00000E+00
 -1       375 1.29150E+02 4.48040E+01 0.00000E+00
 -1       376 1.32150E+02 4.48040E+01 0.00000E+00
 -1       377 1.35150E+02 4.48040E+01 0.00000E+00
 -1       378 1.38150E+02 4.48040E+01 0.00000E+00
 -1       379 1.41150E+02 4.48040E+01 0.00000E+00
 -1       380 1.43838E+02 4.49212E+01 0.00000E+00
 -1       381 1.15350E+01 4.00625E+00 0.00000E+00
 -1       382 1.45350E+01 4.00625E+00 0.00000E+00
 -1       383 1.75350E+01 4.00625E+00 0.00000E+00
 -1       384 2.05350E+01 4.00625E+00 0.00000E+00
 -1       385 2.35350E+01 4.00625E+00 0.00000E+00
 -1       386 2.65350E+01 4.00625E+00 0.00000E+00
 -1       387 2.95350E+01 4.00625E+00 0.00000E+00
 -1       388 3.25350E+01 4.00625E+00 0.00000E+00
 -1       389 3.55350E+01 4.00625E+00 0.00000E+00
 -1       390 3.85350E+01 4.00625E+00 0.00000E+00
 -1       391 4.15350E+01 4.00625E+00 0.00000E+00
 -1       392 4.45350E+01 4.00625E+00 0.00000E+00
 -1       393 4.75350E+01 4.00625E+00 0.00000E+00
 -1       394 5.05350E+01 4.00625E+00 0.00000E+00
 -1       395 5.35350E+01 4.00625E+00 0.00000E+00
 -1       396 5.65350E+01 4.00625E+00 0.00000E+00
 -1       397 5.95350E+01 4.00625E+00 0.00000E+00
 -1       398 6.25350E+01 4.00625E+00 0.00000E+00
 -1       399 6.55350E+01 4.00625E+00 0.00000E+00
 -1       400 6.85350E+01 4.00625E+00 0.00000E+00
 -1       401 7.15350E+01 4.00625E+00 0.00000E+00
 -1       402 7.45350E+01 4.00625E+00 0.00000E+00
 -1       403 7.75350E+01 4.00625E+00 0.00000E+00
 -1       404 8.05350E+01 4.00625E+00 0.00000E+00
 -1       405 8.35350E+01 4.00625E+00 0.00000E+00
 -1       406 8.65350E+01 4.00625E+00 0.00000E+00
 -1       407 8.95350E+01 4.00625E+00 0.00000E+00
 -1       408 9.25350E+01 4.00625E+00 0.00000E+00
 -1       409 9.55350E+01 4.00625E+00 0.00000E+00
 -1       410 9.85350E+01 4.00625E+00 0.00000E+00
 -1       411 1.01535E+02 4.00625E+00 0.00000E+00
 -1       412 1.04535E+02 4.00625E+00 0.00000E+00
 -1       413 1.07535E+02 4.00625E+00 0.00000E+00
 -1       414 1.10535E+02 4.00625E+00 0.00000E+00
 -1       415 1.13535E+02 4.00625E+00 0.00000E+00
 -1       416 1.16535E+02 4.00625E+00 0.00000E+00
 -1       417 1.19535E+02 4.00625E+00 0.00000E+00
 -1       418 1.22535E+02 4.00625E+00 0.00000E+00
 -1       419 1.25535E+02 4.00625E+00 0.00000E+00
 -1       420 1.28535E+02 4.00625E+00 0.00000E+00
 -1       421 1.31535E+02 4.00625E+00 0.00000E+00
 -1       422 1.34535E+02 4.00625E+00 0.00000E+00
 -1       423 1.37535E+02 4.00625E+00 0.00000E+00
 -1       424 1.40535E+02 4.00625E+00 0.00000E+00
 -1       425 1.43535E+02 4.00625E+00 0.00000E+00
 -1       426 1.45469E+02 4.21562E+00 0.00000E+00
 -1       427 1.44804E+02 1.18000E+01 0.00000E+00
 -1       428 1.44804E+02 8.85000E+00 0.00000E+00
 -1       429 1.45136E+02 6.53281E+00 0.00000E+00
 -1       430 1.44804E+02 1.47000E+01 0.00000E+00
 -1       431 1.44804E+02 1.76500E+01 0.00000E+00
 -1       432 1.44804E+02 2.06000E+01 0.00000E+00
 -1       433 1.44804E+02 2.35500E+01 0.00000E+00
 -1       434 1.44804E+02 2.65000E+01 0.00000E+00
 -1       435 1.44804E+02 2.94500E+01 0.00000E+00
 -1       436 1.44804E+02 3.23500E+01 0.00000E+00
 -1       437 1.44804E+02 3.53000E+01 0.00000E+00
 -1       438 1.44804E+02 3.82500E+01 0.00000E+00
 -1       439 1.44804E+02 4.12000E+01 0.00000E+00
 -1       440 7.70954E+01 2.27318E+01 0.00000E+00
 -1       441 7.78646E+01 2.67151E+01 0.00000E+00
 -1       442 7.76547E+01 2.48052E+01 0.00000E+00
 -1       443 7.61048E+01 2.08628E+01 0.00000E+00
 -1       444 7.42761E+01 1.93955E+01 0.00000E+00
 -1       445 5.19600E+00 3.82125E+01 0.00000E+00
 -1       446 7.05258E+01 1.72599E+01 0.00000E+00
 -1       447 6.87518E+01 1.70483E+01 0.00000E+00
 -1       448 6.64270E+01 1.74815E+01 0.00000E+00
 -1       449 6.45268E+01 1.77537E+01 0.00000E+00
 -1       450 6.25422E+01 1.87671E+01 0.00000E+00
 -1       451 6.14017E+01 1.99972E+01 0.00000E+00
 -1       452 6.02080E+01 2.17091E+01 0.00000E+00
 -1       453 5.89787E+01 2.38788E+01 0.00000E+00
 -1       454 5.85521E+01 2.57057E+01 0.00000E+00
 -1       455 5.87711E+01 2.81794E+01 0.00000E+00
 -1       456 5.90774E+01 3.00102E+01 0.00000E+00
 -1       457 6.02159E+01 3.21103E+01 0.00000E+00
 -1       458 6.13983E+01 3.35235E+01 0.00000E+00
 -1       459 6.31883E+01 3.50280E+01 0.00000E+00
 -1       460 6.52065E+01 3.59333E+01 0.00000E+00
 -1       461 6.71638E+01 3.65528E+01 0.00000E+00
 -1       462 6.92019E+01 3.64090E+01 0.00000E+00
 -1       463 7.14831E+01 3.59255E+01 0.00000E+00
 -1       464 7.30524E+01 3.51931E+01 0.00000E+00
 -1       465 7.49294E+01 3.39031E+01 0.00000E+00
 -1       466 7.62083E+01 3.23194E+01 0.00000E+00
 -1       467 7.72607E+01 3.07152E+01 0.00000E+00
 -1       468 7.75670E+01 2.88113E+01 0.00000E+00
 -1       469 7.27551E+01 1.83520E+01 0.00000E+00
 -1       470 7.20165E+01 1.67075E+01 0.00000E+00
 -1       471 5.86238E+01 3.16225E+01 0.00000E+00
 -1       472 5.75047E+01 2.70000E+01 0.00000E+00
 -1       473 5.85980E+01 2.23437E+01 0.00000E+00
 -1       474 1.00350E+01 6.60425E+00 0.00000E+00
 -1       475 7.79400E+00 3.08500E+01 0.00000E+00
 -1       476 7.79400E+00 3.38000E+01 0.00000E+00
 -1       477 7.79400E+00 2.49500E+01 0.00000E+00
 -1       478 7.79400E+00 2.20000E+01 0.00000E+00
 -1       479 7.79400E+00 1.91000E+01 0.00000E+00
 -1       480 7.79400E+00 1.61500E+01 0.00000E+00
 -1       481 7.79400E+00 1.32000E+01 0.00000E+00
 -1       482 7.79400E+00 1.02500E+01 0.00000E+00
 -1       483 1.30350E+01 6.60425E+00 0.00000E+00
 -1       484 1.06500E+01 4.22060E+01 0.00000E+00
 -1       485 7.44385E+01 1.75286E+01 0.00000E+00
 -1       486 1.36500E+01 4.22060E+01 0.00000E+00
 -1       487 1.66500E+01 4.22060E+01 0.00000E+00
 -1       488 1.96500E+01 4.22060E+01 0.00000E+00
 -1       489 2.26500E+01 4.22060E+01 0.00000E+00
 -1       490 2.56500E+01 4.22060E+01 0.00000E+00
 -1       491 2.86500E+01 4.22060E+01 0.00000E+00
 -1       492 3.16500E+01 4.22060E+01 0.00000E+00
 -1       493 3.46500E+01 4.22060E+01 0.00000E+00
 -1       494 3.76500E+01 4.22060E+01 0.00000E+00
 -1       495 4.06500E+01 4.22060E+01 0.00000E+00
 -1       496 4.36500E+01 4.22060E+01 0.00000E+00
 -1       497 4.66500E+01 4.22060E+01 0.00000E+00
 -1       498 4.96500E+01 4.22060E+01 0.00000E+00
 -1       499 5.26500E+01 4.22060E+01 0.00000E+00
 -1       500 5.56500E+01 4.22060E+01 0.00000E+00
 -1       501 5.86500E+01 4.22060E+01 0.00000E+00
 -1       502 6.16500E+01 4.22060E+01 0.00000E+00
 -1       503 6.46500E+01 4.22060E+01 0.00000E+00
 -1       504 6.76500E+01 4.22060E+01 0.00000E+00
 -1       505 7.06500E+01 4.22060E+01 0.00000E+00
 -1       506 7.36500E+01 4.22060E+01 0.00000E+00
 -1       507 7.66500E+01 4.22060E+01 0.00000E+00
 -1       508 7.96500E+01 4.22060E+01 0.00000E+00
 -1       509 8.26500E+01 4.22060E+01 0.00000E+00
 -1       510 8.56500E+01 4.22060E+01 0.00000E+00
 -1       511 8.86500E+01 4.22060E+01 0.00000E+00
 -1       512 9.16500E+01 4.22060E+01 0.00000E+00
 -1       513 9.46500E+01 4.22060E+01 0.00000E+00
 -1       514 9.76500E+01 4.22060E+01 0.00000E+00
 -1       515 1.00650E+02 4.22060E+01 0.00000E+00
 -1       516 1.03650E+02 4.22060E+01 0.00000E+00
 -1       517 1.06650E+02 4.22060E+01 0.00000E+00
 -1       518 1.09650E+02 4.22060E+01 0.00000E+00
 -1       519 1.12650E+02 4.22060E+01 0.00000E+00
 -1       520 1.15650E+02 4.22060E+01 0.00000E+00
 -1       521 1.18650E+02 4.22060E+01 0.00000E+00
 -1       522 1.21650E+02 4.22060E+01 0.00000E+00
 -1       523 1.24650E+02 4.22060E+01 0.00000E+00
 -1       524 1.27650E+02 4.22060E+01 0.00000E+00
 -1       525 1.30650E+02 4.22060E+01 0.00000E+00
 -1       526 1.33650E+02 4.22060E+01 0.00000E+00
 -1       527 1.36650E+02 4.22060E+01 0.00000E+00
 -1       528 1.39650E+02 4.22060E+01 0.00000E+00
 -1       529 1.90350E+01 6.60425E+00 0.00000E+00
 -1       530 2.20350E+01 6.60425E+00 0.00000E+00
 -1       531 2.50350E+01 6.60425E+00 0.00000E+00
 -1       532 2.80350E+01 6.60425E+00 0.00000E+00
 -1       533 3.10350E+01 6.60425E+00 0.00000E+00
 -1       534 3.40350E+01 6.60425E+00 0.00000E+00
 -1       535 3.70350E+01 6.60425E+00 0.00000E+00
 -1       536 4.00350E+01 6.60425E+00 0.00000E+00
 -1       537 4.30350E+01 6.60425E+00 0.00000E+00
 -1       538 4.60350E+01 6.60425E+00 0.00000E+00
 -1       539 4.90350E+01 6.60425E+00 0.00000E+00
 -1       540 5.20350E+01 6.60425E+00 0.00000E+00
 -1       541 5.50350E+01 6.60425E+00 0.00000E+00
 -1       542 5.80350E+01 6.60425E+00 0.00000E+00
 -1       543 6.10350E+01 6.60425E+00 0.00000E+00
 -1       544 6.40350E+01 6.60425E+00 0.00000E+00
 -1       545 6.70350E+01 6.60425E+00 0.00000E+00
 -1       546 7.00350E+01 6.60425E+00 0.00000E+00
 -1       547 7.30350E+01 6.60425E+00 0.00000E+00
 -1       548 7.60350E+01 6.60425E+00 0.00000E+00
 -1       549 7.90350E+01 6.60425E+00 0.00000E+00
 -1       550 8.20350E+01 6.60425E+00 0.00000E+00
 -1       551 8.50350E+01 6.60425E+00 0.00000E+00
 -1       552 8.80350E+01 6.60425E+00 0.00000E+00
 -1       553 9.10350E+01 6.60425E+00 0.00000E+00
 -1       554 9.40350E+01 6.60425E+00 0.00000E+00
 -1       555 9.70350E+01 6.60425E+00 0.00000E+00
 -1       556 1.00035E+02 6.60425E+00 0.00000E+00
 -1       557 1.03035E+02 6.60425E+00 0.00000E+00
 -1       558 1.06035E+02 6.60425E+00 0.00000E+00
 -1       559 1.09035E+02 6.60425E+00 0.00000E+00
 -1       560 1.12035E+02 6.60425E+00 0.00000E+00
 -1       561 1.15035E+02 6.60425E+00 0.00000E+00
 -1       562 1.18035E+02 6.60425E+00 0.00000E+00
 -1       563 1.21035E+02 6.60425E+00 0.00000E+00
 -1       564 1.24035E+02 6.60425E+00 0.00000E+00
 -1       565 1.27035E+02 6.60425E+00 0.00000E+00
 -1       566 1.30035E+02 6.60425E+00 0.00000E+00
 -1       567 1.33035E+02 6.60425E+00 0.00000E+00
 -1       568 1.36035E+02 6.60425E+00 0.00000E+00
 -1       569 1.39035E+02 6.60425E+00 0.00000E+00
 -1       570 1.42035E+02 6.60425E+00 0.00000E+00
 -1       571 1.42206E+02 1.61750E+01 0.00000E+00
 -1       572 1.42206E+02 1.91250E+01 0.00000E+00
 -1       573 1.42206E+02 1.03250E+01 0.00000E+00
 -1       574 1.42206E+02 1.32500E+01 0.00000E+00
 -1       575 1.42206E+02 2.20750E+01 0.00000E+00
 -1       576 1.42206E+02 2.50250E+01 0.00000E+00
 -1       577 1.42206E+02 2.79750E+01 0.00000E+00
 -1       578 1.42206E+02 3.08750E+01 0.00000E+00
 -1       579 1.42206E+02 3.38250E+01 0.00000E+00
 -1       580 1.42206E+02 3.67750E+01 0.00000E+00
 -1       581 1.42206E+02 3.97250E+01 0.00000E+00
 -1       582 7.93812E+01 2.55820E+01 0.00000E+00
 -1       583 7.81155E+01 2.09941E+01 0.00000E+00
 -1       584 1.60350E+01 6.60425E+00 0.00000E+00
 -1       585 7.92480E+01 2.79807E+01 0.00000E+00
 -1       586 7.90310E+01 2.33218E+01 0.00000E+00
 -1       587 7.92300E+00 4.16780E+01 0.00000E+00
 -1       588 7.89417E+01 2.98846E+01 0.00000E+00
 -1       589 7.06808E+01 3.77631E+01 0.00000E+00
 -1       590 5.94667E+01 1.99201E+01 0.00000E+00
 -1       591 6.26783E+01 1.65837E+01 0.00000E+00
 -1       592 7.79400E+00 2.79000E+01 0.00000E+00
 -1       593 6.52693E+01 1.61687E+01 0.00000E+00
 -1       594 6.98121E+01 1.57007E+01 0.00000E+00
 -1       595 6.72905E+01 1.56612E+01 0.00000E+00
 -1       596 6.06073E+01 1.86899E+01 0.00000E+00
 -1       597 6.35298E+01 3.69691E+01 0.00000E+00
 -1       598 5.70952E+01 2.44023E+01 0.00000E+00
 -1       599 5.73153E+01 2.93640E+01 0.00000E+00
 -1       600 5.92347E+01 3.41325E+01 0.00000E+00
 -1       601 7.67728E+01 3.40835E+01 0.00000E+00
 -1       602 6.10246E+01 3.56371E+01 0.00000E+00
 -1       603 6.56928E+01 3.77983E+01 0.00000E+00
 -1       604 6.82859E+01 3.79410E+01 0.00000E+00
 -1       605 7.28867E+01 3.68857E+01 0.00000E+00
 -1       606 7.49623E+01 3.59616E+01 0.00000E+00
 -1       607 7.80985E+01 3.24121E+01 0.00000E+00
 -1       608 7.61550E+00 6.21462E+00 0.00000E+00
 -1       609 7.62638E+01 1.87914E+01 0.00000E+00
 -1       610 7.79400E+00 3.67375E+01 0.00000E+00
 -1       611 7.13027E+01 1.51482E+01 0.00000E+00
 -1       612 5.68617E+01 3.09763E+01 0.00000E+00
 -1       613 5.60478E+01 2.56966E+01 0.00000E+00
 -1       614 6.07433E+01 1.65065E+01 0.00000E+00
 -1       615 5.67146E+01 2.28671E+01 0.00000E+00
 -1       616 1.41678E+02 4.22645E+01 0.00000E+00
 -1       617 1.03920E+01 2.05500E+01 0.00000E+00
 -1       618 1.03920E+01 2.35000E+01 0.00000E+00
 -1       619 1.03920E+01 1.46750E+01 0.00000E+00
 -1       620 1.03920E+01 1.17250E+01 0.00000E+00
 -1       621 1.15350E+01 9.20225E+00 0.00000E+00
 -1       622 8.03060E+01 3.17441E+01 0.00000E+00
 -1       623 8.09536E+01 2.92317E+01 0.00000E+00
 -1       624 7.70740E+01 3.61856E+01 0.00000E+00
 -1       625 6.13933E+01 3.79654E+01 0.00000E+00
 -1       626 1.51500E+01 3.96080E+01 0.00000E+00
 -1       627 1.81500E+01 3.96080E+01 0.00000E+00
 -1       628 2.11500E+01 3.96080E+01 0.00000E+00
 -1       629 2.41500E+01 3.96080E+01 0.00000E+00
 -1       630 2.71500E+01 3.96080E+01 0.00000E+00
 -1       631 3.01500E+01 3.96080E+01 0.00000E+00
 -1       632 3.31500E+01 3.96080E+01 0.00000E+00
 -1       633 3.61500E+01 3.96080E+01 0.00000E+00
 -1       634 3.91500E+01 3.96080E+01 0.00000E+00
 -1       635 4.21500E+01 3.96080E+01 0.00000E+00
 -1       636 4.51500E+01 3.96080E+01 0.00000E+00
 -1       637 4.81500E+01 3.96080E+01 0.00000E+00
 -1       638 5.11500E+01 3.96080E+01 0.00000E+00
 -1       639 5.41500E+01 3.96080E+01 0.00000E+00
 -1       640 5.71500E+01 3.96080E+01 0.00000E+00
 -1       641 6.61500E+01 3.98206E+01 0.00000E+00
 -1       642 6.91500E+01 3.99882E+01 0.00000E+00
 -1       643 7.21500E+01 3.99882E+01 0.00000E+00
 -1       644 7.51500E+01 3.98206E+01 0.00000E+00
 -1       645 7.81500E+01 3.98206E+01 0.00000E+00
 -1       646 8.11500E+01 3.98206E+01 0.00000E+00
 -1       647 8.41500E+01 3.98206E+01 0.00000E+00
 -1       648 8.71500E+01 3.98206E+01 0.00000E+00
 -1       649 9.01500E+01 3.98206E+01 0.00000E+00
 -1       650 9.31500E+01 3.98206E+01 0.00000E+00
 -1       651 9.61500E+01 3.98206E+01 0.00000E+00
 -1       652 9.91500E+01 3.98206E+01 0.00000E+00
 -1       653 1.02150E+02 3.98206E+01 0.00000E+00
 -1       654 1.05150E+02 3.98206E+01 0.00000E+00
 -1       655 1.08150E+02 3.98206E+01 0.00000E+00
 -1       656 1.11150E+02 3.98206E+01 0.00000E+00
 -1       657 1.14150E+02 3.98206E+01 0.00000E+00
 -1       658 1.17150E+02 3.98206E+01 0.00000E+00
 -1       659 1.20150E+02 3.98206E+01 0.00000E+00
 -1       660 1.23150E+02 3.98206E+01 0.00000E+00
 -1       661 1.26150E+02 3.98206E+01 0.00000E+00
 -1       662 1.29150E+02 3.98206E+01 0.00000E+00
 -1       663 1.32150E+02 3.98206E+01 0.00000E+00
 -1       664 1.35150E+02 3.98206E+01 0.00000E+00
 -1       665 1.38150E+02 3.98206E+01 0.00000E+00
 -1       666 2.35350E+01 9.20225E+00 0.00000E+00
 -1       667 1.39206E+02 1.03250E+01 0.00000E+00
 -1       668 2.05350E+01 9.20225E+00 0.00000E+00
 -1       669 2.95350E+01 9.20225E+00 0.00000E+00
 -1       670 3.25350E+01 9.20225E+00 0.00000E+00
 -1       671 3.55350E+01 9.20225E+00 0.00000E+00
 -1       672 3.85350E+01 9.20225E+00 0.00000E+00
 -1       673 4.15350E+01 9.20225E+00 0.00000E+00
 -1       674 4.45350E+01 9.20225E+00 0.00000E+00
 -1       675 4.75350E+01 9.20225E+00 0.00000E+00
 -1       676 5.05350E+01 9.20225E+00 0.00000E+00
 -1       677 5.35350E+01 9.20225E+00 0.00000E+00
 -1       678 5.65350E+01 9.20225E+00 0.00000E+00
 -1       679 5.95350E+01 9.20225E+00 0.00000E+00
 -1       680 6.25350E+01 9.20225E+00 0.00000E+00
 -1       681 6.55350E+01 9.20225E+00 0.00000E+00
 -1       682 6.85350E+01 9.20225E+00 0.00000E+00
 -1       683 7.15350E+01 9.20225E+00 0.00000E+00
 -1       684 7.45350E+01 9.20225E+00 0.00000E+00
 -1       685 7.75350E+01 9.20225E+00 0.00000E+00
 -1       686 8.05350E+01 9.20225E+00 0.00000E+00
 -1       687 8.35350E+01 9.20225E+00 0.00000E+00
 -1       688 8.65350E+01 9.20225E+00 0.00000E+00
 -1       689 8.95350E+01 9.20225E+00 0.00000E+00
 -1       690 9.25350E+01 9.20225E+00 0.00000E+00
 -1       691 9.55350E+01 9.20225E+00 0.00000E+00
 -1       692 9.85350E+01 9.20225E+00 0.00000E+00
 -1       693 1.01535E+02 9.20225E+00 0.00000E+00
 -1       694 1.04535E+02 9.20225E+00 0.00000E+00
 -1       695 1.07535E+02 9.20225E+00 0.00000E+00
 -1       696 1.10535E+02 9.20225E+00 0.00000E+00
 -1       697 1.13535E+02 9.20225E+00 0.00000E+00
 -1       698 1.16535E+02 9.20225E+00 0.00000E+00
 -1       699 1.19535E+02 9.20225E+00 0.00000E+00
 -1       700 1.22535E+02 9.20225E+00 0.00000E+00
 -1       701 1.25535E+02 9.20225E+00 0.00000E+00
 -1       702 1.28535E+02 9.20225E+00 0.00000E+00
 -1       703 1.31535E+02 9.20225E+00 0.00000E+00
 -1       704 1.34535E+02 9.20225E+00 0.00000E+00
 -1       705 1.36870E+02 9.76363E+00 0.00000E+00
 -1       706 7.86308E+01 1.86813E+01 0.00000E+00
 -1       707 1.39608E+02 2.35500E+01 0.00000E+00
 -1       708 1.40178E+02 3.97728E+01 0.00000E+00
 -1       709 1.39608E+02 1.76500E+01 0.00000E+00
 -1       710 1.39608E+02 2.65000E+01 0.00000E+00
 -1       711 1.39608E+02 2.06000E+01 0.00000E+00
 -1       712 1.39608E+02 2.94000E+01 0.00000E+00
 -1       713 1.39608E+02 3.23500E+01 0.00000E+00
 -1       714 1.39608E+02 3.53000E+01 0.00000E+00
 -1       715 1.39893E+02 3.75364E+01 0.00000E+00
 -1       716 5.85336E+01 1.79110E+01 0.00000E+00
 -1       717 8.10666E+01 2.41636E+01 0.00000E+00
 -1       718 8.03253E+01 2.14689E+01 0.00000E+00
 -1       719 9.78035E+00 3.93914E+01 0.00000E+00
 -1       720 7.87794E+01 3.43136E+01 0.00000E+00
 -1       721 1.75350E+01 9.20225E+00 0.00000E+00
 -1       722 2.65350E+01 9.20225E+00 0.00000E+00
 -1       723 1.24652E+01 3.94997E+01 0.00000E+00
 -1       724 1.45350E+01 9.20225E+00 0.00000E+00
 -1       725 5.72601E+01 2.04966E+01 0.00000E+00
 -1       726 5.71000E+01 3.33227E+01 0.00000E+00
 -1       727 1.03920E+01 1.76125E+01 0.00000E+00
 -1       728 7.23867E+01 3.88403E+01 0.00000E+00
 -1       729 8.10869E+01 2.68329E+01 0.00000E+00
 -1       730 1.03920E+01 3.23250E+01 0.00000E+00
 -1       731 6.37025E+01 1.46827E+01 0.00000E+00
 -1       732 5.57839E+01 2.80517E+01 0.00000E+00
 -1       733 7.46221E+01 3.79905E+01 0.00000E+00
 -1       734 7.38319E+01 1.53350E+01 0.00000E+00
 -1       735 5.89182E+01 3.63260E+01 0.00000E+00
 -1       736 6.39870E+01 3.89914E+01 0.00000E+00
 -1       737 7.64223E+01 1.66117E+01 0.00000E+00
 -1       738 6.85782E+01 1.39660E+01 0.00000E+00
 -1       739 6.57238E+01 1.41752E+01 0.00000E+00
 -1       740 1.03920E+01 3.52625E+01 0.00000E+00
 -1       741 1.03920E+01 2.64500E+01 0.00000E+00
 -1       742 7.00688E+01 1.34136E+01 0.00000E+00
 -1       743 6.31500E+01 3.96530E+01 0.00000E+00
 -1       744 1.39608E+02 1.47250E+01 0.00000E+00
 -1       745 5.53303E+01 2.96641E+01 0.00000E+00
 -1       746 6.17676E+01 1.46055E+01 0.00000E+00
 -1       747 1.03920E+01 2.93875E+01 0.00000E+00
 -1       748 5.67835E+01 3.55162E+01 0.00000E+00
 -1       749 5.56671E+01 2.41615E+01 0.00000E+00
 -1       750 1.29900E+01 1.32000E+01 0.00000E+00
 -1       751 6.42547E+01 1.26029E+01 0.00000E+00
 -1       752 1.96500E+01 3.70100E+01 0.00000E+00
 -1       753 2.26500E+01 3.70100E+01 0.00000E+00
 -1       754 2.56500E+01 3.70100E+01 0.00000E+00
 -1       755 2.86500E+01 3.70100E+01 0.00000E+00
 -1       756 3.16500E+01 3.70100E+01 0.00000E+00
 -1       757 3.46500E+01 3.70100E+01 0.00000E+00
 -1       758 3.76500E+01 3.70100E+01 0.00000E+00
 -1       759 4.06500E+01 3.70100E+01 0.00000E+00
 -1       760 4.36500E+01 3.70100E+01 0.00000E+00
 -1       761 4.66500E+01 3.70100E+01 0.00000E+00
 -1       762 4.96500E+01 3.70100E+01 0.00000E+00
 -1       763 5.26500E+01 3.70100E+01 0.00000E+00
 -1       764 7.96500E+01 3.72226E+01 0.00000E+00
 -1       765 8.26500E+01 3.72226E+01 0.00000E+00
 -1       766 8.56500E+01 3.72226E+01 0.00000E+00
 -1       767 8.86500E+01 3.72226E+01 0.00000E+00
 -1       768 9.16500E+01 3.72226E+01 0.00000E+00
 -1       769 9.46500E+01 3.72226E+01 0.00000E+00
 -1       770 9.76500E+01 3.72226E+01 0.00000E+00
 -1       771 1.00650E+02 3.72226E+01 0.00000E+00
 -1       772 1.03650E+02 3.72226E+01 0.00000E+00
 -1       773 1.06650E+02 3.72226E+01 0.00000E+00
 -1       774 1.09650E+02 3.72226E+01 0.00000E+00
 -1       775 1.12650E+02 3.72226E+01 0.00000E+00
 -1       776 1.15650E+02 3.72226E+01 0.00000E+00
 -1       777 1.18650E+02 3.72226E+01 0.00000E+00
 -1       778 1.21650E+02 3.72226E+01 0.00000E+00
 -1       779 1.24650E+02 3.72226E+01 0.00000E+00
 -1       780 1.27650E+02 3.72226E+01 0.00000E+00
 -1       781 1.30650E+02 3.72226E+01 0.00000E+00
 -1       782 1.33650E+02 3.72226E+01 0.00000E+00
 -1       783 1.36650E+02 3.72226E+01 0.00000E+00
 -1       784 2.20350E+01 1.18003E+01 0.00000E+00
 -1       785 3.40350E+01 1.18003E+01 0.00000E+00
 -1       786 3.10350E+01 1.18003E+01 0.00000E+00
 -1       787 4.00350E+01 1.18003E+01 0.00000E+00
 -1       788 4.30350E+01 1.18003E+01 0.00000E+00
 -1       789 4.60350E+01 1.18003E+01 0.00000E+00
 -1       790 4.90350E+01 1.18003E+01 0.00000E+00
 -1       791 5.20350E+01 1.18003E+01 0.00000E+00
 -1       792 5.50350E+01 1.18003E+01 0.00000E+00
 -1       793 5.80350E+01 1.18003E+01 0.00000E+00
 -1       794 6.10350E+01 1.18003E+01 0.00000E+00
 -1       795 7.60350E+01 1.15876E+01 0.00000E+00
 -1       796 7.90350E+01 1.15876E+01 0.00000E+00
 -1       797 8.20350E+01 1.15876E+01 0.00000E+00
 -1       798 8.50350E+01 1.15876E+01 0.00000E+00
 -1       799 8.80350E+01 1.15876E+01 0.00000E+00
 -1       800 9.10350E+01 1.15876E+01 0.00000E+00
 -1       801 9.40350E+01 1.15876E+01 0.00000E+00
 -1       802 9.70350E+01 1.15876E+01 0.00000E+00
 -1       803 1.00035E+02 1.15876E+01 0.00000E+00
 -1       804 1.03035E+02 1.15876E+01 0.00000E+00
 -1       805 1.06035E+02 1.15876E+01 0.00000E+00
 -1       806 1.09035E+02 1.15876E+01 0.00000E+00
 -1       807 1.12035E+02 1.15876E+01 0.00000E+00
 -1       808 1.15035E+02 1.15876E+01 0.00000E+00
 -1       809 1.18035E+02 1.15876E+01 0.00000E+00
 -1       810 1.21035E+02 1.15876E+01 0.00000E+00
 -1       811 1.24035E+02 1.15876E+01 0.00000E+00
 -1       812 1.27035E+02 1.15876E+01 0.00000E+00
 -1       813 1.30035E+02 1.15876E+01 0.00000E+00
 -1       814 1.33035E+02 1.15876E+01 0.00000E+00
 -1       815 1.37010E+02 2.79500E+01 0.00000E+00
 -1       816 1.37010E+02 3.09000E+01 0.00000E+00
 -1       817 1.37010E+02 2.50000E+01 0.00000E+00
 -1       818 7.27184E+01 1.31969E+01 0.00000E+00
 -1       819 1.90350E+01 1.18003E+01 0.00000E+00
 -1       820 8.32346E+01 2.81554E+01 0.00000E+00
 -1       821 5.49411E+01 3.23566E+01 0.00000E+00
 -1       822 3.70350E+01 1.18003E+01 0.00000E+00
 -1       823 1.37625E+01 1.12011E+01 0.00000E+00
 -1       824 8.26152E+01 3.09997E+01 0.00000E+00
 -1       825 5.49893E+01 2.12221E+01 0.00000E+00
 -1       826 8.28343E+01 2.22280E+01 0.00000E+00
 -1       827 8.12300E+01 1.90101E+01 0.00000E+00
 -1       828 1.66500E+01 3.70100E+01 0.00000E+00
 -1       829 5.42114E+01 2.66832E+01 0.00000E+00
 -1       830 8.11613E+01 3.39905E+01 0.00000E+00
 -1       831 5.84488E+01 1.53370E+01 0.00000E+00
 -1       832 8.32144E+01 2.54860E+01 0.00000E+00
 -1       833 7.60335E+01 1.41343E+01 0.00000E+00
 -1       834 1.37010E+02 3.38500E+01 0.00000E+00
 -1       835 5.59072E+01 1.82239E+01 0.00000E+00
 -1       836 7.91576E+01 1.59059E+01 0.00000E+00
 -1       837 1.29900E+01 2.20250E+01 0.00000E+00
 -1       838 6.70134E+01 1.21930E+01 0.00000E+00
 -1       839 7.69642E+01 3.86042E+01 0.00000E+00
 -1       840 1.29900E+01 2.49750E+01 0.00000E+00
 -1       841 5.38307E+01 2.51480E+01 0.00000E+00
 -1       842 1.39652E+01 3.69017E+01 0.00000E+00
 -1       843 1.37010E+02 1.61875E+01 0.00000E+00
 -1       844 2.50350E+01 1.18003E+01 0.00000E+00
 -1       845 1.37010E+02 1.91375E+01 0.00000E+00
 -1       846 2.80350E+01 1.18003E+01 0.00000E+00
 -1       847 1.35370E+02 1.21490E+01 0.00000E+00
 -1       848 1.29900E+01 1.90875E+01 0.00000E+00
 -1       849 1.37010E+02 2.20688E+01 0.00000E+00
 -1       850 5.58225E+01 1.56499E+01 0.00000E+00
 -1       851 5.37578E+01 2.82955E+01 0.00000E+00
 -1       852 1.36940E+02 1.29756E+01 0.00000E+00
 -1       853 5.39419E+01 2.25164E+01 0.00000E+00
 -1       854 1.63988E+01 1.15007E+01 0.00000E+00
 -1       855 1.29900E+01 1.61437E+01 0.00000E+00
 -1       856 1.29900E+01 3.08563E+01 0.00000E+00
 -1       857 1.29900E+01 3.37938E+01 0.00000E+00
 -1       858 8.05350E+01 1.41856E+01 0.00000E+00
 -1       859 2.41500E+01 3.44120E+01 0.00000E+00
 -1       860 2.71500E+01 3.44120E+01 0.00000E+00
 -1       861 3.01500E+01 3.44120E+01 0.00000E+00
 -1       862 3.31500E+01 3.44120E+01 0.00000E+00
 -1       863 3.61500E+01 3.44120E+01 0.00000E+00
 -1       864 3.91500E+01 3.44120E+01 0.00000E+00
 -1       865 4.21500E+01 3.44120E+01 0.00000E+00
 -1       866 4.51500E+01 3.44120E+01 0.00000E+00
 -1       867 4.81500E+01 3.44120E+01 0.00000E+00
 -1       868 5.11500E+01 3.44120E+01 0.00000E+00
 -1       869 5.31674E+01 1.90247E+01 0.00000E+00
 -1       870 8.41500E+01 3.46246E+01 0.00000E+00
 -1       871 8.71500E+01 3.46246E+01 0.00000E+00
 -1       872 9.01500E+01 3.46246E+01 0.00000E+00
 -1       873 9.31500E+01 3.46246E+01 0.00000E+00
 -1       874 9.61500E+01 3.46246E+01 0.00000E+00
 -1       875 9.91500E+01 3.46246E+01 0.00000E+00
 -1       876 1.02150E+02 3.46246E+01 0.00000E+00
 -1       877 1.05150E+02 3.46246E+01 0.00000E+00
 -1       878 1.08150E+02 3.46246E+01 0.00000E+00
 -1       879 1.11150E+02 3.46246E+01 0.00000E+00
 -1       880 1.14150E+02 3.46246E+01 0.00000E+00
 -1       881 1.17150E+02 3.46246E+01 0.00000E+00
 -1       882 1.20150E+02 3.46246E+01 0.00000E+00
 -1       883 1.23150E+02 3.46246E+01 0.00000E+00
 -1       884 1.26150E+02 3.46246E+01 0.00000E+00
 -1       885 1.29150E+02 3.46246E+01 0.00000E+00
 -1       886 1.32150E+02 3.46246E+01 0.00000E+00
 -1       887 1.34580E+02 3.42373E+01 0.00000E+00
 -1       888 8.41670E+01 1.95547E+01 0.00000E+00
 -1       889 4.45350E+01 1.43982E+01 0.00000E+00
 -1       890 4.15350E+01 1.43982E+01 0.00000E+00
 -1       891 5.05350E+01 1.43982E+01 0.00000E+00
 -1       892 5.35350E+01 1.43982E+01 0.00000E+00
 -1       893 8.65350E+01 1.41856E+01 0.00000E+00
 -1       894 8.95350E+01 1.41856E+01 0.00000E+00
 -1       895 9.25350E+01 1.41856E+01 0.00000E+00
 -1       896 9.55350E+01 1.41856E+01 0.00000E+00
 -1       897 9.85350E+01 1.41856E+01 0.00000E+00
 -1       898 1.01535E+02 1.41856E+01 0.00000E+00
 -1       899 1.04535E+02 1.41856E+01 0.00000E+00
 -1       900 1.07535E+02 1.41856E+01 0.00000E+00
 -1       901 1.10535E+02 1.41856E+01 0.00000E+00
 -1       902 1.13535E+02 1.41856E+01 0.00000E+00
 -1       903 1.16535E+02 1.41856E+01 0.00000E+00
 -1       904 1.19535E+02 1.41856E+01 0.00000E+00
 -1       905 1.22535E+02 1.41856E+01 0.00000E+00
 -1       906 1.25535E+02 1.41856E+01 0.00000E+00
 -1       907 1.28535E+02 1.41856E+01 0.00000E+00
 -1       908 1.31535E+02 1.41856E+01 0.00000E+00
 -1       909 5.31065E+01 3.07170E+01 0.00000E+00
 -1       910 1.34412E+02 2.94250E+01 0.00000E+00
 -1       911 1.34412E+02 2.64750E+01 0.00000E+00
 -1       912 5.51831E+01 3.47111E+01 0.00000E+00
 -1       913 8.20384E+01 1.62266E+01 0.00000E+00
 -1       914 8.50919E+01 3.00495E+01 0.00000E+00
 -1       915 2.05350E+01 1.43982E+01 0.00000E+00
 -1       916 8.35350E+01 1.41856E+01 0.00000E+00
 -1       917 1.81500E+01 3.44120E+01 0.00000E+00
 -1       918 8.37321E+01 3.33914E+01 0.00000E+00
 -1       919 3.25350E+01 1.43982E+01 0.00000E+00
 -1       920 1.29900E+01 2.79188E+01 0.00000E+00
 -1       921 2.11500E+01 3.44120E+01 0.00000E+00
 -1       922 4.75350E+01 1.43982E+01 0.00000E+00
 -1       923 8.56098E+01 2.68026E+01 0.00000E+00
 -1       924 1.34496E+02 3.18312E+01 0.00000E+00
 -1       925 8.53937E+01 2.35806E+01 0.00000E+00
 -1       926 5.28559E+01 3.37606E+01 0.00000E+00
 -1       927 1.55880E+01 1.46719E+01 0.00000E+00
 -1       928 5.20311E+01 2.64091E+01 0.00000E+00
 -1       929 1.54652E+01 3.43037E+01 0.00000E+00
 -1       930 5.21200E+01 2.03190E+01 0.00000E+00
 -1       931 2.95350E+01 1.43982E+01 0.00000E+00
 -1       932 1.59934E+01 1.30863E+01 0.00000E+00
 -1       933 3.85350E+01 1.43982E+01 0.00000E+00
 -1       934 3.55350E+01 1.43982E+01 0.00000E+00
 -1       935 8.67263E+01 2.09074E+01 0.00000E+00
 -1       936 1.33870E+02 1.47470E+01 0.00000E+00
 -1       937 1.55880E+01 2.05562E+01 0.00000E+00
 -1       938 1.34412E+02 1.76625E+01 0.00000E+00
 -1       939 1.55880E+01 2.35063E+01 0.00000E+00
 -1       940 1.34412E+02 2.35438E+01 0.00000E+00
 -1       941 5.33512E+01 1.67115E+01 0.00000E+00
 -1       942 2.35350E+01 1.43982E+01 0.00000E+00
 -1       943 1.75351E+01 1.43983E+01 0.00000E+00
 -1       944 1.55880E+01 2.93875E+01 0.00000E+00
 -1       945 5.21423E+01 2.37775E+01 0.00000E+00
 -1       946 5.06283E+01 3.25645E+01 0.00000E+00
 -1       947 1.96500E+01 3.18140E+01 0.00000E+00
 -1       948 2.86500E+01 3.18140E+01 0.00000E+00
 -1       949 3.16500E+01 3.18140E+01 0.00000E+00
 -1       950 3.46500E+01 3.18140E+01 0.00000E+00
 -1       951 3.76500E+01 3.18140E+01 0.00000E+00
 -1       952 4.06500E+01 3.18140E+01 0.00000E+00
 -1       953 4.36500E+01 3.18140E+01 0.00000E+00
 -1       954 4.66500E+01 3.18140E+01 0.00000E+00
 -1       955 4.30350E+01 1.69963E+01 0.00000E+00
 -1       956 8.86500E+01 3.20266E+01 0.00000E+00
 -1       957 9.16500E+01 3.20266E+01 0.00000E+00
 -1       958 9.46500E+01 3.20266E+01 0.00000E+00
 -1       959 9.76500E+01 3.20266E+01 0.00000E+00
 -1       960 1.00650E+02 3.20266E+01 0.00000E+00
 -1       961 1.03650E+02 3.20266E+01 0.00000E+00
 -1       962 1.06650E+02 3.20266E+01 0.00000E+00
 -1       963 1.09650E+02 3.20266E+01 0.00000E+00
 -1       964 1.12650E+02 3.20266E+01 0.00000E+00
 -1       965 1.15650E+02 3.20266E+01 0.00000E+00
 -1       966 1.18650E+02 3.20266E+01 0.00000E+00
 -1       967 1.21650E+02 3.20266E+01 0.00000E+00
 -1       968 1.24650E+02 3.20266E+01 0.00000E+00
 -1       969 1.27650E+02 3.20266E+01 0.00000E+00
 -1       970 1.30650E+02 3.20266E+01 0.00000E+00
 -1       971 1.32573E+02 3.19289E+01 0.00000E+00
 -1       972 1.34412E+02 2.05938E+01 0.00000E+00
 -1       973 9.40350E+01 1.67836E+01 0.00000E+00
 -1       974 9.10350E+01 1.67836E+01 0.00000E+00
 -1       975 8.80350E+01 1.67836E+01 0.00000E+00
 -1       976 9.70350E+01 1.67836E+01 0.00000E+00
 -1       977 1.00035E+02 1.67836E+01 0.00000E+00
 -1       978 1.03035E+02 1.67836E+01 0.00000E+00
 -1       979 1.06035E+02 1.67836E+01 0.00000E+00
 -1       980 1.09035E+02 1.67836E+01 0.00000E+00
 -1       981 1.12035E+02 1.67836E+01 0.00000E+00
 -1       982 1.15035E+02 1.67836E+01 0.00000E+00
 -1       983 1.18035E+02 1.67836E+01 0.00000E+00
 -1       984 1.21035E+02 1.67836E+01 0.00000E+00
 -1       985 1.24035E+02 1.67836E+01 0.00000E+00
 -1       986 1.27035E+02 1.67836E+01 0.00000E+00
 -1       987 1.30035E+02 1.67836E+01 0.00000E+00
 -1       988 2.65350E+01 1.43982E+01 0.00000E+00
 -1       989 8.52913E+01 1.64908E+01 0.00000E+00
 -1       990 1.55880E+01 1.76141E+01 0.00000E+00
 -1       991 5.13798E+01 2.88306E+01 0.00000E+00
 -1       992 1.90351E+01 1.69963E+01 0.00000E+00
 -1       993 1.32223E+02 1.72231E+01 0.00000E+00
 -1       994 1.55880E+01 2.64469E+01 0.00000E+00
 -1       995 1.31814E+02 2.79500E+01 0.00000E+00
 -1       996 2.56500E+01 3.18140E+01 0.00000E+00
 -1       997 2.26500E+01 3.18140E+01 0.00000E+00
 -1       998 8.77065E+01 2.88017E+01 0.00000E+00
 -1       999 8.80939E+01 2.50177E+01 0.00000E+00
 -1      1000 8.66215E+01 3.26195E+01 0.00000E+00
 -1      1001 4.98708E+01 2.49997E+01 0.00000E+00
 -1      1002 1.76190E+01 3.06007E+01 0.00000E+00
 -1      1003 4.60350E+01 1.69963E+01 0.00000E+00
 -1      1004 4.92196E+01 2.74212E+01 0.00000E+00
 -1      1005 3.10350E+01 1.69963E+01 0.00000E+00
 -1      1006 4.00350E+01 1.69963E+01 0.00000E+00
 -1      1007 1.81860E+01 2.20313E+01 0.00000E+00
 -1      1008 3.40350E+01 1.69963E+01 0.00000E+00
 -1      1009 1.31814E+02 2.50187E+01 0.00000E+00
 -1      1010 1.32223E+02 2.01543E+01 0.00000E+00
 -1      1011 2.20351E+01 1.69963E+01 0.00000E+00
 -1      1012 5.03512E+01 1.67115E+01 0.00000E+00
 -1      1013 8.94265E+01 2.23444E+01 0.00000E+00
 -1      1014 1.76190E+01 2.76601E+01 0.00000E+00
 -1      1015 4.98485E+01 2.15412E+01 0.00000E+00
 -1      1016 2.41500E+01 2.92160E+01 0.00000E+00
 -1      1017 1.96500E+01 2.88734E+01 0.00000E+00
 -1      1018 3.31500E+01 2.92160E+01 0.00000E+00
 -1      1019 3.61500E+01 2.92160E+01 0.00000E+00
 -1      1020 3.91500E+01 2.92160E+01 0.00000E+00
 -1      1021 4.21500E+01 2.92160E+01 0.00000E+00
 -1      1022 4.51500E+01 2.92160E+01 0.00000E+00
 -1      1023 2.80350E+01 1.69963E+01 0.00000E+00
 -1      1024 9.31500E+01 2.94286E+01 0.00000E+00
 -1      1025 9.61500E+01 2.94286E+01 0.00000E+00
 -1      1026 9.91500E+01 2.94286E+01 0.00000E+00
 -1      1027 1.02150E+02 2.94286E+01 0.00000E+00
 -1      1028 1.05150E+02 2.94286E+01 0.00000E+00
 -1      1029 1.08150E+02 2.94286E+01 0.00000E+00
 -1      1030 1.11150E+02 2.94286E+01 0.00000E+00
 -1      1031 1.14150E+02 2.94286E+01 0.00000E+00
 -1      1032 1.17150E+02 2.94286E+01 0.00000E+00
 -1      1033 1.20150E+02 2.94286E+01 0.00000E+00
 -1      1034 1.23150E+02 2.94286E+01 0.00000E+00
 -1      1035 1.26150E+02 2.94286E+01 0.00000E+00
 -1      1036 9.25350E+01 1.93816E+01 0.00000E+00
 -1      1037 1.32019E+02 2.25865E+01 0.00000E+00
 -1      1038 9.85350E+01 1.93816E+01 0.00000E+00
 -1      1039 9.55350E+01 1.93816E+01 0.00000E+00
 -1      1040 2.19000E+01 2.90447E+01 0.00000E+00
 -1      1041 1.01535E+02 1.93816E+01 0.00000E+00
 -1      1042 1.04535E+02 1.93816E+01 0.00000E+00
 -1      1043 1.07535E+02 1.93816E+01 0.00000E+00
 -1      1044 1.10535E+02 1.93816E+01 0.00000E+00
 -1      1045 1.13535E+02 1.93816E+01 0.00000E+00
 -1      1046 1.16535E+02 1.93816E+01 0.00000E+00
 -1      1047 1.19535E+02 1.93816E+01 0.00000E+00
 -1      1048 1.22535E+02 1.93816E+01 0.00000E+00
 -1      1049 1.25535E+02 1.93816E+01 0.00000E+00
 -1      1050 1.28535E+02 1.93816E+01 0.00000E+00
 -1      1051 1.81860E+01 2.49719E+01 0.00000E+00
 -1      1052 3.70350E+01 1.69963E+01 0.00000E+00
 -1      1053 5.01103E+01 1.98756E+01 0.00000E+00
 -1      1054 1.30379E+02 1.97680E+01 0.00000E+00
 -1      1055 2.71500E+01 2.92160E+01 0.00000E+00
 -1      1056 9.02308E+01 1.95640E+01 0.00000E+00
 -1      1057 2.11860E+01 2.20313E+01 0.00000E+00
 -1      1058 2.50350E+01 1.69963E+01 0.00000E+00
 -1      1059 9.04847E+01 2.71743E+01 0.00000E+00
 -1      1060 3.01500E+01 2.92160E+01 0.00000E+00
 -1      1061 9.06285E+01 2.96973E+01 0.00000E+00
 -1      1062 2.95350E+01 1.95942E+01 0.00000E+00
 -1      1063 4.70799E+01 2.55474E+01 0.00000E+00
 -1      1064 1.29150E+02 2.94286E+01 0.00000E+00
 -1      1065 4.15350E+01 1.95942E+01 0.00000E+00
 -1      1066 3.25350E+01 1.95942E+01 0.00000E+00
 -1      1067 4.76529E+01 2.81630E+01 0.00000E+00
 -1      1068 9.18173E+01 2.45011E+01 0.00000E+00
 -1      1069 4.45350E+01 1.95942E+01 0.00000E+00
 -1      1070 1.29150E+02 2.64974E+01 0.00000E+00
 -1      1071 3.46500E+01 2.66180E+01 0.00000E+00
 -1      1072 2.02170E+01 2.61851E+01 0.00000E+00
 -1      1073 1.06035E+02 2.19796E+01 0.00000E+00
 -1      1074 1.00035E+02 2.19796E+01 0.00000E+00
 -1      1075 2.86500E+01 2.66180E+01 0.00000E+00
 -1      1076 3.76500E+01 2.66180E+01 0.00000E+00
 -1      1077 4.06500E+01 2.66180E+01 0.00000E+00
 -1      1078 4.36500E+01 2.66180E+01 0.00000E+00
 -1      1079 9.46500E+01 2.68306E+01 0.00000E+00
 -1      1080 4.79838E+01 2.27683E+01 0.00000E+00
 -1      1081 9.76500E+01 2.68306E+01 0.00000E+00
 -1      1082 1.00650E+02 2.68306E+01 0.00000E+00
 -1      1083 1.03650E+02 2.68306E+01 0.00000E+00
 -1      1084 1.06650E+02 2.68306E+01 0.00000E+00
 -1      1085 1.09650E+02 2.68306E+01 0.00000E+00
 -1      1086 1.12650E+02 2.68306E+01 0.00000E+00
 -1      1087 1.15650E+02 2.68306E+01 0.00000E+00
 -1      1088 1.18650E+02 2.68306E+01 0.00000E+00
 -1      1089 1.21650E+02 2.68306E+01 0.00000E+00
 -1      1090 1.24650E+02 2.68306E+01 0.00000E+00
 -1      1091 3.85350E+01 1.95942E+01 0.00000E+00
 -1      1092 9.70350E+01 2.19796E+01 0.00000E+00
 -1      1093 1.09035E+02 2.19796E+01 0.00000E+00
 -1      1094 1.12035E+02 2.19796E+01 0.00000E+00
 -1      1095 1.15035E+02 2.19796E+01 0.00000E+00
 -1      1096 1.18035E+02 2.19796E+01 0.00000E+00
 -1      1097 1.21035E+02 2.19796E+01 0.00000E+00
 -1      1098 1.24035E+02 2.19796E+01 0.00000E+00
 -1      1099 1.27035E+02 2.19796E+01 0.00000E+00
 -1      1100 4.74574E+01 2.03122E+01 0.00000E+00
 -1      1101 2.56500E+01 2.66180E+01 0.00000E+00
 -1      1102 2.65350E+01 1.95943E+01 0.00000E+00
 -1      1103 1.03035E+02 2.19796E+01 0.00000E+00
 -1      1104 4.50612E+01 2.33543E+01 0.00000E+00
 -1      1105 9.21762E+01 2.19414E+01 0.00000E+00
 -1      1106 9.46056E+01 2.19605E+01 0.00000E+00
 -1      1107 3.16500E+01 2.66180E+01 0.00000E+00
 -1      1108 1.26900E+02 2.66640E+01 0.00000E+00
 -1      1109 2.34000E+01 2.64467E+01 0.00000E+00
 -1      1110 3.10350E+01 2.21922E+01 0.00000E+00
 -1      1111 1.30174E+02 2.22002E+01 0.00000E+00
 -1      1112 4.00350E+01 2.21922E+01 0.00000E+00
 -1      1113 2.80350E+01 2.21923E+01 0.00000E+00
 -1      1114 3.55350E+01 1.95942E+01 0.00000E+00
 -1      1115 2.41724E+01 1.99458E+01 0.00000E+00
 -1      1116 2.41667E+01 2.31185E+01 0.00000E+00
 -1      1117 4.25481E+01 2.27733E+01 0.00000E+00
 -1      1118 4.45668E+01 2.49664E+01 0.00000E+00
 -1      1119 1.29662E+02 2.43488E+01 0.00000E+00
 -1      1120 1.10535E+02 2.45776E+01 0.00000E+00
 -1      1121 3.91500E+01 2.40200E+01 0.00000E+00
 -1      1122 3.31500E+01 2.40200E+01 0.00000E+00
 -1      1123 9.61500E+01 2.42326E+01 0.00000E+00
 -1      1124 1.14150E+02 2.42326E+01 0.00000E+00
 -1      1125 2.71500E+01 2.40200E+01 0.00000E+00
 -1      1126 3.70350E+01 2.21922E+01 0.00000E+00
 -1      1127 3.61500E+01 2.40200E+01 0.00000E+00
 -1      1128 4.15991E+01 2.46956E+01 0.00000E+00
 -1      1129 2.61008E+01 2.26554E+01 0.00000E+00
 -1      1130 2.98425E+01 2.44051E+01 0.00000E+00
 -1      1131 0.00000E+00 4.85250E+01 0.00000E+00
 -1      1132 0.00000E+00 4.55750E+01 0.00000E+00
 -1      1133 0.00000E+00 4.26250E+01 0.00000E+00
 -1      1134 0.00000E+00 3.96750E+01 0.00000E+00
 -1      1135 0.00000E+00 3.67250E+01 0.00000E+00
 -1      1136 0.00000E+00 3.38000E+01 0.00000E+00
 -1      1137 0.00000E+00 3.08750E+01 0.00000E+00
 -1      1138 0.00000E+00 2.79250E+01 0.00000E+00
 -1      1139 0.00000E+00 2.49750E+01 0.00000E+00
 -1      1140 0.00000E+00 2.20250E+01 0.00000E+00
 -1      1141 0.00000E+00 1.90750E+01 0.00000E+00
 -1      1142 0.00000E+00 1.61500E+01 0.00000E+00
 -1      1143 0.00000E+00 1.32250E+01 0.00000E+00
 -1      1144 0.00000E+00 1.02750E+01 0.00000E+00
 -1      1145 0.00000E+00 7.32500E+00 0.00000E+00
 -1      1146 0.00000E+00 4.37500E+00 0.00000E+00
 -1      1147 0.00000E+00 1.45000E+00 0.00000E+00
 -1      1148 1.57500E+00 5.00000E+01 0.00000E+00
 -1      1149 4.65000E+00 5.00000E+01 0.00000E+00
 -1      1150 7.65000E+00 5.00000E+01 0.00000E+00
 -1      1151 1.06500E+01 5.00000E+01 0.00000E+00
 -1      1152 1.36500E+01 5.00000E+01 0.00000E+00
 -1      1153 1.66500E+01 5.00000E+01 0.00000E+00
 -1      1154 1.96500E+01 5.00000E+01 0.00000E+00
 -1      1155 2.26500E+01 5.00000E+01 0.00000E+00
 -1      1156 2.56500E+01 5.00000E+01 0.00000E+00
 -1      1157 2.86500E+01 5.00000E+01 0.00000E+00
 -1      1158 3.16500E+01 5.00000E+01 0.00000E+00
 -1      1159 3.46500E+01 5.00000E+01 0.00000E+00
 -1      1160 3.76500E+01 5.00000E+01 0.00000E+00
 -1      1161 4.06500E+01 5.00000E+01 0.00000E+00
 -1      1162 4.36500E+01 5.00000E+01 0.00000E+00
 -1      1163 4.66500E+01 5.00000E+01 0.00000E+00
 -1      1164 4.96500E+01 5.00000E+01 0.00000E+00
 -1      1165 5.26500E+01 5.00000E+01 0.00000E+00
 -1      1166 5.56500E+01 5.00000E+01 0.00000E+00
 -1      1167 5.86500E+01 5.00000E+01 0.00000E+00
 -1      1168 6.16500E+01 5.00000E+01 0.00000E+00
 -1      1169 6.46500E+01 5.00000E+01 0.00000E+00
 -1      1170 6.76500E+01 5.00000E+01 0.00000E+00
 -1      1171 7.06500E+01 5.00000E+01 0.00000E+00
 -1      1172 7.36500E+01 5.00000E+01 0.00000E+00
 -1      1173 7.66500E+01 5.00000E+01 0.00000E+00
 -1      1174 7.96500E+01 5.00000E+01 0.00000E+00
 -1      1175 8.26500E+01 5.00000E+01 0.00000E+00
 -1      1176 8.56500E+01 5.00000E+01 0.00000E+00
 -1      1177 8.86500E+01 5.00000E+01 0.00000E+00
 -1      1178 9.16500E+01 5.00000E+01 0.00000E+00
 -1      1179 9.46500E+01 5.00000E+01 0.00000E+00
 -1      1180 9.76500E+01 5.00000E+01 0.00000E+00
 -1      1181 1.00650E+02 5.00000E+01 0.00000E+00
 -1      1182 1.03650E+02 5.00000E+01 0.00000E+00
 -1      1183 1.06650E+02 5.00000E+01 0.00000E+00
 -1      1184 1.09650E+02 5.00000E+01 0.00000E+00
 -1      1185 1.12650E+02 5.00000E+01 0.00000E+00
 -1      1186 1.15650E+02 5.00000E+01 0.00000E+00
 -1      1187 1.18650E+02 5.00000E+01 0.00000E+00
 -1      1188 1.21650E+02 5.00000E+01 0.00000E+00
 -1      1189 1.24650E+02 5.00000E+01 0.00000E+00
 -1      1190 1.27650E+02 5.00000E+01 0.00000E+00
 -1      1191 1.30650E+02 5.00000E+01 0.00000E+00
 -1      1192 1.33650E+02 5.00000E+01 0.00000E+00
 -1      1193 1.36650E+02 5.00000E+01 0.00000E+00
 -1      1194 1.39650E+02 5.00000E+01 0.00000E+00
 -1      1195 1.42650E+02 5.00000E+01 0.00000E+00
 -1      1196 1.45650E+02 5.00000E+01 0.00000E+00
 -1      1197 1.48575E+02 5.00000E+01 0.00000E+00
 -1      1198 1.57500E+00 0.00000E+00 0.00000E+00
 -1      1199 4.65000E+00 0.00000E+00 0.00000E+00
 -1      1200 7.65000E+00 0.00000E+00 0.00000E+00
 -1      1201 1.06500E+01 0.00000E+00 0.00000E+00
 -1      1202 1.36500E+01 0.00000E+00 0.00000E+00
 -1      1203 1.66500E+01 0.00000E+00 0.00000E+00
 -1      1204 1.96500E+01 0.00000E+00 0.00000E+00
 -1      1205 2.26500E+01 0.00000E+00 0.00000E+00
 -1      1206 2.56500E+01 0.00000E+00 0.00000E+00
 -1      1207 2.86500E+01 0.00000E+00 0.00000E+00
 -1      1208 3.16500E+01 0.00000E+00 0.00000E+00
 -1      1209 3.46500E+01 0.00000E+00 0.00000E+00
 -1      1210 3.76500E+01 0.00000E+00 0.00000E+00
 -1      1211 4.06500E+01 0.00000E+00 0.00000E+00
 -1      1212 4.36500E+01 0.00000E+00 0.00000E+00
 -1      1213 4.66500E+01 0.00000E+00 0.00000E+00
 -1      1214 4.96500E+01 0.00000E+00 0.00000E+00
 -1      1215 5.26500E+01 0.00000E+00 0.00000E+00
 -1      1216 5.56500E+01 0.00000E+00 0.00000E+00
 -1      1217 5.86500E+01 0.00000E+00 0.00000E+00
 -1      1218 6.16500E+01 0.00000E+00 0.00000E+00
 -1      1219 6.46500E+01 0.00000E+00 0.00000E+00
 -1      1220 6.76500E+01 0.00000E+00 0.00000E+00
 -1      1221 7.06500E+01 0.00000E+00 0.00000E+00
 -1      1222 7.36500E+01 0.00000E+00 0.00000E+00
 -1      1223 7.66500E+01 0.00000E+00 0.00000E+00
 -1      1224 7.96500E+01 0.00000E+00 0.00000E+00
 -1      1225 8.26500E+01 0.00000E+00 0.00000E+00
 -1      1226 8.56500E+01 0.00000E+00 0.00000E+00
 -1      1227 8.86500E+01 0.00000E+00 0.00000E+00
 -1      1228 9.16500E+01 0.00000E+00 0.00000E+00
 -1      1229 9.46500E+01 0.00000E+00 0.00000E+00
 -1      1230 9.76500E+01 0.00000E+00 0.00000E+00
 -1      1231 1.00650E+02 0.00000E+00 0.00000E+00
 -1      1232 1.03650E+02 0.00000E+00 0.00000E+00
 -1      1233 1.06650E+02 0.00000E+00 0.00000E+00
 -1      1234 1.09650E+02 0.00000E+00 0.00000E+00
 -1      1235 1.12650E+02 0.00000E+00 0.00000E+00
 -1      1236 1.15650E+02 0.00000E+00 0.00000E+00
 -1      1237 1.18650E+02 0.00000E+00 0.00000E+00
 -1      1238 1.21650E+02 0.00000E+00 0.00000E+00
 -1      1239 1.24650E+02 0.00000E+00 0.00000E+00
 -1      1240 1.27650E+02 0.00000E+00 0.00000E+00
 -1      1241 1.30650E+02 0.00000E+00 0.00000E+00
 -1      1242 1.33650E+02 0.00000E+00 0.00000E+00
 -1      1243 1.36650E+02 0.00000E+00 0.00000E+00
 -1      1244 1.39650E+02 0.00000E+00 0.00000E+00
 -1      1245 1.42650E+02 0.00000E+00 0.00000E+00
 -1      1246 1.45650E+02 0.00000E+00 0.00000E+00
 -1      1247 1.48575E+02 0.00000E+00 0.00000E+00
 -1      1248 1.50000E+02 1.47500E+00 0.00000E+00
 -1      1249 1.50000E+02 4.42500E+00 0.00000E+00
 -1      1250 1.50000E+02 7.37500E+00 0.00000E+00
 -1      1251 1.50000E+02 1.03250E+01 0.00000E+00
 -1      1252 1.50000E+02 1.32750E+01 0.00000E+00
 -1      1253 1.50000E+02 1.62000E+01 0.00000E+00
 -1      1254 1.50000E+02 1.91250E+01 0.00000E+00
 -1      1255 1.50000E+02 2.20750E+01 0.00000E+00
 -1      1256 1.50000E+02 2.50250E+01 0.00000E+00
 -1      1257 1.50000E+02 2.79750E+01 0.00000E+00
 -1      1258 1.50000E+02 3.09250E+01 0.00000E+00
 -1      1259 1.50000E+02 3.38500E+01 0.00000E+00
 -1      1260 1.50000E+02 3.67750E+01 0.00000E+00
 -1      1261 1.50000E+02 3.97250E+01 0.00000E+00
 -1      1262 1.50000E+02 4.26750E+01 0.00000E+00
 -1      1263 1.50000E+02 4.56250E+01 0.00000E+00
 -1      1264 1.50000E+02 4.85500E+01 0.00000E+00
 -1      1265 7.52779E+01 2.60354E+01 0.00000E+00
 -1      1266 7.49555E+01 2.45632E+01 0.00000E+00
 -1      1267 7.43150E+01 2.31767E+01 0.00000E+00
 -1      1268 7.33394E+01 2.19105E+01 0.00000E+00
 -1      1269 7.21434E+01 2.09254E+01 0.00000E+00
 -1      1270 7.07688E+01 2.02309E+01 0.00000E+00
 -1      1271 6.92681E+01 1.98527E+01 0.00000E+00
 -1      1272 6.77599E+01 1.98103E+01 0.00000E+00
 -1      1273 6.62609E+01 2.00972E+01 0.00000E+00
 -1      1274 6.48920E+01 2.06839E+01 0.00000E+00
 -1      1275 6.36968E+01 2.15306E+01 0.00000E+00
 -1      1276 6.27210E+01 2.25846E+01 0.00000E+00
 -1      1277 6.19553E+01 2.38708E+01 0.00000E+00
 -1      1278 6.14738E+01 2.53215E+01 0.00000E+00
 -1      1279 6.13189E+01 2.68679E+01 0.00000E+00
 -1      1280 6.15059E+01 2.83972E+01 0.00000E+00
 -1      1281 6.20202E+01 2.98428E+01 0.00000E+00
 -1      1282 6.28613E+01 3.11720E+01 0.00000E+00
 -1      1283 6.39525E+01 3.22596E+01 0.00000E+00
 -1      1284 6.52603E+01 3.30846E+01 0.00000E+00
 -1      1285 6.67264E+01 3.36045E+01 0.00000E+00
 -1      1286 6.82769E+01 3.37879E+01 0.00000E+00
 -1      1287 6.98122E+01 3.36267E+01 0.00000E+00
 -1      1288 7.12085E+01 3.31635E+01 0.00000E+00
 -1      1289 7.24694E+01 3.24244E+01 0.00000E+00
 -1      1290 7.35753E+01 3.14103E+01 0.00000E+00
 -1      1291 7.44111E+01 3.02346E+01 0.00000E+00
 -1      1292 7.49781E+01 2.89443E+01 0.00000E+00
 -1      1293 7.52795E+01 2.75253E+01 0.00000E+00
 -1      1294 1.57500E+00 4.85250E+01 0.00000E+00
 -1      1295 1.29900E+00 4.48375E+01 0.00000E+00
 -1      1296 1.29900E+00 4.63125E+01 0.00000E+00
 -1      1297 1.29900E+00 4.18875E+01 0.00000E+00
 -1      1298 1.29900E+00 4.33625E+01 0.00000E+00
 -1      1299 2.59800E+00 4.41000E+01 0.00000E+00
 -1      1300 1.29900E+00 3.89375E+01 0.00000E+00
 -1      1301 1.29900E+00 4.04125E+01 0.00000E+00
 -1      1302 2.59800E+00 4.11500E+01 0.00000E+00
 -1      1303 1.29900E+00 3.59875E+01 0.00000E+00
 -1      1304 1.29900E+00 3.74625E+01 0.00000E+00
 -1      1305 2.59800E+00 3.82000E+01 0.00000E+00
 -1      1306 1.29900E+00 3.30875E+01 0.00000E+00
 -1      1307 1.29900E+00 3.45375E+01 0.00000E+00
 -1      1308 2.59800E+00 3.52750E+01 0.00000E+00
 -1      1309 1.29900E+00 3.01375E+01 0.00000E+00
 -1      1310 1.29900E+00 3.16125E+01 0.00000E+00
 -1      1311 2.59800E+00 3.23500E+01 0.00000E+00
 -1      1312 1.29900E+00 2.71875E+01 0.00000E+00
 -1      1313 1.29900E+00 2.86625E+01 0.00000E+00
 -1      1314 2.59800E+00 2.94000E+01 0.00000E+00
 -1      1315 1.29900E+00 2.42375E+01 0.00000E+00
 -1      1316 1.29900E+00 2.57125E+01 0.00000E+00
 -1      1317 2.59800E+00 2.64500E+01 0.00000E+00
 -1      1318 1.29900E+00 2.12875E+01 0.00000E+00
 -1      1319 1.29900E+00 2.27625E+01 0.00000E+00
 -1      1320 2.59800E+00 2.35000E+01 0.00000E+00
 -1      1321 1.29900E+00 1.83375E+01 0.00000E+00
 -1      1322 1.29900E+00 1.98125E+01 0.00000E+00
 -1      1323 2.59800E+00 2.05500E+01 0.00000E+00
 -1      1324 1.29900E+00 1.54375E+01 0.00000E+00
 -1      1325 1.29900E+00 1.68875E+01 0.00000E+00
 -1      1326 2.59800E+00 1.76250E+01 0.00000E+00
 -1      1327 1.29900E+00 1.24875E+01 0.00000E+00
 -1      1328 1.29900E+00 1.39625E+01 0.00000E+00
 -1      1329 2.59800E+00 1.47000E+01 0.00000E+00
 -1      1330 1.29900E+00 9.53750E+00 0.00000E+00
 -1      1331 1.29900E+00 1.10125E+01 0.00000E+00
 -1      1332 2.59800E+00 1.17500E+01 0.00000E+00
 -1      1333 1.29900E+00 6.58750E+00 0.00000E+00
 -1      1334 1.29900E+00 8.06250E+00 0.00000E+00
 -1      1335 2.59800E+00 8.80000E+00 0.00000E+00
 -1      1336 1.29900E+00 3.63750E+00 0.00000E+00
 -1      1337 1.29900E+00 5.11250E+00 0.00000E+00
 -1      1338 2.59800E+00 5.85000E+00 0.00000E+00
 -1      1339 1.43700E+00 1.09375E+00 0.00000E+00
 -1      1340 1.43700E+00 2.54375E+00 0.00000E+00
 -1      1341 2.73600E+00 3.28125E+00 0.00000E+00
 -1      1342 3.01200E+00 1.09375E+00 0.00000E+00
 -1      1343 3.90000E+00 4.87010E+01 0.00000E+00
 -1      1344 5.40000E+00 4.87010E+01 0.00000E+00
 -1      1345 6.90000E+00 4.87010E+01 0.00000E+00
 -1      1346 8.40000E+00 4.87010E+01 0.00000E+00
 -1      1347 6.15000E+00 4.74020E+01 0.00000E+00
 -1      1348 9.90000E+00 4.87010E+01 0.00000E+00
 -1      1349 1.14000E+01 4.87010E+01 0.00000E+00
 -1      1350 9.15000E+00 4.74020E+01 0.00000E+00
 -1      1351 1.29000E+01 4.87010E+01 0.00000E+00
 -1      1352 1.44000E+01 4.87010E+01 0.00000E+00
 -1      1353 1.21500E+01 4.74020E+01 0.00000E+00
 -1      1354 1.59000E+01 4.87010E+01 0.00000E+00
 -1      1355 1.74000E+01 4.87010E+01 0.00000E+00
 -1      1356 1.51500E+01 4.74020E+01 0.00000E+00
 -1      1357 1.89000E+01 4.87010E+01 0.00000E+00
 -1      1358 2.04000E+01 4.87010E+01 0.00000E+00
 -1      1359 1.81500E+01 4.74020E+01 0.00000E+00
 -1      1360 2.19000E+01 4.87010E+01 0.00000E+00
 -1      1361 2.34000E+01 4.87010E+01 0.00000E+00
 -1      1362 2.11500E+01 4.74020E+01 0.00000E+00
 -1      1363 2.49000E+01 4.87010E+01 0.00000E+00
 -1      1364 2.64000E+01 4.87010E+01 0.00000E+00
 -1      1365 2.41500E+01 4.74020E+01 0.00000E+00
 -1      1366 2.79000E+01 4.87010E+01 0.00000E+00
 -1      1367 2.94000E+01 4.87010E+01 0.00000E+00
 -1      1368 2.71500E+01 4.74020E+01 0.00000E+00
 -1      1369 3.09000E+01 4.87010E+01 0.00000E+00
 -1      1370 3.24000E+01 4.87010E+01 0.00000E+00
 -1      1371 3.01500E+01 4.74020E+01 0.00000E+00
 -1      1372 3.39000E+01 4.87010E+01 0.00000E+00
 -1      1373 3.54000E+01 4.87010E+01 0.00000E+00
 -1      1374 3.31500E+01 4.74020E+01 0.00000E+00
 -1      1375 3.69000E+01 4.87010E+01 0.00000E+00
 -1      1376 3.84000E+01 4.87010E+01 0.00000E+00
 -1      1377 3.61500E+01 4.74020E+01 0.00000E+00
 -1      1378 3.99000E+01 4.87010E+01 0.00000E+00
 -1      1379 4.14000E+01 4.87010E+01 0.00000E+00
 -1      1380 3.91500E+01 4.74020E+01 0.00000E+00
 -1      1381 4.29000E+01 4.87010E+01 0.00000E+00
 -1      1382 4.44000E+01 4.87010E+01 0.00000E+00
 -1      1383 4.21500E+01 4.74020E+01 0.00000E+00
 -1      1384 4.59000E+01 4.87010E+01 0.00000E+00
 -1      1385 4.74000E+01 4.87010E+01 0.00000E+00
 -1      1386 4.51500E+01 4.74020E+01 0.00000E+00
 -1      1387 4.89000E+01 4.87010E+01 0.00000E+00
 -1      1388 5.04000E+01 4.87010E+01 0.00000E+00
 -1      1389 4.81500E+01 4.74020E+01 0.00000E+00
 -1      1390 5.19000E+01 4.87010E+01 0.00000E+00
 -1      1391 5.34000E+01 4.87010E+01 0.00000E+00
 -1      1392 5.11500E+01 4.74020E+01 0.00000E+00
 -1      1393 5.49000E+01 4.87010E+01 0.00000E+00
 -1      1394 5.64000E+01 4.87010E+01 0.00000E+00
 -1      1395 5.41500E+01 4.74020E+01 0.00000E+00
 -1      1396 5.79000E+01 4.87010E+01 0.00000E+00
 -1      1397 5.94000E+01 4.87010E+01 0.00000E+00
 -1      1398 5.71500E+01 4.74020E+01 0.00000E+00
 -1      1399 6.09000E+01 4.87010E+01 0.00000E+00
 -1      1400 6.24000E+01 4.87010E+01 0.00000E+00
 -1      1401 6.01500E+01 4.74020E+01 0.00000E+00
 -1      1402 6.39000E+01 4.87010E+01 0.00000E+00
 -1      1403 6.54000E+01 4.87010E+01 0.00000E+00
 -1      1404 6.31500E+01 4.74020E+01 0.00000E+00
 -1      1405 6.69000E+01 4.87010E+01 0.00000E+00
 -1      1406 6.84000E+01 4.87010E+01 0.00000E+00
 -1      1407 6.61500E+01 4.74020E+01 0.00000E+00
 -1      1408 6.99000E+01 4.87010E+01 0.00000E+00
 -1      1409 7.14000E+01 4.87010E+01 0.00000E+00
 -1      1410 6.91500E+01 4.74020E+01 0.00000E+00
 -1      1411 7.29000E+01 4.87010E+01 0.00000E+00
 -1      1412 7.44000E+01 4.87010E+01 0.00000E+00
 -1      1413 7.21500E+01 4.74020E+01 0.00000E+00
 -1      1414 7.59000E+01 4.87010E+01 0.00000E+00
 -1      1415 7.74000E+01 4.87010E+01 0.00000E+00
 -1      1416 7.51500E+01 4.74020E+01 0.00000E+00
 -1      1417 7.89000E+01 4.87010E+01 0.00000E+00
 -1      1418 8.04000E+01 4.87010E+01 0.00000E+00
 -1      1419 7.81500E+01 4.74020E+01 0.00000E+00
 -1      1420 8.19000E+01 4.87010E+01 0.00000E+00
 -1      1421 8.34000E+01 4.87010E+01 0.00000E+00
 -1      1422 8.11500E+01 4.74020E+01 0.00000E+00
 -1      1423 8.49000E+01 4.87010E+01 0.00000E+00
 -1      1424 8.64000E+01 4.87010E+01 0.00000E+00
 -1      1425 8.41500E+01 4.74020E+01 0.00000E+00
 -1      1426 8.79000E+01 4.87010E+01 0.00000E+00
 -1      1427 8.94000E+01 4.87010E+01 0.00000E+00
 -1      1428 8.71500E+01 4.74020E+01 0.00000E+00
 -1      1429 9.09000E+01 4.87010E+01 0.00000E+00
 -1      1430 9.24000E+01 4.87010E+01 0.00000E+00
 -1      1431 9.01500E+01 4.74020E+01 0.00000E+00
 -1      1432 9.39000E+01 4.87010E+01 0.00000E+00
 -1      1433 9.54000E+01 4.87010E+01 0.00000E+00
 -1      1434 9.31500E+01 4.74020E+01 0.00000E+00
 -1      1435 9.69000E+01 4.87010E+01 0.00000E+00
 -1      1436 9.84000E+01 4.87010E+01 0.00000E+00
 -1      1437 9.61500E+01 4.74020E+01 0.00000E+00
 -1      1438 9.99000E+01 4.87010E+01 0.00000E+00
 -1      1439 1.01400E+02 4.87010E+01 0.00000E+00
 -1      1440 9.91500E+01 4.74020E+01 0.00000E+00
 -1      1441 1.02900E+02 4.87010E+01 0.00000E+00
 -1      1442 1.04400E+02 4.87010E+01 0.00000E+00
 -1      1443 1.02150E+02 4.74020E+01 0.00000E+00
 -1      1444 1.05900E+02 4.87010E+01 0.00000E+00
 -1      1445 1.07400E+02 4.87010E+01 0.00000E+00
 -1      1446 1.05150E+02 4.74020E+01 0.00000E+00
 -1      1447 1.08900E+02 4.87010E+01 0.00000E+00
 -1      1448 1.10400E+02 4.87010E+01 0.00000E+00
 -1      1449 1.08150E+02 4.74020E+01 0.00000E+00
 -1      1450 1.11900E+02 4.87010E+01 0.00000E+00
 -1      1451 1.13400E+02 4.87010E+01 0.00000E+00
 -1      1452 1.11150E+02 4.74020E+01 0.00000E+00
 -1      1453 1.14900E+02 4.87010E+01 0.00000E+00
 -1      1454 1.16400E+02 4.87010E+01 0.00000E+00
 -1      1455 1.14150E+02 4.74020E+01 0.00000E+00
 -1      1456 1.17900E+02 4.87010E+01 0.00000E+00
 -1      1457 1.19400E+02 4.87010E+01 0.00000E+00
 -1      1458 1.17150E+02 4.74020E+01 0.00000E+00
 -1      1459 1.20900E+02 4.87010E+01 0.00000E+00
 -1      1460 1.22400E+02 4.87010E+01 0.00000E+00
 -1      1461 1.20150E+02 4.74020E+01 0.00000E+00
 -1      1462 1.23900E+02 4.87010E+01 0.00000E+00
 -1      1463 1.25400E+02 4.87010E+01 0.00000E+00
 -1      1464 1.23150E+02 4.74020E+01 0.00000E+00
 -1      1465 1.26900E+02 4.87010E+01 0.00000E+00
 -1      1466 1.28400E+02 4.87010E+01 0.00000E+00
 -1      1467 1.26150E+02 4.74020E+01 0.00000E+00
 -1      1468 1.29900E+02 4.87010E+01 0.00000E+00
 -1      1469 1.31400E+02 4.87010E+01 0.00000E+00
 -1      1470 1.29150E+02 4.74020E+01 0.00000E+00
 -1      1471 1.32900E+02 4.87010E+01 0.00000E+00
 -1      1472 1.34400E+02 4.87010E+01 0.00000E+00
 -1      1473 1.32150E+02 4.74020E+01 0.00000E+00
 -1      1474 1.35900E+02 4.87010E+01 0.00000E+00
 -1      1475 1.37400E+02 4.87010E+01 0.00000E+00
 -1      1476 1.35150E+02 4.74020E+01 0.00000E+00
 -1      1477 1.38900E+02 4.87010E+01 0.00000E+00
 -1      1478 1.40400E+02 4.87010E+01 0.00000E+00
 -1      1479 1.38150E+02 4.74020E+01 0.00000E+00
 -1      1480 1.41900E+02 4.87010E+01 0.00000E+00
 -1      1481 1.43400E+02 4.87010E+01 0.00000E+00
 -1      1482 1.41150E+02 4.74020E+01 0.00000E+00
 -1      1483 1.44900E+02 4.87010E+01 0.00000E+00
 -1      1484 1.46400E+02 4.87010E+01 0.00000E+00
 -1      1485 1.44150E+02 4.74020E+01 0.00000E+00
 -1      1486 1.48575E+02 4.85500E+01 0.00000E+00
 -1      1487 1.47825E+02 4.72510E+01 0.00000E+00
 -1      1488 6.01200E+00 1.09375E+00 0.00000E+00
 -1      1489 4.51200E+00 1.09375E+00 0.00000E+00
 -1      1490 4.37400E+00 2.18750E+00 0.00000E+00
 -1      1491 9.01200E+00 1.09375E+00 0.00000E+00
 -1      1492 7.51200E+00 1.09375E+00 0.00000E+00
 -1      1493 7.37400E+00 2.18750E+00 0.00000E+00
 -1      1494 1.20120E+01 1.09375E+00 0.00000E+00
 -1      1495 1.05120E+01 1.09375E+00 0.00000E+00
 -1      1496 1.03740E+01 2.18750E+00 0.00000E+00
 -1      1497 1.50120E+01 1.09375E+00 0.00000E+00
 -1      1498 1.35120E+01 1.09375E+00 0.00000E+00
 -1      1499 1.33740E+01 2.18750E+00 0.00000E+00
 -1      1500 1.80120E+01 1.09375E+00 0.00000E+00
 -1      1501 1.65120E+01 1.09375E+00 0.00000E+00
 -1      1502 1.63740E+01 2.18750E+00 0.00000E+00
 -1      1503 2.10120E+01 1.09375E+00 0.00000E+00
 -1      1504 1.95120E+01 1.09375E+00 0.00000E+00
 -1      1505 1.93740E+01 2.18750E+00 0.00000E+00
 -1      1506 2.40120E+01 1.09375E+00 0.00000E+00
 -1      1507 2.25120E+01 1.09375E+00 0.00000E+00
 -1      1508 2.23740E+01 2.18750E+00 0.00000E+00
 -1      1509 2.70120E+01 1.09375E+00 0.00000E+00
 -1      1510 2.55120E+01 1.09375E+00 0.00000E+00
 -1      1511 2.53740E+01 2.18750E+00 0.00000E+00
 -1      1512 3.00120E+01 1.09375E+00 0.00000E+00
 -1      1513 2.85120E+01 1.09375E+00 0.00000E+00
 -1      1514 2.83740E+01 2.18750E+00 0.00000E+00
 -1      1515 3.30120E+01 1.09375E+00 0.00000E+00
 -1      1516 3.15120E+01 1.09375E+00 0.00000E+00
 -1      1517 3.13740E+01 2.18750E+00 0.00000E+00
 -1      1518 3.60120E+01 1.09375E+00 0.00000E+00
 -1      1519 3.45120E+01 1.09375E+00 0.00000E+00
 -1      1520 3.43740E+01 2.18750E+00 0.00000E+00
 -1      1521 3.90120E+01 1.09375E+00 0.00000E+00
 -1      1522 3.75120E+01 1.09375E+00 0.00000E+00
 -1      1523 3.73740E+01 2.18750E+00 0.00000E+00
 -1      1524 4.20120E+01 1.09375E+00 0.00000E+00
 -1      1525 4.05120E+01 1.09375E+00 0.00000E+00
 -1      1526 4.03740E+01 2.18750E+00 0.00000E+00
 -1      1527 4.50120E+01 1.09375E+00 0.00000E+00
 -1      1528 4.35120E+01 1.09375E+00 0.00000E+00
 -1      1529 4.33740E+01 2.18750E+00 0.00000E+00
 -1      1530 4.80120E+01 1.09375E+00 0.00000E+00
 -1      1531 4.65120E+01 1.09375E+00 0.00000E+00
 -1      1532 4.63740E+01 2.18750E+00 0.00000E+00
 -1      1533 5.10120E+01 1.09375E+00 0.00000E+00
 -1      1534 4.95120E+01 1.09375E+00 0.00000E+00
 -1      1535 4.93740E+01 2.18750E+00 0.00000E+00
 -1      1536 5.40120E+01 1.09375E+00 0.00000E+00
 -1      1537 5.25120E+01 1.09375E+00 0.00000E+00
 -1      1538 5.23740E+01 2.18750E+00 0.00000E+00
 -1      1539 5.70120E+01 1.09375E+00 0.00000E+00
 -1      1540 5.55120E+01 1.09375E+00 0.00000E+00
 -1      1541 5.53740E+01 2.18750E+00 0.00000E+00
 -1      1542 6.00120E+01 1.09375E+00 0.00000E+00
 -1      1543 5.85120E+01 1.09375E+00 0.00000E+00
 -1      1544 5.83740E+01 2.18750E+00 0.00000E+00
 -1      1545 6.30120E+01 1.09375E+00 0.00000E+00
 -1      1546 6.15120E+01 1.09375E+00 0.00000E+00
 -1      1547 6.13740E+01 2.18750E+00 0.00000E+00
 -1      1548 6.60120E+01 1.09375E+00 0.00000E+00
 -1      1549 6.45120E+01 1.09375E+00 0.00000E+00
 -1      1550 6.43740E+01 2.18750E+00 0.00000E+00
 -1      1551 6.90120E+01 1.09375E+00 0.00000E+00
 -1      1552 6.75120E+01 1.09375E+00 0.00000E+00
 -1      1553 6.73740E+01 2.18750E+00 0.00000E+00
 -1      1554 7.20120E+01 1.09375E+00 0.00000E+00
 -1      1555 7.05120E+01 1.09375E+00 0.00000E+00
 -1      1556 7.03740E+01 2.18750E+00 0.00000E+00
 -1      1557 7.50120E+01 1.09375E+00 0.00000E+00
 -1      1558 7.35120E+01 1.09375E+00 0.00000E+00
 -1      1559 7.33740E+01 2.18750E+00 0.00000E+00
 -1      1560 7.80120E+01 1.09375E+00 0.00000E+00
 -1      1561 7.65120E+01 1.09375E+00 0.00000E+00
 -1      1562 7.63740E+01 2.18750E+00 0.00000E+00
 -1      1563 8.10120E+01 1.09375E+00 0.00000E+00
 -1      1564 7.95120E+01 1.09375E+00 0.00000E+00
 -1      1565 7.93740E+01 2.18750E+00 0.00000E+00
 -1      1566 8.40120E+01 1.09375E+00 0.00000E+00
 -1      1567 8.25120E+01 1.09375E+00 0.00000E+00
 -1      1568 8.23740E+01 2.18750E+00 0.00000E+00
 -1      1569 8.70120E+01 1.09375E+00 0.00000E+00
 -1      1570 8.55120E+01 1.09375E+00 0.00000E+00
 -1      1571 8.53740E+01 2.18750E+00 0.00000E+00
 -1      1572 9.00120E+01 1.09375E+00 0.00000E+00
 -1      1573 8.85120E+01 1.09375E+00 0.00000E+00
 -1      1574 8.83740E+01 2.18750E+00 0.00000E+00
 -1      1575 9.30120E+01 1.09375E+00 0.00000E+00
 -1      1576 9.15120E+01 1.09375E+00 0.00000E+00
 -1      1577 9.13740E+01 2.18750E+00 0.00000E+00
 -1      1578 9.60120E+01 1.09375E+00 0.00000E+00
 -1      1579 9.45120E+01 1.09375E+00 0.00000E+00
 -1      1580 9.43740E+01 2.18750E+00 0.00000E+00
 -1      1581 9.90120E+01 1.09375E+00 0.00000E+00
 -1      1582 9.75120E+01 1.09375E+00 0.00000E+00
 -1      1583 9.73740E+01 2.18750E+00 0.00000E+00
 -1      1584 1.02012E+02 1.09375E+00 0.00000E+00
 -1      1585 1.00512E+02 1.09375E+00 0.00000E+00
 -1      1586 1.00374E+02 2.18750E+00 0.00000E+00
 -1      1587 1.05012E+02 1.09375E+00 0.00000E+00
 -1      1588 1.03512E+02 1.09375E+00 0.00000E+00
 -1      1589 1.03374E+02 2.18750E+00 0.00000E+00
 -1      1590 1.08012E+02 1.09375E+00 0.00000E+00
 -1      1591 1.06512E+02 1.09375E+00 0.00000E+00
 -1      1592 1.06374E+02 2.18750E+00 0.00000E+00
 -1      1593 1.11012E+02 1.09375E+00 0.00000E+00
 -1      1594 1.09512E+02 1.09375E+00 0.00000E+00
 -1      1595 1.09374E+02 2.18750E+00 0.00000E+00
 -1      1596 1.14012E+02 1.09375E+00 0.00000E+00
 -1      1597 1.12512E+02 1.09375E+00 0.00000E+00
 -1      1598 1.12374E+02 2.18750E+00 0.00000E+00
 -1      1599 1.17012E+02 1.09375E+00 0.00000E+00
 -1      1600 1.15512E+02 1.09375E+00 0.00000E+00
 -1      1601 1.15374E+02 2.18750E+00 0.00000E+00
 -1      1602 1.20012E+02 1.09375E+00 0.00000E+00
 -1      1603 1.18512E+02 1.09375E+00 0.00000E+00
 -1      1604 1.18374E+02 2.18750E+00 0.00000E+00
 -1      1605 1.23012E+02 1.09375E+00 0.00000E+00
 -1      1606 1.21512E+02 1.09375E+00 0.00000E+00
 -1      1607 1.21374E+02 2.18750E+00 0.00000E+00
 -1      1608 1.26012E+02 1.09375E+00 0.00000E+00
 -1      1609 1.24512E+02 1.09375E+00 0.00000E+00
 -1      1610 1.24374E+02 2.18750E+00 0.00000E+00
 -1      1611 1.29012E+02 1.09375E+00 0.00000E+00
 -1      1612 1.27512E+02 1.09375E+00 0.00000E+00
 -1      1613 1.27374E+02 2.18750E+00 0.00000E+00
 -1      1614 1.32012E+02 1.09375E+00 0.00000E+00
 -1      1615 1.30512E+02 1.09375E+00 0.00000E+00
 -1      1616 1.30374E+02 2.18750E+00 0.00000E+00
 -1      1617 1.35012E+02 1.09375E+00 0.00000E+00
 -1      1618 1.33512E+02 1.09375E+00 0.00000E+00
 -1      1619 1.33374E+02 2.18750E+00 0.00000E+00
 -1      1620 1.38012E+02 1.09375E+00 0.00000E+00
 -1      1621 1.36512E+02 1.09375E+00 0.00000E+00
 -1      1622 1.36374E+02 2.18750E+00 0.00000E+00
 -1      1623 1.41012E+02 1.09375E+00 0.00000E+00
 -1      1624 1.39512E+02 1.09375E+00 0.00000E+00
 -1      1625 1.39374E+02 2.18750E+00 0.00000E+00
 -1      1626 1.44012E+02 1.09375E+00 0.00000E+00
 -1      1627 1.42512E+02 1.09375E+00 0.00000E+00
 -1      1628 1.42374E+02 2.18750E+00 0.00000E+00
 -1      1629 1.47012E+02 1.09375E+00 0.00000E+00
 -1      1630 1.45512E+02 1.09375E+00 0.00000E+00
 -1      1631 1.45374E+02 2.18750E+00 0.00000E+00
 -1      1632 1.48575E+02 1.47500E+00 0.00000E+00
 -1      1633 1.48701E+02 5.16250E+00 0.00000E+00
 -1      1634 1.48701E+02 3.68750E+00 0.00000E+00
 -1      1635 1.48701E+02 8.11250E+00 0.00000E+00
 -1      1636 1.48701E+02 6.63750E+00 0.00000E+00
 -1      1637 1.47402E+02 5.90000E+00 0.00000E+00
 -1      1638 1.48701E+02 1.10625E+01 0.00000E+00
 -1      1639 1.48701E+02 9.58750E+00 0.00000E+00
 -1      1640 1.47402E+02 8.85000E+00 0.00000E+00
 -1      1641 1.48701E+02 1.40125E+01 0.00000E+00
 -1      1642 1.48701E+02 1.25375E+01 0.00000E+00
 -1      1643 1.47402E+02 1.18000E+01 0.00000E+00
 -1      1644 1.48701E+02 1.69125E+01 0.00000E+00
 -1      1645 1.48701E+02 1.54625E+01 0.00000E+00
 -1      1646 1.47402E+02 1.47250E+01 0.00000E+00
 -1      1647 1.48701E+02 1.98625E+01 0.00000E+00
 -1      1648 1.48701E+02 1.83875E+01 0.00000E+00
 -1      1649 1.47402E+02 1.76500E+01 0.00000E+00
 -1      1650 1.48701E+02 2.28125E+01 0.00000E+00
 -1      1651 1.48701E+02 2.13375E+01 0.00000E+00
 -1      1652 1.47402E+02 2.06000E+01 0.00000E+00
 -1      1653 1.48701E+02 2.57625E+01 0.00000E+00
 -1      1654 1.48701E+02 2.42875E+01 0.00000E+00
 -1      1655 1.47402E+02 2.35500E+01 0.00000E+00
 -1      1656 1.48701E+02 2.87125E+01 0.00000E+00
 -1      1657 1.48701E+02 2.72375E+01 0.00000E+00
 -1      1658 1.47402E+02 2.65000E+01 0.00000E+00
 -1      1659 1.48701E+02 3.16625E+01 0.00000E+00
 -1      1660 1.48701E+02 3.01875E+01 0.00000E+00
 -1      1661 1.47402E+02 2.94500E+01 0.00000E+00
 -1      1662 1.48701E+02 3.45625E+01 0.00000E+00
 -1      1663 1.48701E+02 3.31125E+01 0.00000E+00
 -1      1664 1.47402E+02 3.23750E+01 0.00000E+00
 -1      1665 1.48701E+02 3.75125E+01 0.00000E+00
 -1      1666 1.48701E+02 3.60375E+01 0.00000E+00
 -1      1667 1.47402E+02 3.53000E+01 0.00000E+00
 -1      1668 1.48701E+02 4.04625E+01 0.00000E+00
 -1      1669 1.48701E+02 3.89875E+01 0.00000E+00
 -1      1670 1.47402E+02 3.82500E+01 0.00000E+00
 -1      1671 1.48701E+02 4.34125E+01 0.00000E+00
 -1      1672 1.48701E+02 4.19375E+01 0.00000E+00
 -1      1673 1.47402E+02 4.12000E+01 0.00000E+00
 -1      1674 1.48263E+02 4.60692E+01 0.00000E+00
 -1      1675 1.48263E+02 4.45942E+01 0.00000E+00
 -1      1676 1.46964E+02 4.38568E+01 0.00000E+00
 -1      1677 1.46088E+02 4.62202E+01 0.00000E+00
 -1      1678 7.57998E+01 2.56004E+01 0.00000E+00
 -1      1679 7.58807E+01 2.63487E+01 0.00000E+00
 -1      1680 7.54114E+01 2.40125E+01 0.00000E+00
 -1      1681 7.56512E+01 2.47278E+01 0.00000E+00
 -1      1682 7.46342E+01 2.25334E+01 0.00000E+00
 -1      1683 7.50329E+01 2.31955E+01 0.00000E+00
 -1      1684 7.35116E+01 2.11676E+01 0.00000E+00
 -1      1685 7.40869E+01 2.17599E+01 0.00000E+00
 -1      1686 7.21510E+01 2.02514E+01 0.00000E+00
 -1      1687 7.27572E+01 2.06469E+01 0.00000E+00
 -1      1688 7.06260E+01 1.94472E+01 0.00000E+00
 -1      1689 7.13906E+01 1.97329E+01 0.00000E+00
 -1      1690 6.89828E+01 1.92404E+01 0.00000E+00
 -1      1691 6.97074E+01 1.93397E+01 0.00000E+00
 -1      1692 6.73209E+01 1.91967E+01 0.00000E+00
 -1      1693 6.80958E+01 1.91347E+01 0.00000E+00
 -1      1694 6.57366E+01 1.96663E+01 0.00000E+00
 -1      1695 6.64524E+01 1.94461E+01 0.00000E+00
 -1      1696 6.42712E+01 2.03342E+01 0.00000E+00
 -1      1697 6.49168E+01 1.99718E+01 0.00000E+00
 -1      1698 6.30493E+01 2.13427E+01 0.00000E+00
 -1      1699 6.35934E+01 2.08644E+01 0.00000E+00
 -1      1700 6.20515E+01 2.25270E+01 0.00000E+00
 -1      1701 6.24790E+01 2.19577E+01 0.00000E+00
 -1      1702 6.11285E+01 2.39234E+01 0.00000E+00
 -1      1703 6.14556E+01 2.32100E+01 0.00000E+00
 -1      1704 6.08009E+01 2.55576E+01 0.00000E+00
 -1      1705 6.09567E+01 2.48304E+01 0.00000E+00
 -1      1706 6.05969E+01 2.72814E+01 0.00000E+00
 -1      1707 6.05876E+01 2.64710E+01 0.00000E+00
 -1      1708 6.10371E+01 2.88831E+01 0.00000E+00
 -1      1709 6.08692E+01 2.81725E+01 0.00000E+00
 -1      1710 6.15411E+01 3.05220E+01 0.00000E+00
 -1      1711 6.11902E+01 2.97985E+01 0.00000E+00
 -1      1712 6.26298E+01 3.18510E+01 0.00000E+00
 -1      1713 6.21483E+01 3.12517E+01 0.00000E+00
 -1      1714 6.38244E+01 3.30391E+01 0.00000E+00
 -1      1715 6.32210E+01 3.25576E+01 0.00000E+00
 -1      1716 6.53258E+01 3.38358E+01 0.00000E+00
 -1      1717 6.46294E+01 3.34975E+01 0.00000E+00
 -1      1718 6.69789E+01 3.42411E+01 0.00000E+00
 -1      1719 6.62180E+01 3.40634E+01 0.00000E+00
 -1      1720 6.86636E+01 3.43528E+01 0.00000E+00
 -1      1721 6.78836E+01 3.43481E+01 0.00000E+00
 -1      1722 7.03236E+01 3.41785E+01 0.00000E+00
 -1      1723 6.95775E+01 3.43415E+01 0.00000E+00
 -1      1724 7.17661E+01 3.35370E+01 0.00000E+00
 -1      1725 7.11218E+01 3.38290E+01 0.00000E+00
 -1      1726 7.31580E+01 3.27236E+01 0.00000E+00
 -1      1727 7.25508E+01 3.31708E+01 0.00000E+00
 -1      1728 7.42784E+01 3.15317E+01 0.00000E+00
 -1      1729 7.37856E+01 3.20921E+01 0.00000E+00
 -1      1730 7.50799E+01 3.02130E+01 0.00000E+00
 -1      1731 7.47371E+01 3.08190E+01 0.00000E+00
 -1      1732 7.56300E+01 2.87805E+01 0.00000E+00
 -1      1733 7.54103E+01 2.94590E+01 0.00000E+00
 -1      1734 7.59241E+01 2.72229E+01 0.00000E+00
 -1      1735 7.58464E+01 2.79561E+01 0.00000E+00
 -1      1736 7.35398E+01 2.04622E+01 0.00000E+00
 -1      1737 7.48415E+01 2.17565E+01 0.00000E+00
 -1      1738 1.48437E+02 2.56875E+00 0.00000E+00
 -1      1739 1.47138E+02 3.30625E+00 0.00000E+00
 -1      1740 7.62943E+01 2.50368E+01 0.00000E+00
 -1      1741 7.57673E+01 2.33472E+01 0.00000E+00
 -1      1742 7.64863E+01 2.67836E+01 0.00000E+00
 -1      1743 7.20249E+01 1.94229E+01 0.00000E+00
 -1      1744 7.03459E+01 1.87970E+01 0.00000E+00
 -1      1745 6.85403E+01 1.85837E+01 0.00000E+00
 -1      1746 6.67848E+01 1.87273E+01 0.00000E+00
 -1      1747 6.50965E+01 1.92823E+01 0.00000E+00
 -1      1748 6.35989E+01 2.01181E+01 0.00000E+00
 -1      1749 6.23508E+01 2.12633E+01 0.00000E+00
 -1      1750 6.11846E+01 2.25613E+01 0.00000E+00
 -1      1751 6.04169E+01 2.41512E+01 0.00000E+00
 -1      1752 6.00318E+01 2.59716E+01 0.00000E+00
 -1      1753 6.00909E+01 2.77761E+01 0.00000E+00
 -1      1754 6.05163E+01 2.95825E+01 0.00000E+00
 -1      1755 6.12766E+01 3.12276E+01 0.00000E+00
 -1      1756 6.24750E+01 3.26638E+01 0.00000E+00
 -1      1757 6.38712E+01 3.38289E+01 0.00000E+00
 -1      1758 6.55684E+01 3.45149E+01 0.00000E+00
 -1      1759 6.73653E+01 3.48496E+01 0.00000E+00
 -1      1760 6.91839E+01 3.49454E+01 0.00000E+00
 -1      1761 7.08960E+01 3.45846E+01 0.00000E+00
 -1      1762 7.24789E+01 3.38689E+01 0.00000E+00
 -1      1763 7.38911E+01 3.28713E+01 0.00000E+00
 -1      1764 7.49774E+01 3.15272E+01 0.00000E+00
 -1      1765 7.57665E+01 3.00605E+01 0.00000E+00
 -1      1766 7.63133E+01 2.84821E+01 0.00000E+00
 -1      1767 2.87400E+00 4.77875E+01 0.00000E+00
 -1      1768 3.89700E+00 4.04125E+01 0.00000E+00
 -1      1769 3.89700E+00 4.18875E+01 0.00000E+00
 -1      1770 3.89700E+00 4.33625E+01 0.00000E+00
 -1      1771 3.89700E+00 4.48375E+01 0.00000E+00
 -1      1772 5.19600E+00 4.26250E+01 0.00000E+00
 -1      1773 3.89700E+00 3.45500E+01 0.00000E+00
 -1      1774 3.89700E+00 3.60000E+01 0.00000E+00
 -1      1775 3.89700E+00 3.16000E+01 0.00000E+00
 -1      1776 3.89700E+00 3.30750E+01 0.00000E+00
 -1      1777 5.19600E+00 3.38000E+01 0.00000E+00
 -1      1778 3.89700E+00 2.86500E+01 0.00000E+00
 -1      1779 3.89700E+00 3.01250E+01 0.00000E+00
 -1      1780 5.19600E+00 3.08500E+01 0.00000E+00
 -1      1781 3.89700E+00 2.57000E+01 0.00000E+00
 -1      1782 3.89700E+00 2.71750E+01 0.00000E+00
 -1      1783 5.19600E+00 2.79000E+01 0.00000E+00
 -1      1784 3.89700E+00 2.27500E+01 0.00000E+00
 -1      1785 3.89700E+00 2.42250E+01 0.00000E+00
 -1      1786 5.19600E+00 2.49500E+01 0.00000E+00
 -1      1787 3.89700E+00 1.98000E+01 0.00000E+00
 -1      1788 3.89700E+00 2.12750E+01 0.00000E+00
 -1      1789 5.19600E+00 2.20000E+01 0.00000E+00
 -1      1790 3.89700E+00 1.69000E+01 0.00000E+00
 -1      1791 3.89700E+00 1.83500E+01 0.00000E+00
 -1      1792 5.19600E+00 1.90750E+01 0.00000E+00
 -1      1793 3.89700E+00 1.39500E+01 0.00000E+00
 -1      1794 3.89700E+00 1.54250E+01 0.00000E+00
 -1      1795 5.19600E+00 1.61500E+01 0.00000E+00
 -1      1796 3.89700E+00 1.10000E+01 0.00000E+00
 -1      1797 3.89700E+00 1.24750E+01 0.00000E+00
 -1      1798 5.19600E+00 1.32000E+01 0.00000E+00
 -1      1799 3.89700E+00 8.05000E+00 0.00000E+00
 -1      1800 3.89700E+00 9.52500E+00 0.00000E+00
 -1      1801 5.19600E+00 1.02500E+01 0.00000E+00
 -1      1802 3.89700E+00 5.10000E+00 0.00000E+00
 -1      1803 3.89700E+00 6.57500E+00 0.00000E+00
 -1      1804 5.19600E+00 7.30000E+00 0.00000E+00
 -1      1805 4.20450E+00 3.09687E+00 0.00000E+00
 -1      1806 4.06650E+00 4.19063E+00 0.00000E+00
 -1      1807 5.36550E+00 4.91563E+00 0.00000E+00
 -1      1808 5.70450E+00 3.09687E+00 0.00000E+00
 -1      1809 3.62400E+00 4.64885E+01 0.00000E+00
 -1      1810 8.70450E+00 3.09687E+00 0.00000E+00
 -1      1811 7.20450E+00 3.09687E+00 0.00000E+00
 -1      1812 7.03500E+00 4.00625E+00 0.00000E+00
 -1      1813 4.92300E+00 4.57510E+01 0.00000E+00
 -1      1814 8.40000E+00 4.61030E+01 0.00000E+00
 -1      1815 9.90000E+00 4.61030E+01 0.00000E+00
 -1      1816 1.14000E+01 4.61030E+01 0.00000E+00
 -1      1817 1.29000E+01 4.61030E+01 0.00000E+00
 -1      1818 1.06500E+01 4.48040E+01 0.00000E+00
 -1      1819 1.44000E+01 4.61030E+01 0.00000E+00
 -1      1820 1.59000E+01 4.61030E+01 0.00000E+00
 -1      1821 1.36500E+01 4.48040E+01 0.00000E+00
 -1      1822 1.74000E+01 4.61030E+01 0.00000E+00
 -1      1823 1.89000E+01 4.61030E+01 0.00000E+00
 -1      1824 1.66500E+01 4.48040E+01 0.00000E+00
 -1      1825 2.04000E+01 4.61030E+01 0.00000E+00
 -1      1826 2.19000E+01 4.61030E+01 0.00000E+00
 -1      1827 1.96500E+01 4.48040E+01 0.00000E+00
 -1      1828 2.34000E+01 4.61030E+01 0.00000E+00
 -1      1829 2.49000E+01 4.61030E+01 0.00000E+00
 -1      1830 2.26500E+01 4.48040E+01 0.00000E+00
 -1      1831 2.64000E+01 4.61030E+01 0.00000E+00
 -1      1832 2.79000E+01 4.61030E+01 0.00000E+00
 -1      1833 2.56500E+01 4.48040E+01 0.00000E+00
 -1      1834 2.94000E+01 4.61030E+01 0.00000E+00
 -1      1835 3.09000E+01 4.61030E+01 0.00000E+00
 -1      1836 2.86500E+01 4.48040E+01 0.00000E+00
 -1      1837 3.24000E+01 4.61030E+01 0.00000E+00
 -1      1838 3.39000E+01 4.61030E+01 0.00000E+00
 -1      1839 3.16500E+01 4.48040E+01 0.00000E+00
 -1      1840 3.54000E+01 4.61030E+01 0.00000E+00
 -1      1841 3.69000E+01 4.61030E+01 0.00000E+00
 -1      1842 3.46500E+01 4.48040E+01 0.00000E+00
 -1      1843 3.84000E+01 4.61030E+01 0.00000E+00
 -1      1844 3.99000E+01 4.61030E+01 0.00000E+00
 -1      1845 3.76500E+01 4.48040E+01 0.00000E+00
 -1      1846 4.14000E+01 4.61030E+01 0.00000E+00
 -1      1847 4.29000E+01 4.61030E+01 0.00000E+00
 -1      1848 4.06500E+01 4.48040E+01 0.00000E+00
 -1      1849 4.44000E+01 4.61030E+01 0.00000E+00
 -1      1850 4.59000E+01 4.61030E+01 0.00000E+00
 -1      1851 4.36500E+01 4.48040E+01 0.00000E+00
 -1      1852 4.74000E+01 4.61030E+01 0.00000E+00
 -1      1853 4.89000E+01 4.61030E+01 0.00000E+00
 -1      1854 4.66500E+01 4.48040E+01 0.00000E+00
 -1      1855 5.04000E+01 4.61030E+01 0.00000E+00
 -1      1856 5.19000E+01 4.61030E+01 0.00000E+00
 -1      1857 4.96500E+01 4.48040E+01 0.00000E+00
 -1      1858 5.34000E+01 4.61030E+01 0.00000E+00
 -1      1859 5.49000E+01 4.61030E+01 0.00000E+00
 -1      1860 5.26500E+01 4.48040E+01 0.00000E+00
 -1      1861 5.64000E+01 4.61030E+01 0.00000E+00
 -1      1862 5.79000E+01 4.61030E+01 0.00000E+00
 -1      1863 5.56500E+01 4.48040E+01 0.00000E+00
 -1      1864 5.94000E+01 4.61030E+01 0.00000E+00
 -1      1865 6.09000E+01 4.61030E+01 0.00000E+00
 -1      1866 5.86500E+01 4.48040E+01 0.00000E+00
 -1      1867 6.24000E+01 4.61030E+01 0.00000E+00
 -1      1868 6.39000E+01 4.61030E+01 0.00000E+00
 -1      1869 6.16500E+01 4.48040E+01 0.00000E+00
 -1      1870 6.54000E+01 4.61030E+01 0.00000E+00
 -1      1871 6.69000E+01 4.61030E+01 0.00000E+00
 -1      1872 6.46500E+01 4.48040E+01 0.00000E+00
 -1      1873 6.84000E+01 4.61030E+01 0.00000E+00
 -1      1874 6.99000E+01 4.61030E+01 0.00000E+00
 -1      1875 6.76500E+01 4.48040E+01 0.00000E+00
 -1      1876 7.14000E+01 4.61030E+01 0.00000E+00
 -1      1877 7.29000E+01 4.61030E+01 0.00000E+00
 -1      1878 7.06500E+01 4.48040E+01 0.00000E+00
 -1      1879 7.44000E+01 4.61030E+01 0.00000E+00
 -1      1880 7.59000E+01 4.61030E+01 0.00000E+00
 -1      1881 7.36500E+01 4.48040E+01 0.00000E+00
 -1      1882 7.74000E+01 4.61030E+01 0.00000E+00
 -1      1883 7.89000E+01 4.61030E+01 0.00000E+00
 -1      1884 7.66500E+01 4.48040E+01 0.00000E+00
 -1      1885 8.04000E+01 4.61030E+01 0.00000E+00
 -1      1886 8.19000E+01 4.61030E+01 0.00000E+00
 -1      1887 7.96500E+01 4.48040E+01 0.00000E+00
 -1      1888 8.34000E+01 4.61030E+01 0.00000E+00
 -1      1889 8.49000E+01 4.61030E+01 0.00000E+00
 -1      1890 8.26500E+01 4.48040E+01 0.00000E+00
 -1      1891 8.64000E+01 4.61030E+01 0.00000E+00
 -1      1892 8.79000E+01 4.61030E+01 0.00000E+00
 -1      1893 8.56500E+01 4.48040E+01 0.00000E+00
 -1      1894 8.94000E+01 4.61030E+01 0.00000E+00
 -1      1895 9.09000E+01 4.61030E+01 0.00000E+00
 -1      1896 8.86500E+01 4.48040E+01 0.00000E+00
 -1      1897 9.24000E+01 4.61030E+01 0.00000E+00
 -1      1898 9.39000E+01 4.61030E+01 0.00000E+00
 -1      1899 9.16500E+01 4.48040E+01 0.00000E+00
 -1      1900 9.54000E+01 4.61030E+01 0.00000E+00
 -1      1901 9.69000E+01 4.61030E+01 0.00000E+00
 -1      1902 9.46500E+01 4.48040E+01 0.00000E+00
 -1      1903 9.84000E+01 4.61030E+01 0.00000E+00
 -1      1904 9.99000E+01 4.61030E+01 0.00000E+00
 -1      1905 9.76500E+01 4.48040E+01 0.00000E+00
 -1      1906 1.01400E+02 4.61030E+01 0.00000E+00
 -1      1907 1.02900E+02 4.61030E+01 0.00000E+00
 -1      1908 1.00650E+02 4.48040E+01 0.00000E+00
 -1      1909 1.04400E+02 4.61030E+01 0.00000E+00
 -1      1910 1.05900E+02 4.61030E+01 0.00000E+00
 -1      1911 1.03650E+02 4.48040E+01 0.00000E+00
 -1      1912 1.07400E+02 4.61030E+01 0.00000E+00
 -1      1913 1.08900E+02 4.61030E+01 0.00000E+00
 -1      1914 1.06650E+02 4.48040E+01 0.00000E+00
 -1      1915 1.10400E+02 4.61030E+01 0.00000E+00
 -1      1916 1.11900E+02 4.61030E+01 0.00000E+00
 -1      1917 1.09650E+02 4.48040E+01 0.00000E+00
 -1      1918 1.13400E+02 4.61030E+01 0.00000E+00
 -1      1919 1.14900E+02 4.61030E+01 0.00000E+00
 -1      1920 1.12650E+02 4.48040E+01 0.00000E+00
 -1      1921 1.16400E+02 4.61030E+01 0.00000E+00
 -1      1922 1.17900E+02 4.61030E+01 0.00000E+00
 -1      1923 1.15650E+02 4.48040E+01 0.00000E+00
 -1      1924 1.19400E+02 4.61030E+01 0.00000E+00
 -1      1925 1.20900E+02 4.61030E+01 0.00000E+00
 -1      1926 1.18650E+02 4.48040E+01 0.00000E+00
 -1      1927 1.22400E+02 4.61030E+01 0.00000E+00
 -1      1928 1.23900E+02 4.61030E+01 0.00000E+00
 -1      1929 1.21650E+02 4.48040E+01 0.00000E+00
 -1      1930 1.25400E+02 4.61030E+01 0.00000E+00
 -1      1931 1.26900E+02 4.61030E+01 0.00000E+00
 -1      1932 1.24650E+02 4.48040E+01 0.00000E+00
 -1      1933 1.28400E+02 4.61030E+01 0.00000E+00
 -1      1934 1.29900E+02 4.61030E+01 0.00000E+00
 -1      1935 1.27650E+02 4.48040E+01 0.00000E+00
 -1      1936 1.31400E+02 4.61030E+01 0.00000E+00
 -1      1937 1.32900E+02 4.61030E+01 0.00000E+00
 -1      1938 1.30650E+02 4.48040E+01 0.00000E+00
 -1      1939 1.34400E+02 4.61030E+01 0.00000E+00
 -1      1940 1.35900E+02 4.61030E+01 0.00000E+00
 -1      1941 1.33650E+02 4.48040E+01 0.00000E+00
 -1      1942 1.37400E+02 4.61030E+01 0.00000E+00
 -1      1943 1.38900E+02 4.61030E+01 0.00000E+00
 -1      1944 1.36650E+02 4.48040E+01 0.00000E+00
 -1      1945 1.40400E+02 4.61030E+01 0.00000E+00
 -1      1946 1.41900E+02 4.61030E+01 0.00000E+00
 -1      1947 1.39650E+02 4.48040E+01 0.00000E+00
 -1      1948 1.43244E+02 4.61616E+01 0.00000E+00
 -1      1949 1.44744E+02 4.61616E+01 0.00000E+00
 -1      1950 1.45182E+02 4.49799E+01 0.00000E+00
 -1      1951 1.42494E+02 4.48626E+01 0.00000E+00
 -1      1952 1.17045E+01 3.09687E+00 0.00000E+00
 -1      1953 1.02045E+01 3.09687E+00 0.00000E+00
 -1      1954 1.00350E+01 4.00625E+00 0.00000E+00
 -1      1955 1.47045E+01 3.09687E+00 0.00000E+00
 -1      1956 1.32045E+01 3.09687E+00 0.00000E+00
 -1      1957 1.30350E+01 4.00625E+00 0.00000E+00
 -1      1958 1.77045E+01 3.09687E+00 0.00000E+00
 -1      1959 1.62045E+01 3.09687E+00 0.00000E+00
 -1      1960 1.60350E+01 4.00625E+00 0.00000E+00
 -1      1961 2.07045E+01 3.09687E+00 0.00000E+00
 -1      1962 1.92045E+01 3.09687E+00 0.00000E+00
 -1      1963 1.90350E+01 4.00625E+00 0.00000E+00
 -1      1964 2.37045E+01 3.09687E+00 0.00000E+00
 -1      1965 2.22045E+01 3.09687E+00 0.00000E+00
 -1      1966 2.20350E+01 4.00625E+00 0.00000E+00
 -1      1967 2.67045E+01 3.09687E+00 0.00000E+00
 -1      1968 2.52045E+01 3.09687E+00 0.00000E+00
 -1      1969 2.50350E+01 4.00625E+00 0.00000E+00
 -1      1970 2.97045E+01 3.09687E+00 0.00000E+00
 -1      1971 2.82045E+01 3.09687E+00 0.00000E+00
 -1      1972 2.80350E+01 4.00625E+00 0.00000E+00
 -1      1973 3.27045E+01 3.09687E+00 0.00000E+00
 -1      1974 3.12045E+01 3.09687E+00 0.00000E+00
 -1      1975 3.10350E+01 4.00625E+00 0.00000E+00
 -1      1976 3.57045E+01 3.09687E+00 0.00000E+00
 -1      1977 3.42045E+01 3.09687E+00 0.00000E+00
 -1      1978 3.40350E+01 4.00625E+00 0.00000E+00
 -1      1979 3.87045E+01 3.09687E+00 0.00000E+00
 -1      1980 3.72045E+01 3.09687E+00 0.00000E+00
 -1      1981 3.70350E+01 4.00625E+00 0.00000E+00
 -1      1982 4.17045E+01 3.09687E+00 0.00000E+00
 -1      1983 4.02045E+01 3.09687E+00 0.00000E+00
 -1      1984 4.00350E+01 4.00625E+00 0.00000E+00
 -1      1985 4.47045E+01 3.09687E+00 0.00000E+00
 -1      1986 4.32045E+01 3.09687E+00 0.00000E+00
 -1      1987 4.30350E+01 4.00625E+00 0.00000E+00
 -1      1988 4.77045E+01 3.09687E+00 0.00000E+00
 -1      1989 4.62045E+01 3.09687E+00 0.00000E+00
 -1      1990 4.60350E+01 4.00625E+00 0.00000E+00
 -1      1991 5.07045E+01 3.09687E+00 0.00000E+00
 -1      1992 4.92045E+01 3.09687E+00 0.00000E+00
 -1      1993 4.90350E+01 4.00625E+00 0.00000E+00
 -1      1994 5.37045E+01 3.09687E+00 0.00000E+00
 -1      1995 5.22045E+01 3.09687E+00 0.00000E+00
 -1      1996 5.20350E+01 4.00625E+00 0.00000E+00
 -1      1997 5.67045E+01 3.09687E+00 0.00000E+00
 -1      1998 5.52045E+01 3.09687E+00 0.00000E+00
 -1      1999 5.50350E+01 4.00625E+00 0.00000E+00
 -1      2000 5.97045E+01 3.09687E+00 0.00000E+00
 -1      2001 5.82045E+01 3.09687E+00 0.00000E+00
 -1      2002 5.80350E+01 4.00625E+00 0.00000E+00
 -1      2003 6.27045E+01 3.09687E+00 0.00000E+00
 -1      2004 6.12045E+01 3.09687E+00 0.00000E+00
 -1      2005 6.10350E+01 4.00625E+00 0.00000E+00
 -1      2006 6.57045E+01 3.09687E+00 0.00000E+00
 -1      2007 6.42045E+01 3.09687E+00 0.00000E+00
 -1      2008 6.40350E+01 4.00625E+00 0.00000E+00
 -1      2009 6.87045E+01 3.09687E+00 0.00000E+00
 -1      2010 6.72045E+01 3.09687E+00 0.00000E+00
 -1      2011 6.70350E+01 4.00625E+00 0.00000E+00
 -1      2012 7.17045E+01 3.09687E+00 0.00000E+00
 -1      2013 7.02045E+01 3.09687E+00 0.00000E+00
 -1      2014 7.00350E+01 4.00625E+00 0.00000E+00
 -1      2015 7.47045E+01 3.09687E+00 0.00000E+00
 -1      2016 7.32045E+01 3.09687E+00 0.00000E+00
 -1      2017 7.30350E+01 4.00625E+00 0.00000E+00
 -1      2018 7.77045E+01 3.09687E+00 0.00000E+00
 -1      2019 7.62045E+01 3.09687E+00 0.00000E+00
 -1      2020 7.60350E+01 4.00625E+00 0.00000E+00
 -1      2021 8.07045E+01 3.09687E+00 0.00000E+00
 -1      2022 7.92045E+01 3.09687E+00 0.00000E+00
 -1      2023 7.90350E+01 4.00625E+00 0.00000E+00
 -1      2024 8.37045E+01 3.09687E+00 0.00000E+00
 -1      2025 8.22045E+01 3.09687E+00 0.00000E+00
 -1      2026 8.20350E+01 4.00625E+00 0.00000E+00
 -1      2027 8.67045E+01 3.09687E+00 0.00000E+00
 -1      2028 8.52045E+01 3.09687E+00 0.00000E+00
 -1      2029 8.50350E+01 4.00625E+00 0.00000E+00
 -1      2030 8.97045E+01 3.09687E+00 0.00000E+00
 -1      2031 8.82045E+01 3.09687E+00 0.00000E+00
 -1      2032 8.80350E+01 4.00625E+00 0.00000E+00
 -1      2033 9.27045E+01 3.09687E+00 0.00000E+00
 -1      2034 9.12045E+01 3.09687E+00 0.00000E+00
 -1      2035 9.10350E+01 4.00625E+00 0.00000E+00
 -1      2036 9.57045E+01 3.09687E+00 0.00000E+00
 -1      2037 9.42045E+01 3.09687E+00 0.00000E+00
 -1      2038 9.40350E+01 4.00625E+00 0.00000E+00
 -1      2039 9.87045E+01 3.09687E+00 0.00000E+00
 -1      2040 9.72045E+01 3.09687E+00 0.00000E+00
 -1      2041 9.70350E+01 4.00625E+00 0.00000E+00
 -1      2042 1.01704E+02 3.09687E+00 0.00000E+00
 -1      2043 1.00204E+02 3.09687E+00 0.00000E+00
 -1      2044 1.00035E+02 4.00625E+00 0.00000E+00
 -1      2045 1.04704E+02 3.09687E+00 0.00000E+00
 -1      2046 1.03204E+02 3.09687E+00 0.00000E+00
 -1      2047 1.03035E+02 4.00625E+00 0.00000E+00
 -1      2048 1.07704E+02 3.09687E+00 0.00000E+00
 -1      2049 1.06204E+02 3.09687E+00 0.00000E+00
 -1      2050 1.06035E+02 4.00625E+00 0.00000E+00
 -1      2051 1.10704E+02 3.09687E+00 0.00000E+00
 -1      2052 1.09204E+02 3.09687E+00 0.00000E+00
 -1      2053 1.09035E+02 4.00625E+00 0.00000E+00
 -1      2054 1.13704E+02 3.09687E+00 0.00000E+00
 -1      2055 1.12204E+02 3.09687E+00 0.00000E+00
 -1      2056 1.12035E+02 4.00625E+00 0.00000E+00
 -1      2057 1.16704E+02 3.09687E+00 0.00000E+00
 -1      2058 1.15204E+02 3.09687E+00 0.00000E+00
 -1      2059 1.15035E+02 4.00625E+00 0.00000E+00
 -1      2060 1.19704E+02 3.09687E+00 0.00000E+00
 -1      2061 1.18204E+02 3.09687E+00 0.00000E+00
 -1      2062 1.18035E+02 4.00625E+00 0.00000E+00
 -1      2063 1.22704E+02 3.09687E+00 0.00000E+00
 -1      2064 1.21204E+02 3.09687E+00 0.00000E+00
 -1      2065 1.21035E+02 4.00625E+00 0.00000E+00
 -1      2066 1.25704E+02 3.09687E+00 0.00000E+00
 -1      2067 1.24204E+02 3.09687E+00 0.00000E+00
 -1      2068 1.24035E+02 4.00625E+00 0.00000E+00
 -1      2069 1.28704E+02 3.09687E+00 0.00000E+00
 -1      2070 1.27204E+02 3.09687E+00 0.00000E+00
 -1      2071 1.27035E+02 4.00625E+00 0.00000E+00
 -1      2072 1.31704E+02 3.09687E+00 0.00000E+00
 -1      2073 1.30204E+02 3.09687E+00 0.00000E+00
 -1      2074 1.30035E+02 4.00625E+00 0.00000E+00
 -1      2075 1.34704E+02 3.09687E+00 0.00000E+00
 -1      2076 1.33204E+02 3.09687E+00 0.00000E+00
 -1      2077 1.33035E+02 4.00625E+00 0.00000E+00
 -1      2078 1.37704E+02 3.09687E+00 0.00000E+00
 -1      2079 1.36204E+02 3.09687E+00 0.00000E+00
 -1      2080 1.36035E+02 4.00625E+00 0.00000E+00
 -1      2081 1.40704E+02 3.09687E+00 0.00000E+00
 -1      2082 1.39204E+02 3.09687E+00 0.00000E+00
 -1      2083 1.39035E+02 4.00625E+00 0.00000E+00
 -1      2084 1.43704E+02 3.09687E+00 0.00000E+00
 -1      2085 1.42204E+02 3.09687E+00 0.00000E+00
 -1      2086 1.42035E+02 4.00625E+00 0.00000E+00
 -1      2087 1.46171E+02 3.20156E+00 0.00000E+00
 -1      2088 1.44671E+02 3.20156E+00 0.00000E+00
 -1      2089 1.44502E+02 4.11094E+00 0.00000E+00
 -1      2090 1.46435E+02 4.32031E+00 0.00000E+00
 -1      2091 1.46103E+02 1.25375E+01 0.00000E+00
 -1      2092 1.46103E+02 1.10625E+01 0.00000E+00
 -1      2093 1.46103E+02 9.58750E+00 0.00000E+00
 -1      2094 1.46103E+02 8.11250E+00 0.00000E+00
 -1      2095 1.44804E+02 1.03250E+01 0.00000E+00
 -1      2096 1.46269E+02 6.95391E+00 0.00000E+00
 -1      2097 1.46269E+02 5.47891E+00 0.00000E+00
 -1      2098 1.45302E+02 5.37422E+00 0.00000E+00
 -1      2099 1.44970E+02 7.69141E+00 0.00000E+00
 -1      2100 1.46103E+02 1.54375E+01 0.00000E+00
 -1      2101 1.46103E+02 1.39875E+01 0.00000E+00
 -1      2102 1.44804E+02 1.32500E+01 0.00000E+00
 -1      2103 1.46103E+02 1.83875E+01 0.00000E+00
 -1      2104 1.46103E+02 1.69125E+01 0.00000E+00
 -1      2105 1.44804E+02 1.61750E+01 0.00000E+00
 -1      2106 1.46103E+02 2.13375E+01 0.00000E+00
 -1      2107 1.46103E+02 1.98625E+01 0.00000E+00
 -1      2108 1.44804E+02 1.91250E+01 0.00000E+00
 -1      2109 1.46103E+02 2.42875E+01 0.00000E+00
 -1      2110 1.46103E+02 2.28125E+01 0.00000E+00
 -1      2111 1.44804E+02 2.20750E+01 0.00000E+00
 -1      2112 1.46103E+02 2.72375E+01 0.00000E+00
 -1      2113 1.46103E+02 2.57625E+01 0.00000E+00
 -1      2114 1.44804E+02 2.50250E+01 0.00000E+00
 -1      2115 1.46103E+02 3.01875E+01 0.00000E+00
 -1      2116 1.46103E+02 2.87125E+01 0.00000E+00
 -1      2117 1.44804E+02 2.79750E+01 0.00000E+00
 -1      2118 1.46103E+02 3.30875E+01 0.00000E+00
 -1      2119 1.46103E+02 3.16375E+01 0.00000E+00
 -1      2120 1.44804E+02 3.09000E+01 0.00000E+00
 -1      2121 1.46103E+02 3.60375E+01 0.00000E+00
 -1      2122 1.46103E+02 3.45625E+01 0.00000E+00
 -1      2123 1.44804E+02 3.38250E+01 0.00000E+00
 -1      2124 1.46103E+02 3.89875E+01 0.00000E+00
 -1      2125 1.46103E+02 3.75125E+01 0.00000E+00
 -1      2126 1.44804E+02 3.67750E+01 0.00000E+00
 -1      2127 1.46103E+02 4.19375E+01 0.00000E+00
 -1      2128 1.46103E+02 4.04625E+01 0.00000E+00
 -1      2129 1.44804E+02 3.97250E+01 0.00000E+00
 -1      2130 7.62421E+01 2.26310E+01 0.00000E+00
 -1      2131 7.66206E+01 2.34480E+01 0.00000E+00
 -1      2132 7.71537E+01 2.63123E+01 0.00000E+00
 -1      2133 7.71972E+01 2.71864E+01 0.00000E+00
 -1      2134 7.69003E+01 2.44847E+01 0.00000E+00
 -1      2135 7.70488E+01 2.53573E+01 0.00000E+00
 -1      2136 7.51995E+01 2.09229E+01 0.00000E+00
 -1      2137 7.57468E+01 2.16964E+01 0.00000E+00
 -1      2138 7.35307E+01 1.96685E+01 0.00000E+00
 -1      2139 7.42851E+01 2.01892E+01 0.00000E+00
 -1      2140 3.89700E+00 3.74688E+01 0.00000E+00
 -1      2141 3.89700E+00 3.89437E+01 0.00000E+00
 -1      2142 5.19600E+00 3.96813E+01 0.00000E+00
 -1      2143 5.19600E+00 3.67438E+01 0.00000E+00
 -1      2144 6.99766E+01 1.79747E+01 0.00000E+00
 -1      2145 7.08952E+01 1.80822E+01 0.00000E+00
 -1      2146 6.82025E+01 1.77631E+01 0.00000E+00
 -1      2147 6.90896E+01 1.78689E+01 0.00000E+00
 -1      2148 6.96388E+01 1.71541E+01 0.00000E+00
 -1      2149 6.61716E+01 1.82291E+01 0.00000E+00
 -1      2150 6.70401E+01 1.79797E+01 0.00000E+00
 -1      2151 6.44018E+01 1.86708E+01 0.00000E+00
 -1      2152 6.52215E+01 1.83653E+01 0.00000E+00
 -1      2153 6.27317E+01 1.97077E+01 0.00000E+00
 -1      2154 6.34095E+01 1.91775E+01 0.00000E+00
 -1      2155 6.15911E+01 2.09378E+01 0.00000E+00
 -1      2156 6.21614E+01 2.03227E+01 0.00000E+00
 -1      2157 6.19720E+01 1.93822E+01 0.00000E+00
 -1      2158 6.03983E+01 2.24767E+01 0.00000E+00
 -1      2159 6.09943E+01 2.17937E+01 0.00000E+00
 -1      2160 5.96119E+01 2.44685E+01 0.00000E+00
 -1      2161 5.97837E+01 2.35615E+01 0.00000E+00
 -1      2162 5.91853E+01 2.62954E+01 0.00000E+00
 -1      2163 5.93986E+01 2.53819E+01 0.00000E+00
 -1      2164 5.87654E+01 2.47923E+01 0.00000E+00
 -1      2165 5.95671E+01 2.84233E+01 0.00000E+00
 -1      2166 5.92948E+01 2.75322E+01 0.00000E+00
 -1      2167 5.98735E+01 3.02541E+01 0.00000E+00
 -1      2168 5.97203E+01 2.93387E+01 0.00000E+00
 -1      2169 5.89243E+01 2.90948E+01 0.00000E+00
 -1      2170 6.10498E+01 3.20337E+01 0.00000E+00
 -1      2171 6.04427E+01 3.13041E+01 0.00000E+00
 -1      2172 6.22323E+01 3.34469E+01 0.00000E+00
 -1      2173 6.16410E+01 3.27403E+01 0.00000E+00
 -1      2174 6.08071E+01 3.28169E+01 0.00000E+00
 -1      2175 6.39322E+01 3.46576E+01 0.00000E+00
 -1      2176 6.31273E+01 3.41992E+01 0.00000E+00
 -1      2177 6.58335E+01 3.53379E+01 0.00000E+00
 -1      2178 6.49413E+01 3.51103E+01 0.00000E+00
 -1      2179 6.77169E+01 3.57547E+01 0.00000E+00
 -1      2180 6.68122E+01 3.56477E+01 0.00000E+00
 -1      2181 6.96499E+01 3.56716E+01 0.00000E+00
 -1      2182 6.87360E+01 3.56828E+01 0.00000E+00
 -1      2183 7.15887E+01 3.50803E+01 0.00000E+00
 -1      2184 7.07904E+01 3.54298E+01 0.00000E+00
 -1      2185 7.31580E+01 3.43479E+01 0.00000E+00
 -1      2186 7.23733E+01 3.47141E+01 0.00000E+00
 -1      2187 7.22677E+01 3.55593E+01 0.00000E+00
 -1      2188 7.47240E+01 3.30715E+01 0.00000E+00
 -1      2189 7.40965E+01 3.37030E+01 0.00000E+00
 -1      2190 7.58222E+01 3.15669E+01 0.00000E+00
 -1      2191 7.53635E+01 3.22796E+01 0.00000E+00
 -1      2192 7.66788E+01 3.00108E+01 0.00000E+00
 -1      2193 7.63484E+01 3.07648E+01 0.00000E+00
 -1      2194 7.70484E+01 2.82345E+01 0.00000E+00
 -1      2195 7.68319E+01 2.90589E+01 0.00000E+00
 -1      2196 7.20098E+01 1.86282E+01 0.00000E+00
 -1      2197 7.27702E+01 1.91467E+01 0.00000E+00
 -1      2198 7.51905E+01 2.01291E+01 0.00000E+00
 -1      2199 6.42300E+00 4.57510E+01 0.00000E+00
 -1      2200 7.35156E+01 1.88738E+01 0.00000E+00
 -1      2201 7.12711E+01 1.69837E+01 0.00000E+00
 -1      2202 7.16405E+01 1.78060E+01 0.00000E+00
 -1      2203 7.23858E+01 1.75297E+01 0.00000E+00
 -1      2204 7.17300E+00 4.44520E+01 0.00000E+00
 -1      2205 7.73751E+01 2.37685E+01 0.00000E+00
 -1      2206 7.77597E+01 2.57602E+01 0.00000E+00
 -1      2207 1.45665E+02 4.31193E+01 0.00000E+00
 -1      2208 7.66001E+01 2.17973E+01 0.00000E+00
 -1      2209 7.77158E+01 2.77632E+01 0.00000E+00
 -1      2210 7.74138E+01 2.97632E+01 0.00000E+00
 -1      2211 7.67345E+01 3.15173E+01 0.00000E+00
 -1      2212 7.39909E+01 3.45481E+01 0.00000E+00
 -1      2213 7.03425E+01 3.61673E+01 0.00000E+00
 -1      2214 6.81828E+01 3.64809E+01 0.00000E+00
 -1      2215 6.61851E+01 3.62430E+01 0.00000E+00
 -1      2216 6.22933E+01 3.42757E+01 0.00000E+00
 -1      2217 5.96466E+01 3.10602E+01 0.00000E+00
 -1      2218 5.88506E+01 3.08164E+01 0.00000E+00
 -1      2219 5.94198E+01 3.18664E+01 0.00000E+00
 -1      2220 5.86616E+01 2.69425E+01 0.00000E+00
 -1      2221 5.80284E+01 2.63529E+01 0.00000E+00
 -1      2222 5.81379E+01 2.75897E+01 0.00000E+00
 -1      2223 6.08048E+01 2.08532E+01 0.00000E+00
 -1      2224 6.35345E+01 1.82604E+01 0.00000E+00
 -1      2225 6.75894E+01 1.72649E+01 0.00000E+00
 -1      2226 6.54769E+01 1.76176E+01 0.00000E+00
 -1      2227 5.95933E+01 2.27940E+01 0.00000E+00
 -1      2228 5.94030E+01 2.20264E+01 0.00000E+00
 -1      2229 5.87884E+01 2.31113E+01 0.00000E+00
 -1      2230 6.41974E+01 3.54806E+01 0.00000E+00
 -1      2231 7.55688E+01 3.31113E+01 0.00000E+00
 -1      2232 1.07850E+01 5.30525E+00 0.00000E+00
 -1      2233 9.28500E+00 5.30525E+00 0.00000E+00
 -1      2234 6.49500E+00 3.01125E+01 0.00000E+00
 -1      2235 6.49500E+00 3.15875E+01 0.00000E+00
 -1      2236 6.49500E+00 3.30625E+01 0.00000E+00
 -1      2237 6.49500E+00 3.45375E+01 0.00000E+00
 -1      2238 7.79400E+00 3.23250E+01 0.00000E+00
 -1      2239 6.49500E+00 2.42125E+01 0.00000E+00
 -1      2240 6.49500E+00 2.56875E+01 0.00000E+00
 -1      2241 6.49500E+00 2.12625E+01 0.00000E+00
 -1      2242 6.49500E+00 2.27375E+01 0.00000E+00
 -1      2243 7.79400E+00 2.34750E+01 0.00000E+00
 -1      2244 6.49500E+00 1.83625E+01 0.00000E+00
 -1      2245 6.49500E+00 1.98125E+01 0.00000E+00
 -1      2246 7.79400E+00 2.05500E+01 0.00000E+00
 -1      2247 6.49500E+00 1.54125E+01 0.00000E+00
 -1      2248 6.49500E+00 1.68875E+01 0.00000E+00
 -1      2249 7.79400E+00 1.76250E+01 0.00000E+00
 -1      2250 6.49500E+00 1.24625E+01 0.00000E+00
 -1      2251 6.49500E+00 1.39375E+01 0.00000E+00
 -1      2252 7.79400E+00 1.46750E+01 0.00000E+00
 -1      2253 6.49500E+00 9.51250E+00 0.00000E+00
 -1      2254 6.49500E+00 1.09875E+01 0.00000E+00
 -1      2255 7.79400E+00 1.17250E+01 0.00000E+00
 -1      2256 1.37850E+01 5.30525E+00 0.00000E+00
 -1      2257 1.22850E+01 5.30525E+00 0.00000E+00
 -1      2258 1.15350E+01 6.60425E+00 0.00000E+00
 -1      2259 9.90000E+00 4.35050E+01 0.00000E+00
 -1      2260 1.14000E+01 4.35050E+01 0.00000E+00
 -1      2261 7.35968E+01 1.79403E+01 0.00000E+00
 -1      2262 7.43573E+01 1.84620E+01 0.00000E+00
 -1      2263 1.29000E+01 4.35050E+01 0.00000E+00
 -1      2264 1.44000E+01 4.35050E+01 0.00000E+00
 -1      2265 1.21500E+01 4.22060E+01 0.00000E+00
 -1      2266 1.59000E+01 4.35050E+01 0.00000E+00
 -1      2267 1.74000E+01 4.35050E+01 0.00000E+00
 -1      2268 1.51500E+01 4.22060E+01 0.00000E+00
 -1      2269 1.89000E+01 4.35050E+01 0.00000E+00
 -1      2270 2.04000E+01 4.35050E+01 0.00000E+00
 -1      2271 1.81500E+01 4.22060E+01 0.00000E+00
 -1      2272 2.19000E+01 4.35050E+01 0.00000E+00
 -1      2273 2.34000E+01 4.35050E+01 0.00000E+00
 -1      2274 2.11500E+01 4.22060E+01 0.00000E+00
 -1      2275 2.49000E+01 4.35050E+01 0.00000E+00
 -1      2276 2.64000E+01 4.35050E+01 0.00000E+00
 -1      2277 2.41500E+01 4.22060E+01 0.00000E+00
 -1      2278 2.79000E+01 4.35050E+01 0.00000E+00
 -1      2279 2.94000E+01 4.35050E+01 0.00000E+00
 -1      2280 2.71500E+01 4.22060E+01 0.00000E+00
 -1      2281 3.09000E+01 4.35050E+01 0.00000E+00
 -1      2282 3.24000E+01 4.35050E+01 0.00000E+00
 -1      2283 3.01500E+01 4.22060E+01 0.00000E+00
 -1      2284 3.39000E+01 4.35050E+01 0.00000E+00
 -1      2285 3.54000E+01 4.35050E+01 0.00000E+00
 -1      2286 3.31500E+01 4.22060E+01 0.00000E+00
 -1      2287 3.69000E+01 4.35050E+01 0.00000E+00
 -1      2288 3.84000E+01 4.35050E+01 0.00000E+00
 -1      2289 3.61500E+01 4.22060E+01 0.00000E+00
 -1      2290 3.99000E+01 4.35050E+01 0.00000E+00
 -1      2291 4.14000E+01 4.35050E+01 0.00000E+00
 -1      2292 3.91500E+01 4.22060E+01 0.00000E+00
 -1      2293 4.29000E+01 4.35050E+01 0.00000E+00
 -1      2294 4.44000E+01 4.35050E+01 0.00000E+00
 -1      2295 4.21500E+01 4.22060E+01 0.00000E+00
 -1      2296 4.59000E+01 4.35050E+01 0.00000E+00
 -1      2297 4.74000E+01 4.35050E+01 0.00000E+00
 -1      2298 4.51500E+01 4.22060E+01 0.00000E+00
 -1      2299 4.89000E+01 4.35050E+01 0.00000E+00
 -1      2300 5.04000E+01 4.35050E+01 0.00000E+00
 -1      2301 4.81500E+01 4.22060E+01 0.00000E+00
 -1      2302 5.19000E+01 4.35050E+01 0.00000E+00
 -1      2303 5.34000E+01 4.35050E+01 0.00000E+00
 -1      2304 5.11500E+01 4.22060E+01 0.00000E+00
 -1      2305 5.49000E+01 4.35050E+01 0.00000E+00
 -1      2306 5.64000E+01 4.35050E+01 0.00000E+00
 -1      2307 5.41500E+01 4.22060E+01 0.00000E+00
 -1      2308 5.79000E+01 4.35050E+01 0.00000E+00
 -1      2309 5.94000E+01 4.35050E+01 0.00000E+00
 -1      2310 5.71500E+01 4.22060E+01 0.00000E+00
 -1      2311 6.09000E+01 4.35050E+01 0.00000E+00
 -1      2312 6.24000E+01 4.35050E+01 0.00000E+00
 -1      2313 6.01500E+01 4.22060E+01 0.00000E+00
 -1      2314 6.39000E+01 4.35050E+01 0.00000E+00
 -1      2315 6.54000E+01 4.35050E+01 0.00000E+00
 -1      2316 6.31500E+01 4.22060E+01 0.00000E+00
 -1      2317 6.69000E+01 4.35050E+01 0.00000E+00
 -1      2318 6.84000E+01 4.35050E+01 0.00000E+00
 -1      2319 6.61500E+01 4.22060E+01 0.00000E+00
 -1      2320 6.99000E+01 4.35050E+01 0.00000E+00
 -1      2321 7.14000E+01 4.35050E+01 0.00000E+00
 -1      2322 6.91500E+01 4.22060E+01 0.00000E+00
 -1      2323 7.29000E+01 4.35050E+01 0.00000E+00
 -1      2324 7.44000E+01 4.35050E+01 0.00000E+00
 -1      2325 7.21500E+01 4.22060E+01 0.00000E+00
 -1      2326 7.59000E+01 4.35050E+01 0.00000E+00
 -1      2327 7.74000E+01 4.35050E+01 0.00000E+00
 -1      2328 7.51500E+01 4.22060E+01 0.00000E+00
 -1      2329 7.89000E+01 4.35050E+01 0.00000E+00
 -1      2330 8.04000E+01 4.35050E+01 0.00000E+00
 -1      2331 7.81500E+01 4.22060E+01 0.00000E+00
 -1      2332 8.19000E+01 4.35050E+01 0.00000E+00
 -1      2333 8.34000E+01 4.35050E+01 0.00000E+00
 -1      2334 8.11500E+01 4.22060E+01 0.00000E+00
 -1      2335 8.49000E+01 4.35050E+01 0.00000E+00
 -1      2336 8.64000E+01 4.35050E+01 0.00000E+00
 -1      2337 8.41500E+01 4.22060E+01 0.00000E+00
 -1      2338 8.79000E+01 4.35050E+01 0.00000E+00
 -1      2339 8.94000E+01 4.35050E+01 0.00000E+00
 -1      2340 8.71500E+01 4.22060E+01 0.00000E+00
 -1      2341 9.09000E+01 4.35050E+01 0.00000E+00
 -1      2342 9.24000E+01 4.35050E+01 0.00000E+00
 -1      2343 9.01500E+01 4.22060E+01 0.00000E+00
 -1      2344 9.39000E+01 4.35050E+01 0.00000E+00
 -1      2345 9.54000E+01 4.35050E+01 0.00000E+00
 -1      2346 9.31500E+01 4.22060E+01 0.00000E+00
 -1      2347 9.69000E+01 4.35050E+01 0.00000E+00
 -1      2348 9.84000E+01 4.35050E+01 0.00000E+00
 -1      2349 9.61500E+01 4.22060E+01 0.00000E+00
 -1      2350 9.99000E+01 4.35050E+01 0.00000E+00
 -1      2351 1.01400E+02 4.35050E+01 0.00000E+00
 -1      2352 9.91500E+01 4.22060E+01 0.00000E+00
 -1      2353 1.02900E+02 4.35050E+01 0.00000E+00
 -1      2354 1.04400E+02 4.35050E+01 0.00000E+00
 -1      2355 1.02150E+02 4.22060E+01 0.00000E+00
 -1      2356 1.05900E+02 4.35050E+01 0.00000E+00
 -1      2357 1.07400E+02 4.35050E+01 0.00000E+00
 -1      2358 1.05150E+02 4.22060E+01 0.00000E+00
 -1      2359 1.08900E+02 4.35050E+01 0.00000E+00
 -1      2360 1.10400E+02 4.35050E+01 0.00000E+00
 -1      2361 1.08150E+02 4.22060E+01 0.00000E+00
 -1      2362 1.11900E+02 4.35050E+01 0.00000E+00
 -1      2363 1.13400E+02 4.35050E+01 0.00000E+00
 -1      2364 1.11150E+02 4.22060E+01 0.00000E+00
 -1      2365 1.14900E+02 4.35050E+01 0.00000E+00
 -1      2366 1.16400E+02 4.35050E+01 0.00000E+00
 -1      2367 1.14150E+02 4.22060E+01 0.00000E+00
 -1      2368 1.17900E+02 4.35050E+01 0.00000E+00
 -1      2369 1.19400E+02 4.35050E+01 0.00000E+00
 -1      2370 1.17150E+02 4.22060E+01 0.00000E+00
 -1      2371 1.20900E+02 4.35050E+01 0.00000E+00
 -1      2372 1.22400E+02 4.35050E+01 0.00000E+00
 -1      2373 1.20150E+02 4.22060E+01 0.00000E+00
 -1      2374 1.23900E+02 4.35050E+01 0.00000E+00
 -1      2375 1.25400E+02 4.35050E+01 0.00000E+00
 -1      2376 1.23150E+02 4.22060E+01 0.00000E+00
 -1      2377 1.26900E+02 4.35050E+01 0.00000E+00
 -1      2378 1.28400E+02 4.35050E+01 0.00000E+00
 -1      2379 1.26150E+02 4.22060E+01 0.00000E+00
 -1      2380 1.29900E+02 4.35050E+01 0.00000E+00
 -1      2381 1.31400E+02 4.35050E+01 0.00000E+00
 -1      2382 1.29150E+02 4.22060E+01 0.00000E+00
 -1      2383 1.32900E+02 4.35050E+01 0.00000E+00
 -1      2384 1.34400E+02 4.35050E+01 0.00000E+00
 -1      2385 1.32150E+02 4.22060E+01 0.00000E+00
 -1      2386 1.35900E+02 4.35050E+01 0.00000E+00
 -1      2387 1.37400E+02 4.35050E+01 0.00000E+00
 -1      2388 1.35150E+02 4.22060E+01 0.00000E+00
 -1      2389 1.38900E+02 4.35050E+01 0.00000E+00
 -1      2390 1.40400E+02 4.35050E+01 0.00000E+00
 -1      2391 1.38150E+02 4.22060E+01 0.00000E+00
 -1      2392 1.97850E+01 5.30525E+00 0.00000E+00
 -1      2393 1.82850E+01 5.30525E+00 0.00000E+00
 -1      2394 2.27850E+01 5.30525E+00 0.00000E+00
 -1      2395 2.12850E+01 5.30525E+00 0.00000E+00
 -1      2396 2.05350E+01 6.60425E+00 0.00000E+00
 -1      2397 2.57850E+01 5.30525E+00 0.00000E+00
 -1      2398 2.42850E+01 5.30525E+00 0.00000E+00
 -1      2399 2.35350E+01 6.60425E+00 0.00000E+00
 -1      2400 2.87850E+01 5.30525E+00 0.00000E+00
 -1      2401 2.72850E+01 5.30525E+00 0.00000E+00
 -1      2402 2.65350E+01 6.60425E+00 0.00000E+00
 -1      2403 3.17850E+01 5.30525E+00 0.00000E+00
 -1      2404 3.02850E+01 5.30525E+00 0.00000E+00
 -1      2405 2.95350E+01 6.60425E+00 0.00000E+00
 -1      2406 3.47850E+01 5.30525E+00 0.00000E+00
 -1      2407 3.32850E+01 5.30525E+00 0.00000E+00
 -1      2408 3.25350E+01 6.60425E+00 0.00000E+00
 -1      2409 3.77850E+01 5.30525E+00 0.00000E+00
 -1      2410 3.62850E+01 5.30525E+00 0.00000E+00
 -1      2411 3.55350E+01 6.60425E+00 0.00000E+00
 -1      2412 4.07850E+01 5.30525E+00 0.00000E+00
 -1      2413 3.92850E+01 5.30525E+00 0.00000E+00
 -1      2414 3.85350E+01 6.60425E+00 0.00000E+00
 -1      2415 4.37850E+01 5.30525E+00 0.00000E+00
 -1      2416 4.22850E+01 5.30525E+00 0.00000E+00
 -1      2417 4.15350E+01 6.60425E+00 0.00000E+00
 -1      2418 4.67850E+01 5.30525E+00 0.00000E+00
 -1      2419 4.52850E+01 5.30525E+00 0.00000E+00
 -1      2420 4.45350E+01 6.60425E+00 0.00000E+00
 -1      2421 4.97850E+01 5.30525E+00 0.00000E+00
 -1      2422 4.82850E+01 5.30525E+00 0.00000E+00
 -1      2423 4.75350E+01 6.60425E+00 0.00000E+00
 -1      2424 5.27850E+01 5.30525E+00 0.00000E+00
 -1      2425 5.12850E+01 5.30525E+00 0.00000E+00
 -1      2426 5.05350E+01 6.60425E+00 0.00000E+00
 -1      2427 5.57850E+01 5.30525E+00 0.00000E+00
 -1      2428 5.42850E+01 5.30525E+00 0.00000E+00
 -1      2429 5.35350E+01 6.60425E+00 0.00000E+00
 -1      2430 5.87850E+01 5.30525E+00 0.00000E+00
 -1      2431 5.72850E+01 5.30525E+00 0.00000E+00
 -1      2432 5.65350E+01 6.60425E+00 0.00000E+00
 -1      2433 6.17850E+01 5.30525E+00 0.00000E+00
 -1      2434 6.02850E+01 5.30525E+00 0.00000E+00
 -1      2435 5.95350E+01 6.60425E+00 0.00000E+00
 -1      2436 6.47850E+01 5.30525E+00 0.00000E+00
 -1      2437 6.32850E+01 5.30525E+00 0.00000E+00
 -1      2438 6.25350E+01 6.60425E+00 0.00000E+00
 -1      2439 6.77850E+01 5.30525E+00 0.00000E+00
 -1      2440 6.62850E+01 5.30525E+00 0.00000E+00
 -1      2441 6.55350E+01 6.60425E+00 0.00000E+00
 -1      2442 7.07850E+01 5.30525E+00 0.00000E+00
 -1      2443 6.92850E+01 5.30525E+00 0.00000E+00
 -1      2444 6.85350E+01 6.60425E+00 0.00000E+00
 -1      2445 7.37850E+01 5.30525E+00 0.00000E+00
 -1      2446 7.22850E+01 5.30525E+00 0.00000E+00
 -1      2447 7.15350E+01 6.60425E+00 0.00000E+00
 -1      2448 7.67850E+01 5.30525E+00 0.00000E+00
 -1      2449 7.52850E+01 5.30525E+00 0.00000E+00
 -1      2450 7.45350E+01 6.60425E+00 0.00000E+00
 -1      2451 7.97850E+01 5.30525E+00 0.00000E+00
 -1      2452 7.82850E+01 5.30525E+00 0.00000E+00
 -1      2453 7.75350E+01 6.60425E+00 0.00000E+00
 -1      2454 8.27850E+01 5.30525E+00 0.00000E+00
 -1      2455 8.12850E+01 5.30525E+00 0.00000E+00
 -1      2456 8.05350E+01 6.60425E+00 0.00000E+00
 -1      2457 8.57850E+01 5.30525E+00 0.00000E+00
 -1      2458 8.42850E+01 5.30525E+00 0.00000E+00
 -1      2459 8.35350E+01 6.60425E+00 0.00000E+00
 -1      2460 8.87850E+01 5.30525E+00 0.00000E+00
 -1      2461 8.72850E+01 5.30525E+00 0.00000E+00
 -1      2462 8.65350E+01 6.60425E+00 0.00000E+00
 -1      2463 9.17850E+01 5.30525E+00 0.00000E+00
 -1      2464 9.02850E+01 5.30525E+00 0.00000E+00
 -1      2465 8.95350E+01 6.60425E+00 0.00000E+00
 -1      2466 9.47850E+01 5.30525E+00 0.00000E+00
 -1      2467 9.32850E+01 5.30525E+00 0.00000E+00
 -1      2468 9.25350E+01 6.60425E+00 0.00000E+00
 -1      2469 9.77850E+01 5.30525E+00 0.00000E+00
 -1      2470 9.62850E+01 5.30525E+00 0.00000E+00
 -1      2471 9.55350E+01 6.60425E+00 0.00000E+00
 -1      2472 1.00785E+02 5.30525E+00 0.00000E+00
 -1      2473 9.92850E+01 5.30525E+00 0.00000E+00
 -1      2474 9.85350E+01 6.60425E+00 0.00000E+00
 -1      2475 1.03785E+02 5.30525E+00 0.00000E+00
 -1      2476 1.02285E+02 5.30525E+00 0.00000E+00
 -1      2477 1.01535E+02 6.60425E+00 0.00000E+00
 -1      2478 1.06785E+02 5.30525E+00 0.00000E+00
 -1      2479 1.05285E+02 5.30525E+00 0.00000E+00
 -1      2480 1.04535E+02 6.60425E+00 0.00000E+00
 -1      2481 1.09785E+02 5.30525E+00 0.00000E+00
 -1      2482 1.08285E+02 5.30525E+00 0.00000E+00
 -1      2483 1.07535E+02 6.60425E+00 0.00000E+00
 -1      2484 1.12785E+02 5.30525E+00 0.00000E+00
 -1      2485 1.11285E+02 5.30525E+00 0.00000E+00
 -1      2486 1.10535E+02 6.60425E+00 0.00000E+00
 -1      2487 1.15785E+02 5.30525E+00 0.00000E+00
 -1      2488 1.14285E+02 5.30525E+00 0.00000E+00
 -1      2489 1.13535E+02 6.60425E+00 0.00000E+00
 -1      2490 1.18785E+02 5.30525E+00 0.00000E+00
 -1      2491 1.17285E+02 5.30525E+00 0.00000E+00
 -1      2492 1.16535E+02 6.60425E+00 0.00000E+00
 -1      2493 1.21785E+02 5.30525E+00 0.00000E+00
 -1      2494 1.20285E+02 5.30525E+00 0.00000E+00
 -1      2495 1.19535E+02 6.60425E+00 0.00000E+00
 -1      2496 1.24785E+02 5.30525E+00 0.00000E+00
 -1      2497 1.23285E+02 5.30525E+00 0.00000E+00
 -1      2498 1.22535E+02 6.60425E+00 0.00000E+00
 -1      2499 1.27785E+02 5.30525E+00 0.00000E+00
 -1      2500 1.26285E+02 5.30525E+00 0.00000E+00
 -1      2501 1.25535E+02 6.60425E+00 0.00000E+00
 -1      2502 1.30785E+02 5.30525E+00 0.00000E+00
 -1      2503 1.29285E+02 5.30525E+00 0.00000E+00
 -1      2504 1.28535E+02 6.60425E+00 0.00000E+00
 -1      2505 1.33785E+02 5.30525E+00 0.00000E+00
 -1      2506 1.32285E+02 5.30525E+00 0.00000E+00
 -1      2507 1.31535E+02 6.60425E+00 0.00000E+00
 -1      2508 1.36785E+02 5.30525E+00 0.00000E+00
 -1      2509 1.35285E+02 5.30525E+00 0.00000E+00
 -1      2510 1.34535E+02 6.60425E+00 0.00000E+00
 -1      2511 1.39785E+02 5.30525E+00 0.00000E+00
 -1      2512 1.38285E+02 5.30525E+00 0.00000E+00
 -1      2513 1.37535E+02 6.60425E+00 0.00000E+00
 -1      2514 1.42785E+02 5.30525E+00 0.00000E+00
 -1      2515 1.41285E+02 5.30525E+00 0.00000E+00
 -1      2516 1.40535E+02 6.60425E+00 0.00000E+00
 -1      2517 1.44336E+02 5.26953E+00 0.00000E+00
 -1      2518 1.43505E+02 1.69125E+01 0.00000E+00
 -1      2519 1.43505E+02 1.54375E+01 0.00000E+00
 -1      2520 1.43505E+02 1.98625E+01 0.00000E+00
 -1      2521 1.43505E+02 1.83875E+01 0.00000E+00
 -1      2522 1.42206E+02 1.76500E+01 0.00000E+00
 -1      2523 1.43505E+02 1.10625E+01 0.00000E+00
 -1      2524 1.43505E+02 9.58750E+00 0.00000E+00
 -1      2525 1.43505E+02 1.39750E+01 0.00000E+00
 -1      2526 1.43505E+02 1.25250E+01 0.00000E+00
 -1      2527 1.42206E+02 1.17875E+01 0.00000E+00
 -1      2528 1.42206E+02 1.47125E+01 0.00000E+00
 -1      2529 1.43505E+02 2.28125E+01 0.00000E+00
 -1      2530 1.43505E+02 2.13375E+01 0.00000E+00
 -1      2531 1.42206E+02 2.06000E+01 0.00000E+00
 -1      2532 1.43505E+02 2.57625E+01 0.00000E+00
 -1      2533 1.43505E+02 2.42875E+01 0.00000E+00
 -1      2534 1.42206E+02 2.35500E+01 0.00000E+00
 -1      2535 1.43505E+02 2.87125E+01 0.00000E+00
 -1      2536 1.43505E+02 2.72375E+01 0.00000E+00
 -1      2537 1.42206E+02 2.65000E+01 0.00000E+00
 -1      2538 1.43505E+02 3.16125E+01 0.00000E+00
 -1      2539 1.43505E+02 3.01625E+01 0.00000E+00
 -1      2540 1.42206E+02 2.94250E+01 0.00000E+00
 -1      2541 1.43505E+02 3.45625E+01 0.00000E+00
 -1      2542 1.43505E+02 3.30875E+01 0.00000E+00
 -1      2543 1.42206E+02 3.23500E+01 0.00000E+00
 -1      2544 1.43505E+02 3.75125E+01 0.00000E+00
 -1      2545 1.43505E+02 3.60375E+01 0.00000E+00
 -1      2546 1.42206E+02 3.53000E+01 0.00000E+00
 -1      2547 1.43505E+02 4.04625E+01 0.00000E+00
 -1      2548 1.43505E+02 3.89875E+01 0.00000E+00
 -1      2549 1.42206E+02 3.82500E+01 0.00000E+00
 -1      2550 7.85180E+01 2.51936E+01 0.00000E+00
 -1      2551 7.86229E+01 2.61486E+01 0.00000E+00
 -1      2552 7.71102E+01 2.09284E+01 0.00000E+00
 -1      2553 7.76055E+01 2.18630E+01 0.00000E+00
 -1      2554 1.67850E+01 5.30525E+00 0.00000E+00
 -1      2555 1.52850E+01 5.30525E+00 0.00000E+00
 -1      2556 1.75350E+01 6.60425E+00 0.00000E+00
 -1      2557 1.44321E+02 4.30606E+01 0.00000E+00
 -1      2558 7.85563E+01 2.73479E+01 0.00000E+00
 -1      2559 7.84075E+01 2.83960E+01 0.00000E+00
 -1      2560 7.80632E+01 2.30268E+01 0.00000E+00
 -1      2561 7.83429E+01 2.40635E+01 0.00000E+00
 -1      2562 6.55950E+00 4.28890E+01 0.00000E+00
 -1      2563 8.53650E+00 4.32410E+01 0.00000E+00
 -1      2564 9.28650E+00 4.19420E+01 0.00000E+00
 -1      2565 6.55950E+00 4.14140E+01 0.00000E+00
 -1      2566 7.82543E+01 2.93479E+01 0.00000E+00
 -1      2567 7.81012E+01 3.02999E+01 0.00000E+00
 -1      2568 7.90948E+01 2.89327E+01 0.00000E+00
 -1      2569 7.10819E+01 3.68443E+01 0.00000E+00
 -1      2570 6.99414E+01 3.70861E+01 0.00000E+00
 -1      2571 5.98373E+01 2.08146E+01 0.00000E+00
 -1      2572 6.04342E+01 1.99587E+01 0.00000E+00
 -1      2573 6.26103E+01 1.76754E+01 0.00000E+00
 -1      2574 6.36025E+01 1.71687E+01 0.00000E+00
 -1      2575 6.49500E+00 2.71625E+01 0.00000E+00
 -1      2576 6.49500E+00 2.86375E+01 0.00000E+00
 -1      2577 7.79400E+00 2.93750E+01 0.00000E+00
 -1      2578 7.79400E+00 2.64250E+01 0.00000E+00
 -1      2579 6.48980E+01 1.69612E+01 0.00000E+00
 -1      2580 6.58481E+01 1.68251E+01 0.00000E+00
 -1      2581 6.92819E+01 1.63745E+01 0.00000E+00
 -1      2582 7.01690E+01 1.64803E+01 0.00000E+00
 -1      2583 6.68588E+01 1.65714E+01 0.00000E+00
 -1      2584 6.80211E+01 1.63548E+01 0.00000E+00
 -1      2585 6.10045E+01 1.93436E+01 0.00000E+00
 -1      2586 6.15748E+01 1.87285E+01 0.00000E+00
 -1      2587 6.00370E+01 1.93050E+01 0.00000E+00
 -1      2588 6.43681E+01 3.64512E+01 0.00000E+00
 -1      2589 6.33590E+01 3.59985E+01 0.00000E+00
 -1      2590 5.78237E+01 2.50540E+01 0.00000E+00
 -1      2591 5.80370E+01 2.41406E+01 0.00000E+00
 -1      2592 5.81964E+01 2.96871E+01 0.00000E+00
 -1      2593 5.80432E+01 2.87717E+01 0.00000E+00
 -1      2594 6.03165E+01 3.38280E+01 0.00000E+00
 -1      2595 5.97253E+01 3.31214E+01 0.00000E+00
 -1      2596 7.64905E+01 3.32015E+01 0.00000E+00
 -1      2597 7.58511E+01 3.39933E+01 0.00000E+00
 -1      2598 6.21064E+01 3.53325E+01 0.00000E+00
 -1      2599 6.12115E+01 3.45803E+01 0.00000E+00
 -1      2600 6.01296E+01 3.48848E+01 0.00000E+00
 -1      2601 6.64283E+01 3.71756E+01 0.00000E+00
 -1      2602 6.54496E+01 3.68658E+01 0.00000E+00
 -1      2603 6.87439E+01 3.71750E+01 0.00000E+00
 -1      2604 6.77248E+01 3.72469E+01 0.00000E+00
 -1      2605 7.29696E+01 3.60394E+01 0.00000E+00
 -1      2606 7.21849E+01 3.64056E+01 0.00000E+00
 -1      2607 7.49458E+01 3.49324E+01 0.00000E+00
 -1      2608 7.40074E+01 3.55774E+01 0.00000E+00
 -1      2609 7.76796E+01 3.15636E+01 0.00000E+00
 -1      2610 7.71534E+01 3.23657E+01 0.00000E+00
 -1      2611 8.07525E+00 5.11044E+00 0.00000E+00
 -1      2612 6.57525E+00 5.11044E+00 0.00000E+00
 -1      2613 6.40575E+00 6.01981E+00 0.00000E+00
 -1      2614 8.82525E+00 6.40944E+00 0.00000E+00
 -1      2615 7.52700E+01 1.90934E+01 0.00000E+00
 -1      2616 7.61843E+01 1.98271E+01 0.00000E+00
 -1      2617 6.62799E+01 1.59149E+01 0.00000E+00
 -1      2618 7.79400E+00 3.52687E+01 0.00000E+00
 -1      2619 6.49500E+00 3.60062E+01 0.00000E+00
 -1      2620 6.49500E+00 3.74750E+01 0.00000E+00
 -1      2621 1.45350E+01 6.60425E+00 0.00000E+00
 -1      2622 6.40575E+00 7.49481E+00 0.00000E+00
 -1      2623 7.53512E+01 1.81600E+01 0.00000E+00
 -1      2624 7.58676E+01 3.50226E+01 0.00000E+00
 -1      2625 7.39245E+01 3.64237E+01 0.00000E+00
 -1      2626 7.09143E+01 1.62041E+01 0.00000E+00
 -1      2627 7.16596E+01 1.59278E+01 0.00000E+00
 -1      2628 7.05574E+01 1.54244E+01 0.00000E+00
 -1      2629 6.94833E+01 3.78521E+01 0.00000E+00
 -1      2630 6.22772E+01 3.63031E+01 0.00000E+00
 -1      2631 7.74357E+01 3.32478E+01 0.00000E+00
 -1      2632 1.43586E+02 6.56853E+00 0.00000E+00
 -1      2633 7.71897E+01 1.98928E+01 0.00000E+00
 -1      2634 1.43419E+02 7.72713E+00 0.00000E+00
 -1      2635 6.46113E+01 3.73837E+01 0.00000E+00
 -1      2636 7.93146E+01 2.67814E+01 0.00000E+00
 -1      2637 7.92061E+01 2.44519E+01 0.00000E+00
 -1      2638 7.85733E+01 2.21580E+01 0.00000E+00
 -1      2639 5.79696E+01 3.04933E+01 0.00000E+00
 -1      2640 5.70885E+01 3.01702E+01 0.00000E+00
 -1      2641 5.77428E+01 3.12994E+01 0.00000E+00
 -1      2642 5.73000E+01 2.57012E+01 0.00000E+00
 -1      2643 5.65715E+01 2.50495E+01 0.00000E+00
 -1      2644 5.67763E+01 2.63483E+01 0.00000E+00
 -1      2645 7.70475E+00 8.23231E+00 0.00000E+00
 -1      2646 7.85201E+01 3.11483E+01 0.00000E+00
 -1      2647 5.90324E+01 2.11319E+01 0.00000E+00
 -1      2648 7.17838E+01 3.73244E+01 0.00000E+00
 -1      2649 6.16428E+01 1.76368E+01 0.00000E+00
 -1      2650 6.17108E+01 1.65451E+01 0.00000E+00
 -1      2651 6.06753E+01 1.75982E+01 0.00000E+00
 -1      2652 6.55950E+00 3.99453E+01 0.00000E+00
 -1      2653 5.89292E+01 3.28775E+01 0.00000E+00
 -1      2654 5.74100E+01 2.81820E+01 0.00000E+00
 -1      2655 6.39738E+01 1.63762E+01 0.00000E+00
 -1      2656 7.32275E+01 1.71180E+01 0.00000E+00
 -1      2657 6.85513E+01 1.56809E+01 0.00000E+00
 -1      2658 5.78466E+01 2.33730E+01 0.00000E+00
 -1      2659 5.76563E+01 2.26054E+01 0.00000E+00
 -1      2660 5.69049E+01 2.36347E+01 0.00000E+00
 -1      2661 6.69893E+01 3.78697E+01 0.00000E+00
 -1      2662 1.42758E+02 4.35929E+01 0.00000E+00
 -1      2663 1.43241E+02 4.17323E+01 0.00000E+00
 -1      2664 1.41942E+02 4.09948E+01 0.00000E+00
 -1      2665 1.41414E+02 4.35342E+01 0.00000E+00
 -1      2666 1.42120E+02 8.46463E+00 0.00000E+00
 -1      2667 1.40664E+02 4.22352E+01 0.00000E+00
 -1      2668 9.09300E+00 1.98250E+01 0.00000E+00
 -1      2669 9.09300E+00 2.12750E+01 0.00000E+00
 -1      2670 9.09300E+00 2.27500E+01 0.00000E+00
 -1      2671 9.09300E+00 2.42250E+01 0.00000E+00
 -1      2672 1.03920E+01 2.20250E+01 0.00000E+00
 -1      2673 9.09300E+00 1.39375E+01 0.00000E+00
 -1      2674 9.09300E+00 1.54125E+01 0.00000E+00
 -1      2675 9.09300E+00 1.09875E+01 0.00000E+00
 -1      2676 9.09300E+00 1.24625E+01 0.00000E+00
 -1      2677 1.03920E+01 1.32000E+01 0.00000E+00
 -1      2678 1.22850E+01 7.90325E+00 0.00000E+00
 -1      2679 1.07850E+01 7.90325E+00 0.00000E+00
 -1      2680 7.96238E+01 3.08144E+01 0.00000E+00
 -1      2681 7.92022E+01 3.20781E+01 0.00000E+00
 -1      2682 8.01008E+01 2.86062E+01 0.00000E+00
 -1      2683 7.99476E+01 2.95581E+01 0.00000E+00
 -1      2684 7.69234E+01 3.51345E+01 0.00000E+00
 -1      2685 7.60182E+01 3.60736E+01 0.00000E+00
 -1      2686 6.24615E+01 3.74672E+01 0.00000E+00
 -1      2687 6.12090E+01 3.68012E+01 0.00000E+00
 -1      2688 1.44000E+01 4.09070E+01 0.00000E+00
 -1      2689 1.59000E+01 4.09070E+01 0.00000E+00
 -1      2690 1.74000E+01 4.09070E+01 0.00000E+00
 -1      2691 1.89000E+01 4.09070E+01 0.00000E+00
 -1      2692 1.66500E+01 3.96080E+01 0.00000E+00
 -1      2693 2.04000E+01 4.09070E+01 0.00000E+00
 -1      2694 2.19000E+01 4.09070E+01 0.00000E+00
 -1      2695 1.96500E+01 3.96080E+01 0.00000E+00
 -1      2696 2.34000E+01 4.09070E+01 0.00000E+00
 -1      2697 2.49000E+01 4.09070E+01 0.00000E+00
 -1      2698 2.26500E+01 3.96080E+01 0.00000E+00
 -1      2699 2.64000E+01 4.09070E+01 0.00000E+00
 -1      2700 2.79000E+01 4.09070E+01 0.00000E+00
 -1      2701 2.56500E+01 3.96080E+01 0.00000E+00
 -1      2702 2.94000E+01 4.09070E+01 0.00000E+00
 -1      2703 3.09000E+01 4.09070E+01 0.00000E+00
 -1      2704 2.86500E+01 3.96080E+01 0.00000E+00
 -1      2705 3.24000E+01 4.09070E+01 0.00000E+00
 -1      2706 3.39000E+01 4.09070E+01 0.00000E+00
 -1      2707 3.16500E+01 3.96080E+01 0.00000E+00
 -1      2708 3.54000E+01 4.09070E+01 0.00000E+00
 -1      2709 3.69000E+01 4.09070E+01 0.00000E+00
 -1      2710 3.46500E+01 3.96080E+01 0.00000E+00
 -1      2711 3.84000E+01 4.09070E+01 0.00000E+00
 -1      2712 3.99000E+01 4.09070E+01 0.00000E+00
 -1      2713 3.76500E+01 3.96080E+01 0.00000E+00
 -1      2714 4.14000E+01 4.09070E+01 0.00000E+00
 -1      2715 4.29000E+01 4.09070E+01 0.00000E+00
 -1      2716 4.06500E+01 3.96080E+01 0.00000E+00
 -1      2717 4.44000E+01 4.09070E+01 0.00000E+00
 -1      2718 4.59000E+01 4.09070E+01 0.00000E+00
 -1      2719 4.36500E+01 3.96080E+01 0.00000E+00
 -1      2720 4.74000E+01 4.09070E+01 0.00000E+00
 -1      2721 4.89000E+01 4.09070E+01 0.00000E+00
 -1      2722 4.66500E+01 3.96080E+01 0.00000E+00
 -1      2723 5.04000E+01 4.09070E+01 0.00000E+00
 -1      2724 5.19000E+01 4.09070E+01 0.00000E+00
 -1      2725 4.96500E+01 3.96080E+01 0.00000E+00
 -1      2726 5.34000E+01 4.09070E+01 0.00000E+00
 -1      2727 5.49000E+01 4.09070E+01 0.00000E+00
 -1      2728 5.26500E+01 3.96080E+01 0.00000E+00
 -1      2729 5.64000E+01 4.09070E+01 0.00000E+00
 -1      2730 5.79000E+01 4.09070E+01 0.00000E+00
 -1      2731 5.56500E+01 3.96080E+01 0.00000E+00
 -1      2732 6.00217E+01 4.00857E+01 0.00000E+00
 -1      2733 6.15217E+01 4.00857E+01 0.00000E+00
 -1      2734 6.54000E+01 4.10133E+01 0.00000E+00
 -1      2735 6.69000E+01 4.10133E+01 0.00000E+00
 -1      2736 6.84000E+01 4.10971E+01 0.00000E+00
 -1      2737 6.99000E+01 4.10971E+01 0.00000E+00
 -1      2738 7.14000E+01 4.10971E+01 0.00000E+00
 -1      2739 7.29000E+01 4.10971E+01 0.00000E+00
 -1      2740 7.06500E+01 3.99882E+01 0.00000E+00
 -1      2741 7.44000E+01 4.10133E+01 0.00000E+00
 -1      2742 7.59000E+01 4.10133E+01 0.00000E+00
 -1      2743 7.74000E+01 4.10133E+01 0.00000E+00
 -1      2744 7.89000E+01 4.10133E+01 0.00000E+00
 -1      2745 7.66500E+01 3.98206E+01 0.00000E+00
 -1      2746 8.04000E+01 4.10133E+01 0.00000E+00
 -1      2747 8.19000E+01 4.10133E+01 0.00000E+00
 -1      2748 7.96500E+01 3.98206E+01 0.00000E+00
 -1      2749 8.34000E+01 4.10133E+01 0.00000E+00
 -1      2750 8.49000E+01 4.10133E+01 0.00000E+00
 -1      2751 8.26500E+01 3.98206E+01 0.00000E+00
 -1      2752 8.64000E+01 4.10133E+01 0.00000E+00
 -1      2753 8.79000E+01 4.10133E+01 0.00000E+00
 -1      2754 8.56500E+01 3.98206E+01 0.00000E+00
 -1      2755 8.94000E+01 4.10133E+01 0.00000E+00
 -1      2756 9.09000E+01 4.10133E+01 0.00000E+00
 -1      2757 8.86500E+01 3.98206E+01 0.00000E+00
 -1      2758 9.24000E+01 4.10133E+01 0.00000E+00
 -1      2759 9.39000E+01 4.10133E+01 0.00000E+00
 -1      2760 9.16500E+01 3.98206E+01 0.00000E+00
 -1      2761 9.54000E+01 4.10133E+01 0.00000E+00
 -1      2762 9.69000E+01 4.10133E+01 0.00000E+00
 -1      2763 9.46500E+01 3.98206E+01 0.00000E+00
 -1      2764 9.84000E+01 4.10133E+01 0.00000E+00
 -1      2765 9.99000E+01 4.10133E+01 0.00000E+00
 -1      2766 9.76500E+01 3.98206E+01 0.00000E+00
 -1      2767 1.01400E+02 4.10133E+01 0.00000E+00
 -1      2768 1.02900E+02 4.10133E+01 0.00000E+00
 -1      2769 1.00650E+02 3.98206E+01 0.00000E+00
 -1      2770 1.04400E+02 4.10133E+01 0.00000E+00
 -1      2771 1.05900E+02 4.10133E+01 0.00000E+00
 -1      2772 1.03650E+02 3.98206E+01 0.00000E+00
 -1      2773 1.07400E+02 4.10133E+01 0.00000E+00
 -1      2774 1.08900E+02 4.10133E+01 0.00000E+00
 -1      2775 1.06650E+02 3.98206E+01 0.00000E+00
 -1      2776 1.10400E+02 4.10133E+01 0.00000E+00
 -1      2777 1.11900E+02 4.10133E+01 0.00000E+00
 -1      2778 1.09650E+02 3.98206E+01 0.00000E+00
 -1      2779 1.13400E+02 4.10133E+01 0.00000E+00
 -1      2780 1.14900E+02 4.10133E+01 0.00000E+00
 -1      2781 1.12650E+02 3.98206E+01 0.00000E+00
 -1      2782 1.16400E+02 4.10133E+01 0.00000E+00
 -1      2783 1.17900E+02 4.10133E+01 0.00000E+00
 -1      2784 1.15650E+02 3.98206E+01 0.00000E+00
 -1      2785 1.19400E+02 4.10133E+01 0.00000E+00
 -1      2786 1.20900E+02 4.10133E+01 0.00000E+00
 -1      2787 1.18650E+02 3.98206E+01 0.00000E+00
 -1      2788 1.22400E+02 4.10133E+01 0.00000E+00
 -1      2789 1.23900E+02 4.10133E+01 0.00000E+00
 -1      2790 1.21650E+02 3.98206E+01 0.00000E+00
 -1      2791 1.25400E+02 4.10133E+01 0.00000E+00
 -1      2792 1.26900E+02 4.10133E+01 0.00000E+00
 -1      2793 1.24650E+02 3.98206E+01 0.00000E+00
 -1      2794 1.28400E+02 4.10133E+01 0.00000E+00
 -1      2795 1.29900E+02 4.10133E+01 0.00000E+00
 -1      2796 1.27650E+02 3.98206E+01 0.00000E+00
 -1      2797 1.31400E+02 4.10133E+01 0.00000E+00
 -1      2798 1.32900E+02 4.10133E+01 0.00000E+00
 -1      2799 1.30650E+02 3.98206E+01 0.00000E+00
 -1      2800 1.34400E+02 4.10133E+01 0.00000E+00
 -1      2801 1.35900E+02 4.10133E+01 0.00000E+00
 -1      2802 1.33650E+02 3.98206E+01 0.00000E+00
 -1      2803 1.37400E+02 4.10133E+01 0.00000E+00
 -1      2804 1.38900E+02 4.10133E+01 0.00000E+00
 -1      2805 1.36650E+02 3.98206E+01 0.00000E+00
 -1      2806 2.42850E+01 7.90325E+00 0.00000E+00
 -1      2807 2.27850E+01 7.90325E+00 0.00000E+00
 -1      2808 1.40706E+02 1.03250E+01 0.00000E+00
 -1      2809 1.40620E+02 8.46463E+00 0.00000E+00
 -1      2810 1.39120E+02 8.46463E+00 0.00000E+00
 -1      2811 2.12850E+01 7.90325E+00 0.00000E+00
 -1      2812 1.97850E+01 7.90325E+00 0.00000E+00
 -1      2813 2.20350E+01 9.20225E+00 0.00000E+00
 -1      2814 3.02850E+01 7.90325E+00 0.00000E+00
 -1      2815 2.87850E+01 7.90325E+00 0.00000E+00
 -1      2816 3.32850E+01 7.90325E+00 0.00000E+00
 -1      2817 3.17850E+01 7.90325E+00 0.00000E+00
 -1      2818 3.10350E+01 9.20225E+00 0.00000E+00
 -1      2819 3.62850E+01 7.90325E+00 0.00000E+00
 -1      2820 3.47850E+01 7.90325E+00 0.00000E+00
 -1      2821 3.40350E+01 9.20225E+00 0.00000E+00
 -1      2822 3.92850E+01 7.90325E+00 0.00000E+00
 -1      2823 3.77850E+01 7.90325E+00 0.00000E+00
 -1      2824 3.70350E+01 9.20225E+00 0.00000E+00
 -1      2825 4.22850E+01 7.90325E+00 0.00000E+00
 -1      2826 4.07850E+01 7.90325E+00 0.00000E+00
 -1      2827 4.00350E+01 9.20225E+00 0.00000E+00
 -1      2828 4.52850E+01 7.90325E+00 0.00000E+00
 -1      2829 4.37850E+01 7.90325E+00 0.00000E+00
 -1      2830 4.30350E+01 9.20225E+00 0.00000E+00
 -1      2831 4.82850E+01 7.90325E+00 0.00000E+00
 -1      2832 4.67850E+01 7.90325E+00 0.00000E+00
 -1      2833 4.60350E+01 9.20225E+00 0.00000E+00
 -1      2834 5.12850E+01 7.90325E+00 0.00000E+00
 -1      2835 4.97850E+01 7.90325E+00 0.00000E+00
 -1      2836 4.90350E+01 9.20225E+00 0.00000E+00
 -1      2837 5.42850E+01 7.90325E+00 0.00000E+00
 -1      2838 5.27850E+01 7.90325E+00 0.00000E+00
 -1      2839 5.20350E+01 9.20225E+00 0.00000E+00
 -1      2840 5.72850E+01 7.90325E+00 0.00000E+00
 -1      2841 5.57850E+01 7.90325E+00 0.00000E+00
 -1      2842 5.50350E+01 9.20225E+00 0.00000E+00
 -1      2843 6.02850E+01 7.90325E+00 0.00000E+00
 -1      2844 5.87850E+01 7.90325E+00 0.00000E+00
 -1      2845 5.80350E+01 9.20225E+00 0.00000E+00
 -1      2846 6.32850E+01 7.90325E+00 0.00000E+00
 -1      2847 6.17850E+01 7.90325E+00 0.00000E+00
 -1      2848 6.10350E+01 9.20225E+00 0.00000E+00
 -1      2849 6.62850E+01 7.90325E+00 0.00000E+00
 -1      2850 6.47850E+01 7.90325E+00 0.00000E+00
 -1      2851 6.40350E+01 9.20225E+00 0.00000E+00
 -1      2852 6.92850E+01 7.90325E+00 0.00000E+00
 -1      2853 6.77850E+01 7.90325E+00 0.00000E+00
 -1      2854 6.70350E+01 9.20225E+00 0.00000E+00
 -1      2855 7.22850E+01 7.90325E+00 0.00000E+00
 -1      2856 7.07850E+01 7.90325E+00 0.00000E+00
 -1      2857 7.00350E+01 9.20225E+00 0.00000E+00
 -1      2858 7.52850E+01 7.90325E+00 0.00000E+00
 -1      2859 7.37850E+01 7.90325E+00 0.00000E+00
 -1      2860 7.30350E+01 9.20225E+00 0.00000E+00
 -1      2861 7.82850E+01 7.90325E+00 0.00000E+00
 -1      2862 7.67850E+01 7.90325E+00 0.00000E+00
 -1      2863 7.60350E+01 9.20225E+00 0.00000E+00
 -1      2864 8.12850E+01 7.90325E+00 0.00000E+00
 -1      2865 7.97850E+01 7.90325E+00 0.00000E+00
 -1      2866 7.90350E+01 9.20225E+00 0.00000E+00
 -1      2867 8.42850E+01 7.90325E+00 0.00000E+00
 -1      2868 8.27850E+01 7.90325E+00 0.00000E+00
 -1      2869 8.20350E+01 9.20225E+00 0.00000E+00
 -1      2870 8.72850E+01 7.90325E+00 0.00000E+00
 -1      2871 8.57850E+01 7.90325E+00 0.00000E+00
 -1      2872 8.50350E+01 9.20225E+00 0.00000E+00
 -1      2873 9.02850E+01 7.90325E+00 0.00000E+00
 -1      2874 8.87850E+01 7.90325E+00 0.00000E+00
 -1      2875 8.80350E+01 9.20225E+00 0.00000E+00
 -1      2876 9.32850E+01 7.90325E+00 0.00000E+00
 -1      2877 9.17850E+01 7.90325E+00 0.00000E+00
 -1      2878 9.10350E+01 9.20225E+00 0.00000E+00
 -1      2879 9.62850E+01 7.90325E+00 0.00000E+00
 -1      2880 9.47850E+01 7.90325E+00 0.00000E+00
 -1      2881 9.40350E+01 9.20225E+00 0.00000E+00
 -1      2882 9.92850E+01 7.90325E+00 0.00000E+00
 -1      2883 9.77850E+01 7.90325E+00 0.00000E+00
 -1      2884 9.70350E+01 9.20225E+00 0.00000E+00
 -1      2885 1.02285E+02 7.90325E+00 0.00000E+00
 -1      2886 1.00785E+02 7.90325E+00 0.00000E+00
 -1      2887 1.00035E+02 9.20225E+00 0.00000E+00
 -1      2888 1.05285E+02 7.90325E+00 0.00000E+00
 -1      2889 1.03785E+02 7.90325E+00 0.00000E+00
 -1      2890 1.03035E+02 9.20225E+00 0.00000E+00
 -1      2891 1.08285E+02 7.90325E+00 0.00000E+00
 -1      2892 1.06785E+02 7.90325E+00 0.00000E+00
 -1      2893 1.06035E+02 9.20225E+00 0.00000E+00
 -1      2894 1.11285E+02 7.90325E+00 0.00000E+00
 -1      2895 1.09785E+02 7.90325E+00 0.00000E+00
 -1      2896 1.09035E+02 9.20225E+00 0.00000E+00
 -1      2897 1.14285E+02 7.90325E+00 0.00000E+00
 -1      2898 1.12785E+02 7.90325E+00 0.00000E+00
 -1      2899 1.12035E+02 9.20225E+00 0.00000E+00
 -1      2900 1.17285E+02 7.90325E+00 0.00000E+00
 -1      2901 1.15785E+02 7.90325E+00 0.00000E+00
 -1      2902 1.15035E+02 9.20225E+00 0.00000E+00
 -1      2903 1.20285E+02 7.90325E+00 0.00000E+00
 -1      2904 1.18785E+02 7.90325E+00 0.00000E+00
 -1      2905 1.18035E+02 9.20225E+00 0.00000E+00
 -1      2906 1.23285E+02 7.90325E+00 0.00000E+00
 -1      2907 1.21785E+02 7.90325E+00 0.00000E+00
 -1      2908 1.21035E+02 9.20225E+00 0.00000E+00
 -1      2909 1.26285E+02 7.90325E+00 0.00000E+00
 -1      2910 1.24785E+02 7.90325E+00 0.00000E+00
 -1      2911 1.24035E+02 9.20225E+00 0.00000E+00
 -1      2912 1.29285E+02 7.90325E+00 0.00000E+00
 -1      2913 1.27785E+02 7.90325E+00 0.00000E+00
 -1      2914 1.27035E+02 9.20225E+00 0.00000E+00
 -1      2915 1.32285E+02 7.90325E+00 0.00000E+00
 -1      2916 1.30785E+02 7.90325E+00 0.00000E+00
 -1      2917 1.30035E+02 9.20225E+00 0.00000E+00
 -1      2918 1.35285E+02 7.90325E+00 0.00000E+00
 -1      2919 1.33785E+02 7.90325E+00 0.00000E+00
 -1      2920 1.33035E+02 9.20225E+00 0.00000E+00
 -1      2921 1.37953E+02 8.18394E+00 0.00000E+00
 -1      2922 1.36453E+02 8.18394E+00 0.00000E+00
 -1      2923 1.35703E+02 9.48294E+00 0.00000E+00
 -1      2924 1.38038E+02 1.00443E+01 0.00000E+00
 -1      2925 7.74473E+01 1.87363E+01 0.00000E+00
 -1      2926 7.83732E+01 1.98377E+01 0.00000E+00
 -1      2927 1.40907E+02 2.42875E+01 0.00000E+00
 -1      2928 1.40907E+02 2.28125E+01 0.00000E+00
 -1      2929 1.39914E+02 4.09894E+01 0.00000E+00
 -1      2930 1.40928E+02 4.10187E+01 0.00000E+00
 -1      2931 1.41192E+02 3.97489E+01 0.00000E+00
 -1      2932 1.39164E+02 3.97967E+01 0.00000E+00
 -1      2933 1.40907E+02 1.83875E+01 0.00000E+00
 -1      2934 1.40907E+02 1.69125E+01 0.00000E+00
 -1      2935 1.40907E+02 2.72375E+01 0.00000E+00
 -1      2936 1.40907E+02 2.57625E+01 0.00000E+00
 -1      2937 1.39608E+02 2.50250E+01 0.00000E+00
 -1      2938 1.40907E+02 2.13375E+01 0.00000E+00
 -1      2939 1.40907E+02 1.98625E+01 0.00000E+00
 -1      2940 1.39608E+02 1.91250E+01 0.00000E+00
 -1      2941 1.39608E+02 2.20750E+01 0.00000E+00
 -1      2942 1.40907E+02 3.01375E+01 0.00000E+00
 -1      2943 1.40907E+02 2.86875E+01 0.00000E+00
 -1      2944 1.39608E+02 2.79500E+01 0.00000E+00
 -1      2945 1.40907E+02 3.30875E+01 0.00000E+00
 -1      2946 1.40907E+02 3.16125E+01 0.00000E+00
 -1      2947 1.39608E+02 3.08750E+01 0.00000E+00
 -1      2948 1.40907E+02 3.60375E+01 0.00000E+00
 -1      2949 1.40907E+02 3.45625E+01 0.00000E+00
 -1      2950 1.39608E+02 3.38250E+01 0.00000E+00
 -1      2951 1.41049E+02 3.86307E+01 0.00000E+00
 -1      2952 1.41049E+02 3.71557E+01 0.00000E+00
 -1      2953 1.39751E+02 3.64182E+01 0.00000E+00
 -1      2954 1.40036E+02 3.86546E+01 0.00000E+00
 -1      2955 5.90001E+01 1.89155E+01 0.00000E+00
 -1      2956 5.95704E+01 1.83005E+01 0.00000E+00
 -1      2957 8.00488E+01 2.37427E+01 0.00000E+00
 -1      2958 8.02239E+01 2.48728E+01 0.00000E+00
 -1      2959 7.92204E+01 2.12315E+01 0.00000E+00
 -1      2960 7.96782E+01 2.23953E+01 0.00000E+00
 -1      2961 8.85168E+00 4.05347E+01 0.00000E+00
 -1      2962 1.02152E+01 4.07987E+01 0.00000E+00
 -1      2963 8.91450E+00 8.42712E+00 0.00000E+00
 -1      2964 7.84389E+01 3.33629E+01 0.00000E+00
 -1      2965 7.77761E+01 3.41986E+01 0.00000E+00
 -1      2966 1.82850E+01 7.90325E+00 0.00000E+00
 -1      2967 1.67850E+01 7.90325E+00 0.00000E+00
 -1      2968 1.90350E+01 9.20225E+00 0.00000E+00
 -1      2969 2.72850E+01 7.90325E+00 0.00000E+00
 -1      2970 2.57850E+01 7.90325E+00 0.00000E+00
 -1      2971 2.50350E+01 9.20225E+00 0.00000E+00
 -1      2972 2.80350E+01 9.20225E+00 0.00000E+00
 -1      2973 1.15576E+01 4.08528E+01 0.00000E+00
 -1      2974 1.30576E+01 4.08528E+01 0.00000E+00
 -1      2975 1.38076E+01 3.95538E+01 0.00000E+00
 -1      2976 1.11228E+01 3.94455E+01 0.00000E+00
 -1      2977 1.52850E+01 7.90325E+00 0.00000E+00
 -1      2978 1.37850E+01 7.90325E+00 0.00000E+00
 -1      2979 1.30350E+01 9.20225E+00 0.00000E+00
 -1      2980 1.60350E+01 9.20225E+00 0.00000E+00
 -1      2981 5.79291E+01 2.14202E+01 0.00000E+00
 -1      2982 5.83634E+01 2.02083E+01 0.00000E+00
 -1      2983 5.81673E+01 3.37276E+01 0.00000E+00
 -1      2984 5.78619E+01 3.24726E+01 0.00000E+00
 -1      2985 9.09300E+00 1.68813E+01 0.00000E+00
 -1      2986 9.09300E+00 1.83563E+01 0.00000E+00
 -1      2987 1.03920E+01 1.90812E+01 0.00000E+00
 -1      2988 1.03920E+01 1.61437E+01 0.00000E+00
 -1      2989 6.99154E+01 3.88756E+01 0.00000E+00
 -1      2990 6.87179E+01 3.89646E+01 0.00000E+00
 -1      2991 7.26367E+01 3.78630E+01 0.00000E+00
 -1      2992 7.15337E+01 3.83017E+01 0.00000E+00
 -1      2993 7.48818E+00 3.88019E+01 0.00000E+00
 -1      2994 8.02341E+01 2.62075E+01 0.00000E+00
 -1      2995 8.01674E+01 2.74068E+01 0.00000E+00
 -1      2996 8.10202E+01 2.80323E+01 0.00000E+00
 -1      2997 9.09300E+00 3.15875E+01 0.00000E+00
 -1      2998 9.09300E+00 3.30625E+01 0.00000E+00
 -1      2999 6.72179E+01 3.88808E+01 0.00000E+00
 -1      3000 6.59214E+01 3.88095E+01 0.00000E+00
 -1      3001 6.31904E+01 1.56332E+01 0.00000E+00
 -1      3002 6.44859E+01 1.54257E+01 0.00000E+00
 -1      3003 5.65496E+01 2.87079E+01 0.00000E+00
 -1      3004 5.66443E+01 2.75259E+01 0.00000E+00
 -1      3005 7.47922E+01 3.69761E+01 0.00000E+00
 -1      3006 7.37544E+01 3.74381E+01 0.00000E+00
 -1      3007 7.29242E+01 1.60212E+01 0.00000E+00
 -1      3008 7.41352E+01 1.64318E+01 0.00000E+00
 -1      3009 5.99714E+01 3.59815E+01 0.00000E+00
 -1      3010 5.90765E+01 3.52293E+01 0.00000E+00
 -1      3011 6.48399E+01 3.83948E+01 0.00000E+00
 -1      3012 6.37584E+01 3.79802E+01 0.00000E+00
 -1      3013 6.50685E+01 3.94060E+01 0.00000E+00
 -1      3014 7.54304E+01 1.70701E+01 0.00000E+00
 -1      3015 7.63431E+01 1.77016E+01 0.00000E+00
 -1      3016 6.79344E+01 1.48136E+01 0.00000E+00
 -1      3017 6.91952E+01 1.48334E+01 0.00000E+00
 -1      3018 6.54965E+01 1.51719E+01 0.00000E+00
 -1      3019 6.65072E+01 1.49182E+01 0.00000E+00
 -1      3020 6.47131E+01 1.44289E+01 0.00000E+00
 -1      3021 9.09300E+00 3.45313E+01 0.00000E+00
 -1      3022 9.09300E+00 3.60000E+01 0.00000E+00
 -1      3023 1.03920E+01 3.37938E+01 0.00000E+00
 -1      3024 1.03920E+01 2.49750E+01 0.00000E+00
 -1      3025 9.09300E+00 2.57000E+01 0.00000E+00
 -1      3026 9.09300E+00 2.71750E+01 0.00000E+00
 -1      3027 5.69873E+01 2.16819E+01 0.00000E+00
 -1      3028 7.95427E+01 3.30289E+01 0.00000E+00
 -1      3029 8.06298E+01 3.04879E+01 0.00000E+00
 -1      3030 6.99405E+01 1.45571E+01 0.00000E+00
 -1      3031 7.06858E+01 1.42809E+01 0.00000E+00
 -1      3032 6.93235E+01 1.36898E+01 0.00000E+00
 -1      3033 6.71510E+01 1.40706E+01 0.00000E+00
 -1      3034 7.58481E+01 3.70880E+01 0.00000E+00
 -1      3035 6.01558E+01 3.71457E+01 0.00000E+00
 -1      3036 5.92717E+01 3.87867E+01 0.00000E+00
 -1      3037 6.76500E+01 3.99044E+01 0.00000E+00
 -1      3038 6.24000E+01 4.09295E+01 0.00000E+00
 -1      3039 6.39000E+01 4.09295E+01 0.00000E+00
 -1      3040 7.36500E+01 3.99044E+01 0.00000E+00
 -1      3041 1.39608E+02 1.61875E+01 0.00000E+00
 -1      3042 1.40907E+02 1.54500E+01 0.00000E+00
 -1      3043 1.40907E+02 1.39875E+01 0.00000E+00
 -1      3044 7.94780E+01 2.00751E+01 0.00000E+00
 -1      3045 7.25674E+01 1.52416E+01 0.00000E+00
 -1      3046 7.75266E+01 1.76465E+01 0.00000E+00
 -1      3047 5.96384E+01 1.72088E+01 0.00000E+00
 -1      3048 1.40706E+02 1.17875E+01 0.00000E+00
 -1      3049 5.63228E+01 2.95140E+01 0.00000E+00
 -1      3050 5.55571E+01 2.88579E+01 0.00000E+00
 -1      3051 5.60960E+01 3.03202E+01 0.00000E+00
 -1      3052 6.22229E+01 1.55946E+01 0.00000E+00
 -1      3053 6.27350E+01 1.46441E+01 0.00000E+00
 -1      3054 6.12554E+01 1.55560E+01 0.00000E+00
 -1      3055 5.78968E+01 1.92038E+01 0.00000E+00
 -1      3056 8.06960E+01 2.28162E+01 0.00000E+00
 -1      3057 9.66450E+00 9.72612E+00 0.00000E+00
 -1      3058 1.09635E+01 1.04636E+01 0.00000E+00
 -1      3059 5.69808E+01 3.21495E+01 0.00000E+00
 -1      3060 5.59159E+01 2.68742E+01 0.00000E+00
 -1      3061 8.10767E+01 2.54983E+01 0.00000E+00
 -1      3062 8.78718E+00 3.80644E+01 0.00000E+00
 -1      3063 6.26901E+01 3.84784E+01 0.00000E+00
 -1      3064 9.09300E+00 2.86437E+01 0.00000E+00
 -1      3065 9.09300E+00 3.01187E+01 0.00000E+00
 -1      3066 1.03920E+01 3.08563E+01 0.00000E+00
 -1      3067 1.03920E+01 2.79188E+01 0.00000E+00
 -1      3068 7.79267E+01 3.52496E+01 0.00000E+00
 -1      3069 5.80091E+01 3.48243E+01 0.00000E+00
 -1      3070 5.69417E+01 3.44194E+01 0.00000E+00
 -1      3071 5.78509E+01 3.59211E+01 0.00000E+00
 -1      3072 5.63812E+01 2.42819E+01 0.00000E+00
 -1      3073 5.61908E+01 2.35143E+01 0.00000E+00
 -1      3074 5.58575E+01 2.49291E+01 0.00000E+00
 -1      3075 7.35044E+01 3.84154E+01 0.00000E+00
 -1      3076 7.51271E+01 1.59734E+01 0.00000E+00
 -1      3077 1.16910E+01 1.24625E+01 0.00000E+00
 -1      3078 1.16910E+01 1.39375E+01 0.00000E+00
 -1      3079 6.39786E+01 1.36428E+01 0.00000E+00
 -1      3080 6.49892E+01 1.33891E+01 0.00000E+00
 -1      3081 5.80341E+01 3.79670E+01 0.00000E+00
 -1      3082 1.89000E+01 3.83090E+01 0.00000E+00
 -1      3083 2.04000E+01 3.83090E+01 0.00000E+00
 -1      3084 2.19000E+01 3.83090E+01 0.00000E+00
 -1      3085 2.34000E+01 3.83090E+01 0.00000E+00
 -1      3086 2.11500E+01 3.70100E+01 0.00000E+00
 -1      3087 2.49000E+01 3.83090E+01 0.00000E+00
 -1      3088 2.64000E+01 3.83090E+01 0.00000E+00
 -1      3089 2.41500E+01 3.70100E+01 0.00000E+00
 -1      3090 2.79000E+01 3.83090E+01 0.00000E+00
 -1      3091 2.94000E+01 3.83090E+01 0.00000E+00
 -1      3092 2.71500E+01 3.70100E+01 0.00000E+00
 -1      3093 3.09000E+01 3.83090E+01 0.00000E+00
 -1      3094 3.24000E+01 3.83090E+01 0.00000E+00
 -1      3095 3.01500E+01 3.70100E+01 0.00000E+00
 -1      3096 3.39000E+01 3.83090E+01 0.00000E+00
 -1      3097 3.54000E+01 3.83090E+01 0.00000E+00
 -1      3098 3.31500E+01 3.70100E+01 0.00000E+00
 -1      3099 3.69000E+01 3.83090E+01 0.00000E+00
 -1      3100 3.84000E+01 3.83090E+01 0.00000E+00
 -1      3101 3.61500E+01 3.70100E+01 0.00000E+00
 -1      3102 3.99000E+01 3.83090E+01 0.00000E+00
 -1      3103 4.14000E+01 3.83090E+01 0.00000E+00
 -1      3104 3.91500E+01 3.70100E+01 0.00000E+00
 -1      3105 4.29000E+01 3.83090E+01 0.00000E+00
 -1      3106 4.44000E+01 3.83090E+01 0.00000E+00
 -1      3107 4.21500E+01 3.70100E+01 0.00000E+00
 -1      3108 4.59000E+01 3.83090E+01 0.00000E+00
 -1      3109 4.74000E+01 3.83090E+01 0.00000E+00
 -1      3110 4.51500E+01 3.70100E+01 0.00000E+00
 -1      3111 4.89000E+01 3.83090E+01 0.00000E+00
 -1      3112 5.04000E+01 3.83090E+01 0.00000E+00
 -1      3113 4.81500E+01 3.70100E+01 0.00000E+00
 -1      3114 5.19000E+01 3.83090E+01 0.00000E+00
 -1      3115 5.34000E+01 3.83090E+01 0.00000E+00
 -1      3116 5.11500E+01 3.70100E+01 0.00000E+00
 -1      3117 5.54668E+01 3.75621E+01 0.00000E+00
 -1      3118 5.69668E+01 3.75621E+01 0.00000E+00
 -1      3119 7.89000E+01 3.85216E+01 0.00000E+00
 -1      3120 8.04000E+01 3.85216E+01 0.00000E+00
 -1      3121 8.19000E+01 3.85216E+01 0.00000E+00
 -1      3122 8.34000E+01 3.85216E+01 0.00000E+00
 -1      3123 8.11500E+01 3.72226E+01 0.00000E+00
 -1      3124 8.49000E+01 3.85216E+01 0.00000E+00
 -1      3125 8.64000E+01 3.85216E+01 0.00000E+00
 -1      3126 8.41500E+01 3.72226E+01 0.00000E+00
 -1      3127 8.79000E+01 3.85216E+01 0.00000E+00
 -1      3128 8.94000E+01 3.85216E+01 0.00000E+00
 -1      3129 8.71500E+01 3.72226E+01 0.00000E+00
 -1      3130 9.09000E+01 3.85216E+01 0.00000E+00
 -1      3131 9.24000E+01 3.85216E+01 0.00000E+00
 -1      3132 9.01500E+01 3.72226E+01 0.00000E+00
 -1      3133 9.39000E+01 3.85216E+01 0.00000E+00
 -1      3134 9.54000E+01 3.85216E+01 0.00000E+00
 -1      3135 9.31500E+01 3.72226E+01 0.00000E+00
 -1      3136 9.69000E+01 3.85216E+01 0.00000E+00
 -1      3137 9.84000E+01 3.85216E+01 0.00000E+00
 -1      3138 9.61500E+01 3.72226E+01 0.00000E+00
 -1      3139 9.99000E+01 3.85216E+01 0.00000E+00
 -1      3140 1.01400E+02 3.85216E+01 0.00000E+00
 -1      3141 9.91500E+01 3.72226E+01 0.00000E+00
 -1      3142 1.02900E+02 3.85216E+01 0.00000E+00
 -1      3143 1.04400E+02 3.85216E+01 0.00000E+00
 -1      3144 1.02150E+02 3.72226E+01 0.00000E+00
 -1      3145 1.05900E+02 3.85216E+01 0.00000E+00
 -1      3146 1.07400E+02 3.85216E+01 0.00000E+00
 -1      3147 1.05150E+02 3.72226E+01 0.00000E+00
 -1      3148 1.08900E+02 3.85216E+01 0.00000E+00
 -1      3149 1.10400E+02 3.85216E+01 0.00000E+00
 -1      3150 1.08150E+02 3.72226E+01 0.00000E+00
 -1      3151 1.11900E+02 3.85216E+01 0.00000E+00
 -1      3152 1.13400E+02 3.85216E+01 0.00000E+00
 -1      3153 1.11150E+02 3.72226E+01 0.00000E+00
 -1      3154 1.14900E+02 3.85216E+01 0.00000E+00
 -1      3155 1.16400E+02 3.85216E+01 0.00000E+00
 -1      3156 1.14150E+02 3.72226E+01 0.00000E+00
 -1      3157 1.17900E+02 3.85216E+01 0.00000E+00
 -1      3158 1.19400E+02 3.85216E+01 0.00000E+00
 -1      3159 1.17150E+02 3.72226E+01 0.00000E+00
 -1      3160 1.20900E+02 3.85216E+01 0.00000E+00
 -1      3161 1.22400E+02 3.85216E+01 0.00000E+00
 -1      3162 1.20150E+02 3.72226E+01 0.00000E+00
 -1      3163 1.23900E+02 3.85216E+01 0.00000E+00
 -1      3164 1.25400E+02 3.85216E+01 0.00000E+00
 -1      3165 1.23150E+02 3.72226E+01 0.00000E+00
 -1      3166 1.26900E+02 3.85216E+01 0.00000E+00
 -1      3167 1.28400E+02 3.85216E+01 0.00000E+00
 -1      3168 1.26150E+02 3.72226E+01 0.00000E+00
 -1      3169 1.29900E+02 3.85216E+01 0.00000E+00
 -1      3170 1.31400E+02 3.85216E+01 0.00000E+00
 -1      3171 1.29150E+02 3.72226E+01 0.00000E+00
 -1      3172 1.32900E+02 3.85216E+01 0.00000E+00
 -1      3173 1.34400E+02 3.85216E+01 0.00000E+00
 -1      3174 1.32150E+02 3.72226E+01 0.00000E+00
 -1      3175 1.35900E+02 3.85216E+01 0.00000E+00
 -1      3176 1.37400E+02 3.85216E+01 0.00000E+00
 -1      3177 1.35150E+02 3.72226E+01 0.00000E+00
 -1      3178 2.27850E+01 1.05013E+01 0.00000E+00
 -1      3179 2.12850E+01 1.05013E+01 0.00000E+00
 -1      3180 3.47850E+01 1.05013E+01 0.00000E+00
 -1      3181 3.32850E+01 1.05013E+01 0.00000E+00
 -1      3182 3.17850E+01 1.05013E+01 0.00000E+00
 -1      3183 3.02850E+01 1.05013E+01 0.00000E+00
 -1      3184 3.25350E+01 1.18003E+01 0.00000E+00
 -1      3185 4.07850E+01 1.05013E+01 0.00000E+00
 -1      3186 3.92850E+01 1.05013E+01 0.00000E+00
 -1      3187 4.37850E+01 1.05013E+01 0.00000E+00
 -1      3188 4.22850E+01 1.05013E+01 0.00000E+00
 -1      3189 4.15350E+01 1.18003E+01 0.00000E+00
 -1      3190 4.67850E+01 1.05013E+01 0.00000E+00
 -1      3191 4.52850E+01 1.05013E+01 0.00000E+00
 -1      3192 4.45350E+01 1.18003E+01 0.00000E+00
 -1      3193 4.97850E+01 1.05013E+01 0.00000E+00
 -1      3194 4.82850E+01 1.05013E+01 0.00000E+00
 -1      3195 4.75350E+01 1.18003E+01 0.00000E+00
 -1      3196 5.27850E+01 1.05013E+01 0.00000E+00
 -1      3197 5.12850E+01 1.05013E+01 0.00000E+00
 -1      3198 5.05350E+01 1.18003E+01 0.00000E+00
 -1      3199 5.57850E+01 1.05013E+01 0.00000E+00
 -1      3200 5.42850E+01 1.05013E+01 0.00000E+00
 -1      3201 5.35350E+01 1.18003E+01 0.00000E+00
 -1      3202 5.87850E+01 1.05013E+01 0.00000E+00
 -1      3203 5.72850E+01 1.05013E+01 0.00000E+00
 -1      3204 5.65350E+01 1.18003E+01 0.00000E+00
 -1      3205 6.17850E+01 1.05013E+01 0.00000E+00
 -1      3206 6.02850E+01 1.05013E+01 0.00000E+00
 -1      3207 5.95350E+01 1.18003E+01 0.00000E+00
 -1      3208 6.48949E+01 1.09026E+01 0.00000E+00
 -1      3209 6.33949E+01 1.09026E+01 0.00000E+00
 -1      3210 7.08019E+01 1.13079E+01 0.00000E+00
 -1      3211 6.93019E+01 1.13079E+01 0.00000E+00
 -1      3212 7.67850E+01 1.03949E+01 0.00000E+00
 -1      3213 7.52850E+01 1.03949E+01 0.00000E+00
 -1      3214 7.97850E+01 1.03949E+01 0.00000E+00
 -1      3215 7.82850E+01 1.03949E+01 0.00000E+00
 -1      3216 7.75350E+01 1.15876E+01 0.00000E+00
 -1      3217 8.27850E+01 1.03949E+01 0.00000E+00
 -1      3218 8.12850E+01 1.03949E+01 0.00000E+00
 -1      3219 8.05350E+01 1.15876E+01 0.00000E+00
 -1      3220 8.57850E+01 1.03949E+01 0.00000E+00
 -1      3221 8.42850E+01 1.03949E+01 0.00000E+00
 -1      3222 8.35350E+01 1.15876E+01 0.00000E+00
 -1      3223 8.87850E+01 1.03949E+01 0.00000E+00
 -1      3224 8.72850E+01 1.03949E+01 0.00000E+00
 -1      3225 8.65350E+01 1.15876E+01 0.00000E+00
 -1      3226 9.17850E+01 1.03949E+01 0.00000E+00
 -1      3227 9.02850E+01 1.03949E+01 0.00000E+00
 -1      3228 8.95350E+01 1.15876E+01 0.00000E+00
 -1      3229 9.47850E+01 1.03949E+01 0.00000E+00
 -1      3230 9.32850E+01 1.03949E+01 0.00000E+00
 -1      3231 9.25350E+01 1.15876E+01 0.00000E+00
 -1      3232 9.77850E+01 1.03949E+01 0.00000E+00
 -1      3233 9.62850E+01 1.03949E+01 0.00000E+00
 -1      3234 9.55350E+01 1.15876E+01 0.00000E+00
 -1      3235 1.00785E+02 1.03949E+01 0.00000E+00
 -1      3236 9.92850E+01 1.03949E+01 0.00000E+00
 -1      3237 9.85350E+01 1.15876E+01 0.00000E+00
 -1      3238 1.03785E+02 1.03949E+01 0.00000E+00
 -1      3239 1.02285E+02 1.03949E+01 0.00000E+00
 -1      3240 1.01535E+02 1.15876E+01 0.00000E+00
 -1      3241 1.06785E+02 1.03949E+01 0.00000E+00
 -1      3242 1.05285E+02 1.03949E+01 0.00000E+00
 -1      3243 1.04535E+02 1.15876E+01 0.00000E+00
 -1      3244 1.09785E+02 1.03949E+01 0.00000E+00
 -1      3245 1.08285E+02 1.03949E+01 0.00000E+00
 -1      3246 1.07535E+02 1.15876E+01 0.00000E+00
 -1      3247 1.12785E+02 1.03949E+01 0.00000E+00
 -1      3248 1.11285E+02 1.03949E+01 0.00000E+00
 -1      3249 1.10535E+02 1.15876E+01 0.00000E+00
 -1      3250 1.15785E+02 1.03949E+01 0.00000E+00
 -1      3251 1.14285E+02 1.03949E+01 0.00000E+00
 -1      3252 1.13535E+02 1.15876E+01 0.00000E+00
 -1      3253 1.18785E+02 1.03949E+01 0.00000E+00
 -1      3254 1.17285E+02 1.03949E+01 0.00000E+00
 -1      3255 1.16535E+02 1.15876E+01 0.00000E+00
 -1      3256 1.21785E+02 1.03949E+01 0.00000E+00
 -1      3257 1.20285E+02 1.03949E+01 0.00000E+00
 -1      3258 1.19535E+02 1.15876E+01 0.00000E+00
 -1      3259 1.24785E+02 1.03949E+01 0.00000E+00
 -1      3260 1.23285E+02 1.03949E+01 0.00000E+00
 -1      3261 1.22535E+02 1.15876E+01 0.00000E+00
 -1      3262 1.27785E+02 1.03949E+01 0.00000E+00
 -1      3263 1.26285E+02 1.03949E+01 0.00000E+00
 -1      3264 1.25535E+02 1.15876E+01 0.00000E+00
 -1      3265 1.30785E+02 1.03949E+01 0.00000E+00
 -1      3266 1.29285E+02 1.03949E+01 0.00000E+00
 -1      3267 1.28535E+02 1.15876E+01 0.00000E+00
 -1      3268 1.33785E+02 1.03949E+01 0.00000E+00
 -1      3269 1.32285E+02 1.03949E+01 0.00000E+00
 -1      3270 1.31535E+02 1.15876E+01 0.00000E+00
 -1      3271 1.38309E+02 2.86750E+01 0.00000E+00
 -1      3272 1.38309E+02 2.72250E+01 0.00000E+00
 -1      3273 1.38309E+02 3.16250E+01 0.00000E+00
 -1      3274 1.38309E+02 3.01500E+01 0.00000E+00
 -1      3275 1.37010E+02 2.94250E+01 0.00000E+00
 -1      3276 1.38309E+02 2.57500E+01 0.00000E+00
 -1      3277 1.38309E+02 2.42750E+01 0.00000E+00
 -1      3278 1.37010E+02 2.64750E+01 0.00000E+00
 -1      3279 7.20106E+01 1.41726E+01 0.00000E+00
 -1      3280 7.32752E+01 1.42660E+01 0.00000E+00
 -1      3281 1.97850E+01 1.05013E+01 0.00000E+00
 -1      3282 1.82850E+01 1.05013E+01 0.00000E+00
 -1      3283 2.05350E+01 1.18003E+01 0.00000E+00
 -1      3284 1.00862E+01 3.73269E+01 0.00000E+00
 -1      3285 8.21608E+01 2.74941E+01 0.00000E+00
 -1      3286 8.20941E+01 2.86935E+01 0.00000E+00
 -1      3287 5.60205E+01 3.28397E+01 0.00000E+00
 -1      3288 5.59014E+01 3.16665E+01 0.00000E+00
 -1      3289 1.39021E+02 3.86785E+01 0.00000E+00
 -1      3290 3.77850E+01 1.05013E+01 0.00000E+00
 -1      3291 3.62850E+01 1.05013E+01 0.00000E+00
 -1      3292 3.55350E+01 1.18003E+01 0.00000E+00
 -1      3293 3.85350E+01 1.18003E+01 0.00000E+00
 -1      3294 1.26488E+01 1.02017E+01 0.00000E+00
 -1      3295 1.20772E+01 1.14631E+01 0.00000E+00
 -1      3296 1.33763E+01 1.22006E+01 0.00000E+00
 -1      3297 1.41488E+01 1.02017E+01 0.00000E+00
 -1      3298 8.17844E+01 3.01157E+01 0.00000E+00
 -1      3299 8.14606E+01 3.13719E+01 0.00000E+00
 -1      3300 1.39407E+02 1.25250E+01 0.00000E+00
 -1      3301 5.58519E+01 2.20446E+01 0.00000E+00
 -1      3302 5.61247E+01 2.08593E+01 0.00000E+00
 -1      3303 8.15798E+01 2.18484E+01 0.00000E+00
 -1      3304 8.19505E+01 2.31958E+01 0.00000E+00
 -1      3305 6.43185E+01 4.05987E+01 0.00000E+00
 -1      3306 7.99304E+01 1.88457E+01 0.00000E+00
 -1      3307 8.07777E+01 2.02395E+01 0.00000E+00
 -1      3308 1.59000E+01 3.83090E+01 0.00000E+00
 -1      3309 1.74000E+01 3.83090E+01 0.00000E+00
 -1      3310 1.81500E+01 3.70100E+01 0.00000E+00
 -1      3311 5.49977E+01 2.73675E+01 0.00000E+00
 -1      3312 5.51296E+01 2.61899E+01 0.00000E+00
 -1      3313 7.07683E+01 3.94142E+01 0.00000E+00
 -1      3314 8.07336E+01 3.28673E+01 0.00000E+00
 -1      3315 7.99703E+01 3.41521E+01 0.00000E+00
 -1      3316 7.92147E+01 3.57681E+01 0.00000E+00
 -1      3317 7.83620E+01 3.67041E+01 0.00000E+00
 -1      3318 5.84912E+01 1.66240E+01 0.00000E+00
 -1      3319 5.95961E+01 1.59218E+01 0.00000E+00
 -1      3320 8.21405E+01 2.48248E+01 0.00000E+00
 -1      3321 8.21506E+01 2.61595E+01 0.00000E+00
 -1      3322 8.32245E+01 2.68207E+01 0.00000E+00
 -1      3323 7.49327E+01 1.47347E+01 0.00000E+00
 -1      3324 7.62279E+01 1.53730E+01 0.00000E+00
 -1      3325 1.38309E+02 3.45750E+01 0.00000E+00
 -1      3326 1.38309E+02 3.31000E+01 0.00000E+00
 -1      3327 1.37010E+02 3.23750E+01 0.00000E+00
 -1      3328 5.65837E+01 1.93603E+01 0.00000E+00
 -1      3329 5.72204E+01 1.80675E+01 0.00000E+00
 -1      3330 7.77900E+01 1.62588E+01 0.00000E+00
 -1      3331 7.88942E+01 1.72936E+01 0.00000E+00
 -1      3332 1.16910E+01 2.12875E+01 0.00000E+00
 -1      3333 1.16910E+01 2.27625E+01 0.00000E+00
 -1      3334 6.63686E+01 1.31841E+01 0.00000E+00
 -1      3335 6.77958E+01 1.30795E+01 0.00000E+00
 -1      3336 7.70191E+01 3.73949E+01 0.00000E+00
 -1      3337 7.57932E+01 3.82973E+01 0.00000E+00
 -1      3338 1.16910E+01 2.42375E+01 0.00000E+00
 -1      3339 1.16910E+01 2.57125E+01 0.00000E+00
 -1      3340 1.29900E+01 2.35000E+01 0.00000E+00
 -1      3341 6.56340E+01 1.23979E+01 0.00000E+00
 -1      3342 8.20322E+01 2.06190E+01 0.00000E+00
 -1      3343 5.40211E+01 2.59156E+01 0.00000E+00
 -1      3344 5.49393E+01 2.54223E+01 0.00000E+00
 -1      3345 5.47489E+01 2.46548E+01 0.00000E+00
 -1      3346 5.47168E+01 3.62631E+01 0.00000E+00
 -1      3347 1.14286E+01 3.73811E+01 0.00000E+00
 -1      3348 7.33861E+01 3.89893E+01 0.00000E+00
 -1      3349 7.48861E+01 3.89056E+01 0.00000E+00
 -1      3350 1.32152E+01 3.82007E+01 0.00000E+00
 -1      3351 1.45576E+01 3.82548E+01 0.00000E+00
 -1      3352 1.53076E+01 3.69558E+01 0.00000E+00
 -1      3353 1.38309E+02 1.69188E+01 0.00000E+00
 -1      3354 1.38309E+02 1.54563E+01 0.00000E+00
 -1      3355 5.54483E+01 1.97230E+01 0.00000E+00
 -1      3356 1.38271E+02 3.73795E+01 0.00000E+00
 -1      3357 2.42850E+01 1.05013E+01 0.00000E+00
 -1      3358 2.35350E+01 1.18003E+01 0.00000E+00
 -1      3359 2.57850E+01 1.05013E+01 0.00000E+00
 -1      3360 1.38309E+02 1.83937E+01 0.00000E+00
 -1      3361 1.37010E+02 1.76625E+01 0.00000E+00
 -1      3362 1.38309E+02 1.98687E+01 0.00000E+00
 -1      3363 7.60571E+01 3.92124E+01 0.00000E+00
 -1      3364 2.95350E+01 1.18003E+01 0.00000E+00
 -1      3365 2.87850E+01 1.05013E+01 0.00000E+00
 -1      3366 2.72850E+01 1.05013E+01 0.00000E+00
 -1      3367 6.26449E+01 1.22016E+01 0.00000E+00
 -1      3368 6.62742E+01 1.06976E+01 0.00000E+00
 -1      3369 6.77742E+01 1.06976E+01 0.00000E+00
 -1      3370 7.43767E+01 1.23923E+01 0.00000E+00
 -1      3371 7.36267E+01 1.11996E+01 0.00000E+00
 -1      3372 7.21267E+01 1.11996E+01 0.00000E+00
 -1      3373 7.43759E+01 1.36656E+01 0.00000E+00
 -1      3374 1.34953E+02 1.06756E+01 0.00000E+00
 -1      3375 1.34203E+02 1.18683E+01 0.00000E+00
 -1      3376 1.36120E+02 1.09563E+01 0.00000E+00
 -1      3377 1.16910E+01 1.98188E+01 0.00000E+00
 -1      3378 1.29900E+01 2.05562E+01 0.00000E+00
 -1      3379 1.16910E+01 1.83500E+01 0.00000E+00
 -1      3380 7.75956E+01 1.50201E+01 0.00000E+00
 -1      3381 7.13936E+01 1.33052E+01 0.00000E+00
 -1      3382 1.38309E+02 2.28094E+01 0.00000E+00
 -1      3383 1.38309E+02 2.13344E+01 0.00000E+00
 -1      3384 1.37010E+02 2.06031E+01 0.00000E+00
 -1      3385 1.37010E+02 2.35344E+01 0.00000E+00
 -1      3386 5.51357E+01 3.10103E+01 0.00000E+00
 -1      3387 6.01082E+01 1.49712E+01 0.00000E+00
 -1      3388 1.38129E+02 3.62613E+01 0.00000E+00
 -1      3389 8.30243E+01 2.38570E+01 0.00000E+00
 -1      3390 5.71780E+01 1.67805E+01 0.00000E+00
 -1      3391 5.71356E+01 1.54935E+01 0.00000E+00
 -1      3392 5.58648E+01 1.69369E+01 0.00000E+00
 -1      3393 8.04056E+01 3.56066E+01 0.00000E+00
 -1      3394 5.45441E+01 2.89798E+01 0.00000E+00
 -1      3395 5.47709E+01 2.81736E+01 0.00000E+00
 -1      3396 5.39846E+01 2.74893E+01 0.00000E+00
 -1      3397 8.18882E+01 3.24951E+01 0.00000E+00
 -1      3398 1.38274E+02 1.38503E+01 0.00000E+00
 -1      3399 1.38073E+02 1.16503E+01 0.00000E+00
 -1      3400 1.36905E+02 1.13696E+01 0.00000E+00
 -1      3401 1.36975E+02 1.45815E+01 0.00000E+00
 -1      3402 7.75571E+01 3.92124E+01 0.00000E+00
 -1      3403 5.53282E+01 2.26918E+01 0.00000E+00
 -1      3404 5.44656E+01 2.18692E+01 0.00000E+00
 -1      3405 5.48045E+01 2.33390E+01 0.00000E+00
 -1      3406 8.01938E+01 1.74580E+01 0.00000E+00
 -1      3407 1.69669E+01 1.03515E+01 0.00000E+00
 -1      3408 1.54669E+01 1.03515E+01 0.00000E+00
 -1      3409 1.50806E+01 1.13509E+01 0.00000E+00
 -1      3410 1.77169E+01 1.16505E+01 0.00000E+00
 -1      3411 1.16910E+01 1.54094E+01 0.00000E+00
 -1      3412 1.16910E+01 1.68781E+01 0.00000E+00
 -1      3413 1.29900E+01 1.76156E+01 0.00000E+00
 -1      3414 1.29900E+01 1.46719E+01 0.00000E+00
 -1      3415 6.23688E+01 1.32415E+01 0.00000E+00
 -1      3416 1.36830E+02 3.55363E+01 0.00000E+00
 -1      3417 7.83071E+01 3.79134E+01 0.00000E+00
 -1      3418 8.29249E+01 2.95775E+01 0.00000E+00
 -1      3419 1.16910E+01 3.01219E+01 0.00000E+00
 -1      3420 1.16910E+01 3.15906E+01 0.00000E+00
 -1      3421 1.16910E+01 3.30594E+01 0.00000E+00
 -1      3422 1.16910E+01 3.45281E+01 0.00000E+00
 -1      3423 1.29900E+01 3.23250E+01 0.00000E+00
 -1      3424 8.12850E+01 1.28866E+01 0.00000E+00
 -1      3425 7.97850E+01 1.28866E+01 0.00000E+00
 -1      3426 6.22717E+01 3.88092E+01 0.00000E+00
 -1      3427 2.34000E+01 3.57110E+01 0.00000E+00
 -1      3428 2.49000E+01 3.57110E+01 0.00000E+00
 -1      3429 2.64000E+01 3.57110E+01 0.00000E+00
 -1      3430 2.79000E+01 3.57110E+01 0.00000E+00
 -1      3431 2.56500E+01 3.44120E+01 0.00000E+00
 -1      3432 2.94000E+01 3.57110E+01 0.00000E+00
 -1      3433 3.09000E+01 3.57110E+01 0.00000E+00
 -1      3434 2.86500E+01 3.44120E+01 0.00000E+00
 -1      3435 3.24000E+01 3.57110E+01 0.00000E+00
 -1      3436 3.39000E+01 3.57110E+01 0.00000E+00
 -1      3437 3.16500E+01 3.44120E+01 0.00000E+00
 -1      3438 3.54000E+01 3.57110E+01 0.00000E+00
 -1      3439 3.69000E+01 3.57110E+01 0.00000E+00
 -1      3440 3.46500E+01 3.44120E+01 0.00000E+00
 -1      3441 3.84000E+01 3.57110E+01 0.00000E+00
 -1      3442 3.99000E+01 3.57110E+01 0.00000E+00
 -1      3443 3.76500E+01 3.44120E+01 0.00000E+00
 -1      3444 4.14000E+01 3.57110E+01 0.00000E+00
 -1      3445 4.29000E+01 3.57110E+01 0.00000E+00
 -1      3446 4.06500E+01 3.44120E+01 0.00000E+00
 -1      3447 4.44000E+01 3.57110E+01 0.00000E+00
 -1      3448 4.59000E+01 3.57110E+01 0.00000E+00
 -1      3449 4.36500E+01 3.44120E+01 0.00000E+00
 -1      3450 4.74000E+01 3.57110E+01 0.00000E+00
 -1      3451 4.89000E+01 3.57110E+01 0.00000E+00
 -1      3452 4.66500E+01 3.44120E+01 0.00000E+00
 -1      3453 5.04000E+01 3.57110E+01 0.00000E+00
 -1      3454 5.19000E+01 3.57110E+01 0.00000E+00
 -1      3455 4.96500E+01 3.44120E+01 0.00000E+00
 -1      3456 1.21786E+01 3.60821E+01 0.00000E+00
 -1      3457 6.35685E+01 3.93222E+01 0.00000E+00
 -1      3458 5.40783E+01 2.01234E+01 0.00000E+00
 -1      3459 5.45373E+01 1.86243E+01 0.00000E+00
 -1      3460 8.34000E+01 3.59236E+01 0.00000E+00
 -1      3461 8.49000E+01 3.59236E+01 0.00000E+00
 -1      3462 8.64000E+01 3.59236E+01 0.00000E+00
 -1      3463 8.79000E+01 3.59236E+01 0.00000E+00
 -1      3464 8.56500E+01 3.46246E+01 0.00000E+00
 -1      3465 8.94000E+01 3.59236E+01 0.00000E+00
 -1      3466 9.09000E+01 3.59236E+01 0.00000E+00
 -1      3467 8.86500E+01 3.46246E+01 0.00000E+00
 -1      3468 9.24000E+01 3.59236E+01 0.00000E+00
 -1      3469 9.39000E+01 3.59236E+01 0.00000E+00
 -1      3470 9.16500E+01 3.46246E+01 0.00000E+00
 -1      3471 9.54000E+01 3.59236E+01 0.00000E+00
 -1      3472 9.69000E+01 3.59236E+01 0.00000E+00
 -1      3473 9.46500E+01 3.46246E+01 0.00000E+00
 -1      3474 9.84000E+01 3.59236E+01 0.00000E+00
 -1      3475 9.99000E+01 3.59236E+01 0.00000E+00
 -1      3476 9.76500E+01 3.46246E+01 0.00000E+00
 -1      3477 1.01400E+02 3.59236E+01 0.00000E+00
 -1      3478 1.02900E+02 3.59236E+01 0.00000E+00
 -1      3479 1.00650E+02 3.46246E+01 0.00000E+00
 -1      3480 1.04400E+02 3.59236E+01 0.00000E+00
 -1      3481 1.05900E+02 3.59236E+01 0.00000E+00
 -1      3482 1.03650E+02 3.46246E+01 0.00000E+00
 -1      3483 1.07400E+02 3.59236E+01 0.00000E+00
 -1      3484 1.08900E+02 3.59236E+01 0.00000E+00
 -1      3485 1.06650E+02 3.46246E+01 0.00000E+00
 -1      3486 1.10400E+02 3.59236E+01 0.00000E+00
 -1      3487 1.11900E+02 3.59236E+01 0.00000E+00
 -1      3488 1.09650E+02 3.46246E+01 0.00000E+00
 -1      3489 1.13400E+02 3.59236E+01 0.00000E+00
 -1      3490 1.14900E+02 3.59236E+01 0.00000E+00
 -1      3491 1.12650E+02 3.46246E+01 0.00000E+00
 -1      3492 1.16400E+02 3.59236E+01 0.00000E+00
 -1      3493 1.17900E+02 3.59236E+01 0.00000E+00
 -1      3494 1.15650E+02 3.46246E+01 0.00000E+00
 -1      3495 1.19400E+02 3.59236E+01 0.00000E+00
 -1      3496 1.20900E+02 3.59236E+01 0.00000E+00
 -1      3497 1.18650E+02 3.46246E+01 0.00000E+00
 -1      3498 1.22400E+02 3.59236E+01 0.00000E+00
 -1      3499 1.23900E+02 3.59236E+01 0.00000E+00
 -1      3500 1.21650E+02 3.46246E+01 0.00000E+00
 -1      3501 1.25400E+02 3.59236E+01 0.00000E+00
 -1      3502 1.26900E+02 3.59236E+01 0.00000E+00
 -1      3503 1.24650E+02 3.46246E+01 0.00000E+00
 -1      3504 1.28400E+02 3.59236E+01 0.00000E+00
 -1      3505 1.29900E+02 3.59236E+01 0.00000E+00
 -1      3506 1.27650E+02 3.46246E+01 0.00000E+00
 -1      3507 1.31400E+02 3.59236E+01 0.00000E+00
 -1      3508 1.32900E+02 3.59236E+01 0.00000E+00
 -1      3509 1.30650E+02 3.46246E+01 0.00000E+00
 -1      3510 1.34115E+02 3.57300E+01 0.00000E+00
 -1      3511 1.35615E+02 3.57300E+01 0.00000E+00
 -1      3512 1.35795E+02 3.40437E+01 0.00000E+00
 -1      3513 1.33365E+02 3.44310E+01 0.00000E+00
 -1      3514 8.26985E+01 1.92824E+01 0.00000E+00
 -1      3515 8.35006E+01 2.08913E+01 0.00000E+00
 -1      3516 4.52850E+01 1.30992E+01 0.00000E+00
 -1      3517 4.37850E+01 1.30992E+01 0.00000E+00
 -1      3518 4.22850E+01 1.30992E+01 0.00000E+00
 -1      3519 4.07850E+01 1.30992E+01 0.00000E+00
 -1      3520 4.30350E+01 1.43982E+01 0.00000E+00
 -1      3521 5.12850E+01 1.30992E+01 0.00000E+00
 -1      3522 4.97850E+01 1.30992E+01 0.00000E+00
 -1      3523 5.42850E+01 1.30992E+01 0.00000E+00
 -1      3524 5.27850E+01 1.30992E+01 0.00000E+00
 -1      3525 5.20350E+01 1.43982E+01 0.00000E+00
 -1      3526 5.69287E+01 1.37251E+01 0.00000E+00
 -1      3527 5.54287E+01 1.37251E+01 0.00000E+00
 -1      3528 5.97419E+01 1.35686E+01 0.00000E+00
 -1      3529 5.82419E+01 1.35686E+01 0.00000E+00
 -1      3530 7.60343E+01 1.28610E+01 0.00000E+00
 -1      3531 6.85411E+01 1.28033E+01 0.00000E+00
 -1      3532 7.75343E+01 1.28610E+01 0.00000E+00
 -1      3533 8.72850E+01 1.28866E+01 0.00000E+00
 -1      3534 8.57850E+01 1.28866E+01 0.00000E+00
 -1      3535 9.02850E+01 1.28866E+01 0.00000E+00
 -1      3536 8.87850E+01 1.28866E+01 0.00000E+00
 -1      3537 8.80350E+01 1.41856E+01 0.00000E+00
 -1      3538 9.32850E+01 1.28866E+01 0.00000E+00
 -1      3539 9.17850E+01 1.28866E+01 0.00000E+00
 -1      3540 9.10350E+01 1.41856E+01 0.00000E+00
 -1      3541 9.62850E+01 1.28866E+01 0.00000E+00
 -1      3542 9.47850E+01 1.28866E+01 0.00000E+00
 -1      3543 9.40350E+01 1.41856E+01 0.00000E+00
 -1      3544 9.92850E+01 1.28866E+01 0.00000E+00
 -1      3545 9.77850E+01 1.28866E+01 0.00000E+00
 -1      3546 9.70350E+01 1.41856E+01 0.00000E+00
 -1      3547 1.02285E+02 1.28866E+01 0.00000E+00
 -1      3548 1.00785E+02 1.28866E+01 0.00000E+00
 -1      3549 1.00035E+02 1.41856E+01 0.00000E+00
 -1      3550 1.05285E+02 1.28866E+01 0.00000E+00
 -1      3551 1.03785E+02 1.28866E+01 0.00000E+00
 -1      3552 1.03035E+02 1.41856E+01 0.00000E+00
 -1      3553 1.08285E+02 1.28866E+01 0.00000E+00
 -1      3554 1.06785E+02 1.28866E+01 0.00000E+00
 -1      3555 1.06035E+02 1.41856E+01 0.00000E+00
 -1      3556 1.11285E+02 1.28866E+01 0.00000E+00
 -1      3557 1.09785E+02 1.28866E+01 0.00000E+00
 -1      3558 1.09035E+02 1.41856E+01 0.00000E+00
 -1      3559 1.14285E+02 1.28866E+01 0.00000E+00
 -1      3560 1.12785E+02 1.28866E+01 0.00000E+00
 -1      3561 1.12035E+02 1.41856E+01 0.00000E+00
 -1      3562 1.17285E+02 1.28866E+01 0.00000E+00
 -1      3563 1.15785E+02 1.28866E+01 0.00000E+00
 -1      3564 1.15035E+02 1.41856E+01 0.00000E+00
 -1      3565 1.20285E+02 1.28866E+01 0.00000E+00
 -1      3566 1.18785E+02 1.28866E+01 0.00000E+00
 -1      3567 1.18035E+02 1.41856E+01 0.00000E+00
 -1      3568 1.23285E+02 1.28866E+01 0.00000E+00
 -1      3569 1.21785E+02 1.28866E+01 0.00000E+00
 -1      3570 1.21035E+02 1.41856E+01 0.00000E+00
 -1      3571 1.26285E+02 1.28866E+01 0.00000E+00
 -1      3572 1.24785E+02 1.28866E+01 0.00000E+00
 -1      3573 1.24035E+02 1.41856E+01 0.00000E+00
 -1      3574 1.29285E+02 1.28866E+01 0.00000E+00
 -1      3575 1.27785E+02 1.28866E+01 0.00000E+00
 -1      3576 1.27035E+02 1.41856E+01 0.00000E+00
 -1      3577 1.32285E+02 1.28866E+01 0.00000E+00
 -1      3578 1.30785E+02 1.28866E+01 0.00000E+00
 -1      3579 1.30035E+02 1.41856E+01 0.00000E+00
 -1      3580 5.40238E+01 3.15368E+01 0.00000E+00
 -1      3581 5.42184E+01 3.01905E+01 0.00000E+00
 -1      3582 1.35711E+02 3.01625E+01 0.00000E+00
 -1      3583 1.35711E+02 2.86875E+01 0.00000E+00
 -1      3584 1.35711E+02 2.72125E+01 0.00000E+00
 -1      3585 1.35711E+02 2.57375E+01 0.00000E+00
 -1      3586 1.34412E+02 2.79500E+01 0.00000E+00
 -1      3587 5.61415E+01 3.40169E+01 0.00000E+00
 -1      3588 5.50621E+01 3.35339E+01 0.00000E+00
 -1      3589 8.05980E+01 1.60663E+01 0.00000E+00
 -1      3590 8.16342E+01 1.76183E+01 0.00000E+00
 -1      3591 8.41633E+01 2.91024E+01 0.00000E+00
 -1      3592 8.38535E+01 3.05246E+01 0.00000E+00
 -1      3593 2.12850E+01 1.30992E+01 0.00000E+00
 -1      3594 1.97850E+01 1.30992E+01 0.00000E+00
 -1      3595 8.42850E+01 1.28866E+01 0.00000E+00
 -1      3596 8.27850E+01 1.28866E+01 0.00000E+00
 -1      3597 8.20350E+01 1.41856E+01 0.00000E+00
 -1      3598 8.50350E+01 1.41856E+01 0.00000E+00
 -1      3599 1.74000E+01 3.57110E+01 0.00000E+00
 -1      3600 1.89000E+01 3.57110E+01 0.00000E+00
 -1      3601 8.31737E+01 3.21955E+01 0.00000E+00
 -1      3602 8.24467E+01 3.36910E+01 0.00000E+00
 -1      3603 3.32850E+01 1.30992E+01 0.00000E+00
 -1      3604 3.17850E+01 1.30992E+01 0.00000E+00
 -1      3605 1.16910E+01 2.71844E+01 0.00000E+00
 -1      3606 1.16910E+01 2.86531E+01 0.00000E+00
 -1      3607 1.29900E+01 2.93875E+01 0.00000E+00
 -1      3608 8.19056E+01 3.56066E+01 0.00000E+00
 -1      3609 2.04000E+01 3.57110E+01 0.00000E+00
 -1      3610 2.19000E+01 3.57110E+01 0.00000E+00
 -1      3611 2.26500E+01 3.44120E+01 0.00000E+00
 -1      3612 4.82850E+01 1.30992E+01 0.00000E+00
 -1      3613 4.67850E+01 1.30992E+01 0.00000E+00
 -1      3614 4.60350E+01 1.43982E+01 0.00000E+00
 -1      3615 4.90350E+01 1.43982E+01 0.00000E+00
 -1      3616 8.44121E+01 2.61443E+01 0.00000E+00
 -1      3617 8.44222E+01 2.74790E+01 0.00000E+00
 -1      3618 5.59833E+01 3.51136E+01 0.00000E+00
 -1      3619 1.35753E+02 3.28406E+01 0.00000E+00
 -1      3620 1.35753E+02 3.13656E+01 0.00000E+00
 -1      3621 1.34454E+02 3.06281E+01 0.00000E+00
 -1      3622 1.34538E+02 3.30342E+01 0.00000E+00
 -1      3623 8.41140E+01 2.29043E+01 0.00000E+00
 -1      3624 8.43040E+01 2.45333E+01 0.00000E+00
 -1      3625 5.40195E+01 3.42359E+01 0.00000E+00
 -1      3626 5.38985E+01 3.30586E+01 0.00000E+00
 -1      3627 1.42890E+01 1.39359E+01 0.00000E+00
 -1      3628 1.42890E+01 1.54078E+01 0.00000E+00
 -1      3629 5.31213E+01 2.65461E+01 0.00000E+00
 -1      3630 5.29309E+01 2.57786E+01 0.00000E+00
 -1      3631 1.60576E+01 3.56568E+01 0.00000E+00
 -1      3632 1.68076E+01 3.43578E+01 0.00000E+00
 -1      3633 1.47152E+01 3.56027E+01 0.00000E+00
 -1      3634 5.20029E+01 3.40863E+01 0.00000E+00
 -1      3635 5.27529E+01 3.53853E+01 0.00000E+00
 -1      3636 7.22683E+01 3.94142E+01 0.00000E+00
 -1      3637 5.35546E+01 2.07705E+01 0.00000E+00
 -1      3638 5.26437E+01 1.96718E+01 0.00000E+00
 -1      3639 5.30309E+01 2.14177E+01 0.00000E+00
 -1      3640 2.65350E+01 1.18003E+01 0.00000E+00
 -1      3641 8.55017E+01 2.51916E+01 0.00000E+00
 -1      3642 3.02850E+01 1.30992E+01 0.00000E+00
 -1      3643 2.87850E+01 1.30992E+01 0.00000E+00
 -1      3644 3.10350E+01 1.43982E+01 0.00000E+00
 -1      3645 1.48779E+01 1.21437E+01 0.00000E+00
 -1      3646 1.44917E+01 1.31431E+01 0.00000E+00
 -1      3647 1.57907E+01 1.38791E+01 0.00000E+00
 -1      3648 1.61961E+01 1.22935E+01 0.00000E+00
 -1      3649 8.53509E+01 2.84260E+01 0.00000E+00
 -1      3650 4.00350E+01 1.43982E+01 0.00000E+00
 -1      3651 3.92850E+01 1.30992E+01 0.00000E+00
 -1      3652 3.77850E+01 1.30992E+01 0.00000E+00
 -1      3653 5.46787E+01 1.50241E+01 0.00000E+00
 -1      3654 5.29812E+01 3.22388E+01 0.00000E+00
 -1      3655 3.47850E+01 1.30992E+01 0.00000E+00
 -1      3656 3.40350E+01 1.43982E+01 0.00000E+00
 -1      3657 3.62850E+01 1.30992E+01 0.00000E+00
 -1      3658 8.47803E+01 2.15677E+01 0.00000E+00
 -1      3659 8.60600E+01 2.22440E+01 0.00000E+00
 -1      3660 8.54466E+01 2.02310E+01 0.00000E+00
 -1      3661 5.34322E+01 2.95063E+01 0.00000E+00
 -1      3662 1.33453E+02 1.31673E+01 0.00000E+00
 -1      3663 1.32703E+02 1.44663E+01 0.00000E+00
 -1      3664 1.34620E+02 1.34480E+01 0.00000E+00
 -1      3665 1.36155E+02 1.25623E+01 0.00000E+00
 -1      3666 7.98463E+01 1.50458E+01 0.00000E+00
 -1      3667 8.12867E+01 1.52061E+01 0.00000E+00
 -1      3668 1.42890E+01 1.98219E+01 0.00000E+00
 -1      3669 1.42890E+01 2.12906E+01 0.00000E+00
 -1      3670 1.35711E+02 1.84000E+01 0.00000E+00
 -1      3671 1.35711E+02 1.69250E+01 0.00000E+00
 -1      3672 1.42890E+01 2.27656E+01 0.00000E+00
 -1      3673 1.42890E+01 2.42406E+01 0.00000E+00
 -1      3674 1.55880E+01 2.20313E+01 0.00000E+00
 -1      3675 1.34412E+02 2.50094E+01 0.00000E+00
 -1      3676 1.35711E+02 2.42719E+01 0.00000E+00
 -1      3677 1.35711E+02 2.28062E+01 0.00000E+00
 -1      3678 8.31027E+01 1.78906E+01 0.00000E+00
 -1      3679 5.46292E+01 1.74677E+01 0.00000E+00
 -1      3680 5.45868E+01 1.61807E+01 0.00000E+00
 -1      3681 5.34431E+01 1.55549E+01 0.00000E+00
 -1      3682 5.32593E+01 1.78681E+01 0.00000E+00
 -1      3683 8.44120E+01 3.17205E+01 0.00000E+00
 -1      3684 2.42850E+01 1.30992E+01 0.00000E+00
 -1      3685 2.27850E+01 1.30992E+01 0.00000E+00
 -1      3686 2.20350E+01 1.43982E+01 0.00000E+00
 -1      3687 1.90350E+01 1.43983E+01 0.00000E+00
 -1      3688 1.82850E+01 1.30993E+01 0.00000E+00
 -1      3689 6.14013E+01 1.32029E+01 0.00000E+00
 -1      3690 5.38863E+01 2.38322E+01 0.00000E+00
 -1      3691 1.96500E+01 3.44120E+01 0.00000E+00
 -1      3692 1.69669E+01 1.29495E+01 0.00000E+00
 -1      3693 1.42890E+01 2.86531E+01 0.00000E+00
 -1      3694 1.42890E+01 3.01219E+01 0.00000E+00
 -1      3695 1.29900E+01 2.64469E+01 0.00000E+00
 -1      3696 7.90963E+01 1.37468E+01 0.00000E+00
 -1      3697 5.28945E+01 2.73523E+01 0.00000E+00
 -1      3698 1.34141E+02 1.62048E+01 0.00000E+00
 -1      3699 1.35440E+02 1.54673E+01 0.00000E+00
 -1      3700 1.55266E+01 3.18456E+01 0.00000E+00
 -1      3701 1.42276E+01 3.25800E+01 0.00000E+00
 -1      3702 5.20867E+01 2.50933E+01 0.00000E+00
 -1      3703 5.29865E+01 2.44628E+01 0.00000E+00
 -1      3704 5.30421E+01 2.31470E+01 0.00000E+00
 -1      3705 5.08891E+01 3.34883E+01 0.00000E+00
 -1      3706 5.17421E+01 3.31626E+01 0.00000E+00
 -1      3707 5.18674E+01 3.16408E+01 0.00000E+00
 -1      3708 4.93891E+01 3.34883E+01 0.00000E+00
 -1      3709 1.89000E+01 3.31130E+01 0.00000E+00
 -1      3710 2.04000E+01 3.31130E+01 0.00000E+00
 -1      3711 2.79000E+01 3.31130E+01 0.00000E+00
 -1      3712 2.94000E+01 3.31130E+01 0.00000E+00
 -1      3713 3.09000E+01 3.31130E+01 0.00000E+00
 -1      3714 3.24000E+01 3.31130E+01 0.00000E+00
 -1      3715 3.01500E+01 3.18140E+01 0.00000E+00
 -1      3716 3.39000E+01 3.31130E+01 0.00000E+00
 -1      3717 3.54000E+01 3.31130E+01 0.00000E+00
 -1      3718 3.31500E+01 3.18140E+01 0.00000E+00
 -1      3719 3.69000E+01 3.31130E+01 0.00000E+00
 -1      3720 3.84000E+01 3.31130E+01 0.00000E+00
 -1      3721 3.61500E+01 3.18140E+01 0.00000E+00
 -1      3722 3.99000E+01 3.31130E+01 0.00000E+00
 -1      3723 4.14000E+01 3.31130E+01 0.00000E+00
 -1      3724 3.91500E+01 3.18140E+01 0.00000E+00
 -1      3725 4.29000E+01 3.31130E+01 0.00000E+00
 -1      3726 4.44000E+01 3.31130E+01 0.00000E+00
 -1      3727 4.21500E+01 3.18140E+01 0.00000E+00
 -1      3728 4.59000E+01 3.31130E+01 0.00000E+00
 -1      3729 4.74000E+01 3.31130E+01 0.00000E+00
 -1      3730 4.51500E+01 3.18140E+01 0.00000E+00
 -1      3731 1.34776E+01 3.53477E+01 0.00000E+00
 -1      3732 5.39165E+01 3.58605E+01 0.00000E+00
 -1      3733 4.37850E+01 1.56973E+01 0.00000E+00
 -1      3734 4.22850E+01 1.56973E+01 0.00000E+00
 -1      3735 8.79000E+01 3.33256E+01 0.00000E+00
 -1      3736 8.94000E+01 3.33256E+01 0.00000E+00
 -1      3737 9.09000E+01 3.33256E+01 0.00000E+00
 -1      3738 9.24000E+01 3.33256E+01 0.00000E+00
 -1      3739 9.01500E+01 3.20266E+01 0.00000E+00
 -1      3740 9.39000E+01 3.33256E+01 0.00000E+00
 -1      3741 9.54000E+01 3.33256E+01 0.00000E+00
 -1      3742 9.31500E+01 3.20266E+01 0.00000E+00
 -1      3743 9.69000E+01 3.33256E+01 0.00000E+00
 -1      3744 9.84000E+01 3.33256E+01 0.00000E+00
 -1      3745 9.61500E+01 3.20266E+01 0.00000E+00
 -1      3746 9.99000E+01 3.33256E+01 0.00000E+00
 -1      3747 1.01400E+02 3.33256E+01 0.00000E+00
 -1      3748 9.91500E+01 3.20266E+01 0.00000E+00
 -1      3749 1.02900E+02 3.33256E+01 0.00000E+00
 -1      3750 1.04400E+02 3.33256E+01 0.00000E+00
 -1      3751 1.02150E+02 3.20266E+01 0.00000E+00
 -1      3752 1.05900E+02 3.33256E+01 0.00000E+00
 -1      3753 1.07400E+02 3.33256E+01 0.00000E+00
 -1      3754 1.05150E+02 3.20266E+01 0.00000E+00
 -1      3755 1.08900E+02 3.33256E+01 0.00000E+00
 -1      3756 1.10400E+02 3.33256E+01 0.00000E+00
 -1      3757 1.08150E+02 3.20266E+01 0.00000E+00
 -1      3758 1.11900E+02 3.33256E+01 0.00000E+00
 -1      3759 1.13400E+02 3.33256E+01 0.00000E+00
 -1      3760 1.11150E+02 3.20266E+01 0.00000E+00
 -1      3761 1.14900E+02 3.33256E+01 0.00000E+00
 -1      3762 1.16400E+02 3.33256E+01 0.00000E+00
 -1      3763 1.14150E+02 3.20266E+01 0.00000E+00
 -1      3764 1.17900E+02 3.33256E+01 0.00000E+00
 -1      3765 1.19400E+02 3.33256E+01 0.00000E+00
 -1      3766 1.17150E+02 3.20266E+01 0.00000E+00
 -1      3767 1.20900E+02 3.33256E+01 0.00000E+00
 -1      3768 1.22400E+02 3.33256E+01 0.00000E+00
 -1      3769 1.20150E+02 3.20266E+01 0.00000E+00
 -1      3770 1.23900E+02 3.33256E+01 0.00000E+00
 -1      3771 1.25400E+02 3.33256E+01 0.00000E+00
 -1      3772 1.23150E+02 3.20266E+01 0.00000E+00
 -1      3773 1.26900E+02 3.33256E+01 0.00000E+00
 -1      3774 1.28400E+02 3.33256E+01 0.00000E+00
 -1      3775 1.26150E+02 3.20266E+01 0.00000E+00
 -1      3776 1.29900E+02 3.33256E+01 0.00000E+00
 -1      3777 1.31400E+02 3.33256E+01 0.00000E+00
 -1      3778 1.29150E+02 3.20266E+01 0.00000E+00
 -1      3779 1.32361E+02 3.32767E+01 0.00000E+00
 -1      3780 1.33577E+02 3.30831E+01 0.00000E+00
 -1      3781 1.33535E+02 3.18800E+01 0.00000E+00
 -1      3782 1.31611E+02 3.19777E+01 0.00000E+00
 -1      3783 1.35405E+02 1.38613E+01 0.00000E+00
 -1      3784 5.19431E+01 1.55549E+01 0.00000E+00
 -1      3785 1.35711E+02 1.98656E+01 0.00000E+00
 -1      3786 1.34412E+02 1.91281E+01 0.00000E+00
 -1      3787 1.35711E+02 2.13312E+01 0.00000E+00
 -1      3788 9.47850E+01 1.54846E+01 0.00000E+00
 -1      3789 9.32850E+01 1.54846E+01 0.00000E+00
 -1      3790 9.17850E+01 1.54846E+01 0.00000E+00
 -1      3791 9.02850E+01 1.54846E+01 0.00000E+00
 -1      3792 9.25350E+01 1.67836E+01 0.00000E+00
 -1      3793 8.87850E+01 1.54846E+01 0.00000E+00
 -1      3794 8.72850E+01 1.54846E+01 0.00000E+00
 -1      3795 8.95350E+01 1.67836E+01 0.00000E+00
 -1      3796 9.77850E+01 1.54846E+01 0.00000E+00
 -1      3797 9.62850E+01 1.54846E+01 0.00000E+00
 -1      3798 9.55350E+01 1.67836E+01 0.00000E+00
 -1      3799 1.00785E+02 1.54846E+01 0.00000E+00
 -1      3800 9.92850E+01 1.54846E+01 0.00000E+00
 -1      3801 9.85350E+01 1.67836E+01 0.00000E+00
 -1      3802 1.03785E+02 1.54846E+01 0.00000E+00
 -1      3803 1.02285E+02 1.54846E+01 0.00000E+00
 -1      3804 1.01535E+02 1.67836E+01 0.00000E+00
 -1      3805 1.06785E+02 1.54846E+01 0.00000E+00
 -1      3806 1.05285E+02 1.54846E+01 0.00000E+00
 -1      3807 1.04535E+02 1.67836E+01 0.00000E+00
 -1      3808 1.09785E+02 1.54846E+01 0.00000E+00
 -1      3809 1.08285E+02 1.54846E+01 0.00000E+00
 -1      3810 1.07535E+02 1.67836E+01 0.00000E+00
 -1      3811 1.12785E+02 1.54846E+01 0.00000E+00
 -1      3812 1.11285E+02 1.54846E+01 0.00000E+00
 -1      3813 1.10535E+02 1.67836E+01 0.00000E+00
 -1      3814 1.15785E+02 1.54846E+01 0.00000E+00
 -1      3815 1.14285E+02 1.54846E+01 0.00000E+00
 -1      3816 1.13535E+02 1.67836E+01 0.00000E+00
 -1      3817 1.18785E+02 1.54846E+01 0.00000E+00
 -1      3818 1.17285E+02 1.54846E+01 0.00000E+00
 -1      3819 1.16535E+02 1.67836E+01 0.00000E+00
 -1      3820 1.21785E+02 1.54846E+01 0.00000E+00
 -1      3821 1.20285E+02 1.54846E+01 0.00000E+00
 -1      3822 1.19535E+02 1.67836E+01 0.00000E+00
 -1      3823 1.24785E+02 1.54846E+01 0.00000E+00
 -1      3824 1.23285E+02 1.54846E+01 0.00000E+00
 -1      3825 1.22535E+02 1.67836E+01 0.00000E+00
 -1      3826 1.27785E+02 1.54846E+01 0.00000E+00
 -1      3827 1.26285E+02 1.54846E+01 0.00000E+00
 -1      3828 1.25535E+02 1.67836E+01 0.00000E+00
 -1      3829 1.30785E+02 1.54846E+01 0.00000E+00
 -1      3830 1.29285E+02 1.54846E+01 0.00000E+00
 -1      3831 1.28535E+02 1.67836E+01 0.00000E+00
 -1      3832 1.42276E+01 3.40487E+01 0.00000E+00
 -1      3833 2.72850E+01 1.30992E+01 0.00000E+00
 -1      3834 2.57850E+01 1.30992E+01 0.00000E+00
 -1      3835 2.50350E+01 1.43982E+01 0.00000E+00
 -1      3836 8.36648E+01 1.63587E+01 0.00000E+00
 -1      3837 8.47291E+01 1.80228E+01 0.00000E+00
 -1      3838 1.42890E+01 1.68789E+01 0.00000E+00
 -1      3839 1.42890E+01 1.83508E+01 0.00000E+00
 -1      3840 1.55880E+01 1.90852E+01 0.00000E+00
 -1      3841 1.55880E+01 1.61430E+01 0.00000E+00
 -1      3842 5.22432E+01 2.97738E+01 0.00000E+00
 -1      3843 5.25688E+01 2.85630E+01 0.00000E+00
 -1      3844 5.17055E+01 2.76198E+01 0.00000E+00
 -1      3845 1.97850E+01 1.56973E+01 0.00000E+00
 -1      3846 1.82851E+01 1.56973E+01 0.00000E+00
 -1      3847 1.33047E+02 1.59850E+01 0.00000E+00
 -1      3848 1.31879E+02 1.57044E+01 0.00000E+00
 -1      3849 1.31129E+02 1.70034E+01 0.00000E+00
 -1      3850 1.33318E+02 1.74428E+01 0.00000E+00
 -1      3851 1.42890E+01 2.57109E+01 0.00000E+00
 -1      3852 1.42890E+01 2.71828E+01 0.00000E+00
 -1      3853 1.55880E+01 2.79172E+01 0.00000E+00
 -1      3854 1.55880E+01 2.49766E+01 0.00000E+00
 -1      3855 1.33113E+02 2.86875E+01 0.00000E+00
 -1      3856 1.33113E+02 2.72125E+01 0.00000E+00
 -1      3857 8.27867E+01 1.52061E+01 0.00000E+00
 -1      3858 2.49000E+01 3.31130E+01 0.00000E+00
 -1      3859 2.64000E+01 3.31130E+01 0.00000E+00
 -1      3860 2.71500E+01 3.18140E+01 0.00000E+00
 -1      3861 2.19000E+01 3.31130E+01 0.00000E+00
 -1      3862 2.34000E+01 3.31130E+01 0.00000E+00
 -1      3863 2.41500E+01 3.18140E+01 0.00000E+00
 -1      3864 8.26556E+01 3.43076E+01 0.00000E+00
 -1      3865 8.66581E+01 2.78021E+01 0.00000E+00
 -1      3866 8.63992E+01 2.94256E+01 0.00000E+00
 -1      3867 8.67438E+01 2.42992E+01 0.00000E+00
 -1      3868 8.68519E+01 2.59101E+01 0.00000E+00
 -1      3869 8.58567E+01 3.13345E+01 0.00000E+00
 -1      3870 8.51768E+01 3.30054E+01 0.00000E+00
 -1      3871 5.09510E+01 2.57044E+01 0.00000E+00
 -1      3872 5.10066E+01 2.43886E+01 0.00000E+00
 -1      3873 4.86391E+01 3.21893E+01 0.00000E+00
 -1      3874 1.65421E+01 3.24522E+01 0.00000E+00
 -1      3875 1.78845E+01 3.25064E+01 0.00000E+00
 -1      3876 1.86345E+01 3.12074E+01 0.00000E+00
 -1      3877 1.66035E+01 2.99941E+01 0.00000E+00
 -1      3878 4.67850E+01 1.56973E+01 0.00000E+00
 -1      3879 4.52850E+01 1.56973E+01 0.00000E+00
 -1      3880 4.45350E+01 1.69963E+01 0.00000E+00
 -1      3881 5.06253E+01 2.69151E+01 0.00000E+00
 -1      3882 4.95452E+01 2.62104E+01 0.00000E+00
 -1      3883 5.02997E+01 2.81259E+01 0.00000E+00
 -1      3884 2.11500E+01 3.18140E+01 0.00000E+00
 -1      3885 8.53858E+01 3.36220E+01 0.00000E+00
 -1      3886 8.68858E+01 3.36220E+01 0.00000E+00
 -1      3887 8.71640E+01 3.07106E+01 0.00000E+00
 -1      3888 5.21311E+01 2.20483E+01 0.00000E+00
 -1      3889 8.76358E+01 3.23230E+01 0.00000E+00
 -1      3890 3.17850E+01 1.56973E+01 0.00000E+00
 -1      3891 3.02850E+01 1.56973E+01 0.00000E+00
 -1      3892 2.80350E+01 1.43982E+01 0.00000E+00
 -1      3893 4.07850E+01 1.56973E+01 0.00000E+00
 -1      3894 3.92850E+01 1.56973E+01 0.00000E+00
 -1      3895 4.15350E+01 1.69963E+01 0.00000E+00
 -1      3896 1.68870E+01 2.12938E+01 0.00000E+00
 -1      3897 1.68870E+01 2.27687E+01 0.00000E+00
 -1      3898 1.34412E+02 2.20688E+01 0.00000E+00
 -1      3899 3.70350E+01 1.43982E+01 0.00000E+00
 -1      3900 8.61010E+01 1.81692E+01 0.00000E+00
 -1      3901 8.73806E+01 1.88455E+01 0.00000E+00
 -1      3902 8.59132E+01 1.53382E+01 0.00000E+00
 -1      3903 8.44132E+01 1.53382E+01 0.00000E+00
 -1      3904 3.32850E+01 1.56973E+01 0.00000E+00
 -1      3905 3.25350E+01 1.69963E+01 0.00000E+00
 -1      3906 3.47850E+01 1.56973E+01 0.00000E+00
 -1      3907 5.10040E+01 3.06975E+01 0.00000E+00
 -1      3908 1.33113E+02 2.57469E+01 0.00000E+00
 -1      3909 1.33113E+02 2.42813E+01 0.00000E+00
 -1      3910 1.31814E+02 2.64844E+01 0.00000E+00
 -1      3911 1.33492E+02 3.06769E+01 0.00000E+00
 -1      3912 1.33318E+02 1.89084E+01 0.00000E+00
 -1      3913 1.32223E+02 1.86887E+01 0.00000E+00
 -1      3914 1.33318E+02 2.03740E+01 0.00000E+00
 -1      3915 2.12850E+01 1.56973E+01 0.00000E+00
 -1      3916 2.05351E+01 1.69963E+01 0.00000E+00
 -1      3917 2.27850E+01 1.56973E+01 0.00000E+00
 -1      3918 5.17593E+01 1.78681E+01 0.00000E+00
 -1      3919 5.18512E+01 1.67115E+01 0.00000E+00
 -1      3920 5.04431E+01 1.55549E+01 0.00000E+00
 -1      3921 8.80764E+01 2.16259E+01 0.00000E+00
 -1      3922 8.74101E+01 2.29625E+01 0.00000E+00
 -1      3923 8.87602E+01 2.36811E+01 0.00000E+00
 -1      3924 1.66035E+01 2.70535E+01 0.00000E+00
 -1      3925 1.66035E+01 2.85238E+01 0.00000E+00
 -1      3926 1.76190E+01 2.91304E+01 0.00000E+00
 -1      3927 4.89431E+01 1.55549E+01 0.00000E+00
 -1      3928 8.39411E+01 3.40080E+01 0.00000E+00
 -1      3929 1.73115E+01 1.87763E+01 0.00000E+00
 -1      3930 1.86105E+01 1.95138E+01 0.00000E+00
 -1      3931 1.32193E+02 2.99394E+01 0.00000E+00
 -1      3932 8.79002E+01 2.69097E+01 0.00000E+00
 -1      3933 4.98597E+01 2.32705E+01 0.00000E+00
 -1      3934 5.09954E+01 2.26594E+01 0.00000E+00
 -1      3935 5.09843E+01 2.09301E+01 0.00000E+00
 -1      3936 4.90149E+01 3.03223E+01 0.00000E+00
 -1      3937 4.81931E+01 1.68539E+01 0.00000E+00
 -1      3938 2.34000E+01 3.05150E+01 0.00000E+00
 -1      3939 2.49000E+01 3.05150E+01 0.00000E+00
 -1      3940 1.86345E+01 2.97371E+01 0.00000E+00
 -1      3941 1.96500E+01 3.03437E+01 0.00000E+00
 -1      3942 1.86345E+01 2.82668E+01 0.00000E+00
 -1      3943 3.24000E+01 3.05150E+01 0.00000E+00
 -1      3944 3.39000E+01 3.05150E+01 0.00000E+00
 -1      3945 3.54000E+01 3.05150E+01 0.00000E+00
 -1      3946 3.69000E+01 3.05150E+01 0.00000E+00
 -1      3947 3.46500E+01 2.92160E+01 0.00000E+00
 -1      3948 3.84000E+01 3.05150E+01 0.00000E+00
 -1      3949 3.99000E+01 3.05150E+01 0.00000E+00
 -1      3950 3.76500E+01 2.92160E+01 0.00000E+00
 -1      3951 4.14000E+01 3.05150E+01 0.00000E+00
 -1      3952 4.29000E+01 3.05150E+01 0.00000E+00
 -1      3953 4.06500E+01 2.92160E+01 0.00000E+00
 -1      3954 4.44000E+01 3.05150E+01 0.00000E+00
 -1      3955 4.59000E+01 3.05150E+01 0.00000E+00
 -1      3956 4.36500E+01 2.92160E+01 0.00000E+00
 -1      3957 8.81782E+01 3.04142E+01 0.00000E+00
 -1      3958 2.87850E+01 1.56973E+01 0.00000E+00
 -1      3959 2.72850E+01 1.56973E+01 0.00000E+00
 -1      3960 2.95350E+01 1.69963E+01 0.00000E+00
 -1      3961 9.24000E+01 3.07276E+01 0.00000E+00
 -1      3962 9.39000E+01 3.07276E+01 0.00000E+00
 -1      3963 9.54000E+01 3.07276E+01 0.00000E+00
 -1      3964 9.69000E+01 3.07276E+01 0.00000E+00
 -1      3965 9.46500E+01 2.94286E+01 0.00000E+00
 -1      3966 9.84000E+01 3.07276E+01 0.00000E+00
 -1      3967 9.99000E+01 3.07276E+01 0.00000E+00
 -1      3968 9.76500E+01 2.94286E+01 0.00000E+00
 -1      3969 1.01400E+02 3.07276E+01 0.00000E+00
 -1      3970 1.02900E+02 3.07276E+01 0.00000E+00
 -1      3971 1.00650E+02 2.94286E+01 0.00000E+00
 -1      3972 1.04400E+02 3.07276E+01 0.00000E+00
 -1      3973 1.05900E+02 3.07276E+01 0.00000E+00
 -1      3974 1.03650E+02 2.94286E+01 0.00000E+00
 -1      3975 1.07400E+02 3.07276E+01 0.00000E+00
 -1      3976 1.08900E+02 3.07276E+01 0.00000E+00
 -1      3977 1.06650E+02 2.94286E+01 0.00000E+00
 -1      3978 1.10400E+02 3.07276E+01 0.00000E+00
 -1      3979 1.11900E+02 3.07276E+01 0.00000E+00
 -1      3980 1.09650E+02 2.94286E+01 0.00000E+00
 -1      3981 1.13400E+02 3.07276E+01 0.00000E+00
 -1      3982 1.14900E+02 3.07276E+01 0.00000E+00
 -1      3983 1.12650E+02 2.94286E+01 0.00000E+00
 -1      3984 1.16400E+02 3.07276E+01 0.00000E+00
 -1      3985 1.17900E+02 3.07276E+01 0.00000E+00
 -1      3986 1.15650E+02 2.94286E+01 0.00000E+00
 -1      3987 1.19400E+02 3.07276E+01 0.00000E+00
 -1      3988 1.20900E+02 3.07276E+01 0.00000E+00
 -1      3989 1.18650E+02 2.94286E+01 0.00000E+00
 -1      3990 1.22400E+02 3.07276E+01 0.00000E+00
 -1      3991 1.23900E+02 3.07276E+01 0.00000E+00
 -1      3992 1.21650E+02 2.94286E+01 0.00000E+00
 -1      3993 1.25400E+02 3.07276E+01 0.00000E+00
 -1      3994 1.26900E+02 3.07276E+01 0.00000E+00
 -1      3995 1.24650E+02 2.94286E+01 0.00000E+00
 -1      3996 9.32850E+01 1.80826E+01 0.00000E+00
 -1      3997 9.17850E+01 1.80826E+01 0.00000E+00
 -1      3998 1.33215E+02 2.30651E+01 0.00000E+00
 -1      3999 1.33215E+02 2.15901E+01 0.00000E+00
 -1      4000 1.32121E+02 2.13704E+01 0.00000E+00
 -1      4001 1.31916E+02 2.38026E+01 0.00000E+00
 -1      4002 8.66632E+01 1.66372E+01 0.00000E+00
 -1      4003 9.92850E+01 1.80826E+01 0.00000E+00
 -1      4004 9.77850E+01 1.80826E+01 0.00000E+00
 -1      4005 9.62850E+01 1.80826E+01 0.00000E+00
 -1      4006 9.47850E+01 1.80826E+01 0.00000E+00
 -1      4007 9.70350E+01 1.93816E+01 0.00000E+00
 -1      4008 2.07750E+01 3.04293E+01 0.00000E+00
 -1      4009 2.22750E+01 3.04293E+01 0.00000E+00
 -1      4010 2.30250E+01 2.91303E+01 0.00000E+00
 -1      4011 2.07750E+01 2.89590E+01 0.00000E+00
 -1      4012 1.02285E+02 1.80826E+01 0.00000E+00
 -1      4013 1.00785E+02 1.80826E+01 0.00000E+00
 -1      4014 1.00035E+02 1.93816E+01 0.00000E+00
 -1      4015 1.05285E+02 1.80826E+01 0.00000E+00
 -1      4016 1.03785E+02 1.80826E+01 0.00000E+00
 -1      4017 1.03035E+02 1.93816E+01 0.00000E+00
 -1      4018 1.08285E+02 1.80826E+01 0.00000E+00
 -1      4019 1.06785E+02 1.80826E+01 0.00000E+00
 -1      4020 1.06035E+02 1.93816E+01 0.00000E+00
 -1      4021 1.11285E+02 1.80826E+01 0.00000E+00
 -1      4022 1.09785E+02 1.80826E+01 0.00000E+00
 -1      4023 1.09035E+02 1.93816E+01 0.00000E+00
 -1      4024 1.14285E+02 1.80826E+01 0.00000E+00
 -1      4025 1.12785E+02 1.80826E+01 0.00000E+00
 -1      4026 1.12035E+02 1.93816E+01 0.00000E+00
 -1      4027 1.17285E+02 1.80826E+01 0.00000E+00
 -1      4028 1.15785E+02 1.80826E+01 0.00000E+00
 -1      4029 1.15035E+02 1.93816E+01 0.00000E+00
 -1      4030 1.20285E+02 1.80826E+01 0.00000E+00
 -1      4031 1.18785E+02 1.80826E+01 0.00000E+00
 -1      4032 1.18035E+02 1.93816E+01 0.00000E+00
 -1      4033 1.23285E+02 1.80826E+01 0.00000E+00
 -1      4034 1.21785E+02 1.80826E+01 0.00000E+00
 -1      4035 1.21035E+02 1.93816E+01 0.00000E+00
 -1      4036 1.26285E+02 1.80826E+01 0.00000E+00
 -1      4037 1.24785E+02 1.80826E+01 0.00000E+00
 -1      4038 1.24035E+02 1.93816E+01 0.00000E+00
 -1      4039 1.29285E+02 1.80826E+01 0.00000E+00
 -1      4040 1.27785E+02 1.80826E+01 0.00000E+00
 -1      4041 1.27035E+02 1.93816E+01 0.00000E+00
 -1      4042 1.68870E+01 2.42391E+01 0.00000E+00
 -1      4043 1.68870E+01 2.57094E+01 0.00000E+00
 -1      4044 1.81860E+01 2.35016E+01 0.00000E+00
 -1      4045 1.73115E+01 1.58341E+01 0.00000E+00
 -1      4046 1.73115E+01 1.73052E+01 0.00000E+00
 -1      4047 3.77850E+01 1.56973E+01 0.00000E+00
 -1      4048 3.62850E+01 1.56973E+01 0.00000E+00
 -1      4049 3.55350E+01 1.69963E+01 0.00000E+00
 -1      4050 3.85350E+01 1.69963E+01 0.00000E+00
 -1      4051 5.16388E+01 1.94501E+01 0.00000E+00
 -1      4052 5.02307E+01 1.82935E+01 0.00000E+00
 -1      4053 1.31301E+02 1.84955E+01 0.00000E+00
 -1      4054 1.30207E+02 1.82758E+01 0.00000E+00
 -1      4055 1.29457E+02 1.95748E+01 0.00000E+00
 -1      4056 1.31301E+02 1.99612E+01 0.00000E+00
 -1      4057 2.64000E+01 3.05150E+01 0.00000E+00
 -1      4058 2.79000E+01 3.05150E+01 0.00000E+00
 -1      4059 2.56500E+01 2.92160E+01 0.00000E+00
 -1      4060 4.80726E+01 1.84359E+01 0.00000E+00
 -1      4061 1.67642E+01 1.37423E+01 0.00000E+00
 -1      4062 1.65615E+01 1.45351E+01 0.00000E+00
 -1      4063 8.91329E+01 1.81738E+01 0.00000E+00
 -1      4064 8.84785E+01 2.02357E+01 0.00000E+00
 -1      4065 8.98287E+01 2.09542E+01 0.00000E+00
 -1      4066 9.06329E+01 1.81738E+01 0.00000E+00
 -1      4067 2.01105E+01 1.95138E+01 0.00000E+00
 -1      4068 1.96860E+01 2.20313E+01 0.00000E+00
 -1      4069 2.16105E+01 1.95138E+01 0.00000E+00
 -1      4070 2.57850E+01 1.56973E+01 0.00000E+00
 -1      4071 2.42850E+01 1.56973E+01 0.00000E+00
 -1      4072 2.35350E+01 1.69963E+01 0.00000E+00
 -1      4073 2.65350E+01 1.69963E+01 0.00000E+00
 -1      4074 8.92893E+01 2.60960E+01 0.00000E+00
 -1      4075 8.90956E+01 2.79880E+01 0.00000E+00
 -1      4076 2.94000E+01 3.05150E+01 0.00000E+00
 -1      4077 3.09000E+01 3.05150E+01 0.00000E+00
 -1      4078 3.16500E+01 2.92160E+01 0.00000E+00
 -1      4079 8.91675E+01 2.92495E+01 0.00000E+00
 -1      4080 8.96392E+01 3.08619E+01 0.00000E+00
 -1      4081 9.11392E+01 3.08619E+01 0.00000E+00
 -1      4082 1.96860E+01 2.35016E+01 0.00000E+00
 -1      4083 3.02850E+01 1.82952E+01 0.00000E+00
 -1      4084 2.87850E+01 1.82952E+01 0.00000E+00
 -1      4085 4.81497E+01 2.64843E+01 0.00000E+00
 -1      4086 4.84754E+01 2.52735E+01 0.00000E+00
 -1      4087 9.18892E+01 2.95630E+01 0.00000E+00
 -1      4088 2.86500E+01 2.92160E+01 0.00000E+00
 -1      4089 9.40350E+01 1.93816E+01 0.00000E+00
 -1      4090 1.28400E+02 3.07276E+01 0.00000E+00
 -1      4091 1.29900E+02 3.07276E+01 0.00000E+00
 -1      4092 1.31232E+02 2.99883E+01 0.00000E+00
 -1      4093 4.22850E+01 1.82952E+01 0.00000E+00
 -1      4094 4.07850E+01 1.82952E+01 0.00000E+00
 -1      4095 1.30482E+02 2.86893E+01 0.00000E+00
 -1      4096 3.32850E+01 1.82952E+01 0.00000E+00
 -1      4097 3.17850E+01 1.82952E+01 0.00000E+00
 -1      4098 3.10350E+01 1.95942E+01 0.00000E+00
 -1      4099 1.79025E+01 2.63160E+01 0.00000E+00
 -1      4100 4.71514E+01 2.99885E+01 0.00000E+00
 -1      4101 4.95164E+01 2.84968E+01 0.00000E+00
 -1      4102 8.99556E+01 2.47594E+01 0.00000E+00
 -1      4103 9.11510E+01 2.58377E+01 0.00000E+00
 -1      4104 9.06219E+01 2.34227E+01 0.00000E+00
 -1      4105 4.52850E+01 1.82952E+01 0.00000E+00
 -1      4106 4.37850E+01 1.82952E+01 0.00000E+00
 -1      4107 4.30350E+01 1.95942E+01 0.00000E+00
 -1      4108 9.13829E+01 1.94728E+01 0.00000E+00
 -1      4109 5.11151E+01 2.00973E+01 0.00000E+00
 -1      4110 9.05566E+01 2.84358E+01 0.00000E+00
 -1      4111 1.30482E+02 2.72237E+01 0.00000E+00
 -1      4112 1.30482E+02 2.57581E+01 0.00000E+00
 -1      4113 1.29150E+02 2.79630E+01 0.00000E+00
 -1      4114 4.64014E+01 2.86895E+01 0.00000E+00
 -1      4115 4.99794E+01 2.07084E+01 0.00000E+00
 -1      4116 1.27650E+02 2.94286E+01 0.00000E+00
 -1      4117 3.39000E+01 2.79170E+01 0.00000E+00
 -1      4118 3.54000E+01 2.79170E+01 0.00000E+00
 -1      4119 1.89180E+01 2.69226E+01 0.00000E+00
 -1      4120 1.99335E+01 2.75292E+01 0.00000E+00
 -1      4121 1.92015E+01 2.55785E+01 0.00000E+00
 -1      4122 1.06785E+02 2.06806E+01 0.00000E+00
 -1      4123 1.05285E+02 2.06806E+01 0.00000E+00
 -1      4124 1.00785E+02 2.06806E+01 0.00000E+00
 -1      4125 9.92850E+01 2.06806E+01 0.00000E+00
 -1      4126 2.79000E+01 2.79170E+01 0.00000E+00
 -1      4127 2.94000E+01 2.79170E+01 0.00000E+00
 -1      4128 3.69000E+01 2.79170E+01 0.00000E+00
 -1      4129 3.84000E+01 2.79170E+01 0.00000E+00
 -1      4130 3.61500E+01 2.66180E+01 0.00000E+00
 -1      4131 3.99000E+01 2.79170E+01 0.00000E+00
 -1      4132 4.14000E+01 2.79170E+01 0.00000E+00
 -1      4133 3.91500E+01 2.66180E+01 0.00000E+00
 -1      4134 4.29000E+01 2.79170E+01 0.00000E+00
 -1      4135 4.44000E+01 2.79170E+01 0.00000E+00
 -1      4136 4.21500E+01 2.66180E+01 0.00000E+00
 -1      4137 9.39000E+01 2.81296E+01 0.00000E+00
 -1      4138 9.54000E+01 2.81296E+01 0.00000E+00
 -1      4139 4.75318E+01 2.41579E+01 0.00000E+00
 -1      4140 4.89273E+01 2.38840E+01 0.00000E+00
 -1      4141 9.18173E+01 2.83015E+01 0.00000E+00
 -1      4142 9.69000E+01 2.81296E+01 0.00000E+00
 -1      4143 9.84000E+01 2.81296E+01 0.00000E+00
 -1      4144 9.61500E+01 2.68306E+01 0.00000E+00
 -1      4145 9.99000E+01 2.81296E+01 0.00000E+00
 -1      4146 1.01400E+02 2.81296E+01 0.00000E+00
 -1      4147 9.91500E+01 2.68306E+01 0.00000E+00
 -1      4148 1.02900E+02 2.81296E+01 0.00000E+00
 -1      4149 1.04400E+02 2.81296E+01 0.00000E+00
 -1      4150 1.02150E+02 2.68306E+01 0.00000E+00
 -1      4151 1.05900E+02 2.81296E+01 0.00000E+00
 -1      4152 1.07400E+02 2.81296E+01 0.00000E+00
 -1      4153 1.05150E+02 2.68306E+01 0.00000E+00
 -1      4154 1.08900E+02 2.81296E+01 0.00000E+00
 -1      4155 1.10400E+02 2.81296E+01 0.00000E+00
 -1      4156 1.08150E+02 2.68306E+01 0.00000E+00
 -1      4157 1.11900E+02 2.81296E+01 0.00000E+00
 -1      4158 1.13400E+02 2.81296E+01 0.00000E+00
 -1      4159 1.11150E+02 2.68306E+01 0.00000E+00
 -1      4160 1.14900E+02 2.81296E+01 0.00000E+00
 -1      4161 1.16400E+02 2.81296E+01 0.00000E+00
 -1      4162 1.14150E+02 2.68306E+01 0.00000E+00
 -1      4163 1.17900E+02 2.81296E+01 0.00000E+00
 -1      4164 1.19400E+02 2.81296E+01 0.00000E+00
 -1      4165 1.17150E+02 2.68306E+01 0.00000E+00
 -1      4166 1.20900E+02 2.81296E+01 0.00000E+00
 -1      4167 1.22400E+02 2.81296E+01 0.00000E+00
 -1      4168 1.20150E+02 2.68306E+01 0.00000E+00
 -1      4169 1.23900E+02 2.81296E+01 0.00000E+00
 -1      4170 1.25400E+02 2.81296E+01 0.00000E+00
 -1      4171 1.23150E+02 2.68306E+01 0.00000E+00
 -1      4172 4.56514E+01 2.73905E+01 0.00000E+00
 -1      4173 4.00350E+01 1.95942E+01 0.00000E+00
 -1      4174 3.92850E+01 1.82952E+01 0.00000E+00
 -1      4175 3.77850E+01 1.82952E+01 0.00000E+00
 -1      4176 9.77850E+01 2.06806E+01 0.00000E+00
 -1      4177 9.62850E+01 2.06806E+01 0.00000E+00
 -1      4178 9.85350E+01 2.19796E+01 0.00000E+00
 -1      4179 1.09785E+02 2.06806E+01 0.00000E+00
 -1      4180 1.08285E+02 2.06806E+01 0.00000E+00
 -1      4181 1.07535E+02 2.19796E+01 0.00000E+00
 -1      4182 1.12785E+02 2.06806E+01 0.00000E+00
 -1      4183 1.11285E+02 2.06806E+01 0.00000E+00
 -1      4184 1.10535E+02 2.19796E+01 0.00000E+00
 -1      4185 1.15785E+02 2.06806E+01 0.00000E+00
 -1      4186 1.14285E+02 2.06806E+01 0.00000E+00
 -1      4187 1.13535E+02 2.19796E+01 0.00000E+00
 -1      4188 1.18785E+02 2.06806E+01 0.00000E+00
 -1      4189 1.17285E+02 2.06806E+01 0.00000E+00
 -1      4190 1.16535E+02 2.19796E+01 0.00000E+00
 -1      4191 1.21785E+02 2.06806E+01 0.00000E+00
 -1      4192 1.20285E+02 2.06806E+01 0.00000E+00
 -1      4193 1.19535E+02 2.19796E+01 0.00000E+00
 -1      4194 1.24785E+02 2.06806E+01 0.00000E+00
 -1      4195 1.23285E+02 2.06806E+01 0.00000E+00
 -1      4196 1.22535E+02 2.19796E+01 0.00000E+00
 -1      4197 1.27785E+02 2.06806E+01 0.00000E+00
 -1      4198 1.26285E+02 2.06806E+01 0.00000E+00
 -1      4199 1.25535E+02 2.19796E+01 0.00000E+00
 -1      4200 4.86530E+01 2.09267E+01 0.00000E+00
 -1      4201 4.87838E+01 2.00939E+01 0.00000E+00
 -1      4202 2.49000E+01 2.79170E+01 0.00000E+00
 -1      4203 2.64000E+01 2.79170E+01 0.00000E+00
 -1      4204 2.71500E+01 2.66180E+01 0.00000E+00
 -1      4205 2.80350E+01 1.95943E+01 0.00000E+00
 -1      4206 2.72850E+01 1.82953E+01 0.00000E+00
 -1      4207 2.57850E+01 1.82953E+01 0.00000E+00
 -1      4208 2.07015E+01 2.41082E+01 0.00000E+00
 -1      4209 1.03785E+02 2.06806E+01 0.00000E+00
 -1      4210 1.02285E+02 2.06806E+01 0.00000E+00
 -1      4211 1.01535E+02 2.19796E+01 0.00000E+00
 -1      4212 1.04535E+02 2.19796E+01 0.00000E+00
 -1      4213 4.60705E+01 2.44508E+01 0.00000E+00
 -1      4214 4.65225E+01 2.30613E+01 0.00000E+00
 -1      4215 4.67462E+01 1.86542E+01 0.00000E+00
 -1      4216 9.12035E+01 2.07527E+01 0.00000E+00
 -1      4217 9.08013E+01 2.21429E+01 0.00000E+00
 -1      4218 9.19967E+01 2.32212E+01 0.00000E+00
 -1      4219 9.23556E+01 2.06615E+01 0.00000E+00
 -1      4220 9.50703E+01 2.06711E+01 0.00000E+00
 -1      4221 9.35703E+01 2.06711E+01 0.00000E+00
 -1      4222 9.33909E+01 2.19509E+01 0.00000E+00
 -1      4223 9.58203E+01 2.19701E+01 0.00000E+00
 -1      4224 4.89162E+01 2.21548E+01 0.00000E+00
 -1      4225 3.09000E+01 2.79170E+01 0.00000E+00
 -1      4226 3.24000E+01 2.79170E+01 0.00000E+00
 -1      4227 3.31500E+01 2.66180E+01 0.00000E+00
 -1      4228 1.26525E+02 2.80463E+01 0.00000E+00
 -1      4229 1.28025E+02 2.80463E+01 0.00000E+00
 -1      4230 1.28025E+02 2.65807E+01 0.00000E+00
 -1      4231 1.25775E+02 2.67473E+01 0.00000E+00
 -1      4232 9.25673E+01 2.70025E+01 0.00000E+00
 -1      4233 4.77206E+01 2.15403E+01 0.00000E+00
 -1      4234 4.59962E+01 1.99532E+01 0.00000E+00
 -1      4235 4.62593E+01 2.18332E+01 0.00000E+00
 -1      4236 2.10585E+01 2.76149E+01 0.00000E+00
 -1      4237 3.01500E+01 2.66180E+01 0.00000E+00
 -1      4238 9.32337E+01 2.56658E+01 0.00000E+00
 -1      4239 2.37750E+01 2.78313E+01 0.00000E+00
 -1      4240 2.45250E+01 2.65323E+01 0.00000E+00
 -1      4241 2.26500E+01 2.77457E+01 0.00000E+00
 -1      4242 3.17850E+01 2.08932E+01 0.00000E+00
 -1      4243 3.02850E+01 2.08932E+01 0.00000E+00
 -1      4244 1.31097E+02 2.23934E+01 0.00000E+00
 -1      4245 1.31199E+02 2.11773E+01 0.00000E+00
 -1      4246 1.30277E+02 2.09841E+01 0.00000E+00
 -1      4247 4.07850E+01 2.08932E+01 0.00000E+00
 -1      4248 3.92850E+01 2.08932E+01 0.00000E+00
 -1      4249 2.95350E+01 2.21923E+01 0.00000E+00
 -1      4250 2.87850E+01 2.08933E+01 0.00000E+00
 -1      4251 2.72850E+01 2.08933E+01 0.00000E+00
 -1      4252 3.47850E+01 1.82952E+01 0.00000E+00
 -1      4253 3.40350E+01 1.95942E+01 0.00000E+00
 -1      4254 3.62850E+01 1.82952E+01 0.00000E+00
 -1      4255 4.47981E+01 2.14743E+01 0.00000E+00
 -1      4256 2.31037E+01 1.84710E+01 0.00000E+00
 -1      4257 2.26792E+01 2.09885E+01 0.00000E+00
 -1      4258 2.41695E+01 2.15322E+01 0.00000E+00
 -1      4259 2.26763E+01 2.25749E+01 0.00000E+00
 -1      4260 1.29355E+02 2.07909E+01 0.00000E+00
 -1      4261 4.35416E+01 2.11838E+01 0.00000E+00
 -1      4262 4.20416E+01 2.11838E+01 0.00000E+00
 -1      4263 4.12916E+01 2.24828E+01 0.00000E+00
 -1      4264 4.38047E+01 2.30638E+01 0.00000E+00
 -1      4265 2.21918E+01 2.46518E+01 0.00000E+00
 -1      4266 2.46037E+01 1.84710E+01 0.00000E+00
 -1      4267 4.58233E+01 2.52569E+01 0.00000E+00
 -1      4268 4.48140E+01 2.41603E+01 0.00000E+00
 -1      4269 4.35574E+01 2.38698E+01 0.00000E+00
 -1      4270 1.30738E+02 2.46838E+01 0.00000E+00
 -1      4271 1.30840E+02 2.34677E+01 0.00000E+00
 -1      4272 1.29918E+02 2.32745E+01 0.00000E+00
 -1      4273 1.29406E+02 2.54231E+01 0.00000E+00
 -1      4274 1.28605E+02 2.20899E+01 0.00000E+00
 -1      4275 1.11285E+02 2.32786E+01 0.00000E+00
 -1      4276 1.09785E+02 2.32786E+01 0.00000E+00
 -1      4277 1.07842E+02 2.44051E+01 0.00000E+00
 -1      4278 1.06342E+02 2.44051E+01 0.00000E+00
 -1      4279 4.84362E+01 2.77921E+01 0.00000E+00
 -1      4280 3.70350E+01 1.95942E+01 0.00000E+00
 -1      4281 3.84000E+01 2.53190E+01 0.00000E+00
 -1      4282 3.99000E+01 2.53190E+01 0.00000E+00
 -1      4283 3.24000E+01 2.53190E+01 0.00000E+00
 -1      4284 3.39000E+01 2.53190E+01 0.00000E+00
 -1      4285 4.73664E+01 2.68552E+01 0.00000E+00
 -1      4286 9.54000E+01 2.55316E+01 0.00000E+00
 -1      4287 9.69000E+01 2.55316E+01 0.00000E+00
 -1      4288 9.88425E+01 2.44051E+01 0.00000E+00
 -1      4289 1.00342E+02 2.44051E+01 0.00000E+00
 -1      4290 1.01842E+02 2.44051E+01 0.00000E+00
 -1      4291 1.03342E+02 2.44051E+01 0.00000E+00
 -1      4292 1.04842E+02 2.44051E+01 0.00000E+00
 -1      4293 1.10092E+02 2.57041E+01 0.00000E+00
 -1      4294 1.11592E+02 2.57041E+01 0.00000E+00
 -1      4295 1.13400E+02 2.55316E+01 0.00000E+00
 -1      4296 1.14900E+02 2.55316E+01 0.00000E+00
 -1      4297 1.16842E+02 2.44051E+01 0.00000E+00
 -1      4298 1.18342E+02 2.44051E+01 0.00000E+00
 -1      4299 1.19842E+02 2.44051E+01 0.00000E+00
 -1      4300 1.21342E+02 2.44051E+01 0.00000E+00
 -1      4301 1.22842E+02 2.44051E+01 0.00000E+00
 -1      4302 1.24342E+02 2.44051E+01 0.00000E+00
 -1      4303 3.28425E+01 2.18071E+01 0.00000E+00
 -1      4304 3.20925E+01 2.31061E+01 0.00000E+00
 -1      4305 1.14592E+02 2.31061E+01 0.00000E+00
 -1      4306 1.13092E+02 2.31061E+01 0.00000E+00
 -1      4307 1.25842E+02 2.44051E+01 0.00000E+00
 -1      4308 9.41631E+01 2.30870E+01 0.00000E+00
 -1      4309 9.39837E+01 2.43668E+01 0.00000E+00
 -1      4310 2.64000E+01 2.53190E+01 0.00000E+00
 -1      4311 2.79000E+01 2.53190E+01 0.00000E+00
 -1      4312 2.53537E+01 1.97700E+01 0.00000E+00
 -1      4313 3.85350E+01 2.21922E+01 0.00000E+00
 -1      4314 3.77850E+01 2.08932E+01 0.00000E+00
 -1      4315 3.62850E+01 2.08932E+01 0.00000E+00
 -1      4316 3.54000E+01 2.53190E+01 0.00000E+00
 -1      4317 3.69000E+01 2.53190E+01 0.00000E+00
 -1      4318 3.76500E+01 2.40200E+01 0.00000E+00
 -1      4319 3.46500E+01 2.40200E+01 0.00000E+00
 -1      4320 4.53649E+01 2.60827E+01 0.00000E+00
 -1      4321 4.41084E+01 2.57922E+01 0.00000E+00
 -1      4322 1.28349E+02 2.31642E+01 0.00000E+00
 -1      4323 4.26245E+01 2.56568E+01 0.00000E+00
 -1      4324 4.30829E+01 2.48310E+01 0.00000E+00
 -1      4325 4.20736E+01 2.37344E+01 0.00000E+00
 -1      4326 4.11245E+01 2.56568E+01 0.00000E+00
 -1      4327 2.63179E+01 2.11248E+01 0.00000E+00
 -1      4328 2.51366E+01 2.13006E+01 0.00000E+00
 -1      4329 2.51338E+01 2.28870E+01 0.00000E+00
 -1      4330 2.70679E+01 2.24238E+01 0.00000E+00
 -1      4331 1.12342E+02 2.44051E+01 0.00000E+00
 -1      4332 3.07463E+01 2.55116E+01 0.00000E+00
 -1      4333 3.14963E+01 2.42126E+01 0.00000E+00
 -1      4334 3.04387E+01 2.32987E+01 0.00000E+00
 -1      4335 2.92463E+01 2.55116E+01 0.00000E+00
 -1      4336 1.09342E+02 2.44051E+01 0.00000E+00
 -1      4337 2.18085E+01 2.63159E+01 0.00000E+00
 -1      4338 2.37833E+01 2.47826E+01 0.00000E+00
 -1      4339 1.27156E+02 2.55897E+01 0.00000E+00
 -1      4340 4.08170E+01 2.34439E+01 0.00000E+00
 -1      4341 2.89388E+01 2.32987E+01 0.00000E+00
 -1      4342 9.73425E+01 2.44051E+01 0.00000E+00
 -1      4343 4.03745E+01 2.43578E+01 0.00000E+00
 -1      4344 2.84963E+01 2.42126E+01 0.00000E+00
 -1      4345 3.43425E+01 2.18071E+01 0.00000E+00
 -1      4346 1.15342E+02 2.44051E+01 0.00000E+00
 -1      4347 2.49083E+01 2.48683E+01 0.00000E+00
 -1      4348 3.95925E+01 2.31061E+01 0.00000E+00
 -1      4349 2.56583E+01 2.35693E+01 0.00000E+00
 -1      4350 3.80925E+01 2.31061E+01 0.00000E+00
 -1      4351 1.28281E+02 2.55064E+01 0.00000E+00
 -1      4352 9.65925E+01 2.31061E+01 0.00000E+00
 -1      4353 9.53778E+01 2.30966E+01 0.00000E+00
 -1      4354 3.65925E+01 2.31061E+01 0.00000E+00
 -1      4355 2.75925E+01 2.31061E+01 0.00000E+00
 -1      4356 2.66254E+01 2.33377E+01 0.00000E+00
 -1      4357 3.50925E+01 2.31061E+01 0.00000E+00
 -3
    3C                          2097                                     1
 -1       164    8    0    1
 -2         6         7        23      1131      1294      1148
 -1       165    8    0    1
 -2         7         8       164      1132      1295      1296
 -1       166    8    0    1
 -2         8         9       165      1133      1297      1298
 -1       167    8    0    1
 -2         8       165       164      1298      1299      1295
 -1       168    8    0    1
 -2         9        10       166      1134      1300      1301
 -1       169    8    0    1
 -2         9       166       165      1301      1302      1297
 -1       170    8    0    1
 -2        10        11       167      1135      1303      1304
 -1       171    8    0    1
 -2        10       167       166      1304      1305      1300
 -1       172    8    0    1
 -2        11        12       168      1136      1306      1307
 -1       173    8    0    1
 -2        11       168       167      1307      1308      1303
 -1       174    8    0    1
 -2        12        13       169      1137      1309      1310
 -1       175    8    0    1
 -2        12       169       168      1310      1311      1306
 -1       176    8    0    1
 -2        13        14       170      1138      1312      1313
 -1       177    8    0    1
 -2        13       170       169      1313      1314      1309
 -1       178    8    0    1
 -2        14        15       171      1139      1315      1316
 -1       179    8    0    1
 -2        14       171       170      1316      1317      1312
 -1       180    8    0    1
 -2        15        16       172      1140      1318      1319
 -1       181    8    0    1
 -2        15       172       171      1319      1320      1315
 -1       182    8    0    1
 -2        16        17       173      1141      1321      1322
 -1       183    8    0    1
 -2        16       173       172      1322      1323      1318
 -1       184    8    0    1
 -2        17        18       174      1142      1324      1325
 -1       185    8    0    1
 -2        17       174       173      1325      1326      1321
 -1       186    8    0    1
 -2        18        19       175      1143      1327      1328
 -1       187    8    0    1
 -2        18       175       174      1328      1329      1324
 -1       188    8    0    1
 -2        19        20       176      1144      1330      1331
 -1       189    8    0    1
 -2        19       176       175      1331      1332      1327
 -1       190    8    0    1
 -2        20        21       177      1145      1333      1334
 -1       191    8    0    1
 -2        20       177       176      1334      1335      1330
 -1       192    8    0    1
 -2        21        22       178      1146      1336      1337
 -1       193    8    0    1
 -2        21       178       177      1337      1338      1333
 -1       194    8    0    1
 -2        22         5       179      1147      1339      1340
 -1       195    8    0    1
 -2       178        22       179      1336      1340      1341
 -1       196    8    0    1
 -2         5        72       179      1198      1342      1339
 -1       197    8    0    1
 -2        24        23       180      1149      1343      1344
 -1       198    8    0    1
 -2        25        24       181      1150      1345      1346
 -1       199    8    0    1
 -2        24       180       181      1344      1347      1345
 -1       200    8    0    1
 -2        26        25       182      1151      1348      1349
 -1       201    8    0    1
 -2        25       181       182      1346      1350      1348
 -1       202    8    0    1
 -2        27        26       183      1152      1351      1352
 -1       203    8    0    1
 -2        26       182       183      1349      1353      1351
 -1       204    8    0    1
 -2        28        27       184      1153      1354      1355
 -1       205    8    0    1
 -2        27       183       184      1352      1356      1354
 -1       206    8    0    1
 -2        29        28       185      1154      1357      1358
 -1       207    8    0    1
 -2        28       184       185      1355      1359      1357
 -1       208    8    0    1
 -2        30        29       186      1155      1360      1361
 -1       209    8    0    1
 -2        29       185       186      1358      1362      1360
 -1       210    8    0    1
 -2        31        30       187      1156      1363      1364
 -1       211    8    0    1
 -2        30       186       187      1361      1365      1363
 -1       212    8    0    1
 -2        32        31       188      1157      1366      1367
 -1       213    8    0    1
 -2        31       187       188      1364      1368      1366
 -1       214    8    0    1
 -2        33        32       189      1158      1369      1370
 -1       215    8    0    1
 -2        32       188       189      1367      1371      1369
 -1       216    8    0    1
 -2        34        33       190      1159      1372      1373
 -1       217    8    0    1
 -2        33       189       190      1370      1374      1372
 -1       218    8    0    1
 -2        35        34       191      1160      1375      1376
 -1       219    8    0    1
 -2        34       190       191      1373      1377      1375
 -1       220    8    0    1
 -2        36        35       192      1161      1378      1379
 -1       221    8    0    1
 -2        35       191       192      1376      1380      1378
 -1       222    8    0    1
 -2        37        36       193      1162      1381      1382
 -1       223    8    0    1
 -2        36       192       193      1379      1383      1381
 -1       224    8    0    1
 -2        38        37       194      1163      1384      1385
 -1       225    8    0    1
 -2        37       193       194      1382      1386      1384
 -1       226    8    0    1
 -2        39        38       195      1164      1387      1388
 -1       227    8    0    1
 -2        38       194       195      1385      1389      1387
 -1       228    8    0    1
 -2        40        39       196      1165      1390      1391
 -1       229    8    0    1
 -2        39       195       196      1388      1392      1390
 -1       230    8    0    1
 -2        41        40       197      1166      1393      1394
 -1       231    8    0    1
 -2        40       196       197      1391      1395      1393
 -1       232    8    0    1
 -2        42        41       198      1167      1396      1397
 -1       233    8    0    1
 -2        41       197       198      1394      1398      1396
 -1       234    8    0    1
 -2        43        42       199      1168      1399      1400
 -1       235    8    0    1
 -2        42       198       199      1397      1401      1399
 -1       236    8    0    1
 -2        44        43       200      1169      1402      1403
 -1       237    8    0    1
 -2        43       199       200      1400      1404      1402
 -1       238    8    0    1
 -2        45        44       201      1170      1405      1406
 -1       239    8    0    1
 -2        44       200       201      1403      1407      1405
 -1       240    8    0    1
 -2        46        45       202      1171      1408      1409
 -1       241    8    0    1
 -2        45       201       202      1406      1410      1408
 -1       242    8    0    1
 -2        47        46       203      1172      1411      1412
 -1       243    8    0    1
 -2        46       202       203      1409      1413      1411
 -1       244    8    0    1
 -2        48        47       204      1173      1414      1415
 -1       245    8    0    1
 -2        47       203       204      1412      1416      1414
 -1       246    8    0    1
 -2        49        48       205      1174      1417      1418
 -1       247    8    0    1
 -2        48       204       205      1415      1419      1417
 -1       248    8    0    1
 -2        50        49       206      1175      1420      1421
 -1       249    8    0    1
 -2        49       205       206      1418      1422      1420
 -1       250    8    0    1
 -2        51        50       207      1176      1423      1424
 -1       251    8    0    1
 -2        50       206       207      1421      1425      1423
 -1       252    8    0    1
 -2        52        51       208      1177      1426      1427
 -1       253    8    0    1
 -2        51       207       208      1424      1428      1426
 -1       254    8    0    1
 -2        53        52       209      1178      1429      1430
 -1       255    8    0    1
 -2        52       208       209      1427      1431      1429
 -1       256    8    0    1
 -2        54        53       210      1179      1432      1433
 -1       257    8    0    1
 -2        53       209       210      1430      1434      1432
 -1       258    8    0    1
 -2        55        54       211      1180      1435      1436
 -1       259    8    0    1
 -2        54       210       211      1433      1437      1435
 -1       260    8    0    1
 -2        56        55       212      1181      1438      1439
 -1       261    8    0    1
 -2        55       211       212      1436      1440      1438
 -1       262    8    0    1
 -2        57        56       213      1182      1441      1442
 -1       263    8    0    1
 -2        56       212       213      1439      1443      1441
 -1       264    8    0    1
 -2        58        57       214      1183      1444      1445
 -1       265    8    0    1
 -2        57       213       214      1442      1446      1444
 -1       266    8    0    1
 -2        59        58       215      1184      1447      1448
 -1       267    8    0    1
 -2        58       214       215      1445      1449      1447
 -1       268    8    0    1
 -2        60        59       216      1185      1450      1451
 -1       269    8    0    1
 -2        59       215       216      1448      1452      1450
 -1       270    8    0    1
 -2        61        60       217      1186      1453      1454
 -1       271    8    0    1
 -2        60       216       217      1451      1455      1453
 -1       272    8    0    1
 -2        62        61       218      1187      1456      1457
 -1       273    8    0    1
 -2        61       217       218      1454      1458      1456
 -1       274    8    0    1
 -2        63        62       219      1188      1459      1460
 -1       275    8    0    1
 -2        62       218       219      1457      1461      1459
 -1       276    8    0    1
 -2        64        63       220      1189      1462      1463
 -1       277    8    0    1
 -2        63       219       220      1460      1464      1462
 -1       278    8    0    1
 -2        65        64       221      1190      1465      1466
 -1       279    8    0    1
 -2        64       220       221      1463      1467      1465
 -1       280    8    0    1
 -2        66        65       222      1191      1468      1469
 -1       281    8    0    1
 -2        65       221       222      1466      1470      1468
 -1       282    8    0    1
 -2        67        66       223      1192      1471      1472
 -1       283    8    0    1
 -2        66       222       223      1469      1473      1471
 -1       284    8    0    1
 -2        68        67       224      1193      1474      1475
 -1       285    8    0    1
 -2        67       223       224      1472      1476      1474
 -1       286    8    0    1
 -2        69        68       225      1194      1477      1478
 -1       287    8    0    1
 -2        68       224       225      1475      1479      1477
 -1       288    8    0    1
 -2        70        69       226      1195      1480      1481
 -1       289    8    0    1
 -2        69       225       226      1478      1482      1480
 -1       290    8    0    1
 -2        71        70       227      1196      1483      1484
 -1       291    8    0    1
 -2        70       226       227      1481      1485      1483
 -1       292    8    0    1
 -2         4        71       136      1197      1486      1264
 -1       293    8    0    1
 -2       136        71       227      1486      1484      1487
 -1       294    8    0    1
 -2        72        73       228      1199      1488      1489
 -1       295    8    0    1
 -2        72       228       179      1489      1490      1342
 -1       296    8    0    1
 -2        73        74       229      1200      1491      1492
 -1       297    8    0    1
 -2        73       229       228      1492      1493      1488
 -1       298    8    0    1
 -2        74        75       230      1201      1494      1495
 -1       299    8    0    1
 -2        74       230       229      1495      1496      1491
 -1       300    8    0    1
 -2        75        76       231      1202      1497      1498
 -1       301    8    0    1
 -2        75       231       230      1498      1499      1494
 -1       302    8    0    1
 -2        76        77       232      1203      1500      1501
 -1       303    8    0    1
 -2        76       232       231      1501      1502      1497
 -1       304    8    0    1
 -2        77        78       233      1204      1503      1504
 -1       305    8    0    1
 -2        77       233       232      1504      1505      1500
 -1       306    8    0    1
 -2        78        79       234      1205      1506      1507
 -1       307    8    0    1
 -2        78       234       233      1507      1508      1503
 -1       308    8    0    1
 -2        79        80       235      1206      1509      1510
 -1       309    8    0    1
 -2        79       235       234      1510      1511      1506
 -1       310    8    0    1
 -2        80        81       236      1207      1512      1513
 -1       311    8    0    1
 -2        80       236       235      1513      1514      1509
 -1       312    8    0    1
 -2        81        82       237      1208      1515      1516
 -1       313    8    0    1
 -2        81       237       236      1516      1517      1512
 -1       314    8    0    1
 -2        82        83       238      1209      1518      1519
 -1       315    8    0    1
 -2        82       238       237      1519      1520      1515
 -1       316    8    0    1
 -2        83        84       239      1210      1521      1522
 -1       317    8    0    1
 -2        83       239       238      1522      1523      1518
 -1       318    8    0    1
 -2        84        85       240      1211      1524      1525
 -1       319    8    0    1
 -2        84       240       239      1525      1526      1521
 -1       320    8    0    1
 -2        85        86       241      1212      1527      1528
 -1       321    8    0    1
 -2        85       241       240      1528      1529      1524
 -1       322    8    0    1
 -2        86        87       242      1213      1530      1531
 -1       323    8    0    1
 -2        86       242       241      1531      1532      1527
 -1       324    8    0    1
 -2        87        88       243      1214      1533      1534
 -1       325    8    0    1
 -2        87       243       242      1534      1535      1530
 -1       326    8    0    1
 -2        88        89       244      1215      1536      1537
 -1       327    8    0    1
 -2        88       244       243      1537      1538      1533
 -1       328    8    0    1
 -2        89        90       245      1216      1539      1540
 -1       329    8    0    1
 -2        89       245       244      1540      1541      1536
 -1       330    8    0    1
 -2        90        91       246      1217      1542      1543
 -1       331    8    0    1
 -2        90       246       245      1543      1544      1539
 -1       332    8    0    1
 -2        91        92       247      1218      1545      1546
 -1       333    8    0    1
 -2        91       247       246      1546      1547      1542
 -1       334    8    0    1
 -2        92        93       248      1219      1548      1549
 -1       335    8    0    1
 -2        92       248       247      1549      1550      1545
 -1       336    8    0    1
 -2        93        94       249      1220      1551      1552
 -1       337    8    0    1
 -2        93       249       248      1552      1553      1548
 -1       338    8    0    1
 -2        94        95       250      1221      1554      1555
 -1       339    8    0    1
 -2        94       250       249      1555      1556      1551
 -1       340    8    0    1
 -2        95        96       251      1222      1557      1558
 -1       341    8    0    1
 -2        95       251       250      1558      1559      1554
 -1       342    8    0    1
 -2        96        97       252      1223      1560      1561
 -1       343    8    0    1
 -2        96       252       251      1561      1562      1557
 -1       344    8    0    1
 -2        97        98       253      1224      1563      1564
 -1       345    8    0    1
 -2        97       253       252      1564      1565      1560
 -1       346    8    0    1
 -2        98        99       254      1225      1566      1567
 -1       347    8    0    1
 -2        98       254       253      1567      1568      1563
 -1       348    8    0    1
 -2        99       100       255      1226      1569      1570
 -1       349    8    0    1
 -2        99       255       254      1570      1571      1566
 -1       350    8    0    1
 -2       100       101       256      1227      1572      1573
 -1       351    8    0    1
 -2       100       256       255      1573      1574      1569
 -1       352    8    0    1
 -2       101       102       257      1228      1575      1576
 -1       353    8    0    1
 -2       101       257       256      1576      1577      1572
 -1       354    8    0    1
 -2       102       103       258      1229      1578      1579
 -1       355    8    0    1
 -2       102       258       257      1579      1580      1575
 -1       356    8    0    1
 -2       103       104       259      1230      1581      1582
 -1       357    8    0    1
 -2       103       259       258      1582      1583      1578
 -1       358    8    0    1
 -2       104       105       260      1231      1584      1585
 -1       359    8    0    1
 -2       104       260       259      1585      1586      1581
 -1       360    8    0    1
 -2       105       106       261      1232      1587      1588
 -1       361    8    0    1
 -2       105       261       260      1588      1589      1584
 -1       362    8    0    1
 -2       106       107       262      1233      1590      1591
 -1       363    8    0    1
 -2       106       262       261      1591      1592      1587
 -1       364    8    0    1
 -2       107       108       263      1234      1593      1594
 -1       365    8    0    1
 -2       107       263       262      1594      1595      1590
 -1       366    8    0    1
 -2       108       109       264      1235      1596      1597
 -1       367    8    0    1
 -2       108       264       263      1597      1598      1593
 -1       368    8    0    1
 -2       109       110       265      1236      1599      1600
 -1       369    8    0    1
 -2       109       265       264      1600      1601      1596
 -1       370    8    0    1
 -2       110       111       266      1237      1602      1603
 -1       371    8    0    1
 -2       110       266       265      1603      1604      1599
 -1       372    8    0    1
 -2       111       112       267      1238      1605      1606
 -1       373    8    0    1
 -2       111       267       266      1606      1607      1602
 -1       374    8    0    1
 -2       112       113       268      1239      1608      1609
 -1       375    8    0    1
 -2       112       268       267      1609      1610      1605
 -1       376    8    0    1
 -2       113       114       269      1240      1611      1612
 -1       377    8    0    1
 -2       113       269       268      1612      1613      1608
 -1       378    8    0    1
 -2       114       115       270      1241      1614      1615
 -1       379    8    0    1
 -2       114       270       269      1615      1616      1611
 -1       380    8    0    1
 -2       115       116       271      1242      1617      1618
 -1       381    8    0    1
 -2       115       271       270      1618      1619      1614
 -1       382    8    0    1
 -2       116       117       272      1243      1620      1621
 -1       383    8    0    1
 -2       116       272       271      1621      1622      1617
 -1       384    8    0    1
 -2       117       118       273      1244      1623      1624
 -1       385    8    0    1
 -2       117       273       272      1624      1625      1620
 -1       386    8    0    1
 -2       118       119       274      1245      1626      1627
 -1       387    8    0    1
 -2       118       274       273      1627      1628      1623
 -1       388    8    0    1
 -2       119       120       275      1246      1629      1630
 -1       389    8    0    1
 -2       119       275       274      1630      1631      1626
 -1       390    8    0    1
 -2       120         3       121      1247      1248      1632
 -1       391    8    0    1
 -2       121       122       276      1249      1633      1634
 -1       392    8    0    1
 -2       122       123       277      1250      1635      1636
 -1       393    8    0    1
 -2       122       277       276      1636      1637      1633
 -1       394    8    0    1
 -2       123       124       278      1251      1638      1639
 -1       395    8    0    1
 -2       123       278       277      1639      1640      1635
 -1       396    8    0    1
 -2       124       125       279      1252      1641      1642
 -1       397    8    0    1
 -2       124       279       278      1642      1643      1638
 -1       398    8    0    1
 -2       125       126       280      1253      1644      1645
 -1       399    8    0    1
 -2       125       280       279      1645      1646      1641
 -1       400    8    0    1
 -2       126       127       281      1254      1647      1648
 -1       401    8    0    1
 -2       126       281       280      1648      1649      1644
 -1       402    8    0    1
 -2       127       128       282      1255      1650      1651
 -1       403    8    0    1
 -2       127       282       281      1651      1652      1647
 -1       404    8    0    1
 -2       128       129       283      1256      1653      1654
 -1       405    8    0    1
 -2       128       283       282      1654      1655      1650
 -1       406    8    0    1
 -2       129       130       284      1257      1656      1657
 -1       407    8    0    1
 -2       129       284       283      1657      1658      1653
 -1       408    8    0    1
 -2       130       131       285      1258      1659      1660
 -1       409    8    0    1
 -2       130       285       284      1660      1661      1656
 -1       410    8    0    1
 -2       131       132       286      1259      1662      1663
 -1       411    8    0    1
 -2       131       286       285      1663      1664      1659
 -1       412    8    0    1
 -2       132       133       287      1260      1665      1666
 -1       413    8    0    1
 -2       132       287       286      1666      1667      1662
 -1       414    8    0    1
 -2       133       134       288      1261      1668      1669
 -1       415    8    0    1
 -2       133       288       287      1669      1670      1665
 -1       416    8    0    1
 -2       134       135       289      1262      1671      1672
 -1       417    8    0    1
 -2       134       289       288      1672      1673      1668
 -1       418    8    0    1
 -2       135       136       290      1263      1674      1675
 -1       419    8    0    1
 -2       289       135       290      1671      1675      1676
 -1       420    8    0    1
 -2       136       227       290      1487      1677      1674
 -1       421    8    0    1
 -2         2       137       291      1265      1678      1679
 -1       422    8    0    1
 -2       137       138       292      1266      1680      1681
 -1       423    8    0    1
 -2       138       139       293      1267      1682      1683
 -1       424    8    0    1
 -2       139       140       294      1268      1684      1685
 -1       425    8    0    1
 -2       140       141       295      1269      1686      1687
 -1       426    8    0    1
 -2       141       142       296      1270      1688      1689
 -1       427    8    0    1
 -2       142       143       297      1271      1690      1691
 -1       428    8    0    1
 -2       143       144       298      1272      1692      1693
 -1       429    8    0    1
 -2       144       145       299      1273      1694      1695
 -1       430    8    0    1
 -2       145       146       300      1274      1696      1697
 -1       431    8    0    1
 -2       146       147       301      1275      1698      1699
 -1       432    8    0    1
 -2       147       148       302      1276      1700      1701
 -1       433    8    0    1
 -2       148       149       303      1277      1702      1703
 -1       434    8    0    1
 -2       149       150       304      1278      1704      1705
 -1       435    8    0    1
 -2       150       151       305      1279      1706      1707
 -1       436    8    0    1
 -2       151       152       306      1280      1708      1709
 -1       437    8    0    1
 -2       152       153       307      1281      1710      1711
 -1       438    8    0    1
 -2       153       154       308      1282      1712      1713
 -1       439    8    0    1
 -2       154       155       309      1283      1714      1715
 -1       440    8    0    1
 -2       155       156       310      1284      1716      1717
 -1       441    8    0    1
 -2       156       157       311      1285      1718      1719
 -1       442    8    0    1
 -2       157       158       312      1286      1720      1721
 -1       443    8    0    1
 -2       158         1       313      1287      1722      1723
 -1       444    8    0    1
 -2         1       159       314      1288      1724      1725
 -1       445    8    0    1
 -2       159       160       315      1289      1726      1727
 -1       446    8    0    1
 -2       160       161       316      1290      1728      1729
 -1       447    8    0    1
 -2       161       162       317      1291      1730      1731
 -1       448    8    0    1
 -2       162       163       318      1292      1732      1733
 -1       449    8    0    1
 -2       163         2       319      1293      1734      1735
 -1       450    8    0    1
 -2       294       140       295      1684      1687      1736
 -1       451    8    0    1
 -2       293       139       294      1682      1685      1737
 -1       452    8    0    1
 -2       120       121       275      1632      1738      1629
 -1       453    8    0    1
 -2       121       276       275      1634      1739      1738
 -1       454    8    0    1
 -2       291       137       292      1678      1681      1740
 -1       455    8    0    1
 -2       292       138       293      1680      1683      1741
 -1       456    8    0    1
 -2         2       291       319      1679      1742      1734
 -1       457    8    0    1
 -2       141       296       295      1689      1743      1686
 -1       458    8    0    1
 -2       142       297       296      1691      1744      1688
 -1       459    8    0    1
 -2       143       298       297      1693      1745      1690
 -1       460    8    0    1
 -2       144       299       298      1695      1746      1692
 -1       461    8    0    1
 -2       145       300       299      1697      1747      1694
 -1       462    8    0    1
 -2       146       301       300      1699      1748      1696
 -1       463    8    0    1
 -2       147       302       301      1701      1749      1698
 -1       464    8    0    1
 -2       148       303       302      1703      1750      1700
 -1       465    8    0    1
 -2       149       304       303      1705      1751      1702
 -1       466    8    0    1
 -2       150       305       304      1707      1752      1704
 -1       467    8    0    1
 -2       151       306       305      1709      1753      1706
 -1       468    8    0    1
 -2       152       307       306      1711      1754      1708
 -1       469    8    0    1
 -2       153       308       307      1713      1755      1710
 -1       470    8    0    1
 -2       154       309       308      1715      1756      1712
 -1       471    8    0    1
 -2       155       310       309      1717      1757      1714
 -1       472    8    0    1
 -2       156       311       310      1719      1758      1716
 -1       473    8    0    1
 -2       157       312       311      1721      1759      1718
 -1       474    8    0    1
 -2       158       313       312      1723      1760      1720
 -1       475    8    0    1
 -2         1       314       313      1725      1761      1722
 -1       476    8    0    1
 -2       159       315       314      1727      1762      1724
 -1       477    8    0    1
 -2       160       316       315      1729      1763      1726
 -1       478    8    0    1
 -2       161       317       316      1731      1764      1728
 -1       479    8    0    1
 -2       162       318       317      1733      1765      1730
 -1       480    8    0    1
 -2       163       319       318      1735      1766      1732
 -1       481    8    0    1
 -2        23         7       164      1294      1296      1767
 -1       482    8    0    1
 -2       165       166       320      1302      1768      1769
 -1       483    8    0    1
 -2       164       165       321      1299      1770      1771
 -1       484    8    0    1
 -2       165       320       321      1769      1772      1770
 -1       485    8    0    1
 -2       167       168       322      1308      1773      1774
 -1       486    8    0    1
 -2       168       169       323      1311      1775      1776
 -1       487    8    0    1
 -2       168       323       322      1776      1777      1773
 -1       488    8    0    1
 -2       169       170       324      1314      1778      1779
 -1       489    8    0    1
 -2       169       324       323      1779      1780      1775
 -1       490    8    0    1
 -2       170       171       325      1317      1781      1782
 -1       491    8    0    1
 -2       170       325       324      1782      1783      1778
 -1       492    8    0    1
 -2       171       172       326      1320      1784      1785
 -1       493    8    0    1
 -2       171       326       325      1785      1786      1781
 -1       494    8    0    1
 -2       172       173       327      1323      1787      1788
 -1       495    8    0    1
 -2       172       327       326      1788      1789      1784
 -1       496    8    0    1
 -2       173       174       328      1326      1790      1791
 -1       497    8    0    1
 -2       173       328       327      1791      1792      1787
 -1       498    8    0    1
 -2       174       175       329      1329      1793      1794
 -1       499    8    0    1
 -2       174       329       328      1794      1795      1790
 -1       500    8    0    1
 -2       175       176       330      1332      1796      1797
 -1       501    8    0    1
 -2       175       330       329      1797      1798      1793
 -1       502    8    0    1
 -2       176       177       331      1335      1799      1800
 -1       503    8    0    1
 -2       176       331       330      1800      1801      1796
 -1       504    8    0    1
 -2       177       178       332      1338      1802      1803
 -1       505    8    0    1
 -2       177       332       331      1803      1804      1799
 -1       506    8    0    1
 -2       178       179       333      1341      1805      1806
 -1       507    8    0    1
 -2       332       178       333      1802      1806      1807
 -1       508    8    0    1
 -2       179       228       333      1490      1808      1805
 -1       509    8    0    1
 -2       180        23       164      1343      1767      1809
 -1       510    8    0    1
 -2       228       229       334      1493      1810      1811
 -1       511    8    0    1
 -2       228       334       333      1811      1812      1808
 -1       512    8    0    1
 -2       180       164       321      1809      1771      1813
 -1       513    8    0    1
 -2       182       181       335      1350      1814      1815
 -1       514    8    0    1
 -2       183       182       336      1353      1816      1817
 -1       515    8    0    1
 -2       182       335       336      1815      1818      1816
 -1       516    8    0    1
 -2       184       183       337      1356      1819      1820
 -1       517    8    0    1
 -2       183       336       337      1817      1821      1819
 -1       518    8    0    1
 -2       185       184       338      1359      1822      1823
 -1       519    8    0    1
 -2       184       337       338      1820      1824      1822
 -1       520    8    0    1
 -2       186       185       339      1362      1825      1826
 -1       521    8    0    1
 -2       185       338       339      1823      1827      1825
 -1       522    8    0    1
 -2       187       186       340      1365      1828      1829
 -1       523    8    0    1
 -2       186       339       340      1826      1830      1828
 -1       524    8    0    1
 -2       188       187       341      1368      1831      1832
 -1       525    8    0    1
 -2       187       340       341      1829      1833      1831
 -1       526    8    0    1
 -2       189       188       342      1371      1834      1835
 -1       527    8    0    1
 -2       188       341       342      1832      1836      1834
 -1       528    8    0    1
 -2       190       189       343      1374      1837      1838
 -1       529    8    0    1
 -2       189       342       343      1835      1839      1837
 -1       530    8    0    1
 -2       191       190       344      1377      1840      1841
 -1       531    8    0    1
 -2       190       343       344      1838      1842      1840
 -1       532    8    0    1
 -2       192       191       345      1380      1843      1844
 -1       533    8    0    1
 -2       191       344       345      1841      1845      1843
 -1       534    8    0    1
 -2       193       192       346      1383      1846      1847
 -1       535    8    0    1
 -2       192       345       346      1844      1848      1846
 -1       536    8    0    1
 -2       194       193       347      1386      1849      1850
 -1       537    8    0    1
 -2       193       346       347      1847      1851      1849
 -1       538    8    0    1
 -2       195       194       348      1389      1852      1853
 -1       539    8    0    1
 -2       194       347       348      1850      1854      1852
 -1       540    8    0    1
 -2       196       195       349      1392      1855      1856
 -1       541    8    0    1
 -2       195       348       349      1853      1857      1855
 -1       542    8    0    1
 -2       197       196       350      1395      1858      1859
 -1       543    8    0    1
 -2       196       349       350      1856      1860      1858
 -1       544    8    0    1
 -2       198       197       351      1398      1861      1862
 -1       545    8    0    1
 -2       197       350       351      1859      1863      1861
 -1       546    8    0    1
 -2       199       198       352      1401      1864      1865
 -1       547    8    0    1
 -2       198       351       352      1862      1866      1864
 -1       548    8    0    1
 -2       200       199       353      1404      1867      1868
 -1       549    8    0    1
 -2       199       352       353      1865      1869      1867
 -1       550    8    0    1
 -2       201       200       354      1407      1870      1871
 -1       551    8    0    1
 -2       200       353       354      1868      1872      1870
 -1       552    8    0    1
 -2       202       201       355      1410      1873      1874
 -1       553    8    0    1
 -2       201       354       355      1871      1875      1873
 -1       554    8    0    1
 -2       203       202       356      1413      1876      1877
 -1       555    8    0    1
 -2       202       355       356      1874      1878      1876
 -1       556    8    0    1
 -2       204       203       357      1416      1879      1880
 -1       557    8    0    1
 -2       203       356       357      1877      1881      1879
 -1       558    8    0    1
 -2       205       204       358      1419      1882      1883
 -1       559    8    0    1
 -2       204       357       358      1880      1884      1882
 -1       560    8    0    1
 -2       206       205       359      1422      1885      1886
 -1       561    8    0    1
 -2       205       358       359      1883      1887      1885
 -1       562    8    0    1
 -2       207       206       360      1425      1888      1889
 -1       563    8    0    1
 -2       206       359       360      1886      1890      1888
 -1       564    8    0    1
 -2       208       207       361      1428      1891      1892
 -1       565    8    0    1
 -2       207       360       361      1889      1893      1891
 -1       566    8    0    1
 -2       209       208       362      1431      1894      1895
 -1       567    8    0    1
 -2       208       361       362      1892      1896      1894
 -1       568    8    0    1
 -2       210       209       363      1434      1897      1898
 -1       569    8    0    1
 -2       209       362       363      1895      1899      1897
 -1       570    8    0    1
 -2       211       210       364      1437      1900      1901
 -1       571    8    0    1
 -2       210       363       364      1898      1902      1900
 -1       572    8    0    1
 -2       212       211       365      1440      1903      1904
 -1       573    8    0    1
 -2       211       364       365      1901      1905      1903
 -1       574    8    0    1
 -2       213       212       366      1443      1906      1907
 -1       575    8    0    1
 -2       212       365       366      1904      1908      1906
 -1       576    8    0    1
 -2       214       213       367      1446      1909      1910
 -1       577    8    0    1
 -2       213       366       367      1907      1911      1909
 -1       578    8    0    1
 -2       215       214       368      1449      1912      1913
 -1       579    8    0    1
 -2       214       367       368      1910      1914      1912
 -1       580    8    0    1
 -2       216       215       369      1452      1915      1916
 -1       581    8    0    1
 -2       215       368       369      1913      1917      1915
 -1       582    8    0    1
 -2       217       216       370      1455      1918      1919
 -1       583    8    0    1
 -2       216       369       370      1916      1920      1918
 -1       584    8    0    1
 -2       218       217       371      1458      1921      1922
 -1       585    8    0    1
 -2       217       370       371      1919      1923      1921
 -1       586    8    0    1
 -2       219       218       372      1461      1924      1925
 -1       587    8    0    1
 -2       218       371       372      1922      1926      1924
 -1       588    8    0    1
 -2       220       219       373      1464      1927      1928
 -1       589    8    0    1
 -2       219       372       373      1925      1929      1927
 -1       590    8    0    1
 -2       221       220       374      1467      1930      1931
 -1       591    8    0    1
 -2       220       373       374      1928      1932      1930
 -1       592    8    0    1
 -2       222       221       375      1470      1933      1934
 -1       593    8    0    1
 -2       221       374       375      1931      1935      1933
 -1       594    8    0    1
 -2       223       222       376      1473      1936      1937
 -1       595    8    0    1
 -2       222       375       376      1934      1938      1936
 -1       596    8    0    1
 -2       224       223       377      1476      1939      1940
 -1       597    8    0    1
 -2       223       376       377      1937      1941      1939
 -1       598    8    0    1
 -2       225       224       378      1479      1942      1943
 -1       599    8    0    1
 -2       224       377       378      1940      1944      1942
 -1       600    8    0    1
 -2       226       225       379      1482      1945      1946
 -1       601    8    0    1
 -2       225       378       379      1943      1947      1945
 -1       602    8    0    1
 -2       227       226       380      1485      1948      1949
 -1       603    8    0    1
 -2       290       227       380      1677      1949      1950
 -1       604    8    0    1
 -2       226       379       380      1946      1951      1948
 -1       605    8    0    1
 -2       229       230       381      1496      1952      1953
 -1       606    8    0    1
 -2       229       381       334      1953      1954      1810
 -1       607    8    0    1
 -2       230       231       382      1499      1955      1956
 -1       608    8    0    1
 -2       230       382       381      1956      1957      1952
 -1       609    8    0    1
 -2       231       232       383      1502      1958      1959
 -1       610    8    0    1
 -2       231       383       382      1959      1960      1955
 -1       611    8    0    1
 -2       232       233       384      1505      1961      1962
 -1       612    8    0    1
 -2       232       384       383      1962      1963      1958
 -1       613    8    0    1
 -2       233       234       385      1508      1964      1965
 -1       614    8    0    1
 -2       233       385       384      1965      1966      1961
 -1       615    8    0    1
 -2       234       235       386      1511      1967      1968
 -1       616    8    0    1
 -2       234       386       385      1968      1969      1964
 -1       617    8    0    1
 -2       235       236       387      1514      1970      1971
 -1       618    8    0    1
 -2       235       387       386      1971      1972      1967
 -1       619    8    0    1
 -2       236       237       388      1517      1973      1974
 -1       620    8    0    1
 -2       236       388       387      1974      1975      1970
 -1       621    8    0    1
 -2       237       238       389      1520      1976      1977
 -1       622    8    0    1
 -2       237       389       388      1977      1978      1973
 -1       623    8    0    1
 -2       238       239       390      1523      1979      1980
 -1       624    8    0    1
 -2       238       390       389      1980      1981      1976
 -1       625    8    0    1
 -2       239       240       391      1526      1982      1983
 -1       626    8    0    1
 -2       239       391       390      1983      1984      1979
 -1       627    8    0    1
 -2       240       241       392      1529      1985      1986
 -1       628    8    0    1
 -2       240       392       391      1986      1987      1982
 -1       629    8    0    1
 -2       241       242       393      1532      1988      1989
 -1       630    8    0    1
 -2       241       393       392      1989      1990      1985
 -1       631    8    0    1
 -2       242       243       394      1535      1991      1992
 -1       632    8    0    1
 -2       242       394       393      1992      1993      1988
 -1       633    8    0    1
 -2       243       244       395      1538      1994      1995
 -1       634    8    0    1
 -2       243       395       394      1995      1996      1991
 -1       635    8    0    1
 -2       244       245       396      1541      1997      1998
 -1       636    8    0    1
 -2       244       396       395      1998      1999      1994
 -1       637    8    0    1
 -2       245       246       397      1544      2000      2001
 -1       638    8    0    1
 -2       245       397       396      2001      2002      1997
 -1       639    8    0    1
 -2       246       247       398      1547      2003      2004
 -1       640    8    0    1
 -2       246       398       397      2004      2005      2000
 -1       641    8    0    1
 -2       247       248       399      1550      2006      2007
 -1       642    8    0    1
 -2       247       399       398      2007      2008      2003
 -1       643    8    0    1
 -2       248       249       400      1553      2009      2010
 -1       644    8    0    1
 -2       248       400       399      2010      2011      2006
 -1       645    8    0    1
 -2       249       250       401      1556      2012      2013
 -1       646    8    0    1
 -2       249       401       400      2013      2014      2009
 -1       647    8    0    1
 -2       250       251       402      1559      2015      2016
 -1       648    8    0    1
 -2       250       402       401      2016      2017      2012
 -1       649    8    0    1
 -2       251       252       403      1562      2018      2019
 -1       650    8    0    1
 -2       251       403       402      2019      2020      2015
 -1       651    8    0    1
 -2       252       253       404      1565      2021      2022
 -1       652    8    0    1
 -2       252       404       403      2022      2023      2018
 -1       653    8    0    1
 -2       253       254       405      1568      2024      2025
 -1       654    8    0    1
 -2       253       405       404      2025      2026      2021
 -1       655    8    0    1
 -2       254       255       406      1571      2027      2028
 -1       656    8    0    1
 -2       254       406       405      2028      2029      2024
 -1       657    8    0    1
 -2       255       256       407      1574      2030      2031
 -1       658    8    0    1
 -2       255       407       406      2031      2032      2027
 -1       659    8    0    1
 -2       256       257       408      1577      2033      2034
 -1       660    8    0    1
 -2       256       408       407      2034      2035      2030
 -1       661    8    0    1
 -2       257       258       409      1580      2036      2037
 -1       662    8    0    1
 -2       257       409       408      2037      2038      2033
 -1       663    8    0    1
 -2       258       259       410      1583      2039      2040
 -1       664    8    0    1
 -2       258       410       409      2040      2041      2036
 -1       665    8    0    1
 -2       259       260       411      1586      2042      2043
 -1       666    8    0    1
 -2       259       411       410      2043      2044      2039
 -1       667    8    0    1
 -2       260       261       412      1589      2045      2046
 -1       668    8    0    1
 -2       260       412       411      2046      2047      2042
 -1       669    8    0    1
 -2       261       262       413      1592      2048      2049
 -1       670    8    0    1
 -2       261       413       412      2049      2050      2045
 -1       671    8    0    1
 -2       262       263       414      1595      2051      2052
 -1       672    8    0    1
 -2       262       414       413      2052      2053      2048
 -1       673    8    0    1
 -2       263       264       415      1598      2054      2055
 -1       674    8    0    1
 -2       263       415       414      2055      2056      2051
 -1       675    8    0    1
 -2       264       265       416      1601      2057      2058
 -1       676    8    0    1
 -2       264       416       415      2058      2059      2054
 -1       677    8    0    1
 -2       265       266       417      1604      2060      2061
 -1       678    8    0    1
 -2       265       417       416      2061      2062      2057
 -1       679    8    0    1
 -2       266       267       418      1607      2063      2064
 -1       680    8    0    1
 -2       266       418       417      2064      2065      2060
 -1       681    8    0    1
 -2       267       268       419      1610      2066      2067
 -1       682    8    0    1
 -2       267       419       418      2067      2068      2063
 -1       683    8    0    1
 -2       268       269       420      1613      2069      2070
 -1       684    8    0    1
 -2       268       420       419      2070      2071      2066
 -1       685    8    0    1
 -2       269       270       421      1616      2072      2073
 -1       686    8    0    1
 -2       269       421       420      2073      2074      2069
 -1       687    8    0    1
 -2       270       271       422      1619      2075      2076
 -1       688    8    0    1
 -2       270       422       421      2076      2077      2072
 -1       689    8    0    1
 -2       271       272       423      1622      2078      2079
 -1       690    8    0    1
 -2       271       423       422      2079      2080      2075
 -1       691    8    0    1
 -2       272       273       424      1625      2081      2082
 -1       692    8    0    1
 -2       272       424       423      2082      2083      2078
 -1       693    8    0    1
 -2       273       274       425      1628      2084      2085
 -1       694    8    0    1
 -2       273       425       424      2085      2086      2081
 -1       695    8    0    1
 -2       274       275       426      1631      2087      2088
 -1       696    8    0    1
 -2       425       274       426      2084      2088      2089
 -1       697    8    0    1
 -2       275       276       426      1739      2090      2087
 -1       698    8    0    1
 -2       278       279       427      1643      2091      2092
 -1       699    8    0    1
 -2       277       278       428      1640      2093      2094
 -1       700    8    0    1
 -2       278       427       428      2092      2095      2093
 -1       701    8    0    1
 -2       276       277       429      1637      2096      2097
 -1       702    8    0    1
 -2       426       276       429      2090      2097      2098
 -1       703    8    0    1
 -2       277       428       429      2094      2099      2096
 -1       704    8    0    1
 -2       279       280       430      1646      2100      2101
 -1       705    8    0    1
 -2       279       430       427      2101      2102      2091
 -1       706    8    0    1
 -2       280       281       431      1649      2103      2104
 -1       707    8    0    1
 -2       280       431       430      2104      2105      2100
 -1       708    8    0    1
 -2       281       282       432      1652      2106      2107
 -1       709    8    0    1
 -2       281       432       431      2107      2108      2103
 -1       710    8    0    1
 -2       282       283       433      1655      2109      2110
 -1       711    8    0    1
 -2       282       433       432      2110      2111      2106
 -1       712    8    0    1
 -2       283       284       434      1658      2112      2113
 -1       713    8    0    1
 -2       283       434       433      2113      2114      2109
 -1       714    8    0    1
 -2       284       285       435      1661      2115      2116
 -1       715    8    0    1
 -2       284       435       434      2116      2117      2112
 -1       716    8    0    1
 -2       285       286       436      1664      2118      2119
 -1       717    8    0    1
 -2       285       436       435      2119      2120      2115
 -1       718    8    0    1
 -2       286       287       437      1667      2121      2122
 -1       719    8    0    1
 -2       286       437       436      2122      2123      2118
 -1       720    8    0    1
 -2       287       288       438      1670      2124      2125
 -1       721    8    0    1
 -2       287       438       437      2125      2126      2121
 -1       722    8    0    1
 -2       288       289       439      1673      2127      2128
 -1       723    8    0    1
 -2       288       439       438      2128      2129      2124
 -1       724    8    0    1
 -2       292       293       440      1741      2130      2131
 -1       725    8    0    1
 -2       319       291       441      1742      2132      2133
 -1       726    8    0    1
 -2       291       292       442      1740      2134      2135
 -1       727    8    0    1
 -2       293       294       443      1737      2136      2137
 -1       728    8    0    1
 -2       294       295       444      1736      2138      2139
 -1       729    8    0    1
 -2       166       167       445      1305      2140      2141
 -1       730    8    0    1
 -2       320       166       445      1768      2141      2142
 -1       731    8    0    1
 -2       167       322       445      1774      2143      2140
 -1       732    8    0    1
 -2       296       297       446      1744      2144      2145
 -1       733    8    0    1
 -2       297       298       447      1745      2146      2147
 -1       734    8    0    1
 -2       297       447       446      2147      2148      2144
 -1       735    8    0    1
 -2       298       299       448      1746      2149      2150
 -1       736    8    0    1
 -2       299       300       449      1747      2151      2152
 -1       737    8    0    1
 -2       300       301       450      1748      2153      2154
 -1       738    8    0    1
 -2       301       302       451      1749      2155      2156
 -1       739    8    0    1
 -2       301       451       450      2156      2157      2153
 -1       740    8    0    1
 -2       302       303       452      1750      2158      2159
 -1       741    8    0    1
 -2       303       304       453      1751      2160      2161
 -1       742    8    0    1
 -2       304       305       454      1752      2162      2163
 -1       743    8    0    1
 -2       304       454       453      2163      2164      2160
 -1       744    8    0    1
 -2       305       306       455      1753      2165      2166
 -1       745    8    0    1
 -2       306       307       456      1754      2167      2168
 -1       746    8    0    1
 -2       306       456       455      2168      2169      2165
 -1       747    8    0    1
 -2       307       308       457      1755      2170      2171
 -1       748    8    0    1
 -2       308       309       458      1756      2172      2173
 -1       749    8    0    1
 -2       308       458       457      2173      2174      2170
 -1       750    8    0    1
 -2       309       310       459      1757      2175      2176
 -1       751    8    0    1
 -2       310       311       460      1758      2177      2178
 -1       752    8    0    1
 -2       311       312       461      1759      2179      2180
 -1       753    8    0    1
 -2       312       313       462      1760      2181      2182
 -1       754    8    0    1
 -2       313       314       463      1761      2183      2184
 -1       755    8    0    1
 -2       314       315       464      1762      2185      2186
 -1       756    8    0    1
 -2       314       464       463      2186      2187      2183
 -1       757    8    0    1
 -2       315       316       465      1763      2188      2189
 -1       758    8    0    1
 -2       316       317       466      1764      2190      2191
 -1       759    8    0    1
 -2       317       318       467      1765      2192      2193
 -1       760    8    0    1
 -2       318       319       468      1766      2194      2195
 -1       761    8    0    1
 -2       295       296       469      1743      2196      2197
 -1       762    8    0    1
 -2       443       294       444      2136      2139      2198
 -1       763    8    0    1
 -2       180       321       181      1813      2199      1347
 -1       764    8    0    1
 -2       444       295       469      2138      2197      2200
 -1       765    8    0    1
 -2       296       446       470      2145      2201      2202
 -1       766    8    0    1
 -2       296       470       469      2202      2203      2196
 -1       767    8    0    1
 -2       335       181       321      1814      2199      2204
 -1       768    8    0    1
 -2       442       292       440      2134      2131      2205
 -1       769    8    0    1
 -2       441       291       442      2132      2135      2206
 -1       770    8    0    1
 -2       439       289       290      2127      1676      2207
 -1       771    8    0    1
 -2       440       293       443      2130      2137      2208
 -1       772    8    0    1
 -2       319       441       468      2133      2209      2194
 -1       773    8    0    1
 -2       467       318       468      2192      2195      2210
 -1       774    8    0    1
 -2       466       317       467      2190      2193      2211
 -1       775    8    0    1
 -2       464       315       465      2185      2189      2212
 -1       776    8    0    1
 -2       462       313       463      2181      2184      2213
 -1       777    8    0    1
 -2       461       312       462      2179      2182      2214
 -1       778    8    0    1
 -2       460       311       461      2177      2180      2215
 -1       779    8    0    1
 -2       458       309       459      2172      2176      2216
 -1       780    8    0    1
 -2       456       307       471      2167      2217      2218
 -1       781    8    0    1
 -2       307       457       471      2171      2219      2217
 -1       782    8    0    1
 -2       454       305       472      2162      2220      2221
 -1       783    8    0    1
 -2       305       455       472      2166      2222      2220
 -1       784    8    0    1
 -2       451       302       452      2155      2159      2223
 -1       785    8    0    1
 -2       449       300       450      2151      2154      2224
 -1       786    8    0    1
 -2       298       448       447      2150      2225      2146
 -1       787    8    0    1
 -2       448       299       449      2149      2152      2226
 -1       788    8    0    1
 -2       452       303       473      2158      2227      2228
 -1       789    8    0    1
 -2       303       453       473      2161      2229      2227
 -1       790    8    0    1
 -2       459       310       460      2175      2178      2230
 -1       791    8    0    1
 -2       465       316       466      2188      2191      2231
 -1       792    8    0    1
 -2       334       381       474      1954      2232      2233
 -1       793    8    0    1
 -2       323       324       475      1780      2234      2235
 -1       794    8    0    1
 -2       322       323       476      1777      2236      2237
 -1       795    8    0    1
 -2       323       475       476      2235      2238      2236
 -1       796    8    0    1
 -2       325       326       477      1786      2239      2240
 -1       797    8    0    1
 -2       326       327       478      1789      2241      2242
 -1       798    8    0    1
 -2       326       478       477      2242      2243      2239
 -1       799    8    0    1
 -2       327       328       479      1792      2244      2245
 -1       800    8    0    1
 -2       327       479       478      2245      2246      2241
 -1       801    8    0    1
 -2       328       329       480      1795      2247      2248
 -1       802    8    0    1
 -2       328       480       479      2248      2249      2244
 -1       803    8    0    1
 -2       329       330       481      1798      2250      2251
 -1       804    8    0    1
 -2       329       481       480      2251      2252      2247
 -1       805    8    0    1
 -2       330       331       482      1801      2253      2254
 -1       806    8    0    1
 -2       330       482       481      2254      2255      2250
 -1       807    8    0    1
 -2       381       382       483      1957      2256      2257
 -1       808    8    0    1
 -2       381       483       474      2257      2258      2232
 -1       809    8    0    1
 -2       336       335       484      1818      2259      2260
 -1       810    8    0    1
 -2       444       469       485      2200      2261      2262
 -1       811    8    0    1
 -2       337       336       486      1821      2263      2264
 -1       812    8    0    1
 -2       336       484       486      2260      2265      2263
 -1       813    8    0    1
 -2       338       337       487      1824      2266      2267
 -1       814    8    0    1
 -2       337       486       487      2264      2268      2266
 -1       815    8    0    1
 -2       339       338       488      1827      2269      2270
 -1       816    8    0    1
 -2       338       487       488      2267      2271      2269
 -1       817    8    0    1
 -2       340       339       489      1830      2272      2273
 -1       818    8    0    1
 -2       339       488       489      2270      2274      2272
 -1       819    8    0    1
 -2       341       340       490      1833      2275      2276
 -1       820    8    0    1
 -2       340       489       490      2273      2277      2275
 -1       821    8    0    1
 -2       342       341       491      1836      2278      2279
 -1       822    8    0    1
 -2       341       490       491      2276      2280      2278
 -1       823    8    0    1
 -2       343       342       492      1839      2281      2282
 -1       824    8    0    1
 -2       342       491       492      2279      2283      2281
 -1       825    8    0    1
 -2       344       343       493      1842      2284      2285
 -1       826    8    0    1
 -2       343       492       493      2282      2286      2284
 -1       827    8    0    1
 -2       345       344       494      1845      2287      2288
 -1       828    8    0    1
 -2       344       493       494      2285      2289      2287
 -1       829    8    0    1
 -2       346       345       495      1848      2290      2291
 -1       830    8    0    1
 -2       345       494       495      2288      2292      2290
 -1       831    8    0    1
 -2       347       346       496      1851      2293      2294
 -1       832    8    0    1
 -2       346       495       496      2291      2295      2293
 -1       833    8    0    1
 -2       348       347       497      1854      2296      2297
 -1       834    8    0    1
 -2       347       496       497      2294      2298      2296
 -1       835    8    0    1
 -2       349       348       498      1857      2299      2300
 -1       836    8    0    1
 -2       348       497       498      2297      2301      2299
 -1       837    8    0    1
 -2       350       349       499      1860      2302      2303
 -1       838    8    0    1
 -2       349       498       499      2300      2304      2302
 -1       839    8    0    1
 -2       351       350       500      1863      2305      2306
 -1       840    8    0    1
 -2       350       499       500      2303      2307      2305
 -1       841    8    0    1
 -2       352       351       501      1866      2308      2309
 -1       842    8    0    1
 -2       351       500       501      2306      2310      2308
 -1       843    8    0    1
 -2       353       352       502      1869      2311      2312
 -1       844    8    0    1
 -2       352       501       502      2309      2313      2311
 -1       845    8    0    1
 -2       354       353       503      1872      2314      2315
 -1       846    8    0    1
 -2       353       502       503      2312      2316      2314
 -1       847    8    0    1
 -2       355       354       504      1875      2317      2318
 -1       848    8    0    1
 -2       354       503       504      2315      2319      2317
 -1       849    8    0    1
 -2       356       355       505      1878      2320      2321
 -1       850    8    0    1
 -2       355       504       505      2318      2322      2320
 -1       851    8    0    1
 -2       357       356       506      1881      2323      2324
 -1       852    8    0    1
 -2       356       505       506      2321      2325      2323
 -1       853    8    0    1
 -2       358       357       507      1884      2326      2327
 -1       854    8    0    1
 -2       357       506       507      2324      2328      2326
 -1       855    8    0    1
 -2       359       358       508      1887      2329      2330
 -1       856    8    0    1
 -2       358       507       508      2327      2331      2329
 -1       857    8    0    1
 -2       360       359       509      1890      2332      2333
 -1       858    8    0    1
 -2       359       508       509      2330      2334      2332
 -1       859    8    0    1
 -2       361       360       510      1893      2335      2336
 -1       860    8    0    1
 -2       360       509       510      2333      2337      2335
 -1       861    8    0    1
 -2       362       361       511      1896      2338      2339
 -1       862    8    0    1
 -2       361       510       511      2336      2340      2338
 -1       863    8    0    1
 -2       363       362       512      1899      2341      2342
 -1       864    8    0    1
 -2       362       511       512      2339      2343      2341
 -1       865    8    0    1
 -2       364       363       513      1902      2344      2345
 -1       866    8    0    1
 -2       363       512       513      2342      2346      2344
 -1       867    8    0    1
 -2       365       364       514      1905      2347      2348
 -1       868    8    0    1
 -2       364       513       514      2345      2349      2347
 -1       869    8    0    1
 -2       366       365       515      1908      2350      2351
 -1       870    8    0    1
 -2       365       514       515      2348      2352      2350
 -1       871    8    0    1
 -2       367       366       516      1911      2353      2354
 -1       872    8    0    1
 -2       366       515       516      2351      2355      2353
 -1       873    8    0    1
 -2       368       367       517      1914      2356      2357
 -1       874    8    0    1
 -2       367       516       517      2354      2358      2356
 -1       875    8    0    1
 -2       369       368       518      1917      2359      2360
 -1       876    8    0    1
 -2       368       517       518      2357      2361      2359
 -1       877    8    0    1
 -2       370       369       519      1920      2362      2363
 -1       878    8    0    1
 -2       369       518       519      2360      2364      2362
 -1       879    8    0    1
 -2       371       370       520      1923      2365      2366
 -1       880    8    0    1
 -2       370       519       520      2363      2367      2365
 -1       881    8    0    1
 -2       372       371       521      1926      2368      2369
 -1       882    8    0    1
 -2       371       520       521      2366      2370      2368
 -1       883    8    0    1
 -2       373       372       522      1929      2371      2372
 -1       884    8    0    1
 -2       372       521       522      2369      2373      2371
 -1       885    8    0    1
 -2       374       373       523      1932      2374      2375
 -1       886    8    0    1
 -2       373       522       523      2372      2376      2374
 -1       887    8    0    1
 -2       375       374       524      1935      2377      2378
 -1       888    8    0    1
 -2       374       523       524      2375      2379      2377
 -1       889    8    0    1
 -2       376       375       525      1938      2380      2381
 -1       890    8    0    1
 -2       375       524       525      2378      2382      2380
 -1       891    8    0    1
 -2       377       376       526      1941      2383      2384
 -1       892    8    0    1
 -2       376       525       526      2381      2385      2383
 -1       893    8    0    1
 -2       378       377       527      1944      2386      2387
 -1       894    8    0    1
 -2       377       526       527      2384      2388      2386
 -1       895    8    0    1
 -2       379       378       528      1947      2389      2390
 -1       896    8    0    1
 -2       378       527       528      2387      2391      2389
 -1       897    8    0    1
 -2       383       384       529      1963      2392      2393
 -1       898    8    0    1
 -2       384       385       530      1966      2394      2395
 -1       899    8    0    1
 -2       384       530       529      2395      2396      2392
 -1       900    8    0    1
 -2       385       386       531      1969      2397      2398
 -1       901    8    0    1
 -2       385       531       530      2398      2399      2394
 -1       902    8    0    1
 -2       386       387       532      1972      2400      2401
 -1       903    8    0    1
 -2       386       532       531      2401      2402      2397
 -1       904    8    0    1
 -2       387       388       533      1975      2403      2404
 -1       905    8    0    1
 -2       387       533       532      2404      2405      2400
 -1       906    8    0    1
 -2       388       389       534      1978      2406      2407
 -1       907    8    0    1
 -2       388       534       533      2407      2408      2403
 -1       908    8    0    1
 -2       389       390       535      1981      2409      2410
 -1       909    8    0    1
 -2       389       535       534      2410      2411      2406
 -1       910    8    0    1
 -2       390       391       536      1984      2412      2413
 -1       911    8    0    1
 -2       390       536       535      2413      2414      2409
 -1       912    8    0    1
 -2       391       392       537      1987      2415      2416
 -1       913    8    0    1
 -2       391       537       536      2416      2417      2412
 -1       914    8    0    1
 -2       392       393       538      1990      2418      2419
 -1       915    8    0    1
 -2       392       538       537      2419      2420      2415
 -1       916    8    0    1
 -2       393       394       539      1993      2421      2422
 -1       917    8    0    1
 -2       393       539       538      2422      2423      2418
 -1       918    8    0    1
 -2       394       395       540      1996      2424      2425
 -1       919    8    0    1
 -2       394       540       539      2425      2426      2421
 -1       920    8    0    1
 -2       395       396       541      1999      2427      2428
 -1       921    8    0    1
 -2       395       541       540      2428      2429      2424
 -1       922    8    0    1
 -2       396       397       542      2002      2430      2431
 -1       923    8    0    1
 -2       396       542       541      2431      2432      2427
 -1       924    8    0    1
 -2       397       398       543      2005      2433      2434
 -1       925    8    0    1
 -2       397       543       542      2434      2435      2430
 -1       926    8    0    1
 -2       398       399       544      2008      2436      2437
 -1       927    8    0    1
 -2       398       544       543      2437      2438      2433
 -1       928    8    0    1
 -2       399       400       545      2011      2439      2440
 -1       929    8    0    1
 -2       399       545       544      2440      2441      2436
 -1       930    8    0    1
 -2       400       401       546      2014      2442      2443
 -1       931    8    0    1
 -2       400       546       545      2443      2444      2439
 -1       932    8    0    1
 -2       401       402       547      2017      2445      2446
 -1       933    8    0    1
 -2       401       547       546      2446      2447      2442
 -1       934    8    0    1
 -2       402       403       548      2020      2448      2449
 -1       935    8    0    1
 -2       402       548       547      2449      2450      2445
 -1       936    8    0    1
 -2       403       404       549      2023      2451      2452
 -1       937    8    0    1
 -2       403       549       548      2452      2453      2448
 -1       938    8    0    1
 -2       404       405       550      2026      2454      2455
 -1       939    8    0    1
 -2       404       550       549      2455      2456      2451
 -1       940    8    0    1
 -2       405       406       551      2029      2457      2458
 -1       941    8    0    1
 -2       405       551       550      2458      2459      2454
 -1       942    8    0    1
 -2       406       407       552      2032      2460      2461
 -1       943    8    0    1
 -2       406       552       551      2461      2462      2457
 -1       944    8    0    1
 -2       407       408       553      2035      2463      2464
 -1       945    8    0    1
 -2       407       553       552      2464      2465      2460
 -1       946    8    0    1
 -2       408       409       554      2038      2466      2467
 -1       947    8    0    1
 -2       408       554       553      2467      2468      2463
 -1       948    8    0    1
 -2       409       410       555      2041      2469      2470
 -1       949    8    0    1
 -2       409       555       554      2470      2471      2466
 -1       950    8    0    1
 -2       410       411       556      2044      2472      2473
 -1       951    8    0    1
 -2       410       556       555      2473      2474      2469
 -1       952    8    0    1
 -2       411       412       557      2047      2475      2476
 -1       953    8    0    1
 -2       411       557       556      2476      2477      2472
 -1       954    8    0    1
 -2       412       413       558      2050      2478      2479
 -1       955    8    0    1
 -2       412       558       557      2479      2480      2475
 -1       956    8    0    1
 -2       413       414       559      2053      2481      2482
 -1       957    8    0    1
 -2       413       559       558      2482      2483      2478
 -1       958    8    0    1
 -2       414       415       560      2056      2484      2485
 -1       959    8    0    1
 -2       414       560       559      2485      2486      2481
 -1       960    8    0    1
 -2       415       416       561      2059      2487      2488
 -1       961    8    0    1
 -2       415       561       560      2488      2489      2484
 -1       962    8    0    1
 -2       416       417       562      2062      2490      2491
 -1       963    8    0    1
 -2       416       562       561      2491      2492      2487
 -1       964    8    0    1
 -2       417       418       563      2065      2493      2494
 -1       965    8    0    1
 -2       417       563       562      2494      2495      2490
 -1       966    8    0    1
 -2       418       419       564      2068      2496      2497
 -1       967    8    0    1
 -2       418       564       563      2497      2498      2493
 -1       968    8    0    1
 -2       419       420       565      2071      2499      2500
 -1       969    8    0    1
 -2       419       565       564      2500      2501      2496
 -1       970    8    0    1
 -2       420       421       566      2074      2502      2503
 -1       971    8    0    1
 -2       420       566       565      2503      2504      2499
 -1       972    8    0    1
 -2       421       422       567      2077      2505      2506
 -1       973    8    0    1
 -2       421       567       566      2506      2507      2502
 -1       974    8    0    1
 -2       422       423       568      2080      2508      2509
 -1       975    8    0    1
 -2       422       568       567      2509      2510      2505
 -1       976    8    0    1
 -2       423       424       569      2083      2511      2512
 -1       977    8    0    1
 -2       423       569       568      2512      2513      2508
 -1       978    8    0    1
 -2       424       425       570      2086      2514      2515
 -1       979    8    0    1
 -2       424       570       569      2515      2516      2511
 -1       980    8    0    1
 -2       425       426       429      2089      2098      2517
 -1       981    8    0    1
 -2       430       431       571      2105      2518      2519
 -1       982    8    0    1
 -2       431       432       572      2108      2520      2521
 -1       983    8    0    1
 -2       431       572       571      2521      2522      2518
 -1       984    8    0    1
 -2       428       427       573      2095      2523      2524
 -1       985    8    0    1
 -2       427       430       574      2102      2525      2526
 -1       986    8    0    1
 -2       573       427       574      2523      2526      2527
 -1       987    8    0    1
 -2       430       571       574      2519      2528      2525
 -1       988    8    0    1
 -2       432       433       575      2111      2529      2530
 -1       989    8    0    1
 -2       432       575       572      2530      2531      2520
 -1       990    8    0    1
 -2       433       434       576      2114      2532      2533
 -1       991    8    0    1
 -2       433       576       575      2533      2534      2529
 -1       992    8    0    1
 -2       434       435       577      2117      2535      2536
 -1       993    8    0    1
 -2       434       577       576      2536      2537      2532
 -1       994    8    0    1
 -2       435       436       578      2120      2538      2539
 -1       995    8    0    1
 -2       435       578       577      2539      2540      2535
 -1       996    8    0    1
 -2       436       437       579      2123      2541      2542
 -1       997    8    0    1
 -2       436       579       578      2542      2543      2538
 -1       998    8    0    1
 -2       437       438       580      2126      2544      2545
 -1       999    8    0    1
 -2       437       580       579      2545      2546      2541
 -1      1000    8    0    1
 -2       438       439       581      2129      2547      2548
 -1      1001    8    0    1
 -2       438       581       580      2548      2549      2544
 -1      1002    8    0    1
 -2       441       442       582      2206      2550      2551
 -1      1003    8    0    1
 -2       440       443       583      2208      2552      2553
 -1      1004    8    0    1
 -2       382       383       584      1960      2554      2555
 -1      1005    8    0    1
 -2       383       529       584      2393      2556      2554
 -1      1006    8    0    1
 -2       439       290       380      2207      1950      2557
 -1      1007    8    0    1
 -2       468       441       585      2209      2558      2559
 -1      1008    8    0    1
 -2       442       440       586      2205      2560      2561
 -1      1009    8    0    1
 -2       335       321       587      2204      2562      2563
 -1      1010    8    0    1
 -2       484       335       587      2259      2563      2564
 -1      1011    8    0    1
 -2       321       320       587      1772      2565      2562
 -1      1012    8    0    1
 -2       467       468       588      2210      2566      2567
 -1      1013    8    0    1
 -2       468       585       588      2559      2568      2566
 -1      1014    8    0    1
 -2       462       463       589      2213      2569      2570
 -1      1015    8    0    1
 -2       451       452       590      2223      2571      2572
 -1      1016    8    0    1
 -2       449       450       591      2224      2573      2574
 -1      1017    8    0    1
 -2       324       325       592      1783      2575      2576
 -1      1018    8    0    1
 -2       475       324       592      2234      2576      2577
 -1      1019    8    0    1
 -2       325       477       592      2240      2578      2575
 -1      1020    8    0    1
 -2       448       449       593      2226      2579      2580
 -1      1021    8    0    1
 -2       446       447       594      2148      2581      2582
 -1      1022    8    0    1
 -2       447       448       595      2225      2583      2584
 -1      1023    8    0    1
 -2       450       451       596      2157      2585      2586
 -1      1024    8    0    1
 -2       451       590       596      2572      2587      2585
 -1      1025    8    0    1
 -2       459       460       597      2230      2588      2589
 -1      1026    8    0    1
 -2       453       454       598      2164      2590      2591
 -1      1027    8    0    1
 -2       455       456       599      2169      2592      2593
 -1      1028    8    0    1
 -2       457       458       600      2174      2594      2595
 -1      1029    8    0    1
 -2       465       466       601      2231      2596      2597
 -1      1030    8    0    1
 -2       458       459       602      2216      2598      2599
 -1      1031    8    0    1
 -2       458       602       600      2599      2600      2594
 -1      1032    8    0    1
 -2       460       461       603      2215      2601      2602
 -1      1033    8    0    1
 -2       461       462       604      2214      2603      2604
 -1      1034    8    0    1
 -2       463       464       605      2187      2605      2606
 -1      1035    8    0    1
 -2       464       465       606      2212      2607      2608
 -1      1036    8    0    1
 -2       466       467       607      2211      2609      2610
 -1      1037    8    0    1
 -2       333       334       608      1812      2611      2612
 -1      1038    8    0    1
 -2       332       333       608      1807      2612      2613
 -1      1039    8    0    1
 -2       334       474       608      2233      2614      2611
 -1      1040    8    0    1
 -2       443       444       609      2198      2615      2616
 -1      1041    8    0    1
 -2       448       593       595      2580      2617      2583
 -1      1042    8    0    1
 -2       322       476       610      2237      2618      2619
 -1      1043    8    0    1
 -2       322       610       445      2619      2620      2143
 -1      1044    8    0    1
 -2       483       382       584      2256      2555      2621
 -1      1045    8    0    1
 -2       331       332       608      1804      2613      2622
 -1      1046    8    0    1
 -2       609       444       485      2615      2262      2623
 -1      1047    8    0    1
 -2       606       465       601      2607      2597      2624
 -1      1048    8    0    1
 -2       605       464       606      2605      2608      2625
 -1      1049    8    0    1
 -2       470       446       611      2201      2626      2627
 -1      1050    8    0    1
 -2       446       594       611      2582      2628      2626
 -1      1051    8    0    1
 -2       604       462       589      2603      2570      2629
 -1      1052    8    0    1
 -2       602       459       597      2598      2589      2630
 -1      1053    8    0    1
 -2       601       466       607      2596      2610      2631
 -1      1054    8    0    1
 -2       425       429       570      2517      2632      2514
 -1      1055    8    0    1
 -2       583       443       609      2552      2616      2633
 -1      1056    8    0    1
 -2       429       428       570      2099      2634      2632
 -1      1057    8    0    1
 -2       460       603       597      2602      2635      2588
 -1      1058    8    0    1
 -2       441       582       585      2551      2636      2558
 -1      1059    8    0    1
 -2       582       442       586      2550      2561      2637
 -1      1060    8    0    1
 -2       440       583       586      2553      2638      2560
 -1      1061    8    0    1
 -2       599       456       612      2592      2639      2640
 -1      1062    8    0    1
 -2       456       471       612      2218      2641      2639
 -1      1063    8    0    1
 -2       598       454       613      2590      2642      2643
 -1      1064    8    0    1
 -2       454       472       613      2221      2644      2642
 -1      1065    8    0    1
 -2       331       608       482      2622      2645      2253
 -1      1066    8    0    1
 -2       607       467       588      2609      2567      2646
 -1      1067    8    0    1
 -2       590       452       473      2571      2228      2647
 -1      1068    8    0    1
 -2       589       463       605      2569      2606      2648
 -1      1069    8    0    1
 -2       591       450       614      2573      2649      2650
 -1      1070    8    0    1
 -2       450       596       614      2586      2651      2649
 -1      1071    8    0    1
 -2       587       320       445      2565      2142      2652
 -1      1072    8    0    1
 -2       471       457       600      2219      2595      2653
 -1      1073    8    0    1
 -2       472       455       599      2222      2593      2654
 -1      1074    8    0    1
 -2       449       591       593      2574      2655      2579
 -1      1075    8    0    1
 -2       485       469       470      2261      2203      2656
 -1      1076    8    0    1
 -2       594       447       595      2581      2584      2657
 -1      1077    8    0    1
 -2       473       453       615      2229      2658      2659
 -1      1078    8    0    1
 -2       453       598       615      2591      2660      2658
 -1      1079    8    0    1
 -2       603       461       604      2601      2604      2661
 -1      1080    8    0    1
 -2       439       380       616      2557      2662      2663
 -1      1081    8    0    1
 -2       581       439       616      2547      2663      2664
 -1      1082    8    0    1
 -2       380       379       616      1951      2665      2662
 -1      1083    8    0    1
 -2       570       428       573      2634      2524      2666
 -1      1084    8    0    1
 -2       616       379       528      2665      2390      2667
 -1      1085    8    0    1
 -2       478       479       617      2246      2668      2669
 -1      1086    8    0    1
 -2       477       478       618      2243      2670      2671
 -1      1087    8    0    1
 -2       478       617       618      2669      2672      2670
 -1      1088    8    0    1
 -2       480       481       619      2252      2673      2674
 -1      1089    8    0    1
 -2       481       482       620      2255      2675      2676
 -1      1090    8    0    1
 -2       481       620       619      2676      2677      2673
 -1      1091    8    0    1
 -2       474       483       621      2258      2678      2679
 -1      1092    8    0    1
 -2       607       588       622      2646      2680      2681
 -1      1093    8    0    1
 -2       588       585       623      2568      2682      2683
 -1      1094    8    0    1
 -2       606       601       624      2624      2684      2685
 -1      1095    8    0    1
 -2       602       597       625      2630      2686      2687
 -1      1096    8    0    1
 -2       487       486       626      2268      2688      2689
 -1      1097    8    0    1
 -2       488       487       627      2271      2690      2691
 -1      1098    8    0    1
 -2       487       626       627      2689      2692      2690
 -1      1099    8    0    1
 -2       489       488       628      2274      2693      2694
 -1      1100    8    0    1
 -2       488       627       628      2691      2695      2693
 -1      1101    8    0    1
 -2       490       489       629      2277      2696      2697
 -1      1102    8    0    1
 -2       489       628       629      2694      2698      2696
 -1      1103    8    0    1
 -2       491       490       630      2280      2699      2700
 -1      1104    8    0    1
 -2       490       629       630      2697      2701      2699
 -1      1105    8    0    1
 -2       492       491       631      2283      2702      2703
 -1      1106    8    0    1
 -2       491       630       631      2700      2704      2702
 -1      1107    8    0    1
 -2       493       492       632      2286      2705      2706
 -1      1108    8    0    1
 -2       492       631       632      2703      2707      2705
 -1      1109    8    0    1
 -2       494       493       633      2289      2708      2709
 -1      1110    8    0    1
 -2       493       632       633      2706      2710      2708
 -1      1111    8    0    1
 -2       495       494       634      2292      2711      2712
 -1      1112    8    0    1
 -2       494       633       634      2709      2713      2711
 -1      1113    8    0    1
 -2       496       495       635      2295      2714      2715
 -1      1114    8    0    1
 -2       495       634       635      2712      2716      2714
 -1      1115    8    0    1
 -2       497       496       636      2298      2717      2718
 -1      1116    8    0    1
 -2       496       635       636      2715      2719      2717
 -1      1117    8    0    1
 -2       498       497       637      2301      2720      2721
 -1      1118    8    0    1
 -2       497       636       637      2718      2722      2720
 -1      1119    8    0    1
 -2       499       498       638      2304      2723      2724
 -1      1120    8    0    1
 -2       498       637       638      2721      2725      2723
 -1      1121    8    0    1
 -2       500       499       639      2307      2726      2727
 -1      1122    8    0    1
 -2       499       638       639      2724      2728      2726
 -1      1123    8    0    1
 -2       501       500       640      2310      2729      2730
 -1      1124    8    0    1
 -2       500       639       640      2727      2731      2729
 -1      1125    8    0    1
 -2       502       501       625      2313      2732      2733
 -1      1126    8    0    1
 -2       504       503       641      2319      2734      2735
 -1      1127    8    0    1
 -2       505       504       642      2322      2736      2737
 -1      1128    8    0    1
 -2       506       505       643      2325      2738      2739
 -1      1129    8    0    1
 -2       505       642       643      2737      2740      2738
 -1      1130    8    0    1
 -2       507       506       644      2328      2741      2742
 -1      1131    8    0    1
 -2       508       507       645      2331      2743      2744
 -1      1132    8    0    1
 -2       507       644       645      2742      2745      2743
 -1      1133    8    0    1
 -2       509       508       646      2334      2746      2747
 -1      1134    8    0    1
 -2       508       645       646      2744      2748      2746
 -1      1135    8    0    1
 -2       510       509       647      2337      2749      2750
 -1      1136    8    0    1
 -2       509       646       647      2747      2751      2749
 -1      1137    8    0    1
 -2       511       510       648      2340      2752      2753
 -1      1138    8    0    1
 -2       510       647       648      2750      2754      2752
 -1      1139    8    0    1
 -2       512       511       649      2343      2755      2756
 -1      1140    8    0    1
 -2       511       648       649      2753      2757      2755
 -1      1141    8    0    1
 -2       513       512       650      2346      2758      2759
 -1      1142    8    0    1
 -2       512       649       650      2756      2760      2758
 -1      1143    8    0    1
 -2       514       513       651      2349      2761      2762
 -1      1144    8    0    1
 -2       513       650       651      2759      2763      2761
 -1      1145    8    0    1
 -2       515       514       652      2352      2764      2765
 -1      1146    8    0    1
 -2       514       651       652      2762      2766      2764
 -1      1147    8    0    1
 -2       516       515       653      2355      2767      2768
 -1      1148    8    0    1
 -2       515       652       653      2765      2769      2767
 -1      1149    8    0    1
 -2       517       516       654      2358      2770      2771
 -1      1150    8    0    1
 -2       516       653       654      2768      2772      2770
 -1      1151    8    0    1
 -2       518       517       655      2361      2773      2774
 -1      1152    8    0    1
 -2       517       654       655      2771      2775      2773
 -1      1153    8    0    1
 -2       519       518       656      2364      2776      2777
 -1      1154    8    0    1
 -2       518       655       656      2774      2778      2776
 -1      1155    8    0    1
 -2       520       519       657      2367      2779      2780
 -1      1156    8    0    1
 -2       519       656       657      2777      2781      2779
 -1      1157    8    0    1
 -2       521       520       658      2370      2782      2783
 -1      1158    8    0    1
 -2       520       657       658      2780      2784      2782
 -1      1159    8    0    1
 -2       522       521       659      2373      2785      2786
 -1      1160    8    0    1
 -2       521       658       659      2783      2787      2785
 -1      1161    8    0    1
 -2       523       522       660      2376      2788      2789
 -1      1162    8    0    1
 -2       522       659       660      2786      2790      2788
 -1      1163    8    0    1
 -2       524       523       661      2379      2791      2792
 -1      1164    8    0    1
 -2       523       660       661      2789      2793      2791
 -1      1165    8    0    1
 -2       525       524       662      2382      2794      2795
 -1      1166    8    0    1
 -2       524       661       662      2792      2796      2794
 -1      1167    8    0    1
 -2       526       525       663      2385      2797      2798
 -1      1168    8    0    1
 -2       525       662       663      2795      2799      2797
 -1      1169    8    0    1
 -2       527       526       664      2388      2800      2801
 -1      1170    8    0    1
 -2       526       663       664      2798      2802      2800
 -1      1171    8    0    1
 -2       528       527       665      2391      2803      2804
 -1      1172    8    0    1
 -2       527       664       665      2801      2805      2803
 -1      1173    8    0    1
 -2       530       531       666      2399      2806      2807
 -1      1174    8    0    1
 -2       570       573       667      2666      2808      2809
 -1      1175    8    0    1
 -2       570       667       569      2809      2810      2516
 -1      1176    8    0    1
 -2       529       530       668      2396      2811      2812
 -1      1177    8    0    1
 -2       530       666       668      2807      2813      2811
 -1      1178    8    0    1
 -2       532       533       669      2405      2814      2815
 -1      1179    8    0    1
 -2       533       534       670      2408      2816      2817
 -1      1180    8    0    1
 -2       533       670       669      2817      2818      2814
 -1      1181    8    0    1
 -2       534       535       671      2411      2819      2820
 -1      1182    8    0    1
 -2       534       671       670      2820      2821      2816
 -1      1183    8    0    1
 -2       535       536       672      2414      2822      2823
 -1      1184    8    0    1
 -2       535       672       671      2823      2824      2819
 -1      1185    8    0    1
 -2       536       537       673      2417      2825      2826
 -1      1186    8    0    1
 -2       536       673       672      2826      2827      2822
 -1      1187    8    0    1
 -2       537       538       674      2420      2828      2829
 -1      1188    8    0    1
 -2       537       674       673      2829      2830      2825
 -1      1189    8    0    1
 -2       538       539       675      2423      2831      2832
 -1      1190    8    0    1
 -2       538       675       674      2832      2833      2828
 -1      1191    8    0    1
 -2       539       540       676      2426      2834      2835
 -1      1192    8    0    1
 -2       539       676       675      2835      2836      2831
 -1      1193    8    0    1
 -2       540       541       677      2429      2837      2838
 -1      1194    8    0    1
 -2       540       677       676      2838      2839      2834
 -1      1195    8    0    1
 -2       541       542       678      2432      2840      2841
 -1      1196    8    0    1
 -2       541       678       677      2841      2842      2837
 -1      1197    8    0    1
 -2       542       543       679      2435      2843      2844
 -1      1198    8    0    1
 -2       542       679       678      2844      2845      2840
 -1      1199    8    0    1
 -2       543       544       680      2438      2846      2847
 -1      1200    8    0    1
 -2       543       680       679      2847      2848      2843
 -1      1201    8    0    1
 -2       544       545       681      2441      2849      2850
 -1      1202    8    0    1
 -2       544       681       680      2850      2851      2846
 -1      1203    8    0    1
 -2       545       546       682      2444      2852      2853
 -1      1204    8    0    1
 -2       545       682       681      2853      2854      2849
 -1      1205    8    0    1
 -2       546       547       683      2447      2855      2856
 -1      1206    8    0    1
 -2       546       683       682      2856      2857      2852
 -1      1207    8    0    1
 -2       547       548       684      2450      2858      2859
 -1      1208    8    0    1
 -2       547       684       683      2859      2860      2855
 -1      1209    8    0    1
 -2       548       549       685      2453      2861      2862
 -1      1210    8    0    1
 -2       548       685       684      2862      2863      2858
 -1      1211    8    0    1
 -2       549       550       686      2456      2864      2865
 -1      1212    8    0    1
 -2       549       686       685      2865      2866      2861
 -1      1213    8    0    1
 -2       550       551       687      2459      2867      2868
 -1      1214    8    0    1
 -2       550       687       686      2868      2869      2864
 -1      1215    8    0    1
 -2       551       552       688      2462      2870      2871
 -1      1216    8    0    1
 -2       551       688       687      2871      2872      2867
 -1      1217    8    0    1
 -2       552       553       689      2465      2873      2874
 -1      1218    8    0    1
 -2       552       689       688      2874      2875      2870
 -1      1219    8    0    1
 -2       553       554       690      2468      2876      2877
 -1      1220    8    0    1
 -2       553       690       689      2877      2878      2873
 -1      1221    8    0    1
 -2       554       555       691      2471      2879      2880
 -1      1222    8    0    1
 -2       554       691       690      2880      2881      2876
 -1      1223    8    0    1
 -2       555       556       692      2474      2882      2883
 -1      1224    8    0    1
 -2       555       692       691      2883      2884      2879
 -1      1225    8    0    1
 -2       556       557       693      2477      2885      2886
 -1      1226    8    0    1
 -2       556       693       692      2886      2887      2882
 -1      1227    8    0    1
 -2       557       558       694      2480      2888      2889
 -1      1228    8    0    1
 -2       557       694       693      2889      2890      2885
 -1      1229    8    0    1
 -2       558       559       695      2483      2891      2892
 -1      1230    8    0    1
 -2       558       695       694      2892      2893      2888
 -1      1231    8    0    1
 -2       559       560       696      2486      2894      2895
 -1      1232    8    0    1
 -2       559       696       695      2895      2896      2891
 -1      1233    8    0    1
 -2       560       561       697      2489      2897      2898
 -1      1234    8    0    1
 -2       560       697       696      2898      2899      2894
 -1      1235    8    0    1
 -2       561       562       698      2492      2900      2901
 -1      1236    8    0    1
 -2       561       698       697      2901      2902      2897
 -1      1237    8    0    1
 -2       562       563       699      2495      2903      2904
 -1      1238    8    0    1
 -2       562       699       698      2904      2905      2900
 -1      1239    8    0    1
 -2       563       564       700      2498      2906      2907
 -1      1240    8    0    1
 -2       563       700       699      2907      2908      2903
 -1      1241    8    0    1
 -2       564       565       701      2501      2909      2910
 -1      1242    8    0    1
 -2       564       701       700      2910      2911      2906
 -1      1243    8    0    1
 -2       565       566       702      2504      2912      2913
 -1      1244    8    0    1
 -2       565       702       701      2913      2914      2909
 -1      1245    8    0    1
 -2       566       567       703      2507      2915      2916
 -1      1246    8    0    1
 -2       566       703       702      2916      2917      2912
 -1      1247    8    0    1
 -2       567       568       704      2510      2918      2919
 -1      1248    8    0    1
 -2       567       704       703      2919      2920      2915
 -1      1249    8    0    1
 -2       568       569       705      2513      2921      2922
 -1      1250    8    0    1
 -2       704       568       705      2918      2922      2923
 -1      1251    8    0    1
 -2       569       667       705      2810      2924      2921
 -1      1252    8    0    1
 -2       583       609       706      2633      2925      2926
 -1      1253    8    0    1
 -2       575       576       707      2534      2927      2928
 -1      1254    8    0    1
 -2       616       528       708      2667      2929      2930
 -1      1255    8    0    1
 -2       581       616       708      2664      2930      2931
 -1      1256    8    0    1
 -2       528       665       708      2804      2932      2929
 -1      1257    8    0    1
 -2       571       572       709      2522      2933      2934
 -1      1258    8    0    1
 -2       576       577       710      2537      2935      2936
 -1      1259    8    0    1
 -2       576       710       707      2936      2937      2927
 -1      1260    8    0    1
 -2       572       575       711      2531      2938      2939
 -1      1261    8    0    1
 -2       709       572       711      2933      2939      2940
 -1      1262    8    0    1
 -2       575       707       711      2928      2941      2938
 -1      1263    8    0    1
 -2       577       578       712      2540      2942      2943
 -1      1264    8    0    1
 -2       577       712       710      2943      2944      2935
 -1      1265    8    0    1
 -2       578       579       713      2543      2945      2946
 -1      1266    8    0    1
 -2       578       713       712      2946      2947      2942
 -1      1267    8    0    1
 -2       579       580       714      2546      2948      2949
 -1      1268    8    0    1
 -2       579       714       713      2949      2950      2945
 -1      1269    8    0    1
 -2       580       581       715      2549      2951      2952
 -1      1270    8    0    1
 -2       714       580       715      2948      2952      2953
 -1      1271    8    0    1
 -2       581       708       715      2931      2954      2951
 -1      1272    8    0    1
 -2       596       590       716      2587      2955      2956
 -1      1273    8    0    1
 -2       582       586       717      2637      2957      2958
 -1      1274    8    0    1
 -2       586       583       718      2638      2959      2960
 -1      1275    8    0    1
 -2       484       587       719      2564      2961      2962
 -1      1276    8    0    1
 -2       608       474       482      2614      2963      2645
 -1      1277    8    0    1
 -2       601       607       720      2631      2964      2965
 -1      1278    8    0    1
 -2       584       529       721      2556      2966      2967
 -1      1279    8    0    1
 -2       529       668       721      2812      2968      2966
 -1      1280    8    0    1
 -2       531       532       722      2402      2969      2970
 -1      1281    8    0    1
 -2       666       531       722      2806      2970      2971
 -1      1282    8    0    1
 -2       532       669       722      2815      2972      2969
 -1      1283    8    0    1
 -2       486       484       723      2265      2973      2974
 -1      1284    8    0    1
 -2       626       486       723      2688      2974      2975
 -1      1285    8    0    1
 -2       484       719       723      2962      2976      2973
 -1      1286    8    0    1
 -2       483       584       724      2621      2977      2978
 -1      1287    8    0    1
 -2       621       483       724      2678      2978      2979
 -1      1288    8    0    1
 -2       584       721       724      2967      2980      2977
 -1      1289    8    0    1
 -2       590       473       725      2647      2981      2982
 -1      1290    8    0    1
 -2       471       600       726      2653      2983      2984
 -1      1291    8    0    1
 -2       479       480       727      2249      2985      2986
 -1      1292    8    0    1
 -2       617       479       727      2668      2986      2987
 -1      1293    8    0    1
 -2       480       619       727      2674      2988      2985
 -1      1294    8    0    1
 -2       604       589       642      2629      2989      2990
 -1      1295    8    0    1
 -2       589       605       728      2648      2991      2992
 -1      1296    8    0    1
 -2       587       445       719      2652      2993      2961
 -1      1297    8    0    1
 -2       585       582       729      2636      2994      2995
 -1      1298    8    0    1
 -2       585       729       623      2995      2996      2682
 -1      1299    8    0    1
 -2       476       475       730      2238      2997      2998
 -1      1300    8    0    1
 -2       603       604       641      2661      2999      3000
 -1      1301    8    0    1
 -2       593       591       731      2655      3001      3002
 -1      1302    8    0    1
 -2       472       599       732      2654      3003      3004
 -1      1303    8    0    1
 -2       605       606       733      2625      3005      3006
 -1      1304    8    0    1
 -2       485       470       734      2656      3007      3008
 -1      1305    8    0    1
 -2       600       602       735      2600      3009      3010
 -1      1306    8    0    1
 -2       597       603       736      2635      3011      3012
 -1      1307    8    0    1
 -2       603       641       736      3000      3013      3011
 -1      1308    8    0    1
 -2       609       485       737      2623      3014      3015
 -1      1309    8    0    1
 -2       594       595       738      2657      3016      3017
 -1      1310    8    0    1
 -2       595       593       739      2617      3018      3019
 -1      1311    8    0    1
 -2       593       731       739      3002      3020      3018
 -1      1312    8    0    1
 -2       610       476       740      2618      3021      3022
 -1      1313    8    0    1
 -2       476       730       740      2998      3023      3021
 -1      1314    8    0    1
 -2       477       618       741      2671      3024      3025
 -1      1315    8    0    1
 -2       477       741       592      3025      3026      2578
 -1      1316    8    0    1
 -2       725       473       615      2981      2659      3027
 -1      1317    8    0    1
 -2       607       622       720      2681      3028      2964
 -1      1318    8    0    1
 -2       588       623       622      2683      3029      2680
 -1      1319    8    0    1
 -2       611       594       742      2628      3030      3031
 -1      1320    8    0    1
 -2       594       738       742      3017      3032      3030
 -1      1321    8    0    1
 -2       738       595       739      3016      3019      3033
 -1      1322    8    0    1
 -2       606       624       733      2685      3034      3005
 -1      1323    8    0    1
 -2       602       625       735      2687      3035      3009
 -1      1324    8    0    1
 -2       501       640       625      2730      3036      2732
 -1      1325    8    0    1
 -2       504       641       642      2735      3037      2736
 -1      1326    8    0    1
 -2       503       502       743      2316      3038      3039
 -1      1327    8    0    1
 -2       506       643       644      2739      3040      2741
 -1      1328    8    0    1
 -2       571       709       744      2934      3041      3042
 -1      1329    8    0    1
 -2       571       744       574      3042      3043      2528
 -1      1330    8    0    1
 -2       583       706       718      2926      3044      2959
 -1      1331    8    0    1
 -2       734       470       611      3007      2627      3045
 -1      1332    8    0    1
 -2       706       609       737      2925      3015      3046
 -1      1333    8    0    1
 -2       596       716       614      2956      3047      2651
 -1      1334    8    0    1
 -2       573       574       667      2527      3048      2808
 -1      1335    8    0    1
 -2       732       599       745      3003      3049      3050
 -1      1336    8    0    1
 -2       599       612       745      2640      3051      3049
 -1      1337    8    0    1
 -2       731       591       746      3001      3052      3053
 -1      1338    8    0    1
 -2       591       614       746      2650      3054      3052
 -1      1339    8    0    1
 -2       716       590       725      2955      2982      3055
 -1      1340    8    0    1
 -2       717       586       718      2957      2960      3056
 -1      1341    8    0    1
 -2       620       482       621      2675      3057      3058
 -1      1342    8    0    1
 -2       612       471       726      2641      2984      3059
 -1      1343    8    0    1
 -2       613       472       732      2644      3004      3060
 -1      1344    8    0    1
 -2       582       717       729      2958      3061      2994
 -1      1345    8    0    1
 -2       482       474       621      2963      2679      3057
 -1      1346    8    0    1
 -2       445       610       719      2620      3062      2993
 -1      1347    8    0    1
 -2       641       604       642      2999      2990      3037
 -1      1348    8    0    1
 -2       625       597       736      2686      3012      3063
 -1      1349    8    0    1
 -2       475       592       747      2577      3064      3065
 -1      1350    8    0    1
 -2       730       475       747      2997      3065      3066
 -1      1351    8    0    1
 -2       592       741       747      3026      3067      3064
 -1      1352    8    0    1
 -2       624       601       720      2684      2965      3068
 -1      1353    8    0    1
 -2       726       600       748      2983      3069      3070
 -1      1354    8    0    1
 -2       600       735       748      3010      3071      3069
 -1      1355    8    0    1
 -2       615       598       749      2660      3072      3073
 -1      1356    8    0    1
 -2       598       613       749      2643      3074      3072
 -1      1357    8    0    1
 -2       728       605       733      2991      3006      3075
 -1      1358    8    0    1
 -2       485       734       737      3008      3076      3014
 -1      1359    8    0    1
 -2       619       620       750      2677      3077      3078
 -1      1360    8    0    1
 -2       739       731       751      3020      3079      3080
 -1      1361    8    0    1
 -2       625       640       735      3036      3081      3035
 -1      1362    8    0    1
 -2       628       627       752      2695      3082      3083
 -1      1363    8    0    1
 -2       629       628       753      2698      3084      3085
 -1      1364    8    0    1
 -2       628       752       753      3083      3086      3084
 -1      1365    8    0    1
 -2       630       629       754      2701      3087      3088
 -1      1366    8    0    1
 -2       629       753       754      3085      3089      3087
 -1      1367    8    0    1
 -2       631       630       755      2704      3090      3091
 -1      1368    8    0    1
 -2       630       754       755      3088      3092      3090
 -1      1369    8    0    1
 -2       632       631       756      2707      3093      3094
 -1      1370    8    0    1
 -2       631       755       756      3091      3095      3093
 -1      1371    8    0    1
 -2       633       632       757      2710      3096      3097
 -1      1372    8    0    1
 -2       632       756       757      3094      3098      3096
 -1      1373    8    0    1
 -2       634       633       758      2713      3099      3100
 -1      1374    8    0    1
 -2       633       757       758      3097      3101      3099
 -1      1375    8    0    1
 -2       635       634       759      2716      3102      3103
 -1      1376    8    0    1
 -2       634       758       759      3100      3104      3102
 -1      1377    8    0    1
 -2       636       635       760      2719      3105      3106
 -1      1378    8    0    1
 -2       635       759       760      3103      3107      3105
 -1      1379    8    0    1
 -2       637       636       761      2722      3108      3109
 -1      1380    8    0    1
 -2       636       760       761      3106      3110      3108
 -1      1381    8    0    1
 -2       638       637       762      2725      3111      3112
 -1      1382    8    0    1
 -2       637       761       762      3109      3113      3111
 -1      1383    8    0    1
 -2       639       638       763      2728      3114      3115
 -1      1384    8    0    1
 -2       638       762       763      3112      3116      3114
 -1      1385    8    0    1
 -2       640       639       748      2731      3117      3118
 -1      1386    8    0    1
 -2       646       645       764      2748      3119      3120
 -1      1387    8    0    1
 -2       647       646       765      2751      3121      3122
 -1      1388    8    0    1
 -2       646       764       765      3120      3123      3121
 -1      1389    8    0    1
 -2       648       647       766      2754      3124      3125
 -1      1390    8    0    1
 -2       647       765       766      3122      3126      3124
 -1      1391    8    0    1
 -2       649       648       767      2757      3127      3128
 -1      1392    8    0    1
 -2       648       766       767      3125      3129      3127
 -1      1393    8    0    1
 -2       650       649       768      2760      3130      3131
 -1      1394    8    0    1
 -2       649       767       768      3128      3132      3130
 -1      1395    8    0    1
 -2       651       650       769      2763      3133      3134
 -1      1396    8    0    1
 -2       650       768       769      3131      3135      3133
 -1      1397    8    0    1
 -2       652       651       770      2766      3136      3137
 -1      1398    8    0    1
 -2       651       769       770      3134      3138      3136
 -1      1399    8    0    1
 -2       653       652       771      2769      3139      3140
 -1      1400    8    0    1
 -2       652       770       771      3137      3141      3139
 -1      1401    8    0    1
 -2       654       653       772      2772      3142      3143
 -1      1402    8    0    1
 -2       653       771       772      3140      3144      3142
 -1      1403    8    0    1
 -2       655       654       773      2775      3145      3146
 -1      1404    8    0    1
 -2       654       772       773      3143      3147      3145
 -1      1405    8    0    1
 -2       656       655       774      2778      3148      3149
 -1      1406    8    0    1
 -2       655       773       774      3146      3150      3148
 -1      1407    8    0    1
 -2       657       656       775      2781      3151      3152
 -1      1408    8    0    1
 -2       656       774       775      3149      3153      3151
 -1      1409    8    0    1
 -2       658       657       776      2784      3154      3155
 -1      1410    8    0    1
 -2       657       775       776      3152      3156      3154
 -1      1411    8    0    1
 -2       659       658       777      2787      3157      3158
 -1      1412    8    0    1
 -2       658       776       777      3155      3159      3157
 -1      1413    8    0    1
 -2       660       659       778      2790      3160      3161
 -1      1414    8    0    1
 -2       659       777       778      3158      3162      3160
 -1      1415    8    0    1
 -2       661       660       779      2793      3163      3164
 -1      1416    8    0    1
 -2       660       778       779      3161      3165      3163
 -1      1417    8    0    1
 -2       662       661       780      2796      3166      3167
 -1      1418    8    0    1
 -2       661       779       780      3164      3168      3166
 -1      1419    8    0    1
 -2       663       662       781      2799      3169      3170
 -1      1420    8    0    1
 -2       662       780       781      3167      3171      3169
 -1      1421    8    0    1
 -2       664       663       782      2802      3172      3173
 -1      1422    8    0    1
 -2       663       781       782      3170      3174      3172
 -1      1423    8    0    1
 -2       665       664       783      2805      3175      3176
 -1      1424    8    0    1
 -2       664       782       783      3173      3177      3175
 -1      1425    8    0    1
 -2       668       666       784      2813      3178      3179
 -1      1426    8    0    1
 -2       670       671       785      2821      3180      3181
 -1      1427    8    0    1
 -2       669       670       786      2818      3182      3183
 -1      1428    8    0    1
 -2       670       785       786      3181      3184      3182
 -1      1429    8    0    1
 -2       672       673       787      2827      3185      3186
 -1      1430    8    0    1
 -2       673       674       788      2830      3187      3188
 -1      1431    8    0    1
 -2       673       788       787      3188      3189      3185
 -1      1432    8    0    1
 -2       674       675       789      2833      3190      3191
 -1      1433    8    0    1
 -2       674       789       788      3191      3192      3187
 -1      1434    8    0    1
 -2       675       676       790      2836      3193      3194
 -1      1435    8    0    1
 -2       675       790       789      3194      3195      3190
 -1      1436    8    0    1
 -2       676       677       791      2839      3196      3197
 -1      1437    8    0    1
 -2       676       791       790      3197      3198      3193
 -1      1438    8    0    1
 -2       677       678       792      2842      3199      3200
 -1      1439    8    0    1
 -2       677       792       791      3200      3201      3196
 -1      1440    8    0    1
 -2       678       679       793      2845      3202      3203
 -1      1441    8    0    1
 -2       678       793       792      3203      3204      3199
 -1      1442    8    0    1
 -2       679       680       794      2848      3205      3206
 -1      1443    8    0    1
 -2       679       794       793      3206      3207      3202
 -1      1444    8    0    1
 -2       680       681       751      2851      3208      3209
 -1      1445    8    0    1
 -2       682       683       742      2857      3210      3211
 -1      1446    8    0    1
 -2       684       685       795      2863      3212      3213
 -1      1447    8    0    1
 -2       685       686       796      2866      3214      3215
 -1      1448    8    0    1
 -2       685       796       795      3215      3216      3212
 -1      1449    8    0    1
 -2       686       687       797      2869      3217      3218
 -1      1450    8    0    1
 -2       686       797       796      3218      3219      3214
 -1      1451    8    0    1
 -2       687       688       798      2872      3220      3221
 -1      1452    8    0    1
 -2       687       798       797      3221      3222      3217
 -1      1453    8    0    1
 -2       688       689       799      2875      3223      3224
 -1      1454    8    0    1
 -2       688       799       798      3224      3225      3220
 -1      1455    8    0    1
 -2       689       690       800      2878      3226      3227
 -1      1456    8    0    1
 -2       689       800       799      3227      3228      3223
 -1      1457    8    0    1
 -2       690       691       801      2881      3229      3230
 -1      1458    8    0    1
 -2       690       801       800      3230      3231      3226
 -1      1459    8    0    1
 -2       691       692       802      2884      3232      3233
 -1      1460    8    0    1
 -2       691       802       801      3233      3234      3229
 -1      1461    8    0    1
 -2       692       693       803      2887      3235      3236
 -1      1462    8    0    1
 -2       692       803       802      3236      3237      3232
 -1      1463    8    0    1
 -2       693       694       804      2890      3238      3239
 -1      1464    8    0    1
 -2       693       804       803      3239      3240      3235
 -1      1465    8    0    1
 -2       694       695       805      2893      3241      3242
 -1      1466    8    0    1
 -2       694       805       804      3242      3243      3238
 -1      1467    8    0    1
 -2       695       696       806      2896      3244      3245
 -1      1468    8    0    1
 -2       695       806       805      3245      3246      3241
 -1      1469    8    0    1
 -2       696       697       807      2899      3247      3248
 -1      1470    8    0    1
 -2       696       807       806      3248      3249      3244
 -1      1471    8    0    1
 -2       697       698       808      2902      3250      3251
 -1      1472    8    0    1
 -2       697       808       807      3251      3252      3247
 -1      1473    8    0    1
 -2       698       699       809      2905      3253      3254
 -1      1474    8    0    1
 -2       698       809       808      3254      3255      3250
 -1      1475    8    0    1
 -2       699       700       810      2908      3256      3257
 -1      1476    8    0    1
 -2       699       810       809      3257      3258      3253
 -1      1477    8    0    1
 -2       700       701       811      2911      3259      3260
 -1      1478    8    0    1
 -2       700       811       810      3260      3261      3256
 -1      1479    8    0    1
 -2       701       702       812      2914      3262      3263
 -1      1480    8    0    1
 -2       701       812       811      3263      3264      3259
 -1      1481    8    0    1
 -2       702       703       813      2917      3265      3266
 -1      1482    8    0    1
 -2       702       813       812      3266      3267      3262
 -1      1483    8    0    1
 -2       703       704       814      2920      3268      3269
 -1      1484    8    0    1
 -2       703       814       813      3269      3270      3265
 -1      1485    8    0    1
 -2       710       712       815      2944      3271      3272
 -1      1486    8    0    1
 -2       712       713       816      2947      3273      3274
 -1      1487    8    0    1
 -2       712       816       815      3274      3275      3271
 -1      1488    8    0    1
 -2       707       710       817      2937      3276      3277
 -1      1489    8    0    1
 -2       710       815       817      3272      3278      3276
 -1      1490    8    0    1
 -2       734       611       818      3045      3279      3280
 -1      1491    8    0    1
 -2       721       668       819      2968      3281      3282
 -1      1492    8    0    1
 -2       668       784       819      3179      3283      3281
 -1      1493    8    0    1
 -2       719       610       740      3062      3022      3284
 -1      1494    8    0    1
 -2       623       729       820      2996      3285      3286
 -1      1495    8    0    1
 -2       612       726       821      3059      3287      3288
 -1      1496    8    0    1
 -2       708       665       715      2932      3289      2954
 -1      1497    8    0    1
 -2       671       672       822      2824      3290      3291
 -1      1498    8    0    1
 -2       785       671       822      3180      3291      3292
 -1      1499    8    0    1
 -2       672       787       822      3186      3293      3290
 -1      1500    8    0    1
 -2       620       621       823      3058      3294      3295
 -1      1501    8    0    1
 -2       750       620       823      3077      3295      3296
 -1      1502    8    0    1
 -2       621       724       823      2979      3297      3294
 -1      1503    8    0    1
 -2       622       623       824      3029      3298      3299
 -1      1504    8    0    1
 -2       667       574       744      3048      3043      3300
 -1      1505    8    0    1
 -2       725       615       825      3027      3301      3302
 -1      1506    8    0    1
 -2       717       718       826      3056      3303      3304
 -1      1507    8    0    1
 -2       641       503       736      2734      3305      3013
 -1      1508    8    0    1
 -2       718       706       827      3044      3306      3307
 -1      1509    8    0    1
 -2       627       626       828      2692      3308      3309
 -1      1510    8    0    1
 -2       627       828       752      3309      3310      3082
 -1      1511    8    0    1
 -2       613       732       829      3060      3311      3312
 -1      1512    8    0    1
 -2       589       728       642      2992      3313      2989
 -1      1513    8    0    1
 -2       720       622       830      3028      3314      3315
 -1      1514    8    0    1
 -2       624       720       764      3068      3316      3317
 -1      1515    8    0    1
 -2       614       716       831      3047      3318      3319
 -1      1516    8    0    1
 -2       729       717       832      3061      3320      3321
 -1      1517    8    0    1
 -2       729       832       820      3321      3322      3285
 -1      1518    8    0    1
 -2       737       734       833      3076      3323      3324
 -1      1519    8    0    1
 -2       713       714       834      2950      3325      3326
 -1      1520    8    0    1
 -2       713       834       816      3326      3327      3273
 -1      1521    8    0    1
 -2       716       725       835      3055      3328      3329
 -1      1522    8    0    1
 -2       706       737       836      3046      3330      3331
 -1      1523    8    0    1
 -2       618       617       837      2672      3332      3333
 -1      1524    8    0    1
 -2       738       739       838      3033      3334      3335
 -1      1525    8    0    1
 -2       733       624       839      3034      3336      3337
 -1      1526    8    0    1
 -2       735       640       748      3081      3118      3071
 -1      1527    8    0    1
 -2       741       618       840      3024      3338      3339
 -1      1528    8    0    1
 -2       618       837       840      3333      3340      3338
 -1      1529    8    0    1
 -2       739       751       838      3080      3341      3334
 -1      1530    8    0    1
 -2       718       827       826      3307      3342      3303
 -1      1531    8    0    1
 -2       613       829       841      3312      3343      3344
 -1      1532    8    0    1
 -2       613       841       749      3344      3345      3074
 -1      1533    8    0    1
 -2       639       763       748      3115      3346      3117
 -1      1534    8    0    1
 -2       719       740       723      3284      3347      2976
 -1      1535    8    0    1
 -2       644       643       733      3040      3348      3349
 -1      1536    8    0    1
 -2       626       723       842      2975      3350      3351
 -1      1537    8    0    1
 -2       626       842       828      3351      3352      3308
 -1      1538    8    0    1
 -2       744       709       843      3041      3353      3354
 -1      1539    8    0    1
 -2       725       825       835      3302      3355      3328
 -1      1540    8    0    1
 -2       665       783       715      3176      3356      3289
 -1      1541    8    0    1
 -2       784       666       844      3178      3357      3358
 -1      1542    8    0    1
 -2       666       722       844      2971      3359      3357
 -1      1543    8    0    1
 -2       843       709       845      3353      3360      3361
 -1      1544    8    0    1
 -2       709       711       845      2940      3362      3360
 -1      1545    8    0    1
 -2       644       733       839      3349      3337      3363
 -1      1546    8    0    1
 -2       669       786       846      3183      3364      3365
 -1      1547    8    0    1
 -2       669       846       722      3365      3366      2972
 -1      1548    8    0    1
 -2       680       751       794      3209      3367      3205
 -1      1549    8    0    1
 -2       751       681       838      3208      3368      3341
 -1      1550    8    0    1
 -2       681       682       838      2854      3369      3368
 -1      1551    8    0    1
 -2       684       795       818      3213      3370      3371
 -1      1552    8    0    1
 -2       683       684       818      2860      3371      3372
 -1      1553    8    0    1
 -2       734       818       833      3280      3373      3323
 -1      1554    8    0    1
 -2       814       704       847      3268      3374      3375
 -1      1555    8    0    1
 -2       704       705       847      2923      3376      3374
 -1      1556    8    0    1
 -2       837       617       848      3332      3377      3378
 -1      1557    8    0    1
 -2       617       727       848      2987      3379      3377
 -1      1558    8    0    1
 -2       836       737       833      3330      3324      3380
 -1      1559    8    0    1
 -2       818       611       742      3279      3031      3381
 -1      1560    8    0    1
 -2       711       707       849      2941      3382      3383
 -1      1561    8    0    1
 -2       845       711       849      3362      3383      3384
 -1      1562    8    0    1
 -2       707       817       849      3277      3385      3382
 -1      1563    8    0    1
 -2       745       612       821      3051      3288      3386
 -1      1564    8    0    1
 -2       746       614       831      3054      3319      3387
 -1      1565    8    0    1
 -2       714       715       783      2953      3356      3388
 -1      1566    8    0    1
 -2       832       717       826      3320      3304      3389
 -1      1567    8    0    1
 -2       831       716       850      3318      3390      3391
 -1      1568    8    0    1
 -2       716       835       850      3329      3392      3390
 -1      1569    8    0    1
 -2       764       720       830      3316      3315      3393
 -1      1570    8    0    1
 -2       732       745       851      3050      3394      3395
 -1      1571    8    0    1
 -2       732       851       829      3395      3396      3311
 -1      1572    8    0    1
 -2       622       824       830      3299      3397      3314
 -1      1573    8    0    1
 -2       667       744       852      3300      3398      3399
 -1      1574    8    0    1
 -2       705       667       852      2924      3399      3400
 -1      1575    8    0    1
 -2       744       843       852      3354      3401      3398
 -1      1576    8    0    1
 -2       645       644       839      2745      3363      3402
 -1      1577    8    0    1
 -2       825       615       853      3301      3403      3404
 -1      1578    8    0    1
 -2       615       749       853      3073      3405      3403
 -1      1579    8    0    1
 -2       742       683       818      3210      3372      3381
 -1      1580    8    0    1
 -2       827       706       836      3306      3331      3406
 -1      1581    8    0    1
 -2       724       721       854      2980      3407      3408
 -1      1582    8    0    1
 -2       823       724       854      3297      3408      3409
 -1      1583    8    0    1
 -2       721       819       854      3282      3410      3407
 -1      1584    8    0    1
 -2       727       619       855      2988      3411      3412
 -1      1585    8    0    1
 -2       848       727       855      3379      3412      3413
 -1      1586    8    0    1
 -2       619       750       855      3078      3414      3411
 -1      1587    8    0    1
 -2       751       731       794      3079      3415      3367
 -1      1588    8    0    1
 -2       714       783       834      3388      3416      3325
 -1      1589    8    0    1
 -2       764       645       839      3119      3402      3417
 -1      1590    8    0    1
 -2       623       820       824      3286      3418      3298
 -1      1591    8    0    1
 -2       730       747       856      3066      3419      3420
 -1      1592    8    0    1
 -2       740       730       857      3023      3421      3422
 -1      1593    8    0    1
 -2       730       856       857      3420      3423      3421
 -1      1594    8    0    1
 -2       796       797       858      3219      3424      3425
 -1      1595    8    0    1
 -2       502       625       743      2733      3426      3038
 -1      1596    8    0    1
 -2       754       753       859      3089      3427      3428
 -1      1597    8    0    1
 -2       755       754       860      3092      3429      3430
 -1      1598    8    0    1
 -2       754       859       860      3428      3431      3429
 -1      1599    8    0    1
 -2       756       755       861      3095      3432      3433
 -1      1600    8    0    1
 -2       755       860       861      3430      3434      3432
 -1      1601    8    0    1
 -2       757       756       862      3098      3435      3436
 -1      1602    8    0    1
 -2       756       861       862      3433      3437      3435
 -1      1603    8    0    1
 -2       758       757       863      3101      3438      3439
 -1      1604    8    0    1
 -2       757       862       863      3436      3440      3438
 -1      1605    8    0    1
 -2       759       758       864      3104      3441      3442
 -1      1606    8    0    1
 -2       758       863       864      3439      3443      3441
 -1      1607    8    0    1
 -2       760       759       865      3107      3444      3445
 -1      1608    8    0    1
 -2       759       864       865      3442      3446      3444
 -1      1609    8    0    1
 -2       761       760       866      3110      3447      3448
 -1      1610    8    0    1
 -2       760       865       866      3445      3449      3447
 -1      1611    8    0    1
 -2       762       761       867      3113      3450      3451
 -1      1612    8    0    1
 -2       761       866       867      3448      3452      3450
 -1      1613    8    0    1
 -2       763       762       868      3116      3453      3454
 -1      1614    8    0    1
 -2       762       867       868      3451      3455      3453
 -1      1615    8    0    1
 -2       723       740       842      3347      3456      3350
 -1      1616    8    0    1
 -2       625       736       743      3063      3457      3426
 -1      1617    8    0    1
 -2       835       825       869      3355      3458      3459
 -1      1618    8    0    1
 -2       766       765       870      3126      3460      3461
 -1      1619    8    0    1
 -2       767       766       871      3129      3462      3463
 -1      1620    8    0    1
 -2       766       870       871      3461      3464      3462
 -1      1621    8    0    1
 -2       768       767       872      3132      3465      3466
 -1      1622    8    0    1
 -2       767       871       872      3463      3467      3465
 -1      1623    8    0    1
 -2       769       768       873      3135      3468      3469
 -1      1624    8    0    1
 -2       768       872       873      3466      3470      3468
 -1      1625    8    0    1
 -2       770       769       874      3138      3471      3472
 -1      1626    8    0    1
 -2       769       873       874      3469      3473      3471
 -1      1627    8    0    1
 -2       771       770       875      3141      3474      3475
 -1      1628    8    0    1
 -2       770       874       875      3472      3476      3474
 -1      1629    8    0    1
 -2       772       771       876      3144      3477      3478
 -1      1630    8    0    1
 -2       771       875       876      3475      3479      3477
 -1      1631    8    0    1
 -2       773       772       877      3147      3480      3481
 -1      1632    8    0    1
 -2       772       876       877      3478      3482      3480
 -1      1633    8    0    1
 -2       774       773       878      3150      3483      3484
 -1      1634    8    0    1
 -2       773       877       878      3481      3485      3483
 -1      1635    8    0    1
 -2       775       774       879      3153      3486      3487
 -1      1636    8    0    1
 -2       774       878       879      3484      3488      3486
 -1      1637    8    0    1
 -2       776       775       880      3156      3489      3490
 -1      1638    8    0    1
 -2       775       879       880      3487      3491      3489
 -1      1639    8    0    1
 -2       777       776       881      3159      3492      3493
 -1      1640    8    0    1
 -2       776       880       881      3490      3494      3492
 -1      1641    8    0    1
 -2       778       777       882      3162      3495      3496
 -1      1642    8    0    1
 -2       777       881       882      3493      3497      3495
 -1      1643    8    0    1
 -2       779       778       883      3165      3498      3499
 -1      1644    8    0    1
 -2       778       882       883      3496      3500      3498
 -1      1645    8    0    1
 -2       780       779       884      3168      3501      3502
 -1      1646    8    0    1
 -2       779       883       884      3499      3503      3501
 -1      1647    8    0    1
 -2       781       780       885      3171      3504      3505
 -1      1648    8    0    1
 -2       780       884       885      3502      3506      3504
 -1      1649    8    0    1
 -2       782       781       886      3174      3507      3508
 -1      1650    8    0    1
 -2       781       885       886      3505      3509      3507
 -1      1651    8    0    1
 -2       783       782       887      3177      3510      3511
 -1      1652    8    0    1
 -2       834       783       887      3416      3511      3512
 -1      1653    8    0    1
 -2       782       886       887      3508      3513      3510
 -1      1654    8    0    1
 -2       839       624       764      3336      3317      3417
 -1      1655    8    0    1
 -2       826       827       888      3342      3514      3515
 -1      1656    8    0    1
 -2       788       789       889      3192      3516      3517
 -1      1657    8    0    1
 -2       787       788       890      3189      3518      3519
 -1      1658    8    0    1
 -2       788       889       890      3517      3520      3518
 -1      1659    8    0    1
 -2       790       791       891      3198      3521      3522
 -1      1660    8    0    1
 -2       791       792       892      3201      3523      3524
 -1      1661    8    0    1
 -2       791       892       891      3524      3525      3521
 -1      1662    8    0    1
 -2       792       793       850      3204      3526      3527
 -1      1663    8    0    1
 -2       793       794       831      3207      3528      3529
 -1      1664    8    0    1
 -2       833       818       795      3373      3370      3530
 -1      1665    8    0    1
 -2       682       742       838      3211      3531      3369
 -1      1666    8    0    1
 -2       795       796       833      3216      3532      3530
 -1      1667    8    0    1
 -2       798       799       893      3225      3533      3534
 -1      1668    8    0    1
 -2       799       800       894      3228      3535      3536
 -1      1669    8    0    1
 -2       799       894       893      3536      3537      3533
 -1      1670    8    0    1
 -2       800       801       895      3231      3538      3539
 -1      1671    8    0    1
 -2       800       895       894      3539      3540      3535
 -1      1672    8    0    1
 -2       801       802       896      3234      3541      3542
 -1      1673    8    0    1
 -2       801       896       895      3542      3543      3538
 -1      1674    8    0    1
 -2       802       803       897      3237      3544      3545
 -1      1675    8    0    1
 -2       802       897       896      3545      3546      3541
 -1      1676    8    0    1
 -2       803       804       898      3240      3547      3548
 -1      1677    8    0    1
 -2       803       898       897      3548      3549      3544
 -1      1678    8    0    1
 -2       804       805       899      3243      3550      3551
 -1      1679    8    0    1
 -2       804       899       898      3551      3552      3547
 -1      1680    8    0    1
 -2       805       806       900      3246      3553      3554
 -1      1681    8    0    1
 -2       805       900       899      3554      3555      3550
 -1      1682    8    0    1
 -2       806       807       901      3249      3556      3557
 -1      1683    8    0    1
 -2       806       901       900      3557      3558      3553
 -1      1684    8    0    1
 -2       807       808       902      3252      3559      3560
 -1      1685    8    0    1
 -2       807       902       901      3560      3561      3556
 -1      1686    8    0    1
 -2       808       809       903      3255      3562      3563
 -1      1687    8    0    1
 -2       808       903       902      3563      3564      3559
 -1      1688    8    0    1
 -2       809       810       904      3258      3565      3566
 -1      1689    8    0    1
 -2       809       904       903      3566      3567      3562
 -1      1690    8    0    1
 -2       810       811       905      3261      3568      3569
 -1      1691    8    0    1
 -2       810       905       904      3569      3570      3565
 -1      1692    8    0    1
 -2       811       812       906      3264      3571      3572
 -1      1693    8    0    1
 -2       811       906       905      3572      3573      3568
 -1      1694    8    0    1
 -2       812       813       907      3267      3574      3575
 -1      1695    8    0    1
 -2       812       907       906      3575      3576      3571
 -1      1696    8    0    1
 -2       813       814       908      3270      3577      3578
 -1      1697    8    0    1
 -2       813       908       907      3578      3579      3574
 -1      1698    8    0    1
 -2       745       821       909      3386      3580      3581
 -1      1699    8    0    1
 -2       815       816       910      3275      3582      3583
 -1      1700    8    0    1
 -2       817       815       911      3278      3584      3585
 -1      1701    8    0    1
 -2       815       910       911      3583      3586      3584
 -1      1702    8    0    1
 -2       821       726       912      3287      3587      3588
 -1      1703    8    0    1
 -2       827       836       913      3406      3589      3590
 -1      1704    8    0    1
 -2       824       820       914      3418      3591      3592
 -1      1705    8    0    1
 -2       819       784       915      3283      3593      3594
 -1      1706    8    0    1
 -2       797       798       916      3222      3595      3596
 -1      1707    8    0    1
 -2       858       797       916      3424      3596      3597
 -1      1708    8    0    1
 -2       798       893       916      3534      3598      3595
 -1      1709    8    0    1
 -2       503       743       736      3039      3457      3305
 -1      1710    8    0    1
 -2       752       828       917      3310      3599      3600
 -1      1711    8    0    1
 -2       830       824       918      3397      3601      3602
 -1      1712    8    0    1
 -2       786       785       919      3184      3603      3604
 -1      1713    8    0    1
 -2       747       741       920      3067      3605      3606
 -1      1714    8    0    1
 -2       747       920       856      3606      3607      3419
 -1      1715    8    0    1
 -2       765       764       830      3123      3393      3608
 -1      1716    8    0    1
 -2       753       752       921      3086      3609      3610
 -1      1717    8    0    1
 -2       753       921       859      3610      3611      3427
 -1      1718    8    0    1
 -2       789       790       922      3195      3612      3613
 -1      1719    8    0    1
 -2       889       789       922      3516      3613      3614
 -1      1720    8    0    1
 -2       790       891       922      3522      3615      3612
 -1      1721    8    0    1
 -2       820       832       923      3322      3616      3617
 -1      1722    8    0    1
 -2       726       748       912      3070      3618      3587
 -1      1723    8    0    1
 -2       816       834       924      3327      3619      3620
 -1      1724    8    0    1
 -2       910       816       924      3582      3620      3621
 -1      1725    8    0    1
 -2       834       887       924      3512      3622      3619
 -1      1726    8    0    1
 -2       832       826       925      3389      3623      3624
 -1      1727    8    0    1
 -2       793       831       850      3529      3391      3526
 -1      1728    8    0    1
 -2       821       912       926      3588      3625      3626
 -1      1729    8    0    1
 -2       742       738       838      3032      3335      3531
 -1      1730    8    0    1
 -2       855       750       927      3414      3627      3628
 -1      1731    8    0    1
 -2       841       829       928      3343      3629      3630
 -1      1732    8    0    1
 -2       917       828       929      3599      3631      3632
 -1      1733    8    0    1
 -2       828       842       929      3352      3633      3631
 -1      1734    8    0    1
 -2       763       868       926      3454      3634      3635
 -1      1735    8    0    1
 -2       733       643       728      3348      3636      3075
 -1      1736    8    0    1
 -2       869       825       930      3458      3637      3638
 -1      1737    8    0    1
 -2       825       853       930      3404      3639      3637
 -1      1738    8    0    1
 -2       844       722       846      3359      3366      3640
 -1      1739    8    0    1
 -2       832       925       923      3624      3641      3616
 -1      1740    8    0    1
 -2       846       786       931      3364      3642      3643
 -1      1741    8    0    1
 -2       786       919       931      3604      3644      3642
 -1      1742    8    0    1
 -2       750       823       932      3296      3645      3646
 -1      1743    8    0    1
 -2       927       750       932      3627      3646      3647
 -1      1744    8    0    1
 -2       823       854       932      3409      3648      3645
 -1      1745    8    0    1
 -2       820       923       914      3617      3649      3591
 -1      1746    8    0    1
 -2       787       890       933      3519      3650      3651
 -1      1747    8    0    1
 -2       787       933       822      3651      3652      3293
 -1      1748    8    0    1
 -2       792       850       892      3527      3653      3523
 -1      1749    8    0    1
 -2       821       926       909      3626      3654      3580
 -1      1750    8    0    1
 -2       919       785       934      3603      3655      3656
 -1      1751    8    0    1
 -2       785       822       934      3292      3657      3655
 -1      1752    8    0    1
 -2       925       826       935      3623      3658      3659
 -1      1753    8    0    1
 -2       826       888       935      3515      3660      3658
 -1      1754    8    0    1
 -2       745       909       851      3581      3661      3394
 -1      1755    8    0    1
 -2       908       814       936      3577      3662      3663
 -1      1756    8    0    1
 -2       814       847       936      3375      3664      3662
 -1      1757    8    0    1
 -2       847       705       852      3376      3400      3665
 -1      1758    8    0    1
 -2       913       836       858      3589      3666      3667
 -1      1759    8    0    1
 -2       837       848       937      3378      3668      3669
 -1      1760    8    0    1
 -2       843       845       938      3361      3670      3671
 -1      1761    8    0    1
 -2       840       837       939      3340      3672      3673
 -1      1762    8    0    1
 -2       837       937       939      3669      3674      3672
 -1      1763    8    0    1
 -2       817       911       940      3585      3675      3676
 -1      1764    8    0    1
 -2       817       940       849      3676      3677      3385
 -1      1765    8    0    1
 -2       827       913       888      3590      3678      3514
 -1      1766    8    0    1
 -2       850       835       941      3392      3679      3680
 -1      1767    8    0    1
 -2       892       850       941      3653      3680      3681
 -1      1768    8    0    1
 -2       835       869       941      3459      3682      3679
 -1      1769    8    0    1
 -2       824       914       918      3592      3683      3601
 -1      1770    8    0    1
 -2       784       844       942      3358      3684      3685
 -1      1771    8    0    1
 -2       784       942       915      3685      3686      3593
 -1      1772    8    0    1
 -2       819       915       943      3594      3687      3688
 -1      1773    8    0    1
 -2       731       746       794      3053      3689      3415
 -1      1774    8    0    1
 -2       749       841       853      3345      3690      3405
 -1      1775    8    0    1
 -2       643       642       728      2740      3313      3636
 -1      1776    8    0    1
 -2       752       917       921      3600      3691      3609
 -1      1777    8    0    1
 -2       854       819       943      3410      3688      3692
 -1      1778    8    0    1
 -2       856       920       944      3607      3693      3694
 -1      1779    8    0    1
 -2       741       840       920      3339      3695      3605
 -1      1780    8    0    1
 -2       836       833       796      3380      3532      3696
 -1      1781    8    0    1
 -2       829       851       928      3396      3697      3629
 -1      1782    8    0    1
 -2       794       746       831      3689      3387      3528
 -1      1783    8    0    1
 -2       843       938       936      3671      3698      3699
 -1      1784    8    0    1
 -2       856       944       929      3694      3700      3701
 -1      1785    8    0    1
 -2       841       928       945      3630      3702      3703
 -1      1786    8    0    1
 -2       841       945       853      3703      3704      3690
 -1      1787    8    0    1
 -2       926       868       946      3634      3705      3706
 -1      1788    8    0    1
 -2       909       926       946      3654      3706      3707
 -1      1789    8    0    1
 -2       868       867       946      3455      3708      3705
 -1      1790    8    0    1
 -2       921       917       947      3691      3709      3710
 -1      1791    8    0    1
 -2       861       860       948      3434      3711      3712
 -1      1792    8    0    1
 -2       862       861       949      3437      3713      3714
 -1      1793    8    0    1
 -2       861       948       949      3712      3715      3713
 -1      1794    8    0    1
 -2       863       862       950      3440      3716      3717
 -1      1795    8    0    1
 -2       862       949       950      3714      3718      3716
 -1      1796    8    0    1
 -2       864       863       951      3443      3719      3720
 -1      1797    8    0    1
 -2       863       950       951      3717      3721      3719
 -1      1798    8    0    1
 -2       865       864       952      3446      3722      3723
 -1      1799    8    0    1
 -2       864       951       952      3720      3724      3722
 -1      1800    8    0    1
 -2       866       865       953      3449      3725      3726
 -1      1801    8    0    1
 -2       865       952       953      3723      3727      3725
 -1      1802    8    0    1
 -2       867       866       954      3452      3728      3729
 -1      1803    8    0    1
 -2       866       953       954      3726      3730      3728
 -1      1804    8    0    1
 -2       842       740       857      3456      3422      3731
 -1      1805    8    0    1
 -2       763       926       912      3635      3625      3732
 -1      1806    8    0    1
 -2       890       889       955      3520      3733      3734
 -1      1807    8    0    1
 -2       872       871       956      3467      3735      3736
 -1      1808    8    0    1
 -2       873       872       957      3470      3737      3738
 -1      1809    8    0    1
 -2       872       956       957      3736      3739      3737
 -1      1810    8    0    1
 -2       874       873       958      3473      3740      3741
 -1      1811    8    0    1
 -2       873       957       958      3738      3742      3740
 -1      1812    8    0    1
 -2       875       874       959      3476      3743      3744
 -1      1813    8    0    1
 -2       874       958       959      3741      3745      3743
 -1      1814    8    0    1
 -2       876       875       960      3479      3746      3747
 -1      1815    8    0    1
 -2       875       959       960      3744      3748      3746
 -1      1816    8    0    1
 -2       877       876       961      3482      3749      3750
 -1      1817    8    0    1
 -2       876       960       961      3747      3751      3749
 -1      1818    8    0    1
 -2       878       877       962      3485      3752      3753
 -1      1819    8    0    1
 -2       877       961       962      3750      3754      3752
 -1      1820    8    0    1
 -2       879       878       963      3488      3755      3756
 -1      1821    8    0    1
 -2       878       962       963      3753      3757      3755
 -1      1822    8    0    1
 -2       880       879       964      3491      3758      3759
 -1      1823    8    0    1
 -2       879       963       964      3756      3760      3758
 -1      1824    8    0    1
 -2       881       880       965      3494      3761      3762
 -1      1825    8    0    1
 -2       880       964       965      3759      3763      3761
 -1      1826    8    0    1
 -2       882       881       966      3497      3764      3765
 -1      1827    8    0    1
 -2       881       965       966      3762      3766      3764
 -1      1828    8    0    1
 -2       883       882       967      3500      3767      3768
 -1      1829    8    0    1
 -2       882       966       967      3765      3769      3767
 -1      1830    8    0    1
 -2       884       883       968      3503      3770      3771
 -1      1831    8    0    1
 -2       883       967       968      3768      3772      3770
 -1      1832    8    0    1
 -2       885       884       969      3506      3773      3774
 -1      1833    8    0    1
 -2       884       968       969      3771      3775      3773
 -1      1834    8    0    1
 -2       886       885       970      3509      3776      3777
 -1      1835    8    0    1
 -2       885       969       970      3774      3778      3776
 -1      1836    8    0    1
 -2       887       886       971      3513      3779      3780
 -1      1837    8    0    1
 -2       924       887       971      3622      3780      3781
 -1      1838    8    0    1
 -2       886       970       971      3777      3782      3779
 -1      1839    8    0    1
 -2       843       936       852      3699      3783      3401
 -1      1840    8    0    1
 -2       891       892       941      3525      3681      3784
 -1      1841    8    0    1
 -2       938       845       972      3670      3785      3786
 -1      1842    8    0    1
 -2       845       849       972      3384      3787      3785
 -1      1843    8    0    1
 -2       895       896       973      3543      3788      3789
 -1      1844    8    0    1
 -2       894       895       974      3540      3790      3791
 -1      1845    8    0    1
 -2       895       973       974      3789      3792      3790
 -1      1846    8    0    1
 -2       893       894       975      3537      3793      3794
 -1      1847    8    0    1
 -2       894       974       975      3791      3795      3793
 -1      1848    8    0    1
 -2       896       897       976      3546      3796      3797
 -1      1849    8    0    1
 -2       896       976       973      3797      3798      3788
 -1      1850    8    0    1
 -2       897       898       977      3549      3799      3800
 -1      1851    8    0    1
 -2       897       977       976      3800      3801      3796
 -1      1852    8    0    1
 -2       898       899       978      3552      3802      3803
 -1      1853    8    0    1
 -2       898       978       977      3803      3804      3799
 -1      1854    8    0    1
 -2       899       900       979      3555      3805      3806
 -1      1855    8    0    1
 -2       899       979       978      3806      3807      3802
 -1      1856    8    0    1
 -2       900       901       980      3558      3808      3809
 -1      1857    8    0    1
 -2       900       980       979      3809      3810      3805
 -1      1858    8    0    1
 -2       901       902       981      3561      3811      3812
 -1      1859    8    0    1
 -2       901       981       980      3812      3813      3808
 -1      1860    8    0    1
 -2       902       903       982      3564      3814      3815
 -1      1861    8    0    1
 -2       902       982       981      3815      3816      3811
 -1      1862    8    0    1
 -2       903       904       983      3567      3817      3818
 -1      1863    8    0    1
 -2       903       983       982      3818      3819      3814
 -1      1864    8    0    1
 -2       904       905       984      3570      3820      3821
 -1      1865    8    0    1
 -2       904       984       983      3821      3822      3817
 -1      1866    8    0    1
 -2       905       906       985      3573      3823      3824
 -1      1867    8    0    1
 -2       905       985       984      3824      3825      3820
 -1      1868    8    0    1
 -2       906       907       986      3576      3826      3827
 -1      1869    8    0    1
 -2       906       986       985      3827      3828      3823
 -1      1870    8    0    1
 -2       907       908       987      3579      3829      3830
 -1      1871    8    0    1
 -2       907       987       986      3830      3831      3826
 -1      1872    8    0    1
 -2       856       929       857      3701      3832      3423
 -1      1873    8    0    1
 -2       844       846       988      3640      3833      3834
 -1      1874    8    0    1
 -2       844       988       942      3834      3835      3684
 -1      1875    8    0    1
 -2       888       913       989      3678      3836      3837
 -1      1876    8    0    1
 -2       848       855       990      3413      3838      3839
 -1      1877    8    0    1
 -2       937       848       990      3668      3839      3840
 -1      1878    8    0    1
 -2       855       927       990      3628      3841      3838
 -1      1879    8    0    1
 -2       851       909       991      3661      3842      3843
 -1      1880    8    0    1
 -2       851       991       928      3843      3844      3697
 -1      1881    8    0    1
 -2       943       915       992      3687      3845      3846
 -1      1882    8    0    1
 -2       908       936       993      3663      3847      3848
 -1      1883    8    0    1
 -2       987       908       993      3829      3848      3849
 -1      1884    8    0    1
 -2       936       938       993      3698      3850      3847
 -1      1885    8    0    1
 -2       920       840       994      3695      3851      3852
 -1      1886    8    0    1
 -2       944       920       994      3693      3852      3853
 -1      1887    8    0    1
 -2       840       939       994      3673      3854      3851
 -1      1888    8    0    1
 -2       748       763       912      3346      3732      3618
 -1      1889    8    0    1
 -2       911       910       995      3586      3855      3856
 -1      1890    8    0    1
 -2       913       858       916      3667      3597      3857
 -1      1891    8    0    1
 -2       860       859       996      3431      3858      3859
 -1      1892    8    0    1
 -2       860       996       948      3859      3860      3711
 -1      1893    8    0    1
 -2       859       921       997      3611      3861      3862
 -1      1894    8    0    1
 -2       859       997       996      3862      3863      3858
 -1      1895    8    0    1
 -2       765       830       870      3608      3864      3460
 -1      1896    8    0    1
 -2       914       923       998      3649      3865      3866
 -1      1897    8    0    1
 -2       923       925       999      3641      3867      3868
 -1      1898    8    0    1
 -2       836       796       858      3696      3425      3666
 -1      1899    8    0    1
 -2       842       857       929      3731      3832      3633
 -1      1900    8    0    1
 -2       918       914      1000      3683      3869      3870
 -1      1901    8    0    1
 -2       945       928      1001      3702      3871      3872
 -1      1902    8    0    1
 -2       946       867       954      3708      3729      3873
 -1      1903    8    0    1
 -2       917       929      1002      3632      3874      3875
 -1      1904    8    0    1
 -2       947       917      1002      3709      3875      3876
 -1      1905    8    0    1
 -2       929       944      1002      3700      3877      3874
 -1      1906    8    0    1
 -2       889       922      1003      3614      3878      3879
 -1      1907    8    0    1
 -2       889      1003       955      3879      3880      3733
 -1      1908    8    0    1
 -2      1001       928      1004      3871      3881      3882
 -1      1909    8    0    1
 -2       928       991      1004      3844      3883      3881
 -1      1910    8    0    1
 -2       921       947       997      3710      3884      3861
 -1      1911    8    0    1
 -2       871       870      1000      3464      3885      3886
 -1      1912    8    0    1
 -2       914       998      1000      3866      3887      3869
 -1      1913    8    0    1
 -2       930       853       945      3639      3704      3888
 -1      1914    8    0    1
 -2       956       871      1000      3735      3886      3889
 -1      1915    8    0    1
 -2       852       936       847      3783      3664      3665
 -1      1916    8    0    1
 -2       931       919      1005      3644      3890      3891
 -1      1917    8    0    1
 -2       846       931       988      3643      3892      3833
 -1      1918    8    0    1
 -2       933       890      1006      3650      3893      3894
 -1      1919    8    0    1
 -2       890       955      1006      3734      3895      3893
 -1      1920    8    0    1
 -2       939       937      1007      3674      3896      3897
 -1      1921    8    0    1
 -2       972       849       940      3787      3677      3898
 -1      1922    8    0    1
 -2       934       822       933      3657      3652      3899
 -1      1923    8    0    1
 -2       935       888       975      3660      3900      3901
 -1      1924    8    0    1
 -2       916       893       989      3598      3902      3903
 -1      1925    8    0    1
 -2      1005       919      1008      3890      3904      3905
 -1      1926    8    0    1
 -2       919       934      1008      3656      3906      3904
 -1      1927    8    0    1
 -2       991       909       946      3842      3707      3907
 -1      1928    8    0    1
 -2       989       913       916      3836      3857      3903
 -1      1929    8    0    1
 -2       940       911      1009      3675      3908      3909
 -1      1930    8    0    1
 -2       911       995      1009      3856      3910      3908
 -1      1931    8    0    1
 -2       910       924       971      3621      3781      3911
 -1      1932    8    0    1
 -2       993       938      1010      3850      3912      3913
 -1      1933    8    0    1
 -2       938       972      1010      3786      3914      3912
 -1      1934    8    0    1
 -2       992       915      1011      3845      3915      3916
 -1      1935    8    0    1
 -2       915       942      1011      3686      3917      3915
 -1      1936    8    0    1
 -2       941       869      1012      3682      3918      3919
 -1      1937    8    0    1
 -2       941      1012       891      3919      3920      3784
 -1      1938    8    0    1
 -2       925       935      1013      3659      3921      3922
 -1      1939    8    0    1
 -2       925      1013       999      3922      3923      3867
 -1      1940    8    0    1
 -2       944       994      1014      3853      3924      3925
 -1      1941    8    0    1
 -2       944      1014      1002      3925      3926      3877
 -1      1942    8    0    1
 -2       891      1012       922      3920      3927      3615
 -1      1943    8    0    1
 -2       830       918       870      3602      3928      3864
 -1      1944    8    0    1
 -2      1007       937       992      3896      3929      3930
 -1      1945    8    0    1
 -2       910       971       995      3911      3931      3855
 -1      1946    8    0    1
 -2       998       923       999      3865      3868      3932
 -1      1947    8    0    1
 -2       945      1001      1015      3872      3933      3934
 -1      1948    8    0    1
 -2       945      1015       930      3934      3935      3888
 -1      1949    8    0    1
 -2       946       954       991      3873      3936      3907
 -1      1950    8    0    1
 -2       922      1012      1003      3927      3937      3878
 -1      1951    8    0    1
 -2       996       997      1016      3863      3938      3939
 -1      1952    8    0    1
 -2       947      1002      1017      3876      3940      3941
 -1      1953    8    0    1
 -2      1002      1014      1017      3926      3942      3940
 -1      1954    8    0    1
 -2       950       949      1018      3718      3943      3944
 -1      1955    8    0    1
 -2       951       950      1019      3721      3945      3946
 -1      1956    8    0    1
 -2       950      1018      1019      3944      3947      3945
 -1      1957    8    0    1
 -2       952       951      1020      3724      3948      3949
 -1      1958    8    0    1
 -2       951      1019      1020      3946      3950      3948
 -1      1959    8    0    1
 -2       953       952      1021      3727      3951      3952
 -1      1960    8    0    1
 -2       952      1020      1021      3949      3953      3951
 -1      1961    8    0    1
 -2       954       953      1022      3730      3954      3955
 -1      1962    8    0    1
 -2       953      1021      1022      3952      3956      3954
 -1      1963    8    0    1
 -2      1000       998       956      3887      3957      3889
 -1      1964    8    0    1
 -2       988       931      1023      3892      3958      3959
 -1      1965    8    0    1
 -2       931      1005      1023      3891      3960      3958
 -1      1966    8    0    1
 -2       958       957      1024      3742      3961      3962
 -1      1967    8    0    1
 -2       959       958      1025      3745      3963      3964
 -1      1968    8    0    1
 -2       958      1024      1025      3962      3965      3963
 -1      1969    8    0    1
 -2       960       959      1026      3748      3966      3967
 -1      1970    8    0    1
 -2       959      1025      1026      3964      3968      3966
 -1      1971    8    0    1
 -2       961       960      1027      3751      3969      3970
 -1      1972    8    0    1
 -2       960      1026      1027      3967      3971      3969
 -1      1973    8    0    1
 -2       962       961      1028      3754      3972      3973
 -1      1974    8    0    1
 -2       961      1027      1028      3970      3974      3972
 -1      1975    8    0    1
 -2       963       962      1029      3757      3975      3976
 -1      1976    8    0    1
 -2       962      1028      1029      3973      3977      3975
 -1      1977    8    0    1
 -2       964       963      1030      3760      3978      3979
 -1      1978    8    0    1
 -2       963      1029      1030      3976      3980      3978
 -1      1979    8    0    1
 -2       965       964      1031      3763      3981      3982
 -1      1980    8    0    1
 -2       964      1030      1031      3979      3983      3981
 -1      1981    8    0    1
 -2       966       965      1032      3766      3984      3985
 -1      1982    8    0    1
 -2       965      1031      1032      3982      3986      3984
 -1      1983    8    0    1
 -2       967       966      1033      3769      3987      3988
 -1      1984    8    0    1
 -2       966      1032      1033      3985      3989      3987
 -1      1985    8    0    1
 -2       968       967      1034      3772      3990      3991
 -1      1986    8    0    1
 -2       967      1033      1034      3988      3992      3990
 -1      1987    8    0    1
 -2       969       968      1035      3775      3993      3994
 -1      1988    8    0    1
 -2       968      1034      1035      3991      3995      3993
 -1      1989    8    0    1
 -2       974       973      1036      3792      3996      3997
 -1      1990    8    0    1
 -2       972       940      1037      3898      3998      3999
 -1      1991    8    0    1
 -2      1010       972      1037      3914      3999      4000
 -1      1992    8    0    1
 -2       940      1009      1037      3909      4001      3998
 -1      1993    8    0    1
 -2       989       893       975      3902      3794      4002
 -1      1994    8    0    1
 -2       975       888       989      3900      3837      4002
 -1      1995    8    0    1
 -2       976       977      1038      3801      4003      4004
 -1      1996    8    0    1
 -2       973       976      1039      3798      4005      4006
 -1      1997    8    0    1
 -2       976      1038      1039      4004      4007      4005
 -1      1998    8    0    1
 -2       997       947      1040      3884      4008      4009
 -1      1999    8    0    1
 -2      1016       997      1040      3938      4009      4010
 -1      2000    8    0    1
 -2       947      1017      1040      3941      4011      4008
 -1      2001    8    0    1
 -2       977       978      1041      3804      4012      4013
 -1      2002    8    0    1
 -2       977      1041      1038      4013      4014      4003
 -1      2003    8    0    1
 -2       978       979      1042      3807      4015      4016
 -1      2004    8    0    1
 -2       978      1042      1041      4016      4017      4012
 -1      2005    8    0    1
 -2       979       980      1043      3810      4018      4019
 -1      2006    8    0    1
 -2       979      1043      1042      4019      4020      4015
 -1      2007    8    0    1
 -2       980       981      1044      3813      4021      4022
 -1      2008    8    0    1
 -2       980      1044      1043      4022      4023      4018
 -1      2009    8    0    1
 -2       981       982      1045      3816      4024      4025
 -1      2010    8    0    1
 -2       981      1045      1044      4025      4026      4021
 -1      2011    8    0    1
 -2       982       983      1046      3819      4027      4028
 -1      2012    8    0    1
 -2       982      1046      1045      4028      4029      4024
 -1      2013    8    0    1
 -2       983       984      1047      3822      4030      4031
 -1      2014    8    0    1
 -2       983      1047      1046      4031      4032      4027
 -1      2015    8    0    1
 -2       984       985      1048      3825      4033      4034
 -1      2016    8    0    1
 -2       984      1048      1047      4034      4035      4030
 -1      2017    8    0    1
 -2       985       986      1049      3828      4036      4037
 -1      2018    8    0    1
 -2       985      1049      1048      4037      4038      4033
 -1      2019    8    0    1
 -2       986       987      1050      3831      4039      4040
 -1      2020    8    0    1
 -2       986      1050      1049      4040      4041      4036
 -1      2021    8    0    1
 -2       994       939      1051      3854      4042      4043
 -1      2022    8    0    1
 -2       939      1007      1051      3897      4044      4042
 -1      2023    8    0    1
 -2       990       927       992      3841      4045      4046
 -1      2024    8    0    1
 -2       934       933      1052      3899      4047      4048
 -1      2025    8    0    1
 -2      1008       934      1052      3906      4048      4049
 -1      2026    8    0    1
 -2       933      1006      1052      3894      4050      4047
 -1      2027    8    0    1
 -2       937       990       992      3840      4046      3929
 -1      2028    8    0    1
 -2      1012       869      1053      3918      4051      4052
 -1      2029    8    0    1
 -2       987       993      1054      3849      4053      4054
 -1      2030    8    0    1
 -2      1050       987      1054      4039      4054      4055
 -1      2031    8    0    1
 -2       993      1010      1054      3913      4056      4053
 -1      2032    8    0    1
 -2       948       996      1055      3860      4057      4058
 -1      2033    8    0    1
 -2       996      1016      1055      3939      4059      4057
 -1      2034    8    0    1
 -2      1012      1053      1003      4052      4060      3937
 -1      2035    8    0    1
 -2       927       932       943      3647      4061      4062
 -1      2036    8    0    1
 -2       935       975      1056      3901      4063      4064
 -1      2037    8    0    1
 -2      1013       935      1056      3921      4064      4065
 -1      2038    8    0    1
 -2       975       974      1056      3795      4066      4063
 -1      2039    8    0    1
 -2       854       943       932      3692      4061      3648
 -1      2040    8    0    1
 -2       870       918      1000      3928      3870      3885
 -1      2041    8    0    1
 -2      1007       992      1057      3930      4067      4068
 -1      2042    8    0    1
 -2       992      1011      1057      3916      4069      4067
 -1      2043    8    0    1
 -2       942       988      1058      3835      4070      4071
 -1      2044    8    0    1
 -2      1011       942      1058      3917      4071      4072
 -1      2045    8    0    1
 -2       988      1023      1058      3959      4073      4070
 -1      2046    8    0    1
 -2       998       999      1059      3932      4074      4075
 -1      2047    8    0    1
 -2       949       948      1060      3715      4076      4077
 -1      2048    8    0    1
 -2       949      1060      1018      4077      4078      3943
 -1      2049    8    0    1
 -2       927       943       992      4062      3846      4045
 -1      2050    8    0    1
 -2       956       998      1061      3957      4079      4080
 -1      2051    8    0    1
 -2       957       956      1061      3739      4080      4081
 -1      2052    8    0    1
 -2      1007      1057      1051      4068      4082      4044
 -1      2053    8    0    1
 -2      1023      1005      1062      3960      4083      4084
 -1      2054    8    0    1
 -2      1001      1004      1063      3882      4085      4086
 -1      2055    8    0    1
 -2      1024       957      1061      3961      4081      4087
 -1      2056    8    0    1
 -2       948      1055      1060      4058      4088      4076
 -1      2057    8    0    1
 -2      1036       973      1039      3996      4006      4089
 -1      2058    8    0    1
 -2       970       969      1064      3778      4090      4091
 -1      2059    8    0    1
 -2       971       970       995      3782      4092      3931
 -1      2060    8    0    1
 -2      1006       955      1065      3895      4093      4094
 -1      2061    8    0    1
 -2       970      1064       995      4091      4095      4092
 -1      2062    8    0    1
 -2      1005      1008      1066      3905      4096      4097
 -1      2063    8    0    1
 -2      1005      1066      1062      4097      4098      4083
 -1      2064    8    0    1
 -2       994      1051      1014      4043      4099      3924
 -1      2065    8    0    1
 -2       991       954      1067      3936      4100      4101
 -1      2066    8    0    1
 -2      1059       999      1068      4074      4102      4103
 -1      2067    8    0    1
 -2       999      1013      1068      3923      4104      4102
 -1      2068    8    0    1
 -2       955      1003      1069      3880      4105      4106
 -1      2069    8    0    1
 -2       955      1069      1065      4106      4107      4093
 -1      2070    8    0    1
 -2      1056       974      1036      4066      3997      4108
 -1      2071    8    0    1
 -2      1053       869       930      4051      3638      4109
 -1      2072    8    0    1
 -2       998      1059      1061      4075      4110      4079
 -1      2073    8    0    1
 -2      1009       995      1070      3910      4111      4112
 -1      2074    8    0    1
 -2       995      1064      1070      4095      4113      4111
 -1      2075    8    0    1
 -2       954      1022      1067      3955      4114      4100
 -1      2076    8    0    1
 -2      1053       930      1015      4109      3935      4115
 -1      2077    8    0    1
 -2      1064       969      1035      4090      3994      4116
 -1      2078    8    0    1
 -2      1019      1018      1071      3947      4117      4118
 -1      2079    8    0    1
 -2      1017      1014      1072      3942      4119      4120
 -1      2080    8    0    1
 -2      1014      1051      1072      4099      4121      4119
 -1      2081    8    0    1
 -2      1042      1043      1073      4020      4122      4123
 -1      2082    8    0    1
 -2      1038      1041      1074      4014      4124      4125
 -1      2083    8    0    1
 -2      1060      1055      1075      4088      4126      4127
 -1      2084    8    0    1
 -2      1020      1019      1076      3950      4128      4129
 -1      2085    8    0    1
 -2      1019      1071      1076      4118      4130      4128
 -1      2086    8    0    1
 -2      1021      1020      1077      3953      4131      4132
 -1      2087    8    0    1
 -2      1020      1076      1077      4129      4133      4131
 -1      2088    8    0    1
 -2      1022      1021      1078      3956      4134      4135
 -1      2089    8    0    1
 -2      1021      1077      1078      4132      4136      4134
 -1      2090    8    0    1
 -2      1025      1024      1079      3965      4137      4138
 -1      2091    8    0    1
 -2      1001      1063      1080      4086      4139      4140
 -1      2092    8    0    1
 -2      1024      1061      1059      4087      4110      4141
 -1      2093    8    0    1
 -2      1026      1025      1081      3968      4142      4143
 -1      2094    8    0    1
 -2      1025      1079      1081      4138      4144      4142
 -1      2095    8    0    1
 -2      1027      1026      1082      3971      4145      4146
 -1      2096    8    0    1
 -2      1026      1081      1082      4143      4147      4145
 -1      2097    8    0    1
 -2      1028      1027      1083      3974      4148      4149
 -1      2098    8    0    1
 -2      1027      1082      1083      4146      4150      4148
 -1      2099    8    0    1
 -2      1029      1028      1084      3977      4151      4152
 -1      2100    8    0    1
 -2      1028      1083      1084      4149      4153      4151
 -1      2101    8    0    1
 -2      1030      1029      1085      3980      4154      4155
 -1      2102    8    0    1
 -2      1029      1084      1085      4152      4156      4154
 -1      2103    8    0    1
 -2      1031      1030      1086      3983      4157      4158
 -1      2104    8    0    1
 -2      1030      1085      1086      4155      4159      4157
 -1      2105    8    0    1
 -2      1032      1031      1087      3986      4160      4161
 -1      2106    8    0    1
 -2      1031      1086      1087      4158      4162      4160
 -1      2107    8    0    1
 -2      1033      1032      1088      3989      4163      4164
 -1      2108    8    0    1
 -2      1032      1087      1088      4161      4165      4163
 -1      2109    8    0    1
 -2      1034      1033      1089      3992      4166      4167
 -1      2110    8    0    1
 -2      1033      1088      1089      4164      4168      4166
 -1      2111    8    0    1
 -2      1035      1034      1090      3995      4169      4170
 -1      2112    8    0    1
 -2      1034      1089      1090      4167      4171      4169
 -1      2113    8    0    1
 -2      1067      1022      1078      4114      4135      4172
 -1      2114    8    0    1
 -2      1006      1065      1091      4094      4173      4174
 -1      2115    8    0    1
 -2      1006      1091      1052      4174      4175      4050
 -1      2116    8    0    1
 -2      1039      1038      1092      4007      4176      4177
 -1      2117    8    0    1
 -2      1038      1074      1092      4125      4178      4176
 -1      2118    8    0    1
 -2      1043      1044      1093      4023      4179      4180
 -1      2119    8    0    1
 -2      1043      1093      1073      4180      4181      4122
 -1      2120    8    0    1
 -2      1044      1045      1094      4026      4182      4183
 -1      2121    8    0    1
 -2      1044      1094      1093      4183      4184      4179
 -1      2122    8    0    1
 -2      1045      1046      1095      4029      4185      4186
 -1      2123    8    0    1
 -2      1045      1095      1094      4186      4187      4182
 -1      2124    8    0    1
 -2      1046      1047      1096      4032      4188      4189
 -1      2125    8    0    1
 -2      1046      1096      1095      4189      4190      4185
 -1      2126    8    0    1
 -2      1047      1048      1097      4035      4191      4192
 -1      2127    8    0    1
 -2      1047      1097      1096      4192      4193      4188
 -1      2128    8    0    1
 -2      1048      1049      1098      4038      4194      4195
 -1      2129    8    0    1
 -2      1048      1098      1097      4195      4196      4191
 -1      2130    8    0    1
 -2      1049      1050      1099      4041      4197      4198
 -1      2131    8    0    1
 -2      1049      1099      1098      4198      4199      4194
 -1      2132    8    0    1
 -2      1053      1015      1100      4115      4200      4201
 -1      2133    8    0    1
 -2      1055      1016      1101      4059      4202      4203
 -1      2134    8    0    1
 -2      1055      1101      1075      4203      4204      4126
 -1      2135    8    0    1
 -2      1023      1062      1102      4084      4205      4206
 -1      2136    8    0    1
 -2      1023      1102      1058      4206      4207      4073
 -1      2137    8    0    1
 -2      1051      1057      1072      4082      4208      4121
 -1      2138    8    0    1
 -2      1041      1042      1103      4017      4209      4210
 -1      2139    8    0    1
 -2      1074      1041      1103      4124      4210      4211
 -1      2140    8    0    1
 -2      1042      1073      1103      4123      4212      4209
 -1      2141    8    0    1
 -2      1080      1063      1104      4139      4213      4214
 -1      2142    8    0    1
 -2      1003      1053      1100      4060      4201      4215
 -1      2143    8    0    1
 -2      1013      1056      1105      4065      4216      4217
 -1      2144    8    0    1
 -2      1068      1013      1105      4104      4217      4218
 -1      2145    8    0    1
 -2      1056      1036      1105      4108      4219      4216
 -1      2146    8    0    1
 -2      1036      1039      1106      4089      4220      4221
 -1      2147    8    0    1
 -2      1105      1036      1106      4219      4221      4222
 -1      2148    8    0    1
 -2      1039      1092      1106      4177      4223      4220
 -1      2149    8    0    1
 -2      1015      1001      1080      3933      4140      4224
 -1      2150    8    0    1
 -2      1018      1060      1107      4078      4225      4226
 -1      2151    8    0    1
 -2      1018      1107      1071      4226      4227      4117
 -1      2152    8    0    1
 -2      1064      1035      1108      4116      4228      4229
 -1      2153    8    0    1
 -2      1070      1064      1108      4113      4229      4230
 -1      2154    8    0    1
 -2      1035      1090      1108      4170      4231      4228
 -1      2155    8    0    1
 -2      1024      1059      1079      4141      4232      4137
 -1      2156    8    0    1
 -2      1015      1080      1100      4224      4233      4200
 -1      2157    8    0    1
 -2      1003      1100      1069      4215      4234      4105
 -1      2158    8    0    1
 -2      1100      1080      1104      4233      4214      4235
 -1      2159    8    0    1
 -2      1017      1072      1040      4120      4236      4011
 -1      2160    8    0    1
 -2      1060      1075      1107      4127      4237      4225
 -1      2161    8    0    1
 -2      1079      1059      1068      4232      4103      4238
 -1      2162    8    0    1
 -2      1101      1016      1109      4202      4239      4240
 -1      2163    8    0    1
 -2      1016      1040      1109      4010      4241      4239
 -1      2164    8    0    1
 -2      1062      1066      1110      4098      4242      4243
 -1      2165    8    0    1
 -2      1010      1037      1111      4000      4244      4245
 -1      2166    8    0    1
 -2      1010      1111      1054      4245      4246      4056
 -1      2167    8    0    1
 -2      1091      1065      1112      4173      4247      4248
 -1      2168    8    0    1
 -2      1062      1110      1113      4243      4249      4250
 -1      2169    8    0    1
 -2      1062      1113      1102      4250      4251      4205
 -1      2170    8    0    1
 -2      1066      1008      1114      4096      4252      4253
 -1      2171    8    0    1
 -2      1008      1052      1114      4049      4254      4252
 -1      2172    8    0    1
 -2      1069      1100      1104      4234      4235      4255
 -1      2173    8    0    1
 -2      1057      1011      1115      4069      4256      4257
 -1      2174    8    0    1
 -2      1057      1115      1116      4257      4258      4259
 -1      2175    8    0    1
 -2      1050      1054      1111      4055      4246      4260
 -1      2176    8    0    1
 -2      1065      1069      1117      4107      4261      4262
 -1      2177    8    0    1
 -2      1112      1065      1117      4247      4262      4263
 -1      2178    8    0    1
 -2      1069      1104      1117      4255      4264      4261
 -1      2179    8    0    1
 -2      1072      1057      1116      4208      4259      4265
 -1      2180    8    0    1
 -2      1011      1058      1115      4072      4266      4256
 -1      2181    8    0    1
 -2      1104      1063      1118      4213      4267      4268
 -1      2182    8    0    1
 -2      1104      1118      1117      4268      4269      4264
 -1      2183    8    0    1
 -2      1037      1009      1119      4001      4270      4271
 -1      2184    8    0    1
 -2      1111      1037      1119      4244      4271      4272
 -1      2185    8    0    1
 -2      1009      1070      1119      4112      4273      4270
 -1      2186    8    0    1
 -2      1050      1111      1099      4260      4274      4197
 -1      2187    8    0    1
 -2      1093      1094      1120      4184      4275      4276
 -1      2188    8    0    1
 -2      1073      1093      1084      4181      4277      4278
 -1      2189    8    0    1
 -2      1004       991      1067      3883      4101      4279
 -1      2190    8    0    1
 -2      1052      1091      1114      4175      4280      4254
 -1      2191    8    0    1
 -2      1077      1076      1121      4133      4281      4282
 -1      2192    8    0    1
 -2      1071      1107      1122      4227      4283      4284
 -1      2193    8    0    1
 -2      1063      1004      1067      4085      4279      4285
 -1      2194    8    0    1
 -2      1081      1079      1123      4144      4286      4287
 -1      2195    8    0    1
 -2      1082      1081      1074      4147      4288      4289
 -1      2196    8    0    1
 -2      1083      1082      1103      4150      4290      4291
 -1      2197    8    0    1
 -2      1084      1083      1073      4153      4292      4278
 -1      2198    8    0    1
 -2      1086      1085      1120      4159      4293      4294
 -1      2199    8    0    1
 -2      1087      1086      1124      4162      4295      4296
 -1      2200    8    0    1
 -2      1088      1087      1096      4165      4297      4298
 -1      2201    8    0    1
 -2      1089      1088      1097      4168      4299      4300
 -1      2202    8    0    1
 -2      1090      1089      1098      4171      4301      4302
 -1      2203    8    0    1
 -2      1110      1066      1122      4242      4303      4304
 -1      2204    8    0    1
 -2      1094      1095      1124      4187      4305      4306
 -1      2205    8    0    1
 -2      1096      1097      1088      4193      4299      4298
 -1      2206    8    0    1
 -2      1097      1098      1089      4196      4301      4300
 -1      2207    8    0    1
 -2      1098      1099      1090      4199      4307      4302
 -1      2208    8    0    1
 -2      1068      1105      1123      4218      4308      4309
 -1      2209    8    0    1
 -2      1075      1101      1125      4204      4310      4311
 -1      2210    8    0    1
 -2      1115      1058      1102      4266      4207      4312
 -1      2211    8    0    1
 -2      1091      1112      1126      4248      4313      4314
 -1      2212    8    0    1
 -2      1091      1126      1114      4314      4315      4280
 -1      2213    8    0    1
 -2      1076      1071      1127      4130      4316      4317
 -1      2214    8    0    1
 -2      1121      1076      1127      4281      4317      4318
 -1      2215    8    0    1
 -2      1071      1122      1127      4284      4319      4316
 -1      2216    8    0    1
 -2      1118      1063      1078      4267      4320      4321
 -1      2217    8    0    1
 -2      1079      1068      1123      4238      4309      4286
 -1      2218    8    0    1
 -2      1067      1078      1063      4172      4320      4285
 -1      2219    8    0    1
 -2      1099      1111      1119      4274      4272      4322
 -1      2220    8    0    1
 -2      1118      1078      1128      4321      4323      4324
 -1      2221    8    0    1
 -2      1117      1118      1128      4269      4324      4325
 -1      2222    8    0    1
 -2      1078      1077      1128      4136      4326      4323
 -1      2223    8    0    1
 -2      1073      1083      1103      4292      4291      4212
 -1      2224    8    0    1
 -2      1115      1102      1129      4312      4327      4328
 -1      2225    8    0    1
 -2      1116      1115      1129      4258      4328      4329
 -1      2226    8    0    1
 -2      1102      1113      1129      4251      4330      4327
 -1      2227    8    0    1
 -2      1086      1120      1124      4294      4331      4295
 -1      2228    8    0    1
 -2      1122      1107      1130      4283      4332      4333
 -1      2229    8    0    1
 -2      1110      1122      1130      4304      4333      4334
 -1      2230    8    0    1
 -2      1107      1075      1130      4237      4335      4332
 -1      2231    8    0    1
 -2      1084      1093      1085      4277      4336      4156
 -1      2232    8    0    1
 -2      1040      1072      1109      4236      4337      4241
 -1      2233    8    0    1
 -2      1082      1074      1103      4289      4211      4290
 -1      2234    8    0    1
 -2      1109      1072      1116      4337      4265      4338
 -1      2235    8    0    1
 -2      1090      1099      1119      4307      4322      4339
 -1      2236    8    0    1
 -2      1094      1124      1120      4306      4331      4275
 -1      2237    8    0    1
 -2      1112      1117      1128      4263      4325      4340
 -1      2238    8    0    1
 -2      1110      1130      1113      4334      4341      4249
 -1      2239    8    0    1
 -2      1092      1074      1081      4178      4288      4342
 -1      2240    8    0    1
 -2      1077      1121      1128      4282      4343      4326
 -1      2241    8    0    1
 -2      1130      1075      1125      4335      4311      4344
 -1      2242    8    0    1
 -2      1122      1066      1114      4303      4253      4345
 -1      2243    8    0    1
 -2      1095      1096      1087      4190      4297      4346
 -1      2244    8    0    1
 -2      1101      1109      1116      4240      4338      4347
 -1      2245    8    0    1
 -2      1112      1128      1121      4340      4343      4348
 -1      2246    8    0    1
 -2      1101      1116      1125      4347      4349      4310
 -1      2247    8    0    1
 -2      1112      1121      1126      4348      4350      4313
 -1      2248    8    0    1
 -2      1070      1108      1119      4230      4351      4273
 -1      2249    8    0    1
 -2      1106      1092      1123      4223      4352      4353
 -1      2250    8    0    1
 -2      1126      1121      1127      4350      4318      4354
 -1      2251    8    0    1
 -2      1092      1081      1123      4342      4287      4352
 -1      2252    8    0    1
 -2      1129      1113      1125      4330      4355      4356
 -1      2253    8    0    1
 -2      1125      1113      1130      4355      4341      4344
 -1      2254    8    0    1
 -2      1085      1093      1120      4336      4276      4293
 -1      2255    8    0    1
 -2      1122      1114      1126      4345      4315      4357
 -1      2256    8    0    1
 -2      1095      1087      1124      4346      4296      4305
 -1      2257    8    0    1
 -2      1116      1129      1125      4329      4356      4349
 -1      2258    8    0    1
 -2      1122      1126      1127      4357      4354      4319
 -1      2259    8    0    1
 -2      1105      1106      1123      4222      4353      4308
 -1      2260    8    0    1
 -2      1090      1119      1108      4339      4351      4231
 -3
    1PSTEP                         1           1           1          
  100CL  101 1.000000000        4357                     0    1           1
 -4  DISP        4    1
 -5  D1          1    2    1    0
 -5  D2          1    2    2    0
 -5  D3          1    2    3    0
 -5  ALL         1    2    0    0    1ALL
 -1         1 7.67503E-03-9.59729E-04-2.94815E-14
 -1         2 9.12834E-03-1.65146E-04-3.31571E-14
 -1         3 1.49886E-02 3.74806E-05-1.23757E-13
 -1         4 1.54049E-02-1.39243E-03-1.33330E-13
 -1         5 0.00000E+00 0.00000E+00 0.00000E+00
 -1         6 0.00000E+00 0.00000E+00 0.00000E+00
 -1         7 0.00000E+00 0.00000E+00 0.00000E+00
 -1         8 0.00000E+00 0.00000E+00 0.00000E+00
 -1         9 0.00000E+00 0.00000E+00 0.00000E+00
 -1        10 0.00000E+00 0.00000E+00 0.00000E+00
 -1        11 0.00000E+00 0.00000E+00 0.00000E+00
 -1        12 0.00000E+00 0.00000E+00 0.00000E+00
 -1        13 0.00000E+00 0.00000E+00 0.00000E+00
 -1        14 0.00000E+00 0.00000E+00 0.00000E+00
 -1        15 0.00000E+00 0.00000E+00 0.00000E+00
 -1        16 0.00000E+00 0.00000E+00 0.00000E+00
 -1        17 0.00000E+00 0.00000E+00 0.00000E+00
 -1        18 0.00000E+00 0.00000E+00 0.00000E+00
 -1        19 0.00000E+00 0.00000E+00 0.00000E+00
 -1        20 0.00000E+00 0.00000E+00 0.00000E+00
 -1        21 0.00000E+00 0.00000E+00 0.00000E+00
 -1        22 0.00000E+00 0.00000E+00 0.00000E+00
 -1        23 4.08884E-04-2.57754E-04 2.46283E-17
 -1        24 6.99875E-04-3.94485E-04-8.12813E-17
 -1        25 9.69892E-04-4.87739E-04-3.13084E-16
 -1        26 1.23521E-03-5.51758E-04-6.67587E-16
 -1        27 1.50064E-03-5.95621E-04-1.14124E-15
 -1        28 1.76864E-03-6.24675E-04-1.73291E-15
 -1        29 2.04067E-03-6.42667E-04-2.44297E-15
 -1        30 2.31781E-03-6.52457E-04-3.26952E-15
 -1        31 2.60102E-03-6.56424E-04-4.21067E-15
 -1        32 2.89130E-03-6.56748E-04-5.26436E-15
 -1        33 3.18982E-03-6.55660E-04-6.42987E-15
 -1        34 3.49789E-03-6.55687E-04-7.69753E-15
 -1        35 3.81689E-03-6.59918E-04-9.07297E-15
 -1        36 4.14809E-03-6.72238E-04-1.05544E-14
 -1        37 4.49209E-03-6.97462E-04-1.21460E-14
 -1        38 4.84810E-03-7.41145E-04-1.38510E-14
 -1        39 5.21277E-03-8.08717E-04-1.56714E-14
 -1        40 5.57909E-03-9.03469E-04-1.76100E-14
 -1        41 5.93613E-03-1.02320E-03-1.96708E-14
 -1        42 6.27113E-03-1.15639E-03-2.18592E-14
 -1        43 6.57474E-03-1.28070E-03-2.41827E-14
 -1        44 6.84792E-03-1.36762E-03-2.66472E-14
 -1        45 7.10510E-03-1.39432E-03-2.92638E-14
 -1        46 7.36885E-03-1.35595E-03-3.20297E-14
 -1        47 7.65838E-03-1.26853E-03-3.49307E-14
 -1        48 7.98071E-03-1.15979E-03-3.79611E-14
 -1        49 8.33035E-03-1.05587E-03-4.11176E-14
 -1        50 8.69527E-03-9.73184E-04-4.43950E-14
 -1        51 9.06339E-03-9.17684E-04-4.77839E-14
 -1        52 9.42604E-03-8.88091E-04-5.12740E-14
 -1        53 9.77853E-03-8.79719E-04-5.48593E-14
 -1        54 1.01193E-02-8.87098E-04-5.85313E-14
 -1        55 1.04487E-02-9.05322E-04-6.22984E-14
 -1        56 1.07680E-02-9.30506E-04-6.61325E-14
 -1        57 1.10789E-02-9.59800E-04-7.00279E-14
 -1        58 1.13830E-02-9.91224E-04-7.39875E-14
 -1        59 1.16819E-02-1.02347E-03-7.80047E-14
 -1        60 1.19767E-02-1.05571E-03-8.20718E-14
 -1        61 1.22686E-02-1.08746E-03-8.61899E-14
 -1        62 1.25582E-02-1.11848E-03-9.03567E-14
 -1        63 1.28464E-02-1.14867E-03-9.45771E-14
 -1        64 1.31334E-02-1.17802E-03-9.88421E-14
 -1        65 1.34197E-02-1.20660E-03-1.03151E-13
 -1        66 1.37056E-02-1.23450E-03-1.07495E-13
 -1        67 1.39913E-02-1.26181E-03-1.11856E-13
 -1        68 1.42768E-02-1.28866E-03-1.16204E-13
 -1        69 1.45623E-02-1.31516E-03-1.20542E-13
 -1        70 1.48479E-02-1.34143E-03-1.24871E-13
 -1        71 1.51335E-02-1.36758E-03-1.29208E-13
 -1        72 4.11322E-04 2.58465E-04 7.52504E-17
 -1        73 6.99783E-04 3.97226E-04 6.05798E-17
 -1        74 9.70550E-04 4.89628E-04-4.63158E-17
 -1        75 1.23620E-03 5.53704E-04-2.50983E-16
 -1        76 1.50179E-03 5.97803E-04-5.57731E-16
 -1        77 1.76986E-03 6.27243E-04-9.67840E-16
 -1        78 2.04185E-03 6.45793E-04-1.48581E-15
 -1        79 2.31878E-03 6.56360E-04-2.10943E-15
 -1        80 2.60148E-03 6.61377E-04-2.83780E-15
 -1        81 2.89071E-03 6.63074E-04-3.67461E-15
 -1        82 3.18727E-03 6.63683E-04-4.61580E-15
 -1        83 3.49188E-03 6.65622E-04-5.65721E-15
 -1        84 3.80511E-03 6.71637E-04-6.80564E-15
 -1        85 4.12710E-03 6.84862E-04-8.06560E-15
 -1        86 4.45718E-03 7.08698E-04-9.43524E-15
 -1        87 4.79330E-03 7.46401E-04-1.09122E-14
 -1        88 5.13158E-03 8.00186E-04-1.24940E-14
 -1        89 5.46609E-03 8.69800E-04-1.41913E-14
 -1        90 5.78943E-03 9.50773E-04-1.60076E-14
 -1        91 6.09463E-03 1.03314E-03-1.79552E-14
 -1        92 6.37811E-03 1.10201E-03-2.00353E-14
 -1        93 6.64255E-03 1.14105E-03-2.22442E-14
 -1        94 6.89748E-03 1.13826E-03-2.45966E-14
 -1        95 7.15624E-03 1.09119E-03-2.70879E-14
 -1        96 7.43069E-03 1.00801E-03-2.97089E-14
 -1        97 7.72676E-03 9.03862E-04-3.24530E-14
 -1        98 8.04347E-03 7.94889E-04-3.53127E-14
 -1        99 8.37504E-03 6.93496E-04-3.82750E-14
 -1       100 8.71403E-03 6.06575E-04-4.13469E-14
 -1       101 9.05386E-03 5.36138E-04-4.45354E-14
 -1       102 9.38988E-03 4.81002E-04-4.78269E-14
 -1       103 9.71950E-03 4.38433E-04-5.12247E-14
 -1       104 1.00417E-02 4.05305E-04-5.47109E-14
 -1       105 1.03567E-02 3.78746E-04-5.82873E-14
 -1       106 1.06650E-02 3.56399E-04-6.19630E-14
 -1       107 1.09677E-02 3.36478E-04-6.57306E-14
 -1       108 1.12659E-02 3.17707E-04-6.95707E-14
 -1       109 1.15604E-02 2.99226E-04-7.34739E-14
 -1       110 1.18521E-02 2.80494E-04-7.74369E-14
 -1       111 1.21417E-02 2.61202E-04-8.14591E-14
 -1       112 1.24299E-02 2.41202E-04-8.55405E-14
 -1       113 1.27169E-02 2.20455E-04-8.96678E-14
 -1       114 1.30033E-02 1.98988E-04-9.38493E-14
 -1       115 1.32892E-02 1.76874E-04-9.80743E-14
 -1       116 1.35749E-02 1.54202E-04-1.02317E-13
 -1       117 1.38604E-02 1.31079E-04-1.06600E-13
 -1       118 1.41459E-02 1.07611E-04-1.10929E-13
 -1       119 1.44315E-02 8.39125E-05-1.15277E-13
 -1       120 1.47172E-02 6.01019E-05-1.19632E-13
 -1       121 1.50120E-02-4.68155E-05-1.24357E-13
 -1       122 1.50354E-02-1.31167E-04-1.24971E-13
 -1       123 1.50589E-02-2.15581E-04-1.25535E-13
 -1       124 1.50825E-02-3.00021E-04-1.26073E-13
 -1       125 1.51064E-02-3.84447E-04-1.26630E-13
 -1       126 1.51300E-02-4.67400E-04-1.27200E-13
 -1       127 1.51543E-02-5.51734E-04-1.27774E-13
 -1       128 1.51787E-02-6.36029E-04-1.28346E-13
 -1       129 1.52033E-02-7.20312E-04-1.28927E-13
 -1       130 1.52280E-02-8.04611E-04-1.29487E-13
 -1       131 1.52528E-02-8.88952E-04-1.30042E-13
 -1       132 1.52775E-02-9.71915E-04-1.30573E-13
 -1       133 1.53028E-02-1.05635E-03-1.31118E-13
 -1       134 1.53282E-02-1.14080E-03-1.31662E-13
 -1       135 1.53539E-02-1.22521E-03-1.32222E-13
 -1       136 1.53796E-02-1.30956E-03-1.32781E-13
 -1       137 9.06866E-03 9.21285E-06-3.28665E-14
 -1       138 8.91159E-03 1.77074E-04-3.22932E-14
 -1       139 8.65717E-03 3.36187E-04-3.14437E-14
 -1       140 8.29408E-03 4.83268E-04-3.02989E-14
 -1       141 7.91157E-03 5.85258E-04-2.91617E-14
 -1       142 7.43338E-03 6.63834E-04-2.78001E-14
 -1       143 6.97737E-03 6.94951E-04-2.65720E-14
 -1       144 6.49449E-03 6.85886E-04-2.53185E-14
 -1       145 6.04744E-03 6.36827E-04-2.42176E-14
 -1       146 5.64753E-03 5.52468E-04-2.32748E-14
 -1       147 5.31158E-03 4.41165E-04-2.25202E-14
 -1       148 5.04931E-03 3.08437E-04-2.19651E-14
 -1       149 4.84958E-03 1.45251E-04-2.15881E-14
 -1       150 4.75616E-03-2.42375E-05-2.14685E-14
 -1       151 4.76491E-03-2.10943E-04-2.16029E-14
 -1       152 4.87142E-03-3.82009E-04-2.19556E-14
 -1       153 5.09294E-03-5.58096E-04-2.25897E-14
 -1       154 5.39689E-03-7.11860E-04-2.34176E-14
 -1       155 5.77871E-03-8.41015E-04-2.44374E-14
 -1       156 6.22097E-03-9.37206E-04-2.56092E-14
 -1       157 6.70649E-03-9.91868E-04-2.68929E-14
 -1       158 7.20393E-03-9.99121E-04-2.82149E-14
 -1       159 8.08074E-03-8.86370E-04-3.05712E-14
 -1       160 8.45690E-03-7.74627E-04-3.15810E-14
 -1       161 8.75805E-03-6.38175E-04-3.23766E-14
 -1       162 8.96319E-03-4.93800E-04-3.28910E-14
 -1       163 9.09012E-03-3.34697E-04-3.31592E-14
 -1       164 2.40346E-04-1.23269E-04-2.77556E-17
 -1       165 2.25620E-04-9.21778E-05-4.35578E-17
 -1       166 2.19942E-04-7.02537E-05-5.15504E-17
 -1       167 2.17050E-04-5.26988E-05-5.53011E-17
 -1       168 2.15385E-04-3.79035E-05-5.66462E-17
 -1       169 2.14368E-04-2.44124E-05-5.64259E-17
 -1       170 2.13817E-04-1.18594E-05-5.51554E-17
 -1       171 2.13646E-04 2.55660E-07-5.33732E-17
 -1       172 2.13835E-04 1.23862E-05-5.10625E-17
 -1       173 2.14405E-04 2.49873E-05-4.77964E-17
 -1       174 2.15423E-04 3.83273E-05-4.34392E-17
 -1       175 2.17142E-04 5.35072E-05-3.72220E-17
 -1       176 2.20088E-04 7.12957E-05-2.80368E-17
 -1       177 2.25779E-04 9.35807E-05-1.41116E-17
 -1       178 2.39282E-04 1.25342E-04 7.85030E-18
 -1       179 2.96919E-04 1.82990E-04 3.27090E-17
 -1       180 4.67787E-04-2.59010E-04-7.46948E-17
 -1       181 7.66002E-04-3.73606E-04-2.64545E-16
 -1       182 1.05064E-03-4.51864E-04-5.70880E-16
 -1       183 1.32971E-03-5.05324E-04-9.93705E-16
 -1       184 1.60712E-03-5.40918E-04-1.53162E-15
 -1       185 1.88532E-03-5.63294E-04-2.18523E-15
 -1       186 2.16593E-03-5.75807E-04-2.95338E-15
 -1       187 2.45015E-03-5.81086E-04-3.83449E-15
 -1       188 2.73902E-03-5.81385E-04-4.82732E-15
 -1       189 3.03351E-03-5.78859E-04-5.93023E-15
 -1       190 3.33462E-03-5.75829E-04-7.13937E-15
 -1       191 3.64335E-03-5.75053E-04-8.45158E-15
 -1       192 3.96061E-03-5.80019E-04-9.87132E-15
 -1       193 4.28707E-03-5.95189E-04-1.13986E-14
 -1       194 4.62276E-03-6.26073E-04-1.30357E-14
 -1       195 4.96665E-03-6.78826E-04-1.47858E-14
 -1       196 5.31603E-03-7.58911E-04-1.66492E-14
 -1       197 5.66605E-03-8.68276E-04-1.86307E-14
 -1       198 6.01003E-03-1.00112E-03-2.07351E-14
 -1       199 6.34111E-03-1.13997E-03-2.29703E-14
 -1       200 6.65577E-03-1.25609E-03-2.53470E-14
 -1       201 6.95742E-03-1.31865E-03-2.78720E-14
 -1       202 7.25639E-03-1.31045E-03-3.05500E-14
 -1       203 7.56460E-03-1.23849E-03-3.33715E-14
 -1       204 7.88890E-03-1.12950E-03-3.63264E-14
 -1       205 8.22854E-03-1.01485E-03-3.94064E-14
 -1       206 8.57768E-03-9.17517E-04-4.26087E-14
 -1       207 8.92930E-03-8.48152E-04-4.59272E-14
 -1       208 9.27772E-03-8.07698E-04-4.93504E-14
 -1       209 9.61945E-03-7.91891E-04-5.28735E-14
 -1       210 9.95289E-03-7.94790E-04-5.64865E-14
 -1       211 1.02778E-02-8.10742E-04-6.01887E-14
 -1       212 1.05948E-02-8.35151E-04-6.39693E-14
 -1       213 1.09049E-02-8.64602E-04-6.78143E-14
 -1       214 1.12092E-02-8.96710E-04-7.17229E-14
 -1       215 1.15088E-02-9.29892E-04-7.56934E-14
 -1       216 1.18046E-02-9.63150E-04-7.97170E-14
 -1       217 1.20976E-02-9.95897E-04-8.37931E-14
 -1       218 1.23883E-02-1.02782E-03-8.79210E-14
 -1       219 1.26774E-02-1.05881E-03-9.20999E-14
 -1       220 1.29653E-02-1.08884E-03-9.63256E-14
 -1       221 1.32524E-02-1.11798E-03-1.00594E-13
 -1       222 1.35389E-02-1.14632E-03-1.04903E-13
 -1       223 1.38250E-02-1.17398E-03-1.09238E-13
 -1       224 1.41109E-02-1.20108E-03-1.13576E-13
 -1       225 1.43966E-02-1.22775E-03-1.17908E-13
 -1       226 1.46823E-02-1.25412E-03-1.22235E-13
 -1       227 1.49680E-02-1.28030E-03-1.26561E-13
 -1       228 6.03397E-04 3.24972E-04-4.27921E-18
 -1       229 8.92789E-04 4.22432E-04-1.28475E-16
 -1       230 1.17277E-03 4.89430E-04-3.47365E-16
 -1       231 1.44919E-03 5.35119E-04-6.64867E-16
 -1       232 1.72534E-03 5.65288E-04-1.08498E-15
 -1       233 2.00322E-03 5.83961E-04-1.61069E-15
 -1       234 2.28417E-03 5.94186E-04-2.24176E-15
 -1       235 2.56918E-03 5.98466E-04-2.97673E-15
 -1       236 2.85909E-03 5.99052E-04-3.81780E-15
 -1       237 3.15462E-03 5.98175E-04-4.76291E-15
 -1       238 3.45639E-03 5.98249E-04-5.81112E-15
 -1       239 3.76486E-03 6.02035E-04-6.96401E-15
 -1       240 4.08015E-03 6.12736E-04-8.22576E-15
 -1       241 4.40182E-03 6.33931E-04-9.59625E-15
 -1       242 4.72855E-03 6.69206E-04-1.10724E-14
 -1       243 5.05790E-03 7.21302E-04-1.26557E-14
 -1       244 5.38612E-03 7.90656E-04-1.43537E-14
 -1       245 5.70856E-03 8.73470E-04-1.61684E-14
 -1       246 6.02069E-03 9.60061E-04-1.81109E-14
 -1       247 6.31988E-03 1.03500E-03-2.01868E-14
 -1       248 6.60724E-03 1.08046E-03-2.23942E-14
 -1       249 6.88816E-03 1.08254E-03-2.47428E-14
 -1       250 7.17072E-03 1.03743E-03-2.72271E-14
 -1       251 7.46234E-03 9.53245E-04-2.98425E-14
 -1       252 7.76690E-03 8.46150E-04-3.25883E-14
 -1       253 8.08401E-03 7.33644E-04-3.54499E-14
 -1       254 8.41015E-03 6.29191E-04-3.84184E-14
 -1       255 8.74066E-03 5.40189E-04-4.14952E-14
 -1       256 9.07126E-03 4.68710E-04-4.46869E-14
 -1       257 9.39881E-03 4.13384E-04-4.79829E-14
 -1       258 9.72145E-03 3.71214E-04-5.13775E-14
 -1       259 1.00384E-02 3.38829E-04-5.48638E-14
 -1       260 1.03496E-02 3.13165E-04-5.84399E-14
 -1       261 1.06555E-02 2.91738E-04-6.21098E-14
 -1       262 1.09568E-02 2.72682E-04-6.58679E-14
 -1       263 1.12543E-02 2.54678E-04-6.97007E-14
 -1       264 1.15486E-02 2.36851E-04-7.35964E-14
 -1       265 1.18404E-02 2.18657E-04-7.75559E-14
 -1       266 1.21303E-02 1.99797E-04-8.15721E-14
 -1       267 1.24189E-02 1.80134E-04-8.56469E-14
 -1       268 1.27064E-02 1.59643E-04-8.97703E-14
 -1       269 1.29931E-02 1.38367E-04-9.39469E-14
 -1       270 1.32794E-02 1.16388E-04-9.81597E-14
 -1       271 1.35654E-02 9.38093E-05-1.02397E-13
 -1       272 1.38512E-02 7.07433E-05-1.06672E-13
 -1       273 1.41369E-02 4.73060E-05-1.10987E-13
 -1       274 1.44225E-02 2.36161E-05-1.15325E-13
 -1       275 1.47082E-02-2.02877E-07-1.19674E-13
 -1       276 1.47762E-02-6.83390E-05-1.20892E-13
 -1       277 1.47996E-02-1.52654E-04-1.21478E-13
 -1       278 1.48232E-02-2.36966E-04-1.22043E-13
 -1       279 1.48470E-02-3.21253E-04-1.22611E-13
 -1       280 1.48706E-02-4.04068E-04-1.23175E-13
 -1       281 1.48947E-02-4.88262E-04-1.23755E-13
 -1       282 1.49191E-02-5.72413E-04-1.24334E-13
 -1       283 1.49436E-02-6.56540E-04-1.24912E-13
 -1       284 1.49682E-02-7.40669E-04-1.25478E-13
 -1       285 1.49930E-02-8.24824E-04-1.26032E-13
 -1       286 1.50175E-02-9.07596E-04-1.26574E-13
 -1       287 1.50426E-02-9.91844E-04-1.27117E-13
 -1       288 1.50680E-02-1.07614E-03-1.27657E-13
 -1       289 1.50936E-02-1.16045E-03-1.28202E-13
 -1       290 1.50307E-02-1.22039E-03-1.27382E-13
 -1       291 9.13133E-03-1.24234E-04-3.42450E-14
 -1       292 8.98097E-03-2.24002E-05-3.37863E-14
 -1       293 8.70879E-03 1.14099E-04-3.29008E-14
 -1       294 8.33217E-03 2.87450E-04-3.17242E-14
 -1       295 7.94500E-03 4.81953E-04-3.02428E-14
 -1       296 7.52455E-03 6.45571E-04-2.88024E-14
 -1       297 7.14422E-03 7.47962E-04-2.72137E-14
 -1       298 6.76640E-03 7.73332E-04-2.57362E-14
 -1       299 6.37692E-03 7.00237E-04-2.44004E-14
 -1       300 6.00061E-03 5.68650E-04-2.31969E-14
 -1       301 5.61977E-03 4.08882E-04-2.22732E-14
 -1       302 5.27815E-03 2.50323E-04-2.15421E-14
 -1       303 4.98991E-03 8.73703E-05-2.08160E-14
 -1       304 4.78373E-03-1.34282E-05-2.06954E-14
 -1       305 4.71532E-03-1.08192E-04-2.05396E-14
 -1       306 4.80459E-03-2.11950E-04-2.10268E-14
 -1       307 5.03310E-03-3.16349E-04-2.13830E-14
 -1       308 5.36079E-03-4.98742E-04-2.23539E-14
 -1       309 5.76236E-03-6.81895E-04-2.33396E-14
 -1       310 6.16490E-03-8.76288E-04-2.46502E-14
 -1       311 6.56084E-03-1.01839E-03-2.61175E-14
 -1       312 6.96182E-03-1.07689E-03-2.76453E-14
 -1       313 7.35021E-03-1.04312E-03-2.92283E-14
 -1       314 7.73841E-03-9.23723E-04-3.05963E-14
 -1       315 8.10614E-03-7.58683E-04-3.19781E-14
 -1       316 8.48630E-03-5.84604E-04-3.30375E-14
 -1       317 8.80145E-03-4.38007E-04-3.37706E-14
 -1       318 9.02485E-03-3.17725E-04-3.42561E-14
 -1       319 9.14470E-03-2.16331E-04-3.45141E-14
 -1       320 4.56265E-04-1.59400E-04-1.74882E-16
 -1       321 4.74798E-04-2.07648E-04-1.50267E-16
 -1       322 4.40733E-04-8.94065E-05-1.94662E-16
 -1       323 4.37275E-04-6.12905E-05-1.96132E-16
 -1       324 4.35236E-04-3.56083E-05-1.94438E-16
 -1       325 4.34292E-04-1.12638E-05-1.90315E-16
 -1       326 4.34325E-04 1.26752E-05-1.84165E-16
 -1       327 4.35340E-04 3.70933E-05-1.75922E-16
 -1       328 4.37415E-04 6.24728E-05-1.64992E-16
 -1       329 4.40961E-04 9.07850E-05-1.50179E-16
 -1       330 4.46764E-04 1.23128E-04-1.30158E-16
 -1       331 4.56756E-04 1.61913E-04-1.02145E-16
 -1       332 4.76399E-04 2.11722E-04-6.21756E-17
 -1       333 5.31949E-04 2.64303E-04-3.93430E-17
 -1       334 8.24923E-04 3.63681E-04-1.74350E-16
 -1       335 8.64473E-04-3.46487E-04-4.66132E-16
 -1       336 1.15207E-03-4.10177E-04-8.41693E-16
 -1       337 1.43683E-03-4.53479E-04-1.32937E-15
 -1       338 1.72051E-03-4.81463E-04-1.92896E-15
 -1       339 2.00454E-03-4.97902E-04-2.64090E-15
 -1       340 2.29004E-03-5.05710E-04-3.46420E-15
 -1       341 2.57795E-03-5.07279E-04-4.39799E-15
 -1       342 2.86908E-03-5.04753E-04-5.44087E-15
 -1       343 3.16420E-03-5.00288E-04-6.59068E-15
 -1       344 3.46408E-03-4.96318E-04-7.84323E-15
 -1       345 3.76954E-03-4.95833E-04-9.20136E-15
 -1       346 4.08143E-03-5.02671E-04-1.06648E-14
 -1       347 4.40067E-03-5.21740E-04-1.22360E-14
 -1       348 4.72810E-03-5.59022E-04-1.39167E-14
 -1       349 5.06423E-03-6.21019E-04-1.57081E-14
 -1       350 5.40855E-03-7.13089E-04-1.76118E-14
 -1       351 5.75841E-03-8.35924E-04-1.96342E-14
 -1       352 6.10815E-03-9.80255E-04-2.17818E-14
 -1       353 6.45022E-03-1.12208E-03-2.40673E-14
 -1       354 6.78021E-03-1.22460E-03-2.64998E-14
 -1       355 7.10244E-03-1.25471E-03-2.90861E-14
 -1       356 7.42800E-03-1.20504E-03-3.18259E-14
 -1       357 7.76506E-03-1.09956E-03-3.47053E-14
 -1       358 8.11270E-03-9.76156E-04-3.77122E-14
 -1       359 8.46399E-03-8.65567E-04-4.08428E-14
 -1       360 8.81207E-03-7.83239E-04-4.40902E-14
 -1       361 9.15305E-03-7.32160E-04-4.74507E-14
 -1       362 9.48571E-03-7.08532E-04-5.09092E-14
 -1       363 9.81029E-03-7.06181E-04-5.44622E-14
 -1       364 1.01276E-02-7.18963E-04-5.81022E-14
 -1       365 1.04387E-02-7.41749E-04-6.18282E-14
 -1       366 1.07444E-02-7.70652E-04-6.56238E-14
 -1       367 1.10457E-02-8.02905E-04-6.94822E-14
 -1       368 1.13434E-02-8.36639E-04-7.34010E-14
 -1       369 1.16381E-02-8.70657E-04-7.73809E-14
 -1       370 1.19305E-02-9.04235E-04-8.14175E-14
 -1       371 1.22211E-02-9.36983E-04-8.55056E-14
 -1       372 1.25103E-02-9.68724E-04-8.96430E-14
 -1       373 1.27984E-02-9.99423E-04-9.38292E-14
 -1       374 1.30857E-02-1.02913E-03-9.80618E-14
 -1       375 1.33725E-02-1.05794E-03-1.02335E-13
 -1       376 1.36588E-02-1.08598E-03-1.06638E-13
 -1       377 1.39449E-02-1.11338E-03-1.10959E-13
 -1       378 1.42308E-02-1.14026E-03-1.15284E-13
 -1       379 1.45166E-02-1.16676E-03-1.19602E-13
 -1       380 1.47737E-02-1.19363E-03-1.23492E-13
 -1       381 1.11151E-03 4.33219E-04-4.01446E-16
 -1       382 1.39418E-03 4.80813E-04-7.24979E-16
 -1       383 1.67546E-03 5.12221E-04-1.14968E-15
 -1       384 1.95718E-03 5.31583E-04-1.67796E-15
 -1       385 2.24068E-03 5.42043E-04-2.31144E-15
 -1       386 2.52695E-03 5.46164E-04-3.04846E-15
 -1       387 2.81682E-03 5.46213E-04-3.88983E-15
 -1       388 3.11097E-03 5.44409E-04-4.83530E-15
 -1       389 3.41002E-03 5.43127E-04-5.88341E-15
 -1       390 3.71447E-03 5.45084E-04-7.03534E-15
 -1       391 4.02465E-03 5.53456E-04-8.29579E-15
 -1       392 4.34057E-03 5.71865E-04-9.66336E-15
 -1       393 4.66172E-03 6.04087E-04-1.11369E-14
 -1       394 4.98685E-03 6.53310E-04-1.27169E-14
 -1       395 5.31368E-03 7.20753E-04-1.44087E-14
 -1       396 5.63884E-03 8.03669E-04-1.62177E-14
 -1       397 5.95834E-03 8.93289E-04-1.81522E-14
 -1       398 6.26891E-03 9.74217E-04-2.02182E-14
 -1       399 6.57003E-03 1.02720E-03-2.24187E-14
 -1       400 6.86520E-03 1.03587E-03-2.47571E-14
 -1       401 7.16096E-03 9.94322E-04-2.72334E-14
 -1       402 7.46356E-03 9.10296E-04-2.98422E-14
 -1       403 7.77595E-03 8.01085E-04-3.25827E-14
 -1       404 8.09709E-03 6.85725E-04-3.54415E-14
 -1       405 8.42356E-03 5.78731E-04-3.84125E-14
 -1       406 8.75145E-03 4.87926E-04-4.14904E-14
 -1       407 9.07764E-03 4.15399E-04-4.46804E-14
 -1       408 9.40009E-03 3.59637E-04-4.79745E-14
 -1       409 9.71778E-03 3.17467E-04-5.13665E-14
 -1       410 1.00304E-02 2.85365E-04-5.48503E-14
 -1       411 1.03381E-02 2.60146E-04-5.84225E-14
 -1       412 1.06414E-02 2.39238E-04-6.20847E-14
 -1       413 1.09408E-02 2.20713E-04-6.58358E-14
 -1       414 1.12370E-02 2.03214E-04-6.96609E-14
 -1       415 1.15305E-02 1.85842E-04-7.35511E-14
 -1       416 1.18219E-02 1.68045E-04-7.74994E-14
 -1       417 1.21116E-02 1.49518E-04-8.15108E-14
 -1       418 1.24002E-02 1.30129E-04-8.55809E-14
 -1       419 1.26877E-02 1.09858E-04-8.97008E-14
 -1       420 1.29746E-02 8.87523E-05-9.38696E-14
 -1       421 1.32611E-02 6.69028E-05-9.80749E-14
 -1       422 1.35472E-02 4.44185E-05-1.02304E-13
 -1       423 1.38331E-02 2.14175E-05-1.06570E-13
 -1       424 1.41189E-02-1.97960E-06-1.10875E-13
 -1       425 1.44046E-02-2.56521E-05-1.15202E-13
 -1       426 1.45904E-02-4.69796E-05-1.18044E-13
 -1       427 1.45876E-02-2.58268E-04-1.18585E-13
 -1       428 1.45640E-02-1.74070E-04-1.18002E-13
 -1       429 1.45771E-02-1.10538E-04-1.18025E-13
 -1       430 1.46111E-02-3.40970E-04-1.19156E-13
 -1       431 1.46352E-02-4.25022E-04-1.19736E-13
 -1       432 1.46595E-02-5.09007E-04-1.20316E-13
 -1       433 1.46839E-02-5.92946E-04-1.20894E-13
 -1       434 1.47085E-02-6.76870E-04-1.21464E-13
 -1       435 1.47332E-02-7.60811E-04-1.22027E-13
 -1       436 1.47576E-02-8.43376E-04-1.22572E-13
 -1       437 1.47826E-02-9.27431E-04-1.23119E-13
 -1       438 1.48079E-02-1.01156E-03-1.23658E-13
 -1       439 1.48333E-02-1.09577E-03-1.24196E-13
 -1       440 8.83764E-03-2.50399E-05-3.46115E-14
 -1       441 9.17197E-03-1.76219E-04-3.57979E-14
 -1       442 9.08381E-03-1.20385E-04-3.53825E-14
 -1       443 8.48882E-03 1.23782E-04-3.34539E-14
 -1       444 8.05279E-03 3.54520E-04-3.15698E-14
 -1       445 4.46396E-04-1.21215E-04-1.88268E-16
 -1       446 7.25386E-03 7.37822E-04-2.80157E-14
 -1       447 6.96671E-03 8.03869E-04-2.65079E-14
 -1       448 6.58334E-03 7.65822E-04-2.46796E-14
 -1       449 6.26428E-03 6.49466E-04-2.32497E-14
 -1       450 5.86742E-03 4.50415E-04-2.18794E-14
 -1       451 5.55627E-03 2.96313E-04-2.11671E-14
 -1       452 5.18689E-03 1.27437E-04-2.04711E-14
 -1       453 4.84963E-03-1.45351E-05-1.98030E-14
 -1       454 4.71680E-03-7.31241E-05-1.96459E-14
 -1       455 4.73980E-03-1.36708E-04-1.99514E-14
 -1       456 4.89859E-03-2.01400E-04-2.02801E-14
 -1       457 5.24940E-03-3.53076E-04-2.11987E-14
 -1       458 5.58650E-03-5.19928E-04-2.21337E-14
 -1       459 6.04045E-03-7.64125E-04-2.35643E-14
 -1       460 6.44687E-03-9.74335E-04-2.52012E-14
 -1       461 6.79468E-03-1.09556E-03-2.68447E-14
 -1       462 7.12288E-03-1.10786E-03-2.85715E-14
 -1       463 7.51579E-03-9.94692E-04-3.05690E-14
 -1       464 7.82769E-03-8.45714E-04-3.19579E-14
 -1       465 8.25440E-03-6.19943E-04-3.36302E-14
 -1       466 8.62314E-03-4.41074E-04-3.47247E-14
 -1       467 8.91207E-03-3.13134E-04-3.56135E-14
 -1       468 9.10437E-03-2.36987E-04-3.57162E-14
 -1       469 7.69729E-03 5.40985E-04-3.00758E-14
 -1       470 7.44703E-03 6.56937E-04-2.92612E-14
 -1       471 5.05658E-03-2.48369E-04-2.00860E-14
 -1       472 4.67936E-03-9.84644E-05-1.90591E-14
 -1       473 4.98810E-03 3.24029E-05-1.94549E-14
 -1       474 9.33095E-04 3.33824E-04-3.64624E-16
 -1       475 6.64545E-04-7.05106E-05-4.15890E-16
 -1       476 6.69393E-04-1.09405E-04-4.16113E-16
 -1       477 6.61048E-04 1.00735E-06-4.00525E-16
 -1       478 6.61998E-04 3.62229E-05-3.86704E-16
 -1       479 6.64746E-04 7.20949E-05-3.68493E-16
 -1       480 6.69711E-04 1.11192E-04-3.44600E-16
 -1       481 6.77631E-04 1.54520E-04-3.13429E-16
 -1       482 6.90217E-04 2.04149E-04-2.72033E-16
 -1       483 1.22023E-03 3.89157E-04-6.64690E-16
 -1       484 9.78441E-04-3.15353E-04-6.87875E-16
 -1       485 7.85753E-03 4.33665E-04-3.15381E-14
 -1       486 1.26547E-03-3.64842E-04-1.12748E-15
 -1       487 1.55207E-03-3.98319E-04-1.67599E-15
 -1       488 1.83839E-03-4.19165E-04-2.33394E-15
 -1       489 2.12493E-03-4.30294E-04-3.10137E-15
 -1       490 2.41220E-03-4.34144E-04-3.97721E-15
 -1       491 2.70073E-03-4.32840E-04-4.96140E-15
 -1       492 2.99100E-03-4.28393E-04-6.05153E-15
 -1       493 3.28353E-03-4.22919E-04-7.24479E-15
 -1       494 3.57893E-03-4.18876E-04-8.54330E-15
 -1       495 3.87806E-03-4.19328E-04-9.94586E-15
 -1       496 4.18218E-03-4.28211E-04-1.14525E-14
 -1       497 4.49317E-03-4.50567E-04-1.30654E-14
 -1       498 4.81367E-03-4.92634E-04-1.47862E-14
 -1       499 5.14675E-03-5.61533E-04-1.66150E-14
 -1       500 5.49468E-03-6.63766E-04-1.85575E-14
 -1       501 5.85566E-03-8.00839E-04-2.06207E-14
 -1       502 6.22180E-03-9.60796E-04-2.28145E-14
 -1       503 6.58089E-03-1.10861E-03-2.51520E-14
 -1       504 6.92666E-03-1.19188E-03-2.76442E-14
 -1       505 7.26904E-03-1.17501E-03-3.02946E-14
 -1       506 7.62204E-03-1.07296E-03-3.30958E-14
 -1       507 7.98668E-03-9.36260E-04-3.60331E-14
 -1       508 8.35179E-03-8.10124E-04-3.90945E-14
 -1       509 8.70645E-03-7.15880E-04-4.22747E-14
 -1       510 9.04648E-03-6.56614E-04-4.55665E-14
 -1       511 9.37285E-03-6.27304E-04-4.89662E-14
 -1       512 9.68856E-03-6.20898E-04-5.24593E-14
 -1       513 9.99655E-03-6.30830E-04-5.60399E-14
 -1       514 1.02991E-02-6.51745E-04-5.97093E-14
 -1       515 1.05976E-02-6.79575E-04-6.34521E-14
 -1       516 1.08933E-02-7.11371E-04-6.72611E-14
 -1       517 1.11866E-02-7.45094E-04-7.11335E-14
 -1       518 1.14782E-02-7.79392E-04-7.50643E-14
 -1       519 1.17684E-02-8.13422E-04-7.90582E-14
 -1       520 1.20575E-02-8.46701E-04-8.31041E-14
 -1       521 1.23457E-02-8.78989E-04-8.72033E-14
 -1       522 1.26333E-02-9.10210E-04-9.13495E-14
 -1       523 1.29203E-02-9.40389E-04-9.55423E-14
 -1       524 1.32069E-02-9.69611E-04-9.97789E-14
 -1       525 1.34932E-02-9.97993E-04-1.04053E-13
 -1       526 1.37793E-02-1.02567E-03-1.08355E-13
 -1       527 1.40652E-02-1.05276E-03-1.12668E-13
 -1       528 1.43511E-02-1.07941E-03-1.16979E-13
 -1       529 1.79157E-03 4.51068E-04-1.55995E-15
 -1       530 2.07724E-03 4.64939E-04-2.16080E-15
 -1       531 2.36399E-03 4.71211E-04-2.86506E-15
 -1       532 2.65251E-03 4.72198E-04-3.67234E-15
 -1       533 2.94342E-03 4.70050E-04-4.58336E-15
 -1       534 3.23732E-03 4.66956E-04-5.59690E-15
 -1       535 3.53483E-03 4.65344E-04-6.71289E-15
 -1       536 3.83663E-03 4.68047E-04-7.93403E-15
 -1       537 4.14344E-03 4.78404E-04-9.26263E-15
 -1       538 4.45601E-03 5.00224E-04-1.06973E-14
 -1       539 4.77490E-03 5.37445E-04-1.22374E-14
 -1       540 5.10005E-03 5.93297E-04-1.38844E-14
 -1       541 5.43016E-03 6.68658E-04-1.56430E-14
 -1       542 5.76195E-03 7.59520E-04-1.75229E-14
 -1       543 6.09040E-03 8.54132E-04-1.95313E-14
 -1       544 6.41089E-03 9.32405E-04-2.16716E-14
 -1       545 6.72287E-03 9.70919E-04-2.39492E-14
 -1       546 7.03152E-03 9.53819E-04-2.63663E-14
 -1       547 7.34463E-03 8.82407E-04-2.89211E-14
 -1       548 7.66665E-03 7.74474E-04-3.16120E-14
 -1       549 7.99626E-03 6.53479E-04-3.44281E-14
 -1       550 8.32856E-03 5.38428E-04-3.73632E-14
 -1       551 8.65875E-03 4.39796E-04-4.04083E-14
 -1       552 8.98391E-03 3.60762E-04-4.35612E-14
 -1       553 9.30300E-03 3.00052E-04-4.68208E-14
 -1       554 9.61615E-03 2.54388E-04-5.01778E-14
 -1       555 9.92401E-03 2.20025E-04-5.36253E-14
 -1       556 1.02274E-02 1.93525E-04-5.71641E-14
 -1       557 1.05270E-02 1.72072E-04-6.07905E-14
 -1       558 1.08236E-02 1.53521E-04-6.45032E-14
 -1       559 1.11176E-02 1.36333E-04-6.82959E-14
 -1       560 1.14097E-02 1.19469E-04-7.21539E-14
 -1       561 1.17001E-02 1.02272E-04-7.60737E-14
 -1       562 1.19893E-02 8.43643E-05-8.00551E-14
 -1       563 1.22775E-02 6.55672E-05-8.40982E-14
 -1       564 1.25650E-02 4.58318E-05-8.81963E-14
 -1       565 1.28519E-02 2.51929E-05-9.23398E-14
 -1       566 1.31384E-02 3.73454E-06-9.65240E-14
 -1       567 1.34246E-02-1.84334E-05-1.00737E-13
 -1       568 1.37106E-02-4.11905E-05-1.04980E-13
 -1       569 1.39965E-02-6.44138E-05-1.09258E-13
 -1       570 1.42823E-02-8.79797E-05-1.13564E-13
 -1       571 1.43758E-02-3.62044E-04-1.15727E-13
 -1       572 1.44001E-02-4.45861E-04-1.16307E-13
 -1       573 1.43283E-02-1.95491E-04-1.14556E-13
 -1       574 1.43520E-02-2.78826E-04-1.15142E-13
 -1       575 1.44245E-02-5.29591E-04-1.16886E-13
 -1       576 1.44490E-02-6.13275E-04-1.17458E-13
 -1       577 1.44736E-02-6.96960E-04-1.18022E-13
 -1       578 1.44979E-02-7.79272E-04-1.18568E-13
 -1       579 1.45228E-02-8.63090E-04-1.19116E-13
 -1       580 1.45478E-02-9.47021E-04-1.19658E-13
 -1       581 1.45731E-02-1.03107E-03-1.20196E-13
 -1       582 9.17331E-03-1.65360E-04-3.72459E-14
 -1       583 8.69549E-03 8.37347E-06-3.54569E-14
 -1       584 1.50618E-03 4.26905E-04-1.06203E-15
 -1       585 9.18530E-03-2.03643E-04-3.73685E-14
 -1       586 9.00891E-03-1.08899E-04-3.66368E-14
 -1       587 7.14062E-04-2.42715E-04-3.88890E-16
 -1       588 9.07553E-03-2.47297E-04-3.72564E-14
 -1       589 7.31467E-03-1.08383E-03-3.00008E-14
 -1       590 5.34559E-03 1.82435E-04-1.98518E-14
 -1       591 6.07658E-03 5.63507E-04-2.18010E-14
 -1       592 6.61869E-04-3.41574E-05-4.10513E-16
 -1       593 6.46220E-03 7.39511E-04-2.36752E-14
 -1       594 7.09550E-03 7.94504E-04-2.72643E-14
 -1       595 6.75269E-03 8.17321E-04-2.52006E-14
 -1       596 5.61646E-03 3.14709E-04-2.05257E-14
 -1       597 6.26800E-03-8.78660E-04-2.39638E-14
 -1       598 4.73746E-03-5.14800E-05-1.86304E-14
 -1       599 4.76942E-03-1.41840E-04-1.90871E-14
 -1       600 5.41320E-03-4.04894E-04-2.06561E-14
 -1       601 8.45716E-03-5.05152E-04-3.54790E-14
 -1       602 5.80045E-03-6.10012E-04-2.20099E-14
 -1       603 6.61791E-03-1.05272E-03-2.57297E-14
 -1       604 6.98038E-03-1.13458E-03-2.79039E-14
 -1       605 7.66690E-03-9.28459E-04-3.19615E-14
 -1       606 8.03191E-03-7.31185E-04-3.38689E-14
 -1       607 8.77956E-03-3.59506E-04-3.66538E-14
 -1       608 7.04888E-04 2.82329E-04-1.81292E-16
 -1       609 8.23269E-03 2.27598E-04-3.33997E-14
 -1       610 6.77119E-04-1.52298E-04-4.09798E-16
 -1       611 7.28045E-03 7.39081E-04-2.84807E-14
 -1       612 4.87177E-03-1.79930E-04-1.88901E-14
 -1       613 4.64834E-03-7.39423E-05-1.80549E-14
 -1       614 5.81586E-03 4.45690E-04-2.04370E-14
 -1       615 4.82166E-03-1.33110E-05-1.82860E-14
 -1       616 1.45448E-02-1.09890E-03-1.19900E-13
 -1       617 8.96577E-04 6.89547E-05-6.55153E-16
 -1       618 8.93789E-04 2.33195E-05-6.80598E-16
 -1       619 9.11393E-04 1.67971E-04-5.80722E-16
 -1       620 9.25195E-04 2.25008E-04-5.26960E-16
 -1       621 1.05097E-03 2.99566E-04-5.85703E-16
 -1       622 9.01541E-03-2.94264E-04-3.88731E-14
 -1       623 9.20370E-03-2.27049E-04-3.92879E-14
 -1       624 8.29965E-03-6.13358E-04-3.59827E-14
 -1       625 6.02967E-03-7.63082E-04-2.24176E-14
 -1       626 1.38543E-03-3.16358E-04-1.42860E-15
 -1       627 1.67205E-03-3.40861E-04-2.03419E-15
 -1       628 1.95875E-03-3.55305E-04-2.74695E-15
 -1       629 2.24538E-03-3.61903E-04-3.56655E-15
 -1       630 2.53194E-03-3.62649E-04-4.49216E-15
 -1       631 2.81851E-03-3.59385E-04-5.52301E-15
 -1       632 3.10525E-03-3.53933E-04-6.65777E-15
 -1       633 3.39245E-03-3.48263E-04-7.89592E-15
 -1       634 3.68063E-03-3.44678E-04-9.23951E-15
 -1       635 3.97081E-03-3.46033E-04-1.06847E-14
 -1       636 4.26487E-03-3.55989E-04-1.22331E-14
 -1       637 4.56600E-03-3.79375E-04-1.38859E-14
 -1       638 4.87911E-03-4.22735E-04-1.56440E-14
 -1       639 5.21037E-03-4.95029E-04-1.75094E-14
 -1       640 5.56656E-03-6.06229E-04-1.94897E-14
 -1       641 6.72534E-03-1.11268E-03-2.62398E-14
 -1       642 7.09506E-03-1.15773E-03-2.88055E-14
 -1       643 7.46697E-03-1.07113E-03-3.15248E-14
 -1       644 7.85695E-03-9.09149E-04-3.43788E-14
 -1       645 8.24276E-03-7.58996E-04-3.73757E-14
 -1       646 8.60970E-03-6.50622E-04-4.04909E-14
 -1       647 8.95245E-03-5.84867E-04-4.37193E-14
 -1       648 9.27427E-03-5.52595E-04-4.70568E-14
 -1       649 9.58147E-03-5.44250E-04-5.04930E-14
 -1       650 9.87958E-03-5.52448E-04-5.40183E-14
 -1       651 1.01725E-02-5.71781E-04-5.76336E-14
 -1       652 1.04625E-02-5.98300E-04-6.13240E-14
 -1       653 1.07509E-02-6.29141E-04-6.50856E-14
 -1       654 1.10385E-02-6.62269E-04-6.89124E-14
 -1       655 1.13257E-02-6.96283E-04-7.27989E-14
 -1       656 1.16125E-02-7.30269E-04-7.67472E-14
 -1       657 1.18991E-02-7.63667E-04-8.07505E-14
 -1       658 1.21856E-02-7.96176E-04-8.48086E-14
 -1       659 1.24719E-02-8.27667E-04-8.89188E-14
 -1       660 1.27580E-02-8.58131E-04-9.30721E-14
 -1       661 1.30441E-02-8.87627E-04-9.72726E-14
 -1       662 1.33301E-02-9.16256E-04-1.01516E-13
 -1       663 1.36160E-02-9.44140E-04-1.05794E-13
 -1       664 1.39018E-02-9.71404E-04-1.10095E-13
 -1       665 1.41876E-02-9.98176E-04-1.14401E-13
 -1       666 2.19813E-03 3.96696E-04-2.66715E-15
 -1       667 1.40426E-02-1.71815E-04-1.10266E-13
 -1       668 1.91112E-03 3.87723E-04-1.99529E-15
 -1       669 2.77398E-03 3.97932E-04-4.31688E-15
 -1       670 3.06365E-03 3.94181E-04-5.29585E-15
 -1       671 3.35519E-03 3.90248E-04-6.37703E-15
 -1       672 3.64938E-03 3.88487E-04-7.56072E-15
 -1       673 3.94731E-03 3.91695E-04-8.85030E-15
 -1       674 4.25045E-03 4.03244E-04-1.02457E-14
 -1       675 4.56071E-03 4.27116E-04-1.17467E-14
 -1       676 4.88009E-03 4.67695E-04-1.33511E-14
 -1       677 5.20993E-03 5.29032E-04-1.50633E-14
 -1       678 5.54947E-03 6.12846E-04-1.68918E-14
 -1       679 5.89405E-03 7.14588E-04-1.88420E-14
 -1       680 6.23544E-03 8.18188E-04-2.09201E-14
 -1       681 6.56656E-03 8.94338E-04-2.31335E-14
 -1       682 6.88890E-03 9.11961E-04-2.54885E-14
 -1       683 7.21180E-03 8.58575E-04-2.79855E-14
 -1       684 7.54464E-03 7.50600E-04-3.06255E-14
 -1       685 7.88722E-03 6.19958E-04-3.33987E-14
 -1       686 8.23168E-03 4.94266E-04-3.62953E-14
 -1       687 8.57018E-03 3.87684E-04-3.93076E-14
 -1       688 8.89880E-03 3.03547E-04-4.24299E-14
 -1       689 9.21714E-03 2.39678E-04-4.56562E-14
 -1       690 9.52673E-03 1.91982E-04-4.89786E-14
 -1       691 9.82962E-03 1.56265E-04-5.23949E-14
 -1       692 1.01277E-02 1.28885E-04-5.59011E-14
 -1       693 1.04223E-02 1.06924E-04-5.94946E-14
 -1       694 1.07144E-02 8.81681E-05-6.31725E-14
 -1       695 1.10049E-02 7.10128E-05-6.69292E-14
 -1       696 1.12941E-02 5.43520E-05-7.07545E-14
 -1       697 1.15824E-02 3.74672E-05-7.46502E-14
 -1       698 1.18700E-02 1.99303E-05-7.86033E-14
 -1       699 1.21571E-02 1.52131E-06-8.26173E-14
 -1       700 1.24439E-02-1.78369E-05-8.66889E-14
 -1       701 1.27303E-02-3.81286E-05-9.08124E-14
 -1       702 1.30165E-02-5.92812E-05-9.49775E-14
 -1       703 1.33026E-02-8.11911E-05-9.91733E-14
 -1       704 1.35885E-02-1.03741E-04-1.03399E-13
 -1       705 1.38156E-02-1.37638E-04-1.06825E-13
 -1       706 8.50371E-03 1.08922E-04-3.57103E-14
 -1       707 1.41896E-02-5.49952E-04-1.13464E-13
 -1       708 1.43804E-02-1.01469E-03-1.17299E-13
 -1       709 1.41407E-02-3.83027E-04-1.12311E-13
 -1       710 1.42141E-02-6.33331E-04-1.14029E-13
 -1       711 1.41651E-02-4.66539E-04-1.12891E-13
 -1       712 1.42383E-02-7.15331E-04-1.14578E-13
 -1       713 1.42631E-02-7.98842E-04-1.15125E-13
 -1       714 1.42879E-02-8.82502E-04-1.15668E-13
 -1       715 1.43341E-02-9.48536E-04-1.16481E-13
 -1       716 5.42949E-03 2.57820E-04-1.90761E-14
 -1       717 9.16958E-03-1.52486E-04-3.88389E-14
 -1       718 8.92666E-03-6.90862E-05-3.77552E-14
 -1       719 8.73750E-04-2.35814E-04-6.12408E-16
 -1       720 8.65977E-03-4.36410E-04-3.75425E-14
 -1       721 1.62430E-03 3.70274E-04-1.42604E-15
 -1       722 2.48563E-03 3.99425E-04-3.44047E-15
 -1       723 1.12866E-03-2.81438E-04-9.78177E-16
 -1       724 1.33751E-03 3.41820E-04-9.57110E-16
 -1       725 5.06564E-03 8.43184E-05-1.84594E-14
 -1       726 5.10700E-03-2.78720E-04-1.91730E-14
 -1       727 9.02263E-04 1.16600E-04-6.22485E-16
 -1       728 7.52089E-03-1.02629E-03-3.16577E-14
 -1       729 9.25361E-03-1.92384E-04-3.91637E-14
 -1       730 9.01834E-04-1.14327E-04-7.16498E-16
 -1       731 6.29704E-03 6.96840E-04-2.23687E-14
 -1       732 4.64829E-03-1.05314E-04-1.80343E-14
 -1       733 7.85459E-03-8.58182E-04-3.37181E-14
 -1       734 7.62536E-03 5.76538E-04-3.07470E-14
 -1       735 5.58424E-03-5.15430E-04-2.05596E-14
 -1       736 6.42712E-03-9.83287E-04-2.44491E-14
 -1       737 8.05284E-03 3.41078E-04-3.33106E-14
 -1       738 6.91692E-03 8.38138E-04-2.60708E-14
 -1       739 6.56570E-03 7.98027E-04-2.38336E-14
 -1       740 9.10756E-04-1.65375E-04-7.12643E-16
 -1       741 8.93710E-04-2.15526E-05-6.99405E-16
 -1       742 7.09085E-03 8.17804E-04-2.72466E-14
 -1       743 6.33874E-03-9.53272E-04-2.38363E-14
 -1       744 1.41166E-02-3.00077E-04-1.11725E-13
 -1       745 4.69492E-03-1.30595E-04-1.78416E-14
 -1       746 6.04571E-03 5.94834E-04-2.09725E-14
 -1       747 8.96324E-04-6.68917E-05-7.11525E-16
 -1       748 5.26469E-03-3.78410E-04-1.90729E-14
 -1       749 4.68678E-03-4.69873E-05-1.77183E-14
 -1       750 1.16142E-03 2.28737E-04-8.68178E-16
 -1       751 6.40468E-03 7.80340E-04-2.25632E-14
 -1       752 1.79482E-03-2.81756E-04-2.40253E-15
 -1       753 2.08045E-03-2.90826E-04-3.16700E-15
 -1       754 2.36543E-03-2.93874E-04-4.03565E-15
 -1       755 2.64936E-03-2.92502E-04-5.00748E-15
 -1       756 2.93194E-03-2.88251E-04-6.08322E-15
 -1       757 3.21302E-03-2.82679E-04-7.26337E-15
 -1       758 3.49259E-03-2.77473E-04-8.54603E-15
 -1       759 3.77106E-03-2.74558E-04-9.93140E-15
 -1       760 4.04945E-03-2.76257E-04-1.14185E-14
 -1       761 4.32999E-03-2.85553E-04-1.30068E-14
 -1       762 4.61686E-03-3.06673E-04-1.46980E-14
 -1       763 4.91740E-03-3.46628E-04-1.64900E-14
 -1       764 8.55191E-03-5.66010E-04-3.87076E-14
 -1       765 8.89341E-03-4.97042E-04-4.18749E-14
 -1       766 9.20466E-03-4.67341E-04-4.51482E-14
 -1       767 9.49793E-03-4.61621E-04-4.85233E-14
 -1       768 9.78165E-03-4.70979E-04-5.19900E-14
 -1       769 1.00612E-02-4.90146E-04-5.55498E-14
 -1       770 1.03395E-02-5.15753E-04-5.91905E-14
 -1       771 1.06182E-02-5.45430E-04-6.29015E-14
 -1       772 1.08979E-02-5.77446E-04-6.66794E-14
 -1       773 1.11787E-02-6.10546E-04-7.05218E-14
 -1       774 1.14606E-02-6.43853E-04-7.44281E-14
 -1       775 1.17434E-02-6.76793E-04-7.83876E-14
 -1       776 1.20270E-02-7.09022E-04-8.23996E-14
 -1       777 1.23112E-02-7.40371E-04-8.64699E-14
 -1       778 1.25958E-02-7.70786E-04-9.05851E-14
 -1       779 1.28808E-02-8.00295E-04-9.47473E-14
 -1       780 1.31661E-02-8.28970E-04-9.89552E-14
 -1       781 1.34515E-02-8.56915E-04-1.03207E-13
 -1       782 1.37370E-02-8.84241E-04-1.07488E-13
 -1       783 1.40226E-02-9.11061E-04-1.11785E-13
 -1       784 2.03263E-03 3.23114E-04-2.45696E-15
 -1       785 3.17811E-03 3.19488E-04-6.02892E-15
 -1       786 2.89162E-03 3.24411E-04-4.98297E-15
 -1       787 3.75463E-03 3.12595E-04-8.42863E-15
 -1       788 4.04728E-03 3.15325E-04-9.78420E-15
 -1       789 4.34584E-03 3.26328E-04-1.12457E-14
 -1       790 4.65361E-03 3.49903E-04-1.28111E-14
 -1       791 4.97458E-03 3.91585E-04-1.44800E-14
 -1       792 5.31167E-03 4.57846E-04-1.62574E-14
 -1       793 5.66569E-03 5.53555E-04-1.81525E-14
 -1       794 6.02830E-03 6.73597E-04-2.01682E-14
 -1       795 7.77096E-03 5.97611E-04-3.23241E-14
 -1       796 8.13190E-03 4.55026E-04-3.51823E-14
 -1       797 8.48216E-03 3.38025E-04-3.81590E-14
 -1       798 8.81707E-03 2.49042E-04-4.12487E-14
 -1       799 9.13626E-03 1.83597E-04-4.44432E-14
 -1       800 9.44297E-03 1.35547E-04-4.77330E-14
 -1       801 9.74095E-03 9.97261E-05-5.11170E-14
 -1       802 1.00333E-02 7.21910E-05-5.45900E-14
 -1       803 1.03223E-02 5.00097E-05-5.81528E-14
 -1       804 1.06093E-02 3.10343E-05-6.17963E-14
 -1       805 1.08954E-02 1.37186E-05-6.55197E-14
 -1       806 1.11809E-02-3.01619E-06-6.93146E-14
 -1       807 1.14663E-02-1.98874E-05-7.31767E-14
 -1       808 1.17517E-02-3.73385E-05-7.71067E-14
 -1       809 1.20371E-02-5.56107E-05-8.10947E-14
 -1       810 1.23226E-02-7.48024E-05-8.51402E-14
 -1       811 1.26082E-02-9.49164E-05-8.92377E-14
 -1       812 1.28938E-02-1.15895E-04-9.33835E-14
 -1       813 1.31794E-02-1.37645E-04-9.75663E-14
 -1       814 1.34651E-02-1.60058E-04-1.01776E-13
 -1       815 1.39792E-02-6.52330E-04-1.10599E-13
 -1       816 1.40038E-02-7.35447E-04-1.11150E-13
 -1       817 1.39547E-02-5.69306E-04-1.10043E-13
 -1       818 7.40787E-03 7.13432E-04-2.95082E-14
 -1       819 1.74607E-03 3.11598E-04-1.81770E-15
 -1       820 9.34161E-03-2.19385E-04-4.15931E-14
 -1       821 4.84211E-03-2.00575E-04-1.77353E-14
 -1       822 3.46545E-03 3.14844E-04-7.17714E-15
 -1       823 1.24757E-03 2.83400E-04-9.17933E-16
 -1       824 9.21925E-03-2.69302E-04-4.12387E-14
 -1       825 4.81711E-03 3.29157E-05-1.70921E-14
 -1       826 9.16377E-03-1.19274E-04-4.04607E-14
 -1       827 8.80507E-03 1.56656E-05-3.83830E-14
 -1       828 1.50915E-03-2.64978E-04-1.74368E-15
 -1       829 4.56474E-03-8.06116E-05-1.69799E-14
 -1       830 8.92573E-03-3.74265E-04-3.99950E-14
 -1       831 5.58465E-03 3.96275E-04-1.87882E-14
 -1       832 9.32576E-03-1.83895E-04-4.12619E-14
 -1       833 7.85941E-03 4.89556E-04-3.26464E-14
 -1       834 1.40285E-02-8.18739E-04-1.11690E-13
 -1       835 5.10920E-03 1.69230E-04-1.74218E-14
 -1       836 8.35060E-03 2.38036E-04-3.58886E-14
 -1       837 1.13215E-03 5.43082E-05-1.02519E-15
 -1       838 6.72925E-03 8.57853E-04-2.46283E-14
 -1       839 8.14081E-03-7.53524E-04-3.60808E-14
 -1       840 1.13023E-03 9.80514E-07-1.05617E-15
 -1       841 4.56319E-03-5.77568E-05-1.66556E-14
 -1       842 1.25358E-03-2.39594E-04-1.24321E-15
 -1       843 1.38814E-02-3.20925E-04-1.08324E-13
 -1       844 2.31910E-03 3.27915E-04-3.19763E-15
 -1       845 1.39059E-02-4.04219E-04-1.08909E-13
 -1       846 2.60539E-03 3.27784E-04-4.03919E-15
 -1       847 1.36921E-02-1.93811E-04-1.05187E-13
 -1       848 1.13775E-03 1.08934E-04-9.84493E-16
 -1       849 1.39303E-02-4.86809E-04-1.09480E-13
 -1       850 5.25160E-03 2.95339E-04-1.71370E-14
 -1       851 4.56380E-03-1.00622E-04-1.67949E-14
 -1       852 1.38484E-02-2.29425E-04-1.07580E-13
 -1       853 4.66693E-03-5.87416E-06-1.65481E-14
 -1       854 1.49664E-03 3.01918E-04-1.32796E-15
 -1       855 1.14731E-03 1.66654E-04-9.32905E-16
 -1       856 1.13727E-03-1.06613E-04-1.09101E-15
 -1       857 1.14665E-03-1.63947E-04-1.09346E-15
 -1       858 8.41938E-03 2.71098E-04-3.70320E-14
 -1       859 2.20319E-03-2.26484E-04-3.59269E-15
 -1       860 2.48535E-03-2.27126E-04-4.50714E-15
 -1       861 2.76531E-03-2.24718E-04-5.52398E-15
 -1       862 3.04245E-03-2.20483E-04-6.64438E-15
 -1       863 3.31625E-03-2.15655E-04-7.86719E-15
 -1       864 3.58635E-03-2.11516E-04-9.19238E-15
 -1       865 3.85270E-03-2.09436E-04-1.06193E-14
 -1       866 4.11580E-03-2.10951E-04-1.21462E-14
 -1       867 4.37737E-03-2.18093E-04-1.37738E-14
 -1       868 4.64110E-03-2.33921E-04-1.55012E-14
 -1       869 4.79062E-03 1.05922E-04-1.58175E-14
 -1       870 9.16753E-03-3.79582E-04-4.32583E-14
 -1       871 9.43652E-03-3.80559E-04-4.65727E-14
 -1       872 9.69933E-03-3.93557E-04-4.99792E-14
 -1       873 9.96158E-03-4.13716E-04-5.34816E-14
 -1       874 1.02258E-02-4.38732E-04-5.70684E-14
 -1       875 1.04930E-02-4.67037E-04-6.07290E-14
 -1       876 1.07634E-02-4.97439E-04-6.44580E-14
 -1       877 1.10368E-02-5.28987E-04-6.82558E-14
 -1       878 1.13128E-02-5.60949E-04-7.21173E-14
 -1       879 1.15911E-02-5.92794E-04-7.60377E-14
 -1       880 1.18712E-02-6.24175E-04-8.00090E-14
 -1       881 1.21527E-02-6.54888E-04-8.40327E-14
 -1       882 1.24354E-02-6.84844E-04-8.81128E-14
 -1       883 1.27189E-02-7.14030E-04-9.22380E-14
 -1       884 1.30031E-02-7.42485E-04-9.64096E-14
 -1       885 1.32877E-02-7.70281E-04-1.00628E-13
 -1       886 1.35728E-02-7.97508E-04-1.04884E-13
 -1       887 1.38006E-02-8.08289E-04-1.08284E-13
 -1       888 9.11259E-03-4.92634E-05-4.15211E-14
 -1       889 4.13604E-03 2.38469E-04-1.07360E-14
 -1       890 3.85100E-03 2.37722E-04-9.31473E-15
 -1       891 4.72982E-03 2.66623E-04-1.38892E-14
 -1       892 5.04998E-03 3.06491E-04-1.56214E-14
 -1       893 9.07807E-03 1.14935E-04-4.32534E-14
 -1       894 9.37896E-03 7.01278E-05-4.65151E-14
 -1       895 9.66919E-03 3.69341E-05-4.98693E-14
 -1       896 9.95334E-03 1.10276E-05-5.33139E-14
 -1       897 1.02345E-02-1.04051E-05-5.68468E-14
 -1       898 1.05145E-02-2.92210E-05-6.04590E-14
 -1       899 1.07946E-02-4.67028E-05-6.41501E-14
 -1       900 1.10751E-02-6.37424E-05-6.79152E-14
 -1       901 1.13565E-02-8.09422E-05-7.17497E-14
 -1       902 1.16386E-02-9.86860E-05-7.56500E-14
 -1       903 1.19216E-02-1.17191E-04-7.96127E-14
 -1       904 1.22052E-02-1.36552E-04-8.36330E-14
 -1       905 1.24893E-02-1.56778E-04-8.77075E-14
 -1       906 1.27739E-02-1.77823E-04-9.18306E-14
 -1       907 1.30588E-02-1.99607E-04-9.59950E-14
 -1       908 1.33440E-02-2.22033E-04-1.00198E-13
 -1       909 4.61457E-03-1.42532E-04-1.65226E-14
 -1       910 1.37447E-02-6.71582E-04-1.07173E-13
 -1       911 1.37203E-02-5.88959E-04-1.06629E-13
 -1       912 5.03487E-03-2.97129E-04-1.79958E-14
 -1       913 8.70277E-03 1.25205E-04-3.88411E-14
 -1       914 9.41448E-03-2.60491E-04-4.38137E-14
 -1       915 1.87015E-03 2.51356E-04-2.23749E-15
 -1       916 8.76032E-03 1.78531E-04-4.00923E-14
 -1       917 1.63541E-03-2.11054E-04-2.07064E-15
 -1       918 9.18906E-03-3.39046E-04-4.26847E-14
 -1       919 3.00598E-03 2.52471E-04-5.67011E-15
 -1       920 1.13192E-03-5.21653E-05-1.07837E-15
 -1       921 1.91957E-03-2.21544E-04-2.78021E-15
 -1       922 4.42739E-03 2.46580E-04-1.22622E-14
 -1       923 9.47645E-03-2.12851E-04-4.40048E-14
 -1       924 1.37726E-02-7.39836E-04-1.07730E-13
 -1       925 9.39720E-03-1.60916E-04-4.33702E-14
 -1       926 4.75740E-03-2.27147E-04-1.65027E-14
 -1       927 1.39869E-03 2.19258E-04-1.29554E-15
 -1       928 4.45349E-03-6.85659E-05-1.56562E-14
 -1       929 1.38111E-03-1.93473E-04-1.52364E-15
 -1       930 4.63483E-03 5.93518E-05-1.53024E-14
 -1       931 2.72349E-03 2.57171E-04-4.66035E-15
 -1       932 1.44677E-03 2.59670E-04-1.31515E-15
 -1       933 3.56886E-03 2.41177E-04-7.99696E-15
 -1       934 3.28758E-03 2.46657E-04-6.78227E-15
 -1       935 9.39124E-03-1.07803E-04-4.44602E-14
 -1       936 1.35709E-02-2.55706E-04-1.03597E-13
 -1       937 1.37555E-03 9.10729E-05-1.43058E-15
 -1       938 1.36467E-02-3.42014E-04-1.04941E-13
 -1       939 1.37092E-03 3.06910E-05-1.47779E-15
 -1       940 1.36959E-02-5.06926E-04-1.06079E-13
 -1       941 4.92743E-03 2.01665E-04-1.57286E-14
 -1       942 2.15536E-03 2.57950E-04-2.94471E-15
 -1       943 1.58494E-03 2.38234E-04-1.62951E-15
 -1       944 1.37511E-03-8.87466E-05-1.53624E-15
 -1       945 4.50103E-03-2.68814E-05-1.55610E-14
 -1       946 4.51391E-03-1.78160E-04-1.51278E-14
 -1       947 1.76401E-03-1.54945E-04-2.40829E-15
 -1       948 2.60610E-03-1.62347E-04-4.98016E-15
 -1       949 2.88135E-03-1.60020E-04-6.04040E-15
 -1       950 3.15224E-03-1.56816E-04-7.20356E-15
 -1       951 3.41786E-03-1.53624E-04-8.46772E-15
 -1       952 3.67726E-03-1.51291E-04-9.83398E-15
 -1       953 3.92946E-03-1.50592E-04-1.13013E-14
 -1       954 4.17352E-03-1.52404E-04-1.28686E-14
 -1       955 3.93861E-03 1.64444E-04-1.02176E-14
 -1       956 9.62974E-03-3.22622E-04-4.79867E-14
 -1       957 9.86987E-03-3.43871E-04-5.14283E-14
 -1       958 1.01175E-02-3.68064E-04-5.49623E-14
 -1       959 1.03720E-02-3.94556E-04-5.85701E-14
 -1       960 1.06325E-02-4.22774E-04-6.22511E-14
 -1       961 1.08980E-02-4.52128E-04-6.60003E-14
 -1       962 1.11678E-02-4.82078E-04-6.98155E-14
 -1       963 1.14411E-02-5.12184E-04-7.36944E-14
 -1       964 1.17173E-02-5.42117E-04-7.76275E-14
 -1       965 1.19959E-02-5.71660E-04-8.16124E-14
 -1       966 1.22763E-02-6.00694E-04-8.56514E-14
 -1       967 1.25581E-02-6.29167E-04-8.97424E-14
 -1       968 1.28410E-02-6.57078E-04-9.38765E-14
 -1       969 1.31247E-02-6.84466E-04-9.80634E-14
 -1       970 1.34091E-02-7.11389E-04-1.02294E-13
 -1       971 1.35908E-02-7.25695E-04-1.05007E-13
 -1       972 1.36712E-02-4.24300E-04-1.05514E-13
 -1       973 9.88314E-03-4.80696E-05-5.20258E-14
 -1       974 9.61054E-03-2.54840E-05-4.86089E-14
 -1       975 9.33280E-03 2.59031E-06-4.52819E-14
 -1       976 1.01542E-02-6.78612E-05-5.55301E-14
 -1       977 1.04257E-02-8.61519E-05-5.91139E-14
 -1       978 1.06986E-02-1.03789E-04-6.27759E-14
 -1       979 1.09733E-02-1.21347E-04-6.65133E-14
 -1       980 1.12499E-02-1.39213E-04-7.03162E-14
 -1       981 1.15282E-02-1.57637E-04-7.41900E-14
 -1       982 1.18081E-02-1.76770E-04-7.81263E-14
 -1       983 1.20894E-02-1.96671E-04-8.21229E-14
 -1       984 1.23718E-02-2.17340E-04-8.61700E-14
 -1       985 1.26551E-02-2.38736E-04-9.02698E-14
 -1       986 1.29391E-02-2.60791E-04-9.44202E-14
 -1       987 1.32236E-02-2.83421E-04-9.86121E-14
 -1       988 2.43992E-03 2.59434E-04-3.75203E-15
 -1       989 9.05529E-03 4.79202E-05-4.22803E-14
 -1       990 1.38483E-03 1.53480E-04-1.37039E-15
 -1       991 4.44139E-03-1.02349E-04-1.54027E-14
 -1       992 1.71252E-03 1.82568E-04-2.00905E-15
 -1       993 1.34351E-02-3.12557E-04-1.01772E-13
 -1       994 1.37076E-03-2.87210E-05-1.51284E-15
 -1       995 1.34860E-02-6.08081E-04-1.03215E-13
 -1       996 2.32743E-03-1.62889E-04-4.02197E-15
 -1       997 2.04635E-03-1.60735E-04-3.16439E-15
 -1       998 9.60799E-03-2.55154E-04-4.65587E-14
 -1       999 9.61438E-03-1.97353E-04-4.65212E-14
 -1      1000 9.45469E-03-3.24886E-04-4.57779E-14
 -1      1001 4.33102E-03-3.84640E-05-1.43283E-14
 -1      1002 1.56840E-03-1.21289E-04-1.94898E-15
 -1      1003 4.21214E-03 1.61730E-04-1.17042E-14
 -1      1004 4.28340E-03-7.51661E-05-1.40953E-14
 -1      1005 2.84059E-03 1.88337E-04-5.30351E-15
 -1      1006 3.66627E-03 1.69880E-04-8.83536E-15
 -1      1007 1.61526E-03 6.53780E-05-1.96030E-15
 -1      1008 3.11798E-03 1.82854E-04-6.37803E-15
 -1      1009 1.34618E-02-5.26582E-04-1.02681E-13
 -1      1010 1.34598E-02-3.94500E-04-1.02342E-13
 -1      1011 1.99614E-03 1.90047E-04-2.68334E-15
 -1      1012 4.62684E-03 1.78506E-04-1.39964E-14
 -1      1013 9.65012E-03-1.53927E-04-4.76448E-14
 -1      1014 1.56133E-03-5.68556E-05-1.92641E-15
 -1      1015 4.40626E-03 3.10346E-05-1.40915E-14
 -1      1016 2.17583E-03-9.97157E-05-3.55318E-15
 -1      1017 1.75384E-03-8.70214E-05-2.38787E-15
 -1      1018 2.99977E-03-9.87734E-05-6.55467E-15
 -1      1019 3.26447E-03-9.75801E-05-7.75909E-15
 -1      1020 3.52202E-03-9.69503E-05-9.06398E-15
 -1      1021 3.77078E-03-9.74182E-05-1.04704E-14
 -1      1022 4.00854E-03-9.94298E-05-1.19787E-14
 -1      1023 2.56091E-03 1.91959E-04-4.32946E-15
 -1      1024 1.00087E-02-3.04470E-04-5.28686E-14
 -1      1025 1.02505E-02-3.28254E-04-5.64241E-14
 -1      1026 1.05013E-02-3.53576E-04-6.00523E-14
 -1      1027 1.07593E-02-3.80099E-04-6.37524E-14
 -1      1028 1.10232E-02-4.07420E-04-6.75186E-14
 -1      1029 1.12918E-02-4.35188E-04-7.13539E-14
 -1      1030 1.15642E-02-4.63107E-04-7.52480E-14
 -1      1031 1.18398E-02-4.90960E-04-7.91964E-14
 -1      1032 1.21179E-02-5.18603E-04-8.32002E-14
 -1      1033 1.23979E-02-5.45955E-04-8.72537E-14
 -1      1034 1.26795E-02-5.72976E-04-9.13587E-14
 -1      1035 1.29622E-02-5.99666E-04-9.55103E-14
 -1      1036 9.82178E-03-1.03939E-04-5.07252E-14
 -1      1037 1.34608E-02-4.60627E-04-1.02519E-13
 -1      1038 1.03412E-02-1.39173E-04-5.77589E-14
 -1      1039 1.00799E-02-1.21567E-04-5.42016E-14
 -1      1040 1.96507E-03-9.38947E-05-2.94209E-15
 -1      1041 1.06058E-02-1.57061E-04-6.13939E-14
 -1      1042 1.08740E-02-1.75393E-04-6.51037E-14
 -1      1043 1.11453E-02-1.94286E-04-6.88813E-14
 -1      1044 1.14195E-02-2.13799E-04-7.27233E-14
 -1      1045 1.16961E-02-2.33976E-04-7.66357E-14
 -1      1046 1.19749E-02-2.54819E-04-8.06081E-14
 -1      1047 1.22553E-02-2.76299E-04-8.46316E-14
 -1      1048 1.25371E-02-2.98370E-04-8.87039E-14
 -1      1049 1.28200E-02-3.20973E-04-9.28350E-14
 -1      1050 1.31037E-02-3.44039E-04-9.70143E-14
 -1      1051 1.61229E-03 1.00847E-06-2.01197E-15
 -1      1052 3.39307E-03 1.76388E-04-7.55610E-15
 -1      1053 4.48410E-03 7.45194E-05-1.41169E-14
 -1      1054 1.32817E-02-3.69153E-04-9.96747E-14
 -1      1055 2.45424E-03-1.00465E-04-4.45238E-15
 -1      1056 9.63077E-03-9.45509E-05-4.81404E-14
 -1      1057 1.89614E-03 6.86270E-05-2.63464E-15
 -1      1058 2.27923E-03 1.92844E-04-3.45645E-15
 -1      1059 9.80531E-03-2.45909E-04-4.94959E-14
 -1      1060 2.72929E-03-9.99435E-05-5.45235E-15
 -1      1061 9.81250E-03-2.90829E-04-4.99733E-14
 -1      1062 2.68288E-03 1.26105E-04-4.92931E-15
 -1      1063 4.13386E-03-3.81874E-05-1.28235E-14
 -1      1064 1.32458E-02-6.26049E-04-9.97172E-14
 -1      1065 3.75915E-03 1.02012E-04-9.69095E-15
 -1      1066 2.95790E-03 1.21949E-04-5.96782E-15
 -1      1067 4.18212E-03-8.38333E-05-1.32654E-14
 -1      1068 9.87741E-03-2.07376E-04-5.06636E-14
 -1      1069 4.01836E-03 9.42396E-05-1.11375E-14
 -1      1070 1.32218E-02-5.45168E-04-9.91921E-14
 -1      1071 3.12354E-03-4.08447E-05-7.06575E-15
 -1      1072 1.80250E-03-2.66101E-05-2.48727E-15
 -1      1073 1.10412E-02-2.45907E-04-6.74355E-14
 -1      1074 1.05138E-02-2.06103E-04-6.00009E-14
 -1      1075 2.58516E-03-3.93885E-05-4.88231E-15
 -1      1076 3.38320E-03-4.24406E-05-8.30945E-15
 -1      1077 3.63439E-03-4.51638E-05-9.65505E-15
 -1      1078 3.87489E-03-4.93709E-05-1.11019E-14
 -1      1079 1.01216E-02-2.67453E-04-5.42896E-14
 -1      1080 4.23333E-03 1.08400E-05-1.31461E-14
 -1      1081 1.03650E-02-2.89222E-04-5.78669E-14
 -1      1082 1.06171E-02-3.12446E-04-6.15160E-14
 -1      1083 1.08762E-02-3.36667E-04-6.52322E-14
 -1      1084 1.11409E-02-3.61646E-04-6.90221E-14
 -1      1085 1.14102E-02-3.87115E-04-7.28749E-14
 -1      1086 1.16833E-02-4.12821E-04-7.67874E-14
 -1      1087 1.19594E-02-4.38657E-04-8.07588E-14
 -1      1088 1.22378E-02-4.64518E-04-8.47791E-14
 -1      1089 1.25181E-02-4.90306E-04-8.88490E-14
 -1      1090 1.27999E-02-5.16008E-04-9.29728E-14
 -1      1091 3.49620E-03 1.09524E-04-8.34807E-15
 -1      1092 1.02581E-02-1.87567E-04-5.63926E-14
 -1      1093 1.13111E-02-2.66956E-04-7.12521E-14
 -1      1094 1.15846E-02-2.88586E-04-7.51423E-14
 -1      1095 1.18608E-02-3.10763E-04-7.90915E-14
 -1      1096 1.21392E-02-3.33439E-04-8.30912E-14
 -1      1097 1.24195E-02-3.56528E-04-8.71416E-14
 -1      1098 1.27012E-02-3.79974E-04-9.12450E-14
 -1      1099 1.29841E-02-4.03739E-04-9.54032E-14
 -1      1100 4.24850E-03 6.87027E-05-1.26972E-14
 -1      1101 2.30909E-03-3.87660E-05-3.94260E-15
 -1      1102 2.40478E-03 1.28340E-04-3.99153E-15
 -1      1103 1.07751E-02-2.25595E-04-6.36853E-14
 -1      1104 3.99983E-03 9.13454E-06-1.16439E-14
 -1      1105 9.85656E-03-1.59469E-04-5.07057E-14
 -1      1106 1.00549E-02-1.73003E-04-5.35227E-14
 -1      1107 2.85707E-03-3.99523E-05-5.92297E-15
 -1      1108 1.30106E-02-5.30650E-04-9.60676E-14
 -1      1109 2.09993E-03-3.40632E-05-3.30069E-15
 -1      1110 2.80721E-03 6.24238E-05-5.54950E-15
 -1      1111 1.32829E-02-4.34969E-04-9.98477E-14
 -1      1112 3.59977E-03 4.71004E-05-9.15855E-15
 -1      1113 2.53296E-03 6.49176E-05-4.54877E-15
 -1      1114 3.22904E-03 1.16273E-04-7.10625E-15
 -1      1115 2.18253E-03 1.19850E-04-3.33625E-15
 -1      1116 2.17246E-03 4.40306E-05-3.43312E-15
 -1      1117 3.80437E-03 2.83700E-05-1.03637E-14
 -1      1118 3.94850E-03-2.05420E-05-1.14818E-14
 -1      1119 1.32524E-02-4.90180E-04-9.95234E-14
 -1      1120 1.14722E-02-3.40509E-04-7.36423E-14
 -1      1121 3.51326E-03 9.97590E-06-8.85530E-15
 -1      1122 2.99187E-03 1.81050E-05-6.39125E-15
 -1      1123 1.02172E-02-2.28064E-04-5.56901E-14
 -1      1124 1.17996E-02-3.60759E-04-7.83210E-14
 -1      1125 2.44749E-03 2.20287E-05-4.33125E-15
 -1      1126 3.34161E-03 5.35088E-05-7.85398E-15
 -1      1127 3.25602E-03 1.46198E-05-7.57261E-15
 -1      1128 3.71382E-03-8.51936E-06-1.00126E-14
 -1      1129 2.35305E-03 5.47343E-05-3.97184E-15
 -1      1130 2.69350E-03 1.17215E-05-5.21799E-15
 -1      1131 0.00000E+00 0.00000E+00 0.00000E+00
 -1      1132 0.00000E+00 0.00000E+00 0.00000E+00
 -1      1133 0.00000E+00 0.00000E+00 0.00000E+00
 -1      1134 0.00000E+00 0.00000E+00 0.00000E+00
 -1      1135 0.00000E+00 0.00000E+00 0.00000E+00
 -1      1136 0.00000E+00 0.00000E+00 0.00000E+00
 -1      1137 0.00000E+00 0.00000E+00 0.00000E+00
 -1      1138 0.00000E+00 0.00000E+00 0.00000E+00
 -1      1139 0.00000E+00 0.00000E+00 0.00000E+00
 -1      1140 0.00000E+00 0.00000E+00 0.00000E+00
 -1      1141 0.00000E+00 0.00000E+00 0.00000E+00
 -1      1142 0.00000E+00 0.00000E+00 0.00000E+00
 -1      1143 0.00000E+00 0.00000E+00 0.00000E+00
 -1      1144 0.00000E+00 0.00000E+00 0.00000E+00
 -1      1145 0.00000E+00 0.00000E+00 0.00000E+00
 -1      1146 0.00000E+00 0.00000E+00 0.00000E+00
 -1      1147 0.00000E+00 0.00000E+00 0.00000E+00
 -1      1148 2.10338E-04-1.47081E-04 1.01644E-17
 -1      1149 5.48705E-04-3.33085E-04-4.52925E-17
 -1      1150 8.30056E-04-4.50674E-04-2.11623E-16
 -1      1151 1.10005E-03-5.27897E-04-5.05916E-16
 -1      1152 1.36687E-03-5.80060E-04-9.21070E-16
 -1      1153 1.63435E-03-6.14979E-04-1.45382E-15
 -1      1154 1.90478E-03-6.37278E-04-2.10494E-15
 -1      1155 2.17963E-03-6.50150E-04-2.87282E-15
 -1      1156 2.46000E-03-6.56110E-04-3.75604E-15
 -1      1157 2.74690E-03-6.57346E-04-4.75299E-15
 -1      1158 3.04144E-03-6.55982E-04-5.86331E-15
 -1      1159 3.34482E-03-6.54315E-04-7.07956E-15
 -1      1160 3.65840E-03-6.55087E-04-8.40102E-15
 -1      1161 3.98344E-03-6.61759E-04-9.83064E-15
 -1      1162 4.32087E-03-6.78755E-04-1.13671E-14
 -1      1163 4.67059E-03-7.11521E-04-1.30147E-14
 -1      1164 5.03057E-03-7.66100E-04-1.47785E-14
 -1      1165 5.39581E-03-8.47737E-04-1.66567E-14
 -1      1166 5.75752E-03-9.57986E-04-1.86562E-14
 -1      1167 6.10393E-03-1.09052E-03-2.07847E-14
 -1      1168 6.42369E-03-1.22760E-03-2.30442E-14
 -1      1169 6.71211E-03-1.34118E-03-2.54383E-14
 -1      1170 6.97670E-03-1.40215E-03-2.79772E-14
 -1      1171 7.23642E-03-1.39464E-03-3.06654E-14
 -1      1172 7.51280E-03-1.32506E-03-3.34990E-14
 -1      1173 7.81906E-03-1.21840E-03-3.64641E-14
 -1      1174 8.15553E-03-1.10477E-03-3.95560E-14
 -1      1175 8.51302E-03-1.00709E-03-4.27704E-14
 -1      1176 8.87940E-03-9.36494E-04-4.61072E-14
 -1      1177 9.24446E-03-8.94402E-04-4.95484E-14
 -1      1178 9.60171E-03-8.76841E-04-5.30813E-14
 -1      1179 9.94813E-03-8.78025E-04-5.67077E-14
 -1      1180 1.02831E-02-8.92379E-04-6.04245E-14
 -1      1181 1.06075E-02-9.15352E-04-6.42242E-14
 -1      1182 1.09227E-02-9.43553E-04-6.80899E-14
 -1      1183 1.12303E-02-9.74603E-04-7.20163E-14
 -1      1184 1.15319E-02-1.00691E-03-7.60038E-14
 -1      1185 1.18289E-02-1.03946E-03-8.00457E-14
 -1      1186 1.21223E-02-1.07165E-03-8.41396E-14
 -1      1187 1.24131E-02-1.10315E-03-8.82809E-14
 -1      1188 1.27021E-02-1.13380E-03-9.24757E-14
 -1      1189 1.29897E-02-1.16359E-03-9.67174E-14
 -1      1190 1.32765E-02-1.19255E-03-1.01004E-13
 -1      1191 1.35626E-02-1.22076E-03-1.05329E-13
 -1      1192 1.38484E-02-1.24833E-03-1.09679E-13
 -1      1193 1.41340E-02-1.27538E-03-1.14032E-13
 -1      1194 1.44195E-02-1.30202E-03-1.18373E-13
 -1      1195 1.47051E-02-1.32836E-03-1.22707E-13
 -1      1196 1.49907E-02-1.35453E-03-1.27038E-13
 -1      1197 1.52692E-02-1.38001E-03-1.31272E-13
 -1      1198 2.26991E-04 1.59373E-04 3.77167E-17
 -1      1199 5.50916E-04 3.37697E-04 5.76389E-17
 -1      1200 8.31078E-04 4.52902E-04-4.13352E-18
 -1      1201 1.10108E-03 5.29741E-04-1.61505E-16
 -1      1202 1.36793E-03 5.82044E-04-4.18258E-16
 -1      1203 1.63547E-03 6.17284E-04-7.77387E-16
 -1      1204 1.90591E-03 6.40048E-04-1.24195E-15
 -1      1205 2.18063E-03 6.53579E-04-1.81260E-15
 -1      1206 2.46061E-03 6.60453E-04-2.48919E-15
 -1      1207 2.74670E-03 6.62921E-04-3.27088E-15
 -1      1208 3.03967E-03 6.63152E-04-4.16053E-15
 -1      1209 3.34029E-03 6.63426E-04-5.15241E-15
 -1      1210 3.64919E-03 6.66311E-04-6.24759E-15
 -1      1211 3.96671E-03 6.74784E-04-7.45230E-15
 -1      1212 4.29257E-03 6.92242E-04-8.76644E-15
 -1      1213 4.62544E-03 7.22268E-04-1.01912E-14
 -1      1214 4.96239E-03 7.67997E-04-1.17211E-14
 -1      1215 5.29862E-03 8.30896E-04-1.33599E-14
 -1      1216 5.62752E-03 9.08993E-04-1.51183E-14
 -1      1217 5.94193E-03 9.95052E-04-1.70020E-14
 -1      1218 6.23645E-03 1.07590E-03-1.90154E-14
 -1      1219 6.51048E-03 1.13444E-03-2.11601E-14
 -1      1220 6.77007E-03 1.15485E-03-2.34395E-14
 -1      1221 7.02679E-03 1.12894E-03-2.58616E-14
 -1      1222 7.29339E-03 1.05998E-03-2.84182E-14
 -1      1223 7.57879E-03 9.61086E-04-3.11013E-14
 -1      1224 7.88534E-03 8.49598E-04-3.39009E-14
 -1      1225 8.20954E-03 7.40894E-04-3.68082E-14
 -1      1226 8.54472E-03 6.44907E-04-3.98268E-14
 -1      1227 8.88393E-03 5.65798E-04-4.29579E-14
 -1      1228 9.22163E-03 5.03478E-04-4.61951E-14
 -1      1229 9.55427E-03 4.55525E-04-4.95396E-14
 -1      1230 9.88008E-03 4.18683E-04-5.29812E-14
 -1      1231 1.01986E-02 3.89769E-04-5.65119E-14
 -1      1232 1.05103E-02 3.66087E-04-6.01364E-14
 -1      1233 1.08159E-02 3.45548E-04-6.38556E-14
 -1      1234 1.11164E-02 3.26635E-04-6.76585E-14
 -1      1235 1.14127E-02 3.08306E-04-7.15333E-14
 -1      1236 1.17059E-02 2.89892E-04-7.54624E-14
 -1      1237 1.19967E-02 2.70995E-04-7.94543E-14
 -1      1238 1.22856E-02 2.51408E-04-8.35071E-14
 -1      1239 1.25733E-02 2.31055E-04-8.76145E-14
 -1      1240 1.28600E-02 2.09944E-04-9.17678E-14
 -1      1241 1.31462E-02 1.88134E-04-9.59677E-14
 -1      1242 1.34320E-02 1.65712E-04-1.00201E-13
 -1      1243 1.37176E-02 1.42780E-04-1.04462E-13
 -1      1244 1.40032E-02 1.19446E-04-1.08767E-13
 -1      1245 1.42887E-02 9.58237E-05-1.13103E-13
 -1      1246 1.45743E-02 7.20312E-05-1.17452E-13
 -1      1247 1.48529E-02 4.87919E-05-1.21697E-13
 -1      1248 1.50003E-02-4.66367E-06-1.24053E-13
 -1      1249 1.50237E-02-8.89827E-05-1.24669E-13
 -1      1250 1.50471E-02-1.73367E-04-1.25260E-13
 -1      1251 1.50706E-02-2.57795E-04-1.25803E-13
 -1      1252 1.50944E-02-3.42229E-04-1.26346E-13
 -1      1253 1.51181E-02-4.25919E-04-1.26914E-13
 -1      1254 1.51421E-02-5.09564E-04-1.27491E-13
 -1      1255 1.51664E-02-5.93880E-04-1.28060E-13
 -1      1256 1.51909E-02-6.78171E-04-1.28638E-13
 -1      1257 1.52155E-02-7.62463E-04-1.29209E-13
 -1      1258 1.52403E-02-8.46785E-04-1.29763E-13
 -1      1259 1.52651E-02-9.30438E-04-1.30306E-13
 -1      1260 1.52900E-02-1.01414E-03-1.30845E-13
 -1      1261 1.53154E-02-1.09858E-03-1.31391E-13
 -1      1262 1.53410E-02-1.18301E-03-1.31940E-13
 -1      1263 1.53667E-02-1.26740E-03-1.32506E-13
 -1      1264 1.53923E-02-1.35100E-03-1.33065E-13
 -1      1265 9.14958E-03-9.11671E-05-3.30589E-14
 -1      1266 9.02440E-03 5.95268E-05-3.26340E-14
 -1      1267 8.79237E-03 2.16709E-04-3.19306E-14
 -1      1268 8.45764E-03 3.81561E-04-3.09399E-14
 -1      1269 8.06790E-03 5.30313E-04-2.97949E-14
 -1      1270 7.64060E-03 6.48220E-04-2.85465E-14
 -1      1271 7.18974E-03 7.21707E-04-2.72467E-14
 -1      1272 6.74453E-03 7.34679E-04-2.59954E-14
 -1      1273 6.29972E-03 6.91353E-04-2.48045E-14
 -1      1274 5.88332E-03 5.99249E-04-2.37707E-14
 -1      1275 5.50667E-03 4.76101E-04-2.29097E-14
 -1      1276 5.18624E-03 3.37886E-04-2.22400E-14
 -1      1277 4.92641E-03 1.88321E-04-2.17554E-14
 -1      1278 4.75774E-03 3.66377E-05-2.15047E-14
 -1      1279 4.70554E-03-1.16112E-04-2.15095E-14
 -1      1280 4.77437E-03-2.70062E-04-2.17667E-14
 -1      1281 4.96059E-03-4.29753E-04-2.22657E-14
 -1      1282 5.25259E-03-5.98650E-04-2.30136E-14
 -1      1283 5.61732E-03-7.59744E-04-2.39540E-14
 -1      1284 6.03553E-03-9.00920E-04-2.50665E-14
 -1      1285 6.48790E-03-1.00175E-03-2.63059E-14
 -1      1286 6.95587E-03-1.04285E-03-2.76198E-14
 -1      1287 7.41691E-03-1.01723E-03-2.89197E-14
 -1      1288 7.84220E-03-9.38461E-04-3.00937E-14
 -1      1289 8.23694E-03-8.18767E-04-3.11387E-14
 -1      1290 8.59401E-03-6.72986E-04-3.20317E-14
 -1      1291 8.87188E-03-5.24928E-04-3.26811E-14
 -1      1292 9.06258E-03-3.81400E-04-3.30703E-14
 -1      1293 9.16033E-03-2.37514E-04-3.32022E-14
 -1      1294 1.66072E-04-1.09281E-04-7.27771E-18
 -1      1295 1.12596E-04-5.60139E-05-2.66578E-17
 -1      1296 1.17521E-04-6.66879E-05-2.12504E-17
 -1      1297 1.08627E-04-4.23616E-05-3.54128E-17
 -1      1298 1.10431E-04-4.85381E-05-3.28649E-17
 -1      1299 2.26589E-04-1.05424E-04-7.74120E-17
 -1      1300 1.07074E-04-3.24014E-05-3.97902E-17
 -1      1301 1.07915E-04-3.71351E-05-3.86247E-17
 -1      1302 2.19565E-04-8.00377E-05-9.26044E-17
 -1      1303 1.06255E-04-2.41873E-05-4.19857E-17
 -1      1304 1.06712E-04-2.81700E-05-4.14707E-17
 -1      1305 2.16311E-04-6.08165E-05-1.00506E-16
 -1      1306 1.05783E-04-1.71053E-05-4.26634E-17
 -1      1307 1.06051E-04-2.05634E-05-4.25820E-17
 -1      1308 2.14515E-04-4.49235E-05-1.04232E-16
 -1      1309 1.05494E-04-1.05513E-05-4.25956E-17
 -1      1310 1.05651E-04-1.37738E-05-4.27582E-17
 -1      1311 2.13421E-04-3.09293E-05-1.05262E-16
 -1      1312 1.05348E-04-4.38216E-06-4.19180E-17
 -1      1313 1.05420E-04-7.43947E-06-4.22297E-17
 -1      1314 2.12769E-04-1.80132E-05-1.04680E-16
 -1      1315 1.05326E-04 1.63203E-06-4.07389E-17
 -1      1316 1.05325E-04-1.37430E-06-4.11455E-17
 -1      1317 2.12464E-04-5.76367E-06-1.02647E-16
 -1      1318 1.05427E-04 7.70917E-06-3.90177E-17
 -1      1319 1.05351E-04 4.64386E-06-3.95327E-17
 -1      1320 2.12471E-04 6.28056E-06-9.93265E-17
 -1      1321 1.05663E-04 1.40735E-05-3.67138E-17
 -1      1322 1.05502E-04 1.08335E-05-3.73643E-17
 -1      1323 2.12791E-04 1.85618E-05-9.47457E-17
 -1      1324 1.06066E-04 2.08539E-05-3.35018E-17
 -1      1325 1.05795E-04 1.73701E-05-3.45047E-17
 -1      1326 2.13454E-04 3.14317E-05-8.87013E-17
 -1      1327 1.06748E-04 2.86038E-05-2.90295E-17
 -1      1328 1.06282E-04 2.45754E-05-3.05338E-17
 -1      1329 2.14568E-04 4.55286E-05-8.04614E-17
 -1      1330 1.07947E-04 3.77191E-05-2.28089E-17
 -1      1331 1.07100E-04 3.29130E-05-2.51941E-17
 -1      1332 2.16408E-04 6.17478E-05-6.93212E-17
 -1      1333 1.10405E-04 4.92767E-05-1.35796E-17
 -1      1334 1.08625E-04 4.30319E-05-1.75776E-17
 -1      1335 2.19653E-04 8.12897E-05-5.38306E-17
 -1      1336 1.16841E-04 6.67301E-05 3.25261E-19
 -1      1337 1.12243E-04 5.68117E-05-6.27482E-18
 -1      1338 2.26568E-04 1.07240E-04-3.18484E-17
 -1      1339 1.56903E-04 1.08874E-04 2.09251E-17
 -1      1340 1.35391E-04 8.51407E-05 8.72783E-18
 -1      1341 2.55800E-04 1.49932E-04-5.93601E-18
 -1      1342 3.33759E-04 2.18260E-04 2.91921E-17
 -1      1343 4.20067E-04-2.58294E-04-5.55654E-17
 -1      1344 5.72890E-04-3.31492E-04-1.11795E-16
 -1      1345 7.19998E-04-3.90094E-04-2.01526E-16
 -1      1346 8.63277E-04-4.37254E-04-3.22076E-16
 -1      1347 6.11385E-04-3.24596E-04-1.87282E-16
 -1      1348 1.00363E-03-4.76041E-04-4.71953E-16
 -1      1349 1.14202E-03-5.07596E-04-6.51958E-16
 -1      1350 9.05077E-04-4.20934E-04-4.35104E-16
 -1      1351 1.27933E-03-5.33755E-04-8.61114E-16
 -1      1352 1.41607E-03-5.55003E-04-1.09983E-15
 -1      1353 1.18877E-03-4.85362E-04-7.99897E-16
 -1      1354 1.55275E-03-5.72375E-04-1.36761E-15
 -1      1355 1.68966E-03-5.86223E-04-1.66452E-15
 -1      1356 1.46799E-03-5.28397E-04-1.28047E-15
 -1      1357 1.82710E-03-5.97147E-04-1.99051E-15
 -1      1358 1.96525E-03-6.05475E-04-2.34554E-15
 -1      1359 1.74631E-03-5.56131E-04-1.87612E-15
 -1      1360 2.10432E-03-6.11592E-04-2.72941E-15
 -1      1361 2.24444E-03-6.15806E-04-3.14206E-15
 -1      1362 2.02601E-03-5.72527E-04-2.58669E-15
 -1      1363 2.38577E-03-6.18392E-04-3.58294E-15
 -1      1364 2.52841E-03-6.19650E-04-4.05164E-15
 -1      1365 2.30864E-03-5.80498E-04-3.41067E-15
 -1      1366 2.67252E-03-6.19804E-04-4.54937E-15
 -1      1367 2.81822E-03-6.19160E-04-5.07534E-15
 -1      1368 2.59536E-03-5.82405E-04-4.34743E-15
 -1      1369 2.96565E-03-6.17937E-04-5.62785E-15
 -1      1370 3.11493E-03-6.16468E-04-6.20780E-15
 -1      1371 2.88719E-03-5.80374E-04-5.39518E-15
 -1      1372 3.26623E-03-6.15007E-04-6.81382E-15
 -1      1373 3.41966E-03-6.13943E-04-7.44568E-15
 -1      1374 3.18512E-03-5.76565E-04-6.55065E-15
 -1      1375 3.57539E-03-6.13611E-04-8.10478E-15
 -1      1376 3.73352E-03-6.14477E-04-8.79066E-15
 -1      1377 3.49014E-03-5.73446E-04-7.81136E-15
 -1      1378 3.89419E-03-6.17013E-04-9.50345E-15
 -1      1379 4.05746E-03-6.21776E-04-1.02428E-14
 -1      1380 3.80316E-03-5.74087E-04-9.17856E-15
 -1      1381 4.22339E-03-6.29428E-04-1.10084E-14
 -1      1382 4.39194E-03-6.40608E-04-1.18016E-14
 -1      1383 4.12493E-03-5.82470E-04-1.06523E-14
 -1      1384 4.56303E-03-6.56178E-04-1.26234E-14
 -1      1385 4.73643E-03-6.76809E-04-1.34732E-14
 -1      1386 4.45575E-03-6.03716E-04-1.22349E-14
 -1      1387 4.91183E-03-7.03476E-04-1.43509E-14
 -1      1388 5.08872E-03-7.36718E-04-1.52580E-14
 -1      1389 4.79511E-03-6.44018E-04-1.39279E-14
 -1      1390 5.26647E-03-7.77345E-04-1.61941E-14
 -1      1391 5.44423E-03-8.25450E-04-1.71585E-14
 -1      1392 5.14122E-03-7.09879E-04-1.57343E-14
 -1      1393 5.62107E-03-8.81126E-04-1.81545E-14
 -1      1394 5.79585E-03-9.43525E-04-1.91812E-14
 -1      1395 5.49049E-03-8.06022E-04-1.76575E-14
 -1      1396 5.96751E-03-1.01132E-03-2.02401E-14
 -1      1397 6.13494E-03-1.08225E-03-2.13329E-14
 -1      1398 5.83742E-03-9.31535E-04-1.97025E-14
 -1      1399 6.29734E-03-1.15316E-03-2.24565E-14
 -1      1400 6.45425E-03-1.22042E-03-2.36141E-14
 -1      1401 6.17529E-03-1.07497E-03-2.18743E-14
 -1      1402 6.60569E-03-1.27964E-03-2.48078E-14
 -1      1403 6.75239E-03-1.32698E-03-2.60373E-14
 -1      1404 6.49861E-03-1.21156E-03-2.41814E-14
 -1      1405 6.89542E-03-1.35880E-03-2.73047E-14
 -1      1406 7.03673E-03-1.37295E-03-2.86078E-14
 -1      1407 6.80683E-03-1.30797E-03-2.66338E-14
 -1      1408 7.17806E-03-1.36865E-03-2.99476E-14
 -1      1409 7.32161E-03-1.34675E-03-3.13251E-14
 -1      1410 7.10682E-03-1.33662E-03-2.92345E-14
 -1      1411 7.46883E-03-1.30987E-03-3.27371E-14
 -1      1412 7.62108E-03-1.26131E-03-3.41847E-14
 -1      1413 7.41027E-03-1.29161E-03-3.19806E-14
 -1      1414 7.77883E-03-1.20543E-03-3.56652E-14
 -1      1415 7.94212E-03-1.14617E-03-3.71760E-14
 -1      1416 7.72685E-03-1.19242E-03-3.48678E-14
 -1      1417 8.11044E-03-1.08739E-03-3.87190E-14
 -1      1418 8.28289E-03-1.03201E-03-4.02924E-14
 -1      1419 8.05928E-03-1.07199E-03-3.78852E-14
 -1      1420 8.45848E-03-9.82186E-04-4.18966E-14
 -1      1421 8.63603E-03-9.39334E-04-4.35311E-14
 -1      1422 8.40381E-03-9.60111E-04-4.10269E-14
 -1      1423 8.81453E-03-9.03906E-04-4.51926E-14
 -1      1424 8.99298E-03-8.76170E-04-4.68839E-14
 -1      1425 8.75390E-03-8.74106E-04-4.42859E-14
 -1      1426 9.17066E-03-8.55552E-04-4.85998E-14
 -1      1427 9.34689E-03-8.41676E-04-5.03394E-14
 -1      1428 9.10342E-03-8.18983E-04-4.76560E-14
 -1      1429 9.52127E-03-8.33599E-04-5.21040E-14
 -1      1430 9.69347E-03-8.30704E-04-5.38901E-14
 -1      1431 9.44802E-03-7.91995E-04-5.11289E-14
 -1      1432 9.86333E-03-8.32078E-04-5.57004E-14
 -1      1433 1.00308E-02-8.37089E-04-5.75320E-14
 -1      1434 9.78528E-03-7.87181E-04-5.46968E-14
 -1      1435 1.01958E-02-8.45014E-04-5.93864E-14
 -1      1436 1.03585E-02-8.55306E-04-6.12605E-14
 -1      1437 1.01143E-02-7.98240E-04-5.83514E-14
 -1      1438 1.05190E-02-8.67452E-04-6.31539E-14
 -1      1439 1.06775E-02-8.81017E-04-6.50664E-14
 -1      1440 1.04353E-02-8.19816E-04-6.20917E-14
 -1      1441 1.08340E-02-8.95670E-04-6.69935E-14
 -1      1442 1.09887E-02-9.11081E-04-6.89367E-14
 -1      1443 1.07490E-02-8.47838E-04-6.59029E-14
 -1      1444 1.11419E-02-9.27051E-04-7.08953E-14
 -1      1445 1.12936E-02-9.43343E-04-7.28679E-14
 -1      1446 1.10563E-02-8.79423E-04-6.97783E-14
 -1      1447 1.14441E-02-9.59846E-04-7.48573E-14
 -1      1448 1.15935E-02-9.76395E-04-7.68607E-14
 -1      1449 1.13584E-02-9.12635E-04-7.37162E-14
 -1      1450 1.17418E-02-9.92938E-04-7.88773E-14
 -1      1451 1.18893E-02-1.00936E-03-8.09086E-14
 -1      1452 1.16562E-02-9.46238E-04-7.77143E-14
 -1      1453 1.20360E-02-1.02566E-03-8.29507E-14
 -1      1454 1.21821E-02-1.04175E-03-8.50034E-14
 -1      1455 1.19507E-02-9.79486E-04-8.17646E-14
 -1      1456 1.23276E-02-1.05764E-03-8.70717E-14
 -1      1457 1.24726E-02-1.07330E-03-8.91537E-14
 -1      1458 1.22426E-02-1.01197E-03-8.58679E-14
 -1      1459 1.26172E-02-1.08873E-03-9.12442E-14
 -1      1460 1.27614E-02-1.10392E-03-9.33485E-14
 -1      1461 1.25326E-02-1.04351E-03-9.00189E-14
 -1      1462 1.29053E-02-1.11888E-03-9.54661E-14
 -1      1463 1.30490E-02-1.13362E-03-9.75955E-14
 -1      1464 1.28212E-02-1.07405E-03-9.42202E-14
 -1      1465 1.31925E-02-1.14815E-03-9.97341E-14
 -1      1466 1.33359E-02-1.16247E-03-1.01882E-13
 -1      1467 1.31087E-02-1.10363E-03-9.84676E-14
 -1      1468 1.34790E-02-1.17660E-03-1.04039E-13
 -1      1469 1.36221E-02-1.19056E-03-1.06202E-13
 -1      1470 1.33955E-02-1.13236E-03-1.02755E-13
 -1      1471 1.37651E-02-1.20437E-03-1.08372E-13
 -1      1472 1.39081E-02-1.21803E-03-1.10546E-13
 -1      1473 1.36819E-02-1.16033E-03-1.07072E-13
 -1      1474 1.40509E-02-1.23156E-03-1.12718E-13
 -1      1475 1.41938E-02-1.24497E-03-1.14885E-13
 -1      1476 1.39679E-02-1.18768E-03-1.11407E-13
 -1      1477 1.43366E-02-1.25829E-03-1.17055E-13
 -1      1478 1.44794E-02-1.27153E-03-1.19224E-13
 -1      1479 1.42537E-02-1.21454E-03-1.15742E-13
 -1      1480 1.46223E-02-1.28470E-03-1.21391E-13
 -1      1481 1.47651E-02-1.29781E-03-1.23552E-13
 -1      1482 1.45394E-02-1.24101E-03-1.20072E-13
 -1      1483 1.49079E-02-1.31089E-03-1.25716E-13
 -1      1484 1.50507E-02-1.32395E-03-1.27882E-13
 -1      1485 1.48251E-02-1.26725E-03-1.24397E-13
 -1      1486 1.52566E-02-1.33858E-03-1.30999E-13
 -1      1487 1.51738E-02-1.29493E-03-1.29671E-13
 -1      1488 6.41122E-04 3.65924E-04 3.11708E-18
 -1      1489 4.91216E-04 2.99481E-04 2.73219E-17
 -1      1490 4.43986E-04 2.61881E-04 1.32815E-18
 -1      1491 9.26884E-04 4.61731E-04-1.14776E-16
 -1      1492 7.85832E-04 4.18384E-04-4.40593E-17
 -1      1493 7.43843E-04 3.82776E-04-7.88215E-17
 -1      1494 1.20283E-03 5.26433E-04-3.28473E-16
 -1      1495 1.06552E-03 4.97184E-04-2.09387E-16
 -1      1496 1.03061E-03 4.63727E-04-2.51630E-16
 -1      1497 1.47550E-03 5.70283E-04-6.41414E-16
 -1      1498 1.33924E-03 5.50573E-04-4.72143E-16
 -1      1499 1.31014E-03 5.18446E-04-5.20837E-16
 -1      1500 1.74853E-03 5.99166E-04-1.05779E-15
 -1      1501 1.61178E-03 5.86344E-04-8.36367E-16
 -1      1502 1.58712E-03 5.54944E-04-8.90306E-16
 -1      1503 2.02404E-03 6.16996E-04-1.57921E-15
 -1      1504 1.88586E-03 6.09270E-04-1.30526E-15
 -1      1505 1.86451E-03 5.78179E-04-1.36326E-15
 -1      1506 2.30339E-03 6.26700E-04-2.20638E-15
 -1      1507 2.16316E-03 6.22699E-04-1.87968E-15
 -1      1508 2.14415E-03 5.91623E-04-1.94172E-15
 -1      1509 2.58757E-03 6.30696E-04-2.93889E-15
 -1      1510 2.44482E-03 6.29258E-04-2.55937E-15
 -1      1511 2.42729E-03 5.97972E-04-2.62488E-15
 -1      1512 2.87741E-03 6.31181E-04-3.77628E-15
 -1      1513 2.73173E-03 6.31224E-04-3.34438E-15
 -1      1514 2.71487E-03 5.99533E-04-3.41224E-15
 -1      1515 3.17367E-03 6.30356E-04-4.71994E-15
 -1      1516 3.02469E-03 6.30770E-04-4.23544E-15
 -1      1517 3.00767E-03 5.98490E-04-4.30571E-15
 -1      1518 3.47697E-03 6.30623E-04-5.76558E-15
 -1      1519 3.32440E-03 6.30174E-04-5.22945E-15
 -1      1520 3.30637E-03 5.97120E-04-5.30214E-15
 -1      1521 3.78776E-03 6.34749E-04-6.91801E-15
 -1      1522 3.63141E-03 6.32006E-04-6.32853E-15
 -1      1523 3.61148E-03 5.97993E-04-6.40341E-15
 -1      1524 4.10607E-03 6.45968E-04-8.17823E-15
 -1      1525 3.94598E-03 6.39264E-04-7.53401E-15
 -1      1526 3.92327E-03 6.04120E-04-7.61125E-15
 -1      1527 4.43122E-03 6.67905E-04-9.54639E-15
 -1      1528 4.26785E-03 6.55404E-04-8.84872E-15
 -1      1529 4.24155E-03 6.19000E-04-8.92636E-15
 -1      1530 4.76145E-03 7.04202E-04-1.10254E-14
 -1      1531 4.59584E-03 6.84133E-04-1.02725E-14
 -1      1532 4.56545E-03 6.46440E-04-1.03500E-14
 -1      1533 5.09365E-03 7.57629E-04-1.26094E-14
 -1      1534 4.92755E-03 7.28798E-04-1.18042E-14
 -1      1535 4.89312E-03 6.89970E-04-1.18814E-14
 -1      1536 5.42322E-03 8.28553E-04-1.43070E-14
 -1      1537 5.25911E-03 7.91180E-04-1.34435E-14
 -1      1538 5.22153E-03 7.51656E-04-1.35225E-14
 -1      1539 5.74464E-03 9.12933E-04-1.61271E-14
 -1      1540 5.58534E-03 8.69676E-04-1.52015E-14
 -1      1541 5.54661E-03 8.30255E-04-1.52796E-14
 -1      1542 6.05278E-03 1.00067E-03-1.80739E-14
 -1      1543 5.90067E-03 9.57326E-04-1.70841E-14
 -1      1544 5.86386E-03 9.19123E-04-1.71601E-14
 -1      1545 6.34503E-03 1.07586E-03-2.01489E-14
 -1      1546 6.20094E-03 1.04093E-03-1.90950E-14
 -1      1547 6.16969E-03 1.00511E-03-1.91691E-14
 -1      1548 6.62324E-03 1.12044E-03-2.23617E-14
 -1      1549 6.48558E-03 1.10286E-03-2.12383E-14
 -1      1550 6.46323E-03 1.07016E-03-2.13113E-14
 -1      1551 6.89419E-03 1.12062E-03-2.47084E-14
 -1      1552 6.75902E-03 1.12637E-03-2.35177E-14
 -1      1553 6.74763E-03 1.09667E-03-2.35884E-14
 -1      1554 7.16749E-03 1.07305E-03-2.71964E-14
 -1      1555 7.02988E-03 1.10234E-03-2.59359E-14
 -1      1556 7.02963E-03 1.07460E-03-2.60048E-14
 -1      1557 7.45187E-03 9.86433E-04-2.98160E-14
 -1      1558 7.30783E-03 1.03360E-03-2.84901E-14
 -1      1559 7.31700E-03 1.00635E-03-2.85557E-14
 -1      1560 7.75199E-03 8.77391E-04-3.25555E-14
 -1      1561 7.59984E-03 9.33552E-04-3.11697E-14
 -1      1562 7.61534E-03 9.05495E-04-3.12356E-14
 -1      1563 8.06752E-03 7.63680E-04-3.54129E-14
 -1      1564 7.90800E-03 8.20193E-04-3.39714E-14
 -1      1565 7.92628E-03 7.90638E-04-3.40365E-14
 -1      1566 8.39447E-03 6.58764E-04-3.83778E-14
 -1      1567 8.22990E-03 7.09598E-04-3.68821E-14
 -1      1568 8.24778E-03 6.78466E-04-3.69506E-14
 -1      1569 8.72742E-03 5.69846E-04-4.14559E-14
 -1      1570 8.56056E-03 6.12144E-04-3.99022E-14
 -1      1571 8.57581E-03 5.79749E-04-3.99742E-14
 -1      1572 9.06126E-03 4.98749E-04-4.46417E-14
 -1      1573 8.89452E-03 5.32149E-04-4.30357E-14
 -1      1574 8.90599E-03 4.98953E-04-4.31079E-14
 -1      1575 9.39220E-03 4.43885E-04-4.79347E-14
 -1      1576 9.22729E-03 4.69481E-04-4.62747E-14
 -1      1577 9.23473E-03 4.35930E-04-4.63499E-14
 -1      1578 9.71795E-03 4.02116E-04-5.13271E-14
 -1      1579 9.55583E-03 4.21585E-04-4.96185E-14
 -1      1580 9.55958E-03 3.88029E-04-4.96934E-14
 -1      1581 1.00375E-02 3.70010E-04-5.48141E-14
 -1      1582 9.87854E-03 3.85058E-04-5.30596E-14
 -1      1583 9.87925E-03 3.51733E-04-5.31337E-14
 -1      1584 1.03508E-02 3.44492E-04-5.83910E-14
 -1      1585 1.01949E-02 3.56592E-04-5.65912E-14
 -1      1586 1.01933E-02 3.23632E-04-5.66653E-14
 -1      1587 1.06582E-02 3.23097E-04-6.20624E-14
 -1      1588 1.05052E-02 3.33404E-04-6.02148E-14
 -1      1589 1.05019E-02 3.00865E-04-6.02884E-14
 -1      1590 1.09606E-02 3.03988E-04-6.58182E-14
 -1      1591 1.08100E-02 3.13345E-04-6.39300E-14
 -1      1592 1.08056E-02 2.81231E-04-6.40003E-14
 -1      1593 1.12587E-02 2.85878E-04-6.96536E-14
 -1      1594 1.11101E-02 2.94868E-04-6.77270E-14
 -1      1595 1.11050E-02 2.63148E-04-6.77937E-14
 -1      1596 1.15534E-02 2.67917E-04-7.35551E-14
 -1      1597 1.14064E-02 2.76917E-04-7.15970E-14
 -1      1598 1.14010E-02 2.45545E-04-7.16592E-14
 -1      1599 1.18454E-02 2.49581E-04-7.75112E-14
 -1      1600 1.16997E-02 2.58818E-04-7.55259E-14
 -1      1601 1.16941E-02 2.27741E-04-7.55840E-14
 -1      1602 1.21354E-02 2.30581E-04-8.15323E-14
 -1      1603 1.19906E-02 2.40174E-04-7.95144E-14
 -1      1604 1.19851E-02 2.09340E-04-7.95719E-14
 -1      1605 1.24239E-02 2.10789E-04-8.56085E-14
 -1      1606 1.22798E-02 2.20787E-04-8.35638E-14
 -1      1607 1.22744E-02 1.90147E-04-8.36185E-14
 -1      1608 1.27113E-02 1.90185E-04-8.97376E-14
 -1      1609 1.25677E-02 2.00588E-04-8.76666E-14
 -1      1610 1.25625E-02 1.70098E-04-8.77186E-14
 -1      1611 1.29980E-02 1.68813E-04-9.39108E-14
 -1      1612 1.28547E-02 1.79591E-04-9.18173E-14
 -1      1613 1.28496E-02 1.49216E-04-9.18663E-14
 -1      1614 1.32842E-02 1.46754E-04-9.81212E-14
 -1      1615 1.31411E-02 1.57863E-04-9.60128E-14
 -1      1616 1.31362E-02 1.27574E-04-9.60562E-14
 -1      1617 1.35701E-02 1.24110E-04-1.02372E-13
 -1      1618 1.34271E-02 1.35499E-04-1.00243E-13
 -1      1619 1.34223E-02 1.05269E-04-1.00283E-13
 -1      1620 1.38558E-02 1.00993E-04-1.06646E-13
 -1      1621 1.37129E-02 1.12604E-04-1.04505E-13
 -1      1622 1.37082E-02 8.24146E-05-1.04541E-13
 -1      1623 1.41414E-02 7.75151E-05-1.10965E-13
 -1      1624 1.39986E-02 8.92917E-05-1.08801E-13
 -1      1625 1.39940E-02 5.91275E-05-1.08835E-13
 -1      1626 1.44270E-02 5.37952E-05-1.15301E-13
 -1      1627 1.42842E-02 6.56781E-05-1.13132E-13
 -1      1628 1.42797E-02 3.55264E-05-1.13159E-13
 -1      1629 1.47127E-02 2.99586E-05-1.19647E-13
 -1      1630 1.45699E-02 4.18839E-05-1.17473E-13
 -1      1631 1.45654E-02 1.17340E-05-1.17497E-13
 -1      1632 1.48646E-02 6.64656E-06-1.21992E-13
 -1      1633 1.49058E-02-9.97492E-05-1.22929E-13
 -1      1634 1.48941E-02-5.75845E-05-1.22627E-13
 -1      1635 1.49292E-02-1.84102E-04-1.23507E-13
 -1      1636 1.49175E-02-1.41923E-04-1.23223E-13
 -1      1637 1.47879E-02-1.10491E-04-1.21187E-13
 -1      1638 1.49528E-02-2.68465E-04-1.24061E-13
 -1      1639 1.49410E-02-2.26284E-04-1.23786E-13
 -1      1640 1.48114E-02-1.94806E-04-1.21763E-13
 -1      1641 1.49766E-02-3.52812E-04-1.24622E-13
 -1      1642 1.49647E-02-3.10642E-04-1.24340E-13
 -1      1643 1.48350E-02-2.79106E-04-1.22328E-13
 -1      1644 1.50002E-02-4.35694E-04-1.25191E-13
 -1      1645 1.49884E-02-3.94258E-04-1.24904E-13
 -1      1646 1.48587E-02-3.62656E-04-1.22896E-13
 -1      1647 1.50244E-02-5.19962E-04-1.25765E-13
 -1      1648 1.50123E-02-4.77833E-04-1.25480E-13
 -1      1649 1.48826E-02-4.46161E-04-1.23468E-13
 -1      1650 1.50488E-02-6.04194E-04-1.26339E-13
 -1      1651 1.50366E-02-5.62082E-04-1.26052E-13
 -1      1652 1.49068E-02-5.30334E-04-1.24044E-13
 -1      1653 1.50733E-02-6.88409E-04-1.26916E-13
 -1      1654 1.50611E-02-6.46303E-04-1.26627E-13
 -1      1655 1.49312E-02-6.14476E-04-1.24620E-13
 -1      1656 1.50980E-02-7.72633E-04-1.27479E-13
 -1      1657 1.50857E-02-7.30519E-04-1.27200E-13
 -1      1658 1.49558E-02-6.98606E-04-1.25192E-13
 -1      1659 1.51228E-02-8.56886E-04-1.28035E-13
 -1      1660 1.51104E-02-8.14755E-04-1.27757E-13
 -1      1661 1.49805E-02-7.82749E-04-1.25753E-13
 -1      1662 1.51474E-02-9.39753E-04-1.28572E-13
 -1      1663 1.51351E-02-8.98314E-04-1.28307E-13
 -1      1664 1.50052E-02-8.66214E-04-1.26303E-13
 -1      1665 1.51726E-02-1.02409E-03-1.29118E-13
 -1      1666 1.51600E-02-9.81917E-04-1.28842E-13
 -1      1667 1.50300E-02-9.49724E-04-1.26847E-13
 -1      1668 1.51981E-02-1.10845E-03-1.29659E-13
 -1      1669 1.51853E-02-1.06627E-03-1.29391E-13
 -1      1670 1.50553E-02-1.03399E-03-1.27387E-13
 -1      1671 1.52237E-02-1.19282E-03-1.30213E-13
 -1      1672 1.52109E-02-1.15064E-03-1.29935E-13
 -1      1673 1.50807E-02-1.11830E-03-1.27932E-13
 -1      1674 1.52052E-02-1.26497E-03-1.30083E-13
 -1      1675 1.51923E-02-1.22280E-03-1.29802E-13
 -1      1676 1.50621E-02-1.19043E-03-1.27796E-13
 -1      1677 1.49993E-02-1.25036E-03-1.26973E-13
 -1      1678 9.13974E-03-9.49811E-05-3.35675E-14
 -1      1679 9.17781E-03-1.41878E-04-3.37142E-14
 -1      1680 8.95948E-03 1.78314E-05-3.30599E-14
 -1      1681 9.05850E-03-3.82011E-05-3.33500E-14
 -1      1682 8.66334E-03 1.66726E-04-3.22013E-14
 -1      1683 8.81272E-03 9.36591E-05-3.26303E-14
 -1      1684 8.26676E-03 3.51151E-04-3.10514E-14
 -1      1685 8.45764E-03 2.59913E-04-3.16282E-14
 -1      1686 7.88009E-03 5.35855E-04-2.97527E-14
 -1      1687 8.05792E-03 4.57307E-04-3.03242E-14
 -1      1688 7.44883E-03 6.92243E-04-2.83572E-14
 -1      1689 7.64378E-03 6.22682E-04-2.90417E-14
 -1      1690 7.06538E-03 7.72767E-04-2.69527E-14
 -1      1691 7.24008E-03 7.45545E-04-2.75667E-14
 -1      1692 6.67443E-03 7.73959E-04-2.55862E-14
 -1      1693 6.85485E-03 7.86338E-04-2.62128E-14
 -1      1694 6.27670E-03 6.86610E-04-2.43600E-14
 -1      1695 6.45713E-03 7.34588E-04-2.49087E-14
 -1      1696 5.89215E-03 5.43943E-04-2.32808E-14
 -1      1697 6.07070E-03 6.15191E-04-2.37478E-14
 -1      1698 5.51260E-03 3.82615E-04-2.24334E-14
 -1      1699 5.68190E-03 4.58866E-04-2.28079E-14
 -1      1700 5.17847E-03 2.26244E-04-2.17766E-14
 -1      1701 5.32680E-03 2.96397E-04-2.20531E-14
 -1      1702 4.90035E-03 6.91364E-05-2.12150E-14
 -1      1703 5.02471E-03 1.30698E-04-2.14008E-14
 -1      1704 4.72529E-03-3.25728E-05-2.10897E-14
 -1      1705 4.78723E-03 1.47261E-05-2.11482E-14
 -1      1706 4.69259E-03-1.33183E-04-2.10811E-14
 -1      1707 4.68752E-03-8.95806E-05-2.10143E-14
 -1      1708 4.81027E-03-2.45074E-04-2.15066E-14
 -1      1709 4.74118E-03-1.94878E-04-2.13306E-14
 -1      1710 5.07081E-03-3.69027E-04-2.20085E-14
 -1      1711 4.93464E-03-3.00136E-04-2.16964E-14
 -1      1712 5.41499E-03-5.57561E-04-2.29179E-14
 -1      1713 5.24592E-03-4.73981E-04-2.25072E-14
 -1      1714 5.82468E-03-7.44870E-04-2.39327E-14
 -1      1715 5.63778E-03-6.53872E-04-2.34265E-14
 -1      1716 6.23584E-03-9.29449E-04-2.51843E-14
 -1      1717 6.04529E-03-8.49855E-04-2.46008E-14
 -1      1718 6.64357E-03-1.05329E-03-2.65660E-14
 -1      1719 6.45175E-03-1.00539E-03-2.59251E-14
 -1      1720 7.05383E-03-1.08855E-03-2.79961E-14
 -1      1721 6.86523E-03-1.08432E-03-2.73328E-14
 -1      1722 7.44980E-03-1.03112E-03-2.94163E-14
 -1      1723 7.26837E-03-1.07064E-03-2.87803E-14
 -1      1724 7.84086E-03-9.03292E-04-3.06355E-14
 -1      1725 7.66717E-03-9.67429E-04-3.00897E-14
 -1      1726 8.22067E-03-7.29842E-04-3.18194E-14
 -1      1727 8.04002E-03-8.12994E-04-3.13111E-14
 -1      1728 8.59443E-03-5.57470E-04-3.27334E-14
 -1      1729 8.43054E-03-6.36716E-04-3.23335E-14
 -1      1730 8.88971E-03-4.15401E-04-3.33527E-14
 -1      1731 8.76627E-03-4.78398E-04-3.30903E-14
 -1      1732 9.09309E-03-2.96494E-04-3.37224E-14
 -1      1733 9.01098E-03-3.48463E-04-3.35867E-14
 -1      1734 9.18440E-03-1.94588E-04-3.38455E-14
 -1      1735 9.15782E-03-2.38553E-04-3.38458E-14
 -1      1736 8.10643E-03 3.63691E-04-3.10246E-14
 -1      1737 8.51072E-03 1.59396E-04-3.23454E-14
 -1      1738 1.48601E-02-2.35119E-05-1.22013E-13
 -1      1739 1.47422E-02-3.42618E-05-1.20280E-13
 -1      1740 9.10011E-03-9.95133E-05-3.40310E-14
 -1      1741 8.86482E-03 2.46375E-06-3.33674E-14
 -1      1742 9.19092E-03-1.71947E-04-3.43888E-14
 -1      1743 7.69034E-03 5.70832E-04-2.95724E-14
 -1      1744 7.31086E-03 7.32567E-04-2.80586E-14
 -1      1745 6.94779E-03 8.06103E-04-2.65271E-14
 -1      1746 6.59815E-03 7.74828E-04-2.51165E-14
 -1      1747 6.22659E-03 6.50437E-04-2.38389E-14
 -1      1748 5.84971E-03 4.75517E-04-2.27707E-14
 -1      1749 5.47143E-03 2.94147E-04-2.19343E-14
 -1      1750 5.12873E-03 1.21334E-04-2.11924E-14
 -1      1751 4.85232E-03 1.96208E-06-2.07642E-14
 -1      1752 4.69682E-03-7.74715E-05-2.06255E-14
 -1      1753 4.70829E-03-1.39345E-04-2.07944E-14
 -1      1754 4.88561E-03-2.27741E-04-2.12246E-14
 -1      1755 5.19260E-03-3.60148E-04-2.18921E-14
 -1      1756 5.58757E-03-5.57060E-04-2.28817E-14
 -1      1757 6.00254E-03-7.73167E-04-2.40381E-14
 -1      1758 6.39529E-03-9.72753E-04-2.54342E-14
 -1      1759 6.77616E-03-1.09240E-03-2.69374E-14
 -1      1760 7.14711E-03-1.10512E-03-2.84910E-14
 -1      1761 7.50617E-03-1.00896E-03-2.99624E-14
 -1      1762 7.88305E-03-8.40137E-04-3.13263E-14
 -1      1763 8.26626E-03-6.42366E-04-3.25368E-14
 -1      1764 8.63848E-03-4.67117E-04-3.34258E-14
 -1      1765 8.93494E-03-3.34701E-04-3.40293E-14
 -1      1766 9.12877E-03-2.39636E-04-3.43953E-14
 -1      1767 2.84584E-04-1.73983E-04-4.87891E-17
 -1      1768 3.32895E-04-1.12929E-04-1.46191E-16
 -1      1769 3.37010E-04-1.29225E-04-1.38317E-16
 -1      1770 3.42771E-04-1.48310E-04-1.28248E-16
 -1      1771 3.52056E-04-1.70437E-04-1.13719E-16
 -1      1772 4.59237E-04-1.82784E-04-2.00740E-16
 -1      1773 3.24851E-04-6.20999E-05-1.60069E-16
 -1      1774 3.26148E-04-7.31255E-05-1.58565E-16
 -1      1775 3.23047E-04-4.13837E-05-1.60841E-16
 -1      1776 3.23853E-04-5.14462E-05-1.60774E-16
 -1      1777 4.36630E-04-7.51069E-05-2.36844E-16
 -1      1778 3.22014E-04-2.23034E-05-1.59202E-16
 -1      1779 3.22456E-04-3.16706E-05-1.60326E-16
 -1      1780 4.34168E-04-4.82952E-05-2.36844E-16
 -1      1781 3.21602E-04-4.06164E-06-1.55610E-16
 -1      1782 3.21738E-04-1.31053E-05-1.57724E-16
 -1      1783 4.32815E-04-2.33619E-05-2.33781E-16
 -1      1784 3.21764E-04 1.40360E-05-1.50216E-16
 -1      1785 3.21610E-04 4.97955E-06-1.53225E-16
 -1      1786 4.32400E-04 7.04092E-07-2.28021E-16
 -1      1787 3.22517E-04 3.26670E-05-1.42911E-16
 -1      1788 3.22056E-04 2.32600E-05-1.46909E-16
 -1      1789 4.32878E-04 2.48070E-05-2.19727E-16
 -1      1790 3.23929E-04 5.22166E-05-1.33194E-16
 -1      1791 3.23118E-04 4.22661E-05-1.38507E-16
 -1      1792 4.34284E-04 4.96346E-05-2.08519E-16
 -1      1793 3.26296E-04 7.42615E-05-1.20048E-16
 -1      1794 3.24948E-04 6.29427E-05-1.27367E-16
 -1      1795 4.36798E-04 7.63837E-05-1.93869E-16
 -1      1796 3.30208E-04 9.98274E-05-1.02322E-16
 -1      1797 3.27969E-04 8.65706E-05-1.12174E-16
 -1      1798 4.40917E-04 1.06602E-04-1.74313E-16
 -1      1799 3.37247E-04 1.31319E-04-7.75340E-17
 -1      1800 3.33104E-04 1.14768E-04-9.13169E-17
 -1      1801 4.47701E-04 1.42033E-04-1.47736E-16
 -1      1802 3.52578E-04 1.74025E-04-4.21484E-17
 -1      1803 3.43348E-04 1.51060E-04-6.16233E-17
 -1      1804 4.60189E-04 1.86164E-04-1.11077E-16
 -1      1805 4.07312E-04 2.29862E-04-1.50704E-17
 -1      1806 3.78130E-04 1.98948E-04-3.18484E-17
 -1      1807 4.96275E-04 2.38629E-04-7.67209E-17
 -1      1808 5.58181E-04 2.96793E-04-4.67698E-17
 -1      1809 3.39839E-04-1.87777E-04-8.39850E-17
 -1      1810 8.53651E-04 3.97183E-04-1.78378E-16
 -1      1811 7.06945E-04 3.51627E-04-1.01278E-16
 -1      1812 6.73699E-04 3.21252E-04-1.20496E-16
 -1      1813 4.59103E-04-2.31966E-04-1.48373E-16
 -1      1814 8.07766E-04-3.64506E-04-3.95761E-16
 -1      1815 9.53509E-04-4.03328E-04-5.52374E-16
 -1      1816 1.09701E-03-4.35476E-04-7.37298E-16
 -1      1817 1.23955E-03-4.61650E-04-9.50805E-16
 -1      1818 1.00591E-03-3.84605E-04-6.73588E-16
 -1      1819 1.38106E-03-4.83202E-04-1.19261E-15
 -1      1820 1.52215E-03-5.00435E-04-1.46310E-15
 -1      1821 1.29324E-03-4.37061E-04-1.10467E-15
 -1      1822 1.66301E-03-5.14241E-04-1.76190E-15
 -1      1823 1.80393E-03-5.24874E-04-2.08903E-15
 -1      1824 1.57817E-03-4.71631E-04-1.64785E-15
 -1      1825 1.94512E-03-5.32924E-04-2.44446E-15
 -1      1826 2.08675E-03-5.38623E-04-2.82814E-15
 -1      1827 1.86246E-03-4.92859E-04-2.30321E-15
 -1      1828 2.22898E-03-5.42391E-04-3.24019E-15
 -1      1829 2.37194E-03-5.44448E-04-3.67955E-15
 -1      1830 2.14751E-03-5.04093E-04-3.07051E-15
 -1      1831 2.51575E-03-5.45123E-04-4.14690E-15
 -1      1832 2.66055E-03-5.44637E-04-4.64247E-15
 -1      1833 2.43442E-03-5.07938E-04-3.94862E-15
 -1      1834 2.80641E-03-5.43283E-04-5.16498E-15
 -1      1835 2.95351E-03-5.41299E-04-5.71430E-15
 -1      1836 2.72409E-03-5.06604E-04-4.93672E-15
 -1      1837 3.10188E-03-5.38989E-04-6.29023E-15
 -1      1838 3.25170E-03-5.36629E-04-6.89208E-15
 -1      1839 3.01733E-03-5.02177E-04-6.03222E-15
 -1      1840 3.40301E-03-5.34586E-04-7.52069E-15
 -1      1841 3.55599E-03-5.33195E-04-8.17585E-15
 -1      1842 3.31489E-03-4.96888E-04-7.23269E-15
 -1      1843 3.71065E-03-5.32937E-04-8.85728E-15
 -1      1844 3.86718E-03-5.34239E-04-9.56564E-15
 -1      1845 3.61755E-03-4.93391E-04-8.53911E-15
 -1      1846 4.02560E-03-5.37741E-04-1.02997E-14
 -1      1847 4.18599E-03-5.43987E-04-1.10609E-14
 -1      1848 3.92612E-03-4.95077E-04-9.95036E-15
 -1      1849 4.34846E-03-5.53798E-04-1.18494E-14
 -1      1850 4.51288E-03-5.67852E-04-1.26656E-14
 -1      1851 4.24146E-03-5.06364E-04-1.14677E-14
 -1      1852 4.67949E-03-5.87092E-04-1.35089E-14
 -1      1853 4.84781E-03-6.12294E-04-1.43795E-14
 -1      1854 4.56447E-03-5.32884E-04-1.30938E-14
 -1      1855 5.01829E-03-6.44333E-04-1.52799E-14
 -1      1856 5.18988E-03-6.83905E-04-1.62080E-14
 -1      1857 4.89595E-03-5.81305E-04-1.48296E-14
 -1      1858 5.36329E-03-7.31408E-04-1.71648E-14
 -1      1859 5.53677E-03-7.87029E-04-1.81511E-14
 -1      1860 5.23619E-03-6.58335E-04-1.66774E-14
 -1      1861 5.71112E-03-8.50096E-04-1.91691E-14
 -1      1862 5.88410E-03-9.19499E-04-2.02182E-14
 -1      1863 5.58396E-03-7.68150E-04-1.86414E-14
 -1      1864 6.05621E-03-9.92939E-04-2.12985E-14
 -1      1865 6.22556E-03-1.06729E-03-2.24121E-14
 -1      1866 5.93518E-03-9.07546E-04-2.07290E-14
 -1      1867 6.39198E-03-1.13849E-03-2.35617E-14
 -1      1868 6.55521E-03-1.20183E-03-2.47465E-14
 -1      1869 6.28257E-03-1.05971E-03-2.29474E-14
 -1      1870 6.71429E-03-1.25282E-03-2.59686E-14
 -1      1871 6.87192E-03-1.28705E-03-2.72282E-14
 -1      1872 6.61847E-03-1.19162E-03-2.53086E-14
 -1      1873 7.02663E-03-1.30199E-03-2.85243E-14
 -1      1874 7.18305E-03-1.29668E-03-2.98571E-14
 -1      1875 6.94207E-03-1.26345E-03-2.78180E-14
 -1      1876 7.33961E-03-1.27217E-03-3.12279E-14
 -1      1877 7.50013E-03-1.23159E-03-3.26343E-14
 -1      1878 7.26285E-03-1.25143E-03-3.04790E-14
 -1      1879 7.66340E-03-1.17884E-03-3.40739E-14
 -1      1880 7.83040E-03-1.11896E-03-3.55489E-14
 -1      1881 7.59292E-03-1.16532E-03-3.32856E-14
 -1      1882 8.00063E-03-1.05638E-03-3.70559E-14
 -1      1883 8.17270E-03-9.95108E-04-3.85916E-14
 -1      1884 7.93625E-03-1.04092E-03-3.62282E-14
 -1      1885 8.34686E-03-9.38289E-04-4.01604E-14
 -1      1886 8.52089E-03-8.87817E-04-4.17582E-14
 -1      1887 8.28736E-03-9.16535E-04-3.92978E-14
 -1      1888 8.69551E-03-8.45056E-04-4.33838E-14
 -1      1889 8.86872E-03-8.10284E-04-4.50384E-14
 -1      1890 8.63809E-03-8.16308E-04-4.24868E-14
 -1      1891 9.04131E-03-7.83499E-04-4.67191E-14
 -1      1892 9.21193E-03-7.64167E-04-4.84272E-14
 -1      1893 8.98289E-03-7.48691E-04-4.57882E-14
 -1      1894 9.38117E-03-7.51567E-04-5.01596E-14
 -1      1895 9.54832E-03-7.44941E-04-5.19159E-14
 -1      1896 9.31952E-03-7.12091E-04-4.91955E-14
 -1      1897 9.71373E-03-7.43357E-04-5.36960E-14
 -1      1898 9.87715E-03-7.46107E-04-5.54976E-14
 -1      1899 9.64781E-03-7.00564E-04-5.27007E-14
 -1      1900 1.00387E-02-7.52332E-04-5.73229E-14
 -1      1901 1.01985E-02-7.61460E-04-5.91681E-14
 -1      1902 9.96850E-03-7.07374E-04-5.62984E-14
 -1      1903 1.03566E-02-7.72814E-04-6.10323E-14
 -1      1904 1.05131E-02-7.85965E-04-6.29154E-14
 -1      1905 1.02825E-02-7.26599E-04-5.99800E-14
 -1      1906 1.06680E-02-8.00430E-04-6.48157E-14
 -1      1907 1.08216E-02-8.15898E-04-6.67334E-14
 -1      1908 1.05909E-02-7.53622E-04-6.37364E-14
 -1      1909 1.09738E-02-8.32051E-04-6.86685E-14
 -1      1910 1.11249E-02-8.48668E-04-7.06165E-14
 -1      1911 1.08944E-02-7.85105E-04-6.75612E-14
 -1      1912 1.12750E-02-8.65556E-04-7.25825E-14
 -1      1913 1.14241E-02-8.82563E-04-7.45624E-14
 -1      1914 1.11940E-02-8.18761E-04-7.14530E-14
 -1      1915 1.15723E-02-8.99582E-04-7.65546E-14
 -1      1916 1.17198E-02-9.16512E-04-7.85630E-14
 -1      1917 1.14903E-02-8.53102E-04-7.54022E-14
 -1      1918 1.18666E-02-9.33302E-04-8.05838E-14
 -1      1919 1.20129E-02-9.49888E-04-8.26182E-14
 -1      1920 1.17839E-02-8.87215E-04-7.94079E-14
 -1      1921 1.21586E-02-9.66255E-04-8.46663E-14
 -1      1922 1.23038E-02-9.82364E-04-8.67276E-14
 -1      1923 1.20755E-02-9.20580E-04-8.34700E-14
 -1      1924 1.24487E-02-9.98223E-04-8.88001E-14
 -1      1925 1.25932E-02-1.01381E-03-9.08823E-14
 -1      1926 1.23654E-02-9.52946E-04-8.75828E-14
 -1      1927 1.27374E-02-1.02915E-03-9.29773E-14
 -1      1928 1.28814E-02-1.04422E-03-9.50872E-14
 -1      1929 1.26541E-02-9.84232E-04-9.17428E-14
 -1      1930 1.30252E-02-1.05906E-03-9.72072E-14
 -1      1931 1.31687E-02-1.07366E-03-9.93380E-14
 -1      1932 1.29419E-02-1.01446E-03-9.59503E-14
 -1      1933 1.33122E-02-1.08806E-03-1.01479E-13
 -1      1934 1.34555E-02-1.10224E-03-1.03624E-13
 -1      1935 1.32290E-02-1.04372E-03-1.00204E-13
 -1      1936 1.35987E-02-1.11625E-03-1.05778E-13
 -1      1937 1.37418E-02-1.13008E-03-1.07939E-13
 -1      1938 1.35156E-02-1.07214E-03-1.04489E-13
 -1      1939 1.38848E-02-1.14377E-03-1.10102E-13
 -1      1940 1.40278E-02-1.15732E-03-1.12265E-13
 -1      1941 1.38018E-02-1.09983E-03-1.08800E-13
 -1      1942 1.41708E-02-1.17075E-03-1.14431E-13
 -1      1943 1.43137E-02-1.18407E-03-1.16595E-13
 -1      1944 1.40878E-02-1.12694E-03-1.13122E-13
 -1      1945 1.44566E-02-1.19732E-03-1.18758E-13
 -1      1946 1.45994E-02-1.21048E-03-1.20919E-13
 -1      1947 1.43737E-02-1.15360E-03-1.17445E-13
 -1      1948 1.47280E-02-1.22391E-03-1.22866E-13
 -1      1949 1.48708E-02-1.23699E-03-1.25024E-13
 -1      1950 1.49022E-02-1.20704E-03-1.25438E-13
 -1      1951 1.46452E-02-1.18025E-03-1.21548E-13
 -1      1952 1.13987E-03 4.65327E-04-4.03215E-16
 -1      1953 9.97417E-04 4.34563E-04-2.78654E-16
 -1      1954 9.65599E-04 4.05303E-04-3.02452E-16
 -1      1955 1.42108E-03 5.11315E-04-7.24586E-16
 -1      1956 1.28075E-03 4.90698E-04-5.51398E-16
 -1      1957 1.25162E-03 4.62738E-04-5.78490E-16
 -1      1958 1.70073E-03 5.41383E-04-1.14797E-15
 -1      1959 1.56089E-03 5.28089E-04-9.23429E-16
 -1      1960 1.53437E-03 5.01055E-04-9.53095E-16
 -1      1961 1.98111E-03 5.59725E-04-1.67498E-15
 -1      1962 1.84071E-03 5.51837E-04-1.39839E-15
 -1      1963 1.81632E-03 5.25373E-04-1.42986E-15
 -1      1964 2.26373E-03 5.69437E-04-2.30673E-15
 -1      1965 2.12206E-03 5.65511E-04-1.97776E-15
 -1      1966 2.09920E-03 5.39339E-04-2.01061E-15
 -1      1967 2.54967E-03 5.73027E-04-3.04299E-15
 -1      1968 2.40622E-03 5.71865E-04-2.66182E-15
 -1      1969 2.38426E-03 5.45763E-04-2.69539E-15
 -1      1970 2.83979E-03 5.72726E-04-3.88353E-15
 -1      1971 2.69415E-03 5.73234E-04-3.45001E-15
 -1      1972 2.67246E-03 5.47005E-04-3.48427E-15
 -1      1973 3.13479E-03 5.70739E-04-4.82872E-15
 -1      1974 2.98663E-03 5.71807E-04-4.34321E-15
 -1      1975 2.96455E-03 5.45259E-04-4.37764E-15
 -1      1976 3.43529E-03 5.69451E-04-5.87689E-15
 -1      1977 3.28431E-03 5.69856E-04-5.33983E-15
 -1      1978 3.26118E-03 5.42782E-04-5.37421E-15
 -1      1979 3.74171E-03 5.71621E-04-7.03176E-15
 -1      1980 3.58773E-03 5.69930E-04-6.44092E-15
 -1      1981 3.56291E-03 5.42099E-04-6.47517E-15
 -1      1982 4.05422E-03 5.80499E-04-8.29180E-15
 -1      1983 3.89720E-03 5.75027E-04-7.64803E-15
 -1      1984 3.87012E-03 5.46178E-04-7.68108E-15
 -1      1985 4.37255E-03 5.99809E-04-9.65956E-15
 -1      1986 4.21270E-03 5.88651E-04-8.96271E-15
 -1      1987 4.18299E-03 5.58512E-04-8.99500E-15
 -1      1988 4.69577E-03 6.33423E-04-1.11356E-14
 -1      1989 4.53367E-03 6.14662E-04-1.03842E-14
 -1      1990 4.50127E-03 5.82998E-04-1.04157E-14
 -1      1991 5.02207E-03 6.84557E-04-1.27201E-14
 -1      1992 4.85876E-03 6.56739E-04-1.19141E-14
 -1      1993 4.82416E-03 6.23456E-04-1.19436E-14
 -1      1994 5.34861E-03 7.54274E-04-1.44154E-14
 -1      1995 5.18565E-03 7.17246E-04-1.35538E-14
 -1      1996 5.15000E-03 6.82558E-04-1.35812E-14
 -1      1997 5.67165E-03 8.39383E-04-1.62304E-14
 -1      1998 5.51097E-03 7.95392E-04-1.53072E-14
 -1      1999 5.47609E-03 7.60019E-04-1.53326E-14
 -1      2000 5.98720E-03 9.30413E-04-1.81714E-14
 -1      2001 5.83070E-03 8.85026E-04-1.71845E-14
 -1      2002 5.79876E-03 8.50280E-04-1.72051E-14
 -1      2003 6.29252E-03 1.01131E-03-2.02409E-14
 -1      2004 6.14124E-03 9.73239E-04-1.91901E-14
 -1      2005 6.11420E-03 9.40772E-04-1.92065E-14
 -1      2006 6.58783E-03 1.06267E-03-2.24472E-14
 -1      2007 6.44115E-03 1.04167E-03-2.13266E-14
 -1      2008 6.42014E-03 1.01280E-03-2.13398E-14
 -1      2009 6.87730E-03 1.06862E-03-2.47886E-14
 -1      2010 6.73268E-03 1.07172E-03-2.36005E-14
 -1      2011 6.71790E-03 1.04667E-03-2.36080E-14
 -1      2012 7.16781E-03 1.02412E-03-2.72682E-14
 -1      2013 7.02173E-03 1.05228E-03-2.60119E-14
 -1      2014 7.01277E-03 1.02993E-03-2.60156E-14
 -1      2015 7.46572E-03 9.37542E-04-2.98829E-14
 -1      2016 7.31536E-03 9.85086E-04-2.85587E-14
 -1      2017 7.31162E-03 9.63685E-04-2.85585E-14
 -1      2018 7.77425E-03 8.26377E-04-3.26193E-14
 -1      2019 7.61854E-03 8.83866E-04-3.12358E-14
 -1      2020 7.61926E-03 8.61909E-04-3.12324E-14
 -1      2021 8.09273E-03 7.09711E-04-3.54787E-14
 -1      2022 7.93243E-03 7.67822E-04-3.40355E-14
 -1      2023 7.93644E-03 7.44572E-04-3.40303E-14
 -1      2024 8.41797E-03 6.02039E-04-3.84481E-14
 -1      2025 8.25484E-03 6.54260E-04-3.69499E-14
 -1      2026 8.26057E-03 6.29672E-04-3.69457E-14
 -1      2027 8.74605E-03 5.11076E-04-4.15275E-14
 -1      2028 8.58200E-03 5.54341E-04-3.99743E-14
 -1      2029 8.58781E-03 5.28713E-04-3.99712E-14
 -1      2030 9.07351E-03 4.38764E-04-4.47148E-14
 -1      2031 8.91013E-03 4.72690E-04-4.31071E-14
 -1      2032 8.91471E-03 4.46387E-04-4.31039E-14
 -1      2033 9.39788E-03 3.83414E-04-4.80076E-14
 -1      2034 9.23626E-03 4.09171E-04-4.63481E-14
 -1      2035 9.23878E-03 3.82512E-04-4.63437E-14
 -1      2036 9.71773E-03 3.41705E-04-5.13976E-14
 -1      2037 9.55847E-03 3.61074E-04-4.96909E-14
 -1      2038 9.55862E-03 3.34297E-04-4.96857E-14
 -1      2039 1.00324E-02 3.10013E-04-5.48829E-14
 -1      2040 9.87576E-03 3.24800E-04-5.31292E-14
 -1      2041 9.87362E-03 2.98073E-04-5.31221E-14
 -1      2042 1.03420E-02 2.85108E-04-5.84584E-14
 -1      2043 1.01879E-02 2.96865E-04-5.66594E-14
 -1      2044 1.01837E-02 2.70296E-04-5.66503E-14
 -1      2045 1.06468E-02 2.64404E-04-6.21241E-14
 -1      2046 1.04950E-02 2.74343E-04-6.02802E-14
 -1      2047 1.04892E-02 2.47993E-04-6.02695E-14
 -1      2048 1.09474E-02 2.45987E-04-6.58738E-14
 -1      2049 1.07976E-02 2.54987E-04-6.39892E-14
 -1      2050 1.07906E-02 2.28883E-04-6.39747E-14
 -1      2051 1.12445E-02 2.28519E-04-6.96985E-14
 -1      2052 1.10963E-02 2.37184E-04-6.77765E-14
 -1      2053 1.10884E-02 2.11327E-04-6.77603E-14
 -1      2054 1.15386E-02 2.11124E-04-7.35917E-14
 -1      2055 1.13919E-02 2.19843E-04-7.16383E-14
 -1      2056 1.13833E-02 1.94218E-04-7.16160E-14
 -1      2057 1.18304E-02 1.93270E-04-7.75454E-14
 -1      2058 1.16848E-02 2.02271E-04-7.55613E-14
 -1      2059 1.16759E-02 1.76855E-04-7.55350E-14
 -1      2060 1.21205E-02 1.74668E-04-8.15591E-14
 -1      2061 1.19756E-02 1.84069E-04-7.95444E-14
 -1      2062 1.19665E-02 1.58834E-04-7.95170E-14
 -1      2063 1.24091E-02 1.55197E-04-8.56286E-14
 -1      2064 1.22649E-02 1.65041E-04-8.35865E-14
 -1      2065 1.22557E-02 1.39958E-04-8.35551E-14
 -1      2066 1.26968E-02 1.34843E-04-8.97522E-14
 -1      2067 1.25530E-02 1.45126E-04-8.76839E-14
 -1      2068 1.25438E-02 1.20168E-04-8.76490E-14
 -1      2069 1.29837E-02 1.13662E-04-9.39172E-14
 -1      2070 1.28403E-02 1.24350E-04-9.18284E-14
 -1      2071 1.28311E-02 9.94903E-05-9.17899E-14
 -1      2072 1.32701E-02 9.17442E-05-9.81201E-14
 -1      2073 1.31269E-02 1.02788E-04-9.60163E-14
 -1      2074 1.31178E-02 7.80052E-05-9.59739E-14
 -1      2075 1.35562E-02 6.92012E-05-1.02364E-13
 -1      2076 1.34132E-02 8.05439E-05-1.00238E-13
 -1      2077 1.34041E-02 5.58186E-05-1.00193E-13
 -1      2078 1.38421E-02 4.61509E-05-1.06633E-13
 -1      2079 1.36992E-02 5.77324E-05-1.04493E-13
 -1      2080 1.36901E-02 3.30489E-05-1.04445E-13
 -1      2081 1.41279E-02 2.27138E-05-1.10939E-13
 -1      2082 1.39850E-02 3.44738E-05-1.08782E-13
 -1      2083 1.39760E-02 9.81849E-06-1.08729E-13
 -1      2084 1.44136E-02-9.88756E-07-1.15266E-13
 -1      2085 1.42707E-02 1.08888E-05-1.13100E-13
 -1      2086 1.42617E-02-1.37502E-05-1.13041E-13
 -1      2087 1.46493E-02-2.35788E-05-1.18858E-13
 -1      2088 1.45065E-02-1.16533E-05-1.16688E-13
 -1      2089 1.44975E-02-3.62871E-05-1.16625E-13
 -1      2090 1.46833E-02-5.76464E-05-1.19469E-13
 -1      2091 1.47173E-02-2.89723E-04-1.20605E-13
 -1      2092 1.47054E-02-2.47613E-04-1.20316E-13
 -1      2093 1.46935E-02-2.05488E-04-1.20029E-13
 -1      2094 1.46818E-02-1.63355E-04-1.19741E-13
 -1      2095 1.45757E-02-2.16162E-04-1.18301E-13
 -1      2096 1.46884E-02-1.31577E-04-1.19753E-13
 -1      2097 1.46767E-02-8.94313E-05-1.19460E-13
 -1      2098 1.45838E-02-7.87438E-05-1.18038E-13
 -1      2099 1.45705E-02-1.42292E-04-1.18020E-13
 -1      2100 1.47408E-02-3.72478E-04-1.21171E-13
 -1      2101 1.47290E-02-3.31109E-04-1.20885E-13
 -1      2102 1.45993E-02-2.99615E-04-1.18877E-13
 -1      2103 1.47649E-02-4.56602E-04-1.21749E-13
 -1      2104 1.47528E-02-4.14547E-04-1.21460E-13
 -1      2105 1.46231E-02-3.82994E-04-1.19451E-13
 -1      2106 1.47892E-02-5.40675E-04-1.22325E-13
 -1      2107 1.47771E-02-4.98644E-04-1.22037E-13
 -1      2108 1.46473E-02-4.67013E-04-1.20030E-13
 -1      2109 1.48137E-02-6.24716E-04-1.22901E-13
 -1      2110 1.48014E-02-5.82698E-04-1.22613E-13
 -1      2111 1.46717E-02-5.50976E-04-1.20607E-13
 -1      2112 1.48383E-02-7.08752E-04-1.23471E-13
 -1      2113 1.48260E-02-6.66733E-04-1.23187E-13
 -1      2114 1.46962E-02-6.34908E-04-1.21181E-13
 -1      2115 1.48630E-02-7.92809E-04-1.24029E-13
 -1      2116 1.48506E-02-7.50776E-04-1.23750E-13
 -1      2117 1.47208E-02-7.18841E-04-1.21747E-13
 -1      2118 1.48875E-02-8.75483E-04-1.24575E-13
 -1      2119 1.48752E-02-8.34140E-04-1.24301E-13
 -1      2120 1.47453E-02-8.02095E-04-1.22300E-13
 -1      2121 1.49126E-02-9.59639E-04-1.25118E-13
 -1      2122 1.49000E-02-9.17555E-04-1.24848E-13
 -1      2123 1.47700E-02-8.85405E-04-1.22846E-13
 -1      2124 1.49379E-02-1.04385E-03-1.25657E-13
 -1      2125 1.49252E-02-1.00174E-03-1.25387E-13
 -1      2126 1.47952E-02-9.69501E-04-1.23389E-13
 -1      2127 1.49634E-02-1.12812E-03-1.26200E-13
 -1      2128 1.49506E-02-1.08598E-03-1.25928E-13
 -1      2129 1.48205E-02-1.05367E-03-1.23925E-13
 -1      2130 8.77188E-03-9.49177E-06-3.37818E-14
 -1      2131 8.91997E-03-6.45664E-05-3.42287E-14
 -1      2132 9.18941E-03-1.65763E-04-3.50325E-14
 -1      2133 9.19693E-03-1.82927E-04-3.51674E-14
 -1      2134 9.05771E-03-1.12582E-04-3.46027E-14
 -1      2135 9.14080E-03-1.39370E-04-3.48335E-14
 -1      2136 8.38282E-03 1.59551E-04-3.26215E-14
 -1      2137 8.57708E-03 7.06194E-05-3.32143E-14
 -1      2138 7.95461E-03 3.98836E-04-3.09504E-14
 -1      2139 8.14657E-03 2.88515E-04-3.16934E-14
 -1      2140 3.27755E-04-8.52363E-05-1.55827E-16
 -1      2141 3.29932E-04-9.83086E-05-1.51680E-16
 -1      2142 4.47231E-04-1.39795E-04-2.21218E-16
 -1      2143 4.40611E-04-1.04978E-04-2.32182E-16
 -1      2144 7.18353E-03 7.79129E-04-2.76702E-14
 -1      2145 7.33968E-03 7.15646E-04-2.84652E-14
 -1      2146 6.88288E-03 8.29047E-04-2.61763E-14
 -1      2147 7.02935E-03 8.15862E-04-2.69150E-14
 -1      2148 7.09523E-03 8.07419E-04-2.73076E-14
 -1      2149 6.52578E-03 7.61038E-04-2.45904E-14
 -1      2150 6.68301E-03 8.06700E-04-2.52579E-14
 -1      2151 6.19487E-03 6.11214E-04-2.32688E-14
 -1      2152 6.35680E-03 6.94180E-04-2.38669E-14
 -1      2153 5.80312E-03 4.02140E-04-2.21159E-14
 -1      2154 5.97921E-03 4.97698E-04-2.25707E-14
 -1      2155 5.45454E-03 2.29095E-04-2.13864E-14
 -1      2156 5.62915E-03 3.15817E-04-2.17509E-14
 -1      2157 5.74538E-03 3.51098E-04-2.15543E-14
 -1      2158 5.09012E-03 6.32507E-05-2.06621E-14
 -1      2159 5.25020E-03 1.36513E-04-2.10258E-14
 -1      2160 4.79325E-03-4.36880E-05-2.02617E-14
 -1      2161 4.90360E-03-1.08625E-05-2.03203E-14
 -1      2162 4.67794E-03-9.16755E-05-2.01061E-14
 -1      2163 4.71777E-03-7.34202E-05-2.01821E-14
 -1      2164 4.74610E-03-6.80839E-05-1.97399E-14
 -1      2165 4.74180E-03-1.41619E-04-2.05048E-14
 -1      2166 4.68857E-03-1.17856E-04-2.02615E-14
 -1      2167 4.95297E-03-2.10520E-04-2.08513E-14
 -1      2168 4.82959E-03-1.74339E-04-2.06757E-14
 -1      2169 4.78418E-03-1.42557E-04-2.01355E-14
 -1      2170 5.32470E-03-3.73709E-04-2.18047E-14
 -1      2171 5.14596E-03-2.89468E-04-2.13225E-14
 -1      2172 5.71039E-03-5.67708E-04-2.27731E-14
 -1      2173 5.51105E-03-4.66014E-04-2.22830E-14
 -1      2174 5.43202E-03-3.97226E-04-2.16978E-14
 -1      2175 6.14625E-03-8.17435E-04-2.41549E-14
 -1      2176 5.95702E-03-7.03816E-04-2.35013E-14
 -1      2177 6.53207E-03-1.02418E-03-2.57126E-14
 -1      2178 6.36342E-03-9.36692E-04-2.49789E-14
 -1      2179 6.87367E-03-1.12939E-03-2.73044E-14
 -1      2180 6.71960E-03-1.09289E-03-2.65389E-14
 -1      2181 7.20120E-03-1.11135E-03-2.89594E-14
 -1      2182 7.04847E-03-1.13502E-03-2.81683E-14
 -1      2183 7.56844E-03-9.71945E-04-3.06359E-14
 -1      2184 7.40719E-03-1.04607E-03-2.99484E-14
 -1      2185 7.90835E-03-7.88077E-04-3.20111E-14
 -1      2186 7.73755E-03-8.87098E-04-3.13189E-14
 -1      2187 7.63344E-03-9.30923E-04-3.13044E-14
 -1      2188 8.32697E-03-5.61990E-04-3.33668E-14
 -1      2189 8.13982E-03-6.60393E-04-3.28336E-14
 -1      2190 8.69685E-03-3.90254E-04-3.42741E-14
 -1      2191 8.53195E-03-4.62900E-04-3.39025E-14
 -1      2192 8.98070E-03-2.74350E-04-3.49560E-14
 -1      2193 8.85761E-03-3.19565E-04-3.47099E-14
 -1      2194 9.15899E-03-2.10578E-04-3.51279E-14
 -1      2195 9.09039E-03-2.36886E-04-3.49992E-14
 -1      2196 7.57377E-03 6.03342E-04-2.94905E-14
 -1      2197 7.76102E-03 5.03006E-04-3.02147E-14
 -1      2198 8.25066E-03 2.05662E-04-3.25423E-14
 -1      2199 6.08198E-04-2.91369E-04-2.40151E-16
 -1      2200 7.83581E-03 4.38848E-04-3.08658E-14
 -1      2201 7.32682E-03 7.17248E-04-2.86877E-14
 -1      2202 7.43446E-03 6.65108E-04-2.90891E-14
 -1      2203 7.52542E-03 6.07356E-04-2.97212E-14
 -1      2204 6.64572E-04-2.84532E-04-3.20300E-16
 -1      2205 8.99203E-03-1.07505E-04-3.50201E-14
 -1      2206 9.17284E-03-1.62152E-04-3.56050E-14
 -1      2207 1.49320E-02-1.15808E-03-1.25788E-13
 -1      2208 8.66632E-03 7.27977E-06-3.40619E-14
 -1      2209 9.18742E-03-1.93096E-04-3.57681E-14
 -1      2210 9.03761E-03-2.42399E-04-3.56821E-14
 -1      2211 8.77492E-03-3.33701E-04-3.51903E-14
 -1      2212 8.00638E-03-7.18010E-04-3.28242E-14
 -1      2213 7.29488E-03-1.08935E-03-2.96138E-14
 -1      2214 6.95807E-03-1.14560E-03-2.77560E-14
 -1      2215 6.64822E-03-1.06927E-03-2.60669E-14
 -1      2216 5.84672E-03-6.21919E-04-2.28840E-14
 -1      2217 5.05295E-03-2.30702E-04-2.07618E-14
 -1      2218 4.96906E-03-1.91005E-04-2.02107E-14
 -1      2219 5.15287E-03-2.57870E-04-2.06683E-14
 -1      2220 4.66862E-03-1.01941E-04-1.98139E-14
 -1      2221 4.66368E-03-9.38018E-05-1.93710E-14
 -1      2222 4.67641E-03-1.05154E-04-1.95229E-14
 -1      2223 5.38419E-03 1.72996E-04-2.08426E-14
 -1      2224 6.10342E-03 5.51981E-04-2.25949E-14
 -1      2225 6.78837E-03 8.29911E-04-2.56324E-14
 -1      2226 6.45156E-03 7.33264E-04-2.40023E-14
 -1      2227 4.99263E-03 9.89999E-06-2.01505E-14
 -1      2228 5.08441E-03 3.67441E-05-1.99797E-14
 -1      2229 4.90668E-03-2.33900E-05-1.96476E-14
 -1      2230 6.28164E-03-8.79796E-04-2.44221E-14
 -1      2231 8.42090E-03-4.93740E-04-3.42035E-14
 -1      2232 1.01863E-03 3.86424E-04-4.13040E-16
 -1      2233 8.73591E-04 3.52468E-04-2.92071E-16
 -1      2234 5.46933E-04-5.19224E-05-3.35601E-16
 -1      2235 5.48262E-04-6.77902E-05-3.36699E-16
 -1      2236 5.50022E-04-8.43608E-05-3.36672E-16
 -1      2237 5.52237E-04-1.01708E-04-3.35384E-16
 -1      2238 6.64513E-04-8.98445E-05-4.56219E-16
 -1      2239 5.45072E-04 8.26964E-06-3.21493E-16
 -1      2240 5.45049E-04-6.53828E-06-3.26399E-16
 -1      2241 5.46080E-04 3.82916E-05-3.09309E-16
 -1      2242 5.45414E-04 2.31920E-05-3.15869E-16
 -1      2243 6.59366E-04 1.85875E-05-4.32583E-16
 -1      2244 5.48427E-04 6.91965E-05-2.93263E-16
 -1      2245 5.47078E-04 5.35227E-05-3.01977E-16
 -1      2246 6.61128E-04 5.40905E-05-4.15656E-16
 -1      2247 5.52502E-04 1.03312E-04-2.71877E-16
 -1      2248 5.50230E-04 8.58591E-05-2.83234E-16
 -1      2249 6.64760E-04 9.15343E-05-3.93227E-16
 -1      2250 5.59038E-04 1.41769E-04-2.43824E-16
 -1      2251 5.55411E-04 1.21920E-04-2.58948E-16
 -1      2252 6.70788E-04 1.32750E-04-3.63967E-16
 -1      2253 5.69764E-04 1.86972E-04-2.06242E-16
 -1      2254 5.63777E-04 1.63393E-04-2.26530E-16
 -1      2255 6.80289E-04 1.79306E-04-3.25803E-16
 -1      2256 1.30572E-03 4.37971E-04-7.25575E-16
 -1      2257 1.16249E-03 4.14817E-04-5.57280E-16
 -1      2258 1.07439E-03 3.66643E-04-5.30676E-16
 -1      2259 9.17199E-04-3.34293E-04-6.08739E-16
 -1      2260 1.06189E-03-3.65062E-04-7.98881E-16
 -1      2261 7.74186E-03 4.79941E-04-3.08515E-14
 -1      2262 7.90850E-03 3.78664E-04-3.16012E-14
 -1      2263 1.20586E-03-3.90699E-04-1.01632E-15
 -1      2264 1.34955E-03-4.11604E-04-1.26160E-15
 -1      2265 1.11984E-03-3.44631E-04-9.28348E-16
 -1      2266 1.49278E-03-4.28617E-04-1.53436E-15
 -1      2267 1.63584E-03-4.42019E-04-1.83497E-15
 -1      2268 1.40755E-03-3.85498E-04-1.42171E-15
 -1      2269 1.77876E-03-4.52464E-04-2.16331E-15
 -1      2270 1.92173E-03-4.60176E-04-2.51927E-15
 -1      2271 1.69461E-03-4.11892E-04-2.02456E-15
 -1      2272 2.06482E-03-4.65647E-04-2.90265E-15
 -1      2273 2.20819E-03-4.69078E-04-3.31384E-15
 -1      2274 1.98144E-03-4.27107E-04-2.73688E-15
 -1      2275 2.35188E-03-4.70851E-04-3.75180E-15
 -1      2276 2.49604E-03-4.71157E-04-4.21757E-15
 -1      2277 2.26861E-03-4.33838E-04-3.55750E-15
 -1      2278 2.64070E-03-4.70319E-04-4.71071E-15
 -1      2279 2.78600E-03-4.68534E-04-5.23048E-15
 -1      2280 2.55670E-03-4.34342E-04-4.48686E-15
 -1      2281 2.93195E-03-4.66110E-04-5.77666E-15
 -1      2282 3.07871E-03-4.63267E-04-6.34886E-15
 -1      2283 2.84622E-03-4.30646E-04-5.52351E-15
 -1      2284 3.22628E-03-4.60342E-04-6.94743E-15
 -1      2285 3.37483E-03-4.57601E-04-7.57227E-15
 -1      2286 3.13766E-03-4.24761E-04-6.66488E-15
 -1      2287 3.52436E-03-4.55454E-04-8.22363E-15
 -1      2288 3.67507E-03-4.54248E-04-8.90126E-15
 -1      2289 3.43158E-03-4.18925E-04-7.91089E-15
 -1      2290 3.82699E-03-4.54500E-04-9.60378E-15
 -1      2291 3.98032E-03-4.56682E-04-1.03334E-14
 -1      2292 3.72869E-03-4.15856E-04-9.26132E-15
 -1      2293 4.13519E-03-4.61437E-04-1.10898E-14
 -1      2294 4.29174E-03-4.69423E-04-1.18731E-14
 -1      2295 4.03004E-03-4.19035E-04-1.07155E-14
 -1      2296 4.45030E-03-4.81387E-04-1.26834E-14
 -1      2297 4.61088E-03-4.98225E-04-1.35200E-14
 -1      2298 4.33723E-03-4.32994E-04-1.22764E-14
 -1      2299 4.77407E-03-5.20691E-04-1.43840E-14
 -1      2300 4.93960E-03-5.49920E-04-1.52762E-14
 -1      2301 4.65263E-03-4.63530E-04-1.39436E-14
 -1      2302 5.10841E-03-5.86472E-04-1.61963E-14
 -1      2303 5.27962E-03-6.31509E-04-1.71433E-14
 -1      2304 4.97944E-03-5.17712E-04-1.57195E-14
 -1      2305 5.45433E-03-6.85035E-04-1.81201E-14
 -1      2306 5.63083E-03-7.47494E-04-1.91284E-14
 -1      2307 5.32086E-03-6.03262E-04-1.76065E-14
 -1      2308 5.80991E-03-8.17894E-04-2.01663E-14
 -1      2309 5.98897E-03-8.94429E-04-2.12363E-14
 -1      2310 5.67772E-03-7.25869E-04-1.96104E-14
 -1      2311 6.16846E-03-9.74180E-04-2.23413E-14
 -1      2312 6.34511E-03-1.05249E-03-2.34807E-14
 -1      2313 6.04515E-03-8.81734E-04-2.17415E-14
 -1      2314 6.51813E-03-1.12480E-03-2.46552E-14
 -1      2315 6.68794E-03-1.18302E-03-2.58677E-14
 -1      2316 6.40999E-03-1.04823E-03-2.40091E-14
 -1      2317 6.85273E-03-1.22317E-03-2.71189E-14
 -1      2318 7.01742E-03-1.23976E-03-2.84070E-14
 -1      2319 6.75910E-03-1.17612E-03-2.64238E-14
 -1      2320 7.18008E-03-1.23202E-03-2.97346E-14
 -1      2321 7.34698E-03-1.20214E-03-3.10999E-14
 -1      2322 7.09550E-03-1.21208E-03-2.89941E-14
 -1      2323 7.51626E-03-1.15296E-03-3.24998E-14
 -1      2324 7.69026E-03-1.09239E-03-3.39355E-14
 -1      2325 7.43748E-03-1.14365E-03-3.17177E-14
 -1      2326 7.86758E-03-1.02483E-03-3.54040E-14
 -1      2327 8.04650E-03-9.57216E-04-3.69061E-14
 -1      2328 7.79646E-03-1.01071E-03-3.45849E-14
 -1      2329 8.22667E-03-8.93103E-04-3.84396E-14
 -1      2330 8.40508E-03-8.35421E-04-4.00025E-14
 -1      2331 8.16484E-03-8.69205E-04-3.75837E-14
 -1      2332 8.58246E-03-7.86026E-04-4.15934E-14
 -1      2333 8.75650E-03-7.45120E-04-4.32133E-14
 -1      2334 8.52797E-03-7.54337E-04-4.07043E-14
 -1      2335 8.92835E-03-7.13176E-04-4.48622E-14
 -1      2336 9.09678E-03-6.89159E-04-4.65372E-14
 -1      2337 8.87697E-03-6.76560E-04-4.39391E-14
 -1      2338 9.26283E-03-6.72750E-04-4.82361E-14
 -1      2339 9.42605E-03-6.62742E-04-4.99614E-14
 -1      2340 9.21055E-03-6.33123E-04-4.72834E-14
 -1      2341 9.58716E-03-6.58464E-04-5.17121E-14
 -1      2342 9.74609E-03-6.58915E-04-5.34846E-14
 -1      2343 9.53138E-03-6.16786E-04-5.07272E-14
 -1      2344 9.90328E-03-6.63354E-04-5.52770E-14
 -1      2345 1.00588E-02-6.71049E-04-5.70951E-14
 -1      2346 9.84285E-03-6.20163E-04-5.42641E-14
 -1      2347 1.02130E-02-6.81340E-04-5.89324E-14
 -1      2348 1.03659E-02-6.93718E-04-6.07871E-14
 -1      2349 1.01478E-02-6.37047E-04-5.78873E-14
 -1      2350 1.05176E-02-7.07664E-04-6.26620E-14
 -1      2351 1.06684E-02-7.22834E-04-6.45526E-14
 -1      2352 1.04481E-02-6.62636E-04-6.15922E-14
 -1      2353 1.08182E-02-7.38853E-04-6.64621E-14
 -1      2354 1.09672E-02-7.55492E-04-6.83878E-14
 -1      2355 1.07451E-02-6.93408E-04-6.53678E-14
 -1      2356 1.11155E-02-7.72500E-04-7.03270E-14
 -1      2357 1.12631E-02-7.89725E-04-7.22830E-14
 -1      2358 1.10395E-02-7.26893E-04-6.92085E-14
 -1      2359 1.14101E-02-8.07014E-04-7.42547E-14
 -1      2360 1.15567E-02-8.24268E-04-7.62381E-14
 -1      2361 1.13320E-02-7.61431E-04-7.31096E-14
 -1      2362 1.17027E-02-8.41402E-04-7.82363E-14
 -1      2363 1.18483E-02-8.58356E-04-8.02503E-14
 -1      2364 1.16230E-02-7.95967E-04-7.70714E-14
 -1      2365 1.19935E-02-8.75091E-04-8.22773E-14
 -1      2366 1.21384E-02-8.91571E-04-8.43178E-14
 -1      2367 1.19126E-02-8.29874E-04-8.10892E-14
 -1      2368 1.22830E-02-9.07788E-04-8.63695E-14
 -1      2369 1.24273E-02-9.23724E-04-8.84354E-14
 -1      2370 1.22013E-02-8.62819E-04-8.51608E-14
 -1      2371 1.25714E-02-9.39388E-04-9.05122E-14
 -1      2372 1.27153E-02-9.54774E-04-9.25977E-14
 -1      2373 1.24893E-02-8.94672E-04-8.92830E-14
 -1      2374 1.28590E-02-9.69902E-04-9.46979E-14
 -1      2375 1.30026E-02-9.84773E-04-9.68106E-14
 -1      2376 1.27766E-02-9.25426E-04-9.34507E-14
 -1      2377 1.31460E-02-9.99411E-04-9.89330E-14
 -1      2378 1.32894E-02-1.01382E-03-1.01065E-13
 -1      2379 1.30634E-02-9.55149E-04-9.76652E-14
 -1      2380 1.34326E-02-1.02803E-03-1.03203E-13
 -1      2381 1.35758E-02-1.04204E-03-1.05349E-13
 -1      2382 1.33499E-02-9.83952E-04-1.01920E-13
 -1      2383 1.37189E-02-1.05589E-03-1.07502E-13
 -1      2384 1.38620E-02-1.06958E-03-1.09656E-13
 -1      2385 1.36361E-02-1.01197E-03-1.06204E-13
 -1      2386 1.40050E-02-1.08313E-03-1.11813E-13
 -1      2387 1.41479E-02-1.09656E-03-1.13974E-13
 -1      2388 1.39222E-02-1.03933E-03-1.10510E-13
 -1      2389 1.42909E-02-1.10989E-03-1.16132E-13
 -1      2390 1.44338E-02-1.12312E-03-1.18290E-13
 -1      2391 1.42081E-02-1.06618E-03-1.14822E-13
 -1      2392 1.87492E-03 4.93308E-04-1.65045E-15
 -1      2393 1.73275E-03 4.84150E-04-1.38102E-15
 -1      2394 2.15996E-03 5.04859E-04-2.26724E-15
 -1      2395 2.01728E-03 5.00139E-04-1.94603E-15
 -1      2396 1.93421E-03 4.60681E-04-1.87707E-15
 -1      2397 2.44673E-03 5.09418E-04-2.98760E-15
 -1      2398 2.30307E-03 5.07882E-04-2.61431E-15
 -1      2399 2.22068E-03 4.69946E-04-2.52959E-15
 -1      2400 2.73606E-03 5.09271E-04-3.81168E-15
 -1      2401 2.59103E-03 5.09810E-04-3.38671E-15
 -1      2402 2.50849E-03 4.72793E-04-3.28488E-15
 -1      2403 3.02863E-03 5.06586E-04-4.73921E-15
 -1      2404 2.88189E-03 5.08119E-04-4.26212E-15
 -1      2405 2.79830E-03 4.71417E-04-4.14333E-15
 -1      2406 3.32506E-03 5.03643E-04-5.76991E-15
 -1      2407 3.17632E-03 5.05006E-04-5.24177E-15
 -1      2408 3.09074E-03 4.67953E-04-5.10532E-15
 -1      2409 3.62591E-03 5.03032E-04-6.90538E-15
 -1      2410 3.47489E-03 5.02881E-04-6.32438E-15
 -1      2411 3.38642E-03 4.64682E-04-6.17048E-15
 -1      2412 3.93168E-03 5.07815E-04-8.14591E-15
 -1      2413 3.77816E-03 5.04552E-04-7.51206E-15
 -1      2414 3.68598E-03 4.64232E-04-7.33915E-15
 -1      2415 4.24279E-03 5.21597E-04-9.49247E-15
 -1      2416 4.08659E-03 5.13353E-04-8.80539E-15
 -1      2417 3.99012E-03 4.69726E-04-8.61397E-15
 -1      2418 4.55941E-03 5.48374E-04-1.09471E-14
 -1      2419 4.40049E-03 5.33118E-04-1.02068E-14
 -1      2420 4.29963E-03 4.84849E-04-9.99476E-15
 -1      2421 4.88130E-03 5.92002E-04-1.25088E-14
 -1      2422 4.71987E-03 5.67873E-04-1.17142E-14
 -1      2423 4.61522E-03 5.13694E-04-1.14826E-14
 -1      2424 5.20743E-03 6.55020E-04-1.41793E-14
 -1      2425 5.04412E-03 6.21011E-04-1.33301E-14
 -1      2426 4.93732E-03 5.60207E-04-1.30771E-14
 -1      2427 5.53552E-03 7.36697E-04-1.59657E-14
 -1      2428 5.37163E-03 6.93749E-04-1.50584E-14
 -1      2429 5.26545E-03 6.26966E-04-1.47816E-14
 -1      2430 5.86179E-03 8.30434E-04-1.78749E-14
 -1      2431 5.69932E-03 7.82768E-04-1.69036E-14
 -1      2432 5.59738E-03 7.12991E-04-1.66025E-14
 -1      2433 6.18181E-03 9.21816E-04-1.99127E-14
 -1      2434 6.02285E-03 8.77646E-04-1.88783E-14
 -1      2435 5.92866E-03 8.10615E-04-1.85481E-14
 -1      2436 6.49273E-03 9.89943E-04-2.20842E-14
 -1      2437 6.33824E-03 9.60235E-04-2.09813E-14
 -1      2438 6.25363E-03 9.03140E-04-2.06220E-14
 -1      2439 6.79609E-03 1.01404E-03-2.43911E-14
 -1      2440 6.64470E-03 1.00856E-03-2.32203E-14
 -1      2441 6.56894E-03 9.66771E-04-2.28310E-14
 -1      2442 7.09806E-03 9.83167E-04-2.68379E-14
 -1      2443 6.94635E-03 1.00548E-03-2.55976E-14
 -1      2444 6.87706E-03 9.79331E-04-2.51778E-14
 -1      2445 7.40581E-03 9.02823E-04-2.94218E-14
 -1      2446 7.25060E-03 9.48218E-04-2.81121E-14
 -1      2447 7.18581E-03 9.32556E-04-2.76641E-14
 -1      2448 7.72286E-03 7.91241E-04-3.21321E-14
 -1      2449 7.56311E-03 8.49496E-04-3.07611E-14
 -1      2450 7.50267E-03 8.37403E-04-3.02863E-14
 -1      2451 8.04776E-03 6.70370E-04-3.49701E-14
 -1      2452 7.88467E-03 7.30725E-04-3.35364E-14
 -1      2453 7.82917E-03 7.16898E-04-3.30395E-14
 -1      2454 8.37631E-03 5.57342E-04-3.79216E-14
 -1      2455 8.21203E-03 6.12148E-04-3.64312E-14
 -1      2456 8.16130E-03 5.94265E-04-3.59148E-14
 -1      2457 8.70440E-03 4.61362E-04-4.09843E-14
 -1      2458 8.54080E-03 5.06949E-04-3.94392E-14
 -1      2459 8.49345E-03 4.84791E-04-3.89043E-14
 -1      2460 9.02923E-03 3.85015E-04-4.41526E-14
 -1      2461 8.86747E-03 4.20770E-04-4.25551E-14
 -1      2462 8.82157E-03 3.94970E-04-4.20027E-14
 -1      2463 9.34941E-03 3.26735E-04-4.74273E-14
 -1      2464 9.19003E-03 3.53797E-04-4.57770E-14
 -1      2465 9.14374E-03 3.25192E-04-4.52083E-14
 -1      2466 9.66452E-03 2.83105E-04-5.07980E-14
 -1      2467 9.50764E-03 3.03311E-04-4.91005E-14
 -1      2468 9.45972E-03 2.72666E-04-4.85146E-14
 -1      2469 9.97471E-03 2.50326E-04-5.42641E-14
 -1      2470 9.82022E-03 2.65569E-04-5.25197E-14
 -1      2471 9.77003E-03 2.33528E-04-5.19158E-14
 -1      2472 1.02804E-02 2.24967E-04-5.78203E-14
 -1      2473 1.01281E-02 2.36895E-04-5.60308E-14
 -1      2474 1.00755E-02 2.03981E-04-5.54103E-14
 -1      2475 1.05821E-02 2.04259E-04-6.14646E-14
 -1      2476 1.04317E-02 2.14168E-04-5.96322E-14
 -1      2477 1.03769E-02 1.80791E-04-5.89936E-14
 -1      2478 1.08804E-02 1.86127E-04-6.51929E-14
 -1      2479 1.07316E-02 1.94970E-04-6.33173E-14
 -1      2480 1.06749E-02 1.61435E-04-6.26620E-14
 -1      2481 1.11758E-02 1.69111E-04-6.89960E-14
 -1      2482 1.10284E-02 1.77549E-04-6.70864E-14
 -1      2483 1.09702E-02 1.44067E-04-6.64116E-14
 -1      2484 1.14689E-02 1.52245E-04-7.28688E-14
 -1      2485 1.13226E-02 1.60705E-04-7.09240E-14
 -1      2486 1.12633E-02 1.27413E-04-7.02343E-14
 -1      2487 1.17601E-02 1.34931E-04-7.68040E-14
 -1      2488 1.16147E-02 1.43672E-04-7.48285E-14
 -1      2489 1.15546E-02 1.10644E-04-7.41230E-14
 -1      2490 1.20498E-02 1.16843E-04-8.08012E-14
 -1      2491 1.19051E-02 1.26000E-04-7.87962E-14
 -1      2492 1.18445E-02 9.32674E-05-7.80747E-14
 -1      2493 1.23383E-02 9.78341E-05-8.48544E-14
 -1      2494 1.21941E-02 1.07461E-04-8.28204E-14
 -1      2495 1.21332E-02 7.50255E-05-8.20872E-14
 -1      2496 1.26260E-02 7.78821E-05-8.89628E-14
 -1      2497 1.24822E-02 8.79776E-05-8.69018E-14
 -1      2498 1.24211E-02 5.58217E-05-8.61558E-14
 -1      2499 1.29130E-02 5.70375E-05-9.31127E-14
 -1      2500 1.27695E-02 6.75693E-05-9.10324E-14
 -1      2501 1.27083E-02 3.56633E-05-9.02742E-14
 -1      2502 1.31995E-02 3.53938E-05-9.73035E-14
 -1      2503 1.30563E-02 4.63113E-05-9.52051E-14
 -1      2504 1.29950E-02 1.46204E-05-9.44366E-14
 -1      2505 1.34858E-02 1.30661E-05-1.01531E-13
 -1      2506 1.33427E-02 2.43101E-05-9.94113E-14
 -1      2507 1.32814E-02-7.20219E-06-9.86341E-14
 -1      2508 1.37718E-02-9.82293E-06-1.05785E-13
 -1      2509 1.36288E-02 1.68587E-06-1.03655E-13
 -1      2510 1.35676E-02-2.96834E-05-1.02865E-13
 -1      2511 1.40576E-02-3.31483E-05-1.10072E-13
 -1      2512 1.39147E-02-2.14373E-05-1.07925E-13
 -1      2513 1.38535E-02-5.26988E-05-1.07124E-13
 -1      2514 1.43434E-02-5.67865E-05-1.14387E-13
 -1      2515 1.42005E-02-4.49341E-05-1.12228E-13
 -1      2516 1.41394E-02-7.61223E-05-1.11415E-13
 -1      2517 1.44908E-02-6.80655E-05-1.16618E-13
 -1      2518 1.45055E-02-3.93487E-04-1.17735E-13
 -1      2519 1.44934E-02-3.51504E-04-1.17444E-13
 -1      2520 1.45297E-02-4.77391E-04-1.18314E-13
 -1      2521 1.45176E-02-4.35449E-04-1.18025E-13
 -1      2522 1.43879E-02-4.03955E-04-1.16022E-13
 -1      2523 1.44579E-02-2.26834E-04-1.16579E-13
 -1      2524 1.44461E-02-1.84757E-04-1.16284E-13
 -1      2525 1.44815E-02-3.09852E-04-1.17154E-13
 -1      2526 1.44697E-02-2.68533E-04-1.16867E-13
 -1      2527 1.43401E-02-2.37153E-04-1.14858E-13
 -1      2528 1.43638E-02-3.20435E-04-1.15440E-13
 -1      2529 1.45541E-02-5.61232E-04-1.18889E-13
 -1      2530 1.45419E-02-5.19317E-04-1.18603E-13
 -1      2531 1.44122E-02-4.87728E-04-1.16601E-13
 -1      2532 1.45787E-02-6.45044E-04-1.19463E-13
 -1      2533 1.45664E-02-6.03139E-04-1.19177E-13
 -1      2534 1.44366E-02-5.71434E-04-1.17177E-13
 -1      2535 1.46033E-02-7.28867E-04-1.20025E-13
 -1      2536 1.45910E-02-6.86952E-04-1.19744E-13
 -1      2537 1.44612E-02-6.55116E-04-1.17745E-13
 -1      2538 1.46277E-02-8.11316E-04-1.20572E-13
 -1      2539 1.46155E-02-7.70084E-04-1.20300E-13
 -1      2540 1.44857E-02-7.38114E-04-1.18301E-13
 -1      2541 1.46526E-02-8.95264E-04-1.21119E-13
 -1      2542 1.46401E-02-8.53279E-04-1.20846E-13
 -1      2543 1.45102E-02-8.21179E-04-1.18847E-13
 -1      2544 1.46778E-02-9.79306E-04-1.21660E-13
 -1      2545 1.46652E-02-9.37273E-04-1.21391E-13
 -1      2546 1.45352E-02-9.05056E-04-1.19393E-13
 -1      2547 1.47032E-02-1.06344E-03-1.22195E-13
 -1      2548 1.46904E-02-1.02136E-03-1.21926E-13
 -1      2549 1.45604E-02-9.89053E-04-1.19931E-13
 -1      2550 9.15619E-03-1.64524E-04-3.63293E-14
 -1      2551 9.20237E-03-1.74550E-04-3.65351E-14
 -1      2552 8.58435E-03 2.45427E-05-3.44821E-14
 -1      2553 8.76038E-03-4.49855E-05-3.50681E-14
 -1      2554 1.59061E-03 4.72119E-04-1.13722E-15
 -1      2555 1.44832E-03 4.56981E-04-9.18794E-16
 -1      2556 1.64829E-03 4.42520E-04-1.32765E-15
 -1      2557 1.48035E-02-1.14472E-03-1.23844E-13
 -1      2558 9.21041E-03-1.87727E-04-3.65957E-14
 -1      2559 9.17368E-03-1.98221E-04-3.65558E-14
 -1      2560 8.93726E-03-1.06058E-04-3.56448E-14
 -1      2561 9.06333E-03-1.39796E-04-3.60337E-14
 -1      2562 5.89646E-04-2.30906E-04-2.92816E-16
 -1      2563 7.82928E-04-2.94873E-04-4.64594E-16
 -1      2564 8.42641E-04-2.82568E-04-5.63053E-16
 -1      2565 5.80221E-04-2.03128E-04-3.08212E-16
 -1      2566 9.10831E-03-2.17428E-04-3.65025E-14
 -1      2567 9.01215E-03-2.43192E-04-3.64523E-14
 -1      2568 9.16307E-03-2.06180E-04-3.73301E-14
 -1      2569 7.37736E-03-1.06216E-03-3.03360E-14
 -1      2570 7.20986E-03-1.12571E-03-2.93351E-14
 -1      2571 5.28628E-03 1.17500E-04-2.01879E-14
 -1      2572 5.47035E-03 2.02366E-04-2.05331E-14
 -1      2573 6.01956E-03 5.01439E-04-2.18790E-14
 -1      2574 6.20177E-03 6.08074E-04-2.25583E-14
 -1      2575 5.45346E-04-2.14383E-05-3.30384E-16
 -1      2576 5.45965E-04-3.64933E-05-3.33446E-16
 -1      2577 6.60962E-04-5.22585E-05-4.53264E-16
 -1      2578 6.59305E-04-1.65491E-05-4.45255E-16
 -1      2579 6.40240E-03 7.11142E-04-2.35059E-14
 -1      2580 6.54348E-03 7.75708E-04-2.42212E-14
 -1      2581 7.02717E-03 8.29545E-04-2.69351E-14
 -1      2582 7.14916E-03 7.93614E-04-2.76910E-14
 -1      2583 6.69437E-03 8.21965E-04-2.49869E-14
 -1      2584 6.85373E-03 8.44458E-04-2.58969E-14
 -1      2585 5.62021E-03 2.77536E-04-2.08790E-14
 -1      2586 5.76976E-03 3.59978E-04-2.12289E-14
 -1      2587 5.49868E-03 2.21305E-04-2.02165E-14
 -1      2588 6.38691E-03-9.36503E-04-2.46273E-14
 -1      2589 6.20197E-03-8.21269E-04-2.38138E-14
 -1      2590 4.70411E-03-7.68208E-05-1.91562E-14
 -1      2591 4.77356E-03-6.19978E-05-1.92319E-14
 -1      2592 4.81339E-03-1.40411E-04-1.97021E-14
 -1      2593 4.73259E-03-1.21643E-04-1.95406E-14
 -1      2594 5.52268E-03-4.24437E-04-2.14264E-14
 -1      2595 5.35541E-03-3.42486E-04-2.09646E-14
 -1      2596 8.51561E-03-4.37431E-04-3.51314E-14
 -1      2597 8.33253E-03-5.28770E-04-3.45794E-14
 -1      2598 5.95179E-03-6.68789E-04-2.28243E-14
 -1      2599 5.73578E-03-5.39810E-04-2.21162E-14
 -1      2600 5.62372E-03-4.81968E-04-2.13645E-14
 -1      2601 6.71824E-03-1.10232E-03-2.63374E-14
 -1      2602 6.56970E-03-1.03486E-03-2.55164E-14
 -1      2603 7.03951E-03-1.15434E-03-2.82941E-14
 -1      2604 6.90162E-03-1.14845E-03-2.74255E-14
 -1      2605 7.70189E-03-8.89568E-04-3.20040E-14
 -1      2606 7.56085E-03-9.72337E-04-3.13074E-14
 -1      2607 8.09933E-03-6.55584E-04-3.37855E-14
 -1      2608 7.89596E-03-7.76406E-04-3.29440E-14
 -1      2609 8.84412E-03-3.00352E-04-3.61591E-14
 -1      2610 8.69432E-03-3.57569E-04-3.57100E-14
 -1      2611 7.58916E-04 3.25109E-04-2.06378E-16
 -1      2612 6.12158E-04 2.77884E-04-1.27827E-16
 -1      2613 5.85658E-04 2.51298E-04-1.40065E-16
 -1      2614 8.15326E-04 3.12616E-04-2.91894E-16
 -1      2615 8.11230E-03 2.61763E-04-3.25200E-14
 -1      2616 8.33061E-03 1.44164E-04-3.34664E-14
 -1      2617 6.62604E-03 8.09121E-04-2.44720E-14
 -1      2618 6.70378E-04-1.30726E-04-4.52817E-16
 -1      2619 5.55044E-04-1.20103E-04-3.32349E-16
 -1      2620 5.58547E-04-1.39716E-04-3.27578E-16
 -1      2621 1.36199E-03 4.12451E-04-8.79857E-16
 -1      2622 5.73394E-04 2.21046E-04-1.68797E-16
 -1      2623 8.01916E-03 3.13804E-04-3.25019E-14
 -1      2624 8.22071E-03-5.95813E-04-3.47005E-14
 -1      2625 7.81911E-03-8.29329E-04-3.29451E-14
 -1      2626 7.24312E-03 7.58206E-04-2.83024E-14
 -1      2627 7.33406E-03 7.15442E-04-2.89213E-14
 -1      2628 7.17505E-03 7.90206E-04-2.79169E-14
 -1      2629 7.13811E-03-1.14750E-03-2.89900E-14
 -1      2630 6.06397E-03-7.40483E-04-2.30162E-14
 -1      2631 8.61487E-03-3.97672E-04-3.60910E-14
 -1      2632 1.44297E-02-9.92124E-05-1.15797E-13
 -1      2633 8.45899E-03 8.29561E-05-3.44541E-14
 -1      2634 1.44231E-02-1.30976E-04-1.15790E-13
 -1      2635 6.47102E-03-9.86998E-04-2.48847E-14
 -1      2636 9.22412E-03-1.84197E-04-3.73238E-14
 -1      2637 9.12580E-03-1.57881E-04-3.69600E-14
 -1      2638 8.86966E-03-8.43680E-05-3.60714E-14
 -1      2639 4.88085E-03-1.58417E-04-1.96079E-14
 -1      2640 4.80395E-03-1.39181E-04-1.90153E-14
 -1      2641 4.95271E-03-1.81834E-04-1.95117E-14
 -1      2642 4.66298E-03-8.56516E-05-1.88653E-14
 -1      2643 4.66670E-03-7.62782E-05-1.83648E-14
 -1      2644 4.63722E-03-8.81729E-05-1.85768E-14
 -1      2645 6.91011E-04 2.42638E-04-2.58650E-16
 -1      2646 8.95020E-03-2.68305E-04-3.69774E-14
 -1      2647 5.16537E-03 7.07709E-05-1.96776E-14
 -1      2648 7.46229E-03-1.02994E-03-3.10171E-14
 -1      2649 5.88406E-03 4.30290E-04-2.11914E-14
 -1      2650 5.96891E-03 4.97564E-04-2.11470E-14
 -1      2651 5.74978E-03 3.66708E-04-2.05169E-14
 -1      2652 5.72925E-04-1.78330E-04-3.19826E-16
 -1      2653 5.23897E-03-2.92296E-04-2.04032E-14
 -1      2654 4.68413E-03-1.08448E-04-1.90958E-14
 -1      2655 6.29549E-03 6.65998E-04-2.27635E-14
 -1      2656 7.62123E-03 5.52004E-04-3.04334E-14
 -1      2657 6.92213E-03 8.45987E-04-2.62640E-14
 -1      2658 4.82986E-03-4.39374E-05-1.90596E-14
 -1      2659 4.89277E-03-2.17045E-05-1.88878E-14
 -1      2660 4.76210E-03-5.22265E-05-1.84812E-14
 -1      2661 6.80994E-03-1.13367E-03-2.68527E-14
 -1      2662 1.46592E-02-1.14629E-03-1.21694E-13
 -1      2663 1.46890E-02-1.09739E-03-1.22047E-13
 -1      2664 1.45589E-02-1.06501E-03-1.20049E-13
 -1      2665 1.45307E-02-1.13286E-03-1.19753E-13
 -1      2666 1.43052E-02-1.41726E-04-1.14069E-13
 -1      2667 1.44479E-02-1.08920E-03-1.18439E-13
 -1      2668 7.78160E-04 7.22736E-05-5.37927E-16
 -1      2669 7.76503E-04 5.17252E-05-5.50084E-16
 -1      2670 7.75371E-04 3.12328E-05-5.60641E-16
 -1      2671 7.74800E-04 1.10394E-05-5.70046E-16
 -1      2672 8.92946E-04 4.61129E-05-7.05165E-16
 -1      2673 7.91800E-04 1.64024E-04-4.69283E-16
 -1      2674 7.87184E-04 1.39394E-04-4.89883E-16
 -1      2675 8.04713E-04 2.18150E-04-4.19491E-16
 -1      2676 7.97614E-04 1.90209E-04-4.46149E-16
 -1      2677 9.15274E-04 1.96674E-04-5.87502E-16
 -1      2678 1.13264E-03 3.46055E-04-6.56227E-16
 -1      2679 9.88514E-04 3.19562E-04-4.99682E-16
 -1      2680 9.05283E-03-2.46849E-04-3.80860E-14
 -1      2681 8.90703E-03-2.94296E-04-3.77825E-14
 -1      2682 9.21357E-03-2.03803E-04-3.83453E-14
 -1      2683 9.15920E-03-2.16004E-04-3.82895E-14
 -1      2684 8.35152E-03-5.38238E-04-3.57630E-14
 -1      2685 8.14590E-03-6.53805E-04-3.49499E-14
 -1      2686 6.17160E-03-8.17975E-04-2.32291E-14
 -1      2687 5.94910E-03-6.80019E-04-2.22580E-14
 -1      2688 1.32331E-03-3.42897E-04-1.31015E-15
 -1      2689 1.46707E-03-3.58764E-04-1.58518E-15
 -1      2690 1.61072E-03-3.71487E-04-1.88712E-15
 -1      2691 1.75436E-03-3.81293E-04-2.21630E-15
 -1      2692 1.52754E-03-3.31468E-04-1.75177E-15
 -1      2693 1.89793E-03-3.88649E-04-2.57261E-15
 -1      2694 2.04151E-03-3.93746E-04-2.95552E-15
 -1      2695 1.81471E-03-3.50376E-04-2.41029E-15
 -1      2696 2.18510E-03-3.96977E-04-3.36573E-15
 -1      2697 2.32878E-03-3.98514E-04-3.80228E-15
 -1      2698 2.10173E-03-3.60276E-04-3.17602E-15
 -1      2699 2.47254E-03-3.98692E-04-4.26587E-15
 -1      2700 2.61647E-03-3.97675E-04-4.75635E-15
 -1      2701 2.38856E-03-3.63295E-04-4.04799E-15
 -1      2702 2.76054E-03-3.95771E-04-5.27340E-15
 -1      2703 2.90488E-03-3.93149E-04-5.81607E-15
 -1      2704 2.67527E-03-3.61340E-04-5.02571E-15
 -1      2705 3.04944E-03-3.90121E-04-6.38503E-15
 -1      2706 3.19437E-03-3.86882E-04-6.97994E-15
 -1      2707 2.96198E-03-3.56212E-04-6.10830E-15
 -1      2708 3.33963E-03-3.83778E-04-7.60072E-15
 -1      2709 3.48540E-03-3.81060E-04-8.24868E-15
 -1      2710 3.24890E-03-3.49766E-04-7.29459E-15
 -1      2711 3.63169E-03-3.79134E-04-8.92178E-15
 -1      2712 3.77871E-03-3.78348E-04-9.62034E-15
 -1      2713 3.53642E-03-3.44094E-04-8.58486E-15
 -1      2714 3.92656E-03-3.79180E-04-1.03453E-14
 -1      2715 4.07553E-03-3.82145E-04-1.10967E-14
 -1      2716 3.82528E-03-3.41732E-04-9.97885E-15
 -1      2717 4.22587E-03-3.87777E-04-1.18742E-14
 -1      2718 4.37794E-03-3.96870E-04-1.26780E-14
 -1      2719 4.11695E-03-3.45887E-04-1.14762E-14
 -1      2720 4.53228E-03-4.09969E-04-1.35081E-14
 -1      2721 4.68926E-03-4.28289E-04-1.43642E-14
 -1      2722 4.41403E-03-3.60757E-04-1.30773E-14
 -1      2723 4.84981E-03-4.52299E-04-1.52483E-14
 -1      2724 5.01410E-03-4.83760E-04-1.61591E-14
 -1      2725 4.72085E-03-3.92033E-04-1.47836E-14
 -1      2726 5.18353E-03-5.23062E-04-1.70981E-14
 -1      2727 5.35748E-03-5.72237E-04-1.80650E-14
 -1      2728 5.04356E-03-4.47681E-04-1.65961E-14
 -1      2729 5.53840E-03-6.30747E-04-1.90621E-14
 -1      2730 5.72275E-03-7.00948E-04-2.00892E-14
 -1      2731 5.39002E-03-5.38003E-04-1.85210E-14
 -1      2732 5.96192E-03-7.77446E-04-2.15624E-14
 -1      2733 6.15621E-03-8.70472E-04-2.26668E-14
 -1      2734 6.66012E-03-1.12495E-03-2.57433E-14
 -1      2735 6.83627E-03-1.17431E-03-2.69851E-14
 -1      2736 7.00650E-03-1.19655E-03-2.82717E-14
 -1      2737 7.17950E-03-1.18491E-03-2.95930E-14
 -1      2738 7.35365E-03-1.14265E-03-3.09514E-14
 -1      2739 7.53468E-03-1.08088E-03-3.23470E-14
 -1      2740 7.27104E-03-1.14532E-03-3.01902E-14
 -1      2741 7.72197E-03-1.00167E-03-3.37728E-14
 -1      2742 7.91103E-03-9.23458E-04-3.52386E-14
 -1      2743 8.10151E-03-8.48157E-04-3.67380E-14
 -1      2744 8.28901E-03-7.81183E-04-3.82686E-14
 -1      2745 8.04006E-03-8.28764E-04-3.58964E-14
 -1      2746 8.47400E-03-7.24622E-04-3.98274E-14
 -1      2747 8.65284E-03-6.78075E-04-4.14139E-14
 -1      2748 8.42264E-03-6.93324E-04-3.89531E-14
 -1      2749 8.82726E-03-6.42246E-04-4.30296E-14
 -1      2750 8.99600E-03-6.15104E-04-4.46734E-14
 -1      2751 8.78144E-03-6.05875E-04-4.21250E-14
 -1      2752 9.16057E-03-5.96514E-04-4.63436E-14
 -1      2753 9.32096E-03-5.84536E-04-4.80377E-14
 -1      2754 9.11497E-03-5.58669E-04-4.54071E-14
 -1      2755 9.47824E-03-5.78742E-04-4.97552E-14
 -1      2756 9.63278E-03-5.77730E-04-5.14990E-14
 -1      2757 9.42943E-03-5.40453E-04-4.87913E-14
 -1      2758 9.78523E-03-5.80967E-04-5.32655E-14
 -1      2759 9.93600E-03-5.87525E-04-5.50518E-14
 -1      2760 9.73162E-03-5.42234E-04-5.22691E-14
 -1      2761 1.00854E-02-5.96875E-04-5.68600E-14
 -1      2762 1.02338E-02-6.08418E-04-5.86902E-14
 -1      2763 1.00266E-02-5.57538E-04-5.58384E-14
 -1      2764 1.03813E-02-6.21694E-04-6.05383E-14
 -1      2765 1.05282E-02-6.36318E-04-6.24042E-14
 -1      2766 1.03177E-02-5.81706E-04-5.94894E-14
 -1      2767 1.06745E-02-6.51927E-04-6.42890E-14
 -1      2768 1.08205E-02-6.68273E-04-6.61904E-14
 -1      2769 1.06066E-02-6.11366E-04-6.32155E-14
 -1      2770 1.09659E-02-6.85093E-04-6.81063E-14
 -1      2771 1.11112E-02-7.02228E-04-7.00373E-14
 -1      2772 1.08945E-02-6.44104E-04-6.70086E-14
 -1      2773 1.12561E-02-7.19498E-04-7.19849E-14
 -1      2774 1.14007E-02-7.36806E-04-7.39483E-14
 -1      2775 1.11818E-02-6.78239E-04-7.08659E-14
 -1      2776 1.15452E-02-7.54039E-04-7.59245E-14
 -1      2777 1.16895E-02-7.71139E-04-7.79147E-14
 -1      2778 1.14688E-02-7.12649E-04-7.47820E-14
 -1      2779 1.18336E-02-7.88043E-04-7.99215E-14
 -1      2780 1.19775E-02-8.04720E-04-8.19400E-14
 -1      2781 1.17555E-02-7.46630E-04-7.87580E-14
 -1      2782 1.21213E-02-8.21142E-04-8.39735E-14
 -1      2783 1.22650E-02-8.37294E-04-8.60191E-14
 -1      2784 1.20421E-02-7.79779E-04-8.27886E-14
 -1      2785 1.24086E-02-8.53173E-04-8.80738E-14
 -1      2786 1.25521E-02-8.68774E-04-9.01430E-14
 -1      2787 1.23285E-02-8.11905E-04-8.68713E-14
 -1      2788 1.26954E-02-8.84109E-04-9.22246E-14
 -1      2789 1.28388E-02-8.99180E-04-9.43162E-14
 -1      2790 1.26147E-02-8.42959E-04-9.10007E-14
 -1      2791 1.29820E-02-9.14005E-04-9.64192E-14
 -1      2792 1.31252E-02-9.28593E-04-9.85342E-14
 -1      2793 1.29009E-02-8.72980E-04-9.51784E-14
 -1      2794 1.32683E-02-9.42965E-04-1.00659E-13
 -1      2795 1.34114E-02-9.57131E-04-1.02792E-13
 -1      2796 1.31869E-02-9.02059E-04-9.93998E-14
 -1      2797 1.35544E-02-9.71114E-04-1.04931E-13
 -1      2798 1.36975E-02-9.84925E-04-1.07077E-13
 -1      2799 1.34729E-02-9.30316E-04-1.03660E-13
 -1      2800 1.38404E-02-9.98587E-04-1.09226E-13
 -1      2801 1.39834E-02-1.01211E-03-1.11379E-13
 -1      2802 1.37588E-02-9.57880E-04-1.07944E-13
 -1      2803 1.41263E-02-1.02552E-03-1.13531E-13
 -1      2804 1.42693E-02-1.03882E-03-1.15685E-13
 -1      2805 1.40446E-02-9.84881E-04-1.12244E-13
 -1      2806 2.28134E-03 4.34707E-04-2.79713E-15
 -1      2807 2.13762E-03 4.32025E-04-2.44069E-15
 -1      2808 1.41854E-02-1.83591E-04-1.12417E-13
 -1      2809 1.41623E-02-1.29881E-04-1.11917E-13
 -1      2810 1.40194E-02-1.18104E-04-1.09772E-13
 -1      2811 1.99409E-03 4.27565E-04-2.11018E-15
 -1      2812 1.85064E-03 4.21134E-04-1.80483E-15
 -1      2813 2.05429E-03 3.94165E-04-2.34886E-15
 -1      2814 2.85925E-03 4.33579E-04-4.48064E-15
 -1      2815 2.71417E-03 4.35151E-04-4.02167E-15
 -1      2816 3.15101E-03 4.29476E-04-5.47664E-15
 -1      2817 3.00483E-03 4.31614E-04-4.96552E-15
 -1      2818 2.91890E-03 3.95897E-04-4.82320E-15
 -1      2819 3.44545E-03 4.25962E-04-6.57509E-15
 -1      2820 3.29785E-03 4.27503E-04-6.01277E-15
 -1      2821 3.20948E-03 3.91255E-04-5.85256E-15
 -1      2822 3.74333E-03 4.25659E-04-7.77877E-15
 -1      2823 3.59391E-03 4.25233E-04-7.16387E-15
 -1      2824 3.50223E-03 3.87525E-04-6.98505E-15
 -1      2825 4.04564E-03 4.31708E-04-9.08639E-15
 -1      2826 3.89388E-03 4.27669E-04-8.41991E-15
 -1      2827 3.79811E-03 3.87281E-04-8.22209E-15
 -1      2828 4.35360E-03 4.47841E-04-1.05019E-14
 -1      2829 4.19887E-03 4.38242E-04-9.78045E-15
 -1      2830 4.09842E-03 3.93635E-04-9.56441E-15
 -1      2831 4.66861E-03 4.78265E-04-1.20225E-14
 -1      2832 4.51023E-03 4.60956E-04-1.12489E-14
 -1      2833 4.40496E-03 4.10359E-04-1.10125E-14
 -1      2834 4.99182E-03 5.27150E-04-1.36489E-14
 -1      2835 4.82929E-03 5.00107E-04-1.28219E-14
 -1      2836 4.71985E-03 4.41843E-04-1.25652E-14
 -1      2837 5.32331E-03 5.97373E-04-1.53880E-14
 -1      2838 5.15680E-03 5.59448E-04-1.45042E-14
 -1      2839 5.04508E-03 4.92701E-04-1.42249E-14
 -1      2840 5.66082E-03 6.88094E-04-1.72425E-14
 -1      2841 5.49184E-03 6.40457E-04-1.62999E-14
 -1      2842 5.38123E-03 5.66544E-04-1.59961E-14
 -1      2843 5.99870E-03 7.90766E-04-1.92236E-14
 -1      2844 5.83039E-03 7.39038E-04-1.82172E-14
 -1      2845 5.72560E-03 6.63114E-04-1.78861E-14
 -1      2846 6.32941E-03 8.85692E-04-2.13335E-14
 -1      2847 6.16534E-03 8.41094E-04-2.02619E-14
 -1      2848 6.07072E-03 7.72454E-04-1.99006E-14
 -1      2849 6.64881E-03 9.44827E-04-2.35802E-14
 -1      2850 6.49009E-03 9.21741E-04-2.24397E-14
 -1      2851 6.40689E-03 8.70513E-04-2.20465E-14
 -1      2852 6.96130E-03 9.43905E-04-2.59656E-14
 -1      2853 6.80481E-03 9.52841E-04-2.47556E-14
 -1      2854 6.73020E-03 9.23284E-04-2.43315E-14
 -1      2855 7.27664E-03 8.78393E-04-2.84938E-14
 -1      2856 7.11721E-03 9.18337E-04-2.72121E-14
 -1      2857 7.04756E-03 9.05121E-04-2.67566E-14
 -1      2858 7.60327E-03 7.66936E-04-3.11554E-14
 -1      2859 7.43832E-03 8.26376E-04-2.98075E-14
 -1      2860 7.37210E-03 8.17704E-04-2.93247E-14
 -1      2861 7.93950E-03 6.38170E-04-3.39493E-14
 -1      2862 7.77073E-03 7.02813E-04-3.25368E-14
 -1      2863 7.71029E-03 6.90075E-04-3.20310E-14
 -1      2864 8.27816E-03 5.15773E-04-3.68647E-14
 -1      2865 8.10922E-03 5.75168E-04-3.53930E-14
 -1      2866 8.05602E-03 5.55688E-04-3.48652E-14
 -1      2867 8.61270E-03 4.11792E-04-3.98932E-14
 -1      2868 8.44647E-03 4.61162E-04-3.83647E-14
 -1      2869 8.39966E-03 4.36299E-04-3.78215E-14
 -1      2870 8.93959E-03 3.29484E-04-4.30284E-14
 -1      2871 8.77736E-03 3.68046E-04-4.14464E-14
 -1      2872 8.73458E-03 3.39835E-04-4.08872E-14
 -1      2873 9.25823E-03 2.66958E-04-4.62673E-14
 -1      2874 9.10001E-03 2.96022E-04-4.46346E-14
 -1      2875 9.05859E-03 2.66012E-04-4.40593E-14
 -1      2876 9.56952E-03 2.20377E-04-4.96055E-14
 -1      2877 9.41476E-03 2.41964E-04-4.79258E-14
 -1      2878 9.37258E-03 2.10971E-04-4.73317E-14
 -1      2879 9.87489E-03 1.85640E-04-5.30382E-14
 -1      2880 9.72288E-03 2.01780E-04-5.13106E-14
 -1      2881 9.67863E-03 1.70176E-04-5.07026E-14
 -1      2882 1.01757E-02 1.59103E-04-5.65600E-14
 -1      2883 1.00258E-02 1.71546E-04-5.47871E-14
 -1      2884 9.97886E-03 1.39524E-04-5.41633E-14
 -1      2885 1.04729E-02 1.37819E-04-6.01690E-14
 -1      2886 1.03247E-02 1.47954E-04-5.83533E-14
 -1      2887 1.02750E-02 1.15650E-04-5.77125E-14
 -1      2888 1.07675E-02 1.19561E-04-6.38609E-14
 -1      2889 1.06205E-02 1.28419E-04-6.20050E-14
 -1      2890 1.05682E-02 9.59553E-05-6.13465E-14
 -1      2891 1.10599E-02 1.02732E-04-6.76308E-14
 -1      2892 1.09139E-02 1.11041E-04-6.57368E-14
 -1      2893 1.08595E-02 7.85259E-05-6.50621E-14
 -1      2894 1.13508E-02 8.62500E-05-7.14723E-14
 -1      2895 1.12055E-02 9.44953E-05-6.95441E-14
 -1      2896 1.11493E-02 6.20180E-05-6.88527E-14
 -1      2897 1.16404E-02 6.94286E-05-7.53769E-14
 -1      2898 1.14957E-02 7.79107E-05-7.34159E-14
 -1      2899 1.14380E-02 4.55375E-05-7.27101E-14
 -1      2900 1.19289E-02 5.18718E-05-7.93459E-14
 -1      2901 1.17847E-02 6.07578E-05-7.73536E-14
 -1      2902 1.17260E-02 2.85315E-05-7.66331E-14
 -1      2903 1.22168E-02 3.33883E-05-8.33730E-14
 -1      2904 1.20729E-02 4.27525E-05-8.13527E-14
 -1      2905 1.20134E-02 1.06949E-05-8.06170E-14
 -1      2906 1.25040E-02 1.39242E-05-8.74559E-14
 -1      2907 1.23604E-02 2.37795E-05-8.54085E-14
 -1      2908 1.23003E-02-8.10380E-06-8.46608E-14
 -1      2909 1.27908E-02-6.48689E-06-9.15853E-14
 -1      2910 1.26474E-02 3.83403E-06-8.95144E-14
 -1      2911 1.25869E-02-2.78814E-05-8.87547E-14
 -1      2912 1.30772E-02-2.77599E-05-9.57579E-14
 -1      2913 1.29340E-02-1.70207E-05-9.36680E-14
 -1      2914 1.28733E-02-4.85826E-05-9.28985E-14
 -1      2915 1.33634E-02-4.97822E-05-9.99617E-14
 -1      2916 1.32203E-02-3.86835E-05-9.78545E-14
 -1      2917 1.31594E-02-7.01111E-05-9.70782E-14
 -1      2918 1.36494E-02-7.24297E-05-1.04198E-13
 -1      2919 1.35064E-02-6.10347E-05-1.02076E-13
 -1      2920 1.34454E-02-9.23498E-05-1.01288E-13
 -1      2921 1.39059E-02-1.00996E-04-1.08045E-13
 -1      2922 1.37630E-02-8.93861E-05-1.05912E-13
 -1      2923 1.37020E-02-1.20609E-04-1.05115E-13
 -1      2924 1.39290E-02-1.54660E-04-1.08551E-13
 -1      2925 8.35633E-03 1.39794E-04-3.45817E-14
 -1      2926 8.58529E-03 3.25498E-05-3.56201E-14
 -1      2927 1.43192E-02-5.81574E-04-1.15463E-13
 -1      2928 1.43069E-02-5.39801E-04-1.15176E-13
 -1      2929 1.43657E-02-1.04708E-03-1.17137E-13
 -1      2930 1.44625E-02-1.05681E-03-1.18597E-13
 -1      2931 1.44767E-02-1.02293E-03-1.18746E-13
 -1      2932 1.42839E-02-1.00649E-03-1.15844E-13
 -1      2933 1.42703E-02-4.14391E-04-1.14312E-13
 -1      2934 1.42582E-02-3.72538E-04-1.14020E-13
 -1      2935 1.43438E-02-6.65116E-04-1.16026E-13
 -1      2936 1.43315E-02-6.23343E-04-1.15746E-13
 -1      2937 1.42018E-02-5.91641E-04-1.13748E-13
 -1      2938 1.42947E-02-4.98017E-04-1.14889E-13
 -1      2939 1.42825E-02-4.56217E-04-1.14601E-13
 -1      2940 1.41528E-02-4.24790E-04-1.12604E-13
 -1      2941 1.41773E-02-5.08250E-04-1.13179E-13
 -1      2942 1.43680E-02-7.47284E-04-1.16574E-13
 -1      2943 1.43559E-02-7.06191E-04-1.16301E-13
 -1      2944 1.42262E-02-6.74326E-04-1.14305E-13
 -1      2945 1.43928E-02-8.30963E-04-1.17121E-13
 -1      2946 1.43804E-02-7.89109E-04-1.16848E-13
 -1      2947 1.42506E-02-7.57079E-04-1.14853E-13
 -1      2948 1.44178E-02-9.14775E-04-1.17665E-13
 -1      2949 1.44053E-02-8.72851E-04-1.17394E-13
 -1      2950 1.42754E-02-8.40665E-04-1.15398E-13
 -1      2951 1.44535E-02-9.89819E-04-1.18340E-13
 -1      2952 1.44409E-02-9.47825E-04-1.18072E-13
 -1      2953 1.43109E-02-9.15523E-04-1.16075E-13
 -1      2954 1.43571E-02-9.81628E-04-1.16888E-13
 -1      2955 5.40964E-03 1.96665E-04-1.94938E-14
 -1      2956 5.54144E-03 2.61856E-04-1.98248E-14
 -1      2957 9.10870E-03-1.52796E-04-3.77566E-14
 -1      2958 9.19016E-03-1.70650E-04-3.80619E-14
 -1      2959 8.81731E-03-6.13284E-05-3.66281E-14
 -1      2960 8.97263E-03-1.12885E-04-3.72229E-14
 -1      2961 7.90519E-04-2.42299E-04-5.31828E-16
 -1      2962 9.22045E-04-2.75952E-04-6.87113E-16
 -1      2963 8.04840E-04 2.67894E-04-3.50387E-16
 -1      2964 8.70973E-03-3.70533E-04-3.71273E-14
 -1      2965 8.54852E-03-4.40626E-04-3.65342E-14
 -1      2966 1.70724E-03 4.12294E-04-1.52477E-15
 -1      2967 1.56376E-03 4.00828E-04-1.27044E-15
 -1      2968 1.76703E-03 3.81633E-04-1.72876E-15
 -1      2969 2.56954E-03 4.36014E-04-3.58787E-15
 -1      2970 2.42528E-03 4.35975E-04-3.17986E-15
 -1      2971 2.34177E-03 3.99334E-04-3.07107E-15
 -1      2972 2.62984E-03 3.99254E-04-3.89615E-15
 -1      2973 1.05058E-03-3.01280E-04-8.63730E-16
 -1      2974 1.19426E-03-3.24241E-04-1.08777E-15
 -1      2975 1.25516E-03-3.01758E-04-1.22721E-15
 -1      2976 9.98470E-04-2.61409E-04-8.20253E-16
 -1      2977 1.42023E-03 3.86202E-04-1.04116E-15
 -1      2978 1.27645E-03 3.68150E-04-8.36462E-16
 -1      2979 1.19231E-03 3.24500E-04-7.89150E-16
 -1      2980 1.47971E-03 3.59340E-04-1.20933E-15
 -1      2981 5.03343E-03 2.86734E-05-1.89800E-14
 -1      2982 5.20640E-03 9.98222E-05-1.91752E-14
 -1      2983 5.25938E-03-3.09746E-04-1.99411E-14
 -1      2984 5.08972E-03-2.33725E-04-1.96624E-14
 -1      2985 7.83426E-04 1.16081E-04-5.07773E-16
 -1      2986 7.80467E-04 9.37396E-05-5.23832E-16
 -1      2987 8.97064E-04 9.27549E-05-6.75173E-16
 -1      2988 9.04235E-04 1.42319E-04-6.36684E-16
 -1      2989 7.18484E-03-1.14966E-03-2.94508E-14
 -1      2990 7.03868E-03-1.17135E-03-2.84050E-14
 -1      2991 7.56154E-03-9.89842E-04-3.18543E-14
 -1      2992 7.40204E-03-1.07259E-03-3.08688E-14
 -1      2993 6.54012E-04-1.80380E-04-4.08554E-16
 -1      2994 9.23938E-03-1.85041E-04-3.82204E-14
 -1      2995 9.24444E-03-1.91389E-04-3.82837E-14
 -1      2996 9.26162E-03-2.01740E-04-3.92497E-14
 -1      2997 7.80170E-04-9.18000E-05-5.94902E-16
 -1      2998 7.83061E-04-1.14020E-04-5.95105E-16
 -1      2999 6.85184E-03-1.15338E-03-2.71165E-14
 -1      3000 6.69060E-03-1.10381E-03-2.60348E-14
 -1      3001 6.21898E-03 6.39520E-04-2.21224E-14
 -1      3002 6.39984E-03 7.29802E-04-2.30587E-14
 -1      3003 4.68248E-03-1.07752E-04-1.85805E-14
 -1      3004 4.64117E-03-9.76646E-05-1.85673E-14
 -1      3005 7.90919E-03-7.91263E-04-3.38300E-14
 -1      3006 7.73543E-03-8.93744E-04-3.28736E-14
 -1      3007 7.51142E-03 6.21975E-04-3.00486E-14
 -1      3008 7.70375E-03 5.06805E-04-3.11879E-14
 -1      3009 5.71055E-03-5.42347E-04-2.13197E-14
 -1      3010 5.52123E-03-4.40656E-04-2.06479E-14
 -1      3011 6.53892E-03-1.03372E-03-2.51339E-14
 -1      3012 6.37896E-03-9.41771E-04-2.42547E-14
 -1      3013 6.59336E-03-1.07113E-03-2.53806E-14
 -1      3014 7.93083E-03 3.73769E-04-3.24611E-14
 -1      3015 8.11213E-03 2.69051E-04-3.33962E-14
 -1      3016 6.84337E-03 8.54183E-04-2.56781E-14
 -1      3017 6.99433E-03 8.43079E-04-2.67113E-14
 -1      3018 6.53794E-03 7.88262E-04-2.37991E-14
 -1      3019 6.66653E-03 8.30791E-04-2.45557E-14
 -1      3020 6.44932E-03 7.66620E-04-2.31332E-14
 -1      3021 7.86737E-04-1.37181E-04-5.93248E-16
 -1      3022 7.91220E-04-1.61518E-04-5.88898E-16
 -1      3023 9.03720E-04-1.39871E-04-7.52884E-16
 -1      3024 8.91551E-04 8.82596E-07-7.27866E-16
 -1      3025 7.74765E-04-9.08407E-06-5.77961E-16
 -1      3026 7.75266E-04-2.92514E-05-5.84575E-16
 -1      3027 4.93184E-03 8.56314E-06-1.83984E-14
 -1      3028 8.84948E-03-3.33717E-04-3.82335E-14
 -1      3029 9.13499E-03-2.38616E-04-3.91055E-14
 -1      3030 7.08217E-03 8.26486E-04-2.73052E-14
 -1      3031 7.16798E-03 8.00593E-04-2.79080E-14
 -1      3032 7.00079E-03 8.50584E-04-2.66987E-14
 -1      3033 6.74849E-03 8.52276E-04-2.49786E-14
 -1      3034 8.05364E-03-7.27031E-04-3.48739E-14
 -1      3035 5.82505E-03-6.27616E-04-2.15159E-14
 -1      3036 5.80575E-03-6.67003E-04-2.09682E-14
 -1      3037 6.91403E-03-1.17286E-03-2.75504E-14
 -1      3038 6.29332E-03-9.61611E-04-2.33720E-14
 -1      3039 6.47918E-03-1.04764E-03-2.45359E-14
 -1      3040 7.64743E-03-1.00140E-03-3.29718E-14
 -1      3041 1.41286E-02-3.41559E-04-1.12024E-13
 -1      3042 1.42462E-02-3.31005E-04-1.13730E-13
 -1      3043 1.42342E-02-2.89438E-04-1.13437E-13
 -1      3044 8.72337E-03-1.09218E-05-3.67571E-14
 -1      3045 7.43236E-03 6.73278E-04-2.96471E-14
 -1      3046 8.26492E-03 2.04190E-04-3.45349E-14
 -1      3047 5.63802E-03 3.34960E-04-1.97797E-14
 -1      3048 1.41972E-02-2.25246E-04-1.12711E-13
 -1      3049 4.71872E-03-1.19194E-04-1.84865E-14
 -1      3050 4.65007E-03-1.06987E-04-1.79653E-14
 -1      3051 4.76335E-03-1.34503E-04-1.83905E-14
 -1      3052 6.08829E-03 5.78145E-04-2.14231E-14
 -1      3053 6.18931E-03 6.51486E-04-2.17001E-14
 -1      3054 5.95668E-03 5.19773E-04-2.07390E-14
 -1      3055 5.25250E-03 1.44913E-04-1.87951E-14
 -1      3056 9.07287E-03-1.33680E-04-3.83216E-14
 -1      3057 8.66574E-04 2.55262E-04-4.43805E-16
 -1      3058 9.84647E-04 2.62675E-04-5.88451E-16
 -1      3059 4.98094E-03-2.02566E-04-1.90638E-14
 -1      3060 4.61282E-03-8.92638E-05-1.80694E-14
 -1      3061 9.24645E-03-1.80769E-04-3.90258E-14
 -1      3062 7.71032E-04-1.92860E-04-5.44757E-16
 -1      3063 6.25074E-03-8.81717E-04-2.34621E-14
 -1      3064 7.76318E-04-4.96047E-05-5.89427E-16
 -1      3065 7.77932E-04-7.04319E-05-5.92923E-16
 -1      3066 8.96727E-04-9.05828E-05-7.52287E-16
 -1      3067 8.92787E-04-4.41992E-05-7.43681E-16
 -1      3068 8.47032E-03-5.00551E-04-3.67886E-14
 -1      3069 5.35298E-03-3.66571E-04-1.98952E-14
 -1      3070 5.19372E-03-3.08582E-04-1.91609E-14
 -1      3071 5.42992E-03-4.26380E-04-1.98456E-14
 -1      3072 4.69690E-03-6.45496E-05-1.81945E-14
 -1      3073 4.73449E-03-4.89565E-05-1.80241E-14
 -1      3074 4.64466E-03-7.09124E-05-1.79101E-14
 -1      3075 7.66427E-03-9.52805E-04-3.27174E-14
 -1      3076 7.81555E-03 4.56645E-04-3.20545E-14
 -1      3077 1.04098E-03 2.29856E-04-7.17904E-16
 -1      3078 1.03343E-03 1.99022E-04-7.50241E-16
 -1      3079 6.37053E-03 7.51278E-04-2.25072E-14
 -1      3080 6.49578E-03 8.02715E-04-2.32363E-14
 -1      3081 5.59741E-03-5.51968E-04-2.00669E-14
 -1      3082 1.73224E-03-3.12578E-04-2.25048E-15
 -1      3083 1.87563E-03-3.19207E-04-2.60637E-15
 -1      3084 2.01890E-03-3.23893E-04-2.98885E-15
 -1      3085 2.16210E-03-3.26793E-04-3.39774E-15
 -1      3086 1.93690E-03-2.87876E-04-2.80460E-15
 -1      3087 2.30513E-03-3.28221E-04-3.83255E-15
 -1      3088 2.44804E-03-3.28313E-04-4.29371E-15
 -1      3089 2.22251E-03-2.93426E-04-3.62035E-15
 -1      3090 2.59073E-03-3.27361E-04-4.78147E-15
 -1      3091 2.73328E-03-3.25495E-04-5.29508E-15
 -1      3092 2.50716E-03-2.93707E-04-4.54029E-15
 -1      3093 2.87560E-03-3.23001E-04-5.83431E-15
 -1      3094 3.01777E-03-3.20010E-04-6.39983E-15
 -1      3095 2.79051E-03-2.90279E-04-5.56400E-15
 -1      3096 3.15972E-03-3.16824E-04-6.99165E-15
 -1      3097 3.30157E-03-3.13595E-04-7.60903E-15
 -1      3098 3.07231E-03-2.84670E-04-6.69176E-15
 -1      3099 3.44325E-03-3.10652E-04-8.25147E-15
 -1      3100 3.58496E-03-3.08201E-04-8.92023E-15
 -1      3101 3.35248E-03-2.78468E-04-7.92222E-15
 -1      3102 3.72668E-03-3.06601E-04-9.61518E-15
 -1      3103 3.86871E-03-3.06162E-04-1.03358E-14
 -1      3104 3.63120E-03-2.73432E-04-9.25508E-15
 -1      3105 4.01113E-03-3.07262E-04-1.10815E-14
 -1      3106 4.15440E-03-3.10402E-04-1.18535E-14
 -1      3107 3.90914E-03-2.71615E-04-1.06915E-14
 -1      3108 4.29879E-03-3.15934E-04-1.26520E-14
 -1      3109 4.44506E-03-3.24767E-04-1.34753E-14
 -1      3110 4.18794E-03-2.75530E-04-1.22300E-14
 -1      3111 4.59375E-03-3.37172E-04-1.43233E-14
 -1      3112 4.74596E-03-3.54806E-04-1.51990E-14
 -1      3113 4.47092E-03-2.88558E-04-1.38704E-14
 -1      3114 4.90265E-03-3.77893E-04-1.61020E-14
 -1      3115 5.06511E-03-4.09135E-04-1.70309E-14
 -1      3116 4.76418E-03-3.16109E-04-1.56133E-14
 -1      3117 5.25841E-03-4.28116E-04-1.83300E-14
 -1      3118 5.43676E-03-4.82417E-04-1.93235E-14
 -1      3119 8.38398E-03-6.53473E-04-3.80748E-14
 -1      3120 8.56960E-03-6.00268E-04-3.96320E-14
 -1      3121 8.74764E-03-5.61934E-04-4.12158E-14
 -1      3122 8.91683E-03-5.33520E-04-4.28275E-14
 -1      3123 8.72277E-03-5.14340E-04-4.03111E-14
 -1      3124 9.07947E-03-5.15293E-04-4.44663E-14
 -1      3125 9.23629E-03-5.03592E-04-4.61311E-14
 -1      3126 9.05150E-03-4.69604E-04-4.35296E-14
 -1      3127 9.38873E-03-4.98371E-04-4.78198E-14
 -1      3128 9.53785E-03-4.97538E-04-4.95314E-14
 -1      3129 9.35395E-03-4.55535E-04-4.68517E-14
 -1      3130 9.68442E-03-5.00869E-04-5.12681E-14
 -1      3131 9.82929E-03-5.07200E-04-5.30286E-14
 -1      3132 9.64184E-03-4.59859E-04-5.02723E-14
 -1      3133 9.97285E-03-5.16211E-04-5.48085E-14
 -1      3134 1.01157E-02-5.27256E-04-5.66109E-14
 -1      3135 9.92276E-03-4.75858E-04-5.37829E-14
 -1      3136 1.02579E-02-5.39992E-04-5.84329E-14
 -1      3137 1.03999E-02-5.54047E-04-6.02732E-14
 -1      3138 1.02011E-02-4.99514E-04-5.73793E-14
 -1      3139 1.05417E-02-5.69106E-04-6.21334E-14
 -1      3140 1.06835E-02-5.84946E-04-6.40106E-14
 -1      3141 1.04792E-02-5.28117E-04-6.10542E-14
 -1      3142 1.08253E-02-6.01310E-04-6.59019E-14
 -1      3143 1.09672E-02-6.18062E-04-6.78102E-14
 -1      3144 1.07581E-02-5.59699E-04-6.47985E-14
 -1      3145 1.11091E-02-6.35010E-04-6.97344E-14
 -1      3146 1.12512E-02-6.52070E-04-7.16754E-14
 -1      3147 1.10381E-02-5.92816E-04-6.86077E-14
 -1      3148 1.13934E-02-6.69108E-04-7.36309E-14
 -1      3149 1.15357E-02-6.86077E-04-7.55999E-14
 -1      3150 1.13194E-02-6.26436E-04-7.24818E-14
 -1      3151 1.16781E-02-7.02892E-04-7.75833E-14
 -1      3152 1.18205E-02-7.19529E-04-7.95813E-14
 -1      3153 1.16017E-02-6.59863E-04-7.64146E-14
 -1      3154 1.19631E-02-7.35939E-04-8.15922E-14
 -1      3155 1.21057E-02-7.52113E-04-8.36175E-14
 -1      3156 1.18849E-02-6.92661E-04-8.04002E-14
 -1      3157 1.22483E-02-7.68032E-04-8.56565E-14
 -1      3158 1.23910E-02-7.83694E-04-8.77039E-14
 -1      3159 1.21688E-02-7.24595E-04-8.44411E-14
 -1      3160 1.25338E-02-7.99098E-04-8.97650E-14
 -1      3161 1.26765E-02-8.14250E-04-9.18391E-14
 -1      3162 1.24533E-02-7.55571E-04-8.85341E-14
 -1      3163 1.28193E-02-8.29159E-04-9.39244E-14
 -1      3164 1.29621E-02-8.43835E-04-9.60191E-14
 -1      3165 1.27381E-02-7.85590E-04-9.26729E-14
 -1      3166 1.31050E-02-8.58293E-04-9.81284E-14
 -1      3167 1.32478E-02-8.72544E-04-1.00248E-13
 -1      3168 1.30233E-02-8.14712E-04-9.68592E-14
 -1      3169 1.33907E-02-8.86607E-04-1.02371E-13
 -1      3170 1.35335E-02-9.00494E-04-1.04505E-13
 -1      3171 1.33086E-02-8.43033E-04-1.01087E-13
 -1      3172 1.36764E-02-9.14225E-04-1.06647E-13
 -1      3173 1.38192E-02-9.27811E-04-1.08791E-13
 -1      3174 1.35941E-02-8.70667E-04-1.05348E-13
 -1      3175 1.39621E-02-9.41271E-04-1.10938E-13
 -1      3176 1.41050E-02-9.54618E-04-1.13087E-13
 -1      3177 1.38797E-02-8.97730E-04-1.09633E-13
 -1      3178 2.11479E-03 3.60551E-04-2.59368E-15
 -1      3179 1.97118E-03 3.56541E-04-2.25381E-15
 -1      3180 3.26629E-03 3.53379E-04-6.23361E-15
 -1      3181 3.12166E-03 3.55938E-04-5.68922E-15
 -1      3182 2.97738E-03 3.58482E-04-5.17013E-15
 -1      3183 2.83331E-03 3.60808E-04-4.67718E-15
 -1      3184 3.03469E-03 3.21434E-04-5.52305E-15
 -1      3185 3.85038E-03 3.49048E-04-8.67011E-15
 -1      3186 3.70320E-03 3.48596E-04-8.02223E-15
 -1      3187 4.14837E-03 3.55335E-04-1.00456E-14
 -1      3188 3.99869E-03 3.51116E-04-9.34490E-15
 -1      3189 3.90019E-03 3.10878E-04-9.12341E-15
 -1      3190 4.45328E-03 3.72060E-04-1.15265E-14
 -1      3191 4.29982E-03 3.62060E-04-1.07727E-14
 -1      3192 4.19551E-03 3.16621E-04-1.05312E-14
 -1      3193 4.76809E-03 4.03876E-04-1.31115E-14
 -1      3194 4.60933E-03 3.85657E-04-1.23062E-14
 -1      3195 4.49855E-03 3.32681E-04-1.20449E-14
 -1      3196 5.09574E-03 4.56114E-04-1.48045E-14
 -1      3197 4.93034E-03 4.26976E-04-1.39440E-14
 -1      3198 4.81328E-03 3.64089E-04-1.36622E-14
 -1      3199 5.43748E-03 5.33485E-04-1.66080E-14
 -1      3200 5.26518E-03 4.91279E-04-1.56916E-14
 -1      3201 5.14374E-03 4.17309E-04-1.53860E-14
 -1      3202 5.79044E-03 6.36981E-04-1.85317E-14
 -1      3203 5.61357E-03 5.82423E-04-1.75547E-14
 -1      3204 5.49201E-03 4.98892E-04-1.72231E-14
 -1      3205 6.14489E-03 7.55568E-04-2.05800E-14
 -1      3206 5.96885E-03 6.96279E-04-1.95395E-14
 -1      3207 5.85478E-03 6.12032E-04-1.91787E-14
 -1      3208 6.49880E-03 8.52352E-04-2.28915E-14
 -1      3209 6.32799E-03 8.04796E-04-2.17810E-14
 -1      3210 7.14650E-03 8.47453E-04-2.76677E-14
 -1      3211 6.98023E-03 8.81046E-04-2.64130E-14
 -1      3212 7.82217E-03 6.09946E-04-3.28987E-14
 -1      3213 7.64595E-03 6.81915E-04-3.15074E-14
 -1      3214 8.17626E-03 4.73635E-04-3.57747E-14
 -1      3215 7.99999E-03 5.39557E-04-3.43210E-14
 -1      3216 7.94404E-03 5.24082E-04-3.37747E-14
 -1      3217 8.52249E-03 3.60429E-04-3.87680E-14
 -1      3218 8.35118E-03 4.13794E-04-3.72568E-14
 -1      3219 8.30385E-03 3.90340E-04-3.66909E-14
 -1      3220 8.85542E-03 2.73312E-04-4.18717E-14
 -1      3221 8.69093E-03 3.13895E-04-4.03064E-14
 -1      3222 8.64934E-03 2.86264E-04-3.97232E-14
 -1      3223 9.17486E-03 2.08561E-04-4.50775E-14
 -1      3224 9.01679E-03 2.38589E-04-4.34627E-14
 -1      3225 8.97759E-03 2.09769E-04-4.28628E-14
 -1      3226 9.48336E-03 1.60841E-04-4.83834E-14
 -1      3227 9.33033E-03 1.82961E-04-4.67184E-14
 -1      3228 9.29078E-03 1.54188E-04-4.61033E-14
 -1      3229 9.78397E-03 1.25375E-04-5.17838E-14
 -1      3230 9.63449E-03 1.41876E-04-5.00716E-14
 -1      3231 9.59295E-03 1.13387E-04-4.94402E-14
 -1      3232 1.00793E-02 9.82959E-05-5.52722E-14
 -1      3233 9.93214E-03 1.11007E-04-5.35167E-14
 -1      3234 9.88781E-03 8.27045E-05-5.28688E-14
 -1      3235 1.03711E-02 7.66249E-05-5.88473E-14
 -1      3236 1.02255E-02 8.69422E-05-5.70484E-14
 -1      3237 1.01782E-02 5.86801E-05-5.63850E-14
 -1      3238 1.06608E-02 5.81413E-05-6.25068E-14
 -1      3239 1.05162E-02 6.70951E-05-6.06670E-14
 -1      3240 1.04659E-02 3.87794E-05-5.99861E-14
 -1      3241 1.09492E-02 4.12471E-05-6.62430E-14
 -1      3242 1.08051E-02 4.95706E-05-6.43658E-14
 -1      3243 1.07523E-02 2.11700E-05-6.36688E-14
 -1      3244 1.12367E-02 2.48388E-05-7.00538E-14
 -1      3245 1.10930E-02 3.30311E-05-6.81407E-14
 -1      3246 1.10380E-02 4.55730E-06-6.74286E-14
 -1      3247 1.15236E-02 8.19645E-06-7.39303E-14
 -1      3248 1.13802E-02 1.65767E-05-7.19845E-14
 -1      3249 1.13234E-02-1.19379E-05-7.12574E-14
 -1      3250 1.18102E-02-9.11253E-06-7.78695E-14
 -1      3251 1.16670E-02-3.58524E-07-7.58908E-14
 -1      3252 1.16088E-02-2.88772E-05-7.51526E-14
 -1      3253 1.20966E-02-2.73126E-05-8.18709E-14
 -1      3254 1.19535E-02-1.80943E-05-7.98633E-14
 -1      3255 1.18942E-02-4.65852E-05-7.91081E-14
 -1      3256 1.23828E-02-4.64844E-05-8.59281E-14
 -1      3257 1.22397E-02-3.67764E-05-8.38924E-14
 -1      3258 1.21797E-02-6.52160E-05-8.31253E-14
 -1      3259 1.26689E-02-6.66143E-05-9.00329E-14
 -1      3260 1.25259E-02-5.64328E-05-8.79747E-14
 -1      3261 1.24652E-02-8.48069E-05-8.71947E-14
 -1      3262 1.29549E-02-8.76307E-05-9.41893E-14
 -1      3263 1.28119E-02-7.70170E-05-9.21062E-14
 -1      3264 1.27508E-02-1.05320E-04-9.13143E-14
 -1      3265 1.32408E-02-1.09430E-04-9.83744E-14
 -1      3266 1.30978E-02-9.84388E-05-9.62781E-14
 -1      3267 1.30365E-02-1.26671E-04-9.54771E-14
 -1      3268 1.35267E-02-1.31893E-04-1.02594E-13
 -1      3269 1.33837E-02-1.20585E-04-1.00480E-13
 -1      3270 1.33222E-02-1.48752E-04-9.96734E-14
 -1      3271 1.41087E-02-6.83800E-04-1.12590E-13
 -1      3272 1.40966E-02-6.42882E-04-1.12315E-13
 -1      3273 1.41333E-02-7.67130E-04-1.13135E-13
 -1      3274 1.41210E-02-7.25448E-04-1.12863E-13
 -1      3275 1.39915E-02-6.93876E-04-1.10874E-13
 -1      3276 1.40843E-02-6.01274E-04-1.12037E-13
 -1      3277 1.40720E-02-5.59671E-04-1.11754E-13
 -1      3278 1.39669E-02-6.10813E-04-1.10325E-13
 -1      3279 7.32924E-03 7.37849E-04-2.90401E-14
 -1      3280 7.49169E-03 6.57188E-04-3.01692E-14
 -1      3281 1.82758E-03 3.50579E-04-1.93882E-15
 -1      3282 1.68393E-03 3.42487E-04-1.64895E-15
 -1      3283 1.88860E-03 3.19239E-04-2.15550E-15
 -1      3284 8.88638E-04-2.00800E-04-7.01370E-16
 -1      3285 9.31400E-03-2.03041E-04-4.03966E-14
 -1      3286 9.29103E-03-2.13605E-04-4.04602E-14
 -1      3287 4.96447E-03-2.14742E-04-1.84794E-14
 -1      3288 4.85461E-03-1.70182E-04-1.83401E-14
 -1      3289 1.42608E-02-9.73402E-04-1.15440E-13
 -1      3290 3.55692E-03 3.49409E-04-7.40015E-15
 -1      3291 3.41132E-03 3.51114E-04-6.80352E-15
 -1      3292 3.32149E-03 3.15905E-04-6.61998E-15
 -1      3293 3.60955E-03 3.11612E-04-7.81970E-15
 -1      3294 1.14707E-03 2.94577E-04-7.73009E-16
 -1      3295 1.08365E-03 2.57116E-04-7.39358E-16
 -1      3296 1.20219E-03 2.56778E-04-9.24879E-16
 -1      3297 1.29049E-03 3.13842E-04-9.69019E-16
 -1      3298 9.22241E-03-2.34704E-04-4.02848E-14
 -1      3299 9.13077E-03-2.61831E-04-4.00744E-14
 -1      3300 1.40795E-02-2.35965E-04-1.11006E-13
 -1      3301 4.81709E-03-9.24686E-06-1.77104E-14
 -1      3302 4.93299E-03 3.45619E-05-1.77943E-14
 -1      3303 9.05773E-03-1.13725E-04-3.91251E-14
 -1      3304 9.17589E-03-1.49193E-04-3.96749E-14
 -1      3305 6.52434E-03-1.06128E-03-2.48499E-14
 -1      3306 8.65491E-03 3.87419E-05-3.70665E-14
 -1      3307 8.86245E-03-4.58560E-05-3.80989E-14
 -1      3308 1.44556E-03-2.92307E-04-1.61858E-15
 -1      3309 1.58890E-03-3.03669E-04-1.92138E-15
 -1      3310 1.65083E-03-2.75393E-04-2.09369E-15
 -1      3311 4.58488E-03-8.88137E-05-1.75286E-14
 -1      3312 4.58714E-03-8.08254E-05-1.75392E-14
 -1      3313 7.28865E-03-1.12966E-03-3.02561E-14
 -1      3314 8.97058E-03-3.14079E-04-3.94602E-14
 -1      3315 8.79495E-03-3.80470E-04-3.87884E-14
 -1      3316 8.58751E-03-4.84812E-04-3.81595E-14
 -1      3317 8.41469E-03-5.70881E-04-3.73674E-14
 -1      3318 5.52838E-03 3.16526E-04-1.89666E-14
 -1      3319 5.71609E-03 4.08682E-04-1.96382E-14
 -1      3320 9.26731E-03-1.77678E-04-4.00685E-14
 -1      3321 9.30615E-03-1.90374E-04-4.02325E-14
 -1      3322 9.36029E-03-2.01393E-04-4.14546E-14
 -1      3323 7.72534E-03 5.31043E-04-3.17330E-14
 -1      3324 7.93012E-03 4.12856E-04-3.30192E-14
 -1      3325 1.41581E-02-8.50626E-04-1.13679E-13
 -1      3326 1.41457E-02-8.08855E-04-1.13407E-13
 -1      3327 1.40161E-02-7.77077E-04-1.11416E-13
 -1      3328 5.09816E-03 1.07574E-04-1.79667E-14
 -1      3329 5.27134E-03 1.90742E-04-1.82668E-14
 -1      3330 8.19028E-03 2.73288E-04-3.46257E-14
 -1      3331 8.40777E-03 1.59470E-04-3.58386E-14
 -1      3332 1.01210E-03 6.31046E-05-8.65546E-16
 -1      3333 1.01050E-03 3.80487E-05-8.81090E-16
 -1      3334 6.65978E-03 8.48665E-04-2.42722E-14
 -1      3335 6.82176E-03 8.69051E-04-2.53883E-14
 -1      3336 8.19566E-03-6.75178E-04-3.60660E-14
 -1      3337 7.98191E-03-7.98426E-04-3.49239E-14
 -1      3338 1.00967E-03 1.32720E-05-8.94724E-16
 -1      3339 1.00962E-03-1.13803E-05-9.06339E-16
 -1      3340 1.12901E-03 2.76412E-05-1.07763E-15
 -1      3341 6.57649E-03 8.42093E-04-2.36208E-14
 -1      3342 9.00129E-03-7.51551E-05-3.94436E-14
 -1      3343 4.54429E-03-7.22546E-05-1.68431E-14
 -1      3344 4.59184E-03-7.20673E-05-1.73734E-14
 -1      3345 4.60704E-03-6.23630E-05-1.72072E-14
 -1      3346 5.09375E-03-3.45039E-04-1.77972E-14
 -1      3347 1.01492E-03-2.21393E-04-8.79627E-16
 -1      3348 7.63223E-03-9.81664E-04-3.26502E-14
 -1      3349 7.83499E-03-8.84870E-04-3.40846E-14
 -1      3350 1.18890E-03-2.62399E-04-1.14330E-15
 -1      3351 1.31712E-03-2.78488E-04-1.37038E-15
 -1      3352 1.37970E-03-2.54308E-04-1.51733E-15
 -1      3353 1.40110E-02-3.51913E-04-1.10320E-13
 -1      3354 1.39989E-02-3.10495E-04-1.10028E-13
 -1      3355 4.95825E-03 7.90977E-05-1.72850E-14
 -1      3356 1.41783E-02-9.29867E-04-1.14131E-13
 -1      3357 2.25839E-03 3.62958E-04-2.95915E-15
 -1      3358 2.17542E-03 3.26856E-04-2.84520E-15
 -1      3359 2.40202E-03 3.63925E-04-3.35065E-15
 -1      3360 1.40232E-02-3.93637E-04-1.10613E-13
 -1      3361 1.38936E-02-3.62587E-04-1.08623E-13
 -1      3362 1.40354E-02-4.35320E-04-1.10902E-13
 -1      3363 7.98273E-03-8.29881E-04-3.52582E-14
 -1      3364 2.74834E-03 3.26250E-04-4.52877E-15
 -1      3365 2.68945E-03 3.62624E-04-4.20993E-15
 -1      3366 2.54568E-03 3.63760E-04-3.76768E-15
 -1      3367 6.22653E-03 7.34798E-04-2.13840E-14
 -1      3368 6.65022E-03 8.87602E-04-2.39211E-14
 -1      3369 6.81377E-03 9.00282E-04-2.51004E-14
 -1      3370 7.58058E-03 6.58578E-04-3.09397E-14
 -1      3371 7.46654E-03 7.35959E-04-3.01129E-14
 -1      3372 7.29323E-03 8.01285E-04-2.87919E-14
 -1      3373 7.61550E-03 6.11203E-04-3.10943E-14
 -1      3374 1.36402E-02-1.48762E-04-1.04302E-13
 -1      3375 1.35785E-02-1.76862E-04-1.03487E-13
 -1      3376 1.37537E-02-1.65717E-04-1.06012E-13
 -1      3377 1.01453E-03 8.85482E-05-8.47589E-16
 -1      3378 1.13272E-03 8.16338E-05-1.04085E-15
 -1      3379 1.01778E-03 1.14646E-04-8.27368E-16
 -1      3380 8.09155E-03 3.53804E-04-3.42839E-14
 -1      3381 7.23886E-03 7.86728E-04-2.84065E-14
 -1      3382 1.40599E-02-5.18327E-04-1.11474E-13
 -1      3383 1.40476E-02-4.76704E-04-1.11189E-13
 -1      3384 1.39180E-02-4.45526E-04-1.09201E-13
 -1      3385 1.39424E-02-5.28062E-04-1.09767E-13
 -1      3386 4.75322E-03-1.47233E-04-1.78213E-14
 -1      3387 5.82930E-03 4.87697E-04-1.98946E-14
 -1      3388 1.41552E-02-8.96867E-04-1.13726E-13
 -1      3389 9.27167E-03-1.64193E-04-4.08893E-14
 -1      3390 5.35570E-03 2.61497E-04-1.81278E-14
 -1      3391 5.42414E-03 3.32913E-04-1.79832E-14
 -1      3392 5.19053E-03 2.20373E-04-1.73103E-14
 -1      3393 8.73633E-03-4.48112E-04-3.93818E-14
 -1      3394 4.60942E-03-1.05349E-04-1.73429E-14
 -1      3395 4.59187E-03-9.63608E-05-1.74358E-14
 -1      3396 4.54423E-03-8.76559E-05-1.69149E-14
 -1      3397 9.09141E-03-2.98206E-04-4.06430E-14
 -1      3398 1.39824E-02-2.64679E-04-1.09655E-13
 -1      3399 1.39454E-02-2.00619E-04-1.08927E-13
 -1      3400 1.38319E-02-1.83537E-04-1.07207E-13
 -1      3401 1.38648E-02-2.75193E-04-1.07956E-13
 -1      3402 8.17976E-03-7.50482E-04-3.67597E-14
 -1      3403 4.73734E-03-2.76065E-05-1.74316E-14
 -1      3404 4.73022E-03-1.88940E-06-1.68445E-14
 -1      3405 4.66738E-03-3.95739E-05-1.71544E-14
 -1      3406 8.57416E-03 1.05560E-04-3.71581E-14
 -1      3407 1.55899E-03 3.37214E-04-1.40929E-15
 -1      3408 1.41535E-03 3.24144E-04-1.16710E-15
 -1      3409 1.37054E-03 2.95236E-04-1.14363E-15
 -1      3410 1.62024E-03 3.08919E-04-1.59367E-15
 -1      3411 1.02711E-03 1.69692E-04-7.78999E-16
 -1      3412 1.02198E-03 1.41676E-04-8.04586E-16
 -1      3413 1.14021E-03 1.37871E-04-9.93658E-16
 -1      3414 1.15187E-03 1.97939E-04-9.34325E-16
 -1      3415 6.17706E-03 6.85799E-04-2.12972E-14
 -1      3416 1.40254E-02-8.64887E-04-1.11734E-13
 -1      3417 8.33753E-03-6.44627E-04-3.74156E-14
 -1      3418 9.30633E-03-2.32155E-04-4.14440E-14
 -1      3419 1.01418E-03-8.63260E-05-9.28267E-16
 -1      3420 1.01732E-03-1.12306E-04-9.31397E-16
 -1      3421 1.02143E-03-1.39148E-04-9.32034E-16
 -1      3422 1.02645E-03-1.67014E-04-9.29771E-16
 -1      3423 1.13962E-03-1.35341E-04-1.12947E-15
 -1      3424 8.44284E-03 3.00796E-04-3.76309E-14
 -1      3425 8.26414E-03 3.59656E-04-3.61362E-14
 -1      3426 6.20782E-03-8.65680E-04-2.31641E-14
 -1      3427 2.14097E-03-2.59030E-04-3.41147E-15
 -1      3428 2.28308E-03-2.60265E-04-3.84400E-15
 -1      3429 2.42480E-03-2.60419E-04-4.30263E-15
 -1      3430 2.56613E-03-2.59587E-04-4.78721E-15
 -1      3431 2.34377E-03-2.27404E-04-4.06885E-15
 -1      3432 2.70693E-03-2.58026E-04-5.29695E-15
 -1      3433 2.84723E-03-2.55818E-04-5.83301E-15
 -1      3434 2.62497E-03-2.26058E-04-5.03395E-15
 -1      3435 2.98689E-03-2.53226E-04-6.39517E-15
 -1      3436 3.12597E-03-2.50330E-04-6.98290E-15
 -1      3437 2.90354E-03-2.22215E-04-6.10238E-15
 -1      3438 3.26434E-03-2.47407E-04-7.59650E-15
 -1      3439 3.40209E-03-2.44542E-04-8.23498E-15
 -1      3440 3.17890E-03-2.17085E-04-7.27356E-15
 -1      3441 3.53911E-03-2.42031E-04-8.89870E-15
 -1      3442 3.67559E-03-2.39986E-04-9.58913E-15
 -1      3443 3.45059E-03-2.11896E-04-8.54673E-15
 -1      3444 3.81142E-03-2.38709E-04-1.03049E-14
 -1      3445 3.94697E-03-2.38384E-04-1.10458E-14
 -1      3446 3.71836E-03-2.07914E-04-9.92160E-15
 -1      3447 4.08216E-03-2.39297E-04-1.18123E-14
 -1      3448 4.21770E-03-2.41788E-04-1.26049E-14
 -1      3449 3.98239E-03-2.06475E-04-1.13996E-14
 -1      3450 4.35355E-03-2.46057E-04-1.34214E-14
 -1      3451 4.49098E-03-2.52923E-04-1.42631E-14
 -1      3452 4.24371E-03-2.08998E-04-1.29768E-14
 -1      3453 4.63014E-03-2.62710E-04-1.51302E-14
 -1      3454 4.77307E-03-2.77217E-04-1.60245E-14
 -1      3455 4.50506E-03-2.17663E-04-1.46547E-14
 -1      3456 1.07881E-03-2.03514E-04-9.96179E-16
 -1      3457 6.39930E-03-9.77286E-04-2.41887E-14
 -1      3458 4.80690E-03 5.59890E-05-1.64786E-14
 -1      3459 4.94414E-03 1.19308E-04-1.66370E-14
 -1      3460 9.03452E-03-4.22990E-04-4.25973E-14
 -1      3461 9.18331E-03-4.14758E-04-4.42304E-14
 -1      3462 9.32640E-03-4.12957E-04-4.58910E-14
 -1      3463 9.46659E-03-4.14602E-04-4.75727E-14
 -1      3464 9.30650E-03-3.70052E-04-4.49317E-14
 -1      3465 9.60407E-03-4.19798E-04-4.92814E-14
 -1      3466 9.74056E-03-4.27252E-04-5.10119E-14
 -1      3467 9.57121E-03-3.80456E-04-4.82942E-14
 -1      3468 9.87608E-03-4.36822E-04-5.27609E-14
 -1      3469 1.00115E-02-4.47980E-04-5.45352E-14
 -1      3470 9.83266E-03-3.99030E-04-5.17453E-14
 -1      3471 1.01469E-02-4.60493E-04-5.63308E-14
 -1      3472 1.02827E-02-4.74108E-04-5.81444E-14
 -1      3473 1.00951E-02-4.22916E-04-5.52858E-14
 -1      3474 1.04188E-02-4.88572E-04-5.99787E-14
 -1      3475 1.05555E-02-5.03756E-04-6.18312E-14
 -1      3476 1.03602E-02-4.50486E-04-5.89078E-14
 -1      3477 1.06926E-02-5.19423E-04-6.36989E-14
 -1      3478 1.08303E-02-5.35504E-04-6.55827E-14
 -1      3479 1.06286E-02-4.80514E-04-6.26019E-14
 -1      3480 1.09686E-02-5.51799E-04-6.74839E-14
 -1      3481 1.11073E-02-5.68271E-04-6.94019E-14
 -1      3482 1.09002E-02-5.12002E-04-6.63632E-14
 -1      3483 1.12466E-02-5.84766E-04-7.13350E-14
 -1      3484 1.13863E-02-6.01266E-04-7.32845E-14
 -1      3485 1.11747E-02-5.44147E-04-7.01920E-14
 -1      3486 1.15263E-02-6.17662E-04-7.52471E-14
 -1      3487 1.16668E-02-6.33949E-04-7.72230E-14
 -1      3488 1.14518E-02-5.76343E-04-7.40820E-14
 -1      3489 1.18076E-02-6.50054E-04-7.92115E-14
 -1      3490 1.19487E-02-6.65982E-04-8.12145E-14
 -1      3491 1.17309E-02-6.08168E-04-7.80272E-14
 -1      3492 1.20900E-02-6.81691E-04-8.32323E-14
 -1      3493 1.22316E-02-6.97190E-04-8.52624E-14
 -1      3494 1.20117E-02-6.39365E-04-8.20248E-14
 -1      3495 1.23733E-02-7.12458E-04-8.73044E-14
 -1      3496 1.25153E-02-7.27509E-04-8.93576E-14
 -1      3497 1.22938E-02-6.69802E-04-8.60784E-14
 -1      3498 1.26574E-02-7.42337E-04-9.14265E-14
 -1      3499 1.27996E-02-7.56956E-04-9.35048E-14
 -1      3500 1.25769E-02-6.99438E-04-9.01823E-14
 -1      3501 1.29419E-02-7.71369E-04-9.55937E-14
 -1      3502 1.30843E-02-7.85593E-04-9.76951E-14
 -1      3503 1.28608E-02-7.28297E-04-9.43331E-14
 -1      3504 1.32268E-02-7.99636E-04-9.98077E-14
 -1      3505 1.33694E-02-8.13513E-04-1.01925E-13
 -1      3506 1.31453E-02-7.56443E-04-9.85271E-14
 -1      3507 1.35120E-02-8.27238E-04-1.04053E-13
 -1      3508 1.36547E-02-8.40824E-04-1.06190E-13
 -1      3509 1.34301E-02-7.83960E-04-1.02764E-13
 -1      3510 1.37687E-02-8.46268E-04-1.07889E-13
 -1      3511 1.39114E-02-8.59625E-04-1.10032E-13
 -1      3512 1.39144E-02-8.13564E-04-1.09987E-13
 -1      3513 1.36866E-02-8.02953E-04-1.06588E-13
 -1      3514 8.96528E-03-3.31971E-05-3.99650E-14
 -1      3515 9.14028E-03-9.62164E-05-4.10193E-14
 -1      3516 4.23943E-03 2.77518E-04-1.10218E-14
 -1      3517 4.09265E-03 2.74147E-04-1.02882E-14
 -1      3518 3.94748E-03 2.72824E-04-9.58076E-15
 -1      3519 3.80343E-03 2.72925E-04-8.89950E-15
 -1      3520 3.99218E-03 2.34792E-04-1.00426E-14
 -1      3521 4.85362E-03 3.22231E-04-1.42156E-14
 -1      3522 4.69469E-03 3.04606E-04-1.33780E-14
 -1      3523 5.18684E-03 3.75757E-04-1.59705E-14
 -1      3524 5.01767E-03 3.45134E-04-1.50788E-14
 -1      3525 4.88879E-03 2.77981E-04-1.47712E-14
 -1      3526 5.47556E-03 4.18730E-04-1.76756E-14
 -1      3527 5.29665E-03 3.73473E-04-1.67335E-14
 -1      3528 5.83312E-03 5.39238E-04-1.95069E-14
 -1      3529 5.64462E-03 4.73716E-04-1.85098E-14
 -1      3530 7.79814E-03 5.46379E-04-3.25272E-14
 -1      3531 6.90479E-03 8.69312E-04-2.59606E-14
 -1      3532 7.98529E-03 4.66365E-04-3.39471E-14
 -1      3533 9.10436E-03 1.45582E-04-4.38780E-14
 -1      3534 8.94654E-03 1.75150E-04-4.22784E-14
 -1      3535 9.40927E-03 9.95375E-05-4.71525E-14
 -1      3536 9.25842E-03 1.20881E-04-4.55027E-14
 -1      3537 9.23033E-03 8.62518E-05-4.49001E-14
 -1      3538 9.70395E-03 6.54491E-05-5.05215E-14
 -1      3539 9.55759E-03 8.13704E-05-4.88256E-14
 -1      3540 9.52569E-03 4.89138E-05-4.82071E-14
 -1      3541 9.99247E-03 3.91475E-05-5.39785E-14
 -1      3542 9.84875E-03 5.15642E-05-5.22382E-14
 -1      3543 9.81248E-03 2.05957E-05-5.16064E-14
 -1      3544 1.02776E-02 1.77496E-05-5.75230E-14
 -1      3545 1.01353E-02 2.79907E-05-5.57409E-14
 -1      3546 1.00947E-02-2.15978E-06-5.50931E-14
 -1      3547 1.05612E-02-7.65014E-07-6.11510E-14
 -1      3548 1.04195E-02 8.23332E-06-5.93275E-14
 -1      3549 1.03750E-02-2.15925E-05-5.86662E-14
 -1      3550 1.08443E-02-1.78213E-05-6.48550E-14
 -1      3551 1.07028E-02-9.40875E-06-6.29929E-14
 -1      3552 1.06548E-02-3.92131E-05-6.23171E-14
 -1      3553 1.11274E-02-3.44107E-05-6.86359E-14
 -1      3554 1.09858E-02-2.61316E-05-6.67368E-14
 -1      3555 1.09349E-02-5.60718E-05-6.60448E-14
 -1      3556 1.14108E-02-5.11956E-05-7.24832E-14
 -1      3557 1.12691E-02-4.27528E-05-7.05500E-14
 -1      3558 1.12157E-02-7.28899E-05-6.98424E-14
 -1      3559 1.16947E-02-6.85884E-05-7.63946E-14
 -1      3560 1.15527E-02-5.98022E-05-7.44329E-14
 -1      3561 1.14974E-02-9.01404E-05-7.37093E-14
 -1      3562 1.19789E-02-8.68143E-05-8.03691E-14
 -1      3563 1.18367E-02-7.75917E-05-7.83736E-14
 -1      3564 1.17799E-02-1.08108E-04-7.76399E-14
 -1      3565 1.22635E-02-1.05965E-04-8.44010E-14
 -1      3566 1.21212E-02-9.62740E-05-8.23782E-14
 -1      3567 1.20632E-02-1.26933E-04-8.16303E-14
 -1      3568 1.25484E-02-1.26040E-04-8.84837E-14
 -1      3569 1.24059E-02-1.15890E-04-8.64363E-14
 -1      3570 1.23471E-02-1.46657E-04-8.56760E-14
 -1      3571 1.28336E-02-1.46982E-04-9.26163E-14
 -1      3572 1.26910E-02-1.36408E-04-9.05439E-14
 -1      3573 1.26315E-02-1.67251E-04-8.97732E-14
 -1      3574 1.31189E-02-1.68700E-04-9.67884E-14
 -1      3575 1.29762E-02-1.57751E-04-9.46983E-14
 -1      3576 1.29162E-02-1.88644E-04-9.39167E-14
 -1      3577 1.34044E-02-1.91086E-04-1.00990E-13
 -1      3578 1.32616E-02-1.79817E-04-9.88833E-14
 -1      3579 1.32013E-02-2.10742E-04-9.80971E-14
 -1      3580 4.71224E-03-1.54959E-04-1.71541E-14
 -1      3581 4.64710E-03-1.24640E-04-1.72063E-14
 -1      3582 1.38742E-02-7.03481E-04-1.09158E-13
 -1      3583 1.38619E-02-6.62021E-04-1.08889E-13
 -1      3584 1.38496E-02-6.20595E-04-1.08615E-13
 -1      3585 1.38374E-02-5.79191E-04-1.08338E-13
 -1      3586 1.37324E-02-6.30255E-04-1.06905E-13
 -1      3587 5.07607E-03-2.68335E-04-1.86161E-14
 -1      3588 4.93416E-03-2.30341E-04-1.78997E-14
 -1      3589 8.52538E-03 1.65649E-04-3.73837E-14
 -1      3590 8.74498E-03 5.81787E-05-3.86435E-14
 -1      3591 9.38949E-03-2.33373E-04-4.27239E-14
 -1      3592 9.32976E-03-2.54076E-04-4.25447E-14
 -1      3593 1.95012E-03 2.87665E-04-2.37944E-15
 -1      3594 1.80693E-03 2.82508E-04-2.05517E-15
 -1      3595 8.78392E-03 2.09717E-04-4.07023E-14
 -1      3596 8.61645E-03 2.51595E-04-3.91529E-14
 -1      3597 8.58913E-03 2.14242E-04-3.85794E-14
 -1      3598 8.92054E-03 1.38151E-04-4.16892E-14
 -1      3599 1.57073E-03-2.39154E-04-1.93975E-15
 -1      3600 1.71337E-03-2.46721E-04-2.26854E-15
 -1      3601 9.20942E-03-2.90749E-04-4.19871E-14
 -1      3602 9.06502E-03-3.38780E-04-4.13571E-14
 -1      3603 3.09100E-03 2.84853E-04-5.88094E-15
 -1      3604 2.94886E-03 2.87724E-04-5.35416E-15
 -1      3605 1.01035E-03-3.60744E-05-9.15676E-16
 -1      3606 1.01186E-03-6.09659E-05-9.23022E-16
 -1      3607 1.13238E-03-7.93923E-05-1.12199E-15
 -1      3608 8.89821E-03-4.22745E-04-4.09644E-14
 -1      3609 1.85601E-03-2.52439E-04-2.62348E-15
 -1      3610 1.99860E-03-2.56457E-04-3.00483E-15
 -1      3611 2.06063E-03-2.25025E-04-3.20588E-15
 -1      3612 4.53978E-03 2.92161E-04-1.25660E-14
 -1      3613 4.38827E-03 2.83193E-04-1.17802E-14
 -1      3614 4.27994E-03 2.37803E-04-1.15153E-14
 -1      3615 4.57669E-03 2.50185E-04-1.30916E-14
 -1      3616 9.41405E-03-1.99732E-04-4.26506E-14
 -1      3617 9.42242E-03-2.13759E-04-4.28192E-14
 -1      3618 5.14921E-03-3.19672E-04-1.85654E-14
 -1      3619 1.39004E-02-7.79252E-04-1.09709E-13
 -1      3620 1.38881E-02-7.37696E-04-1.09438E-13
 -1      3621 1.37586E-02-7.05690E-04-1.07454E-13
 -1      3622 1.37865E-02-7.74044E-04-1.08010E-13
 -1      3623 9.29458E-03-1.50460E-04-4.19301E-14
 -1      3624 9.37126E-03-1.78218E-04-4.23373E-14
 -1      3625 4.88873E-03-2.44829E-04-1.72732E-14
 -1      3626 4.79906E-03-2.00208E-04-1.71468E-14
 -1      3627 1.27824E-03 2.26386E-04-1.10247E-15
 -1      3628 1.27064E-03 1.93598E-04-1.14001E-15
 -1      3629 4.49755E-03-7.47596E-05-1.63383E-14
 -1      3630 4.49289E-03-6.59975E-05-1.61787E-14
 -1      3631 1.44295E-03-2.29365E-04-1.66781E-15
 -1      3632 1.50673E-03-2.03632E-04-1.82118E-15
 -1      3633 1.31544E-03-2.17929E-04-1.41654E-15
 -1      3634 4.69646E-03-2.20863E-04-1.60289E-14
 -1      3635 4.83774E-03-2.74409E-04-1.65330E-14
 -1      3636 7.47698E-03-1.06186E-03-3.16339E-14
 -1      3637 4.72437E-03 3.33823E-05-1.62128E-14
 -1      3638 4.70698E-03 7.15130E-05-1.55880E-14
 -1      3639 4.64760E-03 1.57635E-05-1.59487E-14
 -1      3640 2.46199E-03 3.28615E-04-3.63641E-15
 -1      3641 9.45811E-03-1.91196E-04-4.37142E-14
 -1      3642 2.80664E-03 2.90230E-04-4.85274E-15
 -1      3643 2.66427E-03 2.92236E-04-4.37775E-15
 -1      3644 2.86437E-03 2.54662E-04-5.18307E-15
 -1      3645 1.34546E-03 2.73913E-04-1.13881E-15
 -1      3646 1.30216E-03 2.46481E-04-1.11098E-15
 -1      3647 1.42104E-03 2.40176E-04-1.33762E-15
 -1      3648 1.47015E-03 2.81753E-04-1.35361E-15
 -1      3649 9.46827E-03-2.31532E-04-4.39377E-14
 -1      3650 3.70898E-03 2.37187E-04-8.67271E-15
 -1      3651 3.66024E-03 2.74209E-04-8.24372E-15
 -1      3652 3.51755E-03 2.76293E-04-7.61408E-15
 -1      3653 5.15503E-03 2.92693E-04-1.64004E-14
 -1      3654 4.67535E-03-1.70539E-04-1.65463E-14
 -1      3655 3.23308E-03 2.81863E-04-6.43305E-15
 -1      3656 3.14634E-03 2.48814E-04-6.24383E-15
 -1      3657 3.37524E-03 2.78926E-04-7.01095E-15
 -1      3658 9.27684E-03-1.22304E-04-4.24716E-14
 -1      3659 9.40109E-03-1.41788E-04-4.39410E-14
 -1      3660 9.26092E-03-8.88766E-05-4.30059E-14
 -1      3661 4.57152E-03-1.11915E-04-1.66893E-14
 -1      3662 1.35179E-02-2.07889E-04-1.02693E-13
 -1      3663 1.34574E-02-2.38807E-04-1.01897E-13
 -1      3664 1.36313E-02-2.24787E-04-1.04398E-13
 -1      3665 1.37702E-02-2.11574E-04-1.06388E-13
 -1      3666 8.37559E-03 2.46752E-04-3.64944E-14
 -1      3667 8.55625E-03 1.87646E-04-3.79624E-14
 -1      3668 1.25473E-03 1.01474E-04-1.23076E-15
 -1      3669 1.25162E-03 7.23642E-05-1.25486E-15
 -1      3670 1.37762E-02-3.73044E-04-1.06928E-13
 -1      3671 1.37639E-02-3.31478E-04-1.06636E-13
 -1      3672 1.24952E-03 4.35985E-05-1.27612E-15
 -1      3673 1.24844E-03 1.51334E-05-1.29446E-15
 -1      3674 1.37113E-03 6.08929E-05-1.48957E-15
 -1      3675 1.37080E-02-5.47942E-04-1.06357E-13
 -1      3676 1.38252E-02-5.38056E-04-1.08060E-13
 -1      3677 1.38130E-02-4.96914E-04-1.07782E-13
 -1      3678 8.91417E-03 1.89592E-05-4.02002E-14
 -1      3679 5.02316E-03 1.73029E-04-1.65950E-14
 -1      3680 5.08886E-03 2.35127E-04-1.64544E-14
 -1      3681 4.99260E-03 2.46283E-04-1.57076E-14
 -1      3682 4.85918E-03 1.42613E-04-1.58051E-14
 -1      3683 9.32221E-03-2.84334E-04-4.32776E-14
 -1      3684 2.23622E-03 2.93152E-04-3.10282E-15
 -1      3685 2.09321E-03 2.91170E-04-2.72864E-15
 -1      3686 2.01198E-03 2.55932E-04-2.60963E-15
 -1      3687 1.72639E-03 2.46464E-04-1.95236E-15
 -1      3688 1.66379E-03 2.75405E-04-1.75593E-15
 -1      3689 6.05577E-03 6.37236E-04-2.06088E-14
 -1      3690 4.59311E-03-4.34044E-05-1.66293E-14
 -1      3691 1.77639E-03-2.17655E-04-2.44603E-15
 -1      3692 1.53908E-03 2.71159E-04-1.50833E-15
 -1      3693 1.25129E-03-7.00960E-05-1.33316E-15
 -1      3694 1.25428E-03-9.91075E-05-1.34051E-15
 -1      3695 1.12889E-03-2.55906E-05-1.10459E-15
 -1      3696 8.21748E-03 3.45998E-04-3.55779E-14
 -1      3697 4.49029E-03-8.22838E-05-1.62491E-14
 -1      3698 1.36087E-02-2.98868E-04-1.04276E-13
 -1      3699 1.37261E-02-2.88215E-04-1.05962E-13
 -1      3700 1.37494E-03-1.40624E-04-1.56967E-15
 -1      3701 1.25596E-03-1.48776E-04-1.33589E-15
 -1      3702 4.45724E-03-5.26079E-05-1.56378E-14
 -1      3703 4.52109E-03-4.86264E-05-1.61301E-14
 -1      3704 4.56989E-03-2.64639E-05-1.60769E-14
 -1      3705 4.57053E-03-1.96785E-04-1.53444E-14
 -1      3706 4.62614E-03-1.90867E-04-1.58378E-14
 -1      3707 4.56124E-03-1.51433E-04-1.58498E-14
 -1      3708 4.44482E-03-1.91336E-04-1.44751E-14
 -1      3709 1.69819E-03-1.83750E-04-2.27189E-15
 -1      3710 1.84000E-03-1.88292E-04-2.62548E-15
 -1      3711 2.54473E-03-1.94382E-04-4.77533E-15
 -1      3712 2.68397E-03-1.93193E-04-5.28146E-15
 -1      3713 2.82235E-03-1.91573E-04-5.81314E-15
 -1      3714 2.95983E-03-1.89550E-04-6.37137E-15
 -1      3715 2.74325E-03-1.61068E-04-5.52858E-15
 -1      3716 3.09625E-03-1.87366E-04-6.95474E-15
 -1      3717 3.23160E-03-1.85029E-04-7.56392E-15
 -1      3718 3.01627E-03-1.57896E-04-6.63965E-15
 -1      3719 3.36571E-03-1.82800E-04-8.19791E-15
 -1      3720 3.49860E-03-1.80663E-04-8.85698E-15
 -1      3721 3.28433E-03-1.54230E-04-7.85266E-15
 -1      3722 3.63007E-03-1.78899E-04-9.54280E-15
 -1      3723 3.76025E-03-1.77457E-04-1.02535E-14
 -1      3724 3.54646E-03-1.50911E-04-9.16747E-15
 -1      3725 3.88887E-03-1.76626E-04-1.09893E-14
 -1      3726 4.01624E-03-1.76359E-04-1.17513E-14
 -1      3727 3.80167E-03-1.48679E-04-1.05840E-14
 -1      3728 4.14206E-03-1.76934E-04-1.25369E-14
 -1      3729 4.26683E-03-1.78160E-04-1.33476E-14
 -1      3730 4.04895E-03-1.48068E-04-1.21009E-14
 -1      3731 1.19732E-03-2.01401E-04-1.20413E-15
 -1      3732 4.98262E-03-3.10453E-04-1.72739E-14
 -1      3733 4.03419E-03 1.97068E-04-1.05084E-14
 -1      3734 3.89471E-03 1.98468E-04-9.79436E-15
 -1      3735 9.54256E-03-3.43090E-04-4.73097E-14
 -1      3736 9.66696E-03-3.52526E-04-4.90102E-14
 -1      3737 9.79173E-03-3.63116E-04-5.07334E-14
 -1      3738 9.91781E-03-3.74714E-04-5.24770E-14
 -1      3739 9.75289E-03-3.29096E-04-4.97224E-14
 -1      3740 1.00448E-02-3.87098E-04-5.42447E-14
 -1      3741 1.01732E-02-4.00286E-04-5.60326E-14
 -1      3742 9.99571E-03-3.53067E-04-5.32082E-14
 -1      3743 1.03027E-02-4.14026E-04-5.78388E-14
 -1      3744 1.04335E-02-4.28368E-04-5.96648E-14
 -1      3745 1.02460E-02-3.79213E-04-5.67750E-14
 -1      3746 1.05654E-02-4.43078E-04-6.15080E-14
 -1      3747 1.06985E-02-4.58194E-04-6.33688E-14
 -1      3748 1.05029E-02-4.07133E-04-6.04168E-14
 -1      3749 1.08326E-02-4.73511E-04-6.52462E-14
 -1      3750 1.09677E-02-4.89055E-04-6.71400E-14
 -1      3751 1.07655E-02-4.36344E-04-6.41316E-14
 -1      3752 1.11036E-02-5.04658E-04-6.90516E-14
 -1      3753 1.12404E-02-5.20343E-04-7.09784E-14
 -1      3754 1.10330E-02-4.66325E-04-6.79127E-14
 -1      3755 1.13779E-02-5.35980E-04-7.29200E-14
 -1      3756 1.15160E-02-5.51589E-04-7.48761E-14
 -1      3757 1.13044E-02-4.96604E-04-7.17588E-14
 -1      3758 1.16548E-02-5.67076E-04-7.68464E-14
 -1      3759 1.17941E-02-5.82463E-04-7.88280E-14
 -1      3760 1.15791E-02-5.26812E-04-7.56652E-14
 -1      3761 1.19339E-02-5.97686E-04-8.08235E-14
 -1      3762 1.20741E-02-6.12766E-04-8.28336E-14
 -1      3763 1.18564E-02-5.56688E-04-7.96251E-14
 -1      3764 1.22147E-02-6.27663E-04-8.48561E-14
 -1      3765 1.23556E-02-6.42397E-04-8.68915E-14
 -1      3766 1.21359E-02-5.86075E-04-8.36362E-14
 -1      3767 1.24968E-02-6.56947E-04-8.89406E-14
 -1      3768 1.26383E-02-6.71331E-04-9.10018E-14
 -1      3769 1.24170E-02-6.14894E-04-8.77028E-14
 -1      3770 1.27800E-02-6.85541E-04-9.30733E-14
 -1      3771 1.29218E-02-6.99594E-04-9.51564E-14
 -1      3772 1.26993E-02-6.43129E-04-9.18158E-14
 -1      3773 1.30639E-02-7.13490E-04-9.72536E-14
 -1      3774 1.32061E-02-7.27245E-04-9.93590E-14
 -1      3775 1.29827E-02-6.70803E-04-9.59800E-14
 -1      3776 1.33484E-02-7.40864E-04-1.01474E-13
 -1      3777 1.34908E-02-7.54361E-04-1.03597E-13
 -1      3778 1.32667E-02-6.97970E-04-1.00187E-13
 -1      3779 1.35817E-02-7.61583E-04-1.04956E-13
 -1      3780 1.36955E-02-7.66934E-04-1.06650E-13
 -1      3781 1.36816E-02-7.32790E-04-1.06373E-13
 -1      3782 1.34998E-02-7.18564E-04-1.03660E-13
 -1      3783 1.37095E-02-2.42552E-04-1.05588E-13
 -1      3784 4.83290E-03 2.27918E-04-1.48280E-14
 -1      3785 1.37884E-02-4.14289E-04-1.07214E-13
 -1      3786 1.36589E-02-3.83181E-04-1.05234E-13
 -1      3787 1.38007E-02-4.55487E-04-1.07499E-13
 -1      3788 9.91805E-03-2.12481E-05-5.26953E-14
 -1      3789 9.77909E-03-9.96176E-06-5.09702E-14
 -1      3790 9.63925E-03 2.36169E-06-4.92665E-14
 -1      3791 9.49776E-03 1.63805E-05-4.75843E-14
 -1      3792 9.74865E-03-4.01932E-05-5.03309E-14
 -1      3793 9.35432E-03 3.21472E-05-4.59271E-14
 -1      3794 9.20784E-03 5.07966E-05-4.42937E-14
 -1      3795 9.47406E-03-1.64258E-05-4.69602E-14
 -1      3796 1.01943E-02-4.13364E-05-5.62119E-14
 -1      3797 1.00563E-02-3.16032E-05-5.44433E-14
 -1      3798 1.00199E-02-6.03716E-05-5.37905E-14
 -1      3799 1.04700E-02-5.94629E-05-5.98104E-14
 -1      3800 1.03321E-02-5.05709E-05-5.80008E-14
 -1      3801 1.02908E-02-7.87027E-05-5.73347E-14
 -1      3802 1.07464E-02-7.66670E-05-6.34848E-14
 -1      3803 1.06081E-02-6.81357E-05-6.16387E-14
 -1      3804 1.05626E-02-9.61587E-05-6.09575E-14
 -1      3805 1.10240E-02-9.36668E-05-6.72333E-14
 -1      3806 1.08850E-02-8.51660E-05-6.53489E-14
 -1      3807 1.08361E-02-1.13384E-04-6.46552E-14
 -1      3808 1.13029E-02-1.10949E-04-7.10517E-14
 -1      3809 1.11633E-02-1.02258E-04-6.91342E-14
 -1      3810 1.11116E-02-1.30821E-04-6.84238E-14
 -1      3811 1.15831E-02-1.28828E-04-7.49367E-14
 -1      3812 1.14428E-02-1.19807E-04-7.29855E-14
 -1      3813 1.13889E-02-1.48764E-04-7.22612E-14
 -1      3814 1.18646E-02-1.47479E-04-7.88854E-14
 -1      3815 1.17237E-02-1.38056E-04-7.69053E-14
 -1      3816 1.16680E-02-1.67397E-04-7.61676E-14
 -1      3817 1.21470E-02-1.66977E-04-8.28924E-14
 -1      3818 1.20057E-02-1.57126E-04-8.08816E-14
 -1      3819 1.19486E-02-1.86812E-04-8.01327E-14
 -1      3820 1.24303E-02-1.87321E-04-8.69519E-14
 -1      3821 1.22886E-02-1.77048E-04-8.49163E-14
 -1      3822 1.22304E-02-2.07029E-04-8.41546E-14
 -1      3823 1.27143E-02-2.08462E-04-9.10603E-14
 -1      3824 1.25722E-02-1.97798E-04-8.89991E-14
 -1      3825 1.25133E-02-2.28019E-04-8.82255E-14
 -1      3826 1.29988E-02-2.30323E-04-9.52200E-14
 -1      3827 1.28565E-02-2.19309E-04-9.31360E-14
 -1      3828 1.27969E-02-2.49720E-04-9.23506E-14
 -1      3829 1.32836E-02-2.52808E-04-9.94059E-14
 -1      3830 1.31412E-02-2.41494E-04-9.73087E-14
 -1      3831 1.30812E-02-2.72051E-04-9.65192E-14
 -1      3832 1.26182E-03-1.79751E-04-1.33509E-15
 -1      3833 2.52176E-03 2.93495E-04-3.92759E-15
 -1      3834 2.37906E-03 2.93886E-04-3.50227E-15
 -1      3835 2.29711E-03 2.59537E-04-3.36660E-15
 -1      3836 8.88210E-03 7.37632E-05-4.05735E-14
 -1      3837 9.08051E-03-9.27984E-06-4.19313E-14
 -1      3838 1.26421E-03 1.61976E-04-1.17359E-15
 -1      3839 1.25895E-03 1.31300E-04-1.20402E-15
 -1      3840 1.37806E-03 1.22346E-04-1.43516E-15
 -1      3841 1.38961E-03 1.86569E-04-1.36704E-15
 -1      3842 4.51144E-03-1.13908E-04-1.59868E-14
 -1      3843 4.49353E-03-9.64189E-05-1.61195E-14
 -1      3844 4.42935E-03-8.27938E-05-1.55584E-14
 -1      3845 1.78957E-03 2.17102E-04-2.15573E-15
 -1      3846 1.64718E-03 2.11378E-04-1.84748E-15
 -1      3847 1.35028E-02-2.84190E-04-1.02689E-13
 -1      3848 1.33895E-02-2.67314E-04-1.00988E-13
 -1      3849 1.33292E-02-2.97946E-04-1.00194E-13
 -1      3850 1.35408E-02-3.27244E-04-1.03359E-13
 -1      3851 1.24837E-03-1.31324E-05-1.31003E-15
 -1      3852 1.24931E-03-4.14997E-05-1.32278E-15
 -1      3853 1.37079E-03-5.87435E-05-1.56113E-15
 -1      3854 1.36871E-03 9.85953E-07-1.53139E-15
 -1      3855 1.36153E-02-6.39774E-04-1.05197E-13
 -1      3856 1.36031E-02-5.98593E-04-1.04927E-13
 -1      3857 8.72592E-03 1.44733E-04-3.94962E-14
 -1      3858 2.26421E-03-1.94737E-04-3.83856E-15
 -1      3859 2.40480E-03-1.94912E-04-4.29423E-15
 -1      3860 2.46621E-03-1.62861E-04-4.52008E-15
 -1      3861 1.98168E-03-1.91561E-04-3.00446E-15
 -1      3862 2.12315E-03-1.93646E-04-3.40865E-15
 -1      3863 2.18615E-03-1.62366E-04-3.61266E-15
 -1      3864 9.04846E-03-3.61438E-04-4.16415E-14
 -1      3865 9.55227E-03-2.31488E-04-4.53006E-14
 -1      3866 9.52150E-03-2.52889E-04-4.52047E-14
 -1      3867 9.51564E-03-1.82746E-04-4.49589E-14
 -1      3868 9.55396E-03-2.06388E-04-4.52835E-14
 -1      3869 9.44110E-03-2.84421E-04-4.48188E-14
 -1      3870 9.33020E-03-3.20368E-04-4.42468E-14
 -1      3871 4.38299E-03-5.54406E-05-1.50127E-14
 -1      3872 4.40485E-03-3.68932E-05-1.49653E-14
 -1      3873 4.33757E-03-1.58018E-04-1.40046E-14
 -1      3874 1.47266E-03-1.58821E-04-1.76783E-15
 -1      3875 1.59942E-03-1.65800E-04-2.04661E-15
 -1      3876 1.66464E-03-1.38398E-04-2.20673E-15
 -1      3877 1.46995E-03-1.05115E-04-1.77145E-15
 -1      3878 4.31645E-03 1.97873E-04-1.20116E-14
 -1      3879 4.17452E-03 1.96696E-04-1.12475E-14
 -1      3880 4.07339E-03 1.59596E-04-1.09768E-14
 -1      3881 4.36080E-03-7.07663E-05-1.48928E-14
 -1      3882 4.29356E-03-5.74032E-05-1.42403E-14
 -1      3883 4.35168E-03-8.60110E-05-1.47693E-14
 -1      3884 1.90415E-03-1.58655E-04-2.80661E-15
 -1      3885 9.32306E-03-3.39029E-04-4.45396E-14
 -1      3886 9.44973E-03-3.45161E-04-4.62028E-14
 -1      3887 9.54996E-03-2.81117E-04-4.61986E-14
 -1      3888 4.55258E-03 3.71173E-06-1.54632E-14
 -1      3889 9.54801E-03-3.17528E-04-4.69046E-14
 -1      3890 2.92172E-03 2.19641E-04-5.51822E-15
 -1      3891 2.78147E-03 2.22217E-04-5.00943E-15
 -1      3892 2.58131E-03 2.58668E-04-4.22396E-15
 -1      3893 3.75591E-03 2.00739E-04-9.10628E-15
 -1      3894 3.61726E-03 2.03542E-04-8.44359E-15
 -1      3895 3.80102E-03 1.64871E-04-9.54381E-15
 -1      3896 1.49374E-03 7.92912E-05-1.71812E-15
 -1      3897 1.49117E-03 4.77139E-05-1.74525E-15
 -1      3898 1.36835E-02-4.65627E-04-1.05800E-13
 -1      3899 3.42758E-03 2.42481E-04-7.40655E-15
 -1      3900 9.21629E-03-2.95830E-05-4.34197E-14
 -1      3901 9.36219E-03-6.08439E-05-4.49052E-14
 -1      3902 9.06389E-03 7.59405E-05-4.27967E-14
 -1      3903 8.90842E-03 1.02849E-04-4.12090E-14
 -1      3904 3.06151E-03 2.16686E-04-6.05249E-15
 -1      3905 2.97874E-03 1.85252E-04-5.85873E-15
 -1      3906 3.20092E-03 2.13429E-04-6.61161E-15
 -1      3907 4.46212E-03-1.30490E-04-1.52989E-14
 -1      3908 1.35909E-02-5.57703E-04-1.04655E-13
 -1      3909 1.35787E-02-5.16820E-04-1.04382E-13
 -1      3910 1.34739E-02-5.67319E-04-1.02953E-13
 -1      3911 1.36677E-02-6.98701E-04-1.06097E-13
 -1      3912 1.35531E-02-3.68340E-04-1.03646E-13
 -1      3913 1.34474E-02-3.53566E-04-1.02061E-13
 -1      3914 1.35654E-02-4.09368E-04-1.03929E-13
 -1      3915 1.93194E-03 2.21317E-04-2.48842E-15
 -1      3916 1.85323E-03 1.87379E-04-2.36544E-15
 -1      3917 2.07425E-03 2.24108E-04-2.84603E-15
 -1      3918 4.71289E-03 1.34532E-04-1.49243E-14
 -1      3919 4.77435E-03 1.80210E-04-1.48787E-14
 -1      3920 4.67880E-03 2.16137E-04-1.39739E-14
 -1      3921 9.52889E-03-1.36391E-04-4.60657E-14
 -1      3922 9.52397E-03-1.61484E-04-4.55143E-14
 -1      3923 9.63997E-03-1.79345E-04-4.71099E-14
 -1      3924 1.46428E-03-4.25638E-05-1.74805E-15
 -1      3925 1.46651E-03-7.36489E-05-1.76145E-15
 -1      3926 1.56281E-03-8.90898E-05-1.97382E-15
 -1      3927 4.52947E-03 2.08120E-04-1.31457E-14
 -1      3928 9.18163E-03-3.48453E-04-4.29987E-14
 -1      3929 1.54089E-03 1.35806E-04-1.74500E-15
 -1      3930 1.66040E-03 1.22996E-04-2.02412E-15
 -1      3931 1.35383E-02-6.66778E-04-1.04120E-13
 -1      3932 9.62988E-03-2.25915E-04-4.65709E-14
 -1      3933 4.35326E-03-1.09237E-05-1.42416E-14
 -1      3934 4.44911E-03-4.85980E-06-1.48461E-14
 -1      3935 4.51110E-03 3.60599E-05-1.47189E-14
 -1      3936 4.31003E-03-1.20731E-04-1.41421E-14
 -1      3937 4.41480E-03 1.62494E-04-1.28526E-14
 -1      3938 2.10963E-03-1.30384E-04-3.39044E-15
 -1      3939 2.24984E-03-1.31243E-04-3.81666E-15
 -1      3940 1.65963E-03-1.04923E-04-2.19784E-15
 -1      3941 1.75696E-03-1.21008E-04-2.43353E-15
 -1      3942 1.65599E-03-7.19165E-05-2.18495E-15
 -1      3943 2.93892E-03-1.28576E-04-6.32876E-15
 -1      3944 3.07337E-03-1.27263E-04-6.90767E-15
 -1      3945 3.20634E-03-1.25998E-04-7.51168E-15
 -1      3946 3.33775E-03-1.24703E-04-8.14099E-15
 -1      3947 3.13141E-03-9.76867E-05-7.17453E-15
 -1      3948 3.46734E-03-1.23647E-04-8.79605E-15
 -1      3949 3.59505E-03-1.22691E-04-9.47666E-15
 -1      3950 3.39224E-03-9.64733E-05-8.42887E-15
 -1      3951 3.72055E-03-1.22162E-04-1.01821E-14
 -1      3952 3.84380E-03-1.21779E-04-1.09131E-14
 -1      3953 3.64491E-03-9.60414E-05-9.78387E-15
 -1      3954 3.96425E-03-1.21913E-04-1.16691E-14
 -1      3955 4.08203E-03-1.22143E-04-1.24501E-14
 -1      3956 3.88738E-03-9.67279E-05-1.12407E-14
 -1      3957 9.62877E-03-2.83189E-04-4.73007E-14
 -1      3958 2.64080E-03 2.24217E-04-4.52668E-15
 -1      3959 2.49968E-03 2.25572E-04-4.06883E-15
 -1      3960 2.70024E-03 1.90230E-04-4.83451E-15
 -1      3961 9.94642E-03-3.21097E-04-5.21731E-14
 -1      3962 1.00666E-02-3.33508E-04-5.39327E-14
 -1      3963 1.01891E-02-3.46153E-04-5.57131E-14
 -1      3964 1.03137E-02-3.59311E-04-5.75120E-14
 -1      3965 1.01312E-02-3.14822E-04-5.46546E-14
 -1      3966 1.04402E-02-3.72704E-04-5.93309E-14
 -1      3967 1.05686E-02-3.86518E-04-6.11669E-14
 -1      3968 1.03769E-02-3.39776E-04-5.82463E-14
 -1      3969 1.06984E-02-4.00508E-04-6.30188E-14
 -1      3970 1.08298E-02-4.14785E-04-6.48892E-14
 -1      3971 1.06309E-02-3.65988E-04-6.19094E-14
 -1      3972 1.09624E-02-4.29154E-04-6.67772E-14
 -1      3973 1.10962E-02-4.43685E-04-6.86802E-14
 -1      3974 1.08915E-02-3.93138E-04-6.56422E-14
 -1      3975 1.12310E-02-4.58231E-04-7.06007E-14
 -1      3976 1.13668E-02-4.72841E-04-7.25357E-14
 -1      3977 1.11575E-02-4.20861E-04-6.94436E-14
 -1      3978 1.15035E-02-4.87399E-04-7.44844E-14
 -1      3979 1.16410E-02-5.01946E-04-7.64484E-14
 -1      3980 1.14279E-02-4.48849E-04-7.33071E-14
 -1      3981 1.17791E-02-5.16403E-04-7.84268E-14
 -1      3982 1.19179E-02-5.30795E-04-8.04167E-14
 -1      3983 1.17019E-02-4.76841E-04-7.72284E-14
 -1      3984 1.20572E-02-5.45071E-04-8.24203E-14
 -1      3985 1.21970E-02-5.59256E-04-8.44361E-14
 -1      3986 1.19787E-02-5.04669E-04-8.12053E-14
 -1      3987 1.23373E-02-5.73314E-04-8.64671E-14
 -1      3988 1.24779E-02-5.87266E-04-8.85101E-14
 -1      3989 1.22577E-02-5.32224E-04-8.52350E-14
 -1      3990 1.26188E-02-6.01091E-04-9.05637E-14
 -1      3991 1.27601E-02-6.14809E-04-9.26306E-14
 -1      3992 1.25385E-02-5.59449E-04-8.93147E-14
 -1      3993 1.29016E-02-6.28409E-04-9.47095E-14
 -1      3994 1.30433E-02-6.41907E-04-9.68034E-14
 -1      3995 1.28206E-02-5.86326E-04-9.34440E-14
 -1      3996 9.85340E-03-7.90485E-05-5.14005E-14
 -1      3997 9.72111E-03-6.95546E-05-4.96882E-14
 -1      3998 1.35783E-02-4.83728E-04-1.04295E-13
 -1      3999 1.35659E-02-4.42539E-04-1.04016E-13
 -1      4000 1.34603E-02-4.27590E-04-1.02430E-13
 -1      4001 1.34613E-02-4.93621E-04-1.02600E-13
 -1      4002 9.19697E-03 1.75954E-05-4.37984E-14
 -1      4003 1.03841E-02-1.14477E-04-5.84596E-14
 -1      4004 1.02507E-02-1.05800E-04-5.66649E-14
 -1      4005 1.01179E-02-9.70372E-05-5.48889E-14
 -1      4006 9.98546E-03-8.81408E-05-5.31345E-14
 -1      4007 1.02117E-02-1.31834E-04-5.59923E-14
 -1      4008 1.86299E-03-1.25122E-04-2.70400E-15
 -1      4009 2.00385E-03-1.27224E-04-3.08629E-15
 -1      4010 2.06941E-03-9.70541E-05-3.27223E-15
 -1      4011 1.85822E-03-9.07810E-05-2.69053E-15
 -1      4012 1.06527E-02-1.31855E-04-6.21076E-14
 -1      4013 1.05180E-02-1.23164E-04-6.02739E-14
 -1      4014 1.04742E-02-1.49122E-04-5.95877E-14
 -1      4015 1.09239E-02-1.49501E-04-6.58270E-14
 -1      4016 1.07879E-02-1.40642E-04-6.39588E-14
 -1      4017 1.07403E-02-1.66911E-04-6.32598E-14
 -1      4018 1.11977E-02-1.67640E-04-6.96156E-14
 -1      4019 1.10605E-02-1.58511E-04-6.77133E-14
 -1      4020 1.10098E-02-1.85297E-04-6.70015E-14
 -1      4021 1.14738E-02-1.86413E-04-7.34738E-14
 -1      4022 1.13355E-02-1.76951E-04-7.15379E-14
 -1      4023 1.12824E-02-2.04338E-04-7.08102E-14
 -1      4024 1.17521E-02-2.05908E-04-7.73986E-14
 -1      4025 1.16127E-02-1.96075E-04-7.54273E-14
 -1      4026 1.15577E-02-2.24062E-04-7.46887E-14
 -1      4027 1.20320E-02-2.26153E-04-8.13792E-14
 -1      4028 1.18918E-02-2.15944E-04-7.93810E-14
 -1      4029 1.18353E-02-2.44489E-04-7.86288E-14
 -1      4030 1.23134E-02-2.47124E-04-8.54129E-14
 -1      4031 1.21726E-02-2.36555E-04-8.33904E-14
 -1      4032 1.21149E-02-2.65595E-04-8.26257E-14
 -1      4033 1.25960E-02-2.68777E-04-8.95007E-14
 -1      4034 1.24546E-02-2.57872E-04-8.74524E-14
 -1      4035 1.23960E-02-2.87333E-04-8.66746E-14
 -1      4036 1.28794E-02-2.91043E-04-9.36421E-14
 -1      4037 1.27376E-02-2.79840E-04-9.15639E-14
 -1      4038 1.26784E-02-3.09648E-04-9.07781E-14
 -1      4039 1.31635E-02-3.13844E-04-9.78195E-14
 -1      4040 1.30214E-02-3.02384E-04-9.57273E-14
 -1      4041 1.29617E-02-3.32472E-04-9.49295E-14
 -1      4042 1.48983E-03 1.65514E-05-1.76894E-15
 -1      4043 1.48973E-03-1.44995E-05-1.78899E-15
 -1      4044 1.61169E-03 3.31926E-05-2.02145E-15
 -1      4045 1.55412E-03 2.03457E-04-1.66486E-15
 -1      4046 1.54686E-03 1.69207E-04-1.70691E-15
 -1      4047 3.47870E-03 2.06712E-04-7.80693E-15
 -1      4048 3.33993E-03 2.10068E-04-7.19668E-15
 -1      4049 3.25482E-03 1.78768E-04-6.98429E-15
 -1      4050 3.52868E-03 1.71664E-04-8.21282E-15
 -1      4051 4.62980E-03 7.87788E-05-1.49834E-14
 -1      4052 4.55197E-03 1.17527E-04-1.40885E-14
 -1      4053 1.33582E-02-3.40951E-04-1.00727E-13
 -1      4054 1.32526E-02-3.26324E-04-9.91459E-14
 -1      4055 1.31926E-02-3.56570E-04-9.83475E-14
 -1      4056 1.33706E-02-3.81802E-04-1.01009E-13
 -1      4057 2.38943E-03-1.31532E-04-4.26846E-15
 -1      4058 2.52829E-03-1.31280E-04-4.74558E-15
 -1      4059 2.31430E-03-1.00312E-04-4.02132E-15
 -1      4060 4.35265E-03 1.13731E-04-1.29145E-14
 -1      4061 1.51447E-03 2.50323E-04-1.49956E-15
 -1      4062 1.49033E-03 2.29907E-04-1.48915E-15
 -1      4063 9.48970E-03-5.39012E-05-4.67305E-14
 -1      4064 9.51128E-03-1.05621E-04-4.63125E-14
 -1      4065 9.64534E-03-1.28957E-04-4.79206E-14
 -1      4066 9.62259E-03-6.44212E-05-4.84028E-14
 -1      4067 1.80158E-03 1.26258E-04-2.34861E-15
 -1      4068 1.75432E-03 6.74205E-05-2.31762E-15
 -1      4069 1.94278E-03 1.28527E-04-2.69812E-15
 -1      4070 2.35819E-03 2.26081E-04-3.63593E-15
 -1      4071 2.21635E-03 2.25660E-04-3.22852E-15
 -1      4072 2.13690E-03 1.92233E-04-3.08881E-15
 -1      4073 2.41947E-03 1.92860E-04-3.91141E-15
 -1      4074 9.71798E-03-2.21700E-04-4.80248E-14
 -1      4075 9.71347E-03-2.49132E-04-4.80447E-14
 -1      4076 2.66624E-03-1.30671E-04-5.24819E-15
 -1      4077 2.80317E-03-1.29700E-04-5.77541E-15
 -1      4078 2.86394E-03-9.91336E-05-6.02200E-15
 -1      4079 9.71365E-03-2.69878E-04-4.82795E-14
 -1      4080 9.73071E-03-3.02022E-04-4.90058E-14
 -1      4081 9.84629E-03-3.13790E-04-5.07274E-14
 -1      4082 1.75204E-03 3.40848E-05-2.34937E-15
 -1      4083 2.75987E-03 1.56782E-04-5.14759E-15
 -1      4084 2.62081E-03 1.58678E-04-4.65742E-15
 -1      4085 4.20055E-03-5.68789E-05-1.34800E-14
 -1      4086 4.22686E-03-3.93838E-05-1.35928E-14
 -1      4087 9.91391E-03-2.95472E-04-5.14366E-14
 -1      4088 2.59117E-03-1.00219E-04-4.97096E-15
 -1      4089 9.95267E-03-1.14890E-04-5.24754E-14
 -1      4090 1.31852E-02-6.55301E-04-9.89045E-14
 -1      4091 1.33273E-02-6.68604E-04-1.01015E-13
 -1      4092 1.34475E-02-6.59758E-04-1.02765E-13
 -1      4093 3.84460E-03 1.29953E-04-9.98565E-15
 -1      4094 3.71143E-03 1.33732E-04-9.29110E-15
 -1      4095 1.33658E-02-6.17153E-04-1.01472E-13
 -1      4096 3.03572E-03 1.51589E-04-6.20416E-15
 -1      4097 2.89817E-03 1.54425E-04-5.66299E-15
 -1      4098 2.81976E-03 1.23948E-04-5.46617E-15
 -1      4099 1.58486E-03-2.81432E-05-2.00466E-15
 -1      4100 4.16717E-03-1.13232E-04-1.30989E-14
 -1      4101 4.30625E-03-9.04398E-05-1.43419E-14
 -1      4102 9.74783E-03-2.03391E-04-4.86007E-14
 -1      4103 9.84898E-03-2.27482E-04-5.01068E-14
 -1      4104 9.77165E-03-1.82973E-04-4.91700E-14
 -1      4105 4.10985E-03 1.22989E-04-1.14499E-14
 -1      4106 3.97718E-03 1.26301E-04-1.07052E-14
 -1      4107 3.88677E-03 9.60400E-05-1.04311E-14
 -1      4108 9.72873E-03-1.02251E-04-4.94503E-14
 -1      4109 4.55584E-03 5.93283E-05-1.47318E-14
 -1      4110 9.81727E-03-2.66364E-04-4.97625E-14
 -1      4111 1.33538E-02-5.76542E-04-1.01209E-13
 -1      4112 1.33417E-02-5.35960E-04-1.00941E-13
 -1      4113 1.32338E-02-5.85575E-04-9.94660E-14
 -1      4114 4.09154E-03-8.93908E-05-1.26419E-14
 -1      4115 4.43883E-03 4.58932E-05-1.41324E-14
 -1      4116 1.31038E-02-6.12874E-04-9.76220E-14
 -1      4117 3.05931E-03-6.91836E-05-6.84165E-15
 -1      4118 3.19099E-03-6.90650E-05-7.44045E-15
 -1      4119 1.68037E-03-4.23417E-05-2.23205E-15
 -1      4120 1.77626E-03-5.69822E-05-2.47198E-15
 -1      4121 1.70590E-03-1.25559E-05-2.27657E-15
 -1      4122 1.10938E-02-2.20917E-04-6.81754E-14
 -1      4123 1.09591E-02-2.11137E-04-6.62861E-14
 -1      4124 1.05611E-02-1.82901E-04-6.07193E-14
 -1      4125 1.04306E-02-1.73914E-04-5.88984E-14
 -1      4126 2.51796E-03-6.97232E-05-4.69880E-15
 -1      4127 2.65517E-03-6.96495E-05-5.19654E-15
 -1      4128 3.32083E-03-6.91906E-05-8.06495E-15
 -1      4129 3.44866E-03-6.94031E-05-8.71479E-15
 -1      4130 3.25247E-03-4.13737E-05-7.70542E-15
 -1      4131 3.57421E-03-7.00116E-05-9.38976E-15
 -1      4132 3.69724E-03-7.07751E-05-1.00900E-14
 -1      4133 3.50753E-03-4.34342E-05-8.99924E-15
 -1      4134 3.81740E-03-7.20986E-05-1.08163E-14
 -1      4135 3.93429E-03-7.34590E-05-1.15672E-14
 -1      4136 3.75281E-03-4.68175E-05-1.03952E-14
 -1      4137 1.00711E-02-2.85112E-04-5.35996E-14
 -1      4138 1.01902E-02-2.96556E-04-5.53728E-14
 -1      4139 4.17227E-03-1.66634E-05-1.30152E-14
 -1      4140 4.27554E-03-1.76794E-05-1.37605E-14
 -1      4141 9.91117E-03-2.73130E-04-5.11938E-14
 -1      4142 1.03119E-02-3.08208E-04-5.71648E-14
 -1      4143 1.04361E-02-3.20325E-04-5.89749E-14
 -1      4144 1.02446E-02-2.77881E-04-5.60870E-14
 -1      4145 1.05622E-02-3.32652E-04-6.08043E-14
 -1      4146 1.06902E-02-3.45355E-04-6.26472E-14
 -1      4147 1.04919E-02-3.00467E-04-5.96992E-14
 -1      4148 1.08199E-02-3.58180E-04-6.45107E-14
 -1      4149 1.09510E-02-3.71267E-04-6.63921E-14
 -1      4150 1.07471E-02-3.24240E-04-6.33833E-14
 -1      4151 1.10835E-02-3.84433E-04-6.82885E-14
 -1      4152 1.12172E-02-3.97760E-04-7.02018E-14
 -1      4153 1.10088E-02-3.48915E-04-6.71360E-14
 -1      4154 1.13520E-02-4.11118E-04-7.21302E-14
 -1      4155 1.14878E-02-4.24563E-04-7.40730E-14
 -1      4156 1.12756E-02-3.74195E-04-7.09562E-14
 -1      4157 1.16244E-02-4.37987E-04-7.60317E-14
 -1      4158 1.17619E-02-4.51447E-04-7.80062E-14
 -1      4159 1.15467E-02-3.99821E-04-7.48380E-14
 -1      4160 1.19000E-02-4.64868E-04-7.99923E-14
 -1      4161 1.20388E-02-4.78275E-04-8.19914E-14
 -1      4162 1.18212E-02-4.25662E-04-7.87797E-14
 -1      4163 1.21781E-02-4.91632E-04-8.40048E-14
 -1      4164 1.23179E-02-5.04955E-04-8.60303E-14
 -1      4165 1.20984E-02-4.51545E-04-8.27764E-14
 -1      4166 1.24581E-02-5.18210E-04-8.80681E-14
 -1      4167 1.25988E-02-5.31423E-04-9.01186E-14
 -1      4168 1.23777E-02-4.77387E-04-8.68234E-14
 -1      4169 1.27397E-02-5.44570E-04-9.21819E-14
 -1      4170 1.28810E-02-5.57665E-04-9.42575E-14
 -1      4171 1.26588E-02-5.03146E-04-9.09210E-14
 -1      4172 4.02519E-03-6.60838E-05-1.21883E-14
 -1      4173 3.62630E-03 1.04445E-04-9.03711E-15
 -1      4174 3.57782E-03 1.37550E-04-8.62271E-15
 -1      4175 3.44343E-03 1.41345E-04-7.97967E-15
 -1      4176 1.03013E-02-1.65095E-04-5.70976E-14
 -1      4177 1.01732E-02-1.56565E-04-5.53162E-14
 -1      4178 1.03869E-02-1.97482E-04-5.82074E-14
 -1      4179 1.13657E-02-2.41020E-04-7.20073E-14
 -1      4180 1.12293E-02-2.30901E-04-7.00832E-14
 -1      4181 1.11762E-02-2.56592E-04-6.93544E-14
 -1      4182 1.16406E-02-2.61789E-04-7.59068E-14
 -1      4183 1.15028E-02-2.51331E-04-7.39483E-14
 -1      4184 1.14478E-02-2.77865E-04-7.32072E-14
 -1      4185 1.19179E-02-2.83195E-04-7.98625E-14
 -1      4186 1.17790E-02-2.72420E-04-7.78777E-14
 -1      4187 1.17225E-02-2.99735E-04-7.71258E-14
 -1      4188 1.21973E-02-3.05182E-04-8.38730E-14
 -1      4189 1.20574E-02-2.94126E-04-8.18619E-14
 -1      4190 1.19998E-02-3.22124E-04-8.10972E-14
 -1      4191 1.24783E-02-3.27688E-04-8.79386E-14
 -1      4192 1.23376E-02-3.16376E-04-8.58983E-14
 -1      4193 1.22792E-02-3.44984E-04-8.51233E-14
 -1      4194 1.27605E-02-3.50655E-04-9.20533E-14
 -1      4195 1.26192E-02-3.39119E-04-8.99902E-14
 -1      4196 1.25602E-02-3.68240E-04-8.92006E-14
 -1      4197 1.30438E-02-3.74019E-04-9.62203E-14
 -1      4198 1.29020E-02-3.62296E-04-9.41330E-14
 -1      4199 1.28425E-02-3.91834E-04-9.33328E-14
 -1      4200 4.32509E-03 4.51948E-05-1.34138E-14
 -1      4201 4.36139E-03 6.59110E-05-1.34256E-14
 -1      4202 2.24079E-03-6.92592E-05-3.77930E-15
 -1      4203 2.37979E-03-6.95853E-05-4.22650E-15
 -1      4204 2.44641E-03-3.90863E-05-4.43146E-15
 -1      4205 2.54319E-03 1.27420E-04-4.47851E-15
 -1      4206 2.48113E-03 1.59952E-04-4.19245E-15
 -1      4207 2.34083E-03 1.60572E-04-3.75251E-15
 -1      4208 1.84651E-03 2.06217E-05-2.59745E-15
 -1      4209 1.08254E-02-2.01524E-04-6.44137E-14
 -1      4210 1.06927E-02-1.92127E-04-6.25575E-14
 -1      4211 1.06450E-02-2.16263E-04-6.18529E-14
 -1      4212 1.09084E-02-2.36016E-04-6.55692E-14
 -1      4213 4.06151E-03-1.63974E-05-1.22567E-14
 -1      4214 4.11225E-03 7.67582E-06-1.24125E-14
 -1      4215 4.22927E-03 1.10047E-04-1.22284E-14
 -1      4216 9.75094E-03-1.31154E-04-4.94420E-14
 -1      4217 9.75596E-03-1.58968E-04-4.91897E-14
 -1      4218 9.87308E-03-1.85654E-04-5.07113E-14
 -1      4219 9.84338E-03-1.34941E-04-5.07412E-14
 -1      4220 1.00703E-02-1.49595E-04-5.38864E-14
 -1      4221 9.94443E-03-1.41565E-04-5.21404E-14
 -1      4222 9.95818E-03-1.67754E-04-5.21294E-14
 -1      4223 1.01583E-02-1.81445E-04-5.49720E-14
 -1      4224 4.31203E-03 1.59326E-05-1.36427E-14
 -1      4225 2.79123E-03-6.95281E-05-5.71952E-15
 -1      4226 2.92601E-03-6.93057E-05-6.26799E-15
 -1      4227 2.98961E-03-4.02169E-05-6.51315E-15
 -1      4228 1.29864E-02-5.65170E-04-9.58070E-14
 -1      4229 1.31281E-02-5.78163E-04-9.79029E-14
 -1      4230 1.31161E-02-5.37920E-04-9.76403E-14
 -1      4231 1.29051E-02-5.23325E-04-9.45332E-14
 -1      4232 9.96425E-03-2.56035E-04-5.18939E-14
 -1      4233 4.23503E-03 3.48449E-05-1.29511E-14
 -1      4234 4.13174E-03 7.83336E-05-1.19336E-14
 -1      4235 4.11340E-03 3.40563E-05-1.21973E-14
 -1      4236 1.88173E-03-5.99655E-05-2.74376E-15
 -1      4237 2.72047E-03-3.95874E-05-5.42157E-15
 -1      4238 1.00046E-02-2.37153E-04-5.24870E-14
 -1      4239 2.13593E-03-6.68013E-05-3.45863E-15
 -1      4240 2.20350E-03-3.64599E-05-3.64567E-15
 -1      4241 2.03080E-03-6.41847E-05-3.15262E-15
 -1      4242 2.88019E-03 9.17897E-05-5.78982E-15
 -1      4243 2.74354E-03 9.37896E-05-5.26770E-15
 -1      4244 1.33718E-02-4.47778E-04-1.01182E-13
 -1      4245 1.33712E-02-4.14819E-04-1.01098E-13
 -1      4246 1.32822E-02-4.02098E-04-9.97639E-14
 -1      4247 3.67468E-03 7.26190E-05-9.45575E-15
 -1      4248 3.54568E-03 7.66892E-05-8.78097E-15
 -1      4249 2.66943E-03 6.37191E-05-5.06779E-15
 -1      4250 2.60592E-03 9.53206E-05-4.77058E-15
 -1      4251 2.46741E-03 9.64435E-05-4.29896E-15
 -1      4252 3.17241E-03 1.48427E-04-6.77071E-15
 -1      4253 3.09277E-03 1.18751E-04-6.55458E-15
 -1      4254 3.30835E-03 1.44973E-04-7.36203E-15
 -1      4255 4.00196E-03 4.73933E-05-1.14239E-14
 -1      4256 2.08801E-03 1.55366E-04-3.03380E-15
 -1      4257 2.03768E-03 9.42510E-05-3.00817E-15
 -1      4258 2.17538E-03 8.18041E-05-3.41797E-15
 -1      4259 2.03323E-03 5.67232E-05-3.05210E-15
 -1      4260 1.31932E-02-3.89430E-04-9.84343E-14
 -1      4261 3.90319E-03 5.78488E-05-1.07807E-14
 -1      4262 3.77763E-03 6.25984E-05-1.00587E-14
 -1      4263 3.70034E-03 3.66937E-05-9.78177E-15
 -1      4264 3.89976E-03 1.73443E-05-1.10236E-14
 -1      4265 1.98548E-03 8.11219E-06-2.97718E-15
 -1      4266 2.22906E-03 1.56159E-04-3.42989E-15
 -1      4267 4.03759E-03-3.00786E-05-1.21720E-14
 -1      4268 3.96856E-03-7.07569E-06-1.15925E-14
 -1      4269 3.87255E-03 2.29087E-06-1.09467E-14
 -1      4270 1.33570E-02-5.08348E-04-1.01107E-13
 -1      4271 1.33565E-02-4.75494E-04-1.01025E-13
 -1      4272 1.32676E-02-4.62613E-04-9.96921E-14
 -1      4273 1.32371E-02-5.17697E-04-9.93682E-14
 -1      4274 1.31333E-02-4.19310E-04-9.76283E-14
 -1      4275 1.15289E-02-3.14963E-04-7.44087E-14
 -1      4276 1.13926E-02-3.03663E-04-7.24630E-14
 -1      4277 1.12282E-02-3.15383E-04-7.01619E-14
 -1      4278 1.10943E-02-3.03924E-04-6.82505E-14
 -1      4279 4.22600E-03-7.80882E-05-1.37037E-14
 -1      4280 3.36166E-03 1.12113E-04-7.74508E-15
 -1      4281 3.44430E-03-1.61420E-05-8.61328E-15
 -1      4282 3.56982E-03-1.81784E-05-9.28294E-15
 -1      4283 2.92205E-03-1.07511E-05-6.18838E-15
 -1      4284 3.05523E-03-1.16844E-05-6.75646E-15
 -1      4285 4.14703E-03-6.09034E-05-1.30728E-14
 -1      4286 1.01737E-02-2.48345E-04-5.50097E-14
 -1      4287 1.02952E-02-2.58552E-04-5.67941E-14
 -1      4288 1.04446E-02-2.49492E-04-5.89609E-14
 -1      4289 1.05715E-02-2.59913E-04-6.07849E-14
 -1      4290 1.07000E-02-2.70497E-04-6.26241E-14
 -1      4291 1.08301E-02-2.81465E-04-6.44834E-14
 -1      4292 1.09616E-02-2.92554E-04-6.63588E-14
 -1      4293 1.14420E-02-3.63892E-04-7.32744E-14
 -1      4294 1.15782E-02-3.76284E-04-7.52269E-14
 -1      4295 1.17419E-02-3.87006E-04-7.75691E-14
 -1      4296 1.18799E-02-3.99458E-04-7.95534E-14
 -1      4297 1.20499E-02-3.86750E-04-8.19423E-14
 -1      4298 1.21892E-02-3.98911E-04-8.39534E-14
 -1      4299 1.23290E-02-4.11096E-04-8.59781E-14
 -1      4300 1.24693E-02-4.23344E-04-8.80140E-14
 -1      4301 1.26099E-02-4.35611E-04-9.00639E-14
 -1      4302 1.27508E-02-4.47921E-04-9.21272E-14
 -1      4303 2.97089E-03 6.88948E-05-6.21429E-15
 -1      4304 2.89833E-03 3.98853E-05-5.99390E-15
 -1      4305 1.18305E-02-3.35990E-04-7.87220E-14
 -1      4306 1.16925E-02-3.24498E-04-7.67447E-14
 -1      4307 1.28921E-02-4.60240E-04-9.42043E-14
 -1      4308 1.00421E-02-1.94715E-04-5.31968E-14
 -1      4309 1.00477E-02-2.18025E-04-5.31769E-14
 -1      4310 2.37644E-03-8.35712E-06-4.16858E-15
 -1      4311 2.51447E-03-8.77424E-06-4.63560E-15
 -1      4312 2.29274E-03 1.24348E-04-3.68767E-15
 -1      4313 3.46946E-03 4.97101E-05-8.52369E-15
 -1      4314 3.41529E-03 8.03376E-05-8.13246E-15
 -1      4315 3.28341E-03 8.37443E-05-7.50851E-15
 -1      4316 3.18678E-03-1.29458E-05-7.35050E-15
 -1      4317 3.31652E-03-1.43457E-05-7.96904E-15
 -1      4318 3.38357E-03 1.21812E-05-8.23138E-15
 -1      4319 3.12312E-03 1.63163E-05-6.99956E-15
 -1      4320 4.00127E-03-4.32832E-05-1.19767E-14
 -1      4321 3.90637E-03-3.51669E-05-1.13215E-14
 -1      4322 1.31182E-02-4.46804E-04-9.74720E-14
 -1      4323 3.79048E-03-2.94579E-05-1.05806E-14
 -1      4324 3.82907E-03-1.49483E-05-1.07635E-14
 -1      4325 3.75451E-03 8.95132E-06-1.02186E-14
 -1      4326 3.66997E-03-2.68498E-05-9.86411E-15
 -1      4327 2.37682E-03 9.13093E-05-4.01574E-15
 -1      4328 2.26630E-03 8.73662E-05-3.67921E-15
 -1      4329 2.26169E-03 4.94622E-05-3.72802E-15
 -1      4330 2.44199E-03 5.98870E-05-4.28642E-15
 -1      4331 1.16356E-02-3.50681E-04-7.59853E-14
 -1      4332 2.77355E-03-1.42933E-05-5.59761E-15
 -1      4333 2.84208E-03 1.50322E-05-5.82016E-15
 -1      4334 2.74844E-03 3.69914E-05-5.41549E-15
 -1      4335 2.63754E-03-1.37406E-05-5.08213E-15
 -1      4336 1.13631E-02-3.27028E-04-7.20860E-14
 -1      4337 1.95012E-03-3.03601E-05-2.91144E-15
 -1      4338 2.13384E-03 4.86410E-06-3.40076E-15
 -1      4339 1.30258E-02-5.03443E-04-9.62453E-14
 -1      4340 3.65328E-03 1.79963E-05-9.61267E-15
 -1      4341 2.61178E-03 3.81228E-05-4.91031E-15
 -1      4342 1.03196E-02-2.39620E-04-5.71563E-14
 -1      4343 3.61173E-03 3.02393E-07-9.45488E-15
 -1      4344 2.56973E-03 1.69117E-05-4.79533E-15
 -1      4345 3.10512E-03 6.65082E-05-6.78257E-15
 -1      4346 1.19111E-02-3.74683E-04-7.99452E-14
 -1      4347 2.23841E-03 2.65721E-06-3.71776E-15
 -1      4348 3.55310E-03 2.77647E-05-9.03771E-15
 -1      4349 2.30913E-03 3.31809E-05-3.90009E-15
 -1      4350 3.42560E-03 3.09395E-05-8.37835E-15
 -1      4351 1.31314E-02-5.10588E-04-9.78050E-14
 -1      4352 1.02407E-02-2.09011E-04-5.60619E-14
 -1      4353 1.01407E-02-2.01807E-04-5.46223E-14
 -1      4354 3.29623E-03 3.36481E-05-7.74446E-15
 -1      4355 2.48867E-03 4.34261E-05-4.47195E-15
 -1      4356 2.39901E-03 3.83746E-05-4.18078E-15
 -1      4357 3.16504E-03 3.59904E-05-7.13583E-15
 -3
    1PSTEP                         2           1           1          
  100CL  101 1.000000000        4357                     0    1           1
 -4  STRESS      6    1
 -5  SXX         1    4    1    1
 -5  SYY         1    4    2    2
 -5  SZZ         1    4    3    3
 -5  SXY         1    4    1    2
 -5  SYZ         1    4    2    3
 -5  SZX         1    4    3    1
 -1         1 5.17106E+01 5.93435E+00 2.84680E+00-1.63669E+01-1.10363E-12 3.04928E-12
 -1         2-6.84894E-01-2.44040E+01-3.35158E+00 5.61371E-02 8.39053E-13 2.15040E-13
 -1         3 2.00001E+01 3.60782E-04 8.24201E-04 3.36724E-04-6.10067E-13-5.67195E-13
 -1         4 2.00001E+01 2.94728E-04 7.70732E-04-2.78528E-04 2.41648E-13-3.19393E-13
 -1         5 3.25478E+01 6.10230E+00 2.70799E+00 6.18191E+00-4.33750E-14 2.82097E-12
 -1         6 3.54959E+01 1.21691E+01 5.06738E+00-8.58124E+00-1.57319E-13 2.20163E-12
 -1         7 2.07853E+01 6.08824E+00-1.21218E-01-4.67481E+00-2.22461E-14 2.99802E-13
 -1         8 1.96846E+01 5.93744E+00 5.50725E-02-3.21271E+00-2.67321E-14-2.55771E-13
 -1         9 1.91719E+01 5.78125E+00 5.16188E-02-2.45415E+00-1.91062E-14-5.44540E-13
 -1        10 1.89339E+01 5.70278E+00 5.18585E-02-1.87559E+00-1.12167E-14-6.71054E-13
 -1        11 1.88057E+01 5.65999E+00 4.94727E-02-1.38547E+00-7.30492E-15-7.19619E-13
 -1        12 1.87313E+01 5.63516E+00 4.66207E-02-9.57675E-01-2.74824E-15-7.23634E-13
 -1        13 1.86875E+01 5.62070E+00 4.43087E-02-5.58084E-01 1.66100E-15-6.99293E-13
 -1        14 1.86673E+01 5.61405E+00 4.30771E-02-1.78589E-01 6.42742E-15-6.67636E-13
 -1        15 1.86676E+01 5.61417E+00 4.31321E-02 1.94682E-01 1.11684E-14-6.29109E-13
 -1        16 1.86886E+01 5.62107E+00 4.44870E-02 5.75187E-01 1.55785E-14-5.81910E-13
 -1        17 1.87333E+01 5.63571E+00 4.69922E-02 9.77079E-01 1.83378E-14-5.18964E-13
 -1        18 1.88086E+01 5.66083E+00 5.00609E-02 1.40829E+00 2.15782E-14-4.11322E-13
 -1        19 1.89383E+01 5.70407E+00 5.23345E-02 1.90447E+00 3.08165E-14-2.57775E-13
 -1        20 1.91761E+01 5.78351E+00 5.12828E-02 2.49148E+00 3.77424E-14-8.14279E-15
 -1        21 1.96795E+01 5.95166E+00 5.00181E-02 3.24685E+00 3.78031E-14 4.38184E-13
 -1        22 2.11588E+01 6.36631E+00 1.42718E-01 4.47381E+00 2.73392E-15 1.23185E-12
 -1        23 2.29178E+01-1.37538E+00-9.37737E-01-6.98649E-01-1.09465E-13 1.65681E-12
 -1        24 1.93329E+01-9.95596E-02-3.08114E-01 6.38816E-02-2.96221E-14 1.16280E-12
 -1        25 1.87044E+01-5.70466E-02-6.87271E-02 6.04653E-02-2.37007E-14 6.84021E-13
 -1        26 1.85688E+01-2.35335E-02-7.71646E-03 3.27180E-02 1.55041E-17 3.74877E-13
 -1        27 1.86664E+01-1.39531E-02-6.37597E-04 2.26115E-02-1.86071E-15 2.02350E-13
 -1        28 1.88973E+01-9.15447E-03-1.41772E-03 1.68304E-02-5.76535E-15 1.07620E-13
 -1        29 1.92166E+01-6.84347E-03-2.61140E-03 1.35227E-02 8.27588E-15-6.48700E-14
 -1        30 1.96066E+01-5.89561E-03-3.75601E-03 1.18425E-02 1.66112E-14-1.49630E-13
 -1        31 2.00651E+01-5.70929E-03-5.10315E-03 1.14826E-02-1.48896E-14-2.72813E-13
 -1        32 2.05989E+01-5.85486E-03-6.65263E-03 1.23936E-02 7.72901E-15-4.68702E-13
 -1        33 2.12190E+01-5.90017E-03-8.10290E-03 1.46259E-02 3.19410E-14-4.41365E-13
 -1        34 2.19349E+01-5.29290E-03-8.77830E-03 1.81823E-02-8.63665E-15-4.20605E-13
 -1        35 2.27460E+01-3.28123E-03-7.43338E-03 2.27784E-02-2.06736E-14-4.45964E-13
 -1        36 2.36278E+01 1.07814E-03-2.03999E-03 2.74053E-02-7.57882E-15-3.15031E-13
 -1        37 2.45124E+01 8.67835E-03 1.00952E-02 2.96226E-02-4.31245E-14-3.54385E-13
 -1        38 2.52642E+01 1.96491E-02 3.11362E-02 2.47453E-02-4.29528E-14-4.98680E-13
 -1        39 2.56648E+01 3.20213E-02 5.94468E-02 5.86564E-03-4.95901E-14-6.38229E-13
 -1        40 2.54360E+01 4.03839E-02 8.47536E-02-3.30596E-02 3.35951E-14-7.25735E-13
 -1        41 2.43455E+01 3.62934E-02 8.55445E-02-8.92042E-02-5.73500E-15-1.06939E-12
 -1        42 2.24119E+01 1.32515E-02 3.87468E-02-1.40608E-01 2.15370E-14-1.07896E-12
 -1        43 2.01148E+01-2.44037E-02-5.31752E-02-1.46984E-01-7.05115E-14-8.30017E-13
 -1        44 1.83576E+01-5.77991E-02-1.41900E-01-8.09484E-02 5.01587E-14-8.08020E-13
 -1        45 1.79972E+01-6.51186E-02-1.61800E-01 3.28519E-02-1.59044E-14-7.35625E-13
 -1        46 1.92266E+01-4.12894E-02-9.74728E-02 1.26656E-01-6.38478E-14-1.28361E-12
 -1        47 2.14226E+01-2.70502E-03 9.66684E-04 1.51475E-01 9.25639E-14-1.21669E-12
 -1        48 2.36244E+01 2.81695E-02 7.05745E-02 1.14837E-01-4.14822E-14-1.04936E-12
 -1        49 2.51361E+01 4.02193E-02 8.88901E-02 5.66897E-02-2.34968E-15-1.31285E-12
 -1        50 2.57543E+01 3.61485E-02 7.13078E-02 8.96464E-03-8.03567E-15-1.54358E-12
 -1        51 2.56326E+01 2.45003E-02 4.21900E-02-1.80557E-02 2.32874E-14-1.39389E-12
 -1        52 2.50510E+01 1.23580E-02 1.71452E-02-2.78639E-02-2.25878E-14-9.54888E-13
 -1        53 2.42636E+01 3.09060E-03 1.01848E-03-2.76324E-02 9.07824E-15-7.74381E-13
 -1        54 2.34442E+01-2.68869E-03-7.23013E-03-2.31009E-02-8.24277E-14-1.00637E-12
 -1        55 2.26897E+01-5.63373E-03-1.02854E-02-1.75805E-02-1.01452E-13-1.40566E-12
 -1        56 2.20428E+01-6.67807E-03-1.04975E-02-1.25715E-02 2.54320E-14-1.55695E-12
 -1        57 2.15133E+01-6.61137E-03-9.40796E-03-8.55745E-03 1.69669E-14-1.17828E-12
 -1        58 2.10941E+01-5.98152E-03-7.87783E-03-5.55287E-03-5.59429E-14-1.27329E-12
 -1        59 2.07709E+01-5.12665E-03-6.33115E-03-3.40072E-03 4.72817E-14-1.29557E-12
 -1        60 2.05273E+01-4.23704E-03-4.94843E-03-1.90998E-03-1.09414E-13-1.07592E-12
 -1        61 2.03476E+01-3.40956E-03-3.78709E-03-9.08721E-04 7.15665E-14-1.18162E-12
 -1        62 2.02181E+01-2.68616E-03-2.84757E-03-2.58590E-04-1.45330E-13-9.70554E-13
 -1        63 2.01273E+01-2.07828E-03-2.10688E-03 1.45931E-04 6.99143E-14-8.34302E-13
 -1        64 2.00657E+01-1.58152E-03-1.53485E-03 3.83079E-04-7.06915E-14-9.37073E-13
 -1        65 2.00259E+01-1.18395E-03-1.10157E-03 5.10131E-04-1.34188E-13-8.47292E-13
 -1        66 2.00020E+01-8.70522E-04-7.80357E-04 5.69069E-04-8.28486E-15-8.80907E-13
 -1        67 1.99897E+01-6.24810E-04-5.47569E-04 5.91488E-04 1.68787E-13-3.95132E-13
 -1        68 1.99856E+01-4.28381E-04-3.76767E-04 6.02973E-04 1.22937E-13-1.28827E-13
 -1        69 1.99871E+01-2.59010E-04-2.21286E-04 6.20909E-04-3.51002E-14-4.20911E-14
 -1        70 1.99920E+01-9.42693E-05 3.77257E-06 6.30874E-04-2.67678E-14 2.31725E-13
 -1        71 1.99979E+01 1.18281E-05 4.42832E-04 5.36184E-04-1.52103E-13-1.61859E-13
 -1        72 2.09461E+01-4.02946E-01-9.78662E-01-3.11935E-01 2.40814E-14 2.69962E-12
 -1        73 1.93009E+01-6.60230E-02-2.89591E-01-5.38277E-02 1.37243E-14 2.25501E-12
 -1        74 1.87163E+01-2.12157E-02-6.43299E-02-1.96901E-02 1.11984E-14 1.90712E-12
 -1        75 1.85799E+01-1.10134E-02-1.05599E-02-1.43931E-02 6.10254E-15 1.69283E-12
 -1        76 1.86759E+01-6.71553E-03-1.50242E-03-1.11484E-02 1.37023E-14 1.50598E-12
 -1        77 1.89024E+01-4.58466E-03-1.32045E-03-8.90046E-03 1.34740E-14 1.36998E-12
 -1        78 1.92130E+01-3.51616E-03-2.10075E-03-7.42287E-03-1.77240E-14 1.31048E-12
 -1        79 1.95871E+01-2.98269E-03-2.84535E-03-6.58904E-03 6.71555E-15 1.20773E-12
 -1        80 2.00172E+01-2.64714E-03-3.55949E-03-6.43222E-03-4.63488E-15 1.12541E-12
 -1        81 2.05022E+01-2.22209E-03-4.10097E-03-7.08612E-03 2.16606E-14 1.01830E-12
 -1        82 2.10415E+01-1.40557E-03-4.06583E-03-8.71664E-03 3.12953E-14 9.54820E-13
 -1        83 2.16286E+01 1.35777E-04-2.78258E-03-1.14305E-02-8.78084E-15 9.06657E-13
 -1        84 2.22438E+01 2.72421E-03 6.87238E-04-1.51066E-02 2.01052E-14 8.32968E-13
 -1        85 2.28442E+01 6.53004E-03 7.41861E-03-1.91004E-02-3.11595E-14 7.85057E-13
 -1        86 2.33539E+01 1.12907E-02 1.81432E-02-2.18261E-02 4.71587E-14 6.64566E-13
 -1        87 2.36587E+01 1.59130E-02 3.21897E-02-2.03895E-02-6.66011E-14 7.46893E-13
 -1        88 2.36154E+01 1.81955E-02 4.59002E-02-1.08037E-02-3.86518E-15 1.01179E-12
 -1        89 2.30893E+01 1.52652E-02 5.15563E-02 1.01988E-02 4.71561E-14 7.38567E-13
 -1        90 2.20307E+01 5.34660E-03 3.92794E-02 4.11720E-02-4.25694E-14 7.20504E-13
 -1        91 2.05696E+01-9.72944E-03 4.06191E-03 7.18922E-02 1.13803E-14 7.10477E-13
 -1        92 1.90638E+01-2.37611E-02-4.52514E-02 8.47802E-02-8.97557E-15 8.17253E-13
 -1        93 1.80131E+01-2.94859E-02-8.52374E-02 6.58673E-02-8.88547E-15 8.98588E-13
 -1        94 1.78274E+01-2.39810E-02-9.21929E-02 1.87118E-02 3.83285E-14 5.45041E-13
 -1        95 1.85862E+01-1.07980E-02-6.16224E-02-3.43069E-02-2.30944E-14 3.53488E-13
 -1        96 1.99886E+01 3.35481E-03-1.23046E-02-6.85186E-02 8.16260E-14 5.87284E-13
 -1        97 2.15386E+01 1.30466E-02 2.95620E-02-7.42236E-02-4.14716E-14 7.19882E-13
 -1        98 2.28048E+01 1.65741E-02 4.96157E-02-5.84715E-02 1.07755E-14 8.51780E-13
 -1        99 2.35703E+01 1.51546E-02 4.90536E-02-3.48306E-02-4.68495E-15 6.72878E-13
 -1       100 2.38274E+01 1.11358E-02 3.68292E-02-1.35612E-02-2.90213E-14 7.27355E-13
 -1       101 2.36904E+01 6.60138E-03 2.18971E-02 1.07229E-03 1.75066E-15 8.50747E-13
 -1       102 2.33074E+01 2.75463E-03 9.39654E-03 9.06067E-03 6.94141E-14 6.78944E-13
 -1       103 2.28086E+01 2.00371E-05 9.28743E-04 1.21629E-02-6.79637E-14 6.69099E-13
 -1       104 2.22867E+01-1.64606E-03-3.86807E-03 1.23035E-02 2.59194E-14 5.60684E-13
 -1       105 2.17979E+01-2.48035E-03-6.01939E-03 1.09489E-02 2.45397E-14 3.20851E-13
 -1       106 2.13706E+01-2.74740E-03-6.52819E-03 9.03083E-03 6.40791E-15 1.80652E-13
 -1       107 2.10148E+01-2.66849E-03-6.14304E-03 7.06658E-03-2.01473E-14-2.00814E-14
 -1       108 2.07293E+01-2.40425E-03-5.34871E-03 5.30410E-03-8.24793E-14-5.20267E-14
 -1       109 2.05072E+01-2.06094E-03-4.42963E-03 3.83520E-03 2.25712E-14 3.55731E-13
 -1       110 2.03392E+01-1.70353E-03-3.53814E-03 2.66945E-03 7.25501E-14-2.21304E-14
 -1       111 2.02157E+01-1.36830E-03-2.74639E-03 1.77766E-03-4.28397E-14-5.40437E-13
 -1       112 2.01277E+01-1.07290E-03-2.08063E-03 1.11593E-03-6.53864E-15-5.90750E-13
 -1       113 2.00672E+01-8.23404E-04-1.54242E-03 6.38001E-04-3.89178E-14-2.93164E-13
 -1       114 2.00276E+01-6.19095E-04-1.12132E-03 3.01014E-04-3.39107E-14 1.76898E-15
 -1       115 2.00036E+01-4.54436E-04-8.01387E-04 6.65968E-05 1.24549E-13-1.91094E-13
 -1       116 1.99910E+01-3.22001E-04-5.63380E-04-9.88824E-05-1.22894E-14 1.22520E-13
 -1       117 1.99866E+01-2.11947E-04-3.86701E-04-2.22712E-04 3.22259E-14-5.95989E-13
 -1       118 1.99878E+01-1.09530E-04-2.27916E-04-3.39574E-04-4.93877E-14-8.49603E-13
 -1       119 1.99925E+01 2.60089E-05 2.59138E-05-4.93608E-04 7.43563E-14-9.10321E-13
 -1       120 1.99979E+01 5.80199E-05 3.90128E-04-5.65847E-04 2.56811E-13-1.32593E-12
 -1       121 1.99999E+01-2.09928E-03 2.93262E-04-6.34495E-04-1.45035E-12-1.74145E-14
 -1       122 1.99998E+01-7.15018E-03-1.19127E-04-5.00258E-04-2.01414E-13 2.34008E-13
 -1       123 1.99997E+01-1.05046E-02-3.05509E-04-2.77393E-04 1.58834E-12 1.21422E-13
 -1       124 1.99997E+01-1.08449E-02-2.73382E-04-7.33883E-05 1.45571E-12 1.80694E-13
 -1       125 1.99998E+01-8.62931E-03-1.44155E-04 5.57523E-05 5.08401E-13-2.03224E-13
 -1       126 1.99998E+01-5.20570E-03-3.56735E-06 1.05202E-04-1.81137E-13 1.08740E-13
 -1       127 1.99999E+01-1.90075E-03 1.13436E-04 8.98577E-05 1.79906E-13 3.15562E-13
 -1       128 1.99999E+01 1.39586E-05 1.76808E-04 3.04627E-05-1.48883E-14 3.20139E-14
 -1       129 1.99999E+01-1.33057E-04 1.74166E-04-4.34993E-05-7.70936E-14 7.22498E-14
 -1       130 1.99999E+01-2.31479E-03 1.05658E-04-1.00507E-04 2.32771E-13-2.51110E-13
 -1       131 1.99998E+01-5.80702E-03-1.52339E-05-1.10497E-04 1.62976E-13 1.42380E-13
 -1       132 1.99997E+01-9.29811E-03-1.59317E-04-5.43316E-05 4.74119E-13 3.65912E-14
 -1       133 1.99997E+01-1.14319E-02-2.84208E-04 8.44254E-05 1.05196E-13-1.04969E-13
 -1       134 1.99997E+01-1.09069E-02-3.16372E-04 2.91715E-04-3.48142E-13 8.52836E-14
 -1       135 1.99998E+01-7.37829E-03-1.18252E-04 7.13779E-04-3.64287E-13-3.04623E-14
 -1       136 1.99998E+01-2.26531E-03 2.87852E-04 8.51439E-04-1.60273E-13 1.30451E-13
 -1       137-1.38733E+00-1.94234E+01-3.03895E+00-3.83082E+00 3.21185E-12 6.35866E-13
 -1       138-1.43618E+00-7.77727E+00-2.20681E+00-2.72991E+00 4.06453E-12 1.78424E-12
 -1       139 3.80394E+00 4.46072E+00-9.33012E-01 4.40213E+00 3.46645E-12 2.60059E-12
 -1       140 1.84278E+01 1.09421E+01 6.25372E-01 1.40207E+01 2.39697E-12 2.90917E-12
 -1       141 3.77456E+01 9.32684E+00 1.98654E+00 1.81311E+01 1.51446E-12 2.83829E-12
 -1       142 5.70717E+01 4.06019E+00 3.06830E+00 1.36421E+01 4.19588E-13 1.46178E-12
 -1       143 6.56382E+01 8.84971E-01 3.51614E+00 1.77648E+00 2.75578E-14-4.90538E-13
 -1       144 6.04314E+01 2.84213E+00 3.26752E+00-1.10259E+01 4.44710E-13-2.26255E-12
 -1       145 4.38932E+01 8.03835E+00 2.36578E+00-1.80550E+01 1.30179E-12-2.89169E-12
 -1       146 2.41687E+01 1.11339E+01 1.09452E+00-1.61147E+01 2.33280E-12-3.20871E-12
 -1       147 8.41311E+00 8.16134E+00-3.13231E-01-8.38178E+00 3.07504E-12-2.87298E-12
 -1       148 3.90717E-01-1.53515E+00-1.60345E+00-3.07146E-01 2.94637E-12-1.87084E-12
 -1       149-1.77952E+00-1.43553E+01-2.67042E+00 4.01111E+00 1.56575E-12-6.16132E-13
 -1       150-9.77904E-01-2.31482E+01-3.25622E+00 1.92491E+00-1.08524E-13-4.95767E-14
 -1       151-1.01459E+00-2.29581E+01-3.26836E+00-2.35781E+00-1.71840E-12-2.19286E-13
 -1       152-1.93377E+00-1.38777E+01-2.69703E+00-4.23667E+00-2.85194E-12-1.12164E-12
 -1       153 7.16794E-01-7.93887E-01-1.58766E+00 7.62685E-01-3.28354E-12-2.04187E-12
 -1       154 1.09138E+01 8.73531E+00-1.22484E-01 9.75888E+00-2.88275E-12-2.91167E-12
 -1       155 2.91485E+01 1.06172E+01 1.41345E+00 1.71452E+01-1.87034E-12-3.00210E-12
 -1       156 5.01109E+01 6.52669E+00 2.76703E+00 1.70779E+01-7.31221E-13-1.84208E-12
 -1       157 6.48915E+01 1.59509E+00 3.58764E+00 7.38737E+00-3.03143E-14-4.08645E-13
 -1       158 6.51233E+01 1.56959E+00 3.60223E+00-6.74276E+00-1.59170E-13 1.33590E-12
 -1       159 3.23082E+01 1.03278E+01 1.61811E+00-1.78123E+01-2.28279E-12 3.83049E-12
 -1       160 1.36262E+01 9.69928E+00 1.35439E-01-1.14355E+01-3.29603E-12 3.55743E-12
 -1       161 1.97091E+00 2.02814E+00-1.30410E+00-2.37432E+00-3.12861E-12 2.19424E-12
 -1       162-1.70259E+00-9.47275E+00-2.38964E+00 3.42102E+00-2.98861E-12 1.32841E-12
 -1       163-1.37251E+00-2.01191E+01-3.10607E+00 3.80331E+00-1.60519E-12 3.19630E-13
 -1       164 2.10160E+01 3.67733E+00-5.63051E-02-3.54059E+00-3.29223E-13 2.67043E-14
 -1       165 2.00252E+01 4.20411E+00-4.49591E-02-2.73098E+00-2.79841E-13-3.06449E-13
 -1       166 1.95469E+01 4.48919E+00-3.11687E-02-2.11248E+00-2.09627E-13-4.87811E-13
 -1       167 1.92987E+01 4.63956E+00-2.33227E-02-1.59522E+00-1.31960E-13-5.75514E-13
 -1       168 1.91513E+01 4.73392E+00-1.90101E-02-1.15045E+00-7.14369E-14-6.01589E-13
 -1       169 1.90607E+01 4.79366E+00-1.67891E-02-7.42005E-01-8.56471E-15-6.00731E-13
 -1       170 1.90112E+01 4.82698E+00-1.57019E-02-3.60700E-01 5.02410E-14-5.66799E-13
 -1       171 1.89959E+01 4.83722E+00-1.53861E-02 7.68773E-03 1.07645E-13-5.25636E-13
 -1       172 1.90128E+01 4.82525E+00-1.57443E-02 3.76520E-01 1.67436E-13-4.91842E-13
 -1       173 1.90641E+01 4.78986E+00-1.68646E-02 7.59174E-01 2.19179E-13-4.52157E-13
 -1       174 1.91549E+01 4.72848E+00-1.91230E-02 1.16290E+00 2.61523E-13-3.73528E-13
 -1       175 1.93066E+01 4.62960E+00-2.35077E-02 1.61875E+00 3.29363E-13-2.51398E-13
 -1       176 1.95627E+01 4.47023E+00-3.23111E-02 2.14418E+00 3.72256E-13-7.34066E-14
 -1       177 2.00463E+01 4.18043E+00-4.64005E-02 2.76885E+00 3.76324E-13 2.25785E-13
 -1       178 2.11349E+01 3.44918E+00-5.88165E-02 3.46893E+00 3.20091E-13 7.40658E-13
 -1       179 2.23735E+01 1.13521E+00-3.34178E-01 2.96471E+00 2.06465E-13 1.38083E-12
 -1       180 2.19521E+01 8.52599E-01 7.76956E-04-1.90835E+00-2.97897E-13 4.53318E-13
 -1       181 2.04761E+01 1.90670E-01-9.56192E-03-7.14463E-01-2.72143E-13 3.10657E-13
 -1       182 1.97577E+01 1.05933E-01 1.39516E-02-2.28861E-01-1.89805E-13 1.97240E-13
 -1       183 1.94893E+01 5.47837E-02 1.04946E-02 5.01528E-03-1.23512E-13 8.87584E-14
 -1       184 1.94526E+01 3.35743E-02 5.82894E-03 1.37057E-01-8.69806E-14 2.53597E-14
 -1       185 1.95619E+01 2.43674E-02 3.28811E-03 2.23743E-01-8.20191E-14-1.27138E-14
 -1       186 1.97719E+01 2.13234E-02 2.17760E-03 2.90659E-01-4.79507E-14-3.71172E-14
 -1       187 2.00612E+01 2.18883E-02 1.71627E-03 3.51694E-01-5.46664E-14-8.19790E-14
 -1       188 2.04210E+01 2.45041E-02 1.49125E-03 4.14805E-01-6.52188E-14-4.87928E-14
 -1       189 2.08498E+01 2.76804E-02 1.28241E-03 4.83659E-01-2.19218E-14-5.40354E-14
 -1       190 2.13478E+01 2.93915E-02 9.23518E-04 5.57242E-01-2.71255E-14-1.71952E-13
 -1       191 2.19119E+01 2.64919E-02 2.57380E-04 6.27984E-01 1.90424E-14-1.85166E-13
 -1       192 2.25290E+01 1.41607E-02-8.37989E-04 6.78563E-01 1.64780E-14-1.01263E-13
 -1       193 2.31678E+01-1.41830E-02-2.34594E-03 6.78067E-01-4.48781E-14-1.05011E-13
 -1       194 2.37687E+01-6.52954E-02-3.96052E-03 5.80087E-01-7.41152E-14-7.10794E-14
 -1       195 2.42368E+01-1.40550E-01-4.98634E-03 3.29122E-01-6.72721E-14-3.27594E-14
 -1       196 2.44449E+01-2.24162E-01-4.54578E-03-1.13115E-01-7.83436E-14 2.47534E-15
 -1       197 2.42614E+01-2.70674E-01-2.11475E-03-7.12890E-01-1.13556E-13-1.48592E-13
 -1       198 2.36196E+01-2.09731E-01 9.98950E-04-1.29966E+00-1.34945E-13-1.72762E-13
 -1       199 2.26198E+01 4.85305E-03 1.45448E-03-1.56042E+00 8.35517E-15-4.07251E-13
 -1       200 2.16049E+01 3.02557E-01-1.90907E-03-1.20036E+00 1.85962E-15-4.29853E-13
 -1       201 2.10592E+01 4.88469E-01-4.35542E-03-2.45952E-01-5.70013E-14-4.76905E-13
 -1       202 2.12883E+01 4.11636E-01-3.10656E-03 8.42875E-01-2.01912E-13-4.57727E-13
 -1       203 2.21656E+01 1.36888E-01 1.32198E-04 1.49846E+00 2.36885E-14-4.03064E-13
 -1       204 2.32423E+01-1.32182E-01 9.57523E-04 1.49112E+00 2.65265E-14-6.14801E-13
 -1       205 2.40865E+01-2.60107E-01-1.10029E-03 1.00838E+00-1.78520E-13-7.00604E-13
 -1       206 2.44932E+01-2.51238E-01-3.68457E-03 3.87864E-01-1.15102E-13-8.39759E-13
 -1       207 2.44704E+01-1.75490E-01-4.91908E-03-1.28583E-01 1.41788E-13-8.07087E-13
 -1       208 2.41341E+01-9.23652E-02-4.39178E-03-4.53683E-01 2.22404E-13-7.42874E-13
 -1       209 2.36201E+01-2.94282E-02-2.88801E-03-6.02567E-01 5.13950E-14-6.50348E-13
 -1       210 2.30405E+01 8.92222E-03-1.25488E-03-6.28059E-01-1.68462E-13-5.63132E-13
 -1       211 2.24706E+01 2.79862E-02 3.19559E-05-5.82457E-01-2.28074E-13-4.07578E-13
 -1       212 2.19535E+01 3.46743E-02 8.44018E-04-5.04086E-01-8.73958E-14-4.22657E-13
 -1       213 2.15085E+01 3.44741E-02 1.24435E-03-4.16727E-01 2.04561E-13-3.91403E-13
 -1       214 2.11398E+01 3.09764E-02 1.35707E-03-3.33277E-01-7.29061E-14-6.24044E-13
 -1       215 2.08432E+01 2.62702E-02 1.29855E-03-2.59666E-01 3.67826E-15-5.83820E-13
 -1       216 2.06101E+01 2.14595E-02 1.15426E-03-1.97811E-01-2.87025E-14-7.69352E-13
 -1       217 2.04310E+01 1.70657E-02 9.78617E-04-1.47521E-01-3.75718E-14-5.88054E-13
 -1       218 2.02961E+01 1.32897E-02 8.02618E-04-1.07624E-01 1.56453E-13-4.61333E-13
 -1       219 2.01966E+01 1.01667E-02 6.41904E-04-7.65931E-02-1.18895E-14-3.59469E-13
 -1       220 2.01250E+01 7.65263E-03 5.02857E-04-5.28703E-02 4.88921E-14-4.61938E-13
 -1       221 2.00748E+01 5.67127E-03 3.86606E-04-3.50224E-02 9.84660E-14-3.92052E-13
 -1       222 2.00410E+01 4.13729E-03 2.91294E-04-2.18049E-02-9.26654E-14-2.67637E-13
 -1       223 2.00194E+01 2.96673E-03 2.13327E-04-1.21803E-02 3.54283E-13-2.42198E-13
 -1       224 2.00068E+01 2.07866E-03 1.48301E-04-5.31898E-03 2.19237E-13-9.47645E-14
 -1       225 2.00004E+01 1.37784E-03 9.39152E-05-6.07443E-04 1.33269E-13-2.02775E-13
 -1       226 1.99981E+01 7.14982E-04 5.92479E-05 2.28292E-03 1.27677E-13-1.44931E-14
 -1       227 1.99983E+01-1.54677E-04 5.13592E-05 3.33429E-03-1.25718E-13 2.18659E-13
 -1       228 2.09587E+01 2.75628E-01-5.05837E-02 1.12296E+00 2.33018E-13 1.21655E-12
 -1       229 1.99163E+01 1.28156E-01 8.63111E-03 4.00547E-01 1.79458E-13 1.02028E-12
 -1       230 1.94719E+01 6.16706E-02 1.29547E-02 9.90133E-02 1.30163E-13 8.68377E-13
 -1       231 1.93406E+01 3.34807E-02 7.88045E-03-5.54031E-02 1.10187E-13 7.47812E-13
 -1       232 1.93926E+01 2.10062E-02 4.13254E-03-1.46218E-01 5.78975E-14 6.91307E-13
 -1       233 1.95611E+01 1.53251E-02 2.25746E-03-2.07036E-01 3.77842E-14 6.15546E-13
 -1       234 1.98113E+01 1.30456E-02 1.36091E-03-2.53948E-01 9.30449E-14 5.41859E-13
 -1       235 2.01254E+01 1.24580E-02 8.52192E-04-2.95123E-01 4.90156E-14 4.85274E-13
 -1       236 2.04938E+01 1.23147E-02 4.62972E-04-3.34010E-01 4.79883E-14 4.39377E-13
 -1       237 2.09098E+01 1.13277E-02 8.01647E-05-3.70052E-01 4.91067E-14 4.02544E-13
 -1       238 2.13637E+01 7.90592E-03-3.33717E-04-3.98279E-01 4.32190E-14 3.68348E-13
 -1       239 2.18378E+01 5.16070E-05-7.46751E-04-4.08391E-01 7.62898E-14 4.12706E-13
 -1       240 2.23005E+01-1.44468E-02-1.03306E-03-3.84033E-01 2.55513E-14 3.84810E-13
 -1       241 2.27012E+01-3.71999E-02-9.64699E-04-3.03609E-01 6.93482E-14 3.42473E-13
 -1       242 2.29685E+01-6.73761E-02-2.95593E-04-1.44957E-01-7.42299E-14 3.99739E-13
 -1       243 2.30173E+01-9.86782E-02 1.02700E-03 1.03120E-01-5.84342E-15 3.91959E-13
 -1       244 2.27701E+01-1.16455E-01 2.54883E-03 4.21145E-01 8.99311E-14 3.29998E-13
 -1       245 2.21982E+01-9.94457E-02 3.07820E-03 7.37532E-01-1.51624E-14 3.87622E-13
 -1       246 2.13726E+01-3.21569E-02 1.28871E-03 9.27103E-01-2.18385E-14 4.11807E-13
 -1       247 2.04937E+01 7.47780E-02-2.61522E-03 8.57656E-01-5.26983E-14 4.35399E-13
 -1       248 1.98508E+01 1.74637E-01-6.26191E-03 4.82344E-01 2.14143E-14 3.97707E-13
 -1       249 1.96960E+01 2.09228E-01-6.58692E-03-8.84326E-02 2.21452E-13 3.06842E-13
 -1       250 2.00975E+01 1.56358E-01-2.90179E-03-6.24200E-01 3.46897E-14 2.05972E-13
 -1       251 2.08953E+01 5.09249E-02 1.98480E-03-9.17749E-01-1.07523E-13 2.67537E-13
 -1       252 2.18017E+01-4.83835E-02 4.47619E-03-9.06278E-01-9.32284E-14 3.71562E-13
 -1       253 2.25548E+01-1.03168E-01 3.90024E-03-6.70978E-01 1.51528E-14 2.65620E-13
 -1       254 2.30123E+01-1.10700E-01 1.75460E-03-3.49644E-01 4.06329E-14 2.98257E-13
 -1       255 2.31548E+01-8.89786E-02-3.55860E-04-5.37174E-02-1.46710E-13 3.26963E-13
 -1       256 2.30401E+01-5.75827E-02-1.52952E-03 1.61622E-01 4.66205E-14 2.69728E-13
 -1       257 2.27543E+01-2.89092E-02-1.75372E-03 2.87601E-01 8.25963E-14 1.96418E-13
 -1       258 2.23793E+01-7.84100E-03-1.40547E-03 3.40025E-01-3.63639E-14 2.38204E-13
 -1       259 2.19779E+01 5.35836E-03-8.56723E-04 3.41819E-01 1.58780E-13 1.82259E-13
 -1       260 2.15922E+01 1.23310E-02-3.39883E-04 3.13764E-01 1.51063E-13 8.74778E-14
 -1       261 2.12460E+01 1.50544E-02 4.70834E-05 2.71338E-01-2.22917E-15 7.64129E-14
 -1       262 2.09498E+01 1.51883E-02 2.90616E-04 2.24695E-01 1.06830E-13 1.66500E-13
 -1       263 2.07057E+01 1.39222E-02 4.15517E-04 1.79801E-01-4.15833E-14-4.74992E-14
 -1       264 2.05107E+01 1.20291E-02 4.56377E-04 1.39719E-01-1.48119E-13-1.22220E-13
 -1       265 2.03589E+01 9.97392E-03 4.44309E-04 1.05659E-01 1.56703E-13 4.13945E-14
 -1       266 2.02439E+01 8.01457E-03 4.02830E-04 7.77426E-02 8.88232E-14 3.09912E-13
 -1       267 2.01590E+01 6.27722E-03 3.47963E-04 5.55022E-02 7.68704E-14 1.76804E-13
 -1       268 2.00981E+01 4.80858E-03 2.89698E-04 3.82029E-02-1.29578E-13 7.44913E-14
 -1       269 2.00559E+01 3.61033E-03 2.33556E-04 2.50303E-02-1.17864E-13 1.51329E-13
 -1       270 2.00281E+01 2.66078E-03 1.82101E-04 1.51980E-02 2.09438E-13 4.03784E-13
 -1       271 2.00110E+01 1.92005E-03 1.35426E-04 8.00606E-03-4.28704E-14 2.77210E-14
 -1       272 2.00017E+01 1.34240E-03 9.31426E-05 2.89590E-03 3.39040E-13 2.58312E-13
 -1       273 1.99979E+01 8.83522E-04 6.07362E-05-5.50853E-04-3.52132E-14 2.97735E-13
 -1       274 1.99974E+01 4.09613E-04 6.67760E-05-2.51421E-03 3.46009E-13 2.73997E-13
 -1       275 1.99986E+01-4.83811E-04 1.23028E-04-2.68338E-03 1.33343E-13-2.26071E-13
 -1       276 1.99999E+01-1.64723E-03 3.66759E-05-2.89352E-03 3.12916E-13 7.58131E-13
 -1       277 2.00006E+01-1.96466E-03 5.24214E-06-1.65149E-03 2.46731E-13 8.62387E-13
 -1       278 2.00007E+01-8.56986E-04-6.99317E-07 4.57457E-04 3.59360E-13-9.88073E-15
 -1       279 2.00004E+01 1.61287E-03 2.14265E-06 2.19879E-03 2.53734E-13-2.07975E-13
 -1       280 1.99999E+01 4.82696E-03-3.97524E-06 3.01002E-03 4.62211E-14-7.00991E-13
 -1       281 1.99995E+01 8.05127E-03-1.15817E-05 2.74963E-03-7.22947E-14 8.97895E-14
 -1       282 1.99992E+01 1.03647E-02-1.88139E-05 1.57363E-03-8.53016E-14 1.48895E-13
 -1       283 1.99991E+01 1.11498E-02-2.14676E-05-1.08739E-04 1.16057E-13-7.48557E-14
 -1       284 1.99992E+01 1.01924E-02-1.85044E-05-1.77129E-03 1.56927E-13 1.01377E-13
 -1       285 1.99995E+01 7.73539E-03-1.12958E-05-2.88943E-03 4.87038E-13-3.02248E-14
 -1       286 2.00000E+01 4.48656E-03-2.57344E-06-3.06770E-03 2.80468E-13 5.42269E-15
 -1       287 2.00004E+01 1.19775E-03 2.04091E-06-2.15282E-03 4.02522E-13-2.62181E-13
 -1       288 2.00007E+01-1.22671E-03-3.32735E-06-2.95174E-04 1.27294E-13-2.83629E-13
 -1       289 2.00006E+01-2.04209E-03 2.32786E-05 1.69115E-03 9.84931E-15 2.07044E-14
 -1       290 2.00003E+01-9.05633E-04 1.07921E-05 3.20519E-03-1.40061E-13-8.53061E-14
 -1       291-8.38113E-01-1.07803E+01-9.90796E-01 1.17929E+00 5.26051E-13 1.21224E-12
 -1       292 2.92285E+00-8.14313E+00-7.40377E-01 3.66947E+00 1.20409E-12 1.01399E-12
 -1       293 9.98817E+00-4.67567E+00-4.44087E-01 5.83422E+00 1.49059E-12 8.06369E-13
 -1       294 2.02443E+01-9.70650E-01-4.95418E-02 7.10709E+00 1.39719E-12 1.09543E-12
 -1       295 3.03787E+01 3.08547E+00 3.91681E-01 7.62406E+00 1.17312E-12 1.19954E-12
 -1       296 3.86735E+01 5.03393E+00 5.74602E-01 4.38769E+00 1.11770E-12 4.16056E-13
 -1       297 4.55937E+01 6.44836E+00 9.79218E-01 2.49575E+00 9.89847E-13 1.32200E-13
 -1       298 4.48330E+01 6.91868E+00 8.67399E-01-1.22115E+00 9.39721E-13-3.50477E-13
 -1       299 4.18876E+01 5.73738E+00 8.56521E-01-5.20120E+00 8.49723E-13-1.10248E-12
 -1       300 3.34821E+01 3.59148E+00 4.77853E-01-6.79972E+00 1.01975E-12-1.14411E-12
 -1       301 2.35539E+01 9.57274E-01 1.14658E-01-7.63709E+00 1.14944E-12-1.21800E-12
 -1       302 1.37931E+01-2.67087E+00-3.02957E-01-6.51227E+00 1.03501E-12-1.23615E-12
 -1       303 7.17001E+00-6.49405E+00-4.28340E-01-5.59094E+00 3.53939E-13-1.16729E-12
 -1       304 6.01330E-01-9.37339E+00-7.97121E-01-2.53645E+00 1.19849E-13-9.06705E-13
 -1       305-9.45943E-01-8.83896E+00-6.39779E-01 2.45482E-02-2.74581E-13-8.45241E-13
 -1       306 6.21261E-01-9.73210E+00-8.97523E-01 2.25217E+00-9.28257E-13-8.42951E-13
 -1       307 7.79058E+00-6.46308E+00-4.24941E-01 5.60431E+00-8.45130E-13-7.86204E-13
 -1       308 1.55887E+01-2.71198E+00-2.51546E-01 6.62351E+00-1.12096E-12-1.04922E-12
 -1       309 2.66332E+01 2.98491E-01 1.30506E-01 6.66929E+00-1.06634E-12-9.76691E-13
 -1       310 3.61088E+01 3.85202E+00 5.09263E-01 5.70789E+00-1.17649E-12-6.21059E-13
 -1       311 4.44986E+01 6.06409E+00 9.87666E-01 4.01750E+00-8.34111E-13-2.32703E-13
 -1       312 4.75151E+01 6.67196E+00 1.11991E+00 1.60679E-01-7.22172E-13 4.11576E-13
 -1       313 4.34089E+01 6.26746E+00 8.17730E-01-3.04478E+00-1.07438E-12 7.86010E-13
 -1       314 3.75858E+01 4.49018E+00 6.58403E-01-6.39917E+00-1.26382E-12 1.24228E-12
 -1       315 2.81703E+01 1.21762E+00 2.09271E-01-6.79246E+00-1.28600E-12 1.30468E-12
 -1       316 1.76368E+01-1.92522E+00-1.71363E-01-6.87097E+00-1.27792E-12 1.67294E-12
 -1       317 8.40079E+00-5.45137E+00-5.70414E-01-5.17111E+00-1.34842E-12 1.14601E-12
 -1       318 2.26477E+00-8.77515E+00-8.45093E-01-3.03412E+00-8.18484E-13 1.11970E-12
 -1       319-8.20891E-01-1.03375E+01-9.10076E-01-1.02101E+00-1.10023E-13 1.15430E-12
 -1       320 2.01897E+01 3.03001E+00-1.77259E-02-2.01363E+00-2.82502E-13-2.60551E-13
 -1       321 2.07898E+01 2.20797E+00-1.74547E-02-2.27921E+00-3.42028E-13-7.04766E-14
 -1       322 1.95945E+01 3.75173E+00-1.52976E-02-1.22858E+00-1.29164E-13-4.43164E-13
 -1       323 1.94477E+01 3.92804E+00-1.32298E-02-8.52054E-01-6.01448E-14-4.60665E-13
 -1       324 1.93583E+01 4.03363E+00-1.21304E-02-4.98040E-01 2.52792E-14-4.39391E-13
 -1       325 1.93164E+01 4.08235E+00-1.16561E-02-1.58217E-01 1.00039E-13-4.03747E-13
 -1       326 1.93179E+01 4.08020E+00-1.16758E-02 1.77089E-01 1.72130E-13-3.67157E-13
 -1       327 1.93629E+01 4.02695E+00-1.21837E-02 5.17677E-01 2.30658E-13-3.58216E-13
 -1       328 1.94536E+01 3.91882E+00-1.33044E-02 8.66823E-01 2.86833E-13-3.00296E-13
 -1       329 1.96047E+01 3.73651E+00-1.53270E-02 1.24335E+00 3.53720E-13-1.82397E-13
 -1       330 1.98416E+01 3.44529E+00-1.86236E-02 1.64063E+00 4.13078E-13-7.12616E-14
 -1       331 2.02229E+01 2.96900E+00-2.26480E-02 2.03117E+00 4.31441E-13 1.09836E-13
 -1       332 2.07820E+01 2.12830E+00-3.00474E-02 2.23954E+00 3.92910E-13 4.32088E-13
 -1       333 2.11126E+01 1.18423E+00-2.43475E-02 1.85550E+00 3.25901E-13 7.30067E-13
 -1       334 2.04482E+01 4.94768E-01 8.63396E-03 8.54389E-01 2.68747E-13 5.93293E-13
 -1       335 2.05292E+01 6.88957E-01 1.28240E-02-9.30563E-01-2.73490E-13-9.22092E-15
 -1       336 2.01561E+01 3.63240E-01 7.49813E-03-3.38541E-01-2.04657E-13-1.21054E-14
 -1       337 1.99660E+01 2.15552E-01 4.61752E-03 7.82594E-03-1.23195E-13-5.72567E-15
 -1       338 1.99139E+01 1.43769E-01 2.52477E-03 2.30564E-01-1.01590E-13-2.46884E-14
 -1       339 1.99659E+01 1.10688E-01 1.59295E-03 3.89397E-01-7.67431E-14-3.77712E-14
 -1       340 2.00978E+01 9.94197E-02 1.26340E-03 5.18046E-01-6.04484E-14-4.15413E-14
 -1       341 2.02947E+01 1.00918E-01 1.18323E-03 6.36490E-01-1.39381E-14-4.53030E-14
 -1       342 2.05483E+01 1.08534E-01 1.17541E-03 7.55937E-01-5.05844E-14-4.60555E-14
 -1       343 2.08551E+01 1.15170E-01 1.11344E-03 8.80100E-01-9.34629E-14-5.28555E-14
 -1       344 2.12133E+01 1.11134E-01 8.58375E-04 1.00409E+00-5.72948E-14-7.56070E-14
 -1       345 2.16218E+01 8.21900E-02 2.38125E-04 1.11140E+00 4.13739E-14-1.09044E-13
 -1       346 2.20783E+01 8.45316E-03-9.33544E-04 1.16949E+00 1.82023E-14-3.30601E-14
 -1       347 2.25768E+01-1.33416E-01-2.73860E-03 1.12546E+00 1.58291E-14 3.67659E-14
 -1       348 2.31038E+01-3.59449E-01-4.97576E-03 9.06437E-01-1.21719E-14 1.02514E-13
 -1       349 2.36270E+01-6.51229E-01-6.96002E-03 4.34120E-01-6.52768E-14 1.53394E-13
 -1       350 2.40710E+01-9.08736E-01-7.72479E-03-3.26422E-01-1.76654E-13 1.57888E-13
 -1       351 2.43064E+01-9.28157E-01-6.06729E-03-1.27265E+00-1.13534E-13 1.77008E-13
 -1       352 2.41840E+01-4.68327E-01-3.99521E-03-2.06556E+00-1.57744E-13 1.77547E-13
 -1       353 2.36764E+01 5.05267E-01-8.67157E-03-2.15708E+00-1.21396E-13 1.22183E-13
 -1       354 2.31162E+01 1.47831E+00-1.19516E-02-1.18201E+00-2.98303E-14-2.33552E-14
 -1       355 2.29871E+01 1.70161E+00-1.30346E-02 4.93698E-01-1.27405E-13-1.36139E-13
 -1       356 2.34186E+01 9.84224E-01-8.79718E-03 1.87772E+00-1.73110E-13-2.76509E-13
 -1       357 2.40174E+01-7.70277E-02-6.36846E-03 2.25103E+00-1.10396E-13-5.15848E-13
 -1       358 2.43383E+01-7.88322E-01-6.38515E-03 1.70284E+00-9.83324E-14-7.25648E-13
 -1       359 2.42618E+01-9.55601E-01-7.24181E-03 7.71930E-01-1.44133E-13-5.52805E-13
 -1       360 2.39079E+01-7.68922E-01-7.45465E-03-8.63119E-02 1.29037E-14-4.48307E-13
 -1       361 2.34291E+01-4.70827E-01-5.86150E-03-6.74486E-01 1.75834E-13-4.91611E-13
 -1       362 2.29247E+01-2.07574E-01-3.53327E-03-9.81797E-01 1.57933E-13-5.20038E-13
 -1       363 2.24429E+01-2.69973E-02-1.44813E-03-1.07607E+00 3.63229E-15-6.00799E-13
 -1       364 2.20041E+01 7.58760E-02 1.46192E-05-1.03625E+00 5.44981E-14-3.44186E-13
 -1       365 2.16162E+01 1.22817E-01 8.59432E-04-9.25625E-01-2.11129E-14 1.18893E-14
 -1       366 2.12816E+01 1.35219E-01 1.23916E-03-7.86913E-01-2.00758E-14-1.37490E-13
 -1       367 2.09992E+01 1.28846E-01 1.32186E-03-6.45665E-01-4.60711E-14-3.38790E-13
 -1       368 2.07657E+01 1.13777E-01 1.24045E-03-5.15402E-01 9.60108E-14-1.13051E-13
 -1       369 2.05765E+01 9.58570E-02 1.08389E-03-4.02069E-01-4.08439E-14 7.13963E-14
 -1       370 2.04259E+01 7.81932E-02 9.05015E-04-3.07206E-01 4.46871E-14 9.85068E-14
 -1       371 2.03084E+01 6.22571E-02 7.32023E-04-2.30006E-01 1.01894E-13-1.16464E-13
 -1       372 2.02183E+01 4.86024E-02 5.77987E-04-1.68554E-01 2.35438E-13 1.48508E-13
 -1       373 2.01506E+01 3.72954E-02 4.47442E-04-1.20541E-01-1.13408E-13 2.19751E-13
 -1       374 2.01007E+01 2.81635E-02 3.40389E-04-8.36542E-02 1.21711E-14 1.18799E-13
 -1       375 2.00649E+01 2.09314E-02 2.54611E-04-5.57713E-02 2.85220E-14 1.19465E-14
 -1       376 2.00399E+01 1.52907E-02 1.86590E-04-3.50490E-02 2.24100E-13 1.96533E-13
 -1       377 2.00231E+01 1.09284E-02 1.32070E-04-1.99567E-02 1.91831E-13-1.05535E-14
 -1       378 2.00123E+01 7.52278E-03 9.05750E-05-9.29386E-03 2.46226E-14-3.36602E-14
 -1       379 2.00057E+01 4.67939E-03 6.54787E-05-2.16482E-03 1.55497E-13 1.76118E-13
 -1       380 2.00021E+01 1.98244E-03 9.47670E-06 1.72927E-03-6.15166E-14 4.91580E-14
 -1       381 1.99981E+01 2.41401E-01 1.10628E-02 3.09944E-01 2.00897E-13 5.19206E-13
 -1       382 1.97762E+01 1.35485E-01 6.57198E-03 5.70291E-03 1.65389E-13 4.50051E-13
 -1       383 1.97276E+01 8.50788E-02 3.34461E-03-1.78924E-01 8.57644E-14 3.61320E-13
 -1       384 1.97983E+01 6.07174E-02 1.84993E-03-3.02203E-01 7.30623E-14 3.34726E-13
 -1       385 1.99546E+01 4.96442E-02 1.23341E-03-3.94460E-01 9.36885E-14 2.99149E-13
 -1       386 2.01762E+01 4.52601E-02 9.51200E-04-4.71640E-01 8.55378E-14 3.26257E-13
 -1       387 2.04511E+01 4.29205E-02 7.46850E-04-5.41096E-01 7.68139E-14 2.85232E-13
 -1       388 2.07711E+01 3.81310E-02 4.83840E-04-6.03300E-01 5.65379E-14 2.53491E-13
 -1       389 2.11280E+01 2.56504E-02 5.94616E-05-6.51692E-01 8.14920E-14 2.39292E-13
 -1       390 2.15101E+01-8.15629E-04-6.07590E-04-6.71676E-01 7.25159E-14 1.67753E-13
 -1       391 2.18990E+01-4.79718E-02-1.54707E-03-6.39807E-01 9.66471E-14 1.38098E-13
 -1       392 2.22656E+01-1.20424E-01-2.67433E-03-5.24994E-01 4.59258E-14 1.76771E-13
 -1       393 2.25673E+01-2.15209E-01-3.73554E-03-2.94815E-01-7.86209E-14 1.43387E-13
 -1       394 2.27484E+01-3.13127E-01-4.33406E-03 6.90334E-02-4.21557E-14 1.00460E-13
 -1       395 2.27458E+01-3.70269E-01-3.91338E-03 5.43642E-01 1.04919E-13 1.72639E-13
 -1       396 2.25094E+01-3.21909E-01-2.17506E-03 1.03255E+00 3.52014E-14 1.81937E-13
 -1       397 2.20426E+01-1.17639E-01 1.52043E-04 1.35529E+00-6.29029E-14 1.75440E-13
 -1       398 2.14521E+01 2.16305E-01 2.08083E-03 1.30525E+00 1.75964E-14 1.45925E-13
 -1       399 2.09548E+01 5.40241E-01 3.49394E-03 7.86012E-01 3.51282E-16 7.81710E-14
 -1       400 2.07841E+01 6.67209E-01 4.02670E-03-6.06703E-02 2.49759E-13 5.81142E-14
 -1       401 2.10339E+01 5.13625E-01 4.37475E-03-8.86112E-01 1.03385E-13 6.38578E-14
 -1       402 2.15801E+01 1.80917E-01 3.86498E-03-1.35507E+00-1.63874E-13 3.33587E-15
 -1       403 2.21799E+01-1.43374E-01 1.02585E-03-1.35576E+00-7.97440E-14 7.93124E-14
 -1       404 2.26300E+01-3.29268E-01-2.27697E-03-1.00646E+00 9.77684E-14-6.45983E-14
 -1       405 2.28445E+01-3.61795E-01-4.32102E-03-5.18365E-01 2.94396E-14 7.88103E-14
 -1       406 2.28345E+01-2.96082E-01-4.85264E-03-6.31888E-02-1.42216E-13 1.41960E-13
 -1       407 2.26567E+01-1.95214E-01-4.08527E-03 2.72605E-01 8.24887E-14 1.36141E-13
 -1       408 2.23759E+01-1.00610E-01-2.74204E-03 4.72945E-01 6.07179E-14 3.16376E-13
 -1       409 2.20466E+01-2.95931E-02-1.40614E-03 5.59616E-01 2.64704E-14 2.57123E-13
 -1       410 2.17089E+01 1.59039E-02-3.56547E-04 5.66242E-01 1.95461E-13-6.87812E-15
 -1       411 2.13888E+01 4.06522E-02 3.40151E-04 5.24236E-01 6.39932E-14 4.68115E-14
 -1       412 2.11016E+01 5.09090E-02 7.27993E-04 4.57656E-01 5.93417E-14 2.07258E-13
 -1       413 2.08540E+01 5.21227E-02 8.88929E-04 3.82765E-01 2.89703E-14 3.12276E-13
 -1       414 2.06474E+01 4.83017E-02 9.03473E-04 3.09466E-01 9.52387E-14 3.45235E-13
 -1       415 2.04798E+01 4.21121E-02 8.34837E-04 2.43094E-01-1.31447E-13 7.56378E-14
 -1       416 2.03471E+01 3.51960E-02 7.26733E-04 1.85983E-01-2.55060E-14 1.67341E-13
 -1       417 2.02446E+01 2.84886E-02 6.06680E-04 1.38625E-01-3.83308E-14 2.25962E-13
 -1       418 2.01671E+01 2.24666E-02 4.90514E-04 1.00480E-01 1.68201E-13 2.65133E-13
 -1       419 2.01100E+01 1.73229E-02 3.86252E-04 7.04915E-02-1.30342E-13 2.11325E-13
 -1       420 2.00692E+01 1.30846E-02 2.96920E-04 4.74208E-02-1.10218E-13 2.22194E-13
 -1       421 2.00410E+01 9.68897E-03 2.22271E-04 3.00331E-02 8.24272E-14-4.63412E-16
 -1       422 2.00223E+01 7.01642E-03 1.61597E-04 1.72012E-02 3.42622E-14 2.48396E-13
 -1       423 2.00107E+01 4.89274E-03 1.10459E-04 8.00975E-03 7.57730E-14 5.98540E-13
 -1       424 2.00042E+01 3.17352E-03 6.82118E-05 1.77398E-03 1.78351E-13 8.65660E-13
 -1       425 2.00010E+01 1.46600E-03 3.91666E-05-1.91517E-03 2.99400E-13 7.61650E-13
 -1       426 2.00003E+01 1.64299E-04 8.25199E-06-2.86379E-03 6.15069E-13 6.70081E-13
 -1       427 2.00025E+01 9.40572E-03 1.65865E-05 4.54713E-03-6.68370E-14-1.13514E-13
 -1       428 2.00032E+01 4.98623E-03 2.64336E-05 1.58200E-03-7.28641E-14 4.38549E-13
 -1       429 2.00022E+01 1.86599E-03 1.41658E-05-1.20074E-03 3.85474E-13 4.90678E-13
 -1       430 2.00010E+01 1.42340E-02 7.95510E-06 6.29978E-03-2.67426E-13-9.57228E-13
 -1       431 1.99992E+01 1.89451E-02-1.91903E-06 6.27955E-03-2.13072E-14 3.06486E-14
 -1       432 1.99978E+01 2.26175E-02-1.34692E-05 4.52077E-03 1.88663E-13 1.78120E-13
 -1       433 1.99970E+01 2.46070E-02-2.01302E-05 1.53632E-03-1.03852E-13-2.52885E-13
 -1       434 1.99970E+01 2.45529E-02-2.00188E-05-1.87057E-03-1.72151E-13 4.74350E-14
 -1       435 1.99979E+01 2.24593E-02-1.30819E-05-4.79770E-03-1.01607E-13 1.32810E-13
 -1       436 1.99993E+01 1.87770E-02-1.99339E-06-6.43085E-03-9.97062E-14-5.91623E-14
 -1       437 2.00011E+01 1.40325E-02 9.68489E-06-6.33184E-03 8.77090E-14 2.08660E-13
 -1       438 2.00026E+01 9.08580E-03 1.95613E-05-4.42443E-03 5.35995E-13-4.10354E-13
 -1       439 2.00033E+01 4.60879E-03 1.38081E-05-1.21066E-03 7.26028E-15-4.82018E-13
 -1       440 1.07698E+01-5.38712E+00-2.21263E-02 6.99961E+00 3.77101E-13 4.12420E-13
 -1       441 1.03128E+00-4.48739E+00-8.42573E-02 3.34423E-01-8.14661E-14 1.46791E-12
 -1       442 3.51321E+00-4.83640E+00-7.42099E-02 4.37149E+00-2.09277E-14 1.21937E-12
 -1       443 1.95473E+01-5.31038E+00-1.79929E-02 6.55451E+00 4.42785E-13 2.58120E-13
 -1       444 2.76642E+01-2.26772E+00 3.34349E-02 4.14969E+00 6.34319E-13 3.19217E-13
 -1       445 1.98363E+01 3.46806E+00-1.74436E-02-1.63952E+00-2.04017E-13-3.86758E-13
 -1       446 3.42526E+01 6.19144E+00-2.93662E-02-3.64507E-01 1.11941E-12-1.84353E-13
 -1       447 3.51097E+01 8.04809E+00 2.87719E-02-1.04542E-01 1.15030E-12-2.00780E-13
 -1       448 3.58554E+01 6.68311E+00 8.89548E-02-5.80023E-02 9.09453E-13-1.27634E-13
 -1       449 3.31369E+01 2.96852E+00-6.44038E-04-3.03805E-01 6.49911E-13-1.00447E-13
 -1       450 2.92655E+01-1.98723E+00-2.46497E-02-2.61810E+00 2.93324E-13-1.91680E-13
 -1       451 2.41886E+01-4.22831E+00 1.21497E-02-5.41762E+00 4.77951E-14-3.67442E-13
 -1       452 1.55009E+01-5.40528E+00-3.09347E-02-7.03191E+00-1.78080E-13-7.12638E-13
 -1       453 6.62520E+00-4.69204E+00 1.15142E-02-5.87455E+00-2.35478E-13-9.69433E-13
 -1       454 2.50571E+00-3.77946E+00 3.11229E-02-2.65174E+00-1.06380E-13-8.57939E-13
 -1       455 2.46205E+00-4.38454E+00-3.74844E-02 2.96693E+00-8.98517E-14-8.36026E-13
 -1       456 7.53445E+00-4.85332E+00 1.36743E-02 6.06347E+00 9.75608E-15-6.71352E-13
 -1       457 1.66581E+01-5.60934E+00-2.18380E-02 6.79656E+00-1.41442E-13-3.15810E-13
 -1       458 2.41059E+01-4.59731E+00-3.14370E-02 5.23465E+00-2.04878E-13-2.26111E-13
 -1       459 3.12019E+01-6.47779E-01 1.94877E-02 1.97513E+00-6.82345E-13 2.89990E-13
 -1       460 3.47793E+01 4.24677E+00 4.11881E-02-4.96075E-02-9.32032E-13 2.37338E-13
 -1       461 3.50242E+01 7.46053E+00-7.69966E-03-4.66805E-01-8.81434E-13 8.70554E-14
 -1       462 3.59664E+01 7.64987E+00 5.80199E-02 2.84327E-01-9.82769E-13 2.23446E-13
 -1       463 3.46367E+01 4.14218E+00 2.38347E-02 8.65647E-02-8.34915E-13 1.89848E-13
 -1       464 3.21715E+01 2.95393E-01 3.80900E-02-1.52821E+00-7.77223E-13 1.31450E-13
 -1       465 2.58411E+01-4.00860E+00-2.19414E-02-4.53064E+00-2.90101E-13 3.98237E-13
 -1       466 1.77528E+01-5.61509E+00-3.05977E-02-6.68980E+00-2.56822E-13 7.64978E-13
 -1       467 1.01353E+01-5.31892E+00-9.49487E-03-6.72061E+00 9.17322E-15 8.13058E-13
 -1       468 3.37184E+00-5.07751E+00-9.24350E-02-4.10064E+00-2.69645E-14 1.22692E-12
 -1       469 3.22549E+01 1.44079E+00 2.06591E-02 1.78190E+00 9.39627E-13 1.07497E-13
 -1       470 3.13655E+01 3.16593E+00-8.71931E-02-1.35647E+00 9.56638E-13-2.25597E-13
 -1       471 1.43432E+01-4.97962E+00 8.17101E-02 6.92730E+00 2.58141E-13-2.28220E-13
 -1       472 3.85593E+00-1.79586E+00 1.51612E-01 3.57059E-01-1.46098E-14-8.65072E-13
 -1       473 1.28925E+01-4.80535E+00 7.18153E-02-7.10166E+00-4.47586E-13-6.33042E-13
 -1       474 2.04529E+01 8.59255E-01 4.09924E-03 8.53401E-01 2.73875E-13 2.13047E-13
 -1       475 1.96831E+01 3.23827E+00-5.13830E-03-5.58658E-01-9.23965E-15-3.85243E-13
 -1       476 1.98110E+01 3.03979E+00-5.56844E-03-8.46311E-01-6.94405E-14-3.93787E-13
 -1       477 1.95872E+01 3.38129E+00-4.75626E-03 6.98484E-03 1.21686E-13-3.25739E-13
 -1       478 1.96137E+01 3.34164E+00-4.84976E-03 2.88451E-01 1.83986E-13-3.09279E-13
 -1       479 1.96887E+01 3.22806E+00-5.19786E-03 5.69021E-01 2.39639E-13-2.89128E-13
 -1       480 1.98181E+01 3.02498E+00-5.79484E-03 8.57791E-01 3.19889E-13-1.91318E-13
 -1       481 2.00070E+01 2.70974E+00-6.43584E-03 1.13784E+00 3.49481E-13-9.52656E-14
 -1       482 2.02767E+01 2.23314E+00-5.66078E-03 1.38038E+00 3.69701E-13 2.05246E-14
 -1       483 2.02321E+01 4.97936E-01 5.27451E-03 3.13538E-01 2.10024E-13 1.77076E-13
 -1       484 2.04245E+01 1.01857E+00 2.88356E-03-8.00459E-01-2.23715E-13-1.31219E-13
 -1       485 2.91856E+01-2.06221E+00-7.83792E-02 5.91875E-01 3.62564E-13-9.52155E-14
 -1       486 2.02869E+01 6.15660E-01 2.51496E-03-2.86127E-01-1.48790E-13-1.05607E-13
 -1       487 2.01852E+01 4.01092E-01 1.34254E-03 7.28021E-02-1.07544E-13-1.04669E-13
 -1       488 2.01430E+01 2.89676E-01 7.68646E-04 3.30075E-01-1.00459E-13-8.33103E-14
 -1       489 2.01575E+01 2.37434E-01 5.50153E-04 5.28805E-01-5.26999E-14-7.87388E-14
 -1       490 2.02205E+01 2.21161E-01 4.96430E-04 6.98355E-01-5.33493E-14-7.74049E-14
 -1       491 2.03248E+01 2.25634E-01 5.04842E-04 8.57914E-01-2.04119E-14-1.05018E-13
 -1       492 2.04657E+01 2.37429E-01 5.17294E-04 1.01832E+00-8.28359E-14-8.31840E-14
 -1       493 2.06426E+01 2.40784E-01 4.81415E-04 1.18218E+00-6.94175E-14-1.68574E-14
 -1       494 2.08602E+01 2.13972E-01 3.24847E-04 1.34244E+00 2.90737E-14 8.61962E-14
 -1       495 2.11312E+01 1.26245E-01-5.48344E-05 1.47921E+00 7.26645E-14 1.22261E-13
 -1       496 2.14804E+01-6.27261E-02-7.90723E-04 1.55505E+00 4.88378E-14 5.49029E-14
 -1       497 2.19474E+01-3.95166E-01-1.85138E-03 1.50899E+00 2.39443E-14 1.08472E-13
 -1       498 2.25797E+01-8.88166E-01-3.06990E-03 1.25307E+00-2.86249E-14 1.18762E-13
 -1       499 2.34087E+01-1.47534E+00-3.90407E-03 6.77011E-01-5.49281E-14 1.63020E-13
 -1       500 2.43616E+01-1.89072E+00-4.67457E-03-2.91914E-01-5.69123E-14 3.58271E-13
 -1       501 2.51789E+01-1.69678E+00-6.84848E-03-1.54970E+00-1.06849E-13 4.47375E-13
 -1       502 2.53960E+01-2.52863E-01-4.64769E-02-2.54349E+00-2.19335E-13 5.20219E-13
 -1       503 2.50944E+01 1.95078E+00-5.97286E-02-2.30446E+00-1.98317E-13 4.36017E-13
 -1       504 2.47333E+01 3.43859E+00-6.60100E-02-4.97466E-01-3.64514E-13-4.17277E-15
 -1       505 2.49247E+01 2.79852E+00-5.81575E-02 1.66137E+00-3.35645E-13-4.56776E-13
 -1       506 2.53862E+01 6.59298E-01-4.00015E-02 2.61398E+00-3.06641E-13-5.75538E-13
 -1       507 2.53993E+01-1.19352E+00-1.88278E-02 2.06876E+00-1.64715E-13-5.90049E-13
 -1       508 2.47789E+01-1.88826E+00-5.94373E-03 8.58022E-01-7.59548E-14-5.04139E-13
 -1       509 2.38552E+01-1.68217E+00-3.98270E-03-2.48573E-01-1.14073E-14-3.23364E-13
 -1       510 2.29702E+01-1.12024E+00-3.25812E-03-9.78586E-01 5.95383E-14-3.87773E-13
 -1       511 2.22663E+01-5.64987E-01-2.10557E-03-1.34477E+00 2.92052E-13-4.00403E-13
 -1       512 2.17482E+01-1.56173E-01-9.73912E-04-1.45135E+00 1.68034E-14-3.51121E-13
 -1       513 2.13707E+01 9.48322E-02-1.64392E-04-1.39875E+00 1.01342E-13-5.00241E-13
 -1       514 2.10881E+01 2.23578E-01 3.08268E-04-1.26091E+00 1.31989E-13-5.30323E-13
 -1       515 2.08681E+01 2.71775E-01 5.31041E-04-1.08675E+00-4.16079E-14-4.83618E-13
 -1       516 2.06910E+01 2.72828E-01 5.94653E-04-9.06205E-01 4.00814E-14-3.02790E-13
 -1       517 2.05458E+01 2.49513E-01 5.69812E-04-7.36145E-01 1.78349E-13-1.87637E-13
 -1       518 2.04262E+01 2.15901E-01 5.03543E-04-5.84912E-01 2.67868E-13-6.06787E-15
 -1       519 2.03281E+01 1.80020E-01 4.23496E-04-4.55575E-01 6.63908E-14 1.44002E-13
 -1       520 2.02487E+01 1.46083E-01 3.44380E-04-3.48122E-01-4.41810E-14 2.02729E-13
 -1       521 2.01853E+01 1.16022E-01 2.73073E-04-2.60883E-01 2.39097E-13 2.58710E-13
 -1       522 2.01354E+01 9.04797E-02 2.12162E-04-1.91418E-01 2.46390E-13 1.35859E-13
 -1       523 2.00970E+01 6.93992E-02 1.61922E-04-1.37059E-01-1.20911E-13 4.36383E-13
 -1       524 2.00679E+01 5.23809E-02 1.21552E-04-9.52195E-02-6.92577E-14 9.68163E-14
 -1       525 2.00462E+01 3.88782E-02 8.98451E-05-6.35544E-02-3.56963E-15 7.11807E-14
 -1       526 2.00305E+01 2.82877E-02 6.45827E-05-4.00383E-02 1.00761E-13-2.25467E-13
 -1       527 2.00193E+01 2.00011E-02 4.56489E-05-2.30132E-02 2.22507E-13-2.97413E-13
 -1       528 2.00114E+01 1.33359E-02 3.67893E-05-1.11688E-02 9.19060E-14-2.31064E-13
 -1       529 2.00533E+01 2.09080E-01 1.37552E-03-2.74734E-01 1.04312E-13 1.28365E-13
 -1       530 2.00830E+01 1.58067E-01 8.18037E-04-4.46920E-01 9.88023E-14 1.03491E-13
 -1       531 2.01735E+01 1.33180E-01 6.02130E-04-5.82723E-01 9.13827E-14 1.13010E-13
 -1       532 2.03139E+01 1.20648E-01 4.92480E-04-6.98741E-01 6.35326E-14 1.10667E-13
 -1       533 2.04972E+01 1.09136E-01 3.80906E-04-8.01995E-01 8.01546E-14 1.56202E-13
 -1       534 2.07195E+01 8.68533E-02 1.96982E-04-8.90696E-01 8.44642E-14 1.17023E-13
 -1       535 2.09793E+01 4.01437E-02-1.24860E-04-9.53638E-01 1.30950E-13 9.35193E-14
 -1       536 2.12764E+01-4.63714E-02-6.40891E-04-9.68999E-01 8.32112E-14 1.17732E-13
 -1       537 2.16105E+01-1.86741E-01-1.36942E-03-9.03697E-01 6.42902E-14 3.74232E-14
 -1       538 2.19770E+01-3.85325E-01-2.21549E-03-7.15741E-01-9.22157E-15-7.49414E-15
 -1       539 2.23593E+01-6.21261E-01-2.95109E-03-3.63755E-01-4.11839E-14-2.52595E-14
 -1       540 2.27159E+01-8.26757E-01-3.34250E-03 1.70433E-01-1.89521E-14-5.39486E-14
 -1       541 2.29679E+01-8.72951E-01-2.66840E-03 8.40064E-01 9.65937E-15 1.83434E-13
 -1       542 2.30089E+01-5.99169E-01-5.70207E-04 1.47989E+00-1.14792E-13 2.74981E-13
 -1       543 2.27766E+01 5.96436E-02 2.10167E-04 1.79510E+00-4.34058E-14 3.77735E-13
 -1       544 2.23649E+01 9.17338E-01-1.25878E-03 1.48496E+00 1.02779E-13 4.29135E-13
 -1       545 2.20456E+01 1.52648E+00-1.66395E-03 5.18273E-01 1.83709E-13 1.91851E-13
 -1       546 2.20746E+01 1.47740E+00-3.71983E-03-7.10000E-01 2.01076E-13 1.52388E-13
 -1       547 2.24384E+01 8.00120E-01-1.04129E-03-1.59880E+00 6.77511E-14 5.60837E-14
 -1       548 2.28467E+01-5.00765E-02-8.00342E-04-1.81108E+00-8.91220E-14-1.58961E-13
 -1       549 2.30506E+01-6.54485E-01-1.97906E-03-1.43455E+00 1.80320E-13-3.05716E-13
 -1       550 2.29855E+01-8.68725E-01-2.78356E-03-7.85120E-01 6.59597E-14-3.61723E-13
 -1       551 2.27275E+01-7.86946E-01-3.51624E-03-1.41014E-01-4.73602E-14-4.64358E-13
 -1       552 2.23810E+01-5.66829E-01-3.12640E-03 3.52664E-01-1.95300E-13-4.85964E-13
 -1       553 2.20202E+01-3.29313E-01-2.16303E-03 6.61049E-01-8.96220E-14-2.30518E-13
 -1       554 2.16825E+01-1.35264E-01-1.18067E-03 8.08362E-01 1.30617E-13-2.12967E-13
 -1       555 2.13815E+01-1.15135E-03-3.98663E-04 8.38203E-01 1.90101E-13-2.69661E-13
 -1       556 2.11198E+01 7.89446E-02 1.31983E-04 7.93045E-01-3.88939E-14 6.98058E-14
 -1       557 2.08957E+01 1.18468E-01 4.38710E-04 7.06663E-01-2.60937E-14 1.89853E-13
 -1       558 2.07064E+01 1.30909E-01 5.77020E-04 6.02933E-01-4.04966E-15 2.57723E-13
 -1       559 2.05487E+01 1.27038E-01 6.04559E-04 4.97235E-01 1.08363E-13 2.72679E-13
 -1       560 2.04193E+01 1.14482E-01 5.67726E-04 3.98551E-01 1.73182E-13 2.66773E-13
 -1       561 2.03148E+01 9.82247E-02 4.99077E-04 3.11421E-01-9.32048E-14 7.04161E-15
 -1       562 2.02320E+01 8.13004E-02 4.19325E-04 2.37504E-01-4.54189E-15 1.21430E-13
 -1       563 2.01674E+01 6.54085E-02 3.40505E-04 1.76699E-01 9.70708E-15 6.50309E-14
 -1       564 2.01180E+01 5.13794E-02 2.68910E-04 1.27938E-01 1.27326E-13 5.26354E-14
 -1       565 2.00810E+01 3.95045E-02 2.07124E-04 8.96949E-02-3.43874E-14-2.34936E-14
 -1       566 2.00539E+01 2.97575E-02 1.55055E-04 6.03220E-02 1.57775E-14-1.08208E-13
 -1       567 2.00346E+01 2.19331E-02 1.17541E-04 3.82601E-02-8.35887E-14 6.58710E-14
 -1       568 2.00212E+01 1.57691E-02 1.04467E-04 2.21256E-02-2.64245E-13 5.20259E-14
 -1       569 2.00122E+01 1.05943E-02 5.60101E-05 1.05821E-02-1.47485E-13 3.55598E-13
 -1       570 2.00063E+01 6.26758E-03 3.57150E-05 3.01262E-03 4.05814E-13 4.69287E-13
 -1       571 1.99997E+01 2.94525E-02 1.78843E-06 1.16260E-02 6.69989E-14-2.44285E-13
 -1       572 1.99962E+01 3.56724E-02-3.46148E-06 9.50842E-03-1.25771E-14 3.69811E-13
 -1       573 2.00058E+01 1.45832E-02-1.09816E-05 8.34438E-03-6.27664E-14-2.34202E-13
 -1       574 2.00034E+01 2.21213E-02 1.83795E-05 1.11657E-02-3.97909E-13-5.86831E-13
 -1       575 1.99938E+01 3.97838E-02-7.87745E-06 5.24185E-03-4.94877E-14-4.89848E-14
 -1       576 1.99929E+01 4.12026E-02-9.53077E-06-2.06397E-04-4.34110E-14-3.81728E-13
 -1       577 1.99939E+01 3.97243E-02-7.85229E-06-5.62554E-03-2.13708E-13 3.22245E-13
 -1       578 1.99964E+01 3.56459E-02-3.91120E-06-9.74716E-03-7.62107E-14 2.23108E-14
 -1       579 2.00000E+01 2.94011E-02 4.72492E-07-1.17755E-02 2.05436E-14-5.16746E-14
 -1       580 2.00037E+01 2.18624E-02-6.04190E-06-1.11610E-02 1.22464E-13 1.78771E-13
 -1       581 2.00062E+01 1.42116E-02 7.27846E-06-8.15888E-03-2.78698E-14-8.26488E-13
 -1       582 5.07944E+00-1.62338E+00 1.72162E-01 2.65505E+00-2.52267E-13 1.14764E-12
 -1       583 1.74805E+01-5.12926E+00 7.75485E-02 6.69470E+00-1.29480E-13-3.17593E-14
 -1       584 2.00988E+01 3.08176E-01 2.73318E-03-3.72005E-02 1.75255E-13 1.57094E-13
 -1       585 4.77382E+00-1.78108E+00 1.63711E-01-2.30240E+00 7.53703E-14 1.33318E-12
 -1       586 9.81455E+00-3.14493E+00 1.44478E-01 6.11603E+00-3.41706E-13 6.40488E-13
 -1       587 2.04535E+01 1.78518E+00-5.99818E-03-1.42089E+00-2.77700E-13-1.91604E-13
 -1       588 8.56199E+00-3.06344E+00 1.30598E-01-5.51663E+00 1.23714E-13 9.26439E-13
 -1       589 3.07164E+01 5.35108E+00-1.49213E-01 1.81001E+00-8.49584E-13-1.54605E-13
 -1       590 2.16474E+01-5.51661E+00 5.96420E-02-5.66572E+00-4.82586E-13-2.07914E-13
 -1       591 2.92137E+01-6.23689E-01-1.23761E-01 8.69793E-01 2.12358E-13 3.57631E-13
 -1       592 1.96100E+01 3.34791E+00-4.85072E-03-2.74196E-01 6.69170E-14-3.72867E-13
 -1       593 3.07164E+01 4.47087E+00-1.34572E-01 1.58209E+00 5.29424E-13 2.85452E-13
 -1       594 3.01380E+01 6.58962E+00-1.78188E-01-1.07749E+00 1.09325E-12-3.50192E-13
 -1       595 3.01912E+01 7.08954E+00-1.56404E-01 7.64995E-01 9.07746E-13 5.55077E-14
 -1       596 2.57920E+01-4.70356E+00-1.95564E-02-3.38692E+00-3.42150E-13-1.01905E-13
 -1       597 3.06625E+01 5.99944E-01-1.03160E-01-1.46926E+00-5.44960E-13 5.24483E-13
 -1       598 7.61401E+00-1.97921E+00 1.76559E-01-4.51632E+00-1.91916E-13-8.39342E-13
 -1       599 7.62264E+00-2.27090E+00 1.79608E-01 4.66772E+00 2.11386E-13-5.22152E-13
 -1       600 2.28040E+01-5.64766E+00 4.57096E-02 4.95113E+00 1.77865E-13 6.92536E-14
 -1       601 2.34284E+01-5.62006E+00 1.84675E-02-4.74675E+00 2.00603E-14 2.43017E-13
 -1       602 2.77475E+01-4.28672E+00-5.21259E-02 1.70099E+00-5.20937E-14 4.69243E-13
 -1       603 3.05404E+01 4.82030E+00-1.70889E-01-1.92505E+00-7.16704E-13 2.31475E-13
 -1       604 3.06187E+01 7.14345E+00-1.64456E-01-1.93726E-02-8.91884E-13 7.30969E-16
 -1       605 3.09175E+01 1.01841E+00-1.19980E-01 1.44472E+00-5.20452E-13-1.46494E-13
 -1       606 2.88650E+01-3.23963E+00-5.07275E-02-8.17223E-01-1.56772E-13-2.45241E-13
 -1       607 1.69221E+01-5.07775E+00 1.05986E-01-6.61141E+00 2.70055E-13 6.80671E-13
 -1       608 2.06398E+01 1.31680E+00-9.03895E-04 1.45091E+00 3.52668E-13 3.02136E-13
 -1       609 2.54226E+01-4.96860E+00 1.50752E-02 3.73326E+00 1.26565E-13-1.21292E-13
 -1       610 1.99888E+01 2.72862E+00-9.51418E-03-1.11947E+00-1.56049E-13-3.52772E-13
 -1       611 2.87830E+01 4.34435E+00-1.40682E-01-1.98276E+00 9.82811E-13-4.39530E-13
 -1       612 1.24391E+01-2.93907E+00 1.29900E-01 5.83218E+00 3.79349E-13-3.13409E-13
 -1       613 7.21836E+00-5.64256E-01 1.75961E-01-2.06010E+00-8.22510E-14-7.20264E-13
 -1       614 2.74956E+01-3.33315E+00-4.25002E-02-3.92790E-01-2.15418E-13 4.02418E-13
 -1       615 1.18557E+01-2.68200E+00 1.28308E-01-5.85099E+00-2.79231E-13-5.23047E-13
 -1       616 2.00075E+01 9.22875E-03 2.78242E-05-5.41404E-03-2.59427E-15-2.84196E-13
 -1       617 1.98639E+01 2.64366E+00-1.52859E-03 3.16582E-01 1.83284E-13-2.56517E-13
 -1       618 1.98122E+01 2.73430E+00-1.43751E-03 1.07095E-01 1.26394E-13-2.83193E-13
 -1       619 2.01045E+01 2.17624E+00-1.58070E-03 7.07035E-01 2.75459E-13-1.28125E-13
 -1       620 2.02688E+01 1.76608E+00-2.21343E-03 8.39995E-01 3.14219E-13-1.47935E-14
 -1       621 2.03889E+01 1.10471E+00 2.87281E-03 6.72236E-01 2.75193E-13 4.65259E-14
 -1       622 1.44112E+01-2.93837E+00 1.06402E-01-5.74414E+00 2.57100E-13 5.37622E-13
 -1       623 9.35421E+00-8.12375E-01 1.47916E-01-3.61186E+00 1.56132E-13 1.06701E-12
 -1       624 2.62153E+01-4.75290E+00-7.90015E-03-1.92392E+00 7.53165E-14-3.29466E-13
 -1       625 2.81485E+01-2.21224E+00-4.08116E-02-1.25799E+00-1.59220E-13 5.43791E-13
 -1       626 2.03092E+01 8.11576E-01 6.67221E-04-1.59295E-01-1.05675E-13-1.46071E-13
 -1       627 2.02544E+01 5.73315E-01 2.72430E-04 1.68455E-01-7.95188E-14-1.35809E-13
 -1       628 2.02097E+01 4.44352E-01 1.74531E-04 4.23669E-01-7.09087E-14-8.33308E-14
 -1       629 2.01829E+01 3.85297E-01 1.44139E-04 6.34049E-01-4.78268E-14-1.02145E-13
 -1       630 2.01737E+01 3.70913E-01 1.52587E-04 8.22010E-01-5.35836E-14-1.05146E-13
 -1       631 2.01802E+01 3.81039E-01 1.70737E-04 1.00369E+00-4.24649E-14-5.81785E-14
 -1       632 2.02019E+01 3.95232E-01 1.86858E-04 1.18902E+00-3.21703E-14 3.68420E-14
 -1       633 2.02437E+01 3.88020E-01 1.84474E-04 1.38164E+00 4.76440E-14 5.97898E-14
 -1       634 2.03198E+01 3.24295E-01 1.22011E-04 1.57802E+00-1.26625E-14 4.07550E-14
 -1       635 2.04619E+01 1.55481E-01-8.14595E-05 1.76525E+00 3.36558E-14 4.87142E-15
 -1       636 2.07283E+01-1.80720E-01-5.75577E-04 1.91581E+00 9.82768E-14 7.03983E-14
 -1       637 2.12146E+01-7.48056E-01-7.40829E-04 1.97444E+00 7.04981E-14 9.78638E-14
 -1       638 2.20420E+01-1.56177E+00 1.31351E-04 1.83612E+00 3.31207E-14 2.31194E-13
 -1       639 2.33567E+01-2.51171E+00-4.99449E-03 1.29172E+00 5.85943E-14 3.41229E-13
 -1       640 2.50287E+01-3.07640E+00 3.11166E-03 2.19021E-01 2.16320E-15 4.17974E-13
 -1       641 2.71825E+01 4.40317E+00-1.40673E-01-1.77356E+00-5.81826E-13 2.42752E-13
 -1       642 2.69227E+01 5.24105E+00-1.46096E-01 8.54787E-01-7.63625E-13-1.43541E-13
 -1       643 2.72339E+01 2.42602E+00-1.12161E-01 2.64040E+00-4.68837E-13-4.87665E-13
 -1       644 2.70460E+01-1.12209E+00-4.78049E-02 2.18653E+00-2.25596E-13-5.83171E-13
 -1       645 2.57544E+01-2.83346E+00-1.77565E-02 5.89793E-01-5.17162E-14-6.09310E-13
 -1       646 2.41128E+01-2.74938E+00 3.02421E-04-7.52209E-01 7.05371E-14-3.78641E-13
 -1       647 2.26594E+01-1.91812E+00-4.05330E-04-1.52061E+00 1.12106E-13-1.80184E-13
 -1       648 2.16461E+01-1.03064E+00-7.74044E-04-1.80950E+00 7.29624E-14-1.18757E-13
 -1       649 2.10237E+01-3.56471E-01-4.21641E-04-1.82345E+00 1.33090E-13-3.93791E-13
 -1       650 2.06662E+01 7.36015E-02-7.89026E-05-1.69795E+00 2.43810E-14-2.81973E-13
 -1       651 2.04670E+01 3.08507E-01 1.34709E-04-1.50901E+00 1.48727E-13-2.80527E-13
 -1       652 2.03537E+01 4.10285E-01 2.34684E-04-1.29825E+00 7.30077E-14-2.59111E-13
 -1       653 2.02837E+01 4.30486E-01 2.60166E-04-1.08887E+00 4.35891E-14-9.94948E-14
 -1       654 2.02346E+01 4.05608E-01 2.45568E-04-8.93730E-01 1.80400E-13-1.81700E-13
 -1       655 2.01955E+01 3.59180E-01 2.14594E-04-7.19464E-01 2.85113E-13-4.52646E-14
 -1       656 2.01621E+01 3.05337E-01 1.79402E-04-5.68739E-01 2.27225E-13-8.63822E-14
 -1       657 2.01327E+01 2.52007E-01 1.45776E-04-4.41693E-01 1.14526E-13 2.07527E-14
 -1       658 2.01068E+01 2.03248E-01 1.15919E-04-3.36916E-01 1.69778E-13 3.13853E-13
 -1       659 2.00845E+01 1.60795E-01 9.04355E-05-2.52135E-01 1.77525E-13 2.06495E-13
 -1       660 2.00657E+01 1.25045E-01 6.91883E-05-1.84718E-01 2.30152E-13 3.32755E-14
 -1       661 2.00500E+01 9.56738E-02 5.19513E-05-1.31993E-01-2.13306E-13 1.14553E-13
 -1       662 2.00374E+01 7.20030E-02 3.84158E-05-9.14458E-02-9.88730E-15 2.33629E-13
 -1       663 2.00272E+01 5.32117E-02 2.79036E-05-6.08196E-02-1.67793E-13 9.11817E-14
 -1       664 2.00192E+01 3.83638E-02 1.75275E-05-3.81877E-02-5.98515E-15-2.66680E-13
 -1       665 2.00129E+01 2.66528E-02 1.39087E-05-2.20250E-02 4.58435E-14-6.62056E-13
 -1       666 2.01943E+01 2.78411E-01 2.26861E-04-5.62821E-01 8.14180E-14 6.50319E-14
 -1       667 2.00106E+01 2.34645E-02 8.26411E-06 1.79912E-02-3.00273E-13-8.20822E-13
 -1       668 2.01958E+01 3.48676E-01 3.01536E-04-3.69166E-01 8.09987E-14 5.05878E-14
 -1       669 2.02938E+01 2.19336E-01 1.74907E-04-8.66093E-01 7.97702E-14 1.04250E-13
 -1       670 2.03934E+01 1.91781E-01 1.36997E-04-9.95216E-01 1.12876E-13 5.61766E-14
 -1       671 2.05314E+01 1.38534E-01 6.26331E-05-1.10816E+00 8.92092E-14 7.00983E-14
 -1       672 2.07187E+01 3.56456E-02-7.83999E-05-1.19221E+00 4.61721E-14 4.39685E-14
 -1       673 2.09737E+01-1.42808E-01-3.15471E-04-1.22311E+00 1.30089E-13 1.24511E-13
 -1       674 2.13210E+01-4.17859E-01-6.65250E-04-1.16264E+00 7.61350E-14 6.14573E-14
 -1       675 2.17851E+01-7.88435E-01-9.51853E-04-9.58504E-01-2.47699E-14 2.78882E-14
 -1       676 2.23718E+01-1.20259E+00-1.19764E-03-5.50427E-01-1.78790E-14 7.42908E-14
 -1       677 2.30341E+01-1.51409E+00-2.10406E-03 1.02803E-01-1.88762E-13 1.66999E-13
 -1       678 2.36295E+01-1.45717E+00-3.05364E-03 9.61495E-01-1.97521E-13 3.16770E-13
 -1       679 2.39385E+01-7.37713E-01-3.57584E-03 1.77281E+00-1.45255E-13 4.49793E-13
 -1       680 2.37867E+01 6.85725E-01-7.09276E-03 2.06039E+00-5.62033E-14 4.76586E-13
 -1       681 2.33417E+01 2.22277E+00-2.49814E-02 1.37492E+00 3.30535E-13 5.24544E-13
 -1       682 2.31227E+01 2.83442E+00-2.62475E-02-1.42534E-01 4.10029E-13 2.69767E-13
 -1       683 2.33714E+01 2.02728E+00-2.17794E-02-1.57001E+00 3.47217E-13-3.54794E-14
 -1       684 2.38505E+01 4.42136E-01-2.98633E-03-2.10545E+00 2.59467E-13-2.92732E-13
 -1       685 2.39272E+01-8.69416E-01-5.91921E-03-1.71170E+00 2.21744E-13-6.94764E-13
 -1       686 2.35754E+01-1.47819E+00-1.27329E-03-8.72997E-01 2.06432E-13-6.23185E-13
 -1       687 2.29618E+01-1.45511E+00-1.54295E-03-5.35807E-02 4.47496E-14-6.01703E-13
 -1       688 2.23133E+01-1.11091E+00-1.39962E-03 5.48806E-01-1.53582E-13-3.60967E-13
 -1       689 2.17513E+01-6.90012E-01-8.99131E-04 9.04821E-01-1.99991E-13-5.87924E-13
 -1       690 2.13148E+01-3.26518E-01-4.92239E-04 1.06299E+00-3.50655E-14-3.95106E-13
 -1       691 2.09922E+01-6.32600E-02-2.01690E-04 1.08506E+00 8.17174E-14-2.30596E-13
 -1       692 2.07571E+01 1.03023E-01-3.08691E-06 1.02280E+00-2.72440E-14 2.81340E-14
 -1       693 2.05841E+01 1.92898E-01 1.20451E-04 9.14511E-01-9.66707E-14-9.17693E-14
 -1       694 2.04540E+01 2.29428E-01 1.81587E-04 7.86513E-01-1.13609E-13 8.92221E-14
 -1       695 2.03537E+01 2.32105E-01 1.99974E-04 6.55815E-01 1.09861E-13 1.08598E-13
 -1       696 2.02750E+01 2.15388E-01 1.92834E-04 5.32660E-01 2.27438E-13 8.14488E-14
 -1       697 2.02124E+01 1.89146E-01 1.72643E-04 4.22550E-01 2.13358E-13 4.48571E-14
 -1       698 2.01625E+01 1.59683E-01 1.47366E-04 3.27803E-01-1.31860E-13-1.37424E-13
 -1       699 2.01229E+01 1.30765E-01 1.21387E-04 2.48696E-01 4.80954E-15-3.22601E-13
 -1       700 2.00916E+01 1.04424E-01 9.69927E-05 1.84278E-01 1.19937E-13-3.43748E-13
 -1       701 2.00672E+01 8.15706E-02 7.54946E-05 1.32964E-01-3.57734E-14-1.54452E-13
 -1       702 2.00483E+01 6.24177E-02 5.66859E-05 9.29174E-02 1.50780E-14-2.00987E-13
 -1       703 2.00340E+01 4.67673E-02 4.49994E-05 6.23124E-02-4.33237E-14-2.77964E-13
 -1       704 2.00233E+01 3.42398E-02 4.00473E-05 3.95504E-02-8.16550E-14-3.44881E-13
 -1       705 2.00160E+01 2.89175E-02 2.77921E-05 2.74802E-02-2.41682E-13-5.71663E-13
 -1       706 2.24925E+01-5.03695E+00 3.55030E-02 4.42777E+00-2.73111E-13-8.65133E-14
 -1       707 1.99870E+01 6.01887E-02-3.96518E-06 4.10286E-03 2.85160E-14-4.98606E-14
 -1       708 2.00092E+01 2.01980E-02-4.28527E-07-1.40660E-02-7.53614E-14-6.44925E-13
 -1       709 1.99952E+01 4.87843E-02-1.36423E-06 1.75128E-02 9.58133E-14-2.23124E-13
 -1       710 1.99871E+01 6.01873E-02-3.00085E-06-4.53772E-03 1.72711E-14-4.25963E-13
 -1       711 1.99899E+01 5.62121E-02-3.26892E-06 1.19497E-02-1.61847E-13 2.72041E-13
 -1       712 1.99901E+01 5.63104E-02-3.07180E-06-1.22068E-02-1.25995E-13 1.91882E-13
 -1       713 1.99955E+01 4.88918E-02-4.96067E-07-1.76995E-02-9.26630E-14-8.34341E-14
 -1       714 2.00021E+01 3.89204E-02 8.80358E-06-1.97421E-02 3.18291E-14 3.30858E-13
 -1       715 2.00065E+01 2.92349E-02 2.13992E-05-1.78363E-02-8.61285E-14-3.36082E-13
 -1       716 2.42050E+01-4.98930E+00 1.71673E-02-3.37295E+00-5.44419E-13 1.27206E-13
 -1       717 9.76900E+00-9.01395E-01 1.38794E-01 4.05471E+00-4.82820E-13 8.21510E-13
 -1       718 1.53050E+01-3.21106E+00 9.50722E-02 5.98738E+00-3.44502E-13 9.27904E-14
 -1       719 2.03253E+01 1.75139E+00 1.06439E-04-9.95078E-01-1.99637E-13-2.33424E-13
 -1       720 2.14334E+01-5.00971E+00 5.12730E-02-4.85700E+00 3.55122E-13 1.64423E-13
 -1       721 2.02328E+01 4.80179E-01 6.91153E-04-1.20356E-01 1.45005E-13 3.18433E-14
 -1       722 2.02276E+01 2.41935E-01 1.98477E-04-7.23822E-01 7.22287E-14 9.70615E-14
 -1       723 2.03457E+01 1.17933E+00-1.48782E-04-5.38059E-01-1.44608E-13-2.00566E-13
 -1       724 2.03006E+01 7.11552E-01 1.27019E-03 2.13575E-01 2.02149E-13 2.14384E-14
 -1       725 1.81298E+01-4.44474E+00 7.68729E-02-6.02085E+00-4.21170E-13-3.00239E-13
 -1       726 1.86751E+01-4.30586E+00 8.77901E-02 5.58248E+00 3.27204E-13-6.56940E-14
 -1       727 1.99636E+01 2.46112E+00-1.58942E-03 5.20614E-01 2.49156E-13-1.81581E-13
 -1       728 2.85463E+01 2.31195E+00-1.31800E-01 2.61514E+00-4.96506E-13-3.72528E-13
 -1       729 7.39736E+00-3.96926E-02 1.60402E-01 9.19679E-02-2.64880E-13 8.97213E-13
 -1       730 1.99554E+01 2.47758E+00-1.52220E-03-5.13757E-01-4.00042E-14-3.38920E-13
 -1       731 2.78589E+01 1.69818E+00-1.19269E-01 2.15829E+00 2.84384E-13 3.73607E-13
 -1       732 7.71066E+00-4.47660E-01 1.65529E-01 1.95630E+00 1.40270E-13-5.85781E-13
 -1       733 2.86409E+01-1.45651E+00-6.89852E-02 1.61109E+00-1.92095E-13-3.35967E-13
 -1       734 2.83365E+01 1.32060E-01-1.04379E-01-1.79711E+00 5.31485E-13-5.32078E-13
 -1       735 2.54913E+01-4.77292E+00-1.44804E-02 2.06509E+00 1.16726E-13 4.38018E-13
 -1       736 2.83394E+01 1.85832E+00-1.06821E-01-2.60479E+00-4.72074E-13 3.84016E-13
 -1       737 2.69301E+01-3.76636E+00-3.38617E-02 8.51076E-01-2.47042E-14-3.52569E-13
 -1       738 2.69951E+01 6.12258E+00-1.50570E-01-2.36124E-01 8.11309E-13-1.80337E-13
 -1       739 2.73494E+01 4.59016E+00-1.48154E-01 1.86183E+00 4.64274E-13 2.22138E-13
 -1       740 2.01010E+01 2.20001E+00-1.12077E-03-7.09949E-01-9.30950E-14-3.12371E-13
 -1       741 1.98105E+01 2.73750E+00-1.42503E-03-1.02770E-01 8.17905E-14-3.01200E-13
 -1       742 2.62964E+01 4.93966E+00-1.16535E-01-1.34399E+00 9.17585E-13-1.28728E-13
 -1       743 2.74416E+01 6.46126E-01-1.21236E-01-2.40175E+00-2.85529E-13 5.50462E-13
 -1       744 2.00016E+01 3.90096E-02-9.52558E-06 1.98074E-02-8.46264E-14-4.57951E-14
 -1       745 1.05680E+01-9.67152E-01 1.20252E-01 3.91381E+00 3.21245E-13-3.19446E-13
 -1       746 2.73578E+01-9.68298E-01-4.11206E-02 1.68276E+00 2.72699E-14 5.00686E-13
 -1       747 1.98591E+01 2.65341E+00-1.45583E-03-3.11010E-01 2.54938E-14-3.16247E-13
 -1       748 2.24265E+01-4.39258E+00 2.21501E-02 3.66128E+00 1.62646E-13 2.12938E-13
 -1       749 9.83026E+00-1.07672E+00 1.36564E-01-4.01838E+00-1.75901E-13-7.06303E-13
 -1       750 2.02652E+01 1.45250E+00-3.38637E-04 4.39462E-01 2.41852E-13-3.48876E-14
 -1       751 2.57444E+01 2.38124E+00-8.36098E-02 2.24083E+00 1.86892E-13 2.00891E-13
 -1       752 2.02286E+01 7.19332E-01-2.03601E-06 2.57505E-01-5.12524E-14-1.65703E-13
 -1       753 2.01613E+01 5.92241E-01 2.24881E-05 4.87877E-01-4.53955E-14-1.29214E-13
 -1       754 2.00816E+01 5.38964E-01 2.71065E-05 6.87795E-01-3.44302E-14-8.49569E-14
 -1       755 1.99922E+01 5.33661E-01 4.05680E-05 8.73784E-01-3.80701E-16-3.77203E-14
 -1       756 1.98938E+01 5.52594E-01 5.72055E-05 1.05939E+00 1.92829E-14-3.46590E-14
 -1       757 1.97881E+01 5.69528E-01 7.81396E-05 1.25526E+00-9.48667E-15 2.04914E-14
 -1       758 1.96830E+01 5.50964E-01 9.75627E-05 1.47001E+00 4.58451E-14 1.46967E-14
 -1       759 1.95991E+01 4.50969E-01 5.21169E-05 1.71123E+00 1.14279E-14 5.13134E-14
 -1       760 1.95806E+01 2.06206E-01-1.62280E-04 1.98538E+00 8.08912E-14-3.66794E-14
 -1       761 1.97105E+01-2.66383E-01-9.71976E-04 2.29354E+00 7.85719E-14 6.45816E-15
 -1       762 2.01445E+01-1.06879E+00 8.89358E-05 2.61190E+00 1.19296E-13 6.37717E-15
 -1       763 2.11270E+01-2.22325E+00 1.30604E-02 2.84553E+00 1.54814E-13 9.35985E-14
 -1       764 2.42412E+01-4.09426E+00 1.27261E-02-2.06691E+00 2.12439E-13-1.28629E-13
 -1       765 2.19535E+01-2.80767E+00 4.37952E-03-2.62366E+00 3.31274E-13 8.00770E-14
 -1       766 2.06210E+01-1.49646E+00 3.74548E-03-2.58538E+00 9.15155E-14 2.33352E-13
 -1       767 1.99571E+01-5.36243E-01 7.75658E-04-2.31593E+00-1.57718E-14 2.35258E-13
 -1       768 1.96828E+01 7.66844E-02 1.53493E-04-2.00002E+00 1.36565E-13 8.93848E-14
 -1       769 1.96173E+01 4.18068E-01 8.61080E-05-1.70082E+00 8.18137E-14 1.43896E-13
 -1       770 1.96488E+01 5.75457E-01 1.00791E-04-1.43128E+00 5.78999E-14 8.54497E-14
 -1       771 1.97163E+01 6.17695E-01 1.04561E-04-1.19173E+00 6.11193E-14-1.17014E-13
 -1       772 1.97889E+01 5.93532E-01 8.71789E-05-9.80324E-01 5.35024E-15 2.68302E-14
 -1       773 1.98531E+01 5.35102E-01 6.62220E-05-7.95578E-01 2.77186E-13-3.56568E-14
 -1       774 1.99044E+01 4.62519E-01 4.93114E-05-6.36287E-01 2.11439E-13-1.77142E-13
 -1       775 1.99426E+01 3.87705E-01 3.73352E-05-5.01095E-01 2.09225E-13-1.63583E-13
 -1       776 1.99697E+01 3.17279E-01 2.93671E-05-3.88268E-01 3.51332E-13-2.41380E-13
 -1       777 1.99878E+01 2.54509E-01 2.36380E-05-2.95665E-01 9.49700E-15-2.26930E-13
 -1       778 1.99992E+01 2.00590E-01 1.80897E-05-2.20890E-01 8.50365E-14-2.60050E-13
 -1       779 2.00058E+01 1.55507E-01 1.30898E-05-1.61486E-01 2.14565E-13-1.72959E-13
 -1       780 2.00091E+01 1.18601E-01 8.56484E-06-1.15068E-01-1.37398E-13 6.40432E-14
 -1       781 2.00101E+01 8.88717E-02 6.00288E-06-7.94478E-02-1.88024E-13 4.21637E-14
 -1       782 2.00097E+01 6.52708E-02 1.46015E-05-5.27171E-02-3.27104E-13-1.06714E-13
 -1       783 2.00083E+01 4.64662E-02 1.57534E-05-3.29910E-02-1.40932E-13-8.26854E-14
 -1       784 2.02110E+01 4.84720E-01 3.05167E-05-4.50880E-01 5.96800E-14-1.72140E-14
 -1       785 2.01595E+01 2.83986E-01 5.53032E-05-1.12963E+00 8.93983E-14 2.74822E-14
 -1       786 2.01407E+01 3.31411E-01 5.48120E-05-9.76616E-01 8.22505E-14 3.93032E-14
 -1       787 2.03455E+01 1.92953E-02-3.51674E-06-1.40314E+00-2.73291E-15 5.87617E-14
 -1       788 2.05783E+01-2.70182E-01-1.05544E-04-1.49323E+00 7.76188E-14 9.11189E-14
 -1       789 2.09733E+01-7.06637E-01-3.52525E-04-1.50436E+00-3.06753E-15 1.81500E-13
 -1       790 2.15939E+01-1.28486E+00 2.15303E-04-1.37162E+00-8.62693E-14 2.22266E-13
 -1       791 2.24849E+01-1.91689E+00 1.63722E-03-9.80799E-01-1.24367E-13 3.03946E-13
 -1       792 2.35942E+01-2.32864E+00-2.98757E-03-2.14292E-01-3.15485E-13 3.35427E-13
 -1       793 2.47441E+01-2.06709E+00-1.65483E-03 9.23274E-01-2.44129E-13 4.48340E-13
 -1       794 2.52680E+01-6.26477E-01-3.42368E-02 2.02101E+00-1.02203E-13 3.69047E-13
 -1       795 2.50617E+01-7.58850E-01-1.71005E-02-1.91710E+00 3.69305E-13-5.37789E-13
 -1       796 2.44942E+01-2.06800E+00-1.30627E-03-8.42350E-01 1.28021E-13-4.81880E-13
 -1       797 2.34287E+01-2.21399E+00 3.40408E-04 2.25372E-01-1.34865E-13-2.86792E-13
 -1       798 2.23744E+01-1.75504E+00-1.12733E-03 9.23597E-01-1.29954E-13-1.00873E-13
 -1       799 2.15383E+01-1.12718E+00-2.76774E-04 1.26565E+00-1.25390E-13-1.49988E-13
 -1       800 2.09561E+01-5.71586E-01-4.05445E-05 1.36916E+00-9.80013E-14-2.84699E-13
 -1       801 2.05815E+01-1.60283E-01 1.47725E-05 1.33455E+00-8.57597E-14-3.11035E-13
 -1       802 2.03540E+01 1.07605E-01 3.02459E-05 1.22544E+00-1.16202E-13-1.17278E-13
 -1       803 2.02215E+01 2.60036E-01 6.35559E-05 1.08128E+00-1.25108E-13-5.03189E-14
 -1       804 2.01462E+01 3.29844E-01 8.16323E-05 9.25818E-01-1.64565E-13-5.63887E-15
 -1       805 2.01037E+01 3.45434E-01 8.45539E-05 7.73180E-01 7.21596E-14-9.60216E-14
 -1       806 2.00791E+01 3.28449E-01 7.89287E-05 6.31616E-01 9.88142E-14-8.99871E-14
 -1       807 2.00637E+01 2.94120E-01 6.91506E-05 5.05497E-01 1.61125E-13 2.05603E-15
 -1       808 2.00531E+01 2.52518E-01 5.88587E-05 3.96615E-01 1.25830E-13-1.11683E-13
 -1       809 2.00449E+01 2.09945E-01 4.90294E-05 3.05055E-01 8.58035E-15-2.93446E-13
 -1       810 2.00379E+01 1.70046E-01 3.93634E-05 2.29790E-01-9.96569E-14-5.49216E-14
 -1       811 2.00316E+01 1.34653E-01 3.06388E-05 1.69173E-01-6.40279E-15-1.36078E-13
 -1       812 2.00260E+01 1.04439E-01 2.27914E-05 1.21291E-01 6.42437E-14-4.21561E-13
 -1       813 2.00210E+01 7.93705E-02 2.11416E-05 8.42116E-02-3.45159E-14-3.04138E-13
 -1       814 2.00164E+01 5.90698E-02 2.88967E-05 5.62229E-02-2.27635E-13-2.19671E-13
 -1       815 1.99797E+01 8.14451E-02-3.27338E-06-1.26477E-02 3.75329E-14 5.81744E-14
 -1       816 1.99864E+01 7.35973E-02-2.34627E-05-2.31432E-02-5.36131E-14 2.16976E-13
 -1       817 1.99772E+01 8.41115E-02-2.62615E-06-9.12257E-05-2.08376E-13-4.81313E-13
 -1       818 2.63416E+01 2.02611E+00-8.43039E-02-2.40371E+00 6.58633E-13-5.00891E-13
 -1       819 2.02564E+01 6.27338E-01-6.36535E-05-2.15387E-01 9.63397E-14 1.85773E-14
 -1       820 1.07978E+01 5.30749E-01 8.31314E-02-1.46693E+00-5.50276E-14 6.49376E-13
 -1       821 1.58878E+01-2.30086E+00 7.86079E-02 4.97670E+00 2.72237E-13-2.70462E-13
 -1       822 2.02193E+01 1.91482E-01 4.50667E-05-1.27490E+00 5.85976E-14 1.10785E-13
 -1       823 2.03222E+01 1.06752E+00 2.42990E-04 3.48563E-01 2.35142E-13 3.07107E-16
 -1       824 1.35572E+01-9.52747E-01 6.78075E-02-4.14930E+00 4.32765E-13 5.72854E-13
 -1       825 1.58863E+01-2.48172E+00 6.58253E-02-5.16240E+00-3.40599E-13-2.48980E-13
 -1       826 1.42254E+01-1.14933E+00 6.58256E-02 4.38897E+00-4.02653E-13 4.30952E-13
 -1       827 1.97329E+01-3.59907E+00 3.78979E-02 4.62708E+00-3.61993E-13-1.59190E-13
 -1       828 2.02748E+01 9.52515E-01-1.35187E-04-2.14943E-02-7.58650E-14-1.71137E-13
 -1       829 9.52414E+00 3.51285E-01 1.12067E-01-2.68071E-01 1.04054E-13-5.24997E-13
 -1       830 1.90061E+01-3.36825E+00 4.93854E-02-4.72430E+00 4.04381E-13 2.73665E-13
 -1       831 2.54809E+01-3.70168E+00-2.01748E-02-7.04988E-01-4.26730E-13 2.41907E-13
 -1       832 1.07259E+01 4.96485E-01 8.07893E-02 1.66625E+00-2.02640E-13 7.29968E-13
 -1       833 2.65529E+01-1.92468E+00-4.62487E-02-1.27717E+00 1.81076E-13-3.53162E-13
 -1       834 1.99961E+01 6.15147E-02-2.64905E-05-2.97287E-02-2.00842E-14 1.89124E-13
 -1       835 2.11863E+01-3.95891E+00 3.79255E-02-4.10593E+00-3.77000E-13 1.24465E-13
 -1       836 2.45736E+01-4.07643E+00-2.67273E-03 1.69689E+00-2.37104E-13-2.20139E-13
 -1       837 1.99820E+01 2.15521E+00-2.71586E-04 1.29780E-01 1.44321E-13-2.14727E-13
 -1       838 2.50924E+01 4.42661E+00-1.12596E-01 9.52629E-01 5.38878E-13 1.62413E-13
 -1       839 2.67015E+01-3.12847E+00-2.48378E-02 5.14659E-01-1.21111E-13-2.54990E-13
 -1       840 1.99555E+01 2.20539E+00-3.05591E-04-1.06477E-03 7.84515E-14-2.52029E-13
 -1       841 1.06700E+01 1.78975E-01 9.36532E-02-2.12504E+00 1.31548E-14-5.77854E-13
 -1       842 2.02826E+01 1.29759E+00 1.17893E-04-3.24391E-01-7.50476E-14-2.18888E-13
 -1       843 1.99956E+01 6.13566E-02-1.97737E-06 2.93682E-02 1.60996E-14 1.59162E-13
 -1       844 2.01730E+01 4.06232E-01 5.34029E-05-6.45732E-01 8.23479E-14-3.59031E-14
 -1       845 1.99861E+01 7.33974E-02-4.30905E-06 2.27819E-02 5.57139E-14-1.63447E-13
 -1       846 2.01479E+01 3.63451E-01 5.71439E-05-8.17157E-01 4.59891E-14-5.49725E-14
 -1       847 2.00109E+01 4.92595E-02-9.69239E-05 3.99663E-02 2.57632E-13-1.00643E-13
 -1       848 2.00515E+01 2.01436E+00-3.24786E-04 2.54110E-01 1.98660E-13-1.78814E-13
 -1       849 1.99795E+01 8.12931E-02-3.87443E-06 1.24059E-02-6.63751E-14 2.05479E-13
 -1       850 2.33894E+01-3.69085E+00 1.27642E-03-2.07230E+00-3.87431E-13 4.05682E-14
 -1       851 1.06336E+01 2.78047E-01 8.65024E-02 1.71997E+00 2.34784E-13-3.62176E-13
 -1       852 2.00070E+01 4.55806E-02 5.18826E-06 3.15108E-02 2.50053E-13-2.54862E-13
 -1       853 1.38019E+01-1.10482E+00 6.89176E-02-4.30823E+00-2.46452E-13-3.18920E-13
 -1       854 2.02919E+01 8.04523E-01 2.24274E-04 3.57588E-02 1.73635E-13-1.40875E-14
 -1       855 2.01548E+01 1.78024E+00-2.00310E-04 3.65930E-01 2.09081E-13-1.38771E-13
 -1       856 2.00446E+01 2.02980E+00-2.90750E-04-2.56642E-01-2.28447E-14-3.05912E-13
 -1       857 2.01460E+01 1.80327E+00 2.58954E-04-3.64393E-01-3.97048E-14-2.98002E-13
 -1       858 2.39434E+01-3.20434E+00-7.53998E-03 1.02541E+00-1.02016E-13 1.24126E-13
 -1       859 2.00324E+01 7.23603E-01-1.30364E-05 5.00320E-01-2.20312E-15-9.05552E-14
 -1       860 1.98892E+01 6.85797E-01 4.91138E-06 6.72316E-01-3.54302E-15-7.55100E-14
 -1       861 1.97124E+01 6.95475E-01 1.04747E-05 8.38023E-01-2.85325E-15-8.37067E-14
 -1       862 1.95016E+01 7.26982E-01 2.24255E-05 1.00956E+00 1.59111E-14-1.16823E-13
 -1       863 1.92567E+01 7.51126E-01 3.95001E-05 1.19995E+00 2.56916E-14-8.25007E-14
 -1       864 1.89813E+01 7.30977E-01 5.95387E-05 1.42586E+00 1.45713E-14-1.47175E-13
 -1       865 1.86894E+01 6.16533E-01-1.49517E-05 1.71178E+00 2.27476E-15-1.77838E-13
 -1       866 1.84157E+01 3.37671E-01-5.86683E-04 2.09458E+00 1.00227E-13-2.01004E-13
 -1       867 1.82453E+01-2.05761E-01-1.71176E-03 2.61177E+00 1.31765E-13-1.47683E-13
 -1       868 1.83683E+01-1.15880E+00 1.69934E-02 3.31560E+00 1.94385E-13-6.40215E-14
 -1       869 1.86892E+01-2.31377E+00 1.03114E-02-3.93908E+00-3.33192E-13-2.16849E-14
 -1       870 1.87346E+01-1.72655E+00 1.85084E-02-3.59756E+00 2.31564E-13 1.07536E-13
 -1       871 1.83424E+01-5.46239E-01 3.37446E-03-2.83775E+00 6.52336E-14 2.46075E-13
 -1       872 1.83723E+01 1.81190E-01 7.75917E-04-2.22879E+00 6.86522E-14 3.84452E-13
 -1       873 1.85638E+01 5.77797E-01-7.76075E-05-1.77950E+00 1.72056E-13 4.38340E-13
 -1       874 1.88080E+01 7.63423E-01-3.71214E-05-1.44167E+00 2.08311E-14 2.39052E-13
 -1       875 1.90497E+01 8.15782E-01 4.83503E-05-1.17832E+00-7.29113E-14 1.91428E-13
 -1       876 1.92645E+01 7.89299E-01 4.92311E-05-9.64435E-01 1.39632E-13 2.43560E-13
 -1       877 1.94449E+01 7.19688E-01 2.77731E-05-7.85497E-01 1.13429E-13 3.94405E-13
 -1       878 1.95905E+01 6.30182E-01 9.35011E-06-6.33850E-01 1.70174E-13 1.52994E-13
 -1       879 1.97046E+01 5.35384E-01 4.81318E-07-5.05244E-01 1.52058E-13 1.00542E-13
 -1       880 1.97920E+01 4.43965E-01 4.34246E-07-3.97040E-01 1.33209E-13-1.77517E-13
 -1       881 1.98574E+01 3.60748E-01 4.27387E-06-3.07115E-01 1.00507E-13-3.71608E-13
 -1       882 1.99054E+01 2.87930E-01 4.50219E-06-2.33414E-01 1.53716E-13-4.92979E-13
 -1       883 1.99398E+01 2.25999E-01 2.16490E-06-1.73931E-01 8.74655E-14-4.29628E-13
 -1       884 1.99638E+01 1.74510E-01 7.46104E-07-1.26728E-01 4.06870E-14-6.03238E-13
 -1       885 1.99800E+01 1.32520E-01-4.37724E-06-8.99039E-02-1.22379E-13-5.40138E-13
 -1       886 1.99905E+01 9.87192E-02 8.86415E-06-6.19103E-02 1.71955E-14-2.14573E-13
 -1       887 1.99938E+01 7.88367E-02 8.82463E-06-4.36883E-02 8.26260E-15 1.44309E-13
 -1       888 1.79388E+01-1.78017E+00 1.53904E-02 3.86384E+00-2.66405E-13-8.40231E-14
 -1       889 2.00109E+01-3.76833E-01-4.45298E-04-1.81588E+00-4.23381E-14 1.30302E-13
 -1       890 1.98252E+01 2.21570E-02 1.49740E-05-1.60545E+00 5.75255E-14 7.54198E-14
 -1       891 2.12035E+01-1.80066E+00-1.65967E-04-2.04059E+00-1.52021E-13 1.61577E-13
 -1       892 2.24434E+01-2.71981E+00-7.74587E-04-1.82475E+00-3.14613E-13 1.88693E-13
 -1       893 2.11192E+01-1.60781E+00 2.23782E-03 1.92038E+00-1.66155E-13 9.92527E-14
 -1       894 2.03892E+01-8.16259E-01 1.23626E-03 1.83940E+00 1.24858E-14 5.34810E-15
 -1       895 1.99874E+01-2.43834E-01 5.75171E-04 1.65651E+00-9.51976E-14 1.46668E-13
 -1       896 1.97933E+01 1.31587E-01 1.09232E-04 1.44096E+00-1.70069E-13 1.14541E-13
 -1       897 1.97253E+01 3.48733E-01 3.63215E-05 1.22743E+00-1.79111E-13 1.19464E-13
 -1       898 1.97251E+01 4.53287E-01 2.18852E-05 1.02891E+00-1.27514E-13 1.43214E-13
 -1       899 1.97576E+01 4.82833E-01 1.46868E-05 8.49800E-01 8.57957E-14 1.49211E-13
 -1       900 1.98022E+01 4.65897E-01 1.12566E-05 6.91596E-01 1.07992E-13 2.02935E-13
 -1       901 1.98476E+01 4.22991E-01 9.80476E-06 5.54365E-01 9.31526E-14 2.66364E-13
 -1       902 1.98882E+01 3.67972E-01 8.53058E-06 4.37341E-01 1.69244E-13 5.35582E-13
 -1       903 1.99220E+01 3.09806E-01 8.05057E-06 3.39301E-01 2.12027E-13 3.12877E-13
 -1       904 1.99485E+01 2.54018E-01 5.94436E-06 2.58580E-01-7.27452E-14 1.68921E-13
 -1       905 1.99683E+01 2.03599E-01 4.24307E-06 1.93209E-01 1.03426E-13 7.11928E-14
 -1       906 1.99825E+01 1.59843E-01 2.37315E-06 1.41162E-01 1.35605E-13 4.57885E-15
 -1       907 1.99921E+01 1.23023E-01 4.03183E-06 1.00466E-01-8.04455E-14 1.12692E-13
 -1       908 1.99981E+01 9.28118E-02 4.95869E-06 6.93463E-02-2.00839E-13 3.46630E-13
 -1       909 1.37480E+01-4.95248E-01 5.33800E-02 3.53473E+00 1.68214E-13-4.24280E-13
 -1       910 1.99711E+01 1.04653E-01-1.75853E-05-2.61426E-02 2.92938E-13-1.03200E-13
 -1       911 1.99644E+01 1.11593E-01 5.09385E-06-9.21860E-03 1.24046E-13-6.49215E-14
 -1       912 2.00158E+01-3.34537E+00 4.46288E-02 4.20137E+00 2.24884E-13-5.93407E-14
 -1       913 2.20867E+01-3.28153E+00 1.03730E-02 2.70674E+00-2.69861E-13-2.41298E-14
 -1       914 1.37461E+01 3.52143E-01 2.92555E-02-2.50301E+00 8.87723E-14 3.85419E-13
 -1       915 2.02063E+01 7.45287E-01-6.21490E-05-2.93511E-01 8.58436E-14-7.04008E-14
 -1       916 2.22887E+01-2.51942E+00 1.00377E-03 1.71888E+00-2.96795E-13 8.42494E-14
 -1       917 2.02051E+01 1.04925E+00 3.33511E-04 8.81698E-02-4.51313E-14-2.42679E-13
 -1       918 1.72181E+01-1.50922E+00 2.69149E-02-3.95166E+00 2.92475E-13 2.82283E-13
 -1       919 1.98738E+01 4.54294E-01 1.67048E-05-1.02704E+00 3.78835E-14 3.40551E-14
 -1       920 1.99774E+01 2.16373E+00-2.22141E-04-1.30100E-01 3.48348E-14-2.68239E-13
 -1       921 2.01404E+01 8.33907E-01-5.87316E-05 3.09158E-01 1.86067E-14-1.78938E-13
 -1       922 2.04336E+01-9.81259E-01-6.33922E-04-1.98250E+00-7.23043E-14 1.38220E-13
 -1       923 1.26783E+01 1.01732E+00 3.03628E-02 8.17365E-02-7.31087E-14 5.08869E-13
 -1       924 1.99815E+01 9.33496E-02 5.63594E-05-3.69537E-02 1.18603E-13 2.08446E-13
 -1       925 1.39187E+01 3.30675E-01 3.02007E-02 2.48820E+00-3.41065E-13 5.13772E-13
 -1       926 1.78480E+01-1.71138E+00 3.23702E-02 3.95738E+00 2.57804E-13-1.20152E-13
 -1       927 2.02486E+01 1.22450E+00-2.10372E-04 1.32836E-01 1.79842E-13-6.04184E-14
 -1       928 1.19719E+01 7.93892E-01 5.56477E-02-4.57027E-01 1.06475E-13-3.93120E-13
 -1       929 2.02115E+01 1.36320E+00-2.71584E-04-1.45530E-01-3.56059E-14-2.69339E-13
 -1       930 1.71248E+01-1.36671E+00 4.09146E-02-3.85764E+00-2.31580E-13-1.80627E-13
 -1       931 1.99600E+01 4.91332E-01 1.80356E-05-8.55212E-01 1.69090E-14-1.19188E-14
 -1       932 2.02822E+01 1.01441E+00 2.74044E-04 9.14247E-02 1.88061E-13-2.22867E-14
 -1       933 1.97765E+01 2.60595E-01 5.81518E-05-1.39958E+00 7.57366E-14 1.07551E-13
 -1       934 1.98053E+01 3.89580E-01 3.09172E-05-1.20689E+00 3.38770E-14 1.16292E-13
 -1       935 1.66414E+01-3.30173E-01 5.88428E-03 2.93243E+00-2.57587E-13-1.12668E-14
 -1       936 1.99979E+01 7.70989E-02 3.52262E-05 4.97931E-02 8.57764E-14 1.40906E-14
 -1       937 2.00878E+01 1.65841E+00-1.75056E-04 7.39956E-02 1.38964E-13-1.77173E-13
 -1       938 1.99833E+01 9.06678E-02-5.71715E-07 3.91979E-02-5.39327E-14-2.46792E-13
 -1       939 2.00423E+01 1.75399E+00 1.93654E-05 1.96821E-02 1.11416E-13-1.67644E-13
 -1       940 1.99643E+01 1.11356E-01-1.79809E-05 9.24312E-03-1.18171E-13-1.62180E-13
 -1       941 2.10569E+01-2.81145E+00 6.57766E-03-3.01002E+00-2.46304E-13 1.35639E-13
 -1       942 2.01345E+01 6.08409E-01-2.05775E-05-5.00575E-01 5.74993E-14-4.75525E-14
 -1       943 2.02480E+01 9.80700E-01-5.23001E-04-4.49516E-02 1.34645E-13-5.95539E-14
 -1       944 2.00762E+01 1.67976E+00-3.79259E-04-7.62837E-02 3.22932E-14-2.39327E-13
 -1       945 1.32749E+01 9.38497E-02 4.19989E-02-2.74658E+00-1.49295E-13-3.39135E-13
 -1       946 1.65606E+01-3.57975E-01 1.85820E-02 3.11973E+00 1.82290E-13-1.46552E-13
 -1       947 2.01119E+01 1.09867E+00-1.79272E-04 1.46012E-01 3.92538E-14-1.73140E-13
 -1       948 1.96413E+01 8.14030E-01-3.61296E-06 5.73402E-01 1.67567E-14-1.02290E-13
 -1       949 1.93740E+01 8.42071E-01-3.10219E-06 7.00946E-01 1.24406E-14-6.11809E-14
 -1       950 1.90468E+01 8.89288E-01 6.52940E-06 8.37464E-01 1.38760E-14-5.34656E-14
 -1       951 1.86513E+01 9.27285E-01 3.58799E-05 9.97593E-01 1.85675E-14-1.01064E-13
 -1       952 1.81750E+01 9.22676E-01 1.92162E-04 1.20420E+00-1.54182E-14-1.06004E-13
 -1       953 1.76002E+01 8.32287E-01 7.00313E-05 1.50017E+00 4.60316E-14-1.13261E-13
 -1       954 1.69405E+01 5.96262E-01-2.76761E-03 1.95742E+00 1.40464E-13-1.92693E-13
 -1       955 1.90928E+01 9.25184E-02-2.66180E-04-1.78424E+00 7.96920E-15 9.25570E-14
 -1       956 1.66153E+01 4.51531E-01 5.00277E-03-2.20365E+00-3.32054E-14 3.04676E-13
 -1       957 1.72881E+01 8.10418E-01-7.24663E-04-1.63550E+00 5.50873E-14 3.11765E-13
 -1       958 1.78540E+01 9.74995E-01-2.24352E-04-1.26903E+00-3.23961E-14 2.18732E-13
 -1       959 1.83195E+01 1.01376E+00-1.97609E-05-1.01363E+00 7.29820E-14 3.52847E-13
 -1       960 1.86987E+01 9.77065E-01 1.92766E-05-8.23800E-01 6.62844E-14 2.98416E-13
 -1       961 1.90046E+01 8.96169E-01-9.86599E-06-6.73034E-01 1.78276E-13-7.12063E-14
 -1       962 1.92490E+01 7.92520E-01-2.52558E-05-5.48254E-01-7.34512E-14-2.95783E-13
 -1       963 1.94415E+01 6.81343E-01-3.29140E-05-4.42793E-01-1.06496E-14-3.16472E-13
 -1       964 1.95915E+01 5.71974E-01-2.59588E-05-3.53220E-01-6.51822E-14-3.23509E-13
 -1       965 1.97066E+01 4.70444E-01-6.22896E-06-2.77665E-01 5.89290E-14-4.69104E-13
 -1       966 1.97936E+01 3.80056E-01-4.99422E-07-2.14654E-01 9.20301E-14-4.20946E-13
 -1       967 1.98584E+01 3.01886E-01-2.70089E-06-1.62806E-01-3.73916E-15-7.75127E-13
 -1       968 1.99058E+01 2.35846E-01-5.84232E-06-1.20928E-01 6.66786E-14-6.95651E-13
 -1       969 1.99398E+01 1.81126E-01-6.92612E-06-8.77388E-02 1.06187E-13-5.81644E-13
 -1       970 1.99629E+01 1.37156E-01 1.45077E-05-6.21205E-02 2.21746E-13-3.91263E-14
 -1       971 1.99734E+01 1.13834E-01 4.42988E-05-4.83696E-02 3.68471E-13 1.31442E-13
 -1       972 1.99711E+01 1.04020E-01-2.06790E-05 2.63453E-02-2.56840E-14 1.28105E-13
 -1       973 1.90557E+01 2.13391E-01 2.63917E-04 1.63729E+00-2.29241E-13 2.02271E-13
 -1       974 1.91237E+01-2.46033E-01-6.21119E-04 2.02361E+00-2.12565E-13 7.14438E-14
 -1       975 1.94963E+01-9.68809E-01 4.21958E-03 2.45413E+00-1.34225E-13-9.15105E-14
 -1       976 1.91086E+01 4.72786E-01-5.91781E-05 1.32627E+00-1.20307E-13 2.72371E-13
 -1       977 1.92176E+01 5.98986E-01-9.36097E-05 1.07347E+00 1.11614E-14 1.33976E-13
 -1       978 1.93461E+01 6.35654E-01-8.07623E-05 8.66353E-01-1.00707E-13 2.48624E-14
 -1       979 1.94735E+01 6.15534E-01-6.42582E-05 6.95353E-01-4.93359E-14 2.48633E-13
 -1       980 1.95891E+01 5.62690E-01-4.46949E-05 5.53721E-01 2.51500E-14 4.72424E-13
 -1       981 1.96881E+01 4.93870E-01-1.50306E-05 4.36293E-01 1.05183E-13 2.12962E-13
 -1       982 1.97696E+01 4.19775E-01-6.71141E-06 3.39432E-01 1.73043E-13 1.77650E-13
 -1       983 1.98347E+01 3.47553E-01-1.49405E-05 2.60311E-01 8.55784E-14 5.84712E-13
 -1       984 1.98850E+01 2.81435E-01-1.52371E-05 1.96346E-01 2.23875E-13 4.17569E-13
 -1       985 1.99229E+01 2.23268E-01-1.17145E-05 1.45279E-01 3.36245E-13 2.22953E-13
 -1       986 1.99506E+01 1.73696E-01-8.14420E-06 1.05163E-01 3.86513E-14 6.55065E-14
 -1       987 1.99700E+01 1.32669E-01 1.05800E-06 7.43589E-02-2.69272E-13-9.72571E-14
 -1       988 2.00500E+01 5.33081E-01 3.66891E-05-6.83558E-01 7.95322E-14 8.23804E-16
 -1       989 2.02661E+01-1.93336E+00-9.59553E-03 2.73257E+00-1.66771E-13-2.12425E-13
 -1       990 2.01655E+01 1.48612E+00 1.74466E-03 1.13543E-01 1.56126E-13-1.63391E-13
 -1       991 1.32143E+01 6.17465E-01 3.49200E-02 1.66303E+00 1.45093E-13-4.09089E-13
 -1       992 2.01757E+01 1.04415E+00-2.08050E-04-1.36701E-01 1.23792E-13-1.34055E-13
 -1       993 1.99771E+01 1.10584E-01-7.21656E-06 5.47613E-02-2.59717E-14-3.63300E-13
 -1       994 2.00385E+01 1.75934E+00-7.76747E-05-2.88098E-02 5.29441E-14-2.24648E-13
 -1       995 1.99485E+01 1.42546E-01-4.22677E-05-2.52086E-02 5.34340E-13-6.18461E-14
 -1       996 1.98538E+01 8.30388E-01-4.37912E-05 4.43980E-01 7.75351E-15-1.31064E-13
 -1       997 2.00124E+01 9.16689E-01-3.87378E-05 3.04422E-01 5.36497E-14-1.53837E-13
 -1       998 1.45307E+01 1.01975E+00 8.45053E-03-1.14625E+00 1.24625E-13 3.33474E-13
 -1       999 1.46652E+01 1.01303E+00 8.61885E-03 1.03379E+00-6.21931E-14 2.46826E-13
 -1      1000 1.65909E+01-1.33374E-01 1.24168E-02-2.89137E+00 1.37281E-13 3.55882E-13
 -1      1001 1.40269E+01 7.97070E-01 1.69509E-02-1.28159E+00-6.26688E-14-2.57315E-13
 -1      1002 2.01123E+01 1.36111E+00-6.63615E-05 1.70329E-02 4.84451E-14-2.10129E-13
 -1      1003 1.91667E+01-3.81940E-01 2.64926E-04-2.16739E+00-3.08966E-14 9.06328E-14
 -1      1004 1.41839E+01 9.92213E-01 6.52684E-03 3.39796E-01 2.54102E-14-2.33421E-13
 -1      1005 1.96850E+01 6.23656E-01-2.26298E-05-8.27638E-01 3.67448E-14-1.78092E-14
 -1      1006 1.91816E+01 3.70963E-01 1.03696E-04-1.46955E+00 1.05138E-13 1.89429E-14
 -1      1007 2.00710E+01 1.39009E+00 7.01905E-04-3.55272E-02 8.78189E-14-1.64527E-13
 -1      1008 1.95081E+01 5.90015E-01-2.97465E-05-1.00831E+00 7.91495E-15-2.41653E-14
 -1      1009 1.99439E+01 1.46521E-01-1.02612E-05 1.40568E-04 3.84969E-13-2.75484E-14
 -1      1010 1.99599E+01 1.28131E-01-1.70016E-05 3.84449E-02-5.26503E-14 7.16197E-14
 -1      1011 2.01041E+01 8.39709E-01 4.92283E-04-3.31296E-01 5.36573E-14-1.37582E-13
 -1      1012 1.99220E+01-1.58915E+00 2.79758E-03-2.73384E+00-1.73034E-13 4.89281E-14
 -1      1013 1.63019E+01 5.98137E-01 2.05893E-03 1.83873E+00-1.53918E-13 2.45204E-13
 -1      1014 2.00610E+01 1.47009E+00-6.86274E-05 2.71514E-03 3.69450E-14-2.48518E-13
 -1      1015 1.61619E+01-1.85111E-01 9.47677E-03-2.82870E+00-1.66364E-13-2.27521E-13
 -1      1016 1.98671E+01 9.63332E-01 5.61849E-06 2.29143E-01 6.04937E-14-1.88281E-13
 -1      1017 2.00501E+01 1.23347E+00 5.20680E-04 7.67239E-02 4.86534E-14-2.28634E-13
 -1      1018 1.90249E+01 9.55810E-01-2.85882E-05 4.53338E-01 3.22531E-14-9.01766E-14
 -1      1019 1.85879E+01 1.01707E+00-1.41727E-06 5.28154E-01-5.54206E-15-6.08922E-14
 -1      1020 1.80440E+01 1.06888E+00 2.30303E-05 6.17794E-01-4.40382E-15-9.34498E-14
 -1      1021 1.73556E+01 1.08602E+00 1.65488E-04 7.40429E-01 1.29810E-14-7.82068E-14
 -1      1022 1.64715E+01 1.03500E+00 1.45752E-03 9.21624E-01 1.62487E-14-1.72428E-13
 -1      1023 1.98498E+01 6.54949E-01 1.25964E-05-6.63113E-01 3.47488E-14-3.55943E-14
 -1      1024 1.68767E+01 1.17521E+00 1.09650E-03-8.23806E-01 1.54111E-14 2.52429E-13
 -1      1025 1.75975E+01 1.18160E+00 2.89607E-04-6.51765E-01 8.50114E-14 2.27061E-13
 -1      1026 1.81500E+01 1.13022E+00-3.25503E-05-5.35027E-01-5.23726E-14 5.86767E-14
 -1      1027 1.85787E+01 1.04273E+00-2.20465E-04-4.44804E-01-2.26267E-13-7.08874E-14
 -1      1028 1.89170E+01 9.30854E-01-1.76781E-04-3.70573E-01-1.14144E-13-3.17224E-13
 -1      1029 1.91831E+01 8.09168E-01-1.38356E-04-3.06922E-01-4.75856E-14-2.93208E-13
 -1      1030 1.93912E+01 6.87926E-01-1.06294E-04-2.50615E-01-1.99476E-13-5.21491E-13
 -1      1031 1.95528E+01 5.72958E-01 8.64477E-06-2.01814E-01-1.67986E-13-5.47811E-13
 -1      1032 1.96771E+01 4.68185E-01-3.59432E-05-1.59636E-01 2.01941E-13-6.61811E-13
 -1      1033 1.97713E+01 3.76434E-01-5.80430E-05-1.23495E-01-8.12220E-15-4.72544E-13
 -1      1034 1.98421E+01 2.97405E-01-4.35777E-05-9.35617E-02 1.97368E-13-4.42032E-13
 -1      1035 1.98941E+01 2.30833E-01-6.40766E-05-6.94974E-02 5.66928E-14-2.90886E-13
 -1      1036 1.80762E+01 3.89343E-01-5.65437E-04 1.74380E+00-2.65055E-13-1.36652E-13
 -1      1037 1.99492E+01 1.40008E-01 1.14207E-05 2.10819E-02 6.96025E-14 9.03393E-14
 -1      1038 1.86252E+01 7.74345E-01-4.87335E-04 1.03009E+00-1.02691E-13 7.39144E-14
 -1      1039 1.83475E+01 6.52213E-01-1.20818E-03 1.33198E+00-3.03026E-13-1.08265E-13
 -1      1040 1.99794E+01 1.06591E+00-2.28706E-04 1.54403E-01 8.12573E-14-2.03997E-13
 -1      1041 1.88809E+01 8.03750E-01-3.98325E-04 8.03624E-01-5.14746E-14 3.75758E-13
 -1      1042 1.91084E+01 7.73147E-01-2.84441E-04 6.29338E-01-6.50895E-14 3.83486E-13
 -1      1043 1.93043E+01 7.06559E-01-1.88613E-04 4.92780E-01-7.93353E-14 2.45958E-13
 -1      1044 1.94672E+01 6.23236E-01-2.35270E-05 3.84890E-01 6.19729E-14 6.69101E-14
 -1      1045 1.96003E+01 5.33030E-01 1.50369E-05 2.98205E-01 7.68264E-14 2.83652E-13
 -1      1046 1.97064E+01 4.44544E-01-6.43165E-05 2.28543E-01-3.22720E-14 3.40293E-13
 -1      1047 1.97891E+01 3.63074E-01-8.21519E-05 1.72991E-01 2.09898E-13 2.27368E-13
 -1      1048 1.98527E+01 2.90615E-01-7.03084E-05 1.28819E-01 3.03363E-13 3.05079E-13
 -1      1049 1.99004E+01 2.28076E-01-3.63808E-05 9.41017E-02 4.39261E-13 3.75814E-13
 -1      1050 1.99347E+01 1.76178E-01 1.11489E-05 6.75398E-02 2.45575E-13 1.34466E-13
 -1      1051 2.00454E+01 1.43308E+00 6.80418E-05-7.11411E-03 6.84249E-14-1.45254E-13
 -1      1052 1.93319E+01 5.20382E-01 3.35934E-05-1.21667E+00 4.14937E-14 3.38711E-15
 -1      1053 1.75363E+01-8.04095E-01 1.54083E-02-3.11415E+00-1.53581E-13-6.05585E-14
 -1      1054 1.99486E+01 1.51068E-01 8.46150E-05 5.12807E-02 2.44020E-14-5.28303E-14
 -1      1055 1.96561E+01 9.04837E-01-2.60899E-05 3.09655E-01 5.74051E-15-1.56579E-13
 -1      1056 1.78259E+01 8.72971E-02 9.44855E-04 2.15565E+00-2.20504E-13-1.55432E-13
 -1      1057 2.00042E+01 1.12407E+00-5.65113E-04-1.20935E-01 3.12122E-14-1.06506E-13
 -1      1058 1.99928E+01 7.16603E-01 2.16180E-04-5.01523E-01 2.14029E-14-1.07959E-13
 -1      1059 1.56342E+01 1.22350E+00-1.22762E-04-1.63743E-01-3.17298E-14 2.03488E-13
 -1      1060 1.93768E+01 9.10729E-01-2.09755E-05 3.83001E-01 3.65482E-14-1.21411E-13
 -1      1061 1.61796E+01 1.05918E+00 4.12926E-03-1.13056E+00 3.54183E-14 4.40991E-13
 -1      1062 1.95946E+01 7.69597E-01-2.06478E-04-5.73581E-01 4.31724E-14-9.18689E-14
 -1      1063 1.54255E+01 1.03213E+00 4.52772E-03-6.10084E-01-3.62594E-14-1.22778E-13
 -1      1064 1.99309E+01 1.76690E-01-7.91569E-05-5.04690E-02 4.29414E-13-3.98843E-13
 -1      1065 1.84099E+01 5.43657E-01-9.26282E-04-1.44251E+00 4.03406E-14-2.93381E-14
 -1      1066 1.93448E+01 7.58217E-01 4.09419E-04-7.23863E-01 2.70281E-15-1.14133E-13
 -1      1067 1.51968E+01 1.05980E+00 2.10061E-03 6.96491E-01-3.19840E-15-1.86164E-13
 -1      1068 1.63513E+01 1.10539E+00-4.86608E-04 7.72608E-01-1.28208E-13 9.05328E-14
 -1      1069 1.80825E+01 2.72623E-01 3.85748E-04-1.87255E+00-3.20048E-14-7.96142E-14
 -1      1070 1.99191E+01 1.87802E-01 3.10654E-04-1.66832E-02 5.38112E-13 1.95706E-14
 -1      1071 1.87255E+01 1.01369E+00 2.95773E-05 9.65426E-02 3.58765E-14-1.82109E-13
 -1      1072 2.00083E+01 1.23598E+00-4.09864E-04 2.23278E-02 4.90043E-14-1.62215E-13
 -1      1073 1.90060E+01 8.51017E-01 2.83963E-04 3.68303E-01 2.85986E-14 2.02253E-14
 -1      1074 1.83744E+01 9.83177E-01-2.22827E-04 6.40089E-01-2.27650E-13 1.14613E-13
 -1      1075 1.94731E+01 9.37085E-01-1.53735E-04 9.59796E-02 5.74572E-14-1.86389E-13
 -1      1076 1.82085E+01 1.07350E+00 9.44791E-05 7.86030E-02-2.91716E-14-9.84527E-14
 -1      1077 1.75558E+01 1.11722E+00-5.47327E-04 4.27082E-02 1.05197E-14-7.52007E-14
 -1      1078 1.67135E+01 1.13725E+00-8.21575E-04-6.82171E-03-7.39914E-15-1.00078E-13
 -1      1079 1.70271E+01 1.24937E+00-8.71541E-05-6.11968E-02-6.26342E-14-2.49344E-14
 -1      1080 1.59257E+01 4.78766E-01-2.66618E-03-1.92125E+00-1.81002E-13-1.86901E-13
 -1      1081 1.76841E+01 1.21941E+00 7.36463E-04-7.35624E-02-1.61881E-13-3.19291E-13
 -1      1082 1.82206E+01 1.13269E+00-1.05859E-04-8.70175E-02-2.26303E-13-5.53484E-13
 -1      1083 1.86338E+01 1.02433E+00-3.33186E-04-9.61141E-02-1.92436E-13-3.64446E-13
 -1      1084 1.89573E+01 9.03741E-01-3.20950E-04-9.54795E-02-1.21889E-13-2.64626E-13
 -1      1085 1.92196E+01 7.77698E-01 9.15936E-04-8.99749E-02-3.05287E-13-4.56611E-13
 -1      1086 1.94187E+01 6.55013E-01 1.47532E-05-7.98184E-02-1.99177E-13-5.24780E-13
 -1      1087 1.95675E+01 5.46760E-01 2.37232E-04-6.53998E-02 1.83969E-13-3.06714E-13
 -1      1088 1.96886E+01 4.43682E-01 8.14680E-06-5.24234E-02 2.37123E-13-2.58541E-13
 -1      1089 1.97801E+01 3.54219E-01-4.85708E-05-4.19835E-02 1.30342E-13-8.95442E-14
 -1      1090 1.98489E+01 2.77751E-01-6.83760E-05-3.14295E-02 7.32172E-14-5.32752E-14
 -1      1091 1.87457E+01 6.84113E-01-7.71451E-05-1.13038E+00 2.96768E-14-8.23681E-14
 -1      1092 1.79687E+01 9.77967E-01 2.62465E-03 8.55978E-01-4.37235E-13-4.34334E-14
 -1      1093 1.92368E+01 7.52715E-01 7.75777E-04 2.78778E-01-1.34338E-13 6.12425E-14
 -1      1094 1.94315E+01 6.40218E-01 1.66609E-04 2.08820E-01-1.01678E-13 8.38671E-14
 -1      1095 1.95765E+01 5.39205E-01 5.00786E-04 1.58752E-01-9.78868E-14 1.53038E-13
 -1      1096 1.96885E+01 4.44017E-01-6.21807E-05 1.20215E-01 1.20168E-13 1.60328E-13
 -1      1097 1.97781E+01 3.58166E-01 1.53487E-05 8.96727E-02 2.17669E-13 3.75215E-14
 -1      1098 1.98459E+01 2.83830E-01 8.34396E-05 6.61544E-02 3.13700E-13 1.09027E-13
 -1      1099 1.98975E+01 2.19583E-01 1.73232E-04 4.70580E-02 4.29548E-13 2.18684E-13
 -1      1100 1.74057E+01-2.68171E-02-1.63197E-03-2.35083E+00-1.10898E-13-1.97573E-13
 -1      1101 1.97296E+01 9.69327E-01 8.38287E-05 8.10059E-02 5.98055E-14-2.43724E-13
 -1      1102 1.98029E+01 8.09425E-01-3.87981E-05-4.39818E-01-8.62015E-15-1.21273E-13
 -1      1103 1.87218E+01 9.33440E-01 1.70979E-04 4.83699E-01 3.61253E-15 1.72520E-13
 -1      1104 1.66584E+01 8.51793E-01 2.99750E-03-1.19715E+00 1.03282E-14-1.98308E-13
 -1      1105 1.70921E+01 7.83467E-01-4.86317E-04 1.41684E+00-2.56691E-13-4.85717E-15
 -1      1106 1.75872E+01 9.12770E-01 4.98404E-03 1.08043E+00-2.93501E-13-7.58004E-14
 -1      1107 1.91411E+01 9.60492E-01-4.30738E-05 1.02896E-01 5.57906E-14-2.15832E-13
 -1      1108 1.98885E+01 2.28723E-01-7.26625E-05-2.41874E-02 2.29253E-13 1.01414E-14
 -1      1109 1.98751E+01 1.04590E+00 1.35876E-03 5.47687E-02 6.67455E-14-2.23280E-13
 -1      1110 1.93116E+01 8.73359E-01-3.43745E-04-3.96767E-01 6.15826E-14-1.61008E-13
 -1      1111 1.99338E+01 1.66008E-01 1.58508E-05 2.98787E-02 2.26628E-13 2.44364E-13
 -1      1112 1.80806E+01 8.76024E-01 3.94531E-04-8.93841E-01 2.16766E-14-2.41184E-13
 -1      1113 1.95944E+01 8.81092E-01 1.20418E-04-3.04085E-01 1.93327E-14-1.54362E-13
 -1      1114 1.90546E+01 7.44686E-01 8.05805E-05-9.01083E-01-1.83246E-14-1.34895E-13
 -1      1115 1.99238E+01 8.91521E-01-2.55530E-04-3.20095E-01 3.64051E-14-1.11427E-13
 -1      1116 1.98488E+01 9.87844E-01-4.90740E-04-1.41342E-01 1.80295E-15-1.10532E-13
 -1      1117 1.74664E+01 8.77845E-01 1.86253E-03-1.02920E+00 1.28577E-14-2.36899E-13
 -1      1118 1.65286E+01 1.03173E+00 1.19172E-03-6.02103E-01-5.20059E-14-1.29063E-13
 -1      1119 1.99227E+01 1.79299E-01-1.66211E-06 8.70625E-03 4.44789E-13 3.94593E-13
 -1      1120 1.92715E+01 7.33326E-01-2.00128E-03 6.98288E-02-2.98497E-13 1.20493E-13
 -1      1121 1.80185E+01 1.01161E+00 6.90572E-04-4.83318E-01 4.04374E-14-1.76957E-13
 -1      1122 1.89752E+01 9.54199E-01 2.62225E-04-2.51420E-01 3.12202E-14-1.90047E-13
 -1      1123 1.74678E+01 1.14593E+00-8.53920E-03 4.94840E-01-3.57349E-13-1.14569E-13
 -1      1124 1.94930E+01 5.93653E-01-1.35369E-03 6.15830E-02-4.56136E-15 1.60096E-13
 -1      1125 1.96250E+01 9.29871E-01 9.59522E-05-1.30909E-01 5.65839E-14-2.19670E-13
 -1      1126 1.85570E+01 9.01388E-01-2.18572E-03-6.74644E-01 1.80458E-14-1.97483E-13
 -1      1127 1.85573E+01 9.85536E-01 1.92416E-03-3.42603E-01 2.90611E-14-2.43827E-13
 -1      1128 1.74110E+01 1.05025E+00-2.82231E-04-4.77391E-01 2.19372E-14-9.25496E-14
 -1      1129 1.97312E+01 9.23113E-01-6.45227E-05-2.17597E-01 6.69380E-15-1.03050E-13
 -1      1130 1.93659E+01 9.25300E-01 5.01411E-05-1.38081E-01 4.34781E-14-2.23160E-13
 -1      1131 2.78261E+01 9.03933E+00 2.30483E+00-6.64275E+00-4.52971E-14 1.22632E-12
 -1      1132 2.05329E+01 6.22388E+00 2.13303E-01-3.84788E+00-2.28428E-14 8.22883E-14
 -1      1133 1.94586E+01 5.86134E+00 7.91446E-02-2.82049E+00-1.52933E-14-3.84267E-13
 -1      1134 1.90633E+01 5.73775E+00 6.25250E-02-2.16072E+00-8.60423E-15-5.95564E-13
 -1      1135 1.88753E+01 5.67995E+00 5.78163E-02-1.62797E+00-5.34295E-15-6.83193E-13
 -1      1136 1.87728E+01 5.64809E+00 5.41198E-02-1.16975E+00-1.94636E-15-7.09366E-13
 -1      1137 1.87132E+01 5.62927E+00 5.10425E-02-7.56711E-01-3.72966E-16-6.96801E-13
 -1      1138 1.86809E+01 5.61897E+00 4.89628E-02-3.67769E-01 1.09938E-15-6.71099E-13
 -1      1139 1.86709E+01 5.61577E+00 4.82828E-02 8.02251E-03 2.68926E-15-6.35373E-13
 -1      1140 1.86817E+01 5.61924E+00 4.91030E-02 3.84313E-01 6.24674E-15-5.94439E-13
 -1      1141 1.87147E+01 5.62983E+00 5.13545E-02 7.74859E-01 8.20177E-15-5.39168E-13
 -1      1142 1.87757E+01 5.64919E+00 5.48881E-02 1.19084E+00 1.03459E-14-4.52016E-13
 -1      1143 1.88795E+01 5.68147E+00 5.87183E-02 1.65369E+00 1.21569E-14-3.20525E-13
 -1      1144 1.90675E+01 5.73901E+00 6.25013E-02 2.19399E+00 1.54252E-14-1.18190E-13
 -1      1145 1.94546E+01 5.85831E+00 7.31005E-02 2.86110E+00 1.86656E-14 2.26425E-13
 -1      1146 2.04395E+01 6.17911E+00 1.57439E-01 3.82314E+00 1.75415E-14 8.41827E-13
 -1      1147 2.51036E+01 7.95630E+00 1.41734E+00 5.79655E+00 2.47025E-14 1.97839E-12
 -1      1148 2.86281E+01 3.58054E+00 1.24612E+00-4.17955E+00-1.77830E-13 1.94239E-12
 -1      1149 2.01574E+01-1.78308E-01-6.15802E-01-1.05609E-01-6.44415E-14 1.50532E-12
 -1      1150 1.88290E+01-9.71942E-02-2.35823E-01 6.27755E-02-2.72594E-14 9.13110E-13
 -1      1151 1.85560E+01-4.99577E-02-6.12046E-02 4.03627E-02-1.66672E-14 5.21784E-13
 -1      1152 1.85753E+01-2.76722E-02-1.85866E-02 2.67838E-02-6.94410E-15 2.81952E-13
 -1      1153 1.87563E+01-1.73538E-02-1.00362E-02 1.94711E-02-5.38046E-15 1.68490E-13
 -1      1154 1.90388E+01-1.23030E-02-8.36810E-03 1.52420E-02-4.53045E-15 2.14186E-14
 -1      1155 1.93963E+01-1.00765E-02-8.42750E-03 1.29162E-02 5.84168E-15-1.06691E-13
 -1      1156 1.98207E+01-9.48944E-03-9.45838E-03 1.19997E-02 1.08659E-15-2.00203E-13
 -1      1157 2.03157E+01-9.79945E-03-1.11777E-02 1.23436E-02-9.81528E-15-3.79962E-13
 -1      1158 2.08911E+01-1.03581E-02-1.30803E-02 1.39521E-02 1.45403E-14-4.94731E-13
 -1      1159 2.15586E+01-1.03885E-02-1.42474E-02 1.68378E-02 5.99835E-15-4.08253E-13
 -1      1160 2.23246E+01-8.80303E-03-1.31027E-02 2.08311E-02-1.14788E-14-4.65177E-13
 -1      1161 2.31798E+01-4.07395E-03-7.12389E-03 2.52491E-02 9.52276E-15-3.82454E-13
 -1      1162 2.40818E+01 5.70788E-03 7.18724E-03 2.83456E-02-3.95635E-14-3.24067E-13
 -1      1163 2.49323E+01 2.22418E-02 3.33269E-02 2.65940E-02-3.25475E-14-4.58578E-13
 -1      1164 2.55537E+01 4.53589E-02 7.15639E-02 1.43256E-02-3.44369E-14-5.58513E-13
 -1      1165 2.56865E+01 6.97618E-02 1.12923E-01-1.47541E-02-6.40980E-16-6.88841E-13
 -1      1166 2.50480E+01 8.20652E-02 1.33547E-01-6.21705E-02-8.14800E-15-8.87949E-13
 -1      1167 2.34930E+01 6.25772E-02 9.91176E-02-1.15814E-01 1.64764E-14-1.15556E-12
 -1      1168 2.12519E+01-1.06175E-03-8.15813E-03-1.44857E-01 9.54456E-15-9.18723E-13
 -1      1169 1.90610E+01-8.83260E-02-1.50529E-01-1.14967E-01-1.44190E-14-8.79158E-13
 -1      1170 1.79033E+01-1.42298E-01-2.37016E-01-2.42784E-02 3.61725E-14-7.37709E-13
 -1      1171 1.83784E+01-1.19992E-01-2.01506E-01 8.05217E-02-5.81878E-14-1.00819E-12
 -1      1172 2.02394E+01-3.99455E-02-7.23963E-02 1.40168E-01 2.53738E-14-1.34653E-12
 -1      1173 2.25907E+01 3.90561E-02 5.87847E-02 1.34123E-01 1.12826E-14-1.04479E-12
 -1      1174 2.45275E+01 7.79475E-02 1.25804E-01 8.67496E-02 6.90073E-15-1.18092E-12
 -1      1175 2.55947E+01 7.70541E-02 1.25389E-01 3.39861E-02-6.37077E-15-1.48030E-12
 -1      1176 2.58025E+01 5.55053E-02 8.90865E-02-3.41433E-03-2.12668E-14-1.55977E-12
 -1      1177 2.54022E+01 3.05030E-02 4.72345E-02-2.21371E-02 5.09289E-14-1.18201E-12
 -1      1178 2.46788E+01 1.06208E-02 1.50842E-02-2.73470E-02-5.40140E-14-8.90382E-13
 -1      1179 2.38505E+01-2.17492E-03-4.42833E-03-2.53331E-02 1.51661E-14-8.08159E-13
 -1      1180 2.30506E+01-9.00709E-03-1.39179E-02-2.05474E-02-7.40867E-14-1.30624E-12
 -1      1181 2.23449E+01-1.17628E-02-1.70494E-02-1.53997E-02-2.48008E-14-1.50599E-12
 -1      1182 2.17563E+01-1.20911E-02-1.67403E-02-1.09172E-02 1.96815E-14-1.37665E-12
 -1      1183 2.12838E+01-1.11520E-02-1.48612E-02-7.38603E-03 6.50239E-15-1.16261E-12
 -1      1184 2.09155E+01-9.66865E-03-1.24641E-02-4.76214E-03-3.26078E-14-1.42729E-12
 -1      1185 2.06350E+01-8.05218E-03-1.00799E-02-2.88841E-03 9.92739E-15-1.15579E-12
 -1      1186 2.04262E+01-6.51598E-03-7.94353E-03-1.59240E-03-1.72861E-14-1.16134E-12
 -1      1187 2.02740E+01-5.15656E-03-6.13436E-03-7.23023E-04-2.20332E-14-1.10386E-12
 -1      1188 2.01659E+01-4.00533E-03-4.65595E-03-1.59542E-04-4.74550E-14-9.19341E-13
 -1      1189 2.00913E+01-3.05948E-03-3.47821E-03 1.90158E-04 1.93617E-14-9.39340E-13
 -1      1190 2.00419E+01-2.29983E-03-2.55905E-03 3.94695E-04-5.91898E-14-8.83592E-13
 -1      1191 2.00111E+01-1.70038E-03-1.85490E-03 5.04725E-04-4.82907E-14-8.63251E-13
 -1      1192 1.99939E+01-1.23300E-03-1.32452E-03 5.57932E-04 3.62494E-14-6.78313E-13
 -1      1193 1.99863E+01-8.68642E-04-9.26807E-04 5.83391E-04 8.30669E-14-1.67076E-13
 -1      1194 1.99854E+01-5.75040E-04-6.06694E-04 6.03063E-04 4.80805E-14-2.16324E-13
 -1      1195 1.99891E+01-3.04936E-04-2.73552E-04 6.18252E-04-1.01700E-14 1.61930E-13
 -1      1196 1.99951E+01-6.34976E-05 2.46999E-04 6.19854E-04-7.16858E-14-9.32780E-14
 -1      1197 1.99993E+01 2.29776E-04 6.42966E-04 1.66501E-04 3.66446E-14-2.34932E-13
 -1      1198 2.76195E+01 5.21624E-01 3.61057E-01 1.95335E+00-3.61933E-14 2.87753E-12
 -1      1199 2.00215E+01-6.69464E-02-5.72692E-01 1.27923E-01 7.87911E-15 2.50713E-12
 -1      1200 1.89060E+01-4.18054E-02-1.93089E-01 1.96159E-02 1.38058E-14 2.09730E-12
 -1      1201 1.85876E+01-2.33375E-02-5.21729E-02 2.49662E-03 1.19566E-15 1.80957E-12
 -1      1202 1.85903E+01-1.51353E-02-1.65468E-02-2.49869E-03 8.94619E-15 1.61173E-12
 -1      1203 1.87630E+01-1.10296E-02-9.25436E-03-3.59319E-03 4.47125E-15 1.45553E-12
 -1      1204 1.90373E+01-8.92842E-03-8.04918E-03-3.58902E-03 3.85651E-16 1.35092E-12
 -1      1205 1.93823E+01-7.94389E-03-8.07518E-03-3.34453E-03-8.75092E-15 1.28708E-12
 -1      1206 1.97853E+01-7.53658E-03-8.54167E-03-3.23354E-03-1.99179E-15 1.17564E-12
 -1      1207 2.02428E+01-7.23403E-03-9.11418E-03-3.55314E-03 2.78933E-14 1.10188E-12
 -1      1208 2.07549E+01-6.49744E-03-9.22136E-03-4.61281E-03 5.13055E-15 9.81394E-13
 -1      1209 2.13192E+01-4.64939E-03-7.93954E-03-6.72924E-03-4.52031E-15 9.39490E-13
 -1      1210 2.19244E+01-8.69967E-04-3.95791E-03-1.01453E-02 2.14150E-14 9.00923E-13
 -1      1211 2.25410E+01 5.66222E-03 4.32555E-03-1.48304E-02-1.17481E-14 8.04065E-13
 -1      1212 2.31119E+01 1.53584E-02 1.83329E-02-2.01148E-02 1.34034E-14 7.63977E-13
 -1      1213 2.35428E+01 2.74228E-02 3.81406E-02-2.41854E-02 1.46476E-15 6.50448E-13
 -1      1214 2.37027E+01 3.87930E-02 6.05055E-02-2.37118E-02-6.44532E-14 8.98916E-13
 -1      1215 2.34443E+01 4.35945E-02 7.68820E-02-1.43368E-02 4.98698E-14 9.03506E-13
 -1      1216 2.26608E+01 3.47914E-02 7.39992E-02 6.91555E-03-1.35352E-14 7.12208E-13
 -1      1217 2.13768E+01 9.31411E-03 4.04522E-02 3.73930E-02 1.12729E-14 7.63431E-13
 -1      1218 1.98326E+01-2.59503E-02-2.13858E-02 6.58501E-02-1.43017E-14 7.06837E-13
 -1      1219 1.84764E+01-5.45075E-02-8.81142E-02 7.59447E-02-1.05679E-14 9.25378E-13
 -1      1220 1.77995E+01-6.08353E-02-1.25288E-01 5.74468E-02 4.21104E-15 7.88220E-13
 -1      1221 1.80760E+01-4.32111E-02-1.12281E-01 1.63259E-02 2.05660E-14 4.27613E-13
 -1      1222 1.91941E+01-1.43776E-02-5.90777E-02-2.78260E-02 2.81906E-14 4.40453E-13
 -1      1223 2.07285E+01 1.04151E-02 3.01134E-03-5.61038E-02 1.41447E-14 6.46219E-13
 -1      1224 2.21863E+01 2.34951E-02 4.62364E-02-6.17732E-02-3.36797E-15 7.33441E-13
 -1      1225 2.32290E+01 2.56049E-02 6.16002E-02-5.03846E-02 1.90512E-14 8.47711E-13
 -1      1226 2.37458E+01 2.11641E-02 5.55394E-02-3.20574E-02-1.15832E-14 6.83016E-13
 -1      1227 2.37987E+01 1.44440E-02 3.95048E-02-1.46702E-02-3.07564E-14 7.93763E-13
 -1      1228 2.35270E+01 8.06151E-03 2.25396E-02-1.91147E-03 4.09269E-14 7.26107E-13
 -1      1229 2.30748E+01 3.11550E-03 9.10209E-03 5.74608E-03 1.00553E-14 6.44887E-13
 -1      1230 2.25555E+01-2.23513E-04 2.15678E-04 9.35146E-03-5.95105E-15 6.06924E-13
 -1      1231 2.20440E+01-2.20245E-03-4.78505E-03 1.02815E-02-2.65571E-14 4.70384E-13
 -1      1232 2.15822E+01-3.18197E-03-7.04021E-03 9.69478E-03 4.63694E-14 2.09778E-13
 -1      1233 2.11887E+01-3.49580E-03-7.58611E-03 8.39503E-03 9.25377E-15 1.01513E-13
 -1      1234 2.08672E+01-3.40418E-03-7.18324E-03 6.87370E-03-3.15176E-14-8.08555E-14
 -1      1235 2.06133E+01-3.09160E-03-6.32782E-03 5.39920E-03-2.07934E-14 1.51039E-13
 -1      1236 2.04186E+01-2.68036E-03-5.31816E-03 4.09827E-03 4.21584E-14 2.56689E-13
 -1      1237 2.02734E+01-2.24669E-03-4.32053E-03 3.01500E-03 1.74023E-14-3.56127E-13
 -1      1238 2.01682E+01-1.83473E-03-3.41878E-03 2.14880E-03-1.65812E-14-5.41501E-13
 -1      1239 2.00945E+01-1.46729E-03-2.64774E-03 1.47743E-03-3.48461E-14-4.15648E-13
 -1      1240 2.00450E+01-1.15360E-03-2.01457E-03 9.70041E-04-4.44482E-14-9.50475E-14
 -1      1241 2.00137E+01-8.94179E-04-1.51156E-03 5.93741E-04 1.18838E-13-2.06322E-13
 -1      1242 1.99958E+01-6.81489E-04-1.12124E-03 3.16229E-04-4.58312E-14-4.53945E-14
 -1      1243 1.99876E+01-5.05153E-04-8.20292E-04 1.07528E-04-1.19331E-14-1.21955E-13
 -1      1244 1.99862E+01-3.45524E-04-5.70516E-04-6.44469E-05 4.47105E-14-8.16876E-13
 -1      1245 1.99895E+01-1.50266E-04-2.72773E-04-2.44670E-04 4.86961E-15-7.34086E-13
 -1      1246 1.99952E+01 1.81092E-04 2.54521E-04-4.50372E-04 9.93928E-14-1.26048E-12
 -1      1247 1.99993E+01 1.74834E-04 6.35452E-04-1.68791E-04-3.60234E-15-1.02307E-12
 -1      1248 1.99999E+01-5.43682E-04 5.65640E-04-2.11209E-04-1.12541E-12-3.85891E-14
 -1      1249 1.99998E+01-4.65397E-03 9.42574E-05-5.09785E-04-1.21744E-12 5.64504E-14
 -1      1250 1.99996E+01-9.27944E-03-3.60462E-04-3.86630E-04 8.97712E-13 8.47106E-14
 -1      1251 1.99995E+01-1.11925E-02-4.49782E-04-1.79666E-04 1.72897E-12 1.02381E-13
 -1      1252 1.99996E+01-1.00830E-02-3.10503E-04-1.69712E-05 9.51214E-13-5.46163E-14
 -1      1253 1.99998E+01-6.99748E-03-9.24926E-05 7.33503E-05-5.90238E-14-1.24298E-13
 -1      1254 1.99999E+01-3.37377E-03 1.19841E-04 9.17272E-05 1.87073E-13 7.94228E-14
 -1      1255 2.00000E+01-5.78276E-04 2.68781E-04 5.69167E-05 3.04315E-13 2.67871E-13
 -1      1256 2.00001E+01 3.68792E-04 3.19211E-04-6.52195E-06-2.74966E-13-1.87795E-14
 -1      1257 2.00000E+01-8.68888E-04 2.60469E-04-6.87934E-05 1.33841E-13-7.04434E-14
 -1      1258 1.99999E+01-3.89996E-03 1.04229E-04-9.95173E-05 5.18477E-14-2.07700E-13
 -1      1259 1.99998E+01-7.65596E-03-1.11711E-04-7.45580E-05 5.44820E-13 7.65991E-14
 -1      1260 1.99996E+01-1.07370E-02-3.31881E-04 2.24230E-05 1.73917E-13-8.62547E-14
 -1      1261 1.99995E+01-1.16864E-02-4.60721E-04 1.94677E-04 7.27212E-15 1.01223E-14
 -1      1262 1.99996E+01-9.50736E-03-3.24660E-04 4.69367E-04-5.23249E-13 9.42358E-14
 -1      1263 1.99998E+01-4.55642E-03 2.05746E-04 7.46265E-04-2.09758E-13-5.94490E-14
 -1      1264 1.99999E+01-6.67651E-04 5.22923E-04 2.86061E-04 6.06080E-14-3.96808E-14
 -1      1265-9.97624E-01-2.36803E+01-3.65682E+00-2.19274E+00 2.22355E-12 4.22551E-13
 -1      1266-1.71677E+00-1.46490E+01-2.98179E+00-3.93877E+00 3.74656E-12 1.25838E-12
 -1      1267 6.10250E-01-1.82395E+00-1.75694E+00 2.27521E-01 3.92752E-12 2.37377E-12
 -1      1268 1.06506E+01 8.34477E+00-1.01348E-01 9.27224E+00 2.95741E-12 2.81752E-12
 -1      1269 2.85631E+01 1.09749E+01 1.68408E+00 1.68342E+01 2.07034E-12 3.02758E-12
 -1      1270 4.87931E+01 7.29825E+00 3.06287E+00 1.67012E+01 9.32976E-13 2.17559E-12
 -1      1271 6.39222E+01 2.53501E+00 4.02839E+00 8.20988E+00 1.60150E-13 5.75984E-13
 -1      1272 6.53372E+01 2.08813E+00 4.08308E+00-4.86291E+00 2.70905E-13-1.50646E-12
 -1      1273 5.39897E+01 5.77188E+00 3.41712E+00-1.54271E+01 8.56759E-13-2.65299E-12
 -1      1274 3.46526E+01 1.03570E+01 2.12050E+00-1.77930E+01 1.81377E-12-3.12417E-12
 -1      1275 1.61020E+01 1.03792E+01 5.50081E-01-1.25298E+01 2.78022E-12-3.16303E-12
 -1      1276 3.76203E+00 3.42528E+00-1.11344E+00-3.95634E+00 3.17013E-12-2.51310E-12
 -1      1277-1.24763E+00-8.57104E+00-2.44755E+00 2.48744E+00 2.34679E-12-1.27942E-12
 -1      1278-1.51197E+00-2.06191E+01-3.51361E+00 3.62014E+00 7.29861E-13-3.21326E-13
 -1      1279-1.11693E+00-2.48687E+01-3.76761E+00-2.36587E-01-9.64395E-13-1.43482E-13
 -1      1280-1.57518E+00-2.02186E+01-3.50735E+00-3.99038E+00-2.32769E-12-6.90115E-13
 -1      1281-1.17838E+00-7.90833E+00-2.43383E+00-2.40780E+00-3.20433E-12-1.67655E-12
 -1      1282 5.13288E+00 4.30442E+00-9.46733E-01 4.94357E+00-3.19544E-12-2.66609E-12
 -1      1283 1.99984E+01 1.05675E+01 8.92978E-01 1.38694E+01-2.46669E-12-3.04468E-12
 -1      1284 4.05541E+01 9.33080E+00 2.55133E+00 1.79950E+01-1.31162E-12-2.54352E-12
 -1      1285 5.95875E+01 4.24251E+00 3.79427E+00 1.30099E+01-3.62682E-13-1.20037E-12
 -1      1286 6.76746E+01 1.50366E+00 4.30144E+00 3.23159E-01-4.65392E-14 4.36706E-13
 -1      1287 6.03809E+01 4.17796E+00 3.88354E+00-1.22020E+01-6.10872E-13 2.30005E-12
 -1      1288 4.32073E+01 8.77465E+00 2.75272E+00-1.80177E+01-1.72373E-12 3.63487E-12
 -1      1289 2.30368E+01 1.08231E+01 1.12023E+00-1.51060E+01-2.84417E-12 3.85492E-12
 -1      1290 7.30046E+00 6.35358E+00-5.68703E-01-6.77005E+00-3.30047E-12 2.97562E-12
 -1      1291-3.95085E-01-4.03578E+00-2.07103E+00 1.09884E+00-3.09108E-12 1.74716E-12
 -1      1292-1.81880E+00-1.59349E+01-3.13383E+00 4.25304E+00-2.47447E-12 9.79827E-13
 -1      1293-1.11021E+00-2.38913E+01-3.68905E+00 2.19814E+00-4.53748E-13 2.22312E-13
 -1      1294 2.21906E+01 1.83538E+00-7.21201E-01-2.75822E+00-6.77236E-14 9.61897E-13
 -1      1295 2.03654E+01 4.68219E+00-4.66712E-02-3.24389E+00-1.67033E-13-1.37196E-13
 -1      1296 2.08499E+01 4.79406E+00-1.10666E-01-4.09998E+00-2.20157E-13 1.09579E-13
 -1      1297 1.95648E+01 4.99460E+00-1.87322E-02-2.58021E+00-1.53232E-13-4.76889E-13
 -1      1298 1.98535E+01 5.08835E+00 2.45546E-03-2.97520E+00-1.78732E-13-3.33511E-13
 -1      1299 2.05446E+01 3.94466E+00-2.48078E-02-3.00251E+00-2.81015E-13-1.10911E-13
 -1      1300 1.92221E+01 5.09414E+00-3.51024E-03-1.99236E+00-1.13952E-13-6.32123E-13
 -1      1301 1.93707E+01 5.14917E+00 1.21679E-02-2.28603E+00-1.31409E-13-5.64791E-13
 -1      1302 1.97909E+01 4.37108E+00-2.35435E-02-2.40878E+00-2.32890E-13-3.90049E-13
 -1      1303 1.90393E+01 5.14695E+00 2.67264E-03-1.49010E+00-7.01175E-14-6.97043E-13
 -1      1304 1.91224E+01 5.17807E+00 1.35452E-02-1.73708E+00-8.42885E-14-6.68906E-13
 -1      1305 1.94272E+01 4.57398E+00-1.93004E-02-1.85070E+00-1.64939E-13-5.26645E-13
 -1      1306 1.89324E+01 5.18153E+00 5.50319E-03-1.05435E+00-3.33691E-14-7.14054E-13
 -1      1307 1.89820E+01 5.20002E+00 1.30867E-02-1.26897E+00-4.61194E-14-7.07039E-13
 -1      1308 1.92285E+01 4.69315E+00-1.54252E-02-1.37017E+00-9.83532E-14-5.80425E-13
 -1      1309 1.88677E+01 5.20458E+00 6.96244E-03-6.50323E-01 1.17094E-15-7.01083E-13
 -1      1310 1.88972E+01 5.21537E+00 1.18074E-02-8.50374E-01-1.10597E-14-7.12843E-13
 -1      1311 1.91088E+01 4.76859E+00-1.33171E-02-9.44710E-01-3.89378E-14-5.99500E-13
 -1      1312 1.88351E+01 5.21861E+00 8.07763E-03-2.69802E-01 3.69689E-14-6.67076E-13
 -1      1313 1.88487E+01 5.22357E+00 1.04088E-02-4.59643E-01 2.16298E-14-6.81843E-13
 -1      1314 1.90384E+01 4.81449E+00-1.21945E-02-5.50489E-01 1.40536E-14-5.74898E-13
 -1      1315 1.88294E+01 5.22458E+00 9.22052E-03 1.01216E-01 6.96047E-14-6.23990E-13
 -1      1316 1.88291E+01 5.22444E+00 9.12662E-03-8.54800E-02 5.62313E-14-6.47298E-13
 -1      1317 1.90059E+01 4.83598E+00-1.17306E-02-1.76243E-01 7.48673E-14-5.45064E-13
 -1      1318 1.88502E+01 5.22294E+00 1.05333E-02 4.76112E-01 1.02285E-13-5.84810E-13
 -1      1319 1.88359E+01 5.21771E+00 8.00523E-03 2.85753E-01 9.32282E-14-6.10760E-13
 -1      1320 1.90066E+01 4.83511E+00-1.17545E-02 1.91790E-01 1.33426E-13-5.03618E-13
 -1      1321 1.89000E+01 5.21370E+00 1.19520E-02 8.68632E-01 1.33215E-13-5.28671E-13
 -1      1322 1.88698E+01 5.20277E+00 6.91617E-03 6.67448E-01 1.22777E-13-5.63893E-13
 -1      1323 1.90408E+01 4.81176E+00-1.22644E-02 5.66928E-01 1.81910E-13-4.67900E-13
 -1      1324 1.89853E+01 5.19756E+00 1.33053E-02 1.28649E+00 1.60353E-13-4.32222E-13
 -1      1325 1.89350E+01 5.17869E+00 5.43852E-03 1.07028E+00 1.45871E-13-4.91659E-13
 -1      1326 1.91126E+01 4.76411E+00-1.33046E-02 9.59483E-01 2.26788E-13-4.07827E-13
 -1      1327 1.91292E+01 5.17381E+00 1.38220E-02 1.76318E+00 2.02057E-13-2.94046E-13
 -1      1328 1.90444E+01 5.14193E+00 2.54629E-03 1.51333E+00 1.82229E-13-3.74954E-13
 -1      1329 1.92343E+01 4.68564E+00-1.54740E-02 1.38824E+00 2.80056E-13-3.02872E-13
 -1      1330 1.93804E+01 5.14257E+00 1.17610E-02 2.32039E+00 2.32522E-13-7.33684E-14
 -1      1331 1.92303E+01 5.08565E+00-4.32981E-03 2.02223E+00 2.10991E-13-2.04833E-13
 -1      1332 1.94397E+01 4.56083E+00-1.92665E-02 1.87705E+00 3.30808E-13-1.57947E-13
 -1      1333 1.98777E+01 5.09721E+00 8.16399E-03 3.01368E+00 2.35409E-13 2.99365E-13
 -1      1334 1.95754E+01 4.98558E+00-1.95851E-02 2.62239E+00 2.19477E-13 7.49296E-14
 -1      1335 1.98107E+01 4.35120E+00-2.36879E-02 2.44778E+00 3.60139E-13 8.46545E-14
 -1      1336 2.10822E+01 4.89014E+00 9.83667E-03 3.99492E+00 1.79051E-13 9.43884E-13
 -1      1337 2.03396E+01 4.72519E+00-4.60544E-02 3.35259E+00 1.82812E-13 5.59101E-13
 -1      1338 2.05818E+01 3.90810E+00-2.12603E-02 3.10560E+00 3.32148E-13 4.92911E-13
 -1      1339 2.70745E+01 3.18393E+00 9.15872E-01 4.53644E+00 6.27554E-14 2.04720E-12
 -1      1340 2.19723E+01 3.50992E+00-1.79606E-01 3.83570E+00 7.52176E-14 1.30013E-12
 -1      1341 2.20872E+01 2.55046E+00-3.16785E-02 3.39569E+00 2.77976E-13 1.07853E-12
 -1      1342 2.13589E+01 3.56963E-01-7.60174E-01 1.15838E+00 1.34032E-13 2.01944E-12
 -1      1343 2.19428E+01 1.29880E-01-3.99301E-01-1.25556E+00-1.90195E-13 1.03051E-12
 -1      1344 2.06527E+01 3.04582E-01-1.63156E-01-7.80562E-01-1.75603E-13 7.99326E-13
 -1      1345 2.00778E+01 1.53586E-01-7.26945E-02-3.77177E-01-1.45769E-13 7.13325E-13
 -1      1346 1.96386E+01 9.20630E-02-1.41685E-02-3.05142E-01-1.42344E-13 4.95434E-13
 -1      1347 2.09760E+01 3.66942E-01-1.03994E-01-1.22414E+00-3.07920E-13 3.89595E-13
 -1      1348 1.93098E+01 6.62665E-02 3.43764E-03-1.07477E-01-1.12913E-13 4.30763E-13
 -1      1349 1.91899E+01 4.38045E-02 1.37010E-02-8.85847E-02-9.60482E-14 2.87707E-13
 -1      1350 1.99763E+01 1.35289E-01-3.56765E-02-4.51249E-01-2.33029E-13 2.57357E-13
 -1      1351 1.90653E+01 3.48779E-02 1.34716E-02 7.59655E-03-6.04712E-14 2.32214E-13
 -1      1352 1.90899E+01 2.34733E-02 1.15183E-02 1.88720E-02-5.99130E-14 1.37014E-13
 -1      1353 1.95619E+01 5.99131E-02-9.43888E-03-1.05542E-01-1.62231E-13 1.52095E-13
 -1      1354 1.90804E+01 2.09952E-02 8.97688E-03 7.27694E-02-3.77762E-14 1.14929E-13
 -1      1355 1.91820E+01 1.48043E-02 6.96833E-03 8.01361E-02-4.50013E-14 6.77999E-14
 -1      1356 1.94334E+01 3.16025E-02-4.86777E-03 7.37465E-02-9.98177E-14 5.42595E-14
 -1      1357 1.92437E+01 1.46655E-02 4.85067E-03 1.15439E-01-4.35364E-14 3.17975E-14
 -1      1358 1.93944E+01 1.10652E-02 4.24893E-03 1.21025E-01-3.12810E-14-4.41036E-14
 -1      1359 1.94825E+01 2.02956E-02-4.05897E-03 1.81792E-01-9.67481E-14-1.67661E-15
 -1      1360 1.95053E+01 1.20827E-02 2.55136E-03 1.48331E-01-1.25165E-14-5.74454E-14
 -1      1361 1.96941E+01 9.93089E-03 2.86291E-03 1.53394E-01-1.33108E-14-9.16923E-14
 -1      1362 1.96487E+01 1.61702E-02-3.70436E-03 2.57874E-01-6.22566E-14-2.67032E-14
 -1      1363 1.98440E+01 1.16692E-02 1.28855E-03 1.78428E-01-2.24397E-14-1.08227E-13
 -1      1364 2.00684E+01 1.03050E-02 2.06713E-03 1.83771E-01-3.30044E-14-1.63415E-13
 -1      1365 1.99012E+01 1.57903E-02-3.54345E-03 3.21431E-01-5.54426E-14-5.77693E-14
 -1      1366 2.02534E+01 1.25433E-02 4.28866E-04 2.09810E-01-4.77142E-14-1.71117E-13
 -1      1367 2.05158E+01 1.14436E-02 1.45563E-03 2.15926E-01-3.60059E-14-2.44857E-13
 -1      1368 2.02267E+01 1.75470E-02-3.63315E-03 3.83280E-01-5.82438E-14-8.28417E-14
 -1      1369 2.07356E+01 1.39704E-02-3.43521E-04 2.44469E-01-6.77800E-15-2.57293E-13
 -1      1370 2.10404E+01 1.25706E-02 8.26903E-04 2.51525E-01-1.60267E-15-2.57565E-13
 -1      1371 2.06211E+01 2.02563E-02-3.91930E-03 4.49224E-01-4.56944E-14-5.33822E-14
 -1      1372 2.12956E+01 1.50443E-02-1.16112E-03 2.82117E-01 1.58426E-14-3.05735E-13
 -1      1373 2.16462E+01 1.26105E-02 8.37377E-05 2.89809E-01-1.07366E-14-3.10318E-13
 -1      1374 2.10847E+01 2.25106E-02-4.23817E-03 5.20648E-01-2.35677E-14-1.22504E-13
 -1      1375 2.19358E+01 1.44036E-02-2.01441E-03 3.19232E-01-9.05244E-15-2.77866E-13
 -1      1376 2.23303E+01 9.93735E-03-7.55042E-04 3.26493E-01-2.98247E-14-3.09889E-13
 -1      1377 2.16173E+01 2.21747E-02-4.31098E-03 5.93379E-01-1.05287E-14-1.80840E-13
 -1      1378 2.26478E+01 9.95017E-03-2.68365E-03 3.47408E-01 4.38831E-16-2.36620E-13
 -1      1379 2.30724E+01 2.19082E-03-1.45256E-03 3.51945E-01-2.91238E-15-2.12452E-13
 -1      1380 2.22124E+01 1.58950E-02-3.68803E-03 6.55148E-01 2.44794E-14-1.40961E-13
 -1      1381 2.34018E+01-1.28291E-03-2.59865E-03 3.51256E-01-2.46474E-14-1.98232E-13
 -1      1382 2.38214E+01-1.35630E-02-1.41740E-03 3.49007E-01-5.42304E-14-2.29294E-13
 -1      1383 2.28497E+01-1.17922E-03-1.67592E-03 6.82017E-01-1.52657E-14-1.06288E-13
 -1      1384 2.41315E+01-2.26570E-02-7.58932E-04 3.07064E-01-5.12411E-14-2.09511E-13
 -1      1385 2.44798E+01-3.96882E-02 2.97002E-04 2.91940E-01-6.80844E-14-2.80147E-13
 -1      1386 2.34855E+01-3.47206E-02 2.65870E-03 6.35328E-01-6.71147E-14-9.44869E-14
 -1      1387 2.47204E+01-5.58891E-02 3.96866E-03 1.85345E-01-4.43734E-14-2.67895E-13
 -1      1388 2.48947E+01-7.48124E-02 4.51657E-03 1.50314E-01-5.47175E-14-3.19601E-13
 -1      1389 2.40430E+01-8.80767E-02 1.01736E-02 4.63515E-01-8.01199E-14-7.68786E-14
 -1      1390 2.49974E+01-9.61960E-02 1.16977E-02-3.67055E-02-6.40321E-14-3.17414E-13
 -1      1391 2.48737E+01-1.08376E-01 1.07024E-02-9.52378E-02-2.72074E-14-3.61398E-13
 -1      1392 2.44078E+01-1.54479E-01 2.07103E-02 1.17686E-01-6.26322E-14 2.99023E-15
 -1      1393 2.47668E+01-1.25978E-01 1.97126E-02-3.47578E-01-4.37879E-14-4.35603E-13
 -1      1394 2.42506E+01-1.16678E-01 1.51845E-02-4.21273E-01-9.21103E-14-5.53828E-13
 -1      1395 2.44403E+01-2.07155E-01 3.11702E-02-4.07972E-01-8.98066E-14-1.05520E-13
 -1      1396 2.38968E+01-1.14138E-01 2.10839E-02-6.66049E-01-4.48478E-14-6.10102E-13
 -1      1397 2.30127E+01-6.96375E-02 1.11817E-02-7.26267E-01-6.17215E-14-6.25722E-13
 -1      1398 2.40237E+01-1.96651E-01 3.40805E-02-1.01456E+00-1.39045E-13-1.54312E-13
 -1      1399 2.24650E+01-3.29495E-02 8.15887E-03-8.31905E-01 6.49752E-14-6.96304E-13
 -1      1400 2.14384E+01 4.16567E-02-5.98537E-03-8.34266E-01-1.55913E-14-6.25611E-13
 -1      1401 2.31577E+01-7.62550E-02 1.89712E-02-1.45801E+00-5.61756E-14-2.70266E-13
 -1      1402 2.08832E+01 1.00633E-01-1.69970E-02-6.80218E-01-5.65173E-14-6.24972E-13
 -1      1403 2.01093E+01 1.68687E-01-2.93707E-02-5.98495E-01 2.39080E-14-6.12371E-13
 -1      1404 2.20664E+01 1.35193E-01-1.79619E-02-1.41947E+00-1.03337E-14-4.60576E-13
 -1      1405 1.98105E+01 2.07500E-01-3.75247E-02-1.98676E-01 1.54807E-14-6.17457E-13
 -1      1406 1.96532E+01 2.22650E-01-4.01262E-02-6.33507E-02-3.58429E-14-6.21221E-13
 -1      1407 2.12061E+01 3.29621E-01-5.60547E-02-7.47729E-01 2.34882E-15-4.49935E-13
 -1      1408 1.97782E+01 2.06486E-01-3.66061E-02 3.91837E-01-1.12558E-13-6.15601E-13
 -1      1409 2.03183E+01 1.57329E-01-2.79102E-02 5.04908E-01-1.59770E-13-8.59229E-13
 -1      1410 2.10297E+01 3.72745E-01-6.48593E-02 3.08660E-01-1.29955E-13-4.78315E-13
 -1      1411 2.07977E+01 1.01291E-01-1.67663E-02 7.81429E-01-5.55424E-14-8.37858E-13
 -1      1412 2.17729E+01 2.36758E-02-2.48427E-03 8.16028E-01 5.34061E-14-8.44796E-13
 -1      1413 2.16411E+01 2.33027E-01-3.64334E-02 1.20686E+00-1.24369E-13-4.39360E-13
 -1      1414 2.23615E+01-2.64525E-02 4.57140E-03 8.16859E-01 8.45647E-14-8.92050E-13
 -1      1415 2.33581E+01-8.67065E-02 1.68075E-02 7.77052E-01 3.31766E-15-8.59479E-13
 -1      1416 2.27073E+01 1.10050E-02 3.92403E-03 1.52988E+00 3.70511E-14-5.35787E-13
 -1      1417 2.38207E+01-1.03561E-01 1.44065E-02 5.77161E-01-1.09128E-13-8.87561E-13
 -1      1418 2.45244E+01-1.27331E-01 2.13533E-02 5.04860E-01-9.81715E-14-1.00472E-12
 -1      1419 2.37326E+01-1.57443E-01 2.92179E-02 1.26655E+00-7.28757E-14-6.28001E-13
 -1      1420 2.47507E+01-1.16113E-01 1.30373E-02 2.44601E-01-6.63011E-14-1.07921E-12
 -1      1421 2.50550E+01-1.11227E-01 1.55136E-02 1.77757E-01-4.36231E-14-1.17926E-12
 -1      1422 2.43785E+01-2.12431E-01 3.34849E-02 6.97766E-01-1.74766E-13-7.96700E-13
 -1      1423 2.50505E+01-8.96149E-02 7.06254E-03-4.02476E-02 5.35310E-14-1.16989E-12
 -1      1424 2.50106E+01-7.20754E-02 7.12588E-03-8.49559E-02 7.98042E-14-1.12325E-12
 -1      1425 2.45581E+01-1.80084E-01 2.52536E-02 1.21006E-01 2.11844E-14-8.79770E-13
 -1      1426 2.48390E+01-5.27610E-02 1.76737E-03-2.22824E-01 1.12823E-13-1.00642E-12
 -1      1427 2.45763E+01-3.42154E-02 9.78419E-04-2.45029E-01 1.15340E-13-8.69898E-13
 -1      1428 2.43527E+01-1.14235E-01 1.40813E-02-3.00848E-01 1.73372E-13-7.75293E-13
 -1      1429 2.43110E+01-2.17613E-02-1.01613E-03-3.08549E-01 2.92084E-15-7.90930E-13
 -1      1430 2.39422E+01-7.30108E-03-2.01199E-03-3.14565E-01 7.99838E-15-7.07106E-13
 -1      1431 2.39019E+01-5.27485E-02 5.03764E-03-5.35656E-01 1.44761E-13-7.74843E-13
 -1      1432 2.36429E+01-1.26676E-03-1.71383E-03-3.25888E-01-5.15599E-14-5.96686E-13
 -1      1433 2.32517E+01 8.27251E-03-2.75163E-03-3.22492E-01-1.35001E-13-7.40621E-13
 -1      1434 2.33357E+01-9.95733E-03-6.83778E-04-6.20101E-01-3.37365E-14-5.40162E-13
 -1      1435 2.29581E+01 9.94124E-03-1.32973E-03-3.03721E-01-1.57539E-13-7.16647E-13
 -1      1436 2.25932E+01 1.54768E-02-2.37816E-03-2.95910E-01-1.29006E-13-9.01387E-13
 -1      1437 2.27487E+01 1.42531E-02-3.64651E-03-6.07852E-01-2.44719E-13-5.40281E-13
 -1      1438 2.23276E+01 1.47259E-02-6.35353E-04-2.63271E-01-1.25684E-13-9.50746E-13
 -1      1439 2.20116E+01 1.75116E-02-1.66261E-03-2.54105E-01-2.63899E-14-1.08312E-12
 -1      1440 2.21989E+01 2.50557E-02-4.79733E-03-5.44415E-01-1.67942E-13-4.26415E-13
 -1      1441 2.17838E+01 1.56869E-02-2.21426E-05-2.17657E-01 1.10149E-13-9.55380E-13
 -1      1442 2.15232E+01 1.67699E-02-9.82626E-04-2.08767E-01 1.04199E-13-8.47406E-13
 -1      1443 2.17155E+01 2.77505E-02-4.92044E-03-4.60702E-01 7.46111E-14-3.97834E-13
 -1      1444 2.13351E+01 1.46558E-02 3.87426E-04-1.73953E-01-3.21793E-14-8.64746E-13
 -1      1445 2.11275E+01 1.47684E-02-4.65797E-04-1.66080E-01-5.74560E-14-8.98339E-13
 -1      1446 2.13088E+01 2.62053E-02-4.53272E-03-3.74852E-01 5.16093E-14-5.56338E-13
 -1      1447 2.09766E+01 1.27609E-02 6.02805E-04-1.35394E-01-3.41101E-14-9.38846E-13
 -1      1448 2.08156E+01 1.23690E-02-1.20123E-04-1.28780E-01 3.88409E-14-9.51484E-13
 -1      1449 2.09774E+01 2.28199E-02-3.93563E-03-2.96120E-01-3.57455E-14-6.42919E-13
 -1      1450 2.06975E+01 1.06337E-02 6.76407E-04-1.03020E-01 5.66125E-14-9.50769E-13
 -1      1451 2.05755E+01 1.00163E-02 8.84094E-05-9.76519E-02-6.78780E-14-9.06638E-13
 -1      1452 2.07145E+01 1.89264E-02-3.29099E-03-2.28322E-01 2.87322E-14-7.16073E-13
 -1      1453 2.04850E+01 8.59605E-03 6.61693E-04-7.67315E-02-1.41221E-13-7.82625E-13
 -1      1454 2.03946E+01 7.91183E-03 1.99902E-04-7.24832E-02 3.60888E-15-8.96987E-13
 -1      1455 2.05105E+01 1.51910E-02-2.67928E-03-1.72255E-01-9.52658E-14-7.33937E-13
 -1      1456 2.03266E+01 6.79117E-03 5.99420E-04-5.59053E-02 1.31477E-13-8.37961E-13
 -1      1457 2.02611E+01 6.12563E-03 2.47807E-04-5.26093E-02 3.22713E-15-7.80834E-13
 -1      1458 2.03553E+01 1.19006E-02-2.13612E-03-1.27200E-01 1.14112E-13-5.51293E-13
 -1      1459 2.02111E+01 5.26542E-03 5.16532E-04-3.97303E-02-5.14148E-14-6.66969E-13
 -1      1460 2.01649E+01 4.66056E-03 2.56510E-04-3.72168E-02 1.16811E-14-6.44453E-13
 -1      1461 2.02398E+01 9.14218E-03-1.67315E-03-9.17873E-02 1.01812E-13-3.84122E-13
 -1      1462 2.01291E+01 4.01572E-03 4.29118E-04-2.73823E-02 3.84571E-14-6.69210E-13
 -1      1463 2.00975E+01 3.48838E-03 2.42484E-04-2.54956E-02-3.38688E-14-7.62360E-13
 -1      1464 2.01557E+01 6.90408E-03-1.28963E-03-6.44636E-02-3.16349E-14-4.03504E-13
 -1      1465 2.00725E+01 3.01610E-03 3.45735E-04-1.81050E-02-3.72146E-14-6.52158E-13
 -1      1466 2.00519E+01 2.56884E-03 2.16095E-04-1.67105E-02-5.97197E-14-6.57615E-13
 -1      1467 2.00960E+01 5.13165E-03-9.78783E-04-4.37278E-02 8.50413E-14-3.83601E-13
 -1      1468 2.00352E+01 2.23178E-03 2.69920E-04-1.12433E-02-1.37691E-13-4.92481E-13
 -1      1469 2.00226E+01 1.85912E-03 1.83143E-04-1.02284E-02 3.93541E-15-5.33857E-13
 -1      1470 2.00550E+01 3.75553E-03-7.31428E-04-2.82385E-02-2.99176E-14-3.68979E-13
 -1      1471 2.00120E+01 1.62596E-03 2.01891E-04-6.25142E-03 1.46325E-13-6.09617E-13
 -1      1472 2.00053E+01 1.31763E-03 1.46232E-04-5.52491E-03 2.81420E-13-3.12925E-13
 -1      1473 2.00281E+01 2.70513E-03-5.37782E-04-1.68541E-02 1.50016E-13-4.37139E-13
 -1      1474 1.99992E+01 1.16211E-03 1.40120E-04-2.69186E-03 1.68766E-13-2.88836E-13
 -1      1475 1.99967E+01 9.03466E-04 1.07242E-04-2.18222E-03 1.66189E-13-7.47729E-14
 -1      1476 2.00115E+01 1.91288E-03-3.87997E-04-8.64033E-03 2.91363E-13-1.43291E-13
 -1      1477 1.99937E+01 7.99446E-04 8.52472E-05-2.38159E-04 1.54058E-13-1.89330E-13
 -1      1478 1.99940E+01 5.67052E-04 7.47846E-05 1.03062E-04 2.90589E-14-7.04316E-14
 -1      1479 2.00025E+01 1.30936E-03-2.70375E-04-2.87394E-03 1.75741E-13-1.46240E-13
 -1      1480 1.99931E+01 4.72860E-04 4.99778E-05 1.28997E-03 7.61938E-14-2.31799E-14
 -1      1481 1.99951E+01 2.26178E-04 7.00071E-05 1.47483E-03 1.04037E-13 1.82859E-13
 -1      1482 1.99986E+01 7.95974E-04-1.65338E-04 9.15098E-04 9.25091E-14-1.41932E-13
 -1      1483 1.99953E+01 1.48906E-04 8.73652E-05 1.85881E-03-8.66716E-14 1.82170E-13
 -1      1484 1.99978E+01-2.04665E-04 1.81204E-04 1.90292E-03-1.55147E-13 1.11609E-13
 -1      1485 1.99979E+01 1.69597E-04-5.18310E-05 2.84905E-03 4.29577E-14 8.45118E-14
 -1      1486 1.99990E+01-6.86819E-04 4.09832E-04 7.18458E-04-1.29090E-13 4.07999E-14
 -1      1487 1.99991E+01-1.34844E-03 1.24309E-04 2.25695E-03-1.53712E-13 2.48526E-13
 -1      1488 2.02417E+01 7.52293E-02-1.50725E-01 4.62707E-01 1.33747E-13 1.71965E-12
 -1      1489 2.14784E+01 2.15808E-01-2.28670E-01 6.98076E-01 1.18169E-13 1.91155E-12
 -1      1490 2.16990E+01 8.74877E-01-8.59638E-02 2.01938E+00 2.22621E-13 1.35239E-12
 -1      1491 1.93693E+01 3.31004E-02-2.09094E-02 1.64413E-01 1.03893E-13 1.44604E-12
 -1      1492 1.97602E+01 1.14270E-01-6.18361E-02 2.16718E-01 9.12673E-14 1.60038E-12
 -1      1493 2.03227E+01 1.86818E-01-5.53096E-02 7.44620E-01 2.02650E-13 1.13688E-12
 -1      1494 1.90522E+01 1.66167E-02 5.55831E-03 2.74767E-02 6.92450E-14 1.26582E-12
 -1      1495 1.91572E+01 5.35899E-02 1.44838E-03 5.50245E-02 6.69629E-14 1.35925E-12
 -1      1496 1.96340E+01 7.34528E-02-1.26454E-02 2.52735E-01 1.55964E-13 9.53673E-13
 -1      1497 1.90238E+01 9.39234E-03 6.56912E-03-4.29518E-02 7.09116E-14 1.11341E-12
 -1      1498 1.89957E+01 2.91166E-02 1.13786E-02-2.64342E-02 5.63729E-14 1.20750E-12
 -1      1499 1.93678E+01 3.45393E-02-3.31230E-03 2.55384E-02 1.14228E-13 8.23638E-13
 -1      1500 1.91579E+01 6.25192E-03 4.15426E-03-8.45695E-02 4.20627E-14 1.00609E-12
 -1      1501 1.90574E+01 1.84219E-02 8.77838E-03-7.33922E-02 3.76860E-14 1.07692E-12
 -1      1502 1.93400E+01 1.85146E-02-2.83065E-03-9.76815E-02 8.55102E-14 7.27928E-13
 -1      1503 1.93949E+01 4.89130E-03 2.45200E-03-1.12885E-01 1.32429E-14 9.42852E-13
 -1      1504 1.92488E+01 1.33519E-02 5.64387E-03-1.04314E-01 2.71940E-14 9.79789E-13
 -1      1505 1.94569E+01 1.15243E-02-3.26528E-03-1.73981E-01 4.59901E-14 6.70831E-13
 -1      1506 1.97058E+01 4.41557E-03 1.44620E-03-1.35282E-01 4.45069E-14 8.57594E-13
 -1      1507 1.95261E+01 1.10471E-02 3.72677E-03-1.27838E-01 2.79707E-14 9.09012E-13
 -1      1508 1.96698E+01 8.61086E-03-3.49459E-03-2.28136E-01 6.19405E-14 5.87124E-13
 -1      1509 2.00773E+01 4.34341E-03 7.63600E-04-1.55518E-01 2.88472E-14 7.85111E-13
 -1      1510 1.98687E+01 1.01863E-02 2.62006E-03-1.48345E-01 3.70078E-14 8.29339E-13
 -1      1511 1.99537E+01 7.70542E-03-3.64835E-03-2.72331E-01 7.31767E-14 5.28771E-13
 -1      1512 2.05038E+01 4.27098E-03 2.54040E-04-1.75105E-01 4.57158E-14 7.32791E-13
 -1      1513 2.02677E+01 9.92842E-03 1.89811E-03-1.67809E-01 2.97421E-14 7.82777E-13
 -1      1514 2.02958E+01 7.62784E-03-3.82200E-03-3.12467E-01 4.88064E-14 4.72060E-13
 -1      1515 2.09808E+01 3.73871E-03-4.85346E-05-1.93540E-01 5.18771E-14 6.77011E-13
 -1      1516 2.07183E+01 9.48392E-03 1.34810E-03-1.86218E-01 3.26904E-14 7.02815E-13
 -1      1517 2.06887E+01 7.37269E-03-3.94591E-03-3.50106E-01 4.83028E-14 4.20955E-13
 -1      1518 2.14998E+01 2.16294E-03 2.36412E-05-2.08004E-01 1.99482E-14 6.11844E-13
 -1      1519 2.12149E+01 7.90966E-03 8.98181E-04-2.01390E-01 4.43723E-14 6.58130E-13
 -1      1520 2.11250E+01 5.80304E-03-3.81156E-03-3.82630E-01 5.01417E-14 4.05718E-13
 -1      1521 2.20416E+01-1.17270E-03 7.67966E-04-2.12819E-01 4.04070E-14 6.10593E-13
 -1      1522 2.17446E+01 4.00965E-03 5.75394E-04-2.08511E-01 3.62242E-14 6.24646E-13
 -1      1523 2.15920E+01 1.49827E-03-3.07630E-03-4.02593E-01 5.69251E-14 3.79339E-13
 -1      1524 2.25680E+01-7.00069E-03 2.59185E-03-1.99012E-01-8.70267E-15 5.82315E-13
 -1      1525 2.22804E+01-3.60891E-03 5.09099E-04-1.99688E-01 1.56076E-14 6.04650E-13
 -1      1526 2.20662E+01-7.22789E-03-1.26921E-03-3.96865E-01 4.41344E-14 4.33737E-13
 -1      1527 2.30155E+01-1.57046E-02 5.87464E-03-1.54746E-01 6.18364E-14 5.16972E-13
 -1      1528 2.27743E+01-1.61577E-02 9.28517E-04-1.64162E-01 2.51635E-14 5.66731E-13
 -1      1529 2.25078E+01-2.19527E-02 2.12518E-03-3.46591E-01 4.60899E-14 3.67623E-13
 -1      1530 2.32919E+01-2.65788E-02 1.05826E-02-6.79181E-02-6.26105E-14 5.60326E-13
 -1      1531 2.31512E+01-3.37322E-02 2.07248E-03-9.02555E-02-9.84022E-16 5.08218E-13
 -1      1532 2.28561E+01-4.31066E-02 7.39640E-03-2.29752E-01-1.29150E-15 3.57976E-13
 -1      1533 2.32854E+01-3.67483E-02 1.55919E-02 6.73875E-02-7.58421E-15 6.60859E-13
 -1      1534 2.33113E+01-5.36924E-02 3.92741E-03 2.94112E-02-5.18795E-14 5.76341E-13
 -1      1535 2.30314E+01-6.80294E-02 1.40656E-02-2.90088E-02-6.80298E-14 4.20799E-13
 -1      1536 2.28946E+01-4.04104E-02 1.80323E-02 2.39887E-01 7.58837E-14 5.42934E-13
 -1      1537 2.31467E+01-6.88958E-02 5.78919E-03 1.88496E-01 5.48832E-14 6.40987E-13
 -1      1538 2.29480E+01-8.84024E-02 2.02428E-02 2.52874E-01 4.38850E-14 3.21589E-13
 -1      1539 2.20855E+01-3.02203E-02 1.36253E-02 4.09408E-01-3.16544E-14 5.08885E-13
 -1      1540 2.25823E+01-6.78674E-02 5.90743E-03 3.55653E-01 2.39652E-14 5.32119E-13
 -1      1541 2.25452E+01-8.93240E-02 2.24230E-02 5.72085E-01 5.67428E-14 4.03094E-13
 -1      1542 2.09613E+01-2.53085E-03-5.54492E-04 5.06836E-01 1.10517E-14 5.67636E-13
 -1      1543 2.16384E+01-4.00614E-02 2.04979E-03 4.70930E-01-2.68336E-14 5.50296E-13
 -1      1544 2.18356E+01-5.44628E-02 1.68554E-02 8.30892E-01-3.26865E-14 3.78239E-13
 -1      1545 1.97966E+01 3.57560E-02-2.15477E-02 4.60876E-01-3.63719E-14 6.16923E-13
 -1      1546 2.04880E+01 1.37777E-02-6.35737E-03 4.64336E-01-3.12272E-14 5.88599E-13
 -1      1547 2.09529E+01 2.03156E-02 2.97182E-03 8.98574E-01-4.43968E-14 4.76518E-13
 -1      1548 1.89742E+01 6.62602E-02-3.90430E-02 2.49056E-01 2.81355E-14 6.28525E-13
 -1      1549 1.94531E+01 7.40445E-02-1.60502E-02 2.99642E-01 6.36297E-15 6.28407E-13
 -1      1550 2.01512E+01 1.12364E-01-1.39276E-02 6.81069E-01-1.87801E-14 4.16009E-13
 -1      1551 1.88125E+01 7.05344E-02-4.13277E-02-6.46054E-02 1.17959E-13 4.07346E-13
 -1      1552 1.88950E+01 1.09799E-01-2.08368E-02 1.65466E-02 9.17200E-14 5.88363E-13
 -1      1553 1.97189E+01 1.74705E-01-2.52591E-02 2.06686E-01 1.26387E-13 4.00874E-13
 -1      1554 1.93819E+01 4.58812E-02-2.54314E-02-3.52837E-01 1.53445E-14 2.94750E-13
 -1      1555 1.90327E+01 1.01144E-01-1.63319E-02-2.74865E-01 5.29680E-14 3.57568E-13
 -1      1556 1.98307E+01 1.67727E-01-2.53749E-02-3.52523E-01 1.34599E-13 2.44355E-13
 -1      1557 2.04594E+01 8.01915E-03-7.00776E-04-5.04614E-01-1.99786E-14 4.13093E-13
 -1      1558 1.98139E+01 5.58616E-02-4.53062E-03-4.58910E-01-6.36930E-14 2.77424E-13
 -1      1559 2.04416E+01 9.34650E-02-1.64391E-02-7.72648E-01-2.92258E-14 2.29426E-13
 -1      1560 2.16651E+01-2.33099E-02 1.91709E-02-4.89957E-01-9.87717E-14 5.26551E-13
 -1      1561 2.09478E+01 1.26436E-03 7.66968E-03-4.84891E-01-3.33301E-14 4.88012E-13
 -1      1562 2.13174E+01-4.25157E-03-5.22565E-03-9.15653E-01-1.04981E-13 3.58717E-13
 -1      1563 2.26606E+01-3.78050E-02 2.71103E-02-3.56786E-01-1.46593E-14 5.35023E-13
 -1      1564 2.20696E+01-3.79891E-02 1.43053E-02-3.81371E-01-2.64727E-14 5.02667E-13
 -1      1565 2.21714E+01-7.74563E-02 2.90501E-03-7.91321E-01-4.04685E-14 3.00530E-13
 -1      1566 2.32677E+01-3.70045E-02 2.45581E-02-1.81415E-01 2.08175E-14 4.84161E-13
 -1      1567 2.29059E+01-5.32841E-02 1.43322E-02-2.17845E-01 5.16115E-14 5.38666E-13
 -1      1568 2.27939E+01-1.05425E-01 6.62276E-03-5.11397E-01 5.58893E-14 2.43838E-13
 -1      1569 2.34701E+01-2.79270E-02 1.67765E-02-2.34300E-02-5.72706E-14 5.29889E-13
 -1      1570 2.33450E+01-4.96985E-02 1.02514E-02-5.77997E-02-7.30995E-14 4.56760E-13
 -1      1571 2.31022E+01-9.62040E-02 6.96133E-03-2.01802E-01-8.98118E-14 3.16388E-13
 -1      1572 2.33500E+01-1.69315E-02 8.57787E-03 8.91848E-02 3.78213E-15 5.90627E-13
 -1      1573 2.34115E+01-3.67893E-02 5.17872E-03 6.36341E-02-2.08457E-14 5.27805E-13
 -1      1574 2.31173E+01-6.88344E-02 5.59217E-03 5.40966E-02-6.40026E-14 3.36134E-13
 -1      1575 2.30219E+01-7.60465E-03 2.37990E-03 1.53386E-01 5.17962E-14 4.77663E-13
 -1      1576 2.32020E+01-2.22349E-02 1.15625E-03 1.37792E-01 4.35871E-14 4.82460E-13
 -1      1577 2.29141E+01-3.91128E-02 3.81027E-03 2.24675E-01 9.84525E-14 1.80425E-13
 -1      1578 2.25900E+01-1.09696E-03-1.36218E-03 1.78709E-01-6.33001E-14 4.71175E-13
 -1      1579 2.28279E+01-1.00915E-02-1.21775E-03 1.71355E-01 2.04321E-14 4.52341E-13
 -1      1580 2.25789E+01-1.52003E-02 2.24787E-03 3.13753E-01 3.08132E-14 2.32402E-13
 -1      1581 2.21320E+01 2.77956E-03-3.13487E-03 1.77854E-01 9.84093E-14 3.71854E-13
 -1      1582 2.23830E+01-1.57790E-03-2.19513E-03 1.76234E-01 4.08536E-14 4.26843E-13
 -1      1583 2.21859E+01 7.91220E-04 1.09377E-03 3.40816E-01 5.30393E-14 2.33368E-13
 -1      1584 2.16969E+01 4.68436E-03-3.63746E-03 1.61950E-01 8.87633E-14 1.85690E-13
 -1      1585 2.19337E+01 3.59102E-03-2.28683E-03 1.63801E-01 9.82168E-14 3.00693E-13
 -1      1586 2.17885E+01 9.84685E-03 3.26361E-04 3.27718E-01 1.78007E-13 1.68349E-13
 -1      1587 2.13113E+01 5.29717E-03-3.45019E-03 1.39086E-01-7.04135E-15 1.48800E-13
 -1      1588 2.15194E+01 6.22853E-03-1.94450E-03 1.42722E-01 2.16097E-14 1.48008E-13
 -1      1589 2.14197E+01 1.39035E-02-1.43994E-04 2.92550E-01 5.51083E-14 4.54469E-14
 -1      1590 2.09857E+01 5.15319E-03-2.95829E-03 1.14457E-01 3.96636E-14 1.31630E-13
 -1      1591 2.11599E+01 7.17089E-03-1.46386E-03 1.18764E-01 6.40685E-14 2.42018E-13
 -1      1592 2.10966E+01 1.47965E-02-4.07501E-04 2.48094E-01 6.99800E-14 1.83924E-13
 -1      1593 2.07209E+01 4.62098E-03-2.38299E-03 9.10465E-02-8.15125E-14-6.81269E-14
 -1      1594 2.08613E+01 7.08792E-03-1.00096E-03 9.53542E-02-8.46534E-15-6.02552E-14
 -1      1595 2.08255E+01 1.39137E-02-5.34269E-04 2.02389E-01 7.20940E-14 5.94644E-14
 -1      1596 2.05120E+01 3.93274E-03-1.83589E-03 7.03351E-02-3.36996E-14 9.62017E-14
 -1      1597 2.06218E+01 6.45293E-03-6.19584E-04 7.42824E-02-1.07303E-13-7.49112E-14
 -1      1598 2.06054E+01 1.21823E-02-5.73880E-04 1.59942E-01-1.23626E-13-5.15443E-14
 -1      1599 2.03517E+01 3.22399E-03-1.36420E-03 5.28649E-02 1.07120E-13 7.56603E-14
 -1      1600 2.04351E+01 5.57392E-03-3.33360E-04 5.62898E-02 7.87236E-14 1.58956E-13
 -1      1601 2.04319E+01 1.01696E-02-5.60354E-04 1.22890E-01 1.83657E-14-1.28964E-13
 -1      1602 2.02320E+01 2.56706E-03-9.80797E-04 3.86365E-02 1.56117E-14-1.43165E-13
 -1      1603 2.02937E+01 4.63800E-03-1.33177E-04 4.14971E-02 1.03658E-13 3.63663E-14
 -1      1604 2.02987E+01 8.19490E-03-5.16822E-04 9.19044E-02 1.35584E-13 1.95745E-13
 -1      1605 2.01451E+01 1.99499E-03-6.81819E-04 2.73666E-02 1.60484E-14-2.12914E-13
 -1      1606 2.01893E+01 3.75023E-03-2.27415E-06 2.96883E-02-1.58624E-15-1.98235E-13
 -1      1607 2.01990E+01 6.41881E-03-4.58838E-04 6.68163E-02 6.97749E-14 2.78861E-13
 -1      1608 2.00840E+01 1.51762E-03-4.56466E-04 1.86480E-02-6.51279E-14-1.41650E-13
 -1      1609 2.01146E+01 2.96285E-03 7.65768E-05 2.04901E-02-7.60720E-14-2.71932E-13
 -1      1610 2.01264E+01 4.90608E-03-3.96634E-04 4.70300E-02-5.81169E-14 1.00706E-13
 -1      1611 2.00429E+01 1.13202E-03-2.92137E-04 1.20437E-02-1.03655E-13 8.80264E-15
 -1      1612 2.00630E+01 2.29570E-03 1.18106E-04 1.34789E-02-1.01282E-13-1.44079E-13
 -1      1613 2.00752E+01 3.66672E-03-3.36763E-04 3.17743E-02-8.60076E-14 9.55448E-14
 -1      1614 2.00167E+01 8.28789E-04-1.76875E-04 7.13834E-03 1.92608E-13 1.27069E-13
 -1      1615 2.00291E+01 1.74979E-03 1.33699E-04 8.24110E-03 1.17723E-13 1.99212E-13
 -1      1616 2.00405E+01 2.68188E-03-2.83289E-04 2.02514E-02 5.38484E-14 2.88413E-13
 -1      1617 2.00017E+01 5.92420E-04-9.95621E-05 3.56726E-03-3.71554E-14 7.89004E-14
 -1      1618 2.00084E+01 1.31324E-03 1.31476E-04 4.40562E-03-4.18995E-14-2.20035E-14
 -1      1619 2.00184E+01 1.91837E-03-2.37845E-04 1.17195E-02 4.79860E-14 2.26294E-13
 -1      1620 1.99946E+01 4.06811E-04-4.98961E-05 1.04128E-03 1.52925E-13-8.12418E-14
 -1      1621 1.99973E+01 9.65565E-04 1.17427E-04 1.67039E-03 1.54027E-13 1.69518E-13
 -1      1622 2.00054E+01 1.33116E-03-1.99755E-04 5.54824E-03 1.56225E-13 7.84157E-14
 -1      1623 1.99932E+01 2.51395E-04-9.06213E-06-6.54417E-04-7.27664E-14-2.78714E-13
 -1      1624 1.99930E+01 6.81967E-04 9.77472E-05-1.91146E-04 3.03515E-14-2.39471E-13
 -1      1625 1.99991E+01 8.76204E-04-1.64131E-04 1.24862E-03 1.85718E-13 3.04037E-13
 -1      1626 1.99951E+01 8.03158E-05 7.06251E-05-1.60178E-03 1.70974E-13-2.50059E-13
 -1      1627 1.99932E+01 4.03432E-04 9.22799E-05-1.29297E-03 6.87440E-14-2.46772E-13
 -1      1628 1.99971E+01 4.92096E-04-1.05579E-04-1.47872E-03 8.40499E-14 3.20901E-13
 -1      1629 1.99982E+01-2.45773E-04 2.31166E-04-1.57039E-03 6.19813E-14-7.59451E-13
 -1      1630 1.99959E+01-2.95307E-05 1.43029E-04-1.50981E-03 1.60415E-13-6.14544E-13
 -1      1631 1.99977E+01-1.22952E-04 1.89904E-07-2.63156E-03 3.71120E-13 1.69224E-14
 -1      1632 1.99991E+01-7.49639E-04 3.67830E-04-7.01462E-04-5.10775E-13-5.58560E-13
 -1      1633 2.00000E+01-4.20428E-03-6.48922E-06-1.63726E-03-3.13694E-14 5.79300E-13
 -1      1634 1.99997E+01-2.13384E-03 1.17845E-04-1.60856E-03-6.10204E-13 3.44770E-13
 -1      1635 2.00002E+01-5.93132E-03-8.16772E-05-8.67581E-04 8.67853E-13 4.38229E-13
 -1      1636 2.00001E+01-4.50214E-03-1.50281E-05-1.09517E-03 1.07525E-13 5.47757E-13
 -1      1637 2.00002E+01-1.97801E-03-4.34773E-05-2.36163E-03 2.40510E-13 7.80144E-13
 -1      1638 2.00002E+01-5.61187E-03-8.12265E-05 2.60212E-04 8.65413E-13-7.71837E-14
 -1      1639 2.00002E+01-5.48355E-03-5.17496E-05 1.65976E-05 9.72098E-13 8.43856E-14
 -1      1640 2.00005E+01-1.70136E-03-1.25015E-04-6.06303E-04 4.66338E-13 4.50781E-13
 -1      1641 2.00000E+01-3.40246E-03-5.53389E-05 1.15367E-03 4.03893E-13-2.59480E-13
 -1      1642 2.00001E+01-4.41644E-03-4.22656E-05 9.98560E-04 7.76101E-13-6.22645E-15
 -1      1643 2.00004E+01 1.42293E-04-9.50973E-05 1.36072E-03 2.29657E-13-1.65470E-13
 -1      1644 1.99998E+01-2.25982E-04-3.24142E-05 1.53626E-03-4.86466E-14-1.75720E-13
 -1      1645 1.99999E+01-1.78750E-03-2.17022E-05 1.50142E-03 3.16977E-13-4.33320E-13
 -1      1646 2.00001E+01 3.13804E-03-3.62710E-05 2.65505E-03 8.39714E-14-6.57391E-13
 -1      1647 1.99996E+01 2.92641E-03-1.36565E-05 1.36101E-03 6.29676E-14 1.26561E-13
 -1      1648 1.99997E+01 1.41364E-03-6.74650E-06 1.43949E-03-7.61650E-14 1.68395E-13
 -1      1649 1.99998E+01 6.54556E-03 3.43194E-05 2.93078E-03-6.93718E-14-1.12380E-13
 -1      1650 1.99995E+01 4.98622E-03-2.04236E-06 7.24783E-04 3.83864E-14 1.09292E-13
 -1      1651 1.99995E+01 4.10905E-03 1.83560E-06 8.82518E-04 2.01949E-14 3.81163E-13
 -1      1652 1.99995E+01 9.47627E-03 9.07238E-05 2.19736E-03-2.42346E-14 1.36188E-13
 -1      1653 1.99995E+01 5.31897E-03 2.75958E-06-1.49302E-04 5.95652E-14 7.00598E-14
 -1      1654 1.99995E+01 5.38766E-03 3.20073E-06 3.53982E-05-3.10847E-14-1.58132E-14
 -1      1655 1.99993E+01 1.11161E-02 1.21578E-04 7.44602E-04-1.39644E-14-1.17381E-13
 -1      1656 1.99996E+01 3.82503E-03 6.36577E-07-9.83862E-04 1.65536E-13 6.13066E-14
 -1      1657 1.99995E+01 4.82699E-03-2.27636E-06-8.30337E-04 3.53081E-14 1.85990E-13
 -1      1658 1.99993E+01 1.10268E-02 1.20508E-04-9.54335E-04 1.36006E-13 5.73994E-14
 -1      1659 1.99997E+01 9.66467E-04-8.91207E-06-1.50818E-03 2.90768E-13-3.91551E-14
 -1      1660 1.99996E+01 2.56799E-03-1.45078E-05-1.43843E-03 3.45976E-13-2.47489E-13
 -1      1661 1.99995E+01 9.22393E-03 8.73761E-05-2.36816E-03 3.06443E-13-1.45318E-14
 -1      1662 1.99999E+01-2.27996E-03-2.41135E-05-1.52645E-03 4.12901E-13 5.27247E-14
 -1      1663 1.99998E+01-6.86836E-04-3.42019E-05-1.57006E-03 3.15687E-13 1.21727E-13
 -1      1664 1.99998E+01 6.20522E-03 3.10552E-05-3.02909E-03 3.76345E-13-8.24880E-15
 -1      1665 2.00001E+01-4.90665E-03-4.30992E-05-9.66031E-04 1.73446E-13-2.73522E-13
 -1      1666 2.00000E+01-3.93154E-03-5.90863E-05-1.13323E-03 3.65969E-13-3.93030E-14
 -1      1667 2.00002E+01 2.74713E-03-3.94913E-05-2.66256E-03 3.73503E-13 2.63971E-15
 -1      1668 2.00002E+01-5.87852E-03-6.55508E-05 7.77569E-05-1.40594E-13-1.01534E-13
 -1      1669 2.00002E+01-6.07178E-03-8.27784E-05-1.82427E-04 1.23305E-13-1.42112E-13
 -1      1670 2.00005E+01-2.61295E-04-1.01855E-04-1.26239E-03 2.57047E-13-3.62315E-13
 -1      1671 2.00002E+01-4.76470E-03-1.95067E-05 1.13774E-03-1.94154E-13 4.80754E-14
 -1      1672 2.00002E+01-6.22882E-03-9.46574E-05 8.91147E-04-1.73634E-13 8.00994E-14
 -1      1673 2.00005E+01-1.93083E-03-1.29337E-04 7.78730E-04 1.01754E-14-1.91039E-13
 -1      1674 1.99998E+01-2.00716E-03 6.42245E-05 1.92950E-03-2.18713E-13-6.41475E-14
 -1      1675 2.00000E+01-3.98048E-03-8.57815E-05 2.01660E-03-1.66027E-13-8.00544E-14
 -1      1676 2.00007E+01-1.27884E-03 1.18785E-04 2.43237E-03-2.24940E-14 6.61887E-14
 -1      1677 1.99995E+01-2.07487E-04 1.47682E-04 3.22375E-03-1.41430E-13-2.82657E-14
 -1      1678-6.36454E-01-1.46239E+01-1.70953E+00-1.01777E+00 1.83664E-12 8.32834E-13
 -1      1679-6.11962E-01-1.68269E+01-1.89913E+00 3.32982E-01 7.05380E-13 7.37715E-13
 -1      1680 1.41479E+00-7.79009E+00-1.18195E+00 5.98413E-01 2.58893E-12 1.31625E-12
 -1      1681 6.42370E-01-1.29478E+01-1.70329E+00-5.97732E-02 2.11986E-12 8.94517E-13
 -1      1682 7.32071E+00-7.34073E-02-4.96027E-01 4.86991E+00 2.49889E-12 1.65501E-12
 -1      1683 4.03745E+00-5.68897E+00-1.27618E+00 1.84126E+00 2.70040E-12 1.34576E-12
 -1      1684 1.92847E+01 4.96296E+00 3.24569E-01 1.00642E+01 1.88938E-12 1.94389E-12
 -1      1685 1.20102E+01 1.65845E+00-5.86737E-01 6.22009E+00 2.33336E-12 1.76681E-12
 -1      1686 3.31897E+01 6.36188E+00 1.01765E+00 1.25615E+01 1.39611E-12 2.02238E-12
 -1      1687 2.42000E+01 6.48120E+00 2.42764E-01 1.10103E+01 1.70397E-12 2.02904E-12
 -1      1688 4.66349E+01 4.67427E+00 1.51450E+00 9.00822E+00 7.95194E-13 9.73888E-13
 -1      1689 3.81158E+01 6.28528E+00 9.19522E-01 1.10885E+01 1.24728E-12 1.58085E-12
 -1      1690 5.45078E+01 3.45821E+00 1.85627E+00 2.52263E+00 5.11952E-13-1.18017E-13
 -1      1691 5.06066E+01 4.56019E+00 1.57711E+00 7.67923E+00 6.74016E-13 7.26863E-13
 -1      1692 5.18369E+01 4.26310E+00 1.62576E+00-5.60007E+00 6.63108E-13-1.29852E-12
 -1      1693 5.41051E+01 3.60576E+00 1.76651E+00-1.91692E-01 5.29965E-13-5.03556E-13
 -1      1694 4.24816E+01 6.06742E+00 1.20728E+00-1.13673E+01 1.01330E-12-1.97287E-12
 -1      1695 5.00057E+01 4.29981E+00 1.73829E+00-8.26385E+00 6.54352E-13-1.66001E-12
 -1      1696 2.87347E+01 6.56489E+00 4.67899E-01-1.15372E+01 1.59150E-12-2.10387E-12
 -1      1697 3.78392E+01 5.98753E+00 1.26204E+00-1.21784E+01 1.19349E-12-1.98419E-12
 -1      1698 1.57508E+01 4.32178E+00-2.82923E-01-8.33801E+00 2.04514E-12-2.02338E-12
 -1      1699 2.34691E+01 6.24171E+00 5.98313E-01-1.14888E+01 1.77214E-12-2.14140E-12
 -1      1700 6.91118E+00-1.66858E+00-9.17422E-01-3.75683E+00 1.95666E-12-1.55842E-12
 -1      1701 1.13559E+01 2.90345E+00-1.35872E-01-7.14147E+00 2.08011E-12-1.95399E-12
 -1      1702 2.60086E+00-9.50209E+00-1.34102E+00-1.11413E+00 9.66671E-13-9.32920E-13
 -1      1703 4.47695E+00-4.05937E+00-7.52596E-01-2.93804E+00 1.58584E-12-1.43008E-12
 -1      1704-1.77150E-01-1.52693E+01-1.73876E+00-1.05124E-01 3.18079E-14-4.44367E-13
 -1      1705-2.64194E-02-1.14203E+01-1.40329E+00 5.25496E-01 8.13793E-13-7.24816E-13
 -1      1706-6.44580E-01-1.51079E+01-1.58718E+00-7.84368E-01-9.47020E-13-4.98435E-13
 -1      1707-6.37200E-01-1.51785E+01-1.57899E+00 5.93268E-01-2.07501E-13-4.47975E-13
 -1      1708-1.02651E-01-1.13983E+01-1.48174E+00-8.10261E-01-1.86351E-12-9.12798E-13
 -1      1709-2.13220E-01-1.54304E+01-1.82436E+00-2.42812E-01-1.33005E-12-5.01349E-13
 -1      1710 4.93141E+00-3.71289E+00-7.51177E-01 3.11424E+00-2.02816E-12-1.30890E-12
 -1      1711 2.77587E+00-9.31474E+00-1.38475E+00 1.02438E+00-1.81155E-12-1.03187E-12
 -1      1712 1.33111E+01 3.10993E+00-8.75545E-02 7.80778E+00-2.00884E-12-1.93978E-12
 -1      1713 7.92742E+00-1.38186E+00-9.24325E-01 4.08331E+00-2.13229E-12-1.55431E-12
 -1      1714 2.73797E+01 5.41078E+00 6.69845E-01 1.13468E+01-1.47704E-12-1.93401E-12
 -1      1715 1.88816E+01 3.98925E+00-1.87451E-01 8.57212E+00-1.85896E-12-1.86851E-12
 -1      1716 4.20611E+01 5.39755E+00 1.43003E+00 1.11607E+01-1.00303E-12-1.20415E-12
 -1      1717 3.25347E+01 6.37642E+00 6.21719E-01 1.13991E+01-1.45756E-12-1.74150E-12
 -1      1718 5.35935E+01 3.82701E+00 1.97018E+00 6.07575E+00-4.37012E-13-3.54161E-13
 -1      1719 4.68656E+01 5.45191E+00 1.45968E+00 1.02755E+01-7.38742E-13-9.70779E-13
 -1      1720 5.54369E+01 3.56964E+00 1.91987E+00-2.82697E+00-4.48586E-13 7.93698E-13
 -1      1721 5.53907E+01 3.63630E+00 1.94811E+00 3.21355E+00-3.91187E-13 7.16094E-15
 -1      1722 4.70627E+01 5.25011E+00 1.39461E+00-9.24009E+00-1.04861E-12 1.79978E-12
 -1      1723 5.29669E+01 3.87011E+00 1.82659E+00-5.14898E+00-6.36352E-13 1.10162E-12
 -1      1724 3.46568E+01 6.67973E+00 7.92062E-01-1.20894E+01-1.73866E-12 2.51932E-12
 -1      1725 4.35354E+01 5.37054E+00 1.49896E+00-1.13061E+01-1.24162E-12 2.12319E-12
 -1      1726 2.09723E+01 4.88577E+00-3.86771E-02-9.40183E+00-2.22322E-12 2.37788E-12
 -1      1727 2.97252E+01 5.81773E+00 8.28895E-01-1.18119E+01-1.81044E-12 2.46736E-12
 -1      1728 9.65119E+00 9.96098E-02-8.17120E-01-5.03406E+00-2.14651E-12 1.95099E-12
 -1      1729 1.56339E+01 3.89466E+00 4.26091E-02-8.73553E+00-2.30160E-12 2.54918E-12
 -1      1730 3.11045E+00-6.91349E+00-1.42274E+00-1.09243E+00-2.07456E-12 1.26077E-12
 -1      1731 5.66160E+00-1.62416E+00-7.23900E-01-3.59505E+00-2.24798E-12 1.62625E-12
 -1      1732 3.57653E-01-1.36296E+01-1.77636E+00 4.13971E-01-1.20026E-12 7.61263E-13
 -1      1733 9.06323E-01-8.86993E+00-1.31985E+00 4.77608E-02-1.87095E-12 1.15513E-12
 -1      1734-5.93864E-01-1.65428E+01-1.83996E+00-2.05241E-01 3.05478E-13 6.66800E-13
 -1      1735-6.12101E-01-1.46795E+01-1.68246E+00 1.05007E+00-8.05689E-13 6.35270E-13
 -1      1736 2.55014E+01 1.28692E+00 3.09037E-01 7.35138E+00 1.27692E-12 1.25233E-12
 -1      1737 1.51119E+01-2.89850E+00-2.69997E-01 6.55719E+00 1.52833E-12 9.53959E-13
 -1      1738 1.99994E+01-1.34699E-03 2.18506E-04-1.71445E-03-5.76045E-13-2.62661E-13
 -1      1739 1.99992E+01-9.31755E-04 1.09675E-04-2.81625E-03 1.42815E-13 3.02504E-13
 -1      1740 5.83993E-01-1.02007E+01-1.18420E+00 2.36051E+00 9.59788E-13 1.12643E-12
 -1      1741 6.12046E+00-6.90468E+00-8.05963E-01 4.66554E+00 1.41664E-12 9.19584E-13
 -1      1742-1.32122E+00-1.14449E+01-1.31726E+00 7.69707E-02 1.99209E-13 1.27559E-12
 -1      1743 3.56176E+01 4.53267E+00 8.83418E-01 6.37301E+00 1.19191E-12 8.29559E-13
 -1      1744 4.30943E+01 6.36244E+00 1.21038E+00 3.60413E+00 1.03656E-12 2.83495E-13
 -1      1745 4.65972E+01 7.39980E+00 1.50262E+00 6.22784E-01 1.00198E-12-9.82964E-14
 -1      1746 4.47670E+01 6.91147E+00 1.40011E+00-3.33319E+00 8.70415E-13-7.51454E-13
 -1      1747 3.85153E+01 5.26189E+00 1.06948E+00-6.15442E+00 9.50854E-13-1.21436E-12
 -1      1748 2.91131E+01 2.67426E+00 5.74901E-01-7.42974E+00 1.10273E-12-1.21625E-12
 -1      1749 1.86836E+01-7.86761E-01-6.91490E-02-7.10677E+00 1.16374E-12-1.29896E-12
 -1      1750 1.00727E+01-5.24489E+00-6.15949E-01-5.75600E+00 7.27973E-13-1.24767E-12
 -1      1751 3.41682E+00-8.35898E+00-8.57397E-01-4.07104E+00 3.35065E-13-1.12807E-12
 -1      1752-7.30253E-01-1.01559E+01-1.12793E+00-1.22761E+00-1.35530E-13-8.52096E-13
 -1      1753-6.97051E-01-1.03270E+01-1.16280E+00 1.08809E+00-6.01741E-13-8.19789E-13
 -1      1754 3.73151E+00-8.40711E+00-8.74949E-01 3.94969E+00-9.67115E-13-9.69516E-13
 -1      1755 1.12881E+01-5.17635E+00-5.65059E-01 5.86649E+00-1.03095E-12-9.39387E-13
 -1      1756 2.13891E+01-1.02297E+00 5.39776E-02 6.87331E+00-1.12255E-12-1.03495E-12
 -1      1757 3.19162E+01 2.43895E+00 5.84398E-01 6.24991E+00-1.15463E-12-8.88623E-13
 -1      1758 4.12411E+01 5.57550E+00 1.18457E+00 4.99687E+00-1.02826E-12-4.76397E-13
 -1      1759 4.74597E+01 7.11817E+00 1.65317E+00 2.16260E+00-7.50899E-13 2.47580E-14
 -1      1760 4.68069E+01 7.18363E+00 1.53734E+00-1.52252E+00-9.11937E-13 6.77181E-13
 -1      1761 4.17541E+01 5.96532E+00 1.24101E+00-4.89539E+00-1.18930E-12 1.01275E-12
 -1      1762 3.33610E+01 3.29479E+00 7.08314E-01-6.65853E+00-1.27784E-12 1.39755E-12
 -1      1763 2.32228E+01-1.60859E-01 1.59758E-01-6.98182E+00-1.35558E-12 1.54610E-12
 -1      1764 1.28779E+01-3.80317E+00-4.37531E-01-6.04317E+00-1.37379E-12 1.47038E-12
 -1      1765 4.95719E+00-7.63995E+00-9.49076E-01-4.00382E+00-1.11389E-12 1.13638E-12
 -1      1766 2.83163E-01-1.04161E+01-1.22156E+00-1.92761E+00-5.06928E-13 1.14780E-12
 -1      1767 2.28035E+01 1.97394E+00-2.46091E-02-2.67681E+00-2.25535E-13 7.75463E-13
 -1      1768 1.98642E+01 3.72676E+00-3.56637E-02-2.06308E+00-2.36660E-13-3.31339E-13
 -1      1769 2.00986E+01 3.56833E+00-3.92874E-02-2.35739E+00-2.85032E-13-2.43087E-13
 -1      1770 2.03971E+01 3.17857E+00-4.54957E-02-2.50465E+00-2.94561E-13-1.26246E-13
 -1      1771 2.06054E+01 2.80189E+00-1.40775E-01-2.77738E+00-3.31405E-13 2.38073E-14
 -1      1772 2.04648E+01 2.70033E+00-3.86690E-03-2.13555E+00-3.09347E-13-1.61569E-13
 -1      1773 1.93661E+01 4.23678E+00-2.04491E-02-1.19194E+00-1.01526E-13-4.74402E-13
 -1      1774 1.94498E+01 4.19160E+00-1.67459E-02-1.41031E+00-1.35114E-13-4.59670E-13
 -1      1775 1.92495E+01 4.35660E+00-1.68568E-02-7.99136E-01-3.13215E-14-4.81212E-13
 -1      1776 1.93024E+01 4.32919E+00-1.35615E-02-1.00031E+00-6.90507E-14-4.86432E-13
 -1      1777 1.95265E+01 3.85339E+00-8.50882E-03-1.03897E+00-9.81923E-14-4.56775E-13
 -1      1778 1.91820E+01 4.42724E+00-1.46273E-02-4.30997E-01 3.56972E-14-4.52510E-13
 -1      1779 1.92112E+01 4.41221E+00-1.26103E-02-6.19065E-01 8.05638E-15-4.71206E-13
 -1      1780 1.94070E+01 3.99106E+00-8.30429E-03-6.74158E-01-1.37687E-14-4.54648E-13
 -1      1781 1.91551E+01 4.45762E+00-1.32592E-02-7.65388E-02 1.04452E-13-4.14925E-13
 -1      1782 1.91641E+01 4.45300E+00-1.26485E-02-2.58364E-01 7.72614E-14-4.40679E-13
 -1      1783 1.93408E+01 4.06656E+00-8.15728E-03-3.27704E-01 5.94197E-14-4.20363E-13
 -1      1784 1.91659E+01 4.45118E+00-1.25669E-02 2.75779E-01 1.73059E-13-3.79629E-13
 -1      1785 1.91556E+01 4.45650E+00-1.33702E-02 9.37303E-02 1.42154E-13-4.00666E-13
 -1      1786 1.93205E+01 4.08937E+00-8.11378E-03 9.41282E-03 1.32636E-13-3.89576E-13
 -1      1787 1.92154E+01 4.40704E+00-1.26011E-02 6.37562E-01 2.27056E-13-3.61407E-13
 -1      1788 1.91849E+01 4.42311E+00-1.47503E-02 4.48813E-01 2.02235E-13-3.81530E-13
 -1      1789 1.93438E+01 4.06219E+00-8.21106E-03 3.46928E-01 1.99620E-13-3.62212E-13
 -1      1790 1.93074E+01 4.32186E+00-1.36248E-02 1.01393E+00 2.75129E-13-2.94625E-13
 -1      1791 1.92540E+01 4.34995E+00-1.70231E-02 8.15181E-01 2.54269E-13-3.34998E-13
 -1      1792 1.94124E+01 3.98306E+00-8.33589E-03 6.91365E-01 2.52373E-13-3.30957E-13
 -1      1793 1.94594E+01 4.17882E+00-1.66076E-02 1.42972E+00 3.46034E-13-1.77391E-13
 -1      1794 1.93726E+01 4.22625E+00-2.07235E-02 1.20602E+00 3.05822E-13-2.40046E-13
 -1      1795 1.95341E+01 3.84167E+00-8.58216E-03 1.05385E+00 3.11585E-13-2.39571E-13
 -1      1796 1.97039E+01 3.94426E+00-2.44091E-02 1.88926E+00 3.96535E-13-3.76713E-14
 -1      1797 1.95642E+01 4.02672E+00-2.71855E-02 1.63387E+00 3.69483E-13-1.26593E-13
 -1      1798 1.97303E+01 3.61321E+00-8.25941E-03 1.44073E+00 3.76215E-13-1.28682E-13
 -1      1799 2.01150E+01 3.52808E+00-4.42812E-02 2.38502E+00 4.07396E-13 1.91902E-13
 -1      1800 1.98759E+01 3.69470E+00-3.97708E-02 2.09404E+00 4.00280E-13 5.32699E-14
 -1      1801 2.00426E+01 3.24790E+00-5.07480E-03 1.83702E+00 4.19417E-13 2.83263E-14
 -1      1802 2.09386E+01 2.67473E+00-5.66492E-02 2.78290E+00 3.57088E-13 6.05363E-13
 -1      1803 2.04459E+01 3.09430E+00-5.00305E-02 2.53564E+00 3.70170E-13 3.57055E-13
 -1      1804 2.05556E+01 2.61617E+00 3.21325E-03 2.15496E+00 4.01582E-13 2.69992E-13
 -1      1805 2.17180E+01 1.20745E+00-1.21041E-01 2.27301E+00 2.77382E-13 1.07646E-12
 -1      1806 2.12804E+01 2.25380E+00 5.19404E-05 2.67353E+00 3.19071E-13 7.71189E-13
 -1      1807 2.09642E+01 1.68329E+00-2.20174E-02 2.06496E+00 3.66830E-13 5.81563E-13
 -1      1808 2.09609E+01 7.76450E-01-6.12602E-02 1.46897E+00 2.81559E-13 9.82939E-13
 -1      1809 2.17855E+01 2.44524E+00 9.01160E-02-2.98564E+00-2.95522E-13 2.96152E-13
 -1      1810 2.01558E+01 3.02033E-01-7.98708E-03 5.98437E-01 2.27516E-13 8.16543E-13
 -1      1811 2.06812E+01 4.42250E-01-1.18501E-02 9.77373E-01 2.43666E-13 9.01822E-13
 -1      1812 2.07798E+01 8.45358E-01 1.79537E-03 1.34588E+00 2.93255E-13 6.71383E-13
 -1      1813 2.15151E+01 1.73785E+00 7.89929E-02-2.26808E+00-3.15518E-13 1.89293E-13
 -1      1814 2.05729E+01 5.06838E-01 3.28539E-02-8.49747E-01-2.61319E-13 1.54326E-13
 -1      1815 2.01706E+01 3.62718E-01 9.00291E-03-5.53083E-01-2.18710E-13 9.06801E-14
 -1      1816 1.99996E+01 2.71812E-01 2.77553E-02-3.03819E-01-1.94212E-13 8.93998E-14
 -1      1817 1.98455E+01 1.97032E-01 1.20751E-02-1.56069E-01-1.67622E-13 3.95725E-14
 -1      1818 2.02919E+01 5.02544E-01-6.58004E-03-6.16202E-01-2.41050E-13-1.33170E-14
 -1      1819 1.97548E+01 1.55364E-01 1.72010E-02-6.01769E-03-1.24193E-13 4.37350E-14
 -1      1820 1.97246E+01 1.20515E-01 9.12864E-03 7.96312E-02-9.75730E-14 7.39513E-15
 -1      1821 2.00216E+01 2.75147E-01-6.65139E-03-1.58238E-01-1.71380E-13-8.43813E-15
 -1      1822 1.97005E+01 9.98823E-02 9.45590E-03 1.76014E-01-9.78779E-14 9.37965E-15
 -1      1823 1.97489E+01 8.36368E-02 6.86233E-03 2.32468E-01-8.67104E-14-5.10529E-15
 -1      1824 1.99115E+01 1.69398E-01-5.76309E-03 1.22847E-01-1.15641E-13-2.05881E-14
 -1      1825 1.97755E+01 7.38148E-02 5.22249E-03 3.01246E-01-8.24078E-14-4.89040E-15
 -1      1826 1.98778E+01 6.75297E-02 5.85839E-03 3.44361E-01-6.15866E-14-4.08935E-14
 -1      1827 1.99191E+01 1.19688E-01-4.85588E-03 3.11801E-01-9.30089E-14-3.38387E-14
 -1      1828 1.99434E+01 6.38274E-02 3.03570E-03 4.00345E-01-6.44938E-14-3.85506E-14
 -1      1829 2.00874E+01 6.33844E-02 5.58753E-03 4.38768E-01-5.55962E-14-6.30729E-14
 -1      1830 2.00158E+01 9.90959E-02-4.01158E-03 4.54481E-01-7.57500E-14-4.58683E-14
 -1      1831 2.01847E+01 6.32717E-02 1.88538E-03 4.90737E-01-3.78820E-14-5.29285E-14
 -1      1832 2.03653E+01 6.61353E-02 5.63318E-03 5.29409E-01-2.03704E-14-4.54990E-14
 -1      1833 2.01829E+01 9.50699E-02-3.39451E-03 5.77399E-01-4.52381E-14-3.21903E-14
 -1      1834 2.04907E+01 6.77084E-02 1.24222E-03 5.82286E-01-4.97846E-14-3.01492E-14
 -1      1835 2.07062E+01 7.16179E-02 5.67619E-03 6.23504E-01-3.29105E-14-4.47562E-14
 -1      1836 2.04097E+01 1.00045E-01-3.02438E-03 6.96035E-01-2.41125E-14-5.43842E-14
 -1      1837 2.08580E+01 7.27983E-02 8.27727E-04 6.78885E-01-4.50161E-14-5.15960E-14
 -1      1838 2.11079E+01 7.49312E-02 5.36114E-03 7.22157E-01-5.77366E-14-8.28775E-14
 -1      1839 2.06908E+01 1.07381E-01-2.85024E-03 8.17858E-01-7.71310E-14-7.65659E-14
 -1      1840 2.12856E+01 7.28494E-02 4.83970E-04 7.77760E-01-6.04347E-14-1.13656E-13
 -1      1841 2.15674E+01 6.90823E-02 4.21601E-03 8.18838E-01 5.46416E-15-1.39981E-13
 -1      1842 2.10243E+01 1.08898E-01-2.82059E-03 9.42381E-01-7.94253E-14-5.44963E-14
 -1      1843 2.17712E+01 5.95019E-02 1.38094E-04 8.67058E-01 6.04375E-14-1.70158E-13
 -1      1844 2.20768E+01 4.37843E-02 1.63800E-03 8.96268E-01 4.85551E-14-1.25899E-13
 -1      1845 2.14091E+01 9.28504E-02-2.91172E-03 1.05909E+00-6.38855E-15-9.96534E-14
 -1      1846 2.23065E+01 2.07560E-02-1.87705E-04 9.22043E-01 2.10594E-14-8.91119E-14
 -1      1847 2.26187E+01-1.48877E-02-2.99386E-03 9.22331E-01-1.61649E-14-8.07115E-14
 -1      1848 2.18440E+01 4.23922E-02-3.12149E-03 1.14371E+00 3.36287E-14-7.11682E-14
 -1      1849 2.28727E+01-5.83909E-02-3.60204E-04 9.01039E-01-3.24137E-14-4.21061E-14
 -1      1850 2.31600E+01-1.21869E-01-9.96247E-03 8.47126E-01-2.95554E-14-1.48731E-14
 -1      1851 2.23251E+01-6.39182E-02-3.38780E-03 1.15371E+00-1.07097E-15-1.22259E-14
 -1      1852 2.34327E+01-1.90713E-01-2.60879E-04 7.44701E-01-4.06663E-14 4.42389E-14
 -1      1853 2.36472E+01-2.83435E-01-1.85243E-02 6.06662E-01-5.60272E-14 6.06164E-14
 -1      1854 2.28431E+01-2.45600E-01-3.36211E-03 1.02606E+00 1.00874E-14 6.93261E-14
 -1      1855 2.39224E+01-3.71985E-01-2.11970E-04 3.86686E-01-5.23418E-14 8.87962E-14
 -1      1856 2.40033E+01-4.75132E-01-2.57555E-02 1.43556E-01-5.70065E-14 9.04793E-14
 -1      1857 2.33759E+01-5.01432E-01-2.12984E-03 6.84197E-01-2.92639E-14 1.25703E-13
 -1      1858 2.42402E+01-5.52878E-01-1.62314E-03-2.08906E-01-1.24446E-13 5.56168E-14
 -1      1859 2.41316E+01-6.12543E-01-2.61506E-02-5.40103E-01-1.20749E-13-8.50015E-16
 -1      1860 2.38713E+01-7.71141E-01 2.07766E-03 6.77755E-02-1.37761E-13 1.26998E-13
 -1      1861 2.42560E+01-6.15893E-01-6.29197E-03-9.74109E-01-9.27886E-14-2.88745E-14
 -1      1862 2.39414E+01-5.48031E-01-1.40263E-02-1.30296E+00-1.28092E-13-1.95503E-14
 -1      1863 2.42253E+01-9.01478E-01 9.83805E-03-7.94437E-01-1.42829E-13 1.61044E-13
 -1      1864 2.38671E+01-4.02139E-01-1.49451E-02-1.65841E+00-1.52735E-13 1.18655E-15
 -1      1865 2.34120E+01-1.48560E-01 8.53046E-03-1.81461E+00-1.23942E-13-8.11538E-14
 -1      1866 2.42887E+01-6.73708E-01 1.64331E-02-1.68784E+00-1.43010E-13 1.71871E-13
 -1      1867 2.31259E+01 1.55595E-01-2.26821E-02-1.84293E+00-7.10734E-14-1.42397E-13
 -1      1868 2.26858E+01 5.12855E-01 2.30505E-02-1.65469E+00-4.01762E-14-1.86873E-13
 -1      1869 2.39599E+01 3.50657E-02 6.70381E-03-2.16483E+00-1.46297E-13 1.72639E-13
 -1      1870 2.23698E+01 8.18319E-01-1.49852E-02-1.20172E+00-2.09277E-14-2.42438E-13
 -1      1871 2.21401E+01 1.04309E+00 1.68018E-02-6.74745E-01-5.48971E-14-2.40499E-13
 -1      1872 2.33819E+01 9.82826E-01-2.01945E-02-1.72679E+00-6.66481E-14 3.34303E-14
 -1      1873 2.20677E+01 1.11312E+00 7.54748E-03 8.80026E-02-1.40742E-13-2.79253E-13
 -1      1874 2.21641E+01 1.02010E+00-5.68167E-03 6.91981E-01-1.63137E-13-2.53734E-13
 -1      1875 2.29976E+01 1.55594E+00-4.31195E-02-3.57454E-01-8.00054E-14-8.33678E-14
 -1      1876 2.24058E+01 7.95118E-01 2.38846E-02 1.32620E+00-1.62929E-13-3.50937E-13
 -1      1877 2.27818E+01 4.64291E-01-2.08755E-02 1.68196E+00-3.15390E-14-3.18951E-13
 -1      1878 2.31654E+01 1.32070E+00-3.24081E-02 1.22899E+00-1.44808E-13-2.05593E-13
 -1      1879 2.31185E+01 1.31237E-01 1.63813E-02 1.86492E+00-4.75332E-14-4.70004E-13
 -1      1880 2.35992E+01-1.88840E-01-1.97902E-02 1.84831E+00-5.90825E-14-5.41027E-13
 -1      1881 2.37309E+01 4.62493E-01-2.63994E-03 2.12383E+00-1.60877E-13-4.30288E-13
 -1      1882 2.37817E+01-4.12735E-01-5.69507E-03 1.60851E+00-5.90387E-14-6.29644E-13
 -1      1883 2.41815E+01-5.60880E-01-1.03730E-02 1.33397E+00-1.26841E-13-6.98844E-13
 -1      1884 2.42212E+01-4.09249E-01 1.40436E-02 2.01097E+00-1.04497E-13-6.32765E-13
 -1      1885 2.41434E+01-6.15263E-01-2.27813E-02 9.09957E-01-1.66665E-13-6.48010E-13
 -1      1886 2.43557E+01-5.99962E-01-2.91424E-03 5.66072E-01-1.27605E-13-6.43473E-13
 -1      1887 2.43422E+01-8.51894E-01 1.29168E-02 1.24136E+00-1.36234E-13-6.62429E-13
 -1      1888 2.41662E+01-5.44349E-01-2.71164E-02 1.69518E-01-6.02973E-14-5.95192E-13
 -1      1889 2.41769E+01-4.50241E-01-1.17233E-04-1.14391E-01 4.77118E-14-5.81871E-13
 -1      1890 2.41126E+01-8.50479E-01 4.96983E-03 3.31307E-01-2.75691E-14-4.70695E-13
 -1      1891 2.39226E+01-3.59905E-01-2.20397E-02-3.88040E-01 1.64800E-13-6.00594E-13
 -1      1892 2.37764E+01-2.57559E-01 3.59500E-04-5.66482E-01 2.32564E-13-5.91384E-13
 -1      1893 2.36827E+01-6.14182E-01-9.29701E-04-3.95080E-01 7.34040E-14-5.19505E-13
 -1      1894 2.35128E+01-1.77564E-01-1.35098E-02-7.10117E-01 1.83159E-13-6.34454E-13
 -1      1895 2.32721E+01-9.96370E-02 3.40600E-04-7.91808E-01 1.22127E-13-5.87329E-13
 -1      1896 2.31817E+01-3.37468E-01-3.27579E-03-8.40125E-01 1.62251E-13-4.90106E-13
 -1      1897 2.30245E+01-4.45805E-02-5.63992E-03-8.36573E-01 1.52211E-14-6.21348E-13
 -1      1898 2.27446E+01 3.43416E-03 4.91801E-04-8.50051E-01-7.94791E-14-6.10455E-13
 -1      1899 2.26823E+01-1.18274E-01-3.67966E-03-1.03690E+00 1.19094E-13-5.43755E-13
 -1      1900 2.25222E+01 3.50866E-02-3.08847E-06-8.32797E-01-1.01526E-13-5.21567E-13
 -1      1901 2.22420E+01 5.92433E-02 8.13699E-04-8.06460E-01-1.05714E-13-3.70648E-13
 -1      1902 2.22178E+01 2.16042E-02-3.45842E-03-1.06068E+00-3.66672E-15-4.97151E-13
 -1      1903 2.20476E+01 7.40728E-02 3.33824E-03-7.56676E-01-1.60522E-13-1.74757E-13
 -1      1904 2.17904E+01 8.25813E-02 1.14179E-03-7.11614E-01-4.85651E-14-6.79918E-14
 -1      1905 2.18017E+01 9.54137E-02-3.15156E-03-9.83042E-01 4.55506E-15-1.63044E-13
 -1      1906 2.16239E+01 8.70097E-02 4.90694E-03-6.49070E-01-3.58030E-14-1.14768E-13
 -1      1907 2.14008E+01 8.65838E-02 1.36514E-03-5.98591E-01 9.79082E-14-1.57219E-13
 -1      1908 2.14390E+01 1.24605E-01-2.88045E-03-8.56878E-01-1.37728E-14-2.35912E-14
 -1      1909 2.12609E+01 8.53198E-02 5.31213E-03-5.34999E-01 6.31964E-14-3.49149E-13
 -1      1910 2.10749E+01 8.04851E-02 1.45416E-03-4.86473E-01-5.64596E-14-4.49855E-13
 -1      1911 2.11302E+01 1.27595E-01-2.63207E-03-7.16070E-01-2.63868E-14-3.49025E-13
 -1      1912 2.09597E+01 7.65308E-02 5.05046E-03-4.27961E-01 2.30905E-14-3.80378E-13
 -1      1913 2.08093E+01 7.00045E-02 1.42845E-03-3.84882E-01 3.68425E-14-2.72554E-13
 -1      1914 2.08726E+01 1.17148E-01-2.37946E-03-5.79914E-01 3.93688E-14-2.03806E-13
 -1      1915 2.07161E+01 6.51029E-02 4.46478E-03-3.34099E-01-7.11839E-14-2.36094E-13
 -1      1916 2.05975E+01 5.83710E-02 1.32432E-03-2.97675E-01-7.65657E-14-3.32994E-13
 -1      1917 2.06622E+01 1.01094E-01-2.11233E-03-4.57969E-01 4.25215E-14-4.17942E-14
 -1      1918 2.05235E+01 5.34537E-02 3.76656E-03-2.55270E-01-1.67943E-14-3.36927E-13
 -1      1919 2.04320E+01 4.72478E-02 1.17667E-03-2.25482E-01 2.33813E-14-2.44220E-13
 -1      1920 2.04934E+01 8.38130E-02-1.83561E-03-3.53864E-01-1.81192E-15 6.98174E-14
 -1      1921 2.03743E+01 4.27642E-02 3.07394E-03-1.91051E-01 9.20240E-14-2.85341E-13
 -1      1922 2.03051E+01 3.73851E-02 1.01229E-03-1.67287E-01 1.45835E-13-2.19775E-13
 -1      1923 2.03606E+01 6.75307E-02-1.56094E-03-2.67895E-01 4.66965E-14-1.11085E-14
 -1      1924 2.02609E+01 3.35129E-02 2.44549E-03-1.39938E-01 1.83852E-13-4.36156E-14
 -1      1925 2.02097E+01 2.90298E-02 8.49080E-04-1.21356E-01 1.31860E-13 4.96287E-15
 -1      1926 2.02579E+01 5.32210E-02-1.30018E-03-1.98661E-01 2.06205E-13-6.54310E-14
 -1      1927 2.01765E+01 2.58020E-02 1.90450E-03-1.00032E-01-9.10653E-14-2.78490E-14
 -1      1928 2.01396E+01 2.21681E-02 6.97620E-04-8.57522E-02 1.13222E-14-8.21363E-14
 -1      1929 2.01800E+01 4.11740E-02-1.06204E-03-1.44027E-01 3.82275E-14 2.25674E-13
 -1      1930 2.01152E+01 1.95449E-02 1.45469E-03-6.94019E-02 4.32139E-14-1.00900E-13
 -1      1931 2.00892E+01 1.66622E-02 5.63115E-04-5.86042E-02 9.13715E-14-3.77302E-14
 -1      1932 2.01221E+01 3.13289E-02-8.51367E-04-1.01672E-01-1.19132E-15 1.33159E-13
 -1      1933 2.00717E+01 1.45722E-02 1.08975E-03-4.62681E-02 1.22940E-13-2.27512E-13
 -1      1934 2.00540E+01 1.23253E-02 4.46796E-04-3.82329E-02 3.87166E-15-8.41509E-14
 -1      1935 2.00801E+01 2.34618E-02-6.69687E-04-6.93709E-02-6.78399E-15-3.48227E-15
 -1      1936 2.00418E+01 1.06851E-02 7.98647E-04-2.90808E-02 4.55576E-14 2.21825E-14
 -1      1937 2.00305E+01 8.95659E-03 3.46817E-04-2.32043E-02 3.06484E-13 3.57610E-14
 -1      1938 2.00503E+01 1.72853E-02-5.16252E-04-4.51397E-02 1.22079E-13 1.65344E-13
 -1      1939 2.00223E+01 7.67990E-03 5.68615E-04-1.65482E-02 2.25927E-13 4.73667E-14
 -1      1940 2.00155E+01 6.35439E-03 2.58685E-04-1.23456E-02 1.87066E-13-1.73916E-14
 -1      1941 2.00300E+01 1.24965E-02-3.88576E-04-2.72906E-02 2.20962E-13 1.14496E-13
 -1      1942 2.00102E+01 5.35120E-03 3.87712E-04-7.64517E-03 1.49201E-13-1.22578E-13
 -1      1943 2.00067E+01 4.31410E-03 1.83373E-04-4.76049E-03 9.81950E-14-1.99136E-13
 -1      1944 2.00166E+01 8.78780E-03-2.82289E-04-1.44537E-02 1.37871E-13-1.66067E-13
 -1      1945 2.00035E+01 3.43085E-03 2.36851E-04-1.60179E-03 1.50030E-13-1.88273E-13
 -1      1946 2.00022E+01 2.52829E-03 1.14423E-04 1.50678E-04 1.21307E-13 5.31061E-15
 -1      1947 2.00083E+01 5.85788E-03-1.86021E-04-5.59360E-03 5.78541E-14 5.11227E-14
 -1      1948 2.00004E+01 1.70881E-03 1.55211E-04 1.87631E-03 4.54313E-14-1.74788E-14
 -1      1949 2.00003E+01 6.92478E-04 5.97311E-05 2.49722E-03-2.97551E-14-3.07070E-15
 -1      1950 2.00010E+01 3.26338E-04-1.10396E-04 2.58796E-03-1.28059E-13-2.92675E-14
 -1      1951 2.00034E+01 3.04667E-03-1.74997E-04-9.40740E-05 9.32337E-14 1.64010E-13
 -1      1952 1.97301E+01 1.51131E-01 8.74082E-03 1.88524E-01 1.75037E-13 6.97562E-13
 -1      1953 1.99704E+01 2.11324E-01 1.69797E-02 3.67466E-01 1.87243E-13 7.67244E-13
 -1      1954 2.01832E+01 3.58898E-01-2.05245E-03 5.74485E-01 2.29585E-13 5.57692E-13
 -1      1955 1.95605E+01 8.58193E-02 7.95858E-03-3.51378E-02 1.43323E-13 5.93471E-13
 -1      1956 1.96356E+01 1.13991E-01 1.48837E-02 6.31971E-02 1.48904E-13 6.66664E-13
 -1      1957 1.98491E+01 1.80604E-01-2.61359E-03 1.55125E-01 1.85281E-13 5.04824E-13
 -1      1958 1.95645E+01 5.49363E-02 5.68297E-03-1.69749E-01 6.98890E-14 5.38327E-13
 -1      1959 1.95429E+01 6.91368E-02 9.25026E-03-1.08736E-01 9.45645E-14 5.57435E-13
 -1      1960 1.97244E+01 1.03056E-01-3.62562E-03-8.74897E-02 1.26936E-13 4.00841E-13
 -1      1961 1.96850E+01 4.00367E-02 4.38913E-03-2.60109E-01 6.29232E-14 4.78698E-13
 -1      1962 1.96026E+01 4.73947E-02 5.50503E-03-2.17465E-01 6.54509E-14 5.31975E-13
 -1      1963 1.97428E+01 6.69023E-02-3.82756E-03-2.40429E-01 7.53429E-14 3.54173E-13
 -1      1964 1.98887E+01 3.33174E-02 3.77395E-03-3.28797E-01 9.69129E-14 4.38500E-13
 -1      1965 1.97640E+01 3.71165E-02 3.51997E-03-2.95024E-01 6.32771E-14 4.58887E-13
 -1      1966 1.98609E+01 5.01257E-02-3.52179E-03-3.47674E-01 9.11497E-14 3.13267E-13
 -1      1967 2.01568E+01 3.06645E-02 3.41564E-03-3.87521E-01 5.46152E-14 4.08340E-13
 -1      1968 1.99994E+01 3.27653E-02 2.48506E-03-3.57625E-01 9.65159E-14 4.39834E-13
 -1      1969 2.00526E+01 4.29937E-02-3.14920E-03-4.32116E-01 9.02828E-14 3.20103E-13
 -1      1970 2.04784E+01 2.90659E-02 3.04716E-03-4.41431E-01 5.08329E-14 3.49941E-13
 -1      1971 2.02937E+01 3.08812E-02 1.86808E-03-4.13221E-01 5.29381E-14 3.86458E-13
 -1      1972 2.03027E+01 3.99917E-02-2.88109E-03-5.05357E-01 7.72711E-14 3.28895E-13
 -1      1973 2.08459E+01 2.55101E-02 2.46865E-03-4.90248E-01 4.33124E-14 3.21156E-13
 -1      1974 2.06379E+01 2.84237E-02 1.35974E-03-4.63969E-01 4.74789E-14 3.28919E-13
 -1      1975 2.06015E+01 3.67043E-02-2.72081E-03-5.71343E-01 6.59227E-14 2.57225E-13
 -1      1976 2.12500E+01 1.64372E-02 1.48566E-03-5.27937E-01 7.09033E-14 3.01522E-13
 -1      1977 2.10241E+01 2.20041E-02 7.52323E-04-5.06547E-01 6.13590E-14 3.13070E-13
 -1      1978 2.09416E+01 2.84546E-02-2.59892E-03-6.27125E-01 6.92849E-14 2.61328E-13
 -1      1979 2.16755E+01-2.41024E-03-7.58816E-05-5.41722E-01 8.66938E-14 2.90828E-13
 -1      1980 2.14413E+01 7.53513E-03-1.14026E-04-5.31477E-01 3.76930E-14 2.52772E-13
 -1      1981 2.13136E+01 9.71030E-03-2.40182E-03-6.62259E-01 6.23746E-14 2.09308E-13
 -1      1982 2.20971E+01-3.54491E-02-2.27759E-03-5.11345E-01 5.79552E-14 2.38166E-13
 -1      1983 2.18710E+01-1.95890E-02-1.34411E-03-5.22272E-01 9.35111E-14 2.94957E-13
 -1      1984 2.17031E+01-2.57433E-02-1.95860E-03-6.57848E-01 1.08896E-13 1.70127E-13
 -1      1985 2.24749E+01-8.53892E-02-4.90190E-03-4.10175E-01 6.47243E-14 2.39436E-13
 -1      1986 2.22822E+01-6.32713E-02-2.93870E-03-4.55628E-01 4.09360E-14 2.52611E-13
 -1      1987 2.20868E+01-8.32515E-02-1.01822E-03-5.86625E-01 6.21645E-14 1.59998E-13
 -1      1988 2.27529E+01-1.49333E-01-7.26980E-03-2.10951E-01-9.08019E-14 2.66043E-13
 -1      1989 2.26280E+01-1.23701E-01-4.73229E-03-3.04830E-01-2.23207E-14 2.55380E-13
 -1      1990 2.24290E+01-1.63399E-01 7.32573E-04-4.16503E-01-7.14489E-15 1.61671E-13
 -1      1991 2.28630E+01-2.12868E-01-8.19789E-03 1.00318E-01-2.25913E-14 2.72578E-13
 -1      1992 2.28452E+01-1.92084E-01-6.37401E-03-4.94836E-02-8.64309E-14 2.56784E-13
 -1      1993 2.26800E+01-2.55114E-01 3.53259E-03-1.21169E-01-7.67615E-14 8.76640E-14
 -1      1994 2.27384E+01-2.45042E-01-6.36701E-03 5.00527E-01 8.79687E-14 2.48959E-13
 -1      1995 2.28610E+01-2.44351E-01-7.28820E-03 3.05752E-01 6.82926E-14 3.22951E-13
 -1      1996 2.27783E+01-3.27583E-01 7.21110E-03 2.98841E-01 5.37972E-14 1.79490E-13
 -1      1997 2.23422E+01-2.03090E-01-1.66916E-03 9.02610E-01 1.55405E-14 3.04106E-13
 -1      1998 2.26145E+01-2.40075E-01-6.78264E-03 7.05672E-01 5.84307E-14 2.43351E-13
 -1      1999 2.26635E+01-3.28293E-01 1.07144E-02 7.85942E-01 6.03831E-14 1.42865E-13
 -1      2000 2.17094E+01-5.82320E-02 3.32723E-03 1.15136E+00-5.30110E-14 2.75698E-13
 -1      2001 2.20969E+01-1.38689E-01-4.40251E-03 1.02808E+00-6.15853E-14 2.86552E-13
 -1      2002 2.23065E+01-2.03248E-01 1.13328E-02 1.20188E+00-1.19306E-14 2.02808E-13
 -1      2003 2.09855E+01 1.63973E-01 4.55887E-03 1.07850E+00-1.51650E-14 2.53733E-13
 -1      2004 2.13992E+01 6.26854E-02-2.02752E-05 1.10897E+00-1.62505E-14 3.15841E-13
 -1      2005 2.17597E+01 5.60207E-02 6.15763E-03 1.34860E+00-3.82758E-14 2.03052E-13
 -1      2006 2.04156E+01 3.66235E-01 4.18226E-04 6.18512E-01 2.64372E-15 1.90602E-13
 -1      2007 2.07278E+01 2.94735E-01 5.95406E-03 8.30175E-01-4.74794E-15 1.78744E-13
 -1      2008 2.11895E+01 3.67954E-01-3.78043E-03 1.06594E+00 3.12762E-14 8.35148E-14
 -1      2009 2.02436E+01 4.30966E-01-5.57680E-03-9.55359E-02 2.62255E-13 1.77800E-13
 -1      2010 2.03373E+01 4.35288E-01 1.11524E-02 2.30238E-01 1.32490E-13 2.06911E-13
 -1      2011 2.08350E+01 5.80366E-01-1.16937E-02 3.71888E-01 9.36733E-14 8.53022E-14
 -1      2012 2.05605E+01 3.16685E-01-6.95509E-03-7.72466E-01 5.38285E-14 1.23039E-13
 -1      2013 2.03931E+01 3.97293E-01 1.27495E-02-4.67667E-01 1.70846E-13 1.86622E-13
 -1      2014 2.08726E+01 5.67849E-01-1.13714E-02-4.81606E-01 1.94282E-13 5.99789E-14
 -1      2015 2.12327E+01 9.77714E-02-2.16979E-03-1.14583E+00-1.44844E-13 1.54869E-13
 -1      2016 2.08642E+01 2.06695E-01 9.19320E-03-9.77650E-01-7.46191E-14 7.71223E-14
 -1      2017 2.12852E+01 3.39413E-01-3.04168E-03-1.13876E+00-2.39279E-14-1.89640E-14
 -1      2018 2.19933E+01-1.05707E-01 4.01978E-03-1.13269E+00-7.64146E-14 2.67383E-13
 -1      2019 2.15534E+01-2.24918E-02 2.00981E-03-1.13273E+00-1.15589E-13 2.12863E-13
 -1      2020 2.18762E+01 2.41251E-02 3.76059E-03-1.37138E+00-1.47746E-13 8.07921E-14
 -1      2021 2.26026E+01-2.16896E-01 7.51804E-03-8.35099E-01 7.21298E-14 1.18789E-13
 -1      2022 2.22211E+01-1.84169E-01-5.10960E-03-9.56689E-01 4.75887E-14 1.76505E-13
 -1      2023 2.24130E+01-2.25792E-01 4.91429E-03-1.18804E+00 4.56562E-14-1.03181E-14
 -1      2024 2.29416E+01-2.31427E-01 7.37296E-03-4.27773E-01 4.46518E-14 2.60797E-13
 -1      2025 2.26974E+01-2.41398E-01-9.21664E-03-5.96521E-01 5.88600E-14 1.81379E-13
 -1      2026 2.27498E+01-3.36194E-01 2.66830E-03-7.61260E-01 6.38630E-14-3.02492E-14
 -1      2027 2.30061E+01-1.86224E-01 4.92750E-03-5.17987E-02-1.74867E-13 2.38885E-13
 -1      2028 2.29174E+01-2.17721E-01-9.94008E-03-2.08790E-01-8.20038E-14 2.85037E-13
 -1      2029 2.28523E+01-3.22968E-01 1.39587E-04-2.85654E-01-4.45520E-14 1.20196E-13
 -1      2030 2.28559E+01-1.20983E-01 2.15892E-03 2.22789E-01 7.62931E-14 1.49606E-13
 -1      2031 2.28989E+01-1.55924E-01-8.34305E-03 1.06915E-01-6.63324E-14 2.59884E-13
 -1      2032 2.27565E+01-2.42592E-01-1.19164E-03 1.10389E-01-6.14153E-14 1.34842E-13
 -1      2033 2.25684E+01-6.10083E-02 1.15919E-04 3.84342E-01 1.08545E-13 2.04306E-13
 -1      2034 2.27019E+01-8.96180E-02-5.71020E-03 3.14858E-01 1.05955E-13 2.23376E-13
 -1      2035 2.25244E+01-1.46790E-01-1.39001E-03 3.77293E-01 9.09559E-14 2.11465E-13
 -1      2036 2.22131E+01-1.64972E-02-9.94326E-04 4.52225E-01 1.09830E-15 2.04968E-13
 -1      2037 2.23958E+01-3.59124E-02-3.04728E-03 4.21551E-01 4.39891E-14 2.33374E-13
 -1      2038 2.22163E+01-6.51363E-02-1.08283E-03 5.19226E-01 4.87002E-14 3.06689E-13
 -1      2039 2.18417E+01 1.17550E-02-1.37521E-03 4.55033E-01 1.43822E-13 3.35842E-15
 -1      2040 2.20409E+01 6.67192E-04-8.81912E-04 4.51628E-01 6.39075E-14 8.35339E-14
 -1      2041 2.18798E+01-7.56910E-03-7.27082E-04 5.64525E-01 1.40134E-13 1.25153E-13
 -1      2042 2.14880E+01 2.69454E-02-1.32325E-03 4.18980E-01 1.11553E-13 8.44799E-14
 -1      2043 2.16815E+01 2.20348E-02 6.27216E-04 4.32125E-01 1.39151E-13 9.52699E-14
 -1      2044 2.15486E+01 2.71405E-02-4.95373E-04 5.45884E-01 1.21413E-13 7.23412E-15
 -1      2045 2.11710E+01 3.30785E-02-1.07603E-03 3.63819E-01 3.12757E-14 1.18871E-13
 -1      2046 2.13460E+01 3.21844E-02 1.52750E-03 3.85350E-01 7.28668E-14 1.92292E-13
 -1      2047 2.12432E+01 4.44132E-02-3.96806E-04 4.91007E-01 5.46226E-14 2.09352E-13
 -1      2048 2.08994E+01 3.35921E-02-7.80129E-04 3.02692E-01 5.65732E-14 1.69616E-13
 -1      2049 2.10498E+01 3.50126E-02 1.95274E-03 3.27117E-01 3.42087E-15 1.73065E-13
 -1      2050 2.09746E+01 5.00533E-02-3.83098E-04 4.19959E-01 1.22478E-14 2.11819E-13
 -1      2051 2.06745E+01 3.09978E-02-5.09017E-04 2.43450E-01 4.49022E-14 1.77266E-13
 -1      2052 2.07989E+01 3.35544E-02 2.05033E-03 2.67440E-01 9.42206E-14 2.29836E-13
 -1      2053 2.07470E+01 4.87561E-02-4.03811E-04 3.45728E-01 9.56348E-14 3.89364E-13
 -1      2054 2.04936E+01 2.69596E-02-2.90597E-04 1.90220E-01-1.99439E-13-3.37866E-14
 -1      2055 2.05933E+01 2.99065E-02 1.94629E-03 2.11983E-01-1.25980E-13-3.40291E-14
 -1      2056 2.05598E+01 4.38301E-02-4.25462E-04 2.75862E-01 2.12475E-14 1.93221E-13
 -1      2057 2.03518E+01 2.24989E-02-1.28764E-04 1.44716E-01 1.29829E-13 1.39906E-13
 -1      2058 2.04296E+01 2.54016E-02 1.73463E-03 1.63468E-01-7.42015E-14 4.99644E-14
 -1      2059 2.04099E+01 3.74038E-02-4.32216E-04 2.14147E-01-1.13851E-13 1.09207E-13
 -1      2060 2.02433E+01 1.81954E-02-1.68343E-05 1.07205E-01 3.06656E-14 3.53905E-13
 -1      2061 2.03024E+01 2.08267E-02 1.47909E-03 1.22774E-01 4.16988E-14 2.07824E-13
 -1      2062 2.02926E+01 3.07434E-02-4.20438E-04 1.61964E-01-4.14871E-14 1.89544E-13
 -1      2063 2.01624E+01 1.43427E-02 5.52576E-05 7.71527E-02 1.49625E-13 2.51564E-13
 -1      2064 2.02062E+01 1.66051E-02 1.21936E-03 8.97137E-02 1.08127E-13 3.42674E-13
 -1      2065 2.02030E+01 2.45376E-02-3.92885E-04 1.19273E-01 8.26814E-14 3.08197E-13
 -1      2066 2.01037E+01 1.10578E-02 9.75084E-05 5.36490E-02-1.38902E-13 2.17860E-13
 -1      2067 2.01351E+01 1.29308E-02 9.77861E-04 6.35454E-02-5.20775E-15 2.10623E-13
 -1      2068 2.01361E+01 1.91091E-02-3.54585E-04 8.52647E-02 1.75888E-14 2.06326E-13
 -1      2069 2.00623E+01 8.35441E-03 1.18346E-04 3.56564E-02-6.71099E-14 2.75213E-13
 -1      2070 2.00842E+01 9.86012E-03 7.65235E-04 4.32946E-02-9.50716E-14 2.36946E-13
 -1      2071 2.00876E+01 1.45604E-02-3.10662E-04 5.87877E-02-1.03533E-13 2.19226E-13
 -1      2072 2.00344E+01 6.18990E-03 1.24076E-04 2.21601E-02 1.04868E-13 1.68256E-13
 -1      2073 2.00489E+01 7.37157E-03 5.84536E-04 2.79459E-02-5.70427E-14 1.52570E-13
 -1      2074 2.00535E+01 1.08698E-02-2.65347E-04 3.86029E-02-1.49375E-14 1.64580E-13
 -1      2075 2.00166E+01 4.48434E-03 1.17747E-04 1.22437E-02 8.92827E-14 8.49188E-14
 -1      2076 2.00256E+01 5.40131E-03 4.34524E-04 1.65492E-02 1.73929E-13 3.05589E-13
 -1      2077 2.00304E+01 7.94977E-03-2.21027E-04 2.35293E-02 1.01671E-13 1.21010E-13
 -1      2078 2.00063E+01 3.12780E-03 1.01407E-04 5.17687E-03 2.02871E-13 3.36207E-13
 -1      2079 2.00112E+01 3.83949E-03 3.10475E-04 8.29533E-03-6.42745E-15 2.38898E-13
 -1      2080 2.00155E+01 5.63897E-03-1.83427E-04 1.25417E-02-9.64172E-15 4.52136E-13
 -1      2081 2.00011E+01 2.00774E-03 7.42306E-05 4.10601E-04 2.75838E-14 6.05803E-13
 -1      2082 2.00032E+01 2.58714E-03 2.09065E-04 2.56474E-03 2.26347E-13 5.43902E-13
 -1      2083 2.00067E+01 3.79527E-03-1.45919E-04 4.84651E-03 1.40751E-13 7.02827E-13
 -1      2084 1.99993E+01 8.91875E-04 7.13157E-05-2.27349E-03 3.41511E-13 5.41050E-13
 -1      2085 1.99997E+01 1.44668E-03 1.26709E-04-1.07544E-03 1.33865E-13 5.57275E-13
 -1      2086 2.00021E+01 2.18513E-03-1.04637E-04-1.53579E-04 2.44328E-13 8.52230E-13
 -1      2087 1.99994E+01-3.29552E-04 6.40127E-05-2.76500E-03 4.00905E-13 3.69901E-13
 -1      2088 1.99989E+01 4.88814E-04 6.91916E-05-2.62116E-03 5.55524E-13 5.00725E-13
 -1      2089 2.00004E+01 8.86613E-04-3.98326E-05-2.40488E-03 4.61523E-13 6.93987E-13
 -1      2090 2.00001E+01-7.76213E-04 3.43670E-05-2.91830E-03 4.59181E-13 6.43368E-13
 -1      2091 2.00013E+01 5.50209E-03-4.40373E-05 3.38522E-03 1.52262E-13-1.25820E-13
 -1      2092 2.00017E+01 4.39724E-03 1.01371E-04 2.43944E-03 1.11925E-13-1.97061E-14
 -1      2093 2.00019E+01 2.12624E-03-5.82287E-06 1.06530E-03 1.68040E-13 1.84770E-13
 -1      2094 2.00019E+01 1.56134E-03 7.68939E-05-1.35595E-04 1.34372E-13 7.68501E-13
 -1      2095 2.00028E+01 7.08352E-03-3.43182E-05 3.11685E-03-1.37208E-13 1.67400E-14
 -1      2096 2.00015E+01-1.43294E-05 2.62606E-05-1.38612E-03 2.53096E-13 6.60510E-13
 -1      2097 2.00009E+01-3.40844E-05 3.80726E-05-2.10439E-03 3.98665E-13 5.74442E-13
 -1      2098 2.00013E+01 9.02014E-04 9.87076E-06-2.03711E-03 5.14453E-13 4.84636E-13
 -1      2099 2.00025E+01 3.23735E-03-7.79145E-05 8.95096E-05 1.48758E-13 6.47248E-13
 -1      2100 2.00003E+01 9.44851E-03-7.86491E-05 4.61470E-03-1.97081E-13-9.51221E-13
 -1      2101 2.00009E+01 8.00870E-03 8.72722E-05 4.20037E-03-1.05439E-14-5.08689E-13
 -1      2102 2.00017E+01 1.18002E-02-7.17866E-06 5.49639E-03-1.28732E-13-5.28414E-13
 -1      2103 1.99992E+01 1.33479E-02-1.01707E-04 4.43589E-03-7.60102E-14 6.37570E-15
 -1      2104 1.99997E+01 1.18973E-02 4.65354E-05 4.64564E-03-3.20420E-14-3.45813E-13
 -1      2105 2.00002E+01 1.67244E-02 5.22782E-05 6.37790E-03-1.36829E-13-4.58816E-13
 -1      2106 1.99983E+01 1.63046E-02-1.07374E-04 2.94344E-03 4.46680E-14 1.56188E-13
 -1      2107 1.99987E+01 1.52609E-02-6.70425E-06 3.68437E-03 1.12989E-13 1.36817E-13
 -1      2108 1.99986E+01 2.10551E-02 9.84361E-05 5.47307E-03 7.80842E-14 1.81063E-13
 -1      2109 1.99979E+01 1.76945E-02-9.16284E-05 6.07180E-04-4.89445E-14-1.83714E-13
 -1      2110 1.99981E+01 1.73412E-02-5.66445E-05 1.64272E-03-1.28786E-13-8.23230E-14
 -1      2111 1.99975E+01 2.39845E-02 1.29828E-04 3.06894E-03 3.63853E-14-1.76298E-13
 -1      2112 1.99981E+01 1.72309E-02-5.53960E-05-1.90704E-03 3.95729E-14-4.46845E-14
 -1      2113 1.99979E+01 1.76668E-02-9.19700E-05-8.82620E-04-1.90670E-14-2.88632E-15
 -1      2114 1.99972E+01 2.49870E-02 1.40709E-04-1.68614E-04-1.11666E-13-5.94707E-14
 -1      2115 1.99988E+01 1.50267E-02-5.84033E-06-3.88946E-03 1.82045E-13 1.76253E-13
 -1      2116 1.99984E+01 1.61425E-02-1.06201E-04-3.18198E-03 4.76922E-14 4.68287E-14
 -1      2117 1.99976E+01 2.38776E-02 1.28742E-04-3.37751E-03-1.47077E-13-9.70611E-15
 -1      2118 1.99998E+01 1.16462E-02 4.75366E-05-4.74725E-03 7.01450E-14-1.11706E-13
 -1      2119 1.99992E+01 1.31076E-02-1.00666E-04-4.58253E-03 1.36127E-13 8.88023E-14
 -1      2120 1.99987E+01 2.08881E-02 9.94918E-05-5.68801E-03-1.21476E-13 1.19048E-13
 -1      2121 2.00010E+01 7.70519E-03 9.02786E-05-4.19566E-03 2.90904E-13 5.46022E-14
 -1      2122 2.00004E+01 9.17831E-03-7.78271E-05-4.66551E-03 1.79470E-13 9.39937E-14
 -1      2123 2.00003E+01 1.65374E-02 5.05253E-05-6.47144E-03 2.41453E-14-2.06229E-14
 -1      2124 2.00018E+01 4.05490E-03 9.99856E-05-2.29637E-03 4.33129E-13-3.50052E-13
 -1      2125 2.00014E+01 5.14119E-03-4.42844E-05-3.30620E-03 4.74091E-13-3.70151E-13
 -1      2126 2.00019E+01 1.15505E-02 2.05521E-06-5.46058E-03 2.98062E-13-1.00977E-13
 -1      2127 2.00017E+01 1.09882E-03-2.69652E-05 4.46433E-04 2.55172E-14-1.83234E-13
 -1      2128 2.00021E+01 1.81508E-03 1.40250E-05-8.53489E-04 1.65651E-13-3.54675E-13
 -1      2129 2.00029E+01 6.84096E-03-1.62277E-05-2.89354E-03 3.30882E-13-4.67825E-13
 -1      2130 1.05564E+01-5.02079E+00-1.43873E-01 6.52918E+00 9.14824E-13 5.56381E-13
 -1      2131 6.81626E+00-6.55396E+00-3.82231E-01 5.28551E+00 7.32026E-13 7.11667E-13
 -1      2132 2.38114E-01-7.35889E+00-4.35515E-01 9.99593E-01 1.99452E-13 1.34137E-12
 -1      2133 2.07196E-01-7.13687E+00-3.98187E-01-5.45937E-01-9.29951E-14 1.35847E-12
 -1      2134 3.37365E+00-6.31489E+00-2.95097E-01 4.20065E+00 6.01297E-13 1.06570E-12
 -1      2135 1.36153E+00-7.49946E+00-4.72758E-01 2.62152E+00 2.28789E-13 1.19177E-12
 -1      2136 1.98990E+01-3.16465E+00 2.07229E-02 6.86771E+00 9.67892E-13 6.48870E-13
 -1      2137 1.48647E+01-5.00462E+00-2.78233E-01 6.22537E+00 9.17877E-13 5.29632E-13
 -1      2138 2.88544E+01 4.23402E-01 2.21787E-01 5.88958E+00 9.18821E-13 7.70939E-13
 -1      2139 2.38219E+01-1.70660E+00-1.24671E-01 5.57101E+00 1.00397E-12 7.39242E-13
 -1      2140 1.95548E+01 4.04766E+00-2.52609E-02-1.61123E+00-1.64585E-13-4.34187E-13
 -1      2141 1.96859E+01 3.96768E+00-2.39630E-02-1.86545E+00-2.13269E-13-3.86344E-13
 -1      2142 2.00034E+01 3.26368E+00-1.84351E-02-1.82781E+00-2.35432E-13-3.28331E-13
 -1      2143 1.97182E+01 3.63873E+00-6.14754E-03-1.42563E+00-1.62769E-13-4.10528E-13
 -1      2144 3.95821E+01 6.40766E+00 4.33870E-01 1.29206E+00 1.02118E-12 9.88098E-15
 -1      2145 3.63167E+01 5.42571E+00 1.39206E-01 1.77540E+00 1.06537E-12 7.96585E-14
 -1      2146 3.94676E+01 7.34686E+00 2.73049E-01-3.22010E-01 1.03112E-12-1.93838E-13
 -1      2147 3.98959E+01 7.00547E+00 3.27040E-01 8.00000E-01 1.04872E-12-1.62648E-14
 -1      2148 3.52566E+01 7.47781E+00 2.52186E-01-2.48486E-01 1.12421E-12-2.03504E-13
 -1      2149 3.86047E+01 5.91382E+00 3.08330E-01-2.30232E+00 8.65918E-13-5.95801E-13
 -1      2150 3.98210E+01 6.72046E+00 3.21842E-01-8.83108E-01 9.22262E-13-2.38837E-13
 -1      2151 3.31257E+01 2.90156E+00 3.09863E-02-3.24076E+00 8.04821E-13-6.03517E-13
 -1      2152 3.69983E+01 4.35093E+00 3.40312E-01-2.75551E+00 7.86482E-13-5.50893E-13
 -1      2153 2.64578E+01-9.08472E-01-1.18006E-01-5.02394E+00 6.45095E-13-7.20202E-13
 -1      2154 3.09736E+01 7.67490E-01 1.65802E-01-4.62877E+00 6.86062E-13-6.36324E-13
 -1      2155 1.91479E+01-3.54107E+00-2.19873E-01-6.05681E+00 4.83724E-13-7.95086E-13
 -1      2156 2.39546E+01-1.69928E+00 1.04040E-01-6.45422E+00 5.98133E-13-7.54286E-13
 -1      2157 2.69693E+01-2.93588E+00 9.96553E-02-4.12345E+00 1.72085E-13-3.53773E-13
 -1      2158 1.12830E+01-5.65553E+00-2.06493E-01-6.35355E+00 1.07470E-13-9.15097E-13
 -1      2159 1.48654E+01-4.12289E+00-8.86226E-02-6.88850E+00 4.41092E-13-9.72333E-13
 -1      2160 3.58985E+00-6.92536E+00-4.06942E-01-4.07931E+00-6.71130E-14-9.76635E-13
 -1      2161 6.82300E+00-5.60840E+00-1.96863E-01-5.74000E+00 5.63438E-14-1.04358E-12
 -1      2162 7.88545E-01-6.01866E+00-2.34637E-01-1.19674E+00-1.54834E-13-8.16180E-13
 -1      2163 1.64983E+00-6.54478E+00-3.28516E-01-2.84526E+00-1.22680E-14-8.56482E-13
 -1      2164 4.28619E+00-4.59059E+00-1.04247E-01-4.28888E+00-1.89210E-13-9.44689E-13
 -1      2165 1.70804E+00-7.09178E+00-4.26226E-01 2.86699E+00-4.83058E-13-8.08076E-13
 -1      2166 7.39918E-01-6.39409E+00-3.00828E-01 1.42939E+00-1.96218E-13-8.32556E-13
 -1      2167 7.61762E+00-5.67885E+00-1.96996E-01 5.82959E+00-4.04676E-13-6.55559E-13
 -1      2168 4.03767E+00-7.16632E+00-4.62671E-01 4.07744E+00-4.42923E-13-8.13904E-13
 -1      2169 4.80827E+00-4.89772E+00-1.07114E-01 4.53305E+00-1.12854E-13-8.47877E-13
 -1      2170 1.62877E+01-4.22490E+00-5.02445E-02 6.82436E+00-6.52700E-13-6.50646E-13
 -1      2171 1.22088E+01-5.75130E+00-1.98234E-01 6.27860E+00-5.08371E-13-5.09870E-13
 -1      2172 2.51080E+01-2.07618E+00 5.29866E-02 6.00606E+00-6.51368E-13-6.12899E-13
 -1      2173 1.99039E+01-3.78322E+00-2.22575E-01 5.89081E+00-6.25444E-13-6.24167E-13
 -1      2174 2.04985E+01-5.20091E+00 1.12460E-03 6.03652E+00-2.04503E-13-2.68063E-13
 -1      2175 3.33599E+01 1.61880E+00 2.40553E-01 3.92750E+00-9.35571E-13-1.85296E-13
 -1      2176 2.88356E+01-3.49363E-01-4.70205E-02 4.17363E+00-8.58508E-13-3.95017E-13
 -1      2177 3.90167E+01 5.15098E+00 3.86119E-01 2.06456E+00-9.29506E-13-1.11022E-15
 -1      2178 3.52090E+01 3.75299E+00 8.06002E-02 2.59085E+00-1.01893E-12-1.64091E-13
 -1      2179 4.04761E+01 6.95861E+00 3.29510E-01 1.68043E-01-7.57172E-13 2.30815E-13
 -1      2180 3.92388E+01 6.46191E+00 2.46229E-01 1.26321E+00-8.45379E-13 3.66374E-15
 -1      2181 3.92254E+01 6.74061E+00 2.31279E-01-1.05146E+00-9.90263E-13 5.24025E-13
 -1      2182 4.10839E+01 7.05880E+00 4.04830E-01-7.99138E-02-8.44769E-13 4.41994E-13
 -1      2183 3.59990E+01 3.92032E+00 1.77878E-01-2.81954E+00-9.89070E-13 6.47038E-13
 -1      2184 3.84256E+01 5.16102E+00 2.80297E-01-1.64687E+00-9.76053E-13 5.15976E-13
 -1      2185 3.00550E+01 5.34557E-01-3.09523E-02-4.01640E+00-9.58095E-13 7.32192E-13
 -1      2186 3.45679E+01 2.35813E+00 3.04679E-01-3.93375E+00-1.02561E-12 6.59139E-13
 -1      2187 3.38463E+01 2.48419E+00 2.33157E-01-7.20612E-01-8.25631E-13 1.94234E-13
 -1      2188 2.17818E+01-3.15990E+00-1.94555E-01-5.64718E+00-7.33746E-13 9.38971E-13
 -1      2189 2.67955E+01-1.37969E+00 9.70041E-02-5.68455E+00-8.16902E-13 7.84983E-13
 -1      2190 1.30741E+01-5.49681E+00-3.46300E-01-5.96964E+00-7.75602E-13 9.20097E-13
 -1      2191 1.77422E+01-3.77139E+00-3.61867E-02-6.78844E+00-7.45182E-13 1.16801E-12
 -1      2192 6.25075E+00-6.75061E+00-3.89841E-01-4.93963E+00-4.15501E-13 9.98590E-13
 -1      2193 9.57242E+00-5.37373E+00-1.64023E-01-6.11589E+00-6.55143E-13 8.92585E-13
 -1      2194 1.26820E+00-7.41822E+00-4.45331E-01-2.40282E+00-6.05627E-14 1.17290E-12
 -1      2195 3.02216E+00-6.76980E+00-3.61959E-01-3.76712E+00-4.27769E-13 1.16440E-12
 -1      2196 3.49370E+01 3.26482E+00 2.03859E-01 3.11646E+00 1.04702E-12 2.35312E-13
 -1      2197 3.14983E+01 1.92980E+00 1.17660E-01 4.44925E+00 1.03324E-12 6.16063E-13
 -1      2198 2.37594E+01-3.91762E+00 4.48426E-02 5.31628E+00 5.96856E-13 3.18079E-13
 -1      2199 2.07672E+01 1.10891E+00-2.00008E-02-1.54622E+00-3.08534E-13 1.13675E-13
 -1      2200 3.03862E+01-2.25605E-01 1.80394E-01 2.96405E+00 7.40172E-13 3.05089E-13
 -1      2201 3.26459E+01 4.60926E+00-1.02546E-01-8.83908E-01 1.06964E-12-2.38198E-13
 -1      2202 3.46360E+01 3.98631E+00 1.63100E-01 1.13005E+00 1.07933E-12 5.71210E-14
 -1      2203 3.20801E+01 2.50364E+00 7.36570E-02 1.20217E-01 9.69891E-13-2.63678E-14
 -1      2204 2.06754E+01 1.33781E+00-1.84924E-02-1.58784E+00-3.16058E-13-2.75092E-14
 -1      2205 6.96933E+00-5.35230E+00-1.29591E-01 5.76707E+00 2.17493E-13 8.70776E-13
 -1      2206 2.06001E+00-4.98348E+00-2.05907E-01 2.35955E+00-7.27751E-14 1.35897E-12
 -1      2207 2.00019E+01 1.45824E-03 1.21062E-05 1.04508E-03-9.14129E-14-1.08278E-13
 -1      2208 1.52493E+01-5.48205E+00-2.52883E-02 6.87843E+00 4.59688E-13 3.17791E-13
 -1      2209 1.89687E+00-5.13295E+00-2.18896E-01-1.88241E+00-3.48749E-14 1.35092E-12
 -1      2210 6.58458E+00-5.40099E+00-1.51481E-01-5.51801E+00-5.75096E-14 1.08849E-12
 -1      2211 1.39360E+01-5.69900E+00-6.10904E-02-6.68271E+00-1.17240E-13 8.00290E-13
 -1      2212 2.93825E+01-1.82258E+00 1.13038E-01-3.04143E+00-5.39763E-13 3.16747E-13
 -1      2213 3.60008E+01 6.23424E+00 2.79243E-01 1.98936E-01-9.08384E-13 2.40585E-13
 -1      2214 3.61511E+01 8.00219E+00 3.19845E-01-8.00249E-02-9.51295E-13 1.13205E-13
 -1      2215 3.55828E+01 6.24624E+00 2.93184E-01-2.76276E-01-9.31755E-13 1.82021E-13
 -1      2216 2.80217E+01-2.62597E+00 8.82014E-02 3.71115E+00-4.26326E-13-6.83897E-14
 -1      2217 1.14509E+01-5.59525E+00-8.05455E-02 6.36762E+00-2.24432E-13-4.76043E-13
 -1      2218 1.11538E+01-4.73016E+00 1.42919E-01 6.59933E+00 1.32505E-13-4.21163E-13
 -1      2219 1.51682E+01-5.60525E+00-1.38606E-01 6.86292E+00 8.46545E-14-2.88290E-13
 -1      2220 1.74076E+00-4.89759E+00-1.35732E-01 1.62429E-01-1.08611E-13-8.61755E-13
 -1      2221 3.12532E+00-2.86068E+00 4.47059E-02-1.05585E+00-1.01363E-13-8.38440E-13
 -1      2222 3.00883E+00-3.10362E+00 1.04202E-02 1.59863E+00-1.04639E-14-8.49432E-13
 -1      2223 1.99590E+01-4.95763E+00-1.46783E-02-6.31138E+00-3.51941E-14-5.75817E-13
 -1      2224 3.16796E+01 5.89001E-01 1.28089E-01-1.48391E+00 5.01345E-13-1.82965E-13
 -1      2225 3.62224E+01 7.73379E+00 2.99559E-01-8.20133E-02 1.03018E-12-1.47077E-13
 -1      2226 3.49268E+01 5.18119E+00 2.71393E-01-1.64554E-01 7.69551E-13-1.32283E-13
 -1      2227 1.03789E+01-5.53674E+00-9.40941E-02-6.43026E+00-1.18960E-13-8.91509E-13
 -1      2228 1.38198E+01-5.41870E+00-1.48980E-01-7.08322E+00-3.40061E-13-6.63067E-13
 -1      2229 9.93963E+00-4.56686E+00 1.28118E-01-6.58482E+00-2.94237E-13-8.23314E-13
 -1      2230 3.34955E+01 1.99394E+00 1.99538E-01 9.35393E-01-8.18956E-13 2.82607E-13
 -1      2231 2.19785E+01-4.84095E+00 2.47038E-02-5.70310E+00-2.73725E-13 6.28664E-13
 -1      2232 2.02436E+01 5.28338E-01 4.93332E-03 5.73186E-01 2.33247E-13 3.59203E-13
 -1      2233 2.04848E+01 7.15790E-01 2.08666E-02 8.74086E-01 2.66362E-13 3.99228E-13
 -1      2234 1.95174E+01 3.62933E+00-1.13453E-02-5.31427E-01 1.09603E-14-4.14949E-13
 -1      2235 1.95650E+01 3.57687E+00-9.98569E-03-7.02359E-01-3.50196E-14-4.27793E-13
 -1      2236 1.96252E+01 3.47500E+00-1.32215E-02-8.53097E-01-6.26624E-14-4.23724E-13
 -1      2237 1.97010E+01 3.38548E+00-1.21719E-02-1.03346E+00-1.03641E-13-4.22140E-13
 -1      2238 1.97532E+01 3.15633E+00 9.71846E-04-7.02191E-01-3.76845E-14-3.87966E-13
 -1      2239 1.94514E+01 3.72592E+00-9.40180E-03 8.96284E-02 1.51643E-13-3.47606E-13
 -1      2240 1.94505E+01 3.72697E+00-9.44720E-03-7.31742E-02 1.05748E-13-3.66525E-13
 -1      2241 1.94878E+01 3.67927E+00-9.31556E-03 4.00591E-01 2.13822E-13-3.32011E-13
 -1      2242 1.94635E+01 3.70553E+00-1.01676E-02 2.35433E-01 1.77650E-13-3.41151E-13
 -1      2243 1.96053E+01 3.37403E+00-1.44557E-05 1.47594E-01 1.54619E-13-3.18912E-13
 -1      2244 1.95707E+01 3.56719E+00-1.00540E-02 7.14922E-01 2.69998E-13-2.97425E-13
 -1      2245 1.95225E+01 3.62072E+00-1.14392E-02 5.46320E-01 2.29441E-13-3.26939E-13
 -1      2246 1.96567E+01 3.29866E+00 2.94085E-04 4.28441E-01 2.05060E-13-3.01295E-13
 -1      2247 1.97093E+01 3.37105E+00-1.22912E-02 1.04625E+00 3.42857E-13-1.86389E-13
 -1      2248 1.96319E+01 3.46321E+00-1.32749E-02 8.66117E-01 2.96936E-13-2.46158E-13
 -1      2249 1.97597E+01 3.14379E+00 8.68991E-04 7.13191E-01 2.76136E-13-2.36561E-13
 -1      2250 1.99162E+01 3.05939E+00-1.74518E-02 1.38181E+00 3.88654E-13-8.97902E-14
 -1      2251 1.98030E+01 3.21055E+00-1.56785E-02 1.19573E+00 3.49685E-13-1.42730E-13
 -1      2252 1.99210E+01 2.89068E+00 2.33575E-03 9.98371E-01 3.29954E-13-1.41607E-13
 -1      2253 2.02140E+01 2.57368E+00-2.77497E-02 1.68621E+00 4.08365E-13 5.89945E-14
 -1      2254 2.00543E+01 2.82281E+00-1.75492E-02 1.51122E+00 3.87343E-13-2.52090E-14
 -1      2255 2.01462E+01 2.50948E+00 5.99767E-03 1.25587E+00 3.53737E-13-2.96750E-14
 -1      2256 2.00209E+01 3.02483E-01 6.28604E-03 1.51482E-01 1.87214E-13 3.18459E-13
 -1      2257 2.01472E+01 3.95812E-01 2.03312E-02 3.23124E-01 2.07008E-13 3.48912E-13
 -1      2258 2.03080E+01 6.69348E-01-3.07005E-03 5.70789E-01 2.43655E-13 1.97050E-13
 -1      2259 2.04790E+01 8.84802E-01 1.37946E-02-8.82496E-01-2.44421E-13-7.46827E-14
 -1      2260 2.02916E+01 6.65017E-01-3.15394E-03-5.61371E-01-2.10299E-13-7.68100E-14
 -1      2261 3.05138E+01-4.30370E-01-8.45780E-02 1.32099E+00 6.75437E-13 2.68674E-14
 -1      2262 2.85187E+01-2.12640E+00-1.98096E-02 2.22641E+00 4.40946E-13 7.33857E-14
 -1      2263 2.02424E+01 5.16697E-01 1.60998E-02-3.24895E-01-1.73808E-13-4.65894E-14
 -1      2264 2.01352E+01 4.01709E-01 1.91673E-03-1.33224E-01-1.37354E-13-5.46492E-14
 -1      2265 2.03400E+01 8.06034E-01-1.59020E-03-5.34056E-01-1.90568E-13-1.13079E-13
 -1      2266 2.00931E+01 3.26263E-01 1.07903E-02 3.11807E-02-1.18578E-13-3.48682E-14
 -1      2267 2.00580E+01 2.66359E-01 2.97844E-03 1.56121E-01-1.03747E-13-6.19018E-14
 -1      2268 2.02157E+01 4.98802E-01-4.38987E-03-1.00825E-01-1.34884E-13-1.12045E-13
 -1      2269 2.00411E+01 2.27582E-01 6.33642E-03 2.73897E-01-9.94107E-14-4.75656E-14
 -1      2270 2.00619E+01 1.98271E-01 3.47496E-03 3.63365E-01-7.89774E-14-6.00413E-14
 -1      2271 2.01464E+01 3.38553E-01-4.45241E-03 2.04760E-01-1.04430E-13-9.01021E-14
 -1      2272 2.00706E+01 1.80239E-01 3.52077E-03 4.54498E-01-6.20894E-14-5.32640E-14
 -1      2273 2.01344E+01 1.69066E-01 3.91976E-03 5.26515E-01-4.38211E-14-5.38575E-14
 -1      2274 2.01361E+01 2.58209E-01-3.85780E-03 4.31202E-01-8.37944E-14-8.99793E-14
 -1      2275 2.01655E+01 1.63470E-01 1.79344E-03 6.04778E-01-5.38450E-14-5.71476E-14
 -1      2276 2.02637E+01 1.63224E-01 4.33414E-03 6.70160E-01-3.86896E-14-7.34982E-14
 -1      2277 2.01778E+01 2.25039E-01-3.15230E-03 6.14332E-01-4.93088E-14-5.72710E-14
 -1      2278 2.03144E+01 1.64698E-01 7.39663E-04 7.44508E-01-1.38693E-14-8.97355E-14
 -1      2279 2.04423E+01 1.69984E-01 4.65120E-03 8.09392E-01-2.36818E-14-7.87181E-14
 -1      2280 2.02635E+01 2.19904E-01-2.56688E-03 7.78262E-01-3.78780E-14-1.03297E-13
 -1      2281 2.05107E+01 1.73753E-01 1.59862E-04 8.84839E-01-5.79984E-14-6.15363E-14
 -1      2282 2.06656E+01 1.78980E-01 4.73039E-03 9.51378E-01-8.53563E-14-5.56208E-14
 -1      2283 2.03876E+01 2.28559E-01-2.17781E-03 9.37959E-01-5.28415E-14-1.11802E-13
 -1      2284 2.07522E+01 1.79329E-01 5.09164E-06 1.02899E+00-9.39475E-14-3.72846E-14
 -1      2285 2.09325E+01 1.77156E-01 4.33836E-03 1.09489E+00-5.77476E-14-4.70124E-14
 -1      2286 2.05474E+01 2.36452E-01-2.05056E-03 1.10018E+00-8.14584E-14-3.60129E-14
 -1      2287 2.10405E+01 1.66090E-01 3.54014E-04 1.17096E+00-1.40185E-14-5.30807E-15
 -1      2288 2.12445E+01 1.46003E-01 3.12856E-03 1.22810E+00 3.34852E-14 7.61891E-15
 -1      2289 2.07447E+01 2.24800E-01-2.32690E-03 1.26280E+00-1.97137E-14 1.51389E-14
 -1      2290 2.13817E+01 1.12133E-01 1.40784E-03 1.29241E+00 5.59558E-14 3.62020E-14
 -1      2291 2.16067E+01 5.95564E-02 6.34617E-04 1.32481E+00 6.03506E-14 7.83197E-14
 -1      2292 2.09877E+01 1.67192E-01-3.28233E-03 1.41252E+00 4.89586E-14 1.18829E-13
 -1      2293 2.17875E+01-1.20043E-02 3.44269E-03 1.35810E+00 3.36318E-14 3.68803E-14
 -1      2294 2.20285E+01-1.14543E-01-3.65827E-03 1.34000E+00 4.49124E-14 6.89746E-14
 -1      2295 2.12942E+01 2.77238E-02-5.32591E-03 1.52094E+00 5.48292E-14 8.44307E-14
 -1      2296 2.22749E+01-2.38983E-01 6.68612E-03 1.31088E+00 1.85357E-14 8.29560E-14
 -1      2297 2.25227E+01-4.05030E-01-1.00071E-02 1.20692E+00-1.88217E-15 7.68636E-14
 -1      2298 2.16956E+01-2.35512E-01-8.77692E-03 1.53917E+00 3.30579E-14 7.21672E-14
 -1      2299 2.28599E+01-5.87116E-01 1.07388E-02 1.07058E+00-3.78603E-15 1.02694E-13
 -1      2300 2.30960E+01-8.08759E-01-1.80837E-02 8.42640E-01-5.04024E-14 1.39372E-13
 -1      2301 2.22356E+01-6.52355E-01-1.31686E-02 1.39281E+00 1.13216E-14 1.12554E-13
 -1      2302 2.35361E+01-1.01924E+00 1.33829E-02 5.45571E-01-7.25383E-14 1.40937E-13
 -1      2303 2.37245E+01-1.23074E+00-2.50821E-02 1.73312E-01-1.12497E-13 1.84064E-13
 -1      2304 2.29561E+01-1.19795E+00-1.68551E-02 9.83811E-01-7.21959E-14 1.11057E-13
 -1      2305 2.42220E+01-1.36925E+00 8.77141E-03-3.13070E-01-9.68136E-14 2.91789E-13
 -1      2306 2.43146E+01-1.41905E+00-2.34795E-02-7.87033E-01-8.55470E-14 3.10908E-13
 -1      2307 2.38491E+01-1.70388E+00-1.53883E-02 2.13350E-01-4.52611E-14 2.68247E-13
 -1      2308 2.47114E+01-1.30961E+00-1.24515E-02-1.38346E+00-1.31193E-13 3.26767E-13
 -1      2309 2.46791E+01-9.95344E-01-3.56819E-03-1.79414E+00-1.36227E-13 3.12119E-13
 -1      2310 2.47430E+01-1.78738E+00-1.41603E-02-9.15762E-01-9.88155E-14 3.96672E-13
 -1      2311 2.47634E+01-4.89787E-01-4.90098E-02-2.24329E+00-1.43302E-13 3.25327E-13
 -1      2312 2.45942E+01 2.58498E-01 1.14847E-02-2.31751E+00-1.62582E-13 3.07375E-13
 -1      2313 2.53565E+01-9.72974E-01 3.98176E-03-2.10923E+00-1.57159E-13 4.92171E-13
 -1      2314 2.43439E+01 1.05516E+00-7.22669E-02-2.17796E+00-1.84276E-13 2.65636E-13
 -1      2315 2.41476E+01 1.83566E+00 3.32486E-03-1.70469E+00-1.09301E-13 2.05171E-13
 -1      2316 2.53785E+01 8.46573E-01-1.45571E-02-2.49630E+00-2.28338E-13 4.71477E-13
 -1      2317 2.39042E+01 2.38151E+00-5.08159E-02-8.39131E-01-1.75013E-13-7.64124E-15
 -1      2318 2.38568E+01 2.56044E+00-3.39554E-02 1.73484E-02-2.00694E-13-1.05622E-13
 -1      2319 2.49671E+01 2.71604E+00-5.32085E-02-1.45550E+00-2.82212E-13 2.08533E-13
 -1      2320 2.39705E+01 2.33476E+00-8.31258E-03 1.05406E+00-1.94900E-13-3.45899E-13
 -1      2321 2.41224E+01 1.75533E+00-6.51812E-02 1.75077E+00-2.25750E-13-3.88802E-13
 -1      2322 2.48437E+01 3.13875E+00-6.89654E-02 6.14772E-01-3.47049E-13-2.60811E-13
 -1      2323 2.44281E+01 9.78742E-01 1.22723E-02 2.23701E+00-2.83717E-13-4.67380E-13
 -1      2324 2.46424E+01 1.50962E-01-5.99804E-02 2.39243E+00-1.74891E-13-5.27012E-13
 -1      2325 2.52064E+01 1.75395E+00-3.54874E-02 2.22660E+00-3.31610E-13-5.30593E-13
 -1      2326 2.47139E+01-5.35390E-01-1.05665E-03 2.16777E+00-1.54571E-13-5.16434E-13
 -1      2327 2.48343E+01-1.05136E+00-2.74243E-02 1.86253E+00-1.35763E-13-6.44160E-13
 -1      2328 2.54582E+01-2.44717E-01-1.00124E-03 2.39855E+00-2.32803E-13-5.75453E-13
 -1      2329 2.45478E+01-1.32418E+00-1.86806E-02 1.29050E+00-6.89184E-14-6.06185E-13
 -1      2330 2.45178E+01-1.41175E+00 1.28553E-03 8.15342E-01-1.10710E-13-5.27512E-13
 -1      2331 2.51158E+01-1.53595E+00 4.03377E-03 1.47053E+00-1.08633E-13-5.85165E-13
 -1      2332 2.40467E+01-1.35128E+00-2.48710E-02 2.67344E-01-5.49786E-14-4.49348E-13
 -1      2333 2.38983E+01-1.18677E+00 1.20379E-02-1.57270E-01 5.27833E-14-4.13009E-13
 -1      2334 2.42996E+01-1.79611E+00-7.01698E-03 2.87814E-01-6.00553E-14-3.93848E-13
 -1      2335 2.34316E+01-9.86389E-01-2.10164E-02-5.30031E-01 4.49189E-14-4.91292E-13
 -1      2336 2.32198E+01-7.55697E-01 1.22571E-02-8.15832E-01 1.07021E-13-4.72385E-13
 -1      2337 2.33797E+01-1.41627E+00-1.42299E-02-6.32851E-01 1.36449E-14-3.69100E-13
 -1      2338 2.28444E+01-5.51554E-01-1.32647E-02-1.00856E+00 2.24456E-13-4.55385E-13
 -1      2339 2.26117E+01-3.56174E-01 8.86712E-03-1.15545E+00 2.40552E-13-4.99077E-13
 -1      2340 2.25883E+01-8.53988E-01-1.35559E-02-1.17587E+00 1.63218E-13-3.58718E-13
 -1      2341 2.23358E+01-2.03641E-01-6.18027E-03-1.21633E+00 1.06547E-13-4.37958E-13
 -1      2342 2.21066E+01-7.22467E-02 5.37143E-03-1.25867E+00 6.64880E-14-4.47164E-13
 -1      2343 2.19861E+01-3.67817E-01-9.77571E-03-1.40700E+00 1.63902E-13-4.01852E-13
 -1      2344 2.19081E+01 2.22617E-02-1.12218E-03-1.23801E+00 8.11352E-15-5.44929E-13
 -1      2345 2.16945E+01 9.62567E-02 2.86686E-03-1.21428E+00 8.50359E-14-4.55421E-13
 -1      2346 2.15459E+01-3.52088E-02-6.18638E-03-1.43011E+00 4.06930E-14-3.85329E-13
 -1      2347 2.15488E+01 1.45221E-01 1.99487E-03-1.14996E+00 1.25311E-13-4.62368E-13
 -1      2348 2.13569E+01 1.78428E-01 1.37013E-03-1.09107E+00 6.21632E-14-2.64569E-13
 -1      2349 2.12206E+01 1.56080E-01-3.75482E-03-1.33231E+00 1.54911E-13-6.00877E-13
 -1      2350 2.12459E+01 1.97279E-01 3.63242E-03-1.00815E+00-4.34765E-14-2.89132E-13
 -1      2351 2.10783E+01 2.05283E-01 5.88894E-04-9.35155E-01-6.16227E-14-3.39768E-13
 -1      2352 2.09717E+01 2.45177E-01-2.37742E-03-1.17469E+00 7.68312E-15-4.33803E-13
 -1      2353 2.09906E+01 2.06514E-01 4.26559E-03-8.48846E-01-8.14117E-15-2.80695E-13
 -1      2354 2.08479E+01 2.00717E-01 2.32632E-04-7.74543E-01 3.54740E-15-3.54301E-13
 -1      2355 2.07742E+01 2.70061E-01-1.68386E-03-9.96387E-01-1.58111E-14-4.07999E-13
 -1      2356 2.07770E+01 1.92845E-01 4.27798E-03-6.93285E-01 5.72026E-14-2.55317E-13
 -1      2357 2.06582E+01 1.80586E-01 9.82973E-05-6.24565E-01 1.25618E-13-1.75647E-13
 -1      2358 2.06135E+01 2.59070E-01-1.35485E-03-8.20583E-01 1.04906E-13-2.70506E-13
 -1      2359 2.06003E+01 1.68852E-01 3.94614E-03-5.52452E-01 1.09824E-13-8.36147E-14
 -1      2360 2.05034E+01 1.54450E-01 6.56472E-05-4.92430E-01 1.36888E-13 1.99027E-14
 -1      2361 2.04814E+01 2.30742E-01-1.18675E-03-6.59713E-01 1.97739E-13-1.00211E-13
 -1      2362 2.04564E+01 1.41825E-01 3.45346E-03-4.30919E-01 8.31534E-15 1.57463E-13
 -1      2363 2.03789E+01 1.27621E-01 7.13124E-05-3.80469E-01 1.46605E-14 1.51132E-13
 -1      2364 2.03730E+01 1.96162E-01-1.07288E-03-5.19370E-01 2.24358E-13 1.32881E-14
 -1      2365 2.03409E+01 1.15653E-01 2.91298E-03-3.29505E-01-3.39794E-15 9.62143E-14
 -1      2366 2.02802E+01 1.02786E-01 8.55770E-05-2.88277E-01-7.50528E-15-6.64541E-16
 -1      2367 2.02846E+01 1.61450E-01-9.67553E-04-4.01012E-01-1.78839E-14 1.96038E-13
 -1      2368 2.02499E+01 9.21807E-02 2.38929E-03-2.47011E-01 1.73045E-13-1.28920E-14
 -1      2369 2.02031E+01 8.10983E-02 9.64869E-05-2.14059E-01 2.60919E-13 7.80058E-14
 -1      2370 2.02137E+01 1.29664E-01-8.57379E-04-3.03750E-01 7.99954E-14 2.13943E-13
 -1      2371 2.01795E+01 7.20902E-02 1.91557E-03-1.81285E-01 2.02488E-13 7.49785E-14
 -1      2372 2.01441E+01 6.28628E-02 1.00668E-04-1.55437E-01 5.02765E-14 2.18814E-13
 -1      2373 2.01575E+01 1.02076E-01-7.42796E-04-2.25500E-01 2.43136E-13 1.70821E-13
 -1      2374 2.01259E+01 5.54327E-02 1.50549E-03-1.29854E-01-9.54778E-14 3.13220E-13
 -1      2375 2.00998E+01 4.79385E-02 9.83588E-05-1.09920E-01-9.62162E-15 2.79897E-13
 -1      2376 2.01138E+01 7.89677E-02-6.28435E-04-1.63692E-01 8.87974E-14 3.09863E-13
 -1      2377 2.00860E+01 4.19443E-02 1.16128E-03-9.02750E-02-6.63693E-14 1.06367E-13
 -1      2378 2.00671E+01 3.59754E-02 9.09708E-05-7.51518E-02-7.83687E-14 7.39659E-14
 -1      2379 2.00805E+01 6.01034E-02-5.19111E-04-1.15691E-01-9.97673E-14 2.83882E-13
 -1      2380 2.00569E+01 3.12231E-02 8.79146E-04-6.03162E-02 3.38846E-15 1.47788E-14
 -1      2381 2.00436E+01 2.65390E-02 7.90863E-05-4.90384E-02 1.23831E-13 1.15767E-14
 -1      2382 2.00555E+01 4.50071E-02-4.18148E-04-7.90253E-02-4.69369E-14 8.18391E-14
 -1      2383 2.00362E+01 2.28149E-02 6.51967E-04-3.80428E-02 1.32827E-13-1.93861E-13
 -1      2384 2.00272E+01 1.91686E-02 6.21675E-05-2.98054E-02 1.92774E-13-1.01264E-13
 -1      2385 2.00372E+01 3.31011E-02-3.28354E-04-5.15075E-02 2.95517E-14-1.29174E-13
 -1      2386 2.00220E+01 1.62549E-02 4.70795E-04-2.18534E-02 2.32687E-13-1.76822E-13
 -1      2387 2.00161E+01 1.34101E-02 4.86261E-05-1.60238E-02 8.51158E-14-1.09228E-13
 -1      2388 2.00240E+01 2.37880E-02-2.47224E-04-3.12920E-02 1.79929E-13-2.13217E-13
 -1      2389 2.00124E+01 1.09972E-02 3.11911E-04-1.04642E-02 7.36672E-14-7.39909E-15
 -1      2390 2.00088E+01 8.79287E-03 7.34972E-05-6.62063E-03 1.44088E-13 1.12927E-13
 -1      2391 2.00147E+01 1.64873E-02-1.67771E-04-1.68803E-02 1.44770E-13-3.23217E-13
 -1      2392 1.99344E+01 1.32463E-01 4.36061E-03-2.94084E-01 7.33452E-14 2.18646E-13
 -1      2393 1.99053E+01 1.57251E-01 7.35745E-03-2.22156E-01 9.35287E-14 2.36738E-13
 -1      2394 2.00253E+01 1.03545E-01 3.98242E-03-4.25531E-01 9.83934E-14 1.83740E-13
 -1      2395 1.99509E+01 1.15664E-01 4.26704E-03-3.71461E-01 8.24130E-14 1.99379E-13
 -1      2396 2.00517E+01 1.77459E-01-4.29306E-03-3.62838E-01 9.87853E-14 1.10752E-13
 -1      2397 2.01800E+01 8.98968E-02 3.77406E-03-5.31510E-01 9.00939E-14 2.10711E-13
 -1      2398 2.00713E+01 9.53417E-02 2.53372E-03-4.86486E-01 9.02643E-14 1.93835E-13
 -1      2399 2.01155E+01 1.40836E-01-3.57338E-03-5.15917E-01 1.00122E-13 1.13872E-13
 -1      2400 2.03864E+01 8.25592E-02 3.49914E-03-6.23830E-01 7.56201E-14 2.02587E-13
 -1      2401 2.02504E+01 8.56941E-02 1.56050E-03-5.83710E-01 7.41276E-14 2.19005E-13
 -1      2402 2.02335E+01 1.22997E-01-2.98097E-03-6.41367E-01 7.08059E-14 1.12152E-13
 -1      2403 2.06368E+01 7.35808E-02 2.94437E-03-7.06055E-01 6.48753E-14 1.99295E-13
 -1      2404 2.04782E+01 7.85558E-02 1.03114E-03-6.70440E-01 9.18664E-14 1.98539E-13
 -1      2405 2.03971E+01 1.11563E-01-2.59205E-03-7.50911E-01 9.14882E-14 1.35125E-13
 -1      2406 2.09246E+01 5.42705E-02 1.86914E-03-7.73797E-01 8.01183E-14 1.69920E-13
 -1      2407 2.07484E+01 6.57807E-02 7.89960E-04-7.46081E-01 7.60648E-14 1.96264E-13
 -1      2408 2.06013E+01 9.50966E-02-2.40000E-03-8.47176E-01 6.84125E-14 1.64016E-13
 -1      2409 2.12431E+01 1.44523E-02 7.20668E-06-8.13922E-01 1.05380E-13 1.36807E-13
 -1      2410 2.10558E+01 3.80012E-02 7.59540E-04-8.01764E-01 1.03812E-13 1.64233E-13
 -1      2411 2.08435E+01 6.09720E-02-2.39055E-03-9.23715E-01 1.18869E-13 9.33405E-14
 -1      2412 2.15828E+01-5.69461E-02-2.86826E-03-8.03572E-01 8.99660E-14 1.26527E-13
 -1      2413 2.13943E+01-1.55793E-02 8.97926E-04-8.19262E-01 8.68639E-14 1.20442E-13
 -1      2414 2.11230E+01-5.26273E-03-2.54985E-03-9.64081E-01 1.03993E-13 9.87758E-14
 -1      2415 2.19289E+01-1.68738E-01-6.77849E-03-7.10518E-01 5.16449E-14 1.12504E-13
 -1      2416 2.17543E+01-1.05582E-01 1.14551E-03-7.70300E-01 8.85472E-14 9.79046E-14
 -1      2417 2.14399E+01-1.18260E-01-2.80476E-03-9.40833E-01 8.33167E-14 1.19832E-13
 -1      2418 2.22584E+01-3.20016E-01-1.12653E-02-4.97661E-01-1.38856E-14 7.30901E-14
 -1      2419 2.21186E+01-2.37428E-01 1.34138E-03-6.18429E-01 2.91761E-14 1.05737E-13
 -1      2420 2.17919E+01-2.87088E-01-2.89254E-03-8.16241E-01 2.96515E-14 9.00321E-16
 -1      2421 2.25364E+01-4.87408E-01-1.50525E-02-1.35699E-01-5.22499E-14 4.30381E-14
 -1      2422 2.24575E+01-4.01362E-01 1.06249E-03-3.27115E-01-6.07210E-14 6.20198E-14
 -1      2423 2.21694E+01-5.03226E-01-2.23104E-03-5.48022E-01-2.03860E-14-2.65118E-14
 -1      2424 2.27128E+01-6.09946E-01-1.57326E-02 3.71664E-01 3.65099E-14 6.62951E-14
 -1      2425 2.27218E+01-5.57582E-01-5.59895E-04 1.20983E-01-3.99325E-14 4.55961E-14
 -1      2426 2.25447E+01-7.21490E-01 1.20123E-04-1.05019E-01-4.52713E-14-2.87317E-14
 -1      2427 2.27267E+01-5.86394E-01-1.01087E-02 9.50614E-01 2.47437E-14 1.87178E-13
 -1      2428 2.28409E+01-6.24009E-01-4.21115E-03 6.89873E-01 6.27857E-14 1.51898E-13
 -1      2429 2.28584E+01-8.43218E-01 4.82701E-03 5.00895E-01 1.80678E-14 5.97791E-14
 -1      2430 2.25288E+01-3.15203E-01 2.38219E-03 1.42488E+00-5.42422E-14 2.08247E-13
 -1      2431 2.27389E+01-4.88952E-01-9.51415E-03 1.24872E+00-3.00584E-14 2.38964E-13
 -1      2432 2.30156E+01-7.23191E-01 1.14100E-02 1.16686E+00-7.34556E-14 2.60141E-13
 -1      2433 2.21382E+01 2.05392E-01 1.58461E-02 1.54341E+00-2.61319E-14 2.84706E-13
 -1      2434 2.23919E+01-8.43788E-02-1.42515E-02 1.56299E+00-6.10603E-14 2.64932E-13
 -1      2435 2.29222E+01-2.52618E-01 1.41038E-02 1.66112E+00-7.57916E-14 2.90702E-13
 -1      2436 2.16978E+01 7.85953E-01 2.02785E-02 1.11519E+00 5.54140E-14 2.75959E-13
 -1      2437 2.19052E+01 5.04242E-01-1.28761E-02 1.38588E+00 6.17978E-14 2.53774E-13
 -1      2438 2.25828E+01 4.97259E-01 4.42218E-03 1.67630E+00 1.11968E-14 4.34434E-13
 -1      2439 2.14470E+01 1.10332E+00 1.06704E-02 2.06897E-01 1.93293E-13 1.03784E-13
 -1      2440 2.15208E+01 9.97770E-01-1.05009E-03 6.53905E-01 9.02117E-14 1.40486E-13
 -1      2441 2.21908E+01 1.21089E+00-1.19768E-02 1.03061E+00 1.64384E-13 3.14337E-13
 -1      2442 2.15626E+01 9.45096E-01-6.02503E-03-8.06203E-01 1.46022E-13 1.64372E-13
 -1      2443 2.14673E+01 1.08788E+00 1.33161E-02-3.74404E-01 2.12639E-13 1.15841E-13
 -1      2444 2.20348E+01 1.48261E+00-1.94199E-02-9.82464E-02 1.89539E-13 1.22164E-13
 -1      2445 2.19921E+01 4.19845E-01-1.40930E-02-1.46826E+00-4.26477E-14 1.53445E-14
 -1      2446 2.17690E+01 7.12343E-01 2.05218E-02-1.23268E+00 7.98450E-14 6.28395E-14
 -1      2447 2.22470E+01 1.13187E+00-9.88315E-03-1.18724E+00 1.19911E-13 1.19469E-13
 -1      2448 2.24845E+01-1.51271E-01-1.31766E-02-1.56883E+00-1.09344E-13-3.87919E-14
 -1      2449 2.22242E+01 1.22617E-01 1.34078E-02-1.58002E+00-1.47319E-13-7.73080E-15
 -1      2450 2.26585E+01 3.86102E-01 6.13895E-03-1.74011E+00-2.25226E-14-4.50168E-14
 -1      2451 2.28126E+01-5.13676E-01-7.32575E-03-1.21012E+00 9.29040E-14-1.88797E-13
 -1      2452 2.26031E+01-3.65932E-01-7.53164E-04-1.39801E+00 7.07373E-14-1.54469E-13
 -1      2453 2.29779E+01-3.36886E-01 1.24181E-02-1.64361E+00 6.57861E-14-2.38756E-13
 -1      2454 2.28951E+01-6.10306E-01-1.61683E-03-6.47810E-01 3.13664E-14-1.56417E-13
 -1      2455 2.27829E+01-5.92791E-01-1.15283E-02-9.00985E-01 4.30376E-14-2.39980E-13
 -1      2456 2.30423E+01-7.49745E-01 9.59812E-03-1.11424E+00 9.50767E-14-3.29425E-13
 -1      2457 2.27697E+01-5.23428E-01 1.21699E-03-1.02283E-01-1.14628E-13-1.68203E-13
 -1      2458 2.27601E+01-5.84856E-01-1.54888E-02-3.35032E-01-4.61766E-14-2.14453E-13
 -1      2459 2.28697E+01-8.22340E-01 3.31709E-03-4.57797E-01 3.53979E-14-3.89774E-13
 -1      2460 2.25143E+01-3.60679E-01 2.08940E-03 3.10864E-01-4.06992E-14-1.23326E-13
 -1      2461 2.25872E+01-4.47968E-01-1.40957E-02 1.40368E-01-1.58073E-13-1.26415E-13
 -1      2462 2.25586E+01-6.75409E-01-1.22947E-03 1.14309E-01-1.53596E-13-5.14786E-13
 -1      2463 2.21980E+01-1.97999E-01 1.98475E-03 5.65081E-01-6.64985E-14 1.23921E-13
 -1      2464 2.23252E+01-2.78031E-01-1.01165E-02 4.63813E-01-2.50949E-14 5.00771E-15
 -1      2465 2.21999E+01-4.48666E-01-3.07362E-03 5.14861E-01-1.31917E-13-2.91634E-13
 -1      2466 2.18672E+01-7.04628E-02 1.58886E-03 6.82368E-01 7.79282E-14 2.31223E-14
 -1      2467 2.20226E+01-1.30043E-01-5.79870E-03 6.38990E-01 5.57419E-14 9.48111E-14
 -1      2468 2.18483E+01-2.33789E-01-3.24694E-03 7.40834E-01 1.89938E-14-2.16967E-13
 -1      2469 2.15494E+01 1.47738E-02 1.23408E-03 7.00878E-01 2.19055E-13-1.23133E-13
 -1      2470 2.17127E+01-2.33155E-02-2.23815E-03 6.98413E-01 1.36583E-13-2.23250E-14
 -1      2471 2.15278E+01-7.01693E-02-2.82511E-03 8.27400E-01 1.89078E-13-2.38367E-13
 -1      2472 2.12592E+01 6.37439E-02 9.97605E-04 6.57453E-01 1.60069E-14 4.96019E-14
 -1      2473 2.14164E+01 4.30506E-02 2.70734E-04 6.80030E-01 1.18183E-13 7.40190E-14
 -1      2474 2.12458E+01 3.66651E-02-2.33589E-03 8.18066E-01 6.03803E-14-1.78405E-13
 -1      2475 2.10036E+01 8.63157E-02 8.54519E-04 5.81045E-01-1.86006E-14 2.07791E-13
 -1      2476 2.11464E+01 7.78307E-02 1.80672E-03 6.16418E-01-1.86592E-14 1.42256E-13
 -1      2477 2.10024E+01 9.63310E-02-1.95074E-03 7.51070E-01-2.80258E-14 1.57393E-13
 -1      2478 2.07849E+01 9.17297E-02 7.61867E-04 4.91776E-01-1.74777E-14 2.63456E-13
 -1      2479 2.09091E+01 9.09367E-02 2.58558E-03 5.31581E-01-8.43943E-16 1.76745E-13
 -1      2480 2.07956E+01 1.22284E-01-1.67972E-03 6.55195E-01-3.38553E-14 2.42713E-13
 -1      2481 2.06024E+01 8.71082E-02 6.89072E-04 4.02324E-01 5.92453E-14 3.06817E-13
 -1      2482 2.07066E+01 9.06526E-02 2.83935E-03 4.41403E-01 6.09498E-14 3.23153E-13
 -1      2483 2.06221E+01 1.26645E-01-1.48244E-03 5.49980E-01 7.68810E-14 2.14788E-13
 -1      2484 2.04533E+01 7.73755E-02 6.20543E-04 3.19862E-01 7.11506E-14 2.13420E-13
 -1      2485 2.05384E+01 8.29943E-02 2.76406E-03 3.55387E-01 1.32254E-13 2.59437E-13
 -1      2486 2.04788E+01 1.18592E-01-1.32020E-03 4.47513E-01 1.43350E-13 2.93278E-13
 -1      2487 2.03342E+01 6.56812E-02 5.51121E-04 2.47829E-01-1.17116E-13 8.13413E-14
 -1      2488 2.04019E+01 7.19572E-02 2.50566E-03 2.78528E-01-8.19698E-14 1.40356E-13
 -1      2489 2.03624E+01 1.04404E-01-1.16990E-03 3.54480E-01 6.95228E-14 1.65074E-13
 -1      2490 2.02409E+01 5.38998E-02 4.81023E-04 1.87291E-01-1.34886E-14 1.16462E-13
 -1      2491 2.02935E+01 6.00095E-02 2.16382E-03 2.12860E-01-1.63533E-14 1.62964E-13
 -1      2492 2.02693E+01 8.80620E-02-1.02260E-03 2.73925E-01-7.30332E-14 6.73661E-14
 -1      2493 2.01693E+01 4.30484E-02 4.12324E-04 1.37921E-01 9.66433E-14 1.63052E-13
 -1      2494 2.02093E+01 4.85621E-02 1.80186E-03 1.58610E-01-2.89539E-14 9.44426E-14
 -1      2495 2.01961E+01 7.19096E-02-8.78101E-04 2.06589E-01-5.09966E-14 1.04905E-13
 -1      2496 2.01157E+01 3.35949E-02 3.47176E-04 9.86505E-02-6.34581E-14 4.73224E-14
 -1      2497 2.01452E+01 3.83316E-02 1.45693E-03 1.14989E-01 1.25600E-13 8.97427E-14
 -1      2498 2.01397E+01 5.71949E-02-7.39559E-04 1.51858E-01 1.19525E-13 9.65444E-14
 -1      2499 2.00764E+01 2.56732E-02 2.86915E-04 6.80915E-02-8.51398E-14-4.07990E-14
 -1      2500 2.00977E+01 2.96010E-02 1.14815E-03 8.07205E-02-5.31775E-14 7.02836E-14
 -1      2501 2.00971E+01 4.44687E-02-6.10414E-04 1.08421E-01 1.11393E-14 5.48834E-14
 -1      2502 2.00484E+01 1.92228E-02 2.30585E-04 4.48004E-02 9.84295E-14-1.08892E-13
 -1      2503 2.00632E+01 2.23950E-02 8.82883E-04 5.43636E-02-4.42170E-14-2.09445E-14
 -1      2504 2.00655E+01 3.38581E-02-4.93479E-04 7.46788E-02-2.91322E-15-1.28136E-13
 -1      2505 2.00291E+01 1.40940E-02 1.88115E-04 2.74344E-02-3.82981E-14 1.18295E-13
 -1      2506 2.00390E+01 1.65969E-02 6.61757E-04 3.45188E-02 2.21195E-14-2.88669E-14
 -1      2507 2.00427E+01 2.52450E-02-3.89440E-04 4.90147E-02-5.06119E-14-6.85172E-14
 -1      2508 2.00164E+01 9.99980E-03 1.42876E-04 1.47759E-02-9.03443E-14 3.53257E-13
 -1      2509 2.00226E+01 1.19975E-02 4.72506E-04 1.98841E-02-2.16640E-13 3.16437E-13
 -1      2510 2.00266E+01 1.84143E-02-3.07270E-04 2.99811E-02-1.31815E-13 2.04195E-13
 -1      2511 2.00084E+01 6.64315E-03 8.79685E-05 5.99130E-03 3.83802E-14 6.17969E-13
 -1      2512 2.00120E+01 8.28689E-03 3.32603E-04 9.48845E-03 3.33218E-14 5.35340E-13
 -1      2513 2.00156E+01 1.26913E-02-3.20143E-04 1.61357E-02-2.33386E-13 7.72107E-14
 -1      2514 2.00036E+01 3.72104E-03 3.98661E-05 4.74532E-04 2.45965E-13 6.32477E-13
 -1      2515 2.00056E+01 5.24391E-03 2.58956E-04 2.61514E-03 2.86140E-13 6.89724E-13
 -1      2516 2.00085E+01 7.90788E-03-2.82253E-04 6.55884E-03 1.41864E-13 4.76273E-13
 -1      2517 2.00019E+01 1.96554E-03 1.26361E-04-1.48118E-03 4.00412E-13 4.86099E-13
 -1      2518 1.99992E+01 2.39778E-02-1.56786E-04 8.85242E-03 2.74164E-14-8.88838E-14
 -1      2519 2.00006E+01 2.18826E-02 9.63126E-05 8.96354E-03-1.48330E-13-5.99311E-13
 -1      2520 1.99967E+01 2.88913E-02-1.58358E-04 6.88657E-03 5.77945E-14 3.71468E-13
 -1      2521 1.99979E+01 2.72643E-02 4.46083E-05 7.93155E-03-2.62051E-15 1.79373E-13
 -1      2522 1.99981E+01 3.28951E-02 1.25601E-04 1.06851E-02 9.40542E-14-4.18221E-14
 -1      2523 2.00040E+01 1.19008E-02-8.69509E-05 6.44961E-03-1.19634E-13-5.33385E-14
 -1      2524 2.00047E+01 9.91650E-03 1.31332E-04 5.02472E-03-9.34945E-14 9.44046E-14
 -1      2525 2.00020E+01 1.79824E-02-1.14156E-04 8.67103E-03-3.56382E-13-7.71222E-13
 -1      2526 2.00032E+01 1.58141E-02 1.32230E-04 7.77326E-03-2.65807E-13-2.73778E-13
 -1      2527 2.00044E+01 1.82685E-02-9.39065E-05 9.73265E-03-2.14370E-13-4.27171E-13
 -1      2528 2.00017E+01 2.59510E-02 7.85592E-05 1.15384E-02-2.23046E-13-4.19243E-13
 -1      2529 1.99952E+01 3.19504E-02-1.32594E-04 3.25896E-03 1.74810E-14-1.71643E-13
 -1      2530 1.99958E+01 3.10709E-02-2.16411E-05 4.96116E-03 8.06461E-14-7.24731E-15
 -1      2531 1.99952E+01 3.81697E-02 1.68817E-04 7.45474E-03-1.13286E-13 2.48127E-13
 -1      2532 1.99949E+01 3.26777E-02-8.40224E-05-1.15062E-03-1.58798E-13-1.02405E-13
 -1      2533 1.99949E+01 3.27032E-02-8.50701E-05 7.78238E-04-7.57124E-14-2.45598E-13
 -1      2534 1.99936E+01 4.09965E-02 1.92685E-04 2.54478E-03-1.95169E-15-2.02673E-13
 -1      2535 1.99959E+01 3.09612E-02-2.21671E-05-5.28894E-03-1.95427E-13 1.59298E-13
 -1      2536 1.99952E+01 3.18944E-02-1.32725E-04-3.61725E-03-2.36572E-13 1.83365E-13
 -1      2537 1.99936E+01 4.09695E-02 1.92218E-04-2.94631E-03-8.19996E-14-3.10157E-14
 -1      2538 1.99981E+01 2.71653E-02 4.32302E-05-8.12570E-03-7.86863E-14-3.24205E-14
 -1      2539 1.99968E+01 2.87942E-02-1.58989E-04-7.14341E-03-5.18999E-14 2.72505E-14
 -1      2540 1.99953E+01 3.81265E-02 1.72145E-04-7.76627E-03-1.40709E-13 1.53341E-13
 -1      2541 2.00008E+01 2.17449E-02 9.75997E-05-9.04621E-03 5.29886E-14 5.74876E-14
 -1      2542 1.99993E+01 2.38616E-02-1.57586E-04-8.99391E-03 1.20998E-15-8.36884E-14
 -1      2543 1.99983E+01 3.28557E-02 1.24179E-04-1.08768E-02-5.78849E-14-4.24694E-14
 -1      2544 2.00034E+01 1.55576E-02 1.16657E-04-7.76936E-03 3.14516E-13-2.99588E-14
 -1      2545 2.00021E+01 1.78105E-02-1.31624E-04-8.67233E-03 1.26627E-13 2.78763E-13
 -1      2546 2.00019E+01 2.58384E-02 5.68126E-05-1.15874E-02 9.31644E-14 9.67332E-14
 -1      2547 2.00048E+01 9.52302E-03 8.55754E-05-4.67308E-03-2.62230E-14-7.82353E-13
 -1      2548 2.00043E+01 1.15847E-02-8.02326E-05-6.24540E-03 2.88854E-13-6.34988E-13
 -1      2549 2.00051E+01 1.81839E-02 5.26222E-05-9.75282E-03 4.92800E-14-2.84695E-13
 -1      2550 4.26332E+00-3.17028E+00 4.35343E-02 3.59023E+00-1.28508E-13 1.21403E-12
 -1      2551 3.12481E+00-2.91964E+00 7.26097E-02 1.42242E+00-1.89834E-13 1.29768E-12
 -1      2552 1.82346E+01-5.35042E+00-5.94645E-02 6.73121E+00 1.56763E-13 1.19967E-13
 -1      2553 1.43500E+01-5.11247E+00 7.93996E-02 6.75050E+00 1.16074E-13 1.44933E-13
 -1      2554 1.99250E+01 1.90164E-01 5.17437E-03-1.14795E-01 1.29544E-13 2.62059E-13
 -1      2555 1.99594E+01 2.38324E-01 1.26878E-02-8.58099E-03 1.57892E-13 3.02051E-13
 -1      2556 2.00547E+01 2.50538E-01-4.81028E-03-1.59511E-01 1.42312E-13 1.43828E-13
 -1      2557 2.00030E+01 3.60978E-03 1.28923E-04 1.57985E-04-1.10607E-13-1.32189E-13
 -1      2558 2.88137E+00-3.02845E+00 5.10687E-02-9.41182E-01 3.24463E-14 1.35952E-12
 -1      2559 4.05020E+00-3.38936E+00 3.78938E-02-3.26951E+00 4.88498E-15 1.25572E-12
 -1      2560 1.00916E+01-4.31254E+00 1.21616E-02 6.62619E+00 1.84852E-14 5.67935E-13
 -1      2561 6.81189E+00-3.83583E+00 7.64449E-02 5.19384E+00-2.02005E-13 1.00364E-12
 -1      2562 2.05950E+01 1.96916E+00-1.30484E-02-1.79711E+00-3.03545E-13-1.41340E-13
 -1      2563 2.04745E+01 1.23189E+00-7.89629E-03-1.18225E+00-2.82566E-13-1.07187E-13
 -1      2564 2.04472E+01 1.42083E+00 7.88107E-03-1.11082E+00-2.49706E-13-1.52274E-13
 -1      2565 2.03432E+01 2.41960E+00 2.27175E-04-1.72974E+00-2.81890E-13-2.19876E-13
 -1      2566 6.15811E+00-3.95405E+00 6.21564E-02-4.70438E+00 6.98885E-14 1.08022E-12
 -1      2567 9.08849E+00-4.23831E+00-1.96948E-03-6.14817E+00 8.24618E-14 8.38080E-13
 -1      2568 6.70224E+00-2.48621E+00 1.51477E-01-3.93488E+00 5.31103E-14 1.14864E-12
 -1      2569 3.26729E+01 4.77092E+00-7.26017E-02 1.09431E+00-8.27838E-13 1.40443E-14
 -1      2570 3.30682E+01 6.35279E+00-1.28437E-01 9.11305E-01-9.28591E-13-3.00593E-14
 -1      2571 1.88433E+01-5.42526E+00 5.73038E-02-6.26517E+00-3.68150E-13-4.67418E-13
 -1      2572 2.26083E+01-4.99293E+00-3.39756E-02-5.54840E+00-1.80467E-13-2.98872E-13
 -1      2573 2.93495E+01-1.22014E+00-6.40440E-02-8.07390E-01 2.50279E-13 1.23040E-13
 -1      2574 3.10259E+01 1.02253E+00-9.51116E-02 1.37574E-01 4.44728E-13 1.04916E-13
 -1      2575 1.94610E+01 3.70976E+00-1.00999E-02-2.18813E-01 8.39097E-14-3.91237E-13
 -1      2576 1.94836E+01 3.68579E+00-9.30404E-03-3.83626E-01 4.23007E-14-4.07193E-13
 -1      2577 1.96518E+01 3.30696E+00 2.49820E-04-4.16190E-01 2.89426E-14-3.73165E-13
 -1      2578 1.96035E+01 3.37711E+00-1.44943E-05-1.33510E-01 8.39048E-14-3.51959E-13
 -1      2579 3.18273E+01 3.79475E+00-9.37314E-02 7.01074E-01 5.88862E-13 9.08162E-14
 -1      2580 3.30436E+01 5.44875E+00-8.61489E-02 6.21274E-01 7.19869E-13 6.04516E-14
 -1      2581 3.24865E+01 7.26859E+00-1.05046E-01-4.56579E-01 1.10750E-12-3.12417E-13
 -1      2582 3.21383E+01 6.30183E+00-1.46376E-01-8.51383E-01 1.12632E-12-2.74142E-13
 -1      2583 3.29312E+01 6.83463E+00-6.92704E-02 5.36300E-01 9.12936E-13-2.33702E-14
 -1      2584 3.24721E+01 7.52058E+00-1.27488E-01 2.19006E-01 1.05410E-12-1.06384E-13
 -1      2585 2.49991E+01-4.50397E+00-1.58100E-02-4.21571E+00-1.77414E-13-2.78971E-13
 -1      2586 2.72551E+01-3.40225E+00-6.32394E-02-2.99174E+00-2.75890E-14-1.62537E-13
 -1      2587 2.38760E+01-5.15299E+00 5.78416E-02-4.48955E+00-3.86913E-13-1.98591E-13
 -1      2588 3.23785E+01 2.22652E+00-1.38360E-01-6.45956E-01-7.31970E-13 4.00485E-13
 -1      2589 3.09917E+01 8.35043E-02-2.65523E-02 4.48189E-02-6.21225E-13 5.08260E-13
 -1      2590 5.09951E+00-2.80118E+00 1.12514E-01-3.55372E+00-1.49561E-13-8.51264E-13
 -1      2591 7.07425E+00-3.33937E+00 8.79649E-02-5.25398E+00-2.23432E-13-8.72413E-13
 -1      2592 7.48417E+00-3.61880E+00 6.36268E-02 5.39235E+00 1.24761E-13-5.91610E-13
 -1      2593 5.17214E+00-3.28541E+00 9.95871E-02 3.72220E+00 6.46427E-14-7.17593E-13
 -1      2594 2.32458E+01-5.28475E+00-5.06890E-02 5.16422E+00-3.43614E-14-1.38778E-15
 -1      2595 2.00333E+01-5.58188E+00 5.64236E-02 5.78179E+00 3.79141E-14-1.33629E-13
 -1      2596 2.07224E+01-5.49866E+00 2.19745E-02-5.62498E+00-1.03223E-13 5.23068E-13
 -1      2597 2.43486E+01-4.96891E+00-8.85820E-02-4.73423E+00-1.47465E-13 3.67789E-13
 -1      2598 2.91183E+01-2.72957E+00-1.27497E-01 1.92247E+00-3.64958E-13 4.22079E-13
 -1      2599 2.60853E+01-4.35098E+00-1.87421E-02 3.36056E+00-8.83044E-14 1.26149E-13
 -1      2600 2.54002E+01-5.04298E+00 2.92601E-02 3.33991E+00 8.17679E-14 2.15716E-13
 -1      2601 3.25815E+01 6.00260E+00-1.59209E-01-1.04242E+00-8.07354E-13 1.48687E-13
 -1      2602 3.26007E+01 4.53469E+00-8.06833E-02-1.18361E+00-8.36747E-13 2.36672E-13
 -1      2603 3.31698E+01 7.31077E+00-8.80425E-02 3.20596E-01-9.69558E-13 2.07542E-14
 -1      2604 3.26903E+01 7.22188E+00-1.40857E-01-3.58847E-01-9.00835E-13-3.87329E-14
 -1      2605 3.14924E+01 7.07163E-01-5.12622E-02 1.14780E-01-6.56766E-13-1.73195E-14
 -1      2606 3.24732E+01 2.41639E+00-1.40694E-01 6.46018E-01-6.99385E-13 1.22402E-14
 -1      2607 2.75539E+01-3.51221E+00 1.36927E-03-2.53109E+00-2.16119E-13 8.02414E-14
 -1      2608 3.01931E+01-1.68284E+00-1.01298E-01-1.25003E+00-4.67463E-13-4.37983E-14
 -1      2609 1.37143E+01-5.07996E+00 9.32553E-02-6.58468E+00 1.88766E-13 7.29972E-13
 -1      2610 1.71995E+01-5.43165E+00-8.96955E-03-6.71969E+00 4.88498E-15 6.91461E-13
 -1      2611 2.05479E+01 8.84689E-01-6.19133E-03 1.14138E+00 3.18492E-13 4.46500E-13
 -1      2612 2.08777E+01 1.26088E+00-5.65732E-03 1.64658E+00 3.37907E-13 5.09330E-13
 -1      2613 2.06896E+01 1.72079E+00-1.57779E-02 1.83218E+00 3.75766E-13 3.71972E-13
 -1      2614 2.05151E+01 1.07715E+00-9.69555E-03 1.13418E+00 3.18610E-13 2.59350E-13
 -1      2615 2.63115E+01-3.83981E+00-5.65239E-02 3.99413E+00 4.05620E-13 6.04516E-14
 -1      2616 2.26839E+01-4.98568E+00 4.54145E-02 5.05355E+00 2.35367E-13 7.93393E-14
 -1      2617 3.07187E+01 5.91285E+00-5.30859E-02 1.18741E+00 7.22422E-13 1.50463E-13
 -1      2618 1.99120E+01 2.90590E+00 1.61219E-03-9.85232E-01-1.12728E-13-3.76007E-13
 -1      2619 1.97925E+01 3.22450E+00-1.66970E-02-1.18263E+00-1.36850E-13-4.04577E-13
 -1      2620 1.99080E+01 3.07027E+00-1.83142E-02-1.36898E+00-1.82238E-13-3.71934E-13
 -1      2621 2.01392E+01 3.92092E-01-4.41694E-03 1.31893E-01 1.94342E-13 1.66630E-13
 -1      2622 2.04709E+01 2.12860E+00-1.26186E-02 1.77726E+00 3.82263E-13 2.06182E-13
 -1      2623 2.75024E+01-3.53443E+00 2.35747E-02 2.12867E+00 2.51042E-13-1.15297E-13
 -1      2624 2.64428E+01-4.51525E+00 2.70495E-02-2.84766E+00-8.26839E-14-1.19349E-14
 -1      2625 3.00848E+01-1.08624E+00-1.63494E-02 3.75146E-01-3.32467E-13-1.68754E-13
 -1      2626 3.14238E+01 5.10388E+00-1.02225E-01-1.23239E+00 1.11303E-12-3.44169E-13
 -1      2627 3.00072E+01 3.90591E+00-9.51423E-02-1.60324E+00 9.33142E-13-3.94629E-13
 -1      2628 2.94775E+01 5.51489E+00-1.25260E-01-1.55311E+00 1.06110E-12-3.95073E-13
 -1      2629 3.09305E+01 6.41092E+00-6.09649E-02 9.62293E-01-8.83627E-13-3.63598E-14
 -1      2630 2.95300E+01-1.88832E+00-7.81082E-03 6.94784E-02-3.47145E-13 5.45564E-13
 -1      2631 2.02926E+01-5.39746E+00 9.69879E-02-5.66966E+00 1.32505E-13 4.65340E-13
 -1      2632 2.00038E+01 4.23905E-03-4.28877E-05 7.93704E-04 3.81077E-13 5.12470E-13
 -1      2633 2.16635E+01-5.19795E+00 8.46807E-02 5.30741E+00 7.93809E-15 5.04458E-15
 -1      2634 2.00048E+01 5.82278E-03 1.69670E-06 2.35241E-03 2.82258E-13 3.78308E-13
 -1      2635 3.08515E+01 2.85833E+00-5.09581E-02-1.74232E+00-6.41071E-13 3.67012E-13
 -1      2636 4.75648E+00-1.75458E+00 1.55751E-01 1.90083E-01-6.65856E-14 1.24117E-12
 -1      2637 7.42657E+00-2.44198E+00 1.61667E-01 4.44801E+00-2.85758E-13 9.80577E-13
 -1      2638 1.37076E+01-4.17885E+00 1.42225E-01 6.52953E+00-1.95732E-13 2.74017E-13
 -1      2639 1.03163E+01-3.82327E+00 1.36365E-01 5.95444E+00 2.32619E-13-4.59993E-13
 -1      2640 1.00538E+01-2.60744E+00 1.45255E-01 5.30878E+00 2.77653E-13-3.66873E-13
 -1      2641 1.30284E+01-4.06560E+00-8.97020E-03 6.28753E+00 3.20993E-13-2.58460E-13
 -1      2642 5.12111E+00-2.08817E+00 1.38858E-01-2.36863E+00-9.91082E-14-8.06383E-13
 -1      2643 7.32837E+00-1.37839E+00 1.30172E-01-3.24813E+00-1.69420E-13-7.85705E-13
 -1      2644 5.45739E+00-1.11810E+00 1.46917E-01-9.35577E-01-4.72972E-14-7.79377E-13
 -1      2645 2.04866E+01 1.83567E+00 1.23662E-02 1.45194E+00 3.54754E-13 1.56639E-13
 -1      2646 1.26938E+01-4.13836E+00 1.23817E-01-6.25627E+00 1.85879E-13 8.37025E-13
 -1      2647 1.73868E+01-5.19163E+00 9.54377E-02-6.58940E+00-4.55302E-13-4.08402E-13
 -1      2648 3.11224E+01 3.26373E+00-6.37340E-02 1.67142E+00-6.80428E-13-1.26926E-13
 -1      2649 2.83485E+01-2.79171E+00-4.57262E-02-1.40325E+00 1.76179E-14 1.52073E-13
 -1      2650 2.82453E+01-1.98754E+00-9.30036E-02 2.68127E-01-1.86032E-14 4.16861E-13
 -1      2651 2.68450E+01-3.88507E+00 2.78487E-02-1.87085E+00-2.60170E-13 1.82826E-13
 -1      2652 2.01635E+01 2.64762E+00-9.45912E-03-1.56765E+00-2.38586E-13-2.97498E-13
 -1      2653 1.87429E+01-5.28221E+00 1.04452E-01 6.12696E+00 1.79301E-13-9.06254E-14
 -1      2654 5.58519E+00-2.12569E+00 1.53169E-01 2.60853E+00 6.63497E-14-7.70550E-13
 -1      2655 3.01897E+01 1.93177E+00-7.40920E-02 1.30096E+00 3.81667E-13 3.09086E-13
 -1      2656 3.04920E+01 5.56314E-01-4.84099E-02-4.53749E-01 6.50702E-13-9.42579E-14
 -1      2657 3.04528E+01 7.04668E+00-8.85620E-02-1.95568E-01 9.88654E-13-1.52938E-13
 -1      2658 9.52451E+00-3.58939E+00 1.20636E-01-5.86667E+00-2.62068E-13-7.25892E-13
 -1      2659 1.20493E+01-3.79610E+00 4.42779E-03-6.41712E+00-3.65902E-13-5.40568E-13
 -1      2660 9.73866E+00-2.35437E+00 1.46782E-01-5.22958E+00-2.10387E-13-6.92335E-13
 -1      2661 3.08264E+01 6.20102E+00-8.28380E-02-9.84034E-01-7.95364E-13 7.58282E-14
 -1      2662 2.00050E+01 5.49096E-03 8.88401E-05-1.80857E-03-9.96317E-14 3.38542E-14
 -1      2663 2.00051E+01 6.90985E-03-9.97503E-05-3.16154E-03-5.50169E-14-4.41850E-13
 -1      2664 2.00070E+01 1.20093E-02 1.09457E-04-6.89812E-03-7.09090E-15-6.67311E-13
 -1      2665 2.00070E+01 7.31263E-03 2.29840E-04-3.94640E-03 3.28929E-14 1.11093E-13
 -1      2666 2.00066E+01 1.04804E-02 1.41702E-04 5.76477E-03 2.47390E-13 1.52220E-14
 -1      2667 2.00090E+01 1.09219E-02-2.00049E-04-8.20436E-03 7.97973E-14-2.47456E-13
 -1      2668 1.97734E+01 2.92758E+00-6.00288E-03 4.38941E-01 2.10797E-13-2.77992E-13
 -1      2669 1.97360E+01 2.98481E+00-6.20754E-03 3.06151E-01 1.80247E-13-2.86276E-13
 -1      2670 1.97104E+01 3.03075E+00-5.59680E-03 1.94254E-01 1.57645E-13-2.96466E-13
 -1      2671 1.96971E+01 3.05060E+00-5.72122E-03 6.04356E-02 1.28459E-13-3.04687E-13
 -1      2672 1.98442E+01 2.70488E+00 4.46910E-03 2.11873E-01 1.54333E-13-2.70913E-13
 -1      2673 2.00454E+01 2.42744E+00-1.00265E-02 9.15142E-01 3.17517E-13-1.15644E-13
 -1      2674 1.99607E+01 2.58984E+00-7.07920E-03 7.87526E-01 2.99873E-13-1.70039E-13
 -1      2675 2.02549E+01 1.97655E+00-1.13753E-02 1.09180E+00 3.38612E-13-5.45744E-15
 -1      2676 2.01452E+01 2.22828E+00-5.57660E-03 9.98726E-01 3.30577E-13-5.23375E-14
 -1      2677 2.01966E+01 1.99748E+00 6.58272E-03 7.78031E-01 2.97524E-13-5.82862E-14
 -1      2678 2.03100E+01 7.85146E-01-2.13498E-03 4.87107E-01 2.40398E-13 1.12049E-13
 -1      2679 2.04305E+01 9.98660E-01 9.17428E-03 7.68150E-01 2.67756E-13 1.32106E-13
 -1      2680 1.16968E+01-2.88054E+00 1.71833E-01-5.60128E+00 1.75998E-13 6.98469E-13
 -1      2681 1.53221E+01-4.13900E+00-5.99215E-03-6.23884E+00 2.57738E-13 5.84130E-13
 -1      2682 7.17702E+00-1.24620E+00 1.64584E-01-2.91890E+00 1.24657E-13 1.16135E-12
 -1      2683 8.80056E+00-1.95963E+00 7.60448E-02-4.57329E+00 9.96009E-14 9.97813E-13
 -1      2684 2.50440E+01-4.99549E+00 8.91463E-02-3.20482E+00 1.02127E-13-6.71962E-14
 -1      2685 2.72152E+01-4.24122E+00-1.61674E-01-1.49261E+00-4.27297E-14-2.54047E-13
 -1      2686 2.91156E+01-1.09053E+00-2.00034E-01-1.21066E+00-3.70322E-13 5.14963E-13
 -1      2687 2.81365E+01-3.00486E+00 2.50243E-02 1.63708E-01-1.56455E-13 5.60496E-13
 -1      2688 2.03081E+01 7.28980E-01 7.32377E-03-2.29251E-01-1.21628E-13-1.36499E-13
 -1      2689 2.02496E+01 5.95708E-01-1.46393E-03-4.03548E-02-1.03293E-13-1.41181E-13
 -1      2690 2.02302E+01 4.99903E-01 5.83058E-03 1.14927E-01-9.12319E-14-1.20675E-13
 -1      2691 2.02025E+01 4.25711E-01 2.02240E-04 2.51646E-01-8.88284E-14-1.23162E-13
 -1      2692 2.02728E+01 6.87329E-01-1.83789E-03 8.86289E-03-9.98917E-14-1.30311E-13
 -1      2693 2.01844E+01 3.75260E-01 3.57307E-03 3.72544E-01-8.92562E-14-8.15225E-14
 -1      2694 2.01878E+01 3.38532E-01 1.47369E-03 4.78368E-01-6.54019E-14-9.07774E-14
 -1      2695 2.02229E+01 5.05138E-01-2.29513E-03 2.98624E-01-7.51405E-14-1.07544E-13
 -1      2696 2.01759E+01 3.15995E-01 1.74442E-03 5.78315E-01-3.91684E-14-7.97931E-14
 -1      2697 2.02058E+01 3.03226E-01 2.37161E-03 6.68067E-01-4.25620E-14-7.27994E-14
 -1      2698 2.01886E+01 4.11861E-01-2.04787E-03 5.30260E-01-5.36954E-14-9.83909E-14
 -1      2699 2.02008E+01 2.98072E-01 3.94450E-04 7.58013E-01-4.94412E-14-8.77984E-14
 -1      2700 2.02531E+01 2.99748E-01 3.01722E-03 8.41549E-01-3.86230E-14-1.00210E-13
 -1      2701 2.01724E+01 3.75882E-01-1.60007E-03 7.28600E-01-6.30522E-14-1.01564E-13
 -1      2702 2.02548E+01 3.03763E-01-5.24359E-04 9.29307E-01-3.28220E-14-8.30327E-14
 -1      2703 2.03266E+01 3.11387E-01 3.46711E-03 1.01231E+00-6.65433E-14-7.94996E-14
 -1      2704 2.01727E+01 3.74415E-01-1.16905E-03 9.12873E-01-3.81145E-14-1.04471E-13
 -1      2705 2.03354E+01 3.16185E-01-9.97783E-04 1.10256E+00-6.12688E-14-4.63331E-14
 -1      2706 2.04258E+01 3.20003E-01 3.73420E-03 1.18666E+00-4.39667E-14-1.23585E-14
 -1      2707 2.01880E+01 3.87078E-01-9.14850E-04 1.09610E+00-4.19763E-14-1.63430E-15
 -1      2708 2.04450E+01 3.14948E-01-9.03310E-04 1.28079E+00-1.98150E-14 2.51955E-14
 -1      2709 2.05557E+01 3.01842E-01 3.78784E-03 1.36297E+00 2.16258E-14 3.83964E-14
 -1      2710 2.02200E+01 3.90774E-01-1.04469E-03 1.28507E+00 8.13047E-15 8.44990E-14
 -1      2711 2.05936E+01 2.72116E-01 2.11240E-05 1.45845E+00 1.70209E-14 7.90834E-14
 -1      2712 2.07302E+01 2.23673E-01 3.53392E-03 1.52978E+00 3.30025E-14 5.51925E-14
 -1      2713 2.02773E+01 3.54921E-01-1.91770E-03 1.47990E+00 1.66749E-14 3.36780E-14
 -1      2714 2.08044E+01 1.48865E-01 2.21770E-03 1.61866E+00 3.45889E-14 4.12982E-14
 -1      2715 2.09781E+01 4.04679E-02 2.71397E-03 1.66232E+00 2.99278E-14 1.78990E-14
 -1      2716 2.03813E+01 2.37117E-01-4.13985E-03 1.67247E+00 8.92035E-15 1.28737E-14
 -1      2717 2.11202E+01-1.04789E-01 6.29739E-03 1.72814E+00 7.55915E-14 3.87298E-14
 -1      2718 2.13486E+01-3.01213E-01 7.50653E-04 1.71688E+00 7.59651E-14 5.85049E-14
 -1      2719 2.05746E+01-1.89311E-02-8.59325E-03 1.84288E+00 7.08062E-14 4.51332E-14
 -1      2720 2.16090E+01-5.40225E-01 1.31766E-02 1.72790E+00 4.40638E-14 1.26840E-13
 -1      2721 2.19118E+01-8.42916E-01-3.09738E-03 1.62183E+00 1.86791E-14 1.05487E-13
 -1      2722 2.09313E+01-4.78087E-01-1.60312E-02 1.95070E+00 7.77442E-14 6.58488E-14
 -1      2723 2.23544E+01-1.17403E+00 2.30697E-02 1.52191E+00 4.62846E-15 1.49981E-13
 -1      2724 2.27426E+01-1.56095E+00-9.73823E-03 1.27197E+00-1.09717E-14 1.94724E-13
 -1      2725 2.15609E+01-1.18171E+00-2.54913E-02 1.91606E+00 4.45541E-14 1.14392E-13
 -1      2726 2.34181E+01-1.90980E+00 3.35367E-02 9.74040E-01 1.32537E-14 2.50596E-13
 -1      2727 2.38687E+01-2.23605E+00-1.16453E-02 5.46324E-01-5.50948E-15 3.26676E-13
 -1      2728 2.25613E+01-2.08798E+00-4.56813E-02 1.59261E+00 3.89645E-14 2.91019E-13
 -1      2729 2.47686E+01-2.42861E+00 3.30665E-02-5.22154E-02-3.33286E-14 3.58771E-13
 -1      2730 2.51086E+01-2.43405E+00-1.32007E-02-6.33128E-01-4.75696E-14 4.17079E-13
 -1      2731 2.40998E+01-2.84424E+00-4.57157E-02 7.70816E-01 4.24027E-14 4.03184E-13
 -1      2732 2.64745E+01-2.04844E+00-3.82863E-02-1.41414E+00-7.86003E-14 4.56801E-13
 -1      2733 2.67361E+01-1.03554E+00-4.50275E-02-1.99095E+00-1.92457E-13 4.95545E-13
 -1      2734 2.60170E+01 2.99660E+00-1.45461E-01-1.98399E+00-3.69565E-13 3.55025E-13
 -1      2735 2.59101E+01 4.00347E+00-9.49361E-02-1.15945E+00-4.72108E-13 1.76852E-13
 -1      2736 2.57803E+01 4.32842E+00-9.66769E-02 1.54508E-01-5.66019E-13-4.60239E-14
 -1      2737 2.58323E+01 3.85031E+00-1.35444E-01 1.20190E+00-5.55972E-13-2.60337E-13
 -1      2738 2.60473E+01 2.80839E+00-4.09878E-02 2.14658E+00-4.42882E-13-4.08756E-13
 -1      2739 2.62028E+01 1.32115E+00-1.25619E-01 2.56759E+00-3.47750E-13-4.78249E-13
 -1      2740 2.71152E+01 3.93828E+00-1.19481E-01 1.82624E+00-6.38586E-13-3.13402E-13
 -1      2741 2.62111E+01-7.23514E-02-2.80294E-02 2.41873E+00-3.12847E-13-5.64049E-13
 -1      2742 2.61685E+01-1.26237E+00-6.12770E-02 2.09748E+00-1.68313E-13-6.05894E-13
 -1      2743 2.55842E+01-1.98999E+00-2.82220E-02 1.34342E+00-9.74680E-14-6.40754E-13
 -1      2744 2.52862E+01-2.34476E+00 2.87424E-03 7.37146E-01-3.41417E-14-5.69678E-13
 -1      2745 2.64105E+01-2.05966E+00-2.70198E-02 1.38917E+00-1.31109E-13-5.98542E-13
 -1      2746 2.44396E+01-2.35333E+00-2.22498E-02 4.01865E-02-1.82770E-14-4.40246E-13
 -1      2747 2.40246E+01-2.14864E+00 2.92769E-02-4.75756E-01-4.32011E-15-3.43807E-13
 -1      2748 2.48713E+01-2.81405E+00-1.98769E-02-1.07702E-01 5.86098E-14-4.83395E-13
 -1      2749 2.32589E+01-1.84533E+00-1.67994E-02-9.01242E-01 2.76758E-14-2.94806E-13
 -1      2750 2.28569E+01-1.45777E+00 2.63313E-02-1.22599E+00 8.94519E-14-3.10133E-13
 -1      2751 2.32878E+01-2.38035E+00-3.37368E-02-1.16487E+00 5.35882E-14-2.63751E-13
 -1      2752 2.23160E+01-1.10729E+00-8.05306E-03-1.40530E+00 8.05371E-14-2.34806E-13
 -1      2753 2.19872E+01-7.57023E-01 1.71350E-02-1.56090E+00 1.78057E-13-2.19863E-13
 -1      2754 2.20756E+01-1.50444E+00-2.81666E-02-1.68103E+00 1.18858E-13-1.37749E-13
 -1      2755 2.16528E+01-4.79142E-01-2.20493E-03-1.58983E+00 2.18978E-13-3.92609E-13
 -1      2756 2.14043E+01-2.32419E-01 9.35101E-03-1.62767E+00 8.31857E-14-3.95630E-13
 -1      2757 2.12874E+01-7.10512E-01-1.84752E-02-1.82412E+00 7.47590E-14-2.49641E-13
 -1      2758 2.12132E+01-5.07620E-02 8.97014E-04-1.57690E+00-2.14415E-14-3.54377E-13
 -1      2759 2.10279E+01 9.67373E-02 4.18339E-03-1.54288E+00 8.63752E-14-3.60377E-13
 -1      2760 2.08193E+01-1.49932E-01-1.04682E-02-1.76436E+00 8.30920E-14-3.90127E-13
 -1      2761 2.09233E+01 1.97784E-01 2.41849E-03-1.45442E+00 1.80343E-13-3.89265E-13
 -1      2762 2.07816E+01 2.71545E-01 1.15632E-03-1.38188E+00 2.04239E-13-4.26870E-13
 -1      2763 2.05544E+01 1.87323E-01-5.20786E-03-1.60504E+00 6.29152E-14-2.80903E-13
 -1      2764 2.07244E+01 3.16510E-01 3.10342E-03-1.27955E+00 5.97909E-14-3.99384E-13
 -1      2765 2.06120E+01 3.42450E-01-4.32081E-04-1.19066E+00 2.03301E-14-3.45242E-13
 -1      2766 2.04053E+01 3.57987E-01-2.25213E-03-1.40403E+00 1.63588E-13-2.75379E-13
 -1      2767 2.05790E+01 3.52805E-01 3.33034E-03-1.08777E+00 3.94931E-14-3.33493E-13
 -1      2768 2.04871E+01 3.50851E-01-1.14776E-03-9.96307E-01 7.25589E-14-1.87938E-13
 -1      2769 2.03169E+01 4.19939E-01-8.01415E-04-1.19329E+00 4.45983E-14-1.67615E-13
 -1      2770 2.04658E+01 3.42064E-01 3.28205E-03-9.00133E-01 1.23921E-13-2.49021E-13
 -1      2771 2.03895E+01 3.25663E-01-1.37172E-03-8.14007E-01 2.16462E-13-9.93346E-14
 -1      2772 2.02584E+01 4.17883E-01-2.06902E-04-9.90641E-01 1.08928E-13-1.37716E-13
 -1      2773 2.03735E+01 3.07728E-01 3.06502E-03-7.28191E-01 2.42572E-13-7.36634E-14
 -1      2774 2.03101E+01 2.85222E-01-1.33970E-03-6.51420E-01 3.01622E-13 2.51619E-14
 -1      2775 2.02145E+01 3.82227E-01-3.78690E-05-8.05744E-01 2.45374E-13-1.23472E-13
 -1      2776 2.02968E+01 2.64111E-01 2.75122E-03-5.77376E-01 2.86889E-13-4.19172E-14
 -1      2777 2.02444E+01 2.40322E-01-1.19022E-03-5.11500E-01 2.07132E-13-9.77982E-15
 -1      2778 2.01782E+01 3.32002E-01-4.79286E-05-6.43183E-01 2.63148E-13-1.00921E-13
 -1      2779 2.02329E+01 2.19349E-01 2.39273E-03-4.49276E-01 9.31565E-14 6.34183E-14
 -1      2780 2.01901E+01 1.96852E-01-1.00005E-03-3.94342E-01 3.49260E-14 1.55005E-13
 -1      2781 2.01465E+01 2.78329E-01-1.11289E-04-5.04316E-01 1.70147E-13-2.94255E-14
 -1      2782 2.01800E+01 1.77691E-01 2.02659E-03-3.43185E-01 7.52190E-14 2.05801E-13
 -1      2783 2.01457E+01 1.57701E-01-8.09370E-04-2.98417E-01 2.01432E-13 3.47053E-13
 -1      2784 2.01187E+01 2.27231E-01-1.72341E-04-3.88472E-01 1.61022E-13 7.12382E-14
 -1      2785 2.01368E+01 1.41052E-01 1.67768E-03-2.57152E-01 1.86822E-13 2.73014E-13
 -1      2786 2.01097E+01 1.23989E-01-6.37404E-04-2.21374E-01 2.38052E-13 1.27076E-13
 -1      2787 2.00946E+01 1.81607E-01-2.12217E-04-2.93788E-01 1.39590E-13 3.34325E-13
 -1      2788 2.01022E+01 1.10007E-01 1.36089E-03-1.88658E-01 2.60837E-13 1.65065E-13
 -1      2789 2.00811E+01 9.58532E-02-4.91497E-04-1.60560E-01 6.99685E-14 1.89166E-13
 -1      2790 2.00740E+01 1.42518E-01-2.28287E-04-2.17792E-01 2.31584E-13 1.46367E-13
 -1      2791 2.00749E+01 8.43986E-02 1.08337E-03-1.35045E-01-2.02760E-13 3.02101E-13
 -1      2792 2.00588E+01 7.29108E-02-3.72752E-04-1.13345E-01-8.82500E-14 1.08092E-13
 -1      2793 2.00569E+01 1.09991E-01-2.24312E-04-1.57823E-01-1.87276E-14 2.55010E-14
 -1      2794 2.00537E+01 6.37075E-02 8.47056E-04-9.37752E-02-6.10734E-14 1.33194E-13
 -1      2795 2.00417E+01 5.45428E-02-2.78638E-04-7.73001E-02-2.53184E-14 1.65839E-13
 -1      2796 2.00428E+01 8.35151E-02-2.06429E-04-1.11280E-01-1.02234E-13 1.78834E-13
 -1      2797 2.00376E+01 4.72595E-02 6.51495E-04-6.25523E-02-1.14965E-13 1.13459E-13
 -1      2798 2.00288E+01 4.00284E-02-2.09351E-04-5.02793E-02-5.43188E-14-1.64648E-14
 -1      2799 2.00316E+01 6.23367E-02-1.79261E-04-7.57770E-02-8.76361E-14 1.19254E-13
 -1      2800 2.00255E+01 3.42958E-02 4.91929E-04-3.94044E-02 2.18205E-14-2.02551E-13
 -1      2801 2.00192E+01 2.86193E-02-1.55085E-04-3.05030E-02 1.42589E-13-2.90621E-13
 -1      2802 2.00226E+01 4.55581E-02-1.56050E-04-4.92038E-02-7.51955E-14-6.64429E-14
 -1      2803 2.00166E+01 2.40106E-02 3.39042E-04-2.27105E-02 1.90739E-13-4.84501E-13
 -1      2804 2.00122E+01 1.97020E-02-3.25226E-05-1.65771E-02 3.13353E-14-4.72502E-13
 -1      2805 2.00156E+01 3.23755E-02-1.12267E-04-2.98265E-02 1.38955E-14-5.17685E-13
 -1      2806 2.01886E+01 2.04979E-01 2.39466E-03-5.74959E-01 8.74673E-14 9.82698E-14
 -1      2807 2.01460E+01 2.24446E-01 2.80315E-03-5.01007E-01 8.73300E-14 1.09856E-13
 -1      2808 2.00080E+01 1.89213E-02-4.29057E-05 1.28918E-02-1.87925E-13-5.24262E-13
 -1      2809 2.00089E+01 1.43642E-02 9.65960E-05 1.02512E-02 9.13493E-14-1.27530E-13
 -1      2810 2.00122E+01 1.74452E-02 3.12603E-04 1.45061E-02-2.05411E-13-2.25407E-13
 -1      2811 2.01446E+01 2.50467E-01 1.85212E-03-4.10634E-01 8.95885E-14 9.18053E-14
 -1      2812 2.01345E+01 2.88713E-01 4.82398E-03-3.16666E-01 1.00453E-13 1.02770E-13
 -1      2813 2.01844E+01 3.09500E-01-3.05103E-03-4.67802E-01 8.23132E-14 5.37087E-14
 -1      2814 2.03992E+01 1.64508E-01 2.65564E-03-8.35546E-01 7.40983E-14 1.36265E-13
 -1      2815 2.03080E+01 1.72818E-01 7.91121E-04-7.80133E-01 7.05711E-14 1.15935E-13
 -1      2816 2.05595E+01 1.38613E-01 2.28606E-03-9.44121E-01 9.48107E-14 7.02661E-14
 -1      2817 2.04489E+01 1.53414E-01 6.05036E-04-8.96579E-01 9.37570E-14 1.09796E-13
 -1      2818 2.03372E+01 2.03115E-01-2.21027E-03-9.31221E-01 9.09908E-14 8.88644E-14
 -1      2819 2.07577E+01 8.64637E-02 1.42933E-03-1.03172E+00 1.08159E-13 7.50216E-14
 -1      2820 2.06294E+01 1.17093E-01 9.72535E-04-9.97306E-01 9.22557E-14 7.67043E-14
 -1      2821 2.04559E+01 1.62697E-01-2.47729E-03-1.05259E+00 1.05782E-13 5.47510E-14
 -1      2822 2.09991E+01-1.18119E-02-1.01088E-04-1.08111E+00 6.75670E-14 1.02275E-13
 -1      2823 2.08541E+01 4.52484E-02 1.97748E-03-1.07029E+00 8.46240E-14 1.01452E-13
 -1      2824 2.06173E+01 8.41833E-02-3.21900E-03-1.15187E+00 7.16823E-14 5.85822E-14
 -1      2825 2.12925E+01-1.76306E-01-2.52302E-03-1.06366E+00 9.75350E-14 8.03451E-14
 -1      2826 2.11324E+01-8.26023E-02 3.70919E-03-1.09240E+00 1.14228E-13 1.42543E-13
 -1      2827 2.08356E+01-5.75525E-02-4.57376E-03-1.21069E+00 7.99971E-14 7.62152E-14
 -1      2828 2.16477E+01-4.19298E-01-5.93955E-03-9.39239E-01 1.20549E-14-2.87155E-14
 -1      2829 2.14762E+01-2.84208E-01 6.11169E-03-1.02800E+00 6.11328E-14 1.70252E-14
 -1      2830 2.11323E+01-2.86162E-01-6.54098E-03-1.19793E+00 1.21262E-13 1.12247E-13
 -1      2831 2.20682E+01-7.28402E-01-1.01296E-02-6.60909E-01-1.98830E-14-1.69735E-14
 -1      2832 2.18944E+01-5.62456E-01 8.77137E-03-8.30301E-01-3.18038E-14-2.16927E-15
 -1      2833 2.15328E+01-6.11442E-01-8.61727E-03-1.06827E+00 2.00459E-14 8.16090E-15
 -1      2834 2.25360E+01-1.03942E+00-1.40198E-02-1.88824E-01 8.28287E-15-1.02528E-14
 -1      2835 2.23795E+01-8.84176E-01 1.03243E-02-4.49720E-01-1.85357E-14 2.89960E-14
 -1      2836 2.20549E+01-1.00628E+00-9.56760E-03-7.65226E-01-1.93671E-14 7.24322E-14
 -1      2837 2.29889E+01-1.20673E+00-1.49581E-02 4.74025E-01-8.36594E-14 1.50453E-13
 -1      2838 2.28822E+01-1.14831E+00 7.72652E-03 1.40861E-01-8.68190E-14 4.10236E-14
 -1      2839 2.26826E+01-1.36769E+00-7.37098E-03-2.36247E-01-8.57718E-14 9.94345E-14
 -1      2840 2.33089E+01-1.00729E+00-7.40453E-03 1.22567E+00-1.66558E-13 3.24860E-13
 -1      2841 2.32919E+01-1.16826E+00-1.29281E-03 8.94669E-01-1.03410E-13 2.74828E-13
 -1      2842 2.33288E+01-1.49453E+00-1.90070E-03 5.23548E-01-1.94521E-13 2.56652E-13
 -1      2843 2.33589E+01-2.65256E-01 8.96950E-03 1.78799E+00-5.86647E-14 4.23389E-13
 -1      2844 2.34426E+01-7.14671E-01-1.69627E-02 1.60592E+00-1.37365E-13 3.79099E-13
 -1      2845 2.38064E+01-1.08995E+00 8.75108E-03 1.37327E+00-1.79185E-13 3.68742E-13
 -1      2846 2.30987E+01 9.09352E-01 2.06716E-02 1.76556E+00 2.76341E-14 4.62677E-13
 -1      2847 2.32360E+01 2.81894E-01-3.55056E-02 1.89986E+00-5.34235E-14 4.39668E-13
 -1      2848 2.39054E+01 5.78562E-03 1.30498E-02 1.95937E+00-1.03768E-13 4.84998E-13
 -1      2849 2.27306E+01 1.93469E+00 9.98181E-03 9.31217E-01 2.65522E-13 4.16623E-13
 -1      2850 2.28295E+01 1.47145E+00-4.02341E-02 1.40956E+00 2.31355E-13 4.88233E-13
 -1      2851 2.36053E+01 1.47026E+00-5.19400E-03 1.77915E+00 1.32757E-13 5.02295E-13
 -1      2852 2.26052E+01 2.11612E+00-2.59867E-02-4.12822E-01 3.15114E-13 1.94020E-13
 -1      2853 2.26107E+01 2.15423E+00-1.52751E-02 1.99728E-01 2.95918E-13 2.84842E-13
 -1      2854 2.32975E+01 2.53936E+00-1.81794E-02 6.41284E-01 4.02903E-13 4.13235E-13
 -1      2855 2.28908E+01 1.31056E+00-4.42611E-02-1.56123E+00 2.40826E-13-2.75604E-15
 -1      2856 2.27781E+01 1.83041E+00 1.09127E-02-1.13090E+00 3.03266E-13 3.72831E-14
 -1      2857 2.33074E+01 2.45164E+00-8.79347E-03-8.99732E-01 3.47026E-13 9.93094E-14
 -1      2858 2.33019E+01 1.17354E-01-3.45109E-02-1.93062E+00 6.44164E-14-2.61579E-13
 -1      2859 2.31639E+01 7.36091E-01 2.04153E-02-1.84818E+00 1.72739E-13-9.81311E-14
 -1      2860 2.36702E+01 1.26597E+00 3.88429E-03-1.90593E+00 3.04555E-13-1.53443E-13
 -1      2861 2.34608E+01-8.04310E-01-1.71769E-02-1.55488E+00 2.38564E-13-5.21989E-13
 -1      2862 2.33896E+01-3.96503E-01 4.69720E-03-1.76497E+00 1.23972E-13-4.70080E-13
 -1      2863 2.39290E+01-1.93937E-01 6.95522E-03-1.94331E+00 2.51402E-13-5.24809E-13
 -1      2864 2.32735E+01-1.17086E+00 2.52849E-04-8.26683E-01 1.28244E-13-5.05438E-13
 -1      2865 2.33044E+01-1.05118E+00-8.44951E-03-1.16053E+00 2.17096E-13-4.71991E-13
 -1      2866 2.37762E+01-1.16296E+00 1.10451E-02-1.30075E+00 2.06832E-13-6.27165E-13
 -1      2867 2.28540E+01-1.09803E+00 8.26589E-03-1.03017E-01 5.97386E-14-5.21571E-13
 -1      2868 2.29650E+01-1.17750E+00-1.42777E-02-4.23696E-01 1.03083E-13-4.86786E-13
 -1      2869 2.32644E+01-1.46874E+00 6.67735E-04-4.54033E-01 1.10974E-13-6.33121E-13
 -1      2870 2.23615E+01-8.11175E-01 1.00030E-02 4.42772E-01-2.03762E-13-5.52837E-13
 -1      2871 2.25147E+01-9.73843E-01-1.35052E-02 2.01869E-01-5.28932E-14-4.19301E-13
 -1      2872 2.26197E+01-1.29218E+00-6.75408E-03 2.59446E-01-2.71429E-14-4.62491E-13
 -1      2873 2.18993E+01-4.86146E-01 8.52807E-03 7.76007E-01-1.30647E-13-5.08188E-13
 -1      2874 2.20637E+01-6.51405E-01-9.58693E-03 6.28096E-01-2.17814E-13-5.64122E-13
 -1      2875 2.20109E+01-9.09539E-01-8.74681E-03 7.36967E-01-2.04041E-13-4.55567E-13
 -1      2876 2.15091E+01-2.13915E-01 6.04440E-03 9.30639E-01 7.67973E-14-3.04919E-13
 -1      2877 2.16671E+01-3.44941E-01-5.46903E-03 8.61952E-01 3.52062E-15-4.08461E-13
 -1      2878 2.15150E+01-5.15206E-01-7.58779E-03 9.91027E-01-1.10865E-13-5.63287E-13
 -1      2879 2.11941E+01-2.12726E-02 3.76969E-03 9.58236E-01 1.22652E-13-1.82369E-13
 -1      2880 2.13381E+01-1.10242E-01-2.28389E-03 9.47033E-01 1.34620E-13-2.35756E-13
 -1      2881 2.11404E+01-1.99726E-01-5.63801E-03 1.07861E+00 5.69507E-14-3.30360E-13
 -1      2882 2.09433E+01 9.72538E-02 2.08724E-03 9.05687E-01-6.06463E-14-1.12900E-14
 -1      2883 2.10709E+01 4.48773E-02-8.78574E-05 9.31182E-01 7.61661E-14-8.42971E-14
 -1      2884 2.08657E+01 1.65846E-02-3.88720E-03 1.05661E+00 2.83805E-14-3.43244E-14
 -1      2885 2.07432E+01 1.58708E-01 9.88846E-04 8.09089E-01-4.16828E-14 6.34886E-14
 -1      2886 2.08540E+01 1.33445E-01 1.28838E-03 8.54776E-01-8.93730E-14 2.11010E-14
 -1      2887 2.06644E+01 1.45642E-01-2.61049E-03 9.69998E-01-4.86194E-14-7.91760E-14
 -1      2888 2.05824E+01 1.81106E-01 3.35594E-04 6.93668E-01-6.81447E-14 2.44734E-13
 -1      2889 2.06773E+01 1.73863E-01 2.04516E-03 7.47824E-01-5.56755E-14 1.34717E-13
 -1      2890 2.05146E+01 2.09404E-01-1.78807E-03 8.50973E-01-1.30160E-13 1.41111E-14
 -1      2891 2.04529E+01 1.79268E-01-1.64250E-05 5.75735E-01 1.00437E-13 2.37727E-13
 -1      2892 2.05327E+01 1.82882E-01 2.36456E-03 6.30746E-01 4.75059E-14 2.46098E-13
 -1      2893 2.04003E+01 2.29324E-01-1.29239E-03 7.21073E-01 2.62135E-14 1.00488E-13
 -1      2894 2.03484E+01 1.63971E-01-1.80780E-04 4.64981E-01 2.02465E-13 1.68912E-13
 -1      2895 2.04146E+01 1.73367E-01 2.39429E-03 5.16355E-01 2.02656E-13 1.77639E-13
 -1      2896 2.03114E+01 2.22499E-01-9.98690E-04 5.93829E-01 1.43777E-13 1.25497E-13
 -1      2897 2.02647E+01 1.42434E-01-2.36393E-04 3.66475E-01 5.24409E-14-3.82214E-14
 -1      2898 2.03185E+01 1.54280E-01 2.24687E-03 4.11910E-01 1.94255E-13 9.99754E-14
 -1      2899 2.02411E+01 2.01162E-01-8.17115E-04 4.77039E-01 2.58672E-13 8.82417E-15
 -1      2900 2.01981E+01 1.19183E-01-2.33797E-04 2.82229E-01-5.86966E-14-6.12696E-14
 -1      2901 2.02411E+01 1.31430E-01 2.00330E-03 3.20865E-01-1.08938E-13-1.72287E-13
 -1      2902 2.01852E+01 1.73434E-01-6.91561E-04 3.74558E-01 2.66512E-14-1.12994E-14
 -1      2903 2.01459E+01 9.68502E-02-2.03977E-04 2.12344E-01-1.24805E-14-1.07411E-13
 -1      2904 2.01796E+01 1.08340E-01 1.71908E-03 2.44212E-01-1.52324E-14-8.28063E-14
 -1      2905 2.01407E+01 1.44364E-01-5.92699E-04 2.87646E-01-8.31605E-14-2.18630E-13
 -1      2906 2.01054E+01 7.68030E-02-1.65081E-04 1.55815E-01 1.86576E-13-1.22067E-13
 -1      2907 2.01314E+01 8.69614E-02 1.43058E-03 1.81445E-01 1.07085E-13-1.64260E-13
 -1      2908 2.01055E+01 1.16853E-01-5.07275E-04 2.15935E-01 8.01240E-14-3.73405E-13
 -1      2909 2.00746E+01 5.95994E-02-1.26883E-04 1.11091E-01-8.06543E-14-9.99570E-14
 -1      2910 2.00942E+01 6.82226E-02 1.15976E-03 1.31251E-01 8.31000E-14-7.93356E-14
 -1      2911 2.00779E+01 9.23705E-02-4.29319E-04 1.58138E-01 3.16374E-14-2.05308E-13
 -1      2912 2.00515E+01 4.53074E-02-9.52948E-05 7.64303E-02-1.99577E-14-9.46641E-14
 -1      2913 2.00660E+01 5.24130E-02 9.18046E-04 9.19591E-02-2.86476E-14-1.57392E-13
 -1      2914 2.00565E+01 7.14758E-02-3.57297E-04 1.12531E-01-3.88407E-14-2.50715E-13
 -1      2915 2.00346E+01 3.37312E-02-5.64767E-05 5.01361E-02-6.51381E-14-1.30200E-13
 -1      2916 2.00450E+01 3.94457E-02 7.10798E-04 6.18318E-02-4.22752E-14-1.09097E-13
 -1      2917 2.00401E+01 5.41731E-02-2.91325E-04 7.72668E-02-1.06278E-14-2.04599E-13
 -1      2918 2.00228E+01 2.46669E-02 1.06097E-04 3.07638E-02-1.39448E-13-1.28975E-13
 -1      2919 2.00298E+01 2.89461E-02 5.28491E-04 3.91944E-02-1.00010E-13-6.54095E-14
 -1      2920 2.00277E+01 4.01654E-02-2.51725E-04 5.05998E-02-5.61687E-14-4.03667E-13
 -1      2921 2.00147E+01 1.94806E-02 1.68794E-04 1.89604E-02-2.52977E-13-1.62340E-13
 -1      2922 2.00194E+01 2.29055E-02 3.77349E-04 2.50858E-02-2.46969E-13-2.76471E-13
 -1      2923 2.00186E+01 3.11386E-02-3.78814E-04 3.33009E-02-1.62114E-13-4.19027E-13
 -1      2924 2.00124E+01 2.54496E-02-4.37349E-04 2.25047E-02-2.58748E-13-8.39645E-13
 -1      2925 2.35768E+01-5.23858E+00-1.17959E-01 4.19088E+00-6.38378E-14-8.57057E-14
 -1      2926 2.02782E+01-4.89567E+00 1.54508E-01 5.45807E+00-2.23377E-13-5.90829E-14
 -1      2927 1.99898E+01 5.03935E-02-1.37386E-04 1.78937E-03 2.95022E-14-3.52447E-13
 -1      2928 1.99904E+01 4.97652E-02-6.07418E-05 4.79837E-03-1.06910E-14-2.40608E-14
 -1      2929 2.00107E+01 1.71883E-02 2.23300E-04-1.27849E-02-5.45957E-14-4.97547E-13
 -1      2930 2.00085E+01 1.45277E-02 2.29429E-05-9.77828E-03 2.60864E-14-5.35401E-13
 -1      2931 2.00075E+01 1.68822E-02-1.42910E-04-1.10343E-02-4.95970E-14-6.79794E-13
 -1      2932 2.00107E+01 2.34530E-02-6.54638E-05-1.79982E-02-2.01468E-14-6.35014E-13
 -1      2933 1.99953E+01 4.18718E-02-2.25851E-04 1.33374E-02 3.74496E-14-1.01089E-14
 -1      2934 1.99978E+01 3.90848E-02 9.17780E-05 1.46051E-02 1.52926E-13-1.90900E-13
 -1      2935 1.99905E+01 4.97308E-02-6.31776E-05-5.20431E-03-5.61611E-14-4.21968E-14
 -1      2936 1.99898E+01 5.03936E-02-1.37397E-04-2.20992E-03 5.10991E-14-4.55238E-13
 -1      2937 1.99874E+01 6.08600E-02 2.69296E-04-2.19843E-04 4.21320E-14-4.06554E-13
 -1      2938 1.99915E+01 4.76489E-02-1.95951E-04 8.42026E-03-1.83457E-13 1.10975E-13
 -1      2939 1.99933E+01 4.58197E-02 2.09761E-05 1.08083E-02-9.92513E-14 3.10277E-13
 -1      2940 1.99928E+01 5.30347E-02 2.09610E-04 1.48598E-02-4.31142E-14-1.80415E-14
 -1      2941 1.99888E+01 5.88340E-02 2.52112E-04 8.09858E-03-7.64323E-14 2.31252E-13
 -1      2942 1.99934E+01 4.58547E-02 1.93750E-05-1.10586E-02-9.74366E-14 1.49293E-13
 -1      2943 1.99917E+01 4.76615E-02-1.96199E-04-8.74213E-03-1.74194E-13 3.39816E-13
 -1      2944 1.99889E+01 5.88796E-02 2.56033E-04-8.44377E-03-1.01265E-13 3.80055E-14
 -1      2945 1.99981E+01 3.91358E-02 9.61793E-05-1.47703E-02-8.33145E-14-1.11965E-13
 -1      2946 1.99955E+01 4.19183E-02-2.25605E-04-1.35552E-02-1.07360E-13-7.08260E-15
 -1      2947 1.99931E+01 5.31516E-02 2.11426E-04-1.50909E-02-3.98700E-14-5.16551E-15
 -1      2948 2.00032E+01 3.03830E-02 1.03528E-04-1.53987E-02 9.76530E-14 1.46868E-13
 -1      2949 2.00006E+01 3.38642E-02-2.06330E-04-1.56417E-02 7.63398E-14 1.73506E-13
 -1      2950 1.99990E+01 4.42986E-02 1.49720E-04-1.89274E-02-5.75280E-14 1.91832E-13
 -1      2951 2.00066E+01 2.14803E-02 3.96480E-05-1.29434E-02-1.53809E-13-5.87468E-13
 -1      2952 2.00048E+01 2.52297E-02-1.63887E-04-1.44556E-02 8.16720E-15-1.99543E-13
 -1      2953 2.00042E+01 3.42159E-02 5.10138E-06-1.88590E-02 2.04693E-14 8.27911E-14
 -1      2954 2.00080E+01 2.47206E-02 2.73551E-05-1.60208E-02-1.06287E-13-5.31851E-13
 -1      2955 2.31614E+01-5.09479E+00 1.20803E-01-4.39622E+00-5.02848E-13-5.62606E-14
 -1      2956 2.48451E+01-4.94536E+00-5.77042E-02-3.47868E+00-4.48017E-13 3.01634E-14
 -1      2957 9.56129E+00-2.08819E+00 5.57586E-02 5.08763E+00-4.22051E-13 6.87034E-13
 -1      2958 7.56979E+00-1.20466E+00 1.79514E-01 3.32096E+00-3.74860E-13 9.71417E-13
 -1      2959 1.60178E+01-4.31913E+00-4.95130E-02 6.41517E+00-2.56184E-13-2.23432E-14
 -1      2960 1.27932E+01-3.06270E+00 1.80002E-01 5.96964E+00-3.70842E-13 2.62318E-13
 -1      2961 2.03718E+01 1.76011E+00-9.63818E-03-1.20186E+00-2.33773E-13-2.15230E-13
 -1      2962 2.03527E+01 1.38902E+00-5.72786E-03-8.91421E-01-2.13682E-13-1.85856E-13
 -1      2963 2.03998E+01 1.53780E+00-1.32680E-03 1.14526E+00 3.29634E-13 1.19731E-13
 -1      2964 1.93750E+01-4.91244E+00 1.43428E-01-5.62716E+00 3.41671E-13 4.67664E-13
 -1      2965 2.20954E+01-5.44823E+00-7.84454E-02-4.88968E+00 1.59733E-13 1.87829E-13
 -1      2966 2.01490E+01 3.37493E-01 1.04282E-03-2.00762E-01 1.22701E-13 8.14656E-14
 -1      2967 2.01784E+01 4.08206E-01 7.52916E-03-7.20081E-02 1.60239E-13 9.88962E-14
 -1      2968 2.02024E+01 4.08499E-01-3.32989E-03-2.47690E-01 1.11818E-13 3.37856E-14
 -1      2969 2.02750E+01 1.81505E-01 2.66806E-03-7.13115E-01 6.47674E-14 1.02848E-13
 -1      2970 2.02059E+01 1.91460E-01 1.50354E-03-6.50388E-01 8.79689E-14 1.12107E-13
 -1      2971 2.02023E+01 2.56878E-01-2.60614E-03-6.44346E-01 8.07052E-14 7.29014E-14
 -1      2972 2.02535E+01 2.27899E-01-2.28486E-03-7.95576E-01 7.84244E-14 9.93673E-14
 -1      2973 2.03874E+01 1.10902E+00 4.77643E-03-6.71679E-01-1.76748E-13-1.68250E-13
 -1      2974 2.03123E+01 8.87590E-01-3.75694E-03-4.09257E-01-1.43980E-13-1.60773E-13
 -1      2975 2.03221E+01 9.97317E-01 1.39455E-03-3.44694E-01-1.27556E-13-1.73132E-13
 -1      2976 2.03281E+01 1.47338E+00 1.50589E-03-7.54920E-01-1.74958E-13-2.12332E-13
 -1      2977 2.02064E+01 4.97401E-01-2.92285E-05 8.52384E-02 1.94610E-13 9.48909E-14
 -1      2978 2.02795E+01 6.23442E-01 1.02876E-02 2.72256E-01 1.98266E-13 1.05956E-13
 -1      2979 2.03341E+01 9.03180E-01 1.96051E-06 4.35106E-01 2.41876E-13 2.88917E-14
 -1      2980 2.02552E+01 5.88939E-01-2.55613E-03 4.27425E-02 1.77020E-13 3.77223E-14
 -1      2981 1.57718E+01-4.43210E+00 1.67951E-01-6.46223E+00-4.40314E-13-4.35985E-13
 -1      2982 1.95192E+01-5.15792E+00-5.41640E-02-5.90272E+00-4.51000E-13-2.21559E-13
 -1      2983 2.04336E+01-5.07624E+00-9.61219E-03 5.27598E+00 2.64885E-13-3.36328E-14
 -1      2984 1.67777E+01-4.52542E+00 1.65362E-01 6.18064E+00 3.01176E-13-1.41880E-13
 -1      2985 1.98858E+01 2.73224E+00-7.35685E-03 6.84118E-01 2.90072E-13-1.91575E-13
 -1      2986 1.98236E+01 2.83568E+00-6.79197E-03 5.49042E-01 2.48141E-13-2.30295E-13
 -1      2987 1.99207E+01 2.57016E+00 5.00045E-03 4.18827E-01 2.15926E-13-2.17881E-13
 -1      2988 2.00421E+01 2.33985E+00 6.02139E-03 6.14888E-01 2.58908E-13-1.58103E-13
 -1      2989 2.87215E+01 5.42886E+00-1.40170E-01 1.40329E+00-8.11101E-13-1.48770E-13
 -1      2990 2.85879E+01 6.03304E+00-2.07209E-01 3.01271E-01-8.13211E-13-2.36269E-14
 -1      2991 2.97523E+01 1.81221E+00-7.63555E-02 2.12693E+00-4.98684E-13-2.76223E-13
 -1      2992 2.94769E+01 3.66044E+00-2.03132E-01 2.14332E+00-6.89421E-13-2.78111E-13
 -1      2993 2.01214E+01 2.58105E+00-2.47194E-03-1.33645E+00-2.06031E-13-3.08399E-13
 -1      2994 6.12450E+00-8.50524E-01 1.22659E-01 1.37042E+00-2.40190E-13 1.00495E-12
 -1      2995 6.06256E+00-9.00019E-01 1.46613E-01-1.11310E+00-8.88525E-14 1.15546E-12
 -1      2996 8.38693E+00-4.00670E-01 1.90899E-01-1.80115E+00-3.82125E-14 1.00858E-12
 -1      2997 1.98166E+01 2.84906E+00-6.70091E-03-5.40513E-01-2.19866E-14-3.65796E-13
 -1      2998 1.98782E+01 2.74837E+00-7.07580E-03-6.74838E-01-5.71482E-14-3.69342E-13
 -1      2999 2.87235E+01 5.79913E+00-1.78364E-01-9.00004E-01-7.25253E-13 1.02640E-13
 -1      3000 2.88093E+01 4.61343E+00-1.52681E-01-1.92419E+00-6.56752E-13 2.27304E-13
 -1      3001 2.86203E+01 6.91234E-01-1.00044E-01 1.54322E+00 2.75557E-13 3.81112E-13
 -1      3002 2.91803E+01 2.96064E+00-1.64269E-01 1.84194E+00 4.00749E-13 3.48874E-13
 -1      3003 7.47776E+00-1.40048E+00 1.23107E-01 3.28105E+00 1.62662E-13-5.39208E-13
 -1      3004 5.88498E+00-1.07063E+00 1.94866E-01 1.15152E+00 7.96342E-14-7.42073E-13
 -1      3005 2.88703E+01-2.13509E+00 1.78147E-02 5.20056E-01-1.63682E-13-3.22312E-13
 -1      3006 2.95430E+01-4.43329E-01-1.78713E-01 1.38088E+00-3.23443E-13-2.39378E-13
 -1      3007 2.96069E+01 1.46053E+00-1.81087E-01-1.41997E+00 7.34190E-13-4.16445E-13
 -1      3008 2.88822E+01-7.26705E-01-2.56316E-02-7.09462E-01 4.26423E-13-3.34122E-13
 -1      3009 2.63973E+01-4.69340E+00-1.13536E-01 2.04410E+00 2.06710E-14 4.22676E-13
 -1      3010 2.41277E+01-5.05079E+00 2.28990E-02 3.43131E+00 1.49561E-13 2.46091E-13
 -1      3011 2.92126E+01 3.17732E+00-2.11506E-01-2.16432E+00-5.92915E-13 3.18467E-13
 -1      3012 2.95517E+01 1.39398E+00-4.88183E-02-2.13714E+00-4.94702E-13 3.99653E-13
 -1      3013 2.79021E+01 3.15253E+00-8.35107E-02-2.19310E+00-5.37570E-13 3.43767E-13
 -1      3014 2.77845E+01-3.14411E+00-1.68141E-01 8.38345E-01 1.76373E-13-2.02588E-13
 -1      3015 2.63367E+01-4.13028E+00 7.02161E-02 2.13124E+00 7.14324E-14-2.56656E-13
 -1      3016 2.85418E+01 6.61938E+00-1.54295E-01 3.10422E-01 8.48738E-13-3.78933E-14
 -1      3017 2.84961E+01 6.34950E+00-1.81387E-01-6.96295E-01 9.65894E-13-2.63234E-13
 -1      3018 2.89873E+01 4.57819E+00-1.27826E-01 1.79481E+00 4.88165E-13 2.84134E-13
 -1      3019 2.86117E+01 5.73259E+00-1.99447E-01 1.26200E+00 6.79345E-13 1.46369E-13
 -1      3020 2.77594E+01 3.14456E+00-1.03633E-01 2.05406E+00 3.71508E-13 2.95680E-13
 -1      3021 1.99522E+01 2.61128E+00-6.25696E-03-7.78971E-01-7.58061E-14-3.55457E-13
 -1      3022 2.00342E+01 2.46829E+00-6.07162E-03-9.04163E-01-1.24657E-13-3.25627E-13
 -1      3023 2.00332E+01 2.36050E+00 6.45976E-03-6.09355E-01-6.75740E-14-3.26939E-13
 -1      3024 1.98174E+01 2.75123E+00 4.35729E-03 2.13129E-03 1.06511E-13-2.80532E-13
 -1      3025 1.96962E+01 3.05225E+00-5.72847E-03-5.13689E-02 1.02494E-13-3.13744E-13
 -1      3026 1.97079E+01 3.03548E+00-5.56127E-03-1.85038E-01 7.16376E-14-3.45315E-13
 -1      3027 1.50264E+01-3.57110E+00 1.30162E-01-6.08342E+00-3.52746E-13-4.00888E-13
 -1      3028 1.79856E+01-4.02382E+00 1.19177E-01-5.45401E+00 3.89092E-13 4.42382E-13
 -1      3029 1.19459E+01-1.83774E+00 1.77720E-01-4.74183E+00 1.46660E-13 8.23702E-13
 -1      3030 2.81763E+01 5.59248E+00-1.69194E-01-1.19112E+00 1.02893E-12-2.58120E-13
 -1      3031 2.75343E+01 4.75263E+00-1.20932E-01-1.65834E+00 9.76941E-13-2.99809E-13
 -1      3032 2.67027E+01 5.62354E+00-9.58696E-02-8.01404E-01 8.88067E-13-1.93987E-13
 -1      3033 2.73002E+01 5.45833E+00-1.29516E-01 8.49297E-01 6.38128E-13 1.69829E-14
 -1      3034 2.76170E+01-3.18345E+00-1.57762E-02-1.39839E-01-7.65082E-14-3.10432E-13
 -1      3035 2.70967E+01-3.69419E+00-4.01860E-03 4.90176E-01-4.36769E-14 5.31422E-13
 -1      3036 2.62899E+01-2.89534E+00-6.23614E-02-4.24884E-01-5.80074E-14 4.82530E-13
 -1      3037 2.71406E+01 4.94132E+00-1.13816E-01-5.03432E-01-6.59639E-13 6.48613E-14
 -1      3038 2.62677E+01 9.55390E-02-1.40110E-01-2.46564E+00-2.81622E-13 5.53706E-13
 -1      3039 2.62888E+01 1.46747E+00-6.04906E-02-2.41211E+00-2.42660E-13 5.14403E-13
 -1      3040 2.72163E+01 6.39586E-01-6.34886E-02 2.49816E+00-3.51545E-13-5.38070E-13
 -1      3041 1.99986E+01 4.42761E-02 1.57239E-04 1.87649E-02-1.87386E-14-1.57560E-14
 -1      3042 2.00002E+01 3.38656E-02-2.46657E-04 1.55357E-02-2.69357E-14-1.87811E-13
 -1      3043 2.00029E+01 3.07022E-02 1.56240E-04 1.55556E-02-1.77010E-13-3.72780E-13
 -1      3044 1.90419E+01-4.16445E+00 1.19693E-01 5.34661E+00-3.17246E-13 5.12437E-15
 -1      3045 2.86583E+01 2.25442E+00-1.00130E-01-1.98418E+00 7.61641E-13-4.55372E-13
 -1      3046 2.49226E+01-4.51053E+00 3.42636E-02 2.65389E+00-1.28078E-13-2.21746E-13
 -1      3047 2.59165E+01-4.28022E+00-2.35486E-02-1.85037E+00-4.15903E-13 2.28484E-13
 -1      3048 2.00066E+01 2.30291E-02-9.28941E-05 1.46072E-02-3.44547E-13-6.00412E-13
 -1      3049 9.36912E+00-1.57356E+00 2.15420E-01 4.22840E+00 2.59182E-13-3.86136E-13
 -1      3050 9.07916E+00-7.38115E-01 1.17591E-01 2.98708E+00 2.03601E-13-4.46310E-13
 -1      3051 1.12387E+01-2.00893E+00 5.50366E-02 4.82995E+00 3.44780E-13-3.05589E-13
 -1      3052 2.83051E+01-8.79832E-01-9.09920E-02 1.24797E+00 1.02099E-13 4.24438E-13
 -1      3053 2.76170E+01 2.95079E-01-9.13007E-02 1.92435E+00 1.44815E-13 4.50015E-13
 -1      3054 2.73712E+01-1.98469E+00-3.21223E-02 6.07083E-01-7.92734E-14 4.67945E-13
 -1      3055 2.13110E+01-4.81188E+00 6.10361E-02-4.81627E+00-4.44283E-13-1.31156E-13
 -1      3056 1.26042E+01-2.02150E+00 1.71185E-01 5.10131E+00-4.25313E-13 4.88609E-13
 -1      3057 2.03436E+01 1.64408E+00-1.88966E-03 1.02627E+00 3.23598E-13 4.32519E-14
 -1      3058 2.03300E+01 1.44672E+00 2.67462E-03 7.63144E-01 2.98939E-13 1.53489E-14
 -1      3059 1.56557E+01-3.67492E+00 1.26083E-01 5.86525E+00 3.51483E-13-1.90542E-13
 -1      3060 7.32245E+00-5.25769E-01 1.70285E-01-6.80011E-03 3.69123E-14-6.53172E-13
 -1      3061 8.54312E+00-4.12679E-01 1.88507E-01 2.13553E+00-3.27897E-13 9.07024E-13
 -1      3062 2.01736E+01 2.24968E+00 6.36389E-04-1.07382E+00-1.73514E-13-2.89117E-13
 -1      3063 2.84188E+01-2.21853E-01-6.36545E-02-2.01582E+00-3.29042E-13 4.22440E-13
 -1      3064 1.97316E+01 2.99292E+00-6.18034E-03-2.96233E-01 5.23713E-14-3.37719E-13
 -1      3065 1.97680E+01 2.93771E+00-5.94527E-03-4.30918E-01 7.83214E-15-3.50006E-13
 -1      3066 1.99143E+01 2.58333E+00 5.16163E-03-4.12753E-01-6.87684E-15-3.31102E-13
 -1      3067 1.98412E+01 2.71136E+00 4.58254E-03-2.06855E-01 4.97583E-14-3.15449E-13
 -1      3068 2.40318E+01-4.88297E+00 8.34395E-02-3.35906E+00 2.05530E-13-1.31110E-13
 -1      3069 2.25963E+01-5.01195E+00 5.04116E-02 4.29208E+00 1.93900E-13 1.32686E-13
 -1      3070 2.05190E+01-4.32629E+00 4.41069E-02 4.68124E+00 2.40363E-13 5.25482E-14
 -1      3071 2.38770E+01-4.60619E+00-8.57648E-03 2.86598E+00 1.34455E-13 3.20334E-13
 -1      3072 8.87175E+00-1.54797E+00 1.91300E-01-4.25964E+00-1.86628E-13-7.78294E-13
 -1      3073 1.07451E+01-1.91264E+00 1.15007E-01-4.84732E+00-2.47080E-13-6.23002E-13
 -1      3074 8.48850E+00-8.54107E-01 1.47812E-01-3.12648E+00-1.20050E-13-7.31692E-13
 -1      3075 2.87028E+01 5.14845E-01-4.92876E-02 2.15831E+00-3.32095E-13-3.69732E-13
 -1      3076 2.78342E+01-1.84955E+00-3.52364E-02-5.54991E-01 2.14301E-13-4.48142E-13
 -1      3077 2.02564E+01 1.59901E+00-6.28939E-03 6.32535E-01 2.77983E-13-2.72949E-14
 -1      3078 2.01903E+01 1.80787E+00-1.35308E-03 5.80100E-01 2.56224E-13-7.16174E-14
 -1      3079 2.68242E+01 2.12327E+00-7.59333E-02 2.22143E+00 2.18409E-13 2.85258E-13
 -1      3080 2.64809E+01 3.35883E+00-1.59020E-01 1.98193E+00 3.26128E-13 1.77705E-13
 -1      3081 2.54439E+01-3.82711E+00 6.65419E-02 1.04420E+00 5.44300E-14 4.32349E-13
 -1      3082 2.02466E+01 6.54338E-01 2.69788E-03 2.09879E-01-6.26482E-14-1.43954E-13
 -1      3083 2.02200E+01 5.77082E-01-7.94237E-04 3.41342E-01-5.98235E-14-1.38455E-13
 -1      3084 2.01896E+01 5.23584E-01 1.49911E-03 4.53438E-01-5.75318E-14-1.15699E-13
 -1      3085 2.01735E+01 4.86532E-01 4.13939E-04 5.61737E-01-5.06478E-14-1.24712E-13
 -1      3086 2.01923E+01 6.54594E-01-2.34717E-04 3.74482E-01-5.16067E-14-1.63359E-13
 -1      3087 2.01346E+01 4.64742E-01 2.20531E-04 6.59413E-01-5.00632E-14-1.02628E-13
 -1      3088 2.01292E+01 4.54619E-01 1.32215E-03 7.55513E-01-4.61467E-14-9.57494E-14
 -1      3089 2.01195E+01 5.64857E-01-1.45200E-04 5.88789E-01-4.41943E-14-1.11653E-13
 -1      3090 2.00838E+01 4.52748E-01-8.73058E-04 8.47164E-01-2.38137E-14-6.11771E-14
 -1      3091 2.00877E+01 4.58371E-01 2.02191E-03 9.39100E-01-2.68998E-14-4.16556E-14
 -1      3092 2.00364E+01 5.36176E-01 1.77266E-04 7.81101E-01-1.28840E-14-5.20048E-14
 -1      3093 2.00366E+01 4.65733E-01-1.71867E-03 1.03144E+00-3.07240E-14-2.07376E-14
 -1      3094 2.00494E+01 4.75803E-01 2.64457E-03 1.12433E+00-1.78641E-14 1.79543E-14
 -1      3095 1.99440E+01 5.43637E-01 5.38935E-04 9.66395E-01-2.83851E-15-3.32509E-14
 -1      3096 1.99941E+01 4.80424E-01-2.22692E-03 1.22243E+00-1.41686E-14 4.92262E-14
 -1      3097 2.00178E+01 4.81207E-01 3.35383E-03 1.31849E+00 3.68169E-14 7.03774E-14
 -1      3098 1.98431E+01 5.62114E-01 7.43188E-04 1.15675E+00 1.31969E-14-1.51269E-14
 -1      3099 1.99630E+01 4.67497E-01-2.23213E-03 1.42604E+00 5.10225E-14 2.88852E-14
 -1      3100 2.00050E+01 4.40428E-01 4.35049E-03 1.52441E+00 7.02368E-15 2.53501E-14
 -1      3101 1.97377E+01 5.61498E-01 4.95754E-04 1.36173E+00 1.07765E-14 2.16586E-14
 -1      3102 1.99618E+01 3.86858E-01-1.42716E-03 1.64388E+00-2.73898E-14 4.29606E-14
 -1      3103 2.00378E+01 3.06212E-01 5.82443E-03 1.73991E+00 2.99683E-14 3.81499E-14
 -1      3104 1.96406E+01 5.01644E-01-7.22583E-04 1.58938E+00 2.97169E-14 3.47964E-14
 -1      3105 2.00299E+01 1.83646E-01 8.10433E-04 1.87195E+00 7.13285E-14 1.20368E-14
 -1      3106 2.01689E+01 1.51980E-02 7.76756E-03 1.95527E+00 8.96574E-14 4.17666E-14
 -1      3107 1.95819E+01 3.27076E-01-3.83543E-03 1.84674E+00 4.65454E-14 1.15434E-14
 -1      3108 2.02414E+01-2.12521E-01 5.69915E-03 2.09569E+00 8.15255E-14 5.98117E-14
 -1      3109 2.04892E+01-5.09105E-01 9.77179E-03 2.14477E+00 9.34587E-14 6.47307E-14
 -1      3110 1.96212E+01-3.69444E-02-1.04055E-02 2.13771E+00 8.06310E-14-5.42939E-14
 -1      3111 2.07255E+01-8.78866E-01 1.67450E-02 2.27215E+00 1.07906E-13 6.66495E-14
 -1      3112 2.11396E+01-1.33002E+00 1.17728E-02 2.23961E+00 6.96205E-14 1.20105E-13
 -1      3113 1.98698E+01-6.85840E-01-2.21105E-02 2.45417E+00 9.74118E-14 8.97893E-15
 -1      3114 2.16748E+01-1.83271E+00 4.36349E-02 2.29207E+00 6.23119E-14 2.10541E-13
 -1      3115 2.23503E+01-2.41128E+00 2.02287E-02 2.07105E+00 7.39547E-14 1.85013E-13
 -1      3116 2.05346E+01-1.67761E+00-2.63458E-02 2.73642E+00 1.30504E-13 4.88255E-14
 -1      3117 2.30726E+01-3.35368E+00 4.45911E-02 2.33264E+00 1.12811E-13 3.13875E-13
 -1      3118 2.40146E+01-3.77909E+00 1.65655E-02 1.88449E+00 4.64177E-14 3.16127E-13
 -1      3119 2.50791E+01-3.46944E+00-1.11780E-03-7.10736E-01 7.14888E-14-3.48946E-13
 -1      3120 2.42396E+01-3.30899E+00 4.98651E-02-1.31698E+00 2.08808E-13-2.78292E-13
 -1      3121 2.30868E+01-2.83905E+00 1.58186E-04-1.73161E+00 1.96770E-13-1.08999E-13
 -1      3122 2.23851E+01-2.27815E+00 4.37894E-02-2.02870E+00 2.01610E-13 3.79646E-14
 -1      3123 2.28638E+01-3.53621E+00-6.41546E-02-2.39839E+00 2.89253E-13-7.49331E-14
 -1      3124 2.16902E+01-1.73632E+00 9.17780E-03-2.07687E+00 1.10241E-13 5.20679E-14
 -1      3125 2.11900E+01-1.22204E+00 2.43643E-02-2.16904E+00 7.18230E-14 3.76084E-14
 -1      3126 2.11308E+01-2.19707E+00-4.46234E-02-2.62192E+00 2.09364E-13 1.63043E-13
 -1      3127 2.08344E+01-7.92363E-01 9.80872E-03-2.07577E+00-1.81350E-14 5.92415E-14
 -1      3128 2.05207E+01-4.27705E-01 1.07513E-02-2.05606E+00 4.58030E-14-1.85247E-14
 -1      3129 2.02127E+01-1.04167E+00-2.56065E-02-2.45314E+00 2.31987E-14 2.37207E-13
 -1      3130 2.03720E+01-1.40803E-01 8.20225E-03-1.91852E+00 1.04821E-13-9.85425E-14
 -1      3131 2.01886E+01 8.16591E-02 3.48494E-03-1.84378E+00 7.69206E-14-9.68037E-14
 -1      3132 1.97830E+01-2.40339E-01-1.37819E-02-2.15730E+00 6.55769E-14 2.10912E-13
 -1      3133 2.01512E+01 2.47365E-01 6.08768E-03-1.70236E+00 3.00060E-14-4.69702E-14
 -1      3134 2.00471E+01 3.64097E-01-1.09278E-04-1.60373E+00 4.98645E-14-7.64478E-14
 -1      3135 1.96362E+01 2.44033E-01-5.93798E-03-1.84908E+00 8.20498E-14 3.83257E-14
 -1      3136 2.00621E+01 4.44202E-01 4.43689E-03-1.47125E+00 9.47344E-14-7.49068E-14
 -1      3137 2.00017E+01 4.91022E-01-1.73295E-03-1.36536E+00 1.19682E-13-9.80462E-14
 -1      3138 1.96305E+01 4.96878E-01-1.65126E-03-1.56478E+00 7.82464E-14 1.25983E-13
 -1      3139 2.00367E+01 5.16527E-01 3.37632E-03-1.24533E+00 8.80037E-14-1.79865E-13
 -1      3140 1.99986E+01 5.21052E-01-2.34052E-03-1.14152E+00 5.76382E-14-1.12216E-13
 -1      3141 1.96850E+01 5.98082E-01 4.02237E-04-1.31035E+00 5.57038E-14-4.06973E-14
 -1      3142 2.00371E+01 5.14781E-01 2.72948E-03-1.03475E+00 1.24589E-14-2.78396E-15
 -1      3143 2.00097E+01 4.96085E-01-2.43272E-03-9.38329E-01 8.56502E-14-1.03383E-13
 -1      3144 1.97566E+01 6.07421E-01 1.17383E-03-1.08495E+00 4.29826E-14-1.54832E-14
 -1      3145 2.00445E+01 4.73287E-01 2.32086E-03-8.44860E-01 1.64509E-13-1.05224E-13
 -1      3146 2.00223E+01 4.43616E-01-2.26913E-03-7.58674E-01 2.65634E-13-3.68086E-14
 -1      3147 1.98250E+01 5.65956E-01 1.30253E-03-8.86913E-01 1.30370E-13 6.31877E-15
 -1      3148 2.00507E+01 4.13823E-01 2.02649E-03-6.78199E-01 3.22543E-13-6.59452E-14
 -1      3149 2.00315E+01 3.80593E-01-1.99233E-03-6.03446E-01 2.63679E-13-8.90142E-14
 -1      3150 1.98820E+01 5.00112E-01 1.15084E-03-7.14930E-01 3.02695E-13-2.01213E-13
 -1      3151 2.00533E+01 3.49412E-01 1.77855E-03-5.35344E-01 2.02754E-13-1.43214E-13
 -1      3152 2.00363E+01 3.16840E-01-1.68093E-03-4.72109E-01 1.74934E-13-1.81444E-13
 -1      3153 1.99259E+01 4.26057E-01 9.07718E-04-5.67739E-01 1.64393E-13-1.41418E-13
 -1      3154 2.00522E+01 2.87342E-01 1.54757E-03-4.15468E-01 2.47992E-13-5.63911E-14
 -1      3155 2.00372E+01 2.57626E-01-1.37698E-03-3.63118E-01 2.72614E-13-3.21233E-15
 -1      3156 1.99578E+01 3.53129E-01 6.64703E-04-4.43803E-01 3.03311E-13-1.85049E-13
 -1      3157 2.00483E+01 2.31312E-01 1.32577E-03-3.16794E-01 6.27340E-14 1.31415E-14
 -1      3158 2.00354E+01 2.05406E-01-1.10255E-03-2.74274E-01 9.83250E-14 8.61136E-15
 -1      3159 1.99798E+01 2.86289E-01 4.57311E-04-3.41180E-01 1.96111E-13-4.22651E-13
 -1      3160 2.00429E+01 1.82823E-01 1.11534E-03-2.36999E-01 1.11431E-13-8.95193E-14
 -1      3161 2.00319E+01 1.60944E-01-8.67351E-04-2.03063E-01 1.39594E-13-1.45370E-13
 -1      3162 1.99941E+01 2.27767E-01 2.94439E-04-2.57590E-01 2.13495E-14-1.57991E-13
 -1      3163 2.00367E+01 1.42096E-01 9.20704E-04-1.73548E-01 1.63946E-13-1.16425E-13
 -1      3164 2.00276E+01 1.24055E-01-6.71960E-04-1.46914E-01-1.78555E-14-1.33187E-16
 -1      3165 2.00028E+01 1.78145E-01 1.75519E-04-1.90600E-01 1.45742E-13-2.46963E-13
 -1      3166 2.00304E+01 1.08659E-01 7.45826E-04-1.23923E-01-1.74631E-13 1.14008E-13
 -1      3167 2.00230E+01 9.40581E-02-5.15072E-04-1.03372E-01-2.45126E-14 2.17235E-13
 -1      3168 2.00075E+01 1.37076E-01 9.37368E-05-1.37785E-01 4.59279E-14-5.09648E-14
 -1      3169 2.00245E+01 8.16940E-02 5.94470E-04-8.57782E-02-9.98223E-14 1.78790E-13
 -1      3170 2.00185E+01 7.00517E-02-3.90448E-04-7.02087E-02-1.64737E-13 8.33591E-14
 -1      3171 2.00096E+01 1.03709E-01 3.71577E-05-9.68470E-02-1.39633E-13 1.01203E-13
 -1      3172 2.00190E+01 6.02978E-02 4.81222E-04-5.70046E-02-2.07437E-13 3.80964E-14
 -1      3173 2.00142E+01 5.10228E-02-3.04684E-04-4.54094E-02-1.83873E-13-1.50248E-13
 -1      3174 2.00097E+01 7.69845E-02-1.10973E-05-6.57479E-02-2.20578E-13-6.03106E-14
 -1      3175 2.00142E+01 4.32357E-02 3.68415E-04-3.58286E-02-1.21736E-13-2.04981E-13
 -1      3176 2.00105E+01 3.60379E-02-1.58980E-04-2.74868E-02-8.72410E-14-3.85776E-13
 -1      3177 2.00086E+01 5.55466E-02-1.35152E-04-4.25669E-02-2.80624E-13-1.02466E-13
 -1      3178 2.02053E+01 3.78714E-01 6.25487E-04-5.08268E-01 7.78405E-14 1.62987E-14
 -1      3179 2.02096E+01 4.23905E-01 2.68075E-03-4.06672E-01 7.39392E-14 1.97309E-14
 -1      3180 2.03489E+01 2.10872E-01 2.39356E-03-1.12002E+00 8.12652E-14 5.28778E-14
 -1      3181 2.02796E+01 2.40242E-01 3.10820E-04-1.06077E+00 1.01393E-13 5.30354E-14
 -1      3182 2.02701E+01 2.61816E-01 2.29518E-03-9.86987E-01 8.68655E-14 6.02538E-14
 -1      3183 2.02201E+01 2.77365E-01 1.69381E-04-9.19773E-01 7.93959E-14 7.42208E-14
 -1      3184 2.01453E+01 3.06026E-01-1.81013E-03-1.05339E+00 9.29332E-14 1.85355E-14
 -1      3185 2.06652E+01-6.66143E-02 1.70249E-03-1.31537E+00 4.28208E-14 9.36060E-14
 -1      3186 2.05399E+01 3.51285E-02 2.93363E-03-1.29402E+00 1.69922E-14 4.14625E-14
 -1      3187 2.09570E+01-3.53731E-01 3.24411E-04-1.33158E+00 9.21665E-14 1.43935E-13
 -1      3188 2.07889E+01-1.92794E-01 5.93584E-03-1.35200E+00 1.00768E-13 1.35929E-13
 -1      3189 2.04435E+01-1.31944E-01-7.37763E-03-1.45042E+00 2.77016E-14 6.97268E-14
 -1      3190 2.13879E+01-7.64249E-01-2.29491E-03-1.23674E+00-1.95452E-14 1.03823E-13
 -1      3191 2.11674E+01-5.39703E-01 1.03006E-02-1.32364E+00 5.04339E-14 1.38838E-13
 -1      3192 2.07461E+01-4.99985E-01-1.17933E-02-1.50341E+00 4.63899E-14 1.28266E-13
 -1      3193 2.19900E+01-1.27067E+00-7.01208E-03-9.67597E-01-5.85790E-14 1.91481E-13
 -1      3194 2.17171E+01-1.00266E+00 1.59033E-02-1.14984E+00-6.17085E-14 1.58446E-13
 -1      3195 2.12389E+01-1.01311E+00-1.65872E-02-1.44611E+00-5.47935E-14 1.97394E-13
 -1      3196 2.27613E+01-1.74614E+00-1.21669E-02-4.46046E-01-1.73903E-13 2.60490E-13
 -1      3197 2.24580E+01-1.51593E+00 2.03790E-02-7.47743E-01-8.87221E-14 2.07938E-13
 -1      3198 2.19824E+01-1.62576E+00-1.90775E-02-1.19104E+00-8.53642E-14 2.57517E-13
 -1      3199 2.35886E+01-1.92907E+00-2.29845E-02 3.44017E-01-2.43241E-13 3.00516E-13
 -1      3200 2.33233E+01-1.88240E+00 1.62068E-02-5.55681E-02-2.56865E-13 2.88171E-13
 -1      3201 2.29571E+01-2.15564E+00-2.41046E-02-6.14929E-01-2.22507E-13 3.37973E-13
 -1      3202 2.42706E+01-1.36937E+00-1.68154E-02 1.32253E+00-2.08632E-13 4.12415E-13
 -1      3203 2.41683E+01-1.73893E+00 1.34336E-02 9.37044E-01-2.28627E-13 3.75256E-13
 -1      3204 2.41040E+01-2.29414E+00-3.59790E-02 3.23163E-01-2.90142E-13 3.96934E-13
 -1      3205 2.45157E+01 1.65657E-01-1.52300E-04 2.02200E+00-8.57283E-14 3.89998E-13
 -1      3206 2.45947E+01-7.20451E-01-2.49626E-02 1.86791E+00-1.51566E-13 4.01207E-13
 -1      3207 2.49761E+01-1.38508E+00-4.40899E-02 1.45567E+00-1.56455E-13 4.40471E-13
 -1      3208 2.45125E+01 2.44675E+00-2.88580E-02 1.80105E+00 2.68757E-13 3.12631E-13
 -1      3209 2.46876E+01 1.37309E+00-7.29828E-02 2.12179E+00 7.60468E-14 3.79531E-13
 -1      3210 2.46613E+01 3.31700E+00-9.69081E-02-1.42776E+00 5.73770E-13-3.34012E-14
 -1      3211 2.45533E+01 3.90393E+00-7.49442E-02-7.12623E-01 6.15757E-13 9.21763E-14
 -1      3212 2.44791E+01-8.92658E-01-3.57664E-02-1.79441E+00 2.68955E-13-5.88586E-13
 -1      3213 2.44487E+01-1.12137E-01-6.97289E-03-1.97736E+00 3.49869E-13-4.49555E-13
 -1      3214 2.40072E+01-1.77626E+00-3.72533E-03-8.29721E-01 1.19248E-13-6.26377E-13
 -1      3215 2.42180E+01-1.44688E+00-2.57906E-03-1.25443E+00 1.12505E-13-5.98723E-13
 -1      3216 2.48440E+01-1.47912E+00 8.99357E-03-1.39473E+00 2.27050E-13-4.67057E-13
 -1      3217 2.32133E+01-1.79462E+00 1.73514E-02 7.55824E-02-3.37779E-14-4.36425E-13
 -1      3218 2.34904E+01-1.86103E+00-1.35861E-02-3.17826E-01 1.06658E-13-4.56021E-13
 -1      3219 2.38877E+01-2.15349E+00-1.67295E-02-2.93334E-01-6.68302E-15-4.40552E-13
 -1      3220 2.23718E+01-1.39026E+00 1.86882E-02 7.21221E-01-1.33921E-13-2.20578E-13
 -1      3221 2.26629E+01-1.63627E+00-1.43254E-02 4.43628E-01-6.64011E-14-2.98201E-13
 -1      3222 2.28481E+01-2.01360E+00-1.87014E-02 5.95148E-01-1.53657E-13-1.63476E-13
 -1      3223 2.16687E+01-8.76018E-01 1.47107E-02 1.07275E+00-1.54768E-13-2.95581E-13
 -1      3224 2.19275E+01-1.14404E+00-7.94487E-03 9.15109E-01-1.22671E-13-2.39076E-13
 -1      3225 2.19055E+01-1.46323E+00-1.88275E-02 1.10766E+00-9.90716E-14-1.71051E-13
 -1      3226 2.11521E+01-4.27384E-01 9.63867E-03 1.20749E+00-1.23979E-13-3.52284E-13
 -1      3227 2.13579E+01-6.46642E-01-3.09983E-03 1.14229E+00-1.27667E-13-3.91662E-13
 -1      3228 2.12089E+01-8.64756E-01-1.45461E-02 1.32461E+00-1.10265E-13-1.95221E-13
 -1      3229 2.07971E+01-9.86506E-02 5.50868E-03 1.20428E+00-7.39789E-15-3.02540E-13
 -1      3230 2.09524E+01-2.52564E-01-4.38981E-04 1.20180E+00-5.97148E-14-3.69944E-13
 -1      3231 2.07437E+01-3.75348E-01-9.81144E-03 1.35586E+00-9.96707E-14-3.59709E-13
 -1      3232 2.05612E+01 1.12475E-01 2.63991E-03 1.12074E+00-3.56721E-14-6.91653E-14
 -1      3233 2.06767E+01 1.75070E-02 9.34472E-04 1.15677E+00 1.04373E-15-1.29922E-13
 -1      3234 2.04528E+01-3.17832E-02-6.10940E-03 1.28204E+00-9.93329E-14-1.42186E-13
 -1      3235 2.04055E+01 2.29729E-01 8.44707E-04 9.95864E-01-8.58203E-14-1.19773E-13
 -1      3236 2.04922E+01 1.79812E-01 1.62692E-03 1.05271E+00-6.12936E-14-5.47375E-14
 -1      3237 2.02796E+01 1.80951E-01-3.50006E-03 1.15423E+00-1.11569E-13-1.12512E-13
 -1      3238 2.03011E+01 2.80467E-01-1.94809E-04 8.54926E-01-1.18929E-13 2.11444E-14
 -1      3239 2.03676E+01 2.61546E-01 1.94086E-03 9.20469E-01-1.45420E-13-7.00683E-15
 -1      3240 2.01797E+01 2.93509E-01-1.86541E-03 1.00372E+00-1.81492E-13 4.27565E-14
 -1      3241 2.02287E+01 2.88168E-01-7.35744E-04 7.13713E-01 9.75085E-14-4.67625E-14
 -1      3242 2.02811E+01 2.88788E-01 2.03656E-03 7.80048E-01 9.83671E-15 2.28848E-15
 -1      3243 2.01230E+01 3.36965E-01-9.24960E-04 8.49238E-01 7.29108E-15-5.76342E-14
 -1      3244 2.01766E+01 2.70549E-01-9.62387E-04 5.81611E-01 1.37138E-13 1.99388E-14
 -1      3245 2.02184E+01 2.82310E-01 1.99494E-03 6.43939E-01 1.21627E-13 1.39147E-14
 -1      3246 2.00905E+01 3.36629E-01-4.25334E-04 7.01888E-01 7.69037E-14-5.02114E-14
 -1      3247 2.01375E+01 2.39924E-01-1.00229E-03 4.63644E-01 1.94216E-13 4.80504E-14
 -1      3248 2.01713E+01 2.57103E-01 1.86536E-03 5.19364E-01 2.31170E-13 4.78387E-14
 -1      3249 2.00709E+01 3.11115E-01-1.87103E-04 5.67922E-01 1.52399E-13-5.22264E-14
 -1      3250 2.01072E+01 2.04322E-01-9.38427E-04 3.61920E-01-1.93378E-15-1.34772E-13
 -1      3251 2.01345E+01 2.23245E-01 1.68289E-03 4.09924E-01 1.59781E-13 6.04574E-14
 -1      3252 2.00581E+01 2.73189E-01-8.93660E-05 4.50379E-01 1.05604E-13-2.91710E-14
 -1      3253 2.00833E+01 1.68667E-01-8.23877E-04 2.76646E-01-1.20921E-14-3.61464E-13
 -1      3254 2.01053E+01 1.87120E-01 1.47260E-03 3.16803E-01-8.86354E-14-2.05204E-13
 -1      3255 2.00486E+01 2.31101E-01-5.87714E-05 3.50173E-01 7.07842E-14-2.10325E-13
 -1      3256 2.00642E+01 1.35721E-01-6.92635E-04 2.06848E-01-2.64604E-14-2.17038E-13
 -1      3257 2.00817E+01 1.52503E-01 1.25428E-03 2.39625E-01-5.15608E-14-2.51839E-13
 -1      3258 2.00410E+01 1.89853E-01-5.81499E-05 2.66812E-01-4.39041E-14-2.36111E-13
 -1      3259 2.00490E+01 1.06805E-01-5.63918E-04 1.50919E-01-3.36201E-14-1.09763E-13
 -1      3260 2.00628E+01 1.21378E-01 1.04315E-03 1.77094E-01 2.57720E-14-1.47205E-13
 -1      3261 2.00343E+01 1.52198E-01-6.62933E-05 1.98940E-01-2.63403E-14-6.08737E-15
 -1      3262 2.00369E+01 8.23309E-02-4.48900E-04 1.06986E-01 3.57332E-14-3.26035E-13
 -1      3263 2.00476E+01 9.45721E-02 8.48722E-04 1.27467E-01 1.72308E-14-2.88594E-13
 -1      3264 2.00284E+01 1.19395E-01-7.27364E-05 1.44766E-01 1.72474E-14-3.10438E-13
 -1      3265 2.00273E+01 6.21839E-02-3.38127E-04 7.31619E-02-3.63384E-14-2.40942E-13
 -1      3266 2.00355E+01 7.22026E-02 6.77177E-04 8.88582E-02 3.52277E-14-2.15910E-13
 -1      3267 2.00231E+01 9.17570E-02-7.58462E-05 1.02352E-01 2.85027E-14-4.61154E-13
 -1      3268 2.00199E+01 4.61498E-02-1.05301E-04 4.77877E-02-1.16861E-13-2.30905E-13
 -1      3269 2.00259E+01 5.38963E-02 5.22503E-04 5.93887E-02-1.25383E-13-1.67125E-13
 -1      3270 2.00182E+01 6.90301E-02-1.06578E-04 6.98282E-02-1.41571E-13-2.07576E-13
 -1      3271 1.99850E+01 6.86386E-02-3.15048E-05-1.25496E-02-1.08109E-13 7.36954E-14
 -1      3272 1.99831E+01 7.03749E-02-2.20419E-04-8.36886E-03 2.73223E-14-5.26890E-14
 -1      3273 1.99913E+01 6.11326E-02 6.37226E-05-2.04920E-02-3.59916E-14 1.07144E-13
 -1      3274 1.99877E+01 6.45163E-02-2.80005E-04-1.74209E-02-1.20999E-13 1.46480E-13
 -1      3275 1.99833E+01 7.83184E-02 2.87372E-04-1.80126E-02-7.31588E-14 6.86549E-14
 -1      3276 1.99821E+01 7.18032E-02-1.30329E-04-2.50930E-03-1.06049E-13-5.04907E-13
 -1      3277 1.99820E+01 7.17991E-02-1.28364E-04 2.19010E-03-1.60434E-13-2.71288E-13
 -1      3278 1.99788E+01 8.36360E-02 3.51940E-04-6.42625E-03 1.12038E-14-1.75484E-13
 -1      3279 2.74737E+01 3.01202E+00-1.77226E-01-2.10928E+00 8.17527E-13-4.08229E-13
 -1      3280 2.74111E+01 1.36210E+00-2.62104E-02-2.14468E+00 6.09707E-13-4.66523E-13
 -1      3281 2.02279E+01 4.82714E-01-5.28268E-04-2.93902E-01 8.63242E-14 2.23114E-14
 -1      3282 2.02513E+01 5.63425E-01 3.62961E-03-1.63451E-01 1.24292E-13 1.74674E-14
 -1      3283 2.02274E+01 5.53537E-01-1.46590E-03-3.35677E-01 7.58861E-14 2.94561E-15
 -1      3284 2.02107E+01 1.99507E+00 7.89900E-04-8.60127E-01-1.37472E-13-2.71807E-13
 -1      3285 9.12335E+00 2.34555E-01 9.82671E-02-6.99676E-01-2.14928E-13 6.83287E-13
 -1      3286 9.95937E+00-1.76857E-01 6.29178E-02-2.51557E+00 6.50313E-14 8.47072E-13
 -1      3287 1.70075E+01-3.38893E+00 4.80366E-03 5.27563E+00 3.03479E-13-1.14152E-13
 -1      3288 1.44258E+01-2.48241E+00 1.98481E-01 5.37169E+00 3.42636E-13-2.83593E-13
 -1      3289 2.00098E+01 2.83608E-02 1.42521E-04-2.00290E-02-2.09863E-14-4.76172E-13
 -1      3290 2.04732E+01 1.11603E-01 2.25151E-03-1.23502E+00 4.85437E-14 5.28959E-14
 -1      3291 2.03800E+01 1.69110E-01 1.15557E-03-1.18928E+00 7.29849E-14 8.96458E-14
 -1      3292 2.01828E+01 2.35450E-01-2.69985E-03-1.20274E+00 6.23256E-14 5.57366E-14
 -1      3293 2.02716E+01 1.01632E-01-4.44299E-03-1.34007E+00 3.68910E-14 9.44263E-14
 -1      3294 2.03487E+01 1.08446E+00-7.19797E-04 5.09015E-01 2.53876E-13 1.63688E-14
 -1      3295 2.03028E+01 1.41474E+00 2.75541E-03 5.94247E-01 2.68217E-13 2.65163E-15
 -1      3296 2.02971E+01 1.26604E+00 2.20291E-03 3.97306E-01 2.37352E-13-1.65092E-14
 -1      3297 2.03044E+01 8.88531E-01-2.39552E-03 2.78866E-01 2.23785E-13-1.58852E-15
 -1      3298 1.15711E+01-8.62234E-01 1.21215E-01-3.85023E+00 2.89348E-13 8.36775E-13
 -1      3299 1.37373E+01-2.01713E+00-5.93025E-03-4.94948E+00 3.08538E-13 5.72570E-13
 -1      3300 2.00062E+01 3.17213E-02 8.40385E-05 1.93018E-02-1.09517E-13-4.20362E-13
 -1      3301 1.40114E+01-2.49174E+00 1.41165E-01-5.45709E+00-2.97741E-13-3.78308E-13
 -1      3302 1.66724E+01-3.54173E+00-2.20434E-02-5.63158E+00-3.89161E-13-2.69992E-13
 -1      3303 1.44317E+01-2.27296E+00-3.23566E-02 5.22040E+00-3.32546E-13 2.97706E-13
 -1      3304 1.21609E+01-9.66555E-01 1.43025E-01 4.19049E+00-4.62068E-13 6.38684E-13
 -1      3305 2.66092E+01 2.04092E+00-7.65445E-02-2.47326E+00-3.12805E-13 4.86701E-13
 -1      3306 2.07391E+01-4.50194E+00-1.06323E-01 4.61170E+00-3.23956E-13-6.46219E-14
 -1      3307 1.77565E+01-3.28606E+00 1.42774E-01 5.22536E+00-3.37355E-13-4.98698E-14
 -1      3308 2.02956E+01 8.90254E-01 2.67864E-03-9.34558E-02-9.20088E-14-1.59636E-13
 -1      3309 2.02640E+01 7.55570E-01-2.22745E-03 7.42285E-02-7.55493E-14-1.62954E-13
 -1      3310 2.02494E+01 8.33793E-01-7.30031E-05 1.20685E-01-5.93328E-14-1.49271E-13
 -1      3311 8.52206E+00-6.65192E-02 1.08431E-01 8.07643E-01 1.17462E-13-5.51337E-13
 -1      3312 8.36454E+00-1.00435E-01 1.41990E-01-1.10777E+00 2.77434E-14-5.97161E-13
 -1      3313 2.78665E+01 3.96481E+00-1.19839E-01 1.81367E+00-6.44207E-13-2.55025E-13
 -1      3314 1.68912E+01-3.06026E+00 1.40501E-01-5.18929E+00 3.56395E-13 4.30871E-13
 -1      3315 1.99216E+01-4.36412E+00-6.81018E-02-4.86938E+00 4.00548E-13 2.05995E-13
 -1      3316 2.31029E+01-4.39269E+00 1.08867E-01-3.32907E+00 2.41644E-13-2.52784E-14
 -1      3317 2.49395E+01-4.55940E+00-9.15532E-02-2.10402E+00 1.12750E-13-2.62335E-13
 -1      3318 2.48189E+01-4.18835E+00 1.59405E-02-2.01660E+00-4.92087E-13 2.08385E-13
 -1      3319 2.63246E+01-3.63253E+00-7.30956E-02-6.78088E-01-3.36457E-13 2.93085E-13
 -1      3320 1.00490E+01-2.69196E-01 3.16449E-02 2.83752E+00-2.96388E-13 7.36577E-13
 -1      3321 9.12947E+00 2.35641E-01 1.18494E-01 8.80916E-01-2.35748E-13 7.72493E-13
 -1      3322 1.08354E+01 5.70117E-01 1.36149E-01 8.85354E-02-1.63451E-13 7.28043E-13
 -1      3323 2.72544E+01-1.14846E+00-1.81725E-01-1.44463E+00 3.36713E-13-4.82628E-13
 -1      3324 2.68720E+01-2.55557E+00 5.32605E-02-3.49743E-01 6.12843E-14-4.28206E-13
 -1      3325 1.99995E+01 5.02525E-02 1.25989E-04-2.48077E-02 1.02617E-14 2.42985E-13
 -1      3326 1.99952E+01 5.47972E-02-3.07964E-04-2.34608E-02-3.52526E-14 9.84769E-14
 -1      3327 1.99916E+01 6.82894E-02 2.64497E-04-2.66431E-02 1.66618E-14 1.81552E-13
 -1      3328 1.99342E+01-4.08415E+00 1.39035E-01-4.98015E+00-3.94414E-13-1.15328E-13
 -1      3329 2.24506E+01-4.55503E+00-3.69231E-02-3.78032E+00-4.44731E-13 1.44091E-13
 -1      3330 2.54192E+01-4.16946E+00-1.49723E-01 1.42534E+00-1.70655E-13-3.17213E-13
 -1      3331 2.37893E+01-4.32842E+00 1.22320E-01 2.92318E+00-3.06342E-13-2.62665E-13
 -1      3332 1.99189E+01 2.39068E+00-4.24259E-03 2.18904E-01 1.65980E-13-2.42218E-13
 -1      3333 1.98941E+01 2.43649E+00-3.98509E-03 1.22375E-01 1.29818E-13-2.58274E-13
 -1      3334 2.62605E+01 4.62854E+00-9.25269E-02 1.43610E+00 4.84196E-13 1.57575E-13
 -1      3335 2.60384E+01 5.18038E+00-1.63937E-01 3.31268E-01 6.39030E-13 9.30506E-15
 -1      3336 2.65394E+01-3.78533E+00 2.34298E-02-5.97691E-01-3.63147E-14-2.92405E-13
 -1      3337 2.75025E+01-2.44606E+00-9.84131E-02 9.93888E-01-1.48537E-13-2.93557E-13
 -1      3338 1.98808E+01 2.46156E+00-3.93284E-03 4.90191E-02 1.02268E-13-2.66395E-13
 -1      3339 1.98797E+01 2.46307E+00-4.01088E-03-4.78617E-02 7.81321E-14-2.67185E-13
 -1      3340 1.99754E+01 2.19698E+00 6.01606E-03 6.42202E-02 1.11287E-13-2.31703E-13
 -1      3341 2.55201E+01 3.47875E+00-7.63169E-02 1.65031E+00 3.61516E-13 1.27620E-13
 -1      3342 1.69811E+01-2.36231E+00 9.14457E-02 4.63854E+00-3.56493E-13 3.13430E-14
 -1      3343 1.01444E+01 2.46972E-01 1.11227E-01-1.23622E+00 6.81608E-14-5.53807E-13
 -1      3344 9.09869E+00-1.73852E-01 1.52530E-01-2.02682E+00-3.83998E-14-6.26721E-13
 -1      3345 1.01249E+01-4.75090E-01 6.99726E-02-3.06481E+00-7.27196E-14-6.49703E-13
 -1      3346 2.15552E+01-3.25193E+00-1.31450E-02 3.21768E+00 1.72917E-13 1.52635E-13
 -1      3347 2.02344E+01 1.69022E+00-1.55445E-03-6.40800E-01-1.19765E-13-2.55109E-13
 -1      3348 2.80582E+01 6.35492E-01-7.68722E-02 2.22630E+00-3.51719E-13-4.27866E-13
 -1      3349 2.77994E+01-1.23915E+00-5.13127E-02 1.94033E+00-1.92214E-13-4.34826E-13
 -1      3350 2.03117E+01 1.24082E+00-6.51745E-04-4.33736E-01-1.11526E-13-2.08129E-13
 -1      3351 2.02900E+01 1.04991E+00-3.39216E-03-2.39813E-01-9.53377E-14-1.86441E-13
 -1      3352 2.02770E+01 1.12679E+00 1.26302E-03-1.68831E-01-7.61132E-14-1.96475E-13
 -1      3353 1.99948E+01 5.46242E-02-3.13245E-04 2.32455E-02-5.28558E-15-5.39420E-14
 -1      3354 1.99992E+01 5.02476E-02 2.01152E-04 2.46013E-02-6.84724E-14 1.90372E-13
 -1      3355 1.86104E+01-3.31259E+00 5.77786E-02-4.78161E+00-3.64875E-13-1.12514E-13
 -1      3356 2.00073E+01 3.77866E-02 2.90703E-05-2.50952E-02-5.46539E-14-9.18565E-14
 -1      3357 2.01883E+01 3.46855E-01 1.44185E-03-6.01744E-01 7.84282E-14 1.41520E-14
 -1      3358 2.01864E+01 4.43322E-01-1.48504E-03-5.49645E-01 7.29529E-14-2.08516E-14
 -1      3359 2.02032E+01 3.23062E-01 1.45987E-03-6.86059E-01 6.35673E-14 1.42157E-14
 -1      3360 1.99910E+01 6.09967E-02 7.19873E-05 2.02205E-02 5.40056E-14-2.56665E-13
 -1      3361 1.99911E+01 6.80379E-02 2.55437E-04 2.62599E-02-4.36914E-14-1.26440E-13
 -1      3362 1.99875E+01 6.43346E-02-2.83473E-04 1.71373E-02-3.49821E-14 7.27125E-14
 -1      3363 2.68728E+01-2.18262E+00-5.13686E-02 1.27603E+00-1.60637E-13-3.99437E-13
 -1      3364 2.01400E+01 3.45874E-01-1.44217E-03-8.97241E-01 5.06666E-14 1.27634E-14
 -1      3365 2.02238E+01 2.91392E-01 1.99339E-03-8.42770E-01 6.44580E-14 2.25619E-14
 -1      3366 2.01912E+01 3.05464E-01 5.83935E-04-7.68585E-01 5.31369E-14 9.82855E-15
 -1      3367 2.55371E+01 8.12301E-01-3.77113E-02 2.19115E+00 1.68511E-14 3.29139E-13
 -1      3368 2.41273E+01 3.22799E+00-8.77687E-02 1.12280E+00 4.55268E-13 3.14097E-13
 -1      3369 2.40210E+01 3.67882E+00-5.87274E-02 3.82776E-01 5.21090E-13 2.16953E-13
 -1      3370 2.56683E+01 4.76099E-01-6.84624E-02-2.17601E+00 5.13787E-13-5.97050E-13
 -1      3371 2.49645E+01 1.10990E+00-5.69247E-02-2.21737E+00 4.59473E-13-4.01692E-13
 -1      3372 2.47387E+01 2.21912E+00-3.07695E-02-1.95905E+00 4.84085E-13-2.57060E-13
 -1      3373 2.65977E+01 2.35686E-02-6.17866E-02-1.92123E+00 3.84276E-13-4.60541E-13
 -1      3374 2.00177E+01 4.25220E-02 3.19079E-04 4.01561E-02 8.41024E-14-1.82441E-13
 -1      3375 2.00130E+01 5.40017E-02-2.48708E-04 4.78376E-02 4.25728E-14-1.45371E-13
 -1      3376 2.00139E+01 3.92077E-02 1.35551E-04 3.39529E-02-1.81960E-14-3.54675E-13
 -1      3377 1.99555E+01 2.32034E+00-3.95846E-03 2.89658E-01 1.91224E-13-2.06944E-13
 -1      3378 2.00237E+01 2.10236E+00 6.27451E-03 1.92425E-01 1.67631E-13-1.98303E-13
 -1      3379 2.00021E+01 2.22744E+00-4.97662E-03 3.82464E-01 2.25853E-13-1.81421E-13
 -1      3380 2.57236E+01-3.06131E+00 8.50980E-03 1.73139E-01 5.36290E-15-2.40932E-13
 -1      3381 2.64084E+01 3.53574E+00-8.04731E-02-1.97545E+00 8.00998E-13-2.96638E-13
 -1      3382 1.99829E+01 7.03060E-02-2.22360E-04 8.02993E-03-7.77736E-15 1.65259E-13
 -1      3383 1.99849E+01 6.85253E-02-2.50923E-05 1.23105E-02-1.05498E-13 2.84378E-13
 -1      3384 1.99831E+01 7.81118E-02 3.06915E-04 1.77315E-02-4.71267E-15 9.46527E-14
 -1      3385 1.99787E+01 8.35507E-02 3.47591E-04 6.20637E-03-1.51107E-13-1.72445E-13
 -1      3386 1.32096E+01-1.68029E+00 8.16579E-02 4.57939E+00 2.97720E-13-2.96180E-13
 -1      3387 2.64539E+01-2.47455E+00-4.00249E-02 4.88442E-01-1.96121E-13 3.84193E-13
 -1      3388 2.00046E+01 4.26813E-02-1.33308E-04-2.60609E-02-7.47302E-14 1.10015E-13
 -1      3389 1.24199E+01-2.44615E-01 1.14179E-01 3.10021E+00-3.09645E-13 6.00402E-13
 -1      3390 2.38065E+01-4.30147E+00 2.92276E-02-2.66040E+00-4.53176E-13 1.12369E-13
 -1      3391 2.42903E+01-3.74298E+00-4.54554E-02-1.44360E+00-4.21794E-13 9.12872E-14
 -1      3392 2.22603E+01-3.79794E+00 1.00101E-02-3.10464E+00-3.76796E-13 1.63668E-13
 -1      3393 2.18225E+01-3.80512E+00 5.38101E-02-3.49152E+00 3.13520E-13 8.71300E-14
 -1      3394 1.04190E+01-3.76993E-01 4.79058E-02 2.76542E+00 2.75953E-13-3.24310E-13
 -1      3395 9.40605E+00-3.75324E-02 1.81241E-01 1.79087E+00 1.75547E-13-4.69624E-13
 -1      3396 1.00067E+01 2.89099E-01 7.81969E-02 7.62063E-01 1.48038E-13-4.59854E-13
 -1      3397 1.63088E+01-2.09996E+00 1.19711E-01-4.54454E+00 3.88634E-13 3.86628E-13
 -1      3398 2.00035E+01 4.18416E-02-3.54241E-04 2.54779E-02 1.89542E-14-1.70917E-13
 -1      3399 2.00094E+01 3.45479E-02 1.79207E-04 2.47962E-02-2.55915E-14-6.04029E-13
 -1      3400 2.00119E+01 3.78959E-02 2.91024E-04 2.98109E-02 4.80451E-14-3.70564E-13
 -1      3401 2.00014E+01 5.39453E-02 1.49595E-04 3.07040E-02 1.52290E-13-1.91428E-14
 -1      3402 2.62367E+01-2.98670E+00-1.50288E-02 5.26868E-01-1.22139E-13-4.46070E-13
 -1      3403 1.28447E+01-1.85902E+00 8.75121E-02-5.05360E+00-2.56357E-13-4.04468E-13
 -1      3404 1.48681E+01-1.79542E+00 7.63217E-02-4.63030E+00-3.03445E-13-2.57044E-13
 -1      3405 1.18936E+01-1.03900E+00 1.18748E-01-4.19274E+00-2.03837E-13-4.82656E-13
 -1      3406 2.23560E+01-3.88715E+00 6.15929E-02 3.24127E+00-3.50584E-13-2.41918E-13
 -1      3407 2.02627E+01 6.35740E-01-1.44905E-03-4.41111E-02 1.58766E-13 5.98214E-15
 -1      3408 2.03000E+01 7.65545E-01 3.29508E-03 1.27990E-01 1.86685E-13-6.67375E-15
 -1      3409 2.03033E+01 9.38673E-01 8.75752E-04 1.90641E-01 2.10963E-13-1.65961E-14
 -1      3410 2.02693E+01 7.12969E-01-1.46279E-03-9.26168E-02 1.33737E-13 1.70236E-14
 -1      3411 2.01206E+01 1.96588E+00-6.27653E-03 5.30030E-01 2.42230E-13-1.35009E-13
 -1      3412 2.00590E+01 2.11154E+00-3.46238E-03 4.47821E-01 2.22559E-13-1.62444E-13
 -1      3413 2.01105E+01 1.91548E+00 6.34558E-03 3.10943E-01 1.99334E-13-1.62285E-13
 -1      3414 2.02183E+01 1.63579E+00 6.19905E-03 4.05445E-01 2.29560E-13-8.05065E-14
 -1      3415 2.63934E+01 3.48003E-01-1.00172E-01 2.04083E+00 7.58907E-14 3.49769E-13
 -1      3416 2.00025E+01 5.47478E-02 2.48947E-04-3.17449E-02-7.89734E-14-2.40221E-15
 -1      3417 2.55394E+01-3.66700E+00 1.08711E-02-7.39526E-01 2.81355E-14-1.68681E-13
 -1      3418 1.22100E+01-1.35461E-01 1.29508E-01-2.83227E+00 2.24726E-13 6.77576E-13
 -1      3419 1.99485E+01 2.33196E+00-4.30479E-03-2.87381E-01 7.23176E-15-3.06348E-13
 -1      3420 1.99933E+01 2.24305E+00-5.14024E-03-3.78995E-01-3.30405E-14-3.14263E-13
 -1      3421 2.00520E+01 2.12815E+00-3.46159E-03-4.42937E-01-3.48925E-14-3.14087E-13
 -1      3422 2.01156E+01 1.98328E+00-5.94803E-03-5.28259E-01-6.60071E-14-3.14961E-13
 -1      3423 2.00992E+01 1.93029E+00 4.40412E-03-3.12422E-01-3.72851E-14-2.99938E-13
 -1      3424 2.37704E+01-2.65145E+00 3.36976E-02 5.87874E-01-2.12758E-13-1.04203E-13
 -1      3425 2.43465E+01-2.58984E+00 1.46142E-02 2.60004E-02 2.83280E-14-1.79129E-13
 -1      3426 2.80746E+01-5.99896E-01 1.09582E-04-1.99787E+00-2.16285E-13 5.24344E-13
 -1      3427 2.00976E+01 6.60564E-01-6.12086E-05 4.93417E-01-2.76866E-14-1.05733E-13
 -1      3428 2.00561E+01 6.29246E-01-2.56537E-04 5.93620E-01-1.29266E-14-8.30794E-14
 -1      3429 1.99847E+01 6.12993E-01-1.04560E-03 6.80069E-01-1.34110E-14-6.87449E-14
 -1      3430 1.99398E+01 6.09194E-01 4.96408E-04 7.72440E-01 5.62010E-15-5.63566E-14
 -1      3431 1.99639E+01 7.05891E-01 1.58544E-03 5.86888E-01 2.15039E-15-7.26571E-14
 -1      3432 1.98502E+01 6.13259E-01-2.03962E-03 8.56656E-01-1.65785E-15-7.54873E-14
 -1      3433 1.98021E+01 6.24770E-01 1.17069E-03 9.47797E-01 1.15817E-14-7.88199E-14
 -1      3434 1.98055E+01 6.92520E-01 1.96475E-03 7.55226E-01 1.61484E-15-6.14121E-14
 -1      3435 1.96943E+01 6.36680E-01-2.99113E-03 1.03595E+00 2.97415E-14-9.93108E-14
 -1      3436 1.96439E+01 6.50279E-01 1.95695E-03 1.13123E+00 3.40860E-15-7.46226E-14
 -1      3437 1.96137E+01 7.13927E-01 2.46316E-03 9.23344E-01-6.31044E-15-1.00340E-13
 -1      3438 1.95179E+01 6.55432E-01-3.87770E-03 1.22970E+00-3.75007E-15-4.92048E-14
 -1      3439 1.94696E+01 6.54793E-01 3.16078E-03 1.33375E+00 3.40836E-14-3.78341E-14
 -1      3440 1.93879E+01 7.42600E-01 2.92967E-03 1.10373E+00 3.36129E-14-9.51018E-14
 -1      3441 1.93275E+01 6.34165E-01-4.64394E-03 1.45033E+00 4.23258E-14-6.96885E-14
 -1      3442 1.92923E+01 5.97445E-01 5.20757E-03 1.56787E+00 3.60102E-14-5.76752E-14
 -1      3443 1.91291E+01 7.45301E-01 3.12851E-03 1.31105E+00 1.50110E-14-1.04522E-13
 -1      3444 1.91414E+01 5.25047E-01-5.13418E-03 1.71348E+00 5.82306E-15-8.85157E-14
 -1      3445 1.91427E+01 4.22076E-01 8.66357E-03 1.84977E+00 4.91257E-14-9.60405E-14
 -1      3446 1.88448E+01 6.78261E-01 2.56664E-03 1.56565E+00-2.15781E-15-1.70534E-13
 -1      3447 1.90018E+01 2.62814E-01-4.50494E-03 2.03991E+00 8.99704E-14-1.01942E-13
 -1      3448 1.90802E+01 5.03504E-02 1.27715E-02 2.20044E+00 9.35526E-14-1.03275E-13
 -1      3449 1.85565E+01 4.80312E-01 4.37685E-05 1.89754E+00 5.29502E-14-1.71881E-13
 -1      3450 1.89966E+01-2.35028E-01 1.44512E-03 2.44971E+00 8.68806E-14-5.32437E-14
 -1      3451 1.92160E+01-6.19103E-01 1.75897E-02 2.63639E+00 9.99212E-14-5.35469E-14
 -1      3452 1.83183E+01 5.51348E-02-8.71397E-03 2.34916E+00 1.23805E-13-1.99100E-13
 -1      3453 1.92852E+01-1.10916E+00 1.05538E-02 2.93990E+00 1.42477E-13-3.76276E-14
 -1      3454 1.97497E+01-1.71591E+00 1.74507E-02 3.12943E+00 1.98125E-13-3.78950E-15
 -1      3455 1.82384E+01-7.09519E-01-2.36433E-02 2.96434E+00 1.48119E-13-8.53445E-14
 -1      3456 2.02032E+01 1.73626E+00 6.53928E-04-5.22497E-01-8.75667E-14-2.59965E-13
 -1      3457 2.78860E+01 1.19382E+00-1.30212E-01-2.49199E+00-3.70898E-13 4.45650E-13
 -1      3458 1.74591E+01-2.32426E+00 8.56905E-02-4.56038E+00-3.23968E-13-1.46366E-13
 -1      3459 1.97799E+01-3.20608E+00-1.75286E-02-4.05745E+00-3.43189E-13 3.63078E-14
 -1      3460 2.04730E+01-2.28085E+00 4.37311E-02-3.13546E+00 2.77523E-13 8.52287E-14
 -1      3461 1.97716E+01-1.59683E+00 2.92994E-02-3.06607E+00 1.63658E-13 1.20868E-13
 -1      3462 1.95376E+01-1.00905E+00 2.71440E-02-2.72636E+00 9.39405E-14 1.58403E-13
 -1      3463 1.91855E+01-5.43866E-01 4.65031E-03-2.56568E+00 7.82938E-14 1.53036E-13
 -1      3464 1.84849E+01-1.14276E+00-7.08408E-03-3.20274E+00 1.32934E-13 8.36722E-14
 -1      3465 1.91910E+01-1.60357E-01 1.80378E-02-2.28088E+00 1.27995E-14 2.64908E-13
 -1      3466 1.90367E+01 1.21251E-01-2.13445E-03-2.11212E+00 1.04065E-13 3.24538E-13
 -1      3467 1.83349E+01-1.83913E-01-7.99827E-03-2.52568E+00 9.70972E-14 2.97575E-13
 -1      3468 1.91349E+01 3.39372E-01 1.05959E-02-1.89232E+00 1.59657E-13 2.65861E-13
 -1      3469 1.90900E+01 4.89303E-01-4.56467E-03-1.74137E+00 1.64074E-13 3.03628E-13
 -1      3470 1.84661E+01 3.81016E-01-1.68188E-03-1.99831E+00 9.54750E-14 4.63857E-13
 -1      3471 1.92164E+01 5.98476E-01 6.23175E-03-1.57106E+00 7.82605E-14 2.57969E-13
 -1      3472 1.92240E+01 6.61717E-01-4.80143E-03-1.43901E+00 2.20455E-14 1.91738E-13
 -1      3473 1.86937E+01 6.74847E-01 1.68848E-03-1.60675E+00 1.18545E-13 3.89232E-13
 -1      3474 1.93493E+01 7.00503E-01 3.73644E-03-1.30350E+00-2.52314E-14 1.22713E-13
 -1      3475 1.93775E+01 7.10258E-01-4.39694E-03-1.18777E+00-3.31563E-15 4.72560E-14
 -1      3476 1.89398E+01 7.94388E-01 3.15841E-03-1.30753E+00-5.74576E-14 1.45335E-13
 -1      3477 1.94891E+01 7.06822E-01 2.36853E-03-1.07656E+00 5.25230E-14 1.10831E-13
 -1      3478 1.95214E+01 6.85934E-01-3.86903E-03-9.74890E-01 5.40373E-14 1.34986E-13
 -1      3479 1.91679E+01 8.06964E-01 3.42301E-03-1.06976E+00 4.34826E-14 2.44429E-13
 -1      3480 1.96154E+01 6.59234E-01 1.66492E-03-8.81574E-01 1.96320E-14 2.06023E-13
 -1      3481 1.96443E+01 6.22670E-01-3.33752E-03-7.92672E-01 1.87050E-13 1.49678E-13
 -1      3482 1.93642E+01 7.58275E-01 3.14535E-03-8.73760E-01 1.21833E-13 3.12823E-13
 -1      3483 1.97206E+01 5.84983E-01 1.30861E-03-7.13689E-01 2.26773E-13 2.54444E-14
 -1      3484 1.97435E+01 5.42241E-01-2.83128E-03-6.36801E-01 1.51462E-13-9.82353E-14
 -1      3485 1.95255E+01 6.78020E-01 2.67710E-03-7.08677E-01 1.20358E-13 2.63983E-13
 -1      3486 1.98037E+01 5.01165E-01 1.11747E-03-5.70066E-01 1.29679E-13 1.43214E-14
 -1      3487 1.98204E+01 4.57970E-01-2.36401E-03-5.04537E-01 1.87936E-13 1.30910E-13
 -1      3488 1.96537E+01 5.85192E-01 2.16572E-03-5.68670E-01 1.94798E-13 4.01704E-14
 -1      3489 1.98669E+01 4.17944E-01 9.93628E-04-4.48643E-01 2.05768E-13-1.23424E-14
 -1      3490 1.98783E+01 3.77543E-01-1.94079E-03-3.93709E-01 2.44610E-13-1.34822E-13
 -1      3491 1.97530E+01 4.91507E-01 1.70016E-03-4.50346E-01 1.14877E-13 1.29394E-14
 -1      3492 1.99134E+01 3.40982E-01 8.88553E-04-3.47478E-01 1.73317E-13-3.04613E-13
 -1      3493 1.99207E+01 3.05017E-01-1.56722E-03-3.02187E-01 8.38996E-14-3.14441E-13
 -1      3494 1.98282E+01 4.03713E-01 1.30294E-03-3.51362E-01 1.07465E-13-3.15678E-13
 -1      3495 1.99467E+01 2.73010E-01 7.84964E-04-2.64476E-01 3.94570E-14-2.70477E-13
 -1      3496 1.99508E+01 2.42073E-01-1.25003E-03-2.27745E-01 1.23010E-13-2.97519E-13
 -1      3497 1.98839E+01 3.25315E-01 9.73725E-04-2.69632E-01 1.32668E-13-4.63783E-13
 -1      3498 1.99697E+01 2.14883E-01 6.79886E-04-1.97443E-01 1.03751E-13-3.35648E-13
 -1      3499 1.99717E+01 1.88946E-01-9.85726E-04-1.68145E-01 1.60585E-13-3.09174E-13
 -1      3500 1.99244E+01 2.57653E-01 7.12518E-04-2.03120E-01 1.17388E-13-4.58070E-13
 -1      3501 1.99851E+01 1.66385E-01 5.75587E-04-1.44194E-01 1.54611E-13-4.06047E-13
 -1      3502 1.99856E+01 1.45087E-01-7.66464E-04-1.21218E-01-4.28579E-14-3.59876E-13
 -1      3503 1.99530E+01 2.00731E-01 5.12345E-04-1.49855E-01 7.19787E-14-4.86475E-13
 -1      3504 1.99949E+01 1.26722E-01 4.77288E-04-1.02599E-01-1.14737E-13-2.47498E-13
 -1      3505 1.99945E+01 1.09498E-01-5.90958E-04-8.48950E-02-8.69091E-14-1.89881E-13
 -1      3506 1.99727E+01 1.53835E-01 3.61447E-04-1.07927E-01-4.16299E-14-6.09526E-13
 -1      3507 2.00006E+01 9.48009E-02 4.10994E-04-7.06841E-02-1.96081E-13-6.09020E-14
 -1      3508 1.99997E+01 8.11696E-02-3.65584E-04-5.73977E-02-2.27409E-13-1.97497E-13
 -1      3509 1.99856E+01 1.15727E-01 1.91343E-04-7.55058E-02-4.84803E-14-2.95899E-13
 -1      3510 2.00022E+01 7.30060E-02 3.97299E-04-4.84793E-02-1.80414E-13-3.66569E-14
 -1      3511 2.00012E+01 6.20564E-02-1.56202E-04-3.86150E-02-6.96034E-14 1.92848E-14
 -1      3512 1.99945E+01 6.94301E-02-3.29524E-04-3.64560E-02-9.60972E-15 1.82810E-13
 -1      3513 1.99917E+01 8.85864E-02-1.41222E-04-5.24618E-02 9.34287E-15-1.53127E-13
 -1      3514 1.85264E+01-2.75913E+00-6.22769E-02 4.30260E+00-2.74072E-13-1.12840E-13
 -1      3515 1.61792E+01-1.44691E+00 5.60804E-02 4.12613E+00-3.81797E-13 1.37754E-13
 -1      3516 2.05086E+01-5.47328E-01 4.52706E-03-1.66882E+00-3.87916E-14 1.49870E-13
 -1      3517 2.03130E+01-3.11390E-01 6.49899E-03-1.64624E+00 1.59522E-14 8.30859E-14
 -1      3518 2.02132E+01-1.23663E-01 5.26978E-03-1.55382E+00 5.19281E-14 8.04324E-14
 -1      3519 2.00946E+01 2.57598E-02 2.54310E-03-1.50015E+00 1.64879E-14 6.32781E-14
 -1      3520 1.98936E+01-1.85432E-01-9.84516E-03-1.71017E+00 1.95643E-14 1.33029E-13
 -1      3521 2.18781E+01-1.89308E+00 1.03636E-03-1.52815E+00-1.06717E-13 2.23683E-13
 -1      3522 2.14488E+01-1.50531E+00 2.25653E-02-1.69058E+00-1.04985E-13 1.66978E-13
 -1      3523 2.31329E+01-2.54878E+00 1.42429E-02-9.93958E-01-3.37191E-13 2.39678E-13
 -1      3524 2.25477E+01-2.27224E+00 3.36870E-02-1.37575E+00-2.25110E-13 2.32970E-13
 -1      3525 2.17432E+01-2.26276E+00-1.74047E-02-1.94373E+00-2.17362E-13 1.90471E-13
 -1      3526 2.42688E+01-2.94586E+00 5.63962E-03-5.23760E-01-3.44197E-13 1.81861E-13
 -1      3527 2.36280E+01-2.91934E+00 3.54311E-02-1.06393E+00-3.65126E-13 1.44256E-13
 -1      3528 2.56460E+01-2.14125E+00-1.72551E-02 7.93696E-01-2.22117E-13 3.60621E-13
 -1      3529 2.52778E+01-2.76012E+00 4.16038E-02 2.07892E-01-3.28824E-13 3.07081E-13
 -1      3530 2.57779E+01-1.20967E+00-8.22296E-03-1.62612E+00 2.90320E-13-3.89928E-13
 -1      3531 2.57390E+01 4.82530E+00-1.09651E-01-1.73712E-01 7.28972E-13 4.23654E-14
 -1      3532 2.53592E+01-2.12969E+00-6.96534E-02-9.74820E-01 2.05875E-13-2.86117E-13
 -1      3533 2.13736E+01-1.32781E+00 2.14294E-02 1.56782E+00-1.46716E-13-6.00052E-15
 -1      3534 2.17739E+01-1.71272E+00-1.93496E-03 1.43435E+00-1.13679E-13 5.20113E-15
 -1      3535 2.07010E+01-6.72743E-01 1.24644E-02 1.59074E+00-4.69656E-14-1.16394E-13
 -1      3536 2.09867E+01-9.85165E-01 4.16866E-03 1.56311E+00-9.75077E-14-6.06150E-14
 -1      3537 2.06905E+01-1.23574E+00-2.18252E-02 1.88628E+00-9.15576E-14 1.99897E-14
 -1      3538 2.03004E+01-1.91203E-01 6.23453E-03 1.48821E+00-1.03557E-13-1.16410E-13
 -1      3539 2.04877E+01-4.12030E-01 5.21847E-03 1.51933E+00-8.12595E-14-1.08591E-13
 -1      3540 2.01497E+01-5.43577E-01-1.37923E-02 1.74935E+00-1.07323E-14 8.99667E-14
 -1      3541 2.00819E+01 1.23942E-01 2.39506E-03 1.32987E+00-1.87614E-13-5.38757E-14
 -1      3542 2.01975E+01-1.49550E-02 4.51743E-03 1.39169E+00-1.32507E-13-8.47135E-14
 -1      3543 1.98688E+01-6.32849E-02-8.32877E-03 1.54903E+00-1.26207E-13 1.43371E-13
 -1      3544 1.99769E+01 3.05227E-01 2.76070E-04 1.15321E+00-1.56625E-13 7.33699E-15
 -1      3545 2.00455E+01 2.29248E-01 3.63368E-03 1.22857E+00-1.95501E-13-1.79129E-14
 -1      3546 1.97493E+01 2.37037E-01-4.31664E-03 1.33367E+00-1.88444E-13 7.11120E-14
 -1      3547 1.99365E+01 3.90530E-01-8.34201E-04 9.77351E-01-1.64684E-13 6.39962E-14
 -1      3548 1.99766E+01 3.58421E-01 2.86156E-03 1.05622E+00-1.39936E-13 9.18726E-14
 -1      3549 1.97216E+01 4.00030E-01-1.87327E-03 1.12744E+00-1.41291E-13 1.24567E-13
 -1      3550 1.99301E+01 4.12121E-01-1.35995E-03 8.12009E-01 6.22010E-14-1.13681E-14
 -1      3551 1.99537E+01 4.08439E-01 2.30043E-03 8.88421E-01-4.89190E-14 4.42377E-14
 -1      3552 1.97411E+01 4.68194E-01-5.01105E-04 9.38533E-01-2.96111E-14 1.88275E-13
 -1      3553 1.99395E+01 3.94728E-01-1.53751E-03 6.62322E-01 1.39312E-13 6.21291E-14
 -1      3554 1.99541E+01 4.07939E-01 1.90263E-03 7.32770E-01 1.00141E-13 3.76292E-14
 -1      3555 1.97811E+01 4.74993E-01 2.01233E-04 7.69845E-01 1.07774E-13 1.05185E-13
 -1      3556 1.99544E+01 3.56004E-01-1.51621E-03 5.30659E-01 9.71209E-14 1.13837E-13
 -1      3557 1.99642E+01 3.78041E-01 1.61003E-03 5.93294E-01 7.75573E-14 7.55474E-14
 -1      3558 1.98267E+01 4.45218E-01 5.05342E-04 6.22143E-01 8.94362E-14 2.72406E-13
 -1      3559 1.99695E+01 3.07783E-01-1.38951E-03 4.17636E-01 1.72560E-13 1.77514E-13
 -1      3560 1.99767E+01 3.33324E-01 1.38130E-03 4.71712E-01 2.08502E-13 2.60065E-13
 -1      3561 1.98697E+01 3.96212E-01 5.81022E-04 4.95050E-01 1.71173E-13 4.11789E-13
 -1      3562 1.99824E+01 2.57625E-01-1.21182E-03 3.22733E-01 1.01737E-13 9.94365E-14
 -1      3563 1.99882E+01 2.83318E-01 1.18734E-03 3.68258E-01 1.50934E-13 1.82590E-13
 -1      3564 1.99066E+01 3.39505E-01 5.46757E-04 3.87571E-01 1.62285E-13 4.01321E-13
 -1      3565 1.99923E+01 2.10053E-01-1.02022E-03 2.44629E-01-9.37183E-14 4.39120E-14
 -1      3566 1.99973E+01 2.33948E-01 1.01155E-03 2.82120E-01-2.63243E-14-5.50232E-14
 -1      3567 1.99364E+01 2.82392E-01 4.63109E-04 2.98266E-01 1.11501E-13 1.93534E-13
 -1      3568 1.99993E+01 1.67432E-01-8.36034E-04 1.81534E-01 5.20430E-14-1.80097E-14
 -1      3569 2.00037E+01 1.88566E-01 8.51433E-04 2.11797E-01 8.32735E-15 2.52215E-14
 -1      3570 1.99593E+01 2.29159E-01 3.64898E-04 2.25302E-01-2.10603E-14 1.39378E-13
 -1      3571 2.00038E+01 1.30725E-01-6.70199E-04 1.31486E-01 6.44301E-14-1.29298E-13
 -1      3572 2.00077E+01 1.48757E-01 7.06123E-04 1.55446E-01 4.08128E-14-8.69849E-14
 -1      3573 1.99760E+01 1.81966E-01 2.74924E-04 1.66674E-01 1.42070E-13 3.41628E-14
 -1      3574 2.00062E+01 1.00049E-01-5.14653E-04 9.25170E-02-2.31732E-14-1.01248E-13
 -1      3575 2.00096E+01 1.15013E-01 5.77700E-04 1.11122E-01 9.92557E-14-1.58704E-13
 -1      3576 1.99877E+01 1.41590E-01 1.97056E-04 1.20377E-01 4.82767E-14 3.27060E-14
 -1      3577 2.00072E+01 7.51842E-02-2.69362E-04 6.28561E-02-1.88814E-13-3.41768E-14
 -1      3578 2.00101E+01 8.71101E-02 4.78188E-04 7.68592E-02-9.90178E-14 7.19527E-14
 -1      3579 1.99953E+01 1.07915E-01 8.14581E-05 8.44896E-02-1.89082E-13 2.51210E-13
 -1      3580 1.45817E+01-1.46497E+00-4.33561E-03 4.24002E+00 2.05731E-13-3.84984E-13
 -1      3581 1.23972E+01-6.07342E-01 1.69441E-01 3.69893E+00 2.67293E-13-3.71710E-13
 -1      3582 1.99790E+01 8.88056E-02-3.07357E-05-2.46582E-02 1.16595E-13 5.97089E-14
 -1      3583 1.99750E+01 9.23933E-02-3.09363E-04-1.91042E-02 1.10139E-13-1.24406E-13
 -1      3584 1.99721E+01 9.61554E-02-8.97865E-05-1.11497E-02 8.24426E-14 2.74659E-14
 -1      3585 1.99705E+01 9.73225E-02-2.32712E-04-4.39310E-03 9.51734E-15-2.82390E-13
 -1      3586 1.99683E+01 1.09073E-01 4.35925E-04-1.78987E-02 1.32972E-13-8.45925E-14
 -1      3587 1.94792E+01-3.76520E+00 1.05965E-01 4.84945E+00 2.65100E-13-7.30700E-14
 -1      3588 1.79246E+01-2.90990E+00 2.90581E-02 4.67765E+00 2.49217E-13-1.50758E-13
 -1      3589 2.31170E+01-3.79876E+00-6.62324E-02 2.28097E+00-2.49503E-13-1.09537E-13
 -1      3590 2.11505E+01-3.34021E+00 9.47025E-02 3.58116E+00-3.61157E-13-1.34429E-13
 -1      3591 1.22943E+01 4.12261E-01 4.15938E-02-1.98893E+00 6.23859E-14 5.33837E-13
 -1      3592 1.35267E+01-3.49417E-01-7.54400E-03-3.30146E+00 2.63607E-13 5.08170E-13
 -1      3593 2.02084E+01 6.11110E-01-9.49240E-04-3.72385E-01 6.23493E-14-4.01573E-14
 -1      3594 2.02350E+01 6.92920E-01 1.96802E-03-2.52823E-01 8.42633E-14-2.50670E-14
 -1      3595 2.23963E+01-2.07571E+00 3.04960E-02 1.28619E+00-2.57678E-13-4.83147E-14
 -1      3596 2.28927E+01-2.41337E+00-9.34383E-03 9.85695E-01-2.80571E-13-1.35615E-13
 -1      3597 2.30107E+01-2.90364E+00-3.15150E-02 1.40715E+00-2.05040E-13 7.93267E-14
 -1      3598 2.16150E+01-2.10433E+00-3.07371E-02 1.83862E+00-2.32267E-13 1.24114E-13
 -1      3599 2.02400E+01 1.00429E+00 4.54942E-04 3.18521E-02-6.01217E-14-2.00504E-13
 -1      3600 2.02152E+01 8.78571E-01-1.72548E-03 1.72501E-01-5.05117E-14-1.94364E-13
 -1      3601 1.55101E+01-1.24772E+00 6.37362E-02-4.06316E+00 3.89052E-13 3.41772E-13
 -1      3602 1.79635E+01-2.42834E+00 1.54244E-02-4.31473E+00 3.20273E-13 2.75925E-13
 -1      3603 2.00195E+01 3.70475E-01 2.52419E-03-1.07911E+00 7.62090E-14 5.90956E-14
 -1      3604 2.00085E+01 3.93082E-01-6.94317E-04-1.00111E+00 8.12858E-14 3.59772E-14
 -1      3605 1.98911E+01 2.44212E+00-3.96018E-03-1.20488E-01 6.10633E-14-2.87264E-13
 -1      3606 1.99148E+01 2.39971E+00-4.06544E-03-2.16045E-01 2.36248E-14-2.98321E-13
 -1      3607 2.00197E+01 2.11415E+00 6.95777E-03-1.93102E-01 7.84908E-15-2.85733E-13
 -1      3608 2.07254E+01-3.02732E+00 7.15774E-02-3.60155E+00 3.82431E-13 1.26547E-13
 -1      3609 2.01859E+01 7.80970E-01 6.61328E-04 2.82270E-01-1.69536E-14-1.84913E-13
 -1      3610 2.01496E+01 7.09416E-01-1.17490E-03 3.98172E-01-1.58452E-14-1.48642E-13
 -1      3611 2.00884E+01 7.79557E-01 1.38901E-03 4.05846E-01 9.75104E-16-1.30531E-13
 -1      3612 2.10339E+01-1.14416E+00 3.86545E-03-1.69143E+00-8.80296E-14 1.40155E-13
 -1      3613 2.07363E+01-8.18708E-01 1.42495E-02-1.73065E+00-3.73229E-14 1.60906E-13
 -1      3614 2.01786E+01-7.05157E-01-1.93236E-02-1.90628E+00-5.80351E-14 1.41160E-13
 -1      3615 2.07491E+01-1.40245E+00-2.25643E-02-2.01691E+00-1.17905E-13 1.53293E-13
 -1      3616 1.16544E+01 7.05357E-01 1.20159E-02 8.44298E-01-1.50246E-13 6.96325E-13
 -1      3617 1.17211E+01 7.39706E-01 3.12039E-02-6.70027E-01-6.65483E-14 6.23349E-13
 -1      3618 2.11422E+01-3.88779E+00 2.12597E-02 3.94157E+00 2.05926E-13 3.85473E-14
 -1      3619 1.99892E+01 7.69663E-02-2.61835E-05-3.34093E-02-2.87367E-15 2.07126E-13
 -1      3620 1.99834E+01 8.27367E-02-3.39475E-04-2.99199E-02 1.27111E-14 1.62439E-13
 -1      3621 1.99760E+01 9.95061E-02 7.63365E-05-3.16247E-02 2.64653E-13 1.39532E-13
 -1      3622 1.99882E+01 8.67594E-02 3.75560E-04-4.04629E-02 1.10160E-13 1.86507E-13
 -1      3623 1.38870E+01-4.21013E-01-1.82142E-03 3.37517E+00-3.33674E-13 4.75970E-13
 -1      3624 1.23865E+01 4.35564E-01 7.16707E-02 2.11380E+00-2.93996E-13 5.60156E-13
 -1      3625 1.87653E+01-2.54987E+00-4.56541E-03 4.08625E+00 2.33678E-13-7.70183E-14
 -1      3626 1.70919E+01-1.89764E+00 1.38091E-01 4.42376E+00 2.46626E-13-2.09728E-13
 -1      3627 2.02506E+01 1.33219E+00-3.34386E-03 2.82692E-01 2.17244E-13-4.33402E-14
 -1      3628 2.02029E+01 1.49595E+00-1.29524E-03 2.56071E-01 1.92262E-13-9.62830E-14
 -1      3629 1.09120E+01 6.13030E-01 1.29135E-01-3.66030E-01 1.21001E-13-4.35901E-13
 -1      3630 1.12264E+01 4.43251E-01 3.43742E-02-1.25281E+00 6.48596E-14-4.94195E-13
 -1      3631 2.02408E+01 1.15253E+00-2.41857E-03-8.33472E-02-5.80028E-14-2.20826E-13
 -1      3632 2.02107E+01 1.20694E+00 2.14976E-03-2.66915E-02-3.77885E-14-2.66538E-13
 -1      3633 2.02454E+01 1.32814E+00-1.27495E-03-2.33336E-01-5.20550E-14-2.39930E-13
 -1      3634 1.81499E+01-1.40490E+00 4.57536E-02 3.60088E+00 2.53008E-13-8.82896E-14
 -1      3635 1.95280E+01-2.05013E+00 9.34050E-04 3.42887E+00 2.37147E-13-2.61614E-14
 -1      3636 2.78524E+01 2.33866E+00-1.56793E-01 2.58844E+00-4.73857E-13-4.32362E-13
 -1      3637 1.64930E+01-1.93768E+00 2.33451E-02-4.49287E+00-2.61114E-13-1.89779E-13
 -1      3638 1.78720E+01-1.88483E+00 5.04417E-03-3.86750E+00-2.81332E-13-8.05606E-14
 -1      3639 1.55988E+01-1.21501E+00 8.45101E-02-4.07672E+00-2.41180E-13-2.68462E-13
 -1      3640 2.01557E+01 3.83078E-01-1.39316E-03-7.32173E-01 6.73157E-14-7.49768E-14
 -1      3641 1.33151E+01 7.25666E-01 7.20588E-02 1.31659E+00-2.13665E-13 5.19237E-13
 -1      3642 2.00523E+01 4.11992E-01 1.81378E-03-9.16461E-01 4.56288E-14 2.56932E-14
 -1      3643 2.00553E+01 4.28373E-01-4.10294E-04-8.35347E-01 2.37836E-14-1.35099E-14
 -1      3644 1.99157E+01 4.72537E-01-4.54872E-04-9.40944E-01 3.39121E-14-5.17229E-15
 -1      3645 2.02991E+01 1.03914E+00-1.49156E-03 2.19118E-01 2.13884E-13-1.80549E-14
 -1      3646 2.02752E+01 1.23032E+00 1.07324E-03 2.64352E-01 2.11154E-13-3.02546E-14
 -1      3647 2.02682E+01 1.12697E+00 3.06918E-03 1.12798E-01 1.91745E-13-3.45486E-14
 -1      3648 2.02854E+01 9.10768E-01-4.67266E-04 6.41139E-02 1.83225E-13-2.31551E-14
 -1      3649 1.32407E+01 7.60700E-01 7.76570E-02-1.20958E+00 9.26429E-15 4.37914E-13
 -1      3650 1.97885E+01 1.37457E-01-5.11744E-03-1.50199E+00 7.18464E-14 7.05498E-14
 -1      3651 2.00680E+01 1.41509E-01 4.27717E-03-1.40377E+00 4.88853E-14 9.68774E-14
 -1      3652 2.00024E+01 2.27725E-01 4.76043E-04-1.33520E+00 7.72554E-14 1.26119E-13
 -1      3653 2.28062E+01-3.19162E+00-1.95397E-02-1.96943E+00-3.41288E-13 1.05648E-13
 -1      3654 1.58315E+01-1.17193E+00 3.45762E-02 3.84136E+00 1.91923E-13-2.71942E-13
 -1      3655 1.99845E+01 3.37177E-01-4.69339E-04-1.16725E+00 5.73159E-14 9.60575E-14
 -1      3656 1.98370E+01 4.21241E-01-1.15908E-03-1.11656E+00 4.14820E-14 8.81753E-14
 -1      3657 2.00166E+01 2.92268E-01 3.33321E-03-1.24219E+00 3.06014E-14 1.17273E-13
 -1      3658 1.56167E+01-7.16548E-01 5.35907E-02 3.58361E+00-3.15047E-13 2.13908E-13
 -1      3659 1.53010E+01-3.12543E-02 7.55030E-03 2.77498E+00-2.94737E-13 2.78548E-13
 -1      3660 1.71878E+01-1.00127E+00-1.06887E-03 3.33703E+00-3.10273E-13 2.67841E-14
 -1      3661 1.21127E+01-1.18891E-01 5.12990E-02 2.71869E+00 2.17076E-13-3.58685E-13
 -1      3662 2.00074E+01 6.89869E-02 3.39691E-04 5.35514E-02-1.47766E-13-2.07332E-13
 -1      3663 1.99974E+01 8.47019E-02-2.07244E-04 5.93092E-02-7.15615E-14 1.46755E-13
 -1      3664 2.00049E+01 6.29936E-02 3.96190E-05 4.50527E-02 1.40014E-13-2.88328E-14
 -1      3665 2.00084E+01 4.70138E-02-3.25076E-04 3.56355E-02 2.97843E-13-1.99924E-13
 -1      3666 2.42137E+01-3.57454E+00-4.42914E-03 1.29564E+00-9.98637E-14 1.69170E-14
 -1      3667 2.29512E+01-3.29789E+00-2.76860E-02 1.89946E+00-1.16889E-13 1.71792E-13
 -1      3668 2.00628E+01 1.82740E+00-4.50198E-03 1.56812E-01 1.72831E-13-1.81984E-13
 -1      3669 2.00309E+01 1.89916E+00-3.41225E-03 1.04640E-01 1.39936E-13-1.90624E-13
 -1      3670 1.99839E+01 8.14714E-02-3.63454E-04 3.06326E-02-7.47062E-15-2.06308E-13
 -1      3671 1.99898E+01 7.57164E-02 4.43236E-05 3.42119E-02 3.88856E-15-1.08244E-13
 -1      3672 2.00091E+01 1.94589E+00-3.29763E-03 7.02639E-02 1.34186E-13-1.81357E-13
 -1      3673 1.99956E+01 1.97108E+00-3.35173E-03 1.35967E-02 9.38618E-14-2.21181E-13
 -1      3674 2.00734E+01 1.72441E+00 7.05933E-03 4.65624E-02 1.26515E-13-1.60403E-13
 -1      3675 1.99647E+01 1.12545E-01 4.32552E-04 1.06287E-05 5.52287E-14-1.91204E-13
 -1      3676 1.99705E+01 9.72423E-02-2.22737E-04 4.28900E-03-1.40177E-13-3.01850E-13
 -1      3677 1.99719E+01 9.59350E-02-1.10284E-04 1.09767E-02-1.11718E-13-4.23731E-14
 -1      3678 2.01066E+01-2.59014E+00 4.17849E-02 3.39857E+00-2.41378E-13-1.59259E-13
 -1      3679 2.11853E+01-3.33012E+00 5.28986E-02-3.52504E+00-3.14805E-13 1.55875E-13
 -1      3680 2.21543E+01-3.24035E+00 6.84144E-03-2.56971E+00-3.06723E-13 1.26682E-13
 -1      3681 2.17273E+01-2.77872E+00-7.93099E-03-2.41874E+00-2.57128E-13 1.48963E-13
 -1      3682 1.99021E+01-2.61139E+00 1.24853E-03-3.54231E+00-2.97311E-13 7.04818E-14
 -1      3683 1.55292E+01-5.24970E-01 7.81202E-02-3.29347E+00 2.13354E-13 3.25039E-13
 -1      3684 2.01546E+01 5.05164E-01 1.87050E-04-5.73566E-01 7.21736E-14-1.97183E-14
 -1      3685 2.01756E+01 5.50839E-01 9.73189E-04-4.73987E-01 4.99492E-14-3.59346E-14
 -1      3686 2.01687E+01 6.76204E-01 5.19372E-06-3.98046E-01 7.24556E-14-5.58284E-14
 -1      3687 2.02262E+01 8.63041E-01 6.04920E-04-1.72921E-01 1.11969E-13-7.10358E-14
 -1      3688 2.02527E+01 7.98906E-01-1.65919E-03-1.29563E-01 1.18006E-13-1.70523E-14
 -1      3689 2.63075E+01-7.37004E-01-1.48727E-02 1.84924E+00-2.10908E-14 4.33167E-13
 -1      3690 1.21535E+01-4.52741E-01 9.07427E-02-3.30790E+00-1.03223E-13-4.74898E-13
 -1      3691 2.01757E+01 9.39820E-01 1.62209E-03 2.00491E-01-1.97701E-14-2.20495E-13
 -1      3692 2.02732E+01 8.99435E-01 1.16038E-03-2.31866E-03 1.55108E-13-2.10491E-14
 -1      3693 2.00247E+01 1.91026E+00-3.53203E-03-1.06810E-01 3.80342E-14-2.52934E-13
 -1      3694 2.00595E+01 1.84779E+00-2.43691E-03-1.60900E-01-2.62773E-15-2.75948E-13
 -1      3695 1.99730E+01 2.20119E+00 6.02617E-03-6.57828E-02 5.70626E-14-2.52975E-13
 -1      3696 2.46595E+01-2.92720E+00 2.54835E-02 2.83562E-01 3.49044E-14-1.59526E-13
 -1      3697 1.11962E+01 5.02241E-01 3.55525E-02 5.58574E-01 1.88172E-13-3.89744E-13
 -1      3698 1.99908E+01 8.47937E-02 3.41527E-04 4.46607E-02 7.36648E-14-1.37850E-13
 -1      3699 1.99958E+01 6.88123E-02-3.15432E-04 3.90275E-02 1.66481E-13 1.51786E-13
 -1      3700 2.01432E+01 1.54250E+00 2.89357E-03-1.12473E-01-5.84960E-15-2.57535E-13
 -1      3701 2.01283E+01 1.69353E+00-1.73780E-03-2.12938E-01-2.75547E-14-2.88343E-13
 -1      3702 1.26034E+01 4.81361E-01 7.30364E-02-1.61098E+00-2.36096E-14-4.09839E-13
 -1      3703 1.20599E+01 1.81078E-01 1.03478E-01-2.42918E+00-6.28117E-14-4.14183E-13
 -1      3704 1.33459E+01-5.86505E-01-9.32060E-03-3.52354E+00-1.94051E-13-3.35752E-13
 -1      3705 1.74301E+01-7.80866E-01 9.38671E-03 3.22358E+00 1.79785E-13-8.79158E-14
 -1      3706 1.70426E+01-1.08167E+00-2.44820E-02 3.52324E+00 2.26100E-13-1.27403E-13
 -1      3707 1.53851E+01-3.40820E-01 1.11384E-01 3.33043E+00 1.63489E-13-2.94473E-13
 -1      3708 1.74248E+01-2.78137E-01 5.52274E-03 2.80040E+00 1.73068E-13-1.24425E-13
 -1      3709 2.01558E+01 1.07313E+00-1.57826E-03 1.16019E-01-1.28897E-15-2.03165E-13
 -1      3710 2.01237E+01 9.62390E-01-1.67516E-03 2.25559E-01 2.50336E-14-1.78341E-13
 -1      3711 1.97619E+01 7.48838E-01-2.05554E-03 6.24242E-01 5.65772E-15-1.03913E-13
 -1      3712 1.96735E+01 7.53817E-01-3.72092E-04 7.03902E-01 1.15066E-14-8.37641E-14
 -1      3713 1.95381E+01 7.65817E-01-3.08650E-03 7.71722E-01 3.01110E-15-7.48433E-14
 -1      3714 1.94338E+01 7.84747E-01 1.36807E-04 8.52944E-01 9.05824E-16-7.18203E-14
 -1      3715 1.95174E+01 8.31845E-01 3.69450E-03 6.37099E-01 2.23889E-14-7.66440E-14
 -1      3716 1.92671E+01 8.02870E-01-4.34458E-03 9.26774E-01 2.79584E-14-7.30049E-14
 -1      3717 1.91472E+01 8.22012E-01 8.56412E-04 1.01585E+00 3.55816E-14-6.56032E-14
 -1      3718 1.92234E+01 8.70695E-01 4.60512E-03 7.68626E-01 1.16862E-14-4.47047E-14
 -1      3719 1.89445E+01 8.30806E-01-5.97953E-03 1.10326E+00 1.60066E-14-8.30379E-14
 -1      3720 1.88115E+01 8.33657E-01 2.18207E-03 1.20835E+00 5.69933E-15-1.09328E-13
 -1      3721 1.88664E+01 9.14858E-01 5.82664E-03 9.16241E-01 3.86477E-15-8.39624E-14
 -1      3722 1.85660E+01 8.13706E-01-8.19437E-03 1.32097E+00 2.43056E-15-1.42806E-13
 -1      3723 1.84285E+01 7.79170E-01 4.85768E-03 1.45441E+00 3.73697E-15-1.43684E-13
 -1      3724 1.84360E+01 9.33499E-01 7.47393E-03 1.09839E+00 1.02982E-14-1.03820E-13
 -1      3725 1.81317E+01 7.04126E-01-1.11176E-02 1.61261E+00 1.51605E-14-1.58687E-13
 -1      3726 1.80101E+01 6.00540E-01 9.20827E-03 1.79404E+00 6.02435E-14-1.70673E-13
 -1      3727 1.79176E+01 8.88866E-01 9.54740E-03 1.34623E+00 1.03638E-14-1.17228E-13
 -1      3728 1.76595E+01 4.53706E-01-7.18525E-03 2.02910E+00 1.10449E-13-1.72461E-13
 -1      3729 1.75942E+01 2.20804E-01 1.81802E-02 2.29462E+00 1.49981E-13-1.79510E-13
 -1      3730 1.72967E+01 7.21954E-01 1.14977E-02 1.71307E+00 9.27465E-14-1.24816E-13
 -1      3731 2.02173E+01 1.55893E+00 2.44815E-03-3.48432E-01-5.45154E-14-2.64907E-13
 -1      3732 2.06037E+01-2.70623E+00 5.18044E-02 3.43261E+00 2.06662E-13 5.76457E-14
 -1      3733 1.95698E+01-1.34513E-01 9.60268E-03-1.80526E+00-1.51299E-14 1.11386E-13
 -1      3734 1.94675E+01 5.46907E-02-3.03175E-04-1.69110E+00 4.61979E-14 9.03419E-14
 -1      3735 1.74910E+01-1.43730E-02 2.49996E-02-2.52905E+00-1.24033E-16 4.38669E-13
 -1      3736 1.74944E+01 2.83924E-01-1.21966E-02-2.22445E+00 2.50008E-14 3.64788E-13
 -1      3737 1.78349E+01 5.19529E-01 1.32208E-02-1.93242E+00 3.86446E-14 3.42483E-13
 -1      3738 1.79131E+01 6.71839E-01-1.24307E-02-1.71702E+00 1.07414E-13 3.37260E-13
 -1      3739 1.69972E+01 6.44916E-01 1.26125E-02-1.90514E+00 2.13501E-15 3.00726E-13
 -1      3740 1.82062E+01 7.88979E-01 6.23229E-03-1.52125E+00 8.62375E-14 2.38197E-13
 -1      3741 1.83175E+01 8.53498E-01-9.53399E-03-1.36218E+00 2.45359E-14 1.74254E-13
 -1      3742 1.76023E+01 9.03572E-01 8.46088E-03-1.44669E+00 5.10859E-14 2.47414E-13
 -1      3743 1.85589E+01 8.95127E-01 2.95544E-03-1.22399E+00 2.12013E-14 1.73193E-13
 -1      3744 1.86733E+01 9.03945E-01-7.07067E-03-1.10147E+00-2.98495E-14 2.11565E-13
 -1      3745 1.81126E+01 1.00434E+00 8.12009E-03-1.13782E+00 1.63092E-14 3.17649E-13
 -1      3746 1.88690E+01 8.99703E-01 1.32666E-03-9.97705E-01-2.94841E-15 2.34039E-13
 -1      3747 1.89724E+01 8.75477E-01-5.39317E-03-8.98499E-01 1.49347E-13 2.62097E-13
 -1      3748 1.85298E+01 1.00332E+00 6.73119E-03-9.16757E-01 5.22594E-14 2.85918E-13
 -1      3749 1.91299E+01 8.44537E-01 5.72886E-04-8.15908E-01 1.96835E-13 8.53336E-14
 -1      3750 1.92173E+01 8.02077E-01-4.26824E-03-7.32760E-01 2.15744E-13 1.86430E-13
 -1      3751 1.88680E+01 9.42863E-01 5.42696E-03-7.47216E-01 9.79360E-14 1.13175E-13
 -1      3752 1.93431E+01 7.57361E-01 2.79443E-04-6.64604E-01 4.82167E-14 9.88780E-14
 -1      3753 1.94137E+01 7.06704E-01-3.44294E-03-5.93829E-01 5.87934E-14 1.51291E-14
 -1      3754 1.91397E+01 8.49318E-01 4.36543E-03-6.09767E-01 5.44082E-14-1.85148E-13
 -1      3755 1.95131E+01 6.56842E-01 1.98194E-04-5.36591E-01 9.85716E-14-9.07586E-14
 -1      3756 1.95683E+01 6.04512E-01-2.80587E-03-4.76196E-01 8.57552E-14-1.48539E-13
 -1      3757 1.93553E+01 7.40837E-01 3.47893E-03-4.94855E-01-2.98193E-14-3.90311E-13
 -1      3758 1.96459E+01 5.54774E-01 2.19405E-04-4.27951E-01 4.94087E-15-1.50272E-13
 -1      3759 1.96880E+01 5.04732E-01-2.28358E-03-3.76825E-01 1.49429E-14-2.07564E-13
 -1      3760 1.95243E+01 6.29698E-01 2.75127E-03-3.97400E-01-4.24950E-14-3.15879E-13
 -1      3761 1.97478E+01 4.58329E-01 2.61332E-04-3.36450E-01 9.77417E-14-3.26599E-13
 -1      3762 1.97791E+01 4.12884E-01-1.84071E-03-2.93700E-01 1.38124E-13-4.18507E-13
 -1      3763 1.96550E+01 5.23521E-01 2.14977E-03-3.14889E-01-4.60519E-14-3.08579E-13
 -1      3764 1.98245E+01 3.71507E-01 2.89653E-04-2.60274E-01 8.61123E-14-3.70980E-13
 -1      3765 1.98472E+01 3.31722E-01-1.47762E-03-2.25028E-01 1.34046E-13-4.58148E-13
 -1      3766 1.97545E+01 4.26999E-01 1.66460E-03-2.45674E-01 1.38946E-13-4.69038E-13
 -1      3767 1.98812E+01 2.95970E-01 2.98968E-04-1.97715E-01 1.05337E-13-7.04131E-13
 -1      3768 1.98973E+01 2.62048E-01-1.18077E-03-1.69121E-01 7.44126E-14-5.99681E-13
 -1      3769 1.98293E+01 3.42269E-01 1.26478E-03-1.88292E-01-7.09794E-15-6.70582E-13
 -1      3770 1.99224E+01 2.31906E-01 2.89201E-04-1.47184E-01 3.67345E-14-5.27948E-13
 -1      3771 1.99335E+01 2.03620E-01-9.33652E-04-1.24390E-01-1.52771E-14-6.07843E-13
 -1      3772 1.98845E+01 2.69816E-01 9.50627E-04-1.41475E-01 8.94731E-14-7.06994E-13
 -1      3773 1.99516E+01 1.78728E-01 2.66657E-04-1.07088E-01 3.52665E-14-5.46859E-13
 -1      3774 1.99589E+01 1.55588E-01-7.29414E-04-8.92493E-02-3.85475E-14-5.07049E-13
 -1      3775 1.99245E+01 2.09189E-01 6.97213E-04-1.03972E-01 4.57267E-14-7.47546E-13
 -1      3776 1.99716E+01 1.35472E-01 2.69536E-04-7.58493E-02-1.26054E-14-3.23154E-13
 -1      3777 1.99761E+01 1.16958E-01-4.95375E-04-6.23540E-02 2.03655E-13-1.22062E-13
 -1      3778 1.99528E+01 1.59365E-01 4.97996E-04-7.45642E-02 1.86233E-13-2.60356E-13
 -1      3779 1.99823E+01 1.06928E-01 3.13699E-04-5.53048E-02 2.21922E-13-1.07758E-13
 -1      3780 1.99838E+01 9.58207E-02-9.04714E-05-4.62074E-02 1.64861E-13 1.86720E-13
 -1      3781 1.99777E+01 1.03398E-01 7.94059E-05-4.25249E-02 3.03500E-13 1.47350E-13
 -1      3782 1.99683E+01 1.26046E-01 2.30836E-04-5.49806E-02 2.64485E-13 3.49680E-14
 -1      3783 2.00030E+01 6.08260E-02 7.75398E-05 4.04390E-02 2.38202E-13-5.72993E-14
 -1      3784 2.11614E+01-2.25199E+00 2.04867E-02-2.47474E+00-2.11942E-13 1.25457E-13
 -1      3785 1.99789E+01 8.84256E-02-2.54959E-08 2.46114E-02 5.31419E-14 6.01703E-14
 -1      3786 1.99775E+01 9.82751E-02 3.62831E-04 3.30000E-02-9.54663E-14-9.73558E-15
 -1      3787 1.99748E+01 9.21341E-02-3.10645E-04 1.90242E-02-1.43065E-14 2.02654E-13
 -1      3788 1.94312E+01 1.70088E-01-1.58181E-04 1.53654E+00-1.44790E-13 2.76198E-13
 -1      3789 1.95371E+01-7.12184E-03 9.71552E-03 1.65203E+00-1.47791E-13 2.45258E-13
 -1      3790 1.95758E+01-2.44025E-01 2.98669E-03 1.83047E+00-1.48046E-13 1.31921E-13
 -1      3791 1.97882E+01-5.25870E-01 1.31148E-02 1.93587E+00-8.12373E-14 5.13478E-14
 -1      3792 1.90733E+01-1.74590E-02-6.48461E-03 1.82614E+00-2.13032E-13 1.42813E-13
 -1      3793 1.99545E+01-8.70592E-01 1.29379E-02 2.12730E+00-7.12028E-15-6.70219E-14
 -1      3794 2.03137E+01-1.29053E+00 1.17291E-02 2.20119E+00-1.15659E-13-1.07260E-15
 -1      3795 1.92619E+01-5.98901E-01-3.54742E-03 2.24060E+00-1.92548E-13-7.80756E-15
 -1      3796 1.94181E+01 4.06950E-01-1.86261E-03 1.27658E+00-1.85781E-13 2.38881E-13
 -1      3797 1.94589E+01 3.08880E-01 6.24266E-03 1.38584E+00-1.87868E-13 2.89774E-13
 -1      3798 1.90762E+01 3.41837E-01-2.98562E-03 1.47883E+00-1.67903E-13 2.79371E-13
 -1      3799 1.94698E+01 5.21939E-01-2.46226E-03 1.05204E+00-6.41301E-14 6.85103E-14
 -1      3800 1.94752E+01 4.78908E-01 4.11461E-03 1.15118E+00-8.76074E-14 1.89004E-13
 -1      3801 1.91634E+01 5.36513E-01-7.24775E-04 1.19769E+00-6.71505E-14 2.37561E-13
 -1      3802 1.95492E+01 5.55099E-01-2.58224E-03 8.59358E-01-8.08281E-15 8.57818E-14
 -1      3803 1.95371E+01 5.48310E-01 2.78215E-03 9.47572E-01-9.38139E-14 2.61031E-14
 -1      3804 1.92853E+01 6.18959E-01 6.07523E-04 9.68246E-01-1.17127E-14 5.56686E-14
 -1      3805 1.96349E+01 5.36843E-01-2.46631E-03 6.94861E-01 1.95708E-14 1.79044E-13
 -1      3806 1.96159E+01 5.52247E-01 1.94895E-03 7.72182E-01 4.80713E-14 1.48697E-13
 -1      3807 1.94144E+01 6.27561E-01 1.22882E-03 7.79515E-01-9.08089E-14 1.23641E-13
 -1      3808 1.97155E+01 4.89341E-01-2.22755E-03 5.55348E-01 1.10359E-13 3.78348E-13
 -1      3809 1.96955E+01 5.16841E-01 1.43100E-03 6.22172E-01 6.04482E-14 3.92158E-13
 -1      3810 1.95360E+01 5.91075E-01 1.44541E-03 6.23446E-01-4.09447E-14 3.82010E-13
 -1      3811 1.97856E+01 4.27782E-01-1.94580E-03 4.37961E-01 3.62647E-14 3.35640E-13
 -1      3812 1.97676E+01 4.60620E-01 1.11115E-03 4.94901E-01 1.02318E-13 2.44368E-13
 -1      3813 1.96429E+01 5.30035E-01 1.42890E-03 4.94113E-01 1.10468E-13 3.94501E-13
 -1      3814 1.98436E+01 3.62044E-01-1.66144E-03 3.40324E-01 2.10328E-13 1.95109E-13
 -1      3815 1.98287E+01 3.95829E-01 9.00834E-04 3.88054E-01 1.63496E-13 3.31377E-13
 -1      3816 1.97326E+01 4.58325E-01 1.30218E-03 3.87071E-01 1.51238E-13 9.67260E-14
 -1      3817 1.98898E+01 2.98443E-01-1.39007E-03 2.60222E-01-5.46617E-15 3.17829E-13
 -1      3818 1.98782E+01 3.30422E-01 7.41566E-04 2.99578E-01 1.49614E-13 4.02098E-13
 -1      3819 1.98052E+01 3.84865E-01 1.09114E-03 2.99185E-01 1.25803E-13 4.36460E-13
 -1      3820 1.99252E+01 2.40538E-01-1.13966E-03 1.95389E-01 1.46682E-13 2.89624E-13
 -1      3821 1.99167E+01 2.69254E-01 6.17280E-04 2.27332E-01 4.06433E-14 3.27139E-13
 -1      3822 1.98622E+01 3.15437E-01 8.80425E-04 2.27752E-01 1.14299E-13 4.64960E-13
 -1      3823 1.99516E+01 1.89911E-01-9.17472E-04 1.43696E-01 2.56154E-13 2.66763E-14
 -1      3824 1.99457E+01 2.14767E-01 5.17730E-04 1.69186E-01 2.55120E-13 1.60201E-13
 -1      3825 1.99057E+01 2.53076E-01 6.96040E-04 1.70316E-01 3.08905E-13 4.17727E-13
 -1      3826 1.99705E+01 1.47020E-01-7.15473E-04 1.03167E-01-1.07062E-13 7.31098E-14
 -1      3827 1.99667E+01 1.67915E-01 4.30824E-04 1.23150E-01 1.29447E-13 4.04136E-17
 -1      3828 1.99381E+01 1.99025E-01 5.38846E-04 1.24802E-01 1.94438E-13 9.37205E-15
 -1      3829 1.99836E+01 1.11826E-01-4.38740E-04 7.20076E-02-2.86131E-13 6.54657E-14
 -1      3830 1.99813E+01 1.28802E-01 3.89072E-04 8.72793E-02-2.42125E-13 9.48902E-15
 -1      3831 1.99612E+01 1.53438E-01 3.47255E-04 8.93607E-02-1.38936E-13 7.64652E-14
 -1      3832 2.01807E+01 1.58311E+00 1.35569E-03-2.56308E-01-4.03248E-14-2.69225E-13
 -1      3833 2.01004E+01 4.47707E-01 1.07299E-03-7.50819E-01 6.48428E-14-1.81870E-14
 -1      3834 2.01135E+01 4.72108E-01 2.25432E-04-6.63410E-01 8.42826E-14-2.50517E-14
 -1      3835 2.00910E+01 5.70218E-01-4.57410E-05-5.92833E-01 8.05412E-14-2.78863E-14
 -1      3836 2.10441E+01-2.65010E+00-3.65439E-02 2.75813E+00-2.02272E-13-1.50411E-13
 -1      3837 1.92754E+01-1.84900E+00 4.03064E-02 3.30448E+00-1.90390E-13-2.24648E-13
 -1      3838 2.01547E+01 1.62133E+00-3.87698E-03 2.34672E-01 1.85068E-13-1.51497E-13
 -1      3839 2.01085E+01 1.73953E+00-2.12155E-03 1.87099E-01 1.71916E-13-1.77036E-13
 -1      3840 2.01304E+01 1.58456E+00 4.97495E-03 9.55564E-02 1.42176E-13-1.69898E-13
 -1      3841 2.02109E+01 1.36749E+00 4.43201E-03 1.23064E-01 1.66060E-13-1.12311E-13
 -1      3842 1.32106E+01-5.44617E-03-3.54168E-02 2.56936E+00 1.32922E-13-4.25160E-13
 -1      3843 1.20695E+01 5.38187E-01 1.23460E-01 1.67699E+00 2.12363E-13-3.95524E-13
 -1      3844 1.25381E+01 7.25177E-01 5.36845E-02 6.42346E-01 1.44400E-13-3.66839E-13
 -1      3845 2.01880E+01 8.90119E-01-2.00909E-03-2.14099E-01 1.07616E-13-1.04524E-13
 -1      3846 2.02147E+01 1.02212E+00 3.20064E-03-9.38597E-02 1.26906E-13-1.01592E-13
 -1      3847 1.99873E+01 9.34191E-02-1.89435E-04 5.24323E-02 2.71818E-14-1.81474E-13
 -1      3848 1.99880E+01 1.02710E-01 3.96042E-04 6.23754E-02-1.70516E-13 3.09474E-14
 -1      3849 1.99734E+01 1.21377E-01-9.78982E-05 6.42093E-02-1.54394E-13-2.78998E-13
 -1      3850 1.99799E+01 1.00046E-01-2.59237E-04 4.66792E-02-4.27768E-14-2.79021E-13
 -1      3851 1.99944E+01 1.97333E+00-3.30947E-03-1.96512E-02 7.34740E-14-2.35361E-13
 -1      3852 2.00045E+01 1.95265E+00-3.40979E-03-7.62124E-02 4.17722E-14-2.49467E-13
 -1      3853 2.00634E+01 1.73263E+00 5.22805E-03-5.25274E-02 4.06694E-14-2.37222E-13
 -1      3854 2.00473E+01 1.77192E+00 5.98662E-03-4.35012E-03 8.30042E-14-1.95407E-13
 -1      3855 1.99606E+01 1.23475E-01 1.34580E-04-2.59788E-02 3.51796E-13-9.73707E-14
 -1      3856 1.99561E+01 1.26197E-01-3.75156E-04-1.67582E-02 3.19041E-13-7.17813E-14
 -1      3857 2.22474E+01-2.78338E+00 5.06765E-02 2.15135E+00-2.38819E-13 8.00935E-14
 -1      3858 1.99410E+01 7.77376E-01-1.30929E-03 4.72808E-01 1.51333E-14-1.06466E-13
 -1      3859 1.98686E+01 7.56111E-01-8.70681E-04 5.56698E-01-1.05390E-15-1.14740E-13
 -1      3860 1.97550E+01 8.25129E-01 3.07763E-03 5.09065E-01 1.42968E-15-1.09374E-13
 -1      3861 2.00746E+01 8.77014E-01-7.76229E-04 3.06573E-01 3.90971E-14-1.57771E-13
 -1      3862 2.00198E+01 8.17316E-01-1.23627E-03 4.01063E-01 2.28264E-14-1.35632E-13
 -1      3863 1.99394E+01 8.74632E-01 2.52104E-03 3.74827E-01 3.43723E-14-1.42587E-13
 -1      3864 1.87714E+01-2.56397E+00-1.00179E-02-4.09769E+00 3.04503E-13 2.16306E-13
 -1      3865 1.35685E+01 9.80679E-01-6.65625E-03-5.41703E-01 1.45215E-14 4.01231E-13
 -1      3866 1.41105E+01 6.65571E-01-6.10562E-04-1.80328E+00 4.62976E-14 3.66965E-13
 -1      3867 1.42153E+01 6.44059E-01-1.08847E-02 1.72121E+00-2.07528E-13 4.14679E-13
 -1      3868 1.37010E+01 1.01387E+00 2.31397E-02 5.82710E-01-6.98431E-14 3.82139E-13
 -1      3869 1.52058E+01 8.05688E-02 1.29999E-02-2.72357E+00 7.93831E-14 2.94913E-13
 -1      3870 1.68425E+01-8.33880E-01-8.70168E-04-3.41267E+00 2.01503E-13 3.48090E-13
 -1      3871 1.30139E+01 7.66666E-01 2.37096E-02-8.66122E-01 1.33383E-14-3.39614E-13
 -1      3872 1.35377E+01 4.08583E-01-1.58224E-02-1.98764E+00-1.09398E-13-3.23089E-13
 -1      3873 1.66679E+01 1.01047E-01-2.96444E-02 2.51631E+00 1.72412E-13-1.90445E-13
 -1      3874 2.01573E+01 1.36417E+00-2.13466E-03-5.54237E-02 2.52425E-15-2.51572E-13
 -1      3875 2.01566E+01 1.21042E+00-1.83876E-04 5.25179E-02 5.31259E-15-2.26502E-13
 -1      3876 2.01120E+01 1.23041E+00 5.50408E-04 7.72415E-02 4.45820E-14-1.86404E-13
 -1      3877 2.00953E+01 1.51932E+00-1.61844E-04-3.44207E-02 4.09973E-14-2.22612E-13
 -1      3878 1.97952E+01-6.88561E-01 3.91325E-03-2.10309E+00-5.42626E-14 1.07247E-13
 -1      3879 1.95970E+01-3.65987E-01 7.09909E-03-1.98601E+00-2.97880E-14 1.09902E-13
 -1      3880 1.90970E+01-1.52049E-01-8.59200E-03-1.97356E+00-7.98743E-15 1.02548E-13
 -1      3881 1.31468E+01 9.12812E-01 4.30661E-02-3.67156E-02 5.42223E-14-3.04673E-13
 -1      3882 1.41400E+01 9.15283E-01 3.41420E-02-4.15233E-01-1.12148E-14-2.45680E-13
 -1      3883 1.36831E+01 7.97187E-01 1.81664E-02 9.45169E-01 9.50498E-14-3.05951E-13
 -1      3884 2.00672E+01 1.00734E+00 2.01153E-03 2.26487E-01 4.60061E-14-1.48622E-13
 -1      3885 1.76318E+01-8.86819E-01 3.41135E-02-3.24894E+00 2.26747E-13 3.00628E-13
 -1      3886 1.74280E+01-3.74628E-01-1.68868E-02-2.85902E+00 1.02671E-13 3.90767E-13
 -1      3887 1.55407E+01 4.85722E-01 3.44537E-02-2.07214E+00 5.95494E-14 2.78853E-13
 -1      3888 1.51841E+01-6.46865E-01 4.55833E-02-3.40753E+00-1.98473E-13-2.96704E-13
 -1      3889 1.65993E+01 1.73989E-01 1.18585E-02-2.52905E+00 5.64169E-14 3.45413E-13
 -1      3890 1.97804E+01 5.40765E-01 1.88130E-03-9.27227E-01 2.27395E-14-3.19083E-15
 -1      3891 1.98217E+01 5.55958E-01-1.59816E-03-8.41793E-01 3.75732E-14-3.24231E-16
 -1      3892 2.00040E+01 5.11862E-01-1.58963E-04-7.69615E-01 3.81558E-14-2.34074E-15
 -1      3893 1.95127E+01 2.03996E-01 7.05196E-03-1.54026E+00 8.38202E-14 3.32508E-14
 -1      3894 1.94812E+01 3.12246E-01-1.69348E-03-1.43375E+00 8.38313E-14 3.72456E-14
 -1      3895 1.91298E+01 2.30153E-01-3.55908E-03-1.62287E+00 5.65683E-14 6.40095E-14
 -1      3896 2.00788E+01 1.51259E+00-3.09880E-03 1.67530E-02 1.18726E-13-1.73297E-13
 -1      3897 2.00550E+01 1.56059E+00-2.87603E-03-5.03773E-03 9.66649E-14-1.68396E-13
 -1      3898 1.99680E+01 1.08737E-01 3.74465E-04 1.79195E-02-7.15712E-14-8.85480E-14
 -1      3899 1.97851E+01 3.23306E-01-2.54512E-03-1.30261E+00 4.25642E-14 1.11639E-13
 -1      3900 1.88666E+01-1.35467E+00 2.80589E-02 3.08692E+00-2.43146E-13-1.06760E-13
 -1      3901 1.81124E+01-7.21027E-01-8.19331E-03 2.75143E+00-2.20255E-13-4.30580E-14
 -1      3902 2.07720E+01-1.72510E+00 2.86642E-02 2.30542E+00-2.01309E-13-4.64602E-14
 -1      3903 2.13083E+01-2.27621E+00-3.65002E-03 2.26441E+00-1.97419E-13 5.63989E-14
 -1      3904 1.96896E+01 5.19715E-01-2.07951E-03-1.01810E+00 1.97332E-14-1.58982E-15
 -1      3905 1.95992E+01 6.08729E-01 9.79561E-04-9.17194E-01 2.28956E-14-2.08350E-14
 -1      3906 1.96590E+01 4.93249E-01 3.05055E-03-1.10796E+00 4.32093E-14 2.30104E-14
 -1      3907 1.49045E+01 1.25903E-01 3.93171E-02 2.51861E+00 1.37458E-13-3.21014E-13
 -1      3908 1.99541E+01 1.28540E-01-1.70824E-04-4.86622E-03 2.48586E-13-1.09634E-13
 -1      3909 1.99539E+01 1.28401E-01-2.11748E-04 4.93354E-03 1.01087E-13-1.01874E-13
 -1      3910 1.99468E+01 1.45475E-01 4.45276E-04-1.25631E-02 4.84317E-13-8.39030E-14
 -1      3911 1.99713E+01 1.09016E-01-3.09494E-04-3.72098E-02 4.26530E-13 3.82199E-14
 -1      3912 1.99716E+01 1.09021E-01-1.30790E-04 3.91074E-02-4.66919E-14-4.59661E-14
 -1      3913 1.99690E+01 1.20281E-01 3.81460E-04 4.68405E-02 2.69446E-14-1.05525E-13
 -1      3914 1.99652E+01 1.15388E-01-2.89920E-04 3.21510E-02-7.07851E-14 9.67045E-14
 -1      3915 2.01542E+01 7.94339E-01-9.34803E-05-3.10494E-01 6.34161E-14-1.05901E-13
 -1      3916 2.01390E+01 9.46554E-01 1.71111E-03-2.35351E-01 9.50869E-14-1.30165E-13
 -1      3917 2.01186E+01 7.20788E-01-3.10844E-04-4.15246E-01 4.38898E-14-9.46438E-14
 -1      3918 1.94365E+01-1.88444E+00 4.91676E-02-3.29628E+00-2.64497E-13 1.54499E-15
 -1      3919 2.03858E+01-2.20505E+00-2.30263E-02-2.86176E+00-2.23299E-13 8.45808E-14
 -1      3920 2.05746E+01-1.72100E+00-3.02962E-03-2.39996E+00-1.87289E-13 9.29798E-14
 -1      3921 1.63786E+01 1.29213E-01-1.66837E-02 2.34366E+00-1.99254E-13 1.21908E-13
 -1      3922 1.52753E+01 4.86618E-01 4.22796E-02 2.12931E+00-2.83476E-13 4.21891E-13
 -1      3923 1.55066E+01 7.80928E-01 2.72793E-04 1.49197E+00-1.57101E-13 2.35387E-13
 -1      3924 2.00469E+01 1.60753E+00-2.85396E-03-1.63025E-02 4.46882E-14-2.39812E-13
 -1      3925 2.00644E+01 1.56792E+00-3.21208E-03-3.38745E-02 4.01942E-14-2.55472E-13
 -1      3926 2.00912E+01 1.42584E+00 4.13910E-03 9.41575E-03 4.55570E-14-2.40404E-13
 -1      3927 2.02122E+01-1.24320E+00 1.89958E-02-2.32185E+00-1.23938E-13 9.57307E-14
 -1      3928 1.79170E+01-1.60757E+00 5.95610E-03-3.74413E+00 2.45502E-13 2.34597E-13
 -1      3929 2.01331E+01 1.34452E+00-1.00705E-03-1.87080E-02 1.25242E-13-1.58866E-13
 -1      3930 2.01191E+01 1.23362E+00 1.64429E-03-8.24264E-02 1.02706E-13-1.51821E-13
 -1      3931 1.99602E+01 1.28664E-01-1.13042E-04-3.74563E-02 4.30134E-13 5.74623E-14
 -1      3932 1.45525E+01 1.06903E+00 2.92132E-02-2.98685E-02 6.29869E-14 3.52172E-13
 -1      3933 1.50947E+01 3.45268E-01 3.75830E-02-2.12645E+00-1.31326E-13-2.47611E-13
 -1      3934 1.48414E+01-1.02122E-02 5.41771E-02-2.80477E+00-1.60840E-13-2.91088E-13
 -1      3935 1.64937E+01-8.09382E-01-1.65125E-02-3.33877E+00-1.93486E-13-2.21916E-13
 -1      3936 1.52524E+01 6.42151E-01 3.20277E-02 1.84046E+00 1.38403E-13-3.38588E-13
 -1      3937 1.94327E+01-9.88023E-01-2.64450E-02-2.44409E+00-9.83905E-14 6.17557E-14
 -1      3938 1.99359E+01 9.38853E-01-2.03324E-03 2.67658E-01 6.19508E-14-1.72427E-13
 -1      3939 1.98568E+01 8.94335E-01-1.45148E-03 3.34342E-01 2.66441E-14-1.66097E-13
 -1      3940 2.00791E+01 1.29019E+00-2.09021E-03 4.92126E-02 4.29131E-14-2.27813E-13
 -1      3941 2.00811E+01 1.17290E+00 1.62719E-03 1.12024E-01 3.91952E-14-2.02949E-13
 -1      3942 2.00536E+01 1.34492E+00-2.03367E-03 3.76971E-02 4.36864E-14-2.52187E-13
 -1      3943 1.91915E+01 8.95028E-01-3.81772E-03 5.80768E-01 2.42098E-14-9.23329E-14
 -1      3944 1.90282E+01 9.21372E-01-1.43698E-03 6.41490E-01 1.02821E-14-8.27140E-14
 -1      3945 1.88062E+01 9.46581E-01-5.40835E-03 6.87911E-01-6.99853E-16-5.63273E-14
 -1      3946 1.86096E+01 9.71999E-01-1.32941E-03 7.57755E-01 1.69593E-14-9.36368E-14
 -1      3947 1.88259E+01 9.93722E-01 6.77536E-03 4.90381E-01 1.44115E-14-7.45317E-14
 -1      3948 1.83316E+01 9.87519E-01-7.86773E-03 8.15043E-01 2.02400E-14-1.11986E-13
 -1      3949 1.80959E+01 9.97876E-01-9.32538E-04 9.04241E-01-1.23436E-14-7.92179E-14
 -1      3950 1.83431E+01 1.05305E+00 9.22052E-03 5.72190E-01-9.99038E-15-8.40832E-14
 -1      3951 1.77412E+01 9.87619E-01-1.17965E-02 9.82865E-01-1.63942E-14-8.50246E-14
 -1      3952 1.74569E+01 9.65492E-01-8.00367E-04 1.11018E+00 3.18745E-14-8.11564E-14
 -1      3953 1.77382E+01 1.09138E+00 1.27980E-02 6.77214E-01 8.00797E-15-8.12729E-14
 -1      3954 1.69889E+01 9.16750E-01-1.72571E-02 1.22912E+00 3.32208E-14-1.31206E-13
 -1      3955 1.66241E+01 7.95280E-01-1.61477E-02 1.43737E+00 7.29685E-14-1.88185E-13
 -1      3956 1.69635E+01 1.08138E+00 1.75576E-02 8.27399E-01 1.99047E-14-1.19546E-13
 -1      3957 1.55462E+01 7.02980E-01-6.29601E-03-1.74258E+00 2.32162E-14 2.69474E-13
 -1      3958 1.99050E+01 5.73492E-01 9.35089E-04-7.58937E-01 2.58848E-14-6.74656E-15
 -1      3959 1.99494E+01 5.93977E-01-1.02804E-03-6.73301E-01 5.28968E-14-2.54140E-15
 -1      3960 1.97704E+01 6.40344E-01 1.13782E-03-7.45029E-01 3.73698E-14-2.81399E-14
 -1      3961 1.70579E+01 9.97621E-01-1.79691E-04-1.22406E+00 5.86445E-14 3.05599E-13
 -1      3962 1.73377E+01 1.05297E+00-1.37172E-02-1.05999E+00 2.49961E-14 2.19824E-13
 -1      3963 1.77118E+01 1.08244E+00-1.09054E-04-9.52431E-01-4.44978E-15 3.06918E-13
 -1      3964 1.79393E+01 1.08306E+00-9.70646E-03-8.41563E-01 1.17553E-13 3.63211E-13
 -1      3965 1.72823E+01 1.19511E+00 1.59052E-02-7.33760E-01 6.08717E-14 1.91873E-13
 -1      3966 1.82231E+01 1.07319E+00-1.16885E-03-7.68182E-01 1.66907E-14 2.55372E-13
 -1      3967 1.84102E+01 1.04469E+00-6.77165E-03-6.85799E-01-1.28129E-14 2.25617E-13
 -1      3968 1.79073E+01 1.16842E+00 1.13754E-02-5.91375E-01 3.36449E-14 7.34204E-14
 -1      3969 1.86299E+01 1.00946E+00-1.40221E-03-6.29644E-01-8.35592E-14 1.56948E-13
 -1      3970 1.87815E+01 9.62911E-01-5.02631E-03-5.63786E-01-4.34038E-14-6.05269E-14
 -1      3971 1.83884E+01 1.09569E+00 7.98023E-03-4.89470E-01-1.48012E-13 2.70092E-14
 -1      3972 1.89539E+01 9.12867E-01-1.26282E-03-5.18122E-01-1.15463E-14-1.87200E-13
 -1      3973 1.90751E+01 8.56825E-01-3.87001E-03-4.63113E-01-1.05134E-13-3.85456E-13
 -1      3974 1.87664E+01 9.93782E-01 6.12011E-03-4.07207E-01-1.85167E-13-1.72698E-13
 -1      3975 1.92106E+01 8.00365E-01-1.04168E-03-4.24714E-01-4.66536E-14-3.50523E-13
 -1      3976 1.93061E+01 7.41651E-01-3.03873E-03-3.77717E-01-1.09571E-14-3.74065E-13
 -1      3977 1.90640E+01 8.75315E-01 4.66621E-03-3.38333E-01-7.18080E-14-3.57823E-13
 -1      3978 1.94123E+01 6.84313E-01-7.82503E-04-3.44543E-01-1.04543E-13-3.51705E-13
 -1      3979 1.94866E+01 6.26838E-01-2.42570E-03-3.04226E-01-1.13467E-13-4.59822E-13
 -1      3980 1.92978E+01 7.52693E-01 3.63575E-03-2.78625E-01-1.13650E-13-4.36962E-13
 -1      3981 1.95691E+01 5.72365E-01-5.22706E-04-2.75943E-01-1.40070E-13-4.90923E-13
 -1      3982 1.96259E+01 5.19090E-01-1.94308E-03-2.41484E-01-9.62272E-14-5.77953E-13
 -1      3983 1.94804E+01 6.33476E-01 2.92682E-03-2.25974E-01-2.03947E-13-5.11760E-13
 -1      3984 1.96896E+01 4.69510E-01-3.38505E-04-2.17454E-01 1.19315E-13-5.71607E-13
 -1      3985 1.97323E+01 4.22062E-01-1.57318E-03-1.88464E-01 1.95789E-13-6.01093E-13
 -1      3986 1.96212E+01 5.23088E-01 2.32672E-03-1.80352E-01 4.78925E-14-5.69960E-13
 -1      3987 1.97808E+01 3.78535E-01-2.10612E-04-1.68233E-01-4.54871E-15-4.98259E-13
 -1      3988 1.98126E+01 3.37374E-01-1.27158E-03-1.44185E-01-9.51051E-14-5.81703E-13
 -1      3989 1.97288E+01 4.24225E-01 1.72462E-03-1.41360E-01 1.17973E-13-6.99032E-13
 -1      3990 1.98491E+01 3.00054E-01-1.01314E-04-1.27572E-01 9.18478E-14-5.45355E-13
 -1      3991 1.98722E+01 2.65116E-01-1.03646E-03-1.07997E-01 2.23311E-13-5.05352E-13
 -1      3992 1.98103E+01 3.38347E-01 1.33464E-03-1.08291E-01 4.79977E-14-4.46416E-13
 -1      3993 1.98992E+01 2.33968E-01 1.81658E-05-9.47604E-02 2.25003E-14-4.87468E-13
 -1      3994 1.99156E+01 2.04907E-01-7.95022E-04-7.90716E-02 2.07837E-14-4.35543E-13
 -1      3995 1.98707E+01 2.64943E-01 9.15718E-04-8.12403E-02 1.74560E-13-4.09296E-13
 -1      3996 1.85653E+01 2.86351E-01-7.40459E-03 1.69078E+00-2.60922E-13-1.95851E-14
 -1      3997 1.86051E+01 8.77865E-02 8.64116E-03 1.88659E+00-2.18991E-13-5.63104E-14
 -1      3998 1.99564E+01 1.25035E-01-2.93940E-04 1.48498E-02-2.61161E-14 2.78787E-14
 -1      3999 1.99600E+01 1.21610E-01-1.66814E-04 2.38620E-02-2.55080E-14 2.32533E-14
 -1      4000 1.99550E+01 1.35079E-01 4.22561E-04 2.98332E-02-5.77364E-14 3.36472E-14
 -1      4001 1.99471E+01 1.44423E-01 5.18465E-04 1.07918E-02 2.51111E-13 8.53628E-14
 -1      4002 1.98190E+01-1.43950E+00-2.12193E-02 2.55129E+00-1.55794E-13-1.85137E-13
 -1      4003 1.89154E+01 6.77789E-01-5.24353E-03 1.05473E+00-4.44813E-14 7.77210E-14
 -1      4004 1.88688E+01 6.32265E-01 4.75947E-03 1.17812E+00-1.03688E-13 6.43205E-14
 -1      4005 1.87249E+01 5.50705E-01-6.21286E-03 1.33166E+00-1.87238E-13 3.22996E-14
 -1      4006 1.87093E+01 4.46163E-01 7.94780E-03 1.48485E+00-2.92537E-13-3.62257E-14
 -1      4007 1.84977E+01 7.17020E-01 1.90376E-03 1.17711E+00-2.24545E-13-1.24369E-15
 -1      4008 2.00448E+01 1.08075E+00-1.49488E-03 1.56269E-01 6.04643E-14-1.87256E-13
 -1      4009 1.99934E+01 9.92308E-01-7.41599E-04 2.28871E-01 6.03784E-14-1.78249E-13
 -1      4010 1.99283E+01 1.01982E+00 3.16393E-03 1.90542E-01 6.98463E-14-1.92482E-13
 -1      4011 2.00176E+01 1.15135E+00 1.65259E-03 1.15405E-01 6.81682E-14-1.92161E-13
 -1      4012 1.91078E+01 7.12432E-01-4.43096E-03 8.37723E-01-8.85318E-14 2.53115E-13
 -1      4013 1.90493E+01 7.06825E-01 2.82606E-03 9.37583E-01 2.52138E-14 2.13243E-13
 -1      4014 1.87635E+01 7.93588E-01 2.74283E-03 9.14285E-01-6.20966E-15 1.99478E-13
 -1      4015 1.92857E+01 6.88466E-01-3.70034E-03 6.64783E-01-4.51981E-14 3.46900E-13
 -1      4016 1.92262E+01 7.08063E-01 1.68188E-03 7.46592E-01-9.22325E-14 2.22894E-13
 -1      4017 1.90048E+01 7.92661E-01 2.93034E-03 7.14518E-01-9.05999E-14 4.14314E-13
 -1      4018 1.94420E+01 6.30008E-01-3.04499E-03 5.25436E-01-9.43128E-14 3.84013E-13
 -1      4019 1.93873E+01 6.63754E-01 1.00953E-03 5.92866E-01-8.41409E-14 3.19732E-13
 -1      4020 1.92150E+01 7.43517E-01 2.68704E-03 5.59515E-01-4.47679E-14 2.69496E-13
 -1      4021 1.95738E+01 5.54610E-01-2.45482E-03 4.12347E-01 1.19807E-13 2.90708E-13
 -1      4022 1.95266E+01 5.94725E-01 6.48183E-04 4.68175E-01 2.19716E-14 3.01743E-13
 -1      4023 1.93934E+01 6.68141E-01 2.57680E-03 4.37998E-01-1.25726E-14 1.44933E-13
 -1      4024 1.96817E+01 4.73209E-01-2.01595E-03 3.20286E-01 1.41481E-13 1.47241E-13
 -1      4025 1.96429E+01 5.14976E-01 4.91952E-04 3.66287E-01 1.93859E-13 1.86204E-13
 -1      4026 1.95402E+01 5.80519E-01 2.22171E-03 3.40671E-01 1.08461E-13 1.63772E-13
 -1      4027 1.97678E+01 3.93486E-01-1.69271E-03 2.45638E-01 5.45008E-14 4.32416E-13
 -1      4028 1.97369E+01 4.33545E-01 3.45377E-04 2.83281E-01 2.57187E-14 2.75574E-13
 -1      4029 1.96582E+01 4.90671E-01 1.73313E-03 2.62626E-01-6.67833E-15 3.28494E-13
 -1      4030 1.98349E+01 3.20100E-01-1.38719E-03 1.85612E-01 2.14956E-13 2.95755E-13
 -1      4031 1.98111E+01 3.56421E-01 2.53728E-04 2.16116E-01 1.80596E-13 4.37913E-13
 -1      4032 1.97516E+01 4.05395E-01 1.37613E-03 2.00261E-01 1.18089E-13 3.14877E-13
 -1      4033 1.98861E+01 2.55173E-01-1.11471E-03 1.37780E-01 3.72715E-13 3.66156E-13
 -1      4034 1.98682E+01 2.86995E-01 2.12873E-04 1.62179E-01 3.37742E-13 3.81388E-13
 -1      4035 1.98240E+01 3.28112E-01 1.11366E-03 1.50438E-01 2.08435E-13 2.53974E-13
 -1      4036 1.99242E+01 1.99506E-01-8.57591E-04 1.00224E-01 2.01765E-13 2.32835E-13
 -1      4037 1.99112E+01 2.26552E-01 1.84538E-04 1.19425E-01 3.65593E-13 3.00580E-13
 -1      4038 1.98788E+01 2.60326E-01 8.59289E-04 1.11046E-01 4.26518E-13 3.10165E-13
 -1      4039 1.99517E+01 1.53418E-01-5.30457E-04 7.14619E-02-5.26794E-14 1.36066E-13
 -1      4040 1.99425E+01 1.75465E-01 1.74360E-04 8.60410E-02 9.52889E-14 1.93288E-13
 -1      4041 1.99194E+01 2.02818E-01 7.20150E-04 8.05296E-02 3.04155E-13 2.92688E-13
 -1      4042 2.00397E+01 1.58562E+00-3.21552E-03 5.65731E-04 9.03944E-14-1.53475E-13
 -1      4043 2.00392E+01 1.59053E+00-2.22907E-03-1.48183E-02 6.28217E-14-1.81698E-13
 -1      4044 2.00618E+01 1.42181E+00 4.29942E-03-2.12181E-02 7.23217E-14-1.54552E-13
 -1      4045 2.02129E+01 1.12898E+00-1.12534E-03-1.07104E-02 1.49807E-13-1.03146E-13
 -1      4046 2.01721E+01 1.25102E+00-1.14625E-03-1.05658E-02 1.42286E-13-1.49794E-13
 -1      4047 1.95591E+01 3.95569E-01 4.68499E-03-1.30941E+00 2.47064E-14 4.93387E-14
 -1      4048 1.95684E+01 4.51258E-01-2.19637E-03-1.21196E+00 3.40210E-14 4.29379E-14
 -1      4049 1.94217E+01 5.55917E-01 1.93860E-04-1.11066E+00 3.10867E-14-2.55208E-14
 -1      4050 1.92555E+01 4.45634E-01-1.05731E-03-1.34111E+00 6.64472E-14 3.31044E-15
 -1      4051 1.79873E+01-1.56570E+00-1.13311E-02-3.52821E+00-2.49995E-13-5.27963E-14
 -1      4052 1.87767E+01-1.24632E+00 7.63817E-03-2.98459E+00-1.41658E-13 6.55660E-15
 -1      4053 1.99627E+01 1.30233E-01-2.17157E-04 5.33765E-02 2.96650E-14-1.89032E-13
 -1      4054 1.99594E+01 1.42811E-01 3.47437E-04 6.31223E-02-5.75183E-14-6.01530E-14
 -1      4055 1.99421E+01 1.64085E-01 3.12163E-04 5.91134E-02 1.75931E-13 2.73921E-14
 -1      4056 1.99541E+01 1.38952E-01-2.02818E-04 4.47333E-02-5.97536E-14 5.56355E-14
 -1      4057 1.97508E+01 8.66665E-01-2.01442E-03 3.78669E-01-2.54571E-16-1.49563E-13
 -1      4058 1.96438E+01 8.57060E-01-1.60436E-03 4.39150E-01 2.25151E-15-1.38162E-13
 -1      4059 1.97711E+01 9.36233E-01 3.60139E-03 2.69917E-01 2.91924E-14-1.72548E-13
 -1      4060 1.84660E+01-5.64352E-01 2.56874E-02-2.59010E+00-7.72360E-14 4.38647E-14
 -1      4061 2.02626E+01 9.96578E-01-1.85965E-03 2.35162E-02 1.61873E-13-2.88460E-14
 -1      4062 2.02455E+01 1.09648E+00-2.47898E-03 4.33559E-02 1.54123E-13-6.33790E-14
 -1      4063 1.86142E+01-4.38921E-01-2.14967E-04 2.33195E+00-2.21507E-13-3.12896E-14
 -1      4064 1.73037E+01-8.96236E-02 2.64790E-02 2.52095E+00-2.32820E-13-8.44891E-14
 -1      4065 1.70213E+01 3.06473E-01-1.87105E-02 2.03342E+00-1.24433E-13-1.18093E-14
 -1      4066 1.84483E+01-1.05229E-01-1.40062E-02 2.09182E+00-2.38398E-13-7.99937E-14
 -1      4067 2.00869E+01 1.09286E+00-1.61649E-03-1.40060E-01 7.70187E-14-1.32485E-13
 -1      4068 2.00401E+01 1.25672E+00 9.06317E-04-7.82195E-02 5.54713E-14-1.31490E-13
 -1      4069 2.00500E+01 9.91018E-01 1.08434E-04-2.29497E-01 5.95628E-14-1.20154E-13
 -1      4070 2.00209E+01 6.23900E-01 3.06123E-04-5.92216E-01 6.13755E-14-3.97652E-14
 -1      4071 2.00629E+01 6.63872E-01-5.11533E-04-5.00319E-01 3.93388E-14-8.01927E-14
 -1      4072 2.00511E+01 7.76415E-01 1.34388E-03-4.16842E-01 3.17067E-14-1.24774E-13
 -1      4073 1.99236E+01 6.85905E-01 1.12623E-03-5.82415E-01 3.40655E-14-6.07495E-14
 -1      4074 1.50953E+01 1.10437E+00-1.14709E-02 4.01128E-01 1.65493E-15 2.10427E-13
 -1      4075 1.50886E+01 1.13728E+00 6.34379E-03-6.00636E-01 1.13531E-13 2.81513E-13
 -1      4076 1.95034E+01 8.60254E-01-2.71653E-03 4.80744E-01 2.67797E-14-1.22272E-13
 -1      4077 1.93694E+01 8.74506E-01-1.50294E-03 5.38951E-01 2.65942E-14-1.04237E-13
 -1      4078 1.92153E+01 9.38708E-01 5.22552E-03 4.18244E-01 3.69362E-14-1.06675E-13
 -1      4079 1.54403E+01 1.03807E+00 1.51104E-02-1.12329E+00 1.42899E-13 3.91457E-13
 -1      4080 1.63401E+01 7.72933E-01-2.43301E-03-1.65576E+00 2.62247E-15 3.36866E-13
 -1      4081 1.66765E+01 9.14682E-01-1.88758E-02-1.39046E+00 2.28378E-14 3.78529E-13
 -1      4082 2.00235E+01 1.27408E+00-1.42727E-03-5.32057E-02 3.96041E-14-1.30743E-13
 -1      4083 1.96383E+01 6.97333E-01 4.09731E-04-6.99496E-01 4.17419E-14-7.11443E-14
 -1      4084 1.97194E+01 7.09895E-01-2.25790E-03-6.19477E-01 4.08862E-14-9.21207E-14
 -1      4085 1.47589E+01 9.84372E-01-1.33074E-02-1.47558E-01-1.10840E-14-1.86764E-13
 -1      4086 1.47634E+01 9.20438E-01 1.61192E-02-9.30929E-01-3.36298E-14-1.83930E-13
 -1      4087 1.65598E+01 1.12083E+00 1.13611E-02-9.75637E-01-8.03058E-15 3.89489E-13
 -1      4088 1.95275E+01 9.12032E-01 4.28183E-03 3.46637E-01 1.75856E-14-1.35044E-13
 -1      4089 1.82266E+01 5.31767E-01 4.12593E-03 1.53072E+00-2.77456E-13-1.26791E-13
 -1      4090 1.99350E+01 1.79397E-01 6.23200E-05-6.86298E-02 3.25877E-13-4.93390E-13
 -1      4091 1.99461E+01 1.55982E-01-5.73463E-04-5.63058E-02 3.96153E-13-1.68686E-13
 -1      4092 1.99548E+01 1.40999E-01 8.00871E-05-4.39116E-02 3.54573E-13-7.38020E-14
 -1      4093 1.87614E+01 3.32402E-01 8.68485E-03-1.60959E+00 2.53404E-14 1.64679E-14
 -1      4094 1.87943E+01 4.44886E-01-6.20139E-03-1.45546E+00 7.41980E-14 2.25283E-14
 -1      4095 1.99397E+01 1.59491E-01-6.22371E-05-3.71219E-02 5.42000E-13-1.80551E-13
 -1      4096 1.94268E+01 6.78337E-01 2.20396E-03-8.61770E-01-1.04884E-14-6.62067E-14
 -1      4097 1.95130E+01 6.86734E-01-2.61900E-03-7.74977E-01 9.36471E-15-7.40933E-14
 -1      4098 1.94814E+01 7.66064E-01 3.55885E-03-6.48103E-01 2.56861E-14-9.69263E-14
 -1      4099 2.00599E+01 1.46440E+00 5.43476E-03-1.17083E-03 5.03949E-14-1.86769E-13
 -1      4100 1.60987E+01 8.28282E-01 1.08946E-02 1.38494E+00 6.80445E-14-2.16941E-13
 -1      4101 1.42243E+01 8.03593E-01-8.35835E-03 1.13760E+00 7.40449E-14-2.86673E-13
 -1      4102 1.56220E+01 1.08322E+00 3.03391E-02 8.90792E-01-1.08648E-13 9.38929E-14
 -1      4103 1.59789E+01 1.16472E+00-1.80020E-03 3.48322E-01-9.34201E-14 1.32765E-13
 -1      4104 1.62535E+01 8.34618E-01-1.75682E-02 1.28635E+00-1.62796E-13 1.98117E-13
 -1      4105 1.86287E+01-5.57438E-02 5.65574E-03-2.01933E+00-3.84584E-14 8.46935E-15
 -1      4106 1.85881E+01 1.66535E-01-7.92841E-03-1.82039E+00 5.83919E-15 2.73724E-14
 -1      4107 1.82691E+01 4.21760E-01 8.38008E-03-1.64747E+00 2.35764E-14-4.68907E-14
 -1      4108 1.79803E+01 2.55167E-01 1.35949E-02 1.93539E+00-2.45501E-13-1.45104E-13
 -1      4109 1.73615E+01-1.02164E+00 6.53073E-02-3.41628E+00-2.13253E-13-1.30443E-13
 -1      4110 1.59259E+01 1.13782E+00 9.90875E-03-6.62044E-01-5.62267E-16 3.35242E-13
 -1      4111 1.99339E+01 1.64186E-01-1.46132E-04-2.11821E-02 6.04496E-13 5.84052E-14
 -1      4112 1.99313E+01 1.66304E-01-1.49129E-04-8.06060E-03 5.19729E-13-5.28175E-14
 -1      4113 1.99248E+01 1.83230E-01 3.62607E-04-3.38718E-02 4.30274E-13-1.58918E-13
 -1      4114 1.58738E+01 1.06164E+00 1.50066E-02 8.20805E-01 4.96955E-15-1.69371E-13
 -1      4115 1.68135E+01-5.22998E-01-1.54478E-03-2.98628E+00-1.66887E-13-1.69134E-13
 -1      4116 1.99142E+01 2.04196E-01 5.31592E-04-5.98783E-02 2.03839E-13-3.46761E-13
 -1      4117 1.88652E+01 9.81299E-01-3.77443E-03 2.79625E-01 3.04570E-14-1.10445E-13
 -1      4118 1.86447E+01 1.01121E+00-3.73898E-03 3.06784E-01 7.85185E-15-1.23987E-13
 -1      4119 2.00337E+01 1.34956E+00-1.24541E-03 1.38443E-02 3.78980E-14-1.92629E-13
 -1      4120 2.00291E+01 1.24229E+00 1.94661E-03 4.73923E-02 5.24322E-14-2.04788E-13
 -1      4121 2.00236E+01 1.32719E+00-3.27322E-03 3.73008E-03 6.24378E-14-1.54145E-13
 -1      4122 1.91515E+01 7.69978E-01-4.63313E-03 4.30846E-01 3.56704E-14 5.64429E-14
 -1      4123 1.90594E+01 8.12262E-01 4.87077E-04 4.92605E-01 3.55768E-14 1.86253E-13
 -1      4124 1.86215E+01 8.78931E-01-8.21182E-03 7.23442E-01-1.32686E-13 2.68687E-13
 -1      4125 1.85057E+01 8.83179E-01 2.63058E-03 8.27531E-01-1.39856E-13 1.51173E-13
 -1      4126 1.95588E+01 9.19993E-01-2.24058E-03 2.05815E-01 4.34750E-14-1.65728E-13
 -1      4127 1.94181E+01 9.21124E-01-2.44951E-03 2.36850E-01 5.52236E-14-1.41679E-13
 -1      4128 1.83836E+01 1.04001E+00-5.34514E-03 3.10129E-01-2.93984E-14-7.21072E-14
 -1      4129 1.81097E+01 1.06639E+00-4.74624E-03 3.40398E-01-3.76368E-14-8.82654E-14
 -1      4130 1.84914E+01 1.05289E+00 8.48361E-03 8.82691E-02 2.19387E-14-1.46931E-13
 -1      4131 1.77764E+01 1.08647E+00-7.99917E-03 3.41808E-01 1.63888E-15-8.15084E-14
 -1      4132 1.74331E+01 1.09870E+00-5.26750E-03 3.82990E-01 2.18506E-14-6.20216E-14
 -1      4133 1.79138E+01 1.10878E+00 1.09625E-02 6.13610E-02-2.45150E-14-9.63919E-14
 -1      4134 1.69966E+01 1.09783E+00-1.11052E-02 3.86492E-01-1.94788E-15-8.54112E-14
 -1      4135 1.65919E+01 1.09069E+00 3.96852E-03 4.45089E-01 3.43389E-15-1.26539E-13
 -1      4136 1.71717E+01 1.13703E+00 1.19992E-02 1.85330E-02 3.61343E-15-7.24406E-14
 -1      4137 1.69414E+01 1.20992E+00-1.31906E-03-4.20186E-01-2.81945E-14 9.80333E-14
 -1      4138 1.72803E+01 1.19721E+00-1.17257E-02-3.69203E-01 2.30237E-14 7.82920E-14
 -1      4139 1.56980E+01 7.84651E-01 2.33830E-02-1.24937E+00-9.46912E-14-1.48798E-13
 -1      4140 1.50061E+01 6.37923E-01 1.17684E-02-1.63971E+00-1.20119E-13-2.28318E-13
 -1      4141 1.62504E+01 1.19181E+00-6.91888E-03-5.22688E-01-6.23013E-14 2.55587E-13
 -1      4142 1.76360E+01 1.18772E+00-4.79011E-03-3.58757E-01-2.30897E-14-1.49472E-14
 -1      4143 1.79086E+01 1.15745E+00-8.54446E-03-3.21391E-01-4.34681E-14-1.31237E-13
 -1      4144 1.74163E+01 1.24675E+00 1.86171E-02-6.98565E-02-1.31781E-13-1.59444E-13
 -1      4145 1.81756E+01 1.12441E+00-5.15514E-03-3.07476E-01-1.10243E-13-1.88032E-13
 -1      4146 1.83940E+01 1.07962E+00-5.22809E-03-2.76704E-01-1.74254E-13-2.59108E-13
 -1      4147 1.79987E+01 1.19047E+00 1.45249E-02-7.91771E-02-2.02406E-13-5.16790E-13
 -1      4148 1.85994E+01 1.02705E+00-4.43389E-03-2.66547E-01-2.67181E-13-3.04362E-13
 -1      4149 1.87718E+01 9.71471E-01-3.99212E-03-2.40498E-01-2.02651E-13-2.84840E-13
 -1      4150 1.84671E+01 1.09201E+00 1.29909E-02-9.20174E-02-1.73266E-13-5.07252E-13
 -1      4151 1.89322E+01 9.12583E-01-3.28009E-03-2.29576E-01-7.43182E-14-3.11080E-13
 -1      4152 1.90675E+01 8.51891E-01-3.03208E-03-2.05816E-01-7.06767E-14-2.25222E-13
 -1      4153 1.88255E+01 9.75070E-01 9.93139E-03-9.60221E-02-1.56890E-13-2.93773E-13
 -1      4154 1.91941E+01 7.91089E-01-2.37816E-03-1.94266E-01-1.67663E-13-3.55787E-13
 -1      4155 1.93014E+01 7.30476E-01-1.76690E-03-1.71522E-01-2.37284E-13-4.81182E-13
 -1      4156 1.91047E+01 8.47083E-01 5.87476E-03-9.32661E-02-2.30410E-13-3.59732E-13
 -1      4157 1.93999E+01 6.69456E-01-1.67618E-03-1.62949E-01-2.09952E-13-5.65144E-13
 -1      4158 1.94810E+01 6.12120E-01-1.83300E-03-1.42911E-01-2.03855E-13-4.21647E-13
 -1      4159 1.93317E+01 7.18227E-01 3.84177E-03-8.60495E-02-2.12185E-13-5.93335E-13
 -1      4160 1.95596E+01 5.56832E-01-9.43859E-04-1.32615E-01 2.22320E-14-4.39114E-13
 -1      4161 1.96207E+01 5.03405E-01-1.83298E-03-1.15373E-01 2.31256E-13-4.08089E-13
 -1      4162 1.95038E+01 6.03103E-01 3.34661E-03-7.27157E-02-7.37085E-14-4.39919E-13
 -1      4163 1.96812E+01 4.54536E-01-9.16804E-04-1.05365E-01 1.92636E-13-4.69648E-13
 -1      4164 1.97288E+01 4.07801E-01-1.23729E-03-8.99460E-02 1.74354E-13-2.90612E-13
 -1      4165 1.96372E+01 4.98297E-01 3.26936E-03-5.85748E-02 2.12697E-13-3.42268E-13
 -1      4166 1.97745E+01 3.64165E-01-7.76172E-04-8.20518E-02 1.02488E-13-3.00790E-13
 -1      4167 1.98103E+01 3.23945E-01-9.91717E-04-6.90988E-02 1.18992E-13-2.06860E-13
 -1      4168 1.97425E+01 4.01783E-01 2.93628E-03-4.73217E-02 1.89922E-13-1.31067E-13
 -1      4169 1.98444E+01 2.87570E-01-3.72089E-04-6.24241E-02 1.72059E-13-2.93141E-13
 -1      4170 1.98706E+01 2.53141E-01-7.23472E-04-5.14310E-02 2.02110E-13-2.21367E-13
 -1      4171 1.98202E+01 3.18326E-01 2.15076E-03-3.74647E-02 5.02233E-14-7.53524E-14
 -1      4172 1.59684E+01 1.10935E+00 6.24118E-05 3.19583E-01-3.99680E-15-1.44054E-13
 -1      4173 1.85903E+01 6.19965E-01 3.23906E-03-1.28207E+00 4.11087E-14-3.09574E-14
 -1      4174 1.89665E+01 5.36826E-01 5.58203E-03-1.29993E+00 7.17934E-14-1.19976E-14
 -1      4175 1.90336E+01 5.93553E-01-4.97419E-03-1.17617E+00 4.66583E-14-1.79211E-14
 -1      4176 1.82803E+01 8.60579E-01-1.03454E-02 9.48456E-01-2.63480E-13 1.06937E-13
 -1      4177 1.81539E+01 8.20882E-01 2.41982E-03 1.09456E+00-3.47528E-13-1.01373E-15
 -1      4178 1.81984E+01 9.91915E-01 9.95102E-03 7.42891E-01-3.33236E-13 4.27664E-14
 -1      4179 1.93520E+01 6.79404E-01-2.94561E-03 3.32339E-01 1.58509E-14-2.67299E-14
 -1      4180 1.92714E+01 7.26880E-01-4.58987E-04 3.80381E-01-1.00820E-14 8.87769E-14
 -1      4181 1.91421E+01 8.09771E-01 7.64853E-03 3.23355E-01-5.65152E-14-3.29169E-14
 -1      4182 1.95113E+01 5.82952E-01-2.31322E-03 2.55730E-01-8.51031E-14 2.10277E-13
 -1      4183 1.94460E+01 6.32815E-01-1.41728E-04 2.95124E-01-7.94351E-14-1.39538E-14
 -1      4184 1.93499E+01 6.98339E-01 4.41225E-03 2.42576E-01-1.19166E-13 2.12170E-14
 -1      4185 1.96371E+01 4.88636E-01-2.21631E-03 1.95630E-01-6.18348E-14 1.63615E-13
 -1      4186 1.95872E+01 5.36751E-01 2.28504E-04 2.27917E-01-5.90038E-14 2.56416E-13
 -1      4187 1.95125E+01 5.91206E-01 2.78047E-03 1.82732E-01-6.33589E-14 9.13941E-14
 -1      4188 1.97370E+01 4.00274E-01-1.86008E-03 1.47280E-01 2.23481E-13 1.29216E-13
 -1      4189 1.96976E+01 4.44205E-01-5.01120E-05 1.72752E-01 9.39791E-14 2.69865E-13
 -1      4190 1.96390E+01 4.94423E-01 2.68423E-03 1.38829E-01-3.68658E-14 1.82727E-13
 -1      4191 1.98140E+01 3.21570E-01-1.49317E-03 1.09545E-01 1.90731E-13 1.32761E-13
 -1      4192 1.97838E+01 3.60414E-01-8.23437E-05 1.29761E-01 1.97436E-13 1.03434E-13
 -1      4193 1.97416E+01 4.04373E-01 3.08543E-03 1.04507E-01 1.80581E-13 8.87010E-14
 -1      4194 1.98720E+01 2.53873E-01-1.07298E-03 8.01592E-02 4.06423E-13 2.26376E-13
 -1      4195 1.98494E+01 2.87063E-01-4.09805E-05 9.61635E-02 2.93979E-13 1.99579E-13
 -1      4196 1.98186E+01 3.23436E-01 2.51708E-03 7.75171E-02 2.64316E-13 2.29821E-14
 -1      4197 1.99155E+01 1.96511E-01-5.56014E-04 5.74648E-02 3.70295E-13 9.80187E-14
 -1      4198 1.98980E+01 2.23670E-01-2.44971E-04 6.94140E-02 4.64192E-13 2.64746E-13
 -1      4199 1.98750E+01 2.54296E-01 1.75983E-03 5.63427E-02 3.93496E-13 1.67981E-13
 -1      4200 1.68723E+01-7.96382E-02 3.07173E-02-2.54040E+00-1.30655E-13-2.04102E-13
 -1      4201 1.74401E+01-4.23840E-01-9.61006E-03-2.70865E+00-1.32514E-13-1.28783E-13
 -1      4202 1.97933E+01 9.63945E-01-2.37018E-03 1.57926E-01 5.65825E-14-2.15700E-13
 -1      4203 1.96882E+01 9.33948E-01-1.97083E-03 1.93136E-01 2.97978E-14-2.01250E-13
 -1      4204 1.96129E+01 9.56512E-01 4.33041E-03 8.89999E-02 5.70700E-14-2.20031E-13
 -1      4205 1.97051E+01 7.90860E-01 2.17794E-03-5.06273E-01 1.70171E-14-9.88466E-14
 -1      4206 1.98253E+01 7.32278E-01 2.93868E-04-5.49968E-01 2.34377E-14-9.53468E-14
 -1      4207 1.98951E+01 7.61018E-01-1.89326E-03-4.70359E-01 1.05019E-14-1.32045E-13
 -1      4208 2.00077E+01 1.19713E+00 4.55900E-03-4.31950E-02 3.10257E-14-1.30329E-13
 -1      4209 1.89107E+01 8.41502E-01-6.25055E-03 5.57361E-01-5.67973E-14 2.84128E-13
 -1      4210 1.88051E+01 8.69920E-01 1.12980E-03 6.36336E-01-4.75822E-14 2.59261E-13
 -1      4211 1.85840E+01 9.72816E-01 1.25645E-02 5.60072E-01-1.01007E-13 1.80366E-13
 -1      4212 1.88935E+01 9.03780E-01 1.06385E-02 4.24961E-01 2.84322E-14 1.40860E-13
 -1      4213 1.60349E+01 9.13283E-01-8.93674E-03-9.13743E-01-8.37752E-15-1.12777E-13
 -1      4214 1.63316E+01 7.06592E-01 2.13956E-02-1.53805E+00-8.43078E-14-1.63546E-13
 -1      4215 1.83412E+01-2.43733E-01-5.66534E-03-2.29203E+00-7.36907E-14-4.16403E-14
 -1      4216 1.74276E+01 4.36602E-01-2.50629E-03 1.79126E+00-2.27175E-13-1.14233E-13
 -1      4217 1.67540E+01 7.30472E-01 2.99787E-02 1.61463E+00-1.94463E-13 5.78799E-14
 -1      4218 1.66845E+01 9.23845E-01-1.40575E-02 1.11866E+00-1.85310E-13 7.35645E-14
 -1      4219 1.75403E+01 5.46083E-01-2.28645E-02 1.60221E+00-2.63436E-13-9.83072E-14
 -1      4220 1.79378E+01 7.62937E-01-1.21504E-02 1.21677E+00-3.12314E-13-1.15836E-13
 -1      4221 1.78029E+01 6.69399E-01 2.99405E-03 1.41574E+00-2.88741E-13-1.42019E-13
 -1      4222 1.73691E+01 8.65883E-01 1.37748E-02 1.23259E+00-2.73306E-13-1.39342E-15
 -1      4223 1.78118E+01 9.43763E-01 1.04862E-02 9.65415E-01-3.72017E-13-1.04374E-13
 -1      4224 1.59822E+01 1.20473E-01-1.85957E-02-2.37375E+00-1.74853E-13-2.12518E-13
 -1      4225 1.92515E+01 9.33495E-01-2.81187E-03 2.45928E-01 4.92670E-14-1.44386E-13
 -1      4226 1.90738E+01 9.54417E-01-3.10496E-03 2.73669E-01 4.48721E-14-1.27501E-13
 -1      4227 1.89504E+01 9.93786E-01 6.16905E-03 1.00397E-01 3.83878E-14-2.04791E-13
 -1      4228 1.98902E+01 2.30102E-01-2.23329E-04-4.69787E-02 2.05191E-13-1.90737E-13
 -1      4229 1.99091E+01 2.02238E-01-4.47281E-04-3.87089E-02 2.94717E-13-2.07641E-13
 -1      4230 1.99042E+01 2.08338E-01 2.29205E-04-2.03352E-02 3.67961E-13 6.20469E-14
 -1      4231 1.98704E+01 2.52072E-01-1.81638E-05-2.71857E-02 1.74470E-13-1.10017E-14
 -1      4232 1.64068E+01 1.25884E+00 1.82129E-02-1.13444E-01-5.75213E-14 7.20177E-14
 -1      4233 1.66251E+01 2.03057E-01-1.79081E-02-2.15798E+00-1.43693E-13-1.74434E-13
 -1      4234 1.77874E+01 1.54948E-01 1.76605E-02-2.10711E+00-9.23289E-14-1.46614E-13
 -1      4235 1.69614E+01 4.30943E-01-1.43522E-03-1.77794E+00-5.89043E-14-2.20188E-13
 -1      4236 1.99937E+01 1.15015E+00-5.47809E-04 8.25412E-02 7.19549E-14-1.97220E-13
 -1      4237 1.93200E+01 9.52767E-01 4.39340E-03 9.95118E-02 5.74035E-14-1.96731E-13
 -1      4238 1.66593E+01 1.17314E+00-1.02212E-02 3.32305E-01-1.05613E-13 5.46378E-14
 -1      4239 1.98660E+01 1.00513E+00-7.68810E-04 1.41306E-01 6.53800E-14-2.14444E-13
 -1      4240 1.98081E+01 1.01288E+00 3.91322E-03 6.85492E-02 5.37569E-14-2.30821E-13
 -1      4241 1.99210E+01 1.05250E+00-2.38592E-03 1.03753E-01 8.63619E-14-2.22267E-13
 -1      4242 1.93152E+01 8.13708E-01-3.20545E-03-5.63322E-01 4.11969E-14-1.25957E-13
 -1      4243 1.94448E+01 8.18925E-01-3.72843E-03-4.88343E-01 4.75110E-14-1.24581E-13
 -1      4244 1.99414E+01 1.52145E-01-2.65604E-04 2.55685E-02 1.32840E-13 1.78107E-13
 -1      4245 1.99467E+01 1.46673E-01-1.65010E-04 3.44684E-02 1.68894E-14 1.14554E-13
 -1      4246 1.99405E+01 1.58782E-01-5.33758E-05 4.06384E-02 7.98959E-14 6.00043E-14
 -1      4247 1.82229E+01 7.18061E-01-1.29140E-03-1.16730E+00 2.02336E-14-1.45681E-13
 -1      4248 1.83973E+01 7.69208E-01-7.79324E-03-1.01409E+00 2.62838E-14-1.82739E-13
 -1      4249 1.94619E+01 8.80123E-01 2.97718E-03-3.49774E-01 5.22900E-14-1.56761E-13
 -1      4250 1.95905E+01 8.26175E-01-4.21876E-04-4.36618E-01 2.54670E-14-1.18530E-13
 -1      4251 1.96946E+01 8.42777E-01-2.21874E-03-3.74194E-01-1.52356E-14-1.21672E-13
 -1      4252 1.92753E+01 6.58267E-01-5.55469E-03-9.58420E-01-6.40913E-16-5.75406E-14
 -1      4253 1.92070E+01 7.60339E-01 4.48368E-03-8.10349E-01-6.93678E-15-1.28106E-13
 -1      4254 1.91970E+01 6.36254E-01 3.36420E-03-1.05878E+00 4.32986E-14-6.35770E-14
 -1      4255 1.73178E+01 5.34194E-01-1.64273E-02-1.57515E+00-2.93316E-14-1.87827E-13
 -1      4256 2.00133E+01 8.61004E-01-2.24077E-03-3.26235E-01 4.99386E-14-1.28353E-13
 -1      4257 1.99616E+01 1.00202E+00-1.75371E-03-2.17288E-01 3.91076E-14-9.06223E-14
 -1      4258 1.98919E+01 9.50007E-01 4.20755E-03-2.31744E-01 2.58407E-14-7.30924E-14
 -1      4259 1.99303E+01 1.04442E+00-1.98248E-03-1.31807E-01 2.48600E-14-1.07767E-13
 -1      4260 1.99335E+01 1.71585E-01-3.11117E-05 4.82532E-02 3.16519E-13 1.08059E-13
 -1      4261 1.77171E+01 5.82058E-01-5.42540E-03-1.46004E+00-1.29170E-14-1.49432E-13
 -1      4262 1.79014E+01 6.91363E-01-1.37622E-02-1.24791E+00 1.43291E-14-1.64226E-13
 -1      4263 1.78116E+01 8.89457E-01 1.39625E-02-9.56394E-01 1.58163E-15-2.57003E-13
 -1      4264 1.71185E+01 8.85992E-01 2.13912E-02-1.10912E+00 1.69873E-14-2.00356E-13
 -1      4265 1.99272E+01 1.10701E+00-1.85670E-03-4.69825E-02 2.31176E-14-1.35599E-13
 -1      4266 1.99584E+01 8.05857E-01 6.18395E-04-4.10394E-01 2.77634E-14-1.30016E-13
 -1      4267 1.60007E+01 1.01226E+00-1.49932E-03-5.99915E-01-4.74529E-14-1.15793E-13
 -1      4268 1.65845E+01 9.30067E-01-4.45469E-03-8.86349E-01-2.04611E-14-1.51215E-13
 -1      4269 1.69861E+01 9.43117E-01-7.33217E-03-8.31252E-01-8.98630E-15-1.74600E-13
 -1      4270 1.99325E+01 1.61914E-01-5.42984E-04 3.78814E-03 4.72640E-13 3.03343E-13
 -1      4271 1.99354E+01 1.59690E-01-1.51559E-04 1.51064E-02 2.74600E-13 2.17040E-13
 -1      4272 1.99279E+01 1.73675E-01 2.29272E-04 1.95546E-02 3.06843E-13 3.57143E-13
 -1      4273 1.99210E+01 1.83987E-01 3.19289E-04-4.13482E-03 5.32473E-13 1.65784E-13
 -1      4274 1.99180E+01 1.92740E-01 7.28570E-04 3.79541E-02 3.28113E-13 1.98785E-13
 -1      4275 1.93495E+01 6.84915E-01-2.06766E-03 1.43481E-01-1.67898E-13 1.20205E-13
 -1      4276 1.92532E+01 7.48416E-01 1.38269E-03 1.71914E-01-2.90837E-13 8.63068E-14
 -1      4277 1.90745E+01 8.24684E-01-5.28851E-03 1.02374E-01-2.22414E-13 3.43849E-15
 -1      4278 1.89535E+01 8.78787E-01-4.49173E-03 1.36311E-01-1.11986E-13-9.50045E-14
 -1      4279 1.46698E+01 9.99697E-01-9.59508E-03 4.90601E-01 8.94727E-15-2.15562E-13
 -1      4280 1.89147E+01 7.16079E-01 3.34821E-03-1.01291E+00-3.06771E-15-1.24436E-13
 -1      4281 1.80962E+01 1.04134E+00-3.49721E-03-1.96146E-01 3.33175E-15-1.42892E-13
 -1      4282 1.77724E+01 1.05704E+00-5.07667E-03-2.31386E-01 1.80342E-14-1.26660E-13
 -1      4283 1.90556E+01 9.52922E-01-1.99397E-03-7.00589E-02 4.53899E-14-2.41020E-13
 -1      4284 1.88427E+01 9.72769E-01-5.33268E-03-8.32254E-02 4.71040E-14-2.16439E-13
 -1      4285 1.52926E+01 1.05703E+00 1.11416E-02 2.44657E-02-2.81528E-14-1.86260E-13
 -1      4286 1.72338E+01 1.18331E+00-1.11640E-02 2.41257E-01-2.45460E-13-9.21086E-14
 -1      4287 1.75681E+01 1.18258E+00-2.66197E-03 2.06877E-01-2.74891E-13-2.52601E-13
 -1      4288 1.79858E+01 1.09374E+00-1.03829E-02 3.12184E-01-2.56515E-13-1.73694E-13
 -1      4289 1.82524E+01 1.06094E+00-6.39315E-03 2.77975E-01-2.68538E-13-2.56558E-13
 -1      4290 1.84306E+01 1.02268E+00-1.11699E-02 2.12866E-01-1.52497E-13-1.64640E-13
 -1      4291 1.86399E+01 9.80541E-01-6.05459E-03 1.93983E-01-3.38731E-14-9.87228E-14
 -1      4292 1.87875E+01 9.30079E-01-8.80603E-03 1.46684E-01-5.88191E-14-3.70882E-14
 -1      4293 1.92403E+01 7.52927E-01-2.03560E-03-1.04290E-02-3.31923E-13-1.96948E-13
 -1      4294 1.93430E+01 6.93578E-01-2.01223E-03-8.90296E-03-2.08349E-13-2.15437E-13
 -1      4295 1.94546E+01 6.23550E-01-1.12641E-03-5.59958E-03-1.04208E-13-1.50527E-13
 -1      4296 1.95289E+01 5.72136E-01-6.28160E-05-4.15471E-03 5.68853E-14-9.34119E-14
 -1      4297 1.96188E+01 4.94291E-01-2.23234E-03 3.32001E-02 1.03762E-13 4.63493E-14
 -1      4298 1.96794E+01 4.44959E-01-1.60290E-03 3.36936E-02 1.71010E-13-8.94831E-14
 -1      4299 1.97249E+01 3.99017E-01-2.47824E-03 2.17930E-02 2.49447E-13-9.16529E-14
 -1      4300 1.97714E+01 3.57149E-01-1.42671E-03 2.36372E-02 1.97425E-13-1.65892E-14
 -1      4301 1.98065E+01 3.17585E-01-1.93169E-03 1.45370E-02 1.98387E-13-2.02247E-14
 -1      4302 1.98417E+01 2.81568E-01-1.08585E-03 1.67360E-02 1.52973E-13 3.44155E-14
 -1      4303 1.91401E+01 8.54500E-01-3.87949E-03-4.99456E-01 1.87409E-14-1.42256E-13
 -1      4304 1.91543E+01 9.14921E-01 2.87608E-03-3.29275E-01 4.22096E-14-1.70967E-13
 -1      4305 1.95308E+01 5.64189E-01-1.86567E-03 1.10281E-01-7.16783E-14 1.97508E-13
 -1      4306 1.94602E+01 6.17001E-01-1.10699E-03 1.32355E-01 2.08858E-15 9.61137E-14
 -1      4307 1.98693E+01 2.49424E-01-6.51604E-04 9.93924E-03 2.29100E-13 1.22814E-13
 -1      4308 1.72683E+01 9.87166E-01-3.60566E-03 9.24514E-01-3.06700E-13 4.17635E-14
 -1      4309 1.69857E+01 1.15137E+00 1.70416E-02 6.13720E-01-2.34401E-13-1.17796E-14
 -1      4310 1.96713E+01 9.48179E-01-2.10167E-03-2.32333E-02 6.81105E-14-2.27605E-13
 -1      4311 1.95427E+01 9.31621E-01-2.33773E-03-2.03246E-02 4.78403E-14-1.96738E-13
 -1      4312 1.98640E+01 8.51173E-01 5.01241E-04-3.79245E-01 1.21843E-14-1.38397E-13
 -1      4313 1.83361E+01 8.93233E-01 3.72611E-03-7.81142E-01 4.21648E-14-2.09178E-13
 -1      4314 1.86462E+01 8.00270E-01 1.63163E-03-8.99402E-01 2.13524E-14-1.65529E-13
 -1      4315 1.87945E+01 8.15725E-01-6.05368E-03-7.88351E-01-2.73160E-14-1.76090E-13
 -1      4316 1.86272E+01 1.00071E+00-1.88448E-03-1.19376E-01 4.31383E-14-2.11382E-13
 -1      4317 1.83662E+01 1.02211E+00-5.16841E-03-1.39407E-01 1.21052E-14-1.78948E-13
 -1      4318 1.83053E+01 1.00186E+00 5.62679E-03-4.12565E-01 2.79298E-14-2.26196E-13
 -1      4319 1.87805E+01 9.71150E-01 4.05634E-03-2.89715E-01 3.74958E-14-2.08977E-13
 -1      4320 1.60858E+01 1.08633E+00-1.00770E-03-2.89903E-01-2.16411E-14-1.35740E-13
 -1      4321 1.66263E+01 1.08069E+00 2.26434E-03-2.93844E-01-2.26811E-14-1.27932E-13
 -1      4322 1.99084E+01 1.98578E-01-6.05051E-04 2.76987E-02 4.13635E-13 3.71452E-13
 -1      4323 1.70525E+01 1.08238E+00-5.61175E-03-2.53942E-01 1.41553E-14-7.83340E-14
 -1      4324 1.70000E+01 1.05217E+00 9.35204E-03-5.41573E-01-1.47887E-14-1.08607E-13
 -1      4325 1.74289E+01 9.55678E-01-4.10893E-03-7.44296E-01 2.20615E-14-1.75414E-13
 -1      4326 1.74672E+01 1.07767E+00-5.83400E-03-2.08967E-01 1.53341E-14-8.91987E-14
 -1      4327 1.97662E+01 8.70164E-01 8.90680E-04-3.29493E-01 1.49666E-15-1.06744E-13
 -1      4328 1.98264E+01 9.05444E-01-1.54854E-03-2.73155E-01 3.33322E-14-9.14082E-14
 -1      4329 1.97887E+01 9.51927E-01-1.74625E-03-1.79137E-01-1.48091E-15-8.26884E-14
 -1      4330 1.96651E+01 9.05067E-01 1.71411E-03-2.59370E-01 1.43604E-15-1.49214E-13
 -1      4331 1.93938E+01 6.67508E-01 1.88082E-03 6.53458E-02-1.08881E-13 1.28770E-13
 -1      4332 1.92461E+01 9.38513E-01-3.34894E-03-2.03737E-02 5.08948E-14-2.21870E-13
 -1      4333 1.91847E+01 9.39281E-01 2.82023E-03-1.93805E-01 3.32314E-14-2.00092E-13
 -1      4334 1.93431E+01 8.99379E-01 1.12318E-03-2.64093E-01 5.61626E-14-1.84408E-13
 -1      4335 1.94134E+01 9.30751E-01-1.77672E-03-1.90838E-02 4.89548E-14-2.12866E-13
 -1      4336 1.92031E+01 7.67924E-01-2.99590E-03 9.38107E-02-3.34368E-13-3.93641E-14
 -1      4337 1.99467E+01 1.13091E+00-2.95410E-04 3.86192E-02 6.55709E-14-1.81146E-13
 -1      4338 1.98603E+01 1.02259E+00 1.49712E-03-4.10616E-02 2.73604E-14-1.70944E-13
 -1      4339 1.98890E+01 2.27628E-01 5.40181E-04-9.52396E-03 2.46342E-13 1.84334E-13
 -1      4340 1.77356E+01 9.51999E-01-5.64356E-03-6.97757E-01 2.04296E-14-1.62728E-13
 -1      4341 1.94785E+01 8.99312E-01-1.70384E-03-2.24524E-01 4.17808E-14-1.97724E-13
 -1      4342 1.77616E+01 1.10874E+00-5.30108E-03 3.93753E-01-3.34851E-13-1.87185E-13
 -1      4343 1.77405E+01 1.04121E+00 1.00953E-02-4.82128E-01 3.57998E-14-1.41066E-13
 -1      4344 1.95024E+01 9.30976E-01 3.00828E-03-1.34459E-01 4.46113E-14-2.34117E-13
 -1      4345 1.89908E+01 8.59675E-01-1.58705E-05-5.75871E-01-1.08753E-14-1.55149E-13
 -1      4346 1.95596E+01 5.45739E-01-1.21678E-03 4.62698E-02 1.54204E-14 1.09327E-13
 -1      4347 1.97843E+01 9.79507E-01-1.65161E-03-3.65246E-02 3.40421E-14-1.84792E-13
 -1      4348 1.80450E+01 9.39849E-01-1.34352E-03-6.84363E-01 4.70260E-14-1.86759E-13
 -1      4349 1.97421E+01 9.58829E-01 1.30086E-03-1.39258E-01 2.74854E-14-1.76002E-13
 -1      4350 1.82859E+01 9.47429E-01-5.52558E-03-5.83858E-01 4.02808E-14-1.76184E-13
 -1      4351 1.99073E+01 2.04355E-01 5.34813E-04-6.40773E-03 3.15683E-13 1.18156E-13
 -1      4352 1.77066E+01 1.05031E+00-5.93784E-03 6.83448E-01-4.15477E-13-1.66566E-13
 -1      4353 1.75040E+01 1.01910E+00-9.31238E-03 7.88385E-01-3.04281E-13-6.04080E-15
 -1      4354 1.85632E+01 9.40758E-01 8.44035E-04-5.08169E-01 2.51244E-14-2.24529E-13
 -1      4355 1.96086E+01 9.04318E-01-4.75243E-04-2.15998E-01 3.95873E-14-1.91880E-13
 -1      4356 1.96797E+01 9.25583E-01 3.15103E-04-1.75331E-01 2.10548E-14-1.72167E-13
 -1      4357 1.87717E+01 9.35487E-01 2.53955E-03-4.52187E-01 9.66626E-15-1.73954E-13
 -3
    1PSTEP                         3           1           1          
  100CL  101 1.000000000        4357                     0    1           1
 -4  TOSTRAIN    6    1
 -5  EXX         1    4    1    1
 -5  EYY         1    4    2    2
 -5  EZZ         1    4    3    3
 -5  EXY         1    4    1    2
 -5  EYZ         1    4    2    3
 -5  EZX         1    4    3    1
 -1         1 2.33696E-04-4.96803E-05-6.87937E-05-1.01319E-04-6.83196E-18 1.88774E-17
 -1         2 3.63894E-05-1.10443E-04 1.98813E-05 3.47516E-07 5.19415E-18 1.33135E-18
 -1         3 9.52371E-05-2.85711E-05-2.85682E-05 2.08448E-09-3.77661E-18-3.51120E-18
 -1         4 9.52370E-05-2.85713E-05-2.85683E-05-1.72422E-09 1.49592E-18-1.97719E-18
 -1         5 1.42403E-04-2.13068E-05-4.23192E-05 3.82690E-05-2.68615E-19 1.74633E-17
 -1         6 1.44405E-04 2.56274E-10-4.39625E-05-5.31219E-05-9.73241E-19 1.36305E-17
 -1         7 9.04531E-05-5.28452E-07-3.89679E-05-2.89393E-05-1.37643E-19 1.85590E-18
 -1         8 8.51755E-05 7.39765E-08-3.63407E-05-1.98882E-05-1.65648E-19-1.58334E-18
 -1         9 8.29620E-05 6.76175E-08-3.54015E-05-1.51924E-05-1.18254E-19-3.37099E-18
 -1        10 8.19406E-05 3.35515E-08-3.49483E-05-1.16108E-05-6.94170E-20-4.15415E-18
 -1        11 8.13945E-05 1.63913E-08-3.47154E-05-8.57673E-06-4.52335E-20-4.45478E-18
 -1        12 8.10797E-05 8.52593E-09-3.45872E-05-5.92847E-06-1.70135E-20-4.47963E-18
 -1        13 8.08950E-05 5.54992E-09-3.45149E-05-3.45480E-06 1.02827E-20-4.32894E-18
 -1        14 8.08102E-05 4.49451E-09-3.44825E-05-1.10555E-06 3.97890E-20-4.13299E-18
 -1        15 8.08117E-05 4.49099E-09-3.44829E-05 1.20517E-06 6.91391E-20-3.89447E-18
 -1        16 8.08996E-05 5.48114E-09-3.45162E-05 3.56068E-06 9.64352E-20-3.60231E-18
 -1        17 8.10880E-05 7.74699E-09-3.45891E-05 6.04858E-06 1.13522E-19-3.21264E-18
 -1        18 8.14062E-05 1.54553E-08-3.47179E-05 8.71800E-06 1.33573E-19-2.54628E-18
 -1        19 8.19589E-05 3.27710E-08-3.49542E-05 1.17896E-05 1.90781E-19-1.59574E-18
 -1        20 8.29795E-05 7.27560E-08-3.54124E-05 1.54234E-05 2.33688E-19-5.04084E-20
 -1        21 8.51383E-05 1.56152E-07-3.63778E-05 2.00996E-05 2.33861E-19 2.71260E-18
 -1        22 9.14574E-05-1.14940E-07-3.86419E-05 2.76950E-05 1.70465E-20 7.62569E-18
 -1        23 1.12437E-04-3.79495E-05-3.52403E-05-4.32497E-06-6.77732E-19 1.02562E-17
 -1        24 9.26437E-05-2.76523E-05-2.89434E-05 3.95458E-07-1.83346E-19 7.19836E-18
 -1        25 8.92484E-05-2.68941E-05-2.69664E-05 3.74309E-07-1.46715E-19 4.23433E-18
 -1        26 8.84676E-05-2.66279E-05-2.65300E-05 2.02540E-07 9.92617E-23 2.32067E-18
 -1        27 8.89085E-05-2.67318E-05-2.66494E-05 1.39976E-07-1.15222E-20 1.25269E-18
 -1        28 9.00023E-05-2.70377E-05-2.69898E-05 1.04188E-07-3.56916E-20 6.66191E-19
 -1        29 9.15209E-05-2.74811E-05-2.74549E-05 8.37117E-08 5.12323E-20-4.01556E-19
 -1        30 9.33785E-05-2.80321E-05-2.80189E-05 7.33107E-08 1.02832E-19-9.26267E-19
 -1        31 9.55636E-05-2.86843E-05-2.86806E-05 7.10830E-08-9.21742E-20-1.68885E-18
 -1        32 9.81080E-05-2.94454E-05-2.94504E-05 7.67221E-08 4.78454E-20-2.90147E-18
 -1        33 1.01063E-04-3.03294E-05-3.03431E-05 9.05413E-08 1.97730E-19-2.73225E-18
 -1        34 1.04472E-04-3.13483E-05-3.13698E-05 1.12557E-07-5.34646E-20-2.60375E-18
 -1        35 1.08330E-04-3.24993E-05-3.25250E-05 1.41009E-07-1.27980E-19-2.76073E-18
 -1        36 1.12515E-04-3.37460E-05-3.37653E-05 1.69652E-07-4.69158E-20-1.95021E-18
 -1        37 1.16699E-04-3.49908E-05-3.49820E-05 1.83378E-07-2.66961E-19-2.19380E-18
 -1        38 1.20233E-04-3.60426E-05-3.59715E-05 1.53185E-07-2.65896E-19-3.08706E-18
 -1        39 1.22083E-04-3.65965E-05-3.64267E-05 3.63111E-08-3.06987E-19-3.95094E-18
 -1        40 1.20945E-04-3.62659E-05-3.59912E-05-2.04655E-07 2.07981E-19-4.49265E-18
 -1        41 1.15757E-04-3.47287E-05-3.44238E-05-5.52216E-07-3.54960E-20-6.61985E-18
 -1        42 1.06649E-04-3.20092E-05-3.18514E-05-8.70431E-07 1.33322E-19-6.67923E-18
 -1        43 9.58956E-05-2.87757E-05-2.89538E-05-9.09903E-07-4.36493E-19-5.13821E-18
 -1        44 8.77024E-05-2.62977E-05-2.68183E-05-5.01109E-07 3.10497E-19-5.00207E-18
 -1        45 8.60253E-05-2.57893E-05-2.63878E-05 2.03369E-07-9.84444E-20-4.55389E-18
 -1        46 9.17533E-05-2.75239E-05-2.78717E-05 7.84058E-07-3.95247E-19-7.94620E-18
 -1        47 1.02015E-04-3.06179E-05-3.05952E-05 9.37705E-07 5.73017E-19-7.53182E-18
 -1        48 1.12356E-04-3.37159E-05-3.34534E-05 7.10898E-07-2.56798E-19-6.49590E-18
 -1        49 1.19511E-04-3.58442E-05-3.55429E-05 3.50936E-07-1.45451E-20-8.12729E-18
 -1        50 1.22486E-04-3.67215E-05-3.65039E-05 5.54954E-08-4.97450E-20-9.55549E-18
 -1        51 1.21965E-04-3.65615E-05-3.64520E-05-1.11773E-07 1.44159E-19-8.62884E-18
 -1        52 1.19248E-04-3.57528E-05-3.57232E-05-1.72491E-07-1.39825E-19-5.91121E-18
 -1        53 1.15535E-04-3.46491E-05-3.46619E-05-1.71058E-07 5.61973E-20-4.79377E-18
 -1        54 1.11653E-04-3.34941E-05-3.35222E-05-1.43006E-07-5.10266E-19-6.22995E-18
 -1        55 1.08069E-04-3.24260E-05-3.24548E-05-1.08832E-07-6.28035E-19-8.70174E-18
 -1        56 1.04990E-04-3.15065E-05-3.15301E-05-7.78236E-08 1.57436E-19-9.63827E-18
 -1        57 1.02467E-04-3.07513E-05-3.07686E-05-5.29747E-08 1.05032E-19-7.29414E-18
 -1        58 1.00468E-04-3.01517E-05-3.01634E-05-3.43749E-08-3.46313E-19-7.88228E-18
 -1        59 9.89254E-05-2.96881E-05-2.96955E-05-2.10521E-08 2.92697E-19-8.02018E-18
 -1        60 9.77620E-05-2.93378E-05-2.93422E-05-1.18237E-08-6.77326E-19-6.66048E-18
 -1        61 9.69036E-05-2.90788E-05-2.90812E-05-5.62542E-09 4.43029E-19-7.31476E-18
 -1        62 9.62846E-05-2.88917E-05-2.88927E-05-1.60079E-09-8.99664E-19-6.00819E-18
 -1        63 9.58501E-05-2.87601E-05-2.87603E-05 9.03382E-10 4.32803E-19-5.16473E-18
 -1        64 9.55553E-05-2.86706E-05-2.86703E-05 2.37144E-09-4.37614E-19-5.80093E-18
 -1        65 9.53645E-05-2.86124E-05-2.86119E-05 3.15795E-09-8.30687E-19-5.24514E-18
 -1        66 9.52502E-05-2.85774E-05-2.85768E-05 3.52281E-09-5.12873E-20-5.45323E-18
 -1        67 9.51909E-05-2.85590E-05-2.85585E-05 3.66159E-09 1.04487E-18-2.44605E-18
 -1        68 9.51708E-05-2.85524E-05-2.85521E-05 3.73269E-09 7.61036E-19-7.97501E-19
 -1        69 9.51774E-05-2.85539E-05-2.85537E-05 3.84372E-09-2.17287E-19-2.60564E-19
 -1        70 9.52001E-05-2.85605E-05-2.85599E-05 3.90541E-09-1.65705E-19 1.43449E-18
 -1        71 9.52274E-05-2.85690E-05-2.85663E-05 3.31924E-09-9.41590E-19-1.00198E-18
 -1        72 1.01717E-04-3.04437E-05-3.40076E-05-1.93103E-06 1.49051E-19 1.67115E-17
 -1        73 9.24171E-05-2.74734E-05-2.88574E-05-3.33219E-07 8.49746E-20 1.39596E-17
 -1        74 8.92475E-05-2.67467E-05-2.70136E-05-1.21891E-07 6.93186E-20 1.18060E-17
 -1        75 8.85064E-05-2.65800E-05-2.65772E-05-8.91003E-08 3.77786E-20 1.04794E-17
 -1        76 8.89446E-05-2.67097E-05-2.66774E-05-6.90140E-08 8.48216E-20 9.32270E-18
 -1        77 9.00199E-05-2.70234E-05-2.70032E-05-5.50981E-08 8.34090E-20 8.48079E-18
 -1        78 9.14985E-05-2.74609E-05-2.74521E-05-4.59511E-08-1.09718E-19 8.11249E-18
 -1        79 9.32801E-05-2.79917E-05-2.79908E-05-4.07893E-08 4.15724E-20 7.47645E-18
 -1        80 9.53290E-05-2.86036E-05-2.86092E-05-3.98185E-08-2.86926E-20 6.96680E-18
 -1        81 9.76387E-05-2.92936E-05-2.93053E-05-4.38664E-08 1.34089E-19 6.30377E-18
 -1        82 1.00205E-04-3.00601E-05-3.00766E-05-5.39601E-08 1.93732E-19 5.91078E-18
 -1        83 1.02997E-04-3.08933E-05-3.09114E-05-7.07603E-08-5.43573E-20 5.61263E-18
 -1        84 1.05918E-04-3.17648E-05-3.17774E-05-9.35173E-08 1.24461E-19 5.15647E-18
 -1        85 1.08762E-04-3.26140E-05-3.26085E-05-1.18240E-07-1.92892E-19 4.85988E-18
 -1        86 1.11167E-04-3.33348E-05-3.32924E-05-1.35114E-07 2.91934E-19 4.11398E-18
 -1        87 1.12592E-04-3.37683E-05-3.36676E-05-1.26221E-07-4.12294E-19 4.62362E-18
 -1        88 1.12362E-04-3.37151E-05-3.35436E-05-6.68800E-08-2.39254E-20 6.26341E-18
 -1        89 1.09854E-04-3.29857E-05-3.27611E-05 6.31355E-08 2.91915E-19 4.57209E-18
 -1        90 1.04845E-04-3.15031E-05-3.12931E-05 2.54874E-07-2.63529E-19 4.46029E-18
 -1        91 9.79586E-05-2.94373E-05-2.93519E-05 4.45047E-07 7.04485E-20 4.39814E-18
 -1        92 9.08786E-05-2.72825E-05-2.74155E-05 5.24830E-07-5.55625E-20 5.05917E-18
 -1        93 8.59406E-05-2.57517E-05-2.60968E-05 4.07750E-07-5.50025E-20 5.56269E-18
 -1        94 8.50582E-05-2.54502E-05-2.58724E-05 1.15835E-07 2.37264E-19 3.37404E-18
 -1        95 8.86093E-05-2.65151E-05-2.68298E-05-2.12376E-07-1.42969E-19 2.18830E-18
 -1        96 9.51965E-05-2.85216E-05-2.86185E-05-4.24162E-07 5.05305E-19 3.63554E-18
 -1        97 1.02504E-04-3.07495E-05-3.06472E-05-4.59479E-07-2.56729E-19 4.45643E-18
 -1        98 1.08500E-04-3.25702E-05-3.23657E-05-3.61966E-07 6.67063E-20 5.27298E-18
 -1        99 1.12148E-04-3.36698E-05-3.34600E-05-2.15618E-07-2.90026E-20 4.16546E-18
 -1       100 1.13396E-04-3.40388E-05-3.38797E-05-8.39502E-08-1.79657E-19 4.50268E-18
 -1       101 1.12770E-04-3.38432E-05-3.37485E-05 6.63799E-09 1.08369E-20 5.26651E-18
 -1       102 1.10970E-04-3.32966E-05-3.32555E-05 5.60899E-08 4.29706E-19 4.20296E-18
 -1       103 1.08611E-04-3.25850E-05-3.25794E-05 7.52940E-08-4.20727E-19 4.14205E-18
 -1       104 1.06135E-04-3.18404E-05-3.18542E-05 7.61647E-08 1.60453E-19 3.47091E-18
 -1       105 1.03811E-04-3.11430E-05-3.11649E-05 6.77789E-08 1.51912E-19 1.98622E-18
 -1       106 1.01778E-04-3.05332E-05-3.05566E-05 5.59051E-08 3.96686E-20 1.11831E-18
 -1       107 1.00083E-04-3.00251E-05-3.00466E-05 4.37455E-08-1.24722E-19-1.24310E-19
 -1       108 9.87220E-05-2.96171E-05-2.96353E-05 3.28349E-08-5.10586E-19-3.22069E-19
 -1       109 9.76626E-05-2.92995E-05-2.93141E-05 2.37417E-08 1.39727E-19 2.20215E-18
 -1       110 9.68610E-05-2.90591E-05-2.90705E-05 1.65251E-08 4.49120E-19-1.36999E-19
 -1       111 9.62713E-05-2.88822E-05-2.88908E-05 1.10046E-08-2.65198E-19-3.34556E-18
 -1       112 9.58506E-05-2.87560E-05-2.87622E-05 6.90813E-09-4.04777E-20-3.65702E-18
 -1       113 9.55613E-05-2.86691E-05-2.86735E-05 3.94953E-09-2.40920E-19-1.81482E-18
 -1       114 9.53718E-05-2.86121E-05-2.86153E-05 1.86342E-09-2.09923E-19 1.09507E-20
 -1       115 9.52569E-05-2.85775E-05-2.85797E-05 4.12266E-10 7.71019E-19-1.18296E-18
 -1       116 9.51965E-05-2.85593E-05-2.85608E-05-6.12129E-10-7.60775E-20 7.58456E-19
 -1       117 9.51751E-05-2.85527E-05-2.85538E-05-1.37869E-09 1.99494E-19-3.68945E-18
 -1       118 9.51804E-05-2.85542E-05-2.85549E-05-2.10212E-09-3.05733E-19-5.25945E-18
 -1       119 9.52022E-05-2.85606E-05-2.85606E-05-3.05567E-09 4.60301E-19-5.63532E-18
 -1       120 9.52276E-05-2.85687E-05-2.85667E-05-3.50286E-09 1.58978E-18-8.20816E-18
 -1       121 9.52401E-05-2.85817E-05-2.85669E-05-3.92783E-09-8.97833E-18-1.07804E-19
 -1       122 9.52473E-05-2.86050E-05-2.85614E-05-3.09684E-09-1.24685E-18 1.44862E-18
 -1       123 9.52520E-05-2.86205E-05-2.85574E-05-1.71720E-09 9.83256E-18 7.51663E-19
 -1       124 9.52525E-05-2.86222E-05-2.85568E-05-4.54309E-10 9.01152E-18 1.11858E-18
 -1       125 9.52494E-05-2.86120E-05-2.85594E-05 3.45133E-10 3.14725E-18-1.25805E-18
 -1       126 9.52447E-05-2.85960E-05-2.85638E-05 6.51249E-10-1.12133E-18 6.73150E-19
 -1       127 9.52402E-05-2.85805E-05-2.85680E-05 5.56262E-10 1.11370E-18 1.95348E-18
 -1       128 9.52375E-05-2.85715E-05-2.85705E-05 1.88579E-10-9.21653E-20 1.98181E-19
 -1       129 9.52377E-05-2.85722E-05-2.85703E-05-2.69281E-10-4.77246E-19 4.47261E-19
 -1       130 9.52407E-05-2.85825E-05-2.85675E-05-6.22188E-10 1.44096E-18-1.55449E-18
 -1       131 9.52456E-05-2.85988E-05-2.85630E-05-6.84029E-10 1.00890E-18 8.81398E-19
 -1       132 9.52504E-05-2.86151E-05-2.85585E-05-3.36339E-10 2.93502E-18 2.26517E-19
 -1       133 9.52533E-05-2.86250E-05-2.85560E-05 5.22633E-10 6.51211E-19-6.49810E-19
 -1       134 9.52525E-05-2.86224E-05-2.85569E-05 1.80585E-09-2.15516E-18 5.27946E-19
 -1       135 9.52478E-05-2.86061E-05-2.85612E-05 4.41863E-09-2.25511E-18-1.88576E-19
 -1       136 9.52401E-05-2.85824E-05-2.85666E-05 5.27082E-09-9.92165E-19 8.07555E-19
 -1       137 2.54827E-05-8.61689E-05 1.52584E-05-2.37146E-05 1.98822E-17 3.93624E-18
 -1       138 7.42400E-06-3.18303E-05 2.65344E-06-1.68994E-05 2.51603E-17 1.10443E-17
 -1       139 1.30744E-05 1.71402E-05-1.62496E-05 2.72513E-05 2.14583E-17 1.60991E-17
 -1       140 7.12262E-05 2.48866E-05-3.89790E-05 8.67947E-05 1.48375E-17 1.80066E-17
 -1       141 1.63579E-04-1.23467E-05-5.77866E-05 1.12240E-04 9.37581E-18 1.75717E-17
 -1       142 2.61586E-04-6.65800E-05-7.27203E-05 8.44509E-05 2.59764E-18 9.04885E-18
 -1       143 3.06276E-04-9.45778E-05-7.82896E-05 1.09973E-05 1.70624E-19-3.03677E-18
 -1       144 2.79041E-04-7.74645E-05-7.48312E-05-6.82553E-05 2.75304E-18-1.40059E-17
 -1       145 1.94152E-04-2.78064E-05-6.29222E-05-1.11769E-04 8.05846E-18-1.79008E-17
 -1       146 9.76196E-05 1.69284E-05-4.52202E-05-9.97579E-05 1.44406E-17-1.98621E-17
 -1       147 2.88508E-05 2.72923E-05-2.51694E-05-5.18872E-05 1.90345E-17-1.77847E-17
 -1       148 6.34428E-06-5.57777E-06-6.00058E-06-1.90138E-06 1.82400E-17-1.15817E-17
 -1       149 1.58486E-05-6.20016E-05 1.03335E-05 2.48307E-05 9.69175E-18-3.81440E-18
 -1       150 3.30639E-05-1.04181E-04 1.89601E-05 1.19161E-05-6.71697E-19-3.07010E-19
 -1       151 3.26349E-05-1.03206E-04 1.86830E-05-1.45960E-05-1.06377E-17-1.35742E-18
 -1       152 1.44697E-05-5.94688E-05 9.74482E-06-2.62270E-05-1.76534E-17-6.94345E-18
 -1       153 6.81551E-06-2.53633E-06-7.45013E-06 4.72138E-06-2.03246E-17-1.26405E-17
 -1       154 3.96663E-05 2.61806E-05-2.86534E-05 6.04121E-05-1.78466E-17-1.80244E-17
 -1       155 1.21616E-04 6.89808E-06-5.00774E-05 1.06137E-04-1.15785E-17-1.85831E-17
 -1       156 2.25347E-04-4.44605E-05-6.77346E-05 1.05720E-04-4.52718E-18-1.14015E-17
 -1       157 3.01603E-04-9.02316E-05-7.78968E-05 4.57313E-05-1.87697E-19-2.52913E-18
 -1       158 3.02723E-04-9.07052E-05-7.81221E-05-4.17409E-05-9.85390E-19 8.26927E-18
 -1       159 1.36783E-04 7.14072E-07-5.32033E-05-1.10267E-04-1.41311E-17 2.37165E-17
 -1       160 5.08370E-05 2.65276E-05-3.26771E-05-7.07914E-05-2.04046E-17 2.20237E-17
 -1       161 8.35096E-06 8.70521E-06-1.19229E-05-1.46982E-05-1.93666E-17 1.35826E-17
 -1       162 8.83871E-06-3.92623E-05 4.58553E-06 2.11777E-05-1.85022E-17 8.22321E-18
 -1       163 2.66430E-05-8.94072E-05 1.59115E-05 2.35443E-05-9.93739E-18 1.97859E-18
 -1       164 9.49032E-05-1.24313E-05-3.55443E-05-2.19179E-05-2.03799E-18 1.65277E-19
 -1       165 8.94165E-05-8.52365E-06-3.48274E-05-1.69061E-05-1.73235E-18-1.89706E-18
 -1       166 8.67118E-05-6.50250E-06-3.44857E-05-1.30773E-05-1.29769E-18-3.01974E-18
 -1       167 8.53040E-05-5.44313E-06-3.43086E-05-9.87518E-06-8.16892E-19-3.56271E-18
 -1       168 8.44612E-05-4.78938E-06-3.42123E-05-7.12186E-06-4.42231E-19-3.72412E-18
 -1       169 8.39409E-05-4.37859E-06-3.41575E-05-4.59337E-06-5.30181E-20-3.71879E-18
 -1       170 8.36563E-05-4.15081E-06-3.41293E-05-2.23290E-06 3.11016E-19-3.50876E-18
 -1       171 8.35682E-05-4.08059E-06-3.41205E-05 4.75907E-08 6.66373E-19-3.25396E-18
 -1       172 8.36664E-05-4.16125E-06-3.41293E-05 2.33083E-06 1.03651E-18-3.04473E-18
 -1       173 8.39627E-05-4.40145E-06-3.41574E-05 4.69965E-06 1.35682E-18-2.79908E-18
 -1       174 8.44864E-05-4.82033E-06-3.42102E-05 7.19889E-06 1.61896E-18-2.31231E-18
 -1       175 8.53562E-05-5.50160E-06-3.43066E-05 1.00208E-05 2.03891E-18-1.55627E-18
 -1       176 8.68157E-05-6.61373E-06-3.44866E-05 1.32735E-05 2.30444E-18-4.54433E-19
 -1       177 8.95526E-05-8.66441E-06-3.48305E-05 1.71405E-05 2.32961E-18 1.39774E-18
 -1       178 9.57992E-05-1.36841E-05-3.54003E-05 2.14743E-05 1.98150E-18 4.58515E-18
 -1       179 1.05396E-04-2.60790E-05-3.51752E-05 1.83530E-05 1.27809E-18 8.54799E-18
 -1       180 1.03315E-04-2.73013E-05-3.25744E-05-1.18136E-05-1.84404E-18 2.80614E-18
 -1       181 9.72467E-05-2.83300E-05-2.95695E-05-4.42286E-06-1.68470E-18 1.92312E-18
 -1       182 9.39132E-05-2.77408E-05-2.83102E-05-1.41676E-06-1.17498E-18 1.22100E-18
 -1       183 9.27130E-05-2.75960E-05-2.78702E-05 3.10470E-08-7.64591E-19 5.49453E-19
 -1       184 9.25752E-05-2.76379E-05-2.78096E-05 8.48448E-07-5.38450E-19 1.56992E-19
 -1       185 9.31122E-05-2.78342E-05-2.79647E-05 1.38507E-06-5.07737E-19-7.87042E-20
 -1       186 9.41184E-05-2.81472E-05-2.82657E-05 1.79931E-06-2.96837E-19-2.29774E-19
 -1       187 9.54957E-05-2.85570E-05-2.86819E-05 2.17715E-06-3.38414E-19-5.07490E-19
 -1       188 9.72059E-05-2.90584E-05-2.92008E-05 2.56784E-06-4.03736E-19-3.02051E-19
 -1       189 9.92435E-05-2.96555E-05-2.98189E-05 2.99408E-06-1.35708E-19-3.34504E-19
 -1       190 1.01613E-04-3.03582E-05-3.05344E-05 3.44959E-06-1.67920E-19-1.06446E-18
 -1       191 1.04304E-04-3.11769E-05-3.13393E-05 3.88752E-06 1.17882E-19-1.14626E-18
 -1       192 1.07262E-04-3.21157E-05-3.22086E-05 4.20062E-06 1.02006E-19-6.26861E-19
 -1       193 1.10347E-04-3.31611E-05-3.30878E-05 4.19756E-06-2.77816E-19-6.50058E-19
 -1       194 1.13283E-04-3.42606E-05-3.38809E-05 3.59102E-06-4.58811E-19-4.40022E-19
 -1       195 1.15621E-04-3.52862E-05-3.44470E-05 2.03742E-06-4.16446E-19-2.02797E-19
 -1       196 1.16731E-04-3.59822E-05-3.46227E-05-7.00236E-07-4.84976E-19 1.53268E-20
 -1       197 1.15920E-04-3.59450E-05-3.42825E-05-4.41313E-06-7.02958E-19-9.19836E-19
 -1       198 1.12772E-04-3.47424E-05-3.34379E-05-8.04551E-06-8.35383E-19-1.06949E-18
 -1       199 1.07705E-04-3.22930E-05-3.23141E-05-9.65971E-06 5.17253E-20-2.52109E-18
 -1       200 1.02451E-04-2.94207E-05-3.13055E-05-7.43079E-06 1.14879E-20-2.66101E-18
 -1       201 9.95905E-05-2.77524E-05-3.08032E-05-1.52256E-06-3.52836E-19-2.95227E-18
 -1       202 1.00789E-04-2.84473E-05-3.10147E-05 5.21780E-06-1.24994E-18-2.83353E-18
 -1       203 1.05355E-04-3.10135E-05-3.18601E-05 9.27621E-06 1.46648E-19-2.49517E-18
 -1       204 1.10865E-04-3.38342E-05-3.30100E-05 9.23074E-06 1.64212E-19-3.80592E-18
 -1       205 1.15071E-04-3.56463E-05-3.40430E-05 6.24234E-06-1.10513E-18-4.33705E-18
 -1       206 1.16999E-04-3.61814E-05-3.46490E-05 2.40106E-06-7.12520E-19-5.19851E-18
 -1       207 1.16784E-04-3.57864E-05-3.47305E-05-7.95988E-07 8.77725E-19-4.99625E-18
 -1       208 1.15062E-04-3.49108E-05-3.43662E-05-2.80851E-06 1.37679E-18-4.59874E-18
 -1       209 1.12523E-04-3.38791E-05-3.37148E-05-3.73017E-06 3.18161E-19-4.02596E-18
 -1       210 1.09706E-04-3.28707E-05-3.29337E-05-3.88799E-06-1.04286E-18-3.48605E-18
 -1       211 1.06963E-04-3.19677E-05-3.21407E-05-3.60569E-06-1.41189E-18-2.52310E-18
 -1       212 1.04490E-04-3.11983E-05-3.14077E-05-3.12053E-06-5.41022E-19-2.61644E-18
 -1       213 1.02370E-04-3.05641E-05-3.07698E-05-2.57974E-06 1.26633E-18-2.42297E-18
 -1       214 1.00620E-04-3.00542E-05-3.02375E-05-2.06314E-06-4.51322E-19-3.86313E-18
 -1       215 9.92138E-05-2.96527E-05-2.98073E-05-1.60745E-06 2.27681E-20-3.61413E-18
 -1       216 9.81112E-05-2.93425E-05-2.94682E-05-1.22454E-06-1.77682E-19-4.76266E-18
 -1       217 9.72647E-05-2.91073E-05-2.92069E-05-9.13223E-07-2.32588E-19-3.64033E-18
 -1       218 9.66279E-05-2.89323E-05-2.90096E-05-6.66243E-07 9.68517E-19-2.85587E-18
 -1       219 9.61588E-05-2.88048E-05-2.88637E-05-4.74148E-07-7.36013E-20-2.22529E-18
 -1       220 9.58215E-05-2.87142E-05-2.87585E-05-3.27292E-07 3.02665E-19-2.85962E-18
 -1       221 9.55858E-05-2.86519E-05-2.86846E-05-2.16805E-07 6.09551E-19-2.42699E-18
 -1       222 9.54272E-05-2.86108E-05-2.86346E-05-1.34983E-07-5.73643E-19-1.65680E-18
 -1       223 9.53262E-05-2.85854E-05-2.86024E-05-7.54019E-08 2.19318E-18-1.49932E-18
 -1       224 9.52671E-05-2.85714E-05-2.85833E-05-3.29270E-08 1.35718E-18-5.86637E-19
 -1       225 9.52377E-05-2.85655E-05-2.85735E-05-3.76036E-09 8.24998E-19-1.25527E-18
 -1       226 9.52281E-05-2.85654E-05-2.85695E-05 1.41323E-08 7.90382E-19-8.97191E-20
 -1       227 9.52300E-05-2.85698E-05-2.85685E-05 2.06408E-08-7.78256E-19 1.35361E-18
 -1       228 9.94820E-05-2.85563E-05-3.05757E-05 6.95164E-06 1.44248E-18 7.53102E-18
 -1       229 9.46440E-05-2.78539E-05-2.85938E-05 2.47958E-06 1.11090E-18 6.31601E-18
 -1       230 9.26167E-05-2.75418E-05-2.78434E-05 6.12939E-07 8.05776E-19 5.37568E-18
 -1       231 9.20389E-05-2.74812E-05-2.76397E-05-3.42971E-07 6.82113E-19 4.62931E-18
 -1       232 9.23099E-05-2.76096E-05-2.77141E-05-9.05158E-07 3.58410E-19 4.27951E-18
 -1       233 9.31231E-05-2.78747E-05-2.79556E-05-1.28165E-06 2.33902E-19 3.81052E-18
 -1       234 9.43190E-05-2.82417E-05-2.83140E-05-1.57206E-06 5.75992E-19 3.35436E-18
 -1       235 9.58160E-05-2.86924E-05-2.87643E-05-1.82695E-06 3.03429E-19 3.00408E-18
 -1       236 9.75714E-05-2.92189E-05-2.92923E-05-2.06768E-06 2.97070E-19 2.71995E-18
 -1       237 9.95543E-05-2.98173E-05-2.98870E-05-2.29080E-06 3.03994E-19 2.49194E-18
 -1       238 1.01721E-04-3.04815E-05-3.05325E-05-2.46554E-06 2.67547E-19 2.28025E-18
 -1       239 1.03991E-04-3.11956E-05-3.12005E-05-2.52813E-06 4.72270E-19 2.55484E-18
 -1       240 1.06215E-04-3.19252E-05-3.18422E-05-2.37735E-06 1.58174E-19 2.38215E-18
 -1       241 1.08155E-04-3.26061E-05-3.23817E-05-1.87948E-06 4.29292E-19 2.12007E-18
 -1       242 1.09471E-04-3.31326E-05-3.27173E-05-8.97351E-07-4.59514E-19 2.47457E-18
 -1       243 1.09745E-04-3.33532E-05-3.27359E-05 6.38362E-07-3.61676E-20 2.42641E-18
 -1       244 1.08592E-04-3.30869E-05-3.23502E-05 2.60709E-06 5.56709E-19 2.04284E-18
 -1       245 1.05844E-04-3.21897E-05-3.15550E-05 4.56567E-06-9.38635E-20 2.39955E-18
 -1       246 1.01819E-04-3.06873E-05-3.04803E-05 5.73921E-06-1.35191E-19 2.54929E-18
 -1       247 9.74859E-05-2.89169E-05-2.93960E-05 5.30930E-06-3.26240E-19 2.69533E-18
 -1       248 9.42872E-05-2.75178E-05-2.86376E-05 2.98594E-06 1.32574E-19 2.46200E-18
 -1       249 9.35008E-05-2.71314E-05-2.84674E-05-5.47440E-07 1.37088E-18 1.89950E-18
 -1       250 9.54830E-05-2.79620E-05-2.89479E-05-3.86410E-06 2.14753E-19 1.27506E-18
 -1       251 9.94258E-05-2.96107E-05-2.99137E-05-5.68130E-06-6.65624E-19 1.65617E-18
 -1       252 1.03880E-04-3.13821E-05-3.10549E-05-5.61029E-06-5.77127E-19 2.30014E-18
 -1       253 1.07546E-04-3.27180E-05-3.20552E-05-4.15368E-06 9.37990E-20 1.64430E-18
 -1       254 1.09738E-04-3.34044E-05-3.27082E-05-2.16446E-06 2.51536E-19 1.84636E-18
 -1       255 1.10388E-04-3.35014E-05-3.29528E-05-3.32537E-07-9.08205E-19 2.02405E-18
 -1       256 1.09799E-04-3.31864E-05-3.28394E-05 1.00052E-06 2.88602E-19 1.66974E-18
 -1       257 1.08398E-04-3.26414E-05-3.24733E-05 1.78039E-06 5.11312E-19 1.21592E-18
 -1       258 1.06581E-04-3.20057E-05-3.19659E-05 2.10492E-06-2.25110E-19 1.47460E-18
 -1       259 1.04650E-04-3.13703E-05-3.14088E-05 2.11602E-06 9.82922E-19 1.12827E-18
 -1       260 1.02803E-04-3.07868E-05-3.08653E-05 1.94235E-06 9.35152E-19 5.41534E-19
 -1       261 1.01150E-04-3.02798E-05-3.03727E-05 1.67971E-06-1.38007E-20 4.73031E-19
 -1       262 9.97389E-05-2.98564E-05-2.99486E-05 1.39097E-06 6.61326E-19 1.03071E-18
 -1       263 9.85783E-05-2.95139E-05-2.95975E-05 1.11306E-06-2.57420E-19-2.94042E-19
 -1       264 9.76520E-05-2.92443E-05-2.93160E-05 8.64929E-07-9.16928E-19-7.56601E-19
 -1       265 9.69324E-05-2.90373E-05-2.90963E-05 6.54082E-07 9.70065E-19 2.56252E-19
 -1       266 9.63875E-05-2.88823E-05-2.89294E-05 4.81263E-07 5.49858E-19 1.91851E-18
 -1       267 9.59856E-05-2.87691E-05-2.88058E-05 3.43585E-07 4.75864E-19 1.09450E-18
 -1       268 9.56978E-05-2.86890E-05-2.87170E-05 2.36494E-07-8.02152E-19 4.61137E-19
 -1       269 9.54989E-05-2.86345E-05-2.86554E-05 1.54949E-07-7.29633E-19 9.36796E-19
 -1       270 9.53679E-05-2.85992E-05-2.86145E-05 9.40831E-08 1.29652E-18 2.49962E-18
 -1       271 9.52877E-05-2.85782E-05-2.85893E-05 4.95613E-08-2.65388E-19 1.71606E-19
 -1       272 9.52443E-05-2.85677E-05-2.85754E-05 1.79270E-08 2.09882E-18 1.59907E-18
 -1       273 9.52266E-05-2.85643E-05-2.85694E-05-3.41005E-09-2.17987E-19 1.84312E-18
 -1       274 9.52252E-05-2.85659E-05-2.85680E-05-1.55642E-08 2.14196E-18 1.69617E-18
 -1       275 9.52322E-05-2.85720E-05-2.85682E-05-1.66114E-08 8.25460E-19-1.39949E-18
 -1       276 9.52398E-05-2.85792E-05-2.85687E-05-1.79123E-08 1.93710E-18 4.69319E-18
 -1       277 9.52439E-05-2.85817E-05-2.85695E-05-1.02235E-08 1.52738E-18 5.33859E-18
 -1       278 9.52427E-05-2.85765E-05-2.85712E-05 2.83188E-09 2.22461E-18-6.11664E-20
 -1       279 9.52377E-05-2.85643E-05-2.85743E-05 1.36116E-08 1.57073E-18-1.28746E-18
 -1       280 9.52310E-05-2.85484E-05-2.85783E-05 1.86335E-08 2.86131E-19-4.33947E-18
 -1       281 9.52243E-05-2.85324E-05-2.85823E-05 1.70215E-08-4.47538E-19 5.55840E-19
 -1       282 9.52196E-05-2.85209E-05-2.85852E-05 9.74151E-09-5.28058E-19 9.21731E-19
 -1       283 9.52179E-05-2.85170E-05-2.85862E-05-6.73144E-10 7.18445E-19-4.63393E-19
 -1       284 9.52199E-05-2.85218E-05-2.85850E-05-1.09651E-08 9.71456E-19 6.27572E-19
 -1       285 9.52249E-05-2.85339E-05-2.85819E-05-1.78870E-08 3.01500E-18-1.87106E-19
 -1       286 9.52316E-05-2.85500E-05-2.85778E-05-1.89905E-08 1.73623E-18 3.35690E-20
 -1       287 9.52385E-05-2.85664E-05-2.85738E-05-1.33270E-08 2.49180E-18-1.62303E-18
 -1       288 9.52434E-05-2.85783E-05-2.85707E-05-1.82727E-09 7.88008E-19-1.75580E-18
 -1       289 9.52437E-05-2.85820E-05-2.85692E-05 1.04690E-08 6.09719E-20 1.28170E-19
 -1       290 9.52410E-05-2.85762E-05-2.85706E-05 1.98416E-08-8.67044E-19-5.28085E-19
 -1       291 1.28249E-05-4.87222E-05 1.18797E-05 7.30039E-06 3.25621E-18 7.50429E-18
 -1       292 2.66090E-05-4.18946E-05 3.93194E-06 2.27158E-05 7.45410E-18 6.27704E-18
 -1       293 5.48766E-05-3.58995E-05-9.70398E-06 3.61166E-05 9.22821E-18 4.99172E-18
 -1       294 9.78587E-05-3.34718E-05-2.77697E-05 4.39963E-05 8.64927E-18 6.78071E-18
 -1       295 1.39693E-04-2.92650E-05-4.59409E-05 4.71966E-05 7.26183E-18 7.42678E-18
 -1       296 1.76147E-04-3.20977E-05-5.97030E-05 2.71619E-05 6.91915E-18 2.57562E-18
 -1       297 2.06502E-04-3.58262E-05-6.96828E-05 1.54499E-05 6.12765E-18 8.18446E-19
 -1       298 2.02368E-04-3.23403E-05-6.98006E-05-7.55951E-06 5.81753E-18-2.16962E-18
 -1       299 1.90045E-04-3.37422E-05-6.39571E-05-3.21979E-05 5.26002E-18-6.82497E-18
 -1       300 1.53625E-04-3.14119E-05-5.06867E-05-4.20935E-05 6.31262E-18-7.08204E-18
 -1       301 1.10630E-04-2.92538E-05-3.44700E-05-4.72772E-05 7.11508E-18-7.53986E-18
 -1       302 6.99299E-05-3.19901E-05-1.73316E-05-4.03140E-05 6.40717E-18-7.65263E-18
 -1       303 4.40320E-05-4.05550E-05-3.00537E-06-3.46106E-05 2.19149E-18-7.22604E-18
 -1       304 1.73928E-05-4.43555E-05 8.73571E-06-1.57018E-05 7.42001E-19-5.61308E-18
 -1       305 9.03657E-06-3.98250E-05 1.09319E-05 1.51965E-07-1.69973E-18-5.23297E-18
 -1       306 1.81436E-05-4.59487E-05 8.74156E-06 1.39420E-05-5.74574E-18-5.21815E-18
 -1       307 4.69380E-05-4.12989E-05-3.91995E-06 3.46933E-05-5.23170E-18-4.86698E-18
 -1       308 7.84653E-05-3.48243E-05-1.95931E-05 4.10027E-05-6.93847E-18-6.49505E-18
 -1       309 1.26212E-04-3.68125E-05-3.78524E-05 4.12861E-05-6.60114E-18-6.04718E-18
 -1       310 1.65716E-04-3.39686E-05-5.46619E-05 3.53345E-05-7.28309E-18-3.84426E-18
 -1       311 2.01824E-04-3.61038E-05-6.75293E-05 2.48702E-05-5.16309E-18-1.44059E-18
 -1       312 2.15131E-04-3.77073E-05-7.20772E-05 9.94679E-07-4.47022E-18 2.54785E-18
 -1       313 1.96587E-04-3.33358E-05-6.70723E-05-1.88486E-05-6.65090E-18 4.86589E-18
 -1       314 1.71625E-04-3.32528E-05-5.69733E-05-3.96139E-05-7.82357E-18 7.69042E-18
 -1       315 1.32106E-04-3.47441E-05-4.09863E-05-4.20485E-05-7.96105E-18 8.07709E-18
 -1       316 8.69799E-05-3.41183E-05-2.32611E-05-4.25346E-05-7.91086E-18 1.03565E-17
 -1       317 4.86063E-05-3.71451E-05-6.92971E-06-3.20117E-05-8.34772E-18 7.09438E-18
 -1       318 2.45278E-05-4.38145E-05 5.27629E-06-1.87827E-05-5.06674E-18 6.93154E-18
 -1       319 1.21590E-05-4.67536E-05 1.16069E-05-6.32053E-06-6.81067E-19 7.14599E-18
 -1       320 9.18380E-05-1.43884E-05-3.32554E-05-1.24653E-05-1.74882E-18-1.61293E-18
 -1       321 9.58697E-05-1.91606E-05-3.29371E-05-1.41094E-05-2.11732E-18-4.36268E-19
 -1       322 8.79692E-05-1.01048E-05-3.34246E-05-7.60550E-06-7.99590E-19-2.74339E-18
 -1       323 8.70153E-05-9.05851E-06-3.34568E-05-5.27462E-06-3.72325E-19-2.85173E-18
 -1       324 8.64372E-05-8.42956E-06-3.34747E-05-3.08310E-06 1.56491E-19-2.72004E-18
 -1       325 8.61677E-05-8.13848E-06-3.34823E-05-9.79438E-07 6.19288E-19-2.49939E-18
 -1       326 8.61779E-05-8.15084E-06-3.34815E-05 1.09627E-06 1.06557E-18-2.27287E-18
 -1       327 8.64688E-05-8.46787E-06-3.34720E-05 3.20467E-06 1.42788E-18-2.21753E-18
 -1       328 8.70569E-05-9.11079E-06-3.34525E-05 5.36605E-06 1.77563E-18-1.85898E-18
 -1       329 8.80396E-05-1.01919E-05-3.34175E-05 7.69694E-06 2.18969E-18-1.12913E-18
 -1       330 8.95884E-05-1.19124E-05-3.33556E-05 1.01563E-05 2.55715E-18-4.41125E-19
 -1       331 9.20903E-05-1.47193E-05-3.32391E-05 1.25739E-05 2.67082E-18 6.79929E-19
 -1       332 9.59642E-05-1.95108E-05-3.28720E-05 1.38638E-05 2.43230E-18 2.67480E-18
 -1       333 9.88794E-05-2.44869E-05-3.19686E-05 1.14864E-05 2.01746E-18 4.51945E-18
 -1       334 9.66532E-05-2.68680E-05-2.98774E-05 5.28907E-06 1.66369E-18 3.67277E-18
 -1       335 9.67557E-05-2.60650E-05-3.02506E-05-5.76063E-06-1.69303E-18-5.70813E-20
 -1       336 9.54516E-05-2.70754E-05-2.92776E-05-2.09573E-06-1.26692E-18-7.49384E-20
 -1       337 9.47617E-05-2.75030E-05-2.88088E-05 4.84463E-08-7.62637E-19-3.54455E-20
 -1       338 9.46189E-05-2.77674E-05-2.86417E-05 1.42730E-06-6.28891E-19-1.52831E-19
 -1       339 9.49154E-05-2.79979E-05-2.86733E-05 2.41055E-06-4.75076E-19-2.33822E-19
 -1       340 9.55601E-05-2.82396E-05-2.88472E-05 3.20695E-06-3.74204E-19-2.57161E-19
 -1       341 9.64954E-05-2.85135E-05-2.91309E-05 3.94018E-06-8.62830E-20-2.80448E-19
 -1       342 9.76924E-05-2.88396E-05-2.95042E-05 4.67961E-06-3.13142E-19-2.85105E-19
 -1       343 9.91437E-05-2.92461E-05-2.99522E-05 5.44824E-06-5.78580E-19-3.27201E-19
 -1       344 1.00856E-04-2.97767E-05-3.04594E-05 6.21578E-06-3.54682E-19-4.68043E-19
 -1       345 1.02843E-04-3.04973E-05-3.10046E-05 6.88010E-06 2.56123E-19-6.75032E-19
 -1       346 1.05124E-04-3.14988E-05-3.15569E-05 7.23969E-06 1.12681E-19-2.04659E-19
 -1       347 1.07703E-04-3.28840E-05-3.20750E-05 6.96712E-06 9.79907E-20 2.27598E-19
 -1       348 1.10539E-04-3.47100E-05-3.25157E-05 5.61128E-06-7.53512E-20 6.34610E-19
 -1       349 1.13450E-04-3.68440E-05-3.28556E-05 2.68741E-06-4.04094E-19 9.49583E-19
 -1       350 1.15933E-04-3.87034E-05-3.31257E-05-2.02071E-06-1.09357E-18 9.77404E-19
 -1       351 1.17079E-04-3.91345E-05-3.34263E-05-7.87832E-06-7.02827E-19 1.09576E-18
 -1       352 1.15836E-04-3.67729E-05-3.38985E-05-1.27868E-05-9.76508E-19 1.09910E-18
 -1       353 1.12035E-04-3.14050E-05-3.45865E-05-1.33533E-05-7.51490E-19 7.56367E-19
 -1       354 1.07982E-04-2.59665E-05-3.51919E-05-7.31721E-06-1.84666E-19-1.44580E-19
 -1       355 1.07050E-04-2.47172E-05-3.53316E-05 3.05622E-06-7.88660E-19-8.42766E-19
 -1       356 1.10124E-04-2.87558E-05-3.49031E-05 1.16240E-05-1.07166E-18-1.71172E-18
 -1       357 1.14488E-04-3.46683E-05-3.42308E-05 1.39350E-05-6.83399E-19-3.19335E-18
 -1       358 1.17032E-04-3.85138E-05-3.36733E-05 1.05414E-05-6.08727E-19-4.49211E-18
 -1       359 1.16908E-04-3.91999E-05-3.33291E-05 4.77861E-06-8.92250E-19-3.42213E-18
 -1       360 1.14956E-04-3.78050E-05-3.30912E-05-5.34312E-07 7.98825E-20-2.77524E-18
 -1       361 1.12248E-04-3.57038E-05-3.28254E-05-4.17539E-06 1.08849E-18-3.04330E-18
 -1       362 1.09467E-04-3.37329E-05-3.24698E-05-6.07779E-06 9.77684E-19-3.21928E-18
 -1       363 1.06912E-04-3.21878E-05-3.20297E-05-6.66141E-06 2.24864E-20-3.71923E-18
 -1       364 1.04673E-04-3.10732E-05-3.15428E-05-6.41490E-06 3.37368E-19-2.13068E-18
 -1       365 1.02758E-04-3.02967E-05-3.10517E-05-5.73006E-06-1.30699E-19 7.36006E-20
 -1       366 1.01146E-04-2.97601E-05-3.05895E-05-4.87136E-06-1.24279E-19-8.51128E-19
 -1       367 9.98100E-05-2.93871E-05-3.01766E-05-3.99697E-06-2.85203E-19-2.09727E-18
 -1       368 9.87200E-05-2.91253E-05-2.98219E-05-3.19059E-06 5.94352E-19-6.99841E-19
 -1       369 9.78447E-05-2.89400E-05-2.95267E-05-2.48900E-06-2.52843E-19 4.41977E-19
 -1       370 9.71534E-05-2.88089E-05-2.92873E-05-1.90175E-06 2.76634E-19 6.09804E-19
 -1       371 9.66167E-05-2.87166E-05-2.90975E-05-1.42385E-06 6.30775E-19-7.20966E-19
 -1       372 9.62073E-05-2.86527E-05-2.89500E-05-1.04343E-06 1.45747E-18 9.19332E-19
 -1       373 9.59011E-05-2.86095E-05-2.88377E-05-7.46206E-07-7.02047E-19 1.36037E-18
 -1       374 9.56769E-05-2.85817E-05-2.87539E-05-5.17859E-07 7.53450E-20 7.35424E-19
 -1       375 9.55169E-05-2.85648E-05-2.86928E-05-3.45251E-07 1.76565E-19 7.39544E-20
 -1       376 9.54061E-05-2.85559E-05-2.86494E-05-2.16970E-07 1.38729E-18 1.21663E-18
 -1       377 9.53324E-05-2.85526E-05-2.86194E-05-1.23542E-07 1.18753E-18-6.53310E-20
 -1       378 9.52859E-05-2.85533E-05-2.85993E-05-5.75334E-08 1.52426E-19-2.08373E-19
 -1       379 9.52587E-05-2.85574E-05-2.85860E-05-1.34013E-08 9.62603E-19 1.09026E-18
 -1       380 9.52453E-05-2.85650E-05-2.85772E-05 1.07050E-08-3.80817E-19 3.04312E-19
 -1       381 9.48686E-05-2.74351E-05-2.88610E-05 1.91870E-06 1.24365E-18 3.21414E-18
 -1       382 9.39694E-05-2.76159E-05-2.84140E-05 3.53037E-08 1.02384E-18 2.78604E-18
 -1       383 9.38147E-05-2.77819E-05-2.82879E-05-1.10763E-06 5.30923E-19 2.23675E-18
 -1       384 9.41885E-05-2.79969E-05-2.83613E-05-1.87078E-06 4.52291E-19 2.07211E-18
 -1       385 9.49493E-05-2.82719E-05-2.85716E-05-2.44189E-06 5.79974E-19 1.85187E-18
 -1       386 9.60113E-05-2.86090E-05-2.88833E-05-2.91968E-06 5.29520E-19 2.01969E-18
 -1       387 9.73240E-05-2.90126E-05-2.92737E-05-3.34964E-06 4.75515E-19 1.76572E-18
 -1       388 9.88549E-05-2.94921E-05-2.97252E-05-3.73472E-06 3.49996E-19 1.56923E-18
 -1       389 1.00573E-04-3.00607E-05-3.02192E-05-4.03428E-06 5.04474E-19 1.48133E-18
 -1       390 1.02431E-04-3.07318E-05-3.07305E-05-4.15799E-06 4.48908E-19 1.03847E-18
 -1       391 1.04352E-04-3.15106E-05-3.12232E-05-3.96071E-06 5.98291E-19 8.54892E-19
 -1       392 1.06202E-04-3.23776E-05-3.16487E-05-3.24996E-06 2.84305E-19 1.09430E-18
 -1       393 1.07776E-04-3.32585E-05-3.19494E-05-1.82505E-06-4.86693E-19 8.87631E-19
 -1       394 1.08779E-04-3.39826E-05-3.20710E-05 4.27350E-07-2.60964E-19 6.21893E-19
 -1       395 1.08848E-04-3.42516E-05-3.19837E-05 3.36540E-06 6.49502E-19 1.06872E-18
 -1       396 1.07651E-04-3.36861E-05-3.17068E-05 6.39195E-06 2.17917E-19 1.12628E-18
 -1       397 1.05132E-04-3.20498E-05-3.13206E-05 8.38987E-06-3.89398E-19 1.08606E-18
 -1       398 1.01841E-04-2.96188E-05-3.09449E-05 8.08012E-06 1.08930E-19 9.03351E-19
 -1       399 9.90078E-05-2.73678E-05-3.06905E-05 4.86579E-06 2.17052E-21 4.83911E-19
 -1       400 9.80128E-05-2.65201E-05-3.06255E-05-3.75578E-07 1.54614E-18 3.59755E-19
 -1       401 9.94216E-05-2.76089E-05-3.07614E-05-5.48546E-06 6.40006E-19 3.95316E-19
 -1       402 1.02498E-04-2.99727E-05-3.10687E-05-8.38852E-06-1.01446E-18 2.06431E-20
 -1       403 1.05822E-04-3.23698E-05-3.14759E-05-8.39278E-06-4.93655E-19 4.90988E-19
 -1       404 1.08236E-04-3.38933E-05-3.18691E-05-6.23048E-06 6.05236E-19-3.99896E-19
 -1       405 1.09307E-04-3.43517E-05-3.21388E-05-3.20893E-06 1.82248E-19 4.87874E-19
 -1       406 1.09165E-04-3.40236E-05-3.22208E-05-3.91169E-07-8.80385E-19 8.78801E-19
 -1       407 1.08174E-04-3.32905E-05-3.21073E-05 1.68755E-06 5.10642E-19 8.42780E-19
 -1       408 1.06699E-04-3.24407E-05-3.18348E-05 2.92775E-06 3.75872E-19 1.95852E-18
 -1       409 1.05028E-04-3.16340E-05-3.14595E-05 3.46429E-06 1.63864E-19 1.59172E-18
 -1       410 1.03353E-04-3.09364E-05-3.10371E-05 3.50531E-06 1.21000E-18-4.25787E-20
 -1       411 1.01793E-04-3.03624E-05-3.06119E-05 3.24527E-06 3.96149E-19 2.89785E-19
 -1       412 1.00410E-04-2.99037E-05-3.02144E-05 2.83311E-06 3.67353E-19 1.28303E-18
 -1       413 9.92289E-05-2.95445E-05-2.98616E-05 2.36950E-06 1.79340E-19 1.93313E-18
 -1       414 9.82508E-05-2.92676E-05-2.95610E-05 1.91574E-06 5.89573E-19 2.13717E-18
 -1       415 9.74616E-05-2.90575E-05-2.93131E-05 1.50487E-06-8.13723E-19 4.68234E-19
 -1       416 9.68399E-05-2.89008E-05-2.91142E-05 1.15132E-06-1.57894E-19 1.03592E-18
 -1       417 9.63611E-05-2.87860E-05-2.89586E-05 8.58157E-07-2.37286E-19 1.39881E-18
 -1       418 9.60010E-05-2.87038E-05-2.88399E-05 6.22016E-07 1.04124E-18 1.64130E-18
 -1       419 9.57368E-05-2.86467E-05-2.87515E-05 4.36376E-07-8.06878E-19 1.30820E-18
 -1       420 9.55485E-05-2.86084E-05-2.86876E-05 2.93557E-07-6.82300E-19 1.37549E-18
 -1       421 9.54190E-05-2.85841E-05-2.86427E-05 1.85919E-07 5.10264E-19-2.86877E-21
 -1       422 9.53340E-05-2.85701E-05-2.86125E-05 1.06483E-07 2.12100E-19 1.53769E-18
 -1       423 9.52821E-05-2.85636E-05-2.85932E-05 4.95842E-08 4.69071E-19 3.70525E-18
 -1       424 9.52534E-05-2.85624E-05-2.85816E-05 1.09818E-08 1.10408E-18 5.35885E-18
 -1       425 9.52409E-05-2.85660E-05-2.85748E-05-1.18558E-08 1.85343E-18 4.71498E-18
 -1       426 9.52391E-05-2.85710E-05-2.85720E-05-1.77282E-08 3.80757E-18 4.14812E-18
 -1       427 9.52363E-05-2.85302E-05-2.85883E-05 2.81489E-08-4.13753E-19-7.02705E-19
 -1       428 9.52463E-05-2.85523E-05-2.85830E-05 9.79334E-09-4.51063E-19 2.71483E-18
 -1       429 9.52458E-05-2.85657E-05-2.85771E-05-7.43313E-09 2.38627E-18 3.03753E-18
 -1       430 9.52224E-05-2.85051E-05-2.85931E-05 3.89987E-08-1.65549E-18-5.92569E-18
 -1       431 9.52073E-05-2.84801E-05-2.85974E-05 3.88734E-08-1.31902E-19 1.89729E-19
 -1       432 9.51952E-05-2.84605E-05-2.86006E-05 2.79857E-08 1.16791E-18 1.10265E-18
 -1       433 9.51885E-05-2.84499E-05-2.86023E-05 9.51056E-09-6.42894E-19-1.56548E-18
 -1       434 9.51887E-05-2.84502E-05-2.86023E-05-1.15797E-08-1.06570E-18 2.93645E-19
 -1       435 9.51958E-05-2.84614E-05-2.86005E-05-2.97000E-08-6.28999E-19 8.22159E-19
 -1       436 9.52081E-05-2.84811E-05-2.85973E-05-3.98101E-08-6.17229E-19-3.66243E-19
 -1       437 9.52233E-05-2.85062E-05-2.85930E-05-3.91971E-08 5.42960E-19 1.29171E-18
 -1       438 9.52377E-05-2.85320E-05-2.85881E-05-2.73893E-08 3.31806E-18-2.54029E-18
 -1       439 9.52471E-05-2.85542E-05-2.85826E-05-7.49454E-09 4.49446E-20-2.98392E-18
 -1       440 5.90123E-05-4.10068E-05-7.79492E-06 4.33309E-05 2.33474E-18 2.55317E-18
 -1       441 1.14418E-05-2.27214E-05 4.53608E-06 2.07024E-06-5.04302E-19 9.08686E-18
 -1       442 2.37448E-05-2.79433E-05 1.53689E-06 2.70616E-05-1.29384E-19 7.54791E-18
 -1       443 1.00694E-04-5.31866E-05-2.04242E-05 4.05755E-05 2.74100E-18 1.59777E-18
 -1       444 1.34926E-04-5.03667E-05-3.61214E-05 2.56885E-05 3.92663E-18 1.97592E-18
 -1       445 8.95292E-05-1.17981E-05-3.33751E-05-1.01494E-05-1.26296E-18-2.39421E-18
 -1       446 1.54304E-04-1.94072E-05-5.79170E-05-2.25647E-06 6.93000E-18-1.14138E-18
 -1       447 1.55651E-04-1.18736E-05-6.15171E-05-6.47165E-07 7.12101E-18-1.24290E-18
 -1       448 1.61066E-04-1.95248E-05-6.03458E-05-3.59062E-07 5.62970E-18-7.90282E-19
 -1       449 1.53555E-04-3.32017E-05-5.15823E-05-1.88070E-06 4.02314E-18-6.21934E-19
 -1       450 1.42234E-04-5.12357E-05-3.90863E-05-1.62073E-05 1.81585E-18-1.18680E-18
 -1       451 1.21207E-04-5.47073E-05-2.84568E-05-3.35377E-05 2.96250E-19-2.27481E-18
 -1       452 8.15798E-05-4.78394E-05-1.45696E-05-4.35309E-05-1.10263E-18-4.41152E-18
 -1       453 3.82351E-05-3.18241E-05-2.70683E-06-3.63663E-05-1.45796E-18-6.00112E-18
 -1       454 1.72867E-05-2.16215E-05 1.96784E-06-1.64155E-05-6.58621E-19-5.31090E-18
 -1       455 1.80412E-05-2.43424E-05 2.56792E-06 1.83667E-05-5.56183E-19-5.17516E-18
 -1       456 4.27921E-05-3.38941E-05-3.76506E-06 3.75358E-05 6.04570E-20-4.15597E-18
 -1       457 8.73689E-05-5.04773E-05-1.58880E-05 4.20740E-05-8.75197E-19-1.95499E-18
 -1       458 1.21403E-04-5.62841E-05-2.80191E-05 3.24050E-05-1.26822E-18-1.39962E-18
 -1       459 1.49478E-04-4.76866E-05-4.35559E-05 1.22270E-05-4.22402E-18 1.79529E-18
 -1       460 1.59490E-04-2.95208E-05-5.55554E-05-3.07094E-07-5.76935E-18 1.46939E-18
 -1       461 1.56135E-04-1.44972E-05-6.07291E-05-2.88974E-06-5.45648E-18 5.38819E-19
 -1       462 1.60257E-04-1.50355E-05-6.20326E-05 1.76012E-06-6.08392E-18 1.38313E-18
 -1       463 1.58985E-04-2.97904E-05-5.52849E-05 5.35877E-07-5.16838E-18 1.17547E-18
 -1       464 1.52721E-04-4.46070E-05-4.61999E-05-9.46033E-06-4.81136E-18 8.13575E-19
 -1       465 1.28811E-04-5.59730E-05-3.12937E-05-2.80468E-05-1.79571E-18 2.46497E-18
 -1       466 9.26023E-05-5.20559E-05-1.74853E-05-4.14130E-05-1.58999E-18 4.73550E-18
 -1       467 5.58754E-05-3.97936E-05-6.92576E-06-4.16038E-05 5.68571E-20 5.03349E-18
 -1       468 2.34420E-05-2.88635E-05 1.99650E-06-2.53849E-05-1.67183E-19 7.59482E-18
 -1       469 1.51507E-04-3.92471E-05-4.80384E-05 1.10308E-05 5.81692E-18 6.65027E-19
 -1       470 1.44961E-04-2.96074E-05-4.97458E-05-8.39718E-06 5.92192E-18-1.39655E-18
 -1       471 7.52978E-05-4.43194E-05-1.29874E-05 4.28833E-05 1.59803E-18-1.41282E-18
 -1       472 2.07105E-05-1.42767E-05-2.22100E-06 2.21036E-06-9.04406E-20-5.35505E-18
 -1       473 6.81548E-05-4.14030E-05-1.12110E-05-4.39626E-05-2.77075E-18-3.91885E-18
 -1       474 9.61615E-05-2.51326E-05-3.04264E-05 5.28296E-06 1.69542E-18 1.31886E-18
 -1       475 8.91102E-05-1.26910E-05-3.27692E-05-3.45836E-06-5.71978E-20-2.38484E-18
 -1       476 9.00034E-05-1.38183E-05-3.26705E-05-5.23907E-06-4.29870E-19-2.43772E-18
 -1       477 8.84486E-05-1.18735E-05-3.28347E-05 4.32395E-08 7.53294E-19-2.01648E-18
 -1       478 8.86317E-05-1.21001E-05-3.28164E-05 1.78565E-06 1.13896E-18-1.91458E-18
 -1       479 8.91516E-05-1.27476E-05-3.27630E-05 3.52251E-06 1.48348E-18-1.78984E-18
 -1       480 9.00587E-05-1.38986E-05-3.26605E-05 5.31014E-06 1.98027E-18-1.18435E-18
 -1       481 9.14094E-05-1.56687E-05-3.24831E-05 7.04378E-06 2.16345E-18-5.89740E-19
 -1       482 9.33738E-05-1.83247E-05-3.21839E-05 8.54521E-06 2.28862E-18 1.27058E-19
 -1       483 9.56245E-05-2.65394E-05-2.95892E-05 1.94095E-06 1.30014E-18 1.09618E-18
 -1       484 9.58001E-05-2.43316E-05-3.06192E-05-4.95522E-06-1.38490E-18-8.12308E-19
 -1       485 1.42037E-04-5.14017E-05-3.91209E-05 3.66399E-06 2.24442E-18-5.89164E-19
 -1       486 9.57214E-05-2.60532E-05-2.98489E-05-1.77126E-06-9.21080E-19-6.53755E-19
 -1       487 9.55450E-05-2.69279E-05-2.94026E-05 4.50680E-07-6.65749E-19-6.47948E-19
 -1       488 9.55040E-05-2.73974E-05-2.91858E-05 2.04332E-06-6.21890E-19-5.15731E-19
 -1       489 9.56480E-05-2.76665E-05-2.91330E-05 3.27355E-06-3.26238E-19-4.87431E-19
 -1       490 9.59716E-05-2.78340E-05-2.92000E-05 4.32315E-06-3.30257E-19-4.79173E-19
 -1       491 9.64615E-05-2.79616E-05-2.93553E-05 5.31089E-06-1.26359E-19-6.50110E-19
 -1       492 9.71156E-05-2.81068E-05-2.95734E-05 6.30386E-06-5.12794E-19-5.14949E-19
 -1       493 9.79534E-05-2.83435E-05-2.98311E-05 7.31828E-06-4.29728E-19-1.04355E-19
 -1       494 9.90280E-05-2.87818E-05-3.01044E-05 8.31037E-06 1.79980E-19 5.33596E-19
 -1       495 1.00444E-04-2.95861E-05-3.03680E-05 9.15702E-06 4.49828E-19 7.56852E-19
 -1       496 1.02378E-04-3.09838E-05-3.06004E-05 9.62651E-06 3.02330E-19 3.39875E-19
 -1       497 1.05078E-04-3.32325E-05-3.07977E-05 9.34137E-06 1.48226E-19 6.71495E-19
 -1       498 1.08796E-04-3.64817E-05-3.10025E-05 7.75713E-06-1.77202E-19 7.35193E-19
 -1       499 1.13583E-04-4.04608E-05-3.13519E-05 4.19102E-06-3.40029E-19 1.00917E-18
 -1       500 1.18715E-04-4.37991E-05-3.21236E-05-1.80709E-06-3.52313E-19 2.21786E-18
 -1       501 1.22333E-04-4.40400E-05-3.35786E-05-9.59340E-06-6.61453E-19 2.76945E-18
 -1       502 1.21361E-04-3.74177E-05-3.61401E-05-1.57454E-05-1.35780E-18 3.22043E-18
 -1       503 1.16796E-04-2.64744E-05-3.89204E-05-1.42657E-05-1.22773E-18 2.69914E-18
 -1       504 1.12959E-04-1.88647E-05-4.05598E-05-3.07955E-06-2.25650E-18-2.58329E-20
 -1       505 1.14774E-04-2.21974E-05-3.98816E-05 1.02847E-05-2.07777E-18-2.82766E-18
 -1       506 1.20002E-04-3.30694E-05-3.73984E-05 1.61818E-05-1.89824E-18-3.56284E-18
 -1       507 1.22681E-04-4.19412E-05-3.46693E-05 1.28066E-05-1.01967E-18-3.65269E-18
 -1       508 1.20701E-04-4.43816E-05-3.27292E-05 5.31157E-06-4.70194E-19-3.12086E-18
 -1       509 1.16005E-04-4.20835E-05-3.16947E-05-1.53879E-06-7.06164E-20-2.00178E-18
 -1       510 1.10987E-04-3.81444E-05-3.12297E-05-6.05792E-06 3.68568E-19-2.40050E-18
 -1       511 1.06840E-04-3.44965E-05-3.10120E-05-8.32478E-06 1.80794E-18-2.47869E-18
 -1       512 1.03787E-04-3.18111E-05-3.08503E-05-8.98457E-06 1.04021E-19-2.17361E-18
 -1       513 1.01630E-04-3.00777E-05-3.06658E-05-8.65891E-06 6.27352E-19-3.09673E-18
 -1       514 1.00100E-04-2.90617E-05-3.04438E-05-7.80564E-06 8.17077E-19-3.28295E-18
 -1       515 9.89830E-05-2.85182E-05-3.01973E-05-6.72749E-06-2.57573E-19-2.99382E-18
 -1       516 9.81381E-05-2.82603E-05-2.99455E-05-5.60984E-06 2.48123E-19-1.87441E-18
 -1       517 9.74799E-05-2.81638E-05-2.97049E-05-4.55709E-06 1.10407E-18-1.16156E-18
 -1       518 9.69583E-05-2.81529E-05-2.94863E-05-3.62088E-06 1.65823E-18-3.75631E-20
 -1       519 9.65429E-05-2.81836E-05-2.92953E-05-2.82023E-06 4.10991E-19 8.91438E-19
 -1       520 9.62132E-05-2.82316E-05-2.91338E-05-2.15504E-06-2.73501E-19 1.25499E-18
 -1       521 9.59542E-05-2.82840E-05-2.90005E-05-1.61499E-06 1.48013E-18 1.60154E-18
 -1       522 9.57535E-05-2.83344E-05-2.88932E-05-1.18497E-06 1.52527E-18 8.41031E-19
 -1       523 9.56006E-05-2.83797E-05-2.88084E-05-8.48460E-07-7.48495E-19 2.70142E-18
 -1       524 9.54863E-05-2.84191E-05-2.87426E-05-5.89454E-07-4.28738E-19 5.99339E-19
 -1       525 9.54026E-05-2.84525E-05-2.86926E-05-3.93432E-07-2.20978E-20 4.40642E-19
 -1       526 9.53429E-05-2.84804E-05-2.86551E-05-2.47856E-07 6.23758E-19-1.39575E-18
 -1       527 9.53013E-05-2.85038E-05-2.86273E-05-1.42463E-07 1.37743E-18-1.84113E-18
 -1       528 9.52734E-05-2.85243E-05-2.86066E-05-6.91404E-08 5.68942E-19-1.43040E-18
 -1       529 9.51911E-05-2.76539E-05-2.89397E-05-1.70074E-06 6.45742E-19 7.94640E-19
 -1       530 9.54064E-05-2.79385E-05-2.89119E-05-2.76665E-06 6.11633E-19 6.40658E-19
 -1       531 9.58732E-05-2.81860E-05-2.90067E-05-3.60733E-06 5.65702E-19 6.99584E-19
 -1       532 9.65598E-05-2.84460E-05-2.91899E-05-4.32554E-06 3.93297E-19 6.85079E-19
 -1       533 9.74491E-05-2.87625E-05-2.94357E-05-4.96473E-06 4.96195E-19 9.66968E-19
 -1       534 9.85397E-05-2.91859E-05-2.97224E-05-5.51383E-06 5.22873E-19 7.24430E-19
 -1       535 9.98441E-05-2.97790E-05-3.00283E-05-5.90347E-06 8.10640E-19 5.78929E-19
 -1       536 1.01383E-04-3.06148E-05-3.03317E-05-5.99856E-06 5.15117E-19 7.28815E-19
 -1       537 1.03176E-04-3.17594E-05-3.06119E-05-5.59432E-06 3.97987E-19 2.31667E-19
 -1       538 1.05206E-04-3.32274E-05-3.08558E-05-4.43078E-06-5.70854E-20-4.63914E-20
 -1       539 1.07365E-04-3.48961E-05-3.10684E-05-2.25182E-06-2.54947E-19-1.56368E-19
 -1       540 1.09357E-04-3.63834E-05-3.12861E-05 1.05506E-06-1.17318E-19-3.33969E-19
 -1       541 1.10622E-04-3.69644E-05-3.15770E-05 5.20040E-06 5.97944E-20 1.13554E-18
 -1       542 1.10423E-04-3.57222E-05-3.20166E-05 9.16125E-06-7.10623E-19 1.70226E-18
 -1       543 1.08374E-04-3.22542E-05-3.26221E-05 1.11125E-05-2.68704E-19 2.33836E-18
 -1       544 1.05191E-04-2.75797E-05-3.32663E-05 9.19259E-06 6.36247E-19 2.65656E-18
 -1       545 1.02801E-04-2.42223E-05-3.36823E-05 3.20835E-06 1.13725E-18 1.18765E-18
 -1       546 1.03012E-04-2.44945E-05-3.36634E-05-4.39524E-06 1.24475E-18 9.43351E-19
 -1       547 1.05708E-04-2.82433E-05-3.32029E-05-9.89735E-06 4.19406E-19 3.47188E-19
 -1       548 1.08867E-04-3.28755E-05-3.25705E-05-1.12114E-05-5.51708E-19-9.84045E-19
 -1       549 1.10703E-04-3.60432E-05-3.20039E-05-8.88054E-06 1.11627E-18-1.89253E-18
 -1       550 1.10700E-04-3.69692E-05-3.16086E-05-4.86027E-06 4.08320E-19-2.23924E-18
 -1       551 1.09355E-04-3.62101E-05-3.13603E-05-8.72947E-07-2.93184E-19-2.87460E-18
 -1       552 1.07391E-04-3.46676E-05-3.11781E-05 2.18316E-06-1.20900E-18-3.00835E-18
 -1       553 1.05332E-04-3.30225E-05-3.09973E-05 4.09221E-06-5.54803E-19-1.42702E-18
 -1       554 1.03445E-04-3.16174E-05-3.07874E-05 5.00415E-06 8.08581E-19-1.31837E-18
 -1       555 1.01819E-04-3.05499E-05-3.05453E-05 5.18888E-06 1.17682E-18-1.66933E-18
 -1       556 1.00457E-04-2.97954E-05-3.02833E-05 4.90932E-06-2.40772E-19 4.32131E-19
 -1       557 9.93334E-05-2.92875E-05-3.00181E-05 4.37458E-06-1.61533E-19 1.17528E-18
 -1       558 9.84139E-05-2.89580E-05-2.97648E-05 3.73244E-06-2.50692E-20 1.59543E-18
 -1       559 9.76684E-05-2.87511E-05-2.95338E-05 3.07812E-06 6.70818E-19 1.68802E-18
 -1       560 9.70702E-05-2.86260E-05-2.93312E-05 2.46722E-06 1.07208E-18 1.65145E-18
 -1       561 9.65962E-05-2.85542E-05-2.91591E-05 1.92785E-06-5.76982E-19 4.35909E-20
 -1       562 9.62259E-05-2.85163E-05-2.90170E-05 1.47026E-06-2.81163E-20 7.51707E-19
 -1       563 9.59412E-05-2.84996E-05-2.89024E-05 1.09385E-06 6.00916E-20 4.02572E-19
 -1       564 9.57262E-05-2.84957E-05-2.88121E-05 7.91994E-07 7.88208E-19 3.25838E-19
 -1       565 9.55671E-05-2.84993E-05-2.87426E-05 5.55254E-07-2.12874E-19-1.45437E-19
 -1       566 9.54521E-05-2.85070E-05-2.86902E-05 3.73422E-07 9.76704E-20-6.69858E-19
 -1       567 9.53713E-05-2.85166E-05-2.86516E-05 2.36848E-07-5.17454E-19 4.07773E-19
 -1       568 9.53164E-05-2.85268E-05-2.86238E-05 1.36968E-07-1.63580E-18 3.22065E-19
 -1       569 9.52810E-05-2.85385E-05-2.86037E-05 6.55084E-08-9.13001E-19 2.20132E-18
 -1       570 9.52590E-05-2.85506E-05-2.85892E-05 1.86496E-08 2.51218E-18 2.90511E-18
 -1       571 9.51948E-05-2.84308E-05-2.86131E-05 7.19702E-08 4.14755E-19-1.51224E-18
 -1       572 9.51692E-05-2.83962E-05-2.86170E-05 5.88616E-08-7.78582E-20 2.28930E-18
 -1       573 9.52450E-05-2.85103E-05-2.86006E-05 5.16557E-08-3.88554E-19-1.44982E-18
 -1       574 9.52228E-05-2.84710E-05-2.86078E-05 6.91208E-08-2.46325E-18-3.63276E-18
 -1       575 9.51516E-05-2.83731E-05-2.86194E-05 3.24496E-08-3.06352E-19-3.03239E-19
 -1       576 9.51455E-05-2.83651E-05-2.86202E-05-1.27770E-09-2.68735E-19-2.36308E-18
 -1       577 9.51522E-05-2.83735E-05-2.86195E-05-3.48248E-08-1.32295E-18 1.99485E-18
 -1       578 9.51700E-05-2.83965E-05-2.86172E-05-6.03396E-08-4.71780E-19 1.38115E-19
 -1       579 9.51960E-05-2.84314E-05-2.86134E-05-7.28959E-08 1.27175E-19-3.19890E-19
 -1       580 9.52243E-05-2.84725E-05-2.86079E-05-6.90920E-08 7.58108E-19 1.10668E-18
 -1       581 9.52475E-05-2.85127E-05-2.86006E-05-5.05073E-08-1.72527E-19-5.11636E-18
 -1       582 2.62610E-05-1.52327E-05-4.11741E-06 1.64360E-05-1.56172E-18 7.10470E-18
 -1       583 9.04571E-05-4.95080E-05-1.72753E-05 4.14434E-05-8.01823E-19-1.96578E-19
 -1       584 9.52643E-05-2.72489E-05-2.91398E-05-2.30289E-07 1.08491E-18 9.72490E-19
 -1       585 2.50430E-05-1.55349E-05-3.49577E-06-1.42529E-05 4.66477E-19 8.25317E-18
 -1       586 5.10223E-05-2.92031E-05-8.84004E-06 3.78611E-05-2.11531E-18 3.96486E-18
 -1       587 9.48559E-05-2.07098E-05-3.17981E-05-8.79601E-06-1.71911E-18-1.18612E-18
 -1       588 4.49611E-05-2.70058E-05-7.23317E-06-3.41506E-05 7.65771E-19 5.73521E-18
 -1       589 1.38838E-04-1.81861E-05-5.22356E-05 1.12048E-05-5.25891E-18-9.57147E-19
 -1       590 1.10878E-04-5.72796E-05-2.27599E-05-3.50735E-05-2.98738E-18-1.28706E-18
 -1       591 1.40181E-04-4.45270E-05-4.14322E-05 5.38443E-06 1.31449E-18 2.21420E-18
 -1       592 8.86051E-05-1.20649E-05-3.28201E-05-1.69740E-06 4.14248E-19-2.30822E-18
 -1       593 1.40074E-04-2.23984E-05-5.09083E-05 9.79391E-06 3.27759E-18 1.76718E-18
 -1       594 1.34355E-04-1.14205E-05-5.33165E-05-6.67016E-06 6.76748E-18-2.16772E-18
 -1       595 1.33863E-04-9.14720E-06-5.40031E-05 4.73569E-06 5.61911E-18 3.43737E-19
 -1       596 1.29566E-04-5.92157E-05-3.02195E-05-2.09666E-05-2.11819E-18-6.30881E-19
 -1       597 1.45302E-04-4.07993E-05-4.51519E-05-9.09540E-06-3.37349E-18 3.24694E-18
 -1       598 3.88324E-05-2.05542E-05-7.20895E-06-2.79582E-05-1.18807E-18-5.19591E-18
 -1       599 3.92859E-05-2.19599E-05-6.79007E-06 2.88954E-05 1.30872E-18-3.23254E-18
 -1       600 1.16593E-04-5.95361E-05-2.42914E-05 3.06498E-05 1.10114E-18 4.28718E-19
 -1       601 1.19566E-04-6.02576E-05-2.53525E-05-2.93846E-05 1.24037E-19 1.50444E-18
 -1       602 1.38329E-04-5.99777E-05-3.37635E-05 1.05299E-05-3.22468E-19 2.90511E-18
 -1       603 1.38788E-04-2.04312E-05-5.13290E-05-1.19170E-05-4.43665E-18 1.43276E-18
 -1       604 1.35833E-04-9.48967E-06-5.47291E-05-1.19926E-07-5.52117E-18 4.52054E-21
 -1       605 1.45943E-04-3.91469E-05-4.61940E-05 8.94351E-06-3.22180E-18-9.06802E-19
 -1       606 1.42153E-04-5.65900E-05-3.68492E-05-5.05900E-06-9.70455E-19-1.51804E-18
 -1       607 8.76842E-05-4.85057E-05-1.64159E-05-4.09278E-05 1.67188E-18 4.21359E-18
 -1       608 9.64051E-05-2.32137E-05-3.13709E-05 8.98180E-06 2.18318E-18 1.87036E-18
 -1       609 1.28137E-04-5.99996E-05-2.91482E-05 2.31107E-05 7.83505E-19-7.50921E-19
 -1       610 9.13004E-05-1.55484E-05-3.24988E-05-6.93007E-06-9.66017E-19-2.18382E-18
 -1       611 1.31057E-04-2.02303E-05-4.79948E-05-1.22743E-05 6.08429E-18-2.72086E-18
 -1       612 6.32468E-05-3.19512E-05-1.29529E-05 3.61040E-05 2.34840E-18-1.94013E-18
 -1       613 3.49279E-05-1.32503E-05-8.66796E-06-1.27530E-05-5.09193E-19-4.45878E-18
 -1       614 1.35754E-04-5.50908E-05-3.47202E-05-2.43156E-06-1.33354E-18 2.49110E-18
 -1       615 6.01041E-05-2.98915E-05-1.24943E-05-3.62204E-05-1.72866E-18-3.23778E-18
 -1       616 9.52605E-05-2.85382E-05-2.85952E-05-3.35155E-08-1.60598E-20-1.75931E-18
 -1       617 9.08157E-05-1.57860E-05-3.21610E-05 1.95979E-06 1.13461E-18-1.58796E-18
 -1       618 9.04398E-05-1.52806E-05-3.22162E-05 6.62970E-07 7.82439E-19-1.75310E-18
 -1       619 9.26290E-05-1.83554E-05-3.18371E-05 4.37688E-06 1.70522E-18-7.93159E-19
 -1       620 9.39983E-05-2.05423E-05-3.14889E-05 5.19997E-06 1.94517E-18-9.15790E-20
 -1       621 9.55078E-05-2.38706E-05-3.06915E-05 4.16146E-06 1.70358E-18 2.88018E-19
 -1       622 7.26704E-05-3.47316E-05-1.58831E-05-3.55590E-05 1.59150E-18 3.32812E-18
 -1       623 4.54931E-05-1.74429E-05-1.14983E-05-2.23592E-05 9.66491E-19 6.60543E-18
 -1       624 1.31636E-04-6.00720E-05-3.06982E-05-1.19100E-05 4.66239E-19-2.03971E-18
 -1       625 1.37259E-04-5.06883E-05-3.72461E-05-7.78755E-06-9.85615E-19 3.36627E-18
 -1       626 9.55500E-05-2.51494E-05-3.01693E-05-9.86110E-07-6.54177E-19-9.04248E-19
 -1       627 9.56301E-05-2.62052E-05-2.97526E-05 1.04281E-06-4.92259E-19-8.40724E-19
 -1       628 9.56018E-05-2.67554E-05-2.95050E-05 2.62271E-06-4.38959E-19-5.15857E-19
 -1       629 9.55583E-05-2.69981E-05-2.93824E-05 3.92506E-06-2.96071E-19-6.32323E-19
 -1       630 9.55350E-05-2.70535E-05-2.93487E-05 5.08863E-06-3.31708E-19-6.50905E-19
 -1       631 9.55514E-05-2.70146E-05-2.93723E-05 6.21331E-06-2.62878E-19-3.60152E-19
 -1       632 9.56348E-05-2.69781E-05-2.94236E-05 7.36062E-06-1.99149E-19 2.28069E-19
 -1       633 9.58438E-05-2.70721E-05-2.94729E-05 8.55303E-06 2.94939E-19 3.70127E-19
 -1       634 9.62975E-05-2.74842E-05-2.94910E-05 9.76872E-06-7.83871E-20 2.52292E-19
 -1       635 9.72155E-05-2.84907E-05-2.94538E-05 1.09277E-05 2.08345E-19 3.01565E-20
 -1       636 9.89650E-05-3.04716E-05-2.93564E-05 1.18598E-05 6.08380E-19 4.35799E-19
 -1       637 1.02092E-04-3.38677E-05-2.92414E-05 1.22227E-05 4.36420E-19 6.05826E-19
 -1       638 1.07193E-04-3.89258E-05-2.92569E-05 1.13664E-05 2.05032E-19 1.43120E-18
 -1       639 1.14817E-04-4.53200E-05-2.98023E-05 7.99634E-06 3.62721E-19 2.11238E-18
 -1       640 1.23575E-04-5.04093E-05-3.13456E-05 1.35585E-06 1.34069E-20 2.58746E-18
 -1       641 1.23351E-04-1.76637E-05-4.57923E-05-1.09792E-05-3.60190E-18 1.50274E-18
 -1       642 1.20925E-04-1.32949E-05-4.66439E-05 5.29154E-06-4.72718E-18-8.88607E-19
 -1       643 1.26380E-04-2.71929E-05-4.29055E-05 1.63453E-05-2.90231E-18-3.01885E-18
 -1       644 1.30462E-04-4.39121E-05-3.72618E-05 1.35357E-05-1.39650E-18-3.61008E-18
 -1       645 1.26713E-04-5.02594E-05-3.28288E-05 3.65110E-06-3.20149E-19-3.77192E-18
 -1       646 1.18750E-04-4.75396E-05-3.05177E-05-4.65654E-06 4.36659E-19-2.34396E-18
 -1       647 1.10643E-04-4.15039E-05-2.96323E-05-9.41328E-06 6.93995E-19-1.11543E-18
 -1       648 1.04550E-04-3.58297E-05-2.94543E-05-1.12017E-05 4.51673E-19-7.35164E-19
 -1       649 1.00622E-04-3.17307E-05-2.95266E-05-1.12880E-05 8.23891E-19-2.43775E-18
 -1       650 9.83056E-05-2.91726E-05-2.96287E-05-1.05111E-05 1.50930E-19-1.74555E-18
 -1       651 9.70211E-05-2.77697E-05-2.96787E-05-9.34147E-06 9.20690E-19-1.73660E-18
 -1       652 9.63359E-05-2.71233E-05-2.96617E-05-8.03679E-06 4.51952E-19-1.60402E-18
 -1       653 9.59737E-05-2.69272E-05-2.95905E-05-6.74062E-06 2.69838E-19-6.15920E-19
 -1       654 9.57752E-05-2.69754E-05-2.94848E-05-5.53262E-06 1.11676E-18-1.12481E-18
 -1       655 9.56557E-05-2.71407E-05-2.93628E-05-4.45382E-06 1.76499E-18-2.80209E-19
 -1       656 9.55735E-05-2.73492E-05-2.92383E-05-3.52076E-06 1.40663E-18-5.34747E-19
 -1       657 9.55096E-05-2.75611E-05-2.91203E-05-2.73429E-06 7.08973E-19 1.28469E-19
 -1       658 9.54563E-05-2.77564E-05-2.90138E-05-2.08567E-06 1.05101E-18 1.94290E-18
 -1       659 9.54107E-05-2.79266E-05-2.89214E-05-1.56084E-06 1.09896E-18 1.27830E-18
 -1       660 9.53720E-05-2.80699E-05-2.88435E-05-1.14349E-06 1.42475E-18 2.05991E-19
 -1       661 9.53396E-05-2.81874E-05-2.87793E-05-8.17101E-07-1.32046E-18 7.09136E-19
 -1       662 9.53131E-05-2.82820E-05-2.87275E-05-5.66093E-07-6.12071E-20 1.44628E-18
 -1       663 9.52916E-05-2.83570E-05-2.86862E-05-3.76502E-07-1.03872E-18 5.64458E-19
 -1       664 9.52747E-05-2.84162E-05-2.86536E-05-2.36400E-07-3.70509E-20-1.65087E-18
 -1       665 9.52613E-05-2.84629E-05-2.86278E-05-1.36345E-07 2.83793E-19-4.09844E-18
 -1       666 9.57653E-05-2.75236E-05-2.92456E-05-3.48413E-06 5.04016E-19 4.02578E-19
 -1       667 9.52552E-05-2.84749E-05-2.86201E-05 1.11374E-07-1.85884E-18-5.08128E-18
 -1       668 9.56717E-05-2.71912E-05-2.93478E-05-2.28531E-06 5.01421E-19 3.13163E-19
 -1       669 9.63237E-05-2.79470E-05-2.93037E-05-5.36153E-06 4.93815E-19 6.45358E-19
 -1       670 9.68375E-05-2.82204E-05-2.94068E-05-6.16086E-06 6.98757E-19 3.47760E-19
 -1       671 9.75707E-05-2.86710E-05-2.95282E-05-6.86003E-06 5.52247E-19 4.33942E-19
 -1       672 9.86098E-05-2.94283E-05-2.96495E-05-7.38038E-06 2.85827E-19 2.72186E-19
 -1       673 1.00079E-04-3.06420E-05-2.97599E-05-7.57163E-06 8.05312E-19 7.70782E-19
 -1       674 1.02127E-04-3.24475E-05-2.98648E-05-7.19731E-06 4.71312E-19 3.80451E-19
 -1       675 1.04866E-04-3.48747E-05-2.99998E-05-5.93360E-06-1.53338E-19 1.72642E-19
 -1       676 1.08252E-04-3.76846E-05-3.02475E-05-3.40741E-06-1.10679E-19 4.59896E-19
 -1       677 1.11852E-04-4.01128E-05-3.07529E-05 6.36401E-07-1.16853E-18 1.03381E-18
 -1       678 1.14608E-04-4.06910E-05-3.16893E-05 5.95211E-06-1.22275E-18 1.96096E-18
 -1       679 1.15052E-04-3.77057E-05-3.31610E-05 1.09746E-05-8.99206E-19 2.78443E-18
 -1       680 1.12300E-04-3.07055E-05-3.49943E-05 1.27548E-05-3.47914E-19 2.95029E-18
 -1       681 1.08011E-04-2.27250E-05-3.66396E-05 8.51142E-06 2.04617E-18 3.24718E-18
 -1       682 1.06097E-04-1.94978E-05-3.72067E-05-8.82351E-07 2.53829E-18 1.66999E-18
 -1       683 1.08427E-04-2.37028E-05-3.63875E-05-9.71913E-06 2.14944E-18-2.19658E-19
 -1       684 1.12946E-04-3.19625E-05-3.47180E-05-1.30338E-05 1.60623E-18-1.81214E-18
 -1       685 1.15189E-04-3.83133E-05-3.29679E-05-1.05962E-05 1.37270E-18-4.30092E-18
 -1       686 1.14377E-04-4.07163E-05-3.15734E-05-5.40427E-06 1.27791E-18-3.85781E-18
 -1       687 1.11423E-04-3.97295E-05-3.07312E-05-3.31690E-07 2.77021E-19-3.72483E-18
 -1       688 1.07843E-04-3.71642E-05-3.02958E-05 3.39737E-06-9.50748E-19-2.23456E-18
 -1       689 1.04565E-04-3.43578E-05-3.00918E-05 5.60127E-06-1.23804E-18-3.63953E-18
 -1       690 1.01966E-04-3.20038E-05-2.99856E-05 6.58042E-06-2.17073E-19-2.44589E-18
 -1       691 1.00054E-04-3.02898E-05-2.98995E-05 6.71701E-06 5.05869E-19-1.42750E-18
 -1       692 9.86962E-05-2.91624E-05-2.98002E-05 6.33159E-06-1.68654E-19 1.74163E-19
 -1       693 9.77438E-05-2.84875E-05-2.96809E-05 5.66126E-06-5.98437E-19-5.68095E-19
 -1       694 9.70720E-05-2.81277E-05-2.95469E-05 4.86889E-06-7.03296E-19 5.52327E-19
 -1       695 9.65907E-05-2.79718E-05-2.94074E-05 4.05981E-06 6.80090E-19 6.72273E-19
 -1       696 9.62396E-05-2.79389E-05-2.92711E-05 3.29742E-06 1.40795E-18 5.04207E-19
 -1       697 9.59792E-05-2.79744E-05-2.91443E-05 2.61578E-06 1.32079E-18 2.77687E-19
 -1       698 9.57837E-05-2.80434E-05-2.90310E-05 2.02926E-06-8.16273E-19-8.50718E-19
 -1       699 9.56362E-05-2.81244E-05-2.89332E-05 1.53955E-06 2.97734E-20-1.99706E-18
 -1       700 9.55249E-05-2.82051E-05-2.88510E-05 1.14077E-06 7.42470E-19-2.12796E-18
 -1       701 9.54412E-05-2.82790E-05-2.87835E-05 8.23113E-07-2.21455E-19-9.56133E-19
 -1       702 9.53790E-05-2.83433E-05-2.87294E-05 5.75203E-07 9.33399E-20-1.24420E-18
 -1       703 9.53332E-05-2.83974E-05-2.86866E-05 3.85743E-07-2.68194E-19-1.72073E-18
 -1       704 9.53001E-05-2.84417E-05-2.86534E-05 2.44836E-07-5.05483E-19-2.13498E-18
 -1       705 9.52730E-05-2.84566E-05-2.86355E-05 1.70115E-07-1.49612E-18-3.53887E-18
 -1       706 1.14252E-04-5.61683E-05-2.47674E-05 2.74100E-05-1.69070E-18-5.35573E-19
 -1       707 9.50903E-05-2.82663E-05-2.86389E-05 2.53987E-08 1.76528E-19-3.08661E-19
 -1       708 9.52531E-05-2.84884E-05-2.86134E-05-8.70755E-08-4.66523E-19-3.99239E-18
 -1       709 9.51458E-05-2.83323E-05-2.86343E-05 1.08413E-07 5.93130E-19-1.38125E-18
 -1       710 9.50907E-05-2.82664E-05-2.86390E-05-2.80906E-08 1.06916E-19-2.63692E-18
 -1       711 9.51099E-05-2.82894E-05-2.86374E-05 7.39746E-08-1.00191E-18 1.68407E-18
 -1       712 9.51106E-05-2.82892E-05-2.86378E-05-7.55661E-08-7.79968E-19 1.18784E-18
 -1       713 9.51470E-05-2.83322E-05-2.86349E-05-1.09568E-07-5.73628E-19-5.16497E-19
 -1       714 9.51925E-05-2.83891E-05-2.86300E-05-1.22213E-07 1.97037E-19 2.04817E-18
 -1       715 9.52275E-05-2.84416E-05-2.86224E-05-1.10415E-07-5.33177E-19-2.08051E-18
 -1       716 1.22365E-04-5.83616E-05-2.73692E-05-2.08802E-05-3.37024E-18 7.87463E-19
 -1       717 4.76085E-05-1.84463E-05-1.20071E-05 2.51006E-05-2.98886E-18 5.08559E-18
 -1       718 7.73323E-05-3.72908E-05-1.68243E-05 3.70647E-05-2.13264E-18 5.74447E-19
 -1       719 9.42850E-05-2.06963E-05-3.15376E-05-6.16001E-06-1.23585E-18-1.44501E-18
 -1       720 1.09147E-04-5.45482E-05-2.32183E-05-3.00671E-05 2.19837E-18 1.01784E-18
 -1       721 9.56598E-05-2.66184E-05-2.95867E-05-7.45060E-07 8.97650E-19 1.97126E-19
 -1       722 9.59762E-05-2.77448E-05-2.92413E-05-4.48080E-06 4.47130E-19 6.00857E-19
 -1       723 9.51997E-05-2.34492E-05-3.07507E-05-3.33084E-06-8.95194E-19-1.24160E-18
 -1       724 9.56514E-05-2.56144E-05-3.00114E-05 1.32213E-06 1.25140E-18 1.32713E-19
 -1       725 9.25721E-05-4.71749E-05-1.91840E-05-3.72719E-05-2.60730E-18-1.85862E-18
 -1       726 9.49547E-05-4.73081E-05-2.01094E-05 3.45582E-05 2.02555E-18-4.06668E-19
 -1       727 9.15513E-05-1.67976E-05-3.20429E-05 3.22285E-06 1.54240E-18-1.12407E-18
 -1       728 1.32820E-04-2.95829E-05-4.47108E-05 1.61889E-05-3.07356E-18-2.30613E-18
 -1       729 3.50531E-05-1.09858E-05-9.74713E-06 5.69325E-07-1.63974E-18 5.55447E-18
 -1       730 9.14883E-05-1.67075E-05-3.20543E-05-3.18040E-06-2.47645E-19-2.09808E-18
 -1       731 1.30406E-04-3.15416E-05-4.27924E-05 1.33609E-05 1.76056E-18 2.31284E-18
 -1       732 3.71205E-05-1.33834E-05-9.58748E-06 1.21104E-05 8.68308E-19-3.62636E-18
 -1       733 1.38565E-04-4.77528E-05-3.91634E-05 9.97340E-06-1.18914E-18-2.07984E-18
 -1       734 1.34896E-04-3.97027E-05-4.11664E-05-1.11250E-05 3.29019E-18-3.29369E-18
 -1       735 1.28226E-04-5.91237E-05-2.96666E-05 1.27839E-05 7.22599E-19 2.71155E-18
 -1       736 1.32448E-04-3.14832E-05-4.36483E-05-1.61249E-05-2.92221E-18 2.37720E-18
 -1       737 1.33667E-04-5.63583E-05-3.32523E-05 5.26856E-06-1.52959E-19-2.18243E-18
 -1       738 1.20017E-04-9.19420E-06-4.80280E-05-1.46172E-06 5.02248E-18-1.11636E-18
 -1       739 1.23889E-04-1.70010E-05-4.63334E-05 1.15256E-05 2.87419E-18 1.37522E-18
 -1       740 9.25776E-05-1.82378E-05-3.18639E-05-4.39492E-06-5.76303E-19-1.93373E-18
 -1       741 9.04273E-05-1.52630E-05-3.22183E-05-6.36196E-07 5.06322E-19-1.86457E-18
 -1       742 1.18331E-04-1.38777E-05-4.51779E-05-8.31996E-06 5.68023E-18-7.96879E-19
 -1       743 1.29924E-04-3.59523E-05-4.07026E-05-1.48680E-05-1.76768E-18 3.40763E-18
 -1       744 9.51902E-05-2.83880E-05-2.86295E-05 1.22618E-07-5.23878E-19-2.83493E-19
 -1       745 5.15338E-05-1.98745E-05-1.31429E-05 2.42284E-05 1.98865E-18-1.97750E-18
 -1       746 1.31717E-04-4.36348E-05-3.78952E-05 1.04171E-05 1.68718E-19 3.09943E-18
 -1       747 9.07787E-05-1.57328E-05-3.21677E-05-1.92530E-06 1.57818E-19-1.95772E-18
 -1       748 1.13036E-04-5.29866E-05-2.56573E-05 2.26651E-05 1.00683E-18 1.31820E-18
 -1       749 4.81538E-05-1.93655E-05-1.18548E-05-2.48757E-05-1.08895E-18-4.37223E-18
 -1       750 9.44266E-05-2.20332E-05-3.10269E-05 2.72048E-06 1.49718E-18-2.15971E-19
 -1       751 1.19310E-04-2.53191E-05-4.05777E-05 1.38718E-05 1.15693E-18 1.24360E-18
 -1       752 9.52991E-05-2.54726E-05-2.99256E-05 1.59408E-06-3.17277E-19-1.02578E-18
 -1       753 9.51603E-05-2.59818E-05-2.96479E-05 3.02019E-06-2.81020E-19-7.99896E-19
 -1       754 9.48565E-05-2.61215E-05-2.94578E-05 4.25778E-06-2.13139E-19-5.25924E-19
 -1       755 9.44387E-05-2.60192E-05-2.93225E-05 5.40914E-06-2.35672E-21-2.33507E-19
 -1       756 9.39427E-05-2.57884E-05-2.92088E-05 6.55811E-06 1.19370E-19-2.14556E-19
 -1       757 9.34151E-05-2.55567E-05-2.90819E-05 7.77067E-06-5.87274E-20 1.26852E-19
 -1       758 9.29412E-05-2.54950E-05-2.89051E-05 9.10007E-06 2.83803E-19 9.09797E-20
 -1       759 9.26848E-05-2.58513E-05-2.86427E-05 1.05933E-05 7.07443E-20 3.17654E-19
 -1       760 9.29468E-05-2.69902E-05-2.82677E-05 1.22904E-05 5.00755E-19-2.27062E-19
 -1       761 9.42413E-05-2.94249E-05-2.77819E-05 1.41981E-05 4.86397E-19 3.99785E-20
 -1       762 9.74528E-05-3.38674E-05-2.72506E-05 1.61689E-05 7.38499E-19 3.94805E-20
 -1       763 1.03762E-04-4.07870E-05-2.69432E-05 1.76152E-05 9.58391E-19 5.79419E-19
 -1       764 1.21265E-04-5.41450E-05-2.87208E-05-1.27952E-05 1.31509E-18-7.96277E-19
 -1       765 1.08545E-04-4.47382E-05-2.73304E-05-1.62417E-05 2.05075E-18 4.95719E-19
 -1       766 1.00328E-04-3.65900E-05-2.73030E-05-1.60047E-05 5.66521E-19 1.44456E-18
 -1       767 9.57987E-05-3.10648E-05-2.77404E-05-1.43367E-05-9.76335E-20 1.45636E-18
 -1       768 9.36180E-05-2.77534E-05-2.82271E-05-1.23811E-05 8.45404E-19 5.53334E-19
 -1       769 9.28182E-05-2.60340E-05-2.86215E-05-1.05289E-05 5.06466E-19 8.90782E-19
 -1       770 9.27433E-05-2.53295E-05-2.88913E-05-8.86033E-06 3.58428E-19 5.28975E-19
 -1       771 9.30044E-05-2.52248E-05-2.90480E-05-7.37736E-06 3.78358E-19-7.24369E-19
 -1       772 9.33850E-05-2.54437E-05-2.91174E-05-6.06867E-06 3.31203E-20 1.66092E-19
 -1       773 9.37742E-05-2.58136E-05-2.91257E-05-4.92500E-06 1.71591E-18-2.20732E-19
 -1       774 9.41219E-05-2.62324E-05-2.90953E-05-3.93892E-06 1.30891E-18-1.09660E-18
 -1       775 9.44110E-05-2.66433E-05-2.90431E-05-3.10202E-06 1.29520E-18-1.01266E-18
 -1       776 9.46403E-05-2.70173E-05-2.89812E-05-2.40357E-06 2.17491E-18-1.49426E-18
 -1       777 9.48163E-05-2.73421E-05-2.89174E-05-1.83031E-06 5.87909E-20-1.40480E-18
 -1       778 9.49478E-05-2.76151E-05-2.88568E-05-1.36741E-06 5.26416E-19-1.60984E-18
 -1       779 9.50438E-05-2.78393E-05-2.88019E-05-9.99672E-07 1.32826E-18-1.07070E-18
 -1       780 9.51121E-05-2.80197E-05-2.87538E-05-7.12324E-07-8.50560E-19 3.96458E-19
 -1       781 9.51594E-05-2.81627E-05-2.87128E-05-4.91819E-07-1.16396E-18 2.61014E-19
 -1       782 9.51909E-05-2.82744E-05-2.86784E-05-3.26344E-07-2.02493E-18-6.60613E-19
 -1       783 9.52110E-05-2.83620E-05-2.86495E-05-2.04230E-07-8.72436E-19-5.11862E-19
 -1       784 9.55502E-05-2.65647E-05-2.95651E-05-2.79116E-06 3.69448E-19-1.06563E-19
 -1       785 9.55919E-05-2.74471E-05-2.92047E-05-6.99295E-06 5.53418E-19 1.70128E-19
 -1       786 9.54346E-05-2.71944E-05-2.92456E-05-6.04572E-06 5.09169E-19 2.43305E-19
 -1       787 9.68556E-05-2.89731E-05-2.90925E-05-8.68609E-06-1.69180E-20 3.63763E-19
 -1       788 9.83780E-05-3.06840E-05-2.90121E-05-9.24378E-06 4.80498E-19 5.64070E-19
 -1       789 1.00883E-04-3.33263E-05-2.89540E-05-9.31268E-06-1.89891E-20 1.12357E-18
 -1       790 1.04663E-04-3.69670E-05-2.90118E-05-8.49100E-06-5.34049E-19 1.37593E-18
 -1       791 1.09807E-04-4.12517E-05-2.93751E-05-6.07161E-06-7.69889E-19 1.88157E-18
 -1       792 1.15684E-04-4.47904E-05-3.03935E-05-1.32657E-06-1.95300E-18 2.07645E-18
 -1       793 1.20784E-04-4.51896E-05-3.24036E-05 5.71551E-06-1.51127E-18 2.77543E-18
 -1       794 1.21268E-04-3.90315E-05-3.53652E-05 1.25110E-05-6.32666E-19 2.28458E-18
 -1       795 1.20450E-04-3.93916E-05-3.47998E-05-1.18677E-05 2.28618E-18-3.32916E-18
 -1       796 1.19595E-04-4.48374E-05-3.20436E-05-5.21455E-06 7.92511E-19-2.98306E-18
 -1       797 1.14728E-04-4.40129E-05-3.03052E-05 1.39516E-06-8.34880E-19-1.77538E-18
 -1       798 1.09054E-04-4.03192E-05-2.94617E-05 5.71750E-06-8.04479E-19-6.24454E-19
 -1       799 1.04174E-04-3.61362E-05-2.91601E-05 7.83501E-06-7.76223E-19-9.28502E-19
 -1       800 1.00607E-04-3.26590E-05-2.91209E-05 8.47577E-06-6.06676E-19-1.76242E-18
 -1       801 9.82362E-05-3.01654E-05-2.91731E-05 8.26148E-06-5.30893E-19-1.92545E-18
 -1       802 9.67700E-05-2.85648E-05-2.92307E-05 7.58603E-06-7.19346E-19-7.26005E-19
 -1       803 9.59211E-05-2.76496E-05-2.92590E-05 6.69366E-06-7.74477E-19-3.11498E-19
 -1       804 9.54631E-05-2.72098E-05-2.92511E-05 5.73125E-06-1.01873E-18-3.49074E-20
 -1       805 9.52385E-05-2.70748E-05-2.92127E-05 4.78635E-06 4.46702E-19-5.94420E-19
 -1       806 9.51453E-05-2.71205E-05-2.91532E-05 3.91001E-06 6.11707E-19-5.57063E-19
 -1       807 9.51214E-05-2.72620E-05-2.90823E-05 3.12927E-06 9.97442E-19 1.27278E-20
 -1       808 9.51302E-05-2.74449E-05-2.90078E-05 2.45524E-06 7.78950E-19-6.91373E-19
 -1       809 9.51517E-05-2.76358E-05-2.89352E-05 1.88844E-06 5.31165E-20-1.81657E-18
 -1       810 9.51754E-05-2.78158E-05-2.88682E-05 1.42251E-06-6.16924E-19-3.39991E-19
 -1       811 9.51963E-05-2.79755E-05-2.88088E-05 1.04726E-06-3.96363E-20-8.42387E-19
 -1       812 9.52128E-05-2.81113E-05-2.87577E-05 7.50848E-07 3.97699E-19-2.60966E-18
 -1       813 9.52246E-05-2.82235E-05-2.87147E-05 5.21310E-07-2.13670E-19-1.88276E-18
 -1       814 9.52319E-05-2.83137E-05-2.86792E-05 3.48046E-07-1.40917E-18-1.35987E-18
 -1       815 9.50250E-05-2.81546E-05-2.86588E-05-7.82953E-08 2.32347E-19 3.60128E-19
 -1       816 9.50682E-05-2.82015E-05-2.86572E-05-1.43268E-07-3.31891E-19 1.34318E-18
 -1       817 9.50095E-05-2.81384E-05-2.86591E-05-5.64730E-10-1.28995E-18-2.97956E-18
 -1       818 1.22662E-04-2.78623E-05-4.09267E-05-1.48801E-05 4.07725E-18-3.10072E-18
 -1       819 9.55629E-05-2.59503E-05-2.98342E-05-1.33335E-06 5.96389E-19 1.15003E-19
 -1       820 5.05411E-05-1.30168E-05-1.57878E-05-9.08097E-06-3.40646E-19 4.01993E-18
 -1       821 7.88309E-05-3.37656E-05-1.90356E-05 3.08081E-05 1.68530E-18-1.67431E-18
 -1       822 9.60087E-05-2.79729E-05-2.91580E-05-7.89225E-06 3.62747E-19 6.85815E-19
 -1       823 9.52469E-05-2.39486E-05-3.05556E-05 2.15777E-06 1.45564E-18 1.90117E-21
 -1       824 6.58222E-05-2.40012E-05-1.76834E-05-2.56862E-05 2.67900E-18 3.54624E-18
 -1       825 7.91002E-05-3.46064E-05-1.88359E-05-3.19577E-05-2.10846E-18-1.54134E-18
 -1       826 6.92880E-05-2.58891E-05-1.83667E-05 2.71698E-05-2.49265E-18 2.66778E-18
 -1       827 9.90538E-05-4.53825E-05-2.28679E-05 2.86439E-05-2.24089E-18-9.85463E-19
 -1       828 9.51863E-05-2.44281E-05-3.03254E-05-1.33060E-07-4.69641E-19-1.05942E-18
 -1       829 4.46911E-05-1.20932E-05-1.35741E-05-1.65949E-06 6.44135E-19-3.24993E-18
 -1       830 9.52465E-05-4.32614E-05-2.21046E-05-2.92457E-05 2.50326E-18 1.69410E-18
 -1       831 1.26654E-04-5.39995E-05-3.12092E-05-4.36421E-06-2.64166E-18 1.49751E-18
 -1       832 5.02508E-05-1.30739E-05-1.56472E-05 1.03149E-05-1.25444E-18 4.51879E-18
 -1       833 1.29258E-04-4.70318E-05-3.54034E-05-7.90628E-06 1.12095E-18-2.18622E-18
 -1       834 9.51318E-05-2.82729E-05-2.86539E-05-1.84035E-07-1.24331E-19 1.17077E-18
 -1       835 1.06488E-04-4.91722E-05-2.44299E-05-2.54177E-05-2.33380E-18 7.70492E-19
 -1       836 1.22845E-04-5.45130E-05-2.92945E-05 1.05045E-05-1.46779E-18-1.36275E-18
 -1       837 9.20739E-05-1.82824E-05-3.16259E-05 8.03402E-07 8.93414E-19-1.32926E-18
 -1       838 1.13325E-04-1.46063E-05-4.27061E-05 5.89723E-06 3.33591E-18 1.00543E-18
 -1       839 1.31654E-04-5.30069E-05-3.37940E-05 3.18598E-06-7.49742E-19-1.57851E-18
 -1       840 9.18759E-05-1.80055E-05-3.16598E-05-6.59146E-09 4.85652E-19-1.56018E-18
 -1       841 5.04199E-05-1.45243E-05-1.50525E-05-1.31550E-05 8.14343E-20-3.57718E-18
 -1       842 9.47298E-05-2.27963E-05-3.08282E-05-2.00813E-06-4.64580E-19-1.35502E-18
 -1       843 9.51294E-05-2.82729E-05-2.86528E-05 1.81803E-07 9.96640E-20 9.85291E-19
 -1       844 9.54815E-05-2.68842E-05-2.93986E-05-3.99739E-06 5.09773E-19-2.22257E-19
 -1       845 9.50670E-05-2.82020E-05-2.86564E-05 1.41031E-07 3.44895E-19-1.01182E-18
 -1       846 9.54233E-05-2.70521E-05-2.93017E-05-5.05859E-06 2.84695E-19-3.40306E-19
 -1       847 9.52197E-05-2.83523E-05-2.86578E-05 2.47410E-07 1.59486E-18-6.23028E-19
 -1       848 9.26059E-05-1.90523E-05-3.15241E-05 1.57306E-06 1.22980E-18-1.10695E-18
 -1       849 9.50245E-05-2.81551E-05-2.86583E-05 7.67987E-08-4.10893E-19 1.27201E-18
 -1       850 1.16649E-04-5.09907E-05-2.81347E-05-1.28285E-05-2.39839E-18 2.51137E-19
 -1       851 5.01152E-05-1.39903E-05-1.51761E-05 1.06474E-05 1.45343E-18-2.24220E-18
 -1       852 9.52062E-05-2.83644E-05-2.86465E-05 1.95067E-07 1.54795E-18-1.57771E-18
 -1       853 6.72030E-05-2.50764E-05-1.78105E-05-2.66700E-05-1.52566E-18-1.97426E-18
 -1       854 9.54786E-05-2.51577E-05-3.01367E-05 2.21364E-07 1.07488E-18-8.72085E-20
 -1       855 9.34322E-05-2.03149E-05-3.13367E-05 2.26528E-06 1.29431E-18-8.59061E-19
 -1       856 9.25513E-05-1.89691E-05-3.15363E-05-1.58874E-06-1.41419E-19-1.89374E-18
 -1       857 9.33568E-05-2.01933E-05-3.13548E-05-2.25576E-06-2.45792E-19-1.84478E-18
 -1       858 1.18605E-04-4.94529E-05-2.96632E-05 6.34779E-06-6.31506E-19 7.68401E-19
 -1       859 9.43589E-05-2.51720E-05-2.96516E-05 3.09722E-06-1.36384E-20-5.60580E-19
 -1       860 9.37308E-05-2.51474E-05-2.93928E-05 4.16196E-06-2.19329E-20-4.67443E-19
 -1       861 9.28750E-05-2.48488E-05-2.91540E-05 5.18776E-06-1.76630E-20-5.18185E-19
 -1       862 9.18264E-05-2.43977E-05-2.88979E-05 6.24964E-06 9.84974E-20-7.23192E-19
 -1       863 9.06256E-05-2.39329E-05-2.85825E-05 7.42829E-06 1.59044E-19-5.10719E-19
 -1       864 8.93429E-05-2.36354E-05-2.81601E-05 8.82673E-06 9.02031E-20-9.11085E-19
 -1       865 8.81162E-05-2.37632E-05-2.75799E-05 1.05967E-05 1.40823E-20-1.10090E-18
 -1       866 8.72123E-05-2.46994E-05-2.67933E-05 1.29664E-05 6.20448E-19-1.24431E-18
 -1       867 8.71790E-05-2.70421E-05-2.57790E-05 1.61681E-05 8.15683E-19-9.14229E-19
 -1       868 8.90991E-05-3.17828E-05-2.45040E-05 2.05251E-05 1.20333E-18-3.96325E-19
 -1       869 9.22867E-05-3.77315E-05-2.33443E-05-2.43848E-05-2.06262E-18-1.34241E-19
 -1       870 9.16527E-05-3.50119E-05-2.42091E-05-2.22706E-05 1.43350E-18 6.65696E-19
 -1       871 8.81203E-05-2.88094E-05-2.54070E-05-1.75670E-05 4.03831E-19 1.52333E-18
 -1       872 8.72270E-05-2.53844E-05-2.65012E-05-1.37973E-05 4.24989E-19 2.37994E-18
 -1       873 8.75737E-05-2.37682E-05-2.73455E-05-1.10159E-05 1.06511E-18 2.71353E-18
 -1       874 8.84712E-05-2.32331E-05-2.79593E-05-8.92461E-06 1.28954E-19 1.47984E-18
 -1       875 8.95472E-05-2.33292E-05-2.83790E-05-7.29439E-06-4.51356E-19 1.18503E-18
 -1       876 9.06083E-05-2.37623E-05-2.86481E-05-5.97031E-06 8.64389E-19 1.50776E-18
 -1       877 9.15666E-05-2.43514E-05-2.88064E-05-4.86260E-06 7.02180E-19 2.44155E-18
 -1       878 9.23878E-05-2.49856E-05-2.88866E-05-3.92383E-06 1.05346E-18 9.47103E-19
 -1       879 9.30668E-05-2.56001E-05-2.89143E-05-3.12770E-06 9.41313E-19 6.22405E-19
 -1       880 9.36135E-05-2.61602E-05-2.89086E-05-2.45787E-06 8.24628E-19-1.09892E-18
 -1       881 9.40439E-05-2.66499E-05-2.88831E-05-1.90119E-06 6.22186E-19-2.30043E-18
 -1       882 9.43763E-05-2.70652E-05-2.88476E-05-1.44494E-06 9.51578E-19-3.05177E-18
 -1       883 9.46285E-05-2.74092E-05-2.88083E-05-1.07672E-06 5.41453E-19-2.65960E-18
 -1       884 9.48165E-05-2.76887E-05-2.87690E-05-7.84507E-07 2.51872E-19-3.73433E-18
 -1       885 9.49535E-05-2.79118E-05-2.87322E-05-5.56548E-07-7.57585E-19-3.34371E-18
 -1       886 9.50517E-05-2.80878E-05-2.86988E-05-3.83254E-07 1.06448E-19-1.32831E-18
 -1       887 9.50958E-05-2.81871E-05-2.86751E-05-2.70451E-07 5.11494E-20 8.93341E-19
 -1       888 8.79438E-05-3.41258E-05-2.30104E-05 2.39190E-05-1.64917E-18-5.20148E-19
 -1       889 9.58291E-05-3.03808E-05-2.80508E-05-1.12412E-05-2.62092E-19 8.06631E-19
 -1       890 9.43738E-05-2.82162E-05-2.83532E-05-9.93851E-06 3.56110E-19 4.66885E-19
 -1       891 1.03542E-04-3.88651E-05-2.77192E-05-1.26322E-05-9.41085E-19 1.00024E-18
 -1       892 1.10760E-04-4.50124E-05-2.81803E-05-1.12961E-05-1.94759E-18 1.16810E-18
 -1       893 1.02861E-04-3.78298E-05-2.78628E-05 1.18881E-05-1.02858E-18 6.14420E-19
 -1       894 9.82560E-05-3.30162E-05-2.79555E-05 1.13868E-05 7.72930E-20 3.31071E-20
 -1       895 9.55258E-05-2.97154E-05-2.82024E-05 1.02546E-05-5.89319E-19 9.07946E-19
 -1       896 9.40659E-05-2.76498E-05-2.84637E-05 8.92022E-06-1.05281E-18 7.09065E-19
 -1       897 9.34318E-05-2.65184E-05-2.86770E-05 7.59839E-06-1.10878E-18 7.39538E-19
 -1       898 9.32814E-05-2.60202E-05-2.88261E-05 6.36946E-06-7.89371E-19 8.86560E-19
 -1       899 9.33938E-05-2.59259E-05-2.89148E-05 5.26067E-06 5.31116E-19 9.23690E-19
 -1       900 9.36305E-05-2.60703E-05-2.89543E-05 4.28131E-06 6.68521E-19 1.25626E-18
 -1       901 9.39079E-05-2.63394E-05-2.89579E-05 3.43178E-06 5.76659E-19 1.64892E-18
 -1       902 9.41802E-05-2.66595E-05-2.89374E-05 2.70735E-06 1.04770E-18 3.31551E-18
 -1       903 9.44241E-05-2.69847E-05-2.89025E-05 2.10043E-06 1.31255E-18 1.93686E-18
 -1       904 9.46300E-05-2.72883E-05-2.88607E-05 1.60073E-06-4.50327E-19 1.04570E-18
 -1       905 9.47965E-05-2.75567E-05-2.88170E-05 1.19605E-06 6.40255E-19 4.40717E-19
 -1       906 9.49266E-05-2.77853E-05-2.87748E-05 8.73858E-07 8.39458E-19 2.83453E-20
 -1       907 9.50250E-05-2.79744E-05-2.87359E-05 6.21931E-07-4.97996E-19 6.97615E-19
 -1       908 9.50965E-05-2.81268E-05-2.87013E-05 4.29287E-07-1.24329E-18 2.14580E-18
 -1       909 6.60980E-05-2.20746E-05-1.86783E-05 2.18816E-05 1.04133E-18-2.62654E-18
 -1       910 9.49512E-05-2.80318E-05-2.86798E-05-1.61835E-07 1.81343E-18-6.38858E-19
 -1       911 9.49090E-05-2.79891E-05-2.86799E-05-5.70675E-08 7.67904E-19-4.01895E-19
 -1       912 1.00029E-04-4.45882E-05-2.36024E-05 2.60085E-05 1.39212E-18-3.67356E-19
 -1       913 1.09848E-04-4.71936E-05-2.68151E-05 1.67560E-05-1.67057E-18-1.49378E-19
 -1       914 6.49127E-05-1.80022E-05-2.00010E-05-1.54948E-05 5.49539E-19 2.38593E-18
 -1       915 9.51558E-05-2.53171E-05-2.99311E-05-1.81697E-06 5.31413E-19-4.35814E-19
 -1       916 1.09734E-04-4.38396E-05-2.82370E-05 1.06407E-05-1.83731E-18 5.21538E-19
 -1       917 9.47155E-05-2.38685E-05-3.03618E-05 5.45813E-07-2.79384E-19-1.50230E-18
 -1       918 8.41084E-05-3.18225E-05-2.23130E-05-2.44627E-05 1.81056E-18 1.74749E-18
 -1       919 9.39882E-05-2.62279E-05-2.90401E-05-6.35786E-06 2.34517E-19 2.10817E-19
 -1       920 9.20395E-05-1.82353E-05-3.16312E-05-8.05381E-07 2.15644E-19-1.66053E-18
 -1       921 9.47153E-05-2.48009E-05-2.99635E-05 1.91384E-06 1.15184E-19-1.10771E-18
 -1       922 9.87056E-05-3.38626E-05-2.77921E-05-1.22726E-05-4.47598E-19 8.55651E-19
 -1       923 5.88763E-05-1.33109E-05-1.94206E-05 5.05988E-07-4.52577E-19 3.15013E-18
 -1       924 9.50168E-05-2.81006E-05-2.86782E-05-2.28761E-07 7.34209E-19 1.29038E-18
 -1       925 6.57638E-05-1.83523E-05-2.02124E-05 1.54031E-05-2.11136E-18 3.18053E-18
 -1       926 8.73889E-05-3.36928E-05-2.28981E-05 2.44981E-05 1.59592E-18-7.43794E-19
 -1       927 9.46728E-05-2.30953E-05-3.06768E-05 8.22320E-07 1.11331E-18-3.74018E-19
 -1       928 5.57953E-05-1.34017E-05-1.79718E-05-2.82921E-06 6.59132E-19-2.43358E-18
 -1       929 9.42983E-05-2.23818E-05-3.08223E-05-9.00902E-07-2.20418E-19-1.66734E-18
 -1       930 8.34405E-05-3.10305E-05-2.23167E-05-2.38806E-05-1.43359E-18-1.11816E-18
 -1       931 9.43458E-05-2.61747E-05-2.92161E-05-5.29417E-06 1.04675E-19-7.37831E-20
 -1       932 9.51324E-05-2.41444E-05-3.04224E-05 5.65962E-07 1.16419E-18-1.37965E-19
 -1       933 9.38013E-05-2.70113E-05-2.86241E-05-8.66404E-06 4.68846E-19 6.65794E-19
 -1       934 9.37542E-05-2.64382E-05-2.88496E-05-7.47125E-06 2.09714E-19 7.19903E-19
 -1       935 7.97083E-05-2.53542E-05-2.32738E-05 1.81532E-05-1.59459E-18-6.97454E-20
 -1       936 9.51177E-05-2.82013E-05-2.86783E-05 3.08243E-07 5.30997E-19 8.72276E-20
 -1       937 9.32874E-05-2.07994E-05-3.10669E-05 4.58068E-07 8.60254E-19-1.09679E-18
 -1       938 9.50288E-05-2.81158E-05-2.86770E-05 2.42654E-07-3.33869E-19-1.52776E-18
 -1       939 9.29339E-05-2.02796E-05-3.11375E-05 1.21842E-07 6.89720E-19-1.03779E-18
 -1       940 9.49088E-05-2.79901E-05-2.86795E-05 5.72193E-08-7.31535E-19-1.00397E-18
 -1       941 1.04278E-04-4.34786E-05-2.60336E-05-1.86335E-05-1.52473E-18 8.39674E-19
 -1       942 9.50094E-05-2.58663E-05-2.96328E-05-3.09880E-06 3.55948E-19-2.94372E-19
 -1       943 9.50190E-05-2.42550E-05-3.03293E-05-2.78272E-07 8.33520E-19-3.68667E-19
 -1       944 9.32017E-05-2.06809E-05-3.10817E-05-4.72233E-07 1.99911E-19-1.48155E-18
 -1       945 6.30196E-05-1.85772E-05-1.88982E-05-1.70026E-05-9.24212E-19-2.09944E-18
 -1       946 7.93447E-05-2.53892E-05-2.30581E-05 1.93126E-05 1.12847E-18-9.07227E-19
 -1       947 9.42016E-05-2.34992E-05-3.03017E-05 9.03883E-07 2.43000E-19-1.07182E-18
 -1       948 9.23670E-05-2.41826E-05-2.92219E-05 3.54963E-06 1.03732E-19-6.33223E-19
 -1       949 9.10540E-05-2.36672E-05-2.88801E-05 4.33919E-06 7.70134E-20-3.78739E-19
 -1       950 8.94288E-05-2.29751E-05-2.84802E-05 5.18430E-06 8.58991E-20-3.30978E-19
 -1       951 8.74911E-05-2.22292E-05-2.79693E-05 6.17558E-06 1.14942E-19-6.25635E-19
 -1       952 8.52293E-05-2.15709E-05-2.72815E-05 7.45460E-06-9.54461E-20-6.56214E-19
 -1       953 8.26214E-05-2.11800E-05-2.63318E-05 9.28678E-06 2.84957E-19-7.01138E-19
 -1       954 7.98214E-05-2.13575E-05-2.50658E-05 1.21173E-05 8.69537E-19-1.19286E-18
 -1       955 9.07864E-05-2.68345E-05-2.74089E-05-1.10453E-05 4.93326E-20 5.72972E-19
 -1       956 7.84685E-05-2.15932E-05-2.43574E-05-1.36417E-05-2.05555E-19 1.88608E-18
 -1       957 8.11675E-05-2.08371E-05-2.58584E-05-1.01245E-05 3.41017E-19 1.92998E-18
 -1       958 8.36266E-05-2.08626E-05-2.68997E-05-7.85588E-06-2.00546E-19 1.35406E-18
 -1       959 8.57877E-05-2.13433E-05-2.76191E-05-6.27486E-06 4.51793E-19 2.18429E-18
 -1       960 8.76458E-05-2.20598E-05-2.81082E-05-5.09972E-06 4.10332E-19 1.84734E-18
 -1       961 8.92181E-05-2.28820E-05-2.84298E-05-4.16640E-06 1.10361E-18-4.40801E-19
 -1       962 9.05296E-05-2.37246E-05-2.86308E-05-3.39396E-06-4.54698E-19-1.83104E-18
 -1       963 9.16054E-05-2.45291E-05-2.87471E-05-2.74110E-06-6.59258E-20-1.95911E-18
 -1       964 9.24757E-05-2.52641E-05-2.88051E-05-2.18660E-06-4.03508E-19-2.00267E-18
 -1       965 9.31688E-05-2.59120E-05-2.88243E-05-1.71888E-06 3.64798E-19-2.90398E-18
 -1       966 9.37122E-05-2.64667E-05-2.88195E-05-1.32881E-06 5.69710E-19-2.60586E-18
 -1       967 9.41325E-05-2.69316E-05-2.88004E-05-1.00784E-06-2.31471E-20-4.79841E-18
 -1       968 9.44526E-05-2.73138E-05-2.87738E-05-7.48604E-07 4.12772E-19-4.30641E-18
 -1       969 9.46925E-05-2.76229E-05-2.87442E-05-5.43145E-07 6.57348E-19-3.60066E-18
 -1       970 9.48656E-05-2.78654E-05-2.87143E-05-3.84555E-07 1.37271E-18-2.42210E-19
 -1       971 9.49488E-05-2.79914E-05-2.86958E-05-2.99431E-07 2.28101E-18 8.13686E-19
 -1       972 9.49518E-05-2.80347E-05-2.86788E-05 1.63090E-07-1.58996E-19 7.93031E-19
 -1       973 9.04363E-05-2.62067E-05-2.75260E-05 1.01356E-05-1.41911E-18 1.25215E-18
 -1       974 9.14176E-05-2.84903E-05-2.69710E-05 1.25271E-05-1.31588E-18 4.42272E-19
 -1       975 9.42175E-05-3.24713E-05-2.64477E-05 1.51922E-05-8.30914E-19-5.66494E-19
 -1       976 9.03178E-05-2.50465E-05-2.79736E-05 8.21027E-06-7.44758E-19 1.68611E-18
 -1       977 9.06568E-05-2.46012E-05-2.83098E-05 6.64528E-06 6.90942E-20 8.29372E-19
 -1       978 9.12163E-05-2.46102E-05-2.85457E-05 5.36314E-06-6.23422E-19 1.53910E-19
 -1       979 9.18517E-05-2.48881E-05-2.86989E-05 4.30457E-06-3.05412E-19 1.53916E-18
 -1       980 9.24775E-05-2.53048E-05-2.87884E-05 3.42780E-06 1.55690E-19 2.92453E-18
 -1       981 9.30472E-05-2.57740E-05-2.88314E-05 2.70086E-06 6.51130E-19 1.31834E-18
 -1       982 9.35415E-05-2.62434E-05-2.88421E-05 2.10125E-06 1.07122E-18 1.09974E-18
 -1       983 9.39542E-05-2.66802E-05-2.88318E-05 1.61145E-06 5.29771E-19 3.61964E-18
 -1       984 9.42882E-05-2.70669E-05-2.88092E-05 1.21547E-06 1.38589E-18 2.58495E-18
 -1       985 9.45518E-05-2.73980E-05-2.87802E-05 8.99349E-07 2.08152E-18 1.38018E-18
 -1       986 9.47546E-05-2.76737E-05-2.87490E-05 6.51006E-07 2.39270E-19 4.05517E-19
 -1       987 9.49056E-05-2.78968E-05-2.87181E-05 4.60317E-07-1.66692E-18-6.02068E-19
 -1       988 9.47147E-05-2.61045E-05-2.94043E-05-4.23155E-06 4.92342E-19 5.09987E-21
 -1       989 9.92807E-05-3.81443E-05-2.62353E-05 1.69159E-05-1.03239E-18-1.31501E-18
 -1       990 9.39007E-05-2.17336E-05-3.09226E-05 7.02883E-07 9.66497E-19-1.01147E-18
 -1       991 6.19935E-05-1.59872E-05-1.95934E-05 1.02950E-05 8.98190E-19-2.53242E-18
 -1       992 9.45833E-05-2.38499E-05-3.03150E-05-8.46243E-07 7.66333E-19-8.29866E-19
 -1       993 9.49713E-05-2.80122E-05-2.86968E-05 3.38999E-07-1.60777E-19-2.24900E-18
 -1       994 9.29083E-05-2.02485E-05-3.11402E-05-1.78346E-07 3.27749E-19-1.39068E-18
 -1       995 9.47893E-05-2.78190E-05-2.87017E-05-1.56053E-07 3.30782E-18-3.82857E-19
 -1       996 9.33557E-05-2.44083E-05-2.95490E-05 2.74845E-06 4.79981E-20-8.11347E-19
 -1       997 9.39879E-05-2.42240E-05-2.98990E-05 1.88451E-06 3.32117E-19-9.52323E-19
 -1       998 6.77247E-05-1.59142E-05-2.21746E-05-7.09582E-06 7.71489E-19 2.06436E-18
 -1       999 6.83746E-05-1.61386E-05-2.23564E-05 6.39968E-06-3.85004E-19 1.52798E-18
 -1      1000 7.91769E-05-2.43541E-05-2.34516E-05-1.78990E-05 8.49833E-19 2.20309E-18
 -1      1001 6.56320E-05-1.62671E-05-2.10964E-05-7.93364E-06-3.87952E-19-1.59290E-18
 -1      1002 9.38286E-05-2.22503E-05-3.06766E-05 1.05442E-07 2.99898E-19-1.30080E-18
 -1      1003 9.18150E-05-2.92001E-05-2.68340E-05-1.34172E-05-1.91261E-19 5.61062E-19
 -1      1004 6.61154E-05-1.55472E-05-2.16490E-05 2.10350E-06 1.57303E-19-1.44499E-18
 -1      1005 9.28474E-05-2.51517E-05-2.90125E-05-5.12347E-06 2.27468E-19-1.10248E-19
 -1      1006 9.08109E-05-2.56359E-05-2.79317E-05-9.09721E-06 6.50855E-19 1.17265E-19
 -1      1007 9.35895E-05-2.20544E-05-3.06554E-05-2.19931E-07 5.43641E-19-1.01850E-18
 -1      1008 9.20528E-05-2.50590E-05-2.87117E-05-6.24193E-06 4.89975E-20-1.49595E-19
 -1      1009 9.47615E-05-2.77935E-05-2.87006E-05 8.70185E-10 2.38314E-18-1.70538E-19
 -1      1010 9.48643E-05-2.79040E-05-2.86973E-05 2.37992E-07-3.25931E-19 4.43360E-19
 -1      1011 9.45335E-05-2.47222E-05-2.99174E-05-2.05088E-06 3.32164E-19-8.51700E-19
 -1      1012 9.71328E-05-3.60314E-05-2.61764E-05-1.69238E-05-1.07116E-18 3.02887E-19
 -1      1013 7.67708E-05-2.04431E-05-2.41332E-05 1.13826E-05-9.52824E-19 1.51793E-18
 -1      1014 9.34286E-05-2.16581E-05-3.07590E-05 1.68080E-08 2.28707E-19-1.53844E-18
 -1      1015 7.72123E-05-2.39834E-05-2.27789E-05-1.75110E-05-1.02988E-18-1.40846E-18
 -1      1016 9.32289E-05-2.37942E-05-2.97577E-05 1.41851E-06 3.74485E-19-1.16555E-18
 -1      1017 9.37140E-05-2.27702E-05-3.04027E-05 4.74958E-07 3.01188E-19-1.41536E-18
 -1      1018 8.92294E-05-2.26269E-05-2.85440E-05 2.80638E-06 1.99662E-19-5.58237E-19
 -1      1019 8.70607E-05-2.17109E-05-2.80070E-05 3.26953E-06-3.43086E-20-3.76952E-19
 -1      1020 8.43967E-05-2.06872E-05-2.73040E-05 3.82444E-06-2.72618E-20-5.78499E-19
 -1      1021 8.10942E-05-1.96225E-05-2.63445E-05 4.58361E-06 8.03575E-20-4.84137E-19
 -1      1022 7.69551E-05-1.86043E-05-2.50024E-05 5.70529E-06 1.00590E-19-1.06741E-18
 -1      1023 9.35872E-05-2.52381E-05-2.92924E-05-4.10499E-06 2.15111E-19-2.20346E-19
 -1      1024 7.86847E-05-1.85149E-05-2.57832E-05-5.09975E-06 9.54025E-20 1.56266E-18
 -1      1025 8.21091E-05-1.95130E-05-2.68259E-05-4.03473E-06 5.26261E-19 1.40562E-18
 -1      1026 8.48139E-05-2.05465E-05-2.75433E-05-3.31207E-06-3.24212E-19 3.63237E-19
 -1      1027 8.69808E-05-2.15753E-05-2.80317E-05-2.75355E-06-1.40070E-18-4.38826E-19
 -1      1028 8.87515E-05-2.25914E-05-2.83549E-05-2.29402E-06-7.06604E-19-1.96377E-18
 -1      1029 9.01924E-05-2.35511E-05-2.85611E-05-1.89999E-06-2.94577E-19-1.81510E-18
 -1      1030 9.13563E-05-2.44257E-05-2.86849E-05-1.55142E-06-1.23485E-18-3.22828E-18
 -1      1031 9.22900E-05-2.52042E-05-2.87510E-05-1.24932E-06-1.03992E-18-3.39121E-18
 -1      1032 9.30315E-05-2.58806E-05-2.87791E-05-9.88226E-07 1.25011E-18-4.09692E-18
 -1      1033 9.36113E-05-2.64521E-05-2.87827E-05-7.64491E-07-5.02803E-20-2.92527E-18
 -1      1034 9.40612E-05-2.69295E-05-2.87709E-05-5.79191E-07 1.22180E-18-2.73639E-18
 -1      1035 9.44043E-05-2.73209E-05-2.87502E-05-4.30222E-07 3.50955E-19-1.80072E-18
 -1      1036 8.55217E-05-2.39683E-05-2.63820E-05 1.07950E-05-1.64081E-18-8.45939E-19
 -1      1037 9.47964E-05-2.78322E-05-2.86989E-05 1.30507E-07 4.30873E-19 5.59243E-19
 -1      1038 8.75860E-05-2.29194E-05-2.77160E-05 6.37674E-06-6.35707E-19 4.57565E-19
 -1      1039 8.64392E-05-2.31033E-05-2.71483E-05 8.24561E-06-1.87587E-18-6.70211E-19
 -1      1040 9.36176E-05-2.34659E-05-3.00658E-05 9.55826E-07 5.03022E-19-1.26284E-18
 -1      1041 8.87614E-05-2.31448E-05-2.81228E-05 4.97482E-06-3.18652E-19 2.32612E-18
 -1      1042 8.98885E-05-2.36157E-05-2.84036E-05 3.89590E-06-4.02935E-19 2.37396E-18
 -1      1043 9.09160E-05-2.42127E-05-2.85878E-05 3.05054E-06-4.91124E-19 1.52260E-18
 -1      1044 9.18107E-05-2.48425E-05-2.87007E-05 2.38265E-06 3.83642E-19 4.14205E-19
 -1      1045 9.25733E-05-2.54622E-05-2.87618E-05 1.84603E-06 4.75592E-19 1.75594E-18
 -1      1046 9.32048E-05-2.60350E-05-2.87873E-05 1.41479E-06-1.99779E-19 2.10657E-18
 -1      1047 9.37154E-05-2.65412E-05-2.87893E-05 1.07090E-06 1.29937E-18 1.40752E-18
 -1      1048 9.41215E-05-2.69770E-05-2.87765E-05 7.97451E-07 1.87796E-18 1.88858E-18
 -1      1049 9.44381E-05-2.73430E-05-2.87551E-05 5.82534E-07 2.71924E-18 2.32647E-18
 -1      1050 9.46756E-05-2.76393E-05-2.87298E-05 4.18104E-07 1.52023E-18 8.32406E-19
 -1      1051 9.34071E-05-2.18123E-05-3.06833E-05-4.40397E-08 4.23582E-19-8.99194E-19
 -1      1052 9.13130E-05-2.51390E-05-2.83602E-05-7.53179E-06 2.56866E-19 2.09678E-20
 -1      1053 8.46329E-05-2.89029E-05-2.38298E-05-1.92780E-05-9.50744E-19-3.74890E-19
 -1      1054 9.47775E-05-2.77788E-05-2.87134E-05 3.17452E-07 1.51060E-19-3.27045E-19
 -1      1055 9.23079E-05-2.37714E-05-2.93729E-05 1.91691E-06 3.55364E-20-9.69299E-19
 -1      1056 8.47591E-05-2.50512E-05-2.55858E-05 1.33445E-05-1.36503E-18-9.62201E-19
 -1      1057 9.36529E-05-2.32239E-05-3.01859E-05-7.48642E-07 1.93218E-19-6.59323E-19
 -1      1058 9.41796E-05-2.51490E-05-2.95838E-05-3.10466E-06 1.32494E-19-6.68318E-19
 -1      1059 7.27007E-05-1.65082E-05-2.40830E-05-1.01365E-06-1.96426E-19 1.25968E-18
 -1      1060 9.09693E-05-2.33443E-05-2.89822E-05 2.37096E-06 2.26252E-19-7.51593E-19
 -1      1061 7.55265E-05-1.80758E-05-2.46071E-05-6.99873E-06 2.19254E-19 2.72995E-18
 -1      1062 9.22085E-05-2.43272E-05-2.90927E-05-3.55074E-06 2.67258E-19-5.68713E-19
 -1      1063 7.19738E-05-1.71280E-05-2.34893E-05-3.77671E-06-2.24462E-19-7.60056E-19
 -1      1064 9.46568E-05-2.76312E-05-2.87255E-05-3.12427E-07 2.65828E-18-2.46903E-18
 -1      1065 8.68907E-05-2.37096E-05-2.70809E-05-8.92980E-06 2.49727E-19-1.81618E-19
 -1      1066 9.10344E-05-2.40255E-05-2.87167E-05-4.48106E-06 1.67310E-20-7.06536E-19
 -1      1067 7.08487E-05-1.66660E-05-2.32137E-05 4.31161E-06-1.97895E-20-1.15244E-18
 -1      1068 7.62848E-05-1.80945E-05-2.49404E-05 4.78281E-06-7.93667E-19 5.60442E-19
 -1      1069 8.57171E-05-2.45345E-05-2.62197E-05-1.15920E-05-1.98128E-19-4.92850E-19
 -1      1070 9.45841E-05-2.75620E-05-2.87227E-05-1.03277E-07 3.33117E-18 1.21151E-19
 -1      1071 8.77210E-05-2.19237E-05-2.81987E-05 5.97644E-07 2.22093E-19-1.12734E-18
 -1      1072 9.35125E-05-2.26971E-05-3.03509E-05 1.38220E-07 3.03360E-19-1.00419E-18
 -1      1073 8.92885E-05-2.30993E-05-2.83658E-05 2.27997E-06 1.77039E-19 1.25204E-19
 -1      1074 8.60930E-05-2.15671E-05-2.76548E-05 3.96245E-06-1.40926E-18 7.09507E-19
 -1      1075 9.13905E-05-2.33562E-05-2.91581E-05 5.94159E-07 3.55688E-19-1.15384E-18
 -1      1076 8.51734E-05-2.09004E-05-2.75452E-05 4.86590E-07-1.80587E-19-6.09469E-19
 -1      1077 8.20036E-05-1.97588E-05-2.66783E-05 2.64384E-07 6.51227E-20-4.65528E-19
 -1      1078 7.79646E-05-1.84598E-05-2.55050E-05-4.22297E-08-4.58036E-20-6.19529E-19
 -1      1079 7.92968E-05-1.83750E-05-2.61097E-05-3.78837E-07-3.87734E-19-1.54356E-19
 -1      1080 7.51564E-05-2.04673E-05-2.34476E-05-1.18935E-05-1.12048E-18-1.15701E-18
 -1      1081 8.24667E-05-1.94573E-05-2.70014E-05-4.55387E-07-1.00212E-18-1.97657E-18
 -1      1082 8.51468E-05-2.06355E-05-2.76481E-05-5.38680E-07-1.40092E-18-3.42633E-18
 -1      1083 8.72693E-05-2.17414E-05-2.80846E-05-5.94992E-07-1.19127E-18-2.25609E-18
 -1      1084 8.89824E-05-2.27779E-05-2.83745E-05-5.91063E-07-7.54549E-19-1.63816E-18
 -1      1085 9.04094E-05-2.37545E-05-2.85632E-05-5.56988E-07-1.88987E-18-2.82664E-18
 -1      1086 9.15341E-05-2.46219E-05-2.86766E-05-4.94114E-07-1.23300E-18-3.24864E-18
 -1      1087 9.23971E-05-2.53503E-05-2.87335E-05-4.04856E-07 1.13885E-18-1.89871E-18
 -1      1088 9.31212E-05-2.60138E-05-2.87603E-05-3.24526E-07 1.46791E-18-1.60049E-18
 -1      1089 9.36849E-05-2.65704E-05-2.87635E-05-2.59898E-07 8.06880E-19-5.54321E-19
 -1      1090 9.41220E-05-2.70329E-05-2.87527E-05-1.94564E-07 4.53249E-19-3.29799E-19
 -1      1091 8.82882E-05-2.35218E-05-2.77573E-05-6.99759E-06 1.83714E-19-5.09898E-19
 -1      1092 8.41645E-05-2.10164E-05-2.70542E-05 5.29891E-06-2.70669E-18-2.68872E-19
 -1      1093 9.05273E-05-2.38979E-05-2.85527E-05 1.72577E-06-8.31619E-19 3.79120E-19
 -1      1094 9.16161E-05-2.47109E-05-2.86731E-05 1.29269E-06-6.29434E-19 5.19178E-19
 -1      1095 9.24502E-05-2.53994E-05-2.87343E-05 9.82749E-07-6.05966E-19 9.47381E-19
 -1      1096 9.31207E-05-2.60120E-05-2.87611E-05 7.44186E-07 7.43899E-19 9.92509E-19
 -1      1097 9.36699E-05-2.65490E-05-2.87661E-05 5.55117E-07 1.34748E-18 2.32276E-19
 -1      1098 9.40986E-05-2.69998E-05-2.87563E-05 4.09527E-07 1.94195E-18 6.74931E-19
 -1      1099 9.44360E-05-2.73796E-05-2.87379E-05 2.91311E-07 2.65911E-18 1.35376E-18
 -1      1100 8.29248E-05-2.49906E-05-2.48347E-05-1.45527E-05-6.86510E-19-1.22307E-18
 -1      1101 9.25658E-05-2.35695E-05-2.95695E-05 5.01465E-07 3.70225E-19-1.50877E-18
 -1      1102 9.31432E-05-2.44354E-05-2.94464E-05-2.72268E-06-5.33629E-20-7.50736E-19
 -1      1103 8.78177E-05-2.23007E-05-2.80781E-05 2.99433E-06 2.23628E-20 1.06798E-18
 -1      1104 7.81044E-05-1.97458E-05-2.50002E-05-7.41092E-06 6.39363E-20-1.22762E-18
 -1      1105 8.02723E-05-2.06858E-05-2.55388E-05 8.77093E-06-1.58904E-18-3.00709E-20
 -1      1106 8.24375E-05-2.07852E-05-2.64048E-05 6.68839E-06-1.81691E-18-4.69238E-19
 -1      1107 8.97762E-05-2.27706E-05-2.87168E-05 6.36977E-07 3.45370E-19-1.33610E-18
 -1      1108 9.43806E-05-2.73229E-05-2.87393E-05-1.49732E-07 1.41919E-18 6.27800E-20
 -1      1109 9.31471E-05-2.34144E-05-2.98806E-05 3.39045E-07 4.13187E-19-1.38221E-18
 -1      1110 9.07130E-05-2.34287E-05-2.88373E-05-2.45618E-06 3.81226E-19-9.96719E-19
 -1      1111 9.46855E-05-2.76863E-05-2.87139E-05 1.84963E-07 1.40294E-18 1.51273E-18
 -1      1112 8.48462E-05-2.16585E-05-2.70791E-05-5.53330E-06 1.34189E-19-1.49305E-18
 -1      1113 9.20480E-05-2.37966E-05-2.92502E-05-1.88243E-06 1.19678E-19-9.55573E-19
 -1      1114 8.96722E-05-2.36748E-05-2.82843E-05-5.57814E-06-1.13438E-19-8.35063E-19
 -1      1115 9.36019E-05-2.42168E-05-2.97374E-05-1.98154E-06 2.25365E-19-6.89786E-19
 -1      1116 9.31074E-05-2.36507E-05-2.97689E-05-8.74977E-07 1.11610E-20-6.84247E-19
 -1      1117 8.19165E-05-2.07744E-05-2.61972E-05-6.37125E-06 7.95975E-20-1.46652E-18
 -1      1118 7.72322E-05-1.87010E-05-2.50806E-05-3.72731E-06-3.21938E-19-7.98963E-19
 -1      1119 9.46140E-05-2.76072E-05-2.87172E-05 5.38958E-08 2.75346E-18 2.44272E-18
 -1      1120 9.07244E-05-2.40359E-05-2.85879E-05 4.32274E-07-1.84784E-18 7.45911E-19
 -1      1121 8.43564E-05-2.09245E-05-2.71826E-05-2.99197E-06 2.50326E-19-1.09545E-18
 -1      1122 8.89944E-05-2.25639E-05-2.84693E-05-1.55641E-06 1.93268E-19-1.17648E-18
 -1      1123 8.15553E-05-1.94850E-05-2.66317E-05 3.06330E-06-2.21216E-18-7.09234E-19
 -1      1124 9.19775E-05-2.50182E-05-2.87016E-05 3.81228E-07-2.82371E-20 9.91071E-19
 -1      1125 9.21240E-05-2.36079E-05-2.93637E-05-8.10389E-07 3.50281E-19-1.35986E-18
 -1      1126 8.70821E-05-2.22146E-05-2.78081E-05-4.17637E-06 1.11712E-19-1.22252E-18
 -1      1127 8.69576E-05-2.18202E-05-2.79092E-05-2.12087E-06 1.79902E-19-1.50940E-18
 -1      1128 8.14096E-05-1.98713E-05-2.63746E-05-2.95528E-06 1.35803E-19-5.72926E-19
 -1      1129 9.26396E-05-2.37916E-05-2.95065E-05-1.34703E-06 4.14377E-20-6.37926E-19
 -1      1130 9.08969E-05-2.32595E-05-2.89873E-05-8.54787E-07 2.69150E-19-1.38146E-18
 -1      1131 1.16299E-04 2.56274E-10-4.16895E-05-4.11218E-05-2.80368E-19 7.59238E-18
 -1      1132 8.85798E-05 7.23666E-11-3.72083E-05-2.38202E-05-1.41455E-19 5.09384E-19
 -1      1133 8.41737E-05 4.18740E-11-3.57945E-05-1.74602E-05-9.47618E-20-2.37884E-18
 -1      1134 8.24914E-05 3.20930E-11-3.51323E-05-1.33759E-05-5.32572E-20-3.68685E-18
 -1      1135 8.16857E-05 2.70015E-11-3.48036E-05-1.00779E-05-3.30872E-20-4.22930E-18
 -1      1136 8.12485E-05 2.38486E-11-3.46293E-05-7.24132E-06-1.20570E-20-4.39132E-18
 -1      1137 8.09957E-05 2.18474E-11-3.45319E-05-4.68440E-06-2.30949E-21-4.31352E-18
 -1      1138 8.08598E-05 2.07275E-11-3.44810E-05-2.27667E-06 6.80273E-21-4.15442E-18
 -1      1139 8.08178E-05 2.03819E-11-3.44654E-05 4.96631E-08 1.66503E-20-3.93327E-18
 -1      1140 8.08628E-05 2.07818E-11-3.44818E-05 2.37908E-06 3.86740E-20-3.67985E-18
 -1      1141 8.10018E-05 2.19659E-11-3.45334E-05 4.79675E-06 5.07757E-20-3.33772E-18
 -1      1142 8.12596E-05 2.40264E-11-3.46314E-05 7.37187E-06 6.40436E-20-2.79819E-18
 -1      1143 8.17021E-05 2.73112E-11-3.48075E-05 1.02371E-05 7.52668E-20-1.98420E-18
 -1      1144 8.25097E-05 3.25840E-11-3.51402E-05 1.35819E-05 9.55030E-20-7.31625E-19
 -1      1145 8.41674E-05 4.23374E-11-3.58132E-05 1.77116E-05 1.15514E-19 1.40169E-18
 -1      1146 8.82790E-05 6.72431E-11-3.72769E-05 2.36671E-05 1.08420E-19 5.21137E-18
 -1      1147 1.06150E-04 1.63676E-10-4.04791E-05 3.58834E-05 1.52678E-19 1.22474E-17
 -1      1148 1.29429E-04-2.56273E-05-4.00784E-05-2.58734E-05-1.10061E-18 1.20245E-17
 -1      1149 9.71219E-05-2.87656E-05-3.14739E-05-6.53771E-07-3.98953E-19 9.31906E-18
 -1      1150 9.01378E-05-2.70245E-05-2.78827E-05 3.88610E-07-1.68758E-19 5.65257E-18
 -1      1151 8.85207E-05-2.66590E-05-2.67286E-05 2.49865E-07-1.03173E-19 3.23008E-18
 -1      1152 8.85197E-05-2.66413E-05-2.65851E-05 1.65805E-07-4.29886E-20 1.74544E-18
 -1      1153 8.93548E-05-2.68630E-05-2.68177E-05 1.20535E-07-3.33073E-20 1.04307E-18
 -1      1154 9.06906E-05-2.72450E-05-2.72206E-05 9.43550E-08-2.80439E-20 1.32587E-19
 -1      1155 9.23896E-05-2.77449E-05-2.77347E-05 7.99572E-08 3.61635E-20-6.60447E-19
 -1      1156 9.44115E-05-2.83470E-05-2.83468E-05 7.42839E-08 6.72663E-21-1.23934E-18
 -1      1157 9.67713E-05-2.90531E-05-2.90616E-05 7.64125E-08-6.07622E-20-2.35213E-18
 -1      1158 9.95147E-05-2.98750E-05-2.98919E-05 8.63701E-08 9.00121E-20-3.06261E-18
 -1      1159 1.02695E-04-3.08271E-05-3.08509E-05 1.04234E-07 3.71346E-20-2.52728E-18
 -1      1160 1.06339E-04-3.19155E-05-3.19422E-05 1.28954E-07-7.10598E-20-2.87962E-18
 -1      1161 1.10396E-04-3.31233E-05-3.31421E-05 1.56304E-07 5.89511E-20-2.36762E-18
 -1      1162 1.14657E-04-3.43856E-05-3.43765E-05 1.75473E-07-2.44915E-19-2.00609E-18
 -1      1163 1.18646E-04-3.55592E-05-3.54906E-05 1.64629E-07-2.01488E-19-2.83883E-18
 -1      1164 1.21517E-04-3.63915E-05-3.62293E-05 8.86825E-08-2.13184E-19-3.45746E-18
 -1      1165 1.22056E-04-3.65242E-05-3.62570E-05-9.13351E-08-3.95723E-21-4.26426E-18
 -1      1166 1.18968E-04-3.55828E-05-3.52641E-05-3.84865E-07-5.04183E-20-5.49671E-18
 -1      1167 1.11640E-04-3.34050E-05-3.31788E-05-7.16943E-07 1.01998E-19-7.15319E-18
 -1      1168 1.01213E-04-3.03533E-05-3.03972E-05-8.96731E-07 5.90868E-20-5.68740E-18
 -1      1169 9.11080E-05-2.74356E-05-2.78207E-05-7.11698E-07-8.92627E-20-5.44240E-18
 -1      1170 8.57956E-05-2.59151E-05-2.65015E-05-1.50295E-07 2.23934E-19-4.56684E-18
 -1      1171 8.79756E-05-2.65384E-05-2.70430E-05 4.98468E-07-3.60194E-19-6.24120E-18
 -1      1172 9.65388E-05-2.90003E-05-2.92012E-05 8.67707E-07 1.57082E-19-8.33565E-18
 -1      1173 1.07435E-04-3.21704E-05-3.20483E-05 8.30285E-07 6.98438E-20-6.46763E-18
 -1      1174 1.16507E-04-3.48478E-05-3.45516E-05 5.37021E-07 4.27222E-20-7.31053E-18
 -1      1175 1.21590E-04-3.63761E-05-3.60769E-05 2.10390E-07-3.94466E-20-9.16384E-18
 -1      1176 1.22662E-04-3.67237E-05-3.65158E-05-2.11363E-08-1.31647E-19-9.65575E-18
 -1      1177 1.20852E-04-3.62110E-05-3.61075E-05-1.37039E-07 3.15275E-19-7.31720E-18
 -1      1178 1.17481E-04-3.52264E-05-3.51987E-05-1.69291E-07-3.34373E-19-5.51186E-18
 -1      1179 1.13583E-04-3.40762E-05-3.40902E-05-1.56824E-07 9.38856E-20-5.00289E-18
 -1      1180 1.09797E-04-3.29524E-05-3.29828E-05-1.27198E-07-4.58631E-19-8.08625E-18
 -1      1181 1.06445E-04-3.19529E-05-3.19856E-05-9.53312E-08-1.53528E-19-9.32282E-18
 -1      1182 1.03642E-04-3.11140E-05-3.11428E-05-6.75827E-08 1.21839E-19-8.52210E-18
 -1      1183 1.01389E-04-3.04373E-05-3.04603E-05-4.57230E-08 4.02506E-20-7.19711E-18
 -1      1184 9.96290E-05-2.99075E-05-2.99248E-05-2.94799E-08-2.01858E-19-8.83559E-18
 -1      1185 9.82879E-05-2.95026E-05-2.95151E-05-1.78806E-08 6.14562E-20-7.15490E-18
 -1      1186 9.72881E-05-2.91999E-05-2.92088E-05-9.85772E-09-1.07009E-19-7.18926E-18
 -1      1187 9.65591E-05-2.89787E-05-2.89847E-05-4.47586E-09-1.36397E-19-6.83342E-18
 -1      1188 9.60405E-05-2.88209E-05-2.88249E-05-9.87643E-10-2.93769E-19-5.69116E-18
 -1      1189 9.56824E-05-2.87115E-05-2.87141E-05 1.17717E-09 1.19858E-19-5.81496E-18
 -1      1190 9.54448E-05-2.86386E-05-2.86402E-05 2.44335E-09-3.66413E-19-5.46985E-18
 -1      1191 9.52962E-05-2.85928E-05-2.85938E-05 3.12449E-09-2.98943E-19-5.34393E-18
 -1      1192 9.52126E-05-2.85667E-05-2.85672E-05 3.45386E-09 2.24401E-19-4.19908E-18
 -1      1193 9.51753E-05-2.85546E-05-2.85550E-05 3.61147E-09 5.14224E-19-1.03428E-18
 -1      1194 9.51705E-05-2.85525E-05-2.85527E-05 3.73325E-09 2.97641E-19-1.33914E-18
 -1      1195 9.51869E-05-2.85569E-05-2.85567E-05 3.82727E-09-6.29570E-20 1.00243E-18
 -1      1196 9.52143E-05-2.85650E-05-2.85631E-05 3.83719E-09-4.43769E-19-5.77436E-19
 -1      1197 9.52334E-05-2.85702E-05-2.85677E-05 1.03072E-09 2.26848E-19-1.45434E-18
 -1      1198 1.30260E-04-3.74883E-05-3.84823E-05 1.20922E-05-2.24067E-19 1.78131E-17
 -1      1199 9.62541E-05-2.81028E-05-3.12336E-05 7.91907E-07 4.88103E-20 1.55203E-17
 -1      1200 9.03641E-05-2.69318E-05-2.78683E-05 1.21432E-07 8.54511E-20 1.29833E-17
 -1      1201 8.86202E-05-2.65903E-05-2.67688E-05 1.54552E-08 7.39499E-21 1.12021E-17
 -1      1202 8.85707E-05-2.66061E-05-2.66148E-05-1.54681E-08 5.53814E-20 9.97741E-18
 -1      1203 8.93767E-05-2.68436E-05-2.68326E-05-2.22436E-08 2.76775E-20 9.01045E-18
 -1      1204 9.06781E-05-2.72272E-05-2.72217E-05-2.22177E-08 2.38724E-21 8.36286E-18
 -1      1205 9.23195E-05-2.77153E-05-2.77161E-05-2.07043E-08-5.41729E-20 7.96764E-18
 -1      1206 9.42385E-05-2.82883E-05-2.82946E-05-2.00171E-08-1.23312E-20 7.27775E-18
 -1      1207 9.64176E-05-2.89397E-05-2.89513E-05-2.19956E-08 1.72673E-19 6.82121E-18
 -1      1208 9.88552E-05-2.96676E-05-2.96844E-05-2.85555E-08 3.17608E-20 6.07529E-18
 -1      1209 1.01538E-04-3.04668E-05-3.04872E-05-4.16572E-08-2.79827E-20 5.81587E-18
 -1      1210 1.04409E-04-3.13190E-05-3.13381E-05-6.28040E-08 1.32569E-19 5.57713E-18
 -1      1211 1.07324E-04-3.21807E-05-3.21890E-05-9.18073E-08-7.27257E-20 4.97754E-18
 -1      1212 1.10009E-04-3.29701E-05-3.29516E-05-1.24520E-07 8.29737E-20 4.72938E-18
 -1      1213 1.12015E-04-3.35565E-05-3.34902E-05-1.49719E-07 9.06921E-21 4.02659E-18
 -1      1214 1.12728E-04-3.37627E-05-3.36283E-05-1.46787E-07-3.98999E-19 5.56471E-18
 -1      1215 1.11468E-04-3.33941E-05-3.31881E-05-8.87519E-08 3.08717E-19 5.59317E-18
 -1      1216 1.07753E-04-3.23126E-05-3.20699E-05 4.28105E-08-8.37934E-20 4.40891E-18
 -1      1217 1.01723E-04-3.05517E-05-3.03589E-05 2.31480E-07 6.97843E-20 4.72597E-18
 -1      1218 9.45087E-05-2.84254E-05-2.83971E-05 4.07643E-07-8.85356E-20 4.37556E-18
 -1      1219 8.81867E-05-2.65286E-05-2.67366E-05 4.70134E-07-6.54201E-20 5.72854E-18
 -1      1220 8.50256E-05-2.55386E-05-2.59376E-05 3.55623E-07 2.60794E-20 4.87945E-18
 -1      1221 8.62981E-05-2.58682E-05-2.62957E-05 1.01065E-07 1.27300E-19 2.64714E-18
 -1      1222 9.15054E-05-2.74042E-05-2.76809E-05-1.72256E-07 1.74512E-19 2.72670E-18
 -1      1223 9.86881E-05-2.95669E-05-2.96127E-05-3.47309E-07 8.75624E-20 4.00032E-18
 -1      1224 1.05549E-04-3.16489E-05-3.15081E-05-3.82406E-07-2.08483E-20 4.54041E-18
 -1      1225 1.10489E-04-3.31503E-05-3.29275E-05-3.11905E-07 1.17936E-19 5.24777E-18
 -1      1226 1.12966E-04-3.39012E-05-3.36884E-05-1.98450E-07-7.17066E-20 4.22823E-18
 -1      1227 1.13250E-04-3.39858E-05-3.38307E-05-9.08152E-08-1.90395E-19 4.91377E-18
 -1      1228 1.11990E-04-3.36038E-05-3.35142E-05-1.18329E-08 2.53356E-19 4.49491E-18
 -1      1229 1.09862E-04-3.29621E-05-3.29251E-05 3.55709E-08 6.22474E-20 3.99215E-18
 -1      1230 1.07407E-04-3.22235E-05-3.22208E-05 5.78900E-08-3.68399E-20 3.75716E-18
 -1      1231 1.04981E-04-3.14950E-05-3.15110E-05 6.36475E-08-1.64401E-19 2.91191E-18
 -1      1232 1.02787E-04-3.08368E-05-3.08607E-05 6.00153E-08 2.87049E-19 1.29861E-18
 -1      1233 1.00914E-04-3.02753E-05-3.03007E-05 5.19692E-08 5.72856E-20 6.28399E-19
 -1      1234 9.93827E-05-2.98162E-05-2.98396E-05 4.25515E-08-1.95108E-19-5.00530E-19
 -1      1235 9.81720E-05-2.94532E-05-2.94733E-05 3.34236E-08-1.28720E-19 9.35009E-19
 -1      1236 9.72428E-05-2.91746E-05-2.91909E-05 2.53703E-08 2.60981E-19 1.58903E-18
 -1      1237 9.65494E-05-2.89665E-05-2.89794E-05 1.86643E-08 1.07728E-19-2.20460E-18
 -1      1238 9.60466E-05-2.88156E-05-2.88254E-05 1.33021E-08-1.02646E-19-3.35215E-18
 -1      1239 9.56940E-05-2.87096E-05-2.87170E-05 9.14598E-09-2.15715E-19-2.57306E-18
 -1      1240 9.54568E-05-2.86383E-05-2.86436E-05 6.00502E-09-2.75156E-19-5.88389E-19
 -1      1241 9.53066E-05-2.85930E-05-2.85969E-05 3.67554E-09 7.35662E-19-1.27723E-18
 -1      1242 9.52205E-05-2.85670E-05-2.85697E-05 1.95761E-09-2.83717E-19-2.81014E-19
 -1      1243 9.51809E-05-2.85549E-05-2.85569E-05 6.65650E-10-7.38716E-20-7.54958E-19
 -1      1244 9.51739E-05-2.85526E-05-2.85540E-05-3.98957E-10 2.76779E-19-5.05685E-18
 -1      1245 9.51887E-05-2.85567E-05-2.85575E-05-1.51462E-09 3.01452E-20-4.54434E-18
 -1      1246 9.52144E-05-2.85640E-05-2.85636E-05-2.78802E-09 6.15289E-19-7.80297E-18
 -1      1247 9.52338E-05-2.85706E-05-2.85677E-05-1.04489E-09-2.23002E-20-6.33330E-18
 -1      1248 9.52377E-05-2.85747E-05-2.85679E-05-1.30748E-09-6.96684E-18-2.38885E-19
 -1      1249 9.52435E-05-2.85934E-05-2.85640E-05-3.15581E-09-7.53652E-18 3.49455E-19
 -1      1250 9.52498E-05-2.86145E-05-2.85593E-05-2.39343E-09 5.55726E-18 5.24399E-19
 -1      1251 9.52525E-05-2.86234E-05-2.85569E-05-1.11222E-09 1.07031E-17 6.33786E-19
 -1      1252 9.52512E-05-2.86185E-05-2.85580E-05-1.05060E-10 5.88846E-18-3.38101E-19
 -1      1253 9.52472E-05-2.86043E-05-2.85616E-05 4.54073E-10-3.65385E-19-7.69464E-19
 -1      1254 9.52424E-05-2.85876E-05-2.85659E-05 5.67835E-10 1.15807E-18 4.91665E-19
 -1      1255 9.52387E-05-2.85746E-05-2.85694E-05 3.52341E-10 1.88385E-18 1.65825E-18
 -1      1256 9.52374E-05-2.85702E-05-2.85705E-05-4.03739E-11-1.70217E-18-1.16254E-19
 -1      1257 9.52391E-05-2.85760E-05-2.85690E-05-4.25864E-10 8.28542E-19-4.36079E-19
 -1      1258 9.52431E-05-2.85900E-05-2.85652E-05-6.16060E-10 3.20962E-19-1.28576E-18
 -1      1259 9.52481E-05-2.86074E-05-2.85607E-05-4.61549E-10 3.37270E-18 4.74185E-19
 -1      1260 9.52521E-05-2.86215E-05-2.85571E-05 1.38809E-10 1.07663E-18-5.33958E-19
 -1      1261 9.52532E-05-2.86257E-05-2.85562E-05 1.20514E-09 4.50181E-20 6.26616E-20
 -1      1262 9.52505E-05-2.86157E-05-2.85589E-05 2.90561E-09-3.23916E-18 5.83365E-19
 -1      1263 9.52434E-05-2.85932E-05-2.85637E-05 4.61973E-09-1.29850E-18-3.68017E-19
 -1      1264 9.52379E-05-2.85752E-05-2.85679E-05 1.77085E-09 3.75192E-19-2.45643E-19
 -1      1265 3.43025E-05-1.06114E-04 1.78408E-05-1.35741E-05 1.37651E-17 2.61585E-18
 -1      1266 1.70117E-05-6.30448E-05 9.18066E-06-2.43829E-05 2.31926E-17 7.78931E-18
 -1      1267 8.02152E-06-7.04736E-06-6.63254E-06 1.40846E-06 2.43115E-17 1.46952E-17
 -1      1268 3.89406E-05 2.46667E-05-2.76188E-05 5.73996E-05 1.83078E-17 1.74404E-17
 -1      1269 1.17930E-04 9.05139E-06-4.84635E-05 1.04212E-04 1.28173E-17 1.87398E-17
 -1      1270 2.17546E-04-3.93264E-05-6.55454E-05 1.03388E-04 5.77549E-18 1.34687E-17
 -1      1271 2.95015E-04-8.50008E-05-7.57561E-05 5.08230E-05 9.91399E-19 3.56516E-18
 -1      1272 3.02314E-04-8.92284E-05-7.68787E-05-3.01037E-05 1.67689E-18-9.32541E-18
 -1      1273 2.43967E-04-5.45246E-05-6.91017E-05-9.55010E-05 5.30370E-18-1.64240E-17
 -1      1274 1.47187E-04-3.21370E-06-5.42018E-05-1.10147E-04 1.12274E-17-1.93395E-17
 -1      1275 6.10631E-05 2.56359E-05-3.52109E-05-7.75654E-05 1.72092E-17-1.95817E-17
 -1      1276 1.46118E-05 1.25271E-05-1.55697E-05-2.44916E-05 1.96258E-17-1.55566E-17
 -1      1277 9.79977E-06-3.55357E-05 2.37168E-06 1.53985E-05 1.45283E-17-7.92061E-18
 -1      1278 2.72755E-05-9.10070E-05 1.48844E-05 2.24104E-05 4.51977E-18-1.98936E-18
 -1      1279 3.55903E-05-1.11444E-04 1.91813E-05-1.46459E-06-5.96968E-18-8.88167E-19
 -1      1280 2.63934E-05-8.90185E-05 1.44324E-05-2.47023E-05-1.44097E-17-4.27201E-18
 -1      1281 9.16319E-06-3.24984E-05 1.39133E-06-1.49054E-05-1.98358E-17-1.03787E-17
 -1      1282 1.96456E-05 1.45170E-05-1.79901E-05 3.06031E-05-1.97833E-17-1.65027E-17
 -1      1283 7.88581E-05 2.04768E-05-3.94133E-05 8.58584E-05-1.52712E-17-1.88482E-17
 -1      1284 1.76140E-04-1.71469E-05-5.91150E-05 1.11397E-04-8.12050E-18-1.57446E-17
 -1      1285 2.72269E-04-7.03430E-05-7.31178E-05 8.05374E-05-2.24527E-18-7.42933E-18
 -1      1286 3.13967E-04-9.56627E-05-7.83430E-05 2.00051E-06-2.87991E-19 2.70373E-18
 -1      1287 2.76012E-04-7.19113E-05-7.37339E-05-7.55365E-05-3.78179E-18 1.42403E-17
 -1      1288 1.89281E-04-2.38731E-05-6.11517E-05-1.11538E-04-1.06709E-17 2.25006E-17
 -1      1289 9.26373E-05 1.70284E-05-4.30369E-05-9.35131E-05-1.76056E-17 2.38660E-17
 -1      1290 2.65000E-05 2.06383E-05-2.22139E-05-4.19098E-05-2.04304E-17 1.84213E-17
 -1      1291 6.84265E-06-1.56950E-05-3.53222E-06 6.80235E-06-1.91345E-17 1.08166E-17
 -1      1292 1.85800E-05-6.88051E-05 1.04394E-05 2.63284E-05-1.53194E-17 6.06518E-18
 -1      1293 3.41138E-05-1.06912E-04 1.81495E-05 1.36075E-05-2.80918E-18 1.37627E-18
 -1      1294 1.04078E-04-2.19307E-05-3.77572E-05-1.70747E-05-4.19281E-19 5.95422E-18
 -1      1295 9.03561E-05-6.73064E-06-3.60046E-05-2.00812E-05-1.03407E-18-8.49362E-19
 -1      1296 9.25946E-05-6.79859E-06-3.71612E-05-2.53808E-05-1.36288E-18 6.78420E-19
 -1      1297 8.60575E-05-4.13920E-06-3.51741E-05-1.59727E-05-9.48624E-19-2.95217E-18
 -1      1298 8.72678E-05-4.13540E-06-3.56195E-05-1.84179E-05-1.10644E-18-2.06456E-18
 -1      1299 9.22314E-05-1.05298E-05-3.51027E-05-1.85870E-05-1.73957E-18-6.86467E-19
 -1      1300 8.42614E-05-3.19727E-06-3.47542E-05-1.23337E-05-7.05406E-19-3.91313E-18
 -1      1301 8.48681E-05-3.16994E-06-3.49704E-05-1.41516E-05-8.13496E-19-3.49634E-18
 -1      1302 8.80315E-05-7.42436E-06-3.46292E-05-1.49115E-05-1.44172E-18-2.41457E-18
 -1      1303 8.33069E-05-2.69356E-06-3.45391E-05-9.22440E-06-4.34078E-19-4.31504E-18
 -1      1304 8.36423E-05-2.67955E-06-3.46504E-05-1.07533E-05-5.21772E-19-4.14085E-18
 -1      1305 8.60040E-05-5.94479E-06-3.43794E-05-1.14567E-05-1.02106E-18-3.26020E-18
 -1      1306 8.27441E-05-2.38015E-06-3.44222E-05-6.52694E-06-2.06573E-19-4.42032E-18
 -1      1307 8.29432E-05-2.37385E-06-3.44834E-05-7.85552E-06-2.85510E-19-4.37688E-18
 -1      1308 8.48819E-05-5.09894E-06-3.42473E-05-8.48202E-06-6.08858E-19-3.59309E-18
 -1      1309 8.24013E-05-2.18013E-06-3.43559E-05-4.02581E-06 7.25107E-21-4.34002E-18
 -1      1310 8.25190E-05-2.17769E-06-3.43902E-05-5.26422E-06-6.84641E-20-4.41284E-18
 -1      1311 8.42009E-05-4.57162E-06-3.41739E-05-5.84821E-06-2.41042E-19-3.71121E-18
 -1      1312 8.22240E-05-2.06821E-06-3.43239E-05-1.67020E-06 2.28855E-19-4.12952E-18
 -1      1313 8.22785E-05-2.06741E-06-3.43394E-05-2.84541E-06 1.33897E-19-4.22092E-18
 -1      1314 8.37988E-05-4.25419E-06-3.41337E-05-3.40779E-06 8.69987E-20-3.55888E-18
 -1      1315 8.21872E-05-2.03345E-06-3.43190E-05 6.26575E-07 4.30888E-19-3.86279E-18
 -1      1316 8.21860E-05-2.03352E-06-3.43188E-05-5.29162E-07 3.48099E-19-4.00709E-18
 -1      1317 8.36123E-05-4.10597E-06-3.41156E-05-1.09103E-06 4.63464E-19-3.37420E-18
 -1      1318 8.22863E-05-2.07272E-06-3.43400E-05 2.94736E-06 6.33190E-19-3.62026E-18
 -1      1319 8.22294E-05-2.07363E-06-3.43242E-05 1.76895E-06 5.77127E-19-3.78089E-18
 -1      1320 8.36173E-05-4.11122E-06-3.41156E-05 1.18727E-06 8.25970E-19-3.11765E-18
 -1      1321 8.25346E-05-2.18986E-06-3.43912E-05 5.37725E-06 8.24666E-19-3.27274E-18
 -1      1322 8.24140E-05-2.19172E-06-3.43565E-05 4.13182E-06 7.60043E-19-3.49077E-18
 -1      1323 8.38142E-05-4.27053E-06-3.41335E-05 3.50955E-06 1.12611E-18-2.89652E-18
 -1      1324 8.29620E-05-2.39058E-06-3.44836E-05 7.96400E-06 9.92663E-19-2.67566E-18
 -1      1325 8.27608E-05-2.39736E-06-3.44222E-05 6.62555E-06 9.03010E-19-3.04361E-18
 -1      1326 8.42253E-05-4.59840E-06-3.41729E-05 5.93965E-06 1.40392E-18-2.52463E-18
 -1      1327 8.36805E-05-2.71000E-06-3.46528E-05 1.09149E-05 1.25084E-18-1.82030E-18
 -1      1328 8.33386E-05-2.72458E-06-3.45398E-05 9.36826E-06 1.12808E-18-2.32113E-18
 -1      1329 8.49202E-05-5.14288E-06-3.42450E-05 8.59385E-06 1.73368E-18-1.87491E-18
 -1      1330 8.49242E-05-3.21462E-06-3.49768E-05 1.43643E-05 1.43945E-18-4.54168E-19
 -1      1331 8.43138E-05-3.24826E-06-3.47577E-05 1.25185E-05 1.30614E-18-1.26802E-18
 -1      1332 8.60821E-05-6.02525E-06-3.43782E-05 1.16199E-05 2.04786E-18-9.77741E-19
 -1      1333 8.73625E-05-4.13600E-06-3.56396E-05 1.86561E-05 1.45721E-18 1.85323E-18
 -1      1334 8.61217E-05-4.19596E-06-3.51803E-05 1.62338E-05 1.35872E-18 4.63883E-19
 -1      1335 8.81547E-05-7.54721E-06-3.46299E-05 1.51529E-05 2.22942E-18 5.24022E-19
 -1      1336 9.33915E-05-6.84510E-06-3.70565E-05 2.47304E-05 1.10855E-18 5.84299E-18
 -1      1337 9.01709E-05-6.48991E-06-3.60262E-05 2.07542E-05 1.13164E-18 3.46114E-18
 -1      1338 9.24558E-05-1.07621E-05-3.50868E-05 1.92251E-05 2.05612E-18 3.05138E-18
 -1      1339 1.23069E-04-2.48247E-05-3.88650E-05 2.80827E-05 3.88365E-19 1.26733E-17
 -1      1340 9.98726E-05-1.44186E-05-3.72585E-05 2.37448E-05 4.65656E-19 8.04840E-18
 -1      1341 1.01579E-04-1.93629E-05-3.53476E-05 2.10209E-05 1.72081E-18 6.67674E-18
 -1      1342 1.02285E-04-2.77269E-05-3.46426E-05 7.17093E-06 8.29695E-19 1.25011E-17
 -1      1343 1.04874E-04-3.01579E-05-3.34338E-05-7.77252E-06-1.17748E-18 6.37964E-18
 -1      1344 9.81442E-05-2.78204E-05-3.07159E-05-4.83205E-06-1.08696E-18 4.94826E-18
 -1      1345 9.54931E-05-2.78474E-05-2.92482E-05-2.33491E-06-9.02381E-19 4.41585E-18
 -1      1346 9.34060E-05-2.75965E-05-2.82542E-05-1.88897E-06-8.81179E-19 3.06697E-18
 -1      1347 9.95102E-05-2.80699E-05-3.09852E-05-7.57801E-06-1.90614E-18 2.41171E-18
 -1      1348 9.18520E-05-2.72748E-05-2.76638E-05-6.65335E-07-6.98981E-19 2.66662E-18
 -1      1349 9.12985E-05-2.72252E-05-2.74115E-05-5.48381E-07-5.94584E-19 1.78107E-18
 -1      1350 9.49829E-05-2.78424E-05-2.89007E-05-2.79345E-06-1.44258E-18 1.59316E-18
 -1      1351 9.07179E-05-2.70893E-05-2.72218E-05 4.70263E-08-3.74342E-19 1.43752E-18
 -1      1352 9.08542E-05-2.71759E-05-2.72500E-05 1.16826E-07-3.70888E-19 8.48184E-19
 -1      1353 9.30796E-05-2.76467E-05-2.80761E-05-6.53358E-07-1.00429E-18 9.41530E-19
 -1      1354 9.08162E-05-2.71705E-05-2.72449E-05 4.50477E-07-2.33854E-19 7.11481E-19
 -1      1355 9.13118E-05-2.73423E-05-2.73908E-05 4.96081E-07-2.78580E-19 4.19718E-19
 -1      1356 9.25019E-05-2.76046E-05-2.78304E-05 4.56526E-07-6.17920E-19 3.35895E-19
 -1      1357 9.16086E-05-2.74280E-05-2.74888E-05 7.14620E-07-2.69510E-19 1.96829E-19
 -1      1358 9.23325E-05-2.76597E-05-2.77019E-05 7.49200E-07-1.93645E-19-2.73023E-19
 -1      1359 9.27508E-05-2.77298E-05-2.78805E-05 1.12538E-06-5.98912E-19-1.03762E-20
 -1      1360 9.28614E-05-2.78108E-05-2.78698E-05 9.18240E-07-7.74837E-20-3.55628E-19
 -1      1361 9.37633E-05-2.80913E-05-2.81350E-05 9.49581E-07-8.23971E-20-5.67618E-19
 -1      1362 9.35472E-05-2.79872E-05-2.81102E-05 1.59636E-06-3.85400E-19-1.65307E-19
 -1      1363 9.44765E-05-2.82948E-05-2.83590E-05 1.10456E-06-1.38913E-19-6.69970E-19
 -1      1364 9.55461E-05-2.86230E-05-2.86740E-05 1.13763E-06-2.04312E-19-1.01163E-18
 -1      1365 9.47503E-05-2.83501E-05-2.84698E-05 1.98981E-06-3.43215E-19-3.57622E-19
 -1      1366 9.64263E-05-2.88743E-05-2.89493E-05 1.29882E-06-2.95373E-19-1.05929E-18
 -1      1367 9.76758E-05-2.92559E-05-2.93177E-05 1.33668E-06-2.22895E-19-1.51578E-18
 -1      1368 9.62979E-05-2.88066E-05-2.89377E-05 2.37268E-06-3.60558E-19-5.12827E-19
 -1      1369 9.87216E-05-2.95553E-05-2.96439E-05 1.51338E-06-4.19579E-20-1.59277E-18
 -1      1370 1.00173E-04-2.99990E-05-3.00717E-05 1.55706E-06-9.92286E-21-1.59445E-18
 -1      1371 9.81725E-05-2.93567E-05-2.95064E-05 2.78091E-06-2.82869E-19-3.30460E-19
 -1      1372 1.01388E-04-3.03490E-05-3.04494E-05 1.74644E-06 9.80730E-20-1.89263E-18
 -1      1373 1.03059E-04-3.08632E-05-3.09408E-05 1.79405E-06-6.64640E-20-1.92103E-18
 -1      1374 1.00377E-04-3.00078E-05-3.01734E-05 3.22306E-06-1.45896E-19-7.58359E-19
 -1      1375 1.04438E-04-3.12653E-05-3.13670E-05 1.97620E-06-5.60390E-20-1.72011E-18
 -1      1376 1.06322E-04-3.18520E-05-3.19182E-05 2.02114E-06-1.84628E-19-1.91837E-18
 -1      1377 1.02914E-04-3.07701E-05-3.09340E-05 3.67330E-06-6.51769E-20-1.11948E-18
 -1      1378 1.07836E-04-3.23028E-05-3.23810E-05 2.15062E-06 2.71667E-21-1.46478E-18
 -1      1379 1.09867E-04-3.29480E-05-3.29706E-05 2.17871E-06-1.80292E-20-1.31520E-18
 -1      1380 1.05756E-04-3.16511E-05-3.17723E-05 4.05568E-06 1.51539E-19-8.72616E-19
 -1      1381 1.11443E-04-3.34335E-05-3.34416E-05 2.17444E-06-1.52577E-19-1.22715E-18
 -1      1382 1.13457E-04-3.40931E-05-3.40179E-05 2.16052E-06-3.35711E-19-1.41942E-18
 -1      1383 1.08812E-04-3.26457E-05-3.26488E-05 4.22201E-06-9.45017E-20-6.57973E-19
 -1      1384 1.14946E-04-3.45804E-05-3.44449E-05 1.90087E-06-3.17207E-19-1.29699E-18
 -1      1385 1.16627E-04-3.51606E-05-3.49130E-05 1.80725E-06-4.21475E-19-1.73425E-18
 -1      1386 1.11882E-04-3.37199E-05-3.34885E-05 3.93298E-06-4.15473E-19-5.84916E-19
 -1      1387 1.17790E-04-3.55867E-05-3.52161E-05 1.14737E-06-2.74697E-19-1.65841E-18
 -1      1388 1.18647E-04-3.59266E-05-3.54355E-05 9.30518E-07-3.38734E-19-1.97848E-18
 -1      1389 1.14602E-04-3.47812E-05-3.41729E-05 2.86938E-06-4.95977E-19-4.75913E-19
 -1      1390 1.19156E-04-3.61853E-05-3.55174E-05-2.27225E-07-3.96385E-19-1.96494E-18
 -1      1391 1.18586E-04-3.60652E-05-3.53281E-05-5.89567E-07-1.68427E-19-2.23723E-18
 -1      1392 1.16419E-04-3.56335E-05-3.45490E-05 7.28533E-07-3.87723E-19 1.85057E-20
 -1      1393 1.18089E-04-3.60092E-05-3.51073E-05-2.15167E-06-2.71051E-19-2.69658E-18
 -1      1394 1.15624E-04-3.52210E-05-3.44047E-05-2.60788E-06-5.70199E-19-3.42837E-18
 -1      1395 1.16634E-04-3.59457E-05-3.44703E-05-2.52554E-06-5.55918E-19-6.53198E-19
 -1      1396 1.13927E-04-3.47119E-05-3.38748E-05-4.12316E-06-2.77628E-19-3.77671E-18
 -1      1397 1.09668E-04-3.32228E-05-3.27225E-05-4.49594E-06-3.82091E-19-3.87338E-18
 -1      1398 1.14631E-04-3.53047E-05-3.38764E-05-6.28064E-06-8.60758E-19-9.55268E-19
 -1      1399 1.07012E-04-3.22615E-05-3.20070E-05-5.14989E-06 4.02227E-19-4.31060E-18
 -1      1400 1.02037E-04-3.04194E-05-3.07143E-05-5.16450E-06-9.65130E-20-3.87290E-18
 -1      1401 1.10356E-04-3.34726E-05-3.28831E-05-9.02577E-06-3.47763E-19-1.67308E-18
 -1      1402 9.93244E-05-2.93297E-05-3.00579E-05-4.21087E-06-3.49864E-19-3.86888E-18
 -1      1403 9.55594E-05-2.78823E-05-2.91084E-05-3.70497E-06 1.48006E-19-3.79084E-18
 -1      1404 1.04911E-04-3.08540E-05-3.18021E-05-8.78717E-06-6.39576E-20-2.85119E-18
 -1      1405 9.40931E-05-2.72591E-05-2.87759E-05-1.22990E-06 9.58074E-20-3.82239E-18
 -1      1406 9.33259E-05-2.69584E-05-2.85852E-05-3.92171E-07-2.21856E-19-3.84568E-18
 -1      1407 1.00591E-04-2.86447E-05-3.10322E-05-4.62880E-06 1.45054E-20-2.78532E-18
 -1      1408 9.39393E-05-2.72190E-05-2.87239E-05 2.42566E-06-6.96777E-19-3.81085E-18
 -1      1409 9.65688E-05-2.82370E-05-2.93838E-05 3.12562E-06-9.89070E-19-5.31905E-18
 -1      1410 9.97016E-05-2.81748E-05-3.08838E-05 1.91075E-06-8.04470E-19-2.96100E-18
 -1      1411 9.89157E-05-2.92047E-05-2.99355E-05 4.83742E-06-3.43842E-19-5.18686E-18
 -1      1412 1.03650E-04-3.09878E-05-3.11498E-05 5.05160E-06 3.30608E-19-5.22963E-18
 -1      1413 1.02772E-04-2.97542E-05-3.14223E-05 7.47105E-06-7.69926E-19-2.71985E-18
 -1      1414 1.06515E-04-3.20775E-05-3.18854E-05 5.05675E-06 5.23499E-19-5.52223E-18
 -1      1415 1.11329E-04-3.38056E-05-3.31648E-05 4.81032E-06 2.05405E-20-5.32053E-18
 -1      1416 1.08109E-04-3.23922E-05-3.24361E-05 9.47067E-06 2.29359E-19-3.31677E-18
 -1      1417 1.13559E-04-3.45433E-05-3.38130E-05 3.57290E-06-6.75555E-19-5.49439E-18
 -1      1418 1.16934E-04-3.56718E-05-3.47513E-05 3.12533E-06-6.07720E-19-6.21976E-18
 -1      1419 1.13195E-04-3.46951E-05-3.35396E-05 7.84055E-06-4.51138E-19-3.88762E-18
 -1      1420 1.18008E-04-3.59296E-05-3.51301E-05 1.51419E-06-4.10427E-19-6.68087E-18
 -1      1421 1.19446E-04-3.63446E-05-3.55600E-05 1.10040E-06-2.70045E-19-7.30018E-18
 -1      1422 1.16344E-04-3.58859E-05-3.43635E-05 4.31950E-06-1.08187E-18-4.93195E-18
 -1      1423 1.19406E-04-3.62232E-05-3.56248E-05-2.49152E-07 3.31375E-19-7.24216E-18
 -1      1424 1.19191E-04-3.60829E-05-3.55926E-05-5.25918E-07 4.94019E-19-6.95345E-18
 -1      1425 1.17165E-04-3.59767E-05-3.47056E-05 7.49088E-07 1.31145E-19-5.44620E-18
 -1      1426 1.18354E-04-3.57380E-05-3.54005E-05-1.37939E-06 6.98425E-19-6.23021E-18
 -1      1427 1.17077E-04-3.52733E-05-3.50554E-05-1.51685E-06 7.14019E-19-5.38509E-18
 -1      1428 1.16108E-04-3.53536E-05-3.45593E-05-1.86239E-06 1.07324E-18-4.79944E-18
 -1      1429 1.15799E-04-3.48321E-05-3.47037E-05-1.91007E-06 1.80855E-20-4.89623E-18
 -1      1430 1.14024E-04-3.42351E-05-3.42023E-05-1.94731E-06 4.95150E-20-4.37732E-18
 -1      1431 1.13887E-04-3.44039E-05-3.40462E-05-3.31597E-06 8.96141E-19-4.79664E-18
 -1      1432 1.12589E-04-3.37791E-05-3.37819E-05-2.01740E-06-3.19180E-19-3.69377E-18
 -1      1433 1.10714E-04-3.31734E-05-3.32416E-05-1.99638E-06-8.35722E-19-4.58480E-18
 -1      1434 1.11138E-04-3.33832E-05-3.33258E-05-3.83872E-06-2.08843E-19-3.34386E-18
 -1      1435 1.09312E-04-3.27480E-05-3.28178E-05-1.88018E-06-9.75241E-19-4.43639E-18
 -1      1436 1.07568E-04-3.21989E-05-3.23094E-05-1.83183E-06-7.98606E-19-5.58003E-18
 -1      1437 1.08312E-04-3.24251E-05-3.25359E-05-3.76289E-06-1.51493E-18-3.34460E-18
 -1      1438 1.06302E-04-3.18255E-05-3.19206E-05-1.62977E-06-7.78046E-19-5.88558E-18
 -1      1439 1.04795E-04-3.13594E-05-3.14781E-05-1.57303E-06-1.63365E-19-6.70502E-18
 -1      1440 1.05680E-04-3.15865E-05-3.17714E-05-3.37019E-06-1.03964E-18-2.63971E-18
 -1      1441 1.03710E-04-3.10450E-05-3.11423E-05-1.34740E-06 6.81873E-19-5.91427E-18
 -1      1442 1.02469E-04-3.06662E-05-3.07761E-05-1.29237E-06 6.45044E-19-5.24584E-18
 -1      1443 1.03375E-04-3.08830E-05-3.10852E-05-2.85196E-06 4.61879E-19-2.46278E-18
 -1      1444 1.01574E-04-3.04095E-05-3.04978E-05-1.07685E-06-1.99207E-19-5.35320E-18
 -1      1445 1.00587E-04-3.01111E-05-3.02054E-05-1.02812E-06-3.55679E-19-5.56115E-18
 -1      1446 1.01439E-04-3.03098E-05-3.05001E-05-2.32051E-06 3.19490E-19-3.44400E-18
 -1      1447 9.98695E-05-2.99067E-05-2.99819E-05-8.38152E-07-2.11158E-19-5.81190E-18
 -1      1448 9.91045E-05-2.96775E-05-2.97548E-05-7.97207E-07 2.40445E-19-5.89014E-18
 -1      1449 9.98656E-05-2.98535E-05-3.00191E-05-1.83312E-06-2.21282E-19-3.97997E-18
 -1      1450 9.85432E-05-2.95181E-05-2.95798E-05-6.37741E-07 3.50461E-19-5.88572E-18
 -1      1451 9.79642E-05-2.93460E-05-2.94075E-05-6.04512E-07-4.20197E-19-5.61252E-18
 -1      1452 9.86182E-05-2.94973E-05-2.96349E-05-1.41342E-06 1.77865E-19-4.43283E-18
 -1      1453 9.75342E-05-2.92242E-05-2.92733E-05-4.75005E-07-8.74223E-19-4.84482E-18
 -1      1454 9.71054E-05-2.90977E-05-2.91454E-05-4.48705E-07 2.23397E-20-5.55278E-18
 -1      1455 9.76509E-05-2.92245E-05-2.93351E-05-1.06634E-06-5.89742E-19-4.54342E-18
 -1      1456 9.67826E-05-2.90065E-05-2.90448E-05-3.46080E-07 8.13906E-19-5.18737E-18
 -1      1457 9.64723E-05-2.89156E-05-2.89520E-05-3.25677E-07 1.99764E-20-4.83373E-18
 -1      1458 9.69162E-05-2.90193E-05-2.91062E-05-7.87428E-07 7.06407E-19-3.41277E-18
 -1      1459 9.62352E-05-2.88487E-05-2.88781E-05-2.45950E-07-3.18283E-19-4.12885E-18
 -1      1460 9.60164E-05-2.87852E-05-2.88125E-05-2.30390E-07 7.23113E-20-3.98947E-18
 -1      1461 9.63694E-05-2.88681E-05-2.89350E-05-5.68207E-07 6.30261E-19-2.37790E-18
 -1      1462 9.58464E-05-2.87373E-05-2.87595E-05-1.69509E-07 2.38068E-19-4.14273E-18
 -1      1463 9.56970E-05-2.86944E-05-2.87145E-05-1.57830E-07-2.09665E-19-4.71937E-18
 -1      1464 9.59715E-05-2.87591E-05-2.88099E-05-3.99061E-07-1.95835E-19-2.49788E-18
 -1      1465 9.55787E-05-2.86612E-05-2.86777E-05-1.12078E-07-2.30376E-19-4.03717E-18
 -1      1466 9.54813E-05-2.86337E-05-2.86482E-05-1.03446E-07-3.69693E-19-4.07095E-18
 -1      1467 9.56893E-05-2.86827E-05-2.87206E-05-2.70696E-07 5.26445E-19-2.37468E-18
 -1      1468 9.54021E-05-2.86115E-05-2.86236E-05-6.96014E-08-8.52372E-19-3.04869E-18
 -1      1469 9.53430E-05-2.85952E-05-2.86055E-05-6.33189E-08 2.43617E-20-3.30483E-18
 -1      1470 9.54957E-05-2.86311E-05-2.86589E-05-1.74810E-07-1.85204E-19-2.28416E-18
 -1      1471 9.52928E-05-2.85812E-05-2.85900E-05-3.86993E-08 9.05822E-19-3.77382E-18
 -1      1472 9.52614E-05-2.85730E-05-2.85802E-05-3.42018E-08 1.74213E-18-1.93715E-18
 -1      1473 9.53687E-05-2.85979E-05-2.86180E-05-1.04335E-07 9.28672E-19-2.70610E-18
 -1      1474 9.52325E-05-2.85650E-05-2.85713E-05-1.66639E-08 1.04474E-18-1.78803E-18
 -1      1475 9.52207E-05-2.85625E-05-2.85674E-05-1.35090E-08 1.02879E-18-4.62880E-19
 -1      1476 9.52909E-05-2.85782E-05-2.85925E-05-5.34877E-08 1.80368E-18-8.87037E-19
 -1      1477 9.52068E-05-2.85587E-05-2.85632E-05-1.47432E-09 9.53694E-19-1.17204E-18
 -1      1478 9.52085E-05-2.85602E-05-2.85633E-05 6.38005E-10 1.79888E-19-4.36004E-19
 -1      1479 9.52484E-05-2.85684E-05-2.85781E-05-1.77911E-08 1.08792E-18-9.05294E-19
 -1      1480 9.52045E-05-2.85594E-05-2.85620E-05 7.98550E-09 4.71676E-19-1.43494E-19
 -1      1481 9.52141E-05-2.85634E-05-2.85644E-05 9.12992E-09 6.44036E-19 1.13199E-18
 -1      1482 9.52305E-05-2.85654E-05-2.85713E-05 5.66489E-09 5.72676E-19-8.78626E-19
 -1      1483 9.52155E-05-2.85642E-05-2.85645E-05 1.15069E-08-5.36539E-19 1.12772E-18
 -1      1484 9.52278E-05-2.85696E-05-2.85672E-05 1.17800E-08-9.60431E-19 6.90910E-19
 -1      1485 9.52279E-05-2.85675E-05-2.85689E-05 1.76370E-08 2.65929E-19 5.23168E-19
 -1      1486 9.52338E-05-2.85739E-05-2.85671E-05 4.44760E-09-7.99131E-19 2.52571E-19
 -1      1487 9.52357E-05-2.85768E-05-2.85677E-05 1.39716E-08-9.51549E-19 1.53849E-18
 -1      1488 9.64969E-05-2.83431E-05-2.97419E-05 2.86438E-06 8.27975E-19 1.06455E-17
 -1      1489 1.02297E-04-2.93292E-05-3.20807E-05 4.32142E-06 7.31466E-19 1.18333E-17
 -1      1490 1.02202E-04-2.67097E-05-3.26578E-05 1.25009E-05 1.37812E-18 8.37197E-18
 -1      1491 9.22172E-05-2.74829E-05-2.78173E-05 1.01779E-06 6.43163E-19 8.95174E-18
 -1      1492 9.40212E-05-2.75964E-05-2.86865E-05 1.34159E-06 5.64971E-19 9.90714E-18
 -1      1493 9.65870E-05-2.80638E-05-2.95627E-05 4.60955E-06 1.25448E-18 7.03783E-18
 -1      1494 9.06929E-05-2.71462E-05-2.72147E-05 1.70094E-07 4.28658E-19 7.83603E-18
 -1      1495 9.11462E-05-2.71143E-05-2.74371E-05 3.40628E-07 4.14530E-19 8.41443E-18
 -1      1496 9.34086E-05-2.76808E-05-2.82138E-05 1.56455E-06 9.65472E-19 5.90371E-18
 -1      1497 9.05666E-05-2.71415E-05-2.71589E-05-2.65892E-07 4.38985E-19 6.89252E-18
 -1      1498 9.03979E-05-2.70143E-05-2.71241E-05-1.63640E-07 3.48981E-19 7.47501E-18
 -1      1499 9.21829E-05-2.74991E-05-2.77334E-05 1.58095E-07 7.07127E-19 5.09870E-18
 -1      1500 9.12131E-05-2.73446E-05-2.73575E-05-5.23525E-07 2.60387E-19 6.22821E-18
 -1      1501 9.07108E-05-2.71497E-05-2.72094E-05-4.54333E-07 2.33295E-19 6.66665E-18
 -1      1502 9.20727E-05-2.75363E-05-2.76684E-05-6.04695E-07 5.29356E-19 4.50623E-18
 -1      1503 9.23460E-05-2.76872E-05-2.77023E-05-6.98810E-07 8.19802E-20 5.83671E-18
 -1      1504 9.16337E-05-2.74427E-05-2.74905E-05-6.45754E-07 1.68341E-19 6.06536E-18
 -1      1505 9.26400E-05-2.77360E-05-2.78276E-05-1.07703E-06 2.84699E-19 4.15277E-18
 -1      1506 9.38287E-05-2.81322E-05-2.81505E-05-8.37461E-07 2.75521E-19 5.30892E-18
 -1      1507 9.29602E-05-2.78471E-05-2.78924E-05-7.91379E-07 1.73152E-19 5.62722E-18
 -1      1508 9.36583E-05-2.80537E-05-2.81286E-05-1.41227E-06 3.83443E-19 3.63457E-18
 -1      1509 9.55991E-05-2.86623E-05-2.86845E-05-9.62733E-07 1.78577E-19 4.86021E-18
 -1      1510 9.45947E-05-2.83391E-05-2.83860E-05-9.18324E-07 2.29096E-19 5.13401E-18
 -1      1511 9.50117E-05-2.84633E-05-2.85336E-05-1.68586E-06 4.52999E-19 3.27335E-18
 -1      1512 9.76305E-05-2.92711E-05-2.92960E-05-1.08399E-06 2.83003E-19 4.53632E-18
 -1      1513 9.64959E-05-2.89093E-05-2.89590E-05-1.03882E-06 1.84117E-19 4.84577E-18
 -1      1514 9.66411E-05-2.89522E-05-2.90231E-05-1.93432E-06 3.02135E-19 2.92228E-18
 -1      1515 9.99032E-05-2.99547E-05-2.99781E-05-1.19810E-06 3.21144E-19 4.19102E-18
 -1      1516 9.86431E-05-2.95544E-05-2.96047E-05-1.15278E-06 2.02370E-19 4.35076E-18
 -1      1517 9.85126E-05-2.95145E-05-2.95846E-05-2.16732E-06 2.99016E-19 2.60591E-18
 -1      1518 1.02377E-04-3.07038E-05-3.07170E-05-1.28764E-06 1.23490E-19 3.78760E-18
 -1      1519 1.01011E-04-3.02706E-05-3.03140E-05-1.24670E-06 2.74686E-19 4.07412E-18
 -1      1520 1.00592E-04-3.01454E-05-3.02049E-05-2.36867E-06 3.10401E-19 2.51158E-18
 -1      1521 1.04960E-04-3.14946E-05-3.14826E-05-1.31745E-06 2.50139E-19 3.77986E-18
 -1      1522 1.03539E-04-3.10454E-05-3.10666E-05-1.29078E-06 2.24245E-19 3.86684E-18
 -1      1523 1.02821E-04-3.08341E-05-3.08625E-05-2.49224E-06 3.52394E-19 2.34829E-18
 -1      1524 1.07473E-04-3.22770E-05-3.22176E-05-1.23198E-06-5.38743E-20 3.60481E-18
 -1      1525 1.06102E-04-3.18471E-05-3.18216E-05-1.23617E-06 9.66188E-20 3.74307E-18
 -1      1526 1.05090E-04-3.15558E-05-3.15189E-05-2.45678E-06 2.73212E-19 2.68503E-18
 -1      1527 1.09612E-04-3.29624E-05-3.28289E-05-9.57953E-07 3.82794E-19 3.20031E-18
 -1      1528 1.08471E-04-3.26129E-05-3.25072E-05-1.01624E-06 1.55771E-19 3.50832E-18
 -1      1529 1.07208E-04-3.22616E-05-3.21125E-05-2.14556E-06 2.85318E-19 2.27576E-18
 -1      1530 1.10937E-04-3.34159E-05-3.31858E-05-4.20445E-07-3.87590E-19 3.46868E-18
 -1      1531 1.10289E-04-3.32367E-05-3.30151E-05-5.58724E-07-6.09467E-21 3.14611E-18
 -1      1532 1.08889E-04-3.28674E-05-3.25547E-05-1.42227E-06-7.99387E-21 2.21604E-18
 -1      1533 1.10913E-04-3.34622E-05-3.31382E-05 4.17161E-07-4.69508E-20 4.09102E-18
 -1      1534 1.11077E-04-3.35632E-05-3.32065E-05 1.82070E-07-3.21158E-19 3.56783E-18
 -1      1535 1.09750E-04-3.32461E-05-3.27378E-05-1.79579E-07-4.21141E-19 2.60494E-18
 -1      1536 1.09054E-04-3.29248E-05-3.25630E-05 1.48501E-06 4.69753E-19 3.36103E-18
 -1      1537 1.10313E-04-3.34031E-05-3.29408E-05 1.16688E-06 3.39733E-19 3.96801E-18
 -1      1538 1.09374E-04-3.32328E-05-3.25602E-05 1.56541E-06 2.71673E-19 1.99079E-18
 -1      1539 1.05193E-04-3.17141E-05-3.14427E-05 2.53443E-06-1.95962E-19 3.15022E-18
 -1      1540 1.07623E-04-3.25921E-05-3.21354E-05 2.20166E-06 1.48350E-19 3.29406E-18
 -1      1541 1.07453E-04-3.26647E-05-3.19730E-05 3.54148E-06 3.51267E-19 2.49533E-18
 -1      1542 9.98203E-05-2.99560E-05-2.99438E-05 3.13756E-06 6.84153E-20 3.51402E-18
 -1      1543 1.03094E-04-3.11057E-05-3.08450E-05 2.91528E-06-1.66114E-19 3.40666E-18
 -1      1544 1.04033E-04-3.14772E-05-3.10357E-05 5.14362E-06-2.02348E-19 2.34146E-18
 -1      1545 9.42494E-05-2.80799E-05-2.84346E-05 2.85304E-06-2.25155E-19 3.81906E-18
 -1      1546 9.75512E-05-2.91939E-05-2.93185E-05 2.87446E-06-1.93315E-19 3.64372E-18
 -1      1547 9.97424E-05-2.98402E-05-2.99476E-05 5.56260E-06-2.74839E-19 2.94991E-18
 -1      1548 9.03146E-05-2.67348E-05-2.73866E-05 1.54178E-06 1.74171E-19 3.89090E-18
 -1      1549 9.25509E-05-2.74146E-05-2.79723E-05 1.85493E-06 3.94069E-20 3.89010E-18
 -1      1550 9.58174E-05-2.82324E-05-2.90142E-05 4.21614E-06-1.16269E-19 2.57527E-18
 -1      1551 8.95418E-05-2.64801E-05-2.71726E-05-3.99938E-07 7.30228E-19 2.52166E-18
 -1      1552 8.98492E-05-2.64403E-05-2.72490E-05 1.02431E-07 5.67790E-19 3.64224E-18
 -1      1553 9.36859E-05-2.73018E-05-2.85397E-05 1.27948E-06 7.82420E-19 2.48160E-18
 -1      1554 9.22657E-05-2.74336E-05-2.78751E-05-2.18423E-06 9.49868E-20 1.82461E-18
 -1      1555 9.05109E-05-2.66846E-05-2.74119E-05-1.70154E-06 3.27894E-19 2.21351E-18
 -1      1556 9.42284E-05-2.74946E-05-2.86900E-05-2.18229E-06 8.33216E-19 1.51267E-18
 -1      1557 9.74151E-05-2.91885E-05-2.92425E-05-3.12380E-06-1.23678E-19 2.55725E-18
 -1      1558 9.42787E-05-2.80331E-05-2.84070E-05-2.84087E-06-3.94294E-19 1.71744E-18
 -1      1559 9.72307E-05-2.87337E-05-2.94140E-05-4.78306E-06-1.80921E-19 1.42025E-18
 -1      1560 1.03173E-04-3.10885E-05-3.08255E-05-3.03307E-06-6.11444E-19 3.25954E-18
 -1      1561 9.97388E-05-2.99304E-05-2.98908E-05-3.00171E-06-2.06329E-19 3.02100E-18
 -1      1562 1.01525E-04-3.04663E-05-3.04723E-05-5.66833E-06-6.49883E-19 2.22060E-18
 -1      1563 1.07923E-04-3.25910E-05-3.21891E-05-2.20868E-06-9.07483E-20 3.31206E-18
 -1      1564 1.05127E-04-3.17293E-05-3.14056E-05-2.36087E-06-1.63881E-19 3.11181E-18
 -1      1565 1.05684E-04-3.20464E-05-3.15489E-05-4.89865E-06-2.50517E-19 1.86043E-18
 -1      1566 1.10816E-04-3.34509E-05-3.30698E-05-1.12305E-06 1.28865E-19 2.99721E-18
 -1      1567 1.09131E-04-3.29969E-05-3.25783E-05-1.34857E-06 3.19490E-19 3.33461E-18
 -1      1568 1.08683E-04-3.30742E-05-3.23805E-05-3.16579E-06 3.45986E-19 1.50947E-18
 -1      1569 1.11778E-04-3.36857E-05-3.34089E-05-1.45043E-07-3.54530E-19 3.28026E-18
 -1      1570 1.11223E-04-3.36013E-05-3.32302E-05-3.57808E-07-4.52521E-19 2.82757E-18
 -1      1571 1.10138E-04-3.34712E-05-3.28326E-05-1.24925E-06-5.55965E-19 1.95860E-18
 -1      1572 1.11203E-04-3.34501E-05-3.32922E-05 5.52096E-07 2.34125E-20 3.65626E-18
 -1      1573 1.11529E-04-3.36276E-05-3.33678E-05 3.93926E-07-1.29040E-19 3.26736E-18
 -1      1574 1.10173E-04-3.33605E-05-3.28998E-05 3.34883E-07-3.96213E-19 2.08083E-18
 -1      1575 1.09635E-04-3.29280E-05-3.28662E-05 9.49534E-07 3.20645E-19 2.95698E-18
 -1      1576 1.10516E-04-3.32533E-05-3.31085E-05 8.52998E-07 2.69826E-19 2.98665E-18
 -1      1577 1.09165E-04-3.29261E-05-3.26604E-05 1.39085E-06 6.09467E-19 1.11693E-18
 -1      1578 1.07575E-04-3.22747E-05-3.22764E-05 1.10629E-06-3.91858E-19 2.91680E-18
 -1      1579 1.08720E-04-3.26575E-05-3.26026E-05 1.06077E-06 1.26484E-19 2.80021E-18
 -1      1580 1.07537E-04-3.23311E-05-3.22231E-05 1.94228E-06 1.90751E-19 1.43868E-18
 -1      1581 1.05391E-04-3.15994E-05-3.16360E-05 1.10100E-06 6.09200E-19 2.30196E-18
 -1      1582 1.06591E-04-3.19801E-05-3.19840E-05 1.09097E-06 2.52903E-19 2.64235E-18
 -1      1583 1.05645E-04-3.16920E-05-3.16901E-05 2.10981E-06 3.28338E-19 1.44466E-18
 -1      1584 1.03317E-04-3.09681E-05-3.10196E-05 1.00255E-06 5.49487E-19 1.14952E-18
 -1      1585 1.04444E-04-3.13134E-05-3.13498E-05 1.01400E-06 6.08009E-19 1.86143E-18
 -1      1586 1.03740E-04-3.10800E-05-3.11389E-05 2.02873E-06 1.10195E-18 1.04217E-18
 -1      1587 1.01480E-04-3.04145E-05-3.04687E-05 8.61006E-07-4.35891E-20 9.21145E-19
 -1      1588 1.02467E-04-3.07096E-05-3.07602E-05 8.83517E-07 1.33773E-19 9.16245E-19
 -1      1589 1.01979E-04-3.05331E-05-3.06201E-05 1.81103E-06 3.41147E-19 2.81337E-19
 -1      1590 9.99287E-05-2.99508E-05-3.00010E-05 7.08542E-07 2.45535E-19 8.14849E-19
 -1      1591 1.00753E-04-3.01923E-05-3.02457E-05 7.35205E-07 3.96615E-19 1.49820E-18
 -1      1592 1.00440E-04-3.00670E-05-3.01611E-05 1.53582E-06 4.33208E-19 1.13858E-18
 -1      1593 9.86675E-05-2.95758E-05-2.96192E-05 5.63621E-07-5.04602E-19-4.21743E-19
 -1      1594 9.93310E-05-2.97667E-05-2.98168E-05 5.90288E-07-5.24052E-20-3.73012E-19
 -1      1595 9.91497E-05-2.96836E-05-2.97731E-05 1.25288E-06 4.46295E-19 3.68113E-19
 -1      1596 9.76731E-05-2.92815E-05-2.93172E-05 4.35408E-07-2.08615E-19 5.95535E-19
 -1      1597 9.81905E-05-2.94280E-05-2.94718E-05 4.59843E-07-6.64253E-19-4.63734E-19
 -1      1598 9.81045E-05-2.93775E-05-2.94564E-05 9.90117E-07-7.65302E-19-3.19084E-19
 -1      1599 9.69103E-05-2.90566E-05-2.90850E-05 3.27259E-07 6.63123E-19 4.68373E-19
 -1      1600 9.73026E-05-2.91660E-05-2.92026E-05 3.48461E-07 4.87337E-19 9.84009E-19
 -1      1601 9.72812E-05-2.91392E-05-2.92057E-05 7.60750E-07 1.13693E-19-7.98348E-19
 -1      1602 9.63408E-05-2.88893E-05-2.89112E-05 2.39178E-07 9.66436E-20-8.86258E-19
 -1      1603 9.66300E-05-2.89687E-05-2.89982E-05 2.56887E-07 6.41691E-19 2.25124E-19
 -1      1604 9.66495E-05-2.89584E-05-2.90123E-05 5.68932E-07 8.39326E-19 1.21176E-18
 -1      1605 9.59273E-05-2.87683E-05-2.87849E-05 1.69412E-07 9.93469E-20-1.31804E-18
 -1      1606 9.61342E-05-2.88240E-05-2.88472E-05 1.83785E-07-9.81987E-21-1.22717E-18
 -1      1607 9.61771E-05-2.88245E-05-2.88670E-05 4.13625E-07 4.31940E-19 1.72628E-18
 -1      1608 9.56368E-05-2.86836E-05-2.86958E-05 1.15440E-07-4.03172E-19-8.76883E-19
 -1      1609 9.57795E-05-2.87212E-05-2.87390E-05 1.26844E-07-4.70922E-19-1.68339E-18
 -1      1610 9.58335E-05-2.87281E-05-2.87609E-05 2.91138E-07-3.59771E-19 6.23417E-19
 -1      1611 9.54410E-05-2.86269E-05-2.86357E-05 7.45563E-08-6.41672E-19 5.44922E-20
 -1      1612 9.55349E-05-2.86507E-05-2.86642E-05 8.34409E-08-6.26981E-19-8.91921E-19
 -1      1613 9.55915E-05-2.86609E-05-2.86857E-05 1.96698E-07-5.32428E-19 5.91468E-19
 -1      1614 9.53167E-05-2.85911E-05-2.85973E-05 4.41897E-08 1.19234E-18 7.86620E-19
 -1      1615 9.53740E-05-2.86049E-05-2.86149E-05 5.10163E-08 7.28760E-19 1.23322E-18
 -1      1616 9.54277E-05-2.86162E-05-2.86345E-05 1.25366E-07 3.33348E-19 1.78541E-18
 -1      1617 9.52453E-05-2.85708E-05-2.85751E-05 2.20831E-08-2.30010E-19 4.88431E-19
 -1      1618 9.52758E-05-2.85773E-05-2.85846E-05 2.72729E-08-2.59378E-19-1.36212E-19
 -1      1619 9.53231E-05-2.85882E-05-2.86015E-05 7.25491E-08 2.97056E-19 1.40087E-18
 -1      1620 9.52121E-05-2.85618E-05-2.85646E-05 6.44603E-09 9.46679E-19-5.02925E-19
 -1      1621 9.52235E-05-2.85631E-05-2.85683E-05 1.03405E-08 9.53501E-19 1.04940E-18
 -1      1622 9.52623E-05-2.85725E-05-2.85820E-05 3.43462E-08 9.67108E-19 4.85430E-19
 -1      1623 9.52052E-05-2.85604E-05-2.85621E-05-4.05115E-09-4.50458E-19-1.72537E-18
 -1      1624 9.52035E-05-2.85583E-05-2.85619E-05-1.18328E-09 1.87891E-19-1.48244E-18
 -1      1625 9.52326E-05-2.85657E-05-2.85721E-05 7.72954E-09 1.14968E-18 1.88213E-18
 -1      1626 9.52145E-05-2.85641E-05-2.85642E-05-9.91577E-09 1.05841E-18-1.54798E-18
 -1      1627 9.52050E-05-2.85599E-05-2.85618E-05-8.00408E-09 4.25558E-19-1.52764E-18
 -1      1628 9.52239E-05-2.85648E-05-2.85685E-05-9.15399E-09 5.20309E-19 1.98653E-18
 -1      1629 9.52295E-05-2.85704E-05-2.85674E-05-9.72147E-09 3.83694E-19-4.70136E-18
 -1      1630 9.52185E-05-2.85659E-05-2.85649E-05-9.34647E-09 9.93048E-19-3.80432E-18
 -1      1631 9.52275E-05-2.85688E-05-2.85680E-05-1.62906E-08 2.29741E-18 1.04758E-19
 -1      1632 9.52342E-05-2.85742E-05-2.85673E-05-4.34238E-09-3.16194E-18-3.45775E-18
 -1      1633 9.52439E-05-2.85914E-05-2.85654E-05-1.01354E-08-1.94191E-19 3.58615E-18
 -1      1634 9.52397E-05-2.85814E-05-2.85674E-05-9.95774E-09-3.77745E-18 2.13429E-18
 -1      1635 9.52478E-05-2.85999E-05-2.85637E-05-5.37074E-09 5.37242E-18 2.71284E-18
 -1      1636 9.52451E-05-2.85930E-05-2.85652E-05-6.77965E-09 6.65629E-19 3.39088E-18
 -1      1637 9.52420E-05-2.85811E-05-2.85691E-05-1.46196E-08 1.48887E-18 4.82946E-18
 -1      1638 9.52472E-05-2.85983E-05-2.85641E-05 1.61083E-09 5.35732E-18-4.77804E-19
 -1      1639 9.52470E-05-2.85978E-05-2.85641E-05 1.02747E-10 6.01775E-18 5.22387E-19
 -1      1640 9.52432E-05-2.85801E-05-2.85703E-05-3.75330E-09 2.88686E-18 2.79055E-18
 -1      1641 9.52432E-05-2.85876E-05-2.85669E-05 7.14176E-09 2.50029E-18-1.60630E-18
 -1      1642 9.52450E-05-2.85925E-05-2.85655E-05 6.18156E-09 4.80443E-18-3.85447E-20
 -1      1643 9.52401E-05-2.85712E-05-2.85727E-05 8.42348E-09 1.42169E-18-1.02434E-18
 -1      1644 9.52376E-05-2.85722E-05-2.85710E-05 9.51020E-09-3.01146E-19-1.08779E-18
 -1      1645 9.52403E-05-2.85798E-05-2.85689E-05 9.29450E-09 1.96224E-18-2.68246E-18
 -1      1646 9.52343E-05-2.85566E-05-2.85763E-05 1.64360E-08 5.19823E-19-4.06956E-18
 -1      1647 9.52321E-05-2.85569E-05-2.85751E-05 8.42529E-09 3.89800E-19 7.83470E-19
 -1      1648 9.52347E-05-2.85643E-05-2.85731E-05 8.91113E-09-4.71498E-19 1.04244E-18
 -1      1649 9.52277E-05-2.85400E-05-2.85803E-05 1.81429E-08-4.29444E-19-6.95684E-19
 -1      1650 9.52286E-05-2.85470E-05-2.85778E-05 4.48675E-09 2.37630E-19 6.76568E-19
 -1      1651 9.52300E-05-2.85512E-05-2.85766E-05 5.46321E-09 1.25016E-19 2.35958E-18
 -1      1652 9.52220E-05-2.85257E-05-2.85838E-05 1.36027E-08-1.50024E-19 8.43069E-19
 -1      1653 9.52280E-05-2.85453E-05-2.85783E-05-9.24251E-10 3.68737E-19 4.33704E-19
 -1      1654 9.52279E-05-2.85450E-05-2.85783E-05 2.19132E-10-1.92429E-19-9.78913E-20
 -1      1655 9.52189E-05-2.85177E-05-2.85858E-05 4.60944E-09-8.64466E-20-7.26642E-19
 -1      1656 9.52305E-05-2.85526E-05-2.85763E-05-6.09057E-09 1.02475E-18 3.79517E-19
 -1      1657 9.52288E-05-2.85477E-05-2.85776E-05-5.14018E-09 2.18574E-19 1.15137E-18
 -1      1658 9.52190E-05-2.85181E-05-2.85857E-05-5.90779E-09 8.41940E-19 3.55330E-19
 -1      1659 9.52354E-05-2.85664E-05-2.85725E-05-9.33637E-09 1.80000E-18-2.42389E-19
 -1      1660 9.52327E-05-2.85586E-05-2.85746E-05-8.90455E-09 2.14176E-18-1.53207E-18
 -1      1661 9.52225E-05-2.85269E-05-2.85835E-05-1.46601E-08 1.89703E-18-8.99586E-20
 -1      1662 9.52410E-05-2.85821E-05-2.85682E-05-9.44943E-09 2.55606E-18 3.26391E-19
 -1      1663 9.52383E-05-2.85744E-05-2.85704E-05-9.71942E-09 1.95425E-18 7.53549E-19
 -1      1664 9.52283E-05-2.85417E-05-2.85799E-05-1.87515E-08 2.32976E-18-5.10640E-20
 -1      1665 9.52458E-05-2.85949E-05-2.85648E-05-5.98019E-09 1.07371E-18-1.69323E-18
 -1      1666 9.52440E-05-2.85901E-05-2.85662E-05-7.01521E-09 2.26552E-18-2.43304E-19
 -1      1667 9.52350E-05-2.85585E-05-2.85758E-05-1.64825E-08 2.31216E-18 1.63410E-20
 -1      1668 9.52476E-05-2.85996E-05-2.85636E-05 4.81352E-10-8.70342E-19-6.28546E-19
 -1      1669 9.52479E-05-2.86005E-05-2.85635E-05-1.12931E-09 7.63315E-19-8.79742E-19
 -1      1670 9.52408E-05-2.85732E-05-2.85722E-05-7.81477E-09 1.59124E-18-2.24290E-18
 -1      1671 9.52460E-05-2.85944E-05-2.85650E-05 7.04314E-09-1.20191E-18 2.97609E-19
 -1      1672 9.52481E-05-2.86012E-05-2.85633E-05 5.51662E-09-1.07488E-18 4.95854E-19
 -1      1673 9.52432E-05-2.85811E-05-2.85699E-05 4.82071E-09 6.29904E-20-1.18262E-18
 -1      1674 9.52400E-05-2.85808E-05-2.85680E-05 1.19445E-08-1.35394E-18-3.97103E-19
 -1      1675 9.52439E-05-2.85903E-05-2.85662E-05 1.24837E-08-1.02778E-18-4.95575E-19
 -1      1676 9.52432E-05-2.85787E-05-2.85701E-05 1.50575E-08-1.39249E-19 4.09740E-19
 -1      1677 9.52357E-05-2.85719E-05-2.85697E-05 1.99566E-08-8.75521E-19-1.74978E-19
 -1      1678 2.03028E-05-6.62862E-05 1.36599E-05-6.30045E-06 1.13693E-17 5.15536E-18
 -1      1679 2.38374E-05-7.65408E-05 1.58692E-05 2.06132E-06 4.36667E-18 4.56699E-18
 -1      1680 1.95543E-05-3.74283E-05 3.47924E-06 3.70446E-06 1.60267E-17 8.14782E-18
 -1      1681 2.39891E-05-6.01408E-05 9.46835E-06-3.70025E-07 1.31222E-17 5.53746E-18
 -1      1682 3.56740E-05-1.00991E-05-1.27153E-05 3.01470E-05 1.54694E-17 1.02457E-17
 -1      1683 2.91762E-05-3.10350E-05-3.71774E-06 1.13983E-05 1.67162E-17 8.33015E-18
 -1      1684 8.42785E-05-4.38015E-06-3.30940E-05 6.23019E-05 1.16950E-17 1.20330E-17
 -1      1685 5.56606E-05-8.42192E-06-2.23207E-05 3.85053E-05 1.44445E-17 1.09369E-17
 -1      1686 1.47504E-04-1.85730E-05-5.16563E-05 7.77615E-05 8.64355E-18 1.25191E-17
 -1      1687 1.05632E-04-4.05534E-06-4.26742E-05 6.81592E-05 1.05481E-17 1.25598E-17
 -1      1688 2.13230E-04-4.65264E-05-6.60869E-05 5.57652E-05 4.92274E-18 6.03003E-18
 -1      1689 1.71211E-04-2.58348E-05-5.90514E-05 6.86432E-05 7.72113E-18 9.78662E-18
 -1      1690 2.51969E-04-6.40525E-05-7.39692E-05 1.56163E-05 3.16896E-18-7.30566E-19
 -1      1691 2.32216E-04-5.28330E-05-7.12996E-05 4.75381E-05 4.17248E-18 4.49944E-18
 -1      1692 2.38430E-04-5.60748E-05-7.24012E-05-3.46671E-05 4.10536E-18-8.03750E-18
 -1      1693 2.49969E-04-6.26463E-05-7.40321E-05-1.18667E-06 3.28077E-18-3.11724E-18
 -1      1694 1.91901E-04-3.35202E-05-6.36069E-05-7.03692E-05 6.27260E-18-1.22134E-17
 -1      1695 2.29497E-04-5.34447E-05-6.93017E-05-5.11572E-05 4.05072E-18-1.02754E-17
 -1      1696 1.26785E-04-1.04566E-05-4.81998E-05-7.14205E-05 9.85184E-18-1.30214E-17
 -1      1697 1.69830E-04-2.73469E-05-5.65999E-05-7.53899E-05 7.38824E-18-1.22828E-17
 -1      1698 6.92339E-05-1.51702E-06-3.00223E-05-5.16162E-05 1.26598E-17-1.25251E-17
 -1      1699 1.01986E-04-4.65956E-06-3.95949E-05-7.11209E-05 1.09691E-17-1.32552E-17
 -1      1700 3.66047E-05-1.65081E-05-1.18581E-05-2.32566E-05 1.21117E-17-9.64771E-18
 -1      1701 5.01221E-05-2.20268E-06-2.10175E-05-4.42091E-05 1.28749E-17-1.20956E-17
 -1      1702 2.78752E-05-4.70478E-05 3.47310E-06-6.89697E-06 5.98344E-18-5.77518E-18
 -1      1703 2.81931E-05-2.46508E-05-4.18034E-06-1.81879E-05 9.81711E-18-8.85319E-18
 -1      1704 2.34537E-05-6.99740E-05 1.37866E-05-6.50767E-07 1.96512E-19-2.75095E-18
 -1      1705 1.81936E-05-5.23400E-05 9.67016E-06 3.25307E-06 5.03815E-18-4.48737E-18
 -1      1706 2.07807E-05-6.87541E-05 1.49455E-05-4.85561E-06-5.86232E-18-3.08574E-18
 -1      1707 2.09050E-05-6.91125E-05 1.50748E-05 3.67261E-06-1.28453E-18-2.77382E-18
 -1      1708 1.79113E-05-5.20144E-05 9.37411E-06-5.01590E-06-1.15357E-17-5.65061E-18
 -1      1709 2.36343E-05-7.05673E-05 1.36606E-05-1.50312E-06-8.23358E-18-3.10342E-18
 -1      1710 2.98601E-05-2.36522E-05-5.31777E-06 1.92786E-05-1.25547E-17-8.10314E-18
 -1      1711 2.85034E-05-4.63432E-05 2.74720E-06 6.34142E-06-1.12147E-17-6.38769E-18
 -1      1712 5.90686E-05-4.08163E-06-2.38756E-05 4.83339E-05-1.24353E-17-1.20092E-17
 -1      1713 4.10442E-05-1.65847E-05-1.37523E-05 2.52776E-05-1.31985E-17-9.62145E-18
 -1      1714 1.21693E-04-1.43052E-05-4.36539E-05 7.02424E-05-9.14287E-18-1.19711E-17
 -1      1715 8.44813E-05-7.70952E-06-3.35653E-05 5.30655E-05-1.15086E-17-1.15671E-17
 -1      1716 1.90537E-04-3.64276E-05-6.09884E-05 6.90903E-05-6.20960E-18-7.45389E-18
 -1      1717 1.44930E-04-1.70024E-05-5.26267E-05 7.05657E-05-9.02344E-18-1.07793E-17
 -1      1718 2.46925E-04-6.11528E-05-7.26474E-05 3.76118E-05-2.70511E-18-2.19212E-18
 -1      1719 2.13296E-04-4.30747E-05-6.77885E-05 6.36101E-05-4.57292E-18-6.00885E-18
 -1      1720 2.56143E-04-6.49399E-05-7.51528E-05-1.75003E-05-2.77679E-18 4.91300E-18
 -1      1721 2.55788E-04-6.45969E-05-7.50476E-05 1.98934E-05-2.42124E-18 4.44692E-20
 -1      1722 2.14616E-04-4.42242E-05-6.80916E-05-5.72005E-05-6.49113E-18 1.11419E-17
 -1      1723 2.44085E-04-5.98473E-05-7.24977E-05-3.18746E-05-3.93955E-18 6.81862E-18
 -1      1724 1.54359E-04-1.88331E-05-5.52805E-05-7.48389E-05-1.07628E-17 1.55973E-17
 -1      1725 1.97498E-04-3.87608E-05-6.27278E-05-6.99902E-05-7.68619E-18 1.31434E-17
 -1      1726 9.29436E-05-6.63957E-06-3.71242E-05-5.82018E-05-1.37634E-17 1.47197E-17
 -1      1727 1.32053E-04-1.59453E-05-4.68285E-05-7.31213E-05-1.12075E-17 1.52737E-17
 -1      1728 4.69830E-05-1.21458E-05-1.78208E-05-3.11632E-05-1.32883E-17 1.20770E-17
 -1      1729 6.88223E-05-3.84894E-06-2.76950E-05-5.40771E-05-1.42479E-17 1.57802E-17
 -1      1730 2.67206E-05-3.53324E-05-1.34202E-06-6.76268E-06-1.28427E-17 7.80456E-18
 -1      1731 3.03143E-05-1.47879E-05-9.21491E-06-2.22551E-05-1.39159E-17 1.00678E-17
 -1      1732 2.37116E-05-6.28762E-05 1.05011E-05 2.56268E-06-7.43017E-18 4.71247E-18
 -1      1733 1.88726E-05-4.16470E-05 5.09158E-06 2.95662E-07-1.15840E-17 7.15065E-18
 -1      1734 2.34332E-05-7.52983E-05 1.57193E-05-1.27054E-06 1.89100E-18 4.12738E-18
 -1      1735 2.04595E-05-6.66245E-05 1.38335E-05 6.50046E-06-4.98818E-18 3.93277E-18
 -1      1736 1.19155E-04-3.07438E-05-3.67974E-05 4.55085E-05 7.90451E-18 7.75374E-18
 -1      1737 7.64880E-05-3.50051E-05-1.87334E-05 4.05921E-05 9.46136E-18 5.90551E-18
 -1      1738 9.52369E-05-2.85773E-05-2.85676E-05-1.06132E-08-3.56600E-18-1.62600E-18
 -1      1739 9.52356E-05-2.85749E-05-2.85685E-05-1.74339E-08 8.84094E-19 1.87265E-18
 -1      1740 1.90451E-05-4.77173E-05 8.09910E-06 1.46127E-05 5.94151E-18 6.97341E-18
 -1      1741 4.01602E-05-4.04716E-05-2.71760E-06 2.88819E-05 8.76933E-18 5.69254E-18
 -1      1742 1.19401E-05-5.07301E-05 1.19646E-05 4.76485E-07 1.23291E-18 7.89731E-18
 -1      1743 1.61871E-04-3.05602E-05-5.31508E-05 3.94520E-05 7.37861E-18 5.13556E-18
 -1      1744 1.94393E-04-3.29950E-05-6.48887E-05 2.23113E-05 6.41691E-18 1.75421E-18
 -1      1745 2.09174E-04-3.34770E-05-6.99833E-05 3.85533E-06 6.20282E-18-6.08328E-19
 -1      1746 2.01302E-04-3.30413E-05-6.71592E-05-2.06340E-05 5.38861E-18-4.65106E-18
 -1      1747 1.74361E-04-3.14930E-05-5.74461E-05-3.80988E-05 5.88614E-18-7.51742E-18
 -1      1748 1.33992E-04-2.96768E-05-4.26729E-05-4.59936E-05 6.82624E-18-7.53012E-18
 -1      1749 9.01921E-05-3.03385E-05-2.58961E-05-4.39943E-05 7.20486E-18-8.04215E-18
 -1      1750 5.63377E-05-3.84853E-05-9.82993E-06-3.56324E-05 4.50622E-18-7.72346E-18
 -1      1751 2.94368E-05-4.34610E-05 2.97738E-06-2.52017E-05 2.07354E-18-6.98347E-18
 -1      1752 1.26424E-05-4.57071E-05 1.01806E-05-7.59948E-06-8.38986E-19-5.27532E-18
 -1      1753 1.30948E-05-4.65195E-05 1.02116E-05 6.73580E-06-3.72483E-18-5.07542E-18
 -1      1754 3.10292E-05-4.41147E-05 2.51300E-06 2.44504E-05-5.98598E-18-6.00186E-18
 -1      1755 6.19548E-05-3.99679E-05-1.14218E-05 3.63164E-05-6.38155E-18-5.81573E-18
 -1      1756 1.03237E-04-3.55043E-05-2.88375E-05 4.25490E-05-6.94906E-18-6.40653E-18
 -1      1757 1.47663E-04-3.48154E-05-4.62959E-05 3.86899E-05-7.14790E-18-5.50233E-18
 -1      1758 1.86729E-04-3.40581E-05-6.12401E-05 3.09330E-05-6.36535E-18-2.95022E-18
 -1      1759 2.13468E-04-3.62652E-05-7.00961E-05 1.33875E-05-4.64767E-18 1.53736E-19
 -1      1760 2.10431E-04-3.48554E-05-6.98086E-05-9.42511E-06-5.64505E-18 4.19239E-18
 -1      1761 1.88534E-04-3.30152E-05-6.22610E-05-3.03048E-05-7.36230E-18 6.26804E-18
 -1      1762 1.53143E-04-3.29810E-05-4.89925E-05-4.12195E-05-7.91086E-18 8.65244E-18
 -1      1763 1.10586E-04-3.41696E-05-3.21848E-05-4.32208E-05-8.39071E-18 9.57232E-18
 -1      1764 6.73817E-05-3.58824E-05-1.50474E-05-3.74101E-05-8.50506E-18 9.10222E-18
 -1      1765 3.58757E-05-4.21066E-05-6.86898E-07-2.47856E-05-6.89485E-18 7.03479E-18
 -1      1766 1.79736E-05-4.82597E-05 8.65859E-06-1.19328E-05-3.13783E-18 7.10555E-18
 -1      1767 1.05803E-04-2.31415E-05-3.55135E-05-1.65707E-05-1.39619E-18 4.80035E-18
 -1      1768 8.93185E-05-1.05800E-05-3.38712E-05-1.27714E-05-1.46504E-18-2.05112E-18
 -1      1769 9.06664E-05-1.16642E-05-3.39971E-05-1.45934E-05-1.76451E-18-1.50481E-18
 -1      1770 9.26532E-05-1.39377E-05-3.38962E-05-1.55050E-05-1.82347E-18-7.81547E-19
 -1      1771 9.43196E-05-1.58929E-05-3.41094E-05-1.71933E-05-2.05157E-18 1.47384E-19
 -1      1772 9.35995E-05-1.63713E-05-3.31115E-05-1.32201E-05-1.91499E-18-1.00019E-18
 -1      1773 8.61964E-05-7.46155E-06-3.38158E-05-7.37870E-06-6.28495E-19-2.93677E-18
 -1      1774 8.66538E-05-7.80142E-06-3.38531E-05-8.73049E-06-8.36419E-19-2.84558E-18
 -1      1775 8.54645E-05-6.72945E-06-3.38032E-05-4.94703E-06-1.93894E-19-2.97894E-18
 -1      1776 8.57511E-05-6.94035E-06-3.38240E-05-6.19238E-06-4.27456E-19-3.01126E-18
 -1      1777 8.74908E-05-9.53339E-06-3.34404E-05-6.43170E-06-6.07857E-19-2.82765E-18
 -1      1778 8.50390E-05-6.29982E-06-3.37971E-05-2.66807E-06 2.20983E-19-2.80127E-18
 -1      1779 8.51968E-05-6.41606E-06-3.38078E-05-3.83231E-06 4.98732E-20-2.91698E-18
 -1      1780 8.67247E-05-8.70738E-06-3.34654E-05-4.17336E-06-8.52352E-20-2.81447E-18
 -1      1781 8.48657E-05-6.11874E-06-3.37956E-05-4.73812E-07 6.46605E-19-2.56859E-18
 -1      1782 8.49143E-05-6.15446E-06-3.37990E-05-1.59940E-06 4.78285E-19-2.72803E-18
 -1      1783 8.63015E-05-8.25352E-06-3.34780E-05-2.02864E-06 3.67836E-19-2.60223E-18
 -1      1784 8.49252E-05-6.16579E-06-3.37985E-05 1.70720E-06 1.07132E-18-2.35009E-18
 -1      1785 8.48699E-05-6.12464E-06-3.37953E-05 5.80235E-07 8.80001E-19-2.48031E-18
 -1      1786 8.61720E-05-8.11594E-06-3.34813E-05 5.82698E-08 8.21083E-19-2.41166E-18
 -1      1787 8.52240E-05-6.44661E-06-3.38063E-05 3.94681E-06 1.40559E-18-2.23728E-18
 -1      1788 8.50588E-05-6.32342E-06-3.37959E-05 2.77837E-06 1.25193E-18-2.36185E-18
 -1      1789 8.63219E-05-8.27850E-06-3.34762E-05 2.14765E-06 1.23574E-18-2.24226E-18
 -1      1790 8.57851E-05-6.98219E-06-3.38209E-05 6.27673E-06 1.70318E-18-1.82390E-18
 -1      1791 8.54957E-05-6.76731E-06-3.38010E-05 5.04636E-06 1.57405E-18-2.07381E-18
 -1      1792 8.67619E-05-8.75314E-06-3.34618E-05 4.27988E-06 1.56231E-18-2.04879E-18
 -1      1793 8.67177E-05-7.87623E-06-3.38479E-05 8.85067E-06 2.14212E-18-1.09810E-18
 -1      1794 8.62425E-05-7.52052E-06-3.38113E-05 7.46586E-06 1.89319E-18-1.48600E-18
 -1      1795 8.75437E-05-9.59994E-06-3.34348E-05 6.52383E-06 1.92886E-18-1.48307E-18
 -1      1796 8.82285E-05-9.33144E-06-3.38994E-05 1.16954E-05 2.45473E-18-2.33172E-19
 -1      1797 8.74494E-05-8.73522E-06-3.38308E-05 1.01144E-05 2.28728E-18-7.83664E-19
 -1      1798 8.88040E-05-1.09686E-05-3.33872E-05 8.91879E-06 2.32895E-18-7.96634E-19
 -1      1799 9.08090E-05-1.18721E-05-3.39867E-05 1.47644E-05 2.52199E-18 1.18794E-18
 -1      1800 8.94258E-05-1.07435E-05-3.38617E-05 1.29631E-05 2.47792E-18 3.29761E-19
 -1      1801 9.08081E-05-1.31588E-05-3.32962E-05 1.13720E-05 2.59639E-18 1.75389E-19
 -1      1802 9.59674E-05-1.70945E-05-3.40031E-05 1.72275E-05 2.21056E-18 3.74749E-18
 -1      1803 9.30124E-05-1.44022E-05-3.38671E-05 1.56968E-05 2.29154E-18 2.21041E-18
 -1      1804 9.41417E-05-1.69117E-05-3.30872E-05 1.33402E-05 2.48598E-18 1.67138E-18
 -1      1805 1.01867E-04-2.51030E-05-3.33270E-05 1.40710E-05 1.71720E-18 6.66382E-18
 -1      1806 9.81156E-05-1.96683E-05-3.36201E-05 1.65504E-05 1.97517E-18 4.77409E-18
 -1      1807 9.74561E-05-2.19017E-05-3.24583E-05 1.27831E-05 2.27084E-18 3.60015E-18
 -1      1808 9.87923E-05-2.61593E-05-3.13451E-05 9.09365E-06 1.74296E-18 6.08486E-18
 -1      1809 1.00118E-04-1.96068E-05-3.41861E-05-1.84825E-05-1.82947E-18 1.83309E-18
 -1      1810 9.55601E-05-2.73444E-05-2.92636E-05 3.70461E-06 1.40843E-18 5.05480E-18
 -1      1811 9.78670E-05-2.74217E-05-3.02328E-05 6.05040E-06 1.50835E-18 5.58270E-18
 -1      1812 9.77413E-05-2.56625E-05-3.08846E-05 8.33162E-06 1.81540E-18 4.15617E-18
 -1      1813 9.98572E-05-2.25732E-05-3.28423E-05-1.40405E-05-1.95323E-18 1.17171E-18
 -1      1814 9.71954E-05-2.70233E-05-2.99575E-05-5.26034E-06-1.61773E-18 9.55349E-19
 -1      1815 9.55195E-05-2.71008E-05-2.92905E-05-3.42385E-06-1.35393E-18 5.61345E-19
 -1      1816 9.48083E-05-2.73162E-05-2.88270E-05-1.88078E-06-1.20226E-18 5.53430E-19
 -1      1817 9.42035E-05-2.74297E-05-2.85746E-05-9.66141E-07-1.03765E-18 2.44965E-19
 -1      1818 9.59198E-05-2.65860E-05-2.97377E-05-3.81458E-06-1.49221E-18-8.24401E-20
 -1      1819 9.38238E-05-2.75058E-05-2.83611E-05-3.72524E-08-7.68811E-19 2.70740E-19
 -1      1820 9.37414E-05-2.76171E-05-2.83067E-05 4.92955E-07-6.04024E-19 4.57811E-20
 -1      1821 9.49572E-05-2.72825E-05-2.90270E-05-9.79568E-07-1.06092E-18-5.22348E-20
 -1      1822 9.36555E-05-2.76814E-05-2.82412E-05 1.08961E-06-6.05910E-19 5.80664E-20
 -1      1823 9.39132E-05-2.78243E-05-2.82996E-05 1.43909E-06-5.36779E-19-3.16057E-20
 -1      1824 9.45831E-05-2.76302E-05-2.87145E-05 7.60484E-07-7.15874E-19-1.27450E-19
 -1      1825 9.40562E-05-2.79067E-05-2.83313E-05 1.86486E-06-5.10142E-19-3.02740E-20
 -1      1826 9.45515E-05-2.80837E-05-2.84655E-05 2.13176E-06-3.81249E-19-2.53150E-19
 -1      1827 9.46889E-05-2.78790E-05-2.86500E-05 1.93020E-06-5.75771E-19-2.09477E-19
 -1      1828 9.48729E-05-2.81909E-05-2.85673E-05 2.47833E-06-3.99247E-19-2.38647E-19
 -1      1829 9.55558E-05-2.84024E-05-2.87602E-05 2.71618E-06-3.44168E-19-3.90452E-19
 -1      1830 9.51775E-05-2.81164E-05-2.87547E-05 2.81345E-06-4.68926E-19-2.83947E-19
 -1      1831 9.60247E-05-2.85367E-05-2.89168E-05 3.03789E-06-2.34508E-19-3.27653E-19
 -1      1832 9.68752E-05-2.87864E-05-2.91610E-05 3.27730E-06-1.26104E-19-2.81660E-19
 -1      1833 9.59781E-05-2.83752E-05-2.89847E-05 3.57438E-06-2.80045E-19-1.99273E-19
 -1      1834 9.74761E-05-2.89517E-05-2.93632E-05 3.60463E-06-3.08191E-19-1.86638E-19
 -1      1835 9.84908E-05-2.92474E-05-2.96556E-05 3.85979E-06-2.03731E-19-2.77062E-19
 -1      1836 9.70503E-05-2.86759E-05-2.93140E-05 4.30879E-06-1.49268E-19-3.36664E-19
 -1      1837 9.92185E-05-2.94516E-05-2.98972E-05 4.20262E-06-2.78671E-19-3.19404E-19
 -1      1838 1.00399E-04-2.98050E-05-3.02357E-05 4.47050E-06-3.57418E-19-5.13051E-19
 -1      1839 9.83784E-05-2.90429E-05-2.97253E-05 5.06293E-06-4.77478E-19-4.73979E-19
 -1      1840 1.01255E-04-3.00618E-05-3.05098E-05 4.81470E-06-3.74121E-19-7.03582E-19
 -1      1841 1.02597E-04-3.04876E-05-3.08891E-05 5.06900E-06 3.38267E-20-8.66545E-19
 -1      1842 9.99641E-05-2.95121E-05-3.02037E-05 5.83379E-06-4.91680E-19-3.37357E-19
 -1      1843 1.03587E-04-3.08185E-05-3.11860E-05 5.36750E-06 3.74136E-19-1.05336E-18
 -1      1844 1.05063E-04-3.13322E-05-3.15931E-05 5.54832E-06 3.00578E-19-7.79375E-19
 -1      1845 1.01820E-04-3.01382E-05-3.07310E-05 6.55628E-06-3.95492E-20-6.16903E-19
 -1      1846 1.06192E-04-3.17673E-05-3.18970E-05 5.70788E-06 1.30367E-19-5.51647E-19
 -1      1847 1.07734E-04-3.23791E-05-3.23054E-05 5.70967E-06-1.00068E-19-4.99647E-19
 -1      1848 1.03963E-04-3.09994E-05-3.12811E-05 7.08010E-06 2.08177E-19-4.40565E-19
 -1      1849 1.09001E-04-3.29528E-05-3.25935E-05 5.57786E-06-2.00656E-19-2.60648E-19
 -1      1850 1.10474E-04-3.36518E-05-3.29590E-05 5.24411E-06-1.82966E-19-9.20685E-20
 -1      1851 1.06406E-04-3.21925E-05-3.18178E-05 7.14200E-06-6.62737E-21-7.56837E-20
 -1      1852 1.11857E-04-3.43831E-05-3.32041E-05 4.61005E-06-2.51747E-19 2.73863E-19
 -1      1853 1.13037E-04-3.51049E-05-3.34650E-05 3.75553E-06-3.46834E-19 3.75249E-19
 -1      1854 1.09133E-04-3.37978E-05-3.22982E-05 6.35183E-06 6.24455E-20 4.29161E-19
 -1      1855 1.14448E-04-3.59459E-05-3.36444E-05 2.39377E-06-3.24017E-19 5.49691E-19
 -1      1856 1.15017E-04-3.65162E-05-3.37343E-05 8.88677E-07-3.52888E-19 5.60110E-19
 -1      1857 1.12033E-04-3.57788E-05-3.26879E-05 4.23551E-06-1.81166E-19 7.78164E-19
 -1      1858 1.16221E-04-3.72592E-05-3.38467E-05-1.29323E-06-7.70383E-19 3.44294E-19
 -1      1859 1.15825E-04-3.73532E-05-3.37232E-05-3.34349E-06-7.47487E-19-5.25094E-21
 -1      1860 1.14772E-04-3.77769E-05-3.29903E-05 4.19563E-07-8.52817E-19 7.86177E-19
 -1      1861 1.16393E-04-3.75752E-05-3.38015E-05-6.03020E-06-5.74394E-19-1.78747E-19
 -1      1862 1.14810E-04-3.67916E-05-3.34859E-05-8.06593E-06-7.92955E-19-1.21013E-19
 -1      1863 1.16632E-04-3.89143E-05-3.32729E-05-4.91794E-06-8.84183E-19 9.96941E-19
 -1      1864 1.14249E-04-3.59895E-05-3.35925E-05-1.02664E-05-9.45501E-19 7.35860E-21
 -1      1865 1.11686E-04-3.41654E-05-3.31929E-05-1.12333E-05-7.67258E-19-5.02370E-19
 -1      1866 1.16599E-04-3.79297E-05-3.36574E-05-1.04485E-05-8.85298E-19 1.06397E-18
 -1      1867 1.09933E-04-3.22636E-05-3.33672E-05-1.14086E-05-4.39967E-19-8.81483E-19
 -1      1868 1.07262E-04-2.99990E-05-3.30311E-05-1.02433E-05-2.48723E-19-1.15684E-18
 -1      1869 1.14035E-04-3.40710E-05-3.42466E-05-1.34014E-05-9.05647E-19 1.06872E-18
 -1      1870 1.05375E-04-2.80387E-05-3.31973E-05-7.43923E-06-1.29596E-19-1.50081E-18
 -1      1871 1.03915E-04-2.66857E-05-3.30388E-05-4.17699E-06-3.39793E-19-1.48880E-18
 -1      1872 1.09967E-04-2.86937E-05-3.49029E-05-1.06897E-05-4.12584E-19 2.06947E-19
 -1      1873 1.03483E-04-2.62355E-05-3.30795E-05 5.44778E-07-8.71226E-19-1.72870E-18
 -1      1874 1.04094E-04-2.67972E-05-3.31473E-05 4.28369E-06-1.00988E-18-1.57073E-18
 -1      1875 1.07351E-04-2.53828E-05-3.52818E-05-2.21281E-06-4.95250E-19-5.16084E-19
 -1      1876 1.05524E-04-2.82562E-05-3.30305E-05 8.20983E-06-1.00862E-18-2.17247E-18
 -1      1877 1.07852E-04-3.03048E-05-3.33082E-05 1.04121E-05-1.95228E-19-1.97446E-18
 -1      1878 1.08471E-04-2.67581E-05-3.51344E-05 7.60801E-06-8.96412E-19-1.27272E-18
 -1      1879 1.09877E-04-3.24248E-05-3.31359E-05 1.15448E-05-2.94251E-19-2.90956E-18
 -1      1880 1.12675E-04-3.45841E-05-3.35376E-05 1.14419E-05-3.65753E-19-3.34922E-18
 -1      1881 1.12348E-04-3.16952E-05-3.45746E-05 1.31475E-05-9.95899E-19-2.66369E-18
 -1      1882 1.13844E-04-3.59311E-05-3.34113E-05 9.95745E-06-3.65485E-19-3.89779E-18
 -1      1883 1.15966E-04-3.72010E-05-3.37931E-05 8.25792E-06-7.85206E-19-4.32617E-18
 -1      1884 1.15904E-04-3.65707E-05-3.39503E-05 1.24489E-05-6.46887E-19-3.91712E-18
 -1      1885 1.15880E-04-3.73879E-05-3.37201E-05 5.63307E-06-1.03174E-18-4.01149E-18
 -1      1886 1.16841E-04-3.76467E-05-3.39507E-05 3.50425E-06-7.89918E-19-3.98340E-18
 -1      1887 1.17114E-04-3.88497E-05-3.34961E-05 7.68461E-06-8.43347E-19-4.10075E-18
 -1      1888 1.15893E-04-3.70765E-05-3.38746E-05 1.04940E-06-3.73264E-19-3.68452E-18
 -1      1889 1.15771E-04-3.66822E-05-3.38958E-05-7.08135E-07 2.95343E-19-3.60205E-18
 -1      1890 1.16030E-04-3.85036E-05-3.32079E-05 2.05095E-06-1.70664E-19-2.91383E-18
 -1      1891 1.14463E-04-3.58575E-05-3.37659E-05-2.40216E-06 1.02018E-18-3.71796E-18
 -1      1892 1.13588E-04-3.51933E-05-3.35967E-05-3.50679E-06 1.43967E-18-3.66096E-18
 -1      1893 1.13653E-04-3.67558E-05-3.29594E-05-2.44573E-06 4.54407E-19-3.21598E-18
 -1      1894 1.12239E-04-3.44159E-05-3.34003E-05-4.39597E-06 1.13384E-18-3.92757E-18
 -1      1895 1.10961E-04-3.37208E-05-3.31019E-05-4.90167E-06 7.56027E-19-3.63585E-18
 -1      1896 1.10876E-04-3.47190E-05-3.26502E-05-5.20078E-06 1.00441E-18-3.03399E-18
 -1      1897 1.09712E-04-3.30963E-05-3.28553E-05-5.17879E-06 9.42283E-20-3.84645E-18
 -1      1898 1.08302E-04-3.24766E-05-3.24948E-05-5.26222E-06-4.92013E-19-3.77901E-18
 -1      1899 1.08185E-04-3.29613E-05-3.22519E-05-6.41889E-06 7.37251E-19-3.36610E-18
 -1      1900 1.07198E-04-3.20074E-05-3.22247E-05-5.15541E-06-6.28493E-19-3.22875E-18
 -1      1901 1.05829E-04-3.14934E-05-3.18551E-05-4.99237E-06-6.54419E-19-2.29448E-18
 -1      1902 1.05773E-04-3.16318E-05-3.17870E-05-6.56612E-06-2.26978E-20-3.07760E-18
 -1      1903 1.04878E-04-3.11486E-05-3.15865E-05-4.68419E-06-9.93708E-19-1.08183E-18
 -1      1904 1.03644E-04-3.07376E-05-3.12417E-05-4.40523E-06-3.00644E-19-4.20902E-19
 -1      1905 1.03686E-04-3.06864E-05-3.12966E-05-6.08550E-06 2.81969E-20-1.00932E-18
 -1      1906 1.02840E-04-3.04840E-05-3.09922E-05-4.01805E-06-2.21638E-19-7.10467E-19
 -1      1907 1.01783E-04-3.01622E-05-3.06897E-05-3.70556E-06 6.06098E-19-9.73261E-19
 -1      1908 1.01917E-04-3.00297E-05-3.08189E-05-5.30449E-06-8.52608E-20-1.46040E-19
 -1      1909 1.01113E-04-2.99741E-05-3.04694E-05-3.31190E-06 3.91220E-19-2.16140E-18
 -1      1910 1.00240E-04-2.97258E-05-3.02151E-05-3.01150E-06-3.49510E-19-2.78481E-18
 -1      1911 1.00441E-04-2.95746E-05-3.03808E-05-4.43281E-06-1.63348E-19-2.16063E-18
 -1      1912 9.96916E-05-2.95852E-05-3.00277E-05-2.64928E-06 1.42942E-19-2.35472E-18
 -1      1913 9.89898E-05-2.93962E-05-2.98208E-05-2.38260E-06 2.28070E-19-1.68724E-18
 -1      1914 9.92296E-05-2.92568E-05-2.99968E-05-3.58994E-06 2.43711E-19-1.26166E-18
 -1      1915 9.85488E-05-2.92908E-05-2.96662E-05-2.06823E-06-4.40666E-19-1.46153E-18
 -1      1916 9.79981E-05-2.91489E-05-2.95021E-05-1.84275E-06-4.73979E-19-2.06139E-18
 -1      1917 9.82499E-05-2.90330E-05-2.96719E-05-2.83505E-06 2.63228E-19-2.58726E-19
 -1      1918 9.76493E-05-2.90701E-05-2.93777E-05-1.58024E-06-1.03965E-19-2.08574E-18
 -1      1919 9.72260E-05-2.89653E-05-2.92505E-05-1.39584E-06 1.44741E-19-1.51184E-18
 -1      1920 9.74706E-05-2.88746E-05-2.94048E-05-2.19058E-06-1.12174E-20 4.32203E-19
 -1      1921 9.69549E-05-2.89069E-05-2.91526E-05-1.18269E-06 5.69673E-19-1.76640E-18
 -1      1922 9.66362E-05-2.88307E-05-2.90559E-05-1.03558E-06 9.02786E-19-1.36051E-18
 -1      1923 9.68608E-05-2.87627E-05-2.91904E-05-1.65840E-06 2.89073E-19-6.87668E-20
 -1      1924 9.64292E-05-2.87881E-05-2.89804E-05-8.66282E-07 1.13813E-18-2.70001E-19
 -1      1925 9.61942E-05-2.87340E-05-2.89085E-05-7.51250E-07 8.16277E-19 3.07227E-20
 -1      1926 9.63919E-05-2.86845E-05-2.90220E-05-1.22980E-06 1.27651E-18-4.05049E-19
 -1      1927 9.60392E-05-2.87035E-05-2.88514E-05-6.19245E-07-5.63738E-19-1.72399E-19
 -1      1928 9.58701E-05-2.86662E-05-2.87992E-05-5.30847E-07 7.00895E-20-5.08463E-19
 -1      1929 9.60379E-05-2.86310E-05-2.88924E-05-8.91597E-07 2.36646E-19 1.39703E-18
 -1      1930 9.57565E-05-2.86449E-05-2.87569E-05-4.29631E-07 2.67515E-19-6.24618E-19
 -1      1931 9.56381E-05-2.86203E-05-2.87199E-05-3.62788E-07 5.65633E-19-2.33568E-19
 -1      1932 9.57760E-05-2.85955E-05-2.87947E-05-6.29396E-07-7.37432E-21 8.24315E-19
 -1      1933 9.55569E-05-2.86060E-05-2.86894E-05-2.86422E-07 7.61056E-19-1.40841E-18
 -1      1934 9.54772E-05-2.85906E-05-2.86641E-05-2.36680E-07 2.39676E-20-5.20935E-19
 -1      1935 9.55867E-05-2.85731E-05-2.87225E-05-4.29439E-07-4.19962E-20-2.15569E-20
 -1      1936 9.54209E-05-2.85815E-05-2.86427E-05-1.80024E-07 2.82023E-19 1.37320E-19
 -1      1937 9.53699E-05-2.85728E-05-2.86261E-05-1.43645E-07 1.89728E-18 2.21378E-19
 -1      1938 9.54537E-05-2.85602E-05-2.86704E-05-2.79436E-07 7.55728E-19 1.02356E-18
 -1      1939 9.53324E-05-2.85675E-05-2.86115E-05-1.02441E-07 1.39859E-18 2.93222E-19
 -1      1940 9.53024E-05-2.85637E-05-2.86014E-05-7.64252E-08 1.15803E-18-1.07663E-19
 -1      1941 9.53634E-05-2.85542E-05-2.86339E-05-1.68942E-07 1.36786E-18 7.08784E-19
 -1      1942 9.52787E-05-2.85611E-05-2.85919E-05-4.73272E-08 9.23624E-19-7.58814E-19
 -1      1943 9.52636E-05-2.85607E-05-2.85863E-05-2.94697E-08 6.07874E-19-1.23275E-18
 -1      1944 9.53050E-05-2.85529E-05-2.86090E-05-8.94750E-08 8.53486E-19-1.02804E-18
 -1      1945 9.52496E-05-2.85604E-05-2.85802E-05-9.91583E-09 9.28755E-19-1.16550E-18
 -1      1946 9.52446E-05-2.85626E-05-2.85776E-05 9.32767E-10 7.50950E-19 3.28752E-20
 -1      1947 9.52693E-05-2.85551E-05-2.85925E-05-3.46271E-08 3.58144E-19 3.16474E-19
 -1      1948 9.52374E-05-2.85641E-05-2.85737E-05 1.16153E-08 2.81241E-19-1.08202E-19
 -1      1949 9.52383E-05-2.85686E-05-2.85725E-05 1.54590E-08-1.84198E-19-1.90091E-20
 -1      1950 9.52426E-05-2.85712E-05-2.85739E-05 1.60207E-08-7.92745E-19-1.81180E-19
 -1      1951 9.52502E-05-2.85615E-05-2.85815E-05-5.82363E-10 5.77161E-19 1.01530E-18
 -1      1952 9.37242E-05-2.74786E-05-2.83601E-05 1.16705E-06 1.08357E-18 4.31825E-18
 -1      1953 9.47708E-05-2.75470E-05-2.87501E-05 2.27479E-06 1.15911E-18 4.74962E-18
 -1      1954 9.56005E-05-2.71211E-05-2.93556E-05 3.55634E-06 1.42126E-18 3.45238E-18
 -1      1955 9.30115E-05-2.75463E-05-2.80283E-05-2.17520E-07 8.87234E-19 3.67386E-18
 -1      1956 9.33186E-05-2.75293E-05-2.81428E-05 3.91220E-07 9.21790E-19 4.12697E-18
 -1      1957 9.42650E-05-2.74920E-05-2.86262E-05 9.60298E-07 1.14698E-18 3.12510E-18
 -1      1958 9.30777E-05-2.76958E-05-2.80007E-05-1.05083E-06 4.32642E-19 3.33250E-18
 -1      1959 9.29495E-05-2.76024E-05-2.79732E-05-6.73126E-07 5.85396E-19 3.45079E-18
 -1      1960 9.37837E-05-2.76818E-05-2.83422E-05-5.41603E-07 7.85798E-19 2.48140E-18
 -1      1961 9.36748E-05-2.79371E-05-2.81578E-05-1.61020E-06 3.89524E-19 2.96337E-18
 -1      1962 9.32701E-05-2.77859E-05-2.80452E-05-1.34621E-06 4.05170E-19 3.29318E-18
 -1      1963 9.39231E-05-2.78799E-05-2.83178E-05-1.48837E-06 4.66409E-19 2.19250E-18
 -1      1964 9.46552E-05-2.82592E-05-2.84421E-05-2.03541E-06 5.99936E-19 2.71452E-18
 -1      1965 9.40562E-05-2.80626E-05-2.82705E-05-1.82634E-06 3.91712E-19 2.84073E-18
 -1      1966 9.45089E-05-2.81289E-05-2.84610E-05-2.15227E-06 5.64261E-19 1.93927E-18
 -1      1967 9.59359E-05-2.86542E-05-2.88229E-05-2.39894E-06 3.38094E-19 2.52781E-18
 -1      1968 9.51849E-05-2.84181E-05-2.86055E-05-2.21387E-06 5.97479E-19 2.72278E-18
 -1      1969 9.54317E-05-2.84373E-05-2.87230E-05-2.67500E-06 5.58892E-19 1.98159E-18
 -1      1970 9.74705E-05-2.91208E-05-2.92819E-05-2.73267E-06 3.14680E-19 2.16630E-18
 -1      1971 9.65899E-05-2.88466E-05-2.90262E-05-2.55804E-06 3.27712E-19 2.39236E-18
 -1      1972 9.66263E-05-2.88092E-05-2.90747E-05-3.12840E-06 4.78344E-19 2.03602E-18
 -1      1973 9.92262E-05-2.96619E-05-2.98045E-05-3.03487E-06 2.68122E-19 1.98811E-18
 -1      1974 9.82330E-05-2.93493E-05-2.95168E-05-2.87219E-06 2.93919E-19 2.03617E-18
 -1      1975 9.80539E-05-2.92521E-05-2.94961E-05-3.53688E-06 4.08092E-19 1.59234E-18
 -1      1976 1.01165E-04-3.02809E-05-3.03735E-05-3.26818E-06 4.38925E-19 1.86656E-18
 -1      1977 1.00082E-04-2.99307E-05-3.00622E-05-3.13577E-06 3.79842E-19 1.93805E-18
 -1      1978 9.96848E-05-2.97773E-05-2.99696E-05-3.88220E-06 4.28907E-19 1.61775E-18
 -1      1979 1.03220E-04-3.09764E-05-3.09619E-05-3.35352E-06 5.36676E-19 1.80036E-18
 -1      1980 1.02091E-04-3.05944E-05-3.06418E-05-3.29010E-06 2.33337E-19 1.56478E-18
 -1      1981 1.01483E-04-3.03983E-05-3.04733E-05-4.09970E-06 3.86128E-19 1.29572E-18
 -1      1982 1.05278E-04-3.17329E-05-3.15275E-05-3.16547E-06 3.58771E-19 1.47436E-18
 -1      1983 1.04178E-04-3.13357E-05-3.12227E-05-3.23311E-06 5.78877E-19 1.82593E-18
 -1      1984 1.03388E-04-3.11242E-05-3.09770E-05-4.07239E-06 6.74116E-19 1.05317E-18
 -1      1985 1.07152E-04-3.25066E-05-3.20084E-05-2.53918E-06 4.00676E-19 1.48222E-18
 -1      1986 1.06200E-04-3.21288E-05-3.17553E-05-2.82055E-06 2.53418E-19 1.56378E-18
 -1      1987 1.05295E-04-3.19475E-05-3.14384E-05-3.63149E-06 3.84831E-19 9.90461E-19
 -1      1988 1.08571E-04-3.32049E-05-3.23255E-05-1.30589E-06-5.62106E-19 1.64693E-18
 -1      1989 1.07936E-04-3.29081E-05-3.21716E-05-1.88704E-06-1.38185E-19 1.58092E-18
 -1      1990 1.07037E-04-3.28206E-05-3.18045E-05-2.57835E-06-4.42310E-20 1.00083E-18
 -1      1991 1.09187E-04-3.36634E-05-3.23964E-05 6.21015E-07-1.39853E-19 1.68739E-18
 -1      1992 1.09070E-04-3.35415E-05-3.23919E-05-3.06327E-07-5.35054E-19 1.58961E-18
 -1      1993 1.08359E-04-3.36199E-05-3.20187E-05-7.50092E-07-4.75185E-19 5.42682E-19
 -1      1994 1.08637E-04-3.36413E-05-3.21637E-05 3.09850E-06 5.44576E-19 1.54117E-18
 -1      1995 1.09221E-04-3.38117E-05-3.23441E-05 1.89275E-06 4.22775E-19 1.99922E-18
 -1      1996 1.08926E-04-3.41107E-05-3.20382E-05 1.84997E-06 3.33030E-19 1.11113E-18
 -1      1997 1.06684E-04-3.28821E-05-3.16352E-05 5.58759E-06 9.62110E-20 1.88254E-18
 -1      1998 1.08041E-04-3.34400E-05-3.19958E-05 4.36844E-06 3.61716E-19 1.50645E-18
 -1      1999 1.08375E-04-3.39550E-05-3.18564E-05 4.86536E-06 3.73806E-19 8.84405E-19
 -1      2000 1.03456E-04-3.12954E-05-3.09144E-05 7.12747E-06-3.28164E-19 1.70668E-18
 -1      2001 1.05428E-04-3.22212E-05-3.13899E-05 6.36429E-06-3.81238E-19 1.77390E-18
 -1      2002 1.06496E-04-3.28505E-05-3.15222E-05 7.44020E-06-7.38573E-20 1.25549E-18
 -1      2003 9.96902E-05-2.92050E-05-3.01918E-05 6.67641E-06-9.38751E-20 1.57073E-18
 -1      2004 1.01811E-04-3.02717E-05-3.06599E-05 6.86507E-06-1.00597E-19 1.95523E-18
 -1      2005 1.03529E-04-3.08273E-05-3.11359E-05 8.34850E-06-2.36943E-19 1.25699E-18
 -1      2006 9.66935E-05-2.74218E-05-2.96864E-05 3.82888E-06 1.63716E-20 1.17991E-18
 -1      2007 9.82744E-05-2.82162E-05-3.00039E-05 5.13918E-06-2.94145E-20 1.10652E-18
 -1      2008 1.00382E-04-2.85131E-05-3.08143E-05 6.59869E-06 1.93613E-19 5.17001E-19
 -1      2009 9.57904E-05-2.68593E-05-2.95617E-05-5.91413E-07 1.62349E-18 1.10066E-18
 -1      2010 9.62067E-05-2.69965E-05-2.96221E-05 1.42528E-06 8.20193E-19 1.28088E-18
 -1      2011 9.84020E-05-2.69840E-05-3.06491E-05 2.30216E-06 5.79887E-19 5.28064E-19
 -1      2012 9.74646E-05-2.78542E-05-2.98577E-05-4.78193E-06 3.33228E-19 7.61668E-19
 -1      2013 9.65243E-05-2.72594E-05-2.96399E-05-2.89508E-06 1.05760E-18 1.15528E-18
 -1      2014 9.85982E-05-2.70977E-05-3.06833E-05-2.98137E-06 1.20269E-18 3.71305E-19
 -1      2015 1.00972E-04-2.98638E-05-3.04825E-05-7.09323E-06-8.96654E-19 9.58709E-19
 -1      2016 9.90448E-05-2.88348E-05-3.00575E-05-6.05212E-06-4.61924E-19 4.77422E-19
 -1      2017 1.00878E-04-2.87869E-05-3.09069E-05-7.04945E-06-1.48118E-19-1.17393E-19
 -1      2018 1.04875E-04-3.19282E-05-3.12489E-05-7.01190E-06-4.73041E-19 1.65523E-18
 -1      2019 1.02664E-04-3.09005E-05-3.07488E-05-7.01212E-06-7.15549E-19 1.31772E-18
 -1      2020 1.04133E-04-3.11422E-05-3.12683E-05-8.48948E-06-9.14619E-19 5.00146E-19
 -1      2021 1.07931E-04-3.33330E-05-3.19438E-05-5.16966E-06 4.46519E-19 7.35350E-19
 -1      2022 1.06085E-04-3.26142E-05-3.15057E-05-5.92236E-06 2.94589E-19 1.09263E-18
 -1      2023 1.07044E-04-3.31008E-05-3.16726E-05-7.35454E-06 2.82631E-19-6.38650E-20
 -1      2024 1.09566E-04-3.38863E-05-3.24080E-05-2.64812E-06 2.76424E-19 1.61446E-18
 -1      2025 1.08441E-04-3.35612E-05-3.21238E-05-3.69275E-06 3.64376E-19 1.12282E-18
 -1      2026 1.08809E-04-3.41045E-05-3.20068E-05-4.71256E-06 3.95346E-19-1.87257E-19
 -1      2027 1.09812E-04-3.37597E-05-3.25764E-05-3.20658E-07-1.08250E-18 1.47881E-18
 -1      2028 1.09456E-04-3.37617E-05-3.24754E-05-1.29251E-06-5.07644E-19 1.76452E-18
 -1      2029 1.09282E-04-3.41842E-05-3.21841E-05-1.76833E-06-2.75795E-19 7.44073E-19
 -1      2030 1.09007E-04-3.32304E-05-3.24681E-05 1.37917E-06 4.72287E-19 9.26131E-19
 -1      2031 1.09277E-04-3.34433E-05-3.25297E-05 6.61856E-07-4.10639E-19 1.60880E-18
 -1      2032 1.08713E-04-3.36628E-05-3.21684E-05 6.83357E-07-3.80185E-19 8.34734E-19
 -1      2033 1.07556E-04-3.25313E-05-3.21529E-05 2.37926E-06 6.71944E-19 1.26475E-18
 -1      2034 1.08240E-04-3.28498E-05-3.23304E-05 1.94912E-06 6.55905E-19 1.38280E-18
 -1      2035 1.07471E-04-3.28747E-05-3.19746E-05 2.33562E-06 5.63062E-19 1.30907E-18
 -1      2036 1.05802E-04-3.18101E-05-3.17141E-05 2.79949E-06 6.79942E-21 1.26885E-18
 -1      2037 1.06702E-04-3.21606E-05-3.19572E-05 2.60960E-06 2.72314E-19 1.44469E-18
 -1      2038 1.05886E-04-3.20461E-05-3.16496E-05 3.21425E-06 3.01476E-19 1.89855E-18
 -1      2039 1.03993E-04-3.11445E-05-3.12257E-05 2.81687E-06 8.90326E-19 2.07887E-20
 -1      2040 1.04957E-04-3.14825E-05-3.14921E-05 2.79579E-06 3.95618E-19 5.17112E-19
 -1      2041 1.04202E-04-3.12919E-05-3.12496E-05 3.49468E-06 8.67497E-19 7.74759E-19
 -1      2042 1.02287E-04-3.05669E-05-3.07419E-05 2.59368E-06 6.90567E-19 5.22973E-19
 -1      2043 1.03213E-04-3.08695E-05-3.10020E-05 2.67506E-06 8.61411E-19 5.89768E-19
 -1      2044 1.02574E-04-3.06537E-05-3.08248E-05 3.37928E-06 7.51607E-19 4.47836E-20
 -1      2045 1.00769E-04-3.00853E-05-3.02967E-05 2.25221E-06 1.93612E-19 7.35866E-19
 -1      2046 1.01599E-04-3.03432E-05-3.05330E-05 2.38550E-06 4.51081E-19 1.19038E-18
 -1      2047 1.01095E-04-3.01353E-05-3.04127E-05 3.03957E-06 3.38140E-19 1.29599E-18
 -1      2048 9.94741E-05-2.96952E-05-2.99080E-05 1.87380E-06 3.50214E-19 1.05001E-18
 -1      2049 1.00184E-04-2.99072E-05-3.01118E-05 2.02501E-06 2.11775E-20 1.07135E-18
 -1      2050 9.98083E-05-2.97249E-05-3.00371E-05 2.59974E-06 7.58202E-20 1.31126E-18
 -1      2051 9.84064E-05-2.93866E-05-2.95817E-05 1.50707E-06 2.77967E-19 1.09736E-18
 -1      2052 9.89914E-05-2.95558E-05-2.97509E-05 1.65558E-06 5.83270E-19 1.42279E-18
 -1      2053 9.87263E-05-2.94059E-05-2.97102E-05 2.14022E-06 5.92026E-19 2.41035E-18
 -1      2054 9.75504E-05-2.91477E-05-2.93164E-05 1.17755E-06-1.23462E-18-2.09155E-19
 -1      2055 9.80179E-05-2.92794E-05-2.94525E-05 1.31228E-06-7.79879E-19-2.10657E-19
 -1      2056 9.78420E-05-2.91619E-05-2.94358E-05 1.70772E-06 1.31531E-19 1.19613E-18
 -1      2057 9.68813E-05-2.89667E-05-2.91067E-05 8.95863E-07 8.03702E-19 8.66084E-19
 -1      2058 9.72449E-05-2.90666E-05-2.92131E-05 1.01194E-06-4.59341E-19 3.09303E-19
 -1      2059 9.71370E-05-2.89782E-05-2.92124E-05 1.32567E-06-7.04793E-19 6.76043E-19
 -1      2060 9.63708E-05-2.88324E-05-2.89451E-05 6.63647E-07 1.89834E-19 2.19084E-18
 -1      2061 9.66464E-05-2.89064E-05-2.90262E-05 7.60030E-07 2.58136E-19 1.28653E-18
 -1      2062 9.65880E-05-2.88424E-05-2.90353E-05 1.00264E-06-2.56826E-19 1.17337E-18
 -1      2063 9.59909E-05-2.87352E-05-2.88237E-05 4.77612E-07 9.26253E-19 1.55730E-18
 -1      2064 9.61944E-05-2.87886E-05-2.88839E-05 5.55371E-07 6.69354E-19 2.12132E-18
 -1      2065 9.61701E-05-2.87440E-05-2.88983E-05 7.38356E-07 5.11838E-19 1.90789E-18
 -1      2066 9.57158E-05-2.86670E-05-2.87349E-05 3.32113E-07-8.59870E-19 1.34866E-18
 -1      2067 9.58616E-05-2.87043E-05-2.87783E-05 3.93376E-07-3.22385E-20 1.30386E-18
 -1      2068 9.58596E-05-2.86744E-05-2.87949E-05 5.27829E-07 1.08883E-19 1.27726E-18
 -1      2069 9.55228E-05-2.86209E-05-2.86719E-05 2.20730E-07-4.15443E-19 1.70370E-18
 -1      2070 9.56237E-05-2.86458E-05-2.87021E-05 2.68014E-07-5.88539E-19 1.46681E-18
 -1      2071 9.56350E-05-2.86268E-05-2.87189E-05 3.63924E-07-6.40919E-19 1.35711E-18
 -1      2072 9.53931E-05-2.85913E-05-2.86289E-05 1.37182E-07 6.49181E-19 1.04159E-18
 -1      2073 9.54596E-05-2.86070E-05-2.86491E-05 1.72998E-07-3.53121E-19 9.44482E-19
 -1      2074 9.54775E-05-2.85957E-05-2.86646E-05 2.38970E-07-9.24701E-20 1.01883E-18
 -1      2075 9.53108E-05-2.85740E-05-2.86011E-05 7.57944E-08 5.52703E-19 5.25688E-19
 -1      2076 9.53517E-05-2.85829E-05-2.86137E-05 1.02448E-07 1.07670E-18 1.89174E-18
 -1      2077 9.53716E-05-2.85766E-05-2.86272E-05 1.45657E-07 6.29390E-19 7.49110E-19
 -1      2078 9.52633E-05-2.85656E-05-2.85844E-05 3.20473E-08 1.25587E-18 2.08128E-18
 -1      2079 9.52856E-05-2.85696E-05-2.85915E-05 5.13520E-08-3.97888E-20 1.47889E-18
 -1      2080 9.53043E-05-2.85665E-05-2.86025E-05 7.76388E-08-5.96869E-20 2.79894E-18
 -1      2081 9.52403E-05-2.85635E-05-2.85755E-05 2.54182E-09 1.70757E-19 3.75021E-18
 -1      2082 9.52495E-05-2.85640E-05-2.85788E-05 1.58770E-08 1.40120E-18 3.36701E-18
 -1      2083 9.52650E-05-2.85628E-05-2.85872E-05 3.00022E-08 8.71317E-19 4.35083E-18
 -1      2084 9.52333E-05-2.85663E-05-2.85714E-05-1.40740E-08 2.11412E-18 3.34936E-18
 -1      2085 9.52342E-05-2.85642E-05-2.85724E-05-6.65747E-09 8.28686E-19 3.44980E-18
 -1      2086 9.52451E-05-2.85639E-05-2.85781E-05-9.50729E-10 1.51251E-18 5.27571E-18
 -1      2087 9.52355E-05-2.85722E-05-2.85698E-05-1.71167E-08 2.48179E-18 2.28986E-18
 -1      2088 9.52321E-05-2.85676E-05-2.85702E-05-1.62262E-08 3.43896E-18 3.09973E-18
 -1      2089 9.52389E-05-2.85678E-05-2.85735E-05-1.48874E-08 2.85705E-18 4.29611E-18
 -1      2090 9.52395E-05-2.85753E-05-2.85703E-05-1.80657E-08 2.84255E-18 3.98276E-18
 -1      2091 9.52365E-05-2.85470E-05-2.85814E-05 2.09561E-08 9.42576E-19-7.78884E-19
 -1      2092 9.52398E-05-2.85531E-05-2.85797E-05 1.51013E-08 6.92872E-19-1.21990E-19
 -1      2093 9.52443E-05-2.85641E-05-2.85773E-05 6.59470E-09 1.04025E-18 1.14381E-18
 -1      2094 9.52449E-05-2.85669E-05-2.85760E-05-8.39398E-10 8.31824E-19 4.75739E-18
 -1      2095 9.52412E-05-2.85416E-05-2.85857E-05 1.92948E-08-8.49384E-19 1.03629E-19
 -1      2096 9.52451E-05-2.85736E-05-2.85734E-05-8.58077E-09 1.56678E-18 4.08887E-18
 -1      2097 9.52425E-05-2.85730E-05-2.85725E-05-1.30271E-08 2.46793E-18 3.55607E-18
 -1      2098 9.52429E-05-2.85690E-05-2.85745E-05-1.26107E-08 3.18471E-18 3.00013E-18
 -1      2099 9.52457E-05-2.85595E-05-2.85801E-05 5.54107E-10 9.20884E-19 4.00677E-18
 -1      2100 9.52260E-05-2.85267E-05-2.85857E-05 2.85672E-08-1.22002E-18-5.88851E-18
 -1      2101 9.52307E-05-2.85347E-05-2.85837E-05 2.60023E-08-6.52719E-20-3.14903E-18
 -1      2102 9.52293E-05-2.85176E-05-2.85907E-05 3.40253E-08-7.96912E-19-3.27114E-18
 -1      2103 9.52152E-05-2.85065E-05-2.85898E-05 2.74603E-08-4.70539E-19 3.94686E-20
 -1      2104 9.52198E-05-2.85145E-05-2.85878E-05 2.87587E-08-1.98355E-19-2.14074E-18
 -1      2105 9.52149E-05-2.84921E-05-2.85953E-05 3.94823E-08-8.47035E-19-2.84029E-18
 -1      2106 9.52070E-05-2.84912E-05-2.85928E-05 1.82213E-08 2.76516E-19 9.66876E-19
 -1      2107 9.52102E-05-2.84969E-05-2.85914E-05 2.28080E-08 6.99457E-19 8.46965E-19
 -1      2108 9.52013E-05-2.84693E-05-2.85991E-05 3.38809E-08 4.83378E-19 1.12087E-18
 -1      2109 9.52031E-05-2.84841E-05-2.85942E-05 3.75873E-09-3.02990E-19-1.13728E-18
 -1      2110 9.52042E-05-2.84860E-05-2.85937E-05 1.01692E-08-7.97249E-19-5.09618E-19
 -1      2111 9.51919E-05-2.84539E-05-2.86015E-05 1.89982E-08 2.25242E-19-1.09137E-18
 -1      2112 9.52045E-05-2.84866E-05-2.85936E-05-1.18055E-08 2.44975E-19-2.76619E-19
 -1      2113 9.52032E-05-2.84842E-05-2.85942E-05-5.46384E-09-1.18034E-19-1.78677E-20
 -1      2114 9.51887E-05-2.84486E-05-2.86024E-05-1.04380E-09-6.91268E-19-3.68152E-19
 -1      2115 9.52109E-05-2.84981E-05-2.85912E-05-2.40776E-08 1.12695E-18 1.09109E-18
 -1      2116 9.52074E-05-2.84921E-05-2.85927E-05-1.96980E-08 2.95237E-19 2.89892E-19
 -1      2117 9.51923E-05-2.84545E-05-2.86015E-05-2.09084E-08-9.10474E-19-6.00854E-20
 -1      2118 9.52205E-05-2.85158E-05-2.85876E-05-2.93878E-08 4.34231E-19-6.91516E-19
 -1      2119 9.52159E-05-2.85078E-05-2.85895E-05-2.83680E-08 8.42690E-19 5.49729E-19
 -1      2120 9.52020E-05-2.84703E-05-2.85990E-05-3.52115E-08-7.51996E-19 7.36964E-19
 -1      2121 9.52315E-05-2.85362E-05-2.85834E-05-2.59732E-08 1.80084E-18 3.38014E-19
 -1      2122 9.52268E-05-2.85281E-05-2.85854E-05-2.88817E-08 1.11100E-18 5.81866E-19
 -1      2123 9.52157E-05-2.84931E-05-2.85952E-05-4.00613E-08 1.49471E-19-1.27666E-19
 -1      2124 9.52408E-05-2.85549E-05-2.85793E-05-1.42156E-08 2.68127E-18-2.16699E-18
 -1      2125 9.52375E-05-2.85489E-05-2.85810E-05-2.04670E-08 2.93485E-18-2.29141E-18
 -1      2126 9.52304E-05-2.85191E-05-2.85906E-05-3.38036E-08 1.84515E-18-6.25098E-19
 -1      2127 9.52449E-05-2.85687E-05-2.85756E-05 2.76363E-09 1.57963E-19-1.13430E-18
 -1      2128 9.52453E-05-2.85657E-05-2.85769E-05-5.28350E-09 1.02546E-18-2.19561E-18
 -1      2129 9.52421E-05-2.85430E-05-2.85854E-05-1.79124E-08 2.04832E-18-2.89606E-18
 -1      2130 5.76468E-05-3.87836E-05-8.59318E-06 4.04188E-05 5.66369E-18 3.44430E-18
 -1      2131 4.23672E-05-4.04008E-05-2.19486E-06 3.27198E-05 4.53247E-18 4.40542E-18
 -1      2132 1.22687E-05-3.47603E-05 8.09866E-06 6.18796E-06 1.23466E-18 8.30346E-18
 -1      2133 1.17510E-05-3.37122E-05 8.00340E-06-3.37961E-06-5.75559E-19 8.41019E-18
 -1      2134 2.55078E-05-3.44688E-05 2.79654E-06 2.60040E-05 3.72271E-18 6.59733E-18
 -1      2135 1.78724E-05-3.69814E-05 6.51724E-06 1.62285E-05 1.41666E-18 7.37681E-18
 -1      2136 9.92487E-05-4.35266E-05-2.38076E-05 4.25144E-05 5.99064E-18 4.01684E-18
 -1      2137 7.83313E-05-4.46694E-05-1.54108E-05 3.85380E-05 5.68190E-18 3.27865E-18
 -1      2138 1.36480E-04-3.95212E-05-4.07693E-05 3.64593E-05 5.68804E-18 4.77218E-18
 -1      2139 1.16054E-04-4.19799E-05-3.21870E-05 3.44872E-05 6.21426E-18 4.57567E-18
 -1      2140 8.73720E-05-8.62484E-06-3.38382E-05-9.97427E-06-1.01886E-18-2.68782E-18
 -1      2141 8.81084E-05-9.19473E-06-3.39049E-05-1.15480E-05-1.32023E-18-2.39162E-18
 -1      2142 9.06182E-05-1.30086E-05-3.33265E-05-1.13150E-05-1.45744E-18-2.03248E-18
 -1      2143 8.87068E-05-1.08328E-05-3.33963E-05-8.82533E-06-1.00762E-18-2.54134E-18
 -1      2144 1.78713E-04-2.66531E-05-6.36337E-05 7.99850E-06 6.32162E-18 6.11981E-20
 -1      2145 1.64987E-04-2.62431E-05-5.89691E-05 1.09906E-05 6.59500E-18 4.92973E-19
 -1      2146 1.77056E-04-2.17874E-05-6.55776E-05-1.99340E-06 6.38282E-18-1.19982E-18
 -1      2147 1.79506E-04-2.41020E-05-6.54447E-05 4.95238E-06 6.49166E-18-1.00162E-19
 -1      2148 1.56846E-04-1.51182E-05-5.98483E-05-1.53824E-06 6.95880E-18-1.25964E-18
 -1      2149 1.74943E-04-2.74289E-05-6.21296E-05-1.42524E-05 5.36002E-18-3.68840E-18
 -1      2150 1.79564E-04-2.53448E-05-6.49553E-05-5.46686E-06 5.70900E-18-1.47828E-18
 -1      2151 1.53552E-04-3.35497E-05-5.13200E-05-2.00619E-05 4.98214E-18-3.73626E-18
 -1      2152 1.69480E-04-3.26221E-05-5.74497E-05-1.70579E-05 4.86875E-18-3.41100E-18
 -1      2153 1.27456E-04-4.19544E-05-3.70610E-05-3.11006E-05 3.99376E-18-4.45836E-18
 -1      2154 1.46160E-04-4.08302E-05-4.45549E-05-2.86543E-05 4.24702E-18-3.93870E-18
 -1      2155 9.65532E-05-4.39022E-05-2.33425E-05-3.74945E-05 2.99468E-18-4.92211E-18
 -1      2156 1.16348E-04-4.24613E-05-3.12979E-05-3.99547E-05 3.70280E-18-4.66927E-18
 -1      2157 1.32477E-04-5.26503E-05-3.38589E-05-2.55261E-05 1.06557E-18-2.19043E-18
 -1      2158 6.21030E-05-4.27547E-05-9.02257E-06-3.93315E-05 6.65768E-19-5.66487E-18
 -1      2159 7.68040E-05-4.07425E-05-1.57684E-05-4.26431E-05 2.72999E-18-6.01965E-18
 -1      2160 2.75693E-05-3.75249E-05 2.82719E-06-2.52529E-05-4.15470E-19-6.04591E-18
 -1      2161 4.07837E-05-3.61726E-05-2.67257E-06-3.55333E-05 3.48554E-19-6.46011E-18
 -1      2162 1.26883E-05-2.94516E-05 6.35428E-06-7.40837E-06-9.58524E-19-5.05170E-18
 -1      2163 1.76753E-05-3.30532E-05 5.42842E-06-1.76135E-05-7.60212E-20-5.30158E-18
 -1      2164 2.71173E-05-2.78342E-05-6.15577E-08-2.65502E-05-1.17145E-18-5.84792E-18
 -1      2165 1.88735E-05-3.56015E-05 5.66140E-06 1.77480E-05-2.99045E-18-5.00173E-18
 -1      2166 1.30876E-05-3.10753E-05 6.64488E-06 8.84863E-06-1.21465E-18-5.15420E-18
 -1      2167 4.46684E-05-3.76431E-05-3.70774E-06 3.60879E-05-2.50510E-18-4.05845E-18
 -1      2168 3.01256E-05-3.92325E-05 2.26630E-06 2.52413E-05-2.74227E-18-5.03836E-18
 -1      2169 3.00463E-05-3.00384E-05-3.82273E-07 2.80617E-05-6.98590E-19-5.24864E-18
 -1      2170 8.36676E-05-4.33149E-05-1.74718E-05 4.22460E-05-4.04119E-18-4.02764E-18
 -1      2171 6.66363E-05-4.45450E-05-1.01689E-05 3.88675E-05-3.14673E-18-3.15634E-18
 -1      2172 1.22452E-04-4.58309E-05-3.26503E-05 3.71804E-05-4.03230E-18-3.79386E-18
 -1      2173 1.00503E-04-4.61315E-05-2.40895E-05 3.64669E-05-3.87179E-18-3.86416E-18
 -1      2174 1.05040E-04-5.40515E-05-2.18484E-05 3.73689E-05-1.26504E-18-1.65966E-18
 -1      2175 1.56201E-04-4.02921E-05-4.88241E-05 2.43131E-05-5.79164E-18-1.14688E-18
 -1      2176 1.37879E-04-4.27901E-05-4.09185E-05 2.58367E-05-5.31450E-18-2.44581E-18
 -1      2177 1.77884E-04-3.17613E-05-6.12581E-05 1.27806E-05-5.75368E-18-7.19978E-21
 -1      2178 1.62186E-04-3.25424E-05-5.52762E-05 1.60386E-05-6.30764E-18-1.01559E-18
 -1      2179 1.82332E-04-2.51574E-05-6.61947E-05 1.04026E-06-4.68706E-18 1.42889E-18
 -1      2180 1.77268E-04-2.56362E-05-6.41142E-05 7.81986E-06-5.23297E-18 2.28699E-20
 -1      2181 1.76828E-04-2.42685E-05-6.45644E-05-6.50902E-06-6.13040E-18 3.24371E-18
 -1      2182 1.84975E-04-2.56563E-05-6.68475E-05-4.94704E-07-5.22916E-18 2.73618E-18
 -1      2183 1.65569E-04-3.30130E-05-5.61805E-05-1.74543E-05-6.12278E-18 4.00477E-18
 -1      2184 1.75206E-04-3.07179E-05-6.09319E-05-1.01949E-05-6.04252E-18 3.19416E-18
 -1      2185 1.42400E-04-4.03460E-05-4.38468E-05-2.48634E-05-5.93103E-18 4.53332E-18
 -1      2186 1.60805E-04-3.85888E-05-5.13007E-05-2.43518E-05-6.34915E-18 4.07973E-18
 -1      2187 1.57291E-04-3.68554E-05-5.07904E-05-4.46093E-06-5.11100E-18 1.20236E-18
 -1      2188 1.08515E-04-4.58861E-05-2.75292E-05-3.49587E-05-4.54221E-18 5.81276E-18
 -1      2189 1.29430E-04-4.49879E-05-3.58464E-05-3.51901E-05-5.05679E-18 4.85985E-18
 -1      2190 7.06048E-05-4.43578E-05-1.24737E-05-3.69549E-05-4.80183E-18 5.69608E-18
 -1      2191 8.99260E-05-4.32533E-05-2.01306E-05-4.20237E-05-4.61464E-18 7.23070E-18
 -1      2192 3.99661E-05-4.05185E-05-1.14230E-06-3.05786E-05-2.57202E-18 6.18175E-18
 -1      2193 5.34940E-05-3.90298E-05-6.77919E-06-3.78603E-05-4.05644E-18 5.52559E-18
 -1      2194 1.72727E-05-3.65004E-05 6.66512E-06-1.48746E-05-3.74389E-19 7.26077E-18
 -1      2195 2.45795E-05-3.60374E-05 3.63016E-06-2.33202E-05-2.64825E-18 7.20762E-18
 -1      2196 1.61412E-04-3.46545E-05-5.36033E-05 1.92924E-05 6.48160E-18 1.45690E-18
 -1      2197 1.47067E-04-3.59762E-05-4.71942E-05 2.75430E-05 6.39637E-18 3.81292E-18
 -1      2198 1.18673E-04-5.26614E-05-2.81319E-05 3.29103E-05 3.69455E-18 1.96893E-18
 -1      2199 9.73357E-05-2.43583E-05-3.13468E-05-9.57184E-06-1.90998E-18 7.03699E-19
 -1      2200 1.44761E-04-4.47409E-05-4.22276E-05 1.83489E-05 4.58202E-18 1.88846E-18
 -1      2201 1.49019E-04-2.45417E-05-5.37100E-05-5.47181E-06 6.62147E-18-1.47468E-18
 -1      2202 1.59006E-04-3.07306E-05-5.43981E-05 6.99555E-06 6.68171E-18 3.54060E-19
 -1      2203 1.49081E-04-3.40119E-05-4.90547E-05 7.44199E-07 6.00409E-18-1.63266E-19
 -1      2204 9.65696E-05-2.31394E-05-3.15355E-05-9.82946E-06-1.95655E-18-1.70280E-19
 -1      2205 4.10186E-05-3.52582E-05-2.92715E-06 3.57009E-05 1.34678E-18 5.39009E-18
 -1      2206 1.72230E-05-2.63796E-05 3.19587E-06 1.46067E-05-4.50304E-19 8.41188E-18
 -1      2207 9.52451E-05-2.85672E-05-2.85762E-05 6.46954E-09-5.65890E-19-6.70291E-19
 -1      2208 8.04835E-05-4.78536E-05-1.40737E-05 4.25807E-05 2.84561E-18 1.96731E-18
 -1      2209 1.66782E-05-2.68398E-05 3.58061E-06-1.16530E-05-2.15782E-19 8.36233E-18
 -1      2210 3.92873E-05-3.49091E-05-2.41219E-06-3.41591E-05-3.56177E-19 6.73815E-18
 -1      2211 7.45905E-05-4.69593E-05-1.20580E-05-4.13691E-05-7.25907E-19 4.95424E-18
 -1      2212 1.42359E-04-5.08154E-05-3.88330E-05-1.88279E-05-3.34133E-18 1.96088E-18
 -1      2213 1.62128E-04-2.21418E-05-5.90061E-05 1.23151E-06-5.62345E-18 1.48930E-18
 -1      2214 1.60259E-04-1.39956E-05-6.15530E-05-4.95392E-07-5.88900E-18 7.00946E-19
 -1      2215 1.60100E-04-2.15075E-05-5.83597E-05-1.71028E-06-5.76745E-18 1.12677E-18
 -1      2216 1.37062E-04-5.26617E-05-3.58597E-05 2.29738E-05-2.63893E-18-4.23516E-19
 -1      2217 6.26362E-05-4.28874E-05-8.74872E-06 3.94186E-05-1.38956E-18-2.94699E-18
 -1      2218 5.96663E-05-3.86627E-05-8.49601E-06 4.08530E-05 8.20351E-19-2.60738E-18
 -1      2219 8.04352E-05-4.81626E-05-1.43215E-05 4.24847E-05 5.23890E-19-1.78475E-18
 -1      2220 1.54798E-05-2.56148E-05 3.86342E-06 1.00551E-06-6.72346E-19-5.33461E-18
 -1      2221 1.89053E-05-1.81509E-05-1.65177E-07-6.53623E-06-6.27440E-19-5.19019E-18
 -1      2222 1.87466E-05-1.90924E-05 1.85045E-07 9.89626E-06-6.47980E-20-5.25796E-18
 -1      2223 1.02146E-04-5.20997E-05-2.15005E-05-3.90704E-05-2.17264E-19-3.56431E-18
 -1      2224 1.49831E-04-4.26348E-05-4.54881E-05-9.18611E-06 3.10354E-18-1.13248E-18
 -1      2225 1.61011E-04-1.53466E-05-6.13680E-05-5.07701E-07 6.37731E-18-9.10455E-19
 -1      2226 1.58529E-04-2.56109E-05-5.60048E-05-1.01867E-06 4.76329E-18-8.18869E-19
 -1      2227 5.74676E-05-4.10581E-05-7.36551E-06-3.98063E-05-7.36072E-19-5.51895E-18
 -1      2228 7.37622E-05-4.53330E-05-1.27109E-05-4.38485E-05-2.10509E-18-4.10467E-18
 -1      2229 5.36726E-05-3.61294E-05-7.06530E-06-4.07631E-05-1.82112E-18-5.09660E-18
 -1      2230 1.56369E-04-3.86407E-05-4.97490E-05 5.79053E-06-5.06970E-18 1.74870E-18
 -1      2231 1.11540E-04-5.44853E-05-2.43646E-05-3.53049E-05-1.69449E-18 3.89212E-18
 -1      2232 9.56362E-05-2.64105E-05-2.96507E-05 3.54829E-06 1.44393E-18 2.22364E-18
 -1      2233 9.64943E-05-2.58853E-05-3.01872E-05 5.41101E-06 1.64891E-18 2.47141E-18
 -1      2234 8.77715E-05-1.05833E-05-3.31208E-05-3.28979E-06 6.78493E-20-2.56873E-18
 -1      2235 8.80711E-05-1.09030E-05-3.31074E-05-4.34793E-06-2.16788E-19-2.64824E-18
 -1      2236 8.85081E-05-1.14695E-05-3.30633E-05-5.28107E-06-3.87910E-19-2.62306E-18
 -1      2237 8.89955E-05-1.20056E-05-3.30387E-05-6.39761E-06-6.41590E-19-2.61324E-18
 -1      2238 8.95522E-05-1.31900E-05-3.27232E-05-4.34690E-06-2.33285E-19-2.40169E-18
 -1      2239 8.73162E-05-1.00317E-05-3.31552E-05 5.54842E-07 9.38744E-19-2.15184E-18
 -1      2240 8.73107E-05-1.00254E-05-3.31557E-05-4.52983E-07 6.54631E-19-2.26897E-18
 -1      2241 8.75561E-05-1.03060E-05-3.31401E-05 2.47985E-06 1.32366E-18-2.05531E-18
 -1      2242 8.74042E-05-1.01451E-05-3.31470E-05 1.45744E-06 1.09974E-18-2.11188E-18
 -1      2243 8.85384E-05-1.19407E-05-3.28276E-05 9.13677E-07 9.57166E-19-1.97422E-18
 -1      2244 8.81121E-05-1.09571E-05-3.31020E-05 4.42571E-06 1.67141E-18-1.84120E-18
 -1      2245 8.78082E-05-1.06314E-05-3.31162E-05 3.38198E-06 1.42035E-18-2.02391E-18
 -1      2246 8.88908E-05-1.23736E-05-3.27920E-05 2.65225E-06 1.26942E-18-1.86516E-18
 -1      2247 8.90555E-05-1.20859E-05-3.30304E-05 6.47682E-06 2.12245E-18-1.15384E-18
 -1      2248 8.85569E-05-1.15352E-05-3.30563E-05 5.36168E-06 1.83818E-18-1.52383E-18
 -1      2249 8.96013E-05-1.32589E-05-3.27151E-05 4.41499E-06 1.70941E-18-1.46443E-18
 -1      2250 9.04933E-05-1.38582E-05-3.29054E-05 8.55405E-06 2.40595E-18-5.55859E-19
 -1      2251 8.97357E-05-1.29792E-05-3.29511E-05 7.40212E-06 2.16472E-18-8.83561E-19
 -1      2252 9.07291E-05-1.46968E-05-3.25770E-05 6.18039E-06 2.04257E-18-8.76620E-19
 -1      2253 9.26203E-05-1.65819E-05-3.26860E-05 1.04384E-05 2.52797E-18 3.65210E-19
 -1      2254 9.14892E-05-1.51820E-05-3.27652E-05 9.35519E-06 2.39784E-18-1.56046E-19
 -1      2255 9.23409E-05-1.68390E-05-3.23367E-05 7.77443E-06 2.18980E-18-1.83690E-19
 -1      2256 9.48964E-05-2.71698E-05-2.90034E-05 9.37744E-07 1.15894E-18 1.97141E-18
 -1      2257 9.53445E-05-2.69259E-05-2.92503E-05 2.00029E-06 1.28148E-18 2.15993E-18
 -1      2258 9.57530E-05-2.58197E-05-2.99823E-05 3.53345E-06 1.50834E-18 1.21983E-18
 -1      2259 9.62355E-05-2.50621E-05-3.04541E-05-5.46307E-06-1.51308E-18-4.62321E-19
 -1      2260 9.56811E-05-2.58167E-05-2.99530E-05-3.47515E-06-1.30184E-18-4.75492E-19
 -1      2261 1.46040E-04-4.55198E-05-4.33791E-05 8.17757E-06 4.18126E-18 1.66018E-19
 -1      2262 1.38869E-04-5.08385E-05-3.77977E-05 1.37825E-05 2.72972E-18 4.54433E-19
 -1      2263 9.56311E-05-2.64802E-05-2.95791E-05-2.01126E-06-1.07595E-18-2.88407E-19
 -1      2264 9.53053E-05-2.68544E-05-2.93293E-05-8.24719E-07-8.50284E-19-3.38304E-19
 -1      2265 9.57080E-05-2.52166E-05-3.02162E-05-3.30606E-06-1.17970E-18-7.00012E-19
 -1      2266 9.51999E-05-2.71662E-05-2.91191E-05 1.93023E-07-7.34055E-19-2.15851E-19
 -1      2267 9.51293E-05-2.73901E-05-2.90206E-05 9.66464E-07-6.42246E-19-3.83202E-19
 -1      2268 9.55588E-05-2.64980E-05-2.96130E-05-6.24152E-07-8.34997E-19-6.93613E-19
 -1      2269 9.50995E-05-2.75554E-05-2.89250E-05 1.69555E-06-6.15399E-19-2.94454E-19
 -1      2270 9.52448E-05-2.77207E-05-2.89266E-05 2.24940E-06-4.88907E-19-3.71684E-19
 -1      2271 9.54582E-05-2.71621E-05-2.92855E-05 1.26756E-06-6.46472E-19-5.57776E-19
 -1      2272 9.53119E-05-2.78191E-05-2.89131E-05 2.81356E-06-3.84363E-19-3.29729E-19
 -1      2273 9.56308E-05-2.79639E-05-2.89862E-05 3.25938E-06-2.71272E-19-3.33404E-19
 -1      2274 9.55227E-05-2.75308E-05-2.91531E-05 2.66935E-06-5.18728E-19-5.57015E-19
 -1      2275 9.57903E-05-2.80320E-05-2.90329E-05 3.74386E-06-3.33326E-19-3.53771E-19
 -1      2276 9.62547E-05-2.81771E-05-2.91607E-05 4.14861E-06-2.39506E-19-4.54989E-19
 -1      2277 9.57676E-05-2.77492E-05-2.91619E-05 3.80301E-06-3.05245E-19-3.54535E-19
 -1      2278 9.64988E-05-2.82373E-05-2.92523E-05 4.60886E-06-8.58568E-20-5.55506E-19
 -1      2279 9.70946E-05-2.84004E-05-2.94239E-05 5.01052E-06-1.46602E-19-4.87302E-19
 -1      2280 9.61825E-05-2.78971E-05-2.92743E-05 4.81781E-06-2.34483E-19-6.39460E-19
 -1      2281 9.74216E-05-2.84738E-05-2.95485E-05 5.47757E-06-3.59037E-19-3.80939E-19
 -1      2282 9.81453E-05-2.86768E-05-2.97555E-05 5.88948E-06-5.28396E-19-3.44320E-19
 -1      2283 9.67604E-05-2.80336E-05-2.94620E-05 5.80641E-06-3.27114E-19-6.92110E-19
 -1      2284 9.85638E-05-2.87921E-05-2.99022E-05 6.36995E-06-5.81579E-19-2.30810E-19
 -1      2285 9.94193E-05-2.90662E-05-3.01360E-05 6.77791E-06-3.57485E-19-2.91029E-19
 -1      2286 9.75098E-05-2.82245E-05-2.97009E-05 6.81064E-06-5.04267E-19-2.22937E-19
 -1      2287 9.99551E-05-2.92675E-05-3.02934E-05 7.24879E-06-8.67812E-20-3.28593E-20
 -1      2288 1.00951E-04-2.96585E-05-3.05430E-05 7.60251E-06 2.07289E-19 4.71644E-20
 -1      2289 9.84664E-05-2.85615E-05-2.99675E-05 7.81736E-06-1.22037E-19 9.37171E-20
 -1      2290 1.01656E-04-3.00134E-05-3.06988E-05 8.00062E-06 3.46393E-19 2.24107E-19
 -1      2291 1.02803E-04-3.05840E-05-3.09488E-05 8.20118E-06 3.73599E-19 4.84836E-19
 -1      2292 9.97072E-05-2.91816E-05-3.02369E-05 8.74420E-06 3.03078E-19 7.35608E-19
 -1      2293 1.03762E-04-3.11871E-05-3.10915E-05 8.40728E-06 2.08198E-19 2.28306E-19
 -1      2294 1.05067E-04-3.20095E-05-3.13231E-05 8.29521E-06 2.78029E-19 4.26986E-19
 -1      2295 1.01369E-04-3.02807E-05-3.04853E-05 9.41533E-06 3.39419E-19 5.22666E-19
 -1      2296 1.06403E-04-3.29689E-05-3.14481E-05 8.11496E-06 1.14744E-19 5.13538E-19
 -1      2297 1.07844E-04-3.40896E-05-3.16443E-05 7.47139E-06-1.16484E-20 4.75822E-19
 -1      2298 1.03661E-04-3.21026E-05-3.06990E-05 9.52821E-06 2.04644E-19 4.46750E-19
 -1      2299 1.09680E-04-3.54681E-05-3.17671E-05 6.62742E-06-2.34390E-20 6.35725E-19
 -1      2300 1.11162E-04-3.68196E-05-3.19250E-05 5.21634E-06-3.12019E-19 8.62778E-19
 -1      2301 1.06834E-04-3.48527E-05-3.08959E-05 8.62219E-06 7.00862E-20 6.96760E-19
 -1      2302 1.13514E-04-3.84956E-05-3.21032E-05 3.37734E-06-4.49043E-19 8.72467E-19
 -1      2303 1.14768E-04-3.97170E-05-3.22534E-05 1.07289E-06-6.96400E-19 1.13945E-18
 -1      2304 1.11050E-04-3.84749E-05-3.11634E-05 6.09026E-06-4.46929E-19 6.87498E-19
 -1      2305 1.17287E-04-4.11357E-05-3.26051E-05-1.93805E-06-5.99319E-19 1.80632E-18
 -1      2306 1.17844E-04-4.14589E-05-3.28197E-05-4.87211E-06-5.29574E-19 1.92466E-18
 -1      2307 1.16023E-04-4.21618E-05-3.17092E-05 1.32074E-06-2.80183E-19 1.66058E-18
 -1      2308 1.19562E-04-4.15204E-05-3.34904E-05-8.56429E-06-8.12152E-19 2.02283E-18
 -1      2309 1.18946E-04-3.99905E-05-3.38509E-05-1.11066E-05-8.43314E-19 1.93217E-18
 -1      2310 1.20398E-04-4.38383E-05-3.28612E-05-5.66900E-06-6.11715E-19 2.45559E-18
 -1      2311 1.18691E-04-3.76386E-05-3.49100E-05-1.38870E-05-8.87098E-19 2.01394E-18
 -1      2312 1.16729E-04-3.39200E-05-3.54491E-05-1.43465E-05-1.00646E-18 1.90281E-18
 -1      2313 1.22129E-04-4.08624E-05-3.48146E-05-1.30571E-05-9.72923E-19 3.04675E-18
 -1      2314 1.14519E-04-2.96492E-05-3.66285E-05-1.34826E-05-1.14078E-18 1.64441E-18
 -1      2315 1.12362E-04-2.57601E-05-3.71031E-05-1.05528E-05-6.76594E-19 1.27011E-18
 -1      2316 1.19661E-04-3.22029E-05-3.75337E-05-1.54533E-05-1.41354E-18 2.91866E-18
 -1      2317 1.10500E-04-2.27357E-05-3.77930E-05-5.19462E-06-1.08343E-18-4.72998E-20
 -1      2318 1.09994E-04-2.18401E-05-3.79006E-05 1.07395E-07-1.24233E-18-6.53860E-19
 -1      2319 1.15087E-04-2.26577E-05-3.98007E-05-9.01026E-06-1.74706E-18 1.29092E-18
 -1      2320 1.10822E-04-2.31137E-05-3.76185E-05 6.52512E-06-1.20647E-18-2.14128E-18
 -1      2321 1.12454E-04-2.60088E-05-3.72786E-05 1.08381E-05-1.39752E-18-2.40686E-18
 -1      2322 1.13918E-04-2.04460E-05-4.03033E-05 3.80573E-06-2.14829E-18-1.61455E-18
 -1      2323 1.14908E-04-3.02541E-05-3.62370E-05 1.38481E-05-1.75632E-18-2.89328E-18
 -1      2324 1.17215E-04-3.43989E-05-3.57047E-05 1.48103E-05-1.08265E-18-3.26246E-18
 -1      2325 1.17576E-04-2.76064E-05-3.86838E-05 1.37837E-05-2.05281E-18-3.28461E-18
 -1      2326 1.18452E-04-3.78535E-05-3.45458E-05 1.34195E-05-9.56863E-19-3.19698E-18
 -1      2327 1.19799E-04-4.04448E-05-3.41062E-05 1.15299E-05-8.40450E-19-3.98766E-18
 -1      2328 1.21581E-04-3.75328E-05-3.60241E-05 1.48482E-05-1.44115E-18-3.56236E-18
 -1      2329 1.18813E-04-4.13473E-05-3.32656E-05 7.98880E-06-4.26640E-19-3.75258E-18
 -1      2330 1.18766E-04-4.17499E-05-3.30025E-05 5.04735E-06-6.85349E-19-3.26555E-18
 -1      2331 1.21788E-04-4.31996E-05-3.36663E-05 9.10328E-06-6.72491E-19-3.62246E-18
 -1      2332 1.16474E-04-4.07515E-05-3.25404E-05 1.65499E-06-3.40355E-19-2.78168E-18
 -1      2333 1.15480E-04-3.98090E-05-3.23878E-05-9.73577E-07 3.26755E-19-2.55672E-18
 -1      2334 1.18289E-04-4.32566E-05-3.21813E-05 1.78171E-06-3.71773E-19-2.43810E-18
 -1      2335 1.13018E-04-3.81407E-05-3.21646E-05-3.28115E-06 2.78068E-19-3.04133E-18
 -1      2336 1.11632E-04-3.67872E-05-3.20332E-05-5.05039E-06 6.62505E-19-2.92428E-18
 -1      2337 1.13376E-04-4.01234E-05-3.14442E-05-3.91765E-06 8.44700E-20-2.28490E-18
 -1      2338 1.09590E-04-3.52423E-05-3.19101E-05-6.24345E-06 1.38948E-18-2.81904E-18
 -1      2339 1.08171E-04-3.40111E-05-3.17514E-05-7.15278E-06 1.48913E-18-3.08952E-18
 -1      2340 1.08803E-04-3.63162E-05-3.11135E-05-7.27919E-06 1.01039E-18-2.22063E-18
 -1      2341 1.06661E-04-3.28692E-05-3.16468E-05-7.52969E-06 6.59576E-19-2.71117E-18
 -1      2342 1.05365E-04-3.19325E-05-3.14520E-05-7.79176E-06 4.11593E-19-2.76816E-18
 -1      2343 1.05235E-04-3.31463E-05-3.09299E-05-8.70997E-06 1.01463E-18-2.48765E-18
 -1      2344 1.04294E-04-3.11897E-05-3.13344E-05-7.66385E-06 5.02266E-20-3.37337E-18
 -1      2345 1.03166E-04-3.05379E-05-3.11160E-05-7.51699E-06 5.26413E-19-2.81927E-18
 -1      2346 1.02659E-04-3.09387E-05-3.07590E-05-8.85309E-06 2.51908E-19-2.38537E-18
 -1      2347 1.02403E-04-3.00954E-05-3.09820E-05-7.11879E-06 7.75732E-19-2.86228E-18
 -1      2348 1.01443E-04-2.96622E-05-3.07583E-05-6.75422E-06 3.84820E-19-1.63781E-18
 -1      2349 1.00833E-04-2.95665E-05-3.05559E-05-8.24762E-06 9.58974E-19-3.71972E-18
 -1      2350 1.00884E-04-2.94171E-05-3.06159E-05-6.24091E-06-2.69140E-19-1.78987E-18
 -1      2351 1.00079E-04-2.91352E-05-3.04024E-05-5.78906E-06-3.81473E-19-2.10333E-18
 -1      2352 9.95182E-05-2.87886E-05-3.03211E-05-7.27188E-06 4.75621E-20-2.68544E-18
 -1      2353 9.96543E-05-2.90093E-05-3.02613E-05-5.25476E-06-5.03968E-20-1.73764E-18
 -1      2354 9.89887E-05-2.88273E-05-3.00684E-05-4.79479E-06 2.19600E-20-2.19329E-18
 -1      2355 9.85413E-05-2.83890E-05-3.00712E-05-6.16811E-06-9.78786E-20-2.52571E-18
 -1      2356 9.86566E-05-2.87693E-05-2.99366E-05-4.29176E-06 3.54113E-19-1.58053E-18
 -1      2357 9.81141E-05-2.86519E-05-2.97692E-05-3.86636E-06 7.77633E-19-1.08734E-18
 -1      2358 9.77915E-05-2.82123E-05-2.98244E-05-5.07980E-06 6.49417E-19-1.67456E-18
 -1      2359 9.78500E-05-2.86306E-05-2.96515E-05-3.41994E-06 6.79861E-19-5.17615E-19
 -1      2360 9.74147E-05-2.85552E-05-2.95110E-05-3.04838E-06 8.47402E-19 1.23207E-19
 -1      2361 9.72027E-05-2.81587E-05-2.95945E-05-4.08394E-06 1.22410E-18-6.20352E-19
 -1      2362 9.72038E-05-2.85530E-05-2.94096E-05-2.66760E-06 5.14763E-20 9.74773E-19
 -1      2363 9.68599E-05-2.85051E-05-2.92947E-05-2.35528E-06 9.07558E-20 9.35582E-19
 -1      2364 9.67354E-05-2.81686E-05-2.93896E-05-3.21515E-06 1.38888E-18 8.22595E-20
 -1      2365 9.66922E-05-2.85119E-05-2.92098E-05-2.03979E-06-2.10352E-20 5.95613E-19
 -1      2366 9.64252E-05-2.84823E-05-2.91181E-05-1.78457E-06-4.64619E-20-4.11372E-21
 -1      2367 9.63643E-05-2.82079E-05-2.92133E-05-2.48245E-06-1.10710E-19 1.21357E-18
 -1      2368 9.62932E-05-2.84929E-05-2.90488E-05-1.52912E-06 1.07123E-18-7.98077E-20
 -1      2369 9.60894E-05-2.84756E-05-2.89770E-05-1.32512E-06 1.61521E-18 4.82893E-19
 -1      2370 9.60716E-05-2.82580E-05-2.90660E-05-1.88036E-06 4.95210E-19 1.32441E-18
 -1      2371 9.59870E-05-2.84873E-05-2.89217E-05-1.12224E-06 1.25350E-18 4.64153E-19
 -1      2372 9.58344E-05-2.84781E-05-2.88666E-05-9.62230E-07 3.11235E-19 1.35456E-18
 -1      2373 9.58434E-05-2.83093E-05-2.89458E-05-1.39595E-06 1.50513E-18 1.05747E-18
 -1      2374 9.57563E-05-2.84895E-05-2.88233E-05-8.03858E-07-5.91053E-19 1.93898E-18
 -1      2375 9.56445E-05-2.84858E-05-2.87820E-05-6.80457E-07-5.95622E-20 1.73270E-18
 -1      2376 9.56683E-05-2.83571E-05-2.88499E-05-1.01333E-06 5.49698E-19 1.91820E-18
 -1      2377 9.55860E-05-2.84962E-05-2.87487E-05-5.58845E-07-4.10858E-19 6.58459E-19
 -1      2378 9.55061E-05-2.84961E-05-2.87183E-05-4.65225E-07-4.85139E-19 4.57884E-19
 -1      2379 9.55363E-05-2.83995E-05-2.87747E-05-7.16181E-07-6.17607E-19 1.75737E-18
 -1      2380 9.54632E-05-2.85053E-05-2.86931E-05-3.73386E-07 2.09762E-20 9.14881E-20
 -1      2381 9.54079E-05-2.85075E-05-2.86713E-05-3.03571E-07 7.66572E-19 7.16654E-20
 -1      2382 9.54387E-05-2.84358E-05-2.87170E-05-4.89204E-07-2.90562E-19 5.06623E-19
 -1      2383 9.53772E-05-2.85155E-05-2.86527E-05-2.35503E-07 8.22261E-19-1.20009E-18
 -1      2384 9.53403E-05-2.85191E-05-2.86374E-05-1.84510E-07 1.19336E-18-6.26872E-19
 -1      2385 9.53683E-05-2.84664E-05-2.86734E-05-3.18856E-07 1.82939E-19-7.99648E-19
 -1      2386 9.53188E-05-2.85261E-05-2.86238E-05-1.35283E-07 1.44044E-18-1.09461E-18
 -1      2387 9.52955E-05-2.85306E-05-2.86133E-05-9.91948E-08 5.26907E-19-6.76172E-19
 -1      2388 9.53187E-05-2.84921E-05-2.86409E-05-1.93712E-07 1.11385E-18-1.31991E-18
 -1      2389 9.52809E-05-2.85372E-05-2.86034E-05-6.47784E-08 4.56035E-19-4.58039E-20
 -1      2390 9.52674E-05-2.85423E-05-2.85962E-05-4.09849E-08 8.91976E-19 6.99073E-19
 -1      2391 9.52846E-05-2.85136E-05-2.86167E-05-1.04497E-07 8.96193E-19-2.00087E-18
 -1      2392 9.47302E-05-2.78532E-05-2.86462E-05-1.82052E-06 4.54044E-19 1.35353E-18
 -1      2393 9.45522E-05-2.76979E-05-2.86258E-05-1.37525E-06 5.78988E-19 1.46552E-18
 -1      2394 9.52050E-05-2.81202E-05-2.87365E-05-2.63424E-06 6.09103E-19 1.13744E-18
 -1      2395 9.48329E-05-2.79566E-05-2.86462E-05-2.29952E-06 5.10178E-19 1.23425E-18
 -1      2396 9.52369E-05-2.77941E-05-2.89192E-05-2.24614E-06 6.11528E-19 6.85607E-19
 -1      2397 9.59612E-05-2.84058E-05-2.89390E-05-3.29030E-06 5.57725E-19 1.30440E-18
 -1      2398 9.54378E-05-2.82229E-05-2.87974E-05-3.01158E-06 5.58778E-19 1.19993E-18
 -1      2399 9.55919E-05-2.80606E-05-2.89546E-05-3.19377E-06 6.19806E-19 7.04922E-19
 -1      2400 9.69554E-05-2.87354E-05-2.92248E-05-3.86181E-06 4.68124E-19 1.25411E-18
 -1      2401 9.63059E-05-2.85233E-05-2.90441E-05-3.61344E-06 4.58885E-19 1.35574E-18
 -1      2402 9.61785E-05-2.83150E-05-2.90949E-05-3.97037E-06 4.38322E-19 6.94274E-19
 -1      2403 9.81610E-05-2.91349E-05-2.95722E-05-4.37082E-06 4.01607E-19 1.23373E-18
 -1      2404 9.74017E-05-2.88820E-05-2.93619E-05-4.15034E-06 5.68697E-19 1.22905E-18
 -1      2405 9.69734E-05-2.86038E-05-2.93105E-05-4.64850E-06 5.66355E-19 8.36491E-19
 -1      2406 9.95607E-05-2.96365E-05-2.99609E-05-4.79017E-06 4.95970E-19 1.05189E-18
 -1      2407 9.87068E-05-2.93285E-05-2.97308E-05-4.61859E-06 4.70878E-19 1.21497E-18
 -1      2408 9.79688E-05-2.89741E-05-2.95776E-05-5.24442E-06 4.23506E-19 1.01533E-18
 -1      2409 1.01137E-04-3.02785E-05-3.03679E-05-5.03856E-06 6.52352E-19 8.46902E-19
 -1      2410 1.00210E-04-2.98998E-05-3.01304E-05-4.96330E-06 6.42646E-19 1.01668E-18
 -1      2411 9.91709E-05-2.94826E-05-2.98749E-05-5.71824E-06 7.35855E-19 5.77822E-19
 -1      2412 1.02861E-04-3.10996E-05-3.07648E-05-4.97449E-06 5.56932E-19 7.83265E-19
 -1      2413 1.01899E-04-3.06387E-05-3.05367E-05-5.07162E-06 5.37729E-19 7.45596E-19
 -1      2414 1.00597E-04-3.01972E-05-3.01804E-05-5.96812E-06 6.43767E-19 6.11469E-19
 -1      2415 1.04674E-04-3.21208E-05-3.11182E-05-4.39844E-06 3.19709E-19 6.96455E-19
 -1      2416 1.03741E-04-3.15819E-05-3.09212E-05-4.76852E-06 5.48149E-19 6.06076E-19
 -1      2417 1.02268E-04-3.11875E-05-3.04728E-05-5.82420E-06 5.15770E-19 7.41818E-19
 -1      2418 1.06466E-04-3.33055E-05-3.13942E-05-3.08076E-06-8.59573E-20 4.52462E-19
 -1      2419 1.05664E-04-3.27305E-05-3.12524E-05-3.82837E-06 1.80613E-19 6.54565E-19
 -1      2420 1.04185E-04-3.24943E-05-3.07350E-05-5.05292E-06 1.83558E-19 5.57396E-21
 -1      2421 1.08034E-04-3.44943E-05-3.15702E-05-8.40042E-07-3.23451E-19 2.66426E-19
 -1      2422 1.07512E-04-3.39949E-05-3.15037E-05-2.02500E-06-3.75891E-19 3.83929E-19
 -1      2423 1.06291E-04-3.40637E-05-3.09623E-05-3.39252E-06-1.26201E-19-1.64120E-19
 -1      2424 1.09050E-04-3.53289E-05-3.16504E-05 2.30078E-06 2.26009E-19 4.10399E-19
 -1      2425 1.08996E-04-3.51141E-05-3.16658E-05 7.48943E-07-2.47195E-19 2.82260E-19
 -1      2426 1.08386E-04-3.56425E-05-3.11754E-05-6.50116E-07-2.80249E-19-1.77863E-19
 -1      2427 1.09074E-04-3.52446E-05-3.16771E-05 5.88476E-06 1.53174E-19 1.15872E-18
 -1      2428 1.09664E-04-3.55953E-05-3.17585E-05 4.27064E-06 3.88669E-19 9.40320E-19
 -1      2429 1.10047E-04-3.66771E-05-3.14273E-05 3.10078E-06 1.11851E-19 3.70061E-19
 -1      2430 1.07727E-04-3.36883E-05-3.17223E-05 8.82071E-06-3.35784E-19 1.28915E-18
 -1      2431 1.08993E-04-3.47989E-05-3.18310E-05 7.73017E-06-1.86076E-19 1.47930E-18
 -1      2432 1.10615E-04-3.63395E-05-3.17920E-05 7.22343E-06-4.54726E-19 1.61040E-18
 -1      2433 1.05104E-04-3.06706E-05-3.18440E-05 9.55444E-06-1.61767E-19 1.76248E-18
 -1      2434 1.06769E-04-3.23699E-05-3.19358E-05 9.67566E-06-3.77990E-19 1.64006E-18
 -1      2435 1.09494E-04-3.39690E-05-3.23179E-05 1.02831E-05-4.69192E-19 1.79958E-18
 -1      2436 1.02171E-04-2.72832E-05-3.20230E-05 6.90357E-06 3.43035E-19 1.70831E-18
 -1      2437 1.03609E-04-2.88736E-05-3.20748E-05 8.57925E-06 3.82554E-19 1.57099E-18
 -1      2438 1.06821E-04-2.98996E-05-3.29505E-05 1.03771E-05 6.93062E-20 2.68936E-18
 -1      2439 1.00537E-04-2.53999E-05-3.21640E-05 1.28079E-06 1.19659E-18 6.42472E-19
 -1      2440 1.01056E-04-2.59913E-05-3.21745E-05 4.04798E-06 5.58446E-19 8.69671E-19
 -1      2441 1.03958E-04-2.59179E-05-3.34880E-05 6.37996E-06 1.01762E-18 1.94590E-18
 -1      2442 1.01338E-04-2.62947E-05-3.21826E-05-4.99078E-06 9.03936E-19 1.01755E-18
 -1      2443 1.00652E-04-2.55061E-05-3.21582E-05-2.31774E-06 1.31636E-18 7.17114E-19
 -1      2444 1.02838E-04-2.43906E-05-3.36888E-05-6.08192E-07 1.17335E-18 7.56255E-19
 -1      2445 1.04145E-04-2.93979E-05-3.20842E-05-9.08922E-06-2.64013E-19 9.49901E-20
 -1      2446 1.02615E-04-2.77358E-05-3.20185E-05-7.63085E-06 4.94277E-19 3.89013E-19
 -1      2447 1.04335E-04-2.63774E-05-3.34454E-05-7.34958E-06 7.42312E-19 7.39571E-19
 -1      2448 1.07304E-04-3.28222E-05-3.19673E-05-9.71182E-06-6.76894E-19-2.40140E-19
 -1      2449 1.05635E-04-3.11841E-05-3.18601E-05-9.78105E-06-9.11973E-19-4.78541E-20
 -1      2450 1.07337E-04-3.05395E-05-3.28917E-05-1.07721E-05-1.39436E-19-2.78674E-19
 -1      2451 1.09376E-04-3.50250E-05-3.18905E-05-7.49121E-06 5.75122E-19-1.16874E-18
 -1      2452 1.08157E-04-3.40315E-05-3.17709E-05-8.65433E-06 4.37898E-19-9.56237E-19
 -1      2453 1.09882E-04-3.44475E-05-3.22852E-05-1.01747E-05 4.07248E-19-1.47802E-18
 -1      2454 1.09899E-04-3.56112E-05-3.18432E-05-4.01025E-06 1.94169E-19-9.68293E-19
 -1      2455 1.09353E-04-3.53533E-05-3.17550E-05-5.57753E-06 2.66425E-19-1.48559E-18
 -1      2456 1.10783E-04-3.65016E-05-3.18009E-05-6.89769E-06 5.88569E-19-2.03930E-18
 -1      2457 1.09173E-04-3.50224E-05-3.17746E-05-6.33183E-07-7.09602E-19-1.04125E-18
 -1      2458 1.09239E-04-3.52773E-05-3.17527E-05-2.07401E-06-2.85854E-19-1.32757E-18
 -1      2459 1.10073E-04-3.65916E-05-3.14804E-05-2.83398E-06 2.19130E-19-2.41288E-18
 -1      2460 1.07723E-04-3.38838E-05-3.16381E-05 1.92440E-06-2.51946E-19-7.63443E-19
 -1      2461 1.08218E-04-3.43805E-05-3.16946E-05 8.68942E-07-9.78541E-19-7.82565E-19
 -1      2462 1.08389E-04-3.54411E-05-3.12676E-05 7.07628E-07-9.50833E-19-3.18677E-18
 -1      2463 1.05985E-04-3.26571E-05-3.14191E-05 3.49812E-06-4.11655E-19 7.67128E-19
 -1      2464 1.06722E-04-3.32027E-05-3.15442E-05 2.87123E-06-1.55351E-19 3.10011E-20
 -1      2465 1.06359E-04-3.38463E-05-3.10879E-05 3.18724E-06-8.16627E-19-1.80536E-18
 -1      2466 1.04228E-04-3.15767E-05-3.11306E-05 4.22418E-06 4.82413E-19 1.43137E-19
 -1      2467 1.05064E-04-3.20719E-05-3.13028E-05 3.95565E-06 3.45068E-19 5.86926E-19
 -1      2468 1.04378E-04-3.23205E-05-3.08933E-05 4.58611E-06 1.17580E-19-1.34313E-18
 -1      2469 1.02593E-04-3.07163E-05-3.08001E-05 4.33877E-06 1.35606E-18-7.62252E-19
 -1      2470 1.03430E-04-3.11259E-05-3.09954E-05 4.32351E-06 8.45516E-19-1.38203E-19
 -1      2471 1.02618E-04-3.10841E-05-3.06672E-05 5.12200E-06 1.17048E-18-1.47561E-18
 -1      2472 1.01142E-04-3.00682E-05-3.04566E-05 4.06995E-06 9.90900E-20 3.07059E-19
 -1      2473 1.01921E-04-3.03902E-05-3.06551E-05 4.20971E-06 7.31606E-19 4.58213E-19
 -1      2474 1.01121E-04-3.01732E-05-3.04146E-05 5.06422E-06 3.73783E-19-1.10441E-18
 -1      2475 9.98928E-05-2.95954E-05-3.01244E-05 3.59694E-06-1.15146E-19 1.28633E-18
 -1      2476 1.00583E-04-2.98411E-05-3.03117E-05 3.81592E-06-1.15509E-19 8.80630E-19
 -1      2477 9.98768E-05-2.95420E-05-3.01504E-05 4.64948E-06-1.73493E-19 9.74340E-19
 -1      2478 9.88438E-05-2.92571E-05-2.98202E-05 3.04433E-06-1.08194E-19 1.63092E-18
 -1      2479 9.94333E-05-2.94407E-05-2.99877E-05 3.29074E-06-5.22447E-21 1.09414E-18
 -1      2480 9.88542E-05-2.91232E-05-2.98906E-05 4.05597E-06-2.09580E-19 1.50251E-18
 -1      2481 9.79810E-05-2.90181E-05-2.95531E-05 2.49058E-06 3.66757E-19 1.89934E-18
 -1      2482 9.84695E-05-2.91533E-05-2.96969E-05 2.73249E-06 3.77309E-19 2.00047E-18
 -1      2483 9.80217E-05-2.88550E-05-2.96481E-05 3.40464E-06 4.75930E-19 1.32964E-18
 -1      2484 9.72852E-05-2.88514E-05-2.93266E-05 1.98010E-06 4.40455E-19 1.32117E-18
 -1      2485 9.76796E-05-2.89494E-05-2.94460E-05 2.20001E-06 8.18716E-19 1.60604E-18
 -1      2486 9.73507E-05-2.86889E-05-2.94312E-05 2.77032E-06 8.87407E-19 1.81553E-18
 -1      2487 9.67347E-05-2.87368E-05-2.91400E-05 1.53418E-06-7.25005E-19 5.03541E-19
 -1      2488 9.70456E-05-2.88065E-05-2.92365E-05 1.72422E-06-5.07433E-19 8.68870E-19
 -1      2489 9.68162E-05-2.85903E-05-2.92438E-05 2.19440E-06 4.30379E-19 1.02188E-18
 -1      2490 9.63074E-05-2.86595E-05-2.89902E-05 1.15942E-06-8.35002E-20 7.20954E-19
 -1      2491 9.65470E-05-2.87081E-05-2.90662E-05 1.31770E-06-1.01236E-19 1.00883E-18
 -1      2492 9.63959E-05-2.85353E-05-2.90868E-05 1.69573E-06-4.52109E-19 4.17029E-19
 -1      2493 9.59823E-05-2.86089E-05-2.88729E-05 8.53800E-07 5.98268E-19 1.00937E-18
 -1      2494 9.61628E-05-2.86417E-05-2.89312E-05 9.81870E-07-1.79238E-19 5.84644E-19
 -1      2495 9.60705E-05-2.85079E-05-2.89585E-05 1.27888E-06-3.15693E-19 6.49411E-19
 -1      2496 9.57404E-05-2.85772E-05-2.87830E-05 6.10693E-07-3.92836E-19 2.92948E-19
 -1      2497 9.58729E-05-2.85985E-05-2.88267E-05 7.11839E-07 7.77523E-19 5.55550E-19
 -1      2498 9.58227E-05-2.84976E-05-2.88562E-05 9.40075E-07 7.39919E-19 5.97656E-19
 -1      2499 9.55647E-05-2.85587E-05-2.87158E-05 4.21519E-07-5.27056E-19-2.52565E-19
 -1      2500 9.56593E-05-2.85716E-05-2.87478E-05 4.99699E-07-3.29194E-19 4.35089E-19
 -1      2501 9.56376E-05-2.84975E-05-2.87765E-05 6.71175E-07 6.89578E-20 3.39754E-19
 -1      2502 9.54407E-05-2.85493E-05-2.86669E-05 2.77336E-07 6.09326E-19-6.74092E-19
 -1      2503 9.55059E-05-2.85564E-05-2.86895E-05 3.36537E-07-2.73724E-19-1.29656E-19
 -1      2504 9.55024E-05-2.85031E-05-2.87157E-05 4.62298E-07-1.80342E-20-7.93222E-19
 -1      2505 9.53564E-05-2.85462E-05-2.86323E-05 1.69832E-07-2.37084E-19 7.32302E-19
 -1      2506 9.53993E-05-2.85491E-05-2.86477E-05 2.13688E-07 1.36930E-19-1.78700E-19
 -1      2507 9.54060E-05-2.85117E-05-2.86704E-05 3.03425E-07-3.13312E-19-4.24154E-19
 -1      2508 9.53017E-05-2.85475E-05-2.86085E-05 9.14697E-08-5.59274E-19 2.18683E-18
 -1      2509 9.53279E-05-2.85473E-05-2.86186E-05 1.23092E-07-1.34110E-18 1.95890E-18
 -1      2510 9.53391E-05-2.85214E-05-2.86373E-05 1.85597E-07-8.15996E-19 1.26406E-18
 -1      2511 9.52686E-05-2.85519E-05-2.85925E-05 3.70890E-08 2.37592E-19 3.82552E-18
 -1      2512 9.52831E-05-2.85496E-05-2.85989E-05 5.87380E-08 2.06278E-19 3.31401E-18
 -1      2513 9.52949E-05-2.85329E-05-2.86134E-05 9.98879E-08-1.44477E-18 4.77971E-19
 -1      2514 9.52500E-05-2.85589E-05-2.85817E-05 2.93758E-09 1.52264E-18 3.91533E-18
 -1      2515 9.52570E-05-2.85549E-05-2.85857E-05 1.61890E-08 1.77134E-18 4.26972E-18
 -1      2516 9.52677E-05-2.85455E-05-2.85962E-05 4.06024E-08 8.78206E-19 2.94836E-18
 -1      2517 9.52440E-05-2.85649E-05-2.85763E-05-9.16922E-09 2.47874E-18 3.00918E-18
 -1      2518 9.52001E-05-2.84558E-05-2.86052E-05 5.48007E-08 1.69721E-19-5.50233E-19
 -1      2519 9.52096E-05-2.84682E-05-2.86031E-05 5.54886E-08-9.18234E-19-3.71002E-18
 -1      2520 9.51814E-05-2.84289E-05-2.86088E-05 4.26312E-08 3.57776E-19 2.29956E-18
 -1      2521 9.51892E-05-2.84387E-05-2.86072E-05 4.91001E-08-1.62222E-20 1.11040E-18
 -1      2522 9.51820E-05-2.84123E-05-2.86152E-05 6.61459E-08 5.82240E-19-2.58899E-19
 -1      2523 9.52401E-05-2.85203E-05-2.85945E-05 3.99262E-08-7.40590E-19-3.30190E-19
 -1      2524 9.52463E-05-2.85312E-05-2.85917E-05 3.11054E-08-5.78776E-19 5.84409E-19
 -1      2525 9.52219E-05-2.84884E-05-2.86005E-05 5.36778E-08-2.20617E-18-4.77423E-18
 -1      2526 9.52305E-05-2.85009E-05-2.85979E-05 4.81202E-08-1.64547E-18-1.69482E-18
 -1      2527 9.52332E-05-2.84906E-05-2.86043E-05 6.02498E-08-1.32705E-18-2.64439E-18
 -1      2528 9.52089E-05-2.84504E-05-2.86105E-05 7.14283E-08-1.38076E-18-2.59531E-18
 -1      2529 9.51697E-05-2.84122E-05-2.86108E-05 2.01745E-08 1.08216E-19-1.06255E-18
 -1      2530 9.51739E-05-2.84175E-05-2.86100E-05 3.07120E-08 4.99238E-19-4.48643E-20
 -1      2531 9.51604E-05-2.83830E-05-2.86183E-05 4.61484E-08-7.01293E-19 1.53602E-18
 -1      2532 9.51672E-05-2.84084E-05-2.86112E-05-7.12289E-09-9.83034E-19-6.33937E-19
 -1      2533 9.51671E-05-2.84083E-05-2.86112E-05 4.81766E-09-4.68696E-19-1.52037E-18
 -1      2534 9.51486E-05-2.83673E-05-2.86199E-05 1.57534E-08-1.20819E-20-1.25464E-18
 -1      2535 9.51746E-05-2.84182E-05-2.86100E-05-3.27410E-08-1.20979E-18 9.86128E-19
 -1      2536 9.51701E-05-2.84126E-05-2.86108E-05-2.23925E-08-1.46450E-18 1.13512E-18
 -1      2537 9.51489E-05-2.83675E-05-2.86199E-05-1.82391E-08-5.07616E-19-1.92002E-19
 -1      2538 9.51900E-05-2.84394E-05-2.86073E-05-5.03020E-08-4.87106E-19-2.00698E-19
 -1      2539 9.51821E-05-2.84296E-05-2.86088E-05-4.42211E-08-3.21285E-19 1.68694E-19
 -1      2540 9.51612E-05-2.83835E-05-2.86184E-05-4.80769E-08-8.71056E-19 9.49253E-19
 -1      2541 9.52107E-05-2.84692E-05-2.86032E-05-5.60004E-08 3.28025E-19 3.55876E-19
 -1      2542 9.52011E-05-2.84566E-05-2.86053E-05-5.56766E-08 7.49035E-21-5.18071E-19
 -1      2543 9.51830E-05-2.84128E-05-2.86154E-05-6.73328E-08-3.58335E-19-2.62906E-19
 -1      2544 9.52318E-05-2.85023E-05-2.85979E-05-4.80960E-08 1.94700E-18-1.85459E-19
 -1      2545 9.52228E-05-2.84894E-05-2.86005E-05-5.36859E-08 7.83879E-19 1.72568E-18
 -1      2546 9.52100E-05-2.84511E-05-2.86107E-05-7.17315E-08 5.76732E-19 5.98824E-19
 -1      2547 9.52472E-05-2.85331E-05-2.85915E-05-2.89286E-08-1.62333E-19-4.84314E-18
 -1      2548 9.52419E-05-2.85222E-05-2.85944E-05-3.86620E-08 1.78814E-18-3.93088E-18
 -1      2549 9.52361E-05-2.84921E-05-2.86044E-05-6.03746E-08 3.05067E-19-1.76240E-18
 -1      2550 2.47683E-05-2.12492E-05-1.35418E-06 2.22252E-05-7.95576E-19 7.51488E-18
 -1      2551 1.89472E-05-1.84708E-05 5.26621E-08 8.80543E-06-1.17521E-18 8.03326E-18
 -1      2552 9.45600E-05-5.14427E-05-1.86892E-05 4.16694E-05 9.70276E-19 7.42636E-19
 -1      2553 7.55234E-05-4.49585E-05-1.28184E-05 4.17888E-05 7.18284E-19 8.97326E-19
 -1      2554 9.46018E-05-2.75661E-05-2.87113E-05-7.10637E-07 8.01942E-19 1.62227E-18
 -1      2555 9.46861E-05-2.73967E-05-2.87935E-05-5.31204E-08 9.77423E-19 1.86984E-18
 -1      2556 9.51476E-05-2.74497E-05-2.90304E-05-9.87450E-07 8.80980E-19 8.90361E-19
 -1      2557 9.52472E-05-2.85588E-05-2.85803E-05 9.78004E-10-6.84708E-19-8.18314E-19
 -1      2558 1.79742E-05-1.86104E-05 4.53299E-07-5.82636E-06 2.00879E-19 8.41612E-18
 -1      2559 2.40745E-05-2.19799E-05-7.63621E-07-2.02398E-05 3.00697E-20 7.77322E-18
 -1      2560 5.41987E-05-3.49699E-05-8.19790E-06 4.10193E-05 1.14349E-19 3.51603E-18
 -1      2561 3.78081E-05-2.81063E-05-3.88750E-06 3.21524E-05-1.25022E-18 6.21277E-18
 -1      2562 9.52771E-05-2.00259E-05-3.22967E-05-1.11249E-05-1.87912E-18-8.74959E-19
 -1      2563 9.57492E-05-2.33719E-05-3.10468E-05-7.31869E-06-1.74921E-18-6.63542E-19
 -1      2564 9.53268E-05-2.24557E-05-3.12026E-05-6.87651E-06-1.54580E-18-9.42652E-19
 -1      2565 9.34156E-05-1.75402E-05-3.25172E-05-1.07079E-05-1.74504E-18-1.36114E-18
 -1      2566 3.48842E-05-2.77149E-05-2.85267E-06-2.91224E-05 4.32410E-19 6.68690E-18
 -1      2567 4.93360E-05-3.31631E-05-6.93821E-06-3.80601E-05 5.10549E-19 5.18850E-18
 -1      2568 3.52508E-05-2.16301E-05-5.30158E-06-2.43588E-05 3.28755E-19 7.11063E-18
 -1      2569 1.48873E-04-2.38532E-05-5.38369E-05 6.77427E-06-5.12413E-18 8.68209E-20
 -1      2570 1.48576E-04-1.68054E-05-5.69273E-05 5.64141E-06-5.74754E-18-1.86241E-19
 -1      2571 9.73987E-05-5.28355E-05-1.88958E-05-3.87844E-05-2.27937E-18-2.89346E-18
 -1      2572 1.14840E-04-5.60248E-05-2.53266E-05-3.43472E-05-1.11681E-18-1.85024E-18
 -1      2573 1.41594E-04-4.76465E-05-4.04897E-05-4.99813E-06 1.54930E-18 7.62118E-19
 -1      2574 1.46417E-04-3.93176E-05-4.62363E-05 8.51650E-07 2.75307E-18 6.49674E-19
 -1      2575 8.73862E-05-1.01214E-05-3.31492E-05-1.35456E-06 5.19441E-19-2.42195E-18
 -1      2576 8.75268E-05-1.02690E-05-3.31434E-05-2.37483E-06 2.61862E-19-2.52072E-18
 -1      2577 8.88555E-05-1.23270E-05-3.27971E-05-2.57641E-06 1.79169E-19-2.31007E-18
 -1      2578 8.85254E-05-1.19234E-05-3.28295E-05-8.26492E-07 5.19411E-19-2.17879E-18
 -1      2579 1.46271E-04-2.72634E-05-5.13349E-05 4.33999E-06 3.64521E-18 5.62430E-19
 -1      2580 1.49690E-04-2.11357E-05-5.53994E-05 3.84598E-06 4.45624E-18 3.73965E-19
 -1      2581 1.44464E-04-1.16468E-05-5.72931E-05-2.82644E-06 6.85546E-18-1.93409E-18
 -1      2582 1.44246E-04-1.56941E-05-5.56116E-05-5.27046E-06 6.97256E-18-1.69671E-18
 -1      2583 1.47150E-04-1.43998E-05-5.71382E-05 3.31995E-06 5.65140E-18-1.44631E-19
 -1      2584 1.44067E-04-1.03943E-05-5.77395E-05 1.35575E-06 6.52512E-18-6.58528E-19
 -1      2585 1.25500E-04-5.71379E-05-2.93540E-05-2.60973E-05-1.09839E-18-1.72710E-18
 -1      2586 1.34737E-04-5.50467E-05-3.43766E-05-1.85203E-05-1.70995E-19-1.00628E-18
 -1      2587 1.20974E-04-5.87292E-05-2.64717E-05-2.77925E-05-2.39499E-18-1.22942E-18
 -1      2588 1.51200E-04-3.54549E-05-5.00946E-05-3.99877E-06-4.53141E-18 2.47948E-18
 -1      2589 1.47498E-04-4.38383E-05-4.45196E-05 2.77450E-07-3.84564E-18 3.14630E-18
 -1      2590 2.81243E-05-2.07847E-05-2.74755E-06-2.19992E-05-9.26019E-19-5.26982E-18
 -1      2591 3.83318E-05-2.61335E-05-4.91666E-06-3.25246E-05-1.38299E-18-5.40026E-18
 -1      2592 4.07177E-05-2.80150E-05-5.21897E-06 3.33812E-05 7.72494E-19-3.66236E-18
 -1      2593 2.91804E-05-2.31758E-05-2.22111E-06 2.30422E-05 4.00117E-19-4.44226E-18
 -1      2594 1.18316E-04-5.83013E-05-2.59000E-05 3.19690E-05-2.12394E-19-8.68209E-21
 -1      2595 1.03290E-04-5.52800E-05-2.03762E-05 3.57921E-05 2.34628E-19-8.27128E-19
 -1      2596 1.06502E-04-5.58189E-05-2.16435E-05-3.48213E-05-6.39510E-19 3.23789E-18
 -1      2597 1.23171E-04-5.83186E-05-2.81070E-05-2.93072E-05-9.12890E-19 2.27693E-18
 -1      2598 1.42740E-04-5.44135E-05-3.83054E-05 1.19010E-05-2.25935E-18 2.61288E-18
 -1      2599 1.30458E-04-5.79569E-05-3.11383E-05 2.08034E-05-5.46760E-19 7.80964E-19
 -1      2600 1.28116E-04-6.03420E-05-2.89425E-05 2.06756E-05 5.06208E-19 1.33545E-18
 -1      2601 1.46802E-04-1.77338E-05-5.58783E-05-6.45305E-06-4.99792E-18 9.20301E-19
 -1      2602 1.48879E-04-2.48634E-05-5.34348E-05-7.32709E-06-5.18003E-18 1.46516E-18
 -1      2603 1.47633E-04-1.24465E-05-5.82487E-05 1.98464E-06-6.00250E-18 1.28537E-19
 -1      2604 1.45552E-04-1.21093E-05-5.76881E-05-2.22143E-06-5.57729E-18-2.39657E-19
 -1      2605 1.49027E-04-4.15484E-05-4.62434E-05 7.10545E-07-4.06565E-18-1.06938E-19
 -1      2606 1.51383E-04-3.46827E-05-5.05122E-05 3.99916E-06-4.32929E-18 7.55977E-20
 -1      2607 1.36225E-04-5.60895E-05-3.43388E-05-1.56686E-05-1.33799E-18 4.96573E-19
 -1      2608 1.46325E-04-5.10018E-05-4.12113E-05-7.73828E-06-2.89376E-18-2.71051E-19
 -1      2609 7.24299E-05-4.39153E-05-1.18907E-05-4.07623E-05 1.16891E-18 4.51892E-18
 -1      2610 8.96746E-05-5.04229E-05-1.68539E-05-4.15981E-05 3.04932E-20 4.28043E-18
 -1      2611 9.65920E-05-2.51325E-05-3.06474E-05 7.06571E-06 1.97163E-18 2.76405E-18
 -1      2612 9.76246E-05-2.38131E-05-3.16535E-05 1.01931E-05 2.09180E-18 3.15299E-18
 -1      2613 9.60862E-05-2.13398E-05-3.20900E-05 1.13421E-05 2.32617E-18 2.30266E-18
 -1      2614 9.61660E-05-2.41641E-05-3.08922E-05 7.02111E-06 1.97236E-18 1.60550E-18
 -1      2615 1.30859E-04-5.57919E-05-3.23715E-05 2.47256E-05 2.51103E-18 3.74177E-19
 -1      2616 1.15076E-04-5.62117E-05-2.50669E-05 3.12839E-05 1.45690E-18 4.91173E-19
 -1      2617 1.37909E-04-1.56516E-05-5.25836E-05 7.35065E-06 4.47212E-18 9.31524E-19
 -1      2618 9.06655E-05-1.46104E-05-3.25893E-05-6.09906E-06-6.97842E-19-2.32766E-18
 -1      2619 8.96674E-05-1.28964E-05-3.29609E-05-7.32106E-06-8.47170E-19-2.50452E-18
 -1      2620 9.04400E-05-1.37935E-05-3.29133E-05-8.47461E-06-1.12814E-18-2.30244E-18
 -1      2621 9.53470E-05-2.68968E-05-2.93514E-05 8.16481E-07 1.20306E-18 1.03152E-18
 -1      2622 9.44576E-05-1.90899E-05-3.23451E-05 1.10021E-05 2.36639E-18 1.27636E-18
 -1      2623 1.35979E-04-5.61534E-05-3.41276E-05 1.31775E-05 1.55409E-18-7.13625E-19
 -1      2624 1.32330E-04-5.93152E-05-3.11962E-05-1.76284E-05-5.11926E-19-7.36919E-20
 -1      2625 1.44836E-04-4.81275E-05-4.15043E-05 2.32233E-06-2.05810E-18-1.04439E-18
 -1      2626 1.42492E-04-2.04409E-05-5.26692E-05-7.62907E-06 6.89040E-18-2.13071E-18
 -1      2627 1.37448E-04-2.41320E-05-4.89004E-05-9.92480E-06 5.77655E-18-2.44284E-18
 -1      2628 1.32669E-04-1.56704E-05-5.05856E-05-9.61447E-06 6.56874E-18-2.44560E-18
 -1      2629 1.38217E-04-1.35711E-05-5.36352E-05 5.95705E-06-5.46972E-18-2.25099E-19
 -1      2630 1.43328E-04-5.11665E-05-3.95253E-05 4.30104E-07-2.14904E-18 3.37733E-18
 -1      2631 1.04204E-04-5.48302E-05-2.08170E-05-3.50979E-05 8.20351E-19 2.88063E-18
 -1      2632 9.52502E-05-2.85566E-05-2.85831E-05 4.91341E-09 2.35905E-18 3.17243E-18
 -1      2633 1.10464E-04-5.58210E-05-2.31190E-05 3.28554E-05 4.91279E-20 3.11285E-20
 -1      2634 9.52524E-05-2.85505E-05-2.85865E-05 1.45625E-08 1.74731E-18 2.34191E-18
 -1      2635 1.42902E-04-3.03897E-05-4.83996E-05-1.07858E-05-3.96877E-18 2.27217E-18
 -1      2636 2.49340E-05-1.53726E-05-3.54676E-06 1.17671E-06-4.12214E-19 7.68365E-18
 -1      2637 3.86222E-05-2.24688E-05-6.35100E-06 2.75353E-05-1.76913E-18 6.07005E-18
 -1      2638 7.10409E-05-3.96848E-05-1.29352E-05 4.04209E-05-1.21189E-18 1.69629E-18
 -1      2639 5.43923E-05-3.31385E-05-8.62642E-06 3.68608E-05 1.43996E-18-2.84772E-18
 -1      2640 5.13925E-05-2.69864E-05-9.94594E-06 3.28638E-05 1.71905E-18-2.27111E-18
 -1      2641 6.78606E-05-3.79591E-05-1.28467E-05 3.89228E-05 1.98693E-18-1.59994E-18
 -1      2642 2.71710E-05-1.74579E-05-3.67153E-06-1.46629E-05-6.13569E-19-4.99199E-18
 -1      2643 3.66802E-05-1.72188E-05-7.88010E-06-2.01075E-05-1.04879E-18-4.86345E-18
 -1      2644 2.73749E-05-1.33304E-05-5.49938E-06-5.79166E-06-2.92776E-19-4.82470E-18
 -1      2645 9.49154E-05-2.05430E-05-3.18301E-05 8.98818E-06 2.19610E-18 9.69661E-19
 -1      2646 6.61817E-05-3.80173E-05-1.16324E-05-3.87293E-05 1.15048E-18 5.18162E-18
 -1      2647 9.00744E-05-4.96966E-05-1.69672E-05-4.07915E-05-2.81871E-18-2.52821E-18
 -1      2648 1.43630E-04-2.88279E-05-4.94266E-05 1.03469E-05-4.21208E-18-7.85835E-19
 -1      2649 1.39046E-04-5.37264E-05-3.67275E-05-8.68676E-06 1.08976E-19 9.41689E-19
 -1      2650 1.37474E-04-4.96821E-05-3.79540E-05 1.65983E-06-1.15144E-19 2.58049E-18
 -1      2651 1.33344E-04-5.68902E-05-3.26673E-05-1.15815E-05-1.61055E-18 1.13153E-18
 -1      2652 9.22477E-05-1.61837E-05-3.26323E-05-9.70452E-06-1.47696E-18-1.84165E-18
 -1      2653 9.66487E-05-5.20782E-05-1.87322E-05 3.79288E-05 1.10982E-18-5.60974E-19
 -1      2654 2.94140E-05-1.83200E-05-4.21276E-06 1.61481E-05 4.10705E-19-4.77007E-18
 -1      2655 1.41107E-04-3.38235E-05-4.62407E-05 8.05355E-06 2.36301E-18 1.91366E-18
 -1      2656 1.44474E-04-4.08417E-05-4.45852E-05-2.80892E-06 4.02828E-18-5.83182E-19
 -1      2657 1.35073E-04-9.82180E-06-5.39923E-05-1.21066E-06 6.12045E-18-9.46731E-19
 -1      2658 5.03102E-05-3.08711E-05-7.90428E-06-3.63175E-05-1.62249E-18-4.49372E-18
 -1      2659 6.27944E-05-3.52963E-05-1.17692E-05-3.97250E-05-2.26507E-18-3.34610E-18
 -1      2660 4.95283E-05-2.53333E-05-9.85003E-06-3.23736E-05-1.30242E-18-4.28599E-18
 -1      2661 1.38052E-04-1.43906E-05-5.32907E-05-6.09164E-06-4.92423E-18 4.69256E-19
 -1      2662 9.52537E-05-2.85525E-05-2.85859E-05-1.11959E-08-6.16767E-19 2.09573E-19
 -1      2663 9.52527E-05-2.85457E-05-2.85891E-05-1.95714E-08-3.40581E-19-2.73526E-18
 -1      2664 9.52542E-05-2.85244E-05-2.85981E-05-4.27026E-08-4.38961E-20-4.13097E-18
 -1      2665 9.52606E-05-2.85469E-05-2.85908E-05-2.44301E-08 2.03623E-19 6.87716E-19
 -1      2666 9.52544E-05-2.85312E-05-2.85952E-05 3.56867E-08 1.53146E-18 9.42314E-20
 -1      2667 9.52656E-05-2.85320E-05-2.86008E-05-5.07889E-08 4.93983E-19-1.53187E-18
 -1      2668 8.99855E-05-1.42983E-05-3.24586E-05 2.71725E-06 1.30493E-18-1.72090E-18
 -1      2669 8.97258E-05-1.39720E-05-3.24879E-05 1.89522E-06 1.11581E-18-1.77218E-18
 -1      2670 8.95375E-05-1.37176E-05-3.25140E-05 1.20252E-06 9.75894E-19-1.83527E-18
 -1      2671 8.94461E-05-1.36039E-05-3.25240E-05 3.74125E-07 7.95223E-19-1.88616E-18
 -1      2672 9.06258E-05-1.54749E-05-3.21917E-05 1.31159E-06 9.55393E-19-1.67708E-18
 -1      2673 9.20009E-05-1.70628E-05-3.21518E-05 5.66516E-06 1.96558E-18-7.15895E-19
 -1      2674 9.13615E-05-1.61726E-05-3.22488E-05 4.87516E-06 1.85636E-18-1.05263E-18
 -1      2675 9.36447E-05-1.95073E-05-3.18134E-05 6.75876E-06 2.09617E-18-3.37854E-20
 -1      2676 9.27543E-05-1.81600E-05-3.19887E-05 6.18259E-06 2.04643E-18-3.23990E-19
 -1      2677 9.33113E-05-1.93499E-05-3.16745E-05 4.81638E-06 1.84181E-18-3.60822E-19
 -1      2678 9.55955E-05-2.52724E-05-3.01460E-05 3.01542E-06 1.48817E-18 6.93634E-19
 -1      2679 9.58482E-05-2.44440E-05-3.05694E-05 4.75521E-06 1.65753E-18 8.17803E-19
 -1      2680 5.95687E-05-3.06721E-05-1.17764E-05-3.46746E-05 1.08950E-18 4.32410E-18
 -1      2681 7.88838E-05-4.15897E-05-1.60044E-05-3.86214E-05 1.59549E-18 3.61609E-18
 -1      2682 3.57215E-05-1.64223E-05-7.68886E-06-1.80694E-05 7.71647E-19 7.18962E-18
 -1      2683 4.45982E-05-2.20124E-05-9.41064E-06-2.83108E-05 6.16428E-19 6.17720E-18
 -1      2684 1.26266E-04-5.96926E-05-2.82162E-05-1.98394E-05 6.32257E-19-4.16158E-19
 -1      2685 1.35886E-04-5.88443E-05-3.35899E-05-9.23997E-06-2.64486E-19-1.57262E-18
 -1      2686 1.40490E-04-4.65010E-05-4.09884E-05-7.49457E-06-2.29239E-18 3.18781E-18
 -1      2687 1.38240E-04-5.45396E-05-3.57832E-05 1.01343E-06-9.68490E-19 3.46987E-18
 -1      2688 9.56533E-05-2.55507E-05-3.00181E-05-1.41917E-06-7.52935E-19-8.44995E-19
 -1      2689 9.55776E-05-2.60891E-05-2.97859E-05-2.49815E-07-6.39435E-19-8.73978E-19
 -1      2690 9.56116E-05-2.65281E-05-2.95866E-05 7.11452E-07-5.64769E-19-7.47037E-19
 -1      2691 9.55938E-05-2.68338E-05-2.94679E-05 1.55781E-06-5.49889E-19-7.62433E-19
 -1      2692 9.55579E-05-2.56855E-05-2.99518E-05 5.48655E-08-6.18377E-19-8.06689E-19
 -1      2693 9.55751E-05-2.70530E-05-2.93540E-05 2.30622E-06-5.52539E-19-5.04663E-19
 -1      2694 9.56465E-05-2.72297E-05-2.93163E-05 2.96133E-06-4.04870E-19-5.61955E-19
 -1      2695 9.55812E-05-2.64812E-05-2.96224E-05 1.84862E-06-4.65156E-19-6.65751E-19
 -1      2696 9.56216E-05-2.73204E-05-2.92658E-05 3.58004E-06-2.42471E-19-4.93957E-19
 -1      2697 9.57815E-05-2.74249E-05-2.92873E-05 4.13565E-06-2.63479E-19-4.50663E-19
 -1      2698 9.55509E-05-2.68767E-05-2.94390E-05 3.28256E-06-3.32400E-19-6.09087E-19
 -1      2699 9.57680E-05-2.74395E-05-2.92823E-05 4.69246E-06-3.06065E-19-5.43514E-19
 -1      2700 9.60108E-05-2.75099E-05-2.93468E-05 5.20959E-06-2.39095E-19-6.20348E-19
 -1      2701 9.55244E-05-2.70255E-05-2.93623E-05 4.51038E-06-3.90323E-19-6.28729E-19
 -1      2702 9.60181E-05-2.74881E-05-2.93718E-05 5.75285E-06-2.03184E-19-5.14012E-19
 -1      2703 9.63434E-05-2.75601E-05-2.94663E-05 6.26667E-06-4.11935E-19-4.92140E-19
 -1      2704 9.55274E-05-2.70336E-05-2.93586E-05 5.65112E-06-2.35947E-19-6.46725E-19
 -1      2705 9.63849E-05-2.75435E-05-2.95070E-05 6.82537E-06-3.79283E-19-2.86824E-19
 -1      2706 9.68032E-05-2.76612E-05-2.96191E-05 7.34597E-06-2.72175E-19-7.65045E-20
 -1      2707 9.55818E-05-2.69955E-05-2.93974E-05 6.78537E-06-2.59853E-19-1.01172E-20
 -1      2708 9.69083E-05-2.77060E-05-2.96613E-05 7.92872E-06-1.22665E-19 1.55972E-19
 -1      2709 9.74475E-05-2.79333E-05-2.97784E-05 8.43744E-06 1.33874E-19 2.37692E-19
 -1      2710 9.57289E-05-2.70234E-05-2.94489E-05 7.95521E-06 5.03317E-20 5.23089E-19
 -1      2711 9.76761E-05-2.81237E-05-2.98081E-05 9.02852E-06 1.05367E-19 4.89564E-19
 -1      2712 9.83908E-05-2.85546E-05-2.99173E-05 9.47005E-06 2.04301E-19 3.41668E-19
 -1      2713 9.60542E-05-2.72747E-05-2.94837E-05 9.16128E-06 1.03226E-19 2.08483E-19
 -1      2714 9.88529E-05-2.90149E-05-2.99227E-05 1.00203E-05 2.14122E-19 2.55655E-19
 -1      2715 9.98342E-05-2.97799E-05-3.00137E-05 1.02905E-05 1.85268E-19 1.10803E-19
 -1      2716 9.67210E-05-2.79811E-05-2.94746E-05 1.03534E-05 5.52206E-20 7.96940E-20
 -1      2717 1.00713E-04-3.06797E-05-2.99920E-05 1.06980E-05 4.67947E-19 2.39756E-19
 -1      2718 1.02089E-04-3.19334E-05-3.00641E-05 1.06283E-05 4.70260E-19 3.62174E-19
 -1      2719 9.80136E-05-2.94702E-05-2.94062E-05 1.14083E-05 4.38323E-19 2.79396E-19
 -1      2720 1.03653E-04-3.34613E-05-3.00355E-05 1.06965E-05 2.72776E-19 7.85198E-19
 -1      2721 1.05551E-04-3.53121E-05-3.01132E-05 1.00399E-05 1.15635E-19 6.53021E-19
 -1      2722 1.00379E-04-3.21556E-05-2.92953E-05 1.20758E-05 4.81275E-19 4.07636E-19
 -1      2723 1.08094E-04-3.75584E-05-3.01478E-05 9.42132E-06 2.86511E-20 9.28454E-19
 -1      2724 1.10542E-04-3.99086E-05-3.03059E-05 7.87411E-06-6.79215E-20 1.20543E-18
 -1      2725 1.04395E-04-3.63920E-05-2.92345E-05 1.18614E-05 2.75816E-19 7.08143E-19
 -1      2726 1.14195E-04-4.25966E-05-3.05664E-05 6.02977E-06 8.20547E-20 1.55130E-18
 -1      2727 1.16872E-04-4.47294E-05-3.09593E-05 3.38201E-06-3.41063E-20 2.02228E-18
 -1      2728 1.10483E-04-4.21079E-05-2.94651E-05 9.85901E-06 2.41211E-19 1.80155E-18
 -1      2729 1.21368E-04-4.69958E-05-3.17568E-05-3.23239E-07-2.06319E-19 2.22097E-18
 -1      2730 1.23061E-04-4.74412E-05-3.24550E-05-3.91936E-06-2.94476E-19 2.58192E-18
 -1      2731 1.18889E-04-4.79070E-05-3.05827E-05 4.77172E-06 2.62494E-19 2.49591E-18
 -1      2732 1.29050E-04-4.75205E-05-3.50767E-05-8.75417E-06-4.86567E-19 2.82782E-18
 -1      2733 1.28859E-04-4.30613E-05-3.69296E-05-1.23249E-05-1.19140E-18 3.06765E-18
 -1      2734 1.19818E-04-2.26899E-05-4.21407E-05-1.22819E-05-2.28784E-18 2.19777E-18
 -1      2735 1.17798E-04-1.78146E-05-4.31857E-05-7.17754E-06-2.92258E-18 1.09478E-18
 -1      2736 1.16718E-04-1.60793E-05-4.34728E-05 9.56477E-07-3.50407E-18-2.84907E-19
 -1      2737 1.17704E-04-1.83749E-05-4.30487E-05 7.44036E-06-3.44160E-18-1.61161E-18
 -1      2738 1.20081E-04-2.37786E-05-4.14176E-05 1.32883E-05-2.74163E-18-2.53041E-18
 -1      2739 1.23068E-04-3.09620E-05-3.99182E-05 1.58946E-05-2.15273E-18-2.96051E-18
 -1      2740 1.23664E-04-1.98116E-05-4.49310E-05 1.13053E-05-3.95331E-18-1.94008E-18
 -1      2741 1.24958E-04-3.77489E-05-3.74746E-05 1.49731E-05-1.93666E-18-3.49171E-18
 -1      2742 1.26503E-04-4.33073E-05-3.58720E-05 1.29844E-05-1.04193E-18-3.75077E-18
 -1      2743 1.24713E-04-4.59846E-05-3.38404E-05 8.31639E-06-6.03379E-19-3.96657E-18
 -1      2744 1.23756E-04-4.72927E-05-3.27598E-05 4.56329E-06-2.11356E-19-3.52658E-18
 -1      2745 1.28745E-04-4.74985E-05-3.49155E-05 8.59960E-06-8.11610E-19-3.70524E-18
 -1      2746 1.19773E-04-4.60883E-05-3.16578E-05 2.48774E-07-1.13142E-19-2.72533E-18
 -1      2747 1.17431E-04-4.45943E-05-3.11120E-05-2.94516E-06-2.67411E-20-2.12833E-18
 -1      2748 1.22483E-04-4.89022E-05-3.16050E-05-6.66727E-07 3.62818E-19-2.99244E-18
 -1      2749 1.13417E-04-4.19903E-05-3.06708E-05-5.57912E-06 1.71332E-19-1.82500E-18
 -1      2750 1.10888E-04-3.96322E-05-3.04449E-05-7.58943E-06 5.53750E-19-1.91987E-18
 -1      2751 1.14343E-04-4.45551E-05-3.00285E-05-7.21111E-06 3.31750E-19-1.63275E-18
 -1      2752 1.07860E-04-3.71413E-05-3.03365E-05-8.69945E-06 4.98560E-19-1.45356E-18
 -1      2753 1.05758E-04-3.50397E-05-3.02472E-05-9.66268E-06 1.10226E-18-1.36106E-18
 -1      2754 1.07311E-04-3.86604E-05-2.95215E-05-1.04064E-05 7.35790E-19-8.52731E-19
 -1      2755 1.03796E-04-3.32110E-05-3.02586E-05-9.84178E-06 1.35558E-18-2.43044E-18
 -1      2756 1.02244E-04-3.16977E-05-3.02010E-05-1.00761E-05 5.14959E-19-2.44914E-18
 -1      2757 1.02410E-04-3.37676E-05-2.94836E-05-1.12922E-05 4.62792E-19-1.54540E-18
 -1      2758 1.01086E-04-3.05475E-05-3.02277E-05-9.76174E-06-1.32733E-19-2.19377E-18
 -1      2759 9.99886E-05-2.95851E-05-3.01581E-05-9.55115E-06 5.34704E-19-2.23091E-18
 -1      2760 9.93685E-05-3.04408E-05-2.95775E-05-1.09222E-05 5.14378E-19-2.41507E-18
 -1      2761 9.93485E-05-2.89520E-05-3.01614E-05-9.00354E-06 1.11641E-18-2.40973E-18
 -1      2762 9.85703E-05-2.83965E-05-3.00704E-05-8.55452E-06 1.26434E-18-2.64253E-18
 -1      2763 9.76179E-05-2.84640E-05-2.96558E-05-9.93598E-06 3.89474E-19-1.73893E-18
 -1      2764 9.82312E-05-2.81036E-05-3.00437E-05-7.92104E-06 3.70134E-19-2.47238E-18
 -1      2765 9.76639E-05-2.78144E-05-2.99370E-05-7.37077E-06 1.25853E-19-2.13721E-18
 -1      2766 9.66598E-05-2.74425E-05-2.96725E-05-8.69162E-06 1.01269E-18-1.70473E-18
 -1      2767 9.74867E-05-2.77234E-05-2.98868E-05-6.73383E-06 2.44481E-19-2.06448E-18
 -1      2768 9.70583E-05-2.75950E-05-2.97740E-05-6.16761E-06 4.49174E-19-1.16342E-18
 -1      2769 9.61482E-05-2.70232E-05-2.96278E-05-7.38700E-06 2.76085E-19-1.03761E-18
 -1      2770 9.69626E-05-2.76126E-05-2.97098E-05-5.57225E-06 7.67128E-19-1.54156E-18
 -1      2771 9.66294E-05-2.75751E-05-2.95996E-05-5.03909E-06 1.34000E-18-6.14929E-19
 -1      2772 9.58721E-05-2.69504E-05-2.95386E-05-6.13254E-06 6.74318E-19-8.52530E-19
 -1      2773 9.65727E-05-2.76440E-05-2.95300E-05-4.50785E-06 1.50164E-18-4.56012E-19
 -1      2774 9.63090E-05-2.76543E-05-2.94282E-05-4.03260E-06 1.86718E-18 1.55764E-19
 -1      2775 9.57137E-05-2.70577E-05-2.94241E-05-4.98794E-06 1.51898E-18-7.64354E-19
 -1      2776 9.62703E-05-2.77417E-05-2.93597E-05-3.57424E-06 1.77598E-18-2.59488E-19
 -1      2777 9.60604E-05-2.77745E-05-2.92696E-05-3.16643E-06 1.28224E-18-6.05416E-20
 -1      2778 9.56122E-05-2.72449E-05-2.93004E-05-3.98161E-06 1.62901E-18-6.24750E-19
 -1      2779 9.60302E-05-2.78630E-05-2.92061E-05-2.78123E-06 5.76683E-19 3.92589E-19
 -1      2780 9.58637E-05-2.79042E-05-2.91290E-05-2.44117E-06 2.16208E-19 9.59552E-19
 -1      2781 9.55383E-05-2.74552E-05-2.91789E-05-3.12195E-06 1.05329E-18-1.82158E-19
 -1      2782 9.58384E-05-2.79853E-05-2.90727E-05-2.12448E-06 4.65642E-19 1.27400E-18
 -1      2783 9.57076E-05-2.80274E-05-2.90087E-05-1.84735E-06 1.24696E-18 2.14842E-18
 -1      2784 9.54792E-05-2.76588E-05-2.90665E-05-2.40483E-06 9.96805E-19 4.40998E-19
 -1      2785 9.56857E-05-2.80976E-05-2.89604E-05-1.59189E-06 1.15652E-18 1.69009E-18
 -1      2786 9.55843E-05-2.81368E-05-2.89083E-05-1.37041E-06 1.47366E-18 7.86662E-19
 -1      2787 9.54295E-05-2.78415E-05-2.89670E-05-1.81868E-06 8.64127E-19 2.06963E-18
 -1      2788 9.55655E-05-2.81955E-05-2.88681E-05-1.16788E-06 1.61471E-18 1.02183E-18
 -1      2789 9.54883E-05-2.82302E-05-2.88266E-05-9.93940E-07 4.33138E-19 1.17103E-18
 -1      2790 9.53874E-05-2.79982E-05-2.88819E-05-1.34824E-06 1.43362E-18 9.06084E-19
 -1      2791 9.54724E-05-2.82780E-05-2.87938E-05-8.35995E-07-1.25518E-18 1.87015E-18
 -1      2792 9.54147E-05-2.83078E-05-2.87614E-05-7.01659E-07-5.46309E-19 6.69139E-19
 -1      2793 9.53521E-05-2.81286E-05-2.88109E-05-9.76999E-07-1.15932E-19 1.57863E-19
 -1      2794 9.54016E-05-2.83460E-05-2.87351E-05-5.80513E-07-3.78074E-19 8.24535E-19
 -1      2795 9.53593E-05-2.83709E-05-2.87103E-05-4.78524E-07-1.56733E-19 1.02663E-18
 -1      2796 9.53231E-05-2.82346E-05-2.87529E-05-6.88876E-07-6.32875E-19 1.10707E-18
 -1      2797 9.53487E-05-2.84010E-05-2.86895E-05-3.87228E-07-7.11689E-19 7.02366E-19
 -1      2798 9.53184E-05-2.84217E-05-2.86708E-05-3.11253E-07-3.36259E-19-1.01925E-19
 -1      2799 9.52996E-05-2.83194E-05-2.87064E-05-4.69096E-07-5.42509E-19 7.38237E-19
 -1      2800 9.53099E-05-2.84453E-05-2.86545E-05-2.43932E-07 1.35079E-19-1.25389E-18
 -1      2801 9.52889E-05-2.84624E-05-2.86405E-05-1.88828E-07 8.82694E-19-1.79908E-18
 -1      2802 9.52809E-05-2.83866E-05-2.86696E-05-3.04595E-07-4.65496E-19-4.11313E-19
 -1      2803 9.52822E-05-2.84812E-05-2.86278E-05-1.40589E-07 1.18076E-18-2.99929E-18
 -1      2804 9.52682E-05-2.84950E-05-2.86172E-05-1.02620E-07 1.93980E-19-2.92502E-18
 -1      2805 9.52661E-05-2.84393E-05-2.86405E-05-1.84640E-07 8.60195E-20-3.20472E-18
 -1      2806 9.58401E-05-2.78682E-05-2.91223E-05-3.55927E-06 5.41464E-19 6.08337E-19
 -1      2807 9.56088E-05-2.77152E-05-2.90873E-05-3.10147E-06 5.40614E-19 6.80059E-19
 -1      2808 9.52492E-05-2.84927E-05-2.86101E-05 7.98064E-08-1.16335E-18-3.24543E-18
 -1      2809 9.52598E-05-2.85159E-05-2.86042E-05 6.34598E-08 5.65496E-19-7.89472E-19
 -1      2810 9.52706E-05-2.85062E-05-2.86122E-05 8.97996E-08-1.27159E-18-1.39538E-18
 -1      2811 9.55662E-05-2.75879E-05-2.91270E-05-2.54202E-06 5.54595E-19 5.68319E-19
 -1      2812 9.54595E-05-2.73957E-05-2.91531E-05-1.96031E-06 6.21849E-19 6.36195E-19
 -1      2813 9.56783E-05-2.73567E-05-2.92915E-05-2.89592E-06 5.09558E-19 3.32482E-19
 -1      2814 9.69001E-05-2.83621E-05-2.93640E-05-5.17243E-06 4.58703E-19 8.43547E-19
 -1      2815 9.64566E-05-2.81896E-05-2.92545E-05-4.82940E-06 4.36868E-19 7.17693E-19
 -1      2816 9.77013E-05-2.87140E-05-2.95579E-05-5.84456E-06 5.86924E-19 4.34980E-19
 -1      2817 9.71558E-05-2.84831E-05-2.94290E-05-5.55025E-06 5.80400E-19 6.79692E-19
 -1      2818 9.65569E-05-2.80828E-05-2.93539E-05-5.76470E-06 5.63276E-19 5.50113E-19
 -1      2819 9.87208E-05-2.92442E-05-2.97706E-05-6.38682E-06 6.69559E-19 4.64420E-19
 -1      2820 9.80664E-05-2.89143E-05-2.96332E-05-6.17380E-06 5.71106E-19 4.74836E-19
 -1      2821 9.71803E-05-2.84445E-05-2.94670E-05-6.51603E-06 6.54840E-19 3.38935E-19
 -1      2822 1.00013E-04-3.00548E-05-2.99823E-05-6.69257E-06 4.18272E-19 6.33129E-19
 -1      2823 9.92380E-05-2.95790E-05-2.98469E-05-6.62562E-06 5.23862E-19 6.28035E-19
 -1      2824 9.80620E-05-2.90478E-05-2.95889E-05-7.13063E-06 4.43747E-19 3.62652E-19
 -1      2825 1.01648E-04-3.12538E-05-3.01780E-05-6.58457E-06 6.03788E-19 4.97374E-19
 -1      2826 1.00743E-04-3.05878E-05-3.00535E-05-6.76247E-06 7.07126E-19 8.82413E-19
 -1      2827 9.93060E-05-3.00327E-05-2.97047E-05-7.49472E-06 4.95220E-19 4.71809E-19
 -1      2828 1.03692E-04-3.29135E-05-3.03546E-05-5.81434E-06 7.46258E-20-1.77762E-19
 -1      2829 1.02665E-04-3.20424E-05-3.02452E-05-6.36382E-06 3.78441E-19 1.05395E-19
 -1      2830 1.01048E-04-3.15424E-05-2.98114E-05-7.41577E-06 7.50670E-19 6.94863E-19
 -1      2831 1.06142E-04-3.49801E-05-3.05336E-05-4.09134E-06-1.23088E-19-1.05074E-19
 -1      2832 1.05050E-04-3.39686E-05-3.04325E-05-5.13996E-06-1.96881E-19-1.34289E-20
 -1      2833 1.03423E-04-3.36604E-05-2.99287E-05-6.61311E-06 1.24093E-19 5.05196E-20
 -1      2834 1.08819E-04-3.71238E-05-3.07761E-05-1.16891E-06 5.12769E-20-6.34720E-20
 -1      2835 1.07817E-04-3.61958E-05-3.06584E-05-2.78398E-06-1.14746E-19 1.79500E-19
 -1      2836 1.06475E-04-3.62852E-05-3.01151E-05-4.73711E-06-1.19891E-19 4.48390E-19
 -1      2837 1.11216E-04-3.85663E-05-3.11887E-05 2.93444E-06-5.17893E-19 9.31373E-19
 -1      2838 1.10592E-04-3.81681E-05-3.10117E-05 8.71994E-07-5.37448E-19 2.53954E-19
 -1      2839 1.09977E-04-3.89060E-05-3.04850E-05-1.46248E-06-5.30969E-19 6.15546E-19
 -1      2840 1.12444E-04-3.80845E-05-3.18947E-05 7.58748E-06-1.03107E-18 2.01104E-18
 -1      2841 1.12585E-04-3.88354E-05-3.16114E-05 5.53843E-06-6.40156E-19 1.70131E-18
 -1      2842 1.13227E-04-4.04410E-05-3.12009E-05 3.24101E-06-1.20418E-18 1.58880E-18
 -1      2843 1.11599E-04-3.46457E-05-3.29481E-05 1.10685E-05-3.63164E-19 2.62098E-18
 -1      2844 1.12677E-04-3.68684E-05-3.25492E-05 9.94139E-06-8.50362E-19 2.34680E-18
 -1      2845 1.14908E-04-3.92119E-05-3.24104E-05 8.50120E-06-1.10924E-18 2.28269E-18
 -1      2846 1.08665E-04-2.86974E-05-3.41988E-05 1.09296E-05 1.71068E-19 2.86420E-18
 -1      2847 1.10295E-04-3.18012E-05-3.37660E-05 1.17610E-05-3.30718E-19 2.72176E-18
 -1      2848 1.13808E-04-3.41417E-05-3.40967E-05 1.21295E-05-6.42372E-19 3.00237E-18
 -1      2849 1.05463E-04-2.32737E-05-3.51886E-05 5.76468E-06 1.64371E-18 2.57910E-18
 -1      2850 1.06667E-04-2.55492E-05-3.49073E-05 8.72585E-06 1.43220E-18 3.02240E-18
 -1      2851 1.10313E-04-2.67131E-05-3.58469E-05 1.10138E-05 8.21834E-19 3.10944E-18
 -1      2852 1.04658E-04-2.21792E-05-3.54399E-05-2.55556E-06 1.95072E-18 1.20108E-18
 -1      2853 1.04614E-04-2.20210E-05-3.54512E-05 1.23641E-06 1.83187E-18 1.76331E-18
 -1      2854 1.07339E-04-2.11639E-05-3.69963E-05 3.96985E-06 2.49415E-18 2.55812E-18
 -1      2855 1.07195E-04-2.63972E-05-3.47842E-05-9.66478E-06 1.49082E-18-1.70647E-20
 -1      2856 1.05836E-04-2.38394E-05-3.51030E-05-7.00079E-06 1.87736E-18 2.30794E-19
 -1      2857 1.07498E-04-2.16093E-05-3.68405E-05-5.56977E-06 2.14823E-18 6.14794E-19
 -1      2858 1.10843E-04-3.26803E-05-3.36204E-05-1.19515E-05 3.98765E-19-1.61930E-18
 -1      2859 1.09224E-04-2.96153E-05-3.40457E-05-1.14411E-05 1.06932E-18-6.07478E-19
 -1      2860 1.10901E-04-2.77917E-05-3.56046E-05-1.17986E-05 1.88534E-18-9.49895E-19
 -1      2861 1.12892E-04-3.73210E-05-3.24482E-05-9.62544E-06 1.47683E-18-3.23136E-18
 -1      2862 1.11939E-04-3.53086E-05-3.28249E-05-1.09260E-05 7.67445E-19-2.91002E-18
 -1      2863 1.14215E-04-3.51177E-05-3.38741E-05-1.20300E-05 1.55630E-18-3.24883E-18
 -1      2864 1.12499E-04-3.88238E-05-3.15741E-05-5.11756E-06 7.93890E-19-3.12890E-18
 -1      2865 1.12487E-04-3.82856E-05-3.18306E-05-7.18420E-06 1.34393E-18-2.92185E-18
 -1      2866 1.14866E-04-3.95196E-05-3.22520E-05-8.05225E-06 1.28039E-18-3.88245E-18
 -1      2867 1.10386E-04-3.78891E-05-3.10406E-05-6.37723E-07 3.69810E-19-3.22877E-18
 -1      2868 1.11060E-04-3.83940E-05-3.11931E-05-2.62288E-06 6.38133E-19-3.01344E-18
 -1      2869 1.12880E-04-4.02298E-05-3.11334E-05-2.81068E-06 6.86982E-19-3.91932E-18
 -1      2870 1.07628E-04-3.58220E-05-3.07386E-05 2.74097E-06-1.26139E-18-3.42232E-18
 -1      2871 1.08623E-04-3.67819E-05-3.08370E-05 1.24966E-06-3.27434E-19-2.59567E-18
 -1      2872 1.09569E-04-3.84575E-05-3.05001E-05 1.60609E-06-1.68030E-19-2.86304E-18
 -1      2873 1.04965E-04-3.36118E-05-3.05496E-05 4.80386E-06-8.08766E-19-3.14592E-18
 -1      2874 1.06009E-04-3.46078E-05-3.06346E-05 3.88821E-06-1.34837E-18-3.49218E-18
 -1      2875 1.06125E-04-3.57627E-05-3.01864E-05 4.56218E-06-1.26311E-18-2.82018E-18
 -1      2876 1.02721E-04-3.17545E-05-3.03928E-05 5.76110E-06 4.75410E-19-1.88759E-18
 -1      2877 1.03677E-04-3.25878E-05-3.04863E-05 5.33589E-06 2.17937E-20-2.52857E-18
 -1      2878 1.03199E-04-3.31782E-05-3.00358E-05 6.13493E-06-6.86306E-19-3.48702E-18
 -1      2879 1.00949E-04-3.03840E-05-3.02290E-05 5.93193E-06 7.59272E-19-1.12895E-18
 -1      2880 1.01771E-04-3.10047E-05-3.03364E-05 5.86259E-06 8.33361E-19-1.45944E-18
 -1      2881 1.00962E-04-3.11436E-05-2.99421E-05 6.67711E-06 3.52551E-19-2.04508E-18
 -1      2882 9.95882E-05-2.94589E-05-3.00480E-05 5.60663E-06-3.75429E-19-6.98905E-20
 -1      2883 1.00273E-04-2.98874E-05-3.01657E-05 5.76446E-06 4.71504E-19-5.21839E-19
 -1      2884 9.93422E-05-2.97236E-05-2.98503E-05 6.54089E-06 1.75689E-19-2.12484E-19
 -1      2885 9.85488E-05-2.88788E-05-2.98551E-05 5.00865E-06-2.58036E-19 3.93025E-19
 -1      2886 9.91125E-05-2.91579E-05-2.99760E-05 5.29147E-06-5.53261E-19 1.30625E-19
 -1      2887 9.81977E-05-2.88234E-05-2.97411E-05 6.00475E-06-3.00977E-19-4.90137E-19
 -1      2888 9.77525E-05-2.85416E-05-2.96606E-05 4.29413E-06-4.21848E-19 1.51502E-18
 -1      2889 9.82121E-05-2.87140E-05-2.97777E-05 4.62939E-06-3.44658E-19 8.33962E-19
 -1      2890 9.73918E-05-2.83068E-05-2.96142E-05 5.26793E-06-8.05752E-19 8.73547E-20
 -1      2891 9.71385E-05-2.83647E-05-2.94746E-05 3.56407E-06 6.21752E-19 1.47164E-18
 -1      2892 9.75103E-05-2.84650E-05-2.95825E-05 3.90462E-06 2.94084E-19 1.52346E-18
 -1      2893 9.68187E-05-2.80495E-05-2.94771E-05 4.46378E-06 1.62274E-19 6.22071E-19
 -1      2894 9.66633E-05-2.82881E-05-2.93043E-05 2.87846E-06 1.25335E-18 1.04564E-18
 -1      2895 9.69611E-05-2.83415E-05-2.93999E-05 3.19648E-06 1.25454E-18 1.09967E-18
 -1      2896 9.64045E-05-2.79553E-05-2.93389E-05 3.67608E-06 8.90047E-19 7.76884E-19
 -1      2897 9.62953E-05-2.82709E-05-2.91541E-05 2.26865E-06 3.24634E-19-2.36609E-19
 -1      2898 9.65311E-05-2.82950E-05-2.92361E-05 2.54992E-06 1.20253E-18 6.18895E-19
 -1      2899 9.61000E-05-2.79568E-05-2.92071E-05 2.95310E-06 1.60130E-18 5.46259E-20
 -1      2900 9.60116E-05-2.82866E-05-2.90258E-05 1.74713E-06-3.63360E-19-3.79288E-19
 -1      2901 9.61957E-05-2.82929E-05-2.90941E-05 1.98631E-06-6.74381E-19-1.06654E-18
 -1      2902 9.58731E-05-2.80091E-05-2.90870E-05 2.31869E-06 1.64984E-19-6.99484E-20
 -1      2903 9.57946E-05-2.83183E-05-2.89191E-05 1.31451E-06-7.72601E-20-6.64923E-19
 -1      2904 9.59361E-05-2.83146E-05-2.89746E-05 1.51179E-06-9.42953E-20-5.12610E-19
 -1      2905 9.57025E-05-2.80841E-05-2.89814E-05 1.78066E-06-5.14803E-19-1.35342E-18
 -1      2906 9.56305E-05-2.83560E-05-2.88325E-05 9.64570E-07 1.15499E-18-7.55654E-19
 -1      2907 9.57374E-05-2.83470E-05-2.88765E-05 1.12323E-06 6.62904E-19-1.01685E-18
 -1      2908 9.55740E-05-2.81649E-05-2.88914E-05 1.33674E-06 4.96006E-19-2.31155E-18
 -1      2909 9.55083E-05-2.83940E-05-2.87637E-05 6.87707E-07-4.99288E-19-6.18782E-19
 -1      2910 9.55874E-05-2.83827E-05-2.87979E-05 8.12505E-07 5.14428E-19-4.91125E-19
 -1      2911 9.54775E-05-2.82422E-05-2.88167E-05 9.78947E-07 1.95851E-19-1.27095E-18
 -1      2912 9.54189E-05-2.84291E-05-2.87102E-05 4.73140E-07-1.23548E-19-5.86016E-19
 -1      2913 9.54761E-05-2.84174E-05-2.87362E-05 5.69271E-07-1.77342E-19-9.74332E-19
 -1      2914 9.54054E-05-2.83112E-05-2.87559E-05 6.96620E-07-2.40442E-19-1.55205E-18
 -1      2915 9.53549E-05-2.84602E-05-2.86694E-05 3.10366E-07-4.03236E-19-8.05997E-19
 -1      2916 9.53951E-05-2.84489E-05-2.86887E-05 3.82768E-07-2.61704E-19-6.75360E-19
 -1      2917 9.53523E-05-2.83704E-05-2.87076E-05 4.78318E-07-6.57911E-20-1.26656E-18
 -1      2918 9.53112E-05-2.84867E-05-2.86387E-05 1.90443E-07-8.63252E-19-7.98414E-19
 -1      2919 9.53377E-05-2.84769E-05-2.86528E-05 2.42632E-07-6.19108E-19-4.04916E-19
 -1      2920 9.53131E-05-2.84194E-05-2.86696E-05 3.13237E-07-3.47711E-19-2.49889E-18
 -1      2921 9.52802E-05-2.85000E-05-2.86195E-05 1.17374E-07-1.56605E-18-1.00496E-18
 -1      2922 9.52970E-05-2.84905E-05-2.86300E-05 1.55293E-07-1.52885E-18-1.71148E-18
 -1      2923 9.52828E-05-2.84492E-05-2.86443E-05 2.06148E-07-1.00356E-18-2.59397E-18
 -1      2924 9.52615E-05-2.84674E-05-2.86276E-05 1.39315E-07-1.60177E-18-5.19781E-18
 -1      2925 1.19923E-04-5.84583E-05-2.67592E-05 2.59436E-05-3.95353E-19-5.30613E-19
 -1      2926 1.03336E-04-5.25023E-05-2.12393E-05 3.37881E-05-1.38278E-18-3.65740E-19
 -1      2927 9.51177E-05-2.83167E-05-2.86295E-05 1.10770E-08 1.82633E-19-2.18182E-18
 -1      2928 9.51214E-05-2.83207E-05-2.86291E-05 2.97042E-08-6.61821E-20-1.48948E-19
 -1      2929 9.52642E-05-2.85052E-05-2.86102E-05-7.91448E-08-3.37973E-19-3.08005E-18
 -1      2930 9.52579E-05-2.85145E-05-2.86043E-05-6.05322E-08 1.61487E-19-3.31439E-18
 -1      2931 9.52499E-05-2.85015E-05-2.86069E-05-6.83077E-08-3.07029E-19-4.20825E-18
 -1      2932 9.52558E-05-2.84750E-05-2.86206E-05-1.11418E-07-1.24718E-19-3.93104E-18
 -1      2933 9.51563E-05-2.83650E-05-2.86256E-05 8.25647E-08 2.31831E-19-6.25791E-20
 -1      2934 9.51717E-05-2.83823E-05-2.86237E-05 9.04125E-08 9.46685E-19-1.18176E-18
 -1      2935 9.51219E-05-2.83210E-05-2.86292E-05-3.22171E-08-3.47664E-19-2.61218E-19
 -1      2936 9.51179E-05-2.83168E-05-2.86296E-05-1.36805E-08 3.16328E-19-2.81814E-18
 -1      2937 9.50906E-05-2.82639E-05-2.86390E-05-1.36093E-09 2.60817E-19-2.51676E-18
 -1      2938 9.51300E-05-2.83321E-05-2.86283E-05 5.21254E-08-1.13568E-18 6.86988E-19
 -1      2939 9.51406E-05-2.83437E-05-2.86272E-05 6.69083E-08-6.14413E-19 1.92076E-18
 -1      2940 9.51279E-05-2.83089E-05-2.86359E-05 9.19894E-08-2.66897E-19-1.11686E-19
 -1      2941 9.51001E-05-2.82756E-05-2.86382E-05 5.01341E-08-4.73153E-19 1.43156E-18
 -1      2942 9.51413E-05-2.83437E-05-2.86275E-05-6.84581E-08-6.03179E-19 9.24193E-19
 -1      2943 9.51306E-05-2.83323E-05-2.86286E-05-5.41179E-08-1.07834E-18 2.10363E-18
 -1      2944 9.51007E-05-2.82756E-05-2.86385E-05-5.22710E-08-6.26880E-19 2.35272E-19
 -1      2945 9.51729E-05-2.83824E-05-2.86241E-05-9.14353E-08-5.15757E-19-6.93119E-19
 -1      2946 9.51573E-05-2.83651E-05-2.86260E-05-8.39129E-08-6.64607E-19-4.38447E-20
 -1      2947 9.51288E-05-2.83087E-05-2.86364E-05-9.34197E-08-2.46815E-19-3.19770E-20
 -1      2948 9.52096E-05-2.84314E-05-2.86189E-05-9.53256E-08 6.04518E-19 9.09184E-19
 -1      2949 9.51929E-05-2.84108E-05-2.86217E-05-9.68295E-08 4.72580E-19 1.07408E-18
 -1      2950 9.51698E-05-2.83593E-05-2.86326E-05-1.17170E-07-3.56126E-19 1.18753E-18
 -1      2951 9.52389E-05-2.84787E-05-2.86114E-05-8.01258E-08-9.52151E-19-3.63671E-18
 -1      2952 9.52252E-05-2.84579E-05-2.86151E-05-8.94868E-08 5.05588E-20-1.23526E-18
 -1      2953 9.52090E-05-2.84144E-05-2.86262E-05-1.16746E-07 1.26715E-19 5.12516E-19
 -1      2954 9.52408E-05-2.84652E-05-2.86180E-05-9.91767E-08-6.57966E-19-3.29241E-18
 -1      2955 1.17398E-04-5.75212E-05-2.52342E-05-2.72147E-05-3.11279E-18-3.48236E-19
 -1      2956 1.25457E-04-5.89599E-05-2.87030E-05-2.15347E-05-2.77350E-18 1.86718E-19
 -1      2957 4.84334E-05-2.36824E-05-1.04103E-05 3.14949E-05-2.61288E-18 4.25274E-18
 -1      2958 3.75111E-05-1.68069E-05-8.23822E-06 2.05584E-05-2.32055E-18 6.01330E-18
 -1      2959 8.25161E-05-4.33791E-05-1.69481E-05 3.97129E-05-1.58607E-18-1.38278E-19
 -1      2960 6.50380E-05-3.31174E-05-1.30435E-05 3.69549E-05-2.29567E-18 1.62376E-18
 -1      2961 9.45081E-05-2.07074E-05-3.16630E-05-7.44006E-06-1.44718E-18-1.33238E-18
 -1      2962 9.49415E-05-2.24527E-05-3.10869E-05-5.51832E-06-1.32279E-18-1.15054E-18
 -1      2963 9.49467E-05-2.18178E-05-3.13457E-05 7.08971E-06 2.04059E-18 7.41200E-19
 -1      2964 9.90750E-05-5.12761E-05-1.99779E-05-3.48348E-05 2.11515E-18 2.89513E-18
 -1      2965 1.13112E-04-5.73968E-05-2.41553E-05-3.02694E-05 9.88699E-19 1.16280E-18
 -1      2966 9.54642E-05-2.71787E-05-2.92615E-05-1.24281E-06 7.59578E-19 5.04311E-19
 -1      2967 9.54938E-05-2.68932E-05-2.93736E-05-4.45765E-07 9.91957E-19 6.12215E-19
 -1      2968 9.56229E-05-2.69105E-05-2.94600E-05-1.53332E-06 6.92209E-19 2.09149E-19
 -1      2969 9.62844E-05-2.81038E-05-2.92109E-05-4.41452E-06 4.00941E-19 6.36680E-19
 -1      2970 9.59431E-05-2.79561E-05-2.91320E-05-4.02621E-06 5.44569E-19 6.93997E-19
 -1      2971 9.58382E-05-2.76335E-05-2.92398E-05-3.98881E-06 4.99604E-19 4.51294E-19
 -1      2972 9.61231E-05-2.78451E-05-2.92701E-05-4.92499E-06 4.85484E-19 6.15131E-19
 -1      2973 9.54917E-05-2.38506E-05-3.06864E-05-4.15802E-06-1.09416E-18-1.04155E-18
 -1      2974 9.54627E-05-2.47856E-05-3.03035E-05-2.53350E-06-8.91307E-19-9.95262E-19
 -1      2975 9.53449E-05-2.42844E-05-3.04496E-05-2.13382E-06-7.89632E-19-1.07177E-18
 -1      2976 9.46937E-05-2.20263E-05-3.11379E-05-4.67331E-06-1.08307E-18-1.31444E-18
 -1      2977 9.55102E-05-2.64976E-05-2.95769E-05 5.27666E-07 1.20473E-18 5.87420E-19
 -1      2978 9.56638E-05-2.60167E-05-2.98124E-05 1.68540E-06 1.22736E-18 6.55917E-19
 -1      2979 9.55390E-05-2.47479E-05-3.03390E-05 2.69351E-06 1.49732E-18 1.78853E-19
 -1      2980 9.56155E-05-2.61278E-05-2.97895E-05 2.64596E-07 1.09584E-18 2.33519E-19
 -1      2981 8.11953E-05-4.38762E-05-1.53998E-05-4.00043E-05-2.72575E-18-2.69891E-18
 -1      2982 1.00395E-04-5.23688E-05-2.07741E-05-3.65407E-05-2.79203E-18-1.37153E-18
 -1      2983 1.04569E-04-5.33497E-05-2.19849E-05 3.26609E-05 1.63986E-18-2.08185E-19
 -1      2984 8.61224E-05-4.57540E-05-1.67158E-05 3.82611E-05 1.86432E-18-8.78267E-19
 -1      2985 9.08015E-05-1.53871E-05-3.23465E-05 4.23501E-06 1.79569E-18-1.18594E-18
 -1      2986 9.03566E-05-1.48064E-05-3.24027E-05 3.39883E-06 1.53611E-18-1.42564E-18
 -1      2987 9.11815E-05-1.62264E-05-3.21059E-05 2.59274E-06 1.33669E-18-1.34879E-18
 -1      2988 9.20875E-05-1.74981E-05-3.19456E-05 3.80645E-06 1.60276E-18-9.78734E-19
 -1      2989 1.29214E-04-1.49788E-05-4.94537E-05 8.68704E-06-5.02079E-18-9.20884E-19
 -1      2990 1.27810E-04-1.18150E-05-5.04451E-05 1.86501E-06-5.03392E-18-1.46259E-19
 -1      2991 1.39198E-04-3.37647E-05-4.54557E-05 1.31667E-05-3.08712E-18-1.71005E-18
 -1      2992 1.35427E-04-2.43890E-05-4.83064E-05 1.32681E-05-4.26799E-18-1.72181E-18
 -1      2993 9.21325E-05-1.64506E-05-3.24438E-05-8.27328E-06-1.27542E-18-1.90915E-18
 -1      2994 3.02041E-05-1.29746E-05-6.95015E-06 8.48355E-06-1.48691E-18 6.22103E-18
 -1      2995 2.99456E-05-1.31561E-05-6.67690E-06-6.89064E-06-5.49989E-19 7.15319E-18
 -1      2996 4.02374E-05-1.41620E-05-1.04999E-05-1.11500E-05-2.36534E-19 6.24401E-18
 -1      2997 9.03044E-05-1.47329E-05-3.24115E-05-3.34603E-06-1.36107E-19-2.26444E-18
 -1      2998 9.07421E-05-1.52999E-05-3.23574E-05-4.17757E-06-3.53775E-19-2.28640E-18
 -1      2999 1.28749E-04-1.31639E-05-5.01674E-05-5.57145E-06-4.48949E-18 6.35328E-19
 -1      3000 1.30815E-04-1.89693E-05-4.84738E-05-1.19117E-05-4.06576E-18 1.40692E-18
 -1      3001 1.35442E-04-3.74516E-05-4.23500E-05 9.55324E-06 1.70582E-18 2.35941E-18
 -1      3002 1.34959E-04-2.73532E-05-4.66979E-05 1.14025E-05 2.48085E-18 2.15972E-18
 -1      3003 3.74332E-05-1.75274E-05-8.09560E-06 2.03113E-05 1.00696E-18-3.33816E-18
 -1      3004 2.92748E-05-1.37837E-05-5.94971E-06 7.12845E-06 4.92973E-19-4.59346E-18
 -1      3005 1.40502E-04-5.14359E-05-3.81083E-05 3.21940E-06-1.01326E-18-1.99508E-18
 -1      3006 1.41569E-04-4.40600E-05-4.24219E-05 8.54828E-06-2.00223E-18-1.48188E-18
 -1      3007 1.39157E-04-3.50819E-05-4.52443E-05-8.79030E-06 4.54486E-18-2.57794E-18
 -1      3008 1.38609E-04-4.46842E-05-4.03442E-05-4.39191E-06 2.63967E-18-2.06771E-18
 -1      3009 1.32569E-04-5.98978E-05-3.15463E-05 1.26540E-05 1.28061E-19 2.61659E-18
 -1      3010 1.22077E-04-5.85522E-05-2.71437E-05 2.12415E-05 9.25913E-19 1.52339E-18
 -1      3011 1.34871E-04-2.63001E-05-4.72785E-05-1.33981E-05-3.67030E-18 1.97136E-18
 -1      3012 1.38801E-04-3.55089E-05-4.44405E-05-1.32299E-05-3.06224E-18 2.47418E-18
 -1      3013 1.28483E-04-2.47287E-05-4.47614E-05-1.35764E-05-3.32778E-18 2.12806E-18
 -1      3014 1.37039E-04-5.44238E-05-3.60012E-05 5.18976E-06 1.09181E-18-1.25382E-18
 -1      3015 1.31213E-04-5.73921E-05-3.13890E-05 1.31934E-05 4.42151E-19-1.58861E-18
 -1      3016 1.26677E-04-9.03268E-06-5.09649E-05 1.92166E-06 5.25372E-18-2.34615E-19
 -1      3017 1.26884E-04-1.02139E-05-5.06432E-05-4.31040E-06 5.97942E-18-1.62951E-18
 -1      3018 1.31677E-04-1.94270E-05-4.85594E-05 1.11107E-05 3.02179E-18 1.75908E-18
 -1      3019 1.28342E-04-1.32909E-05-5.00130E-05 7.81240E-06 4.20510E-18 9.06219E-19
 -1      3020 1.27843E-04-2.45341E-05-4.46420E-05 1.27156E-05 2.29991E-18 1.83039E-18
 -1      3021 9.12889E-05-1.60595E-05-3.22633E-05-4.82220E-06-4.69276E-19-2.20045E-18
 -1      3022 9.18834E-05-1.68578E-05-3.21753E-05-5.59720E-06-7.71688E-19-2.01579E-18
 -1      3023 9.20149E-05-1.73876E-05-3.19603E-05-3.77220E-06-4.18315E-19-2.02391E-18
 -1      3024 9.04320E-05-1.52157E-05-3.22201E-05 1.31937E-08 6.59351E-19-1.73663E-18
 -1      3025 8.94392E-05-1.35947E-05-3.25251E-05-3.17998E-07 6.34486E-19-1.94223E-18
 -1      3026 8.95186E-05-1.36915E-05-3.25170E-05-1.14548E-06 4.43471E-19-2.13766E-18
 -1      3027 7.64700E-05-3.86575E-05-1.57449E-05-3.76593E-05-2.18386E-18-2.48175E-18
 -1      3028 9.12238E-05-4.50250E-05-1.93779E-05-3.37629E-05 2.40864E-18 2.73856E-18
 -1      3029 5.92567E-05-2.60706E-05-1.35940E-05-2.93542E-05 9.07808E-19 5.09903E-18
 -1      3030 1.26426E-04-1.33793E-05-4.90469E-05-7.37360E-06 6.36969E-18-1.59777E-18
 -1      3031 1.24499E-04-1.65304E-05-4.67000E-05-1.02659E-05 6.04771E-18-1.85585E-18
 -1      3032 1.19259E-04-1.12310E-05-4.66368E-05-4.96107E-06 5.49767E-18-1.20085E-18
 -1      3033 1.22388E-04-1.28232E-05-4.74147E-05 5.25755E-06 3.95024E-18 1.05138E-19
 -1      3034 1.36080E-04-5.45896E-05-3.49802E-05-8.65669E-07-4.73584E-19-1.92181E-18
 -1      3035 1.34315E-04-5.62952E-05-3.34512E-05 3.03443E-06-2.70362E-19 3.28977E-18
 -1      3036 1.29415E-04-5.12553E-05-3.37178E-05-2.63024E-06-3.59063E-19 2.98709E-18
 -1      3037 1.22344E-04-1.50796E-05-4.63733E-05-3.11649E-06-4.08355E-18 4.01494E-19
 -1      3038 1.25148E-04-3.68702E-05-3.83289E-05-1.52635E-05-1.74338E-18 3.42772E-18
 -1      3039 1.23175E-04-3.04810E-05-3.99398E-05-1.49321E-05-1.50221E-18 3.18441E-18
 -1      3040 1.28778E-04-3.57440E-05-4.00964E-05 1.54648E-05-2.17629E-18-3.33096E-18
 -1      3041 9.51681E-05-2.83589E-05-2.86320E-05 1.16164E-07-1.16001E-19-9.75369E-20
 -1      3042 9.51909E-05-2.84101E-05-2.86212E-05 9.61736E-08-1.66745E-19-1.16264E-18
 -1      3043 9.52077E-05-2.84296E-05-2.86187E-05 9.62964E-08-1.09578E-18-2.30769E-18
 -1      3044 9.64537E-05-4.72044E-05-2.06835E-05 3.30980E-05-1.96395E-18 3.17637E-20
 -1      3045 1.33390E-04-3.00620E-05-4.46378E-05-1.22830E-05 4.71490E-18-2.81882E-18
 -1      3046 1.25073E-04-5.71313E-05-2.89969E-05 1.64288E-05-7.93035E-19-1.37267E-18
 -1      3047 1.29560E-04-5.73720E-05-3.10211E-05-1.14547E-05-2.57466E-18 1.41433E-18
 -1      3048 9.52367E-05-2.84710E-05-2.86142E-05 9.04255E-08-2.13291E-18-3.71684E-18
 -1      3049 4.65551E-05-2.11853E-05-1.01107E-05 2.61758E-05 1.60449E-18-2.39054E-18
 -1      3050 4.41206E-05-1.66530E-05-1.13558E-05 1.84914E-05 1.26036E-18-2.76323E-18
 -1      3051 5.63087E-05-2.57002E-05-1.29232E-05 2.98997E-05 2.13426E-18-1.89185E-18
 -1      3052 1.36173E-04-4.44956E-05-3.96123E-05 7.72553E-06 6.31940E-19 2.62760E-18
 -1      3053 1.31219E-04-3.79173E-05-4.03092E-05 1.19126E-05 8.96478E-19 2.78579E-18
 -1      3054 1.33220E-04-4.85068E-05-3.64195E-05 3.75813E-06-4.90750E-19 2.89664E-18
 -1      3055 1.08268E-04-5.34452E-05-2.32795E-05-2.98150E-05-2.75032E-18-8.11914E-19
 -1      3056 6.26632E-05-2.78767E-05-1.43029E-05 3.15796E-05-2.63290E-18 3.02497E-18
 -1      3057 9.45283E-05-2.12306E-05-3.14200E-05 6.35308E-06 2.00322E-18 2.67752E-19
 -1      3058 9.47392E-05-2.21576E-05-3.10969E-05 4.72422E-06 1.85057E-18 9.50178E-20
 -1      3059 7.96206E-05-4.00450E-05-1.65150E-05 3.63087E-05 2.17582E-18-1.17955E-18
 -1      3060 3.53767E-05-1.32076E-05-8.89867E-06-4.20959E-08 2.28477E-19-4.04352E-18
 -1      3061 4.10017E-05-1.44389E-05-1.07173E-05 1.32199E-05-2.02984E-18 5.61488E-18
 -1      3062 9.28499E-05-1.81075E-05-3.20302E-05-6.64748E-06-1.07413E-18-1.78977E-18
 -1      3063 1.35735E-04-4.15637E-05-4.05844E-05-1.24789E-05-2.03680E-18 2.61511E-18
 -1      3064 8.96934E-05-1.39272E-05-3.24931E-05-1.83382E-06 3.24203E-19-2.09064E-18
 -1      3065 8.99453E-05-1.42424E-05-3.24651E-05-2.66758E-06 4.84846E-20-2.16671E-18
 -1      3066 9.11320E-05-1.61547E-05-3.21149E-05-2.55514E-06-4.25714E-20-2.04968E-18
 -1      3067 9.06020E-05-1.54399E-05-3.21961E-05-1.28053E-06 3.08027E-19-1.95278E-18
 -1      3068 1.21293E-04-5.77025E-05-2.69581E-05-2.07942E-05 1.27219E-18-8.11749E-19
 -1      3069 1.14689E-04-5.62189E-05-2.48804E-05 2.65700E-05 1.20035E-18 8.21384E-19
 -1      3070 1.03827E-04-4.99773E-05-2.29225E-05 2.89791E-05 1.48803E-18 3.25340E-19
 -1      3071 1.20293E-04-5.60320E-05-2.75706E-05 1.77418E-05 8.32369E-19 1.98304E-18
 -1      3072 4.41845E-05-2.03185E-05-9.55159E-06-2.63692E-05-1.15530E-18-4.81771E-18
 -1      3073 5.37354E-05-2.46223E-05-1.20702E-05-3.00072E-05-1.52964E-18-3.85654E-18
 -1      3074 4.14304E-05-1.64048E-05-1.02024E-05-1.93544E-05-7.43218E-19-4.52930E-18
 -1      3075 1.36015E-04-3.84820E-05-4.19743E-05 1.33610E-05-2.05596E-18-2.28879E-18
 -1      3076 1.35236E-04-4.85202E-05-3.72888E-05-3.43566E-06 1.32664E-18-2.77414E-18
 -1      3077 9.41836E-05-2.13144E-05-3.12519E-05 3.91569E-06 1.72085E-18-1.68968E-19
 -1      3078 9.35635E-05-2.02324E-05-3.14324E-05 3.59109E-06 1.58615E-18-4.43347E-19
 -1      3079 1.24810E-04-2.81010E-05-4.17152E-05 1.37517E-05 1.35208E-18 1.76583E-18
 -1      3080 1.21528E-04-2.16082E-05-4.33854E-05 1.22691E-05 2.01901E-18 1.10011E-18
 -1      3081 1.26534E-04-5.46679E-05-3.05643E-05 6.46408E-06 3.36964E-19 2.67644E-18
 -1      3082 9.54740E-05-2.58117E-05-2.98457E-05 1.29925E-06-3.87822E-19-8.91145E-19
 -1      3083 9.54624E-05-2.61366E-05-2.97139E-05 2.11307E-06-3.70336E-19-8.57104E-19
 -1      3084 9.53906E-05-2.63511E-05-2.95831E-05 2.80700E-06-3.56149E-19-7.16234E-19
 -1      3085 9.53686E-05-2.65030E-05-2.95123E-05 3.47742E-06-3.13534E-19-7.72024E-19
 -1      3086 9.52188E-05-2.57286E-05-2.97823E-05 2.31822E-06-3.19470E-19-1.01127E-18
 -1      3087 9.52149E-05-2.65510E-05-2.94266E-05 4.08208E-06-3.09915E-19-6.35318E-19
 -1      3088 9.52018E-05-2.65930E-05-2.93991E-05 4.67699E-06-2.85670E-19-5.92735E-19
 -1      3089 9.50005E-05-2.60522E-05-2.95498E-05 3.64489E-06-2.73584E-19-6.91183E-19
 -1      3090 9.49917E-05-2.65340E-05-2.93421E-05 5.24435E-06-1.47418E-19-3.78715E-19
 -1      3091 9.49980E-05-2.65169E-05-2.93419E-05 5.81347E-06-1.66523E-19-2.57868E-19
 -1      3092 9.46452E-05-2.60705E-05-2.93885E-05 4.83539E-06-7.97584E-20-3.21935E-19
 -1      3093 9.47496E-05-2.64035E-05-2.92973E-05 6.38510E-06-1.90196E-19-1.28375E-19
 -1      3094 9.47897E-05-2.63800E-05-2.93091E-05 6.96012E-06-1.10587E-19 1.11145E-19
 -1      3095 9.41942E-05-2.59035E-05-2.92655E-05 5.98245E-06-1.75715E-20-2.05839E-19
 -1      3096 9.45267E-05-2.62720E-05-2.92599E-05 7.56741E-06-8.77104E-20 3.04734E-19
 -1      3097 9.46308E-05-2.63103E-05-2.92684E-05 8.16209E-06 2.27915E-19 4.35670E-19
 -1      3098 9.36868E-05-2.56716E-05-2.91467E-05 7.16082E-06 8.16948E-20-9.36424E-20
 -1      3099 9.43971E-05-2.62891E-05-2.91970E-05 8.82785E-06 3.15854E-19 1.78813E-19
 -1      3100 9.46263E-05-2.64874E-05-2.91870E-05 9.43683E-06 4.34797E-20 1.56929E-19
 -1      3101 9.31860E-05-2.55236E-05-2.89964E-05 8.42978E-06 6.67111E-20 1.34077E-19
 -1      3102 9.45054E-05-2.66726E-05-2.90763E-05 1.01764E-05-1.69556E-19 2.65946E-19
 -1      3103 9.49722E-05-2.71755E-05-2.90351E-05 1.07709E-05 1.85518E-19 2.36166E-19
 -1      3104 9.28112E-05-2.56682E-05-2.87781E-05 9.83904E-06 1.83961E-19 2.15406E-19
 -1      3105 9.51171E-05-2.77408E-05-2.88727E-05 1.15883E-05 4.41557E-19 7.45138E-20
 -1      3106 9.60094E-05-2.87514E-05-2.87974E-05 1.21041E-05 5.55022E-19 2.58556E-19
 -1      3107 9.27854E-05-2.64112E-05-2.84597E-05 1.14322E-05 2.88139E-19 7.14585E-20
 -1      3108 9.66832E-05-2.99365E-05-2.85856E-05 1.29733E-05 5.04683E-19 3.70261E-19
 -1      3109 9.82811E-05-3.17086E-05-2.84965E-05 1.32771E-05 5.78553E-19 4.00712E-19
 -1      3110 9.35020E-05-2.81914E-05-2.80271E-05 1.32334E-05 4.99145E-19-3.36104E-19
 -1      3111 9.99244E-05-3.38168E-05-2.82726E-05 1.40657E-05 6.67991E-19 4.12596E-19
 -1      3112 1.02548E-04-3.65497E-05-2.82434E-05 1.38643E-05 4.30978E-19 7.43510E-19
 -1      3113 9.56296E-05-3.16198E-05-2.75110E-05 1.51925E-05 6.03024E-19 5.55865E-20
 -1      3114 1.05769E-04-3.97536E-05-2.81381E-05 1.41890E-05 3.85741E-19 1.30335E-18
 -1      3115 1.09846E-04-4.34402E-05-2.83880E-05 1.28208E-05 4.57808E-19 1.14533E-18
 -1      3116 1.00218E-04-3.72861E-05-2.70640E-05 1.69397E-05 8.07891E-19 3.02252E-19
 -1      3117 1.14597E-04-4.89945E-05-2.79576E-05 1.44401E-05 6.98348E-19 1.94306E-18
 -1      3118 1.19730E-04-5.23259E-05-2.88290E-05 1.16659E-05 2.87356E-19 1.95698E-18
 -1      3119 1.24382E-04-5.23468E-05-3.08762E-05-4.39980E-06 4.42548E-19-2.16015E-18
 -1      3120 1.20083E-04-5.04563E-05-2.96634E-05-8.15275E-06 1.29262E-18-1.72276E-18
 -1      3121 1.13993E-04-4.65007E-05-2.89246E-05-1.07195E-05 1.21810E-18-6.74747E-19
 -1      3122 1.09788E-04-4.28897E-05-2.85157E-05-1.25586E-05 1.24808E-18 2.35014E-19
 -1      3123 1.14018E-04-4.94100E-05-2.79163E-05-1.48472E-05 1.79060E-18-4.63856E-19
 -1      3124 1.05754E-04-3.92673E-05-2.84618E-05-1.28568E-05 6.82444E-19 3.22325E-19
 -1      3125 1.02616E-04-3.61255E-05-2.84097E-05-1.34274E-05 4.44620E-19 2.32810E-19
 -1      3126 1.03825E-04-4.05854E-05-2.72607E-05-1.62309E-05 1.29606E-18 1.00931E-18
 -1      3127 1.00329E-04-3.35506E-05-2.85848E-05-1.28500E-05-1.12262E-19 3.66733E-19
 -1      3128 9.83135E-05-3.13674E-05-2.86531E-05-1.27280E-05 2.83542E-19-1.14677E-19
 -1      3129 9.77755E-05-3.37990E-05-2.75091E-05-1.51861E-05 1.43613E-19 1.46843E-18
 -1      3130 9.71990E-05-2.97851E-05-2.88627E-05-1.18766E-05 6.48891E-19-6.10025E-19
 -1      3131 9.60146E-05-2.84570E-05-2.89409E-05-1.14139E-05 4.76175E-19-5.99261E-19
 -1      3132 9.45678E-05-2.93862E-05-2.79837E-05-1.33547E-05 4.05953E-19 1.30564E-18
 -1      3133 9.55959E-05-2.76182E-05-2.91118E-05-1.05384E-05 1.85751E-19-2.90768E-19
 -1      3134 9.49425E-05-2.69048E-05-2.91594E-05-9.92785E-06 3.08685E-19-4.73248E-19
 -1      3135 9.31653E-05-2.68811E-05-2.84285E-05-1.14467E-05 5.07927E-19 2.37255E-19
 -1      3136 9.48929E-05-2.65512E-05-2.92736E-05-9.10771E-06 5.86452E-19-4.63709E-19
 -1      3137 9.45473E-05-2.62332E-05-2.92836E-05-8.45225E-06 7.40888E-19-6.06953E-19
 -1      3138 9.27713E-05-2.56752E-05-2.87613E-05-9.68671E-06 4.84383E-19 7.79895E-19
 -1      3139 9.46703E-05-2.61691E-05-2.93457E-05-7.70916E-06 5.44785E-19-1.11345E-18
 -1      3140 9.44902E-05-2.60848E-05-2.93249E-05-7.06655E-06 3.56808E-19-6.94671E-19
 -1      3141 9.28831E-05-2.52740E-05-2.89739E-05-8.11170E-06 3.44833E-19-2.51936E-19
 -1      3142 9.46757E-05-2.61770E-05-2.93469E-05-6.40558E-06 7.71271E-20-1.72338E-20
 -1      3143 9.45791E-05-2.62195E-05-2.93056E-05-5.80870E-06 5.30215E-19-6.39990E-19
 -1      3144 9.32098E-05-2.53330E-05-2.90859E-05-6.71636E-06 2.66083E-19-9.58484E-20
 -1      3145 9.47705E-05-2.63846E-05-2.93001E-05-5.23008E-06 1.01839E-18-6.51384E-19
 -1      3146 9.47139E-05-2.64876E-05-2.92479E-05-4.69655E-06 1.64440E-18-2.27862E-19
 -1      3147 9.35944E-05-2.56283E-05-2.91237E-05-5.49042E-06 8.07050E-19 3.91162E-20
 -1      3148 9.48854E-05-2.66762E-05-2.92254E-05-4.19838E-06 1.99669E-18-4.08232E-19
 -1      3149 9.48474E-05-2.68013E-05-2.91697E-05-3.73562E-06 1.63230E-18-5.51040E-19
 -1      3150 9.39602E-05-2.60231E-05-2.91119E-05-4.42576E-06 1.87382E-18-1.24560E-18
 -1      3151 9.49900E-05-2.69862E-05-2.91382E-05-3.31403E-06 1.25515E-18-8.86564E-19
 -1      3152 9.49607E-05-2.71121E-05-2.90839E-05-2.92258E-06 1.08292E-18-1.12323E-18
 -1      3153 9.42755E-05-2.64381E-05-2.90700E-05-3.51458E-06 1.01767E-18-8.75446E-19
 -1      3154 9.50738E-05-2.72799E-05-2.90491E-05-2.57194E-06 1.53519E-18-3.49088E-19
 -1      3155 9.50493E-05-2.73958E-05-2.89992E-05-2.24787E-06 1.68761E-18-1.98859E-20
 -1      3156 9.45317E-05-2.68305E-05-2.90125E-05-2.74735E-06 1.87764E-18-1.14554E-18
 -1      3157 9.51360E-05-2.75409E-05-2.89646E-05-1.96111E-06 3.88353E-19 8.13523E-20
 -1      3158 9.51148E-05-2.76423E-05-2.89207E-05-1.69789E-06 6.08678E-19 5.33084E-20
 -1      3159 9.47321E-05-2.71799E-05-2.89493E-05-2.11207E-06 1.21402E-18-2.61641E-18
 -1      3160 9.51795E-05-2.77637E-05-2.88886E-05-1.46714E-06 6.89811E-19-5.54167E-19
 -1      3161 9.51614E-05-2.78494E-05-2.88511E-05-1.25705E-06 8.64151E-19-8.99910E-19
 -1      3162 9.48841E-05-2.74788E-05-2.88869E-05-1.59460E-06 1.32164E-19-9.78038E-19
 -1      3163 9.52085E-05-2.79485E-05-2.88224E-05-1.07434E-06 1.01490E-18-7.20727E-19
 -1      3164 9.51932E-05-2.80191E-05-2.87912E-05-9.09470E-07-1.10534E-19-8.24492E-22
 -1      3165 9.49966E-05-2.77274E-05-2.88291E-05-1.17990E-06 9.02215E-19-1.52882E-18
 -1      3166 9.52266E-05-2.80985E-05-2.87665E-05-7.67141E-07-1.08105E-18 7.05766E-19
 -1      3167 9.52139E-05-2.81556E-05-2.87411E-05-6.39921E-07-1.51744E-19 1.34479E-18
 -1      3168 9.50780E-05-2.79296E-05-2.87776E-05-8.52952E-07 2.84316E-19-3.15497E-19
 -1      3169 9.52370E-05-2.82182E-05-2.87202E-05-5.31008E-07-6.17948E-19 1.10680E-18
 -1      3170 9.52267E-05-2.82637E-05-2.86998E-05-4.34625E-07-1.01980E-18 5.16032E-19
 -1      3171 9.51354E-05-2.80913E-05-2.87331E-05-5.99529E-07-8.64394E-19 6.26493E-19
 -1      3172 9.52418E-05-2.83121E-05-2.86824E-05-3.52886E-07-1.28413E-18 2.35835E-19
 -1      3173 9.52335E-05-2.83484E-05-2.86661E-05-2.81106E-07-1.13826E-18-9.30110E-19
 -1      3174 9.51745E-05-2.82187E-05-2.86954E-05-4.07011E-07-1.36549E-18-3.73351E-19
 -1      3175 9.52434E-05-2.83864E-05-2.86517E-05-2.21796E-07-7.53601E-19-1.26893E-18
 -1      3176 9.52369E-05-2.84146E-05-2.86387E-05-1.70156E-07-5.40063E-19-2.38814E-18
 -1      3177 9.52000E-05-2.83191E-05-2.86638E-05-2.63509E-07-1.73719E-18-6.34316E-19
 -1      3178 9.56738E-05-2.70622E-05-2.94027E-05-3.14642E-06 4.81870E-19 1.00897E-19
 -1      3179 9.56268E-05-2.68561E-05-2.94637E-05-2.51749E-06 4.57719E-19 1.22144E-19
 -1      3180 9.65949E-05-2.80691E-05-2.93597E-05-6.93347E-06 5.03070E-19 3.27339E-19
 -1      3181 9.62260E-05-2.78273E-05-2.93126E-05-6.56669E-06 6.27673E-19 3.28315E-19
 -1      3182 9.61472E-05-2.77139E-05-2.93204E-05-6.10992E-06 5.37739E-19 3.73000E-19
 -1      3183 9.58898E-05-2.75653E-05-2.92813E-05-5.69383E-06 4.91499E-19 4.59462E-19
 -1      3184 9.54956E-05-2.73192E-05-2.92249E-05-6.52099E-06 5.75301E-19 1.14744E-19
 -1      3185 9.84984E-05-2.98414E-05-2.94184E-05-8.14276E-06 2.65081E-19 5.79466E-19
 -1      3186 9.77544E-05-2.91796E-05-2.93789E-05-8.01059E-06 1.05190E-19 2.56673E-19
 -1      3187 1.00300E-04-3.16234E-05-2.94317E-05-8.24314E-06 5.70555E-19 8.91025E-19
 -1      3188 9.92616E-05-3.06249E-05-2.93947E-05-8.36951E-06 6.23801E-19 8.41464E-19
 -1      3189 9.75492E-05-2.98228E-05-2.90517E-05-8.97877E-06 1.71486E-19 4.31643E-19
 -1      3190 1.02942E-04-3.41901E-05-2.94732E-05-7.65603E-06-1.20995E-19 6.42715E-19
 -1      3191 1.01553E-04-3.28239E-05-2.94191E-05-8.19398E-06 3.12209E-19 8.59476E-19
 -1      3192 9.95221E-05-3.20013E-05-2.89792E-05-9.30681E-06 2.87176E-19 7.94026E-19
 -1      3193 1.06539E-04-3.74550E-05-2.96324E-05-5.98989E-06-3.62633E-19 1.18536E-18
 -1      3194 1.04825E-04-3.58218E-05-2.95164E-05-7.11809E-06-3.82006E-19 9.80855E-19
 -1      3195 1.02609E-04-3.51420E-05-2.89730E-05-8.95209E-06-3.39197E-19 1.22196E-18
 -1      3196 1.10899E-04-4.08138E-05-3.00797E-05-2.76124E-06-1.07654E-18 1.61256E-18
 -1      3197 1.09079E-04-3.93307E-05-2.98202E-05-4.62888E-06-5.49230E-19 1.28723E-18
 -1      3198 1.07028E-04-3.91179E-05-2.91718E-05-7.37309E-06-5.28446E-19 1.59415E-18
 -1      3199 1.15116E-04-4.28513E-05-3.10517E-05 2.12963E-06-1.50578E-18 1.86034E-18
 -1      3200 1.13729E-04-4.23060E-05-3.05527E-05-3.43993E-07-1.59012E-18 1.78392E-18
 -1      3201 1.12434E-04-4.30264E-05-2.98312E-05-3.80670E-06-1.37743E-18 2.09222E-18
 -1      3202 1.17555E-04-4.11691E-05-3.27962E-05 8.18708E-06-1.29153E-18 2.55304E-18
 -1      3203 1.17552E-04-4.28259E-05-3.19780E-05 5.80075E-06-1.41531E-18 2.32302E-18
 -1      3204 1.18110E-04-4.53074E-05-3.13283E-05 2.00054E-06-1.79612E-18 2.45722E-18
 -1      3205 1.16505E-04-3.42334E-05-3.52598E-05 1.25172E-05-5.30679E-19 2.41426E-18
 -1      3206 1.18182E-04-3.85303E-05-3.42249E-05 1.15633E-05-9.38271E-19 2.48367E-18
 -1      3207 1.20975E-04-4.22128E-05-3.39114E-05 9.01128E-06-9.68542E-19 2.72672E-18
 -1      3208 1.13272E-04-2.33255E-05-3.86507E-05 1.11493E-05 1.66368E-18 1.93534E-18
 -1      3209 1.15703E-04-2.86253E-05-3.75772E-05 1.31349E-05 4.70791E-19 2.34946E-18
 -1      3210 1.12835E-04-1.92968E-05-4.04305E-05-8.83852E-06 3.55193E-18-2.06785E-19
 -1      3211 1.11450E-04-1.63789E-05-4.10100E-05-4.41147E-06 3.81175E-18 5.70622E-19
 -1      3212 1.17894E-04-3.91698E-05-3.38653E-05-1.11082E-05 1.66496E-18-3.64363E-18
 -1      3213 1.16592E-04-3.54507E-05-3.47997E-05-1.22408E-05 2.16585E-18-2.78294E-18
 -1      3214 1.16863E-04-4.27490E-05-3.17762E-05-5.13637E-06 7.38199E-19-3.87757E-18
 -1      3215 1.17394E-04-4.14833E-05-3.25424E-05-7.76552E-06 6.96461E-19-3.70638E-18
 -1      3216 1.20405E-04-4.25477E-05-3.33356E-05-8.63406E-06 1.40556E-18-2.89130E-18
 -1      3217 1.13079E-04-4.17325E-05-3.05156E-05 4.67891E-07-2.09100E-19-2.70168E-18
 -1      3218 1.14537E-04-4.24004E-05-3.09638E-05-1.96749E-06 6.60267E-19-2.82298E-18
 -1      3219 1.16851E-04-4.43561E-05-3.11286E-05-1.81588E-06-4.13723E-20-2.72722E-18
 -1      3220 1.08492E-04-3.86066E-05-2.98846E-05 4.46470E-06-8.29037E-19-1.36548E-18
 -1      3221 1.10277E-04-4.01468E-05-3.01063E-05 2.74627E-06-4.11055E-19-1.84600E-18
 -1      3222 1.11704E-04-4.22020E-05-2.98526E-05 3.68425E-06-9.51210E-19-1.01199E-18
 -1      3223 1.04415E-04-3.51478E-05-2.96338E-05 6.64084E-06-9.58089E-19-1.82979E-18
 -1      3224 1.06062E-04-3.67614E-05-2.97285E-05 5.66496E-06-7.59396E-19-1.47999E-18
 -1      3225 1.06429E-04-3.82344E-05-2.92928E-05 6.85696E-06-6.13302E-19-1.05889E-18
 -1      3226 1.01321E-04-3.22662E-05-2.95608E-05 7.47494E-06-7.67492E-19-2.18081E-18
 -1      3227 1.02632E-04-3.35860E-05-2.96022E-05 7.07133E-06-7.90318E-19-2.42458E-18
 -1      3228 1.02251E-04-3.43955E-05-2.91323E-05 8.19998E-06-6.82591E-19-1.20851E-18
 -1      3229 9.91671E-05-3.01878E-05-2.95431E-05 7.45507E-06-4.57970E-20-1.87287E-18
 -1      3230 1.00135E-04-3.11340E-05-2.95733E-05 7.43969E-06-3.69663E-19-2.29013E-18
 -1      3231 9.93299E-05-3.14073E-05-2.91444E-05 8.39340E-06-6.17009E-19-2.22677E-18
 -1      3232 9.77462E-05-2.88414E-05-2.95213E-05 6.93790E-06-2.20827E-19-4.28166E-19
 -1      3233 9.84340E-05-2.94561E-05-2.95587E-05 7.16095E-06 6.46162E-21-8.04276E-19
 -1      3234 9.74486E-05-2.93610E-05-2.92020E-05 7.93642E-06-6.14918E-19-8.80201E-19
 -1      3235 9.68396E-05-2.80580E-05-2.94749E-05 6.16487E-06-5.31268E-19-7.41450E-19
 -1      3236 9.73227E-05-2.84207E-05-2.95237E-05 6.51681E-06-3.79436E-19-3.38851E-19
 -1      3237 9.63158E-05-2.81041E-05-2.92460E-05 7.14522E-06-6.90665E-19-6.96503E-19
 -1      3238 9.62713E-05-2.76657E-05-2.94031E-05 5.29240E-06-7.36227E-19 1.30894E-19
 -1      3239 9.66123E-05-2.78539E-05-2.94610E-05 5.69814E-06-9.00221E-19-4.33756E-20
 -1      3240 9.56771E-05-2.74278E-05-2.92563E-05 6.21349E-06-1.12352E-18 2.64683E-19
 -1      3241 9.59167E-05-2.75249E-05-2.93134E-05 4.41823E-06 6.03624E-19-2.89482E-19
 -1      3242 9.61610E-05-2.76007E-05-2.93758E-05 4.82887E-06 6.08938E-20 1.41667E-20
 -1      3243 9.53436E-05-2.71412E-05-2.92329E-05 5.25719E-06 4.51355E-20-3.56783E-19
 -1      3244 9.56938E-05-2.75340E-05-2.92148E-05 3.60045E-06 8.48952E-19 1.23431E-19
 -1      3245 9.58722E-05-2.75420E-05-2.92773E-05 3.98629E-06 7.52930E-19 8.61384E-20
 -1      3246 9.51886E-05-2.70971E-05-2.91836E-05 4.34502E-06 4.76070E-19-3.10833E-19
 -1      3247 9.55514E-05-2.76239E-05-2.91153E-05 2.87017E-06 1.20229E-18 2.97454E-19
 -1      3248 9.56836E-05-2.75944E-05-2.91745E-05 3.21511E-06 1.43106E-18 2.96145E-19
 -1      3249 9.51316E-05-2.71910E-05-2.91181E-05 3.51571E-06 9.43423E-19-3.23307E-19
 -1      3250 9.54580E-05-2.77503E-05-2.90209E-05 2.24046E-06-1.19710E-20-8.34300E-19
 -1      3251 9.55573E-05-2.77029E-05-2.90745E-05 2.53762E-06 9.89121E-19 3.74260E-19
 -1      3252 9.51244E-05-2.73533E-05-2.90451E-05 2.78806E-06 6.53739E-19-1.80582E-19
 -1      3253 9.53950E-05-2.78861E-05-2.89353E-05 1.71257E-06-7.48555E-20-2.23763E-18
 -1      3254 9.54699E-05-2.78329E-05-2.89821E-05 1.96116E-06-5.48695E-19-1.27031E-18
 -1      3255 9.51396E-05-2.75403E-05-2.89713E-05 2.16774E-06 4.38188E-19-1.30201E-18
 -1      3256 9.53511E-05-2.80159E-05-2.88604E-05 1.28049E-06-1.63802E-19-1.34357E-18
 -1      3257 9.54077E-05-2.79638E-05-2.89001E-05 1.48339E-06-3.19186E-19-1.55900E-18
 -1      3258 9.51620E-05-2.77258E-05-2.89014E-05 1.65169E-06-2.71787E-19-1.46164E-18
 -1      3259 9.53198E-05-2.81321E-05-2.87967E-05 9.34258E-07-2.08125E-19-6.79488E-19
 -1      3260 9.53623E-05-2.80846E-05-2.88296E-05 1.09630E-06 1.59541E-19-9.11270E-19
 -1      3261 9.51842E-05-2.78956E-05-2.88382E-05 1.23153E-06-1.63059E-19-3.76837E-20
 -1      3262 9.52968E-05-2.82314E-05-2.87439E-05 6.62291E-07 2.21205E-19-2.01831E-18
 -1      3263 9.53284E-05-2.81903E-05-2.87705E-05 7.89079E-07 1.06667E-19-1.78654E-18
 -1      3264 9.52029E-05-2.80434E-05-2.87829E-05 8.96171E-07 1.06769E-19-1.92176E-18
 -1      3265 9.52797E-05-2.83138E-05-2.87009E-05 4.52907E-07-2.24952E-19-1.49155E-18
 -1      3266 9.53029E-05-2.82792E-05-2.87220E-05 5.50075E-07 2.18076E-19-1.33658E-18
 -1      3267 9.52171E-05-2.81674E-05-2.87359E-05 6.33609E-07 1.76445E-19-2.85476E-18
 -1      3268 9.52673E-05-2.83800E-05-2.86664E-05 2.95829E-07-7.23427E-19-1.42941E-18
 -1      3269 9.52837E-05-2.83525E-05-2.86829E-05 3.67645E-07-7.76182E-19-1.03458E-18
 -1      3270 9.52264E-05-2.82686E-05-2.86966E-05 4.32270E-07-8.76389E-19-1.28499E-18
 -1      3271 9.50688E-05-2.82232E-05-2.86483E-05-7.76877E-08-6.69248E-19 4.56210E-19
 -1      3272 9.50573E-05-2.82118E-05-2.86488E-05-5.18072E-08 1.69138E-19-3.26170E-19
 -1      3273 9.51093E-05-2.82680E-05-2.86461E-05-1.26855E-07-2.22805E-19 6.63271E-19
 -1      3274 9.50879E-05-2.82463E-05-2.86474E-05-1.07843E-07-7.49044E-19 9.06780E-19
 -1      3275 9.50463E-05-2.81750E-05-2.86581E-05-1.11506E-07-4.52888E-19 4.25006E-19
 -1      3276 9.50503E-05-2.82037E-05-2.86490E-05-1.55338E-08-6.56492E-19-3.12562E-18
 -1      3277 9.50501E-05-2.82037E-05-2.86489E-05 1.35578E-08-9.93166E-19-1.67940E-18
 -1      3278 9.50173E-05-2.81434E-05-2.86590E-05-3.97815E-08 6.93567E-20-1.08633E-18
 -1      3279 1.26777E-04-2.46520E-05-4.43949E-05-1.30575E-05 5.06081E-18-2.52702E-18
 -1      3280 1.28621E-04-3.26351E-05-4.12294E-05-1.32766E-05 3.77438E-18-2.88785E-18
 -1      3281 9.56344E-05-2.65976E-05-2.95891E-05-1.81939E-06 5.34388E-19 1.38118E-19
 -1      3282 9.56245E-05-2.62526E-05-2.97180E-05-1.01184E-06 7.69425E-19 1.08131E-19
 -1      3283 9.55321E-05-2.62582E-05-2.96940E-05-2.07800E-06 4.69771E-19 1.82348E-20
 -1      3284 9.33903E-05-1.93732E-05-3.17188E-05-5.32460E-06-8.51020E-19-1.68261E-18
 -1      3285 4.29691E-05-1.20568E-05-1.29005E-05-4.33132E-06-1.33051E-18 4.22987E-18
 -1      3286 4.75884E-05-1.51597E-05-1.36754E-05-1.55726E-05 4.02605E-19 5.24398E-18
 -1      3287 8.58227E-05-4.04411E-05-1.94323E-05 3.26587E-05 1.87867E-18-7.06690E-19
 -1      3288 7.19572E-05-3.27129E-05-1.61169E-05 3.32533E-05 2.12097E-18-1.75558E-18
 -1      3289 9.52442E-05-2.84506E-05-2.86253E-05-1.23989E-07-1.29915E-19-2.94773E-18
 -1      3290 9.73290E-05-2.87193E-05-2.93962E-05-7.64538E-06 3.00509E-19 3.27451E-19
 -1      3291 9.68043E-05-2.83106E-05-2.93504E-05-7.36218E-06 4.51812E-19 5.54950E-19
 -1      3292 9.57759E-05-2.77075E-05-2.91817E-05-7.44552E-06 3.85825E-19 3.45036E-19
 -1      3293 9.63924E-05-2.84691E-05-2.91257E-05-8.29567E-06 2.28373E-19 5.84544E-19
 -1      3294 9.53505E-05-2.39045E-05-3.06223E-05 3.15104E-06 1.57161E-18 1.01330E-19
 -1      3295 9.46548E-05-2.22710E-05-3.10119E-05 3.67867E-06 1.66039E-18 1.64150E-20
 -1      3296 9.48412E-05-2.29703E-05-3.07940E-05 2.45951E-06 1.46932E-18-1.02200E-19
 -1      3297 9.54217E-05-2.47718E-05-3.02870E-05 1.72631E-06 1.38533E-18-9.83363E-21
 -1      3298 5.61589E-05-2.08091E-05-1.47211E-05-2.38348E-05 1.79121E-18 5.17992E-18
 -1      3299 6.83057E-05-2.92216E-05-1.67713E-05-3.06397E-05 1.90995E-18 3.54441E-18
 -1      3300 9.52224E-05-2.84294E-05-2.86253E-05 1.19487E-07-6.77965E-19-2.60224E-18
 -1      3301 7.00788E-05-3.20833E-05-1.57844E-05-3.37820E-05-1.84314E-18-2.34194E-18
 -1      3302 8.44835E-05-4.06516E-05-1.88631E-05-3.48621E-05-2.40907E-18-1.67135E-18
 -1      3303 7.20156E-05-3.13941E-05-1.75237E-05 3.23168E-05-2.05861E-18 1.84304E-18
 -1      3304 5.90857E-05-2.21797E-05-1.53109E-05 2.59411E-05-2.86043E-18 3.95379E-18
 -1      3305 1.23904E-04-2.81851E-05-4.12932E-05-1.53107E-05-1.93637E-18 3.01292E-18
 -1      3306 1.05341E-04-5.09132E-05-2.37023E-05 2.85486E-05-2.00535E-18-4.00064E-19
 -1      3307 8.90451E-05-4.12183E-05-1.99922E-05 3.23474E-05-2.08844E-18-3.08717E-19
 -1      3308 9.53699E-05-2.47582E-05-3.02527E-05-5.78536E-07-5.69578E-19-9.88221E-19
 -1      3309 9.54193E-05-2.53475E-05-3.00386E-05 4.59510E-07-4.67687E-19-1.00876E-18
 -1      3310 9.52346E-05-2.49572E-05-3.01192E-05 7.47099E-07-3.67298E-19-9.24062E-19
 -1      3311 4.05214E-05-1.26460E-05-1.15630E-05 4.99970E-06 7.27127E-19-3.41323E-18
 -1      3312 3.97718E-05-1.26304E-05-1.11297E-05-6.85760E-06 1.71736E-19-3.69698E-18
 -1      3313 1.27205E-04-2.07580E-05-4.60439E-05 1.12275E-05-3.98783E-18-1.57882E-18
 -1      3314 8.46052E-05-3.89036E-05-1.90894E-05-3.21242E-05 2.20620E-18 2.66731E-18
 -1      3315 1.01196E-04-4.91436E-05-2.25493E-05-3.01438E-05 2.47969E-18 1.27518E-18
 -1      3316 1.16134E-04-5.40773E-05-2.62105E-05-2.06085E-05 1.49589E-18-1.56503E-19
 -1      3317 1.25404E-04-5.72085E-05-2.95503E-05-1.30249E-05 6.97955E-19-1.62401E-18
 -1      3318 1.24146E-04-5.54228E-05-2.93962E-05-1.24837E-05-3.04625E-18 1.29002E-18
 -1      3319 1.30649E-04-5.47999E-05-3.27654E-05-4.19769E-06-2.08285E-18 1.81432E-18
 -1      3320 4.81917E-05-1.56828E-05-1.38204E-05 1.75656E-05-1.83483E-18 4.55968E-18
 -1      3321 4.29678E-05-1.20893E-05-1.28145E-05 5.45329E-06-1.45939E-18 4.78214E-18
 -1      3322 5.05884E-05-1.29588E-05-1.56453E-05 5.48077E-07-1.01184E-18 4.50690E-18
 -1      3323 1.31683E-04-4.41441E-05-3.81595E-05-8.94298E-06 2.08444E-18-2.98770E-18
 -1      3324 1.31537E-04-5.06340E-05-3.44841E-05-2.16508E-06 3.79391E-19-2.65079E-18
 -1      3325 9.51637E-05-2.83316E-05-2.86419E-05-1.53572E-07 6.35249E-20 1.50419E-18
 -1      3326 9.51373E-05-2.83031E-05-2.86443E-05-1.45234E-07-2.18230E-19 6.09619E-19
 -1      3327 9.51000E-05-2.82346E-05-2.86557E-05-1.64933E-07 1.03145E-19 1.12389E-18
 -1      3328 1.00561E-04-4.81245E-05-2.19809E-05-3.08295E-05-2.44168E-18-7.13956E-19
 -1      3329 1.13467E-04-5.37101E-05-2.57409E-05-2.34020E-05-2.75304E-18 8.92018E-19
 -1      3330 1.27214E-04-5.59538E-05-3.10697E-05 8.82351E-06-1.05651E-18-1.96369E-18
 -1      3331 1.19291E-04-5.47709E-05-2.72187E-05 1.80959E-05-1.89643E-18-1.62601E-18
 -1      3332 9.14427E-05-1.70653E-05-3.18910E-05 1.35512E-06 1.02749E-18-1.49945E-18
 -1      3333 9.12587E-05-1.68121E-05-3.19198E-05 7.57562E-07 8.03636E-19-1.59884E-18
 -1      3334 1.18570E-04-1.53421E-05-4.45678E-05 8.89016E-06 2.99733E-18 9.75491E-19
 -1      3335 1.16826E-04-1.22950E-05-4.53789E-05 2.05070E-06 3.95575E-18 5.76247E-20
 -1      3336 1.31752E-04-5.59722E-05-3.23942E-05-3.69999E-06-2.24795E-19-1.81011E-18
 -1      3337 1.34599E-04-5.07966E-05-3.62636E-05 6.15264E-06-9.19507E-19-1.81723E-18
 -1      3338 9.11594E-05-1.66738E-05-3.19363E-05 3.03452E-07 6.33085E-19-1.64911E-18
 -1      3339 9.11525E-05-1.66650E-05-3.19374E-05-2.96287E-07 4.83675E-19-1.65400E-18
 -1      3340 9.19740E-05-1.80831E-05-3.16462E-05 3.97554E-07 6.88921E-19-1.43435E-18
 -1      3341 1.16664E-04-1.97828E-05-4.17904E-05 1.02162E-05 2.23797E-18 7.90096E-19
 -1      3342 8.41066E-05-3.56385E-05-2.04486E-05 2.87148E-05-2.20689E-18 1.94076E-19
 -1      3343 4.77950E-05-1.34749E-05-1.43152E-05-7.65281E-06 4.21942E-19-3.42831E-18
 -1      3344 4.33575E-05-1.40439E-05-1.20234E-05-1.25470E-05-2.37725E-19-3.87962E-18
 -1      3345 4.87925E-05-1.68264E-05-1.34522E-05-1.89726E-05-4.50224E-19-4.02192E-18
 -1      3346 1.07308E-04-4.62598E-05-2.62102E-05 1.99190E-05 1.07046E-18 9.44865E-19
 -1      3347 9.39421E-05-2.08555E-05-3.13283E-05-3.96686E-06-7.41401E-19-1.57924E-18
 -1      3348 1.32813E-04-3.69472E-05-4.13571E-05 1.37819E-05-2.17730E-18-2.64872E-18
 -1      3349 1.34222E-04-4.55409E-05-3.81876E-05 1.20116E-05-1.18987E-18-2.69187E-18
 -1      3350 9.49508E-05-2.31072E-05-3.07925E-05-2.68503E-06-6.90400E-19-1.28842E-18
 -1      3351 9.51238E-05-2.39812E-05-3.05017E-05-1.48456E-06-5.90186E-19-1.15416E-18
 -1      3352 9.49455E-05-2.36032E-05-3.05708E-05-1.04514E-06-4.71177E-19-1.21628E-18
 -1      3353 9.51356E-05-2.83034E-05-2.86435E-05 1.43901E-07-3.27203E-20-3.33927E-19
 -1      3354 9.51622E-05-2.83313E-05-2.86411E-05 1.52294E-07-4.23877E-19 1.17850E-18
 -1      3355 9.32708E-05-4.24431E-05-2.15789E-05-2.96004E-05-2.25880E-18-6.96552E-19
 -1      3356 9.52189E-05-2.84020E-05-2.86357E-05-1.55351E-07-3.38334E-19-5.68636E-19
 -1      3357 9.56371E-05-2.71908E-05-2.93291E-05-3.72508E-06 4.85508E-19 8.76079E-20
 -1      3358 9.54947E-05-2.67246E-05-2.94782E-05-3.40257E-06 4.51613E-19-1.29081E-19
 -1      3359 9.57420E-05-2.73254E-05-2.93163E-05-4.24703E-06 3.93512E-19 8.80021E-20
 -1      3360 9.51080E-05-2.82682E-05-2.86454E-05 1.25175E-07 3.34321E-19-1.58888E-18
 -1      3361 9.50982E-05-2.82351E-05-2.86547E-05 1.62561E-07-2.70470E-19-7.82721E-19
 -1      3362 9.50871E-05-2.82468E-05-2.86468E-05 1.06088E-07-2.16556E-19 4.50125E-19
 -1      3363 1.31157E-04-4.87098E-05-3.55163E-05 7.89925E-06-9.94403E-19-2.47273E-18
 -1      3364 9.54127E-05-2.71223E-05-2.92724E-05-5.55435E-06 3.13650E-19 7.90117E-20
 -1      3365 9.58848E-05-2.75065E-05-2.92980E-05-5.21715E-06 3.99026E-19 1.39669E-19
 -1      3366 9.57115E-05-2.73909E-05-2.92782E-05-4.75790E-06 3.28943E-19 6.08436E-20
 -1      3367 1.20499E-04-3.25596E-05-3.78216E-05 1.35643E-05 1.04291E-19 2.03748E-18
 -1      3368 1.10406E-04-1.89708E-05-3.94969E-05 6.95068E-06 2.81832E-18 1.94442E-18
 -1      3369 1.09214E-04-1.67136E-05-3.98508E-05 2.36956E-06 3.22582E-18 1.34304E-18
 -1      3370 1.21648E-04-3.43041E-05-3.76752E-05-1.34705E-05 3.18058E-18-3.69608E-18
 -1      3371 1.17374E-04-3.02970E-05-3.75202E-05-1.37266E-05 2.84436E-18-2.48664E-18
 -1      3372 1.14677E-04-2.47298E-05-3.86577E-05-1.21274E-05 2.99675E-18-1.59134E-18
 -1      3373 1.26710E-04-3.77962E-05-3.83245E-05-1.18934E-05 2.37884E-18-2.85101E-18
 -1      3374 9.52610E-05-2.83946E-05-2.86559E-05 2.48585E-07 5.20634E-19-1.12940E-18
 -1      3375 9.52232E-05-2.83325E-05-2.86683E-05 2.96137E-07 2.63546E-19-8.99917E-19
 -1      3376 9.52483E-05-2.84048E-05-2.86467E-05 2.10185E-07-1.12642E-19-2.19561E-18
 -1      3377 9.17169E-05-1.74529E-05-3.18414E-05 1.79312E-06 1.18377E-18-1.28108E-18
 -1      3378 9.23386E-05-1.86030E-05-3.15788E-05 1.19120E-06 1.03772E-18-1.22759E-18
 -1      3379 9.20732E-05-1.79605E-05-3.17802E-05 2.36763E-06 1.39814E-18-1.12308E-18
 -1      3380 1.26855E-04-5.13379E-05-3.23342E-05 1.07181E-06 3.31931E-20-1.49152E-18
 -1      3381 1.20818E-04-2.07745E-05-4.31605E-05-1.22290E-05 4.95853E-18-1.83631E-18
 -1      3382 9.50567E-05-2.82120E-05-2.86486E-05 4.97091E-08-4.81456E-20 1.02303E-18
 -1      3383 9.50682E-05-2.82235E-05-2.86478E-05 7.62077E-08-6.53081E-19 1.76044E-18
 -1      3384 9.50457E-05-2.81758E-05-2.86575E-05 1.09766E-07-2.91737E-20 5.85946E-19
 -1      3385 9.50170E-05-2.81437E-05-2.86588E-05 3.84204E-08-9.35421E-19-1.06751E-18
 -1      3386 6.51867E-05-2.69889E-05-1.60816E-05 2.83486E-05 1.84304E-18-1.83340E-18
 -1      3387 1.29563E-04-4.95177E-05-3.44469E-05 3.02369E-06-1.21413E-18 2.37831E-18
 -1      3388 9.51994E-05-2.83746E-05-2.86396E-05-1.61330E-07-4.62616E-19 6.81044E-19
 -1      3389 5.93287E-05-1.90706E-05-1.68495E-05 1.91918E-05-1.91686E-18 3.71673E-18
 -1      3390 1.19468E-04-5.45342E-05-2.77252E-05-1.64692E-05-2.80537E-18 6.95629E-19
 -1      3391 1.21080E-04-5.24593E-05-2.95698E-05-8.93657E-06-2.61110E-18 5.65110E-19
 -1      3392 1.11413E-04-4.99001E-05-2.63271E-05-1.92192E-05-2.33254E-18 1.01320E-18
 -1      3393 1.09276E-04-4.93716E-05-2.54829E-05-2.16142E-05 1.94082E-18 5.39378E-19
 -1      3394 5.00846E-05-1.67480E-05-1.41176E-05 1.71193E-05 1.70824E-18-2.00768E-18
 -1      3395 4.45854E-05-1.38749E-05-1.25205E-05 1.10863E-05 1.08670E-18-2.90733E-18
 -1      3396 4.71264E-05-1.30304E-05-1.43360E-05 4.71753E-06 9.16423E-19-2.84677E-18
 -1      3397 8.04898E-05-3.34691E-05-1.97282E-05-2.81329E-05 2.40576E-18 2.39340E-18
 -1      3398 9.51957E-05-2.83767E-05-2.86379E-05 1.57720E-07 1.17336E-19-1.05806E-18
 -1      3399 9.52331E-05-2.84205E-05-2.86333E-05 1.53500E-07-1.58423E-19-3.73922E-18
 -1      3400 9.52404E-05-2.84084E-05-2.86412E-05 1.84544E-07 2.97422E-19-2.29397E-18
 -1      3401 9.51674E-05-2.83167E-05-2.86497E-05 1.90072E-07 9.42746E-19-1.18503E-19
 -1      3402 1.29225E-04-5.16820E-05-3.32859E-05 3.26156E-06-7.56098E-19-2.76138E-18
 -1      3403 6.36959E-05-2.73270E-05-1.52771E-05-3.12842E-05-1.58692E-18-2.50367E-18
 -1      3404 7.32563E-05-2.98988E-05-1.83118E-05-2.86638E-05-1.87844E-18-1.59126E-18
 -1      3405 5.79509E-05-2.21081E-05-1.49411E-05-2.59550E-05-1.26184E-18-2.98791E-18
 -1      3406 1.11922E-04-5.05354E-05-2.60907E-05 2.00650E-05-2.17028E-18-1.49757E-18
 -1      3407 9.55830E-05-2.59173E-05-2.98619E-05-2.73069E-07 9.82838E-19 3.70325E-20
 -1      3408 9.55683E-05-2.53593E-05-3.00779E-05 7.92321E-07 1.15567E-18-4.13135E-20
 -1      3409 9.53404E-05-2.45362E-05-3.03416E-05 1.18016E-06 1.30596E-18-1.02738E-19
 -1      3410 9.55039E-05-2.55589E-05-2.99816E-05-5.73342E-07 8.27895E-19 1.05384E-19
 -1      3411 9.30131E-05-1.93735E-05-3.15820E-05 3.28114E-06 1.49952E-18-8.35769E-19
 -1      3412 9.25075E-05-1.85958E-05-3.16887E-05 2.77223E-06 1.37774E-18-1.00560E-18
 -1      3413 9.30188E-05-1.96170E-05-3.14355E-05 1.92488E-06 1.23397E-18-1.00462E-18
 -1      3414 9.39319E-05-2.11027E-05-3.11906E-05 2.50990E-06 1.42109E-18-4.98373E-19
 -1      3415 1.25329E-04-3.59047E-05-3.86791E-05 1.26337E-05 4.69865E-19 2.16525E-18
 -1      3416 9.51713E-05-2.83146E-05-2.86520E-05-1.96516E-07-4.88883E-19-1.48708E-20
 -1      3417 1.26839E-04-5.39623E-05-3.11945E-05-4.57802E-06 1.74151E-19-1.04426E-18
 -1      3418 5.81515E-05-1.82730E-05-1.66327E-05-1.75331E-05 1.39115E-18 4.19456E-18
 -1      3419 9.16678E-05-1.73872E-05-3.18498E-05-1.77903E-06 4.47680E-20-1.89644E-18
 -1      3420 9.20091E-05-1.78733E-05-3.17907E-05-2.34616E-06-2.04536E-19-1.94544E-18
 -1      3421 9.24504E-05-1.85067E-05-3.17024E-05-2.74199E-06-2.16001E-19-1.94435E-18
 -1      3422 9.29639E-05-1.92839E-05-3.15982E-05-3.27018E-06-4.08616E-19-1.94976E-18
 -1      3423 9.29464E-05-1.95275E-05-3.14497E-05-1.93404E-06-2.30812E-19-1.85676E-18
 -1      3424 1.16932E-04-4.66318E-05-3.00095E-05 3.63922E-06-1.31707E-18-6.45069E-19
 -1      3425 1.19615E-04-4.71342E-05-3.10114E-05 1.60955E-07 1.75367E-19-1.10889E-18
 -1      3426 1.34546E-04-4.29634E-05-3.92491E-05-1.23677E-05-1.33889E-18 3.24588E-18
 -1      3427 9.47592E-05-2.55652E-05-2.96548E-05 3.05449E-06-1.71394E-19-6.54540E-19
 -1      3428 9.46068E-05-2.56548E-05-2.95518E-05 3.67479E-06-8.00221E-20-5.14301E-19
 -1      3429 9.42913E-05-2.56291E-05-2.94303E-05 4.20995E-06-8.30204E-20-4.25564E-19
 -1      3430 9.40806E-05-2.55853E-05-2.93534E-05 4.78177E-06 3.47912E-20-3.48875E-19
 -1      3431 9.40557E-05-2.51608E-05-2.95208E-05 3.63312E-06 1.33120E-20-4.49782E-19
 -1      3432 9.36518E-05-2.54343E-05-2.92433E-05 5.30311E-06-1.02630E-20-4.67303E-19
 -1      3433 9.34014E-05-2.53153E-05-2.91756E-05 5.86732E-06 7.16963E-20-4.87933E-19
 -1      3434 9.33197E-05-2.49986E-05-2.92735E-05 4.67521E-06 9.99663E-21-3.80170E-19
 -1      3435 9.28769E-05-2.50986E-05-2.90584E-05 6.41304E-06 1.84114E-19-6.14781E-19
 -1      3436 9.26104E-05-2.49689E-05-2.89823E-05 7.00283E-06 2.11006E-20-4.61950E-19
 -1      3437 9.23752E-05-2.46235E-05-2.90278E-05 5.71594E-06-3.90647E-20-6.21154E-19
 -1      3438 9.20117E-05-2.47561E-05-2.88376E-05 7.61243E-06-2.32154E-20-3.04601E-19
 -1      3439 9.17723E-05-2.47001E-05-2.87340E-05 8.25656E-06 2.10993E-19-2.34212E-19
 -1      3440 9.12582E-05-2.41650E-05-2.87439E-05 6.83262E-06 2.08080E-19-5.88726E-19
 -1      3441 9.11366E-05-2.45843E-05-2.85388E-05 8.97825E-06 2.62017E-19-4.31405E-19
 -1      3442 9.10071E-05-2.47229E-05-2.83891E-05 9.70587E-06 2.22920E-19-3.57038E-19
 -1      3443 9.00217E-05-2.37827E-05-2.83771E-05 8.11604E-06 9.29251E-20-6.47043E-19
 -1      3444 9.04066E-05-2.48373E-05-2.81193E-05 1.06072E-05 3.60477E-20-5.47955E-19
 -1      3445 9.05402E-05-2.53492E-05-2.79084E-05 1.14510E-05 3.04112E-19-5.94536E-19
 -1      3446 8.87644E-05-2.36950E-05-2.78778E-05 9.69215E-06-1.33573E-20-1.05569E-18
 -1      3447 9.01156E-05-2.58874E-05-2.75423E-05 1.26280E-05 5.56959E-19-6.31071E-19
 -1      3448 9.07681E-05-2.70360E-05-2.72686E-05 1.36218E-05 5.79135E-19-6.39324E-19
 -1      3449 8.76782E-05-2.42222E-05-2.71953E-05 1.17467E-05 3.27787E-19-1.06402E-18
 -1      3450 9.07939E-05-2.82593E-05-2.67954E-05 1.51649E-05 5.37833E-19-3.29603E-19
 -1      3451 9.23641E-05-3.04247E-05-2.64832E-05 1.63205E-05 6.18562E-19-3.31479E-19
 -1      3452 8.71636E-05-2.58940E-05-2.62892E-05 1.45424E-05 7.66412E-19-1.23252E-18
 -1      3453 9.34037E-05-3.28471E-05-2.59155E-05 1.81994E-05 8.81998E-19-2.32934E-19
 -1      3454 9.64725E-05-3.64098E-05-2.56794E-05 1.93727E-05 1.22650E-18-2.34572E-20
 -1      3455 8.78968E-05-2.93997E-05-2.51538E-05 1.83507E-05 9.16926E-19-5.28322E-19
 -1      3456 9.37242E-05-2.05947E-05-3.13389E-05-3.23450E-06-5.42080E-19-1.60931E-18
 -1      3457 1.31271E-04-3.39663E-05-4.21627E-05-1.54266E-05-2.29604E-18 2.75868E-18
 -1      3458 8.63366E-05-3.61319E-05-2.12132E-05-2.82309E-05-2.00554E-18-9.06074E-19
 -1      3459 9.87950E-05-4.34989E-05-2.37603E-05-2.51176E-05-2.12451E-18 2.24755E-19
 -1      3460 1.00687E-04-4.01708E-05-2.57806E-05-1.94100E-05 1.71801E-18 5.27606E-19
 -1      3461 9.63899E-05-3.58910E-05-2.58245E-05-1.89805E-05 1.01311E-18 7.48220E-19
 -1      3462 9.44388E-05-3.27546E-05-2.63401E-05-1.68775E-05 5.81541E-19 9.80590E-19
 -1      3463 9.21300E-05-3.00044E-05-2.66088E-05-1.58828E-05 4.84678E-19 9.47368E-19
 -1      3464 8.96661E-05-3.18386E-05-2.48082E-05-1.98265E-05 8.22919E-19 5.17974E-19
 -1      3465 9.15891E-05-2.82051E-05-2.71008E-05-1.41198E-05 7.92340E-20 1.63991E-18
 -1      3466 9.04806E-05-2.66148E-05-2.73786E-05-1.30750E-05 6.44210E-19 2.00904E-18
 -1      3467 8.75834E-05-2.70571E-05-2.59681E-05-1.56352E-05 6.01077E-19 1.84213E-18
 -1      3468 9.06184E-05-2.57346E-05-2.77699E-05-1.17143E-05 9.88353E-19 1.64580E-18
 -1      3469 9.02122E-05-2.49349E-05-2.79921E-05-1.07799E-05 1.01569E-18 1.87960E-18
 -1      3470 8.73917E-05-2.45633E-05-2.69324E-05-1.23705E-05 5.91037E-19 2.87150E-18
 -1      3471 9.06426E-05-2.46110E-05-2.82772E-05-9.72559E-06 4.84470E-19 1.59695E-18
 -1      3472 9.06044E-05-2.43050E-05-2.84310E-05-8.90813E-06 1.36472E-19 1.18695E-18
 -1      3473 8.80513E-05-2.34942E-05-2.76614E-05-9.94656E-06 7.33849E-19 2.40953E-18
 -1      3474 9.11333E-05-2.43114E-05-2.86247E-05-8.06930E-06-1.56194E-19 7.59653E-19
 -1      3475 9.12654E-05-2.42937E-05-2.87177E-05-7.35287E-06-2.05252E-20 2.92538E-19
 -1      3476 8.90500E-05-2.32785E-05-2.81766E-05-8.09424E-06-3.55690E-19 8.99696E-19
 -1      3477 9.17922E-05-2.44791E-05-2.88401E-05-6.66445E-06 3.25142E-19 6.86095E-19
 -1      3478 9.19847E-05-2.46159E-05-2.88861E-05-6.03504E-06 3.34516E-19 8.35630E-19
 -1      3479 9.01181E-05-2.35450E-05-2.85193E-05-6.62231E-06 2.69178E-19 1.51313E-18
 -1      3480 9.24625E-05-2.48852E-05-2.89558E-05-5.45736E-06 1.21531E-19 1.27538E-18
 -1      3481 9.26596E-05-2.50934E-05-2.89687E-05-4.90702E-06 1.15793E-18 9.26577E-19
 -1      3482 9.11228E-05-2.40568E-05-2.87314E-05-5.40899E-06 7.54206E-19 1.93652E-18
 -1      3483 9.30699E-05-2.53885E-05-2.90017E-05-4.41807E-06 1.40383E-18 1.57513E-19
 -1      3484 9.32461E-05-2.56189E-05-2.89931E-05-3.94210E-06 9.37619E-19-6.08123E-19
 -1      3485 9.20062E-05-2.46688E-05-2.88495E-05-4.38705E-06 7.45076E-19 1.63418E-18
 -1      3486 9.35857E-05-2.59061E-05-2.90016E-05-3.52898E-06 8.02776E-19 8.86562E-20
 -1      3487 9.37322E-05-2.61307E-05-2.89804E-05-3.12332E-06 1.16341E-18 8.10394E-19
 -1      3488 9.27501E-05-2.52932E-05-2.89024E-05-3.52034E-06 1.20590E-18 2.48674E-19
 -1      3489 9.40057E-05-2.63925E-05-2.89736E-05-2.77731E-06 1.27380E-18-7.64055E-20
 -1      3490 9.41221E-05-2.65970E-05-2.89462E-05-2.43724E-06 1.51426E-18-8.34610E-19
 -1      3491 9.33575E-05-2.58805E-05-2.89127E-05-2.78786E-06 7.11144E-19 8.01011E-20
 -1      3492 9.43374E-05-2.68253E-05-2.89306E-05-2.15105E-06 1.07292E-18-1.88570E-18
 -1      3493 9.44268E-05-2.70034E-05-2.89013E-05-1.87068E-06 5.19378E-19-1.94654E-18
 -1      3494 9.38415E-05-2.64054E-05-2.88965E-05-2.17510E-06 6.65261E-19-1.95419E-18
 -1      3495 9.45931E-05-2.71963E-05-2.88815E-05-1.63723E-06 2.44258E-19-1.67438E-18
 -1      3496 9.46599E-05-2.73467E-05-2.88529E-05-1.40985E-06 7.61492E-19-1.84179E-18
 -1      3497 9.42192E-05-2.68579E-05-2.88657E-05-1.66915E-06 8.21280E-19-2.87104E-18
 -1      3498 9.47860E-05-2.75059E-05-2.88319E-05-1.22227E-06 6.42269E-19-2.07782E-18
 -1      3499 9.48348E-05-2.76298E-05-2.88056E-05-1.04090E-06 9.94099E-19-1.91394E-18
 -1      3500 9.45088E-05-2.72375E-05-2.88280E-05-1.25741E-06 7.26685E-19-2.83567E-18
 -1      3501 9.49288E-05-2.77587E-05-2.87851E-05-8.92631E-07 9.57115E-19-2.51362E-18
 -1      3502 9.49635E-05-2.78589E-05-2.87618E-05-7.50397E-07-2.65311E-19-2.22781E-18
 -1      3503 9.47269E-05-2.75492E-05-2.87886E-05-9.27675E-07 4.45582E-19-3.01151E-18
 -1      3504 9.50320E-05-2.79614E-05-2.87429E-05-6.35136E-07-7.10279E-19-1.53213E-18
 -1      3505 9.50562E-05-2.80413E-05-2.87228E-05-5.25540E-07-5.38009E-19-1.17545E-18
 -1      3506 9.48879E-05-2.78004E-05-2.87505E-05-6.68120E-07-2.57709E-19-3.77325E-18
 -1      3507 9.51051E-05-2.81215E-05-2.87058E-05-4.37568E-07-1.21383E-18-3.77013E-19
 -1      3508 9.51215E-05-2.81840E-05-2.86888E-05-3.55319E-07-1.40777E-18-1.22260E-18
 -1      3509 9.50041E-05-2.80001E-05-2.87153E-05-4.67417E-07-3.00116E-19-1.83176E-18
 -1      3510 9.51435E-05-2.82274E-05-2.86769E-05-3.00110E-07-1.11685E-18-2.26924E-19
 -1      3511 9.51551E-05-2.82773E-05-2.86625E-05-2.39045E-07-4.30878E-19 1.19382E-19
 -1      3512 9.51133E-05-2.82325E-05-2.86644E-05-2.25680E-07-5.94887E-20 1.13168E-18
 -1      3513 9.50723E-05-2.81376E-05-2.86868E-05-3.24763E-07 5.78368E-20-9.47927E-19
 -1      3514 9.22517E-05-3.95161E-05-2.28213E-05 2.66351E-05-1.69661E-18-6.98537E-19
 -1      3515 7.90307E-05-3.00833E-05-2.07791E-05 2.55427E-05-2.36350E-18 8.52764E-19
 -1      3516 9.84354E-05-3.19108E-05-2.84945E-05-1.03308E-05-2.40138E-19 9.27766E-19
 -1      3517 9.71642E-05-3.05107E-05-2.85428E-05-1.01910E-05 9.87521E-20 5.14341E-19
 -1      3518 9.64226E-05-2.94724E-05-2.86743E-05-9.61891E-06 3.21459E-19 4.97915E-19
 -1      3519 9.56483E-05-2.85876E-05-2.87313E-05-9.28662E-06 1.02068E-19 3.91722E-19
 -1      3520 9.50105E-05-2.92884E-05-2.82014E-05-1.05868E-05 1.21112E-19 8.23512E-19
 -1      3521 1.06885E-04-4.02706E-05-2.85452E-05-9.45995E-06-6.60629E-19 1.38471E-18
 -1      3522 1.04256E-04-3.78415E-05-2.83833E-05-1.04655E-05-6.49905E-19 1.03367E-18
 -1      3523 1.13777E-04-4.52044E-05-2.93381E-05-6.15308E-06-2.08737E-18 1.48372E-18
 -1      3524 1.10568E-04-4.30794E-05-2.88045E-05-8.51652E-06-1.39354E-18 1.44219E-18
 -1      3525 1.06796E-04-4.18119E-05-2.79121E-05-1.20326E-05-1.34557E-18 1.17910E-18
 -1      3526 1.19766E-04-4.87057E-05-3.04345E-05-3.24232E-06-2.13074E-18 1.12580E-18
 -1      3527 1.16634E-04-4.77066E-05-2.94151E-05-6.58625E-06-2.26030E-18 8.93018E-19
 -1      3528 1.25207E-04-4.68089E-05-3.36603E-05 4.91336E-06-1.37501E-18 2.23240E-18
 -1      3529 1.24254E-04-4.93140E-05-3.19700E-05 1.28695E-06-2.03555E-18 1.90101E-18
 -1      3530 1.24492E-04-4.25742E-05-3.51366E-05-1.00665E-05 1.79722E-18-2.41381E-18
 -1      3531 1.15830E-04-1.36358E-05-4.41855E-05-1.07536E-06 4.51267E-18 2.62263E-19
 -1      3532 1.23900E-04-4.62693E-05-3.35167E-05-6.03460E-06 1.27447E-18-1.77120E-18
 -1      3533 1.03645E-04-3.68872E-05-2.85348E-05 9.70552E-06-9.08241E-19-3.71479E-20
 -1      3534 1.06135E-04-3.92587E-05-2.86681E-05 8.87930E-06-7.03726E-19 3.21939E-20
 -1      3535 9.95194E-05-3.27942E-05-2.85524E-05 9.84742E-06-2.90741E-19-7.20533E-19
 -1      3536 1.01338E-04-3.46782E-05-2.85538E-05 9.67638E-06-6.03617E-19-3.75237E-19
 -1      3537 1.00323E-04-3.54112E-05-2.78964E-05 1.16770E-05-5.66783E-19 1.23746E-19
 -1      3538 9.69326E-05-2.99199E-05-2.86977E-05 9.21270E-06-6.41066E-19-7.20633E-19
 -1      3539 9.81417E-05-3.12377E-05-2.86547E-05 9.40537E-06-5.03035E-19-6.72228E-19
 -1      3540 9.67470E-05-3.13540E-05-2.80744E-05 1.08293E-05-6.64400E-20 5.56934E-19
 -1      3541 9.54478E-05-2.81017E-05-2.88541E-05 8.23254E-06-1.16142E-18-3.33516E-19
 -1      3542 9.61935E-05-2.89312E-05-2.88107E-05 8.61525E-06-8.20284E-19-5.24417E-19
 -1      3543 9.47155E-05-2.86734E-05-2.83332E-05 9.58921E-06-7.81278E-19 8.87536E-19
 -1      3544 9.46917E-05-2.70854E-05-2.89732E-05 7.13894E-06-9.69580E-19 4.54195E-20
 -1      3545 9.51222E-05-2.75500E-05-2.89467E-05 7.60541E-06-1.21024E-18-1.10889E-19
 -1      3546 9.37118E-05-2.70784E-05-2.85725E-05 8.25604E-06-1.16656E-18 4.40217E-19
 -1      3547 9.43791E-05-2.66199E-05-2.90426E-05 6.05027E-06-1.01947E-18 3.96167E-19
 -1      3548 9.46103E-05-2.68353E-05-2.90363E-05 6.53852E-06-8.66273E-19 5.68735E-19
 -1      3549 9.33435E-05-2.62661E-05-2.87541E-05 6.97936E-06-8.74661E-19 7.71129E-19
 -1      3550 9.43187E-05-2.65072E-05-2.90669E-05 5.02672E-06 3.85054E-19-7.03739E-20
 -1      3551 9.44311E-05-2.65637E-05-2.90779E-05 5.49975E-06-3.02832E-19 2.73852E-19
 -1      3552 9.33369E-05-2.59713E-05-2.88727E-05 5.80996E-06-1.83307E-19 1.16551E-18
 -1      3553 9.43885E-05-2.66032E-05-2.90563E-05 4.10009E-06 8.62406E-19 3.84609E-19
 -1      3554 9.44340E-05-2.65660E-05-2.90796E-05 4.53620E-06 6.19921E-19 2.32943E-19
 -1      3555 9.35170E-05-2.59972E-05-2.89364E-05 4.76571E-06 6.67171E-19 6.51142E-19
 -1      3556 9.45145E-05-2.68089E-05-2.90221E-05 3.28503E-06 6.01225E-19 7.04704E-19
 -1      3557 9.45250E-05-2.67223E-05-2.90526E-05 3.67277E-06 4.80116E-19 4.67674E-19
 -1      3558 9.37759E-05-2.62044E-05-2.89574E-05 3.85136E-06 5.53653E-19 1.68632E-18
 -1      3559 9.46550E-05-2.70602E-05-2.89741E-05 2.58537E-06 1.06823E-18 1.09890E-18
 -1      3560 9.46490E-05-2.69529E-05-2.90077E-05 2.92012E-06 1.29073E-18 1.60992E-18
 -1      3561 9.40506E-05-2.64993E-05-2.89485E-05 3.06460E-06 1.05964E-18 2.54917E-18
 -1      3562 9.47879E-05-2.73177E-05-2.89201E-05 1.99787E-06 6.29799E-19 6.15559E-19
 -1      3563 9.47757E-05-2.72072E-05-2.89537E-05 2.27969E-06 9.34356E-19 1.13032E-18
 -1      3564 9.43077E-05-2.68221E-05-2.89205E-05 2.39925E-06 1.00462E-18 2.48437E-18
 -1      3565 9.49028E-05-2.75587E-05-2.88654E-05 1.51437E-06-5.80161E-19 2.71836E-19
 -1      3566 9.48898E-05-2.74550E-05-2.88970E-05 1.74646E-06-1.62960E-19-3.40620E-19
 -1      3567 9.45314E-05-2.71366E-05-2.88818E-05 1.84641E-06 6.90247E-19 1.19807E-18
 -1      3568 9.49968E-05-2.77719E-05-2.88136E-05 1.12378E-06 3.22171E-19-1.11489E-19
 -1      3569 9.49853E-05-2.76801E-05-2.88421E-05 1.31112E-06 5.15503E-20 1.56133E-19
 -1      3570 9.47164E-05-2.74226E-05-2.88389E-05 1.39473E-06-1.30373E-19 8.62818E-19
 -1      3571 9.50702E-05-2.79533E-05-2.87667E-05 8.13963E-07 3.98853E-19-8.00417E-19
 -1      3572 9.50612E-05-2.78750E-05-2.87916E-05 9.62286E-07 2.52651E-19-5.38478E-19
 -1      3573 9.48637E-05-2.76711E-05-2.87959E-05 1.03179E-06 8.79478E-19 2.11484E-19
 -1      3574 9.51253E-05-2.81031E-05-2.87256E-05 5.72724E-07-1.43453E-19-6.26771E-19
 -1      3575 9.51188E-05-2.80383E-05-2.87467E-05 6.87896E-07 6.14440E-19-9.82454E-19
 -1      3576 9.49771E-05-2.78800E-05-2.87552E-05 7.45193E-07 2.98856E-19 2.02466E-19
 -1      3577 9.51653E-05-2.82233E-05-2.86904E-05 3.89109E-07-1.16885E-18-2.11570E-19
 -1      3578 9.51609E-05-2.81717E-05-2.87080E-05 4.75795E-07-6.12967E-19 4.45422E-19
 -1      3579 9.50612E-05-2.80509E-05-2.87184E-05 5.23031E-07-1.17051E-18 1.55511E-18
 -1      3580 7.15358E-05-2.78009E-05-1.87589E-05 2.62478E-05 1.27362E-18-2.38329E-18
 -1      3581 5.96597E-05-2.08444E-05-1.60357E-05 2.28982E-05 1.65468E-18-2.30107E-18
 -1      3582 9.50114E-05-2.81186E-05-2.86685E-05-1.52646E-07 7.21781E-19 3.69626E-19
 -1      3583 9.49876E-05-2.80953E-05-2.86692E-05-1.18264E-07 6.81814E-19-7.70132E-19
 -1      3584 9.49680E-05-2.80736E-05-2.86694E-05-6.90221E-08 5.10359E-19 1.70027E-19
 -1      3585 9.49590E-05-2.80655E-05-2.86694E-05-2.71954E-08 5.89169E-20-1.74813E-18
 -1      3586 9.49309E-05-2.80074E-05-2.86799E-05-1.10801E-07 8.23160E-19-5.23668E-19
 -1      3587 9.79857E-05-4.59084E-05-2.19440E-05 3.00204E-05 1.64118E-18-4.52342E-19
 -1      3588 8.94709E-05-3.95048E-05-2.13113E-05 2.89569E-05 1.54276E-18-9.33298E-19
 -1      3589 1.15602E-04-5.10190E-05-2.79129E-05 1.41203E-05-1.54455E-18-6.78090E-19
 -1      3590 1.05353E-04-4.62561E-05-2.49924E-05 2.21691E-05-2.23573E-18-8.32190E-19
 -1      3591 5.78960E-05-1.56596E-05-1.79542E-05-1.23124E-05 3.86197E-19 3.30470E-18
 -1      3592 6.49228E-05-2.09770E-05-1.88606E-05-2.04376E-05 1.63184E-18 3.14580E-18
 -1      3593 9.53589E-05-2.59578E-05-2.97467E-05-2.30524E-06 3.85972E-19-2.48593E-19
 -1      3594 9.53646E-05-2.56104E-05-2.98877E-05-1.56510E-06 5.21630E-19-1.55177E-19
 -1      3595 1.09571E-04-4.19226E-05-2.88842E-05 7.96215E-06-1.59515E-18-2.99092E-19
 -1      3596 1.12474E-04-4.41828E-05-2.93007E-05 6.10192E-06-1.73687E-18-8.39530E-19
 -1      3597 1.13768E-04-4.66543E-05-2.88744E-05 8.71092E-06-1.26929E-18 4.91066E-19
 -1      3598 1.05978E-04-4.08552E-05-2.80187E-05 1.13820E-05-1.43784E-18 7.68322E-19
 -1      3599 9.49457E-05-2.41326E-05-3.03469E-05 1.97180E-07-3.72182E-19-1.24122E-18
 -1      3600 9.50103E-05-2.46927E-05-3.01422E-05 1.06786E-06-3.12691E-19-1.20321E-18
 -1      3601 7.55491E-05-2.81899E-05-2.00714E-05-2.51529E-05 2.40842E-18 2.11578E-18
 -1      3602 8.89877E-05-3.72478E-05-2.21197E-05-2.67102E-05 1.98261E-18 1.70812E-18
 -1      3603 9.47979E-05-2.68387E-05-2.91165E-05-6.68023E-06 4.71770E-19 3.65830E-19
 -1      3604 9.47181E-05-2.67108E-05-2.91484E-05-6.19734E-06 5.03198E-19 2.22716E-19
 -1      3605 9.12363E-05-1.67810E-05-3.19234E-05-7.45878E-07 3.78011E-19-1.77830E-18
 -1      3606 9.14099E-05-1.70167E-05-3.18972E-05-1.33742E-06 1.46249E-19-1.84675E-18
 -1      3607 9.23018E-05-1.85421E-05-3.15867E-05-1.19539E-06 4.85894E-20-1.76882E-18
 -1      3608 1.02915E-04-4.41258E-05-2.49422E-05-2.22953E-05 2.36742E-18 7.83393E-19
 -1      3609 9.50068E-05-2.51191E-05-2.99496E-05 1.74738E-06-1.04951E-19-1.14470E-18
 -1      3610 9.49385E-05-2.54052E-05-2.98041E-05 2.46487E-06-9.80897E-20-9.20165E-19
 -1      3611 9.45436E-05-2.49876E-05-2.98048E-05 2.51238E-06 6.03589E-21-8.08052E-19
 -1      3612 1.01790E-04-3.55023E-05-2.83955E-05-1.04708E-05-5.44946E-19 8.67630E-19
 -1      3613 9.98935E-05-3.35422E-05-2.83858E-05-1.07135E-05-2.31046E-19 9.96084E-19
 -1      3614 9.71237E-05-3.21569E-05-2.79113E-05-1.18008E-05-3.59264E-19 8.73846E-19
 -1      3615 1.00841E-04-3.62877E-05-2.77456E-05-1.24856E-05-7.29888E-19 9.48953E-19
 -1      3616 5.44724E-05-1.33075E-05-1.75996E-05 5.22661E-06-9.30102E-19 4.31060E-18
 -1      3617 5.47136E-05-1.32666E-05-1.76526E-05-4.14779E-06-4.11962E-19 3.85884E-18
 -1      3618 1.06201E-04-4.87468E-05-2.45479E-05 2.44002E-05 1.27478E-18 2.38638E-19
 -1      3619 9.50766E-05-2.81894E-05-2.86660E-05-2.06819E-07-1.77894E-20 1.28221E-18
 -1      3620 9.50415E-05-2.81533E-05-2.86676E-05-1.85219E-07 7.86877E-20 1.00557E-18
 -1      3621 9.49816E-05-2.80634E-05-2.86789E-05-1.95772E-07 1.63833E-18 8.63768E-19
 -1      3622 9.50575E-05-2.81420E-05-2.86767E-05-2.50485E-07 6.81941E-19 1.15457E-18
 -1      3623 6.67327E-05-2.18408E-05-1.92458E-05 2.08939E-05-2.06563E-18 2.94651E-18
 -1      3624 5.82587E-05-1.57233E-05-1.79760E-05 1.30854E-05-1.81998E-18 3.46759E-18
 -1      3625 9.30077E-05-3.89433E-05-2.31866E-05 2.52958E-05 1.44656E-18-4.76787E-19
 -1      3626 8.39036E-05-3.36506E-05-2.10485E-05 2.73852E-05 1.52670E-18-1.29829E-18
 -1      3627 9.45332E-05-2.25809E-05-3.08485E-05 1.75000E-06 1.34484E-18-2.68296E-19
 -1      3628 9.40692E-05-2.17359E-05-3.10046E-05 1.58520E-06 1.19019E-18-5.96037E-19
 -1      3629 5.09017E-05-1.28539E-05-1.58494E-05-2.26590E-06 7.49062E-19-2.69844E-18
 -1      3630 5.27766E-05-1.39761E-05-1.65072E-05-7.75551E-06 4.01513E-19-3.05938E-18
 -1      3631 9.47416E-05-2.34237E-05-3.05734E-05-5.15959E-07-3.59065E-19-1.36702E-18
 -1      3632 9.45140E-05-2.31281E-05-3.05864E-05-1.65233E-07-2.33929E-19-1.65000E-18
 -1      3633 9.45113E-05-2.25957E-05-3.08255E-05-1.44446E-06-3.22245E-19-1.48528E-18
 -1      3634 8.83695E-05-3.26837E-05-2.37035E-05 2.22912E-05 1.56624E-18-5.46535E-19
 -1      3635 9.59181E-05-3.76611E-05-2.49640E-05 2.12263E-05 1.46807E-18-1.61929E-19
 -1      3636 1.29513E-04-2.84286E-05-4.38767E-05 1.60237E-05-2.93338E-18-2.67641E-18
 -1      3637 8.12728E-05-3.28218E-05-2.06821E-05-2.78130E-05-1.61640E-18-1.17483E-18
 -1      3638 8.77902E-05-3.45140E-05-2.28148E-05-2.39417E-05-1.74158E-18-4.98711E-19
 -1      3639 7.58949E-05-2.81904E-05-2.01458E-05-2.52369E-05-1.49299E-18-1.66191E-18
 -1      3640 9.54343E-05-2.69677E-05-2.93478E-05-4.53250E-06 4.16716E-19-4.64143E-19
 -1      3641 6.22655E-05-1.56689E-05-1.97151E-05 8.15031E-06-1.32268E-18 3.21432E-18
 -1      3642 9.48960E-05-2.66869E-05-2.92261E-05-5.67333E-06 2.82464E-19 1.59053E-19
 -1      3643 9.48903E-05-2.66100E-05-2.92644E-05-5.17119E-06 1.47232E-19-8.36329E-20
 -1      3644 9.41620E-05-2.62001E-05-2.91282E-05-5.82489E-06 2.09932E-19-3.20191E-20
 -1      3645 9.51800E-05-2.40483E-05-3.04903E-05 1.35645E-06 1.32405E-18-1.11768E-19
 -1      3646 9.47895E-05-2.31074E-05-3.07171E-05 1.63646E-06 1.30715E-18-1.87290E-19
 -1      3647 9.49011E-05-2.35925E-05-3.05500E-05 6.98275E-07 1.18699E-18-2.13872E-19
 -1      3648 9.52968E-05-2.46415E-05-3.02825E-05 3.96895E-07 1.13425E-18-1.43341E-19
 -1      3649 6.18534E-05-1.54039E-05-1.96322E-05-7.48785E-06 5.73484E-20 2.71089E-18
 -1      3650 9.40418E-05-2.76074E-05-2.84900E-05-9.29806E-06 4.44763E-19 4.36737E-19
 -1      3651 9.53537E-05-2.80009E-05-2.88504E-05-8.69003E-06 3.02623E-19 5.99717E-19
 -1      3652 9.49235E-05-2.74911E-05-2.88979E-05-8.26554E-06 4.78248E-19 7.80734E-19
 -1      3653 1.13188E-04-4.77505E-05-2.81138E-05-1.21917E-05-2.11273E-18 6.54009E-19
 -1      3654 7.70129E-05-2.82464E-05-2.07776E-05 2.37798E-05 1.18807E-18-1.68348E-18
 -1      3655 9.46833E-05-2.69430E-05-2.90332E-05-7.22583E-06 3.54813E-19 5.94642E-19
 -1      3656 9.38617E-05-2.63310E-05-2.89458E-05-6.91201E-06 2.56793E-19 5.45847E-19
 -1      3657 9.48949E-05-2.72082E-05-2.89968E-05-7.68978E-06 1.89437E-19 7.25973E-19
 -1      3658 7.53122E-05-2.57982E-05-2.10307E-05 2.21843E-05-1.95031E-18 1.32419E-18
 -1      3659 7.28957E-05-2.20182E-05-2.17779E-05 1.71785E-05-1.82458E-18 1.72435E-18
 -1      3660 8.32787E-05-2.93205E-05-2.31288E-05 2.06578E-05-1.92074E-18 1.65813E-19
 -1      3661 5.77763E-05-1.79434E-05-1.68898E-05 1.68300E-05 1.34380E-18-2.22050E-18
 -1      3662 9.51745E-05-2.82540E-05-2.86790E-05 3.31509E-07-9.14739E-19-1.28348E-18
 -1      3663 9.51050E-05-2.81641E-05-2.86897E-05 3.67152E-07-4.43000E-19 9.08486E-19
 -1      3664 9.51712E-05-2.82785E-05-2.86682E-05 2.78898E-07 8.66756E-19-1.78489E-19
 -1      3665 9.52112E-05-2.83590E-05-2.86521E-05 2.20601E-07 1.84379E-18-1.23763E-18
 -1      3666 1.20416E-04-5.16063E-05-2.95057E-05 8.02066E-06-6.18182E-19 1.04721E-19
 -1      3667 1.14042E-04-4.84521E-05-2.82080E-05 1.17586E-05-7.23578E-19 1.06348E-18
 -1      3668 9.29330E-05-1.99528E-05-3.12931E-05 9.70740E-07 1.06990E-18-1.12657E-18
 -1      3669 9.26769E-05-1.95670E-05-3.13449E-05 6.47774E-07 8.66271E-19-1.18005E-18
 -1      3670 9.50457E-05-2.81600E-05-2.86666E-05 1.89630E-07-4.62467E-20-1.27714E-18
 -1      3671 9.50814E-05-2.81964E-05-2.86648E-05 2.11788E-07 2.40720E-20-6.70082E-19
 -1      3672 9.25065E-05-1.93136E-05-3.13800E-05 4.34967E-07 8.30672E-19-1.12269E-18
 -1      3673 9.24062E-05-1.91743E-05-3.13970E-05 8.41702E-08 5.81049E-19-1.36922E-18
 -1      3674 9.31139E-05-2.04748E-05-3.11061E-05 2.88243E-07 7.83188E-19-9.92968E-19
 -1      3675 9.49088E-05-2.79857E-05-2.86798E-05 6.57967E-11 3.41892E-19-1.18364E-18
 -1      3676 9.49590E-05-2.80659E-05-2.86693E-05 2.65509E-08-8.67764E-19-1.86859E-18
 -1      3677 9.49676E-05-2.80744E-05-2.86689E-05 6.79511E-08-6.91586E-19-2.62310E-19
 -1      3678 9.93862E-05-4.11174E-05-2.48245E-05 2.10388E-05-1.49425E-18-9.85898E-19
 -1      3679 1.05564E-04-4.61980E-05-2.52554E-05-2.18217E-05-1.94878E-18 9.64939E-19
 -1      3680 1.10116E-04-4.70889E-05-2.69873E-05-1.59077E-05-1.89877E-18 7.84223E-19
 -1      3681 1.07444E-04-4.42596E-05-2.71071E-05-1.49732E-05-1.59175E-18 9.22154E-19
 -1      3682 9.85006E-05-4.08685E-05-2.46951E-05-2.19286E-05-1.84048E-18 4.36295E-19
 -1      3683 7.45872E-05-2.47961E-05-2.10627E-05-2.03881E-05 1.32076E-18 2.01214E-18
 -1      3684 9.52526E-05-2.63871E-05-2.95131E-05-3.55064E-06 4.46789E-19-1.22065E-19
 -1      3685 9.52859E-05-2.62006E-05-2.96045E-05-2.93420E-06 3.09209E-19-2.22452E-19
 -1      3686 9.50753E-05-2.55924E-05-2.97784E-05-2.46410E-06 4.48535E-19-3.45604E-19
 -1      3687 9.50816E-05-2.47858E-05-3.01246E-05-1.07047E-06 6.93142E-19-4.39745E-19
 -1      3688 9.53023E-05-2.51257E-05-3.00816E-05-8.02055E-07 7.30516E-19-1.05562E-19
 -1      3689 1.26348E-04-4.10704E-05-3.66001E-05 1.14477E-05-1.30602E-19 2.68149E-18
 -1      3690 5.83909E-05-1.96477E-05-1.62832E-05-2.04775E-05-6.38980E-19-2.93989E-18
 -1      3691 9.47298E-05-2.43494E-05-3.01573E-05 1.24114E-06-1.22386E-19-1.36497E-18
 -1      3692 9.52527E-05-2.46804E-05-3.02411E-05-1.43536E-08 9.60194E-19-1.30304E-19
 -1      3693 9.26317E-05-1.95052E-05-3.13524E-05-6.61204E-07 2.35450E-19-1.56578E-18
 -1      3694 9.28850E-05-1.98539E-05-3.13077E-05-9.96048E-07-1.62665E-20-1.70825E-18
 -1      3695 9.19566E-05-1.80597E-05-3.16488E-05-4.07227E-07 3.53245E-19-1.56604E-18
 -1      3696 1.21572E-04-4.92033E-05-3.09248E-05 1.75538E-06 2.16073E-19-9.87518E-19
 -1      3697 5.25468E-05-1.36537E-05-1.65427E-05 3.45784E-06 1.16489E-18-2.41277E-18
 -1      3698 9.50725E-05-2.81550E-05-2.86778E-05 2.76471E-07 4.56020E-19-8.53357E-19
 -1      3699 9.51204E-05-2.82373E-05-2.86653E-05 2.41599E-07 1.03060E-18 9.39626E-19
 -1      3700 9.37123E-05-2.14349E-05-3.09658E-05-6.96260E-07-3.62111E-20-1.59426E-18
 -1      3701 9.34321E-05-2.06878E-05-3.11823E-05-1.31819E-06-1.70577E-19-1.78498E-18
 -1      3702 5.92243E-05-1.58170E-05-1.83448E-05-9.97275E-06-1.46153E-19-2.53713E-18
 -1      3703 5.70216E-05-1.65140E-05-1.69944E-05-1.50378E-05-3.88815E-19-2.56402E-18
 -1      3704 6.44029E-05-2.18451E-05-1.82720E-05-2.18124E-05-1.20126E-18-2.07846E-18
 -1      3705 8.41024E-05-2.86319E-05-2.37399E-05 1.99555E-05 1.11295E-18-5.44242E-19
 -1      3706 8.27354E-05-2.94624E-05-2.29179E-05 2.18106E-05 1.39967E-18-7.88694E-19
 -1      3707 7.35900E-05-2.37608E-05-2.09614E-05 2.06170E-05 1.01209E-18-1.82295E-18
 -1      3708 8.33647E-05-2.62249E-05-2.44689E-05 1.73358E-05 1.07137E-18-7.70244E-19
 -1      3709 9.44492E-05-2.36816E-05-3.03346E-05 7.18215E-07-7.97929E-21-1.25769E-18
 -1      3710 9.44546E-05-2.41629E-05-3.01309E-05 1.39632E-06 1.54970E-19-1.10401E-18
 -1      3711 9.30374E-05-2.46624E-05-2.93108E-05 3.86436E-06 3.50241E-20-6.43273E-19
 -1      3712 9.26069E-05-2.45148E-05-2.91836E-05 4.35749E-06 7.12316E-20-5.18540E-19
 -1      3713 9.19489E-05-2.42604E-05-2.90203E-05 4.77733E-06 1.86399E-20-4.63316E-19
 -1      3714 9.14208E-05-2.40259E-05-2.88830E-05 5.28013E-06 5.60704E-21-4.44603E-19
 -1      3715 9.17463E-05-2.39261E-05-2.90527E-05 3.94395E-06 1.38598E-19-4.74464E-19
 -1      3716 9.06074E-05-2.36950E-05-2.86921E-05 5.73717E-06 1.73076E-19-4.51936E-19
 -1      3717 9.00015E-05-2.34400E-05-2.85233E-05 6.28860E-06 2.20267E-19-4.06115E-19
 -1      3718 9.02897E-05-2.33224E-05-2.86839E-05 4.75816E-06 7.23433E-20-2.76743E-19
 -1      3719 8.90334E-05-2.30988E-05-2.82789E-05 6.82968E-06 9.90884E-20-5.14044E-19
 -1      3720 8.83843E-05-2.29068E-05-2.80541E-05 7.48026E-06 3.52813E-20-6.76792E-19
 -1      3721 8.85245E-05-2.26038E-05-2.82311E-05 5.67197E-06 2.39250E-20-5.19768E-19
 -1      3722 8.72586E-05-2.26363E-05-2.77242E-05 8.17743E-06 1.50468E-20-8.84035E-19
 -1      3723 8.66348E-05-2.26231E-05-2.74164E-05 9.00347E-06 2.31340E-20-8.89476E-19
 -1      3724 8.64461E-05-2.19025E-05-2.76351E-05 6.79954E-06 6.37506E-20-6.42698E-19
 -1      3725 8.53513E-05-2.25335E-05-2.69612E-05 9.98284E-06 9.38503E-20-9.82349E-19
 -1      3726 8.48912E-05-2.28821E-05-2.65427E-05 1.11059E-05 3.72936E-19-1.05654E-18
 -1      3727 8.40386E-05-2.13776E-05-2.68210E-05 8.33382E-06 6.41578E-20-7.25696E-19
 -1      3728 8.34548E-05-2.30570E-05-2.59102E-05 1.25611E-05 6.83730E-19-1.06762E-18
 -1      3729 8.34406E-05-2.41091E-05-2.53635E-05 1.42048E-05 9.28452E-19-1.11125E-18
 -1      3730 8.13175E-05-2.12881E-05-2.56862E-05 1.06047E-05 5.74146E-19-7.72668E-19
 -1      3731 9.40425E-05-2.14619E-05-3.10973E-05-2.15696E-06-3.37476E-19-1.63990E-18
 -1      3732 1.01905E-04-4.23946E-05-2.53211E-05 2.12495E-05 1.27934E-18 3.56859E-19
 -1      3733 9.33679E-05-2.86111E-05-2.77190E-05-1.11754E-05-9.36619E-20 6.89535E-19
 -1      3734 9.26248E-05-2.75499E-05-2.78903E-05-1.04687E-05 2.85987E-19 5.59260E-19
 -1      3735 8.32755E-05-2.50914E-05-2.48476E-05-1.56560E-05-7.70932E-22 2.71557E-18
 -1      3736 8.29183E-05-2.36225E-05-2.54556E-05-1.37704E-05 1.54768E-19 2.25821E-18
 -1      3737 8.41669E-05-2.30233E-05-2.61576E-05-1.19626E-05 2.39229E-19 2.12013E-18
 -1      3738 8.43584E-05-2.23731E-05-2.66091E-05-1.06292E-05 6.64942E-19 2.08780E-18
 -1      3739 7.99995E-05-2.12286E-05-2.51429E-05-1.17937E-05 1.32167E-20 1.86164E-18
 -1      3740 8.55600E-05-2.22607E-05-2.71062E-05-9.41723E-06 5.33852E-19 1.47455E-18
 -1      3741 8.60203E-05-2.20899E-05-2.74325E-05-8.43253E-06 1.51889E-19 1.07871E-18
 -1      3742 8.25174E-05-2.08555E-05-2.63966E-05-8.95568E-06 3.16248E-19 1.53161E-18
 -1      3743 8.70926E-05-2.22544E-05-2.77774E-05-7.57708E-06 1.31246E-19 1.07215E-18
 -1      3744 8.76390E-05-2.23615E-05-2.80011E-05-6.81863E-06-1.84783E-19 1.30969E-18
 -1      3745 8.48041E-05-2.11041E-05-2.72712E-05-7.04366E-06 1.00962E-19 1.96640E-18
 -1      3746 8.85652E-05-2.26733E-05-2.82347E-05-6.17627E-06-1.82522E-20 1.44881E-18
 -1      3747 8.91017E-05-2.29268E-05-2.83798E-05-5.56213E-06 9.24532E-19 1.62250E-18
 -1      3748 8.67943E-05-2.17031E-05-2.78724E-05-5.67516E-06 3.23511E-19 1.76997E-18
 -1      3749 8.98877E-05-2.33077E-05-2.85322E-05-5.05086E-06 1.21850E-18 5.28257E-19
 -1      3750 9.03712E-05-2.36278E-05-2.86194E-05-4.53614E-06 1.33556E-18 1.15409E-18
 -1      3751 8.84930E-05-2.24722E-05-2.82754E-05-4.62562E-06 6.06270E-19 7.00606E-19
 -1      3752 9.10277E-05-2.40269E-05-2.87136E-05-4.11422E-06 2.98485E-19 6.12102E-19
 -1      3753 9.14417E-05-2.43637E-05-2.87599E-05-3.67608E-06 3.63959E-19 9.36563E-20
 -1      3754 8.99217E-05-2.33042E-05-2.85349E-05-3.77475E-06 3.36813E-19-1.14616E-18
 -1      3755 9.19807E-05-2.47483E-05-2.88132E-05-3.32175E-06 6.10205E-19-5.61839E-19
 -1      3756 9.23229E-05-2.50721E-05-2.88317E-05-2.94788E-06 5.30865E-19-9.19526E-19
 -1      3757 9.11048E-05-2.41276E-05-2.86922E-05-3.06339E-06-1.84595E-19-2.41621E-18
 -1      3758 9.27590E-05-2.54241E-05-2.88570E-05-2.64922E-06 3.05863E-20-9.30256E-19
 -1      3759 9.30345E-05-2.57189E-05-2.88576E-05-2.33272E-06 9.25038E-20-1.28492E-18
 -1      3760 9.20694E-05-2.48972E-05-2.87783E-05-2.46010E-06-2.63064E-19-1.95544E-18
 -1      3761 9.33818E-05-2.60289E-05-2.88646E-05-2.08279E-06 6.05067E-19-2.02181E-18
 -1      3762 9.35988E-05-2.62871E-05-2.88544E-05-1.81814E-06 8.55051E-19-2.59076E-18
 -1      3763 9.28441E-05-2.55886E-05-2.88162E-05-1.94931E-06-2.85083E-19-1.91025E-18
 -1      3764 9.38712E-05-2.65520E-05-2.88500E-05-1.61122E-06 5.33076E-19-2.29654E-18
 -1      3765 9.40387E-05-2.67714E-05-2.88341E-05-1.39303E-06 8.29809E-19-2.83616E-18
 -1      3766 9.34568E-05-2.61898E-05-2.88228E-05-1.52084E-06 8.60143E-19-2.90357E-18
 -1      3767 9.42494E-05-2.69928E-05-2.88232E-05-1.22395E-06 6.52084E-19-4.35891E-18
 -1      3768 9.43765E-05-2.71752E-05-2.88047E-05-1.04694E-06 4.60650E-19-3.71231E-18
 -1      3769 9.39344E-05-2.66995E-05-2.88105E-05-1.16562E-06-4.39396E-20-4.15122E-18
 -1      3770 9.45370E-05-2.73567E-05-2.87905E-05-9.11142E-07 2.27404E-19-3.26825E-18
 -1      3771 9.46318E-05-2.75054E-05-2.87717E-05-7.70035E-07-9.45727E-20-3.76284E-18
 -1      3772 9.43014E-05-2.71230E-05-2.87874E-05-8.75795E-07 5.53881E-19-4.37663E-18
 -1      3773 9.47518E-05-2.76516E-05-2.87563E-05-6.62923E-07 2.18316E-19-3.38532E-18
 -1      3774 9.48209E-05-2.77707E-05-2.87384E-05-5.52496E-07-2.38627E-19-3.13887E-18
 -1      3775 9.45788E-05-2.74684E-05-2.87591E-05-6.43634E-07 2.83070E-19-4.62767E-18
 -1      3776 9.49090E-05-2.78862E-05-2.87231E-05-4.69543E-07-7.80334E-20-2.00048E-18
 -1      3777 9.49579E-05-2.79796E-05-2.87067E-05-3.86001E-07 1.26072E-18-7.55623E-19
 -1      3778 9.47848E-05-2.77458E-05-2.87293E-05-4.61588E-07 1.15287E-18-1.61173E-18
 -1      3779 9.50007E-05-2.80374E-05-2.86974E-05-3.42363E-07 1.37380E-18-6.67074E-19
 -1      3780 9.50242E-05-2.80919E-05-2.86856E-05-2.86046E-07 1.02057E-18 1.15589E-18
 -1      3781 9.49842E-05-2.80473E-05-2.86869E-05-2.63250E-07 1.87881E-18 9.12167E-19
 -1      3782 9.49067E-05-2.79262E-05-2.87051E-05-3.40356E-07 1.63729E-18 2.16469E-19
 -1      3783 9.51654E-05-2.82862E-05-2.86622E-05 2.50337E-07 1.47458E-18-3.54710E-19
 -1      3784 1.03957E-04-4.09836E-05-2.69159E-05-1.53198E-05-1.31202E-18 7.76642E-19
 -1      3785 9.50113E-05-2.81202E-05-2.86676E-05 1.52356E-07 3.28974E-19 3.72483E-19
 -1      3786 9.49902E-05-2.80719E-05-2.86780E-05 2.04286E-07-5.90982E-19-6.02679E-20
 -1      3787 9.49867E-05-2.80962E-05-2.86685E-05 1.17769E-07-8.85641E-20 1.25453E-18
 -1      3788 9.22870E-05-2.69487E-05-2.80026E-05 9.51192E-06-8.96316E-19 1.70980E-18
 -1      3789 9.30302E-05-2.79580E-05-2.78537E-05 1.02269E-05-9.14900E-19 1.51826E-18
 -1      3790 9.35624E-05-2.91317E-05-2.76026E-05 1.13315E-05-9.16477E-19 8.16650E-19
 -1      3791 9.49621E-05-3.07918E-05-2.74552E-05 1.19839E-05-5.02898E-19 3.17869E-19
 -1      3792 9.08593E-05-2.73214E-05-2.72535E-05 1.13047E-05-1.31877E-18 8.84081E-19
 -1      3793 9.62467E-05-3.26706E-05-2.72011E-05 1.31690E-05-4.40778E-20-4.14896E-19
 -1      3794 9.85587E-05-3.51817E-05-2.71201E-05 1.36264E-05-7.15981E-19-6.64061E-21
 -1      3795 9.25841E-05-3.03639E-05-2.66784E-05 1.38704E-05-1.19197E-18-4.83338E-20
 -1      3796 9.18883E-05-2.57996E-05-2.83303E-05 7.90263E-06-1.15007E-18 1.47879E-18
 -1      3797 9.22111E-05-2.63364E-05-2.82099E-05 8.57902E-06-1.16299E-18 1.79384E-18
 -1      3798 9.03548E-05-2.56196E-05-2.77542E-05 9.15466E-06-1.03940E-18 1.72944E-18
 -1      3799 9.19714E-05-2.53251E-05-2.85714E-05 6.51261E-06-3.96996E-19 4.24112E-19
 -1      3800 9.20489E-05-2.55470E-05-2.84862E-05 7.12637E-06-5.42331E-19 1.17002E-18
 -1      3801 9.04888E-05-2.48204E-05-2.81462E-05 7.41426E-06-4.15693E-19 1.47062E-18
 -1      3802 9.23021E-05-2.52804E-05-2.87327E-05 5.31984E-06-5.00364E-20 5.31030E-19
 -1      3803 9.22464E-05-2.53031E-05-2.86802E-05 5.86592E-06-5.80752E-19 1.61591E-19
 -1      3804 9.09495E-05-2.46038E-05-2.84317E-05 5.99391E-06-7.25072E-20 3.44615E-19
 -1      3805 9.27360E-05-2.54899E-05-2.88285E-05 4.30152E-06 1.21152E-19 1.10837E-18
 -1      3806 9.26173E-05-2.53957E-05-2.88023E-05 4.78017E-06 2.97584E-19 9.20503E-19
 -1      3807 9.15512E-05-2.47482E-05-2.86255E-05 4.82557E-06-5.62150E-19 7.65399E-19
 -1      3808 9.31872E-05-2.58316E-05-2.88746E-05 3.43787E-06 6.83174E-19 2.34216E-18
 -1      3809 9.30477E-05-2.56773E-05-2.88679E-05 3.85154E-06 3.74203E-19 2.42764E-18
 -1      3810 9.21822E-05-2.50960E-05-2.87461E-05 3.85942E-06-2.53467E-19 2.36482E-18
 -1      3811 9.36087E-05-2.62253E-05-2.88855E-05 2.71119E-06 2.24496E-19 2.07777E-18
 -1      3812 9.34716E-05-2.60475E-05-2.88921E-05 3.06367E-06 6.33398E-19 1.51275E-18
 -1      3813 9.27784E-05-2.55394E-05-2.88117E-05 3.05879E-06 6.83853E-19 2.44215E-18
 -1      3814 9.39786E-05-2.66216E-05-2.88732E-05 2.10677E-06 1.30203E-18 1.20782E-18
 -1      3815 9.38557E-05-2.64431E-05-2.88879E-05 2.40224E-06 1.01212E-18 2.05138E-18
 -1      3816 9.33080E-05-2.60087E-05-2.88379E-05 2.39615E-06 9.36235E-19 5.98780E-19
 -1      3817 9.42888E-05-2.69908E-05-2.88469E-05 1.61090E-06-3.38382E-20 1.96751E-18
 -1      3818 9.41850E-05-2.68250E-05-2.88659E-05 1.85453E-06 9.26182E-19 2.48918E-18
 -1      3819 9.37589E-05-2.64620E-05-2.88377E-05 1.85210E-06 7.78782E-19 2.70189E-18
 -1      3820 9.45399E-05-2.73175E-05-2.88136E-05 1.20955E-06 9.08033E-19 1.79291E-18
 -1      3821 9.44559E-05-2.71711E-05-2.88341E-05 1.40729E-06 2.51602E-19 2.02514E-18
 -1      3822 9.41299E-05-2.68737E-05-2.88210E-05 1.40989E-06 7.07566E-19 2.87833E-18
 -1      3823 9.47375E-05-2.75966E-05-2.87779E-05 8.89546E-07 1.58572E-18 1.65139E-19
 -1      3824 9.46718E-05-2.74718E-05-2.87981E-05 1.04734E-06 1.57931E-18 9.91723E-19
 -1      3825 9.44266E-05-2.72326E-05-2.87950E-05 1.05433E-06 1.91227E-18 2.58593E-18
 -1      3826 9.48886E-05-2.78282E-05-2.87427E-05 6.38655E-07-6.62767E-19 4.52585E-19
 -1      3827 9.48388E-05-2.77248E-05-2.87616E-05 7.62354E-07 8.01336E-19 2.50106E-22
 -1      3828 9.46581E-05-2.75360E-05-2.87647E-05 7.72585E-07 1.20367E-18 5.80174E-20
 -1      3829 9.50009E-05-2.80149E-05-2.87098E-05 4.45761E-07-1.77129E-18 4.05264E-19
 -1      3830 9.49645E-05-2.79319E-05-2.87269E-05 5.40300E-07-1.49887E-18 5.87416E-20
 -1      3831 9.48335E-05-2.77858E-05-2.87335E-05 5.53185E-07-8.60078E-19 4.73356E-19
 -1      3832 9.38351E-05-2.12929E-05-3.10847E-05-1.58667E-06-2.49630E-19-1.66663E-18
 -1      3833 9.50749E-05-2.65844E-05-2.93493E-05-4.64792E-06 4.01408E-19-1.12587E-19
 -1      3834 9.51039E-05-2.64858E-05-2.94070E-05-4.10683E-06 5.21750E-19-1.55082E-19
 -1      3835 9.48568E-05-2.59860E-05-2.95162E-05-3.66992E-06 4.98589E-19-1.72629E-19
 -1      3836 1.04048E-04-4.26303E-05-2.64511E-05 1.70741E-05-1.25216E-18-9.31127E-19
 -1      3837 9.43715E-05-3.63986E-05-2.47029E-05 2.04563E-05-1.17860E-18-1.39067E-18
 -1      3838 9.36641E-05-2.10663E-05-3.11271E-05 1.45273E-06 1.14566E-18-9.37840E-19
 -1      3839 9.32730E-05-2.04400E-05-3.12216E-05 1.15823E-06 1.06424E-18-1.09594E-18
 -1      3840 9.35881E-05-2.12192E-05-3.09976E-05 5.91540E-07 8.80137E-19-1.05175E-18
 -1      3841 9.42826E-05-2.23672E-05-3.08052E-05 7.61828E-07 1.02799E-18-6.95260E-19
 -1      3842 6.29660E-05-1.88476E-05-1.90332E-05 1.59055E-05 8.22849E-19-2.63194E-18
 -1      3843 5.65285E-05-1.48557E-05-1.74230E-05 1.03814E-05 1.31463E-18-2.44848E-18
 -1      3844 5.85927E-05-1.45351E-05-1.86919E-05 3.97643E-06 8.93904E-19-2.27090E-18
 -1      3845 9.48647E-05-2.45985E-05-3.01212E-05-1.32537E-06 6.66192E-19-6.47052E-19
 -1      3846 9.47959E-05-2.40155E-05-3.03231E-05-5.81036E-07 7.85607E-19-6.28906E-19
 -1      3847 9.50445E-05-2.81082E-05-2.86877E-05 3.24581E-07 1.68268E-19-1.12341E-18
 -1      3848 9.50336E-05-2.80657E-05-2.86991E-05 3.86133E-07-1.05558E-18 1.91579E-19
 -1      3849 9.49383E-05-2.79553E-05-2.87073E-05 3.97486E-07-9.55772E-19-1.72713E-18
 -1      3850 9.49997E-05-2.80659E-05-2.86868E-05 2.88966E-07-2.64809E-19-1.72727E-18
 -1      3851 9.23970E-05-1.91618E-05-3.13982E-05-1.21650E-07 4.54839E-19-1.45700E-18
 -1      3852 9.24750E-05-1.92747E-05-3.13836E-05-4.71791E-07 2.58590E-19-1.54432E-18
 -1      3853 9.30576E-05-2.04189E-05-3.11124E-05-3.25169E-07 2.51763E-19-1.46852E-18
 -1      3854 9.29236E-05-2.02099E-05-3.11419E-05-2.69293E-08 5.13836E-19-1.20966E-18
 -1      3855 9.48737E-05-2.79273E-05-2.86908E-05-1.60821E-07 2.17779E-18-6.02771E-19
 -1      3856 9.48491E-05-2.79072E-05-2.86907E-05-1.03741E-07 1.97502E-18-4.44360E-19
 -1      3857 1.09844E-04-4.51086E-05-2.75645E-05 1.33179E-05-1.47841E-18 4.95805E-19
 -1      3858 9.38485E-05-2.47835E-05-2.96039E-05 2.92691E-06 9.36825E-20-6.59073E-19
 -1      3859 9.35334E-05-2.47819E-05-2.94680E-05 3.44623E-06-6.52397E-21-7.10294E-19
 -1      3860 9.28882E-05-2.42966E-05-2.93855E-05 3.15135E-06 8.85063E-21-6.77074E-19
 -1      3861 9.43415E-05-2.45006E-05-2.99346E-05 1.89783E-06 2.42030E-19-9.76676E-19
 -1      3862 9.41666E-05-2.47060E-05-2.97732E-05 2.48277E-06 1.41306E-19-8.39628E-19
 -1      3863 9.36963E-05-2.43235E-05-2.97223E-05 2.32036E-06 2.12780E-19-8.82684E-19
 -1      3864 9.30648E-05-3.90114E-05-2.32012E-05-2.53667E-05 1.88503E-18 1.33901E-18
 -1      3865 6.32206E-05-1.47042E-05-2.08163E-05-3.35340E-06 8.98939E-20 2.48379E-18
 -1      3866 6.62428E-05-1.69876E-05-2.11115E-05-1.11632E-05 2.86603E-19 2.27172E-18
 -1      3867 6.67874E-05-1.72251E-05-2.12795E-05 1.06551E-05-1.28469E-18 2.56707E-18
 -1      3868 6.37615E-05-1.47780E-05-2.09111E-05 3.60725E-06-4.32358E-19 2.36562E-18
 -1      3869 7.22748E-05-2.13574E-05-2.17757E-05-1.68602E-05 4.91416E-19 1.82567E-18
 -1      3870 8.13949E-05-2.80303E-05-2.28736E-05-2.11261E-05 1.24740E-18 2.15485E-18
 -1      3871 6.08417E-05-1.49743E-05-1.95736E-05-5.36171E-06 8.25692E-20-2.10236E-18
 -1      3872 6.39041E-05-1.73713E-05-1.99986E-05-1.23045E-05-6.77216E-19-2.00011E-18
 -1      3873 7.92691E-05-2.32878E-05-2.40969E-05 1.55771E-05 1.06731E-18-1.17894E-18
 -1      3874 9.40414E-05-2.22971E-05-3.07551E-05-3.43099E-07 1.56264E-20-1.55735E-18
 -1      3875 9.42548E-05-2.30310E-05-3.05251E-05 3.25111E-07 3.28875E-20-1.40215E-18
 -1      3876 9.40131E-05-2.28732E-05-3.04866E-05 4.78161E-07 2.75984E-19-1.15393E-18
 -1      3877 9.35214E-05-2.14724E-05-3.08787E-05-2.13080E-07 2.53793E-19-1.37807E-18
 -1      3878 9.52409E-05-3.15633E-05-2.72766E-05-1.30191E-05-3.35910E-19 6.63908E-19
 -1      3879 9.38317E-05-2.97486E-05-2.74391E-05-1.22943E-05-1.84401E-19 6.80345E-19
 -1      3880 9.11678E-05-2.79933E-05-2.71052E-05-1.22173E-05-4.94460E-20 6.34819E-19
 -1      3881 6.12381E-05-1.44959E-05-1.98800E-05-2.27287E-07 3.35663E-19-1.88606E-18
 -1      3882 6.59771E-05-1.58903E-05-2.13450E-05-2.57049E-06-6.94236E-20-1.52087E-18
 -1      3883 6.39927E-05-1.57771E-05-2.05996E-05 5.85105E-06 5.88397E-19-1.89397E-18
 -1      3884 9.41162E-05-2.38734E-05-3.00969E-05 1.40206E-06 2.84800E-19-9.20039E-19
 -1      3885 8.51790E-05-2.94599E-05-2.37589E-05-2.01125E-05 1.40368E-18 1.86102E-18
 -1      3886 8.35497E-05-2.66569E-05-2.44423E-05-1.76987E-05 6.35586E-19 2.41904E-18
 -1      3887 7.32601E-05-1.99372E-05-2.27308E-05-1.28275E-05 3.68636E-19 1.72624E-18
 -1      3888 7.31642E-05-2.48370E-05-2.05504E-05-2.10942E-05-1.22865E-18-1.83672E-18
 -1      3889 7.87786E-05-2.29016E-05-2.39053E-05-1.56560E-05 3.49249E-19 2.13828E-18
 -1      3890 9.34174E-05-2.56854E-05-2.90213E-05-5.73998E-06 1.40768E-19-1.97530E-20
 -1      3891 9.35969E-05-2.56669E-05-2.91185E-05-5.21110E-06 2.32596E-19-2.00726E-21
 -1      3892 9.45260E-05-2.61394E-05-2.93091E-05-4.76429E-06 2.36203E-19-1.44901E-20
 -1      3893 9.26161E-05-2.69139E-05-2.81331E-05-9.53494E-06 5.18886E-19 2.05838E-19
 -1      3894 9.23238E-05-2.63409E-05-2.82844E-05-8.87561E-06 5.18956E-19 2.30568E-19
 -1      3895 9.07706E-05-2.62273E-05-2.76740E-05-1.00463E-05 3.50184E-19 3.96249E-19
 -1      3896 9.34569E-05-2.14768E-05-3.08596E-05 1.03709E-07 7.34973E-19-1.07279E-18
 -1      3897 9.32747E-05-2.12145E-05-3.08931E-05-3.11860E-08 5.98402E-19-1.04245E-18
 -1      3898 9.49296E-05-2.80084E-05-2.86792E-05 1.10930E-07-4.43060E-19-5.48154E-19
 -1      3899 9.37565E-05-2.67212E-05-2.87384E-05-8.06376E-06 2.63492E-19 6.91099E-19
 -1      3900 9.17363E-05-3.34432E-05-2.48835E-05 1.91095E-05-1.50519E-18-6.60896E-19
 -1      3901 8.72912E-05-2.92966E-05-2.48838E-05 1.70327E-05-1.36349E-18-2.66547E-19
 -1      3902 1.01338E-04-3.79301E-05-2.70734E-05 1.42716E-05-1.24620E-18-2.87617E-19
 -1      3903 1.04725E-04-4.12742E-05-2.72060E-05 1.40178E-05-1.22211E-18 3.49126E-19
 -1      3904 9.30206E-05-2.56502E-05-2.88804E-05-6.30254E-06 1.22158E-19-9.84190E-21
 -1      3905 9.24586E-05-2.51016E-05-2.88638E-05-5.67787E-06 1.41734E-19-1.28979E-19
 -1      3906 9.29051E-05-2.57398E-05-2.87744E-05-6.85878E-06 2.67486E-19 1.42446E-19
 -1      3907 7.07376E-05-2.07487E-05-2.12847E-05 1.55914E-05 8.50950E-19-1.98722E-18
 -1      3908 9.48361E-05-2.78935E-05-2.86903E-05-3.01242E-08 1.53886E-18-6.78689E-19
 -1      3909 9.48356E-05-2.78939E-05-2.86901E-05 3.05409E-08 6.25775E-19-6.30650E-19
 -1      3910 9.47764E-05-2.78034E-05-2.87012E-05-7.77714E-08 2.99815E-18-5.19400E-19
 -1      3911 9.49462E-05-2.80109E-05-2.86877E-05-2.30346E-07 2.64042E-18 2.36599E-19
 -1      3912 9.49475E-05-2.80116E-05-2.86873E-05 2.42093E-07-2.89045E-19-2.84552E-19
 -1      3913 9.49179E-05-2.79549E-05-2.86971E-05 2.89965E-07 1.66800E-19-6.53252E-19
 -1      3914 9.49082E-05-2.79719E-05-2.86880E-05 1.99030E-07-4.38194E-19 5.98647E-19
 -1      3915 9.48379E-05-2.50091E-05-2.99270E-05-1.92211E-06 3.92576E-19-6.55578E-19
 -1      3916 9.45453E-05-2.42650E-05-3.01141E-05-1.45694E-06 5.88634E-19-8.05785E-19
 -1      3917 9.47738E-05-2.53082E-05-2.97721E-05-2.57057E-06 2.71698E-19-5.85890E-19
 -1      3918 9.51767E-05-3.68102E-05-2.48403E-05-2.04056E-05-1.63735E-18 9.56221E-21
 -1      3919 1.00258E-04-3.95899E-05-2.60821E-05-1.77157E-05-1.38231E-18 5.23595E-19
 -1      3920 1.00437E-04-3.75832E-05-2.69481E-05-1.48569E-05-1.15941E-18 5.75592E-19
 -1      3921 7.78327E-05-2.27589E-05-2.36621E-05 1.45084E-05-1.23347E-18 7.54667E-19
 -1      3922 7.19841E-05-1.95651E-05-2.23157E-05 1.31814E-05-1.75485E-18 2.61170E-18
 -1      3923 7.27248E-05-1.84339E-05-2.32665E-05 9.23603E-06-9.72533E-19 1.45716E-18
 -1      3924 9.31691E-05-2.09794E-05-3.09485E-05-1.00921E-07 2.76641E-19-1.48455E-18
 -1      3925 9.33093E-05-2.11925E-05-3.09186E-05-2.09699E-07 2.48821E-19-1.58150E-18
 -1      3926 9.36298E-05-2.19180E-05-3.07190E-05 5.82880E-08 2.82019E-19-1.48821E-18
 -1      3927 9.79975E-05-3.48217E-05-2.70081E-05-1.43734E-05-7.67235E-19 5.92619E-19
 -1      3928 8.76071E-05-3.32593E-05-2.32709E-05-2.31779E-05 1.51978E-18 1.45226E-18
 -1      3929 9.39526E-05-2.23577E-05-3.06871E-05-1.15812E-07 7.75308E-19-9.83457E-19
 -1      3930 9.40408E-05-2.28696E-05-3.04961E-05-5.10259E-07 6.35797E-19-9.39843E-19
 -1      3931 9.48647E-05-2.79017E-05-2.86989E-05-2.31872E-07 2.66273E-18 3.55719E-19
 -1      3932 6.77285E-05-1.57404E-05-2.21773E-05-1.84900E-07 3.89921E-19 2.18011E-18
 -1      3933 7.13327E-05-1.99735E-05-2.18782E-05-1.31637E-05-8.12986E-19-1.53283E-18
 -1      3934 7.06104E-05-2.13280E-05-2.09294E-05-1.73628E-05-9.95684E-19-1.80198E-18
 -1      3935 7.97212E-05-2.73930E-05-2.24848E-05-2.06686E-05-1.19778E-18-1.37377E-18
 -1      3936 7.16671E-05-1.87770E-05-2.25539E-05 1.13933E-05 8.56769E-19-2.09603E-18
 -1      3937 9.39857E-05-3.24280E-05-2.64754E-05-1.51301E-05-6.09078E-19 3.82293E-19
 -1      3938 9.35946E-05-2.40062E-05-2.98308E-05 1.65693E-06 3.83505E-19-1.06741E-18
 -1      3939 9.32808E-05-2.41061E-05-2.96514E-05 2.06974E-06 1.64940E-19-1.02822E-18
 -1      3940 9.37745E-05-2.25377E-05-3.05375E-05 3.04650E-07 2.65652E-19-1.41027E-18
 -1      3941 9.39463E-05-2.31044E-05-3.03551E-05 6.93482E-07 2.42637E-19-1.25635E-18
 -1      3942 9.35752E-05-2.22408E-05-3.05791E-05 2.33363E-07 2.70440E-19-1.56116E-18
 -1      3943 9.01149E-05-2.31489E-05-2.87132E-05 3.59523E-06 1.49870E-19-5.71585E-19
 -1      3944 8.92964E-05-2.27936E-05-2.85063E-05 3.97113E-06 6.36507E-20-5.12040E-19
 -1      3945 8.82089E-05-2.23508E-05-2.82440E-05 4.25850E-06-4.33277E-21-3.48693E-19
 -1      3946 8.72305E-05-2.19547E-05-2.79800E-05 4.69086E-06 1.04986E-19-5.79656E-19
 -1      3947 8.82180E-05-2.21719E-05-2.82815E-05 3.03569E-06 8.92135E-20-4.61387E-19
 -1      3948 8.58939E-05-2.14743E-05-2.76362E-05 5.04550E-06 1.25295E-19-6.93244E-19
 -1      3949 8.47469E-05-2.10982E-05-2.72813E-05 5.59768E-06-7.64133E-20-4.90397E-19
 -1      3950 8.58307E-05-2.12031E-05-2.76649E-05 3.54213E-06-6.18460E-20-5.20516E-19
 -1      3951 8.30877E-05-2.06247E-05-2.68116E-05 6.08440E-06-1.01488E-19-5.26343E-19
 -1      3952 8.17499E-05-2.03397E-05-2.63215E-05 6.87254E-06 1.97318E-19-5.02396E-19
 -1      3953 8.28903E-05-2.01616E-05-2.68385E-05 4.19228E-06 4.95729E-20-5.03118E-19
 -1      3954 7.96146E-05-1.98797E-05-2.56617E-05 7.60881E-06 2.05655E-19-8.12228E-19
 -1      3955 7.80491E-05-1.99385E-05-2.49617E-05 8.89802E-06 4.51720E-19-1.16495E-18
 -1      3956 7.92086E-05-1.91092E-05-2.56948E-05 5.12200E-06 1.23218E-19-7.40045E-19
 -1      3957 7.30344E-05-1.88524E-05-2.32431E-05-1.07874E-05 1.43721E-19 1.66817E-18
 -1      3958 9.39652E-05-2.57062E-05-2.92506E-05-4.69818E-06 1.60239E-19-4.17643E-20
 -1      3959 9.41499E-05-2.56692E-05-2.93525E-05-4.16805E-06 3.27457E-19-1.57323E-20
 -1      3960 9.32283E-05-2.51958E-05-2.91528E-05-4.61208E-06 2.31337E-19-1.74199E-19
 -1      3961 7.98032E-05-1.96176E-05-2.57945E-05-7.57754E-06 3.63040E-19 1.89181E-18
 -1      3962 8.10757E-05-1.97344E-05-2.63377E-05-6.56184E-06 1.54740E-19 1.36082E-18
 -1      3963 8.27959E-05-2.01480E-05-2.68495E-05-5.89600E-06-2.75459E-20 1.89997E-18
 -1      3964 8.38920E-05-2.04563E-05-2.72210E-05-5.20967E-06 7.27708E-19 2.24845E-18
 -1      3965 8.05666E-05-1.90207E-05-2.63205E-05-4.54233E-06 3.76825E-19 1.18779E-18
 -1      3966 8.52452E-05-2.09209E-05-2.75717E-05-4.75541E-06 1.03323E-19 1.58088E-18
 -1      3967 8.61851E-05-2.13159E-05-2.78250E-05-4.24542E-06-7.93175E-20 1.39668E-18
 -1      3968 8.35875E-05-2.00342E-05-2.71969E-05-3.66089E-06 2.08277E-19 4.54508E-19
 -1      3969 8.72735E-05-2.18051E-05-2.80629E-05-3.89780E-06-5.17271E-19 9.71584E-19
 -1      3970 8.80673E-05-2.22382E-05-2.82302E-05-3.49011E-06-2.68690E-19-3.74691E-19
 -1      3971 8.59870E-05-2.10629E-05-2.77964E-05-3.03006E-06-9.16262E-19 1.67200E-19
 -1      3972 8.89544E-05-2.27282E-05-2.83871E-05-3.20742E-06-7.14767E-20-1.15886E-18
 -1      3973 8.96154E-05-2.31645E-05-2.84926E-05-2.86689E-06-6.50832E-19-2.38616E-18
 -1      3974 8.79356E-05-2.20856E-05-2.81997E-05-2.52081E-06-1.14627E-18-1.06908E-18
 -1      3975 9.03372E-05-2.36310E-05-2.85921E-05-2.62919E-06-2.88808E-19-2.16990E-18
 -1      3976 9.08787E-05-2.40442E-05-2.86541E-05-2.33825E-06-6.78292E-20-2.31564E-18
 -1      3977 8.95237E-05-2.30728E-05-2.84625E-05-2.09445E-06-4.44526E-19-2.21510E-18
 -1      3978 9.14631E-05-2.44721E-05-2.87132E-05-2.13288E-06-6.47172E-19-2.17722E-18
 -1      3979 9.19013E-05-2.48496E-05-2.87450E-05-1.88330E-06-7.02417E-19-2.84652E-18
 -1      3980 9.08137E-05-2.39892E-05-2.86262E-05-1.72482E-06-7.03549E-19-2.70500E-18
 -1      3981 9.23693E-05-2.52296E-05-2.87760E-05-1.70822E-06-8.67100E-19-3.03905E-18
 -1      3982 9.27180E-05-2.55624E-05-2.87878E-05-1.49490E-06-5.95692E-19-3.57780E-18
 -1      3983 9.18547E-05-2.48168E-05-2.87202E-05-1.39889E-06-1.26253E-18-3.16804E-18
 -1      3984 9.30896E-05-2.58917E-05-2.88003E-05-1.34614E-06 7.38615E-19-3.53852E-18
 -1      3985 9.33628E-05-2.61770E-05-2.87995E-05-1.16668E-06 1.21202E-18-3.72105E-18
 -1      3986 9.26838E-05-2.55427E-05-2.87665E-05-1.11647E-06 2.96477E-19-3.52832E-18
 -1      3987 9.36540E-05-2.64555E-05-2.88001E-05-1.04144E-06-2.81587E-20-3.08446E-18
 -1      3988 9.38656E-05-2.66954E-05-2.87917E-05-8.92572E-07-5.88746E-19-3.60102E-18
 -1      3989 9.33384E-05-2.61664E-05-2.87819E-05-8.75087E-07 7.30309E-19-4.32734E-18
 -1      3990 9.40911E-05-2.69269E-05-2.87850E-05-7.89733E-07 5.68582E-19-3.37600E-18
 -1      3991 9.42521E-05-2.71249E-05-2.87725E-05-6.68550E-07 1.38240E-18-3.12837E-18
 -1      3992 9.38495E-05-2.66911E-05-2.87774E-05-6.70371E-07 2.97129E-19-2.76352E-18
 -1      3993 9.44241E-05-2.73134E-05-2.87617E-05-5.86612E-07 1.39288E-19-3.01766E-18
 -1      3994 9.45445E-05-2.74739E-05-2.87473E-05-4.89491E-07 1.28661E-19-2.69622E-18
 -1      3995 9.42428E-05-2.71264E-05-2.87609E-05-5.02916E-07 1.08061E-18-2.53374E-18
 -1      3996 8.80075E-05-2.51476E-05-2.69661E-05 1.04667E-05-1.61523E-18-1.21243E-19
 -1      3997 8.84582E-05-2.61731E-05-2.66630E-05 1.16789E-05-1.35566E-18-3.48590E-19
 -1      3998 9.48522E-05-2.79133E-05-2.86891E-05 9.19275E-08-1.61671E-19 1.72583E-19
 -1      3999 9.48744E-05-2.79350E-05-2.86889E-05 1.47717E-07-1.57907E-19 1.43949E-19
 -1      4000 9.48302E-05-2.78645E-05-2.86981E-05 1.84682E-07-3.57416E-19 2.08292E-19
 -1      4001 9.47792E-05-2.78089E-05-2.86997E-05 6.68061E-08 1.55450E-18 5.28436E-19
 -1      4002 9.64630E-05-3.51373E-05-2.63575E-05 1.57937E-05-9.64423E-19-1.14609E-18
 -1      4003 8.91126E-05-2.37869E-05-2.80152E-05 6.52930E-06-2.75360E-19 4.81130E-19
 -1      4004 8.89415E-05-2.39515E-05-2.78360E-05 7.29310E-06-6.41878E-19 3.98174E-19
 -1      4005 8.83884E-05-2.41186E-05-2.75662E-05 8.24362E-06-1.15909E-18 1.99949E-19
 -1      4006 8.84433E-05-2.46144E-05-2.73271E-05 9.19190E-06-1.81094E-18-2.24256E-19
 -1      4007 8.70571E-05-2.30136E-05-2.74405E-05 7.28684E-06-1.39004E-18-7.69898E-21
 -1      4008 9.39097E-05-2.34869E-05-3.01865E-05 9.67382E-07 3.74303E-19-1.15920E-18
 -1      4009 9.37903E-05-2.38357E-05-2.99832E-05 1.41682E-06 3.73771E-19-1.10345E-18
 -1      4010 9.34352E-05-2.36172E-05-2.99108E-05 1.17954E-06 4.32382E-19-1.19156E-18
 -1      4011 9.36745E-05-2.31162E-05-3.02334E-05 7.14411E-07 4.21993E-19-1.18957E-18
 -1      4012 8.99779E-05-2.38979E-05-2.83357E-05 5.18590E-06-5.48054E-19 1.56690E-18
 -1      4013 8.96971E-05-2.38515E-05-2.82096E-05 5.80409E-06 1.56086E-19 1.32007E-18
 -1      4014 8.82122E-05-2.30299E-05-2.79256E-05 5.65986E-06-3.84407E-20 1.23487E-18
 -1      4015 9.08585E-05-2.42673E-05-2.85522E-05 4.11533E-06-2.79798E-19 2.14747E-18
 -1      4016 9.05396E-05-2.40967E-05-2.84696E-05 4.62176E-06-5.70964E-19 1.37982E-18
 -1      4017 8.93625E-05-2.33793E-05-2.82682E-05 4.42320E-06-5.60856E-19 2.56480E-18
 -1      4018 9.16853E-05-2.47699E-05-2.86888E-05 3.25270E-06-5.83841E-19 2.37722E-18
 -1      4019 9.13708E-05-2.45368E-05-2.86395E-05 3.67012E-06-5.20872E-19 1.97929E-18
 -1      4020 9.04342E-05-2.39134E-05-2.84994E-05 3.46366E-06-2.77135E-19 1.66831E-18
 -1      4021 9.24198E-05-2.53181E-05-2.87666E-05 2.55263E-06 7.41663E-19 1.79962E-18
 -1      4022 9.21334E-05-2.50641E-05-2.87417E-05 2.89823E-06 1.36015E-19 1.86793E-18
 -1      4023 9.13912E-05-2.45269E-05-2.86470E-05 2.71142E-06-7.78304E-20 8.97204E-19
 -1      4024 9.30494E-05-2.58605E-05-2.88024E-05 1.98272E-06 8.75832E-19 9.11493E-19
 -1      4025 9.28010E-05-2.56097E-05-2.87946E-05 2.26749E-06 1.20008E-18 1.15269E-18
 -1      4026 9.22161E-05-2.51534E-05-2.87333E-05 2.10891E-06 6.71427E-19 1.01383E-18
 -1      4027 9.35726E-05-2.63635E-05-2.88099E-05 1.52062E-06 3.37386E-19 2.67686E-18
 -1      4028 9.33652E-05-2.61315E-05-2.88132E-05 1.75364E-06 1.59211E-19 1.70594E-18
 -1      4029 9.29073E-05-2.57492E-05-2.87759E-05 1.62578E-06-4.13419E-20 2.03354E-18
 -1      4030 9.39967E-05-2.68093E-05-2.87995E-05 1.14903E-06 1.33068E-18 1.83086E-18
 -1      4031 9.38290E-05-2.66047E-05-2.88095E-05 1.33786E-06 1.11797E-18 2.71089E-18
 -1      4032 9.34742E-05-2.62881E-05-2.87892E-05 1.23971E-06 7.31029E-19 1.94924E-18
 -1      4033 9.43328E-05-2.71920E-05-2.87786E-05 8.52926E-07 2.30728E-18 2.26668E-18
 -1      4034 9.42003E-05-2.70169E-05-2.87922E-05 1.00397E-06 2.09079E-18 2.36097E-18
 -1      4035 9.39298E-05-2.67592E-05-2.87835E-05 9.31282E-07 1.29031E-18 1.57222E-18
 -1      4036 9.45934E-05-2.75119E-05-2.87522E-05 6.20434E-07 1.24902E-18 1.44136E-18
 -1      4037 9.44912E-05-2.73660E-05-2.87673E-05 7.39297E-07 2.26319E-18 1.86073E-18
 -1      4038 9.42880E-05-2.71599E-05-2.87661E-05 6.87428E-07 2.64035E-18 1.92007E-18
 -1      4039 9.47896E-05-2.77711E-05-2.87241E-05 4.42383E-07-3.26110E-19 8.42310E-19
 -1      4040 9.47136E-05-2.76541E-05-2.87392E-05 5.32635E-07 5.89884E-19 1.19654E-18
 -1      4041 9.45637E-05-2.74916E-05-2.87427E-05 4.98516E-07 1.88286E-18 1.81188E-18
 -1      4042 9.31664E-05-2.10729E-05-3.09086E-05 3.50215E-09 5.59584E-19-9.50082E-19
 -1      4043 9.31557E-05-2.10503E-05-3.09102E-05-9.17325E-08 3.88896E-19-1.12480E-18
 -1      4044 9.34949E-05-2.18953E-05-3.06704E-05-1.31350E-07 4.47706E-19-9.56750E-19
 -1      4045 9.46406E-05-2.34979E-05-3.04937E-05-6.63023E-08 9.27379E-19-6.38526E-19
 -1      4046 9.42721E-05-2.28584E-05-3.06099E-05-6.54072E-08 8.80816E-19-9.27297E-19
 -1      4047 9.25668E-05-2.60646E-05-2.84844E-05-8.10585E-06 1.52944E-19 3.05430E-19
 -1      4048 9.25412E-05-2.58028E-05-2.86099E-05-7.50264E-06 2.10606E-19 2.65806E-19
 -1      4049 9.16898E-05-2.50983E-05-2.85385E-05-6.87553E-06 1.92442E-19-1.57986E-19
 -1      4050 9.10579E-05-2.53843E-05-2.81495E-05-8.30209E-06 4.11340E-19 2.04931E-20
 -1      4051 8.79067E-05-3.31357E-05-2.35134E-05-2.18413E-05-1.54758E-18-3.26836E-19
 -1      4052 9.11826E-05-3.27697E-05-2.50071E-05-1.84760E-05-8.76931E-19 4.05815E-20
 -1      4053 9.48748E-05-2.78977E-05-2.87052E-05 3.30426E-07 1.83641E-19-1.17020E-18
 -1      4054 9.48402E-05-2.78339E-05-2.87158E-05 3.90757E-07-3.56066E-19-3.72376E-19
 -1      4055 9.47274E-05-2.77078E-05-2.87216E-05 3.65940E-07 1.08910E-18 1.69570E-19
 -1      4056 9.48213E-05-2.78439E-05-2.87053E-05 2.76921E-07-3.69903E-19 3.44410E-19
 -1      4057 9.28163E-05-2.40856E-05-2.94631E-05 2.34414E-06-1.57599E-21-9.25867E-19
 -1      4058 9.23198E-05-2.39790E-05-2.92946E-05 2.71854E-06 1.39384E-20-8.55288E-19
 -1      4059 9.28057E-05-2.37914E-05-2.95648E-05 1.67091E-06 1.80715E-19-1.06816E-18
 -1      4060 8.87027E-05-2.91041E-05-2.54514E-05-1.60339E-05-4.78124E-19 2.71549E-19
 -1      4061 9.50675E-05-2.41983E-05-3.03791E-05 1.45576E-07 1.00207E-18-1.78571E-19
 -1      4062 9.48443E-05-2.36973E-05-3.05004E-05 2.68394E-07 9.54095E-19-3.92346E-19
 -1      4063 8.92662E-05-2.86814E-05-2.59656E-05 1.44359E-05-1.37123E-18-1.93699E-19
 -1      4064 8.24886E-05-2.51841E-05-2.44654E-05 1.56059E-05-1.44127E-18-5.23028E-19
 -1      4065 8.06429E-05-2.28301E-05-2.48431E-05 1.25879E-05-7.70304E-19-7.31037E-20
 -1      4066 8.80194E-05-2.68358E-05-2.62711E-05 1.29494E-05-1.47580E-18-4.95202E-19
 -1      4067 9.40930E-05-2.34892E-05-3.02645E-05-8.67039E-07 4.76783E-19-8.20143E-19
 -1      4068 9.36326E-05-2.26457E-05-3.04198E-05-4.84216E-07 3.43394E-19-8.13988E-19
 -1      4069 9.40602E-05-2.39239E-05-3.00581E-05-1.42070E-06 3.68722E-19-7.43811E-19
 -1      4070 9.44460E-05-2.56308E-05-2.94911E-05-3.66610E-06 3.79944E-19-2.46165E-19
 -1      4071 9.45902E-05-2.54993E-05-2.96122E-05-3.09721E-06 2.43526E-19-4.96431E-19
 -1      4072 9.43702E-05-2.49491E-05-2.97472E-05-2.58045E-06 1.96280E-19-7.72409E-19
 -1      4073 9.38928E-05-2.51977E-05-2.94368E-05-3.60543E-06 2.10882E-19-3.76068E-19
 -1      4074 7.03211E-05-1.62894E-05-2.31970E-05 2.48317E-06 1.02471E-20 1.30264E-18
 -1      4075 7.02167E-05-1.61486E-05-2.31496E-05-3.71822E-06 7.02807E-19 1.74270E-18
 -1      4076 9.16481E-05-2.37616E-05-2.91038E-05 2.97603E-06 1.65780E-19-7.56919E-19
 -1      4077 9.09879E-05-2.35041E-05-2.89270E-05 3.33637E-06 1.64631E-19-6.45276E-19
 -1      4078 9.01528E-05-2.29878E-05-2.87665E-05 2.58913E-06 2.28653E-19-6.60371E-19
 -1      4079 7.20207E-05-1.71359E-05-2.34686E-05-6.95369E-06 8.84612E-19 2.42331E-18
 -1      4080 7.67095E-05-1.96590E-05-2.44588E-05-1.02500E-05 1.62359E-20 2.08536E-18
 -1      4081 7.81323E-05-1.94410E-05-2.52202E-05-8.60762E-06 1.41376E-19 2.34328E-18
 -1      4082 9.35321E-05-2.25360E-05-3.04320E-05-3.29368E-07 2.45168E-19-8.09360E-19
 -1      4083 9.25189E-05-2.47346E-05-2.90489E-05-4.33021E-06 2.58402E-19-4.40417E-19
 -1      4084 9.28911E-05-2.47869E-05-2.91955E-05-3.83486E-06 2.53105E-19-5.70271E-19
 -1      4085 6.88931E-05-1.63776E-05-2.25537E-05-9.13457E-07-6.86163E-20-1.15615E-18
 -1      4086 6.89637E-05-1.67305E-05-2.23287E-05-5.76290E-06-2.08182E-19-1.13861E-18
 -1      4087 7.72390E-05-1.83358E-05-2.52040E-05-6.03966E-06-4.97144E-20 2.41113E-18
 -1      4088 9.16793E-05-2.35596E-05-2.91790E-05 2.14585E-06 1.08863E-19-8.35986E-19
 -1      4089 8.60277E-05-2.35117E-05-2.67780E-05 9.47591E-06-1.71759E-18-7.84893E-19
 -1      4090 9.46723E-05-2.76244E-05-2.87346E-05-4.24851E-07 2.01733E-18-3.05432E-18
 -1      4091 9.47592E-05-2.77508E-05-2.87199E-05-3.48560E-07 2.45238E-18-1.04424E-18
 -1      4092 9.48212E-05-2.78355E-05-2.87079E-05-2.71834E-07 2.19497E-18-4.56869E-19
 -1      4093 8.88529E-05-2.52316E-05-2.72356E-05-9.96410E-06 1.56869E-19 1.01944E-19
 -1      4094 8.88699E-05-2.47216E-05-2.75141E-05-9.01001E-06 4.59321E-19 1.39461E-19
 -1      4095 9.47233E-05-2.77257E-05-2.87135E-05-2.29802E-07 3.35524E-18-1.11769E-18
 -1      4096 9.15365E-05-2.45256E-05-2.87112E-05-5.33477E-06-6.49281E-20-4.09851E-19
 -1      4097 9.19419E-05-2.46019E-05-2.88693E-05-4.79748E-06 5.79721E-20-4.58673E-19
 -1      4098 9.16691E-05-2.41877E-05-2.89080E-05-4.01207E-06 1.59009E-19-6.00019E-19
 -1      4099 9.34237E-05-2.16915E-05-3.07232E-05-7.24801E-09 3.11968E-19-1.15619E-18
 -1      4100 7.54617E-05-1.90695E-05-2.41295E-05 8.57345E-06 4.21233E-19-1.34297E-18
 -1      4101 6.65988E-05-1.64819E-05-2.15082E-05 7.04230E-06 4.58379E-19-1.77463E-18
 -1      4102 7.27999E-05-1.72024E-05-2.37202E-05 5.51443E-06-6.72584E-19 5.81246E-19
 -1      4103 7.44285E-05-1.72781E-05-2.44994E-05 2.15628E-06-5.78317E-19 8.21888E-19
 -1      4104 7.62306E-05-1.92199E-05-2.44953E-05 7.96309E-06-1.00778E-18 1.22644E-18
 -1      4105 8.87798E-05-2.68860E-05-2.65059E-05-1.25006E-05-2.38076E-19 5.24300E-20
 -1      4106 8.82880E-05-2.57500E-05-2.68300E-05-1.12691E-05 3.61461E-20 1.69449E-19
 -1      4107 8.63813E-05-2.41023E-05-2.66613E-05-1.01986E-05 1.45949E-19-2.90274E-19
 -1      4108 8.52366E-05-2.44905E-05-2.59860E-05 1.19810E-05-1.51977E-18-8.98269E-19
 -1      4109 8.40401E-05-2.97604E-05-2.30317E-05-2.11484E-05-1.32014E-18-8.07500E-19
 -1      4110 7.41978E-05-1.73472E-05-2.43295E-05-4.09836E-06-3.48408E-21 2.07531E-18
 -1      4111 9.46889E-05-2.76949E-05-2.87122E-05-1.31128E-07 3.74212E-18 3.61556E-19
 -1      4112 9.46735E-05-2.76811E-05-2.87115E-05-4.98990E-08 3.21737E-18-3.26965E-19
 -1      4113 9.46178E-05-2.75920E-05-2.87241E-05-2.09683E-07 2.66360E-18-9.83779E-19
 -1      4114 7.40513E-05-1.76428E-05-2.41220E-05 5.08117E-06 3.07645E-20-1.04849E-18
 -1      4115 8.08136E-05-2.65075E-05-2.32795E-05-1.84865E-05-1.03312E-18-1.04703E-18
 -1      4116 9.45371E-05-2.74773E-05-2.87381E-05-3.70675E-07 1.26186E-18-2.14662E-18
 -1      4117 8.84378E-05-2.22721E-05-2.83701E-05 1.73101E-06 1.88544E-19-6.83710E-19
 -1      4118 8.73450E-05-2.18146E-05-2.80977E-05 1.89914E-06 4.86068E-20-7.67541E-19
 -1      4119 9.34726E-05-2.21914E-05-3.05535E-05 8.57031E-08 2.34607E-19-1.19247E-18
 -1      4120 9.35990E-05-2.27001E-05-3.03784E-05 2.93381E-07 3.24580E-19-1.26773E-18
 -1      4121 9.34591E-05-2.22805E-05-3.05167E-05 2.30910E-08 3.86520E-19-9.54230E-19
 -1      4122 9.01045E-05-2.36862E-05-2.84814E-05 2.66714E-06 2.20816E-19 3.49408E-19
 -1      4123 8.95980E-05-2.33605E-05-2.83858E-05 3.04946E-06 2.20238E-19 1.15299E-18
 -1      4124 8.74301E-05-2.24051E-05-2.78969E-05 4.47845E-06-8.21392E-19 1.66330E-18
 -1      4125 8.68572E-05-2.22349E-05-2.76859E-05 5.12281E-06-8.65772E-19 9.35834E-19
 -1      4126 9.18260E-05-2.35570E-05-2.92661E-05 1.27409E-06 2.69131E-19-1.02594E-18
 -1      4127 9.11549E-05-2.33504E-05-2.90677E-05 1.46621E-06 3.41860E-19-8.77060E-19
 -1      4128 8.60628E-05-2.13022E-05-2.77735E-05 1.91984E-06-1.81990E-19-4.46379E-19
 -1      4129 8.47201E-05-2.07862E-05-2.74170E-05 2.10722E-06-2.32991E-19-5.46406E-19
 -1      4130 8.65380E-05-2.14146E-05-2.78800E-05 5.46428E-07 1.35812E-19-9.09574E-19
 -1      4131 8.31090E-05-2.02098E-05-2.69851E-05 2.11595E-06 1.01458E-20-5.04576E-19
 -1      4132 8.14528E-05-1.96650E-05-2.64991E-05 2.37089E-06 1.35265E-19-3.83943E-19
 -1      4133 8.37043E-05-2.03269E-05-2.71230E-05 3.79854E-07-1.51761E-19-5.96712E-19
 -1      4134 7.93835E-05-1.90372E-05-2.59020E-05 2.39257E-06-1.20570E-20-5.28735E-19
 -1      4135 7.74450E-05-1.85145E-05-2.52419E-05 2.75531E-06 2.12552E-20-7.83335E-19
 -1      4136 8.01283E-05-1.91336E-05-2.60981E-05 1.14728E-07 2.23684E-20-4.48441E-19
 -1      4137 7.89468E-05-1.84386E-05-2.59367E-05-2.60115E-06-1.74537E-19 6.06872E-19
 -1      4138 8.05934E-05-1.89683E-05-2.64522E-05-2.28554E-06 1.42527E-19 4.84666E-19
 -1      4139 7.35982E-05-1.87227E-05-2.34354E-05-7.73422E-06-5.86182E-19-9.21125E-19
 -1      4140 7.05294E-05-1.84163E-05-2.22925E-05-1.01506E-05-7.43596E-19-1.41340E-18
 -1      4141 7.56903E-05-1.75297E-05-2.49504E-05-3.23569E-06-3.85680E-19 1.58220E-18
 -1      4142 8.22909E-05-1.95316E-05-2.69138E-05-2.22088E-06-1.42936E-19-9.25321E-20
 -1      4143 8.36378E-05-2.00598E-05-2.72779E-05-1.98956E-06-2.69087E-19-8.12422E-19
 -1      4144 8.11269E-05-1.89701E-05-2.65728E-05-4.32445E-07-8.15787E-19-9.87032E-19
 -1      4145 8.49513E-05-2.06034E-05-2.75959E-05-1.90342E-06-6.82457E-19-1.16400E-18
 -1      4146 8.60556E-05-2.11286E-05-2.78443E-05-1.71293E-06-1.07871E-18-1.60400E-18
 -1      4147 8.39865E-05-2.00642E-05-2.73439E-05-4.90144E-07-1.25299E-18-3.19918E-18
 -1      4148 8.71079E-05-2.16736E-05-2.80590E-05-1.65005E-06-1.65398E-18-1.88414E-18
 -1      4149 8.80072E-05-2.21850E-05-2.82236E-05-1.48880E-06-1.25451E-18-1.76329E-18
 -1      4150 8.63599E-05-2.12000E-05-2.78797E-05-5.69631E-07-1.07260E-18-3.14013E-18
 -1      4151 8.88545E-05-2.26957E-05-2.83653E-05-1.42119E-06-4.60065E-19-1.92574E-18
 -1      4152 8.95847E-05-2.31783E-05-2.84706E-05-1.27410E-06-4.37523E-19-1.39423E-18
 -1      4153 8.82382E-05-2.22646E-05-2.82393E-05-5.94423E-07-9.71221E-19-1.81860E-18
 -1      4154 9.02736E-05-2.36496E-05-2.85616E-05-1.20260E-06-1.03791E-18-2.20249E-18
 -1      4155 9.08702E-05-2.40924E-05-2.86253E-05-1.06181E-06-1.46890E-18-2.97875E-18
 -1      4156 8.97561E-05-2.32671E-05-2.84745E-05-5.77361E-07-1.42635E-18-2.22691E-18
 -1      4157 9.14267E-05-2.45239E-05-2.86786E-05-1.00873E-06-1.29971E-18-3.49851E-18
 -1      4158 9.18950E-05-2.49126E-05-2.87132E-05-8.84690E-07-1.26196E-18-2.61019E-18
 -1      4159 9.10241E-05-2.42020E-05-2.86244E-05-5.32687E-07-1.31353E-18-3.67302E-18
 -1      4160 9.23468E-05-2.52893E-05-2.87422E-05-8.20947E-07 1.37627E-19-2.71832E-18
 -1      4161 9.27154E-05-2.56298E-05-2.87575E-05-7.14216E-07 1.43158E-18-2.52626E-18
 -1      4162 9.20089E-05-2.49955E-05-2.87082E-05-4.50145E-07-4.56291E-19-2.72331E-18
 -1      4163 9.30720E-05-2.59502E-05-2.87697E-05-6.52261E-07 1.19251E-18-2.90734E-18
 -1      4164 9.33656E-05-2.62403E-05-2.87724E-05-5.56809E-07 1.07933E-18-1.79903E-18
 -1      4165 9.27940E-05-2.56850E-05-2.87494E-05-3.62606E-07 1.31669E-18-2.11880E-18
 -1      4166 9.36452E-05-2.65141E-05-2.87732E-05-5.07939E-07 6.34447E-19-1.86204E-18
 -1      4167 9.38732E-05-2.67564E-05-2.87679E-05-4.27755E-07 7.36620E-19-1.28056E-18
 -1      4168 9.34339E-05-2.62946E-05-2.87636E-05-2.92944E-07 1.17571E-18-8.11368E-19
 -1      4169 9.40870E-05-2.69793E-05-2.87618E-05-3.86435E-07 1.06513E-18-1.81468E-18
 -1      4170 9.42615E-05-2.71802E-05-2.87517E-05-3.18382E-07 1.25116E-18-1.37037E-18
 -1      4171 9.39242E-05-2.68019E-05-2.87591E-05-2.31924E-07 3.10906E-19-4.66467E-19
 -1      4172 7.44552E-05-1.75295E-05-2.43965E-05 1.97837E-06-2.47360E-20-8.91760E-19
 -1      4173 8.76347E-05-2.36099E-05-2.74277E-05-7.93663E-06 2.54483E-19-1.91641E-19
 -1      4174 8.95420E-05-2.45467E-05-2.78354E-05-8.04719E-06 4.44436E-19-7.42711E-20
 -1      4175 8.97955E-05-2.43573E-05-2.80625E-05-7.28103E-06 2.88837E-19-1.10940E-19
 -1      4176 8.58344E-05-2.20019E-05-2.73934E-05 5.87139E-06-1.63107E-18 6.61989E-19
 -1      4177 8.52712E-05-2.20287E-05-2.70954E-05 6.77587E-06-2.15136E-18-6.27499E-21
 -1      4178 8.52279E-05-2.12885E-05-2.73674E-05 4.59885E-06-2.06289E-18 2.64742E-19
 -1      4179 9.11858E-05-2.44062E-05-2.86303E-05 2.05733E-06 9.81248E-20-1.65471E-19
 -1      4180 9.07308E-05-2.40686E-05-2.85711E-05 2.35474E-06-6.24133E-20 5.49572E-19
 -1      4181 8.99853E-05-2.35008E-05-2.84663E-05 2.00172E-06-3.49856E-19-2.03771E-19
 -1      4182 9.20817E-05-2.50941E-05-2.87171E-05 1.58309E-06-5.26829E-19 1.30171E-18
 -1      4183 9.16963E-05-2.47664E-05-2.86847E-05 1.82696E-06-4.91741E-19-8.63808E-20
 -1      4184 9.11383E-05-2.43235E-05-2.86193E-05 1.50166E-06-7.37692E-19 1.31344E-19
 -1      4185 9.28150E-05-2.57230E-05-2.87616E-05 1.21104E-06-3.82787E-19 1.01286E-18
 -1      4186 9.25050E-05-2.54260E-05-2.87473E-05 1.41092E-06-3.65262E-19 1.58734E-18
 -1      4187 9.20681E-05-2.50637E-05-2.87063E-05 1.13120E-06-3.92221E-19 5.65773E-19
 -1      4188 9.34164E-05-2.62869E-05-2.87763E-05 9.11735E-07 1.38346E-18 7.99911E-19
 -1      4189 9.31638E-05-2.60241E-05-2.87743E-05 1.06942E-06 5.81776E-19 1.67059E-18
 -1      4190 9.28091E-05-2.57052E-05-2.87493E-05 8.59418E-07-2.28217E-19 1.13117E-18
 -1      4191 9.38950E-05-2.67723E-05-2.87722E-05 6.78133E-07 1.18072E-18 8.21853E-19
 -1      4192 9.36940E-05-2.65463E-05-2.87779E-05 8.03283E-07 1.22222E-18 6.40303E-19
 -1      4193 9.34256E-05-2.62811E-05-2.87653E-05 6.46950E-07 1.11788E-18 5.49102E-19
 -1      4194 9.42673E-05-2.71781E-05-2.87563E-05 4.96223E-07 2.51595E-18 1.40137E-18
 -1      4195 9.41109E-05-2.69892E-05-2.87666E-05 5.95298E-07 1.81987E-18 1.23549E-18
 -1      4196 9.39086E-05-2.67757E-05-2.87623E-05 4.79868E-07 1.63624E-18 1.42270E-19
 -1      4197 9.45556E-05-2.75141E-05-2.87340E-05 3.55735E-07 2.29230E-18 6.06782E-19
 -1      4198 9.44333E-05-2.73603E-05-2.87464E-05 4.29705E-07 2.87357E-18 1.63890E-18
 -1      4199 9.42769E-05-2.71844E-05-2.87477E-05 3.48788E-07 2.43593E-18 1.03988E-18
 -1      4200 8.04140E-05-2.45264E-05-2.38432E-05-1.57263E-05-8.08814E-19-1.26349E-18
 -1      4201 8.36671E-05-2.69189E-05-2.43546E-05-1.67678E-05-8.20328E-19-7.97227E-19
 -1      4202 9.28802E-05-2.36826E-05-2.96645E-05 9.77635E-07 3.50272E-19-1.33529E-18
 -1      4203 9.24219E-05-2.36758E-05-2.94696E-05 1.19560E-06 1.84463E-19-1.24583E-18
 -1      4204 9.20222E-05-2.34698E-05-2.93643E-05 5.50952E-07 3.53291E-19-1.36210E-18
 -1      4205 9.27010E-05-2.43873E-05-2.92696E-05-3.13407E-06 1.05344E-19-6.11907E-19
 -1      4206 9.33595E-05-2.48352E-05-2.93665E-05-3.40457E-06 1.45090E-19-5.90242E-19
 -1      4207 9.36542E-05-2.47950E-05-2.95178E-05-2.91175E-06 6.50114E-20-8.17420E-19
 -1      4208 9.35581E-05-2.28884E-05-3.02709E-05-2.67398E-07 1.92064E-19-8.06801E-19
 -1      4209 8.88577E-05-2.29992E-05-2.82472E-05 3.45033E-06-3.51603E-19 1.75889E-18
 -1      4210 8.83036E-05-2.27235E-05-2.81017E-05 3.93922E-06-2.94556E-19 1.60495E-18
 -1      4211 8.70874E-05-2.19340E-05-2.78784E-05 3.46711E-06-6.25279E-19 1.11655E-18
 -1      4212 8.86628E-05-2.27022E-05-2.82312E-05 2.63071E-06 1.76010E-19 8.71988E-19
 -1      4213 7.50648E-05-1.85453E-05-2.42543E-05-5.65650E-06-5.18601E-20-6.98140E-19
 -1      4214 7.67296E-05-1.99967E-05-2.42384E-05-9.52128E-06-5.21906E-19-1.01243E-18
 -1      4215 8.76954E-05-2.73543E-05-2.58805E-05-1.41888E-05-4.56179E-19-2.57770E-19
 -1      4216 8.23684E-05-2.28139E-05-2.55322E-05 1.10888E-05-1.40632E-18-7.07158E-19
 -1      4217 7.86946E-05-2.04987E-05-2.48351E-05 9.99534E-06-1.20382E-18 3.58303E-19
 -1      4218 7.81502E-05-1.94156E-05-2.52217E-05 6.92502E-06-1.14715E-18 4.55397E-19
 -1      4219 8.27776E-05-2.24245E-05-2.59465E-05 9.91847E-06-1.63079E-18-6.08570E-19
 -1      4220 8.43456E-05-2.19750E-05-2.67732E-05 7.53239E-06-1.93337E-18-7.17081E-19
 -1      4221 8.38151E-05-2.22494E-05-2.63747E-05 8.76409E-06-1.78744E-18-8.79166E-19
 -1      4222 8.14533E-05-2.07094E-05-2.59844E-05 7.63034E-06-1.69189E-18-8.62667E-21
 -1      4223 8.34549E-05-2.09663E-05-2.67437E-05 5.97638E-06-2.30297E-18-6.46124E-19
 -1      4224 7.59603E-05-2.22315E-05-2.30924E-05-1.46946E-05-1.08242E-18-1.31559E-18
 -1      4225 9.03445E-05-2.30530E-05-2.88492E-05 1.52241E-06 3.04987E-19-8.93817E-19
 -1      4226 8.94686E-05-2.26990E-05-2.86265E-05 1.69414E-06 2.77780E-19-7.89294E-19
 -1      4227 8.88116E-05-2.23485E-05-2.84623E-05 6.21505E-07 2.37638E-19-1.26775E-18
 -1      4228 9.43871E-05-2.73186E-05-2.87444E-05-2.90821E-07 1.27023E-18-1.18075E-18
 -1      4229 9.45168E-05-2.74778E-05-2.87326E-05-2.39626E-07 1.82444E-18-1.28540E-18
 -1      4230 9.44841E-05-2.74428E-05-2.87311E-05-1.25885E-07 2.27786E-18 3.84100E-19
 -1      4231 9.42610E-05-2.71859E-05-2.87465E-05-1.68292E-07 1.08005E-18-6.81057E-20
 -1      4232 7.63031E-05-1.74698E-05-2.51499E-05-7.02271E-07-3.56083E-19 4.45823E-19
 -1      4233 7.89026E-05-2.27576E-05-2.41255E-05-1.33589E-05-8.89528E-19-1.07983E-18
 -1      4234 8.44553E-05-2.46980E-05-2.55478E-05-1.30440E-05-5.71562E-19-9.07614E-19
 -1      4235 8.01549E-05-2.21764E-05-2.48530E-05-1.10063E-05-3.64648E-19-1.36306E-18
 -1      4236 9.35657E-05-2.30847E-05-3.02081E-05 5.10970E-07 4.45435E-19-1.22089E-18
 -1      4237 9.06324E-05-2.30692E-05-2.89401E-05 6.16026E-07 3.55355E-19-1.21786E-18
 -1      4238 7.76686E-05-1.81980E-05-2.55236E-05 2.05713E-06-6.53790E-19 3.38231E-19
 -1      4239 9.31651E-05-2.35925E-05-2.98195E-05 8.74754E-07 4.04733E-19-1.32751E-18
 -1      4240 9.28717E-05-2.34796E-05-2.97256E-05 4.24352E-07 3.32781E-19-1.42889E-18
 -1      4241 9.33616E-05-2.34432E-05-2.99734E-05 6.42278E-07 5.34621E-19-1.37594E-18
 -1      4242 9.08191E-05-2.37137E-05-2.87708E-05-3.48723E-06 2.55028E-19-7.79734E-19
 -1      4243 9.14296E-05-2.38733E-05-2.89659E-05-3.02307E-06 2.94115E-19-7.71217E-19
 -1      4244 9.47422E-05-2.77629E-05-2.87064E-05 1.58281E-07 8.22343E-19 1.10257E-18
 -1      4245 9.47752E-05-2.77967E-05-2.87057E-05 2.13376E-07 1.04554E-19 7.09141E-19
 -1      4246 9.47282E-05-2.77303E-05-2.87136E-05 2.51571E-07 4.94594E-19 3.71455E-19
 -1      4247 8.57518E-05-2.26115E-05-2.70647E-05-7.22616E-06 1.25257E-19-9.01837E-19
 -1      4248 8.65185E-05-2.26079E-05-2.74179E-05-6.27771E-06 1.62711E-19-1.13124E-18
 -1      4249 9.14143E-05-2.36159E-05-2.90459E-05-2.16527E-06 3.23700E-19-9.70426E-19
 -1      4250 9.21084E-05-2.40516E-05-2.91687E-05-2.70287E-06 1.57653E-19-7.33755E-19
 -1      4251 9.25832E-05-2.41188E-05-2.93497E-05-2.31644E-06-9.43153E-20-7.53208E-19
 -1      4252 9.08547E-05-2.43936E-05-2.85030E-05-5.93308E-06-3.96747E-21-3.56204E-19
 -1      4253 9.03693E-05-2.38243E-05-2.85034E-05-5.01645E-06-4.29423E-20-7.93033E-19
 -1      4254 9.05006E-05-2.43993E-05-2.83172E-05-6.55438E-06 2.68039E-19-3.93572E-19
 -1      4255 8.17262E-05-2.21725E-05-2.55811E-05-9.75090E-06-1.81579E-19-1.16273E-18
 -1      4256 9.40745E-05-2.44872E-05-2.98311E-05-2.01955E-06 3.09144E-19-7.94568E-19
 -1      4257 9.36262E-05-2.37425E-05-2.99564E-05-1.34512E-06 2.42095E-19-5.60996E-19
 -1      4258 9.33600E-05-2.38991E-05-2.97541E-05-1.43461E-06 1.59966E-19-4.52477E-19
 -1      4259 9.34171E-05-2.34956E-05-2.99734E-05-8.15947E-07 1.53895E-19-6.67128E-19
 -1      4260 9.46763E-05-2.76593E-05-2.87217E-05 2.98710E-07 1.95940E-18 6.68937E-19
 -1      4261 8.35432E-05-2.25306E-05-2.61674E-05-9.03833E-06-7.99615E-20-9.25055E-19
 -1      4262 8.42766E-05-2.22615E-05-2.66266E-05-7.72513E-06 8.87040E-20-1.01664E-18
 -1      4263 8.35265E-05-2.12296E-05-2.66493E-05-5.92053E-06 9.79258E-21-1.59097E-18
 -1      4264 8.02203E-05-2.02665E-05-2.56188E-05-6.86597E-06 1.05162E-19-1.24030E-18
 -1      4265 9.33126E-05-2.31933E-05-3.00577E-05-2.90844E-07 1.43109E-19-8.39421E-19
 -1      4266 9.38879E-05-2.46755E-05-2.96603E-05-2.54054E-06 1.71869E-19-8.04862E-19
 -1      4267 7.47497E-05-1.80357E-05-2.43113E-05-3.71376E-06-2.93753E-19-7.16814E-19
 -1      4268 7.76515E-05-1.92569E-05-2.50420E-05-5.48692E-06-1.26661E-19-9.36092E-19
 -1      4269 7.95496E-05-1.97644E-05-2.56482E-05-5.14585E-06-5.56246E-20-1.08086E-18
 -1      4270 9.46860E-05-2.77032E-05-2.87088E-05 2.34504E-08 2.92587E-18 1.87784E-18
 -1      4271 9.47027E-05-2.77186E-05-2.87080E-05 9.35156E-08 1.69990E-18 1.34358E-18
 -1      4272 9.46463E-05-2.76417E-05-2.87154E-05 1.21052E-07 1.89951E-18 2.21089E-18
 -1      4273 9.45985E-05-2.75829E-05-2.87198E-05-2.55965E-08 3.29626E-18 1.02628E-18
 -1      4274 9.45712E-05-2.75375E-05-2.87261E-05 2.34954E-07 2.03118E-18 1.23057E-18
 -1      4275 9.11648E-05-2.43776E-05-2.86304E-05 8.88218E-07-1.03937E-18 7.44128E-19
 -1      4276 9.06106E-05-2.39426E-05-2.85671E-05 1.06423E-06-1.80042E-18 5.34280E-19
 -1      4277 8.96603E-05-2.33146E-05-2.84526E-05 6.33744E-07-1.37685E-18 2.12858E-20
 -1      4278 8.90057E-05-2.28853E-05-2.83532E-05 8.43829E-07-6.93245E-19-5.88125E-19
 -1      4279 6.84417E-05-1.61827E-05-2.24307E-05 3.03705E-06 5.53897E-20-1.33443E-18
 -1      4280 8.90423E-05-2.36159E-05-2.80280E-05-6.27041E-06-1.89907E-20-7.70317E-19
 -1      4281 8.46898E-05-2.08880E-05-2.73560E-05-1.21424E-06 2.06241E-20-8.84568E-19
 -1      4282 8.31275E-05-2.03483E-05-2.69233E-05-1.43239E-06 1.11641E-19-7.84084E-19
 -1      4283 8.93826E-05-2.26817E-05-2.85931E-05-4.33698E-07 2.80984E-19-1.49203E-18
 -1      4284 8.83453E-05-2.22784E-05-2.83333E-05-5.15205E-07 2.91596E-19-1.33986E-18
 -1      4285 7.12960E-05-1.68290E-05-2.33036E-05 1.51454E-07-1.74284E-19-1.15304E-18
 -1      4286 8.03910E-05-1.89689E-05-2.63632E-05 1.49349E-06-1.51951E-18-5.70195E-19
 -1      4287 8.19722E-05-1.94622E-05-2.67994E-05 1.28067E-06-1.70171E-18-1.56372E-18
 -1      4288 8.40990E-05-2.04709E-05-2.73059E-05 1.93257E-06-1.58795E-18-1.07525E-18
 -1      4289 8.54095E-05-2.10136E-05-2.76209E-05 1.72080E-06-1.66238E-18-1.58822E-18
 -1      4290 8.63197E-05-2.14436E-05-2.78436E-05 1.31774E-06-9.44029E-19-1.01920E-18
 -1      4291 8.73691E-05-2.19505E-05-2.80580E-05 1.20085E-06-2.09692E-19-6.11140E-19
 -1      4292 8.81482E-05-2.23977E-05-2.82099E-05 9.08043E-07-3.64118E-19-2.29593E-19
 -1      4293 9.05475E-05-2.38978E-05-2.85714E-05-6.45605E-08-2.05476E-18-1.21920E-18
 -1      4294 9.11214E-05-2.43272E-05-2.86332E-05-5.51136E-08-1.28978E-18-1.33366E-18
 -1      4295 9.17517E-05-2.48214E-05-2.86884E-05-3.46641E-08-6.45097E-19-9.31834E-19
 -1      4296 9.21775E-05-2.51739E-05-2.87161E-05-2.57196E-08 3.52147E-19-5.78265E-19
 -1      4297 9.27200E-05-2.56699E-05-2.87436E-05 2.05525E-07 6.42339E-19 2.86924E-19
 -1      4298 9.30779E-05-2.59922E-05-2.87567E-05 2.08579E-07 1.05863E-18-5.53943E-19
 -1      4299 9.33616E-05-2.62748E-05-2.87603E-05 1.34909E-07 1.54419E-18-5.67375E-19
 -1      4300 9.36415E-05-2.65422E-05-2.87619E-05 1.46325E-07 1.22215E-18-1.02695E-19
 -1      4301 9.38657E-05-2.67799E-05-2.87579E-05 8.99908E-08 1.22811E-18-1.25201E-19
 -1      4302 9.40835E-05-2.70029E-05-2.87527E-05 1.03604E-07 9.46973E-19 2.13048E-19
 -1      4303 8.99279E-05-2.32683E-05-2.85821E-05-3.09187E-06 1.16015E-19-8.80630E-19
 -1      4304 8.98996E-05-2.30106E-05-2.86566E-05-2.03837E-06 2.61298E-19-1.05837E-18
 -1      4305 9.22006E-05-2.52119E-05-2.87160E-05 6.82693E-07-4.43722E-19 1.22267E-18
 -1      4306 9.17879E-05-2.48606E-05-2.86870E-05 8.19339E-07 1.29291E-20 5.94990E-19
 -1      4307 9.42604E-05-2.71961E-05-2.87442E-05 6.15286E-08 1.41824E-18 7.60276E-19
 -1      4308 8.08247E-05-1.99630E-05-2.60963E-05 5.72318E-06-1.89862E-18 2.58536E-19
 -1      4309 7.92149E-05-1.88069E-05-2.58289E-05 3.79922E-06-1.45105E-18-7.29226E-20
 -1      4310 9.23215E-05-2.35838E-05-2.94665E-05-1.43825E-07 4.21637E-19-1.40899E-18
 -1      4311 9.17329E-05-2.34785E-05-2.92602E-05-1.25819E-07 2.96154E-19-1.21790E-18
 -1      4312 9.33738E-05-2.43246E-05-2.95907E-05-2.34771E-06 7.54265E-20-8.56742E-19
 -1      4313 8.60334E-05-2.19463E-05-2.74527E-05-4.83564E-06 2.61020E-19-1.29491E-18
 -1      4314 8.76459E-05-2.28290E-05-2.77729E-05-5.56773E-06 1.32181E-19-1.02471E-18
 -1      4315 8.83408E-05-2.29562E-05-2.80434E-05-4.88027E-06-1.69099E-19-1.09008E-18
 -1      4316 8.72740E-05-2.18423E-05-2.80488E-05-7.38994E-07 2.67047E-19-1.30855E-18
 -1      4317 8.60054E-05-2.13629E-05-2.77222E-05-8.62993E-07 7.49372E-20-1.10778E-18
 -1      4318 8.57288E-05-2.13877E-05-2.75548E-05-2.55397E-06 1.72899E-19-1.40026E-18
 -1      4319 8.80378E-05-2.22105E-05-2.81973E-05-1.79347E-06 2.32117E-19-1.29366E-18
 -1      4320 7.50485E-05-1.78053E-05-2.45364E-05-1.79464E-06-1.33969E-19-8.40295E-19
 -1      4321 7.76257E-05-1.86089E-05-2.52849E-05-1.81903E-06-1.40402E-19-7.91961E-19
 -1      4322 9.45191E-05-2.74941E-05-2.87271E-05 1.71468E-07 2.56060E-18 2.29947E-18
 -1      4323 7.96643E-05-1.91985E-05-2.59337E-05-1.57202E-06 8.76307E-20-4.84924E-19
 -1      4324 7.94358E-05-1.92887E-05-2.57443E-05-3.35259E-06-9.15457E-20-6.72327E-19
 -1      4325 8.16355E-05-2.03418E-05-2.62833E-05-4.60755E-06 1.36572E-19-1.08589E-18
 -1      4326 8.16457E-05-1.98130E-05-2.65204E-05-1.29360E-06 9.49256E-20-5.52182E-19
 -1      4327 9.28802E-05-2.40950E-05-2.94762E-05-2.03972E-06 9.26494E-21-6.60796E-19
 -1      4328 9.31201E-05-2.40096E-05-2.96243E-05-1.69096E-06 2.06342E-19-5.65860E-19
 -1      4329 9.28744E-05-2.37341E-05-2.96378E-05-1.10894E-06-9.16785E-21-5.11880E-19
 -1      4330 9.23481E-05-2.37857E-05-2.93779E-05-1.60562E-06 8.88971E-21-9.23708E-19
 -1      4331 9.13952E-05-2.45295E-05-2.86501E-05 4.04522E-07-6.74024E-19 7.97150E-19
 -1      4332 9.03122E-05-2.30205E-05-2.88511E-05-1.26123E-07 3.15063E-19-1.37348E-18
 -1      4333 9.00100E-05-2.29380E-05-2.87352E-05-1.19974E-06 2.05718E-19-1.23866E-18
 -1      4334 9.08236E-05-2.33518E-05-2.89125E-05-1.63486E-06 3.47674E-19-1.14158E-18
 -1      4335 9.11178E-05-2.32988E-05-2.90716E-05-1.18138E-07 3.03054E-19-1.31774E-18
 -1      4336 9.03505E-05-2.37719E-05-2.85443E-05 5.80733E-07-2.06990E-18-2.43682E-19
 -1      4337 9.33690E-05-2.31095E-05-3.01123E-05 2.39071E-07 4.05915E-19-1.12138E-18
 -1      4338 9.31100E-05-2.35046E-05-2.98256E-05-2.54191E-07 1.69375E-19-1.05822E-18
 -1      4339 9.43837E-05-2.73297E-05-2.87355E-05-5.89578E-08 1.52497E-18 1.14111E-18
 -1      4340 8.31034E-05-2.07952E-05-2.67235E-05-4.31945E-06 1.26469E-19-1.00736E-18
 -1      4341 9.14726E-05-2.35416E-05-2.91193E-05-1.38991E-06 2.58643E-19-1.22401E-18
 -1      4342 8.30029E-05-2.00865E-05-2.69829E-05 2.43752E-06-2.07289E-18-1.15876E-18
 -1      4343 8.29765E-05-2.03998E-05-2.67829E-05-2.98460E-06 2.21617E-19-8.73268E-19
 -1      4344 9.15343E-05-2.34317E-05-2.91762E-05-8.32362E-07 2.76165E-19-1.44930E-18
 -1      4345 8.92045E-05-2.30361E-05-2.83580E-05-3.56491E-06-6.73238E-20-9.60444E-19
 -1      4346 9.23632E-05-2.53418E-05-2.87277E-05 2.86432E-07 9.54591E-20 6.76788E-19
 -1      4347 9.28142E-05-2.35967E-05-2.96705E-05-2.26105E-07 2.10736E-19-1.14395E-18
 -1      4348 8.45880E-05-2.13012E-05-2.71277E-05-4.23653E-06 2.91113E-19-1.15613E-18
 -1      4349 9.26383E-05-2.36390E-05-2.95665E-05-8.62072E-07 1.70148E-19-1.08953E-18
 -1      4350 8.57302E-05-2.16033E-05-2.75025E-05-3.61436E-06 2.49357E-19-1.09066E-18
 -1      4351 9.45040E-05-2.74667E-05-2.87284E-05-3.96669E-08 1.95423E-18 7.31440E-19
 -1      4352 8.28252E-05-2.02852E-05-2.68239E-05 4.23087E-06-2.57200E-18-1.03112E-18
 -1      4353 8.19098E-05-2.01395E-05-2.65059E-05 4.88048E-06-1.88364E-18-3.73939E-20
 -1      4354 8.70509E-05-2.20402E-05-2.78587E-05-3.14581E-06 1.55532E-19-1.38994E-18
 -1      4355 9.20830E-05-2.37053E-05-2.93064E-05-1.33713E-06 2.45064E-19-1.18783E-18
 -1      4356 9.23902E-05-2.37068E-05-2.94346E-05-1.08538E-06 1.30339E-19-1.06580E-18
 -1      4357 8.80492E-05-2.23657E-05-2.81411E-05-2.79925E-06 5.98395E-20-1.07686E-18
 -3
    1PSTEP                         4           1           1          
  100CL  101 1.000000000        4357                     0    1           1
 -4  ERROR       1    1
 -5  STR(%)      1    1    0    0
 -1         1 1.27737E+01
 -1         2 2.45474E+01
 -1         3 2.08039E-03
 -1         4 2.29260E-03
 -1         5 1.39862E+01
 -1         6 1.30899E+01
 -1         7 1.30899E+01
 -1         8 3.59544E+00
 -1         9 1.78693E+00
 -1        10 1.27786E+00
 -1        11 1.03237E+00
 -1        12 8.78641E-01
 -1        13 7.78376E-01
 -1        14 7.13134E-01
 -1        15 7.16060E-01
 -1        16 7.83176E-01
 -1        17 8.79762E-01
 -1        18 1.03919E+00
 -1        19 1.29696E+00
 -1        20 1.79872E+00
 -1        21 3.43948E+00
 -1        22 8.54938E+00
 -1        23 1.30899E+01
 -1        24 4.34301E+00
 -1        25 3.34659E+00
 -1        26 2.11380E+00
 -1        27 1.45030E+00
 -1        28 1.13204E+00
 -1        29 9.12602E-01
 -1        30 7.48242E-01
 -1        31 6.19449E-01
 -1        32 6.94325E-01
 -1        33 7.68033E-01
 -1        34 8.25597E-01
 -1        35 1.03914E+00
 -1        36 1.32819E+00
 -1        37 1.57746E+00
 -1        38 1.68134E+00
 -1        39 1.68134E+00
 -1        40 1.62067E+00
 -1        41 1.83787E+00
 -1        42 2.72658E+00
 -1        43 4.38262E+00
 -1        44 4.70786E+00
 -1        45 4.74094E+00
 -1        46 4.74094E+00
 -1        47 3.56922E+00
 -1        48 2.08641E+00
 -1        49 1.67667E+00
 -1        50 1.67667E+00
 -1        51 1.62947E+00
 -1        52 1.62947E+00
 -1        53 1.42969E+00
 -1        54 1.15399E+00
 -1        55 9.22478E-01
 -1        56 7.12753E-01
 -1        57 5.83534E-01
 -1        58 4.81309E-01
 -1        59 3.84191E-01
 -1        60 2.98300E-01
 -1        61 2.25871E-01
 -1        62 1.66872E-01
 -1        63 1.20090E-01
 -1        64 9.88817E-02
 -1        65 7.97611E-02
 -1        66 6.24654E-02
 -1        67 4.71267E-02
 -1        68 3.35698E-02
 -1        69 2.23673E-02
 -1        70 1.51909E-02
 -1        71 6.82389E-03
 -1        72 1.39862E+01
 -1        73 3.42949E+00
 -1        74 2.44018E+00
 -1        75 1.69298E+00
 -1        76 1.25173E+00
 -1        77 1.06315E+00
 -1        78 9.19425E-01
 -1        79 8.05707E-01
 -1        80 7.09553E-01
 -1        81 6.19740E-01
 -1        82 6.18360E-01
 -1        83 6.18919E-01
 -1        84 6.18919E-01
 -1        85 7.33456E-01
 -1        86 8.73352E-01
 -1        87 9.26972E-01
 -1        88 1.19453E+00
 -1        89 1.23641E+00
 -1        90 1.47386E+00
 -1        91 1.66958E+00
 -1        92 2.54590E+00
 -1        93 2.89663E+00
 -1        94 3.30666E+00
 -1        95 3.30666E+00
 -1        96 3.00350E+00
 -1        97 2.03816E+00
 -1        98 1.28144E+00
 -1        99 8.97047E-01
 -1       100 9.79108E-01
 -1       101 1.05900E+00
 -1       102 1.05900E+00
 -1       103 9.99270E-01
 -1       104 8.66886E-01
 -1       105 7.29929E-01
 -1       106 5.95255E-01
 -1       107 4.64771E-01
 -1       108 3.48672E-01
 -1       109 2.68512E-01
 -1       110 2.09077E-01
 -1       111 1.58048E-01
 -1       112 1.15930E-01
 -1       113 8.22409E-02
 -1       114 5.59936E-02
 -1       115 4.31540E-02
 -1       116 3.47096E-02
 -1       117 2.63822E-02
 -1       118 1.86335E-02
 -1       119 1.43445E-02
 -1       120 7.61117E-03
 -1       121 3.68994E-03
 -1       122 1.87469E-03
 -1       123 1.97170E-03
 -1       124 1.97170E-03
 -1       125 1.33895E-03
 -1       126 7.97448E-04
 -1       127 1.34588E-03
 -1       128 1.51967E-03
 -1       129 1.51967E-03
 -1       130 1.32072E-03
 -1       131 7.40799E-04
 -1       132 1.44038E-03
 -1       133 2.08669E-03
 -1       134 2.08669E-03
 -1       135 1.63092E-03
 -1       136 3.44063E-03
 -1       137 2.46727E+01
 -1       138 4.71054E+01
 -1       139 4.71054E+01
 -1       140 1.95310E+01
 -1       141 1.28125E+01
 -1       142 1.28125E+01
 -1       143 1.24210E+01
 -1       144 1.24210E+01
 -1       145 1.21030E+01
 -1       146 1.34181E+01
 -1       147 3.32893E+01
 -1       148 3.32893E+01
 -1       149 2.66894E+01
 -1       150 2.63364E+01
 -1       151 2.63364E+01
 -1       152 2.74473E+01
 -1       153 3.04158E+01
 -1       154 3.04158E+01
 -1       155 1.29443E+01
 -1       156 1.21277E+01
 -1       157 1.20469E+01
 -1       158 1.27737E+01
 -1       159 1.19395E+01
 -1       160 2.40052E+01
 -1       161 3.26706E+01
 -1       162 3.26706E+01
 -1       163 2.46779E+01
 -1       164 5.97871E+00
 -1       165 2.25742E+00
 -1       166 1.50106E+00
 -1       167 1.14999E+00
 -1       168 9.58305E-01
 -1       169 8.39490E-01
 -1       170 7.61225E-01
 -1       171 7.14018E-01
 -1       172 7.64899E-01
 -1       173 8.42421E-01
 -1       174 9.66158E-01
 -1       175 1.16493E+00
 -1       176 1.52144E+00
 -1       177 2.24750E+00
 -1       178 3.87478E+00
 -1       179 1.39862E+01
 -1       180 4.34301E+00
 -1       181 3.34659E+00
 -1       182 2.11380E+00
 -1       183 1.45030E+00
 -1       184 1.13204E+00
 -1       185 9.12602E-01
 -1       186 7.48242E-01
 -1       187 6.14572E-01
 -1       188 6.19449E-01
 -1       189 6.94325E-01
 -1       190 7.68033E-01
 -1       191 9.01361E-01
 -1       192 1.08526E+00
 -1       193 1.32819E+00
 -1       194 1.57746E+00
 -1       195 1.68134E+00
 -1       196 1.62067E+00
 -1       197 1.60718E+00
 -1       198 1.83787E+00
 -1       199 2.72888E+00
 -1       200 4.38262E+00
 -1       201 4.70786E+00
 -1       202 4.74094E+00
 -1       203 3.56922E+00
 -1       204 2.10092E+00
 -1       205 1.45889E+00
 -1       206 1.67667E+00
 -1       207 1.62082E+00
 -1       208 1.62947E+00
 -1       209 1.42969E+00
 -1       210 1.18209E+00
 -1       211 1.01361E+00
 -1       212 8.60987E-01
 -1       213 6.94796E-01
 -1       214 5.37893E-01
 -1       215 4.01594E-01
 -1       216 2.98300E-01
 -1       217 2.32306E-01
 -1       218 1.77481E-01
 -1       219 1.32568E-01
 -1       220 9.88817E-02
 -1       221 7.97611E-02
 -1       222 6.24654E-02
 -1       223 4.71267E-02
 -1       224 3.35698E-02
 -1       225 2.32424E-02
 -1       226 1.51909E-02
 -1       227 7.45129E-03
 -1       228 3.42949E+00
 -1       229 2.44018E+00
 -1       230 1.69298E+00
 -1       231 1.25173E+00
 -1       232 1.06315E+00
 -1       233 9.19425E-01
 -1       234 8.05707E-01
 -1       235 7.09553E-01
 -1       236 6.19740E-01
 -1       237 5.93677E-01
 -1       238 6.18360E-01
 -1       239 6.18919E-01
 -1       240 6.14149E-01
 -1       241 7.33456E-01
 -1       242 8.73352E-01
 -1       243 9.26972E-01
 -1       244 1.19453E+00
 -1       245 1.23641E+00
 -1       246 1.47386E+00
 -1       247 1.82344E+00
 -1       248 2.54590E+00
 -1       249 2.89663E+00
 -1       250 3.30666E+00
 -1       251 3.00350E+00
 -1       252 2.03816E+00
 -1       253 1.28144E+00
 -1       254 8.26960E-01
 -1       255 8.97047E-01
 -1       256 9.79108E-01
 -1       257 1.05900E+00
 -1       258 9.99270E-01
 -1       259 8.66886E-01
 -1       260 7.29929E-01
 -1       261 6.05071E-01
 -1       262 4.86922E-01
 -1       263 3.76714E-01
 -1       264 2.80849E-01
 -1       265 2.09077E-01
 -1       266 1.58048E-01
 -1       267 1.15930E-01
 -1       268 8.46348E-02
 -1       269 5.97906E-02
 -1       270 4.31540E-02
 -1       271 3.47096E-02
 -1       272 2.63822E-02
 -1       273 1.86335E-02
 -1       274 1.43445E-02
 -1       275 7.61117E-03
 -1       276 3.32637E-03
 -1       277 3.80526E-03
 -1       278 3.80526E-03
 -1       279 3.31542E-03
 -1       280 1.93104E-03
 -1       281 3.06658E-03
 -1       282 3.57763E-03
 -1       283 3.57763E-03
 -1       284 3.57389E-03
 -1       285 3.00328E-03
 -1       286 2.06760E-03
 -1       287 3.50878E-03
 -1       288 4.45915E-03
 -1       289 4.45915E-03
 -1       290 5.18049E-03
 -1       291 2.96617E+01
 -1       292 2.84894E+01
 -1       293 4.71054E+01
 -1       294 2.09162E+01
 -1       295 1.08669E+01
 -1       296 1.28125E+01
 -1       297 1.20167E+01
 -1       298 1.24210E+01
 -1       299 1.21030E+01
 -1       300 1.13501E+01
 -1       301 1.34181E+01
 -1       302 3.32893E+01
 -1       303 3.07733E+01
 -1       304 2.71017E+01
 -1       305 3.28894E+01
 -1       306 2.52177E+01
 -1       307 2.96226E+01
 -1       308 3.04158E+01
 -1       309 1.29443E+01
 -1       310 1.21277E+01
 -1       311 1.20469E+01
 -1       312 1.15700E+01
 -1       313 1.27737E+01
 -1       314 1.18496E+01
 -1       315 1.19395E+01
 -1       316 2.59639E+01
 -1       317 3.26706E+01
 -1       318 3.11907E+01
 -1       319 2.96617E+01
 -1       320 1.02699E+00
 -1       321 2.41811E+00
 -1       322 7.88302E-01
 -1       323 6.81206E-01
 -1       324 6.10334E-01
 -1       325 5.58755E-01
 -1       326 5.62315E-01
 -1       327 6.13435E-01
 -1       328 6.88107E-01
 -1       329 7.89850E-01
 -1       330 9.29387E-01
 -1       331 1.13860E+00
 -1       332 1.29505E+00
 -1       333 2.15930E+00
 -1       334 1.85512E+00
 -1       335 1.71258E+00
 -1       336 1.23375E+00
 -1       337 8.51751E-01
 -1       338 7.03740E-01
 -1       339 5.92755E-01
 -1       340 4.83479E-01
 -1       341 4.55853E-01
 -1       342 5.26132E-01
 -1       343 6.04803E-01
 -1       344 7.83586E-01
 -1       345 9.36757E-01
 -1       346 1.07035E+00
 -1       347 1.22562E+00
 -1       348 1.26706E+00
 -1       349 1.15181E+00
 -1       350 1.15631E+00
 -1       351 1.13524E+00
 -1       352 1.82891E+00
 -1       353 2.43347E+00
 -1       354 2.79169E+00
 -1       355 2.78573E+00
 -1       356 2.69773E+00
 -1       357 2.03439E+00
 -1       358 1.41394E+00
 -1       359 1.20347E+00
 -1       360 1.09007E+00
 -1       361 1.22465E+00
 -1       362 1.26939E+00
 -1       363 1.16270E+00
 -1       364 1.04233E+00
 -1       365 9.29884E-01
 -1       366 7.85229E-01
 -1       367 6.35669E-01
 -1       368 4.97230E-01
 -1       369 3.77549E-01
 -1       370 2.78868E-01
 -1       371 2.00373E-01
 -1       372 1.39759E-01
 -1       373 9.66900E-02
 -1       374 6.88731E-02
 -1       375 5.00186E-02
 -1       376 3.69988E-02
 -1       377 2.84792E-02
 -1       378 2.03175E-02
 -1       379 1.26721E-02
 -1       380 8.97910E-03
 -1       381 1.13493E+00
 -1       382 8.38255E-01
 -1       383 6.35565E-01
 -1       384 6.01373E-01
 -1       385 5.58536E-01
 -1       386 5.09550E-01
 -1       387 4.54014E-01
 -1       388 4.90656E-01
 -1       389 5.37853E-01
 -1       390 6.44212E-01
 -1       391 7.07611E-01
 -1       392 7.07611E-01
 -1       393 6.86823E-01
 -1       394 5.40639E-01
 -1       395 5.42727E-01
 -1       396 8.63493E-01
 -1       397 1.41637E+00
 -1       398 1.72041E+00
 -1       399 1.72041E+00
 -1       400 1.67963E+00
 -1       401 1.89761E+00
 -1       402 1.93404E+00
 -1       403 1.50359E+00
 -1       404 9.54712E-01
 -1       405 6.15294E-01
 -1       406 5.76810E-01
 -1       407 7.15976E-01
 -1       408 7.58260E-01
 -1       409 7.73230E-01
 -1       410 7.14675E-01
 -1       411 6.40240E-01
 -1       412 5.53675E-01
 -1       413 4.56608E-01
 -1       414 3.61882E-01
 -1       415 2.76776E-01
 -1       416 2.04566E-01
 -1       417 1.54235E-01
 -1       418 1.15916E-01
 -1       419 8.46348E-02
 -1       420 5.97906E-02
 -1       421 4.05266E-02
 -1       422 2.64309E-02
 -1       423 1.93391E-02
 -1       424 1.41812E-02
 -1       425 8.99225E-03
 -1       426 4.00464E-03
 -1       427 5.24884E-03
 -1       428 5.54309E-03
 -1       429 5.54309E-03
 -1       430 4.05592E-03
 -1       431 4.98892E-03
 -1       432 6.02729E-03
 -1       433 6.02729E-03
 -1       434 6.00563E-03
 -1       435 6.00563E-03
 -1       436 4.97290E-03
 -1       437 4.05057E-03
 -1       438 5.19837E-03
 -1       439 5.79283E-03
 -1       440 2.84894E+01
 -1       441 3.04237E+01
 -1       442 2.98022E+01
 -1       443 1.62951E+01
 -1       444 9.02006E+00
 -1       445 9.08398E-01
 -1       446 1.03331E+01
 -1       447 1.08477E+01
 -1       448 9.48609E+00
 -1       449 8.91298E+00
 -1       450 6.73994E+00
 -1       451 1.28476E+01
 -1       452 2.06523E+01
 -1       453 2.35830E+01
 -1       454 3.21875E+01
 -1       455 3.28894E+01
 -1       456 2.30205E+01
 -1       457 1.97934E+01
 -1       458 1.15742E+01
 -1       459 7.19494E+00
 -1       460 9.60289E+00
 -1       461 1.15700E+01
 -1       462 1.10734E+01
 -1       463 9.07908E+00
 -1       464 7.40193E+00
 -1       465 1.02369E+01
 -1       466 1.82302E+01
 -1       467 3.11907E+01
 -1       468 3.04237E+01
 -1       469 6.98113E+00
 -1       470 7.19945E+00
 -1       471 1.75529E+01
 -1       472 3.28894E+01
 -1       473 1.77318E+01
 -1       474 1.01700E+00
 -1       475 4.73427E-01
 -1       476 5.11191E-01
 -1       477 4.01096E-01
 -1       478 4.35402E-01
 -1       479 4.74759E-01
 -1       480 5.08134E-01
 -1       481 5.12544E-01
 -1       482 6.14792E-01
 -1       483 8.38255E-01
 -1       484 7.43570E-01
 -1       485 4.66132E+00
 -1       486 6.33433E-01
 -1       487 4.84483E-01
 -1       488 3.90434E-01
 -1       489 3.24192E-01
 -1       490 2.75050E-01
 -1       491 3.35789E-01
 -1       492 4.96501E-01
 -1       493 6.73321E-01
 -1       494 8.51019E-01
 -1       495 1.01191E+00
 -1       496 1.12820E+00
 -1       497 1.34608E+00
 -1       498 1.56322E+00
 -1       499 1.72969E+00
 -1       500 2.19646E+00
 -1       501 3.16445E+00
 -1       502 3.08600E+00
 -1       503 4.03005E+00
 -1       504 4.03101E+00
 -1       505 3.32724E+00
 -1       506 2.39090E+00
 -1       507 1.97267E+00
 -1       508 2.17000E+00
 -1       509 1.74275E+00
 -1       510 1.56107E+00
 -1       511 1.38485E+00
 -1       512 1.20955E+00
 -1       513 1.11043E+00
 -1       514 9.71157E-01
 -1       515 8.09285E-01
 -1       516 6.54818E-01
 -1       517 5.18872E-01
 -1       518 4.04421E-01
 -1       519 3.08403E-01
 -1       520 2.30286E-01
 -1       521 1.68328E-01
 -1       522 1.20284E-01
 -1       523 8.38246E-02
 -1       524 5.67657E-02
 -1       525 3.71786E-02
 -1       526 2.41822E-02
 -1       527 1.70830E-02
 -1       528 1.19957E-02
 -1       529 5.11665E-01
 -1       530 4.31158E-01
 -1       531 3.37457E-01
 -1       532 3.42724E-01
 -1       533 3.82660E-01
 -1       534 4.63673E-01
 -1       535 5.59780E-01
 -1       536 6.44212E-01
 -1       537 7.07611E-01
 -1       538 7.35669E-01
 -1       539 6.90362E-01
 -1       540 8.28171E-01
 -1       541 8.85890E-01
 -1       542 1.22484E+00
 -1       543 1.48013E+00
 -1       544 1.81398E+00
 -1       545 1.88015E+00
 -1       546 2.06636E+00
 -1       547 1.74021E+00
 -1       548 1.46266E+00
 -1       549 1.13891E+00
 -1       550 8.50101E-01
 -1       551 8.04053E-01
 -1       552 7.39595E-01
 -1       553 7.85003E-01
 -1       554 7.56254E-01
 -1       555 6.99127E-01
 -1       556 6.35749E-01
 -1       557 5.64181E-01
 -1       558 4.77530E-01
 -1       559 3.88895E-01
 -1       560 3.06371E-01
 -1       561 2.34178E-01
 -1       562 1.73863E-01
 -1       563 1.25305E-01
 -1       564 8.74567E-02
 -1       565 5.88473E-02
 -1       566 3.91409E-02
 -1       567 2.78785E-02
 -1       568 1.97181E-02
 -1       569 1.41812E-02
 -1       570 9.99460E-03
 -1       571 7.28335E-03
 -1       572 9.16712E-03
 -1       573 1.04760E-02
 -1       574 1.04760E-02
 -1       575 9.39592E-03
 -1       576 9.43555E-03
 -1       577 9.43555E-03
 -1       578 9.21789E-03
 -1       579 7.25434E-03
 -1       580 6.69226E-03
 -1       581 5.19837E-03
 -1       582 2.98022E+01
 -1       583 1.32673E+01
 -1       584 6.21931E-01
 -1       585 3.04237E+01
 -1       586 2.10771E+01
 -1       587 8.37987E-01
 -1       588 2.09591E+01
 -1       589 6.87985E+00
 -1       590 1.27612E+01
 -1       591 3.63139E+00
 -1       592 4.34782E-01
 -1       593 6.22513E+00
 -1       594 7.08619E+00
 -1       595 7.90920E+00
 -1       596 5.97437E+00
 -1       597 4.48873E+00
 -1       598 2.35830E+01
 -1       599 2.30205E+01
 -1       600 1.18039E+01
 -1       601 8.60908E+00
 -1       602 5.92585E+00
 -1       603 6.42063E+00
 -1       604 7.80031E+00
 -1       605 4.36993E+00
 -1       606 6.56568E+00
 -1       607 1.54263E+01
 -1       608 1.28122E+00
 -1       609 9.40099E+00
 -1       610 5.50504E-01
 -1       611 5.48034E+00
 -1       612 1.34784E+01
 -1       613 1.95524E+01
 -1       614 4.03695E+00
 -1       615 1.26240E+01
 -1       616 8.97910E-03
 -1       617 3.41996E-01
 -1       618 3.11615E-01
 -1       619 3.61236E-01
 -1       620 3.53372E-01
 -1       621 4.92812E-01
 -1       622 1.25446E+01
 -1       623 1.49107E+01
 -1       624 5.97752E+00
 -1       625 3.82063E+00
 -1       626 2.99547E-01
 -1       627 2.42212E-01
 -1       628 1.68013E-01
 -1       629 1.43107E-01
 -1       630 2.42881E-01
 -1       631 3.80145E-01
 -1       632 5.43233E-01
 -1       633 7.32877E-01
 -1       634 9.49360E-01
 -1       635 1.18924E+00
 -1       636 1.43712E+00
 -1       637 1.75323E+00
 -1       638 2.25173E+00
 -1       639 2.95964E+00
 -1       640 3.75927E+00
 -1       641 5.31374E+00
 -1       642 5.97324E+00
 -1       643 3.32724E+00
 -1       644 2.43177E+00
 -1       645 2.82728E+00
 -1       646 2.89350E+00
 -1       647 2.51606E+00
 -1       648 1.98433E+00
 -1       649 1.55421E+00
 -1       650 1.34259E+00
 -1       651 1.12094E+00
 -1       652 9.15687E-01
 -1       653 7.35815E-01
 -1       654 5.82780E-01
 -1       655 4.55110E-01
 -1       656 3.50318E-01
 -1       657 2.65615E-01
 -1       658 1.98193E-01
 -1       659 1.45360E-01
 -1       660 1.04619E-01
 -1       661 7.37417E-02
 -1       662 5.07865E-02
 -1       663 3.40874E-02
 -1       664 2.22709E-02
 -1       665 1.40943E-02
 -1       666 2.10968E-01
 -1       667 1.49173E-02
 -1       668 2.65385E-01
 -1       669 2.84227E-01
 -1       670 4.03089E-01
 -1       671 5.19591E-01
 -1       672 6.21614E-01
 -1       673 7.24958E-01
 -1       674 8.69146E-01
 -1       675 9.86554E-01
 -1       676 1.06470E+00
 -1       677 1.33005E+00
 -1       678 1.64061E+00
 -1       679 1.82632E+00
 -1       680 2.05185E+00
 -1       681 3.52426E+00
 -1       682 4.37656E+00
 -1       683 3.93271E+00
 -1       684 2.49708E+00
 -1       685 1.50172E+00
 -1       686 1.39209E+00
 -1       687 1.33094E+00
 -1       688 1.00184E+00
 -1       689 9.52434E-01
 -1       690 8.48147E-01
 -1       691 7.56254E-01
 -1       692 6.87915E-01
 -1       693 5.99857E-01
 -1       694 5.00946E-01
 -1       695 4.03994E-01
 -1       696 3.18292E-01
 -1       697 2.46224E-01
 -1       698 1.87897E-01
 -1       699 1.40207E-01
 -1       700 1.02240E-01
 -1       701 7.27530E-02
 -1       702 5.04124E-02
 -1       703 3.39384E-02
 -1       704 2.17934E-02
 -1       705 1.52870E-02
 -1       706 9.17461E+00
 -1       707 1.41348E-02
 -1       708 8.81126E-03
 -1       709 1.30607E-02
 -1       710 1.41897E-02
 -1       711 1.41348E-02
 -1       712 1.41897E-02
 -1       713 1.30853E-02
 -1       714 1.18959E-02
 -1       715 9.65915E-03
 -1       716 7.92000E+00
 -1       717 1.51657E+01
 -1       718 1.11927E+01
 -1       719 5.50504E-01
 -1       720 9.44412E+00
 -1       721 3.42495E-01
 -1       722 1.99039E-01
 -1       723 3.58046E-01
 -1       724 4.31646E-01
 -1       725 1.06130E+01
 -1       726 1.06280E+01
 -1       727 3.61236E-01
 -1       728 3.59607E+00
 -1       729 1.34105E+01
 -1       730 3.56691E-01
 -1       731 2.96086E+00
 -1       732 1.63831E+01
 -1       733 3.88965E+00
 -1       734 2.72675E+00
 -1       735 4.93556E+00
 -1       736 4.03005E+00
 -1       737 5.64830E+00
 -1       738 5.49858E+00
 -1       739 5.17290E+00
 -1       740 4.09084E-01
 -1       741 3.10137E-01
 -1       742 4.60894E+00
 -1       743 3.08600E+00
 -1       744 1.49173E-02
 -1       745 1.06376E+01
 -1       746 2.60638E+00
 -1       747 3.39207E-01
 -1       748 5.87373E+00
 -1       749 1.10516E+01
 -1       750 2.55346E-01
 -1       751 3.52426E+00
 -1       752 1.35013E-01
 -1       753 1.73149E-01
 -1       754 2.42248E-01
 -1       755 3.41711E-01
 -1       756 4.70953E-01
 -1       757 6.42633E-01
 -1       758 8.48202E-01
 -1       759 1.11756E+00
 -1       760 1.49238E+00
 -1       761 2.04114E+00
 -1       762 2.82043E+00
 -1       763 4.26122E+00
 -1       764 6.39690E+00
 -1       765 3.98767E+00
 -1       766 2.86032E+00
 -1       767 2.31794E+00
 -1       768 1.75975E+00
 -1       769 1.31439E+00
 -1       770 1.02286E+00
 -1       771 8.12695E-01
 -1       772 6.52153E-01
 -1       773 5.11125E-01
 -1       774 3.92512E-01
 -1       775 2.95712E-01
 -1       776 2.18522E-01
 -1       777 1.58219E-01
 -1       778 1.12568E-01
 -1       779 7.96283E-02
 -1       780 5.50959E-02
 -1       781 3.85666E-02
 -1       782 2.62298E-02
 -1       783 2.00887E-02
 -1       784 1.15334E-01
 -1       785 4.64401E-01
 -1       786 3.34860E-01
 -1       787 7.62340E-01
 -1       788 9.08383E-01
 -1       789 1.16247E+00
 -1       790 1.46023E+00
 -1       791 1.72823E+00
 -1       792 1.70574E+00
 -1       793 2.59480E+00
 -1       794 2.60638E+00
 -1       795 2.49708E+00
 -1       796 2.52875E+00
 -1       797 1.99605E+00
 -1       798 1.64758E+00
 -1       799 1.41715E+00
 -1       800 1.16383E+00
 -1       801 9.35702E-01
 -1       802 8.09438E-01
 -1       803 6.78291E-01
 -1       804 5.59132E-01
 -1       805 4.49178E-01
 -1       806 3.53791E-01
 -1       807 2.75639E-01
 -1       808 2.11381E-01
 -1       809 1.59473E-01
 -1       810 1.18254E-01
 -1       811 8.60782E-02
 -1       812 6.14103E-02
 -1       813 4.28800E-02
 -1       814 2.88449E-02
 -1       815 1.98974E-02
 -1       816 1.95626E-02
 -1       817 1.98974E-02
 -1       818 3.93271E+00
 -1       819 1.56251E-01
 -1       820 9.71668E+00
 -1       821 1.06376E+01
 -1       822 6.09013E-01
 -1       823 2.47246E-01
 -1       824 9.31038E+00
 -1       825 7.76549E+00
 -1       826 9.02963E+00
 -1       827 7.85418E+00
 -1       828 1.46728E-01
 -1       829 9.04181E+00
 -1       830 7.95871E+00
 -1       831 3.21687E+00
 -1       832 9.71668E+00
 -1       833 3.17597E+00
 -1       834 2.00887E-02
 -1       835 7.39222E+00
 -1       836 5.96544E+00
 -1       837 2.58833E-01
 -1       838 4.37656E+00
 -1       839 3.12802E+00
 -1       840 2.34596E-01
 -1       841 9.04181E+00
 -1       842 2.77300E-01
 -1       843 1.74714E-02
 -1       844 1.61817E-01
 -1       845 1.98858E-02
 -1       846 2.28222E-01
 -1       847 2.16165E-02
 -1       848 2.72385E-01
 -1       849 1.98858E-02
 -1       850 3.89224E+00
 -1       851 7.67298E+00
 -1       852 1.71564E-02
 -1       853 8.10037E+00
 -1       854 1.78356E-01
 -1       855 2.72385E-01
 -1       856 2.72639E-01
 -1       857 2.77300E-01
 -1       858 3.13900E+00
 -1       859 2.40157E-01
 -1       860 3.20992E-01
 -1       861 4.54023E-01
 -1       862 6.30062E-01
 -1       863 8.48202E-01
 -1       864 1.11756E+00
 -1       865 1.44370E+00
 -1       866 1.96883E+00
 -1       867 2.35713E+00
 -1       868 3.31152E+00
 -1       869 4.93899E+00
 -1       870 3.91451E+00
 -1       871 2.98285E+00
 -1       872 2.31400E+00
 -1       873 1.67588E+00
 -1       874 1.29573E+00
 -1       875 1.02286E+00
 -1       876 7.99675E-01
 -1       877 6.20683E-01
 -1       878 4.77653E-01
 -1       879 3.63824E-01
 -1       880 2.73817E-01
 -1       881 2.03212E-01
 -1       882 1.48425E-01
 -1       883 1.06452E-01
 -1       884 7.46878E-02
 -1       885 5.17699E-02
 -1       886 3.54338E-02
 -1       887 2.46945E-02
 -1       888 6.21017E+00
 -1       889 1.29666E+00
 -1       890 9.91378E-01
 -1       891 1.75927E+00
 -1       892 2.72250E+00
 -1       893 2.12807E+00
 -1       894 1.58354E+00
 -1       895 1.28578E+00
 -1       896 1.01354E+00
 -1       897 7.83974E-01
 -1       898 6.19868E-01
 -1       899 4.97665E-01
 -1       900 4.07427E-01
 -1       901 3.24603E-01
 -1       902 2.52534E-01
 -1       903 1.92058E-01
 -1       904 1.42744E-01
 -1       905 1.03612E-01
 -1       906 7.33053E-02
 -1       907 5.14875E-02
 -1       908 3.52530E-02
 -1       909 7.67298E+00
 -1       910 2.91490E-02
 -1       911 2.91490E-02
 -1       912 6.27967E+00
 -1       913 5.27788E+00
 -1       914 6.65718E+00
 -1       915 1.48186E-01
 -1       916 2.50626E+00
 -1       917 1.69234E-01
 -1       918 6.51437E+00
 -1       919 4.37514E-01
 -1       920 2.56041E-01
 -1       921 1.85616E-01
 -1       922 1.68557E+00
 -1       923 7.08197E+00
 -1       924 2.46945E-02
 -1       925 7.08197E+00
 -1       926 6.95075E+00
 -1       927 1.72481E-01
 -1       928 6.11727E+00
 -1       929 2.34215E-01
 -1       930 6.52022E+00
 -1       931 3.24397E-01
 -1       932 1.20482E-01
 -1       933 7.35257E-01
 -1       934 5.76315E-01
 -1       935 4.58405E+00
 -1       936 2.60503E-02
 -1       937 1.86248E-01
 -1       938 2.88774E-02
 -1       939 1.68122E-01
 -1       940 2.69313E-02
 -1       941 3.56040E+00
 -1       942 1.84830E-01
 -1       943 1.27014E-01
 -1       944 2.23663E-01
 -1       945 6.52022E+00
 -1       946 6.87131E+00
 -1       947 1.89951E-01
 -1       948 3.89020E-01
 -1       949 5.43321E-01
 -1       950 7.46862E-01
 -1       951 1.02358E+00
 -1       952 1.41998E+00
 -1       953 1.96883E+00
 -1       954 6.06276E+00
 -1       955 1.31435E+00
 -1       956 3.55296E+00
 -1       957 2.27932E+00
 -1       958 1.67588E+00
 -1       959 1.22805E+00
 -1       960 9.15169E-01
 -1       961 6.92229E-01
 -1       962 5.27250E-01
 -1       963 4.01550E-01
 -1       964 3.04503E-01
 -1       965 2.29118E-01
 -1       966 1.70431E-01
 -1       967 1.25085E-01
 -1       968 9.02350E-02
 -1       969 6.36981E-02
 -1       970 4.36637E-02
 -1       971 3.32158E-02
 -1       972 2.88774E-02
 -1       973 1.30313E+00
 -1       974 2.13765E+00
 -1       975 4.07092E+00
 -1       976 9.72302E-01
 -1       977 7.58746E-01
 -1       978 6.19868E-01
 -1       979 4.97321E-01
 -1       980 3.92511E-01
 -1       981 3.05138E-01
 -1       982 2.33822E-01
 -1       983 1.76152E-01
 -1       984 1.30447E-01
 -1       985 9.47437E-02
 -1       986 6.72181E-02
 -1       987 4.65827E-02
 -1       988 2.44826E-01
 -1       989 3.71509E+00
 -1       990 1.86248E-01
 -1       991 6.87131E+00
 -1       992 2.40246E-01
 -1       993 3.42143E-02
 -1       994 1.64387E-01
 -1       995 3.77759E-02
 -1       996 2.72007E-01
 -1       997 2.08119E-01
 -1       998 4.83598E+00
 -1       999 4.20620E+00
 -1      1000 4.98881E+00
 -1      1001 5.13896E+00
 -1      1002 1.69234E-01
 -1      1003 2.37149E+00
 -1      1004 4.65346E+00
 -1      1005 4.37514E-01
 -1      1006 9.78303E-01
 -1      1007 1.78773E-01
 -1      1008 5.76315E-01
 -1      1009 3.77759E-02
 -1      1010 3.42143E-02
 -1      1011 2.40246E-01
 -1      1012 3.41246E+00
 -1      1013 3.75962E+00
 -1      1014 9.83170E-02
 -1      1015 5.13896E+00
 -1      1016 2.47493E-01
 -1      1017 1.57021E-01
 -1      1018 5.62243E-01
 -1      1019 7.67558E-01
 -1      1020 1.07609E+00
 -1      1021 1.56577E+00
 -1      1022 2.51878E+00
 -1      1023 3.18150E-01
 -1      1024 2.13917E+00
 -1      1025 1.32738E+00
 -1      1026 9.34086E-01
 -1      1027 6.86704E-01
 -1      1028 5.16937E-01
 -1      1029 3.93074E-01
 -1      1030 2.99500E-01
 -1      1031 2.27284E-01
 -1      1032 1.72095E-01
 -1      1033 1.28532E-01
 -1      1034 9.45441E-02
 -1      1035 6.84033E-02
 -1      1036 1.58143E+00
 -1      1037 3.43810E-02
 -1      1038 9.72302E-01
 -1      1039 1.24473E+00
 -1      1040 1.89951E-01
 -1      1041 7.50169E-01
 -1      1042 5.78212E-01
 -1      1043 4.45287E-01
 -1      1044 3.40568E-01
 -1      1045 2.58999E-01
 -1      1046 1.95590E-01
 -1      1047 1.46217E-01
 -1      1048 1.07537E-01
 -1      1049 7.76400E-02
 -1      1050 5.47379E-02
 -1      1051 9.58848E-02
 -1      1052 7.32982E-01
 -1      1053 3.41246E+00
 -1      1054 4.05693E-02
 -1      1055 3.30073E-01
 -1      1056 3.01938E+00
 -1      1057 2.40246E-01
 -1      1058 2.45623E-01
 -1      1059 2.87538E+00
 -1      1060 4.33618E-01
 -1      1061 2.88433E+00
 -1      1062 3.96297E-01
 -1      1063 3.44092E+00
 -1      1064 5.44867E-02
 -1      1065 1.48343E+00
 -1      1066 5.88367E-01
 -1      1067 6.06276E+00
 -1      1068 2.74403E+00
 -1      1069 2.35380E+00
 -1      1070 4.83061E-02
 -1      1071 6.91295E-01
 -1      1072 2.02462E-01
 -1      1073 6.68787E-01
 -1      1074 1.20741E+00
 -1      1075 4.10733E-01
 -1      1076 9.19873E-01
 -1      1077 1.26693E+00
 -1      1078 2.51878E+00
 -1      1079 2.13917E+00
 -1      1080 3.44092E+00
 -1      1081 1.20741E+00
 -1      1082 9.02753E-01
 -1      1083 6.68787E-01
 -1      1084 4.86256E-01
 -1      1085 3.23306E-01
 -1      1086 2.81700E-01
 -1      1087 1.97525E-01
 -1      1088 1.53637E-01
 -1      1089 1.13909E-01
 -1      1090 9.08187E-02
 -1      1091 9.78303E-01
 -1      1092 1.20741E+00
 -1      1093 4.86256E-01
 -1      1094 2.69615E-01
 -1      1095 1.97525E-01
 -1      1096 1.97525E-01
 -1      1097 1.53637E-01
 -1      1098 1.13909E-01
 -1      1099 8.01023E-02
 -1      1100 2.47798E+00
 -1      1101 3.07134E-01
 -1      1102 2.90314E-01
 -1      1103 9.02753E-01
 -1      1104 2.35380E+00
 -1      1105 1.95749E+00
 -1      1106 1.27450E+00
 -1      1107 5.32943E-01
 -1      1108 9.08187E-02
 -1      1109 1.93926E-01
 -1      1110 4.92051E-01
 -1      1111 4.04530E-02
 -1      1112 1.17280E+00
 -1      1113 3.38380E-01
 -1      1114 7.32982E-01
 -1      1115 2.35868E-01
 -1      1116 2.65155E-01
 -1      1117 1.74382E+00
 -1      1118 2.11163E+00
 -1      1119 9.08187E-02
 -1      1120 2.81700E-01
 -1      1121 9.21230E-01
 -1      1122 6.24947E-01
 -1      1123 1.63916E+00
 -1      1124 2.81700E-01
 -1      1125 3.15727E-01
 -1      1126 8.58873E-01
 -1      1127 7.41750E-01
 -1      1128 1.35416E+00
 -1      1129 2.43873E-01
 -1      1130 4.92051E-01
 -1      1131 1.30899E+01
 -1      1132 8.34267E+00
 -1      1133 2.69119E+00
 -1      1134 1.53239E+00
 -1      1135 1.15511E+00
 -1      1136 9.55504E-01
 -1      1137 8.28509E-01
 -1      1138 7.45755E-01
 -1      1139 7.14597E-01
 -1      1140 7.49618E-01
 -1      1141 8.31469E-01
 -1      1142 9.59478E-01
 -1      1143 1.16808E+00
 -1      1144 1.54784E+00
 -1      1145 2.61910E+00
 -1      1146 5.99443E+00
 -1      1147 1.12678E+01
 -1      1148 1.30899E+01
 -1      1149 8.71646E+00
 -1      1150 3.84480E+00
 -1      1151 2.73020E+00
 -1      1152 1.78205E+00
 -1      1153 1.29117E+00
 -1      1154 1.02232E+00
 -1      1155 8.30422E-01
 -1      1156 6.83846E-01
 -1      1157 6.56887E-01
 -1      1158 7.31179E-01
 -1      1159 7.96815E-01
 -1      1160 9.32368E-01
 -1      1161 1.18367E+00
 -1      1162 1.45283E+00
 -1      1163 1.62940E+00
 -1      1164 1.68134E+00
 -1      1165 1.65100E+00
 -1      1166 1.72927E+00
 -1      1167 2.28223E+00
 -1      1168 3.55460E+00
 -1      1169 4.54524E+00
 -1      1170 4.72440E+00
 -1      1171 4.74094E+00
 -1      1172 4.15508E+00
 -1      1173 2.82781E+00
 -1      1174 1.88154E+00
 -1      1175 1.67667E+00
 -1      1176 1.65307E+00
 -1      1177 1.62947E+00
 -1      1178 1.52958E+00
 -1      1179 1.29184E+00
 -1      1180 1.03823E+00
 -1      1181 8.17616E-01
 -1      1182 6.48144E-01
 -1      1183 5.32421E-01
 -1      1184 4.32750E-01
 -1      1185 3.41246E-01
 -1      1186 2.62086E-01
 -1      1187 1.96372E-01
 -1      1188 1.43481E-01
 -1      1189 1.09486E-01
 -1      1190 8.93214E-02
 -1      1191 7.11133E-02
 -1      1192 5.47960E-02
 -1      1193 4.03482E-02
 -1      1194 2.79686E-02
 -1      1195 1.87791E-02
 -1      1196 1.10074E-02
 -1      1197 4.55825E-03
 -1      1198 1.39862E+01
 -1      1199 8.70787E+00
 -1      1200 2.93484E+00
 -1      1201 2.06658E+00
 -1      1202 1.47235E+00
 -1      1203 1.15744E+00
 -1      1204 9.91290E-01
 -1      1205 8.62566E-01
 -1      1206 7.57630E-01
 -1      1207 6.64646E-01
 -1      1208 6.19050E-01
 -1      1209 6.18640E-01
 -1      1210 6.18919E-01
 -1      1211 6.76188E-01
 -1      1212 8.03404E-01
 -1      1213 9.00162E-01
 -1      1214 1.06075E+00
 -1      1215 1.21547E+00
 -1      1216 1.35514E+00
 -1      1217 1.57172E+00
 -1      1218 2.10774E+00
 -1      1219 2.72127E+00
 -1      1220 3.10165E+00
 -1      1221 3.30666E+00
 -1      1222 3.15508E+00
 -1      1223 2.52083E+00
 -1      1224 1.65980E+00
 -1      1225 1.08924E+00
 -1      1226 9.38077E-01
 -1      1227 1.01906E+00
 -1      1228 1.05900E+00
 -1      1229 1.02914E+00
 -1      1230 9.33078E-01
 -1      1231 7.98407E-01
 -1      1232 6.62592E-01
 -1      1233 5.30013E-01
 -1      1234 4.06721E-01
 -1      1235 3.08592E-01
 -1      1236 2.38795E-01
 -1      1237 1.83563E-01
 -1      1238 1.36989E-01
 -1      1239 9.90853E-02
 -1      1240 6.91172E-02
 -1      1241 4.95738E-02
 -1      1242 3.89318E-02
 -1      1243 3.05459E-02
 -1      1244 2.25079E-02
 -1      1245 1.64890E-02
 -1      1246 1.09778E-02
 -1      1247 4.84578E-03
 -1      1248 2.88517E-03
 -1      1249 2.78232E-03
 -1      1250 1.92320E-03
 -1      1251 1.97170E-03
 -1      1252 1.65533E-03
 -1      1253 1.06820E-03
 -1      1254 1.07166E-03
 -1      1255 1.43277E-03
 -1      1256 1.51967E-03
 -1      1257 1.42019E-03
 -1      1258 1.03076E-03
 -1      1259 1.09059E-03
 -1      1260 1.76354E-03
 -1      1261 2.08669E-03
 -1      1262 1.85881E-03
 -1      1263 2.53578E-03
 -1      1264 2.86662E-03
 -1      1265 2.46101E+01
 -1      1266 3.58891E+01
 -1      1267 4.71054E+01
 -1      1268 3.33182E+01
 -1      1269 1.61718E+01
 -1      1270 1.28125E+01
 -1      1271 1.26168E+01
 -1      1272 1.24210E+01
 -1      1273 1.22620E+01
 -1      1274 1.27606E+01
 -1      1275 2.33537E+01
 -1      1276 3.32893E+01
 -1      1277 2.99894E+01
 -1      1278 2.65129E+01
 -1      1279 2.63364E+01
 -1      1280 2.68919E+01
 -1      1281 2.89316E+01
 -1      1282 3.04158E+01
 -1      1283 2.16800E+01
 -1      1284 1.25360E+01
 -1      1285 1.20873E+01
 -1      1286 1.24103E+01
 -1      1287 1.27737E+01
 -1      1288 1.23566E+01
 -1      1289 1.79723E+01
 -1      1290 2.83379E+01
 -1      1291 3.26706E+01
 -1      1292 2.86743E+01
 -1      1293 2.46127E+01
 -1      1294 1.30899E+01
 -1      1295 4.78707E+00
 -1      1296 9.53431E+00
 -1      1297 2.02218E+00
 -1      1298 2.92643E+00
 -1      1299 4.11806E+00
 -1      1300 1.38946E+00
 -1      1301 1.64400E+00
 -1      1302 1.87924E+00
 -1      1303 1.09118E+00
 -1      1304 1.21392E+00
 -1      1305 1.32552E+00
 -1      1306 9.18473E-01
 -1      1307 9.95336E-01
 -1      1308 1.05415E+00
 -1      1309 8.08933E-01
 -1      1310 8.59066E-01
 -1      1311 8.98898E-01
 -1      1312 7.37180E-01
 -1      1313 7.69801E-01
 -1      1314 8.00358E-01
 -1      1315 7.15039E-01
 -1      1316 7.13576E-01
 -1      1317 7.37622E-01
 -1      1318 7.74037E-01
 -1      1319 7.40479E-01
 -1      1320 7.39458E-01
 -1      1321 8.61091E-01
 -1      1322 8.12799E-01
 -1      1323 8.03660E-01
 -1      1324 1.00268E+00
 -1      1325 9.22960E-01
 -1      1326 9.04289E-01
 -1      1327 1.23095E+00
 -1      1328 1.10206E+00
 -1      1329 1.06554E+00
 -1      1330 1.66008E+00
 -1      1331 1.40920E+00
 -1      1332 1.34318E+00
 -1      1333 2.84349E+00
 -1      1334 2.02311E+00
 -1      1335 1.88447E+00
 -1      1336 6.21208E+00
 -1      1337 3.65713E+00
 -1      1338 3.06114E+00
 -1      1339 1.39862E+01
 -1      1340 1.12678E+01
 -1      1341 8.93051E+00
 -1      1342 1.39862E+01
 -1      1343 8.71646E+00
 -1      1344 4.34301E+00
 -1      1345 3.84480E+00
 -1      1346 3.34659E+00
 -1      1347 3.84480E+00
 -1      1348 2.73020E+00
 -1      1349 2.11380E+00
 -1      1350 2.73020E+00
 -1      1351 1.78205E+00
 -1      1352 1.45030E+00
 -1      1353 1.78205E+00
 -1      1354 1.29117E+00
 -1      1355 1.13204E+00
 -1      1356 1.29117E+00
 -1      1357 1.02232E+00
 -1      1358 9.12602E-01
 -1      1359 1.02232E+00
 -1      1360 8.30422E-01
 -1      1361 7.48242E-01
 -1      1362 8.30422E-01
 -1      1363 6.81407E-01
 -1      1364 6.17011E-01
 -1      1365 6.81407E-01
 -1      1366 6.19449E-01
 -1      1367 6.56887E-01
 -1      1368 6.17011E-01
 -1      1369 6.94325E-01
 -1      1370 7.31179E-01
 -1      1371 6.56887E-01
 -1      1372 7.68033E-01
 -1      1373 7.96815E-01
 -1      1374 7.31179E-01
 -1      1375 8.63479E-01
 -1      1376 9.70250E-01
 -1      1377 8.34697E-01
 -1      1378 1.06220E+00
 -1      1379 1.20673E+00
 -1      1380 9.93312E-01
 -1      1381 1.32819E+00
 -1      1382 1.45283E+00
 -1      1383 1.20673E+00
 -1      1384 1.57746E+00
 -1      1385 1.62940E+00
 -1      1386 1.45283E+00
 -1      1387 1.68134E+00
 -1      1388 1.68134E+00
 -1      1389 1.62940E+00
 -1      1390 1.65100E+00
 -1      1391 1.62067E+00
 -1      1392 1.65100E+00
 -1      1393 1.61393E+00
 -1      1394 1.72253E+00
 -1      1395 1.61393E+00
 -1      1396 1.83787E+00
 -1      1397 2.28223E+00
 -1      1398 1.72253E+00
 -1      1399 2.72773E+00
 -1      1400 3.55575E+00
 -1      1401 2.28338E+00
 -1      1402 4.38262E+00
 -1      1403 4.54524E+00
 -1      1404 3.55575E+00
 -1      1405 4.70786E+00
 -1      1406 4.72440E+00
 -1      1407 4.54524E+00
 -1      1408 4.74094E+00
 -1      1409 4.74094E+00
 -1      1410 4.72440E+00
 -1      1411 4.15508E+00
 -1      1412 3.56922E+00
 -1      1413 4.15508E+00
 -1      1414 2.83507E+00
 -1      1415 2.09367E+00
 -1      1416 2.83507E+00
 -1      1417 1.77265E+00
 -1      1418 1.56778E+00
 -1      1419 1.77991E+00
 -1      1420 1.67667E+00
 -1      1421 1.67667E+00
 -1      1422 1.56778E+00
 -1      1423 1.64875E+00
 -1      1424 1.62515E+00
 -1      1425 1.64875E+00
 -1      1426 1.62947E+00
 -1      1427 1.62947E+00
 -1      1428 1.62515E+00
 -1      1429 1.52958E+00
 -1      1430 1.42969E+00
 -1      1431 1.52958E+00
 -1      1432 1.30589E+00
 -1      1433 1.16804E+00
 -1      1434 1.30589E+00
 -1      1435 1.08380E+00
 -1      1436 9.68042E-01
 -1      1437 1.09785E+00
 -1      1438 8.91733E-01
 -1      1439 7.86870E-01
 -1      1440 9.37297E-01
 -1      1441 7.03775E-01
 -1      1442 6.39165E-01
 -1      1443 7.77892E-01
 -1      1444 5.60713E-01
 -1      1445 5.09601E-01
 -1      1446 6.16344E-01
 -1      1447 4.41452E-01
 -1      1448 3.92892E-01
 -1      1449 4.69743E-01
 -1      1450 3.41246E-01
 -1      1451 2.98300E-01
 -1      1452 3.49947E-01
 -1      1453 2.65303E-01
 -1      1454 2.29088E-01
 -1      1455 2.65303E-01
 -1      1456 2.01676E-01
 -1      1457 1.72176E-01
 -1      1458 2.04893E-01
 -1      1459 1.49720E-01
 -1      1460 1.26329E-01
 -1      1461 1.55025E-01
 -1      1462 1.09486E-01
 -1      1463 9.88817E-02
 -1      1464 1.15725E-01
 -1      1465 8.93214E-02
 -1      1466 7.97611E-02
 -1      1467 8.93214E-02
 -1      1468 7.11133E-02
 -1      1469 6.24654E-02
 -1      1470 7.11133E-02
 -1      1471 5.47960E-02
 -1      1472 4.71267E-02
 -1      1473 5.47960E-02
 -1      1474 4.03482E-02
 -1      1475 3.35698E-02
 -1      1476 4.03482E-02
 -1      1477 2.84061E-02
 -1      1478 2.28048E-02
 -1      1479 2.84061E-02
 -1      1480 1.87791E-02
 -1      1481 1.51909E-02
 -1      1482 1.92167E-02
 -1      1483 1.13211E-02
 -1      1484 7.13759E-03
 -1      1485 1.13211E-02
 -1      1486 5.13226E-03
 -1      1487 5.44596E-03
 -1      1488 3.42949E+00
 -1      1489 8.70787E+00
 -1      1490 8.70787E+00
 -1      1491 2.44018E+00
 -1      1492 2.93484E+00
 -1      1493 2.93484E+00
 -1      1494 1.69298E+00
 -1      1495 2.06658E+00
 -1      1496 2.06658E+00
 -1      1497 1.25173E+00
 -1      1498 1.47235E+00
 -1      1499 1.47235E+00
 -1      1500 1.06315E+00
 -1      1501 1.15744E+00
 -1      1502 1.15744E+00
 -1      1503 9.19425E-01
 -1      1504 9.91290E-01
 -1      1505 9.91290E-01
 -1      1506 8.05707E-01
 -1      1507 8.62566E-01
 -1      1508 8.62566E-01
 -1      1509 7.09553E-01
 -1      1510 7.57630E-01
 -1      1511 7.57630E-01
 -1      1512 6.19740E-01
 -1      1513 6.64646E-01
 -1      1514 6.64646E-01
 -1      1515 6.06019E-01
 -1      1516 6.06708E-01
 -1      1517 6.06708E-01
 -1      1518 6.18640E-01
 -1      1519 6.18360E-01
 -1      1520 6.06019E-01
 -1      1521 6.18919E-01
 -1      1522 6.18919E-01
 -1      1523 6.18640E-01
 -1      1524 6.73802E-01
 -1      1525 6.16534E-01
 -1      1526 6.16534E-01
 -1      1527 8.03404E-01
 -1      1528 7.33456E-01
 -1      1529 6.73802E-01
 -1      1530 9.00162E-01
 -1      1531 8.73352E-01
 -1      1532 8.03404E-01
 -1      1533 1.06075E+00
 -1      1534 9.26972E-01
 -1      1535 9.00162E-01
 -1      1536 1.21547E+00
 -1      1537 1.19453E+00
 -1      1538 1.06075E+00
 -1      1539 1.35514E+00
 -1      1540 1.23641E+00
 -1      1541 1.21547E+00
 -1      1542 1.57172E+00
 -1      1543 1.47386E+00
 -1      1544 1.35514E+00
 -1      1545 2.18467E+00
 -1      1546 1.74651E+00
 -1      1547 1.64865E+00
 -1      1548 2.72127E+00
 -1      1549 2.54590E+00
 -1      1550 2.18467E+00
 -1      1551 3.10165E+00
 -1      1552 2.89663E+00
 -1      1553 2.72127E+00
 -1      1554 3.30666E+00
 -1      1555 3.30666E+00
 -1      1556 3.10165E+00
 -1      1557 3.00350E+00
 -1      1558 3.15508E+00
 -1      1559 3.15508E+00
 -1      1560 2.03816E+00
 -1      1561 2.52083E+00
 -1      1562 2.52083E+00
 -1      1563 1.28144E+00
 -1      1564 1.65980E+00
 -1      1565 1.65980E+00
 -1      1566 8.62004E-01
 -1      1567 1.05420E+00
 -1      1568 1.05420E+00
 -1      1569 9.38077E-01
 -1      1570 8.97047E-01
 -1      1571 8.62004E-01
 -1      1572 1.01906E+00
 -1      1573 9.79108E-01
 -1      1574 9.38077E-01
 -1      1575 1.05900E+00
 -1      1576 1.05900E+00
 -1      1577 1.01906E+00
 -1      1578 9.99270E-01
 -1      1579 1.02914E+00
 -1      1580 1.02914E+00
 -1      1581 8.66886E-01
 -1      1582 9.33078E-01
 -1      1583 9.33078E-01
 -1      1584 7.29929E-01
 -1      1585 7.98407E-01
 -1      1586 7.98407E-01
 -1      1587 6.00163E-01
 -1      1588 6.67500E-01
 -1      1589 6.67500E-01
 -1      1590 4.75847E-01
 -1      1591 5.41089E-01
 -1      1592 5.45997E-01
 -1      1593 3.62693E-01
 -1      1594 4.20742E-01
 -1      1595 4.31818E-01
 -1      1596 2.74680E-01
 -1      1597 3.14760E-01
 -1      1598 3.28781E-01
 -1      1599 2.09077E-01
 -1      1600 2.38795E-01
 -1      1601 2.44963E-01
 -1      1602 1.58048E-01
 -1      1603 1.83563E-01
 -1      1604 1.83563E-01
 -1      1605 1.15930E-01
 -1      1606 1.36989E-01
 -1      1607 1.36989E-01
 -1      1608 8.34378E-02
 -1      1609 1.00282E-01
 -1      1610 1.00282E-01
 -1      1611 5.78921E-02
 -1      1612 7.10157E-02
 -1      1613 7.22127E-02
 -1      1614 4.31540E-02
 -1      1615 4.95738E-02
 -1      1616 5.14723E-02
 -1      1617 3.47096E-02
 -1      1618 3.89318E-02
 -1      1619 3.89318E-02
 -1      1620 2.63822E-02
 -1      1621 3.05459E-02
 -1      1622 3.05459E-02
 -1      1623 1.86335E-02
 -1      1624 2.25079E-02
 -1      1625 2.25079E-02
 -1      1626 1.43445E-02
 -1      1627 1.64890E-02
 -1      1628 1.64890E-02
 -1      1629 7.61117E-03
 -1      1630 1.09778E-02
 -1      1631 1.09778E-02
 -1      1632 5.65056E-03
 -1      1633 2.60053E-03
 -1      1634 3.50816E-03
 -1      1635 2.88848E-03
 -1      1636 2.83997E-03
 -1      1637 3.56582E-03
 -1      1638 2.88848E-03
 -1      1639 2.88848E-03
 -1      1640 3.80526E-03
 -1      1641 2.32718E-03
 -1      1642 2.64356E-03
 -1      1643 3.56034E-03
 -1      1644 1.36424E-03
 -1      1645 1.63500E-03
 -1      1646 2.62323E-03
 -1      1647 2.20623E-03
 -1      1648 1.93201E-03
 -1      1649 2.49881E-03
 -1      1650 2.54865E-03
 -1      1651 2.46176E-03
 -1      1652 3.32211E-03
 -1      1653 2.54865E-03
 -1      1654 2.54865E-03
 -1      1655 3.57763E-03
 -1      1656 2.44731E-03
 -1      1657 2.54678E-03
 -1      1658 3.57576E-03
 -1      1659 1.87204E-03
 -1      1660 2.16200E-03
 -1      1661 3.28858E-03
 -1      1662 1.75399E-03
 -1      1663 1.40420E-03
 -1      1664 2.53544E-03
 -1      1665 2.79773E-03
 -1      1666 2.47458E-03
 -1      1667 2.78819E-03
 -1      1668 3.27292E-03
 -1      1669 3.27292E-03
 -1      1670 3.98397E-03
 -1      1671 3.04504E-03
 -1      1672 3.27292E-03
 -1      1673 4.45915E-03
 -1      1674 4.31056E-03
 -1      1675 3.40571E-03
 -1      1676 4.81982E-03
 -1      1677 6.31589E-03
 -1      1678 2.71672E+01
 -1      1679 2.71046E+01
 -1      1680 3.77974E+01
 -1      1681 2.65811E+01
 -1      1682 4.71054E+01
 -1      1683 4.71054E+01
 -1      1684 2.02236E+01
 -1      1685 3.40108E+01
 -1      1686 1.18397E+01
 -1      1687 1.51989E+01
 -1      1688 1.28125E+01
 -1      1689 1.28125E+01
 -1      1690 1.22189E+01
 -1      1691 1.24146E+01
 -1      1692 1.24210E+01
 -1      1693 1.24210E+01
 -1      1694 1.21030E+01
 -1      1695 1.22620E+01
 -1      1696 1.23841E+01
 -1      1697 1.17266E+01
 -1      1698 2.33537E+01
 -1      1699 1.34181E+01
 -1      1700 3.32893E+01
 -1      1701 3.32893E+01
 -1      1702 2.87314E+01
 -1      1703 3.20313E+01
 -1      1704 2.67191E+01
 -1      1705 2.68956E+01
 -1      1706 2.96129E+01
 -1      1707 2.96129E+01
 -1      1708 2.63325E+01
 -1      1709 2.57771E+01
 -1      1710 3.00192E+01
 -1      1711 2.85350E+01
 -1      1712 3.04158E+01
 -1      1713 3.04158E+01
 -1      1714 1.29443E+01
 -1      1715 2.16800E+01
 -1      1716 1.21277E+01
 -1      1717 1.25360E+01
 -1      1718 1.20469E+01
 -1      1719 1.20873E+01
 -1      1720 1.21718E+01
 -1      1721 1.18084E+01
 -1      1722 1.27737E+01
 -1      1723 1.27737E+01
 -1      1724 1.18945E+01
 -1      1725 1.23117E+01
 -1      1726 1.79723E+01
 -1      1727 1.19395E+01
 -1      1728 2.93173E+01
 -1      1729 2.49846E+01
 -1      1730 3.26706E+01
 -1      1731 3.26706E+01
 -1      1732 2.79343E+01
 -1      1733 3.19307E+01
 -1      1734 2.71046E+01
 -1      1735 2.71698E+01
 -1      1736 1.58916E+01
 -1      1737 3.40108E+01
 -1      1738 5.65056E-03
 -1      1739 5.46877E-03
 -1      1740 2.90756E+01
 -1      1741 3.77974E+01
 -1      1742 2.96617E+01
 -1      1743 1.18397E+01
 -1      1744 1.24146E+01
 -1      1745 1.22189E+01
 -1      1746 1.22620E+01
 -1      1747 1.17266E+01
 -1      1748 1.23841E+01
 -1      1749 2.33537E+01
 -1      1750 3.20313E+01
 -1      1751 2.89375E+01
 -1      1752 2.99955E+01
 -1      1753 2.90535E+01
 -1      1754 2.74201E+01
 -1      1755 3.00192E+01
 -1      1756 2.16800E+01
 -1      1757 1.25360E+01
 -1      1758 1.20873E+01
 -1      1759 1.18084E+01
 -1      1760 1.21718E+01
 -1      1761 1.23117E+01
 -1      1762 1.18945E+01
 -1      1763 1.89517E+01
 -1      1764 2.93173E+01
 -1      1765 3.19307E+01
 -1      1766 3.04262E+01
 -1      1767 9.53431E+00
 -1      1768 1.26402E+00
 -1      1769 1.64220E+00
 -1      1770 2.33777E+00
 -1      1771 4.19841E+00
 -1      1772 1.72255E+00
 -1      1773 8.73304E-01
 -1      1774 9.69145E-01
 -1      1775 7.60348E-01
 -1      1776 8.19756E-01
 -1      1777 7.34754E-01
 -1      1778 6.85780E-01
 -1      1779 7.24912E-01
 -1      1780 6.45770E-01
 -1      1781 6.36386E-01
 -1      1782 6.59990E-01
 -1      1783 5.84545E-01
 -1      1784 6.63607E-01
 -1      1785 6.38166E-01
 -1      1786 5.60535E-01
 -1      1787 7.27928E-01
 -1      1788 6.89167E-01
 -1      1789 5.87875E-01
 -1      1790 8.27132E-01
 -1      1791 7.65264E-01
 -1      1792 6.50771E-01
 -1      1793 9.77390E-01
 -1      1794 8.78004E-01
 -1      1795 7.38978E-01
 -1      1796 1.22541E+00
 -1      1797 1.04716E+00
 -1      1798 8.59618E-01
 -1      1799 1.69305E+00
 -1      1800 1.33002E+00
 -1      1801 1.03400E+00
 -1      1802 2.58491E+00
 -1      1803 1.77127E+00
 -1      1804 1.21683E+00
 -1      1805 8.07277E+00
 -1      1806 3.01704E+00
 -1      1807 1.72717E+00
 -1      1808 2.79439E+00
 -1      1809 5.16086E+00
 -1      1810 2.14765E+00
 -1      1811 2.64231E+00
 -1      1812 2.00721E+00
 -1      1813 3.38056E+00
 -1      1814 2.52958E+00
 -1      1815 1.91319E+00
 -1      1816 1.67378E+00
 -1      1817 1.34203E+00
 -1      1818 1.47317E+00
 -1      1819 1.15103E+00
 -1      1820 9.91894E-01
 -1      1821 1.04275E+00
 -1      1822 9.17889E-01
 -1      1823 8.08171E-01
 -1      1824 7.77745E-01
 -1      1825 7.52678E-01
 -1      1826 6.70498E-01
 -1      1827 6.48247E-01
 -1      1828 6.15861E-01
 -1      1829 5.49026E-01
 -1      1830 5.38117E-01
 -1      1831 5.35212E-01
 -1      1832 5.37651E-01
 -1      1833 4.69666E-01
 -1      1834 5.72791E-01
 -1      1835 6.10228E-01
 -1      1836 4.90992E-01
 -1      1837 6.49564E-01
 -1      1838 6.86418E-01
 -1      1839 5.65468E-01
 -1      1840 7.75809E-01
 -1      1841 8.42473E-01
 -1      1842 6.94195E-01
 -1      1843 9.19059E-01
 -1      1844 1.01101E+00
 -1      1845 8.60171E-01
 -1      1846 1.07781E+00
 -1      1847 1.19927E+00
 -1      1848 1.00355E+00
 -1      1849 1.27690E+00
 -1      1850 1.40154E+00
 -1      1851 1.14798E+00
 -1      1852 1.42226E+00
 -1      1853 1.47420E+00
 -1      1854 1.24634E+00
 -1      1855 1.41657E+00
 -1      1856 1.38624E+00
 -1      1857 1.20943E+00
 -1      1858 1.38849E+00
 -1      1859 1.38174E+00
 -1      1860 1.15406E+00
 -1      1861 1.37121E+00
 -1      1862 1.48656E+00
 -1      1863 1.14577E+00
 -1      1864 1.83339E+00
 -1      1865 2.27890E+00
 -1      1866 1.48208E+00
 -1      1867 2.58118E+00
 -1      1868 3.40804E+00
 -1      1869 2.13119E+00
 -1      1870 3.58715E+00
 -1      1871 3.74977E+00
 -1      1872 2.61258E+00
 -1      1873 3.74679E+00
 -1      1874 3.76333E+00
 -1      1875 2.78871E+00
 -1      1876 3.71933E+00
 -1      1877 3.13347E+00
 -1      1878 2.74173E+00
 -1      1879 2.80180E+00
 -1      1880 2.06766E+00
 -1      1881 2.36606E+00
 -1      1882 1.75743E+00
 -1      1883 1.43641E+00
 -1      1884 1.72416E+00
 -1      1885 1.33118E+00
 -1      1886 1.44007E+00
 -1      1887 1.30870E+00
 -1      1888 1.38337E+00
 -1      1889 1.35544E+00
 -1      1890 1.14677E+00
 -1      1891 1.42274E+00
 -1      1892 1.42706E+00
 -1      1893 1.15736E+00
 -1      1894 1.44943E+00
 -1      1895 1.34954E+00
 -1      1896 1.24702E+00
 -1      1897 1.29619E+00
 -1      1898 1.17239E+00
 -1      1899 1.21604E+00
 -1      1900 1.11221E+00
 -1      1901 1.02797E+00
 -1      1902 1.10251E+00
 -1      1903 9.71745E-01
 -1      1904 8.95436E-01
 -1      1905 9.86107E-01
 -1      1906 8.23108E-01
 -1      1907 7.40012E-01
 -1      1908 8.57556E-01
 -1      1909 6.65233E-01
 -1      1910 5.86781E-01
 -1      1911 7.10449E-01
 -1      1912 5.17561E-01
 -1      1913 4.49412E-01
 -1      1914 5.66449E-01
 -1      1915 3.89571E-01
 -1      1916 3.37924E-01
 -1      1917 4.37389E-01
 -1      1918 2.88584E-01
 -1      1919 2.55587E-01
 -1      1920 3.28209E-01
 -1      1921 2.16339E-01
 -1      1922 1.88927E-01
 -1      1923 2.39621E-01
 -1      1924 1.58620E-01
 -1      1925 1.36164E-01
 -1      1926 1.70066E-01
 -1      1927 1.14629E-01
 -1      1928 9.77859E-02
 -1      1929 1.18225E-01
 -1      1930 8.38774E-02
 -1      1931 7.43171E-02
 -1      1932 8.27815E-02
 -1      1933 6.48898E-02
 -1      1934 5.62420E-02
 -1      1935 5.94458E-02
 -1      1936 4.97321E-02
 -1      1937 4.20627E-02
 -1      1938 4.35087E-02
 -1      1939 3.78029E-02
 -1      1940 3.10245E-02
 -1      1941 3.27390E-02
 -1      1942 2.69437E-02
 -1      1943 2.17800E-02
 -1      1944 2.43983E-02
 -1      1945 1.79572E-02
 -1      1946 1.39315E-02
 -1      1947 1.64948E-02
 -1      1948 1.20850E-02
 -1      1949 8.21520E-03
 -1      1950 7.07980E-03
 -1      1951 1.08256E-02
 -1      1952 1.41395E+00
 -1      1953 1.78755E+00
 -1      1954 1.49502E+00
 -1      1955 1.04499E+00
 -1      1956 1.26562E+00
 -1      1957 9.86592E-01
 -1      1958 8.49359E-01
 -1      1959 9.43647E-01
 -1      1960 7.36910E-01
 -1      1961 7.60399E-01
 -1      1962 8.32264E-01
 -1      1963 6.18469E-01
 -1      1964 6.82122E-01
 -1      1965 7.38981E-01
 -1      1966 5.79955E-01
 -1      1967 6.09552E-01
 -1      1968 6.57629E-01
 -1      1969 5.34043E-01
 -1      1970 5.36877E-01
 -1      1971 5.81783E-01
 -1      1972 4.81782E-01
 -1      1973 5.42166E-01
 -1      1974 5.55198E-01
 -1      1975 4.72335E-01
 -1      1976 5.78107E-01
 -1      1977 5.65765E-01
 -1      1978 5.14254E-01
 -1      1979 6.31566E-01
 -1      1980 6.31286E-01
 -1      1981 5.91032E-01
 -1      1982 6.60880E-01
 -1      1983 6.63265E-01
 -1      1984 6.75911E-01
 -1      1985 7.20533E-01
 -1      1986 6.60880E-01
 -1      1987 7.07611E-01
 -1      1988 7.80088E-01
 -1      1989 7.10139E-01
 -1      1990 6.97217E-01
 -1      1991 7.33805E-01
 -1      1992 7.06995E-01
 -1      1993 6.13731E-01
 -1      1994 8.68630E-01
 -1      1995 7.34850E-01
 -1      1996 5.41683E-01
 -1      1997 1.04995E+00
 -1      1998 1.02901E+00
 -1      1999 7.03110E-01
 -1      2000 1.44511E+00
 -1      2001 1.32639E+00
 -1      2002 1.13993E+00
 -1      2003 1.77193E+00
 -1      2004 1.59713E+00
 -1      2005 1.56839E+00
 -1      2006 2.13315E+00
 -1      2007 1.77193E+00
 -1      2008 1.72041E+00
 -1      2009 2.28813E+00
 -1      2010 2.11277E+00
 -1      2011 1.70002E+00
 -1      2012 2.60213E+00
 -1      2013 2.39712E+00
 -1      2014 1.78862E+00
 -1      2015 2.46877E+00
 -1      2016 2.62035E+00
 -1      2017 1.91582E+00
 -1      2018 1.77087E+00
 -1      2019 2.25354E+00
 -1      2020 1.71882E+00
 -1      2021 1.11807E+00
 -1      2022 1.49643E+00
 -1      2023 1.22915E+00
 -1      2024 7.21127E-01
 -1      2025 9.48365E-01
 -1      2026 7.85003E-01
 -1      2027 7.36928E-01
 -1      2028 7.01885E-01
 -1      2029 5.96052E-01
 -1      2030 8.47542E-01
 -1      2031 8.06511E-01
 -1      2032 6.46393E-01
 -1      2033 9.08631E-01
 -1      2034 8.68684E-01
 -1      2035 7.37118E-01
 -1      2036 8.86250E-01
 -1      2037 9.16117E-01
 -1      2038 7.65745E-01
 -1      2039 7.90780E-01
 -1      2040 8.56973E-01
 -1      2041 7.43953E-01
 -1      2042 6.85084E-01
 -1      2043 7.53563E-01
 -1      2044 6.77457E-01
 -1      2045 5.79373E-01
 -1      2046 6.41802E-01
 -1      2047 5.96957E-01
 -1      2048 4.71765E-01
 -1      2049 5.30840E-01
 -1      2050 5.05141E-01
 -1      2051 3.69298E-01
 -1      2052 4.24402E-01
 -1      2053 4.09245E-01
 -1      2054 2.78812E-01
 -1      2055 3.26745E-01
 -1      2056 3.19329E-01
 -1      2057 2.06822E-01
 -1      2058 2.42707E-01
 -1      2059 2.40671E-01
 -1      2060 1.56141E-01
 -1      2061 1.81656E-01
 -1      2062 1.79400E-01
 -1      2063 1.15923E-01
 -1      2064 1.36982E-01
 -1      2065 1.35076E-01
 -1      2066 8.46348E-02
 -1      2067 1.00282E-01
 -1      2068 1.00276E-01
 -1      2069 5.97906E-02
 -1      2070 7.22127E-02
 -1      2071 7.22127E-02
 -1      2072 4.18403E-02
 -1      2073 5.01586E-02
 -1      2074 5.01586E-02
 -1      2075 3.05703E-02
 -1      2076 3.47924E-02
 -1      2077 3.34788E-02
 -1      2078 2.28607E-02
 -1      2079 2.70244E-02
 -1      2080 2.28850E-02
 -1      2081 1.64073E-02
 -1      2082 2.02817E-02
 -1      2083 1.67601E-02
 -1      2084 1.16684E-02
 -1      2085 1.38129E-02
 -1      2086 1.15867E-02
 -1      2087 5.80790E-03
 -1      2088 9.17457E-03
 -1      2089 6.49844E-03
 -1      2090 3.66550E-03
 -1      2091 4.28213E-03
 -1      2092 4.52705E-03
 -1      2093 4.67418E-03
 -1      2094 4.67418E-03
 -1      2095 5.39596E-03
 -1      2096 4.67418E-03
 -1      2097 4.43473E-03
 -1      2098 4.77386E-03
 -1      2099 5.54309E-03
 -1      2100 2.99348E-03
 -1      2101 3.68567E-03
 -1      2102 4.65238E-03
 -1      2103 4.02775E-03
 -1      2104 3.45998E-03
 -1      2105 4.52242E-03
 -1      2106 4.80246E-03
 -1      2107 4.54694E-03
 -1      2108 5.50810E-03
 -1      2109 4.80246E-03
 -1      2110 4.80246E-03
 -1      2111 6.02729E-03
 -1      2112 4.78976E-03
 -1      2113 4.79163E-03
 -1      2114 6.01646E-03
 -1      2115 4.50445E-03
 -1      2116 4.78976E-03
 -1      2117 6.00563E-03
 -1      2118 3.52025E-03
 -1      2119 3.98809E-03
 -1      2120 5.48926E-03
 -1      2121 3.77967E-03
 -1      2122 3.05908E-03
 -1      2123 4.51174E-03
 -1      2124 4.82876E-03
 -1      2125 4.35357E-03
 -1      2126 4.62447E-03
 -1      2127 5.12599E-03
 -1      2128 5.12599E-03
 -1      2129 5.49560E-03
 -1      2130 3.77974E+01
 -1      2131 2.84894E+01
 -1      2132 3.00427E+01
 -1      2133 3.00427E+01
 -1      2134 2.91458E+01
 -1      2135 2.97320E+01
 -1      2136 1.86057E+01
 -1      2137 3.17003E+01
 -1      2138 9.94347E+00
 -1      2139 1.49681E+01
 -1      2140 1.02919E+00
 -1      2141 1.20473E+00
 -1      2142 9.67693E-01
 -1      2143 8.48350E-01
 -1      2144 1.11749E+01
 -1      2145 1.15728E+01
 -1      2146 1.16344E+01
 -1      2147 1.14322E+01
 -1      2148 1.05904E+01
 -1      2149 1.07946E+01
 -1      2150 1.09536E+01
 -1      2151 1.01315E+01
 -1      2152 1.05080E+01
 -1      2153 1.00790E+01
 -1      2154 9.04500E+00
 -1      2155 2.30685E+01
 -1      2156 1.31329E+01
 -1      2157 9.79379E+00
 -1      2158 2.57128E+01
 -1      2159 2.69708E+01
 -1      2160 2.53423E+01
 -1      2161 2.71781E+01
 -1      2162 3.25384E+01
 -1      2163 2.96446E+01
 -1      2164 2.78852E+01
 -1      2165 2.90535E+01
 -1      2166 3.28894E+01
 -1      2167 2.63216E+01
 -1      2168 2.41191E+01
 -1      2169 2.79550E+01
 -1      2170 2.51046E+01
 -1      2171 2.47080E+01
 -1      2172 1.22592E+01
 -1      2173 2.09950E+01
 -1      2174 1.56838E+01
 -1      2175 9.66134E+00
 -1      2176 1.00696E+01
 -1      2177 1.08249E+01
 -1      2178 1.08653E+01
 -1      2179 1.15700E+01
 -1      2180 1.18084E+01
 -1      2181 1.19236E+01
 -1      2182 1.13217E+01
 -1      2183 1.04643E+01
 -1      2184 1.09264E+01
 -1      2185 9.67072E+00
 -1      2186 9.62575E+00
 -1      2187 8.24051E+00
 -1      2188 1.81004E+01
 -1      2189 1.10882E+01
 -1      2190 2.54504E+01
 -1      2191 2.20970E+01
 -1      2192 3.11907E+01
 -1      2193 3.19307E+01
 -1      2194 3.00427E+01
 -1      2195 3.08072E+01
 -1      2196 9.89682E+00
 -1      2197 8.92400E+00
 -1      2198 1.26576E+01
 -1      2199 2.88235E+00
 -1      2200 8.00060E+00
 -1      2201 8.76626E+00
 -1      2202 1.00060E+01
 -1      2203 7.09029E+00
 -1      2204 2.06535E+00
 -1      2205 2.91458E+01
 -1      2206 3.01130E+01
 -1      2207 5.48666E-03
 -1      2208 2.23923E+01
 -1      2209 3.04237E+01
 -1      2210 3.08072E+01
 -1      2211 2.47105E+01
 -1      2212 8.81942E+00
 -1      2213 1.00763E+01
 -1      2214 1.13217E+01
 -1      2215 1.05864E+01
 -1      2216 9.38456E+00
 -1      2217 2.35878E+01
 -1      2218 2.02867E+01
 -1      2219 1.86731E+01
 -1      2220 3.28894E+01
 -1      2221 3.25384E+01
 -1      2222 3.28894E+01
 -1      2223 1.67500E+01
 -1      2224 7.82646E+00
 -1      2225 1.01669E+01
 -1      2226 9.19954E+00
 -1      2227 2.42525E+01
 -1      2228 1.91920E+01
 -1      2229 2.06574E+01
 -1      2230 8.39892E+00
 -1      2231 1.42335E+01
 -1      2232 1.07596E+00
 -1      2233 1.43606E+00
 -1      2234 5.41880E-01
 -1      2235 5.77316E-01
 -1      2236 5.96198E-01
 -1      2237 6.49746E-01
 -1      2238 4.92309E-01
 -1      2239 4.81705E-01
 -1      2240 4.79925E-01
 -1      2241 5.24418E-01
 -1      2242 4.98858E-01
 -1      2243 4.18249E-01
 -1      2244 5.81433E-01
 -1      2245 5.44097E-01
 -1      2246 4.55080E-01
 -1      2247 6.48992E-01
 -1      2248 5.98121E-01
 -1      2249 4.91447E-01
 -1      2250 7.20965E-01
 -1      2251 6.51197E-01
 -1      2252 5.10339E-01
 -1      2253 8.76698E-01
 -1      2254 7.72089E-01
 -1      2255 5.63668E-01
 -1      2256 8.38255E-01
 -1      2257 9.86592E-01
 -1      2258 9.27628E-01
 -1      2259 1.22807E+00
 -1      2260 9.88662E-01
 -1      2261 5.82122E+00
 -1      2262 6.84069E+00
 -1      2263 9.33594E-01
 -1      2264 7.42592E-01
 -1      2265 6.88502E-01
 -1      2266 6.68117E-01
 -1      2267 5.94111E-01
 -1      2268 5.58958E-01
 -1      2269 5.47087E-01
 -1      2270 4.91594E-01
 -1      2271 4.37458E-01
 -1      2272 4.58473E-01
 -1      2273 4.03836E-01
 -1      2274 3.57313E-01
 -1      2275 3.79265E-01
 -1      2276 3.65451E-01
 -1      2277 2.99621E-01
 -1      2278 3.95821E-01
 -1      2279 4.30961E-01
 -1      2280 3.05420E-01
 -1      2281 5.11316E-01
 -1      2282 5.50652E-01
 -1      2283 4.16145E-01
 -1      2284 6.39062E-01
 -1      2285 7.28454E-01
 -1      2286 5.84911E-01
 -1      2287 8.17302E-01
 -1      2288 8.93888E-01
 -1      2289 7.62170E-01
 -1      2290 9.74331E-01
 -1      2291 1.04113E+00
 -1      2292 9.31462E-01
 -1      2293 1.09927E+00
 -1      2294 1.17691E+00
 -1      2295 1.07005E+00
 -1      2296 1.28585E+00
 -1      2297 1.30657E+00
 -1      2298 1.23714E+00
 -1      2299 1.41514E+00
 -1      2300 1.35752E+00
 -1      2301 1.45465E+00
 -1      2302 1.44075E+00
 -1      2303 1.44300E+00
 -1      2304 1.64646E+00
 -1      2305 1.67638E+00
 -1      2306 1.66585E+00
 -1      2307 1.96307E+00
 -1      2308 2.14985E+00
 -1      2309 2.49668E+00
 -1      2310 2.68046E+00
 -1      2311 2.45746E+00
 -1      2312 2.75973E+00
 -1      2313 3.12523E+00
 -1      2314 3.23176E+00
 -1      2315 3.41087E+00
 -1      2316 3.55802E+00
 -1      2317 3.41135E+00
 -1      2318 3.40837E+00
 -1      2319 4.03053E+00
 -1      2320 3.05648E+00
 -1      2321 3.01248E+00
 -1      2322 3.67912E+00
 -1      2323 2.54431E+00
 -1      2324 2.21264E+00
 -1      2325 2.85907E+00
 -1      2326 2.00353E+00
 -1      2327 1.69330E+00
 -1      2328 2.18178E+00
 -1      2329 1.79197E+00
 -1      2330 1.68673E+00
 -1      2331 2.07134E+00
 -1      2332 1.47311E+00
 -1      2333 1.41641E+00
 -1      2334 1.95637E+00
 -1      2335 1.32557E+00
 -1      2336 1.39286E+00
 -1      2337 1.65191E+00
 -1      2338 1.30475E+00
 -1      2339 1.32712E+00
 -1      2340 1.47296E+00
 -1      2341 1.23947E+00
 -1      2342 1.18612E+00
 -1      2343 1.29720E+00
 -1      2344 1.13656E+00
 -1      2345 1.07638E+00
 -1      2346 1.15999E+00
 -1      2347 1.00674E+00
 -1      2348 9.50520E-01
 -1      2349 1.04079E+00
 -1      2350 8.69584E-01
 -1      2351 7.97257E-01
 -1      2352 8.90221E-01
 -1      2353 7.20024E-01
 -1      2354 6.45244E-01
 -1      2355 7.32051E-01
 -1      2356 5.77270E-01
 -1      2357 5.08051E-01
 -1      2358 5.86845E-01
 -1      2359 4.50826E-01
 -1      2360 3.90985E-01
 -1      2361 4.61646E-01
 -1      2362 3.42976E-01
 -1      2363 2.93636E-01
 -1      2364 3.56412E-01
 -1      2365 2.54577E-01
 -1      2366 2.15329E-01
 -1      2367 2.69344E-01
 -1      2368 1.84351E-01
 -1      2369 1.54043E-01
 -1      2370 1.99307E-01
 -1      2371 1.30022E-01
 -1      2372 1.08487E-01
 -1      2373 1.44306E-01
 -1      2374 9.02573E-02
 -1      2375 7.63488E-02
 -1      2376 1.02054E-01
 -1      2377 6.28194E-02
 -1      2378 5.33921E-02
 -1      2379 7.02952E-02
 -1      2380 4.35986E-02
 -1      2381 3.70887E-02
 -1      2382 4.69721E-02
 -1      2383 3.05905E-02
 -1      2384 2.63307E-02
 -1      2385 3.06804E-02
 -1      2386 2.27811E-02
 -1      2387 1.87003E-02
 -1      2388 2.06326E-02
 -1      2389 1.61566E-02
 -1      2390 1.23339E-02
 -1      2391 1.45394E-02
 -1      2392 5.56519E-01
 -1      2393 5.73615E-01
 -1      2394 4.94847E-01
 -1      2395 5.16266E-01
 -1      2396 4.71411E-01
 -1      2397 4.23504E-01
 -1      2398 4.47997E-01
 -1      2399 3.84308E-01
 -1      2400 3.98369E-01
 -1      2401 4.26137E-01
 -1      2402 3.40091E-01
 -1      2403 4.36658E-01
 -1      2404 4.18337E-01
 -1      2405 3.62692E-01
 -1      2406 5.00763E-01
 -1      2407 4.77164E-01
 -1      2408 4.23166E-01
 -1      2409 6.01996E-01
 -1      2410 5.48817E-01
 -1      2411 5.11726E-01
 -1      2412 6.75911E-01
 -1      2413 6.44212E-01
 -1      2414 6.01996E-01
 -1      2415 7.07611E-01
 -1      2416 7.07611E-01
 -1      2417 6.75911E-01
 -1      2418 7.11246E-01
 -1      2419 7.21640E-01
 -1      2420 7.21640E-01
 -1      2421 6.15501E-01
 -1      2422 6.88593E-01
 -1      2423 7.13016E-01
 -1      2424 6.85449E-01
 -1      2425 6.84405E-01
 -1      2426 7.59266E-01
 -1      2427 8.74691E-01
 -1      2428 7.14309E-01
 -1      2429 8.57030E-01
 -1      2430 1.32061E+00
 -1      2431 1.04417E+00
 -1      2432 1.05536E+00
 -1      2433 1.60027E+00
 -1      2434 1.44825E+00
 -1      2435 1.35248E+00
 -1      2436 1.76719E+00
 -1      2437 1.76719E+00
 -1      2438 1.64705E+00
 -1      2439 1.77989E+00
 -1      2440 1.80028E+00
 -1      2441 1.84706E+00
 -1      2442 1.98198E+00
 -1      2443 1.87300E+00
 -1      2444 1.97325E+00
 -1      2445 1.83712E+00
 -1      2446 1.81891E+00
 -1      2447 1.90328E+00
 -1      2448 1.48313E+00
 -1      2449 1.69835E+00
 -1      2450 1.60143E+00
 -1      2451 1.04681E+00
 -1      2452 1.32125E+00
 -1      2453 1.30078E+00
 -1      2454 7.32697E-01
 -1      2455 9.02407E-01
 -1      2456 9.94503E-01
 -1      2457 6.90432E-01
 -1      2458 7.09674E-01
 -1      2459 8.27077E-01
 -1      2460 7.27785E-01
 -1      2461 6.58202E-01
 -1      2462 7.71824E-01
 -1      2463 7.71631E-01
 -1      2464 7.50489E-01
 -1      2465 7.62299E-01
 -1      2466 7.64742E-01
 -1      2467 7.57257E-01
 -1      2468 7.70628E-01
 -1      2469 7.06901E-01
 -1      2470 7.36179E-01
 -1      2471 7.27691E-01
 -1      2472 6.37995E-01
 -1      2473 6.75212E-01
 -1      2474 6.67438E-01
 -1      2475 5.58928E-01
 -1      2476 6.02210E-01
 -1      2477 5.99965E-01
 -1      2478 4.67069E-01
 -1      2479 5.15602E-01
 -1      2480 5.20855E-01
 -1      2481 3.75388E-01
 -1      2482 4.22751E-01
 -1      2483 4.33212E-01
 -1      2484 2.91573E-01
 -1      2485 3.34126E-01
 -1      2486 3.47633E-01
 -1      2487 2.19372E-01
 -1      2488 2.55477E-01
 -1      2489 2.70275E-01
 -1      2490 1.64049E-01
 -1      2491 1.89215E-01
 -1      2492 2.04021E-01
 -1      2493 1.20611E-01
 -1      2494 1.39770E-01
 -1      2495 1.49584E-01
 -1      2496 8.60457E-02
 -1      2497 1.01687E-01
 -1      2498 1.06381E-01
 -1      2499 5.93189E-02
 -1      2500 7.17410E-02
 -1      2501 7.31520E-02
 -1      2502 3.98338E-02
 -1      2503 4.94658E-02
 -1      2504 4.89941E-02
 -1      2505 2.71547E-02
 -1      2506 3.42025E-02
 -1      2507 3.35097E-02
 -1      2508 1.95286E-02
 -1      2509 2.30745E-02
 -1      2510 2.37983E-02
 -1      2511 1.41812E-02
 -1      2512 1.67601E-02
 -1      2513 1.69496E-02
 -1      2514 9.49342E-03
 -1      2515 1.20879E-02
 -1      2516 1.20879E-02
 -1      2517 7.26767E-03
 -1      2518 6.13613E-03
 -1      2519 5.66963E-03
 -1      2520 7.59721E-03
 -1      2521 7.07802E-03
 -1      2522 8.22523E-03
 -1      2523 7.86244E-03
 -1      2524 8.00956E-03
 -1      2525 7.26597E-03
 -1      2526 7.86244E-03
 -1      2527 1.04760E-02
 -1      2528 8.87969E-03
 -1      2529 7.71161E-03
 -1      2530 7.71161E-03
 -1      2531 9.28152E-03
 -1      2532 7.72059E-03
 -1      2533 7.73142E-03
 -1      2534 9.41574E-03
 -1      2535 7.72059E-03
 -1      2536 7.72059E-03
 -1      2537 9.43555E-03
 -1      2538 7.09540E-03
 -1      2539 7.61176E-03
 -1      2540 9.32672E-03
 -1      2541 5.65245E-03
 -1      2542 6.11362E-03
 -1      2543 8.23611E-03
 -1      2544 5.94532E-03
 -1      2545 5.37142E-03
 -1      2546 6.97330E-03
 -1      2547 5.49560E-03
 -1      2548 5.19837E-03
 -1      2549 5.94532E-03
 -1      2550 2.98022E+01
 -1      2551 3.01130E+01
 -1      2552 1.47812E+01
 -1      2553 2.08783E+01
 -1      2554 6.28748E-01
 -1      2555 7.30093E-01
 -1      2556 5.66798E-01
 -1      2557 7.38597E-03
 -1      2558 3.04237E+01
 -1      2559 3.04237E+01
 -1      2560 2.47833E+01
 -1      2561 2.54397E+01
 -1      2562 1.62805E+00
 -1      2563 1.27528E+00
 -1      2564 7.90778E-01
 -1      2565 9.32487E-01
 -1      2566 2.56914E+01
 -1      2567 2.60749E+01
 -1      2568 2.56914E+01
 -1      2569 7.97946E+00
 -1      2570 8.97664E+00
 -1      2571 1.67067E+01
 -1      2572 1.28044E+01
 -1      2573 5.18567E+00
 -1      2574 6.27219E+00
 -1      2575 4.96768E-01
 -1      2576 5.22558E-01
 -1      2577 4.54104E-01
 -1      2578 4.17939E-01
 -1      2579 7.56906E+00
 -1      2580 7.85561E+00
 -1      2581 8.96696E+00
 -1      2582 8.70963E+00
 -1      2583 8.69764E+00
 -1      2584 9.37847E+00
 -1      2585 9.41101E+00
 -1      2586 6.35716E+00
 -1      2587 9.36778E+00
 -1      2588 7.04581E+00
 -1      2589 5.84183E+00
 -1      2590 2.78852E+01
 -1      2591 2.35830E+01
 -1      2592 2.30205E+01
 -1      2593 2.79550E+01
 -1      2594 1.16890E+01
 -1      2595 1.57986E+01
 -1      2596 1.34196E+01
 -1      2597 9.42299E+00
 -1      2598 6.56040E+00
 -1      2599 8.75002E+00
 -1      2600 8.86486E+00
 -1      2601 8.99529E+00
 -1      2602 8.01176E+00
 -1      2603 9.43687E+00
 -1      2604 9.68513E+00
 -1      2605 5.88593E+00
 -1      2606 6.72451E+00
 -1      2607 8.40129E+00
 -1      2608 6.98381E+00
 -1      2609 2.33085E+01
 -1      2610 1.68283E+01
 -1      2611 1.56817E+00
 -1      2612 1.72026E+00
 -1      2613 1.28814E+00
 -1      2614 1.14911E+00
 -1      2615 9.21053E+00
 -1      2616 1.28480E+01
 -1      2617 7.06716E+00
 -1      2618 5.30847E-01
 -1      2619 6.69403E-01
 -1      2620 7.29451E-01
 -1      2621 7.30093E-01
 -1      2622 1.20991E+00
 -1      2623 7.03116E+00
 -1      2624 7.58738E+00
 -1      2625 5.46780E+00
 -1      2626 7.90671E+00
 -1      2627 6.33989E+00
 -1      2628 6.28326E+00
 -1      2629 7.34008E+00
 -1      2630 5.20729E+00
 -1      2631 1.20177E+01
 -1      2632 7.76884E-03
 -1      2633 1.13341E+01
 -1      2634 7.76884E-03
 -1      2635 5.45468E+00
 -1      2636 3.01130E+01
 -1      2637 2.54397E+01
 -1      2638 1.71722E+01
 -1      2639 1.82495E+01
 -1      2640 1.82495E+01
 -1      2641 1.55157E+01
 -1      2642 2.58699E+01
 -1      2643 2.15677E+01
 -1      2644 2.62209E+01
 -1      2645 9.48007E-01
 -1      2646 1.81927E+01
 -1      2647 1.52465E+01
 -1      2648 5.62489E+00
 -1      2649 5.38845E+00
 -1      2650 3.83417E+00
 -1      2651 5.00566E+00
 -1      2652 8.73192E-01
 -1      2653 1.46784E+01
 -1      2654 2.79550E+01
 -1      2655 4.92826E+00
 -1      2656 5.93038E+00
 -1      2657 7.49769E+00
 -1      2658 1.81035E+01
 -1      2659 1.51779E+01
 -1      2660 1.81035E+01
 -1      2661 7.11047E+00
 -1      2662 8.97910E-03
 -1      2663 7.38597E-03
 -1      2664 7.08874E-03
 -1      2665 1.08256E-02
 -1      2666 1.02353E-02
 -1      2667 1.04874E-02
 -1      2668 4.08378E-01
 -1      2669 3.88699E-01
 -1      2670 3.73508E-01
 -1      2671 3.56355E-01
 -1      2672 3.26806E-01
 -1      2673 4.36890E-01
 -1      2674 4.34685E-01
 -1      2675 4.84082E-01
 -1      2676 4.32958E-01
 -1      2677 3.57304E-01
 -1      2678 6.65533E-01
 -1      2679 7.54906E-01
 -1      2680 1.67518E+01
 -1      2681 1.39855E+01
 -1      2682 2.26672E+01
 -1      2683 1.79349E+01
 -1      2684 7.29330E+00
 -1      2685 6.27160E+00
 -1      2686 4.15468E+00
 -1      2687 4.87324E+00
 -1      2688 4.66490E-01
 -1      2689 3.92015E-01
 -1      2690 3.63347E-01
 -1      2691 3.16323E-01
 -1      2692 2.70879E-01
 -1      2693 2.79223E-01
 -1      2694 2.46102E-01
 -1      2695 2.05113E-01
 -1      2696 2.33649E-01
 -1      2697 2.09079E-01
 -1      2698 1.55560E-01
 -1      2699 2.58966E-01
 -1      2700 2.89335E-01
 -1      2701 1.92994E-01
 -1      2702 3.57967E-01
 -1      2703 4.38323E-01
 -1      2704 3.11513E-01
 -1      2705 5.19867E-01
 -1      2706 6.08277E-01
 -1      2707 4.61689E-01
 -1      2708 7.03099E-01
 -1      2709 7.91948E-01
 -1      2710 6.38055E-01
 -1      2711 9.00190E-01
 -1      2712 9.80633E-01
 -1      2713 8.41119E-01
 -1      2714 1.10057E+00
 -1      2715 1.15872E+00
 -1      2716 1.06930E+00
 -1      2717 1.28266E+00
 -1      2718 1.39160E+00
 -1      2719 1.31318E+00
 -1      2720 1.54966E+00
 -1      2721 1.65823E+00
 -1      2722 1.59517E+00
 -1      2723 1.90747E+00
 -1      2724 1.99071E+00
 -1      2725 2.00248E+00
 -1      2726 2.34466E+00
 -1      2727 2.57805E+00
 -1      2728 2.60568E+00
 -1      2729 2.97787E+00
 -1      2730 3.46186E+00
 -1      2731 3.35946E+00
 -1      2732 3.49254E+00
 -1      2733 3.45331E+00
 -1      2734 4.67190E+00
 -1      2735 4.67237E+00
 -1      2736 5.00213E+00
 -1      2737 4.65024E+00
 -1      2738 3.32724E+00
 -1      2739 2.85907E+00
 -1      2740 4.65024E+00
 -1      2741 2.41133E+00
 -1      2742 2.20222E+00
 -1      2743 2.39998E+00
 -1      2744 2.49864E+00
 -1      2745 2.62953E+00
 -1      2746 2.53175E+00
 -1      2747 2.31813E+00
 -1      2748 2.86039E+00
 -1      2749 2.12941E+00
 -1      2750 2.03857E+00
 -1      2751 2.70478E+00
 -1      2752 1.77270E+00
 -1      2753 1.68459E+00
 -1      2754 2.25020E+00
 -1      2755 1.46953E+00
 -1      2756 1.38188E+00
 -1      2757 1.76927E+00
 -1      2758 1.27607E+00
 -1      2759 1.22651E+00
 -1      2760 1.44840E+00
 -1      2761 1.11568E+00
 -1      2762 1.04605E+00
 -1      2763 1.23177E+00
 -1      2764 9.43422E-01
 -1      2765 8.62486E-01
 -1      2766 1.01831E+00
 -1      2767 7.72550E-01
 -1      2768 6.95317E-01
 -1      2769 8.25751E-01
 -1      2770 6.18799E-01
 -1      2771 5.50826E-01
 -1      2772 6.59298E-01
 -1      2773 4.86991E-01
 -1      2774 4.29766E-01
 -1      2775 5.18945E-01
 -1      2776 3.77369E-01
 -1      2777 3.29360E-01
 -1      2778 4.02714E-01
 -1      2779 2.87009E-01
 -1      2780 2.47950E-01
 -1      2781 3.07966E-01
 -1      2782 2.14239E-01
 -1      2783 1.83260E-01
 -1      2784 2.31904E-01
 -1      2785 1.56844E-01
 -1      2786 1.32822E-01
 -1      2787 1.71777E-01
 -1      2788 1.12452E-01
 -1      2789 9.42219E-02
 -1      2790 1.24990E-01
 -1      2791 7.87832E-02
 -1      2792 6.52537E-02
 -1      2793 8.91805E-02
 -1      2794 5.37761E-02
 -1      2795 4.39825E-02
 -1      2796 6.22641E-02
 -1      2797 3.56330E-02
 -1      2798 2.91348E-02
 -1      2799 4.24369E-02
 -1      2800 2.32265E-02
 -1      2801 1.96770E-02
 -1      2802 2.81791E-02
 -1      2803 1.55887E-02
 -1      2804 1.30450E-02
 -1      2805 1.81826E-02
 -1      2806 2.74213E-01
 -1      2807 3.21063E-01
 -1      2808 1.26967E-02
 -1      2809 1.24559E-02
 -1      2810 1.45492E-02
 -1      2811 3.48271E-01
 -1      2812 3.88525E-01
 -1      2813 2.38177E-01
 -1      2814 3.33443E-01
 -1      2815 3.13475E-01
 -1      2816 4.33381E-01
 -1      2817 3.92875E-01
 -1      2818 3.43658E-01
 -1      2819 5.39685E-01
 -1      2820 4.91632E-01
 -1      2821 4.61340E-01
 -1      2822 6.32913E-01
 -1      2823 5.90697E-01
 -1      2824 5.70602E-01
 -1      2825 7.16284E-01
 -1      2826 6.84585E-01
 -1      2827 6.73286E-01
 -1      2828 8.02408E-01
 -1      2829 7.88379E-01
 -1      2830 7.97052E-01
 -1      2831 8.38458E-01
 -1      2832 8.61112E-01
 -1      2833 9.27850E-01
 -1      2834 9.46434E-01
 -1      2835 8.77530E-01
 -1      2836 1.02563E+00
 -1      2837 1.10797E+00
 -1      2838 1.07911E+00
 -1      2839 1.19737E+00
 -1      2840 1.43273E+00
 -1      2841 1.26325E+00
 -1      2842 1.48533E+00
 -1      2843 1.65322E+00
 -1      2844 1.52558E+00
 -1      2845 1.73346E+00
 -1      2846 1.93291E+00
 -1      2847 1.76599E+00
 -1      2848 1.93908E+00
 -1      2849 2.70220E+00
 -1      2850 2.66912E+00
 -1      2851 2.78805E+00
 -1      2852 3.22146E+00
 -1      2853 3.12835E+00
 -1      2854 3.95041E+00
 -1      2855 2.83646E+00
 -1      2856 2.99954E+00
 -1      2857 4.15464E+00
 -1      2858 1.97987E+00
 -1      2859 2.11864E+00
 -1      2860 3.21490E+00
 -1      2861 1.32031E+00
 -1      2862 1.48219E+00
 -1      2863 1.99940E+00
 -1      2864 1.12110E+00
 -1      2865 1.26550E+00
 -1      2866 1.44691E+00
 -1      2867 1.06749E+00
 -1      2868 1.09052E+00
 -1      2869 1.36151E+00
 -1      2870 8.70717E-01
 -1      2871 9.02946E-01
 -1      2872 1.16639E+00
 -1      2873 8.68718E-01
 -1      2874 8.46014E-01
 -1      2875 9.77137E-01
 -1      2876 8.02200E-01
 -1      2877 8.16575E-01
 -1      2878 9.00290E-01
 -1      2879 7.27691E-01
 -1      2880 7.56254E-01
 -1      2881 8.02200E-01
 -1      2882 6.61832E-01
 -1      2883 6.93521E-01
 -1      2884 7.22084E-01
 -1      2885 5.82019E-01
 -1      2886 6.17803E-01
 -1      2887 6.43886E-01
 -1      2888 4.89238E-01
 -1      2889 5.32563E-01
 -1      2890 5.50401E-01
 -1      2891 3.96444E-01
 -1      2892 4.40762E-01
 -1      2893 4.52470E-01
 -1      2894 3.12332E-01
 -1      2895 3.53594E-01
 -1      2896 3.61143E-01
 -1      2897 2.40201E-01
 -1      2898 2.76298E-01
 -1      2899 2.82258E-01
 -1      2900 1.80880E-01
 -1      2901 2.11037E-01
 -1      2902 2.17061E-01
 -1      2903 1.32756E-01
 -1      2904 1.57035E-01
 -1      2905 1.64052E-01
 -1      2906 9.48482E-02
 -1      2907 1.13773E-01
 -1      2908 1.21223E-01
 -1      2909 6.58001E-02
 -1      2910 8.01048E-02
 -1      2911 8.74964E-02
 -1      2912 4.47767E-02
 -1      2913 5.46299E-02
 -1      2914 6.15827E-02
 -1      2915 3.09084E-02
 -1      2916 3.65397E-02
 -1      2917 4.21754E-02
 -1      2918 2.07558E-02
 -1      2919 2.48359E-02
 -1      2920 2.78659E-02
 -1      2921 1.47341E-02
 -1      2922 1.75026E-02
 -1      2923 1.85402E-02
 -1      2924 1.51022E-02
 -1      2925 9.28780E+00
 -1      2926 1.12209E+01
 -1      2927 1.17852E-02
 -1      2928 1.17653E-02
 -1      2929 1.04035E-02
 -1      2930 8.89518E-03
 -1      2931 7.00481E-03
 -1      2932 1.14528E-02
 -1      2933 1.11139E-02
 -1      2934 1.01720E-02
 -1      2935 1.18126E-02
 -1      2936 1.18126E-02
 -1      2937 1.41622E-02
 -1      2938 1.17653E-02
 -1      2939 1.16509E-02
 -1      2940 1.35978E-02
 -1      2941 1.41348E-02
 -1      2942 1.17038E-02
 -1      2943 1.18126E-02
 -1      2944 1.41897E-02
 -1      2945 1.01698E-02
 -1      2946 1.11516E-02
 -1      2947 1.36375E-02
 -1      2948 9.29409E-03
 -1      2949 9.57512E-03
 -1      2950 1.24906E-02
 -1      2951 7.42876E-03
 -1      2952 8.17571E-03
 -1      2953 1.07775E-02
 -1      2954 9.23521E-03
 -1      2955 1.03406E+01
 -1      2956 6.94718E+00
 -1      2957 1.81214E+01
 -1      2958 2.24840E+01
 -1      2959 1.22300E+01
 -1      2960 1.61349E+01
 -1      2961 6.94246E-01
 -1      2962 6.47037E-01
 -1      2963 8.15896E-01
 -1      2964 1.24352E+01
 -1      2965 9.02660E+00
 -1      2966 4.27080E-01
 -1      2967 4.82213E-01
 -1      2968 3.03940E-01
 -1      2969 2.70882E-01
 -1      2970 2.68248E-01
 -1      2971 2.05004E-01
 -1      2972 2.41633E-01
 -1      2973 5.50808E-01
 -1      2974 4.95739E-01
 -1      2975 3.28796E-01
 -1      2976 4.54275E-01
 -1      2977 5.26789E-01
 -1      2978 6.34951E-01
 -1      2979 4.62229E-01
 -1      2980 3.87071E-01
 -1      2981 1.41724E+01
 -1      2982 1.16871E+01
 -1      2983 1.12160E+01
 -1      2984 1.40905E+01
 -1      2985 4.34685E-01
 -1      2986 4.17998E-01
 -1      2987 3.51616E-01
 -1      2988 3.61236E-01
 -1      2989 6.42654E+00
 -1      2990 6.88678E+00
 -1      2991 3.98300E+00
 -1      2992 5.23796E+00
 -1      2993 7.29451E-01
 -1      2994 2.16064E+01
 -1      2995 2.19171E+01
 -1      2996 1.41606E+01
 -1      2997 4.15059E-01
 -1      2998 4.33941E-01
 -1      2999 6.55703E+00
 -1      3000 5.86719E+00
 -1      3001 3.29613E+00
 -1      3002 4.59299E+00
 -1      3003 1.97018E+01
 -1      3004 2.46362E+01
 -1      3005 5.22767E+00
 -1      3006 4.12979E+00
 -1      3007 4.96310E+00
 -1      3008 3.69404E+00
 -1      3009 5.43071E+00
 -1      3010 8.36972E+00
 -1      3011 5.22534E+00
 -1      3012 4.25939E+00
 -1      3013 4.67190E+00
 -1      3014 5.15481E+00
 -1      3015 7.52465E+00
 -1      3016 6.70389E+00
 -1      3017 6.29239E+00
 -1      3018 5.69902E+00
 -1      3019 6.54105E+00
 -1      3020 4.06688E+00
 -1      3021 4.60138E-01
 -1      3022 4.79794E-01
 -1      3023 3.82888E-01
 -1      3024 3.10876E-01
 -1      3025 3.55616E-01
 -1      3026 3.72459E-01
 -1      3027 1.16185E+01
 -1      3028 1.09944E+01
 -1      3029 1.37276E+01
 -1      3030 5.84756E+00
 -1      3031 5.04464E+00
 -1      3032 5.05376E+00
 -1      3033 5.33574E+00
 -1      3034 4.93359E+00
 -1      3035 4.37810E+00
 -1      3036 3.78995E+00
 -1      3037 5.64349E+00
 -1      3038 3.08600E+00
 -1      3039 3.55802E+00
 -1      3040 2.87950E+00
 -1      3041 1.39890E-02
 -1      3042 1.11003E-02
 -1      3043 1.26967E-02
 -1      3044 1.01837E+01
 -1      3045 4.10355E+00
 -1      3046 7.41145E+00
 -1      3047 5.97847E+00
 -1      3048 1.26967E-02
 -1      3049 1.68291E+01
 -1      3050 1.35104E+01
 -1      3051 1.20580E+01
 -1      3052 3.11888E+00
 -1      3053 2.78362E+00
 -1      3054 3.32166E+00
 -1      3055 9.26650E+00
 -1      3056 1.31792E+01
 -1      3057 5.53802E-01
 -1      3058 4.23092E-01
 -1      3059 1.20532E+01
 -1      3060 1.79677E+01
 -1      3061 1.42881E+01
 -1      3062 5.50504E-01
 -1      3063 3.92534E+00
 -1      3064 3.86994E-01
 -1      3065 4.06317E-01
 -1      3066 3.47949E-01
 -1      3067 3.24672E-01
 -1      3068 7.71082E+00
 -1      3069 8.83880E+00
 -1      3070 8.25088E+00
 -1      3071 5.40465E+00
 -1      3072 1.73173E+01
 -1      3073 1.18378E+01
 -1      3074 1.53020E+01
 -1      3075 3.74286E+00
 -1      3076 4.18752E+00
 -1      3077 3.04359E-01
 -1      3078 3.08291E-01
 -1      3079 3.24256E+00
 -1      3080 4.34858E+00
 -1      3081 4.34742E+00
 -1      3082 1.88613E-01
 -1      3083 1.51513E-01
 -1      3084 1.70581E-01
 -1      3085 1.58128E-01
 -1      3086 1.54081E-01
 -1      3087 1.92677E-01
 -1      3088 2.42565E-01
 -1      3089 2.07698E-01
 -1      3090 2.92296E-01
 -1      3091 3.60928E-01
 -1      3092 2.91979E-01
 -1      3093 4.25549E-01
 -1      3094 5.07093E-01
 -1      3095 4.06332E-01
 -1      3096 5.92933E-01
 -1      3097 6.87755E-01
 -1      3098 5.56793E-01
 -1      3099 7.90540E-01
 -1      3100 8.98781E-01
 -1      3101 7.45418E-01
 -1      3102 1.03346E+00
 -1      3103 1.15340E+00
 -1      3104 9.82883E-01
 -1      3105 1.34081E+00
 -1      3106 1.46475E+00
 -1      3107 1.30497E+00
 -1      3108 1.73913E+00
 -1      3109 1.89718E+00
 -1      3110 1.76676E+00
 -1      3111 2.28683E+00
 -1      3112 2.53608E+00
 -1      3113 2.43079E+00
 -1      3114 3.25647E+00
 -1      3115 3.61043E+00
 -1      3116 3.54083E+00
 -1      3117 4.41669E+00
 -1      3118 4.81650E+00
 -1      3119 4.61209E+00
 -1      3120 4.64520E+00
 -1      3121 3.44059E+00
 -1      3122 3.25186E+00
 -1      3123 5.19228E+00
 -1      3124 2.68819E+00
 -1      3125 2.42233E+00
 -1      3126 3.42399E+00
 -1      3127 2.15114E+00
 -1      3128 1.93607E+00
 -1      3129 2.58913E+00
 -1      3130 1.65698E+00
 -1      3131 1.55117E+00
 -1      3132 2.03885E+00
 -1      3133 1.32849E+00
 -1      3134 1.21766E+00
 -1      3135 1.53707E+00
 -1      3136 1.07190E+00
 -1      3137 9.69276E-01
 -1      3138 1.16863E+00
 -1      3139 8.64191E-01
 -1      3140 7.74255E-01
 -1      3141 9.17780E-01
 -1      3142 6.93984E-01
 -1      3143 6.17467E-01
 -1      3144 7.32424E-01
 -1      3145 5.46952E-01
 -1      3146 4.83117E-01
 -1      3147 5.81639E-01
 -1      3148 4.23811E-01
 -1      3149 3.71415E-01
 -1      3150 4.51818E-01
 -1      3151 3.23015E-01
 -1      3152 2.80663E-01
 -1      3153 3.44112E-01
 -1      3154 2.42068E-01
 -1      3155 2.08357E-01
 -1      3156 2.57117E-01
 -1      3157 1.78206E-01
 -1      3158 1.51790E-01
 -1      3159 1.88371E-01
 -1      3160 1.28964E-01
 -1      3161 1.08593E-01
 -1      3162 1.35394E-01
 -1      3163 9.21238E-02
 -1      3164 7.66850E-02
 -1      3165 9.60980E-02
 -1      3166 6.44188E-02
 -1      3167 5.29412E-02
 -1      3168 6.73621E-02
 -1      3169 4.46765E-02
 -1      3170 3.63270E-02
 -1      3171 4.68313E-02
 -1      3172 3.01586E-02
 -1      3173 2.42503E-02
 -1      3174 3.23982E-02
 -1      3175 2.11798E-02
 -1      3176 1.70915E-02
 -1      3177 2.31592E-02
 -1      3178 1.63151E-01
 -1      3179 1.90359E-01
 -1      3180 4.91996E-01
 -1      3181 4.33745E-01
 -1      3182 3.68975E-01
 -1      3183 3.09544E-01
 -1      3184 3.99631E-01
 -1      3185 7.43649E-01
 -1      3186 6.91977E-01
 -1      3187 8.88765E-01
 -1      3188 8.16670E-01
 -1      3189 8.35361E-01
 -1      3190 1.07451E+00
 -1      3191 1.01581E+00
 -1      3192 1.03543E+00
 -1      3193 1.26246E+00
 -1      3194 1.22339E+00
 -1      3195 1.31135E+00
 -1      3196 1.52914E+00
 -1      3197 1.39647E+00
 -1      3198 1.59423E+00
 -1      3199 1.67318E+00
 -1      3200 1.51790E+00
 -1      3201 1.71699E+00
 -1      3202 2.21056E+00
 -1      3203 2.11771E+00
 -1      3204 2.15027E+00
 -1      3205 2.32912E+00
 -1      3206 2.21635E+00
 -1      3207 2.60059E+00
 -1      3208 3.52426E+00
 -1      3209 2.78805E+00
 -1      3210 4.27083E+00
 -1      3211 4.49275E+00
 -1      3212 1.99940E+00
 -1      3213 2.49708E+00
 -1      3214 1.96042E+00
 -1      3215 2.01523E+00
 -1      3216 2.51291E+00
 -1      3217 1.66349E+00
 -1      3218 1.69407E+00
 -1      3219 2.26240E+00
 -1      3220 1.32471E+00
 -1      3221 1.48926E+00
 -1      3222 1.82181E+00
 -1      3223 1.18479E+00
 -1      3224 1.20950E+00
 -1      3225 1.53236E+00
 -1      3226 1.00599E+00
 -1      3227 1.05813E+00
 -1      3228 1.29049E+00
 -1      3229 8.45978E-01
 -1      3230 8.91924E-01
 -1      3231 1.04977E+00
 -1      3232 7.48676E-01
 -1      3233 7.82846E-01
 -1      3234 8.72570E-01
 -1      3235 6.39074E-01
 -1      3236 6.83103E-01
 -1      3237 7.43864E-01
 -1      3238 5.30039E-01
 -1      3239 5.79494E-01
 -1      3240 6.18711E-01
 -1      3241 4.26586E-01
 -1      3242 4.75062E-01
 -1      3243 5.04155E-01
 -1      3244 3.36042E-01
 -1      3245 3.78892E-01
 -1      3246 4.01485E-01
 -1      3247 2.60932E-01
 -1      3248 2.96966E-01
 -1      3249 3.14715E-01
 -1      3250 1.99639E-01
 -1      3251 2.28803E-01
 -1      3252 2.43510E-01
 -1      3253 1.49840E-01
 -1      3254 1.73685E-01
 -1      3255 1.85427E-01
 -1      3256 1.10247E-01
 -1      3257 1.29231E-01
 -1      3258 1.38864E-01
 -1      3259 7.94156E-02
 -1      3260 9.41590E-02
 -1      3261 1.02166E-01
 -1      3262 5.59114E-02
 -1      3263 6.70817E-02
 -1      3264 7.37443E-02
 -1      3265 3.84092E-02
 -1      3266 4.66462E-02
 -1      3267 5.21452E-02
 -1      3268 2.53191E-02
 -1      3269 3.13917E-02
 -1      3270 3.58625E-02
 -1      3271 1.70436E-02
 -1      3272 1.70436E-02
 -1      3273 1.63240E-02
 -1      3274 1.68762E-02
 -1      3275 1.97300E-02
 -1      3276 1.70436E-02
 -1      3277 1.70161E-02
 -1      3278 1.98974E-02
 -1      3279 4.70653E+00
 -1      3280 3.32973E+00
 -1      3281 2.10818E-01
 -1      3282 2.49373E-01
 -1      3283 1.35793E-01
 -1      3284 4.79794E-01
 -1      3285 1.15636E+01
 -1      3286 1.23137E+01
 -1      3287 1.06328E+01
 -1      3288 1.20580E+01
 -1      3289 1.18767E-02
 -1      3290 6.15314E-01
 -1      3291 5.64302E-01
 -1      3292 5.36707E-01
 -1      3293 6.85677E-01
 -1      3294 3.70029E-01
 -1      3295 3.00309E-01
 -1      3296 2.51296E-01
 -1      3297 3.39446E-01
 -1      3298 1.21105E+01
 -1      3299 1.09275E+01
 -1      3300 1.49173E-02
 -1      3301 1.01947E+01
 -1      3302 9.18925E+00
 -1      3303 1.01112E+01
 -1      3304 1.20977E+01
 -1      3305 4.03005E+00
 -1      3306 8.51439E+00
 -1      3307 9.52345E+00
 -1      3308 2.23137E-01
 -1      3309 1.94470E-01
 -1      3310 1.40870E-01
 -1      3311 1.27125E+01
 -1      3312 1.42971E+01
 -1      3313 4.78466E+00
 -1      3314 1.02517E+01
 -1      3315 8.70141E+00
 -1      3316 7.92051E+00
 -1      3317 6.18721E+00
 -1      3318 5.56843E+00
 -1      3319 3.62691E+00
 -1      3320 1.24412E+01
 -1      3321 1.15636E+01
 -1      3322 9.71668E+00
 -1      3323 2.95136E+00
 -1      3324 4.41214E+00
 -1      3325 1.59923E-02
 -1      3326 1.65870E-02
 -1      3327 1.98257E-02
 -1      3328 9.00262E+00
 -1      3329 7.65611E+00
 -1      3330 5.80687E+00
 -1      3331 7.57002E+00
 -1      3332 3.00414E-01
 -1      3333 2.85224E-01
 -1      3334 4.77473E+00
 -1      3335 4.93757E+00
 -1      3336 4.55277E+00
 -1      3337 3.50884E+00
 -1      3338 2.73105E-01
 -1      3339 2.72367E-01
 -1      3340 2.46714E-01
 -1      3341 3.95041E+00
 -1      3342 8.44190E+00
 -1      3343 9.04181E+00
 -1      3344 1.42971E+01
 -1      3345 1.00467E+01
 -1      3346 5.06748E+00
 -1      3347 3.83565E-01
 -1      3348 3.60844E+00
 -1      3349 3.16071E+00
 -1      3350 3.17673E-01
 -1      3351 2.88423E-01
 -1      3352 2.12014E-01
 -1      3353 1.52661E-02
 -1      3354 1.61943E-02
 -1      3355 7.57885E+00
 -1      3356 1.48739E-02
 -1      3357 1.86392E-01
 -1      3358 1.38575E-01
 -1      3359 1.80428E-01
 -1      3360 1.64733E-02
 -1      3361 1.86786E-02
 -1      3362 1.70103E-02
 -1      3363 2.77990E+00
 -1      3364 2.81541E-01
 -1      3365 2.56224E-01
 -1      3366 2.13630E-01
 -1      3367 3.06532E+00
 -1      3368 3.95041E+00
 -1      3369 4.37656E+00
 -1      3370 3.21490E+00
 -1      3371 3.21490E+00
 -1      3372 3.93271E+00
 -1      3373 3.55434E+00
 -1      3374 2.17050E-02
 -1      3375 2.52307E-02
 -1      3376 1.84518E-02
 -1      3377 3.07191E-01
 -1      3378 2.65609E-01
 -1      3379 3.16811E-01
 -1      3380 4.57070E+00
 -1      3381 4.27083E+00
 -1      3382 1.70103E-02
 -1      3383 1.70103E-02
 -1      3384 1.98858E-02
 -1      3385 1.98916E-02
 -1      3386 1.06376E+01
 -1      3387 2.91162E+00
 -1      3388 1.59923E-02
 -1      3389 9.37316E+00
 -1      3390 5.90612E+00
 -1      3391 3.55455E+00
 -1      3392 5.64223E+00
 -1      3393 7.17780E+00
 -1      3394 9.15531E+00
 -1      3395 1.20280E+01
 -1      3396 8.35740E+00
 -1      3397 8.63455E+00
 -1      3398 1.60368E-02
 -1      3399 1.60368E-02
 -1      3400 1.62217E-02
 -1      3401 1.73139E-02
 -1      3402 2.97765E+00
 -1      3403 1.03622E+01
 -1      3404 7.93293E+00
 -1      3405 9.57596E+00
 -1      3406 6.90981E+00
 -1      3407 2.60426E-01
 -1      3408 3.05001E-01
 -1      3409 2.12801E-01
 -1      3410 1.67304E-01
 -1      3411 3.16811E-01
 -1      3412 3.16811E-01
 -1      3413 2.72385E-01
 -1      3414 2.63865E-01
 -1      3415 2.78362E+00
 -1      3416 2.00887E-02
 -1      3417 4.76246E+00
 -1      3418 9.51353E+00
 -1      3419 3.05923E-01
 -1      3420 3.14665E-01
 -1      3421 3.16996E-01
 -1      3422 3.43192E-01
 -1      3423 2.74970E-01
 -1      3424 2.56752E+00
 -1      3425 2.83387E+00
 -1      3426 3.45331E+00
 -1      3427 2.06653E-01
 -1      3428 2.41203E-01
 -1      3429 2.81620E-01
 -1      3430 3.31352E-01
 -1      3431 2.80575E-01
 -1      3432 3.97867E-01
 -1      3433 4.62488E-01
 -1      3434 3.87508E-01
 -1      3435 5.50508E-01
 -1      3436 6.36348E-01
 -1      3437 5.42042E-01
 -1      3438 7.45418E-01
 -1      3439 8.48202E-01
 -1      3440 7.39132E-01
 -1      3441 9.82883E-01
 -1      3442 1.11756E+00
 -1      3443 9.82883E-01
 -1      3444 1.28063E+00
 -1      3445 1.46804E+00
 -1      3446 1.28063E+00
 -1      3447 1.73060E+00
 -1      3448 2.00498E+00
 -1      3449 1.70626E+00
 -1      3450 2.19914E+00
 -1      3451 2.58878E+00
 -1      3452 2.16298E+00
 -1      3453 3.06598E+00
 -1      3454 3.78637E+00
 -1      3455 2.83433E+00
 -1      3456 3.43192E-01
 -1      3457 3.55802E+00
 -1      3458 6.35224E+00
 -1      3459 6.16561E+00
 -1      3460 3.95109E+00
 -1      3461 3.38741E+00
 -1      3462 2.92159E+00
 -1      3463 2.65040E+00
 -1      3464 3.44868E+00
 -1      3465 2.31597E+00
 -1      3466 2.03688E+00
 -1      3467 2.64843E+00
 -1      3468 1.71782E+00
 -1      3469 1.49513E+00
 -1      3470 1.99494E+00
 -1      3471 1.30506E+00
 -1      3472 1.15930E+00
 -1      3473 1.48581E+00
 -1      3474 1.02286E+00
 -1      3475 9.17780E-01
 -1      3476 1.15930E+00
 -1      3477 8.06185E-01
 -1      3478 7.25914E-01
 -1      3479 9.11270E-01
 -1      3480 6.36418E-01
 -1      3481 5.65904E-01
 -1      3482 7.10179E-01
 -1      3483 4.94389E-01
 -1      3484 4.35083E-01
 -1      3485 5.49168E-01
 -1      3486 3.78168E-01
 -1      3487 3.29768E-01
 -1      3488 4.20739E-01
 -1      3489 2.84765E-01
 -1      3490 2.46169E-01
 -1      3491 3.18821E-01
 -1      3492 2.10867E-01
 -1      3493 1.80716E-01
 -1      3494 2.38514E-01
 -1      3495 1.53322E-01
 -1      3496 1.30496E-01
 -1      3497 1.75818E-01
 -1      3498 1.09510E-01
 -1      3499 9.30399E-02
 -1      3500 1.27438E-01
 -1      3501 7.71580E-02
 -1      3502 6.48918E-02
 -1      3503 9.05697E-02
 -1      3504 5.34329E-02
 -1      3505 4.51682E-02
 -1      3506 6.32288E-02
 -1      3507 3.70002E-02
 -1      3508 3.08318E-02
 -1      3509 4.36018E-02
 -1      3510 2.54621E-02
 -1      3511 2.23916E-02
 -1      3512 2.23916E-02
 -1      3513 3.00642E-02
 -1      3514 7.03217E+00
 -1      3515 7.61990E+00
 -1      3516 1.22956E+00
 -1      3517 1.10252E+00
 -1      3518 9.49880E-01
 -1      3519 8.76859E-01
 -1      3520 1.14402E+00
 -1      3521 1.74375E+00
 -1      3522 1.60975E+00
 -1      3523 2.21412E+00
 -1      3524 2.22536E+00
 -1      3525 2.24088E+00
 -1      3526 3.24352E+00
 -1      3527 2.79899E+00
 -1      3528 2.91162E+00
 -1      3529 2.90584E+00
 -1      3530 2.83652E+00
 -1      3531 4.49275E+00
 -1      3532 2.85236E+00
 -1      3533 1.77261E+00
 -1      3534 1.88783E+00
 -1      3535 1.37369E+00
 -1      3536 1.50035E+00
 -1      3537 1.85581E+00
 -1      3538 1.11074E+00
 -1      3539 1.22480E+00
 -1      3540 1.43466E+00
 -1      3541 9.11489E-01
 -1      3542 9.74621E-01
 -1      3543 1.14966E+00
 -1      3544 7.31133E-01
 -1      3545 7.96706E-01
 -1      3546 8.98757E-01
 -1      3547 5.89500E-01
 -1      3548 6.49080E-01
 -1      3549 7.01921E-01
 -1      3550 4.73421E-01
 -1      3551 5.28398E-01
 -1      3552 5.58766E-01
 -1      3553 3.80609E-01
 -1      3554 4.28303E-01
 -1      3555 4.52546E-01
 -1      3556 3.00121E-01
 -1      3557 3.39197E-01
 -1      3558 3.66015E-01
 -1      3559 2.31958E-01
 -1      3560 2.64087E-01
 -1      3561 2.88569E-01
 -1      3562 1.75766E-01
 -1      3563 2.01719E-01
 -1      3564 2.22296E-01
 -1      3565 1.30499E-01
 -1      3566 1.51109E-01
 -1      3567 1.67401E-01
 -1      3568 9.48452E-02
 -1      3569 1.10933E-01
 -1      3570 1.23178E-01
 -1      3571 6.73578E-02
 -1      3572 7.96918E-02
 -1      3573 8.84587E-02
 -1      3574 4.71838E-02
 -1      3575 5.64489E-02
 -1      3576 6.23964E-02
 -1      3577 3.20490E-02
 -1      3578 3.90665E-02
 -1      3579 4.33703E-02
 -1      3580 9.15531E+00
 -1      3581 9.15531E+00
 -1      3582 2.43558E-02
 -1      3583 2.45232E-02
 -1      3584 2.45232E-02
 -1      3585 2.45232E-02
 -1      3586 2.91490E-02
 -1      3587 8.45385E+00
 -1      3588 8.45865E+00
 -1      3589 5.62166E+00
 -1      3590 6.56603E+00
 -1      3591 8.18693E+00
 -1      3592 7.98378E+00
 -1      3593 1.31760E-01
 -1      3594 1.52218E-01
 -1      3595 2.07692E+00
 -1      3596 2.25115E+00
 -1      3597 2.82263E+00
 -1      3598 2.31717E+00
 -1      3599 1.57981E-01
 -1      3600 1.52124E-01
 -1      3601 7.91237E+00
 -1      3602 7.23654E+00
 -1      3603 4.50957E-01
 -1      3604 3.86187E-01
 -1      3605 2.83089E-01
 -1      3606 2.97624E-01
 -1      3607 2.64340E-01
 -1      3608 5.97319E+00
 -1      3609 1.60314E-01
 -1      3610 1.79382E-01
 -1      3611 2.12887E-01
 -1      3612 1.57290E+00
 -1      3613 1.42402E+00
 -1      3614 1.49112E+00
 -1      3615 1.72242E+00
 -1      3616 8.39933E+00
 -1      3617 8.39933E+00
 -1      3618 6.07670E+00
 -1      3619 2.23916E-02
 -1      3620 2.21286E-02
 -1      3621 2.69218E-02
 -1      3622 2.46945E-02
 -1      3623 8.05580E+00
 -1      3624 8.39933E+00
 -1      3625 6.61521E+00
 -1      3626 8.79420E+00
 -1      3627 2.13913E-01
 -1      3628 2.22433E-01
 -1      3629 7.57954E+00
 -1      3630 7.57954E+00
 -1      3631 1.90471E-01
 -1      3632 2.01724E-01
 -1      3633 2.55757E-01
 -1      3634 5.13114E+00
 -1      3635 5.60599E+00
 -1      3636 3.46165E+00
 -1      3637 7.14285E+00
 -1      3638 5.72961E+00
 -1      3639 7.31029E+00
 -1      3640 1.95019E-01
 -1      3641 7.08197E+00
 -1      3642 3.29629E-01
 -1      3643 2.76309E-01
 -1      3644 3.80956E-01
 -1      3645 1.83864E-01
 -1      3646 1.87914E-01
 -1      3647 1.46482E-01
 -1      3648 1.49419E-01
 -1      3649 6.86957E+00
 -1      3650 8.63317E-01
 -1      3651 7.48798E-01
 -1      3652 6.72135E-01
 -1      3653 3.30737E+00
 -1      3654 7.31187E+00
 -1      3655 5.20358E-01
 -1      3656 5.06914E-01
 -1      3657 5.92664E-01
 -1      3658 6.80684E+00
 -1      3659 5.83301E+00
 -1      3660 5.39711E+00
 -1      3661 7.67298E+00
 -1      3662 2.74476E-02
 -1      3663 3.06517E-02
 -1      3664 2.38334E-02
 -1      3665 1.93865E-02
 -1      3666 4.55222E+00
 -1      3667 4.20844E+00
 -1      3668 2.29317E-01
 -1      3669 2.22540E-01
 -1      3670 2.43816E-02
 -1      3671 2.31744E-02
 -1      3672 2.13477E-01
 -1      3673 2.01359E-01
 -1      3674 1.77185E-01
 -1      3675 2.80401E-02
 -1      3676 2.34143E-02
 -1      3677 2.34085E-02
 -1      3678 5.74402E+00
 -1      3679 5.47631E+00
 -1      3680 3.72632E+00
 -1      3681 3.14145E+00
 -1      3682 4.24970E+00
 -1      3683 6.58577E+00
 -1      3684 1.73323E-01
 -1      3685 1.50082E-01
 -1      3686 1.66508E-01
 -1      3687 1.37600E-01
 -1      3688 1.41633E-01
 -1      3689 2.60638E+00
 -1      3690 8.57109E+00
 -1      3691 1.77425E-01
 -1      3692 1.52685E-01
 -1      3693 2.39852E-01
 -1      3694 2.48151E-01
 -1      3695 2.45318E-01
 -1      3696 4.24709E+00
 -1      3697 6.89512E+00
 -1      3698 2.74638E-02
 -1      3699 2.17608E-02
 -1      3700 2.28939E-01
 -1      3701 2.53427E-01
 -1      3702 6.31874E+00
 -1      3703 7.78101E+00
 -1      3704 7.31029E+00
 -1      3705 5.09142E+00
 -1      3706 6.91103E+00
 -1      3707 7.27215E+00
 -1      3708 4.61422E+00
 -1      3709 1.79592E-01
 -1      3710 1.87783E-01
 -1      3711 3.55006E-01
 -1      3712 4.21521E-01
 -1      3713 4.98672E-01
 -1      3714 5.86692E-01
 -1      3715 4.66171E-01
 -1      3716 6.88462E-01
 -1      3717 7.97532E-01
 -1      3718 6.45091E-01
 -1      3719 9.35890E-01
 -1      3720 1.07057E+00
 -1      3721 8.85220E-01
 -1      3722 1.26877E+00
 -1      3723 1.43184E+00
 -1      3724 1.22178E+00
 -1      3725 1.70626E+00
 -1      3726 1.96883E+00
 -1      3727 1.69441E+00
 -1      3728 4.01580E+00
 -1      3729 4.20995E+00
 -1      3730 4.01580E+00
 -1      3731 2.77300E-01
 -1      3732 5.27044E+00
 -1      3733 1.30550E+00
 -1      3734 1.15286E+00
 -1      3735 3.26791E+00
 -1      3736 2.93348E+00
 -1      3737 2.29666E+00
 -1      3738 1.97760E+00
 -1      3739 2.91614E+00
 -1      3740 1.67588E+00
 -1      3741 1.48581E+00
 -1      3742 1.97760E+00
 -1      3743 1.26189E+00
 -1      3744 1.12546E+00
 -1      3745 1.45196E+00
 -1      3746 9.69017E-01
 -1      3747 8.57422E-01
 -1      3748 1.07161E+00
 -1      3749 7.45952E-01
 -1      3750 6.56456E-01
 -1      3751 8.03699E-01
 -1      3752 5.73967E-01
 -1      3753 5.02452E-01
 -1      3754 6.09740E-01
 -1      3755 4.39602E-01
 -1      3756 3.82687E-01
 -1      3757 4.64400E-01
 -1      3758 3.34163E-01
 -1      3759 2.89160E-01
 -1      3760 3.53027E-01
 -1      3761 2.51468E-01
 -1      3762 2.16165E-01
 -1      3763 2.66811E-01
 -1      3764 1.86821E-01
 -1      3765 1.59428E-01
 -1      3766 1.99775E-01
 -1      3767 1.36755E-01
 -1      3768 1.15769E-01
 -1      3769 1.47758E-01
 -1      3770 9.83433E-02
 -1      3771 8.24614E-02
 -1      3772 1.07660E-01
 -1      3773 6.91929E-02
 -1      3774 5.77340E-02
 -1      3775 7.69665E-02
 -1      3776 4.77168E-02
 -1      3777 3.95487E-02
 -1      3778 5.36809E-02
 -1      3779 3.43248E-02
 -1      3780 2.89552E-02
 -1      3781 2.89552E-02
 -1      3782 3.84398E-02
 -1      3783 2.16033E-02
 -1      3784 2.65984E+00
 -1      3785 2.43816E-02
 -1      3786 2.88774E-02
 -1      3787 2.43816E-02
 -1      3788 1.15834E+00
 -1      3789 1.29446E+00
 -1      3790 1.71171E+00
 -1      3791 1.86059E+00
 -1      3792 1.72039E+00
 -1      3793 2.82723E+00
 -1      3794 3.09950E+00
 -1      3795 3.10429E+00
 -1      3796 8.78138E-01
 -1      3797 9.92921E-01
 -1      3798 1.13772E+00
 -1      3799 6.89307E-01
 -1      3800 7.71360E-01
 -1      3801 8.65524E-01
 -1      3802 5.58766E-01
 -1      3803 6.19868E-01
 -1      3804 6.89307E-01
 -1      3805 4.52374E-01
 -1      3806 4.97493E-01
 -1      3807 5.58595E-01
 -1      3808 3.58557E-01
 -1      3809 3.99969E-01
 -1      3810 4.44916E-01
 -1      3811 2.78836E-01
 -1      3812 3.14871E-01
 -1      3813 3.48824E-01
 -1      3814 2.12940E-01
 -1      3815 2.43178E-01
 -1      3816 2.69480E-01
 -1      3817 1.59448E-01
 -1      3818 1.84105E-01
 -1      3819 2.04987E-01
 -1      3820 1.17030E-01
 -1      3821 1.36596E-01
 -1      3822 1.53300E-01
 -1      3823 8.40245E-02
 -1      3824 9.91779E-02
 -1      3825 1.12595E-01
 -1      3826 5.93528E-02
 -1      3827 7.02617E-02
 -1      3828 8.09809E-02
 -1      3829 4.09179E-02
 -1      3830 4.90351E-02
 -1      3831 5.69004E-02
 -1      3832 2.55757E-01
 -1      3833 2.36524E-01
 -1      3834 2.03321E-01
 -1      3835 2.14828E-01
 -1      3836 4.49648E+00
 -1      3837 4.96263E+00
 -1      3838 2.29317E-01
 -1      3839 2.29317E-01
 -1      3840 1.86248E-01
 -1      3841 1.79365E-01
 -1      3842 7.27215E+00
 -1      3843 7.27215E+00
 -1      3844 6.49429E+00
 -1      3845 1.94216E-01
 -1      3846 1.83630E-01
 -1      3847 3.01323E-02
 -1      3848 3.47337E-02
 -1      3849 4.03985E-02
 -1      3850 3.15459E-02
 -1      3851 1.99491E-01
 -1      3852 2.10214E-01
 -1      3853 1.94025E-01
 -1      3854 1.66254E-01
 -1      3855 3.34625E-02
 -1      3856 3.34625E-02
 -1      3857 3.89207E+00
 -1      3858 2.56082E-01
 -1      3859 2.96500E-01
 -1      3860 3.30514E-01
 -1      3861 1.96867E-01
 -1      3862 2.24138E-01
 -1      3863 2.40063E-01
 -1      3864 5.93661E+00
 -1      3865 5.95898E+00
 -1      3866 5.74658E+00
 -1      3867 5.64409E+00
 -1      3868 5.64409E+00
 -1      3869 5.82299E+00
 -1      3870 5.75159E+00
 -1      3871 5.62811E+00
 -1      3872 5.82959E+00
 -1      3873 6.46704E+00
 -1      3874 2.01724E-01
 -1      3875 1.69234E-01
 -1      3876 1.79592E-01
 -1      3877 1.96449E-01
 -1      3878 2.02853E+00
 -1      3879 1.83408E+00
 -1      3880 1.84292E+00
 -1      3881 5.38536E+00
 -1      3882 4.89621E+00
 -1      3883 5.76238E+00
 -1      3884 1.99035E-01
 -1      3885 4.45166E+00
 -1      3886 3.98583E+00
 -1      3887 4.91240E+00
 -1      3888 6.52022E+00
 -1      3889 4.27089E+00
 -1      3890 4.37514E-01
 -1      3891 3.80956E-01
 -1      3892 2.84611E-01
 -1      3893 9.84841E-01
 -1      3894 8.56780E-01
 -1      3895 1.14632E+00
 -1      3896 1.82511E-01
 -1      3897 1.73447E-01
 -1      3898 2.79043E-02
 -1      3899 6.55786E-01
 -1      3900 5.14055E+00
 -1      3901 4.32749E+00
 -1      3902 2.92158E+00
 -1      3903 3.11068E+00
 -1      3904 5.06914E-01
 -1      3905 5.06914E-01
 -1      3906 5.76315E-01
 -1      3907 6.87131E+00
 -1      3908 3.34625E-02
 -1      3909 3.23536E-02
 -1      3910 3.77759E-02
 -1      3911 3.11824E-02
 -1      3912 3.15459E-02
 -1      3913 3.42143E-02
 -1      3914 3.15459E-02
 -1      3915 1.94216E-01
 -1      3916 2.40246E-01
 -1      3917 2.12538E-01
 -1      3918 4.17573E+00
 -1      3919 3.48643E+00
 -1      3920 2.58586E+00
 -1      3921 4.17184E+00
 -1      3922 5.42080E+00
 -1      3923 3.98291E+00
 -1      3924 1.31352E-01
 -1      3925 1.60990E-01
 -1      3926 1.33776E-01
 -1      3927 2.54902E+00
 -1      3928 5.21444E+00
 -1      3929 2.13247E-01
 -1      3930 2.09509E-01
 -1      3931 3.54959E-02
 -1      3932 4.52109E+00
 -1      3933 5.13896E+00
 -1      3934 5.82959E+00
 -1      3935 5.82959E+00
 -1      3936 6.46704E+00
 -1      3937 2.89197E+00
 -1      3938 2.27806E-01
 -1      3939 2.59750E-01
 -1      3940 1.63127E-01
 -1      3941 1.73486E-01
 -1      3942 1.27669E-01
 -1      3943 5.52782E-01
 -1      3944 6.54553E-01
 -1      3945 7.57210E-01
 -1      3946 8.95568E-01
 -1      3947 6.64901E-01
 -1      3948 1.04983E+00
 -1      3949 1.24804E+00
 -1      3950 9.21824E-01
 -1      3951 1.49288E+00
 -1      3952 1.76730E+00
 -1      3953 1.32093E+00
 -1      3954 2.24381E+00
 -1      3955 4.29077E+00
 -1      3956 2.04227E+00
 -1      3957 4.19447E+00
 -1      3958 3.21274E-01
 -1      3959 2.81488E-01
 -1      3960 3.77832E-01
 -1      3961 2.20924E+00
 -1      3962 1.90752E+00
 -1      3963 1.50163E+00
 -1      3964 1.27771E+00
 -1      3965 1.73327E+00
 -1      3966 1.08107E+00
 -1      3967 9.24628E-01
 -1      3968 1.13073E+00
 -1      3969 8.00937E-01
 -1      3970 6.89466E-01
 -1      3971 8.10395E-01
 -1      3972 6.04583E-01
 -1      3973 5.22094E-01
 -1      3974 6.01820E-01
 -1      3975 4.60162E-01
 -1      3976 3.97312E-01
 -1      3977 4.55006E-01
 -1      3978 3.50525E-01
 -1      3979 3.02001E-01
 -1      3980 3.46287E-01
 -1      3981 2.65893E-01
 -1      3982 2.28201E-01
 -1      3983 2.63391E-01
 -1      3984 2.00607E-01
 -1      3985 1.71263E-01
 -1      3986 1.99689E-01
 -1      3987 1.49482E-01
 -1      3988 1.26809E-01
 -1      3989 1.50313E-01
 -1      3990 1.09815E-01
 -1      3991 9.23896E-02
 -1      3992 1.11538E-01
 -1      3993 7.93192E-02
 -1      3994 6.60507E-02
 -1      3995 8.14737E-02
 -1      3996 1.44228E+00
 -1      3997 1.85954E+00
 -1      3998 3.06561E-02
 -1      3999 3.16292E-02
 -1      4000 3.42977E-02
 -1      4001 3.60784E-02
 -1      4002 3.89301E+00
 -1      4003 8.65524E-01
 -1      4004 9.72302E-01
 -1      4005 1.10852E+00
 -1      4006 1.27393E+00
 -1      4007 1.10852E+00
 -1      4008 1.89951E-01
 -1      4009 1.99035E-01
 -1      4010 2.18722E-01
 -1      4011 1.73486E-01
 -1      4012 6.85019E-01
 -1      4013 7.54458E-01
 -1      4014 8.61236E-01
 -1      4015 5.37767E-01
 -1      4016 5.99040E-01
 -1      4017 6.64190E-01
 -1      4018 4.18899E-01
 -1      4019 4.71304E-01
 -1      4020 5.11750E-01
 -1      4021 3.22853E-01
 -1      4022 3.66540E-01
 -1      4023 3.92928E-01
 -1      4024 2.46410E-01
 -1      4025 2.82068E-01
 -1      4026 2.99783E-01
 -1      4027 1.85871E-01
 -1      4028 2.14706E-01
 -1      4029 2.27294E-01
 -1      4030 1.38332E-01
 -1      4031 1.61184E-01
 -1      4032 1.70903E-01
 -1      4033 1.01140E-01
 -1      4034 1.18992E-01
 -1      4035 1.26877E-01
 -1      4036 7.24291E-02
 -1      4037 8.61919E-02
 -1      4038 9.25886E-02
 -1      4039 5.06603E-02
 -1      4040 6.09780E-02
 -1      4041 6.61890E-02
 -1      4042 1.32003E-01
 -1      4043 1.30136E-01
 -1      4044 1.37329E-01
 -1      4045 2.06363E-01
 -1      4046 2.13247E-01
 -1      4047 7.34119E-01
 -1      4048 6.54648E-01
 -1      4049 6.54648E-01
 -1      4050 8.55642E-01
 -1      4051 4.17573E+00
 -1      4052 3.41246E+00
 -1      4053 3.73918E-02
 -1      4054 4.35760E-02
 -1      4055 4.76536E-02
 -1      4056 3.73918E-02
 -1      4057 3.01040E-01
 -1      4058 3.59547E-01
 -1      4059 2.88783E-01
 -1      4060 2.89197E+00
 -1      4061 1.23748E-01
 -1      4062 1.49748E-01
 -1      4063 3.54515E+00
 -1      4064 3.80172E+00
 -1      4065 3.38950E+00
 -1      4066 2.57852E+00
 -1      4067 2.40246E-01
 -1      4068 2.09509E-01
 -1      4069 2.40246E-01
 -1      4070 2.45224E-01
 -1      4071 2.15226E-01
 -1      4072 2.42934E-01
 -1      4073 2.81886E-01
 -1      4074 3.54079E+00
 -1      4075 3.85568E+00
 -1      4076 4.11319E-01
 -1      4077 4.88469E-01
 -1      4078 4.97930E-01
 -1      4079 3.86016E+00
 -1      4080 3.21865E+00
 -1      4081 2.58183E+00
 -1      4082 1.68065E-01
 -1      4083 4.16905E-01
 -1      4084 3.57223E-01
 -1      4085 4.04719E+00
 -1      4086 4.28994E+00
 -1      4087 2.51175E+00
 -1      4088 3.81845E-01
 -1      4089 1.41308E+00
 -1      4090 5.90924E-02
 -1      4091 4.90752E-02
 -1      4092 4.07198E-02
 -1      4093 1.39889E+00
 -1      4094 1.23087E+00
 -1      4095 4.61313E-02
 -1      4096 5.82341E-01
 -1      4097 5.12940E-01
 -1      4098 4.92332E-01
 -1      4099 9.71009E-02
 -1      4100 6.06276E+00
 -1      4101 6.46704E+00
 -1      4102 3.47512E+00
 -1      4103 2.80970E+00
 -1      4104 3.25183E+00
 -1      4105 2.36265E+00
 -1      4106 1.83408E+00
 -1      4107 1.91862E+00
 -1      4108 2.30041E+00
 -1      4109 4.96634E+00
 -1      4110 2.87985E+00
 -1      4111 4.30410E-02
 -1      4112 4.30410E-02
 -1      4113 5.13964E-02
 -1      4114 4.29077E+00
 -1      4115 4.27571E+00
 -1      4116 6.14450E-02
 -1      4117 6.26769E-01
 -1      4118 7.29426E-01
 -1      4119 1.50390E-01
 -1      4120 1.79741E-01
 -1      4121 1.49173E-01
 -1      4122 5.57037E-01
 -1      4123 6.23499E-01
 -1      4124 9.78787E-01
 -1      4125 1.08985E+00
 -1      4126 3.70403E-01
 -1      4127 4.22175E-01
 -1      4128 8.43715E-01
 -1      4129 9.97982E-01
 -1      4130 8.05584E-01
 -1      4131 1.17151E+00
 -1      4132 1.41635E+00
 -1      4133 1.09340E+00
 -1      4134 2.04227E+00
 -1      4135 2.51878E+00
 -1      4136 1.89286E+00
 -1      4137 2.13917E+00
 -1      4138 1.73327E+00
 -1      4139 3.44092E+00
 -1      4140 4.28994E+00
 -1      4141 2.50727E+00
 -1      4142 1.26739E+00
 -1      4143 1.07075E+00
 -1      4144 1.67329E+00
 -1      4145 9.18420E-01
 -1      4146 7.94728E-01
 -1      4147 1.05508E+00
 -1      4148 6.77745E-01
 -1      4149 5.92862E-01
 -1      4150 7.85770E-01
 -1      4151 5.01597E-01
 -1      4152 4.39665E-01
 -1      4153 5.77522E-01
 -1      4154 3.58190E-01
 -1      4155 3.11403E-01
 -1      4156 4.04781E-01
 -1      4157 2.90600E-01
 -1      4158 2.54492E-01
 -1      4159 3.02503E-01
 -1      4160 2.12404E-01
 -1      4161 1.84810E-01
 -1      4162 2.39613E-01
 -1      4163 1.62866E-01
 -1      4164 1.41084E-01
 -1      4165 1.75581E-01
 -1      4166 1.21220E-01
 -1      4167 1.04226E-01
 -1      4168 1.33773E-01
 -1      4169 9.26814E-02
 -1      4170 7.96110E-02
 -1      4171 1.02364E-01
 -1      4172 4.29077E+00
 -1      4173 1.23087E+00
 -1      4174 9.78303E-01
 -1      4175 8.55642E-01
 -1      4176 1.08985E+00
 -1      4177 1.22607E+00
 -1      4178 1.20741E+00
 -1      4179 4.13412E-01
 -1      4180 4.65772E-01
 -1      4181 5.77522E-01
 -1      4182 2.64307E-01
 -1      4183 3.05092E-01
 -1      4184 3.77935E-01
 -1      4185 1.96557E-01
 -1      4186 2.28262E-01
 -1      4187 2.33570E-01
 -1      4188 1.71871E-01
 -1      4189 1.96557E-01
 -1      4190 1.97525E-01
 -1      4191 1.30587E-01
 -1      4192 1.49927E-01
 -1      4193 1.75581E-01
 -1      4194 9.57743E-02
 -1      4195 1.10723E-01
 -1      4196 1.33773E-01
 -1      4197 6.74201E-02
 -1      4198 7.88712E-02
 -1      4199 9.70054E-02
 -1      4200 3.80847E+00
 -1      4201 2.94522E+00
 -1      4202 2.77314E-01
 -1      4203 3.18604E-01
 -1      4204 3.58934E-01
 -1      4205 3.43305E-01
 -1      4206 3.04232E-01
 -1      4207 2.67968E-01
 -1      4208 2.21354E-01
 -1      4209 7.40482E-01
 -1      4210 8.26461E-01
 -1      4211 1.05508E+00
 -1      4212 7.85770E-01
 -1      4213 2.89736E+00
 -1      4214 2.89736E+00
 -1      4215 2.42473E+00
 -1      4216 2.48844E+00
 -1      4217 2.85856E+00
 -1      4218 2.35076E+00
 -1      4219 1.76946E+00
 -1      4220 1.25962E+00
 -1      4221 1.42797E+00
 -1      4222 1.61600E+00
 -1      4223 1.24095E+00
 -1      4224 4.28994E+00
 -1      4225 4.83280E-01
 -1      4226 5.47593E-01
 -1      4227 6.12119E-01
 -1      4228 7.96110E-02
 -1      4229 7.26527E-02
 -1      4230 6.95624E-02
 -1      4231 9.08187E-02
 -1      4232 2.50727E+00
 -1      4233 2.95945E+00
 -1      4234 2.41589E+00
 -1      4235 2.41589E+00
 -1      4236 1.96206E-01
 -1      4237 4.71838E-01
 -1      4238 2.44160E+00
 -1      4239 2.20710E-01
 -1      4240 2.50530E-01
 -1      4241 1.91938E-01
 -1      4242 5.40209E-01
 -1      4243 4.44174E-01
 -1      4244 3.74170E-02
 -1      4245 3.73336E-02
 -1      4246 4.05112E-02
 -1      4247 1.32812E+00
 -1      4248 1.07555E+00
 -1      4249 4.15216E-01
 -1      4250 3.67339E-01
 -1      4251 3.14347E-01
 -1      4252 6.54648E-01
 -1      4253 6.60674E-01
 -1      4254 7.32982E-01
 -1      4255 2.35380E+00
 -1      4256 2.38057E-01
 -1      4257 2.38057E-01
 -1      4258 2.50511E-01
 -1      4259 2.52700E-01
 -1      4260 4.75954E-02
 -1      4261 2.04881E+00
 -1      4262 1.61363E+00
 -1      4263 1.45831E+00
 -1      4264 2.04881E+00
 -1      4265 2.33809E-01
 -1      4266 2.40745E-01
 -1      4267 2.77628E+00
 -1      4268 2.23272E+00
 -1      4269 1.92773E+00
 -1      4270 6.42973E-02
 -1      4271 6.25998E-02
 -1      4272 6.56358E-02
 -1      4273 6.95624E-02
 -1      4274 6.02777E-02
 -1      4275 2.75658E-01
 -1      4276 3.83978E-01
 -1      4277 4.86256E-01
 -1      4278 5.77522E-01
 -1      4279 5.35811E+00
 -1      4280 8.55642E-01
 -1      4281 9.20551E-01
 -1      4282 1.09408E+00
 -1      4283 5.78945E-01
 -1      4284 6.58121E-01
 -1      4285 4.75184E+00
 -1      4286 1.88916E+00
 -1      4287 1.42328E+00
 -1      4288 1.20741E+00
 -1      4289 1.05508E+00
 -1      4290 9.02753E-01
 -1      4291 7.85770E-01
 -1      4292 6.68787E-01
 -1      4293 3.02503E-01
 -1      4294 2.81700E-01
 -1      4295 2.81700E-01
 -1      4296 2.39613E-01
 -1      4297 1.97525E-01
 -1      4298 1.75581E-01
 -1      4299 1.53637E-01
 -1      4300 1.33773E-01
 -1      4301 1.13909E-01
 -1      4302 1.02364E-01
 -1      4303 6.06657E-01
 -1      4304 5.58499E-01
 -1      4305 2.39613E-01
 -1      4306 2.75658E-01
 -1      4307 8.54605E-02
 -1      4308 1.79833E+00
 -1      4309 2.19160E+00
 -1      4310 3.11431E-01
 -1      4311 3.63230E-01
 -1      4312 2.63091E-01
 -1      4313 1.01584E+00
 -1      4314 9.18588E-01
 -1      4315 7.95927E-01
 -1      4316 7.16522E-01
 -1      4317 8.30811E-01
 -1      4318 8.31490E-01
 -1      4319 6.83348E-01
 -1      4320 2.97985E+00
 -1      4321 2.31521E+00
 -1      4322 8.54605E-02
 -1      4323 1.93647E+00
 -1      4324 1.73290E+00
 -1      4325 1.54899E+00
 -1      4326 1.31055E+00
 -1      4327 2.67093E-01
 -1      4328 2.39870E-01
 -1      4329 2.54514E-01
 -1      4330 2.91126E-01
 -1      4331 2.81700E-01
 -1      4332 5.12497E-01
 -1      4333 5.58499E-01
 -1      4334 4.92051E-01
 -1      4335 4.51392E-01
 -1      4336 4.04781E-01
 -1      4337 1.98194E-01
 -1      4338 2.29540E-01
 -1      4339 9.08187E-02
 -1      4340 1.26348E+00
 -1      4341 4.15216E-01
 -1      4342 1.20741E+00
 -1      4343 1.13770E+00
 -1      4344 4.03889E-01
 -1      4345 6.78964E-01
 -1      4346 1.97525E-01
 -1      4347 2.86145E-01
 -1      4348 1.04702E+00
 -1      4349 2.90441E-01
 -1      4350 8.90051E-01
 -1      4351 9.08187E-02
 -1      4352 1.42328E+00
 -1      4353 1.45683E+00
 -1      4354 8.00311E-01
 -1      4355 3.27054E-01
 -1      4356 2.79800E-01
 -1      4357 7.41910E-01
 -3
 9999
