    1C
    1UUSER                                                              
    1UDATE              27.october.2022                                 
    1UTIME              00:32:59                                        
    1UHOST                                                              
    1UPGM               CalculiX                                        
    1UVERSION           Version 2.17                             
    1UCOMPILETIME       Thu Jul 23 21:43:50 CEST 2020                    
    1UDIR                                                               
    1UDBN                                                               
    1UMAT    1SOLIDMATERIAL                                             
    2C                          4324                                     1
 -1         1 4.27849E+01 3.14131E+01 0.00000E+00
 -1         2 5.26842E+01 2.50418E+01 0.00000E+00
 -1         3 1.50000E+02 0.00000E+00 0.00000E+00
 -1         4 1.50000E+02 5.00000E+01 0.00000E+00
 -1         5 0.00000E+00 0.00000E+00 0.00000E+00
 -1         6 0.00000E+00 5.00000E+01 0.00000E+00
 -1         7 0.00000E+00 4.70500E+01 0.00000E+00
 -1         8 0.00000E+00 4.41000E+01 0.00000E+00
 -1         9 0.00000E+00 4.11500E+01 0.00000E+00
 -1        10 0.00000E+00 3.82000E+01 0.00000E+00
 -1        11 0.00000E+00 3.52500E+01 0.00000E+00
 -1        12 0.00000E+00 3.23500E+01 0.00000E+00
 -1        13 0.00000E+00 2.94000E+01 0.00000E+00
 -1        14 0.00000E+00 2.64500E+01 0.00000E+00
 -1        15 0.00000E+00 2.35000E+01 0.00000E+00
 -1        16 0.00000E+00 2.05500E+01 0.00000E+00
 -1        17 0.00000E+00 1.76000E+01 0.00000E+00
 -1        18 0.00000E+00 1.47000E+01 0.00000E+00
 -1        19 0.00000E+00 1.17500E+01 0.00000E+00
 -1        20 0.00000E+00 8.80000E+00 0.00000E+00
 -1        21 0.00000E+00 5.85000E+00 0.00000E+00
 -1        22 0.00000E+00 2.90000E+00 0.00000E+00
 -1        23 3.15000E+00 5.00000E+01 0.00000E+00
 -1        24 6.15000E+00 5.00000E+01 0.00000E+00
 -1        25 9.15000E+00 5.00000E+01 0.00000E+00
 -1        26 1.21500E+01 5.00000E+01 0.00000E+00
 -1        27 1.51500E+01 5.00000E+01 0.00000E+00
 -1        28 1.81500E+01 5.00000E+01 0.00000E+00
 -1        29 2.11500E+01 5.00000E+01 0.00000E+00
 -1        30 2.41500E+01 5.00000E+01 0.00000E+00
 -1        31 2.71500E+01 5.00000E+01 0.00000E+00
 -1        32 3.01500E+01 5.00000E+01 0.00000E+00
 -1        33 3.31500E+01 5.00000E+01 0.00000E+00
 -1        34 3.61500E+01 5.00000E+01 0.00000E+00
 -1        35 3.91500E+01 5.00000E+01 0.00000E+00
 -1        36 4.21500E+01 5.00000E+01 0.00000E+00
 -1        37 4.51500E+01 5.00000E+01 0.00000E+00
 -1        38 4.81500E+01 5.00000E+01 0.00000E+00
 -1        39 5.11500E+01 5.00000E+01 0.00000E+00
 -1        40 5.41500E+01 5.00000E+01 0.00000E+00
 -1        41 5.71500E+01 5.00000E+01 0.00000E+00
 -1        42 6.01500E+01 5.00000E+01 0.00000E+00
 -1        43 6.31500E+01 5.00000E+01 0.00000E+00
 -1        44 6.61500E+01 5.00000E+01 0.00000E+00
 -1        45 6.91500E+01 5.00000E+01 0.00000E+00
 -1        46 7.21500E+01 5.00000E+01 0.00000E+00
 -1        47 7.51500E+01 5.00000E+01 0.00000E+00
 -1        48 7.81500E+01 5.00000E+01 0.00000E+00
 -1        49 8.11500E+01 5.00000E+01 0.00000E+00
 -1        50 8.41500E+01 5.00000E+01 0.00000E+00
 -1        51 8.71500E+01 5.00000E+01 0.00000E+00
 -1        52 9.01500E+01 5.00000E+01 0.00000E+00
 -1        53 9.31500E+01 5.00000E+01 0.00000E+00
 -1        54 9.61500E+01 5.00000E+01 0.00000E+00
 -1        55 9.91500E+01 5.00000E+01 0.00000E+00
 -1        56 1.02150E+02 5.00000E+01 0.00000E+00
 -1        57 1.05150E+02 5.00000E+01 0.00000E+00
 -1        58 1.08150E+02 5.00000E+01 0.00000E+00
 -1        59 1.11150E+02 5.00000E+01 0.00000E+00
 -1        60 1.14150E+02 5.00000E+01 0.00000E+00
 -1        61 1.17150E+02 5.00000E+01 0.00000E+00
 -1        62 1.20150E+02 5.00000E+01 0.00000E+00
 -1        63 1.23150E+02 5.00000E+01 0.00000E+00
 -1        64 1.26150E+02 5.00000E+01 0.00000E+00
 -1        65 1.29150E+02 5.00000E+01 0.00000E+00
 -1        66 1.32150E+02 5.00000E+01 0.00000E+00
 -1        67 1.35150E+02 5.00000E+01 0.00000E+00
 -1        68 1.38150E+02 5.00000E+01 0.00000E+00
 -1        69 1.41150E+02 5.00000E+01 0.00000E+00
 -1        70 1.44150E+02 5.00000E+01 0.00000E+00
 -1        71 1.47150E+02 5.00000E+01 0.00000E+00
 -1        72 3.15000E+00 0.00000E+00 0.00000E+00
 -1        73 6.15000E+00 0.00000E+00 0.00000E+00
 -1        74 9.15000E+00 0.00000E+00 0.00000E+00
 -1        75 1.21500E+01 0.00000E+00 0.00000E+00
 -1        76 1.51500E+01 0.00000E+00 0.00000E+00
 -1        77 1.81500E+01 0.00000E+00 0.00000E+00
 -1        78 2.11500E+01 0.00000E+00 0.00000E+00
 -1        79 2.41500E+01 0.00000E+00 0.00000E+00
 -1        80 2.71500E+01 0.00000E+00 0.00000E+00
 -1        81 3.01500E+01 0.00000E+00 0.00000E+00
 -1        82 3.31500E+01 0.00000E+00 0.00000E+00
 -1        83 3.61500E+01 0.00000E+00 0.00000E+00
 -1        84 3.91500E+01 0.00000E+00 0.00000E+00
 -1        85 4.21500E+01 0.00000E+00 0.00000E+00
 -1        86 4.51500E+01 0.00000E+00 0.00000E+00
 -1        87 4.81500E+01 0.00000E+00 0.00000E+00
 -1        88 5.11500E+01 0.00000E+00 0.00000E+00
 -1        89 5.41500E+01 0.00000E+00 0.00000E+00
 -1        90 5.71500E+01 0.00000E+00 0.00000E+00
 -1        91 6.01500E+01 0.00000E+00 0.00000E+00
 -1        92 6.31500E+01 0.00000E+00 0.00000E+00
 -1        93 6.61500E+01 0.00000E+00 0.00000E+00
 -1        94 6.91500E+01 0.00000E+00 0.00000E+00
 -1        95 7.21500E+01 0.00000E+00 0.00000E+00
 -1        96 7.51500E+01 0.00000E+00 0.00000E+00
 -1        97 7.81500E+01 0.00000E+00 0.00000E+00
 -1        98 8.11500E+01 0.00000E+00 0.00000E+00
 -1        99 8.41500E+01 0.00000E+00 0.00000E+00
 -1       100 8.71500E+01 0.00000E+00 0.00000E+00
 -1       101 9.01500E+01 0.00000E+00 0.00000E+00
 -1       102 9.31500E+01 0.00000E+00 0.00000E+00
 -1       103 9.61500E+01 0.00000E+00 0.00000E+00
 -1       104 9.91500E+01 0.00000E+00 0.00000E+00
 -1       105 1.02150E+02 0.00000E+00 0.00000E+00
 -1       106 1.05150E+02 0.00000E+00 0.00000E+00
 -1       107 1.08150E+02 0.00000E+00 0.00000E+00
 -1       108 1.11150E+02 0.00000E+00 0.00000E+00
 -1       109 1.14150E+02 0.00000E+00 0.00000E+00
 -1       110 1.17150E+02 0.00000E+00 0.00000E+00
 -1       111 1.20150E+02 0.00000E+00 0.00000E+00
 -1       112 1.23150E+02 0.00000E+00 0.00000E+00
 -1       113 1.26150E+02 0.00000E+00 0.00000E+00
 -1       114 1.29150E+02 0.00000E+00 0.00000E+00
 -1       115 1.32150E+02 0.00000E+00 0.00000E+00
 -1       116 1.35150E+02 0.00000E+00 0.00000E+00
 -1       117 1.38150E+02 0.00000E+00 0.00000E+00
 -1       118 1.41150E+02 0.00000E+00 0.00000E+00
 -1       119 1.44150E+02 0.00000E+00 0.00000E+00
 -1       120 1.47150E+02 0.00000E+00 0.00000E+00
 -1       121 1.50000E+02 2.95000E+00 0.00000E+00
 -1       122 1.50000E+02 5.90000E+00 0.00000E+00
 -1       123 1.50000E+02 8.85000E+00 0.00000E+00
 -1       124 1.50000E+02 1.18000E+01 0.00000E+00
 -1       125 1.50000E+02 1.47500E+01 0.00000E+00
 -1       126 1.50000E+02 1.76500E+01 0.00000E+00
 -1       127 1.50000E+02 2.06000E+01 0.00000E+00
 -1       128 1.50000E+02 2.35500E+01 0.00000E+00
 -1       129 1.50000E+02 2.65000E+01 0.00000E+00
 -1       130 1.50000E+02 2.94500E+01 0.00000E+00
 -1       131 1.50000E+02 3.24000E+01 0.00000E+00
 -1       132 1.50000E+02 3.53000E+01 0.00000E+00
 -1       133 1.50000E+02 3.82500E+01 0.00000E+00
 -1       134 1.50000E+02 4.12000E+01 0.00000E+00
 -1       135 1.50000E+02 4.41500E+01 0.00000E+00
 -1       136 1.50000E+02 4.71000E+01 0.00000E+00
 -1       137 5.25295E+01 2.35785E+01 0.00000E+00
 -1       138 5.20361E+01 2.21001E+01 0.00000E+00
 -1       139 5.12701E+01 2.08230E+01 0.00000E+00
 -1       140 5.02478E+01 1.97339E+01 0.00000E+00
 -1       141 4.89147E+01 1.88318E+01 0.00000E+00
 -1       142 4.75284E+01 1.82891E+01 0.00000E+00
 -1       143 4.60937E+01 1.80537E+01 0.00000E+00
 -1       144 4.45884E+01 1.81281E+01 0.00000E+00
 -1       145 4.30793E+01 1.85445E+01 0.00000E+00
 -1       146 4.18065E+01 1.92140E+01 0.00000E+00
 -1       147 4.06791E+01 2.01480E+01 0.00000E+00
 -1       148 3.97749E+01 2.12893E+01 0.00000E+00
 -1       149 3.90964E+01 2.26750E+01 0.00000E+00
 -1       150 3.87416E+01 2.41472E+01 0.00000E+00
 -1       151 3.87036E+01 2.55621E+01 0.00000E+00
 -1       152 3.89841E+01 2.70688E+01 0.00000E+00
 -1       153 3.95289E+01 2.83752E+01 0.00000E+00
 -1       154 4.04095E+01 2.96437E+01 0.00000E+00
 -1       155 4.14844E+01 3.06419E+01 0.00000E+00
 -1       156 4.40989E+01 3.18599E+01 0.00000E+00
 -1       157 4.54830E+01 3.20389E+01 0.00000E+00
 -1       158 4.68508E+01 3.19439E+01 0.00000E+00
 -1       159 4.81948E+01 3.15760E+01 0.00000E+00
 -1       160 4.95334E+01 3.08884E+01 0.00000E+00
 -1       161 5.05928E+01 3.00323E+01 0.00000E+00
 -1       162 5.15406E+01 2.88762E+01 0.00000E+00
 -1       163 5.21650E+01 2.76874E+01 0.00000E+00
 -1       164 5.25555E+01 2.63777E+01 0.00000E+00
 -1       165 2.59800E+00 4.55750E+01 0.00000E+00
 -1       166 2.59800E+00 4.26250E+01 0.00000E+00
 -1       167 2.59800E+00 3.96750E+01 0.00000E+00
 -1       168 2.59800E+00 3.67250E+01 0.00000E+00
 -1       169 2.59800E+00 3.38250E+01 0.00000E+00
 -1       170 2.59800E+00 3.08750E+01 0.00000E+00
 -1       171 2.59800E+00 2.79250E+01 0.00000E+00
 -1       172 2.59800E+00 2.49750E+01 0.00000E+00
 -1       173 2.59800E+00 2.20250E+01 0.00000E+00
 -1       174 2.59800E+00 1.90750E+01 0.00000E+00
 -1       175 2.59800E+00 1.61750E+01 0.00000E+00
 -1       176 2.59800E+00 1.32250E+01 0.00000E+00
 -1       177 2.59800E+00 1.02750E+01 0.00000E+00
 -1       178 2.59800E+00 7.32500E+00 0.00000E+00
 -1       179 2.59800E+00 4.37500E+00 0.00000E+00
 -1       180 2.87400E+00 2.18750E+00 0.00000E+00
 -1       181 4.65000E+00 4.74020E+01 0.00000E+00
 -1       182 7.65000E+00 4.74020E+01 0.00000E+00
 -1       183 1.06500E+01 4.74020E+01 0.00000E+00
 -1       184 1.36500E+01 4.74020E+01 0.00000E+00
 -1       185 1.66500E+01 4.74020E+01 0.00000E+00
 -1       186 1.96500E+01 4.74020E+01 0.00000E+00
 -1       187 2.26500E+01 4.74020E+01 0.00000E+00
 -1       188 2.56500E+01 4.74020E+01 0.00000E+00
 -1       189 2.86500E+01 4.74020E+01 0.00000E+00
 -1       190 3.16500E+01 4.74020E+01 0.00000E+00
 -1       191 3.46500E+01 4.74020E+01 0.00000E+00
 -1       192 3.76500E+01 4.74020E+01 0.00000E+00
 -1       193 4.06500E+01 4.74020E+01 0.00000E+00
 -1       194 4.36500E+01 4.74020E+01 0.00000E+00
 -1       195 4.66500E+01 4.74020E+01 0.00000E+00
 -1       196 4.96500E+01 4.74020E+01 0.00000E+00
 -1       197 5.26500E+01 4.74020E+01 0.00000E+00
 -1       198 5.56500E+01 4.74020E+01 0.00000E+00
 -1       199 5.86500E+01 4.74020E+01 0.00000E+00
 -1       200 6.16500E+01 4.74020E+01 0.00000E+00
 -1       201 6.46500E+01 4.74020E+01 0.00000E+00
 -1       202 6.76500E+01 4.74020E+01 0.00000E+00
 -1       203 7.06500E+01 4.74020E+01 0.00000E+00
 -1       204 7.36500E+01 4.74020E+01 0.00000E+00
 -1       205 7.66500E+01 4.74020E+01 0.00000E+00
 -1       206 7.96500E+01 4.74020E+01 0.00000E+00
 -1       207 8.26500E+01 4.74020E+01 0.00000E+00
 -1       208 8.56500E+01 4.74020E+01 0.00000E+00
 -1       209 8.86500E+01 4.74020E+01 0.00000E+00
 -1       210 9.16500E+01 4.74020E+01 0.00000E+00
 -1       211 9.46500E+01 4.74020E+01 0.00000E+00
 -1       212 9.76500E+01 4.74020E+01 0.00000E+00
 -1       213 1.00650E+02 4.74020E+01 0.00000E+00
 -1       214 1.03650E+02 4.74020E+01 0.00000E+00
 -1       215 1.06650E+02 4.74020E+01 0.00000E+00
 -1       216 1.09650E+02 4.74020E+01 0.00000E+00
 -1       217 1.12650E+02 4.74020E+01 0.00000E+00
 -1       218 1.15650E+02 4.74020E+01 0.00000E+00
 -1       219 1.18650E+02 4.74020E+01 0.00000E+00
 -1       220 1.21650E+02 4.74020E+01 0.00000E+00
 -1       221 1.24650E+02 4.74020E+01 0.00000E+00
 -1       222 1.27650E+02 4.74020E+01 0.00000E+00
 -1       223 1.30650E+02 4.74020E+01 0.00000E+00
 -1       224 1.33650E+02 4.74020E+01 0.00000E+00
 -1       225 1.36650E+02 4.74020E+01 0.00000E+00
 -1       226 1.39650E+02 4.74020E+01 0.00000E+00
 -1       227 1.42650E+02 4.74020E+01 0.00000E+00
 -1       228 1.45650E+02 4.74020E+01 0.00000E+00
 -1       229 5.87400E+00 2.18750E+00 0.00000E+00
 -1       230 8.87400E+00 2.18750E+00 0.00000E+00
 -1       231 1.18740E+01 2.18750E+00 0.00000E+00
 -1       232 1.48740E+01 2.18750E+00 0.00000E+00
 -1       233 1.78740E+01 2.18750E+00 0.00000E+00
 -1       234 2.08740E+01 2.18750E+00 0.00000E+00
 -1       235 2.38740E+01 2.18750E+00 0.00000E+00
 -1       236 2.68740E+01 2.18750E+00 0.00000E+00
 -1       237 2.98740E+01 2.18750E+00 0.00000E+00
 -1       238 3.28740E+01 2.18750E+00 0.00000E+00
 -1       239 3.58740E+01 2.18750E+00 0.00000E+00
 -1       240 3.88740E+01 2.18750E+00 0.00000E+00
 -1       241 4.18740E+01 2.18750E+00 0.00000E+00
 -1       242 4.48740E+01 2.18750E+00 0.00000E+00
 -1       243 4.78740E+01 2.18750E+00 0.00000E+00
 -1       244 5.08740E+01 2.18750E+00 0.00000E+00
 -1       245 5.38740E+01 2.18750E+00 0.00000E+00
 -1       246 5.68740E+01 2.18750E+00 0.00000E+00
 -1       247 5.98740E+01 2.18750E+00 0.00000E+00
 -1       248 6.28740E+01 2.18750E+00 0.00000E+00
 -1       249 6.58740E+01 2.18750E+00 0.00000E+00
 -1       250 6.88740E+01 2.18750E+00 0.00000E+00
 -1       251 7.18740E+01 2.18750E+00 0.00000E+00
 -1       252 7.48740E+01 2.18750E+00 0.00000E+00
 -1       253 7.78740E+01 2.18750E+00 0.00000E+00
 -1       254 8.08740E+01 2.18750E+00 0.00000E+00
 -1       255 8.38740E+01 2.18750E+00 0.00000E+00
 -1       256 8.68740E+01 2.18750E+00 0.00000E+00
 -1       257 8.98740E+01 2.18750E+00 0.00000E+00
 -1       258 9.28740E+01 2.18750E+00 0.00000E+00
 -1       259 9.58740E+01 2.18750E+00 0.00000E+00
 -1       260 9.88740E+01 2.18750E+00 0.00000E+00
 -1       261 1.01874E+02 2.18750E+00 0.00000E+00
 -1       262 1.04874E+02 2.18750E+00 0.00000E+00
 -1       263 1.07874E+02 2.18750E+00 0.00000E+00
 -1       264 1.10874E+02 2.18750E+00 0.00000E+00
 -1       265 1.13874E+02 2.18750E+00 0.00000E+00
 -1       266 1.16874E+02 2.18750E+00 0.00000E+00
 -1       267 1.19874E+02 2.18750E+00 0.00000E+00
 -1       268 1.22874E+02 2.18750E+00 0.00000E+00
 -1       269 1.25874E+02 2.18750E+00 0.00000E+00
 -1       270 1.28874E+02 2.18750E+00 0.00000E+00
 -1       271 1.31874E+02 2.18750E+00 0.00000E+00
 -1       272 1.34874E+02 2.18750E+00 0.00000E+00
 -1       273 1.37874E+02 2.18750E+00 0.00000E+00
 -1       274 1.40874E+02 2.18750E+00 0.00000E+00
 -1       275 1.43874E+02 2.18750E+00 0.00000E+00
 -1       276 1.46874E+02 2.18750E+00 0.00000E+00
 -1       277 1.47402E+02 4.42500E+00 0.00000E+00
 -1       278 1.47402E+02 7.37500E+00 0.00000E+00
 -1       279 1.47402E+02 1.03250E+01 0.00000E+00
 -1       280 1.47402E+02 1.32750E+01 0.00000E+00
 -1       281 1.47402E+02 1.61750E+01 0.00000E+00
 -1       282 1.47402E+02 1.91250E+01 0.00000E+00
 -1       283 1.47402E+02 2.20750E+01 0.00000E+00
 -1       284 1.47402E+02 2.50250E+01 0.00000E+00
 -1       285 1.47402E+02 2.79750E+01 0.00000E+00
 -1       286 1.47402E+02 3.09250E+01 0.00000E+00
 -1       287 1.47402E+02 3.38250E+01 0.00000E+00
 -1       288 1.47402E+02 3.67750E+01 0.00000E+00
 -1       289 1.47402E+02 3.97250E+01 0.00000E+00
 -1       290 1.47402E+02 4.26750E+01 0.00000E+00
 -1       291 1.46526E+02 4.50385E+01 0.00000E+00
 -1       292 5.38959E+01 2.41739E+01 0.00000E+00
 -1       293 5.35918E+01 2.24024E+01 0.00000E+00
 -1       294 5.27647E+01 2.07948E+01 0.00000E+00
 -1       295 5.16429E+01 1.94487E+01 0.00000E+00
 -1       296 5.04485E+01 1.80012E+01 0.00000E+00
 -1       297 4.86940E+01 1.73534E+01 0.00000E+00
 -1       298 4.70208E+01 1.68923E+01 0.00000E+00
 -1       299 4.52772E+01 1.67963E+01 0.00000E+00
 -1       300 4.34668E+01 1.70060E+01 0.00000E+00
 -1       301 4.18785E+01 1.78062E+01 0.00000E+00
 -1       302 4.04693E+01 1.87474E+01 0.00000E+00
 -1       303 3.92767E+01 1.99658E+01 0.00000E+00
 -1       304 3.81963E+01 2.13753E+01 0.00000E+00
 -1       305 3.76589E+01 2.31073E+01 0.00000E+00
 -1       306 3.75106E+01 2.48221E+01 0.00000E+00
 -1       307 3.75695E+01 2.65527E+01 0.00000E+00
 -1       308 3.81375E+01 2.81886E+01 0.00000E+00
 -1       309 3.88356E+01 2.97965E+01 0.00000E+00
 -1       310 4.01219E+01 3.10312E+01 0.00000E+00
 -1       311 4.14735E+01 3.21424E+01 0.00000E+00
 -1       312 4.30516E+01 3.27844E+01 0.00000E+00
 -1       313 4.46355E+01 3.31518E+01 0.00000E+00
 -1       314 4.62510E+01 3.32008E+01 0.00000E+00
 -1       315 4.78429E+01 3.29293E+01 0.00000E+00
 -1       316 4.94946E+01 3.24597E+01 0.00000E+00
 -1       317 5.08252E+01 3.14033E+01 0.00000E+00
 -1       318 5.21339E+01 3.03291E+01 0.00000E+00
 -1       319 5.29261E+01 2.88456E+01 0.00000E+00
 -1       320 5.33167E+01 2.75358E+01 0.00000E+00
 -1       321 5.38267E+01 2.58259E+01 0.00000E+00
 -1       322 5.19600E+00 4.11500E+01 0.00000E+00
 -1       323 5.19600E+00 4.41000E+01 0.00000E+00
 -1       324 5.19600E+00 3.52750E+01 0.00000E+00
 -1       325 5.19600E+00 3.23250E+01 0.00000E+00
 -1       326 5.19600E+00 2.93750E+01 0.00000E+00
 -1       327 5.19600E+00 2.64250E+01 0.00000E+00
 -1       328 5.19600E+00 2.34750E+01 0.00000E+00
 -1       329 5.19600E+00 2.05250E+01 0.00000E+00
 -1       330 5.19600E+00 1.76250E+01 0.00000E+00
 -1       331 5.19600E+00 1.46750E+01 0.00000E+00
 -1       332 5.19600E+00 1.17250E+01 0.00000E+00
 -1       333 5.19600E+00 8.77500E+00 0.00000E+00
 -1       334 5.19600E+00 5.82500E+00 0.00000E+00
 -1       335 5.53500E+00 4.00625E+00 0.00000E+00
 -1       336 8.53500E+00 4.00625E+00 0.00000E+00
 -1       337 5.50547E+01 2.71232E+01 0.00000E+00
 -1       338 9.15000E+00 4.48040E+01 0.00000E+00
 -1       339 1.21500E+01 4.48040E+01 0.00000E+00
 -1       340 1.51500E+01 4.48040E+01 0.00000E+00
 -1       341 1.81500E+01 4.48040E+01 0.00000E+00
 -1       342 2.11500E+01 4.48040E+01 0.00000E+00
 -1       343 2.41500E+01 4.48040E+01 0.00000E+00
 -1       344 2.71500E+01 4.48040E+01 0.00000E+00
 -1       345 3.01500E+01 4.48040E+01 0.00000E+00
 -1       346 3.31500E+01 4.48040E+01 0.00000E+00
 -1       347 3.61500E+01 4.48040E+01 0.00000E+00
 -1       348 3.91500E+01 4.48040E+01 0.00000E+00
 -1       349 4.21500E+01 4.48040E+01 0.00000E+00
 -1       350 4.51500E+01 4.48040E+01 0.00000E+00
 -1       351 4.81500E+01 4.48040E+01 0.00000E+00
 -1       352 5.11500E+01 4.48040E+01 0.00000E+00
 -1       353 5.41500E+01 4.48040E+01 0.00000E+00
 -1       354 5.71500E+01 4.48040E+01 0.00000E+00
 -1       355 6.01500E+01 4.48040E+01 0.00000E+00
 -1       356 6.31500E+01 4.48040E+01 0.00000E+00
 -1       357 6.61500E+01 4.48040E+01 0.00000E+00
 -1       358 6.91500E+01 4.48040E+01 0.00000E+00
 -1       359 7.21500E+01 4.48040E+01 0.00000E+00
 -1       360 7.51500E+01 4.48040E+01 0.00000E+00
 -1       361 7.81500E+01 4.48040E+01 0.00000E+00
 -1       362 8.11500E+01 4.48040E+01 0.00000E+00
 -1       363 8.41500E+01 4.48040E+01 0.00000E+00
 -1       364 8.71500E+01 4.48040E+01 0.00000E+00
 -1       365 9.01500E+01 4.48040E+01 0.00000E+00
 -1       366 9.31500E+01 4.48040E+01 0.00000E+00
 -1       367 9.61500E+01 4.48040E+01 0.00000E+00
 -1       368 9.91500E+01 4.48040E+01 0.00000E+00
 -1       369 1.02150E+02 4.48040E+01 0.00000E+00
 -1       370 1.05150E+02 4.48040E+01 0.00000E+00
 -1       371 1.08150E+02 4.48040E+01 0.00000E+00
 -1       372 1.11150E+02 4.48040E+01 0.00000E+00
 -1       373 1.14150E+02 4.48040E+01 0.00000E+00
 -1       374 1.17150E+02 4.48040E+01 0.00000E+00
 -1       375 1.20150E+02 4.48040E+01 0.00000E+00
 -1       376 1.23150E+02 4.48040E+01 0.00000E+00
 -1       377 1.26150E+02 4.48040E+01 0.00000E+00
 -1       378 1.29150E+02 4.48040E+01 0.00000E+00
 -1       379 1.32150E+02 4.48040E+01 0.00000E+00
 -1       380 1.35150E+02 4.48040E+01 0.00000E+00
 -1       381 1.38150E+02 4.48040E+01 0.00000E+00
 -1       382 1.41150E+02 4.48040E+01 0.00000E+00
 -1       383 1.43838E+02 4.49212E+01 0.00000E+00
 -1       384 1.15350E+01 4.00625E+00 0.00000E+00
 -1       385 1.45350E+01 4.00625E+00 0.00000E+00
 -1       386 1.75350E+01 4.00625E+00 0.00000E+00
 -1       387 2.05350E+01 4.00625E+00 0.00000E+00
 -1       388 2.35350E+01 4.00625E+00 0.00000E+00
 -1       389 2.65350E+01 4.00625E+00 0.00000E+00
 -1       390 2.95350E+01 4.00625E+00 0.00000E+00
 -1       391 3.25350E+01 4.00625E+00 0.00000E+00
 -1       392 3.55350E+01 4.00625E+00 0.00000E+00
 -1       393 3.85350E+01 4.00625E+00 0.00000E+00
 -1       394 4.15350E+01 4.00625E+00 0.00000E+00
 -1       395 4.45350E+01 4.00625E+00 0.00000E+00
 -1       396 4.75350E+01 4.00625E+00 0.00000E+00
 -1       397 5.05350E+01 4.00625E+00 0.00000E+00
 -1       398 5.35350E+01 4.00625E+00 0.00000E+00
 -1       399 5.65350E+01 4.00625E+00 0.00000E+00
 -1       400 5.95350E+01 4.00625E+00 0.00000E+00
 -1       401 6.25350E+01 4.00625E+00 0.00000E+00
 -1       402 6.55350E+01 4.00625E+00 0.00000E+00
 -1       403 6.85350E+01 4.00625E+00 0.00000E+00
 -1       404 7.15350E+01 4.00625E+00 0.00000E+00
 -1       405 7.45350E+01 4.00625E+00 0.00000E+00
 -1       406 7.75350E+01 4.00625E+00 0.00000E+00
 -1       407 8.05350E+01 4.00625E+00 0.00000E+00
 -1       408 8.35350E+01 4.00625E+00 0.00000E+00
 -1       409 8.65350E+01 4.00625E+00 0.00000E+00
 -1       410 8.95350E+01 4.00625E+00 0.00000E+00
 -1       411 9.25350E+01 4.00625E+00 0.00000E+00
 -1       412 9.55350E+01 4.00625E+00 0.00000E+00
 -1       413 9.85350E+01 4.00625E+00 0.00000E+00
 -1       414 1.01535E+02 4.00625E+00 0.00000E+00
 -1       415 1.04535E+02 4.00625E+00 0.00000E+00
 -1       416 1.07535E+02 4.00625E+00 0.00000E+00
 -1       417 1.10535E+02 4.00625E+00 0.00000E+00
 -1       418 1.13535E+02 4.00625E+00 0.00000E+00
 -1       419 1.16535E+02 4.00625E+00 0.00000E+00
 -1       420 1.19535E+02 4.00625E+00 0.00000E+00
 -1       421 1.22535E+02 4.00625E+00 0.00000E+00
 -1       422 1.25535E+02 4.00625E+00 0.00000E+00
 -1       423 1.28535E+02 4.00625E+00 0.00000E+00
 -1       424 1.31535E+02 4.00625E+00 0.00000E+00
 -1       425 1.34535E+02 4.00625E+00 0.00000E+00
 -1       426 1.37535E+02 4.00625E+00 0.00000E+00
 -1       427 1.40535E+02 4.00625E+00 0.00000E+00
 -1       428 1.43535E+02 4.00625E+00 0.00000E+00
 -1       429 1.45469E+02 4.21562E+00 0.00000E+00
 -1       430 1.44804E+02 1.18000E+01 0.00000E+00
 -1       431 1.44804E+02 8.85000E+00 0.00000E+00
 -1       432 1.45136E+02 6.53281E+00 0.00000E+00
 -1       433 1.44804E+02 1.47000E+01 0.00000E+00
 -1       434 1.44804E+02 1.76500E+01 0.00000E+00
 -1       435 1.44804E+02 2.06000E+01 0.00000E+00
 -1       436 1.44804E+02 2.35500E+01 0.00000E+00
 -1       437 1.44804E+02 2.65000E+01 0.00000E+00
 -1       438 1.44804E+02 2.94500E+01 0.00000E+00
 -1       439 1.44804E+02 3.23500E+01 0.00000E+00
 -1       440 1.44804E+02 3.53000E+01 0.00000E+00
 -1       441 1.44804E+02 3.82500E+01 0.00000E+00
 -1       442 1.44804E+02 4.12000E+01 0.00000E+00
 -1       443 5.44053E+01 2.09672E+01 0.00000E+00
 -1       444 5.52400E+01 2.50577E+01 0.00000E+00
 -1       445 5.51865E+01 2.30405E+01 0.00000E+00
 -1       446 5.33283E+01 1.91847E+01 0.00000E+00
 -1       447 5.46641E+01 2.84330E+01 0.00000E+00
 -1       448 5.01363E+01 1.61469E+01 0.00000E+00
 -1       449 5.21339E+01 1.77372E+01 0.00000E+00
 -1       450 5.19600E+00 3.82125E+01 0.00000E+00
 -1       451 4.84631E+01 1.56858E+01 0.00000E+00
 -1       452 4.62203E+01 1.55501E+01 0.00000E+00
 -1       453 4.41843E+01 1.52807E+01 0.00000E+00
 -1       454 4.19764E+01 1.60240E+01 0.00000E+00
 -1       455 4.05671E+01 1.69652E+01 0.00000E+00
 -1       456 3.88269E+01 1.83327E+01 0.00000E+00
 -1       457 3.76412E+01 1.98311E+01 0.00000E+00
 -1       458 3.66896E+01 2.18572E+01 0.00000E+00
 -1       459 3.61264E+01 2.38386E+01 0.00000E+00
 -1       460 3.61609E+01 2.57344E+01 0.00000E+00
 -1       461 3.62332E+01 2.79332E+01 0.00000E+00
 -1       462 3.69314E+01 2.95410E+01 0.00000E+00
 -1       463 3.82911E+01 3.16511E+01 0.00000E+00
 -1       464 3.96426E+01 3.27623E+01 0.00000E+00
 -1       465 4.16794E+01 3.38969E+01 0.00000E+00
 -1       466 4.35317E+01 3.43123E+01 0.00000E+00
 -1       467 4.54039E+01 3.44719E+01 0.00000E+00
 -1       468 4.73212E+01 3.46732E+01 0.00000E+00
 -1       469 4.89729E+01 3.42036E+01 0.00000E+00
 -1       470 5.11222E+01 3.31435E+01 0.00000E+00
 -1       471 5.24309E+01 3.20693E+01 0.00000E+00
 -1       472 5.38951E+01 3.03163E+01 0.00000E+00
 -1       473 5.18216E+01 1.58829E+01 0.00000E+00
 -1       474 1.00350E+01 6.60425E+00 0.00000E+00
 -1       475 7.79400E+00 3.08500E+01 0.00000E+00
 -1       476 7.79400E+00 3.38000E+01 0.00000E+00
 -1       477 7.79400E+00 2.49500E+01 0.00000E+00
 -1       478 7.79400E+00 2.20000E+01 0.00000E+00
 -1       479 7.79400E+00 1.91000E+01 0.00000E+00
 -1       480 7.79400E+00 1.61500E+01 0.00000E+00
 -1       481 7.79400E+00 1.32000E+01 0.00000E+00
 -1       482 7.79400E+00 1.02500E+01 0.00000E+00
 -1       483 1.06500E+01 4.22060E+01 0.00000E+00
 -1       484 1.30350E+01 6.60425E+00 0.00000E+00
 -1       485 7.92300E+00 4.16780E+01 0.00000E+00
 -1       486 1.36500E+01 4.22060E+01 0.00000E+00
 -1       487 1.66500E+01 4.22060E+01 0.00000E+00
 -1       488 1.96500E+01 4.22060E+01 0.00000E+00
 -1       489 2.26500E+01 4.22060E+01 0.00000E+00
 -1       490 2.56500E+01 4.22060E+01 0.00000E+00
 -1       491 2.86500E+01 4.22060E+01 0.00000E+00
 -1       492 3.16500E+01 4.22060E+01 0.00000E+00
 -1       493 3.46500E+01 4.22060E+01 0.00000E+00
 -1       494 3.76500E+01 4.22060E+01 0.00000E+00
 -1       495 4.06500E+01 4.22060E+01 0.00000E+00
 -1       496 4.36500E+01 4.22060E+01 0.00000E+00
 -1       497 4.66500E+01 4.22060E+01 0.00000E+00
 -1       498 4.96500E+01 4.22060E+01 0.00000E+00
 -1       499 5.26500E+01 4.22060E+01 0.00000E+00
 -1       500 5.56500E+01 4.22060E+01 0.00000E+00
 -1       501 5.86500E+01 4.22060E+01 0.00000E+00
 -1       502 6.16500E+01 4.22060E+01 0.00000E+00
 -1       503 6.46500E+01 4.22060E+01 0.00000E+00
 -1       504 6.76500E+01 4.22060E+01 0.00000E+00
 -1       505 7.06500E+01 4.22060E+01 0.00000E+00
 -1       506 7.36500E+01 4.22060E+01 0.00000E+00
 -1       507 7.66500E+01 4.22060E+01 0.00000E+00
 -1       508 7.96500E+01 4.22060E+01 0.00000E+00
 -1       509 8.26500E+01 4.22060E+01 0.00000E+00
 -1       510 8.56500E+01 4.22060E+01 0.00000E+00
 -1       511 8.86500E+01 4.22060E+01 0.00000E+00
 -1       512 9.16500E+01 4.22060E+01 0.00000E+00
 -1       513 9.46500E+01 4.22060E+01 0.00000E+00
 -1       514 9.76500E+01 4.22060E+01 0.00000E+00
 -1       515 1.00650E+02 4.22060E+01 0.00000E+00
 -1       516 1.03650E+02 4.22060E+01 0.00000E+00
 -1       517 1.06650E+02 4.22060E+01 0.00000E+00
 -1       518 1.09650E+02 4.22060E+01 0.00000E+00
 -1       519 1.12650E+02 4.22060E+01 0.00000E+00
 -1       520 1.15650E+02 4.22060E+01 0.00000E+00
 -1       521 1.18650E+02 4.22060E+01 0.00000E+00
 -1       522 1.21650E+02 4.22060E+01 0.00000E+00
 -1       523 1.24650E+02 4.22060E+01 0.00000E+00
 -1       524 1.27650E+02 4.22060E+01 0.00000E+00
 -1       525 1.30650E+02 4.22060E+01 0.00000E+00
 -1       526 1.33650E+02 4.22060E+01 0.00000E+00
 -1       527 1.36650E+02 4.22060E+01 0.00000E+00
 -1       528 1.39650E+02 4.22060E+01 0.00000E+00
 -1       529 1.90350E+01 6.60425E+00 0.00000E+00
 -1       530 2.20350E+01 6.60425E+00 0.00000E+00
 -1       531 2.50350E+01 6.60425E+00 0.00000E+00
 -1       532 2.80350E+01 6.60425E+00 0.00000E+00
 -1       533 3.10350E+01 6.60425E+00 0.00000E+00
 -1       534 3.40350E+01 6.60425E+00 0.00000E+00
 -1       535 3.70350E+01 6.60425E+00 0.00000E+00
 -1       536 4.00350E+01 6.60425E+00 0.00000E+00
 -1       537 4.30350E+01 6.60425E+00 0.00000E+00
 -1       538 4.60350E+01 6.60425E+00 0.00000E+00
 -1       539 4.90350E+01 6.60425E+00 0.00000E+00
 -1       540 5.20350E+01 6.60425E+00 0.00000E+00
 -1       541 5.50350E+01 6.60425E+00 0.00000E+00
 -1       542 5.80350E+01 6.60425E+00 0.00000E+00
 -1       543 6.10350E+01 6.60425E+00 0.00000E+00
 -1       544 6.40350E+01 6.60425E+00 0.00000E+00
 -1       545 6.70350E+01 6.60425E+00 0.00000E+00
 -1       546 7.00350E+01 6.60425E+00 0.00000E+00
 -1       547 7.30350E+01 6.60425E+00 0.00000E+00
 -1       548 7.60350E+01 6.60425E+00 0.00000E+00
 -1       549 7.90350E+01 6.60425E+00 0.00000E+00
 -1       550 8.20350E+01 6.60425E+00 0.00000E+00
 -1       551 8.50350E+01 6.60425E+00 0.00000E+00
 -1       552 8.80350E+01 6.60425E+00 0.00000E+00
 -1       553 9.10350E+01 6.60425E+00 0.00000E+00
 -1       554 9.40350E+01 6.60425E+00 0.00000E+00
 -1       555 9.70350E+01 6.60425E+00 0.00000E+00
 -1       556 1.00035E+02 6.60425E+00 0.00000E+00
 -1       557 1.03035E+02 6.60425E+00 0.00000E+00
 -1       558 1.06035E+02 6.60425E+00 0.00000E+00
 -1       559 1.09035E+02 6.60425E+00 0.00000E+00
 -1       560 1.12035E+02 6.60425E+00 0.00000E+00
 -1       561 1.15035E+02 6.60425E+00 0.00000E+00
 -1       562 1.18035E+02 6.60425E+00 0.00000E+00
 -1       563 1.21035E+02 6.60425E+00 0.00000E+00
 -1       564 1.24035E+02 6.60425E+00 0.00000E+00
 -1       565 1.27035E+02 6.60425E+00 0.00000E+00
 -1       566 1.30035E+02 6.60425E+00 0.00000E+00
 -1       567 1.33035E+02 6.60425E+00 0.00000E+00
 -1       568 1.36035E+02 6.60425E+00 0.00000E+00
 -1       569 1.39035E+02 6.60425E+00 0.00000E+00
 -1       570 1.42035E+02 6.60425E+00 0.00000E+00
 -1       571 1.42206E+02 1.61750E+01 0.00000E+00
 -1       572 1.42206E+02 1.91250E+01 0.00000E+00
 -1       573 1.42206E+02 1.03250E+01 0.00000E+00
 -1       574 1.42206E+02 1.32500E+01 0.00000E+00
 -1       575 1.42206E+02 2.20750E+01 0.00000E+00
 -1       576 1.42206E+02 2.50250E+01 0.00000E+00
 -1       577 1.42206E+02 2.79750E+01 0.00000E+00
 -1       578 1.42206E+02 3.08750E+01 0.00000E+00
 -1       579 1.42206E+02 3.38250E+01 0.00000E+00
 -1       580 1.42206E+02 3.67750E+01 0.00000E+00
 -1       581 1.42206E+02 3.97250E+01 0.00000E+00
 -1       582 5.67603E+01 2.40080E+01 0.00000E+00
 -1       583 5.53348E+01 1.91890E+01 0.00000E+00
 -1       584 1.60350E+01 6.60425E+00 0.00000E+00
 -1       585 5.62440E+01 2.14582E+01 0.00000E+00
 -1       586 5.56348E+01 2.99280E+01 0.00000E+00
 -1       587 4.61922E+01 3.61950E+01 0.00000E+00
 -1       588 3.44829E+01 2.68902E+01 0.00000E+00
 -1       589 4.74301E+01 1.41569E+01 0.00000E+00
 -1       590 5.65749E+01 2.60735E+01 0.00000E+00
 -1       591 5.60253E+01 2.86182E+01 0.00000E+00
 -1       592 7.79400E+00 2.79000E+01 0.00000E+00
 -1       593 5.38601E+01 1.75294E+01 0.00000E+00
 -1       594 3.70205E+01 1.81216E+01 0.00000E+00
 -1       595 4.53941E+01 1.38875E+01 0.00000E+00
 -1       596 4.03657E+01 1.51380E+01 0.00000E+00
 -1       597 4.22486E+01 3.56964E+01 0.00000E+00
 -1       598 3.86255E+01 1.65055E+01 0.00000E+00
 -1       599 3.58405E+01 2.02219E+01 0.00000E+00
 -1       600 3.48389E+01 2.24019E+01 0.00000E+00
 -1       601 3.44484E+01 2.49944E+01 0.00000E+00
 -1       602 3.50860E+01 2.93868E+01 0.00000E+00
 -1       603 3.61695E+01 3.15251E+01 0.00000E+00
 -1       604 3.77712E+01 3.36610E+01 0.00000E+00
 -1       605 3.98265E+01 3.48279E+01 0.00000E+00
 -1       606 4.43201E+01 3.60354E+01 0.00000E+00
 -1       607 4.85703E+01 3.59269E+01 0.00000E+00
 -1       608 5.08062E+01 3.52117E+01 0.00000E+00
 -1       609 5.28647E+01 3.39321E+01 0.00000E+00
 -1       610 5.43507E+01 3.21849E+01 0.00000E+00
 -1       611 7.61550E+00 6.21462E+00 0.00000E+00
 -1       612 4.25598E+01 1.41063E+01 0.00000E+00
 -1       613 4.97553E+01 1.42629E+01 0.00000E+00
 -1       614 7.79400E+00 3.67375E+01 0.00000E+00
 -1       615 7.85850E+00 3.92077E+01 0.00000E+00
 -1       616 1.41678E+02 4.22645E+01 0.00000E+00
 -1       617 5.14407E+01 1.39989E+01 0.00000E+00
 -1       618 4.37696E+01 1.27131E+01 0.00000E+00
 -1       619 5.75456E+01 2.75685E+01 0.00000E+00
 -1       620 5.35479E+01 1.56751E+01 0.00000E+00
 -1       621 1.03920E+01 2.05500E+01 0.00000E+00
 -1       622 1.03920E+01 2.35000E+01 0.00000E+00
 -1       623 1.03920E+01 1.46750E+01 0.00000E+00
 -1       624 1.03920E+01 1.17250E+01 0.00000E+00
 -1       625 5.72259E+01 1.97480E+01 0.00000E+00
 -1       626 1.21500E+01 3.96080E+01 0.00000E+00
 -1       627 1.15350E+01 9.20225E+00 0.00000E+00
 -1       628 2.65350E+01 9.20225E+00 0.00000E+00
 -1       629 5.50419E+01 3.42782E+01 0.00000E+00
 -1       630 1.51500E+01 3.96080E+01 0.00000E+00
 -1       631 1.81500E+01 3.96080E+01 0.00000E+00
 -1       632 2.11500E+01 3.96080E+01 0.00000E+00
 -1       633 2.41500E+01 3.96080E+01 0.00000E+00
 -1       634 2.71500E+01 3.96080E+01 0.00000E+00
 -1       635 3.01500E+01 3.96080E+01 0.00000E+00
 -1       636 3.31500E+01 3.96080E+01 0.00000E+00
 -1       637 3.61500E+01 3.96080E+01 0.00000E+00
 -1       638 3.91500E+01 3.96080E+01 0.00000E+00
 -1       639 4.21500E+01 3.96080E+01 0.00000E+00
 -1       640 4.51500E+01 3.96080E+01 0.00000E+00
 -1       641 4.81500E+01 3.96080E+01 0.00000E+00
 -1       642 5.11500E+01 3.96080E+01 0.00000E+00
 -1       643 5.41500E+01 3.96080E+01 0.00000E+00
 -1       644 5.71500E+01 3.96080E+01 0.00000E+00
 -1       645 6.01500E+01 3.96080E+01 0.00000E+00
 -1       646 6.31500E+01 3.96080E+01 0.00000E+00
 -1       647 6.61500E+01 3.96080E+01 0.00000E+00
 -1       648 6.91500E+01 3.96080E+01 0.00000E+00
 -1       649 7.21500E+01 3.96080E+01 0.00000E+00
 -1       650 7.51500E+01 3.96080E+01 0.00000E+00
 -1       651 7.81500E+01 3.96080E+01 0.00000E+00
 -1       652 8.11500E+01 3.96080E+01 0.00000E+00
 -1       653 8.41500E+01 3.96080E+01 0.00000E+00
 -1       654 8.71500E+01 3.96080E+01 0.00000E+00
 -1       655 9.01500E+01 3.96080E+01 0.00000E+00
 -1       656 9.31500E+01 3.96080E+01 0.00000E+00
 -1       657 9.61500E+01 3.96080E+01 0.00000E+00
 -1       658 9.91500E+01 3.96080E+01 0.00000E+00
 -1       659 1.02150E+02 3.96080E+01 0.00000E+00
 -1       660 1.05150E+02 3.96080E+01 0.00000E+00
 -1       661 1.08150E+02 3.96080E+01 0.00000E+00
 -1       662 1.11150E+02 3.96080E+01 0.00000E+00
 -1       663 1.14150E+02 3.96080E+01 0.00000E+00
 -1       664 1.17150E+02 3.96080E+01 0.00000E+00
 -1       665 1.20150E+02 3.96080E+01 0.00000E+00
 -1       666 1.23150E+02 3.96080E+01 0.00000E+00
 -1       667 1.26150E+02 3.96080E+01 0.00000E+00
 -1       668 1.29150E+02 3.96080E+01 0.00000E+00
 -1       669 1.32150E+02 3.96080E+01 0.00000E+00
 -1       670 1.35150E+02 3.96080E+01 0.00000E+00
 -1       671 1.38150E+02 3.96080E+01 0.00000E+00
 -1       672 2.35350E+01 9.20225E+00 0.00000E+00
 -1       673 4.75733E+01 3.77653E+01 0.00000E+00
 -1       674 2.05350E+01 9.20225E+00 0.00000E+00
 -1       675 2.95350E+01 9.20225E+00 0.00000E+00
 -1       676 3.25350E+01 9.20225E+00 0.00000E+00
 -1       677 3.55350E+01 9.20225E+00 0.00000E+00
 -1       678 3.85350E+01 9.20225E+00 0.00000E+00
 -1       679 4.15350E+01 9.20225E+00 0.00000E+00
 -1       680 4.45350E+01 9.20225E+00 0.00000E+00
 -1       681 4.75350E+01 9.20225E+00 0.00000E+00
 -1       682 5.05350E+01 9.20225E+00 0.00000E+00
 -1       683 5.35350E+01 9.20225E+00 0.00000E+00
 -1       684 5.65350E+01 9.20225E+00 0.00000E+00
 -1       685 5.95350E+01 9.20225E+00 0.00000E+00
 -1       686 6.25350E+01 9.20225E+00 0.00000E+00
 -1       687 6.55350E+01 9.20225E+00 0.00000E+00
 -1       688 6.85350E+01 9.20225E+00 0.00000E+00
 -1       689 7.15350E+01 9.20225E+00 0.00000E+00
 -1       690 7.45350E+01 9.20225E+00 0.00000E+00
 -1       691 7.75350E+01 9.20225E+00 0.00000E+00
 -1       692 8.05350E+01 9.20225E+00 0.00000E+00
 -1       693 8.35350E+01 9.20225E+00 0.00000E+00
 -1       694 8.65350E+01 9.20225E+00 0.00000E+00
 -1       695 8.95350E+01 9.20225E+00 0.00000E+00
 -1       696 9.25350E+01 9.20225E+00 0.00000E+00
 -1       697 9.55350E+01 9.20225E+00 0.00000E+00
 -1       698 9.85350E+01 9.20225E+00 0.00000E+00
 -1       699 1.01535E+02 9.20225E+00 0.00000E+00
 -1       700 1.04535E+02 9.20225E+00 0.00000E+00
 -1       701 1.07535E+02 9.20225E+00 0.00000E+00
 -1       702 1.10535E+02 9.20225E+00 0.00000E+00
 -1       703 1.13535E+02 9.20225E+00 0.00000E+00
 -1       704 1.16535E+02 9.20225E+00 0.00000E+00
 -1       705 1.19535E+02 9.20225E+00 0.00000E+00
 -1       706 1.22535E+02 9.20225E+00 0.00000E+00
 -1       707 1.25535E+02 9.20225E+00 0.00000E+00
 -1       708 1.28535E+02 9.20225E+00 0.00000E+00
 -1       709 1.31535E+02 9.20225E+00 0.00000E+00
 -1       710 1.34535E+02 9.20225E+00 0.00000E+00
 -1       711 1.37535E+02 9.20225E+00 0.00000E+00
 -1       712 1.39870E+02 9.76363E+00 0.00000E+00
 -1       713 1.39608E+02 2.35500E+01 0.00000E+00
 -1       714 1.39608E+02 1.76500E+01 0.00000E+00
 -1       715 1.39608E+02 2.65000E+01 0.00000E+00
 -1       716 1.39608E+02 2.06000E+01 0.00000E+00
 -1       717 5.64835E+01 3.19045E+01 0.00000E+00
 -1       718 4.57012E+01 3.76057E+01 0.00000E+00
 -1       719 1.39608E+02 2.94000E+01 0.00000E+00
 -1       720 1.39608E+02 3.23500E+01 0.00000E+00
 -1       721 1.39608E+02 3.53000E+01 0.00000E+00
 -1       722 5.76342E+01 2.98111E+01 0.00000E+00
 -1       723 4.04586E+01 3.68766E+01 0.00000E+00
 -1       724 3.25833E+01 2.59765E+01 0.00000E+00
 -1       725 5.82924E+01 2.51866E+01 0.00000E+00
 -1       726 3.64872E+01 1.59869E+01 0.00000E+00
 -1       727 3.53301E+01 3.38231E+01 0.00000E+00
 -1       728 1.75350E+01 9.20225E+00 0.00000E+00
 -1       729 3.49352E+01 1.83317E+01 0.00000E+00
 -1       730 1.40178E+02 3.96665E+01 0.00000E+00
 -1       731 4.30073E+01 3.75585E+01 0.00000E+00
 -1       732 5.83474E+01 2.23595E+01 0.00000E+00
 -1       733 1.03920E+01 1.76125E+01 0.00000E+00
 -1       734 1.03920E+01 3.23250E+01 0.00000E+00
 -1       735 4.66811E+01 1.19896E+01 0.00000E+00
 -1       736 3.78693E+01 3.58817E+01 0.00000E+00
 -1       737 3.82288E+01 1.42097E+01 0.00000E+00
 -1       738 3.39484E+01 3.13069E+01 0.00000E+00
 -1       739 3.31173E+01 2.85412E+01 0.00000E+00
 -1       740 5.02618E+01 3.73625E+01 0.00000E+00
 -1       741 1.45350E+01 9.20225E+00 0.00000E+00
 -1       742 1.00042E+01 3.94079E+01 0.00000E+00
 -1       743 4.90063E+01 1.20957E+01 0.00000E+00
 -1       744 5.30064E+01 3.64555E+01 0.00000E+00
 -1       745 4.06616E+01 1.29185E+01 0.00000E+00
 -1       746 3.37812E+01 2.05958E+01 0.00000E+00
 -1       747 3.29477E+01 2.34427E+01 0.00000E+00
 -1       748 5.58796E+01 1.72200E+01 0.00000E+00
 -1       749 1.03920E+01 3.52625E+01 0.00000E+00
 -1       750 1.03920E+01 2.64500E+01 0.00000E+00
 -1       751 5.77707E+01 1.77790E+01 0.00000E+00
 -1       752 5.55673E+01 1.53658E+01 0.00000E+00
 -1       753 1.39870E+02 1.26886E+01 0.00000E+00
 -1       754 1.03920E+01 2.93875E+01 0.00000E+00
 -1       755 5.06917E+01 1.18317E+01 0.00000E+00
 -1       756 1.39739E+02 1.51693E+01 0.00000E+00
 -1       757 5.31670E+01 1.37911E+01 0.00000E+00
 -1       758 1.38879E+02 3.74540E+01 0.00000E+00
 -1       759 1.29900E+01 1.32000E+01 0.00000E+00
 -1       760 1.01981E+01 3.73352E+01 0.00000E+00
 -1       761 3.10350E+01 1.18003E+01 0.00000E+00
 -1       762 2.80350E+01 1.18003E+01 0.00000E+00
 -1       763 1.66500E+01 3.70100E+01 0.00000E+00
 -1       764 1.96500E+01 3.70100E+01 0.00000E+00
 -1       765 2.26500E+01 3.70100E+01 0.00000E+00
 -1       766 2.56500E+01 3.70100E+01 0.00000E+00
 -1       767 2.86500E+01 3.70100E+01 0.00000E+00
 -1       768 3.16500E+01 3.70100E+01 0.00000E+00
 -1       769 5.56500E+01 3.70550E+01 0.00000E+00
 -1       770 5.86500E+01 3.70550E+01 0.00000E+00
 -1       771 6.16500E+01 3.70550E+01 0.00000E+00
 -1       772 6.46500E+01 3.70550E+01 0.00000E+00
 -1       773 6.76500E+01 3.70550E+01 0.00000E+00
 -1       774 7.06500E+01 3.70550E+01 0.00000E+00
 -1       775 7.36500E+01 3.70550E+01 0.00000E+00
 -1       776 7.66500E+01 3.70550E+01 0.00000E+00
 -1       777 7.96500E+01 3.70550E+01 0.00000E+00
 -1       778 8.26500E+01 3.70550E+01 0.00000E+00
 -1       779 8.56500E+01 3.70550E+01 0.00000E+00
 -1       780 8.86500E+01 3.70550E+01 0.00000E+00
 -1       781 9.16500E+01 3.70550E+01 0.00000E+00
 -1       782 9.46500E+01 3.70550E+01 0.00000E+00
 -1       783 9.76500E+01 3.70550E+01 0.00000E+00
 -1       784 1.00650E+02 3.70550E+01 0.00000E+00
 -1       785 1.03650E+02 3.70550E+01 0.00000E+00
 -1       786 1.06650E+02 3.70550E+01 0.00000E+00
 -1       787 1.09650E+02 3.70550E+01 0.00000E+00
 -1       788 1.12650E+02 3.70550E+01 0.00000E+00
 -1       789 1.15650E+02 3.70550E+01 0.00000E+00
 -1       790 1.18650E+02 3.70550E+01 0.00000E+00
 -1       791 1.21650E+02 3.70550E+01 0.00000E+00
 -1       792 1.24650E+02 3.70550E+01 0.00000E+00
 -1       793 1.27650E+02 3.70550E+01 0.00000E+00
 -1       794 1.30650E+02 3.70550E+01 0.00000E+00
 -1       795 1.33650E+02 3.70550E+01 0.00000E+00
 -1       796 1.36264E+02 3.72545E+01 0.00000E+00
 -1       797 2.50350E+01 1.18003E+01 0.00000E+00
 -1       798 3.40350E+01 1.18003E+01 0.00000E+00
 -1       799 5.50350E+01 1.17552E+01 0.00000E+00
 -1       800 5.80350E+01 1.17552E+01 0.00000E+00
 -1       801 6.10350E+01 1.17552E+01 0.00000E+00
 -1       802 6.40350E+01 1.17552E+01 0.00000E+00
 -1       803 6.70350E+01 1.17552E+01 0.00000E+00
 -1       804 7.00350E+01 1.17552E+01 0.00000E+00
 -1       805 7.30350E+01 1.17552E+01 0.00000E+00
 -1       806 7.60350E+01 1.17552E+01 0.00000E+00
 -1       807 7.90350E+01 1.17552E+01 0.00000E+00
 -1       808 8.20350E+01 1.17552E+01 0.00000E+00
 -1       809 8.50350E+01 1.17552E+01 0.00000E+00
 -1       810 8.80350E+01 1.17552E+01 0.00000E+00
 -1       811 9.10350E+01 1.17552E+01 0.00000E+00
 -1       812 9.40350E+01 1.17552E+01 0.00000E+00
 -1       813 9.70350E+01 1.17552E+01 0.00000E+00
 -1       814 1.00035E+02 1.17552E+01 0.00000E+00
 -1       815 1.03035E+02 1.17552E+01 0.00000E+00
 -1       816 1.06035E+02 1.17552E+01 0.00000E+00
 -1       817 1.09035E+02 1.17552E+01 0.00000E+00
 -1       818 1.12035E+02 1.17552E+01 0.00000E+00
 -1       819 1.15035E+02 1.17552E+01 0.00000E+00
 -1       820 1.18035E+02 1.17552E+01 0.00000E+00
 -1       821 1.21035E+02 1.17552E+01 0.00000E+00
 -1       822 1.24035E+02 1.17552E+01 0.00000E+00
 -1       823 1.27035E+02 1.17552E+01 0.00000E+00
 -1       824 1.30035E+02 1.17552E+01 0.00000E+00
 -1       825 1.33035E+02 1.17552E+01 0.00000E+00
 -1       826 1.36035E+02 1.17552E+01 0.00000E+00
 -1       827 1.37953E+02 1.22219E+01 0.00000E+00
 -1       828 5.75151E+01 3.41557E+01 0.00000E+00
 -1       829 1.37010E+02 2.50250E+01 0.00000E+00
 -1       830 5.86658E+01 3.20622E+01 0.00000E+00
 -1       831 1.37010E+02 3.38250E+01 0.00000E+00
 -1       832 3.26952E+01 3.36325E+01 0.00000E+00
 -1       833 3.52029E+01 3.65751E+01 0.00000E+00
 -1       834 3.04044E+01 2.43700E+01 0.00000E+00
 -1       835 1.90350E+01 1.18003E+01 0.00000E+00
 -1       836 3.14088E+01 3.05623E+01 0.00000E+00
 -1       837 1.37010E+02 3.08750E+01 0.00000E+00
 -1       838 2.20350E+01 1.18003E+01 0.00000E+00
 -1       839 5.96385E+01 2.86088E+01 0.00000E+00
 -1       840 3.08431E+01 2.76768E+01 0.00000E+00
 -1       841 6.02022E+01 2.38097E+01 0.00000E+00
 -1       842 1.36500E+01 3.70100E+01 0.00000E+00
 -1       843 3.77923E+01 3.75701E+01 0.00000E+00
 -1       844 5.93626E+01 2.03770E+01 0.00000E+00
 -1       845 3.57740E+01 1.35460E+01 0.00000E+00
 -1       846 5.99204E+01 2.62093E+01 0.00000E+00
 -1       847 1.37625E+01 1.12011E+01 0.00000E+00
 -1       848 3.68819E+01 1.17060E+01 0.00000E+00
 -1       849 3.37220E+01 1.58427E+01 0.00000E+00
 -1       850 3.12360E+01 2.13960E+01 0.00000E+00
 -1       851 1.29900E+01 2.20250E+01 0.00000E+00
 -1       852 1.37010E+02 2.79500E+01 0.00000E+00
 -1       853 3.26809E+01 1.86088E+01 0.00000E+00
 -1       854 1.29900E+01 2.49750E+01 0.00000E+00
 -1       855 5.74585E+01 1.59248E+01 0.00000E+00
 -1       856 1.29900E+01 3.37938E+01 0.00000E+00
 -1       857 1.63988E+01 1.15007E+01 0.00000E+00
 -1       858 1.37010E+02 1.91250E+01 0.00000E+00
 -1       859 1.37010E+02 2.20750E+01 0.00000E+00
 -1       860 6.06701E+01 3.08599E+01 0.00000E+00
 -1       861 6.12174E+01 2.18272E+01 0.00000E+00
 -1       862 1.29900E+01 1.61375E+01 0.00000E+00
 -1       863 5.99074E+01 1.84080E+01 0.00000E+00
 -1       864 1.37141E+02 1.66443E+01 0.00000E+00
 -1       865 1.29900E+01 1.90812E+01 0.00000E+00
 -1       866 1.29900E+01 3.08563E+01 0.00000E+00
 -1       867 1.36637E+02 3.55398E+01 0.00000E+00
 -1       868 2.95350E+01 1.43982E+01 0.00000E+00
 -1       869 2.87851E+01 2.95785E+01 0.00000E+00
 -1       870 2.11500E+01 3.44120E+01 0.00000E+00
 -1       871 2.41500E+01 3.44120E+01 0.00000E+00
 -1       872 2.71500E+01 3.44120E+01 0.00000E+00
 -1       873 6.01500E+01 3.44570E+01 0.00000E+00
 -1       874 6.31500E+01 3.44570E+01 0.00000E+00
 -1       875 6.61500E+01 3.44570E+01 0.00000E+00
 -1       876 6.91500E+01 3.44570E+01 0.00000E+00
 -1       877 7.21500E+01 3.44570E+01 0.00000E+00
 -1       878 7.51500E+01 3.44570E+01 0.00000E+00
 -1       879 7.81500E+01 3.44570E+01 0.00000E+00
 -1       880 8.11500E+01 3.44570E+01 0.00000E+00
 -1       881 8.41500E+01 3.44570E+01 0.00000E+00
 -1       882 8.71500E+01 3.44570E+01 0.00000E+00
 -1       883 9.01500E+01 3.44570E+01 0.00000E+00
 -1       884 9.31500E+01 3.44570E+01 0.00000E+00
 -1       885 9.61500E+01 3.44570E+01 0.00000E+00
 -1       886 9.91500E+01 3.44570E+01 0.00000E+00
 -1       887 1.02150E+02 3.44570E+01 0.00000E+00
 -1       888 1.05150E+02 3.44570E+01 0.00000E+00
 -1       889 1.08150E+02 3.44570E+01 0.00000E+00
 -1       890 1.11150E+02 3.44570E+01 0.00000E+00
 -1       891 1.14150E+02 3.44570E+01 0.00000E+00
 -1       892 1.17150E+02 3.44570E+01 0.00000E+00
 -1       893 1.20150E+02 3.44570E+01 0.00000E+00
 -1       894 1.23150E+02 3.44570E+01 0.00000E+00
 -1       895 1.26150E+02 3.44570E+01 0.00000E+00
 -1       896 1.29150E+02 3.44570E+01 0.00000E+00
 -1       897 1.32150E+02 3.44570E+01 0.00000E+00
 -1       898 1.34412E+02 3.23500E+01 0.00000E+00
 -1       899 6.55350E+01 1.43532E+01 0.00000E+00
 -1       900 6.85350E+01 1.43532E+01 0.00000E+00
 -1       901 7.15350E+01 1.43532E+01 0.00000E+00
 -1       902 7.45350E+01 1.43532E+01 0.00000E+00
 -1       903 7.75350E+01 1.43532E+01 0.00000E+00
 -1       904 8.05350E+01 1.43532E+01 0.00000E+00
 -1       905 8.35350E+01 1.43532E+01 0.00000E+00
 -1       906 8.65350E+01 1.43532E+01 0.00000E+00
 -1       907 8.95350E+01 1.43532E+01 0.00000E+00
 -1       908 9.25350E+01 1.43532E+01 0.00000E+00
 -1       909 9.55350E+01 1.43532E+01 0.00000E+00
 -1       910 9.85350E+01 1.43532E+01 0.00000E+00
 -1       911 1.01535E+02 1.43532E+01 0.00000E+00
 -1       912 1.04535E+02 1.43532E+01 0.00000E+00
 -1       913 1.07535E+02 1.43532E+01 0.00000E+00
 -1       914 1.10535E+02 1.43532E+01 0.00000E+00
 -1       915 1.13535E+02 1.43532E+01 0.00000E+00
 -1       916 1.16535E+02 1.43532E+01 0.00000E+00
 -1       917 1.19535E+02 1.43532E+01 0.00000E+00
 -1       918 1.22535E+02 1.43532E+01 0.00000E+00
 -1       919 1.25535E+02 1.43532E+01 0.00000E+00
 -1       920 1.28535E+02 1.43532E+01 0.00000E+00
 -1       921 1.31535E+02 1.43532E+01 0.00000E+00
 -1       922 1.34535E+02 1.43532E+01 0.00000E+00
 -1       923 2.05350E+01 1.43982E+01 0.00000E+00
 -1       924 2.35350E+01 1.43982E+01 0.00000E+00
 -1       925 3.11258E+01 1.64445E+01 0.00000E+00
 -1       926 2.96974E+01 3.30840E+01 0.00000E+00
 -1       927 1.29900E+01 2.79188E+01 0.00000E+00
 -1       928 2.85229E+01 2.22407E+01 0.00000E+00
 -1       929 6.25350E+01 1.43532E+01 0.00000E+00
 -1       930 5.99967E+01 1.51390E+01 0.00000E+00
 -1       931 2.96809E+01 1.92317E+01 0.00000E+00
 -1       932 1.81500E+01 3.44120E+01 0.00000E+00
 -1       933 2.82590E+01 2.63371E+01 0.00000E+00
 -1       934 3.23785E+01 1.38215E+01 0.00000E+00
 -1       935 2.65350E+01 1.43982E+01 0.00000E+00
 -1       936 1.37547E+02 1.44331E+01 0.00000E+00
 -1       937 1.58650E+01 3.48796E+01 0.00000E+00
 -1       938 1.78988E+01 1.40987E+01 0.00000E+00
 -1       939 5.99521E+01 1.67735E+01 0.00000E+00
 -1       940 1.34412E+02 2.35500E+01 0.00000E+00
 -1       941 1.34394E+02 3.49984E+01 0.00000E+00
 -1       942 1.58650E+01 3.19421E+01 0.00000E+00
 -1       943 1.34412E+02 2.94250E+01 0.00000E+00
 -1       944 1.34412E+02 2.06000E+01 0.00000E+00
 -1       945 6.21705E+01 2.88104E+01 0.00000E+00
 -1       946 6.17622E+01 1.98581E+01 0.00000E+00
 -1       947 1.55880E+01 1.46687E+01 0.00000E+00
 -1       948 1.34412E+02 2.64750E+01 0.00000E+00
 -1       949 1.55880E+01 2.35000E+01 0.00000E+00
 -1       950 2.63776E+01 2.42077E+01 0.00000E+00
 -1       951 6.25347E+01 2.37529E+01 0.00000E+00
 -1       952 6.22529E+01 2.61525E+01 0.00000E+00
 -1       953 1.34543E+02 1.81193E+01 0.00000E+00
 -1       954 1.55880E+01 2.05562E+01 0.00000E+00
 -1       955 2.56500E+01 3.18140E+01 0.00000E+00
 -1       956 2.61675E+01 2.83400E+01 0.00000E+00
 -1       957 2.50350E+01 1.69963E+01 0.00000E+00
 -1       958 7.30350E+01 1.69512E+01 0.00000E+00
 -1       959 6.76500E+01 3.18590E+01 0.00000E+00
 -1       960 7.06500E+01 3.18590E+01 0.00000E+00
 -1       961 7.36500E+01 3.18590E+01 0.00000E+00
 -1       962 7.66500E+01 3.18590E+01 0.00000E+00
 -1       963 7.96500E+01 3.18590E+01 0.00000E+00
 -1       964 8.26500E+01 3.18590E+01 0.00000E+00
 -1       965 8.56500E+01 3.18590E+01 0.00000E+00
 -1       966 8.86500E+01 3.18590E+01 0.00000E+00
 -1       967 9.16500E+01 3.18590E+01 0.00000E+00
 -1       968 9.46500E+01 3.18590E+01 0.00000E+00
 -1       969 9.76500E+01 3.18590E+01 0.00000E+00
 -1       970 1.00650E+02 3.18590E+01 0.00000E+00
 -1       971 1.03650E+02 3.18590E+01 0.00000E+00
 -1       972 1.06650E+02 3.18590E+01 0.00000E+00
 -1       973 1.09650E+02 3.18590E+01 0.00000E+00
 -1       974 1.12650E+02 3.18590E+01 0.00000E+00
 -1       975 1.15650E+02 3.18590E+01 0.00000E+00
 -1       976 1.18650E+02 3.18590E+01 0.00000E+00
 -1       977 1.21650E+02 3.18590E+01 0.00000E+00
 -1       978 1.24650E+02 3.18590E+01 0.00000E+00
 -1       979 1.27650E+02 3.18590E+01 0.00000E+00
 -1       980 1.30650E+02 3.18590E+01 0.00000E+00
 -1       981 7.00350E+01 1.69512E+01 0.00000E+00
 -1       982 1.31814E+02 2.20750E+01 0.00000E+00
 -1       983 2.67193E+01 1.98192E+01 0.00000E+00
 -1       984 6.70350E+01 1.69512E+01 0.00000E+00
 -1       985 7.60350E+01 1.69512E+01 0.00000E+00
 -1       986 7.90350E+01 1.69512E+01 0.00000E+00
 -1       987 8.20350E+01 1.69512E+01 0.00000E+00
 -1       988 8.50350E+01 1.69512E+01 0.00000E+00
 -1       989 8.80350E+01 1.69512E+01 0.00000E+00
 -1       990 9.10350E+01 1.69512E+01 0.00000E+00
 -1       991 9.40350E+01 1.69512E+01 0.00000E+00
 -1       992 9.70350E+01 1.69512E+01 0.00000E+00
 -1       993 1.00035E+02 1.69512E+01 0.00000E+00
 -1       994 1.03035E+02 1.69512E+01 0.00000E+00
 -1       995 1.06035E+02 1.69512E+01 0.00000E+00
 -1       996 1.09035E+02 1.69512E+01 0.00000E+00
 -1       997 1.12035E+02 1.69512E+01 0.00000E+00
 -1       998 1.15035E+02 1.69512E+01 0.00000E+00
 -1       999 1.18035E+02 1.69512E+01 0.00000E+00
 -1      1000 1.21035E+02 1.69512E+01 0.00000E+00
 -1      1001 1.24035E+02 1.69512E+01 0.00000E+00
 -1      1002 1.27035E+02 1.69512E+01 0.00000E+00
 -1      1003 1.30035E+02 1.69512E+01 0.00000E+00
 -1      1004 2.20350E+01 1.69963E+01 0.00000E+00
 -1      1005 1.96500E+01 3.18140E+01 0.00000E+00
 -1      1006 6.40350E+01 1.69512E+01 0.00000E+00
 -1      1007 6.37066E+01 2.15379E+01 0.00000E+00
 -1      1008 2.81272E+01 1.71087E+01 0.00000E+00
 -1      1009 1.55880E+01 1.76125E+01 0.00000E+00
 -1      1010 1.58650E+01 2.90046E+01 0.00000E+00
 -1      1011 1.57265E+01 2.62523E+01 0.00000E+00
 -1      1012 2.26500E+01 3.18140E+01 0.00000E+00
 -1      1013 6.38740E+01 3.13045E+01 0.00000E+00
 -1      1014 1.81860E+01 2.20281E+01 0.00000E+00
 -1      1015 1.93988E+01 1.66967E+01 0.00000E+00
 -1      1016 1.31945E+02 1.95943E+01 0.00000E+00
 -1      1017 2.42860E+01 2.62106E+01 0.00000E+00
 -1      1018 2.45740E+01 2.17863E+01 0.00000E+00
 -1      1019 1.31814E+02 2.50000E+01 0.00000E+00
 -1      1020 6.52291E+01 2.37609E+01 0.00000E+00
 -1      1021 1.74934E+01 1.71546E+01 0.00000E+00
 -1      1022 6.18069E+01 1.82236E+01 0.00000E+00
 -1      1023 6.49473E+01 2.61605E+01 0.00000E+00
 -1      1024 1.83245E+01 2.47804E+01 0.00000E+00
 -1      1025 6.44106E+01 2.87325E+01 0.00000E+00
 -1      1026 7.21500E+01 2.92610E+01 0.00000E+00
 -1      1027 7.51500E+01 2.92610E+01 0.00000E+00
 -1      1028 7.81500E+01 2.92610E+01 0.00000E+00
 -1      1029 8.11500E+01 2.92610E+01 0.00000E+00
 -1      1030 8.41500E+01 2.92610E+01 0.00000E+00
 -1      1031 8.71500E+01 2.92610E+01 0.00000E+00
 -1      1032 9.01500E+01 2.92610E+01 0.00000E+00
 -1      1033 9.31500E+01 2.92610E+01 0.00000E+00
 -1      1034 9.61500E+01 2.92610E+01 0.00000E+00
 -1      1035 9.91500E+01 2.92610E+01 0.00000E+00
 -1      1036 1.02150E+02 2.92610E+01 0.00000E+00
 -1      1037 1.05150E+02 2.92610E+01 0.00000E+00
 -1      1038 1.08150E+02 2.92610E+01 0.00000E+00
 -1      1039 1.11150E+02 2.92610E+01 0.00000E+00
 -1      1040 1.14150E+02 2.92610E+01 0.00000E+00
 -1      1041 1.17150E+02 2.92610E+01 0.00000E+00
 -1      1042 1.20150E+02 2.92610E+01 0.00000E+00
 -1      1043 1.23150E+02 2.92610E+01 0.00000E+00
 -1      1044 1.26150E+02 2.92610E+01 0.00000E+00
 -1      1045 1.29150E+02 2.92610E+01 0.00000E+00
 -1      1046 7.15350E+01 1.95492E+01 0.00000E+00
 -1      1047 2.34680E+01 2.90123E+01 0.00000E+00
 -1      1048 6.64359E+01 2.13015E+01 0.00000E+00
 -1      1049 1.78397E+01 1.95914E+01 0.00000E+00
 -1      1050 8.05350E+01 1.95492E+01 0.00000E+00
 -1      1051 8.35350E+01 1.95492E+01 0.00000E+00
 -1      1052 8.65350E+01 1.95492E+01 0.00000E+00
 -1      1053 8.95350E+01 1.95492E+01 0.00000E+00
 -1      1054 9.25350E+01 1.95492E+01 0.00000E+00
 -1      1055 9.55350E+01 1.95492E+01 0.00000E+00
 -1      1056 9.85350E+01 1.95492E+01 0.00000E+00
 -1      1057 1.01535E+02 1.95492E+01 0.00000E+00
 -1      1058 1.04535E+02 1.95492E+01 0.00000E+00
 -1      1059 1.07535E+02 1.95492E+01 0.00000E+00
 -1      1060 1.10535E+02 1.95492E+01 0.00000E+00
 -1      1061 1.13535E+02 1.95492E+01 0.00000E+00
 -1      1062 1.16535E+02 1.95492E+01 0.00000E+00
 -1      1063 1.19535E+02 1.95492E+01 0.00000E+00
 -1      1064 1.22535E+02 1.95492E+01 0.00000E+00
 -1      1065 1.25535E+02 1.95492E+01 0.00000E+00
 -1      1066 1.28535E+02 1.95492E+01 0.00000E+00
 -1      1067 2.35350E+01 1.95942E+01 0.00000E+00
 -1      1068 6.89855E+01 2.04253E+01 0.00000E+00
 -1      1069 1.84630E+01 2.75328E+01 0.00000E+00
 -1      1070 6.91500E+01 2.92610E+01 0.00000E+00
 -1      1071 7.75350E+01 1.95492E+01 0.00000E+00
 -1      1072 1.31781E+02 2.78680E+01 0.00000E+00
 -1      1073 7.45350E+01 1.95492E+01 0.00000E+00
 -1      1074 2.24824E+01 2.37891E+01 0.00000E+00
 -1      1075 2.05850E+01 2.04442E+01 0.00000E+00
 -1      1076 6.74573E+01 2.52389E+01 0.00000E+00
 -1      1077 6.82214E+01 2.28321E+01 0.00000E+00
 -1      1078 1.29216E+02 2.35375E+01 0.00000E+00
 -1      1079 2.11500E+01 2.92160E+01 0.00000E+00
 -1      1080 8.80350E+01 2.21472E+01 0.00000E+00
 -1      1081 2.13745E+01 2.68717E+01 0.00000E+00
 -1      1082 7.66500E+01 2.66630E+01 0.00000E+00
 -1      1083 7.96500E+01 2.66630E+01 0.00000E+00
 -1      1084 8.26500E+01 2.66630E+01 0.00000E+00
 -1      1085 8.56500E+01 2.66630E+01 0.00000E+00
 -1      1086 8.86500E+01 2.66630E+01 0.00000E+00
 -1      1087 9.16500E+01 2.66630E+01 0.00000E+00
 -1      1088 9.46500E+01 2.66630E+01 0.00000E+00
 -1      1089 9.76500E+01 2.66630E+01 0.00000E+00
 -1      1090 1.00650E+02 2.66630E+01 0.00000E+00
 -1      1091 1.03650E+02 2.66630E+01 0.00000E+00
 -1      1092 1.06650E+02 2.66630E+01 0.00000E+00
 -1      1093 1.09650E+02 2.66630E+01 0.00000E+00
 -1      1094 1.12650E+02 2.66630E+01 0.00000E+00
 -1      1095 1.15650E+02 2.66630E+01 0.00000E+00
 -1      1096 1.18650E+02 2.66630E+01 0.00000E+00
 -1      1097 1.21650E+02 2.66630E+01 0.00000E+00
 -1      1098 1.24650E+02 2.66630E+01 0.00000E+00
 -1      1099 1.27650E+02 2.66630E+01 0.00000E+00
 -1      1100 8.50350E+01 2.21472E+01 0.00000E+00
 -1      1101 8.20350E+01 2.21472E+01 0.00000E+00
 -1      1102 9.10350E+01 2.21472E+01 0.00000E+00
 -1      1103 9.40350E+01 2.21472E+01 0.00000E+00
 -1      1104 9.70350E+01 2.21472E+01 0.00000E+00
 -1      1105 1.00035E+02 2.21472E+01 0.00000E+00
 -1      1106 1.03035E+02 2.21472E+01 0.00000E+00
 -1      1107 1.06035E+02 2.21472E+01 0.00000E+00
 -1      1108 1.09035E+02 2.21472E+01 0.00000E+00
 -1      1109 1.12035E+02 2.21472E+01 0.00000E+00
 -1      1110 1.15035E+02 2.21472E+01 0.00000E+00
 -1      1111 1.18035E+02 2.21472E+01 0.00000E+00
 -1      1112 1.21035E+02 2.21472E+01 0.00000E+00
 -1      1113 1.24035E+02 2.21472E+01 0.00000E+00
 -1      1114 7.36500E+01 2.66630E+01 0.00000E+00
 -1      1115 7.90350E+01 2.21472E+01 0.00000E+00
 -1      1116 7.06500E+01 2.66630E+01 0.00000E+00
 -1      1117 1.26592E+02 2.31061E+01 0.00000E+00
 -1      1118 7.07709E+01 2.19560E+01 0.00000E+00
 -1      1119 7.37709E+01 2.19560E+01 0.00000E+00
 -1      1120 7.09357E+01 2.47476E+01 0.00000E+00
 -1      1121 7.64030E+01 2.20516E+01 0.00000E+00
 -1      1122 7.51500E+01 2.40650E+01 0.00000E+00
 -1      1123 0.00000E+00 4.85250E+01 0.00000E+00
 -1      1124 0.00000E+00 4.55750E+01 0.00000E+00
 -1      1125 0.00000E+00 4.26250E+01 0.00000E+00
 -1      1126 0.00000E+00 3.96750E+01 0.00000E+00
 -1      1127 0.00000E+00 3.67250E+01 0.00000E+00
 -1      1128 0.00000E+00 3.38000E+01 0.00000E+00
 -1      1129 0.00000E+00 3.08750E+01 0.00000E+00
 -1      1130 0.00000E+00 2.79250E+01 0.00000E+00
 -1      1131 0.00000E+00 2.49750E+01 0.00000E+00
 -1      1132 0.00000E+00 2.20250E+01 0.00000E+00
 -1      1133 0.00000E+00 1.90750E+01 0.00000E+00
 -1      1134 0.00000E+00 1.61500E+01 0.00000E+00
 -1      1135 0.00000E+00 1.32250E+01 0.00000E+00
 -1      1136 0.00000E+00 1.02750E+01 0.00000E+00
 -1      1137 0.00000E+00 7.32500E+00 0.00000E+00
 -1      1138 0.00000E+00 4.37500E+00 0.00000E+00
 -1      1139 0.00000E+00 1.45000E+00 0.00000E+00
 -1      1140 1.57500E+00 5.00000E+01 0.00000E+00
 -1      1141 4.65000E+00 5.00000E+01 0.00000E+00
 -1      1142 7.65000E+00 5.00000E+01 0.00000E+00
 -1      1143 1.06500E+01 5.00000E+01 0.00000E+00
 -1      1144 1.36500E+01 5.00000E+01 0.00000E+00
 -1      1145 1.66500E+01 5.00000E+01 0.00000E+00
 -1      1146 1.96500E+01 5.00000E+01 0.00000E+00
 -1      1147 2.26500E+01 5.00000E+01 0.00000E+00
 -1      1148 2.56500E+01 5.00000E+01 0.00000E+00
 -1      1149 2.86500E+01 5.00000E+01 0.00000E+00
 -1      1150 3.16500E+01 5.00000E+01 0.00000E+00
 -1      1151 3.46500E+01 5.00000E+01 0.00000E+00
 -1      1152 3.76500E+01 5.00000E+01 0.00000E+00
 -1      1153 4.06500E+01 5.00000E+01 0.00000E+00
 -1      1154 4.36500E+01 5.00000E+01 0.00000E+00
 -1      1155 4.66500E+01 5.00000E+01 0.00000E+00
 -1      1156 4.96500E+01 5.00000E+01 0.00000E+00
 -1      1157 5.26500E+01 5.00000E+01 0.00000E+00
 -1      1158 5.56500E+01 5.00000E+01 0.00000E+00
 -1      1159 5.86500E+01 5.00000E+01 0.00000E+00
 -1      1160 6.16500E+01 5.00000E+01 0.00000E+00
 -1      1161 6.46500E+01 5.00000E+01 0.00000E+00
 -1      1162 6.76500E+01 5.00000E+01 0.00000E+00
 -1      1163 7.06500E+01 5.00000E+01 0.00000E+00
 -1      1164 7.36500E+01 5.00000E+01 0.00000E+00
 -1      1165 7.66500E+01 5.00000E+01 0.00000E+00
 -1      1166 7.96500E+01 5.00000E+01 0.00000E+00
 -1      1167 8.26500E+01 5.00000E+01 0.00000E+00
 -1      1168 8.56500E+01 5.00000E+01 0.00000E+00
 -1      1169 8.86500E+01 5.00000E+01 0.00000E+00
 -1      1170 9.16500E+01 5.00000E+01 0.00000E+00
 -1      1171 9.46500E+01 5.00000E+01 0.00000E+00
 -1      1172 9.76500E+01 5.00000E+01 0.00000E+00
 -1      1173 1.00650E+02 5.00000E+01 0.00000E+00
 -1      1174 1.03650E+02 5.00000E+01 0.00000E+00
 -1      1175 1.06650E+02 5.00000E+01 0.00000E+00
 -1      1176 1.09650E+02 5.00000E+01 0.00000E+00
 -1      1177 1.12650E+02 5.00000E+01 0.00000E+00
 -1      1178 1.15650E+02 5.00000E+01 0.00000E+00
 -1      1179 1.18650E+02 5.00000E+01 0.00000E+00
 -1      1180 1.21650E+02 5.00000E+01 0.00000E+00
 -1      1181 1.24650E+02 5.00000E+01 0.00000E+00
 -1      1182 1.27650E+02 5.00000E+01 0.00000E+00
 -1      1183 1.30650E+02 5.00000E+01 0.00000E+00
 -1      1184 1.33650E+02 5.00000E+01 0.00000E+00
 -1      1185 1.36650E+02 5.00000E+01 0.00000E+00
 -1      1186 1.39650E+02 5.00000E+01 0.00000E+00
 -1      1187 1.42650E+02 5.00000E+01 0.00000E+00
 -1      1188 1.45650E+02 5.00000E+01 0.00000E+00
 -1      1189 1.48575E+02 5.00000E+01 0.00000E+00
 -1      1190 1.57500E+00 0.00000E+00 0.00000E+00
 -1      1191 4.65000E+00 0.00000E+00 0.00000E+00
 -1      1192 7.65000E+00 0.00000E+00 0.00000E+00
 -1      1193 1.06500E+01 0.00000E+00 0.00000E+00
 -1      1194 1.36500E+01 0.00000E+00 0.00000E+00
 -1      1195 1.66500E+01 0.00000E+00 0.00000E+00
 -1      1196 1.96500E+01 0.00000E+00 0.00000E+00
 -1      1197 2.26500E+01 0.00000E+00 0.00000E+00
 -1      1198 2.56500E+01 0.00000E+00 0.00000E+00
 -1      1199 2.86500E+01 0.00000E+00 0.00000E+00
 -1      1200 3.16500E+01 0.00000E+00 0.00000E+00
 -1      1201 3.46500E+01 0.00000E+00 0.00000E+00
 -1      1202 3.76500E+01 0.00000E+00 0.00000E+00
 -1      1203 4.06500E+01 0.00000E+00 0.00000E+00
 -1      1204 4.36500E+01 0.00000E+00 0.00000E+00
 -1      1205 4.66500E+01 0.00000E+00 0.00000E+00
 -1      1206 4.96500E+01 0.00000E+00 0.00000E+00
 -1      1207 5.26500E+01 0.00000E+00 0.00000E+00
 -1      1208 5.56500E+01 0.00000E+00 0.00000E+00
 -1      1209 5.86500E+01 0.00000E+00 0.00000E+00
 -1      1210 6.16500E+01 0.00000E+00 0.00000E+00
 -1      1211 6.46500E+01 0.00000E+00 0.00000E+00
 -1      1212 6.76500E+01 0.00000E+00 0.00000E+00
 -1      1213 7.06500E+01 0.00000E+00 0.00000E+00
 -1      1214 7.36500E+01 0.00000E+00 0.00000E+00
 -1      1215 7.66500E+01 0.00000E+00 0.00000E+00
 -1      1216 7.96500E+01 0.00000E+00 0.00000E+00
 -1      1217 8.26500E+01 0.00000E+00 0.00000E+00
 -1      1218 8.56500E+01 0.00000E+00 0.00000E+00
 -1      1219 8.86500E+01 0.00000E+00 0.00000E+00
 -1      1220 9.16500E+01 0.00000E+00 0.00000E+00
 -1      1221 9.46500E+01 0.00000E+00 0.00000E+00
 -1      1222 9.76500E+01 0.00000E+00 0.00000E+00
 -1      1223 1.00650E+02 0.00000E+00 0.00000E+00
 -1      1224 1.03650E+02 0.00000E+00 0.00000E+00
 -1      1225 1.06650E+02 0.00000E+00 0.00000E+00
 -1      1226 1.09650E+02 0.00000E+00 0.00000E+00
 -1      1227 1.12650E+02 0.00000E+00 0.00000E+00
 -1      1228 1.15650E+02 0.00000E+00 0.00000E+00
 -1      1229 1.18650E+02 0.00000E+00 0.00000E+00
 -1      1230 1.21650E+02 0.00000E+00 0.00000E+00
 -1      1231 1.24650E+02 0.00000E+00 0.00000E+00
 -1      1232 1.27650E+02 0.00000E+00 0.00000E+00
 -1      1233 1.30650E+02 0.00000E+00 0.00000E+00
 -1      1234 1.33650E+02 0.00000E+00 0.00000E+00
 -1      1235 1.36650E+02 0.00000E+00 0.00000E+00
 -1      1236 1.39650E+02 0.00000E+00 0.00000E+00
 -1      1237 1.42650E+02 0.00000E+00 0.00000E+00
 -1      1238 1.45650E+02 0.00000E+00 0.00000E+00
 -1      1239 1.48575E+02 0.00000E+00 0.00000E+00
 -1      1240 1.50000E+02 1.47500E+00 0.00000E+00
 -1      1241 1.50000E+02 4.42500E+00 0.00000E+00
 -1      1242 1.50000E+02 7.37500E+00 0.00000E+00
 -1      1243 1.50000E+02 1.03250E+01 0.00000E+00
 -1      1244 1.50000E+02 1.32750E+01 0.00000E+00
 -1      1245 1.50000E+02 1.62000E+01 0.00000E+00
 -1      1246 1.50000E+02 1.91250E+01 0.00000E+00
 -1      1247 1.50000E+02 2.20750E+01 0.00000E+00
 -1      1248 1.50000E+02 2.50250E+01 0.00000E+00
 -1      1249 1.50000E+02 2.79750E+01 0.00000E+00
 -1      1250 1.50000E+02 3.09250E+01 0.00000E+00
 -1      1251 1.50000E+02 3.38500E+01 0.00000E+00
 -1      1252 1.50000E+02 3.67750E+01 0.00000E+00
 -1      1253 1.50000E+02 3.97250E+01 0.00000E+00
 -1      1254 1.50000E+02 4.26750E+01 0.00000E+00
 -1      1255 1.50000E+02 4.56250E+01 0.00000E+00
 -1      1256 1.50000E+02 4.85500E+01 0.00000E+00
 -1      1257 5.26454E+01 2.43061E+01 0.00000E+00
 -1      1258 5.23241E+01 2.28255E+01 0.00000E+00
 -1      1259 5.16871E+01 2.14411E+01 0.00000E+00
 -1      1260 5.07881E+01 2.02511E+01 0.00000E+00
 -1      1261 4.96072E+01 1.92444E+01 0.00000E+00
 -1      1262 4.82360E+01 1.85235E+01 0.00000E+00
 -1      1263 4.68172E+01 1.81341E+01 0.00000E+00
 -1      1264 4.53391E+01 1.80503E+01 0.00000E+00
 -1      1265 4.38222E+01 1.82939E+01 0.00000E+00
 -1      1266 4.24257E+01 1.88464E+01 0.00000E+00
 -1      1267 4.12183E+01 1.96514E+01 0.00000E+00
 -1      1268 4.01972E+01 2.06951E+01 0.00000E+00
 -1      1269 3.93974E+01 2.19634E+01 0.00000E+00
 -1      1270 3.88791E+01 2.34014E+01 0.00000E+00
 -1      1271 3.86867E+01 2.48537E+01 0.00000E+00
 -1      1272 3.88025E+01 2.63231E+01 0.00000E+00
 -1      1273 3.92234E+01 2.77358E+01 0.00000E+00
 -1      1274 3.99341E+01 2.90338E+01 0.00000E+00
 -1      1275 4.09207E+01 3.01710E+01 0.00000E+00
 -1      1276 4.21137E+01 3.10627E+01 0.00000E+00
 -1      1277 4.34308E+01 3.16691E+01 0.00000E+00
 -1      1278 4.47865E+01 3.19840E+01 0.00000E+00
 -1      1279 4.61693E+01 3.20249E+01 0.00000E+00
 -1      1280 4.75320E+01 3.17935E+01 0.00000E+00
 -1      1281 4.88826E+01 3.12683E+01 0.00000E+00
 -1      1282 5.00840E+01 3.04862E+01 0.00000E+00
 -1      1283 5.10977E+01 2.94796E+01 0.00000E+00
 -1      1284 5.18813E+01 2.82968E+01 0.00000E+00
 -1      1285 5.23923E+01 2.70421E+01 0.00000E+00
 -1      1286 5.26519E+01 2.57128E+01 0.00000E+00
 -1      1287 1.57500E+00 4.85250E+01 0.00000E+00
 -1      1288 1.29900E+00 4.48375E+01 0.00000E+00
 -1      1289 1.29900E+00 4.63125E+01 0.00000E+00
 -1      1290 1.29900E+00 4.18875E+01 0.00000E+00
 -1      1291 1.29900E+00 4.33625E+01 0.00000E+00
 -1      1292 2.59800E+00 4.41000E+01 0.00000E+00
 -1      1293 1.29900E+00 3.89375E+01 0.00000E+00
 -1      1294 1.29900E+00 4.04125E+01 0.00000E+00
 -1      1295 2.59800E+00 4.11500E+01 0.00000E+00
 -1      1296 1.29900E+00 3.59875E+01 0.00000E+00
 -1      1297 1.29900E+00 3.74625E+01 0.00000E+00
 -1      1298 2.59800E+00 3.82000E+01 0.00000E+00
 -1      1299 1.29900E+00 3.30875E+01 0.00000E+00
 -1      1300 1.29900E+00 3.45375E+01 0.00000E+00
 -1      1301 2.59800E+00 3.52750E+01 0.00000E+00
 -1      1302 1.29900E+00 3.01375E+01 0.00000E+00
 -1      1303 1.29900E+00 3.16125E+01 0.00000E+00
 -1      1304 2.59800E+00 3.23500E+01 0.00000E+00
 -1      1305 1.29900E+00 2.71875E+01 0.00000E+00
 -1      1306 1.29900E+00 2.86625E+01 0.00000E+00
 -1      1307 2.59800E+00 2.94000E+01 0.00000E+00
 -1      1308 1.29900E+00 2.42375E+01 0.00000E+00
 -1      1309 1.29900E+00 2.57125E+01 0.00000E+00
 -1      1310 2.59800E+00 2.64500E+01 0.00000E+00
 -1      1311 1.29900E+00 2.12875E+01 0.00000E+00
 -1      1312 1.29900E+00 2.27625E+01 0.00000E+00
 -1      1313 2.59800E+00 2.35000E+01 0.00000E+00
 -1      1314 1.29900E+00 1.83375E+01 0.00000E+00
 -1      1315 1.29900E+00 1.98125E+01 0.00000E+00
 -1      1316 2.59800E+00 2.05500E+01 0.00000E+00
 -1      1317 1.29900E+00 1.54375E+01 0.00000E+00
 -1      1318 1.29900E+00 1.68875E+01 0.00000E+00
 -1      1319 2.59800E+00 1.76250E+01 0.00000E+00
 -1      1320 1.29900E+00 1.24875E+01 0.00000E+00
 -1      1321 1.29900E+00 1.39625E+01 0.00000E+00
 -1      1322 2.59800E+00 1.47000E+01 0.00000E+00
 -1      1323 1.29900E+00 9.53750E+00 0.00000E+00
 -1      1324 1.29900E+00 1.10125E+01 0.00000E+00
 -1      1325 2.59800E+00 1.17500E+01 0.00000E+00
 -1      1326 1.29900E+00 6.58750E+00 0.00000E+00
 -1      1327 1.29900E+00 8.06250E+00 0.00000E+00
 -1      1328 2.59800E+00 8.80000E+00 0.00000E+00
 -1      1329 1.29900E+00 3.63750E+00 0.00000E+00
 -1      1330 1.29900E+00 5.11250E+00 0.00000E+00
 -1      1331 2.59800E+00 5.85000E+00 0.00000E+00
 -1      1332 1.43700E+00 1.09375E+00 0.00000E+00
 -1      1333 1.43700E+00 2.54375E+00 0.00000E+00
 -1      1334 2.73600E+00 3.28125E+00 0.00000E+00
 -1      1335 3.01200E+00 1.09375E+00 0.00000E+00
 -1      1336 3.90000E+00 4.87010E+01 0.00000E+00
 -1      1337 5.40000E+00 4.87010E+01 0.00000E+00
 -1      1338 6.90000E+00 4.87010E+01 0.00000E+00
 -1      1339 8.40000E+00 4.87010E+01 0.00000E+00
 -1      1340 6.15000E+00 4.74020E+01 0.00000E+00
 -1      1341 9.90000E+00 4.87010E+01 0.00000E+00
 -1      1342 1.14000E+01 4.87010E+01 0.00000E+00
 -1      1343 9.15000E+00 4.74020E+01 0.00000E+00
 -1      1344 1.29000E+01 4.87010E+01 0.00000E+00
 -1      1345 1.44000E+01 4.87010E+01 0.00000E+00
 -1      1346 1.21500E+01 4.74020E+01 0.00000E+00
 -1      1347 1.59000E+01 4.87010E+01 0.00000E+00
 -1      1348 1.74000E+01 4.87010E+01 0.00000E+00
 -1      1349 1.51500E+01 4.74020E+01 0.00000E+00
 -1      1350 1.89000E+01 4.87010E+01 0.00000E+00
 -1      1351 2.04000E+01 4.87010E+01 0.00000E+00
 -1      1352 1.81500E+01 4.74020E+01 0.00000E+00
 -1      1353 2.19000E+01 4.87010E+01 0.00000E+00
 -1      1354 2.34000E+01 4.87010E+01 0.00000E+00
 -1      1355 2.11500E+01 4.74020E+01 0.00000E+00
 -1      1356 2.49000E+01 4.87010E+01 0.00000E+00
 -1      1357 2.64000E+01 4.87010E+01 0.00000E+00
 -1      1358 2.41500E+01 4.74020E+01 0.00000E+00
 -1      1359 2.79000E+01 4.87010E+01 0.00000E+00
 -1      1360 2.94000E+01 4.87010E+01 0.00000E+00
 -1      1361 2.71500E+01 4.74020E+01 0.00000E+00
 -1      1362 3.09000E+01 4.87010E+01 0.00000E+00
 -1      1363 3.24000E+01 4.87010E+01 0.00000E+00
 -1      1364 3.01500E+01 4.74020E+01 0.00000E+00
 -1      1365 3.39000E+01 4.87010E+01 0.00000E+00
 -1      1366 3.54000E+01 4.87010E+01 0.00000E+00
 -1      1367 3.31500E+01 4.74020E+01 0.00000E+00
 -1      1368 3.69000E+01 4.87010E+01 0.00000E+00
 -1      1369 3.84000E+01 4.87010E+01 0.00000E+00
 -1      1370 3.61500E+01 4.74020E+01 0.00000E+00
 -1      1371 3.99000E+01 4.87010E+01 0.00000E+00
 -1      1372 4.14000E+01 4.87010E+01 0.00000E+00
 -1      1373 3.91500E+01 4.74020E+01 0.00000E+00
 -1      1374 4.29000E+01 4.87010E+01 0.00000E+00
 -1      1375 4.44000E+01 4.87010E+01 0.00000E+00
 -1      1376 4.21500E+01 4.74020E+01 0.00000E+00
 -1      1377 4.59000E+01 4.87010E+01 0.00000E+00
 -1      1378 4.74000E+01 4.87010E+01 0.00000E+00
 -1      1379 4.51500E+01 4.74020E+01 0.00000E+00
 -1      1380 4.89000E+01 4.87010E+01 0.00000E+00
 -1      1381 5.04000E+01 4.87010E+01 0.00000E+00
 -1      1382 4.81500E+01 4.74020E+01 0.00000E+00
 -1      1383 5.19000E+01 4.87010E+01 0.00000E+00
 -1      1384 5.34000E+01 4.87010E+01 0.00000E+00
 -1      1385 5.11500E+01 4.74020E+01 0.00000E+00
 -1      1386 5.49000E+01 4.87010E+01 0.00000E+00
 -1      1387 5.64000E+01 4.87010E+01 0.00000E+00
 -1      1388 5.41500E+01 4.74020E+01 0.00000E+00
 -1      1389 5.79000E+01 4.87010E+01 0.00000E+00
 -1      1390 5.94000E+01 4.87010E+01 0.00000E+00
 -1      1391 5.71500E+01 4.74020E+01 0.00000E+00
 -1      1392 6.09000E+01 4.87010E+01 0.00000E+00
 -1      1393 6.24000E+01 4.87010E+01 0.00000E+00
 -1      1394 6.01500E+01 4.74020E+01 0.00000E+00
 -1      1395 6.39000E+01 4.87010E+01 0.00000E+00
 -1      1396 6.54000E+01 4.87010E+01 0.00000E+00
 -1      1397 6.31500E+01 4.74020E+01 0.00000E+00
 -1      1398 6.69000E+01 4.87010E+01 0.00000E+00
 -1      1399 6.84000E+01 4.87010E+01 0.00000E+00
 -1      1400 6.61500E+01 4.74020E+01 0.00000E+00
 -1      1401 6.99000E+01 4.87010E+01 0.00000E+00
 -1      1402 7.14000E+01 4.87010E+01 0.00000E+00
 -1      1403 6.91500E+01 4.74020E+01 0.00000E+00
 -1      1404 7.29000E+01 4.87010E+01 0.00000E+00
 -1      1405 7.44000E+01 4.87010E+01 0.00000E+00
 -1      1406 7.21500E+01 4.74020E+01 0.00000E+00
 -1      1407 7.59000E+01 4.87010E+01 0.00000E+00
 -1      1408 7.74000E+01 4.87010E+01 0.00000E+00
 -1      1409 7.51500E+01 4.74020E+01 0.00000E+00
 -1      1410 7.89000E+01 4.87010E+01 0.00000E+00
 -1      1411 8.04000E+01 4.87010E+01 0.00000E+00
 -1      1412 7.81500E+01 4.74020E+01 0.00000E+00
 -1      1413 8.19000E+01 4.87010E+01 0.00000E+00
 -1      1414 8.34000E+01 4.87010E+01 0.00000E+00
 -1      1415 8.11500E+01 4.74020E+01 0.00000E+00
 -1      1416 8.49000E+01 4.87010E+01 0.00000E+00
 -1      1417 8.64000E+01 4.87010E+01 0.00000E+00
 -1      1418 8.41500E+01 4.74020E+01 0.00000E+00
 -1      1419 8.79000E+01 4.87010E+01 0.00000E+00
 -1      1420 8.94000E+01 4.87010E+01 0.00000E+00
 -1      1421 8.71500E+01 4.74020E+01 0.00000E+00
 -1      1422 9.09000E+01 4.87010E+01 0.00000E+00
 -1      1423 9.24000E+01 4.87010E+01 0.00000E+00
 -1      1424 9.01500E+01 4.74020E+01 0.00000E+00
 -1      1425 9.39000E+01 4.87010E+01 0.00000E+00
 -1      1426 9.54000E+01 4.87010E+01 0.00000E+00
 -1      1427 9.31500E+01 4.74020E+01 0.00000E+00
 -1      1428 9.69000E+01 4.87010E+01 0.00000E+00
 -1      1429 9.84000E+01 4.87010E+01 0.00000E+00
 -1      1430 9.61500E+01 4.74020E+01 0.00000E+00
 -1      1431 9.99000E+01 4.87010E+01 0.00000E+00
 -1      1432 1.01400E+02 4.87010E+01 0.00000E+00
 -1      1433 9.91500E+01 4.74020E+01 0.00000E+00
 -1      1434 1.02900E+02 4.87010E+01 0.00000E+00
 -1      1435 1.04400E+02 4.87010E+01 0.00000E+00
 -1      1436 1.02150E+02 4.74020E+01 0.00000E+00
 -1      1437 1.05900E+02 4.87010E+01 0.00000E+00
 -1      1438 1.07400E+02 4.87010E+01 0.00000E+00
 -1      1439 1.05150E+02 4.74020E+01 0.00000E+00
 -1      1440 1.08900E+02 4.87010E+01 0.00000E+00
 -1      1441 1.10400E+02 4.87010E+01 0.00000E+00
 -1      1442 1.08150E+02 4.74020E+01 0.00000E+00
 -1      1443 1.11900E+02 4.87010E+01 0.00000E+00
 -1      1444 1.13400E+02 4.87010E+01 0.00000E+00
 -1      1445 1.11150E+02 4.74020E+01 0.00000E+00
 -1      1446 1.14900E+02 4.87010E+01 0.00000E+00
 -1      1447 1.16400E+02 4.87010E+01 0.00000E+00
 -1      1448 1.14150E+02 4.74020E+01 0.00000E+00
 -1      1449 1.17900E+02 4.87010E+01 0.00000E+00
 -1      1450 1.19400E+02 4.87010E+01 0.00000E+00
 -1      1451 1.17150E+02 4.74020E+01 0.00000E+00
 -1      1452 1.20900E+02 4.87010E+01 0.00000E+00
 -1      1453 1.22400E+02 4.87010E+01 0.00000E+00
 -1      1454 1.20150E+02 4.74020E+01 0.00000E+00
 -1      1455 1.23900E+02 4.87010E+01 0.00000E+00
 -1      1456 1.25400E+02 4.87010E+01 0.00000E+00
 -1      1457 1.23150E+02 4.74020E+01 0.00000E+00
 -1      1458 1.26900E+02 4.87010E+01 0.00000E+00
 -1      1459 1.28400E+02 4.87010E+01 0.00000E+00
 -1      1460 1.26150E+02 4.74020E+01 0.00000E+00
 -1      1461 1.29900E+02 4.87010E+01 0.00000E+00
 -1      1462 1.31400E+02 4.87010E+01 0.00000E+00
 -1      1463 1.29150E+02 4.74020E+01 0.00000E+00
 -1      1464 1.32900E+02 4.87010E+01 0.00000E+00
 -1      1465 1.34400E+02 4.87010E+01 0.00000E+00
 -1      1466 1.32150E+02 4.74020E+01 0.00000E+00
 -1      1467 1.35900E+02 4.87010E+01 0.00000E+00
 -1      1468 1.37400E+02 4.87010E+01 0.00000E+00
 -1      1469 1.35150E+02 4.74020E+01 0.00000E+00
 -1      1470 1.38900E+02 4.87010E+01 0.00000E+00
 -1      1471 1.40400E+02 4.87010E+01 0.00000E+00
 -1      1472 1.38150E+02 4.74020E+01 0.00000E+00
 -1      1473 1.41900E+02 4.87010E+01 0.00000E+00
 -1      1474 1.43400E+02 4.87010E+01 0.00000E+00
 -1      1475 1.41150E+02 4.74020E+01 0.00000E+00
 -1      1476 1.44900E+02 4.87010E+01 0.00000E+00
 -1      1477 1.46400E+02 4.87010E+01 0.00000E+00
 -1      1478 1.44150E+02 4.74020E+01 0.00000E+00
 -1      1479 1.48575E+02 4.85500E+01 0.00000E+00
 -1      1480 1.47825E+02 4.72510E+01 0.00000E+00
 -1      1481 6.01200E+00 1.09375E+00 0.00000E+00
 -1      1482 4.51200E+00 1.09375E+00 0.00000E+00
 -1      1483 4.37400E+00 2.18750E+00 0.00000E+00
 -1      1484 9.01200E+00 1.09375E+00 0.00000E+00
 -1      1485 7.51200E+00 1.09375E+00 0.00000E+00
 -1      1486 7.37400E+00 2.18750E+00 0.00000E+00
 -1      1487 1.20120E+01 1.09375E+00 0.00000E+00
 -1      1488 1.05120E+01 1.09375E+00 0.00000E+00
 -1      1489 1.03740E+01 2.18750E+00 0.00000E+00
 -1      1490 1.50120E+01 1.09375E+00 0.00000E+00
 -1      1491 1.35120E+01 1.09375E+00 0.00000E+00
 -1      1492 1.33740E+01 2.18750E+00 0.00000E+00
 -1      1493 1.80120E+01 1.09375E+00 0.00000E+00
 -1      1494 1.65120E+01 1.09375E+00 0.00000E+00
 -1      1495 1.63740E+01 2.18750E+00 0.00000E+00
 -1      1496 2.10120E+01 1.09375E+00 0.00000E+00
 -1      1497 1.95120E+01 1.09375E+00 0.00000E+00
 -1      1498 1.93740E+01 2.18750E+00 0.00000E+00
 -1      1499 2.40120E+01 1.09375E+00 0.00000E+00
 -1      1500 2.25120E+01 1.09375E+00 0.00000E+00
 -1      1501 2.23740E+01 2.18750E+00 0.00000E+00
 -1      1502 2.70120E+01 1.09375E+00 0.00000E+00
 -1      1503 2.55120E+01 1.09375E+00 0.00000E+00
 -1      1504 2.53740E+01 2.18750E+00 0.00000E+00
 -1      1505 3.00120E+01 1.09375E+00 0.00000E+00
 -1      1506 2.85120E+01 1.09375E+00 0.00000E+00
 -1      1507 2.83740E+01 2.18750E+00 0.00000E+00
 -1      1508 3.30120E+01 1.09375E+00 0.00000E+00
 -1      1509 3.15120E+01 1.09375E+00 0.00000E+00
 -1      1510 3.13740E+01 2.18750E+00 0.00000E+00
 -1      1511 3.60120E+01 1.09375E+00 0.00000E+00
 -1      1512 3.45120E+01 1.09375E+00 0.00000E+00
 -1      1513 3.43740E+01 2.18750E+00 0.00000E+00
 -1      1514 3.90120E+01 1.09375E+00 0.00000E+00
 -1      1515 3.75120E+01 1.09375E+00 0.00000E+00
 -1      1516 3.73740E+01 2.18750E+00 0.00000E+00
 -1      1517 4.20120E+01 1.09375E+00 0.00000E+00
 -1      1518 4.05120E+01 1.09375E+00 0.00000E+00
 -1      1519 4.03740E+01 2.18750E+00 0.00000E+00
 -1      1520 4.50120E+01 1.09375E+00 0.00000E+00
 -1      1521 4.35120E+01 1.09375E+00 0.00000E+00
 -1      1522 4.33740E+01 2.18750E+00 0.00000E+00
 -1      1523 4.80120E+01 1.09375E+00 0.00000E+00
 -1      1524 4.65120E+01 1.09375E+00 0.00000E+00
 -1      1525 4.63740E+01 2.18750E+00 0.00000E+00
 -1      1526 5.10120E+01 1.09375E+00 0.00000E+00
 -1      1527 4.95120E+01 1.09375E+00 0.00000E+00
 -1      1528 4.93740E+01 2.18750E+00 0.00000E+00
 -1      1529 5.40120E+01 1.09375E+00 0.00000E+00
 -1      1530 5.25120E+01 1.09375E+00 0.00000E+00
 -1      1531 5.23740E+01 2.18750E+00 0.00000E+00
 -1      1532 5.70120E+01 1.09375E+00 0.00000E+00
 -1      1533 5.55120E+01 1.09375E+00 0.00000E+00
 -1      1534 5.53740E+01 2.18750E+00 0.00000E+00
 -1      1535 6.00120E+01 1.09375E+00 0.00000E+00
 -1      1536 5.85120E+01 1.09375E+00 0.00000E+00
 -1      1537 5.83740E+01 2.18750E+00 0.00000E+00
 -1      1538 6.30120E+01 1.09375E+00 0.00000E+00
 -1      1539 6.15120E+01 1.09375E+00 0.00000E+00
 -1      1540 6.13740E+01 2.18750E+00 0.00000E+00
 -1      1541 6.60120E+01 1.09375E+00 0.00000E+00
 -1      1542 6.45120E+01 1.09375E+00 0.00000E+00
 -1      1543 6.43740E+01 2.18750E+00 0.00000E+00
 -1      1544 6.90120E+01 1.09375E+00 0.00000E+00
 -1      1545 6.75120E+01 1.09375E+00 0.00000E+00
 -1      1546 6.73740E+01 2.18750E+00 0.00000E+00
 -1      1547 7.20120E+01 1.09375E+00 0.00000E+00
 -1      1548 7.05120E+01 1.09375E+00 0.00000E+00
 -1      1549 7.03740E+01 2.18750E+00 0.00000E+00
 -1      1550 7.50120E+01 1.09375E+00 0.00000E+00
 -1      1551 7.35120E+01 1.09375E+00 0.00000E+00
 -1      1552 7.33740E+01 2.18750E+00 0.00000E+00
 -1      1553 7.80120E+01 1.09375E+00 0.00000E+00
 -1      1554 7.65120E+01 1.09375E+00 0.00000E+00
 -1      1555 7.63740E+01 2.18750E+00 0.00000E+00
 -1      1556 8.10120E+01 1.09375E+00 0.00000E+00
 -1      1557 7.95120E+01 1.09375E+00 0.00000E+00
 -1      1558 7.93740E+01 2.18750E+00 0.00000E+00
 -1      1559 8.40120E+01 1.09375E+00 0.00000E+00
 -1      1560 8.25120E+01 1.09375E+00 0.00000E+00
 -1      1561 8.23740E+01 2.18750E+00 0.00000E+00
 -1      1562 8.70120E+01 1.09375E+00 0.00000E+00
 -1      1563 8.55120E+01 1.09375E+00 0.00000E+00
 -1      1564 8.53740E+01 2.18750E+00 0.00000E+00
 -1      1565 9.00120E+01 1.09375E+00 0.00000E+00
 -1      1566 8.85120E+01 1.09375E+00 0.00000E+00
 -1      1567 8.83740E+01 2.18750E+00 0.00000E+00
 -1      1568 9.30120E+01 1.09375E+00 0.00000E+00
 -1      1569 9.15120E+01 1.09375E+00 0.00000E+00
 -1      1570 9.13740E+01 2.18750E+00 0.00000E+00
 -1      1571 9.60120E+01 1.09375E+00 0.00000E+00
 -1      1572 9.45120E+01 1.09375E+00 0.00000E+00
 -1      1573 9.43740E+01 2.18750E+00 0.00000E+00
 -1      1574 9.90120E+01 1.09375E+00 0.00000E+00
 -1      1575 9.75120E+01 1.09375E+00 0.00000E+00
 -1      1576 9.73740E+01 2.18750E+00 0.00000E+00
 -1      1577 1.02012E+02 1.09375E+00 0.00000E+00
 -1      1578 1.00512E+02 1.09375E+00 0.00000E+00
 -1      1579 1.00374E+02 2.18750E+00 0.00000E+00
 -1      1580 1.05012E+02 1.09375E+00 0.00000E+00
 -1      1581 1.03512E+02 1.09375E+00 0.00000E+00
 -1      1582 1.03374E+02 2.18750E+00 0.00000E+00
 -1      1583 1.08012E+02 1.09375E+00 0.00000E+00
 -1      1584 1.06512E+02 1.09375E+00 0.00000E+00
 -1      1585 1.06374E+02 2.18750E+00 0.00000E+00
 -1      1586 1.11012E+02 1.09375E+00 0.00000E+00
 -1      1587 1.09512E+02 1.09375E+00 0.00000E+00
 -1      1588 1.09374E+02 2.18750E+00 0.00000E+00
 -1      1589 1.14012E+02 1.09375E+00 0.00000E+00
 -1      1590 1.12512E+02 1.09375E+00 0.00000E+00
 -1      1591 1.12374E+02 2.18750E+00 0.00000E+00
 -1      1592 1.17012E+02 1.09375E+00 0.00000E+00
 -1      1593 1.15512E+02 1.09375E+00 0.00000E+00
 -1      1594 1.15374E+02 2.18750E+00 0.00000E+00
 -1      1595 1.20012E+02 1.09375E+00 0.00000E+00
 -1      1596 1.18512E+02 1.09375E+00 0.00000E+00
 -1      1597 1.18374E+02 2.18750E+00 0.00000E+00
 -1      1598 1.23012E+02 1.09375E+00 0.00000E+00
 -1      1599 1.21512E+02 1.09375E+00 0.00000E+00
 -1      1600 1.21374E+02 2.18750E+00 0.00000E+00
 -1      1601 1.26012E+02 1.09375E+00 0.00000E+00
 -1      1602 1.24512E+02 1.09375E+00 0.00000E+00
 -1      1603 1.24374E+02 2.18750E+00 0.00000E+00
 -1      1604 1.29012E+02 1.09375E+00 0.00000E+00
 -1      1605 1.27512E+02 1.09375E+00 0.00000E+00
 -1      1606 1.27374E+02 2.18750E+00 0.00000E+00
 -1      1607 1.32012E+02 1.09375E+00 0.00000E+00
 -1      1608 1.30512E+02 1.09375E+00 0.00000E+00
 -1      1609 1.30374E+02 2.18750E+00 0.00000E+00
 -1      1610 1.35012E+02 1.09375E+00 0.00000E+00
 -1      1611 1.33512E+02 1.09375E+00 0.00000E+00
 -1      1612 1.33374E+02 2.18750E+00 0.00000E+00
 -1      1613 1.38012E+02 1.09375E+00 0.00000E+00
 -1      1614 1.36512E+02 1.09375E+00 0.00000E+00
 -1      1615 1.36374E+02 2.18750E+00 0.00000E+00
 -1      1616 1.41012E+02 1.09375E+00 0.00000E+00
 -1      1617 1.39512E+02 1.09375E+00 0.00000E+00
 -1      1618 1.39374E+02 2.18750E+00 0.00000E+00
 -1      1619 1.44012E+02 1.09375E+00 0.00000E+00
 -1      1620 1.42512E+02 1.09375E+00 0.00000E+00
 -1      1621 1.42374E+02 2.18750E+00 0.00000E+00
 -1      1622 1.47012E+02 1.09375E+00 0.00000E+00
 -1      1623 1.45512E+02 1.09375E+00 0.00000E+00
 -1      1624 1.45374E+02 2.18750E+00 0.00000E+00
 -1      1625 1.48575E+02 1.47500E+00 0.00000E+00
 -1      1626 1.48701E+02 5.16250E+00 0.00000E+00
 -1      1627 1.48701E+02 3.68750E+00 0.00000E+00
 -1      1628 1.48701E+02 8.11250E+00 0.00000E+00
 -1      1629 1.48701E+02 6.63750E+00 0.00000E+00
 -1      1630 1.47402E+02 5.90000E+00 0.00000E+00
 -1      1631 1.48701E+02 1.10625E+01 0.00000E+00
 -1      1632 1.48701E+02 9.58750E+00 0.00000E+00
 -1      1633 1.47402E+02 8.85000E+00 0.00000E+00
 -1      1634 1.48701E+02 1.40125E+01 0.00000E+00
 -1      1635 1.48701E+02 1.25375E+01 0.00000E+00
 -1      1636 1.47402E+02 1.18000E+01 0.00000E+00
 -1      1637 1.48701E+02 1.69125E+01 0.00000E+00
 -1      1638 1.48701E+02 1.54625E+01 0.00000E+00
 -1      1639 1.47402E+02 1.47250E+01 0.00000E+00
 -1      1640 1.48701E+02 1.98625E+01 0.00000E+00
 -1      1641 1.48701E+02 1.83875E+01 0.00000E+00
 -1      1642 1.47402E+02 1.76500E+01 0.00000E+00
 -1      1643 1.48701E+02 2.28125E+01 0.00000E+00
 -1      1644 1.48701E+02 2.13375E+01 0.00000E+00
 -1      1645 1.47402E+02 2.06000E+01 0.00000E+00
 -1      1646 1.48701E+02 2.57625E+01 0.00000E+00
 -1      1647 1.48701E+02 2.42875E+01 0.00000E+00
 -1      1648 1.47402E+02 2.35500E+01 0.00000E+00
 -1      1649 1.48701E+02 2.87125E+01 0.00000E+00
 -1      1650 1.48701E+02 2.72375E+01 0.00000E+00
 -1      1651 1.47402E+02 2.65000E+01 0.00000E+00
 -1      1652 1.48701E+02 3.16625E+01 0.00000E+00
 -1      1653 1.48701E+02 3.01875E+01 0.00000E+00
 -1      1654 1.47402E+02 2.94500E+01 0.00000E+00
 -1      1655 1.48701E+02 3.45625E+01 0.00000E+00
 -1      1656 1.48701E+02 3.31125E+01 0.00000E+00
 -1      1657 1.47402E+02 3.23750E+01 0.00000E+00
 -1      1658 1.48701E+02 3.75125E+01 0.00000E+00
 -1      1659 1.48701E+02 3.60375E+01 0.00000E+00
 -1      1660 1.47402E+02 3.53000E+01 0.00000E+00
 -1      1661 1.48701E+02 4.04625E+01 0.00000E+00
 -1      1662 1.48701E+02 3.89875E+01 0.00000E+00
 -1      1663 1.47402E+02 3.82500E+01 0.00000E+00
 -1      1664 1.48701E+02 4.34125E+01 0.00000E+00
 -1      1665 1.48701E+02 4.19375E+01 0.00000E+00
 -1      1666 1.47402E+02 4.12000E+01 0.00000E+00
 -1      1667 1.48263E+02 4.60692E+01 0.00000E+00
 -1      1668 1.48263E+02 4.45942E+01 0.00000E+00
 -1      1669 1.46964E+02 4.38568E+01 0.00000E+00
 -1      1670 1.46088E+02 4.62202E+01 0.00000E+00
 -1      1671 5.32127E+01 2.38762E+01 0.00000E+00
 -1      1672 5.32900E+01 2.46078E+01 0.00000E+00
 -1      1673 5.28139E+01 2.22512E+01 0.00000E+00
 -1      1674 5.30607E+01 2.29904E+01 0.00000E+00
 -1      1675 5.20174E+01 2.08089E+01 0.00000E+00
 -1      1676 5.24004E+01 2.14475E+01 0.00000E+00
 -1      1677 5.09454E+01 1.95913E+01 0.00000E+00
 -1      1678 5.14565E+01 2.01359E+01 0.00000E+00
 -1      1679 4.96816E+01 1.84165E+01 0.00000E+00
 -1      1680 5.03481E+01 1.88675E+01 0.00000E+00
 -1      1681 4.81112E+01 1.78212E+01 0.00000E+00
 -1      1682 4.88044E+01 1.80926E+01 0.00000E+00
 -1      1683 4.65573E+01 1.74730E+01 0.00000E+00
 -1      1684 4.72746E+01 1.75907E+01 0.00000E+00
 -1      1685 4.49328E+01 1.74622E+01 0.00000E+00
 -1      1686 4.56854E+01 1.74250E+01 0.00000E+00
 -1      1687 4.32731E+01 1.77752E+01 0.00000E+00
 -1      1688 4.40276E+01 1.75670E+01 0.00000E+00
 -1      1689 4.18425E+01 1.85101E+01 0.00000E+00
 -1      1690 4.24789E+01 1.81753E+01 0.00000E+00
 -1      1691 4.05742E+01 1.94477E+01 0.00000E+00
 -1      1692 4.11379E+01 1.89807E+01 0.00000E+00
 -1      1693 3.95258E+01 2.06276E+01 0.00000E+00
 -1      1694 3.99779E+01 2.00569E+01 0.00000E+00
 -1      1695 3.86464E+01 2.20252E+01 0.00000E+00
 -1      1696 3.89856E+01 2.13323E+01 0.00000E+00
 -1      1697 3.82002E+01 2.36272E+01 0.00000E+00
 -1      1698 3.83777E+01 2.28912E+01 0.00000E+00
 -1      1699 3.81071E+01 2.51921E+01 0.00000E+00
 -1      1700 3.81261E+01 2.44846E+01 0.00000E+00
 -1      1701 3.82768E+01 2.68107E+01 0.00000E+00
 -1      1702 3.81365E+01 2.60574E+01 0.00000E+00
 -1      1703 3.88332E+01 2.82819E+01 0.00000E+00
 -1      1704 3.85608E+01 2.76287E+01 0.00000E+00
 -1      1705 3.96226E+01 2.97201E+01 0.00000E+00
 -1      1706 3.91822E+01 2.90858E+01 0.00000E+00
 -1      1707 4.08032E+01 3.08366E+01 0.00000E+00
 -1      1708 4.02657E+01 3.03374E+01 0.00000E+00
 -1      1709 4.21292E+01 3.17778E+01 0.00000E+00
 -1      1710 4.14789E+01 3.13922E+01 0.00000E+00
 -1      1711 4.35753E+01 3.23221E+01 0.00000E+00
 -1      1712 4.29183E+01 3.20987E+01 0.00000E+00
 -1      1713 4.50593E+01 3.25953E+01 0.00000E+00
 -1      1714 4.43672E+01 3.25058E+01 0.00000E+00
 -1      1715 4.65509E+01 3.25724E+01 0.00000E+00
 -1      1716 4.58670E+01 3.26199E+01 0.00000E+00
 -1      1717 4.80188E+01 3.22527E+01 0.00000E+00
 -1      1718 4.73468E+01 3.24366E+01 0.00000E+00
 -1      1719 4.95140E+01 3.16741E+01 0.00000E+00
 -1      1720 4.88447E+01 3.20179E+01 0.00000E+00
 -1      1721 5.07090E+01 3.07178E+01 0.00000E+00
 -1      1722 5.01793E+01 3.11459E+01 0.00000E+00
 -1      1723 5.18372E+01 2.96026E+01 0.00000E+00
 -1      1724 5.13634E+01 3.01807E+01 0.00000E+00
 -1      1725 5.25455E+01 2.82665E+01 0.00000E+00
 -1      1726 5.22333E+01 2.88609E+01 0.00000E+00
 -1      1727 5.29361E+01 2.69567E+01 0.00000E+00
 -1      1728 5.27408E+01 2.76116E+01 0.00000E+00
 -1      1729 5.31214E+01 2.81907E+01 0.00000E+00
 -1      1730 5.32554E+01 2.54338E+01 0.00000E+00
 -1      1731 5.31911E+01 2.61018E+01 0.00000E+00
 -1      1732 5.10457E+01 1.87249E+01 0.00000E+00
 -1      1733 5.22038E+01 2.01218E+01 0.00000E+00
 -1      1734 1.48437E+02 2.56875E+00 0.00000E+00
 -1      1735 1.47138E+02 3.30625E+00 0.00000E+00
 -1      1736 5.37438E+01 2.32881E+01 0.00000E+00
 -1      1737 5.31782E+01 2.15986E+01 0.00000E+00
 -1      1738 5.38613E+01 2.49999E+01 0.00000E+00
 -1      1739 4.95713E+01 1.76773E+01 0.00000E+00
 -1      1740 4.78574E+01 1.71229E+01 0.00000E+00
 -1      1741 4.61490E+01 1.68443E+01 0.00000E+00
 -1      1742 4.43720E+01 1.69011E+01 0.00000E+00
 -1      1743 4.26727E+01 1.74061E+01 0.00000E+00
 -1      1744 4.11739E+01 1.82768E+01 0.00000E+00
 -1      1745 3.98730E+01 1.93566E+01 0.00000E+00
 -1      1746 3.87365E+01 2.06706E+01 0.00000E+00
 -1      1747 3.79276E+01 2.22413E+01 0.00000E+00
 -1      1748 3.75848E+01 2.39647E+01 0.00000E+00
 -1      1749 3.75401E+01 2.56874E+01 0.00000E+00
 -1      1750 3.78535E+01 2.73707E+01 0.00000E+00
 -1      1751 3.84865E+01 2.89925E+01 0.00000E+00
 -1      1752 3.94788E+01 3.04138E+01 0.00000E+00
 -1      1753 4.07977E+01 3.15868E+01 0.00000E+00
 -1      1754 4.22626E+01 3.24634E+01 0.00000E+00
 -1      1755 4.38436E+01 3.29681E+01 0.00000E+00
 -1      1756 4.54432E+01 3.31763E+01 0.00000E+00
 -1      1757 4.70469E+01 3.30651E+01 0.00000E+00
 -1      1758 4.86687E+01 3.26945E+01 0.00000E+00
 -1      1759 5.01599E+01 3.19315E+01 0.00000E+00
 -1      1760 5.14795E+01 3.08662E+01 0.00000E+00
 -1      1761 5.25300E+01 2.95873E+01 0.00000E+00
 -1      1762 2.87400E+00 4.77875E+01 0.00000E+00
 -1      1763 5.35717E+01 2.66809E+01 0.00000E+00
 -1      1764 3.89700E+00 4.04125E+01 0.00000E+00
 -1      1765 3.89700E+00 4.18875E+01 0.00000E+00
 -1      1766 3.89700E+00 4.33625E+01 0.00000E+00
 -1      1767 3.89700E+00 4.48375E+01 0.00000E+00
 -1      1768 5.19600E+00 4.26250E+01 0.00000E+00
 -1      1769 3.89700E+00 3.45500E+01 0.00000E+00
 -1      1770 3.89700E+00 3.60000E+01 0.00000E+00
 -1      1771 3.89700E+00 3.16000E+01 0.00000E+00
 -1      1772 3.89700E+00 3.30750E+01 0.00000E+00
 -1      1773 5.19600E+00 3.38000E+01 0.00000E+00
 -1      1774 3.89700E+00 2.86500E+01 0.00000E+00
 -1      1775 3.89700E+00 3.01250E+01 0.00000E+00
 -1      1776 5.19600E+00 3.08500E+01 0.00000E+00
 -1      1777 3.89700E+00 2.57000E+01 0.00000E+00
 -1      1778 3.89700E+00 2.71750E+01 0.00000E+00
 -1      1779 5.19600E+00 2.79000E+01 0.00000E+00
 -1      1780 3.89700E+00 2.27500E+01 0.00000E+00
 -1      1781 3.89700E+00 2.42250E+01 0.00000E+00
 -1      1782 5.19600E+00 2.49500E+01 0.00000E+00
 -1      1783 3.89700E+00 1.98000E+01 0.00000E+00
 -1      1784 3.89700E+00 2.12750E+01 0.00000E+00
 -1      1785 5.19600E+00 2.20000E+01 0.00000E+00
 -1      1786 3.89700E+00 1.69000E+01 0.00000E+00
 -1      1787 3.89700E+00 1.83500E+01 0.00000E+00
 -1      1788 5.19600E+00 1.90750E+01 0.00000E+00
 -1      1789 3.89700E+00 1.39500E+01 0.00000E+00
 -1      1790 3.89700E+00 1.54250E+01 0.00000E+00
 -1      1791 5.19600E+00 1.61500E+01 0.00000E+00
 -1      1792 3.89700E+00 1.10000E+01 0.00000E+00
 -1      1793 3.89700E+00 1.24750E+01 0.00000E+00
 -1      1794 5.19600E+00 1.32000E+01 0.00000E+00
 -1      1795 3.89700E+00 8.05000E+00 0.00000E+00
 -1      1796 3.89700E+00 9.52500E+00 0.00000E+00
 -1      1797 5.19600E+00 1.02500E+01 0.00000E+00
 -1      1798 3.89700E+00 5.10000E+00 0.00000E+00
 -1      1799 3.89700E+00 6.57500E+00 0.00000E+00
 -1      1800 5.19600E+00 7.30000E+00 0.00000E+00
 -1      1801 4.20450E+00 3.09687E+00 0.00000E+00
 -1      1802 4.06650E+00 4.19063E+00 0.00000E+00
 -1      1803 5.36550E+00 4.91563E+00 0.00000E+00
 -1      1804 5.70450E+00 3.09687E+00 0.00000E+00
 -1      1805 3.62400E+00 4.64885E+01 0.00000E+00
 -1      1806 8.70450E+00 3.09687E+00 0.00000E+00
 -1      1807 7.20450E+00 3.09687E+00 0.00000E+00
 -1      1808 7.03500E+00 4.00625E+00 0.00000E+00
 -1      1809 5.44407E+01 2.64746E+01 0.00000E+00
 -1      1810 5.41857E+01 2.73295E+01 0.00000E+00
 -1      1811 4.92300E+00 4.57510E+01 0.00000E+00
 -1      1812 8.40000E+00 4.61030E+01 0.00000E+00
 -1      1813 9.90000E+00 4.61030E+01 0.00000E+00
 -1      1814 1.14000E+01 4.61030E+01 0.00000E+00
 -1      1815 1.29000E+01 4.61030E+01 0.00000E+00
 -1      1816 1.06500E+01 4.48040E+01 0.00000E+00
 -1      1817 1.44000E+01 4.61030E+01 0.00000E+00
 -1      1818 1.59000E+01 4.61030E+01 0.00000E+00
 -1      1819 1.36500E+01 4.48040E+01 0.00000E+00
 -1      1820 1.74000E+01 4.61030E+01 0.00000E+00
 -1      1821 1.89000E+01 4.61030E+01 0.00000E+00
 -1      1822 1.66500E+01 4.48040E+01 0.00000E+00
 -1      1823 2.04000E+01 4.61030E+01 0.00000E+00
 -1      1824 2.19000E+01 4.61030E+01 0.00000E+00
 -1      1825 1.96500E+01 4.48040E+01 0.00000E+00
 -1      1826 2.34000E+01 4.61030E+01 0.00000E+00
 -1      1827 2.49000E+01 4.61030E+01 0.00000E+00
 -1      1828 2.26500E+01 4.48040E+01 0.00000E+00
 -1      1829 2.64000E+01 4.61030E+01 0.00000E+00
 -1      1830 2.79000E+01 4.61030E+01 0.00000E+00
 -1      1831 2.56500E+01 4.48040E+01 0.00000E+00
 -1      1832 2.94000E+01 4.61030E+01 0.00000E+00
 -1      1833 3.09000E+01 4.61030E+01 0.00000E+00
 -1      1834 2.86500E+01 4.48040E+01 0.00000E+00
 -1      1835 3.24000E+01 4.61030E+01 0.00000E+00
 -1      1836 3.39000E+01 4.61030E+01 0.00000E+00
 -1      1837 3.16500E+01 4.48040E+01 0.00000E+00
 -1      1838 3.54000E+01 4.61030E+01 0.00000E+00
 -1      1839 3.69000E+01 4.61030E+01 0.00000E+00
 -1      1840 3.46500E+01 4.48040E+01 0.00000E+00
 -1      1841 3.84000E+01 4.61030E+01 0.00000E+00
 -1      1842 3.99000E+01 4.61030E+01 0.00000E+00
 -1      1843 3.76500E+01 4.48040E+01 0.00000E+00
 -1      1844 4.14000E+01 4.61030E+01 0.00000E+00
 -1      1845 4.29000E+01 4.61030E+01 0.00000E+00
 -1      1846 4.06500E+01 4.48040E+01 0.00000E+00
 -1      1847 4.44000E+01 4.61030E+01 0.00000E+00
 -1      1848 4.59000E+01 4.61030E+01 0.00000E+00
 -1      1849 4.36500E+01 4.48040E+01 0.00000E+00
 -1      1850 4.74000E+01 4.61030E+01 0.00000E+00
 -1      1851 4.89000E+01 4.61030E+01 0.00000E+00
 -1      1852 4.66500E+01 4.48040E+01 0.00000E+00
 -1      1853 5.04000E+01 4.61030E+01 0.00000E+00
 -1      1854 5.19000E+01 4.61030E+01 0.00000E+00
 -1      1855 4.96500E+01 4.48040E+01 0.00000E+00
 -1      1856 5.34000E+01 4.61030E+01 0.00000E+00
 -1      1857 5.49000E+01 4.61030E+01 0.00000E+00
 -1      1858 5.26500E+01 4.48040E+01 0.00000E+00
 -1      1859 5.64000E+01 4.61030E+01 0.00000E+00
 -1      1860 5.79000E+01 4.61030E+01 0.00000E+00
 -1      1861 5.56500E+01 4.48040E+01 0.00000E+00
 -1      1862 5.94000E+01 4.61030E+01 0.00000E+00
 -1      1863 6.09000E+01 4.61030E+01 0.00000E+00
 -1      1864 5.86500E+01 4.48040E+01 0.00000E+00
 -1      1865 6.24000E+01 4.61030E+01 0.00000E+00
 -1      1866 6.39000E+01 4.61030E+01 0.00000E+00
 -1      1867 6.16500E+01 4.48040E+01 0.00000E+00
 -1      1868 6.54000E+01 4.61030E+01 0.00000E+00
 -1      1869 6.69000E+01 4.61030E+01 0.00000E+00
 -1      1870 6.46500E+01 4.48040E+01 0.00000E+00
 -1      1871 6.84000E+01 4.61030E+01 0.00000E+00
 -1      1872 6.99000E+01 4.61030E+01 0.00000E+00
 -1      1873 6.76500E+01 4.48040E+01 0.00000E+00
 -1      1874 7.14000E+01 4.61030E+01 0.00000E+00
 -1      1875 7.29000E+01 4.61030E+01 0.00000E+00
 -1      1876 7.06500E+01 4.48040E+01 0.00000E+00
 -1      1877 7.44000E+01 4.61030E+01 0.00000E+00
 -1      1878 7.59000E+01 4.61030E+01 0.00000E+00
 -1      1879 7.36500E+01 4.48040E+01 0.00000E+00
 -1      1880 7.74000E+01 4.61030E+01 0.00000E+00
 -1      1881 7.89000E+01 4.61030E+01 0.00000E+00
 -1      1882 7.66500E+01 4.48040E+01 0.00000E+00
 -1      1883 8.04000E+01 4.61030E+01 0.00000E+00
 -1      1884 8.19000E+01 4.61030E+01 0.00000E+00
 -1      1885 7.96500E+01 4.48040E+01 0.00000E+00
 -1      1886 8.34000E+01 4.61030E+01 0.00000E+00
 -1      1887 8.49000E+01 4.61030E+01 0.00000E+00
 -1      1888 8.26500E+01 4.48040E+01 0.00000E+00
 -1      1889 8.64000E+01 4.61030E+01 0.00000E+00
 -1      1890 8.79000E+01 4.61030E+01 0.00000E+00
 -1      1891 8.56500E+01 4.48040E+01 0.00000E+00
 -1      1892 8.94000E+01 4.61030E+01 0.00000E+00
 -1      1893 9.09000E+01 4.61030E+01 0.00000E+00
 -1      1894 8.86500E+01 4.48040E+01 0.00000E+00
 -1      1895 9.24000E+01 4.61030E+01 0.00000E+00
 -1      1896 9.39000E+01 4.61030E+01 0.00000E+00
 -1      1897 9.16500E+01 4.48040E+01 0.00000E+00
 -1      1898 9.54000E+01 4.61030E+01 0.00000E+00
 -1      1899 9.69000E+01 4.61030E+01 0.00000E+00
 -1      1900 9.46500E+01 4.48040E+01 0.00000E+00
 -1      1901 9.84000E+01 4.61030E+01 0.00000E+00
 -1      1902 9.99000E+01 4.61030E+01 0.00000E+00
 -1      1903 9.76500E+01 4.48040E+01 0.00000E+00
 -1      1904 1.01400E+02 4.61030E+01 0.00000E+00
 -1      1905 1.02900E+02 4.61030E+01 0.00000E+00
 -1      1906 1.00650E+02 4.48040E+01 0.00000E+00
 -1      1907 1.04400E+02 4.61030E+01 0.00000E+00
 -1      1908 1.05900E+02 4.61030E+01 0.00000E+00
 -1      1909 1.03650E+02 4.48040E+01 0.00000E+00
 -1      1910 1.07400E+02 4.61030E+01 0.00000E+00
 -1      1911 1.08900E+02 4.61030E+01 0.00000E+00
 -1      1912 1.06650E+02 4.48040E+01 0.00000E+00
 -1      1913 1.10400E+02 4.61030E+01 0.00000E+00
 -1      1914 1.11900E+02 4.61030E+01 0.00000E+00
 -1      1915 1.09650E+02 4.48040E+01 0.00000E+00
 -1      1916 1.13400E+02 4.61030E+01 0.00000E+00
 -1      1917 1.14900E+02 4.61030E+01 0.00000E+00
 -1      1918 1.12650E+02 4.48040E+01 0.00000E+00
 -1      1919 1.16400E+02 4.61030E+01 0.00000E+00
 -1      1920 1.17900E+02 4.61030E+01 0.00000E+00
 -1      1921 1.15650E+02 4.48040E+01 0.00000E+00
 -1      1922 1.19400E+02 4.61030E+01 0.00000E+00
 -1      1923 1.20900E+02 4.61030E+01 0.00000E+00
 -1      1924 1.18650E+02 4.48040E+01 0.00000E+00
 -1      1925 1.22400E+02 4.61030E+01 0.00000E+00
 -1      1926 1.23900E+02 4.61030E+01 0.00000E+00
 -1      1927 1.21650E+02 4.48040E+01 0.00000E+00
 -1      1928 1.25400E+02 4.61030E+01 0.00000E+00
 -1      1929 1.26900E+02 4.61030E+01 0.00000E+00
 -1      1930 1.24650E+02 4.48040E+01 0.00000E+00
 -1      1931 1.28400E+02 4.61030E+01 0.00000E+00
 -1      1932 1.29900E+02 4.61030E+01 0.00000E+00
 -1      1933 1.27650E+02 4.48040E+01 0.00000E+00
 -1      1934 1.31400E+02 4.61030E+01 0.00000E+00
 -1      1935 1.32900E+02 4.61030E+01 0.00000E+00
 -1      1936 1.30650E+02 4.48040E+01 0.00000E+00
 -1      1937 1.34400E+02 4.61030E+01 0.00000E+00
 -1      1938 1.35900E+02 4.61030E+01 0.00000E+00
 -1      1939 1.33650E+02 4.48040E+01 0.00000E+00
 -1      1940 1.37400E+02 4.61030E+01 0.00000E+00
 -1      1941 1.38900E+02 4.61030E+01 0.00000E+00
 -1      1942 1.36650E+02 4.48040E+01 0.00000E+00
 -1      1943 1.40400E+02 4.61030E+01 0.00000E+00
 -1      1944 1.41900E+02 4.61030E+01 0.00000E+00
 -1      1945 1.39650E+02 4.48040E+01 0.00000E+00
 -1      1946 1.43244E+02 4.61616E+01 0.00000E+00
 -1      1947 1.44744E+02 4.61616E+01 0.00000E+00
 -1      1948 1.45182E+02 4.49799E+01 0.00000E+00
 -1      1949 1.42494E+02 4.48626E+01 0.00000E+00
 -1      1950 1.17045E+01 3.09687E+00 0.00000E+00
 -1      1951 1.02045E+01 3.09687E+00 0.00000E+00
 -1      1952 1.00350E+01 4.00625E+00 0.00000E+00
 -1      1953 1.47045E+01 3.09687E+00 0.00000E+00
 -1      1954 1.32045E+01 3.09687E+00 0.00000E+00
 -1      1955 1.30350E+01 4.00625E+00 0.00000E+00
 -1      1956 1.77045E+01 3.09687E+00 0.00000E+00
 -1      1957 1.62045E+01 3.09687E+00 0.00000E+00
 -1      1958 1.60350E+01 4.00625E+00 0.00000E+00
 -1      1959 2.07045E+01 3.09687E+00 0.00000E+00
 -1      1960 1.92045E+01 3.09687E+00 0.00000E+00
 -1      1961 1.90350E+01 4.00625E+00 0.00000E+00
 -1      1962 2.37045E+01 3.09687E+00 0.00000E+00
 -1      1963 2.22045E+01 3.09687E+00 0.00000E+00
 -1      1964 2.20350E+01 4.00625E+00 0.00000E+00
 -1      1965 2.67045E+01 3.09687E+00 0.00000E+00
 -1      1966 2.52045E+01 3.09687E+00 0.00000E+00
 -1      1967 2.50350E+01 4.00625E+00 0.00000E+00
 -1      1968 2.97045E+01 3.09687E+00 0.00000E+00
 -1      1969 2.82045E+01 3.09687E+00 0.00000E+00
 -1      1970 2.80350E+01 4.00625E+00 0.00000E+00
 -1      1971 3.27045E+01 3.09687E+00 0.00000E+00
 -1      1972 3.12045E+01 3.09687E+00 0.00000E+00
 -1      1973 3.10350E+01 4.00625E+00 0.00000E+00
 -1      1974 3.57045E+01 3.09687E+00 0.00000E+00
 -1      1975 3.42045E+01 3.09687E+00 0.00000E+00
 -1      1976 3.40350E+01 4.00625E+00 0.00000E+00
 -1      1977 3.87045E+01 3.09687E+00 0.00000E+00
 -1      1978 3.72045E+01 3.09687E+00 0.00000E+00
 -1      1979 3.70350E+01 4.00625E+00 0.00000E+00
 -1      1980 4.17045E+01 3.09687E+00 0.00000E+00
 -1      1981 4.02045E+01 3.09687E+00 0.00000E+00
 -1      1982 4.00350E+01 4.00625E+00 0.00000E+00
 -1      1983 4.47045E+01 3.09687E+00 0.00000E+00
 -1      1984 4.32045E+01 3.09687E+00 0.00000E+00
 -1      1985 4.30350E+01 4.00625E+00 0.00000E+00
 -1      1986 4.77045E+01 3.09687E+00 0.00000E+00
 -1      1987 4.62045E+01 3.09687E+00 0.00000E+00
 -1      1988 4.60350E+01 4.00625E+00 0.00000E+00
 -1      1989 5.07045E+01 3.09687E+00 0.00000E+00
 -1      1990 4.92045E+01 3.09687E+00 0.00000E+00
 -1      1991 4.90350E+01 4.00625E+00 0.00000E+00
 -1      1992 5.37045E+01 3.09687E+00 0.00000E+00
 -1      1993 5.22045E+01 3.09687E+00 0.00000E+00
 -1      1994 5.20350E+01 4.00625E+00 0.00000E+00
 -1      1995 5.67045E+01 3.09687E+00 0.00000E+00
 -1      1996 5.52045E+01 3.09687E+00 0.00000E+00
 -1      1997 5.50350E+01 4.00625E+00 0.00000E+00
 -1      1998 5.97045E+01 3.09687E+00 0.00000E+00
 -1      1999 5.82045E+01 3.09687E+00 0.00000E+00
 -1      2000 5.80350E+01 4.00625E+00 0.00000E+00
 -1      2001 6.27045E+01 3.09687E+00 0.00000E+00
 -1      2002 6.12045E+01 3.09687E+00 0.00000E+00
 -1      2003 6.10350E+01 4.00625E+00 0.00000E+00
 -1      2004 6.57045E+01 3.09687E+00 0.00000E+00
 -1      2005 6.42045E+01 3.09687E+00 0.00000E+00
 -1      2006 6.40350E+01 4.00625E+00 0.00000E+00
 -1      2007 6.87045E+01 3.09687E+00 0.00000E+00
 -1      2008 6.72045E+01 3.09687E+00 0.00000E+00
 -1      2009 6.70350E+01 4.00625E+00 0.00000E+00
 -1      2010 7.17045E+01 3.09687E+00 0.00000E+00
 -1      2011 7.02045E+01 3.09687E+00 0.00000E+00
 -1      2012 7.00350E+01 4.00625E+00 0.00000E+00
 -1      2013 7.47045E+01 3.09687E+00 0.00000E+00
 -1      2014 7.32045E+01 3.09687E+00 0.00000E+00
 -1      2015 7.30350E+01 4.00625E+00 0.00000E+00
 -1      2016 7.77045E+01 3.09687E+00 0.00000E+00
 -1      2017 7.62045E+01 3.09687E+00 0.00000E+00
 -1      2018 7.60350E+01 4.00625E+00 0.00000E+00
 -1      2019 8.07045E+01 3.09687E+00 0.00000E+00
 -1      2020 7.92045E+01 3.09687E+00 0.00000E+00
 -1      2021 7.90350E+01 4.00625E+00 0.00000E+00
 -1      2022 8.37045E+01 3.09687E+00 0.00000E+00
 -1      2023 8.22045E+01 3.09687E+00 0.00000E+00
 -1      2024 8.20350E+01 4.00625E+00 0.00000E+00
 -1      2025 8.67045E+01 3.09687E+00 0.00000E+00
 -1      2026 8.52045E+01 3.09687E+00 0.00000E+00
 -1      2027 8.50350E+01 4.00625E+00 0.00000E+00
 -1      2028 8.97045E+01 3.09687E+00 0.00000E+00
 -1      2029 8.82045E+01 3.09687E+00 0.00000E+00
 -1      2030 8.80350E+01 4.00625E+00 0.00000E+00
 -1      2031 9.27045E+01 3.09687E+00 0.00000E+00
 -1      2032 9.12045E+01 3.09687E+00 0.00000E+00
 -1      2033 9.10350E+01 4.00625E+00 0.00000E+00
 -1      2034 9.57045E+01 3.09687E+00 0.00000E+00
 -1      2035 9.42045E+01 3.09687E+00 0.00000E+00
 -1      2036 9.40350E+01 4.00625E+00 0.00000E+00
 -1      2037 9.87045E+01 3.09687E+00 0.00000E+00
 -1      2038 9.72045E+01 3.09687E+00 0.00000E+00
 -1      2039 9.70350E+01 4.00625E+00 0.00000E+00
 -1      2040 1.01704E+02 3.09687E+00 0.00000E+00
 -1      2041 1.00204E+02 3.09687E+00 0.00000E+00
 -1      2042 1.00035E+02 4.00625E+00 0.00000E+00
 -1      2043 1.04704E+02 3.09687E+00 0.00000E+00
 -1      2044 1.03204E+02 3.09687E+00 0.00000E+00
 -1      2045 1.03035E+02 4.00625E+00 0.00000E+00
 -1      2046 1.07704E+02 3.09687E+00 0.00000E+00
 -1      2047 1.06204E+02 3.09687E+00 0.00000E+00
 -1      2048 1.06035E+02 4.00625E+00 0.00000E+00
 -1      2049 1.10704E+02 3.09687E+00 0.00000E+00
 -1      2050 1.09204E+02 3.09687E+00 0.00000E+00
 -1      2051 1.09035E+02 4.00625E+00 0.00000E+00
 -1      2052 1.13704E+02 3.09687E+00 0.00000E+00
 -1      2053 1.12204E+02 3.09687E+00 0.00000E+00
 -1      2054 1.12035E+02 4.00625E+00 0.00000E+00
 -1      2055 1.16704E+02 3.09687E+00 0.00000E+00
 -1      2056 1.15204E+02 3.09687E+00 0.00000E+00
 -1      2057 1.15035E+02 4.00625E+00 0.00000E+00
 -1      2058 1.19704E+02 3.09687E+00 0.00000E+00
 -1      2059 1.18204E+02 3.09687E+00 0.00000E+00
 -1      2060 1.18035E+02 4.00625E+00 0.00000E+00
 -1      2061 1.22704E+02 3.09687E+00 0.00000E+00
 -1      2062 1.21204E+02 3.09687E+00 0.00000E+00
 -1      2063 1.21035E+02 4.00625E+00 0.00000E+00
 -1      2064 1.25704E+02 3.09687E+00 0.00000E+00
 -1      2065 1.24204E+02 3.09687E+00 0.00000E+00
 -1      2066 1.24035E+02 4.00625E+00 0.00000E+00
 -1      2067 1.28704E+02 3.09687E+00 0.00000E+00
 -1      2068 1.27204E+02 3.09687E+00 0.00000E+00
 -1      2069 1.27035E+02 4.00625E+00 0.00000E+00
 -1      2070 1.31704E+02 3.09687E+00 0.00000E+00
 -1      2071 1.30204E+02 3.09687E+00 0.00000E+00
 -1      2072 1.30035E+02 4.00625E+00 0.00000E+00
 -1      2073 1.34704E+02 3.09687E+00 0.00000E+00
 -1      2074 1.33204E+02 3.09687E+00 0.00000E+00
 -1      2075 1.33035E+02 4.00625E+00 0.00000E+00
 -1      2076 1.37704E+02 3.09687E+00 0.00000E+00
 -1      2077 1.36204E+02 3.09687E+00 0.00000E+00
 -1      2078 1.36035E+02 4.00625E+00 0.00000E+00
 -1      2079 1.40704E+02 3.09687E+00 0.00000E+00
 -1      2080 1.39204E+02 3.09687E+00 0.00000E+00
 -1      2081 1.39035E+02 4.00625E+00 0.00000E+00
 -1      2082 1.43704E+02 3.09687E+00 0.00000E+00
 -1      2083 1.42204E+02 3.09687E+00 0.00000E+00
 -1      2084 1.42035E+02 4.00625E+00 0.00000E+00
 -1      2085 1.46171E+02 3.20156E+00 0.00000E+00
 -1      2086 1.44671E+02 3.20156E+00 0.00000E+00
 -1      2087 1.44502E+02 4.11094E+00 0.00000E+00
 -1      2088 1.46435E+02 4.32031E+00 0.00000E+00
 -1      2089 1.46103E+02 1.25375E+01 0.00000E+00
 -1      2090 1.46103E+02 1.10625E+01 0.00000E+00
 -1      2091 1.46103E+02 9.58750E+00 0.00000E+00
 -1      2092 1.46103E+02 8.11250E+00 0.00000E+00
 -1      2093 1.44804E+02 1.03250E+01 0.00000E+00
 -1      2094 1.46269E+02 6.95391E+00 0.00000E+00
 -1      2095 1.46269E+02 5.47891E+00 0.00000E+00
 -1      2096 1.45302E+02 5.37422E+00 0.00000E+00
 -1      2097 1.44970E+02 7.69141E+00 0.00000E+00
 -1      2098 1.46103E+02 1.54375E+01 0.00000E+00
 -1      2099 1.46103E+02 1.39875E+01 0.00000E+00
 -1      2100 1.44804E+02 1.32500E+01 0.00000E+00
 -1      2101 1.46103E+02 1.83875E+01 0.00000E+00
 -1      2102 1.46103E+02 1.69125E+01 0.00000E+00
 -1      2103 1.44804E+02 1.61750E+01 0.00000E+00
 -1      2104 1.46103E+02 2.13375E+01 0.00000E+00
 -1      2105 1.46103E+02 1.98625E+01 0.00000E+00
 -1      2106 1.44804E+02 1.91250E+01 0.00000E+00
 -1      2107 1.46103E+02 2.42875E+01 0.00000E+00
 -1      2108 1.46103E+02 2.28125E+01 0.00000E+00
 -1      2109 1.44804E+02 2.20750E+01 0.00000E+00
 -1      2110 1.46103E+02 2.72375E+01 0.00000E+00
 -1      2111 1.46103E+02 2.57625E+01 0.00000E+00
 -1      2112 1.44804E+02 2.50250E+01 0.00000E+00
 -1      2113 1.46103E+02 3.01875E+01 0.00000E+00
 -1      2114 1.46103E+02 2.87125E+01 0.00000E+00
 -1      2115 1.44804E+02 2.79750E+01 0.00000E+00
 -1      2116 1.46103E+02 3.30875E+01 0.00000E+00
 -1      2117 1.46103E+02 3.16375E+01 0.00000E+00
 -1      2118 1.44804E+02 3.09000E+01 0.00000E+00
 -1      2119 1.46103E+02 3.60375E+01 0.00000E+00
 -1      2120 1.46103E+02 3.45625E+01 0.00000E+00
 -1      2121 1.44804E+02 3.38250E+01 0.00000E+00
 -1      2122 1.46103E+02 3.89875E+01 0.00000E+00
 -1      2123 1.46103E+02 3.75125E+01 0.00000E+00
 -1      2124 1.44804E+02 3.67750E+01 0.00000E+00
 -1      2125 1.46103E+02 4.19375E+01 0.00000E+00
 -1      2126 1.46103E+02 4.04625E+01 0.00000E+00
 -1      2127 1.44804E+02 3.97250E+01 0.00000E+00
 -1      2128 5.35850E+01 2.08810E+01 0.00000E+00
 -1      2129 5.39985E+01 2.16848E+01 0.00000E+00
 -1      2130 5.45680E+01 2.46158E+01 0.00000E+00
 -1      2131 5.45334E+01 2.54418E+01 0.00000E+00
 -1      2132 5.43891E+01 2.27215E+01 0.00000E+00
 -1      2133 5.45412E+01 2.36072E+01 0.00000E+00
 -1      2134 5.24856E+01 1.93167E+01 0.00000E+00
 -1      2135 5.30465E+01 1.99898E+01 0.00000E+00
 -1      2136 5.39904E+01 2.79844E+01 0.00000E+00
 -1      2137 5.37951E+01 2.86393E+01 0.00000E+00
 -1      2138 5.48594E+01 2.77781E+01 0.00000E+00
 -1      2139 4.94152E+01 1.67502E+01 0.00000E+00
 -1      2140 5.02924E+01 1.70740E+01 0.00000E+00
 -1      2141 5.12912E+01 1.78692E+01 0.00000E+00
 -1      2142 5.18884E+01 1.85929E+01 0.00000E+00
 -1      2143 5.27311E+01 1.84609E+01 0.00000E+00
 -1      2144 3.89700E+00 3.74688E+01 0.00000E+00
 -1      2145 3.89700E+00 3.89437E+01 0.00000E+00
 -1      2146 5.19600E+00 3.96813E+01 0.00000E+00
 -1      2147 5.19600E+00 3.67438E+01 0.00000E+00
 -1      2148 4.77420E+01 1.62891E+01 0.00000E+00
 -1      2149 4.85786E+01 1.65196E+01 0.00000E+00
 -1      2150 4.92997E+01 1.59164E+01 0.00000E+00
 -1      2151 4.57487E+01 1.61732E+01 0.00000E+00
 -1      2152 4.66206E+01 1.62212E+01 0.00000E+00
 -1      2153 4.38256E+01 1.61433E+01 0.00000E+00
 -1      2154 4.47307E+01 1.60385E+01 0.00000E+00
 -1      2155 4.19275E+01 1.69151E+01 0.00000E+00
 -1      2156 4.27216E+01 1.65150E+01 0.00000E+00
 -1      2157 4.05182E+01 1.78563E+01 0.00000E+00
 -1      2158 4.12228E+01 1.73857E+01 0.00000E+00
 -1      2159 4.12718E+01 1.64946E+01 0.00000E+00
 -1      2160 3.90518E+01 1.91493E+01 0.00000E+00
 -1      2161 3.96481E+01 1.85401E+01 0.00000E+00
 -1      2162 3.79188E+01 2.06032E+01 0.00000E+00
 -1      2163 3.84589E+01 1.98985E+01 0.00000E+00
 -1      2164 3.71743E+01 2.24823E+01 0.00000E+00
 -1      2165 3.74430E+01 2.16163E+01 0.00000E+00
 -1      2166 3.68185E+01 2.43303E+01 0.00000E+00
 -1      2167 3.68927E+01 2.34730E+01 0.00000E+00
 -1      2168 3.68652E+01 2.61435E+01 0.00000E+00
 -1      2169 3.68358E+01 2.52782E+01 0.00000E+00
 -1      2170 3.71854E+01 2.80609E+01 0.00000E+00
 -1      2171 3.69014E+01 2.72429E+01 0.00000E+00
 -1      2172 3.78835E+01 2.96687E+01 0.00000E+00
 -1      2173 3.75344E+01 2.88648E+01 0.00000E+00
 -1      2174 3.65823E+01 2.87371E+01 0.00000E+00
 -1      2175 3.92065E+01 3.13412E+01 0.00000E+00
 -1      2176 3.85633E+01 3.07238E+01 0.00000E+00
 -1      2177 4.05581E+01 3.24524E+01 0.00000E+00
 -1      2178 3.98823E+01 3.18968E+01 0.00000E+00
 -1      2179 3.89668E+01 3.22067E+01 0.00000E+00
 -1      2180 4.23655E+01 3.33406E+01 0.00000E+00
 -1      2181 4.15765E+01 3.30196E+01 0.00000E+00
 -1      2182 4.40836E+01 3.37321E+01 0.00000E+00
 -1      2183 4.32917E+01 3.35484E+01 0.00000E+00
 -1      2184 4.58274E+01 3.38364E+01 0.00000E+00
 -1      2185 4.50197E+01 3.38118E+01 0.00000E+00
 -1      2186 4.75820E+01 3.38013E+01 0.00000E+00
 -1      2187 4.67861E+01 3.39370E+01 0.00000E+00
 -1      2188 4.92338E+01 3.33317E+01 0.00000E+00
 -1      2189 4.84079E+01 3.35665E+01 0.00000E+00
 -1      2190 4.81471E+01 3.44384E+01 0.00000E+00
 -1      2191 5.09737E+01 3.22734E+01 0.00000E+00
 -1      2192 5.03084E+01 3.28016E+01 0.00000E+00
 -1      2193 5.22824E+01 3.11992E+01 0.00000E+00
 -1      2194 5.16280E+01 3.17363E+01 0.00000E+00
 -1      2195 5.17766E+01 3.26064E+01 0.00000E+00
 -1      2196 5.34106E+01 2.95809E+01 0.00000E+00
 -1      2197 5.30145E+01 3.03227E+01 0.00000E+00
 -1      2198 5.09790E+01 1.60149E+01 0.00000E+00
 -1      2199 5.11351E+01 1.69420E+01 0.00000E+00
 -1      2200 5.19778E+01 1.68101E+01 0.00000E+00
 -1      2201 5.51474E+01 2.60904E+01 0.00000E+00
 -1      2202 6.42300E+00 4.57510E+01 0.00000E+00
 -1      2203 7.17300E+00 4.44520E+01 0.00000E+00
 -1      2204 5.47959E+01 2.20039E+01 0.00000E+00
 -1      2205 5.52133E+01 2.40491E+01 0.00000E+00
 -1      2206 1.45665E+02 4.31193E+01 0.00000E+00
 -1      2207 5.38668E+01 2.00760E+01 0.00000E+00
 -1      2208 5.42796E+01 2.93746E+01 0.00000E+00
 -1      2209 5.31630E+01 3.11928E+01 0.00000E+00
 -1      2210 5.00476E+01 3.36735E+01 0.00000E+00
 -1      2211 4.63625E+01 3.45725E+01 0.00000E+00
 -1      2212 4.44678E+01 3.43921E+01 0.00000E+00
 -1      2213 4.06610E+01 3.33296E+01 0.00000E+00
 -1      2214 3.76112E+01 3.05961E+01 0.00000E+00
 -1      2215 3.61971E+01 2.68338E+01 0.00000E+00
 -1      2216 3.61437E+01 2.47865E+01 0.00000E+00
 -1      2217 3.64080E+01 2.28479E+01 0.00000E+00
 -1      2218 3.71654E+01 2.08442E+01 0.00000E+00
 -1      2219 3.96970E+01 1.76490E+01 0.00000E+00
 -1      2220 4.73417E+01 1.56179E+01 0.00000E+00
 -1      2221 4.30803E+01 1.56524E+01 0.00000E+00
 -1      2222 4.52023E+01 1.54154E+01 0.00000E+00
 -1      2223 3.82341E+01 1.90819E+01 0.00000E+00
 -1      2224 4.26056E+01 3.41046E+01 0.00000E+00
 -1      2225 1.07850E+01 5.30525E+00 0.00000E+00
 -1      2226 9.28500E+00 5.30525E+00 0.00000E+00
 -1      2227 6.49500E+00 3.01125E+01 0.00000E+00
 -1      2228 6.49500E+00 3.15875E+01 0.00000E+00
 -1      2229 6.49500E+00 3.30625E+01 0.00000E+00
 -1      2230 6.49500E+00 3.45375E+01 0.00000E+00
 -1      2231 7.79400E+00 3.23250E+01 0.00000E+00
 -1      2232 6.49500E+00 2.42125E+01 0.00000E+00
 -1      2233 6.49500E+00 2.56875E+01 0.00000E+00
 -1      2234 6.49500E+00 2.12625E+01 0.00000E+00
 -1      2235 6.49500E+00 2.27375E+01 0.00000E+00
 -1      2236 7.79400E+00 2.34750E+01 0.00000E+00
 -1      2237 6.49500E+00 1.83625E+01 0.00000E+00
 -1      2238 6.49500E+00 1.98125E+01 0.00000E+00
 -1      2239 7.79400E+00 2.05500E+01 0.00000E+00
 -1      2240 6.49500E+00 1.54125E+01 0.00000E+00
 -1      2241 6.49500E+00 1.68875E+01 0.00000E+00
 -1      2242 7.79400E+00 1.76250E+01 0.00000E+00
 -1      2243 6.49500E+00 1.24625E+01 0.00000E+00
 -1      2244 6.49500E+00 1.39375E+01 0.00000E+00
 -1      2245 7.79400E+00 1.46750E+01 0.00000E+00
 -1      2246 6.49500E+00 9.51250E+00 0.00000E+00
 -1      2247 6.49500E+00 1.09875E+01 0.00000E+00
 -1      2248 7.79400E+00 1.17250E+01 0.00000E+00
 -1      2249 9.90000E+00 4.35050E+01 0.00000E+00
 -1      2250 1.14000E+01 4.35050E+01 0.00000E+00
 -1      2251 1.37850E+01 5.30525E+00 0.00000E+00
 -1      2252 1.22850E+01 5.30525E+00 0.00000E+00
 -1      2253 1.15350E+01 6.60425E+00 0.00000E+00
 -1      2254 6.55950E+00 4.28890E+01 0.00000E+00
 -1      2255 8.53650E+00 4.32410E+01 0.00000E+00
 -1      2256 9.28650E+00 4.19420E+01 0.00000E+00
 -1      2257 6.55950E+00 4.14140E+01 0.00000E+00
 -1      2258 1.29000E+01 4.35050E+01 0.00000E+00
 -1      2259 1.44000E+01 4.35050E+01 0.00000E+00
 -1      2260 1.21500E+01 4.22060E+01 0.00000E+00
 -1      2261 1.59000E+01 4.35050E+01 0.00000E+00
 -1      2262 1.74000E+01 4.35050E+01 0.00000E+00
 -1      2263 1.51500E+01 4.22060E+01 0.00000E+00
 -1      2264 1.89000E+01 4.35050E+01 0.00000E+00
 -1      2265 2.04000E+01 4.35050E+01 0.00000E+00
 -1      2266 1.81500E+01 4.22060E+01 0.00000E+00
 -1      2267 2.19000E+01 4.35050E+01 0.00000E+00
 -1      2268 2.34000E+01 4.35050E+01 0.00000E+00
 -1      2269 2.11500E+01 4.22060E+01 0.00000E+00
 -1      2270 2.49000E+01 4.35050E+01 0.00000E+00
 -1      2271 2.64000E+01 4.35050E+01 0.00000E+00
 -1      2272 2.41500E+01 4.22060E+01 0.00000E+00
 -1      2273 2.79000E+01 4.35050E+01 0.00000E+00
 -1      2274 2.94000E+01 4.35050E+01 0.00000E+00
 -1      2275 2.71500E+01 4.22060E+01 0.00000E+00
 -1      2276 3.09000E+01 4.35050E+01 0.00000E+00
 -1      2277 3.24000E+01 4.35050E+01 0.00000E+00
 -1      2278 3.01500E+01 4.22060E+01 0.00000E+00
 -1      2279 3.39000E+01 4.35050E+01 0.00000E+00
 -1      2280 3.54000E+01 4.35050E+01 0.00000E+00
 -1      2281 3.31500E+01 4.22060E+01 0.00000E+00
 -1      2282 3.69000E+01 4.35050E+01 0.00000E+00
 -1      2283 3.84000E+01 4.35050E+01 0.00000E+00
 -1      2284 3.61500E+01 4.22060E+01 0.00000E+00
 -1      2285 3.99000E+01 4.35050E+01 0.00000E+00
 -1      2286 4.14000E+01 4.35050E+01 0.00000E+00
 -1      2287 3.91500E+01 4.22060E+01 0.00000E+00
 -1      2288 4.29000E+01 4.35050E+01 0.00000E+00
 -1      2289 4.44000E+01 4.35050E+01 0.00000E+00
 -1      2290 4.21500E+01 4.22060E+01 0.00000E+00
 -1      2291 4.59000E+01 4.35050E+01 0.00000E+00
 -1      2292 4.74000E+01 4.35050E+01 0.00000E+00
 -1      2293 4.51500E+01 4.22060E+01 0.00000E+00
 -1      2294 4.89000E+01 4.35050E+01 0.00000E+00
 -1      2295 5.04000E+01 4.35050E+01 0.00000E+00
 -1      2296 4.81500E+01 4.22060E+01 0.00000E+00
 -1      2297 5.19000E+01 4.35050E+01 0.00000E+00
 -1      2298 5.34000E+01 4.35050E+01 0.00000E+00
 -1      2299 5.11500E+01 4.22060E+01 0.00000E+00
 -1      2300 5.49000E+01 4.35050E+01 0.00000E+00
 -1      2301 5.64000E+01 4.35050E+01 0.00000E+00
 -1      2302 5.41500E+01 4.22060E+01 0.00000E+00
 -1      2303 5.79000E+01 4.35050E+01 0.00000E+00
 -1      2304 5.94000E+01 4.35050E+01 0.00000E+00
 -1      2305 5.71500E+01 4.22060E+01 0.00000E+00
 -1      2306 6.09000E+01 4.35050E+01 0.00000E+00
 -1      2307 6.24000E+01 4.35050E+01 0.00000E+00
 -1      2308 6.01500E+01 4.22060E+01 0.00000E+00
 -1      2309 6.39000E+01 4.35050E+01 0.00000E+00
 -1      2310 6.54000E+01 4.35050E+01 0.00000E+00
 -1      2311 6.31500E+01 4.22060E+01 0.00000E+00
 -1      2312 6.69000E+01 4.35050E+01 0.00000E+00
 -1      2313 6.84000E+01 4.35050E+01 0.00000E+00
 -1      2314 6.61500E+01 4.22060E+01 0.00000E+00
 -1      2315 6.99000E+01 4.35050E+01 0.00000E+00
 -1      2316 7.14000E+01 4.35050E+01 0.00000E+00
 -1      2317 6.91500E+01 4.22060E+01 0.00000E+00
 -1      2318 7.29000E+01 4.35050E+01 0.00000E+00
 -1      2319 7.44000E+01 4.35050E+01 0.00000E+00
 -1      2320 7.21500E+01 4.22060E+01 0.00000E+00
 -1      2321 7.59000E+01 4.35050E+01 0.00000E+00
 -1      2322 7.74000E+01 4.35050E+01 0.00000E+00
 -1      2323 7.51500E+01 4.22060E+01 0.00000E+00
 -1      2324 7.89000E+01 4.35050E+01 0.00000E+00
 -1      2325 8.04000E+01 4.35050E+01 0.00000E+00
 -1      2326 7.81500E+01 4.22060E+01 0.00000E+00
 -1      2327 8.19000E+01 4.35050E+01 0.00000E+00
 -1      2328 8.34000E+01 4.35050E+01 0.00000E+00
 -1      2329 8.11500E+01 4.22060E+01 0.00000E+00
 -1      2330 8.49000E+01 4.35050E+01 0.00000E+00
 -1      2331 8.64000E+01 4.35050E+01 0.00000E+00
 -1      2332 8.41500E+01 4.22060E+01 0.00000E+00
 -1      2333 8.79000E+01 4.35050E+01 0.00000E+00
 -1      2334 8.94000E+01 4.35050E+01 0.00000E+00
 -1      2335 8.71500E+01 4.22060E+01 0.00000E+00
 -1      2336 9.09000E+01 4.35050E+01 0.00000E+00
 -1      2337 9.24000E+01 4.35050E+01 0.00000E+00
 -1      2338 9.01500E+01 4.22060E+01 0.00000E+00
 -1      2339 9.39000E+01 4.35050E+01 0.00000E+00
 -1      2340 9.54000E+01 4.35050E+01 0.00000E+00
 -1      2341 9.31500E+01 4.22060E+01 0.00000E+00
 -1      2342 9.69000E+01 4.35050E+01 0.00000E+00
 -1      2343 9.84000E+01 4.35050E+01 0.00000E+00
 -1      2344 9.61500E+01 4.22060E+01 0.00000E+00
 -1      2345 9.99000E+01 4.35050E+01 0.00000E+00
 -1      2346 1.01400E+02 4.35050E+01 0.00000E+00
 -1      2347 9.91500E+01 4.22060E+01 0.00000E+00
 -1      2348 1.02900E+02 4.35050E+01 0.00000E+00
 -1      2349 1.04400E+02 4.35050E+01 0.00000E+00
 -1      2350 1.02150E+02 4.22060E+01 0.00000E+00
 -1      2351 1.05900E+02 4.35050E+01 0.00000E+00
 -1      2352 1.07400E+02 4.35050E+01 0.00000E+00
 -1      2353 1.05150E+02 4.22060E+01 0.00000E+00
 -1      2354 1.08900E+02 4.35050E+01 0.00000E+00
 -1      2355 1.10400E+02 4.35050E+01 0.00000E+00
 -1      2356 1.08150E+02 4.22060E+01 0.00000E+00
 -1      2357 1.11900E+02 4.35050E+01 0.00000E+00
 -1      2358 1.13400E+02 4.35050E+01 0.00000E+00
 -1      2359 1.11150E+02 4.22060E+01 0.00000E+00
 -1      2360 1.14900E+02 4.35050E+01 0.00000E+00
 -1      2361 1.16400E+02 4.35050E+01 0.00000E+00
 -1      2362 1.14150E+02 4.22060E+01 0.00000E+00
 -1      2363 1.17900E+02 4.35050E+01 0.00000E+00
 -1      2364 1.19400E+02 4.35050E+01 0.00000E+00
 -1      2365 1.17150E+02 4.22060E+01 0.00000E+00
 -1      2366 1.20900E+02 4.35050E+01 0.00000E+00
 -1      2367 1.22400E+02 4.35050E+01 0.00000E+00
 -1      2368 1.20150E+02 4.22060E+01 0.00000E+00
 -1      2369 1.23900E+02 4.35050E+01 0.00000E+00
 -1      2370 1.25400E+02 4.35050E+01 0.00000E+00
 -1      2371 1.23150E+02 4.22060E+01 0.00000E+00
 -1      2372 1.26900E+02 4.35050E+01 0.00000E+00
 -1      2373 1.28400E+02 4.35050E+01 0.00000E+00
 -1      2374 1.26150E+02 4.22060E+01 0.00000E+00
 -1      2375 1.29900E+02 4.35050E+01 0.00000E+00
 -1      2376 1.31400E+02 4.35050E+01 0.00000E+00
 -1      2377 1.29150E+02 4.22060E+01 0.00000E+00
 -1      2378 1.32900E+02 4.35050E+01 0.00000E+00
 -1      2379 1.34400E+02 4.35050E+01 0.00000E+00
 -1      2380 1.32150E+02 4.22060E+01 0.00000E+00
 -1      2381 1.35900E+02 4.35050E+01 0.00000E+00
 -1      2382 1.37400E+02 4.35050E+01 0.00000E+00
 -1      2383 1.35150E+02 4.22060E+01 0.00000E+00
 -1      2384 1.38900E+02 4.35050E+01 0.00000E+00
 -1      2385 1.40400E+02 4.35050E+01 0.00000E+00
 -1      2386 1.38150E+02 4.22060E+01 0.00000E+00
 -1      2387 1.97850E+01 5.30525E+00 0.00000E+00
 -1      2388 1.82850E+01 5.30525E+00 0.00000E+00
 -1      2389 2.27850E+01 5.30525E+00 0.00000E+00
 -1      2390 2.12850E+01 5.30525E+00 0.00000E+00
 -1      2391 2.05350E+01 6.60425E+00 0.00000E+00
 -1      2392 2.57850E+01 5.30525E+00 0.00000E+00
 -1      2393 2.42850E+01 5.30525E+00 0.00000E+00
 -1      2394 2.35350E+01 6.60425E+00 0.00000E+00
 -1      2395 2.87850E+01 5.30525E+00 0.00000E+00
 -1      2396 2.72850E+01 5.30525E+00 0.00000E+00
 -1      2397 2.65350E+01 6.60425E+00 0.00000E+00
 -1      2398 3.17850E+01 5.30525E+00 0.00000E+00
 -1      2399 3.02850E+01 5.30525E+00 0.00000E+00
 -1      2400 2.95350E+01 6.60425E+00 0.00000E+00
 -1      2401 3.47850E+01 5.30525E+00 0.00000E+00
 -1      2402 3.32850E+01 5.30525E+00 0.00000E+00
 -1      2403 3.25350E+01 6.60425E+00 0.00000E+00
 -1      2404 3.77850E+01 5.30525E+00 0.00000E+00
 -1      2405 3.62850E+01 5.30525E+00 0.00000E+00
 -1      2406 3.55350E+01 6.60425E+00 0.00000E+00
 -1      2407 4.07850E+01 5.30525E+00 0.00000E+00
 -1      2408 3.92850E+01 5.30525E+00 0.00000E+00
 -1      2409 3.85350E+01 6.60425E+00 0.00000E+00
 -1      2410 4.37850E+01 5.30525E+00 0.00000E+00
 -1      2411 4.22850E+01 5.30525E+00 0.00000E+00
 -1      2412 4.15350E+01 6.60425E+00 0.00000E+00
 -1      2413 4.67850E+01 5.30525E+00 0.00000E+00
 -1      2414 4.52850E+01 5.30525E+00 0.00000E+00
 -1      2415 4.45350E+01 6.60425E+00 0.00000E+00
 -1      2416 4.97850E+01 5.30525E+00 0.00000E+00
 -1      2417 4.82850E+01 5.30525E+00 0.00000E+00
 -1      2418 4.75350E+01 6.60425E+00 0.00000E+00
 -1      2419 5.27850E+01 5.30525E+00 0.00000E+00
 -1      2420 5.12850E+01 5.30525E+00 0.00000E+00
 -1      2421 5.05350E+01 6.60425E+00 0.00000E+00
 -1      2422 5.57850E+01 5.30525E+00 0.00000E+00
 -1      2423 5.42850E+01 5.30525E+00 0.00000E+00
 -1      2424 5.35350E+01 6.60425E+00 0.00000E+00
 -1      2425 5.87850E+01 5.30525E+00 0.00000E+00
 -1      2426 5.72850E+01 5.30525E+00 0.00000E+00
 -1      2427 5.65350E+01 6.60425E+00 0.00000E+00
 -1      2428 6.17850E+01 5.30525E+00 0.00000E+00
 -1      2429 6.02850E+01 5.30525E+00 0.00000E+00
 -1      2430 5.95350E+01 6.60425E+00 0.00000E+00
 -1      2431 6.47850E+01 5.30525E+00 0.00000E+00
 -1      2432 6.32850E+01 5.30525E+00 0.00000E+00
 -1      2433 6.25350E+01 6.60425E+00 0.00000E+00
 -1      2434 6.77850E+01 5.30525E+00 0.00000E+00
 -1      2435 6.62850E+01 5.30525E+00 0.00000E+00
 -1      2436 6.55350E+01 6.60425E+00 0.00000E+00
 -1      2437 7.07850E+01 5.30525E+00 0.00000E+00
 -1      2438 6.92850E+01 5.30525E+00 0.00000E+00
 -1      2439 6.85350E+01 6.60425E+00 0.00000E+00
 -1      2440 7.37850E+01 5.30525E+00 0.00000E+00
 -1      2441 7.22850E+01 5.30525E+00 0.00000E+00
 -1      2442 7.15350E+01 6.60425E+00 0.00000E+00
 -1      2443 7.67850E+01 5.30525E+00 0.00000E+00
 -1      2444 7.52850E+01 5.30525E+00 0.00000E+00
 -1      2445 7.45350E+01 6.60425E+00 0.00000E+00
 -1      2446 7.97850E+01 5.30525E+00 0.00000E+00
 -1      2447 7.82850E+01 5.30525E+00 0.00000E+00
 -1      2448 7.75350E+01 6.60425E+00 0.00000E+00
 -1      2449 8.27850E+01 5.30525E+00 0.00000E+00
 -1      2450 8.12850E+01 5.30525E+00 0.00000E+00
 -1      2451 8.05350E+01 6.60425E+00 0.00000E+00
 -1      2452 8.57850E+01 5.30525E+00 0.00000E+00
 -1      2453 8.42850E+01 5.30525E+00 0.00000E+00
 -1      2454 8.35350E+01 6.60425E+00 0.00000E+00
 -1      2455 8.87850E+01 5.30525E+00 0.00000E+00
 -1      2456 8.72850E+01 5.30525E+00 0.00000E+00
 -1      2457 8.65350E+01 6.60425E+00 0.00000E+00
 -1      2458 9.17850E+01 5.30525E+00 0.00000E+00
 -1      2459 9.02850E+01 5.30525E+00 0.00000E+00
 -1      2460 8.95350E+01 6.60425E+00 0.00000E+00
 -1      2461 9.47850E+01 5.30525E+00 0.00000E+00
 -1      2462 9.32850E+01 5.30525E+00 0.00000E+00
 -1      2463 9.25350E+01 6.60425E+00 0.00000E+00
 -1      2464 9.77850E+01 5.30525E+00 0.00000E+00
 -1      2465 9.62850E+01 5.30525E+00 0.00000E+00
 -1      2466 9.55350E+01 6.60425E+00 0.00000E+00
 -1      2467 1.00785E+02 5.30525E+00 0.00000E+00
 -1      2468 9.92850E+01 5.30525E+00 0.00000E+00
 -1      2469 9.85350E+01 6.60425E+00 0.00000E+00
 -1      2470 1.03785E+02 5.30525E+00 0.00000E+00
 -1      2471 1.02285E+02 5.30525E+00 0.00000E+00
 -1      2472 1.01535E+02 6.60425E+00 0.00000E+00
 -1      2473 1.06785E+02 5.30525E+00 0.00000E+00
 -1      2474 1.05285E+02 5.30525E+00 0.00000E+00
 -1      2475 1.04535E+02 6.60425E+00 0.00000E+00
 -1      2476 1.09785E+02 5.30525E+00 0.00000E+00
 -1      2477 1.08285E+02 5.30525E+00 0.00000E+00
 -1      2478 1.07535E+02 6.60425E+00 0.00000E+00
 -1      2479 1.12785E+02 5.30525E+00 0.00000E+00
 -1      2480 1.11285E+02 5.30525E+00 0.00000E+00
 -1      2481 1.10535E+02 6.60425E+00 0.00000E+00
 -1      2482 1.15785E+02 5.30525E+00 0.00000E+00
 -1      2483 1.14285E+02 5.30525E+00 0.00000E+00
 -1      2484 1.13535E+02 6.60425E+00 0.00000E+00
 -1      2485 1.18785E+02 5.30525E+00 0.00000E+00
 -1      2486 1.17285E+02 5.30525E+00 0.00000E+00
 -1      2487 1.16535E+02 6.60425E+00 0.00000E+00
 -1      2488 1.21785E+02 5.30525E+00 0.00000E+00
 -1      2489 1.20285E+02 5.30525E+00 0.00000E+00
 -1      2490 1.19535E+02 6.60425E+00 0.00000E+00
 -1      2491 1.24785E+02 5.30525E+00 0.00000E+00
 -1      2492 1.23285E+02 5.30525E+00 0.00000E+00
 -1      2493 1.22535E+02 6.60425E+00 0.00000E+00
 -1      2494 1.27785E+02 5.30525E+00 0.00000E+00
 -1      2495 1.26285E+02 5.30525E+00 0.00000E+00
 -1      2496 1.25535E+02 6.60425E+00 0.00000E+00
 -1      2497 1.30785E+02 5.30525E+00 0.00000E+00
 -1      2498 1.29285E+02 5.30525E+00 0.00000E+00
 -1      2499 1.28535E+02 6.60425E+00 0.00000E+00
 -1      2500 1.33785E+02 5.30525E+00 0.00000E+00
 -1      2501 1.32285E+02 5.30525E+00 0.00000E+00
 -1      2502 1.31535E+02 6.60425E+00 0.00000E+00
 -1      2503 1.36785E+02 5.30525E+00 0.00000E+00
 -1      2504 1.35285E+02 5.30525E+00 0.00000E+00
 -1      2505 1.34535E+02 6.60425E+00 0.00000E+00
 -1      2506 1.39785E+02 5.30525E+00 0.00000E+00
 -1      2507 1.38285E+02 5.30525E+00 0.00000E+00
 -1      2508 1.37535E+02 6.60425E+00 0.00000E+00
 -1      2509 1.42785E+02 5.30525E+00 0.00000E+00
 -1      2510 1.41285E+02 5.30525E+00 0.00000E+00
 -1      2511 1.40535E+02 6.60425E+00 0.00000E+00
 -1      2512 1.44336E+02 5.26953E+00 0.00000E+00
 -1      2513 1.43505E+02 1.69125E+01 0.00000E+00
 -1      2514 1.43505E+02 1.54375E+01 0.00000E+00
 -1      2515 1.43505E+02 1.98625E+01 0.00000E+00
 -1      2516 1.43505E+02 1.83875E+01 0.00000E+00
 -1      2517 1.42206E+02 1.76500E+01 0.00000E+00
 -1      2518 1.43505E+02 1.10625E+01 0.00000E+00
 -1      2519 1.43505E+02 9.58750E+00 0.00000E+00
 -1      2520 1.43505E+02 1.39750E+01 0.00000E+00
 -1      2521 1.43505E+02 1.25250E+01 0.00000E+00
 -1      2522 1.42206E+02 1.17875E+01 0.00000E+00
 -1      2523 1.42206E+02 1.47125E+01 0.00000E+00
 -1      2524 1.43505E+02 2.28125E+01 0.00000E+00
 -1      2525 1.43505E+02 2.13375E+01 0.00000E+00
 -1      2526 1.42206E+02 2.06000E+01 0.00000E+00
 -1      2527 1.43505E+02 2.57625E+01 0.00000E+00
 -1      2528 1.43505E+02 2.42875E+01 0.00000E+00
 -1      2529 1.42206E+02 2.35500E+01 0.00000E+00
 -1      2530 1.43505E+02 2.87125E+01 0.00000E+00
 -1      2531 1.43505E+02 2.72375E+01 0.00000E+00
 -1      2532 1.42206E+02 2.65000E+01 0.00000E+00
 -1      2533 1.43505E+02 3.16125E+01 0.00000E+00
 -1      2534 1.43505E+02 3.01625E+01 0.00000E+00
 -1      2535 1.42206E+02 2.94250E+01 0.00000E+00
 -1      2536 1.43505E+02 3.45625E+01 0.00000E+00
 -1      2537 1.43505E+02 3.30875E+01 0.00000E+00
 -1      2538 1.42206E+02 3.23500E+01 0.00000E+00
 -1      2539 1.43505E+02 3.75125E+01 0.00000E+00
 -1      2540 1.43505E+02 3.60375E+01 0.00000E+00
 -1      2541 1.42206E+02 3.53000E+01 0.00000E+00
 -1      2542 1.43505E+02 4.04625E+01 0.00000E+00
 -1      2543 1.43505E+02 3.89875E+01 0.00000E+00
 -1      2544 1.42206E+02 3.82500E+01 0.00000E+00
 -1      2545 5.59734E+01 2.35243E+01 0.00000E+00
 -1      2546 5.60001E+01 2.45328E+01 0.00000E+00
 -1      2547 5.43315E+01 1.91869E+01 0.00000E+00
 -1      2548 5.48700E+01 2.00781E+01 0.00000E+00
 -1      2549 1.67850E+01 5.30525E+00 0.00000E+00
 -1      2550 1.52850E+01 5.30525E+00 0.00000E+00
 -1      2551 1.75350E+01 6.60425E+00 0.00000E+00
 -1      2552 5.53247E+01 2.12127E+01 0.00000E+00
 -1      2553 5.57153E+01 2.22494E+01 0.00000E+00
 -1      2554 1.44321E+02 4.30606E+01 0.00000E+00
 -1      2555 5.51494E+01 2.91805E+01 0.00000E+00
 -1      2556 5.47649E+01 3.01221E+01 0.00000E+00
 -1      2557 4.67567E+01 3.54341E+01 0.00000E+00
 -1      2558 4.57980E+01 3.53334E+01 0.00000E+00
 -1      2559 3.53581E+01 2.74117E+01 0.00000E+00
 -1      2560 3.53219E+01 2.63123E+01 0.00000E+00
 -1      2561 4.68252E+01 1.48535E+01 0.00000E+00
 -1      2562 4.79466E+01 1.49213E+01 0.00000E+00
 -1      2563 5.59075E+01 2.55656E+01 0.00000E+00
 -1      2564 5.58148E+01 2.65984E+01 0.00000E+00
 -1      2565 5.66676E+01 2.50408E+01 0.00000E+00
 -1      2566 5.55400E+01 2.78707E+01 0.00000E+00
 -1      2567 5.53447E+01 2.85256E+01 0.00000E+00
 -1      2568 5.58300E+01 2.92731E+01 0.00000E+00
 -1      2569 6.49500E+00 2.71625E+01 0.00000E+00
 -1      2570 6.49500E+00 2.86375E+01 0.00000E+00
 -1      2571 7.79400E+00 2.93750E+01 0.00000E+00
 -1      2572 7.79400E+00 2.64250E+01 0.00000E+00
 -1      2573 5.29970E+01 1.76333E+01 0.00000E+00
 -1      2574 5.35942E+01 1.83570E+01 0.00000E+00
 -1      2575 3.73309E+01 1.89763E+01 0.00000E+00
 -1      2576 3.79237E+01 1.82272E+01 0.00000E+00
 -1      2577 4.47892E+01 1.45841E+01 0.00000E+00
 -1      2578 4.58072E+01 1.47188E+01 0.00000E+00
 -1      2579 4.64121E+01 1.40222E+01 0.00000E+00
 -1      2580 4.04664E+01 1.60516E+01 0.00000E+00
 -1      2581 4.11711E+01 1.55810E+01 0.00000E+00
 -1      2582 4.28901E+01 3.50044E+01 0.00000E+00
 -1      2583 4.19640E+01 3.47966E+01 0.00000E+00
 -1      2584 3.87262E+01 1.74191E+01 0.00000E+00
 -1      2585 3.95963E+01 1.67354E+01 0.00000E+00
 -1      2586 3.94956E+01 1.58218E+01 0.00000E+00
 -1      2587 3.62651E+01 2.10396E+01 0.00000E+00
 -1      2588 3.67409E+01 2.00265E+01 0.00000E+00
 -1      2589 3.54827E+01 2.31202E+01 0.00000E+00
 -1      2590 3.57643E+01 2.21295E+01 0.00000E+00
 -1      2591 3.53047E+01 2.53644E+01 0.00000E+00
 -1      2592 3.52874E+01 2.44165E+01 0.00000E+00
 -1      2593 3.44657E+01 2.59423E+01 0.00000E+00
 -1      2594 3.60087E+01 2.94639E+01 0.00000E+00
 -1      2595 3.56596E+01 2.86600E+01 0.00000E+00
 -1      2596 3.72303E+01 3.15881E+01 0.00000E+00
 -1      2597 3.65504E+01 3.05330E+01 0.00000E+00
 -1      2598 3.87069E+01 3.32117E+01 0.00000E+00
 -1      2599 3.80311E+01 3.26561E+01 0.00000E+00
 -1      2600 4.07529E+01 3.43624E+01 0.00000E+00
 -1      2601 3.97345E+01 3.37951E+01 0.00000E+00
 -1      2602 4.48620E+01 3.52537E+01 0.00000E+00
 -1      2603 4.39259E+01 3.51739E+01 0.00000E+00
 -1      2604 4.52561E+01 3.61152E+01 0.00000E+00
 -1      2605 4.87716E+01 3.50653E+01 0.00000E+00
 -1      2606 4.79457E+01 3.53001E+01 0.00000E+00
 -1      2607 5.09642E+01 3.41776E+01 0.00000E+00
 -1      2608 4.98896E+01 3.47077E+01 0.00000E+00
 -1      2609 5.26478E+01 3.30007E+01 0.00000E+00
 -1      2610 5.19934E+01 3.35378E+01 0.00000E+00
 -1      2611 5.41229E+01 3.12506E+01 0.00000E+00
 -1      2612 5.33908E+01 3.21271E+01 0.00000E+00
 -1      2613 8.07525E+00 5.11044E+00 0.00000E+00
 -1      2614 6.57525E+00 5.11044E+00 0.00000E+00
 -1      2615 6.40575E+00 6.01981E+00 0.00000E+00
 -1      2616 8.82525E+00 6.40944E+00 0.00000E+00
 -1      2617 4.22681E+01 1.50652E+01 0.00000E+00
 -1      2618 4.33720E+01 1.46935E+01 0.00000E+00
 -1      2619 4.91092E+01 1.49744E+01 0.00000E+00
 -1      2620 4.99458E+01 1.52049E+01 0.00000E+00
 -1      2621 5.45975E+01 1.83592E+01 0.00000E+00
 -1      2622 7.79400E+00 3.52687E+01 0.00000E+00
 -1      2623 6.49500E+00 3.60062E+01 0.00000E+00
 -1      2624 6.49500E+00 3.74750E+01 0.00000E+00
 -1      2625 5.65021E+01 2.27331E+01 0.00000E+00
 -1      2626 6.40575E+00 7.49481E+00 0.00000E+00
 -1      2627 4.14628E+01 1.46222E+01 0.00000E+00
 -1      2628 6.52725E+00 3.87101E+01 0.00000E+00
 -1      2629 6.52725E+00 4.01789E+01 0.00000E+00
 -1      2630 7.89075E+00 4.04429E+01 0.00000E+00
 -1      2631 7.82625E+00 3.79726E+01 0.00000E+00
 -1      2632 5.49927E+01 3.10564E+01 0.00000E+00
 -1      2633 5.36077E+01 3.30585E+01 0.00000E+00
 -1      2634 5.18355E+01 3.45719E+01 0.00000E+00
 -1      2635 1.43586E+02 6.56853E+00 0.00000E+00
 -1      2636 1.43419E+02 7.72713E+00 0.00000E+00
 -1      2637 7.70475E+00 8.23231E+00 0.00000E+00
 -1      2638 5.57894E+01 2.03236E+01 0.00000E+00
 -1      2639 4.10375E+01 3.52622E+01 0.00000E+00
 -1      2640 3.87988E+01 3.42445E+01 0.00000E+00
 -1      2641 1.45350E+01 6.60425E+00 0.00000E+00
 -1      2642 1.42758E+02 4.35929E+01 0.00000E+00
 -1      2643 1.43241E+02 4.17323E+01 0.00000E+00
 -1      2644 1.41942E+02 4.09948E+01 0.00000E+00
 -1      2645 1.41414E+02 4.35342E+01 0.00000E+00
 -1      2646 4.73812E+01 3.60610E+01 0.00000E+00
 -1      2647 3.69703E+01 3.25930E+01 0.00000E+00
 -1      2648 5.07885E+01 1.50729E+01 0.00000E+00
 -1      2649 5.16312E+01 1.49409E+01 0.00000E+00
 -1      2650 5.05980E+01 1.41309E+01 0.00000E+00
 -1      2651 3.46437E+01 2.36981E+01 0.00000E+00
 -1      2652 3.47844E+01 2.81385E+01 0.00000E+00
 -1      2653 3.78230E+01 1.73136E+01 0.00000E+00
 -1      2654 4.32843E+01 3.58659E+01 0.00000E+00
 -1      2655 4.39770E+01 1.39969E+01 0.00000E+00
 -1      2656 4.45819E+01 1.33003E+01 0.00000E+00
 -1      2657 4.31647E+01 1.34097E+01 0.00000E+00
 -1      2658 4.85927E+01 1.42099E+01 0.00000E+00
 -1      2659 5.70602E+01 2.68210E+01 0.00000E+00
 -1      2660 5.63001E+01 2.73459E+01 0.00000E+00
 -1      2661 5.67854E+01 2.80934E+01 0.00000E+00
 -1      2662 3.64305E+01 1.91718E+01 0.00000E+00
 -1      2663 1.40664E+02 4.22352E+01 0.00000E+00
 -1      2664 5.28409E+01 1.67062E+01 0.00000E+00
 -1      2665 5.37040E+01 1.66022E+01 0.00000E+00
 -1      2666 5.26848E+01 1.57790E+01 0.00000E+00
 -1      2667 3.53397E+01 2.13119E+01 0.00000E+00
 -1      2668 3.56277E+01 3.04559E+01 0.00000E+00
 -1      2669 4.96883E+01 3.55693E+01 0.00000E+00
 -1      2670 1.42120E+02 8.46463E+00 0.00000E+00
 -1      2671 9.09300E+00 1.98250E+01 0.00000E+00
 -1      2672 9.09300E+00 2.12750E+01 0.00000E+00
 -1      2673 9.09300E+00 2.27500E+01 0.00000E+00
 -1      2674 9.09300E+00 2.42250E+01 0.00000E+00
 -1      2675 1.03920E+01 2.20250E+01 0.00000E+00
 -1      2676 9.09300E+00 1.39375E+01 0.00000E+00
 -1      2677 9.09300E+00 1.54125E+01 0.00000E+00
 -1      2678 9.09300E+00 1.09875E+01 0.00000E+00
 -1      2679 9.09300E+00 1.24625E+01 0.00000E+00
 -1      2680 1.03920E+01 1.32000E+01 0.00000E+00
 -1      2681 5.62803E+01 1.94685E+01 0.00000E+00
 -1      2682 5.67350E+01 2.06031E+01 0.00000E+00
 -1      2683 1.14000E+01 4.09070E+01 0.00000E+00
 -1      2684 1.29000E+01 4.09070E+01 0.00000E+00
 -1      2685 1.22850E+01 7.90325E+00 0.00000E+00
 -1      2686 1.07850E+01 7.90325E+00 0.00000E+00
 -1      2687 8.91450E+00 8.42712E+00 0.00000E+00
 -1      2688 2.72850E+01 7.90325E+00 0.00000E+00
 -1      2689 2.57850E+01 7.90325E+00 0.00000E+00
 -1      2690 5.46963E+01 3.32315E+01 0.00000E+00
 -1      2691 5.39533E+01 3.41052E+01 0.00000E+00
 -1      2692 1.44000E+01 4.09070E+01 0.00000E+00
 -1      2693 1.59000E+01 4.09070E+01 0.00000E+00
 -1      2694 1.36500E+01 3.96080E+01 0.00000E+00
 -1      2695 1.74000E+01 4.09070E+01 0.00000E+00
 -1      2696 1.89000E+01 4.09070E+01 0.00000E+00
 -1      2697 1.66500E+01 3.96080E+01 0.00000E+00
 -1      2698 2.04000E+01 4.09070E+01 0.00000E+00
 -1      2699 2.19000E+01 4.09070E+01 0.00000E+00
 -1      2700 1.96500E+01 3.96080E+01 0.00000E+00
 -1      2701 2.34000E+01 4.09070E+01 0.00000E+00
 -1      2702 2.49000E+01 4.09070E+01 0.00000E+00
 -1      2703 2.26500E+01 3.96080E+01 0.00000E+00
 -1      2704 2.64000E+01 4.09070E+01 0.00000E+00
 -1      2705 2.79000E+01 4.09070E+01 0.00000E+00
 -1      2706 2.56500E+01 3.96080E+01 0.00000E+00
 -1      2707 2.94000E+01 4.09070E+01 0.00000E+00
 -1      2708 3.09000E+01 4.09070E+01 0.00000E+00
 -1      2709 2.86500E+01 3.96080E+01 0.00000E+00
 -1      2710 3.24000E+01 4.09070E+01 0.00000E+00
 -1      2711 3.39000E+01 4.09070E+01 0.00000E+00
 -1      2712 3.16500E+01 3.96080E+01 0.00000E+00
 -1      2713 3.54000E+01 4.09070E+01 0.00000E+00
 -1      2714 3.69000E+01 4.09070E+01 0.00000E+00
 -1      2715 3.46500E+01 3.96080E+01 0.00000E+00
 -1      2716 3.84000E+01 4.09070E+01 0.00000E+00
 -1      2717 3.99000E+01 4.09070E+01 0.00000E+00
 -1      2718 3.76500E+01 3.96080E+01 0.00000E+00
 -1      2719 4.14000E+01 4.09070E+01 0.00000E+00
 -1      2720 4.29000E+01 4.09070E+01 0.00000E+00
 -1      2721 4.06500E+01 3.96080E+01 0.00000E+00
 -1      2722 4.44000E+01 4.09070E+01 0.00000E+00
 -1      2723 4.59000E+01 4.09070E+01 0.00000E+00
 -1      2724 4.36500E+01 3.96080E+01 0.00000E+00
 -1      2725 4.74000E+01 4.09070E+01 0.00000E+00
 -1      2726 4.89000E+01 4.09070E+01 0.00000E+00
 -1      2727 4.66500E+01 3.96080E+01 0.00000E+00
 -1      2728 5.04000E+01 4.09070E+01 0.00000E+00
 -1      2729 5.19000E+01 4.09070E+01 0.00000E+00
 -1      2730 4.96500E+01 3.96080E+01 0.00000E+00
 -1      2731 5.34000E+01 4.09070E+01 0.00000E+00
 -1      2732 5.49000E+01 4.09070E+01 0.00000E+00
 -1      2733 5.26500E+01 3.96080E+01 0.00000E+00
 -1      2734 5.64000E+01 4.09070E+01 0.00000E+00
 -1      2735 5.79000E+01 4.09070E+01 0.00000E+00
 -1      2736 5.56500E+01 3.96080E+01 0.00000E+00
 -1      2737 5.94000E+01 4.09070E+01 0.00000E+00
 -1      2738 6.09000E+01 4.09070E+01 0.00000E+00
 -1      2739 5.86500E+01 3.96080E+01 0.00000E+00
 -1      2740 6.24000E+01 4.09070E+01 0.00000E+00
 -1      2741 6.39000E+01 4.09070E+01 0.00000E+00
 -1      2742 6.16500E+01 3.96080E+01 0.00000E+00
 -1      2743 6.54000E+01 4.09070E+01 0.00000E+00
 -1      2744 6.69000E+01 4.09070E+01 0.00000E+00
 -1      2745 6.46500E+01 3.96080E+01 0.00000E+00
 -1      2746 6.84000E+01 4.09070E+01 0.00000E+00
 -1      2747 6.99000E+01 4.09070E+01 0.00000E+00
 -1      2748 6.76500E+01 3.96080E+01 0.00000E+00
 -1      2749 7.14000E+01 4.09070E+01 0.00000E+00
 -1      2750 7.29000E+01 4.09070E+01 0.00000E+00
 -1      2751 7.06500E+01 3.96080E+01 0.00000E+00
 -1      2752 7.44000E+01 4.09070E+01 0.00000E+00
 -1      2753 7.59000E+01 4.09070E+01 0.00000E+00
 -1      2754 7.36500E+01 3.96080E+01 0.00000E+00
 -1      2755 7.74000E+01 4.09070E+01 0.00000E+00
 -1      2756 7.89000E+01 4.09070E+01 0.00000E+00
 -1      2757 7.66500E+01 3.96080E+01 0.00000E+00
 -1      2758 8.04000E+01 4.09070E+01 0.00000E+00
 -1      2759 8.19000E+01 4.09070E+01 0.00000E+00
 -1      2760 7.96500E+01 3.96080E+01 0.00000E+00
 -1      2761 8.34000E+01 4.09070E+01 0.00000E+00
 -1      2762 8.49000E+01 4.09070E+01 0.00000E+00
 -1      2763 8.26500E+01 3.96080E+01 0.00000E+00
 -1      2764 8.64000E+01 4.09070E+01 0.00000E+00
 -1      2765 8.79000E+01 4.09070E+01 0.00000E+00
 -1      2766 8.56500E+01 3.96080E+01 0.00000E+00
 -1      2767 8.94000E+01 4.09070E+01 0.00000E+00
 -1      2768 9.09000E+01 4.09070E+01 0.00000E+00
 -1      2769 8.86500E+01 3.96080E+01 0.00000E+00
 -1      2770 9.24000E+01 4.09070E+01 0.00000E+00
 -1      2771 9.39000E+01 4.09070E+01 0.00000E+00
 -1      2772 9.16500E+01 3.96080E+01 0.00000E+00
 -1      2773 9.54000E+01 4.09070E+01 0.00000E+00
 -1      2774 9.69000E+01 4.09070E+01 0.00000E+00
 -1      2775 9.46500E+01 3.96080E+01 0.00000E+00
 -1      2776 9.84000E+01 4.09070E+01 0.00000E+00
 -1      2777 9.99000E+01 4.09070E+01 0.00000E+00
 -1      2778 9.76500E+01 3.96080E+01 0.00000E+00
 -1      2779 1.01400E+02 4.09070E+01 0.00000E+00
 -1      2780 1.02900E+02 4.09070E+01 0.00000E+00
 -1      2781 1.00650E+02 3.96080E+01 0.00000E+00
 -1      2782 1.04400E+02 4.09070E+01 0.00000E+00
 -1      2783 1.05900E+02 4.09070E+01 0.00000E+00
 -1      2784 1.03650E+02 3.96080E+01 0.00000E+00
 -1      2785 1.07400E+02 4.09070E+01 0.00000E+00
 -1      2786 1.08900E+02 4.09070E+01 0.00000E+00
 -1      2787 1.06650E+02 3.96080E+01 0.00000E+00
 -1      2788 1.10400E+02 4.09070E+01 0.00000E+00
 -1      2789 1.11900E+02 4.09070E+01 0.00000E+00
 -1      2790 1.09650E+02 3.96080E+01 0.00000E+00
 -1      2791 1.13400E+02 4.09070E+01 0.00000E+00
 -1      2792 1.14900E+02 4.09070E+01 0.00000E+00
 -1      2793 1.12650E+02 3.96080E+01 0.00000E+00
 -1      2794 1.16400E+02 4.09070E+01 0.00000E+00
 -1      2795 1.17900E+02 4.09070E+01 0.00000E+00
 -1      2796 1.15650E+02 3.96080E+01 0.00000E+00
 -1      2797 1.19400E+02 4.09070E+01 0.00000E+00
 -1      2798 1.20900E+02 4.09070E+01 0.00000E+00
 -1      2799 1.18650E+02 3.96080E+01 0.00000E+00
 -1      2800 1.22400E+02 4.09070E+01 0.00000E+00
 -1      2801 1.23900E+02 4.09070E+01 0.00000E+00
 -1      2802 1.21650E+02 3.96080E+01 0.00000E+00
 -1      2803 1.25400E+02 4.09070E+01 0.00000E+00
 -1      2804 1.26900E+02 4.09070E+01 0.00000E+00
 -1      2805 1.24650E+02 3.96080E+01 0.00000E+00
 -1      2806 1.28400E+02 4.09070E+01 0.00000E+00
 -1      2807 1.29900E+02 4.09070E+01 0.00000E+00
 -1      2808 1.27650E+02 3.96080E+01 0.00000E+00
 -1      2809 1.31400E+02 4.09070E+01 0.00000E+00
 -1      2810 1.32900E+02 4.09070E+01 0.00000E+00
 -1      2811 1.30650E+02 3.96080E+01 0.00000E+00
 -1      2812 1.34400E+02 4.09070E+01 0.00000E+00
 -1      2813 1.35900E+02 4.09070E+01 0.00000E+00
 -1      2814 1.33650E+02 3.96080E+01 0.00000E+00
 -1      2815 1.37400E+02 4.09070E+01 0.00000E+00
 -1      2816 1.38900E+02 4.09070E+01 0.00000E+00
 -1      2817 1.36650E+02 3.96080E+01 0.00000E+00
 -1      2818 2.42850E+01 7.90325E+00 0.00000E+00
 -1      2819 2.27850E+01 7.90325E+00 0.00000E+00
 -1      2820 2.50350E+01 9.20225E+00 0.00000E+00
 -1      2821 4.80718E+01 3.68461E+01 0.00000E+00
 -1      2822 4.68827E+01 3.69801E+01 0.00000E+00
 -1      2823 2.12850E+01 7.90325E+00 0.00000E+00
 -1      2824 1.97850E+01 7.90325E+00 0.00000E+00
 -1      2825 2.20350E+01 9.20225E+00 0.00000E+00
 -1      2826 3.02850E+01 7.90325E+00 0.00000E+00
 -1      2827 2.87850E+01 7.90325E+00 0.00000E+00
 -1      2828 2.80350E+01 9.20225E+00 0.00000E+00
 -1      2829 3.32850E+01 7.90325E+00 0.00000E+00
 -1      2830 3.17850E+01 7.90325E+00 0.00000E+00
 -1      2831 3.10350E+01 9.20225E+00 0.00000E+00
 -1      2832 3.62850E+01 7.90325E+00 0.00000E+00
 -1      2833 3.47850E+01 7.90325E+00 0.00000E+00
 -1      2834 3.40350E+01 9.20225E+00 0.00000E+00
 -1      2835 3.92850E+01 7.90325E+00 0.00000E+00
 -1      2836 3.77850E+01 7.90325E+00 0.00000E+00
 -1      2837 3.70350E+01 9.20225E+00 0.00000E+00
 -1      2838 4.22850E+01 7.90325E+00 0.00000E+00
 -1      2839 4.07850E+01 7.90325E+00 0.00000E+00
 -1      2840 4.00350E+01 9.20225E+00 0.00000E+00
 -1      2841 4.52850E+01 7.90325E+00 0.00000E+00
 -1      2842 4.37850E+01 7.90325E+00 0.00000E+00
 -1      2843 4.30350E+01 9.20225E+00 0.00000E+00
 -1      2844 4.82850E+01 7.90325E+00 0.00000E+00
 -1      2845 4.67850E+01 7.90325E+00 0.00000E+00
 -1      2846 4.60350E+01 9.20225E+00 0.00000E+00
 -1      2847 5.12850E+01 7.90325E+00 0.00000E+00
 -1      2848 4.97850E+01 7.90325E+00 0.00000E+00
 -1      2849 4.90350E+01 9.20225E+00 0.00000E+00
 -1      2850 5.42850E+01 7.90325E+00 0.00000E+00
 -1      2851 5.27850E+01 7.90325E+00 0.00000E+00
 -1      2852 5.20350E+01 9.20225E+00 0.00000E+00
 -1      2853 5.72850E+01 7.90325E+00 0.00000E+00
 -1      2854 5.57850E+01 7.90325E+00 0.00000E+00
 -1      2855 5.50350E+01 9.20225E+00 0.00000E+00
 -1      2856 6.02850E+01 7.90325E+00 0.00000E+00
 -1      2857 5.87850E+01 7.90325E+00 0.00000E+00
 -1      2858 5.80350E+01 9.20225E+00 0.00000E+00
 -1      2859 6.32850E+01 7.90325E+00 0.00000E+00
 -1      2860 6.17850E+01 7.90325E+00 0.00000E+00
 -1      2861 6.10350E+01 9.20225E+00 0.00000E+00
 -1      2862 6.62850E+01 7.90325E+00 0.00000E+00
 -1      2863 6.47850E+01 7.90325E+00 0.00000E+00
 -1      2864 6.40350E+01 9.20225E+00 0.00000E+00
 -1      2865 6.92850E+01 7.90325E+00 0.00000E+00
 -1      2866 6.77850E+01 7.90325E+00 0.00000E+00
 -1      2867 6.70350E+01 9.20225E+00 0.00000E+00
 -1      2868 7.22850E+01 7.90325E+00 0.00000E+00
 -1      2869 7.07850E+01 7.90325E+00 0.00000E+00
 -1      2870 7.00350E+01 9.20225E+00 0.00000E+00
 -1      2871 7.52850E+01 7.90325E+00 0.00000E+00
 -1      2872 7.37850E+01 7.90325E+00 0.00000E+00
 -1      2873 7.30350E+01 9.20225E+00 0.00000E+00
 -1      2874 7.82850E+01 7.90325E+00 0.00000E+00
 -1      2875 7.67850E+01 7.90325E+00 0.00000E+00
 -1      2876 7.60350E+01 9.20225E+00 0.00000E+00
 -1      2877 8.12850E+01 7.90325E+00 0.00000E+00
 -1      2878 7.97850E+01 7.90325E+00 0.00000E+00
 -1      2879 7.90350E+01 9.20225E+00 0.00000E+00
 -1      2880 8.42850E+01 7.90325E+00 0.00000E+00
 -1      2881 8.27850E+01 7.90325E+00 0.00000E+00
 -1      2882 8.20350E+01 9.20225E+00 0.00000E+00
 -1      2883 8.72850E+01 7.90325E+00 0.00000E+00
 -1      2884 8.57850E+01 7.90325E+00 0.00000E+00
 -1      2885 8.50350E+01 9.20225E+00 0.00000E+00
 -1      2886 9.02850E+01 7.90325E+00 0.00000E+00
 -1      2887 8.87850E+01 7.90325E+00 0.00000E+00
 -1      2888 8.80350E+01 9.20225E+00 0.00000E+00
 -1      2889 9.32850E+01 7.90325E+00 0.00000E+00
 -1      2890 9.17850E+01 7.90325E+00 0.00000E+00
 -1      2891 9.10350E+01 9.20225E+00 0.00000E+00
 -1      2892 9.62850E+01 7.90325E+00 0.00000E+00
 -1      2893 9.47850E+01 7.90325E+00 0.00000E+00
 -1      2894 9.40350E+01 9.20225E+00 0.00000E+00
 -1      2895 9.92850E+01 7.90325E+00 0.00000E+00
 -1      2896 9.77850E+01 7.90325E+00 0.00000E+00
 -1      2897 9.70350E+01 9.20225E+00 0.00000E+00
 -1      2898 1.02285E+02 7.90325E+00 0.00000E+00
 -1      2899 1.00785E+02 7.90325E+00 0.00000E+00
 -1      2900 1.00035E+02 9.20225E+00 0.00000E+00
 -1      2901 1.05285E+02 7.90325E+00 0.00000E+00
 -1      2902 1.03785E+02 7.90325E+00 0.00000E+00
 -1      2903 1.03035E+02 9.20225E+00 0.00000E+00
 -1      2904 1.08285E+02 7.90325E+00 0.00000E+00
 -1      2905 1.06785E+02 7.90325E+00 0.00000E+00
 -1      2906 1.06035E+02 9.20225E+00 0.00000E+00
 -1      2907 1.11285E+02 7.90325E+00 0.00000E+00
 -1      2908 1.09785E+02 7.90325E+00 0.00000E+00
 -1      2909 1.09035E+02 9.20225E+00 0.00000E+00
 -1      2910 1.14285E+02 7.90325E+00 0.00000E+00
 -1      2911 1.12785E+02 7.90325E+00 0.00000E+00
 -1      2912 1.12035E+02 9.20225E+00 0.00000E+00
 -1      2913 1.17285E+02 7.90325E+00 0.00000E+00
 -1      2914 1.15785E+02 7.90325E+00 0.00000E+00
 -1      2915 1.15035E+02 9.20225E+00 0.00000E+00
 -1      2916 1.20285E+02 7.90325E+00 0.00000E+00
 -1      2917 1.18785E+02 7.90325E+00 0.00000E+00
 -1      2918 1.18035E+02 9.20225E+00 0.00000E+00
 -1      2919 1.23285E+02 7.90325E+00 0.00000E+00
 -1      2920 1.21785E+02 7.90325E+00 0.00000E+00
 -1      2921 1.21035E+02 9.20225E+00 0.00000E+00
 -1      2922 1.26285E+02 7.90325E+00 0.00000E+00
 -1      2923 1.24785E+02 7.90325E+00 0.00000E+00
 -1      2924 1.24035E+02 9.20225E+00 0.00000E+00
 -1      2925 1.29285E+02 7.90325E+00 0.00000E+00
 -1      2926 1.27785E+02 7.90325E+00 0.00000E+00
 -1      2927 1.27035E+02 9.20225E+00 0.00000E+00
 -1      2928 1.32285E+02 7.90325E+00 0.00000E+00
 -1      2929 1.30785E+02 7.90325E+00 0.00000E+00
 -1      2930 1.30035E+02 9.20225E+00 0.00000E+00
 -1      2931 1.35285E+02 7.90325E+00 0.00000E+00
 -1      2932 1.33785E+02 7.90325E+00 0.00000E+00
 -1      2933 1.33035E+02 9.20225E+00 0.00000E+00
 -1      2934 1.38285E+02 7.90325E+00 0.00000E+00
 -1      2935 1.36785E+02 7.90325E+00 0.00000E+00
 -1      2936 1.36035E+02 9.20225E+00 0.00000E+00
 -1      2937 1.40953E+02 8.18394E+00 0.00000E+00
 -1      2938 1.39453E+02 8.18394E+00 0.00000E+00
 -1      2939 1.38703E+02 9.48294E+00 0.00000E+00
 -1      2940 1.41038E+02 1.00443E+01 0.00000E+00
 -1      2941 1.40907E+02 2.42875E+01 0.00000E+00
 -1      2942 1.40907E+02 2.28125E+01 0.00000E+00
 -1      2943 1.40907E+02 1.83875E+01 0.00000E+00
 -1      2944 1.40907E+02 1.69125E+01 0.00000E+00
 -1      2945 1.40907E+02 2.72375E+01 0.00000E+00
 -1      2946 1.40907E+02 2.57625E+01 0.00000E+00
 -1      2947 1.39608E+02 2.50250E+01 0.00000E+00
 -1      2948 1.40907E+02 2.13375E+01 0.00000E+00
 -1      2949 1.40907E+02 1.98625E+01 0.00000E+00
 -1      2950 1.39608E+02 1.91250E+01 0.00000E+00
 -1      2951 1.39608E+02 2.20750E+01 0.00000E+00
 -1      2952 5.60591E+01 3.09162E+01 0.00000E+00
 -1      2953 5.54171E+01 3.20447E+01 0.00000E+00
 -1      2954 4.59467E+01 3.69003E+01 0.00000E+00
 -1      2955 4.50106E+01 3.68206E+01 0.00000E+00
 -1      2956 4.66372E+01 3.76855E+01 0.00000E+00
 -1      2957 1.40907E+02 3.01375E+01 0.00000E+00
 -1      2958 1.40907E+02 2.86875E+01 0.00000E+00
 -1      2959 1.39608E+02 2.79500E+01 0.00000E+00
 -1      2960 1.40907E+02 3.30875E+01 0.00000E+00
 -1      2961 1.40907E+02 3.16125E+01 0.00000E+00
 -1      2962 1.39608E+02 3.08750E+01 0.00000E+00
 -1      2963 1.40907E+02 3.60375E+01 0.00000E+00
 -1      2964 1.40907E+02 3.45625E+01 0.00000E+00
 -1      2965 1.39608E+02 3.38250E+01 0.00000E+00
 -1      2966 5.68298E+01 2.92146E+01 0.00000E+00
 -1      2967 5.66345E+01 2.98695E+01 0.00000E+00
 -1      2968 4.13536E+01 3.62865E+01 0.00000E+00
 -1      2969 4.01425E+01 3.58523E+01 0.00000E+00
 -1      2970 3.35331E+01 2.64333E+01 0.00000E+00
 -1      2971 3.35159E+01 2.54854E+01 0.00000E+00
 -1      2972 5.75263E+01 2.45973E+01 0.00000E+00
 -1      2973 5.74336E+01 2.56301E+01 0.00000E+00
 -1      2974 3.67538E+01 1.70543E+01 0.00000E+00
 -1      2975 3.75563E+01 1.62462E+01 0.00000E+00
 -1      2976 3.65506E+01 3.37420E+01 0.00000E+00
 -1      2977 3.57498E+01 3.26741E+01 0.00000E+00
 -1      2978 1.82850E+01 7.90325E+00 0.00000E+00
 -1      2979 1.67850E+01 7.90325E+00 0.00000E+00
 -1      2980 1.90350E+01 9.20225E+00 0.00000E+00
 -1      2981 3.53879E+01 1.92768E+01 0.00000E+00
 -1      2982 3.59779E+01 1.82266E+01 0.00000E+00
 -1      2983 1.40928E+02 4.09655E+01 0.00000E+00
 -1      2984 1.41192E+02 3.96958E+01 0.00000E+00
 -1      2985 1.39914E+02 4.09362E+01 0.00000E+00
 -1      2986 4.36637E+01 3.67969E+01 0.00000E+00
 -1      2987 4.26279E+01 3.66274E+01 0.00000E+00
 -1      2988 5.72957E+01 2.19089E+01 0.00000E+00
 -1      2989 5.75538E+01 2.31838E+01 0.00000E+00
 -1      2990 9.09300E+00 1.68813E+01 0.00000E+00
 -1      2991 9.09300E+00 1.83563E+01 0.00000E+00
 -1      2992 1.03920E+01 1.90812E+01 0.00000E+00
 -1      2993 1.03920E+01 1.61437E+01 0.00000E+00
 -1      2994 9.09300E+00 3.15875E+01 0.00000E+00
 -1      2995 9.09300E+00 3.30625E+01 0.00000E+00
 -1      2996 4.60376E+01 1.29385E+01 0.00000E+00
 -1      2997 4.70556E+01 1.30732E+01 0.00000E+00
 -1      2998 3.88479E+01 3.53548E+01 0.00000E+00
 -1      2999 3.78202E+01 3.47713E+01 0.00000E+00
 -1      3000 3.84272E+01 1.53576E+01 0.00000E+00
 -1      3001 3.92973E+01 1.46739E+01 0.00000E+00
 -1      3002 3.50589E+01 3.14160E+01 0.00000E+00
 -1      3003 3.45172E+01 3.03469E+01 0.00000E+00
 -1      3004 3.41016E+01 2.89640E+01 0.00000E+00
 -1      3005 3.38001E+01 2.77157E+01 0.00000E+00
 -1      3006 5.05340E+01 3.62871E+01 0.00000E+00
 -1      3007 4.94160E+01 3.66447E+01 0.00000E+00
 -1      3008 1.52850E+01 7.90325E+00 0.00000E+00
 -1      3009 1.37850E+01 7.90325E+00 0.00000E+00
 -1      3010 1.30350E+01 9.20225E+00 0.00000E+00
 -1      3011 1.60350E+01 9.20225E+00 0.00000E+00
 -1      3012 8.96362E+00 4.05429E+01 0.00000E+00
 -1      3013 1.03271E+01 4.08069E+01 0.00000E+00
 -1      3014 1.10771E+01 3.95079E+01 0.00000E+00
 -1      3015 8.93137E+00 3.93078E+01 0.00000E+00
 -1      3016 4.82182E+01 1.31263E+01 0.00000E+00
 -1      3017 4.93808E+01 1.31793E+01 0.00000E+00
 -1      3018 4.78437E+01 1.20426E+01 0.00000E+00
 -1      3019 5.29355E+01 3.51938E+01 0.00000E+00
 -1      3020 5.19063E+01 3.58336E+01 0.00000E+00
 -1      3021 4.05137E+01 1.40283E+01 0.00000E+00
 -1      3022 4.16107E+01 1.35124E+01 0.00000E+00
 -1      3023 3.43101E+01 2.14988E+01 0.00000E+00
 -1      3024 3.48109E+01 2.04088E+01 0.00000E+00
 -1      3025 3.36981E+01 2.42185E+01 0.00000E+00
 -1      3026 3.38933E+01 2.29223E+01 0.00000E+00
 -1      3027 5.48699E+01 1.73747E+01 0.00000E+00
 -1      3028 5.56072E+01 1.82045E+01 0.00000E+00
 -1      3029 9.09300E+00 3.45313E+01 0.00000E+00
 -1      3030 9.09300E+00 3.60000E+01 0.00000E+00
 -1      3031 1.03920E+01 3.37938E+01 0.00000E+00
 -1      3032 1.03920E+01 2.49750E+01 0.00000E+00
 -1      3033 9.09300E+00 2.57000E+01 0.00000E+00
 -1      3034 9.09300E+00 2.71750E+01 0.00000E+00
 -1      3035 5.77867E+01 2.10538E+01 0.00000E+00
 -1      3036 5.65527E+01 1.84840E+01 0.00000E+00
 -1      3037 5.74983E+01 1.87635E+01 0.00000E+00
 -1      3038 5.68252E+01 1.74995E+01 0.00000E+00
 -1      3039 1.39164E+02 3.96372E+01 0.00000E+00
 -1      3040 9.66450E+00 9.72612E+00 0.00000E+00
 -1      3041 5.47137E+01 1.64476E+01 0.00000E+00
 -1      3042 5.57235E+01 1.62929E+01 0.00000E+00
 -1      3043 5.45576E+01 1.55205E+01 0.00000E+00
 -1      3044 3.27655E+01 2.47096E+01 0.00000E+00
 -1      3045 5.40241E+01 3.53668E+01 0.00000E+00
 -1      3046 5.16341E+01 3.69090E+01 0.00000E+00
 -1      3047 4.89176E+01 3.75639E+01 0.00000E+00
 -1      3048 3.57112E+01 1.71593E+01 0.00000E+00
 -1      3049 3.35328E+01 2.99241E+01 0.00000E+00
 -1      3050 1.41038E+02 1.15068E+01 0.00000E+00
 -1      3051 1.39870E+02 1.12261E+01 0.00000E+00
 -1      3052 1.41038E+02 1.29693E+01 0.00000E+00
 -1      3053 5.70589E+01 3.08578E+01 0.00000E+00
 -1      3054 3.46392E+01 3.25650E+01 0.00000E+00
 -1      3055 4.43542E+01 3.75821E+01 0.00000E+00
 -1      3056 3.73580E+01 1.50983E+01 0.00000E+00
 -1      3057 5.75899E+01 2.86898E+01 0.00000E+00
 -1      3058 1.41192E+02 3.82207E+01 0.00000E+00
 -1      3059 3.91640E+01 3.63792E+01 0.00000E+00
 -1      3060 3.65997E+01 3.48524E+01 0.00000E+00
 -1      3061 1.09635E+01 1.04636E+01 0.00000E+00
 -1      3062 9.09300E+00 2.86437E+01 0.00000E+00
 -1      3063 9.09300E+00 3.01187E+01 0.00000E+00
 -1      3064 1.03920E+01 3.08563E+01 0.00000E+00
 -1      3065 1.03920E+01 2.79188E+01 0.00000E+00
 -1      3066 5.02235E+01 1.30473E+01 0.00000E+00
 -1      3067 5.10662E+01 1.29153E+01 0.00000E+00
 -1      3068 4.98490E+01 1.19637E+01 0.00000E+00
 -1      3069 5.83199E+01 2.37731E+01 0.00000E+00
 -1      3070 5.79190E+01 2.63776E+01 0.00000E+00
 -1      3071 3.28503E+01 2.72588E+01 0.00000E+00
 -1      3072 4.17330E+01 3.72176E+01 0.00000E+00
 -1      3073 4.22156E+01 1.28158E+01 0.00000E+00
 -1      3074 3.43582E+01 1.94637E+01 0.00000E+00
 -1      3075 1.40973E+02 1.56722E+01 0.00000E+00
 -1      3076 1.40973E+02 1.42097E+01 0.00000E+00
 -1      3077 1.39805E+02 1.39290E+01 0.00000E+00
 -1      3078 1.39674E+02 1.64097E+01 0.00000E+00
 -1      3079 5.57627E+01 3.30914E+01 0.00000E+00
 -1      3080 5.24943E+01 1.48370E+01 0.00000E+00
 -1      3081 5.33574E+01 1.47331E+01 0.00000E+00
 -1      3082 5.23038E+01 1.38950E+01 0.00000E+00
 -1      3083 3.94452E+01 1.35641E+01 0.00000E+00
 -1      3084 3.33645E+01 2.20192E+01 0.00000E+00
 -1      3085 1.39529E+02 3.85602E+01 0.00000E+00
 -1      3086 1.40542E+02 3.71145E+01 0.00000E+00
 -1      3087 1.39243E+02 3.63770E+01 0.00000E+00
 -1      3088 1.38514E+02 3.85310E+01 0.00000E+00
 -1      3089 1.16910E+01 1.24625E+01 0.00000E+00
 -1      3090 1.16910E+01 1.39375E+01 0.00000E+00
 -1      3091 8.99606E+00 3.70363E+01 0.00000E+00
 -1      3092 9.02831E+00 3.82715E+01 0.00000E+00
 -1      3093 1.01012E+01 3.83715E+01 0.00000E+00
 -1      3094 1.02951E+01 3.62988E+01 0.00000E+00
 -1      3095 3.17850E+01 1.05013E+01 0.00000E+00
 -1      3096 3.02850E+01 1.05013E+01 0.00000E+00
 -1      3097 2.87850E+01 1.05013E+01 0.00000E+00
 -1      3098 2.72850E+01 1.05013E+01 0.00000E+00
 -1      3099 2.95350E+01 1.18003E+01 0.00000E+00
 -1      3100 1.59000E+01 3.83090E+01 0.00000E+00
 -1      3101 1.74000E+01 3.83090E+01 0.00000E+00
 -1      3102 1.89000E+01 3.83090E+01 0.00000E+00
 -1      3103 2.04000E+01 3.83090E+01 0.00000E+00
 -1      3104 1.81500E+01 3.70100E+01 0.00000E+00
 -1      3105 2.19000E+01 3.83090E+01 0.00000E+00
 -1      3106 2.34000E+01 3.83090E+01 0.00000E+00
 -1      3107 2.11500E+01 3.70100E+01 0.00000E+00
 -1      3108 2.49000E+01 3.83090E+01 0.00000E+00
 -1      3109 2.64000E+01 3.83090E+01 0.00000E+00
 -1      3110 2.41500E+01 3.70100E+01 0.00000E+00
 -1      3111 2.79000E+01 3.83090E+01 0.00000E+00
 -1      3112 2.94000E+01 3.83090E+01 0.00000E+00
 -1      3113 2.71500E+01 3.70100E+01 0.00000E+00
 -1      3114 3.09000E+01 3.83090E+01 0.00000E+00
 -1      3115 3.24000E+01 3.83090E+01 0.00000E+00
 -1      3116 3.01500E+01 3.70100E+01 0.00000E+00
 -1      3117 4.25786E+01 3.85832E+01 0.00000E+00
 -1      3118 4.40786E+01 3.85832E+01 0.00000E+00
 -1      3119 4.54256E+01 3.86069E+01 0.00000E+00
 -1      3120 4.69256E+01 3.86069E+01 0.00000E+00
 -1      3121 4.92059E+01 3.84853E+01 0.00000E+00
 -1      3122 5.07059E+01 3.84853E+01 0.00000E+00
 -1      3123 5.49000E+01 3.83315E+01 0.00000E+00
 -1      3124 5.64000E+01 3.83315E+01 0.00000E+00
 -1      3125 5.79000E+01 3.83315E+01 0.00000E+00
 -1      3126 5.94000E+01 3.83315E+01 0.00000E+00
 -1      3127 5.71500E+01 3.70550E+01 0.00000E+00
 -1      3128 6.09000E+01 3.83315E+01 0.00000E+00
 -1      3129 6.24000E+01 3.83315E+01 0.00000E+00
 -1      3130 6.01500E+01 3.70550E+01 0.00000E+00
 -1      3131 6.39000E+01 3.83315E+01 0.00000E+00
 -1      3132 6.54000E+01 3.83315E+01 0.00000E+00
 -1      3133 6.31500E+01 3.70550E+01 0.00000E+00
 -1      3134 6.69000E+01 3.83315E+01 0.00000E+00
 -1      3135 6.84000E+01 3.83315E+01 0.00000E+00
 -1      3136 6.61500E+01 3.70550E+01 0.00000E+00
 -1      3137 6.99000E+01 3.83315E+01 0.00000E+00
 -1      3138 7.14000E+01 3.83315E+01 0.00000E+00
 -1      3139 6.91500E+01 3.70550E+01 0.00000E+00
 -1      3140 7.29000E+01 3.83315E+01 0.00000E+00
 -1      3141 7.44000E+01 3.83315E+01 0.00000E+00
 -1      3142 7.21500E+01 3.70550E+01 0.00000E+00
 -1      3143 7.59000E+01 3.83315E+01 0.00000E+00
 -1      3144 7.74000E+01 3.83315E+01 0.00000E+00
 -1      3145 7.51500E+01 3.70550E+01 0.00000E+00
 -1      3146 7.89000E+01 3.83315E+01 0.00000E+00
 -1      3147 8.04000E+01 3.83315E+01 0.00000E+00
 -1      3148 7.81500E+01 3.70550E+01 0.00000E+00
 -1      3149 8.19000E+01 3.83315E+01 0.00000E+00
 -1      3150 8.34000E+01 3.83315E+01 0.00000E+00
 -1      3151 8.11500E+01 3.70550E+01 0.00000E+00
 -1      3152 8.49000E+01 3.83315E+01 0.00000E+00
 -1      3153 8.64000E+01 3.83315E+01 0.00000E+00
 -1      3154 8.41500E+01 3.70550E+01 0.00000E+00
 -1      3155 8.79000E+01 3.83315E+01 0.00000E+00
 -1      3156 8.94000E+01 3.83315E+01 0.00000E+00
 -1      3157 8.71500E+01 3.70550E+01 0.00000E+00
 -1      3158 9.09000E+01 3.83315E+01 0.00000E+00
 -1      3159 9.24000E+01 3.83315E+01 0.00000E+00
 -1      3160 9.01500E+01 3.70550E+01 0.00000E+00
 -1      3161 9.39000E+01 3.83315E+01 0.00000E+00
 -1      3162 9.54000E+01 3.83315E+01 0.00000E+00
 -1      3163 9.31500E+01 3.70550E+01 0.00000E+00
 -1      3164 9.69000E+01 3.83315E+01 0.00000E+00
 -1      3165 9.84000E+01 3.83315E+01 0.00000E+00
 -1      3166 9.61500E+01 3.70550E+01 0.00000E+00
 -1      3167 9.99000E+01 3.83315E+01 0.00000E+00
 -1      3168 1.01400E+02 3.83315E+01 0.00000E+00
 -1      3169 9.91500E+01 3.70550E+01 0.00000E+00
 -1      3170 1.02900E+02 3.83315E+01 0.00000E+00
 -1      3171 1.04400E+02 3.83315E+01 0.00000E+00
 -1      3172 1.02150E+02 3.70550E+01 0.00000E+00
 -1      3173 1.05900E+02 3.83315E+01 0.00000E+00
 -1      3174 1.07400E+02 3.83315E+01 0.00000E+00
 -1      3175 1.05150E+02 3.70550E+01 0.00000E+00
 -1      3176 1.08900E+02 3.83315E+01 0.00000E+00
 -1      3177 1.10400E+02 3.83315E+01 0.00000E+00
 -1      3178 1.08150E+02 3.70550E+01 0.00000E+00
 -1      3179 1.11900E+02 3.83315E+01 0.00000E+00
 -1      3180 1.13400E+02 3.83315E+01 0.00000E+00
 -1      3181 1.11150E+02 3.70550E+01 0.00000E+00
 -1      3182 1.14900E+02 3.83315E+01 0.00000E+00
 -1      3183 1.16400E+02 3.83315E+01 0.00000E+00
 -1      3184 1.14150E+02 3.70550E+01 0.00000E+00
 -1      3185 1.17900E+02 3.83315E+01 0.00000E+00
 -1      3186 1.19400E+02 3.83315E+01 0.00000E+00
 -1      3187 1.17150E+02 3.70550E+01 0.00000E+00
 -1      3188 1.20900E+02 3.83315E+01 0.00000E+00
 -1      3189 1.22400E+02 3.83315E+01 0.00000E+00
 -1      3190 1.20150E+02 3.70550E+01 0.00000E+00
 -1      3191 1.23900E+02 3.83315E+01 0.00000E+00
 -1      3192 1.25400E+02 3.83315E+01 0.00000E+00
 -1      3193 1.23150E+02 3.70550E+01 0.00000E+00
 -1      3194 1.26900E+02 3.83315E+01 0.00000E+00
 -1      3195 1.28400E+02 3.83315E+01 0.00000E+00
 -1      3196 1.26150E+02 3.70550E+01 0.00000E+00
 -1      3197 1.29900E+02 3.83315E+01 0.00000E+00
 -1      3198 1.31400E+02 3.83315E+01 0.00000E+00
 -1      3199 1.29150E+02 3.70550E+01 0.00000E+00
 -1      3200 1.32900E+02 3.83315E+01 0.00000E+00
 -1      3201 1.34400E+02 3.83315E+01 0.00000E+00
 -1      3202 1.32150E+02 3.70550E+01 0.00000E+00
 -1      3203 1.35707E+02 3.84313E+01 0.00000E+00
 -1      3204 1.37207E+02 3.84313E+01 0.00000E+00
 -1      3205 1.37572E+02 3.73543E+01 0.00000E+00
 -1      3206 1.34957E+02 3.71548E+01 0.00000E+00
 -1      3207 2.57850E+01 1.05013E+01 0.00000E+00
 -1      3208 2.42850E+01 1.05013E+01 0.00000E+00
 -1      3209 2.65350E+01 1.18003E+01 0.00000E+00
 -1      3210 3.47850E+01 1.05013E+01 0.00000E+00
 -1      3211 3.32850E+01 1.05013E+01 0.00000E+00
 -1      3212 3.25350E+01 1.18003E+01 0.00000E+00
 -1      3213 4.10983E+01 1.10604E+01 0.00000E+00
 -1      3214 3.95983E+01 1.10604E+01 0.00000E+00
 -1      3215 4.41523E+01 1.09577E+01 0.00000E+00
 -1      3216 4.26523E+01 1.09577E+01 0.00000E+00
 -1      3217 4.71080E+01 1.05959E+01 0.00000E+00
 -1      3218 4.56080E+01 1.05959E+01 0.00000E+00
 -1      3219 4.97707E+01 1.06490E+01 0.00000E+00
 -1      3220 4.82707E+01 1.06490E+01 0.00000E+00
 -1      3221 5.57850E+01 1.04787E+01 0.00000E+00
 -1      3222 5.42850E+01 1.04787E+01 0.00000E+00
 -1      3223 5.87850E+01 1.04787E+01 0.00000E+00
 -1      3224 5.72850E+01 1.04787E+01 0.00000E+00
 -1      3225 5.65350E+01 1.17552E+01 0.00000E+00
 -1      3226 6.17850E+01 1.04787E+01 0.00000E+00
 -1      3227 6.02850E+01 1.04787E+01 0.00000E+00
 -1      3228 5.95350E+01 1.17552E+01 0.00000E+00
 -1      3229 6.47850E+01 1.04787E+01 0.00000E+00
 -1      3230 6.32850E+01 1.04787E+01 0.00000E+00
 -1      3231 6.25350E+01 1.17552E+01 0.00000E+00
 -1      3232 6.77850E+01 1.04787E+01 0.00000E+00
 -1      3233 6.62850E+01 1.04787E+01 0.00000E+00
 -1      3234 6.55350E+01 1.17552E+01 0.00000E+00
 -1      3235 7.07850E+01 1.04787E+01 0.00000E+00
 -1      3236 6.92850E+01 1.04787E+01 0.00000E+00
 -1      3237 6.85350E+01 1.17552E+01 0.00000E+00
 -1      3238 7.37850E+01 1.04787E+01 0.00000E+00
 -1      3239 7.22850E+01 1.04787E+01 0.00000E+00
 -1      3240 7.15350E+01 1.17552E+01 0.00000E+00
 -1      3241 7.67850E+01 1.04787E+01 0.00000E+00
 -1      3242 7.52850E+01 1.04787E+01 0.00000E+00
 -1      3243 7.45350E+01 1.17552E+01 0.00000E+00
 -1      3244 7.97850E+01 1.04787E+01 0.00000E+00
 -1      3245 7.82850E+01 1.04787E+01 0.00000E+00
 -1      3246 7.75350E+01 1.17552E+01 0.00000E+00
 -1      3247 8.27850E+01 1.04787E+01 0.00000E+00
 -1      3248 8.12850E+01 1.04787E+01 0.00000E+00
 -1      3249 8.05350E+01 1.17552E+01 0.00000E+00
 -1      3250 8.57850E+01 1.04787E+01 0.00000E+00
 -1      3251 8.42850E+01 1.04787E+01 0.00000E+00
 -1      3252 8.35350E+01 1.17552E+01 0.00000E+00
 -1      3253 8.87850E+01 1.04787E+01 0.00000E+00
 -1      3254 8.72850E+01 1.04787E+01 0.00000E+00
 -1      3255 8.65350E+01 1.17552E+01 0.00000E+00
 -1      3256 9.17850E+01 1.04787E+01 0.00000E+00
 -1      3257 9.02850E+01 1.04787E+01 0.00000E+00
 -1      3258 8.95350E+01 1.17552E+01 0.00000E+00
 -1      3259 9.47850E+01 1.04787E+01 0.00000E+00
 -1      3260 9.32850E+01 1.04787E+01 0.00000E+00
 -1      3261 9.25350E+01 1.17552E+01 0.00000E+00
 -1      3262 9.77850E+01 1.04787E+01 0.00000E+00
 -1      3263 9.62850E+01 1.04787E+01 0.00000E+00
 -1      3264 9.55350E+01 1.17552E+01 0.00000E+00
 -1      3265 1.00785E+02 1.04787E+01 0.00000E+00
 -1      3266 9.92850E+01 1.04787E+01 0.00000E+00
 -1      3267 9.85350E+01 1.17552E+01 0.00000E+00
 -1      3268 1.03785E+02 1.04787E+01 0.00000E+00
 -1      3269 1.02285E+02 1.04787E+01 0.00000E+00
 -1      3270 1.01535E+02 1.17552E+01 0.00000E+00
 -1      3271 1.06785E+02 1.04787E+01 0.00000E+00
 -1      3272 1.05285E+02 1.04787E+01 0.00000E+00
 -1      3273 1.04535E+02 1.17552E+01 0.00000E+00
 -1      3274 1.09785E+02 1.04787E+01 0.00000E+00
 -1      3275 1.08285E+02 1.04787E+01 0.00000E+00
 -1      3276 1.07535E+02 1.17552E+01 0.00000E+00
 -1      3277 1.12785E+02 1.04787E+01 0.00000E+00
 -1      3278 1.11285E+02 1.04787E+01 0.00000E+00
 -1      3279 1.10535E+02 1.17552E+01 0.00000E+00
 -1      3280 1.15785E+02 1.04787E+01 0.00000E+00
 -1      3281 1.14285E+02 1.04787E+01 0.00000E+00
 -1      3282 1.13535E+02 1.17552E+01 0.00000E+00
 -1      3283 1.18785E+02 1.04787E+01 0.00000E+00
 -1      3284 1.17285E+02 1.04787E+01 0.00000E+00
 -1      3285 1.16535E+02 1.17552E+01 0.00000E+00
 -1      3286 1.21785E+02 1.04787E+01 0.00000E+00
 -1      3287 1.20285E+02 1.04787E+01 0.00000E+00
 -1      3288 1.19535E+02 1.17552E+01 0.00000E+00
 -1      3289 1.24785E+02 1.04787E+01 0.00000E+00
 -1      3290 1.23285E+02 1.04787E+01 0.00000E+00
 -1      3291 1.22535E+02 1.17552E+01 0.00000E+00
 -1      3292 1.27785E+02 1.04787E+01 0.00000E+00
 -1      3293 1.26285E+02 1.04787E+01 0.00000E+00
 -1      3294 1.25535E+02 1.17552E+01 0.00000E+00
 -1      3295 1.30785E+02 1.04787E+01 0.00000E+00
 -1      3296 1.29285E+02 1.04787E+01 0.00000E+00
 -1      3297 1.28535E+02 1.17552E+01 0.00000E+00
 -1      3298 1.33785E+02 1.04787E+01 0.00000E+00
 -1      3299 1.32285E+02 1.04787E+01 0.00000E+00
 -1      3300 1.31535E+02 1.17552E+01 0.00000E+00
 -1      3301 1.36785E+02 1.04787E+01 0.00000E+00
 -1      3302 1.35285E+02 1.04787E+01 0.00000E+00
 -1      3303 1.34535E+02 1.17552E+01 0.00000E+00
 -1      3304 1.38912E+02 1.09928E+01 0.00000E+00
 -1      3305 1.37744E+02 1.07121E+01 0.00000E+00
 -1      3306 1.36994E+02 1.19886E+01 0.00000E+00
 -1      3307 1.38912E+02 1.24553E+01 0.00000E+00
 -1      3308 5.69993E+01 3.30301E+01 0.00000E+00
 -1      3309 5.62785E+01 3.42169E+01 0.00000E+00
 -1      3310 1.38309E+02 2.57625E+01 0.00000E+00
 -1      3311 1.38309E+02 2.42875E+01 0.00000E+00
 -1      3312 5.81500E+01 3.09366E+01 0.00000E+00
 -1      3313 5.75746E+01 3.19834E+01 0.00000E+00
 -1      3314 5.80904E+01 3.31089E+01 0.00000E+00
 -1      3315 1.38309E+02 3.45625E+01 0.00000E+00
 -1      3316 1.38309E+02 3.30875E+01 0.00000E+00
 -1      3317 3.40126E+01 3.37278E+01 0.00000E+00
 -1      3318 3.33218E+01 3.24697E+01 0.00000E+00
 -1      3319 3.65361E+01 3.62284E+01 0.00000E+00
 -1      3320 3.52665E+01 3.51991E+01 0.00000E+00
 -1      3321 3.14938E+01 2.51733E+01 0.00000E+00
 -1      3322 3.16760E+01 2.39064E+01 0.00000E+00
 -1      3323 5.53459E+01 3.56666E+01 0.00000E+00
 -1      3324 5.43282E+01 3.67552E+01 0.00000E+00
 -1      3325 1.97850E+01 1.05013E+01 0.00000E+00
 -1      3326 1.82850E+01 1.05013E+01 0.00000E+00
 -1      3327 3.26786E+01 3.09346E+01 0.00000E+00
 -1      3328 3.22630E+01 2.95518E+01 0.00000E+00
 -1      3329 1.38309E+02 3.16125E+01 0.00000E+00
 -1      3330 1.38309E+02 3.01375E+01 0.00000E+00
 -1      3331 1.37010E+02 3.23500E+01 0.00000E+00
 -1      3332 2.27850E+01 1.05013E+01 0.00000E+00
 -1      3333 2.12850E+01 1.05013E+01 0.00000E+00
 -1      3334 2.05350E+01 1.18003E+01 0.00000E+00
 -1      3335 5.85920E+01 2.80887E+01 0.00000E+00
 -1      3336 5.86364E+01 2.92099E+01 0.00000E+00
 -1      3337 3.19802E+01 2.81090E+01 0.00000E+00
 -1      3338 3.17132E+01 2.68266E+01 0.00000E+00
 -1      3339 5.92748E+01 2.30846E+01 0.00000E+00
 -1      3340 5.92473E+01 2.44981E+01 0.00000E+00
 -1      3341 1.29000E+01 3.83090E+01 0.00000E+00
 -1      3342 1.44000E+01 3.83090E+01 0.00000E+00
 -1      3343 1.51500E+01 3.70100E+01 0.00000E+00
 -1      3344 3.91255E+01 3.72234E+01 0.00000E+00
 -1      3345 3.78308E+01 3.67259E+01 0.00000E+00
 -1      3346 3.64976E+01 3.70726E+01 0.00000E+00
 -1      3347 5.82943E+01 2.00625E+01 0.00000E+00
 -1      3348 5.88550E+01 2.13683E+01 0.00000E+00
 -1      3349 3.61306E+01 1.47664E+01 0.00000E+00
 -1      3350 3.70014E+01 1.38779E+01 0.00000E+00
 -1      3351 5.91064E+01 2.56979E+01 0.00000E+00
 -1      3352 5.87330E+01 2.68889E+01 0.00000E+00
 -1      3353 5.97795E+01 2.74090E+01 0.00000E+00
 -1      3354 6.00613E+01 2.50095E+01 0.00000E+00
 -1      3355 4.52253E+01 1.23514E+01 0.00000E+00
 -1      3356 1.26488E+01 1.02017E+01 0.00000E+00
 -1      3357 1.20772E+01 1.14631E+01 0.00000E+00
 -1      3358 1.33763E+01 1.22006E+01 0.00000E+00
 -1      3359 1.41488E+01 1.02017E+01 0.00000E+00
 -1      3360 3.87718E+01 1.23122E+01 0.00000E+00
 -1      3361 3.77085E+01 1.04541E+01 0.00000E+00
 -1      3362 3.62085E+01 1.04541E+01 0.00000E+00
 -1      3363 3.75554E+01 1.29579E+01 0.00000E+00
 -1      3364 4.13043E+01 3.82423E+01 0.00000E+00
 -1      3365 3.43286E+01 1.70872E+01 0.00000E+00
 -1      3366 3.51046E+01 1.59148E+01 0.00000E+00
 -1      3367 3.98043E+01 3.82423E+01 0.00000E+00
 -1      3368 3.20918E+01 2.24194E+01 0.00000E+00
 -1      3369 3.25086E+01 2.09959E+01 0.00000E+00
 -1      3370 5.20782E+01 3.80317E+01 0.00000E+00
 -1      3371 1.16910E+01 2.12875E+01 0.00000E+00
 -1      3372 1.16910E+01 2.27625E+01 0.00000E+00
 -1      3373 1.38309E+02 2.86750E+01 0.00000E+00
 -1      3374 1.38309E+02 2.72250E+01 0.00000E+00
 -1      3375 1.37010E+02 2.64875E+01 0.00000E+00
 -1      3376 1.37010E+02 2.94125E+01 0.00000E+00
 -1      3377 3.32311E+01 1.96023E+01 0.00000E+00
 -1      3378 3.38081E+01 1.84702E+01 0.00000E+00
 -1      3379 3.84712E+01 3.85890E+01 0.00000E+00
 -1      3380 5.35782E+01 3.80317E+01 0.00000E+00
 -1      3381 1.16910E+01 2.42375E+01 0.00000E+00
 -1      3382 1.16910E+01 2.57125E+01 0.00000E+00
 -1      3383 1.29900E+01 2.35000E+01 0.00000E+00
 -1      3384 5.66690E+01 1.65724E+01 0.00000E+00
 -1      3385 5.76146E+01 1.68519E+01 0.00000E+00
 -1      3386 5.65129E+01 1.56453E+01 0.00000E+00
 -1      3387 1.16910E+01 3.30594E+01 0.00000E+00
 -1      3388 1.16910E+01 3.45281E+01 0.00000E+00
 -1      3389 5.43671E+01 1.45785E+01 0.00000E+00
 -1      3390 1.69669E+01 1.03515E+01 0.00000E+00
 -1      3391 1.54669E+01 1.03515E+01 0.00000E+00
 -1      3392 1.50806E+01 1.13509E+01 0.00000E+00
 -1      3393 1.77169E+01 1.16505E+01 0.00000E+00
 -1      3394 3.34265E+01 3.67926E+01 0.00000E+00
 -1      3395 3.41765E+01 3.80916E+01 0.00000E+00
 -1      3396 3.47480E+01 1.46944E+01 0.00000E+00
 -1      3397 3.56765E+01 3.80916E+01 0.00000E+00
 -1      3398 3.69712E+01 3.85890E+01 0.00000E+00
 -1      3399 3.19584E+01 2.00024E+01 0.00000E+00
 -1      3400 2.35350E+01 1.18003E+01 0.00000E+00
 -1      3401 3.54585E+01 1.17531E+01 0.00000E+00
 -1      3402 5.28633E+01 1.17934E+01 0.00000E+00
 -1      3403 5.21133E+01 1.05170E+01 0.00000E+00
 -1      3404 5.06133E+01 1.05170E+01 0.00000E+00
 -1      3405 1.38309E+02 1.98625E+01 0.00000E+00
 -1      3406 1.38309E+02 1.83875E+01 0.00000E+00
 -1      3407 1.37010E+02 2.35500E+01 0.00000E+00
 -1      3408 1.38309E+02 2.28125E+01 0.00000E+00
 -1      3409 1.38309E+02 2.13375E+01 0.00000E+00
 -1      3410 3.20520E+01 3.20974E+01 0.00000E+00
 -1      3411 3.39491E+01 3.51038E+01 0.00000E+00
 -1      3412 3.63280E+01 1.26260E+01 0.00000E+00
 -1      3413 6.01543E+01 2.97344E+01 0.00000E+00
 -1      3414 5.91522E+01 3.03355E+01 0.00000E+00
 -1      3415 5.96679E+01 3.14611E+01 0.00000E+00
 -1      3416 5.65825E+01 3.56053E+01 0.00000E+00
 -1      3417 3.06237E+01 2.60234E+01 0.00000E+00
 -1      3418 6.02900E+01 2.11021E+01 0.00000E+00
 -1      3419 5.97824E+01 2.20934E+01 0.00000E+00
 -1      3420 6.07098E+01 2.28184E+01 0.00000E+00
 -1      3421 3.08202E+01 2.28830E+01 0.00000E+00
 -1      3422 1.16910E+01 1.54063E+01 0.00000E+00
 -1      3423 1.16910E+01 1.68750E+01 0.00000E+00
 -1      3424 1.29900E+01 1.46687E+01 0.00000E+00
 -1      3425 5.88391E+01 1.80935E+01 0.00000E+00
 -1      3426 5.85667E+01 1.90780E+01 0.00000E+00
 -1      3427 5.96350E+01 1.93925E+01 0.00000E+00
 -1      3428 3.11259E+01 2.91195E+01 0.00000E+00
 -1      3429 1.11741E+01 3.84716E+01 0.00000E+00
 -1      3430 1.38375E+02 1.71472E+01 0.00000E+00
 -1      3431 1.38440E+02 1.59068E+01 0.00000E+00
 -1      3432 1.37076E+02 1.78847E+01 0.00000E+00
 -1      3433 1.16910E+01 1.83469E+01 0.00000E+00
 -1      3434 1.16910E+01 1.98156E+01 0.00000E+00
 -1      3435 1.29900E+01 2.05531E+01 0.00000E+00
 -1      3436 1.29900E+01 1.76094E+01 0.00000E+00
 -1      3437 1.19241E+01 3.71726E+01 0.00000E+00
 -1      3438 3.32015E+01 1.72258E+01 0.00000E+00
 -1      3439 1.16910E+01 3.01219E+01 0.00000E+00
 -1      3440 1.16910E+01 3.15906E+01 0.00000E+00
 -1      3441 1.29900E+01 3.23250E+01 0.00000E+00
 -1      3442 1.37758E+02 3.64969E+01 0.00000E+00
 -1      3443 1.38123E+02 3.54199E+01 0.00000E+00
 -1      3444 1.36824E+02 3.46824E+01 0.00000E+00
 -1      3445 1.36451E+02 3.63971E+01 0.00000E+00
 -1      3446 3.02850E+01 1.30992E+01 0.00000E+00
 -1      3447 2.87850E+01 1.30992E+01 0.00000E+00
 -1      3448 3.00970E+01 3.00704E+01 0.00000E+00
 -1      3449 2.98141E+01 2.86276E+01 0.00000E+00
 -1      3450 2.04000E+01 3.57110E+01 0.00000E+00
 -1      3451 2.19000E+01 3.57110E+01 0.00000E+00
 -1      3452 2.34000E+01 3.57110E+01 0.00000E+00
 -1      3453 2.49000E+01 3.57110E+01 0.00000E+00
 -1      3454 2.26500E+01 3.44120E+01 0.00000E+00
 -1      3455 2.64000E+01 3.57110E+01 0.00000E+00
 -1      3456 2.79000E+01 3.57110E+01 0.00000E+00
 -1      3457 2.56500E+01 3.44120E+01 0.00000E+00
 -1      3458 4.78617E+01 3.86866E+01 0.00000E+00
 -1      3459 5.94000E+01 3.57560E+01 0.00000E+00
 -1      3460 6.09000E+01 3.57560E+01 0.00000E+00
 -1      3461 6.24000E+01 3.57560E+01 0.00000E+00
 -1      3462 6.39000E+01 3.57560E+01 0.00000E+00
 -1      3463 6.16500E+01 3.44570E+01 0.00000E+00
 -1      3464 6.54000E+01 3.57560E+01 0.00000E+00
 -1      3465 6.69000E+01 3.57560E+01 0.00000E+00
 -1      3466 6.46500E+01 3.44570E+01 0.00000E+00
 -1      3467 6.84000E+01 3.57560E+01 0.00000E+00
 -1      3468 6.99000E+01 3.57560E+01 0.00000E+00
 -1      3469 6.76500E+01 3.44570E+01 0.00000E+00
 -1      3470 7.14000E+01 3.57560E+01 0.00000E+00
 -1      3471 7.29000E+01 3.57560E+01 0.00000E+00
 -1      3472 7.06500E+01 3.44570E+01 0.00000E+00
 -1      3473 7.44000E+01 3.57560E+01 0.00000E+00
 -1      3474 7.59000E+01 3.57560E+01 0.00000E+00
 -1      3475 7.36500E+01 3.44570E+01 0.00000E+00
 -1      3476 7.74000E+01 3.57560E+01 0.00000E+00
 -1      3477 7.89000E+01 3.57560E+01 0.00000E+00
 -1      3478 7.66500E+01 3.44570E+01 0.00000E+00
 -1      3479 8.04000E+01 3.57560E+01 0.00000E+00
 -1      3480 8.19000E+01 3.57560E+01 0.00000E+00
 -1      3481 7.96500E+01 3.44570E+01 0.00000E+00
 -1      3482 8.34000E+01 3.57560E+01 0.00000E+00
 -1      3483 8.49000E+01 3.57560E+01 0.00000E+00
 -1      3484 8.26500E+01 3.44570E+01 0.00000E+00
 -1      3485 8.64000E+01 3.57560E+01 0.00000E+00
 -1      3486 8.79000E+01 3.57560E+01 0.00000E+00
 -1      3487 8.56500E+01 3.44570E+01 0.00000E+00
 -1      3488 8.94000E+01 3.57560E+01 0.00000E+00
 -1      3489 9.09000E+01 3.57560E+01 0.00000E+00
 -1      3490 8.86500E+01 3.44570E+01 0.00000E+00
 -1      3491 9.24000E+01 3.57560E+01 0.00000E+00
 -1      3492 9.39000E+01 3.57560E+01 0.00000E+00
 -1      3493 9.16500E+01 3.44570E+01 0.00000E+00
 -1      3494 9.54000E+01 3.57560E+01 0.00000E+00
 -1      3495 9.69000E+01 3.57560E+01 0.00000E+00
 -1      3496 9.46500E+01 3.44570E+01 0.00000E+00
 -1      3497 9.84000E+01 3.57560E+01 0.00000E+00
 -1      3498 9.99000E+01 3.57560E+01 0.00000E+00
 -1      3499 9.76500E+01 3.44570E+01 0.00000E+00
 -1      3500 1.01400E+02 3.57560E+01 0.00000E+00
 -1      3501 1.02900E+02 3.57560E+01 0.00000E+00
 -1      3502 1.00650E+02 3.44570E+01 0.00000E+00
 -1      3503 1.04400E+02 3.57560E+01 0.00000E+00
 -1      3504 1.05900E+02 3.57560E+01 0.00000E+00
 -1      3505 1.03650E+02 3.44570E+01 0.00000E+00
 -1      3506 1.07400E+02 3.57560E+01 0.00000E+00
 -1      3507 1.08900E+02 3.57560E+01 0.00000E+00
 -1      3508 1.06650E+02 3.44570E+01 0.00000E+00
 -1      3509 1.10400E+02 3.57560E+01 0.00000E+00
 -1      3510 1.11900E+02 3.57560E+01 0.00000E+00
 -1      3511 1.09650E+02 3.44570E+01 0.00000E+00
 -1      3512 1.13400E+02 3.57560E+01 0.00000E+00
 -1      3513 1.14900E+02 3.57560E+01 0.00000E+00
 -1      3514 1.12650E+02 3.44570E+01 0.00000E+00
 -1      3515 1.16400E+02 3.57560E+01 0.00000E+00
 -1      3516 1.17900E+02 3.57560E+01 0.00000E+00
 -1      3517 1.15650E+02 3.44570E+01 0.00000E+00
 -1      3518 1.19400E+02 3.57560E+01 0.00000E+00
 -1      3519 1.20900E+02 3.57560E+01 0.00000E+00
 -1      3520 1.18650E+02 3.44570E+01 0.00000E+00
 -1      3521 1.22400E+02 3.57560E+01 0.00000E+00
 -1      3522 1.23900E+02 3.57560E+01 0.00000E+00
 -1      3523 1.21650E+02 3.44570E+01 0.00000E+00
 -1      3524 1.25400E+02 3.57560E+01 0.00000E+00
 -1      3525 1.26900E+02 3.57560E+01 0.00000E+00
 -1      3526 1.24650E+02 3.44570E+01 0.00000E+00
 -1      3527 1.28400E+02 3.57560E+01 0.00000E+00
 -1      3528 1.29900E+02 3.57560E+01 0.00000E+00
 -1      3529 1.27650E+02 3.44570E+01 0.00000E+00
 -1      3530 1.31400E+02 3.57560E+01 0.00000E+00
 -1      3531 1.32900E+02 3.57560E+01 0.00000E+00
 -1      3532 1.30650E+02 3.44570E+01 0.00000E+00
 -1      3533 1.35711E+02 3.30875E+01 0.00000E+00
 -1      3534 1.35711E+02 3.16125E+01 0.00000E+00
 -1      3535 1.37010E+02 2.06000E+01 0.00000E+00
 -1      3536 5.77467E+01 1.38400E+01 0.00000E+00
 -1      3537 5.62467E+01 1.38400E+01 0.00000E+00
 -1      3538 6.62850E+01 1.30542E+01 0.00000E+00
 -1      3539 6.47850E+01 1.30542E+01 0.00000E+00
 -1      3540 6.92850E+01 1.30542E+01 0.00000E+00
 -1      3541 6.77850E+01 1.30542E+01 0.00000E+00
 -1      3542 6.70350E+01 1.43532E+01 0.00000E+00
 -1      3543 7.22850E+01 1.30542E+01 0.00000E+00
 -1      3544 7.07850E+01 1.30542E+01 0.00000E+00
 -1      3545 7.00350E+01 1.43532E+01 0.00000E+00
 -1      3546 7.52850E+01 1.30542E+01 0.00000E+00
 -1      3547 7.37850E+01 1.30542E+01 0.00000E+00
 -1      3548 7.30350E+01 1.43532E+01 0.00000E+00
 -1      3549 7.82850E+01 1.30542E+01 0.00000E+00
 -1      3550 7.67850E+01 1.30542E+01 0.00000E+00
 -1      3551 7.60350E+01 1.43532E+01 0.00000E+00
 -1      3552 8.12850E+01 1.30542E+01 0.00000E+00
 -1      3553 7.97850E+01 1.30542E+01 0.00000E+00
 -1      3554 7.90350E+01 1.43532E+01 0.00000E+00
 -1      3555 8.42850E+01 1.30542E+01 0.00000E+00
 -1      3556 8.27850E+01 1.30542E+01 0.00000E+00
 -1      3557 8.20350E+01 1.43532E+01 0.00000E+00
 -1      3558 8.72850E+01 1.30542E+01 0.00000E+00
 -1      3559 8.57850E+01 1.30542E+01 0.00000E+00
 -1      3560 8.50350E+01 1.43532E+01 0.00000E+00
 -1      3561 9.02850E+01 1.30542E+01 0.00000E+00
 -1      3562 8.87850E+01 1.30542E+01 0.00000E+00
 -1      3563 8.80350E+01 1.43532E+01 0.00000E+00
 -1      3564 9.32850E+01 1.30542E+01 0.00000E+00
 -1      3565 9.17850E+01 1.30542E+01 0.00000E+00
 -1      3566 9.10350E+01 1.43532E+01 0.00000E+00
 -1      3567 9.62850E+01 1.30542E+01 0.00000E+00
 -1      3568 9.47850E+01 1.30542E+01 0.00000E+00
 -1      3569 9.40350E+01 1.43532E+01 0.00000E+00
 -1      3570 9.92850E+01 1.30542E+01 0.00000E+00
 -1      3571 9.77850E+01 1.30542E+01 0.00000E+00
 -1      3572 9.70350E+01 1.43532E+01 0.00000E+00
 -1      3573 1.02285E+02 1.30542E+01 0.00000E+00
 -1      3574 1.00785E+02 1.30542E+01 0.00000E+00
 -1      3575 1.00035E+02 1.43532E+01 0.00000E+00
 -1      3576 1.05285E+02 1.30542E+01 0.00000E+00
 -1      3577 1.03785E+02 1.30542E+01 0.00000E+00
 -1      3578 1.03035E+02 1.43532E+01 0.00000E+00
 -1      3579 1.08285E+02 1.30542E+01 0.00000E+00
 -1      3580 1.06785E+02 1.30542E+01 0.00000E+00
 -1      3581 1.06035E+02 1.43532E+01 0.00000E+00
 -1      3582 1.11285E+02 1.30542E+01 0.00000E+00
 -1      3583 1.09785E+02 1.30542E+01 0.00000E+00
 -1      3584 1.09035E+02 1.43532E+01 0.00000E+00
 -1      3585 1.14285E+02 1.30542E+01 0.00000E+00
 -1      3586 1.12785E+02 1.30542E+01 0.00000E+00
 -1      3587 1.12035E+02 1.43532E+01 0.00000E+00
 -1      3588 1.17285E+02 1.30542E+01 0.00000E+00
 -1      3589 1.15785E+02 1.30542E+01 0.00000E+00
 -1      3590 1.15035E+02 1.43532E+01 0.00000E+00
 -1      3591 1.20285E+02 1.30542E+01 0.00000E+00
 -1      3592 1.18785E+02 1.30542E+01 0.00000E+00
 -1      3593 1.18035E+02 1.43532E+01 0.00000E+00
 -1      3594 1.23285E+02 1.30542E+01 0.00000E+00
 -1      3595 1.21785E+02 1.30542E+01 0.00000E+00
 -1      3596 1.21035E+02 1.43532E+01 0.00000E+00
 -1      3597 1.26285E+02 1.30542E+01 0.00000E+00
 -1      3598 1.24785E+02 1.30542E+01 0.00000E+00
 -1      3599 1.24035E+02 1.43532E+01 0.00000E+00
 -1      3600 1.29285E+02 1.30542E+01 0.00000E+00
 -1      3601 1.27785E+02 1.30542E+01 0.00000E+00
 -1      3602 1.27035E+02 1.43532E+01 0.00000E+00
 -1      3603 1.32285E+02 1.30542E+01 0.00000E+00
 -1      3604 1.30785E+02 1.30542E+01 0.00000E+00
 -1      3605 1.30035E+02 1.43532E+01 0.00000E+00
 -1      3606 1.35285E+02 1.30542E+01 0.00000E+00
 -1      3607 1.33785E+02 1.30542E+01 0.00000E+00
 -1      3608 1.33035E+02 1.43532E+01 0.00000E+00
 -1      3609 2.12850E+01 1.30992E+01 0.00000E+00
 -1      3610 1.97850E+01 1.30992E+01 0.00000E+00
 -1      3611 2.42850E+01 1.30992E+01 0.00000E+00
 -1      3612 2.27850E+01 1.30992E+01 0.00000E+00
 -1      3613 2.20350E+01 1.43982E+01 0.00000E+00
 -1      3614 3.19033E+01 1.75266E+01 0.00000E+00
 -1      3615 3.24239E+01 1.61436E+01 0.00000E+00
 -1      3616 5.32379E+01 1.28771E+01 0.00000E+00
 -1      3617 5.94079E+01 3.32596E+01 0.00000E+00
 -1      3618 5.88325E+01 3.43063E+01 0.00000E+00
 -1      3619 3.11963E+01 3.33583E+01 0.00000E+00
 -1      3620 3.05531E+01 3.18232E+01 0.00000E+00
 -1      3621 3.21726E+01 3.53213E+01 0.00000E+00
 -1      3622 1.16910E+01 2.71844E+01 0.00000E+00
 -1      3623 1.16910E+01 2.86531E+01 0.00000E+00
 -1      3624 1.29900E+01 2.93875E+01 0.00000E+00
 -1      3625 3.49045E+01 1.26731E+01 0.00000E+00
 -1      3626 2.94636E+01 2.33054E+01 0.00000E+00
 -1      3627 2.98795E+01 2.18183E+01 0.00000E+00
 -1      3628 5.80825E+01 3.56053E+01 0.00000E+00
 -1      3629 6.32850E+01 1.30542E+01 0.00000E+00
 -1      3630 6.17850E+01 1.30542E+01 0.00000E+00
 -1      3631 6.40350E+01 1.43532E+01 0.00000E+00
 -1      3632 6.05159E+01 1.34471E+01 0.00000E+00
 -1      3633 5.90159E+01 1.34471E+01 0.00000E+00
 -1      3634 5.87276E+01 1.55319E+01 0.00000E+00
 -1      3635 6.12659E+01 1.47461E+01 0.00000E+00
 -1      3636 3.04585E+01 2.03139E+01 0.00000E+00
 -1      3637 3.11809E+01 1.89202E+01 0.00000E+00
 -1      3638 3.04034E+01 1.78381E+01 0.00000E+00
 -1      3639 1.74000E+01 3.57110E+01 0.00000E+00
 -1      3640 1.89000E+01 3.57110E+01 0.00000E+00
 -1      3641 1.96500E+01 3.44120E+01 0.00000E+00
 -1      3642 2.95511E+01 2.70069E+01 0.00000E+00
 -1      3643 2.93317E+01 2.53536E+01 0.00000E+00
 -1      3644 3.40763E+01 1.36837E+01 0.00000E+00
 -1      3645 3.32068E+01 1.28109E+01 0.00000E+00
 -1      3646 3.17068E+01 1.28109E+01 0.00000E+00
 -1      3647 3.30503E+01 1.48321E+01 0.00000E+00
 -1      3648 1.20210E+01 3.61362E+01 0.00000E+00
 -1      3649 2.72850E+01 1.30992E+01 0.00000E+00
 -1      3650 2.57850E+01 1.30992E+01 0.00000E+00
 -1      3651 2.80350E+01 1.43982E+01 0.00000E+00
 -1      3652 1.38643E+02 1.48012E+01 0.00000E+00
 -1      3653 1.38709E+02 1.35609E+01 0.00000E+00
 -1      3654 1.37750E+02 1.33275E+01 0.00000E+00
 -1      3655 1.37344E+02 1.55387E+01 0.00000E+00
 -1      3656 1.33200E+01 3.54019E+01 0.00000E+00
 -1      3657 3.06737E+01 3.50470E+01 0.00000E+00
 -1      3658 1.44275E+01 3.43367E+01 0.00000E+00
 -1      3659 1.47575E+01 3.59448E+01 0.00000E+00
 -1      3660 2.91737E+01 3.50470E+01 0.00000E+00
 -1      3661 2.85221E+01 2.79578E+01 0.00000E+00
 -1      3662 1.84669E+01 1.29495E+01 0.00000E+00
 -1      3663 1.71488E+01 1.27997E+01 0.00000E+00
 -1      3664 1.92169E+01 1.42485E+01 0.00000E+00
 -1      3665 2.84237E+01 3.37480E+01 0.00000E+00
 -1      3666 1.62575E+01 3.59448E+01 0.00000E+00
 -1      3667 5.87053E+01 1.63491E+01 0.00000E+00
 -1      3668 5.88614E+01 1.72762E+01 0.00000E+00
 -1      3669 5.99297E+01 1.75907E+01 0.00000E+00
 -1      3670 5.99744E+01 1.59562E+01 0.00000E+00
 -1      3671 1.35711E+02 2.42875E+01 0.00000E+00
 -1      3672 1.35711E+02 2.28125E+01 0.00000E+00
 -1      3673 2.50350E+01 1.43982E+01 0.00000E+00
 -1      3674 1.34022E+02 3.60267E+01 0.00000E+00
 -1      3675 1.35329E+02 3.61265E+01 0.00000E+00
 -1      3676 1.35515E+02 3.52691E+01 0.00000E+00
 -1      3677 1.33272E+02 3.47277E+01 0.00000E+00
 -1      3678 1.44275E+01 3.28679E+01 0.00000E+00
 -1      3679 1.58650E+01 3.34109E+01 0.00000E+00
 -1      3680 1.44275E+01 3.13992E+01 0.00000E+00
 -1      3681 1.35711E+02 3.01500E+01 0.00000E+00
 -1      3682 1.35711E+02 2.86875E+01 0.00000E+00
 -1      3683 1.34412E+02 3.08875E+01 0.00000E+00
 -1      3684 1.35711E+02 2.13375E+01 0.00000E+00
 -1      3685 1.35711E+02 1.98625E+01 0.00000E+00
 -1      3686 1.34412E+02 2.20750E+01 0.00000E+00
 -1      3687 2.91019E+01 2.07362E+01 0.00000E+00
 -1      3688 3.17522E+01 1.51330E+01 0.00000E+00
 -1      3689 1.36791E+02 1.30942E+01 0.00000E+00
 -1      3690 6.04101E+01 3.26585E+01 0.00000E+00
 -1      3691 2.92413E+01 3.13312E+01 0.00000E+00
 -1      3692 3.09568E+01 1.41099E+01 0.00000E+00
 -1      3693 1.29900E+01 2.64469E+01 0.00000E+00
 -1      3694 6.09045E+01 2.87096E+01 0.00000E+00
 -1      3695 6.14203E+01 2.98352E+01 0.00000E+00
 -1      3696 6.05624E+01 2.01176E+01 0.00000E+00
 -1      3697 6.14898E+01 2.08427E+01 0.00000E+00
 -1      3698 6.08348E+01 1.91331E+01 0.00000E+00
 -1      3699 1.42890E+01 1.39344E+01 0.00000E+00
 -1      3700 1.42890E+01 1.54031E+01 0.00000E+00
 -1      3701 1.35711E+02 2.57500E+01 0.00000E+00
 -1      3702 1.34412E+02 2.50125E+01 0.00000E+00
 -1      3703 1.35711E+02 2.72125E+01 0.00000E+00
 -1      3704 1.42890E+01 2.27625E+01 0.00000E+00
 -1      3705 1.42890E+01 2.42375E+01 0.00000E+00
 -1      3706 2.83910E+01 2.42889E+01 0.00000E+00
 -1      3707 2.74503E+01 2.32242E+01 0.00000E+00
 -1      3708 2.73183E+01 2.52724E+01 0.00000E+00
 -1      3709 1.36041E+02 1.43932E+01 0.00000E+00
 -1      3710 6.18761E+01 2.27900E+01 0.00000E+00
 -1      3711 6.13685E+01 2.37813E+01 0.00000E+00
 -1      3712 6.12275E+01 2.49811E+01 0.00000E+00
 -1      3713 6.10866E+01 2.61809E+01 0.00000E+00
 -1      3714 6.23938E+01 2.49527E+01 0.00000E+00
 -1      3715 1.35777E+02 1.86222E+01 0.00000E+00
 -1      3716 1.35842E+02 1.73818E+01 0.00000E+00
 -1      3717 1.34478E+02 1.93597E+01 0.00000E+00
 -1      3718 6.10455E+01 2.75098E+01 0.00000E+00
 -1      3719 1.70075E+01 3.46458E+01 0.00000E+00
 -1      3720 1.42890E+01 1.98188E+01 0.00000E+00
 -1      3721 1.42890E+01 2.12906E+01 0.00000E+00
 -1      3722 1.55880E+01 2.20281E+01 0.00000E+00
 -1      3723 1.35702E+02 3.44117E+01 0.00000E+00
 -1      3724 1.34403E+02 3.36742E+01 0.00000E+00
 -1      3725 2.49000E+01 3.31130E+01 0.00000E+00
 -1      3726 2.64000E+01 3.31130E+01 0.00000E+00
 -1      3727 6.19101E+01 3.26585E+01 0.00000E+00
 -1      3728 2.74763E+01 2.89592E+01 0.00000E+00
 -1      3729 2.72133E+01 2.73385E+01 0.00000E+00
 -1      3730 2.57850E+01 1.56973E+01 0.00000E+00
 -1      3731 2.42850E+01 1.56973E+01 0.00000E+00
 -1      3732 7.37850E+01 1.56522E+01 0.00000E+00
 -1      3733 7.22850E+01 1.56522E+01 0.00000E+00
 -1      3734 6.69000E+01 3.31580E+01 0.00000E+00
 -1      3735 6.84000E+01 3.31580E+01 0.00000E+00
 -1      3736 6.99000E+01 3.31580E+01 0.00000E+00
 -1      3737 7.14000E+01 3.31580E+01 0.00000E+00
 -1      3738 6.91500E+01 3.18590E+01 0.00000E+00
 -1      3739 7.29000E+01 3.31580E+01 0.00000E+00
 -1      3740 7.44000E+01 3.31580E+01 0.00000E+00
 -1      3741 7.21500E+01 3.18590E+01 0.00000E+00
 -1      3742 7.59000E+01 3.31580E+01 0.00000E+00
 -1      3743 7.74000E+01 3.31580E+01 0.00000E+00
 -1      3744 7.51500E+01 3.18590E+01 0.00000E+00
 -1      3745 7.89000E+01 3.31580E+01 0.00000E+00
 -1      3746 8.04000E+01 3.31580E+01 0.00000E+00
 -1      3747 7.81500E+01 3.18590E+01 0.00000E+00
 -1      3748 8.19000E+01 3.31580E+01 0.00000E+00
 -1      3749 8.34000E+01 3.31580E+01 0.00000E+00
 -1      3750 8.11500E+01 3.18590E+01 0.00000E+00
 -1      3751 8.49000E+01 3.31580E+01 0.00000E+00
 -1      3752 8.64000E+01 3.31580E+01 0.00000E+00
 -1      3753 8.41500E+01 3.18590E+01 0.00000E+00
 -1      3754 8.79000E+01 3.31580E+01 0.00000E+00
 -1      3755 8.94000E+01 3.31580E+01 0.00000E+00
 -1      3756 8.71500E+01 3.18590E+01 0.00000E+00
 -1      3757 9.09000E+01 3.31580E+01 0.00000E+00
 -1      3758 9.24000E+01 3.31580E+01 0.00000E+00
 -1      3759 9.01500E+01 3.18590E+01 0.00000E+00
 -1      3760 9.39000E+01 3.31580E+01 0.00000E+00
 -1      3761 9.54000E+01 3.31580E+01 0.00000E+00
 -1      3762 9.31500E+01 3.18590E+01 0.00000E+00
 -1      3763 9.69000E+01 3.31580E+01 0.00000E+00
 -1      3764 9.84000E+01 3.31580E+01 0.00000E+00
 -1      3765 9.61500E+01 3.18590E+01 0.00000E+00
 -1      3766 9.99000E+01 3.31580E+01 0.00000E+00
 -1      3767 1.01400E+02 3.31580E+01 0.00000E+00
 -1      3768 9.91500E+01 3.18590E+01 0.00000E+00
 -1      3769 1.02900E+02 3.31580E+01 0.00000E+00
 -1      3770 1.04400E+02 3.31580E+01 0.00000E+00
 -1      3771 1.02150E+02 3.18590E+01 0.00000E+00
 -1      3772 1.05900E+02 3.31580E+01 0.00000E+00
 -1      3773 1.07400E+02 3.31580E+01 0.00000E+00
 -1      3774 1.05150E+02 3.18590E+01 0.00000E+00
 -1      3775 1.08900E+02 3.31580E+01 0.00000E+00
 -1      3776 1.10400E+02 3.31580E+01 0.00000E+00
 -1      3777 1.08150E+02 3.18590E+01 0.00000E+00
 -1      3778 1.11900E+02 3.31580E+01 0.00000E+00
 -1      3779 1.13400E+02 3.31580E+01 0.00000E+00
 -1      3780 1.11150E+02 3.18590E+01 0.00000E+00
 -1      3781 1.14900E+02 3.31580E+01 0.00000E+00
 -1      3782 1.16400E+02 3.31580E+01 0.00000E+00
 -1      3783 1.14150E+02 3.18590E+01 0.00000E+00
 -1      3784 1.17900E+02 3.31580E+01 0.00000E+00
 -1      3785 1.19400E+02 3.31580E+01 0.00000E+00
 -1      3786 1.17150E+02 3.18590E+01 0.00000E+00
 -1      3787 1.20900E+02 3.31580E+01 0.00000E+00
 -1      3788 1.22400E+02 3.31580E+01 0.00000E+00
 -1      3789 1.20150E+02 3.18590E+01 0.00000E+00
 -1      3790 1.23900E+02 3.31580E+01 0.00000E+00
 -1      3791 1.25400E+02 3.31580E+01 0.00000E+00
 -1      3792 1.23150E+02 3.18590E+01 0.00000E+00
 -1      3793 1.26900E+02 3.31580E+01 0.00000E+00
 -1      3794 1.28400E+02 3.31580E+01 0.00000E+00
 -1      3795 1.26150E+02 3.18590E+01 0.00000E+00
 -1      3796 1.29900E+02 3.31580E+01 0.00000E+00
 -1      3797 1.31400E+02 3.31580E+01 0.00000E+00
 -1      3798 1.29150E+02 3.18590E+01 0.00000E+00
 -1      3799 1.33281E+02 3.34035E+01 0.00000E+00
 -1      3800 7.07850E+01 1.56522E+01 0.00000E+00
 -1      3801 6.92850E+01 1.56522E+01 0.00000E+00
 -1      3802 7.15350E+01 1.69512E+01 0.00000E+00
 -1      3803 1.33113E+02 2.28125E+01 0.00000E+00
 -1      3804 1.33113E+02 2.13375E+01 0.00000E+00
 -1      3805 2.76211E+01 2.10299E+01 0.00000E+00
 -1      3806 2.82001E+01 1.95255E+01 0.00000E+00
 -1      3807 6.77850E+01 1.56522E+01 0.00000E+00
 -1      3808 6.62850E+01 1.56522E+01 0.00000E+00
 -1      3809 6.85350E+01 1.69512E+01 0.00000E+00
 -1      3810 7.67850E+01 1.56522E+01 0.00000E+00
 -1      3811 7.52850E+01 1.56522E+01 0.00000E+00
 -1      3812 7.45350E+01 1.69512E+01 0.00000E+00
 -1      3813 7.97850E+01 1.56522E+01 0.00000E+00
 -1      3814 7.82850E+01 1.56522E+01 0.00000E+00
 -1      3815 7.75350E+01 1.69512E+01 0.00000E+00
 -1      3816 8.27850E+01 1.56522E+01 0.00000E+00
 -1      3817 8.12850E+01 1.56522E+01 0.00000E+00
 -1      3818 8.05350E+01 1.69512E+01 0.00000E+00
 -1      3819 8.57850E+01 1.56522E+01 0.00000E+00
 -1      3820 8.42850E+01 1.56522E+01 0.00000E+00
 -1      3821 8.35350E+01 1.69512E+01 0.00000E+00
 -1      3822 8.87850E+01 1.56522E+01 0.00000E+00
 -1      3823 8.72850E+01 1.56522E+01 0.00000E+00
 -1      3824 8.65350E+01 1.69512E+01 0.00000E+00
 -1      3825 9.17850E+01 1.56522E+01 0.00000E+00
 -1      3826 9.02850E+01 1.56522E+01 0.00000E+00
 -1      3827 8.95350E+01 1.69512E+01 0.00000E+00
 -1      3828 9.47850E+01 1.56522E+01 0.00000E+00
 -1      3829 9.32850E+01 1.56522E+01 0.00000E+00
 -1      3830 9.25350E+01 1.69512E+01 0.00000E+00
 -1      3831 9.77850E+01 1.56522E+01 0.00000E+00
 -1      3832 9.62850E+01 1.56522E+01 0.00000E+00
 -1      3833 9.55350E+01 1.69512E+01 0.00000E+00
 -1      3834 1.00785E+02 1.56522E+01 0.00000E+00
 -1      3835 9.92850E+01 1.56522E+01 0.00000E+00
 -1      3836 9.85350E+01 1.69512E+01 0.00000E+00
 -1      3837 1.03785E+02 1.56522E+01 0.00000E+00
 -1      3838 1.02285E+02 1.56522E+01 0.00000E+00
 -1      3839 1.01535E+02 1.69512E+01 0.00000E+00
 -1      3840 1.06785E+02 1.56522E+01 0.00000E+00
 -1      3841 1.05285E+02 1.56522E+01 0.00000E+00
 -1      3842 1.04535E+02 1.69512E+01 0.00000E+00
 -1      3843 1.09785E+02 1.56522E+01 0.00000E+00
 -1      3844 1.08285E+02 1.56522E+01 0.00000E+00
 -1      3845 1.07535E+02 1.69512E+01 0.00000E+00
 -1      3846 1.12785E+02 1.56522E+01 0.00000E+00
 -1      3847 1.11285E+02 1.56522E+01 0.00000E+00
 -1      3848 1.10535E+02 1.69512E+01 0.00000E+00
 -1      3849 1.15785E+02 1.56522E+01 0.00000E+00
 -1      3850 1.14285E+02 1.56522E+01 0.00000E+00
 -1      3851 1.13535E+02 1.69512E+01 0.00000E+00
 -1      3852 1.18785E+02 1.56522E+01 0.00000E+00
 -1      3853 1.17285E+02 1.56522E+01 0.00000E+00
 -1      3854 1.16535E+02 1.69512E+01 0.00000E+00
 -1      3855 1.21785E+02 1.56522E+01 0.00000E+00
 -1      3856 1.20285E+02 1.56522E+01 0.00000E+00
 -1      3857 1.19535E+02 1.69512E+01 0.00000E+00
 -1      3858 1.24785E+02 1.56522E+01 0.00000E+00
 -1      3859 1.23285E+02 1.56522E+01 0.00000E+00
 -1      3860 1.22535E+02 1.69512E+01 0.00000E+00
 -1      3861 1.27785E+02 1.56522E+01 0.00000E+00
 -1      3862 1.26285E+02 1.56522E+01 0.00000E+00
 -1      3863 1.25535E+02 1.69512E+01 0.00000E+00
 -1      3864 1.30785E+02 1.56522E+01 0.00000E+00
 -1      3865 1.29285E+02 1.56522E+01 0.00000E+00
 -1      3866 1.28535E+02 1.69512E+01 0.00000E+00
 -1      3867 2.76737E+01 3.24490E+01 0.00000E+00
 -1      3868 2.27850E+01 1.56973E+01 0.00000E+00
 -1      3869 2.12850E+01 1.56973E+01 0.00000E+00
 -1      3870 2.35350E+01 1.69963E+01 0.00000E+00
 -1      3871 1.89000E+01 3.31130E+01 0.00000E+00
 -1      3872 2.04000E+01 3.31130E+01 0.00000E+00
 -1      3873 1.70075E+01 3.31771E+01 0.00000E+00
 -1      3874 1.46944E+01 1.23503E+01 0.00000E+00
 -1      3875 1.59934E+01 1.30847E+01 0.00000E+00
 -1      3876 6.47850E+01 1.56522E+01 0.00000E+00
 -1      3877 6.32850E+01 1.56522E+01 0.00000E+00
 -1      3878 6.55350E+01 1.69512E+01 0.00000E+00
 -1      3879 6.24620E+01 2.16825E+01 0.00000E+00
 -1      3880 6.31207E+01 2.26454E+01 0.00000E+00
 -1      3881 3.03304E+01 1.54214E+01 0.00000E+00
 -1      3882 2.89041E+01 1.81702E+01 0.00000E+00
 -1      3883 2.96265E+01 1.67766E+01 0.00000E+00
 -1      3884 2.88311E+01 1.57535E+01 0.00000E+00
 -1      3885 2.74232E+01 1.84640E+01 0.00000E+00
 -1      3886 1.42890E+01 1.68750E+01 0.00000E+00
 -1      3887 1.42890E+01 1.83469E+01 0.00000E+00
 -1      3888 1.55880E+01 1.90844E+01 0.00000E+00
 -1      3889 2.72176E+01 3.06962E+01 0.00000E+00
 -1      3890 1.35838E+02 1.54988E+01 0.00000E+00
 -1      3891 1.44275E+01 2.84617E+01 0.00000E+00
 -1      3892 1.44275E+01 2.99304E+01 0.00000E+00
 -1      3893 1.58650E+01 3.04734E+01 0.00000E+00
 -1      3894 6.22117E+01 2.74815E+01 0.00000E+00
 -1      3895 1.43582E+01 2.56137E+01 0.00000E+00
 -1      3896 1.43582E+01 2.70855E+01 0.00000E+00
 -1      3897 1.57957E+01 2.76285E+01 0.00000E+00
 -1      3898 1.56572E+01 2.48762E+01 0.00000E+00
 -1      3899 2.73311E+01 1.57535E+01 0.00000E+00
 -1      3900 2.19000E+01 3.31130E+01 0.00000E+00
 -1      3901 2.34000E+01 3.31130E+01 0.00000E+00
 -1      3902 2.11500E+01 3.18140E+01 0.00000E+00
 -1      3903 1.55880E+01 1.61406E+01 0.00000E+00
 -1      3904 6.22720E+01 3.10822E+01 0.00000E+00
 -1      3905 6.35120E+01 3.28808E+01 0.00000E+00
 -1      3906 1.32531E+02 3.21045E+01 0.00000E+00
 -1      3907 1.34539E+02 1.62363E+01 0.00000E+00
 -1      3908 1.67434E+01 1.43837E+01 0.00000E+00
 -1      3909 2.65811E+01 1.70525E+01 0.00000E+00
 -1      3910 1.68870E+01 2.12922E+01 0.00000E+00
 -1      3911 1.68870E+01 2.27641E+01 0.00000E+00
 -1      3912 1.99669E+01 1.55475E+01 0.00000E+00
 -1      3913 1.86488E+01 1.53977E+01 0.00000E+00
 -1      3914 2.07169E+01 1.68465E+01 0.00000E+00
 -1      3915 2.41500E+01 3.18140E+01 0.00000E+00
 -1      3916 1.32531E+02 3.06420E+01 0.00000E+00
 -1      3917 2.59088E+01 3.00770E+01 0.00000E+00
 -1      3918 1.31880E+02 2.08347E+01 0.00000E+00
 -1      3919 1.33179E+02 2.00972E+01 0.00000E+00
 -1      3920 1.33244E+02 1.88568E+01 0.00000E+00
 -1      3921 2.52268E+01 2.72753E+01 0.00000E+00
 -1      3922 2.62725E+01 2.62738E+01 0.00000E+00
 -1      3923 2.53318E+01 2.52091E+01 0.00000E+00
 -1      3924 6.50120E+01 3.28808E+01 0.00000E+00
 -1      3925 1.33039E+02 1.62363E+01 0.00000E+00
 -1      3926 2.65485E+01 2.20135E+01 0.00000E+00
 -1      3927 2.56467E+01 2.08028E+01 0.00000E+00
 -1      3928 2.54758E+01 2.29970E+01 0.00000E+00
 -1      3929 1.33113E+02 2.42750E+01 0.00000E+00
 -1      3930 1.31814E+02 2.35375E+01 0.00000E+00
 -1      3931 1.33113E+02 2.57375E+01 0.00000E+00
 -1      3932 6.44679E+01 2.26494E+01 0.00000E+00
 -1      3933 6.38819E+01 2.37569E+01 0.00000E+00
 -1      3934 1.32289E+02 1.75353E+01 0.00000E+00
 -1      3935 1.76961E+01 1.56266E+01 0.00000E+00
 -1      3936 1.65407E+01 1.59117E+01 0.00000E+00
 -1      3937 1.65407E+01 1.73835E+01 0.00000E+00
 -1      3938 1.84461E+01 1.69256E+01 0.00000E+00
 -1      3939 1.77575E+01 3.18781E+01 0.00000E+00
 -1      3940 5.41010E+01 1.27732E+01 0.00000E+00
 -1      3941 6.57620E+01 3.15818E+01 0.00000E+00
 -1      3942 1.34412E+02 2.79500E+01 0.00000E+00
 -1      3943 6.08572E+01 1.83158E+01 0.00000E+00
 -1      3944 6.17846E+01 1.90409E+01 0.00000E+00
 -1      3945 6.08795E+01 1.74986E+01 0.00000E+00
 -1      3946 6.27344E+01 2.06980E+01 0.00000E+00
 -1      3947 6.29209E+01 1.75874E+01 0.00000E+00
 -1      3948 6.21709E+01 1.62884E+01 0.00000E+00
 -1      3949 6.50882E+01 2.49607E+01 0.00000E+00
 -1      3950 6.37410E+01 2.49567E+01 0.00000E+00
 -1      3951 6.36001E+01 2.61565E+01 0.00000E+00
 -1      3952 6.30223E+01 3.00575E+01 0.00000E+00
 -1      3953 1.69562E+01 2.41402E+01 0.00000E+00
 -1      3954 1.70255E+01 2.55164E+01 0.00000E+00
 -1      3955 1.82552E+01 2.34043E+01 0.00000E+00
 -1      3956 6.33318E+01 2.74425E+01 0.00000E+00
 -1      3957 6.32906E+01 2.87715E+01 0.00000E+00
 -1      3958 6.41423E+01 3.00185E+01 0.00000E+00
 -1      3959 6.46790E+01 2.74465E+01 0.00000E+00
 -1      3960 5.53012E+01 1.35605E+01 0.00000E+00
 -1      3961 1.77575E+01 3.04093E+01 0.00000E+00
 -1      3962 7.14000E+01 3.05600E+01 0.00000E+00
 -1      3963 7.29000E+01 3.05600E+01 0.00000E+00
 -1      3964 7.44000E+01 3.05600E+01 0.00000E+00
 -1      3965 7.59000E+01 3.05600E+01 0.00000E+00
 -1      3966 7.36500E+01 2.92610E+01 0.00000E+00
 -1      3967 7.74000E+01 3.05600E+01 0.00000E+00
 -1      3968 7.89000E+01 3.05600E+01 0.00000E+00
 -1      3969 7.66500E+01 2.92610E+01 0.00000E+00
 -1      3970 8.04000E+01 3.05600E+01 0.00000E+00
 -1      3971 8.19000E+01 3.05600E+01 0.00000E+00
 -1      3972 7.96500E+01 2.92610E+01 0.00000E+00
 -1      3973 8.34000E+01 3.05600E+01 0.00000E+00
 -1      3974 8.49000E+01 3.05600E+01 0.00000E+00
 -1      3975 8.26500E+01 2.92610E+01 0.00000E+00
 -1      3976 8.64000E+01 3.05600E+01 0.00000E+00
 -1      3977 8.79000E+01 3.05600E+01 0.00000E+00
 -1      3978 8.56500E+01 2.92610E+01 0.00000E+00
 -1      3979 8.94000E+01 3.05600E+01 0.00000E+00
 -1      3980 9.09000E+01 3.05600E+01 0.00000E+00
 -1      3981 8.86500E+01 2.92610E+01 0.00000E+00
 -1      3982 9.24000E+01 3.05600E+01 0.00000E+00
 -1      3983 9.39000E+01 3.05600E+01 0.00000E+00
 -1      3984 9.16500E+01 2.92610E+01 0.00000E+00
 -1      3985 9.54000E+01 3.05600E+01 0.00000E+00
 -1      3986 9.69000E+01 3.05600E+01 0.00000E+00
 -1      3987 9.46500E+01 2.92610E+01 0.00000E+00
 -1      3988 9.84000E+01 3.05600E+01 0.00000E+00
 -1      3989 9.99000E+01 3.05600E+01 0.00000E+00
 -1      3990 9.76500E+01 2.92610E+01 0.00000E+00
 -1      3991 1.01400E+02 3.05600E+01 0.00000E+00
 -1      3992 1.02900E+02 3.05600E+01 0.00000E+00
 -1      3993 1.00650E+02 2.92610E+01 0.00000E+00
 -1      3994 1.04400E+02 3.05600E+01 0.00000E+00
 -1      3995 1.05900E+02 3.05600E+01 0.00000E+00
 -1      3996 1.03650E+02 2.92610E+01 0.00000E+00
 -1      3997 1.07400E+02 3.05600E+01 0.00000E+00
 -1      3998 1.08900E+02 3.05600E+01 0.00000E+00
 -1      3999 1.06650E+02 2.92610E+01 0.00000E+00
 -1      4000 1.10400E+02 3.05600E+01 0.00000E+00
 -1      4001 1.11900E+02 3.05600E+01 0.00000E+00
 -1      4002 1.09650E+02 2.92610E+01 0.00000E+00
 -1      4003 1.13400E+02 3.05600E+01 0.00000E+00
 -1      4004 1.14900E+02 3.05600E+01 0.00000E+00
 -1      4005 1.12650E+02 2.92610E+01 0.00000E+00
 -1      4006 1.16400E+02 3.05600E+01 0.00000E+00
 -1      4007 1.17900E+02 3.05600E+01 0.00000E+00
 -1      4008 1.15650E+02 2.92610E+01 0.00000E+00
 -1      4009 1.19400E+02 3.05600E+01 0.00000E+00
 -1      4010 1.20900E+02 3.05600E+01 0.00000E+00
 -1      4011 1.18650E+02 2.92610E+01 0.00000E+00
 -1      4012 1.22400E+02 3.05600E+01 0.00000E+00
 -1      4013 1.23900E+02 3.05600E+01 0.00000E+00
 -1      4014 1.21650E+02 2.92610E+01 0.00000E+00
 -1      4015 1.25400E+02 3.05600E+01 0.00000E+00
 -1      4016 1.26900E+02 3.05600E+01 0.00000E+00
 -1      4017 1.24650E+02 2.92610E+01 0.00000E+00
 -1      4018 1.28400E+02 3.05600E+01 0.00000E+00
 -1      4019 1.29900E+02 3.05600E+01 0.00000E+00
 -1      4020 1.27650E+02 2.92610E+01 0.00000E+00
 -1      4021 7.22850E+01 1.82502E+01 0.00000E+00
 -1      4022 7.07850E+01 1.82502E+01 0.00000E+00
 -1      4023 2.45590E+01 3.04131E+01 0.00000E+00
 -1      4024 2.48178E+01 2.86761E+01 0.00000E+00
 -1      4025 2.38770E+01 2.76114E+01 0.00000E+00
 -1      4026 2.30590E+01 3.04131E+01 0.00000E+00
 -1      4027 6.50713E+01 2.14197E+01 0.00000E+00
 -1      4028 6.58325E+01 2.25312E+01 0.00000E+00
 -1      4029 1.67138E+01 1.86019E+01 0.00000E+00
 -1      4030 1.67138E+01 2.00738E+01 0.00000E+00
 -1      4031 1.80128E+01 2.08097E+01 0.00000E+00
 -1      4032 1.76665E+01 1.83730E+01 0.00000E+00
 -1      4033 1.30990E+02 1.82728E+01 0.00000E+00
 -1      4034 8.12850E+01 1.82502E+01 0.00000E+00
 -1      4035 7.97850E+01 1.82502E+01 0.00000E+00
 -1      4036 8.42850E+01 1.82502E+01 0.00000E+00
 -1      4037 8.27850E+01 1.82502E+01 0.00000E+00
 -1      4038 8.20350E+01 1.95492E+01 0.00000E+00
 -1      4039 8.72850E+01 1.82502E+01 0.00000E+00
 -1      4040 8.57850E+01 1.82502E+01 0.00000E+00
 -1      4041 8.50350E+01 1.95492E+01 0.00000E+00
 -1      4042 9.02850E+01 1.82502E+01 0.00000E+00
 -1      4043 8.87850E+01 1.82502E+01 0.00000E+00
 -1      4044 8.80350E+01 1.95492E+01 0.00000E+00
 -1      4045 9.32850E+01 1.82502E+01 0.00000E+00
 -1      4046 9.17850E+01 1.82502E+01 0.00000E+00
 -1      4047 9.10350E+01 1.95492E+01 0.00000E+00
 -1      4048 9.62850E+01 1.82502E+01 0.00000E+00
 -1      4049 9.47850E+01 1.82502E+01 0.00000E+00
 -1      4050 9.40350E+01 1.95492E+01 0.00000E+00
 -1      4051 9.92850E+01 1.82502E+01 0.00000E+00
 -1      4052 9.77850E+01 1.82502E+01 0.00000E+00
 -1      4053 9.70350E+01 1.95492E+01 0.00000E+00
 -1      4054 1.02285E+02 1.82502E+01 0.00000E+00
 -1      4055 1.00785E+02 1.82502E+01 0.00000E+00
 -1      4056 1.00035E+02 1.95492E+01 0.00000E+00
 -1      4057 1.05285E+02 1.82502E+01 0.00000E+00
 -1      4058 1.03785E+02 1.82502E+01 0.00000E+00
 -1      4059 1.03035E+02 1.95492E+01 0.00000E+00
 -1      4060 1.08285E+02 1.82502E+01 0.00000E+00
 -1      4061 1.06785E+02 1.82502E+01 0.00000E+00
 -1      4062 1.06035E+02 1.95492E+01 0.00000E+00
 -1      4063 1.11285E+02 1.82502E+01 0.00000E+00
 -1      4064 1.09785E+02 1.82502E+01 0.00000E+00
 -1      4065 1.09035E+02 1.95492E+01 0.00000E+00
 -1      4066 1.14285E+02 1.82502E+01 0.00000E+00
 -1      4067 1.12785E+02 1.82502E+01 0.00000E+00
 -1      4068 1.12035E+02 1.95492E+01 0.00000E+00
 -1      4069 1.17285E+02 1.82502E+01 0.00000E+00
 -1      4070 1.15785E+02 1.82502E+01 0.00000E+00
 -1      4071 1.15035E+02 1.95492E+01 0.00000E+00
 -1      4072 1.20285E+02 1.82502E+01 0.00000E+00
 -1      4073 1.18785E+02 1.82502E+01 0.00000E+00
 -1      4074 1.18035E+02 1.95492E+01 0.00000E+00
 -1      4075 1.23285E+02 1.82502E+01 0.00000E+00
 -1      4076 1.21785E+02 1.82502E+01 0.00000E+00
 -1      4077 1.21035E+02 1.95492E+01 0.00000E+00
 -1      4078 1.26285E+02 1.82502E+01 0.00000E+00
 -1      4079 1.24785E+02 1.82502E+01 0.00000E+00
 -1      4080 1.24035E+02 1.95492E+01 0.00000E+00
 -1      4081 1.29285E+02 1.82502E+01 0.00000E+00
 -1      4082 1.27785E+02 1.82502E+01 0.00000E+00
 -1      4083 1.27035E+02 1.95492E+01 0.00000E+00
 -1      4084 6.67355E+01 1.91263E+01 0.00000E+00
 -1      4085 6.52355E+01 1.91263E+01 0.00000E+00
 -1      4086 2.42850E+01 1.82952E+01 0.00000E+00
 -1      4087 2.27850E+01 1.82952E+01 0.00000E+00
 -1      4088 6.95102E+01 1.86883E+01 0.00000E+00
 -1      4089 6.80102E+01 1.86883E+01 0.00000E+00
 -1      4090 6.77107E+01 2.08634E+01 0.00000E+00
 -1      4091 7.02602E+01 1.99873E+01 0.00000E+00
 -1      4092 6.12435E+01 1.55634E+01 0.00000E+00
 -1      4093 2.58772E+01 1.84077E+01 0.00000E+00
 -1      4094 1.70947E+01 2.68925E+01 0.00000E+00
 -1      4095 1.71640E+01 2.82687E+01 0.00000E+00
 -1      4096 1.83937E+01 2.61566E+01 0.00000E+00
 -1      4097 6.84000E+01 3.05600E+01 0.00000E+00
 -1      4098 6.99000E+01 3.05600E+01 0.00000E+00
 -1      4099 7.06500E+01 2.92610E+01 0.00000E+00
 -1      4100 6.60303E+01 3.02958E+01 0.00000E+00
 -1      4101 7.82850E+01 1.82502E+01 0.00000E+00
 -1      4102 7.67850E+01 1.82502E+01 0.00000E+00
 -1      4103 7.90350E+01 1.95492E+01 0.00000E+00
 -1      4104 1.90565E+01 2.96734E+01 0.00000E+00
 -1      4105 2.51272E+01 1.97067E+01 0.00000E+00
 -1      4106 1.31215E+02 2.98635E+01 0.00000E+00
 -1      4107 1.33096E+02 2.86465E+01 0.00000E+00
 -1      4108 1.33096E+02 2.71715E+01 0.00000E+00
 -1      4109 1.30465E+02 2.85645E+01 0.00000E+00
 -1      4110 7.52850E+01 1.82502E+01 0.00000E+00
 -1      4111 7.37850E+01 1.82502E+01 0.00000E+00
 -1      4112 7.30350E+01 1.95492E+01 0.00000E+00
 -1      4113 7.60350E+01 1.95492E+01 0.00000E+00
 -1      4114 6.67803E+01 2.89968E+01 0.00000E+00
 -1      4115 6.38708E+01 1.92445E+01 0.00000E+00
 -1      4116 2.44300E+01 2.39984E+01 0.00000E+00
 -1      4117 2.35282E+01 2.27877E+01 0.00000E+00
 -1      4118 2.33842E+01 2.49998E+01 0.00000E+00
 -1      4119 1.31798E+02 2.64340E+01 0.00000E+00
 -1      4120 1.92123E+01 2.00178E+01 0.00000E+00
 -1      4121 1.93855E+01 2.12362E+01 0.00000E+00
 -1      4122 2.15337E+01 2.21167E+01 0.00000E+00
 -1      4123 2.03342E+01 2.29086E+01 0.00000E+00
 -1      4124 1.30240E+02 1.95718E+01 0.00000E+00
 -1      4125 2.20600E+01 2.00192E+01 0.00000E+00
 -1      4126 2.13100E+01 1.87202E+01 0.00000E+00
 -1      4127 2.40545E+01 2.06903E+01 0.00000E+00
 -1      4128 6.63432E+01 2.44999E+01 0.00000E+00
 -1      4129 6.62023E+01 2.56997E+01 0.00000E+00
 -1      4130 1.99919E+01 1.85704E+01 0.00000E+00
 -1      4131 6.73287E+01 2.20668E+01 0.00000E+00
 -1      4132 6.67253E+01 2.32965E+01 0.00000E+00
 -1      4133 6.78394E+01 2.40355E+01 0.00000E+00
 -1      4134 6.86034E+01 2.16287E+01 0.00000E+00
 -1      4135 1.30515E+02 2.42687E+01 0.00000E+00
 -1      4136 1.30515E+02 2.28062E+01 0.00000E+00
 -1      4137 2.04035E+01 2.42848E+01 0.00000E+00
 -1      4138 2.04000E+01 3.05150E+01 0.00000E+00
 -1      4139 2.19000E+01 3.05150E+01 0.00000E+00
 -1      4140 1.98065E+01 2.83744E+01 0.00000E+00
 -1      4141 2.23090E+01 2.91141E+01 0.00000E+00
 -1      4142 8.87850E+01 2.08482E+01 0.00000E+00
 -1      4143 8.72850E+01 2.08482E+01 0.00000E+00
 -1      4144 1.30174E+02 2.08121E+01 0.00000E+00
 -1      4145 2.19285E+01 2.53304E+01 0.00000E+00
 -1      4146 1.98495E+01 2.58260E+01 0.00000E+00
 -1      4147 1.99187E+01 2.72022E+01 0.00000E+00
 -1      4148 2.28303E+01 2.65411E+01 0.00000E+00
 -1      4149 7.59000E+01 2.79620E+01 0.00000E+00
 -1      4150 7.74000E+01 2.79620E+01 0.00000E+00
 -1      4151 7.89000E+01 2.79620E+01 0.00000E+00
 -1      4152 8.04000E+01 2.79620E+01 0.00000E+00
 -1      4153 7.81500E+01 2.66630E+01 0.00000E+00
 -1      4154 8.19000E+01 2.79620E+01 0.00000E+00
 -1      4155 8.34000E+01 2.79620E+01 0.00000E+00
 -1      4156 8.11500E+01 2.66630E+01 0.00000E+00
 -1      4157 8.49000E+01 2.79620E+01 0.00000E+00
 -1      4158 8.64000E+01 2.79620E+01 0.00000E+00
 -1      4159 8.41500E+01 2.66630E+01 0.00000E+00
 -1      4160 8.79000E+01 2.79620E+01 0.00000E+00
 -1      4161 8.94000E+01 2.79620E+01 0.00000E+00
 -1      4162 8.71500E+01 2.66630E+01 0.00000E+00
 -1      4163 9.09000E+01 2.79620E+01 0.00000E+00
 -1      4164 9.24000E+01 2.79620E+01 0.00000E+00
 -1      4165 9.01500E+01 2.66630E+01 0.00000E+00
 -1      4166 9.39000E+01 2.79620E+01 0.00000E+00
 -1      4167 9.54000E+01 2.79620E+01 0.00000E+00
 -1      4168 9.31500E+01 2.66630E+01 0.00000E+00
 -1      4169 9.69000E+01 2.79620E+01 0.00000E+00
 -1      4170 9.84000E+01 2.79620E+01 0.00000E+00
 -1      4171 9.61500E+01 2.66630E+01 0.00000E+00
 -1      4172 9.99000E+01 2.79620E+01 0.00000E+00
 -1      4173 1.01400E+02 2.79620E+01 0.00000E+00
 -1      4174 9.91500E+01 2.66630E+01 0.00000E+00
 -1      4175 1.02900E+02 2.79620E+01 0.00000E+00
 -1      4176 1.04400E+02 2.79620E+01 0.00000E+00
 -1      4177 1.02150E+02 2.66630E+01 0.00000E+00
 -1      4178 1.05900E+02 2.79620E+01 0.00000E+00
 -1      4179 1.07400E+02 2.79620E+01 0.00000E+00
 -1      4180 1.05150E+02 2.66630E+01 0.00000E+00
 -1      4181 1.08900E+02 2.79620E+01 0.00000E+00
 -1      4182 1.10400E+02 2.79620E+01 0.00000E+00
 -1      4183 1.08150E+02 2.66630E+01 0.00000E+00
 -1      4184 1.11900E+02 2.79620E+01 0.00000E+00
 -1      4185 1.13400E+02 2.79620E+01 0.00000E+00
 -1      4186 1.11150E+02 2.66630E+01 0.00000E+00
 -1      4187 1.14900E+02 2.79620E+01 0.00000E+00
 -1      4188 1.16400E+02 2.79620E+01 0.00000E+00
 -1      4189 1.14150E+02 2.66630E+01 0.00000E+00
 -1      4190 1.17900E+02 2.79620E+01 0.00000E+00
 -1      4191 1.19400E+02 2.79620E+01 0.00000E+00
 -1      4192 1.17150E+02 2.66630E+01 0.00000E+00
 -1      4193 1.20900E+02 2.79620E+01 0.00000E+00
 -1      4194 1.22400E+02 2.79620E+01 0.00000E+00
 -1      4195 1.20150E+02 2.66630E+01 0.00000E+00
 -1      4196 1.23900E+02 2.79620E+01 0.00000E+00
 -1      4197 1.25400E+02 2.79620E+01 0.00000E+00
 -1      4198 1.23150E+02 2.66630E+01 0.00000E+00
 -1      4199 1.26900E+02 2.79620E+01 0.00000E+00
 -1      4200 1.28400E+02 2.79620E+01 0.00000E+00
 -1      4201 1.26150E+02 2.66630E+01 0.00000E+00
 -1      4202 2.24213E+01 2.79420E+01 0.00000E+00
 -1      4203 1.86192E+01 1.81440E+01 0.00000E+00
 -1      4204 8.57850E+01 2.08482E+01 0.00000E+00
 -1      4205 8.42850E+01 2.08482E+01 0.00000E+00
 -1      4206 8.65350E+01 2.21472E+01 0.00000E+00
 -1      4207 8.27850E+01 2.08482E+01 0.00000E+00
 -1      4208 8.12850E+01 2.08482E+01 0.00000E+00
 -1      4209 8.35350E+01 2.21472E+01 0.00000E+00
 -1      4210 9.17850E+01 2.08482E+01 0.00000E+00
 -1      4211 9.02850E+01 2.08482E+01 0.00000E+00
 -1      4212 8.95350E+01 2.21472E+01 0.00000E+00
 -1      4213 9.47850E+01 2.08482E+01 0.00000E+00
 -1      4214 9.32850E+01 2.08482E+01 0.00000E+00
 -1      4215 9.25350E+01 2.21472E+01 0.00000E+00
 -1      4216 9.77850E+01 2.08482E+01 0.00000E+00
 -1      4217 9.62850E+01 2.08482E+01 0.00000E+00
 -1      4218 9.55350E+01 2.21472E+01 0.00000E+00
 -1      4219 1.00785E+02 2.08482E+01 0.00000E+00
 -1      4220 9.92850E+01 2.08482E+01 0.00000E+00
 -1      4221 9.85350E+01 2.21472E+01 0.00000E+00
 -1      4222 1.03785E+02 2.08482E+01 0.00000E+00
 -1      4223 1.02285E+02 2.08482E+01 0.00000E+00
 -1      4224 1.01535E+02 2.21472E+01 0.00000E+00
 -1      4225 1.06785E+02 2.08482E+01 0.00000E+00
 -1      4226 1.05285E+02 2.08482E+01 0.00000E+00
 -1      4227 1.04535E+02 2.21472E+01 0.00000E+00
 -1      4228 1.09785E+02 2.08482E+01 0.00000E+00
 -1      4229 1.08285E+02 2.08482E+01 0.00000E+00
 -1      4230 1.07535E+02 2.21472E+01 0.00000E+00
 -1      4231 1.12785E+02 2.08482E+01 0.00000E+00
 -1      4232 1.11285E+02 2.08482E+01 0.00000E+00
 -1      4233 1.10535E+02 2.21472E+01 0.00000E+00
 -1      4234 1.15785E+02 2.08482E+01 0.00000E+00
 -1      4235 1.14285E+02 2.08482E+01 0.00000E+00
 -1      4236 1.13535E+02 2.21472E+01 0.00000E+00
 -1      4237 1.18785E+02 2.08482E+01 0.00000E+00
 -1      4238 1.17285E+02 2.08482E+01 0.00000E+00
 -1      4239 1.16535E+02 2.21472E+01 0.00000E+00
 -1      4240 1.21785E+02 2.08482E+01 0.00000E+00
 -1      4241 1.20285E+02 2.08482E+01 0.00000E+00
 -1      4242 1.19535E+02 2.21472E+01 0.00000E+00
 -1      4243 1.24785E+02 2.08482E+01 0.00000E+00
 -1      4244 1.23285E+02 2.08482E+01 0.00000E+00
 -1      4245 1.22535E+02 2.21472E+01 0.00000E+00
 -1      4246 1.29732E+02 2.58315E+01 0.00000E+00
 -1      4247 1.28433E+02 2.51003E+01 0.00000E+00
 -1      4248 1.28876E+02 2.15434E+01 0.00000E+00
 -1      4249 7.29000E+01 2.79620E+01 0.00000E+00
 -1      4250 7.44000E+01 2.79620E+01 0.00000E+00
 -1      4251 7.51500E+01 2.66630E+01 0.00000E+00
 -1      4252 1.29715E+02 2.72655E+01 0.00000E+00
 -1      4253 6.27567E+01 1.98808E+01 0.00000E+00
 -1      4254 7.97850E+01 2.08482E+01 0.00000E+00
 -1      4255 7.82850E+01 2.08482E+01 0.00000E+00
 -1      4256 8.05350E+01 2.21472E+01 0.00000E+00
 -1      4257 2.12623E+01 2.80438E+01 0.00000E+00
 -1      4258 6.99000E+01 2.79620E+01 0.00000E+00
 -1      4259 7.14000E+01 2.79620E+01 0.00000E+00
 -1      4260 7.21500E+01 2.66630E+01 0.00000E+00
 -1      4261 1.27904E+02 2.33218E+01 0.00000E+00
 -1      4262 1.27564E+02 2.13277E+01 0.00000E+00
 -1      4263 1.26064E+02 2.13277E+01 0.00000E+00
 -1      4264 1.27121E+02 2.48846E+01 0.00000E+00
 -1      4265 7.11530E+01 2.07526E+01 0.00000E+00
 -1      4266 6.98782E+01 2.11907E+01 0.00000E+00
 -1      4267 6.94962E+01 2.23941E+01 0.00000E+00
 -1      4268 2.30087E+01 2.16917E+01 0.00000E+00
 -1      4269 7.41530E+01 2.07526E+01 0.00000E+00
 -1      4270 7.26530E+01 2.07526E+01 0.00000E+00
 -1      4271 7.22709E+01 2.19560E+01 0.00000E+00
 -1      4272 6.83037E+01 2.72500E+01 0.00000E+00
 -1      4273 6.90537E+01 2.59510E+01 0.00000E+00
 -1      4274 1.25314E+02 2.26267E+01 0.00000E+00
 -1      4275 6.91965E+01 2.49933E+01 0.00000E+00
 -1      4276 7.07928E+01 2.57053E+01 0.00000E+00
 -1      4277 7.22928E+01 2.57053E+01 0.00000E+00
 -1      4278 6.95785E+01 2.37899E+01 0.00000E+00
 -1      4279 7.69690E+01 2.08004E+01 0.00000E+00
 -1      4280 7.54690E+01 2.08004E+01 0.00000E+00
 -1      4281 7.50870E+01 2.20038E+01 0.00000E+00
 -1      4282 7.77190E+01 2.20994E+01 0.00000E+00
 -1      4283 6.70487E+01 2.77107E+01 0.00000E+00
 -1      4284 7.44000E+01 2.53640E+01 0.00000E+00
 -1      4285 7.59000E+01 2.53640E+01 0.00000E+00
 -1      4286 7.78425E+01 2.44051E+01 0.00000E+00
 -1      4287 7.93425E+01 2.44051E+01 0.00000E+00
 -1      4288 8.08425E+01 2.44051E+01 0.00000E+00
 -1      4289 8.23425E+01 2.44051E+01 0.00000E+00
 -1      4290 8.38425E+01 2.44051E+01 0.00000E+00
 -1      4291 8.53425E+01 2.44051E+01 0.00000E+00
 -1      4292 8.68425E+01 2.44051E+01 0.00000E+00
 -1      4293 8.83425E+01 2.44051E+01 0.00000E+00
 -1      4294 8.98425E+01 2.44051E+01 0.00000E+00
 -1      4295 9.13425E+01 2.44051E+01 0.00000E+00
 -1      4296 9.28425E+01 2.44051E+01 0.00000E+00
 -1      4297 9.43425E+01 2.44051E+01 0.00000E+00
 -1      4298 9.58425E+01 2.44051E+01 0.00000E+00
 -1      4299 9.73425E+01 2.44051E+01 0.00000E+00
 -1      4300 9.88425E+01 2.44051E+01 0.00000E+00
 -1      4301 1.00342E+02 2.44051E+01 0.00000E+00
 -1      4302 1.01842E+02 2.44051E+01 0.00000E+00
 -1      4303 1.03342E+02 2.44051E+01 0.00000E+00
 -1      4304 1.04842E+02 2.44051E+01 0.00000E+00
 -1      4305 1.06342E+02 2.44051E+01 0.00000E+00
 -1      4306 1.07842E+02 2.44051E+01 0.00000E+00
 -1      4307 1.09342E+02 2.44051E+01 0.00000E+00
 -1      4308 1.10842E+02 2.44051E+01 0.00000E+00
 -1      4309 1.12342E+02 2.44051E+01 0.00000E+00
 -1      4310 1.13842E+02 2.44051E+01 0.00000E+00
 -1      4311 1.15342E+02 2.44051E+01 0.00000E+00
 -1      4312 1.16842E+02 2.44051E+01 0.00000E+00
 -1      4313 1.18342E+02 2.44051E+01 0.00000E+00
 -1      4314 1.19842E+02 2.44051E+01 0.00000E+00
 -1      4315 1.21342E+02 2.44051E+01 0.00000E+00
 -1      4316 1.22842E+02 2.44051E+01 0.00000E+00
 -1      4317 1.24342E+02 2.44051E+01 0.00000E+00
 -1      4318 1.25621E+02 2.48846E+01 0.00000E+00
 -1      4319 7.08533E+01 2.33518E+01 0.00000E+00
 -1      4320 7.30428E+01 2.44063E+01 0.00000E+00
 -1      4321 7.23533E+01 2.33518E+01 0.00000E+00
 -1      4322 7.70925E+01 2.31061E+01 0.00000E+00
 -1      4323 7.44605E+01 2.30105E+01 0.00000E+00
 -1      4324 7.57765E+01 2.30583E+01 0.00000E+00
 -3
    3C                          2080                                     1
 -1       165    8    0    1
 -2         6         7        23      1123      1287      1140
 -1       166    8    0    1
 -2         7         8       165      1124      1288      1289
 -1       167    8    0    1
 -2         8         9       166      1125      1290      1291
 -1       168    8    0    1
 -2         8       166       165      1291      1292      1288
 -1       169    8    0    1
 -2         9        10       167      1126      1293      1294
 -1       170    8    0    1
 -2         9       167       166      1294      1295      1290
 -1       171    8    0    1
 -2        10        11       168      1127      1296      1297
 -1       172    8    0    1
 -2        10       168       167      1297      1298      1293
 -1       173    8    0    1
 -2        11        12       169      1128      1299      1300
 -1       174    8    0    1
 -2        11       169       168      1300      1301      1296
 -1       175    8    0    1
 -2        12        13       170      1129      1302      1303
 -1       176    8    0    1
 -2        12       170       169      1303      1304      1299
 -1       177    8    0    1
 -2        13        14       171      1130      1305      1306
 -1       178    8    0    1
 -2        13       171       170      1306      1307      1302
 -1       179    8    0    1
 -2        14        15       172      1131      1308      1309
 -1       180    8    0    1
 -2        14       172       171      1309      1310      1305
 -1       181    8    0    1
 -2        15        16       173      1132      1311      1312
 -1       182    8    0    1
 -2        15       173       172      1312      1313      1308
 -1       183    8    0    1
 -2        16        17       174      1133      1314      1315
 -1       184    8    0    1
 -2        16       174       173      1315      1316      1311
 -1       185    8    0    1
 -2        17        18       175      1134      1317      1318
 -1       186    8    0    1
 -2        17       175       174      1318      1319      1314
 -1       187    8    0    1
 -2        18        19       176      1135      1320      1321
 -1       188    8    0    1
 -2        18       176       175      1321      1322      1317
 -1       189    8    0    1
 -2        19        20       177      1136      1323      1324
 -1       190    8    0    1
 -2        19       177       176      1324      1325      1320
 -1       191    8    0    1
 -2        20        21       178      1137      1326      1327
 -1       192    8    0    1
 -2        20       178       177      1327      1328      1323
 -1       193    8    0    1
 -2        21        22       179      1138      1329      1330
 -1       194    8    0    1
 -2        21       179       178      1330      1331      1326
 -1       195    8    0    1
 -2        22         5       180      1139      1332      1333
 -1       196    8    0    1
 -2       179        22       180      1329      1333      1334
 -1       197    8    0    1
 -2         5        72       180      1190      1335      1332
 -1       198    8    0    1
 -2        24        23       181      1141      1336      1337
 -1       199    8    0    1
 -2        25        24       182      1142      1338      1339
 -1       200    8    0    1
 -2        24       181       182      1337      1340      1338
 -1       201    8    0    1
 -2        26        25       183      1143      1341      1342
 -1       202    8    0    1
 -2        25       182       183      1339      1343      1341
 -1       203    8    0    1
 -2        27        26       184      1144      1344      1345
 -1       204    8    0    1
 -2        26       183       184      1342      1346      1344
 -1       205    8    0    1
 -2        28        27       185      1145      1347      1348
 -1       206    8    0    1
 -2        27       184       185      1345      1349      1347
 -1       207    8    0    1
 -2        29        28       186      1146      1350      1351
 -1       208    8    0    1
 -2        28       185       186      1348      1352      1350
 -1       209    8    0    1
 -2        30        29       187      1147      1353      1354
 -1       210    8    0    1
 -2        29       186       187      1351      1355      1353
 -1       211    8    0    1
 -2        31        30       188      1148      1356      1357
 -1       212    8    0    1
 -2        30       187       188      1354      1358      1356
 -1       213    8    0    1
 -2        32        31       189      1149      1359      1360
 -1       214    8    0    1
 -2        31       188       189      1357      1361      1359
 -1       215    8    0    1
 -2        33        32       190      1150      1362      1363
 -1       216    8    0    1
 -2        32       189       190      1360      1364      1362
 -1       217    8    0    1
 -2        34        33       191      1151      1365      1366
 -1       218    8    0    1
 -2        33       190       191      1363      1367      1365
 -1       219    8    0    1
 -2        35        34       192      1152      1368      1369
 -1       220    8    0    1
 -2        34       191       192      1366      1370      1368
 -1       221    8    0    1
 -2        36        35       193      1153      1371      1372
 -1       222    8    0    1
 -2        35       192       193      1369      1373      1371
 -1       223    8    0    1
 -2        37        36       194      1154      1374      1375
 -1       224    8    0    1
 -2        36       193       194      1372      1376      1374
 -1       225    8    0    1
 -2        38        37       195      1155      1377      1378
 -1       226    8    0    1
 -2        37       194       195      1375      1379      1377
 -1       227    8    0    1
 -2        39        38       196      1156      1380      1381
 -1       228    8    0    1
 -2        38       195       196      1378      1382      1380
 -1       229    8    0    1
 -2        40        39       197      1157      1383      1384
 -1       230    8    0    1
 -2        39       196       197      1381      1385      1383
 -1       231    8    0    1
 -2        41        40       198      1158      1386      1387
 -1       232    8    0    1
 -2        40       197       198      1384      1388      1386
 -1       233    8    0    1
 -2        42        41       199      1159      1389      1390
 -1       234    8    0    1
 -2        41       198       199      1387      1391      1389
 -1       235    8    0    1
 -2        43        42       200      1160      1392      1393
 -1       236    8    0    1
 -2        42       199       200      1390      1394      1392
 -1       237    8    0    1
 -2        44        43       201      1161      1395      1396
 -1       238    8    0    1
 -2        43       200       201      1393      1397      1395
 -1       239    8    0    1
 -2        45        44       202      1162      1398      1399
 -1       240    8    0    1
 -2        44       201       202      1396      1400      1398
 -1       241    8    0    1
 -2        46        45       203      1163      1401      1402
 -1       242    8    0    1
 -2        45       202       203      1399      1403      1401
 -1       243    8    0    1
 -2        47        46       204      1164      1404      1405
 -1       244    8    0    1
 -2        46       203       204      1402      1406      1404
 -1       245    8    0    1
 -2        48        47       205      1165      1407      1408
 -1       246    8    0    1
 -2        47       204       205      1405      1409      1407
 -1       247    8    0    1
 -2        49        48       206      1166      1410      1411
 -1       248    8    0    1
 -2        48       205       206      1408      1412      1410
 -1       249    8    0    1
 -2        50        49       207      1167      1413      1414
 -1       250    8    0    1
 -2        49       206       207      1411      1415      1413
 -1       251    8    0    1
 -2        51        50       208      1168      1416      1417
 -1       252    8    0    1
 -2        50       207       208      1414      1418      1416
 -1       253    8    0    1
 -2        52        51       209      1169      1419      1420
 -1       254    8    0    1
 -2        51       208       209      1417      1421      1419
 -1       255    8    0    1
 -2        53        52       210      1170      1422      1423
 -1       256    8    0    1
 -2        52       209       210      1420      1424      1422
 -1       257    8    0    1
 -2        54        53       211      1171      1425      1426
 -1       258    8    0    1
 -2        53       210       211      1423      1427      1425
 -1       259    8    0    1
 -2        55        54       212      1172      1428      1429
 -1       260    8    0    1
 -2        54       211       212      1426      1430      1428
 -1       261    8    0    1
 -2        56        55       213      1173      1431      1432
 -1       262    8    0    1
 -2        55       212       213      1429      1433      1431
 -1       263    8    0    1
 -2        57        56       214      1174      1434      1435
 -1       264    8    0    1
 -2        56       213       214      1432      1436      1434
 -1       265    8    0    1
 -2        58        57       215      1175      1437      1438
 -1       266    8    0    1
 -2        57       214       215      1435      1439      1437
 -1       267    8    0    1
 -2        59        58       216      1176      1440      1441
 -1       268    8    0    1
 -2        58       215       216      1438      1442      1440
 -1       269    8    0    1
 -2        60        59       217      1177      1443      1444
 -1       270    8    0    1
 -2        59       216       217      1441      1445      1443
 -1       271    8    0    1
 -2        61        60       218      1178      1446      1447
 -1       272    8    0    1
 -2        60       217       218      1444      1448      1446
 -1       273    8    0    1
 -2        62        61       219      1179      1449      1450
 -1       274    8    0    1
 -2        61       218       219      1447      1451      1449
 -1       275    8    0    1
 -2        63        62       220      1180      1452      1453
 -1       276    8    0    1
 -2        62       219       220      1450      1454      1452
 -1       277    8    0    1
 -2        64        63       221      1181      1455      1456
 -1       278    8    0    1
 -2        63       220       221      1453      1457      1455
 -1       279    8    0    1
 -2        65        64       222      1182      1458      1459
 -1       280    8    0    1
 -2        64       221       222      1456      1460      1458
 -1       281    8    0    1
 -2        66        65       223      1183      1461      1462
 -1       282    8    0    1
 -2        65       222       223      1459      1463      1461
 -1       283    8    0    1
 -2        67        66       224      1184      1464      1465
 -1       284    8    0    1
 -2        66       223       224      1462      1466      1464
 -1       285    8    0    1
 -2        68        67       225      1185      1467      1468
 -1       286    8    0    1
 -2        67       224       225      1465      1469      1467
 -1       287    8    0    1
 -2        69        68       226      1186      1470      1471
 -1       288    8    0    1
 -2        68       225       226      1468      1472      1470
 -1       289    8    0    1
 -2        70        69       227      1187      1473      1474
 -1       290    8    0    1
 -2        69       226       227      1471      1475      1473
 -1       291    8    0    1
 -2        71        70       228      1188      1476      1477
 -1       292    8    0    1
 -2        70       227       228      1474      1478      1476
 -1       293    8    0    1
 -2         4        71       136      1189      1479      1256
 -1       294    8    0    1
 -2       136        71       228      1479      1477      1480
 -1       295    8    0    1
 -2        72        73       229      1191      1481      1482
 -1       296    8    0    1
 -2        72       229       180      1482      1483      1335
 -1       297    8    0    1
 -2        73        74       230      1192      1484      1485
 -1       298    8    0    1
 -2        73       230       229      1485      1486      1481
 -1       299    8    0    1
 -2        74        75       231      1193      1487      1488
 -1       300    8    0    1
 -2        74       231       230      1488      1489      1484
 -1       301    8    0    1
 -2        75        76       232      1194      1490      1491
 -1       302    8    0    1
 -2        75       232       231      1491      1492      1487
 -1       303    8    0    1
 -2        76        77       233      1195      1493      1494
 -1       304    8    0    1
 -2        76       233       232      1494      1495      1490
 -1       305    8    0    1
 -2        77        78       234      1196      1496      1497
 -1       306    8    0    1
 -2        77       234       233      1497      1498      1493
 -1       307    8    0    1
 -2        78        79       235      1197      1499      1500
 -1       308    8    0    1
 -2        78       235       234      1500      1501      1496
 -1       309    8    0    1
 -2        79        80       236      1198      1502      1503
 -1       310    8    0    1
 -2        79       236       235      1503      1504      1499
 -1       311    8    0    1
 -2        80        81       237      1199      1505      1506
 -1       312    8    0    1
 -2        80       237       236      1506      1507      1502
 -1       313    8    0    1
 -2        81        82       238      1200      1508      1509
 -1       314    8    0    1
 -2        81       238       237      1509      1510      1505
 -1       315    8    0    1
 -2        82        83       239      1201      1511      1512
 -1       316    8    0    1
 -2        82       239       238      1512      1513      1508
 -1       317    8    0    1
 -2        83        84       240      1202      1514      1515
 -1       318    8    0    1
 -2        83       240       239      1515      1516      1511
 -1       319    8    0    1
 -2        84        85       241      1203      1517      1518
 -1       320    8    0    1
 -2        84       241       240      1518      1519      1514
 -1       321    8    0    1
 -2        85        86       242      1204      1520      1521
 -1       322    8    0    1
 -2        85       242       241      1521      1522      1517
 -1       323    8    0    1
 -2        86        87       243      1205      1523      1524
 -1       324    8    0    1
 -2        86       243       242      1524      1525      1520
 -1       325    8    0    1
 -2        87        88       244      1206      1526      1527
 -1       326    8    0    1
 -2        87       244       243      1527      1528      1523
 -1       327    8    0    1
 -2        88        89       245      1207      1529      1530
 -1       328    8    0    1
 -2        88       245       244      1530      1531      1526
 -1       329    8    0    1
 -2        89        90       246      1208      1532      1533
 -1       330    8    0    1
 -2        89       246       245      1533      1534      1529
 -1       331    8    0    1
 -2        90        91       247      1209      1535      1536
 -1       332    8    0    1
 -2        90       247       246      1536      1537      1532
 -1       333    8    0    1
 -2        91        92       248      1210      1538      1539
 -1       334    8    0    1
 -2        91       248       247      1539      1540      1535
 -1       335    8    0    1
 -2        92        93       249      1211      1541      1542
 -1       336    8    0    1
 -2        92       249       248      1542      1543      1538
 -1       337    8    0    1
 -2        93        94       250      1212      1544      1545
 -1       338    8    0    1
 -2        93       250       249      1545      1546      1541
 -1       339    8    0    1
 -2        94        95       251      1213      1547      1548
 -1       340    8    0    1
 -2        94       251       250      1548      1549      1544
 -1       341    8    0    1
 -2        95        96       252      1214      1550      1551
 -1       342    8    0    1
 -2        95       252       251      1551      1552      1547
 -1       343    8    0    1
 -2        96        97       253      1215      1553      1554
 -1       344    8    0    1
 -2        96       253       252      1554      1555      1550
 -1       345    8    0    1
 -2        97        98       254      1216      1556      1557
 -1       346    8    0    1
 -2        97       254       253      1557      1558      1553
 -1       347    8    0    1
 -2        98        99       255      1217      1559      1560
 -1       348    8    0    1
 -2        98       255       254      1560      1561      1556
 -1       349    8    0    1
 -2        99       100       256      1218      1562      1563
 -1       350    8    0    1
 -2        99       256       255      1563      1564      1559
 -1       351    8    0    1
 -2       100       101       257      1219      1565      1566
 -1       352    8    0    1
 -2       100       257       256      1566      1567      1562
 -1       353    8    0    1
 -2       101       102       258      1220      1568      1569
 -1       354    8    0    1
 -2       101       258       257      1569      1570      1565
 -1       355    8    0    1
 -2       102       103       259      1221      1571      1572
 -1       356    8    0    1
 -2       102       259       258      1572      1573      1568
 -1       357    8    0    1
 -2       103       104       260      1222      1574      1575
 -1       358    8    0    1
 -2       103       260       259      1575      1576      1571
 -1       359    8    0    1
 -2       104       105       261      1223      1577      1578
 -1       360    8    0    1
 -2       104       261       260      1578      1579      1574
 -1       361    8    0    1
 -2       105       106       262      1224      1580      1581
 -1       362    8    0    1
 -2       105       262       261      1581      1582      1577
 -1       363    8    0    1
 -2       106       107       263      1225      1583      1584
 -1       364    8    0    1
 -2       106       263       262      1584      1585      1580
 -1       365    8    0    1
 -2       107       108       264      1226      1586      1587
 -1       366    8    0    1
 -2       107       264       263      1587      1588      1583
 -1       367    8    0    1
 -2       108       109       265      1227      1589      1590
 -1       368    8    0    1
 -2       108       265       264      1590      1591      1586
 -1       369    8    0    1
 -2       109       110       266      1228      1592      1593
 -1       370    8    0    1
 -2       109       266       265      1593      1594      1589
 -1       371    8    0    1
 -2       110       111       267      1229      1595      1596
 -1       372    8    0    1
 -2       110       267       266      1596      1597      1592
 -1       373    8    0    1
 -2       111       112       268      1230      1598      1599
 -1       374    8    0    1
 -2       111       268       267      1599      1600      1595
 -1       375    8    0    1
 -2       112       113       269      1231      1601      1602
 -1       376    8    0    1
 -2       112       269       268      1602      1603      1598
 -1       377    8    0    1
 -2       113       114       270      1232      1604      1605
 -1       378    8    0    1
 -2       113       270       269      1605      1606      1601
 -1       379    8    0    1
 -2       114       115       271      1233      1607      1608
 -1       380    8    0    1
 -2       114       271       270      1608      1609      1604
 -1       381    8    0    1
 -2       115       116       272      1234      1610      1611
 -1       382    8    0    1
 -2       115       272       271      1611      1612      1607
 -1       383    8    0    1
 -2       116       117       273      1235      1613      1614
 -1       384    8    0    1
 -2       116       273       272      1614      1615      1610
 -1       385    8    0    1
 -2       117       118       274      1236      1616      1617
 -1       386    8    0    1
 -2       117       274       273      1617      1618      1613
 -1       387    8    0    1
 -2       118       119       275      1237      1619      1620
 -1       388    8    0    1
 -2       118       275       274      1620      1621      1616
 -1       389    8    0    1
 -2       119       120       276      1238      1622      1623
 -1       390    8    0    1
 -2       119       276       275      1623      1624      1619
 -1       391    8    0    1
 -2       120         3       121      1239      1240      1625
 -1       392    8    0    1
 -2       121       122       277      1241      1626      1627
 -1       393    8    0    1
 -2       122       123       278      1242      1628      1629
 -1       394    8    0    1
 -2       122       278       277      1629      1630      1626
 -1       395    8    0    1
 -2       123       124       279      1243      1631      1632
 -1       396    8    0    1
 -2       123       279       278      1632      1633      1628
 -1       397    8    0    1
 -2       124       125       280      1244      1634      1635
 -1       398    8    0    1
 -2       124       280       279      1635      1636      1631
 -1       399    8    0    1
 -2       125       126       281      1245      1637      1638
 -1       400    8    0    1
 -2       125       281       280      1638      1639      1634
 -1       401    8    0    1
 -2       126       127       282      1246      1640      1641
 -1       402    8    0    1
 -2       126       282       281      1641      1642      1637
 -1       403    8    0    1
 -2       127       128       283      1247      1643      1644
 -1       404    8    0    1
 -2       127       283       282      1644      1645      1640
 -1       405    8    0    1
 -2       128       129       284      1248      1646      1647
 -1       406    8    0    1
 -2       128       284       283      1647      1648      1643
 -1       407    8    0    1
 -2       129       130       285      1249      1649      1650
 -1       408    8    0    1
 -2       129       285       284      1650      1651      1646
 -1       409    8    0    1
 -2       130       131       286      1250      1652      1653
 -1       410    8    0    1
 -2       130       286       285      1653      1654      1649
 -1       411    8    0    1
 -2       131       132       287      1251      1655      1656
 -1       412    8    0    1
 -2       131       287       286      1656      1657      1652
 -1       413    8    0    1
 -2       132       133       288      1252      1658      1659
 -1       414    8    0    1
 -2       132       288       287      1659      1660      1655
 -1       415    8    0    1
 -2       133       134       289      1253      1661      1662
 -1       416    8    0    1
 -2       133       289       288      1662      1663      1658
 -1       417    8    0    1
 -2       134       135       290      1254      1664      1665
 -1       418    8    0    1
 -2       134       290       289      1665      1666      1661
 -1       419    8    0    1
 -2       135       136       291      1255      1667      1668
 -1       420    8    0    1
 -2       290       135       291      1664      1668      1669
 -1       421    8    0    1
 -2       136       228       291      1480      1670      1667
 -1       422    8    0    1
 -2         2       137       292      1257      1671      1672
 -1       423    8    0    1
 -2       137       138       293      1258      1673      1674
 -1       424    8    0    1
 -2       138       139       294      1259      1675      1676
 -1       425    8    0    1
 -2       139       140       295      1260      1677      1678
 -1       426    8    0    1
 -2       140       141       296      1261      1679      1680
 -1       427    8    0    1
 -2       141       142       297      1262      1681      1682
 -1       428    8    0    1
 -2       142       143       298      1263      1683      1684
 -1       429    8    0    1
 -2       143       144       299      1264      1685      1686
 -1       430    8    0    1
 -2       144       145       300      1265      1687      1688
 -1       431    8    0    1
 -2       145       146       301      1266      1689      1690
 -1       432    8    0    1
 -2       146       147       302      1267      1691      1692
 -1       433    8    0    1
 -2       147       148       303      1268      1693      1694
 -1       434    8    0    1
 -2       148       149       304      1269      1695      1696
 -1       435    8    0    1
 -2       149       150       305      1270      1697      1698
 -1       436    8    0    1
 -2       150       151       306      1271      1699      1700
 -1       437    8    0    1
 -2       151       152       307      1272      1701      1702
 -1       438    8    0    1
 -2       152       153       308      1273      1703      1704
 -1       439    8    0    1
 -2       153       154       309      1274      1705      1706
 -1       440    8    0    1
 -2       154       155       310      1275      1707      1708
 -1       441    8    0    1
 -2       155         1       311      1276      1709      1710
 -1       442    8    0    1
 -2         1       156       312      1277      1711      1712
 -1       443    8    0    1
 -2       156       157       313      1278      1713      1714
 -1       444    8    0    1
 -2       157       158       314      1279      1715      1716
 -1       445    8    0    1
 -2       158       159       315      1280      1717      1718
 -1       446    8    0    1
 -2       159       160       316      1281      1719      1720
 -1       447    8    0    1
 -2       160       161       317      1282      1721      1722
 -1       448    8    0    1
 -2       161       162       318      1283      1723      1724
 -1       449    8    0    1
 -2       162       163       319      1284      1725      1726
 -1       450    8    0    1
 -2       163       164       320      1285      1727      1728
 -1       451    8    0    1
 -2       163       320       319      1728      1729      1725
 -1       452    8    0    1
 -2       164         2       321      1286      1730      1731
 -1       453    8    0    1
 -2       295       140       296      1677      1680      1732
 -1       454    8    0    1
 -2       294       139       295      1675      1678      1733
 -1       455    8    0    1
 -2       120       121       276      1625      1734      1622
 -1       456    8    0    1
 -2       121       277       276      1627      1735      1734
 -1       457    8    0    1
 -2       292       137       293      1671      1674      1736
 -1       458    8    0    1
 -2       293       138       294      1673      1676      1737
 -1       459    8    0    1
 -2         2       292       321      1672      1738      1730
 -1       460    8    0    1
 -2       141       297       296      1682      1739      1679
 -1       461    8    0    1
 -2       142       298       297      1684      1740      1681
 -1       462    8    0    1
 -2       143       299       298      1686      1741      1683
 -1       463    8    0    1
 -2       144       300       299      1688      1742      1685
 -1       464    8    0    1
 -2       145       301       300      1690      1743      1687
 -1       465    8    0    1
 -2       146       302       301      1692      1744      1689
 -1       466    8    0    1
 -2       147       303       302      1694      1745      1691
 -1       467    8    0    1
 -2       148       304       303      1696      1746      1693
 -1       468    8    0    1
 -2       149       305       304      1698      1747      1695
 -1       469    8    0    1
 -2       150       306       305      1700      1748      1697
 -1       470    8    0    1
 -2       151       307       306      1702      1749      1699
 -1       471    8    0    1
 -2       152       308       307      1704      1750      1701
 -1       472    8    0    1
 -2       153       309       308      1706      1751      1703
 -1       473    8    0    1
 -2       154       310       309      1708      1752      1705
 -1       474    8    0    1
 -2       155       311       310      1710      1753      1707
 -1       475    8    0    1
 -2         1       312       311      1712      1754      1709
 -1       476    8    0    1
 -2       156       313       312      1714      1755      1711
 -1       477    8    0    1
 -2       157       314       313      1716      1756      1713
 -1       478    8    0    1
 -2       158       315       314      1718      1757      1715
 -1       479    8    0    1
 -2       159       316       315      1720      1758      1717
 -1       480    8    0    1
 -2       160       317       316      1722      1759      1719
 -1       481    8    0    1
 -2       161       318       317      1724      1760      1721
 -1       482    8    0    1
 -2       162       319       318      1726      1761      1723
 -1       483    8    0    1
 -2        23         7       165      1287      1289      1762
 -1       484    8    0    1
 -2       164       321       320      1731      1763      1727
 -1       485    8    0    1
 -2       166       167       322      1295      1764      1765
 -1       486    8    0    1
 -2       165       166       323      1292      1766      1767
 -1       487    8    0    1
 -2       166       322       323      1765      1768      1766
 -1       488    8    0    1
 -2       168       169       324      1301      1769      1770
 -1       489    8    0    1
 -2       169       170       325      1304      1771      1772
 -1       490    8    0    1
 -2       169       325       324      1772      1773      1769
 -1       491    8    0    1
 -2       170       171       326      1307      1774      1775
 -1       492    8    0    1
 -2       170       326       325      1775      1776      1771
 -1       493    8    0    1
 -2       171       172       327      1310      1777      1778
 -1       494    8    0    1
 -2       171       327       326      1778      1779      1774
 -1       495    8    0    1
 -2       172       173       328      1313      1780      1781
 -1       496    8    0    1
 -2       172       328       327      1781      1782      1777
 -1       497    8    0    1
 -2       173       174       329      1316      1783      1784
 -1       498    8    0    1
 -2       173       329       328      1784      1785      1780
 -1       499    8    0    1
 -2       174       175       330      1319      1786      1787
 -1       500    8    0    1
 -2       174       330       329      1787      1788      1783
 -1       501    8    0    1
 -2       175       176       331      1322      1789      1790
 -1       502    8    0    1
 -2       175       331       330      1790      1791      1786
 -1       503    8    0    1
 -2       176       177       332      1325      1792      1793
 -1       504    8    0    1
 -2       176       332       331      1793      1794      1789
 -1       505    8    0    1
 -2       177       178       333      1328      1795      1796
 -1       506    8    0    1
 -2       177       333       332      1796      1797      1792
 -1       507    8    0    1
 -2       178       179       334      1331      1798      1799
 -1       508    8    0    1
 -2       178       334       333      1799      1800      1795
 -1       509    8    0    1
 -2       179       180       335      1334      1801      1802
 -1       510    8    0    1
 -2       334       179       335      1798      1802      1803
 -1       511    8    0    1
 -2       180       229       335      1483      1804      1801
 -1       512    8    0    1
 -2       181        23       165      1336      1762      1805
 -1       513    8    0    1
 -2       229       230       336      1486      1806      1807
 -1       514    8    0    1
 -2       229       336       335      1807      1808      1804
 -1       515    8    0    1
 -2       320       321       337      1763      1809      1810
 -1       516    8    0    1
 -2       181       165       323      1805      1767      1811
 -1       517    8    0    1
 -2       183       182       338      1343      1812      1813
 -1       518    8    0    1
 -2       184       183       339      1346      1814      1815
 -1       519    8    0    1
 -2       183       338       339      1813      1816      1814
 -1       520    8    0    1
 -2       185       184       340      1349      1817      1818
 -1       521    8    0    1
 -2       184       339       340      1815      1819      1817
 -1       522    8    0    1
 -2       186       185       341      1352      1820      1821
 -1       523    8    0    1
 -2       185       340       341      1818      1822      1820
 -1       524    8    0    1
 -2       187       186       342      1355      1823      1824
 -1       525    8    0    1
 -2       186       341       342      1821      1825      1823
 -1       526    8    0    1
 -2       188       187       343      1358      1826      1827
 -1       527    8    0    1
 -2       187       342       343      1824      1828      1826
 -1       528    8    0    1
 -2       189       188       344      1361      1829      1830
 -1       529    8    0    1
 -2       188       343       344      1827      1831      1829
 -1       530    8    0    1
 -2       190       189       345      1364      1832      1833
 -1       531    8    0    1
 -2       189       344       345      1830      1834      1832
 -1       532    8    0    1
 -2       191       190       346      1367      1835      1836
 -1       533    8    0    1
 -2       190       345       346      1833      1837      1835
 -1       534    8    0    1
 -2       192       191       347      1370      1838      1839
 -1       535    8    0    1
 -2       191       346       347      1836      1840      1838
 -1       536    8    0    1
 -2       193       192       348      1373      1841      1842
 -1       537    8    0    1
 -2       192       347       348      1839      1843      1841
 -1       538    8    0    1
 -2       194       193       349      1376      1844      1845
 -1       539    8    0    1
 -2       193       348       349      1842      1846      1844
 -1       540    8    0    1
 -2       195       194       350      1379      1847      1848
 -1       541    8    0    1
 -2       194       349       350      1845      1849      1847
 -1       542    8    0    1
 -2       196       195       351      1382      1850      1851
 -1       543    8    0    1
 -2       195       350       351      1848      1852      1850
 -1       544    8    0    1
 -2       197       196       352      1385      1853      1854
 -1       545    8    0    1
 -2       196       351       352      1851      1855      1853
 -1       546    8    0    1
 -2       198       197       353      1388      1856      1857
 -1       547    8    0    1
 -2       197       352       353      1854      1858      1856
 -1       548    8    0    1
 -2       199       198       354      1391      1859      1860
 -1       549    8    0    1
 -2       198       353       354      1857      1861      1859
 -1       550    8    0    1
 -2       200       199       355      1394      1862      1863
 -1       551    8    0    1
 -2       199       354       355      1860      1864      1862
 -1       552    8    0    1
 -2       201       200       356      1397      1865      1866
 -1       553    8    0    1
 -2       200       355       356      1863      1867      1865
 -1       554    8    0    1
 -2       202       201       357      1400      1868      1869
 -1       555    8    0    1
 -2       201       356       357      1866      1870      1868
 -1       556    8    0    1
 -2       203       202       358      1403      1871      1872
 -1       557    8    0    1
 -2       202       357       358      1869      1873      1871
 -1       558    8    0    1
 -2       204       203       359      1406      1874      1875
 -1       559    8    0    1
 -2       203       358       359      1872      1876      1874
 -1       560    8    0    1
 -2       205       204       360      1409      1877      1878
 -1       561    8    0    1
 -2       204       359       360      1875      1879      1877
 -1       562    8    0    1
 -2       206       205       361      1412      1880      1881
 -1       563    8    0    1
 -2       205       360       361      1878      1882      1880
 -1       564    8    0    1
 -2       207       206       362      1415      1883      1884
 -1       565    8    0    1
 -2       206       361       362      1881      1885      1883
 -1       566    8    0    1
 -2       208       207       363      1418      1886      1887
 -1       567    8    0    1
 -2       207       362       363      1884      1888      1886
 -1       568    8    0    1
 -2       209       208       364      1421      1889      1890
 -1       569    8    0    1
 -2       208       363       364      1887      1891      1889
 -1       570    8    0    1
 -2       210       209       365      1424      1892      1893
 -1       571    8    0    1
 -2       209       364       365      1890      1894      1892
 -1       572    8    0    1
 -2       211       210       366      1427      1895      1896
 -1       573    8    0    1
 -2       210       365       366      1893      1897      1895
 -1       574    8    0    1
 -2       212       211       367      1430      1898      1899
 -1       575    8    0    1
 -2       211       366       367      1896      1900      1898
 -1       576    8    0    1
 -2       213       212       368      1433      1901      1902
 -1       577    8    0    1
 -2       212       367       368      1899      1903      1901
 -1       578    8    0    1
 -2       214       213       369      1436      1904      1905
 -1       579    8    0    1
 -2       213       368       369      1902      1906      1904
 -1       580    8    0    1
 -2       215       214       370      1439      1907      1908
 -1       581    8    0    1
 -2       214       369       370      1905      1909      1907
 -1       582    8    0    1
 -2       216       215       371      1442      1910      1911
 -1       583    8    0    1
 -2       215       370       371      1908      1912      1910
 -1       584    8    0    1
 -2       217       216       372      1445      1913      1914
 -1       585    8    0    1
 -2       216       371       372      1911      1915      1913
 -1       586    8    0    1
 -2       218       217       373      1448      1916      1917
 -1       587    8    0    1
 -2       217       372       373      1914      1918      1916
 -1       588    8    0    1
 -2       219       218       374      1451      1919      1920
 -1       589    8    0    1
 -2       218       373       374      1917      1921      1919
 -1       590    8    0    1
 -2       220       219       375      1454      1922      1923
 -1       591    8    0    1
 -2       219       374       375      1920      1924      1922
 -1       592    8    0    1
 -2       221       220       376      1457      1925      1926
 -1       593    8    0    1
 -2       220       375       376      1923      1927      1925
 -1       594    8    0    1
 -2       222       221       377      1460      1928      1929
 -1       595    8    0    1
 -2       221       376       377      1926      1930      1928
 -1       596    8    0    1
 -2       223       222       378      1463      1931      1932
 -1       597    8    0    1
 -2       222       377       378      1929      1933      1931
 -1       598    8    0    1
 -2       224       223       379      1466      1934      1935
 -1       599    8    0    1
 -2       223       378       379      1932      1936      1934
 -1       600    8    0    1
 -2       225       224       380      1469      1937      1938
 -1       601    8    0    1
 -2       224       379       380      1935      1939      1937
 -1       602    8    0    1
 -2       226       225       381      1472      1940      1941
 -1       603    8    0    1
 -2       225       380       381      1938      1942      1940
 -1       604    8    0    1
 -2       227       226       382      1475      1943      1944
 -1       605    8    0    1
 -2       226       381       382      1941      1945      1943
 -1       606    8    0    1
 -2       228       227       383      1478      1946      1947
 -1       607    8    0    1
 -2       291       228       383      1670      1947      1948
 -1       608    8    0    1
 -2       227       382       383      1944      1949      1946
 -1       609    8    0    1
 -2       230       231       384      1489      1950      1951
 -1       610    8    0    1
 -2       230       384       336      1951      1952      1806
 -1       611    8    0    1
 -2       231       232       385      1492      1953      1954
 -1       612    8    0    1
 -2       231       385       384      1954      1955      1950
 -1       613    8    0    1
 -2       232       233       386      1495      1956      1957
 -1       614    8    0    1
 -2       232       386       385      1957      1958      1953
 -1       615    8    0    1
 -2       233       234       387      1498      1959      1960
 -1       616    8    0    1
 -2       233       387       386      1960      1961      1956
 -1       617    8    0    1
 -2       234       235       388      1501      1962      1963
 -1       618    8    0    1
 -2       234       388       387      1963      1964      1959
 -1       619    8    0    1
 -2       235       236       389      1504      1965      1966
 -1       620    8    0    1
 -2       235       389       388      1966      1967      1962
 -1       621    8    0    1
 -2       236       237       390      1507      1968      1969
 -1       622    8    0    1
 -2       236       390       389      1969      1970      1965
 -1       623    8    0    1
 -2       237       238       391      1510      1971      1972
 -1       624    8    0    1
 -2       237       391       390      1972      1973      1968
 -1       625    8    0    1
 -2       238       239       392      1513      1974      1975
 -1       626    8    0    1
 -2       238       392       391      1975      1976      1971
 -1       627    8    0    1
 -2       239       240       393      1516      1977      1978
 -1       628    8    0    1
 -2       239       393       392      1978      1979      1974
 -1       629    8    0    1
 -2       240       241       394      1519      1980      1981
 -1       630    8    0    1
 -2       240       394       393      1981      1982      1977
 -1       631    8    0    1
 -2       241       242       395      1522      1983      1984
 -1       632    8    0    1
 -2       241       395       394      1984      1985      1980
 -1       633    8    0    1
 -2       242       243       396      1525      1986      1987
 -1       634    8    0    1
 -2       242       396       395      1987      1988      1983
 -1       635    8    0    1
 -2       243       244       397      1528      1989      1990
 -1       636    8    0    1
 -2       243       397       396      1990      1991      1986
 -1       637    8    0    1
 -2       244       245       398      1531      1992      1993
 -1       638    8    0    1
 -2       244       398       397      1993      1994      1989
 -1       639    8    0    1
 -2       245       246       399      1534      1995      1996
 -1       640    8    0    1
 -2       245       399       398      1996      1997      1992
 -1       641    8    0    1
 -2       246       247       400      1537      1998      1999
 -1       642    8    0    1
 -2       246       400       399      1999      2000      1995
 -1       643    8    0    1
 -2       247       248       401      1540      2001      2002
 -1       644    8    0    1
 -2       247       401       400      2002      2003      1998
 -1       645    8    0    1
 -2       248       249       402      1543      2004      2005
 -1       646    8    0    1
 -2       248       402       401      2005      2006      2001
 -1       647    8    0    1
 -2       249       250       403      1546      2007      2008
 -1       648    8    0    1
 -2       249       403       402      2008      2009      2004
 -1       649    8    0    1
 -2       250       251       404      1549      2010      2011
 -1       650    8    0    1
 -2       250       404       403      2011      2012      2007
 -1       651    8    0    1
 -2       251       252       405      1552      2013      2014
 -1       652    8    0    1
 -2       251       405       404      2014      2015      2010
 -1       653    8    0    1
 -2       252       253       406      1555      2016      2017
 -1       654    8    0    1
 -2       252       406       405      2017      2018      2013
 -1       655    8    0    1
 -2       253       254       407      1558      2019      2020
 -1       656    8    0    1
 -2       253       407       406      2020      2021      2016
 -1       657    8    0    1
 -2       254       255       408      1561      2022      2023
 -1       658    8    0    1
 -2       254       408       407      2023      2024      2019
 -1       659    8    0    1
 -2       255       256       409      1564      2025      2026
 -1       660    8    0    1
 -2       255       409       408      2026      2027      2022
 -1       661    8    0    1
 -2       256       257       410      1567      2028      2029
 -1       662    8    0    1
 -2       256       410       409      2029      2030      2025
 -1       663    8    0    1
 -2       257       258       411      1570      2031      2032
 -1       664    8    0    1
 -2       257       411       410      2032      2033      2028
 -1       665    8    0    1
 -2       258       259       412      1573      2034      2035
 -1       666    8    0    1
 -2       258       412       411      2035      2036      2031
 -1       667    8    0    1
 -2       259       260       413      1576      2037      2038
 -1       668    8    0    1
 -2       259       413       412      2038      2039      2034
 -1       669    8    0    1
 -2       260       261       414      1579      2040      2041
 -1       670    8    0    1
 -2       260       414       413      2041      2042      2037
 -1       671    8    0    1
 -2       261       262       415      1582      2043      2044
 -1       672    8    0    1
 -2       261       415       414      2044      2045      2040
 -1       673    8    0    1
 -2       262       263       416      1585      2046      2047
 -1       674    8    0    1
 -2       262       416       415      2047      2048      2043
 -1       675    8    0    1
 -2       263       264       417      1588      2049      2050
 -1       676    8    0    1
 -2       263       417       416      2050      2051      2046
 -1       677    8    0    1
 -2       264       265       418      1591      2052      2053
 -1       678    8    0    1
 -2       264       418       417      2053      2054      2049
 -1       679    8    0    1
 -2       265       266       419      1594      2055      2056
 -1       680    8    0    1
 -2       265       419       418      2056      2057      2052
 -1       681    8    0    1
 -2       266       267       420      1597      2058      2059
 -1       682    8    0    1
 -2       266       420       419      2059      2060      2055
 -1       683    8    0    1
 -2       267       268       421      1600      2061      2062
 -1       684    8    0    1
 -2       267       421       420      2062      2063      2058
 -1       685    8    0    1
 -2       268       269       422      1603      2064      2065
 -1       686    8    0    1
 -2       268       422       421      2065      2066      2061
 -1       687    8    0    1
 -2       269       270       423      1606      2067      2068
 -1       688    8    0    1
 -2       269       423       422      2068      2069      2064
 -1       689    8    0    1
 -2       270       271       424      1609      2070      2071
 -1       690    8    0    1
 -2       270       424       423      2071      2072      2067
 -1       691    8    0    1
 -2       271       272       425      1612      2073      2074
 -1       692    8    0    1
 -2       271       425       424      2074      2075      2070
 -1       693    8    0    1
 -2       272       273       426      1615      2076      2077
 -1       694    8    0    1
 -2       272       426       425      2077      2078      2073
 -1       695    8    0    1
 -2       273       274       427      1618      2079      2080
 -1       696    8    0    1
 -2       273       427       426      2080      2081      2076
 -1       697    8    0    1
 -2       274       275       428      1621      2082      2083
 -1       698    8    0    1
 -2       274       428       427      2083      2084      2079
 -1       699    8    0    1
 -2       275       276       429      1624      2085      2086
 -1       700    8    0    1
 -2       428       275       429      2082      2086      2087
 -1       701    8    0    1
 -2       276       277       429      1735      2088      2085
 -1       702    8    0    1
 -2       279       280       430      1636      2089      2090
 -1       703    8    0    1
 -2       278       279       431      1633      2091      2092
 -1       704    8    0    1
 -2       279       430       431      2090      2093      2091
 -1       705    8    0    1
 -2       277       278       432      1630      2094      2095
 -1       706    8    0    1
 -2       429       277       432      2088      2095      2096
 -1       707    8    0    1
 -2       278       431       432      2092      2097      2094
 -1       708    8    0    1
 -2       280       281       433      1639      2098      2099
 -1       709    8    0    1
 -2       280       433       430      2099      2100      2089
 -1       710    8    0    1
 -2       281       282       434      1642      2101      2102
 -1       711    8    0    1
 -2       281       434       433      2102      2103      2098
 -1       712    8    0    1
 -2       282       283       435      1645      2104      2105
 -1       713    8    0    1
 -2       282       435       434      2105      2106      2101
 -1       714    8    0    1
 -2       283       284       436      1648      2107      2108
 -1       715    8    0    1
 -2       283       436       435      2108      2109      2104
 -1       716    8    0    1
 -2       284       285       437      1651      2110      2111
 -1       717    8    0    1
 -2       284       437       436      2111      2112      2107
 -1       718    8    0    1
 -2       285       286       438      1654      2113      2114
 -1       719    8    0    1
 -2       285       438       437      2114      2115      2110
 -1       720    8    0    1
 -2       286       287       439      1657      2116      2117
 -1       721    8    0    1
 -2       286       439       438      2117      2118      2113
 -1       722    8    0    1
 -2       287       288       440      1660      2119      2120
 -1       723    8    0    1
 -2       287       440       439      2120      2121      2116
 -1       724    8    0    1
 -2       288       289       441      1663      2122      2123
 -1       725    8    0    1
 -2       288       441       440      2123      2124      2119
 -1       726    8    0    1
 -2       289       290       442      1666      2125      2126
 -1       727    8    0    1
 -2       289       442       441      2126      2127      2122
 -1       728    8    0    1
 -2       293       294       443      1737      2128      2129
 -1       729    8    0    1
 -2       321       292       444      1738      2130      2131
 -1       730    8    0    1
 -2       292       293       445      1736      2132      2133
 -1       731    8    0    1
 -2       294       295       446      1733      2134      2135
 -1       732    8    0    1
 -2       319       320       447      1729      2136      2137
 -1       733    8    0    1
 -2       320       337       447      1810      2138      2136
 -1       734    8    0    1
 -2       296       297       448      1739      2139      2140
 -1       735    8    0    1
 -2       295       296       449      1732      2141      2142
 -1       736    8    0    1
 -2       295       449       446      2142      2143      2134
 -1       737    8    0    1
 -2       167       168       450      1298      2144      2145
 -1       738    8    0    1
 -2       322       167       450      1764      2145      2146
 -1       739    8    0    1
 -2       168       324       450      1770      2147      2144
 -1       740    8    0    1
 -2       297       298       451      1740      2148      2149
 -1       741    8    0    1
 -2       297       451       448      2149      2150      2139
 -1       742    8    0    1
 -2       298       299       452      1741      2151      2152
 -1       743    8    0    1
 -2       299       300       453      1742      2153      2154
 -1       744    8    0    1
 -2       300       301       454      1743      2155      2156
 -1       745    8    0    1
 -2       301       302       455      1744      2157      2158
 -1       746    8    0    1
 -2       301       455       454      2158      2159      2155
 -1       747    8    0    1
 -2       302       303       456      1745      2160      2161
 -1       748    8    0    1
 -2       303       304       457      1746      2162      2163
 -1       749    8    0    1
 -2       304       305       458      1747      2164      2165
 -1       750    8    0    1
 -2       305       306       459      1748      2166      2167
 -1       751    8    0    1
 -2       306       307       460      1749      2168      2169
 -1       752    8    0    1
 -2       307       308       461      1750      2170      2171
 -1       753    8    0    1
 -2       308       309       462      1751      2172      2173
 -1       754    8    0    1
 -2       308       462       461      2173      2174      2170
 -1       755    8    0    1
 -2       309       310       463      1752      2175      2176
 -1       756    8    0    1
 -2       310       311       464      1753      2177      2178
 -1       757    8    0    1
 -2       310       464       463      2178      2179      2175
 -1       758    8    0    1
 -2       311       312       465      1754      2180      2181
 -1       759    8    0    1
 -2       312       313       466      1755      2182      2183
 -1       760    8    0    1
 -2       313       314       467      1756      2184      2185
 -1       761    8    0    1
 -2       314       315       468      1757      2186      2187
 -1       762    8    0    1
 -2       315       316       469      1758      2188      2189
 -1       763    8    0    1
 -2       315       469       468      2189      2190      2186
 -1       764    8    0    1
 -2       316       317       470      1759      2191      2192
 -1       765    8    0    1
 -2       317       318       471      1760      2193      2194
 -1       766    8    0    1
 -2       317       471       470      2194      2195      2191
 -1       767    8    0    1
 -2       318       319       472      1761      2196      2197
 -1       768    8    0    1
 -2       296       448       473      2140      2198      2199
 -1       769    8    0    1
 -2       296       473       449      2199      2200      2141
 -1       770    8    0    1
 -2       337       321       444      1809      2131      2201
 -1       771    8    0    1
 -2       182       181       323      1340      1811      2202
 -1       772    8    0    1
 -2       338       182       323      1812      2202      2203
 -1       773    8    0    1
 -2       445       293       443      2132      2129      2204
 -1       774    8    0    1
 -2       444       292       445      2130      2133      2205
 -1       775    8    0    1
 -2       442       290       291      2125      1669      2206
 -1       776    8    0    1
 -2       443       294       446      2128      2135      2207
 -1       777    8    0    1
 -2       319       447       472      2137      2208      2196
 -1       778    8    0    1
 -2       471       318       472      2193      2197      2209
 -1       779    8    0    1
 -2       469       316       470      2188      2192      2210
 -1       780    8    0    1
 -2       467       314       468      2184      2187      2211
 -1       781    8    0    1
 -2       466       313       467      2182      2185      2212
 -1       782    8    0    1
 -2       464       311       465      2177      2181      2213
 -1       783    8    0    1
 -2       462       309       463      2172      2176      2214
 -1       784    8    0    1
 -2       460       307       461      2168      2171      2215
 -1       785    8    0    1
 -2       459       306       460      2166      2169      2216
 -1       786    8    0    1
 -2       458       305       459      2164      2167      2217
 -1       787    8    0    1
 -2       457       304       458      2162      2165      2218
 -1       788    8    0    1
 -2       455       302       456      2157      2161      2219
 -1       789    8    0    1
 -2       298       452       451      2152      2220      2148
 -1       790    8    0    1
 -2       453       300       454      2153      2156      2221
 -1       791    8    0    1
 -2       452       299       453      2151      2154      2222
 -1       792    8    0    1
 -2       456       303       457      2160      2163      2223
 -1       793    8    0    1
 -2       465       312       466      2180      2183      2224
 -1       794    8    0    1
 -2       336       384       474      1952      2225      2226
 -1       795    8    0    1
 -2       325       326       475      1776      2227      2228
 -1       796    8    0    1
 -2       324       325       476      1773      2229      2230
 -1       797    8    0    1
 -2       325       475       476      2228      2231      2229
 -1       798    8    0    1
 -2       327       328       477      1782      2232      2233
 -1       799    8    0    1
 -2       328       329       478      1785      2234      2235
 -1       800    8    0    1
 -2       328       478       477      2235      2236      2232
 -1       801    8    0    1
 -2       329       330       479      1788      2237      2238
 -1       802    8    0    1
 -2       329       479       478      2238      2239      2234
 -1       803    8    0    1
 -2       330       331       480      1791      2240      2241
 -1       804    8    0    1
 -2       330       480       479      2241      2242      2237
 -1       805    8    0    1
 -2       331       332       481      1794      2243      2244
 -1       806    8    0    1
 -2       331       481       480      2244      2245      2240
 -1       807    8    0    1
 -2       332       333       482      1797      2246      2247
 -1       808    8    0    1
 -2       332       482       481      2247      2248      2243
 -1       809    8    0    1
 -2       339       338       483      1816      2249      2250
 -1       810    8    0    1
 -2       384       385       484      1955      2251      2252
 -1       811    8    0    1
 -2       384       484       474      2252      2253      2225
 -1       812    8    0    1
 -2       338       323       485      2203      2254      2255
 -1       813    8    0    1
 -2       483       338       485      2249      2255      2256
 -1       814    8    0    1
 -2       323       322       485      1768      2257      2254
 -1       815    8    0    1
 -2       340       339       486      1819      2258      2259
 -1       816    8    0    1
 -2       339       483       486      2250      2260      2258
 -1       817    8    0    1
 -2       341       340       487      1822      2261      2262
 -1       818    8    0    1
 -2       340       486       487      2259      2263      2261
 -1       819    8    0    1
 -2       342       341       488      1825      2264      2265
 -1       820    8    0    1
 -2       341       487       488      2262      2266      2264
 -1       821    8    0    1
 -2       343       342       489      1828      2267      2268
 -1       822    8    0    1
 -2       342       488       489      2265      2269      2267
 -1       823    8    0    1
 -2       344       343       490      1831      2270      2271
 -1       824    8    0    1
 -2       343       489       490      2268      2272      2270
 -1       825    8    0    1
 -2       345       344       491      1834      2273      2274
 -1       826    8    0    1
 -2       344       490       491      2271      2275      2273
 -1       827    8    0    1
 -2       346       345       492      1837      2276      2277
 -1       828    8    0    1
 -2       345       491       492      2274      2278      2276
 -1       829    8    0    1
 -2       347       346       493      1840      2279      2280
 -1       830    8    0    1
 -2       346       492       493      2277      2281      2279
 -1       831    8    0    1
 -2       348       347       494      1843      2282      2283
 -1       832    8    0    1
 -2       347       493       494      2280      2284      2282
 -1       833    8    0    1
 -2       349       348       495      1846      2285      2286
 -1       834    8    0    1
 -2       348       494       495      2283      2287      2285
 -1       835    8    0    1
 -2       350       349       496      1849      2288      2289
 -1       836    8    0    1
 -2       349       495       496      2286      2290      2288
 -1       837    8    0    1
 -2       351       350       497      1852      2291      2292
 -1       838    8    0    1
 -2       350       496       497      2289      2293      2291
 -1       839    8    0    1
 -2       352       351       498      1855      2294      2295
 -1       840    8    0    1
 -2       351       497       498      2292      2296      2294
 -1       841    8    0    1
 -2       353       352       499      1858      2297      2298
 -1       842    8    0    1
 -2       352       498       499      2295      2299      2297
 -1       843    8    0    1
 -2       354       353       500      1861      2300      2301
 -1       844    8    0    1
 -2       353       499       500      2298      2302      2300
 -1       845    8    0    1
 -2       355       354       501      1864      2303      2304
 -1       846    8    0    1
 -2       354       500       501      2301      2305      2303
 -1       847    8    0    1
 -2       356       355       502      1867      2306      2307
 -1       848    8    0    1
 -2       355       501       502      2304      2308      2306
 -1       849    8    0    1
 -2       357       356       503      1870      2309      2310
 -1       850    8    0    1
 -2       356       502       503      2307      2311      2309
 -1       851    8    0    1
 -2       358       357       504      1873      2312      2313
 -1       852    8    0    1
 -2       357       503       504      2310      2314      2312
 -1       853    8    0    1
 -2       359       358       505      1876      2315      2316
 -1       854    8    0    1
 -2       358       504       505      2313      2317      2315
 -1       855    8    0    1
 -2       360       359       506      1879      2318      2319
 -1       856    8    0    1
 -2       359       505       506      2316      2320      2318
 -1       857    8    0    1
 -2       361       360       507      1882      2321      2322
 -1       858    8    0    1
 -2       360       506       507      2319      2323      2321
 -1       859    8    0    1
 -2       362       361       508      1885      2324      2325
 -1       860    8    0    1
 -2       361       507       508      2322      2326      2324
 -1       861    8    0    1
 -2       363       362       509      1888      2327      2328
 -1       862    8    0    1
 -2       362       508       509      2325      2329      2327
 -1       863    8    0    1
 -2       364       363       510      1891      2330      2331
 -1       864    8    0    1
 -2       363       509       510      2328      2332      2330
 -1       865    8    0    1
 -2       365       364       511      1894      2333      2334
 -1       866    8    0    1
 -2       364       510       511      2331      2335      2333
 -1       867    8    0    1
 -2       366       365       512      1897      2336      2337
 -1       868    8    0    1
 -2       365       511       512      2334      2338      2336
 -1       869    8    0    1
 -2       367       366       513      1900      2339      2340
 -1       870    8    0    1
 -2       366       512       513      2337      2341      2339
 -1       871    8    0    1
 -2       368       367       514      1903      2342      2343
 -1       872    8    0    1
 -2       367       513       514      2340      2344      2342
 -1       873    8    0    1
 -2       369       368       515      1906      2345      2346
 -1       874    8    0    1
 -2       368       514       515      2343      2347      2345
 -1       875    8    0    1
 -2       370       369       516      1909      2348      2349
 -1       876    8    0    1
 -2       369       515       516      2346      2350      2348
 -1       877    8    0    1
 -2       371       370       517      1912      2351      2352
 -1       878    8    0    1
 -2       370       516       517      2349      2353      2351
 -1       879    8    0    1
 -2       372       371       518      1915      2354      2355
 -1       880    8    0    1
 -2       371       517       518      2352      2356      2354
 -1       881    8    0    1
 -2       373       372       519      1918      2357      2358
 -1       882    8    0    1
 -2       372       518       519      2355      2359      2357
 -1       883    8    0    1
 -2       374       373       520      1921      2360      2361
 -1       884    8    0    1
 -2       373       519       520      2358      2362      2360
 -1       885    8    0    1
 -2       375       374       521      1924      2363      2364
 -1       886    8    0    1
 -2       374       520       521      2361      2365      2363
 -1       887    8    0    1
 -2       376       375       522      1927      2366      2367
 -1       888    8    0    1
 -2       375       521       522      2364      2368      2366
 -1       889    8    0    1
 -2       377       376       523      1930      2369      2370
 -1       890    8    0    1
 -2       376       522       523      2367      2371      2369
 -1       891    8    0    1
 -2       378       377       524      1933      2372      2373
 -1       892    8    0    1
 -2       377       523       524      2370      2374      2372
 -1       893    8    0    1
 -2       379       378       525      1936      2375      2376
 -1       894    8    0    1
 -2       378       524       525      2373      2377      2375
 -1       895    8    0    1
 -2       380       379       526      1939      2378      2379
 -1       896    8    0    1
 -2       379       525       526      2376      2380      2378
 -1       897    8    0    1
 -2       381       380       527      1942      2381      2382
 -1       898    8    0    1
 -2       380       526       527      2379      2383      2381
 -1       899    8    0    1
 -2       382       381       528      1945      2384      2385
 -1       900    8    0    1
 -2       381       527       528      2382      2386      2384
 -1       901    8    0    1
 -2       386       387       529      1961      2387      2388
 -1       902    8    0    1
 -2       387       388       530      1964      2389      2390
 -1       903    8    0    1
 -2       387       530       529      2390      2391      2387
 -1       904    8    0    1
 -2       388       389       531      1967      2392      2393
 -1       905    8    0    1
 -2       388       531       530      2393      2394      2389
 -1       906    8    0    1
 -2       389       390       532      1970      2395      2396
 -1       907    8    0    1
 -2       389       532       531      2396      2397      2392
 -1       908    8    0    1
 -2       390       391       533      1973      2398      2399
 -1       909    8    0    1
 -2       390       533       532      2399      2400      2395
 -1       910    8    0    1
 -2       391       392       534      1976      2401      2402
 -1       911    8    0    1
 -2       391       534       533      2402      2403      2398
 -1       912    8    0    1
 -2       392       393       535      1979      2404      2405
 -1       913    8    0    1
 -2       392       535       534      2405      2406      2401
 -1       914    8    0    1
 -2       393       394       536      1982      2407      2408
 -1       915    8    0    1
 -2       393       536       535      2408      2409      2404
 -1       916    8    0    1
 -2       394       395       537      1985      2410      2411
 -1       917    8    0    1
 -2       394       537       536      2411      2412      2407
 -1       918    8    0    1
 -2       395       396       538      1988      2413      2414
 -1       919    8    0    1
 -2       395       538       537      2414      2415      2410
 -1       920    8    0    1
 -2       396       397       539      1991      2416      2417
 -1       921    8    0    1
 -2       396       539       538      2417      2418      2413
 -1       922    8    0    1
 -2       397       398       540      1994      2419      2420
 -1       923    8    0    1
 -2       397       540       539      2420      2421      2416
 -1       924    8    0    1
 -2       398       399       541      1997      2422      2423
 -1       925    8    0    1
 -2       398       541       540      2423      2424      2419
 -1       926    8    0    1
 -2       399       400       542      2000      2425      2426
 -1       927    8    0    1
 -2       399       542       541      2426      2427      2422
 -1       928    8    0    1
 -2       400       401       543      2003      2428      2429
 -1       929    8    0    1
 -2       400       543       542      2429      2430      2425
 -1       930    8    0    1
 -2       401       402       544      2006      2431      2432
 -1       931    8    0    1
 -2       401       544       543      2432      2433      2428
 -1       932    8    0    1
 -2       402       403       545      2009      2434      2435
 -1       933    8    0    1
 -2       402       545       544      2435      2436      2431
 -1       934    8    0    1
 -2       403       404       546      2012      2437      2438
 -1       935    8    0    1
 -2       403       546       545      2438      2439      2434
 -1       936    8    0    1
 -2       404       405       547      2015      2440      2441
 -1       937    8    0    1
 -2       404       547       546      2441      2442      2437
 -1       938    8    0    1
 -2       405       406       548      2018      2443      2444
 -1       939    8    0    1
 -2       405       548       547      2444      2445      2440
 -1       940    8    0    1
 -2       406       407       549      2021      2446      2447
 -1       941    8    0    1
 -2       406       549       548      2447      2448      2443
 -1       942    8    0    1
 -2       407       408       550      2024      2449      2450
 -1       943    8    0    1
 -2       407       550       549      2450      2451      2446
 -1       944    8    0    1
 -2       408       409       551      2027      2452      2453
 -1       945    8    0    1
 -2       408       551       550      2453      2454      2449
 -1       946    8    0    1
 -2       409       410       552      2030      2455      2456
 -1       947    8    0    1
 -2       409       552       551      2456      2457      2452
 -1       948    8    0    1
 -2       410       411       553      2033      2458      2459
 -1       949    8    0    1
 -2       410       553       552      2459      2460      2455
 -1       950    8    0    1
 -2       411       412       554      2036      2461      2462
 -1       951    8    0    1
 -2       411       554       553      2462      2463      2458
 -1       952    8    0    1
 -2       412       413       555      2039      2464      2465
 -1       953    8    0    1
 -2       412       555       554      2465      2466      2461
 -1       954    8    0    1
 -2       413       414       556      2042      2467      2468
 -1       955    8    0    1
 -2       413       556       555      2468      2469      2464
 -1       956    8    0    1
 -2       414       415       557      2045      2470      2471
 -1       957    8    0    1
 -2       414       557       556      2471      2472      2467
 -1       958    8    0    1
 -2       415       416       558      2048      2473      2474
 -1       959    8    0    1
 -2       415       558       557      2474      2475      2470
 -1       960    8    0    1
 -2       416       417       559      2051      2476      2477
 -1       961    8    0    1
 -2       416       559       558      2477      2478      2473
 -1       962    8    0    1
 -2       417       418       560      2054      2479      2480
 -1       963    8    0    1
 -2       417       560       559      2480      2481      2476
 -1       964    8    0    1
 -2       418       419       561      2057      2482      2483
 -1       965    8    0    1
 -2       418       561       560      2483      2484      2479
 -1       966    8    0    1
 -2       419       420       562      2060      2485      2486
 -1       967    8    0    1
 -2       419       562       561      2486      2487      2482
 -1       968    8    0    1
 -2       420       421       563      2063      2488      2489
 -1       969    8    0    1
 -2       420       563       562      2489      2490      2485
 -1       970    8    0    1
 -2       421       422       564      2066      2491      2492
 -1       971    8    0    1
 -2       421       564       563      2492      2493      2488
 -1       972    8    0    1
 -2       422       423       565      2069      2494      2495
 -1       973    8    0    1
 -2       422       565       564      2495      2496      2491
 -1       974    8    0    1
 -2       423       424       566      2072      2497      2498
 -1       975    8    0    1
 -2       423       566       565      2498      2499      2494
 -1       976    8    0    1
 -2       424       425       567      2075      2500      2501
 -1       977    8    0    1
 -2       424       567       566      2501      2502      2497
 -1       978    8    0    1
 -2       425       426       568      2078      2503      2504
 -1       979    8    0    1
 -2       425       568       567      2504      2505      2500
 -1       980    8    0    1
 -2       426       427       569      2081      2506      2507
 -1       981    8    0    1
 -2       426       569       568      2507      2508      2503
 -1       982    8    0    1
 -2       427       428       570      2084      2509      2510
 -1       983    8    0    1
 -2       427       570       569      2510      2511      2506
 -1       984    8    0    1
 -2       428       429       432      2087      2096      2512
 -1       985    8    0    1
 -2       433       434       571      2103      2513      2514
 -1       986    8    0    1
 -2       434       435       572      2106      2515      2516
 -1       987    8    0    1
 -2       434       572       571      2516      2517      2513
 -1       988    8    0    1
 -2       431       430       573      2093      2518      2519
 -1       989    8    0    1
 -2       430       433       574      2100      2520      2521
 -1       990    8    0    1
 -2       573       430       574      2518      2521      2522
 -1       991    8    0    1
 -2       433       571       574      2514      2523      2520
 -1       992    8    0    1
 -2       435       436       575      2109      2524      2525
 -1       993    8    0    1
 -2       435       575       572      2525      2526      2515
 -1       994    8    0    1
 -2       436       437       576      2112      2527      2528
 -1       995    8    0    1
 -2       436       576       575      2528      2529      2524
 -1       996    8    0    1
 -2       437       438       577      2115      2530      2531
 -1       997    8    0    1
 -2       437       577       576      2531      2532      2527
 -1       998    8    0    1
 -2       438       439       578      2118      2533      2534
 -1       999    8    0    1
 -2       438       578       577      2534      2535      2530
 -1      1000    8    0    1
 -2       439       440       579      2121      2536      2537
 -1      1001    8    0    1
 -2       439       579       578      2537      2538      2533
 -1      1002    8    0    1
 -2       440       441       580      2124      2539      2540
 -1      1003    8    0    1
 -2       440       580       579      2540      2541      2536
 -1      1004    8    0    1
 -2       441       442       581      2127      2542      2543
 -1      1005    8    0    1
 -2       441       581       580      2543      2544      2539
 -1      1006    8    0    1
 -2       444       445       582      2205      2545      2546
 -1      1007    8    0    1
 -2       443       446       583      2207      2547      2548
 -1      1008    8    0    1
 -2       385       386       584      1958      2549      2550
 -1      1009    8    0    1
 -2       386       529       584      2388      2551      2549
 -1      1010    8    0    1
 -2       445       443       585      2204      2552      2553
 -1      1011    8    0    1
 -2       442       291       383      2206      1948      2554
 -1      1012    8    0    1
 -2       472       447       586      2208      2555      2556
 -1      1013    8    0    1
 -2       467       468       587      2211      2557      2558
 -1      1014    8    0    1
 -2       460       461       588      2215      2559      2560
 -1      1015    8    0    1
 -2       451       452       589      2220      2561      2562
 -1      1016    8    0    1
 -2       337       444       590      2201      2563      2564
 -1      1017    8    0    1
 -2       444       582       590      2546      2565      2563
 -1      1018    8    0    1
 -2       447       337       591      2138      2566      2567
 -1      1019    8    0    1
 -2       447       591       586      2567      2568      2555
 -1      1020    8    0    1
 -2       326       327       592      1779      2569      2570
 -1      1021    8    0    1
 -2       475       326       592      2227      2570      2571
 -1      1022    8    0    1
 -2       327       477       592      2233      2572      2569
 -1      1023    8    0    1
 -2       446       449       593      2143      2573      2574
 -1      1024    8    0    1
 -2       456       457       594      2223      2575      2576
 -1      1025    8    0    1
 -2       452       453       595      2222      2577      2578
 -1      1026    8    0    1
 -2       452       595       589      2578      2579      2561
 -1      1027    8    0    1
 -2       454       455       596      2159      2580      2581
 -1      1028    8    0    1
 -2       465       466       597      2224      2582      2583
 -1      1029    8    0    1
 -2       455       456       598      2219      2584      2585
 -1      1030    8    0    1
 -2       455       598       596      2585      2586      2580
 -1      1031    8    0    1
 -2       457       458       599      2218      2587      2588
 -1      1032    8    0    1
 -2       458       459       600      2217      2589      2590
 -1      1033    8    0    1
 -2       459       460       601      2216      2591      2592
 -1      1034    8    0    1
 -2       460       588       601      2560      2593      2591
 -1      1035    8    0    1
 -2       461       462       602      2174      2594      2595
 -1      1036    8    0    1
 -2       462       463       603      2214      2596      2597
 -1      1037    8    0    1
 -2       463       464       604      2179      2598      2599
 -1      1038    8    0    1
 -2       464       465       605      2213      2600      2601
 -1      1039    8    0    1
 -2       466       467       606      2212      2602      2603
 -1      1040    8    0    1
 -2       467       587       606      2558      2604      2602
 -1      1041    8    0    1
 -2       468       469       607      2190      2605      2606
 -1      1042    8    0    1
 -2       469       470       608      2210      2607      2608
 -1      1043    8    0    1
 -2       470       471       609      2195      2609      2610
 -1      1044    8    0    1
 -2       471       472       610      2209      2611      2612
 -1      1045    8    0    1
 -2       335       336       611      1808      2613      2614
 -1      1046    8    0    1
 -2       334       335       611      1803      2614      2615
 -1      1047    8    0    1
 -2       336       474       611      2226      2616      2613
 -1      1048    8    0    1
 -2       453       454       612      2221      2617      2618
 -1      1049    8    0    1
 -2       448       451       613      2150      2619      2620
 -1      1050    8    0    1
 -2       446       593       583      2574      2621      2547
 -1      1051    8    0    1
 -2       324       476       614      2230      2622      2623
 -1      1052    8    0    1
 -2       324       614       450      2623      2624      2147
 -1      1053    8    0    1
 -2       445       585       582      2553      2625      2545
 -1      1054    8    0    1
 -2       333       334       611      1800      2615      2626
 -1      1055    8    0    1
 -2       612       454       596      2617      2581      2627
 -1      1056    8    0    1
 -2       322       450       615      2146      2628      2629
 -1      1057    8    0    1
 -2       485       322       615      2257      2629      2630
 -1      1058    8    0    1
 -2       450       614       615      2624      2631      2628
 -1      1059    8    0    1
 -2       610       472       586      2611      2556      2632
 -1      1060    8    0    1
 -2       609       471       610      2609      2612      2633
 -1      1061    8    0    1
 -2       608       470       609      2607      2610      2634
 -1      1062    8    0    1
 -2       428       432       570      2512      2635      2509
 -1      1063    8    0    1
 -2       432       431       570      2097      2636      2635
 -1      1064    8    0    1
 -2       333       611       482      2626      2637      2246
 -1      1065    8    0    1
 -2       443       583       585      2548      2638      2552
 -1      1066    8    0    1
 -2       605       465       597      2600      2583      2639
 -1      1067    8    0    1
 -2       604       464       605      2598      2601      2640
 -1      1068    8    0    1
 -2       385       584       484      2550      2641      2251
 -1      1069    8    0    1
 -2       442       383       616      2554      2642      2643
 -1      1070    8    0    1
 -2       581       442       616      2542      2643      2644
 -1      1071    8    0    1
 -2       383       382       616      1949      2645      2642
 -1      1072    8    0    1
 -2       468       607       587      2606      2646      2557
 -1      1073    8    0    1
 -2       603       463       604      2596      2599      2647
 -1      1074    8    0    1
 -2       473       448       617      2198      2648      2649
 -1      1075    8    0    1
 -2       448       613       617      2620      2650      2648
 -1      1076    8    0    1
 -2       600       459       601      2589      2592      2651
 -1      1077    8    0    1
 -2       461       602       588      2595      2652      2559
 -1      1078    8    0    1
 -2       598       456       594      2584      2576      2653
 -1      1079    8    0    1
 -2       597       466       606      2582      2603      2654
 -1      1080    8    0    1
 -2       595       453       618      2577      2655      2656
 -1      1081    8    0    1
 -2       453       612       618      2618      2657      2655
 -1      1082    8    0    1
 -2       451       589       613      2562      2658      2619
 -1      1083    8    0    1
 -2       337       590       619      2564      2659      2660
 -1      1084    8    0    1
 -2       337       619       591      2660      2661      2566
 -1      1085    8    0    1
 -2       594       457       599      2575      2588      2662
 -1      1086    8    0    1
 -2       382       528       616      2385      2663      2645
 -1      1087    8    0    1
 -2       593       449       620      2573      2664      2665
 -1      1088    8    0    1
 -2       449       473       620      2200      2666      2664
 -1      1089    8    0    1
 -2       599       458       600      2587      2590      2667
 -1      1090    8    0    1
 -2       602       462       603      2594      2597      2668
 -1      1091    8    0    1
 -2       607       469       608      2605      2608      2669
 -1      1092    8    0    1
 -2       570       431       573      2636      2519      2670
 -1      1093    8    0    1
 -2       478       479       621      2239      2671      2672
 -1      1094    8    0    1
 -2       477       478       622      2236      2673      2674
 -1      1095    8    0    1
 -2       478       621       622      2672      2675      2673
 -1      1096    8    0    1
 -2       480       481       623      2245      2676      2677
 -1      1097    8    0    1
 -2       481       482       624      2248      2678      2679
 -1      1098    8    0    1
 -2       481       624       623      2679      2680      2676
 -1      1099    8    0    1
 -2       585       583       625      2638      2681      2682
 -1      1100    8    0    1
 -2       486       483       626      2260      2683      2684
 -1      1101    8    0    1
 -2       474       484       627      2253      2685      2686
 -1      1102    8    0    1
 -2       611       474       482      2616      2687      2637
 -1      1103    8    0    1
 -2       531       532       628      2397      2688      2689
 -1      1104    8    0    1
 -2       609       610       629      2633      2690      2691
 -1      1105    8    0    1
 -2       487       486       630      2263      2692      2693
 -1      1106    8    0    1
 -2       486       626       630      2684      2694      2692
 -1      1107    8    0    1
 -2       488       487       631      2266      2695      2696
 -1      1108    8    0    1
 -2       487       630       631      2693      2697      2695
 -1      1109    8    0    1
 -2       489       488       632      2269      2698      2699
 -1      1110    8    0    1
 -2       488       631       632      2696      2700      2698
 -1      1111    8    0    1
 -2       490       489       633      2272      2701      2702
 -1      1112    8    0    1
 -2       489       632       633      2699      2703      2701
 -1      1113    8    0    1
 -2       491       490       634      2275      2704      2705
 -1      1114    8    0    1
 -2       490       633       634      2702      2706      2704
 -1      1115    8    0    1
 -2       492       491       635      2278      2707      2708
 -1      1116    8    0    1
 -2       491       634       635      2705      2709      2707
 -1      1117    8    0    1
 -2       493       492       636      2281      2710      2711
 -1      1118    8    0    1
 -2       492       635       636      2708      2712      2710
 -1      1119    8    0    1
 -2       494       493       637      2284      2713      2714
 -1      1120    8    0    1
 -2       493       636       637      2711      2715      2713
 -1      1121    8    0    1
 -2       495       494       638      2287      2716      2717
 -1      1122    8    0    1
 -2       494       637       638      2714      2718      2716
 -1      1123    8    0    1
 -2       496       495       639      2290      2719      2720
 -1      1124    8    0    1
 -2       495       638       639      2717      2721      2719
 -1      1125    8    0    1
 -2       497       496       640      2293      2722      2723
 -1      1126    8    0    1
 -2       496       639       640      2720      2724      2722
 -1      1127    8    0    1
 -2       498       497       641      2296      2725      2726
 -1      1128    8    0    1
 -2       497       640       641      2723      2727      2725
 -1      1129    8    0    1
 -2       499       498       642      2299      2728      2729
 -1      1130    8    0    1
 -2       498       641       642      2726      2730      2728
 -1      1131    8    0    1
 -2       500       499       643      2302      2731      2732
 -1      1132    8    0    1
 -2       499       642       643      2729      2733      2731
 -1      1133    8    0    1
 -2       501       500       644      2305      2734      2735
 -1      1134    8    0    1
 -2       500       643       644      2732      2736      2734
 -1      1135    8    0    1
 -2       502       501       645      2308      2737      2738
 -1      1136    8    0    1
 -2       501       644       645      2735      2739      2737
 -1      1137    8    0    1
 -2       503       502       646      2311      2740      2741
 -1      1138    8    0    1
 -2       502       645       646      2738      2742      2740
 -1      1139    8    0    1
 -2       504       503       647      2314      2743      2744
 -1      1140    8    0    1
 -2       503       646       647      2741      2745      2743
 -1      1141    8    0    1
 -2       505       504       648      2317      2746      2747
 -1      1142    8    0    1
 -2       504       647       648      2744      2748      2746
 -1      1143    8    0    1
 -2       506       505       649      2320      2749      2750
 -1      1144    8    0    1
 -2       505       648       649      2747      2751      2749
 -1      1145    8    0    1
 -2       507       506       650      2323      2752      2753
 -1      1146    8    0    1
 -2       506       649       650      2750      2754      2752
 -1      1147    8    0    1
 -2       508       507       651      2326      2755      2756
 -1      1148    8    0    1
 -2       507       650       651      2753      2757      2755
 -1      1149    8    0    1
 -2       509       508       652      2329      2758      2759
 -1      1150    8    0    1
 -2       508       651       652      2756      2760      2758
 -1      1151    8    0    1
 -2       510       509       653      2332      2761      2762
 -1      1152    8    0    1
 -2       509       652       653      2759      2763      2761
 -1      1153    8    0    1
 -2       511       510       654      2335      2764      2765
 -1      1154    8    0    1
 -2       510       653       654      2762      2766      2764
 -1      1155    8    0    1
 -2       512       511       655      2338      2767      2768
 -1      1156    8    0    1
 -2       511       654       655      2765      2769      2767
 -1      1157    8    0    1
 -2       513       512       656      2341      2770      2771
 -1      1158    8    0    1
 -2       512       655       656      2768      2772      2770
 -1      1159    8    0    1
 -2       514       513       657      2344      2773      2774
 -1      1160    8    0    1
 -2       513       656       657      2771      2775      2773
 -1      1161    8    0    1
 -2       515       514       658      2347      2776      2777
 -1      1162    8    0    1
 -2       514       657       658      2774      2778      2776
 -1      1163    8    0    1
 -2       516       515       659      2350      2779      2780
 -1      1164    8    0    1
 -2       515       658       659      2777      2781      2779
 -1      1165    8    0    1
 -2       517       516       660      2353      2782      2783
 -1      1166    8    0    1
 -2       516       659       660      2780      2784      2782
 -1      1167    8    0    1
 -2       518       517       661      2356      2785      2786
 -1      1168    8    0    1
 -2       517       660       661      2783      2787      2785
 -1      1169    8    0    1
 -2       519       518       662      2359      2788      2789
 -1      1170    8    0    1
 -2       518       661       662      2786      2790      2788
 -1      1171    8    0    1
 -2       520       519       663      2362      2791      2792
 -1      1172    8    0    1
 -2       519       662       663      2789      2793      2791
 -1      1173    8    0    1
 -2       521       520       664      2365      2794      2795
 -1      1174    8    0    1
 -2       520       663       664      2792      2796      2794
 -1      1175    8    0    1
 -2       522       521       665      2368      2797      2798
 -1      1176    8    0    1
 -2       521       664       665      2795      2799      2797
 -1      1177    8    0    1
 -2       523       522       666      2371      2800      2801
 -1      1178    8    0    1
 -2       522       665       666      2798      2802      2800
 -1      1179    8    0    1
 -2       524       523       667      2374      2803      2804
 -1      1180    8    0    1
 -2       523       666       667      2801      2805      2803
 -1      1181    8    0    1
 -2       525       524       668      2377      2806      2807
 -1      1182    8    0    1
 -2       524       667       668      2804      2808      2806
 -1      1183    8    0    1
 -2       526       525       669      2380      2809      2810
 -1      1184    8    0    1
 -2       525       668       669      2807      2811      2809
 -1      1185    8    0    1
 -2       527       526       670      2383      2812      2813
 -1      1186    8    0    1
 -2       526       669       670      2810      2814      2812
 -1      1187    8    0    1
 -2       528       527       671      2386      2815      2816
 -1      1188    8    0    1
 -2       527       670       671      2813      2817      2815
 -1      1189    8    0    1
 -2       530       531       672      2394      2818      2819
 -1      1190    8    0    1
 -2       531       628       672      2689      2820      2818
 -1      1191    8    0    1
 -2       587       607       673      2646      2821      2822
 -1      1192    8    0    1
 -2       529       530       674      2391      2823      2824
 -1      1193    8    0    1
 -2       530       672       674      2819      2825      2823
 -1      1194    8    0    1
 -2       532       533       675      2400      2826      2827
 -1      1195    8    0    1
 -2       532       675       628      2827      2828      2688
 -1      1196    8    0    1
 -2       533       534       676      2403      2829      2830
 -1      1197    8    0    1
 -2       533       676       675      2830      2831      2826
 -1      1198    8    0    1
 -2       534       535       677      2406      2832      2833
 -1      1199    8    0    1
 -2       534       677       676      2833      2834      2829
 -1      1200    8    0    1
 -2       535       536       678      2409      2835      2836
 -1      1201    8    0    1
 -2       535       678       677      2836      2837      2832
 -1      1202    8    0    1
 -2       536       537       679      2412      2838      2839
 -1      1203    8    0    1
 -2       536       679       678      2839      2840      2835
 -1      1204    8    0    1
 -2       537       538       680      2415      2841      2842
 -1      1205    8    0    1
 -2       537       680       679      2842      2843      2838
 -1      1206    8    0    1
 -2       538       539       681      2418      2844      2845
 -1      1207    8    0    1
 -2       538       681       680      2845      2846      2841
 -1      1208    8    0    1
 -2       539       540       682      2421      2847      2848
 -1      1209    8    0    1
 -2       539       682       681      2848      2849      2844
 -1      1210    8    0    1
 -2       540       541       683      2424      2850      2851
 -1      1211    8    0    1
 -2       540       683       682      2851      2852      2847
 -1      1212    8    0    1
 -2       541       542       684      2427      2853      2854
 -1      1213    8    0    1
 -2       541       684       683      2854      2855      2850
 -1      1214    8    0    1
 -2       542       543       685      2430      2856      2857
 -1      1215    8    0    1
 -2       542       685       684      2857      2858      2853
 -1      1216    8    0    1
 -2       543       544       686      2433      2859      2860
 -1      1217    8    0    1
 -2       543       686       685      2860      2861      2856
 -1      1218    8    0    1
 -2       544       545       687      2436      2862      2863
 -1      1219    8    0    1
 -2       544       687       686      2863      2864      2859
 -1      1220    8    0    1
 -2       545       546       688      2439      2865      2866
 -1      1221    8    0    1
 -2       545       688       687      2866      2867      2862
 -1      1222    8    0    1
 -2       546       547       689      2442      2868      2869
 -1      1223    8    0    1
 -2       546       689       688      2869      2870      2865
 -1      1224    8    0    1
 -2       547       548       690      2445      2871      2872
 -1      1225    8    0    1
 -2       547       690       689      2872      2873      2868
 -1      1226    8    0    1
 -2       548       549       691      2448      2874      2875
 -1      1227    8    0    1
 -2       548       691       690      2875      2876      2871
 -1      1228    8    0    1
 -2       549       550       692      2451      2877      2878
 -1      1229    8    0    1
 -2       549       692       691      2878      2879      2874
 -1      1230    8    0    1
 -2       550       551       693      2454      2880      2881
 -1      1231    8    0    1
 -2       550       693       692      2881      2882      2877
 -1      1232    8    0    1
 -2       551       552       694      2457      2883      2884
 -1      1233    8    0    1
 -2       551       694       693      2884      2885      2880
 -1      1234    8    0    1
 -2       552       553       695      2460      2886      2887
 -1      1235    8    0    1
 -2       552       695       694      2887      2888      2883
 -1      1236    8    0    1
 -2       553       554       696      2463      2889      2890
 -1      1237    8    0    1
 -2       553       696       695      2890      2891      2886
 -1      1238    8    0    1
 -2       554       555       697      2466      2892      2893
 -1      1239    8    0    1
 -2       554       697       696      2893      2894      2889
 -1      1240    8    0    1
 -2       555       556       698      2469      2895      2896
 -1      1241    8    0    1
 -2       555       698       697      2896      2897      2892
 -1      1242    8    0    1
 -2       556       557       699      2472      2898      2899
 -1      1243    8    0    1
 -2       556       699       698      2899      2900      2895
 -1      1244    8    0    1
 -2       557       558       700      2475      2901      2902
 -1      1245    8    0    1
 -2       557       700       699      2902      2903      2898
 -1      1246    8    0    1
 -2       558       559       701      2478      2904      2905
 -1      1247    8    0    1
 -2       558       701       700      2905      2906      2901
 -1      1248    8    0    1
 -2       559       560       702      2481      2907      2908
 -1      1249    8    0    1
 -2       559       702       701      2908      2909      2904
 -1      1250    8    0    1
 -2       560       561       703      2484      2910      2911
 -1      1251    8    0    1
 -2       560       703       702      2911      2912      2907
 -1      1252    8    0    1
 -2       561       562       704      2487      2913      2914
 -1      1253    8    0    1
 -2       561       704       703      2914      2915      2910
 -1      1254    8    0    1
 -2       562       563       705      2490      2916      2917
 -1      1255    8    0    1
 -2       562       705       704      2917      2918      2913
 -1      1256    8    0    1
 -2       563       564       706      2493      2919      2920
 -1      1257    8    0    1
 -2       563       706       705      2920      2921      2916
 -1      1258    8    0    1
 -2       564       565       707      2496      2922      2923
 -1      1259    8    0    1
 -2       564       707       706      2923      2924      2919
 -1      1260    8    0    1
 -2       565       566       708      2499      2925      2926
 -1      1261    8    0    1
 -2       565       708       707      2926      2927      2922
 -1      1262    8    0    1
 -2       566       567       709      2502      2928      2929
 -1      1263    8    0    1
 -2       566       709       708      2929      2930      2925
 -1      1264    8    0    1
 -2       567       568       710      2505      2931      2932
 -1      1265    8    0    1
 -2       567       710       709      2932      2933      2928
 -1      1266    8    0    1
 -2       568       569       711      2508      2934      2935
 -1      1267    8    0    1
 -2       568       711       710      2935      2936      2931
 -1      1268    8    0    1
 -2       569       570       712      2511      2937      2938
 -1      1269    8    0    1
 -2       711       569       712      2934      2938      2939
 -1      1270    8    0    1
 -2       570       573       712      2670      2940      2937
 -1      1271    8    0    1
 -2       575       576       713      2529      2941      2942
 -1      1272    8    0    1
 -2       571       572       714      2517      2943      2944
 -1      1273    8    0    1
 -2       576       577       715      2532      2945      2946
 -1      1274    8    0    1
 -2       576       715       713      2946      2947      2941
 -1      1275    8    0    1
 -2       572       575       716      2526      2948      2949
 -1      1276    8    0    1
 -2       714       572       716      2943      2949      2950
 -1      1277    8    0    1
 -2       575       713       716      2942      2951      2948
 -1      1278    8    0    1
 -2       610       586       717      2632      2952      2953
 -1      1279    8    0    1
 -2       606       587       718      2604      2954      2955
 -1      1280    8    0    1
 -2       587       673       718      2822      2956      2954
 -1      1281    8    0    1
 -2       577       578       719      2535      2957      2958
 -1      1282    8    0    1
 -2       577       719       715      2958      2959      2945
 -1      1283    8    0    1
 -2       578       579       720      2538      2960      2961
 -1      1284    8    0    1
 -2       578       720       719      2961      2962      2957
 -1      1285    8    0    1
 -2       579       580       721      2541      2963      2964
 -1      1286    8    0    1
 -2       579       721       720      2964      2965      2960
 -1      1287    8    0    1
 -2       586       591       722      2568      2966      2967
 -1      1288    8    0    1
 -2       605       597       723      2639      2968      2969
 -1      1289    8    0    1
 -2       601       588       724      2593      2970      2971
 -1      1290    8    0    1
 -2       590       582       725      2565      2972      2973
 -1      1291    8    0    1
 -2       598       594       726      2653      2974      2975
 -1      1292    8    0    1
 -2       603       604       727      2647      2976      2977
 -1      1293    8    0    1
 -2       584       529       728      2551      2978      2979
 -1      1294    8    0    1
 -2       529       674       728      2824      2980      2978
 -1      1295    8    0    1
 -2       594       599       729      2662      2981      2982
 -1      1296    8    0    1
 -2       581       616       730      2644      2983      2984
 -1      1297    8    0    1
 -2       616       528       730      2663      2985      2983
 -1      1298    8    0    1
 -2       597       606       731      2654      2986      2987
 -1      1299    8    0    1
 -2       582       585       732      2625      2988      2989
 -1      1300    8    0    1
 -2       479       480       733      2242      2990      2991
 -1      1301    8    0    1
 -2       621       479       733      2671      2991      2992
 -1      1302    8    0    1
 -2       480       623       733      2677      2993      2990
 -1      1303    8    0    1
 -2       476       475       734      2231      2994      2995
 -1      1304    8    0    1
 -2       589       595       735      2579      2996      2997
 -1      1305    8    0    1
 -2       604       605       736      2640      2998      2999
 -1      1306    8    0    1
 -2       596       598       737      2586      3000      3001
 -1      1307    8    0    1
 -2       602       603       738      2668      3002      3003
 -1      1308    8    0    1
 -2       588       602       739      2652      3004      3005
 -1      1309    8    0    1
 -2       607       608       740      2669      3006      3007
 -1      1310    8    0    1
 -2       484       584       741      2641      3008      3009
 -1      1311    8    0    1
 -2       627       484       741      2685      3009      3010
 -1      1312    8    0    1
 -2       584       728       741      2979      3011      3008
 -1      1313    8    0    1
 -2       483       485       742      2256      3012      3013
 -1      1314    8    0    1
 -2       626       483       742      2683      3013      3014
 -1      1315    8    0    1
 -2       485       615       742      2630      3015      3012
 -1      1316    8    0    1
 -2       613       589       743      2658      3016      3017
 -1      1317    8    0    1
 -2       589       735       743      2997      3018      3016
 -1      1318    8    0    1
 -2       608       609       744      2634      3019      3020
 -1      1319    8    0    1
 -2       612       596       745      2627      3021      3022
 -1      1320    8    0    1
 -2       599       600       746      2667      3023      3024
 -1      1321    8    0    1
 -2       600       601       747      2651      3025      3026
 -1      1322    8    0    1
 -2       583       593       748      2621      3027      3028
 -1      1323    8    0    1
 -2       614       476       749      2622      3029      3030
 -1      1324    8    0    1
 -2       476       734       749      2995      3031      3029
 -1      1325    8    0    1
 -2       477       622       750      2674      3032      3033
 -1      1326    8    0    1
 -2       477       750       592      3033      3034      2572
 -1      1327    8    0    1
 -2       585       625       732      2682      3035      2988
 -1      1328    8    0    1
 -2       625       583       751      2681      3036      3037
 -1      1329    8    0    1
 -2       583       748       751      3028      3038      3036
 -1      1330    8    0    1
 -2       528       671       730      2816      3039      2985
 -1      1331    8    0    1
 -2       482       474       627      2687      2686      3040
 -1      1332    8    0    1
 -2       748       593       752      3027      3041      3042
 -1      1333    8    0    1
 -2       593       620       752      2665      3043      3041
 -1      1334    8    0    1
 -2       747       601       724      3025      2971      3044
 -1      1335    8    0    1
 -2       609       629       744      2691      3045      3019
 -1      1336    8    0    1
 -2       740       608       744      3006      3020      3046
 -1      1337    8    0    1
 -2       673       607       740      2821      3007      3047
 -1      1338    8    0    1
 -2       594       729       726      2982      3048      2974
 -1      1339    8    0    1
 -2       739       602       738      3004      3003      3049
 -1      1340    8    0    1
 -2       712       573       753      2940      3050      3051
 -1      1341    8    0    1
 -2       573       574       753      2522      3052      3050
 -1      1342    8    0    1
 -2       717       586       722      2952      2967      3053
 -1      1343    8    0    1
 -2       738       603       727      3002      2977      3054
 -1      1344    8    0    1
 -2       606       718       731      2955      3055      2986
 -1      1345    8    0    1
 -2       737       598       726      3000      2975      3056
 -1      1346    8    0    1
 -2       722       591       619      2966      2661      3057
 -1      1347    8    0    1
 -2       580       581       730      2544      2984      3058
 -1      1348    8    0    1
 -2       605       723       736      2969      3059      2998
 -1      1349    8    0    1
 -2       727       604       736      2976      2999      3060
 -1      1350    8    0    1
 -2       482       627       624      3040      3061      2678
 -1      1351    8    0    1
 -2       475       592       754      2571      3062      3063
 -1      1352    8    0    1
 -2       734       475       754      2994      3063      3064
 -1      1353    8    0    1
 -2       592       750       754      3034      3065      3062
 -1      1354    8    0    1
 -2       617       613       755      2650      3066      3067
 -1      1355    8    0    1
 -2       613       743       755      3017      3068      3066
 -1      1356    8    0    1
 -2       725       582       732      2972      2989      3069
 -1      1357    8    0    1
 -2       590       725       619      2973      3070      2659
 -1      1358    8    0    1
 -2       724       588       739      2970      3005      3071
 -1      1359    8    0    1
 -2       723       597       731      2968      2987      3072
 -1      1360    8    0    1
 -2       618       612       745      2657      3022      3073
 -1      1361    8    0    1
 -2       729       599       746      2981      3024      3074
 -1      1362    8    0    1
 -2       574       571       756      2523      3075      3076
 -1      1363    8    0    1
 -2       753       574       756      3052      3076      3077
 -1      1364    8    0    1
 -2       571       714       756      2944      3078      3075
 -1      1365    8    0    1
 -2       629       610       717      2690      2953      3079
 -1      1366    8    0    1
 -2       620       473       757      2666      3080      3081
 -1      1367    8    0    1
 -2       473       617       757      2649      3082      3080
 -1      1368    8    0    1
 -2       596       737       745      3001      3083      3021
 -1      1369    8    0    1
 -2       746       600       747      3023      3026      3084
 -1      1370    8    0    1
 -2       580       730       758      3058      3085      3086
 -1      1371    8    0    1
 -2       721       580       758      2963      3086      3087
 -1      1372    8    0    1
 -2       730       671       758      3039      3088      3085
 -1      1373    8    0    1
 -2       623       624       759      2680      3089      3090
 -1      1374    8    0    1
 -2       615       614       760      2631      3091      3092
 -1      1375    8    0    1
 -2       742       615       760      3015      3092      3093
 -1      1376    8    0    1
 -2       614       749       760      3030      3094      3091
 -1      1377    8    0    1
 -2       675       676       761      2831      3095      3096
 -1      1378    8    0    1
 -2       628       675       762      2828      3097      3098
 -1      1379    8    0    1
 -2       675       761       762      3096      3099      3097
 -1      1380    8    0    1
 -2       631       630       763      2697      3100      3101
 -1      1381    8    0    1
 -2       632       631       764      2700      3102      3103
 -1      1382    8    0    1
 -2       631       763       764      3101      3104      3102
 -1      1383    8    0    1
 -2       633       632       765      2703      3105      3106
 -1      1384    8    0    1
 -2       632       764       765      3103      3107      3105
 -1      1385    8    0    1
 -2       634       633       766      2706      3108      3109
 -1      1386    8    0    1
 -2       633       765       766      3106      3110      3108
 -1      1387    8    0    1
 -2       635       634       767      2709      3111      3112
 -1      1388    8    0    1
 -2       634       766       767      3109      3113      3111
 -1      1389    8    0    1
 -2       636       635       768      2712      3114      3115
 -1      1390    8    0    1
 -2       635       767       768      3112      3116      3114
 -1      1391    8    0    1
 -2       640       639       731      2724      3117      3118
 -1      1392    8    0    1
 -2       641       640       718      2727      3119      3120
 -1      1393    8    0    1
 -2       642       641       740      2730      3121      3122
 -1      1394    8    0    1
 -2       644       643       769      2736      3123      3124
 -1      1395    8    0    1
 -2       645       644       770      2739      3125      3126
 -1      1396    8    0    1
 -2       644       769       770      3124      3127      3125
 -1      1397    8    0    1
 -2       646       645       771      2742      3128      3129
 -1      1398    8    0    1
 -2       645       770       771      3126      3130      3128
 -1      1399    8    0    1
 -2       647       646       772      2745      3131      3132
 -1      1400    8    0    1
 -2       646       771       772      3129      3133      3131
 -1      1401    8    0    1
 -2       648       647       773      2748      3134      3135
 -1      1402    8    0    1
 -2       647       772       773      3132      3136      3134
 -1      1403    8    0    1
 -2       649       648       774      2751      3137      3138
 -1      1404    8    0    1
 -2       648       773       774      3135      3139      3137
 -1      1405    8    0    1
 -2       650       649       775      2754      3140      3141
 -1      1406    8    0    1
 -2       649       774       775      3138      3142      3140
 -1      1407    8    0    1
 -2       651       650       776      2757      3143      3144
 -1      1408    8    0    1
 -2       650       775       776      3141      3145      3143
 -1      1409    8    0    1
 -2       652       651       777      2760      3146      3147
 -1      1410    8    0    1
 -2       651       776       777      3144      3148      3146
 -1      1411    8    0    1
 -2       653       652       778      2763      3149      3150
 -1      1412    8    0    1
 -2       652       777       778      3147      3151      3149
 -1      1413    8    0    1
 -2       654       653       779      2766      3152      3153
 -1      1414    8    0    1
 -2       653       778       779      3150      3154      3152
 -1      1415    8    0    1
 -2       655       654       780      2769      3155      3156
 -1      1416    8    0    1
 -2       654       779       780      3153      3157      3155
 -1      1417    8    0    1
 -2       656       655       781      2772      3158      3159
 -1      1418    8    0    1
 -2       655       780       781      3156      3160      3158
 -1      1419    8    0    1
 -2       657       656       782      2775      3161      3162
 -1      1420    8    0    1
 -2       656       781       782      3159      3163      3161
 -1      1421    8    0    1
 -2       658       657       783      2778      3164      3165
 -1      1422    8    0    1
 -2       657       782       783      3162      3166      3164
 -1      1423    8    0    1
 -2       659       658       784      2781      3167      3168
 -1      1424    8    0    1
 -2       658       783       784      3165      3169      3167
 -1      1425    8    0    1
 -2       660       659       785      2784      3170      3171
 -1      1426    8    0    1
 -2       659       784       785      3168      3172      3170
 -1      1427    8    0    1
 -2       661       660       786      2787      3173      3174
 -1      1428    8    0    1
 -2       660       785       786      3171      3175      3173
 -1      1429    8    0    1
 -2       662       661       787      2790      3176      3177
 -1      1430    8    0    1
 -2       661       786       787      3174      3178      3176
 -1      1431    8    0    1
 -2       663       662       788      2793      3179      3180
 -1      1432    8    0    1
 -2       662       787       788      3177      3181      3179
 -1      1433    8    0    1
 -2       664       663       789      2796      3182      3183
 -1      1434    8    0    1
 -2       663       788       789      3180      3184      3182
 -1      1435    8    0    1
 -2       665       664       790      2799      3185      3186
 -1      1436    8    0    1
 -2       664       789       790      3183      3187      3185
 -1      1437    8    0    1
 -2       666       665       791      2802      3188      3189
 -1      1438    8    0    1
 -2       665       790       791      3186      3190      3188
 -1      1439    8    0    1
 -2       667       666       792      2805      3191      3192
 -1      1440    8    0    1
 -2       666       791       792      3189      3193      3191
 -1      1441    8    0    1
 -2       668       667       793      2808      3194      3195
 -1      1442    8    0    1
 -2       667       792       793      3192      3196      3194
 -1      1443    8    0    1
 -2       669       668       794      2811      3197      3198
 -1      1444    8    0    1
 -2       668       793       794      3195      3199      3197
 -1      1445    8    0    1
 -2       670       669       795      2814      3200      3201
 -1      1446    8    0    1
 -2       669       794       795      3198      3202      3200
 -1      1447    8    0    1
 -2       671       670       796      2817      3203      3204
 -1      1448    8    0    1
 -2       758       671       796      3088      3204      3205
 -1      1449    8    0    1
 -2       670       795       796      3201      3206      3203
 -1      1450    8    0    1
 -2       672       628       797      2820      3207      3208
 -1      1451    8    0    1
 -2       628       762       797      3098      3209      3207
 -1      1452    8    0    1
 -2       676       677       798      2834      3210      3211
 -1      1453    8    0    1
 -2       676       798       761      3211      3212      3095
 -1      1454    8    0    1
 -2       678       679       745      2840      3213      3214
 -1      1455    8    0    1
 -2       679       680       618      2843      3215      3216
 -1      1456    8    0    1
 -2       680       681       735      2846      3217      3218
 -1      1457    8    0    1
 -2       681       682       743      2849      3219      3220
 -1      1458    8    0    1
 -2       683       684       799      2855      3221      3222
 -1      1459    8    0    1
 -2       684       685       800      2858      3223      3224
 -1      1460    8    0    1
 -2       684       800       799      3224      3225      3221
 -1      1461    8    0    1
 -2       685       686       801      2861      3226      3227
 -1      1462    8    0    1
 -2       685       801       800      3227      3228      3223
 -1      1463    8    0    1
 -2       686       687       802      2864      3229      3230
 -1      1464    8    0    1
 -2       686       802       801      3230      3231      3226
 -1      1465    8    0    1
 -2       687       688       803      2867      3232      3233
 -1      1466    8    0    1
 -2       687       803       802      3233      3234      3229
 -1      1467    8    0    1
 -2       688       689       804      2870      3235      3236
 -1      1468    8    0    1
 -2       688       804       803      3236      3237      3232
 -1      1469    8    0    1
 -2       689       690       805      2873      3238      3239
 -1      1470    8    0    1
 -2       689       805       804      3239      3240      3235
 -1      1471    8    0    1
 -2       690       691       806      2876      3241      3242
 -1      1472    8    0    1
 -2       690       806       805      3242      3243      3238
 -1      1473    8    0    1
 -2       691       692       807      2879      3244      3245
 -1      1474    8    0    1
 -2       691       807       806      3245      3246      3241
 -1      1475    8    0    1
 -2       692       693       808      2882      3247      3248
 -1      1476    8    0    1
 -2       692       808       807      3248      3249      3244
 -1      1477    8    0    1
 -2       693       694       809      2885      3250      3251
 -1      1478    8    0    1
 -2       693       809       808      3251      3252      3247
 -1      1479    8    0    1
 -2       694       695       810      2888      3253      3254
 -1      1480    8    0    1
 -2       694       810       809      3254      3255      3250
 -1      1481    8    0    1
 -2       695       696       811      2891      3256      3257
 -1      1482    8    0    1
 -2       695       811       810      3257      3258      3253
 -1      1483    8    0    1
 -2       696       697       812      2894      3259      3260
 -1      1484    8    0    1
 -2       696       812       811      3260      3261      3256
 -1      1485    8    0    1
 -2       697       698       813      2897      3262      3263
 -1      1486    8    0    1
 -2       697       813       812      3263      3264      3259
 -1      1487    8    0    1
 -2       698       699       814      2900      3265      3266
 -1      1488    8    0    1
 -2       698       814       813      3266      3267      3262
 -1      1489    8    0    1
 -2       699       700       815      2903      3268      3269
 -1      1490    8    0    1
 -2       699       815       814      3269      3270      3265
 -1      1491    8    0    1
 -2       700       701       816      2906      3271      3272
 -1      1492    8    0    1
 -2       700       816       815      3272      3273      3268
 -1      1493    8    0    1
 -2       701       702       817      2909      3274      3275
 -1      1494    8    0    1
 -2       701       817       816      3275      3276      3271
 -1      1495    8    0    1
 -2       702       703       818      2912      3277      3278
 -1      1496    8    0    1
 -2       702       818       817      3278      3279      3274
 -1      1497    8    0    1
 -2       703       704       819      2915      3280      3281
 -1      1498    8    0    1
 -2       703       819       818      3281      3282      3277
 -1      1499    8    0    1
 -2       704       705       820      2918      3283      3284
 -1      1500    8    0    1
 -2       704       820       819      3284      3285      3280
 -1      1501    8    0    1
 -2       705       706       821      2921      3286      3287
 -1      1502    8    0    1
 -2       705       821       820      3287      3288      3283
 -1      1503    8    0    1
 -2       706       707       822      2924      3289      3290
 -1      1504    8    0    1
 -2       706       822       821      3290      3291      3286
 -1      1505    8    0    1
 -2       707       708       823      2927      3292      3293
 -1      1506    8    0    1
 -2       707       823       822      3293      3294      3289
 -1      1507    8    0    1
 -2       708       709       824      2930      3295      3296
 -1      1508    8    0    1
 -2       708       824       823      3296      3297      3292
 -1      1509    8    0    1
 -2       709       710       825      2933      3298      3299
 -1      1510    8    0    1
 -2       709       825       824      3299      3300      3295
 -1      1511    8    0    1
 -2       710       711       826      2936      3301      3302
 -1      1512    8    0    1
 -2       710       826       825      3302      3303      3298
 -1      1513    8    0    1
 -2       711       712       827      2939      3304      3305
 -1      1514    8    0    1
 -2       826       711       827      3301      3305      3306
 -1      1515    8    0    1
 -2       712       753       827      3051      3307      3304
 -1      1516    8    0    1
 -2       629       717       828      3079      3308      3309
 -1      1517    8    0    1
 -2       713       715       829      2947      3310      3311
 -1      1518    8    0    1
 -2       717       722       830      3053      3312      3313
 -1      1519    8    0    1
 -2       717       830       828      3313      3314      3308
 -1      1520    8    0    1
 -2       720       721       831      2965      3315      3316
 -1      1521    8    0    1
 -2       738       727       832      3054      3317      3318
 -1      1522    8    0    1
 -2       727       736       833      3060      3319      3320
 -1      1523    8    0    1
 -2       747       724       834      3044      3321      3322
 -1      1524    8    0    1
 -2       744       629       769      3045      3323      3324
 -1      1525    8    0    1
 -2       728       674       835      2980      3325      3326
 -1      1526    8    0    1
 -2       739       738       836      3049      3327      3328
 -1      1527    8    0    1
 -2       735       681       743      3217      3220      3018
 -1      1528    8    0    1
 -2       719       720       837      2962      3329      3330
 -1      1529    8    0    1
 -2       720       831       837      3316      3331      3329
 -1      1530    8    0    1
 -2       674       672       838      2825      3332      3333
 -1      1531    8    0    1
 -2       674       838       835      3333      3334      3325
 -1      1532    8    0    1
 -2       722       619       839      3057      3335      3336
 -1      1533    8    0    1
 -2       724       739       840      3071      3337      3338
 -1      1534    8    0    1
 -2       725       732       841      3069      3339      3340
 -1      1535    8    0    1
 -2       731       718       640      3055      3119      3118
 -1      1536    8    0    1
 -2       630       626       842      2694      3341      3342
 -1      1537    8    0    1
 -2       630       842       763      3342      3343      3100
 -1      1538    8    0    1
 -2       736       723       843      3059      3344      3345
 -1      1539    8    0    1
 -2       736       843       833      3345      3346      3319
 -1      1540    8    0    1
 -2       732       625       844      3035      3347      3348
 -1      1541    8    0    1
 -2       737       726       845      3056      3349      3350
 -1      1542    8    0    1
 -2       619       725       846      3070      3351      3352
 -1      1543    8    0    1
 -2       839       619       846      3335      3352      3353
 -1      1544    8    0    1
 -2       725       841       846      3340      3354      3351
 -1      1545    8    0    1
 -2       735       595       618      2996      2656      3355
 -1      1546    8    0    1
 -2       624       627       847      3061      3356      3357
 -1      1547    8    0    1
 -2       759       624       847      3089      3357      3358
 -1      1548    8    0    1
 -2       627       741       847      3010      3359      3356
 -1      1549    8    0    1
 -2       678       745       848      3214      3360      3361
 -1      1550    8    0    1
 -2       677       678       848      2837      3361      3362
 -1      1551    8    0    1
 -2       745       737       848      3083      3363      3360
 -1      1552    8    0    1
 -2       723       731       639      3072      3117      3364
 -1      1553    8    0    1
 -2       726       729       849      3048      3365      3366
 -1      1554    8    0    1
 -2       723       639       638      3364      2721      3367
 -1      1555    8    0    1
 -2       746       747       850      3084      3368      3369
 -1      1556    8    0    1
 -2       740       744       642      3046      3370      3122
 -1      1557    8    0    1
 -2       622       621       851      2675      3371      3372
 -1      1558    8    0    1
 -2       715       719       852      2959      3373      3374
 -1      1559    8    0    1
 -2       829       715       852      3310      3374      3375
 -1      1560    8    0    1
 -2       719       837       852      3330      3376      3373
 -1      1561    8    0    1
 -2       729       746       853      3074      3377      3378
 -1      1562    8    0    1
 -2       618       680       735      3215      3218      3355
 -1      1563    8    0    1
 -2       745       679       618      3213      3216      3073
 -1      1564    8    0    1
 -2       723       638       843      3367      3379      3344
 -1      1565    8    0    1
 -2       642       744       643      3370      3380      2733
 -1      1566    8    0    1
 -2       643       744       769      3380      3324      3123
 -1      1567    8    0    1
 -2       750       622       854      3032      3381      3382
 -1      1568    8    0    1
 -2       622       851       854      3372      3383      3381
 -1      1569    8    0    1
 -2       751       748       855      3038      3384      3385
 -1      1570    8    0    1
 -2       748       752       855      3042      3386      3384
 -1      1571    8    0    1
 -2       749       734       856      3031      3387      3388
 -1      1572    8    0    1
 -2       752       620       757      3043      3081      3389
 -1      1573    8    0    1
 -2       741       728       857      3011      3390      3391
 -1      1574    8    0    1
 -2       847       741       857      3359      3391      3392
 -1      1575    8    0    1
 -2       728       835       857      3326      3393      3390
 -1      1576    8    0    1
 -2       636       768       833      3115      3394      3395
 -1      1577    8    0    1
 -2       726       849       845      3366      3396      3349
 -1      1578    8    0    1
 -2       637       636       833      2715      3395      3397
 -1      1579    8    0    1
 -2       638       637       843      2718      3398      3379
 -1      1580    8    0    1
 -2       746       850       853      3369      3399      3377
 -1      1581    8    0    1
 -2       672       797       838      3208      3400      3332
 -1      1582    8    0    1
 -2       798       677       848      3210      3362      3401
 -1      1583    8    0    1
 -2       683       799       755      3222      3402      3403
 -1      1584    8    0    1
 -2       682       683       755      2852      3403      3404
 -1      1585    8    0    1
 -2       714       716       858      2950      3405      3406
 -1      1586    8    0    1
 -2       713       829       859      3311      3407      3408
 -1      1587    8    0    1
 -2       713       859       716      3408      3409      2951
 -1      1588    8    0    1
 -2       836       738       832      3327      3318      3410
 -1      1589    8    0    1
 -2       727       833       832      3320      3411      3317
 -1      1590    8    0    1
 -2       848       737       845      3363      3350      3412
 -1      1591    8    0    1
 -2       722       839       860      3336      3413      3414
 -1      1592    8    0    1
 -2       722       860       830      3414      3415      3312
 -1      1593    8    0    1
 -2       769       629       828      3323      3309      3416
 -1      1594    8    0    1
 -2       834       724       840      3321      3338      3417
 -1      1595    8    0    1
 -2       732       844       861      3348      3418      3419
 -1      1596    8    0    1
 -2       732       861       841      3419      3420      3339
 -1      1597    8    0    1
 -2       747       834       850      3322      3421      3368
 -1      1598    8    0    1
 -2       733       623       862      2993      3422      3423
 -1      1599    8    0    1
 -2       623       759       862      3090      3424      3422
 -1      1600    8    0    1
 -2       625       751       863      3037      3425      3426
 -1      1601    8    0    1
 -2       625       863       844      3426      3427      3347
 -1      1602    8    0    1
 -2       843       637       833      3398      3397      3346
 -1      1603    8    0    1
 -2       739       836       840      3328      3428      3337
 -1      1604    8    0    1
 -2       743       682       755      3219      3404      3068
 -1      1605    8    0    1
 -2       626       742       760      3014      3093      3429
 -1      1606    8    0    1
 -2       756       714       864      3078      3430      3431
 -1      1607    8    0    1
 -2       714       858       864      3406      3432      3430
 -1      1608    8    0    1
 -2       621       733       865      2992      3433      3434
 -1      1609    8    0    1
 -2       851       621       865      3371      3434      3435
 -1      1610    8    0    1
 -2       733       862       865      3423      3436      3433
 -1      1611    8    0    1
 -2       842       626       760      3341      3429      3437
 -1      1612    8    0    1
 -2       729       853       849      3378      3438      3365
 -1      1613    8    0    1
 -2       734       754       866      3064      3439      3440
 -1      1614    8    0    1
 -2       734       866       856      3440      3441      3387
 -1      1615    8    0    1
 -2       721       758       867      3087      3442      3443
 -1      1616    8    0    1
 -2       831       721       867      3315      3443      3444
 -1      1617    8    0    1
 -2       758       796       867      3205      3445      3442
 -1      1618    8    0    1
 -2       762       761       868      3099      3446      3447
 -1      1619    8    0    1
 -2       840       836       869      3428      3448      3449
 -1      1620    8    0    1
 -2       765       764       870      3107      3450      3451
 -1      1621    8    0    1
 -2       766       765       871      3110      3452      3453
 -1      1622    8    0    1
 -2       765       870       871      3451      3454      3452
 -1      1623    8    0    1
 -2       767       766       872      3113      3455      3456
 -1      1624    8    0    1
 -2       766       871       872      3453      3457      3455
 -1      1625    8    0    1
 -2       641       718       673      3120      2956      3458
 -1      1626    8    0    1
 -2       771       770       873      3130      3459      3460
 -1      1627    8    0    1
 -2       772       771       874      3133      3461      3462
 -1      1628    8    0    1
 -2       771       873       874      3460      3463      3461
 -1      1629    8    0    1
 -2       773       772       875      3136      3464      3465
 -1      1630    8    0    1
 -2       772       874       875      3462      3466      3464
 -1      1631    8    0    1
 -2       774       773       876      3139      3467      3468
 -1      1632    8    0    1
 -2       773       875       876      3465      3469      3467
 -1      1633    8    0    1
 -2       775       774       877      3142      3470      3471
 -1      1634    8    0    1
 -2       774       876       877      3468      3472      3470
 -1      1635    8    0    1
 -2       776       775       878      3145      3473      3474
 -1      1636    8    0    1
 -2       775       877       878      3471      3475      3473
 -1      1637    8    0    1
 -2       777       776       879      3148      3476      3477
 -1      1638    8    0    1
 -2       776       878       879      3474      3478      3476
 -1      1639    8    0    1
 -2       778       777       880      3151      3479      3480
 -1      1640    8    0    1
 -2       777       879       880      3477      3481      3479
 -1      1641    8    0    1
 -2       779       778       881      3154      3482      3483
 -1      1642    8    0    1
 -2       778       880       881      3480      3484      3482
 -1      1643    8    0    1
 -2       780       779       882      3157      3485      3486
 -1      1644    8    0    1
 -2       779       881       882      3483      3487      3485
 -1      1645    8    0    1
 -2       781       780       883      3160      3488      3489
 -1      1646    8    0    1
 -2       780       882       883      3486      3490      3488
 -1      1647    8    0    1
 -2       782       781       884      3163      3491      3492
 -1      1648    8    0    1
 -2       781       883       884      3489      3493      3491
 -1      1649    8    0    1
 -2       783       782       885      3166      3494      3495
 -1      1650    8    0    1
 -2       782       884       885      3492      3496      3494
 -1      1651    8    0    1
 -2       784       783       886      3169      3497      3498
 -1      1652    8    0    1
 -2       783       885       886      3495      3499      3497
 -1      1653    8    0    1
 -2       785       784       887      3172      3500      3501
 -1      1654    8    0    1
 -2       784       886       887      3498      3502      3500
 -1      1655    8    0    1
 -2       786       785       888      3175      3503      3504
 -1      1656    8    0    1
 -2       785       887       888      3501      3505      3503
 -1      1657    8    0    1
 -2       787       786       889      3178      3506      3507
 -1      1658    8    0    1
 -2       786       888       889      3504      3508      3506
 -1      1659    8    0    1
 -2       788       787       890      3181      3509      3510
 -1      1660    8    0    1
 -2       787       889       890      3507      3511      3509
 -1      1661    8    0    1
 -2       789       788       891      3184      3512      3513
 -1      1662    8    0    1
 -2       788       890       891      3510      3514      3512
 -1      1663    8    0    1
 -2       790       789       892      3187      3515      3516
 -1      1664    8    0    1
 -2       789       891       892      3513      3517      3515
 -1      1665    8    0    1
 -2       791       790       893      3190      3518      3519
 -1      1666    8    0    1
 -2       790       892       893      3516      3520      3518
 -1      1667    8    0    1
 -2       792       791       894      3193      3521      3522
 -1      1668    8    0    1
 -2       791       893       894      3519      3523      3521
 -1      1669    8    0    1
 -2       793       792       895      3196      3524      3525
 -1      1670    8    0    1
 -2       792       894       895      3522      3526      3524
 -1      1671    8    0    1
 -2       794       793       896      3199      3527      3528
 -1      1672    8    0    1
 -2       793       895       896      3525      3529      3527
 -1      1673    8    0    1
 -2       795       794       897      3202      3530      3531
 -1      1674    8    0    1
 -2       794       896       897      3528      3532      3530
 -1      1675    8    0    1
 -2       740       641       673      3121      3458      3047
 -1      1676    8    0    1
 -2       837       831       898      3331      3533      3534
 -1      1677    8    0    1
 -2       858       716       859      3405      3409      3535
 -1      1678    8    0    1
 -2       799       800       855      3225      3536      3537
 -1      1679    8    0    1
 -2       802       803       899      3234      3538      3539
 -1      1680    8    0    1
 -2       803       804       900      3237      3540      3541
 -1      1681    8    0    1
 -2       803       900       899      3541      3542      3538
 -1      1682    8    0    1
 -2       804       805       901      3240      3543      3544
 -1      1683    8    0    1
 -2       804       901       900      3544      3545      3540
 -1      1684    8    0    1
 -2       805       806       902      3243      3546      3547
 -1      1685    8    0    1
 -2       805       902       901      3547      3548      3543
 -1      1686    8    0    1
 -2       806       807       903      3246      3549      3550
 -1      1687    8    0    1
 -2       806       903       902      3550      3551      3546
 -1      1688    8    0    1
 -2       807       808       904      3249      3552      3553
 -1      1689    8    0    1
 -2       807       904       903      3553      3554      3549
 -1      1690    8    0    1
 -2       808       809       905      3252      3555      3556
 -1      1691    8    0    1
 -2       808       905       904      3556      3557      3552
 -1      1692    8    0    1
 -2       809       810       906      3255      3558      3559
 -1      1693    8    0    1
 -2       809       906       905      3559      3560      3555
 -1      1694    8    0    1
 -2       810       811       907      3258      3561      3562
 -1      1695    8    0    1
 -2       810       907       906      3562      3563      3558
 -1      1696    8    0    1
 -2       811       812       908      3261      3564      3565
 -1      1697    8    0    1
 -2       811       908       907      3565      3566      3561
 -1      1698    8    0    1
 -2       812       813       909      3264      3567      3568
 -1      1699    8    0    1
 -2       812       909       908      3568      3569      3564
 -1      1700    8    0    1
 -2       813       814       910      3267      3570      3571
 -1      1701    8    0    1
 -2       813       910       909      3571      3572      3567
 -1      1702    8    0    1
 -2       814       815       911      3270      3573      3574
 -1      1703    8    0    1
 -2       814       911       910      3574      3575      3570
 -1      1704    8    0    1
 -2       815       816       912      3273      3576      3577
 -1      1705    8    0    1
 -2       815       912       911      3577      3578      3573
 -1      1706    8    0    1
 -2       816       817       913      3276      3579      3580
 -1      1707    8    0    1
 -2       816       913       912      3580      3581      3576
 -1      1708    8    0    1
 -2       817       818       914      3279      3582      3583
 -1      1709    8    0    1
 -2       817       914       913      3583      3584      3579
 -1      1710    8    0    1
 -2       818       819       915      3282      3585      3586
 -1      1711    8    0    1
 -2       818       915       914      3586      3587      3582
 -1      1712    8    0    1
 -2       819       820       916      3285      3588      3589
 -1      1713    8    0    1
 -2       819       916       915      3589      3590      3585
 -1      1714    8    0    1
 -2       820       821       917      3288      3591      3592
 -1      1715    8    0    1
 -2       820       917       916      3592      3593      3588
 -1      1716    8    0    1
 -2       821       822       918      3291      3594      3595
 -1      1717    8    0    1
 -2       821       918       917      3595      3596      3591
 -1      1718    8    0    1
 -2       822       823       919      3294      3597      3598
 -1      1719    8    0    1
 -2       822       919       918      3598      3599      3594
 -1      1720    8    0    1
 -2       823       824       920      3297      3600      3601
 -1      1721    8    0    1
 -2       823       920       919      3601      3602      3597
 -1      1722    8    0    1
 -2       824       825       921      3300      3603      3604
 -1      1723    8    0    1
 -2       824       921       920      3604      3605      3600
 -1      1724    8    0    1
 -2       825       826       922      3303      3606      3607
 -1      1725    8    0    1
 -2       825       922       921      3607      3608      3603
 -1      1726    8    0    1
 -2       835       838       923      3334      3609      3610
 -1      1727    8    0    1
 -2       838       797       924      3400      3611      3612
 -1      1728    8    0    1
 -2       838       924       923      3612      3613      3609
 -1      1729    8    0    1
 -2       849       853       925      3438      3614      3615
 -1      1730    8    0    1
 -2       617       755       799      3067      3402      3616
 -1      1731    8    0    1
 -2       828       830       873      3314      3617      3618
 -1      1732    8    0    1
 -2       836       832       926      3410      3619      3620
 -1      1733    8    0    1
 -2       832       833       768      3411      3394      3621
 -1      1734    8    0    1
 -2       754       750       927      3065      3622      3623
 -1      1735    8    0    1
 -2       754       927       866      3623      3624      3439
 -1      1736    8    0    1
 -2       848       845       798      3412      3625      3401
 -1      1737    8    0    1
 -2       850       834       928      3421      3626      3627
 -1      1738    8    0    1
 -2       769       828       770      3416      3628      3127
 -1      1739    8    0    1
 -2       801       802       929      3231      3629      3630
 -1      1740    8    0    1
 -2       802       899       929      3539      3631      3629
 -1      1741    8    0    1
 -2       800       801       930      3228      3632      3633
 -1      1742    8    0    1
 -2       855       800       930      3536      3633      3634
 -1      1743    8    0    1
 -2       801       929       930      3630      3635      3632
 -1      1744    8    0    1
 -2       853       850       931      3399      3636      3637
 -1      1745    8    0    1
 -2       853       931       925      3637      3638      3614
 -1      1746    8    0    1
 -2       764       763       932      3104      3639      3640
 -1      1747    8    0    1
 -2       764       932       870      3640      3641      3450
 -1      1748    8    0    1
 -2       834       840       933      3417      3642      3643
 -1      1749    8    0    1
 -2       798       845       934      3625      3644      3645
 -1      1750    8    0    1
 -2       761       798       934      3212      3645      3646
 -1      1751    8    0    1
 -2       845       849       934      3396      3647      3644
 -1      1752    8    0    1
 -2       842       760       749      3437      3094      3648
 -1      1753    8    0    1
 -2       797       762       935      3209      3649      3650
 -1      1754    8    0    1
 -2       762       868       935      3447      3651      3649
 -1      1755    8    0    1
 -2       753       756       936      3077      3652      3653
 -1      1756    8    0    1
 -2       827       753       936      3307      3653      3654
 -1      1757    8    0    1
 -2       756       864       936      3431      3655      3652
 -1      1758    8    0    1
 -2       842       749       856      3648      3388      3656
 -1      1759    8    0    1
 -2       832       768       926      3621      3657      3619
 -1      1760    8    0    1
 -2       770       828       873      3628      3618      3459
 -1      1761    8    0    1
 -2       842       856       937      3656      3658      3659
 -1      1762    8    0    1
 -2       926       768       767      3657      3116      3660
 -1      1763    8    0    1
 -2       840       869       933      3449      3661      3642
 -1      1764    8    0    1
 -2       857       835       938      3393      3662      3663
 -1      1765    8    0    1
 -2       835       923       938      3610      3664      3662
 -1      1766    8    0    1
 -2       767       872       926      3456      3665      3660
 -1      1767    8    0    1
 -2       842       937       763      3659      3666      3343
 -1      1768    8    0    1
 -2       751       855       939      3385      3667      3668
 -1      1769    8    0    1
 -2       863       751       939      3425      3668      3669
 -1      1770    8    0    1
 -2       855       930       939      3634      3670      3667
 -1      1771    8    0    1
 -2       859       829       940      3407      3671      3672
 -1      1772    8    0    1
 -2       924       797       935      3611      3650      3673
 -1      1773    8    0    1
 -2       796       795       941      3206      3674      3675
 -1      1774    8    0    1
 -2       867       796       941      3445      3675      3676
 -1      1775    8    0    1
 -2       795       897       941      3531      3677      3674
 -1      1776    8    0    1
 -2       937       856       942      3658      3678      3679
 -1      1777    8    0    1
 -2       856       866       942      3441      3680      3678
 -1      1778    8    0    1
 -2       852       837       943      3376      3681      3682
 -1      1779    8    0    1
 -2       837       898       943      3534      3683      3681
 -1      1780    8    0    1
 -2       858       859       944      3535      3684      3685
 -1      1781    8    0    1
 -2       859       940       944      3672      3686      3684
 -1      1782    8    0    1
 -2       931       850       928      3636      3627      3687
 -1      1783    8    0    1
 -2       849       925       934      3615      3688      3647
 -1      1784    8    0    1
 -2       826       827       936      3306      3654      3689
 -1      1785    8    0    1
 -2       873       830       860      3617      3415      3690
 -1      1786    8    0    1
 -2       836       926       869      3620      3691      3448
 -1      1787    8    0    1
 -2       868       761       934      3446      3646      3692
 -1      1788    8    0    1
 -2       927       750       854      3622      3382      3693
 -1      1789    8    0    1
 -2       860       839       945      3413      3694      3695
 -1      1790    8    0    1
 -2       861       844       946      3418      3696      3697
 -1      1791    8    0    1
 -2       844       863       946      3427      3698      3696
 -1      1792    8    0    1
 -2       862       759       947      3424      3699      3700
 -1      1793    8    0    1
 -2       940       829       948      3671      3701      3702
 -1      1794    8    0    1
 -2       829       852       948      3375      3703      3701
 -1      1795    8    0    1
 -2       854       851       949      3383      3704      3705
 -1      1796    8    0    1
 -2       928       834       950      3626      3706      3707
 -1      1797    8    0    1
 -2       834       933       950      3643      3708      3706
 -1      1798    8    0    1
 -2       826       936       922      3689      3709      3606
 -1      1799    8    0    1
 -2       841       861       951      3420      3710      3711
 -1      1800    8    0    1
 -2       846       841       952      3354      3712      3713
 -1      1801    8    0    1
 -2       841       951       952      3711      3714      3712
 -1      1802    8    0    1
 -2       864       858       953      3432      3715      3716
 -1      1803    8    0    1
 -2       858       944       953      3685      3717      3715
 -1      1804    8    0    1
 -2       839       846       945      3353      3718      3694
 -1      1805    8    0    1
 -2       932       763       937      3639      3666      3719
 -1      1806    8    0    1
 -2       851       865       954      3435      3720      3721
 -1      1807    8    0    1
 -2       851       954       949      3721      3722      3704
 -1      1808    8    0    1
 -2       831       867       941      3444      3676      3723
 -1      1809    8    0    1
 -2       898       831       941      3533      3723      3724
 -1      1810    8    0    1
 -2       872       871       955      3457      3725      3726
 -1      1811    8    0    1
 -2       874       873       860      3463      3690      3727
 -1      1812    8    0    1
 -2       933       869       956      3661      3728      3729
 -1      1813    8    0    1
 -2       924       935       957      3673      3730      3731
 -1      1814    8    0    1
 -2       901       902       958      3548      3732      3733
 -1      1815    8    0    1
 -2       876       875       959      3469      3734      3735
 -1      1816    8    0    1
 -2       877       876       960      3472      3736      3737
 -1      1817    8    0    1
 -2       876       959       960      3735      3738      3736
 -1      1818    8    0    1
 -2       878       877       961      3475      3739      3740
 -1      1819    8    0    1
 -2       877       960       961      3737      3741      3739
 -1      1820    8    0    1
 -2       879       878       962      3478      3742      3743
 -1      1821    8    0    1
 -2       878       961       962      3740      3744      3742
 -1      1822    8    0    1
 -2       880       879       963      3481      3745      3746
 -1      1823    8    0    1
 -2       879       962       963      3743      3747      3745
 -1      1824    8    0    1
 -2       881       880       964      3484      3748      3749
 -1      1825    8    0    1
 -2       880       963       964      3746      3750      3748
 -1      1826    8    0    1
 -2       882       881       965      3487      3751      3752
 -1      1827    8    0    1
 -2       881       964       965      3749      3753      3751
 -1      1828    8    0    1
 -2       883       882       966      3490      3754      3755
 -1      1829    8    0    1
 -2       882       965       966      3752      3756      3754
 -1      1830    8    0    1
 -2       884       883       967      3493      3757      3758
 -1      1831    8    0    1
 -2       883       966       967      3755      3759      3757
 -1      1832    8    0    1
 -2       885       884       968      3496      3760      3761
 -1      1833    8    0    1
 -2       884       967       968      3758      3762      3760
 -1      1834    8    0    1
 -2       886       885       969      3499      3763      3764
 -1      1835    8    0    1
 -2       885       968       969      3761      3765      3763
 -1      1836    8    0    1
 -2       887       886       970      3502      3766      3767
 -1      1837    8    0    1
 -2       886       969       970      3764      3768      3766
 -1      1838    8    0    1
 -2       888       887       971      3505      3769      3770
 -1      1839    8    0    1
 -2       887       970       971      3767      3771      3769
 -1      1840    8    0    1
 -2       889       888       972      3508      3772      3773
 -1      1841    8    0    1
 -2       888       971       972      3770      3774      3772
 -1      1842    8    0    1
 -2       890       889       973      3511      3775      3776
 -1      1843    8    0    1
 -2       889       972       973      3773      3777      3775
 -1      1844    8    0    1
 -2       891       890       974      3514      3778      3779
 -1      1845    8    0    1
 -2       890       973       974      3776      3780      3778
 -1      1846    8    0    1
 -2       892       891       975      3517      3781      3782
 -1      1847    8    0    1
 -2       891       974       975      3779      3783      3781
 -1      1848    8    0    1
 -2       893       892       976      3520      3784      3785
 -1      1849    8    0    1
 -2       892       975       976      3782      3786      3784
 -1      1850    8    0    1
 -2       894       893       977      3523      3787      3788
 -1      1851    8    0    1
 -2       893       976       977      3785      3789      3787
 -1      1852    8    0    1
 -2       895       894       978      3526      3790      3791
 -1      1853    8    0    1
 -2       894       977       978      3788      3792      3790
 -1      1854    8    0    1
 -2       896       895       979      3529      3793      3794
 -1      1855    8    0    1
 -2       895       978       979      3791      3795      3793
 -1      1856    8    0    1
 -2       897       896       980      3532      3796      3797
 -1      1857    8    0    1
 -2       896       979       980      3794      3798      3796
 -1      1858    8    0    1
 -2       941       897       898      3677      3799      3724
 -1      1859    8    0    1
 -2       900       901       981      3545      3800      3801
 -1      1860    8    0    1
 -2       901       958       981      3733      3802      3800
 -1      1861    8    0    1
 -2       944       940       982      3686      3803      3804
 -1      1862    8    0    1
 -2       931       928       983      3687      3805      3806
 -1      1863    8    0    1
 -2       899       900       984      3542      3807      3808
 -1      1864    8    0    1
 -2       900       981       984      3801      3809      3807
 -1      1865    8    0    1
 -2       902       903       985      3551      3810      3811
 -1      1866    8    0    1
 -2       902       985       958      3811      3812      3732
 -1      1867    8    0    1
 -2       903       904       986      3554      3813      3814
 -1      1868    8    0    1
 -2       903       986       985      3814      3815      3810
 -1      1869    8    0    1
 -2       904       905       987      3557      3816      3817
 -1      1870    8    0    1
 -2       904       987       986      3817      3818      3813
 -1      1871    8    0    1
 -2       905       906       988      3560      3819      3820
 -1      1872    8    0    1
 -2       905       988       987      3820      3821      3816
 -1      1873    8    0    1
 -2       906       907       989      3563      3822      3823
 -1      1874    8    0    1
 -2       906       989       988      3823      3824      3819
 -1      1875    8    0    1
 -2       907       908       990      3566      3825      3826
 -1      1876    8    0    1
 -2       907       990       989      3826      3827      3822
 -1      1877    8    0    1
 -2       908       909       991      3569      3828      3829
 -1      1878    8    0    1
 -2       908       991       990      3829      3830      3825
 -1      1879    8    0    1
 -2       909       910       992      3572      3831      3832
 -1      1880    8    0    1
 -2       909       992       991      3832      3833      3828
 -1      1881    8    0    1
 -2       910       911       993      3575      3834      3835
 -1      1882    8    0    1
 -2       910       993       992      3835      3836      3831
 -1      1883    8    0    1
 -2       911       912       994      3578      3837      3838
 -1      1884    8    0    1
 -2       911       994       993      3838      3839      3834
 -1      1885    8    0    1
 -2       912       913       995      3581      3840      3841
 -1      1886    8    0    1
 -2       912       995       994      3841      3842      3837
 -1      1887    8    0    1
 -2       913       914       996      3584      3843      3844
 -1      1888    8    0    1
 -2       913       996       995      3844      3845      3840
 -1      1889    8    0    1
 -2       914       915       997      3587      3846      3847
 -1      1890    8    0    1
 -2       914       997       996      3847      3848      3843
 -1      1891    8    0    1
 -2       915       916       998      3590      3849      3850
 -1      1892    8    0    1
 -2       915       998       997      3850      3851      3846
 -1      1893    8    0    1
 -2       916       917       999      3593      3852      3853
 -1      1894    8    0    1
 -2       916       999       998      3853      3854      3849
 -1      1895    8    0    1
 -2       917       918      1000      3596      3855      3856
 -1      1896    8    0    1
 -2       917      1000       999      3856      3857      3852
 -1      1897    8    0    1
 -2       918       919      1001      3599      3858      3859
 -1      1898    8    0    1
 -2       918      1001      1000      3859      3860      3855
 -1      1899    8    0    1
 -2       919       920      1002      3602      3861      3862
 -1      1900    8    0    1
 -2       919      1002      1001      3862      3863      3858
 -1      1901    8    0    1
 -2       920       921      1003      3605      3864      3865
 -1      1902    8    0    1
 -2       920      1003      1002      3865      3866      3861
 -1      1903    8    0    1
 -2       926       872       955      3665      3726      3867
 -1      1904    8    0    1
 -2       923       924      1004      3613      3868      3869
 -1      1905    8    0    1
 -2       924       957      1004      3731      3870      3868
 -1      1906    8    0    1
 -2       870       932      1005      3641      3871      3872
 -1      1907    8    0    1
 -2       932       937       942      3719      3679      3873
 -1      1908    8    0    1
 -2       947       759       857      3699      3874      3875
 -1      1909    8    0    1
 -2       929       899      1006      3631      3876      3877
 -1      1910    8    0    1
 -2       899       984      1006      3808      3878      3876
 -1      1911    8    0    1
 -2       951       861      1007      3710      3879      3880
 -1      1912    8    0    1
 -2       934       925       868      3688      3881      3692
 -1      1913    8    0    1
 -2       925       931      1008      3638      3882      3883
 -1      1914    8    0    1
 -2       868       925      1008      3881      3883      3884
 -1      1915    8    0    1
 -2       931       983      1008      3806      3885      3882
 -1      1916    8    0    1
 -2       865       862      1009      3436      3886      3887
 -1      1917    8    0    1
 -2       865      1009       954      3887      3888      3720
 -1      1918    8    0    1
 -2       869       926       955      3691      3867      3889
 -1      1919    8    0    1
 -2       922       936       864      3709      3655      3890
 -1      1920    8    0    1
 -2       866       927      1010      3624      3891      3892
 -1      1921    8    0    1
 -2       866      1010       942      3892      3893      3680
 -1      1922    8    0    1
 -2       945       846       952      3718      3713      3894
 -1      1923    8    0    1
 -2       927       854      1011      3693      3895      3896
 -1      1924    8    0    1
 -2      1010       927      1011      3891      3896      3897
 -1      1925    8    0    1
 -2       854       949      1011      3705      3898      3895
 -1      1926    8    0    1
 -2       935       868      1008      3651      3884      3899
 -1      1927    8    0    1
 -2       871       870      1012      3454      3900      3901
 -1      1928    8    0    1
 -2       870      1005      1012      3872      3902      3900
 -1      1929    8    0    1
 -2       759       847       857      3358      3392      3874
 -1      1930    8    0    1
 -2       862       947      1009      3700      3903      3886
 -1      1931    8    0    1
 -2       874       860      1013      3727      3904      3905
 -1      1932    8    0    1
 -2       898       897       980      3799      3797      3906
 -1      1933    8    0    1
 -2       922       864       953      3890      3716      3907
 -1      1934    8    0    1
 -2       947       857       938      3875      3663      3908
 -1      1935    8    0    1
 -2       957       935      1008      3730      3899      3909
 -1      1936    8    0    1
 -2       949       954      1014      3722      3910      3911
 -1      1937    8    0    1
 -2       938       923      1015      3664      3912      3913
 -1      1938    8    0    1
 -2       923      1004      1015      3869      3914      3912
 -1      1939    8    0    1
 -2       955       871      1012      3725      3901      3915
 -1      1940    8    0    1
 -2       898       980       943      3906      3916      3683
 -1      1941    8    0    1
 -2       956       869       955      3728      3889      3917
 -1      1942    8    0    1
 -2       944       982      1016      3804      3918      3919
 -1      1943    8    0    1
 -2       944      1016       953      3919      3920      3717
 -1      1944    8    0    1
 -2       933       956      1017      3729      3921      3922
 -1      1945    8    0    1
 -2       933      1017       950      3922      3923      3708
 -1      1946    8    0    1
 -2       875       874      1013      3466      3905      3924
 -1      1947    8    0    1
 -2       922       953       921      3907      3925      3608
 -1      1948    8    0    1
 -2       983       928      1018      3805      3926      3927
 -1      1949    8    0    1
 -2       928       950      1018      3707      3928      3926
 -1      1950    8    0    1
 -2       982       940      1019      3803      3929      3930
 -1      1951    8    0    1
 -2       940       948      1019      3702      3931      3929
 -1      1952    8    0    1
 -2       951      1007      1020      3880      3932      3933
 -1      1953    8    0    1
 -2      1003       921       953      3864      3925      3934
 -1      1954    8    0    1
 -2       947       938      1021      3908      3935      3936
 -1      1955    8    0    1
 -2      1009       947      1021      3903      3936      3937
 -1      1956    8    0    1
 -2       938      1015      1021      3913      3938      3935
 -1      1957    8    0    1
 -2      1005       932       942      3871      3873      3939
 -1      1958    8    0    1
 -2       617       799       757      3616      3940      3082
 -1      1959    8    0    1
 -2       875      1013       959      3924      3941      3734
 -1      1960    8    0    1
 -2       948       852       943      3703      3682      3942
 -1      1961    8    0    1
 -2       946       863      1022      3698      3943      3944
 -1      1962    8    0    1
 -2       863       939      1022      3669      3945      3943
 -1      1963    8    0    1
 -2       861       946      1007      3697      3946      3879
 -1      1964    8    0    1
 -2       929      1006      1022      3877      3947      3948
 -1      1965    8    0    1
 -2       951      1020      1023      3933      3949      3950
 -1      1966    8    0    1
 -2       951      1023       952      3950      3951      3714
 -1      1967    8    0    1
 -2       860       945      1013      3695      3952      3904
 -1      1968    8    0    1
 -2      1011       949      1024      3898      3953      3954
 -1      1969    8    0    1
 -2       949      1014      1024      3911      3955      3953
 -1      1970    8    0    1
 -2       945       952      1025      3894      3956      3957
 -1      1971    8    0    1
 -2      1013       945      1025      3952      3957      3958
 -1      1972    8    0    1
 -2       952      1023      1025      3951      3959      3956
 -1      1973    8    0    1
 -2       757       799       752      3940      3960      3389
 -1      1974    8    0    1
 -2       752       799       855      3960      3537      3386
 -1      1975    8    0    1
 -2      1005       942      1010      3939      3893      3961
 -1      1976    8    0    1
 -2       961       960      1026      3741      3962      3963
 -1      1977    8    0    1
 -2       962       961      1027      3744      3964      3965
 -1      1978    8    0    1
 -2       961      1026      1027      3963      3966      3964
 -1      1979    8    0    1
 -2       963       962      1028      3747      3967      3968
 -1      1980    8    0    1
 -2       962      1027      1028      3965      3969      3967
 -1      1981    8    0    1
 -2       964       963      1029      3750      3970      3971
 -1      1982    8    0    1
 -2       963      1028      1029      3968      3972      3970
 -1      1983    8    0    1
 -2       965       964      1030      3753      3973      3974
 -1      1984    8    0    1
 -2       964      1029      1030      3971      3975      3973
 -1      1985    8    0    1
 -2       966       965      1031      3756      3976      3977
 -1      1986    8    0    1
 -2       965      1030      1031      3974      3978      3976
 -1      1987    8    0    1
 -2       967       966      1032      3759      3979      3980
 -1      1988    8    0    1
 -2       966      1031      1032      3977      3981      3979
 -1      1989    8    0    1
 -2       968       967      1033      3762      3982      3983
 -1      1990    8    0    1
 -2       967      1032      1033      3980      3984      3982
 -1      1991    8    0    1
 -2       969       968      1034      3765      3985      3986
 -1      1992    8    0    1
 -2       968      1033      1034      3983      3987      3985
 -1      1993    8    0    1
 -2       970       969      1035      3768      3988      3989
 -1      1994    8    0    1
 -2       969      1034      1035      3986      3990      3988
 -1      1995    8    0    1
 -2       971       970      1036      3771      3991      3992
 -1      1996    8    0    1
 -2       970      1035      1036      3989      3993      3991
 -1      1997    8    0    1
 -2       972       971      1037      3774      3994      3995
 -1      1998    8    0    1
 -2       971      1036      1037      3992      3996      3994
 -1      1999    8    0    1
 -2       973       972      1038      3777      3997      3998
 -1      2000    8    0    1
 -2       972      1037      1038      3995      3999      3997
 -1      2001    8    0    1
 -2       974       973      1039      3780      4000      4001
 -1      2002    8    0    1
 -2       973      1038      1039      3998      4002      4000
 -1      2003    8    0    1
 -2       975       974      1040      3783      4003      4004
 -1      2004    8    0    1
 -2       974      1039      1040      4001      4005      4003
 -1      2005    8    0    1
 -2       976       975      1041      3786      4006      4007
 -1      2006    8    0    1
 -2       975      1040      1041      4004      4008      4006
 -1      2007    8    0    1
 -2       977       976      1042      3789      4009      4010
 -1      2008    8    0    1
 -2       976      1041      1042      4007      4011      4009
 -1      2009    8    0    1
 -2       978       977      1043      3792      4012      4013
 -1      2010    8    0    1
 -2       977      1042      1043      4010      4014      4012
 -1      2011    8    0    1
 -2       979       978      1044      3795      4015      4016
 -1      2012    8    0    1
 -2       978      1043      1044      4013      4017      4015
 -1      2013    8    0    1
 -2       980       979      1045      3798      4018      4019
 -1      2014    8    0    1
 -2       979      1044      1045      4016      4020      4018
 -1      2015    8    0    1
 -2       981       958      1046      3802      4021      4022
 -1      2016    8    0    1
 -2       956       955      1047      3917      4023      4024
 -1      2017    8    0    1
 -2      1017       956      1047      3921      4024      4025
 -1      2018    8    0    1
 -2       955      1012      1047      3915      4026      4023
 -1      2019    8    0    1
 -2      1020      1007      1048      3932      4027      4028
 -1      2020    8    0    1
 -2       954      1009      1049      3888      4029      4030
 -1      2021    8    0    1
 -2      1014       954      1049      3910      4030      4031
 -1      2022    8    0    1
 -2      1009      1021      1049      3937      4032      4029
 -1      2023    8    0    1
 -2      1003       953      1016      3934      3920      4033
 -1      2024    8    0    1
 -2       986       987      1050      3818      4034      4035
 -1      2025    8    0    1
 -2       987       988      1051      3821      4036      4037
 -1      2026    8    0    1
 -2       987      1051      1050      4037      4038      4034
 -1      2027    8    0    1
 -2       988       989      1052      3824      4039      4040
 -1      2028    8    0    1
 -2       988      1052      1051      4040      4041      4036
 -1      2029    8    0    1
 -2       989       990      1053      3827      4042      4043
 -1      2030    8    0    1
 -2       989      1053      1052      4043      4044      4039
 -1      2031    8    0    1
 -2       990       991      1054      3830      4045      4046
 -1      2032    8    0    1
 -2       990      1054      1053      4046      4047      4042
 -1      2033    8    0    1
 -2       991       992      1055      3833      4048      4049
 -1      2034    8    0    1
 -2       991      1055      1054      4049      4050      4045
 -1      2035    8    0    1
 -2       992       993      1056      3836      4051      4052
 -1      2036    8    0    1
 -2       992      1056      1055      4052      4053      4048
 -1      2037    8    0    1
 -2       993       994      1057      3839      4054      4055
 -1      2038    8    0    1
 -2       993      1057      1056      4055      4056      4051
 -1      2039    8    0    1
 -2       994       995      1058      3842      4057      4058
 -1      2040    8    0    1
 -2       994      1058      1057      4058      4059      4054
 -1      2041    8    0    1
 -2       995       996      1059      3845      4060      4061
 -1      2042    8    0    1
 -2       995      1059      1058      4061      4062      4057
 -1      2043    8    0    1
 -2       996       997      1060      3848      4063      4064
 -1      2044    8    0    1
 -2       996      1060      1059      4064      4065      4060
 -1      2045    8    0    1
 -2       997       998      1061      3851      4066      4067
 -1      2046    8    0    1
 -2       997      1061      1060      4067      4068      4063
 -1      2047    8    0    1
 -2       998       999      1062      3854      4069      4070
 -1      2048    8    0    1
 -2       998      1062      1061      4070      4071      4066
 -1      2049    8    0    1
 -2       999      1000      1063      3857      4072      4073
 -1      2050    8    0    1
 -2       999      1063      1062      4073      4074      4069
 -1      2051    8    0    1
 -2      1000      1001      1064      3860      4075      4076
 -1      2052    8    0    1
 -2      1000      1064      1063      4076      4077      4072
 -1      2053    8    0    1
 -2      1001      1002      1065      3863      4078      4079
 -1      2054    8    0    1
 -2      1001      1065      1064      4079      4080      4075
 -1      2055    8    0    1
 -2      1002      1003      1066      3866      4081      4082
 -1      2056    8    0    1
 -2      1002      1066      1065      4082      4083      4078
 -1      2057    8    0    1
 -2      1006       984      1048      3878      4084      4085
 -1      2058    8    0    1
 -2      1004       957      1067      3870      4086      4087
 -1      2059    8    0    1
 -2       984       981      1068      3809      4088      4089
 -1      2060    8    0    1
 -2      1048       984      1068      4084      4089      4090
 -1      2061    8    0    1
 -2       981      1046      1068      4022      4091      4088
 -1      2062    8    0    1
 -2       929      1022       939      3948      3945      4092
 -1      2063    8    0    1
 -2      1008       983       957      3885      4093      3909
 -1      2064    8    0    1
 -2      1010      1011      1069      3897      4094      4095
 -1      2065    8    0    1
 -2      1011      1024      1069      3954      4096      4094
 -1      2066    8    0    1
 -2       960       959      1070      3738      4097      4098
 -1      2067    8    0    1
 -2       960      1070      1026      4098      4099      3962
 -1      2068    8    0    1
 -2       959      1013      1025      3941      3958      4100
 -1      2069    8    0    1
 -2       985       986      1071      3815      4101      4102
 -1      2070    8    0    1
 -2       986      1050      1071      4035      4103      4101
 -1      2071    8    0    1
 -2      1005      1010      1069      3961      4095      4104
 -1      2072    8    0    1
 -2       957       983      1067      4093      4105      4086
 -1      2073    8    0    1
 -2       943       980      1072      3916      4106      4107
 -1      2074    8    0    1
 -2       948       943      1072      3942      4107      4108
 -1      2075    8    0    1
 -2       980      1045      1072      4019      4109      4106
 -1      2076    8    0    1
 -2       958       985      1073      3812      4110      4111
 -1      2077    8    0    1
 -2      1046       958      1073      4021      4111      4112
 -1      2078    8    0    1
 -2       985      1071      1073      4102      4113      4110
 -1      2079    8    0    1
 -2       959      1025      1070      4100      4114      4097
 -1      2080    8    0    1
 -2      1048      1007      1006      4027      4115      4085
 -1      2081    8    0    1
 -2      1018       950      1074      3928      4116      4117
 -1      2082    8    0    1
 -2       950      1017      1074      3923      4118      4116
 -1      2083    8    0    1
 -2      1019       948      1072      3931      4108      4119
 -1      2084    8    0    1
 -2      1014      1049      1075      4031      4120      4121
 -1      2085    8    0    1
 -2      1014      1075      1074      4121      4122      4123
 -1      2086    8    0    1
 -2      1066      1003      1016      4081      4033      4124
 -1      2087    8    0    1
 -2      1004      1067      1075      4087      4125      4126
 -1      2088    8    0    1
 -2       983      1018      1067      3927      4127      4105
 -1      2089    8    0    1
 -2      1023      1020      1076      3949      4128      4129
 -1      2090    8    0    1
 -2      1015      1004      1075      3914      4126      4130
 -1      2091    8    0    1
 -2      1020      1048      1077      4028      4131      4132
 -1      2092    8    0    1
 -2      1076      1020      1077      4128      4132      4133
 -1      2093    8    0    1
 -2      1048      1068      1077      4090      4134      4131
 -1      2094    8    0    1
 -2       982      1019      1078      3930      4135      4136
 -1      2095    8    0    1
 -2       930       929       939      3635      4092      3670
 -1      2096    8    0    1
 -2      1014      1074      1024      4123      4137      3955
 -1      2097    8    0    1
 -2      1012      1005      1079      3902      4138      4139
 -1      2098    8    0    1
 -2      1079      1005      1069      4138      4104      4140
 -1      2099    8    0    1
 -2      1012      1079      1047      4139      4141      4026
 -1      2100    8    0    1
 -2      1052      1053      1080      4044      4142      4143
 -1      2101    8    0    1
 -2      1016       982      1066      3918      4144      4124
 -1      2102    8    0    1
 -2      1024      1074      1081      4137      4145      4146
 -1      2103    8    0    1
 -2      1069      1024      1081      4096      4146      4147
 -1      2104    8    0    1
 -2      1074      1017      1081      4118      4148      4145
 -1      2105    8    0    1
 -2      1028      1027      1082      3969      4149      4150
 -1      2106    8    0    1
 -2      1029      1028      1083      3972      4151      4152
 -1      2107    8    0    1
 -2      1028      1082      1083      4150      4153      4151
 -1      2108    8    0    1
 -2      1030      1029      1084      3975      4154      4155
 -1      2109    8    0    1
 -2      1029      1083      1084      4152      4156      4154
 -1      2110    8    0    1
 -2      1031      1030      1085      3978      4157      4158
 -1      2111    8    0    1
 -2      1030      1084      1085      4155      4159      4157
 -1      2112    8    0    1
 -2      1032      1031      1086      3981      4160      4161
 -1      2113    8    0    1
 -2      1031      1085      1086      4158      4162      4160
 -1      2114    8    0    1
 -2      1033      1032      1087      3984      4163      4164
 -1      2115    8    0    1
 -2      1032      1086      1087      4161      4165      4163
 -1      2116    8    0    1
 -2      1034      1033      1088      3987      4166      4167
 -1      2117    8    0    1
 -2      1033      1087      1088      4164      4168      4166
 -1      2118    8    0    1
 -2      1035      1034      1089      3990      4169      4170
 -1      2119    8    0    1
 -2      1034      1088      1089      4167      4171      4169
 -1      2120    8    0    1
 -2      1036      1035      1090      3993      4172      4173
 -1      2121    8    0    1
 -2      1035      1089      1090      4170      4174      4172
 -1      2122    8    0    1
 -2      1037      1036      1091      3996      4175      4176
 -1      2123    8    0    1
 -2      1036      1090      1091      4173      4177      4175
 -1      2124    8    0    1
 -2      1038      1037      1092      3999      4178      4179
 -1      2125    8    0    1
 -2      1037      1091      1092      4176      4180      4178
 -1      2126    8    0    1
 -2      1039      1038      1093      4002      4181      4182
 -1      2127    8    0    1
 -2      1038      1092      1093      4179      4183      4181
 -1      2128    8    0    1
 -2      1040      1039      1094      4005      4184      4185
 -1      2129    8    0    1
 -2      1039      1093      1094      4182      4186      4184
 -1      2130    8    0    1
 -2      1041      1040      1095      4008      4187      4188
 -1      2131    8    0    1
 -2      1040      1094      1095      4185      4189      4187
 -1      2132    8    0    1
 -2      1042      1041      1096      4011      4190      4191
 -1      2133    8    0    1
 -2      1041      1095      1096      4188      4192      4190
 -1      2134    8    0    1
 -2      1043      1042      1097      4014      4193      4194
 -1      2135    8    0    1
 -2      1042      1096      1097      4191      4195      4193
 -1      2136    8    0    1
 -2      1044      1043      1098      4017      4196      4197
 -1      2137    8    0    1
 -2      1043      1097      1098      4194      4198      4196
 -1      2138    8    0    1
 -2      1045      1044      1099      4020      4199      4200
 -1      2139    8    0    1
 -2      1044      1098      1099      4197      4201      4199
 -1      2140    8    0    1
 -2      1017      1047      1081      4025      4202      4148
 -1      2141    8    0    1
 -2      1049      1021      1015      4032      3938      4203
 -1      2142    8    0    1
 -2      1051      1052      1100      4041      4204      4205
 -1      2143    8    0    1
 -2      1052      1080      1100      4143      4206      4204
 -1      2144    8    0    1
 -2      1050      1051      1101      4038      4207      4208
 -1      2145    8    0    1
 -2      1051      1100      1101      4205      4209      4207
 -1      2146    8    0    1
 -2      1053      1054      1102      4047      4210      4211
 -1      2147    8    0    1
 -2      1053      1102      1080      4211      4212      4142
 -1      2148    8    0    1
 -2      1054      1055      1103      4050      4213      4214
 -1      2149    8    0    1
 -2      1054      1103      1102      4214      4215      4210
 -1      2150    8    0    1
 -2      1055      1056      1104      4053      4216      4217
 -1      2151    8    0    1
 -2      1055      1104      1103      4217      4218      4213
 -1      2152    8    0    1
 -2      1056      1057      1105      4056      4219      4220
 -1      2153    8    0    1
 -2      1056      1105      1104      4220      4221      4216
 -1      2154    8    0    1
 -2      1057      1058      1106      4059      4222      4223
 -1      2155    8    0    1
 -2      1057      1106      1105      4223      4224      4219
 -1      2156    8    0    1
 -2      1058      1059      1107      4062      4225      4226
 -1      2157    8    0    1
 -2      1058      1107      1106      4226      4227      4222
 -1      2158    8    0    1
 -2      1059      1060      1108      4065      4228      4229
 -1      2159    8    0    1
 -2      1059      1108      1107      4229      4230      4225
 -1      2160    8    0    1
 -2      1060      1061      1109      4068      4231      4232
 -1      2161    8    0    1
 -2      1060      1109      1108      4232      4233      4228
 -1      2162    8    0    1
 -2      1061      1062      1110      4071      4234      4235
 -1      2163    8    0    1
 -2      1061      1110      1109      4235      4236      4231
 -1      2164    8    0    1
 -2      1062      1063      1111      4074      4237      4238
 -1      2165    8    0    1
 -2      1062      1111      1110      4238      4239      4234
 -1      2166    8    0    1
 -2      1063      1064      1112      4077      4240      4241
 -1      2167    8    0    1
 -2      1063      1112      1111      4241      4242      4237
 -1      2168    8    0    1
 -2      1064      1065      1113      4080      4243      4244
 -1      2169    8    0    1
 -2      1064      1113      1112      4244      4245      4240
 -1      2170    8    0    1
 -2      1078      1019      1099      4135      4246      4247
 -1      2171    8    0    1
 -2       982      1078      1066      4136      4248      4144
 -1      2172    8    0    1
 -2      1027      1026      1114      3966      4249      4250
 -1      2173    8    0    1
 -2      1027      1114      1082      4250      4251      4149
 -1      2174    8    0    1
 -2      1072      1045      1099      4109      4200      4252
 -1      2175    8    0    1
 -2      1015      1075      1049      4130      4120      4203
 -1      2176    8    0    1
 -2      1022      1006      1007      3947      4115      4253
 -1      2177    8    0    1
 -2      1019      1072      1099      4119      4252      4246
 -1      2178    8    0    1
 -2      1071      1050      1115      4103      4254      4255
 -1      2179    8    0    1
 -2      1050      1101      1115      4208      4256      4254
 -1      2180    8    0    1
 -2      1047      1079      1081      4141      4257      4202
 -1      2181    8    0    1
 -2      1079      1069      1081      4140      4147      4257
 -1      2182    8    0    1
 -2      1026      1070      1116      4099      4258      4259
 -1      2183    8    0    1
 -2      1026      1116      1114      4259      4260      4249
 -1      2184    8    0    1
 -2      1066      1078      1117      4248      4261      4262
 -1      2185    8    0    1
 -2      1065      1066      1117      4083      4262      4263
 -1      2186    8    0    1
 -2      1078      1099      1117      4247      4264      4261
 -1      2187    8    0    1
 -2      1068      1046      1118      4091      4265      4266
 -1      2188    8    0    1
 -2      1068      1118      1077      4266      4267      4134
 -1      2189    8    0    1
 -2      1022      1007       946      4253      3946      3944
 -1      2190    8    0    1
 -2      1074      1075      1067      4122      4125      4268
 -1      2191    8    0    1
 -2      1046      1073      1119      4112      4269      4270
 -1      2192    8    0    1
 -2      1046      1119      1118      4270      4271      4265
 -1      2193    8    0    1
 -2      1116      1070      1076      4258      4272      4273
 -1      2194    8    0    1
 -2      1113      1065      1117      4243      4263      4274
 -1      2195    8    0    1
 -2      1116      1076      1120      4273      4275      4276
 -1      2196    8    0    1
 -2      1114      1116      1120      4260      4276      4277
 -1      2197    8    0    1
 -2      1076      1077      1120      4133      4278      4275
 -1      2198    8    0    1
 -2      1018      1074      1067      4117      4268      4127
 -1      2199    8    0    1
 -2      1073      1071      1121      4113      4279      4280
 -1      2200    8    0    1
 -2      1119      1073      1121      4269      4280      4281
 -1      2201    8    0    1
 -2      1071      1115      1121      4255      4282      4279
 -1      2202    8    0    1
 -2      1025      1023      1070      3959      4283      4114
 -1      2203    8    0    1
 -2      1023      1076      1070      4129      4272      4283
 -1      2204    8    0    1
 -2      1082      1114      1122      4251      4284      4285
 -1      2205    8    0    1
 -2      1083      1082      1115      4153      4286      4287
 -1      2206    8    0    1
 -2      1084      1083      1101      4156      4288      4289
 -1      2207    8    0    1
 -2      1085      1084      1100      4159      4290      4291
 -1      2208    8    0    1
 -2      1086      1085      1080      4162      4292      4293
 -1      2209    8    0    1
 -2      1087      1086      1102      4165      4294      4295
 -1      2210    8    0    1
 -2      1088      1087      1103      4168      4296      4297
 -1      2211    8    0    1
 -2      1089      1088      1104      4171      4298      4299
 -1      2212    8    0    1
 -2      1090      1089      1105      4174      4300      4301
 -1      2213    8    0    1
 -2      1091      1090      1106      4177      4302      4303
 -1      2214    8    0    1
 -2      1092      1091      1107      4180      4304      4305
 -1      2215    8    0    1
 -2      1093      1092      1108      4183      4306      4307
 -1      2216    8    0    1
 -2      1094      1093      1109      4186      4308      4309
 -1      2217    8    0    1
 -2      1095      1094      1110      4189      4310      4311
 -1      2218    8    0    1
 -2      1096      1095      1111      4192      4312      4313
 -1      2219    8    0    1
 -2      1097      1096      1112      4195      4314      4315
 -1      2220    8    0    1
 -2      1098      1097      1113      4198      4316      4317
 -1      2221    8    0    1
 -2      1099      1098      1117      4201      4318      4264
 -1      2222    8    0    1
 -2      1100      1080      1085      4206      4292      4291
 -1      2223    8    0    1
 -2      1113      1117      1098      4274      4318      4317
 -1      2224    8    0    1
 -2      1101      1100      1084      4209      4290      4289
 -1      2225    8    0    1
 -2      1103      1104      1088      4218      4298      4297
 -1      2226    8    0    1
 -2      1104      1105      1089      4221      4300      4299
 -1      2227    8    0    1
 -2      1105      1106      1090      4224      4302      4301
 -1      2228    8    0    1
 -2      1106      1107      1091      4227      4304      4303
 -1      2229    8    0    1
 -2      1107      1108      1092      4230      4306      4305
 -1      2230    8    0    1
 -2      1108      1109      1093      4233      4308      4307
 -1      2231    8    0    1
 -2      1109      1110      1094      4236      4310      4309
 -1      2232    8    0    1
 -2      1110      1111      1095      4239      4312      4311
 -1      2233    8    0    1
 -2      1111      1112      1096      4242      4314      4313
 -1      2234    8    0    1
 -2      1112      1113      1097      4245      4316      4315
 -1      2235    8    0    1
 -2      1077      1118      1120      4267      4319      4278
 -1      2236    8    0    1
 -2      1103      1087      1102      4296      4295      4215
 -1      2237    8    0    1
 -2      1080      1102      1086      4212      4294      4293
 -1      2238    8    0    1
 -2      1115      1101      1083      4256      4288      4287
 -1      2239    8    0    1
 -2      1122      1114      1120      4284      4277      4320
 -1      2240    8    0    1
 -2      1120      1118      1119      4319      4271      4321
 -1      2241    8    0    1
 -2      1115      1082      1122      4286      4285      4322
 -1      2242    8    0    1
 -2      1122      1120      1119      4320      4321      4323
 -1      2243    8    0    1
 -2      1122      1119      1121      4323      4281      4324
 -1      2244    8    0    1
 -2      1115      1122      1121      4322      4324      4282
 -3
    1PSTEP                         1           1           1          
  100CL  101 1.000000000        4324                     0    1           1
 -4  DISP        4    1
 -5  D1          1    2    1    0
 -5  D2          1    2    2    0
 -5  D3          1    2    3    0
 -5  ALL         1    2    0    0    1ALL
 -1         1 3.86365E-03-7.76708E-04-2.08349E-14
 -1         2 6.97360E-03-1.90199E-06-3.15294E-14
 -1         3 1.52007E-02 6.98532E-04-2.18209E-13
 -1         4 1.52094E-02-7.31841E-04-2.23074E-13
 -1         5 0.00000E+00 0.00000E+00 0.00000E+00
 -1         6 0.00000E+00 0.00000E+00 0.00000E+00
 -1         7 0.00000E+00 0.00000E+00 0.00000E+00
 -1         8 0.00000E+00 0.00000E+00 0.00000E+00
 -1         9 0.00000E+00 0.00000E+00 0.00000E+00
 -1        10 0.00000E+00 0.00000E+00 0.00000E+00
 -1        11 0.00000E+00 0.00000E+00 0.00000E+00
 -1        12 0.00000E+00 0.00000E+00 0.00000E+00
 -1        13 0.00000E+00 0.00000E+00 0.00000E+00
 -1        14 0.00000E+00 0.00000E+00 0.00000E+00
 -1        15 0.00000E+00 0.00000E+00 0.00000E+00
 -1        16 0.00000E+00 0.00000E+00 0.00000E+00
 -1        17 0.00000E+00 0.00000E+00 0.00000E+00
 -1        18 0.00000E+00 0.00000E+00 0.00000E+00
 -1        19 0.00000E+00 0.00000E+00 0.00000E+00
 -1        20 0.00000E+00 0.00000E+00 0.00000E+00
 -1        21 0.00000E+00 0.00000E+00 0.00000E+00
 -1        22 0.00000E+00 0.00000E+00 0.00000E+00
 -1        23 4.14931E-04-2.47652E-04 5.51893E-17
 -1        24 7.20317E-04-3.71911E-04-1.36562E-16
 -1        25 1.01202E-03-4.55575E-04-5.67438E-16
 -1        26 1.30551E-03-5.15096E-04-1.23218E-15
 -1        27 1.60589E-03-5.61443E-04-2.12615E-15
 -1        28 1.91601E-03-6.02412E-04-3.24624E-15
 -1        29 2.23725E-03-6.44896E-04-4.58913E-15
 -1        30 2.56936E-03-6.95396E-04-6.15232E-15
 -1        31 2.90991E-03-7.59704E-04-7.93565E-15
 -1        32 3.25363E-03-8.41687E-04-9.93761E-15
 -1        33 3.59229E-03-9.41149E-04-1.21570E-14
 -1        34 3.91595E-03-1.05128E-03-1.45920E-14
 -1        35 4.21623E-03-1.15727E-03-1.72483E-14
 -1        36 4.49104E-03-1.23837E-03-2.01306E-14
 -1        37 4.74787E-03-1.27479E-03-2.32421E-14
 -1        38 5.00236E-03-1.25663E-03-2.65827E-14
 -1        39 5.27156E-03-1.18913E-03-3.01521E-14
 -1        40 5.56633E-03-1.09002E-03-3.39339E-14
 -1        41 5.88779E-03-9.81165E-04-3.79159E-14
 -1        42 6.22936E-03-8.80478E-04-4.20930E-14
 -1        43 6.58130E-03-7.98248E-04-4.64602E-14
 -1        44 6.93468E-03-7.37635E-04-5.09984E-14
 -1        45 7.28325E-03-6.97137E-04-5.57061E-14
 -1        46 7.62359E-03-6.73070E-04-6.05809E-14
 -1        47 7.95454E-03-6.61263E-04-6.56034E-14
 -1        48 8.27631E-03-6.57950E-04-7.07620E-14
 -1        49 8.58987E-03-6.60099E-04-7.60484E-14
 -1        50 8.89651E-03-6.65449E-04-8.14701E-14
 -1        51 9.19753E-03-6.72403E-04-8.70253E-14
 -1        52 9.49413E-03-6.79893E-04-9.27054E-14
 -1        53 9.78734E-03-6.87243E-04-9.84966E-14
 -1        54 1.00780E-02-6.94060E-04-1.04405E-13
 -1        55 1.03668E-02-7.00146E-04-1.10419E-13
 -1        56 1.06544E-02-7.05429E-04-1.16538E-13
 -1        57 1.09410E-02-7.09921E-04-1.22769E-13
 -1        58 1.12270E-02-7.13680E-04-1.29088E-13
 -1        59 1.15126E-02-7.16788E-04-1.35482E-13
 -1        60 1.17980E-02-7.19338E-04-1.41950E-13
 -1        61 1.20833E-02-7.21421E-04-1.48475E-13
 -1        62 1.23685E-02-7.23123E-04-1.55059E-13
 -1        63 1.26538E-02-7.24522E-04-1.61708E-13
 -1        64 1.29391E-02-7.25686E-04-1.68414E-13
 -1        65 1.32245E-02-7.26671E-04-1.75182E-13
 -1        66 1.35099E-02-7.27527E-04-1.82000E-13
 -1        67 1.37954E-02-7.28297E-04-1.88862E-13
 -1        68 1.40810E-02-7.29014E-04-1.95742E-13
 -1        69 1.43666E-02-7.29710E-04-2.02641E-13
 -1        70 1.46523E-02-7.30411E-04-2.09554E-13
 -1        71 1.49380E-02-7.31133E-04-2.16478E-13
 -1        72 4.16935E-04 2.48365E-04 1.10101E-16
 -1        73 7.20137E-04 3.74579E-04 1.45724E-17
 -1        74 1.01251E-03 4.57405E-04-2.85020E-16
 -1        75 1.30620E-03 5.16915E-04-7.94402E-16
 -1        76 1.60659E-03 5.63357E-04-1.51456E-15
 -1        77 1.91659E-03 6.04454E-04-2.44335E-15
 -1        78 2.23757E-03 6.47050E-04-3.58180E-15
 -1        79 2.56928E-03 6.97590E-04-4.92683E-15
 -1        80 2.90927E-03 7.61788E-04-6.48358E-15
 -1        81 3.25229E-03 8.43422E-04-8.25776E-15
 -1        82 3.59019E-03 9.42211E-04-1.02538E-14
 -1        83 3.91314E-03 1.05133E-03-1.24675E-14
 -1        84 4.21293E-03 1.15608E-03-1.48990E-14
 -1        85 4.48748E-03 1.23600E-03-1.75537E-14
 -1        86 4.74421E-03 1.27165E-03-2.04479E-14
 -1        87 4.99856E-03 1.25330E-03-2.35792E-14
 -1        88 5.26746E-03 1.18608E-03-2.69414E-14
 -1        89 5.56170E-03 1.08739E-03-3.05265E-14
 -1        90 5.88245E-03 9.78742E-04-3.43243E-14
 -1        91 6.22325E-03 8.77882E-04-3.83228E-14
 -1        92 6.57448E-03 7.95120E-04-4.25150E-14
 -1        93 6.92726E-03 7.33713E-04-4.68911E-14
 -1        94 7.27537E-03 6.92258E-04-5.14565E-14
 -1        95 7.61539E-03 6.67146E-04-5.61945E-14
 -1        96 7.94612E-03 6.54256E-04-6.10914E-14
 -1        97 8.26775E-03 6.49849E-04-6.61486E-14
 -1        98 8.58124E-03 6.50909E-04-7.13596E-14
 -1        99 8.88783E-03 6.55179E-04-7.67083E-14
 -1       100 9.18882E-03 6.61062E-04-8.22035E-14
 -1       101 9.48541E-03 6.67489E-04-8.78397E-14
 -1       102 9.77861E-03 6.73781E-04-9.36058E-14
 -1       103 1.00693E-02 6.79546E-04-9.94980E-14
 -1       104 1.03581E-02 6.84581E-04-1.05493E-13
 -1       105 1.06456E-02 6.88816E-04-1.11587E-13
 -1       106 1.09322E-02 6.92261E-04-1.17786E-13
 -1       107 1.12182E-02 6.94972E-04-1.24094E-13
 -1       108 1.15038E-02 6.97034E-04-1.30487E-13
 -1       109 1.17892E-02 6.98537E-04-1.36972E-13
 -1       110 1.20745E-02 6.99574E-04-1.43556E-13
 -1       111 1.23598E-02 7.00229E-04-1.50225E-13
 -1       112 1.26451E-02 7.00582E-04-1.56965E-13
 -1       113 1.29304E-02 7.00699E-04-1.63754E-13
 -1       114 1.32157E-02 7.00637E-04-1.70583E-13
 -1       115 1.35012E-02 7.00447E-04-1.77429E-13
 -1       116 1.37867E-02 7.00169E-04-1.84283E-13
 -1       117 1.40722E-02 6.99840E-04-1.91132E-13
 -1       118 1.43579E-02 6.99489E-04-1.97990E-13
 -1       119 1.46435E-02 6.99143E-04-2.04847E-13
 -1       120 1.49293E-02 6.98819E-04-2.11701E-13
 -1       121 1.52010E-02 6.14248E-04-2.18573E-13
 -1       122 1.52012E-02 5.29955E-04-2.18949E-13
 -1       123 1.52015E-02 4.45633E-04-2.19322E-13
 -1       124 1.52017E-02 3.61270E-04-2.19689E-13
 -1       125 1.52020E-02 2.76864E-04-2.20051E-13
 -1       126 1.52023E-02 1.93850E-04-2.20399E-13
 -1       127 1.52027E-02 1.09375E-04-2.20733E-13
 -1       128 1.52031E-02 2.48799E-05-2.21052E-13
 -1       129 1.52036E-02-5.96215E-05-2.21359E-13
 -1       130 1.52042E-02-1.44116E-04-2.21632E-13
 -1       131 1.52049E-02-2.28591E-04-2.21886E-13
 -1       132 1.52056E-02-3.11604E-04-2.22134E-13
 -1       133 1.52064E-02-3.96010E-04-2.22342E-13
 -1       134 1.52071E-02-4.80372E-04-2.22533E-13
 -1       135 1.52079E-02-5.64693E-04-2.22713E-13
 -1       136 1.52087E-02-6.48986E-04-2.22892E-13
 -1       137 6.92585E-03 1.69046E-04-3.12361E-14
 -1       138 6.77335E-03 3.43153E-04-3.05264E-14
 -1       139 6.53596E-03 4.97436E-04-2.95147E-14
 -1       140 6.21674E-03 6.32267E-04-2.82332E-14
 -1       141 5.80080E-03 7.48072E-04-2.66385E-14
 -1       142 5.36394E-03 8.19650E-04-2.50578E-14
 -1       143 4.91061E-03 8.52001E-04-2.34914E-14
 -1       144 4.43372E-03 8.43279E-04-2.19204E-14
 -1       145 3.95707E-03 7.89173E-04-2.04196E-14
 -1       146 3.55410E-03 7.03468E-04-1.92106E-14
 -1       147 3.19846E-03 5.85992E-04-1.81881E-14
 -1       148 2.91417E-03 4.45402E-04-1.74094E-14
 -1       149 2.70130E-03 2.79127E-04-1.68632E-14
 -1       150 2.59017E-03 1.04533E-04-1.66198E-14
 -1       151 2.57831E-03-6.30261E-05-1.66570E-14
 -1       152 2.66639E-03-2.41038E-04-1.69824E-14
 -1       153 2.83729E-03-3.98067E-04-1.75426E-14
 -1       154 3.11412E-03-5.52703E-04-1.84281E-14
 -1       155 3.45301E-03-6.77788E-04-1.95096E-14
 -1       156 4.27995E-03-8.34705E-04-2.21988E-14
 -1       157 4.71857E-03-8.57690E-04-2.36619E-14
 -1       158 5.15140E-03-8.44138E-04-2.51390E-14
 -1       159 5.57580E-03-7.94997E-04-2.66186E-14
 -1       160 5.99517E-03-7.05215E-04-2.81135E-14
 -1       161 6.32650E-03-5.97039E-04-2.93103E-14
 -1       162 6.62071E-03-4.55298E-04-3.03810E-14
 -1       163 6.81389E-03-3.12914E-04-3.10673E-14
 -1       164 6.93439E-03-1.57765E-04-3.14615E-14
 -1       165 2.49127E-04-1.10266E-04-5.00969E-17
 -1       166 2.32170E-04-7.64874E-05-8.22774E-17
 -1       167 2.23002E-04-5.35489E-05-9.95535E-17
 -1       168 2.16236E-04-3.67107E-05-1.08640E-16
 -1       169 2.11007E-04-2.42139E-05-1.12818E-16
 -1       170 2.07049E-04-1.44428E-05-1.14268E-16
 -1       171 2.04591E-04-6.63691E-06-1.13895E-16
 -1       172 2.03771E-04 1.89278E-07-1.12422E-16
 -1       173 2.04644E-04 7.03820E-06-1.09576E-16
 -1       174 2.07153E-04 1.49126E-05-1.05201E-16
 -1       175 2.11075E-04 2.46135E-05-9.88521E-17
 -1       176 2.16421E-04 3.74783E-05-8.92197E-17
 -1       177 2.23218E-04 5.45860E-05-7.43051E-17
 -1       178 2.32391E-04 7.79245E-05-5.04052E-17
 -1       179 2.48140E-04 1.12367E-04-1.12960E-17
 -1       180 3.06608E-04 1.71400E-04 3.10048E-17
 -1       181 4.85526E-04-2.38492E-04-1.34319E-16
 -1       182 7.99835E-04-3.40504E-04-4.89934E-16
 -1       183 1.10487E-03-4.10120E-04-1.06785E-15
 -1       184 1.40910E-03-4.60796E-04-1.86879E-15
 -1       185 1.71675E-03-5.01616E-04-2.89081E-15
 -1       186 2.03034E-03-5.40130E-04-4.13110E-15
 -1       187 2.35100E-03-5.83386E-04-5.58819E-15
 -1       188 2.67847E-03-6.38093E-04-7.25974E-15
 -1       189 3.01089E-03-7.09908E-04-9.14593E-15
 -1       190 3.34460E-03-8.01672E-04-1.12460E-14
 -1       191 3.67442E-03-9.10691E-04-1.35601E-14
 -1       192 3.99473E-03-1.02601E-03-1.60925E-14
 -1       193 4.30183E-03-1.12801E-03-1.88491E-14
 -1       194 4.59659E-03-1.19301E-03-2.18333E-14
 -1       195 4.88550E-03-1.20303E-03-2.50491E-14
 -1       196 5.17820E-03-1.15516E-03-2.84946E-14
 -1       197 5.48271E-03-1.06334E-03-3.21616E-14
 -1       198 5.80193E-03-9.50950E-04-3.60351E-14
 -1       199 6.13352E-03-8.40341E-04-4.01076E-14
 -1       200 6.47224E-03-7.46284E-04-4.43701E-14
 -1       201 6.81256E-03-6.74924E-04-4.88127E-14
 -1       202 7.15013E-03-6.26103E-04-5.34259E-14
 -1       203 7.48225E-03-5.96343E-04-5.82064E-14
 -1       204 7.80766E-03-5.81109E-04-6.31445E-14
 -1       205 8.12612E-03-5.76085E-04-6.82205E-14
 -1       206 8.43807E-03-5.77710E-04-7.34324E-14
 -1       207 8.74427E-03-5.83286E-04-7.87729E-14
 -1       208 9.04560E-03-5.90897E-04-8.42478E-14
 -1       209 9.34295E-03-5.99252E-04-8.98485E-14
 -1       210 9.63712E-03-6.07530E-04-9.55719E-14
 -1       211 9.92883E-03-6.15249E-04-1.01406E-13
 -1       212 1.02187E-02-6.22160E-04-1.07352E-13
 -1       213 1.05071E-02-6.28167E-04-1.13405E-13
 -1       214 1.07945E-02-6.33274E-04-1.19566E-13
 -1       215 1.10812E-02-6.37542E-04-1.25827E-13
 -1       216 1.13674E-02-6.41063E-04-1.32179E-13
 -1       217 1.16532E-02-6.43941E-04-1.38600E-13
 -1       218 1.19389E-02-6.46279E-04-1.45090E-13
 -1       219 1.22244E-02-6.48175E-04-1.51640E-13
 -1       220 1.25099E-02-6.49719E-04-1.58256E-13
 -1       221 1.27954E-02-6.50986E-04-1.64930E-13
 -1       222 1.30809E-02-6.52042E-04-1.71663E-13
 -1       223 1.33664E-02-6.52944E-04-1.78452E-13
 -1       224 1.36519E-02-6.53738E-04-1.85289E-13
 -1       225 1.39375E-02-6.54464E-04-1.92155E-13
 -1       226 1.42231E-02-6.55154E-04-1.99042E-13
 -1       227 1.45088E-02-6.55839E-04-2.05946E-13
 -1       228 1.47945E-02-6.56542E-04-2.12861E-13
 -1       229 6.26941E-04 2.99614E-04-1.01203E-16
 -1       230 9.34593E-04 3.85976E-04-4.25353E-16
 -1       231 1.23767E-03 4.46638E-04-9.51116E-16
 -1       232 1.54236E-03 4.92598E-04-1.68191E-15
 -1       233 1.85220E-03 5.32032E-04-2.61816E-15
 -1       234 2.16905E-03 5.72121E-04-3.76071E-15
 -1       235 2.49334E-03 6.19701E-04-5.10845E-15
 -1       236 2.82394E-03 6.81057E-04-6.66473E-15
 -1       237 3.15789E-03 7.60790E-04-8.43321E-15
 -1       238 3.49039E-03 8.59649E-04-1.04171E-14
 -1       239 3.81550E-03 9.71706E-04-1.26184E-14
 -1       240 4.12792E-03 1.08239E-03-1.50381E-14
 -1       241 4.42572E-03 1.17003E-03-1.76845E-14
 -1       242 4.71256E-03 1.21268E-03-2.05644E-14
 -1       243 4.99722E-03 1.19822E-03-2.36817E-14
 -1       244 5.28984E-03 1.13085E-03-2.70305E-14
 -1       245 5.59713E-03 1.02896E-03-3.06047E-14
 -1       246 5.91998E-03 9.15906E-04-3.43911E-14
 -1       247 6.25459E-03 8.11053E-04-3.83780E-14
 -1       248 6.59508E-03 7.25526E-04-4.25610E-14
 -1       249 6.93588E-03 6.62713E-04-4.69274E-14
 -1       250 7.27292E-03 6.20965E-04-5.14773E-14
 -1       251 7.60383E-03 5.96316E-04-5.61956E-14
 -1       252 7.92767E-03 5.84319E-04-6.10771E-14
 -1       253 8.24443E-03 5.80991E-04-6.61197E-14
 -1       254 8.55472E-03 5.83153E-04-7.13137E-14
 -1       255 8.85939E-03 5.88453E-04-7.66476E-14
 -1       256 9.15938E-03 5.95247E-04-8.21245E-14
 -1       257 9.45558E-03 6.02446E-04-8.77411E-14
 -1       258 9.74881E-03 6.09375E-04-9.34882E-14
 -1       259 1.00398E-02 6.15651E-04-9.93558E-14
 -1       260 1.03290E-02 6.21089E-04-1.05332E-13
 -1       261 1.06169E-02 6.25633E-04-1.11413E-13
 -1       262 1.09040E-02 6.29311E-04-1.17598E-13
 -1       263 1.11904E-02 6.32196E-04-1.23886E-13
 -1       264 1.14764E-02 6.34382E-04-1.30262E-13
 -1       265 1.17621E-02 6.35973E-04-1.36729E-13
 -1       266 1.20477E-02 6.37068E-04-1.43291E-13
 -1       267 1.23332E-02 6.37763E-04-1.49937E-13
 -1       268 1.26186E-02 6.38138E-04-1.56656E-13
 -1       269 1.29041E-02 6.38266E-04-1.63429E-13
 -1       270 1.31895E-02 6.38208E-04-1.70246E-13
 -1       271 1.34750E-02 6.38016E-04-1.77084E-13
 -1       272 1.37606E-02 6.37732E-04-1.83930E-13
 -1       273 1.40462E-02 6.37395E-04-1.90775E-13
 -1       274 1.43318E-02 6.37035E-04-1.97627E-13
 -1       275 1.46175E-02 6.36679E-04-2.04485E-13
 -1       276 1.49032E-02 6.36347E-04-2.11339E-13
 -1       277 1.49537E-02 5.72357E-04-2.12823E-13
 -1       278 1.49539E-02 4.88046E-04-2.13196E-13
 -1       279 1.49542E-02 4.03708E-04-2.13560E-13
 -1       280 1.49544E-02 3.19342E-04-2.13924E-13
 -1       281 1.49547E-02 2.36378E-04-2.14266E-13
 -1       282 1.49550E-02 1.51961E-04-2.14601E-13
 -1       283 1.49554E-02 6.75262E-05-2.14920E-13
 -1       284 1.49559E-02-1.69170E-05-2.15224E-13
 -1       285 1.49565E-02-1.01360E-04-2.15504E-13
 -1       286 1.49571E-02-1.85794E-04-2.15770E-13
 -1       287 1.49578E-02-2.68781E-04-2.16013E-13
 -1       288 1.49585E-02-3.53175E-04-2.16237E-13
 -1       289 1.49593E-02-4.37540E-04-2.16435E-13
 -1       290 1.49601E-02-5.21877E-04-2.16620E-13
 -1       291 1.48773E-02-5.89216E-04-2.14743E-13
 -1       292 6.98426E-03 4.25034E-05-3.31118E-14
 -1       293 6.84347E-03 1.42203E-04-3.25963E-14
 -1       294 6.58219E-03 2.81500E-04-3.14242E-14
 -1       295 6.24979E-03 4.50654E-04-2.99322E-14
 -1       296 5.82919E-03 6.24737E-04-2.83960E-14
 -1       297 5.44380E-03 7.99690E-04-2.63094E-14
 -1       298 5.06693E-03 9.05273E-04-2.44194E-14
 -1       299 4.69368E-03 9.29896E-04-2.25611E-14
 -1       300 4.30865E-03 8.65423E-04-2.07445E-14
 -1       301 3.90654E-03 7.26766E-04-1.92569E-14
 -1       302 3.52589E-03 5.59743E-04-1.80083E-14
 -1       303 3.16441E-03 3.88000E-04-1.70134E-14
 -1       304 2.85538E-03 2.22509E-04-1.61705E-14
 -1       305 2.63113E-03 1.04648E-04-1.57985E-14
 -1       306 2.54609E-03 1.06671E-05-1.57482E-14
 -1       307 2.59706E-03-8.24766E-05-1.58826E-14
 -1       308 2.77875E-03-1.98438E-04-1.64277E-14
 -1       309 3.07335E-03-3.31002E-04-1.71120E-14
 -1       310 3.42525E-03-5.15224E-04-1.83075E-14
 -1       311 3.82010E-03-6.89595E-04-1.96210E-14
 -1       312 4.19436E-03-8.35061E-04-2.11892E-14
 -1       313 4.55326E-03-9.18150E-04-2.28247E-14
 -1       314 4.90552E-03-9.28607E-04-2.45502E-14
 -1       315 5.25869E-03-8.64344E-04-2.63047E-14
 -1       316 5.62346E-03-7.32253E-04-2.81900E-14
 -1       317 6.00982E-03-5.68994E-04-2.97205E-14
 -1       318 6.35274E-03-3.90574E-04-3.12766E-14
 -1       319 6.66347E-03-2.53254E-04-3.21792E-14
 -1       320 6.85307E-03-1.61504E-04-3.25848E-14
 -1       321 6.98688E-03-4.47100E-05-3.31334E-14
 -1       322 4.66435E-04-1.29467E-04-3.35655E-16
 -1       323 4.92068E-04-1.80067E-04-2.83885E-16
 -1       324 4.34051E-04-6.27437E-05-3.83005E-16
 -1       325 4.23127E-04-4.01472E-05-3.90868E-16
 -1       326 4.15586E-04-2.20818E-05-3.92925E-16
 -1       327 4.11752E-04-6.72842E-06-3.90442E-16
 -1       328 4.11851E-04 7.75202E-06-3.84184E-16
 -1       329 4.15879E-04 2.32187E-05-3.73657E-16
 -1       330 4.23437E-04 4.11690E-05-3.58491E-16
 -1       331 4.34475E-04 6.40198E-05-3.36079E-16
 -1       332 4.48809E-04 9.34633E-05-3.04312E-16
 -1       333 4.67273E-04 1.32065E-04-2.57732E-16
 -1       334 4.93800E-04 1.84171E-04-1.88766E-16
 -1       335 5.53431E-04 2.37590E-04-1.56762E-16
 -1       336 8.61847E-04 3.24914E-04-4.94423E-16
 -1       337 6.93598E-03-6.24280E-05-3.48825E-14
 -1       338 9.01179E-04-3.03935E-04-8.82442E-16
 -1       339 1.20557E-03-3.60783E-04-1.59759E-15
 -1       340 1.51047E-03-4.03729E-04-2.52780E-15
 -1       341 1.81813E-03-4.40321E-04-3.67193E-15
 -1       342 2.13041E-03-4.77661E-04-5.02788E-15
 -1       343 2.44863E-03-5.22759E-04-6.59359E-15
 -1       344 2.77349E-03-5.82333E-04-8.36819E-15
 -1       345 3.10458E-03-6.61756E-04-1.03528E-14
 -1       346 3.43988E-03-7.62828E-04-1.25470E-14
 -1       347 3.77521E-03-8.80393E-04-1.49546E-14
 -1       348 4.10492E-03-9.99073E-04-1.75828E-14
 -1       349 4.42484E-03-1.09362E-03-2.04390E-14
 -1       350 4.73618E-03-1.13705E-03-2.35271E-14
 -1       351 5.04630E-03-1.11491E-03-2.68496E-14
 -1       352 5.36375E-03-1.03482E-03-3.03995E-14
 -1       353 5.69208E-03-9.21455E-04-3.41658E-14
 -1       354 6.02858E-03-8.02471E-04-3.81350E-14
 -1       355 6.36765E-03-6.97611E-04-4.22969E-14
 -1       356 6.70439E-03-6.16035E-04-4.66439E-14
 -1       357 7.03588E-03-5.58900E-04-5.11630E-14
 -1       358 7.36103E-03-5.23038E-04-5.58500E-14
 -1       359 7.67976E-03-5.03735E-04-6.07014E-14
 -1       360 7.99253E-03-4.96295E-04-6.56981E-14
 -1       361 8.30003E-03-4.96741E-04-7.08296E-14
 -1       362 8.60299E-03-5.02004E-04-7.60939E-14
 -1       363 8.90213E-03-5.09859E-04-8.14884E-14
 -1       364 9.19810E-03-5.18784E-04-8.70141E-14
 -1       365 9.49153E-03-5.27794E-04-9.26602E-14
 -1       366 9.78292E-03-5.36294E-04-9.84252E-14
 -1       367 1.00727E-02-5.43964E-04-1.04303E-13
 -1       368 1.03613E-02-5.50668E-04-1.10290E-13
 -1       369 1.06490E-02-5.56390E-04-1.16383E-13
 -1       370 1.09359E-02-5.61183E-04-1.22583E-13
 -1       371 1.12224E-02-5.65140E-04-1.28879E-13
 -1       372 1.15086E-02-5.68373E-04-1.35258E-13
 -1       373 1.17945E-02-5.70994E-04-1.41711E-13
 -1       374 1.20802E-02-5.73111E-04-1.48226E-13
 -1       375 1.23659E-02-5.74823E-04-1.54806E-13
 -1       376 1.26515E-02-5.76216E-04-1.61452E-13
 -1       377 1.29371E-02-5.77363E-04-1.68154E-13
 -1       378 1.32227E-02-5.78327E-04-1.74913E-13
 -1       379 1.35083E-02-5.79159E-04-1.81723E-13
 -1       380 1.37940E-02-5.79904E-04-1.88572E-13
 -1       381 1.40796E-02-5.80598E-04-1.95442E-13
 -1       382 1.43653E-02-5.81272E-04-2.02336E-13
 -1       383 1.46213E-02-5.85233E-04-2.08536E-13
 -1       384 1.16724E-03 3.86794E-04-1.02762E-15
 -1       385 1.47263E-03 4.32924E-04-1.76131E-15
 -1       386 1.78095E-03 4.71374E-04-2.69728E-15
 -1       387 2.09424E-03 5.09394E-04-3.83654E-15
 -1       388 2.41361E-03 5.53975E-04-5.17914E-15
 -1       389 2.73915E-03 6.11757E-04-6.72721E-15
 -1       390 3.06970E-03 6.88070E-04-8.48347E-15
 -1       391 3.40252E-03 7.84910E-04-1.04514E-14
 -1       392 3.73326E-03 8.97932E-04-1.26339E-14
 -1       393 4.05687E-03 1.01367E-03-1.50340E-14
 -1       394 4.36993E-03 1.10983E-03-1.76612E-14
 -1       395 4.67362E-03 1.16158E-03-2.05207E-14
 -1       396 4.97448E-03 1.15319E-03-2.36185E-14
 -1       397 5.28109E-03 1.08721E-03-2.69505E-14
 -1       398 5.59883E-03 9.83071E-04-3.05093E-14
 -1       399 5.92752E-03 8.66391E-04-3.42800E-14
 -1       400 6.26309E-03 7.58199E-04-3.82547E-14
 -1       401 6.60047E-03 6.70320E-04-4.24216E-14
 -1       402 6.93558E-03 6.06154E-04-4.67735E-14
 -1       403 7.26592E-03 5.63832E-04-5.13046E-14
 -1       404 7.59028E-03 5.39146E-04-5.60043E-14
 -1       405 7.90840E-03 5.27454E-04-6.08680E-14
 -1       406 8.22056E-03 5.24624E-04-6.58921E-14
 -1       407 8.52737E-03 5.27373E-04-7.10672E-14
 -1       408 8.82954E-03 5.33277E-04-7.63842E-14
 -1       409 9.12784E-03 5.40647E-04-8.18420E-14
 -1       410 9.42298E-03 5.48368E-04-8.74384E-14
 -1       411 9.71560E-03 5.55752E-04-9.31642E-14
 -1       412 1.00062E-02 5.62413E-04-9.90105E-14
 -1       413 1.02954E-02 5.68169E-04-1.04969E-13
 -1       414 1.05834E-02 5.72971E-04-1.11033E-13
 -1       415 1.08706E-02 5.76853E-04-1.17201E-13
 -1       416 1.11572E-02 5.79896E-04-1.23471E-13
 -1       417 1.14434E-02 5.82203E-04-1.29832E-13
 -1       418 1.17293E-02 5.83883E-04-1.36282E-13
 -1       419 1.20150E-02 5.85045E-04-1.42821E-13
 -1       420 1.23006E-02 5.85785E-04-1.49448E-13
 -1       421 1.25862E-02 5.86192E-04-1.56152E-13
 -1       422 1.28717E-02 5.86341E-04-1.62911E-13
 -1       423 1.31573E-02 5.86295E-04-1.69717E-13
 -1       424 1.34428E-02 5.86108E-04-1.76548E-13
 -1       425 1.37284E-02 5.85826E-04-1.83386E-13
 -1       426 1.40141E-02 5.85485E-04-1.90230E-13
 -1       427 1.42997E-02 5.85119E-04-1.97079E-13
 -1       428 1.45854E-02 5.84755E-04-2.03934E-13
 -1       429 1.47695E-02 5.78549E-04-2.08380E-13
 -1       430 1.47068E-02 3.61837E-04-2.07795E-13
 -1       431 1.47066E-02 4.46175E-04-2.07435E-13
 -1       432 1.47381E-02 5.12368E-04-2.07909E-13
 -1       433 1.47071E-02 2.78907E-04-2.08139E-13
 -1       434 1.47074E-02 1.94530E-04-2.08474E-13
 -1       435 1.47077E-02 1.10138E-04-2.08792E-13
 -1       436 1.47082E-02 2.57382E-05-2.09095E-13
 -1       437 1.47087E-02-5.86650E-05-2.09385E-13
 -1       438 1.47093E-02-1.43065E-04-2.09657E-13
 -1       439 1.47099E-02-2.26026E-04-2.09903E-13
 -1       440 1.47107E-02-3.10404E-04-2.10131E-13
 -1       441 1.47115E-02-3.94763E-04-2.10339E-13
 -1       442 1.47123E-02-4.79101E-04-2.10534E-13
 -1       443 6.70171E-03 1.53008E-04-3.35810E-14
 -1       444 7.01826E-03-2.91875E-06-3.49854E-14
 -1       445 6.94457E-03 5.21496E-05-3.47702E-14
 -1       446 6.36313E-03 3.03157E-04-3.20519E-14
 -1       447 6.79908E-03-1.19172E-04-3.44505E-14
 -1       448 5.53614E-03 7.26060E-04-2.79044E-14
 -1       449 6.01293E-03 4.75477E-04-3.04390E-14
 -1       450 4.48203E-04-9.16718E-05-3.65996E-16
 -1       451 5.24056E-03 8.66180E-04-2.59419E-14
 -1       452 4.86987E-03 9.59132E-04-2.34778E-14
 -1       453 4.54334E-03 9.41205E-04-2.13654E-14
 -1       454 4.14938E-03 7.94974E-04-1.92781E-14
 -1       455 3.83405E-03 6.38446E-04-1.80433E-14
 -1       456 3.40644E-03 4.14043E-04-1.66073E-14
 -1       457 3.05640E-03 2.46657E-04-1.57020E-14
 -1       458 2.72638E-03 1.08357E-04-1.50365E-14
 -1       459 2.55396E-03 3.05127E-05-1.46896E-14
 -1       460 2.53641E-03-1.94594E-05-1.47939E-14
 -1       461 2.67815E-03-8.52781E-05-1.49529E-14
 -1       462 2.90181E-03-1.74750E-04-1.55699E-14
 -1       463 3.33042E-03-3.68531E-04-1.67778E-14
 -1       464 3.65682E-03-5.40723E-04-1.79945E-14
 -1       465 4.09002E-03-7.69631E-04-1.99170E-14
 -1       466 4.41829E-03-9.07281E-04-2.17519E-14
 -1       467 4.73541E-03-9.65729E-04-2.37018E-14
 -1       468 5.04685E-03-9.36252E-04-2.58090E-14
 -1       469 5.33578E-03-8.31307E-04-2.76778E-14
 -1       470 5.77087E-03-6.10314E-04-3.02002E-14
 -1       471 6.09066E-03-4.40635E-04-3.17754E-14
 -1       472 6.50189E-03-2.40458E-04-3.35579E-14
 -1       473 5.75948E-03 5.99925E-04-2.99106E-14
 -1       474 9.67498E-04 2.86870E-04-8.88463E-16
 -1       475 6.35157E-04-4.68652E-05-8.30624E-16
 -1       476 6.50879E-04-7.68105E-05-8.21673E-16
 -1       477 6.22212E-04 7.47046E-07-8.22039E-16
 -1       478 6.25759E-04 2.33970E-05-8.06023E-16
 -1       479 6.35600E-04 4.82017E-05-7.81903E-16
 -1       480 6.51518E-04 7.84117E-05-7.47147E-16
 -1       481 6.72851E-04 1.15953E-04-6.98911E-16
 -1       482 6.99680E-04 1.63180E-04-6.32256E-16
 -1       483 1.00822E-03-2.65850E-04-1.31785E-15
 -1       484 1.26871E-03 3.36581E-04-1.56073E-15
 -1       485 7.32741E-04-2.01619E-04-7.45853E-16
 -1       486 1.30649E-03-3.10660E-04-2.16070E-15
 -1       487 1.60680E-03-3.46306E-04-3.21254E-15
 -1       488 1.91030E-03-3.78831E-04-4.47245E-15
 -1       489 2.21882E-03-4.14700E-04-5.93757E-15
 -1       490 2.53456E-03-4.60722E-04-7.60605E-15
 -1       491 2.85976E-03-5.23756E-04-9.47898E-15
 -1       492 3.19576E-03-6.09607E-04-1.15555E-14
 -1       493 3.54129E-03-7.20259E-04-1.38398E-14
 -1       494 3.89076E-03-8.48855E-04-1.63382E-14
 -1       495 4.23514E-03-9.73781E-04-1.90604E-14
 -1       496 4.56823E-03-1.05954E-03-2.20176E-14
 -1       497 4.89387E-03-1.07317E-03-2.52123E-14
 -1       498 5.22369E-03-1.00878E-03-2.86451E-14
 -1       499 5.56513E-03-8.92658E-04-3.23024E-14
 -1       500 5.91488E-03-7.62592E-04-3.61719E-14
 -1       501 6.26396E-03-6.46181E-04-4.02375E-14
 -1       502 6.60516E-03-5.55540E-04-4.44900E-14
 -1       503 6.93575E-03-4.91872E-04-4.89160E-14
 -1       504 7.25625E-03-4.51373E-04-5.35120E-14
 -1       505 7.56847E-03-4.28814E-04-5.82726E-14
 -1       506 7.87434E-03-4.19183E-04-6.31856E-14
 -1       507 8.17545E-03-4.18284E-04-6.82402E-14
 -1       508 8.47298E-03-4.22863E-04-7.34277E-14
 -1       509 8.76776E-03-4.30529E-04-7.87474E-14
 -1       510 9.06043E-03-4.39608E-04-8.41949E-14
 -1       511 9.35143E-03-4.48989E-04-8.97657E-14
 -1       512 9.64112E-03-4.57979E-04-9.54621E-14
 -1       513 9.92978E-03-4.66184E-04-1.01270E-13
 -1       514 1.02176E-02-4.73420E-04-1.07191E-13
 -1       515 1.05049E-02-4.79639E-04-1.13219E-13
 -1       516 1.07917E-02-4.84876E-04-1.19354E-13
 -1       517 1.10781E-02-4.89219E-04-1.25593E-13
 -1       518 1.13643E-02-4.92775E-04-1.31924E-13
 -1       519 1.16503E-02-4.95663E-04-1.38334E-13
 -1       520 1.19361E-02-4.97995E-04-1.44815E-13
 -1       521 1.22219E-02-4.99876E-04-1.51362E-13
 -1       522 1.25076E-02-5.01398E-04-1.57973E-13
 -1       523 1.27933E-02-5.02643E-04-1.64648E-13
 -1       524 1.30790E-02-5.03677E-04-1.71380E-13
 -1       525 1.33647E-02-5.04556E-04-1.78163E-13
 -1       526 1.36503E-02-5.05328E-04-1.84992E-13
 -1       527 1.39360E-02-5.06033E-04-1.91849E-13
 -1       528 1.42217E-02-5.06704E-04-1.98723E-13
 -1       529 1.87738E-03 4.09946E-04-3.49804E-15
 -1       530 2.18791E-03 4.46892E-04-4.76585E-15
 -1       531 2.50486E-03 4.93102E-04-6.23367E-15
 -1       532 2.82961E-03 5.55227E-04-7.90425E-15
 -1       533 3.16260E-03 6.38553E-04-9.77976E-15
 -1       534 3.50222E-03 7.44514E-04-1.18638E-14
 -1       535 3.84369E-03 8.66609E-04-1.41615E-14
 -1       536 4.18000E-03 9.86275E-04-1.66783E-14
 -1       537 4.50613E-03 1.07391E-03-1.94275E-14
 -1       538 4.82447E-03 1.10031E-03-2.24170E-14
 -1       539 5.14433E-03 1.05532E-03-2.56462E-14
 -1       540 5.47396E-03 9.55523E-04-2.91089E-14
 -1       541 5.81359E-03 8.32406E-04-3.27913E-14
 -1       542 6.15709E-03 7.13739E-04-3.66821E-14
 -1       543 6.49776E-03 6.15670E-04-4.07674E-14
 -1       544 6.83149E-03 5.43125E-04-4.50379E-14
 -1       545 7.15713E-03 4.94446E-04-4.94862E-14
 -1       546 7.47520E-03 4.65229E-04-5.41054E-14
 -1       547 7.78678E-03 4.50533E-04-5.88896E-14
 -1       548 8.09300E-03 4.45915E-04-6.38342E-14
 -1       549 8.39487E-03 4.47796E-04-6.89337E-14
 -1       550 8.69321E-03 4.53485E-04-7.41804E-14
 -1       551 8.98868E-03 4.61073E-04-7.95635E-14
 -1       552 9.28183E-03 4.69274E-04-8.50860E-14
 -1       553 9.57314E-03 4.77273E-04-9.07412E-14
 -1       554 9.86299E-03 4.84593E-04-9.65190E-14
 -1       555 1.01517E-02 4.90992E-04-1.02415E-13
 -1       556 1.04395E-02 4.96389E-04-1.08418E-13
 -1       557 1.07267E-02 5.00797E-04-1.14525E-13
 -1       558 1.10134E-02 5.04292E-04-1.20735E-13
 -1       559 1.12997E-02 5.06977E-04-1.27043E-13
 -1       560 1.15858E-02 5.08966E-04-1.33441E-13
 -1       561 1.18716E-02 5.10374E-04-1.39927E-13
 -1       562 1.21574E-02 5.11308E-04-1.46502E-13
 -1       563 1.24431E-02 5.11864E-04-1.53156E-13
 -1       564 1.27288E-02 5.12123E-04-1.59880E-13
 -1       565 1.30144E-02 5.12156E-04-1.66651E-13
 -1       566 1.33001E-02 5.12023E-04-1.73464E-13
 -1       567 1.35857E-02 5.11773E-04-1.80290E-13
 -1       568 1.38714E-02 5.11447E-04-1.87128E-13
 -1       569 1.41570E-02 5.11080E-04-1.93976E-13
 -1       570 1.44427E-02 5.10701E-04-2.00827E-13
 -1       571 1.44598E-02 2.37087E-04-2.02352E-13
 -1       572 1.44601E-02 1.52728E-04-2.02669E-13
 -1       573 1.44593E-02 4.04339E-04-2.01671E-13
 -1       574 1.44595E-02 3.20720E-04-2.02016E-13
 -1       575 1.44605E-02 6.83608E-05-2.02974E-13
 -1       576 1.44609E-02-1.60098E-05-2.03267E-13
 -1       577 1.44615E-02-1.00380E-04-2.03544E-13
 -1       578 1.44621E-02-1.83317E-04-2.03795E-13
 -1       579 1.44628E-02-2.67677E-04-2.04026E-13
 -1       580 1.44636E-02-3.52025E-04-2.04242E-13
 -1       581 1.44644E-02-4.36358E-04-2.04441E-13
 -1       582 7.03202E-03 1.40742E-05-3.69714E-14
 -1       583 6.55387E-03 1.95889E-04-3.46673E-14
 -1       584 1.57155E-03 3.75416E-04-2.43000E-15
 -1       585 6.85693E-03 7.88585E-05-3.60708E-14
 -1       586 6.68925E-03-1.46188E-04-3.58454E-14
 -1       587 4.85312E-03-9.85598E-04-2.46258E-14
 -1       588 2.54067E-03-3.22118E-05-1.36113E-14
 -1       589 5.02595E-03 9.48404E-04-2.46849E-14
 -1       590 7.02755E-03-2.00717E-05-3.68687E-14
 -1       591 6.84689E-03-8.75621E-05-3.62919E-14
 -1       592 6.25416E-04-2.18260E-05-8.30340E-16
 -1       593 6.20235E-03 3.59969E-04-3.26054E-14
 -1       594 3.22620E-03 3.01527E-04-1.51470E-14
 -1       595 4.74256E-03 9.83154E-04-2.25024E-14
 -1       596 3.97863E-03 7.03875E-04-1.77734E-14
 -1       597 4.29336E-03-8.66669E-04-2.05404E-14
 -1       598 3.61206E-03 5.00233E-04-1.63610E-14
 -1       599 2.86249E-03 1.44213E-04-1.43363E-14
 -1       600 2.60119E-03 5.04825E-05-1.36899E-14
 -1       601 2.49350E-03-1.40319E-07-1.35126E-14
 -1       602 2.76050E-03-1.08564E-04-1.41504E-14
 -1       603 3.08421E-03-2.39338E-04-1.50561E-14
 -1       604 3.50725E-03-4.48739E-04-1.64250E-14
 -1       605 3.89398E-03-6.60570E-04-1.82457E-14
 -1       606 4.59460E-03-9.67890E-04-2.26314E-14
 -1       607 5.18725E-03-9.01284E-04-2.72874E-14
 -1       608 5.53941E-03-7.30150E-04-2.99140E-14
 -1       609 5.93034E-03-5.11540E-04-3.24235E-14
 -1       610 6.30434E-03-3.15201E-04-3.42624E-14
 -1       611 7.30861E-04 2.43862E-04-4.72299E-16
 -1       612 4.34654E-03 8.87876E-04-1.97144E-14
 -1       613 5.35551E-03 8.21913E-04-2.73130E-14
 -1       614 6.71935E-04-1.13810E-04-8.00344E-16
 -1       615 6.99810E-04-1.53314E-04-7.81601E-16
 -1       616 1.44148E-02-5.08824E-04-2.03392E-13
 -1       617 5.57702E-03 7.16808E-04-2.92821E-14
 -1       618 4.54094E-03 9.67074E-04-2.07796E-14
 -1       619 6.99574E-03-4.38074E-05-3.82991E-14
 -1       620 5.97911E-03 4.88241E-04-3.20408E-14
 -1       621 8.46980E-04 4.64453E-05-1.36684E-15
 -1       622 8.36881E-04 1.54144E-05-1.39841E-15
 -1       623 8.93252E-04 1.24525E-04-1.25879E-15
 -1       624 9.27463E-04 1.76667E-04-1.17493E-15
 -1       625 6.76893E-03 1.23868E-04-3.72471E-14
 -1       626 1.11307E-03-2.26336E-04-1.79590E-15
 -1       627 1.07333E-03 2.47411E-04-1.33708E-15
 -1       628 2.58523E-03 4.28993E-04-7.31877E-15
 -1       629 6.18489E-03-4.01759E-04-3.52594E-14
 -1       630 1.40329E-03-2.60560E-04-2.75820E-15
 -1       631 1.69621E-03-2.89074E-04-3.92421E-15
 -1       632 1.99293E-03-3.16830E-04-5.29216E-15
 -1       633 2.29588E-03-3.49603E-04-6.85998E-15
 -1       634 2.60866E-03-3.94091E-04-8.62560E-15
 -1       635 2.93572E-03-4.58060E-04-1.05898E-14
 -1       636 3.28052E-03-5.49523E-04-1.27536E-14
 -1       637 3.64231E-03-6.73324E-04-1.51222E-14
 -1       638 4.01243E-03-8.21354E-04-1.77078E-14
 -1       639 4.37567E-03-9.58637E-04-2.05236E-14
 -1       640 4.72525E-03-1.02845E-03-2.35870E-14
 -1       641 5.07195E-03-9.92563E-04-2.68969E-14
 -1       642 5.43064E-03-8.71322E-04-3.04439E-14
 -1       643 5.79995E-03-7.21813E-04-3.42137E-14
 -1       644 6.16613E-03-5.88535E-04-3.81867E-14
 -1       645 6.51725E-03-4.88642E-04-4.23483E-14
 -1       646 6.85003E-03-4.20929E-04-4.66856E-14
 -1       647 7.16702E-03-3.78692E-04-5.11894E-14
 -1       648 7.47247E-03-3.55097E-04-5.58586E-14
 -1       649 7.77031E-03-3.44571E-04-6.06853E-14
 -1       650 8.06342E-03-3.42850E-04-6.56594E-14
 -1       651 8.35372E-03-3.46749E-04-7.07689E-14
 -1       652 8.64236E-03-3.53939E-04-7.60141E-14
 -1       653 8.93003E-03-3.62758E-04-8.13907E-14
 -1       654 9.21710E-03-3.72070E-04-8.68882E-14
 -1       655 9.50381E-03-3.81138E-04-9.25073E-14
 -1       656 9.79026E-03-3.89523E-04-9.82512E-14
 -1       657 1.00765E-02-3.96996E-04-1.04104E-13
 -1       658 1.03627E-02-4.03478E-04-1.10066E-13
 -1       659 1.06487E-02-4.08979E-04-1.16140E-13
 -1       660 1.09347E-02-4.13570E-04-1.22318E-13
 -1       661 1.12206E-02-4.17351E-04-1.28595E-13
 -1       662 1.15064E-02-4.20434E-04-1.34962E-13
 -1       663 1.17922E-02-4.22932E-04-1.41406E-13
 -1       664 1.20780E-02-4.24949E-04-1.47916E-13
 -1       665 1.23637E-02-4.26582E-04-1.54499E-13
 -1       666 1.26495E-02-4.27913E-04-1.61142E-13
 -1       667 1.29352E-02-4.29011E-04-1.67847E-13
 -1       668 1.32209E-02-4.29938E-04-1.74604E-13
 -1       669 1.35067E-02-4.30740E-04-1.81410E-13
 -1       670 1.37924E-02-4.31460E-04-1.88254E-13
 -1       671 1.40781E-02-4.32131E-04-1.95117E-13
 -1       672 2.27059E-03 3.82982E-04-5.72982E-15
 -1       673 5.01877E-03-9.76647E-04-2.62072E-14
 -1       674 1.96457E-03 3.48203E-04-4.33761E-15
 -1       675 2.91173E-03 4.93371E-04-9.10643E-15
 -1       676 3.25236E-03 5.82671E-04-1.10950E-14
 -1       677 3.60589E-03 6.99719E-04-1.32896E-14
 -1       678 3.96482E-03 8.36274E-04-1.56968E-14
 -1       679 4.31752E-03 9.64793E-04-1.83317E-14
 -1       680 4.65760E-03 1.04034E-03-2.12065E-14
 -1       681 4.99211E-03 1.02810E-03-2.43287E-14
 -1       682 5.33502E-03 9.33829E-04-2.76955E-14
 -1       683 5.69106E-03 7.98611E-04-3.12922E-14
 -1       684 6.04995E-03 6.64958E-04-3.51021E-14
 -1       685 6.40144E-03 5.55963E-04-3.91099E-14
 -1       686 6.73915E-03 4.76849E-04-4.33021E-14
 -1       687 7.06305E-03 4.24256E-04-4.76726E-14
 -1       688 7.37574E-03 3.92480E-04-5.22118E-14
 -1       689 7.68024E-03 3.75948E-04-5.69169E-14
 -1       690 7.97913E-03 3.69999E-04-6.17837E-14
 -1       691 8.27424E-03 3.70983E-04-6.68070E-14
 -1       692 8.56678E-03 3.76161E-04-7.19804E-14
 -1       693 8.85755E-03 3.83560E-04-7.72948E-14
 -1       694 9.14705E-03 3.91819E-04-8.27440E-14
 -1       695 9.43561E-03 4.00045E-04-8.83279E-14
 -1       696 9.72346E-03 4.07694E-04-9.40396E-14
 -1       697 1.00108E-02 4.14473E-04-9.98717E-14
 -1       698 1.02976E-02 4.20257E-04-1.05815E-13
 -1       699 1.05842E-02 4.25037E-04-1.11862E-13
 -1       700 1.08705E-02 4.28871E-04-1.18012E-13
 -1       701 1.11566E-02 4.31853E-04-1.24262E-13
 -1       702 1.14426E-02 4.34096E-04-1.30606E-13
 -1       703 1.17285E-02 4.35716E-04-1.37043E-13
 -1       704 1.20143E-02 4.36821E-04-1.43566E-13
 -1       705 1.23001E-02 4.37513E-04-1.50176E-13
 -1       706 1.25858E-02 4.37878E-04-1.56857E-13
 -1       707 1.28716E-02 4.37991E-04-1.63597E-13
 -1       708 1.31573E-02 4.37914E-04-1.70385E-13
 -1       709 1.34430E-02 4.37702E-04-1.77197E-13
 -1       710 1.37287E-02 4.37396E-04-1.84023E-13
 -1       711 1.40144E-02 4.37034E-04-1.90865E-13
 -1       712 1.42368E-02 4.20690E-04-1.96263E-13
 -1       713 1.42132E-02 2.66150E-05-1.97163E-13
 -1       714 1.42124E-02 1.95295E-04-1.96557E-13
 -1       715 1.42137E-02-5.77276E-05-1.97443E-13
 -1       716 1.42128E-02 1.10957E-04-1.96867E-13
 -1       717 6.56097E-03-2.15105E-04-3.70921E-14
 -1       718 4.78710E-03-1.00368E-03-2.41393E-14
 -1       719 1.42143E-02-1.40640E-04-1.97699E-13
 -1       720 1.42150E-02-2.24979E-04-1.97940E-13
 -1       721 1.42158E-02-3.09312E-04-1.98162E-13
 -1       722 6.84415E-03-1.04490E-04-3.85565E-14
 -1       723 4.09624E-03-7.92120E-04-1.88777E-14
 -1       724 2.44072E-03-1.30833E-05-1.22230E-14
 -1       725 7.09293E-03-4.53912E-06-3.91650E-14
 -1       726 3.38040E-03 3.98678E-04-1.46100E-14
 -1       727 3.21683E-03-3.33504E-04-1.44550E-14
 -1       728 1.66425E-03 3.17955E-04-3.14210E-15
 -1       729 2.98365E-03 2.06857E-04-1.35681E-14
 -1       730 1.42713E-02-4.34245E-04-1.99772E-13
 -1       731 4.44917E-03-9.47271E-04-2.13429E-14
 -1       732 7.02394E-03 3.86820E-05-3.90166E-14
 -1       733 8.66148E-04 8.19160E-05-1.32123E-15
 -1       734 8.65242E-04-7.99520E-05-1.41847E-15
 -1       735 4.90436E-03 9.96688E-04-2.36984E-14
 -1       736 3.69528E-03-5.80622E-04-1.65614E-14
 -1       737 3.74184E-03 5.99742E-04-1.58889E-14
 -1       738 2.85037E-03-1.65287E-04-1.33551E-14
 -1       739 2.57283E-03-6.11466E-05-1.26809E-14
 -1       740 5.37054E-03-8.45107E-04-2.93283E-14
 -1       741 1.36756E-03 2.86175E-04-2.14222E-15
 -1       742 9.04686E-04-1.92077E-04-1.23728E-15
 -1       743 5.19245E-03 9.21772E-04-2.62605E-14
 -1       744 5.77250E-03-6.37572E-04-3.26937E-14
 -1       745 4.13251E-03 8.11472E-04-1.78844E-14
 -1       746 2.68188E-03 9.12253E-05-1.28452E-14
 -1       747 2.47180E-03 2.13095E-05-1.23829E-14
 -1       748 6.40559E-03 2.80289E-04-3.52051E-14
 -1       749 8.92063E-04-1.22174E-04-1.39705E-15
 -1       750 8.36707E-04-1.39894E-05-1.41735E-15
 -1       751 6.65126E-03 1.98872E-04-3.77929E-14
 -1       752 6.21404E-03 3.97631E-04-3.46061E-14
 -1       753 1.42370E-02 3.37088E-04-1.96609E-13
 -1       754 8.46409E-04-4.47534E-05-1.42429E-15
 -1       755 5.39983E-03 8.45431E-04-2.81769E-14
 -1       756 1.42247E-02 2.66194E-04-1.96590E-13
 -1       757 5.80111E-03 6.14997E-04-3.13766E-14
 -1       758 1.41469E-02-3.70728E-04-1.96643E-13
 -1       759 1.14946E-03 1.76912E-04-1.88380E-15
 -1       760 8.97289E-04-1.55035E-04-1.32203E-15
 -1       761 2.98004E-03 4.22522E-04-1.03310E-14
 -1       762 2.65185E-03 3.58640E-04-8.43311E-15
 -1       763 1.49425E-03-2.10635E-04-3.38872E-15
 -1       764 1.77763E-03-2.31909E-04-4.66123E-15
 -1       765 2.06486E-03-2.53626E-04-6.13049E-15
 -1       766 2.35916E-03-2.80844E-04-7.79444E-15
 -1       767 2.66552E-03-3.20312E-04-9.65088E-15
 -1       768 2.99245E-03-3.82416E-04-1.16996E-14
 -1       769 6.08599E-03-5.26739E-04-3.61414E-14
 -1       770 6.44892E-03-4.14508E-04-4.02177E-14
 -1       771 6.78295E-03-3.44907E-04-4.44681E-14
 -1       772 7.09440E-03-3.04451E-04-4.88848E-14
 -1       773 7.39090E-03-2.82829E-04-5.34630E-14
 -1       774 7.67871E-03-2.73380E-04-5.82008E-14
 -1       775 7.96207E-03-2.71865E-04-6.30904E-14
 -1       776 8.24356E-03-2.75425E-04-6.81237E-14
 -1       777 8.52462E-03-2.82041E-04-7.32920E-14
 -1       778 8.80599E-03-2.90264E-04-7.85948E-14
 -1       779 9.08798E-03-2.99066E-04-8.40259E-14
 -1       780 9.37068E-03-3.07751E-04-8.95753E-14
 -1       781 9.65405E-03-3.15882E-04-9.52459E-14
 -1       782 9.93800E-03-3.23213E-04-1.01035E-13
 -1       783 1.02224E-02-3.29635E-04-1.06935E-13
 -1       784 1.05072E-02-3.35137E-04-1.12942E-13
 -1       785 1.07923E-02-3.39768E-04-1.19061E-13
 -1       786 1.10776E-02-3.43611E-04-1.25281E-13
 -1       787 1.13631E-02-3.46766E-04-1.31597E-13
 -1       788 1.16487E-02-3.49338E-04-1.38004E-13
 -1       789 1.19343E-02-3.51425E-04-1.44480E-13
 -1       790 1.22200E-02-3.53121E-04-1.51027E-13
 -1       791 1.25058E-02-3.54506E-04-1.57645E-13
 -1       792 1.27915E-02-3.55650E-04-1.64321E-13
 -1       793 1.30773E-02-3.56610E-04-1.71053E-13
 -1       794 1.33630E-02-3.57437E-04-1.77835E-13
 -1       795 1.36488E-02-3.58171E-04-1.84661E-13
 -1       796 1.38978E-02-3.64461E-04-1.90644E-13
 -1       797 2.34104E-03 3.15852E-04-6.72871E-15
 -1       798 3.33048E-03 5.17777E-04-1.24257E-14
 -1       799 5.94977E-03 6.14459E-04-3.35052E-14
 -1       800 6.31767E-03 4.90331E-04-3.74394E-14
 -1       801 6.66153E-03 4.05453E-04-4.15572E-14
 -1       802 6.98399E-03 3.51915E-04-4.58537E-14
 -1       803 7.29068E-03 3.20525E-04-5.03177E-14
 -1       804 7.58694E-03 3.04254E-04-5.49454E-14
 -1       805 7.87706E-03 2.98138E-04-5.97359E-14
 -1       806 8.16388E-03 2.98666E-04-6.46828E-14
 -1       807 8.44911E-03 3.03299E-04-6.97805E-14
 -1       808 8.73372E-03 3.10210E-04-7.50242E-14
 -1       809 9.01822E-03 3.18109E-04-8.04071E-14
 -1       810 9.30284E-03 3.26119E-04-8.59198E-14
 -1       811 9.58767E-03 3.33682E-04-9.15636E-14
 -1       812 9.87271E-03 3.40474E-04-9.73306E-14
 -1       813 1.01579E-02 3.46342E-04-1.03214E-13
 -1       814 1.04433E-02 3.51246E-04-1.09204E-13
 -1       815 1.07288E-02 3.55224E-04-1.15295E-13
 -1       816 1.10144E-02 3.58354E-04-1.21485E-13
 -1       817 1.13001E-02 3.60740E-04-1.27778E-13
 -1       818 1.15858E-02 3.62489E-04-1.34165E-13
 -1       819 1.18715E-02 3.63708E-04-1.40637E-13
 -1       820 1.21572E-02 3.64496E-04-1.47200E-13
 -1       821 1.24429E-02 3.64940E-04-1.53841E-13
 -1       822 1.27287E-02 3.65116E-04-1.60545E-13
 -1       823 1.30144E-02 3.65089E-04-1.67305E-13
 -1       824 1.33002E-02 3.64910E-04-1.74097E-13
 -1       825 1.35859E-02 3.64626E-04-1.80909E-13
 -1       826 1.38716E-02 3.64272E-04-1.87743E-13
 -1       827 1.40543E-02 3.50686E-04-1.92174E-13
 -1       828 6.48737E-03-3.01611E-04-3.85814E-14
 -1       829 1.39660E-02-1.51028E-05-1.91359E-13
 -1       830 6.75632E-03-1.78385E-04-4.00925E-14
 -1       831 1.39679E-02-2.66611E-04-1.92102E-13
 -1       832 2.90917E-03-2.47358E-04-1.24662E-14
 -1       833 3.39110E-03-4.80396E-04-1.43783E-14
 -1       834 2.33437E-03 8.05870E-06-1.06856E-14
 -1       835 1.74941E-03 2.60569E-04-3.89776E-15
 -1       836 2.58345E-03-1.10009E-04-1.15217E-14
 -1       837 1.39672E-02-1.82299E-04-1.91869E-13
 -1       838 2.04175E-03 2.85417E-04-5.21650E-15
 -1       839 7.05130E-03-6.10042E-05-4.12771E-14
 -1       840 2.40159E-03-3.90646E-05-1.10775E-14
 -1       841 7.16145E-03 1.35872E-05-4.17304E-14
 -1       842 1.21336E-03-1.85834E-04-2.31438E-15
 -1       843 3.77248E-03-6.61816E-04-1.65137E-14
 -1       844 6.97151E-03 8.36307E-05-4.02435E-14
 -1       845 3.45924E-03 5.01618E-04-1.38812E-14
 -1       846 7.14929E-03-1.84746E-05-4.15164E-14
 -1       847 1.25508E-03 2.28293E-04-2.02048E-15
 -1       848 3.68715E-03 6.48993E-04-1.45920E-14
 -1       849 3.06220E-03 3.00479E-04-1.25241E-14
 -1       850 2.46687E-03 5.79550E-05-1.11173E-14
 -1       851 1.05700E-03 3.66624E-05-2.10955E-15
 -1       852 1.39665E-02-9.87009E-05-1.91622E-13
 -1       853 2.75022E-03 1.51403E-04-1.19609E-14
 -1       854 1.04984E-03 8.09703E-07-2.14522E-15
 -1       855 6.47862E-03 2.97548E-04-3.71726E-14
 -1       856 1.10737E-03-1.19610E-04-2.14929E-15
 -1       857 1.50223E-03 2.46463E-04-2.88213E-15
 -1       858 1.39651E-02 1.53523E-04-1.90773E-13
 -1       859 1.39655E-02 6.92098E-05-1.91072E-13
 -1       860 7.00393E-03-1.18479E-04-4.28599E-14
 -1       861 7.16204E-03 4.70414E-05-4.29967E-14
 -1       862 1.10886E-03 1.22153E-04-1.98151E-15
 -1       863 6.89142E-03 1.44620E-04-4.08018E-14
 -1       864 1.39774E-02 2.24403E-04-1.90812E-13
 -1       865 1.07727E-03 7.60822E-05-2.05585E-15
 -1       866 1.07624E-03-7.39943E-05-2.16602E-15
 -1       867 1.39329E-02-3.15539E-04-1.91374E-13
 -1       868 2.69675E-03 2.80518E-04-9.57386E-15
 -1       869 2.33738E-03-7.72610E-05-9.75932E-15
 -1       870 1.85059E-03-1.75030E-04-5.42143E-15
 -1       871 2.12416E-03-1.89381E-04-6.98599E-15
 -1       872 2.40393E-03-2.08366E-04-8.73951E-15
 -1       873 6.75011E-03-2.59291E-04-4.22620E-14
 -1       874 7.04743E-03-2.25267E-04-4.65932E-14
 -1       875 7.32815E-03-2.09249E-04-5.10848E-14
 -1       876 7.60120E-03-2.03227E-04-5.57339E-14
 -1       877 7.87164E-03-2.03230E-04-6.05362E-14
 -1       878 8.14212E-03-2.06986E-04-6.54894E-14
 -1       879 8.41398E-03-2.13054E-04-7.05790E-14
 -1       880 8.68777E-03-2.20398E-04-7.58062E-14
 -1       881 8.96363E-03-2.28246E-04-8.11671E-14
 -1       882 9.24143E-03-2.36043E-04-8.66523E-14
 -1       883 9.52095E-03-2.43414E-04-9.22568E-14
 -1       884 9.80193E-03-2.50131E-04-9.79784E-14
 -1       885 1.00841E-02-2.56079E-04-1.03814E-13
 -1       886 1.03672E-02-2.61229E-04-1.09761E-13
 -1       887 1.06511E-02-2.65608E-04-1.15817E-13
 -1       888 1.09355E-02-2.69276E-04-1.21978E-13
 -1       889 1.12204E-02-2.72316E-04-1.28241E-13
 -1       890 1.15056E-02-2.74816E-04-1.34602E-13
 -1       891 1.17910E-02-2.76864E-04-1.41044E-13
 -1       892 1.20765E-02-2.78541E-04-1.47556E-13
 -1       893 1.23621E-02-2.79921E-04-1.54142E-13
 -1       894 1.26479E-02-2.81067E-04-1.60795E-13
 -1       895 1.29336E-02-2.82034E-04-1.67503E-13
 -1       896 1.32194E-02-2.82868E-04-1.74258E-13
 -1       897 1.35051E-02-2.83605E-04-1.81060E-13
 -1       898 1.37201E-02-2.23917E-04-1.86052E-13
 -1       899 7.22503E-03 2.45420E-04-4.84350E-14
 -1       900 7.50909E-03 2.32349E-04-5.29874E-14
 -1       901 7.78751E-03 2.27822E-04-5.77032E-14
 -1       902 8.06379E-03 2.28742E-04-6.25758E-14
 -1       903 8.33991E-03 2.33046E-04-6.75997E-14
 -1       904 8.61688E-03 2.39293E-04-7.27697E-14
 -1       905 8.89512E-03 2.46446E-04-7.80810E-14
 -1       906 9.17471E-03 2.53766E-04-8.35267E-14
 -1       907 9.45559E-03 2.60755E-04-8.91028E-14
 -1       908 9.73757E-03 2.67103E-04-9.48041E-14
 -1       909 1.00205E-02 2.72648E-04-1.00625E-13
 -1       910 1.03042E-02 2.77332E-04-1.06556E-13
 -1       911 1.05884E-02 2.81169E-04-1.12593E-13
 -1       912 1.08731E-02 2.84219E-04-1.18726E-13
 -1       913 1.11582E-02 2.86566E-04-1.24963E-13
 -1       914 1.14435E-02 2.88306E-04-1.31301E-13
 -1       915 1.17289E-02 2.89534E-04-1.37728E-13
 -1       916 1.20145E-02 2.90342E-04-1.44244E-13
 -1       917 1.23002E-02 2.90810E-04-1.50839E-13
 -1       918 1.25859E-02 2.91011E-04-1.57507E-13
 -1       919 1.28716E-02 2.91006E-04-1.64234E-13
 -1       920 1.31574E-02 2.90846E-04-1.71001E-13
 -1       921 1.34432E-02 2.90574E-04-1.77796E-13
 -1       922 1.37289E-02 2.90225E-04-1.84615E-13
 -1       923 1.82620E-03 2.03158E-04-4.69785E-15
 -1       924 2.10721E-03 2.21186E-04-6.13432E-15
 -1       925 2.74847E-03 2.19804E-04-1.07603E-14
 -1       926 2.58015E-03-1.83550E-04-1.03781E-14
 -1       927 1.05650E-03-3.48902E-05-2.16417E-15
 -1       928 2.26239E-03 4.15296E-05-9.39443E-15
 -1       929 6.92926E-03 2.72245E-04-4.40412E-14
 -1       930 6.70562E-03 2.77416E-04-4.05512E-14
 -1       931 2.46197E-03 1.10157E-04-9.98354E-15
 -1       932 1.57928E-03-1.61096E-04-4.04863E-15
 -1       933 2.21699E-03-1.88327E-05-9.36538E-15
 -1       934 3.03530E-03 3.64600E-04-1.14193E-14
 -1       935 2.39520E-03 2.44580E-04-7.76025E-15
 -1       936 1.40158E-02 2.87544E-04-1.91498E-13
 -1       937 1.38139E-03-1.58461E-04-3.12680E-15
 -1       938 1.58864E-03 1.94943E-04-3.57732E-15
 -1       939 6.79512E-03 2.07757E-04-4.06830E-14
 -1       940 1.37182E-02 2.74888E-05-1.85289E-13
 -1       941 1.37190E-02-2.99581E-04-1.86210E-13
 -1       942 1.33563E-03-1.02971E-04-3.15548E-15
 -1       943 1.37194E-02-1.40350E-04-1.85814E-13
 -1       944 1.37178E-02 1.11766E-04-1.84998E-13
 -1       945 7.20530E-03-6.47538E-05-4.49071E-14
 -1       946 7.11772E-03 9.18505E-05-4.35799E-14
 -1       947 1.36487E-03 1.67574E-04-2.75583E-15
 -1       948 1.37188E-02-5.60729E-05-1.85559E-13
 -1       949 1.26582E-03 2.08440E-05-3.00544E-15
 -1       950 2.09071E-03 1.18211E-05-8.16625E-15
 -1       951 7.28757E-03 1.54690E-05-4.50687E-14
 -1       952 7.27342E-03-1.87902E-05-4.48496E-14
 -1       953 1.37300E-02 1.82620E-04-1.85041E-13
 -1       954 1.28418E-03 6.29155E-05-2.94706E-15
 -1       955 2.16987E-03-1.26515E-04-7.85507E-15
 -1       956 2.11071E-03-5.25643E-05-8.13464E-15
 -1       957 2.15901E-03 1.56629E-04-7.08800E-15
 -1       958 7.97168E-03 1.63088E-04-6.04738E-14
 -1       959 7.53587E-03-1.37009E-04-5.32825E-14
 -1       960 7.78940E-03-1.39183E-04-5.79986E-14
 -1       961 8.04655E-03-1.43351E-04-6.28660E-14
 -1       962 8.30785E-03-1.48758E-04-6.78795E-14
 -1       963 8.57321E-03-1.54900E-04-7.30311E-14
 -1       964 8.84232E-03-1.61347E-04-7.83159E-14
 -1       965 9.11474E-03-1.67749E-04-8.37339E-14
 -1       966 9.39000E-03-1.73842E-04-8.92767E-14
 -1       967 9.66765E-03-1.79450E-04-9.49352E-14
 -1       968 9.94725E-03-1.84474E-04-1.00708E-13
 -1       969 1.02284E-02-1.88875E-04-1.06592E-13
 -1       970 1.05108E-02-1.92662E-04-1.12589E-13
 -1       971 1.07942E-02-1.95874E-04-1.18693E-13
 -1       972 1.10783E-02-1.98569E-04-1.24901E-13
 -1       973 1.13629E-02-2.00814E-04-1.31210E-13
 -1       974 1.16479E-02-2.02678E-04-1.37609E-13
 -1       975 1.19332E-02-2.04225E-04-1.44088E-13
 -1       976 1.22187E-02-2.05517E-04-1.50641E-13
 -1       977 1.25043E-02-2.06605E-04-1.57269E-13
 -1       978 1.27900E-02-2.07536E-04-1.63954E-13
 -1       979 1.30758E-02-2.08346E-04-1.70684E-13
 -1       980 1.33616E-02-2.09069E-04-1.77463E-13
 -1       981 7.70870E-03 1.61026E-04-5.56754E-14
 -1       982 1.34705E-02 7.00326E-05-1.79237E-13
 -1       983 2.20471E-03 9.02931E-05-8.19313E-15
 -1       984 7.44644E-03 1.62416E-04-5.10344E-14
 -1       985 8.23693E-03 1.67234E-04-6.54254E-14
 -1       986 8.50507E-03 1.72641E-04-7.05231E-14
 -1       987 8.77616E-03 1.78674E-04-7.57621E-14
 -1       988 9.05002E-03 1.84828E-04-8.11398E-14
 -1       989 9.32634E-03 1.90733E-04-8.66485E-14
 -1       990 9.60476E-03 1.96142E-04-9.22866E-14
 -1       991 9.88492E-03 2.00909E-04-9.80440E-14
 -1       992 1.01665E-02 2.04971E-04-1.03915E-13
 -1       993 1.04492E-02 2.08325E-04-1.09895E-13
 -1       994 1.07327E-02 2.11009E-04-1.15974E-13
 -1       995 1.10170E-02 2.13087E-04-1.22156E-13
 -1       996 1.13017E-02 2.14634E-04-1.28443E-13
 -1       997 1.15868E-02 2.15728E-04-1.34824E-13
 -1       998 1.18721E-02 2.16444E-04-1.41293E-13
 -1       999 1.21576E-02 2.16855E-04-1.47849E-13
 -1      1000 1.24432E-02 2.17020E-04-1.54475E-13
 -1      1001 1.27290E-02 2.16995E-04-1.61168E-13
 -1      1002 1.30147E-02 2.16825E-04-1.67906E-13
 -1      1003 1.33005E-02 2.16547E-04-1.74678E-13
 -1      1004 1.89455E-03 1.46447E-04-5.53920E-15
 -1      1005 1.65988E-03-1.12703E-04-4.73499E-15
 -1      1006 7.18169E-03 1.69828E-04-4.65496E-14
 -1      1007 7.31795E-03 5.43967E-05-4.65742E-14
 -1      1008 2.43048E-03 1.67724E-04-8.88528E-15
 -1      1009 1.31835E-03 1.10967E-04-2.86478E-15
 -1      1010 1.30302E-03-5.58205E-05-3.15981E-15
 -1      1011 1.27628E-03-1.64903E-05-3.09152E-15
 -1      1012 1.91589E-03-1.19700E-04-6.20158E-15
 -1      1013 7.24095E-03-1.24046E-04-4.75376E-14
 -1      1014 1.48638E-03 4.47253E-05-3.99059E-15
 -1      1015 1.66909E-03 1.44059E-04-4.31845E-15
 -1      1016 1.34827E-02 1.40848E-04-1.79286E-13
 -1      1017 1.94604E-03-1.79783E-05-7.03006E-15
 -1      1018 1.99242E-03 5.12963E-05-7.06243E-15
 -1      1019 1.34710E-02-1.34812E-05-1.79514E-13
 -1      1020 7.45929E-03 1.69129E-05-4.90455E-14
 -1      1021 1.49229E-03 1.27394E-04-3.55604E-15
 -1      1022 7.04439E-03 1.39176E-04-4.34670E-14
 -1      1023 7.44187E-03-2.07168E-05-4.88206E-14
 -1      1024 1.48516E-03 3.60349E-06-4.10597E-15
 -1      1025 7.36335E-03-6.51898E-05-4.81960E-14
 -1      1026 7.95296E-03-8.53490E-05-6.02578E-14
 -1      1027 8.20293E-03-8.96167E-05-6.51897E-14
 -1      1028 8.45959E-03-9.40785E-05-7.02662E-14
 -1      1029 8.72188E-03-9.86391E-05-7.54769E-14
 -1      1030 8.98891E-03-1.03140E-04-8.08240E-14
 -1      1031 9.25991E-03-1.07448E-04-8.62997E-14
 -1      1032 9.53419E-03-1.11458E-04-9.18979E-14
 -1      1033 9.81115E-03-1.15099E-04-9.76107E-14
 -1      1034 1.00903E-02-1.18337E-04-1.03436E-13
 -1      1035 1.03711E-02-1.21169E-04-1.09375E-13
 -1      1036 1.06533E-02-1.23613E-04-1.15422E-13
 -1      1037 1.09365E-02-1.25703E-04-1.21575E-13
 -1      1038 1.12205E-02-1.27480E-04-1.27831E-13
 -1      1039 1.15051E-02-1.28989E-04-1.34180E-13
 -1      1040 1.17901E-02-1.30273E-04-1.40620E-13
 -1      1041 1.20754E-02-1.31372E-04-1.47140E-13
 -1      1042 1.23609E-02-1.32323E-04-1.53738E-13
 -1      1043 1.26466E-02-1.33158E-04-1.60400E-13
 -1      1044 1.29323E-02-1.33904E-04-1.67107E-13
 -1      1045 1.32181E-02-1.34582E-04-1.73859E-13
 -1      1046 7.88439E-03 1.02774E-04-5.83757E-14
 -1      1047 1.92084E-03-6.46347E-05-6.62594E-15
 -1      1048 7.50897E-03 6.15323E-05-5.06260E-14
 -1      1049 1.48442E-03 8.37784E-05-3.77989E-15
 -1      1050 8.65932E-03 1.15190E-04-7.34497E-14
 -1      1051 8.92715E-03 1.19690E-04-7.87598E-14
 -1      1052 9.19869E-03 1.24001E-04-8.42010E-14
 -1      1053 9.47334E-03 1.27966E-04-8.97744E-14
 -1      1054 9.75055E-03 1.31479E-04-9.54698E-14
 -1      1055 1.00298E-02 1.34488E-04-1.01278E-13
 -1      1056 1.03108E-02 1.36980E-04-1.07199E-13
 -1      1057 1.05931E-02 1.38976E-04-1.13228E-13
 -1      1058 1.08763E-02 1.40514E-04-1.19357E-13
 -1      1059 1.11603E-02 1.41647E-04-1.25591E-13
 -1      1060 1.14449E-02 1.42429E-04-1.31920E-13
 -1      1061 1.17299E-02 1.42916E-04-1.38344E-13
 -1      1062 1.20152E-02 1.43161E-04-1.44858E-13
 -1      1063 1.23007E-02 1.43210E-04-1.51451E-13
 -1      1064 1.25864E-02 1.43106E-04-1.58105E-13
 -1      1065 1.28721E-02 1.42882E-04-1.64812E-13
 -1      1066 1.31578E-02 1.42569E-04-1.71563E-13
 -1      1067 1.95676E-03 9.25103E-05-6.41833E-15
 -1      1068 7.69022E-03 8.16962E-05-5.44488E-14
 -1      1069 1.50507E-03-3.70588E-05-4.19949E-15
 -1      1070 7.71086E-03-8.13282E-05-5.54758E-14
 -1      1071 8.39581E-03 1.10709E-04-6.82817E-14
 -1      1072 1.34684E-02-9.53630E-05-1.79698E-13
 -1      1073 8.13729E-03 1.06474E-04-6.32552E-14
 -1      1074 1.81262E-03 1.89354E-05-6.02259E-15
 -1      1075 1.70018E-03 7.32298E-05-4.99881E-15
 -1      1076 7.62007E-03-6.96734E-06-5.25536E-14
 -1      1077 7.66446E-03 3.46765E-05-5.35141E-14
 -1      1078 1.32233E-02 2.86949E-05-1.73495E-13
 -1      1079 1.74018E-03-6.68357E-05-5.44278E-15
 -1      1080 9.34202E-03 6.27330E-05-8.72694E-14
 -1      1081 1.73157E-03-2.82292E-05-5.53065E-15
 -1      1082 8.34323E-03-3.78155E-05-6.75085E-14
 -1      1083 8.59939E-03-4.00247E-05-7.26460E-14
 -1      1084 8.86170E-03-4.21576E-05-7.79211E-14
 -1      1085 9.12895E-03-4.42371E-05-8.33282E-14
 -1      1086 9.40025E-03-4.62147E-05-8.88637E-14
 -1      1087 9.67485E-03-4.80560E-05-9.45187E-14
 -1      1088 9.95211E-03-4.97415E-05-1.00287E-13
 -1      1089 1.02315E-02-5.12646E-05-1.06169E-13
 -1      1090 1.05126E-02-5.26289E-05-1.12163E-13
 -1      1091 1.07950E-02-5.38451E-05-1.18259E-13
 -1      1092 1.10784E-02-5.49285E-05-1.24465E-13
 -1      1093 1.13625E-02-5.58960E-05-1.30765E-13
 -1      1094 1.16472E-02-5.67654E-05-1.37159E-13
 -1      1095 1.19323E-02-5.75533E-05-1.43641E-13
 -1      1096 1.22177E-02-5.82752E-05-1.50205E-13
 -1      1097 1.25032E-02-5.89447E-05-1.56840E-13
 -1      1098 1.27889E-02-5.95733E-05-1.63523E-13
 -1      1099 1.30746E-02-6.01708E-05-1.70252E-13
 -1      1100 9.07094E-03 6.06830E-05-8.17610E-14
 -1      1101 8.80390E-03 5.84462E-05-7.63873E-14
 -1      1102 9.61641E-03 6.45416E-05-9.29042E-14
 -1      1103 9.89350E-03 6.60766E-05-9.86510E-14
 -1      1104 1.01727E-02 6.73268E-05-1.04512E-13
 -1      1105 1.04537E-02 6.82984E-05-1.10486E-13
 -1      1106 1.07360E-02 6.90096E-05-1.16562E-13
 -1      1107 1.10193E-02 6.94864E-05-1.22742E-13
 -1      1108 1.13034E-02 6.97586E-05-1.29022E-13
 -1      1109 1.15880E-02 6.98568E-05-1.35400E-13
 -1      1110 1.18730E-02 6.98102E-05-1.41867E-13
 -1      1111 1.21584E-02 6.96459E-05-1.48422E-13
 -1      1112 1.24439E-02 6.93877E-05-1.55044E-13
 -1      1113 1.27296E-02 6.90559E-05-1.61720E-13
 -1      1114 8.09431E-03-3.57037E-05-6.25116E-14
 -1      1115 8.54178E-03 5.61026E-05-7.11448E-14
 -1      1116 7.85489E-03-3.36399E-05-5.76639E-14
 -1      1117 1.29733E-02 4.14001E-05-1.67544E-13
 -1      1118 7.85261E-03 5.31560E-05-5.74244E-14
 -1      1119 8.09548E-03 5.56611E-05-6.22685E-14
 -1      1120 7.88101E-03 1.31583E-06-5.79592E-14
 -1      1121 8.31612E-03 5.60080E-05-6.66507E-14
 -1      1122 8.21897E-03 1.45698E-05-6.47578E-14
 -1      1123 0.00000E+00 0.00000E+00 0.00000E+00
 -1      1124 0.00000E+00 0.00000E+00 0.00000E+00
 -1      1125 0.00000E+00 0.00000E+00 0.00000E+00
 -1      1126 0.00000E+00 0.00000E+00 0.00000E+00
 -1      1127 0.00000E+00 0.00000E+00 0.00000E+00
 -1      1128 0.00000E+00 0.00000E+00 0.00000E+00
 -1      1129 0.00000E+00 0.00000E+00 0.00000E+00
 -1      1130 0.00000E+00 0.00000E+00 0.00000E+00
 -1      1131 0.00000E+00 0.00000E+00 0.00000E+00
 -1      1132 0.00000E+00 0.00000E+00 0.00000E+00
 -1      1133 0.00000E+00 0.00000E+00 0.00000E+00
 -1      1134 0.00000E+00 0.00000E+00 0.00000E+00
 -1      1135 0.00000E+00 0.00000E+00 0.00000E+00
 -1      1136 0.00000E+00 0.00000E+00 0.00000E+00
 -1      1137 0.00000E+00 0.00000E+00 0.00000E+00
 -1      1138 0.00000E+00 0.00000E+00 0.00000E+00
 -1      1139 0.00000E+00 0.00000E+00 0.00000E+00
 -1      1140 2.12549E-04-1.43210E-04 2.32697E-17
 -1      1141 5.62068E-04-3.16267E-04-7.35631E-17
 -1      1142 8.61891E-04-4.21710E-04-3.79796E-16
 -1      1143 1.15689E-03-4.91018E-04-9.29663E-16
 -1      1144 1.45522E-03-5.41285E-04-1.71017E-15
 -1      1145 1.76112E-03-5.82390E-04-2.71777E-15
 -1      1146 2.07700E-03-6.21788E-04-3.94998E-15
 -1      1147 2.40362E-03-6.66269E-04-5.40292E-15
 -1      1148 2.73975E-03-7.22294E-04-7.07495E-15
 -1      1149 3.08167E-03-7.95251E-04-8.96791E-15
 -1      1150 3.42279E-03-8.87649E-04-1.10793E-14
 -1      1151 3.75410E-03-9.96429E-04-1.34077E-14
 -1      1152 4.06637E-03-1.11044E-03-1.59534E-14
 -1      1153 4.35410E-03-1.21040E-03-1.87229E-14
 -1      1154 4.61978E-03-1.27371E-03-2.17193E-14
 -1      1155 4.87507E-03-1.28352E-03-2.49443E-14
 -1      1156 5.13666E-03-1.23715E-03-2.83993E-14
 -1      1157 5.41873E-03-1.14762E-03-3.20736E-14
 -1      1158 5.72713E-03-1.03709E-03-3.59536E-14
 -1      1159 6.05887E-03-9.27295E-04-4.00338E-14
 -1      1160 6.40560E-03-8.33051E-04-4.43057E-14
 -1      1161 6.75804E-03-7.60824E-04-4.87574E-14
 -1      1162 7.10871E-03-7.10764E-04-5.33779E-14
 -1      1163 7.45291E-03-6.79613E-04-5.81665E-14
 -1      1164 7.78840E-03-6.62974E-04-6.31142E-14
 -1      1165 8.11469E-03-6.56613E-04-6.82038E-14
 -1      1166 8.43238E-03-6.57023E-04-7.34252E-14
 -1      1167 8.74254E-03-6.61535E-04-7.87775E-14
 -1      1168 9.04646E-03-6.68241E-04-8.42684E-14
 -1      1169 9.34536E-03-6.75846E-04-8.98854E-14
 -1      1170 9.64035E-03-6.83517E-04-9.56183E-14
 -1      1171 9.93238E-03-6.90756E-04-1.01468E-13
 -1      1172 1.02222E-02-6.97293E-04-1.07428E-13
 -1      1173 1.05104E-02-7.03017E-04-1.13492E-13
 -1      1174 1.07975E-02-7.07913E-04-1.19668E-13
 -1      1175 1.10839E-02-7.12028E-04-1.25942E-13
 -1      1176 1.13697E-02-7.15441E-04-1.32294E-13
 -1      1177 1.16552E-02-7.18243E-04-1.38725E-13
 -1      1178 1.19406E-02-7.20532E-04-1.45223E-13
 -1      1179 1.22259E-02-7.22398E-04-1.51776E-13
 -1      1180 1.25111E-02-7.23924E-04-1.58393E-13
 -1      1181 1.27964E-02-7.25183E-04-1.65068E-13
 -1      1182 1.30818E-02-7.26238E-04-1.71807E-13
 -1      1183 1.33672E-02-7.27142E-04-1.78600E-13
 -1      1184 1.36526E-02-7.27940E-04-1.85440E-13
 -1      1185 1.39382E-02-7.28671E-04-1.92304E-13
 -1      1186 1.42238E-02-7.29368E-04-1.99195E-13
 -1      1187 1.45094E-02-7.30058E-04-2.06104E-13
 -1      1188 1.47951E-02-7.30766E-04-2.13022E-13
 -1      1189 1.50737E-02-7.31482E-04-2.19780E-13
 -1      1190 2.29023E-04 1.55343E-04 5.59177E-17
 -1      1191 5.64075E-04 3.20691E-04 3.86518E-17
 -1      1192 8.62742E-04 4.23847E-04-1.60001E-16
 -1      1193 1.15765E-03 4.92769E-04-5.66604E-16
 -1      1194 1.45590E-03 5.43084E-04-1.18331E-15
 -1      1195 1.76170E-03 5.84320E-04-2.00850E-15
 -1      1196 2.07741E-03 6.23841E-04-3.04314E-15
 -1      1197 2.40372E-03 6.68404E-04-4.28460E-15
 -1      1198 2.73939E-03 7.24406E-04-5.73654E-15
 -1      1199 3.08071E-03 7.97151E-04-7.40227E-15
 -1      1200 3.42111E-03 8.89059E-04-9.28818E-15
 -1      1201 3.75169E-03 9.97023E-04-1.13949E-14
 -1      1202 4.06334E-03 1.10996E-03-1.37187E-14
 -1      1203 4.35068E-03 1.20879E-03-1.62602E-14
 -1      1204 4.61618E-03 1.27120E-03-1.90324E-14
 -1      1205 4.87136E-03 1.28050E-03-2.20471E-14
 -1      1206 5.13274E-03 1.23404E-03-2.52934E-14
 -1      1207 5.41436E-03 1.14465E-03-2.87643E-14
 -1      1208 5.72211E-03 1.03430E-03-3.24566E-14
 -1      1209 6.05307E-03 9.24523E-04-3.63557E-14
 -1      1210 6.39907E-03 8.30004E-04-4.04492E-14
 -1      1211 6.75087E-03 7.57212E-04-4.47287E-14
 -1      1212 7.10105E-03 7.06356E-04-4.91967E-14
 -1      1213 7.44488E-03 6.74252E-04-5.38506E-14
 -1      1214 7.78011E-03 6.56569E-04-5.86686E-14
 -1      1215 8.10623E-03 6.49126E-04-6.36427E-14
 -1      1216 8.42380E-03 6.48440E-04-6.87750E-14
 -1      1217 8.73390E-03 6.51859E-04-7.40584E-14
 -1      1218 9.03778E-03 6.57479E-04-7.94803E-14
 -1      1219 9.33665E-03 6.64008E-04-8.50417E-14
 -1      1220 9.63163E-03 6.70611E-04-9.07381E-14
 -1      1221 9.92365E-03 6.76788E-04-9.65696E-14
 -1      1222 1.02135E-02 6.82268E-04-1.02513E-13
 -1      1223 1.05017E-02 6.86939E-04-1.08554E-13
 -1      1224 1.07888E-02 6.90784E-04-1.14696E-13
 -1      1225 1.10751E-02 6.93849E-04-1.20949E-13
 -1      1226 1.13610E-02 6.96213E-04-1.27301E-13
 -1      1227 1.16465E-02 6.97968E-04-1.33743E-13
 -1      1228 1.19319E-02 6.99209E-04-1.40278E-13
 -1      1229 1.22171E-02 7.00028E-04-1.46905E-13
 -1      1230 1.25024E-02 7.00507E-04-1.53606E-13
 -1      1231 1.27877E-02 7.00719E-04-1.60367E-13
 -1      1232 1.30730E-02 7.00727E-04-1.67172E-13
 -1      1233 1.33585E-02 7.00584E-04-1.74007E-13
 -1      1234 1.36439E-02 7.00336E-04-1.80855E-13
 -1      1235 1.39295E-02 7.00020E-04-1.87709E-13
 -1      1236 1.42151E-02 6.99670E-04-1.94567E-13
 -1      1237 1.45007E-02 6.99314E-04-2.01426E-13
 -1      1238 1.47864E-02 6.98974E-04-2.08277E-13
 -1      1239 1.50650E-02 6.98669E-04-2.14955E-13
 -1      1240 1.52008E-02 6.56385E-04-2.18392E-13
 -1      1241 1.52011E-02 5.72099E-04-2.18759E-13
 -1      1242 1.52014E-02 4.87792E-04-2.19135E-13
 -1      1243 1.52016E-02 4.03449E-04-2.19503E-13
 -1      1244 1.52019E-02 3.19065E-04-2.19869E-13
 -1      1245 1.52021E-02 2.35355E-04-2.20228E-13
 -1      1246 1.52025E-02 1.51611E-04-2.20568E-13
 -1      1247 1.52029E-02 6.71265E-05-2.20890E-13
 -1      1248 1.52034E-02-1.73708E-05-2.21208E-13
 -1      1249 1.52039E-02-1.01868E-04-2.21499E-13
 -1      1250 1.52045E-02-1.86352E-04-2.21751E-13
 -1      1251 1.52052E-02-2.70095E-04-2.22008E-13
 -1      1252 1.52060E-02-3.53805E-04-2.22240E-13
 -1      1253 1.52067E-02-4.38188E-04-2.22437E-13
 -1      1254 1.52075E-02-5.22530E-04-2.22621E-13
 -1      1255 1.52083E-02-6.06837E-04-2.22802E-13
 -1      1256 1.52091E-02-6.90409E-04-2.22991E-13
 -1      1257 7.00042E-03 7.06401E-05-3.14371E-14
 -1      1258 6.88492E-03 2.22689E-04-3.09456E-14
 -1      1259 6.66293E-03 3.79853E-04-3.00908E-14
 -1      1260 6.35898E-03 5.34646E-04-2.89588E-14
 -1      1261 5.97568E-03 6.83720E-04-2.75339E-14
 -1      1262 5.54840E-03 8.05382E-04-2.59482E-14
 -1      1263 5.11917E-03 8.77091E-04-2.43761E-14
 -1      1264 4.67780E-03 8.93797E-04-2.27999E-14
 -1      1265 4.22207E-03 8.49426E-04-2.12466E-14
 -1      1266 3.79190E-03 7.54675E-04-1.98737E-14
 -1      1267 3.40530E-03 6.26915E-04-1.87342E-14
 -1      1268 3.06461E-03 4.79274E-04-1.78117E-14
 -1      1269 2.78771E-03 3.22450E-04-1.71259E-14
 -1      1270 2.60194E-03 1.65100E-04-1.67210E-14
 -1      1271 2.53116E-03 1.74926E-05-1.66205E-14
 -1      1272 2.57408E-03-1.30498E-04-1.68015E-14
 -1      1273 2.72557E-03-2.81373E-04-1.72608E-14
 -1      1274 2.97541E-03-4.36298E-04-1.79968E-14
 -1      1275 3.30821E-03-5.91012E-04-1.90075E-14
 -1      1276 3.69398E-03-7.28682E-04-2.02345E-14
 -1      1277 4.10374E-03-8.32852E-04-2.16015E-14
 -1      1278 4.51380E-03-8.90051E-04-2.30240E-14
 -1      1279 4.92666E-03-8.96826E-04-2.44970E-14
 -1      1280 5.33562E-03-8.52602E-04-2.59759E-14
 -1      1281 5.74941E-03-7.58940E-04-2.74609E-14
 -1      1282 6.12979E-03-6.33766E-04-2.87918E-14
 -1      1283 6.46331E-03-4.90629E-04-2.99207E-14
 -1      1284 6.73192E-03-3.43171E-04-3.07824E-14
 -1      1285 6.91151E-03-2.04185E-04-3.13168E-14
 -1      1286 7.00365E-03-6.85051E-05-3.15419E-14
 -1      1287 1.70665E-04-1.04296E-04-1.06658E-17
 -1      1288 1.16703E-04-4.87764E-05-4.97107E-17
 -1      1289 1.21861E-04-6.05320E-05-3.88144E-17
 -1      1290 1.11436E-04-3.34648E-05-6.73425E-17
 -1      1291 1.13927E-04-4.02338E-05-6.20841E-17
 -1      1292 2.34730E-04-9.02296E-05-1.45947E-16
 -1      1293 1.08188E-04-2.29775E-05-7.68699E-17
 -1      1294 1.09900E-04-2.77940E-05-7.42136E-17
 -1      1295 2.24559E-04-6.26402E-05-1.77321E-16
 -1      1296 1.05589E-04-1.53016E-05-8.23045E-17
 -1      1297 1.06934E-04-1.88819E-05-8.09763E-17
 -1      1298 2.17543E-04-4.31204E-05-1.95211E-16
 -1      1299 1.03531E-04-9.69950E-06-8.47982E-17
 -1      1300 1.04563E-04-1.23533E-05-8.43374E-17
 -1      1301 2.11993E-04-2.88041E-05-2.05077E-16
 -1      1302 1.01995E-04-5.42505E-06-8.59772E-17
 -1      1303 1.02728E-04-7.49559E-06-8.58553E-17
 -1      1304 2.07630E-04-1.80510E-05-2.09861E-16
 -1      1305 1.01112E-04-2.07686E-06-8.57875E-17
 -1      1306 1.01488E-04-3.76566E-06-8.60450E-17
 -1      1307 2.04549E-04-9.73636E-06-2.11379E-16
 -1      1308 1.00947E-04 8.72287E-07-8.47033E-17
 -1      1309 1.00941E-04-6.91827E-07-8.50963E-17
 -1      1310 2.02965E-04-2.95405E-06-2.10254E-16
 -1      1311 1.01515E-04 3.96454E-06-8.25891E-17
 -1      1312 1.01128E-04 2.26368E-06-8.32803E-17
 -1      1313 2.02990E-04 3.32831E-06-2.06825E-16
 -1      1314 1.02773E-04 7.73867E-06-7.93907E-17
 -1      1315 1.02031E-04 5.64313E-06-8.03800E-17
 -1      1316 2.04621E-04 1.01583E-05-2.01038E-16
 -1      1317 1.04607E-04 1.26211E-05-7.46744E-17
 -1      1318 1.03568E-04 9.93536E-06-7.61923E-17
 -1      1319 2.07713E-04 1.84894E-05-1.92365E-16
 -1      1320 1.07005E-04 1.93066E-05-6.76813E-17
 -1      1321 1.05654E-04 1.56687E-05-7.00801E-17
 -1      1322 2.12102E-04 2.93733E-05-1.79869E-16
 -1      1323 1.09965E-04 2.83787E-05-5.74356E-17
 -1      1324 1.08250E-04 2.34825E-05-6.14607E-17
 -1      1325 2.17717E-04 4.40327E-05-1.62156E-16
 -1      1326 1.13934E-04 4.10077E-05-4.13759E-17
 -1      1327 1.11472E-04 3.41588E-05-4.82470E-17
 -1      1328 2.24727E-04 6.39083E-05-1.36094E-16
 -1      1329 1.21157E-04 6.06678E-05-1.61682E-17
 -1      1330 1.16363E-04 4.96167E-05-2.82841E-17
 -1      1331 2.34743E-04 9.20971E-05-9.76053E-17
 -1      1332 1.60694E-04 1.04683E-04 2.25514E-17
 -1      1333 1.40210E-04 7.96077E-05-1.21973E-18
 -1      1334 2.65855E-04 1.37306E-04-5.18655E-17
 -1      1335 3.43116E-04 2.07465E-04 1.27123E-17
 -1      1336 4.33584E-04-2.43028E-04-9.74562E-17
 -1      1337 5.93925E-04-3.09105E-04-2.00564E-16
 -1      1338 7.49792E-04-3.61264E-04-3.67382E-16
 -1      1339 9.03104E-04-4.02898E-04-5.92910E-16
 -1      1340 6.37770E-04-2.96604E-04-3.45901E-16
 -1      1341 1.05484E-03-4.37343E-04-8.74246E-16
 -1      1342 1.20601E-03-4.65938E-04-1.21301E-15
 -1      1343 9.49821E-04-3.81444E-04-8.12203E-16
 -1      1344 1.35751E-03-4.90717E-04-1.60802E-15
 -1      1345 1.50991E-03-5.12436E-04-2.05973E-15
 -1      1346 1.25629E-03-4.39352E-04-1.50173E-15
 -1      1347 1.66374E-03-5.32436E-04-2.56666E-15
 -1      1348 1.81928E-03-5.51407E-04-3.12944E-15
 -1      1349 1.56315E-03-4.82690E-04-2.41307E-15
 -1      1350 1.97681E-03-5.70417E-04-3.74744E-15
 -1      1351 2.13640E-03-5.90185E-04-4.42047E-15
 -1      1352 1.87413E-03-5.20052E-04-3.54419E-15
 -1      1353 2.29812E-03-6.11719E-04-5.14755E-15
 -1      1354 2.46182E-03-6.35716E-04-5.92910E-15
 -1      1355 2.19126E-03-5.58804E-04-4.89265E-15
 -1      1356 2.62732E-03-6.63154E-04-6.76534E-15
 -1      1357 2.79425E-03-6.94590E-04-7.65532E-15
 -1      1358 2.51510E-03-6.06034E-04-6.45660E-15
 -1      1359 2.96216E-03-7.30818E-04-8.60039E-15
 -1      1360 3.13038E-03-7.72045E-04-9.59978E-15
 -1      1361 2.84467E-03-6.68362E-04-8.23572E-15
 -1      1362 3.29821E-03-8.18541E-04-1.06521E-14
 -1      1363 3.46478E-03-8.69851E-04-1.17589E-14
 -1      1364 3.17735E-03-7.50694E-04-1.02291E-14
 -1      1365 3.62923E-03-9.25256E-04-1.29193E-14
 -1      1366 3.79067E-03-9.83330E-04-1.41345E-14
 -1      1367 3.50892E-03-8.53793E-04-1.24359E-14
 -1      1368 3.94838E-03-1.04203E-03-1.54049E-14
 -1      1369 4.10183E-03-1.09891E-03-1.67301E-14
 -1      1370 3.83408E-03-9.71088E-04-1.48594E-14
 -1      1371 4.25081E-03-1.15083E-03-1.81120E-14
 -1      1372 4.39556E-03-1.19491E-03-1.95506E-14
 -1      1373 4.14810E-03-1.08647E-03-1.75048E-14
 -1      1374 4.53668E-03-1.22798E-03-2.10458E-14
 -1      1375 4.67533E-03-1.24788E-03-2.25977E-14
 -1      1376 4.44928E-03-1.17616E-03-2.03750E-14
 -1      1377 4.81277E-03-1.25298E-03-2.42081E-14
 -1      1378 4.95069E-03-1.24294E-03-2.58760E-14
 -1      1379 4.74114E-03-1.21670E-03-2.34744E-14
 -1      1380 5.09046E-03-1.21860E-03-2.76005E-14
 -1      1381 5.23352E-03-1.18166E-03-2.93811E-14
 -1      1382 5.03193E-03-1.19613E-03-2.68044E-14
 -1      1383 5.38071E-03-1.13494E-03-3.12147E-14
 -1      1384 5.53263E-03-1.08129E-03-3.31007E-14
 -1      1385 5.33070E-03-1.12075E-03-3.03592E-14
 -1      1386 5.68933E-03-1.02406E-03-3.50394E-14
 -1      1387 5.85052E-03-9.66031E-04-3.70281E-14
 -1      1388 5.64289E-03-1.01162E-03-3.41286E-14
 -1      1389 6.01562E-03-9.09743E-04-3.90650E-14
 -1      1390 6.18382E-03-8.57088E-04-4.11516E-14
 -1      1391 5.96849E-03-8.94050E-04-3.81005E-14
 -1      1392 6.35429E-03-8.09309E-04-4.32847E-14
 -1      1393 6.52613E-03-7.67273E-04-4.54631E-14
 -1      1394 6.30354E-03-7.87868E-04-4.22671E-14
 -1      1395 6.69854E-03-7.31112E-04-4.76861E-14
 -1      1396 6.87079E-03-7.00946E-04-4.99518E-14
 -1      1397 6.64270E-03-7.03571E-04-4.66191E-14
 -1      1398 7.04232E-03-6.76269E-04-5.22621E-14
 -1      1399 7.21264E-03-6.56783E-04-5.46114E-14
 -1      1400 6.98121E-03-6.43520E-04-5.11471E-14
 -1      1401 7.38145E-03-6.41764E-04-5.70019E-14
 -1      1402 7.54848E-03-6.30752E-04-5.94334E-14
 -1      1403 7.31568E-03-6.05165E-04-5.58427E-14
 -1      1404 7.71362E-03-6.23054E-04-6.19033E-14
 -1      1405 7.87681E-03-6.18195E-04-6.44104E-14
 -1      1406 7.64421E-03-5.83934E-04-6.06986E-14
 -1      1407 8.03805E-03-6.15617E-04-6.69515E-14
 -1      1408 8.19739E-03-6.14900E-04-6.95261E-14
 -1      1409 7.96605E-03-5.75062E-04-6.57037E-14
 -1      1410 8.35492E-03-6.15642E-04-7.21343E-14
 -1      1411 8.51074E-03-6.17502E-04-7.47739E-14
 -1      1412 8.28126E-03-5.74447E-04-7.08466E-14
 -1      1413 8.66498E-03-6.20213E-04-7.74483E-14
 -1      1414 8.81776E-03-6.23512E-04-8.01563E-14
 -1      1415 8.59040E-03-5.78907E-04-7.61229E-14
 -1      1416 8.96923E-03-6.27235E-04-8.28964E-14
 -1      1417 9.11950E-03-6.31191E-04-8.56698E-14
 -1      1418 8.89426E-03-5.86144E-04-8.15300E-14
 -1      1419 9.26870E-03-6.35286E-04-8.84745E-14
 -1      1420 9.41696E-03-6.39386E-04-9.13080E-14
 -1      1421 9.19371E-03-5.94584E-04-8.70672E-14
 -1      1422 9.56437E-03-6.43447E-04-9.41714E-14
 -1      1423 9.71105E-03-6.47378E-04-9.70641E-14
 -1      1424 9.48958E-03-6.03211E-04-9.27289E-14
 -1      1425 9.85709E-03-6.51166E-04-9.99852E-14
 -1      1426 1.00026E-02-6.54754E-04-1.02935E-13
 -1      1427 9.78262E-03-6.11409E-04-9.85062E-14
 -1      1428 1.01476E-02-6.58147E-04-1.05911E-13
 -1      1429 1.02921E-02-6.61310E-04-1.08912E-13
 -1      1430 1.00735E-02-6.18842E-04-1.04397E-13
 -1      1431 1.04364E-02-6.64261E-04-1.11943E-13
 -1      1432 1.05803E-02-6.66980E-04-1.14999E-13
 -1      1433 1.03627E-02-6.25363E-04-1.10397E-13
 -1      1434 1.07240E-02-6.69490E-04-1.18082E-13
 -1      1435 1.08675E-02-6.71783E-04-1.21194E-13
 -1      1436 1.06506E-02-6.30944E-04-1.16503E-13
 -1      1437 1.10107E-02-6.73882E-04-1.24326E-13
 -1      1438 1.11539E-02-6.75786E-04-1.27478E-13
 -1      1439 1.09377E-02-6.35632E-04-1.22712E-13
 -1      1440 1.12969E-02-6.77519E-04-1.30654E-13
 -1      1441 1.14399E-02-6.79083E-04-1.33848E-13
 -1      1442 1.12242E-02-6.39512E-04-1.29015E-13
 -1      1443 1.15827E-02-6.80500E-04-1.37061E-13
 -1      1444 1.17256E-02-6.81776E-04-1.40294E-13
 -1      1445 1.15103E-02-6.42689E-04-1.35399E-13
 -1      1446 1.18683E-02-6.82928E-04-1.43538E-13
 -1      1447 1.20111E-02-6.83965E-04-1.46797E-13
 -1      1448 1.17960E-02-6.45271E-04-1.41855E-13
 -1      1449 1.21538E-02-6.84901E-04-1.50076E-13
 -1      1450 1.22965E-02-6.85743E-04-1.53368E-13
 -1      1451 1.20816E-02-6.47362E-04-1.48375E-13
 -1      1452 1.24392E-02-6.86506E-04-1.56674E-13
 -1      1453 1.25819E-02-6.87196E-04-1.59996E-13
 -1      1454 1.23672E-02-6.49057E-04-1.54957E-13
 -1      1455 1.27246E-02-6.87823E-04-1.63336E-13
 -1      1456 1.28673E-02-6.88394E-04-1.66688E-13
 -1      1457 1.26526E-02-6.50440E-04-1.61602E-13
 -1      1458 1.30100E-02-6.88917E-04-1.70057E-13
 -1      1459 1.31527E-02-6.89400E-04-1.73438E-13
 -1      1460 1.29381E-02-6.51582E-04-1.68308E-13
 -1      1461 1.32954E-02-6.89848E-04-1.76832E-13
 -1      1462 1.34382E-02-6.90266E-04-1.80239E-13
 -1      1463 1.32236E-02-6.52543E-04-1.75067E-13
 -1      1464 1.35809E-02-6.90661E-04-1.83656E-13
 -1      1465 1.37237E-02-6.91037E-04-1.87082E-13
 -1      1466 1.35092E-02-6.53376E-04-1.81876E-13
 -1      1467 1.38665E-02-6.91398E-04-1.90516E-13
 -1      1468 1.40093E-02-6.91749E-04-1.93951E-13
 -1      1469 1.37947E-02-6.54123E-04-1.88725E-13
 -1      1470 1.41521E-02-6.92093E-04-1.97395E-13
 -1      1471 1.42949E-02-6.92435E-04-2.00847E-13
 -1      1472 1.40803E-02-6.54820E-04-1.95600E-13
 -1      1473 1.44377E-02-6.92777E-04-2.04301E-13
 -1      1474 1.45805E-02-6.93122E-04-2.07755E-13
 -1      1475 1.43660E-02-6.55498E-04-2.02496E-13
 -1      1476 1.47234E-02-6.93473E-04-2.11213E-13
 -1      1477 1.48662E-02-6.93833E-04-2.14675E-13
 -1      1478 1.46516E-02-6.56185E-04-2.09406E-13
 -1      1479 1.50733E-02-6.90053E-04-2.19691E-13
 -1      1480 1.50016E-02-6.52751E-04-2.17879E-13
 -1      1481 6.65093E-04 3.41111E-04-9.88657E-17
 -1      1482 5.07215E-04 2.81481E-04-1.74963E-17
 -1      1483 4.61005E-04 2.42837E-04-6.54180E-17
 -1      1484 9.70891E-04 4.25870E-04-4.13759E-16
 -1      1485 8.19129E-04 3.87530E-04-2.30935E-16
 -1      1486 7.77176E-04 3.50314E-04-2.90810E-16
 -1      1487 1.27247E-03 4.84489E-04-9.32875E-16
 -1      1488 1.12162E-03 4.57549E-04-6.47269E-16
 -1      1489 1.08469E-03 4.21740E-04-7.17322E-16
 -1      1490 1.57667E-03 5.28986E-04-1.65891E-15
 -1      1491 1.42388E-03 5.07969E-04-1.26990E-15
 -1      1492 1.38989E-03 4.72594E-04-1.34663E-15
 -1      1493 1.88730E-03 5.67626E-04-2.59223E-15
 -1      1494 1.73097E-03 5.48606E-04-2.09946E-15
 -1      1495 1.69776E-03 5.12904E-04-2.18070E-15
 -1      1496 2.20620E-03 6.07526E-04-3.73181E-15
 -1      1497 2.04563E-03 5.87023E-04-3.13622E-15
 -1      1498 2.01128E-03 5.50424E-04-3.22030E-15
 -1      1499 2.53347E-03 6.55492E-04-5.07913E-15
 -1      1500 2.36882E-03 6.30156E-04-4.37953E-15
 -1      1501 2.33176E-03 5.92268E-04-4.46545E-15
 -1      1502 2.86731E-03 7.17829E-04-6.63738E-15
 -1      1503 2.69974E-03 6.84638E-04-5.83164E-15
 -1      1504 2.65890E-03 6.45284E-04-5.91785E-15
 -1      1505 3.20376E-03 7.99128E-04-8.40922E-15
 -1      1506 3.03554E-03 7.56122E-04-7.49644E-15
 -1      1507 2.99077E-03 7.15432E-04-7.58074E-15
 -1      1508 3.53680E-03 8.99970E-04-1.04004E-14
 -1      1509 3.37117E-03 8.47511E-04-9.37773E-15
 -1      1510 3.32363E-03 8.06065E-04-9.45790E-15
 -1      1511 3.85930E-03 1.01398E-03-1.26089E-14
 -1      1512 3.69985E-03 9.56233E-04-1.14768E-14
 -1      1513 3.65229E-03 9.15146E-04-1.15513E-14
 -1      1514 4.16537E-03 1.12590E-03-1.50358E-14
 -1      1515 4.01468E-03 1.07152E-03-1.37947E-14
 -1      1516 3.97117E-03 1.03232E-03-1.38619E-14
 -1      1517 4.45344E-03 1.21342E-03-1.76867E-14
 -1      1518 4.31153E-03 1.17408E-03-1.63331E-14
 -1      1519 4.27655E-03 1.13816E-03-1.63949E-14
 -1      1520 4.72859E-03 1.25440E-03-2.05734E-14
 -1      1521 4.59203E-03 1.24054E-03-1.90999E-14
 -1      1522 4.56911E-03 1.20848E-03-1.91570E-14
 -1      1523 5.00163E-03 1.23716E-03-2.36983E-14
 -1      1524 4.86452E-03 1.25289E-03-2.21064E-14
 -1      1525 4.85500E-03 1.22387E-03-2.21562E-14
 -1      1526 5.28466E-03 1.16665E-03-2.70508E-14
 -1      1527 5.14119E-03 1.20743E-03-2.53466E-14
 -1      1528 5.14384E-03 1.17968E-03-2.53892E-14
 -1      1529 5.58570E-03 1.06198E-03-3.06272E-14
 -1      1530 5.43264E-03 1.11704E-03-2.88117E-14
 -1      1531 5.44408E-03 1.08868E-03-2.88498E-14
 -1      1532 5.90606E-03 9.47060E-04-3.44186E-14
 -1      1533 5.74361E-03 1.00447E-03-3.24968E-14
 -1      1534 5.75938E-03 9.74367E-04-3.25297E-14
 -1      1535 6.24144E-03 8.41350E-04-3.84105E-14
 -1      1536 6.07228E-03 8.92256E-04-3.63895E-14
 -1      1537 6.08809E-03 8.60150E-04-3.64163E-14
 -1      1538 6.58498E-03 7.55792E-04-4.25918E-14
 -1      1539 6.41266E-03 7.95792E-04-4.04782E-14
 -1      1540 6.42535E-03 7.62032E-04-4.04996E-14
 -1      1541 6.92998E-03 6.93432E-04-4.69621E-14
 -1      1542 6.75769E-03 7.21809E-04-4.47536E-14
 -1      1543 6.76556E-03 6.86988E-04-4.47713E-14
 -1      1544 7.27147E-03 6.52297E-04-5.15156E-14
 -1      1545 7.10143E-03 6.70472E-04-4.92168E-14
 -1      1546 7.10405E-03 6.35171E-04-4.92278E-14
 -1      1547 7.60648E-03 6.28206E-04-5.62438E-14
 -1      1548 7.43992E-03 6.38417E-04-5.38587E-14
 -1      1549 7.43772E-03 6.03086E-04-5.38620E-14
 -1      1550 7.93374E-03 6.16614E-04-6.11341E-14
 -1      1551 7.77111E-03 6.21113E-04-5.86691E-14
 -1      1552 7.76493E-03 5.86052E-04-5.86623E-14
 -1      1553 8.25319E-03 6.13515E-04-6.61769E-14
 -1      1554 8.09442E-03 6.14215E-04-6.36355E-14
 -1      1555 8.08518E-03 5.79590E-04-6.36226E-14
 -1      1556 8.56546E-03 6.15756E-04-7.13789E-14
 -1      1557 8.41017E-03 6.14126E-04-6.87597E-14
 -1      1558 8.39875E-03 5.80004E-04-6.87388E-14
 -1      1559 8.87151E-03 6.21024E-04-7.67229E-14
 -1      1560 8.71919E-03 6.18123E-04-7.40328E-14
 -1      1561 8.70632E-03 5.84506E-04-7.40043E-14
 -1      1562 9.17241E-03 6.27713E-04-8.22070E-14
 -1      1563 9.02254E-03 6.24266E-04-7.94468E-14
 -1      1564 9.00876E-03 5.91117E-04-7.94088E-14
 -1      1565 9.46917E-03 6.34770E-04-8.78271E-14
 -1      1566 9.32124E-03 6.31243E-04-8.50012E-14
 -1      1567 9.30697E-03 5.98506E-04-8.49540E-14
 -1      1568 9.76270E-03 6.41542E-04-9.35802E-14
 -1      1569 9.61628E-03 6.38220E-04-9.06879E-14
 -1      1570 9.60179E-03 6.05831E-04-9.06330E-14
 -1      1571 1.00538E-02 6.47661E-04-9.94598E-14
 -1      1572 9.90849E-03 6.44698E-04-9.65042E-14
 -1      1573 9.89396E-03 6.12596E-04-9.64378E-14
 -1      1574 1.03430E-02 6.52953E-04-1.05443E-13
 -1      1575 1.01986E-02 6.50417E-04-1.02440E-13
 -1      1576 1.01841E-02 6.18545E-04-1.02361E-13
 -1      1577 1.06309E-02 6.57369E-04-1.11529E-13
 -1      1578 1.04871E-02 6.55271E-04-1.08473E-13
 -1      1579 1.04728E-02 6.23580E-04-1.08389E-13
 -1      1580 1.09178E-02 6.60937E-04-1.17719E-13
 -1      1581 1.07745E-02 6.59256E-04-1.14611E-13
 -1      1582 1.07603E-02 6.27703E-04-1.14519E-13
 -1      1583 1.12041E-02 6.63729E-04-1.24011E-13
 -1      1584 1.10611E-02 6.62424E-04-1.20853E-13
 -1      1585 1.10471E-02 6.30977E-04-1.20753E-13
 -1      1586 1.14900E-02 6.65839E-04-1.30400E-13
 -1      1587 1.13471E-02 6.64863E-04-1.27194E-13
 -1      1588 1.13333E-02 6.33493E-04-1.27086E-13
 -1      1589 1.17756E-02 6.67370E-04-1.36880E-13
 -1      1590 1.16328E-02 6.66671E-04-1.33630E-13
 -1      1591 1.16192E-02 6.35357E-04-1.33511E-13
 -1      1592 1.20611E-02 6.68418E-04-1.43449E-13
 -1      1593 1.19184E-02 6.67949E-04-1.40152E-13
 -1      1594 1.19049E-02 6.36673E-04-1.40025E-13
 -1      1595 1.23465E-02 6.69076E-04-1.50104E-13
 -1      1596 1.22038E-02 6.68791E-04-1.46766E-13
 -1      1597 1.21904E-02 6.37542E-04-1.46626E-13
 -1      1598 1.26318E-02 6.69424E-04-1.56826E-13
 -1      1599 1.24892E-02 6.69284E-04-1.53457E-13
 -1      1600 1.24759E-02 6.38052E-04-1.53307E-13
 -1      1601 1.29172E-02 6.69532E-04-1.63605E-13
 -1      1602 1.27745E-02 6.69504E-04-1.60210E-13
 -1      1603 1.27613E-02 6.38282E-04-1.60052E-13
 -1      1604 1.32026E-02 6.69460E-04-1.70418E-13
 -1      1605 1.30599E-02 6.69515E-04-1.67008E-13
 -1      1606 1.30468E-02 6.38297E-04-1.66843E-13
 -1      1607 1.34881E-02 6.69257E-04-1.77257E-13
 -1      1608 1.33454E-02 6.69372E-04-1.73836E-13
 -1      1609 1.33323E-02 6.38156E-04-1.73666E-13
 -1      1610 1.37737E-02 6.68967E-04-1.84104E-13
 -1      1611 1.36309E-02 6.69121E-04-1.80681E-13
 -1      1612 1.36178E-02 6.37903E-04-1.80506E-13
 -1      1613 1.40592E-02 6.68626E-04-1.90958E-13
 -1      1614 1.39164E-02 6.68801E-04-1.87531E-13
 -1      1615 1.39034E-02 6.37581E-04-1.87354E-13
 -1      1616 1.43449E-02 6.68264E-04-1.97815E-13
 -1      1617 1.42020E-02 6.68446E-04-1.94386E-13
 -1      1618 1.41890E-02 6.37221E-04-1.94206E-13
 -1      1619 1.46305E-02 6.67909E-04-2.04669E-13
 -1      1620 1.44877E-02 6.68084E-04-2.01241E-13
 -1      1621 1.44747E-02 6.36855E-04-2.01060E-13
 -1      1622 1.49162E-02 6.67579E-04-2.11520E-13
 -1      1623 1.47734E-02 6.67740E-04-2.08096E-13
 -1      1624 1.47603E-02 6.36506E-04-2.07913E-13
 -1      1625 1.50651E-02 6.56526E-04-2.15136E-13
 -1      1626 1.50775E-02 5.51146E-04-2.15885E-13
 -1      1627 1.50773E-02 5.93296E-04-2.15698E-13
 -1      1628 1.50777E-02 4.66827E-04-2.16253E-13
 -1      1629 1.50776E-02 5.08990E-04-2.16071E-13
 -1      1630 1.49538E-02 5.30199E-04-2.13007E-13
 -1      1631 1.50779E-02 3.82477E-04-2.16621E-13
 -1      1632 1.50778E-02 4.24656E-04-2.16437E-13
 -1      1633 1.49540E-02 4.45874E-04-2.13374E-13
 -1      1634 1.50782E-02 2.98093E-04-2.16982E-13
 -1      1635 1.50781E-02 3.40289E-04-2.16803E-13
 -1      1636 1.49543E-02 3.61522E-04-2.13738E-13
 -1      1637 1.50785E-02 2.15108E-04-2.17331E-13
 -1      1638 1.50783E-02 2.56604E-04-2.17157E-13
 -1      1639 1.49545E-02 2.77857E-04-2.14091E-13
 -1      1640 1.50788E-02 1.30666E-04-2.17661E-13
 -1      1641 1.50787E-02 1.72890E-04-2.17498E-13
 -1      1642 1.49548E-02 1.94167E-04-2.14431E-13
 -1      1643 1.50792E-02 4.62067E-05-2.17980E-13
 -1      1644 1.50790E-02 8.84383E-05-2.17821E-13
 -1      1645 1.49552E-02 1.09742E-04-2.14755E-13
 -1      1646 1.50797E-02-3.82609E-05-2.18287E-13
 -1      1647 1.50795E-02 3.97323E-06-2.18137E-13
 -1      1648 1.49556E-02 2.53040E-05-2.15066E-13
 -1      1649 1.50803E-02-1.22726E-04-2.18565E-13
 -1      1650 1.50800E-02-8.04944E-05-2.18431E-13
 -1      1651 1.49561E-02-5.91380E-05-2.15365E-13
 -1      1652 1.50810E-02-2.07177E-04-2.18821E-13
 -1      1653 1.50806E-02-1.64954E-04-2.18692E-13
 -1      1654 1.49567E-02-1.43576E-04-2.15636E-13
 -1      1655 1.50817E-02-2.90176E-04-2.19064E-13
 -1      1656 1.50813E-02-2.48680E-04-2.18944E-13
 -1      1657 1.49574E-02-2.27285E-04-2.15885E-13
 -1      1658 1.50824E-02-3.74576E-04-2.19286E-13
 -1      1659 1.50820E-02-3.32380E-04-2.19179E-13
 -1      1660 1.49581E-02-3.10975E-04-2.16121E-13
 -1      1661 1.50832E-02-4.58942E-04-2.19482E-13
 -1      1662 1.50828E-02-4.16763E-04-2.19387E-13
 -1      1663 1.49589E-02-3.95354E-04-2.16334E-13
 -1      1664 1.50840E-02-5.43275E-04-2.19666E-13
 -1      1665 1.50836E-02-5.01112E-04-2.19577E-13
 -1      1666 1.49597E-02-4.79706E-04-2.16529E-13
 -1      1667 1.50430E-02-6.19092E-04-2.18818E-13
 -1      1668 1.50426E-02-5.76940E-04-2.18725E-13
 -1      1669 1.49187E-02-5.55543E-04-2.15683E-13
 -1      1670 1.48359E-02-6.22876E-04-2.13804E-13
 -1      1671 6.99497E-03 6.80363E-05-3.21824E-14
 -1      1672 7.02696E-03 2.34628E-05-3.23295E-14
 -1      1673 6.82152E-03 1.81242E-04-3.15778E-14
 -1      1674 6.91909E-03 1.24672E-04-3.19350E-14
 -1      1675 6.54016E-03 3.29881E-04-3.05019E-14
 -1      1676 6.68063E-03 2.60015E-04-3.10089E-14
 -1      1677 6.19115E-03 5.05505E-04-2.91381E-14
 -1      1678 6.36114E-03 4.23701E-04-2.97792E-14
 -1      1679 5.76077E-03 6.84983E-04-2.75877E-14
 -1      1680 5.95414E-03 5.95364E-04-2.83917E-14
 -1      1681 5.37053E-03 8.43290E-04-2.57730E-14
 -1      1682 5.55143E-03 7.79893E-04-2.65632E-14
 -1      1683 4.98810E-03 9.29952E-04-2.40540E-14
 -1      1684 5.16126E-03 8.99049E-04-2.48367E-14
 -1      1685 4.60210E-03 9.34491E-04-2.23422E-14
 -1      1686 4.78097E-03 9.43700E-04-2.31251E-14
 -1      1687 4.20023E-03 8.49166E-04-2.06769E-14
 -1      1688 4.38755E-03 9.00247E-04-2.14234E-14
 -1      1689 3.79769E-03 7.04198E-04-1.93148E-14
 -1      1690 3.97565E-03 7.75315E-04-1.99154E-14
 -1      1691 3.41271E-03 5.32321E-04-1.81629E-14
 -1      1692 3.58974E-03 6.14123E-04-1.86694E-14
 -1      1693 3.05780E-03 3.62915E-04-1.72574E-14
 -1      1694 3.21603E-03 4.39444E-04-1.76434E-14
 -1      1695 2.76172E-03 2.03267E-04-1.65480E-14
 -1      1696 2.89213E-03 2.69458E-04-1.68167E-14
 -1      1697 2.56756E-03 8.64876E-05-1.62288E-14
 -1      1698 2.64011E-03 1.38002E-04-1.63487E-14
 -1      1699 2.51404E-03-1.03020E-05-1.62193E-14
 -1      1700 2.52192E-03 3.31300E-05-1.62007E-14
 -1      1701 2.59907E-03-1.12944E-04-1.64524E-14
 -1      1702 2.54124E-03-6.31936E-05-1.62924E-14
 -1      1703 2.80351E-03-2.37389E-04-1.70140E-14
 -1      1704 2.69710E-03-1.79239E-04-1.67371E-14
 -1      1705 3.12385E-03-3.85370E-04-1.78131E-14
 -1      1706 2.96473E-03-3.07943E-04-1.73772E-14
 -1      1707 3.48644E-03-5.69852E-04-1.89715E-14
 -1      1708 3.31261E-03-4.88317E-04-1.84347E-14
 -1      1709 3.89017E-03-7.41908E-04-2.03085E-14
 -1      1710 3.70401E-03-6.62468E-04-1.96505E-14
 -1      1711 4.26547E-03-8.73048E-04-2.17871E-14
 -1      1712 4.09507E-03-8.20128E-04-2.11096E-14
 -1      1713 4.63145E-03-9.39977E-04-2.33395E-14
 -1      1714 4.46316E-03-9.17538E-04-2.26112E-14
 -1      1715 4.99023E-03-9.32590E-04-2.49388E-14
 -1      1716 4.82563E-03-9.45405E-04-2.42014E-14
 -1      1717 5.35497E-03-8.52933E-04-2.65493E-14
 -1      1718 5.18545E-03-8.98394E-04-2.58075E-14
 -1      1719 5.73687E-03-7.06336E-04-2.82275E-14
 -1      1720 5.55401E-03-7.81762E-04-2.74762E-14
 -1      1721 6.11574E-03-5.44564E-04-2.95722E-14
 -1      1722 5.95214E-03-6.20315E-04-2.89734E-14
 -1      1723 6.46253E-03-3.66602E-04-3.08709E-14
 -1      1724 6.29988E-03-4.45501E-04-3.03310E-14
 -1      1725 6.75052E-03-2.33639E-04-3.16490E-14
 -1      1726 6.63296E-03-2.93829E-04-3.13043E-14
 -1      1727 6.93195E-03-1.34085E-04-3.20379E-14
 -1      1728 6.85313E-03-1.84923E-04-3.18404E-14
 -1      1729 6.77882E-03-1.65785E-04-3.24026E-14
 -1      1730 7.02769E-03-2.64323E-05-3.23402E-14
 -1      1731 7.00143E-03-6.80238E-05-3.23061E-14
 -1      1732 6.00397E-03 5.12883E-04-2.92234E-14
 -1      1733 6.40734E-03 3.23259E-04-3.07168E-14
 -1      1734 1.50521E-02 6.25289E-04-2.14958E-13
 -1      1735 1.49284E-02 6.04349E-04-2.12080E-13
 -1      1736 6.95809E-03 6.63063E-05-3.28664E-14
 -1      1737 6.73337E-03 1.67545E-04-3.20316E-14
 -1      1738 7.03681E-03-6.77134E-07-3.31311E-14
 -1      1739 5.59882E-03 7.18767E-04-2.74214E-14
 -1      1740 5.22433E-03 8.84182E-04-2.54467E-14
 -1      1741 4.87313E-03 9.63237E-04-2.35770E-14
 -1      1742 4.51903E-03 9.39398E-04-2.17361E-14
 -1      1743 4.14848E-03 8.15148E-04-2.00774E-14
 -1      1744 3.75609E-03 6.34322E-04-1.86954E-14
 -1      1745 3.36975E-03 4.40036E-04-1.75584E-14
 -1      1746 3.00726E-03 2.58808E-04-1.66230E-14
 -1      1747 2.71138E-03 1.25307E-04-1.60062E-14
 -1      1748 2.53866E-03 4.14174E-05-1.57897E-14
 -1      1749 2.51926E-03-2.61784E-05-1.58328E-14
 -1      1750 2.65074E-03-1.04669E-04-1.61777E-14
 -1      1751 2.91539E-03-2.19793E-04-1.68052E-14
 -1      1752 3.26655E-03-3.83995E-04-1.77568E-14
 -1      1753 3.66073E-03-5.85526E-04-1.90302E-14
 -1      1754 4.04664E-03-7.74465E-04-2.04833E-14
 -1      1755 4.40115E-03-9.11876E-04-2.20935E-14
 -1      1756 4.73288E-03-9.68858E-04-2.37740E-14
 -1      1757 5.06071E-03-9.36142E-04-2.55089E-14
 -1      1758 5.40564E-03-8.18443E-04-2.73171E-14
 -1      1759 5.77415E-03-6.41351E-04-2.90140E-14
 -1      1760 6.15519E-03-4.46983E-04-3.05408E-14
 -1      1761 6.50576E-03-2.77080E-04-3.17596E-14
 -1      1762 2.94897E-04-1.62260E-04-8.77933E-17
 -1      1763 6.96606E-03-7.51439E-05-3.28694E-14
 -1      1764 3.39134E-04-8.81243E-05-2.81296E-16
 -1      1765 3.46063E-04-1.05063E-04-2.64274E-16
 -1      1766 3.54506E-04-1.25392E-04-2.43444E-16
 -1      1767 3.65819E-04-1.49324E-04-2.13981E-16
 -1      1768 4.73692E-04-1.52659E-04-3.83293E-16
 -1      1769 3.19064E-04-4.06942E-05-3.15787E-16
 -1      1770 3.23193E-04-5.00065E-05-3.10705E-16
 -1      1771 3.12254E-04-2.50486E-05-3.21344E-16
 -1      1772 3.15390E-04-3.23368E-05-3.19081E-16
 -1      1773 4.26098E-04-4.98214E-05-4.67833E-16
 -1      1774 3.07745E-04-1.27080E-05-3.22469E-16
 -1      1775 3.09695E-04-1.85392E-05-3.22482E-16
 -1      1776 4.17043E-04-2.99425E-05-4.73932E-16
 -1      1777 3.05789E-04-2.19746E-06-3.19704E-16
 -1      1778 3.06435E-04-7.30266E-06-3.21466E-16
 -1      1779 4.11429E-04-1.37961E-05-4.74040E-16
 -1      1780 3.06517E-04 7.97569E-06-3.13782E-16
 -1      1781 3.05816E-04 2.85062E-06-3.17305E-16
 -1      1782 4.09580E-04 4.98307E-07-4.69094E-16
 -1      1783 3.09881E-04 1.93127E-05-3.04132E-16
 -1      1784 3.07880E-04 1.34213E-05-3.09472E-16
 -1      1785 4.11622E-04 1.48513E-05-4.59390E-16
 -1      1786 3.15554E-04 3.30270E-05-2.90173E-16
 -1      1787 3.12439E-04 2.57851E-05-2.98061E-16
 -1      1788 4.17355E-04 3.10210E-05-4.44360E-16
 -1      1789 3.23484E-04 5.10680E-05-2.69885E-16
 -1      1790 3.19254E-04 4.14735E-05-2.81120E-16
 -1      1791 4.26457E-04 5.09630E-05-4.22785E-16
 -1      1792 3.33547E-04 7.49516E-05-2.41208E-16
 -1      1793 3.28228E-04 6.22207E-05-2.57241E-16
 -1      1794 4.38747E-04 7.68076E-05-3.92197E-16
 -1      1795 3.46506E-04 1.07227E-04-1.99168E-16
 -1      1796 3.39529E-04 8.99545E-05-2.22844E-16
 -1      1797 4.54273E-04 1.10695E-04-3.49072E-16
 -1      1798 3.66368E-04 1.52976E-04-1.37314E-16
 -1      1799 3.55181E-04 1.28200E-04-1.71765E-16
 -1      1800 4.74835E-04 1.56107E-04-2.86948E-16
 -1      1801 4.23807E-04 2.10242E-04-9.30245E-17
 -1      1802 3.93526E-04 1.78302E-04-1.21634E-16
 -1      1803 5.16568E-04 2.10519E-04-2.30745E-16
 -1      1804 5.82030E-04 2.69916E-04-1.84518E-16
 -1      1805 3.53849E-04-1.70434E-04-1.55244E-16
 -1      1806 8.94552E-04 3.58100E-04-5.18086E-16
 -1      1807 7.38851E-04 3.18208E-04-3.26846E-16
 -1      1808 7.03460E-04 2.86988E-04-3.56459E-16
 -1      1809 6.99652E-03-3.81819E-05-3.40258E-14
 -1      1810 6.91968E-03-6.78663E-05-3.37498E-14
 -1      1811 4.78425E-04-2.07078E-04-2.77651E-16
 -1      1812 8.45310E-04-3.25118E-04-7.43776E-16
 -1      1813 1.00009E-03-3.59084E-04-1.04033E-15
 -1      1814 1.15351E-03-3.87721E-04-1.39109E-15
 -1      1815 1.30697E-03-4.11886E-04-1.79701E-15
 -1      1816 1.05150E-03-3.36193E-04-1.27731E-15
 -1      1817 1.46041E-03-4.33252E-04-2.25698E-15
 -1      1818 1.61450E-03-4.52371E-04-2.77149E-15
 -1      1819 1.35722E-03-3.84249E-04-2.09888E-15
 -1      1820 1.76947E-03-4.70578E-04-3.33998E-15
 -1      1821 1.92557E-03-4.88469E-04-3.96258E-15
 -1      1822 1.66404E-03-4.22023E-04-3.13517E-15
 -1      1823 2.08307E-03-5.07221E-04-4.63812E-15
 -1      1824 2.24194E-03-5.27497E-04-5.36703E-15
 -1      1825 1.97419E-03-4.56991E-04-4.38430E-15
 -1      1826 2.40250E-03-5.50396E-04-6.14991E-15
 -1      1827 2.56436E-03-5.76608E-04-6.98512E-15
 -1      1828 2.28940E-03-4.96373E-04-5.84481E-15
 -1      1829 2.72794E-03-6.07077E-04-7.87358E-15
 -1      1830 2.89242E-03-6.42395E-04-8.81528E-15
 -1      1831 2.61082E-03-5.47329E-04-7.51497E-15
 -1      1832 3.05833E-03-6.83108E-04-9.80971E-15
 -1      1833 3.22437E-03-7.29427E-04-1.08569E-14
 -1      1834 2.93880E-03-6.16421E-04-9.39441E-15
 -1      1835 3.39111E-03-7.81105E-04-1.19576E-14
 -1      1836 3.55687E-03-8.37526E-04-1.31110E-14
 -1      1837 3.27237E-03-7.07963E-04-1.14838E-14
 -1      1838 3.72208E-03-8.97238E-04-1.43191E-14
 -1      1839 3.88517E-03-9.58331E-04-1.55825E-14
 -1      1840 3.60855E-03-8.20987E-04-1.37846E-14
 -1      1841 4.04618E-03-1.01803E-03-1.69016E-14
 -1      1842 4.20450E-03-1.07316E-03-1.82767E-14
 -1      1843 3.94214E-03-9.45320E-04-1.63028E-14
 -1      1844 4.35966E-03-1.12025E-03-1.97078E-14
 -1      1845 4.51289E-03-1.15587E-03-2.11970E-14
 -1      1846 4.26735E-03-1.05931E-03-1.90448E-14
 -1      1847 4.66335E-03-1.17733E-03-2.27446E-14
 -1      1848 4.81400E-03-1.18281E-03-2.43498E-14
 -1      1849 4.58192E-03-1.13388E-03-2.20173E-14
 -1      1850 4.96384E-03-1.17188E-03-2.60119E-14
 -1      1851 5.11616E-03-1.14547E-03-2.77318E-14
 -1      1852 4.89061E-03-1.14540E-03-2.52225E-14
 -1      1853 5.27001E-03-1.10569E-03-2.95078E-14
 -1      1854 5.42734E-03-1.05566E-03-3.13372E-14
 -1      1855 5.20289E-03-1.08993E-03-2.86575E-14
 -1      1856 5.58748E-03-9.98807E-04-3.32193E-14
 -1      1857 5.75044E-03-9.38645E-04-3.51542E-14
 -1      1858 5.52569E-03-9.85900E-04-3.23138E-14
 -1      1859 5.91605E-03-8.78351E-04-3.71395E-14
 -1      1860 6.08300E-03-8.20404E-04-3.91731E-14
 -1      1861 5.85904E-03-8.62654E-04-3.61797E-14
 -1      1862 6.25156E-03-7.66819E-04-4.12550E-14
 -1      1863 6.42004E-03-7.18685E-04-4.33834E-14
 -1      1864 6.19782E-03-7.45856E-04-4.02456E-14
 -1      1865 6.58896E-03-6.76756E-04-4.55567E-14
 -1      1866 6.75687E-03-6.41138E-04-4.77744E-14
 -1      1867 6.53623E-03-6.50271E-04-4.44984E-14
 -1      1868 6.92427E-03-6.11682E-04-5.00374E-14
 -1      1869 7.09020E-03-5.88001E-04-5.23427E-14
 -1      1870 6.87039E-03-5.80439E-04-4.89315E-14
 -1      1871 7.25501E-03-5.69489E-04-5.46866E-14
 -1      1872 7.41819E-03-5.55608E-04-5.70716E-14
 -1      1873 7.19850E-03-5.34572E-04-5.35343E-14
 -1      1874 7.57995E-03-5.45628E-04-5.94967E-14
 -1      1875 7.74010E-03-5.39033E-04-6.19601E-14
 -1      1876 7.52018E-03-5.08110E-04-5.82996E-14
 -1      1877 7.89874E-03-5.35154E-04-6.44598E-14
 -1      1878 8.05590E-03-5.33559E-04-6.69944E-14
 -1      1879 7.83573E-03-4.95958E-04-6.32198E-14
 -1      1880 8.21161E-03-5.33718E-04-6.95631E-14
 -1      1881 8.36600E-03-5.35296E-04-7.21645E-14
 -1      1882 8.14576E-03-4.93575E-04-6.82827E-14
 -1      1883 8.51908E-03-5.37908E-04-7.48007E-14
 -1      1884 8.67104E-03-5.41305E-04-7.74686E-14
 -1      1885 8.45095E-03-4.97353E-04-7.34811E-14
 -1      1886 8.82186E-03-5.45230E-04-8.01687E-14
 -1      1887 8.97173E-03-5.49503E-04-8.29019E-14
 -1      1888 8.75202E-03-5.04629E-04-7.88106E-14
 -1      1889 9.12067E-03-5.53964E-04-8.56667E-14
 -1      1890 9.26883E-03-5.58491E-04-8.84628E-14
 -1      1891 9.04963E-03-5.13551E-04-8.42708E-14
 -1      1892 9.41622E-03-5.62991E-04-9.12900E-14
 -1      1893 9.56301E-03-5.67383E-04-9.41455E-14
 -1      1894 9.34439E-03-5.22894E-04-8.98548E-14
 -1      1895 9.70918E-03-5.71625E-04-9.70310E-14
 -1      1896 9.85487E-03-5.75663E-04-9.99456E-14
 -1      1897 9.63687E-03-5.31903E-04-9.55607E-14
 -1      1898 1.00001E-02-5.79486E-04-1.02888E-13
 -1      1899 1.01449E-02-5.83064E-04-1.05857E-13
 -1      1900 9.92753E-03-5.40151E-04-1.01383E-13
 -1      1901 1.02894E-02-5.86403E-04-1.08852E-13
 -1      1902 1.04337E-02-5.89486E-04-1.11876E-13
 -1      1903 1.02168E-02-5.47436E-04-1.07314E-13
 -1      1904 1.05776E-02-5.92333E-04-1.14927E-13
 -1      1905 1.07213E-02-5.94936E-04-1.18003E-13
 -1      1906 1.05049E-02-5.53699E-04-1.13354E-13
 -1      1907 1.08649E-02-5.97320E-04-1.21105E-13
 -1      1908 1.10083E-02-5.99482E-04-1.24230E-13
 -1      1909 1.07923E-02-5.58976E-04-1.19500E-13
 -1      1910 1.11516E-02-6.01448E-04-1.27378E-13
 -1      1911 1.12947E-02-6.03223E-04-1.30549E-13
 -1      1912 1.10791E-02-5.63351E-04-1.25747E-13
 -1      1913 1.14378E-02-6.04828E-04-1.33738E-13
 -1      1914 1.15808E-02-6.06270E-04-1.36948E-13
 -1      1915 1.13654E-02-5.66933E-04-1.32082E-13
 -1      1916 1.17237E-02-6.07571E-04-1.40174E-13
 -1      1917 1.18666E-02-6.08738E-04-1.43415E-13
 -1      1918 1.16515E-02-5.69841E-04-1.38494E-13
 -1      1919 1.20095E-02-6.09789E-04-1.46674E-13
 -1      1920 1.21523E-02-6.10731E-04-1.49951E-13
 -1      1921 1.19373E-02-5.72188E-04-1.44978E-13
 -1      1922 1.22951E-02-6.11580E-04-1.53243E-13
 -1      1923 1.24379E-02-6.12344E-04-1.56547E-13
 -1      1924 1.22231E-02-5.74081E-04-1.51525E-13
 -1      1925 1.25807E-02-6.13035E-04-1.59868E-13
 -1      1926 1.27235E-02-6.13660E-04-1.63207E-13
 -1      1927 1.25087E-02-5.75612E-04-1.58139E-13
 -1      1928 1.28662E-02-6.14229E-04-1.66560E-13
 -1      1929 1.30090E-02-6.14749E-04-1.69927E-13
 -1      1930 1.27943E-02-5.76862E-04-1.64812E-13
 -1      1931 1.31518E-02-6.15227E-04-1.73304E-13
 -1      1932 1.32946E-02-6.15670E-04-1.76695E-13
 -1      1933 1.30799E-02-5.77900E-04-1.71542E-13
 -1      1934 1.34374E-02-6.16084E-04-1.80101E-13
 -1      1935 1.35801E-02-6.16473E-04-1.83515E-13
 -1      1936 1.33655E-02-5.78783E-04-1.78325E-13
 -1      1937 1.37229E-02-6.16843E-04-1.86936E-13
 -1      1938 1.38657E-02-6.17199E-04-1.90366E-13
 -1      1939 1.36511E-02-5.79559E-04-1.85152E-13
 -1      1940 1.40086E-02-6.17544E-04-1.93805E-13
 -1      1941 1.41514E-02-6.17883E-04-1.97246E-13
 -1      1942 1.39368E-02-5.80267E-04-1.92008E-13
 -1      1943 1.42942E-02-6.18220E-04-2.00694E-13
 -1      1944 1.44370E-02-6.18557E-04-2.04148E-13
 -1      1945 1.42224E-02-5.80941E-04-1.98892E-13
 -1      1946 1.45650E-02-6.20537E-04-2.07244E-13
 -1      1947 1.47079E-02-6.20884E-04-2.10700E-13
 -1      1948 1.47493E-02-5.87218E-04-2.11638E-13
 -1      1949 1.44933E-02-5.83251E-04-2.05438E-13
 -1      1950 1.20177E-03 4.18655E-04-1.04875E-15
 -1      1951 1.04828E-03 3.91021E-04-7.58006E-16
 -1      1952 1.01254E-03 3.60442E-04-7.92349E-16
 -1      1953 1.50844E-03 4.63442E-04-1.78125E-15
 -1      1954 1.35478E-03 4.42509E-04-1.38943E-15
 -1      1955 1.31928E-03 4.12522E-04-1.42596E-15
 -1      1956 1.81828E-03 5.01042E-04-2.71820E-15
 -1      1957 1.66273E-03 4.82729E-04-2.22409E-15
 -1      1958 1.62679E-03 4.52713E-04-2.26120E-15
 -1      1959 2.13351E-03 5.38864E-04-3.85831E-15
 -1      1960 1.97511E-03 5.19544E-04-3.26283E-15
 -1      1961 1.93782E-03 4.88859E-04-3.29897E-15
 -1      1962 2.45501E-03 5.84012E-04-5.20410E-15
 -1      1963 2.29348E-03 5.60164E-04-4.50561E-15
 -1      1964 2.25411E-03 5.28229E-04-4.53987E-15
 -1      1965 2.78231E-03 6.43228E-04-6.75759E-15
 -1      1966 2.61808E-03 6.11574E-04-5.95471E-15
 -1      1967 2.57637E-03 5.77915E-04-5.98553E-15
 -1      1968 3.11350E-03 7.21835E-04-8.52026E-15
 -1      1969 2.94772E-03 6.79997E-04-7.61198E-15
 -1      1970 2.90421E-03 6.44395E-04-7.63796E-15
 -1      1971 3.44510E-03 8.21508E-04-1.04975E-14
 -1      1972 3.27971E-03 7.69271E-04-9.48196E-15
 -1      1973 3.23589E-03 7.32016E-04-9.50029E-15
 -1      1974 3.77235E-03 9.37138E-04-1.26895E-14
 -1      1975 3.60979E-03 8.78079E-04-1.15663E-14
 -1      1976 3.56803E-03 8.40265E-04-1.15759E-14
 -1      1977 4.09038E-03 1.05415E-03-1.51012E-14
 -1      1978 3.93288E-03 9.96745E-04-1.38679E-14
 -1      1979 3.89586E-03 9.60321E-04-1.38678E-14
 -1      1980 4.39662E-03 1.14944E-03-1.77395E-14
 -1      1981 4.24492E-03 1.10598E-03-1.63917E-14
 -1      1982 4.21465E-03 1.07314E-03-1.63815E-14
 -1      1983 4.69328E-03 1.19840E-03-2.06092E-14
 -1      1984 4.54556E-03 1.18072E-03-1.91449E-14
 -1      1985 4.52274E-03 1.15269E-03-1.91254E-14
 -1      1986 4.98754E-03 1.18640E-03-2.37164E-14
 -1      1987 4.83979E-03 1.19998E-03-2.21332E-14
 -1      1988 4.82402E-03 1.17611E-03-2.21043E-14
 -1      1989 5.28828E-03 1.11702E-03-2.70552E-14
 -1      1990 5.13635E-03 1.15777E-03-2.53570E-14
 -1      1991 5.12685E-03 1.13586E-03-2.53179E-14
 -1      1992 5.60112E-03 1.01018E-03-3.06185E-14
 -1      1993 5.44292E-03 1.06671E-03-2.88097E-14
 -1      1994 5.43892E-03 1.04446E-03-2.87630E-14
 -1      1995 5.92632E-03 8.91603E-04-3.43952E-14
 -1      1996 5.76236E-03 9.51028E-04-3.24808E-14
 -1      1997 5.76268E-03 9.27182E-04-3.24270E-14
 -1      1998 6.26022E-03 7.82325E-04-3.83744E-14
 -1      1999 6.09261E-03 8.35043E-04-3.63595E-14
 -1      2000 6.09540E-03 8.09433E-04-3.62985E-14
 -1      2001 6.59780E-03 6.94097E-04-4.25450E-14
 -1      2002 6.42900E-03 7.35367E-04-4.04366E-14
 -1      2003 6.43212E-03 7.08389E-04-4.03679E-14
 -1      2004 6.93459E-03 6.30144E-04-4.69027E-14
 -1      2005 6.76665E-03 6.59215E-04-4.47014E-14
 -1      2006 6.76826E-03 6.31375E-04-4.46265E-14
 -1      2007 7.26749E-03 5.88351E-04-5.14404E-14
 -1      2008 7.10176E-03 6.06750E-04-4.91495E-14
 -1      2009 7.10069E-03 5.78460E-04-4.90668E-14
 -1      2010 7.59474E-03 5.64292E-04-5.61481E-14
 -1      2011 7.43194E-03 5.74397E-04-5.37739E-14
 -1      2012 7.42775E-03 5.45949E-04-5.36818E-14
 -1      2013 7.91564E-03 5.53174E-04-6.10223E-14
 -1      2014 7.75602E-03 5.57369E-04-5.85646E-14
 -1      2015 7.74878E-03 5.28961E-04-5.84638E-14
 -1      2016 8.23024E-03 5.50793E-04-6.60490E-14
 -1      2017 8.07371E-03 5.51088E-04-6.35163E-14
 -1      2018 8.06382E-03 5.22850E-04-6.34060E-14
 -1      2019 8.53904E-03 5.53848E-04-7.12328E-14
 -1      2020 8.38532E-03 5.51783E-04-6.86221E-14
 -1      2021 8.37329E-03 5.23787E-04-6.85031E-14
 -1      2022 8.84277E-03 5.59926E-04-7.65583E-14
 -1      2023 8.69148E-03 5.56606E-04-7.38777E-14
 -1      2024 8.67782E-03 5.28886E-04-7.37490E-14
 -1      2025 9.14222E-03 5.67368E-04-8.20251E-14
 -1      2026 8.99296E-03 5.63539E-04-7.92739E-14
 -1      2027 8.97813E-03 5.36099E-04-7.91353E-14
 -1      2028 9.43817E-03 5.75088E-04-8.76280E-14
 -1      2029 9.29057E-03 5.71231E-04-8.48101E-14
 -1      2030 9.27493E-03 5.44055E-04-8.46620E-14
 -1      2031 9.73134E-03 5.82425E-04-9.33593E-14
 -1      2032 9.58505E-03 5.78825E-04-9.04775E-14
 -1      2033 9.56890E-03 5.51888E-04-9.03205E-14
 -1      2034 1.00223E-02 5.89011E-04-9.92149E-14
 -1      2035 9.87707E-03 5.85821E-04-9.62729E-14
 -1      2036 9.86061E-03 5.59092E-04-9.61047E-14
 -1      2037 1.03117E-02 5.94681E-04-1.05181E-13
 -1      2038 1.01672E-02 5.91962E-04-1.02184E-13
 -1      2039 1.01506E-02 5.65409E-04-1.02007E-13
 -1      2040 1.05998E-02 5.99395E-04-1.11251E-13
 -1      2041 1.04559E-02 5.97154E-04-1.08204E-13
 -1      2042 1.04392E-02 5.70746E-04-1.08016E-13
 -1      2043 1.08870E-02 6.03193E-04-1.17429E-13
 -1      2044 1.07435E-02 6.01403E-04-1.14328E-13
 -1      2045 1.07269E-02 5.75111E-04-1.14133E-13
 -1      2046 1.11736E-02 6.06161E-04-1.23700E-13
 -1      2047 1.10304E-02 6.04774E-04-1.20552E-13
 -1      2048 1.10138E-02 5.78574E-04-1.20349E-13
 -1      2049 1.14598E-02 6.08402E-04-1.30070E-13
 -1      2050 1.13167E-02 6.07365E-04-1.26873E-13
 -1      2051 1.13002E-02 5.81237E-04-1.26661E-13
 -1      2052 1.17456E-02 6.10027E-04-1.36534E-13
 -1      2053 1.16027E-02 6.09285E-04-1.33291E-13
 -1      2054 1.15863E-02 5.83211E-04-1.33068E-13
 -1      2055 1.20313E-02 6.11143E-04-1.43080E-13
 -1      2056 1.18885E-02 6.10643E-04-1.39795E-13
 -1      2057 1.18721E-02 5.84609E-04-1.39564E-13
 -1      2058 1.23169E-02 6.11847E-04-1.49716E-13
 -1      2059 1.21741E-02 6.11541E-04-1.46389E-13
 -1      2060 1.21578E-02 5.85537E-04-1.46148E-13
 -1      2061 1.26024E-02 6.12225E-04-1.56419E-13
 -1      2062 1.24596E-02 6.12072E-04-1.53059E-13
 -1      2063 1.24434E-02 5.86088E-04-1.52811E-13
 -1      2064 1.28879E-02 6.12351E-04-1.63184E-13
 -1      2065 1.27451E-02 6.12315E-04-1.59796E-13
 -1      2066 1.27289E-02 5.86346E-04-1.59540E-13
 -1      2067 1.31734E-02 6.12287E-04-1.69987E-13
 -1      2068 1.30306E-02 6.12340E-04-1.66582E-13
 -1      2069 1.30145E-02 5.86379E-04-1.66319E-13
 -1      2070 1.34590E-02 6.12088E-04-1.76816E-13
 -1      2071 1.33162E-02 6.12202E-04-1.73400E-13
 -1      2072 1.33001E-02 5.86246E-04-1.73134E-13
 -1      2073 1.37445E-02 6.11796E-04-1.83657E-13
 -1      2074 1.36017E-02 6.11951E-04-1.80236E-13
 -1      2075 1.35856E-02 5.85997E-04-1.79965E-13
 -1      2076 1.40301E-02 6.11449E-04-1.90504E-13
 -1      2077 1.38873E-02 6.11628E-04-1.87079E-13
 -1      2078 1.38712E-02 5.85674E-04-1.86806E-13
 -1      2079 1.43158E-02 6.11080E-04-1.97358E-13
 -1      2080 1.41729E-02 6.11266E-04-1.93931E-13
 -1      2081 1.41569E-02 5.85310E-04-1.93655E-13
 -1      2082 1.46014E-02 6.10716E-04-2.04211E-13
 -1      2083 1.44586E-02 6.10896E-04-2.00785E-13
 -1      2084 1.44425E-02 5.84936E-04-2.00508E-13
 -1      2085 1.48364E-02 6.07444E-04-2.09861E-13
 -1      2086 1.46935E-02 6.07612E-04-2.06433E-13
 -1      2087 1.46775E-02 5.81648E-04-2.06159E-13
 -1      2088 1.48616E-02 5.75447E-04-2.10602E-13
 -1      2089 1.48306E-02 3.40583E-04-2.10855E-13
 -1      2090 1.48305E-02 3.82762E-04-2.10676E-13
 -1      2091 1.48304E-02 4.24934E-04-2.10494E-13
 -1      2092 1.48303E-02 4.67101E-04-2.10313E-13
 -1      2093 1.47067E-02 4.04006E-04-2.07613E-13
 -1      2094 1.48460E-02 5.00200E-04-2.10549E-13
 -1      2095 1.48459E-02 5.42356E-04-2.10364E-13
 -1      2096 1.47538E-02 5.45457E-04-2.08143E-13
 -1      2097 1.47223E-02 4.79270E-04-2.07669E-13
 -1      2098 1.48309E-02 2.57638E-04-2.11199E-13
 -1      2099 1.48307E-02 2.99113E-04-2.11027E-13
 -1      2100 1.47070E-02 3.20371E-04-2.07966E-13
 -1      2101 1.48312E-02 1.73243E-04-2.11531E-13
 -1      2102 1.48310E-02 2.15443E-04-2.11367E-13
 -1      2103 1.47072E-02 2.36718E-04-2.08302E-13
 -1      2104 1.48316E-02 8.88336E-05-2.11849E-13
 -1      2105 1.48314E-02 1.31040E-04-2.11693E-13
 -1      2106 1.47075E-02 1.52333E-04-2.08629E-13
 -1      2107 1.48320E-02 4.41514E-06-2.12156E-13
 -1      2108 1.48318E-02 4.66248E-05-2.12003E-13
 -1      2109 1.47079E-02 6.79379E-05-2.08941E-13
 -1      2110 1.48325E-02-8.00051E-05-2.12443E-13
 -1      2111 1.48323E-02-3.77955E-05-2.12301E-13
 -1      2112 1.47084E-02-1.64634E-05-2.09239E-13
 -1      2113 1.48332E-02-1.64420E-04-2.12708E-13
 -1      2114 1.48328E-02-1.22214E-04-2.12580E-13
 -1      2115 1.47090E-02-1.00865E-04-2.09519E-13
 -1      2116 1.48338E-02-2.47392E-04-2.12950E-13
 -1      2117 1.48335E-02-2.05908E-04-2.12831E-13
 -1      2118 1.47096E-02-1.84545E-04-2.09776E-13
 -1      2119 1.48346E-02-3.31777E-04-2.13179E-13
 -1      2120 1.48342E-02-2.89588E-04-2.13068E-13
 -1      2121 1.47103E-02-2.68214E-04-2.10014E-13
 -1      2122 1.48354E-02-4.16141E-04-2.13384E-13
 -1      2123 1.48350E-02-3.73962E-04-2.13282E-13
 -1      2124 1.47111E-02-3.52583E-04-2.10233E-13
 -1      2125 1.48362E-02-5.00480E-04-2.13576E-13
 -1      2126 1.48358E-02-4.58313E-04-2.13481E-13
 -1      2127 1.47119E-02-4.36932E-04-2.10432E-13
 -1      2128 6.64085E-03 1.63282E-04-3.25287E-14
 -1      2129 6.78449E-03 1.07561E-04-3.31167E-14
 -1      2130 7.03952E-03 5.56667E-06-3.40625E-14
 -1      2131 7.04029E-03-1.05777E-05-3.40744E-14
 -1      2132 6.91915E-03 5.61928E-05-3.36994E-14
 -1      2133 6.99700E-03 3.08962E-05-3.39580E-14
 -1      2134 6.27798E-03 3.29272E-04-3.10372E-14
 -1      2135 6.45340E-03 2.44453E-04-3.17832E-14
 -1      2136 6.84031E-03-9.82457E-05-3.35408E-14
 -1      2137 6.73991E-03-1.32128E-04-3.33359E-14
 -1      2138 6.89352E-03-5.94890E-05-3.46917E-14
 -1      2139 5.44791E-03 7.72246E-04-2.71851E-14
 -1      2140 5.62353E-03 6.69075E-04-2.82283E-14
 -1      2141 5.88226E-03 5.27610E-04-2.94767E-14
 -1      2142 6.08259E-03 4.24974E-04-3.02509E-14
 -1      2143 6.16513E-03 3.56037E-04-3.12952E-14
 -1      2144 3.27887E-04-6.09466E-05-3.03590E-16
 -1      2145 3.33175E-04-7.34695E-05-2.93575E-16
 -1      2146 4.53604E-04-1.08500E-04-4.27216E-16
 -1      2147 4.38253E-04-7.52863E-05-4.53603E-16
 -1      2148 5.13479E-03 9.18650E-04-2.52642E-14
 -1      2149 5.28876E-03 8.51745E-04-2.62131E-14
 -1      2150 5.35478E-03 8.11906E-04-2.69922E-14
 -1      2151 4.79293E-03 9.86461E-04-2.31117E-14
 -1      2152 4.94038E-03 9.70366E-04-2.40390E-14
 -1      2153 4.46967E-03 9.35073E-04-2.11454E-14
 -1      2154 4.62152E-03 9.76653E-04-2.20510E-14
 -1      2155 4.09040E-03 7.65740E-04-1.93503E-14
 -1      2156 4.25994E-03 8.51566E-04-2.00871E-14
 -1      2157 3.73893E-03 5.77515E-04-1.80976E-14
 -1      2158 3.91736E-03 6.77361E-04-1.87185E-14
 -1      2159 4.03292E-03 7.20728E-04-1.87269E-14
 -1      2160 3.32315E-03 3.56969E-04-1.68664E-14
 -1      2161 3.50574E-03 4.51478E-04-1.73586E-14
 -1      2162 2.96179E-03 1.87772E-04-1.59777E-14
 -1      2163 3.12957E-03 2.64551E-04-1.63959E-14
 -1      2164 2.65615E-03 7.40307E-05-1.54466E-14
 -1      2165 2.77913E-03 1.15450E-04-1.56307E-14
 -1      2166 2.51254E-03 1.57515E-05-1.52430E-14
 -1      2167 2.55991E-03 3.53975E-05-1.52672E-14
 -1      2168 2.53028E-03-2.57250E-05-1.53617E-14
 -1      2169 2.50189E-03-7.52907E-06-1.52958E-14
 -1      2170 2.71318E-03-9.05871E-05-1.57181E-14
 -1      2171 2.61141E-03-5.62348E-05-1.54510E-14
 -1      2172 2.99402E-03-1.97096E-04-1.63755E-14
 -1      2173 2.83957E-03-1.39278E-04-1.60407E-14
 -1      2174 2.77026E-03-9.20545E-05-1.52983E-14
 -1      2175 3.41619E-03-3.98453E-04-1.75961E-14
 -1      2176 3.23349E-03-3.03136E-04-1.70052E-14
 -1      2177 3.78215E-03-5.98918E-04-1.88723E-14
 -1      2178 3.59682E-03-4.96292E-04-1.82246E-14
 -1      2179 3.52144E-03-4.27067E-04-1.74428E-14
 -1      2180 4.18104E-03-8.17943E-04-2.06345E-14
 -1      2181 4.01698E-03-7.27961E-04-1.98543E-14
 -1      2182 4.50103E-03-9.49003E-04-2.23768E-14
 -1      2183 4.35542E-03-8.96200E-04-2.15632E-14
 -1      2184 4.80562E-03-9.89147E-04-2.42152E-14
 -1      2185 4.66728E-03-9.82328E-04-2.33541E-14
 -1      2186 5.10730E-03-9.31658E-04-2.61422E-14
 -1      2187 4.96918E-03-9.72218E-04-2.52645E-14
 -1      2188 5.41991E-03-7.89957E-04-2.80099E-14
 -1      2189 5.26304E-03-8.71402E-04-2.70675E-14
 -1      2190 5.16301E-03-9.11644E-04-2.68119E-14
 -1      2191 5.83046E-03-5.66681E-04-3.00254E-14
 -1      2192 5.65364E-03-6.64415E-04-2.92554E-14
 -1      2193 6.18215E-03-3.74351E-04-3.15779E-14
 -1      2194 6.00734E-03-4.71051E-04-3.07964E-14
 -1      2195 5.89661E-03-5.05243E-04-3.10405E-14
 -1      2196 6.57067E-03-1.97020E-04-3.29051E-14
 -1      2197 6.40886E-03-2.63836E-04-3.24498E-14
 -1      2198 5.61546E-03 6.57527E-04-2.89713E-14
 -1      2199 5.73294E-03 5.92558E-04-2.92262E-14
 -1      2200 5.84222E-03 5.21349E-04-3.02426E-14
 -1      2201 7.02495E-03-1.94833E-05-3.49555E-14
 -1      2202 6.34586E-04-2.59356E-04-4.50933E-16
 -1      2203 6.91463E-04-2.47447E-04-6.06543E-16
 -1      2204 6.85629E-03 6.62408E-05-3.41988E-14
 -1      2205 7.02760E-03 1.23383E-05-3.48988E-14
 -1      2206 1.47948E-02-5.34156E-04-2.12636E-13
 -1      2207 6.53659E-03 1.84671E-04-3.28502E-14
 -1      2208 6.66308E-03-1.38254E-04-3.40365E-14
 -1      2209 6.28383E-03-3.01572E-04-3.27061E-14
 -1      2210 5.51465E-03-7.28938E-04-2.89920E-14
 -1      2211 4.88673E-03-9.92649E-04-2.48264E-14
 -1      2212 4.59124E-03-9.76324E-04-2.28015E-14
 -1      2213 3.91117E-03-6.53134E-04-1.90141E-14
 -1      2214 3.11647E-03-2.28784E-04-1.62158E-14
 -1      2215 2.56287E-03-3.16837E-05-1.49054E-14
 -1      2216 2.49781E-03 2.70228E-06-1.47702E-14
 -1      2217 2.60017E-03 4.09658E-05-1.48923E-14
 -1      2218 2.87371E-03 1.34271E-04-1.54034E-14
 -1      2219 3.65299E-03 5.06004E-04-1.73760E-14
 -1      2220 5.03826E-03 9.52739E-04-2.47763E-14
 -1      2221 4.37738E-03 9.00266E-04-2.03848E-14
 -1      2222 4.70751E-03 9.93653E-04-2.24924E-14
 -1      2223 3.24498E-03 2.91111E-04-1.61987E-14
 -1      2224 4.28534E-03-8.61392E-04-2.09055E-14
 -1      2225 1.06437E-03 3.37445E-04-1.01943E-15
 -1      2226 9.11340E-04 3.07781E-04-7.41947E-16
 -1      2227 5.22154E-04-3.27508E-05-6.72463E-16
 -1      2228 5.27117E-04-4.39279E-05-6.70416E-16
 -1      2229 5.33255E-04-5.63969E-05-6.66378E-16
 -1      2230 5.40401E-04-7.03346E-05-6.60103E-16
 -1      2231 6.40016E-04-6.03717E-05-9.04672E-16
 -1      2232 5.14633E-04 5.11319E-06-6.62475E-16
 -1      2233 5.14567E-04-3.86180E-06-6.67394E-16
 -1      2234 5.18675E-04 2.38629E-05-6.47336E-16
 -1      2235 5.16018E-04 1.42808E-05-6.55861E-16
 -1      2236 6.20970E-04 1.17213E-05-8.92271E-16
 -1      2237 5.27495E-04 4.51205E-05-6.25165E-16
 -1      2238 5.22530E-04 3.40267E-05-6.37240E-16
 -1      2239 6.27708E-04 3.48404E-05-8.70560E-16
 -1      2240 5.40930E-04 7.17995E-05-5.93465E-16
 -1      2241 5.33710E-04 5.77134E-05-6.10894E-16
 -1      2242 6.40554E-04 6.18311E-05-8.39159E-16
 -1      2243 5.58535E-04 1.05817E-04-5.49284E-16
 -1      2244 5.49263E-04 8.77791E-05-5.73272E-16
 -1      2245 6.59060E-04 9.53926E-05-7.95154E-16
 -1      2246 5.80708E-04 1.49797E-04-4.87783E-16
 -1      2247 5.69066E-04 1.26414E-04-5.21325E-16
 -1      2248 6.82771E-04 1.37717E-04-7.34642E-16
 -1      2249 9.52298E-04-2.86270E-04-1.16031E-15
 -1      2250 1.10382E-03-3.13181E-04-1.52347E-15
 -1      2251 1.36969E-03 3.84774E-04-1.72219E-15
 -1      2252 1.21693E-03 3.62946E-04-1.34593E-15
 -1      2253 1.11619E-03 3.14269E-04-1.25899E-15
 -1      2254 6.09328E-04-1.94774E-04-5.58649E-16
 -1      2255 8.11151E-04-2.51113E-04-8.85847E-16
 -1      2256 8.66958E-04-2.35185E-04-1.07954E-15
 -1      2257 5.94726E-04-1.65896E-04-5.91581E-16
 -1      2258 1.25519E-03-3.36397E-04-1.93914E-15
 -1      2259 1.40699E-03-3.56516E-04-2.40812E-15
 -1      2260 1.15546E-03-2.90075E-04-1.77884E-15
 -1      2261 1.55908E-03-3.74733E-04-2.92984E-15
 -1      2262 1.71187E-03-3.91617E-04-3.50449E-15
 -1      2263 1.45544E-03-3.28919E-04-2.72483E-15
 -1      2264 1.86551E-03-4.08287E-04-4.13118E-15
 -1      2265 2.02023E-03-4.25411E-04-4.81029E-15
 -1      2266 1.75765E-03-3.61333E-04-3.87914E-15
 -1      2267 2.17635E-03-4.44026E-04-5.54111E-15
 -1      2268 2.33392E-03-4.64932E-04-6.32438E-15
 -1      2269 2.06370E-03-3.93769E-04-5.24015E-15
 -1      2270 2.49344E-03-4.89059E-04-7.15915E-15
 -1      2271 2.65467E-03-5.17311E-04-8.04565E-15
 -1      2272 2.37580E-03-4.33052E-04-6.80651E-15
 -1      2273 2.81831E-03-5.50388E-04-8.98348E-15
 -1      2274 2.98368E-03-5.89164E-04-9.97311E-15
 -1      2275 2.69640E-03-4.86323E-04-8.57704E-15
 -1      2276 3.15162E-03-6.33866E-04-1.10149E-14
 -1      2277 3.32079E-03-6.84863E-04-1.21090E-14
 -1      2278 3.02768E-03-5.60512E-04-1.05518E-14
 -1      2279 3.49191E-03-7.41588E-04-1.32554E-14
 -1      2280 3.66303E-03-8.03090E-04-1.44553E-14
 -1      2281 3.37006E-03-6.60502E-04-1.27324E-14
 -1      2282 3.83440E-03-8.67562E-04-1.57102E-14
 -1      2283 4.00400E-03-9.31959E-04-1.70205E-14
 -1      2284 3.72006E-03-7.84959E-04-1.51241E-14
 -1      2285 4.17134E-03-9.93292E-04-1.83873E-14
 -1      2286 4.33590E-03-1.04625E-03-1.98110E-14
 -1      2287 4.06905E-03-9.20055E-04-1.77349E-14
 -1      2288 4.49664E-03-1.08752E-03-2.12933E-14
 -1      2289 4.65594E-03-1.11231E-03-2.28352E-14
 -1      2290 4.40705E-03-1.03478E-03-2.05740E-14
 -1      2291 4.81257E-03-1.11875E-03-2.44353E-14
 -1      2292 4.97100E-03-1.10604E-03-2.60937E-14
 -1      2293 4.73204E-03-1.08959E-03-2.36496E-14
 -1      2294 5.13000E-03-1.07516E-03-2.78094E-14
 -1      2295 5.29288E-03-1.02988E-03-2.95823E-14
 -1      2296 5.05466E-03-1.06143E-03-2.69636E-14
 -1      2297 5.45851E-03-9.73315E-04-3.14103E-14
 -1      2298 5.62729E-03-9.10955E-04-3.32902E-14
 -1      2299 5.38821E-03-9.62578E-04-3.05070E-14
 -1      2300 5.79850E-03-8.46109E-04-3.52228E-14
 -1      2301 5.97044E-03-7.82887E-04-3.72072E-14
 -1      2302 5.73516E-03-8.30172E-04-3.42688E-14
 -1      2303 6.14308E-03-7.23579E-04-3.92394E-14
 -1      2304 6.31436E-03-6.69838E-04-4.13192E-14
 -1      2305 6.08710E-03-7.00539E-04-3.82350E-14
 -1      2306 6.48482E-03-6.22740E-04-4.34445E-14
 -1      2307 6.65294E-03-5.82327E-04-4.56143E-14
 -1      2308 6.43416E-03-5.94076E-04-4.23931E-14
 -1      2309 6.81947E-03-5.48763E-04-4.78284E-14
 -1      2310 6.98355E-03-5.21371E-04-5.00866E-14
 -1      2311 6.77095E-03-5.16317E-04-4.67313E-14
 -1      2312 7.14586E-03-4.99797E-04-5.23876E-14
 -1      2313 7.30604E-03-4.83235E-04-5.47270E-14
 -1      2314 7.09665E-03-4.64849E-04-5.12418E-14
 -1      2315 7.46457E-03-4.71110E-04-5.71067E-14
 -1      2316 7.62137E-03-4.62715E-04-5.95264E-14
 -1      2317 7.41281E-03-4.34429E-04-5.59182E-14
 -1      2318 7.77674E-03-4.57449E-04-6.19830E-14
 -1      2319 7.93074E-03-4.54764E-04-6.44767E-14
 -1      2320 7.72157E-03-4.19546E-04-6.07505E-14
 -1      2321 8.08353E-03-4.54134E-04-6.70060E-14
 -1      2322 8.23524E-03-4.55160E-04-6.95686E-14
 -1      2323 8.02482E-03-4.15403E-04-6.57316E-14
 -1      2324 8.38592E-03-4.57428E-04-7.21659E-14
 -1      2325 8.53576E-03-4.60657E-04-7.47962E-14
 -1      2326 8.32398E-03-4.18194E-04-7.08532E-14
 -1      2327 8.68474E-03-4.64549E-04-7.74567E-14
 -1      2328 8.83303E-03-4.68910E-04-8.01513E-14
 -1      2329 8.62004E-03-4.25077E-04-7.61059E-14
 -1      2330 8.98063E-03-4.73540E-04-8.28782E-14
 -1      2331 9.12768E-03-4.78310E-04-8.56362E-14
 -1      2332 8.91374E-03-4.34030E-04-8.14891E-14
 -1      2333 9.27415E-03-4.83095E-04-8.84259E-14
 -1      2334 9.42019E-03-4.87811E-04-9.12451E-14
 -1      2335 9.20558E-03-4.43686E-04-8.69996E-14
 -1      2336 9.56576E-03-4.92391E-04-9.40941E-14
 -1      2337 9.71099E-03-4.96782E-04-9.69734E-14
 -1      2338 9.49595E-03-4.53172E-04-9.26316E-14
 -1      2339 9.85586E-03-5.00956E-04-9.98806E-14
 -1      2340 1.00005E-02-5.04882E-04-1.02817E-13
 -1      2341 9.78517E-03-4.61972E-04-9.83836E-14
 -1      2342 1.01448E-02-5.08556E-04-1.05780E-13
 -1      2343 1.02889E-02-5.11963E-04-1.08769E-13
 -1      2344 1.00735E-02-4.69824E-04-1.04247E-13
 -1      2345 1.04327E-02-5.15115E-04-1.11785E-13
 -1      2346 1.05765E-02-5.18006E-04-1.14829E-13
 -1      2347 1.03611E-02-4.76629E-04-1.10222E-13
 -1      2348 1.07200E-02-5.20656E-04-1.17900E-13
 -1      2349 1.08635E-02-5.23066E-04-1.20996E-13
 -1      2350 1.06481E-02-4.82397E-04-1.16302E-13
 -1      2351 1.10068E-02-5.25259E-04-1.24116E-13
 -1      2352 1.11500E-02-5.27240E-04-1.27260E-13
 -1      2353 1.09348E-02-4.87203E-04-1.22489E-13
 -1      2354 1.12932E-02-5.29033E-04-1.30425E-13
 -1      2355 1.14363E-02-5.30646E-04-1.33611E-13
 -1      2356 1.12211E-02-4.91151E-04-1.28771E-13
 -1      2357 1.15793E-02-5.32099E-04-1.36816E-13
 -1      2358 1.17223E-02-5.33401E-04-1.40038E-13
 -1      2359 1.15072E-02-4.94363E-04-1.35138E-13
 -1      2360 1.18652E-02-5.34573E-04-1.43281E-13
 -1      2361 1.20081E-02-5.35622E-04-1.46538E-13
 -1      2362 1.17931E-02-4.96957E-04-1.41583E-13
 -1      2363 1.21510E-02-5.36566E-04-1.49812E-13
 -1      2364 1.22939E-02-5.37412E-04-1.53103E-13
 -1      2365 1.20790E-02-4.99045E-04-1.48098E-13
 -1      2366 1.24367E-02-5.38174E-04-1.56409E-13
 -1      2367 1.25796E-02-5.38861E-04-1.59729E-13
 -1      2368 1.23647E-02-5.00729E-04-1.54678E-13
 -1      2369 1.27224E-02-5.39483E-04-1.63064E-13
 -1      2370 1.28652E-02-5.40047E-04-1.66418E-13
 -1      2371 1.26504E-02-5.02095E-04-1.61320E-13
 -1      2372 1.30080E-02-5.40563E-04-1.69783E-13
 -1      2373 1.31509E-02-5.41036E-04-1.73161E-13
 -1      2374 1.29361E-02-5.03218E-04-1.68021E-13
 -1      2375 1.32937E-02-5.41475E-04-1.76551E-13
 -1      2376 1.34365E-02-5.41883E-04-1.79954E-13
 -1      2377 1.32218E-02-5.04160E-04-1.74779E-13
 -1      2378 1.35793E-02-5.42269E-04-1.83367E-13
 -1      2379 1.37221E-02-5.42634E-04-1.86786E-13
 -1      2380 1.35075E-02-5.04973E-04-1.81581E-13
 -1      2381 1.38650E-02-5.42985E-04-1.90214E-13
 -1      2382 1.40078E-02-5.43326E-04-1.93648E-13
 -1      2383 1.37932E-02-5.05701E-04-1.88422E-13
 -1      2384 1.41506E-02-5.43661E-04-1.97091E-13
 -1      2385 1.42935E-02-5.43992E-04-2.00538E-13
 -1      2386 1.40788E-02-5.06379E-04-1.95289E-13
 -1      2387 1.98629E-03 4.57320E-04-3.72758E-15
 -1      2388 1.83077E-03 4.39723E-04-3.15110E-15
 -1      2389 2.30135E-03 4.97036E-04-5.03260E-15
 -1      2390 2.14316E-03 4.76191E-04-4.35475E-15
 -1      2391 2.03215E-03 4.25839E-04-4.16545E-15
 -1      2392 2.62262E-03 5.48510E-04-6.54076E-15
 -1      2393 2.46128E-03 5.20894E-04-5.76080E-15
 -1      2394 2.34585E-03 4.65727E-04-5.53332E-15
 -1      2395 2.95046E-03 6.18185E-04-8.25372E-15
 -1      2396 2.78593E-03 5.80727E-04-7.37150E-15
 -1      2397 2.66670E-03 5.18672E-04-7.10251E-15
 -1      2398 3.28394E-03 7.10181E-04-1.01760E-14
 -1      2399 3.11688E-03 6.61276E-04-9.18808E-15
 -1      2400 2.99592E-03 5.91197E-04-8.87521E-15
 -1      2401 3.62008E-03 8.23252E-04-1.23091E-14
 -1      2402 3.45223E-03 7.64447E-04-1.12164E-14
 -1      2403 3.33322E-03 6.87467E-04-1.08553E-14
 -1      2404 3.95363E-03 9.46909E-04-1.46591E-14
 -1      2405 3.78776E-03 8.84914E-04-1.34566E-14
 -1      2406 3.67544E-03 8.05841E-04-1.30460E-14
 -1      2407 4.27870E-03 1.05913E-03-1.72336E-14
 -1      2408 4.11742E-03 1.00631E-03-1.59177E-14
 -1      2409 4.01589E-03 9.33866E-04-1.54534E-14
 -1      2410 4.59312E-03 1.13080E-03-2.00396E-14
 -1      2411 4.43671E-03 1.10188E-03-1.86074E-14
 -1      2412 4.34705E-03 1.04552E-03-1.80879E-14
 -1      2413 4.90168E-03 1.13893E-03-2.30829E-14
 -1      2414 4.74695E-03 1.14364E-03-2.15315E-14
 -1      2415 4.66673E-03 1.10775E-03-2.09566E-14
 -1      2416 5.21420E-03 1.08024E-03-2.63623E-14
 -1      2417 5.05639E-03 1.11704E-03-2.46934E-14
 -1      2418 4.98224E-03 1.09765E-03-2.40660E-14
 -1      2419 5.53759E-03 9.74281E-04-2.98704E-14
 -1      2420 5.37423E-03 1.03124E-03-2.80884E-14
 -1      2421 5.30500E-03 1.01876E-03-2.74114E-14
 -1      2422 5.87133E-03 8.50710E-04-3.35953E-14
 -1      2423 5.70356E-03 9.12901E-04-3.17069E-14
 -1      2424 5.64011E-03 8.98983E-04-3.09839E-14
 -1      2425 6.21009E-03 7.34468E-04-3.75243E-14
 -1      2426 6.04071E-03 7.90535E-04-3.55342E-14
 -1      2427 5.98334E-03 7.71383E-04-3.47695E-14
 -1      2428 6.54809E-03 6.39741E-04-4.16477E-14
 -1      2429 6.37972E-03 6.84007E-04-3.95630E-14
 -1      2430 6.32695E-03 6.59121E-04-3.87563E-14
 -1      2431 6.88154E-03 5.70603E-04-4.59577E-14
 -1      2432 6.71571E-03 6.02025E-04-4.37800E-14
 -1      2433 6.66490E-03 5.72411E-04-4.29331E-14
 -1      2434 7.20884E-03 5.25038E-04-5.04440E-14
 -1      2435 7.04611E-03 5.45125E-04-4.81790E-14
 -1      2436 6.99473E-03 5.11939E-04-4.72921E-14
 -1      2437 7.52971E-03 4.98473E-04-5.51028E-14
 -1      2438 7.37012E-03 5.09681E-04-5.27525E-14
 -1      2439 7.31642E-03 4.73893E-04-5.18250E-14
 -1      2440 7.84452E-03 4.85886E-04-5.99261E-14
 -1      2441 7.68785E-03 4.90710E-04-5.74925E-14
 -1      2442 7.63098E-03 4.53106E-04-5.65254E-14
 -1      2443 8.15390E-03 4.82824E-04-6.49060E-14
 -1      2444 7.99984E-03 4.83391E-04-6.23966E-14
 -1      2445 7.93967E-03 4.44609E-04-6.13880E-14
 -1      2446 8.45855E-03 4.85756E-04-7.00412E-14
 -1      2447 8.30676E-03 4.83713E-04-6.74547E-14
 -1      2448 8.24359E-03 4.44255E-04-6.64089E-14
 -1      2449 8.75918E-03 4.92079E-04-7.53207E-14
 -1      2450 8.60931E-03 4.88618E-04-7.26631E-14
 -1      2451 8.54362E-03 4.48864E-04-7.15798E-14
 -1      2452 9.05644E-03 4.99979E-04-8.07406E-14
 -1      2453 8.90817E-03 4.95918E-04-7.80133E-14
 -1      2454 8.84051E-03 4.56138E-04-7.68933E-14
 -1      2455 9.35095E-03 5.08262E-04-8.62993E-14
 -1      2456 9.20399E-03 5.04130E-04-8.35035E-14
 -1      2457 9.13485E-03 4.64501E-04-8.23464E-14
 -1      2458 9.64322E-03 5.16189E-04-9.19837E-14
 -1      2459 9.49732E-03 5.12306E-04-8.91257E-14
 -1      2460 9.42713E-03 4.72931E-04-8.79339E-14
 -1      2461 9.93374E-03 5.23344E-04-9.77957E-14
 -1      2462 9.78867E-03 5.19884E-04-9.48745E-14
 -1      2463 9.71776E-03 4.80814E-04-9.36484E-14
 -1      2464 1.02229E-02 5.29533E-04-1.03719E-13
 -1      2465 1.00785E-02 5.26570E-04-1.00744E-13
 -1      2466 1.00071E-02 4.87817E-04-9.94842E-14
 -1      2467 1.05110E-02 5.34703E-04-1.09753E-13
 -1      2468 1.03670E-02 5.32249E-04-1.06723E-13
 -1      2469 1.02954E-02 4.93800E-04-1.05433E-13
 -1      2470 1.07983E-02 5.38889E-04-1.15891E-13
 -1      2471 1.06547E-02 5.36918E-04-1.12808E-13
 -1      2472 1.05830E-02 4.98747E-04-1.11489E-13
 -1      2473 1.10850E-02 5.42179E-04-1.22126E-13
 -1      2474 1.09417E-02 5.40643E-04-1.18997E-13
 -1      2475 1.08699E-02 5.02715E-04-1.17645E-13
 -1      2476 1.13714E-02 5.44681E-04-1.28458E-13
 -1      2477 1.12282E-02 5.43524E-04-1.25281E-13
 -1      2478 1.11564E-02 5.05804E-04-1.23903E-13
 -1      2479 1.16574E-02 5.46515E-04-1.34884E-13
 -1      2480 1.15144E-02 5.45677E-04-1.31659E-13
 -1      2481 1.14427E-02 5.08129E-04-1.30254E-13
 -1      2482 1.19433E-02 5.47792E-04-1.41398E-13
 -1      2483 1.18004E-02 5.47218E-04-1.38131E-13
 -1      2484 1.17287E-02 5.09811E-04-1.36698E-13
 -1      2485 1.22290E-02 5.48620E-04-1.47997E-13
 -1      2486 1.20861E-02 5.48257E-04-1.44685E-13
 -1      2487 1.20145E-02 5.10962E-04-1.43229E-13
 -1      2488 1.25146E-02 5.49090E-04-1.54670E-13
 -1      2489 1.23718E-02 5.48895E-04-1.51325E-13
 -1      2490 1.23003E-02 5.11687E-04-1.49842E-13
 -1      2491 1.28003E-02 5.49282E-04-1.61409E-13
 -1      2492 1.26575E-02 5.49217E-04-1.58032E-13
 -1      2493 1.25859E-02 5.12075E-04-1.56528E-13
 -1      2494 1.30859E-02 5.49265E-04-1.68191E-13
 -1      2495 1.29431E-02 5.49297E-04-1.64794E-13
 -1      2496 1.28716E-02 5.12204E-04-1.63273E-13
 -1      2497 1.33715E-02 5.49095E-04-1.75006E-13
 -1      2498 1.32287E-02 5.49196E-04-1.71596E-13
 -1      2499 1.31572E-02 5.12138E-04-1.70060E-13
 -1      2500 1.36571E-02 5.48820E-04-1.81839E-13
 -1      2501 1.35143E-02 5.48968E-04-1.78421E-13
 -1      2502 1.34429E-02 5.11933E-04-1.76878E-13
 -1      2503 1.39427E-02 5.48478E-04-1.88679E-13
 -1      2504 1.37999E-02 5.48655E-04-1.85257E-13
 -1      2505 1.37285E-02 5.11633E-04-1.83708E-13
 -1      2506 1.42284E-02 5.48105E-04-1.95528E-13
 -1      2507 1.40856E-02 5.48294E-04-1.92102E-13
 -1      2508 1.40142E-02 5.11275E-04-1.90550E-13
 -1      2509 1.45141E-02 5.47728E-04-2.02381E-13
 -1      2510 1.43712E-02 5.47915E-04-1.98954E-13
 -1      2511 1.42999E-02 5.10894E-04-1.97399E-13
 -1      2512 1.46617E-02 5.48561E-04-2.05919E-13
 -1      2513 1.45836E-02 2.15809E-04-2.05408E-13
 -1      2514 1.45834E-02 2.57991E-04-2.05244E-13
 -1      2515 1.45839E-02 1.31435E-04-2.05726E-13
 -1      2516 1.45837E-02 1.73623E-04-2.05568E-13
 -1      2517 1.44599E-02 1.94908E-04-2.02511E-13
 -1      2518 1.45831E-02 3.83087E-04-2.04730E-13
 -1      2519 1.45829E-02 4.25253E-04-2.04551E-13
 -1      2520 1.45833E-02 2.99813E-04-2.05074E-13
 -1      2521 1.45832E-02 3.41273E-04-2.04904E-13
 -1      2522 1.44594E-02 3.62532E-04-2.01843E-13
 -1      2523 1.44596E-02 2.78905E-04-2.02184E-13
 -1      2524 1.45843E-02 4.70526E-05-2.06032E-13
 -1      2525 1.45841E-02 8.92441E-05-2.05881E-13
 -1      2526 1.44603E-02 1.10545E-04-2.02823E-13
 -1      2527 1.45848E-02-3.73329E-05-2.06324E-13
 -1      2528 1.45845E-02 4.85971E-06-2.06180E-13
 -1      2529 1.44607E-02 2.61756E-05-2.03124E-13
 -1      2530 1.45854E-02-1.21717E-04-2.06596E-13
 -1      2531 1.45851E-02-7.95258E-05-2.06461E-13
 -1      2532 1.44612E-02-5.81953E-05-2.03406E-13
 -1      2533 1.45860E-02-2.04666E-04-2.06843E-13
 -1      2534 1.45857E-02-1.63193E-04-2.06723E-13
 -1      2535 1.44618E-02-1.41849E-04-2.03670E-13
 -1      2536 1.45868E-02-2.89034E-04-2.07078E-13
 -1      2537 1.45864E-02-2.46852E-04-2.06963E-13
 -1      2538 1.44625E-02-2.25498E-04-2.03914E-13
 -1      2539 1.45875E-02-3.73388E-04-2.07290E-13
 -1      2540 1.45871E-02-3.31213E-04-2.07189E-13
 -1      2541 1.44632E-02-3.09852E-04-2.04142E-13
 -1      2542 1.45883E-02-4.57725E-04-2.07487E-13
 -1      2543 1.45879E-02-4.15559E-04-2.07388E-13
 -1      2544 1.44640E-02-3.94194E-04-2.04349E-13
 -1      2545 7.01765E-03 1.27571E-05-3.58933E-14
 -1      2546 7.05496E-03 2.85433E-06-3.60029E-14
 -1      2547 6.44962E-03 2.06698E-04-3.33951E-14
 -1      2548 6.62193E-03 1.37186E-04-3.41632E-14
 -1      2549 1.67630E-03 4.22278E-04-2.62457E-15
 -1      2550 1.52267E-03 4.04370E-04-2.14799E-15
 -1      2551 1.72386E-03 3.91935E-04-2.99767E-15
 -1      2552 6.79232E-03 7.66534E-05-3.48518E-14
 -1      2553 6.91985E-03 4.07207E-05-3.54503E-14
 -1      2554 1.46668E-02-5.32170E-04-2.09534E-13
 -1      2555 6.74771E-03-9.77968E-05-3.51820E-14
 -1      2556 6.59586E-03-1.51501E-04-3.47336E-14
 -1      2557 4.92927E-03-9.93461E-04-2.52949E-14
 -1      2558 4.79951E-03-1.00910E-03-2.42466E-14
 -1      2559 2.58226E-03-3.05907E-05-1.43128E-14
 -1      2560 2.51238E-03-1.51028E-05-1.42361E-14
 -1      2561 4.94244E-03 9.85515E-04-2.41619E-14
 -1      2562 5.10103E-03 9.34297E-04-2.53903E-14
 -1      2563 7.05293E-03-9.09366E-06-3.59514E-14
 -1      2564 7.01240E-03-2.01264E-05-3.58999E-14
 -1      2565 7.06970E-03-2.66613E-06-3.69533E-14
 -1      2566 6.91066E-03-4.91260E-05-3.56171E-14
 -1      2567 6.83453E-03-6.93417E-05-3.54001E-14
 -1      2568 6.78013E-03-8.63361E-05-3.61062E-14
 -1      2569 5.15819E-04-1.29947E-05-6.70701E-16
 -1      2570 5.18349E-04-2.25078E-05-6.72544E-16
 -1      2571 6.27289E-04-3.33914E-05-9.09537E-16
 -1      2572 6.20798E-04-1.02171E-05-9.05214E-16
 -1      2573 6.08236E-03 3.87147E-04-3.15734E-14
 -1      2574 6.25518E-03 2.97656E-04-3.23828E-14
 -1      2575 3.16138E-03 2.36845E-04-1.54759E-14
 -1      2576 3.33765E-03 3.20821E-04-1.59218E-14
 -1      2577 4.65998E-03 9.95260E-04-2.20141E-14
 -1      2578 4.79701E-03 1.00385E-03-2.30734E-14
 -1      2579 4.87645E-03 1.00144E-03-2.36566E-14
 -1      2580 3.95355E-03 6.66607E-04-1.79814E-14
 -1      2581 4.09622E-03 7.53324E-04-1.85901E-14
 -1      2582 4.37915E-03-9.07719E-04-2.12256E-14
 -1      2583 4.23450E-03-8.31946E-04-2.03098E-14
 -1      2584 3.54897E-03 4.31838E-04-1.65463E-14
 -1      2585 3.75566E-03 5.51441E-04-1.72550E-14
 -1      2586 3.82796E-03 5.95785E-04-1.71214E-14
 -1      2587 2.78801E-03 9.14969E-05-1.47272E-14
 -1      2588 2.95854E-03 1.51580E-04-1.50552E-14
 -1      2589 2.55221E-03 2.32908E-05-1.42231E-14
 -1      2590 2.64365E-03 4.52552E-05-1.43929E-14
 -1      2591 2.48558E-03-3.23526E-06-1.41828E-14
 -1      2592 2.49116E-03 3.45463E-06-1.41316E-14
 -1      2593 2.48081E-03-8.54864E-06-1.36004E-14
 -1      2594 2.82473E-03-1.02505E-04-1.48962E-14
 -1      2595 2.70877E-03-6.70882E-05-1.45936E-14
 -1      2596 3.21951E-03-2.64012E-04-1.59596E-14
 -1      2597 3.00456E-03-1.70606E-04-1.53656E-14
 -1      2598 3.61372E-03-4.69915E-04-1.72682E-14
 -1      2599 3.45403E-03-3.81180E-04-1.66676E-14
 -1      2600 4.02466E-03-7.13893E-04-1.91475E-14
 -1      2601 3.82284E-03-5.90690E-04-1.81951E-14
 -1      2602 4.66668E-03-9.99772E-04-2.32479E-14
 -1      2603 4.53510E-03-9.66755E-04-2.22756E-14
 -1      2604 4.72780E-03-1.01185E-03-2.36947E-14
 -1      2605 5.22437E-03-8.84925E-04-2.75585E-14
 -1      2606 5.09959E-03-9.43190E-04-2.66219E-14
 -1      2607 5.60602E-03-6.67584E-04-3.01263E-14
 -1      2608 5.40780E-03-7.87888E-04-2.88570E-14
 -1      2609 5.97040E-03-4.52878E-04-3.21590E-14
 -1      2610 5.81709E-03-5.42911E-04-3.13657E-14
 -1      2611 6.38264E-03-2.42083E-04-3.39572E-14
 -1      2612 6.17638E-03-3.42591E-04-3.30595E-14
 -1      2613 7.91316E-04 2.84957E-04-5.44568E-16
 -1      2614 6.37456E-04 2.43963E-04-3.55361E-16
 -1      2615 6.07938E-04 2.16927E-04-3.72139E-16
 -1      2616 8.46206E-04 2.68093E-04-7.22363E-16
 -1      2617 4.28979E-03 8.58090E-04-1.95754E-14
 -1      2618 4.46013E-03 9.39997E-04-2.06111E-14
 -1      2619 5.27064E-03 8.58562E-04-2.67037E-14
 -1      2620 5.40358E-03 7.83071E-04-2.76867E-14
 -1      2621 6.37222E-03 2.43834E-04-3.36773E-14
 -1      2622 6.58284E-04-9.35337E-05-8.88477E-16
 -1      2623 5.48620E-04-8.60656E-05-6.50969E-16
 -1      2624 5.57762E-04-1.03808E-04-6.37917E-16
 -1      2625 6.98477E-03 2.42788E-05-3.65556E-14
 -1      2626 5.91288E-04 1.85168E-04-4.21700E-16
 -1      2627 4.19407E-03 8.12787E-04-1.87987E-14
 -1      2628 5.69365E-04-1.21210E-04-6.29447E-16
 -1      2629 5.80682E-04-1.43754E-04-6.08414E-16
 -1      2630 7.12462E-04-1.76119E-04-8.37167E-16
 -1      2631 6.82579E-04-1.32009E-04-8.66264E-16
 -1      2632 6.49834E-03-1.93804E-04-3.50944E-14
 -1      2633 6.09601E-03-3.89307E-04-3.33901E-14
 -1      2634 5.70437E-03-6.16220E-04-3.12181E-14
 -1      2635 1.45904E-02 5.11530E-04-2.04365E-13
 -1      2636 1.45747E-02 4.78439E-04-2.04130E-13
 -1      2637 7.09930E-04 2.00886E-04-6.20286E-16
 -1      2638 6.72221E-03 1.02656E-04-3.54056E-14
 -1      2639 4.12389E-03-7.76272E-04-1.94455E-14
 -1      2640 3.72648E-03-5.42377E-04-1.73867E-14
 -1      2641 1.41913E-03 3.57045E-04-2.02938E-15
 -1      2642 1.45181E-02-5.47027E-04-2.05966E-13
 -1      2643 1.45635E-02-4.93960E-04-2.06961E-13
 -1      2644 1.44396E-02-4.72594E-04-2.03921E-13
 -1      2645 1.43901E-02-5.45052E-04-2.02870E-13
 -1      2646 5.00553E-03-9.79246E-04-2.60127E-14
 -1      2647 3.30892E-03-3.14816E-04-1.57890E-14
 -1      2648 5.51793E-03 7.19718E-04-2.86682E-14
 -1      2649 5.63204E-03 6.57310E-04-2.96663E-14
 -1      2650 5.44331E-03 7.75666E-04-2.83605E-14
 -1      2651 2.50114E-03 1.12219E-05-1.36394E-14
 -1      2652 2.61694E-03-4.36831E-05-1.39215E-14
 -1      2653 3.43868E-03 3.74261E-04-1.58018E-14
 -1      2654 4.46340E-03-9.46712E-04-2.16485E-14
 -1      2655 4.55990E-03 9.78715E-04-2.11580E-14
 -1      2656 4.64463E-03 1.00274E-03-2.17087E-14
 -1      2657 4.46547E-03 9.50652E-04-2.03186E-14
 -1      2658 5.17080E-03 9.11342E-04-2.60559E-14
 -1      2659 7.03561E-03-1.97286E-05-3.76183E-14
 -1      2660 6.98063E-03-2.90514E-05-3.66122E-14
 -1      2661 6.94336E-03-4.09102E-05-3.73282E-14
 -1      2662 3.04223E-03 1.85880E-04-1.47860E-14
 -1      2663 1.43183E-02-5.07767E-04-2.01062E-13
 -1      2664 5.95305E-03 4.57460E-04-3.13047E-14
 -1      2665 6.06260E-03 4.04630E-04-3.23822E-14
 -1      2666 5.84457E-03 5.28998E-04-3.10320E-14
 -1      2667 2.70416E-03 6.43216E-05-1.40519E-14
 -1      2668 2.91234E-03-1.39179E-04-1.46472E-14
 -1      2669 5.33514E-03-8.33740E-04-2.86545E-14
 -1      2670 1.44510E-02 4.57525E-04-2.01250E-13
 -1      2671 7.39066E-04 4.78121E-05-1.12733E-15
 -1      2672 7.33021E-04 3.36185E-05-1.14379E-15
 -1      2673 7.28784E-04 2.00832E-05-1.15729E-15
 -1      2674 7.26617E-04 7.12565E-06-1.16813E-15
 -1      2675 8.38228E-04 3.01896E-05-1.45652E-15
 -1      2676 7.81103E-04 1.21118E-04-1.02601E-15
 -1      2677 7.68213E-04 9.97895E-05-1.05780E-15
 -1      2678 8.11544E-04 1.71475E-04-9.46956E-16
 -1      2679 7.95638E-04 1.44926E-04-9.89728E-16
 -1      2680 9.07095E-04 1.48742E-04-1.28559E-15
 -1      2681 6.66744E-03 1.28123E-04-3.59910E-14
 -1      2682 6.81894E-03 7.61146E-05-3.66996E-14
 -1      2683 1.05910E-03-2.46335E-04-1.61875E-15
 -1      2684 1.20648E-03-2.67008E-04-2.04380E-15
 -1      2685 1.16793E-03 2.91098E-04-1.51145E-15
 -1      2686 1.01852E-03 2.67822E-04-1.16599E-15
 -1      2687 8.26104E-04 2.21512E-04-8.25010E-16
 -1      2688 2.70825E-03 4.87477E-04-7.67141E-15
 -1      2689 2.54679E-03 4.58327E-04-6.83171E-15
 -1      2690 6.21988E-03-3.36484E-04-3.48146E-14
 -1      2691 6.03984E-03-4.35573E-04-3.38854E-14
 -1      2692 1.35423E-03-2.85238E-04-2.52036E-15
 -1      2693 1.50264E-03-3.01460E-04-3.04899E-15
 -1      2694 1.25614E-03-2.43901E-04-2.31812E-15
 -1      2695 1.65160E-03-3.16536E-04-3.62872E-15
 -1      2696 1.80144E-03-3.31062E-04-4.25956E-15
 -1      2697 1.54808E-03-2.74110E-04-3.38049E-15
 -1      2698 1.95233E-03-3.45891E-04-4.94148E-15
 -1      2699 2.10459E-03-3.61793E-04-5.67408E-15
 -1      2700 1.84299E-03-3.00752E-04-4.64570E-15
 -1      2701 2.25863E-03-3.79563E-04-6.45740E-15
 -1      2702 2.41471E-03-4.00224E-04-7.29138E-15
 -1      2703 2.14276E-03-3.29326E-04-6.11222E-15
 -1      2704 2.57354E-03-4.24458E-04-8.17513E-15
 -1      2705 2.73517E-03-4.53569E-04-9.10937E-15
 -1      2706 2.45062E-03-3.66173E-04-7.77794E-15
 -1      2707 2.90058E-03-4.88014E-04-1.00944E-14
 -1      2708 3.06929E-03-5.29320E-04-1.11296E-14
 -1      2709 2.77102E-03-4.18715E-04-9.64287E-15
 -1      2710 3.24238E-03-5.77554E-04-1.22158E-14
 -1      2711 3.41828E-03-6.33585E-04-1.33534E-14
 -1      2712 3.10859E-03-4.95727E-04-1.17068E-14
 -1      2713 3.59803E-03-6.96567E-04-1.45445E-14
 -1      2714 3.77827E-03-7.65560E-04-1.57892E-14
 -1      2715 3.46559E-03-6.05105E-04-1.39731E-14
 -1      2716 3.95897E-03-8.38499E-04-1.70898E-14
 -1      2717 4.13714E-03-9.09594E-04-1.84458E-14
 -1      2718 3.83630E-03-7.47932E-04-1.64513E-14
 -1      2719 4.31159E-03-9.75311E-04-1.98616E-14
 -1      2720 4.48220E-03-1.02637E-03-2.13353E-14
 -1      2721 4.20526E-03-9.03971E-04-1.91536E-14
 -1      2722 4.64719E-03-1.05917E-03-2.28695E-14
 -1      2723 4.81215E-03-1.06748E-03-2.44654E-14
 -1      2724 4.55724E-03-1.02120E-03-2.20936E-14
 -1      2725 4.97507E-03-1.05041E-03-2.61206E-14
 -1      2726 5.14312E-03-1.01180E-03-2.78345E-14
 -1      2727 4.89527E-03-1.04062E-03-2.52793E-14
 -1      2728 5.31422E-03-9.54257E-04-2.96061E-14
 -1      2729 5.49034E-03-8.86996E-04-3.14340E-14
 -1      2730 5.24047E-03-9.51045E-04-2.87068E-14
 -1      2731 5.67021E-03-8.13973E-04-3.33152E-14
 -1      2732 5.85074E-03-7.42595E-04-3.52490E-14
 -1      2733 5.60513E-03-8.00835E-04-3.23628E-14
 -1      2734 6.03178E-03-6.75455E-04-3.72331E-14
 -1      2735 6.20999E-03-6.15219E-04-3.92658E-14
 -1      2736 5.97747E-03-6.49952E-04-3.62327E-14
 -1      2737 6.38596E-03-5.63048E-04-4.13444E-14
 -1      2738 6.55757E-03-5.18611E-04-4.34689E-14
 -1      2739 6.34012E-03-5.29946E-04-4.02988E-14
 -1      2740 6.72590E-03-4.82187E-04-4.56374E-14
 -1      2741 6.89014E-03-4.52415E-04-4.78476E-14
 -1      2742 6.68422E-03-4.46054E-04-4.45463E-14
 -1      2743 7.05132E-03-4.29138E-04-5.01018E-14
 -1      2744 7.20933E-03-4.11042E-04-5.23983E-14
 -1      2745 7.00978E-03-3.92263E-04-4.89663E-14
 -1      2746 7.36496E-03-3.97756E-04-5.47325E-14
 -1      2747 7.51838E-03-3.88274E-04-5.71069E-14
 -1      2748 7.32092E-03-3.60788E-04-5.35499E-14
 -1      2749 7.67010E-03-3.82149E-04-5.95219E-14
 -1      2750 7.82036E-03-3.78678E-04-6.19726E-14
 -1      2751 7.62222E-03-3.45082E-04-5.82950E-14
 -1      2752 7.96945E-03-3.77425E-04-6.44602E-14
 -1      2753 8.11760E-03-3.77917E-04-6.69840E-14
 -1      2754 7.91732E-03-3.40127E-04-6.31931E-14
 -1      2755 8.26493E-03-3.79779E-04-6.95417E-14
 -1      2756 8.41166E-03-3.82699E-04-7.21333E-14
 -1      2757 8.20873E-03-3.42181E-04-6.82334E-14
 -1      2758 8.55780E-03-3.86379E-04-7.47590E-14
 -1      2759 8.70355E-03-3.90617E-04-7.74157E-14
 -1      2760 8.49799E-03-3.48499E-04-7.34115E-14
 -1      2761 8.84887E-03-3.95196E-04-8.01025E-14
 -1      2762 8.99391E-03-3.99985E-04-8.28228E-14
 -1      2763 8.78602E-03-3.57103E-04-7.87208E-14
 -1      2764 9.13863E-03-4.04836E-04-8.55772E-14
 -1      2765 9.28314E-03-4.09671E-04-8.83600E-14
 -1      2766 9.07332E-03-3.66620E-04-8.41574E-14
 -1      2767 9.42742E-03-4.14397E-04-9.11740E-14
 -1      2768 9.57153E-03-4.18967E-04-9.40166E-14
 -1      2769 9.36019E-03-3.76139E-04-8.97183E-14
 -1      2770 9.71546E-03-4.23330E-04-9.68894E-14
 -1      2771 9.85927E-03-4.27464E-04-9.97913E-14
 -1      2772 9.64678E-03-3.85097E-04-9.53990E-14
 -1      2773 1.00029E-02-4.31346E-04-1.02719E-13
 -1      2774 1.01465E-02-4.34968E-04-1.05676E-13
 -1      2775 9.93316E-03-3.93182E-04-1.01196E-13
 -1      2776 1.02899E-02-4.38327E-04-1.08662E-13
 -1      2777 1.04333E-02-4.41424E-04-1.11672E-13
 -1      2778 1.02194E-02-4.00260E-04-1.07104E-13
 -1      2779 1.05766E-02-4.44268E-04-1.14710E-13
 -1      2780 1.07198E-02-4.46866E-04-1.17776E-13
 -1      2781 1.05055E-02-4.06311E-04-1.13122E-13
 -1      2782 1.08630E-02-4.49234E-04-1.20866E-13
 -1      2783 1.10061E-02-4.51381E-04-1.23981E-13
 -1      2784 1.07915E-02-4.11388E-04-1.19246E-13
 -1      2785 1.11492E-02-4.53326E-04-1.27121E-13
 -1      2786 1.12922E-02-4.55080E-04-1.30282E-13
 -1      2787 1.10775E-02-4.15585E-04-1.25472E-13
 -1      2788 1.14352E-02-4.56662E-04-1.33466E-13
 -1      2789 1.15782E-02-4.58082E-04-1.36669E-13
 -1      2790 1.13634E-02-4.19016E-04-1.31793E-13
 -1      2791 1.17211E-02-4.59360E-04-1.39889E-13
 -1      2792 1.18641E-02-4.60504E-04-1.43128E-13
 -1      2793 1.16492E-02-4.21797E-04-1.38199E-13
 -1      2794 1.20070E-02-4.61533E-04-1.46384E-13
 -1      2795 1.21499E-02-4.62455E-04-1.49659E-13
 -1      2796 1.19350E-02-4.24042E-04-1.44673E-13
 -1      2797 1.22928E-02-4.63286E-04-1.52947E-13
 -1      2798 1.24356E-02-4.64031E-04-1.56252E-13
 -1      2799 1.22208E-02-4.25853E-04-1.51218E-13
 -1      2800 1.25785E-02-4.64705E-04-1.59576E-13
 -1      2801 1.27214E-02-4.65314E-04-1.62912E-13
 -1      2802 1.25066E-02-4.27320E-04-1.57830E-13
 -1      2803 1.28642E-02-4.65869E-04-1.66263E-13
 -1      2804 1.30071E-02-4.66375E-04-1.69627E-13
 -1      2805 1.27923E-02-4.28520E-04-1.64505E-13
 -1      2806 1.31499E-02-4.66841E-04-1.73006E-13
 -1      2807 1.32928E-02-4.67271E-04-1.76397E-13
 -1      2808 1.30781E-02-4.29520E-04-1.71234E-13
 -1      2809 1.34356E-02-4.67674E-04-1.79799E-13
 -1      2810 1.35785E-02-4.68053E-04-1.83209E-13
 -1      2811 1.33638E-02-4.30372E-04-1.78015E-13
 -1      2812 1.37213E-02-4.68413E-04-1.86627E-13
 -1      2813 1.38642E-02-4.68759E-04-1.90054E-13
 -1      2814 1.36495E-02-4.31123E-04-1.84835E-13
 -1      2815 1.40070E-02-4.69095E-04-1.93487E-13
 -1      2816 1.41499E-02-4.69424E-04-1.96926E-13
 -1      2817 1.39352E-02-4.31809E-04-1.91686E-13
 -1      2818 2.38756E-03 4.33729E-04-6.04169E-15
 -1      2819 2.23067E-03 4.12591E-04-5.30191E-15
 -1      2820 2.42662E-03 4.00830E-04-6.55862E-15
 -1      2821 5.08130E-03-9.62416E-04-2.68189E-14
 -1      2822 4.93211E-03-1.00640E-03-2.54867E-14
 -1      2823 2.07550E-03 3.94125E-04-4.61244E-15
 -1      2824 1.92193E-03 3.77425E-04-3.97215E-15
 -1      2825 2.11630E-03 3.62097E-04-5.06827E-15
 -1      2826 3.03977E-03 5.62184E-04-9.50258E-15
 -1      2827 2.87278E-03 5.21726E-04-8.56148E-15
 -1      2828 2.74753E-03 4.54682E-04-8.24715E-15
 -1      2829 3.38252E-03 6.62559E-04-1.15391E-14
 -1      2830 3.21017E-03 6.08955E-04-1.04947E-14
 -1      2831 3.08230E-03 5.31175E-04-1.01349E-14
 -1      2832 3.73288E-03 7.87048E-04-1.37850E-14
 -1      2833 3.55755E-03 7.22284E-04-1.26353E-14
 -1      2834 3.43192E-03 6.36191E-04-1.22259E-14
 -1      2835 4.08206E-03 9.21443E-04-1.62504E-14
 -1      2836 3.90857E-03 8.54935E-04-1.49900E-14
 -1      2837 3.79172E-03 7.69018E-04-1.45273E-14
 -1      2838 4.42001E-03 1.03388E-03-1.89455E-14
 -1      2839 4.25271E-03 9.83273E-04-1.75691E-14
 -1      2840 4.15000E-03 9.11831E-04-1.70495E-14
 -1      2841 4.74414E-03 1.08551E-03-2.18783E-14
 -1      2842 4.58233E-03 1.06986E-03-2.03817E-14
 -1      2843 4.49360E-03 1.02507E-03-1.98050E-14
 -1      2844 5.06658E-03 1.05326E-03-2.50553E-14
 -1      2845 4.90376E-03 1.07973E-03-2.34367E-14
 -1      2846 4.82354E-03 1.06097E-03-2.28042E-14
 -1      2847 5.40048E-03 9.51004E-04-2.84671E-14
 -1      2848 5.23122E-03 1.00824E-03-2.67321E-14
 -1      2849 5.15629E-03 1.00101E-03-2.60489E-14
 -1      2850 5.74801E-03 8.17599E-04-3.21038E-14
 -1      2851 5.57313E-03 8.85298E-04-3.02575E-14
 -1      2852 5.50453E-03 8.74086E-04-2.95285E-14
 -1      2853 6.10012E-03 6.88454E-04-3.59495E-14
 -1      2854 5.92455E-03 7.50817E-04-3.40007E-14
 -1      2855 5.86479E-03 7.30552E-04-3.32299E-14
 -1      2856 6.44684E-03 5.83058E-04-3.99938E-14
 -1      2857 6.27498E-03 6.32298E-04-3.79481E-14
 -1      2858 6.22361E-03 6.04027E-04-3.71380E-14
 -1      2859 6.78288E-03 5.06331E-04-4.42229E-14
 -1      2860 6.61654E-03 5.41316E-04-4.20853E-14
 -1      2861 6.57033E-03 5.08541E-04-4.12372E-14
 -1      2862 7.10775E-03 4.55433E-04-4.86285E-14
 -1      2863 6.94677E-03 4.78046E-04-4.64034E-14
 -1      2864 6.90196E-03 4.43093E-04-4.55164E-14
 -1      2865 7.42313E-03 4.25111E-04-5.32069E-14
 -1      2866 7.26655E-03 4.38096E-04-5.08972E-14
 -1      2867 7.22031E-03 4.01989E-04-4.99703E-14
 -1      2868 7.73120E-03 4.09934E-04-5.79516E-14
 -1      2869 7.57797E-03 4.15962E-04-5.55596E-14
 -1      2870 7.52865E-03 3.79087E-04-5.45932E-14
 -1      2871 8.03386E-03 4.05202E-04-6.28524E-14
 -1      2872 7.88311E-03 4.06517E-04-6.03811E-14
 -1      2873 7.83002E-03 3.69036E-04-5.93786E-14
 -1      2874 8.33252E-03 4.07199E-04-6.79127E-14
 -1      2875 8.18360E-03 4.05546E-04-6.53640E-14
 -1      2876 8.12675E-03 3.67584E-04-6.43203E-14
 -1      2877 8.62818E-03 4.13152E-04-7.31192E-14
 -1      2878 8.48066E-03 4.09814E-04-7.04976E-14
 -1      2879 8.42039E-03 3.71511E-04-6.94175E-14
 -1      2880 8.92155E-03 4.21090E-04-7.84664E-14
 -1      2881 8.77509E-03 4.16964E-04-7.57755E-14
 -1      2882 8.71193E-03 3.78465E-04-7.46596E-14
 -1      2883 9.21313E-03 4.29681E-04-8.39526E-14
 -1      2884 9.06751E-03 4.25364E-04-8.11921E-14
 -1      2885 9.00202E-03 3.86798E-04-8.00407E-14
 -1      2886 9.50330E-03 4.38075E-04-8.95678E-14
 -1      2887 9.35835E-03 4.33939E-04-8.67449E-14
 -1      2888 9.29104E-03 3.95409E-04-8.55572E-14
 -1      2889 9.79236E-03 4.45771E-04-9.53126E-14
 -1      2890 9.64794E-03 4.42030E-04-9.24250E-14
 -1      2891 9.57926E-03 4.03606E-04-9.12038E-14
 -1      2892 1.00806E-02 4.52513E-04-1.01172E-13
 -1      2893 9.93654E-03 4.49271E-04-9.82277E-14
 -1      2894 9.86686E-03 4.10995E-04-9.69740E-14
 -1      2895 1.03681E-02 4.58212E-04-1.07144E-13
 -1      2896 1.02244E-02 4.55496E-04-1.04144E-13
 -1      2897 1.01540E-02 4.17389E-04-1.02859E-13
 -1      2898 1.06551E-02 4.62879E-04-1.13220E-13
 -1      2899 1.05116E-02 4.60672E-04-1.10169E-13
 -1      2900 1.04407E-02 4.22738E-04-1.08853E-13
 -1      2901 1.09417E-02 4.66589E-04-1.19400E-13
 -1      2902 1.07984E-02 4.64849E-04-1.16298E-13
 -1      2903 1.07272E-02 4.27079E-04-1.14952E-13
 -1      2904 1.12280E-02 4.69450E-04-1.25675E-13
 -1      2905 1.10848E-02 4.68120E-04-1.22525E-13
 -1      2906 1.10135E-02 4.30500E-04-1.21152E-13
 -1      2907 1.15140E-02 4.71581E-04-1.32047E-13
 -1      2908 1.13710E-02 4.70601E-04-1.28850E-13
 -1      2909 1.12995E-02 4.33111E-04-1.27448E-13
 -1      2910 1.18000E-02 4.73100E-04-1.38510E-13
 -1      2911 1.16570E-02 4.72411E-04-1.35267E-13
 -1      2912 1.15855E-02 4.35033E-04-1.33840E-13
 -1      2913 1.20858E-02 4.74119E-04-1.45056E-13
 -1      2914 1.19429E-02 4.73666E-04-1.41773E-13
 -1      2915 1.18714E-02 4.36382E-04-1.40319E-13
 -1      2916 1.23716E-02 4.74738E-04-1.51684E-13
 -1      2917 1.22287E-02 4.74474E-04-1.48361E-13
 -1      2918 1.21572E-02 4.37264E-04-1.46884E-13
 -1      2919 1.26573E-02 4.75044E-04-1.58384E-13
 -1      2920 1.25144E-02 4.74926E-04-1.55028E-13
 -1      2921 1.24429E-02 4.37776E-04-1.53528E-13
 -1      2922 1.29430E-02 4.75110E-04-1.65136E-13
 -1      2923 1.28001E-02 4.75103E-04-1.61754E-13
 -1      2924 1.27287E-02 4.37999E-04-1.60236E-13
 -1      2925 1.32287E-02 4.74998E-04-1.71927E-13
 -1      2926 1.30858E-02 4.75073E-04-1.68527E-13
 -1      2927 1.30144E-02 4.38003E-04-1.66996E-13
 -1      2928 1.35143E-02 4.74759E-04-1.78744E-13
 -1      2929 1.33715E-02 4.74891E-04-1.75332E-13
 -1      2930 1.33001E-02 4.37846E-04-1.73790E-13
 -1      2931 1.38000E-02 4.74436E-04-1.85577E-13
 -1      2932 1.36572E-02 4.74606E-04-1.82161E-13
 -1      2933 1.35858E-02 4.37575E-04-1.80608E-13
 -1      2934 1.40857E-02 4.74065E-04-1.92419E-13
 -1      2935 1.39429E-02 4.74255E-04-1.88997E-13
 -1      2936 1.38715E-02 4.37232E-04-1.87443E-13
 -1      2937 1.43398E-02 4.65698E-04-1.98547E-13
 -1      2938 1.41969E-02 4.65894E-04-1.95120E-13
 -1      2939 1.41256E-02 4.28870E-04-1.93563E-13
 -1      2940 1.43480E-02 4.12517E-04-1.98966E-13
 -1      2941 1.43371E-02 5.30635E-06-2.00215E-13
 -1      2942 1.43368E-02 4.74845E-05-2.00069E-13
 -1      2943 1.43362E-02 1.74016E-04-1.99613E-13
 -1      2944 1.43361E-02 2.16189E-04-1.99454E-13
 -1      2945 1.43376E-02-7.90506E-05-2.00490E-13
 -1      2946 1.43373E-02-3.68725E-05-2.00356E-13
 -1      2947 1.42134E-02-1.55563E-05-1.97306E-13
 -1      2948 1.43366E-02 8.96627E-05-1.99919E-13
 -1      2949 1.43364E-02 1.31839E-04-1.99765E-13
 -1      2950 1.42126E-02 1.53128E-04-1.96714E-13
 -1      2951 1.42130E-02 6.87869E-05-1.97016E-13
 -1      2952 6.61766E-03-1.52396E-04-3.65119E-14
 -1      2953 6.42777E-03-2.33164E-04-3.57117E-14
 -1      2954 4.81583E-03-1.01995E-03-2.44593E-14
 -1      2955 4.70181E-03-1.01463E-03-2.34567E-14
 -1      2956 4.89837E-03-1.01763E-03-2.52330E-14
 -1      2957 1.43382E-02-1.61976E-04-2.00745E-13
 -1      2958 1.43379E-02-1.20514E-04-2.00620E-13
 -1      2959 1.42140E-02-9.91848E-05-1.97574E-13
 -1      2960 1.43389E-02-2.46326E-04-2.00985E-13
 -1      2961 1.43386E-02-2.04152E-04-2.00867E-13
 -1      2962 1.42146E-02-1.82811E-04-1.97824E-13
 -1      2963 1.43397E-02-3.30668E-04-2.01205E-13
 -1      2964 1.43393E-02-2.88498E-04-2.01096E-13
 -1      2965 1.42154E-02-2.67149E-04-1.98058E-13
 -1      2966 6.85126E-03-7.11458E-05-3.74589E-14
 -1      2967 6.77374E-03-9.58437E-05-3.72326E-14
 -1      2968 4.21573E-03-8.38731E-04-1.97759E-14
 -1      2969 4.02949E-03-7.31652E-04-1.86350E-14
 -1      2970 2.46757E-03-1.16109E-05-1.29516E-14
 -1      2971 2.44493E-03-5.11365E-06-1.29039E-14
 -1      2972 7.08860E-03-2.38266E-07-3.80989E-14
 -1      2973 7.08406E-03-6.23482E-06-3.80477E-14
 -1      2974 3.32797E-03 3.27030E-04-1.49370E-14
 -1      2975 3.51579E-03 4.26734E-04-1.55316E-14
 -1      2976 3.37421E-03-3.66192E-04-1.54842E-14
 -1      2977 3.16975E-03-2.62889E-04-1.48152E-14
 -1      2978 1.76958E-03 3.61589E-04-3.38127E-15
 -1      2979 1.61819E-03 3.45891E-04-2.83973E-15
 -1      2980 1.81316E-03 3.31272E-04-3.77512E-15
 -1      2981 2.92926E-03 1.46544E-04-1.40016E-14
 -1      2982 3.10954E-03 2.21505E-04-1.43976E-14
 -1      2983 1.43431E-02-4.71537E-04-2.01589E-13
 -1      2984 1.43678E-02-4.35303E-04-2.02112E-13
 -1      2985 1.42465E-02-4.70481E-04-1.99259E-13
 -1      2986 4.53167E-03-9.79804E-04-2.20612E-14
 -1      2987 4.39658E-03-9.26899E-04-2.10185E-14
 -1      2988 6.96080E-03 3.52299E-05-3.75710E-14
 -1      2989 7.04882E-03 1.48554E-05-3.80274E-14
 -1      2990 7.56807E-04 8.07059E-05-1.08474E-15
 -1      2991 7.47080E-04 6.34445E-05-1.10786E-15
 -1      2992 8.53033E-04 6.28380E-05-1.41659E-15
 -1      2993 8.76349E-04 1.01485E-04-1.36070E-15
 -1      2994 7.46431E-04-6.18000E-05-1.18208E-15
 -1      2995 7.56035E-04-7.89071E-05-1.17575E-15
 -1      2996 4.82662E-03 1.01591E-03-2.31762E-14
 -1      2997 4.95002E-03 9.96948E-04-2.42688E-14
 -1      2998 3.81824E-03-6.11377E-04-1.74630E-14
 -1      2999 3.63114E-03-5.03860E-04-1.65615E-14
 -1      3000 3.71241E-03 5.40152E-04-1.61924E-14
 -1      3001 3.88397E-03 6.45143E-04-1.68841E-14
 -1      3002 2.96627E-03-1.71618E-04-1.42450E-14
 -1      3003 2.80556E-03-1.11639E-04-1.38026E-14
 -1      3004 2.64948E-03-5.90032E-05-1.34512E-14
 -1      3005 2.53980E-03-3.05856E-05-1.31885E-14
 -1      3006 5.42205E-03-7.97309E-04-2.96904E-14
 -1      3007 5.26067E-03-8.86266E-04-2.83704E-14
 -1      3008 1.46760E-03 3.29372E-04-2.34799E-15
 -1      3009 1.31747E-03 3.11433E-04-1.90524E-15
 -1      3010 1.21855E-03 2.67819E-04-1.77651E-15
 -1      3011 1.51449E-03 3.01827E-04-2.67805E-15
 -1      3012 8.16689E-04-1.98166E-04-1.04796E-15
 -1      3013 9.52729E-04-2.27381E-04-1.34953E-15
 -1      3014 1.00627E-03-2.09458E-04-1.57255E-15
 -1      3015 7.99080E-04-1.72887E-04-1.06771E-15
 -1      3016 5.09734E-03 9.53537E-04-2.55451E-14
 -1      3017 5.24660E-03 8.88724E-04-2.68603E-14
 -1      3018 5.03876E-03 9.85168E-04-2.50329E-14
 -1      3019 5.81628E-03-5.67780E-04-3.26241E-14
 -1      3020 5.63287E-03-6.78794E-04-3.13565E-14
 -1      3021 4.08970E-03 7.64777E-04-1.79017E-14
 -1      3022 4.25798E-03 8.61122E-04-1.88603E-14
 -1      3023 2.62779E-03 4.91825E-05-1.33095E-14
 -1      3024 2.76207E-03 8.66999E-05-1.36265E-14
 -1      3025 2.45698E-03 6.17762E-06-1.29846E-14
 -1      3026 2.51233E-03 1.85316E-05-1.30715E-14
 -1      3027 6.29097E-03 2.91015E-04-3.39476E-14
 -1      3028 6.46642E-03 2.11623E-04-3.49844E-14
 -1      3029 7.67321E-04-9.78054E-05-1.16605E-15
 -1      3030 7.80023E-04-1.18833E-04-1.15217E-15
 -1      3031 8.75292E-04-9.93260E-05-1.48271E-15
 -1      3032 8.33027E-04 7.00482E-07-1.48290E-15
 -1      3033 7.26527E-04-5.63748E-06-1.17640E-15
 -1      3034 7.28518E-04-1.85580E-05-1.18186E-15
 -1      3035 6.92354E-03 5.57737E-05-3.81714E-14
 -1      3036 6.59244E-03 1.69296E-04-3.62676E-14
 -1      3037 6.70885E-03 1.39852E-04-3.75689E-14
 -1      3038 6.52754E-03 2.15201E-04-3.65385E-14
 -1      3039 1.41747E-02-4.33194E-04-1.97451E-13
 -1      3040 8.81825E-04 2.06256E-04-1.01530E-15
 -1      3041 6.18067E-03 3.56242E-04-3.36602E-14
 -1      3042 6.29487E-03 3.20803E-04-3.49575E-14
 -1      3043 6.08179E-03 4.24309E-04-3.33707E-14
 -1      3044 2.42043E-03 1.43266E-06-1.23490E-14
 -1      3045 5.95653E-03-5.09363E-04-3.40236E-14
 -1      3046 5.54984E-03-7.47812E-04-3.10513E-14
 -1      3047 5.17849E-03-9.35548E-04-2.78118E-14
 -1      3048 3.18881E-03 2.76306E-04-1.41380E-14
 -1      3049 2.69188E-03-8.72841E-05-1.30662E-14
 -1      3050 1.43481E-02 3.70714E-04-1.99139E-13
 -1      3051 1.42369E-02 3.78895E-04-1.96436E-13
 -1      3052 1.43483E-02 3.28906E-04-1.99308E-13
 -1      3053 6.71263E-03-1.32119E-04-3.78656E-14
 -1      3054 3.03382E-03-2.23343E-04-1.39538E-14
 -1      3055 4.62517E-03-1.00918E-03-2.27889E-14
 -1      3056 3.58173E-03 4.87324E-04-1.53016E-14
 -1      3057 6.93992E-03-5.34311E-05-3.84696E-14
 -1      3058 1.43674E-02-3.93141E-04-2.02016E-13
 -1      3059 3.91802E-03-6.87758E-04-1.77642E-14
 -1      3060 3.47035E-03-4.39004E-04-1.55476E-14
 -1      3061 9.96568E-04 2.10264E-04-1.32132E-15
 -1      3062 7.32558E-04-3.19609E-05-1.18444E-15
 -1      3063 7.38549E-04-4.62944E-05-1.18453E-15
 -1      3064 8.52284E-04-6.10243E-05-1.49690E-15
 -1      3065 8.37862E-04-2.86569E-05-1.49633E-15
 -1      3066 5.35373E-03 8.41010E-04-2.78212E-14
 -1      3067 5.46196E-03 7.89806E-04-2.87987E-14
 -1      3068 5.28234E-03 8.96301E-04-2.72790E-14
 -1      3069 7.09601E-03 8.71203E-06-3.91333E-14
 -1      3070 7.08034E-03-1.38509E-05-3.87720E-14
 -1      3071 2.47413E-03-2.32248E-05-1.24977E-14
 -1      3072 4.29282E-03-8.90223E-04-2.01598E-14
 -1      3073 4.35351E-03 9.15012E-04-1.93688E-14
 -1      3074 2.81959E-03 1.20078E-04-1.32528E-14
 -1      3075 1.43422E-02 2.51643E-04-1.99469E-13
 -1      3076 1.43421E-02 2.93456E-04-1.99304E-13
 -1      3077 1.42308E-02 3.01645E-04-1.96601E-13
 -1      3078 1.42186E-02 2.30748E-04-1.96578E-13
 -1      3079 6.36461E-03-2.83422E-04-3.62211E-14
 -1      3080 5.74797E-03 5.98124E-04-3.07107E-14
 -1      3081 5.86363E-03 5.43953E-04-3.17718E-14
 -1      3082 5.66951E-03 6.63500E-04-3.03866E-14
 -1      3083 3.96120E-03 7.10495E-04-1.69337E-14
 -1      3084 2.54218E-03 3.52113E-05-1.26598E-14
 -1      3085 1.42091E-02-4.02490E-04-1.98217E-13
 -1      3086 1.43053E-02-3.61380E-04-2.00445E-13
 -1      3087 1.41813E-02-3.40025E-04-1.97409E-13
 -1      3088 1.41125E-02-4.01437E-04-1.95887E-13
 -1      3089 1.03693E-03 1.77574E-04-1.57292E-15
 -1      3090 1.01724E-03 1.49340E-04-1.62312E-15
 -1      3091 7.81135E-04-1.33850E-04-1.11827E-15
 -1      3092 7.96693E-04-1.55300E-04-1.10690E-15
 -1      3093 8.98260E-04-1.72588E-04-1.35139E-15
 -1      3094 8.91963E-04-1.37462E-04-1.43212E-15
 -1      3095 3.12125E-03 4.97105E-04-1.07714E-14
 -1      3096 2.95001E-03 4.54489E-04-9.77502E-15
 -1      3097 2.78305E-03 4.19624E-04-8.82860E-15
 -1      3098 2.62088E-03 3.90448E-04-7.93147E-15
 -1      3099 2.81467E-03 3.81959E-04-9.41626E-15
 -1      3100 1.44788E-03-2.34522E-04-3.13481E-15
 -1      3101 1.59189E-03-2.46924E-04-3.71895E-15
 -1      3102 1.73655E-03-2.58676E-04-4.35310E-15
 -1      3103 1.88225E-03-2.70384E-04-5.03701E-15
 -1      3104 1.63379E-03-2.19781E-04-4.06435E-15
 -1      3105 2.02916E-03-2.82634E-04-5.77049E-15
 -1      3106 2.17782E-03-2.96286E-04-6.55374E-15
 -1      3107 1.91897E-03-2.39818E-04-5.43360E-15
 -1      3108 2.32872E-03-3.11861E-04-7.38586E-15
 -1      3109 2.48249E-03-3.30698E-04-8.26697E-15
 -1      3110 2.20953E-03-2.62405E-04-6.99878E-15
 -1      3111 2.64006E-03-3.53170E-04-9.19714E-15
 -1      3112 2.80195E-03-3.81404E-04-1.01767E-14
 -1      3113 2.51002E-03-2.93451E-04-8.75821E-15
 -1      3114 2.96960E-03-4.15627E-04-1.12045E-14
 -1      3115 3.14263E-03-4.58639E-04-1.22820E-14
 -1      3116 2.82753E-03-3.41024E-04-1.07103E-14
 -1      3117 4.42363E-03-9.67009E-04-2.10080E-14
 -1      3118 4.60142E-03-1.01564E-03-2.25231E-14
 -1      3119 4.75587E-03-1.03575E-03-2.39376E-14
 -1      3120 4.92986E-03-1.02337E-03-2.55711E-14
 -1      3121 5.19907E-03-9.42147E-04-2.81680E-14
 -1      3122 5.38428E-03-8.65674E-04-2.99531E-14
 -1      3123 5.92619E-03-6.23259E-04-3.52337E-14
 -1      3124 6.11447E-03-5.53195E-04-3.72206E-14
 -1      3125 6.29911E-03-4.94687E-04-3.92538E-14
 -1      3126 6.47604E-03-4.46327E-04-4.13341E-14
 -1      3127 6.26368E-03-4.56935E-04-3.82120E-14
 -1      3128 6.64743E-03-4.08371E-04-4.34569E-14
 -1      3129 6.81242E-03-3.77893E-04-4.56233E-14
 -1      3130 6.61644E-03-3.67804E-04-4.23718E-14
 -1      3131 6.97259E-03-3.54835E-04-4.78320E-14
 -1      3132 7.12830E-03-3.36997E-04-5.00824E-14
 -1      3133 6.94061E-03-3.15555E-04-4.67027E-14
 -1      3134 7.28059E-03-3.24191E-04-5.23738E-14
 -1      3135 7.43010E-03-3.14951E-04-5.47026E-14
 -1      3136 7.24464E-03-2.86849E-04-5.11995E-14
 -1      3137 7.57748E-03-3.09027E-04-5.70741E-14
 -1      3138 7.72329E-03-3.05544E-04-5.94831E-14
 -1      3139 7.53636E-03-2.73080E-04-5.58573E-14
 -1      3140 7.86788E-03-3.04208E-04-6.19279E-14
 -1      3141 8.01167E-03-3.04497E-04-6.44097E-14
 -1      3142 7.82143E-03-2.68910E-04-6.06678E-14
 -1      3143 8.15482E-03-3.06120E-04-6.69284E-14
 -1      3144 8.29762E-03-3.08763E-04-6.94810E-14
 -1      3145 8.10341E-03-2.70926E-04-6.56270E-14
 -1      3146 8.44013E-03-3.12172E-04-7.20685E-14
 -1      3147 8.58253E-03-3.16152E-04-7.46901E-14
 -1      3148 8.38435E-03-2.76782E-04-7.07285E-14
 -1      3149 8.72481E-03-3.20498E-04-7.73421E-14
 -1      3150 8.86711E-03-3.25094E-04-8.00252E-14
 -1      3151 8.66534E-03-2.84793E-04-7.59631E-14
 -1      3152 9.00938E-03-3.29785E-04-8.27397E-14
 -1      3153 9.15173E-03-3.34503E-04-8.54884E-14
 -1      3154 8.94688E-03-2.93756E-04-8.13289E-14
 -1      3155 9.29409E-03-3.39142E-04-8.82667E-14
 -1      3156 9.43653E-03-3.43666E-04-9.10748E-14
 -1      3157 9.22915E-03-3.02835E-04-8.68173E-14
 -1      3158 9.57899E-03-3.48007E-04-9.39125E-14
 -1      3159 9.72154E-03-3.52149E-04-9.67789E-14
 -1      3160 9.51215E-03-3.11486E-04-9.24302E-14
 -1      3161 9.86411E-03-3.56056E-04-9.96761E-14
 -1      3162 1.00068E-02-3.59724E-04-1.02600E-13
 -1      3163 9.79580E-03-3.19387E-04-9.81595E-14
 -1      3164 1.01494E-02-3.63139E-04-1.05552E-13
 -1      3165 1.02921E-02-3.66306E-04-1.08531E-13
 -1      3166 1.00800E-02-3.26378E-04-1.04005E-13
 -1      3167 1.04349E-02-3.69224E-04-1.11539E-13
 -1      3168 1.05776E-02-3.71903E-04-1.14573E-13
 -1      3169 1.03646E-02-3.32413E-04-1.09958E-13
 -1      3170 1.07204E-02-3.74352E-04-1.17634E-13
 -1      3171 1.08632E-02-3.76582E-04-1.20718E-13
 -1      3172 1.06496E-02-3.37523E-04-1.16023E-13
 -1      3173 1.10060E-02-3.78607E-04-1.23828E-13
 -1      3174 1.11489E-02-3.80440E-04-1.26964E-13
 -1      3175 1.09348E-02-3.41781E-04-1.22189E-13
 -1      3176 1.12917E-02-3.82097E-04-1.30123E-13
 -1      3177 1.14346E-02-3.83590E-04-1.33306E-13
 -1      3178 1.12203E-02-3.45287E-04-1.28456E-13
 -1      3179 1.15775E-02-3.84935E-04-1.36504E-13
 -1      3180 1.17203E-02-3.86143E-04-1.39724E-13
 -1      3181 1.15058E-02-3.48148E-04-1.34814E-13
 -1      3182 1.18632E-02-3.87230E-04-1.42963E-13
 -1      3183 1.20061E-02-3.88206E-04-1.46218E-13
 -1      3184 1.17914E-02-3.50470E-04-1.41254E-13
 -1      3185 1.21489E-02-3.89085E-04-1.49493E-13
 -1      3186 1.22918E-02-3.89876E-04-1.52781E-13
 -1      3187 1.20771E-02-3.52352E-04-1.47765E-13
 -1      3188 1.24347E-02-3.90590E-04-1.56087E-13
 -1      3189 1.25776E-02-3.91234E-04-1.59412E-13
 -1      3190 1.23628E-02-3.53880E-04-1.54348E-13
 -1      3191 1.27205E-02-3.91821E-04-1.62748E-13
 -1      3192 1.28633E-02-3.92354E-04-1.66099E-13
 -1      3193 1.26486E-02-3.55133E-04-1.60991E-13
 -1      3194 1.30062E-02-3.92844E-04-1.69465E-13
 -1      3195 1.31491E-02-3.93294E-04-1.72843E-13
 -1      3196 1.29344E-02-3.56174E-04-1.67697E-13
 -1      3197 1.32919E-02-3.93714E-04-1.76232E-13
 -1      3198 1.34348E-02-3.94105E-04-1.79634E-13
 -1      3199 1.32201E-02-3.57057E-04-1.74451E-13
 -1      3200 1.35777E-02-3.94475E-04-1.83044E-13
 -1      3201 1.37206E-02-3.94828E-04-1.86459E-13
 -1      3202 1.35059E-02-3.57828E-04-1.81250E-13
 -1      3203 1.38451E-02-3.97974E-04-1.89452E-13
 -1      3204 1.39880E-02-3.98304E-04-1.92885E-13
 -1      3205 1.40224E-02-3.67603E-04-1.93647E-13
 -1      3206 1.37733E-02-3.61331E-04-1.87653E-13
 -1      3207 2.46230E-03 3.66641E-04-7.08323E-15
 -1      3208 2.30704E-03 3.46510E-04-6.28353E-15
 -1      3209 2.49439E-03 3.30801E-04-7.61517E-15
 -1      3210 3.47892E-03 6.07111E-04-1.29156E-14
 -1      3211 3.29826E-03 5.47486E-04-1.18183E-14
 -1      3212 3.15654E-03 4.60258E-04-1.14126E-14
 -1      3213 4.24967E-03 9.03512E-04-1.81869E-14
 -1      3214 4.06387E-03 8.25467E-04-1.68562E-14
 -1      3215 4.61120E-03 1.02180E-03-2.10751E-14
 -1      3216 4.43606E-03 9.77784E-04-1.96205E-14
 -1      3217 4.94506E-03 1.02789E-03-2.40915E-14
 -1      3218 4.77469E-03 1.04153E-03-2.25123E-14
 -1      3219 5.25372E-03 9.36604E-04-2.70499E-14
 -1      3220 5.07674E-03 9.95019E-04-2.53622E-14
 -1      3221 5.99053E-03 6.37746E-04-3.43624E-14
 -1      3222 5.80498E-03 7.10130E-04-3.24528E-14
 -1      3223 6.35318E-03 5.19322E-04-3.83300E-14
 -1      3224 6.17478E-03 5.73976E-04-3.63220E-14
 -1      3225 6.12896E-03 5.42102E-04-3.55045E-14
 -1      3226 6.69627E-03 4.36879E-04-4.24837E-14
 -1      3227 6.52755E-03 4.74190E-04-4.03845E-14
 -1      3228 6.48893E-03 4.37216E-04-3.95302E-14
 -1      3229 7.02087E-03 3.83842E-04-4.68119E-14
 -1      3230 6.86079E-03 4.07387E-04-4.46261E-14
 -1      3231 6.82393E-03 3.69697E-04-4.37356E-14
 -1      3232 7.33125E-03 3.52542E-04-5.13128E-14
 -1      3233 7.17759E-03 3.66026E-04-4.90411E-14
 -1      3234 7.13897E-03 3.29071E-04-4.81141E-14
 -1      3235 7.63196E-03 3.36599E-04-5.59801E-14
 -1      3236 7.48257E-03 3.43054E-04-5.36260E-14
 -1      3237 7.44018E-03 3.06893E-04-5.26603E-14
 -1      3238 7.92663E-03 3.31092E-04-6.08034E-14
 -1      3239 7.77986E-03 3.32815E-04-5.83726E-14
 -1      3240 7.73294E-03 2.97043E-04-5.73678E-14
 -1      3241 8.21769E-03 3.32384E-04-6.57877E-14
 -1      3242 8.07248E-03 3.31079E-04-6.32764E-14
 -1      3243 8.02101E-03 2.95322E-04-6.22351E-14
 -1      3244 8.50668E-03 3.37795E-04-7.09213E-14
 -1      3245 8.36235E-03 3.34706E-04-6.83359E-14
 -1      3246 8.30671E-03 2.98756E-04-6.72567E-14
 -1      3247 8.79448E-03 3.45396E-04-7.61968E-14
 -1      3248 8.65067E-03 3.41410E-04-7.35409E-14
 -1      3249 8.59141E-03 3.05197E-04-7.24265E-14
 -1      3250 9.08162E-03 3.53852E-04-8.16130E-14
 -1      3251 8.93809E-03 3.49575E-04-7.88891E-14
 -1      3252 8.87584E-03 3.13114E-04-7.77375E-14
 -1      3253 9.36835E-03 3.62276E-04-8.71594E-14
 -1      3254 9.22500E-03 3.58104E-04-8.43704E-14
 -1      3255 9.16032E-03 3.21452E-04-8.31850E-14
 -1      3256 9.65482E-03 3.70123E-04-9.28354E-14
 -1      3257 9.51160E-03 3.66293E-04-8.99809E-14
 -1      3258 9.44502E-03 3.29517E-04-8.87622E-14
 -1      3259 9.94112E-03 3.77093E-04-9.86311E-14
 -1      3260 9.79798E-03 3.73728E-04-9.57191E-14
 -1      3261 9.72995E-03 3.36890E-04-9.44657E-14
 -1      3262 1.02273E-02 3.83056E-04-1.04542E-13
 -1      3263 1.00842E-02 3.80203E-04-1.01573E-13
 -1      3264 1.00151E-02 3.43351E-04-1.00288E-13
 -1      3265 1.05134E-02 3.87997E-04-1.10557E-13
 -1      3266 1.03703E-02 3.85652E-04-1.07536E-13
 -1      3267 1.03004E-02 3.48821E-04-1.06222E-13
 -1      3268 1.07994E-02 3.91972E-04-1.16680E-13
 -1      3269 1.06564E-02 3.90101E-04-1.13606E-13
 -1      3270 1.05859E-02 3.53311E-04-1.12263E-13
 -1      3271 1.10853E-02 3.95075E-04-1.22899E-13
 -1      3272 1.09423E-02 3.93627E-04-1.19777E-13
 -1      3273 1.08715E-02 3.56891E-04-1.18405E-13
 -1      3274 1.13712E-02 3.97419E-04-1.29218E-13
 -1      3275 1.12282E-02 3.96336E-04-1.26047E-13
 -1      3276 1.11571E-02 3.59657E-04-1.24648E-13
 -1      3277 1.16570E-02 3.99122E-04-1.35628E-13
 -1      3278 1.15141E-02 3.98345E-04-1.32412E-13
 -1      3279 1.14428E-02 3.61722E-04-1.30987E-13
 -1      3280 1.19428E-02 4.00293E-04-1.42126E-13
 -1      3281 1.17999E-02 3.99768E-04-1.38867E-13
 -1      3282 1.17285E-02 3.63198E-04-1.37416E-13
 -1      3283 1.22286E-02 4.01037E-04-1.48708E-13
 -1      3284 1.20857E-02 4.00714E-04-1.45406E-13
 -1      3285 1.20143E-02 3.64190E-04-1.43933E-13
 -1      3286 1.25143E-02 4.01441E-04-1.55366E-13
 -1      3287 1.23715E-02 4.01277E-04-1.52028E-13
 -1      3288 1.23000E-02 3.64794E-04-1.50532E-13
 -1      3289 1.28001E-02 4.01583E-04-1.62083E-13
 -1      3290 1.26572E-02 4.01541E-04-1.58718E-13
 -1      3291 1.25858E-02 3.65091E-04-1.57201E-13
 -1      3292 1.30858E-02 4.01526E-04-1.68848E-13
 -1      3293 1.29430E-02 4.01576E-04-1.65461E-13
 -1      3294 1.28715E-02 3.65152E-04-1.63928E-13
 -1      3295 1.33716E-02 4.01326E-04-1.75645E-13
 -1      3296 1.32287E-02 4.01442E-04-1.72245E-13
 -1      3297 1.31573E-02 3.65038E-04-1.70699E-13
 -1      3298 1.36573E-02 4.01026E-04-1.82469E-13
 -1      3299 1.35144E-02 4.01186E-04-1.79053E-13
 -1      3300 1.34430E-02 3.64796E-04-1.77501E-13
 -1      3301 1.39430E-02 4.00663E-04-1.89305E-13
 -1      3302 1.38001E-02 4.00850E-04-1.85887E-13
 -1      3303 1.37288E-02 3.64468E-04-1.84325E-13
 -1      3304 1.41456E-02 3.85693E-04-1.94218E-13
 -1      3305 1.40343E-02 3.93870E-04-1.91519E-13
 -1      3306 1.39630E-02 3.57489E-04-1.89958E-13
 -1      3307 1.41457E-02 3.43893E-04-1.94388E-13
 -1      3308 6.51116E-03-2.39687E-04-3.78843E-14
 -1      3309 6.33048E-03-3.30487E-04-3.69562E-14
 -1      3310 1.40898E-02-3.64118E-05-1.94400E-13
 -1      3311 1.40896E-02 5.75268E-06-1.94261E-13
 -1      3312 6.79992E-03-1.22104E-04-3.93668E-14
 -1      3313 6.65898E-03-1.74150E-04-3.86241E-14
 -1      3314 6.62210E-03-2.20435E-04-3.93817E-14
 -1      3315 1.40918E-02-2.87965E-04-1.95133E-13
 -1      3316 1.40914E-02-2.45803E-04-1.95021E-13
 -1      3317 3.06372E-03-2.69242E-04-1.34985E-14
 -1      3318 2.88692E-03-1.88854E-04-1.29658E-14
 -1      3319 3.55454E-03-5.17190E-04-1.55138E-14
 -1      3320 3.32257E-03-3.95475E-04-1.44806E-14
 -1      3321 2.36760E-03-1.13259E-06-1.14908E-14
 -1      3322 2.38642E-03 9.07230E-06-1.15683E-14
 -1      3323 6.11233E-03-4.54866E-04-3.57613E-14
 -1      3324 5.91710E-03-5.71805E-04-3.44593E-14
 -1      3325 1.85459E-03 3.00897E-04-4.17908E-15
 -1      3326 1.70673E-03 2.87748E-04-3.57487E-15
 -1      3327 2.70638E-03-1.15847E-04-1.24736E-14
 -1      3328 2.57272E-03-6.98671E-05-1.21486E-14
 -1      3329 1.40911E-02-2.03640E-04-1.94905E-13
 -1      3330 1.40907E-02-1.61476E-04-1.94783E-13
 -1      3331 1.39675E-02-2.24460E-04-1.91989E-13
 -1      3332 2.15430E-03 3.29542E-04-5.53329E-15
 -1      3333 2.00365E-03 3.14553E-04-4.83172E-15
 -1      3334 1.89364E-03 2.70347E-04-4.59315E-15
 -1      3335 7.03353E-03-3.81281E-05-3.98196E-14
 -1      3336 6.96522E-03-6.29084E-05-3.99498E-14
 -1      3337 2.47067E-03-3.66263E-05-1.19149E-14
 -1      3338 2.40443E-03-1.91491E-05-1.16939E-14
 -1      3339 7.11403E-03 1.59992E-05-4.04055E-14
 -1      3340 7.14517E-03 2.56319E-06-4.04820E-14
 -1      3341 1.16180E-03-2.05615E-04-2.11795E-15
 -1      3342 1.30460E-03-2.20888E-04-2.60123E-15
 -1      3343 1.35155E-03-1.97815E-04-2.89285E-15
 -1      3344 3.94957E-03-7.25752E-04-1.77434E-14
 -1      3345 3.75417E-03-6.18356E-04-1.66055E-14
 -1      3346 3.59352E-03-5.62348E-04-1.54867E-14
 -1      3347 6.88111E-03 8.19263E-05-3.87785E-14
 -1      3348 7.00972E-03 4.61396E-05-3.96723E-14
 -1      3349 3.44169E-03 4.39168E-04-1.43078E-14
 -1      3350 3.61367E-03 5.38970E-04-1.49298E-14
 -1      3351 7.13896E-03-8.48277E-06-4.03766E-14
 -1      3352 7.09456E-03-1.91479E-05-3.99389E-14
 -1      3353 7.12422E-03-2.87553E-05-4.14417E-14
 -1      3354 7.18097E-03-2.17890E-06-4.16685E-14
 -1      3355 4.72945E-03 1.01936E-03-2.22834E-14
 -1      3356 1.16324E-03 2.38522E-04-1.72463E-15
 -1      3357 1.08804E-03 2.02848E-04-1.63259E-15
 -1      3358 1.19936E-03 2.01055E-04-2.01686E-15
 -1      3359 1.30901E-03 2.55956E-04-2.14485E-15
 -1      3360 3.92087E-03 7.26325E-04-1.62596E-14
 -1      3361 3.84242E-03 7.48182E-04-1.52034E-14
 -1      3362 3.65644E-03 6.73383E-04-1.40016E-14
 -1      3363 3.73505E-03 6.20278E-04-1.53041E-14
 -1      3364 4.26236E-03-8.94850E-04-1.97655E-14
 -1      3365 3.03679E-03 2.34937E-04-1.31007E-14
 -1      3366 3.22664E-03 3.27201E-04-1.36030E-14
 -1      3367 4.07232E-03-8.10371E-04-1.83662E-14
 -1      3368 2.45461E-03 2.85343E-05-1.17915E-14
 -1      3369 2.55903E-03 5.56793E-05-1.20147E-14
 -1      3370 5.57141E-03-7.66757E-04-3.16274E-14
 -1      3371 9.49511E-04 4.19644E-05-1.78908E-15
 -1      3372 9.43512E-04 2.50245E-05-1.80872E-15
 -1      3373 1.40904E-02-1.19669E-04-1.94661E-13
 -1      3374 1.40901E-02-7.82194E-05-1.94533E-13
 -1      3375 1.39662E-02-5.69027E-05-1.91496E-13
 -1      3376 1.39668E-02-1.40503E-04-1.91751E-13
 -1      3377 2.71336E-03 1.01799E-04-1.24506E-14
 -1      3378 2.86271E-03 1.54896E-04-1.28027E-14
 -1      3379 3.91051E-03-7.46738E-04-1.71714E-14
 -1      3380 5.76563E-03-6.79040E-04-3.35189E-14
 -1      3381 9.40410E-04 8.77418E-06-1.82422E-15
 -1      3382 9.40304E-04-7.25980E-06-1.83627E-15
 -1      3383 1.04887E-03 1.82818E-05-2.19899E-15
 -1      3384 6.43082E-03 2.70391E-04-3.62358E-14
 -1      3385 6.56010E-03 2.30742E-04-3.75343E-14
 -1      3386 6.33989E-03 3.30342E-04-3.59322E-14
 -1      3387 9.82256E-04-9.82652E-05-1.83787E-15
 -1      3388 9.97952E-04-1.21320E-04-1.82489E-15
 -1      3389 5.99253E-03 4.92791E-04-3.30310E-14
 -1      3390 1.58099E-03 2.80031E-04-3.07462E-15
 -1      3391 1.43439E-03 2.65850E-04-2.56261E-15
 -1      3392 1.37699E-03 2.37171E-04-2.49364E-15
 -1      3393 1.62430E-03 2.52343E-04-3.43172E-15
 -1      3394 3.19305E-03-4.16146E-04-1.30648E-14
 -1      3395 3.34743E-03-5.10092E-04-1.36255E-14
 -1      3396 3.26959E-03 3.84924E-04-1.32507E-14
 -1      3397 3.53402E-03-5.75091E-04-1.48132E-14
 -1      3398 3.71945E-03-6.64955E-04-1.58805E-14
 -1      3399 2.58707E-03 8.34053E-05-1.15872E-14
 -1      3400 2.18931E-03 2.96237E-04-6.00755E-15
 -1      3401 3.51549E-03 5.75665E-04-1.35456E-14
 -1      3402 5.66338E-03 7.28571E-04-3.08481E-14
 -1      3403 5.53599E-03 8.22432E-04-2.97874E-14
 -1      3404 5.35276E-03 8.99472E-04-2.80090E-14
 -1      3405 1.40889E-02 1.32246E-04-1.93819E-13
 -1      3406 1.40888E-02 1.74410E-04-1.93667E-13
 -1      3407 1.39657E-02 2.70544E-05-1.91221E-13
 -1      3408 1.40893E-02 4.79176E-05-1.94117E-13
 -1      3409 1.40891E-02 9.00819E-05-1.93969E-13
 -1      3410 2.73612E-03-1.57151E-04-1.20455E-14
 -1      3411 3.15398E-03-3.43662E-04-1.34611E-14
 -1      3412 3.58839E-03 5.71063E-04-1.42955E-14
 -1      3413 7.03556E-03-7.61644E-05-4.21120E-14
 -1      3414 6.92466E-03-9.40886E-05-4.07324E-14
 -1      3415 6.88930E-03-1.30942E-04-4.15114E-14
 -1      3416 6.27401E-03-3.99336E-04-3.74097E-14
 -1      3417 2.33513E-03-1.07420E-05-1.09345E-14
 -1      3418 7.08249E-03 5.21022E-05-4.16559E-14
 -1      3419 7.10089E-03 3.18040E-05-4.10313E-14
 -1      3420 7.17726E-03 2.31512E-05-4.24063E-14
 -1      3421 2.37154E-03 2.34509E-05-1.09529E-14
 -1      3422 9.99303E-04 1.23780E-04-1.66638E-15
 -1      3423 9.83446E-04 1.00524E-04-1.70451E-15
 -1      3424 1.12584E-03 1.47524E-04-2.00080E-15
 -1      3425 6.77741E-03 1.52359E-04-3.93351E-14
 -1      3426 6.82768E-03 1.14603E-04-3.90587E-14
 -1      3427 6.93669E-03 9.89512E-05-4.05706E-14
 -1      3428 2.47129E-03-5.91662E-05-1.13523E-14
 -1      3429 1.00076E-03-1.88757E-04-1.62175E-15
 -1      3430 1.40949E-02 2.09856E-04-1.93684E-13
 -1      3431 1.41010E-02 2.45301E-04-1.93702E-13
 -1      3432 1.39712E-02 1.88967E-04-1.90794E-13
 -1      3433 9.69637E-04 7.93173E-05-1.73726E-15
 -1      3434 9.58319E-04 5.99260E-05-1.76541E-15
 -1      3435 1.06286E-03 5.51398E-05-2.15332E-15
 -1      3436 1.08923E-03 9.73330E-05-2.08805E-15
 -1      3437 1.05288E-03-1.71247E-04-1.85370E-15
 -1      3438 2.90496E-03 2.04935E-04-1.22958E-14
 -1      3439 9.57531E-04-5.80409E-05-1.84916E-15
 -1      3440 9.68654E-04-7.72817E-05-1.84576E-15
 -1      3441 1.08796E-03-9.50321E-05-2.23003E-15
 -1      3442 1.40399E-02-3.43139E-04-1.94013E-13
 -1      3443 1.40743E-02-3.12433E-04-1.94770E-13
 -1      3444 1.39504E-02-2.91082E-04-1.91741E-13
 -1      3445 1.39153E-02-3.40009E-04-1.91012E-13
 -1      3446 2.83932E-03 3.41634E-04-1.00094E-14
 -1      3447 2.67771E-03 3.14393E-04-9.05805E-15
 -1      3448 2.44849E-03-8.12754E-05-1.06762E-14
 -1      3449 2.36174E-03-4.98722E-05-1.04644E-14
 -1      3450 1.81302E-03-2.01039E-04-5.10123E-15
 -1      3451 1.95306E-03-2.09311E-04-5.83492E-15
 -1      3452 2.09412E-03-2.18022E-04-6.61663E-15
 -1      3453 2.23715E-03-2.28089E-04-7.44698E-15
 -1      3454 1.98431E-03-1.78712E-04-6.24056E-15
 -1      3455 2.38242E-03-2.39835E-04-8.32469E-15
 -1      3456 2.53145E-03-2.54947E-04-9.25056E-15
 -1      3457 2.26028E-03-1.92990E-04-7.89807E-15
 -1      3458 5.03719E-03-1.00136E-03-2.66228E-14
 -1      3459 6.59667E-03-3.23648E-04-4.12873E-14
 -1      3460 6.76043E-03-2.94396E-04-4.34098E-14
 -1      3461 6.91710E-03-2.74089E-04-4.55765E-14
 -1      3462 7.06815E-03-2.58741E-04-4.77824E-14
 -1      3463 6.90178E-03-2.30396E-04-4.44517E-14
 -1      3464 7.21477E-03-2.48447E-04-5.00292E-14
 -1      3465 7.35842E-03-2.41201E-04-5.23170E-14
 -1      3466 7.19073E-03-2.09334E-04-4.88626E-14
 -1      3467 7.49969E-03-2.36894E-04-5.46439E-14
 -1      3468 7.63956E-03-2.34476E-04-5.70087E-14
 -1      3469 7.46702E-03-2.00914E-04-5.34342E-14
 -1      3470 7.77833E-03-2.33835E-04-5.94121E-14
 -1      3471 7.91664E-03-2.34462E-04-6.18511E-14
 -1      3472 7.73809E-03-1.99532E-04-5.81584E-14
 -1      3473 8.05461E-03-2.36174E-04-6.43288E-14
 -1      3474 8.19261E-03-2.38716E-04-6.68420E-14
 -1      3475 8.00795E-03-2.02456E-04-6.30347E-14
 -1      3476 8.33066E-03-2.41891E-04-6.93893E-14
 -1      3477 8.46900E-03-2.45559E-04-7.19716E-14
 -1      3478 8.27866E-03-2.08111E-04-6.80549E-14
 -1      3479 8.60757E-03-2.49542E-04-7.45879E-14
 -1      3480 8.74651E-03-2.53764E-04-7.72363E-14
 -1      3481 8.55116E-03-2.15373E-04-7.32135E-14
 -1      3482 8.88576E-03-2.58077E-04-7.99165E-14
 -1      3483 9.02539E-03-2.62442E-04-8.26275E-14
 -1      3484 8.82576E-03-2.23389E-04-7.85062E-14
 -1      3485 9.16533E-03-2.66746E-04-8.53714E-14
 -1      3486 9.30563E-03-2.70974E-04-8.81466E-14
 -1      3487 9.10245E-03-2.31528E-04-8.39281E-14
 -1      3488 9.44621E-03-2.75046E-04-9.09496E-14
 -1      3489 9.58709E-03-2.78960E-04-9.37830E-14
 -1      3490 9.38103E-03-2.39345E-04-8.94726E-14
 -1      3491 9.72821E-03-2.82666E-04-9.66468E-14
 -1      3492 9.86959E-03-2.86171E-04-9.95382E-14
 -1      3493 9.66125E-03-2.46557E-04-9.51362E-14
 -1      3494 1.00112E-02-2.89445E-04-1.02458E-13
 -1      3495 1.01529E-02-2.92501E-04-1.05405E-13
 -1      3496 9.94281E-03-2.53007E-04-1.00915E-13
 -1      3497 1.02949E-02-2.95328E-04-1.08381E-13
 -1      3498 1.04369E-02-2.97939E-04-1.11384E-13
 -1      3499 1.02255E-02-2.58635E-04-1.06807E-13
 -1      3500 1.05791E-02-3.00333E-04-1.14414E-13
 -1      3501 1.07215E-02-3.02526E-04-1.17470E-13
 -1      3502 1.05090E-02-2.63448E-04-1.12809E-13
 -1      3503 1.08639E-02-3.04524E-04-1.20553E-13
 -1      3504 1.10064E-02-3.06342E-04-1.23659E-13
 -1      3505 1.07932E-02-2.67500E-04-1.18918E-13
 -1      3506 1.11490E-02-3.07990E-04-1.26791E-13
 -1      3507 1.12916E-02-3.09483E-04-1.29948E-13
 -1      3508 1.10778E-02-2.70867E-04-1.25131E-13
 -1      3509 1.14343E-02-3.10831E-04-1.33127E-13
 -1      3510 1.15770E-02-3.12048E-04-1.36324E-13
 -1      3511 1.13629E-02-2.73641E-04-1.31439E-13
 -1      3512 1.17197E-02-3.13146E-04-1.39543E-13
 -1      3513 1.18625E-02-3.14135E-04-1.42782E-13
 -1      3514 1.16482E-02-2.75912E-04-1.37837E-13
 -1      3515 1.20054E-02-3.15028E-04-1.46038E-13
 -1      3516 1.21482E-02-3.15834E-04-1.49313E-13
 -1      3517 1.19337E-02-2.77768E-04-1.44312E-13
 -1      3518 1.22910E-02-3.16563E-04-1.52606E-13
 -1      3519 1.24339E-02-3.17223E-04-1.55913E-13
 -1      3520 1.22193E-02-2.79288E-04-1.50862E-13
 -1      3521 1.25768E-02-3.17824E-04-1.59234E-13
 -1      3522 1.27196E-02-3.18371E-04-1.62573E-13
 -1      3523 1.25050E-02-2.80542E-04-1.57480E-13
 -1      3524 1.28625E-02-3.18873E-04-1.65926E-13
 -1      3525 1.30054E-02-3.19336E-04-1.69292E-13
 -1      3526 1.27907E-02-2.81590E-04-1.64157E-13
 -1      3527 1.31483E-02-3.19765E-04-1.72671E-13
 -1      3528 1.32912E-02-3.20165E-04-1.76058E-13
 -1      3529 1.30765E-02-2.82482E-04-1.70887E-13
 -1      3530 1.34340E-02-3.20541E-04-1.79456E-13
 -1      3531 1.35769E-02-3.20898E-04-1.82865E-13
 -1      3532 1.33622E-02-2.83260E-04-1.77664E-13
 -1      3533 1.38440E-02-2.45270E-04-1.89078E-13
 -1      3534 1.38436E-02-2.03120E-04-1.88963E-13
 -1      3535 1.39653E-02 1.11369E-04-1.90927E-13
 -1      3536 6.37626E-03 3.86919E-04-3.73701E-14
 -1      3537 6.19330E-03 4.43751E-04-3.53800E-14
 -1      3538 7.25601E-03 2.78279E-04-4.94237E-14
 -1      3539 7.10644E-03 2.90425E-04-4.71899E-14
 -1      3540 7.54699E-03 2.64411E-04-5.40146E-14
 -1      3541 7.40254E-03 2.70054E-04-5.16989E-14
 -1      3542 7.36927E-03 2.32933E-04-5.07388E-14
 -1      3543 7.83157E-03 2.59753E-04-5.87648E-14
 -1      3544 7.68978E-03 2.61205E-04-5.63707E-14
 -1      3545 7.64993E-03 2.25817E-04-5.53729E-14
 -1      3546 8.11320E-03 2.61057E-04-6.36725E-14
 -1      3547 7.97257E-03 2.59831E-04-6.11987E-14
 -1      3548 7.92672E-03 2.25181E-04-6.01656E-14
 -1      3549 8.39388E-03 2.66040E-04-6.87311E-14
 -1      3550 8.25354E-03 2.63201E-04-6.61833E-14
 -1      3551 8.20246E-03 2.28650E-04-6.51115E-14
 -1      3552 8.67466E-03 2.73067E-04-7.39355E-14
 -1      3553 8.53419E-03 2.69372E-04-7.13168E-14
 -1      3554 8.47868E-03 2.34572E-04-7.02079E-14
 -1      3555 8.95604E-03 2.80974E-04-7.92818E-14
 -1      3556 8.81524E-03 2.76959E-04-7.65905E-14
 -1      3557 8.75605E-03 2.41763E-04-7.54476E-14
 -1      3558 9.23818E-03 2.88956E-04-8.47602E-14
 -1      3559 9.09700E-03 2.84986E-04-8.20050E-14
 -1      3560 9.03483E-03 2.49372E-04-8.08257E-14
 -1      3561 9.52108E-03 2.96488E-04-9.03670E-14
 -1      3562 9.37953E-03 2.92796E-04-8.75469E-14
 -1      3563 9.31498E-03 2.56802E-04-8.63340E-14
 -1      3564 9.80466E-03 3.03262E-04-9.60994E-14
 -1      3565 9.66278E-03 2.99978E-04-9.32190E-14
 -1      3566 9.59638E-03 2.63668E-04-9.19731E-14
 -1      3567 1.00888E-02 3.09126E-04-1.01947E-13
 -1      3568 9.94665E-03 3.06309E-04-9.90091E-14
 -1      3569 9.87882E-03 2.69754E-04-9.77320E-14
 -1      3570 1.03734E-02 3.14040E-04-1.07905E-13
 -1      3571 1.02310E-02 3.11699E-04-1.04914E-13
 -1      3572 1.01621E-02 2.74961E-04-1.03605E-13
 -1      3573 1.06583E-02 3.18036E-04-1.13969E-13
 -1      3574 1.05158E-02 3.16147E-04-1.10923E-13
 -1      3575 1.04461E-02 2.79280E-04-1.09588E-13
 -1      3576 1.09435E-02 3.21190E-04-1.20134E-13
 -1      3577 1.08009E-02 3.19712E-04-1.17040E-13
 -1      3578 1.07306E-02 2.82758E-04-1.15674E-13
 -1      3579 1.12289E-02 3.23601E-04-1.26399E-13
 -1      3580 1.10862E-02 3.22481E-04-1.23254E-13
 -1      3581 1.10155E-02 2.85473E-04-1.21862E-13
 -1      3582 1.15145E-02 3.25375E-04-1.32758E-13
 -1      3583 1.13717E-02 3.24561E-04-1.29566E-13
 -1      3584 1.13007E-02 2.87521E-04-1.28148E-13
 -1      3585 1.18001E-02 3.26619E-04-1.39208E-13
 -1      3586 1.16573E-02 3.26058E-04-1.35972E-13
 -1      3587 1.15861E-02 2.89003E-04-1.34529E-13
 -1      3588 1.20858E-02 3.27428E-04-1.45743E-13
 -1      3589 1.19429E-02 3.27072E-04-1.42465E-13
 -1      3590 1.18717E-02 2.90014E-04-1.41000E-13
 -1      3591 1.23715E-02 3.27891E-04-1.52358E-13
 -1      3592 1.22286E-02 3.27698E-04-1.49042E-13
 -1      3593 1.21573E-02 2.90642E-04-1.47554E-13
 -1      3594 1.26573E-02 3.28081E-04-1.59040E-13
 -1      3595 1.25144E-02 3.28016E-04-1.55692E-13
 -1      3596 1.24430E-02 2.90967E-04-1.54183E-13
 -1      3597 1.29430E-02 3.28065E-04-1.65773E-13
 -1      3598 1.28001E-02 3.28096E-04-1.62401E-13
 -1      3599 1.27287E-02 2.91055E-04-1.60875E-13
 -1      3600 1.32288E-02 3.27894E-04-1.72549E-13
 -1      3601 1.30859E-02 3.27996E-04-1.69158E-13
 -1      3602 1.30145E-02 2.90962E-04-1.67617E-13
 -1      3603 1.35145E-02 3.27612E-04-1.79354E-13
 -1      3604 1.33716E-02 3.27764E-04-1.75949E-13
 -1      3605 1.33003E-02 2.90737E-04-1.74398E-13
 -1      3606 1.38003E-02 3.27257E-04-1.86183E-13
 -1      3607 1.36574E-02 3.27442E-04-1.82765E-13
 -1      3608 1.35860E-02 2.90419E-04-1.81205E-13
 -1      3609 1.93020E-03 2.39717E-04-5.01782E-15
 -1      3610 1.78714E-03 2.29721E-04-4.35323E-15
 -1      3611 2.22073E-03 2.62322E-04-6.49071E-15
 -1      3612 2.07449E-03 2.50289E-04-5.73013E-15
 -1      3613 1.96403E-03 2.08868E-04-5.45238E-15
 -1      3614 2.75319E-03 1.71817E-04-1.14094E-14
 -1      3615 2.90217E-03 2.42449E-04-1.16796E-14
 -1      3616 5.74891E-03 6.55293E-04-3.14320E-14
 -1      3617 6.74728E-03-2.05954E-04-4.12190E-14
 -1      3618 6.61811E-03-2.64665E-04-4.04527E-14
 -1      3619 2.73860E-03-1.99298E-04-1.14549E-14
 -1      3620 2.58266E-03-1.35119E-04-1.10029E-14
 -1      3621 2.96219E-03-3.05525E-04-1.21467E-14
 -1      3622 9.43195E-04-2.34346E-05-1.84446E-15
 -1      3623 9.48953E-04-4.02302E-05-1.84863E-15
 -1      3624 1.06208E-03-5.32467E-05-2.23758E-15
 -1      3625 3.40496E-03 5.02626E-04-1.32072E-14
 -1      3626 2.28466E-03 2.06363E-05-1.00837E-14
 -1      3627 2.35244E-03 4.13584E-05-1.02906E-14
 -1      3628 6.45421E-03-3.48300E-04-3.94528E-14
 -1      3629 6.95297E-03 3.06590E-04-4.49978E-14
 -1      3630 6.79455E-03 3.29069E-04-4.28478E-14
 -1      3631 7.07971E-03 2.50404E-04-4.62661E-14
 -1      3632 6.67390E-03 3.34974E-04-4.11135E-14
 -1      3633 6.50494E-03 3.70809E-04-3.90412E-14
 -1      3634 6.58937E-03 2.73520E-04-3.89006E-14
 -1      3635 6.81696E-03 2.65251E-04-4.23329E-14
 -1      3636 2.45819E-03 7.29560E-05-1.05975E-14
 -1      3637 2.59622E-03 1.14076E-04-1.10029E-14
 -1      3638 2.59446E-03 1.48400E-04-1.04251E-14
 -1      3639 1.53531E-03-1.84277E-04-3.77972E-15
 -1      3640 1.67395E-03-1.92846E-04-4.41623E-15
 -1      3641 1.71225E-03-1.66081E-04-4.77405E-15
 -1      3642 2.29511E-03-2.37165E-05-1.02567E-14
 -1      3643 2.26057E-03-4.81579E-06-1.00692E-14
 -1      3644 3.24894E-03 4.16089E-04-1.26772E-14
 -1      3645 3.18880E-03 4.31824E-04-1.19760E-14
 -1      3646 3.01312E-03 3.87225E-04-1.09305E-14
 -1      3647 3.05739E-03 3.21944E-04-1.20259E-14
 -1      3648 1.04776E-03-1.52389E-04-1.89878E-15
 -1      3649 2.52140E-03 2.93463E-04-8.15464E-15
 -1      3650 2.36936E-03 2.76191E-04-7.29858E-15
 -1      3651 2.54284E-03 2.54068E-04-8.70103E-15
 -1      3652 1.41203E-02 2.76875E-04-1.94043E-13
 -1      3653 1.41264E-02 3.12320E-04-1.94051E-13
 -1      3654 1.40351E-02 3.19121E-04-1.91835E-13
 -1      3655 1.39966E-02 2.55979E-04-1.91155E-13
 -1      3656 1.15614E-03-1.49999E-04-2.30350E-15
 -1      3657 2.78373E-03-2.65256E-04-1.10910E-14
 -1      3658 1.24059E-03-1.37709E-04-2.68423E-15
 -1      3659 1.29617E-03-1.71805E-04-2.77481E-15
 -1      3660 2.62889E-03-2.44115E-04-1.00801E-14
 -1      3661 2.25642E-03-4.01790E-05-9.61950E-15
 -1      3662 1.66583E-03 2.24790E-04-3.80025E-15
 -1      3663 1.54441E-03 2.19258E-04-3.28524E-15
 -1      3664 1.70540E-03 1.97288E-04-4.17975E-15
 -1      3665 2.49156E-03-1.88852E-04-9.60178E-15
 -1      3666 1.43457E-03-1.82342E-04-3.32403E-15
 -1      3667 6.64032E-03 2.34122E-04-3.89625E-14
 -1      3668 6.72101E-03 1.87328E-04-3.92785E-14
 -1      3669 6.84535E-03 1.62754E-04-4.07926E-14
 -1      3670 6.74917E-03 2.31405E-04-4.06692E-14
 -1      3671 1.38421E-02 6.19855E-06-1.88324E-13
 -1      3672 1.38419E-02 4.83472E-05-1.88181E-13
 -1      3673 2.24820E-03 2.27492E-04-6.98238E-15
 -1      3674 1.36839E-02-3.28888E-04-1.85442E-13
 -1      3675 1.38084E-02-3.32029E-04-1.88432E-13
 -1      3676 1.38259E-02-3.07570E-04-1.88796E-13
 -1      3677 1.36121E-02-2.91606E-04-1.83640E-13
 -1      3678 1.21991E-03-1.11427E-04-2.69871E-15
 -1      3679 1.35449E-03-1.28404E-04-3.21101E-15
 -1      3680 1.20210E-03-8.72630E-05-2.70733E-15
 -1      3681 1.38432E-02-1.61326E-04-1.88845E-13
 -1      3682 1.38429E-02-1.19534E-04-1.88722E-13
 -1      3683 1.37197E-02-1.82139E-04-1.85941E-13
 -1      3684 1.38416E-02 9.04966E-05-1.88037E-13
 -1      3685 1.38415E-02 1.32646E-04-1.87888E-13
 -1      3686 1.37180E-02 6.96299E-05-1.85148E-13
 -1      3687 2.34304E-03 6.43112E-05-9.74411E-15
 -1      3688 2.89275E-03 2.78105E-04-1.11457E-14
 -1      3689 1.39437E-02 3.25920E-04-1.89621E-13
 -1      3690 6.88168E-03-1.71871E-04-4.26131E-14
 -1      3691 2.44506E-03-1.15793E-04-1.01268E-14
 -1      3692 2.86347E-03 3.09749E-04-1.05328E-14
 -1      3693 1.04862E-03-1.66308E-05-2.22695E-15
 -1      3694 7.13629E-03-5.27574E-05-4.31207E-14
 -1      3695 7.11941E-03-7.90706E-05-4.39253E-14
 -1      3696 7.04958E-03 7.58138E-05-4.19444E-14
 -1      3697 7.15019E-03 5.99560E-05-4.33348E-14
 -1      3698 7.01596E-03 1.03949E-04-4.22297E-14
 -1      3699 1.25585E-03 1.72287E-04-2.36310E-15
 -1      3700 1.23279E-03 1.43207E-04-2.41923E-15
 -1      3701 1.38423E-02-3.55933E-05-1.88462E-13
 -1      3702 1.37185E-02-1.42920E-05-1.85429E-13
 -1      3703 1.38426E-02-7.73848E-05-1.88593E-13
 -1      3704 1.15852E-03 2.90287E-05-2.60619E-15
 -1      3705 1.15433E-03 1.01106E-05-2.62729E-15
 -1      3706 2.20813E-03 8.61995E-06-9.44046E-15
 -1      3707 2.16305E-03 2.34493E-05-8.82711E-15
 -1      3708 2.14076E-03-3.18182E-06-8.81224E-15
 -1      3709 1.38724E-02 2.88897E-04-1.88055E-13
 -1      3710 7.24181E-03 2.51743E-05-4.40721E-14
 -1      3711 7.23446E-03 1.12002E-05-4.34282E-14
 -1      3712 7.23677E-03-3.10470E-06-4.33239E-14
 -1      3713 7.22215E-03-1.53392E-05-4.32134E-14
 -1      3714 7.29903E-03-1.92158E-06-4.50034E-14
 -1      3715 1.38476E-02 1.68081E-04-1.87909E-13
 -1      3716 1.38537E-02 2.03516E-04-1.87929E-13
 -1      3717 1.37239E-02 1.47198E-04-1.85026E-13
 -1      3718 7.18932E-03-3.34288E-05-4.32477E-14
 -1      3719 1.47825E-03-1.58757E-04-3.63879E-15
 -1      3720 1.17841E-03 6.95131E-05-2.54853E-15
 -1      3721 1.16664E-03 4.86219E-05-2.58016E-15
 -1      3722 1.26967E-03 4.07982E-05-3.04481E-15
 -1      3723 1.38434E-02-2.83109E-04-1.89157E-13
 -1      3724 1.37195E-02-2.61757E-04-1.86138E-13
 -1      3725 2.14509E-03-1.53228E-04-7.47774E-15
 -1      3726 2.27839E-03-1.58268E-04-8.35185E-15
 -1      3727 7.01861E-03-1.61855E-04-4.47641E-14
 -1      3728 2.21375E-03-5.88383E-05-8.98541E-15
 -1      3729 2.15561E-03-3.22799E-05-8.79759E-15
 -1      3730 2.27106E-03 1.92572E-04-7.48174E-15
 -1      3731 2.13218E-03 1.84841E-04-6.66544E-15
 -1      3732 8.01808E-03 1.93123E-04-6.15683E-14
 -1      3733 7.88319E-03 1.91620E-04-5.91325E-14
 -1      3734 7.43838E-03-1.65993E-04-5.22270E-14
 -1      3735 7.56962E-03-1.65713E-04-5.45496E-14
 -1      3736 7.70039E-03-1.66467E-04-5.69100E-14
 -1      3737 7.83158E-03-1.67937E-04-5.93076E-14
 -1      3738 7.66504E-03-1.34551E-04-5.56637E-14
 -1      3739 7.96302E-03-1.70019E-04-6.17430E-14
 -1      3740 8.09518E-03-1.72623E-04-6.42153E-14
 -1      3741 7.91955E-03-1.38883E-04-6.04545E-14
 -1      3742 8.22792E-03-1.75593E-04-6.67230E-14
 -1      3743 8.36148E-03-1.78901E-04-6.92653E-14
 -1      3744 8.17818E-03-1.44356E-04-6.53937E-14
 -1      3745 8.49574E-03-1.82391E-04-7.18423E-14
 -1      3746 8.63081E-03-1.86064E-04-7.44543E-14
 -1      3747 8.44108E-03-1.50620E-04-7.04754E-14
 -1      3748 8.76658E-03-1.89779E-04-7.70995E-14
 -1      3749 8.90309E-03-1.93549E-04-7.97754E-14
 -1      3750 8.70801E-03-1.57275E-04-7.56931E-14
 -1      3751 9.04025E-03-1.97258E-04-8.24849E-14
 -1      3752 9.17806E-03-2.00924E-04-8.52271E-14
 -1      3753 8.97857E-03-1.63969E-04-8.10452E-14
 -1      3754 9.31643E-03-2.04458E-04-8.79969E-14
 -1      3755 9.45536E-03-2.07881E-04-9.07973E-14
 -1      3756 9.25229E-03-1.70418E-04-8.65228E-14
 -1      3757 9.59476E-03-2.11129E-04-9.36286E-14
 -1      3758 9.73462E-03-2.14225E-04-9.64883E-14
 -1      3759 9.52867E-03-1.76417E-04-9.21231E-14
 -1      3760 9.87487E-03-2.17127E-04-9.93759E-14
 -1      3761 1.00155E-02-2.19857E-04-1.02292E-13
 -1      3762 9.80726E-03-1.81839E-04-9.78392E-14
 -1      3763 1.01564E-02-2.22390E-04-1.05237E-13
 -1      3764 1.02976E-02-2.24747E-04-1.08210E-13
 -1      3765 1.00876E-02-1.86625E-04-1.03670E-13
 -1      3766 1.04391E-02-2.26916E-04-1.11208E-13
 -1      3767 1.05808E-02-2.28918E-04-1.14234E-13
 -1      3768 1.03694E-02-1.90767E-04-1.09611E-13
 -1      3769 1.07226E-02-2.30748E-04-1.17288E-13
 -1      3770 1.08647E-02-2.32425E-04-1.20367E-13
 -1      3771 1.06523E-02-1.94296E-04-1.15660E-13
 -1      3772 1.10069E-02-2.33952E-04-1.23472E-13
 -1      3773 1.11492E-02-2.35343E-04-1.26602E-13
 -1      3774 1.09361E-02-1.97266E-04-1.21817E-13
 -1      3775 1.12916E-02-2.36605E-04-1.29757E-13
 -1      3776 1.14341E-02-2.37752E-04-1.32933E-13
 -1      3777 1.12204E-02-1.99743E-04-1.28076E-13
 -1      3778 1.15767E-02-2.38791E-04-1.36131E-13
 -1      3779 1.17193E-02-2.39734E-04-1.39348E-13
 -1      3780 1.15053E-02-2.01799E-04-1.34427E-13
 -1      3781 1.18620E-02-2.40588E-04-1.42586E-13
 -1      3782 1.20048E-02-2.41364E-04-1.45845E-13
 -1      3783 1.17905E-02-2.03501E-04-1.40863E-13
 -1      3784 1.21475E-02-2.42069E-04-1.49119E-13
 -1      3785 1.22904E-02-2.42712E-04-1.52414E-13
 -1      3786 1.20759E-02-2.04916E-04-1.47379E-13
 -1      3787 1.24332E-02-2.43299E-04-1.55722E-13
 -1      3788 1.25760E-02-2.43836E-04-1.59046E-13
 -1      3789 1.23615E-02-2.06100E-04-1.53965E-13
 -1      3790 1.27189E-02-2.44332E-04-1.62387E-13
 -1      3791 1.28618E-02-2.44789E-04-1.65740E-13
 -1      3792 1.26471E-02-2.07103E-04-1.60617E-13
 -1      3793 1.30047E-02-2.45215E-04-1.69106E-13
 -1      3794 1.31475E-02-2.45613E-04-1.72484E-13
 -1      3795 1.29329E-02-2.07967E-04-1.67324E-13
 -1      3796 1.32904E-02-2.45988E-04-1.75870E-13
 -1      3797 1.34333E-02-2.46343E-04-1.79267E-13
 -1      3798 1.32186E-02-2.08727E-04-1.74076E-13
 -1      3799 1.36126E-02-2.53779E-04-1.83560E-13
 -1      3800 7.74846E-03 1.90911E-04-5.67354E-14
 -1      3801 7.61332E-03 1.91305E-04-5.43767E-14
 -1      3802 7.84181E-03 1.59135E-04-5.80996E-14
 -1      3803 1.35944E-02 4.87705E-05-1.82265E-13
 -1      3804 1.35941E-02 9.08997E-05-1.82122E-13
 -1      3805 2.22655E-03 6.00419E-05-8.84177E-15
 -1      3806 2.32537E-03 9.19342E-05-9.12205E-15
 -1      3807 7.47780E-03 1.92860E-04-5.20573E-14
 -1      3808 7.34079E-03 1.96315E-04-4.97778E-14
 -1      3809 7.57993E-03 1.57599E-04-5.33800E-14
 -1      3810 8.28863E-03 1.97923E-04-6.65522E-14
 -1      3811 8.15312E-03 1.95270E-04-6.40412E-14
 -1      3812 8.10533E-03 1.63067E-04-6.29733E-14
 -1      3813 8.56102E-03 2.04208E-04-7.16857E-14
 -1      3814 8.42453E-03 2.00921E-04-6.91011E-14
 -1      3815 8.37158E-03 1.68441E-04-6.79954E-14
 -1      3816 8.83555E-03 2.11176E-04-7.69592E-14
 -1      3817 8.69799E-03 2.07634E-04-7.43059E-14
 -1      3818 8.64088E-03 1.74602E-04-7.31643E-14
 -1      3819 9.11218E-03 2.18222E-04-8.23693E-14
 -1      3820 8.97359E-03 2.14707E-04-7.96477E-14
 -1      3821 8.91315E-03 1.81028E-04-7.84726E-14
 -1      3822 9.39072E-03 2.24922E-04-8.79103E-14
 -1      3823 9.25121E-03 2.21625E-04-8.51245E-14
 -1      3824 9.18810E-03 1.87308E-04-8.39151E-14
 -1      3825 9.67089E-03 2.31005E-04-9.35774E-14
 -1      3826 9.53061E-03 2.28045E-04-9.07274E-14
 -1      3827 9.46539E-03 1.93148E-04-8.94869E-14
 -1      3828 9.95243E-03 2.36324E-04-9.93638E-14
 -1      3829 9.81150E-03 2.33759E-04-9.64570E-14
 -1      3830 9.74465E-03 1.98367E-04-9.51818E-14
 -1      3831 1.02351E-02 2.40824E-04-1.05263E-13
 -1      3832 1.00936E-02 2.38673E-04-1.02300E-13
 -1      3833 1.00255E-02 2.02872E-04-1.00996E-13
 -1      3834 1.05186E-02 2.44518E-04-1.11270E-13
 -1      3835 1.03767E-02 2.42767E-04-1.08255E-13
 -1      3836 1.03076E-02 2.06641E-04-1.06921E-13
 -1      3837 1.08027E-02 2.47459E-04-1.17378E-13
 -1      3838 1.06606E-02 2.46076E-04-1.14309E-13
 -1      3839 1.05908E-02 2.09697E-04-1.12950E-13
 -1      3840 1.10874E-02 2.49726E-04-1.23589E-13
 -1      3841 1.09450E-02 2.48671E-04-1.20471E-13
 -1      3842 1.08747E-02 2.12100E-04-1.19081E-13
 -1      3843 1.13724E-02 2.51409E-04-1.29899E-13
 -1      3844 1.12299E-02 2.50634E-04-1.26732E-13
 -1      3845 1.11592E-02 2.13921E-04-1.25316E-13
 -1      3846 1.16577E-02 2.52597E-04-1.36298E-13
 -1      3847 1.15151E-02 2.52059E-04-1.33086E-13
 -1      3848 1.14441E-02 2.15243E-04-1.31648E-13
 -1      3849 1.19432E-02 2.53378E-04-1.42790E-13
 -1      3850 1.18005E-02 2.53034E-04-1.39535E-13
 -1      3851 1.17293E-02 2.16146E-04-1.38069E-13
 -1      3852 1.22288E-02 2.53829E-04-1.49363E-13
 -1      3853 1.20860E-02 2.53640E-04-1.46067E-13
 -1      3854 1.20148E-02 2.16703E-04-1.44581E-13
 -1      3855 1.25145E-02 2.54020E-04-1.56006E-13
 -1      3856 1.23717E-02 2.53953E-04-1.52676E-13
 -1      3857 1.23004E-02 2.16984E-04-1.51171E-13
 -1      3858 1.28003E-02 2.54008E-04-1.62708E-13
 -1      3859 1.26574E-02 2.54036E-04-1.59352E-13
 -1      3860 1.25861E-02 2.17047E-04-1.57826E-13
 -1      3861 1.30860E-02 2.53844E-04-1.69457E-13
 -1      3862 1.29431E-02 2.53943E-04-1.66076E-13
 -1      3863 1.28718E-02 2.16942E-04-1.64539E-13
 -1      3864 1.33718E-02 2.53569E-04-1.76241E-13
 -1      3865 1.32289E-02 2.53718E-04-1.72846E-13
 -1      3866 1.31576E-02 2.16710E-04-1.71294E-13
 -1      3867 2.36390E-03-1.43279E-04-9.13144E-15
 -1      3868 1.99510E-03 1.78256E-04-5.89634E-15
 -1      3869 1.85876E-03 1.72009E-04-5.17389E-15
 -1      3870 2.02327E-03 1.47778E-04-6.34914E-15
 -1      3871 1.61708E-03-1.34933E-04-4.45251E-15
 -1      3872 1.74911E-03-1.39833E-04-5.13776E-15
 -1      3873 1.45166E-03-1.29027E-04-3.65620E-15
 -1      3874 1.32132E-03 2.10072E-04-2.42110E-15
 -1      3875 1.42977E-03 2.03990E-04-2.88639E-15
 -1      3876 7.20249E-03 2.01466E-04-4.75392E-14
 -1      3877 7.06078E-03 2.10102E-04-4.53407E-14
 -1      3878 7.31736E-03 1.59917E-04-4.88177E-14
 -1      3879 7.24665E-03 4.43809E-05-4.48159E-14
 -1      3880 7.31426E-03 2.99387E-05-4.58645E-14
 -1      3881 2.72574E-03 2.41538E-04-1.02181E-14
 -1      3882 2.44457E-03 1.30413E-04-9.48421E-15
 -1      3883 2.58260E-03 1.80816E-04-9.85608E-15
 -1      3884 2.55827E-03 2.12212E-04-9.28641E-15
 -1      3885 2.30653E-03 1.18847E-04-8.59539E-15
 -1      3886 1.21184E-03 1.16501E-04-2.46834E-15
 -1      3887 1.19366E-03 9.19968E-05-2.51141E-15
 -1      3888 1.29659E-03 8.50702E-05-2.97359E-15
 -1      3889 2.25331E-03-9.60181E-05-8.84391E-15
 -1      3890 1.38531E-02 2.57329E-04-1.87716E-13
 -1      3891 1.17619E-03-4.44374E-05-2.70815E-15
 -1      3892 1.18737E-03-6.51057E-05-2.71014E-15
 -1      3893 1.31437E-03-7.75293E-05-3.22728E-15
 -1      3894 7.25750E-03-3.50524E-05-4.49250E-14
 -1      3895 1.15974E-03-7.23795E-06-2.66612E-15
 -1      3896 1.16339E-03-2.60971E-05-2.67797E-15
 -1      3897 1.28442E-03-3.51842E-05-3.19459E-15
 -1      3898 1.26575E-03 2.16826E-06-3.11707E-15
 -1      3899 2.41387E-03 2.00065E-04-8.37556E-15
 -1      3900 1.88085E-03-1.44340E-04-5.87053E-15
 -1      3901 2.01295E-03-1.48733E-04-6.65075E-15
 -1      3902 1.78462E-03-1.14093E-04-5.50655E-15
 -1      3903 1.33785E-03 1.36963E-04-2.87740E-15
 -1      3904 7.12623E-03-1.11807E-04-4.52207E-14
 -1      3905 7.15054E-03-1.63791E-04-4.71155E-14
 -1      3906 1.35408E-02-2.16508E-04-1.81755E-13
 -1      3907 1.37295E-02 2.36430E-04-1.84836E-13
 -1      3908 1.47393E-03 1.79796E-04-3.21604E-15
 -1      3909 2.29078E-03 1.55705E-04-8.01903E-15
 -1      3910 1.38251E-03 5.34756E-05-3.51433E-15
 -1      3911 1.37188E-03 3.17667E-05-3.54758E-15
 -1      3912 1.74321E-03 1.70063E-04-4.57043E-15
 -1      3913 1.62705E-03 1.67583E-04-4.00412E-15
 -1      3914 1.77922E-03 1.43161E-04-4.97124E-15
 -1      3915 2.03894E-03-1.19286E-04-7.06454E-15
 -1      3916 1.35404E-02-1.74737E-04-1.81640E-13
 -1      3917 2.13035E-03-8.25109E-05-8.05804E-15
 -1      3918 1.34766E-02 1.05444E-04-1.79270E-13
 -1      3919 1.36002E-02 1.26319E-04-1.82145E-13
 -1      3920 1.36064E-02 1.61739E-04-1.82168E-13
 -1      3921 2.01768E-03-3.27200E-05-7.63170E-15
 -1      3922 2.07791E-03-1.72780E-05-8.21441E-15
 -1      3923 2.00902E-03-2.91249E-06-7.64765E-15
 -1      3924 7.28274E-03-1.60168E-04-4.93498E-14
 -1      3925 1.35866E-02 2.36625E-04-1.81420E-13
 -1      3926 2.12440E-03 4.33269E-05-8.24505E-15
 -1      3927 2.08788E-03 6.57120E-05-7.67692E-15
 -1      3928 2.03239E-03 2.91815E-05-7.66411E-15
 -1      3929 1.35946E-02 6.99878E-06-1.82404E-13
 -1      3930 1.34707E-02 2.82770E-05-1.79386E-13
 -1      3931 1.35948E-02-3.47722E-05-1.82541E-13
 -1      3932 7.40152E-03 3.16298E-05-4.78489E-14
 -1      3933 7.37999E-03 1.42566E-05-4.70817E-14
 -1      3934 1.35152E-02 1.99615E-04-1.79857E-13
 -1      3935 1.53619E-03 1.58062E-04-3.63343E-15
 -1      3936 1.42689E-03 1.46405E-04-3.20840E-15
 -1      3937 1.40226E-03 1.17895E-04-3.26475E-15
 -1      3938 1.57754E-03 1.33987E-04-3.99053E-15
 -1      3939 1.49519E-03-1.07080E-04-3.97208E-15
 -1      3940 5.85930E-03 6.08851E-04-3.24987E-14
 -1      3941 7.39032E-03-1.24907E-04-5.04234E-14
 -1      3942 1.37190E-02-9.82139E-05-1.85694E-13
 -1      3943 6.97209E-03 1.29944E-04-4.21746E-14
 -1      3944 7.08739E-03 1.05300E-04-4.35719E-14
 -1      3945 6.92696E-03 1.59270E-04-4.21158E-14
 -1      3946 7.23016E-03 6.44332E-05-4.51136E-14
 -1      3947 7.11423E-03 1.46624E-04-4.50466E-14
 -1      3948 6.98426E-03 1.94935E-04-4.38123E-14
 -1      3949 7.46334E-03-2.08916E-06-4.89774E-14
 -1      3950 7.37812E-03-2.50173E-06-4.69755E-14
 -1      3951 7.36441E-03-1.80575E-05-4.68609E-14
 -1      3952 7.22794E-03-8.63651E-05-4.62640E-14
 -1      3953 1.37214E-03 1.24838E-05-3.59993E-15
 -1      3954 1.37707E-03-6.68980E-06-3.64787E-15
 -1      3955 1.47941E-03 2.34455E-05-4.11414E-15
 -1      3956 7.32812E-03-3.70428E-05-4.65589E-14
 -1      3957 7.29120E-03-5.91782E-05-4.65846E-14
 -1      3958 7.31266E-03-8.69954E-05-4.79155E-14
 -1      3959 7.41573E-03-3.88687E-05-4.85547E-14
 -1      3960 6.05683E-03 5.00367E-04-3.41171E-14
 -1      3961 1.47345E-03-8.10268E-05-3.97634E-15
 -1      3962 7.87674E-03-1.09359E-04-5.91706E-14
 -1      3963 8.00206E-03-1.11937E-04-6.16007E-14
 -1      3964 8.12878E-03-1.14551E-04-6.40692E-14
 -1      3965 8.25706E-03-1.17339E-04-6.65722E-14
 -1      3966 8.07931E-03-8.61973E-05-6.27466E-14
 -1      3967 8.38664E-03-1.20132E-04-6.91098E-14
 -1      3968 8.51756E-03-1.23041E-04-7.16842E-14
 -1      3969 8.33208E-03-9.09369E-05-6.77486E-14
 -1      3970 8.64964E-03-1.25917E-04-7.42906E-14
 -1      3971 8.78286E-03-1.28843E-04-7.69316E-14
 -1      3972 8.59117E-03-9.57165E-05-7.28905E-14
 -1      3973 8.91709E-03-1.31693E-04-7.96072E-14
 -1      3974 9.05229E-03-1.34531E-04-8.23138E-14
 -1      3975 8.85557E-03-1.00442E-04-7.81693E-14
 -1      3976 9.18834E-03-1.37258E-04-8.50516E-14
 -1      3977 9.32521E-03-1.39923E-04-8.78199E-14
 -1      3978 9.12441E-03-1.04991E-04-8.35809E-14
 -1      3979 9.46278E-03-1.42455E-04-9.06188E-14
 -1      3980 9.60102E-03-1.44890E-04-9.34480E-14
 -1      3981 9.39695E-03-1.09260E-04-8.91167E-14
 -1      3982 9.73984E-03-1.47178E-04-9.63050E-14
 -1      3983 9.87920E-03-1.49352E-04-9.91897E-14
 -1      3984 9.67251E-03-1.13165E-04-9.47713E-14
 -1      3985 1.00190E-02-1.51375E-04-1.02103E-13
 -1      3986 1.01593E-02-1.53276E-04-1.05046E-13
 -1      3987 9.95052E-03-1.16661E-04-1.00541E-13
 -1      3988 1.02999E-02-1.55033E-04-1.08018E-13
 -1      3989 1.04409E-02-1.56669E-04-1.11013E-13
 -1      3990 1.02305E-02-1.19735E-04-1.06423E-13
 -1      3991 1.05821E-02-1.58172E-04-1.14038E-13
 -1      3992 1.07236E-02-1.59563E-04-1.17089E-13
 -1      3993 1.05120E-02-1.22398E-04-1.12419E-13
 -1      3994 1.08654E-02-1.60836E-04-1.20164E-13
 -1      3995 1.10073E-02-1.62007E-04-1.23268E-13
 -1      3996 1.07948E-02-1.24680E-04-1.18517E-13
 -1      3997 1.11494E-02-1.63076E-04-1.26395E-13
 -1      3998 1.12916E-02-1.64057E-04-1.29548E-13
 -1      3999 1.10784E-02-1.26621E-04-1.24720E-13
 -1      4000 1.14340E-02-1.64952E-04-1.32724E-13
 -1      4001 1.15764E-02-1.65773E-04-1.35919E-13
 -1      4002 1.13627E-02-1.28267E-04-1.31022E-13
 -1      4003 1.17190E-02-1.66522E-04-1.39139E-13
 -1      4004 1.18616E-02-1.67210E-04-1.42379E-13
 -1      4005 1.16475E-02-1.29663E-04-1.37416E-13
 -1      4006 1.20043E-02-1.67840E-04-1.45635E-13
 -1      4007 1.21470E-02-1.68421E-04-1.48913E-13
 -1      4008 1.19327E-02-1.30852E-04-1.43894E-13
 -1      4009 1.22898E-02-1.68956E-04-1.52208E-13
 -1      4010 1.24326E-02-1.69451E-04-1.55519E-13
 -1      4011 1.22181E-02-1.31874E-04-1.50448E-13
 -1      4012 1.25754E-02-1.69911E-04-1.58845E-13
 -1      4013 1.27183E-02-1.70341E-04-1.62186E-13
 -1      4014 1.25037E-02-1.32763E-04-1.57074E-13
 -1      4015 1.28611E-02-1.70744E-04-1.65541E-13
 -1      4016 1.30040E-02-1.71123E-04-1.68907E-13
 -1      4017 1.27894E-02-1.33549E-04-1.63757E-13
 -1      4018 1.31469E-02-1.71483E-04-1.72282E-13
 -1      4019 1.32898E-02-1.71826E-04-1.75668E-13
 -1      4020 1.30751E-02-1.34257E-04-1.70485E-13
 -1      4021 7.92986E-03 1.30096E-04-5.94679E-14
 -1      4022 7.80212E-03 1.28141E-04-5.70686E-14
 -1      4023 2.03314E-03-8.90867E-05-7.28943E-15
 -1      4024 2.01172E-03-5.59073E-05-7.42081E-15
 -1      4025 1.92381E-03-3.88271E-05-6.88932E-15
 -1      4026 1.91208E-03-8.84433E-05-6.47639E-15
 -1      4027 7.41823E-03 5.37561E-05-4.86266E-14
 -1      4028 7.49317E-03 3.58814E-05-4.98773E-14
 -1      4029 1.39905E-03 9.66793E-05-3.37133E-15
 -1      4030 1.38046E-03 7.20953E-05-3.41594E-15
 -1      4031 1.48037E-03 6.26995E-05-3.94997E-15
 -1      4032 1.48423E-03 1.03603E-04-3.73239E-15
 -1      4033 1.33916E-02 1.78716E-04-1.76988E-13
 -1      4034 8.71831E-03 1.45588E-04-7.46454E-14
 -1      4035 8.58432E-03 1.42739E-04-7.20253E-14
 -1      4036 8.98890E-03 1.51199E-04-7.99853E-14
 -1      4037 8.85317E-03 1.48395E-04-7.72988E-14
 -1      4038 8.79344E-03 1.16825E-04-7.61266E-14
 -1      4039 9.26265E-03 1.56537E-04-8.54628E-14
 -1      4040 9.12540E-03 1.53902E-04-8.27088E-14
 -1      4041 9.06294E-03 1.21430E-04-8.15022E-14
 -1      4042 9.53906E-03 1.61411E-04-9.10631E-14
 -1      4043 9.40054E-03 1.59030E-04-8.82472E-14
 -1      4044 9.33592E-03 1.25716E-04-8.70090E-14
 -1      4045 9.81766E-03 1.65703E-04-9.67865E-14
 -1      4046 9.67810E-03 1.63626E-04-9.39097E-14
 -1      4047 9.61178E-03 1.29563E-04-9.26409E-14
 -1      4048 1.00980E-02 1.69360E-04-1.02625E-13
 -1      4049 9.95765E-03 1.67606E-04-9.96917E-14
 -1      4050 9.89000E-03 1.32901E-04-9.83897E-14
 -1      4051 1.03799E-02 1.72381E-04-1.08577E-13
 -1      4052 1.02388E-02 1.70944E-04-1.05588E-13
 -1      4053 1.01701E-02 1.35705E-04-1.04255E-13
 -1      4054 1.06628E-02 1.74797E-04-1.14628E-13
 -1      4055 1.05212E-02 1.73658E-04-1.11590E-13
 -1      4056 1.04517E-02 1.37983E-04-1.10231E-13
 -1      4057 1.09465E-02 1.76663E-04-1.20785E-13
 -1      4058 1.08045E-02 1.75793E-04-1.17693E-13
 -1      4059 1.07345E-02 1.39771E-04-1.16308E-13
 -1      4060 1.12309E-02 1.78046E-04-1.27045E-13
 -1      4061 1.10886E-02 1.77409E-04-1.23903E-13
 -1      4062 1.10182E-02 1.41117E-04-1.22490E-13
 -1      4063 1.15157E-02 1.79017E-04-1.33394E-13
 -1      4064 1.13733E-02 1.78578E-04-1.30208E-13
 -1      4065 1.13025E-02 1.42079E-04-1.28769E-13
 -1      4066 1.18009E-02 1.79642E-04-1.39842E-13
 -1      4067 1.16583E-02 1.79368E-04-1.36607E-13
 -1      4068 1.15873E-02 1.42714E-04-1.35145E-13
 -1      4069 1.20864E-02 1.79986E-04-1.46373E-13
 -1      4070 1.19436E-02 1.79845E-04-1.43095E-13
 -1      4071 1.18725E-02 1.43077E-04-1.41612E-13
 -1      4072 1.23719E-02 1.80105E-04-1.52976E-13
 -1      4073 1.22291E-02 1.80070E-04-1.49667E-13
 -1      4074 1.21579E-02 1.43220E-04-1.48162E-13
 -1      4075 1.26576E-02 1.80047E-04-1.59647E-13
 -1      4076 1.25148E-02 1.80095E-04-1.56307E-13
 -1      4077 1.24435E-02 1.43187E-04-1.54784E-13
 -1      4078 1.29434E-02 1.79854E-04-1.66367E-13
 -1      4079 1.28005E-02 1.79965E-04-1.63002E-13
 -1      4080 1.27292E-02 1.43018E-04-1.61465E-13
 -1      4081 1.32291E-02 1.79561E-04-1.73127E-13
 -1      4082 1.30862E-02 1.79718E-04-1.69742E-13
 -1      4083 1.30149E-02 1.42745E-04-1.68192E-13
 -1      4084 7.48642E-03 1.04380E-04-5.08834E-14
 -1      4085 7.36562E-03 1.03097E-04-4.86261E-14
 -1      4086 2.04903E-03 1.18431E-04-6.81078E-15
 -1      4087 1.92217E-03 1.16087E-04-6.03333E-15
 -1      4088 7.70373E-03 1.16942E-04-5.51131E-14
 -1      4089 7.57925E-03 1.15356E-04-5.27835E-14
 -1      4090 7.60251E-03 6.86164E-05-5.25674E-14
 -1      4091 7.78921E-03 8.98450E-05-5.64436E-14
 -1      4092 6.85664E-03 2.31258E-04-4.24024E-14
 -1      4093 2.17896E-03 1.17972E-04-7.69251E-15
 -1      4094 1.38670E-03-2.59786E-05-3.69079E-15
 -1      4095 1.40116E-03-4.61456E-05-3.72833E-15
 -1      4096 1.48847E-03-1.60582E-05-4.21877E-15
 -1      4097 7.63114E-03-1.04571E-04-5.44210E-14
 -1      4098 7.75321E-03-1.07001E-04-5.67772E-14
 -1      4099 7.83404E-03-8.14893E-05-5.78889E-14
 -1      4100 7.44965E-03-9.55199E-05-5.07638E-14
 -1      4101 8.45134E-03 1.39980E-04-6.94407E-14
 -1      4102 8.31931E-03 1.37250E-04-6.68917E-14
 -1      4103 8.52805E-03 1.12069E-04-7.08875E-14
 -1      4104 1.57178E-03-7.09865E-05-4.53342E-15
 -1      4105 2.07677E-03 8.77027E-05-7.33708E-15
 -1      4106 1.34149E-02-1.52228E-04-1.78593E-13
 -1      4107 1.35938E-02-1.17857E-04-1.82761E-13
 -1      4108 1.35935E-02-7.57274E-05-1.82632E-13
 -1      4109 1.33432E-02-1.14988E-04-1.76785E-13
 -1      4110 8.18843E-03 1.34697E-04-6.43801E-14
 -1      4111 8.05852E-03 1.32260E-04-6.19059E-14
 -1      4112 8.01234E-03 1.02868E-04-6.08384E-14
 -1      4113 8.26745E-03 1.07370E-04-6.57895E-14
 -1      4114 7.53723E-03-6.99418E-05-5.18305E-14
 -1      4115 7.26162E-03 9.98790E-05-4.66194E-14
 -1      4116 1.94861E-03 1.46180E-05-7.11352E-15
 -1      4117 1.89373E-03 3.31449E-05-6.59363E-15
 -1      4118 1.87045E-03 3.52994E-07-6.57803E-15
 -1      4119 1.34697E-02-5.44237E-05-1.79618E-13
 -1      4120 1.58969E-03 7.75342E-05-4.43074E-15
 -1      4121 1.58797E-03 5.72452E-05-4.54476E-15
 -1      4122 1.74901E-03 4.43325E-05-5.56372E-15
 -1      4123 1.64746E-03 3.15015E-05-5.01850E-15
 -1      4124 1.33202E-02 1.41725E-04-1.75425E-13
 -1      4125 1.82342E-03 8.04712E-05-5.74746E-15
 -1      4126 1.78813E-03 1.04870E-04-5.33239E-15
 -1      4127 1.96813E-03 6.86412E-05-6.79699E-15
 -1      4128 7.54677E-03 4.54759E-06-5.08291E-14
 -1      4129 7.53683E-03-1.34355E-05-5.07151E-14
 -1      4130 1.67951E-03 1.05560E-04-4.72016E-15
 -1      4131 7.59383E-03 4.55430E-05-5.21044E-14
 -1      4132 7.56557E-03 2.40251E-05-5.13024E-14
 -1      4133 7.65037E-03 1.26915E-05-5.30770E-14
 -1      4134 7.68343E-03 5.53635E-05-5.40268E-14
 -1      4135 1.33471E-02 7.61650E-06-1.76511E-13
 -1      4136 1.33469E-02 4.93605E-05-1.76372E-13
 -1      4137 1.64589E-03 1.09243E-05-5.08282E-15
 -1      4138 1.69577E-03-8.76569E-05-5.14885E-15
 -1      4139 1.81976E-03-8.93704E-05-5.87979E-15
 -1      4140 1.61684E-03-5.02396E-05-4.86505E-15
 -1      4141 1.82649E-03-6.39159E-05-6.08117E-15
 -1      4142 9.40802E-03 9.47616E-05-8.85550E-14
 -1      4143 9.27128E-03 9.32159E-05-8.57714E-14
 -1      4144 1.33141E-02 1.06329E-04-1.75403E-13
 -1      4145 1.76224E-03-4.58087E-06-5.83905E-15
 -1      4146 1.60282E-03-1.14549E-05-4.85620E-15
 -1      4147 1.61508E-03-3.20985E-05-4.90607E-15
 -1      4148 1.83480E-03-2.24717E-05-6.31922E-15
 -1      4149 8.27665E-03-6.30260E-05-6.63891E-14
 -1      4150 8.40355E-03-6.48636E-05-6.89233E-14
 -1      4151 8.53206E-03-6.66337E-05-7.14929E-14
 -1      4152 8.66215E-03-6.84546E-05-7.40971E-14
 -1      4153 8.47194E-03-3.86715E-05-7.00982E-14
 -1      4154 8.79360E-03-7.01794E-05-7.67347E-14
 -1      4155 8.92633E-03-7.19306E-05-7.94072E-14
 -1      4156 8.73088E-03-4.09017E-05-7.53035E-14
 -1      4157 9.06019E-03-7.35956E-05-8.21125E-14
 -1      4158 9.19510E-03-7.52536E-05-8.48478E-14
 -1      4159 8.99544E-03-4.30679E-05-8.06440E-14
 -1      4160 9.33093E-03-7.68208E-05-8.76159E-14
 -1      4161 9.46763E-03-7.83563E-05-9.04133E-14
 -1      4162 9.26457E-03-4.51408E-05-8.61154E-14
 -1      4163 9.60508E-03-7.97974E-05-9.32383E-14
 -1      4164 9.74323E-03-8.11905E-05-9.60946E-14
 -1      4165 9.53742E-03-4.70829E-05-9.17087E-14
 -1      4166 9.88198E-03-8.24893E-05-9.89816E-14
 -1      4167 1.00213E-02-8.37314E-05-1.01894E-13
 -1      4168 9.81331E-03-4.88698E-05-9.74205E-14
 -1      4169 1.01611E-02-8.48832E-05-1.04834E-13
 -1      4170 1.03013E-02-8.59753E-05-1.07805E-13
 -1      4171 1.00916E-02-5.04904E-05-1.03247E-13
 -1      4172 1.04420E-02-8.69842E-05-1.10800E-13
 -1      4173 1.05829E-02-8.79346E-05-1.13823E-13
 -1      4174 1.03719E-02-5.19450E-05-1.09185E-13
 -1      4175 1.07242E-02-8.88109E-05-1.16874E-13
 -1      4176 1.08657E-02-8.96327E-05-1.19949E-13
 -1      4177 1.06536E-02-5.32421E-05-1.15231E-13
 -1      4178 1.10075E-02-9.03903E-05-1.23050E-13
 -1      4179 1.11494E-02-9.10991E-05-1.26176E-13
 -1      4180 1.09365E-02-5.43958E-05-1.21382E-13
 -1      4181 1.12915E-02-9.17535E-05-1.29325E-13
 -1      4182 1.14338E-02-9.23656E-05-1.32500E-13
 -1      4183 1.12203E-02-5.54230E-05-1.27633E-13
 -1      4184 1.15761E-02-9.29327E-05-1.35697E-13
 -1      4185 1.17186E-02-9.34641E-05-1.38916E-13
 -1      4186 1.15048E-02-5.63418E-05-1.33979E-13
 -1      4187 1.18612E-02-9.39591E-05-1.42156E-13
 -1      4188 1.20038E-02-9.44245E-05-1.45414E-13
 -1      4189 1.17897E-02-5.71700E-05-1.40417E-13
 -1      4190 1.21465E-02-9.48609E-05-1.48690E-13
 -1      4191 1.22892E-02-9.52735E-05-1.51988E-13
 -1      4192 1.20749E-02-5.79239E-05-1.46936E-13
 -1      4193 1.24320E-02-9.56635E-05-1.55301E-13
 -1      4194 1.25748E-02-9.60347E-05-1.58627E-13
 -1      4195 1.23604E-02-5.86184E-05-1.53528E-13
 -1      4196 1.27177E-02-9.63887E-05-1.61971E-13
 -1      4197 1.28605E-02-9.67282E-05-1.65325E-13
 -1      4198 1.26460E-02-5.92660E-05-1.60185E-13
 -1      4199 1.30034E-02-9.70549E-05-1.68690E-13
 -1      4200 1.31463E-02-9.73707E-05-1.72065E-13
 -1      4201 1.29317E-02-5.98780E-05-1.66892E-13
 -1      4202 1.81789E-03-4.41713E-05-6.12818E-15
 -1      4203 1.56997E-03 1.10489E-04-4.11178E-15
 -1      4204 9.13540E-03 9.16079E-05-8.30180E-14
 -1      4205 9.00040E-03 8.98974E-05-8.02959E-14
 -1      4206 9.20645E-03 6.15376E-05-8.45333E-14
 -1      4207 8.86644E-03 8.81553E-05-7.76089E-14
 -1      4208 8.73355E-03 8.63238E-05-7.49562E-14
 -1      4209 8.93755E-03 5.93085E-05-7.90932E-14
 -1      4210 9.68365E-03 9.75444E-05-9.42160E-14
 -1      4211 9.54549E-03 9.61942E-05-9.13707E-14
 -1      4212 9.47909E-03 6.35302E-05-9.01021E-14
 -1      4213 9.96173E-03 9.99175E-05-9.99939E-14
 -1      4214 9.82241E-03 9.87774E-05-9.70920E-14
 -1      4215 9.75478E-03 6.52479E-05-9.57936E-14
 -1      4216 1.02418E-02 1.01872E-04-1.05887E-13
 -1      4217 1.01015E-02 1.00943E-04-1.02925E-13
 -1      4218 1.00329E-02 6.66728E-05-1.01598E-13
 -1      4219 1.05233E-02 1.03424E-04-1.11883E-13
 -1      4220 1.03824E-02 1.02694E-04-1.08871E-13
 -1      4221 1.03130E-02 6.78054E-05-1.07515E-13
 -1      4222 1.08061E-02 1.04603E-04-1.17987E-13
 -1      4223 1.06646E-02 1.04056E-04-1.14923E-13
 -1      4224 1.05947E-02 6.86607E-05-1.13538E-13
 -1      4225 1.10897E-02 1.05450E-04-1.24195E-13
 -1      4226 1.09478E-02 1.05064E-04-1.21079E-13
 -1      4227 1.08775E-02 6.92628E-05-1.19669E-13
 -1      4228 1.13741E-02 1.06011E-04-1.30496E-13
 -1      4229 1.12318E-02 1.05763E-04-1.27334E-13
 -1      4230 1.11612E-02 6.96413E-05-1.25899E-13
 -1      4231 1.16589E-02 1.06329E-04-1.36896E-13
 -1      4232 1.15164E-02 1.06197E-04-1.33684E-13
 -1      4233 1.14456E-02 6.98277E-05-1.32225E-13
 -1      4234 1.19441E-02 1.06447E-04-1.43383E-13
 -1      4235 1.18014E-02 1.06410E-04-1.40130E-13
 -1      4236 1.17304E-02 6.98530E-05-1.38646E-13
 -1      4237 1.22295E-02 1.06403E-04-1.49951E-13
 -1      4238 1.20868E-02 1.06443E-04-1.46657E-13
 -1      4239 1.20156E-02 6.97460E-05-1.45153E-13
 -1      4240 1.25151E-02 1.06231E-04-1.56588E-13
 -1      4241 1.23723E-02 1.06332E-04-1.53261E-13
 -1      4242 1.23011E-02 6.95325E-05-1.51738E-13
 -1      4243 1.28008E-02 1.05960E-04-1.63277E-13
 -1      4244 1.26579E-02 1.06107E-04-1.59927E-13
 -1      4245 1.25867E-02 6.92352E-05-1.58386E-13
 -1      4246 1.32728E-02-3.68464E-05-1.74883E-13
 -1      4247 1.31489E-02-1.57513E-05-1.71885E-13
 -1      4248 1.31905E-02 8.56414E-05-1.72541E-13
 -1      4249 8.02872E-03-5.93354E-05-6.14273E-14
 -1      4250 8.15167E-03-6.12614E-05-6.38907E-14
 -1      4251 8.21984E-03-3.63520E-05-6.50317E-14
 -1      4252 1.32715E-02-7.77632E-05-1.74976E-13
 -1      4253 7.19954E-03 8.31765E-05-4.50624E-14
 -1      4254 8.60190E-03 8.44991E-05-7.23368E-14
 -1      4255 8.47153E-03 8.25930E-05-6.97510E-14
 -1      4256 8.67320E-03 5.68951E-05-7.37871E-14
 -1      4257 1.72892E-03-4.57875E-05-5.55038E-15
 -1      4258 7.79025E-03-5.55055E-05-5.66109E-14
 -1      4259 7.90820E-03-5.75678E-05-5.90008E-14
 -1      4260 7.97635E-03-3.39505E-05-6.01106E-14
 -1      4261 1.30982E-02 3.50561E-05-1.70527E-13
 -1      4262 1.30655E-02 9.19695E-05-1.69562E-13
 -1      4263 1.29226E-02 9.21579E-05-1.66192E-13
 -1      4264 1.30239E-02-9.37244E-06-1.68910E-13
 -1      4265 7.87259E-03 7.55946E-05-5.79453E-14
 -1      4266 7.77653E-03 6.52367E-05-5.59735E-14
 -1      4267 7.76122E-03 4.22518E-05-5.54970E-14
 -1      4268 1.86924E-03 5.11073E-05-6.28679E-15
 -1      4269 8.11938E-03 7.93937E-05-6.28044E-14
 -1      4270 7.99495E-03 7.74022E-05-6.03566E-14
 -1      4271 7.97578E-03 5.32295E-05-5.98690E-14
 -1      4272 7.67587E-03-4.10506E-05-5.40578E-14
 -1      4273 7.74028E-03-1.92045E-05-5.51281E-14
 -1      4274 1.28514E-02 5.52457E-05-1.64639E-13
 -1      4275 7.75263E-03-3.02003E-06-5.52711E-14
 -1      4276 7.87302E-03-1.57877E-05-5.78545E-14
 -1      4277 7.99061E-03-1.64830E-05-6.02622E-14
 -1      4278 7.77800E-03 1.75056E-05-5.57626E-14
 -1      4279 8.35802E-03 8.20241E-05-6.75070E-14
 -1      4280 8.23040E-03 8.00720E-05-6.49896E-14
 -1      4281 8.20716E-03 5.50510E-05-6.44854E-14
 -1      4282 8.42987E-03 5.54968E-05-6.89240E-14
 -1      4283 7.57872E-03-4.74055E-05-5.21551E-14
 -1      4284 8.16060E-03-1.07472E-05-6.36776E-14
 -1      4285 8.28424E-03-1.12131E-05-6.61725E-14
 -1      4286 8.44706E-03 7.96940E-06-6.93680E-14
 -1      4287 8.57524E-03 8.01521E-06-7.19450E-14
 -1      4288 8.70503E-03 8.16592E-06-7.45554E-14
 -1      4289 8.83622E-03 8.19287E-06-7.72001E-14
 -1      4290 8.96874E-03 8.29327E-06-7.98789E-14
 -1      4291 9.10242E-03 8.30434E-06-8.25910E-14
 -1      4292 9.23718E-03 8.36588E-06-8.53339E-14
 -1      4293 9.37289E-03 8.35590E-06-8.81105E-14
 -1      4294 9.50949E-03 8.37886E-06-9.09157E-14
 -1      4295 9.64686E-03 8.34341E-06-9.37504E-14
 -1      4296 9.78494E-03 8.32792E-06-9.66160E-14
 -1      4297 9.92364E-03 8.26456E-06-9.95101E-14
 -1      4298 1.00629E-02 8.21183E-06-1.02431E-13
 -1      4299 1.02027E-02 8.12007E-06-1.05382E-13
 -1      4300 1.03429E-02 8.03244E-06-1.08358E-13
 -1      4301 1.04835E-02 7.91331E-06-1.11361E-13
 -1      4302 1.06244E-02 7.79399E-06-1.14391E-13
 -1      4303 1.07657E-02 7.64957E-06-1.17450E-13
 -1      4304 1.09072E-02 7.50228E-06-1.20533E-13
 -1      4305 1.10489E-02 7.33529E-06-1.23640E-13
 -1      4306 1.11909E-02 7.16393E-06-1.26772E-13
 -1      4307 1.13330E-02 6.97735E-06-1.29928E-13
 -1      4308 1.14752E-02 6.78575E-06-1.33107E-13
 -1      4309 1.16176E-02 6.58260E-06-1.36312E-13
 -1      4310 1.17601E-02 6.37432E-06-1.39538E-13
 -1      4311 1.19026E-02 6.15744E-06-1.42786E-13
 -1      4312 1.20453E-02 5.93570E-06-1.46052E-13
 -1      4313 1.21880E-02 5.70769E-06-1.49336E-13
 -1      4314 1.23307E-02 5.47528E-06-1.52640E-13
 -1      4315 1.24735E-02 5.23844E-06-1.55958E-13
 -1      4316 1.26163E-02 4.99774E-06-1.59291E-13
 -1      4317 1.27592E-02 4.75414E-06-1.62638E-13
 -1      4318 1.28810E-02-9.11341E-06-1.65543E-13
 -1      4319 7.87341E-03 2.60256E-05-5.77375E-14
 -1      4320 8.05034E-03 7.47169E-06-6.13644E-14
 -1      4321 7.99170E-03 2.70168E-05-6.01438E-14
 -1      4322 8.38085E-03 3.42895E-05-6.79661E-14
 -1      4323 8.16080E-03 3.45816E-05-6.35532E-14
 -1      4324 8.27005E-03 3.45173E-05-6.57457E-14
 -3
    1PSTEP                         2           1           1          
  100CL  101 1.000000000        4324                     0    1           1
 -4  STRESS      6    1
 -5  SXX         1    4    1    1
 -5  SYY         1    4    2    2
 -5  SZZ         1    4    3    3
 -5  SXY         1    4    1    2
 -5  SYZ         1    4    2    3
 -5  SZX         1    4    3    1
 -1         1 4.22364E+01 8.67080E+00 2.30193E+00 1.83951E+01-2.39664E-12-5.00427E-12
 -1         2-6.67481E-01-2.45254E+01-3.34659E+00-1.00550E-01 8.94445E-14 1.58352E-13
 -1         3 1.99999E+01 1.29544E-04-1.65523E-04 1.26953E-04-2.71275E-13-2.41860E-13
 -1         4 1.99999E+01 1.12846E-04-1.78842E-04-1.12835E-04 8.29007E-14 1.36903E-13
 -1         5 3.27142E+01 6.15193E+00 2.60345E+00 6.09803E+00-7.02147E-14 4.95577E-12
 -1         6 3.55088E+01 1.21213E+01 4.89545E+00-8.43729E+00-2.90545E-13 4.39225E-12
 -1         7 2.15389E+01 6.28965E+00-5.53002E-02-4.36847E+00-3.86358E-14 6.88137E-13
 -1         8 2.03206E+01 6.11950E+00 8.50365E-02-2.73320E+00-5.09592E-14-4.36825E-13
 -1         9 1.95808E+01 5.89986E+00 6.39804E-02-1.88456E+00-4.17895E-14-1.03177E-12
 -1        10 1.90526E+01 5.73660E+00 5.05552E-02-1.28979E+00-2.99552E-14-1.31846E-12
 -1        11 1.86276E+01 5.60634E+00 3.69967E-02-8.50802E-01-2.06241E-14-1.44690E-12
 -1        12 1.82975E+01 5.50528E+00 2.52327E-02-5.29225E-01-1.12930E-14-1.48097E-12
 -1        13 1.80613E+01 5.43350E+00 1.65085E-02-2.82540E-01-2.28897E-15-1.48523E-12
 -1        14 1.79397E+01 5.39661E+00 1.19309E-02-8.50350E-02 5.34295E-15-1.45612E-12
 -1        15 1.79415E+01 5.39716E+00 1.20349E-02 9.63626E-02 1.32316E-14-1.42049E-12
 -1        16 1.80664E+01 5.43507E+00 1.68269E-02 2.95419E-01 1.82987E-14-1.35283E-12
 -1        17 1.83057E+01 5.50754E+00 2.57879E-02 5.45509E-01 2.87634E-14-1.25952E-12
 -1        18 1.86376E+01 5.60903E+00 3.76654E-02 8.71660E-01 3.43666E-14-1.10876E-12
 -1        19 1.90634E+01 5.73982E+00 5.11840E-02 1.31833E+00 5.22186E-14-8.67399E-13
 -1        20 1.95907E+01 5.90371E+00 6.41070E-02 1.92269E+00 6.05974E-14-4.45456E-13
 -1        21 2.03195E+01 6.13367E+00 8.06099E-02 2.77056E+00 6.78346E-14 3.24743E-13
 -1        22 2.18420E+01 6.54452E+00 1.80909E-01 4.17285E+00 1.25178E-14 1.79799E-12
 -1        23 2.36654E+01-1.42394E+00-9.64540E-01-6.06638E-01-1.96371E-13 3.39719E-12
 -1        24 2.06221E+01-1.00047E-01-3.01133E-01 7.99755E-02-6.10423E-14 2.51466E-12
 -1        25 2.04503E+01-5.77286E-02-6.68763E-02 6.98467E-02-2.97429E-14 1.65511E-12
 -1        26 2.07727E+01-2.47198E-02-1.05087E-02 4.39638E-02 1.47430E-15 1.09255E-12
 -1        27 2.13592E+01-1.37092E-02-3.55313E-03 3.72661E-02-3.05575E-14 6.65830E-13
 -1        28 2.20953E+01-5.15198E-03 1.52365E-04 3.48172E-02-8.11905E-15 3.83015E-13
 -1        29 2.28776E+01 3.65079E-03 8.98844E-03 3.26142E-02 4.14602E-15 1.80187E-13
 -1        30 2.35746E+01 1.37181E-02 2.42624E-02 2.64626E-02 1.26839E-14 2.32878E-14
 -1        31 2.40095E+01 2.42022E-02 4.44854E-02 1.15025E-02-2.33192E-14-2.54894E-13
 -1        32 2.39713E+01 3.18390E-02 6.32772E-02-1.64085E-02-1.34508E-14-4.79727E-13
 -1        33 2.32780E+01 3.11754E-02 6.77308E-02-5.64445E-02 1.74116E-14-5.32699E-13
 -1        34 2.19017E+01 1.72572E-02 4.28223E-02-9.68555E-02-1.26531E-14-5.09603E-13
 -1        35 2.01093E+01-9.19904E-03-1.51035E-02-1.13910E-01 1.33254E-14-5.89299E-13
 -1        36 1.84873E+01-3.79804E-02-8.39174E-02-8.52805E-02-1.18352E-15-5.83783E-13
 -1        37 1.77188E+01-5.33173E-02-1.22047E-01-1.35422E-02-5.76765E-14-7.78949E-13
 -1        38 1.81807E+01-4.56563E-02-1.02784E-01 6.60971E-02-1.54850E-14-1.08746E-12
 -1        39 1.96834E+01-1.99127E-02-4.01709E-02 1.11987E-01-3.57465E-14-1.28837E-12
 -1        40 2.16071E+01 8.89307E-03 2.51174E-02 1.09496E-01 2.41712E-14-1.31235E-12
 -1        41 2.32958E+01 2.77132E-02 6.19201E-02 7.48448E-02-3.17433E-15-1.45355E-12
 -1        42 2.43653E+01 3.27524E-02 6.59094E-02 3.36115E-02-4.18532E-14-1.38124E-12
 -1        43 2.47547E+01 2.77401E-02 5.02536E-02 2.27610E-03-4.40017E-14-1.24441E-12
 -1        44 2.46070E+01 1.85227E-02 2.95262E-02-1.50836E-02 5.45260E-14-1.06904E-12
 -1        45 2.41271E+01 9.44656E-03 1.22392E-02-2.13724E-02-2.16942E-14-1.04624E-12
 -1        46 2.34953E+01 2.51172E-03 8.90710E-04-2.11085E-02-6.48570E-16-1.24012E-12
 -1        47 2.28371E+01-1.93473E-03-5.21733E-03-1.78765E-02-2.46679E-14-9.48284E-13
 -1        48 2.22257E+01-4.32109E-03-7.72832E-03-1.38405E-02 4.34860E-14-7.05524E-13
 -1        49 2.16958E+01-5.26977E-03-8.13790E-03-1.00626E-02 8.12235E-15-7.29871E-13
 -1        50 2.12575E+01-5.33142E-03-7.48871E-03-6.94188E-03-4.72644E-14-9.17400E-13
 -1        51 2.09075E+01-4.90903E-03-6.40916E-03-4.54177E-03 1.54318E-14-7.50623E-13
 -1        52 2.06358E+01-4.26673E-03-5.23988E-03-2.78343E-03 2.29301E-14-5.29475E-13
 -1        53 2.04301E+01-3.56372E-03-4.14675E-03-1.54463E-03-7.23748E-14-9.30277E-13
 -1        54 2.02780E+01-2.88826E-03-3.19806E-03-7.04016E-04 5.19572E-14-7.79096E-13
 -1        55 2.01683E+01-2.28382E-03-2.41115E-03-1.57499E-04 3.15762E-15-5.05442E-13
 -1        56 2.00913E+01-1.76712E-03-1.77865E-03 1.78093E-04-9.17781E-14-7.82095E-13
 -1        57 2.00391E+01-1.33972E-03-1.28259E-03 3.66554E-04 1.28571E-13-5.73230E-13
 -1        58 2.00052E+01-9.95272E-04-9.01765E-04 4.55495E-04-6.12370E-14-2.69969E-13
 -1        59 1.99845E+01-7.23766E-04-6.15292E-04 4.79708E-04-4.36236E-14-6.98038E-13
 -1        60 1.99732E+01-5.14051E-04-4.04262E-04 4.64121E-04-1.17893E-14-5.47280E-13
 -1        61 1.99684E+01-3.55194E-04-2.52337E-04 4.26231E-04-8.04156E-15-5.01057E-13
 -1        62 1.99678E+01-2.37166E-04-1.45807E-04 3.78024E-04-3.67612E-15-5.53086E-13
 -1        63 1.99699E+01-1.51128E-04-7.33945E-05 3.27452E-04-8.49243E-14-4.88354E-13
 -1        64 1.99735E+01-8.94688E-05-2.58920E-05 2.79547E-04-3.17079E-14-6.80329E-13
 -1        65 1.99780E+01-4.57017E-05 4.29630E-06 2.37206E-04-1.49447E-13-7.54572E-13
 -1        66 1.99828E+01-1.42813E-05 2.37964E-05 2.01670E-04 1.19460E-13-5.61513E-13
 -1        67 1.99875E+01 9.59275E-06 3.91894E-05 1.72591E-04 8.68020E-14-4.10319E-14
 -1        68 1.99918E+01 3.00664E-05 5.81214E-05 1.47419E-04-2.42439E-14 2.99880E-13
 -1        69 1.99956E+01 4.95361E-05 8.82509E-05 1.18729E-04 3.52156E-14-2.32981E-13
 -1        70 1.99984E+01 5.73212E-05 1.18190E-04 6.09618E-05 1.02433E-13 2.07991E-13
 -1        71 1.99998E+01-1.13189E-05 5.67613E-05-3.07157E-05 8.20591E-14 3.46353E-13
 -1        72 2.17121E+01-4.08444E-01-9.95464E-01-3.48882E-01 7.08808E-14 4.58743E-12
 -1        73 2.05973E+01-6.60990E-02-2.82701E-01-6.36356E-02 2.64662E-14 3.61773E-12
 -1        74 2.04613E+01-2.20374E-02-6.28079E-02-2.59470E-02 3.35621E-14 2.87562E-12
 -1        75 2.07812E+01-1.14699E-02-1.32561E-02-2.19165E-02 1.33158E-14 2.33329E-12
 -1        76 2.13656E+01-5.33320E-03-4.14874E-03-2.25812E-02 6.41647E-15 1.97493E-12
 -1        77 2.20981E+01 3.94011E-04 7.27869E-04-2.59340E-02 8.27870E-15 1.68938E-12
 -1        78 2.28746E+01 6.94159E-03 1.01898E-02-3.03843E-02-2.69117E-14 1.59021E-12
 -1        79 2.35623E+01 1.42553E-02 2.59563E-02-3.30725E-02 1.88446E-14 1.48400E-12
 -1        80 2.39832E+01 2.06786E-02 4.63838E-02-2.91576E-02 8.88374E-15 1.22859E-12
 -1        81 2.39259E+01 2.27099E-02 6.46339E-02-1.23100E-02 3.10127E-14 1.03426E-12
 -1        82 2.32109E+01 1.61986E-02 6.73484E-02 2.16033E-02 2.43928E-14 8.62067E-13
 -1        83 2.18164E+01-1.17869E-04 3.98475E-02 6.70403E-02-4.29194E-14 9.14512E-13
 -1        84 2.00183E+01-2.08070E-02-1.98750E-02 1.03405E-01 1.94942E-14 1.09062E-12
 -1        85 1.84097E+01-3.48311E-02-8.78811E-02 1.02806E-01 1.05452E-14 9.70671E-13
 -1        86 1.76715E+01-3.38372E-02-1.23301E-01 5.38377E-02 3.85837E-14 3.05694E-13
 -1        87 1.81690E+01-1.92094E-02-1.00937E-01-2.10451E-02-6.11982E-14 2.46785E-13
 -1        88 1.96969E+01-1.78768E-04-3.73794E-02-8.04501E-02-1.73830E-14 1.67366E-13
 -1        89 2.16259E+01 1.44539E-02 2.70389E-02-9.91057E-02 3.91353E-14-3.34593E-13
 -1        90 2.33044E+01 2.07107E-02 6.29755E-02-8.21016E-02-3.17055E-14-4.99219E-13
 -1        91 2.43585E+01 1.95967E-02 6.65598E-02-4.96231E-02-4.30259E-14-2.23654E-13
 -1        92 2.47344E+01 1.44841E-02 5.06140E-02-1.91994E-02 1.48805E-14 9.51799E-15
 -1        93 2.45790E+01 8.47485E-03 2.96633E-02 1.46774E-03 3.21115E-14-2.40967E-13
 -1        94 2.40972E+01 3.39825E-03 1.21897E-02 1.23005E-02 5.24886E-14-7.16195E-13
 -1        95 2.34676E+01-1.26146E-04 7.20223E-04 1.61552E-02-4.01080E-14-6.09887E-13
 -1        96 2.28135E+01-2.19444E-03-5.44507E-03 1.60009E-02-2.84308E-14-3.70451E-13
 -1        97 2.22068E+01-3.16900E-03-7.96941E-03 1.39743E-02 4.07875E-14-5.82359E-13
 -1        98 2.16811E+01-3.42849E-03-8.36399E-03 1.13475E-02-1.93963E-14-7.93851E-13
 -1        99 2.12465E+01-3.27319E-03-7.68421E-03 8.77370E-03-9.02355E-14-4.57492E-13
 -1       100 2.08994E+01-2.91003E-03-6.56848E-03 6.53359E-03-4.75482E-14-5.58930E-14
 -1       101 2.06300E+01-2.46875E-03-5.36386E-03 4.70815E-03 6.69129E-15-1.70276E-13
 -1       102 2.04259E+01-2.02422E-03-4.23949E-03 3.28315E-03 1.41495E-13-6.73243E-13
 -1       103 2.02751E+01-1.61560E-03-3.26491E-03 2.20579E-03-1.37505E-13-7.62493E-13
 -1       104 2.01663E+01-1.26016E-03-2.45749E-03 1.41311E-03 5.04701E-14 9.48338E-14
 -1       105 2.00900E+01-9.62483E-04-1.80931E-03 8.44958E-04 1.26651E-14-3.70621E-16
 -1       106 2.00382E+01-7.20255E-04-1.30167E-03 4.49059E-04-1.12541E-14-4.86818E-13
 -1       107 2.00047E+01-5.27780E-04-9.12550E-04 1.82247E-04-6.78728E-14-7.06533E-13
 -1       108 1.99843E+01-3.78039E-04-6.20350E-04 1.00300E-05-9.18791E-14-9.26099E-13
 -1       109 1.99731E+01-2.63846E-04-4.05536E-04-9.45190E-05 9.97027E-14-1.00672E-12
 -1       110 1.99684E+01-1.78454E-04-2.51252E-04-1.52034E-04-2.77380E-14-1.43554E-12
 -1       111 1.99678E+01-1.15834E-04-1.43377E-04-1.78076E-04-1.85788E-14-1.27307E-12
 -1       112 1.99700E+01-7.07528E-05-7.03062E-05-1.84213E-04-5.16801E-14-1.15246E-12
 -1       113 1.99736E+01-3.87322E-05-2.25780E-05-1.78935E-04 7.86741E-14-1.18869E-12
 -1       114 1.99781E+01-1.59498E-05 7.59667E-06-1.68379E-04-7.59954E-14-1.07657E-12
 -1       115 1.99829E+01 9.08469E-07 2.70031E-05-1.56892E-04 2.20505E-14-1.30083E-12
 -1       116 1.99876E+01 1.47044E-05 4.24759E-05-1.47237E-04 1.05243E-13-1.38426E-12
 -1       117 1.99919E+01 2.78986E-05 6.21563E-05-1.40233E-04-3.65452E-14-1.62837E-12
 -1       118 1.99957E+01 4.12990E-05 9.37909E-05-1.32926E-04-9.70725E-16-1.22955E-12
 -1       119 1.99985E+01 4.89853E-05 1.26719E-04-1.06058E-04-6.43276E-14-3.60545E-13
 -1       120 1.99998E+01-4.08671E-05 3.93607E-05-3.30073E-06 1.33845E-13-2.47074E-13
 -1       121 1.99998E+01-5.29878E-05 3.85134E-05 2.58653E-05-1.10004E-13 3.55936E-14
 -1       122 1.99999E+01-1.39364E-03 1.04968E-04-7.61043E-05-1.13353E-13-1.72787E-13
 -1       123 1.99998E+01-3.98332E-03 4.83746E-05-1.18397E-04-1.45940E-13 1.56930E-13
 -1       124 1.99998E+01-7.04388E-03-6.48133E-06-1.20631E-04-1.75434E-13-1.65350E-14
 -1       125 1.99998E+01-1.00206E-02-4.32677E-05-1.02886E-04-4.42085E-13-1.90514E-13
 -1       126 1.99998E+01-1.24967E-02-6.58475E-05-7.78898E-05-4.26890E-13 1.70540E-13
 -1       127 1.99997E+01-1.42986E-02-7.79525E-05-4.76765E-05-1.98073E-13-9.41048E-14
 -1       128 1.99997E+01-1.52303E-02-8.33952E-05-1.58363E-05-6.29428E-13-2.54696E-14
 -1       129 1.99997E+01-1.52223E-02-8.33450E-05 1.63883E-05-6.26828E-13 1.74575E-13
 -1       130 1.99997E+01-1.42752E-02-7.78385E-05 4.81087E-05 4.42713E-13 1.53187E-13
 -1       131 1.99998E+01-1.24604E-02-6.51040E-05 7.91582E-05-4.84146E-13-2.58546E-13
 -1       132 1.99998E+01-9.97578E-03-4.32128E-05 1.03425E-04-4.62994E-13 2.55911E-13
 -1       133 1.99998E+01-6.99311E-03-6.16989E-06 1.20574E-04-1.87067E-14-1.64131E-13
 -1       134 1.99998E+01-3.92741E-03 5.35351E-05 1.26319E-04-7.56249E-14-2.49002E-14
 -1       135 1.99998E+01-1.40326E-03 9.06447E-05 1.05908E-04 6.37875E-14-4.32765E-14
 -1       136 1.99998E+01-9.48129E-05 3.29586E-05-7.53039E-05-3.45786E-13 1.39247E-13
 -1       137-1.46044E+00-1.99142E+01-3.08910E+00-3.81331E+00 2.19852E-12 4.70356E-13
 -1       138-1.47933E+00-8.20192E+00-2.26302E+00-2.83179E+00 3.89877E-12 1.93556E-12
 -1       139 3.28553E+00 3.80227E+00-1.05315E+00 3.82987E+00 4.45582E-12 3.38296E-12
 -1       140 1.64617E+01 1.03031E+01 4.27575E-01 1.28502E+01 3.53867E-12 4.13264E-12
 -1       141 3.68714E+01 9.56833E+00 1.91927E+00 1.81465E+01 2.02707E-12 3.67772E-12
 -1       142 5.58435E+01 4.58634E+00 3.04201E+00 1.45478E+01 7.03534E-13 2.14240E-12
 -1       143 6.59228E+01 1.08956E+00 3.57777E+00 3.66427E+00-1.77497E-14-4.34333E-13
 -1       144 6.27024E+01 2.37196E+00 3.42825E+00-9.59282E+00 6.28451E-13-3.26816E-12
 -1       145 4.68194E+01 7.39460E+00 2.56688E+00-1.76817E+01 2.17140E-12-5.33101E-12
 -1       146 2.69640E+01 1.11204E+01 1.29726E+00-1.70087E+01 3.97149E-12-5.86170E-12
 -1       147 1.00577E+01 8.91778E+00-1.48987E-01-9.50895E+00 5.02393E-12-4.95298E-12
 -1       148 7.24718E-01-3.70176E-01-1.53786E+00-8.13653E-01 5.01721E-12-3.16619E-12
 -1       149-1.86015E+00-1.33794E+01-2.67000E+00 4.05779E+00 3.43797E-12-1.33291E-12
 -1       150-1.00893E+00-2.30509E+01-3.30686E+00 2.75826E+00 8.07659E-13-1.43709E-13
 -1       151-8.29205E-01-2.42159E+01-3.37612E+00-1.72640E+00-1.71284E-12-1.64684E-13
 -1       152-1.70720E+00-1.63545E+01-2.87927E+00-4.25210E+00-3.98914E-12-1.25568E-12
 -1       153-7.83667E-01-4.21402E+00-1.92116E+00-1.38968E+00-5.50926E-12-3.07543E-12
 -1       154 6.74344E+00 6.87829E+00-5.64525E-01 6.97471E+00-5.62389E-12-4.87516E-12
 -1       155 2.19766E+01 1.11692E+01 9.31485E-01 1.54259E+01-4.31316E-12-5.75306E-12
 -1       156 5.88347E+01 3.65972E+00 3.21345E+00 1.31307E+01-7.69419E-13-2.87942E-12
 -1       157 6.64597E+01 8.46222E-01 3.59483E+00 1.85256E+00-9.28493E-14-3.88557E-13
 -1       158 6.21397E+01 2.37812E+00 3.36502E+00-1.00882E+01-3.25842E-13 1.70988E-12
 -1       159 4.74299E+01 7.16904E+00 2.57284E+00-1.74820E+01-1.36552E-12 3.32573E-12
 -1       160 2.73971E+01 1.07650E+01 1.30118E+00-1.68186E+01-2.83962E-12 4.26559E-12
 -1       161 1.12066E+01 9.06512E+00-7.66521E-02-1.00841E+01-3.56321E-12 3.67123E-12
 -1       162 1.04735E+00 4.75264E-01-1.43624E+00-1.27192E+00-3.76293E-12 2.42961E-12
 -1       163-1.76709E+00-1.07224E+01-2.42014E+00 3.83683E+00-3.10552E-12 1.30171E-12
 -1       164-1.28861E+00-2.08553E+01-3.15666E+00 3.67691E+00-1.80050E-12 3.08698E-13
 -1       165 2.18426E+01 3.65544E+00-5.10417E-02-3.08184E+00-6.46492E-13 1.00024E-13
 -1       166 2.06243E+01 4.24008E+00-4.22111E-02-2.19684E+00-5.86912E-13-5.83405E-13
 -1       167 1.98254E+01 4.55635E+00-2.94784E-02-1.54922E+00-4.62515E-13-9.55862E-13
 -1       168 1.92203E+01 4.73056E+00-2.16104E-02-1.05666E+00-3.28607E-13-1.15741E-12
 -1       169 1.87489E+01 4.83870E+00-1.69218E-02-6.89628E-01-2.09908E-13-1.23022E-12
 -1       170 1.83905E+01 4.90951E+00-1.41348E-02-4.06142E-01-9.37533E-14-1.24935E-12
 -1       171 1.81675E+01 4.94992E+00-1.26242E-02-1.84682E-01 1.28155E-14-1.23641E-12
 -1       172 1.80931E+01 4.96261E+00-1.21581E-02 5.43452E-03 1.15489E-13-1.21066E-12
 -1       173 1.81723E+01 4.94810E+00-1.26692E-02 1.96255E-01 2.16221E-13-1.16086E-12
 -1       174 1.84000E+01 4.90557E+00-1.42237E-02 4.19832E-01 3.13870E-13-1.09918E-12
 -1       175 1.87551E+01 4.83335E+00-1.71141E-02 7.01219E-01 4.17618E-13-9.78074E-13
 -1       176 1.92371E+01 4.71953E+00-2.20837E-02 1.07890E+00 5.37048E-13-8.05644E-13
 -1       177 1.98454E+01 4.53840E+00-3.08948E-02 1.57998E+00 6.31748E-13-5.04019E-13
 -1       178 2.06510E+01 4.21479E+00-4.34591E-02 2.23716E+00 6.94078E-13 2.34326E-14
 -1       179 2.19532E+01 3.43396E+00-5.37406E-02 3.02528E+00 6.43430E-13 9.39041E-13
 -1       180 2.32418E+01 1.08560E+00-3.29518E-01 2.63986E+00 4.70924E-13 2.10754E-12
 -1       181 2.29399E+01 8.23117E-01 1.82214E-03-1.56022E+00-5.71682E-13 9.68781E-13
 -1       182 2.17469E+01 1.86293E-01-8.02579E-03-3.68474E-01-4.99968E-13 6.93692E-13
 -1       183 2.13520E+01 1.13989E-01 1.44153E-02 1.26580E-01-3.51112E-13 4.56816E-13
 -1       184 2.14279E+01 6.38984E-02 9.93979E-03 3.81988E-01-2.72913E-13 2.55932E-13
 -1       185 2.17470E+01 3.23671E-02 4.30265E-03 5.22119E-01-1.80805E-13 1.25740E-13
 -1       186 2.21948E+01-1.50947E-03 5.39171E-04 5.72340E-01-1.06669E-13 6.06366E-14
 -1       187 2.26724E+01-4.67669E-02-1.97360E-03 5.19771E-01-1.00277E-13 3.83318E-14
 -1       188 2.30754E+01-1.05588E-01-3.56092E-03 3.36834E-01-1.28933E-13-2.05719E-14
 -1       189 2.32882E+01-1.68761E-01-3.90987E-03 3.71477E-03-1.14177E-13-6.47702E-16
 -1       190 2.31987E+01-2.09023E-01-2.71405E-03-4.56389E-01-3.90543E-14 5.09471E-14
 -1       191 2.27418E+01-1.82579E-01-4.17981E-04-9.35758E-01-1.22792E-14-2.05027E-14
 -1       192 2.19662E+01-5.42593E-02 1.62562E-03-1.23063E+00-1.28708E-13-1.53507E-13
 -1       193 2.10888E+01 1.53133E-01 1.89169E-03-1.11824E+00-9.25328E-14-2.77333E-13
 -1       194 2.04601E+01 3.34485E-01 8.43916E-04-5.28642E-01-1.47040E-13-4.16653E-13
 -1       195 2.03885E+01 3.66997E-01 5.82034E-04 3.25508E-01-1.99068E-13-4.48344E-13
 -1       196 2.09297E+01 2.27068E-01 1.70704E-03 1.04641E+00-1.35204E-13-5.83453E-13
 -1       197 2.18445E+01 1.45800E-02 2.13891E-03 1.33315E+00-8.07342E-14-6.56835E-13
 -1       198 2.27727E+01-1.47478E-01 5.25274E-04 1.16331E+00-9.61549E-14-7.97942E-13
 -1       199 2.34396E+01-2.07031E-01-2.08364E-03 7.26928E-01-3.02241E-14-8.94005E-13
 -1       200 2.37400E+01-1.84955E-01-3.88968E-03 2.47476E-01 7.32860E-14-8.79517E-13
 -1       201 2.37035E+01-1.26999E-01-4.27942E-03-1.34244E-01 9.02208E-14-7.74418E-13
 -1       202 2.34243E+01-6.77341E-02-3.50299E-03-3.73668E-01 5.25320E-14-7.47342E-13
 -1       203 2.30059E+01-2.26552E-02-2.21009E-03-4.85811E-01 1.20622E-13-5.45521E-13
 -1       204 2.25335E+01 5.78816E-03-9.32551E-04-5.07345E-01 1.88070E-13-3.92729E-13
 -1       205 2.20660E+01 2.07989E-02 5.20223E-05-4.74512E-01 6.89850E-14-3.45981E-13
 -1       206 2.16383E+01 2.67525E-02 6.79087E-04-4.14823E-01-6.23199E-16-4.21904E-13
 -1       207 2.12670E+01 2.73302E-02 9.99226E-04-3.46243E-01-9.47799E-15-3.77581E-13
 -1       208 2.09572E+01 2.50982E-02 1.10030E-03-2.79180E-01 1.06844E-13-1.94551E-13
 -1       209 2.07064E+01 2.16578E-02 1.06537E-03-2.18901E-01 1.53077E-14-1.41409E-13
 -1       210 2.05084E+01 1.79274E-02 9.57707E-04-1.67493E-01-2.46649E-13-2.41975E-13
 -1       211 2.03557E+01 1.43890E-02 8.19692E-04-1.25236E-01 7.25153E-14-9.58932E-14
 -1       212 2.02406E+01 1.12639E-02 6.77023E-04-9.14704E-02 6.55611E-14-1.63094E-13
 -1       213 2.01555E+01 8.62538E-03 5.43781E-04-6.51205E-02-4.39207E-14-1.80575E-13
 -1       214 2.00943E+01 6.46828E-03 4.26602E-04-4.49917E-02 1.67225E-13 1.66261E-13
 -1       215 2.00513E+01 4.74892E-03 3.27652E-04-2.99283E-02-3.94252E-14-2.87771E-13
 -1       216 2.00222E+01 3.40810E-03 2.46592E-04-1.88912E-02-2.29226E-13-2.44833E-13
 -1       217 2.00033E+01 2.38354E-03 1.81796E-04-1.09867E-02-2.52084E-15-2.02040E-13
 -1       218 1.99919E+01 1.61626E-03 1.31088E-04-5.47132E-03-5.77234E-14-8.64818E-14
 -1       219 1.99857E+01 1.05360E-03 9.21543E-05-1.74183E-03-7.12711E-14-1.17969E-13
 -1       220 1.99832E+01 6.50099E-04 6.27740E-05 6.79866E-04-1.10248E-13-3.79585E-13
 -1       221 1.99831E+01 3.67399E-04 4.09200E-05 2.16400E-03-1.42245E-13-4.78074E-13
 -1       222 1.99844E+01 1.73417E-04 2.47994E-05 2.98947E-03 1.44675E-13-3.76181E-13
 -1       223 1.99867E+01 4.11179E-05 1.28752E-05 3.35816E-03 1.35622E-13-5.15957E-14
 -1       224 1.99894E+01-5.30280E-05 3.95164E-06 3.40622E-03 2.96476E-13 4.71730E-14
 -1       225 1.99921E+01-1.30838E-04-2.62193E-06 3.21181E-03 1.53107E-13-3.09798E-14
 -1       226 1.99947E+01-2.14907E-04-6.44748E-06 2.79949E-03-1.59111E-13 1.17214E-14
 -1       227 1.99969E+01-3.29909E-04-7.89417E-06 2.14585E-03 1.91692E-13 8.71544E-14
 -1       228 1.99986E+01-4.79069E-04-4.58865E-06 1.22366E-03 1.12319E-13 2.42421E-13
 -1       229 2.20841E+01 2.64879E-01-4.69121E-02 8.22318E-01 4.72091E-13 1.81767E-12
 -1       230 2.13673E+01 1.30014E-01 9.72453E-03 1.06303E-01 3.91144E-13 1.43737E-12
 -1       231 2.12737E+01 6.90799E-02 1.25581E-02-2.10495E-01 2.77845E-13 1.14999E-12
 -1       232 2.15141E+01 3.93729E-02 6.77143E-03-3.83335E-01 1.93245E-13 9.35701E-13
 -1       233 2.19418E+01 1.67447E-02 2.57204E-03-4.73124E-01 1.32205E-13 8.33567E-13
 -1       234 2.24492E+01-1.00927E-02 5.03638E-04-4.84935E-01 5.02011E-14 7.35539E-13
 -1       235 2.29306E+01-4.63758E-02 2.10397E-05-4.00623E-01 8.70632E-14 5.82649E-13
 -1       236 2.32665E+01-9.16212E-02 9.39452E-04-1.95458E-01 7.49236E-14 5.35530E-13
 -1       237 2.33284E+01-1.35247E-01 2.90804E-03 1.38948E-01 8.41046E-14 5.06090E-13
 -1       238 2.30110E+01-1.52362E-01 4.69388E-03 5.59994E-01 5.13509E-14 5.99624E-13
 -1       239 2.22953E+01-1.09802E-01 4.02310E-03 9.41450E-01-3.73464E-14 6.68052E-13
 -1       240 2.13226E+01 7.27095E-03-9.02199E-04 1.08667E+00 3.57445E-14 6.22132E-13
 -1       241 2.04138E+01 1.61325E-01-8.07059E-03 8.31383E-01 1.83136E-13 4.42604E-13
 -1       242 1.99590E+01 2.63420E-01-1.18225E-02 1.99410E-01 2.57008E-13 2.63028E-13
 -1       243 2.01923E+01 2.41723E-01-8.11909E-03-5.43485E-01 4.91317E-14 9.05699E-14
 -1       244 2.10251E+01 1.13047E-01-3.13921E-04-1.05196E+00 1.49356E-13-1.83601E-13
 -1       245 2.21092E+01-3.42258E-02 5.47940E-03-1.14657E+00 2.08430E-13-3.80140E-13
 -1       246 2.30671E+01-1.26296E-01 6.29535E-03-8.92799E-01 9.18059E-15-4.72021E-13
 -1       247 2.36694E+01-1.46852E-01 3.56252E-03-4.82169E-01-1.70129E-13-4.24681E-13
 -1       248 2.38668E+01-1.19670E-01 2.86006E-04-8.87231E-02-6.00431E-14-3.93655E-13
 -1       249 2.37305E+01-7.63659E-02-1.71920E-03 1.97544E-01 1.02557E-13-3.59384E-13
 -1       250 2.33747E+01-3.70063E-02-2.25890E-03 3.61480E-01 1.93902E-13-3.79577E-13
 -1       251 2.29075E+01-8.90243E-03-1.87169E-03 4.26331E-01-1.07622E-13-5.10885E-13
 -1       252 2.24108E+01 7.97657E-03-1.14717E-03 4.25173E-01-4.86823E-15-4.64376E-13
 -1       253 2.19370E+01 1.63647E-02-4.57501E-04 3.86864E-01 5.30755E-14-3.97196E-13
 -1       254 2.15147E+01 1.92432E-02 4.97530E-05 3.31946E-01-4.54540E-14-3.46002E-13
 -1       255 2.11555E+01 1.89504E-02 3.59592E-04 2.73241E-01-2.16166E-13-1.78380E-13
 -1       256 2.08607E+01 1.70626E-02 5.11485E-04 2.17849E-01-1.95019E-13-1.69722E-13
 -1       257 2.06255E+01 1.45434E-02 5.55788E-04 1.69132E-01 7.90683E-14-5.21054E-14
 -1       258 2.04424E+01 1.19353E-02 5.35330E-04 1.28207E-01 2.18794E-13-3.95108E-14
 -1       259 2.03031E+01 9.51617E-03 4.80885E-04 9.49538E-02-1.40268E-13-4.68165E-14
 -1       260 2.01994E+01 7.40729E-03 4.12451E-04 6.86383E-02-1.60313E-13-1.73673E-13
 -1       261 2.01239E+01 5.64239E-03 3.42007E-04 4.82815E-02 1.06137E-13-3.57304E-14
 -1       262 2.00705E+01 4.20903E-03 2.76123E-04 3.28622E-02 1.25632E-13-8.73273E-14
 -1       263 2.00338E+01 3.07289E-03 2.17935E-04 2.14236E-02 1.27847E-13-3.00649E-13
 -1       264 2.00096E+01 2.19142E-03 1.68513E-04 1.31212E-02 1.21026E-13-7.32633E-13
 -1       265 1.99946E+01 1.52129E-03 1.27741E-04 7.23871E-03-5.45699E-15-7.97215E-13
 -1       266 1.99860E+01 1.02214E-03 9.48780E-05 3.18645E-03 7.72824E-14-4.55442E-13
 -1       267 1.99820E+01 6.58236E-04 6.88932E-05 4.90380E-04-3.42686E-14-4.46103E-13
 -1       268 1.99810E+01 3.98916E-04 4.86636E-05-1.22182E-03 1.08842E-13-7.21957E-13
 -1       269 1.99820E+01 2.18357E-04 3.30860E-05-2.23559E-03 1.79623E-14-9.75557E-13
 -1       270 1.99842E+01 9.49052E-05 2.11482E-05-2.76303E-03-1.03874E-13-9.37061E-13
 -1       271 1.99870E+01 1.01435E-05 1.20186E-05-2.95434E-03 2.72229E-14-8.65129E-13
 -1       272 1.99900E+01-5.24478E-05 5.29316E-06-2.90620E-03 1.31170E-13-9.34887E-13
 -1       273 1.99930E+01-1.08783E-04 1.62813E-06-2.66647E-03-5.08533E-14-8.66438E-13
 -1       274 1.99956E+01-1.74936E-04 2.87948E-06-2.23751E-03-2.85231E-13-5.32376E-13
 -1       275 1.99977E+01-2.76101E-04 3.76484E-06-1.57933E-03-3.40806E-13-2.56133E-13
 -1       276 1.99992E+01-3.57815E-04-2.28747E-06-6.87163E-04 1.54955E-13 2.55724E-14
 -1       277 1.99994E+01-1.23838E-03-5.83250E-06-1.23494E-03-6.71378E-14-3.79544E-14
 -1       278 1.99996E+01-2.81173E-03-2.87030E-06-1.98872E-03-6.87398E-14-5.18098E-14
 -1       279 1.99998E+01-4.72922E-03-1.42327E-06-2.31716E-03-1.93488E-13 5.24412E-14
 -1       280 1.99999E+01-6.72195E-03 1.63421E-06-2.25656E-03-1.48052E-13-2.19857E-14
 -1       281 2.00000E+01-8.50547E-03 5.60181E-06-1.91480E-03-2.25385E-13-1.95890E-13
 -1       282 2.00000E+01-9.94180E-03 8.79072E-06-1.37278E-03-2.54491E-13-8.08719E-14
 -1       283 2.00001E+01-1.08542E-02 1.08424E-05-7.11072E-04-5.99297E-14-6.85700E-14
 -1       284 2.00001E+01-1.11634E-02 1.15332E-05 6.11376E-06 4.82207E-14-6.77691E-14
 -1       285 2.00001E+01-1.08436E-02 1.08409E-05 7.22739E-04-1.31537E-13 3.34472E-13
 -1       286 2.00000E+01-9.92152E-03 8.75108E-06 1.38309E-03-1.72605E-13-3.98189E-13
 -1       287 2.00000E+01-8.50706E-03 5.35883E-06 1.91547E-03-3.23148E-14-1.10422E-14
 -1       288 1.99999E+01-6.68941E-03 1.55987E-06 2.26016E-03-3.66149E-14 1.71793E-13
 -1       289 1.99998E+01-4.69702E-03-2.07040E-06 2.31577E-03 2.50891E-13-1.45971E-13
 -1       290 1.99995E+01-2.78528E-03-6.83971E-06 1.95657E-03-8.02988E-15 3.46881E-14
 -1       291 1.99991E+01-1.52383E-03-9.70454E-06 1.83302E-03-1.58827E-13-1.29176E-13
 -1       292-8.05265E-01-1.03334E+01-8.95438E-01 1.17141E+00 3.49581E-13 1.09326E-12
 -1       293 3.03994E+00-8.12977E+00-6.83579E-01 3.78131E+00 7.96224E-13 1.35336E-12
 -1       294 9.80997E+00-5.00783E+00-4.71781E-01 5.65254E+00 1.33024E-12 1.32269E-12
 -1       295 1.87799E+01-8.58110E-01-1.02061E-01 7.17886E+00 1.56067E-12 1.40379E-12
 -1       296 3.02690E+01 1.17843E+00 2.33654E-01 5.85059E+00 1.21733E-12 6.82843E-13
 -1       297 3.90618E+01 4.92643E+00 6.59213E-01 5.37789E+00 1.31820E-12 6.61637E-13
 -1       298 4.48173E+01 6.52043E+00 9.18017E-01 2.63857E+00 1.31914E-12-6.57391E-14
 -1       299 4.61978E+01 6.82945E+00 9.67752E-01-9.24140E-01 1.44729E-12-9.62931E-13
 -1       300 4.20407E+01 5.98528E+00 7.63293E-01-3.92086E+00 1.61031E-12-1.52328E-12
 -1       301 3.51673E+01 4.07465E+00 5.82501E-01-7.12221E+00 1.84737E-12-2.23788E-12
 -1       302 2.51068E+01 1.35736E+00 1.75912E-01-7.70869E+00 1.98497E-12-2.41968E-12
 -1       303 1.49879E+01-2.39456E+00-2.67781E-01-6.67871E+00 1.91799E-12-2.22566E-12
 -1       304 7.17213E+00-6.42534E+00-5.42265E-01-5.19752E+00 1.19180E-12-1.78883E-12
 -1       305 9.81230E-01-9.46475E+00-8.43166E-01-2.66863E+00 6.29136E-13-1.56225E-12
 -1       306-1.27730E+00-1.12639E+01-1.02052E+00-2.72747E-01-2.27551E-13-1.26499E-12
 -1       307 7.49447E-02-9.95608E+00-8.85913E-01 2.06720E+00-1.06438E-12-1.40307E-12
 -1       308 4.65099E+00-7.53303E+00-7.17748E-01 4.16452E+00-1.78302E-12-1.91147E-12
 -1       309 1.31533E+01-4.06994E+00-3.26003E-01 6.44870E+00-1.93379E-12-2.01276E-12
 -1       310 2.23346E+01 2.92674E-01 4.47515E-02 7.51507E+00-2.31240E-12-2.33902E-12
 -1       311 3.27358E+01 3.23742E+00 4.50691E-01 6.94638E+00-2.04145E-12-2.02013E-12
 -1       312 4.13045E+01 5.52768E+00 8.36548E-01 5.52559E+00-1.90093E-12-1.60608E-12
 -1       313 4.62944E+01 6.49917E+00 1.04389E+00 2.45804E+00-1.45377E-12-9.51877E-13
 -1       314 4.68538E+01 6.62047E+00 1.06109E+00-1.25025E+00-1.08580E-12-1.64591E-13
 -1       315 4.30470E+01 5.83028E+00 8.87007E-01-4.49257E+00-1.08892E-12 5.71404E-13
 -1       316 3.50617E+01 3.66509E+00 4.85304E-01-5.92489E+00-1.27807E-12 7.38160E-13
 -1       317 2.55552E+01 1.32427E+00 1.70101E-01-7.52032E+00-1.10922E-12 1.45134E-12
 -1       318 1.65049E+01-2.73580E+00-1.98321E-01-6.74030E+00-9.23595E-13 1.08358E-12
 -1       319 7.37441E+00-5.92625E+00-6.01149E-01-5.01437E+00-8.94257E-13 1.08253E-12
 -1       320 1.94926E+00-9.21507E+00-9.49050E-01-2.59762E+00-8.27477E-13 9.44501E-13
 -1       321-9.65582E-01-1.09552E+01-9.89995E-01-9.18030E-01-7.42045E-14 8.84376E-13
 -1       322 2.06514E+01 3.07503E+00-2.19092E-02-1.39638E+00-6.06387E-13-5.47575E-13
 -1       323 2.16018E+01 2.19890E+00-1.62096E-02-1.73318E+00-6.89996E-13-1.33138E-13
 -1       324 1.92765E+01 3.96625E+00-1.35117E-02-6.81834E-01-3.29278E-13-9.24066E-13
 -1       325 1.87832E+01 4.21263E+00-1.04561E-02-4.17444E-01-1.86804E-13-9.64629E-13
 -1       326 1.84387E+01 4.37072E+00-8.59800E-03-2.19003E-01-4.20698E-14-9.68216E-13
 -1       327 1.82627E+01 4.44783E+00-7.71934E-03-6.44516E-02 8.28169E-14-9.59962E-13
 -1       328 1.82672E+01 4.44512E+00-7.74598E-03 7.52886E-02 2.09910E-13-9.29284E-13
 -1       329 1.84522E+01 4.36242E+00-8.66720E-03 2.31511E-01 3.25104E-13-8.83021E-13
 -1       330 1.87973E+01 4.20185E+00-1.05518E-02 4.29215E-01 4.42922E-13-7.91688E-13
 -1       331 1.92952E+01 3.95001E+00-1.35738E-02 6.96063E-01 5.73384E-13-6.52560E-13
 -1       332 1.99272E+01 3.58113E+00-1.78869E-02 1.03678E+00 6.81745E-13-4.58986E-13
 -1       333 2.07050E+01 3.02649E+00-2.19184E-02 1.42758E+00 7.50049E-13-1.14873E-13
 -1       334 2.15976E+01 2.12301E+00-2.89386E-02 1.70220E+00 7.44524E-13 4.77762E-13
 -1       335 2.20984E+01 1.16343E+00-2.19607E-02 1.40554E+00 6.59533E-13 1.00673E-12
 -1       336 2.16475E+01 5.03396E-01 9.34712E-03 3.84913E-01 5.48370E-13 8.01775E-13
 -1       337 3.79563E+00-4.76583E+00-4.13226E-02-4.42762E+00 2.54102E-13 8.33084E-13
 -1       338 2.16117E+01 7.16625E-01 1.33802E-02-3.59699E-01-5.28555E-13-1.34501E-14
 -1       339 2.14539E+01 4.01138E-01 7.56769E-03 2.75581E-01-3.91705E-13-4.73812E-14
 -1       340 2.15063E+01 2.31730E-01 4.05732E-03 6.55397E-01-2.99617E-13-6.36447E-14
 -1       341 2.17169E+01 9.36614E-02 1.09814E-03 8.65948E-01-1.77485E-13-8.05725E-14
 -1       342 2.20378E+01-6.25342E-02-1.27312E-03 9.18706E-01-1.01625E-13-9.91634E-14
 -1       343 2.24222E+01-2.60001E-01-3.44708E-03 7.88851E-01-9.19711E-14-5.95535E-14
 -1       344 2.28163E+01-4.91037E-01-5.33764E-03 4.39262E-01-5.12795E-14 2.06648E-14
 -1       345 2.31468E+01-6.96135E-01-6.08562E-03-1.42548E-01-1.86207E-14 1.00628E-13
 -1       346 2.33125E+01-7.48855E-01-5.00498E-03-8.84756E-01-7.76785E-14 1.13592E-13
 -1       347 2.32081E+01-4.90543E-01-2.68671E-03-1.56679E+00-1.52803E-13 6.96222E-14
 -1       348 2.28102E+01 1.34877E-01-5.40777E-04-1.82390E+00-2.58600E-13 8.95117E-16
 -1       349 2.22958E+01 9.01465E-01-1.20382E-04-1.33663E+00-2.47767E-13-1.53519E-13
 -1       350 2.20119E+01 1.33729E+00-1.45059E-03-1.66242E-01-2.74641E-13-3.85558E-13
 -1       351 2.21975E+01 1.11616E+00-8.34398E-04 1.12853E+00-2.32789E-13-4.72174E-13
 -1       352 2.27264E+01 4.11211E-01 4.86010E-04 1.88998E+00-2.11375E-13-5.15684E-13
 -1       353 2.32487E+01-3.02998E-01-1.05916E-03 1.87230E+00-1.91454E-13-6.51991E-13
 -1       354 2.35111E+01-6.93743E-01-4.33780E-03 1.29823E+00-2.14770E-14-6.00502E-13
 -1       355 2.34762E+01-7.34484E-01-6.03924E-03 5.46283E-01 6.66322E-14-5.28140E-13
 -1       356 2.32297E+01-5.70502E-01-5.88288E-03-1.08618E-01 1.47466E-13-5.19309E-13
 -1       357 2.28728E+01-3.50399E-01-4.42593E-03-5.55381E-01 1.37860E-13-5.07618E-13
 -1       358 2.24770E+01-1.59258E-01-2.63272E-03-7.94433E-01 1.77986E-13-3.13469E-13
 -1       359 2.20842E+01-2.51574E-02-1.08047E-03-8.73610E-01 2.14764E-13-2.99452E-13
 -1       360 2.17171E+01 5.46710E-02 1.41846E-05-8.48502E-01 1.27115E-13-3.93186E-13
 -1       361 2.13874E+01 9.38528E-02 6.63720E-04-7.65292E-01 3.73031E-14-3.70409E-13
 -1       362 2.11002E+01 1.06583E-01 9.72273E-04-6.56599E-01 1.02091E-13-2.91227E-13
 -1       363 2.08566E+01 1.03950E-01 1.05540E-03-5.43006E-01 1.78087E-13-8.17935E-14
 -1       364 2.06545E+01 9.34948E-02 1.00686E-03-4.36177E-01 7.28202E-14-1.68824E-13
 -1       365 2.04904E+01 7.99011E-02 8.92482E-04-3.41816E-01-1.59701E-13-1.83405E-13
 -1       366 2.03599E+01 6.58627E-02 7.53859E-04-2.61932E-01-1.15790E-14 3.32772E-14
 -1       367 2.02579E+01 5.27961E-02 6.14905E-04-1.96410E-01 3.84872E-14 6.22995E-14
 -1       368 2.01799E+01 4.13431E-02 4.87943E-04-1.44017E-01 1.89840E-13 1.97963E-13
 -1       369 2.01212E+01 3.16987E-02 3.78220E-04-1.03036E-01 1.13162E-13 1.48249E-13
 -1       370 2.00781E+01 2.38157E-02 2.86942E-04-7.16265E-02-1.86084E-13 1.27788E-13
 -1       371 2.00471E+01 1.75265E-02 2.13166E-04-4.80248E-02-8.93643E-14 9.03168E-14
 -1       372 2.00255E+01 1.26143E-02 1.54941E-04-3.06482E-02-5.95034E-14 2.19190E-13
 -1       373 2.00109E+01 8.85341E-03 1.09951E-04-1.81331E-02 8.52141E-14 1.91546E-13
 -1       374 2.00015E+01 6.03030E-03 7.58758E-05-9.34128E-03-9.80486E-14 7.58934E-14
 -1       375 1.99960E+01 3.95341E-03 5.05644E-05-3.34660E-03-8.05713E-14 1.82131E-13
 -1       376 1.99930E+01 2.45663E-03 3.21100E-05 5.86652E-04-2.83633E-13 2.77820E-13
 -1       377 1.99919E+01 1.39870E-03 1.88601E-05 3.02865E-03-3.31788E-14 1.54188E-13
 -1       378 1.99921E+01 6.60394E-04 9.40162E-06 4.40814E-03 2.24143E-13 7.46058E-14
 -1       379 1.99929E+01 1.40234E-04 2.54377E-06 5.03398E-03 3.98171E-13-7.95922E-14
 -1       380 1.99942E+01-2.50255E-04-2.65159E-06 5.11313E-03 2.17725E-13-2.14540E-13
 -1       381 1.99956E+01-5.89696E-04-6.57131E-06 4.76593E-03-1.34618E-13 8.68575E-14
 -1       382 1.99970E+01-9.51328E-04-1.17552E-05 4.04892E-03 1.13260E-13 1.14472E-13
 -1       383 1.99981E+01-1.24812E-03-1.37668E-05 3.06126E-03 2.27570E-13 1.01713E-13
 -1       384 2.14546E+01 2.64202E-01 1.09852E-02-1.91791E-01 4.05200E-13 6.56594E-13
 -1       385 2.15192E+01 1.51739E-01 6.05384E-03-5.26055E-01 3.00777E-13 5.41599E-13
 -1       386 2.17709E+01 6.78372E-02 2.00862E-03-7.10186E-01 1.86471E-13 4.23739E-13
 -1       387 2.21327E+01-2.41141E-02-7.50294E-04-7.62602E-01 1.34290E-13 3.45945E-13
 -1       388 2.25326E+01-1.41828E-01-2.90949E-03-6.64911E-01 9.69221E-14 2.71304E-13
 -1       389 2.28932E+01-2.84636E-01-4.53928E-03-3.85169E-01 7.21868E-14 3.29579E-13
 -1       390 2.31257E+01-4.21741E-01-5.16569E-03 9.05580E-02 6.93200E-14 3.85456E-13
 -1       391 2.31354E+01-4.80286E-01-4.43977E-03 7.10075E-01-3.99997E-14 4.84969E-13
 -1       392 2.28524E+01-3.59478E-01-2.19920E-03 1.30353E+00-1.54664E-14 4.97232E-13
 -1       393 2.22998E+01-6.30506E-03-1.43203E-04 1.58419E+00 9.59240E-14 3.63501E-13
 -1       394 2.16662E+01 4.77025E-01 2.93966E-04 1.28183E+00 3.08328E-13 2.05053E-13
 -1       395 2.12758E+01 8.19419E-01 8.81450E-04 3.84259E-01 3.33313E-13 1.85164E-13
 -1       396 2.13812E+01 7.78654E-01 3.27377E-03-7.32112E-01 2.72002E-13-8.00176E-14
 -1       397 2.19406E+01 3.84004E-01 4.05525E-03-1.52497E+00 2.85283E-13-3.52605E-13
 -1       398 2.26535E+01-8.98003E-02 2.07332E-03-1.69087E+00 2.75787E-13-5.12689E-13
 -1       399 2.32151E+01-3.96806E-01-1.69290E-03-1.32037E+00 9.77361E-14-5.00389E-13
 -1       400 2.34819E+01-4.75231E-01-5.02449E-03-7.02992E-01-1.54542E-13-5.55266E-13
 -1       401 2.34604E+01-3.95046E-01-6.15622E-03-1.05089E-01-7.31125E-14-6.42179E-13
 -1       402 2.32297E+01-2.57266E-01-5.30905E-03 3.35145E-01-2.30215E-14-5.12223E-13
 -1       403 2.28762E+01-1.28331E-01-3.59074E-03 5.92198E-01 1.86432E-13-3.35512E-13
 -1       404 2.24690E+01-3.40613E-02-1.82663E-03 6.98103E-01 6.73229E-14-2.40116E-13
 -1       405 2.20566E+01 2.39936E-02-4.40167E-04 7.00822E-01-1.97325E-13-3.53878E-13
 -1       406 2.16693E+01 5.38507E-02 4.56840E-04 6.43468E-01-3.09473E-14-1.63862E-13
 -1       407 2.13239E+01 6.49373E-02 9.35492E-04 5.57662E-01-1.69364E-14-1.74569E-13
 -1       408 2.10275E+01 6.49216E-02 1.11802E-03 4.63815E-01-1.79951E-13-9.97516E-14
 -1       409 2.07809E+01 5.91190E-02 1.11736E-03 3.73716E-01-1.28498E-13-1.78019E-13
 -1       410 2.05809E+01 5.08637E-02 1.01823E-03 2.93300E-01 3.51382E-14-3.50763E-14
 -1       411 2.04224E+01 4.20856E-02 8.76320E-04 2.24856E-01 1.57411E-13-4.70405E-15
 -1       412 2.02993E+01 3.38081E-02 7.24826E-04 1.68566E-01-2.26390E-15 1.45456E-14
 -1       413 2.02057E+01 2.65049E-02 5.81705E-04 1.23506E-01-5.40976E-14-1.10849E-13
 -1       414 2.01360E+01 2.03335E-02 4.55384E-04 8.82563E-02-1.11452E-13-2.67847E-13
 -1       415 2.00852E+01 1.52797E-02 3.48708E-04 6.12507E-02 2.11348E-13 1.44135E-13
 -1       416 2.00492E+01 1.12436E-02 2.61466E-04 4.09765E-02 3.24123E-13 8.45129E-14
 -1       417 2.00244E+01 8.08966E-03 1.91918E-04 2.60685E-02 3.49422E-13-2.75857E-13
 -1       418 2.00080E+01 5.67466E-03 1.37681E-04 1.53486E-02 2.50331E-15-4.32377E-13
 -1       419 1.99977E+01 3.86212E-03 9.62315E-05 7.83330E-03 6.23812E-14-5.13282E-13
 -1       420 1.99918E+01 2.52949E-03 6.51594E-05 2.72197E-03-1.27806E-13-6.25910E-13
 -1       421 1.99890E+01 1.57043E-03 4.22893E-05-6.21352E-04 1.88178E-13-4.09262E-13
 -1       422 1.99883E+01 8.94664E-04 2.57151E-05-2.68982E-03 6.12301E-14-3.27658E-13
 -1       423 1.99890E+01 4.26130E-04 1.37965E-05-3.85474E-03-2.20982E-14-3.83495E-13
 -1       424 1.99904E+01 1.00375E-04 5.14988E-06-4.38415E-03-1.05239E-13-4.28685E-13
 -1       425 1.99923E+01-1.38947E-04-1.33985E-06-4.45817E-03 1.44730E-13-2.85457E-13
 -1       426 1.99942E+01-3.44096E-04-6.03704E-06-4.18026E-03-6.74916E-14-2.51034E-13
 -1       427 1.99961E+01-5.58852E-04-8.54990E-06-3.58794E-03-3.44365E-13-2.35183E-13
 -1       428 1.99977E+01-8.18858E-04-8.82539E-06-2.67836E-03-3.34419E-13-3.77047E-13
 -1       429 1.99986E+01-1.05958E-03-8.66281E-06-2.01253E-03-2.42181E-13-2.01847E-13
 -1       430 1.99999E+01-4.49653E-03-4.11926E-07-3.79366E-03-2.88480E-13-1.45214E-13
 -1       431 1.99993E+01-3.10766E-03-8.06647E-06-3.65719E-03-1.37557E-13 1.76824E-13
 -1       432 1.99989E+01-2.07335E-03-1.22459E-05-2.99927E-03-2.52766E-13 3.37201E-14
 -1       433 2.00004E+01-5.75143E-03 4.74856E-06-3.43199E-03-2.43730E-13-3.25883E-13
 -1       434 2.00007E+01-6.81058E-03 8.08343E-06-2.69356E-03 1.66942E-14 3.07739E-15
 -1       435 2.00008E+01-7.56222E-03 1.03160E-05-1.70506E-03 1.44201E-13 1.02243E-14
 -1       436 2.00009E+01-7.95006E-03 1.14878E-05-5.76600E-04-1.32353E-13-2.43984E-13
 -1       437 2.00009E+01-7.94670E-03 1.14968E-05 5.96151E-04-2.41740E-13-8.22264E-14
 -1       438 2.00008E+01-7.55229E-03 1.03277E-05 1.72305E-03-2.74456E-13 6.03086E-14
 -1       439 2.00007E+01-6.81080E-03 7.93542E-06 2.69350E-03-9.50392E-14-1.23689E-13
 -1       440 2.00004E+01-5.75269E-03 4.45327E-06 3.43273E-03-6.26180E-14 2.88676E-13
 -1       441 1.99999E+01-4.47241E-03-3.48980E-07 3.79788E-03 7.62114E-14 7.44915E-14
 -1       442 1.99993E+01-3.09283E-03-8.44137E-06 3.68181E-03-1.99991E-14-3.66909E-13
 -1       443 1.07138E+01-5.58947E+00-3.69673E-02 6.86170E+00-2.06599E-13 7.52183E-13
 -1       444 1.07647E+00-4.55327E+00-7.26013E-02-4.05898E-02 1.35705E-13 1.01374E-12
 -1       445 3.71709E+00-4.58597E+00-3.63194E-02 4.27622E+00-4.61436E-14 1.11346E-12
 -1       446 1.94407E+01-5.36420E+00-7.37132E-03 6.52734E+00-3.50692E-14 2.31995E-13
 -1       447 8.07099E+00-5.46695E+00-4.81895E-02-6.28910E+00 3.26336E-13 7.57387E-13
 -1       448 3.20886E+01 1.19186E+00-5.05682E-02 3.69792E-01 8.05179E-13-2.80428E-13
 -1       449 2.65838E+01-3.59217E+00-9.90357E-03 4.17544E+00 2.15446E-13-5.38181E-14
 -1       450 1.98992E+01 3.60747E+00-1.78292E-02-1.01817E+00-4.62469E-13-7.90555E-13
 -1       451 3.44108E+01 5.08929E+00 1.88072E-03-3.54677E-01 1.38178E-12-4.57967E-13
 -1       452 3.66103E+01 7.90673E+00 1.05069E-01-1.49785E-01 1.52769E-12-3.75640E-13
 -1       453 3.46036E+01 7.15479E+00-1.92605E-02 4.81746E-01 1.58762E-12-1.30382E-13
 -1       454 3.36846E+01 3.11384E+00 5.26935E-03-3.13724E-01 1.14495E-12-2.92322E-13
 -1       455 3.11282E+01-4.64288E-01 4.91833E-02-2.55123E+00 8.86001E-13-5.38014E-13
 -1       456 2.41612E+01-4.34037E+00-1.65667E-02-5.44278E+00 3.82777E-13-9.16600E-13
 -1       457 1.62699E+01-5.64035E+00-2.46513E-02-7.07041E+00 1.61482E-13-1.20001E-12
 -1       458 7.16777E+00-5.48114E+00-7.88350E-02-6.13865E+00-1.96926E-14-1.52199E-12
 -1       459 2.11937E+00-4.49516E+00-6.01907E-02-2.73653E+00-1.29681E-13-1.68579E-12
 -1       460 1.43431E+00-4.58606E+00-6.32185E-02 1.60893E+00-1.75540E-13-1.55259E-12
 -1       461 6.62746E+00-4.61130E+00 4.18304E-02 5.87645E+00-6.05627E-14-1.42812E-12
 -1       462 1.29543E+01-5.68200E+00-8.59854E-03 7.20245E+00-3.62071E-14-1.18702E-12
 -1       463 2.30708E+01-5.13162E+00 2.53054E-02 5.71595E+00-3.31540E-13-5.49040E-13
 -1       464 2.85154E+01-2.75767E+00-3.16852E-02 3.28212E+00-7.39180E-13-2.92030E-13
 -1       465 3.33589E+01 2.33329E+00 1.63220E-02 6.46502E-01-1.37941E-12-2.04101E-13
 -1       466 3.58865E+01 6.25118E+00 8.54968E-02 4.66021E-02-1.59953E-12-4.31835E-13
 -1       467 3.69881E+01 7.98462E+00 1.18584E-01 8.63207E-02-1.51770E-12-4.79462E-13
 -1       468 3.49669E+01 6.97616E+00 1.42605E-03 5.49132E-01-1.15545E-12-5.64777E-13
 -1       469 3.42047E+01 3.92979E+00 2.76773E-02 8.36877E-02-9.13145E-13-5.10925E-13
 -1       470 3.01889E+01-1.34095E+00-2.38848E-02-2.29398E+00-4.04718E-13-3.45682E-13
 -1       471 2.52906E+01-4.14999E+00 1.44548E-02-4.79752E+00 1.38070E-13 1.83145E-13
 -1       472 1.63526E+01-5.70517E+00-2.30321E-02-6.94532E+00 2.93321E-13 2.82105E-13
 -1       473 2.93843E+01-2.38546E+00-6.15925E-02 5.16647E-01 2.23325E-13-4.96332E-13
 -1       474 2.13760E+01 9.17195E-01 4.15990E-03 1.88866E-01 5.32662E-13 1.95823E-13
 -1       475 1.87300E+01 3.69512E+00-3.75716E-03-1.36305E-01-1.15998E-13-8.59442E-13
 -1       476 1.92059E+01 3.39953E+00-4.78026E-03-2.72678E-01-2.48396E-13-8.51423E-13
 -1       477 1.83291E+01 3.92864E+00-2.98595E-03 2.22736E-03 1.48638E-13-8.53359E-13
 -1       478 1.84397E+01 3.86393E+00-3.18446E-03 5.72628E-02 2.60045E-13-8.14794E-13
 -1       479 1.87435E+01 3.68341E+00-3.79203E-03 1.42281E-01 3.74168E-13-7.68769E-13
 -1       480 1.92239E+01 3.38246E+00-4.79336E-03 2.80323E-01 4.87506E-13-6.42458E-13
 -1       481 1.98411E+01 2.95602E+00-5.93021E-03 4.70594E-01 5.64214E-13-5.15451E-13
 -1       482 2.05660E+01 2.37213E+00-5.57419E-03 6.85570E-01 6.43693E-13-2.66026E-13
 -1       483 2.11722E+01 1.10953E+00 2.80953E-03-7.06103E-02-4.50031E-13-3.19172E-13
 -1       484 2.13235E+01 5.55846E-01 5.22010E-03-4.11238E-01 4.12007E-13 1.68583E-13
 -1       485 2.10331E+01 1.86662E+00-4.90764E-03-7.38191E-01-5.61025E-13-4.17202E-13
 -1       486 2.11697E+01 6.88508E-01 1.95375E-03 5.19409E-01-3.28915E-13-2.75372E-13
 -1       487 2.12457E+01 3.92478E-01 9.47104E-04 9.23758E-01-2.18678E-13-2.18420E-13
 -1       488 2.14357E+01 1.05544E-01-1.13230E-04 1.15924E+00-1.60102E-13-1.73735E-13
 -1       489 2.17559E+01-2.37420E-01-1.15860E-03 1.21377E+00-6.80876E-14-1.57577E-13
 -1       490 2.22185E+01-6.61983E-01-2.16768E-03 1.04608E+00-2.95171E-14-9.96160E-14
 -1       491 2.28160E+01-1.12641E+00-3.33444E-03 6.00044E-01 1.91311E-14-4.14484E-14
 -1       492 2.34817E+01-1.47047E+00-3.45877E-03-1.52662E-01 1.03561E-14 5.90828E-14
 -1       493 2.40455E+01-1.39690E+00-3.96380E-03-1.12243E+00-7.21683E-14 1.77235E-13
 -1       494 2.42513E+01-5.82262E-01-1.02764E-02-1.96913E+00-2.23216E-13 2.73070E-13
 -1       495 2.39898E+01 9.31873E-01-1.71191E-02-2.09265E+00-3.89549E-13 1.92942E-13
 -1       496 2.35447E+01 2.37572E+00-2.66415E-02-1.07623E+00-5.50451E-13-7.17219E-14
 -1       497 2.34615E+01 2.64312E+00-3.01838E-02 6.77505E-01-4.01642E-13-2.80642E-13
 -1       498 2.38615E+01 1.50972E+00-2.09665E-02 2.04607E+00-3.00837E-13-4.28241E-13
 -1       499 2.42747E+01-1.06317E-01-9.65466E-03 2.30186E+00-2.88220E-13-4.81710E-13
 -1       500 2.42511E+01-1.19672E+00-5.83812E-03 1.63922E+00-5.51120E-14-4.38655E-13
 -1       501 2.38025E+01-1.50380E+00-4.02464E-03 6.57968E-01 1.19722E-13-4.25110E-13
 -1       502 2.31573E+01-1.27512E+00-3.64243E-03-1.97766E-01 1.71311E-13-2.63362E-13
 -1       503 2.25224E+01-8.49440E-01-2.76062E-03-7.71886E-01 1.80350E-13-2.59740E-13
 -1       504 2.19889E+01-4.40980E-01-1.72305E-03-1.07688E+00 2.22002E-13-2.40285E-13
 -1       505 2.15693E+01-1.34235E-01-8.07626E-04-1.18068E+00 2.10953E-13-1.94844E-13
 -1       506 2.12443E+01 6.16550E-02-1.63281E-04-1.15381E+00 4.37680E-14-3.73106E-13
 -1       507 2.09898E+01 1.68225E-01 2.18198E-04-1.05237E+00 6.55579E-14-4.25306E-13
 -1       508 2.07865E+01 2.13043E-01 4.06826E-04-9.15733E-01 1.90001E-14-5.02701E-13
 -1       509 2.06215E+01 2.19588E-01 4.72106E-04-7.69385E-01 2.74603E-13-3.51342E-13
 -1       510 2.04866E+01 2.04837E-01 4.64436E-04-6.28551E-01 8.36474E-14-2.35208E-13
 -1       511 2.03763E+01 1.79949E-01 4.18894E-04-5.01395E-01-1.18384E-14 2.78361E-14
 -1       512 2.02868E+01 1.51741E-01 3.57812E-04-3.91467E-01-5.66474E-14 5.61881E-14
 -1       513 2.02150E+01 1.24087E-01 2.94190E-04-2.99466E-01 1.20359E-13 9.43259E-14
 -1       514 2.01581E+01 9.89752E-02 2.34893E-04-2.24450E-01 4.29931E-14 1.92434E-13
 -1       515 2.01138E+01 7.72504E-02 1.83024E-04-1.64634E-01 1.04748E-13 3.27919E-14
 -1       516 2.00798E+01 5.90915E-02 1.39514E-04-1.17890E-01 3.87761E-14 6.40109E-15
 -1       517 2.00542E+01 4.43152E-02 1.04124E-04-8.20563E-02-1.82039E-13 9.33969E-14
 -1       518 2.00354E+01 3.25607E-02 7.60478E-05-5.51065E-02-6.80987E-14 8.69594E-14
 -1       519 2.00218E+01 2.33989E-02 5.42531E-05-3.52370E-02-8.60956E-14-2.38053E-13
 -1       520 2.00122E+01 1.63957E-02 3.76764E-05-2.09001E-02-1.94026E-13-1.51880E-13
 -1       521 2.00058E+01 1.11447E-02 2.53182E-05-1.08059E-02 4.41374E-15-1.88822E-15
 -1       522 2.00016E+01 7.28324E-03 1.62849E-05-3.90570E-03-1.81372E-13-2.62424E-14
 -1       523 1.99991E+01 4.49701E-03 9.80311E-06 6.32679E-04-1.48098E-13 2.07507E-13
 -1       524 1.99977E+01 2.51812E-03 5.20239E-06 3.45297E-03-1.08960E-13 2.00073E-13
 -1       525 1.99972E+01 1.11975E-03 1.92019E-06 5.03771E-03 2.33659E-13 9.11656E-14
 -1       526 1.99972E+01 1.08835E-04-5.14305E-07 5.73376E-03 1.77510E-13 1.21228E-13
 -1       527 1.99975E+01-6.80679E-04-2.14663E-06 5.77321E-03 3.33833E-13 7.02277E-15
 -1       528 1.99980E+01-1.39092E-03-3.87465E-06 5.29671E-03-1.46373E-13 1.69106E-13
 -1       529 2.15901E+01 9.98593E-02 2.56865E-04-1.01941E+00 2.19672E-13 1.08844E-13
 -1       530 2.18999E+01-1.52654E-01-1.37284E-03-1.06164E+00 1.43755E-13 9.37990E-14
 -1       531 2.23083E+01-4.65436E-01-2.88050E-03-8.94499E-01 4.02244E-14 1.17818E-13
 -1       532 2.27864E+01-8.12930E-01-4.04184E-03-4.74826E-01-3.74908E-14 2.26740E-13
 -1       533 2.32663E+01-1.08604E+00-4.33994E-03 2.09946E-01-3.93798E-14 3.21396E-13
 -1       534 2.36160E+01-1.07518E+00-4.46191E-03 1.06776E+00 2.86114E-14 2.98092E-13
 -1       535 2.36675E+01-5.46704E-01-3.78130E-03 1.81080E+00 1.26887E-13 2.12448E-13
 -1       536 2.33571E+01 5.03232E-01-6.59102E-03 1.97452E+00 2.64063E-13 1.96545E-13
 -1       537 2.28977E+01 1.61786E+00-1.33157E-02 1.20491E+00 4.39356E-13 8.80890E-14
 -1       538 2.27353E+01 2.01968E+00-1.12889E-02-2.73064E-01 5.06864E-13-9.06325E-14
 -1       539 2.30465E+01 1.38761E+00-8.76023E-03-1.64182E+00 3.68800E-13-2.83909E-13
 -1       540 2.35433E+01 2.19173E-01-5.55409E-03-2.17867E+00 3.70779E-13-4.49828E-13
 -1       541 2.38077E+01-7.17158E-01-2.42390E-03-1.83394E+00 2.03692E-13-3.42669E-13
 -1       542 2.37043E+01-1.11103E+00-3.78049E-03-1.02849E+00-9.40608E-14-3.61170E-13
 -1       543 2.33324E+01-1.03616E+00-4.61300E-03-1.92003E-01-1.40163E-13-3.52127E-13
 -1       544 2.28581E+01-7.41214E-01-4.01414E-03 4.43164E-01-9.44393E-14-2.47593E-13
 -1       545 2.23897E+01-4.19899E-01-2.82504E-03 8.29244E-01-5.82896E-14-2.34402E-13
 -1       546 2.19709E+01-1.62786E-01-1.54686E-03 1.00460E+00 1.32378E-13-3.51410E-14
 -1       547 2.16105E+01 9.01384E-03-4.94063E-04 1.03141E+00-4.00055E-15-1.22172E-13
 -1       548 2.13040E+01 1.07081E-01 1.96481E-04 9.67175E-01-8.21796E-14-2.72193E-13
 -1       549 2.10447E+01 1.52196E-01 5.76458E-04 8.55510E-01-5.23144E-15-2.88761E-13
 -1       550 2.08267E+01 1.63607E-01 7.35685E-04 7.25924E-01-8.96075E-14-2.60534E-13
 -1       551 2.06451E+01 1.55781E-01 7.55310E-04 5.96594E-01-1.39041E-13-3.50181E-13
 -1       552 2.04956E+01 1.38417E-01 6.98073E-04 4.77589E-01-2.14992E-13-2.01059E-13
 -1       553 2.03743E+01 1.17509E-01 6.05864E-04 3.73629E-01 7.19182E-14-4.44546E-14
 -1       554 2.02774E+01 9.64957E-02 5.03796E-04 2.86111E-01 1.22932E-13-5.23562E-14
 -1       555 2.02013E+01 7.71748E-02 4.05746E-04 2.14519E-01-1.00657E-13-3.22296E-14
 -1       556 2.01425E+01 6.03432E-02 3.18410E-04 1.57337E-01-2.43324E-13 3.01145E-13
 -1       557 2.00980E+01 4.62161E-02 2.44250E-04 1.12619E-01 6.36425E-14 2.94831E-13
 -1       558 2.00648E+01 3.46909E-02 1.83385E-04 7.83331E-02 3.26580E-13 2.38859E-13
 -1       559 2.00408E+01 2.55070E-02 1.34745E-04 5.25548E-02 4.63683E-13 1.65730E-13
 -1       560 2.00237E+01 1.83406E-02 9.67464E-05 3.35601E-02 3.26910E-13 6.55421E-14
 -1       561 2.00119E+01 1.28580E-02 6.76718E-05 1.98661E-02 1.00931E-13 6.37734E-15
 -1       562 2.00042E+01 8.74515E-03 4.58656E-05 1.02350E-02 9.83139E-14 5.61428E-14
 -1       563 1.99994E+01 5.72044E-03 2.98292E-05 3.65999E-03-1.28102E-13-1.25725E-13
 -1       564 1.99966E+01 3.53957E-03 1.82535E-05-6.58734E-04 8.26185E-14 4.82897E-14
 -1       565 1.99954E+01 1.99429E-03 1.00136E-05-3.34018E-03 5.23337E-14 1.13056E-13
 -1       566 1.99951E+01 9.08233E-04 4.16023E-06-4.84863E-03-1.41717E-14 7.77966E-14
 -1       567 1.99954E+01 1.31677E-04-9.97022E-08-5.51748E-03-1.10435E-13 2.06882E-13
 -1       568 1.99962E+01-4.64908E-04-3.48174E-06-5.57134E-03 8.80163E-16 4.15539E-13
 -1       569 1.99970E+01-9.99626E-04-8.15105E-06-5.15373E-03 2.41544E-14 2.17985E-13
 -1       570 1.99980E+01-1.54601E-03-9.77240E-06-4.32146E-03-3.65376E-13 1.66640E-13
 -1       571 2.00013E+01-4.44991E-03 3.36852E-06-3.83807E-03 7.47527E-14 3.61291E-13
 -1       572 2.00017E+01-4.97268E-03 4.08122E-06-2.73593E-03 3.25300E-13-2.77438E-14
 -1       573 1.99996E+01-2.86345E-03-2.29787E-06-4.84417E-03-1.58899E-13 6.41122E-15
 -1       574 2.00005E+01-3.74154E-03 1.13653E-06-4.58302E-03-3.10565E-13-2.28976E-13
 -1       575 2.00020E+01-5.28928E-03 4.87827E-06-1.41392E-03-2.02867E-13-3.49901E-13
 -1       576 2.00021E+01-5.39365E-03 5.16476E-06 1.20691E-05-1.27424E-13-2.72014E-13
 -1       577 2.00020E+01-5.28571E-03 4.90812E-06 1.43713E-03-6.37841E-14 1.16270E-13
 -1       578 2.00017E+01-4.97370E-03 4.02935E-06 2.73621E-03 6.46052E-14-1.04392E-13
 -1       579 2.00013E+01-4.45031E-03 2.79439E-06 3.83933E-03 8.08051E-14-1.44539E-13
 -1       580 2.00006E+01-3.72119E-03 1.32007E-06 4.59288E-03-1.78585E-13 4.33097E-14
 -1       581 1.99995E+01-2.82591E-03-2.71582E-06 4.82213E-03-3.87551E-13 4.63803E-14
 -1       582 4.81482E+00-1.67074E+00 1.59058E-01 2.16630E+00-1.17201E-13 9.06386E-13
 -1       583 1.78313E+01-5.33388E+00 9.14483E-02 6.55020E+00-6.13044E-13-6.01758E-14
 -1       584 2.13945E+01 3.16433E-01 2.33032E-03-8.01425E-01 3.05052E-13 1.27502E-13
 -1       585 9.94723E+00-3.45161E+00 1.40034E-01 6.17765E+00-5.11362E-13 5.61891E-13
 -1       586 1.43398E+01-4.77775E+00 8.51397E-02-6.83185E+00 7.23886E-13 2.32848E-13
 -1       587 3.04225E+01 7.13476E+00-1.76715E-01 5.39017E-01-1.18970E-12-5.37369E-13
 -1       588 6.43719E+00-1.79418E+00 1.69493E-01 3.67972E+00 1.81417E-13-1.29419E-12
 -1       589 3.08479E+01 6.33452E+00-1.50002E-01-1.37451E+00 1.35812E-12-3.73590E-13
 -1       590 4.49850E+00-1.86565E+00 1.55786E-01-2.11154E+00 1.92558E-13 7.70217E-13
 -1       591 9.92275E+00-3.62593E+00 1.36906E-01-6.11420E+00 4.37851E-13 4.65558E-13
 -1       592 1.84290E+01 3.87183E+00-3.16910E-03-5.19323E-02 2.92341E-14-8.66578E-13
 -1       593 2.41927E+01-5.38374E+00 2.30793E-02 4.41026E+00-4.56829E-13-1.15075E-13
 -1       594 2.22545E+01-5.69891E+00 3.70172E-02-5.55505E+00-3.48749E-13-4.89390E-13
 -1       595 3.03308E+01 7.28090E+00-1.68944E-01 1.05941E-01 1.32834E-12-1.23884E-13
 -1       596 3.02149E+01-3.77412E-01-1.00617E-01 7.42260E-01 4.78364E-13 3.32893E-13
 -1       597 3.07319E+01 3.64397E+00-1.36600E-01-1.75584E+00-1.18441E-12 1.14742E-13
 -1       598 2.77990E+01-4.05591E+00-3.16037E-02-2.28798E+00 1.11508E-14 5.42760E-14
 -1       599 1.42377E+01-4.86619E+00 9.60458E-02-7.03544E+00-4.45866E-13-1.08855E-12
 -1       600 7.61027E+00-2.59672E+00 1.52513E-01-5.08240E+00-4.10255E-13-1.46543E-12
 -1       601 4.71560E+00-1.28895E+00 1.83838E-01-1.25452E-01-5.74277E-14-1.51382E-12
 -1       602 1.26615E+01-3.87744E+00 1.32445E-01 6.66214E+00 4.98879E-13-9.57248E-13
 -1       603 2.00713E+01-5.54919E+00 6.37699E-02 6.15446E+00 4.74926E-13-3.49503E-13
 -1       604 2.66304E+01-4.81331E+00-1.00364E-02 2.70846E+00 3.52218E-14 1.35184E-13
 -1       605 2.97194E+01-1.47338E+00-9.44524E-02-3.26072E-01-5.88597E-13 2.96374E-13
 -1       606 3.06958E+01 6.74811E+00-1.55229E-01-9.57132E-01-1.42079E-12-1.73098E-13
 -1       607 3.04991E+01 4.57285E+00-1.54646E-01 1.91935E+00-8.34124E-13-7.52884E-13
 -1       608 3.01208E+01 8.31039E-02-1.05468E-01 1.25936E+00-5.04877E-13-7.80383E-13
 -1       609 2.77749E+01-4.01187E+00-4.35963E-02-1.67370E+00 2.29324E-13-4.47281E-13
 -1       610 2.26578E+01-5.63569E+00 3.84076E-02-5.14125E+00 6.57682E-13-9.63188E-14
 -1       611 2.15082E+01 1.34205E+00-9.76960E-04 8.53852E-01 6.70190E-13 3.04509E-13
 -1       612 3.02831E+01 4.23683E+00-1.52886E-01 1.80273E+00 1.10079E-12 3.15650E-13
 -1       613 2.99849E+01 2.34074E+00-1.54474E-01-2.01668E+00 8.85493E-13-7.40553E-13
 -1       614 1.98161E+01 2.98073E+00-6.17788E-03-4.59575E-01-3.62386E-13-7.71841E-13
 -1       615 2.04101E+01 2.49427E+00-5.91537E-03-6.20041E-01-4.75675E-13-6.25012E-13
 -1       616 1.99984E+01-1.86311E-03-6.13092E-06 4.71229E-03-7.13479E-14 3.22401E-13
 -1       617 2.86707E+01-6.64794E-01-9.84599E-02-1.59452E+00 3.45991E-13-7.22929E-13
 -1       618 2.79308E+01 5.28525E+00-1.47123E-01 1.53540E+00 1.09143E-12 1.57341E-13
 -1       619 8.59808E+00-1.52125E+00 1.55562E-01-4.25845E+00 2.86819E-13 5.97598E-13
 -1       620 2.69939E+01-4.17618E+00-3.47105E-02 1.43934E+00-2.95614E-13-4.32373E-13
 -1       621 1.85953E+01 3.24611E+00-1.02016E-03-8.79022E-02 2.84526E-13-7.19821E-13
 -1       622 1.83536E+01 3.40128E+00-9.07375E-04-3.65836E-02 1.99547E-13-7.56274E-13
 -1       623 1.96378E+01 2.53268E+00-1.28528E-03-3.31553E-02 4.56766E-13-5.46134E-13
 -1       624 2.03171E+01 1.99231E+00-1.79192E-03 5.21826E-02 5.04631E-13-3.44919E-13
 -1       625 1.52789E+01-3.51860E+00 1.16001E-01 5.99867E+00-5.53661E-13 3.65298E-14
 -1       626 2.06536E+01 1.38341E+00-4.66714E-04 2.65648E-01-3.23327E-13-4.42652E-13
 -1       627 2.09107E+01 1.23921E+00 2.58253E-03-1.29142E-01 4.78903E-13-1.41615E-13
 -1       628 2.21317E+01-9.61796E-01-1.67838E-03-1.21721E+00-6.00590E-14 8.70853E-15
 -1       629 2.51870E+01-4.91397E+00 1.78003E-03-2.55538E+00 5.74823E-13-2.19352E-13
 -1       630 2.06908E+01 9.14135E-01 5.28989E-04 7.97042E-01-2.29065E-13-3.96502E-13
 -1       631 2.07752E+01 5.02960E-01 1.83471E-04 1.20229E+00-1.45003E-13-3.27091E-13
 -1       632 2.09755E+01 5.12611E-02-1.98532E-04 1.47376E+00-7.33822E-14-2.80613E-13
 -1       633 2.13597E+01-5.12233E-01-5.76282E-04 1.58439E+00-2.02555E-14-2.47359E-13
 -1       634 2.20053E+01-1.21177E+00-3.54275E-04 1.47177E+00 5.92165E-14-1.39495E-13
 -1       635 2.29522E+01-1.95095E+00-1.55026E-03 1.02237E+00 1.35888E-13-3.42651E-14
 -1       636 2.41432E+01-2.44325E+00-4.24445E-03 1.34314E-01 1.20110E-13 1.65487E-13
 -1       637 2.52370E+01-2.04893E+00-2.08428E-02-1.13052E+00-2.79195E-14 3.44897E-13
 -1       638 2.58088E+01-2.41798E-01-3.71715E-02-2.24001E+00-3.99922E-13 4.49077E-13
 -1       639 2.55822E+01 2.62609E+00-8.77849E-02-2.14336E+00-7.54938E-13 2.81263E-13
 -1       640 2.52588E+01 4.45212E+00-9.97091E-02-3.23525E-01-7.10612E-13-8.24831E-14
 -1       641 2.53928E+01 3.53798E+00-1.01464E-01 1.87018E+00-5.22474E-13-4.39236E-13
 -1       642 2.58132E+01 7.37530E-01-6.40311E-02 2.61041E+00-3.19791E-13-5.98895E-13
 -1       643 2.55605E+01-1.57507E+00-1.79279E-02 1.78883E+00-1.34442E-13-4.59834E-13
 -1       644 2.45572E+01-2.42611E+00-5.85029E-03 4.57263E-01 7.98541E-14-4.05561E-13
 -1       645 2.33339E+01-2.17794E+00-2.04332E-03-5.94731E-01 3.24847E-13-3.05005E-13
 -1       646 2.22698E+01-1.50892E+00-1.14925E-03-1.20444E+00 2.71860E-13-1.99425E-16
 -1       647 2.14944E+01-8.32218E-01-7.94862E-04-1.46697E+00 1.58128E-13 1.71156E-13
 -1       648 2.09831E+01-3.07971E-01-3.87615E-04-1.51028E+00 1.10801E-13 6.07616E-14
 -1       649 2.06646E+01 3.88868E-02-6.81336E-05-1.42984E+00-7.27988E-14-1.65846E-13
 -1       650 2.04701E+01 2.38204E-01 9.06717E-05-1.28626E+00-2.87621E-14-2.53200E-13
 -1       651 2.03494E+01 3.32264E-01 1.50721E-04-1.11631E+00-1.23364E-13-3.68469E-13
 -1       652 2.02706E+01 3.58418E-01 1.68251E-04-9.42015E-01 1.69547E-13-3.53722E-13
 -1       653 2.02153E+01 3.44609E-01 1.62427E-04-7.76379E-01 3.60405E-13-4.32979E-13
 -1       654 2.01734E+01 3.09921E-01 1.44902E-04-6.26584E-01 1.82533E-13-3.80218E-13
 -1       655 2.01398E+01 2.66558E-01 1.23041E-04-4.95952E-01 7.84258E-14-1.44924E-13
 -1       656 2.01121E+01 2.21846E-01 1.00887E-04-3.85270E-01-3.21870E-14 5.12623E-14
 -1       657 2.00888E+01 1.79860E-01 8.04919E-05-2.93734E-01 8.06646E-15-5.55472E-14
 -1       658 2.00695E+01 1.42599E-01 6.27516E-05-2.19628E-01-6.39273E-14-6.54348E-14
 -1       659 2.00535E+01 1.10792E-01 4.79015E-05-1.60792E-01 3.18930E-15-3.07199E-13
 -1       660 2.00405E+01 8.44292E-02 3.58241E-05-1.14936E-01-1.93920E-13-2.16180E-13
 -1       661 2.00301E+01 6.31017E-02 2.62319E-05-7.98424E-02-3.38818E-13-5.42681E-13
 -1       662 2.00219E+01 4.62092E-02 1.87723E-05-5.34788E-02-2.45328E-13-5.46353E-13
 -1       663 2.00155E+01 3.30893E-02 1.30861E-05-3.40570E-02 7.46137E-14-2.96939E-13
 -1       664 2.00107E+01 2.30908E-02 8.83786E-06-2.00529E-02 5.82055E-14-1.66628E-13
 -1       665 2.00071E+01 1.56133E-02 5.72794E-06-1.02008E-02-2.02442E-13-3.38768E-13
 -1       666 2.00045E+01 1.01240E-02 3.48967E-06-3.47519E-03-1.05665E-13-4.70618E-13
 -1       667 2.00027E+01 6.16287E-03 1.90184E-06 9.35552E-04 1.03927E-13-2.47412E-13
 -1       668 2.00014E+01 3.33784E-03 7.33943E-07 3.65701E-03 1.59868E-13 2.31910E-14
 -1       669 2.00005E+01 1.31730E-03-1.14236E-07 5.15628E-03 3.28502E-13 1.42122E-13
 -1       670 2.00000E+01-1.79263E-04 3.37898E-07 5.77073E-03 4.32072E-14 2.47179E-13
 -1       671 1.99997E+01-1.39316E-03-1.88769E-06 5.71458E-03 2.51351E-13 3.83462E-14
 -1       672 2.15754E+01-3.95751E-01-9.10959E-04-1.38143E+00 8.29818E-14-3.30057E-14
 -1       673 2.74999E+01 4.98294E+00-1.48141E-01 1.65214E+00-7.95225E-13-6.94462E-13
 -1       674 2.12183E+01 6.60317E-02-2.39810E-04-1.31585E+00 1.78780E-13-2.73285E-14
 -1       675 2.29018E+01-1.55949E+00-2.16254E-03-7.46530E-01-1.37006E-13 7.33430E-14
 -1       676 2.38132E+01-1.95357E+00-2.66670E-03 8.70749E-02-2.90316E-14 1.79661E-13
 -1       677 2.46235E+01-1.70209E+00-8.66149E-03 1.20173E+00 6.68072E-14 3.18134E-13
 -1       678 2.49727E+01-4.22736E-01-1.07217E-02 2.14322E+00 2.16701E-13 3.06031E-13
 -1       679 2.46233E+01 1.76019E+00-4.52854E-02 2.13194E+00 4.28152E-13 2.90790E-13
 -1       680 2.42325E+01 3.42960E+00-6.04816E-02 7.04353E-01 6.56137E-13-9.20011E-15
 -1       681 2.43510E+01 3.15068E+00-6.10092E-02-1.31963E+00 6.37443E-13-2.72349E-13
 -1       682 2.47972E+01 1.20145E+00-3.32654E-02-2.43136E+00 5.29483E-13-5.77889E-13
 -1       683 2.49559E+01-8.36044E-01-1.38426E-02-2.12465E+00 1.78937E-13-5.47379E-13
 -1       684 2.45057E+01-1.85116E+00-3.75781E-03-1.11390E+00-6.64659E-14-4.21679E-13
 -1       685 2.36282E+01-1.89797E+00-2.63363E-03-3.29100E-02-1.44893E-13-3.46101E-13
 -1       686 2.27291E+01-1.43776E+00-1.62786E-03 7.26100E-01-1.52981E-13-2.45165E-13
 -1       687 2.19917E+01-8.71817E-01-1.19957E-03 1.14906E+00-1.66120E-13-2.12338E-13
 -1       688 2.14505E+01-3.93231E-01-7.69004E-04 1.31954E+00 1.80108E-14-2.43339E-13
 -1       689 2.10736E+01-5.77725E-02-2.94416E-04 1.32519E+00 1.13939E-13 1.69781E-14
 -1       690 2.08133E+01 1.45548E-01 1.23913E-06 1.23470E+00-7.83767E-15-1.11788E-14
 -1       691 2.06293E+01 2.49469E-01 1.61317E-04 1.09502E+00 2.44445E-14 3.75770E-14
 -1       692 2.04939E+01 2.87010E-01 2.38029E-04 9.36718E-01-5.68631E-14 1.34840E-13
 -1       693 2.03900E+01 2.84391E-01 2.57676E-04 7.78749E-01-2.19555E-13 1.82859E-13
 -1       694 2.03075E+01 2.60036E-01 2.44912E-04 6.32020E-01-2.06733E-13 1.76604E-13
 -1       695 2.02409E+01 2.25887E-01 2.16882E-04 5.02068E-01-2.26549E-14-4.93561E-14
 -1       696 2.01866E+01 1.89192E-01 1.83137E-04 3.90943E-01 9.71535E-14-9.94222E-14
 -1       697 2.01426E+01 1.54040E-01 1.49425E-04 2.98528E-01-3.89997E-14 7.75998E-14
 -1       698 2.01073E+01 1.22495E-01 1.18659E-04 2.23453E-01-2.51612E-13-5.96340E-14
 -1       699 2.00792E+01 9.53877E-02 9.20698E-05 1.63722E-01-1.44288E-13-2.47037E-13
 -1       700 2.00573E+01 7.28227E-02 6.99320E-05 1.17107E-01 2.29535E-13-1.91868E-13
 -1       701 2.00405E+01 5.45126E-02 5.20180E-05 8.14046E-02 3.29571E-13-3.75331E-14
 -1       702 2.00277E+01 3.99780E-02 3.78609E-05 5.45698E-02 2.96768E-13 1.99534E-13
 -1       703 2.00183E+01 2.86698E-02 2.69073E-05 3.47950E-02 3.70264E-13 2.80487E-13
 -1       704 2.00115E+01 2.00399E-02 1.86004E-05 2.05335E-02 1.16693E-13 2.10405E-13
 -1       705 2.00066E+01 1.35786E-02 1.24241E-05 1.04986E-02-8.94105E-15 2.60430E-13
 -1       706 2.00034E+01 8.83225E-03 7.91614E-06 3.64580E-03-2.97328E-14 1.94887E-13
 -1       707 2.00012E+01 5.40797E-03 4.67499E-06-8.52406E-04 3.75578E-14 4.32460E-13
 -1       708 1.99999E+01 2.97049E-03 2.35211E-06-3.63495E-03 1.03794E-13 6.55320E-13
 -1       709 1.99992E+01 1.23534E-03 6.06152E-07-5.17864E-03-2.02296E-14 2.75658E-13
 -1       710 1.99989E+01-3.54274E-05-4.70038E-07-5.82604E-03-1.37062E-13 8.97889E-14
 -1       711 1.99988E+01-1.05464E-03-6.27313E-07-5.81115E-03 2.89029E-14 1.52600E-13
 -1       712 1.99993E+01-1.90707E-03-1.47082E-06-5.46568E-03-1.69509E-13 2.82087E-13
 -1       713 2.00034E+01-2.98318E-03 1.59663E-06-7.63802E-04-2.05514E-13-3.02452E-13
 -1       714 2.00026E+01-2.80292E-03 5.76250E-07-3.62779E-03 6.97342E-14 1.67448E-13
 -1       715 2.00034E+01-2.98321E-03 1.58081E-06 7.89323E-04-4.09620E-14 2.83694E-14
 -1       716 2.00031E+01-2.92986E-03 1.49090E-06-2.27125E-03-6.53757E-14-5.07807E-13
 -1       717 1.96600E+01-4.80634E+00 6.58255E-02-5.50058E+00 7.37431E-13-7.71813E-14
 -1       718 2.75959E+01 6.11431E+00-1.56279E-01 1.20372E-01-1.00145E-12-3.76424E-13
 -1       719 2.00031E+01-2.93074E-03 1.14082E-06 2.27101E-03 3.25225E-14 1.74507E-13
 -1       720 2.00026E+01-2.80254E-03 5.69456E-07 3.63166E-03 5.64810E-14-1.09903E-13
 -1       721 2.00017E+01-2.55907E-03 5.95881E-07 4.71516E-03 5.63655E-15-1.93194E-13
 -1       722 1.40277E+01-2.92574E+00 1.17442E-01-5.80779E+00 4.82923E-13 3.41428E-14
 -1       723 2.83273E+01 5.81595E-01-1.02591E-01-2.14036E+00-6.56794E-13 3.38542E-13
 -1       724 8.36314E+00 1.39612E-02 1.48885E-01 1.49524E+00 1.55947E-13-1.17315E-12
 -1       725 7.09734E+00-2.13443E-01 1.66381E-01-1.93972E-01 4.66437E-14 5.71779E-13
 -1       726 2.53443E+01-4.98770E+00 1.02110E-02-2.87362E+00-3.10276E-13 5.24147E-14
 -1       727 2.36940E+01-5.00322E+00 1.56876E-02 3.65489E+00 4.43080E-13-3.83712E-14
 -1       728 2.10178E+01 4.44904E-01 4.98462E-04-1.07281E+00 2.49010E-13-7.73760E-14
 -1       729 1.95317E+01-4.84144E+00 6.48021E-02-5.79285E+00-5.34475E-13-5.69007E-13
 -1       730 1.99996E+01-2.12278E-03-4.08569E-06 5.37336E-03 1.24159E-13 1.17849E-13
 -1       731 2.77592E+01 4.38521E+00-1.45443E-01-1.93272E+00-1.02293E-12 1.32328E-13
 -1       732 9.75386E+00-1.03349E+00 1.50022E-01 4.04172E+00-2.65146E-13 5.11771E-13
 -1       733 1.90409E+01 2.95185E+00-1.23606E-03-8.90739E-02 3.80800E-13-6.16073E-13
 -1       734 1.90210E+01 2.96978E+00-1.16735E-03 9.08617E-02-1.32458E-13-7.52567E-13
 -1       735 2.68317E+01 5.45845E+00-1.68599E-01-9.70320E-01 1.07139E-12-3.35496E-13
 -1       736 2.75128E+01-3.30903E+00-3.97204E-02-1.42782E-02-1.04149E-13 3.32370E-13
 -1       737 2.77475E+01-2.97491E+00-7.01738E-02 3.02473E-01 6.60834E-14 4.09651E-13
 -1       738 1.78499E+01-3.93218E+00 8.31592E-02 5.81665E+00 6.47479E-13-4.50794E-13
 -1       739 1.14505E+01-1.61640E+00 1.27263E-01 4.94883E+00 4.48707E-13-9.21471E-13
 -1       740 2.79326E+01 1.68266E+00-1.05550E-01 2.56014E+00-4.70377E-13-9.44050E-13
 -1       741 2.09291E+01 8.04984E-01 1.30757E-03-6.77259E-01 3.50601E-13-1.22423E-13
 -1       742 2.05619E+01 1.87621E+00 2.49978E-04-1.69962E-01-4.15754E-13-5.26956E-13
 -1       743 2.70951E+01 3.33590E+00-1.36034E-01-2.35131E+00 8.71345E-13-6.94018E-13
 -1       744 2.76144E+01-2.39402E+00-5.12087E-02 1.06147E+00 4.08094E-15-9.88959E-13
 -1       745 2.80038E+01 8.98594E-01-1.17109E-01 2.31488E+00 5.13329E-13 5.39756E-13
 -1       746 1.32677E+01-2.74191E+00 1.25260E-01-5.92021E+00-5.13981E-13-1.10749E-12
 -1       747 8.39681E+00-4.20315E-01 1.51884E-01-2.65210E+00-1.95786E-13-1.31520E-12
 -1       748 2.21063E+01-5.08463E+00 2.93248E-02 4.53475E+00-6.40956E-13-1.56630E-13
 -1       749 1.96174E+01 2.55462E+00-1.60922E-04 3.58143E-02-2.65829E-13-7.16095E-13
 -1       750 1.83495E+01 3.40479E+00-9.09475E-04 3.47479E-02 8.88318E-14-7.49647E-13
 -1       751 1.94702E+01-3.94377E+00 5.76586E-02 4.90730E+00-5.36675E-13-1.68249E-13
 -1       752 2.48160E+01-4.67647E+00-3.95472E-02 2.23687E+00-5.15329E-13-1.92733E-13
 -1       753 2.00007E+01-2.45107E-03 4.06108E-07-5.18931E-03-1.26413E-13-1.93801E-13
 -1       754 1.85820E+01 3.25738E+00-1.01218E-03 8.71106E-02-3.79806E-14-7.50123E-13
 -1       755 2.69488E+01 9.93336E-01-7.63450E-02-2.59627E+00 6.01300E-13-7.53139E-13
 -1       756 2.00018E+01-2.69728E-03 7.34179E-07-4.55066E-03 9.88055E-14 1.96023E-13
 -1       757 2.76788E+01-2.81332E+00-3.20232E-02-8.06485E-01-1.91894E-14-6.66661E-13
 -1       758 2.00009E+01-1.93692E-03-4.26337E-07 5.34446E-03-7.84806E-14-1.83598E-13
 -1       759 2.00189E+01 1.73591E+00 7.59631E-04-4.55489E-01 3.71028E-13-4.15521E-13
 -1       760 2.00869E+01 2.23764E+00-7.27680E-06-6.11334E-02-3.48268E-13-6.37376E-13
 -1       761 2.30411E+01-2.46427E+00 3.53869E-03-1.38992E+00-2.36121E-13 7.72808E-14
 -1       762 2.18574E+01-1.56573E+00-7.31063E-04-1.79111E+00-1.74603E-13-3.29431E-14
 -1       763 2.00737E+01 1.08693E+00 4.36010E-04 1.06020E+00-1.41100E-13-4.88133E-13
 -1       764 2.01218E+01 5.77767E-01-3.97869E-05 1.48863E+00-6.71873E-14-4.15555E-13
 -1       765 2.03024E+01-2.73681E-02 8.47855E-05 1.84912E+00 2.53247E-15-3.36036E-13
 -1       766 2.07318E+01-8.11888E-01 7.95192E-04 2.11012E+00 9.19404E-14-2.70829E-13
 -1       767 2.15616E+01-1.82132E+00-3.71729E-03 2.20689E+00 2.04665E-13-1.50404E-13
 -1       768 2.30132E+01-2.93241E+00 1.36808E-02 1.93440E+00 2.95103E-13-4.37057E-14
 -1       769 2.56041E+01-3.46209E+00-4.07122E-03-2.09661E-01 1.26446E-13-6.30668E-13
 -1       770 2.35161E+01-3.22116E+00 4.94067E-03-1.45849E+00 4.07124E-13-2.95892E-13
 -1       771 2.18863E+01-2.23969E+00 3.13870E-03-1.98646E+00 4.58282E-13-1.38981E-13
 -1       772 2.08410E+01-1.24996E+00 4.35689E-04-2.05386E+00 2.55104E-13-2.43875E-13
 -1       773 2.02469E+01-4.87200E-01-2.73999E-05-1.91508E+00 2.26934E-13-2.36112E-13
 -1       774 1.99533E+01 1.69812E-02 9.33666E-05-1.70277E+00-8.60529E-14-1.34993E-13
 -1       775 1.98350E+01 3.12699E-01 1.45042E-04-1.47479E+00-6.96898E-14-5.58129E-14
 -1       776 1.98095E+01 4.60108E-01 1.10132E-04-1.25424E+00-7.29883E-14 2.82927E-15
 -1       777 1.98279E+01 5.10143E-01 8.62571E-05-1.04974E+00-3.72570E-14 1.18961E-13
 -1       778 1.98626E+01 5.00784E-01 6.81748E-05-8.64995E-01 8.18376E-14 5.98078E-14
 -1       779 1.98995E+01 4.58489E-01 5.29142E-05-7.01677E-01 1.14109E-13-2.49543E-13
 -1       780 1.99322E+01 4.00757E-01 4.09254E-05-5.60211E-01 2.23994E-13-4.33709E-13
 -1       781 1.99583E+01 3.38580E-01 3.16194E-05-4.40063E-01 7.56291E-14-4.21712E-13
 -1       782 1.99778E+01 2.78444E-01 2.42805E-05-3.39940E-01-1.95221E-14-4.21188E-13
 -1       783 1.99915E+01 2.23834E-01 1.84495E-05-2.58021E-01-5.72706E-14-5.01848E-13
 -1       784 2.00005E+01 1.76308E-01 1.38294E-05-1.92175E-01-8.42342E-14-5.41872E-13
 -1       785 2.00061E+01 1.36243E-01 1.02004E-05-1.40161E-01-6.29845E-14-4.19944E-13
 -1       786 2.00090E+01 1.03321E-01 7.38335E-06-9.97777E-02-2.60041E-13-2.37238E-13
 -1       787 2.00102E+01 7.68597E-02 5.22673E-06-6.89686E-02-3.34766E-13 1.10501E-13
 -1       788 2.00103E+01 5.60114E-02 3.60201E-06-4.58880E-02-8.68730E-14 8.10590E-14
 -1       789 2.00096E+01 3.98937E-02 2.40030E-06-2.89311E-02 4.61470E-14-8.23121E-14
 -1       790 2.00085E+01 2.76617E-02 1.52934E-06-1.67402E-02-2.45538E-13-1.99728E-13
 -1       791 2.00073E+01 1.85474E-02 9.08012E-07-8.19435E-03-2.50450E-14-1.57941E-13
 -1       792 2.00060E+01 1.18748E-02 4.42304E-07-2.38901E-03 2.06246E-13 9.91299E-14
 -1       793 2.00047E+01 7.06214E-03 7.52253E-08 1.38829E-03 3.08685E-13 2.41866E-13
 -1       794 2.00036E+01 3.61534E-03-1.09387E-07 3.68424E-03 3.47796E-13 1.96503E-13
 -1       795 2.00025E+01 1.11710E-03 1.09404E-06 4.89851E-03 1.63399E-13-2.11788E-14
 -1       796 2.00016E+01-5.81340E-04-1.42830E-06 5.36323E-03-4.31717E-14 3.56390E-14
 -1       797 2.10946E+01-7.08334E-01-3.83916E-04-1.83350E+00-1.98291E-14-1.24068E-13
 -1       798 2.45730E+01-3.00536E+00-2.66025E-03-4.33630E-01-1.66269E-13 3.33875E-13
 -1       799 2.58439E+01-2.73542E+00-3.81320E-03-9.24220E-01-2.08707E-13-5.93087E-13
 -1       800 2.41982E+01-2.91166E+00-1.62589E-03 4.92608E-01-2.13952E-13-3.36142E-13
 -1       801 2.26679E+01-2.26655E+00 4.48234E-04 1.32214E+00-1.66832E-13-2.52837E-13
 -1       802 2.15605E+01-1.41293E+00 9.22797E-04 1.67689E+00-2.32269E-13-1.57486E-13
 -1       803 2.08483E+01-6.75176E-01-2.16785E-04 1.73069E+00-1.89337E-13-1.71764E-14
 -1       804 2.04359E+01-1.51441E-01 2.92798E-05 1.63209E+00-1.25850E-14-5.67319E-14
 -1       805 2.02152E+01 1.74214E-01 1.06013E-04 1.46766E+00-5.93566E-15 1.34259E-13
 -1       806 2.01069E+01 3.49953E-01 9.69875E-05 1.27857E+00-1.66257E-13 2.31808E-13
 -1       807 2.00595E+01 4.23095E-01 1.02099E-04 1.08691E+00-1.49552E-13 4.91839E-13
 -1       808 2.00420E+01 4.31907E-01 9.69027E-05 9.04896E-01-2.31828E-14 3.83298E-13
 -1       809 2.00372E+01 4.03942E-01 8.46014E-05 7.39131E-01-7.11437E-14 1.77139E-13
 -1       810 2.00368E+01 3.57626E-01 7.23328E-05 5.92894E-01-4.74194E-14 9.43354E-14
 -1       811 2.00366E+01 3.04633E-01 5.98017E-05 4.67268E-01-2.83386E-14 1.84286E-13
 -1       812 2.00355E+01 2.51927E-01 4.82230E-05 3.61820E-01 1.00182E-13 3.31623E-13
 -1       813 2.00332E+01 2.03328E-01 3.80809E-05 2.75138E-01-1.21404E-13 2.01706E-13
 -1       814 2.00300E+01 1.60645E-01 2.94978E-05 2.05246E-01-8.10537E-14 4.80393E-14
 -1       815 2.00263E+01 1.24447E-01 2.24225E-05 1.49915E-01 9.43554E-14-1.24374E-13
 -1       816 2.00224E+01 9.45799E-02 1.67186E-05 1.06887E-01 2.44835E-13-2.00954E-14
 -1       817 2.00187E+01 7.04995E-02 1.22122E-05 7.40182E-02 2.73976E-13-1.66442E-13
 -1       818 2.00152E+01 5.14806E-02 8.71982E-06 4.93682E-02 1.11919E-13-1.40271E-13
 -1       819 2.00121E+01 3.67468E-02 6.06369E-06 3.12398E-02 4.34870E-14 1.81214E-13
 -1       820 2.00095E+01 2.55451E-02 4.07970E-06 1.81928E-02 9.63153E-14 4.22860E-13
 -1       821 2.00072E+01 1.71858E-02 2.62685E-06 9.03521E-03-1.71302E-14 3.49570E-13
 -1       822 2.00054E+01 1.10599E-02 1.57071E-06 2.80340E-03-2.61245E-13 5.30155E-13
 -1       823 2.00039E+01 6.64196E-03 7.92231E-07-1.26327E-03-6.47278E-14 4.52497E-13
 -1       824 2.00027E+01 3.48367E-03 3.29530E-07-3.75070E-03 3.06717E-13 3.81375E-13
 -1       825 2.00017E+01 1.20696E-03-6.69991E-07-5.08505E-03 1.07480E-13 3.50904E-13
 -1       826 2.00010E+01-4.96524E-04 7.24388E-07-5.58237E-03 4.17330E-15 1.95606E-13
 -1       827 2.00009E+01-1.45460E-03-1.78812E-06-5.48695E-03-1.47150E-13 1.61192E-13
 -1       828 2.24519E+01-4.27932E+00 2.15450E-02-3.44576E+00 6.08719E-13-1.34302E-14
 -1       829 2.00048E+01-4.61723E-04 3.60286E-07 1.18032E-05-9.75873E-15-2.17166E-13
 -1       830 1.85239E+01-3.29106E+00 4.48027E-02-4.77262E+00 5.80576E-13-1.07608E-13
 -1       831 2.00032E+01-8.54883E-04 1.89419E-06 4.24897E-03-1.49017E-13-1.00430E-13
 -1       832 2.10855E+01-3.70871E+00 1.84713E-02 4.07507E+00 4.95929E-13-2.30686E-13
 -1       833 2.52862E+01-3.82568E+00 2.73165E-03 1.03810E+00 2.10921E-13 1.34520E-13
 -1       834 1.11150E+01 7.76641E-01 8.06561E-02-7.67526E-01-1.82853E-14-1.05576E-12
 -1       835 2.04604E+01 5.23322E-01 1.06062E-04-1.35791E+00 1.67221E-13-2.32608E-13
 -1       836 1.59104E+01-1.77262E+00 5.18774E-02 4.70534E+00 4.60100E-13-5.36231E-13
 -1       837 2.00041E+01-6.74866E-04-5.58608E-07 2.95362E-03-1.62188E-13-2.52069E-13
 -1       838 2.06647E+01-1.86560E-02-1.82375E-04-1.66363E+00 1.05120E-13-1.89296E-13
 -1       839 1.24434E+01-8.75257E-01 9.55395E-02-3.99208E+00 3.06415E-13 2.25493E-13
 -1       840 1.19910E+01 6.34793E-02 7.46215E-02 2.93496E+00 2.92150E-13-8.10470E-13
 -1       841 1.02517E+01 3.60908E-01 9.12691E-02 1.47861E+00 8.37871E-16 5.10553E-13
 -1       842 2.00666E+01 1.58847E+00-8.64680E-05 5.69830E-01-2.21413E-13-5.59089E-13
 -1       843 2.67307E+01-2.15961E+00-2.00641E-02-1.14303E+00-1.53896E-13 2.98908E-13
 -1       844 1.40745E+01-1.63196E+00 7.48573E-02 4.68104E+00-3.33591E-13 1.49152E-14
 -1       845 2.56476E+01-3.75817E+00-8.54949E-03-7.82889E-01-1.52535E-13 2.21800E-13
 -1       846 9.90097E+00 2.86110E-01 9.90236E-02-1.54160E+00 1.39110E-13 4.93293E-13
 -1       847 2.04945E+01 1.24491E+00-3.44129E-04-5.74326E-01 3.69572E-13-2.49473E-13
 -1       848 2.59390E+01-2.34996E+00-2.13508E-02 1.03028E+00 9.80093E-14 4.74519E-13
 -1       849 2.25700E+01-4.22499E+00 2.38416E-02-3.56833E+00-4.55525E-13-1.70408E-13
 -1       850 1.29675E+01-6.06578E-01 7.59295E-02-3.92600E+00-3.00546E-13-1.04380E-12
 -1       851 1.83395E+01 2.86977E+00-2.73338E-04-2.15682E-01 2.10800E-13-6.72143E-13
 -1       852 2.00046E+01-5.23542E-04 1.55050E-07 1.51633E-03 5.92349E-14 2.53188E-13
 -1       853 1.76454E+01-3.04938E+00 5.65841E-02-5.21424E+00-5.40800E-13-6.15260E-13
 -1       854 1.81940E+01 2.96322E+00-2.78056E-04-4.29851E-03 1.19006E-13-6.66921E-13
 -1       855 2.26108E+01-4.37641E+00 1.74087E-02 3.38249E+00-4.39693E-13 1.01448E-14
 -1       856 1.93077E+01 2.24013E+00-6.96115E-04 4.51294E-01-1.53822E-13-6.26989E-13
 -1       857 2.04597E+01 8.89885E-01 1.24152E-04-1.00018E+00 2.39004E-13-2.48485E-13
 -1       858 2.00041E+01-6.81166E-04-2.24546E-08-2.95522E-03-1.88240E-13-2.40817E-13
 -1       859 2.00046E+01-5.18582E-04 6.30742E-07-1.50295E-03-1.87180E-13-4.59656E-13
 -1       860 1.62896E+01-1.62803E+00 3.26471E-02-4.23012E+00 4.08336E-13-2.10426E-13
 -1       861 1.30142E+01-1.09680E-01 5.31357E-02 2.99198E+00-1.60179E-13 9.34825E-14
 -1       862 1.93334E+01 2.21965E+00-1.02029E-04-4.50912E-01 3.06051E-13-5.24711E-13
 -1       863 1.74767E+01-2.35673E+00 4.15038E-02 4.44930E+00-3.97452E-13-2.27299E-13
 -1       864 2.00033E+01-9.32628E-04-1.71574E-06-4.06002E-03 1.03677E-13 2.90888E-13
 -1       865 1.87424E+01 2.61061E+00-3.08374E-04-3.73335E-01 2.68571E-13-6.02958E-13
 -1       866 1.87228E+01 2.62660E+00-5.57649E-04 3.69970E-01-6.06046E-14-6.76107E-13
 -1       867 2.00025E+01-6.69628E-04 5.28363E-06 4.85405E-03-3.04388E-14-4.25317E-14
 -1       868 2.11737E+01-2.17099E+00 3.80302E-03-2.73093E+00-3.05710E-13-1.81782E-13
 -1       869 1.52714E+01-1.05280E-01 2.07111E-02 3.18714E+00 3.10265E-13-5.93001E-13
 -1       870 1.92434E+01 6.68876E-01 3.55503E-04 1.74742E+00 2.48346E-14-4.55183E-13
 -1       871 1.92814E+01-4.09967E-02-1.06123E-03 2.26827E+00 1.06016E-13-4.32580E-13
 -1       872 1.96594E+01-1.02526E+00 1.00294E-02 2.80948E+00 2.03727E-13-3.67650E-13
 -1       873 2.08819E+01-2.91118E+00 2.17229E-02-3.29303E+00 4.38810E-13 4.68887E-14
 -1       874 1.96934E+01-1.55722E+00 2.96187E-03-2.88985E+00 2.46938E-13-2.33428E-13
 -1       875 1.91479E+01-5.70149E-01-1.07509E-03-2.39954E+00 2.33209E-13-2.22284E-13
 -1       876 1.89904E+01 6.36693E-02 7.91691E-05-1.96406E+00 1.80324E-13-3.09431E-13
 -1       877 1.90281E+01 4.27847E-01 3.18156E-04-1.60546E+00 4.26277E-14-1.04345E-13
 -1       878 1.91456E+01 6.12342E-01 1.32225E-04-1.31589E+00 3.32739E-14-7.82482E-14
 -1       879 1.92900E+01 6.78596E-01 7.17841E-05-1.07836E+00 6.42549E-14-4.63378E-14
 -1       880 1.94332E+01 6.71116E-01 4.45515E-05-8.80017E-01-8.30101E-14 5.82804E-14
 -1       881 1.95618E+01 6.20940E-01 2.51858E-05-7.12562E-01-2.07041E-13-2.05098E-14
 -1       882 1.96708E+01 5.49160E-01 1.38941E-05-5.70907E-01 4.98600E-14-1.80083E-13
 -1       883 1.97594E+01 4.69632E-01 8.17303E-06-4.51690E-01 1.89927E-13-3.70597E-13
 -1       884 1.98292E+01 3.90972E-01 5.07613E-06-3.52343E-01-5.77799E-15-3.29838E-13
 -1       885 1.98828E+01 3.18151E-01 3.20709E-06-2.70612E-01-9.14025E-14-3.41830E-13
 -1       886 1.99228E+01 2.53684E-01 1.99788E-06-2.04344E-01-1.34856E-13-3.64011E-13
 -1       887 1.99519E+01 1.98485E-01 1.19653E-06-1.51437E-01 6.63137E-14-3.11698E-13
 -1       888 1.99726E+01 1.52470E-01 6.65751E-07-1.09867E-01 1.83331E-14 3.31722E-14
 -1       889 1.99868E+01 1.14976E-01 3.18944E-07-7.77378E-02-1.61461E-13-1.39754E-14
 -1       890 1.99962E+01 8.50430E-02 9.85067E-08-5.33274E-02-1.86240E-13 2.25594E-13
 -1       891 2.00020E+01 6.15977E-02-3.41123E-08-3.51142E-02-2.48080E-13 6.93110E-14
 -1       892 2.00053E+01 4.35688E-02-1.05413E-07-2.17901E-02-1.13007E-13-3.12666E-13
 -1       893 2.00068E+01 2.99539E-02-1.37898E-07-1.22568E-02-1.14093E-13-1.76422E-13
 -1       894 2.00072E+01 1.98539E-02-1.58528E-07-5.61331E-03 2.87968E-13 9.60467E-14
 -1       895 2.00068E+01 1.24835E-02-2.23808E-07-1.13613E-03 3.42775E-13 1.21526E-13
 -1       896 2.00059E+01 7.16881E-03-1.32344E-07 1.73761E-03 2.49106E-13 2.20733E-13
 -1       897 2.00048E+01 3.31555E-03-5.99798E-06 3.44026E-03 1.64448E-13 1.03908E-13
 -1       898 2.00048E+01 1.63317E-03 7.03882E-06 3.29992E-03-1.05249E-13-2.21180E-13
 -1       899 1.99371E+01-9.03657E-01-2.24314E-04 2.30407E+00-2.74304E-13-1.16870E-14
 -1       900 1.95716E+01-2.03445E-01 8.37129E-04 1.97989E+00-1.16121E-13-6.49618E-14
 -1       901 1.94463E+01 2.31083E-01 4.68969E-04 1.67583E+00-9.17921E-14 8.36962E-14
 -1       902 1.94507E+01 4.70958E-01 1.14604E-04 1.40485E+00-2.64642E-13-1.31053E-14
 -1       903 1.95164E+01 5.76524E-01 5.89850E-05 1.16839E+00-2.92225E-13-1.87389E-15
 -1       904 1.96031E+01 5.96345E-01 3.74571E-05 9.63242E-01-9.47818E-15 7.34768E-14
 -1       905 1.96900E+01 5.65502E-01 1.73396E-05 7.85518E-01-2.15429E-14 2.12158E-13
 -1       906 1.97675E+01 5.07650E-01 1.15869E-05 6.32523E-01 6.18586E-14 2.77836E-13
 -1       907 1.98319E+01 4.38350E-01 7.69123E-06 5.02271E-01-5.60345E-15 4.09851E-13
 -1       908 1.98831E+01 3.67357E-01 5.19129E-06 3.92901E-01-2.91568E-14 2.87385E-13
 -1       909 1.99222E+01 3.00377E-01 3.60419E-06 3.02460E-01-5.05685E-14 3.62817E-13
 -1       910 1.99512E+01 2.40402E-01 2.55619E-06 2.28864E-01 6.91564E-14 2.37554E-13
 -1       911 1.99719E+01 1.88666E-01 1.83218E-06 1.69947E-01 1.61359E-13-8.86315E-15
 -1       912 1.99863E+01 1.45314E-01 1.31526E-06 1.23557E-01 1.97174E-13-2.26864E-13
 -1       913 1.99959E+01 1.09853E-01 9.39321E-07 8.76373E-02 4.28215E-13-1.24014E-14
 -1       914 2.00019E+01 8.14541E-02 6.64188E-07 6.03020E-02 3.95130E-14 1.51106E-13
 -1       915 2.00054E+01 5.91515E-02 4.63608E-07 3.98738E-02-3.21910E-15 3.22041E-13
 -1       916 2.00070E+01 4.19607E-02 3.17903E-07 2.49039E-02 8.95041E-15 6.21839E-14
 -1       917 2.00075E+01 2.89512E-02 2.03392E-07 1.41727E-02-2.17704E-13 1.84645E-13
 -1       918 2.00072E+01 1.92825E-02 1.16014E-07 6.67664E-03-1.32734E-13 3.93872E-13
 -1       919 2.00064E+01 1.22176E-02 1.04417E-07 1.60918E-03-9.88730E-14 2.09069E-13
 -1       920 2.00054E+01 7.12693E-03 4.22294E-07-1.66146E-03 1.78904E-13 1.25650E-13
 -1       921 2.00043E+01 3.45756E-03-5.70352E-06-3.62725E-03 2.97119E-13 1.89749E-14
 -1       922 2.00032E+01 8.31312E-04 4.96896E-06-4.64793E-03 9.18860E-14 8.22724E-14
 -1       923 1.97023E+01 5.91541E-01 1.16765E-04-1.64212E+00 7.61840E-14-3.74273E-13
 -1       924 1.98385E+01-8.43576E-02 2.35036E-04-2.07528E+00-2.60721E-14-2.98469E-13
 -1       925 2.01343E+01-2.73956E+00 1.62351E-02-3.81764E+00-4.25584E-13-3.19758E-13
 -1       926 1.90769E+01-1.86437E+00 1.35834E-02 3.72735E+00 3.46970E-13-3.89717E-13
 -1       927 1.83310E+01 2.87799E+00-2.15687E-04 2.08449E-01 4.38719E-14-6.66296E-13
 -1       928 1.39260E+01 6.17854E-01 2.60816E-02-2.18683E+00-1.75619E-13-8.78062E-13
 -1       929 2.07892E+01-1.95106E+00-3.72860E-03 2.55266E+00-2.52370E-13-4.27364E-14
 -1       930 2.13898E+01-3.03873E+00 1.95677E-03 3.01561E+00-3.02476E-13-1.30228E-13
 -1       931 1.64491E+01-9.96106E-01 2.94932E-02-3.88605E+00-3.75155E-13-6.38690E-13
 -1       932 1.93161E+01 1.23228E+00-4.36015E-04 1.26543E+00-6.39396E-14-5.09693E-13
 -1       933 1.33129E+01 1.02854E+00 2.54930E-02 1.04999E+00 1.43384E-13-7.36703E-13
 -1       934 2.30443E+01-3.32165E+00 1.21344E-02-2.24710E+00-3.57395E-13-1.59226E-14
 -1       935 2.02609E+01-9.88825E-01-1.59963E-04-2.47084E+00-1.78780E-13-2.24602E-13
 -1       936 2.00022E+01-1.27110E-03 3.40445E-07-4.90360E-03 7.42356E-14 5.41293E-14
 -1       937 1.95143E+01 1.55356E+00 6.04934E-04 9.15542E-01-1.02731E-13-5.38180E-13
 -1       938 1.97813E+01 1.03365E+00 4.35028E-04-1.24895E+00 1.64186E-13-4.11704E-13
 -1       939 1.96986E+01-2.84393E+00 3.17876E-02 3.82664E+00-3.81456E-13 1.81656E-13
 -1       940 2.00060E+01 2.46155E-03 6.57521E-08-6.56240E-04-8.13280E-14-7.54537E-14
 -1       941 2.00036E+01 1.05625E-03-1.25259E-06 4.34665E-03-1.30407E-13-2.06420E-15
 -1       942 1.87804E+01 1.99047E+00 2.63651E-04 7.86456E-01-5.44926E-14-5.85159E-13
 -1       943 2.00057E+01 2.14022E-03-3.06121E-07 2.01515E-03-1.48791E-14-2.58339E-13
 -1       944 2.00057E+01 2.15549E-03-2.44356E-07-1.98557E-03-1.39854E-13-4.69430E-13
 -1       945 1.41221E+01-5.27145E-02 3.52880E-02-2.96218E+00 3.34067E-13-5.51122E-14
 -1       946 1.53860E+01-8.12684E-01 2.46793E-03 3.61964E+00-2.40971E-13-2.05285E-13
 -1       947 1.96474E+01 1.51654E+00 1.23890E-04-8.83089E-01 2.09402E-13-4.62569E-13
 -1       948 2.00060E+01 2.46620E-03-4.73062E-07 6.65338E-04 2.94503E-13 5.05281E-14
 -1       949 1.79715E+01 2.53488E+00 1.73782E-04-2.02812E-01 1.29059E-13-6.07662E-13
 -1       950 1.45598E+01 1.30910E+00 8.77214E-03-5.12643E-01 2.07335E-14-7.23815E-13
 -1       951 1.26049E+01 7.69556E-01 4.00285E-02 1.08387E+00-1.02273E-15 3.11771E-13
 -1       952 1.22991E+01 7.60996E-01 4.30611E-02-1.05227E+00 1.64357E-13 4.34593E-13
 -1       953 2.00050E+01 1.57200E-03 4.49916E-07-3.15938E-03-2.09535E-13-1.89876E-13
 -1       954 1.83141E+01 2.32555E+00-6.30527E-04-5.49330E-01 1.67707E-13-6.09625E-13
 -1       955 1.77252E+01 1.30135E-01 3.10538E-03 2.58204E+00 1.93070E-13-5.02159E-13
 -1       956 1.54453E+01 9.35043E-01 2.20882E-03 1.79871E+00 1.58215E-13-5.67403E-13
 -1       957 1.85779E+01-2.78574E-02 2.72794E-03-2.47869E+00-1.38865E-13-4.53404E-13
 -1       958 1.86504E+01 6.33270E-01-1.77922E-04 1.44016E+00-1.92807E-13 4.85225E-14
 -1       959 1.77134E+01 2.41117E-01-1.44261E-03-2.10727E+00 1.31633E-13-1.05434E-13
 -1       960 1.80239E+01 6.14043E-01 5.25517E-05-1.61273E+00 1.31096E-13-1.04198E-13
 -1       961 1.83678E+01 7.97117E-01 1.74405E-04-1.25913E+00 5.36943E-15-1.90098E-13
 -1       962 1.86813E+01 8.59756E-01 4.72774E-05-1.00064E+00 3.96795E-14-1.55789E-13
 -1       963 1.89552E+01 8.45603E-01 2.96253E-05-8.02362E-01 8.78720E-14-1.67517E-13
 -1       964 1.91872E+01 7.85077E-01 3.17859E-07-6.44493E-01-1.27384E-13-2.23321E-13
 -1       965 1.93792E+01 6.99506E-01-1.11799E-05-5.15739E-01-1.81720E-13-1.88093E-13
 -1       966 1.95346E+01 6.03840E-01-1.25956E-05-4.09486E-01-1.96883E-14-1.94856E-13
 -1       967 1.96581E+01 5.07896E-01-1.09739E-05-3.21586E-01 7.48277E-14-3.81419E-13
 -1       968 1.97545E+01 4.17734E-01-8.96657E-06-2.49239E-01-2.35291E-14-2.64796E-13
 -1       969 1.98283E+01 3.36733E-01-7.20414E-06-1.90280E-01-1.27260E-14-1.82387E-13
 -1       970 1.98838E+01 2.66397E-01-5.72985E-06-1.42834E-01 2.91997E-15 3.43846E-14
 -1       971 1.99246E+01 2.06982E-01-4.50117E-06-1.05194E-01-2.50263E-15-2.51151E-13
 -1       972 1.99541E+01 1.57955E-01-3.48365E-06-7.57858E-02 1.21802E-15-3.06707E-13
 -1       973 1.99747E+01 1.18335E-01-2.65180E-06-5.31764E-02-9.23495E-14 1.88496E-13
 -1       974 1.99886E+01 8.69298E-02-1.98140E-06-3.60879E-02-3.74021E-13 8.52402E-14
 -1       975 1.99977E+01 6.24905E-02-1.44578E-06-2.34066E-02-2.84761E-13 1.84651E-13
 -1       976 2.00031E+01 4.38115E-02-1.01781E-06-1.41839E-02-3.32704E-14 2.11552E-13
 -1       977 2.00060E+01 2.97864E-02-6.67386E-07-7.63058E-03 2.76966E-13 1.92768E-13
 -1       978 2.00072E+01 1.94362E-02-4.62038E-07-3.10357E-03 2.70034E-13 1.15843E-13
 -1       979 2.00072E+01 1.19096E-02-1.12499E-08-8.31620E-05 3.39380E-13 2.27132E-14
 -1       980 2.00065E+01 6.47088E-03-7.40470E-07 1.83765E-03 1.63391E-13-4.95137E-14
 -1       981 1.84420E+01 3.61934E-01-4.39012E-04 1.82286E+00-2.04220E-13-5.35183E-14
 -1       982 2.00069E+01 5.96177E-03-1.58820E-06-9.47627E-04 2.81969E-14-5.66407E-14
 -1       983 1.64871E+01 2.68211E-01 7.68960E-03-2.62882E+00-1.91680E-13-6.67305E-13
 -1       984 1.83140E+01-1.35471E-01-3.51352E-04 2.33854E+00-1.64604E-13-1.44404E-13
 -1       985 1.88792E+01 7.50152E-01 1.42087E-05 1.15641E+00-2.33503E-13-6.43491E-15
 -1       986 1.90967E+01 7.71106E-01-3.20477E-05 9.34587E-01-1.98506E-13-6.90121E-14
 -1       987 1.92900E+01 7.34231E-01-6.51735E-05 7.55148E-01-1.38658E-13-9.29038E-14
 -1       988 1.94547E+01 6.64551E-01-5.03143E-05 6.06856E-01-2.11964E-14 2.23355E-14
 -1       989 1.95904E+01 5.79626E-01-3.98905E-05 4.83378E-01-3.61385E-14-2.81393E-15
 -1       990 1.96992E+01 4.91060E-01-3.15500E-05 3.80618E-01-1.80389E-14 3.18999E-14
 -1       991 1.97846E+01 4.06049E-01-2.45722E-05 2.95681E-01-1.73532E-15 7.02683E-14
 -1       992 1.98501E+01 3.28688E-01-1.88252E-05 2.26238E-01 1.05896E-13-1.43917E-13
 -1       993 1.98992E+01 2.60941E-01-1.41779E-05 1.70209E-01 2.05252E-13-2.36773E-13
 -1       994 1.99354E+01 2.03368E-01-1.04787E-05 1.25660E-01 1.62499E-13 1.39946E-14
 -1       995 1.99613E+01 1.55644E-01-7.57912E-06 9.07821E-02 7.11409E-14 4.09305E-14
 -1       996 1.99794E+01 1.16934E-01-5.34351E-06 6.39148E-02 1.43570E-13 5.15393E-13
 -1       997 1.99915E+01 8.61533E-02-3.64991E-06 4.35677E-02 1.24213E-13 5.56394E-14
 -1       998 1.99993E+01 6.21317E-02-2.39011E-06 2.84361E-02 8.04284E-14-3.21725E-13
 -1       999 2.00039E+01 4.37234E-02-1.46951E-06 1.74053E-02-2.23004E-13-1.70267E-13
 -1      1000 2.00063E+01 2.98675E-02-7.50930E-07 9.54593E-03-2.30700E-13-2.40994E-13
 -1      1001 2.00072E+01 1.96222E-02-6.43838E-07 4.09723E-03 1.13049E-13-3.34231E-13
 -1      1002 2.00070E+01 1.21508E-02-9.10270E-07 4.48918E-04 5.46120E-14-5.59772E-13
 -1      1003 2.00063E+01 6.76487E-03 2.61677E-06-1.90827E-03 7.00486E-14-5.26037E-13
 -1      1004 1.86713E+01 7.12734E-01 6.65839E-04-1.86456E+00-1.90934E-14-4.84586E-13
 -1      1005 1.83918E+01 1.39616E+00 2.06571E-04 1.33504E+00 6.72731E-15-5.21124E-13
 -1      1006 1.84129E+01-9.40582E-01 7.55798E-03 3.00964E+00-2.33983E-13-2.38607E-14
 -1      1007 1.45763E+01 4.02441E-01 2.31121E-02 2.32563E+00-1.86192E-13-1.79581E-13
 -1      1008 1.86412E+01-1.08141E+00 8.59853E-03-3.26283E+00-2.51551E-13-4.52412E-13
 -1      1009 1.89091E+01 1.96637E+00-7.41837E-04-7.82239E-01 2.05749E-13-5.38073E-13
 -1      1010 1.81978E+01 2.33840E+00 1.05146E-04 5.14965E-01 1.79341E-14-5.94463E-13
 -1      1011 1.79397E+01 2.52336E+00-4.06539E-04 1.66149E-01 6.50947E-14-5.94437E-13
 -1      1012 1.80671E+01 8.30040E-01-2.32763E-04 1.88196E+00 9.44572E-14-4.94029E-13
 -1      1013 1.69703E+01-4.81314E-01 9.73587E-03-3.01361E+00 2.82882E-13-7.85148E-14
 -1      1014 1.77334E+01 2.08607E+00-2.33017E-04-5.84435E-01 6.72612E-14-6.07766E-13
 -1      1015 1.89314E+01 1.17437E+00 7.85106E-04-1.42469E+00 6.25679E-14-5.16464E-13
 -1      1016 2.00064E+01 5.15524E-03 4.36928E-06-1.82288E-03-2.86361E-13-4.02744E-13
 -1      1017 1.56638E+01 1.51235E+00 2.04573E-03 5.35418E-01 9.72032E-14-6.02025E-13
 -1      1018 1.60859E+01 1.19387E+00-5.26839E-03-1.44343E+00-6.16870E-14-6.62377E-13
 -1      1019 2.00071E+01 6.23017E-03 2.29091E-06 1.89298E-05 4.87208E-14 1.81825E-13
 -1      1020 1.44506E+01 1.00207E+00 1.42269E-02 7.47448E-01-4.86275E-14 4.82831E-14
 -1      1021 1.89129E+01 1.57339E+00-1.06334E-04-1.09309E+00 1.26744E-13-5.52661E-13
 -1      1022 1.74830E+01-1.46686E+00 3.81128E-02 3.73407E+00-1.82993E-13-1.07797E-13
 -1      1023 1.42468E+01 1.02646E+00 1.66957E-02-7.19470E-01 1.13457E-13 7.13899E-14
 -1      1024 1.74713E+01 2.20300E+00 1.40488E-04-5.96549E-02 5.53494E-14-5.69876E-13
 -1      1025 1.51171E+01 4.45912E-01 1.24081E-02-2.15418E+00 3.05093E-13-5.17490E-14
 -1      1026 1.75104E+01 1.00266E+00-1.76657E-04-1.01375E+00 2.10352E-14-1.72398E-13
 -1      1027 1.80382E+01 1.04212E+00 5.21183E-05-7.76950E-01 5.85100E-14-2.26429E-13
 -1      1028 1.84644E+01 1.01008E+00-1.26026E-05-6.09849E-01 1.78015E-14-3.83480E-13
 -1      1029 1.88067E+01 9.37631E-01-1.29075E-04-4.83625E-01-1.56685E-15-4.36146E-13
 -1      1030 1.90839E+01 8.39193E-01-1.01325E-04-3.85184E-01-9.28431E-14-3.40790E-13
 -1      1031 1.93058E+01 7.29865E-01-8.93086E-05-3.06145E-01-2.02169E-13-3.39569E-13
 -1      1032 1.94820E+01 6.19390E-01-7.43282E-05-2.41526E-01-1.29480E-13-5.02400E-13
 -1      1033 1.96204E+01 5.14315E-01-6.10929E-05-1.88504E-01 1.53951E-13-4.78407E-13
 -1      1034 1.97277E+01 4.18672E-01-5.00289E-05-1.45191E-01 7.52796E-14-3.97543E-13
 -1      1035 1.98095E+01 3.34544E-01-4.06888E-05-1.10137E-01 9.98085E-14-3.99708E-13
 -1      1036 1.98709E+01 2.62592E-01-3.27345E-05-8.21092E-02 1.67051E-14-2.68668E-13
 -1      1037 1.99161E+01 2.02516E-01-2.59812E-05-6.00110E-02-9.14942E-16-8.77715E-14
 -1      1038 1.99486E+01 1.53416E-01-2.03128E-05-4.28497E-02 9.56676E-14-3.61896E-13
 -1      1039 1.99714E+01 1.14066E-01-1.56270E-05-2.97361E-02-1.62758E-13-3.37029E-13
 -1      1040 1.99868E+01 8.31109E-02-1.18132E-05-1.98874E-02-1.96619E-13 1.25707E-13
 -1      1041 1.99968E+01 5.91943E-02-8.74955E-06-1.26283E-02-1.49807E-13 2.43837E-13
 -1      1042 2.00029E+01 4.10406E-02-6.35462E-06-7.38905E-03 2.78419E-14 1.85764E-13
 -1      1043 2.00061E+01 2.74964E-02-4.31108E-06-3.69999E-03 1.41663E-13 1.71292E-13
 -1      1044 2.00074E+01 1.75680E-02 5.47758E-08-1.18991E-03 1.72782E-13 9.27261E-14
 -1      1045 2.00074E+01 1.03366E-02-7.12231E-06 4.92173E-04 8.67533E-14-3.22015E-13
 -1      1046 1.77191E+01 8.42781E-01-3.00148E-04 1.29708E+00-2.39775E-13-2.32804E-13
 -1      1047 1.67169E+01 1.25180E+00 6.53788E-03 1.47939E+00 9.79625E-14-5.34790E-13
 -1      1048 1.58248E+01 7.23580E-01 4.40619E-03 1.73218E+00-1.84732E-13-2.15270E-13
 -1      1049 1.82540E+01 1.86903E+00 7.20431E-04-9.13301E-01 1.05105E-13-5.68980E-13
 -1      1050 1.88641E+01 8.99597E-01-2.94702E-04 6.31601E-01-2.04742E-13-4.11681E-13
 -1      1051 1.91230E+01 8.17097E-01-1.98566E-04 5.04065E-01-1.35438E-13-3.83727E-13
 -1      1052 1.93331E+01 7.17712E-01-1.48221E-04 4.01212E-01-5.35418E-14-1.95595E-13
 -1      1053 1.95012E+01 6.13429E-01-1.16785E-04 3.17020E-01-1.48114E-13 1.03418E-13
 -1      1054 1.96338E+01 5.12149E-01-9.34279E-05 2.47852E-01 1.90505E-14 2.98446E-14
 -1      1055 1.97370E+01 4.18752E-01-7.47250E-05 1.91268E-01 1.53214E-13-2.18826E-13
 -1      1056 1.98159E+01 3.35870E-01-5.93320E-05 1.45401E-01 1.99244E-13-1.94197E-13
 -1      1057 1.98752E+01 2.64525E-01-4.65796E-05 1.08666E-01 9.99568E-14 4.66792E-15
 -1      1058 1.99188E+01 2.04657E-01-3.60637E-05 7.96507E-02-9.82028E-15 1.48040E-13
 -1      1059 1.99503E+01 1.55525E-01-2.74856E-05 5.70737E-02 8.64717E-14-1.45942E-14
 -1      1060 1.99724E+01 1.16008E-01-2.05856E-05 3.97853E-02 3.06333E-13 2.58841E-15
 -1      1061 1.99873E+01 8.48197E-02-1.51197E-05 2.67710E-02 1.51933E-13 1.14384E-13
 -1      1062 1.99970E+01 6.06494E-02-1.08547E-05 1.71536E-02 1.03448E-13-8.80521E-14
 -1      1063 2.00029E+01 4.22496E-02-7.70650E-06 1.01900E-02-1.10874E-13-4.74746E-13
 -1      1064 2.00060E+01 2.84794E-02-4.68110E-06 5.26692E-03-1.64865E-13-4.84765E-13
 -1      1065 2.00073E+01 1.84073E-02-2.13482E-06 1.90691E-03 2.15887E-13-2.12706E-13
 -1      1066 2.00074E+01 1.10201E-02 1.24428E-06-3.47818E-04 2.14123E-13-2.65249E-13
 -1      1067 1.73101E+01 9.44258E-01 3.95493E-03-1.86277E+00-8.10155E-14-6.15033E-13
 -1      1068 1.69488E+01 7.88462E-01 2.06188E-03 1.48486E+00-1.70953E-13-2.81629E-13
 -1      1069 1.75929E+01 2.09737E+00 3.83757E-04 5.09100E-01 4.76291E-14-5.74913E-13
 -1      1070 1.68673E+01 8.78935E-01 6.42758E-05-1.38849E+00 1.04628E-13-7.30432E-14
 -1      1071 1.85494E+01 9.47115E-01-3.97024E-04 7.92588E-01-2.43577E-13-4.03393E-13
 -1      1072 2.00069E+01 6.02590E-03 9.85581E-07 9.06807E-04-1.03731E-13-4.26091E-13
 -1      1073 1.81691E+01 9.38406E-01-1.02249E-03 1.00633E+00-1.34994E-13-1.94454E-13
 -1      1074 1.63740E+01 1.71274E+00 1.82874E-03-4.61573E-01 4.02173E-14-6.10978E-13
 -1      1075 1.75944E+01 1.56943E+00-2.44870E-03-1.17331E+00 3.99757E-14-5.65476E-13
 -1      1076 1.54287E+01 1.15874E+00-2.23736E-03-1.08110E-01-2.62637E-14 4.69896E-14
 -1      1077 1.59951E+01 1.06518E+00-2.51550E-03 8.59811E-01-1.61989E-13-2.80457E-13
 -1      1078 2.00076E+01 1.10874E-02-8.01658E-06-1.44239E-04 4.78602E-14 9.09536E-14
 -1      1079 1.73653E+01 1.55066E+00-8.83278E-04 1.15164E+00 6.03963E-14-5.47602E-13
 -1      1080 1.93053E+01 7.25924E-01 1.23074E-04 2.00205E-01-2.58758E-13-4.15486E-13
 -1      1081 1.68073E+01 1.78768E+00 1.66747E-03 5.55010E-01 7.09048E-14-5.54181E-13
 -1      1082 1.80165E+01 1.14128E+00 7.03735E-04-2.72024E-01-1.69276E-13-2.62442E-13
 -1      1083 1.84573E+01 1.06149E+00 1.14993E-04-2.13609E-01-5.16835E-14-4.51813E-13
 -1      1084 1.88131E+01 9.53914E-01-1.61870E-04-1.71378E-01-9.38103E-15-6.46894E-13
 -1      1085 1.90950E+01 8.36267E-01-1.35975E-04-1.36667E-01-2.08513E-13-7.49374E-13
 -1      1086 1.93184E+01 7.16090E-01-9.95439E-05-1.08295E-01-1.52873E-13-5.87535E-13
 -1      1087 1.94943E+01 6.00190E-01-6.95282E-05-8.50280E-02 9.02753E-14-4.90154E-13
 -1      1088 1.96316E+01 4.93205E-01-4.65763E-05-6.59772E-02 1.69558E-14-6.77904E-13
 -1      1089 1.97373E+01 3.97838E-01-2.94619E-05-5.04822E-02 1.16312E-13-6.06386E-13
 -1      1090 1.98176E+01 3.15254E-01-1.70069E-05-3.80095E-02 1.72465E-13-6.19125E-13
 -1      1091 1.98775E+01 2.45493E-01-8.22003E-06-2.80975E-02 1.09602E-13-5.46979E-13
 -1      1092 1.99213E+01 1.87850E-01-2.26642E-06-2.03329E-02-8.57707E-14-5.04261E-13
 -1      1093 1.99526E+01 1.41168E-01 1.55196E-06-1.43445E-02-1.27854E-14-3.96627E-13
 -1      1094 1.99744E+01 1.04067E-01 3.80410E-06-9.80223E-03 8.03530E-14-3.37121E-13
 -1      1095 1.99891E+01 7.51129E-02 4.93290E-06-6.41835E-03 5.15318E-14 1.00522E-13
 -1      1096 1.99984E+01 5.29135E-02 5.24653E-06-3.94765E-03 4.78545E-15 2.58675E-13
 -1      1097 2.00039E+01 3.61863E-02 4.90897E-06-2.18610E-03 5.22557E-14 1.05559E-13
 -1      1098 2.00067E+01 2.37934E-02 7.23768E-06-9.85192E-04 1.15692E-13-1.74224E-13
 -1      1099 2.00077E+01 1.46139E-02 2.39077E-06-1.44427E-04-1.22296E-13-2.38492E-13
 -1      1100 1.90802E+01 8.42629E-01 1.42623E-04 2.52969E-01-2.25616E-13-2.53706E-13
 -1      1101 1.87971E+01 9.53664E-01 9.28884E-05 3.18409E-01-1.50279E-13-2.52705E-13
 -1      1102 1.94832E+01 6.11462E-01 9.79341E-05 1.57236E-01-4.48929E-14-4.69180E-13
 -1      1103 1.96224E+01 5.04610E-01 7.61597E-05 1.22183E-01 1.31961E-13-4.89427E-13
 -1      1104 1.97299E+01 4.08584E-01 5.86630E-05 9.37128E-02 1.01363E-13-3.65228E-13
 -1      1105 1.98117E+01 3.24907E-01 4.48013E-05 7.07921E-02 4.23650E-14-4.48708E-13
 -1      1106 1.98729E+01 2.53863E-01 3.38399E-05 5.25530E-02 1.21898E-13-6.38544E-13
 -1      1107 1.99178E+01 1.94904E-01 2.51968E-05 3.82343E-02-5.76292E-15-6.39983E-13
 -1      1108 1.99501E+01 1.46972E-01 1.84256E-05 2.71590E-02 5.06363E-14-2.43335E-13
 -1      1109 1.99726E+01 1.08743E-01 1.31715E-05 1.87285E-02 1.43646E-13-2.55312E-13
 -1      1110 1.99878E+01 7.88061E-02 9.14728E-06 1.24214E-02 2.22361E-13-3.21006E-13
 -1      1111 1.99975E+01 5.57792E-02 6.17312E-06 7.79229E-03 1.75872E-13-3.00470E-13
 -1      1112 2.00034E+01 3.83818E-02 4.78786E-06 4.46984E-03-3.79270E-15-3.64919E-13
 -1      1113 2.00064E+01 2.54654E-02 1.71239E-06 2.12179E-03-7.49494E-14-2.54709E-13
 -1      1114 1.74505E+01 1.18426E+00 6.52988E-04-3.63177E-01-1.53351E-13-4.85696E-14
 -1      1115 1.84463E+01 1.04912E+00 2.08025E-05 4.05040E-01-1.72110E-13-1.78165E-13
 -1      1116 1.66987E+01 1.16709E+00-1.05106E-03-4.82293E-01 4.88160E-14-1.15177E-13
 -1      1117 2.00075E+01 1.75784E-02 4.46820E-06 5.20864E-04 1.39201E-13-1.51067E-13
 -1      1118 1.69719E+01 1.06347E+00 3.81970E-04 8.84341E-01-2.50125E-13-2.14602E-13
 -1      1119 1.76299E+01 1.11174E+00-2.75657E-04 6.61213E-01-1.18306E-13-3.37890E-13
 -1      1120 1.66995E+01 1.22190E+00-2.13639E-04 8.51458E-02-1.13065E-13-2.96449E-13
 -1      1121 1.80907E+01 1.09523E+00 1.89373E-03 5.13648E-01-2.50262E-13-2.06928E-13
 -1      1122 1.77225E+01 1.17446E+00-2.61859E-03 1.86756E-01-2.29975E-13-2.46412E-13
 -1      1123 2.82511E+01 9.15942E+00 2.28013E+00-6.44167E+00-7.96030E-14 2.49067E-12
 -1      1124 2.12129E+01 6.44128E+00 2.57985E-01-3.44524E+00-4.37150E-14 2.46962E-13
 -1      1125 1.99866E+01 6.02753E+00 1.05157E-01-2.29051E+00-2.94348E-14-7.05377E-13
 -1      1126 1.93291E+01 5.81970E+00 6.98239E-02-1.57858E+00-1.98799E-14-1.15150E-12
 -1      1127 1.88458E+01 5.66886E+00 5.03970E-02-1.06387E+00-1.33712E-14-1.35770E-12
 -1      1128 1.84650E+01 5.54987E+00 3.45543E-02-6.85187E-01-7.41074E-15-1.43888E-12
 -1      1129 1.81805E+01 5.46095E+00 2.26812E-02-4.02534E-01-3.92741E-15-1.45721E-12
 -1      1130 1.80008E+01 5.40472E+00 1.49340E-02-1.82081E-01-1.64799E-16-1.44763E-12
 -1      1131 1.79406E+01 5.38589E+00 1.23463E-02 5.62050E-03 3.67458E-15-1.41171E-12
 -1      1132 1.80043E+01 5.40583E+00 1.51762E-02 1.94094E-01 7.51135E-15-1.36434E-12
 -1      1133 1.81870E+01 5.46306E+00 2.31581E-02 4.16932E-01 1.03494E-14-1.28005E-12
 -1      1134 1.84750E+01 5.55321E+00 3.57260E-02 7.03785E-01 1.45856E-14-1.16144E-12
 -1      1135 1.88565E+01 5.67238E+00 5.13768E-02 1.08852E+00 2.01991E-14-9.58701E-13
 -1      1136 1.93397E+01 5.82299E+00 7.02669E-02 1.61202E+00 2.61735E-14-6.30930E-13
 -1      1137 1.99875E+01 6.02627E+00 1.00053E-01 2.33279E+00 3.47361E-14-3.37994E-14
 -1      1138 2.11179E+01 6.39645E+00 2.03570E-01 3.42791E+00 3.79974E-14 1.07253E-12
 -1      1139 2.56076E+01 8.10787E+00 1.41850E+00 5.58314E+00 7.33857E-14 3.25784E-12
 -1      1140 2.89765E+01 3.49256E+00 1.13309E+00-4.05128E+00-3.30236E-13 3.91509E-12
 -1      1141 2.11621E+01-1.86864E-01-6.26582E-01-6.21875E-02-1.18176E-13 3.15530E-12
 -1      1142 2.03489E+01-9.92906E-02-2.31776E-01 7.53586E-02-4.71082E-14 2.06630E-12
 -1      1143 2.05264E+01-5.29862E-02-6.34758E-02 5.10542E-02-2.62941E-14 1.38148E-12
 -1      1144 2.10192E+01-3.00647E-02-2.29143E-02 3.99194E-02-2.47601E-14 8.76202E-13
 -1      1145 2.17045E+01-1.56589E-02-9.92734E-03 3.57454E-02-2.24772E-14 5.35141E-13
 -1      1146 2.24873E+01-1.96845E-03 3.87704E-03 3.34276E-02-1.44455E-14 2.84238E-13
 -1      1147 2.32564E+01 1.42378E-02 2.50523E-02 2.90420E-02-4.31079E-15 1.25237E-13
 -1      1148 2.38586E+01 3.36279E-02 5.39305E-02 1.82225E-02-9.93997E-15-1.18459E-13
 -1      1149 2.40936E+01 5.32266E-02 8.48837E-02-3.36627E-03-1.27155E-14-3.87633E-13
 -1      1150 2.37482E+01 6.47949E-02 1.03406E-01-3.72743E-02 2.89699E-16-5.41817E-13
 -1      1151 2.26930E+01 5.56883E-02 8.79503E-02-7.72924E-02-7.92985E-15-5.34239E-13
 -1      1152 2.10311E+01 1.63355E-02 2.33685E-02-1.05883E-01 3.42922E-15-5.50171E-13
 -1      1153 1.92060E+01-4.60288E-02-7.68496E-02-1.00039E-01 1.54130E-15-6.07528E-13
 -1      1154 1.79111E+01-1.00186E-01-1.62304E-01-4.96467E-02-2.16233E-14-6.78187E-13
 -1      1155 1.77401E+01-1.09881E-01-1.77452E-01 2.64678E-02-1.80567E-14-9.36293E-13
 -1      1156 1.87988E+01-6.80888E-02-1.11852E-01 8.95333E-02-1.87905E-14-1.22241E-12
 -1      1157 2.06311E+01-4.35829E-03-1.02600E-02 1.11313E-01 2.93092E-15-1.31209E-12
 -1      1158 2.25327E+01 4.49681E-02 6.98677E-02 9.28430E-02-8.82064E-15-1.42439E-12
 -1      1159 2.39514E+01 6.41205E-02 1.01406E-01 5.51064E-02-3.20421E-14-1.44334E-12
 -1      1160 2.46722E+01 5.86318E-02 9.21541E-02 1.89488E-02-1.11022E-14-1.31503E-12
 -1      1161 2.47608E+01 4.14864E-02 6.38026E-02-5.49339E-03-5.66951E-15-1.13821E-12
 -1      1162 2.44116E+01 2.30627E-02 3.40375E-02-1.75964E-02 2.24820E-14-9.74731E-13
 -1      1163 2.38276E+01 8.40876E-03 1.12765E-02-2.09371E-02-4.34811E-14-1.17930E-12
 -1      1164 2.31642E+01-1.29558E-03-2.96812E-03-1.94627E-02 8.47257E-15-1.14727E-12
 -1      1165 2.25192E+01-6.74185E-03-1.03244E-02-1.60080E-02 1.20381E-14-8.62411E-13
 -1      1166 2.19442E+01-9.15262E-03-1.30985E-02-1.21921E-02 2.10125E-14-6.55524E-13
 -1      1167 2.14594E+01-9.65470E-03-1.32197E-02-8.76990E-03-3.06132E-14-8.66794E-13
 -1      1168 2.10664E+01-9.08706E-03-1.20055E-02-5.99775E-03 8.53083E-15-8.74576E-13
 -1      1169 2.07576E+01-8.00567E-03-1.02551E-02-3.88720E-03 4.30469E-14-6.67855E-13
 -1      1170 2.05212E+01-6.74939E-03-8.41013E-03-2.35035E-03-4.26220E-14-7.38577E-13
 -1      1171 2.03446E+01-5.50913E-03-6.69223E-03-1.27266E-03 1.58919E-14-9.43813E-13
 -1      1172 2.02157E+01-4.38195E-03-5.19595E-03-5.45024E-04 4.11214E-14-5.95308E-13
 -1      1173 2.01240E+01-3.40849E-03-3.94688E-03-7.52025E-05-2.12454E-14-5.33199E-13
 -1      1174 2.00608E+01-2.59719E-03-2.93551E-03 2.10121E-04-1.25347E-14-8.25069E-13
 -1      1175 2.00189E+01-1.93935E-03-2.13629E-03 3.67103E-04 6.85254E-14-3.10674E-13
 -1      1176 1.99925E+01-1.41803E-03-1.51804E-03 4.37653E-04-5.98755E-14-4.32871E-13
 -1      1177 1.99772E+01-1.01335E-03-1.04935E-03 4.52394E-04 2.06118E-14-7.88677E-13
 -1      1178 1.99697E+01-7.05341E-04-7.01240E-04 4.33256E-04-3.51089E-14-4.54098E-13
 -1      1179 1.99673E+01-4.75474E-04-4.48261E-04 3.95607E-04 7.29253E-15-5.20463E-13
 -1      1180 1.99684E+01-3.07303E-04-2.68751E-04 3.49937E-04-4.53912E-14-5.45234E-13
 -1      1181 1.99714E+01-1.86646E-04-1.44608E-04 3.03156E-04-3.68196E-14-5.25836E-13
 -1      1182 1.99756E+01-1.01453E-04-6.07833E-05 2.59546E-04-4.33655E-14-7.88362E-13
 -1      1183 1.99803E+01-4.15050E-05-4.54500E-06 2.21407E-04-2.16500E-14-5.66763E-13
 -1      1184 1.99851E+01 1.97209E-06 3.55424E-05 1.89341E-04 5.24596E-14-3.81102E-13
 -1      1185 1.99897E+01 3.66498E-05 7.08583E-05 1.61998E-04 4.61238E-14 2.66051E-13
 -1      1186 1.99939E+01 6.90557E-05 1.12962E-04 1.34709E-04-2.08219E-14-2.21701E-14
 -1      1187 1.99972E+01 1.01863E-04 1.64608E-04 9.41422E-05 4.21253E-14 8.69651E-14
 -1      1188 1.99994E+01 1.40388E-04 1.81281E-04 1.28325E-05 7.98546E-14 1.30105E-13
 -1      1189 1.99999E+01-4.09530E-05-6.97375E-05-4.84960E-05 1.17148E-13 2.86487E-13
 -1      1190 2.79681E+01 5.15500E-01 2.62659E-01 1.91913E+00-5.49005E-14 5.02792E-12
 -1      1191 2.10526E+01-7.22877E-02-5.77860E-01 1.11483E-01 2.85778E-14 4.15236E-12
 -1      1192 2.04179E+01-4.66875E-02-1.92336E-01 1.27636E-02 2.27613E-14 3.28134E-12
 -1      1193 2.05484E+01-2.82082E-02-5.67681E-02-2.42774E-03 1.82571E-14 2.62271E-12
 -1      1194 2.10229E+01-1.80382E-02-2.27921E-02-9.31289E-03 1.14023E-14 2.17680E-12
 -1      1195 2.16975E+01-8.73786E-03-1.10254E-02-1.51208E-02 4.90992E-15 1.85160E-12
 -1      1196 2.24705E+01 2.88879E-03 2.27054E-03-2.19749E-02 5.77845E-15 1.65680E-12
 -1      1197 2.32290E+01 1.81672E-02 2.34829E-02-2.93207E-02-1.57207E-14 1.58557E-12
 -1      1198 2.38197E+01 3.59889E-02 5.28439E-02-3.43301E-02 1.17181E-14 1.37016E-12
 -1      1199 2.40439E+01 5.12178E-02 8.42821E-02-3.16507E-02 1.98895E-14 1.15730E-12
 -1      1200 2.36916E+01 5.42686E-02 1.02851E-01-1.47019E-02 1.50123E-14 9.33163E-13
 -1      1201 2.26382E+01 3.52067E-02 8.75242E-02 1.94431E-02 4.55061E-15 8.42021E-13
 -1      1202 2.09906E+01-6.40780E-03 2.53145E-02 6.26601E-02 9.93520E-15 9.97660E-13
 -1      1203 1.91893E+01-5.32585E-02-6.83592E-02 9.35163E-02-4.16932E-14 1.10251E-12
 -1      1204 1.79153E+01-7.79110E-02-1.46381E-01 8.86210E-02 3.45730E-14 6.02754E-13
 -1      1205 1.77483E+01-6.58756E-02-1.60518E-01 4.37026E-02 1.45977E-15 2.27939E-13
 -1      1206 1.87903E+01-2.93109E-02-1.04324E-01-1.86528E-02-4.05283E-14 2.36963E-13
 -1      1207 2.05947E+01 7.22300E-03-1.78131E-02-6.60152E-02 1.56178E-14-8.01026E-14
 -1      1208 2.24724E+01 2.84346E-02 5.10842E-02-8.12776E-02 2.04073E-14-4.39496E-13
 -1      1209 2.38821E+01 3.30887E-02 8.01160E-02-6.90446E-02-4.86503E-15-3.17364E-13
 -1      1210 2.46080E+01 2.75507E-02 7.50284E-02-4.42468E-02-1.37364E-14-9.77135E-14
 -1      1211 2.47093E+01 1.85616E-02 5.33605E-02-1.99258E-02 2.02928E-14-5.84394E-14
 -1      1212 2.43747E+01 1.00973E-02 2.97713E-02-2.29192E-03 3.64227E-14-4.66320E-13
 -1      1213 2.38037E+01 3.70149E-03 1.13950E-02 7.92707E-03-2.90100E-15-7.78405E-13
 -1      1214 2.31502E+01-4.74484E-04-3.16725E-04 1.24371E-02-3.03090E-14-4.49016E-13
 -1      1215 2.25120E+01-2.84910E-03-6.55844E-03 1.33485E-02 7.40730E-15-4.06300E-13
 -1      1216 2.19413E+01-3.95444E-03-9.12645E-03 1.23421E-02 3.35912E-14-7.15200E-13
 -1      1217 2.14588E+01-4.25018E-03-9.53793E-03 1.05173E-02-4.18567E-14-6.58499E-13
 -1      1218 2.10671E+01-4.07533E-03-8.83514E-03 8.50385E-03-5.38097E-14-2.70833E-13
 -1      1219 2.07588E+01-3.65813E-03-7.65431E-03 6.61932E-03-1.88055E-15-1.22119E-13
 -1      1220 2.05225E+01-3.14245E-03-6.35128E-03 4.99659E-03 2.75410E-14-4.23283E-13
 -1      1221 2.03457E+01-2.61363E-03-5.10854E-03 3.66884E-03 8.10256E-14-9.12403E-13
 -1      1222 2.02167E+01-2.11862E-03-4.00835E-03 2.62046E-03-4.33472E-14-2.74418E-13
 -1      1223 2.01248E+01-1.68018E-03-3.07798E-03 1.81544E-03-3.95611E-14 2.35372E-14
 -1      1224 2.00615E+01-1.30642E-03-2.31609E-03 1.21214E-03-2.22286E-15-2.29644E-13
 -1      1225 2.00194E+01-9.96976E-04-1.70767E-03 7.70490E-04 1.24827E-14-6.23797E-13
 -1      1226 1.99928E+01-7.46912E-04-1.23220E-03 4.55032E-04-3.61906E-14-8.10280E-13
 -1      1227 1.99775E+01-5.49115E-04-8.68079E-04 2.35892E-04-4.93523E-14-9.06524E-13
 -1      1228 1.99698E+01-3.95756E-04-5.94812E-04 8.86714E-05 6.00689E-14-1.26022E-12
 -1      1229 1.99674E+01-2.79108E-04-3.94047E-04-6.10478E-06 7.37688E-16-1.44947E-12
 -1      1230 1.99684E+01-1.91967E-04-2.49887E-04-6.37201E-05-2.35318E-14-1.21091E-12
 -1      1231 1.99715E+01-1.27803E-04-1.48803E-04-9.60166E-05 8.62318E-15-1.14098E-12
 -1      1232 1.99756E+01-8.07236E-05-7.92961E-05-1.12093E-04-2.16184E-14-1.06525E-12
 -1      1233 1.99803E+01-4.53039E-05-3.12828E-05-1.18917E-04 7.61757E-15-1.28405E-12
 -1      1234 1.99851E+01-1.62824E-05 4.90085E-06-1.21770E-04 2.46111E-14-1.30125E-12
 -1      1235 1.99897E+01 1.16166E-05 3.98038E-05-1.24314E-04 6.61930E-14-1.39911E-12
 -1      1236 1.99938E+01 4.38892E-05 8.51112E-05-1.27869E-04-6.40018E-15-1.60269E-12
 -1      1237 1.99972E+01 8.15435E-05 1.43823E-04-1.25892E-04-4.20836E-14-7.64362E-13
 -1      1238 1.99994E+01 9.60669E-05 1.62149E-04-8.66569E-05 9.38705E-14-2.68858E-13
 -1      1239 1.99999E+01-3.88114E-05-7.32781E-05 4.13179E-05-5.49543E-14-2.46509E-13
 -1      1240 1.99998E+01 1.13476E-04-7.05256E-05 3.44159E-05-2.27463E-13-1.12250E-13
 -1      1241 1.99999E+01-4.52931E-04 1.56209E-04-1.13348E-05-1.70787E-13-1.19861E-13
 -1      1242 1.99999E+01-2.54585E-03 1.18168E-04-9.80751E-05-8.85503E-14 1.17724E-15
 -1      1243 1.99998E+01-5.48032E-03 2.98507E-05-1.19768E-04-5.25417E-14-2.02001E-14
 -1      1244 1.99998E+01-8.58757E-03-4.26476E-05-1.12112E-04-2.78316E-13-9.48805E-14
 -1      1245 1.99997E+01-1.13745E-02-9.15615E-05-8.98686E-05-5.93654E-13 3.19115E-14
 -1      1246 1.99997E+01-1.35529E-02-1.20530E-04-6.32082E-05-3.14953E-13-6.61128E-14
 -1      1247 1.99997E+01-1.49421E-02-1.36429E-04-3.19772E-05-3.61714E-13-5.04394E-14
 -1      1248 1.99997E+01-1.54109E-02-1.41296E-04 2.76543E-07-6.96008E-13-4.08129E-14
 -1      1249 1.99997E+01-1.49261E-02-1.36228E-04 3.25331E-05-4.77009E-14 2.79573E-13
 -1      1250 1.99997E+01-1.35225E-02-1.19962E-04 6.36853E-05 1.00026E-13-3.65382E-13
 -1      1251 1.99997E+01-1.13313E-02-9.04045E-05 9.17862E-05-7.33185E-13 7.03350E-14
 -1      1252 1.99998E+01-8.53824E-03-4.20556E-05 1.12455E-04-8.49846E-14 1.23133E-14
 -1      1253 1.99998E+01-5.42609E-03 3.21735E-05 1.21497E-04-1.45139E-13-8.24957E-14
 -1      1254 1.99999E+01-2.45686E-03 1.34604E-04 1.16611E-04 1.21014E-13-1.95241E-14
 -1      1255 1.99999E+01-4.81130E-04 1.52946E-04-8.71454E-06 2.22017E-14 1.90447E-15
 -1      1256 1.99997E+01 1.21711E-04-7.69703E-05-3.47375E-05-3.49535E-13 1.48352E-13
 -1      1257-1.11694E+00-2.40034E+01-3.71213E+00-2.22636E+00 1.16346E-12 3.28723E-13
 -1      1258-1.81541E+00-1.52288E+01-3.07732E+00-4.01699E+00 3.13838E-12 1.17933E-12
 -1      1259 2.96342E-01-2.43765E+00-1.88804E+00-9.01212E-02 4.38272E-12 2.78189E-12
 -1      1260 9.44563E+00 7.71669E+00-2.26638E-01 8.36983E+00 4.18465E-12 3.98437E-12
 -1      1261 2.69494E+01 1.08394E+01 1.50380E+00 1.60750E+01 2.81886E-12 3.99947E-12
 -1      1262 4.78607E+01 7.64174E+00 3.05007E+00 1.73225E+01 1.39561E-12 3.17435E-12
 -1      1263 6.31718E+01 3.11793E+00 4.02801E+00 9.63722E+00 3.04756E-13 8.53206E-13
 -1      1264 6.69829E+01 1.80797E+00 4.26259E+00-3.13709E+00 2.21698E-13-1.89129E-12
 -1      1265 5.66670E+01 5.34296E+00 3.64812E+00-1.44042E+01 1.36044E-12-4.46709E-12
 -1      1266 3.77520E+01 9.99091E+00 2.38659E+00-1.81859E+01 3.16835E-12-5.83800E-12
 -1      1267 1.84113E+01 1.07507E+01 7.53898E-01-1.36130E+01 4.63518E-12-5.61817E-12
 -1      1268 4.80654E+00 4.54040E+00-9.30790E-01-4.87533E+00 5.16254E-12-4.21996E-12
 -1      1269-1.10616E+00-7.43453E+00-2.39579E+00 2.29031E+00 4.40648E-12-2.36400E-12
 -1      1270-1.61116E+00-1.96906E+01-3.42612E+00 3.99440E+00 2.21489E-12-7.50705E-13
 -1      1271-9.04829E-01-2.54850E+01-3.84613E+00 5.97993E-01-5.10036E-13-1.53919E-13
 -1      1272-1.39124E+00-2.18194E+01-3.56381E+00-3.45510E+00-2.91800E-12-7.20798E-13
 -1      1273-1.65275E+00-1.11252E+01-2.73959E+00-3.54022E+00-4.90097E-12-2.22766E-12
 -1      1274 2.37891E+00 1.43523E+00-1.36640E+00 2.36619E+00-5.76050E-12-4.13825E-12
 -1      1275 1.40337E+01 9.71941E+00 2.88669E-01 1.14089E+01-5.14566E-12-5.53557E-12
 -1      1276 3.26718E+01 1.06940E+01 1.98688E+00 1.76387E+01-3.41571E-12-5.60219E-12
 -1      1277 5.20986E+01 6.62151E+00 3.32175E+00 1.65416E+01-1.57657E-12-4.11249E-12
 -1      1278 6.48310E+01 2.43887E+00 4.06314E+00 7.87649E+00-3.61645E-13-1.59783E-12
 -1      1279 6.65440E+01 1.79979E+00 4.16077E+00-4.34108E+00-1.93241E-13 7.23699E-13
 -1      1280 5.66377E+01 5.11537E+00 3.58016E+00-1.45181E+01-7.83318E-13 2.52842E-12
 -1      1281 3.82067E+01 9.72827E+00 2.36771E+00-1.78992E+01-2.20668E-12 4.06786E-12
 -1      1282 1.92649E+01 1.06885E+01 8.26250E-01-1.38578E+01-3.31757E-12 4.18221E-12
 -1      1283 5.58949E+00 5.12141E+00-7.98232E-01-5.46341E+00-3.72724E-12 3.11617E-12
 -1      1284-7.93805E-01-5.53951E+00-2.14362E+00 1.84004E+00-3.61178E-12 2.00273E-12
 -1      1285-1.82493E+00-1.68919E+01-3.16858E+00 4.47364E+00-2.47891E-12 8.49598E-13
 -1      1286-1.07113E+00-2.42427E+01-3.70961E+00 1.97591E+00-8.46989E-13 2.17243E-13
 -1      1287 2.29155E+01 1.87905E+00-7.11060E-01-2.55902E+00-1.20348E-13 1.99835E-12
 -1      1288 2.10794E+01 4.74647E+00-3.82540E-02-2.79111E+00-3.27793E-13-2.04912E-13
 -1      1289 2.16332E+01 4.85764E+00-8.67268E-02-3.70325E+00-4.26104E-13 2.96888E-13
 -1      1290 2.00587E+01 5.06194E+00-1.69527E-02-2.03306E+00-3.21056E-13-9.00398E-13
 -1      1291 2.04769E+01 5.18956E+00 1.82568E-02-2.46530E+00-3.70898E-13-6.05148E-13
 -1      1292 2.12602E+01 3.96712E+00-1.75778E-02-2.51208E+00-5.75647E-13-1.82729E-13
 -1      1293 1.94114E+01 5.14027E+00-7.20686E-03-1.41905E+00-2.52146E-13-1.23763E-12
 -1      1294 1.97202E+01 5.24141E+00 2.10557E-02-1.71847E+00-2.90289E-13-1.08659E-12
 -1      1295 2.02323E+01 4.43101E+00-1.90523E-02-1.85903E+00-4.98736E-13-7.54230E-13
 -1      1296 1.89051E+01 5.16436E+00-4.63920E-03-9.53450E-01-1.77365E-13-1.40093E-12
 -1      1297 1.91507E+01 5.24323E+00 1.74499E-02-1.17518E+00-2.04628E-13-1.33074E-12
 -1      1298 1.95273E+01 4.65524E+00-1.71195E-02-1.29630E+00-3.75042E-13-1.04703E-12
 -1      1299 1.85102E+01 5.17096E+00-4.29489E-03-6.08644E-01-1.09534E-13-1.45584E-12
 -1      1300 1.86997E+01 5.23118E+00 1.26007E-02-7.72771E-01-1.34379E-13-1.43138E-12
 -1      1301 1.89868E+01 4.78832E+00-1.45793E-02-8.68522E-01-2.59734E-13-1.17987E-12
 -1      1302 1.82181E+01 5.17315E+00-4.13424E-03-3.42750E-01-4.26152E-14-1.46562E-12
 -1      1303 1.83526E+01 5.21533E+00 7.55711E-03-4.70379E-01-6.34111E-14-1.46412E-12
 -1      1304 1.85703E+01 4.87396E+00-1.26382E-02-5.44506E-01-1.44667E-13-1.23660E-12
 -1      1305 1.80506E+01 5.17748E+00-2.95463E-03-1.32626E-01 1.73646E-14-1.44671E-12
 -1      1306 1.81197E+01 5.19898E+00 2.96299E-03-2.36417E-01-2.84495E-15-1.45770E-12
 -1      1307 1.82786E+01 4.92723E+00-1.15429E-02-2.93391E-01-4.13961E-14-1.23136E-12
 -1      1308 1.80188E+01 5.18604E+00-5.02859E-04 5.35585E-02 7.73843E-14-1.41284E-12
 -1      1309 1.80177E+01 5.18561E+00-6.71779E-04-4.24534E-02 5.75928E-14-1.43369E-12
 -1      1310 1.81294E+01 4.95264E+00-1.10507E-02-8.89918E-02 6.25097E-14-1.21653E-12
 -1      1311 1.81248E+01 5.19894E+00 3.18835E-03 2.48662E-01 1.33940E-13-1.35250E-12
 -1      1312 1.80537E+01 5.17663E+00-3.06083E-03 1.44071E-01 1.14155E-13-1.38897E-12
 -1      1313 1.81318E+01 4.95171E+00-1.10876E-02 1.00054E-01 1.54755E-13-1.17539E-12
 -1      1314 1.83614E+01 5.21431E+00 7.71813E-03 4.85293E-01 1.94508E-13-1.26924E-12
 -1      1315 1.82251E+01 5.17175E+00-4.16095E-03 3.55990E-01 1.70416E-13-1.32328E-12
 -1      1316 1.82855E+01 4.92436E+00-1.16582E-02 3.05853E-01 2.53002E-13-1.12303E-12
 -1      1317 1.87079E+01 5.22937E+00 1.27555E-02 7.88776E-01 2.54893E-13-1.13119E-12
 -1      1318 1.85174E+01 5.16867E+00-4.39115E-03 6.22627E-01 2.33064E-13-1.21333E-12
 -1      1319 1.85785E+01 4.86948E+00-1.26677E-02 5.57221E-01 3.48009E-13-1.02716E-12
 -1      1320 1.91649E+01 5.23942E+00 1.76211E-02 1.20057E+00 3.32845E-13-9.19390E-13
 -1      1321 1.89179E+01 5.15979E+00-4.89895E-03 9.75114E-01 2.97894E-13-1.04866E-12
 -1      1322 1.89983E+01 4.78079E+00-1.46579E-02 8.85211E-01 4.53406E-13-8.80365E-13
 -1      1323 1.97359E+01 5.23548E+00 2.08581E-02 1.75285E+00 3.93081E-13-5.52572E-13
 -1      1324 1.94259E+01 5.13278E+00-7.96131E-03 1.44876E+00 3.57533E-13-7.74145E-13
 -1      1325 1.95464E+01 4.64146E+00-1.76039E-02 1.32265E+00 5.54763E-13-6.42732E-13
 -1      1326 2.05049E+01 5.19703E+00 2.39361E-02 2.50608E+00 4.37095E-13 9.76857E-14
 -1      1327 2.00750E+01 5.05274E+00-1.75262E-02 2.07634E+00 3.92596E-13-2.90250E-13
 -1      1328 2.02563E+01 4.40920E+00-1.99246E-02 1.89762E+00 6.29604E-13-2.24452E-13
 -1      1329 2.18399E+01 4.94947E+00 2.64019E-02 3.61680E+00 3.68067E-13 1.27520E-12
 -1      1330 2.10597E+01 4.78778E+00-3.66206E-02 2.90013E+00 3.60989E-13 5.63577E-13
 -1      1331 2.13000E+01 3.93206E+00-1.33789E-02 2.61596E+00 6.42906E-13 4.98199E-13
 -1      1332 2.76234E+01 3.17415E+00 8.74339E-01 4.33280E+00 1.72126E-13 3.40628E-12
 -1      1333 2.27258E+01 3.54131E+00-1.70826E-01 3.53522E+00 1.82090E-13 1.93512E-12
 -1      1334 2.29345E+01 2.53985E+00-2.05125E-02 3.00150E+00 5.85540E-13 1.56361E-12
 -1      1335 2.21929E+01 3.36859E-01-7.57513E-01 9.63611E-01 3.17031E-13 3.29892E-12
 -1      1336 2.28576E+01 1.14524E-01-3.96808E-01-1.04463E+00-3.55577E-13 2.14395E-12
 -1      1337 2.17991E+01 2.90745E-01-1.54467E-01-5.98757E-01-3.32304E-13 1.72961E-12
 -1      1338 2.13613E+01 1.52337E-01-6.95703E-02-1.97247E-01-2.70822E-13 1.55877E-12
 -1      1339 2.11458E+01 9.18984E-02-1.09771E-02-1.28367E-01-2.48468E-13 1.16928E-12
 -1      1340 2.21002E+01 3.51173E-01-1.02958E-01-8.75689E-01-5.78357E-13 8.51989E-13
 -1      1341 2.09828E+01 7.01423E-02 3.93533E-03 7.36858E-02-1.97242E-13 1.03900E-12
 -1      1342 2.10885E+01 4.73721E-02 1.40364E-02 9.51190E-02-1.72999E-13 7.69919E-13
 -1      1343 2.14039E+01 1.34959E-01-3.69499E-02-1.01729E-01-4.27360E-13 5.97061E-13
 -1      1344 2.11412E+01 4.01084E-02 1.19928E-02 2.00136E-01-1.37610E-13 6.57894E-13
 -1      1345 2.14032E+01 2.58434E-02 1.02893E-02 2.14391E-01-1.48804E-13 4.49109E-13
 -1      1346 2.13247E+01 6.63407E-02-1.10706E-02 2.60786E-01-3.18086E-13 3.66460E-13
 -1      1347 2.15773E+01 2.27110E-02 6.63544E-03 2.71520E-01-9.88081E-14 3.79991E-13
 -1      1348 2.19197E+01 1.05155E-02 4.96187E-03 2.79466E-01-8.24445E-14 2.48173E-13
 -1      1349 2.15502E+01 3.45550E-02-6.18226E-03 4.56240E-01-2.32947E-13 1.90901E-13
 -1      1350 2.21570E+01 6.47809E-03 2.58820E-03 2.99269E-01-6.53675E-14 1.98459E-13
 -1      1351 2.25224E+01-6.76959E-03 2.17305E-03 2.99397E-01-4.91054E-14 1.10800E-13
 -1      1352 2.19550E+01 8.86113E-03-3.43669E-03 5.51708E-01-1.57200E-13 9.38720E-14
 -1      1353 2.27729E+01-1.40760E-02 1.65095E-03 2.76220E-01-3.85464E-14 9.69398E-14
 -1      1354 2.30949E+01-2.92985E-02 1.81314E-03 2.65129E-01-4.82878E-14 3.47986E-14
 -1      1355 2.24382E+01-2.31050E-02 8.43334E-04 5.51755E-01-9.43406E-14 5.31623E-14
 -1      1356 2.33049E+01-4.10710E-02 3.63015E-03 1.87249E-01-5.47765E-14-9.88445E-15
 -1      1357 2.34986E+01-5.67255E-02 3.66859E-03 1.60818E-01-7.86723E-14-1.16839E-13
 -1      1358 2.29011E+01-6.58285E-02 7.29667E-03 4.35421E-01-1.27605E-13 1.34033E-14
 -1      1359 2.36071E+01-7.19093E-02 8.08731E-03 2.00228E-02-6.95312E-14-1.44186E-13
 -1      1360 2.35764E+01-8.27536E-02 7.19993E-03-2.38037E-02-6.78858E-14-2.29254E-13
 -1      1361 2.32326E+01-1.15953E-01 1.56038E-02 1.77688E-01-1.21063E-13-2.59302E-14
 -1      1362 2.35236E+01-9.61178E-02 1.33080E-02-2.17304E-01-2.79577E-14-2.20574E-13
 -1      1363 2.31914E+01-9.29455E-02 1.04046E-02-2.73505E-01-1.08264E-14-2.49748E-13
 -1      1364 2.33125E+01-1.57506E-01 2.38280E-02-2.21896E-01-8.64430E-14 1.28172E-14
 -1      1365 2.29415E+01-9.45301E-02 1.54164E-02-4.73785E-01-1.16660E-15-2.63581E-13
 -1      1366 2.23056E+01-6.79000E-02 9.51042E-03-5.24932E-01-2.31273E-14-2.77625E-13
 -1      1367 2.30410E+01-1.60357E-01 2.73125E-02-6.99960E-01-2.20952E-14 1.15316E-14
 -1      1368 2.18839E+01-4.79159E-02 9.79736E-03-6.46348E-01-5.68040E-14-2.97103E-13
 -1      1369 2.10734E+01 2.31929E-03 1.10764E-03-6.63795E-01-6.77344E-14-3.58040E-13
 -1      1370 2.23973E+01-9.28332E-02 1.95317E-02-1.09993E+00-6.28993E-14-8.80407E-14
 -1      1371 2.05965E+01 4.15755E-02-4.43278E-03-6.14349E-01-1.80420E-14-4.20608E-13
 -1      1372 1.98743E+01 9.71710E-02-1.32589E-02-5.74369E-01-4.62269E-14-4.15605E-13
 -1      1373 2.15127E+01 4.67037E-02-2.89128E-03-1.20139E+00-1.06954E-13-2.35712E-13
 -1      1374 1.95320E+01 1.33978E-01-2.01712E-02-3.26797E-01-7.45844E-14-4.77722E-13
 -1      1375 1.91942E+01 1.63991E-01-2.46707E-02-2.35334E-01-1.29237E-13-5.89171E-13
 -1      1376 2.06921E+01 2.03681E-01-3.20956E-02-8.47158E-01-1.32483E-13-3.35133E-13
 -1      1377 1.91541E+01 1.70861E-01-2.61350E-02 1.21408E-01-1.21184E-13-6.23554E-13
 -1      1378 1.93611E+01 1.55561E-01-2.36432E-02 2.22171E-01-1.13194E-13-7.45633E-13
 -1      1379 2.03045E+01 2.88196E-01-4.92903E-02-1.05804E-01-1.66738E-13-4.70725E-13
 -1      1380 1.96535E+01 1.27108E-01-1.82358E-02 5.24020E-01-7.76844E-14-8.64961E-13
 -1      1381 2.03250E+01 7.67474E-02-1.01705E-02 5.84845E-01-7.69515E-14-9.28244E-13
 -1      1382 2.05583E+01 2.45946E-01-4.04688E-02 7.04363E-01-1.86205E-13-5.30277E-13
 -1      1383 2.08199E+01 3.56054E-02-3.70931E-03 7.06920E-01-5.53603E-14-9.54618E-13
 -1      1384 2.16894E+01-1.97092E-02 5.70860E-03 7.08251E-01-5.01921E-15-9.79078E-13
 -1      1385 2.13478E+01 1.04991E-01-1.30467E-02 1.21754E+00-9.36872E-14-6.01767E-13
 -1      1386 2.21913E+01-4.70804E-02 7.17986E-03 6.39572E-01-5.51729E-14-1.04940E-12
 -1      1387 2.29689E+01-8.30660E-02 1.44349E-02 5.97333E-01-5.85495E-14-1.09292E-12
 -1      1388 2.23343E+01-4.89120E-02 1.32689E-02 1.26937E+00-9.29209E-14-7.66519E-13
 -1      1389 2.33300E+01-8.77126E-02 1.02135E-02 4.15737E-01-2.48065E-15-1.17259E-12
 -1      1390 2.38362E+01-9.87824E-02 1.42940E-02 3.59340E-01-3.14271E-14-1.16399E-12
 -1      1391 2.31708E+01-1.43512E-01 2.60350E-02 9.53245E-01-7.00776E-14-8.55861E-13
 -1      1392 2.40008E+01-8.77278E-02 7.66027E-03 1.58235E-01 2.40172E-14-1.11595E-12
 -1      1393 2.41972E+01-8.14900E-02 9.34088E-03 1.09673E-01 2.03717E-14-1.07411E-12
 -1      1394 2.36623E+01-1.62126E-01 2.57821E-02 4.85145E-01 2.47250E-14-8.96440E-13
 -1      1395 2.41824E+01-6.56959E-02 3.56160E-03-5.11761E-02-1.50288E-14-9.83282E-13
 -1      1396 2.41258E+01-5.23367E-02 3.89163E-03-8.32825E-02 6.03207E-14-9.03961E-13
 -1      1397 2.37815E+01-1.30516E-01 1.87791E-02 5.00390E-02 6.19782E-14-8.46663E-13
 -1      1398 2.39827E+01-3.88717E-02 4.43749E-04-1.84519E-01 6.42117E-14-9.29551E-13
 -1      1399 2.37639E+01-2.53231E-02 1.60341E-04-2.00789E-01 1.38257E-14-8.92880E-13
 -1      1400 2.36031E+01-8.21387E-02 1.06026E-02-2.60889E-01 9.16905E-14-7.76889E-13
 -1      1401 2.35480E+01-1.65610E-02-1.04590E-03-2.48436E-01 2.13852E-14-8.24563E-13
 -1      1402 2.32508E+01-5.86168E-03-1.60579E-03-2.53164E-01 2.97319E-14-8.84470E-13
 -1      1403 2.32348E+01-3.86203E-02 4.03347E-03-4.35166E-01 7.56335E-14-6.25049E-13
 -1      1404 2.30072E+01-1.43148E-03-1.30430E-03-2.62595E-01 1.21336E-13-8.12100E-13
 -1      1405 2.26923E+01 5.86399E-03-2.00700E-03-2.60320E-01 1.04764E-13-6.66370E-13
 -1      1406 2.27745E+01-7.89519E-03-2.69333E-04-5.00157E-01 1.47598E-13-5.08838E-13
 -1      1407 2.24518E+01 7.25037E-03-9.45341E-04-2.46814E-01-1.46734E-14-6.30017E-13
 -1      1408 2.21558E+01 1.16773E-02-1.72172E-03-2.41011E-01 3.39065E-14-5.63834E-13
 -1      1409 2.22949E+01 1.02221E-02-2.64349E-03-4.92976E-01 1.14060E-13-3.49963E-13
 -1      1410 2.19364E+01 1.12796E-02-4.23846E-04-2.16180E-01 3.00736E-14-5.58673E-13
 -1      1411 2.16776E+01 1.36409E-02-1.21489E-03-2.09102E-01-6.25368E-16-5.85798E-13
 -1      1412 2.18420E+01 1.89149E-02-3.68269E-03-4.45648E-01 7.10163E-14-4.20145E-13
 -1      1413 2.14878E+01 1.23781E-02 2.72913E-05-1.80522E-01-2.66243E-14-5.73713E-13
 -1      1414 2.12721E+01 1.33904E-02-7.25591E-04-1.73461E-01-5.80404E-14-6.23724E-13
 -1      1415 2.14403E+01 2.15934E-02-3.90961E-03-3.80850E-01-3.35368E-14-4.19079E-13
 -1      1416 2.11142E+01 1.18342E-02 3.32972E-04-1.45514E-01 5.66654E-14-5.36508E-13
 -1      1417 2.09409E+01 1.20310E-02-3.42832E-04-1.39120E-01 7.52751E-14-4.57182E-13
 -1      1418 2.10996E+01 2.08943E-02-3.69376E-03-3.12654E-01 8.69010E-14-3.43851E-13
 -1      1419 2.08134E+01 1.04948E-02 4.98816E-04-1.14014E-01 6.05570E-15-4.33183E-13
 -1      1420 2.06782E+01 1.02378E-02-7.85832E-05-1.08548E-01 2.32739E-14-3.47275E-13
 -1      1421 2.08202E+01 1.85628E-02-3.26870E-03-2.48795E-01 4.64500E-14-1.56458E-13
 -1      1422 2.05779E+01 8.87000E-03 5.59154E-04-8.71556E-02-1.03109E-13-4.12541E-13
 -1      1423 2.04749E+01 8.38993E-03 8.58811E-05-8.26606E-02-1.47413E-13-5.47669E-13
 -1      1424 2.05972E+01 1.56427E-02-2.77163E-03-1.92876E-01-1.05796E-13-2.97213E-13
 -1      1425 2.03978E+01 7.24375E-03 5.50865E-04-6.50936E-02 3.35956E-14-4.91340E-13
 -1      1426 2.03213E+01 6.68081E-03 1.76461E-04-6.15040E-02 8.94214E-14-4.23894E-13
 -1      1427 2.04235E+01 1.27053E-02-2.27818E-03-1.46032E-01-7.73407E-14-1.41603E-13
 -1      1428 2.02633E+01 5.75881E-03 5.03617E-04-4.74817E-02 4.66916E-14-4.56925E-13
 -1      1429 2.02078E+01 5.19400E-03 2.16610E-04-4.46833E-02 4.75791E-14-3.96569E-13
 -1      1430 2.02912E+01 1.00312E-02-1.82671E-03-1.08043E-01 4.62577E-14-1.16457E-13
 -1      1431 2.01651E+01 4.47495E-03 4.38167E-04-3.37527E-02-4.47566E-14-4.02389E-13
 -1      1432 2.01259E+01 3.95178E-03 2.24572E-04-3.16175E-02-9.82657E-14-5.18123E-13
 -1      1433 2.01925E+01 7.73333E-03-1.43371E-03-7.80216E-02 3.54487E-14-1.93628E-13
 -1      1434 2.00953E+01 3.40540E-03 3.67726E-04-2.32772E-02 4.85362E-14-3.42185E-13
 -1      1435 2.00685E+01 2.94432E-03 2.13443E-04-2.16814E-02 1.68122E-13-2.78223E-13
 -1      1436 2.01206E+01 5.83335E-03-1.10329E-03-5.48240E-02 4.01835E-14 1.58790E-14
 -1      1437 2.00471E+01 2.53908E-03 2.99991E-04-1.54477E-02 3.19646E-14-3.53058E-13
 -1      1438 2.00295E+01 2.14672E-03 1.92139E-04-1.42801E-02-4.75265E-14-3.45102E-13
 -1      1439 2.00695E+01 4.30677E-03-8.32840E-04-3.72689E-02 7.78028E-14-6.88848E-16
 -1      1440 2.00151E+01 1.85351E-03 2.38956E-04-9.71885E-03-1.28617E-13-3.33785E-13
 -1      1441 2.00043E+01 1.52855E-03 1.66469E-04-8.88401E-03-1.11940E-13-3.97441E-13
 -1      1442 2.00343E+01 3.10880E-03-6.16398E-04-2.42561E-02-1.34958E-13-4.30003E-13
 -1      1443 1.99950E+01 1.32218E-03 1.86271E-04-5.62250E-03-1.89074E-14-4.81000E-13
 -1      1444 1.99889E+01 1.05899E-03 1.40041E-04-5.04113E-03 2.27536E-14-4.02926E-13
 -1      1445 2.00109E+01 2.18838E-03-4.46642E-04-1.48179E-02-1.40093E-13-1.78683E-13
 -1      1446 1.99833E+01 9.18529E-04 1.42181E-04-2.76962E-03-2.34771E-14-2.83455E-13
 -1      1447 1.99805E+01 7.09460E-04 1.14954E-04-2.37747E-03-2.95721E-14-3.25458E-13
 -1      1448 1.99963E+01 1.49552E-03-3.16035E-04-8.13551E-03 7.17652E-15-1.28313E-13
 -1      1449 1.99776E+01 6.17991E-04 1.06146E-04-8.45049E-04-2.53457E-14-3.60621E-13
 -1      1450 1.99770E+01 4.54733E-04 9.22906E-05-5.91188E-04-3.86564E-14-3.74439E-13
 -1      1451 1.99879E+01 9.84780E-04-2.17448E-04-3.53564E-03-7.19440E-14-1.54988E-13
 -1      1452 1.99759E+01 3.98862E-04 7.72319E-05 4.00784E-04-5.01244E-14-4.97782E-13
 -1      1453 1.99767E+01 2.73220E-04 7.24740E-05 5.55875E-04-8.70881E-14-4.75806E-13
 -1      1454 1.99839E+01 6.16626E-04-1.44469E-04-4.78125E-04-1.01594E-13-2.45198E-13
 -1      1455 1.99767E+01 2.42498E-04 5.43502E-05 1.16105E-03-1.05897E-13-5.13558E-13
 -1      1456 1.99783E+01 1.46793E-04 5.55096E-05 1.24730E-03-7.66180E-14-5.69997E-13
 -1      1457 1.99827E+01 3.57565E-04-9.15144E-05 1.46069E-03-1.24627E-13-4.68344E-13
 -1      1458 1.99791E+01 1.33110E-04 3.64193E-05 1.58127E-03 3.90998E-14-5.50667E-13
 -1      1459 1.99812E+01 6.03353E-05 4.11797E-05 1.62061E-03-9.91771E-15-5.81209E-13
 -1      1460 1.99835E+01 1.79624E-04-5.38240E-05 2.60483E-03 2.63737E-15-4.10245E-13
 -1      1461 1.99824E+01 5.73175E-05 2.24998E-05 1.76691E-03-2.76539E-14-3.26575E-13
 -1      1462 1.99847E+01 1.12237E-06 2.92586E-05 1.77459E-03 1.41839E-13-2.37638E-13
 -1      1463 1.99854E+01 5.94120E-05-2.73655E-05 3.19425E-03 1.45373E-13-2.01737E-13
 -1      1464 1.99861E+01 3.50604E-06 1.20162E-05 1.78936E-03 1.88455E-13-2.89059E-13
 -1      1465 1.99884E+01-4.18992E-05 1.98654E-05 1.77476E-03 1.86554E-13-2.60923E-14
 -1      1466 1.99880E+01-2.31172E-05-8.66362E-06 3.39761E-03 2.02031E-13-7.02903E-14
 -1      1467 1.99898E+01-3.89308E-05 5.17957E-06 1.68992E-03 1.99143E-13-4.21898E-14
 -1      1468 1.99919E+01-7.89085E-05 1.39619E-05 1.65697E-03 8.36969E-14 1.59869E-13
 -1      1469 1.99908E+01-8.61142E-05 5.46899E-06 3.32188E-03 2.73376E-13 4.27793E-15
 -1      1470 1.99933E+01-8.04276E-05 3.63986E-06 1.48182E-03-1.16923E-13 1.26955E-13
 -1      1471 1.99951E+01-1.19567E-04 1.35935E-05 1.42842E-03-7.25185E-14-8.22023E-14
 -1      1472 1.99935E+01-1.47782E-04 1.81074E-05 3.01853E-03-7.07296E-14-2.78586E-14
 -1      1473 1.99962E+01-1.31232E-04 9.88111E-06 1.15261E-03 1.03417E-13-1.08786E-13
 -1      1474 1.99976E+01-1.71023E-04 1.65510E-05 1.06916E-03 1.45543E-13 2.09839E-13
 -1      1475 1.99959E+01-2.27672E-04 3.08148E-05 2.48658E-03-6.31843E-15 5.91942E-15
 -1      1476 1.99984E+01-2.07249E-04 1.70714E-05 6.69751E-04 7.25274E-14 2.26626E-13
 -1      1477 1.99991E+01-2.10952E-04 7.77538E-06 5.56091E-04 4.15625E-14 2.75412E-13
 -1      1478 1.99979E+01-3.46125E-04 4.08196E-05 1.69917E-03 1.97081E-13 2.39744E-13
 -1      1479 1.99998E+01-9.97624E-05 7.49645E-06 1.35483E-05-2.21909E-13 3.04813E-13
 -1      1480 1.99994E+01-3.96636E-04 2.46747E-05 5.54267E-04-8.18212E-14 1.22044E-13
 -1      1481 2.14571E+01 7.18782E-02-1.42930E-01 3.04446E-01 2.70499E-13 2.68253E-12
 -1      1482 2.24514E+01 2.18112E-01-2.26788E-01 5.30663E-01 2.41848E-13 3.10649E-12
 -1      1483 2.26593E+01 8.39190E-01-9.37386E-02 1.71015E+00 4.76258E-13 2.07799E-12
 -1      1484 2.09705E+01 3.43077E-02-1.78155E-02 1.10886E-02 2.22848E-13 2.13110E-12
 -1      1485 2.11421E+01 1.17230E-01-5.70515E-02 6.46509E-02 2.03101E-13 2.46216E-12
 -1      1486 2.15986E+01 1.77151E-01-5.75390E-02 4.50404E-01 4.22530E-13 1.66307E-12
 -1      1487 2.10572E+01 1.92238E-02 5.59598E-03-1.34086E-01 1.46981E-13 1.71597E-12
 -1      1488 2.09391E+01 5.94963E-02 3.56320E-03-1.01578E-01 1.52709E-13 1.96750E-12
 -1      1489 2.12505E+01 7.46470E-02-1.54450E-02-4.70761E-02 3.32109E-13 1.32042E-12
 -1      1490 2.14576E+01 1.07105E-02 5.78729E-03-2.14616E-01 1.04505E-13 1.44191E-12
 -1      1491 2.11929E+01 3.50027E-02 1.16016E-02-1.92513E-01 1.05130E-13 1.60480E-12
 -1      1492 2.13468E+01 3.85736E-02-6.59693E-03-2.91947E-01 2.36711E-13 1.06048E-12
 -1      1493 2.20287E+01 3.02755E-03 4.37045E-03-2.55692E-01 6.67801E-14 1.24645E-12
 -1      1494 2.16863E+01 1.97046E-02 8.23662E-03-2.41611E-01 7.09474E-14 1.36908E-12
 -1      1495 2.16963E+01 1.84302E-02-5.30158E-03-4.25117E-01 1.62859E-13 8.98967E-13
 -1      1496 2.26606E+01-6.90735E-03 5.62358E-03-2.57200E-01 1.63089E-14 1.15204E-12
 -1      1497 2.22960E+01 3.76948E-03 5.15477E-03-2.52934E-01 3.87054E-14 1.18906E-12
 -1      1498 2.21786E+01-7.74529E-04-3.09001E-03-4.78478E-01 9.29582E-14 8.08274E-13
 -1      1499 2.32326E+01-2.03534E-02 9.93640E-03-2.07768E-01 6.04738E-14 1.02846E-12
 -1      1500 2.29120E+01-1.71596E-02 4.21753E-03-2.17787E-01 1.69643E-14 1.06752E-12
 -1      1501 2.26908E+01-2.55975E-02 1.83961E-03-4.45660E-01 4.85315E-14 6.86175E-13
 -1      1502 2.35966E+01-3.63229E-02 1.66993E-02-9.31737E-02 4.85618E-14 8.72297E-13
 -1      1503 2.34049E+01-4.40707E-02 5.32023E-03-1.22956E-01 5.74931E-14 9.70560E-13
 -1      1504 2.31221E+01-5.81351E-02 9.70343E-03-3.05005E-01 9.28146E-14 5.60402E-13
 -1      1505 2.35866E+01-4.99353E-02 2.34976E-02 9.11376E-02 5.51234E-14 7.82919E-13
 -1      1506 2.36209E+01-7.26718E-02 7.86440E-03 3.86547E-02 4.52745E-14 8.53141E-13
 -1      1507 2.33464E+01-9.42584E-02 1.93742E-02-3.88056E-02 7.36251E-14 5.26222E-13
 -1      1508 2.30673E+01-5.14967E-02 2.49922E-02 3.20785E-01 4.01649E-14 7.49102E-13
 -1      1509 2.34061E+01-9.08655E-02 1.00918E-02 2.51320E-01 5.56066E-14 7.97695E-13
 -1      1510 2.32396E+01-1.19883E-01 2.72791E-02 3.38121E-01 7.22859E-14 5.53893E-13
 -1      1511 2.20259E+01-3.01224E-02 1.43117E-02 5.24873E-01-4.14191E-14 7.67074E-13
 -1      1512 2.26726E+01-8.04493E-02 8.61187E-03 4.58740E-01 6.46618E-15 7.40068E-13
 -1      1513 2.27273E+01-1.10456E-01 2.75931E-02 7.43928E-01 1.30035E-14 6.32296E-13
 -1      1514 2.06720E+01 1.56152E-02-1.10654E-02 5.95002E-01 4.59979E-14 8.57023E-13
 -1      1515 2.14950E+01-2.87653E-02 1.29500E-05 5.64600E-01-7.35664E-15 7.67698E-13
 -1      1516 2.18601E+01-4.35546E-02 1.53235E-02 1.01697E+00-1.78551E-14 6.48089E-13
 -1      1517 1.94506E+01 6.74954E-02-4.15941E-02 4.43841E-01 8.53467E-14 7.20028E-13
 -1      1518 2.01797E+01 5.30667E-02-1.47322E-02 4.75983E-01 6.59976E-14 7.70065E-13
 -1      1519 2.08713E+01 7.50577E-02-7.32163E-03 9.71675E-01 9.49067E-14 5.52506E-13
 -1      1520 1.88774E+01 9.35689E-02-5.76757E-02 9.01455E-02 1.55386E-13 2.99550E-13
 -1      1521 1.92076E+01 1.24442E-01-2.74244E-02 1.80902E-01 1.73224E-13 5.68996E-13
 -1      1522 2.01372E+01 1.92710E-01-2.84717E-02 5.30227E-01 2.50709E-13 3.45569E-13
 -1      1523 1.92387E+01 7.52370E-02-4.53584E-02-3.15863E-01-3.26180E-14 1.37890E-13
 -1      1524 1.90082E+01 1.41219E-01-2.78345E-02-2.06943E-01 4.44349E-14 1.92926E-13
 -1      1525 1.99965E+01 2.33467E-01-3.53300E-02-1.64265E-01 1.53901E-13 1.95354E-13
 -1      1526 2.03925E+01 2.59744E-02-1.25017E-02-5.85520E-01 5.67385E-14-5.09315E-15
 -1      1527 1.96932E+01 9.50381E-02-1.39243E-02-5.08608E-01 3.38314E-14 6.40460E-14
 -1      1528 2.05332E+01 1.64310E-01-2.63570E-02-7.99319E-01 7.07958E-14-3.77094E-14
 -1      1529 2.18675E+01-2.21116E-02 1.95850E-02-6.25839E-01 1.21112E-13-3.43711E-13
 -1      1530 2.09813E+01 2.01284E-02 4.95422E-03-6.05161E-01 1.14421E-13-1.27072E-13
 -1      1531 2.15187E+01 3.16159E-02-1.08010E-02-1.10492E+00 1.95044E-13-3.14273E-13
 -1      1532 2.31637E+01-4.76836E-02 3.55465E-02-4.78888E-01-5.05039E-14-5.09461E-13
 -1      1533 2.23860E+01-4.08217E-02 1.77717E-02-5.04761E-01 2.97939E-14-4.17250E-13
 -1      1534 2.25720E+01-8.37854E-02 1.98765E-03-1.02406E+00 1.52540E-13-4.00846E-13
 -1      1535 2.39839E+01-4.95176E-02 3.43256E-02-2.52501E-01-1.01370E-13-3.24560E-13
 -1      1536 2.34892E+01-6.80410E-02 2.02931E-02-2.99542E-01-9.39613E-14-4.49876E-13
 -1      1537 2.33770E+01-1.36245E-01 8.27139E-03-6.89030E-01-1.06049E-13-4.46252E-13
 -1      1538 2.42733E+01-3.76010E-02 2.37838E-02-4.09073E-02-2.67971E-14-1.82914E-13
 -1      1539 2.40919E+01-6.58361E-02 1.52995E-02-8.69943E-02-6.94436E-14-3.01037E-13
 -1      1540 2.37899E+01-1.29817E-01 9.14651E-03-2.85167E-01-1.11366E-13-3.86234E-13
 -1      1541 2.41350E+01-2.23721E-02 1.20015E-02 1.09567E-01 9.79264E-14-3.11152E-13
 -1      1542 2.42039E+01-4.86564E-02 8.00253E-03 7.54481E-02 6.91166E-14-1.91601E-13
 -1      1543 2.38233E+01-9.29061E-02 7.36254E-03 5.50721E-02 2.87834E-14-3.41224E-13
 -1      1544 2.37245E+01-9.61787E-03 3.14188E-03 1.93320E-01 1.10803E-13-5.03597E-13
 -1      1545 2.39504E+01-2.88011E-02 2.00555E-03 1.72986E-01 9.34834E-14-3.39945E-13
 -1      1546 2.35739E+01-5.15745E-02 4.92704E-03 2.79885E-01 1.41164E-13-3.77371E-13
 -1      1547 2.31828E+01-1.00523E-03-2.01917E-03 2.24510E-01-8.29519E-14-5.67997E-13
 -1      1548 2.34824E+01-1.25209E-02-1.53189E-03 2.15336E-01 6.16347E-15-5.75335E-13
 -1      1549 2.31565E+01-1.89028E-02 2.82664E-03 3.93942E-01 1.03619E-13-3.68200E-13
 -1      1550 2.26120E+01 3.88985E-03-4.30021E-03 2.21542E-01-3.26507E-14-4.32784E-13
 -1      1551 2.29262E+01-1.46971E-03-2.95111E-03 2.19854E-01-4.49247E-14-5.15926E-13
 -1      1552 2.26685E+01 2.17942E-03 1.33819E-03 4.25620E-01-1.07039E-13-5.34955E-13
 -1      1553 2.20744E+01 6.12685E-03-4.82055E-03 1.99894E-01 4.34661E-14-5.13985E-13
 -1      1554 2.23680E+01 4.95388E-03-3.06226E-03 2.02530E-01 4.03745E-14-4.10554E-13
 -1      1555 2.21783E+01 1.35123E-02 3.93737E-04 4.05876E-01 4.82020E-14-3.80973E-13
 -1      1556 2.16017E+01 6.71213E-03-4.45202E-03 1.70298E-01-5.16826E-14-5.33806E-13
 -1      1557 2.18577E+01 8.02920E-03-2.56798E-03 1.75017E-01 1.20867E-15-4.92427E-13
 -1      1558 2.17267E+01 1.81486E-02-1.60871E-04 3.59340E-01 5.28917E-15-3.87532E-13
 -1      1559 2.12052E+01 6.38770E-03-3.73532E-03 1.39293E-01-1.68400E-13-2.97908E-13
 -1      1560 2.14180E+01 8.96893E-03-1.90471E-03 1.44689E-01-1.17046E-13-4.54222E-13
 -1      1561 2.13337E+01 1.87740E-02-4.60194E-04 3.02627E-01-1.35829E-13-2.34005E-13
 -1      1562 2.08841E+01 5.63393E-03-2.95781E-03 1.10403E-01-1.39924E-13-8.54607E-14
 -1      1563 2.10549E+01 8.68549E-03-1.28710E-03 1.15678E-01-1.66762E-13-3.08759E-13
 -1      1564 2.10054E+01 1.72942E-02-5.99281E-04 2.45664E-01-2.22639E-13-2.12657E-13
 -1      1565 2.06314E+01 4.73480E-03-2.25012E-03 8.52261E-02 4.92060E-14-7.03808E-14
 -1      1566 2.07645E+01 7.78733E-03-7.93011E-04 8.99802E-02 3.32114E-14-5.46355E-14
 -1      1567 2.07399E+01 1.49064E-02-6.40064E-04 1.93668E-01-5.08547E-14-1.34211E-13
 -1      1568 2.04373E+01 3.84475E-03-1.65821E-03 6.42324E-02 1.57106E-13-3.47199E-13
 -1      1569 2.05386E+01 6.64810E-03-4.31454E-04 6.83056E-02 1.04541E-13-1.55888E-13
 -1      1570 2.05307E+01 1.22966E-02-6.22196E-04 1.48877E-01 1.50765E-13-4.73853E-14
 -1      1571 2.02917E+01 3.03918E-03-1.18715E-03 4.72825E-02-1.71686E-13-4.49648E-13
 -1      1572 2.03669E+01 5.48114E-03-1.83685E-04 5.06507E-02 4.58127E-14-3.79734E-13
 -1      1573 2.03697E+01 9.82173E-03-5.71342E-04 1.11796E-01 1.16442E-13-4.45759E-14
 -1      1574 2.01849E+01 2.34792E-03-8.24721E-04 3.39465E-02-4.28273E-14-8.51541E-15
 -1      1575 2.02394E+01 4.39814E-03-2.39163E-05 3.66569E-02-1.80632E-13-3.12542E-13
 -1      1576 2.02485E+01 7.64335E-03-5.04254E-04 8.20034E-02-2.34380E-13-1.32882E-13
 -1      1577 2.01086E+01 1.77592E-03-5.53148E-04 2.36872E-02 8.75732E-14-3.94685E-14
 -1      1578 2.01471E+01 3.44949E-03 7.19454E-05 2.58192E-02 4.48034E-14 4.45863E-14
 -1      1579 2.01593E+01 5.81318E-03-4.31782E-04 5.86495E-02-5.42551E-14-1.40314E-13
 -1      1580 2.00557E+01 1.31548E-03-3.54422E-04 1.59594E-02 3.75299E-14-2.92254E-13
 -1      1581 2.00819E+01 2.65026E-03 1.23475E-04 1.76026E-02 8.94259E-14-6.08331E-14
 -1      1582 2.00952E+01 4.32543E-03-3.60741E-04 4.07387E-02 1.57674E-13-3.93626E-14
 -1      1583 2.00202E+01 9.53270E-04-2.12465E-04 1.02599E-02-6.10943E-15-4.95440E-13
 -1      1584 2.00374E+01 1.99632E-03 1.45494E-04 1.15020E-02 5.73877E-14-3.40608E-13
 -1      1585 2.00505E+01 3.14691E-03-2.95150E-04 2.72854E-02 1.52147E-13-1.39926E-13
 -1      1586 1.99977E+01 6.74195E-04-1.13773E-04 6.14963E-03 4.87209E-14-8.21031E-13
 -1      1587 2.00083E+01 1.47394E-03 1.48744E-04 7.07043E-03 4.37970E-14-6.83930E-13
 -1      1588 2.00204E+01 2.23391E-03-2.37104E-04 1.73911E-02 1.36883E-13-5.26415E-13
 -1      1589 1.99844E+01 4.63463E-04-4.74113E-05 3.25891E-03 7.05901E-14-8.84998E-13
 -1      1590 1.99903E+01 1.06543E-03 1.40774E-04 3.92779E-03-5.20166E-14-8.84113E-13
 -1      1591 2.00011E+01 1.54114E-03-1.87404E-04 1.02769E-02 6.28259E-14-8.25176E-13
 -1      1592 1.99776E+01 3.07585E-04-4.73701E-06 1.28542E-03 6.70468E-15-8.99368E-13
 -1      1593 1.99803E+01 7.52342E-04 1.26731E-04 1.76073E-03 9.79912E-14-7.67984E-13
 -1      1594 1.99895E+01 1.02629E-03-1.46009E-04 5.29050E-03 7.47206E-14-6.38370E-13
 -1      1595 1.99752E+01 1.94772E-04 2.09568E-05-1.24321E-05-4.45865E-14-8.70173E-13
 -1      1596 1.99757E+01 5.17119E-04 1.10018E-04 3.17126E-04-4.48563E-14-9.96955E-13
 -1      1597 1.99834E+01 6.51970E-04-1.12366E-04 1.90010E-03-1.22220E-14-4.80377E-13
 -1      1598 1.99757E+01 1.14989E-04 3.47964E-05-8.23385E-04 2.05503E-14-9.44063E-13
 -1      1599 1.99748E+01 3.43935E-04 9.27883E-05-6.01322E-04 3.89847E-14-9.61939E-13
 -1      1600 1.99811E+01 3.86269E-04-8.56260E-05-3.17494E-04 4.52687E-14-5.14166E-13
 -1      1601 1.99779E+01 5.98141E-05 4.06612E-05-1.29135E-03 6.13907E-14-1.09101E-12
 -1      1602 1.99763E+01 2.18918E-04 7.63154E-05-1.14695E-03-5.30786E-15-1.04251E-12
 -1      1603 1.99812E+01 2.02568E-04-6.47837E-05-1.69147E-03 6.66874E-14-8.83403E-13
 -1      1604 1.99812E+01 2.21816E-05 4.15044E-05-1.52257E-03-9.80288E-14-9.68145E-13
 -1      1605 1.99792E+01 1.30053E-04 6.12788E-05-1.43335E-03-9.59626E-15-1.06585E-12
 -1      1606 1.99829E+01 7.89050E-05-4.87402E-05-2.47103E-03-5.07860E-14-9.36319E-13
 -1      1607 1.99850E+01-3.96316E-06 3.97287E-05-1.59156E-03 3.20347E-14-1.05780E-12
 -1      1608 1.99827E+01 6.68287E-05 4.80087E-05-1.54154E-03 2.30514E-14-1.00666E-12
 -1      1609 1.99854E+01-2.88428E-06-3.62806E-05-2.83789E-03-1.90268E-14-9.57163E-13
 -1      1610 1.99888E+01-2.41408E-05 3.77905E-05-1.54523E-03 8.48632E-14-1.15307E-12
 -1      1611 1.99866E+01 1.96230E-05 3.68154E-05-1.52457E-03 7.65994E-14-1.10291E-12
 -1      1612 1.99884E+01-5.82703E-05-2.58942E-05-2.91620E-03 7.99060E-14-8.35296E-13
 -1      1613 1.99925E+01-4.36205E-05 3.90054E-05-1.40507E-03-6.93135E-14-1.12026E-12
 -1      1614 1.99904E+01-2.10197E-05 2.85855E-05-1.41018E-03 5.36742E-14-1.14200E-12
 -1      1615 1.99914E+01-1.01323E-04-1.53312E-05-2.77917E-03 6.44322E-14-9.47673E-13
 -1      1616 1.99956E+01-6.78749E-05 4.65131E-05-1.16799E-03-1.91533E-13-8.82102E-13
 -1      1617 1.99938E+01-6.49540E-05 2.51484E-05-1.20239E-03-1.24231E-13-1.10950E-12
 -1      1618 1.99943E+01-1.46217E-04-1.51968E-06-2.45296E-03-1.44882E-13-6.49015E-13
 -1      1619 1.99980E+01-1.02367E-04 5.39632E-05-8.05315E-04-2.44609E-13-2.78049E-13
 -1      1620 1.99967E+01-1.22784E-04 2.65457E-05-8.83998E-04-2.20291E-13-6.78642E-13
 -1      1621 1.99967E+01-2.09784E-04 1.63229E-05-1.92092E-03-4.05918E-13-4.34145E-13
 -1      1622 1.99994E+01-1.44832E-04 1.17734E-05-3.21183E-04 1.08398E-13-1.52908E-13
 -1      1623 1.99988E+01-1.82258E-04 2.28659E-05-4.38188E-04 8.54327E-14-2.17578E-13
 -1      1624 1.99985E+01-2.96549E-04 3.02652E-05-1.14669E-03-7.68905E-15-1.15348E-13
 -1      1625 1.99997E+01-1.13765E-04-3.65235E-08-3.63089E-05-3.46770E-14-1.19481E-13
 -1      1626 1.99996E+01-1.39211E-03 2.55167E-05-6.81680E-04-9.18497E-14-1.43553E-13
 -1      1627 1.99996E+01-7.01954E-04-1.93587E-07-5.53232E-04 1.04166E-14 6.08854E-14
 -1      1628 1.99997E+01-3.42405E-03 9.34360E-06-1.06241E-03-1.22342E-13 1.02791E-13
 -1      1629 1.99997E+01-2.20772E-03 1.60797E-05-1.00473E-03-1.46194E-14-5.41393E-14
 -1      1630 1.99995E+01-1.93379E-03 2.87058E-05-1.62791E-03-1.34828E-13-2.01362E-13
 -1      1631 1.99998E+01-5.86002E-03-2.25125E-06-1.21041E-03-2.00904E-13-8.53631E-14
 -1      1632 1.99998E+01-4.42038E-03 7.05155E-06-1.20058E-03-1.46179E-13 1.25729E-13
 -1      1633 1.99997E+01-3.72529E-03 1.54386E-05-2.17534E-03-3.53077E-14 9.94953E-14
 -1      1634 1.99999E+01-8.30961E-03-6.85050E-06-1.16098E-03-1.98519E-13-4.83795E-14
 -1      1635 1.99998E+01-6.89929E-03 2.83800E-07-1.18646E-03-1.99061E-13 5.41438E-14
 -1      1636 1.99998E+01-5.73561E-03-4.58504E-06-2.30495E-03-2.71567E-13-5.64857E-14
 -1      1637 1.99999E+01-1.04173E-02-7.06433E-06-9.70771E-04-3.03668E-13 6.06553E-14
 -1      1638 1.99999E+01-9.23754E-03-1.66971E-06-1.01819E-03-3.66147E-13-2.21856E-13
 -1      1639 1.99999E+01-7.67406E-03-2.02700E-05-2.09760E-03-2.01287E-13-2.03348E-13
 -1      1640 1.99999E+01-1.20272E-02-5.68880E-06-6.81042E-04-2.68999E-13-1.09964E-13
 -1      1641 1.99999E+01-1.11656E-02-2.32993E-06-7.44059E-04-3.35773E-13-5.70946E-15
 -1      1642 2.00000E+01-9.32085E-03-3.00489E-05-1.65238E-03-2.57328E-13-6.49300E-14
 -1      1643 1.99999E+01-1.29480E-02-3.98777E-06-3.33445E-04-3.12857E-13-1.11830E-13
 -1      1644 1.99999E+01-1.25016E-02-2.28033E-06-4.04220E-04-1.40588E-13-4.31983E-14
 -1      1645 2.00000E+01-1.05184E-02-3.61519E-05-1.04662E-03-1.97228E-13 3.51118E-14
 -1      1646 1.99999E+01-1.31049E-02-2.77518E-06 3.97645E-05-2.42342E-13 5.82961E-14
 -1      1647 1.99999E+01-1.31087E-02-2.79013E-06-3.34233E-05-2.83442E-13-6.55514E-14
 -1      1648 2.00000E+01-1.11405E-02-3.89027E-05-3.53960E-04-5.39121E-14-1.25749E-13
 -1      1649 1.99999E+01-1.24848E-02-2.20779E-06 4.10203E-04 5.63397E-14 3.49885E-13
 -1      1650 1.99999E+01-1.29387E-02-4.01498E-06 3.39567E-04-2.77459E-13 2.64886E-13
 -1      1651 2.00000E+01-1.11351E-02-3.88687E-05 3.65997E-04 1.12313E-13 1.53817E-13
 -1      1652 1.99999E+01-1.11377E-02-2.10117E-06 7.49070E-04-2.42418E-13-4.29208E-13
 -1      1653 1.99999E+01-1.20056E-02-5.91730E-06 6.86452E-04 1.05622E-13-9.63579E-14
 -1      1654 2.00000E+01-1.05029E-02-3.59870E-05 1.05771E-03-2.38812E-13 1.52493E-13
 -1      1655 1.99999E+01-9.21848E-03-2.00813E-06 1.01905E-03-2.76030E-13 1.98279E-13
 -1      1656 1.99999E+01-1.04015E-02-7.32513E-06 9.72234E-04-2.50267E-13-1.45092E-13
 -1      1657 2.00000E+01-9.30934E-03-3.01047E-05 1.65748E-03-1.10214E-13-4.65444E-13
 -1      1658 1.99998E+01-6.85790E-03 2.34563E-07 1.18793E-03-4.52834E-14-7.46314E-14
 -1      1659 1.99999E+01-8.27131E-03-7.06860E-06 1.16296E-03-2.22239E-13 3.23122E-13
 -1      1660 1.99999E+01-7.65798E-03-1.98757E-05 2.10064E-03-9.61332E-14 3.83788E-13
 -1      1661 1.99998E+01-4.38220E-03 6.47324E-06 1.20285E-03 1.73264E-14-1.12767E-13
 -1      1662 1.99998E+01-5.81937E-03-2.46269E-06 1.21009E-03 8.26215E-14-1.09196E-13
 -1      1663 1.99998E+01-5.70211E-03-4.37605E-06 2.30568E-03 1.27046E-13-8.65755E-14
 -1      1664 1.99997E+01-2.21236E-03 3.13912E-06 9.99050E-04-1.11761E-14 4.06876E-14
 -1      1665 1.99997E+01-3.39519E-03 8.14456E-06 1.05701E-03 2.48692E-15 6.54403E-14
 -1      1666 1.99997E+01-3.69138E-03 1.44850E-05 2.16987E-03 1.25106E-13-9.26707E-14
 -1      1667 1.99995E+01-8.93127E-04-1.68777E-05 7.94387E-04-1.63497E-13-5.17253E-14
 -1      1668 1.99995E+01-1.58267E-03 6.61018E-06 9.82491E-04-6.31333E-14-1.06804E-13
 -1      1669 1.99994E+01-2.06604E-03 3.61578E-05 1.89535E-03-6.75062E-14-4.63307E-14
 -1      1670 1.99989E+01-9.56381E-04 5.12321E-06 1.53278E-03-6.30720E-15 2.35207E-14
 -1      1671-6.25257E-01-1.45604E+01-1.65110E+00-9.69577E-01 1.22380E-12 7.89979E-13
 -1      1672-5.97845E-01-1.66179E+01-1.83692E+00 2.90547E-01 2.25986E-13 6.51534E-13
 -1      1673 1.49052E+00-7.97876E+00-1.16127E+00 6.38502E-01 2.26108E-12 1.54687E-12
 -1      1674 7.02990E-01-1.30837E+01-1.65811E+00 2.51008E-02 1.47637E-12 9.21790E-13
 -1      1675 7.07002E+00-5.57518E-01-5.42274E-01 4.54616E+00 2.87992E-12 2.22833E-12
 -1      1676 4.01143E+00-5.99215E+00-1.27424E+00 1.73124E+00 2.54419E-12 1.64418E-12
 -1      1677 1.73296E+01 4.82649E+00 1.58911E-01 9.58626E+00 2.59193E-12 2.71783E-12
 -1      1678 1.07210E+01 1.53047E+00-6.95077E-01 5.85010E+00 2.90257E-12 2.42151E-12
 -1      1679 3.27256E+01 5.44153E+00 9.05465E-01 1.15109E+01 1.68759E-12 2.11786E-12
 -1      1680 2.35024E+01 5.08378E+00 9.85398E-02 9.66735E+00 2.22722E-12 2.34834E-12
 -1      1681 4.63420E+01 4.94357E+00 1.59572E+00 9.96045E+00 1.07452E-12 1.44396E-12
 -1      1682 3.76248E+01 6.43706E+00 8.94582E-01 1.16489E+01 1.58618E-12 2.11209E-12
 -1      1683 5.41546E+01 3.59887E+00 1.83281E+00 3.45040E+00 6.69492E-13-1.79856E-13
 -1      1684 4.96566E+01 4.76306E+00 1.51615E+00 8.10742E+00 9.60731E-13 9.11160E-13
 -1      1685 5.35043E+01 3.99978E+00 1.71874E+00-4.70200E+00 1.01305E-12-1.99235E-12
 -1      1686 5.50124E+01 3.57735E+00 1.83840E+00 9.43964E-01 7.20535E-13-7.47874E-13
 -1      1687 4.40503E+01 5.77475E+00 1.23561E+00-1.04303E+01 1.79658E-12-3.33644E-12
 -1      1688 5.10525E+01 4.15003E+00 1.71510E+00-6.94287E+00 1.22163E-12-2.41884E-12
 -1      1689 3.08331E+01 6.90059E+00 6.20432E-01-1.21170E+01 2.78133E-12-4.00768E-12
 -1      1690 3.99350E+01 5.90847E+00 1.35078E+00-1.22347E+01 2.09388E-12-3.75622E-12
 -1      1691 1.74660E+01 4.78770E+00-1.74092E-01-8.93467E+00 3.39095E-12-3.67950E-12
 -1      1692 2.56296E+01 6.37041E+00 7.06051E-01-1.19508E+01 3.01925E-12-4.00968E-12
 -1      1693 7.66324E+00-1.08176E+00-9.16881E-01-4.12267E+00 3.38729E-12-2.69929E-12
 -1      1694 1.27037E+01 3.38284E+00-6.97591E-02-7.75225E+00 3.48432E-12-3.46101E-12
 -1      1695 2.54830E+00-9.12473E+00-1.44837E+00-8.62828E-01 2.25997E-12-1.61185E-12
 -1      1696 4.62988E+00-3.40307E+00-7.85255E-01-2.96552E+00 3.04401E-12-2.34712E-12
 -1      1697-6.02134E-02-1.53696E+01-1.83798E+00 1.67889E-01 7.46347E-13-8.80573E-13
 -1      1698 1.93670E-01-1.11066E+01-1.43915E+00 4.60647E-01 1.95421E-12-1.35650E-12
 -1      1699-7.54194E-01-1.70237E+01-1.89082E+00-6.75349E-01-9.23567E-13-6.73739E-13
 -1      1700-7.66757E-01-1.65025E+01-1.84654E+00 9.05464E-01 2.50411E-13-6.65634E-13
 -1      1701-2.04722E-01-1.27748E+01-1.55406E+00-7.77075E-01-2.46003E-12-1.25977E-12
 -1      1702-3.19146E-01-1.62445E+01-1.86874E+00-1.50686E-02-1.40710E-12-8.07632E-13
 -1      1703 2.49663E+00-5.68176E+00-1.05440E+00 1.34542E+00-3.62110E-12-2.36744E-12
 -1      1704 1.23014E+00-1.11763E+01-1.66878E+00-2.19169E-02-2.87537E-12-1.60634E-12
 -1      1705 1.03876E+01 1.34743E+00-2.69338E-01 6.39710E+00-3.76832E-12-3.28138E-12
 -1      1706 6.08911E+00-3.78701E+00-1.09915E+00 2.97381E+00-3.61333E-12-2.59237E-12
 -1      1707 2.18475E+01 5.98011E+00 5.14818E-01 1.10897E+01-3.38851E-12-3.93907E-12
 -1      1708 1.42901E+01 3.49072E+00-4.14585E-01 7.61284E+00-3.85780E-12-3.62332E-12
 -1      1709 3.66784E+01 6.08801E+00 1.21571E+00 1.23875E+01-2.29927E-12-3.48011E-12
 -1      1710 2.73217E+01 6.43035E+00 3.91270E-01 1.13217E+01-3.01636E-12-3.86824E-12
 -1      1711 4.89965E+01 4.65647E+00 1.74475E+00 9.37444E+00-1.38297E-12-2.27207E-12
 -1      1712 4.14199E+01 6.24995E+00 1.17205E+00 1.17235E+01-2.05086E-12-3.20433E-12
 -1      1713 5.53095E+01 3.45130E+00 1.93761E+00 2.48725E+00-7.83595E-13-7.44405E-13
 -1      1714 5.18862E+01 4.43447E+00 1.71189E+00 7.34594E+00-1.06520E-12-1.81544E-12
 -1      1715 5.36928E+01 3.91669E+00 1.78244E+00-5.18241E+00-6.85119E-13 7.01439E-13
 -1      1716 5.56829E+01 3.40482E+00 1.93651E+00-6.60200E-02-6.27887E-13-2.26499E-13
 -1      1717 4.47774E+01 5.69972E+00 1.31841E+00-1.07357E+01-1.12167E-12 1.82410E-12
 -1      1718 5.15062E+01 4.14841E+00 1.82936E+00-7.47684E+00-7.31290E-13 1.12732E-12
 -1      1719 3.12064E+01 6.34480E+00 5.71713E-01-1.13568E+01-1.92862E-12 2.42961E-12
 -1      1720 4.02766E+01 5.50452E+00 1.31045E+00-1.14177E+01-1.42175E-12 2.02283E-12
 -1      1721 1.81618E+01 4.90923E+00-1.49512E-01-9.10247E+00-2.27107E-12 2.55174E-12
 -1      1722 2.59609E+01 6.23000E+00 6.81132E-01-1.17989E+01-2.02705E-12 2.77378E-12
 -1      1723 8.76417E+00-1.03448E+00-8.46297E-01-4.46827E+00-2.21689E-12 1.75615E-12
 -1      1724 1.41012E+01 3.07250E+00-3.08798E-02-8.01785E+00-2.18825E-12 2.25253E-12
 -1      1725 2.64495E+00-7.82538E+00-1.44236E+00-8.39045E-01-1.97398E-12 1.21364E-12
 -1      1726 4.68177E+00-2.67099E+00-8.15805E-01-3.01004E+00-2.30371E-12 1.62614E-12
 -1      1727 1.98079E-01-1.42688E+01-1.87071E+00 7.01845E-01-1.35669E-12 6.56985E-13
 -1      1728 5.46445E-01-9.59966E+00-1.43054E+00 5.33775E-01-1.94111E-12 1.04680E-12
 -1      1729 4.28527E+00-7.95816E+00-1.00623E+00-3.77398E+00-9.19931E-13 1.07071E-12
 -1      1730-5.81051E-01-1.69389E+01-1.86733E+00-2.54116E-01-2.22877E-14 5.27856E-13
 -1      1731-6.86180E-01-1.54188E+01-1.78146E+00 1.01590E+00-8.93341E-13 5.61801E-13
 -1      1732 2.51710E+01 6.10583E-01 3.39868E-01 6.99803E+00 1.44218E-12 1.12921E-12
 -1      1733 1.41209E+01-3.10032E+00-3.59984E-01 6.32922E+00 1.53078E-12 1.47593E-12
 -1      1734 1.99996E+01-2.82786E-04 2.76547E-05-3.19320E-04-4.87254E-14 4.09177E-14
 -1      1735 1.99993E+01-7.64187E-04 1.56972E-05-9.50976E-04 7.06113E-14 1.41373E-13
 -1      1736 6.24930E-01-9.98970E+00-1.12495E+00 2.42326E+00 6.21836E-13 1.25272E-12
 -1      1737 6.07672E+00-7.16559E+00-8.22114E-01 4.60347E+00 1.10678E-12 1.40361E-12
 -1      1738-1.36028E+00-1.15511E+01-1.32243E+00 1.08599E-01 1.33948E-13 9.95648E-13
 -1      1739 3.50511E+01 3.48639E+00 6.84225E-01 5.64016E+00 1.29313E-12 8.22342E-13
 -1      1740 4.31545E+01 6.40431E+00 1.31179E+00 4.21159E+00 1.34989E-12 3.29514E-13
 -1      1741 4.69876E+01 7.33126E+00 1.53293E+00 8.80729E-01 1.34431E-12-5.00905E-13
 -1      1742 4.53903E+01 7.18051E+00 1.43218E+00-2.51642E+00 1.56852E-12-1.29297E-12
 -1      1743 3.98122E+01 5.61051E+00 1.16247E+00-5.73027E+00 1.73957E-12-1.97720E-12
 -1      1744 3.06890E+01 3.12363E+00 6.51239E-01-7.56673E+00 1.96287E-12-2.41707E-12
 -1      1745 2.01393E+01-4.25314E-01 1.13931E-02-7.25453E+00 2.02682E-12-2.46747E-12
 -1      1746 1.08285E+01-4.84407E+00-5.71260E-01-5.77915E+00 1.61138E-12-2.06057E-12
 -1      1747 3.67732E+00-8.51964E+00-9.54364E-01-3.89007E+00 9.78773E-13-1.75032E-12
 -1      1748-6.64284E-01-1.12051E+01-1.29816E+00-1.41778E+00 2.33591E-13-1.47521E-12
 -1      1749-1.09310E+00-1.15559E+01-1.33688E+00 8.48410E-01-7.11819E-13-1.36063E-12
 -1      1750 1.90138E+00-9.54923E+00-1.13501E+00 2.99673E+00-1.47049E-12-1.70858E-12
 -1      1751 8.63361E+00-6.06987E+00-6.73499E-01 5.34969E+00-1.96343E-12-2.07798E-12
 -1      1752 1.76683E+01-2.00942E+00-1.73486E-01 6.84643E+00-2.21456E-12-2.28306E-12
 -1      1753 2.80705E+01 2.13738E+00 4.92122E-01 7.46872E+00-2.24598E-12-2.28184E-12
 -1      1754 3.78300E+01 4.96043E+00 1.03353E+00 6.38333E+00-2.02686E-12-1.91336E-12
 -1      1755 4.50101E+01 6.64412E+00 1.45158E+00 4.14386E+00-1.68024E-12-1.29130E-12
 -1      1756 4.79841E+01 7.17573E+00 1.61523E+00 6.19899E-01-1.27881E-12-5.77080E-13
 -1      1757 4.62298E+01 6.92960E+00 1.52760E+00-2.98762E+00-1.07581E-12 2.60181E-13
 -1      1758 3.99055E+01 5.34629E+00 1.09990E+00-5.32836E+00-1.25779E-12 7.53397E-13
 -1      1759 3.10520E+01 2.90226E+00 6.37345E-01-6.99339E+00-1.22502E-12 1.17739E-12
 -1      1760 2.10486E+01-6.52741E-01 3.04078E-02-7.04548E+00-1.04228E-12 1.38956E-12
 -1      1761 1.18373E+01-4.42364E+00-4.55582E-01-5.93307E+00-9.96869E-13 1.15308E-12
 -1      1762 2.36120E+01 1.95249E+00-2.72489E-02-2.38608E+00-4.27696E-13 1.61149E-12
 -1      1763 1.93725E-02-1.10584E+01-1.33104E+00-1.60245E+00-4.64961E-13 9.53931E-13
 -1      1764 2.02270E+01 3.78911E+00-3.82677E-02-1.48517E+00-5.20520E-13-6.63143E-13
 -1      1765 2.06335E+01 3.61600E+00-3.74003E-02-1.78466E+00-6.05200E-13-4.87096E-13
 -1      1766 2.10938E+01 3.18593E+00-4.69704E-02-1.97231E+00-6.18317E-13-2.55893E-13
 -1      1767 2.14420E+01 2.79171E+00-1.31643E-01-2.27920E+00-6.64933E-13 6.29982E-14
 -1      1768 2.11180E+01 2.72806E+00-3.04510E-04-1.55524E+00-6.49373E-13-3.28803E-13
 -1      1769 1.90000E+01 4.39420E+00-2.16810E-02-6.89609E-01-2.69052E-13-9.78179E-13
 -1      1770 1.92589E+01 4.34787E+00-1.18294E-02-8.70646E-01-3.35184E-13-9.44914E-13
 -1      1771 1.85778E+01 4.55613E+00-1.67063E-02-4.14097E-01-1.38795E-13-1.00774E-12
 -1      1772 1.87753E+01 4.52769E+00-8.62117E-03-5.55222E-01-2.03680E-13-1.00078E-12
 -1      1773 1.90337E+01 4.10067E+00-6.71757E-03-5.46271E-01-2.59044E-13-9.49103E-13
 -1      1774 1.82982E+01 4.65811E+00-1.29549E-02-2.02800E-01-1.51862E-14-1.00485E-12
 -1      1775 1.84211E+01 4.64262E+00-7.78170E-03-3.14189E-01-7.09190E-14-1.00913E-12
 -1      1776 1.86137E+01 4.29855E+00-5.56009E-03-3.15728E-01-1.10418E-13-9.68744E-13
 -1      1777 1.81772E+01 4.70530E+00-1.01529E-02-2.93000E-02 1.02773E-13-9.85381E-13
 -1      1778 1.82179E+01 4.70050E+00-8.50501E-03-1.25550E-01 4.67625E-14-1.00043E-12
 -1      1779 1.83529E+01 4.41419E+00-4.73251E-03-1.40425E-01 1.69733E-14-9.69920E-13
 -1      1780 1.82232E+01 4.69847E+00-8.30537E-03 1.36937E-01 2.16972E-13-9.46772E-13
 -1      1781 1.81788E+01 4.70387E+00-1.03734E-02 4.03410E-02 1.63078E-13-9.72749E-13
 -1      1782 1.82669E+01 4.45083E+00-4.45112E-03 5.33723E-03 1.43780E-13-9.51586E-13
 -1      1783 1.84329E+01 4.63669E+00-7.70032E-03 3.27448E-01 3.26799E-13-8.94429E-13
 -1      1784 1.83067E+01 4.65321E+00-1.31426E-02 2.15035E-01 2.73606E-13-9.26721E-13
 -1      1785 1.83617E+01 4.40871E+00-4.83494E-03 1.51953E-01 2.58488E-13-9.07278E-13
 -1      1786 1.87857E+01 4.52001E+00-8.62194E-03 5.66991E-01 4.32202E-13-7.96148E-13
 -1      1787 1.85894E+01 4.54884E+00-1.68610E-02 4.27050E-01 3.78827E-13-8.56702E-13
 -1      1788 1.86279E+01 4.28891E+00-5.61622E-03 3.27890E-01 3.80950E-13-8.41400E-13
 -1      1789 1.92770E+01 4.33416E+00-1.19560E-02 8.88538E-01 5.63322E-13-6.40226E-13
 -1      1790 1.90118E+01 4.38353E+00-2.19904E-02 7.02687E-01 4.92344E-13-7.26905E-13
 -1      1791 1.90500E+01 4.08737E+00-6.79862E-03 5.59223E-01 4.90641E-13-7.23696E-13
 -1      1792 1.98951E+01 4.04873E+00-2.02666E-02 1.30670E+00 6.64226E-13-4.02858E-13
 -1      1793 1.95653E+01 4.13595E+00-2.95934E-02 1.06411E+00 6.03419E-13-5.52842E-13
 -1      1794 1.96178E+01 3.78671E+00-7.32599E-03 8.62814E-01 6.18297E-13-5.58905E-13
 -1      1795 2.06647E+01 3.57479E+00-3.99115E-02 1.81843E+00 7.29474E-13 1.57444E-14
 -1      1796 2.02509E+01 3.75241E+00-4.21439E-02 1.51327E+00 6.82697E-13-2.31926E-13
 -1      1797 2.03258E+01 3.34552E+00-4.64742E-03 1.23054E+00 7.05935E-13-2.74199E-13
 -1      1798 2.17590E+01 2.66645E+00-5.22016E-02 2.29389E+00 6.94391E-13 7.56686E-13
 -1      1799 2.11480E+01 3.10287E+00-5.08254E-02 2.00384E+00 7.02614E-13 3.20785E-13
 -1      1800 2.12013E+01 2.64475E+00 3.43594E-03 1.58260E+00 7.31065E-13 1.81230E-13
 -1      1801 2.26430E+01 1.18259E+00-1.18081E-01 1.89181E+00 5.75415E-13 1.61571E-12
 -1      1802 2.21633E+01 2.23049E+00-9.70775E-04 2.23113E+00 6.37443E-13 1.05242E-12
 -1      1803 2.18711E+01 1.67475E+00-1.71220E-02 1.56828E+00 7.11948E-13 7.41698E-13
 -1      1804 2.20247E+01 7.62867E-01-5.46682E-02 1.08651E+00 5.76567E-13 1.42637E-12
 -1      1805 2.26692E+01 2.40987E+00 8.50489E-02-2.57545E+00-5.79025E-13 6.26083E-13
 -1      1806 2.14884E+01 3.08983E-01-3.80812E-03 2.12925E-01 4.79158E-13 1.12998E-12
 -1      1807 2.18490E+01 4.41775E-01-9.59959E-03 5.97705E-01 4.93251E-13 1.31048E-12
 -1      1808 2.18585E+01 8.36047E-01-1.08886E-03 8.88559E-01 5.95343E-13 9.19625E-13
 -1      1809 1.35813E+00-7.41592E+00-4.14567E-01-2.56159E+00 9.57290E-14 8.67584E-13
 -1      1810 3.16267E+00-6.87738E+00-3.52434E-01-3.80319E+00-2.58127E-13 8.19039E-13
 -1      1811 2.24105E+01 1.71983E+00 7.72749E-02-1.81264E+00-6.20070E-13 4.07445E-13
 -1      1812 2.17534E+01 5.17567E-01 3.33836E-02-3.94709E-01-5.01196E-13 3.35451E-13
 -1      1813 2.15148E+01 3.83114E-01 1.29376E-02-9.02723E-02-4.26725E-13 2.13608E-13
 -1      1814 2.14479E+01 2.95440E-01 2.73711E-02 1.79890E-01-3.65495E-13 1.99209E-13
 -1      1815 2.14647E+01 2.20121E-01 1.35353E-02 3.40229E-01-3.25112E-13 9.47844E-14
 -1      1816 2.14761E+01 5.32344E-01-9.11533E-03-2.46604E-02-4.68462E-13-2.12018E-14
 -1      1817 2.14952E+01 1.71547E-01 1.64278E-02 5.05464E-01-2.87996E-13 9.62936E-14
 -1      1818 2.16394E+01 1.22602E-01 7.72398E-03 5.95228E-01-2.35467E-13 2.92631E-14
 -1      1819 2.14377E+01 3.00647E-01-8.38971E-03 4.73633E-01-3.56025E-13-5.57388E-14
 -1      1820 2.17486E+01 8.17581E-02 8.57694E-03 6.86116E-01-1.85366E-13 3.65766E-14
 -1      1821 2.19589E+01 3.34231E-02 1.23552E-03 7.21110E-01-1.28784E-13-4.43786E-15
 -1      1822 2.15835E+01 1.52122E-01-7.16562E-03 7.67361E-01-2.49551E-13-6.72474E-14
 -1      1823 2.21248E+01-1.35903E-02 4.09889E-03 7.41473E-01-1.02612E-13 1.30022E-14
 -1      1824 2.23484E+01-7.38635E-02-5.76372E-03 7.16373E-01-9.25820E-14-3.97980E-14
 -1      1825 2.18615E+01 9.50805E-03-5.80601E-03 8.99693E-01-1.44447E-13-8.84199E-14
 -1      1826 2.25485E+01-1.33580E-01 1.53948E-03 6.53903E-01-9.76476E-14 4.49250E-15
 -1      1827 2.27319E+01-2.09237E-01-1.32273E-02 5.54666E-01-1.00721E-13-3.98006E-14
 -1      1828 2.22254E+01-1.63008E-01-4.12383E-03 8.63018E-01-1.02721E-13-9.29751E-14
 -1      1829 2.29397E+01-2.79091E-01-2.50146E-04 3.91783E-01-8.96123E-14 2.05539E-14
 -1      1830 2.30267E+01-3.59390E-01-1.95231E-02 2.08121E-01-7.45723E-14 2.26426E-14
 -1      1831 2.26261E+01-3.72583E-01-1.68868E-03 6.25188E-01-7.55533E-14-1.85260E-14
 -1      1832 2.32032E+01-4.21050E-01-2.24474E-03-6.05748E-02-6.06364E-14 7.57389E-14
 -1      1833 2.31438E+01-4.73401E-01-2.11119E-02-3.16098E-01-3.03672E-14 1.06840E-13
 -1      1834 2.30009E+01-5.85234E-01 2.36860E-03 1.59175E-01-4.04607E-14 4.03207E-14
 -1      1835 2.32333E+01-4.87936E-01-5.58693E-03-6.55982E-01-5.96034E-14 1.09446E-13
 -1      1836 2.30059E+01-4.59394E-01-1.40310E-02-9.25226E-01-3.92741E-14 5.23158E-14
 -1      1837 2.32615E+01-7.07886E-01 8.48461E-03-5.08862E-01-6.03727E-14 1.14121E-13
 -1      1838 2.29481E+01-3.77569E-01-1.05088E-02-1.23280E+00-6.72700E-14 3.60285E-14
 -1      1839 2.25876E+01-2.24423E-01 2.04145E-03-1.40359E+00-1.54777E-13-5.71661E-14
 -1      1840 2.32990E+01-5.99700E-01 1.41047E-02-1.23607E+00-9.58708E-14 9.32952E-14
 -1      1841 2.23673E+01-2.86913E-02-1.36571E-02-1.51267E+00-1.91043E-13-8.93539E-14
 -1      1842 2.19782E+01 2.22967E-01 1.89475E-02-1.45772E+00-1.83808E-13-1.46671E-13
 -1      1843 2.30375E+01-1.61068E-01 1.18344E-02-1.72689E+00-2.21702E-13 2.66545E-14
 -1      1844 2.16920E+01 4.62506E-01-8.95412E-03-1.22909E+00-1.75998E-13-2.48232E-13
 -1      1845 2.14233E+01 6.84532E-01 2.36635E-02-9.03231E-01-1.85379E-13-2.80487E-13
 -1      1846 2.25473E+01 5.17237E-01-3.22206E-03-1.62321E+00-2.53974E-13-9.31334E-14
 -1      1847 2.12644E+01 8.20522E-01 5.37961E-03-3.70445E-01-1.81600E-13-4.10692E-13
 -1      1848 2.12372E+01 8.60574E-01 1.18081E-02 1.07880E-01-2.17515E-13-3.99986E-13
 -1      1849 2.21090E+01 1.09333E+00-2.37602E-02-7.77420E-01-2.54552E-13-2.47890E-13
 -1      1850 2.13383E+01 7.91404E-01 2.05416E-02 6.95692E-01-2.19404E-13-4.39184E-13
 -1      1851 2.15735E+01 6.19890E-01-4.37897E-03 1.09687E+00-1.80503E-13-4.67950E-13
 -1      1852 2.20522E+01 1.19505E+00-2.82997E-02 4.94471E-01-2.73998E-13-4.86891E-13
 -1      1853 2.18647E+01 3.99437E-01 2.23486E-02 1.44818E+00-1.62469E-13-5.26999E-13
 -1      1854 2.22702E+01 1.40701E-01-1.23252E-02 1.60131E+00-1.32351E-13-5.79033E-13
 -1      1855 2.24414E+01 7.53156E-01-1.07535E-02 1.54981E+00-2.07103E-13-4.84579E-13
 -1      1856 2.25567E+01-8.28592E-02 8.37893E-03 1.60194E+00-1.70097E-13-6.82633E-13
 -1      1857 2.29845E+01-2.77657E-01-1.12519E-02 1.49959E+00-1.14938E-13-7.28095E-13
 -1      1858 2.30069E+01 6.71857E-02 9.11560E-03 1.91873E+00-2.25005E-13-6.04981E-13
 -1      1859 2.31265E+01-4.00747E-01-9.70877E-03 1.24339E+00-7.81077E-14-7.26828E-13
 -1      1860 2.34506E+01-4.69776E-01-6.89447E-03 9.96116E-01-3.68022E-14-7.08568E-13
 -1      1861 2.34183E+01-4.78265E-01 1.50053E-02 1.60279E+00-9.77655E-14-6.78750E-13
 -1      1862 2.34296E+01-4.84316E-01-2.05082E-02 6.53602E-01-2.59254E-15-6.64596E-13
 -1      1863 2.35900E+01-4.54483E-01-3.20054E-03 3.85722E-01 7.16042E-14-6.95763E-13
 -1      1864 2.35304E+01-6.96925E-01 1.10546E-02 9.21781E-01 1.83187E-14-5.30759E-13
 -1      1865 2.34562E+01-4.05660E-01-2.17780E-02 8.46882E-02 1.00842E-13-6.49308E-13
 -1      1866 2.34556E+01-3.32709E-01-1.35946E-03-1.27647E-01 1.50002E-13-6.44909E-13
 -1      1867 2.33793E+01-6.41266E-01 4.95312E-03 2.09607E-01 9.48304E-14-5.61045E-13
 -1      1868 2.32660E+01-2.66332E-01-1.70504E-02-3.33897E-01 1.35726E-13-6.46698E-13
 -1      1869 2.31434E+01-1.91994E-01-5.64941E-04-4.67112E-01 1.07266E-13-5.75391E-13
 -1      1870 2.30668E+01-4.54212E-01 7.45334E-04-3.42724E-01 1.51687E-13-5.50962E-13
 -1      1871 2.29370E+01-1.34137E-01-1.04420E-02-5.77798E-01 8.80567E-14-4.77320E-13
 -1      1872 2.27405E+01-7.72304E-02-9.78936E-05-6.40264E-01 1.72922E-13-4.34985E-13
 -1      1873 2.26818E+01-2.52367E-01-1.34452E-03-6.83723E-01 1.49594E-13-3.46848E-13
 -1      1874 2.25390E+01-3.64547E-02-4.49453E-03-6.77331E-01 1.94066E-13-4.18606E-13
 -1      1875 2.23108E+01-1.92960E-04 3.33651E-04-6.89082E-01 1.99070E-13-3.56976E-13
 -1      1876 2.22812E+01-9.24604E-02-2.18063E-03-8.40072E-01 1.96947E-13-3.60803E-13
 -1      1877 2.21249E+01 2.43191E-02-1.76762E-04-6.78272E-01 1.55635E-13-3.88572E-13
 -1      1878 2.18952E+01 4.36428E-02 7.35907E-04-6.59250E-01 1.37476E-13-3.28556E-13
 -1      1879 2.18968E+01 1.26824E-02-2.44641E-03-8.64647E-01 1.88303E-13-3.83454E-13
 -1      1880 2.17298E+01 5.59710E-02 2.46920E-03-6.21907E-01 6.23468E-14-3.92250E-13
 -1      1881 2.15173E+01 6.36548E-02 1.04791E-03-5.87424E-01 2.05237E-14-4.12567E-13
 -1      1882 2.15456E+01 7.11067E-02-2.48199E-03-8.08685E-01 6.22514E-14-3.87879E-13
 -1      1883 2.13743E+01 6.80344E-02 3.79079E-03-5.38540E-01 1.71139E-14-3.63556E-13
 -1      1884 2.11884E+01 6.86621E-02 1.23423E-03-4.98740E-01 5.40694E-14-3.18805E-13
 -1      1885 2.12357E+01 9.65611E-02-2.41252E-03-7.11559E-01 8.15433E-14-3.59968E-13
 -1      1886 2.10675E+01 6.83924E-02 4.20912E-03-4.47708E-01 9.16585E-14-1.65661E-13
 -1      1887 2.09114E+01 6.52439E-02 1.29776E-03-4.08569E-01 1.11893E-13-1.26329E-13
 -1      1888 2.09698E+01 1.01528E-01-2.27546E-03-5.99724E-01 1.38267E-13-1.45669E-13
 -1      1889 2.08116E+01 6.25658E-02 4.08170E-03-3.60667E-01 9.88443E-14-1.01691E-13
 -1      1890 2.06845E+01 5.77436E-02 1.26408E-03-3.25284E-01 6.81447E-14-6.56836E-14
 -1      1891 2.07472E+01 9.51766E-02-2.08715E-03-4.89150E-01 1.47618E-13-1.81097E-13
 -1      1892 2.06037E+01 5.40518E-02 3.66721E-03-2.83061E-01-1.07574E-13-1.30190E-13
 -1      1893 2.05030E+01 4.87954E-02 1.16542E-03-2.52716E-01-2.06186E-13-2.22710E-13
 -1      1894 2.05648E+01 8.35036E-02-1.86341E-03-3.88400E-01-8.60999E-14-1.55695E-13
 -1      1895 2.04387E+01 4.48970E-02 3.13436E-03-2.17046E-01-1.48485E-13-3.64852E-14
 -1      1896 2.03608E+01 3.98769E-02 1.03084E-03-1.91968E-01 4.83478E-15-5.92302E-14
 -1      1897 2.04184E+01 7.01117E-02-1.62156E-03-3.01245E-01-2.95183E-14-6.52303E-14
 -1      1898 2.03107E+01 3.62022E-02 2.58401E-03-1.62770E-01 2.72512E-14-3.60446E-14
 -1      1899 2.02517E+01 3.17384E-02 8.82550E-04-1.42625E-01 5.44425E-14-5.31496E-15
 -1      1900 2.03032E+01 5.69983E-02-1.37787E-03-2.28576E-01 3.95804E-15 5.50296E-14
 -1      1901 2.02134E+01 2.84885E-02 2.07083E-03-1.19325E-01 9.97974E-14 4.02808E-14
 -1      1902 2.01697E+01 2.46963E-02 7.35658E-04-1.03522E-01 1.05467E-13 7.42603E-14
 -1      1903 2.02142E+01 4.51564E-02-1.14532E-03-1.69685E-01 1.01673E-13 1.08887E-13
 -1      1904 2.01409E+01 2.19400E-02 1.62033E-03-8.53339E-02 7.87572E-14 1.34219E-13
 -1      1905 2.01093E+01 1.88220E-02 5.99408E-04-7.31972E-02 1.32770E-13 2.04706E-13
 -1      1906 2.01467E+01 3.49845E-02-9.32794E-04-1.23076E-01 1.45665E-13 2.14461E-13
 -1      1907 2.00882E+01 1.65549E-02 1.24061E-03-5.92852E-02-4.56745E-14 1.32094E-13
 -1      1908 2.00659E+01 1.40565E-02 4.78669E-04-5.01520E-02-7.13426E-14-6.59061E-14
 -1      1909 2.00966E+01 2.65477E-02-7.45272E-04-8.69590E-02-3.71527E-14 8.04863E-14
 -1      1910 2.00507E+01 1.22370E-02 9.30115E-04-3.97208E-02-8.60336E-14-1.11046E-13
 -1      1911 2.00356E+01 1.02791E-02 3.75299E-04-3.29882E-02-1.53301E-13-1.00871E-14
 -1      1912 2.00602E+01 1.97366E-02-5.84598E-04-5.95253E-02-1.28227E-13 9.26943E-14
 -1      1913 2.00250E+01 8.84970E-03 6.82388E-04-2.53260E-02-1.80290E-13 3.98904E-14
 -1      1914 2.00151E+01 7.34632E-03 2.89216E-04-2.04715E-02-6.55862E-14-1.04505E-14
 -1      1915 2.00345E+01 1.43618E-02-4.50345E-04-3.90994E-02-6.36361E-14 1.45063E-13
 -1      1916 2.00080E+01 6.24546E-03 4.88926E-04-1.49674E-02 6.06060E-14 5.59185E-14
 -1      1917 2.00019E+01 5.11404E-03 2.19180E-04-1.15528E-02 2.26091E-14 1.63303E-13
 -1      1918 2.00168E+01 1.02068E-02-3.40621E-04-2.42072E-02 8.25025E-15 2.08321E-13
 -1      1919 1.99973E+01 4.28242E-03 3.40807E-04-7.69797E-03-9.67089E-14 1.12394E-13
 -1      1920 1.99940E+01 3.44830E-03 1.63328E-04-5.36617E-03-6.29877E-14 7.54982E-14
 -1      1921 2.00052E+01 7.05782E-03-2.52714E-04-1.35980E-02-3.80225E-14 1.32921E-13
 -1      1922 1.99913E+01 2.83215E-03 2.29570E-04-2.74756E-03-1.12763E-13 1.79972E-13
 -1      1923 1.99898E+01 2.23039E-03 1.19518E-04-1.21370E-03-1.46814E-13 2.77774E-14
 -1      1924 1.99980E+01 4.71847E-03-1.83564E-04-6.24026E-03-2.81410E-14 7.34291E-14
 -1      1925 1.99884E+01 1.78266E-03 1.47638E-04 4.96086E-04-1.92227E-13 5.32141E-15
 -1      1926 1.99882E+01 1.35811E-03 8.55345E-05 1.45369E-03-1.92986E-13-4.86226E-14
 -1      1927 1.99940E+01 3.01579E-03-1.30085E-04-1.30421E-03-2.06657E-13 2.14809E-13
 -1      1928 1.99877E+01 1.03846E-03 8.84780E-05 2.50787E-03-1.20191E-13-1.22576E-13
 -1      1929 1.99883E+01 7.44838E-04 5.91957E-05 3.05710E-03 6.77048E-14-5.25229E-14
 -1      1930 1.99921E+01 1.80146E-03-8.93612E-05 1.86208E-03-1.53091E-13 1.85306E-13
 -1      1931 1.99884E+01 5.18974E-04 4.66230E-05 3.64567E-03 1.63952E-13-1.63531E-13
 -1      1932 1.99894E+01 3.17406E-04 3.84086E-05 3.90890E-03 2.00831E-13-4.79680E-14
 -1      1933 1.99918E+01 9.49968E-04-5.87737E-05 3.75709E-03 8.57254E-14 1.45593E-13
 -1      1934 1.99899E+01 1.55902E-04 1.76490E-05 4.16826E-03 2.56875E-13-1.12804E-13
 -1      1935 1.99912E+01 1.31015E-05 2.12448E-05 4.22906E-03 3.75748E-13 6.15120E-14
 -1      1936 1.99924E+01 3.55031E-04-3.60622E-05 4.74878E-03 3.23461E-13-3.03275E-14
 -1      1937 1.99918E+01-1.09991E-04-1.78816E-06 4.24999E-03 2.57745E-13 9.09911E-14
 -1      1938 1.99931E+01-2.23490E-04 6.14991E-06 4.15805E-03 1.60737E-13-3.53554E-14
 -1      1939 1.99935E+01-7.49626E-05-1.93648E-05 5.09440E-03 3.16454E-13-1.38329E-13
 -1      1940 1.99939E+01-3.31629E-04-1.38490E-05 3.99246E-03-4.22459E-14-3.38994E-14
 -1      1941 1.99951E+01-4.41506E-04-6.73296E-06 3.76710E-03-1.47849E-13-2.58213E-14
 -1      1942 1.99949E+01-4.20755E-04-7.12606E-06 4.95732E-03 7.32461E-14-1.48261E-13
 -1      1943 1.99958E+01-5.59676E-04-2.01915E-05 3.43935E-03 2.02595E-14 2.13685E-14
 -1      1944 1.99969E+01-6.83798E-04-1.70007E-05 3.07247E-03 1.65082E-13 1.09013E-13
 -1      1945 1.99963E+01-7.50426E-04 1.03728E-06 4.42372E-03-5.35651E-14 1.30856E-13
 -1      1946 1.99975E+01-7.82554E-04-1.93603E-05 2.61213E-03 2.44420E-13 1.36220E-13
 -1      1947 1.99983E+01-9.17509E-04-2.68028E-05 2.11188E-03 2.66082E-13 1.97447E-13
 -1      1948 1.99986E+01-1.33544E-03 6.75443E-06 2.45891E-03 6.10503E-14 6.31457E-14
 -1      1949 1.99976E+01-1.08545E-03 9.59921E-06 3.56043E-03 1.84491E-13 1.26142E-13
 -1      1950 2.13645E+01 1.66821E-01 1.06923E-02-2.19748E-01 3.47673E-13 9.08350E-13
 -1      1951 2.14288E+01 2.25309E-01 1.79293E-02-2.61757E-02 3.88863E-13 1.04612E-12
 -1      1952 2.15028E+01 3.71248E-01-4.61970E-03 9.02297E-02 4.78267E-13 7.36562E-13
 -1      1953 2.15214E+01 9.55774E-02 8.09203E-03-4.66978E-01 2.52479E-13 7.38711E-13
 -1      1954 2.14123E+01 1.28644E-01 1.48642E-02-3.53856E-01 2.85950E-13 8.56494E-13
 -1      1955 2.14434E+01 1.97289E-01-5.05477E-03-3.61293E-01 3.57095E-13 6.18713E-13
 -1      1956 2.18593E+01 4.02838E-02 3.51149E-03-5.99222E-01 1.61068E-13 6.33160E-13
 -1      1957 2.16547E+01 6.75467E-02 8.17404E-03-5.35919E-01 1.73437E-13 6.80140E-13
 -1      1958 2.16154E+01 1.00682E-01-5.72352E-03-6.20291E-01 2.44863E-13 4.87312E-13
 -1      1959 2.22884E+01-2.22207E-02-9.06393E-04-6.26492E-01 9.32444E-14 5.32952E-13
 -1      1960 2.20451E+01 7.89049E-03 2.88242E-03-6.11028E-01 1.30269E-13 6.10189E-13
 -1      1961 2.19346E+01 1.58369E-02-5.34559E-03-7.39934E-01 1.68205E-13 4.03472E-13
 -1      1962 2.27209E+01-1.02478E-01-5.14320E-03-5.29481E-01 1.00628E-13 4.29235E-13
 -1      1963 2.24927E+01-6.63463E-02-1.17061E-03-5.73323E-01 6.49450E-14 4.96925E-13
 -1      1964 2.23279E+01-8.48973E-02-3.80660E-03-7.19972E-01 1.10977E-13 3.10640E-13
 -1      1965 2.30603E+01-1.98132E-01-8.41942E-03-2.79636E-01 6.96622E-14 4.51132E-13
 -1      1966 2.29051E+01-1.59393E-01-4.47764E-03-3.98423E-01 7.80452E-14 4.45272E-13
 -1      1967 2.27218E+01-2.09754E-01-1.01545E-03-5.34457E-01 8.97407E-14 2.91460E-13
 -1      1968 2.32018E+01-2.85727E-01-8.99996E-03 1.33053E-01 7.73756E-14 4.22276E-13
 -1      1969 2.31789E+01-2.57985E-01-6.95388E-03-6.68389E-02 5.70672E-14 4.63306E-13
 -1      1970 2.30329E+01-3.42955E-01 3.30530E-03-1.58725E-01 7.17551E-14 3.92943E-13
 -1      1971 2.30513E+01-3.14141E-01-5.35941E-03 6.58032E-01-8.93383E-15 5.24624E-13
 -1      1972 2.32047E+01-3.22186E-01-8.21619E-03 4.01534E-01 2.16927E-14 4.85614E-13
 -1      1973 2.31668E+01-4.33513E-01 8.77170E-03 3.91212E-01 1.93534E-14 4.37759E-13
 -1      1974 2.25663E+01-2.18341E-01 1.51558E-03 1.14251E+00-1.65510E-14 5.95007E-13
 -1      1975 2.28999E+01-2.87154E-01-7.56111E-03 9.05254E-01 6.15306E-15 5.66240E-13
 -1      1976 2.30353E+01-3.97927E-01 1.31203E-02 1.00761E+00-1.90585E-14 5.06778E-13
 -1      1977 2.18227E+01 2.64872E-02 6.00444E-03 1.34232E+00 7.57591E-14 5.09240E-13
 -1      1978 2.22718E+01-1.00427E-01-4.65018E-03 1.24360E+00 2.84928E-16 5.60914E-13
 -1      1979 2.26074E+01-1.64827E-01 1.18961E-02 1.46086E+00 1.34346E-14 4.36377E-13
 -1      1980 2.10605E+01 3.39363E-01 2.23828E-03 1.04481E+00 2.51603E-13 3.35329E-13
 -1      1981 2.14868E+01 2.08161E-01 5.03180E-04 1.18377E+00 1.68295E-13 4.09112E-13
 -1      1982 2.19871E+01 2.36664E-01 1.39096E-03 1.46222E+00 2.14300E-13 2.69394E-13
 -1      1983 2.06288E+01 5.39909E-01-7.46908E-03 2.67564E-01 2.83018E-13 2.32604E-13
 -1      1984 2.08612E+01 4.88691E-01 7.49005E-03 6.27400E-01 2.84144E-13 3.07089E-13
 -1      1985 2.14433E+01 6.25756E-01-1.33468E-02 8.55985E-01 3.23469E-13 2.28694E-13
 -1      1986 2.07824E+01 4.87394E-01-1.26030E-02-6.61616E-01 1.83884E-13 2.44041E-14
 -1      1987 2.07031E+01 5.57331E-01 1.29704E-02-2.39865E-01 2.34750E-13 1.04344E-13
 -1      1988 2.12868E+01 7.69110E-01-1.72556E-02-1.75285E-01 2.95639E-13 3.28557E-14
 -1      1989 2.14732E+01 2.20933E-01-7.79020E-03-1.30283E+00 2.05854E-13-2.90552E-13
 -1      1990 2.11013E+01 3.65455E-01 1.21007E-02-1.01623E+00 1.63610E-13-1.37237E-13
 -1      1991 2.16311E+01 5.65455E-01-8.00542E-03-1.15169E+00 2.64134E-13-2.24413E-13
 -1      1992 2.23805E+01-7.87852E-02 2.52878E-03-1.42303E+00 1.91391E-13-4.71918E-13
 -1      1993 2.18633E+01 5.04346E-02 4.54513E-03-1.36531E+00 2.23608E-13-3.73531E-13
 -1      1994 2.22898E+01 1.51841E-01 3.48499E-03-1.63303E+00 3.03464E-13-4.37438E-13
 -1      1995 2.31524E+01-2.63967E-01 9.90352E-03-1.10340E+00 8.63493E-14-4.84536E-13
 -1      1996 2.26715E+01-2.03272E-01-4.57426E-03-1.23347E+00 1.85592E-13-4.25134E-13
 -1      1997 2.29418E+01-2.29913E-01 6.75295E-03-1.51833E+00 1.99029E-13-5.18749E-13
 -1      1998 2.35932E+01-3.04205E-01 1.09208E-02-5.85608E-01-1.90092E-13-5.17399E-13
 -1      1999 2.32729E+01-3.09819E-01-1.06870E-02-7.99828E-01-9.49050E-14-4.92531E-13
 -1      2000 2.33616E+01-4.23881E-01 3.72892E-03-1.01145E+00-4.10965E-14-5.42297E-13
 -1      2001 2.36797E+01-2.48008E-01 7.64899E-03-8.89620E-02-5.52258E-14-5.65358E-13
 -1      2002 2.35576E+01-2.89308E-01-1.22901E-02-2.95721E-01-1.25240E-13-5.14492E-13
 -1      2003 2.34841E+01-4.28380E-01-5.78021E-04-3.96921E-01-1.22777E-13-5.96463E-13
 -1      2004 2.34906E+01-1.58988E-01 3.44759E-03 2.73336E-01 5.40505E-14-4.32460E-13
 -1      2005 2.35396E+01-2.06616E-01-1.04502E-02 1.20835E-01-1.31778E-14-5.14802E-13
 -1      2006 2.33561E+01-3.23361E-01-2.56989E-03 1.23063E-01-4.28867E-14-6.17912E-13
 -1      2007 2.31299E+01-7.75002E-02 2.84983E-04 4.81917E-01 1.84727E-13-4.15308E-13
 -1      2008 2.32956E+01-1.16002E-01-7.12922E-03 3.92276E-01 1.01053E-13-3.67014E-13
 -1      2009 2.30615E+01-1.92199E-01-2.56939E-03 4.69876E-01 7.98203E-14-3.74793E-13
 -1      2010 2.26883E+01-1.86302E-02-1.39631E-03 5.65230E-01-8.13585E-15-4.19018E-13
 -1      2011 2.29159E+01-4.39696E-02-3.74209E-03 5.27373E-01 1.66958E-13-3.46973E-13
 -1      2012 2.26782E+01-8.17007E-02-1.80985E-03 6.49015E-01 1.48443E-13-3.13488E-13
 -1      2013 2.22312E+01 1.72723E-02-1.94089E-03 5.64263E-01-9.08973E-14-4.55043E-13
 -1      2014 2.24780E+01 3.44995E-03-1.00031E-03 5.61683E-01-2.26793E-13-5.36301E-13
 -1      2015 2.22652E+01-6.10343E-03-1.05326E-03 7.01415E-01-9.80327E-14-3.28780E-13
 -1      2016 2.17996E+01 3.55016E-02-1.84711E-03 5.15164E-01-8.41352E-15-2.67785E-13
 -1      2017 2.20376E+01 2.98643E-02 8.77633E-04 5.33104E-01 6.15708E-15-3.26042E-13
 -1      2018 2.18626E+01 3.75253E-02-5.78804E-04 6.72823E-01-8.21154E-14-2.25448E-13
 -1      2019 2.14156E+01 4.20502E-02-1.48628E-03 4.44003E-01-2.46439E-14-2.99132E-13
 -1      2020 2.16293E+01 4.14797E-02 1.96283E-03 4.71698E-01 1.84293E-14-2.76065E-13
 -1      2021 2.14943E+01 5.78105E-02-3.74839E-04 6.00507E-01 1.24640E-14-1.58900E-13
 -1      2022 2.10882E+01 4.17310E-02-1.07237E-03 3.67300E-01-1.60256E-13-1.37599E-13
 -1      2023 2.12708E+01 4.39128E-02 2.44484E-03 3.97841E-01-1.04553E-13-1.82361E-13
 -1      2024 2.11721E+01 6.32699E-02-3.36841E-04 5.10318E-01-1.25357E-13-1.31308E-13
 -1      2025 2.08181E+01 3.78586E-02-7.04654E-04 2.94391E-01-1.51991E-13-1.68024E-13
 -1      2026 2.09685E+01 4.12778E-02 2.52392E-03 3.23808E-01-2.05429E-13-1.86027E-13
 -1      2027 2.09000E+01 6.03779E-02-3.69948E-04 4.18211E-01-1.62997E-13-2.18294E-13
 -1      2028 2.06011E+01 3.25037E-02-4.15738E-04 2.29831E-01 2.22987E-14-7.66548E-14
 -1      2029 2.07214E+01 3.62565E-02 2.36500E-03 2.56129E-01-6.85602E-14-8.17564E-14
 -1      2030 2.06766E+01 5.34395E-02-4.14246E-04 3.32946E-01-3.76773E-14-6.75659E-14
 -1      2031 2.04308E+01 2.68612E-02-2.06012E-04 1.75249E-01 1.89317E-13 1.41730E-14
 -1      2032 2.05247E+01 3.04549E-02 2.08639E-03 1.97657E-01 1.19541E-13 7.90459E-15
 -1      2033 2.04975E+01 4.50637E-02-4.41346E-04 2.58569E-01 8.60644E-14-3.40303E-14
 -1      2034 2.03000E+01 2.15622E-02-6.32852E-05 1.30630E-01-5.16913E-14 5.86696E-14
 -1      2035 2.03717E+01 2.47605E-02 1.76494E-03 1.49075E-01 9.01730E-14 5.30407E-14
 -1      2036 2.03571E+01 3.67049E-02-4.43427E-04 1.96278E-01 7.80514E-14-6.23525E-14
 -1      2037 2.02017E+01 1.68970E-02 2.76007E-05 9.51114E-02-1.13284E-13-2.15762E-13
 -1      2038 2.02552E+01 1.96138E-02 1.44635E-03 1.09891E-01-1.22594E-13-9.82878E-14
 -1      2039 2.02492E+01 2.90933E-02-4.23108E-04 1.45685E-01-1.04565E-14-2.81698E-14
 -1      2040 2.01294E+01 1.29594E-02 8.06531E-05 6.74739E-02-2.23671E-14-1.90667E-13
 -1      2041 2.01684E+01 1.51917E-02 1.15505E-03 7.90486E-02-9.38339E-14-2.67081E-13
 -1      2042 2.01681E+01 2.25307E-02-3.86876E-04 1.05605E-01-7.18647E-14-2.00901E-13
 -1      2043 2.00775E+01 9.73709E-03 1.07362E-04 4.64138E-02 1.20408E-13 5.56610E-14
 -1      2044 2.01052E+01 1.15240E-02 9.01953E-04 5.52926E-02 1.59754E-13 5.05123E-14
 -1      2045 2.01083E+01 1.70799E-02-3.41592E-04 7.45413E-02 4.66659E-14-1.13602E-13
 -1      2046 2.00413E+01 7.16477E-03 1.16558E-04 3.06909E-02 2.14592E-13-1.03487E-13
 -1      2047 2.00604E+01 8.56351E-03 6.89852E-04 3.73668E-02 1.86978E-13-1.39090E-14
 -1      2048 2.00654E+01 1.26788E-02-2.92969E-04 5.09548E-02 2.14150E-13 1.46092E-13
 -1      2049 2.00169E+01 5.15528E-03 1.14736E-04 1.91988E-02 2.25305E-13-5.27820E-13
 -1      2050 2.00295E+01 6.22795E-03 5.17014E-04 2.41172E-02 2.59733E-13-3.05953E-13
 -1      2051 2.00353E+01 9.20761E-03-2.45143E-04 3.34065E-02 3.52438E-13-5.58885E-14
 -1      2052 2.00012E+01 3.61692E-03 1.06503E-04 1.09911E-02-5.46010E-14-6.49404E-13
 -1      2053 2.00091E+01 4.42316E-03 3.79421E-04 1.45366E-02 5.01325E-14-7.32719E-13
 -1      2054 2.00150E+01 6.52696E-03-2.00772E-04 2.06261E-02 2.17871E-13-4.67338E-13
 -1      2055 1.99919E+01 2.46253E-03 9.50078E-05 5.28257E-03 1.21841E-13-4.70701E-13
 -1      2056 1.99964E+01 3.05613E-03 2.72135E-04 7.77686E-03-7.19691E-15-5.52647E-13
 -1      2057 2.00020E+01 4.49819E-03-1.61320E-04 1.15343E-02-2.16551E-14-4.10697E-13
 -1      2058 1.99870E+01 1.61388E-03 8.23012E-05 1.43834E-03-4.03599E-14-5.00681E-13
 -1      2059 1.99891E+01 2.04137E-03 1.90076E-04 3.14351E-03-1.92709E-14-4.74604E-13
 -1      2060 1.99941E+01 2.99379E-03-1.27377E-04 5.24028E-03-5.21996E-15-5.67494E-13
 -1      2061 1.99851E+01 1.00307E-03 6.96124E-05-1.04329E-03 1.56254E-13-5.29498E-13
 -1      2062 1.99857E+01 1.30367E-03 1.28453E-04 8.12185E-05 7.99009E-14-4.06451E-13
 -1      2063 1.99900E+01 1.90165E-03-9.89363E-05 1.02710E-03-5.33257E-15-5.45920E-13
 -1      2064 1.99852E+01 5.72381E-04 5.75548E-05-2.54916E-03 3.94472E-14-6.61605E-13
 -1      2065 1.99848E+01 7.78572E-04 8.29588E-05-1.84361E-03 1.11981E-13-5.86490E-13
 -1      2066 1.99883E+01 1.12586E-03-7.56223E-05-1.66880E-03 1.62286E-13-3.08599E-13
 -1      2067 1.99866E+01 2.73036E-04 4.62790E-05-3.36862E-03-1.20275E-13-6.68108E-13
 -1      2068 1.99856E+01 4.11515E-04 4.98370E-05-2.96049E-03-3.34624E-14-6.54639E-13
 -1      2069 1.99884E+01 5.85592E-04-5.68466E-05-3.27884E-03 5.52582E-14-3.48903E-13
 -1      2070 1.99888E+01 6.34710E-05 3.55992E-05-3.70858E-03-8.10408E-14-6.81632E-13
 -1      2071 1.99874E+01 1.56321E-04 2.58928E-05-3.51085E-03-1.19497E-13-7.41488E-13
 -1      2072 1.99895E+01 2.12835E-04-4.19090E-05-4.12214E-03-8.88414E-14-5.19158E-13
 -1      2073 1.99912E+01-9.30985E-05 2.51764E-05-3.70531E-03 1.02417E-13-6.94348E-13
 -1      2074 1.99897E+01-2.69803E-05 8.52137E-06-3.66127E-03 7.96301E-14-6.30302E-13
 -1      2075 1.99912E+01-5.07216E-05-3.00621E-05-4.42245E-03 5.43794E-14-3.06756E-13
 -1      2076 1.99936E+01-2.30764E-04 1.53620E-05-3.43226E-03-6.47816E-14-6.60069E-13
 -1      2077 1.99922E+01-1.74844E-04-4.05248E-06-3.51336E-03 1.42554E-14-6.76030E-13
 -1      2078 1.99932E+01-2.57289E-04-2.03633E-05-4.32169E-03-1.25464E-15-2.97972E-13
 -1      2079 1.99959E+01-3.80196E-04 7.21700E-06-2.90835E-03-3.23967E-13-3.90367E-13
 -1      2080 1.99946E+01-3.19926E-04-1.21010E-05-3.11156E-03-2.14155E-13-6.04972E-13
 -1      2081 1.99952E+01-4.52833E-04-1.09507E-05-3.88919E-03-1.90698E-13-2.33346E-13
 -1      2082 1.99977E+01-5.68109E-04-3.60217E-06-2.11007E-03-3.55610E-13-3.76705E-13
 -1      2083 1.99967E+01-4.87275E-04-1.36326E-05-2.45850E-03-3.27709E-13-4.92105E-13
 -1      2084 1.99969E+01-6.79987E-04-2.73718E-06-3.14697E-03-3.34689E-13-3.08541E-13
 -1      2085 1.99989E+01-7.41837E-04-1.57874E-05-1.31962E-03-6.15676E-14 9.83828E-15
 -1      2086 1.99982E+01-6.66459E-04-1.21512E-05-1.79651E-03-2.70620E-13-2.68188E-13
 -1      2087 1.99982E+01-9.11328E-04 5.98525E-06-2.34578E-03-2.86257E-13-3.17396E-13
 -1      2088 1.99990E+01-1.13571E-03 4.57618E-06-1.62014E-03-1.56399E-13-4.91063E-15
 -1      2089 2.00000E+01-5.58666E-03 8.24550E-06-3.01345E-03-2.09114E-13-8.13989E-14
 -1      2090 1.99998E+01-4.62563E-03-6.23654E-06-3.05006E-03-2.31172E-13 3.22771E-14
 -1      2091 1.99996E+01-3.90613E-03 2.72883E-06-2.99039E-03-1.23517E-13 2.97902E-14
 -1      2092 1.99994E+01-2.98558E-03-1.52461E-05-2.80245E-03-5.57517E-14 8.43556E-14
 -1      2093 1.99996E+01-3.80116E-03-4.40261E-06-3.76003E-03-2.32259E-13-9.68010E-14
 -1      2094 1.99993E+01-2.45463E-03-1.65735E-06-2.49141E-03-1.84622E-13-8.75605E-14
 -1      2095 1.99991E+01-1.67236E-03-1.74255E-05-2.08230E-03-2.24170E-13-7.78668E-14
 -1      2096 1.99988E+01-1.57093E-03-1.38604E-05-2.49686E-03-1.86030E-13-1.42327E-13
 -1      2097 1.99992E+01-2.59363E-03-9.97084E-07-3.33736E-03-1.65639E-13 2.47355E-13
 -1      2098 2.00002E+01-7.09287E-03 1.48742E-05-2.65401E-03-2.43847E-13-3.13651E-13
 -1      2099 2.00001E+01-6.22557E-03 8.20376E-06-2.85028E-03-1.92857E-13-1.81276E-13
 -1      2100 2.00001E+01-5.15075E-03-8.86913E-06-3.63216E-03-2.71153E-13-2.24844E-13
 -1      2101 2.00004E+01-8.33016E-03 2.10922E-05-2.00823E-03-1.45685E-13-9.82582E-14
 -1      2102 2.00003E+01-7.63027E-03 1.86353E-05-2.32084E-03-1.41680E-13-3.95010E-14
 -1      2103 2.00005E+01-6.33191E-03-1.36063E-05-3.07726E-03-1.13574E-13-1.91768E-13
 -1      2104 2.00005E+01-9.15608E-03 2.57796E-05-1.18006E-03 5.30267E-14-5.87085E-14
 -1      2105 2.00004E+01-8.70968E-03 2.55557E-05-1.56231E-03-2.72737E-14 4.72618E-14
 -1      2106 2.00007E+01-7.25486E-03-1.74075E-05-2.20819E-03 7.93337E-14 3.99000E-14
 -1      2107 2.00005E+01-9.50307E-03 2.85042E-05-2.56401E-04-6.14269E-14-1.83595E-13
 -1      2108 2.00005E+01-9.35154E-03 2.86490E-05-6.71251E-04-6.03961E-14-1.26199E-13
 -1      2109 2.00008E+01-7.83513E-03-1.94270E-05-1.14498E-03 3.63616E-14-2.32835E-13
 -1      2110 2.00005E+01-9.34465E-03 2.86751E-05 6.86834E-04-1.33432E-13 6.15476E-14
 -1      2111 2.00005E+01-9.50140E-03 2.84801E-05 2.72300E-04-7.14807E-14-1.60994E-14
 -1      2112 2.00009E+01-8.03082E-03-2.00353E-05 9.83942E-06-2.26315E-13-7.91563E-14
 -1      2113 2.00004E+01-8.69484E-03 2.56955E-05 1.57620E-03-2.28211E-13-8.70577E-14
 -1      2114 2.00005E+01-9.14611E-03 2.55627E-05 1.19498E-03-2.87194E-13 2.44856E-13
 -1      2115 2.00008E+01-7.82856E-03-1.93241E-05 1.16391E-03-2.59760E-13-5.24494E-14
 -1      2116 2.00003E+01-7.63038E-03 1.86041E-05 2.32041E-03-2.00209E-14-7.58794E-14
 -1      2117 2.00004E+01-8.32079E-03 2.08410E-05 2.01407E-03-1.97353E-13-2.64136E-13
 -1      2118 2.00007E+01-7.24886E-03-1.74534E-05 2.21693E-03-2.46749E-13-6.53472E-14
 -1      2119 2.00001E+01-6.21168E-03 7.53117E-06 2.85277E-03-2.43922E-14 2.76221E-13
 -1      2120 2.00002E+01-7.09381E-03 1.47647E-05 2.65438E-03-3.76622E-14 1.85036E-13
 -1      2121 2.00005E+01-6.33222E-03-1.38137E-05 3.07726E-03-7.11289E-15 1.80184E-14
 -1      2122 1.99998E+01-4.59625E-03-6.62218E-06 3.04970E-03 1.96610E-13 1.20810E-15
 -1      2123 1.99999E+01-5.55837E-03 8.32687E-06 3.01657E-03 8.71746E-14 4.31998E-14
 -1      2124 2.00001E+01-5.13897E-03-8.80120E-06 3.63589E-03 2.89282E-14 2.48217E-13
 -1      2125 1.99994E+01-2.94057E-03-1.27602E-05 2.81923E-03 7.72301E-14-2.51554E-13
 -1      2126 1.99996E+01-3.87987E-03 6.02363E-06 2.98706E-03 1.45622E-13-2.80796E-13
 -1      2127 1.99996E+01-3.77796E-03-1.85573E-06 3.75397E-03-3.25380E-14-1.09068E-13
 -1      2128 1.04620E+01-5.24846E+00-1.54903E-01 6.38471E+00 5.68545E-13 9.33420E-13
 -1      2129 6.84214E+00-6.63293E+00-3.53761E-01 5.24913E+00 2.81386E-13 1.01916E-12
 -1      2130 2.60426E-01-7.12744E+00-3.71280E-01 7.56021E-01 2.29206E-13 1.01780E-12
 -1      2131 1.40121E-01-7.43303E+00-4.32802E-01-7.07957E-01 2.38559E-14 9.19376E-13
 -1      2132 3.54721E+00-6.18554E+00-2.51498E-01 4.21949E+00 3.81029E-13 1.19493E-12
 -1      2133 1.49530E+00-7.16598E+00-4.12210E-01 2.58104E+00 1.51129E-13 1.05610E-12
 -1      2134 1.92017E+01-3.24048E+00-1.16829E-02 6.82845E+00 7.72715E-13 7.42295E-13
 -1      2135 1.45895E+01-5.14438E+00-3.03066E-01 6.10298E+00 6.04627E-13 7.57755E-13
 -1      2136 5.08459E+00-7.16158E+00-4.67320E-01-4.49005E+00-1.62315E-13 8.16403E-13
 -1      2137 7.84339E+00-5.67259E+00-2.27717E-01-5.76475E+00-2.51354E-13 8.79227E-13
 -1      2138 5.75421E+00-5.41822E+00-1.82205E-01-5.30665E+00 2.51799E-13 7.55951E-13
 -1      2139 3.54206E+01 3.15716E+00 3.46087E-01 2.95729E+00 1.07848E-12 1.77858E-13
 -1      2140 3.13101E+01 1.10324E+00 4.05412E-02 3.05549E+00 9.73645E-13 1.92346E-13
 -1      2141 2.78086E+01-1.31965E+00-3.67745E-02 4.89556E+00 7.22755E-13 2.33480E-13
 -1      2142 2.28654E+01-2.50472E+00-1.45617E-01 5.60035E+00 8.07854E-13 6.18616E-13
 -1      2143 2.32714E+01-4.39322E+00 8.57289E-02 5.40457E+00 1.24234E-13 1.36946E-13
 -1      2144 1.95447E+01 4.15625E+00-2.84740E-02-1.04338E+00-3.88591E-13-8.86137E-13
 -1      2145 1.98710E+01 4.07201E+00-1.94958E-02-1.28275E+00-4.72655E-13-7.81798E-13
 -1      2146 2.02874E+01 3.37989E+00-6.40631E-03-1.20533E+00-5.28792E-13-6.70563E-13
 -1      2147 1.95937E+01 3.80737E+00-7.82848E-03-8.46412E-01-3.83093E-13-8.63606E-13
 -1      2148 3.90577E+01 5.82937E+00 3.47190E-01 1.33444E+00 1.36924E-12-2.63678E-13
 -1      2149 3.64344E+01 4.59383E+00 1.17733E-01 2.18557E+00 1.31659E-12 4.46865E-14
 -1      2150 3.36553E+01 3.35914E+00 1.56018E-01 1.10852E-02 1.10170E-12-3.03479E-13
 -1      2151 4.08760E+01 7.17976E+00 3.47527E-01-2.72704E-01 1.45733E-12-6.65686E-13
 -1      2152 4.03292E+01 7.03560E+00 3.48992E-01 9.28956E-01 1.41459E-12-2.38226E-13
 -1      2153 3.79580E+01 6.31206E+00 1.69128E-01-1.31406E+00 1.50857E-12-7.83429E-13
 -1      2154 3.98713E+01 6.94726E+00 3.38580E-01-5.24042E-01 1.51862E-12-5.63466E-13
 -1      2155 3.43224E+01 3.17108E+00 1.17241E-01-3.37482E+00 1.41816E-12-1.20104E-12
 -1      2156 3.71954E+01 4.48170E+00 2.22079E-01-2.20160E+00 1.37257E-12-8.89344E-13
 -1      2157 2.81479E+01 1.49984E-01-3.64287E-02-5.03051E+00 1.35275E-12-1.42453E-12
 -1      2158 3.28224E+01 1.76535E+00 2.58081E-01-4.78376E+00 1.41170E-12-1.30762E-12
 -1      2159 3.29082E+01 1.59143E+00 2.42940E-01-1.45418E+00 1.04796E-12-4.54359E-13
 -1      2160 1.96225E+01-3.51019E+00-2.33370E-01-6.07998E+00 1.06332E-12-1.56908E-12
 -1      2161 2.45951E+01-1.53181E+00 1.13919E-01-6.53161E+00 1.20776E-12-1.62759E-12
 -1      2162 1.16814E+01-5.88090E+00-3.07365E-01-6.10408E+00 6.54921E-13-1.48179E-12
 -1      2163 1.58348E+01-4.07192E+00-6.54061E-02-6.93069E+00 1.05449E-12-1.63816E-12
 -1      2164 4.06661E+00-7.24676E+00-4.44058E-01-4.27912E+00 2.79721E-13-1.51579E-12
 -1      2165 7.28413E+00-5.83332E+00-2.21720E-01-5.78722E+00 6.24945E-13-1.58709E-12
 -1      2166 4.87759E-01-7.52965E+00-4.54657E-01-1.32154E+00-1.71696E-13-1.47332E-12
 -1      2167 1.73386E+00-6.74997E+00-3.28822E-01-2.92041E+00 2.53964E-13-1.56664E-12
 -1      2168 8.59828E-01-6.97391E+00-3.56038E-01 2.03387E+00-6.18477E-13-1.40998E-12
 -1      2169 1.50533E-01-7.63184E+00-4.54460E-01 4.40020E-01-1.85000E-13-1.38944E-12
 -1      2170 5.95046E+00-5.97364E+00-2.02666E-01 5.27908E+00-8.70581E-13-1.61057E-12
 -1      2171 3.38122E+00-6.85609E+00-3.41158E-01 3.94087E+00-5.21194E-13-1.42725E-12
 -1      2172 1.30686E+01-4.84680E+00-9.45599E-02 6.91029E+00-9.81548E-13-1.51482E-12
 -1      2173 8.87055E+00-6.45055E+00-3.55902E-01 5.72067E+00-8.03302E-13-1.54458E-12
 -1      2174 9.75020E+00-5.37935E+00-5.38225E-02 6.51580E+00-7.19980E-14-1.36666E-12
 -1      2175 2.28360E+01-2.59148E+00 8.21439E-02 6.54415E+00-1.30412E-12-1.34981E-12
 -1      2176 1.81913E+01-4.61034E+00-2.03531E-01 6.10164E+00-1.04527E-12-1.27176E-12
 -1      2177 3.02489E+01 1.95746E-01 1.61722E-01 5.04010E+00-1.42092E-12-1.07298E-12
 -1      2178 2.54633E+01-1.61942E+00-1.41271E-01 5.27956E+00-1.39988E-12-1.26293E-12
 -1      2179 2.59978E+01-3.89343E+00 7.85439E-02 4.44726E+00-5.60274E-13-4.77063E-13
 -1      2180 3.68715E+01 3.94613E+00 3.53905E-01 3.10878E+00-1.68696E-12-9.08662E-13
 -1      2181 3.29096E+01 2.40974E+00 4.21088E-02 3.51383E+00-1.60959E-12-1.03573E-12
 -1      2182 4.05683E+01 6.34696E+00 4.36531E-01 1.46694E+00-1.54432E-12-6.91669E-13
 -1      2183 3.82582E+01 5.53758E+00 2.45370E-01 2.47507E+00-1.69703E-12-9.65172E-13
 -1      2184 4.13791E+01 7.11857E+00 3.87935E-01-3.21857E-01-1.28281E-12-3.93477E-13
 -1      2185 4.12075E+01 7.04014E+00 4.00049E-01 9.55856E-01-1.47105E-12-6.76403E-13
 -1      2186 3.85767E+01 6.03630E+00 2.05991E-01-1.56270E+00-1.10750E-12-2.91989E-14
 -1      2187 4.02675E+01 6.76637E+00 3.71830E-01-5.73788E-01-1.13287E-12-3.37286E-13
 -1      2188 3.44325E+01 3.51926E+00 6.72973E-02-2.66270E+00-1.02915E-12 7.20535E-14
 -1      2189 3.81364E+01 4.85473E+00 3.58890E-01-2.23946E+00-1.04025E-12 2.57572E-14
 -1      2190 3.51329E+01 5.78101E+00 2.60316E-01 3.12875E-01-1.04278E-12-4.90830E-13
 -1      2191 2.79294E+01-4.03398E-01-6.63074E-02-4.75897E+00-6.84286E-13 4.99600E-13
 -1      2192 3.22084E+01 1.14701E+00 1.64717E-01-4.12875E+00-8.57300E-13 1.73195E-13
 -1      2193 2.08709E+01-3.50465E+00-1.80677E-01-5.74688E+00-3.57048E-13 6.38378E-13
 -1      2194 2.54361E+01-1.51182E+00 1.19877E-01-6.08317E+00-4.57245E-13 8.03302E-13
 -1      2195 2.80141E+01-2.62305E+00 1.14150E-01-3.54258E+00-1.39250E-13-2.31482E-14
 -1      2196 1.19367E+01-5.80287E+00-3.39253E-01-5.99827E+00-2.36478E-13 7.24476E-13
 -1      2197 1.64325E+01-4.20639E+00-5.79812E-02-6.88096E+00-3.62044E-13 6.00825E-13
 -1      2198 3.04629E+01-8.78129E-01-1.88584E-01 3.66128E-01 4.92099E-13-3.84970E-13
 -1      2199 2.99611E+01-8.27530E-01 9.11451E-02 2.86012E+00 7.00523E-13-2.96430E-14
 -1      2200 2.84905E+01-2.74157E+00 1.39338E-01 2.40643E+00 2.55615E-13-2.99094E-13
 -1      2201 2.09676E+00-5.03476E+00-2.00811E-01-2.24571E+00 1.71252E-13 9.87876E-13
 -1      2202 2.18026E+01 1.10122E+00-1.70721E-02-1.08821E+00-5.96339E-13 2.64129E-13
 -1      2203 2.16013E+01 1.34309E+00-2.22509E-02-1.02788E+00-6.22049E-13-4.31963E-14
 -1      2204 7.05158E+00-5.36952E+00-1.14691E-01 5.61441E+00-1.17129E-13 1.03800E-12
 -1      2205 2.17132E+00-4.84643E+00-1.69523E-01 2.15382E+00 6.14508E-14 1.11577E-12
 -1      2206 1.99992E+01-2.32894E-03-1.38948E-05 2.76934E-03-5.65252E-15-2.40421E-13
 -1      2207 1.50816E+01-5.66139E+00-5.82573E-02 6.75086E+00-8.29892E-14 5.23876E-13
 -1      2208 1.21144E+01-5.69422E+00-6.57680E-02-6.74226E+00 2.79943E-13 5.97536E-13
 -1      2209 2.09734E+01-5.05079E+00 1.95956E-02-5.94706E+00 1.84353E-13 2.50439E-13
 -1      2210 3.27689E+01 1.45163E+00 1.67542E-01-1.13760E+00-6.92064E-13-3.85914E-13
 -1      2211 3.66319E+01 7.88960E+00 3.38000E-01 3.10541E-01-1.34037E-12-5.31158E-13
 -1      2212 3.71419E+01 7.52135E+00 3.86943E-01 8.29014E-02-1.56353E-12-4.50556E-13
 -1      2213 3.14497E+01-8.50325E-02 1.53177E-01 2.01983E+00-1.06623E-12-3.03146E-13
 -1      2214 1.80780E+01-5.58861E+00 1.69124E-03 6.63601E+00-2.43250E-13-9.57123E-13
 -1      2215 3.72190E+00-4.89787E+00-1.43143E-01 3.83857E+00-1.79412E-13-1.53433E-12
 -1      2216 1.52223E+00-4.89616E+00-2.09863E-01-6.07895E-01-1.28467E-13-1.65817E-12
 -1      2217 4.46824E+00-5.29600E+00-1.66750E-01-4.44906E+00-8.49043E-14-1.65423E-12
 -1      2218 1.16232E+01-5.77328E+00-1.05445E-01-6.70663E+00 9.90319E-14-1.42580E-12
 -1      2219 2.79558E+01-2.37581E+00 1.03585E-01-4.04989E+00 6.62970E-13-7.97473E-13
 -1      2220 3.61682E+01 6.87474E+00 2.96829E-01-2.35345E-01 1.46860E-12-4.05148E-13
 -1      2221 3.48937E+01 5.46228E+00 2.34075E-01 7.41376E-02 1.36868E-12-2.75446E-13
 -1      2222 3.61557E+01 7.94303E+00 2.82146E-01 1.36027E-01 1.56930E-12-2.71901E-13
 -1      2223 2.03372E+01-5.06943E+00-4.95818E-03-6.28722E+00 2.85272E-13-1.10856E-12
 -1      2224 3.51043E+01 4.62221E+00 2.72672E-01 3.34252E-01-1.54429E-12-3.69371E-13
 -1      2225 2.14343E+01 5.69927E-01 7.11745E-03-1.29965E-02 4.64469E-13 4.15999E-13
 -1      2226 2.15478E+01 7.49981E-01 2.06410E-02 3.07958E-01 5.33996E-13 4.93892E-13
 -1      2227 1.85765E+01 4.02521E+00-1.12604E-02-1.80954E-01-7.25466E-14-9.15213E-13
 -1      2228 1.87624E+01 3.95136E+00-5.68570E-03-2.75733E-01-1.53407E-13-9.20672E-13
 -1      2229 1.89843E+01 3.79574E+00-1.41603E-02-3.49412E-01-2.09906E-13-9.15876E-13
 -1      2230 1.92465E+01 3.67755E+00-7.95944E-03-4.75120E-01-2.98087E-13-8.97267E-13
 -1      2231 1.89733E+01 3.56199E+00 2.05287E-03-2.01665E-01-1.76146E-13-8.59614E-13
 -1      2232 1.82981E+01 4.18326E+00-6.75353E-03 3.70991E-02 1.83407E-13-8.98452E-13
 -1      2233 1.82955E+01 4.18457E+00-6.84308E-03-2.93963E-02 1.10799E-13-9.13217E-13
 -1      2234 1.84494E+01 4.11067E+00-5.63419E-03 1.43264E-01 2.95911E-13-8.52289E-13
 -1      2235 1.83491E+01 4.14897E+00-8.85406E-03 6.87708E-02 2.29584E-13-8.76656E-13
 -1      2236 1.83892E+01 3.90774E+00 2.75303E-03 2.89786E-02 2.03025E-13-8.35711E-13
 -1      2237 1.87761E+01 3.93997E+00-5.77983E-03 2.84547E-01 4.20226E-13-7.86550E-13
 -1      2238 1.85903E+01 4.01485E+00-1.13483E-02 1.90071E-01 3.44039E-13-8.37961E-13
 -1      2239 1.85971E+01 3.78568E+00 2.44801E-03 9.77913E-02 3.11111E-13-7.92054E-13
 -1      2240 1.92650E+01 3.66068E+00-7.96765E-03 4.85910E-01 5.37597E-13-6.55134E-13
 -1      2241 1.90004E+01 3.78149E+00-1.42725E-02 3.59070E-01 4.59977E-13-7.22037E-13
 -1      2242 1.89889E+01 3.54777E+00 2.01892E-03 2.08583E-01 4.26480E-13-7.07865E-13
 -1      2243 1.98843E+01 3.25469E+00-1.35137E-02 7.48147E-01 6.36468E-13-4.95866E-13
 -1      2244 1.95582E+01 3.43790E+00-1.75201E-02 5.89325E-01 5.64704E-13-5.96053E-13
 -1      2245 1.95398E+01 3.18968E+00 2.47887E-03 3.73269E-01 5.17905E-13-5.79814E-13
 -1      2246 2.06097E+01 2.67548E+00-2.41405E-02 1.03912E+00 7.09103E-13-1.96905E-13
 -1      2247 2.02345E+01 2.95740E+00-2.01013E-02 8.65662E-01 6.57306E-13-3.61745E-13
 -1      2248 2.02076E+01 2.69911E+00 5.20746E-03 5.74501E-01 6.04756E-13-3.84508E-13
 -1      2249 2.14009E+01 9.44583E-01 1.46620E-02-2.34400E-01-4.77258E-13-1.68884E-13
 -1      2250 2.13181E+01 7.29650E-01-6.52525E-04 1.12017E-01-4.16565E-13-1.78350E-13
 -1      2251 2.14373E+01 3.37173E-01 7.07805E-03-4.78502E-01 3.51210E-13 3.45340E-13
 -1      2252 2.14225E+01 4.38391E-01 2.03298E-02-2.89725E-01 4.02853E-13 4.13487E-13
 -1      2253 2.13097E+01 7.24813E-01-5.52343E-03-1.24310E-01 4.74634E-13 1.88718E-13
 -1      2254 2.13018E+01 2.00977E+00-1.02374E-02-1.20054E+00-6.16727E-13-2.83794E-13
 -1      2255 2.13136E+01 1.29218E+00-3.15158E-03-5.53759E-01-5.56964E-13-2.22521E-13
 -1      2256 2.10956E+01 1.49263E+00-9.84036E-04-4.03274E-01-5.07283E-13-3.52512E-13
 -1      2257 2.08529E+01 2.45103E+00-1.26555E-02-1.08580E+00-5.74546E-13-4.69763E-13
 -1      2258 2.13358E+01 5.75948E-01 1.65460E-02 3.83096E-01-3.52908E-13-1.52243E-13
 -1      2259 2.13474E+01 4.43621E-01 2.26421E-03 5.93144E-01-3.05307E-13-1.75088E-13
 -1      2260 2.11488E+01 8.83753E-01-5.14515E-03 2.35466E-01-3.98816E-13-2.89996E-13
 -1      2261 2.13968E+01 3.37495E-01 1.21641E-02 7.78773E-01-2.59645E-13-1.34231E-13
 -1      2262 2.14880E+01 2.27743E-01 6.67270E-04 8.98303E-01-1.99929E-13-1.47027E-13
 -1      2263 2.11826E+01 5.30361E-01-6.93875E-03 7.29346E-01-2.84272E-13-2.50117E-13
 -1      2264 2.15940E+01 1.24100E-01 9.51142E-03 1.00376E+00-1.62856E-13-1.26045E-13
 -1      2265 2.17395E+01 2.59535E-03-2.95584E-03 1.04043E+00-1.18828E-13-1.40259E-13
 -1      2266 2.13171E+01 2.40032E-01-7.97166E-03 1.04883E+00-1.94256E-13-1.96421E-13
 -1      2267 2.19135E+01-1.22375E-01 9.05140E-03 1.05811E+00-8.32792E-14-1.35902E-13
 -1      2268 2.20872E+01-2.74228E-01-8.18877E-03 1.00102E+00-7.49474E-14-1.24497E-13
 -1      2269 2.15726E+01-7.46226E-02-9.20757E-03 1.19511E+00-1.21068E-13-1.62092E-13
 -1      2270 2.23367E+01-4.28652E-01 9.84219E-03 9.09364E-01-6.17340E-14-7.40746E-14
 -1      2271 2.25101E+01-6.08582E-01-1.44668E-02 7.40789E-01-3.79566E-14-5.12460E-14
 -1      2272 2.19627E+01-4.59271E-01-1.07083E-02 1.14111E+00-4.91937E-14-1.19685E-13
 -1      2273 2.28304E+01-7.75122E-01 9.81884E-03 5.12456E-01-5.28310E-15-1.16103E-14
 -1      2274 2.29687E+01-9.43293E-01-1.96324E-02 2.24931E-01 1.07869E-14 7.10174E-15
 -1      2275 2.24927E+01-9.04859E-01-1.12805E-02 8.37236E-01-1.34938E-14-7.82162E-14
 -1      2276 2.33198E+01-1.06102E+00 6.13636E-03-1.50383E-01-1.36566E-14 6.37906E-14
 -1      2277 2.33815E+01-1.12430E+00-1.89801E-02-5.24863E-01-5.38554E-14 7.93480E-14
 -1      2278 2.31317E+01-1.30801E+00-8.10857E-03 2.38431E-01 2.19934E-14 1.45319E-14
 -1      2279 2.36654E+01-1.08468E+00-5.39955E-03-9.94858E-01-6.38730E-14 1.39358E-13
 -1      2280 2.36177E+01-9.12872E-01-7.77430E-03-1.35137E+00-1.05960E-13 1.22368E-13
 -1      2281 2.37678E+01-1.43328E+00 2.06753E-03-6.30638E-01-4.70546E-14 1.18867E-13
 -1      2282 2.36947E+01-6.05524E-01-2.57154E-02-1.74334E+00-1.78602E-13 1.59915E-13
 -1      2283 2.35423E+01-1.32964E-01 1.09124E-02-1.89672E+00-2.41725E-13 1.38027E-13
 -1      2284 2.41846E+01-9.74146E-01 1.13505E-02-1.56410E+00-1.38203E-13 2.17934E-13
 -1      2285 2.33559E+01 4.20014E-01-4.08754E-02-1.93013E+00-3.20315E-13 1.05361E-13
 -1      2286 2.31738E+01 1.03000E+00 2.23467E-02-1.70036E+00-3.37289E-13 4.55508E-14
 -1      2287 2.41702E+01 2.00683E-01 7.58253E-03-2.08374E+00-3.19308E-13 2.38402E-13
 -1      2288 2.28982E+01 1.54690E+00-3.48115E-02-1.19808E+00-3.88202E-13-1.12836E-13
 -1      2289 2.28042E+01 1.90374E+00 5.74992E-03-6.00120E-01-4.08909E-13-2.04492E-13
 -1      2290 2.37958E+01 1.66843E+00-1.61158E-02-1.64772E+00-4.53356E-13 5.90474E-14
 -1      2291 2.27517E+01 1.99785E+00-6.82162E-03 2.38244E-01-3.94348E-13-3.36222E-13
 -1      2292 2.28227E+01 1.81659E+00-2.63532E-02 9.04592E-01-3.31325E-13-3.93270E-13
 -1      2293 2.35072E+01 2.50823E+00-3.80519E-02-2.13257E-01-5.00874E-13-1.71595E-13
 -1      2294 2.30625E+01 1.41099E+00 1.86377E-02 1.56770E+00-2.59147E-13-4.47284E-13
 -1      2295 2.32552E+01 8.43757E-01-4.11137E-02 1.94414E+00-2.51874E-13-4.51250E-13
 -1      2296 2.36814E+01 2.07906E+00-2.76271E-02 1.41186E+00-3.15827E-13-3.62241E-13
 -1      2297 2.35185E+01 2.59695E-01 1.78668E-02 2.09254E+00-2.79820E-13-4.98928E-13
 -1      2298 2.37199E+01-2.91377E-01-3.03321E-02 2.05909E+00-2.22616E-13-5.07512E-13
 -1      2299 2.41153E+01 7.27777E-01 3.10675E-03 2.23787E+00-3.10139E-13-5.21300E-13
 -1      2300 2.37458E+01-6.98205E-01-1.97507E-03 1.76142E+00-1.30371E-13-5.57928E-13
 -1      2301 2.38599E+01-9.75589E-01-1.16026E-02 1.45385E+00 9.23957E-15-5.32973E-13
 -1      2302 2.43057E+01-6.31637E-01 1.27856E-02 1.99923E+00-1.89354E-13-4.52189E-13
 -1      2303 2.36411E+01-1.10069E+00-1.73088E-02 9.85051E-01 3.98128E-14-4.99337E-13
 -1      2304 2.36383E+01-1.10665E+00 2.82528E-03 6.00991E-01 1.01835E-13-4.59403E-13
 -1      2305 2.40436E+01-1.34572E+00 5.52407E-03 1.14817E+00 4.82448E-14-4.48266E-13
 -1      2306 2.33013E+01-1.03291E+00-2.10937E-02 1.79190E-01 1.42161E-13-3.87037E-13
 -1      2307 2.32033E+01-8.93280E-01 8.39980E-03-1.48085E-01 1.73366E-13-4.01008E-13
 -1      2308 2.34711E+01-1.39630E+00-4.98355E-03 2.16961E-01 1.42824E-13-3.53654E-13
 -1      2309 2.28652E+01-7.41935E-01-1.72499E-02-4.37024E-01 1.47016E-13-4.30884E-13
 -1      2310 2.27097E+01-5.70211E-01 8.45632E-03-6.57559E-01 1.70561E-13-4.61215E-13
 -1      2311 2.28208E+01-1.07145E+00-9.61556E-03-4.98836E-01 1.45053E-13-2.59441E-13
 -1      2312 2.24246E+01-4.21399E-01-1.10853E-02-8.14081E-01 1.75946E-13-4.20393E-13
 -1      2313 2.22432E+01-2.77025E-01 6.36402E-03-9.30610E-01 2.24605E-13-2.67537E-13
 -1      2314 2.22372E+01-6.52868E-01-9.28758E-03-9.35265E-01 2.23290E-13-3.04005E-13
 -1      2315 2.20206E+01-1.63858E-01-5.47015E-03-9.86542E-01 2.25082E-13-2.75878E-13
 -1      2316 2.18342E+01-6.42106E-02 4.10518E-03-1.02336E+00 2.19136E-13-2.10460E-13
 -1      2317 2.17649E+01-2.93099E-01-7.07880E-03-1.13610E+00 2.30028E-13-1.90370E-13
 -1      2318 2.16644E+01 8.71732E-03-1.32298E-03-1.01366E+00 1.03197E-13-2.90825E-13
 -1      2319 2.14860E+01 6.73766E-02 2.38401E-03-9.98329E-01 7.64595E-14-3.73786E-13
 -1      2320 2.13967E+01-4.01532E-02-4.84141E-03-1.17164E+00 1.03617E-13-2.69446E-13
 -1      2321 2.13555E+01 1.07503E-01 1.33612E-03-9.51185E-01 7.14297E-14-3.87308E-13
 -1      2322 2.11924E+01 1.35818E-01 1.27941E-03-9.06610E-01 8.14705E-14-3.47449E-13
 -1      2323 2.11096E+01 1.12020E-01-3.23382E-03-1.10539E+00 5.11683E-14-4.45517E-13
 -1      2324 2.10902E+01 1.53166E-01 2.81050E-03-8.41850E-01 5.18347E-14-3.86651E-13
 -1      2325 2.09463E+01 1.61751E-01 6.49768E-04-7.84329E-01 9.82481E-14-3.35599E-13
 -1      2326 2.08822E+01 1.88189E-01-2.25943E-03-9.84955E-01 4.53058E-14-5.02870E-13
 -1      2327 2.08647E+01 1.64956E-01 3.45023E-03-7.14679E-01 2.18685E-13-2.90897E-13
 -1      2328 2.07414E+01 1.62032E-01 3.25483E-04-6.54623E-01 2.76251E-13-1.92049E-13
 -1      2329 2.06988E+01 2.14115E-01-1.71714E-03-8.42606E-01 1.70098E-13-4.22016E-13
 -1      2330 2.06756E+01 1.57350E-01 3.55161E-03-5.87605E-01 1.35236E-13-2.24421E-13
 -1      2331 2.05726E+01 1.48532E-01 1.74502E-04-5.31004E-01 3.95321E-14-2.47482E-13
 -1      2332 2.05492E+01 2.10178E-01-1.41682E-03-6.98530E-01 1.52051E-13-2.61029E-13
 -1      2333 2.05193E+01 1.40066E-01 3.33687E-03-4.70594E-01-7.86166E-15-1.61607E-13
 -1      2334 2.04351E+01 1.28881E-01 1.12399E-04-4.20435E-01-1.00558E-13-1.08646E-13
 -1      2335 2.04270E+01 1.90521E-01-1.23158E-03-5.64296E-01 5.57416E-14-9.62897E-14
 -1      2336 2.03922E+01 1.19131E-01 2.96055E-03-3.68325E-01-5.24372E-14-1.57803E-13
 -1      2337 2.03248E+01 1.07634E-01 9.09161E-05-3.25706E-01 5.45286E-14-2.97474E-14
 -1      2338 2.03275E+01 1.64154E-01-1.09148E-03-4.45673E-01-4.88235E-14 4.97454E-14
 -1      2339 2.02906E+01 9.80156E-02 2.52297E-03-2.82199E-01 4.11586E-14-3.36985E-14
 -1      2340 2.02377E+01 8.73074E-02 8.49261E-05-2.47108E-01 4.54443E-14 8.23831E-14
 -1      2341 2.02472E+01 1.36422E-01-9.64755E-04-3.44720E-01 6.31128E-14 4.03219E-14
 -1      2342 2.02108E+01 7.85477E-02 2.08491E-03-2.11722E-01 3.73884E-14 1.10824E-13
 -1      2343 2.01701E+01 6.91373E-02 8.27004E-05-1.83554E-01 1.55043E-13 2.36062E-13
 -1      2344 2.01834E+01 1.10245E-01-8.40935E-04-2.61273E-01 5.53695E-14 1.59055E-13
 -1      2345 2.01491E+01 6.15471E-02 1.68001E-03-1.55407E-01 1.47724E-13 1.12107E-13
 -1      2346 2.01184E+01 5.35964E-02 7.96392E-05-1.33288E-01 8.38351E-14 5.29387E-14
 -1      2347 2.01333E+01 8.70303E-02-7.19526E-04-1.93943E-01 5.53681E-14 1.09887E-13
 -1      2348 2.01024E+01 4.72459E-02 1.32427E-03-1.11347E-01 6.93326E-14 1.06935E-15
 -1      2349 2.00797E+01 4.07239E-02 7.45869E-05-9.43254E-02-5.78355E-14 8.11907E-14
 -1      2350 2.00946E+01 6.72786E-02-6.03580E-04-1.40755E-01 7.91150E-14 2.07524E-14
 -1      2351 2.00677E+01 3.55529E-02 1.02281E-03-7.75490E-02-2.27588E-13 9.03672E-14
 -1      2352 2.00513E+01 3.03305E-02 6.78288E-05-6.47043E-02-1.31145E-13 9.37774E-14
 -1      2353 2.00652E+01 5.09822E-02-4.96501E-04-9.95557E-02-1.10670E-13 8.60889E-15
 -1      2354 2.00424E+01 2.62145E-02 7.74411E-04-5.21212E-02-7.40896E-14 5.31709E-14
 -1      2355 2.00309E+01 2.21205E-02 6.00861E-05-4.26208E-02-3.05929E-14 1.97378E-13
 -1      2356 2.00434E+01 3.78659E-02-4.00758E-04-6.82453E-02-8.93799E-14 1.22104E-13
 -1      2357 2.00245E+01 1.89107E-02 5.74456E-04-3.33707E-02-7.21077E-14 6.98163E-14
 -1      2358 2.00167E+01 1.57643E-02 5.20620E-05-2.64929E-02-2.22885E-14-1.24568E-14
 -1      2359 2.00274E+01 2.75342E-02-3.17591E-04-4.49067E-02-1.13976E-13-6.71087E-14
 -1      2360 2.00123E+01 1.33093E-02 4.16787E-04-1.98403E-02-7.03677E-14-9.91026E-14
 -1      2361 2.00072E+01 1.09380E-02 4.42702E-05-1.49797E-02-1.70407E-13-6.14594E-14
 -1      2362 2.00161E+01 1.95565E-02-2.47153E-04-2.78634E-02-1.22098E-13-2.46092E-13
 -1      2363 2.00042E+01 9.09611E-03 2.94842E-04-1.03136E-02-3.19507E-14-6.87709E-14
 -1      2364 2.00011E+01 7.34400E-03 3.69934E-05-6.97520E-03 4.36685E-14-7.34906E-15
 -1      2365 2.00083E+01 1.35144E-02-1.88803E-04-1.56972E-02-1.25837E-13-4.51055E-14
 -1      2366 1.99991E+01 5.98843E-03 2.02308E-04-3.80039E-03-1.23509E-13-4.52334E-15
 -1      2367 1.99974E+01 4.71957E-03 3.02947E-05-1.58927E-03-2.51887E-13 9.34719E-14
 -1      2368 2.00032E+01 9.02595E-03-1.41399E-04-7.23956E-03-9.66431E-14-1.10278E-15
 -1      2369 1.99963E+01 3.74041E-03 1.33472E-04 4.86319E-04-2.37613E-13 1.90888E-13
 -1      2370 1.99956E+01 2.83878E-03 2.40448E-05 1.87739E-03-7.73085E-14 1.48508E-13
 -1      2371 2.00000E+01 5.75526E-03-1.03552E-04-1.55130E-03-1.58847E-13 1.27713E-13
 -1      2372 1.99950E+01 2.14220E-03 8.33733E-05 3.15614E-03-3.91408E-14 1.85133E-13
 -1      2373 1.99950E+01 1.50977E-03 1.79616E-05 3.95932E-03 8.32768E-14 2.01934E-13
 -1      2374 1.99982E+01 3.41383E-03-7.38143E-05 2.10440E-03-1.15243E-13 2.03006E-13
 -1      2375 1.99947E+01 1.01606E-03 4.78708E-05 4.66716E-03 2.31859E-13 7.05257E-14
 -1      2376 1.99951E+01 5.69924E-04 1.16870E-05 5.05079E-03 3.39963E-13-4.38155E-14
 -1      2377 1.99973E+01 1.75666E-03-5.08269E-05 4.28957E-03 2.03143E-14 1.66000E-13
 -1      2378 1.99951E+01 2.10756E-04 2.36425E-05 5.34924E-03 2.37447E-13-8.95289E-14
 -1      2379 1.99957E+01-1.20331E-04 4.81124E-06 5.42771E-03 1.86705E-13-1.63895E-13
 -1      2380 1.99971E+01 5.75956E-04-3.34180E-05 5.41784E-03 2.19304E-13 1.05333E-13
 -1      2381 1.99959E+01-4.04517E-04 8.13020E-06 5.42375E-03 3.17728E-13-8.75607E-14
 -1      2382 1.99965E+01-6.80172E-04-1.85968E-06 5.26570E-03 1.54337E-13 1.80206E-13
 -1      2383 1.99973E+01-3.06848E-04-2.07572E-05 5.77846E-03 2.71788E-13-2.03009E-14
 -1      2384 1.99968E+01-9.47181E-04-2.67766E-06 5.02518E-03-1.40410E-13 1.68458E-13
 -1      2385 1.99975E+01-1.20464E-03-8.29598E-06 4.66028E-03-7.21809E-14 1.67057E-13
 -1      2386 1.99977E+01-1.03696E-03-1.14838E-05 5.55793E-03 9.26870E-14 8.82166E-14
 -1      2387 2.18618E+01 2.06901E-02-1.59703E-03-8.93552E-01 1.74119E-13 2.23767E-13
 -1      2388 2.16953E+01 1.04347E-01 8.40508E-03-8.59105E-01 2.11015E-13 2.68383E-13
 -1      2389 2.22092E+01-1.70082E-01-7.47704E-03-8.60989E-01 1.10748E-13 1.75476E-13
 -1      2390 2.20249E+01-6.58763E-02 5.97711E-03-9.07135E-01 1.37920E-13 2.08432E-13
 -1      2391 2.17265E+01-3.35638E-02-7.41358E-03-1.04877E+00 1.86280E-13 1.04472E-13
 -1      2392 2.25868E+01-4.02976E-01-1.38808E-02-6.31967E-01 6.14357E-14 2.06740E-13
 -1      2393 2.24237E+01-2.77923E-01 4.78710E-03-7.74602E-01 6.91166E-14 2.08454E-13
 -1      2394 2.20901E+01-3.14620E-01-7.39375E-03-9.88411E-01 9.11686E-14 1.15206E-13
 -1      2395 2.29368E+01-6.43847E-01-1.88177E-02-1.78585E-01 2.95267E-14 2.96394E-13
 -1      2396 2.28373E+01-5.22635E-01 3.56078E-03-4.24848E-01 2.60026E-14 2.81360E-13
 -1      2397 2.25386E+01-6.43121E-01-6.42814E-03-6.97093E-01 1.16866E-14 1.75491E-13
 -1      2398 2.31812E+01-7.93067E-01-1.85945E-02 4.77450E-01-3.32321E-14 3.90360E-13
 -1      2399 2.31860E+01-7.36630E-01 5.22097E-04 1.53540E-01 1.46298E-14 3.45924E-13
 -1      2400 2.30268E+01-9.50216E-01-2.74949E-03-1.44472E-01-3.18946E-14 2.81852E-13
 -1      2401 2.32247E+01-6.89415E-01-9.11278E-03 1.20155E+00 5.71895E-15 3.84589E-13
 -1      2402 2.33564E+01-7.85791E-01-6.59460E-03 8.85983E-01-5.83431E-15 4.09710E-13
 -1      2403 2.34575E+01-1.07386E+00 4.72340E-03 6.34233E-01 5.19767E-16 3.20033E-13
 -1      2404 2.29962E+01-2.01774E-01 8.25237E-03 1.70146E+00 1.20013E-13 2.79382E-13
 -1      2405 2.32341E+01-5.01550E-01-1.64443E-02 1.54480E+00 3.03568E-14 3.44358E-13
 -1      2406 2.36751E+01-7.94276E-01 1.24773E-02 1.45415E+00 7.74687E-14 2.49577E-13
 -1      2407 2.25494E+01 5.83657E-01 2.07167E-02 1.61188E+00 2.93892E-13 1.70109E-13
 -1      2408 2.28085E+01 1.65983E-01-2.40576E-02 1.76174E+00 2.02789E-13 2.30071E-13
 -1      2409 2.35466E+01 2.76792E-04 1.14007E-02 1.93381E+00 2.04178E-13 2.23241E-13
 -1      2410 2.21309E+01 1.26332E+00 1.36711E-02 7.65642E-01 3.97921E-13 1.39156E-13
 -1      2411 2.22888E+01 9.70645E-01-1.96949E-02 1.23552E+00 3.84760E-13 1.39593E-13
 -1      2412 2.31380E+01 1.06308E+00-9.80580E-03 1.64248E+00 3.38706E-13 1.61513E-13
 -1      2413 2.20774E+01 1.35847E+00-5.43482E-03-5.20050E-01 3.91461E-13-1.00330E-13
 -1      2414 2.20412E+01 1.40605E+00 1.74007E-03 6.39815E-02 4.24358E-13 1.17753E-14
 -1      2415 2.27996E+01 1.80241E+00-2.79760E-02 4.84288E-01 4.71002E-13 4.97324E-16
 -1      2416 2.24771E+01 7.91492E-01-2.16525E-02-1.57608E+00 3.04885E-13-2.98548E-13
 -1      2417 2.22569E+01 1.14253E+00 2.02373E-02-1.17405E+00 3.21406E-13-1.77883E-13
 -1      2418 2.28771E+01 1.69390E+00-2.26143E-02-9.89875E-01 4.35815E-13-1.93417E-13
 -1      2419 2.30622E+01-1.75604E-02-2.13340E-02-1.91315E+00 3.12692E-13-4.58404E-13
 -1      2420 2.27639E+01 3.84143E-01 1.89539E-02-1.84651E+00 3.43738E-13-3.67191E-13
 -1      2421 2.33122E+01 8.11200E-01-2.55881E-03-1.96301E+00 3.60127E-13-3.73359E-13
 -1      2422 2.34743E+01-5.94162E-01-1.10101E-02-1.56154E+00 1.15967E-13-4.31889E-13
 -1      2423 2.32199E+01-3.49367E-01 3.04244E-03-1.76413E+00 2.78029E-13-3.95567E-13
 -1      2424 2.37122E+01-2.29077E-01 1.32210E-02-2.04012E+00 3.02637E-13-4.09192E-13
 -1      2425 2.35683E+01-7.88744E-01-1.81191E-03-8.60829E-01-1.03666E-13-4.55579E-13
 -1      2426 2.34305E+01-7.39061E-01-1.26088E-02-1.18085E+00-2.57242E-14-3.92332E-13
 -1      2427 2.37861E+01-8.97243E-01 1.27995E-02-1.44047E+00 3.65697E-14-3.76704E-13
 -1      2428 2.33835E+01-6.90407E-01 2.71305E-03-1.50397E-01-1.23610E-13-5.02192E-13
 -1      2429 2.33748E+01-7.67689E-01-1.95760E-02-4.53326E-01-1.24735E-13-4.33253E-13
 -1      2430 2.35308E+01-1.06982E+00 2.55058E-03-6.02905E-01-1.04136E-13-3.93576E-13
 -1      2431 2.30397E+01-4.71149E-01 3.64569E-03 3.85422E-01-9.61479E-14-3.90190E-13
 -1      2432 2.31340E+01-5.89497E-01-1.79474E-02 1.64407E-01-7.42392E-14-4.31064E-13
 -1      2433 2.30947E+01-8.89732E-01-3.73999E-03 1.37484E-01-1.03332E-13-3.11127E-13
 -1      2434 2.26341E+01-2.51413E-01 2.97314E-03 7.07442E-01 6.33174E-14-2.71010E-13
 -1      2435 2.27941E+01-3.58955E-01-1.26724E-02 5.78936E-01-6.00479E-14-3.74188E-13
 -1      2436 2.26185E+01-5.83141E-01-5.58648E-03 6.46938E-01-7.71098E-14-2.53362E-13
 -1      2437 2.22240E+01-8.30585E-02 2.06664E-03 8.49001E-01 6.95830E-14-8.85837E-14
 -1      2438 2.24163E+01-1.60921E-01-7.04973E-03 7.96624E-01 1.57290E-13-1.53691E-13
 -1      2439 2.21739E+01-2.94207E-01-5.13890E-03 9.24839E-01 4.57280E-14-1.30854E-13
 -1      2440 2.18390E+01 2.55152E-02 1.41725E-03 8.64449E-01-1.13896E-13-2.42991E-13
 -1      2441 2.20387E+01-2.23294E-02-2.49040E-03 8.64297E-01 8.19397E-15-1.33579E-13
 -1      2442 2.17844E+01-7.96617E-02-3.97288E-03 1.02310E+00 6.19046E-14-7.76296E-14
 -1      2443 2.14927E+01 8.49220E-02 1.04250E-03 8.04006E-01-7.08191E-14-1.76060E-13
 -1      2444 2.16833E+01 6.03455E-02 6.27318E-04 8.34548E-01-1.33858E-13-2.04627E-13
 -1      2445 2.14510E+01 5.52949E-02-2.94639E-03 1.00217E+00-7.04882E-14-1.91749E-13
 -1      2446 2.11904E+01 1.10124E-01 8.53691E-04 7.05408E-01-3.55954E-15-1.73350E-13
 -1      2447 2.13623E+01 1.01135E-01 2.45713E-03 7.50704E-01-2.35706E-16-1.88990E-13
 -1      2448 2.11681E+01 1.26875E-01-2.26435E-03 9.12672E-01-1.77486E-14-2.99389E-13
 -1      2449 2.09328E+01 1.14158E-01 7.59218E-04 5.93740E-01-1.72920E-13-1.96354E-13
 -1      2450 2.10817E+01 1.14501E-01 3.32555E-03 6.43363E-01-8.97929E-14-2.09624E-13
 -1      2451 2.09295E+01 1.55165E-01-1.85513E-03 7.91061E-01-3.10320E-14-2.44686E-13
 -1      2452 2.07181E+01 1.06501E-01 6.98573E-04 4.84060E-01-1.20653E-13-2.76620E-13
 -1      2453 2.08428E+01 1.11787E-01 3.55322E-03 5.31891E-01-1.57780E-13-2.38805E-13
 -1      2454 2.07298E+01 1.57059E-01-1.60606E-03 6.61028E-01-9.67665E-14-3.41544E-13
 -1      2455 2.05427E+01 9.33498E-02 6.42436E-04 3.84406E-01-6.83470E-14-1.14164E-13
 -1      2456 2.06444E+01 1.00781E-01 3.39706E-03 4.27296E-01-1.37172E-13-1.66197E-13
 -1      2457 2.05645E+01 1.44646E-01-1.43022E-03 5.36563E-01-1.87732E-13-3.08689E-13
 -1      2458 2.04020E+01 7.84500E-02 5.80806E-04 2.98285E-01 8.28372E-14 8.22668E-15
 -1      2459 2.04831E+01 8.63704E-02 3.03989E-03 3.34967E-01 5.08259E-14 2.96914E-14
 -1      2460 2.04296E+01 1.25752E-01-1.27811E-03 4.24960E-01-7.18758E-14-8.17914E-14
 -1      2461 2.02914E+01 6.38961E-02 5.13213E-04 2.26483E-01 5.25118E-14-8.17340E-14
 -1      2462 2.03546E+01 7.14056E-02 2.60094E-03 2.56798E-01 1.51767E-13-5.10638E-14
 -1      2463 2.03211E+01 1.05068E-01-1.12944E-03 3.29205E-01 1.14111E-13-6.71029E-14
 -1      2464 2.02060E+01 5.07418E-02 4.42937E-04 1.68271E-01-7.72031E-14-4.51673E-14
 -1      2465 2.02542E+01 5.74085E-02 2.15240E-03 1.92655E-01-2.06535E-14-6.68452E-14
 -1      2466 2.02353E+01 8.51862E-02-9.80283E-04 2.49694E-01 2.97906E-15-1.01005E-13
 -1      2467 2.01412E+01 3.94178E-02 3.73854E-04 1.22168E-01-1.64639E-13 4.72173E-14
 -1      2468 2.01773E+01 4.50865E-02 1.73423E-03 1.41338E-01-1.23719E-13 1.04248E-13
 -1      2469 2.01685E+01 6.73861E-02-8.33793E-04 1.85378E-01-1.98016E-13 1.56311E-13
 -1      2470 2.00931E+01 2.99997E-02 3.09137E-04 8.64146E-02 1.37326E-13 1.30705E-13
 -1      2471 2.01195E+01 3.46701E-02 1.36562E-03 1.01175E-01-5.23416E-14 4.20465E-14
 -1      2472 2.01174E+01 5.21607E-02-6.94921E-04 1.34509E-01-9.17198E-14 2.90663E-13
 -1      2473 2.00581E+01 2.23743E-02 2.50875E-04 5.92331E-02 2.83047E-13 1.16398E-13
 -1      2474 2.00770E+01 2.61262E-02 1.05305E-03 7.03728E-02 2.38510E-13 2.17106E-13
 -1      2475 2.00791E+01 3.95592E-02-5.67916E-04 9.50880E-02 1.73311E-13 2.88501E-13
 -1      2476 2.00334E+01 1.63387E-02 2.00126E-04 3.89759E-02 3.74046E-13 8.18117E-15
 -1      2477 2.00465E+01 1.92875E-02 7.95699E-04 4.72145E-02 4.22172E-13 1.29251E-13
 -1      2478 2.00510E+01 2.93974E-02-4.55470E-04 6.51306E-02 4.29545E-13 1.26665E-13
 -1      2479 2.00164E+01 1.16586E-02 1.57127E-04 2.41918E-02 1.65701E-13-1.19048E-13
 -1      2480 2.00251E+01 1.39299E-02 5.88873E-04 3.01544E-02 3.31456E-13-5.63102E-14
 -1      2481 2.00308E+01 2.13834E-02-3.58697E-04 4.28096E-02 4.14259E-13 8.39500E-14
 -1      2482 2.00052E+01 8.10066E-03 1.21534E-04 1.36477E-02 3.35210E-14-2.55410E-13
 -1      2483 2.00108E+01 9.81572E-03 4.26129E-04 1.78600E-02 2.90690E-14-1.00053E-13
 -1      2484 2.00167E+01 1.51906E-02-2.77445E-04 2.65209E-02 1.99470E-13 1.84282E-14
 -1      2485 1.99983E+01 5.44855E-03 9.26238E-05 6.32568E-03-5.96905E-14-3.33244E-13
 -1      2486 2.00015E+01 6.71796E-03 3.00560E-04 9.21780E-03 8.11183E-14-2.60981E-13
 -1      2487 2.00073E+01 1.04984E-02-2.10690E-04 1.49042E-02 9.58966E-14 5.01164E-14
 -1      2488 1.99944E+01 3.51097E-03 6.94432E-05 1.40576E-03 1.21046E-14-3.04520E-13
 -1      2489 1.99960E+01 4.43149E-03 2.05503E-04 3.32113E-03-1.65459E-13-4.27273E-13
 -1      2490 2.00012E+01 7.01265E-03-1.56895E-04 6.83816E-03-2.69398E-14 5.98017E-14
 -1      2491 1.99926E+01 2.12302E-03 5.09072E-05-1.75686E-03 1.38680E-14-5.80209E-14
 -1      2492 1.99931E+01 2.77742E-03 1.34919E-04-5.50601E-04 1.34671E-13-2.14031E-13
 -1      2493 1.99976E+01 4.47416E-03-1.14283E-04 1.42035E-03-2.17967E-14-9.44397E-14
 -1      2494 1.99922E+01 1.14462E-03 3.58583E-05-3.65566E-03 7.54378E-14-1.16282E-13
 -1      2495 1.99920E+01 1.60296E-03 8.35520E-05-2.95601E-03 6.29836E-14-1.05862E-13
 -1      2496 1.99957E+01 2.66016E-03-8.10547E-05-2.05751E-03 2.85845E-14 1.64542E-13
 -1      2497 1.99928E+01 4.57100E-04 2.31537E-05-4.65514E-03-3.39540E-14-1.57682E-13
 -1      2498 1.99921E+01 7.78669E-04 4.69783E-05-4.31507E-03 4.55051E-14-8.67262E-14
 -1      2499 1.99950E+01 1.38152E-03-5.55161E-05-4.13611E-03 4.56305E-14 8.93247E-14
 -1      2500 1.99938E+01-4.12035E-05 1.17224E-05-5.01059E-03 7.90074E-14 5.87020E-14
 -1      2501 1.99930E+01 1.94606E-04 2.15960E-05-4.93032E-03-9.79655E-14 2.08036E-14
 -1      2502 1.99952E+01 4.78080E-04-3.61484E-05-5.21338E-03-1.22089E-13 1.44688E-13
 -1      2503 1.99952E+01-4.39291E-04 1.39632E-06-4.88436E-03-2.49783E-14 1.20251E-13
 -1      2504 1.99942E+01-2.44977E-04 4.50251E-06-5.00529E-03 7.03683E-14 2.15518E-13
 -1      2505 1.99957E+01-1.87543E-04-2.17751E-05-5.56757E-03-2.46195E-14 3.20388E-13
 -1      2506 1.99965E+01-8.17854E-04-7.58461E-06-4.36150E-03-1.38348E-13 4.92540E-14
 -1      2507 1.99956E+01-6.29254E-04-7.42422E-06-4.66127E-03-5.14022E-15 1.18343E-13
 -1      2508 1.99966E+01-7.28967E-04-9.73368E-06-5.37948E-03 1.67450E-15 2.67747E-13
 -1      2509 1.99978E+01-1.22156E-03-1.69411E-05-3.47978E-03-3.53602E-13-1.68658E-13
 -1      2510 1.99970E+01-1.00983E-03-1.09679E-05-3.94276E-03-3.01867E-13-2.56441E-14
 -1      2511 1.99975E+01-1.26693E-03 7.11619E-07-4.75134E-03-1.36785E-13 2.13947E-13
 -1      2512 1.99983E+01-1.41226E-03-1.10791E-05-2.84436E-03-2.79148E-13-1.45482E-13
 -1      2513 2.00010E+01-5.60167E-03 1.69770E-05-3.25005E-03 1.06960E-13 1.59116E-13
 -1      2514 2.00008E+01-5.09459E-03 5.05488E-06-3.63623E-03-1.29348E-13-4.75384E-14
 -1      2515 2.00013E+01-6.23787E-03 1.81409E-05-2.20409E-03 1.92632E-13 1.21076E-14
 -1      2516 2.00012E+01-5.87734E-03 1.14906E-05-2.72169E-03 2.18028E-13 5.25881E-14
 -1      2517 2.00015E+01-4.74059E-03-8.77949E-06-3.29958E-03 2.79443E-13 1.78455E-13
 -1      2518 1.99998E+01-3.65552E-03 1.43848E-05-4.29857E-03-2.60000E-13-1.48142E-13
 -1      2519 1.99994E+01-2.99369E-03-1.95119E-05-4.24959E-03-2.16892E-13 1.12060E-13
 -1      2520 2.00005E+01-4.71946E-03 1.49534E-05-3.99218E-03-3.44140E-13-3.12572E-13
 -1      2521 2.00002E+01-4.11864E-03-4.62796E-06-4.18234E-03-3.21890E-13-1.72482E-13
 -1      2522 2.00000E+01-3.31474E-03-8.44484E-06-4.72477E-03-1.33459E-13-1.03377E-13
 -1      2523 2.00009E+01-4.11732E-03-8.09570E-06-4.22604E-03-2.34470E-13-5.03748E-14
 -1      2524 2.00015E+01-6.59060E-03 1.86347E-05-9.79529E-04-1.63254E-13-3.35116E-13
 -1      2525 2.00014E+01-6.40394E-03 1.59293E-05-1.57079E-03-6.44423E-14-1.61505E-13
 -1      2526 2.00019E+01-5.16401E-03-9.43801E-06-2.08226E-03 1.17937E-14-2.59519E-13
 -1      2527 2.00015E+01-6.64358E-03 1.81822E-05 3.18180E-04-2.34889E-13-2.02298E-13
 -1      2528 2.00015E+01-6.64523E-03 1.81687E-05-2.96335E-04-1.66108E-13-2.22543E-13
 -1      2529 2.00020E+01-5.37646E-03-9.43832E-06-7.03125E-04-1.40859E-13-2.71694E-13
 -1      2530 2.00014E+01-6.39721E-03 1.61729E-05 1.59126E-03-1.53105E-13 3.51101E-14
 -1      2531 2.00015E+01-6.58723E-03 1.85288E-05 1.00096E-03-1.85218E-13-3.21818E-14
 -1      2532 2.00020E+01-5.37479E-03-9.41531E-06 7.27020E-04-1.09596E-13-1.25071E-13
 -1      2533 2.00012E+01-5.87777E-03 1.13760E-05 2.72165E-03-7.33533E-14-9.89730E-14
 -1      2534 2.00013E+01-6.23360E-03 1.80012E-05 2.21356E-03-8.37122E-14-2.87723E-14
 -1      2535 2.00019E+01-5.16190E-03-9.39672E-06 2.09349E-03 3.85727E-14-1.72842E-14
 -1      2536 2.00008E+01-5.09733E-03 3.71312E-06 3.63652E-03-1.53204E-14 7.12462E-15
 -1      2537 2.00010E+01-5.60086E-03 1.72230E-05 3.24965E-03 4.34025E-14-1.39874E-13
 -1      2538 2.00015E+01-4.74022E-03-8.91756E-06 3.30045E-03 7.36783E-14-7.51435E-14
 -1      2539 2.00002E+01-4.11056E-03-7.17719E-06 4.18415E-03-6.79929E-14 1.54553E-13
 -1      2540 2.00005E+01-4.71325E-03 1.61720E-05 3.99352E-03-1.46078E-13 2.65530E-13
 -1      2541 2.00009E+01-4.10640E-03-4.58939E-06 4.23526E-03-1.10578E-13-1.46345E-13
 -1      2542 1.99994E+01-2.97384E-03-1.58305E-05 4.22431E-03-3.37680E-13-9.30639E-14
 -1      2543 1.99998E+01-3.63449E-03 1.12950E-05 4.30182E-03-1.79489E-13-5.01832E-14
 -1      2544 2.00001E+01-3.29302E-03-2.86588E-06 4.72436E-03-2.23417E-13-7.73176E-15
 -1      2545 4.17414E+00-3.09657E+00 3.86544E-02 3.27062E+00-6.40044E-14 9.96425E-13
 -1      2546 3.04047E+00-3.02600E+00 6.08828E-02 9.92052E-01 7.80626E-15 9.27869E-13
 -1      2547 1.84123E+01-5.45653E+00-9.95061E-03 6.61593E+00-3.16858E-13 8.17783E-14
 -1      2548 1.44517E+01-5.32241E+00 6.46726E-02 6.65469E+00-4.58494E-13 3.04951E-13
 -1      2549 2.15906E+01 1.77848E-01 3.28618E-03-7.62344E-01 2.44277E-13 2.70726E-13
 -1      2550 2.14796E+01 2.56092E-01 1.31616E-02-6.56033E-01 2.97219E-13 3.30202E-13
 -1      2551 2.14683E+01 1.98818E-01-7.19303E-03-9.17598E-01 2.65674E-13 1.09083E-13
 -1      2552 1.01993E+01-4.58230E+00 6.21430E-03 6.59212E+00-3.53051E-13 6.85285E-13
 -1      2553 6.94337E+00-3.90506E+00 8.21886E-02 5.17011E+00-2.97651E-13 8.10435E-13
 -1      2554 1.99987E+01-2.12883E-03-7.17293E-06 3.40441E-03 1.06806E-13-1.23479E-13
 -1      2555 1.13037E+01-4.99159E+00 4.26948E-02-6.49506E+00 5.27162E-13 4.93217E-13
 -1      2556 1.50954E+01-5.30667E+00-2.69220E-02-6.97072E+00 4.96825E-13 2.46622E-13
 -1      2557 3.25354E+01 7.03842E+00-1.48836E-01 6.28229E-01-1.18372E-12-5.63716E-13
 -1      2558 3.35055E+01 7.46604E+00-7.89312E-02 1.57597E-01-1.36635E-12-5.08258E-13
 -1      2559 6.32060E+00-3.21873E+00 6.20219E-02 4.78877E+00 4.70735E-14-1.31750E-12
 -1      2560 4.08209E+00-3.05878E+00 8.96176E-02 2.58775E+00 1.08247E-14-1.43818E-12
 -1      2561 3.35693E+01 7.02414E+00-7.58674E-02-6.05812E-01 1.42442E-12-3.41630E-13
 -1      2562 3.25959E+01 5.72422E+00-1.13350E-01-9.53041E-01 1.36957E-12-4.54303E-13
 -1      2563 2.81060E+00-3.19627E+00 3.44690E-02-1.01824E+00 1.71616E-13 8.89178E-13
 -1      2564 4.10494E+00-3.33644E+00 4.92129E-02-3.25901E+00 2.53492E-13 7.93698E-13
 -1      2565 4.65855E+00-1.84699E+00 1.62403E-01 1.88696E-02 2.79620E-14 8.59812E-13
 -1      2566 6.90850E+00-4.06801E+00 5.93055E-02-5.31685E+00 3.27988E-13 6.38073E-13
 -1      2567 9.05968E+00-4.44782E+00 7.22489E-02-6.25687E+00 3.33567E-13 5.97439E-13
 -1      2568 1.21522E+01-4.25640E+00 1.01263E-01-6.43397E+00 5.50837E-13 3.44419E-13
 -1      2569 1.83417E+01 4.15435E+00-8.75227E-03-6.05985E-02 5.94211E-14-9.24484E-13
 -1      2570 1.84373E+01 4.11887E+00-5.61032E-03-1.34316E-01-1.05298E-14-9.29066E-13
 -1      2571 1.85843E+01 3.79562E+00 2.38703E-03-9.21165E-02-4.27935E-14-8.53051E-13
 -1      2572 1.83839E+01 3.91161E+00 2.73543E-03-2.41010E-02 8.50556E-14-8.66389E-13
 -1      2573 2.50044E+01-4.61773E+00-1.02917E-01 4.30158E+00-8.29059E-14-8.47100E-14
 -1      2574 2.18907E+01-5.31407E+00 8.93411E-03 5.34041E+00-2.39170E-13 2.91017E-14
 -1      2575 1.94498E+01-5.55965E+00 4.31002E-02-6.20050E+00-1.23151E-13-8.26894E-13
 -1      2576 2.29493E+01-5.13457E+00-5.96825E-02-5.57876E+00 3.33622E-14-6.57238E-13
 -1      2577 3.23250E+01 7.19844E+00-1.36051E-01 3.18931E-01 1.47765E-12-7.52037E-14
 -1      2578 3.34183E+01 7.54648E+00-3.48098E-02-1.91223E-01 1.41503E-12-2.47653E-13
 -1      2579 3.09025E+01 6.95763E+00-5.75214E-02-6.06071E-01 1.34204E-12-2.48940E-13
 -1      2580 3.06943E+01-4.20303E-01-2.56267E-02-7.21672E-01 6.30752E-13-8.32112E-14
 -1      2581 3.15856E+01 1.17002E+00-1.61283E-01 1.06951E-01 8.11184E-13 1.43219E-14
 -1      2582 3.30419E+01 4.80869E+00-9.72693E-02-7.39492E-01-1.41054E-12-1.73445E-13
 -1      2583 3.19637E+01 3.04924E+00-8.53194E-02-6.91900E-01-1.27243E-12-2.55351E-14
 -1      2584 2.60919E+01-4.11288E+00-9.58576E-03-3.73934E+00 1.86212E-13-4.09422E-13
 -1      2585 2.91087E+01-2.41759E+00-8.02030E-02-2.48348E+00 4.72428E-13-2.36811E-13
 -1      2586 2.92792E+01-2.17953E+00 9.04888E-03-7.99000E-01 2.57676E-13 1.76470E-13
 -1      2587 1.08381E+01-5.02677E+00 4.65349E-02-6.53573E+00-2.53908E-13-1.29965E-12
 -1      2588 1.50266E+01-5.36349E+00-3.05291E-02-7.12249E+00-1.30340E-13-1.12022E-12
 -1      2589 4.94012E+00-3.41480E+00 7.11794E-02-3.86591E+00-2.91767E-13-1.55664E-12
 -1      2590 7.34008E+00-4.02365E+00 2.29017E-02-5.71340E+00-1.99118E-13-1.46691E-12
 -1      2591 3.17180E+00-2.83505E+00 7.97835E-02 8.29443E-01-1.36752E-13-1.51779E-12
 -1      2592 3.35741E+00-2.78327E+00 6.87713E-02-1.47791E+00-8.58480E-14-1.57907E-12
 -1      2593 5.65155E+00-1.63676E+00 1.70979E-01 1.78803E+00 5.05568E-14-1.42797E-12
 -1      2594 1.26561E+01-4.80632E+00 7.42276E-03 6.99762E+00 2.11303E-13-1.04111E-12
 -1      2595 9.81200E+00-4.14501E+00 1.22364E-01 6.15441E+00 2.46081E-13-1.17456E-12
 -1      2596 2.12200E+01-5.49877E+00-5.24970E-02 6.01845E+00 5.07372E-14-4.44048E-13
 -1      2597 1.67180E+01-5.45405E+00 7.93311E-02 6.61212E+00 2.47691E-13-7.68448E-13
 -1      2598 2.73592E+01-3.93587E+00-8.54338E-02 3.10372E+00-3.72993E-13-5.21805E-14
 -1      2599 2.50017E+01-4.84823E+00 3.86429E-02 4.04378E+00-1.10745E-13-1.53849E-13
 -1      2600 3.12690E+01 2.52715E-01-1.18119E-01 2.72587E-01-9.81132E-13 6.88893E-14
 -1      2601 2.92272E+01-2.00554E+00-4.98060E-02 1.38344E+00-6.49310E-13 3.61933E-14
 -1      2602 3.35272E+01 7.24610E+00-1.11610E-01-3.12520E-01-1.47093E-12-3.02494E-13
 -1      2603 3.31064E+01 6.44179E+00-1.05688E-01-5.99752E-01-1.47121E-12-2.86382E-13
 -1      2604 3.08461E+01 7.12824E+00-4.20425E-02-2.50548E-01-1.31206E-12-3.38670E-13
 -1      2605 3.22290E+01 4.25611E+00-8.80475E-02 1.14845E+00-8.69887E-13-6.47676E-13
 -1      2606 3.25294E+01 5.62622E+00-1.45990E-01 1.09179E+00-9.84046E-13-6.76820E-13
 -1      2607 3.02672E+01-5.35827E-01-5.34300E-02-3.83251E-01-4.87832E-13-6.03129E-13
 -1      2608 3.18476E+01 1.82863E+00-1.32457E-01 5.70313E-01-7.29833E-13-6.60361E-13
 -1      2609 2.66169E+01-4.00286E+00-4.54960E-04-3.08389E+00 1.62065E-13-1.63758E-13
 -1      2610 2.86843E+01-2.83251E+00-1.15534E-01-2.08949E+00-1.04028E-13-4.12642E-13
 -1      2611 1.97050E+01-5.53249E+00 5.83144E-02-5.94620E+00 4.62352E-13 5.57401E-14
 -1      2612 2.36625E+01-5.04518E+00-6.39198E-02-5.03138E+00 3.57325E-13 2.12885E-14
 -1      2613 2.15881E+01 9.04444E-01-2.59130E-03 6.07162E-01 6.09915E-13 5.42897E-13
 -1      2614 2.18093E+01 1.26566E+00-4.46471E-03 1.12741E+00 6.53103E-13 6.36251E-13
 -1      2615 2.15282E+01 1.73229E+00-1.59105E-02 1.26667E+00 7.05056E-13 3.89772E-13
 -1      2616 2.14093E+01 1.11832E+00-1.03588E-02 5.04601E-01 6.17463E-13 2.63798E-13
 -1      2617 3.20613E+01 3.73339E+00-5.98979E-02 9.14767E-01 1.10409E-12 2.53131E-14
 -1      2618 3.21777E+01 5.61155E+00-1.47538E-01 1.08054E+00 1.36596E-12 6.72795E-14
 -1      2619 3.21343E+01 3.58511E+00-8.96701E-02-1.06652E+00 1.14228E-12-5.97605E-13
 -1      2620 3.10677E+01 1.76043E+00-1.22995E-01-8.93392E-01 8.64780E-13-5.51559E-13
 -1      2621 2.10883E+01-5.48341E+00 7.34270E-02 5.53697E+00-4.94160E-13-2.28498E-14
 -1      2622 1.95171E+01 3.21013E+00 1.75067E-03-3.64159E-01-3.04381E-13-8.15582E-13
 -1      2623 1.95380E+01 3.45961E+00-1.69312E-02-5.77428E-01-3.34281E-13-8.54907E-13
 -1      2624 1.98590E+01 3.28002E+00-1.33115E-02-7.35196E-01-4.16598E-13-7.88068E-13
 -1      2625 7.28145E+00-2.59697E+00 1.62154E-01 4.24988E+00-3.22228E-13 7.99139E-13
 -1      2626 2.11385E+01 2.16906E+00-1.31699E-02 1.17371E+00 6.99859E-13 9.24434E-14
 -1      2627 3.05822E+01 2.01127E+00-5.04191E-02 1.33463E+00 7.88647E-13 2.80748E-13
 -1      2628 2.01546E+01 3.02822E+00-1.80947E-02-8.29373E-01-4.59577E-13-7.11521E-13
 -1      2629 2.05208E+01 2.75862E+00-1.92213E-02-9.97028E-01-5.39082E-13-6.04518E-13
 -1      2630 2.07305E+01 2.21493E+00 4.49868E-03-6.82350E-01-5.24051E-13-5.22753E-13
 -1      2631 2.01258E+01 2.76337E+00 3.82954E-03-5.39393E-01-4.23309E-13-6.94151E-13
 -1      2632 1.85925E+01-5.30052E+00 8.81548E-02-6.15249E+00 6.90198E-13 7.45896E-14
 -1      2633 2.54333E+01-4.86960E+00 3.97218E-02-3.46144E+00 4.38871E-13-2.30108E-13
 -1      2634 2.92521E+01-1.96516E+00-2.26778E-03-1.51079E-01-1.49417E-13-5.98577E-13
 -1      2635 1.99984E+01-1.79297E-03-1.04054E-05-3.66414E-03-3.79756E-13 6.63372E-14
 -1      2636 1.99988E+01-2.28290E-03 5.18222E-06-3.98305E-03-2.79108E-13 2.16367E-13
 -1      2637 2.10668E+01 1.91456E+00 1.14723E-02 7.98832E-01 6.49201E-13 1.59378E-14
 -1      2638 1.39451E+01-4.44416E+00 1.37383E-01 6.46932E+00-5.77260E-13 2.77250E-13
 -1      2639 3.04991E+01 1.13421E+00-4.75263E-02-1.09939E+00-8.86707E-13 2.05197E-13
 -1      2640 2.83754E+01-3.16108E+00 4.97736E-03 1.11947E+00-2.95958E-13 1.83131E-13
 -1      2641 2.13289E+01 4.23689E-01-6.47721E-03-6.14261E-01 3.67698E-13 1.60079E-13
 -1      2642 1.99982E+01-1.58964E-03-1.96592E-05 3.87617E-03 5.61949E-14 8.85745E-14
 -1      2643 1.99989E+01-2.45353E-03 4.46563E-06 4.21142E-03-5.08552E-14-4.22701E-14
 -1      2644 1.99990E+01-2.32510E-03-5.88704E-07 4.77803E-03-2.67581E-13 2.69819E-13
 -1      2645 1.99977E+01-1.38972E-03-1.44651E-05 4.37149E-03-6.90653E-15 1.47583E-13
 -1      2646 3.07332E+01 6.07732E+00-7.20259E-02 1.28357E+00-1.00248E-12-6.42958E-13
 -1      2647 2.35788E+01-5.30753E+00 5.59485E-02 4.54369E+00 2.46747E-13-1.32824E-13
 -1      2648 3.04033E+01 1.48793E-01-6.85161E-02-7.36306E-01 5.62481E-13-5.34350E-13
 -1      2649 2.91453E+01-1.28792E+00-1.50569E-02-4.44317E-01 2.84169E-13-6.27567E-13
 -1      2650 2.93345E+01 8.57942E-01-1.15608E-01-1.89197E+00 6.00686E-13-7.48707E-13
 -1      2651 5.95416E+00-1.97139E+00 1.62224E-01-2.64821E+00-2.22072E-13-1.54360E-12
 -1      2652 9.42421E+00-2.87533E+00 1.55869E-01 5.30255E+00 3.16136E-13-1.16385E-12
 -1      2653 2.52620E+01-4.92848E+00 5.62128E-02-3.93032E+00-1.82854E-13-2.41349E-13
 -1      2654 3.09868E+01 5.32523E+00-5.27849E-02-1.38571E+00-1.30784E-12-8.70970E-14
 -1      2655 3.09746E+01 6.03621E+00-1.36354E-01 1.04787E+00 1.34537E-12 3.30014E-14
 -1      2656 2.90470E+01 6.31745E+00-1.74101E-01 8.12526E-01 1.22763E-12-1.13798E-14
 -1      2657 2.92033E+01 4.93576E+00-7.66892E-02 1.69730E+00 1.11949E-12 2.61582E-13
 -1      2658 3.06671E+01 4.42268E+00-8.34856E-02-1.78438E+00 1.14103E-12-5.46702E-13
 -1      2659 6.54641E+00-1.63568E+00 1.56459E-01-3.26333E+00 2.46164E-13 6.58085E-13
 -1      2660 6.56914E+00-3.02430E+00 1.25450E-01-4.35332E+00 2.88686E-13 7.10765E-13
 -1      2661 9.08710E+00-2.69009E+00 7.64775E-02-5.17804E+00 3.78031E-13 5.18391E-13
 -1      2662 1.83636E+01-5.36534E+00 9.01687E-02-6.42623E+00-3.67123E-13-8.36145E-13
 -1      2663 1.99982E+01-1.62822E-03-3.90512E-06 5.00125E-03-1.20099E-13 3.13527E-13
 -1      2664 2.71058E+01-3.90854E+00 5.42475E-02 2.76473E+00-4.85029E-14-2.25653E-13
 -1      2665 2.59032E+01-4.68580E+00 7.71760E-02 2.97785E+00-3.66013E-13-2.43611E-13
 -1      2666 2.78403E+01-3.44166E+00-1.75958E-01 9.04728E-01-6.21499E-14-4.60243E-13
 -1      2667 1.09292E+01-3.80070E+00 1.42706E-01-6.10823E+00-4.40176E-13-1.32636E-12
 -1      2668 1.64861E+01-4.76474E+00 1.32016E-01 6.47305E+00 5.03653E-13-6.77985E-13
 -1      2669 3.05600E+01 2.40415E+00-5.27118E-02 1.62671E+00-6.64468E-13-7.43766E-13
 -1      2670 1.99988E+01-2.20346E-03-9.93199E-06-4.62865E-03-2.72634E-13 1.79921E-13
 -1      2671 1.86732E+01 3.45986E+00-2.97392E-03 2.49985E-02 3.30428E-13-7.39595E-13
 -1      2672 1.85099E+01 3.54541E+00-7.59043E-03-1.10102E-02 2.67847E-13-7.65890E-13
 -1      2673 1.83971E+01 3.62682E+00-4.05284E-03 7.30810E-03 2.36038E-13-7.88970E-13
 -1      2674 1.83378E+01 3.65725E+00-5.75259E-03-1.36281E-02 1.75196E-13-7.96637E-13
 -1      2675 1.84812E+01 3.33964E+00 6.63948E-03-6.40241E-02 2.38803E-13-7.48590E-13
 -1      2676 1.97390E+01 2.73459E+00-5.81243E-03 2.14181E-01 5.09883E-13-5.31565E-13
 -1      2677 1.94220E+01 2.94471E+00-9.48677E-03 1.29257E-01 4.68368E-13-5.94456E-13
 -1      2678 2.04328E+01 2.16649E+00-7.05743E-03 3.56401E-01 5.70907E-13-3.17168E-13
 -1      2679 2.00777E+01 2.46245E+00-7.87891E-03 2.70918E-01 5.31521E-13-4.29251E-13
 -1      2680 1.99849E+01 2.28341E+00 5.28910E-03 1.00529E-02 4.83053E-13-4.39717E-13
 -1      2681 1.63044E+01-4.49664E+00 3.41018E-02 6.26867E+00-5.86933E-13 2.80886E-14
 -1      2682 1.27737E+01-3.45748E+00 1.55357E-01 6.04303E+00-5.59386E-13 2.95833E-13
 -1      2683 2.09215E+01 1.26325E+00 6.42540E-03 9.26131E-02-3.78201E-13-3.83283E-13
 -1      2684 2.09119E+01 1.02208E+00-2.80840E-03 3.94872E-01-3.20665E-13-3.59616E-13
 -1      2685 2.11202E+01 8.80046E-01-3.39396E-04-2.75977E-01 4.49993E-13 6.84056E-15
 -1      2686 2.11569E+01 1.09654E+00 1.00642E-02 3.70282E-02 4.94304E-13 3.21751E-14
 -1      2687 2.10010E+01 1.63430E+00-1.01333E-03 4.57965E-01 5.87664E-13-3.58086E-14
 -1      2688 2.24584E+01-9.20517E-01-1.29116E-02-8.48449E-01-6.32268E-14 1.15307E-13
 -1      2689 2.22450E+01-6.75007E-01 1.44976E-02-1.04298E+00-7.98781E-15 5.89522E-14
 -1      2690 2.41615E+01-5.09033E+00 1.11728E-01-3.70106E+00 6.61540E-13-1.77441E-13
 -1      2691 2.61436E+01-4.64233E+00-1.35886E-01-2.20478E+00 4.09797E-13-3.05311E-13
 -1      2692 2.09450E+01 8.23276E-01 9.19213E-03 6.50002E-01-2.74138E-13-3.30959E-13
 -1      2693 2.09725E+01 6.38883E-01-8.60927E-04 8.63183E-01-2.17045E-13-3.21866E-13
 -1      2694 2.06614E+01 1.14529E+00-2.46471E-03 5.37895E-01-2.83777E-13-4.12456E-13
 -1      2695 2.10279E+01 4.70045E-01 9.29112E-03 1.05423E+00-1.72183E-13-2.75062E-13
 -1      2696 2.11118E+01 2.89407E-01-5.02332E-04 1.18388E+00-1.53377E-13-2.73658E-13
 -1      2697 2.07152E+01 7.01666E-01-5.76361E-03 1.00525E+00-1.92332E-13-3.56928E-13
 -1      2698 2.12265E+01 1.04130E-01 1.06018E-02 1.30642E+00-1.16445E-13-2.28740E-13
 -1      2699 2.13735E+01-1.11431E-01-1.77460E-03 1.34774E+00-6.81195E-14-2.24745E-13
 -1      2700 2.08501E+01 2.67966E-01-9.26647E-03 1.34416E+00-1.17650E-13-3.01473E-13
 -1      2701 2.15847E+01-3.41696E-01 1.39159E-02 1.38594E+00-3.43706E-14-1.87111E-13
 -1      2702 2.17980E+01-6.12640E-01-4.96162E-03 1.32077E+00-1.70411E-14-1.71414E-13
 -1      2703 2.11311E+01-2.43858E-01-1.39119E-02 1.53689E+00-5.11213E-14-2.65318E-13
 -1      2704 2.21447E+01-8.91995E-01 1.89092E-02 1.24116E+00 2.02033E-14-1.04781E-13
 -1      2705 2.24167E+01-1.20361E+00-1.07993E-02 1.04327E+00 3.29767E-14-9.27506E-14
 -1      2706 2.16293E+01-8.81220E-01-1.94215E-02 1.54008E+00 1.36437E-14-1.84222E-13
 -1      2707 2.29204E+01-1.48668E+00 2.20170E-02 7.91642E-01 7.14743E-14-3.04921E-14
 -1      2708 2.32163E+01-1.74877E+00-1.78218E-02 4.42297E-01 9.20796E-14 9.03292E-15
 -1      2709 2.24130E+01-1.61151E+00-2.41601E-02 1.26477E+00 8.66033E-14-9.25241E-14
 -1      2710 2.38324E+01-1.90783E+00 1.67455E-02-2.00120E-02 8.04640E-14 1.00774E-13
 -1      2711 2.40875E+01-1.92689E+00-1.79444E-02-4.91881E-01 1.22844E-14 1.76770E-13
 -1      2712 2.34772E+01-2.22852E+00-2.53420E-02 6.06566E-01 1.28306E-13 4.91048E-14
 -1      2713 2.46328E+01-1.73866E+00-1.18870E-02-1.11579E+00-4.44055E-14 2.63640E-13
 -1      2714 2.47498E+01-1.26222E+00-1.42894E-02-1.55892E+00-1.48787E-13 3.06839E-13
 -1      2715 2.46783E+01-2.23890E+00-4.49107E-03-4.95643E-01 4.64863E-14 2.69275E-13
 -1      2716 2.49636E+01-5.16289E-01-5.88628E-02-2.06636E+00-2.93370E-13 3.57410E-13
 -1      2717 2.49014E+01 5.01817E-01-2.04326E-03-2.17407E+00-3.95319E-13 3.16894E-13
 -1      2718 2.55726E+01-1.16418E+00-9.04270E-03-1.70948E+00-2.18811E-13 3.93727E-13
 -1      2719 2.47098E+01 1.59395E+00-9.51440E-02-2.05909E+00-5.41289E-13 2.20496E-13
 -1      2720 2.45785E+01 2.63600E+00-1.48194E-02-1.59478E+00-6.70471E-13 1.18449E-13
 -1      2721 2.57801E+01 1.23823E+00-2.88205E-02-2.28382E+00-5.55896E-13 3.96891E-13
 -1      2722 2.43341E+01 3.32086E+00-8.48463E-02-6.77606E-01-6.27901E-13-8.71239E-14
 -1      2723 2.43379E+01 3.53011E+00-5.74172E-02 1.77613E-01-5.14963E-13-1.57555E-13
 -1      2724 2.54988E+01 3.65816E+00-5.96034E-02-1.31261E+00-7.65416E-13 8.20108E-14
 -1      2725 2.44219E+01 3.15339E+00-4.43541E-02 1.25736E+00-4.31065E-13-3.30336E-13
 -1      2726 2.45806E+01 2.33900E+00-9.59959E-02 1.90567E+00-4.01960E-13-3.99861E-13
 -1      2727 2.54106E+01 4.08200E+00-7.10673E-02 7.76145E-01-5.95371E-13-1.96848E-13
 -1      2728 2.48425E+01 1.27796E+00-4.06366E-03 2.31970E+00-3.41938E-13-4.95993E-13
 -1      2729 2.49778E+01 1.60780E-01-6.95482E-02 2.39418E+00-2.84281E-13-5.28995E-13
 -1      2730 2.57375E+01 2.21030E+00-2.99054E-02 2.33111E+00-4.42597E-13-5.53779E-13
 -1      2731 2.48950E+01-7.49130E-01-9.51049E-03 2.04211E+00-2.23516E-13-4.72306E-13
 -1      2732 2.48667E+01-1.42217E+00-2.12817E-02 1.68787E+00-8.56338E-14-4.48164E-13
 -1      2733 2.57405E+01-4.01216E-01-1.44413E-02 2.24647E+00-2.18839E-13-5.49831E-13
 -1      2734 2.43908E+01-1.80819E+00-2.15232E-02 1.05060E+00 8.06102E-15-4.04473E-13
 -1      2735 2.41917E+01-1.93334E+00 1.03786E-02 5.66265E-01 1.32026E-13-4.04378E-13
 -1      2736 2.50444E+01-2.02880E+00-1.20173E-02 1.11468E+00-2.69559E-14-4.29037E-13
 -1      2737 2.35645E+01-1.87519E+00-2.03418E-02 2.69116E-02 2.31289E-13-3.30216E-13
 -1      2738 2.32773E+01-1.67615E+00 2.05973E-02-3.77190E-01 2.53926E-13-2.76500E-13
 -1      2739 2.38917E+01-2.33324E+00-1.97196E-02-9.29114E-02 1.96777E-13-3.70774E-13
 -1      2740 2.27180E+01-1.42791E+00-1.35261E-02-7.07707E-01 1.88563E-13-1.40573E-13
 -1      2741 2.24283E+01-1.13557E+00 1.86410E-02-9.70870E-01 2.20940E-13-6.72971E-14
 -1      2742 2.27380E+01-1.87160E+00-2.31258E-02-9.19600E-01 2.95401E-13-2.10462E-13
 -1      2743 2.20155E+01-8.66804E-01-6.80632E-03-1.12468E+00 1.83779E-13-2.56918E-14
 -1      2744 2.17659E+01-6.05888E-01 1.29763E-02-1.25986E+00 1.84550E-13-1.00803E-14
 -1      2745 2.18303E+01-1.19121E+00-1.97765E-02-1.34804E+00 2.15011E-13 5.90294E-14
 -1      2746 2.14925E+01-3.90640E-01-2.27972E-03-1.29696E+00 1.71389E-13-4.78490E-14
 -1      2747 2.12918E+01-2.02043E-01 7.71647E-03-1.33816E+00 1.63520E-13-8.17152E-14
 -1      2748 2.12038E+01-5.82980E-01-1.39143E-02-1.49567E+00 1.45297E-13 1.71153E-13
 -1      2749 2.11219E+01-5.65273E-02 3.78645E-04-1.30722E+00 4.15727E-14-2.24959E-13
 -1      2750 2.09635E+01 6.08604E-02 3.90946E-03-1.28773E+00 1.13897E-14-2.62483E-13
 -1      2751 2.08031E+01-1.41739E-01-8.52749E-03-1.47380E+00 7.15611E-15-9.31253E-14
 -1      2752 2.08609E+01 1.46037E-01 1.79789E-03-1.22125E+00 2.92487E-14-3.27539E-13
 -1      2753 2.07347E+01 2.08244E-01 1.48464E-03-1.16713E+00 2.49519E-14-3.56865E-13
 -1      2754 2.05561E+01 1.34782E-01-4.76710E-03-1.35983E+00-5.49846E-14-2.00397E-13
 -1      2755 2.06726E+01 2.49563E-01 2.49432E-03-1.08529E+00-6.50970E-14-4.27324E-13
 -1      2756 2.05702E+01 2.74253E-01 9.59593E-05-1.01487E+00-9.05727E-14-5.12194E-13
 -1      2757 2.04040E+01 2.83308E-01-2.51782E-03-1.20189E+00-8.39712E-14-3.17875E-13
 -1      2758 2.05313E+01 2.87037E-01 2.77252E-03-9.29805E-01 1.20260E-13-4.74836E-13
 -1      2759 2.04471E+01 2.88614E-01-6.04088E-04-8.55062E-01 2.54872E-13-4.19882E-13
 -1      2760 2.03070E+01 3.44301E-01-1.30210E-03-1.02906E+00 2.48969E-14-3.53043E-13
 -1      2761 2.04210E+01 2.84535E-01 2.79074E-03-7.73872E-01 2.94412E-13-4.56082E-13
 -1      2762 2.03513E+01 2.73282E-01-8.88209E-04-7.02066E-01 2.60320E-13-3.59366E-13
 -1      2763 2.02412E+01 3.50842E-01-7.05598E-04-8.58680E-01 2.65438E-13-4.07524E-13
 -1      2764 2.03325E+01 2.60350E-01 2.64280E-03-6.28605E-01 1.53200E-13-2.61402E-13
 -1      2765 2.02750E+01 2.43032E-01-9.39213E-04-5.63697E-01 7.94295E-14-1.07323E-13
 -1      2766 2.01930E+01 3.26719E-01-4.45264E-04-7.00747E-01 2.59790E-13-4.22998E-13
 -1      2767 2.02605E+01 2.26358E-01 2.39535E-03-4.99714E-01 3.40672E-14 2.16703E-14
 -1      2768 2.02134E+01 2.07140E-01-8.71274E-04-4.43465E-01-7.38155E-14 2.01801E-14
 -1      2769 2.01554E+01 2.87722E-01-3.47985E-04-5.60450E-01 1.32382E-13-2.49695E-13
 -1      2770 2.02017E+01 1.89777E-01 2.09791E-03-3.89365E-01-8.20905E-14 1.27178E-13
 -1      2771 2.01636E+01 1.71052E-01-7.52092E-04-3.42149E-01 9.30885E-14 1.46010E-13
 -1      2772 2.01248E+01 2.43689E-01-3.18122E-04-4.39794E-01 9.41901E-15-1.08434E-13
 -1      2773 2.01539E+01 1.54689E-01 1.78621E-03-2.97516E-01 5.86937E-14 1.34419E-13
 -1      2774 2.01236E+01 1.37701E-01-6.19500E-04-2.58894E-01 1.97284E-14 6.45785E-14
 -1      2775 2.00993E+01 2.00352E-01-3.07967E-04-3.38739E-01-1.20318E-14 2.71048E-14
 -1      2776 2.01156E+01 1.23164E-01 1.48435E-03-2.22853E-01-5.18012E-14 1.36735E-13
 -1      2777 2.00918E+01 1.08447E-01-4.93038E-04-1.91954E-01-1.13967E-15-1.47400E-15
 -1      2778 2.00780E+01 1.60756E-01-2.97060E-04-2.56001E-01-3.32259E-14-6.60714E-14
 -1      2779 2.00852E+01 9.60389E-02 1.20714E-03-1.63415E-01 7.59196E-14-5.57029E-14
 -1      2780 2.00668E+01 8.37088E-02-3.81554E-04-1.39185E-01 3.49487E-14-1.66024E-13
 -1      2781 2.00604E+01 1.26262E-01-2.79051E-04-1.89623E-01-3.03874E-14-1.78087E-13
 -1      2782 2.00614E+01 7.34308E-02 9.62347E-04-1.17003E-01-8.78977E-14-8.59973E-14
 -1      2783 2.00475E+01 6.33691E-02-2.87945E-04-9.83627E-02-1.61223E-13-9.47916E-14
 -1      2784 2.00460E+01 9.72268E-02-2.54015E-04-1.37372E-01-6.27153E-14-2.63910E-13
 -1      2785 2.00432E+01 5.50611E-02 7.52751E-04-8.14341E-02-2.04955E-13-1.68385E-13
 -1      2786 2.00329E+01 4.70324E-02-2.11994E-04-6.73626E-02-2.11242E-13-2.52095E-13
 -1      2787 2.00344E+01 7.34350E-02-2.24352E-04-9.69857E-02-2.59856E-13-3.93220E-13
 -1      2788 2.00295E+01 4.04586E-02 5.77841E-04-5.46830E-02-2.02322E-13-3.29905E-13
 -1      2789 2.00219E+01 3.41806E-02-1.52010E-04-4.42661E-02-1.28274E-13-4.26623E-13
 -1      2790 2.00253E+01 5.43777E-02-1.92812E-04-6.63367E-02-3.10556E-13-6.59288E-13
 -1      2791 2.00193E+01 2.90803E-02 4.35095E-04-3.49553E-02 1.51045E-14-3.09488E-13
 -1      2792 2.00140E+01 2.42650E-02-1.05743E-04-2.74047E-02-3.18843E-14-2.74430E-13
 -1      2793 2.00181E+01 3.94210E-02-1.61677E-04-4.35129E-02-1.09813E-13-3.59112E-13
 -1      2794 2.00120E+01 2.03825E-02 3.20934E-04-2.07154E-02-8.48730E-14-1.63928E-13
 -1      2795 2.00083E+01 1.67588E-02-7.08808E-05-1.53712E-02-6.54726E-16-9.35849E-14
 -1      2796 2.00126E+01 2.79064E-02-1.32539E-04-2.68578E-02 9.95671E-14-2.30125E-13
 -1      2797 2.00068E+01 1.38587E-02 2.31381E-04-1.06851E-02-1.20565E-13-8.83912E-14
 -1      2798 2.00044E+01 1.11833E-02-4.52988E-05-7.00857E-03-1.58491E-13-1.88884E-13
 -1      2799 2.00085E+01 1.92073E-02-1.06340E-04-1.49771E-02-1.13695E-13-2.26210E-13
 -1      2800 2.00033E+01 9.05696E-03 1.62485E-04-3.82594E-03-9.82873E-14-2.31281E-13
 -1      2801 2.00019E+01 7.11806E-03-2.71747E-05-1.38799E-03-1.16880E-13-1.29590E-13
 -1      2802 2.00055E+01 1.27569E-02-8.35203E-05-6.72626E-03-1.24800E-13-4.42064E-13
 -1      2803 2.00011E+01 5.58549E-03 1.10594E-04 6.85268E-04-4.48302E-14-5.17007E-14
 -1      2804 2.00002E+01 4.20223E-03-1.50177E-05 2.21789E-03-7.56442E-15-2.58445E-14
 -1      2805 2.00034E+01 8.05910E-03-6.41720E-05-1.18775E-03-3.26686E-14-3.56304E-13
 -1      2806 1.99997E+01 3.10998E-03 7.24658E-05 3.48460E-03-1.77329E-14 9.14611E-14
 -1      2807 1.99993E+01 2.12931E-03-7.64065E-06 4.36283E-03 1.60962E-13 6.36231E-14
 -1      2808 2.00019E+01 4.68845E-03-4.81707E-05 2.35584E-03 1.23303E-13-7.09581E-14
 -1      2809 1.99990E+01 1.34725E-03 4.53500E-05 5.04824E-03 2.62066E-13 1.72701E-13
 -1      2810 1.99989E+01 6.39997E-04-3.88324E-06 5.45355E-03 2.58845E-13 2.28849E-13
 -1      2811 2.00008E+01 2.28384E-03-3.52952E-05 4.44984E-03 2.58800E-13 1.15921E-13
 -1      2812 1.99987E+01 5.74136E-05 2.69228E-05 5.71895E-03 1.23846E-13 2.56151E-13
 -1      2813 1.99988E+01-4.86535E-04-2.86401E-06 5.77534E-03 1.76266E-13 5.04416E-15
 -1      2814 2.00002E+01 5.40952E-04-2.52495E-05 5.49414E-03 1.96009E-13 1.94154E-13
 -1      2815 1.99986E+01-9.70582E-04 1.41163E-05 5.72603E-03 2.64656E-13-7.63254E-14
 -1      2816 1.99989E+01-1.42488E-03-1.40717E-06 5.50592E-03 2.38176E-14 6.84779E-14
 -1      2817 1.99998E+01-8.09315E-04-1.96367E-05 5.77119E-03 1.90796E-13 1.16495E-13
 -1      2818 2.19448E+01-4.56782E-01-7.23024E-03-1.14042E+00 5.51200E-14 3.30334E-14
 -1      2819 2.17595E+01-2.42961E-01 1.18197E-02-1.21080E+00 1.11737E-13 5.25916E-14
 -1      2820 2.18153E+01-6.93788E-01-1.52550E-02-1.31106E+00 2.60078E-14-1.45589E-14
 -1      2821 2.89544E+01 4.92023E+00-1.31185E-01 1.86523E+00-8.09269E-13-7.45390E-13
 -1      2822 2.88560E+01 6.01062E+00-1.82501E-01 1.02755E+00-9.56235E-13-6.18242E-13
 -1      2823 2.15639E+01-6.29444E-02-3.04682E-03-1.19124E+00 1.57761E-13 4.28174E-14
 -1      2824 2.14235E+01 1.08661E-01 1.01921E-02-1.15824E+00 1.96407E-13 4.71822E-14
 -1      2825 2.13670E+01-1.75967E-01-1.16380E-02-1.35722E+00 1.35416E-13-2.55487E-14
 -1      2826 2.30777E+01-1.35623E+00-1.81566E-02-2.69443E-01-8.64126E-14 2.07151E-13
 -1      2827 2.28687E+01-1.14404E+00 1.59542E-02-5.96996E-01-1.03637E-13 1.66655E-13
 -1      2828 2.24725E+01-1.28023E+00-1.73945E-02-9.97901E-01-1.03967E-13 4.50856E-14
 -1      2829 2.37024E+01-1.52652E+00-1.87475E-02 5.80406E-01 8.98240E-15 2.36695E-13
 -1      2830 2.35526E+01-1.48931E+00 1.10757E-02 1.57253E-01-4.16594E-14 2.51139E-13
 -1      2831 2.33193E+01-1.77599E+00-1.38101E-02-3.48379E-01-7.97545E-14 1.26147E-13
 -1      2832 2.41371E+01-1.07797E+00-7.86162E-03 1.51251E+00 1.13356E-13 2.50416E-13
 -1      2833 2.41039E+01-1.40382E+00-8.40950E-03 1.12559E+00 4.65654E-14 2.88170E-13
 -1      2834 2.42122E+01-1.83503E+00-1.67861E-03 6.34936E-01 2.90473E-14 2.57747E-13
 -1      2835 2.41785E+01 1.75763E-01 1.23193E-02 2.05525E+00 2.59796E-13 2.72969E-13
 -1      2836 2.42666E+01-5.59101E-01-3.92458E-02 1.94070E+00 1.79806E-13 2.70868E-13
 -1      2837 2.48298E+01-1.03565E+00 3.67755E-03 1.69805E+00 1.43796E-13 3.35539E-13
 -1      2838 2.38156E+01 1.81470E+00 3.06366E-03 1.64701E+00 4.37646E-13 1.97508E-13
 -1      2839 2.39624E+01 9.83920E-01-6.87043E-02 2.00663E+00 3.26945E-13 2.31425E-13
 -1      2840 2.48916E+01 6.85732E-01-2.23314E-03 2.22361E+00 3.17380E-13 2.76796E-13
 -1      2841 2.35004E+01 2.72769E+00-3.10951E-02 1.99461E-01 5.62529E-13-4.47706E-14
 -1      2842 2.35656E+01 2.42698E+00-5.61036E-02 9.29651E-01 5.26065E-13 3.64396E-14
 -1      2843 2.45390E+01 2.59109E+00-2.79730E-02 1.46316E+00 5.48957E-13 1.67987E-13
 -1      2844 2.36674E+01 2.15526E+00-6.15303E-02-1.45874E+00 5.13638E-13-2.87249E-13
 -1      2845 2.35742E+01 2.64306E+00-1.04512E-02-7.88079E-01 5.88540E-13-1.76684E-13
 -1      2846 2.43736E+01 3.36913E+00-3.83117E-02-3.46830E-01 6.44894E-13-1.47317E-13
 -1      2847 2.41248E+01 5.80156E-01-5.97762E-02-2.28102E+00 4.27527E-13-5.05383E-13
 -1      2848 2.39550E+01 1.44733E+00 1.25452E-02-2.03286E+00 4.58043E-13-4.17966E-13
 -1      2849 2.46420E+01 2.23850E+00-2.82785E-02-1.94795E+00 5.87218E-13-4.17447E-13
 -1      2850 2.43382E+01-8.24860E-01-3.08262E-02-1.95572E+00 1.77133E-13-4.23697E-13
 -1      2851 2.42751E+01-1.89798E-01 1.01435E-02-2.15303E+00 3.08902E-13-5.07058E-13
 -1      2852 2.49539E+01 1.15207E-01-1.48849E-02-2.33414E+00 3.41731E-13-5.91336E-13
 -1      2853 2.40962E+01-1.47930E+00-3.06773E-04-1.06563E+00-7.94759E-14-3.72547E-13
 -1      2854 2.41481E+01-1.24604E+00-7.32263E-03-1.48482E+00 7.48433E-14-3.56367E-13
 -1      2855 2.47572E+01-1.28463E+00 1.30374E-02-1.65060E+00 7.68786E-14-4.68312E-13
 -1      2856 2.34953E+01-1.43120E+00 1.28849E-02-1.21601E-01-1.42819E-13-3.37431E-13
 -1      2857 2.36528E+01-1.52362E+00-1.99140E-02-5.31924E-01-1.13083E-13-3.60056E-13
 -1      2858 2.40491E+01-1.89517E+00-7.49638E-03-5.55797E-01-1.09194E-13-4.25649E-13
 -1      2859 2.28155E+01-1.04982E+00 1.48899E-02 5.72438E-01-1.40569E-13-2.98495E-13
 -1      2860 2.30249E+01-1.26960E+00-1.72069E-02 2.68214E-01-1.45908E-13-3.31245E-13
 -1      2861 2.31390E+01-1.68729E+00-1.48085E-02 3.64694E-01-1.36648E-13-2.83919E-13
 -1      2862 2.22102E+01-6.14107E-01 1.17897E-02 9.79166E-01-1.33064E-13-2.15645E-13
 -1      2863 2.24239E+01-8.35473E-01-1.14084E-02 7.97386E-01-1.32104E-13-2.25930E-13
 -1      2864 2.23222E+01-1.17023E+00-1.49318E-02 9.51362E-01-1.58176E-13-1.95072E-13
 -1      2865 2.17247E+01-2.56216E-01 7.70713E-03 1.15522E+00 1.07228E-13-1.53321E-13
 -1      2866 2.19213E+01-4.27242E-01-6.13096E-03 1.07542E+00-1.01425E-14-1.95035E-13
 -1      2867 2.16923E+01-6.43890E-01-1.20409E-02 1.24340E+00-6.74375E-14-2.68298E-13
 -1      2868 2.13510E+01-1.11401E-02 4.40264E-03 1.17398E+00 5.74991E-14-3.56649E-14
 -1      2869 2.15243E+01-1.23006E-01-2.15138E-03 1.16566E+00 1.38143E-13-3.74659E-14
 -1      2870 2.12430E+01-2.32413E-01-8.15676E-03 1.32783E+00 4.33032E-14-1.19654E-13
 -1      2871 2.10641E+01 1.33388E-01 2.13366E-03 1.09825E+00-4.94948E-14-1.80355E-13
 -1      2872 2.12143E+01 7.06619E-02 4.44822E-04 1.13383E+00 1.46030E-14-2.66505E-14
 -1      2873 2.09318E+01 3.97476E-02-5.04962E-03 1.28294E+00 6.97389E-14 3.58225E-14
 -1      2874 2.08403E+01 2.03858E-01 7.57462E-04 9.73522E-01-1.50715E-14-1.84070E-13
 -1      2875 2.09694E+01 1.75904E-01 1.97059E-03 1.03207E+00 9.66146E-15-1.77761E-13
 -1      2876 2.07142E+01 1.94934E-01-3.03662E-03 1.16624E+00-1.52205E-14 7.73597E-15
 -1      2877 2.06624E+01 2.25878E-01 1.53120E-05 8.30106E-01-4.82397E-14-6.29394E-14
 -1      2878 2.07724E+01 2.19968E-01 2.75277E-03 8.97310E-01-3.61749E-14-1.24215E-13
 -1      2879 2.05570E+01 2.66473E-01-1.86554E-03 1.01622E+00-1.47362E-14 8.65780E-14
 -1      2880 2.05190E+01 2.19291E-01-3.31388E-04 6.86746E-01-1.88421E-13-8.05697E-14
 -1      2881 2.06116E+01 2.25968E-01 3.03234E-03 7.53700E-01-1.02647E-13-5.03206E-14
 -1      2882 2.04385E+01 2.84311E-01-1.24345E-03 8.57471E-01-7.71977E-14 1.63276E-13
 -1      2883 2.04026E+01 1.97770E-01-4.51752E-04 5.54053E-01-2.28007E-13-1.49917E-14
 -1      2884 2.04795E+01 2.10686E-01 2.99126E-03 6.15743E-01-1.63595E-13-1.96400E-14
 -1      2885 2.03458E+01 2.71001E-01-9.32714E-04 7.04785E-01-2.34726E-13 1.99226E-13
 -1      2886 2.03085E+01 1.70007E-01-4.53606E-04 4.37215E-01 4.05426E-14-9.01506E-14
 -1      2887 2.03713E+01 1.85210E-01 2.76218E-03 4.91247E-01-1.47829E-13-8.30987E-14
 -1      2888 2.02716E+01 2.41854E-01-7.74951E-04 5.66291E-01-1.56886E-13 5.99200E-14
 -1      2889 2.02328E+01 1.41164E-01-4.01299E-04 3.37989E-01 1.02365E-13-5.13931E-14
 -1      2890 2.02833E+01 1.56359E-01 2.43721E-03 3.83617E-01 1.02361E-13-1.30712E-13
 -1      2891 2.02113E+01 2.06523E-01-6.82310E-04 4.45717E-01 7.56673E-14-1.06019E-13
 -1      2892 2.01726E+01 1.14068E-01-3.30326E-04 2.56068E-01-8.68349E-14 2.77613E-14
 -1      2893 2.02126E+01 1.28037E-01 2.07803E-03 2.93517E-01 5.96126E-14-1.60623E-15
 -1      2894 2.01624E+01 1.70696E-01-6.11680E-04 3.43981E-01 5.07237E-14-5.24989E-14
 -1      2895 2.01255E+01 9.00786E-02-2.58875E-04 1.90014E-01-2.67137E-13 8.18468E-14
 -1      2896 2.01565E+01 1.02271E-01 1.72361E-03 2.20029E-01-1.68094E-13 1.67931E-14
 -1      2897 2.01230E+01 1.37453E-01-5.45218E-04 2.60308E-01-1.65805E-13 6.87779E-14
 -1      2898 2.00891E+01 6.96751E-02-1.95192E-04 1.37856E-01-5.26285E-16 6.51363E-14
 -1      2899 2.01128E+01 7.99384E-02 1.39649E-03 1.61413E-01-1.68878E-13 6.23534E-14
 -1      2900 2.00915E+01 1.08237E-01-4.77977E-04 1.92995E-01-2.06014E-13-1.69145E-13
 -1      2901 2.00615E+01 5.28357E-02-1.42135E-04 9.74664E-02 2.75833E-13 9.53490E-14
 -1      2902 2.00792E+01 6.12363E-02 1.10795E-03 1.15593E-01 1.23179E-13 1.00400E-13
 -1      2903 2.00668E+01 8.35096E-02-4.10584E-04 1.39915E-01 1.63593E-16-2.22007E-13
 -1      2904 2.00409E+01 3.92742E-02-9.98436E-05 6.67779E-02 4.22305E-13 1.12945E-13
 -1      2905 2.00539E+01 4.59915E-02 8.61883E-04 8.04598E-02 4.12307E-13 1.02233E-13
 -1      2906 2.00476E+01 6.31749E-02-3.45390E-04 9.88457E-02 3.32624E-13-1.16877E-13
 -1      2907 2.00260E+01 2.85839E-02-6.72377E-05 4.39073E-02 3.43313E-13 9.81997E-14
 -1      2908 2.00352E+01 3.38446E-02 6.57620E-04 5.40312E-02 4.29035E-13 1.97353E-13
 -1      2909 2.00331E+01 4.68456E-02-2.84706E-04 6.76573E-02 3.17964E-13 1.21246E-13
 -1      2910 2.00153E+01 2.03227E-02-4.28157E-05 2.72096E-02 2.47455E-13 9.70612E-14
 -1      2911 2.00217E+01 2.43624E-02 4.91903E-04 3.45427E-02 3.26992E-13 1.80770E-13
 -1      2912 2.00222E+01 3.40058E-02-2.30153E-04 4.44224E-02 3.12918E-13 2.25271E-13
 -1      2913 2.00080E+01 1.40606E-02-2.50599E-05 1.52932E-02 1.30350E-13 6.31096E-14
 -1      2914 2.00123E+01 1.71033E-02 3.60188E-04 2.04788E-02 1.91573E-13 6.39851E-14
 -1      2915 2.00142E+01 2.41064E-02-1.82556E-04 2.74631E-02 2.68105E-13 2.72034E-13
 -1      2916 2.00031E+01 9.40449E-03-1.26273E-05 7.01229E-03-7.55414E-14 1.03691E-13
 -1      2917 2.00058E+01 1.16520E-02 2.57502E-04 1.05759E-02 5.13573E-14 1.45209E-13
 -1      2918 2.00086E+01 1.66188E-02-1.42073E-04 1.53632E-02 7.97420E-15 1.30434E-13
 -1      2919 2.00001E+01 6.00808E-03-4.42501E-06 1.44571E-03 2.20994E-14 1.18905E-13
 -1      2920 2.00017E+01 7.63646E-03 1.78972E-04 3.80644E-03-9.07658E-14 2.44115E-14
 -1      2921 2.00046E+01 1.10624E-02-1.08390E-04 6.95818E-03 5.59007E-16 2.66039E-13
 -1      2922 1.99984E+01 3.57356E-03 3.65156E-07-2.12892E-03 2.71568E-14 2.19247E-13
 -1      2923 1.99992E+01 4.73336E-03 1.20134E-04-6.45472E-04 1.00285E-13 2.12063E-13
 -1      2924 2.00020E+01 7.01518E-03-8.09019E-05 1.31304E-03-2.68616E-14 3.14048E-13
 -1      2925 1.99975E+01 1.84758E-03 2.30407E-06-4.26234E-03-5.73242E-15 2.67520E-13
 -1      2926 1.99978E+01 2.66638E-03 7.70885E-05-3.41077E-03 6.44835E-14 2.49722E-13
 -1      2927 2.00004E+01 4.11446E-03-5.89046E-05-2.30427E-03 9.04817E-14 5.28354E-13
 -1      2928 1.99973E+01 6.15708E-04 1.92070E-06-5.35886E-03-7.55960E-14 1.53830E-13
 -1      2929 1.99972E+01 1.20100E-03 4.65080E-05-4.96194E-03-5.14502E-14 1.14225E-13
 -1      2930 1.99994E+01 2.05177E-03-4.16512E-05-4.45068E-03 4.42661E-14 5.80055E-13
 -1      2931 1.99975E+01-3.03488E-04-4.13139E-07-5.70147E-03-1.01596E-13 1.64073E-13
 -1      2932 1.99972E+01 1.38935E-04 2.55942E-05-5.63824E-03-1.25096E-13 4.62806E-14
 -1      2933 1.99989E+01 5.67198E-04-2.82906E-05-5.53447E-03-6.13907E-14 1.49159E-13
 -1      2934 1.99979E+01-1.05836E-03-2.80288E-06-5.46452E-03 5.04767E-14 2.07407E-13
 -1      2935 1.99975E+01-6.99320E-04 8.60690E-06-5.66774E-03 2.69918E-14 3.27881E-13
 -1      2936 1.99988E+01-5.53460E-04-1.46613E-05-5.84560E-03-8.03837E-14 1.55424E-13
 -1      2937 1.99986E+01-1.77650E-03-1.12239E-05-4.90138E-03-2.07929E-13 2.68107E-13
 -1      2938 1.99981E+01-1.42363E-03-7.84318E-06-5.31648E-03 6.83170E-15 2.67538E-13
 -1      2939 1.99991E+01-1.47600E-03 2.82954E-06-5.64236E-03-2.15076E-14 2.99035E-13
 -1      2940 1.99994E+01-2.37099E-03 1.31941E-05-5.15958E-03-1.87115E-13 7.68532E-14
 -1      2941 2.00028E+01-4.18109E-03 6.96979E-06-3.72376E-04-1.64115E-13-3.26781E-13
 -1      2942 2.00027E+01-4.13212E-03 5.65776E-06-1.09035E-03-1.86505E-13-2.82173E-13
 -1      2943 2.00022E+01-3.87161E-03 9.30543E-06-3.17631E-03 1.95762E-13-2.47784E-14
 -1      2944 2.00019E+01-3.62789E-03 2.59099E-06-3.73001E-03 1.62602E-13 3.27662E-13
 -1      2945 2.00027E+01-4.13045E-03 5.77693E-06 1.11485E-03-2.29069E-14 8.32789E-14
 -1      2946 2.00028E+01-4.18107E-03 6.88913E-06 3.97231E-04-3.30796E-14-1.45382E-13
 -1      2947 2.00034E+01-2.97616E-03 1.83951E-06 1.28449E-05-1.43569E-13-2.04190E-13
 -1      2948 2.00026E+01-4.09886E-03 8.28728E-06-1.83702E-03-1.48824E-13-4.34419E-13
 -1      2949 2.00024E+01-3.95084E-03 3.58912E-06-2.50328E-03 1.07617E-13-2.76057E-13
 -1      2950 2.00029E+01-2.86459E-03-1.16506E-06-2.96075E-03-4.34546E-14-2.62760E-13
 -1      2951 2.00033E+01-2.95078E-03 1.18747E-06-1.52171E-03-1.43712E-13-3.66182E-13
 -1      2952 1.71966E+01-4.67918E+00 1.36581E-01-6.11772E+00 7.43586E-13 6.91738E-14
 -1      2953 2.08167E+01-5.38892E+00-6.09795E-02-5.40945E+00 7.13013E-13-1.09662E-13
 -1      2954 2.88792E+01 6.45994E+00-2.27933E-01 4.06352E-01-1.08169E-12-4.99802E-13
 -1      2955 2.91453E+01 6.49514E+00-1.43712E-01-4.87686E-01-1.20798E-12-2.72459E-13
 -1      2956 2.76454E+01 5.62847E+00-9.51801E-02 8.33250E-01-8.97338E-13-5.16795E-13
 -1      2957 2.00024E+01-3.95180E-03 3.35189E-06 2.50285E-03 6.70023E-14-2.42279E-14
 -1      2958 2.00026E+01-4.09771E-03 8.04526E-06 1.84857E-03-2.44706E-14 1.58680E-13
 -1      2959 2.00033E+01-2.95097E-03 1.02365E-06 1.53415E-03-3.06647E-14 1.06169E-13
 -1      2960 2.00019E+01-3.63232E-03-1.07279E-06 3.73194E-03 1.23409E-13-6.53554E-14
 -1      2961 2.00022E+01-3.87282E-03 9.97233E-06 3.17541E-03 1.05028E-13-9.15406E-14
 -1      2962 2.00029E+01-2.86397E-03-9.34306E-07 2.96029E-03 3.72200E-14 2.21490E-14
 -1      2963 2.00011E+01-3.16490E-03-5.51546E-06 4.64086E-03-1.95223E-14-1.07172E-13
 -1      2964 2.00015E+01-3.48871E-03 1.01770E-05 4.26540E-03 6.06436E-14-2.13757E-13
 -1      2965 2.00021E+01-2.67670E-03 7.93070E-08 4.19365E-03 1.86970E-14-1.97400E-13
 -1      2966 1.21347E+01-3.22607E+00 1.70811E-01-5.89915E+00 4.83780E-13 2.51868E-13
 -1      2967 1.39936E+01-3.87470E+00 4.52858E-02-6.33655E+00 5.88030E-13 1.54821E-13
 -1      2968 2.93368E+01 1.90770E+00-2.04022E-01-1.83950E+00-9.00183E-13 2.42292E-13
 -1      2969 2.90893E+01-2.38438E-01-4.87590E-02-1.30304E+00-6.10303E-13 3.37522E-13
 -1      2970 7.32180E+00-9.10126E-01 1.10186E-01 2.57654E+00 1.58568E-13-1.21619E-12
 -1      2971 6.64682E+00-6.25778E-01 1.64739E-01 6.66627E-01 7.67641E-14-1.33227E-12
 -1      2972 5.85916E+00-9.65306E-01 1.11344E-01 9.77350E-01-3.14401E-14 7.43516E-13
 -1      2973 5.89415E+00-1.05111E+00 1.74200E-01-1.21264E+00 8.78256E-14 6.89226E-13
 -1      2974 2.40403E+01-5.17768E+00 1.02045E-01-4.07169E+00-3.54689E-13-1.54488E-13
 -1      2975 2.62625E+01-4.69467E+00-1.14774E-01-2.65639E+00-1.56632E-13 6.75016E-14
 -1      2976 2.47898E+01-5.14226E+00-1.35798E-01 3.29782E+00 2.47566E-13 3.48679E-14
 -1      2977 2.21625E+01-5.07289E+00 1.34959E-01 4.77460E+00 4.58189E-13-1.43472E-13
 -1      2978 2.13102E+01 2.55338E-01-6.21464E-04-1.04952E+00 2.29129E-13 5.96018E-15
 -1      2979 2.12242E+01 4.03294E-01 1.02325E-02-9.28544E-01 2.72981E-13 2.86828E-14
 -1      2980 2.10951E+01 2.46098E-01-8.21979E-03-1.20109E+00 2.16636E-13-4.87047E-14
 -1      2981 1.71097E+01-4.70781E+00 1.46513E-01-6.32961E+00-5.02931E-13-8.09894E-13
 -1      2982 2.05505E+01-5.43914E+00-6.77233E-02-5.75738E+00-4.21885E-13-5.38979E-13
 -1      2983 1.99990E+01-2.02008E-03-2.64006E-06 5.04254E-03 6.64166E-14 3.91348E-13
 -1      2984 1.99995E+01-2.46984E-03-7.85763E-06 5.10486E-03-7.05613E-14 1.35226E-13
 -1      2985 1.99988E+01-1.73597E-03 2.01650E-06 5.32603E-03 2.81033E-14 1.62025E-13
 -1      2986 2.90906E+01 5.36582E+00-2.19475E-01-1.35385E+00-1.22863E-12-2.86646E-14
 -1      2987 2.92424E+01 4.11593E+00-1.07888E-01-1.93218E+00-1.09102E-12 1.47549E-13
 -1      2988 9.60862E+00-2.27859E+00 7.47662E-02 5.13452E+00-3.72979E-13 4.81976E-13
 -1      2989 7.37958E+00-1.27866E+00 1.80975E-01 3.10641E+00-1.92873E-13 7.12624E-13
 -1      2990 1.91363E+01 3.16131E+00-3.41148E-03 9.29093E-02 4.42082E-13-6.31396E-13
 -1      2991 1.88822E+01 3.30652E+00-8.98222E-03 3.15878E-02 3.78338E-13-6.93680E-13
 -1      2992 1.88244E+01 3.11475E+00 5.91240E-03-9.12830E-02 3.28524E-13-6.72655E-13
 -1      2993 1.93458E+01 2.75937E+00 5.58053E-03-6.36713E-02 4.14663E-13-5.73425E-13
 -1      2994 1.88655E+01 3.32132E+00-8.95062E-03-2.76060E-02-1.18002E-13-8.11389E-13
 -1      2995 1.91174E+01 3.17907E+00-3.32648E-03-8.79677E-02-1.95223E-13-8.03212E-13
 -1      2996 2.84991E+01 6.30983E+00-2.04695E-01-3.24802E-01 1.22191E-12-1.90046E-13
 -1      2997 2.87454E+01 5.86683E+00-1.72718E-01-1.26462E+00 1.24023E-12-3.57978E-13
 -1      2998 2.83738E+01-2.62122E+00-1.70396E-01-4.76306E-02-3.60977E-13 2.97956E-13
 -1      2999 2.72366E+01-3.80064E+00 6.55046E-02 1.18567E+00-5.37018E-14 2.66995E-13
 -1      3000 2.79065E+01-3.35875E+00-1.35836E-03-8.52786E-01 2.39930E-14 2.62346E-13
 -1      3001 2.87268E+01-1.83247E+00-1.65935E-01 4.21766E-01 2.96475E-13 3.86857E-13
 -1      3002 1.86004E+01-4.87938E+00-5.18859E-02 6.03997E+00 5.47548E-13-3.89022E-13
 -1      3003 1.55107E+01-3.78678E+00 1.79064E-01 6.14818E+00 5.97633E-13-6.64496E-13
 -1      3004 1.17613E+01-2.85331E+00 2.89280E-02 5.83781E+00 4.50695E-13-9.41580E-13
 -1      3005 9.07169E+00-1.63843E+00 1.82519E-01 4.28635E+00 3.29209E-13-1.07764E-12
 -1      3006 2.90268E+01 1.01007E+00-7.36350E-02 2.00082E+00-4.56954E-13-8.71941E-13
 -1      3007 2.90188E+01 2.90185E+00-2.07712E-01 2.14302E+00-6.33799E-13-8.10116E-13
 -1      3008 2.11690E+01 5.43512E-01 3.90047E-04-7.43059E-01 3.34040E-13 1.34882E-14
 -1      3009 2.11432E+01 7.02902E-01 1.15996E-02-5.34799E-01 3.80224E-13 3.14020E-14
 -1      3010 2.09051E+01 1.01615E+00-2.17196E-03-4.10988E-01 4.22934E-13-1.36836E-13
 -1      3011 2.09551E+01 6.17424E-01-5.16881E-03-8.80860E-01 3.04454E-13-9.69635E-14
 -1      3012 2.07909E+01 1.87188E+00-4.48808E-03-4.45657E-01-4.79024E-13-4.80328E-13
 -1      3013 2.08646E+01 1.49658E+00-4.29905E-04-1.22337E-01-4.39000E-13-4.31172E-13
 -1      3014 2.06029E+01 1.63093E+00-8.85701E-04 4.92394E-02-3.76601E-13-4.78264E-13
 -1      3015 2.04847E+01 2.18035E+00-3.92061E-03-4.00270E-01-4.39298E-13-5.62787E-13
 -1      3016 2.87989E+01 4.69133E+00-1.88583E-01-1.82578E+00 1.08200E-12-5.06081E-13
 -1      3017 2.85270E+01 2.90806E+00-1.49370E-01-2.21723E+00 8.45796E-13-7.01245E-13
 -1      3018 2.71535E+01 4.47622E+00-9.21019E-02-1.74301E+00 9.76302E-13-5.37903E-13
 -1      3019 2.78574E+01-3.02267E+00 2.41932E-02-1.76060E-01 1.12091E-13-7.25531E-13
 -1      3020 2.85663E+01-1.42032E+00-1.83155E-01 1.01657E+00-2.49432E-13-8.62893E-13
 -1      3021 2.92203E+01 4.76570E-01-4.79624E-02 1.62745E+00 5.19765E-13 4.60298E-13
 -1      3022 2.90029E+01 2.37802E+00-2.24507E-01 1.93922E+00 7.93893E-13 4.19775E-13
 -1      3023 1.05487E+01-2.62420E+00 1.51333E-01-5.47164E+00-4.94133E-13-1.25538E-12
 -1      3024 1.35534E+01-3.88611E+00 3.39697E-02-6.51883E+00-4.73011E-13-1.08691E-12
 -1      3025 6.51201E+00-8.60797E-01 1.43039E-01-1.38522E+00-1.25153E-13-1.40007E-12
 -1      3026 7.87275E+00-1.53543E+00 1.08959E-01-3.87813E+00-2.92183E-13-1.37917E-12
 -1      3027 2.29835E+01-5.33564E+00-1.88693E-02 4.51797E+00-5.63216E-13-1.02009E-13
 -1      3028 2.00970E+01-5.14392E+00 7.78884E-02 5.48392E+00-5.82603E-13-1.13298E-13
 -1      3029 1.94024E+01 2.96595E+00-8.86534E-03-1.23866E-01-2.53932E-13-7.82864E-13
 -1      3030 1.97160E+01 2.75953E+00-5.22274E-03-2.06525E-01-3.17739E-13-7.47454E-13
 -1      3031 1.93248E+01 2.78106E+00 6.16859E-03 6.59239E-02-2.02459E-13-7.35742E-13
 -1      3032 1.83585E+01 3.41907E+00 6.91279E-03-9.59015E-04 1.47432E-13-7.41031E-13
 -1      3033 1.83354E+01 3.65914E+00-5.80519E-03 1.47090E-02 1.25307E-13-7.99397E-13
 -1      3034 1.83901E+01 3.63244E+00-3.97437E-03-5.84040E-03 5.39126E-14-8.11907E-13
 -1      3035 1.24362E+01-2.32129E+00 1.51559E-01 5.15512E+00-4.68806E-13 2.32411E-13
 -1      3036 1.88067E+01-4.59814E+00 9.75180E-02 5.65209E+00-5.63299E-13-1.44273E-13
 -1      3037 1.74792E+01-3.73148E+00 8.72184E-02 5.50139E+00-4.65843E-13-7.19078E-14
 -1      3038 2.06934E+01-4.56558E+00 1.72304E-02 4.68296E+00-6.03476E-13-1.89550E-13
 -1      3039 1.99996E+01-1.78182E-03-1.47811E-05 5.55341E-03 1.37921E-13 8.34181E-14
 -1      3040 2.07375E+01 1.78056E+00-4.33945E-03 2.76771E-01 5.59965E-13-1.82374E-13
 -1      3041 2.46720E+01-4.95331E+00 4.44067E-02 3.27664E+00-5.24567E-13-1.29209E-13
 -1      3042 2.35504E+01-4.88637E+00 8.88990E-03 3.49747E+00-5.55278E-13-1.15846E-13
 -1      3043 2.55902E+01-4.58294E+00-1.47500E-01 1.87030E+00-4.11279E-13-3.02883E-13
 -1      3044 8.40656E+00-1.64851E-01 1.93065E-01-5.21428E-01-2.02598E-14-1.28492E-12
 -1      3045 2.66428E+01-3.71823E+00 6.15573E-03-7.44607E-01 2.68122E-13-5.70294E-13
 -1      3046 2.79538E+01-3.45823E-01-2.42998E-02 1.91265E+00-2.30475E-13-9.98618E-13
 -1      3047 2.78393E+01 3.46665E+00-7.90848E-02 2.20125E+00-6.45511E-13-8.19997E-13
 -1      3048 2.26291E+01-5.01366E+00 6.48708E-02-4.42119E+00-4.15834E-13-2.46032E-13
 -1      3049 1.46898E+01-2.77046E+00 1.40814E-01 5.51932E+00 5.51059E-13-6.97317E-13
 -1      3050 2.00001E+01-2.68125E-03-3.09477E-06-5.00705E-03-1.08128E-13-1.11664E-13
 -1      3051 2.00000E+01-2.18124E-03-1.13784E-05-5.33735E-03-2.30356E-13 3.39090E-15
 -1      3052 2.00007E+01-3.08818E-03 1.03895E-05-4.88349E-03-1.87920E-13-2.02244E-13
 -1      3053 1.68840E+01-3.88286E+00 1.25408E-01-5.70487E+00 6.21475E-13 2.62013E-14
 -1      3054 2.09549E+01-4.51045E+00 9.14323E-02 4.82223E+00 5.43052E-13-2.83246E-13
 -1      3055 2.78072E+01 5.42632E+00-1.04087E-01-9.78158E-01-1.03681E-12-1.02279E-13
 -1      3056 2.67284E+01-3.98791E+00 1.37128E-03-1.25636E+00-1.18267E-13 1.87753E-13
 -1      3057 1.12770E+01-2.26537E+00 1.28321E-01-5.14943E+00 3.68622E-13 2.81608E-13
 -1      3058 2.00001E+01-2.85971E-03 1.02822E-05 4.97606E-03-3.87623E-14-5.03355E-14
 -1      3059 2.80363E+01-1.40616E+00-5.74958E-02-1.13216E+00-3.86802E-13 3.31374E-13
 -1      3060 2.58207E+01-4.23784E+00 2.99919E-02 1.80405E+00 1.89841E-13 1.37633E-13
 -1      3061 2.06142E+01 1.62227E+00 2.05263E-03-3.47968E-02 4.90352E-13-2.43094E-13
 -1      3062 1.84977E+01 3.55514E+00-7.58966E-03 1.32340E-02 3.20344E-15-7.97357E-13
 -1      3063 1.86597E+01 3.47142E+00-2.94395E-03-2.22574E-02-8.71906E-14-7.99963E-13
 -1      3064 1.88081E+01 3.12944E+00 6.10882E-03 9.17732E-02-8.87187E-14-7.54381E-13
 -1      3065 1.84726E+01 3.34678E+00 6.61201E-03 6.26505E-02 2.62992E-14-7.58123E-13
 -1      3066 2.84228E+01 1.56699E+00-1.39594E-01-2.26032E+00 7.01036E-13-7.21367E-13
 -1      3067 2.78671E+01 3.26577E-01-5.21076E-02-2.13723E+00 4.75120E-13-7.24455E-13
 -1      3068 2.70839E+01 2.17287E+00-9.63823E-02-2.47711E+00 7.55201E-13-7.41185E-13
 -1      3069 8.29830E+00-5.70571E-01 1.76542E-01 1.96774E+00-6.96249E-14 6.60083E-13
 -1      3070 7.71312E+00-8.83168E-01 1.65324E-01-2.23108E+00 1.56833E-13 5.94996E-13
 -1      3071 9.91145E+00-7.41859E-01 1.90017E-01 3.24098E+00 2.96478E-13-1.04600E-12
 -1      3072 2.82327E+01 2.57468E+00-6.80372E-02-2.13618E+00-8.41133E-13 2.47816E-13
 -1      3073 2.81360E+01 3.16512E+00-1.14560E-01 2.06240E+00 8.04995E-13 3.72521E-13
 -1      3074 1.65153E+01-3.79202E+00 1.47717E-01-5.92218E+00-5.22540E-13-8.82745E-13
 -1      3075 2.00016E+01-3.56132E-03 9.87632E-06-4.18893E-03 3.60529E-14 3.90041E-13
 -1      3076 2.00011E+01-3.23287E-03 1.66118E-06-4.56301E-03-1.56974E-13-1.23225E-13
 -1      3077 2.00013E+01-2.57796E-03-7.90559E-06-4.87745E-03-2.04206E-14-1.22548E-13
 -1      3078 2.00022E+01-2.75239E-03-5.25559E-06-4.09986E-03 1.50596E-13 4.82492E-13
 -1      3079 2.25549E+01-4.94062E+00 5.18093E-02-4.15127E+00 6.94861E-13-1.24505E-13
 -1      3080 2.84230E+01-2.60930E+00-7.14182E-02-1.39382E-01 7.13535E-14-5.79120E-13
 -1      3081 2.74471E+01-3.31771E+00 3.39792E-02 3.07785E-01-1.60255E-13-6.01838E-13
 -1      3082 2.80085E+01-1.88306E+00-1.37724E-01-1.13929E+00 1.81102E-13-6.53588E-13
 -1      3083 2.80817E+01-1.05298E+00-5.98120E-02 1.30258E+00 2.99906E-13 4.66099E-13
 -1      3084 1.07674E+01-1.52295E+00 1.83638E-01-4.38414E+00-3.76310E-13-1.24656E-12
 -1      3085 2.00002E+01-2.05176E-03-2.28918E-06 5.35120E-03 8.63498E-15-7.95412E-14
 -1      3086 2.00007E+01-2.81903E-03-2.83731E-06 4.98764E-03-3.01182E-14-4.53538E-14
 -1      3087 2.00013E+01-2.19930E-03 1.17199E-05 5.03012E-03-1.09317E-14-5.43891E-14
 -1      3088 2.00003E+01-1.60650E-03 1.70917E-05 5.50064E-03 9.68313E-14-8.15422E-14
 -1      3089 2.01665E+01 1.86111E+00-2.17089E-03-2.05346E-01 4.39721E-13-3.81135E-13
 -1      3090 1.98228E+01 2.12627E+00-4.12522E-03-2.38798E-01 4.12416E-13-4.81633E-13
 -1      3091 1.99467E+01 2.59541E+00-8.37027E-03-2.64852E-01-3.48944E-13-7.04151E-13
 -1      3092 2.02410E+01 2.35863E+00-6.85170E-03-3.33277E-01-4.10443E-13-6.31097E-13
 -1      3093 2.03287E+01 2.07322E+00 5.84764E-03-1.16776E-01-3.78393E-13-5.80036E-13
 -1      3094 1.98619E+01 2.40985E+00 6.68695E-03-1.12006E-02-3.09563E-13-6.77294E-13
 -1      3095 2.34385E+01-2.25537E+00-1.62084E-02-6.57229E-01-1.34411E-13 1.06976E-13
 -1      3096 2.30252E+01-1.94809E+00 3.04369E-02-1.03314E+00-1.84019E-13 7.78364E-14
 -1      3097 2.23969E+01-1.60055E+00-8.38004E-03-1.28157E+00-1.59709E-13-1.65319E-15
 -1      3098 2.20400E+01-1.21329E+00 2.33621E-02-1.48010E+00-1.19093E-13-1.08160E-14
 -1      3099 2.23621E+01-2.05592E+00-3.03755E-02-1.61212E+00-2.05737E-13 3.22017E-14
 -1      3100 2.03910E+01 1.01301E+00 4.82402E-03 9.23730E-01-1.78407E-13-4.33504E-13
 -1      3101 2.04287E+01 7.85712E-01 6.81278E-04 1.13353E+00-1.34999E-13-4.08569E-13
 -1      3102 2.04640E+01 5.56379E-01 6.69422E-03 1.33838E+00-1.10867E-13-3.48385E-13
 -1      3103 2.05593E+01 3.05907E-01 2.57650E-03 1.48566E+00-7.41820E-14-3.46939E-13
 -1      3104 2.00843E+01 8.27929E-01-4.49262E-03 1.27734E+00-1.04376E-13-4.45016E-13
 -1      3105 2.06628E+01 3.39324E-02 1.02744E-02 1.65005E+00-4.11185E-14-2.93471E-13
 -1      3106 2.08486E+01-2.81386E-01 3.64501E-03 1.72499E+00-2.15081E-14-2.98452E-13
 -1      3107 2.01837E+01 2.66187E-01-1.04175E-02 1.67183E+00-3.93436E-14-3.76522E-13
 -1      3108 2.10832E+01-6.28723E-01 1.70746E-02 1.82958E+00 3.84831E-14-2.44804E-13
 -1      3109 2.13970E+01-1.02906E+00 5.16455E-03 1.80428E+00 8.32891E-14-2.11864E-13
 -1      3110 2.04667E+01-4.39765E-01-1.88551E-02 1.98538E+00 3.97625E-14-3.05507E-13
 -1      3111 2.18327E+01-1.46202E+00 2.57384E-02 1.81565E+00 1.34010E-13-1.39483E-13
 -1      3112 2.22949E+01-1.92967E+00-2.17536E-03 1.64156E+00 1.66409E-13-8.80770E-14
 -1      3113 2.10445E+01-1.33476E+00-3.09248E-02 2.16562E+00 1.41842E-13-2.17422E-13
 -1      3114 2.30409E+01-2.33730E+00 4.76031E-02 1.41801E+00 2.24027E-13-2.23816E-14
 -1      3115 2.35731E+01-2.73319E+00-1.19616E-02 1.05421E+00 2.05489E-13 4.81071E-14
 -1      3116 2.21504E+01-2.46000E+00-5.00483E-02 2.09615E+00 2.38984E-13-9.04433E-14
 -1      3117 2.65406E+01 3.31074E+00-1.91461E-01-1.98993E+00-8.74925E-13 1.67651E-13
 -1      3118 2.64643E+01 4.62973E+00-9.81173E-02-1.11199E+00-9.02917E-13-5.44356E-15
 -1      3119 2.63333E+01 5.16235E+00-1.76046E-01-4.87468E-02-8.55330E-13-2.18978E-13
 -1      3120 2.64280E+01 4.86253E+00-1.13176E-01 1.04602E+00-7.48776E-13-3.77545E-13
 -1      3121 2.66883E+01 2.83436E+00-7.52082E-02 2.20636E+00-5.37556E-13-7.30464E-13
 -1      3122 2.67600E+01 1.03719E+00-1.54769E-01 2.54266E+00-3.91250E-13-7.93157E-13
 -1      3123 2.55794E+01-2.53792E+00-3.30586E-02 7.75804E-01-3.23086E-14-5.41345E-13
 -1      3124 2.51160E+01-2.86933E+00 3.14530E-02 1.57030E-01 1.01376E-13-5.13200E-13
 -1      3125 2.40454E+01-2.88301E+00-2.10684E-02-5.29902E-01 2.08287E-13-3.66559E-13
 -1      3126 2.34804E+01-2.61338E+00 3.95752E-02-9.89984E-01 3.68416E-13-3.29522E-13
 -1      3127 2.43952E+01-3.45543E+00-5.73871E-02-8.82778E-01 2.44985E-13-4.63340E-13
 -1      3128 2.26360E+01-2.25338E+00-6.61022E-03-1.31165E+00 3.52687E-13-2.09761E-13
 -1      3129 2.21344E+01-1.81234E+00 3.11156E-02-1.56329E+00 3.61849E-13-1.14379E-13
 -1      3130 2.25562E+01-2.78750E+00-4.29474E-02-1.75144E+00 4.33429E-13-2.32450E-13
 -1      3131 2.15801E+01-1.40176E+00 1.23598E-03-1.64450E+00 2.80988E-13-8.06585E-14
 -1      3132 2.12059E+01-1.00394E+00 1.84490E-02-1.74090E+00 2.22528E-13-8.17313E-14
 -1      3133 2.12673E+01-1.78183E+00-3.26113E-02-2.03211E+00 3.77149E-13-1.93037E-13
 -1      3134 2.08896E+01-6.69115E-01 4.28463E-03-1.70058E+00 1.79115E-13-1.06217E-14
 -1      3135 2.06375E+01-3.78777E-01 9.37665E-03-1.70191E+00 1.56674E-13-4.94515E-14
 -1      3136 2.04846E+01-8.88792E-01-2.17018E-02-1.98967E+00 2.35376E-13-2.94434E-13
 -1      3137 2.04805E+01-1.48487E-01 4.76624E-03-1.61141E+00 4.91686E-15-4.27018E-14
 -1      3138 2.03204E+01 3.63103E-02 3.92268E-03-1.56095E+00-6.49603E-14-1.24547E-13
 -1      3139 2.00691E+01-2.45085E-01-1.20196E-02-1.81021E+00 6.42390E-14-1.67168E-13
 -1      3140 2.02570E+01 1.75748E-01 4.20159E-03-1.45447E+00-1.18026E-13-7.15627E-14
 -1      3141 2.01573E+01 2.78263E-01 8.50613E-04-1.37828E+00-6.20756E-14-1.40336E-13
 -1      3142 1.98800E+01 1.60647E-01-5.86051E-03-1.58866E+00-8.75544E-14-7.08181E-14
 -1      3143 2.01439E+01 3.50436E-01 3.45481E-03-1.27102E+00-7.13252E-14-1.45578E-13
 -1      3144 2.00806E+01 3.96023E-01-7.82072E-04-1.18462E+00-8.99216E-14-1.68840E-13
 -1      3145 1.98173E+01 3.85169E-01-2.39744E-03-1.36398E+00-3.86373E-14-7.99680E-14
 -1      3146 2.00910E+01 4.23206E-01 2.86900E-03-1.08321E+00-1.68794E-14-1.55702E-13
 -1      3147 2.00486E+01 4.32553E-01-1.54244E-03-9.95954E-01 4.69567E-14-9.55211E-14
 -1      3148 1.98182E+01 4.85317E-01-5.89463E-04-1.15126E+00-6.92848E-14 5.94005E-14
 -1      3149 2.00682E+01 4.32045E-01 2.45755E-03-9.03540E-01 7.62791E-14-1.23144E-13
 -1      3150 2.00376E+01 4.20210E-01-1.80654E-03-8.21053E-01 2.41242E-13-1.34283E-13
 -1      3151 1.98467E+01 5.06202E-01 2.57909E-04-9.56544E-01-5.76110E-15 9.68960E-14
 -1      3152 2.00587E+01 4.04235E-01 2.15178E-03-7.39097E-01 2.10998E-13-3.21690E-13
 -1      3153 2.00349E+01 3.81444E-01-1.79708E-03-6.64559E-01 1.71730E-13-3.40394E-13
 -1      3154 1.98830E+01 4.80477E-01 5.72816E-04-7.82464E-01 1.04629E-13-1.40000E-13
 -1      3155 2.00540E+01 3.58093E-01 1.89669E-03-5.93562E-01 1.88861E-13-4.26077E-13
 -1      3156 2.00346E+01 3.30914E-01-1.64569E-03-5.28473E-01 1.89332E-13-2.91198E-13
 -1      3157 1.99177E+01 4.30365E-01 6.16514E-04-6.30065E-01 1.52495E-13-3.61104E-13
 -1      3158 2.00502E+01 3.05247E-01 1.66259E-03-4.68263E-01 1.01668E-13-3.12824E-13
 -1      3159 2.00339E+01 2.77659E-01-1.43148E-03-4.12984E-01-2.10919E-14-2.67390E-13
 -1      3160 1.99467E+01 3.70241E-01 5.38374E-04-4.99290E-01 1.84327E-13-3.45471E-13
 -1      3161 2.00461E+01 2.52640E-01 1.43875E-03-3.62924E-01-7.57311E-14-2.33990E-13
 -1      3162 2.00323E+01 2.26876E-01-1.20081E-03-3.17077E-01-7.34544E-15-2.35097E-13
 -1      3163 1.99691E+01 3.08912E-01 4.19736E-04-3.89215E-01 2.94480E-15-4.66665E-13
 -1      3164 2.00412E+01 2.04091E-01 1.22461E-03-2.76227E-01-1.90730E-14-3.08843E-13
 -1      3165 2.00297E+01 1.81254E-01-9.79387E-04-2.38995E-01-2.68517E-14-3.23608E-13
 -1      3166 1.99853E+01 2.51390E-01 3.00974E-04-2.98274E-01-4.97326E-14-4.63976E-13
 -1      3167 2.00360E+01 1.61412E-01 1.02375E-03-2.06253E-01-8.84540E-14-4.04493E-13
 -1      3168 2.00264E+01 1.41903E-01-7.80154E-04-1.76598E-01-7.49026E-14-4.66725E-13
 -1      3169 1.99964E+01 2.00207E-01 1.99285E-04-2.24480E-01-6.85573E-14-5.33546E-13
 -1      3170 2.00307E+01 1.25183E-01 8.40304E-04-1.50810E-01 1.07211E-14-4.12843E-13
 -1      3171 2.00228E+01 1.08985E-01-6.08408E-04-1.27621E-01-7.78251E-14-2.85248E-13
 -1      3172 2.00034E+01 1.56329E-01 1.19676E-04-1.65642E-01-6.61987E-14-4.99288E-13
 -1      3173 2.00255E+01 9.52594E-02 6.77302E-04-1.07660E-01-2.47319E-13-3.27988E-13
 -1      3174 2.00193E+01 8.21265E-02-4.64966E-04-8.98518E-02-3.08596E-13-3.79147E-13
 -1      3175 2.00075E+01 1.19780E-01 6.13090E-05-1.19532E-01-1.34365E-13-3.81702E-13
 -1      3176 2.00208E+01 7.11074E-02 5.36159E-04-7.46709E-02-3.57651E-13-1.69810E-13
 -1      3177 2.00158E+01 6.06793E-02-3.48175E-04-6.12439E-02-2.74225E-13-1.32110E-13
 -1      3178 2.00095E+01 9.00546E-02 2.09679E-05-8.40164E-02-2.94412E-13-1.80441E-14
 -1      3179 2.00166E+01 5.20097E-02 4.16804E-04-4.99093E-02-2.19871E-13-1.41988E-13
 -1      3180 2.00128E+01 4.38887E-02-2.55164E-04-3.99786E-02-2.58248E-14-1.05792E-13
 -1      3181 2.00101E+01 6.63811E-02-5.16006E-06-5.71429E-02-2.24429E-13 9.47228E-14
 -1      3182 2.00130E+01 3.71963E-02 3.18046E-04-3.16816E-02 5.69800E-14-1.15084E-13
 -1      3183 2.00101E+01 3.09895E-02-1.82605E-04-2.44893E-02 5.88086E-14-1.15865E-13
 -1      3184 2.00098E+01 4.78904E-02-2.06562E-05-3.71855E-02 1.36068E-14 1.63358E-14
 -1      3185 2.00100E+01 2.59188E-02 2.37984E-04-1.85489E-02-1.49238E-13-1.93732E-13
 -1      3186 2.00078E+01 2.12623E-02-1.27158E-04-1.34631E-02-2.43576E-13-3.18479E-13
 -1      3187 2.00089E+01 3.37151E-02-2.85478E-05-2.26628E-02-1.05863E-13-1.26379E-13
 -1      3188 2.00075E+01 1.74905E-02 1.74359E-04-9.31872E-03-8.85517E-14-3.31245E-13
 -1      3189 2.00059E+01 1.40606E-02-8.57338E-05-5.82535E-03-6.31843E-14-3.27259E-13
 -1      3190 2.00077E+01 2.30461E-02-3.12451E-05-1.23362E-02-1.12324E-13-2.42095E-13
 -1      3191 2.00055E+01 1.13043E-02 1.24824E-04-3.02656E-03-1.22153E-15-1.56440E-13
 -1      3192 2.00043E+01 8.82035E-03-5.56233E-05-7.17267E-04 1.80844E-13-8.15958E-14
 -1      3193 2.00065E+01 1.51593E-02-3.06237E-05-5.19394E-03 6.09223E-14 2.47346E-14
 -1      3194 2.00038E+01 6.83562E-03 8.71589E-05 1.08965E-03 2.06400E-13-7.95967E-15
 -1      3195 2.00031E+01 5.05831E-03-3.45373E-05 2.53082E-03 2.19550E-13 1.60041E-13
 -1      3196 2.00052E+01 9.42439E-03-2.81124E-05-4.28525E-04 2.71606E-13 1.29549E-13
 -1      3197 2.00026E+01 3.63804E-03 5.92072E-05 3.61605E-03 2.42839E-13 1.13820E-13
 -1      3198 2.00021E+01 2.36554E-03-2.01640E-05 4.42602E-03 3.15263E-13 1.63798E-13
 -1      3199 2.00040E+01 5.30294E-03-2.45551E-05 2.58857E-03 3.15397E-13 2.82936E-13
 -1      3200 2.00016E+01 1.33334E-03 3.85390E-05 4.98968E-03 2.91725E-13 7.60246E-14
 -1      3201 2.00013E+01 4.02297E-04-9.46753E-06 5.33746E-03 1.36557E-13 1.21052E-13
 -1      3202 2.00030E+01 2.34297E-03-1.98757E-05 4.33053E-03 2.61100E-13 9.54822E-14
 -1      3203 2.00008E+01-2.96251E-04 2.58340E-05 5.53656E-03-2.37297E-14 9.29829E-14
 -1      3204 2.00006E+01-1.03264E-03-5.22273E-06 5.54242E-03 1.07094E-13 7.30350E-14
 -1      3205 2.00012E+01-1.29982E-03-2.06374E-05 5.36833E-03-1.20233E-13-6.92607E-14
 -1      3206 2.00020E+01 2.31601E-04-2.55821E-05 5.15438E-03 9.04208E-14-3.78749E-14
 -1      3207 2.16300E+01-8.58953E-01-1.99148E-03-1.53513E+00-4.79718E-14-6.68045E-14
 -1      3208 2.13679E+01-5.17031E-01 1.60166E-02-1.59121E+00 2.50407E-14-9.09746E-14
 -1      3209 2.14064E+01-1.16367E+00-2.55661E-02-1.82365E+00-9.47816E-14-7.68348E-14
 -1      3210 2.46201E+01-2.36647E+00-2.03706E-02 3.95519E-01-4.26183E-14 3.17224E-13
 -1      3211 2.42327E+01-2.42467E+00 2.05374E-02-1.45687E-01-1.08008E-13 2.54668E-13
 -1      3212 2.37205E+01-2.76756E+00-2.33820E-02-9.47103E-01-1.95129E-13 1.88431E-13
 -1      3213 2.62169E+01 1.56663E+00-5.75298E-02 2.25761E+00 4.92786E-13 4.35523E-13
 -1      3214 2.63385E+01 7.13589E-02-7.83569E-02 2.18657E+00 3.33154E-13 4.06376E-13
 -1      3215 2.59166E+01 4.36998E+00-1.10585E-01 1.12417E+00 8.66154E-13 8.68645E-14
 -1      3216 2.60487E+01 3.32050E+00-1.42758E-01 1.81378E+00 7.31817E-13 2.51009E-13
 -1      3217 2.54906E+01 4.17009E+00-1.45453E-01-1.07922E+00 7.99458E-13-3.12169E-13
 -1      3218 2.54115E+01 4.53004E+00-1.13423E-01-9.39367E-02 8.61325E-13-1.76882E-13
 -1      3219 2.58574E+01 2.10672E+00-1.18359E-01-2.34077E+00 7.25218E-13-6.26721E-13
 -1      3220 2.56906E+01 3.38332E+00-7.98315E-02-1.84966E+00 7.73270E-13-4.80864E-13
 -1      3221 2.51697E+01-2.24195E+00 8.15351E-03-1.03244E+00-1.39786E-13-4.85677E-13
 -1      3222 2.53708E+01-1.62819E+00 6.45819E-03-1.56765E+00 1.54373E-14-5.70676E-13
 -1      3223 2.39221E+01-2.33090E+00 3.06989E-02 2.17935E-01-2.05830E-13-3.21129E-13
 -1      3224 2.43067E+01-2.42312E+00-2.72725E-02-2.62000E-01-1.61148E-13-3.78262E-13
 -1      3225 2.48887E+01-2.93017E+00-7.22099E-02-1.33262E-01-2.00831E-13-4.55783E-13
 -1      3226 2.27320E+01-1.79194E+00 2.65829E-02 1.00776E+00-1.46639E-13-2.18758E-13
 -1      3227 2.31521E+01-2.12665E+00-1.39400E-02 6.73384E-01-1.45286E-13-2.62454E-13
 -1      3228 2.32733E+01-2.67501E+00-5.51480E-02 9.40460E-01-1.92119E-13-2.41984E-13
 -1      3229 2.18114E+01-1.09996E+00 2.00432E-02 1.39385E+00-1.77504E-13-1.47950E-13
 -1      3230 2.21589E+01-1.45453E+00-5.07390E-03 1.21340E+00-1.67059E-13-1.61129E-13
 -1      3231 2.20122E+01-1.87324E+00-3.21654E-02 1.51629E+00-1.99310E-13-2.38652E-13
 -1      3232 2.11734E+01-5.08647E-01 1.17966E-02 1.51304E+00-7.17711E-14-1.35754E-13
 -1      3233 2.14332E+01-7.91741E-01-9.11838E-04 1.44802E+00-1.42070E-13-1.34665E-13
 -1      3234 2.11457E+01-1.06757E+00-2.17202E-02 1.71326E+00-2.12950E-13-6.84158E-14
 -1      3235 2.07686E+01-9.07812E-02 6.10616E-03 1.47202E+00 2.18836E-14-3.76394E-14
 -1      3236 2.09532E+01-2.81367E-01 1.78190E-03 1.48036E+00-3.26740E-14-1.07657E-13
 -1      3237 2.06073E+01-4.24983E-01-1.33883E-02 1.68516E+00-9.12509E-14-9.40654E-16
 -1      3238 2.05213E+01 1.66534E-01 2.46661E-03 1.34781E+00-2.69165E-15 6.05661E-14
 -1      3239 2.06509E+01 5.42899E-02 2.63193E-03 1.39867E+00 8.69524E-14 8.54355E-14
 -1      3240 2.03072E+01 5.37290E-03-7.40186E-03 1.55148E+00-6.48163E-16 1.44594E-14
 -1      3241 2.03710E+01 3.02039E-01 3.31550E-04 1.18524E+00-9.45926E-14 1.13843E-13
 -1      3242 2.04643E+01 2.46809E-01 2.79256E-03 1.25769E+00-8.07198E-14 5.17499E-14
 -1      3243 2.01525E+01 2.59385E-01-3.73392E-03 1.37360E+00-8.82115E-14 1.13360E-13
 -1      3244 2.02774E+01 3.54880E-01-7.82506E-04 1.01120E+00-1.15211E-13 3.07482E-13
 -1      3245 2.03473E+01 3.37179E-01 2.74298E-03 1.09150E+00-3.51489E-14 2.31192E-13
 -1      3246 2.00799E+01 3.85617E-01-1.62092E-03 1.18257E+00-1.85342E-13 3.54780E-13
 -1      3247 2.02157E+01 3.56627E-01-1.27849E-03 8.41638E-01-1.30791E-13 2.28638E-13
 -1      3248 2.02702E+01 3.61459E-01 2.60830E-03 9.21199E-01-5.89264E-14 2.76243E-13
 -1      3249 2.00499E+01 4.27380E-01-5.29788E-04 9.95371E-01-6.06136E-14 5.43634E-13
 -1      3250 2.01717E+01 3.29826E-01-1.41873E-03 6.85561E-01-1.86220E-13 1.07035E-13
 -1      3251 2.02156E+01 3.46778E-01 2.42627E-03 7.59359E-01-1.93511E-13 1.16351E-13
 -1      3252 2.00398E+01 4.18067E-01-4.67720E-05 8.21282E-01-2.62046E-14 1.68529E-13
 -1      3253 2.01380E+01 2.89386E-01-1.36495E-03 5.47514E-01-5.60103E-14 6.04321E-14
 -1      3254 2.01740E+01 3.11702E-01 2.21019E-03 6.12946E-01-1.30200E-13 1.07902E-13
 -1      3255 2.00374E+01 3.80953E-01 1.19389E-04 6.65187E-01-8.64634E-14 1.42971E-13
 -1      3256 2.01109E+01 2.44593E-01-1.21746E-03 4.29134E-01 3.58473E-14 1.24256E-13
 -1      3257 2.01405E+01 2.68140E-01 1.96837E-03 4.85214E-01-7.81924E-15 9.94373E-14
 -1      3258 2.00370E+01 3.31231E-01 1.34846E-04 5.29239E-01-3.91355E-14 1.07456E-13
 -1      3259 2.00885E+01 2.00857E-01-1.03457E-03 3.30182E-01 5.46386E-15 1.51208E-13
 -1      3260 2.01127E+01 2.23280E-01 1.71326E-03 3.76951E-01 8.29324E-14 1.38334E-13
 -1      3261 2.00361E+01 2.78292E-01 9.07514E-05 4.13738E-01 5.02259E-14 3.32217E-13
 -1      3262 2.00698E+01 1.61047E-01-8.49024E-04 2.49282E-01-1.85763E-13 7.97595E-14
 -1      3263 2.00894E+01 1.81144E-01 1.45863E-03 2.87392E-01-6.92716E-14 1.54231E-13
 -1      3264 2.00343E+01 2.27563E-01 3.35657E-05 3.17743E-01-9.19054E-15 2.01259E-13
 -1      3265 2.00543E+01 1.26434E-01-6.77795E-04 1.84455E-01-1.31144E-13-1.77441E-13
 -1      3266 2.00700E+01 1.43720E-01 1.21607E-03 2.14873E-01-1.31460E-13 2.93578E-14
 -1      3267 2.00314E+01 1.81869E-01-1.62920E-05 2.39543E-01-7.86515E-14 1.81599E-13
 -1      3268 2.00416E+01 9.73264E-02-5.28417E-04 1.33473E-01 1.78254E-13-2.22458E-13
 -1      3269 2.00539E+01 1.11745E-01 9.93905E-04 1.57290E-01-6.50739E-14-2.36928E-13
 -1      3270 2.00278E+01 1.42398E-01-5.21245E-05 1.77024E-01-5.05915E-14-7.47627E-14
 -1      3271 2.00313E+01 7.34888E-02-4.03009E-04 9.41030E-02 2.51006E-13-8.15016E-14
 -1      3272 2.00409E+01 8.52177E-02 7.97046E-04 1.12408E-01 3.03481E-13-1.74164E-13
 -1      3273 2.00240E+01 1.09354E-01-7.37622E-05 1.27936E-01 2.19393E-13-8.47486E-14
 -1      3274 2.00231E+01 5.44013E-02-3.00743E-04 6.42513E-02 2.59266E-13-9.23733E-14
 -1      3275 2.00304E+01 6.37376E-02 6.27472E-04 7.80603E-02 2.86193E-13-1.66759E-13
 -1      3276 2.00201E+01 8.23829E-02-8.36576E-05 9.00727E-02 2.46309E-13-5.23865E-14
 -1      3277 2.00167E+01 3.94246E-02-2.19341E-04 4.20415E-02 2.42734E-13 4.18509E-14
 -1      3278 2.00221E+01 4.67099E-02 4.84954E-04 5.22580E-02 1.52007E-13-2.91698E-14
 -1      3279 2.00166E+01 6.08441E-02-8.49207E-05 6.13889E-02 1.84109E-13-2.05688E-13
 -1      3280 2.00118E+01 2.78972E-02-1.55952E-04 2.58509E-02 1.11873E-13 3.12631E-13
 -1      3281 2.00157E+01 3.34747E-02 3.67782E-04 3.32518E-02 3.08361E-13 3.21036E-13
 -1      3282 2.00133E+01 4.39836E-02-8.04329E-05 4.00647E-02 7.56553E-14 2.29095E-15
 -1      3283 2.00081E+01 1.91903E-02-1.07649E-04 1.43151E-02 8.29992E-14 3.08393E-13
 -1      3284 2.00109E+01 2.33805E-02 2.73385E-04 1.95495E-02 1.23299E-13 3.63344E-13
 -1      3285 2.00105E+01 3.10339E-02-7.25244E-05 2.45316E-02 8.06208E-14 3.14330E-13
 -1      3286 2.00053E+01 1.27357E-02-7.17140E-05 6.31532E-03-8.03175E-15 2.23933E-13
 -1      3287 2.00072E+01 1.58253E-02 1.98815E-04 9.91222E-03-2.29175E-14 2.74754E-13
 -1      3288 2.00081E+01 2.12717E-02-6.29265E-05 1.34738E-02-5.74127E-15 3.49106E-13
 -1      3289 2.00033E+01 8.03610E-03-4.57358E-05 9.55751E-04-1.67534E-13 4.76536E-13
 -1      3290 2.00046E+01 1.02740E-02 1.41078E-04 3.33577E-03-1.11740E-13 3.55141E-13
 -1      3291 2.00061E+01 1.40465E-02-5.28883E-05 5.81472E-03-1.07836E-13 4.74447E-13
 -1      3292 2.00019E+01 4.66458E-03-2.77216E-05-2.46369E-03 1.47034E-14 6.54588E-13
 -1      3293 2.00027E+01 6.26368E-03 9.73659E-05-9.74488E-04-2.86983E-14 4.76699E-13
 -1      3294 2.00045E+01 8.79053E-03-4.31832E-05 6.93258E-04-1.69008E-13 4.32464E-13
 -1      3295 2.00009E+01 2.25738E-03-1.60696E-05-4.47410E-03 1.65604E-13 4.00303E-13
 -1      3296 2.00014E+01 3.39869E-03 6.51850E-05-3.63106E-03 2.36331E-13 5.21282E-13
 -1      3297 2.00031E+01 5.01631E-03-3.44265E-05-2.56261E-03 1.21052E-13 3.87141E-13
 -1      3298 2.00003E+01 5.12509E-04-9.06574E-06-5.46193E-03 2.83051E-15 2.19727E-13
 -1      3299 2.00005E+01 1.34390E-03 4.19148E-05-5.08847E-03 3.01156E-14 2.47918E-13
 -1      3300 2.00021E+01 2.31245E-03-2.61725E-05-4.45886E-03 2.02567E-13 4.23473E-13
 -1      3301 1.99999E+01-8.17568E-04-2.20948E-06-5.69783E-03-7.90006E-14 5.87229E-14
 -1      3302 2.00000E+01-1.86443E-04 2.35469E-05-5.67576E-03-7.88159E-14 1.59097E-13
 -1      3303 2.00013E+01 3.28865E-04-2.02683E-05-5.37071E-03 5.04728E-14 2.12864E-13
 -1      3304 2.00000E+01-1.69867E-03-6.06454E-07-5.46732E-03-1.78939E-13 1.95410E-13
 -1      3305 1.99999E+01-1.23235E-03-1.48304E-06-5.65422E-03-7.58236E-14 1.79025E-14
 -1      3306 2.00009E+01-9.68952E-04-5.75011E-06-5.53562E-03-9.60195E-14 2.78572E-13
 -1      3307 2.00008E+01-1.95046E-03 6.65565E-06-5.33173E-03-1.22320E-13 4.02400E-15
 -1      3308 2.12516E+01-4.40059E+00 1.13724E-01-4.38317E+00 6.74266E-13-8.51524E-14
 -1      3309 2.35084E+01-4.76950E+00-9.88107E-02-3.09288E+00 5.86371E-13-1.02514E-13
 -1      3310 2.00041E+01-1.73666E-03-2.46120E-06 3.92259E-04-3.77957E-14-6.31754E-14
 -1      3311 2.00041E+01-1.73668E-03-2.63302E-06-3.67579E-04-1.15429E-13-1.97485E-13
 -1      3312 1.63278E+01-3.09317E+00 7.53629E-02-5.30294E+00 5.49727E-13 3.21965E-15
 -1      3313 1.88849E+01-4.09391E+00-8.53923E-03-5.16403E+00 6.37157E-13-3.64431E-14
 -1      3314 2.06299E+01-3.79226E+00 8.07344E-02-4.14521E+00 6.03656E-13-9.29222E-14
 -1      3315 2.00024E+01-1.74304E-03-7.37137E-06 4.48072E-03-1.35939E-13-2.08199E-13
 -1      3316 2.00029E+01-1.82923E-03 1.77006E-06 3.94015E-03-1.18644E-13-1.00510E-13
 -1      3317 2.20022E+01-4.54740E+00-1.31151E-01 3.95482E+00 4.40419E-13-1.48940E-13
 -1      3318 1.97346E+01-3.65607E+00 1.46850E-01 4.83018E+00 5.61919E-13-3.37168E-13
 -1      3319 2.61376E+01-3.75871E+00-1.15497E-01 6.39305E-01 5.41997E-14 2.11182E-13
 -1      3320 2.47514E+01-4.22181E+00 1.09536E-01 2.22777E+00 3.08450E-13 7.24421E-14
 -1      3321 9.62924E+00 3.69768E-01 6.89744E-02 3.27412E-01 6.19895E-14-1.11933E-12
 -1      3322 9.77918E+00 1.91278E-01 1.01109E-01-1.69609E+00-8.24688E-14-1.17689E-12
 -1      3323 2.56336E+01-4.01135E+00 9.03807E-02-1.24640E+00 3.32678E-13-4.56496E-13
 -1      3324 2.63866E+01-3.03861E+00-8.48354E-02 3.51391E-01 7.25617E-14-8.09960E-13
 -1      3325 2.08463E+01 2.82067E-01 5.16919E-04-1.34196E+00 1.76079E-13-1.39266E-13
 -1      3326 2.07538E+01 5.02112E-01 7.28442E-03-1.20800E+00 2.11408E-13-1.46444E-13
 -1      3327 1.65353E+01-2.96953E+00-5.03801E-02 5.28938E+00 5.43954E-13-4.92918E-13
 -1      3328 1.38906E+01-1.61283E+00 1.40375E-01 4.78557E+00 4.67751E-13-7.24261E-13
 -1      3329 2.00033E+01-1.75604E-03-4.40167E-06 3.28415E-03-9.70449E-14-1.97269E-13
 -1      3330 2.00036E+01-1.80824E-03-3.11784E-07 2.61562E-03-3.41685E-15 6.33357E-14
 -1      3331 2.00037E+01-7.32971E-04 7.71090E-06 3.61575E-03-2.02286E-13-1.84859E-13
 -1      3332 2.11330E+01-2.22984E-01 5.09154E-04-1.52881E+00 9.76215E-14-1.20864E-13
 -1      3333 2.09645E+01 4.83067E-02 1.07910E-02-1.47884E+00 1.46604E-13-1.15531E-13
 -1      3334 2.05351E+01 2.43216E-01-9.75546E-03-1.51600E+00 1.43122E-13-2.22100E-13
 -1      3335 1.06783E+01-1.15481E+00 1.56785E-01-4.06048E+00 3.25281E-13 3.94046E-13
 -1      3336 1.30275E+01-1.88545E+00 6.97525E-02-4.86192E+00 3.95073E-13 7.09988E-14
 -1      3337 1.15618E+01-8.39672E-01 2.83528E-02 3.92546E+00 3.54661E-13-8.72455E-13
 -1      3338 1.02073E+01 2.04590E-02 1.02318E-01 2.21166E+00 2.32873E-13-9.60426E-13
 -1      3339 9.88844E+00-3.52434E-01 8.45321E-02 2.69676E+00-1.28762E-13 5.67282E-13
 -1      3340 8.74421E+00 1.23013E-01 1.48040E-01 6.78513E-01 2.94070E-14 5.64854E-13
 -1      3341 2.03675E+01 1.49909E+00 4.36693E-03 4.16304E-01-2.72963E-13-5.05818E-13
 -1      3342 2.03782E+01 1.24379E+00-1.47171E-03 6.83857E-01-2.25993E-13-4.86384E-13
 -1      3343 2.00639E+01 1.33547E+00-2.02036E-03 8.18164E-01-1.81371E-13-5.26302E-13
 -1      3344 2.74557E+01-9.36083E-01-8.12211E-02-1.60977E+00-4.04725E-13 3.08614E-13
 -1      3345 2.71452E+01-2.57845E+00 1.85224E-02-6.55969E-01-1.29591E-13 3.18801E-13
 -1      3346 2.60562E+01-3.06949E+00-7.97933E-03-7.88925E-02 3.63830E-14 2.04635E-13
 -1      3347 1.45666E+01-2.59024E+00 7.78812E-02 5.33715E+00-4.67112E-13-1.32394E-14
 -1      3348 1.19918E+01-1.37081E+00 1.08887E-01 4.41580E+00-3.03188E-13 1.98258E-13
 -1      3349 2.56422E+01-4.20339E+00 6.54467E-02-1.68567E+00-2.42736E-13 1.27148E-13
 -1      3350 2.65022E+01-3.39640E+00-8.01089E-02-2.77067E-01-2.68305E-14 3.18690E-13
 -1      3351 8.49353E+00-2.49667E-03 1.04447E-01-8.22986E-01 8.82749E-14 4.42618E-13
 -1      3352 9.08282E+00-5.71677E-01 1.02780E-01-2.81824E+00 2.07487E-13 5.72598E-13
 -1      3353 1.11331E+01-2.93293E-01 1.05872E-01-2.82623E+00 2.16032E-13 4.29351E-13
 -1      3354 1.00555E+01 3.12935E-01 1.06636E-01 3.41262E-02 9.68513E-14 5.11854E-13
 -1      3355 2.75241E+01 5.59786E+00-1.22407E-01 2.16947E-01 1.10431E-12-1.00270E-13
 -1      3356 2.07017E+01 1.24826E+00 1.21215E-03-3.50217E-01 4.24029E-13-2.07447E-13
 -1      3357 2.04051E+01 1.61885E+00 6.42478E-04-2.61495E-01 4.33351E-13-2.86886E-13
 -1      3358 2.02577E+01 1.49344E+00 2.20017E-03-5.13858E-01 3.69620E-13-3.31546E-13
 -1      3359 2.07096E+01 1.02065E+00-1.95460E-03-6.26993E-01 3.61794E-13-1.94503E-13
 -1      3360 2.69173E+01-9.24349E-01-6.71601E-02 1.68635E+00 3.02036E-13 5.01071E-13
 -1      3361 2.54680E+01-1.34687E+00-1.80691E-02 1.57712E+00 1.69278E-13 3.69307E-13
 -1      3362 2.52938E+01-2.03475E+00-2.14138E-02 1.10136E+00 6.60583E-14 3.79466E-13
 -1      3363 2.68421E+01-2.61357E+00-1.74947E-02 7.28268E-01 6.49827E-14 4.65919E-13
 -1      3364 2.69668E+01 1.84729E+00-6.78417E-02-2.18373E+00-7.33982E-13 3.03722E-13
 -1      3365 2.13192E+01-4.37700E+00 1.25112E-01-4.55721E+00-5.12652E-13-3.23110E-13
 -1      3366 2.36548E+01-4.76747E+00-8.45122E-02-3.29981E+00-3.68781E-13-6.85615E-14
 -1      3367 2.69634E+01 4.18369E-02-1.01584E-01-2.17451E+00-5.22776E-13 3.55840E-13
 -1      3368 1.07108E+01-5.14590E-01 9.44611E-02-3.31315E+00-2.53686E-13-1.14972E-12
 -1      3369 1.29344E+01-1.72150E+00 3.70597E-02-4.92990E+00-3.88745E-13-1.07973E-12
 -1      3370 2.67852E+01-6.48703E-01-4.89952E-02 1.92927E+00-1.62356E-13-8.35002E-13
 -1      3371 1.84707E+01 3.05218E+00-2.05980E-03-1.54763E-01 2.52493E-13-6.95532E-13
 -1      3372 1.83387E+01 3.12490E+00-6.43434E-03-1.20876E-01 1.94514E-13-7.17579E-13
 -1      3373 2.00039E+01-1.74150E-03-2.99268E-06 1.88439E-03 9.28398E-14 1.99080E-13
 -1      3374 2.00040E+01-1.76424E-03-2.25518E-06 1.15885E-03-1.93050E-14 1.36897E-13
 -1      3375 2.00047E+01-4.43435E-04 1.52864E-05 7.64416E-04 6.37425E-14 1.42722E-14
 -1      3376 2.00044E+01-5.55815E-04 1.23564E-05 2.24037E-03 1.48161E-14 3.95202E-14
 -1      3377 1.56097E+01-2.84298E+00 1.22367E-01-5.49445E+00-5.34142E-13-8.51950E-13
 -1      3378 1.83217E+01-4.05859E+00-3.93742E-02-5.53897E+00-5.18731E-13-6.00256E-13
 -1      3379 2.62503E+01-1.15484E+00-3.60908E-02-1.64746E+00-3.14242E-13 3.54277E-13
 -1      3380 2.65423E+01-1.95527E+00-3.23120E-02 1.47418E+00-5.20296E-14-7.38007E-13
 -1      3381 1.82720E+01 3.17452E+00-3.97650E-03-2.44409E-02 1.63213E-13-7.09586E-13
 -1      3382 1.82692E+01 3.17527E+00-4.48464E-03 1.93683E-02 9.78849E-14-7.00667E-13
 -1      3383 1.82742E+01 2.93558E+00 8.83645E-03-1.11391E-01 1.64173E-13-6.77549E-13
 -1      3384 2.24908E+01-4.65241E+00 9.28773E-02 3.92216E+00-5.31138E-13-7.09589E-14
 -1      3385 2.09683E+01-4.07696E+00 5.57903E-02 4.20197E+00-4.40557E-13-7.18835E-14
 -1      3386 2.35216E+01-4.73646E+00-1.22978E-01 2.87534E+00-4.93890E-13-6.07743E-14
 -1      3387 1.91533E+01 2.59341E+00-7.24302E-03 2.64972E-01-1.41622E-13-6.85131E-13
 -1      3388 1.94645E+01 2.39096E+00-1.83265E-03 2.45148E-01-2.14489E-13-6.75149E-13
 -1      3389 2.64287E+01-3.71058E+00 2.72784E-02 6.58093E-01-2.74288E-13-4.77646E-13
 -1      3390 2.07427E+01 6.59312E-01-4.24563E-04-1.03646E+00 2.48404E-13-1.79814E-13
 -1      3391 2.07036E+01 8.63632E-01 5.38541E-03-8.31211E-01 2.89664E-13-1.94181E-13
 -1      3392 2.04707E+01 1.06612E+00-2.03970E-03-7.88086E-01 3.06748E-13-2.44247E-13
 -1      3393 2.04466E+01 7.02901E-01-5.40461E-03-1.18131E+00 2.02800E-13-2.27314E-13
 -1      3394 2.38980E+01-3.48805E+00-6.66315E-02 1.55505E+00 2.53486E-13 4.13974E-14
 -1      3395 2.47174E+01-3.03951E+00 2.39340E-02 5.03065E-01 1.75144E-13 1.60025E-13
 -1      3396 2.42119E+01-4.12137E+00 1.90218E-05-2.20228E+00-2.96641E-13 2.23085E-15
 -1      3397 2.52998E+01-2.86322E+00-9.84935E-03-9.73706E-02 8.23577E-14 2.24849E-13
 -1      3398 2.59561E+01-2.19435E+00-4.97028E-02-1.11768E+00-6.55569E-14 3.11227E-13
 -1      3399 1.53125E+01-1.78934E+00 1.13088E-01-4.65023E+00-4.43062E-13-8.59070E-13
 -1      3400 2.08341E+01-3.79572E-01-1.69622E-02-1.75534E+00 5.25525E-14-1.71176E-13
 -1      3401 2.52526E+01-2.67692E+00-8.86037E-03 2.83398E-01-3.47968E-14 4.07256E-13
 -1      3402 2.63952E+01-1.05125E+00-4.71253E-02-1.84606E+00 1.66244E-13-6.82947E-13
 -1      3403 2.58598E+01-1.33456E-01-7.83935E-02-2.32997E+00 3.48858E-13-6.48481E-13
 -1      3404 2.58070E+01 1.26669E+00-2.26150E-02-2.47633E+00 6.21919E-13-6.70925E-13
 -1      3405 2.00036E+01-1.80714E-03-5.93052E-08-2.61836E-03-9.78611E-14-3.60150E-13
 -1      3406 2.00033E+01-1.75321E-03-1.38538E-06-3.28594E-03-1.19655E-13-2.22193E-14
 -1      3407 2.00047E+01-4.42101E-04 1.49917E-05-7.47033E-04-1.45414E-13-3.47409E-13
 -1      3408 2.00040E+01-1.76261E-03-1.93420E-06-1.14008E-03-1.79211E-13-3.19941E-13
 -1      3409 2.00039E+01-1.73912E-03-2.06470E-06-1.87798E-03-9.80481E-14-4.85999E-13
 -1      3410 1.85879E+01-2.73430E+00 7.80046E-02 4.49816E+00 4.87294E-13-4.04166E-13
 -1      3411 2.34075E+01-3.85378E+00 5.08355E-02 2.59573E+00 3.71592E-13-4.35225E-14
 -1      3412 2.58031E+01-3.03242E+00-2.56675E-02 9.44143E-02-9.28077E-15 3.47780E-13
 -1      3413 1.42787E+01-1.24878E+00 3.32610E-02-4.15358E+00 3.44891E-13-5.21666E-14
 -1      3414 1.53015E+01-2.23919E+00 9.73551E-02-4.94789E+00 4.28955E-13-1.00218E-13
 -1      3415 1.72350E+01-2.49937E+00-8.43322E-03-4.50636E+00 5.06007E-13-1.73979E-13
 -1      3416 2.42124E+01-3.97839E+00 1.54974E-02-1.85386E+00 3.67793E-13-2.42546E-13
 -1      3417 1.14235E+01 5.17914E-01 1.11618E-01 1.09877E+00 1.42918E-13-9.57519E-13
 -1      3418 1.34923E+01-8.49031E-01 6.39859E-02 3.78632E+00-2.31783E-13 9.50628E-14
 -1      3419 1.16246E+01-5.44960E-01 1.26039E-01 3.45759E+00-2.23602E-13 3.12986E-13
 -1      3420 1.15960E+01 7.41657E-02 4.04450E-02 2.33845E+00-8.09283E-14 2.69139E-13
 -1      3421 1.20205E+01 1.55798E-01 1.21319E-01-2.35680E+00-1.65213E-13-1.05409E-12
 -1      3422 1.94891E+01 2.37114E+00-1.39841E-03-2.44693E-01 3.87621E-13-5.37359E-13
 -1      3423 1.91762E+01 2.57420E+00-7.02430E-03-2.64677E-01 3.38953E-13-5.65109E-13
 -1      3424 1.96810E+01 1.99028E+00 4.45501E-03-4.56132E-01 3.40237E-13-4.67717E-13
 -1      3425 1.83578E+01-3.16225E+00 2.34062E-02 4.63755E+00-4.86763E-13-1.78264E-13
 -1      3426 1.65634E+01-2.89343E+00 1.02376E-01 5.15162E+00-4.54192E-13-1.35066E-13
 -1      3427 1.58373E+01-2.05271E+00 4.68900E-02 4.63016E+00-3.66273E-13-1.10183E-13
 -1      3428 1.40324E+01-8.05240E-01 1.15374E-01 3.88818E+00 3.69902E-13-6.91773E-13
 -1      3429 2.03659E+01 1.80353E+00-3.53451E-03 9.79284E-02-3.38795E-13-5.41169E-13
 -1      3430 2.00029E+01-1.86821E-03 1.37735E-06-3.84398E-03 7.26787E-14 3.39051E-13
 -1      3431 2.00025E+01-1.82961E-03-1.15687E-06-4.30286E-03 1.08027E-13 3.26060E-13
 -1      3432 2.00037E+01-7.73804E-04 6.48479E-06-3.51758E-03-3.66739E-15-3.02390E-15
 -1      3433 1.88971E+01 2.77671E+00-1.05277E-03-2.33488E-01 3.26412E-13-6.08974E-13
 -1      3434 1.86577E+01 2.91670E+00-7.46022E-03-2.25248E-01 2.75039E-13-6.57422E-13
 -1      3435 1.85478E+01 2.75676E+00 7.51743E-03-2.97921E-01 2.42603E-13-6.40609E-13
 -1      3436 1.90437E+01 2.42936E+00 6.05559E-03-4.15920E-01 2.86164E-13-5.65814E-13
 -1      3437 2.00771E+01 1.90507E+00-1.20919E-03 2.56129E-01-2.95301E-13-5.90392E-13
 -1      3438 2.02723E+01-3.67541E+00 6.57507E-02-4.44925E+00-4.97678E-13-3.95814E-13
 -1      3439 1.86409E+01 2.93112E+00-7.30240E-03 2.22120E-01-4.25203E-14-7.16234E-13
 -1      3440 1.88766E+01 2.79315E+00-1.35641E-03 2.32213E-01-9.85377E-14-7.11684E-13
 -1      3441 1.90231E+01 2.44898E+00 6.62661E-03 4.14387E-01-1.14466E-13-6.45769E-13
 -1      3442 2.00017E+01-1.36074E-03-3.17976E-06 5.10099E-03-1.31857E-13-1.63980E-13
 -1      3443 2.00021E+01-1.64696E-03-4.77393E-06 4.80675E-03-6.30187E-14-1.42192E-13
 -1      3444 2.00028E+01-7.20645E-04 1.19459E-05 4.55396E-03-5.69270E-14-5.51714E-14
 -1      3445 2.00021E+01-5.72822E-04 2.33053E-05 5.08683E-03-4.57056E-14 2.28097E-14
 -1      3446 2.21256E+01-2.37227E+00-7.60998E-03-2.08864E+00-2.78477E-13-4.01773E-14
 -1      3447 2.15875E+01-1.80192E+00 3.35114E-02-2.21560E+00-2.46392E-13-8.40220E-14
 -1      3448 1.53566E+01-1.03419E+00-5.50119E-02 3.94433E+00 3.67446E-13-5.64611E-13
 -1      3449 1.37542E+01 2.61689E-03 7.00442E-02 3.03870E+00 3.11274E-13-6.91110E-13
 -1      3450 1.96935E+01 6.28359E-01 2.18461E-03 1.61350E+00-1.94897E-14-4.44543E-13
 -1      3451 1.97894E+01 3.24019E-01 8.69880E-03 1.80386E+00 2.52474E-14-4.11949E-13
 -1      3452 1.98191E+01-2.39408E-02 6.57688E-03 2.04790E+00 5.34885E-14-3.92217E-13
 -1      3453 2.00367E+01-4.29796E-01 1.08568E-02 2.20384E+00 9.77868E-14-3.60595E-13
 -1      3454 1.92394E+01 3.09535E-01-8.57331E-03 2.00346E+00 5.39408E-14-4.45408E-13
 -1      3455 2.02402E+01-8.96364E-01 1.87223E-02 2.43100E+00 1.50342E-13-3.19269E-13
 -1      3456 2.06748E+01-1.40152E+00 2.56792E-02 2.50050E+00 2.10802E-13-2.65796E-13
 -1      3457 1.94079E+01-5.67506E-01-2.16463E-02 2.54805E+00 1.55867E-13-3.95614E-13
 -1      3458 2.62988E+01 4.06447E+00-2.10476E-01 1.77249E+00-6.59486E-13-5.65249E-13
 -1      3459 2.22828E+01-3.10823E+00 2.40588E-02-2.37944E+00 4.46091E-13-3.65055E-14
 -1      3460 2.14754E+01-2.50744E+00 5.01486E-02-2.56922E+00 4.73768E-13-1.40766E-14
 -1      3461 2.08394E+01-1.90424E+00 2.40035E-02-2.47077E+00 3.69924E-13-1.51156E-13
 -1      3462 2.03061E+01-1.36356E+00 2.36152E-02-2.44318E+00 2.42410E-13-2.30782E-13
 -1      3463 2.01190E+01-2.30613E+00-5.23903E-02-3.10660E+00 3.30147E-13-1.33298E-13
 -1      3464 2.00320E+01-9.02344E-01 1.78277E-02-2.24796E+00 2.13425E-13-2.36815E-13
 -1      3465 1.97216E+01-5.13635E-01 8.44061E-03-2.14693E+00 2.40832E-13-2.65052E-13
 -1      3466 1.93100E+01-1.10637E+00-3.83209E-02-2.63971E+00 2.74173E-13-2.40748E-13
 -1      3467 1.96408E+01-2.04307E-01 1.18065E-02-1.94762E+00 2.29906E-13-2.93658E-13
 -1      3468 1.94837E+01 3.98066E-02 1.06212E-03-1.82905E+00 5.45215E-14-2.44500E-13
 -1      3469 1.90303E+01-2.61778E-01-1.35796E-02-2.17853E+00 1.78214E-13-3.07236E-13
 -1      3470 1.95015E+01 2.29731E-01 8.14512E-03-1.65734E+00-4.95362E-14-1.37430E-13
 -1      3471 1.94343E+01 3.66695E-01-1.56970E-03-1.53949E+00-4.66645E-15-7.27899E-14
 -1      3472 1.89994E+01 2.43416E-01-4.52615E-03-1.78082E+00 1.17513E-13-1.91080E-13
 -1      3473 1.94950E+01 4.67932E-01 5.27864E-03-1.39626E+00-1.13687E-15-1.08885E-13
 -1      3474 1.94763E+01 5.31809E-01-2.62715E-03-1.28603E+00 2.27999E-14-2.58096E-14
 -1      3475 1.90868E+01 5.21018E-01-7.16066E-04-1.45812E+00 2.03345E-14-1.10149E-13
 -1      3476 1.95514E+01 5.73306E-01 3.44398E-03-1.16613E+00-2.29617E-14 2.21965E-14
 -1      3477 1.95561E+01 5.89947E-01-2.89428E-03-1.06560E+00-1.84594E-14 8.82406E-14
 -1      3478 1.92222E+01 6.47664E-01 1.02044E-03-1.19529E+00 5.27903E-14-7.08404E-14
 -1      3479 1.96307E+01 5.93717E-01 2.36761E-03-9.64315E-01-6.85197E-14 1.42238E-13
 -1      3480 1.96445E+01 5.81763E-01-2.81377E-03-8.74159E-01 1.19749E-15 1.07692E-13
 -1      3481 1.93675E+01 6.77390E-01 1.72946E-03-9.77804E-01 1.68738E-14-1.88035E-14
 -1      3482 1.97119E+01 5.63500E-01 1.75224E-03-7.88174E-01-1.13833E-13 1.83721E-14
 -1      3483 1.97274E+01 5.35846E-01-2.57903E-03-7.08652E-01-7.64549E-14-1.05196E-13
 -1      3484 1.95034E+01 6.48447E-01 1.88432E-03-7.95165E-01-1.41317E-13 3.09138E-14
 -1      3485 1.97848E+01 5.06225E-01 1.39325E-03-6.35797E-01 7.86574E-14-2.20565E-13
 -1      3486 1.97986E+01 4.71452E-01-2.27523E-03-5.66880E-01 1.63006E-13-3.26698E-13
 -1      3487 1.96216E+01 5.87162E-01 1.76624E-03-6.40763E-01-8.92607E-14-1.51494E-13
 -1      3488 1.98456E+01 4.37429E-01 1.16602E-03-5.05613E-01 2.10361E-13-3.57321E-13
 -1      3489 1.98564E+01 4.00988E-01-1.95046E-03-4.46964E-01 1.43984E-13-3.42121E-13
 -1      3490 1.97195E+01 5.11130E-01 1.52729E-03-5.10436E-01 1.49361E-13-2.35316E-13
 -1      3491 1.98937E+01 3.66850E-01 1.00190E-03-3.96018E-01 3.93719E-14-3.86592E-13
 -1      3492 1.99015E+01 3.31989E-01-1.63330E-03-3.47009E-01 2.46733E-14-3.34995E-13
 -1      3493 1.97978E+01 4.31668E-01 1.25475E-03-4.01246E-01 6.55168E-14-4.52650E-13
 -1      3494 1.99304E+01 3.00191E-01 8.65970E-04-3.05213E-01-5.05813E-14-3.75480E-13
 -1      3495 1.99355E+01 2.68668E-01-1.33982E-03-2.64990E-01-1.00549E-13-3.77993E-13
 -1      3496 1.98586E+01 3.55602E-01 9.93061E-04-3.10793E-01-4.40344E-14-3.28483E-13
 -1      3497 1.99573E+01 2.40449E-01 7.43367E-04-2.31207E-01-1.03993E-13-4.16327E-13
 -1      3498 1.99604E+01 2.13046E-01-1.07834E-03-1.98770E-01-6.48369E-14-4.27611E-13
 -1      3499 1.99047E+01 2.86686E-01 7.62360E-04-2.36880E-01-1.31558E-13-3.86035E-13
 -1      3500 1.99765E+01 1.88869E-01 6.29574E-04-1.71887E-01 2.44107E-14-4.14751E-13
 -1      3501 1.99781E+01 1.65759E-01-8.52214E-04-1.46178E-01-5.05714E-14-3.30360E-13
 -1      3502 1.99387E+01 2.26636E-01 5.69468E-04-1.77377E-01-1.82433E-14-4.09434E-13
 -1      3503 1.99897E+01 1.45611E-01 5.24489E-04-1.25127E-01-8.69046E-14-1.97198E-13
 -1      3504 1.99901E+01 1.26599E-01-6.61521E-04-1.05097E-01-1.36026E-13-1.40295E-13
 -1      3505 1.99632E+01 1.75860E-01 4.14163E-04-1.30220E-01 4.18544E-14-1.04598E-13
 -1      3506 1.99982E+01 1.10195E-01 4.29310E-04-8.88832E-02-2.01606E-13-6.45408E-14
 -1      3507 1.99980E+01 9.48884E-02-5.04234E-04-7.35473E-02-2.04934E-13-3.36217E-14
 -1      3508 1.99804E+01 1.33978E-01 2.92809E-04-9.34454E-02-9.06653E-14 4.98139E-14
 -1      3509 2.00035E+01 8.18072E-02 3.45133E-04-6.12736E-02-2.66760E-13 1.90584E-13
 -1      3510 2.00029E+01 6.97241E-02-3.77106E-04-4.97409E-02-1.23223E-13 1.62155E-13
 -1      3511 1.99919E+01 1.00172E-01 2.00426E-04-6.52434E-02-1.42940E-13 8.11810E-14
 -1      3512 2.00064E+01 5.94909E-02 2.72460E-04-4.06188E-02-1.71321E-13 1.21959E-13
 -1      3513 2.00056E+01 5.01301E-02-2.76315E-04-3.21108E-02-1.08204E-13-5.96653E-14
 -1      3514 1.99993E+01 7.34159E-02 1.31822E-04-4.39907E-02-2.09406E-13 1.87458E-13
 -1      3515 2.00077E+01 4.22718E-02 2.11150E-04-2.54659E-02-3.94356E-14-1.86234E-13
 -1      3516 2.00068E+01 3.51517E-02-1.97911E-04-1.93208E-02-1.23886E-13-2.53887E-13
 -1      3517 2.00038E+01 5.26328E-02 8.21601E-05-2.82723E-02-1.88669E-13-1.25070E-13
 -1      3518 2.00079E+01 2.92260E-02 1.60549E-04-1.45894E-02-1.90130E-13-1.18039E-13
 -1      3519 2.00070E+01 2.39078E-02-1.38099E-04-1.02584E-02-8.82758E-14-1.47160E-13
 -1      3520 2.00061E+01 3.67804E-02 4.72144E-05-1.68852E-02-1.33395E-13-2.30156E-13
 -1      3521 2.00074E+01 1.95187E-02 1.19673E-04-6.97991E-03 8.44945E-14 5.99000E-14
 -1      3522 2.00065E+01 1.56152E-02-9.34414E-05-4.01869E-03 2.54212E-13 6.74947E-14
 -1      3523 2.00070E+01 2.49038E-02 2.34461E-05-8.83061E-03 9.46532E-14-3.64730E-14
 -1      3524 2.00065E+01 1.24173E-02 8.73853E-05-1.82475E-03 2.68405E-13 1.30725E-13
 -1      3525 2.00057E+01 9.59455E-03-6.10489E-05 1.18429E-04 3.25233E-13 1.90694E-13
 -1      3526 2.00069E+01 1.61577E-02 7.86511E-06-3.29716E-03 3.21429E-13 4.60781E-14
 -1      3527 2.00054E+01 7.29173E-03 6.25549E-05 1.51421E-03 2.88959E-13 2.20072E-13
 -1      3528 2.00047E+01 5.26865E-03-3.72906E-05 2.70905E-03 3.10020E-13 2.62138E-13
 -1      3529 2.00063E+01 9.80925E-03-1.97347E-06 3.58851E-04 3.24651E-13 1.98299E-13
 -1      3530 2.00043E+01 3.59741E-03 4.05952E-05 3.52947E-03 3.02213E-13 1.56199E-13
 -1      3531 2.00037E+01 2.15275E-03-1.49110E-05 4.16344E-03 1.61603E-13 4.70850E-15
 -1      3532 2.00053E+01 5.24072E-03-7.05288E-06 2.63773E-03 1.82066E-13 2.14708E-13
 -1      3533 2.00040E+01 3.43039E-04-5.68234E-06 3.76550E-03-9.29823E-14-1.35066E-13
 -1      3534 2.00045E+01 4.43697E-04-7.57409E-06 3.13331E-03-1.19921E-13-2.75850E-13
 -1      3535 2.00044E+01-5.56159E-04 1.23017E-05-2.23321E-03-1.84177E-13-3.91353E-13
 -1      3536 2.37150E+01-3.55783E+00 6.49179E-02 1.81649E+00-3.45985E-13-2.66252E-13
 -1      3537 2.46507E+01-3.61215E+00 2.92927E-02 1.19406E+00-3.84186E-13-3.53904E-13
 -1      3538 2.04310E+01-7.69626E-01 1.29138E-02 1.99997E+00-2.52619E-13-5.00498E-14
 -1      3539 2.07902E+01-1.17152E+00 1.07828E-02 2.00681E+00-2.63933E-13-8.29783E-14
 -1      3540 2.00214E+01-1.69807E-01 5.34845E-03 1.79812E+00-2.78266E-14-7.75721E-14
 -1      3541 2.02336E+01-4.38739E-01 9.88140E-03 1.86380E+00-1.38551E-13-3.96216E-14
 -1      3542 1.97114E+01-5.63935E-01-1.50268E-02 2.13904E+00-1.92150E-13-1.31689E-14
 -1      3543 1.98382E+01 2.04373E-01 1.19870E-03 1.56868E+00-9.20456E-14 1.22009E-13
 -1      3544 1.99538E+01 4.27862E-02 7.26713E-03 1.65818E+00-5.81234E-14 2.39249E-14
 -1      3545 1.94885E+01 8.45588E-03-7.49383E-03 1.82596E+00-1.01919E-13-1.75878E-14
 -1      3546 1.97807E+01 4.09178E-01-1.00497E-03 1.34118E+00-2.26511E-13 1.32817E-13
 -1      3547 1.98395E+01 3.25827E-01 5.10895E-03 1.43809E+00-1.27824E-13 9.99138E-14
 -1      3548 1.94410E+01 3.49169E-01-3.32844E-03 1.53876E+00-1.51716E-13 2.65001E-14
 -1      3549 1.97871E+01 4.97137E-01-1.95163E-03 1.12826E+00-2.74555E-13 2.71290E-13
 -1      3550 1.98147E+01 4.66281E-01 3.63447E-03 1.22399E+00-2.32637E-13 2.71707E-13
 -1      3551 1.94832E+01 5.24304E-01-7.21211E-04 1.28523E+00-2.79052E-13-4.40420E-14
 -1      3552 1.98205E+01 5.10926E-01-2.26332E-03 9.35090E-01-8.01835E-16 2.85844E-13
 -1      3553 1.98326E+01 5.12526E-01 2.68695E-03 1.02502E+00-6.15289E-14 3.04806E-13
 -1      3554 1.95626E+01 5.87862E-01 5.84299E-04 1.06463E+00-1.67315E-13-3.37306E-14
 -1      3555 1.98613E+01 4.81392E-01-2.25655E-03 7.63410E-01-1.59099E-14 2.74768E-13
 -1      3556 1.98666E+01 5.01378E-01 2.10383E-03 8.45019E-01-1.57994E-14 2.83388E-13
 -1      3557 1.96504E+01 5.82548E-01 1.08692E-03 8.73339E-01-2.25608E-14 1.63250E-13
 -1      3558 1.98999E+01 4.29406E-01-2.08180E-03 6.13702E-01-9.46695E-15 2.17769E-13
 -1      3559 1.99027E+01 4.58399E-01 1.74110E-03 6.85680E-01 5.59900E-15 3.15105E-13
 -1      3560 1.97325E+01 5.38107E-01 1.19176E-03 7.08058E-01 3.75115E-14 2.04677E-13
 -1      3561 1.99323E+01 3.68496E-01-1.83201E-03 4.85611E-01-4.31438E-14 1.76962E-13
 -1      3562 1.99347E+01 4.00501E-01 1.48863E-03 5.47539E-01-1.89757E-14 1.93716E-13
 -1      3563 1.98029E+01 4.74290E-01 1.09896E-03 5.66503E-01 2.49600E-14 3.54023E-13
 -1      3564 1.99577E+01 3.06962E-01-1.55825E-03 3.78037E-01 2.30105E-14 3.06205E-13
 -1      3565 1.99603E+01 3.38367E-01 1.28751E-03 4.30147E-01-4.27961E-14 2.16672E-13
 -1      3566 1.98600E+01 4.03870E-01 9.24690E-04 4.46763E-01-1.62773E-15 3.88636E-13
 -1      3567 1.99764E+01 2.49522E-01-1.29025E-03 2.89325E-01-7.68991E-14 3.23200E-13
 -1      3568 1.99794E+01 2.78331E-01 1.11076E-03 3.32284E-01 7.74474E-14 3.79515E-13
 -1      3569 1.99046E+01 3.34629E-01 7.33441E-04 3.46937E-01-2.75816E-14 2.70152E-13
 -1      3570 1.99896E+01 1.98546E-01-1.04423E-03 2.17451E-01 8.09467E-15 1.53974E-13
 -1      3571 1.99928E+01 2.23813E-01 9.47862E-04 2.52197E-01 1.38134E-14 2.83258E-13
 -1      3572 1.99381E+01 2.70936E-01 5.56379E-04 2.65005E-01 2.12470E-14 3.58323E-13
 -1      3573 1.99984E+01 1.54916E-01-8.27932E-04 1.60221E-01 7.26139E-14 7.35303E-15
 -1      3574 2.00016E+01 1.76352E-01 7.96691E-04 1.87818E-01-1.28017E-14 6.65644E-14
 -1      3575 1.99625E+01 2.14909E-01 4.06085E-04 1.98839E-01 9.96275E-14 8.61723E-14
 -1      3576 2.00038E+01 1.18613E-01-6.43823E-04 1.15429E-01 2.08159E-13 2.12581E-14
 -1      3577 2.00069E+01 1.36323E-01 6.58360E-04 1.36960E-01 1.71522E-13-9.82370E-14
 -1      3578 1.99797E+01 1.67234E-01 2.85369E-04 1.46273E-01 1.88669E-13-1.70789E-13
 -1      3579 2.00069E+01 8.91118E-02-4.91156E-04 8.09708E-02 3.63087E-13-2.48579E-14
 -1      3580 2.00097E+01 1.03416E-01 5.34548E-04 9.74758E-02 3.69220E-13 9.44078E-14
 -1      3581 1.99915E+01 1.27731E-01 1.92297E-04 1.05200E-01 2.88523E-13-9.79456E-15
 -1      3582 2.00083E+01 6.56334E-02-3.67383E-04 5.49303E-02 1.20213E-13 5.90017E-14
 -1      3583 2.00107E+01 7.69550E-02 4.26356E-04 6.73543E-02 1.88016E-13 6.76734E-14
 -1      3584 1.99991E+01 9.57321E-02 1.22970E-04 7.36473E-02 2.52555E-13-4.92174E-15
 -1      3585 2.00086E+01 4.73073E-02-2.69081E-04 3.56172E-02-5.62329E-14 2.00037E-13
 -1      3586 2.00107E+01 5.60983E-02 3.33991E-04 4.47909E-02 7.98795E-14 1.83232E-13
 -1      3587 2.00037E+01 7.03351E-02 7.29923E-05 4.98309E-02 4.89765E-15 2.24466E-13
 -1      3588 2.00081E+01 3.32678E-02-1.92551E-04 2.15841E-02-2.66515E-14 2.13004E-13
 -1      3589 2.00099E+01 3.99680E-02 2.56858E-04 2.82162E-02-6.80472E-14 1.14010E-13
 -1      3590 2.00062E+01 5.05586E-02 3.81938E-05 3.21876E-02-3.46800E-15 1.80940E-13
 -1      3591 2.00073E+01 2.27083E-02-1.34138E-04 1.16230E-02-6.98230E-14 2.88216E-13
 -1      3592 2.00087E+01 2.77219E-02 1.93772E-04 1.63023E-02-5.39403E-14 2.76878E-13
 -1      3593 2.00072E+01 3.54405E-02 1.49409E-05 1.93834E-02-7.35107E-14 5.67647E-14
 -1      3594 2.00062E+01 1.49084E-02-9.05828E-05 4.74807E-03-2.19148E-13 4.34667E-13
 -1      3595 2.00074E+01 1.85932E-02 1.43235E-04 7.95263E-03-4.99389E-14 4.15363E-13
 -1      3596 2.00073E+01 2.40922E-02 2.69121E-07 1.03076E-02-1.96337E-13 3.05070E-13
 -1      3597 2.00051E+01 9.24134E-03-5.88319E-05 1.74672E-04-6.71472E-14 3.05684E-13
 -1      3598 2.00061E+01 1.19065E-02 1.03647E-04 2.28294E-03-1.37451E-13 4.15425E-13
 -1      3599 2.00067E+01 1.57214E-02-8.47875E-06 4.05561E-03-1.26549E-13 2.97439E-13
 -1      3600 2.00040E+01 5.17324E-03-3.58760E-05-2.70823E-03 2.13380E-13 2.49901E-13
 -1      3601 2.00048E+01 7.08116E-03 7.34394E-05-1.40381E-03 7.94478E-14 2.63212E-13
 -1      3602 2.00059E+01 9.64443E-03-1.24365E-05-9.06679E-05 4.23912E-14 1.30942E-13
 -1      3603 2.00030E+01 2.23415E-03-2.12008E-05-4.35619E-03 2.07543E-13 2.66962E-13
 -1      3604 2.00036E+01 3.61006E-03 4.88752E-05-3.64638E-03 2.58428E-13 2.19232E-13
 -1      3605 2.00048E+01 5.27075E-03-1.39036E-05-2.69608E-03 2.14163E-13 5.78631E-14
 -1      3606 2.00021E+01 9.48942E-05-6.08000E-06-5.12200E-03 9.95459E-14 1.28802E-13
 -1      3607 2.00025E+01 1.11047E-03 3.22090E-05-4.82100E-03 1.41141E-13 2.02263E-13
 -1      3608 2.00037E+01 2.15463E-03-8.88215E-06-4.14839E-03 2.24376E-13 3.68554E-15
 -1      3609 2.01951E+01 2.83264E-01 5.12250E-03-1.65962E+00 7.82462E-14-2.73297E-13
 -1      3610 2.00942E+01 5.67556E-01 4.52568E-03-1.49482E+00 1.17191E-13-3.07473E-13
 -1      3611 2.04921E+01-4.01629E-01 8.39581E-03-1.96551E+00-1.54252E-14-1.91567E-13
 -1      3612 2.02770E+01-3.43027E-02 9.00754E-03-1.85805E+00 2.83836E-14-2.15892E-13
 -1      3613 1.97414E+01 2.46014E-01-9.95065E-03-1.85919E+00 2.13510E-14-3.28746E-13
 -1      3614 1.90936E+01-2.80446E+00 9.50297E-02-4.44326E+00-4.91454E-13-4.43626E-13
 -1      3615 2.11122E+01-3.56125E+00-5.88978E-02-3.72874E+00-4.33249E-13-2.41172E-13
 -1      3616 2.69814E+01-2.00840E+00-1.12654E-01-1.17561E+00 4.47667E-14-5.90507E-13
 -1      3617 1.99176E+01-3.01967E+00 1.05963E-01-4.00452E+00 4.97196E-13-6.98382E-14
 -1      3618 2.13842E+01-3.65901E+00-6.60909E-02-3.39976E+00 5.16111E-13 2.32106E-14
 -1      3619 1.97771E+01-2.90932E+00-9.37156E-02 3.95752E+00 4.15961E-13-3.30673E-13
 -1      3620 1.77061E+01-1.70961E+00 1.06308E-01 4.14631E+00 4.12207E-13-4.51054E-13
 -1      3621 2.22966E+01-3.20990E+00 9.34265E-02 2.90763E+00 4.00833E-13-1.15252E-13
 -1      3622 1.83327E+01 3.13170E+00-5.92239E-03 1.16357E-01 6.78222E-14-7.06479E-13
 -1      3623 1.84590E+01 3.06089E+00-2.43987E-03 1.50364E-01-6.24311E-16-7.11711E-13
 -1      3624 1.85357E+01 2.77000E+00 8.35174E-03 2.91718E-01-8.03730E-15-6.74364E-13
 -1      3625 2.51504E+01-3.31600E+00 3.28048E-02-5.99644E-01-1.69091E-13 2.76632E-13
 -1      3626 1.24949E+01 6.49604E-01 2.47319E-02-1.53978E+00-9.54584E-14-9.42881E-13
 -1      3627 1.33822E+01 1.51062E-02 3.22944E-02-3.02816E+00-2.23713E-13-9.68614E-13
 -1      3628 2.31585E+01-3.63341E+00 7.51546E-02-2.37783E+00 4.81684E-13-9.22058E-14
 -1      3629 2.12367E+01-1.63360E+00 2.95908E-02 2.08408E+00-2.61087E-13-1.20124E-13
 -1      3630 2.18245E+01-2.10806E+00 2.71956E-02 1.93737E+00-2.11114E-13-1.64058E-13
 -1      3631 2.02692E+01-1.44665E+00-2.59192E-02 2.44603E+00-2.72997E-13-2.17821E-14
 -1      3632 2.22004E+01-2.61087E+00 4.36157E-02 2.11639E+00-2.32063E-13-2.23884E-13
 -1      3633 2.30374E+01-3.01097E+00 4.48116E-02 1.74310E+00-2.62766E-13-2.57658E-13
 -1      3634 2.17802E+01-3.73972E+00-4.48414E-02 3.24567E+00-3.66797E-13-2.41699E-14
 -1      3635 2.09409E+01-2.50433E+00-4.63215E-02 2.76361E+00-2.45748E-13-9.29899E-14
 -1      3636 1.47795E+01-8.02241E-01 5.42709E-02-3.88925E+00-3.45585E-13-8.27532E-13
 -1      3637 1.68254E+01-2.06451E+00-2.17991E-02-4.56189E+00-4.46455E-13-6.07202E-13
 -1      3638 1.83457E+01-1.87824E+00 4.80045E-02-3.91939E+00-4.09747E-13-5.02732E-13
 -1      3639 1.97018E+01 1.16257E+00 7.82487E-04 1.16257E+00-1.07119E-13-4.92957E-13
 -1      3640 1.97245E+01 9.02976E-01 2.92661E-03 1.37904E+00-5.92204E-14-4.83474E-13
 -1      3641 1.92749E+01 9.50135E-01-1.86157E-03 1.50541E+00-2.54704E-14-4.79188E-13
 -1      3642 1.25514E+01 5.43445E-01 2.16022E-02 1.95439E+00 2.08934E-13-7.75803E-13
 -1      3643 1.21761E+01 8.85932E-01 3.44765E-02 2.08702E-01 5.88505E-14-8.90739E-13
 -1      3644 2.42145E+01-3.64899E+00-3.63183E-02-1.56863E+00-2.44554E-13 9.24963E-14
 -1      3645 2.37834E+01-3.23760E+00-2.38339E-02-1.37896E+00-2.47823E-13 1.55864E-13
 -1      3646 2.31340E+01-2.78519E+00 5.90074E-02-1.77308E+00-2.98566E-13 3.61855E-14
 -1      3647 2.29489E+01-3.63645E+00 9.13494E-02-2.84086E+00-4.04035E-13-1.08804E-13
 -1      3648 1.98339E+01 2.05941E+00-4.12084E-03 2.95895E-01-2.42777E-13-6.29011E-13
 -1      3649 2.10954E+01-1.29500E+00 7.23522E-03-2.15110E+00-1.83665E-13-1.29168E-13
 -1      3650 2.07221E+01-8.14896E-01 1.78556E-02-2.13090E+00-9.71029E-14-1.52941E-13
 -1      3651 2.06200E+01-1.62224E+00-3.56004E-02-2.61010E+00-2.42993E-13-2.06311E-13
 -1      3652 2.00020E+01-1.98564E-03 5.35361E-06-4.71742E-03 1.36256E-13 2.25700E-14
 -1      3653 2.00015E+01-1.87759E-03 1.98497E-06-5.03414E-03 1.97778E-14-1.64192E-14
 -1      3654 2.00016E+01-1.37509E-03-4.93879E-06-5.18554E-03-3.09804E-14 1.80873E-13
 -1      3655 2.00028E+01-1.11450E-03-5.31159E-06-4.49823E-03 4.84254E-14 1.76316E-13
 -1      3656 1.96896E+01 1.92667E+00 4.07826E-03 5.11695E-01-1.93819E-13-5.97038E-13
 -1      3657 2.11996E+01-2.48464E+00 3.27937E-02 2.91145E+00 3.30892E-13-2.40156E-13
 -1      3658 1.94017E+01 1.89046E+00-4.07283E-03 6.82104E-01-1.21323E-13-5.80052E-13
 -1      3659 1.97940E+01 1.57321E+00 6.54417E-05 7.41962E-01-1.55099E-13-5.51962E-13
 -1      3660 2.05199E+01-1.84361E+00 3.73490E-02 2.94693E+00 2.75362E-13-2.72938E-13
 -1      3661 1.42710E+01 5.34850E-01 6.23877E-02 2.15504E+00 2.31449E-13-6.58154E-13
 -1      3662 2.01285E+01 7.76282E-01 2.97356E-03-1.30059E+00 1.59357E-13-3.07236E-13
 -1      3663 2.01301E+01 9.68592E-01 2.72568E-03-1.11923E+00 1.96456E-13-3.23334E-13
 -1      3664 1.97315E+01 8.09333E-01-4.19160E-03-1.44544E+00 1.30757E-13-3.89935E-13
 -1      3665 1.93420E+01-1.43368E+00-2.11514E-03 3.21815E+00 2.69485E-13-3.65251E-13
 -1      3666 1.97960E+01 1.32045E+00 1.30859E-03 9.85045E-01-1.25419E-13-5.23109E-13
 -1      3667 2.09899E+01-3.57404E+00 2.90478E-02 3.65679E+00-3.61341E-13 1.17115E-13
 -1      3668 1.96225E+01-3.34711E+00 7.10662E-02 4.33057E+00-4.61343E-13 1.25421E-14
 -1      3669 1.84952E+01-2.63456E+00 2.02851E-03 4.17851E+00-3.81587E-13-3.29840E-14
 -1      3670 2.05154E+01-2.90202E+00 2.56283E-02 3.42011E+00-3.52184E-13 4.78844E-14
 -1      3671 2.00054E+01 9.67055E-04-1.12787E-05-3.41285E-04-8.73786E-14-1.95805E-13
 -1      3672 2.00053E+01 9.40864E-04-8.47632E-06-1.06083E-03-1.78572E-13-3.10036E-13
 -1      3673 1.99900E+01-5.54316E-01-2.08815E-02-2.27458E+00-8.73987E-14-2.63854E-13
 -1      3674 2.00031E+01 1.16178E-03 2.92403E-05 4.58486E-03-3.17078E-14-7.58919E-14
 -1      3675 2.00026E+01 1.89194E-04-6.26103E-07 4.85423E-03-4.07847E-14-6.96813E-14
 -1      3676 2.00030E+01 1.44339E-04-1.68886E-05 4.60255E-03-5.04944E-14-1.98268E-15
 -1      3677 2.00042E+01 2.18502E-03-1.40165E-05 3.88757E-03 8.39900E-15 5.65838E-14
 -1      3678 1.90533E+01 2.11295E+00-6.99973E-05 6.20458E-01-1.02284E-13-6.05377E-13
 -1      3679 1.91420E+01 1.77703E+00 1.36488E-03 8.56340E-01-8.82695E-14-5.56039E-13
 -1      3680 1.87407E+01 2.29365E+00-7.88810E-03 5.77220E-01-5.43457E-14-6.32335E-13
 -1      3681 2.00049E+01 7.03243E-04-1.10094E-05 2.44936E-03-1.15279E-13-3.43358E-13
 -1      3682 2.00051E+01 7.88007E-04-1.18164E-05 1.77138E-03 3.45241E-14 3.38832E-14
 -1      3683 2.00053E+01 1.94093E-03 1.98778E-05 2.67140E-03-9.98251E-14-3.13484E-13
 -1      3684 2.00051E+01 7.92349E-04-1.07569E-05-1.76234E-03-1.81064E-13-4.34672E-13
 -1      3685 2.00049E+01 7.09193E-04-5.12841E-06-2.45357E-03-1.71205E-13-4.37563E-13
 -1      3686 2.00059E+01 2.40310E-03 2.98723E-05-1.32367E-03-1.39222E-13-2.38239E-13
 -1      3687 1.51918E+01-1.34162E-01 6.63443E-02-3.06809E+00-2.85413E-13-7.90486E-13
 -1      3688 2.16311E+01-3.10174E+00 2.04063E-05-3.07524E+00-3.92205E-13-1.70678E-13
 -1      3689 2.00016E+01-8.25164E-04 1.22741E-05-5.22451E-03 7.49878E-14 1.81994E-13
 -1      3690 1.86988E+01-2.30790E+00 5.32215E-02-3.85724E+00 4.04631E-13-9.59909E-14
 -1      3691 1.71989E+01-9.67077E-01 4.27786E-02 3.53802E+00 3.21864E-13-4.98225E-13
 -1      3692 2.19781E+01-2.80291E+00-3.95769E-02-2.51859E+00-3.34371E-13-9.32648E-14
 -1      3693 1.82700E+01 2.93990E+00 8.94738E-03 1.02865E-01 7.59580E-14-6.62032E-13
 -1      3694 1.33532E+01-4.53528E-01 7.69464E-02-3.48248E+00 2.87867E-13 1.25677E-13
 -1      3695 1.51389E+01-7.91125E-01 5.28416E-02-3.56238E+00 4.04689E-13-1.89508E-13
 -1      3696 1.48751E+01-1.15546E+00 8.54804E-02 4.12158E+00-3.01092E-13-7.79654E-14
 -1      3697 1.41573E+01-5.15263E-01 4.85393E-04 3.36185E+00-1.99287E-13-4.56579E-14
 -1      3698 1.63931E+01-1.56696E+00 2.98314E-02 4.00009E+00-3.11277E-13-1.99001E-13
 -1      3699 1.98387E+01 1.62615E+00 1.37871E-03-6.70514E-01 2.94504E-13-4.32839E-13
 -1      3700 1.94775E+01 1.86123E+00-4.71760E-03-6.61603E-01 2.46973E-13-4.84351E-13
 -1      3701 2.00054E+01 9.67246E-04-1.14059E-05 3.57721E-04 1.61259E-13-1.07236E-13
 -1      3702 2.00061E+01 2.56212E-03 3.32766E-05 7.86988E-06 1.14728E-13 6.98907E-14
 -1      3703 2.00053E+01 9.36729E-04-9.15644E-06 1.06998E-03 1.31498E-13 1.39366E-13
 -1      3704 1.81590E+01 2.69548E+00-1.97341E-03-2.12867E-01 1.79661E-13-6.42032E-13
 -1      3705 1.80753E+01 2.73577E+00-6.79704E-03-9.83130E-02 1.24604E-13-6.36960E-13
 -1      3706 1.30628E+01 1.03216E+00 6.12131E-02-6.22160E-01-1.66447E-15-8.74262E-13
 -1      3707 1.41993E+01 9.78730E-01 8.75310E-03-1.26545E+00-8.08338E-14-7.89558E-13
 -1      3708 1.39210E+01 1.16827E+00 9.87942E-03 1.79253E-01 8.18868E-14-7.38054E-13
 -1      3709 2.00027E+01-2.45890E-04-8.95844E-06-4.79233E-03 1.18830E-14 4.23032E-14
 -1      3710 1.27193E+01 3.19955E-01 3.03877E-02 2.01161E+00-7.79643E-14 1.93214E-13
 -1      3711 1.16197E+01 6.25551E-01 1.22134E-01 1.25868E+00 4.05665E-15 3.61898E-13
 -1      3712 1.11492E+01 5.38653E-01 3.04526E-02 1.38350E-01 1.16374E-13 4.52756E-13
 -1      3713 1.12537E+01 5.54454E-01 1.07047E-01-1.29764E+00 1.58845E-13 5.06602E-13
 -1      3714 1.23492E+01 7.52745E-01 2.27284E-02 6.77232E-02 1.06378E-13 3.33549E-13
 -1      3715 2.00045E+01 4.26469E-04-5.65098E-06-3.03400E-03-1.30376E-13-3.12070E-13
 -1      3716 2.00041E+01 2.85499E-04-1.39167E-05-3.56940E-03 2.16032E-14-1.60298E-14
 -1      3717 2.00053E+01 1.97203E-03 3.83675E-05-2.55499E-03-1.06903E-13-4.72879E-13
 -1      3718 1.20041E+01 1.19555E-01 4.43348E-02-2.35799E+00 2.12609E-13 2.98345E-13
 -1      3719 1.94198E+01 1.39793E+00 2.36204E-03 1.09080E+00-8.65704E-14-5.17484E-13
 -1      3720 1.85360E+01 2.46464E+00-2.15485E-04-4.61871E-01 2.26965E-13-6.10215E-13
 -1      3721 1.83128E+01 2.58612E+00-7.89935E-03-3.75708E-01 1.93967E-13-6.36143E-13
 -1      3722 1.81473E+01 2.44896E+00 8.37693E-03-3.80638E-01 1.49590E-13-6.07819E-13
 -1      3723 2.00034E+01 9.07538E-05-1.98122E-06 4.30631E-03-1.09821E-13-5.25733E-14
 -1      3724 2.00042E+01 1.39192E-03 7.17546E-06 3.83299E-03-1.28374E-13-1.44581E-14
 -1      3725 1.85184E+01 5.07805E-02 1.99142E-03 2.41485E+00 1.65916E-13-4.47322E-13
 -1      3726 1.86312E+01-4.53810E-01-9.81732E-05 2.73991E+00 1.94504E-13-4.39236E-13
 -1      3727 1.81604E+01-1.57284E+00 3.85181E-02-3.53877E+00 3.09491E-13-1.60942E-13
 -1      3728 1.52591E+01 3.93477E-01-2.18373E-02 2.47182E+00 2.36747E-13-5.73187E-13
 -1      3729 1.44124E+01 9.64231E-01 1.44769E-02 1.45794E+00 1.54118E-13-6.37337E-13
 -1      3730 1.94577E+01-4.95030E-01 2.09490E-02-2.48711E+00-1.50143E-13-3.39045E-13
 -1      3731 1.92274E+01-5.57220E-02 3.21891E-03-2.26716E+00-7.92089E-14-3.77511E-13
 -1      3732 1.90487E+01 5.43401E-01-4.35519E-03 1.42409E+00-2.28264E-13 6.81204E-14
 -1      3733 1.90562E+01 4.41833E-01 7.94791E-03 1.55905E+00-9.12912E-14 6.53841E-14
 -1      3734 1.84571E+01-1.37113E-01 2.10608E-02-2.25628E+00 1.75657E-13-1.62655E-13
 -1      3735 1.83434E+01 1.40333E-01-5.20868E-03-2.03352E+00 1.44845E-13-1.99392E-13
 -1      3736 1.85165E+01 3.53505E-01 1.05815E-02-1.78923E+00 1.51322E-13-1.48324E-13
 -1      3737 1.85219E+01 5.06210E-01-6.84562E-03-1.61160E+00 1.03163E-13-8.88609E-14
 -1      3738 1.78730E+01 4.34043E-01 4.44164E-03-1.85397E+00 1.52098E-13-8.68572E-14
 -1      3739 1.87006E+01 6.23051E-01 6.74521E-03-1.43160E+00 1.87661E-14-1.03048E-13
 -1      3740 1.87496E+01 6.93785E-01-6.02648E-03-1.29117E+00-1.23888E-14-1.25751E-13
 -1      3741 1.82106E+01 7.11916E-01 4.27058E-03-1.43013E+00 6.43608E-14-1.41222E-13
 -1      3742 1.89127E+01 7.42353E-01 3.69189E-03-1.15671E+00 1.86719E-15-1.11564E-13
 -1      3743 1.89786E+01 7.60907E-01-5.03571E-03-1.04297E+00 4.40290E-14-1.00296E-13
 -1      3744 1.85387E+01 8.34128E-01 4.33102E-03-1.12686E+00 3.56549E-15-1.91621E-13
 -1      3745 1.91205E+01 7.65969E-01 2.07733E-03-9.38553E-01 9.63386E-14-1.14983E-13
 -1      3746 1.91878E+01 7.51952E-01-4.16358E-03-8.44235E-01 1.37162E-15-1.39009E-13
 -1      3747 1.88311E+01 8.57820E-01 4.09525E-03-8.99528E-01 6.37060E-14-1.49010E-13
 -1      3748 1.93079E+01 7.30665E-01 1.21901E-03-7.60553E-01-1.43173E-13-7.23472E-14
 -1      3749 1.93690E+01 6.97854E-01-3.46962E-03-6.81123E-01-1.53335E-13-8.28180E-14
 -1      3750 1.90823E+01 8.19685E-01 3.62249E-03-7.22080E-01 2.14008E-14-2.27385E-13
 -1      3751 1.94683E+01 6.62157E-01 7.83732E-04-6.12690E-01-2.03973E-13-1.08832E-13
 -1      3752 1.95203E+01 6.20078E-01-2.89404E-03-5.45476E-01-1.07374E-13-1.77210E-13
 -1      3753 1.92925E+01 7.45944E-01 3.11818E-03-5.79094E-01-1.91660E-13-2.59541E-13
 -1      3754 1.96009E+01 5.78114E-01 5.68904E-04-4.89031E-01 5.60583E-15-1.87155E-13
 -1      3755 1.96432E+01 5.33169E-01-2.40484E-03-4.32337E-01 1.19612E-13-2.72724E-13
 -1      3756 1.94644E+01 6.54641E-01 2.60610E-03-4.61797E-01-9.62567E-14-1.82249E-13
 -1      3757 1.97074E+01 4.90208E-01 4.66138E-04-3.85757E-01 1.26764E-13-4.29071E-13
 -1      3758 1.97406E+01 4.46426E-01-1.98457E-03-3.38360E-01 6.50189E-14-3.39204E-13
 -1      3759 1.96024E+01 5.58236E-01 2.13243E-03-3.64849E-01 2.40052E-14-3.36510E-13
 -1      3760 1.97909E+01 4.05679E-01 4.10568E-04-3.00156E-01-2.78065E-15-2.80305E-13
 -1      3761 1.98161E+01 3.65416E-01-1.62144E-03-2.61022E-01-2.47461E-14-2.45380E-13
 -1      3762 1.97110E+01 4.64671E-01 1.71204E-03-2.84820E-01 5.63615E-14-3.11842E-13
 -1      3763 1.98548E+01 3.28654E-01 3.70764E-04-2.30009E-01-6.53183E-14-3.02017E-13
 -1      3764 1.98736E+01 2.93105E-01-1.30840E-03-1.98159E-01-8.14194E-14-2.74285E-13
 -1      3765 1.97950E+01 3.78661E-01 1.34952E-03-2.19246E-01-4.20619E-14-2.22225E-13
 -1      3766 1.99028E+01 2.61131E-01 3.33789E-04-1.73306E-01-8.49859E-14-1.24043E-13
 -1      3767 1.99164E+01 2.30713E-01-1.04105E-03-1.47779E-01-3.54310E-16-1.46166E-13
 -1      3768 1.98587E+01 3.02643E-01 1.04458E-03-1.66116E-01 4.26484E-16-8.13696E-14
 -1      3769 1.99381E+01 2.03693E-01 2.95732E-04-1.28145E-01 6.72557E-14-2.44108E-13
 -1      3770 1.99475E+01 1.78327E-01-8.15827E-04-1.08011E-01 8.05631E-14-1.42073E-13
 -1      3771 1.99062E+01 2.37488E-01 7.93806E-04-1.23640E-01-7.84271E-16-1.33265E-13
 -1      3772 1.99632E+01 1.56038E-01 2.56624E-04-9.27366E-02-2.80619E-14-1.39341E-13
 -1      3773 1.99696E+01 1.35350E-01-6.29086E-04-7.71129E-02-1.39770E-13-1.28810E-13
 -1      3774 1.99408E+01 1.83047E-01 5.91792E-04-9.01779E-02 9.01954E-15-3.66768E-13
 -1      3775 1.99807E+01 1.17351E-01 2.17866E-04-6.54224E-02-1.18675E-13 5.84940E-14
 -1      3776 1.99848E+01 1.00814E-01-4.76831E-04-5.35031E-02-1.26462E-13 1.86112E-13
 -1      3777 1.99654E+01 1.38554E-01 4.32203E-04-6.42254E-02-2.29364E-14-7.08640E-14
 -1      3778 1.99925E+01 8.65599E-02 1.81014E-04-4.47084E-02-3.02176E-13 1.28198E-13
 -1      3779 1.99949E+01 7.35893E-02-3.54809E-04-3.57762E-02-2.78359E-13 9.16153E-14
 -1      3780 1.99824E+01 1.02913E-01 3.08501E-04-4.44263E-02-2.47928E-13 1.56798E-13
 -1      3781 1.99999E+01 6.25079E-02 1.47289E-04-2.92825E-02-2.62783E-13 5.14289E-14
 -1      3782 2.00012E+01 5.25183E-02-2.58712E-04-2.27168E-02-1.73516E-13-4.91393E-14
 -1      3783 1.99936E+01 7.48961E-02 2.14433E-04-2.95844E-02-3.32175E-13 3.44748E-14
 -1      3784 2.00043E+01 4.40584E-02 1.17457E-04-1.80203E-02-6.84924E-14-1.09425E-13
 -1      3785 2.00048E+01 3.65018E-02-1.84406E-04-1.32974E-02-4.85630E-14-7.70375E-14
 -1      3786 2.00007E+01 5.32683E-02 1.44307E-04-1.86685E-02-1.39755E-13 2.69938E-13
 -1      3787 2.00065E+01 3.01575E-02 9.18381E-05-9.98131E-03 8.28795E-14-7.35583E-14
 -1      3788 2.00065E+01 2.45416E-02-1.27984E-04-6.66966E-03 3.39547E-13 8.72335E-14
 -1      3789 2.00047E+01 3.68677E-02 9.31277E-05-1.08102E-02 5.78966E-14 2.44158E-13
 -1      3790 2.00073E+01 1.98652E-02 7.03955E-05-4.39583E-03 2.64208E-13 1.48999E-13
 -1      3791 2.00069E+01 1.57602E-02-8.59251E-05-2.14737E-03 3.16702E-13 1.00232E-13
 -1      3792 2.00067E+01 2.46471E-02 5.68132E-05-5.29418E-03 2.91393E-13 1.08069E-13
 -1      3793 2.00071E+01 1.23635E-02 5.31019E-05-6.45511E-04 3.98376E-13 9.46458E-14
 -1      3794 2.00065E+01 9.39604E-03-5.57117E-05 8.14264E-04 3.40793E-13 1.19601E-13
 -1      3795 2.00072E+01 1.56886E-02 3.17175E-05-1.54045E-03 3.28040E-13 4.68730E-14
 -1      3796 2.00063E+01 6.95216E-03 4.06586E-05 1.74250E-03 2.36399E-13 9.26552E-14
 -1      3797 2.00056E+01 4.81234E-03-2.30070E-05 2.64307E-03 2.21496E-13 8.26145E-14
 -1      3798 2.00068E+01 9.19230E-03 1.32480E-05 8.98531E-04 2.36324E-13-4.96595E-14
 -1      3799 2.00049E+01 2.50463E-03 8.76201E-06 3.34871E-03-2.48914E-14-6.78173E-14
 -1      3800 1.89518E+01 2.85633E-01-3.66514E-03 1.74350E+00-1.56286E-13-2.23297E-14
 -1      3801 1.90304E+01 9.42134E-02 1.39645E-02 1.89670E+00-1.87036E-13-1.15064E-13
 -1      3802 1.85567E+01 5.03892E-01 2.45839E-03 1.62621E+00-1.97785E-13-2.44955E-14
 -1      3803 2.00064E+01 4.15527E-03-2.54832E-05-8.29818E-04-1.32479E-14-8.23167E-14
 -1      3804 2.00063E+01 3.99770E-03-1.83409E-05-1.42963E-03-9.97640E-14-3.06603E-13
 -1      3805 1.52194E+01 4.08985E-01 4.78922E-03-2.44792E+00-1.90443E-13-7.72092E-13
 -1      3806 1.63891E+01-3.66506E-01-5.57462E-03-3.23995E+00-2.79076E-13-6.59483E-13
 -1      3807 1.89666E+01-1.82667E-01-3.64839E-03 2.13752E+00-1.49015E-13-1.21645E-13
 -1      3808 1.91782E+01-4.99384E-01 2.10839E-02 2.30262E+00-2.15564E-13-6.72302E-14
 -1      3809 1.83975E+01 1.35500E-01 9.05704E-03 2.06991E+00-1.70870E-13-9.28381E-14
 -1      3810 1.91933E+01 6.56316E-01-4.15326E-03 1.16471E+00-2.39305E-13 7.44635E-15
 -1      3811 1.91672E+01 6.17137E-01 4.72183E-03 1.28020E+00-2.45293E-13 4.85468E-14
 -1      3812 1.87733E+01 6.95801E-01 2.15971E-03 1.29498E+00-2.22617E-13 4.11248E-14
 -1      3813 1.93450E+01 6.77996E-01-3.72845E-03 9.51283E-01-1.28136E-13-4.78796E-14
 -1      3814 1.93063E+01 6.78131E-01 2.80941E-03 1.05042E+00-2.39557E-13-6.16409E-14
 -1      3815 1.89972E+01 7.64442E-01 2.67039E-03 1.04341E+00-2.15978E-13-3.11988E-14
 -1      3816 1.94854E+01 6.45017E-01-3.28086E-03 7.72494E-01-8.89855E-14 6.18349E-14
 -1      3817 1.94455E+01 6.68299E-01 1.77269E-03 8.58015E-01-4.87490E-14 4.82668E-14
 -1      3818 1.92021E+01 7.56140E-01 2.67031E-03 8.43454E-01-1.46919E-13-1.12697E-13
 -1      3819 1.96070E+01 5.81930E-01-2.82526E-03 6.21556E-01 1.86593E-14 1.46658E-13
 -1      3820 1.95711E+01 6.17408E-01 1.23358E-03 6.95106E-01-8.22544E-15 9.96293E-14
 -1      3821 1.93801E+01 7.02496E-01 2.49517E-03 6.79886E-01-8.22261E-14-8.71060E-14
 -1      3822 1.97077E+01 5.05387E-01-2.39944E-03 4.94377E-01-5.13838E-14 2.85599E-13
 -1      3823 1.96778E+01 5.45686E-01 9.43548E-04 5.57074E-01 1.00377E-14 1.96594E-13
 -1      3824 1.95291E+01 6.24679E-01 2.18641E-03 5.44199E-01-3.73964E-14 3.69109E-14
 -1      3825 1.97883E+01 4.26109E-01-2.00911E-03 3.88015E-01 2.71456E-14 2.24366E-13
 -1      3826 1.97647E+01 4.66554E-01 7.77921E-04 4.40793E-01 2.92996E-14 2.93038E-13
 -1      3827 1.96501E+01 5.37436E-01 1.83359E-03 4.31212E-01-4.36838E-14-4.84420E-14
 -1      3828 1.98511E+01 3.50569E-01-1.65743E-03 3.00064E-01-7.97519E-14 1.78355E-13
 -1      3829 1.98333E+01 3.88395E-01 6.70217E-04 3.43842E-01-1.52496E-14 1.87059E-13
 -1      3830 1.97461E+01 4.50201E-01 1.48979E-03 3.37463E-01 8.07790E-15 7.71373E-14
 -1      3831 1.98988E+01 2.82320E-01-1.34622E-03 2.28321E-01 5.99207E-14 2.09917E-14
 -1      3832 1.98858E+01 3.16068E-01 5.86177E-04 2.64065E-01-1.41578E-14 3.82037E-14
 -1      3833 1.98205E+01 3.68634E-01 1.17970E-03 2.60360E-01 3.90097E-14-4.52687E-14
 -1      3834 1.99342E+01 2.22960E-01-1.07606E-03 1.70664E-01 1.83454E-13-1.65296E-13
 -1      3835 1.99251E+01 2.52042E-01 5.10965E-04 1.99378E-01 1.04699E-13-8.90474E-14
 -1      3836 1.98770E+01 2.95765E-01 9.13054E-04 1.97705E-01 1.90085E-13-2.37634E-13
 -1      3837 1.99598E+01 1.72838E-01-8.46103E-04 1.25045E-01 1.79636E-13-1.96753E-13
 -1      3838 1.99537E+01 1.97213E-01 4.39719E-04 1.47735E-01 2.04074E-13-8.28890E-14
 -1      3839 1.99191E+01 2.32853E-01 6.91537E-04 1.47493E-01 1.71791E-13-5.48502E-14
 -1      3840 1.99778E+01 1.31543E-01-6.54133E-04 8.95285E-02 2.34477E-13-1.83767E-14
 -1      3841 1.99739E+01 1.51501E-01 3.72018E-04 1.07162E-01 1.76489E-13-1.84737E-13
 -1      3842 1.99496E+01 1.80006E-01 5.12517E-04 1.07852E-01 1.31459E-13-6.87282E-15
 -1      3843 1.99901E+01 9.82435E-02-4.96879E-04 6.23358E-02 7.76597E-14 3.52076E-13
 -1      3844 1.99878E+01 1.14248E-01 3.08958E-04 7.58063E-02 2.82225E-13 1.67681E-13
 -1      3845 1.99712E+01 1.36637E-01 3.71234E-04 7.70453E-02 7.52264E-14 2.67086E-13
 -1      3846 1.99980E+01 7.19155E-02-3.70415E-04 4.18786E-02 1.29197E-15 1.67163E-13
 -1      3847 1.99969E+01 8.45044E-02 2.51781E-04 5.19863E-02-6.75646E-15 1.82083E-13
 -1      3848 1.99860E+01 1.01778E-01 2.62138E-04 5.34966E-02 1.69283E-13 4.13930E-13
 -1      3849 2.00029E+01 5.14848E-02-2.70552E-04 2.67761E-02 9.88834E-14-1.05027E-13
 -1      3850 2.00025E+01 6.12052E-02 2.01347E-04 3.42159E-02 7.89501E-14 3.15556E-14
 -1      3851 1.99958E+01 7.42931E-02 1.79663E-04 3.58079E-02 9.69821E-14-1.87156E-13
 -1      3852 2.00055E+01 3.59169E-02-1.93206E-04 1.58575E-02-2.69128E-13 1.27098E-13
 -1      3853 2.00056E+01 4.32874E-02 1.58016E-04 2.12173E-02-3.05303E-14-2.42841E-15
 -1      3854 2.00018E+01 5.30185E-02 1.18643E-04 2.27696E-02-3.04496E-14-3.10748E-13
 -1      3855 2.00066E+01 2.42663E-02-1.34233E-04 8.15332E-03-1.48453E-13 1.75562E-13
 -1      3856 2.00070E+01 2.97550E-02 1.21676E-04 1.19188E-02-2.52840E-13 1.25020E-13
 -1      3857 2.00052E+01 3.68448E-02 7.45008E-05 1.33596E-02-2.59969E-13-1.40367E-13
 -1      3858 2.00067E+01 1.56959E-02-9.08525E-05 2.87586E-03-5.27790E-14-6.41940E-14
 -1      3859 2.00073E+01 1.97158E-02 9.19616E-05 5.43989E-03-2.29953E-15 7.38235E-14
 -1      3860 2.00068E+01 2.47668E-02 4.36780E-05 6.73483E-03-4.71424E-14-3.14408E-13
 -1      3861 2.00062E+01 9.48236E-03-5.85857E-05-5.94351E-04 1.19353E-13-1.93590E-13
 -1      3862 2.00068E+01 1.23853E-02 6.86085E-05 1.07525E-03-1.57173E-14-1.92480E-13
 -1      3863 2.00071E+01 1.58865E-02 1.96208E-05 2.20538E-03 7.99152E-14-4.05839E-13
 -1      3864 2.00053E+01 4.99651E-03-3.89447E-05-2.77269E-03 2.42325E-13-2.30991E-13
 -1      3865 2.00059E+01 7.11135E-03 5.32723E-05-1.72596E-03 2.10164E-13-1.70015E-13
 -1      3866 2.00066E+01 9.46215E-03 6.95848E-06-7.53349E-04 9.51060E-14-5.76640E-13
 -1      3867 1.81818E+01-8.40169E-01-3.08095E-02 3.12580E+00 2.58153E-13-4.32925E-13
 -1      3868 1.92734E+01 3.23875E-01 1.18427E-02-1.97505E+00-3.33192E-14-4.05472E-13
 -1      3869 1.91922E+01 6.48582E-01-2.29692E-03-1.75048E+00 1.55823E-14-4.30846E-13
 -1      3870 1.86105E+01 3.36983E-01-4.60338E-03-2.16379E+00-7.13003E-14-4.47429E-13
 -1      3871 1.88570E+01 1.30241E+00-5.59677E-03 1.30458E+00-1.94471E-14-5.04705E-13
 -1      3872 1.88292E+01 1.03597E+00 6.56422E-03 1.54135E+00 1.88983E-14-4.84363E-13
 -1      3873 1.90351E+01 1.61535E+00-5.61133E-04 1.01809E+00-5.54208E-14-5.43495E-13
 -1      3874 2.02293E+01 1.30464E+00-9.86648E-04-7.30840E-01 3.00522E-13-3.20488E-13
 -1      3875 2.00580E+01 1.20080E+00 1.60459E-03-9.45163E-01 2.34496E-13-3.47448E-13
 -1      3876 1.91995E+01-9.30413E-01-4.21244E-03 2.60642E+00-2.66146E-13-1.85975E-14
 -1      3877 1.96225E+01-1.45603E+00 6.49446E-03 2.78318E+00-2.52842E-13-6.30659E-15
 -1      3878 1.83866E+01-4.95112E-01 2.08737E-02 2.65003E+00-1.95907E-13-7.28094E-14
 -1      3879 1.39811E+01 1.98927E-01 9.44119E-02 2.60492E+00-1.88996E-13-2.74364E-14
 -1      3880 1.35617E+01 5.19002E-01-3.14425E-03 1.71899E+00-1.12930E-13 9.14720E-14
 -1      3881 2.07711E+01-2.35690E+00 6.26824E-02-3.22054E+00-3.62532E-13-2.44323E-13
 -1      3882 1.76242E+01-1.01154E+00 3.79345E-02-3.54346E+00-3.14125E-13-5.45505E-13
 -1      3883 1.92145E+01-1.95421E+00-3.88214E-02-3.56088E+00-3.34482E-13-3.92743E-13
 -1      3884 1.99421E+01-1.64591E+00 1.64162E-02-3.04514E+00-2.89780E-13-3.35286E-13
 -1      3885 1.76024E+01-3.80231E-01 3.69287E-02-2.96763E+00-2.16564E-13-5.71982E-13
 -1      3886 1.91307E+01 2.09089E+00 8.70575E-04-6.16705E-01 2.60522E-13-5.35328E-13
 -1      3887 1.88107E+01 2.27905E+00-7.06912E-03-5.71030E-01 2.29587E-13-5.67606E-13
 -1      3888 1.86141E+01 2.16033E+00 5.50812E-03-6.69853E-01 1.86129E-13-5.79727E-13
 -1      3889 1.66717E+01 6.08193E-02 5.31002E-02 2.85123E+00 2.51157E-13-5.61143E-13
 -1      3890 2.00033E+01-3.54477E-05 5.61968E-06-4.34886E-03 6.19940E-14 2.41626E-13
 -1      3891 1.82633E+01 2.59201E+00-6.46107E-03 3.58058E-01 3.92545E-14-6.25681E-13
 -1      3892 1.84686E+01 2.47934E+00-6.62924E-04 4.47095E-01-2.17320E-14-6.34429E-13
 -1      3893 1.84791E+01 2.17630E+00 2.18727E-03 6.60653E-01-1.57313E-14-5.91237E-13
 -1      3894 1.31785E+01 3.67242E-01 4.71064E-02-2.01115E+00 2.08237E-13 2.64958E-13
 -1      3895 1.80650E+01 2.73341E+00-4.51712E-03 7.66640E-02 1.00383E-13-6.30848E-13
 -1      3896 1.81334E+01 2.69207E+00-4.37918E-03 1.93157E-01 5.43562E-14-6.39043E-13
 -1      3897 1.80885E+01 2.44659E+00 1.10444E-02 3.44339E-01 3.63396E-14-6.03864E-13
 -1      3898 1.79673E+01 2.54794E+00 1.04011E-02-1.96194E-02 9.30407E-14-5.90020E-13
 -1      3899 1.95094E+01-1.00901E+00 1.78842E-02-2.84166E+00-2.26711E-13-3.28458E-13
 -1      3900 1.86585E+01 7.37679E-01-5.79925E-03 1.81263E+00 6.09434E-14-4.74199E-13
 -1      3901 1.86934E+01 4.12825E-01 1.36523E-02 2.07279E+00 1.14160E-13-4.65593E-13
 -1      3902 1.82532E+01 1.11563E+00 4.34673E-03 1.60450E+00 4.02742E-14-5.08814E-13
 -1      3903 1.92864E+01 1.74979E+00 4.67754E-03-8.36060E-01 2.05516E-13-5.00792E-13
 -1      3904 1.65668E+01-1.05701E+00-2.42539E-03-3.59093E+00 3.56678E-13-1.40440E-13
 -1      3905 1.84310E+01-9.94310E-01 4.53982E-02-2.98010E+00 2.80245E-13-8.00931E-14
 -1      3906 2.00056E+01 3.94573E-03-8.02300E-06 2.59272E-03 2.96785E-14-1.10986E-13
 -1      3907 2.00041E+01 1.21157E-03-5.00654E-06-3.91981E-03-6.78990E-14 8.40350E-14
 -1      3908 1.97032E+01 1.27060E+00-3.66464E-03-1.06669E+00 1.86971E-13-4.38457E-13
 -1      3909 1.85644E+01-5.72363E-01-1.54765E-02-2.85845E+00-1.87161E-13-4.47084E-13
 -1      3910 1.80308E+01 2.20554E+00 1.15838E-03-5.66703E-01 1.14947E-13-6.04161E-13
 -1      3911 1.78322E+01 2.29458E+00-9.47656E-03-3.84596E-01 9.79055E-14-6.10290E-13
 -1      3912 1.93289E+01 8.86074E-01 5.61096E-03-1.52440E+00 6.61613E-14-4.47970E-13
 -1      3913 1.93650E+01 1.10157E+00 3.76314E-06-1.33333E+00 1.12971E-13-4.71636E-13
 -1      3914 1.88078E+01 9.50779E-01 3.08357E-03-1.63971E+00 2.10877E-14-4.96391E-13
 -1      3915 1.79248E+01 4.92578E-01 1.12161E-02 2.21011E+00 1.49251E-13-4.82447E-13
 -1      3916 2.00061E+01 4.27213E-03-1.15118E-05 2.00267E-03-1.66758E-14-1.21697E-13
 -1      3917 1.66225E+01 5.02144E-01 3.95554E-03 2.26310E+00 1.78756E-13-5.54666E-13
 -1      3918 2.00067E+01 5.63982E-03 2.67015E-05-1.38722E-03-1.76231E-13-2.58319E-13
 -1      3919 2.00060E+01 3.54889E-03-2.93187E-05-1.91588E-03-2.10180E-13-4.22962E-13
 -1      3920 2.00057E+01 3.20941E-03-3.59670E-05-2.48637E-03-2.53112E-13-3.12649E-13
 -1      3921 1.55313E+01 1.22577E+00-2.64947E-03 1.11076E+00 1.26172E-13-5.77620E-13
 -1      3922 1.46322E+01 1.28035E+00 3.38994E-02 7.77281E-01 1.12288E-13-6.68711E-13
 -1      3923 1.50525E+01 1.38495E+00-1.53963E-02 4.71426E-02 4.76494E-14-6.73708E-13
 -1      3924 1.81121E+01-5.36233E-01 6.04476E-03-2.69365E+00 2.83005E-13-9.07265E-14
 -1      3925 2.00048E+01 2.65372E-03 2.99518E-05-3.40507E-03 4.87398E-15 1.42072E-14
 -1      3926 1.51485E+01 9.28614E-01 3.47706E-02-1.79116E+00-1.10683E-13-7.59430E-13
 -1      3927 1.62830E+01 7.65248E-01 1.31889E-02-1.98116E+00-1.30306E-13-6.62114E-13
 -1      3928 1.52904E+01 1.22279E+00-1.21324E-02-1.03205E+00-1.22654E-14-6.88211E-13
 -1      3929 2.00065E+01 4.31189E-03-1.60756E-05-3.03288E-04 6.23845E-14 1.22682E-13
 -1      3930 2.00071E+01 6.31030E-03 6.74787E-05-4.61084E-04 1.28979E-13 1.08987E-13
 -1      3931 2.00065E+01 4.28305E-03-2.69270E-05 2.83926E-04 1.87513E-13 1.41056E-13
 -1      3932 1.44747E+01 7.03133E-01 8.61888E-03 1.45249E+00-1.48616E-13-5.48867E-14
 -1      3933 1.36479E+01 9.30563E-01 6.34248E-02 8.97923E-01-2.05151E-14 1.70771E-13
 -1      3934 2.00056E+01 4.11979E-03-2.87438E-06-2.61490E-03-1.76377E-13-3.05360E-13
 -1      3935 1.93526E+01 1.30662E+00 3.67396E-03-1.17421E+00 1.53001E-13-4.98742E-13
 -1      3936 1.92896E+01 1.54770E+00 1.35726E-03-9.88204E-01 1.68706E-13-5.15627E-13
 -1      3937 1.89020E+01 1.76200E+00-5.89028E-03-9.37592E-01 1.59188E-13-5.28988E-13
 -1      3938 1.89230E+01 1.37825E+00 2.69310E-03-1.25703E+00 9.91821E-14-5.47623E-13
 -1      3939 1.86122E+01 1.69559E+00 5.23870E-03 1.04812E+00-2.31086E-14-5.46486E-13
 -1      3940 2.65625E+01-2.77106E+00-4.15948E-02-7.72522E-01-9.11562E-14-5.80414E-13
 -1      3941 1.73274E+01-1.31683E-01-1.06342E-02-2.54336E+00 1.90007E-13-9.45573E-14
 -1      3942 2.00059E+01 2.41645E-03 3.76681E-05 1.33704E-03 1.99270E-13-1.35315E-13
 -1      3943 1.75296E+01-1.84669E+00 7.87056E-02 4.05794E+00-2.90871E-13-1.73082E-13
 -1      3944 1.63666E+01-1.17172E+00 1.11464E-03 3.65908E+00-2.16827E-13-2.14731E-13
 -1      3945 1.85542E+01-2.15801E+00 2.54211E-02 3.80798E+00-2.66866E-13 7.55385E-14
 -1      3946 1.49290E+01-1.61016E-01 1.96257E-02 2.97102E+00-2.16005E-13-1.74777E-13
 -1      3947 1.80442E+01-1.17545E+00 4.60519E-02 3.34403E+00-2.17756E-13-3.63542E-14
 -1      3948 1.92224E+01-1.78362E+00-1.54705E-03 3.19166E+00-2.02303E-13-2.92680E-14
 -1      3949 1.42930E+01 1.02219E+00 1.34137E-02 3.74686E-02 7.48117E-14 5.07927E-14
 -1      3950 1.33315E+01 8.74434E-01-2.74043E-03 1.29024E-01 5.67849E-14 1.96829E-13
 -1      3951 1.34051E+01 9.28751E-01 6.80515E-02-8.93594E-01 1.47888E-13 2.12849E-13
 -1      3952 1.54855E+01-3.20302E-01-1.38485E-02-2.97340E+00 3.35667E-13-2.08231E-13
 -1      3953 1.77254E+01 2.35766E+00-2.36155E-03-1.33276E-01 9.08745E-14-5.97220E-13
 -1      3954 1.76991E+01 2.35473E+00-4.32039E-03 5.84558E-02 5.66702E-14-5.71438E-13
 -1      3955 1.76281E+01 2.15533E+00 1.15476E-02-3.25323E-01 5.76938E-14-5.92046E-13
 -1      3956 1.36380E+01 5.52652E-01-9.51734E-03-1.63665E+00 2.34440E-13 1.55681E-13
 -1      3957 1.46392E+01 1.87046E-01 3.09730E-02-2.55111E+00 3.69356E-13-9.51409E-14
 -1      3958 1.60576E+01 2.55746E-02 4.07347E-02-2.59005E+00 3.05729E-13-1.11344E-13
 -1      3959 1.46622E+01 7.48813E-01 2.02160E-02-1.39842E+00 1.77548E-13 3.96601E-14
 -1      3960 2.57263E+01-3.45580E+00 9.47539E-02 5.51765E-01-3.41806E-13-4.76171E-13
 -1      3961 1.82556E+01 1.87223E+00-5.83641E-03 9.06371E-01 1.50277E-14-5.60225E-13
 -1      3962 1.77588E+01 8.20977E-01 4.37434E-03-1.30736E+00 6.23815E-14-1.43778E-13
 -1      3963 1.79222E+01 8.81910E-01-1.06730E-02-1.14446E+00 2.68516E-14-2.31168E-13
 -1      3964 1.81966E+01 9.26039E-01 2.36844E-03-1.01405E+00 3.10687E-14-2.26336E-13
 -1      3965 1.83467E+01 9.38094E-01-7.71258E-03-8.95139E-01 5.25683E-14-1.63219E-13
 -1      3966 1.78048E+01 1.03380E+00 9.80213E-03-8.92270E-01 4.10624E-14-2.20553E-13
 -1      3967 1.85666E+01 9.38538E-01 8.52413E-04-8.01485E-01 7.02388E-14-2.41463E-13
 -1      3968 1.86993E+01 9.19374E-01-5.70611E-03-7.10880E-01 4.51557E-14-2.14161E-13
 -1      3969 1.82749E+01 1.03506E+00 7.81218E-03-6.90688E-01 3.66435E-14-3.23914E-13
 -1      3970 1.88757E+01 8.93246E-01 8.30865E-05-6.39935E-01 1.06460E-14-2.54900E-13
 -1      3971 1.89889E+01 8.54889E-01-4.39478E-03-5.67882E-01-5.19207E-14-3.65850E-13
 -1      3972 1.86532E+01 9.80893E-01 5.88526E-03-5.45592E-01-5.79021E-15-3.37767E-13
 -1      3973 1.91311E+01 8.13067E-01-1.97164E-04-5.12282E-01-1.21147E-13-3.06728E-13
 -1      3974 1.92251E+01 7.64436E-01-3.45745E-03-4.53491E-01-1.31679E-13-2.20870E-13
 -1      3975 1.89596E+01 8.93894E-01 4.73638E-03-4.33436E-01-4.42795E-14-4.82028E-13
 -1      3976 1.93389E+01 7.15277E-01-2.89329E-04-4.08902E-01-1.48523E-13-1.72964E-13
 -1      3977 1.94151E+01 6.62983E-01-2.76287E-03-3.60216E-01-1.08583E-13-2.22815E-13
 -1      3978 1.92060E+01 7.88846E-01 3.77980E-03-3.44996E-01-1.49288E-13-2.52428E-13
 -1      3979 1.95055E+01 6.12115E-01-2.63105E-04-3.23911E-01-8.54396E-14-3.14707E-13
 -1      3980 1.95660E+01 5.60518E-01-2.22749E-03-2.83456E-01-4.02813E-14-4.28135E-13
 -1      3981 1.94027E+01 6.78044E-01 3.02091E-03-2.73310E-01-1.74160E-13-4.38494E-13
 -1      3982 1.96371E+01 5.11603E-01-1.99757E-04-2.53824E-01 8.04916E-14-4.41371E-13
 -1      3983 1.96842E+01 4.63473E-01-1.79794E-03-2.20366E-01 6.29152E-14-3.96236E-13
 -1      3984 1.95581E+01 5.69536E-01 2.40592E-03-2.14582E-01 1.09221E-14-5.04929E-13
 -1      3985 1.97394E+01 4.18715E-01-1.32360E-04-1.96301E-01-1.89014E-14-3.54721E-13
 -1      3986 1.97754E+01 3.75617E-01-1.44398E-03-1.68899E-01 2.66737E-14-2.62883E-13
 -1      3987 1.96793E+01 4.68578E-01 1.89942E-03-1.66482E-01 1.35956E-13-3.79033E-13
 -1      3988 1.98177E+01 3.36153E-01-7.42056E-05-1.49539E-01 2.33872E-14-2.29819E-13
 -1      3989 1.98447E+01 2.98777E-01-1.14902E-03-1.27379E-01 6.32427E-14-1.76964E-13
 -1      3990 1.97726E+01 3.78205E-01 1.48176E-03-1.27353E-01 7.33075E-14-4.10747E-13
 -1      3991 1.98765E+01 2.64992E-01-2.94848E-05-1.11995E-01 3.37380E-14-9.35818E-14
 -1      3992 1.98963E+01 2.33426E-01-9.03325E-04-9.43281E-02-5.73172E-14-1.90057E-13
 -1      3993 1.98432E+01 2.99773E-01 1.13983E-03-9.58607E-02 5.48604E-14-3.70318E-13
 -1      3994 1.99197E+01 2.05212E-01 1.91069E-06-8.22731E-02-7.12900E-14-1.66448E-13
 -1      3995 1.99339E+01 1.79156E-01-7.00269E-04-6.84018E-02 3.69419E-14-2.17323E-13
 -1      3996 1.98957E+01 2.33448E-01 8.63154E-04-7.08413E-02 3.79112E-15-1.71040E-13
 -1      3997 1.99509E+01 1.56102E-01 2.19317E-05-5.90984E-02 9.27636E-14-2.81317E-13
 -1      3998 1.99608E+01 1.35031E-01-5.34466E-04-4.83806E-02 2.66650E-14-1.02176E-13
 -1      3999 1.99340E+01 1.78617E-01 6.42386E-04-5.12504E-02 2.77205E-14-2.22169E-13
 -1      4000 1.99728E+01 1.16565E-01 3.30841E-05-4.13175E-02-1.56817E-13-2.05834E-14
 -1      4001 1.99794E+01 9.98478E-02-4.01018E-04-3.31747E-02-3.20586E-13-1.18904E-14
 -1      4002 1.99611E+01 1.34204E-01 4.68925E-04-3.61473E-02 1.56194E-14-3.90048E-13
 -1      4003 1.99876E+01 8.53300E-02 3.77940E-05-2.79062E-02-3.13090E-13 9.64958E-14
 -1      4004 1.99918E+01 7.23084E-02-2.95279E-04-2.18300E-02-2.20504E-13 2.00194E-13
 -1      4005 1.99799E+01 9.89088E-02 3.34868E-04-2.46958E-02-2.53845E-13-1.36399E-13
 -1      4006 1.99972E+01 6.10996E-02 3.81446E-05-1.79756E-02-2.14899E-13 2.73952E-13
 -1      4007 1.99997E+01 5.11366E-02-2.12860E-04-1.35298E-02-9.66796E-14 2.76371E-13
 -1      4008 1.99924E+01 7.13671E-02 2.33078E-04-1.61671E-02-1.00050E-13 2.28242E-13
 -1      4009 2.00030E+01 4.26353E-02 3.58125E-05-1.07708E-02-5.17127E-14 2.96634E-13
 -1      4010 2.00043E+01 3.51458E-02-1.49841E-04-7.59009E-03 1.25761E-13 2.49639E-13
 -1      4011 2.00002E+01 5.02550E-02 1.57212E-04-9.93892E-03-9.77320E-14 1.92383E-13
 -1      4012 2.00061E+01 2.88090E-02 3.20097E-05-5.66640E-03 2.13067E-13 1.85521E-13
 -1      4013 2.00065E+01 2.32747E-02-1.02600E-04-3.45191E-03 2.64113E-13 8.67951E-14
 -1      4014 2.00047E+01 3.43514E-02 1.01634E-04-5.49132E-03 6.42291E-14 2.06255E-13
 -1      4015 2.00073E+01 1.86309E-02 2.76934E-05-2.15634E-03 2.59133E-13 6.94907E-14
 -1      4016 2.00072E+01 1.46105E-02-6.36807E-05-6.67834E-04 2.47703E-13 7.00093E-14
 -1      4017 2.00069E+01 2.25758E-02 6.38386E-05-2.40454E-03 1.89214E-13 1.08237E-13
 -1      4018 2.00073E+01 1.12249E-02 1.83011E-05 1.89304E-04 1.61884E-13-8.09058E-14
 -1      4019 2.00069E+01 8.31321E-03-4.42666E-05 1.11714E-03 1.16479E-13-2.04098E-13
 -1      4020 2.00075E+01 1.40150E-02 4.37088E-05-3.29804E-04 9.83441E-14-7.67258E-14
 -1      4021 1.81645E+01 7.21261E-01-1.17255E-02 1.37516E+00-2.38881E-13-1.28321E-13
 -1      4022 1.80523E+01 6.10054E-01-2.34914E-03 1.56518E+00-2.19745E-13-1.18022E-13
 -1      4023 1.71543E+01 6.75277E-01-9.26660E-03 2.02764E+00 1.47823E-13-5.31219E-13
 -1      4024 1.61716E+01 1.15394E+00 4.30862E-02 1.64051E+00 1.20131E-13-5.60197E-13
 -1      4025 1.61549E+01 1.35801E+00-7.28060E-03 1.04565E+00 9.92106E-14-5.59417E-13
 -1      4026 1.73436E+01 1.01212E+00-1.78515E-02 1.69353E+00 9.32011E-14-5.17622E-13
 -1      4027 1.53189E+01 6.29732E-01 5.76302E-02 1.99848E+00-1.54491E-13-2.07690E-13
 -1      4028 1.50948E+01 8.28662E-01-1.64031E-02 1.25635E+00-1.24727E-13-8.47654E-14
 -1      4029 1.85905E+01 1.91690E+00 4.63319E-04-8.47105E-01 1.56082E-13-5.64767E-13
 -1      4030 1.82741E+01 2.08207E+00-7.95866E-03-7.29286E-01 1.31031E-13-5.89939E-13
 -1      4031 1.79969E+01 1.99221E+00 7.31911E-03-7.59712E-01 8.93663E-14-5.79469E-13
 -1      4032 1.85729E+01 1.72419E+00-3.67668E-04-1.00433E+00 1.07282E-13-5.72723E-13
 -1      4033 2.00064E+01 6.07123E-03 3.55371E-05-1.86930E-03-1.72766E-13-4.49467E-13
 -1      4034 1.90696E+01 8.10285E-01-4.53655E-03 6.96900E-01-1.40710E-13-2.64732E-13
 -1      4035 1.89765E+01 8.38084E-01 8.60573E-04 7.80760E-01-1.34458E-13-1.73969E-13
 -1      4036 1.92828E+01 7.35610E-01-3.63358E-03 5.58304E-01-9.63225E-14-1.80579E-13
 -1      4037 1.92031E+01 7.77433E-01 3.89993E-04 6.27454E-01-1.53775E-13-2.11964E-13
 -1      4038 1.90065E+01 8.63462E-01 4.14402E-03 5.66567E-01-1.57353E-13-4.28768E-13
 -1      4039 1.94567E+01 6.44492E-01-2.94031E-03 4.44589E-01-1.68473E-14-1.14291E-13
 -1      4040 1.93910E+01 6.92394E-01 1.64626E-04 5.02259E-01 5.35672E-15-6.66715E-14
 -1      4041 1.92385E+01 7.71517E-01 3.44696E-03 4.51701E-01-1.00619E-13-3.17091E-13
 -1      4042 1.95962E+01 5.48829E-01-2.39433E-03 3.50656E-01-1.23975E-13 1.39966E-14
 -1      4043 1.95435E+01 5.97574E-01 8.90174E-05 3.98798E-01-6.28099E-14-1.04857E-14
 -1      4044 1.94254E+01 6.68854E-01 2.80953E-03 3.58375E-01-1.09804E-13-7.09752E-14
 -1      4045 1.97060E+01 4.56280E-01-1.94809E-03 2.73222E-01 3.89630E-14-3.41672E-15
 -1      4046 1.96648E+01 5.02560E-01 8.13624E-05 3.13164E-01-3.05682E-14 1.01388E-14
 -1      4047 1.95740E+01 5.65382E-01 2.26091E-03 2.81820E-01-8.05689E-14 6.06264E-14
 -1      4048 1.97910E+01 3.71394E-01-1.57475E-03 2.09892E-01 1.17114E-13-1.86616E-13
 -1      4049 1.97595E+01 4.13302E-01 9.65849E-05 2.42680E-01 9.80141E-14-8.68966E-14
 -1      4050 1.96905E+01 4.67473E-01 1.79546E-03 2.19037E-01 1.21955E-13-7.20369E-14
 -1      4051 1.98556E+01 2.96500E-01-1.25993E-03 1.58683E-01 2.62114E-13-2.12510E-13
 -1      4052 1.98320E+01 3.33125E-01 1.13639E-04 1.85248E-01 2.25995E-13-1.45837E-13
 -1      4053 1.97803E+01 3.78865E-01 1.40526E-03 1.67887E-01 1.56628E-13-3.07253E-13
 -1      4054 1.99037E+01 2.32402E-01-9.95284E-04 1.17830E-01 1.28324E-13 3.48335E-14
 -1      4055 1.98866E+01 2.63512E-01 1.24339E-04 1.39041E-01 1.61239E-13-6.10327E-14
 -1      4056 1.98484E+01 3.01372E-01 1.08273E-03 1.26655E-01 1.64206E-13-7.13613E-14
 -1      4057 1.99389E+01 1.78916E-01-7.74966E-04 8.57144E-02 8.43846E-15 1.39936E-13
 -1      4058 1.99267E+01 2.04711E-01 1.26884E-04 1.02391E-01 1.14031E-13 8.58074E-14
 -1      4059 1.98992E+01 2.35464E-01 8.20306E-04 9.38411E-02 6.38522E-14 4.62683E-14
 -1      4060 1.99640E+01 1.35257E-01-5.93983E-04 6.08590E-02 3.09252E-14 2.50137E-13
 -1      4061 1.99555E+01 1.56194E-01 1.22308E-04 7.37609E-02-7.52688E-15 8.91503E-14
 -1      4062 1.99361E+01 1.80726E-01 6.10284E-04 6.81003E-02 2.37845E-14 8.71793E-14
 -1      4063 1.99813E+01 1.00326E-01-4.47558E-04 4.19379E-02 3.33990E-13 2.66267E-16
 -1      4064 1.99757E+01 1.16991E-01 1.12617E-04 5.17529E-02 3.02988E-13 2.34548E-13
 -1      4065 1.99624E+01 1.36218E-01 4.45041E-04 4.82169E-02 1.95704E-13 1.75124E-15
 -1      4066 1.99929E+01 7.29003E-02-3.30988E-04 2.77863E-02 1.04058E-13-1.54665E-13
 -1      4067 1.99894E+01 8.59207E-02 9.98725E-05 3.51205E-02 2.37990E-13-6.62799E-14
 -1      4068 1.99806E+01 1.00727E-01 3.17296E-04 3.31085E-02 2.51607E-13 2.12884E-14
 -1      4069 2.00002E+01 5.17552E-02-2.39688E-04 1.74035E-02-8.16045E-14-2.36145E-13
 -1      4070 1.99982E+01 6.17454E-02 8.58149E-05 2.27781E-02 5.56546E-14-2.00594E-13
 -1      4071 1.99927E+01 7.29440E-02 2.20345E-04 2.18291E-02 8.58948E-14 3.57078E-14
 -1      4072 2.00044E+01 3.57404E-02-1.69708E-04 9.94876E-03-1.96297E-13-4.52048E-13
 -1      4073 2.00034E+01 4.32711E-02 7.18023E-05 1.38012E-02-1.64042E-13-3.69542E-13
 -1      4074 2.00003E+01 5.15840E-02 1.48148E-04 1.35693E-02 2.04384E-14-2.72531E-13
 -1      4075 2.00065E+01 2.38201E-02-1.17523E-04 4.73391E-03-7.22943E-14-5.14394E-13
 -1      4076 2.00062E+01 2.93993E-02 5.89236E-05 7.42294E-03-2.16159E-13-5.28306E-13
 -1      4077 2.00046E+01 3.54460E-02 9.51318E-05 7.65022E-03-1.22421E-13-5.41198E-13
 -1      4078 2.00071E+01 1.50938E-02-8.45951E-05 1.19212E-03 1.38050E-13-3.53272E-13
 -1      4079 2.00073E+01 1.91830E-02 5.26951E-05 3.02399E-03 2.07347E-13-3.17320E-13
 -1      4080 2.00068E+01 2.34658E-02 6.10347E-05 3.53381E-03-1.38989E-14-3.48512E-13
 -1      4081 2.00068E+01 8.74900E-03-5.03048E-05-1.10504E-03 9.31911E-14-4.05808E-13
 -1      4082 2.00072E+01 1.17274E-02 4.53617E-05 9.04364E-05 1.32296E-13-4.36973E-13
 -1      4083 2.00074E+01 1.47114E-02 2.18185E-05 7.40654E-04 2.19256E-13-2.27623E-13
 -1      4084 1.69900E+01 2.37510E-01-2.79525E-02 2.09828E+00-2.05473E-13-1.91244E-13
 -1      4085 1.69689E+01-9.40366E-02-2.99341E-03 2.45431E+00-2.08947E-13-1.39915E-13
 -1      4086 1.79632E+01 4.82544E-01 1.92754E-02-2.16418E+00-1.21727E-13-5.48108E-13
 -1      4087 1.79739E+01 8.02366E-01-1.37937E-02-1.85927E+00-5.06338E-14-5.43076E-13
 -1      4088 1.76484E+01 5.50472E-01-1.73492E-02 1.67358E+00-1.93306E-13-1.47453E-13
 -1      4089 1.75403E+01 3.39780E-01-9.50222E-03 1.93970E+00-2.18020E-13-1.99684E-13
 -1      4090 1.64967E+01 7.86327E-01 3.55404E-02 1.58448E+00-2.07983E-13-2.31562E-13
 -1      4091 1.73905E+01 8.28839E-01 1.69170E-02 1.37969E+00-1.77376E-13-2.69178E-13
 -1      4092 2.03143E+01-2.36276E+00 2.39822E-02 3.13419E+00-3.21845E-13 6.71321E-14
 -1      4093 1.75510E+01 9.28546E-02-3.88365E-03-2.57202E+00-1.68327E-13-5.71174E-13
 -1      4094 1.77557E+01 2.29137E+00-1.04132E-02 3.35762E-01 5.88340E-14-5.91500E-13
 -1      4095 1.79040E+01 2.21463E+00 8.16575E-04 5.15861E-01 2.87188E-14-5.98379E-13
 -1      4096 1.75345E+01 2.17005E+00 9.31581E-03 2.29745E-01 5.76781E-14-5.67230E-13
 -1      4097 1.72880E+01 5.79413E-01 1.04532E-02-1.72409E+00 1.27136E-13-1.18127E-13
 -1      4098 1.74123E+01 7.13802E-01-1.51319E-02-1.49444E+00 1.44776E-13-1.56047E-13
 -1      4099 1.72311E+01 9.52718E-01 1.78038E-02-1.18642E+00 8.79777E-14-1.02047E-13
 -1      4100 1.64380E+01 3.12429E-01-1.42418E-02-2.14610E+00 1.90104E-13-1.08758E-13
 -1      4101 1.88142E+01 8.50780E-01-5.65263E-03 8.68295E-01-2.12922E-13-2.01132E-13
 -1      4102 1.87103E+01 8.54397E-01 2.02900E-03 9.72107E-01-2.38399E-13-2.09303E-13
 -1      4103 1.87224E+01 9.28855E-01 4.56669E-03 7.10819E-01-1.92170E-13-4.16697E-13
 -1      4104 1.79483E+01 1.77356E+00 3.34742E-03 9.35490E-01 2.40219E-14-5.55570E-13
 -1      4105 1.69494E+01 6.07717E-01 1.22197E-02-2.22443E+00-1.29161E-13-6.33710E-13
 -1      4106 2.00068E+01 6.47236E-03 3.72244E-05 1.36608E-03-1.30765E-14-3.16287E-13
 -1      4107 2.00063E+01 4.02338E-03-1.90306E-05 1.44739E-03-9.18075E-15-2.80049E-13
 -1      4108 2.00065E+01 4.15863E-03-3.07987E-05 8.28564E-04 1.30989E-13-1.27689E-13
 -1      4109 2.00072E+01 8.09648E-03-3.33234E-05 7.17711E-04 2.10668E-15-4.87973E-13
 -1      4110 1.85135E+01 8.32319E-01-7.69634E-03 1.08753E+00-2.26419E-13-1.84085E-13
 -1      4111 1.84055E+01 7.94840E-01 3.08940E-03 1.22079E+00-1.57905E-13-9.92554E-14
 -1      4112 1.79708E+01 9.02592E-01 8.22530E-03 1.14483E+00-1.60610E-13-2.36997E-13
 -1      4113 1.83792E+01 9.51083E-01 5.73768E-03 8.96266E-01-2.53263E-13-2.81600E-13
 -1      4114 1.60707E+01 6.76576E-01 1.14780E-02-1.75718E+00 1.34954E-13-3.06350E-14
 -1      4115 1.64139E+01-3.68705E-01-2.60589E-02 2.81639E+00-1.77799E-13-1.40424E-13
 -1      4116 1.55689E+01 1.51815E+00 2.85179E-02-4.77121E-01 2.48376E-14-6.66839E-13
 -1      4117 1.61808E+01 1.45842E+00-7.46449E-03-9.30873E-01-1.76608E-14-6.36051E-13
 -1      4118 1.59690E+01 1.59170E+00-1.60916E-02 1.06505E-02 7.14424E-14-6.19865E-13
 -1      4119 2.00071E+01 6.24644E-03 6.00701E-05 4.56496E-04-8.30515E-14-8.71429E-14
 -1      4120 1.79601E+01 1.72204E+00 6.81003E-03-1.03999E+00 7.44384E-14-5.50937E-13
 -1      4121 1.76371E+01 1.81806E+00-1.33030E-02-8.65709E-01 5.25168E-14-5.82217E-13
 -1      4122 1.69634E+01 1.64376E+00-2.50275E-03-8.54162E-01 4.24686E-14-5.89286E-13
 -1      4123 1.71075E+01 1.88459E+00 1.46412E-03-5.40462E-01 5.78392E-14-6.03854E-13
 -1      4124 2.00069E+01 8.04079E-03 8.27027E-06-1.14007E-03-4.01779E-14-3.34576E-13
 -1      4125 1.74504E+01 1.27581E+00 6.42552E-03-1.50763E+00-1.29083E-14-5.88384E-13
 -1      4126 1.81219E+01 1.15808E+00 7.18462E-03-1.52371E+00 1.53279E-14-5.49869E-13
 -1      4127 1.66594E+01 1.03952E+00-1.47193E-02-1.66328E+00-7.07099E-14-6.49419E-13
 -1      4128 1.48946E+01 1.04136E+00-1.79053E-02 3.30478E-01 8.09032E-16 8.45756E-14
 -1      4129 1.48516E+01 1.07922E+00 5.85735E-03-4.21589E-01 2.54415E-14 1.03338E-13
 -1      4130 1.82589E+01 1.35823E+00-6.02364E-03-1.32325E+00 4.84148E-14-5.42986E-13
 -1      4131 1.58862E+01 8.70630E-01-1.72581E-02 1.26369E+00-1.61621E-13-1.97909E-13
 -1      4132 1.52984E+01 1.04180E+00 2.12815E-02 7.97282E-01-1.22277E-13-8.15698E-14
 -1      4133 1.57041E+01 1.11222E+00-6.13608E-04 4.15255E-01-6.50073E-14-1.36634E-13
 -1      4134 1.64613E+01 9.07029E-01-8.51793E-03 1.19484E+00-1.44248E-13-2.80445E-13
 -1      4135 2.00073E+01 8.47632E-03-5.64927E-05-5.41853E-05 6.43922E-14 1.06754E-13
 -1      4136 2.00073E+01 8.40246E-03-2.94674E-05-5.00987E-04 6.56553E-14 8.46595E-14
 -1      4137 1.69583E+01 1.94789E+00 5.36758E-04-2.43896E-01 4.43429E-14-5.78440E-13
 -1      4138 1.78683E+01 1.46402E+00-6.98643E-03 1.25198E+00 2.96756E-14-5.39500E-13
 -1      4139 1.76951E+01 1.20382E+00 1.26864E-03 1.50986E+00 7.23728E-14-5.36217E-13
 -1      4140 1.74581E+01 1.81263E+00-9.44452E-03 8.24776E-01 5.46109E-14-5.46165E-13
 -1      4141 1.70995E+01 1.42123E+00 2.25321E-02 1.30125E+00 8.14918E-14-5.38300E-13
 -1      4142 1.94003E+01 6.64009E-01-3.08003E-03 2.59870E-01-2.39329E-13-1.10818E-13
 -1      4143 1.93186E+01 7.20169E-01-7.31552E-04 2.96611E-01-2.01016E-13-2.91165E-13
 -1      4144 2.00071E+01 8.46065E-03-1.56385E-05-7.55866E-04 1.17337E-13-1.20320E-13
 -1      4145 1.65736E+01 1.75342E+00 2.64558E-03 7.87129E-02 5.18392E-14-5.82756E-13
 -1      4146 1.71094E+01 1.97515E+00-1.49675E-02 2.36298E-01 6.65950E-14-5.64246E-13
 -1      4147 1.72414E+01 1.93683E+00 7.08978E-03 5.18907E-01 5.74990E-14-5.53697E-13
 -1      4148 1.62942E+01 1.68949E+00 2.99919E-02 5.49627E-01 8.27285E-14-5.76056E-13
 -1      4149 1.80198E+01 1.08874E+00-1.49443E-03-5.22456E-01-2.67935E-14-2.75035E-13
 -1      4150 1.82247E+01 1.06150E+00-8.57586E-03-4.54979E-01-3.58346E-14-3.60173E-13
 -1      4151 1.84558E+01 1.03328E+00-2.10731E-03-4.08094E-01-4.17524E-14-4.58087E-13
 -1      4152 1.86261E+01 9.90090E-01-5.38255E-03-3.56582E-01-9.59546E-15-4.75802E-13
 -1      4153 1.82667E+01 1.11863E+00 1.24460E-02-2.40997E-01-1.00558E-13-3.44126E-13
 -1      4154 1.88061E+01 9.42563E-01-2.26620E-03-3.23907E-01 2.93774E-14-6.03637E-13
 -1      4155 1.89446E+01 8.89408E-01-4.08580E-03-2.83805E-01-6.23401E-15-5.96683E-13
 -1      4156 1.86681E+01 1.01982E+00 1.12758E-02-1.91336E-01-7.42475E-14-5.72312E-13
 -1      4157 1.90866E+01 8.34988E-01-1.82593E-03-2.58184E-01-1.39114E-13-5.98519E-13
 -1      4158 1.91975E+01 7.77539E-01-3.12987E-03-2.25646E-01-2.25877E-13-6.49394E-13
 -1      4159 1.89795E+01 9.05082E-01 8.84681E-03-1.53058E-01-6.16976E-14-7.47324E-13
 -1      4160 1.93098E+01 7.20758E-01-1.46874E-03-2.05155E-01-1.94700E-13-5.72648E-13
 -1      4161 1.93979E+01 6.63399E-01-2.43298E-03-1.78204E-01-1.33707E-13-5.74430E-13
 -1      4162 1.92263E+01 7.83904E-01 6.90692E-03-1.21827E-01-2.16629E-13-7.34276E-13
 -1      4163 1.94863E+01 6.08044E-01-1.16954E-03-1.61744E-01-3.62080E-14-5.13702E-13
 -1      4164 1.95556E+01 5.53812E-01-1.90293E-03-1.39319E-01 1.14335E-13-4.99279E-13
 -1      4165 1.94215E+01 6.64060E-01 5.39433E-03-9.62352E-02-1.65056E-14-4.50390E-13
 -1      4166 1.96245E+01 5.02421E-01-9.18357E-04-1.26123E-01 9.88998E-14-5.76756E-13
 -1      4167 1.96782E+01 4.53207E-01-1.48715E-03-1.07549E-01 8.18054E-14-5.62780E-13
 -1      4168 1.95746E+01 5.51193E-01 4.19784E-03-7.52373E-02 3.92450E-14-5.88387E-13
 -1      4169 1.97313E+01 4.07254E-01-7.09681E-04-9.70384E-02 7.17273E-14-5.77298E-13
 -1      4170 1.97723E+01 3.64031E-01-1.15519E-03-8.18033E-02 1.40264E-13-5.40001E-13
 -1      4171 1.96934E+01 4.48894E-01 3.24177E-03-5.80756E-02 5.11454E-14-6.89788E-13
 -1      4172 1.98126E+01 3.24169E-01-5.38997E-04-7.35176E-02 1.65610E-13-5.47407E-13
 -1      4173 1.98434E+01 2.87228E-01-8.88436E-04-6.11793E-02 1.23645E-13-4.74223E-13
 -1      4174 1.97842E+01 3.59037E-01 2.47616E-03-4.41669E-02 1.52285E-13-6.06455E-13
 -1      4175 1.98734E+01 2.53525E-01-4.01804E-04-5.47297E-02 8.65235E-14-4.29487E-13
 -1      4176 1.98961E+01 2.22691E-01-6.74515E-04-4.48796E-02 9.94248E-14-3.03114E-13
 -1      4177 1.98525E+01 2.82180E-01 1.86570E-03-3.30239E-02 1.41492E-13-5.58770E-13
 -1      4178 1.99181E+01 1.94828E-01-2.93511E-04-3.99317E-02-7.76641E-16-3.27937E-13
 -1      4179 1.99344E+01 1.69628E-01-5.04279E-04-3.21876E-02 1.54189E-14-3.80408E-13
 -1      4180 1.99030E+01 2.17953E-01 1.38327E-03-2.42167E-02-3.21072E-15-6.13399E-13
 -1      4181 1.99502E+01 1.47058E-01-2.09593E-04-2.84526E-02 7.49867E-14-3.61915E-13
 -1      4182 1.99616E+01 1.26860E-01-3.70357E-04-2.24612E-02-2.22066E-14-3.81192E-13
 -1      4183 1.99396E+01 1.65393E-01 1.00664E-03-1.73586E-02-2.70358E-14-4.15677E-13
 -1      4184 1.99726E+01 1.08921E-01-1.45787E-04-1.96914E-02-3.59942E-14-4.17160E-13
 -1      4185 1.99804E+01 9.30289E-02-2.66480E-04-1.51336E-02-5.71424E-14-8.98838E-14
 -1      4186 1.99654E+01 1.23207E-01 7.16808E-04-1.21028E-02-3.02519E-15-4.21899E-13
 -1      4187 1.99877E+01 7.90285E-02-9.82200E-05-1.31199E-02-7.37316E-14 1.29311E-13
 -1      4188 1.99927E+01 6.67469E-02-1.87210E-04-9.71451E-03 5.98699E-15 2.59629E-13
 -1      4189 1.99830E+01 8.99649E-02 4.97384E-04-8.14325E-03 5.47287E-14-4.96651E-14
 -1      4190 1.99974E+01 5.60134E-02-6.34648E-05-8.28336E-03-9.79119E-14 2.55299E-13
 -1      4191 2.00005E+01 4.66886E-02-1.27792E-04-5.78854E-03 5.43738E-14 2.08736E-13
 -1      4192 1.99945E+01 6.42355E-02 3.34054E-04-5.21569E-03 3.62993E-14 2.24275E-13
 -1      4193 2.00033E+01 3.86040E-02-3.84812E-05-4.79775E-03 1.08757E-13 1.26382E-13
 -1      4194 2.00049E+01 3.16452E-02-8.34055E-05-3.01012E-03 1.40985E-13 1.02488E-13
 -1      4195 2.00016E+01 4.46665E-02 2.13525E-04-3.09735E-03 1.36753E-14 2.96722E-13
 -1      4196 2.00063E+01 2.56490E-02-2.36125E-05-2.34501E-03 1.31882E-13-3.48599E-15
 -1      4197 2.00070E+01 2.05513E-02-5.11586E-05-1.10778E-03 1.62415E-13 7.49024E-15
 -1      4198 2.00056E+01 3.00204E-02 1.17838E-04-1.60478E-03 9.08620E-14-5.87772E-14
 -1      4199 2.00075E+01 1.61490E-02-1.23440E-05-6.75522E-04-5.10446E-15-5.44940E-14
 -1      4200 2.00076E+01 1.24969E-02 6.83022E-06 1.42804E-04-2.22969E-14-2.58139E-13
 -1      4201 2.00073E+01 1.92397E-02 6.59426E-05-5.72378E-04 2.47987E-14-2.07408E-13
 -1      4202 1.67159E+01 1.50237E+00-1.26724E-02 1.00163E+00 9.61963E-14-5.41655E-13
 -1      4203 1.85640E+01 1.52426E+00-2.93991E-03-1.17203E+00 8.13905E-14-5.54359E-13
 -1      4204 1.92031E+01 7.73012E-01-3.89620E-03 3.28796E-01-1.54324E-13-2.84170E-13
 -1      4205 1.91008E+01 8.27862E-01-9.06230E-04 3.73284E-01-1.50623E-13-3.78625E-13
 -1      4206 1.92142E+01 7.92892E-01 7.92318E-03 2.26873E-01-2.29670E-13-3.75418E-13
 -1      4207 1.89556E+01 8.76263E-01-5.01273E-03 4.13677E-01-1.66921E-13-3.75265E-13
 -1      4208 1.88298E+01 9.24546E-01-1.01404E-03 4.68559E-01-2.67958E-13-3.93133E-13
 -1      4209 1.89662E+01 9.09202E-01 1.00324E-02 2.86154E-01-1.84192E-13-2.70644E-13
 -1      4210 1.95561E+01 5.57274E-01-2.45860E-03 2.03461E-01-3.33646E-14-1.91762E-13
 -1      4211 1.94917E+01 6.11191E-01-5.57737E-04 2.33949E-01-7.07045E-14-1.61323E-13
 -1      4212 1.94108E+01 6.75335E-01 6.19944E-03 1.78824E-01-1.46797E-13-4.99188E-13
 -1      4213 1.96777E+01 4.58046E-01-1.96466E-03 1.57376E-01 1.68914E-13-2.39926E-13
 -1      4214 1.96278E+01 5.07484E-01-4.02628E-04 1.82571E-01 8.28400E-14-2.07999E-13
 -1      4215 1.95656E+01 5.63122E-01 4.82797E-03 1.39671E-01 3.05960E-14-5.35185E-13
 -1      4216 1.97712E+01 3.69319E-01-1.56190E-03 1.20002E-01 7.52320E-14-2.74838E-13
 -1      4217 1.97332E+01 4.13069E-01-2.73407E-04 1.40629E-01 1.50935E-13-2.45463E-13
 -1      4218 1.96859E+01 4.60458E-01 3.73289E-03 1.07810E-01 1.51863E-13-3.54814E-13
 -1      4219 1.98421E+01 2.92408E-01-1.23020E-03 9.00186E-02 8.69935E-14-2.31616E-13
 -1      4220 1.98136E+01 3.30020E-01-1.71880E-04 1.06699E-01 8.85175E-14-2.36172E-13
 -1      4221 1.97781E+01 3.69641E-01 2.85654E-03 8.20533E-02 5.44114E-14-4.45194E-13
 -1      4222 1.98948E+01 2.27448E-01-9.57248E-04 6.62774E-02 4.47841E-14-2.45345E-13
 -1      4223 1.98740E+01 2.58997E-01-9.61663E-05 7.95780E-02 1.15838E-13-2.82234E-13
 -1      4224 1.98478E+01 2.91525E-01 2.15744E-03 6.14435E-02 8.16213E-14-5.33588E-13
 -1      4225 1.99332E+01 1.73811E-01-7.34359E-04 4.77488E-02 1.00214E-13-3.75009E-13
 -1      4226 1.99183E+01 1.99703E-01-4.25032E-05 5.81955E-02-2.00853E-15-3.00886E-13
 -1      4227 1.98994E+01 2.25936E-01 1.60411E-03 4.51581E-02 5.19539E-14-7.01912E-13
 -1      4228 1.99606E+01 1.30419E-01-5.54464E-04 3.35120E-02 1.10925E-13-1.33692E-14
 -1      4229 1.99502E+01 1.51249E-01-6.54986E-06 4.15878E-02 1.43034E-13-1.28291E-13
 -1      4230 1.99368E+01 1.72040E-01 1.17111E-03 3.24705E-02 2.59709E-14-4.31024E-13
 -1      4231 1.99795E+01 9.59770E-02-4.11301E-04 2.27539E-02 1.17856E-13 4.27554E-14
 -1      4232 1.99725E+01 1.12425E-01 1.58551E-05 2.88933E-02 1.83439E-13-3.17083E-14
 -1      4233 1.99633E+01 1.28619E-01 8.36959E-04 2.27370E-02 1.01858E-13-2.16159E-13
 -1      4234 1.99920E+01 6.91350E-02-2.99140E-04 1.47702E-02 1.83173E-13-1.76060E-13
 -1      4235 1.99876E+01 8.18889E-02 2.83300E-05 1.93547E-02 1.61226E-13 2.52790E-14
 -1      4236 1.99815E+01 9.42838E-02 5.83165E-04 1.53927E-02 1.81647E-13-2.41721E-13
 -1      4237 1.99999E+01 4.85866E-02-2.12725E-04 8.96244E-03 4.12558E-14-2.90621E-13
 -1      4238 1.99973E+01 5.83013E-02 3.38349E-05 1.23199E-02 1.84701E-13-1.40054E-13
 -1      4239 1.99936E+01 6.76183E-02 3.93797E-04 9.95097E-03 1.46616E-13-3.36047E-13
 -1      4240 2.00045E+01 3.31325E-02-1.44867E-04 4.83227E-03-6.36021E-14-3.45373E-13
 -1      4241 2.00032E+01 4.04035E-02 3.48808E-05 7.23715E-03-5.86825E-14-3.96632E-13
 -1      4242 2.00010E+01 4.72735E-02 2.54940E-04 6.00043E-03 1.31250E-13-2.79767E-13
 -1      4243 2.00067E+01 2.17078E-02-1.00079E-04 1.99663E-03 4.97978E-14-2.34284E-13
 -1      4244 2.00063E+01 2.70328E-02 2.83104E-05 3.63734E-03-6.02603E-14-2.54982E-13
 -1      4245 2.00052E+01 3.20181E-02 1.48541E-04 3.19161E-03-5.69001E-14-2.99978E-13
 -1      4246 2.00074E+01 1.02161E-02-2.06079E-05 2.73988E-05-1.23605E-13-8.97583E-14
 -1      4247 2.00076E+01 1.29354E-02 1.32050E-07-1.13260E-04-2.45528E-15-1.21282E-13
 -1      4248 2.00075E+01 1.12747E-02 4.00407E-05-2.27899E-04 1.06493E-13-4.11139E-14
 -1      4249 1.74579E+01 1.09324E+00-3.11919E-03-6.81641E-01-6.54759E-14-1.02349E-13
 -1      4250 1.77198E+01 1.09843E+00-1.00283E-02-5.80187E-01-3.08469E-14-1.12728E-13
 -1      4251 1.77762E+01 1.17546E+00 1.48322E-02-3.14939E-01-1.65043E-13-1.51552E-13
 -1      4252 2.00074E+01 1.00837E-02-1.43506E-05 3.55345E-04-1.61832E-13-3.64462E-13
 -1      4253 1.57911E+01-5.21059E-01-3.13001E-03 3.10109E+00-1.87501E-13-2.15248E-13
 -1      4254 1.86472E+01 9.63648E-01-6.08977E-03 5.21044E-01-2.48289E-13-3.60736E-13
 -1      4255 1.84923E+01 9.94839E-01-1.65891E-03 5.92584E-01-1.81559E-13-3.60278E-13
 -1      4256 1.86533E+01 1.01423E+00 1.18903E-02 3.60042E-01-1.71194E-13-2.71484E-13
 -1      4257 1.70723E+01 1.65950E+00-4.67744E-03 8.68304E-01 7.06891E-14-5.39955E-13
 -1      4258 1.67112E+01 1.02333E+00-1.00899E-02-9.29911E-01 1.08683E-13-8.84768E-14
 -1      4259 1.70606E+01 1.07305E+00-1.50068E-02-7.60809E-01 6.42994E-14-1.14458E-13
 -1      4260 1.71104E+01 1.18635E+00 1.09034E-02-4.24859E-01-4.24207E-14-7.01738E-14
 -1      4261 2.00075E+01 1.43926E-02 3.40335E-05 1.37419E-04 8.64897E-14-6.16187E-14
 -1      4262 2.00074E+01 1.41748E-02-5.06568E-05 1.96755E-04 1.76935E-13-1.59821E-13
 -1      4263 2.00074E+01 1.81719E-02 5.01350E-05 1.23119E-03 1.74461E-13-1.25424E-13
 -1      4264 2.00075E+01 1.61937E-02-1.71210E-05 1.72499E-04 5.65508E-14-2.61544E-13
 -1      4265 1.73203E+01 9.42410E-01-9.80642E-03 1.10484E+00-2.40465E-13-1.93075E-13
 -1      4266 1.69348E+01 9.15995E-01-9.91650E-03 1.17687E+00-1.86277E-13-2.68635E-13
 -1      4267 1.65178E+01 1.07424E+00 9.27670E-03 8.64688E-01-2.15921E-13-3.06042E-13
 -1      4268 1.67499E+01 1.36562E+00 5.26604E-03-1.18248E+00-1.38048E-14-6.23295E-13
 -1      4269 1.78759E+01 1.00778E+00-1.10989E-02 8.39137E-01-1.22856E-13-2.58644E-13
 -1      4270 1.76551E+01 9.78355E-01-3.04538E-03 9.68663E-01-1.93004E-13-2.70971E-13
 -1      4271 1.73263E+01 1.10002E+00 8.85297E-03 7.71275E-01-1.76250E-13-2.35040E-13
 -1      4272 1.61205E+01 1.03351E+00 4.05743E-03-8.01187E-01 2.89230E-14 2.03242E-14
 -1      4273 1.61068E+01 1.18375E+00 1.12215E-02-3.19208E-01-1.85286E-14-7.50320E-14
 -1      4274 2.00070E+01 2.16210E-02 7.50464E-05 1.17727E-03 3.10881E-14-1.96139E-13
 -1      4275 1.61012E+01 1.20228E+00 5.27502E-03-1.10450E-02-7.66423E-14-1.45792E-13
 -1      4276 1.67251E+01 1.18390E+00 3.89875E-03-1.94843E-01-8.70181E-15-2.12503E-13
 -1      4277 1.70676E+01 1.19050E+00-6.99024E-03-1.52646E-01-6.61573E-14-2.09119E-13
 -1      4278 1.63115E+01 1.14127E+00-1.14670E-02 4.48897E-01-2.01573E-13-2.92807E-13
 -1      4279 1.83010E+01 1.01299E+00-6.48510E-03 6.56340E-01-2.67498E-13-3.37980E-13
 -1      4280 1.81138E+01 1.02163E+00-6.91901E-04 7.53709E-01-1.65599E-13-1.77421E-13
 -1      4281 1.78884E+01 1.11423E+00 1.14304E-02 5.82692E-01-1.72672E-13-2.86936E-13
 -1      4282 1.82845E+01 1.06991E+00 2.17015E-03 4.58723E-01-2.08587E-13-2.02164E-13
 -1      4283 1.55965E+01 9.33128E-01-5.21859E-03-1.09034E+00 5.28246E-14 2.84301E-14
 -1      4284 1.75743E+01 1.18043E+00-3.01546E-03-7.27563E-02-2.08123E-13-1.58852E-13
 -1      4285 1.78374E+01 1.15019E+00-1.02741E-02-4.41421E-02-2.29767E-13-2.80864E-13
 -1      4286 1.81962E+01 1.09564E+00-6.18862E-03 8.11441E-02-2.19688E-13-1.43226E-13
 -1      4287 1.84121E+01 1.05216E+00-7.27614E-03 8.96678E-02-1.10957E-13-2.22317E-13
 -1      4288 1.85924E+01 1.00141E+00-8.89992E-03 6.11087E-02-5.38822E-14-2.57990E-13
 -1      4289 1.87732E+01 9.52402E-01-6.31664E-03 7.04597E-02-7.71573E-14-2.87088E-13
 -1      4290 1.89185E+01 8.93568E-01-7.36770E-03 4.75242E-02-1.37302E-13-3.24086E-13
 -1      4291 1.90626E+01 8.38688E-01-4.97352E-03 5.59770E-02-2.06450E-13-3.37346E-13
 -1      4292 1.91784E+01 7.77386E-01-5.80694E-03 3.72067E-02-2.07173E-13-4.56280E-13
 -1      4293 1.92926E+01 7.20786E-01-3.82618E-03 4.43804E-02-1.85096E-13-4.78518E-13
 -1      4294 1.93841E+01 6.60827E-01-4.55809E-03 2.89333E-02-1.08981E-13-4.65549E-13
 -1      4295 1.94741E+01 6.05995E-01-2.92465E-03 3.49859E-02 4.13886E-14-4.53181E-13
 -1      4296 1.95456E+01 5.50047E-01-3.57161E-03 2.22474E-02 9.55544E-14-5.53131E-13
 -1      4297 1.96158E+01 4.99332E-01-2.22014E-03 2.73328E-02 5.01515E-14-5.62008E-13
 -1      4298 1.96711E+01 4.49022E-01-2.78425E-03 1.68694E-02 4.77147E-14-5.01137E-13
 -1      4299 1.97252E+01 4.03781E-01-1.66855E-03 2.11067E-02 1.15490E-13-4.97848E-13
 -1      4300 1.97673E+01 3.59892E-01-2.15150E-03 1.25855E-02 1.07081E-13-4.89805E-13
 -1      4301 1.98084E+01 3.20712E-01-1.23740E-03 1.60746E-02 8.62152E-14-5.25408E-13
 -1      4302 1.98399E+01 2.83400E-01-1.64312E-03 9.21521E-03 1.38728E-13-6.18102E-13
 -1      4303 1.98706E+01 2.50312E-01-9.02525E-04 1.20483E-02 1.09880E-13-6.23724E-13
 -1      4304 1.98938E+01 2.19304E-01-1.23711E-03 6.60044E-03 2.44835E-14-5.46007E-13
 -1      4305 1.99163E+01 1.91975E-01-6.45109E-04 8.86597E-03-1.03615E-13-4.94756E-13
 -1      4306 1.99330E+01 1.66730E-01-9.16153E-04 4.60235E-03-6.13448E-14-3.70467E-13
 -1      4307 1.99490E+01 1.44609E-01-4.49894E-04 6.38533E-03-3.18351E-14-3.95947E-13
 -1      4308 1.99607E+01 1.24445E-01-6.65686E-04 3.10032E-03 1.38091E-14-4.04766E-13
 -1      4309 1.99719E+01 1.06875E-01-3.04246E-04 4.48041E-03 9.17864E-14-4.53316E-13
 -1      4310 1.99799E+01 9.10614E-02-4.73107E-04 1.99128E-03 1.45959E-13-3.35852E-13
 -1      4311 1.99874E+01 7.73573E-02-1.97593E-04 3.04097E-03 8.36176E-14-2.82441E-13
 -1      4312 1.99925E+01 6.51754E-02-3.27288E-04 1.18899E-03 6.47031E-14-2.30345E-13
 -1      4313 1.99973E+01 5.46747E-02-1.20828E-04 1.97209E-03 9.98246E-14-1.91817E-13
 -1      4314 2.00004E+01 4.54564E-02-2.17695E-04 6.23560E-04 1.13239E-14-1.59082E-13
 -1      4315 2.00033E+01 3.75492E-02-6.45830E-05 1.19606E-03-4.97025E-14-1.45082E-13
 -1      4316 2.00049E+01 3.07115E-02-1.29144E-04 2.42449E-04-1.01310E-13-1.19848E-13
 -1      4317 2.00064E+01 2.48675E-02-1.82600E-05 6.09363E-04-1.01591E-14-1.99666E-13
 -1      4318 2.00069E+01 2.05803E-02-8.27464E-05-1.55578E-04 7.64494E-14-2.49900E-13
 -1      4319 1.68099E+01 1.14617E+00-5.43136E-04 4.87791E-01-2.37591E-13-2.62322E-13
 -1      4320 1.72552E+01 1.20542E+00 7.24462E-03 1.43917E-01-1.39033E-13-2.44311E-13
 -1      4321 1.71583E+01 1.16817E+00-2.19858E-03 4.03256E-01-1.29028E-13-2.93228E-13
 -1      4322 1.81157E+01 1.12209E+00 7.76731E-03 3.02896E-01-1.63605E-13-2.19367E-13
 -1      4323 1.76675E+01 1.13816E+00-4.78423E-03 4.15092E-01-1.61144E-13-2.51852E-13
 -1      4324 1.79118E+01 1.12667E+00-9.57182E-04 3.54879E-01-2.62317E-13-1.88646E-13
 -3
    1PSTEP                         3           1           1          
  100CL  101 1.000000000        4324                     0    1           1
 -4  TOSTRAIN    6    1
 -5  EXX         1    4    1    1
 -5  EYY         1    4    2    2
 -5  EZZ         1    4    3    3
 -5  EXY         1    4    1    2
 -5  EYZ         1    4    2    3
 -5  EZX         1    4    3    1
 -1         1 1.85450E-04-2.23367E-05-6.17630E-05 1.13874E-04-1.48368E-17-3.09785E-17
 -1         2 3.66387E-05-1.11053E-04 2.00538E-05-6.22452E-07 5.53725E-19 9.80282E-19
 -1         3 9.52378E-05-2.85705E-05-2.85723E-05 7.85898E-10-1.67932E-18-1.49723E-18
 -1         4 9.52378E-05-2.85705E-05-2.85723E-05-6.98500E-10 5.13195E-19 8.47493E-19
 -1         5 1.43274E-04-2.11589E-05-4.31257E-05 3.77497E-05-4.34687E-19 3.06788E-17
 -1         6 1.44780E-04 2.63826E-10-4.47314E-05-5.22308E-05-1.79889E-18 2.71910E-17
 -1         7 9.36602E-05-7.40226E-07-4.00185E-05-2.70429E-05-2.39181E-19 4.25973E-18
 -1         8 8.79013E-05-1.05039E-08-3.73667E-05-1.69198E-05-3.15282E-19-2.70413E-18
 -1         9 8.47219E-05 3.06607E-08-3.60962E-05-1.16663E-05-2.58769E-19-6.38718E-18
 -1        10 8.24595E-05 2.68496E-08-3.51725E-05-7.98444E-06-1.85447E-19-8.16192E-18
 -1        11 8.06411E-05 3.30872E-08-3.44438E-05-5.26687E-06-1.27664E-19-8.95697E-18
 -1        12 7.92300E-05 4.03426E-08-3.38838E-05-3.27615E-06-6.98935E-20-9.16793E-18
 -1        13 7.82205E-05 4.83342E-08-3.34854E-05-1.74906E-06-1.41613E-20-9.19426E-18
 -1        14 7.77008E-05 5.29191E-08-3.32808E-05-5.26407E-07 3.30823E-20-9.01408E-18
 -1        15 7.77083E-05 5.28395E-08-3.32836E-05 5.96531E-07 8.19107E-20-8.79352E-18
 -1        16 7.82423E-05 4.80383E-08-3.34935E-05 1.82878E-06 1.13284E-19-8.37462E-18
 -1        17 7.92651E-05 3.85966E-08-3.38961E-05 3.37696E-06 1.78089E-19-7.79702E-18
 -1        18 8.06836E-05 3.07436E-08-3.44586E-05 5.39599E-06 2.12698E-19-6.86376E-18
 -1        19 8.25053E-05 2.59318E-08-3.51895E-05 8.16109E-06 3.23209E-19-5.36962E-18
 -1        20 8.47635E-05 3.46352E-08-3.61153E-05 1.19024E-05 3.75130E-19-2.75758E-18
 -1        21 8.78819E-05 6.49534E-08-3.74063E-05 1.71511E-05 4.19890E-19 2.01032E-18
 -1        22 9.44016E-05-2.96837E-07-3.96906E-05 2.58319E-05 7.77153E-20 1.11304E-17
 -1        23 1.16105E-04-3.92105E-05-3.63666E-05-3.75538E-06-1.21552E-18 2.10300E-17
 -1        24 9.87737E-05-2.95064E-05-3.07512E-05 4.95087E-07-3.77873E-19 1.55669E-17
 -1        25 9.75603E-05-2.93941E-05-2.94507E-05 4.32384E-07-1.84129E-19 1.02459E-17
 -1        26 9.89680E-05-2.97780E-05-2.96900E-05 2.72157E-07 9.12132E-21 6.76339E-18
 -1        27 1.01735E-04-3.05733E-05-3.05105E-05 2.30695E-07-1.89167E-19 4.12183E-18
 -1        28 1.05223E-04-3.15895E-05-3.15567E-05 2.15535E-07-5.02587E-20 2.37104E-18
 -1        29 1.08923E-04-3.26777E-05-3.26446E-05 2.01897E-07 2.56653E-20 1.11545E-18
 -1        30 1.12206E-04-3.36474E-05-3.35821E-05 1.63816E-07 7.85209E-20 1.44154E-19
 -1        31 1.14233E-04-3.42476E-05-3.41220E-05 7.12062E-08-1.44358E-19-1.57791E-18
 -1        32 1.14013E-04-3.41834E-05-3.39888E-05-1.01576E-07-8.32657E-20-2.96970E-18
 -1        33 1.10706E-04-3.32026E-05-3.29763E-05-3.49419E-07 1.07787E-19-3.29764E-18
 -1        34 1.04208E-04-3.12672E-05-3.11089E-05-5.99581E-07-7.83357E-20-3.15462E-18
 -1        35 9.57931E-05-2.87497E-05-2.87863E-05-7.05160E-07 8.24881E-20-3.64804E-18
 -1        36 8.82087E-05-2.64713E-05-2.67557E-05-5.27927E-07-7.33047E-21-3.61387E-18
 -1        37 8.46258E-05-2.53921E-05-2.58176E-05-8.38326E-08-3.57048E-19-4.82206E-18
 -1        38 8.67866E-05-2.60429E-05-2.63966E-05 4.09172E-07-9.58587E-20-6.73189E-18
 -1        39 9.38163E-05-2.81566E-05-2.82820E-05 6.93253E-07-2.21286E-19-7.97558E-18
 -1        40 1.02842E-04-3.08608E-05-3.07604E-05 6.77830E-07 1.49628E-19-8.12408E-18
 -1        41 1.10804E-04-3.32362E-05-3.30244E-05 4.63325E-07-1.96455E-20-8.99824E-18
 -1        42 1.15884E-04-3.47457E-05-3.45405E-05 2.08071E-07-2.59094E-19-8.55059E-18
 -1        43 1.17768E-04-3.53036E-05-3.51642E-05 1.40901E-08-2.72394E-19-7.70347E-18
 -1        44 1.17108E-04-3.51069E-05-3.50388E-05-9.33747E-08 3.37545E-19-6.61789E-18
 -1        45 1.14860E-04-3.44399E-05-3.44226E-05-1.32305E-07-1.34297E-19-6.47667E-18
 -1        46 1.11878E-04-3.35541E-05-3.35641E-05-1.30671E-07-4.01431E-21-7.67694E-18
 -1        47 1.08758E-04-3.26262E-05-3.26465E-05-1.10664E-07-1.52707E-19-5.87036E-18
 -1        48 1.05854E-04-3.17605E-05-3.17816E-05-8.56794E-08 2.69198E-19-4.36751E-18
 -1        49 1.03332E-04-3.10074E-05-3.10252E-05-6.22921E-08 5.02822E-20-4.51826E-18
 -1        50 1.01245E-04-3.03826E-05-3.03959E-05-4.29735E-08-2.92589E-19-5.67914E-18
 -1        51 9.95758E-05-2.98821E-05-2.98914E-05-2.81157E-08 9.55305E-20-4.64672E-18
 -1        52 9.82794E-05-2.94926E-05-2.94986E-05-1.72307E-08 1.41949E-19-3.27770E-18
 -1        53 9.72972E-05-2.91969E-05-2.92005E-05-9.56199E-09-4.48034E-19-5.75886E-18
 -1        54 9.65705E-05-2.89777E-05-2.89797E-05-4.35820E-09 3.21640E-19-4.82297E-18
 -1        55 9.60461E-05-2.88193E-05-2.88200E-05-9.74996E-10 1.95470E-20-3.12893E-18
 -1        56 9.56779E-05-2.87077E-05-2.87078E-05 1.10248E-09-5.68150E-19-4.84154E-18
 -1        57 9.54279E-05-2.86318E-05-2.86315E-05 2.26914E-09 7.95914E-19-3.54857E-18
 -1        58 9.52654E-05-2.85823E-05-2.85817E-05 2.81973E-09-3.79086E-19-1.67124E-18
 -1        59 9.51663E-05-2.85519E-05-2.85512E-05 2.96962E-09-2.70051E-19-4.32119E-18
 -1        60 9.51120E-05-2.85351E-05-2.85344E-05 2.87313E-09-7.29815E-20-3.38792E-18
 -1        61 9.50884E-05-2.85276E-05-2.85270E-05 2.63858E-09-4.97811E-20-3.10178E-18
 -1        62 9.50853E-05-2.85263E-05-2.85258E-05 2.34015E-09-2.27570E-20-3.42386E-18
 -1        63 9.50950E-05-2.85290E-05-2.85285E-05 2.02708E-09-5.25722E-19-3.02314E-18
 -1        64 9.51122E-05-2.85340E-05-2.85336E-05 1.73053E-09-1.96287E-19-4.21156E-18
 -1        65 9.51334E-05-2.85402E-05-2.85399E-05 1.46842E-09-9.25148E-19-4.67116E-18
 -1        66 9.51560E-05-2.85469E-05-2.85467E-05 1.24843E-09 7.39516E-19-3.47603E-18
 -1        67 9.51784E-05-2.85535E-05-2.85534E-05 1.06842E-09 5.37346E-19-2.54007E-19
 -1        68 9.51991E-05-2.85597E-05-2.85595E-05 9.12592E-10-1.50081E-19 1.85640E-18
 -1        69 9.52169E-05-2.85650E-05-2.85648E-05 7.34989E-10 2.18001E-19-1.44226E-18
 -1        70 9.52303E-05-2.85691E-05-2.85687E-05 3.77382E-10 6.34109E-19 1.28757E-18
 -1        71 9.52373E-05-2.85713E-05-2.85709E-05-1.90145E-10 5.07985E-19 2.14409E-18
 -1        72 1.05397E-04-3.15402E-05-3.51741E-05-2.15975E-06 4.38684E-19 2.83984E-17
 -1        73 9.85808E-05-2.93357E-05-3.06765E-05-3.93934E-07 1.63825E-19 2.23954E-17
 -1        74 9.75562E-05-2.92457E-05-2.94981E-05-1.60625E-07 2.07769E-19 1.78014E-17
 -1        75 9.89935E-05-2.97231E-05-2.97342E-05-1.35674E-07 8.24277E-20 1.44442E-17
 -1        76 1.01754E-04-3.05417E-05-3.05344E-05-1.39788E-07 3.97204E-20 1.22258E-17
 -1        77 1.05228E-04-3.15679E-05-3.15659E-05-1.60544E-07 5.12486E-20 1.04582E-17
 -1        78 1.08902E-04-3.26595E-05-3.26394E-05-1.88093E-07-1.66595E-19 9.84406E-18
 -1        79 1.12144E-04-3.36297E-05-3.35572E-05-2.04734E-07 1.16658E-19 9.18668E-18
 -1        80 1.14110E-04-3.42295E-05-3.40703E-05-1.80499E-07 5.49951E-20 7.60554E-18
 -1        81 1.13808E-04-3.41641E-05-3.39046E-05-7.62046E-08 1.91982E-19 6.40259E-18
 -1        82 1.10409E-04-3.31775E-05-3.28609E-05 1.33735E-07 1.51000E-19 5.33660E-18
 -1        83 1.03831E-04-3.12238E-05-3.09764E-05 4.15011E-07-2.65691E-19 5.66125E-18
 -1        84 9.53834E-05-2.86683E-05-2.86625E-05 6.40126E-07 1.20678E-19 6.75146E-18
 -1        85 8.78405E-05-2.63399E-05-2.66683E-05 6.36420E-07 6.52728E-20 6.00890E-18
 -1        86 8.43746E-05-2.52300E-05-2.57839E-05 3.33281E-07 2.38855E-19 1.89240E-18
 -1        87 8.66909E-05-2.59031E-05-2.64090E-05-1.30279E-07-3.78844E-19 1.52774E-18
 -1        88 9.38485E-05-2.80859E-05-2.83162E-05-4.98025E-07-1.07609E-19 1.03605E-18
 -1        89 1.02921E-04-3.08639E-05-3.07860E-05-6.13512E-07 2.42266E-19-2.07126E-18
 -1        90 1.10854E-04-3.32834E-05-3.30218E-05-5.08248E-07-1.96280E-19-3.09048E-18
 -1        91 1.15870E-04-3.47996E-05-3.45088E-05-3.07191E-07-2.66360E-19-1.38452E-18
 -1        92 1.17690E-04-3.53383E-05-3.51146E-05-1.18853E-07 9.21198E-20 5.89217E-20
 -1        93 1.16988E-04-3.51148E-05-3.49837E-05 9.08604E-09 1.98784E-19-1.49171E-18
 -1        94 1.14726E-04-3.44258E-05-3.43714E-05 7.61461E-08 3.24930E-19-4.43356E-18
 -1        95 1.11750E-04-3.35268E-05-3.35215E-05 1.00009E-07-2.48287E-19-3.77549E-18
 -1        96 1.08647E-04-3.25935E-05-3.26136E-05 9.90531E-08-1.76000E-19-2.29329E-18
 -1        97 1.05762E-04-3.17277E-05-3.17574E-05 8.65074E-08 2.52494E-19-3.60508E-18
 -1        98 1.03260E-04-3.09774E-05-3.10080E-05 7.02462E-08-1.20072E-19-4.91432E-18
 -1        99 1.01189E-04-3.03568E-05-3.03841E-05 5.43134E-08-5.58601E-19-2.83209E-18
 -1       100 9.95346E-05-2.98608E-05-2.98834E-05 4.04460E-08-2.94346E-19-3.46011E-19
 -1       101 9.82491E-05-2.94755E-05-2.94934E-05 2.91457E-08 4.14224E-20-1.05409E-18
 -1       102 9.72753E-05-2.91835E-05-2.91972E-05 2.03243E-08 8.75924E-19-4.16769E-18
 -1       103 9.65549E-05-2.89674E-05-2.89776E-05 1.36549E-08-8.51224E-19-4.72019E-18
 -1       104 9.60352E-05-2.88115E-05-2.88189E-05 8.74780E-09 3.12434E-19 5.87066E-19
 -1       105 9.56705E-05-2.87020E-05-2.87072E-05 5.23069E-09 7.84029E-20-2.29442E-21
 -1       106 9.54231E-05-2.86276E-05-2.86312E-05 2.77989E-09-6.96684E-20-3.01364E-18
 -1       107 9.52624E-05-2.85793E-05-2.85817E-05 1.12820E-09-4.20165E-19-4.37378E-18
 -1       108 9.51646E-05-2.85499E-05-2.85514E-05 6.20907E-11-5.68775E-19-5.73299E-18
 -1       109 9.51111E-05-2.85337E-05-2.85346E-05-5.85118E-10 6.17207E-19-6.23210E-18
 -1       110 9.50882E-05-2.85268E-05-2.85272E-05-9.41163E-10-1.71711E-19-8.88668E-18
 -1       111 9.50853E-05-2.85258E-05-2.85260E-05-1.10237E-09-1.15012E-19-7.88088E-18
 -1       112 9.50953E-05-2.85288E-05-2.85288E-05-1.14037E-09-3.19925E-19-7.13426E-18
 -1       113 9.51127E-05-2.85339E-05-2.85338E-05-1.10769E-09 4.87030E-19-7.35857E-18
 -1       114 9.51339E-05-2.85403E-05-2.85401E-05-1.04235E-09-4.70447E-19-6.66448E-18
 -1       115 9.51566E-05-2.85470E-05-2.85469E-05-9.71238E-10 1.36503E-19-8.05276E-18
 -1       116 9.51789E-05-2.85537E-05-2.85535E-05-9.11465E-10 6.51503E-19-8.56924E-18
 -1       117 9.51996E-05-2.85599E-05-2.85597E-05-8.68109E-10-2.26232E-19-1.00804E-17
 -1       118 9.52174E-05-2.85652E-05-2.85649E-05-8.22875E-10-6.00925E-21-7.61148E-18
 -1       119 9.52307E-05-2.85692E-05-2.85688E-05-6.56549E-10-3.98219E-19-2.23194E-18
 -1       120 9.52373E-05-2.85714E-05-2.85709E-05-2.04331E-11 8.28565E-19-1.52951E-18
 -1       121 9.52372E-05-2.85715E-05-2.85709E-05 1.60119E-10-6.80978E-19 2.20341E-19
 -1       122 9.52392E-05-2.85780E-05-2.85687E-05-4.71122E-10-7.01706E-19-1.06964E-18
 -1       123 9.52429E-05-2.85902E-05-2.85653E-05-7.32934E-10-9.03439E-19 9.71469E-19
 -1       124 9.52472E-05-2.86047E-05-2.85611E-05-7.46761E-10-1.08602E-18-1.02359E-19
 -1       125 9.52514E-05-2.86188E-05-2.85570E-05-6.36912E-10-2.73672E-18-1.17938E-18
 -1       126 9.52549E-05-2.86305E-05-2.85535E-05-4.82175E-10-2.64265E-18 1.05572E-18
 -1       127 9.52574E-05-2.86390E-05-2.85510E-05-2.95140E-10-1.22617E-18-5.82554E-19
 -1       128 9.52588E-05-2.86435E-05-2.85497E-05-9.80343E-11-3.89646E-18-1.57669E-19
 -1       129 9.52587E-05-2.86434E-05-2.85497E-05 1.01451E-10-3.88037E-18 1.08070E-18
 -1       130 9.52574E-05-2.86389E-05-2.85510E-05 2.97816E-10 2.74061E-18 9.48298E-19
 -1       131 9.52548E-05-2.86303E-05-2.85536E-05 4.90027E-10-2.99709E-18-1.60052E-18
 -1       132 9.52513E-05-2.86185E-05-2.85571E-05 6.40248E-10-2.86615E-18 1.58421E-18
 -1       133 9.52471E-05-2.86044E-05-2.85612E-05 7.46412E-10-1.15803E-19-1.01605E-18
 -1       134 9.52428E-05-2.85900E-05-2.85653E-05 7.81977E-10-4.68154E-19-1.54144E-19
 -1       135 9.52392E-05-2.85780E-05-2.85688E-05 6.55618E-10 3.94875E-19-2.67902E-19
 -1       136 9.52375E-05-2.85717E-05-2.85709E-05-4.66167E-10-2.14058E-18 8.62008E-19
 -1       137 2.59073E-05-8.83300E-05 1.58252E-05-2.36062E-05 1.36097E-17 2.91178E-18
 -1       138 7.90549E-06-3.37106E-05 3.05409E-06-1.75301E-05 2.41354E-17 1.19826E-17
 -1       139 1.17181E-05 1.49169E-05-1.51404E-05 2.37087E-05 2.75836E-17 2.09425E-17
 -1       140 6.30595E-05 2.49350E-05-3.61994E-05 7.95488E-05 2.19064E-17 2.55825E-17
 -1       141 1.59167E-04-9.85169E-06-5.72031E-05 1.12335E-04 1.25486E-17 2.27666E-17
 -1       142 2.55024E-04-6.22825E-05-7.18427E-05 9.00580E-05 4.35486E-18 1.32607E-17
 -1       143 3.07250E-04-9.40981E-05-7.86949E-05 2.26836E-05-1.09717E-19-2.68848E-18
 -1       144 2.90297E-04-8.31774E-05-7.66384E-05-5.93841E-05 3.89043E-18-2.02318E-17
 -1       145 2.08719E-04-3.53394E-05-6.52253E-05-1.09458E-04 1.34420E-17-3.30017E-17
 -1       146 1.10660E-04 1.25809E-05-4.82288E-05-1.05292E-04 2.45858E-17-3.62865E-17
 -1       147 3.53671E-05 2.83103E-05-2.78173E-05-5.88649E-05 3.10988E-17-3.06588E-17
 -1       148 6.17680E-06-6.01117E-07-7.82962E-06-5.03690E-06 3.10594E-17-1.96001E-17
 -1       149 1.40699E-05-5.72400E-05 9.05655E-06 2.51197E-05 2.12804E-17-8.25127E-18
 -1       150 3.28496E-05-1.03601E-04 1.86243E-05 1.70750E-05 5.00025E-18-8.89782E-19
 -1       151 3.54685E-05-1.09306E-04 1.97019E-05-1.06872E-05-1.06029E-17-1.01947E-18
 -1       152 1.93474E-05-7.13266E-05 1.20917E-05-2.63225E-05-2.46931E-17-7.77322E-18
 -1       153 5.03280E-06-1.62027E-05-2.00885E-06-8.60278E-06-3.41041E-17-1.90381E-17
 -1       154 2.30920E-05 2.39267E-05-2.21478E-05 4.31768E-05-3.48143E-17-3.01785E-17
 -1       155 8.73640E-05 2.04607E-05-4.29155E-05 9.54936E-05-2.67027E-17-3.56105E-17
 -1       156 2.70346E-04-7.12130E-05-7.39756E-05 8.12852E-05-4.76297E-18-1.78254E-17
 -1       157 3.10130E-04-9.60483E-05-7.90331E-05 1.14683E-05-5.74897E-19-2.40531E-18
 -1       158 2.87699E-04-8.22539E-05-7.61445E-05-6.24510E-05-2.01718E-18 1.05849E-17
 -1       159 2.11940E-04-3.72942E-05-6.57468E-05-1.08222E-04-8.45360E-18 2.05876E-17
 -1       160 1.13225E-04 1.02643E-05-4.83211E-05-1.04115E-04-1.75783E-17 2.64067E-17
 -1       161 4.05240E-05 2.72673E-05-2.93246E-05-6.24253E-05-2.20567E-17 2.27267E-17
 -1       162 6.36020E-06 2.81872E-06-9.01440E-06-7.87379E-06-2.32934E-17 1.50401E-17
 -1       163 1.03603E-05-4.50772E-05 6.31765E-06 2.37518E-05-1.92255E-17 8.05814E-18
 -1       164 2.81666E-05-9.29606E-05 1.66024E-05 2.27618E-05-1.11474E-17 1.91101E-18
 -1       165 9.88631E-05-1.37239E-05-3.66688E-05-1.90780E-05-4.00209E-18 6.19234E-19
 -1       166 9.22141E-05-9.21219E-06-3.57216E-05-1.35995E-05-3.63328E-18-3.61158E-18
 -1       167 8.79396E-05-6.58296E-06-3.49714E-05-9.59039E-06-2.86320E-18-5.91724E-18
 -1       168 8.47982E-05-4.90024E-06-3.43184E-05-6.54122E-06-2.03423E-18-7.16493E-18
 -1       169 8.23922E-05-3.71853E-06-3.37771E-05-4.26913E-06-1.29942E-18-7.61565E-18
 -1       170 8.05804E-05-2.87335E-06-3.33530E-05-2.51421E-06-5.80370E-19-7.73408E-18
 -1       171 7.94588E-05-2.36453E-06-3.30850E-05-1.14327E-06 7.93324E-20-7.65397E-18
 -1       172 7.90856E-05-2.19843E-06-3.29946E-05 3.36422E-08 7.14933E-19-7.49455E-18
 -1       173 7.94843E-05-2.37997E-06-3.30895E-05 1.21491E-06 1.33851E-18-7.18630E-18
 -1       174 8.06312E-05-2.90548E-06-3.33613E-05 2.59896E-06 1.94301E-18-6.80445E-18
 -1       175 8.24298E-05-3.75264E-06-3.37793E-05 4.34088E-06 2.58525E-18-6.05475E-18
 -1       176 8.48946E-05-4.97607E-06-3.43289E-05 6.67888E-06 3.32459E-18-4.98732E-18
 -1       177 8.80624E-05-6.69495E-06-3.49811E-05 9.78081E-06 3.91084E-18-3.12010E-18
 -1       178 9.23791E-05-9.36894E-06-3.57295E-05 1.38491E-05 4.29667E-18 1.45041E-19
 -1       179 9.97100E-05-1.49327E-05-3.65232E-05 1.87279E-05 3.98315E-18 5.81319E-18
 -1       180 1.09595E-04-2.75623E-05-3.63225E-05 1.63420E-05 2.91522E-18 1.30466E-17
 -1       181 1.08059E-04-2.88543E-05-3.39385E-05-9.65850E-06-3.53890E-18 5.99715E-18
 -1       182 1.03302E-04-3.01684E-05-3.13713E-05-2.28103E-06-3.09503E-18 4.29429E-18
 -1       183 1.01493E-04-2.99806E-05-3.05970E-05 7.83590E-07-2.17356E-18 2.82791E-18
 -1       184 1.01932E-04-3.03212E-05-3.06552E-05 2.36469E-06-1.68945E-18 1.58434E-18
 -1       185 1.03505E-04-3.09191E-05-3.10929E-05 3.23216E-06-1.11926E-18 7.78384E-19
 -1       186 1.05691E-04-3.17148E-05-3.17021E-05 3.54305E-06-6.60331E-19 3.75363E-19
 -1       187 1.08033E-04-3.26090E-05-3.23317E-05 3.21763E-06-6.20758E-19 2.37293E-19
 -1       188 1.10039E-04-3.34626E-05-3.28310E-05 2.08516E-06-7.98153E-19-1.27343E-19
 -1       189 1.11143E-04-3.40669E-05-3.30464E-05 2.29962E-08-7.06803E-19-4.00934E-21
 -1       190 1.10773E-04-3.41325E-05-3.28553E-05-2.82527E-06-2.41768E-19 3.15390E-19
 -1       191 1.08556E-04-3.33571E-05-3.22295E-05-5.79279E-06-7.60146E-20-1.26916E-19
 -1       192 1.04676E-04-3.16409E-05-3.12950E-05-7.61816E-06-7.96767E-19-9.50245E-19
 -1       193 1.00201E-04-2.94004E-05-3.03366E-05-6.92243E-06-5.72826E-19-1.71682E-18
 -1       194 9.69498E-05-2.76371E-05-2.97025E-05-3.27254E-06-9.10249E-19-2.57928E-18
 -1       195 9.65632E-05-2.73797E-05-2.96480E-05 2.01505E-06-1.23233E-18-2.77546E-18
 -1       196 9.93386E-05-2.88208E-05-3.02159E-05 6.47775E-06-8.36968E-19-3.61184E-18
 -1       197 1.03998E-04-3.11401E-05-3.12171E-05 8.25285E-06-4.99782E-19-4.06615E-18
 -1       198 1.08651E-04-3.32354E-05-3.23192E-05 7.20145E-06-5.95249E-19-4.93963E-18
 -1       199 1.11916E-04-3.44680E-05-3.31993E-05 4.50003E-06-1.87095E-19-5.53431E-18
 -1       200 1.13317E-04-3.47894E-05-3.36686E-05 1.53200E-06 4.53672E-19-5.44463E-18
 -1       201 1.13061E-04-3.44608E-05-3.37011E-05-8.31036E-07 5.58514E-19-4.79401E-18
 -1       202 1.11646E-04-3.37808E-05-3.33832E-05-2.31318E-06 3.25194E-19-4.62640E-18
 -1       203 1.09588E-04-3.29703E-05-3.28438E-05-3.00740E-06 7.46707E-19-3.37703E-18
 -1       204 1.07296E-04-3.21619E-05-3.22035E-05-3.14071E-06 1.16424E-18-2.43118E-18
 -1       205 1.05046E-04-3.14239E-05-3.15524E-05-2.93746E-06 4.27050E-19-2.14179E-18
 -1       206 1.03000E-04-3.07854E-05-3.09468E-05-2.56795E-06-3.85673E-21-2.61179E-18
 -1       207 1.01231E-04-3.02528E-05-3.04158E-05-2.14341E-06-5.86707E-20-2.33741E-18
 -1       208 9.97588E-05-2.98209E-05-2.99695E-05-1.72826E-06 6.61418E-19-1.20436E-18
 -1       209 9.85693E-05-2.94789E-05-2.96064E-05-1.35510E-06 9.47610E-20-8.75387E-19
 -1       210 9.76321E-05-2.92137E-05-2.93188E-05-1.03686E-06-1.52688E-18-1.49794E-18
 -1       211 9.69104E-05-2.90123E-05-2.90963E-05-7.75270E-07 4.48904E-19-5.93625E-19
 -1       212 9.63665E-05-2.88624E-05-2.89279E-05-5.66245E-07 4.05853E-19-1.00963E-18
 -1       213 9.59656E-05-2.87533E-05-2.88033E-05-4.03127E-07-2.71890E-19-1.11784E-18
 -1       214 9.56771E-05-2.86759E-05-2.87133E-05-2.78520E-07 1.03520E-18 1.02923E-18
 -1       215 9.54751E-05-2.86226E-05-2.86499E-05-1.85271E-07-2.44060E-19-1.78144E-18
 -1       216 9.53385E-05-2.85873E-05-2.86068E-05-1.16945E-07-1.41902E-18-1.51564E-18
 -1       217 9.52503E-05-2.85651E-05-2.85787E-05-6.80130E-08-1.56050E-20-1.25072E-18
 -1       218 9.51970E-05-2.85524E-05-2.85615E-05-3.38701E-08-3.57335E-19-5.35363E-19
 -1       219 9.51686E-05-2.85462E-05-2.85521E-05-1.07827E-08-4.41202E-19-7.30287E-19
 -1       220 9.51571E-05-2.85444E-05-2.85481E-05 4.20869E-09-6.82489E-19-2.34981E-18
 -1       221 9.51569E-05-2.85455E-05-2.85476E-05 1.33962E-08-8.80566E-19-2.95950E-18
 -1       222 9.51637E-05-2.85484E-05-2.85493E-05 1.85063E-08 8.95609E-19-2.32874E-18
 -1       223 9.51747E-05-2.85522E-05-2.85524E-05 2.07886E-08 8.39567E-19-3.19402E-19
 -1       224 9.51876E-05-2.85565E-05-2.85562E-05 2.10861E-08 1.83533E-18 2.92023E-19
 -1       225 9.52008E-05-2.85608E-05-2.85600E-05 1.98827E-08 9.47804E-19-1.91780E-19
 -1       226 9.52133E-05-2.85649E-05-2.85636E-05 1.73302E-08-9.84971E-19 7.25610E-20
 -1       227 9.52239E-05-2.85686E-05-2.85666E-05 1.32838E-08 1.18666E-18 5.39527E-19
 -1       228 9.52322E-05-2.85717E-05-2.85688E-05 7.57503E-09 6.95309E-19 1.50070E-18
 -1       229 1.04851E-04-3.02204E-05-3.21505E-05 5.09054E-06 2.92248E-18 1.12523E-17
 -1       230 1.01549E-04-2.99195E-05-3.06641E-05 6.58069E-07 2.42138E-18 8.89801E-18
 -1       231 1.01187E-04-3.00800E-05-3.04299E-05-1.30306E-06 1.71999E-18 7.11898E-18
 -1       232 1.02382E-04-3.05566E-05-3.07585E-05-2.37303E-06 1.19628E-18 5.79242E-18
 -1       233 1.04457E-04-3.12694E-05-3.13572E-05-2.92886E-06 8.18410E-19 5.16017E-18
 -1       234 1.06915E-04-3.21191E-05-3.20535E-05-3.00198E-06 3.10769E-19 4.55332E-18
 -1       235 1.09260E-04-3.29789E-05-3.26917E-05-2.48005E-06 5.38961E-19 3.60687E-18
 -1       236 1.10923E-04-3.36755E-05-3.31025E-05-1.20998E-06 4.63813E-19 3.31519E-18
 -1       237 1.11277E-04-3.39745E-05-3.31193E-05 8.60151E-07 5.20651E-19 3.13294E-18
 -1       238 1.09787E-04-3.36051E-05-3.26329E-05 3.46663E-06 3.17879E-19 3.71196E-18
 -1       239 1.06319E-04-3.23791E-05-3.16744E-05 5.82802E-06-2.31190E-19 4.13553E-18
 -1       240 1.01527E-04-3.04250E-05-3.04756E-05 6.72701E-06 2.21280E-19 3.85131E-18
 -1       241 9.69898E-05-2.83829E-05-2.94315E-05 5.14666E-06 1.13370E-18 2.73993E-18
 -1       242 9.46833E-05-2.72415E-05-2.89454E-05 1.23444E-06 1.59099E-18 1.62827E-18
 -1       243 9.58200E-05-2.76834E-05-2.92301E-05-3.36443E-06 3.04141E-19 5.60670E-19
 -1       244 9.99585E-05-2.94971E-05-3.01988E-05-6.51215E-06 9.24583E-19-1.13655E-18
 -1       245 1.05323E-04-3.17554E-05-3.15096E-05-7.09780E-06 1.29028E-18-2.35324E-18
 -1       246 1.10015E-04-3.35634E-05-3.27426E-05-5.52685E-06 5.68339E-20-2.92205E-18
 -1       247 1.12916E-04-3.45177E-05-3.35866E-05-2.98485E-06-1.05319E-18-2.62898E-18
 -1       248 1.13822E-04-3.46657E-05-3.39231E-05-5.49238E-07-3.71695E-19-2.43692E-18
 -1       249 1.13114E-04-3.42619E-05-3.37998E-05 1.22289E-06 6.34871E-19-2.22476E-18
 -1       250 1.11364E-04-3.35654E-05-3.33503E-05 2.23773E-06 1.20034E-18-2.34976E-18
 -1       251 1.09099E-04-3.27648E-05-3.27213E-05 2.63919E-06-6.66234E-19-3.16262E-18
 -1       252 1.06708E-04-3.19758E-05-3.20323E-05 2.63203E-06-3.01365E-20-2.87471E-18
 -1       253 1.04439E-04-3.12600E-05-3.13642E-05 2.39487E-06 3.28562E-19-2.45883E-18
 -1       254 1.02423E-04-3.06437E-05-3.07625E-05 2.05491E-06-2.81382E-19-2.14192E-18
 -1       255 1.00713E-04-3.01325E-05-3.02475E-05 1.69149E-06-1.33817E-18-1.10426E-18
 -1       256 9.93117E-05-2.97205E-05-2.98230E-05 1.34859E-06-1.20726E-18-1.05066E-18
 -1       257 9.81952E-05-2.93966E-05-2.94832E-05 1.04701E-06 4.89470E-19-3.22557E-19
 -1       258 9.73271E-05-2.91474E-05-2.92180E-05 7.93664E-07 1.35444E-18-2.44591E-19
 -1       259 9.66671E-05-2.89598E-05-2.90157E-05 5.87809E-07-8.68328E-19-2.89817E-19
 -1       260 9.61763E-05-2.88216E-05-2.88649E-05 4.24904E-07-9.92415E-19-1.07512E-18
 -1       261 9.58198E-05-2.87221E-05-2.87549E-05 2.98886E-07 6.57037E-19-2.21188E-19
 -1       262 9.55675E-05-2.86525E-05-2.86769E-05 2.03433E-07 7.77720E-19-5.40597E-19
 -1       263 9.53945E-05-2.86054E-05-2.86231E-05 1.32622E-07 7.91432E-19-1.86116E-18
 -1       264 9.52806E-05-2.85750E-05-2.85875E-05 8.12262E-08 7.49210E-19-4.53535E-18
 -1       265 9.52098E-05-2.85566E-05-2.85652E-05 4.48110E-08-3.37814E-20-4.93514E-18
 -1       266 9.51699E-05-2.85467E-05-2.85525E-05 1.97256E-08 4.78415E-19-2.81940E-18
 -1       267 9.51513E-05-2.85427E-05-2.85463E-05 3.03568E-09-2.12139E-19-2.76159E-18
 -1       268 9.51471E-05-2.85425E-05-2.85447E-05-7.56367E-09 6.73784E-19-4.46926E-18
 -1       269 9.51521E-05-2.85447E-05-2.85459E-05-1.38394E-08 1.11195E-19-6.03916E-18
 -1       270 9.51627E-05-2.85484E-05-2.85489E-05-1.71045E-08-6.43033E-19-5.80085E-18
 -1       271 9.51762E-05-2.85528E-05-2.85528E-05-1.82888E-08 1.68523E-19-5.35556E-18
 -1       272 9.51907E-05-2.85574E-05-2.85571E-05-1.79907E-08 8.12003E-19-5.78740E-18
 -1       273 9.52049E-05-2.85619E-05-2.85613E-05-1.65067E-08-3.14806E-19-5.36366E-18
 -1       274 9.52176E-05-2.85660E-05-2.85649E-05-1.38513E-08-1.76572E-18-3.29566E-18
 -1       275 9.52277E-05-2.85695E-05-2.85678E-05-9.77681E-09-2.10975E-18-1.58558E-18
 -1       276 9.52346E-05-2.85719E-05-2.85697E-05-4.25387E-09 9.59247E-19 1.58306E-19
 -1       277 9.52368E-05-2.85764E-05-2.85688E-05-7.64486E-09-4.15615E-19-2.34956E-19
 -1       278 9.52400E-05-2.85842E-05-2.85668E-05-1.23111E-08-4.25532E-19-3.20728E-19
 -1       279 9.52437E-05-2.85936E-05-2.85643E-05-1.43443E-08-1.19779E-18 3.24636E-19
 -1       280 9.52472E-05-2.86033E-05-2.85617E-05-1.39692E-08-9.16512E-19-1.36102E-19
 -1       281 9.52502E-05-2.86119E-05-2.85592E-05-1.18535E-08-1.39524E-18-1.21265E-18
 -1       282 9.52525E-05-2.86189E-05-2.85573E-05-8.49816E-09-1.57542E-18-5.00636E-19
 -1       283 9.52540E-05-2.86232E-05-2.85560E-05-4.40187E-09-3.70993E-19-4.24481E-19
 -1       284 9.52545E-05-2.86247E-05-2.85556E-05 3.78471E-11 2.98509E-19-4.19523E-19
 -1       285 9.52540E-05-2.86232E-05-2.85560E-05 4.47410E-09-8.14275E-19 2.07054E-18
 -1       286 9.52525E-05-2.86188E-05-2.85573E-05 8.56202E-09-1.06851E-18-2.46498E-18
 -1       287 9.52502E-05-2.86119E-05-2.85592E-05 1.18577E-08-2.00044E-19-6.83567E-20
 -1       288 9.52471E-05-2.86031E-05-2.85617E-05 1.39915E-08-2.26664E-19 1.06348E-18
 -1       289 9.52436E-05-2.85934E-05-2.85644E-05 1.43357E-08 1.55313E-18-9.03628E-19
 -1       290 9.52399E-05-2.85840E-05-2.85668E-05 1.21121E-08-4.97088E-20 2.14736E-19
 -1       291 9.52362E-05-2.85775E-05-2.85681E-05 1.13473E-08-9.83214E-19-7.99658E-19
 -1       292 1.22066E-05-4.67769E-05 1.16483E-05 7.25158E-06 2.16428E-18 6.76790E-18
 -1       293 2.70664E-05-4.20794E-05 4.01604E-06 2.34081E-05 4.92888E-18 8.37790E-18
 -1       294 5.45421E-05-3.71871E-05-9.10677E-06 3.49919E-05 8.23528E-18 8.18800E-18
 -1       295 9.07996E-05-3.07688E-05-2.60885E-05 4.44406E-05 9.66232E-18 8.69013E-18
 -1       296 1.42121E-04-3.79636E-05-4.38122E-05 3.62180E-05 7.53584E-18 4.22775E-18
 -1       297 1.78029E-04-3.32851E-05-5.97013E-05 3.32917E-05 8.16022E-18 4.09604E-18
 -1       298 2.02790E-04-3.42865E-05-6.89682E-05 1.63340E-05 8.16550E-18-4.06893E-19
 -1       299 2.08851E-04-3.48583E-05-7.11449E-05-5.72087E-06 8.95917E-18-5.96107E-18
 -1       300 1.90553E-04-3.26473E-05-6.49739E-05-2.42720E-05 9.96841E-18-9.43002E-18
 -1       301 1.60810E-04-3.16680E-05-5.32861E-05-4.40899E-05 1.14361E-17-1.38536E-17
 -1       302 1.17366E-04-2.96545E-05-3.69682E-05-4.77205E-05 1.22885E-17-1.49787E-17
 -1       303 7.51742E-05-3.24314E-05-1.92656E-05-4.13444E-05 1.18729E-17-1.37785E-17
 -1       304 4.41067E-05-4.00681E-05-3.64905E-06-3.21751E-05 7.37787E-18-1.10737E-17
 -1       305 1.93981E-05-4.52675E-05 8.10424E-06-1.65201E-05 3.89434E-18-9.67089E-18
 -1       306 1.14668E-05-5.03551E-05 1.30564E-05-1.68843E-06-1.40862E-18-7.83135E-18
 -1       307 1.58454E-05-4.62514E-05 9.89727E-06 1.27970E-05-6.58918E-18-8.68558E-18
 -1       308 3.39344E-05-4.14905E-05 6.99354E-07 2.57803E-05-1.10381E-17-1.18329E-17
 -1       309 6.89147E-05-3.77054E-05-1.45286E-05 3.99205E-05-1.19718E-17-1.24597E-17
 -1       310 1.05873E-04-3.05768E-05-3.21115E-05 4.65218E-05-1.43153E-17-1.44796E-17
 -1       311 1.50616E-04-3.19930E-05-4.92442E-05 4.30014E-05-1.26375E-17-1.25067E-17
 -1       312 1.87596E-04-3.38793E-05-6.29196E-05 3.42060E-05-1.17678E-17-9.94268E-18
 -1       313 2.09674E-04-3.66777E-05-7.04484E-05 1.52165E-05-8.99941E-18-5.89281E-18
 -1       314 2.12140E-04-3.69238E-05-7.13390E-05-7.73963E-06-6.72163E-18-1.01877E-18
 -1       315 1.95389E-04-3.49996E-05-6.56008E-05-2.78112E-05-6.74079E-18 3.53679E-18
 -1       316 1.61031E-04-3.33286E-05-5.30130E-05-3.66779E-05-7.91211E-18 4.56953E-18
 -1       317 1.19557E-04-3.04444E-05-3.75893E-05-4.65544E-05-6.86690E-18 8.98427E-18
 -1       318 8.27864E-05-3.63227E-05-2.06146E-05-4.17257E-05-5.71747E-18 6.70797E-18
 -1       319 4.44411E-05-3.78963E-05-4.93140E-06-3.10413E-05-5.53578E-18 6.70125E-18
 -1       320 2.38024E-05-4.53101E-05 5.86044E-06-1.60805E-05-5.12264E-18 5.84694E-18
 -1       321 1.24666E-05-4.93741E-05 1.23155E-05-5.68305E-06-4.59357E-19 5.47437E-18
 -1       322 9.39784E-05-1.48277E-05-3.39992E-05-8.64427E-06-3.75383E-18-3.38973E-18
 -1       323 9.97476E-05-2.03656E-05-3.40782E-05-1.07292E-05-4.27140E-18-8.24209E-19
 -1       324 8.61460E-05-8.63163E-06-3.32682E-05-4.22087E-06-2.03839E-18-5.72040E-18
 -1       325 8.34405E-05-6.75801E-06-3.29009E-05-2.58418E-06-1.15641E-18-5.97151E-18
 -1       326 8.15719E-05-5.51581E-06-3.26259E-05-1.35573E-06-2.60431E-19-5.99372E-18
 -1       327 8.06221E-05-4.89835E-06-3.24803E-05-3.98986E-07 5.12676E-19-5.94262E-18
 -1       328 8.06477E-05-4.91774E-06-3.24831E-05 4.66072E-07 1.29945E-18-5.75272E-18
 -1       329 8.16482E-05-5.57453E-06-3.26336E-05 1.43316E-06 2.01255E-18-5.46632E-18
 -1       330 8.35235E-05-6.82945E-06-3.29062E-05 2.65704E-06 2.74190E-18-4.90093E-18
 -1       331 8.62584E-05-8.73560E-06-3.32721E-05 4.30896E-06 3.54952E-18-4.03966E-18
 -1       332 8.98011E-05-1.13889E-05-3.36685E-05 6.41817E-06 4.22033E-18-2.84135E-18
 -1       333 9.43029E-05-1.51354E-05-3.40065E-05 8.83738E-06 4.64316E-18-7.11144E-19
 -1       334 9.98541E-05-2.07028E-05-3.40243E-05 1.05374E-05 4.60897E-18 2.95757E-18
 -1       335 1.03600E-04-2.59976E-05-3.33358E-05 8.70098E-06 4.08283E-18 6.23216E-18
 -1       336 1.02351E-04-2.85413E-05-3.15997E-05 2.38280E-06 3.39466E-18 4.96336E-18
 -1       337 2.49418E-05-2.80577E-05 1.18923E-06-2.74091E-05 1.57294E-18 5.15737E-18
 -1       338 1.01870E-04-2.74805E-05-3.18339E-05-2.22671E-06-3.27202E-18-8.32607E-20
 -1       339 1.01578E-04-2.87491E-05-3.11854E-05 1.70598E-06-2.42484E-18-2.93312E-19
 -1       340 1.02074E-04-2.96256E-05-3.10350E-05 4.05722E-06-1.85477E-18-3.93992E-19
 -1       341 1.03278E-04-3.05796E-05-3.11526E-05 5.36063E-06-1.09872E-18-4.98783E-19
 -1       342 1.05033E-04-3.17785E-05-3.13993E-05 5.68722E-06-6.29103E-19-6.13868E-19
 -1       343 1.07149E-04-3.32649E-05-3.16767E-05 4.88336E-06-5.69345E-19-3.68665E-19
 -1       344 1.09358E-04-3.49254E-05-3.19187E-05 2.71924E-06-3.17440E-19 1.27925E-19
 -1       345 1.11226E-04-3.63730E-05-3.21013E-05-8.82439E-07-1.15268E-19 6.22937E-19
 -1       346 1.12089E-04-3.68624E-05-3.22576E-05-5.47706E-06-4.80863E-19 7.03188E-19
 -1       347 1.11219E-04-3.54864E-05-3.24664E-05-9.69921E-06-9.45922E-19 4.30997E-19
 -1       348 1.08428E-04-3.19429E-05-3.27812E-05-1.12908E-05-1.60086E-18 5.53384E-21
 -1       349 1.04883E-04-2.75582E-05-3.31395E-05-8.27441E-06-1.53378E-18-9.50349E-19
 -1       350 1.02910E-04-2.50754E-05-3.33629E-05-1.02912E-06-1.70018E-18-2.38678E-18
 -1       351 1.04109E-04-2.63945E-05-3.33092E-05 6.98616E-06-1.44109E-18-2.92298E-18
 -1       352 1.07633E-04-3.05089E-05-3.30515E-05 1.16999E-05-1.30851E-18-3.19233E-18
 -1       353 1.11142E-04-3.46537E-05-3.27846E-05 1.15904E-05-1.18519E-18-4.03613E-18
 -1       354 1.12955E-04-3.68847E-05-3.26169E-05 8.03667E-06-1.32951E-19-3.71739E-18
 -1       355 1.12849E-04-3.70264E-05-3.25169E-05 3.38175E-06 4.12493E-19-3.26944E-18
 -1       356 1.11441E-04-3.58935E-05-3.23983E-05-6.72399E-07 9.12881E-19-3.21477E-18
 -1       357 1.09425E-04-3.43376E-05-3.21959E-05-3.43807E-06 8.53417E-19-3.14240E-18
 -1       358 1.07265E-04-3.28646E-05-3.18950E-05-4.91792E-06 1.10182E-18-1.94052E-18
 -1       359 1.05200E-04-3.16671E-05-3.15180E-05-5.40806E-06 1.32949E-18-1.85375E-18
 -1       360 1.03337E-04-3.07641E-05-3.11025E-05-5.25263E-06 7.86900E-19-2.43401E-18
 -1       361 1.01710E-04-3.01075E-05-3.06844E-05-4.73752E-06 2.30924E-19-2.29301E-18
 -1       362 1.00324E-04-2.96371E-05-3.02908E-05-4.06466E-06 6.31993E-19-1.80283E-18
 -1       363 9.91669E-05-2.93016E-05-2.99386E-05-3.36146E-06 1.10244E-18-5.06340E-19
 -1       364 9.82196E-05-2.90626E-05-2.96352E-05-2.70014E-06 4.50792E-19-1.04510E-18
 -1       365 9.74580E-05-2.88928E-05-2.93819E-05-2.11600E-06-9.88623E-19-1.13536E-18
 -1       366 9.68566E-05-2.87730E-05-2.91760E-05-1.62149E-06-7.16806E-20 2.06002E-19
 -1       367 9.63900E-05-2.86894E-05-2.90124E-05-1.21587E-06 2.38254E-19 3.85663E-19
 -1       368 9.60348E-05-2.86322E-05-2.88851E-05-8.91534E-07 1.17520E-18 1.22549E-18
 -1       369 9.57695E-05-2.85942E-05-2.87881E-05-6.37845E-07 7.00524E-19 9.17732E-19
 -1       370 9.55756E-05-2.85700E-05-2.87157E-05-4.43402E-07-1.15195E-18 7.91070E-19
 -1       371 9.54372E-05-2.85556E-05-2.86628E-05-2.97296E-07-5.53207E-19 5.59104E-19
 -1       372 9.53413E-05-2.85480E-05-2.86251E-05-1.89727E-07-3.68355E-19 1.35689E-18
 -1       373 9.52773E-05-2.85450E-05-2.85991E-05-1.12253E-07 5.27516E-19 1.18576E-18
 -1       374 9.52367E-05-2.85450E-05-2.85819E-05-5.78270E-08-6.06968E-19 4.69816E-19
 -1       375 9.52131E-05-2.85469E-05-2.85711E-05-2.07170E-08-4.98775E-19 1.12748E-18
 -1       376 9.52014E-05-2.85498E-05-2.85648E-05 3.63166E-09-1.75582E-18 1.71984E-18
 -1       377 9.51977E-05-2.85533E-05-2.85618E-05 1.87488E-08-2.05393E-19 9.54495E-19
 -1       378 9.51993E-05-2.85569E-05-2.85610E-05 2.72885E-08 1.38755E-18 4.61846E-19
 -1       379 9.52041E-05-2.85606E-05-2.85615E-05 3.11627E-08 2.46487E-18-4.92713E-19
 -1       380 9.52107E-05-2.85643E-05-2.85627E-05 3.16527E-08 1.34782E-18-1.32810E-18
 -1       381 9.52179E-05-2.85679E-05-2.85643E-05 2.95034E-08-8.33348E-19 5.37689E-19
 -1       382 9.52250E-05-2.85716E-05-2.85658E-05 2.50647E-08 7.01136E-19 7.08637E-19
 -1       383 9.52308E-05-2.85746E-05-2.85670E-05 1.89507E-08 1.40877E-18 6.29649E-19
 -1       384 1.01772E-04-2.94070E-05-3.09746E-05-1.18728E-06 2.50838E-18 4.06463E-18
 -1       385 1.02247E-04-3.00278E-05-3.09296E-05-3.25653E-06 1.86195E-18 3.35275E-18
 -1       386 1.03571E-04-3.07811E-05-3.11886E-05-4.39639E-06 1.15435E-18 2.62315E-18
 -1       387 1.05429E-04-3.17319E-05-3.15873E-05-4.72087E-06 8.31318E-19 2.14157E-18
 -1       388 1.07505E-04-3.28606E-05-3.20007E-05-4.11612E-06 5.99995E-19 1.67951E-18
 -1       389 1.09428E-04-3.40535E-05-3.23196E-05-2.38438E-06 4.46864E-19 2.04025E-18
 -1       390 1.10732E-04-3.50377E-05-3.24589E-05 5.60597E-07 4.29126E-19 2.38615E-18
 -1       391 1.10861E-04-3.53313E-05-3.23856E-05 4.39570E-06-2.47623E-19 3.00219E-18
 -1       392 1.09338E-04-3.43549E-05-3.21432E-05 8.06946E-06-9.57478E-20 3.07810E-18
 -1       393 1.06199E-04-3.18867E-05-3.18485E-05 9.80687E-06 5.93816E-19 2.25024E-18
 -1       394 1.02491E-04-2.86806E-05-3.16318E-05 7.93517E-06 1.90871E-18 1.26937E-18
 -1       395 1.00142E-04-2.64933E-05-3.15604E-05 2.37875E-06 2.06335E-18 1.14625E-18
 -1       396 1.00698E-04-2.68414E-05-3.16414E-05-4.53212E-06 1.68382E-18-4.95347E-19
 -1       397 1.03924E-04-2.95209E-05-3.18729E-05-9.44029E-06 1.76604E-18-2.18279E-18
 -1       398 1.07999E-04-3.27928E-05-3.22240E-05-1.04673E-05 1.70725E-18-3.17379E-18
 -1       399 1.11117E-04-3.50516E-05-3.26056E-05-8.17373E-06 6.05036E-19-3.09765E-18
 -1       400 1.12505E-04-3.58015E-05-3.28907E-05-4.35185E-06-9.56684E-19-3.43736E-18
 -1       401 1.12289E-04-3.53872E-05-3.29798E-05-6.50549E-07-4.52605E-19-3.97540E-18
 -1       402 1.10993E-04-3.44027E-05-3.28430E-05 2.07470E-06-1.42522E-19-3.17090E-18
 -1       403 1.09123E-04-3.32862E-05-3.25140E-05 3.66599E-06 1.15410E-18-2.07697E-18
 -1       404 1.07047E-04-3.22582E-05-3.20587E-05 4.32159E-06 4.16761E-19-1.48643E-18
 -1       405 1.04998E-04-3.13945E-05-3.15458E-05 4.33842E-06-1.22154E-18-2.19067E-18
 -1       406 1.03109E-04-3.07003E-05-3.10309E-05 3.98337E-06-1.91578E-19-1.01438E-18
 -1       407 1.01448E-04-3.01548E-05-3.05510E-05 3.45219E-06-1.04845E-19-1.08066E-18
 -1       408 1.00037E-04-2.97318E-05-3.01268E-05 2.87123E-06-1.11398E-18-6.17510E-19
 -1       409 9.88708E-05-2.94071E-05-2.97662E-05 2.31348E-06-7.95463E-19-1.10202E-18
 -1       410 9.79304E-05-2.91606E-05-2.94692E-05 1.81567E-06 2.17522E-19-2.17139E-19
 -1       411 9.71881E-05-2.89757E-05-2.92308E-05 1.39196E-06 9.74452E-19-2.91202E-20
 -1       412 9.66142E-05-2.88391E-05-2.90439E-05 1.04350E-06-1.40141E-20 9.00440E-20
 -1       413 9.61791E-05-2.87400E-05-2.89004E-05 7.64563E-07-3.34890E-19-6.86211E-19
 -1       414 9.58561E-05-2.86696E-05-2.87926E-05 5.46348E-07-6.89943E-19-1.65810E-18
 -1       415 9.56217E-05-2.86209E-05-2.87134E-05 3.79171E-07 1.30834E-18 8.92264E-19
 -1       416 9.54559E-05-2.85885E-05-2.86565E-05 2.53664E-07 2.00648E-18 5.23175E-19
 -1       417 9.53423E-05-2.85680E-05-2.86169E-05 1.61376E-07 2.16309E-18-1.70769E-18
 -1       418 9.52677E-05-2.85560E-05-2.85902E-05 9.50154E-08 1.54967E-20-2.67662E-18
 -1       419 9.52214E-05-2.85499E-05-2.85732E-05 4.84919E-08 3.86169E-19-3.17746E-18
 -1       420 9.51954E-05-2.85478E-05-2.85630E-05 1.68503E-08-7.91177E-19-3.87468E-18
 -1       421 9.51836E-05-2.85484E-05-2.85578E-05-3.84646E-09 1.16491E-18-2.53352E-18
 -1       422 9.51812E-05-2.85505E-05-2.85559E-05-1.66513E-08 3.79043E-19-2.02836E-18
 -1       423 9.51849E-05-2.85537E-05-2.85562E-05-2.38627E-08-1.36799E-19-2.37401E-18
 -1       424 9.51923E-05-2.85573E-05-2.85578E-05-2.71400E-08-6.51479E-19-2.65377E-18
 -1       425 9.52014E-05-2.85610E-05-2.85602E-05-2.75982E-08 8.95949E-19-1.76711E-18
 -1       426 9.52111E-05-2.85648E-05-2.85627E-05-2.58778E-08-4.17805E-19-1.55402E-18
 -1       427 9.52204E-05-2.85685E-05-2.85651E-05-2.22110E-08-2.13178E-18-1.45589E-18
 -1       428 9.52285E-05-2.85721E-05-2.85671E-05-1.65803E-08-2.07021E-18-2.33410E-18
 -1       429 9.52331E-05-2.85745E-05-2.85680E-05-1.24585E-08-1.49921E-18-1.24953E-18
 -1       430 9.52441E-05-2.85927E-05-2.85649E-05-2.34846E-08-1.78583E-18-8.98943E-19
 -1       431 9.52394E-05-2.85853E-05-2.85661E-05-2.26398E-08-8.51545E-19 1.09463E-18
 -1       432 9.52359E-05-2.85797E-05-2.85670E-05-1.85669E-08-1.56474E-18 2.08744E-19
 -1       433 9.52480E-05-2.85993E-05-2.85637E-05-2.12456E-08-1.50880E-18-2.01737E-18
 -1       434 9.52509E-05-2.86048E-05-2.85626E-05-1.66744E-08 1.03345E-19 1.90505E-20
 -1       435 9.52529E-05-2.86086E-05-2.85618E-05-1.05551E-08 8.92673E-19 6.32934E-20
 -1       436 9.52538E-05-2.86106E-05-2.85613E-05-3.56943E-09-8.19330E-19-1.51038E-18
 -1       437 9.52538E-05-2.86106E-05-2.85613E-05 3.69046E-09-1.49648E-18-5.09021E-19
 -1       438 9.52528E-05-2.86086E-05-2.85618E-05 1.06665E-08-1.69902E-18 3.73339E-19
 -1       439 9.52509E-05-2.86048E-05-2.85626E-05 1.66741E-08-5.88338E-19-7.65695E-19
 -1       440 9.52480E-05-2.85993E-05-2.85637E-05 2.12502E-08-3.87636E-19 1.78704E-18
 -1       441 9.52440E-05-2.85926E-05-2.85649E-05 2.35107E-08 4.71785E-19 4.61138E-19
 -1       442 9.52393E-05-2.85852E-05-2.85661E-05 2.27922E-08-1.23804E-19-2.27134E-18
 -1       443 5.90557E-05-4.18691E-05-7.49646E-06 4.24772E-05-1.27891E-18 4.65633E-18
 -1       444 1.17344E-05-2.31163E-05 4.62113E-06-2.51270E-07 8.40108E-19 6.27567E-18
 -1       445 2.43037E-05-2.70962E-05 1.06831E-06 2.64718E-05-2.85132E-19 6.89273E-18
 -1       446 1.00248E-04-5.33057E-05-2.01444E-05 4.04073E-05-2.16840E-19 1.43609E-18
 -1       447 4.63121E-05-3.74942E-05-3.94953E-06-3.89325E-05 2.02007E-18 4.68854E-18
 -1       448 1.51172E-04-4.00930E-05-4.77843E-05 2.28919E-06 4.98439E-18-1.73578E-18
 -1       449 1.31735E-04-5.50683E-05-3.28923E-05 2.58480E-05 1.33365E-18-3.32884E-19
 -1       450 8.96303E-05-1.12236E-05-3.36659E-05-6.30297E-06-2.86290E-18-4.89391E-18
 -1       451 1.56588E-04-2.49263E-05-5.64198E-05-2.19562E-06 8.55397E-18-2.83534E-18
 -1       452 1.62889E-04-1.47995E-05-6.30955E-05-9.27239E-07 9.45723E-18-2.32556E-18
 -1       453 1.54586E-04-1.53358E-05-5.97466E-05 2.98224E-06 9.82802E-18-8.07275E-19
 -1       454 1.55947E-04-3.33006E-05-5.25441E-05-1.94210E-06 7.08781E-18-1.81000E-18
 -1       455 1.48823E-04-4.67500E-05-4.35714E-05-1.57934E-05 5.48472E-18-3.33053E-18
 -1       456 1.21278E-04-5.51608E-05-2.83944E-05-3.36934E-05 2.36957E-18-5.67417E-18
 -1       457 8.55685E-05-5.00663E-05-1.53024E-05-4.37692E-05 9.99181E-19-7.42868E-18
 -1       458 4.20751E-05-3.62277E-05-2.78487E-06-3.80012E-05-1.21761E-19-9.42197E-18
 -1       459 1.65999E-05-2.43472E-05 3.10737E-06-1.69404E-05-8.02670E-19-1.04360E-17
 -1       460 1.34719E-05-2.37971E-05 4.20145E-06 9.96007E-06-1.08666E-18-9.61097E-18
 -1       461 3.80872E-05-3.14861E-05-2.68104E-06 3.63780E-05-3.74918E-19-8.84048E-18
 -1       462 6.98164E-05-4.55509E-05-1.04299E-05 4.45866E-05-2.24464E-19-7.34820E-18
 -1       463 1.17156E-04-5.74307E-05-2.55069E-05 3.53844E-05-2.05236E-18-3.39861E-18
 -1       464 1.39773E-04-5.38228E-05-3.69477E-05 2.03179E-05-4.57583E-18-1.80799E-18
 -1       465 1.55496E-04-3.65680E-05-5.09112E-05 4.00216E-06-8.53894E-18-1.26346E-18
 -1       466 1.61836E-04-2.16211E-05-5.97896E-05 2.88489E-07-9.90224E-18-2.67366E-18
 -1       467 1.64558E-04-1.49875E-05-6.36820E-05 5.34366E-07-9.39497E-18-2.96807E-18
 -1       468 1.56541E-04-1.67350E-05-5.99119E-05 3.39939E-06-7.15298E-18-3.49618E-18
 -1       469 1.57226E-04-3.01901E-05-5.43460E-05 5.18067E-07-5.65299E-18-3.16250E-18
 -1       470 1.45707E-04-4.94784E-05-4.13252E-05-1.42008E-05-2.50534E-18-2.14013E-18
 -1       471 1.26339E-04-5.59119E-05-3.01320E-05-2.96990E-05 8.54656E-19 1.13354E-18
 -1       472 8.60527E-05-5.04954E-05-1.53203E-05-4.29948E-05 1.81583E-18 1.74636E-18
 -1       473 1.43421E-04-5.32489E-05-3.88631E-05 3.19829E-06 1.38250E-18-3.07261E-18
 -1       474 1.00474E-04-2.61755E-05-3.18276E-05 1.16917E-06 3.29744E-18 1.21223E-18
 -1       475 8.39169E-05-9.15594E-06-3.20537E-05-8.43796E-07-7.18082E-19-5.32035E-18
 -1       476 8.66072E-05-1.12420E-05-3.23163E-05-1.68800E-06-1.53769E-18-5.27071E-18
 -1       477 8.16732E-05-7.47229E-06-3.18109E-05 1.37884E-08 9.20140E-19-5.28270E-18
 -1       478 8.22927E-05-7.93823E-06-3.18775E-05 3.54484E-07 1.60980E-18-5.04396E-18
 -1       479 8.39982E-05-9.23097E-06-3.20565E-05 8.80786E-07 2.31628E-18-4.75904E-18
 -1       480 8.67172E-05-1.13489E-05-3.23177E-05 1.73533E-06 3.01789E-18-3.97713E-18
 -1       481 9.02672E-05-1.42597E-05-3.25956E-05 2.91320E-06 3.49275E-18-3.19089E-18
 -1       482 9.45524E-05-1.80761E-05-3.27953E-05 4.24401E-06 3.98476E-18-1.64683E-18
 -1       483 9.92310E-05-2.49666E-05-3.18177E-05-4.37111E-07-2.78591E-18-1.97583E-18
 -1       484 1.00739E-04-2.78226E-05-3.12313E-05-2.54576E-06 2.55052E-18 1.04361E-18
 -1       485 9.74979E-05-2.11516E-05-3.27372E-05-4.56975E-06-3.47301E-18-2.58267E-18
 -1       486 9.98218E-05-2.69666E-05-3.12167E-05 3.21539E-06-2.03614E-18-1.70468E-18
 -1       487 1.00608E-04-2.84835E-05-3.09072E-05 5.71850E-06-1.35372E-18-1.35212E-18
 -1       488 1.01924E-04-3.01196E-05-3.07737E-05 7.17623E-06-9.91106E-19-1.07550E-18
 -1       489 1.03940E-04-3.22087E-05-3.07461E-05 7.51381E-06-4.21494E-19-9.75480E-19
 -1       490 1.06751E-04-3.48899E-05-3.08053E-05 6.47573E-06-1.82725E-19-6.16672E-19
 -1       491 1.10261E-04-3.79533E-05-3.10010E-05 3.71456E-06 1.18428E-19-2.56586E-19
 -1       492 1.13923E-04-4.05425E-05-3.14610E-05-9.45052E-07 6.41123E-20 3.65754E-19
 -1       493 1.16503E-04-4.09969E-05-3.23740E-05-6.94835E-06-4.46755E-19 1.09717E-18
 -1       494 1.16329E-04-3.74028E-05-3.38619E-05-1.21899E-05-1.38181E-18 1.69043E-18
 -1       495 1.12931E-04-2.98093E-05-3.56840E-05-1.29545E-05-2.41148E-18 1.19440E-18
 -1       496 1.08762E-04-2.22842E-05-3.71560E-05-6.66235E-06-3.40757E-18-4.43988E-19
 -1       497 1.07989E-04-2.08871E-05-3.74361E-05 4.19408E-06-2.48635E-18-1.73731E-18
 -1       498 1.11500E-04-2.68688E-05-3.63445E-05 1.26661E-05-1.86231E-18-2.65102E-18
 -1       499 1.15759E-04-3.51706E-05-3.45722E-05 1.42496E-05-1.78422E-18-2.98202E-18
 -1       500 1.17200E-04-4.03348E-05-3.29627E-05 1.01476E-05-3.41172E-19-2.71548E-18
 -1       501 1.15499E-04-4.11588E-05-3.18745E-05 4.07314E-06 7.41139E-19-2.63163E-18
 -1       502 1.12100E-04-3.91487E-05-3.12776E-05-1.22427E-06 1.06050E-18-1.63033E-18
 -1       503 1.08467E-04-3.62158E-05-3.09745E-05-4.77834E-06 1.11645E-18-1.60791E-18
 -1       504 1.05341E-04-3.35101E-05-3.07909E-05-6.66640E-06 1.37430E-18-1.48748E-18
 -1       505 1.02904E-04-3.14513E-05-3.06254E-05-7.30895E-06 1.30590E-18-1.20618E-18
 -1       506 1.01076E-04-3.00552E-05-3.04379E-05-7.14265E-06 2.70944E-19-2.30970E-18
 -1       507 9.97110E-05-2.91847E-05-3.02248E-05-6.51466E-06 4.05834E-19-2.63285E-18
 -1       508 9.86786E-05-2.86811E-05-2.99975E-05-5.66882E-06 1.17620E-19-3.11196E-18
 -1       509 9.78833E-05-2.84143E-05-2.97708E-05-4.76286E-06 1.69992E-18-2.17497E-18
 -1       510 9.72618E-05-2.82918E-05-2.95569E-05-3.89103E-06 5.17817E-19-1.45605E-18
 -1       511 9.67722E-05-2.82527E-05-2.93640E-05-3.10387E-06-7.32855E-20 1.72319E-19
 -1       512 9.63864E-05-2.82591E-05-2.91962E-05-2.42336E-06-3.50674E-19 3.47831E-19
 -1       513 9.60840E-05-2.82880E-05-2.90544E-05-1.85384E-06 7.45077E-19 5.83922E-19
 -1       514 9.58493E-05-2.83263E-05-2.89376E-05-1.38945E-06 2.66148E-19 1.19126E-18
 -1       515 9.56693E-05-2.83664E-05-2.88435E-05-1.01916E-06 6.48439E-19 2.02997E-19
 -1       516 9.55336E-05-2.84043E-05-2.87692E-05-7.29795E-07 2.40043E-19 3.96258E-20
 -1       517 9.54330E-05-2.84380E-05-2.87117E-05-5.07967E-07-1.12691E-18 5.78171E-19
 -1       518 9.53600E-05-2.84670E-05-2.86681E-05-3.41136E-07-4.21564E-19 5.38320E-19
 -1       519 9.53083E-05-2.84912E-05-2.86357E-05-2.18134E-07-5.32973E-19-1.47366E-18
 -1       520 9.52729E-05-2.85109E-05-2.86122E-05-1.29382E-07-1.20112E-18-9.40209E-19
 -1       521 9.52496E-05-2.85266E-05-2.85955E-05-6.68935E-08 2.73232E-20-1.16890E-20
 -1       522 9.52353E-05-2.85391E-05-2.85840E-05-2.41782E-08-1.12278E-18-1.62453E-19
 -1       523 9.52273E-05-2.85487E-05-2.85765E-05 3.91658E-09-9.16795E-19 1.28457E-18
 -1       524 9.52237E-05-2.85562E-05-2.85718E-05 2.13755E-08-6.74512E-19 1.23855E-18
 -1       525 9.52231E-05-2.85621E-05-2.85690E-05 3.11858E-08 1.44646E-18 5.64359E-19
 -1       526 9.52245E-05-2.85669E-05-2.85676E-05 3.54947E-08 1.09887E-18 7.50458E-19
 -1       527 9.52272E-05-2.85711E-05-2.85669E-05 3.57389E-08 2.06659E-18 4.34743E-20
 -1       528 9.52306E-05-2.85752E-05-2.85666E-05 3.27892E-08-9.06119E-19 1.04684E-18
 -1       529 1.02667E-04-3.03679E-05-3.09845E-05-6.31063E-06 1.35988E-18 6.73797E-19
 -1       530 1.04505E-04-3.20105E-05-3.10740E-05-6.57206E-06 8.89909E-19 5.80660E-19
 -1       531 1.06899E-04-3.40813E-05-3.12178E-05-5.53737E-06 2.49007E-19 7.29347E-19
 -1       532 1.09674E-04-3.64173E-05-3.14099E-05-2.93940E-06-2.32086E-19 1.40363E-18
 -1       533 1.12349E-04-3.84029E-05-3.17067E-05 1.29967E-06-2.43781E-19 1.98959E-18
 -1       534 1.14000E-04-3.88507E-05-3.22225E-05 6.60997E-06 1.77116E-19 1.84533E-18
 -1       535 1.13489E-04-3.64087E-05-3.30477E-05 1.12097E-05 7.85490E-19 1.31516E-18
 -1       536 1.10515E-04-3.09615E-05-3.41176E-05 1.22232E-05 1.63467E-18 1.21672E-18
 -1       537 1.06744E-04-2.49879E-05-3.50856E-05 7.45895E-06 2.71983E-18 5.45316E-19
 -1       538 1.05394E-04-2.28454E-05-3.54180E-05-1.69039E-06 3.13773E-18-5.61058E-19
 -1       539 1.07776E-04-2.63034E-05-3.49476E-05-1.01636E-05 2.28305E-18-1.75753E-18
 -1       540 1.11806E-04-3.25817E-05-3.39729E-05-1.34870E-05 2.29530E-18-2.78465E-18
 -1       541 1.14398E-04-3.74225E-05-3.29980E-05-1.13529E-05 1.26095E-18-2.12128E-18
 -1       542 1.14470E-04-3.91486E-05-3.22942E-05-6.36684E-06-5.82281E-19-2.23581E-18
 -1       543 1.12593E-04-3.82595E-05-3.18737E-05-1.18859E-06-8.67676E-19-2.17983E-18
 -1       544 1.09913E-04-3.61782E-05-3.16146E-05 2.74340E-06-5.84626E-19-1.53272E-18
 -1       545 1.07222E-04-3.39808E-05-3.13989E-05 5.13341E-06-3.60839E-19-1.45106E-18
 -1       546 1.04858E-04-3.21600E-05-3.11619E-05 6.21898E-06 8.19483E-19-2.17539E-19
 -1       547 1.02895E-04-3.08285E-05-3.08873E-05 6.38493E-06-2.47655E-20-7.56305E-19
 -1       548 1.01294E-04-2.99247E-05-3.05863E-05 5.98728E-06-5.08731E-19-1.68500E-18
 -1       549 9.99948E-05-2.93400E-05-3.02786E-05 5.29601E-06-3.23847E-20-1.78757E-18
 -1       550 9.89401E-05-2.89744E-05-2.99827E-05 4.49382E-06-5.54713E-19-1.61283E-18
 -1       551 9.80862E-05-2.87522E-05-2.97119E-05 3.69320E-06-8.60727E-19-2.16779E-18
 -1       552 9.73992E-05-2.86212E-05-2.94738E-05 2.95651E-06-1.33090E-18-1.24465E-18
 -1       553 9.68516E-05-2.85474E-05-2.92711E-05 2.31294E-06 4.45208E-19-2.75195E-19
 -1       554 9.64204E-05-2.85089E-05-2.91032E-05 1.77116E-06 7.61005E-19-3.24110E-19
 -1       555 9.60858E-05-2.84921E-05-2.89673E-05 1.32798E-06-6.23112E-19-1.99517E-19
 -1       556 9.58301E-05-2.84881E-05-2.88597E-05 9.73991E-07-1.50629E-18 1.86423E-18
 -1       557 9.56383E-05-2.84917E-05-2.87763E-05 6.97163E-07 3.93977E-19 1.82515E-18
 -1       558 9.54971E-05-2.84991E-05-2.87128E-05 4.84919E-07 2.02169E-18 1.47865E-18
 -1       559 9.53955E-05-2.85084E-05-2.86654E-05 3.25339E-07 2.87042E-18 1.02594E-18
 -1       560 9.53245E-05-2.85180E-05-2.86310E-05 2.07753E-07 2.02373E-18 4.05737E-19
 -1       561 9.52764E-05-2.85273E-05-2.86065E-05 1.22981E-07 6.24810E-19 3.94788E-20
 -1       562 9.52454E-05-2.85358E-05-2.85897E-05 6.33598E-08 6.08610E-19 3.47551E-19
 -1       563 9.52268E-05-2.85433E-05-2.85785E-05 2.26571E-08-7.93010E-19-7.78298E-19
 -1       564 9.52170E-05-2.85498E-05-2.85716E-05-4.07788E-09 5.11448E-19 2.98937E-19
 -1       565 9.52132E-05-2.85553E-05-2.85676E-05-2.06773E-08 3.23970E-19 6.99873E-19
 -1       566 9.52135E-05-2.85601E-05-2.85657E-05-3.00153E-08-8.77294E-20 4.81598E-19
 -1       567 9.52162E-05-2.85643E-05-2.85651E-05-3.41558E-08-6.83647E-19 1.28070E-18
 -1       568 9.52204E-05-2.85681E-05-2.85653E-05-3.44893E-08 5.44863E-21 2.57238E-18
 -1       569 9.52254E-05-2.85719E-05-2.85658E-05-3.19040E-08 1.49527E-19 1.34943E-18
 -1       570 9.52307E-05-2.85759E-05-2.85664E-05-2.67519E-08-2.26185E-18 1.03158E-18
 -1       571 9.52505E-05-2.85944E-05-2.85669E-05-2.37595E-08 4.62755E-19 2.23656E-18
 -1       572 9.52535E-05-2.85976E-05-2.85668E-05-1.69367E-08 2.01376E-18-1.71747E-19
 -1       573 9.52401E-05-2.85844E-05-2.85667E-05-2.99877E-08-9.83663E-19 3.96885E-20
 -1       574 9.52460E-05-2.85900E-05-2.85668E-05-2.83711E-08-1.92255E-18-1.41747E-18
 -1       575 9.52552E-05-2.85995E-05-2.85667E-05-8.75285E-09-1.25584E-18-2.16606E-18
 -1       576 9.52558E-05-2.86001E-05-2.85667E-05 7.47137E-11-7.88816E-19-1.68389E-18
 -1       577 9.52552E-05-2.85995E-05-2.85667E-05 8.89654E-09-3.94854E-19 7.19766E-19
 -1       578 9.52535E-05-2.85976E-05-2.85668E-05 1.69385E-08 3.99937E-19-6.46237E-19
 -1       579 9.52505E-05-2.85944E-05-2.85669E-05 2.37673E-08 5.00222E-19-8.94763E-19
 -1       580 9.52460E-05-2.85899E-05-2.85669E-05 2.84321E-08-1.10552E-18 2.68108E-19
 -1       581 9.52400E-05-2.85842E-05-2.85668E-05 2.98513E-08-2.39913E-18 2.87116E-19
 -1       582 2.50873E-05-1.50615E-05-3.73412E-06 1.34104E-05-7.25523E-19 5.61128E-18
 -1       583 9.24002E-05-5.10034E-05-1.74180E-05 4.05489E-05-3.79476E-18-3.72536E-19
 -1       584 1.01423E-04-2.90601E-05-3.10045E-05-4.96120E-06 1.88842E-18 7.89297E-19
 -1       585 5.20986E-05-3.08466E-05-8.61263E-06 3.82426E-05-3.16552E-18 3.47834E-18
 -1       586 7.49886E-05-4.33583E-05-1.32547E-05-4.22924E-05 4.48139E-18 1.44125E-18
 -1       587 1.34929E-04-9.23320E-06-5.44947E-05 3.33677E-06-7.36463E-18-3.32658E-18
 -1       588 3.29743E-05-1.79818E-05-5.82575E-06 2.27792E-05 1.12311E-18-8.01156E-18
 -1       589 1.38060E-04-1.36897E-05-5.38320E-05-8.50886E-06 8.40744E-18-2.31280E-18
 -1       590 2.38641E-05-1.55330E-05-3.01937E-06-1.30714E-05 1.19203E-18 4.76827E-18
 -1       591 5.22355E-05-3.16373E-05-8.34353E-06-3.78498E-05 2.71051E-18 2.88198E-18
 -1       592 8.22306E-05-7.88536E-06-3.18735E-05-3.21485E-07 1.80974E-19-5.36453E-18
 -1       593 1.22862E-04-6.02309E-05-2.67601E-05 2.73016E-05-2.82824E-18-7.12355E-19
 -1       594 1.14062E-04-5.89827E-05-2.34746E-05-3.43884E-05-2.15877E-18-3.02957E-18
 -1       595 1.34272E-04-8.41741E-06-5.45355E-05 6.55826E-07 8.22300E-18-7.66876E-19
 -1       596 1.44564E-04-4.48177E-05-4.31042E-05 4.59494E-06 2.96136E-18 2.06099E-18
 -1       597 1.41332E-04-2.63553E-05-4.97589E-05-1.08695E-05-7.33186E-18 7.10343E-19
 -1       598 1.38215E-04-5.89815E-05-3.40691E-05-1.41637E-05 6.90332E-20 3.36113E-19
 -1       599 7.46130E-05-4.36491E-05-1.29305E-05-4.35527E-05-2.76032E-18-6.73873E-18
 -1       600 3.97311E-05-2.34550E-05-6.43596E-06-3.14625E-05-2.53967E-18-9.07146E-18
 -1       601 2.40340E-05-1.31370E-05-4.01980E-06-7.76608E-07-3.55497E-19-9.37115E-18
 -1       602 6.56429E-05-3.67411E-05-1.19180E-05 4.12418E-05 3.08855E-18-5.92584E-18
 -1       603 1.03414E-04-5.51891E-05-2.04422E-05 3.80991E-05 2.94010E-18-2.16359E-18
 -1       604 1.33702E-04-6.09497E-05-3.12151E-05 1.67666E-05 2.18111E-19 8.36736E-19
 -1       605 1.43761E-04-4.93375E-05-4.08013E-05-2.01854E-06-3.64371E-18 1.83457E-18
 -1       606 1.36752E-04-1.14956E-05-5.42305E-05-5.92510E-06-8.79538E-18-1.07152E-18
 -1       607 1.38922E-04-2.15737E-05-5.08392E-05 1.18817E-05-5.16346E-18-4.66064E-18
 -1       608 1.43464E-04-4.24833E-05-4.36506E-05 7.79601E-06-3.12539E-18-4.83084E-18
 -1       609 1.38055E-04-5.87202E-05-3.41547E-05-1.03610E-05 1.41961E-18-2.76895E-18
 -1       610 1.15891E-04-5.92598E-05-2.41345E-05-3.18268E-05 4.07132E-18-5.96219E-19
 -1       611 1.00504E-04-2.43338E-05-3.26478E-05 5.28575E-06 4.14879E-18 1.88507E-18
 -1       612 1.38371E-04-2.28678E-05-5.00422E-05 1.11598E-05 6.81422E-18 1.95389E-18
 -1       613 1.39662E-04-3.14686E-05-4.69151E-05-1.24842E-05 5.48157E-18-4.58430E-18
 -1       614 9.01132E-05-1.41060E-05-3.25964E-05-2.84499E-06-2.24334E-18-4.77806E-18
 -1       615 9.36361E-05-1.72713E-05-3.27487E-05-3.83835E-06-2.94465E-18-3.86912E-18
 -1       616 9.52331E-05-2.85780E-05-2.85665E-05 2.91713E-08-4.41677E-19 1.99582E-18
 -1       617 1.37618E-04-4.39832E-05-4.04773E-05-9.87087E-06 2.14187E-18-4.47538E-18
 -1       618 1.25664E-04-1.45231E-05-4.81521E-05 9.50485E-06 6.75652E-18 9.74022E-19
 -1       619 4.28942E-05-1.97492E-05-9.36900E-06-2.63618E-05 1.77549E-18 3.69952E-18
 -1       620 1.34558E-04-5.83997E-05-3.27620E-05 8.91020E-06-1.82997E-18-2.67654E-18
 -1       621 8.39132E-05-1.11056E-05-3.12069E-05-5.44156E-07 1.76135E-18-4.45603E-18
 -1       622 8.25405E-05-1.00216E-05-3.10827E-05-2.26470E-07 1.23529E-18-4.68170E-18
 -1       623 8.98971E-05-1.59918E-05-3.16783E-05-2.05247E-07 2.82760E-18-3.38083E-18
 -1       624 9.39044E-05-1.95346E-05-3.18791E-05 3.23035E-07 3.12391E-18-2.13521E-18
 -1       625 7.76176E-05-3.87480E-05-1.62481E-05 3.71347E-05-3.42744E-18 2.26052E-19
 -1       626 9.63749E-05-2.29168E-05-3.14837E-05 1.64449E-06-2.00155E-18-2.74023E-18
 -1       627 9.78006E-05-2.39751E-05-3.16304E-05-7.99451E-07 2.96464E-18-8.76670E-19
 -1       628 1.06765E-04-3.61943E-05-3.02507E-05-7.53509E-06-3.71795E-19 5.39107E-20
 -1       629 1.26956E-04-5.93839E-05-2.89530E-05-1.58190E-05 3.55839E-18-1.35791E-18
 -1       630 9.72208E-05-2.52060E-05-3.08616E-05 4.93407E-06-1.41802E-18-2.45453E-18
 -1       631 9.82106E-05-2.72840E-05-3.03965E-05 7.44277E-06-8.97640E-19-2.02485E-18
 -1       632 9.98103E-05-2.97206E-05-3.00392E-05 9.12329E-06-4.54270E-19-1.73713E-18
 -1       633 1.02445E-04-3.29522E-05-2.97848E-05 9.80814E-06-1.25390E-19-1.53127E-18
 -1       634 1.06519E-04-3.72060E-05-2.97067E-05 9.11093E-06 3.66580E-19-8.63539E-19
 -1       635 1.12085E-04-4.20768E-05-3.00091E-05 6.32895E-06 8.41212E-19-2.12116E-19
 -1       636 1.18464E-04-4.61188E-05-3.10202E-05 8.31465E-07 7.43539E-19 1.02444E-18
 -1       637 1.23133E-04-4.57798E-05-3.32250E-05-6.99845E-06-1.72824E-19 2.13508E-18
 -1       638 1.23297E-04-3.79680E-05-3.67012E-05-1.38667E-05-2.47570E-18 2.78000E-18
 -1       639 1.18194E-04-2.39154E-05-4.07156E-05-1.32684E-05-4.67337E-18 1.74114E-18
 -1       640 1.14062E-04-1.47409E-05-4.29189E-05-2.00277E-06-4.39907E-18-5.10611E-19
 -1       641 1.16009E-04-1.92830E-05-4.18129E-05 1.15773E-05-3.23440E-18-2.71907E-18
 -1       642 1.21958E-04-3.32724E-05-3.82345E-05 1.61597E-05-1.97964E-18-3.70744E-18
 -1       643 1.23992E-04-4.39898E-05-3.43503E-05 1.10737E-05-8.32253E-19-2.84660E-18
 -1       644 1.20413E-04-4.66263E-05-3.16438E-05 2.83067E-06 4.94335E-19-2.51061E-18
 -1       645 1.14228E-04-4.37023E-05-3.02325E-05-3.68167E-06 2.01095E-18-1.88812E-18
 -1       646 1.08204E-04-3.89976E-05-2.96638E-05-7.45607E-06 1.68295E-18-1.23560E-21
 -1       647 1.03544E-04-3.46681E-05-2.95212E-05-9.08122E-06 9.78884E-19 1.05954E-18
 -1       648 1.00360E-04-3.14418E-05-2.95377E-05-9.34936E-06 6.85913E-19 3.76142E-19
 -1       649 9.83473E-05-2.93355E-05-2.95767E-05-8.85139E-06-4.50660E-19-1.02666E-18
 -1       650 9.71362E-05-2.81088E-05-2.95828E-05-7.96258E-06-1.78051E-19-1.56743E-18
 -1       651 9.64269E-05-2.74885E-05-2.95445E-05-6.91050E-06-7.63681E-19-2.28100E-18
 -1       652 9.60144E-05-2.72515E-05-2.94692E-05-5.83152E-06 1.04958E-18-2.18971E-18
 -1       653 9.57706E-05-2.72382E-05-2.93705E-05-4.80616E-06 2.23108E-18-2.68034E-18
 -1       654 9.56208E-05-2.73435E-05-2.92612E-05-3.87885E-06 1.12997E-18-2.35373E-18
 -1       655 9.55230E-05-2.75020E-05-2.91514E-05-3.07018E-06 4.85493E-19-8.97146E-19
 -1       656 9.54547E-05-2.76753E-05-2.90480E-05-2.38500E-06-1.99253E-19 3.17338E-19
 -1       657 9.54041E-05-2.78420E-05-2.89549E-05-1.81835E-06 4.99352E-20-3.43864E-19
 -1       658 9.53651E-05-2.79917E-05-2.88741E-05-1.35960E-06-3.95740E-19-4.05072E-19
 -1       659 9.53344E-05-2.81203E-05-2.88059E-05-9.95376E-07 1.97433E-20-1.90171E-18
 -1       660 9.53102E-05-2.82273E-05-2.87497E-05-7.11508E-07-1.20046E-18-1.33826E-18
 -1       661 9.52911E-05-2.83139E-05-2.87044E-05-4.94263E-07-2.09745E-18-3.35946E-18
 -1       662 9.52762E-05-2.83826E-05-2.86686E-05-3.31059E-07-1.51869E-18-3.38219E-18
 -1       663 9.52647E-05-2.84361E-05-2.86408E-05-2.10829E-07 4.61895E-19-1.83819E-18
 -1       664 9.52561E-05-2.84768E-05-2.86197E-05-1.24137E-07 3.60319E-19-1.03151E-18
 -1       665 9.52498E-05-2.85073E-05-2.86039E-05-6.31478E-08-1.25321E-18-2.09713E-18
 -1       666 9.52452E-05-2.85297E-05-2.85923E-05-2.15131E-08-6.54119E-19-2.91335E-18
 -1       667 9.52420E-05-2.85459E-05-2.85840E-05 5.79151E-09 6.43359E-19-1.53160E-18
 -1       668 9.52399E-05-2.85575E-05-2.85782E-05 2.26387E-08 9.89656E-19 1.43563E-19
 -1       669 9.52387E-05-2.85659E-05-2.85741E-05 3.19198E-08 2.03359E-18 8.79800E-19
 -1       670 9.52383E-05-2.85723E-05-2.85712E-05 3.57236E-08 2.67473E-19 1.53016E-18
 -1       671 9.52386E-05-2.85776E-05-2.85690E-05 3.53760E-08 1.55598E-18 2.37381E-19
 -1       672 1.03307E-04-3.27053E-05-3.02610E-05-8.55169E-06 5.13698E-19-2.04321E-19
 -1       673 1.24045E-04-1.53456E-05-4.71094E-05 1.02275E-05-4.92285E-18-4.29901E-18
 -1       674 1.00946E-04-2.99971E-05-3.04074E-05-8.14575E-06 1.10673E-18-1.69177E-19
 -1       675 1.11287E-04-4.01398E-05-3.04993E-05-4.62137E-06-8.48134E-19 4.54027E-19
 -1       676 1.16191E-04-4.33178E-05-3.12407E-05 5.39035E-07-1.79717E-19 1.11219E-18
 -1       677 1.19699E-04-4.32692E-05-3.27861E-05 7.43928E-06 4.13564E-19 1.96939E-18
 -1       678 1.19537E-04-3.76729E-05-3.51224E-05 1.32676E-05 1.34150E-18 1.89447E-18
 -1       679 1.14804E-04-2.67295E-05-3.79063E-05 1.31978E-05 2.65047E-18 1.80013E-18
 -1       680 1.10580E-04-1.82000E-05-3.98053E-05 4.36028E-06 4.06177E-18-5.69497E-20
 -1       681 1.11543E-04-1.96967E-05-3.95786E-05-8.16911E-06 3.94609E-18-1.68596E-18
 -1       682 1.16413E-04-2.96559E-05-3.72993E-05-1.50513E-05 3.27775E-18-3.57739E-18
 -1       683 1.20052E-04-3.96127E-05-3.45229E-05-1.31526E-05 1.10771E-18-3.38854E-18
 -1       684 1.19344E-04-4.38179E-05-3.23816E-05-6.89556E-06-4.11457E-19-2.61039E-18
 -1       685 1.15231E-04-4.27888E-05-3.10558E-05-2.03728E-07-8.96958E-19-2.14253E-18
 -1       686 1.10290E-04-3.93144E-05-3.04240E-05 4.49491E-06-9.47024E-19-1.51769E-18
 -1       687 1.05970E-04-3.55665E-05-3.01770E-05 7.11321E-06-1.02836E-18-1.31447E-18
 -1       688 1.02708E-04-3.25150E-05-3.00855E-05 8.16857E-06 1.11496E-19-1.50638E-18
 -1       689 1.00433E-04-3.03798E-05-3.00240E-05 8.20357E-06 7.05337E-19 1.05103E-19
 -1       690 9.89030E-05-2.90402E-05-2.99412E-05 7.64339E-06-4.85187E-20-6.92019E-20
 -1       691 9.78782E-05-2.82827E-05-2.98261E-05 6.77868E-06 1.51323E-19 2.32619E-19
 -1       692 9.71798E-05-2.79107E-05-2.96859E-05 5.79873E-06-3.52009E-19 8.34722E-19
 -1       693 9.66886E-05-2.77747E-05-2.95336E-05 4.82083E-06-1.35915E-18 1.13198E-18
 -1       694 9.63307E-05-2.77728E-05-2.93811E-05 3.91250E-06-1.27978E-18 1.09326E-18
 -1       695 9.60620E-05-2.78402E-05-2.92372E-05 3.10804E-06-1.40244E-19-3.05538E-19
 -1       696 9.58562E-05-2.79374E-05-2.91074E-05 2.42013E-06 6.01426E-19-6.15471E-19
 -1       697 9.56970E-05-2.80419E-05-2.89945E-05 1.84803E-06-2.41426E-19 4.80380E-19
 -1       698 9.55739E-05-2.81416E-05-2.88991E-05 1.38328E-06-1.55760E-18-3.69163E-19
 -1       699 9.54791E-05-2.82305E-05-2.88205E-05 1.01351E-06-8.93210E-19-1.52928E-18
 -1       700 9.54069E-05-2.83066E-05-2.87570E-05 7.24951E-07 1.42093E-18-1.18775E-18
 -1       701 9.53528E-05-2.83697E-05-2.87069E-05 5.03933E-07 2.04020E-18-2.32348E-19
 -1       702 9.53129E-05-2.84207E-05-2.86680E-05 3.37813E-07 1.83713E-18 1.23521E-18
 -1       703 9.52842E-05-2.84611E-05-2.86384E-05 2.15398E-07 2.29211E-18 1.73635E-18
 -1       704 9.52640E-05-2.84924E-05-2.86163E-05 1.27112E-07 7.22385E-19 1.30251E-18
 -1       705 9.52503E-05-2.85163E-05-2.86003E-05 6.49911E-08-5.53493E-20 1.61218E-18
 -1       706 9.52415E-05-2.85342E-05-2.85888E-05 2.25692E-08-1.84060E-19 1.20644E-18
 -1       707 9.52362E-05-2.85474E-05-2.85809E-05-5.27680E-09 2.32501E-19 2.67713E-18
 -1       708 9.52334E-05-2.85571E-05-2.85755E-05-2.25021E-08 6.42532E-19 4.05674E-18
 -1       709 9.52324E-05-2.85644E-05-2.85720E-05-3.20582E-08-1.25231E-19 1.70646E-18
 -1       710 9.52327E-05-2.85700E-05-2.85697E-05-3.60660E-08-8.48481E-19 5.55836E-19
 -1       711 9.52340E-05-2.85748E-05-2.85683E-05-3.59738E-08 1.78923E-19 9.44664E-19
 -1       712 9.52373E-05-2.85794E-05-2.85676E-05-3.38352E-08-1.04934E-18 1.74625E-18
 -1       713 9.52585E-05-2.85905E-05-2.85720E-05-4.72830E-09-1.27223E-18-1.87232E-18
 -1       714 9.52543E-05-2.85884E-05-2.85711E-05-2.24577E-08 4.31688E-19 1.03658E-18
 -1       715 9.52585E-05-2.85905E-05-2.85720E-05 4.88628E-09-2.53574E-19 1.75620E-19
 -1       716 9.52572E-05-2.85899E-05-2.85717E-05-1.40601E-08-4.04707E-19-3.14357E-18
 -1       717 1.00391E-04-5.10671E-05-2.09061E-05-3.40512E-05 4.56498E-18-4.77806E-19
 -1       718 1.22898E-04-1.00837E-05-4.89017E-05 7.45157E-07-6.19943E-18-2.33023E-18
 -1       719 9.52572E-05-2.85899E-05-2.85717E-05 1.40586E-08 2.01330E-19 1.08028E-18
 -1       720 9.52544E-05-2.85885E-05-2.85711E-05 2.24817E-08 3.49644E-19-6.80354E-19
 -1       721 9.52496E-05-2.85860E-05-2.85701E-05 2.91891E-08 3.48929E-20-1.19597E-18
 -1       722 7.08104E-05-3.41394E-05-1.53007E-05-3.59530E-05 2.98963E-18 2.11202E-19
 -1       723 1.34208E-04-3.75516E-05-4.17870E-05-1.32498E-05-4.06578E-18 2.09572E-18
 -1       724 3.95918E-05-1.20935E-05-1.12583E-05 9.25626E-06 9.65366E-19-7.26251E-18
 -1       725 3.38641E-05-1.13931E-05-9.04184E-06-1.20078E-06 2.88739E-19 3.53970E-18
 -1       726 1.27798E-04-5.99717E-05-2.90323E-05-1.77890E-05-1.92074E-18 3.24493E-19
 -1       727 1.19954E-04-5.76959E-05-2.66265E-05 2.26255E-05 2.74285E-18-2.37556E-19
 -1       728 9.94484E-05-2.79075E-05-3.06586E-05-6.64119E-06 1.54149E-18-4.78994E-19
 -1       729 9.98317E-05-5.10494E-05-2.06774E-05-3.58605E-05-3.30870E-18-3.52245E-18
 -1       730 9.52391E-05-2.85809E-05-2.85678E-05 3.32637E-08 7.68601E-19 7.29544E-19
 -1       731 1.26130E-04-1.85663E-05-4.66132E-05-1.19644E-05-6.33247E-18 8.19213E-19
 -1       732 4.77090E-05-1.90698E-05-1.17433E-05 2.50202E-05-1.64146E-18 3.16811E-18
 -1       733 8.64558E-05-1.31431E-05-3.14241E-05-5.51410E-07 2.35733E-18-3.81379E-18
 -1       734 8.63352E-05-1.30293E-05-3.14209E-05 5.62477E-07-8.19977E-19-4.65875E-18
 -1       735 1.20213E-04-1.20975E-05-4.69316E-05-6.00674E-06 6.63227E-18-2.07690E-18
 -1       736 1.35797E-04-5.50045E-05-3.47659E-05-8.83886E-08-6.44713E-19 2.05750E-18
 -1       737 1.36481E-04-5.37052E-05-3.57235E-05 1.87245E-06 4.09092E-19 2.53591E-18
 -1       738 9.04979E-05-4.43433E-05-1.94864E-05 3.60078E-05 4.00821E-18-2.79060E-18
 -1       739 5.66535E-05-2.42368E-05-1.34427E-05 3.06356E-05 2.77769E-18-5.70450E-18
 -1       740 1.30759E-04-3.17403E-05-4.28101E-05 1.58485E-05-2.91186E-18-5.84416E-18
 -1       741 9.85108E-05-2.60674E-05-3.10425E-05-4.19256E-06 2.17039E-18-7.57854E-19
 -1       742 9.52330E-05-2.04401E-05-3.20532E-05-1.05214E-06-2.57371E-18-3.26211E-18
 -1       743 1.24453E-04-2.26278E-05-4.41207E-05-1.45557E-05 5.39393E-18-4.29627E-18
 -1       744 1.34990E-04-5.07761E-05-3.62729E-05 6.57099E-06 2.52456E-20-6.12213E-18
 -1       745 1.32235E-04-3.55591E-05-4.18467E-05 1.43302E-05 3.17770E-18 3.34125E-18
 -1       746 6.69174E-05-3.21895E-05-1.44403E-05-3.66489E-05-3.18183E-18-6.85586E-18
 -1       747 4.03683E-05-1.42139E-05-1.06717E-05-1.64177E-05-1.21199E-18-8.14173E-18
 -1       748 1.12490E-04-5.58348E-05-2.41770E-05 2.80722E-05-3.96781E-18-9.69654E-19
 -1       749 8.97671E-05-1.58598E-05-3.16751E-05 2.21707E-07-1.64561E-18-4.43297E-18
 -1       750 8.25160E-05-9.99903E-06-3.10819E-05 2.15106E-07 5.49912E-19-4.64067E-18
 -1       751 9.82669E-05-4.66768E-05-2.19061E-05 3.03785E-05-3.32226E-18-1.04152E-18
 -1       752 1.24909E-04-5.76639E-05-2.89591E-05 1.38473E-05-3.19013E-18-1.19307E-18
 -1       753 9.52452E-05-2.85842E-05-2.85690E-05-3.21243E-08-7.82556E-19-1.19972E-18
 -1       754 8.38337E-05-1.10329E-05-3.12039E-05 5.39256E-07-2.35118E-19-4.64362E-18
 -1       755 1.27018E-04-3.36591E-05-4.02809E-05-1.60721E-05 3.72223E-18-4.66232E-18
 -1       756 9.52504E-05-2.85868E-05-2.85701E-05-2.81708E-08 6.11653E-19 1.21347E-18
 -1       757 1.35868E-04-5.28921E-05-3.56746E-05-4.99253E-06-1.18792E-19-4.12704E-18
 -1       758 9.52451E-05-2.85819E-05-2.85699E-05 3.30848E-08-4.85832E-19-1.13656E-18
 -1       759 9.28471E-05-2.03333E-05-3.10747E-05-2.81969E-06 2.29684E-18-2.57227E-18
 -1       760 9.24553E-05-1.80402E-05-3.18922E-05-3.78445E-07-2.15595E-18-3.94566E-18
 -1       761 1.13235E-04-4.46555E-05-2.93786E-05-8.60429E-06-1.46170E-18 4.78404E-19
 -1       762 1.06320E-04-3.86796E-05-2.89915E-05-1.10878E-05-1.08087E-18-2.03936E-19
 -1       763 9.40356E-05-2.35014E-05-3.02274E-05 6.56315E-06-8.73474E-19-3.02178E-18
 -1       764 9.49929E-05-2.59941E-05-2.95710E-05 9.21536E-06-4.15921E-19-2.57248E-18
 -1       765 9.67173E-05-2.91339E-05-2.89640E-05 1.14470E-05 1.56766E-20-2.08023E-18
 -1       766 9.98814E-05-3.34841E-05-2.84532E-05 1.30627E-05 5.69157E-19-1.67656E-18
 -1       767 1.05282E-04-3.94699E-05-2.82181E-05 1.36617E-05 1.26698E-18-9.31074E-19
 -1       768 1.13756E-04-4.68594E-05-2.86217E-05 1.19749E-05 1.82682E-18-2.70552E-19
 -1       769 1.26876E-04-5.30576E-05-3.16508E-05-1.29790E-06 7.82764E-19-3.90414E-18
 -1       770 1.16576E-04-4.89403E-05-2.89693E-05-9.02876E-06 2.52029E-18-1.83172E-18
 -1       771 1.07415E-04-4.19358E-05-2.80516E-05-1.22972E-05 2.83698E-18-8.60357E-19
 -1       772 1.01028E-04-3.57257E-05-2.79852E-05-1.27144E-05 1.57922E-18-1.50970E-18
 -1       773 9.71099E-05-3.12441E-05-2.82283E-05-1.18552E-05 1.40483E-18-1.46164E-18
 -1       774 9.49913E-05-2.84240E-05-2.85285E-05-1.05409E-05-5.32709E-19-8.35673E-19
 -1       775 9.40053E-05-2.68468E-05-2.87817E-05-9.12967E-06-4.31413E-19-3.45509E-19
 -1       776 9.36737E-05-2.61085E-05-2.89561E-05-7.76433E-06-4.51832E-19 1.75144E-20
 -1       777 9.36897E-05-2.58965E-05-2.90540E-05-6.49836E-06-2.30638E-19 7.36423E-19
 -1       778 9.38685E-05-2.59906E-05-2.90903E-05-5.35473E-06 5.06613E-19 3.70239E-19
 -1       779 9.41047E-05-2.62447E-05-2.90826E-05-4.34371E-06 7.06389E-19-1.54479E-18
 -1       780 9.43425E-05-2.65662E-05-2.90468E-05-3.46797E-06 1.38663E-18-2.68486E-18
 -1       781 9.45557E-05-2.68996E-05-2.89954E-05-2.72420E-06 4.68180E-19-2.61060E-18
 -1       782 9.47345E-05-2.72138E-05-2.89373E-05-2.10439E-06-1.20851E-19-2.60735E-18
 -1       783 9.48778E-05-2.74934E-05-2.88789E-05-1.59727E-06-3.54533E-19-3.10668E-18
 -1       784 9.49888E-05-2.77327E-05-2.88240E-05-1.18965E-06-5.21450E-19-3.35445E-18
 -1       785 9.50723E-05-2.79313E-05-2.87747E-05-8.67664E-07-3.89904E-19-2.59966E-18
 -1       786 9.51335E-05-2.80923E-05-2.87319E-05-6.17672E-07-1.60978E-18-1.46861E-18
 -1       787 9.51770E-05-2.82201E-05-2.86958E-05-4.26948E-07-2.07236E-18 6.84052E-19
 -1       788 9.52070E-05-2.83194E-05-2.86661E-05-2.84068E-07-5.37785E-19 5.01794E-19
 -1       789 9.52269E-05-2.83952E-05-2.86421E-05-1.79097E-07 2.85672E-19-5.09551E-19
 -1       790 9.52392E-05-2.84519E-05-2.86231E-05-1.03630E-07-1.52000E-18-1.23641E-18
 -1       791 9.52463E-05-2.84935E-05-2.86083E-05-5.07270E-08-1.55041E-19-9.77727E-19
 -1       792 9.52496E-05-2.85234E-05-2.85969E-05-1.47891E-08 1.27676E-18 6.13661E-19
 -1       793 9.52505E-05-2.85445E-05-2.85883E-05 8.59419E-09 1.91091E-18 1.49727E-18
 -1       794 9.52499E-05-2.85593E-05-2.85817E-05 2.28072E-08 2.15302E-18 1.21645E-18
 -1       795 9.52485E-05-2.85697E-05-2.85766E-05 3.03241E-08 1.01152E-18-1.31107E-19
 -1       796 9.52465E-05-2.85765E-05-2.85729E-05 3.32010E-08-2.67253E-19 2.20623E-19
 -1       797 1.01463E-04-3.35076E-05-2.91251E-05-1.13502E-05-1.22751E-19-7.68041E-19
 -1       798 1.21312E-04-4.94118E-05-3.08236E-05-2.68438E-06-1.02928E-18 2.06685E-18
 -1       799 1.26979E-04-4.99402E-05-3.30302E-05-5.72136E-06-1.29200E-18-3.67147E-18
 -1       800 1.19391E-04-4.84315E-05-3.04171E-05 3.04948E-06-1.32448E-18-2.08088E-18
 -1       801 1.11179E-04-4.31764E-05-2.91426E-05 8.18465E-06-1.03276E-18-1.56517E-18
 -1       802 1.04686E-04-3.75302E-05-2.87778E-05 1.03808E-05-1.43785E-18-9.74913E-19
 -1       803 1.00243E-04-3.29981E-05-2.88198E-05 1.07138E-05-1.17209E-18-1.06328E-19
 -1       804 9.75300E-05-2.99153E-05-2.89776E-05 1.01034E-05-7.79071E-20-3.51197E-19
 -1       805 9.60139E-05-2.80494E-05-2.91272E-05 9.08550E-06-3.67448E-20 8.31125E-19
 -1       806 9.52470E-05-2.70578E-05-2.92236E-05 7.91495E-06-1.02921E-18 1.43500E-18
 -1       807 9.49168E-05-2.66418E-05-2.92603E-05 6.72847E-06-9.25796E-19 3.04471E-18
 -1       808 9.48208E-05-2.65748E-05-2.92479E-05 5.60174E-06-1.43513E-19 2.37280E-18
 -1       809 9.48383E-05-2.67012E-05-2.92013E-05 4.57557E-06-4.40413E-19 1.09657E-18
 -1       810 9.49021E-05-2.69211E-05-2.91345E-05 3.67030E-06-2.93549E-19 5.83981E-19
 -1       811 9.49773E-05-2.71732E-05-2.90587E-05 2.89261E-06-1.75430E-19 1.14082E-18
 -1       812 9.50473E-05-2.74226E-05-2.89819E-05 2.23984E-06 6.20176E-19 2.05290E-18
 -1       813 9.51059E-05-2.76507E-05-2.89092E-05 1.70324E-06-7.51547E-19 1.24865E-18
 -1       814 9.51516E-05-2.78494E-05-2.88437E-05 1.27057E-06-5.01761E-19 2.97386E-19
 -1       815 9.51856E-05-2.80165E-05-2.87867E-05 9.28044E-07 5.84105E-19-7.69935E-19
 -1       816 9.52098E-05-2.81531E-05-2.87385E-05 6.61680E-07 1.51565E-18-1.24400E-19
 -1       817 9.52263E-05-2.82624E-05-2.86988E-05 4.58208E-07 1.69604E-18-1.03035E-18
 -1       818 9.52369E-05-2.83480E-05-2.86667E-05 3.05612E-07 6.92832E-19-8.68344E-19
 -1       819 9.52433E-05-2.84138E-05-2.86412E-05 1.93389E-07 2.69205E-19 1.12180E-18
 -1       820 9.52466E-05-2.84633E-05-2.86214E-05 1.12622E-07 5.96238E-19 2.61771E-18
 -1       821 9.52479E-05-2.84999E-05-2.86063E-05 5.59323E-08-1.06044E-19 2.16400E-18
 -1       822 9.52479E-05-2.85264E-05-2.85949E-05 1.73544E-08-1.61723E-18 3.28191E-18
 -1       823 9.52470E-05-2.85453E-05-2.85864E-05-7.82023E-09-4.00696E-19 2.80117E-18
 -1       824 9.52458E-05-2.85586E-05-2.85802E-05-2.32186E-08 1.89873E-18 2.36089E-18
 -1       825 9.52445E-05-2.85681E-05-2.85756E-05-3.14789E-08 6.65351E-19 2.17226E-18
 -1       826 9.52435E-05-2.85752E-05-2.85721E-05-3.45575E-08 2.58347E-20 1.21089E-18
 -1       827 9.52444E-05-2.85796E-05-2.85706E-05-3.39669E-08-9.10931E-19 9.97854E-19
 -1       828 1.12996E-04-5.24826E-05-2.58582E-05-2.13309E-05 3.76826E-18-8.31118E-20
 -1       829 9.52616E-05-2.85805E-05-2.85776E-05 7.30674E-11-6.04112E-20-1.34436E-18
 -1       830 9.28466E-05-4.21984E-05-2.15479E-05-2.95448E-05 3.59406E-18-6.66191E-19
 -1       831 9.52544E-05-2.85800E-05-2.85747E-05 2.63031E-08-9.22487E-19-6.21707E-19
 -1       832 1.05679E-04-4.78090E-05-2.47360E-05 2.52266E-05 3.07004E-18-1.42804E-18
 -1       833 1.25872E-04-5.43446E-05-3.06449E-05 6.42632E-06 1.30570E-18 8.32726E-19
 -1       834 5.17037E-05-1.22955E-05-1.66039E-05-4.75135E-06-1.13191E-19-6.53572E-18
 -1       835 9.66827E-05-2.67373E-05-2.99762E-05-8.40609E-06 1.03518E-18-1.43995E-18
 -1       836 7.82220E-05-3.12443E-05-1.99498E-05 2.91283E-05 2.84822E-18-3.31951E-18
 -1       837 9.52587E-05-2.85805E-05-2.85764E-05 1.82843E-08-1.00402E-18-1.56043E-18
 -1       838 9.84305E-05-2.96096E-05-2.94953E-05-1.02987E-05 6.50744E-19-1.17184E-18
 -1       839 6.03682E-05-2.20807E-05-1.60710E-05-2.47128E-05 1.89684E-18 1.39599E-18
 -1       840 5.69025E-05-1.69343E-05-1.68653E-05 1.81688E-05 1.80854E-18-5.01713E-18
 -1       841 4.81717E-05-1.30571E-05-1.47263E-05 9.15329E-06 5.19304E-21 3.16065E-18
 -1       842 9.32860E-05-2.11023E-05-3.09362E-05 3.52752E-06-1.37065E-18-3.46103E-18
 -1       843 1.30403E-04-4.84419E-05-3.51972E-05-7.07592E-06-9.52700E-19 1.85038E-18
 -1       844 6.92460E-05-2.79847E-05-1.74186E-05 2.89779E-05-2.06508E-18 9.23266E-20
 -1       845 1.27512E-04-5.45232E-05-3.13113E-05-4.84646E-06-9.44263E-19 1.37304E-18
 -1       846 4.65973E-05-1.29233E-05-1.40814E-05-9.54325E-06 8.61166E-19 3.05369E-18
 -1       847 9.58150E-05-2.33493E-05-3.10580E-05-3.55535E-06 2.28782E-18-1.54436E-18
 -1       848 1.26906E-04-4.82154E-05-3.38002E-05 6.37795E-06 6.06720E-19 2.93750E-18
 -1       849 1.13478E-04-5.23959E-05-2.60936E-05-2.20897E-05-2.81996E-18-1.05490E-18
 -1       850 6.25080E-05-2.15219E-05-1.72969E-05-2.43038E-05-1.86053E-18-6.46160E-18
 -1       851 8.32319E-05-1.25334E-05-3.03003E-05-1.33517E-06 1.30495E-18-4.16088E-18
 -1       852 9.52609E-05-2.85805E-05-2.85773E-05 9.38680E-09 3.66693E-19 1.56736E-18
 -1       853 8.83012E-05-3.98094E-05-2.05820E-05-3.22787E-05-3.34779E-18-3.80878E-18
 -1       854 8.24053E-05-1.18805E-05-3.02259E-05-2.66098E-08 7.36702E-19-4.12856E-18
 -1       855 1.13898E-04-5.31661E-05-2.59663E-05 2.09392E-05-2.72187E-18 6.28120E-20
 -1       856 8.87424E-05-1.69142E-05-3.07860E-05 2.79372E-06-9.52229E-19-3.88136E-18
 -1       857 9.61558E-05-2.49908E-05-3.04989E-05-6.19158E-06 1.47955E-18-1.53824E-18
 -1       858 9.52587E-05-2.85806E-05-2.85763E-05-1.82942E-08-1.16530E-18-1.49077E-18
 -1       859 9.52609E-05-2.85805E-05-2.85773E-05-9.30400E-09-1.15873E-18-2.84549E-18
 -1       860 7.98489E-05-3.10701E-05-2.07897E-05-2.61864E-05 2.52779E-18-1.30265E-18
 -1       861 6.20531E-05-1.91899E-05-1.81820E-05 1.85218E-05-9.91584E-19 5.78709E-19
 -1       862 8.88932E-05-1.70493E-05-3.07906E-05-2.79136E-06 1.89460E-18-3.24821E-18
 -1       863 8.65297E-05-3.62485E-05-2.14023E-05 2.75433E-05-2.46043E-18-1.40711E-18
 -1       864 9.52551E-05-2.85806E-05-2.85748E-05-2.51335E-08 6.41812E-19 1.80074E-18
 -1       865 8.55203E-05-1.43429E-05-3.05057E-05-2.31112E-06 1.66258E-18-3.73260E-18
 -1       866 8.54047E-05-1.42384E-05-3.05018E-05 2.29029E-06-3.75172E-19-4.18543E-18
 -1       867 9.52509E-05-2.85782E-05-2.85740E-05 3.00489E-08-1.88430E-19-2.63291E-19
 -1       868 1.03923E-04-4.05916E-05-2.71286E-05-1.69058E-05-1.89250E-18-1.12532E-18
 -1       869 7.28418E-05-2.23472E-05-2.15673E-05 1.97299E-05 1.92070E-18-3.67096E-18
 -1       870 9.06794E-05-2.43060E-05-2.84445E-05 1.08174E-05 1.53737E-19-2.81780E-18
 -1       871 9.18763E-05-2.77386E-05-2.74913E-05 1.40416E-05 6.56291E-19-2.67788E-18
 -1       872 9.50668E-05-3.29815E-05-2.65725E-05 1.73920E-05 1.26116E-18-2.27593E-18
 -1       873 1.03565E-04-4.37250E-05-2.55690E-05-2.03854E-05 2.71644E-18 2.90258E-19
 -1       874 9.59987E-05-3.55530E-05-2.58948E-05-1.78896E-05 1.52867E-18-1.44503E-18
 -1       875 9.19967E-05-3.00677E-05-2.65448E-05-1.48543E-05 1.44367E-18-1.37605E-18
 -1       876 9.03392E-05-2.68260E-05-2.72197E-05-1.21584E-05 1.11629E-18-1.91552E-18
 -1       877 8.99984E-05-2.51461E-05-2.77927E-05-9.93858E-06 2.63887E-19-6.45945E-19
 -1       878 9.02944E-05-2.44351E-05-2.82250E-05-8.14601E-06 2.05982E-19-4.84394E-19
 -1       879 9.08876E-05-2.43258E-05-2.85262E-05-6.67557E-06 3.97769E-19-2.86853E-19
 -1       880 9.15802E-05-2.45660E-05-2.87202E-05-5.44772E-06-5.13872E-19 3.60784E-19
 -1       881 9.22645E-05-2.49887E-05-2.88324E-05-4.41110E-06-1.28168E-18-1.26965E-19
 -1       882 9.28861E-05-2.54861E-05-2.88856E-05-3.53418E-06 3.08657E-19-1.11480E-18
 -1       883 9.34217E-05-2.59914E-05-2.88986E-05-2.79618E-06 1.17574E-18-2.29417E-18
 -1       884 9.38664E-05-2.64657E-05-2.88860E-05-2.18117E-06-3.57685E-20-2.04185E-18
 -1       885 9.42253E-05-2.68889E-05-2.88584E-05-1.67522E-06-5.65825E-19-2.11609E-18
 -1       886 9.45079E-05-2.72531E-05-2.88235E-05-1.26499E-06-8.34821E-19-2.25340E-18
 -1       887 9.47256E-05-2.75576E-05-2.87863E-05-9.37468E-07 4.10513E-19-1.92956E-18
 -1       888 9.48899E-05-2.78063E-05-2.87501E-05-6.80128E-07 1.13491E-19 2.05352E-19
 -1       889 9.50111E-05-2.80051E-05-2.87169E-05-4.81234E-07-9.99518E-19-8.65147E-20
 -1       890 9.50985E-05-2.81610E-05-2.86875E-05-3.30122E-07-1.15292E-18 1.39653E-18
 -1       891 9.51597E-05-2.82810E-05-2.86623E-05-2.17374E-07-1.53573E-18 4.29068E-19
 -1       892 9.52011E-05-2.83715E-05-2.86412E-05-1.34891E-07-6.99569E-19-1.93555E-18
 -1       893 9.52278E-05-2.84385E-05-2.86240E-05-7.58753E-08-7.06293E-19-1.09214E-18
 -1       894 9.52439E-05-2.84871E-05-2.86100E-05-3.47491E-08 1.78266E-18 5.94575E-19
 -1       895 9.52525E-05-2.85217E-05-2.85989E-05-7.03316E-09 2.12194E-18 7.52302E-19
 -1       896 9.52560E-05-2.85457E-05-2.85901E-05 1.07566E-08 1.54209E-18 1.36644E-18
 -1       897 9.52563E-05-2.85625E-05-2.85831E-05 2.12968E-08 1.01801E-18 6.43243E-19
 -1       898 9.52588E-05-2.85706E-05-2.85807E-05 2.04280E-08-6.51541E-19-1.36921E-18
 -1       899 9.62299E-05-3.27844E-05-2.71917E-05 1.42633E-05-1.69807E-18-7.23469E-20
 -1       900 9.34874E-05-2.89294E-05-2.76648E-05 1.22565E-05-7.18846E-19-4.02144E-19
 -1       901 9.22706E-05-2.66807E-05-2.81083E-05 1.03742E-05-5.68236E-19 5.18118E-19
 -1       902 9.19493E-05-2.55442E-05-2.84589E-05 8.69666E-06-1.63826E-18-8.11277E-20
 -1       903 9.21115E-05-2.51353E-05-2.87039E-05 7.23290E-06-1.80901E-18-1.16005E-20
 -1       904 9.24963E-05-2.51648E-05-2.88562E-05 5.96293E-06-5.86745E-20 4.54856E-19
 -1       905 9.29541E-05-2.54358E-05-2.89364E-05 4.86273E-06-1.33361E-19 1.31336E-18
 -1       906 9.34055E-05-2.58219E-05-2.89644E-05 3.91562E-06 3.82934E-19 1.71994E-18
 -1       907 9.38114E-05-2.62439E-05-2.89575E-05 3.10930E-06-3.46879E-20 2.53717E-18
 -1       908 9.41564E-05-2.66551E-05-2.89291E-05 2.43224E-06-1.80495E-19 1.77905E-18
 -1       909 9.44384E-05-2.70299E-05-2.88894E-05 1.87237E-06-3.13043E-19 2.24601E-18
 -1       910 9.46621E-05-2.73569E-05-2.88451E-05 1.41678E-06 4.28111E-19 1.47057E-18
 -1       911 9.48349E-05-2.76329E-05-2.88009E-05 1.05206E-06 9.98892E-19-5.48672E-20
 -1       912 9.49654E-05-2.78599E-05-2.87595E-05 7.64875E-07 1.22060E-18-1.40440E-18
 -1       913 9.50616E-05-2.80425E-05-2.87225E-05 5.42517E-07 2.65086E-18-7.67703E-20
 -1       914 9.51308E-05-2.81863E-05-2.86905E-05 3.73298E-07 2.44604E-19 9.35418E-19
 -1       915 9.51791E-05-2.82974E-05-2.86636E-05 2.46838E-07-1.99278E-20 1.99359E-18
 -1       916 9.52116E-05-2.83817E-05-2.86414E-05 1.54167E-07 5.54073E-20 3.84948E-19
 -1       917 9.52325E-05-2.84443E-05-2.86235E-05 8.77356E-08-1.34769E-18 1.14304E-18
 -1       918 9.52448E-05-2.84899E-05-2.86093E-05 4.13316E-08-8.21684E-19 2.43825E-18
 -1       919 9.52513E-05-2.85224E-05-2.85981E-05 9.96156E-09-6.12071E-19 1.29424E-18
 -1       920 9.52538E-05-2.85452E-05-2.85894E-05-1.02852E-08 1.10750E-18 7.77831E-19
 -1       921 9.52538E-05-2.85611E-05-2.85826E-05-2.24544E-08 1.83931E-18 1.17464E-19
 -1       922 9.52522E-05-2.85721E-05-2.85772E-05-2.87729E-08 5.68818E-19 5.09305E-19
 -1       923 9.29751E-05-2.53294E-05-2.89906E-05-1.01655E-05 4.71615E-19-2.31693E-18
 -1       924 9.45892E-05-2.87427E-05-2.82191E-05-1.28470E-05-1.61399E-19-1.84767E-18
 -1       925 9.97680E-05-4.18319E-05-2.47723E-05-2.36330E-05-2.63456E-18-1.97946E-18
 -1       926 9.34864E-05-3.61501E-05-2.45247E-05 2.30741E-05 2.14790E-18-2.41253E-18
 -1       927 8.31795E-05-1.24821E-05-3.02996E-05 1.29040E-06 2.71587E-19-4.12469E-18
 -1       928 6.53946E-05-1.69894E-05-2.06528E-05-1.35375E-05-1.08716E-18-5.43563E-18
 -1       929 1.01789E-04-3.89843E-05-2.69294E-05 1.58022E-05-1.56229E-18-2.64558E-19
 -1       930 1.06194E-04-4.50298E-05-2.62065E-05 1.86681E-05-1.87247E-18-8.06159E-19
 -1       931 7.97098E-05-2.82842E-05-2.19352E-05-2.40565E-05-2.32239E-18-3.95383E-18
 -1       932 9.02215E-05-2.17257E-05-2.93569E-05 7.83364E-06-3.95816E-19-3.15524E-18
 -1       933 6.18888E-05-1.41570E-05-2.03663E-05 6.49992E-06 8.87608E-19-4.56052E-18
 -1       934 1.14463E-04-4.87551E-05-2.81174E-05-1.39106E-05-2.21245E-18-9.85602E-20
 -1       935 9.78931E-05-3.36526E-05-2.75322E-05-1.52957E-05-1.10673E-18-1.39039E-18
 -1       936 9.52504E-05-2.85806E-05-2.85728E-05-3.03556E-08 4.59554E-19 3.35086E-19
 -1       937 9.07050E-05-2.04805E-05-3.00941E-05 5.66764E-06-6.35956E-19-3.33159E-18
 -1       938 9.27193E-05-2.33375E-05-2.97335E-05-7.73157E-06 1.01639E-18-2.54865E-18
 -1       939 9.78202E-05-4.17288E-05-2.39267E-05 2.36888E-05-2.36141E-18 1.12455E-18
 -1       940 9.52633E-05-2.85683E-05-2.85836E-05-4.06244E-09-5.03459E-19-4.67095E-19
 -1       941 9.52538E-05-2.85716E-05-2.85781E-05 2.69078E-08-8.07283E-19-1.27784E-20
 -1       942 8.65866E-05-1.73511E-05-2.96714E-05 4.86854E-06-3.37334E-19-3.62241E-18
 -1       943 9.52620E-05-2.85693E-05-2.85826E-05 1.24747E-08-9.21089E-20-1.59924E-18
 -1       944 9.52619E-05-2.85692E-05-2.85826E-05-1.22916E-08-8.65761E-19-2.90599E-18
 -1       945 6.72728E-05-2.04758E-05-1.99310E-05-1.83373E-05 2.06803E-18-3.41195E-19
 -1       946 7.44241E-05-2.58534E-05-2.08073E-05 2.24073E-05-1.49174E-18-1.27081E-18
 -1       947 9.13922E-05-2.08462E-05-3.02336E-05-5.46674E-06 1.29630E-18-2.86352E-18
 -1       948 9.52632E-05-2.85683E-05-2.85836E-05 4.11876E-09 1.82311E-18 3.12793E-19
 -1       949 8.19571E-05-1.36030E-05-2.92940E-05-1.25550E-06 7.98938E-19-3.76172E-18
 -1       950 6.74497E-05-1.45784E-05-2.26281E-05-3.17350E-06 1.28346E-19-4.48076E-18
 -1       951 5.88669E-05-1.43997E-05-1.89158E-05 6.70967E-06-6.33207E-21 1.93000E-18
 -1       952 5.74184E-05-1.40079E-05-1.84522E-05-6.51405E-06 1.01745E-18 2.69037E-18
 -1       953 9.52596E-05-2.85711E-05-2.85808E-05-1.95581E-08-1.29712E-18-1.17542E-18
 -1       954 8.38885E-05-1.50880E-05-2.94882E-05-3.40061E-06 1.03819E-18-3.77387E-18
 -1       955 8.42154E-05-2.47065E-05-2.54928E-05 1.59841E-05 1.19520E-18-3.10860E-18
 -1       956 7.22100E-05-1.76153E-05-2.33899E-05 1.11349E-05 9.79425E-19-3.51249E-18
 -1       957 8.85023E-05-2.66765E-05-2.64871E-05-1.53442E-05-8.59638E-19-2.80679E-18
 -1       958 8.79069E-05-2.36276E-05-2.75489E-05 8.91529E-06-1.19357E-18 3.00378E-19
 -1       959 8.40071E-05-2.41546E-05-2.56562E-05-1.30450E-05 8.14865E-19-6.52691E-19
 -1       960 8.49509E-05-2.28245E-05-2.66254E-05-9.98355E-06 8.11549E-19-6.45034E-19
 -1       961 8.63269E-05-2.24442E-05-2.73777E-05-7.79460E-06 3.32392E-20-1.17680E-18
 -1       962 8.77300E-05-2.25935E-05-2.79155E-05-6.19441E-06 2.45636E-19-9.64406E-19
 -1       963 8.90547E-05-2.30522E-05-2.82867E-05-4.96700E-06 5.43970E-19-1.03701E-18
 -1       964 9.02461E-05-2.36718E-05-2.85318E-05-3.98972E-06-7.88567E-19-1.38247E-18
 -1       965 9.12825E-05-2.43535E-05-2.86839E-05-3.19267E-06-1.12493E-18-1.16438E-18
 -1       966 9.21593E-05-2.50311E-05-2.87693E-05-2.53491E-06-1.21880E-19-1.20625E-18
 -1       967 9.28845E-05-2.56644E-05-2.88086E-05-1.99077E-06 4.63219E-19-2.36116E-18
 -1       968 9.34721E-05-2.62314E-05-2.88175E-05-1.54291E-06-1.45657E-19-1.63921E-18
 -1       969 9.39393E-05-2.67226E-05-2.88072E-05-1.17792E-06-7.87803E-20-1.12906E-18
 -1       970 9.43041E-05-2.71368E-05-2.87860E-05-8.84213E-07 1.80760E-20 2.12857E-19
 -1       971 9.45836E-05-2.74781E-05-2.87595E-05-6.51202E-07-1.54925E-20-1.55475E-18
 -1       972 9.47937E-05-2.77536E-05-2.87315E-05-4.69150E-07 7.54014E-21-1.89866E-18
 -1       973 9.49485E-05-2.79718E-05-2.87043E-05-3.29187E-07-5.71687E-19 1.16688E-18
 -1       974 9.50598E-05-2.81413E-05-2.86794E-05-2.23402E-07-2.31537E-18 5.27678E-19
 -1       975 9.51377E-05-2.82705E-05-2.86574E-05-1.44898E-07-1.76281E-18 1.14308E-18
 -1       976 9.51904E-05-2.83673E-05-2.86385E-05-8.78050E-08-2.05959E-19 1.30960E-18
 -1       977 9.52243E-05-2.84382E-05-2.86226E-05-4.72369E-08 1.71455E-18 1.19333E-18
 -1       978 9.52446E-05-2.84892E-05-2.86095E-05-1.92126E-08 1.67164E-18 7.17125E-19
 -1       979 9.52554E-05-2.85250E-05-2.85987E-05-5.14812E-10 2.10093E-18 1.40606E-19
 -1       980 9.52598E-05-2.85499E-05-2.85900E-05 1.13759E-08 1.01147E-18-3.06513E-19
 -1       981 8.73027E-05-2.46216E-05-2.68649E-05 1.12843E-05-1.26422E-18-3.31304E-19
 -1       982 9.52626E-05-2.85529E-05-2.85898E-05-5.86626E-09 1.74552E-19-3.50633E-19
 -1       983 7.81157E-05-2.22868E-05-2.38995E-05-1.62736E-05-1.18659E-18-4.13094E-18
 -1       984 8.74035E-05-2.68074E-05-2.59710E-05 1.44766E-05-1.01898E-18-8.93930E-19
 -1       985 8.88293E-05-2.33981E-05-2.80419E-05 7.15872E-06-1.44550E-18-3.98353E-20
 -1       986 8.98352E-05-2.36090E-05-2.83828E-05 5.78554E-06-1.22885E-18-4.27217E-19
 -1       987 9.08085E-05-2.40607E-05-2.86064E-05 4.67472E-06-8.58360E-19-5.75119E-19
 -1       988 9.16922E-05-2.46278E-05-2.87420E-05 3.75673E-06-1.31216E-19 1.38267E-19
 -1       989 9.24596E-05-2.52261E-05-2.88145E-05 2.99234E-06-2.23715E-19-1.74196E-20
 -1       990 9.31044E-05-2.58033E-05-2.88434E-05 2.35621E-06-1.11669E-19 1.97476E-19
 -1       991 9.36322E-05-2.63301E-05-2.88439E-05 1.83041E-06-1.07425E-20 4.34994E-19
 -1       992 9.40545E-05-2.67920E-05-2.88269E-05 1.40052E-06 6.55546E-19-8.90912E-19
 -1       993 9.43856E-05-2.71849E-05-2.88003E-05 1.05368E-06 1.27061E-18-1.46574E-18
 -1       994 9.46400E-05-2.75107E-05-2.87697E-05 7.77895E-07 1.00595E-18 8.66335E-20
 -1       995 9.48316E-05-2.77750E-05-2.87386E-05 5.61984E-07 4.40396E-19 2.53379E-19
 -1       996 9.49730E-05-2.79852E-05-2.87091E-05 3.95663E-07 8.88768E-19 3.19053E-18
 -1       997 9.50748E-05-2.81491E-05-2.86824E-05 2.69704E-07 7.68935E-19 3.44434E-19
 -1       998 9.51461E-05-2.82746E-05-2.86592E-05 1.76033E-07 4.97890E-19-1.99163E-18
 -1       999 9.51943E-05-2.83688E-05-2.86395E-05 1.07747E-07-1.38050E-18-1.05404E-18
 -1      1000 9.52255E-05-2.84382E-05-2.86231E-05 5.90939E-08-1.42814E-18-1.49187E-18
 -1      1001 9.52442E-05-2.84882E-05-2.86097E-05 2.53638E-08 6.99827E-19-2.06905E-18
 -1      1002 9.52542E-05-2.85236E-05-2.85988E-05 2.77902E-09 3.38074E-19-3.46526E-18
 -1      1003 9.52583E-05-2.85482E-05-2.85900E-05-1.18131E-08 4.33634E-19-3.25642E-18
 -1      1004 8.78918E-05-2.32803E-05-2.76883E-05-1.15425E-05-1.18198E-19-2.99982E-18
 -1      1005 8.55853E-05-1.96259E-05-2.82676E-05 8.26452E-06 4.16449E-20-3.22600E-18
 -1      1006 8.90132E-05-3.07939E-05-2.49244E-05 1.86311E-05-1.44847E-18-1.47706E-19
 -1      1007 6.88029E-05-1.89399E-05-2.12881E-05 1.43968E-05-1.15261E-18-1.11170E-18
 -1      1008 9.03004E-05-3.17922E-05-2.50445E-05-2.01985E-05-1.55722E-18-2.80064E-18
 -1      1009 8.72354E-05-1.76483E-05-2.98257E-05-4.84243E-06 1.27369E-18-3.33093E-18
 -1      1010 8.33157E-05-1.48618E-05-2.93370E-05 3.18788E-06 1.11020E-19-3.68001E-18
 -1      1011 8.18227E-05-1.36115E-05-2.92348E-05 1.02854E-06 4.02967E-19-3.67985E-18
 -1      1012 8.48481E-05-2.18572E-05-2.69970E-05 1.16502E-05 5.84735E-19-3.05827E-18
 -1      1013 8.14847E-05-2.65492E-05-2.35094E-05-1.86557E-05 1.75118E-18-4.86040E-19
 -1      1014 8.14651E-05-1.53995E-05-2.83147E-05-3.61793E-06 4.16380E-19-3.76236E-18
 -1      1015 8.84709E-05-2.14538E-05-2.87188E-05-8.81950E-06 3.87326E-19-3.19716E-18
 -1      1016 9.52613E-05-2.85561E-05-2.85880E-05-1.12845E-08-1.77271E-18-2.49318E-18
 -1      1017 7.24262E-05-1.51781E-05-2.45276E-05 3.31449E-06 6.01733E-19-3.72683E-18
 -1      1018 7.49016E-05-1.72873E-05-2.47105E-05-8.93555E-06-3.81873E-19-4.10044E-18
 -1      1019 9.52629E-05-2.85519E-05-2.85904E-05 1.17185E-10 3.01605E-19 1.12558E-18
 -1      1020 6.73605E-05-1.58923E-05-2.20075E-05 4.62706E-06-3.01029E-19 2.98886E-19
 -1      1021 8.78141E-05-1.95260E-05-2.92667E-05-6.76675E-06 7.84608E-19-3.42124E-18
 -1      1022 8.52935E-05-3.20152E-05-2.26987E-05 2.31157E-05-1.13281E-18-6.67318E-19
 -1      1023 6.63518E-05-1.54886E-05-2.17395E-05-4.45386E-06 7.02355E-19 4.41939E-19
 -1      1024 8.00493E-05-1.44687E-05-2.81055E-05-3.69292E-07 3.42638E-19-3.52780E-18
 -1      1025 7.13315E-05-1.94902E-05-2.21738E-05-1.33354E-05 1.88867E-18-3.20351E-19
 -1      1026 8.19506E-05-2.02400E-05-2.64480E-05-6.27560E-06 1.30217E-19-1.06722E-18
 -1      1027 8.44076E-05-2.08065E-05-2.72574E-05-4.80969E-06 3.62205E-19-1.40170E-18
 -1      1028 8.64829E-05-2.15678E-05-2.78208E-05-3.77525E-06 1.10200E-19-2.37393E-18
 -1      1029 8.82165E-05-2.24016E-05-2.82068E-05-2.99387E-06-9.69947E-21-2.69995E-18
 -1      1030 8.96771E-05-2.32664E-05-2.84621E-05-2.38447E-06-5.74743E-19-2.10966E-18
 -1      1031 9.08899E-05-2.41041E-05-2.86228E-05-1.89518E-06-1.25152E-18-2.10210E-18
 -1      1032 9.18869E-05-2.48819E-05-2.87167E-05-1.49516E-06-8.01541E-19-3.11009E-18
 -1      1033 9.26960E-05-2.55800E-05-2.87642E-05-1.16693E-06 9.53030E-19-2.96157E-18
 -1      1034 9.33432E-05-2.61886E-05-2.87807E-05-8.98802E-07 4.66017E-19-2.46098E-18
 -1      1035 9.38531E-05-2.67062E-05-2.87774E-05-6.81797E-07 6.17862E-19-2.47438E-18
 -1      1036 9.42482E-05-2.71365E-05-2.87623E-05-5.08295E-07 1.03412E-19-1.66318E-18
 -1      1037 9.45491E-05-2.74871E-05-2.87410E-05-3.71496E-07-5.66394E-21-5.43348E-19
 -1      1038 9.47741E-05-2.77674E-05-2.87172E-05-2.65260E-07 5.92228E-19-2.24031E-18
 -1      1039 9.49389E-05-2.79874E-05-2.86936E-05-1.84081E-07-1.00755E-18-2.08637E-18
 -1      1040 9.50567E-05-2.81568E-05-2.86714E-05-1.23112E-07-1.21716E-18 7.78188E-19
 -1      1041 9.51385E-05-2.82850E-05-2.86515E-05-7.81754E-08-9.27375E-19 1.50947E-18
 -1      1042 9.51932E-05-2.83801E-05-2.86342E-05-4.57418E-08 1.72355E-19 1.14997E-18
 -1      1043 9.52280E-05-2.84492E-05-2.86195E-05-2.29047E-08 8.76960E-19 1.06038E-18
 -1      1044 9.52483E-05-2.84984E-05-2.86071E-05-7.36614E-09 1.06961E-18 5.74019E-19
 -1      1045 9.52587E-05-2.85328E-05-2.85968E-05 3.04679E-09 5.37044E-19-1.99342E-18
 -1      1046 8.31732E-05-2.12993E-05-2.65184E-05 8.02955E-06-1.48432E-18-1.44117E-18
 -1      1047 7.78068E-05-1.79297E-05-2.56385E-05 9.15814E-06 6.06434E-19-3.31060E-18
 -1      1048 7.43162E-05-1.91675E-05-2.36196E-05 1.07230E-05-1.14358E-18-1.33263E-18
 -1      1049 8.42527E-05-1.71780E-05-2.87437E-05-5.65377E-06 6.50652E-19-3.52226E-18
 -1      1050 8.85441E-05-2.26644E-05-2.82352E-05 3.90991E-06-1.26745E-18-2.54850E-18
 -1      1051 8.98950E-05-2.34274E-05-2.84868E-05 3.12040E-06-8.38424E-19-2.37545E-18
 -1      1052 9.10371E-05-2.42008E-05-2.86447E-05 2.48369E-06-3.31450E-19-1.21082E-18
 -1      1053 9.19865E-05-2.49375E-05-2.87357E-05 1.96251E-06-9.16897E-19 6.40206E-19
 -1      1054 9.27630E-05-2.56094E-05-2.87804E-05 1.53432E-06 1.17932E-19 1.84752E-19
 -1      1055 9.33876E-05-2.62015E-05-2.87943E-05 1.18404E-06 9.48465E-19-1.35464E-18
 -1      1056 9.38817E-05-2.67089E-05-2.87885E-05 9.00099E-07 1.23342E-18-1.20217E-18
 -1      1057 9.42658E-05-2.71334E-05-2.87712E-05 6.72696E-07 6.18780E-19 2.88966E-20
 -1      1058 9.45593E-05-2.74809E-05-2.87480E-05 4.93076E-07-6.07922E-20 9.16437E-19
 -1      1059 9.47793E-05-2.77598E-05-2.87227E-05 3.53313E-07 5.35301E-19-9.03450E-20
 -1      1060 9.49408E-05-2.79795E-05-2.86978E-05 2.46290E-07 1.89635E-18 1.60235E-20
 -1      1061 9.50566E-05-2.81494E-05-2.86746E-05 1.65725E-07 9.40540E-19 7.08089E-19
 -1      1062 9.51373E-05-2.82783E-05-2.86539E-05 1.06189E-07 6.40394E-19-5.45085E-19
 -1      1063 9.51915E-05-2.83744E-05-2.86359E-05 6.30812E-08-6.86361E-19-2.93890E-18
 -1      1064 9.52262E-05-2.84444E-05-2.86208E-05 3.26048E-08-1.02059E-18-3.00092E-18
 -1      1065 9.52465E-05-2.84942E-05-2.86082E-05 1.18047E-08 1.33644E-18-1.31675E-18
 -1      1066 9.52575E-05-2.85295E-05-2.85977E-05-2.15316E-09 1.32552E-18-1.64202E-18
 -1      1067 8.10743E-05-2.02379E-05-2.60588E-05-1.15315E-05-5.01527E-19-3.80735E-18
 -1      1068 7.95794E-05-2.04610E-05-2.53292E-05 9.19197E-06-1.05828E-18-1.74342E-18
 -1      1069 8.07790E-05-1.51458E-05-2.81272E-05 3.15157E-06 2.94846E-19-3.55898E-18
 -1      1070 7.90647E-05-1.99108E-05-2.53514E-05-8.59544E-06 6.47699E-19-4.52171E-19
 -1      1071 8.69779E-05-2.19885E-05-2.78540E-05 4.90650E-06-1.50786E-18-2.49719E-18
 -1      1072 9.52626E-05-2.85527E-05-2.85900E-05 5.61356E-09-6.42147E-19-2.63771E-18
 -1      1073 8.51803E-05-2.14858E-05-2.73013E-05 6.22969E-06-8.35679E-19-1.20376E-18
 -1      1074 7.55222E-05-1.52382E-05-2.58295E-05-2.85735E-06 2.48963E-19-3.78225E-18
 -1      1075 8.15442E-05-1.76579E-05-2.73885E-05-7.26338E-06 2.47469E-19-3.50056E-18
 -1      1076 7.18177E-05-1.65199E-05-2.37069E-05-6.69253E-07-1.62587E-19 2.90888E-19
 -1      1077 7.46488E-05-1.77742E-05-2.43837E-05 5.32264E-06-1.00279E-18-1.73616E-18
 -1      1078 9.52584E-05-2.85294E-05-2.85981E-05-8.92910E-10 2.96278E-19 5.63046E-19
 -1      1079 8.04781E-05-1.74223E-05-2.70271E-05 7.12921E-06 3.73884E-19-3.38992E-18
 -1      1080 9.08928E-05-2.41224E-05-2.86155E-05 1.23936E-06-1.60183E-18-2.57206E-18
 -1      1081 7.74787E-05-1.55001E-05-2.65564E-05 3.43578E-06 4.38936E-19-3.43064E-18
 -1      1082 8.41617E-05-2.03042E-05-2.73650E-05-1.68396E-06-1.04790E-18-1.62464E-18
 -1      1083 8.63751E-05-2.13129E-05-2.78834E-05-1.32234E-06-3.19945E-19-2.79694E-18
 -1      1084 8.82238E-05-2.23332E-05-2.82394E-05-1.06091E-06-5.80719E-20-4.00458E-18
 -1      1085 8.97339E-05-2.32961E-05-2.84738E-05-8.46031E-07-1.29079E-18-4.63898E-18
 -1      1086 9.09693E-05-2.41876E-05-2.86211E-05-6.70399E-07-9.46358E-19-3.63712E-18
 -1      1087 9.19729E-05-2.49909E-05-2.87068E-05-5.26364E-07 5.58847E-19-3.03429E-18
 -1      1088 9.27793E-05-2.56965E-05-2.87500E-05-4.08430E-07 1.04965E-19-4.19655E-18
 -1      1089 9.34190E-05-2.63017E-05-2.87647E-05-3.12509E-07 7.20027E-19-3.75382E-18
 -1      1090 9.39191E-05-2.68096E-05-2.87613E-05-2.35297E-07 1.06764E-18-3.83268E-18
 -1      1091 9.43039E-05-2.72273E-05-2.87471E-05-1.73937E-07 6.78486E-19-3.38606E-18
 -1      1092 9.45949E-05-2.75644E-05-2.87273E-05-1.25870E-07-5.30961E-19-3.12162E-18
 -1      1093 9.48108E-05-2.78315E-05-2.87054E-05-8.87994E-08-7.91479E-20-2.45531E-18
 -1      1094 9.49676E-05-2.80393E-05-2.86835E-05-6.06805E-08 4.97423E-19-2.08694E-18
 -1      1095 9.50787E-05-2.81981E-05-2.86631E-05-3.97326E-08 3.19006E-19 6.22278E-19
 -1      1096 9.51548E-05-2.83172E-05-2.86447E-05-2.44378E-08 2.96242E-20 1.60132E-18
 -1      1097 9.52049E-05-2.84047E-05-2.86287E-05-1.35330E-08 3.23488E-19 6.53462E-19
 -1      1098 9.52360E-05-2.84677E-05-2.86149E-05-6.09881E-09 7.16190E-19-1.07853E-18
 -1      1099 9.52538E-05-2.85128E-05-2.86033E-05-8.94070E-10-7.57070E-19-1.47638E-18
 -1      1100 8.96542E-05-2.32451E-05-2.84605E-05 1.56600E-06-1.39667E-18-1.57056E-18
 -1      1101 8.81476E-05-2.23119E-05-2.82150E-05 1.97110E-06-9.30298E-19-1.56437E-18
 -1      1102 9.19035E-05-2.49216E-05-2.87062E-05 9.73367E-07-2.77909E-19-2.90445E-18
 -1      1103 9.27189E-05-2.56292E-05-2.87525E-05 7.56370E-07 8.16902E-19-3.02978E-18
 -1      1104 9.33680E-05-2.62400E-05-2.87689E-05 5.80127E-07 6.27487E-19-2.26093E-18
 -1      1105 9.38771E-05-2.67553E-05-2.87663E-05 4.38237E-07 2.62260E-19-2.77772E-18
 -1      1106 9.42701E-05-2.71810E-05-2.87523E-05 3.25328E-07 7.54606E-19-3.95289E-18
 -1      1107 9.45682E-05-2.75259E-05-2.87323E-05 2.36689E-07-3.56753E-20-3.96180E-18
 -1      1108 9.47903E-05-2.78002E-05-2.87100E-05 1.68127E-07 3.13463E-19-1.50636E-18
 -1      1109 9.49521E-05-2.80144E-05-2.86875E-05 1.15939E-07 8.89238E-19-1.58050E-18
 -1      1110 9.50672E-05-2.81787E-05-2.86665E-05 7.68945E-08 1.37652E-18-1.98718E-18
 -1      1111 9.51466E-05-2.83023E-05-2.86476E-05 4.82380E-08 1.08873E-18-1.86005E-18
 -1      1112 9.51993E-05-2.83935E-05-2.86310E-05 2.76705E-08-2.34786E-20-2.25902E-18
 -1      1113 9.52322E-05-2.84593E-05-2.86169E-05 1.31349E-08-4.63973E-19-1.57677E-18
 -1      1114 8.14048E-05-1.92908E-05-2.66179E-05-2.24824E-06-9.49312E-19-3.00669E-19
 -1      1115 8.63407E-05-2.13561E-05-2.78505E-05 2.50739E-06-1.06544E-18-1.10293E-18
 -1      1116 7.78517E-05-1.82962E-05-2.55275E-05-2.98562E-06 3.02196E-19-7.13001E-19
 -1      1117 9.52485E-05-2.84984E-05-2.86072E-05 3.22440E-09 8.61723E-19-9.35176E-19
 -1      1118 7.92989E-05-1.91820E-05-2.57630E-05 5.47449E-06-1.54839E-18-1.32849E-18
 -1      1119 8.23640E-05-1.98911E-05-2.67751E-05 4.09322E-06-7.32371E-19-2.09170E-18
 -1      1120 7.77762E-05-1.80376E-05-2.56030E-05 5.27093E-07-6.99925E-19-1.83516E-18
 -1      1121 8.45791E-05-2.06312E-05-2.73995E-05 3.17972E-06-1.54924E-18-1.28098E-18
 -1      1122 8.27190E-05-1.97215E-05-2.70082E-05 1.15611E-06-1.42365E-18-1.52541E-18
 -1      1123 1.18187E-04 2.63826E-10-4.25858E-05-3.98770E-05-4.93397E-19 1.54185E-17
 -1      1124 9.14433E-05 7.96990E-11-3.82774E-05-2.13277E-05-2.70309E-19 1.52879E-18
 -1      1125 8.64132E-05 4.58916E-11-3.66622E-05-1.41794E-05-1.82112E-19-4.36661E-18
 -1      1126 8.36299E-05 3.26538E-11-3.55944E-05-9.77216E-06-1.23137E-19-7.12832E-18
 -1      1127 8.15714E-05 2.42735E-11-3.47809E-05-6.58585E-06-8.27975E-20-8.40480E-18
 -1      1128 7.99508E-05 1.83020E-11-3.41424E-05-4.24163E-06-4.58721E-20-8.90737E-18
 -1      1129 7.87400E-05 1.40376E-11-3.36655E-05-2.49188E-06-2.42463E-20-9.02082E-18
 -1      1130 7.79756E-05 1.14495E-11-3.33653E-05-1.12717E-06-1.01909E-21-8.96150E-18
 -1      1131 7.77197E-05 1.06042E-11-3.32648E-05 3.47936E-08 2.27442E-20-8.73914E-18
 -1      1132 7.79902E-05 1.15313E-11-3.33707E-05 1.20154E-06 4.65074E-20-8.44593E-18
 -1      1133 7.87675E-05 1.42070E-11-3.36756E-05 2.58101E-06 6.41098E-20-7.92411E-18
 -1      1134 7.99919E-05 1.85222E-11-3.41559E-05 4.35677E-06 9.02619E-20-7.18985E-18
 -1      1135 8.16162E-05 2.46639E-11-3.47966E-05 6.73847E-06 1.25043E-19-5.93482E-18
 -1      1136 8.36747E-05 3.31940E-11-3.56120E-05 9.97919E-06 1.61942E-19-3.90575E-18
 -1      1137 8.64266E-05 4.64335E-11-3.66860E-05 1.44411E-05 2.15040E-19-2.09217E-19
 -1      1138 9.11328E-05 7.49227E-11-3.83368E-05 2.12204E-05 2.35158E-19 6.63944E-18
 -1      1139 1.08332E-04 1.72932E-10-4.14102E-05 3.45623E-05 4.54221E-19 2.01681E-17
 -1      1140 1.31375E-04-2.63825E-05-4.09888E-05-2.50794E-05-2.04431E-18 2.42362E-17
 -1      1141 1.01934E-04-3.02263E-05-3.29483E-05-3.84970E-07-7.31572E-19 1.95326E-17
 -1      1142 9.73723E-05-2.92115E-05-3.00317E-05 4.66506E-07-2.91618E-19 1.27914E-17
 -1      1143 9.79112E-05-2.94851E-05-2.95500E-05 3.16050E-07-1.62779E-19 8.55196E-18
 -1      1144 1.00167E-04-3.01379E-05-3.00936E-05 2.47120E-07-1.53282E-19 5.42408E-18
 -1      1145 1.03391E-04-3.10668E-05-3.10313E-05 2.21281E-07-1.39143E-19 3.31275E-18
 -1      1146 1.07080E-04-3.21396E-05-3.21034E-05 2.06933E-07-8.94248E-20 1.75958E-18
 -1      1147 1.10689E-04-3.31914E-05-3.31245E-05 1.79784E-07-2.66865E-20 7.75300E-19
 -1      1148 1.13487E-04-3.40007E-05-3.38750E-05 1.12806E-07-6.15290E-20-7.33319E-19
 -1      1149 1.14534E-04-3.42873E-05-3.40913E-05-2.08388E-08-7.87211E-20-2.39962E-18
 -1      1150 1.12846E-04-3.37652E-05-3.35262E-05-2.30746E-07 1.79333E-21-3.35414E-18
 -1      1151 1.07857E-04-3.22791E-05-3.20793E-05-4.78477E-07-4.90948E-20-3.30713E-18
 -1      1152 1.00091E-04-3.00000E-05-2.99564E-05-6.55466E-07 2.12271E-20-3.40571E-18
 -1      1153 9.16327E-05-2.75465E-05-2.77373E-05-6.19290E-07 9.53905E-21-3.76093E-18
 -1      1154 8.56661E-05-2.58326E-05-2.62171E-05-3.07337E-07-1.33858E-19-4.19827E-18
 -1      1155 8.48874E-05-2.56128E-05-2.60311E-05 1.63848E-07-1.11788E-19-5.79611E-18
 -1      1156 8.97751E-05-2.70199E-05-2.72908E-05 5.54254E-07-1.16321E-19-7.56729E-18
 -1      1157 9.82642E-05-2.94791E-05-2.95156E-05 6.89078E-07 1.81442E-20-8.12252E-18
 -1      1158 1.07135E-04-3.20753E-05-3.19211E-05 5.74742E-07-5.46072E-20-8.81772E-18
 -1      1159 1.13818E-04-3.40558E-05-3.38250E-05 3.41135E-07-1.98351E-19-8.93493E-18
 -1      1160 1.17271E-04-3.50985E-05-3.48910E-05 1.17302E-07-6.87255E-20-8.14075E-18
 -1      1161 1.17758E-04-3.52662E-05-3.51280E-05-3.40067E-08-3.50890E-20-7.04605E-18
 -1      1162 1.16164E-04-3.48126E-05-3.47446E-05-1.08930E-07 1.39171E-19-6.03401E-18
 -1      1163 1.13437E-04-3.40156E-05-3.39978E-05-1.29610E-07-2.69168E-19-7.30034E-18
 -1      1164 1.10312E-04-3.30936E-05-3.31040E-05-1.20484E-07 5.24492E-20-7.10217E-18
 -1      1165 1.07259E-04-3.21877E-05-3.22099E-05-9.90970E-08 7.45211E-20-5.33872E-18
 -1      1166 1.04528E-04-3.13738E-05-3.13982E-05-7.54748E-08 1.30078E-19-4.05802E-18
 -1      1167 1.02220E-04-3.06833E-05-3.07054E-05-5.42898E-08-1.89510E-19-5.36587E-18
 -1      1168 1.00346E-04-3.01210E-05-3.01391E-05-3.71289E-08 5.28097E-20-5.41403E-18
 -1      1169 9.88719E-05-2.96772E-05-2.96911E-05-2.40636E-08 2.66481E-19-4.13434E-18
 -1      1170 9.77418E-05-2.93362E-05-2.93464E-05-1.45498E-08-2.63851E-19-4.57214E-18
 -1      1171 9.68963E-05-2.90803E-05-2.90876E-05-7.87839E-09 9.83778E-20-5.84265E-18
 -1      1172 9.62787E-05-2.88930E-05-2.88980E-05-3.37396E-09 2.54562E-19-3.68524E-18
 -1      1173 9.58392E-05-2.87592E-05-2.87625E-05-4.65539E-10-1.31520E-19-3.30076E-18
 -1      1174 9.55357E-05-2.86665E-05-2.86686E-05 1.30075E-09-7.75964E-20-5.10757E-18
 -1      1175 9.53340E-05-2.86046E-05-2.86059E-05 2.27254E-09 4.24205E-19-1.92322E-18
 -1      1176 9.52067E-05-2.85653E-05-2.85660E-05 2.70928E-09-3.70658E-19-2.67968E-18
 -1      1177 9.51327E-05-2.85423E-05-2.85425E-05 2.80054E-09 1.27597E-19-4.88228E-18
 -1      1178 9.50958E-05-2.85305E-05-2.85305E-05 2.68206E-09-2.17341E-19-2.81108E-18
 -1      1179 9.50839E-05-2.85264E-05-2.85262E-05 2.44900E-09 4.51442E-20-3.22192E-18
 -1      1180 9.50883E-05-2.85273E-05-2.85271E-05 2.16628E-09-2.80993E-19-3.37526E-18
 -1      1181 9.51025E-05-2.85313E-05-2.85310E-05 1.87668E-09-2.27931E-19-3.25517E-18
 -1      1182 9.51223E-05-2.85370E-05-2.85368E-05 1.60671E-09-2.68453E-19-4.88034E-18
 -1      1183 9.51446E-05-2.85435E-05-2.85433E-05 1.37062E-09-1.34024E-19-3.50853E-18
 -1      1184 9.51673E-05-2.85502E-05-2.85500E-05 1.17211E-09 3.24750E-19-2.35921E-18
 -1      1185 9.51890E-05-2.85567E-05-2.85565E-05 1.00284E-09 2.85528E-19 1.64698E-18
 -1      1186 9.52086E-05-2.85625E-05-2.85622E-05 8.33916E-10-1.28898E-19-1.37244E-19
 -1      1187 9.52245E-05-2.85672E-05-2.85668E-05 5.82785E-10 2.60776E-19 5.38356E-19
 -1      1188 9.52347E-05-2.85702E-05-2.85699E-05 7.94393E-11 4.94338E-19 8.05412E-19
 -1      1189 9.52379E-05-2.85714E-05-2.85716E-05-3.00213E-10 7.25201E-19 1.77349E-18
 -1      1190 1.32070E-04-3.78749E-05-3.94401E-05 1.18803E-05-3.39951E-19 3.11251E-17
 -1      1191 1.01179E-04-2.95938E-05-3.27235E-05 6.90131E-07 1.76924E-19 2.57050E-17
 -1      1192 9.75697E-05-2.91160E-05-3.00177E-05 7.90128E-08 1.40912E-19 2.03130E-17
 -1      1193 9.79708E-05-2.94080E-05-2.95848E-05-1.50289E-08 1.13019E-19 1.62359E-17
 -1      1194 1.00167E-04-3.00860E-05-3.01155E-05-5.76512E-08 7.05850E-20 1.34756E-17
 -1      1195 1.03350E-04-3.10223E-05-3.10364E-05-9.36050E-08 3.03939E-20 1.14624E-17
 -1      1196 1.06995E-04-3.20902E-05-3.20940E-05-1.36035E-07 3.57716E-20 1.02564E-17
 -1      1197 1.10555E-04-3.31313E-05-3.30984E-05-1.81509E-07-9.73170E-20 9.81539E-18
 -1      1198 1.13300E-04-3.39323E-05-3.38280E-05-2.12520E-07 7.25454E-20 8.48194E-18
 -1      1199 1.14301E-04-3.42249E-05-3.40202E-05-1.95933E-07 1.23127E-19 7.16426E-18
 -1      1200 1.12593E-04-3.37336E-05-3.34329E-05-9.10119E-08 9.29288E-20 5.77676E-18
 -1      1201 1.07626E-04-3.22977E-05-3.19738E-05 1.20362E-07 2.81705E-20 5.21253E-18
 -1      1202 9.99281E-05-3.00532E-05-2.98568E-05 3.87896E-07 6.15025E-20 6.17593E-18
 -1      1203 9.15512E-05-2.75692E-05-2.76627E-05 5.78910E-07-2.58097E-19 6.82507E-18
 -1      1204 8.56313E-05-2.57551E-05-2.61790E-05 5.48606E-07 2.14021E-19 3.73134E-18
 -1      1205 8.48391E-05-2.54391E-05-2.60250E-05 2.70540E-07 9.03281E-21 1.41105E-18
 -1      1206 8.96686E-05-2.68339E-05-2.72982E-05-1.15470E-07-2.50887E-19 1.46690E-18
 -1      1207 9.80849E-05-2.93611E-05-2.95161E-05-4.08666E-07 9.66809E-20-4.95938E-19
 -1      1208 1.06898E-04-3.20410E-05-3.19008E-05-5.03147E-07 1.26332E-19-2.72067E-18
 -1      1209 1.13562E-04-3.40741E-05-3.37830E-05-4.27419E-07-3.01193E-20-1.96448E-18
 -1      1210 1.17034E-04-3.51303E-05-3.48364E-05-2.73909E-07-8.50342E-20-6.04914E-19
 -1      1211 1.17560E-04-3.52868E-05-3.50714E-05-1.23350E-07 1.25624E-19-3.61759E-19
 -1      1212 1.16013E-04-3.48154E-05-3.46936E-05-1.41881E-08 2.25476E-19-2.88677E-18
 -1      1213 1.13329E-04-3.40039E-05-3.39563E-05 4.90723E-08-1.79589E-20-4.81869E-18
 -1      1214 1.10240E-04-3.30735E-05-3.30725E-05 7.69916E-08-1.87627E-19-2.77966E-18
 -1      1215 1.07214E-04-3.21642E-05-3.21872E-05 8.26335E-08 4.58546E-20-2.51521E-18
 -1      1216 1.04501E-04-3.13504E-05-3.13825E-05 7.64036E-08 2.07945E-19-4.42743E-18
 -1      1217 1.02204E-04-3.06620E-05-3.06948E-05 6.51072E-08-2.59113E-19-4.07643E-18
 -1      1218 1.00338E-04-3.01026E-05-3.01321E-05 5.26429E-08-3.33109E-19-1.67660E-18
 -1      1219 9.88676E-05-2.96619E-05-2.96867E-05 4.09767E-08-1.16422E-20-7.55974E-19
 -1      1220 9.77398E-05-2.93238E-05-2.93436E-05 3.09313E-08 1.70492E-19-2.62032E-18
 -1      1221 9.68955E-05-2.90705E-05-2.90859E-05 2.27118E-08 5.01587E-19-5.64820E-18
 -1      1222 9.62786E-05-2.88853E-05-2.88970E-05 1.62219E-08-2.68340E-19-1.69878E-18
 -1      1223 9.58393E-05-2.87534E-05-2.87620E-05 1.12384E-08-2.44902E-19 1.45706E-19
 -1      1224 9.55359E-05-2.86621E-05-2.86684E-05 7.50374E-09-1.37606E-20-1.42161E-18
 -1      1225 9.53342E-05-2.86014E-05-2.86058E-05 4.76970E-09 7.72738E-20-3.86160E-18
 -1      1226 9.52069E-05-2.85630E-05-2.85660E-05 2.81687E-09-2.24037E-19-5.01602E-18
 -1      1227 9.51328E-05-2.85406E-05-2.85426E-05 1.46028E-09-3.05514E-19-5.61182E-18
 -1      1228 9.50959E-05-2.85294E-05-2.85306E-05 5.48918E-10 3.71855E-19-7.80139E-18
 -1      1229 9.50840E-05-2.85257E-05-2.85264E-05-3.77915E-11 4.56663E-21-8.97289E-18
 -1      1230 9.50883E-05-2.85269E-05-2.85272E-05-3.94457E-10-1.45673E-19-7.49609E-18
 -1      1231 9.51026E-05-2.85310E-05-2.85312E-05-5.94388E-10 5.33816E-20-7.06319E-18
 -1      1232 9.51223E-05-2.85369E-05-2.85369E-05-6.93911E-10-1.33828E-19-6.59439E-18
 -1      1233 9.51446E-05-2.85435E-05-2.85434E-05-7.36153E-10 4.71564E-20-7.94889E-18
 -1      1234 9.51673E-05-2.85503E-05-2.85501E-05-7.53811E-10 1.52354E-19-8.05535E-18
 -1      1235 9.51890E-05-2.85567E-05-2.85566E-05-7.69563E-10 4.09766E-19-8.66113E-18
 -1      1236 9.52085E-05-2.85625E-05-2.85623E-05-7.91569E-10-3.96202E-20-9.92141E-18
 -1      1237 9.52244E-05-2.85672E-05-2.85669E-05-7.79329E-10-2.60518E-19-4.73177E-18
 -1      1238 9.52348E-05-2.85703E-05-2.85699E-05-5.36447E-10 5.81103E-19-1.66436E-18
 -1      1239 9.52378E-05-2.85714E-05-2.85716E-05 2.55778E-10-3.40193E-19-1.52601E-18
 -1      1240 9.52369E-05-2.85704E-05-2.85716E-05 2.13051E-10-1.40810E-18-6.94881E-19
 -1      1241 9.52381E-05-2.85737E-05-2.85699E-05-7.01676E-11-1.05725E-18-7.41998E-19
 -1      1242 9.52409E-05-2.85835E-05-2.85670E-05-6.07132E-10-5.48169E-19 7.28769E-21
 -1      1243 9.52450E-05-2.85973E-05-2.85632E-05-7.41420E-10-3.25258E-19-1.25048E-19
 -1      1244 9.52493E-05-2.86119E-05-2.85590E-05-6.94024E-10-1.72291E-18-5.87355E-19
 -1      1245 9.52532E-05-2.86251E-05-2.85552E-05-5.56329E-10-3.67500E-18 1.97548E-19
 -1      1246 9.52563E-05-2.86354E-05-2.85522E-05-3.91289E-10-1.94971E-18-4.09270E-19
 -1      1247 9.52582E-05-2.86420E-05-2.85503E-05-1.97954E-10-2.23918E-18-3.12244E-19
 -1      1248 9.52589E-05-2.86442E-05-2.85497E-05 1.71193E-12-4.30862E-18-2.52651E-19
 -1      1249 9.52582E-05-2.86419E-05-2.85503E-05 2.01395E-10-2.95292E-19 1.73069E-18
 -1      1250 9.52562E-05-2.86352E-05-2.85523E-05 3.94242E-10 6.19209E-19-2.26189E-18
 -1      1251 9.52531E-05-2.86249E-05-2.85553E-05 5.68200E-10-4.53877E-18 4.35407E-19
 -1      1252 9.52493E-05-2.86117E-05-2.85591E-05 6.96150E-10-5.26095E-19 7.62252E-20
 -1      1253 9.52449E-05-2.85971E-05-2.85633E-05 7.52127E-10-8.98481E-19-5.10688E-19
 -1      1254 9.52408E-05-2.85832E-05-2.85671E-05 7.21878E-10 7.49137E-19-1.20864E-19
 -1      1255 9.52382E-05-2.85738E-05-2.85699E-05-5.39472E-11 1.37439E-19 1.17895E-20
 -1      1256 9.52368E-05-2.85704E-05-2.85716E-05-2.15042E-10-2.16379E-18 9.18373E-19
 -1      1257 3.42749E-05-1.07403E-04 1.82094E-05-1.37822E-05 7.20147E-18 2.03486E-18
 -1      1258 1.75068E-05-6.55286E-05 9.69497E-06-2.48671E-05 1.94292E-17 7.30079E-18
 -1      1259 7.59071E-06-9.33402E-06-5.93163E-06-5.57893E-07 2.71305E-17 1.72210E-17
 -1      1260 3.42791E-05 2.35761E-05-2.55968E-05 5.18132E-05 2.59057E-17 2.46656E-17
 -1      1261 1.10697E-04 1.09686E-05-4.68230E-05 9.95116E-05 1.74480E-17 2.47588E-17
 -1      1262 2.12634E-04-3.63405E-05-6.47651E-05 1.07234E-04 8.64016E-18 1.96486E-17
 -1      1263 2.90610E-04-8.11524E-05-7.55186E-05 5.96590E-05 1.88655E-18 5.28210E-18
 -1      1264 3.10294E-04-9.31700E-05-7.79747E-05-1.94201E-05 1.37251E-18-1.17081E-17
 -1      1265 2.56999E-04-6.07218E-05-7.12137E-05-8.91688E-05 8.42163E-18-2.76556E-17
 -1      1266 1.62089E-04-9.76512E-06-5.68395E-05-1.12579E-04 1.96147E-17-3.61361E-17
 -1      1267 7.12376E-05 2.38151E-05-3.80700E-05-8.42712E-05 2.86949E-17-3.47741E-17
 -1      1268 1.77317E-05 1.60842E-05-1.77851E-05-3.01806E-05 3.19569E-17-2.61208E-17
 -1      1269 8.77590E-06-3.03997E-05 7.92447E-07 1.41781E-05 2.72762E-17-1.46346E-17
 -1      1270 2.53517E-05-8.65686E-05 1.41162E-05 2.47272E-05 1.37109E-17-4.64725E-18
 -1      1271 3.75928E-05-1.14570E-04 1.93848E-05 3.70186E-06-3.15710E-18-9.52912E-19
 -1      1272 2.96367E-05-9.68231E-05 1.61875E-05-2.13887E-05-1.80630E-17-4.46196E-18
 -1      1273 1.19367E-05-4.67026E-05 5.20860E-06-2.19156E-05-3.03399E-17-1.37893E-17
 -1      1274 1.12298E-05 5.38796E-06-1.19554E-05 1.46478E-05-3.56618E-17-2.56177E-17
 -1      1275 5.25299E-05 2.58224E-05-3.25584E-05 7.06268E-05-3.18578E-17-3.42676E-17
 -1      1276 1.37464E-04 1.41154E-06-5.24898E-05 1.09192E-04-2.11453E-17-3.46758E-17
 -1      1277 2.33884E-04-4.76410E-05-6.80681E-05 1.02401E-04-9.76121E-18-2.54584E-17
 -1      1278 2.99430E-04-8.68065E-05-7.67515E-05 4.87592E-05-2.23873E-18-9.89123E-18
 -1      1279 3.08361E-04-9.24364E-05-7.78208E-05-2.68734E-05-1.19625E-18 4.48017E-18
 -1      1280 2.57281E-04-6.16666E-05-7.11703E-05-8.98738E-05-4.84905E-18 1.56540E-17
 -1      1281 1.64657E-04-1.16383E-05-5.72037E-05-1.10805E-04-1.36609E-17 2.51823E-17
 -1      1282 7.52878E-05 2.21960E-05-3.88560E-05-8.57866E-05-2.05372E-17 2.58887E-17
 -1      1283 2.04406E-05 1.75430E-05-1.91024E-05-3.38211E-05-2.30681E-17 1.92937E-17
 -1      1284 7.19588E-06-2.21823E-05-1.16014E-06 1.13907E-05-2.23600E-17 1.23980E-17
 -1      1285 1.99678E-05-7.33043E-05 1.16499E-05 2.76939E-05-1.53448E-17 5.25986E-18
 -1      1286 3.48313E-05-1.08612E-04 1.84978E-05 1.22318E-05-5.24398E-18 1.34493E-18
 -1      1287 1.07453E-04-2.27728E-05-3.88068E-05-1.58416E-05-7.45071E-19 1.23705E-17
 -1      1288 9.36519E-05-7.45650E-06-3.70762E-05-1.72783E-05-2.02912E-18-1.26843E-18
 -1      1289 9.61996E-05-7.64903E-06-3.82570E-05-2.29249E-05-2.63766E-18 1.83785E-18
 -1      1290 8.83106E-05-4.52664E-06-3.59674E-05-1.25856E-05-1.98756E-18-5.57390E-18
 -1      1291 9.00694E-05-4.56663E-06-3.65794E-05-1.52614E-05-2.29615E-18-3.74619E-18
 -1      1292 9.55969E-05-1.14556E-05-3.61228E-05-1.55510E-05-3.56355E-18-1.13100E-18
 -1      1293 8.51021E-05-3.24276E-06-3.51081E-05-8.78461E-06-1.56087E-18-7.66157E-18
 -1      1294 8.63878E-05-3.24266E-06-3.55591E-05-1.06382E-05-1.79719E-18-6.72645E-18
 -1      1295 9.00413E-05-7.77597E-06-3.53240E-05-1.15083E-05-3.08741E-18-4.66898E-18
 -1      1296 8.26532E-05-2.40847E-06-3.44070E-05-5.90231E-06-1.09794E-18-8.67239E-18
 -1      1297 8.36785E-05-2.41532E-06-3.47654E-05-7.27494E-06-1.26674E-18-8.23791E-18
 -1      1298 8.63614E-05-5.70393E-06-3.46280E-05-8.02472E-06-2.32169E-18-6.48168E-18
 -1      1299 8.07629E-05-1.81340E-06-3.38507E-05-3.76780E-06-6.78050E-19-9.01235E-18
 -1      1300 8.15552E-05-1.82151E-06-3.41270E-05-4.78382E-06-8.31866E-19-8.86090E-18
 -1      1301 8.35937E-05-4.30163E-06-3.40339E-05-5.37657E-06-1.60787E-18-7.30391E-18
 -1      1302 7.93683E-05-1.38585E-06-3.34357E-05-2.12178E-06-2.63798E-19-9.07287E-18
 -1      1303 7.99319E-05-1.39385E-06-3.36324E-05-2.91187E-06-3.92534E-19-9.06360E-18
 -1      1304 8.14851E-05-3.30155E-06-3.35519E-05-3.37075E-06-8.95552E-19-7.65510E-18
 -1      1305 7.85632E-05-1.12775E-06-3.31971E-05-8.21016E-07 1.07500E-19-8.95583E-18
 -1      1306 7.88528E-05-1.13243E-06-3.32982E-05-1.46353E-06-1.76024E-20-9.02384E-18
 -1      1307 8.00186E-05-2.63281E-06-3.32062E-05-1.81623E-06-2.56257E-19-7.62269E-18
 -1      1308 7.83959E-05-1.04501E-06-3.31522E-05 3.31552E-07 4.79047E-19-8.74615E-18
 -1      1309 7.83915E-05-1.04524E-06-3.31508E-05-2.62807E-07 3.56525E-19-8.87523E-18
 -1      1310 7.92711E-05-2.29935E-06-3.30270E-05-5.50902E-07 3.86963E-19-7.53090E-18
 -1      1311 7.88772E-05-1.14036E-06-3.33045E-05 1.53933E-06 8.29139E-19-8.37262E-18
 -1      1312 7.85793E-05-1.13606E-06-3.32008E-05 8.91865E-07 7.06670E-19-8.59840E-18
 -1      1313 7.92837E-05-2.30709E-06-3.30292E-05 6.19380E-07 9.58007E-19-7.27621E-18
 -1      1314 7.99751E-05-1.41152E-06-3.36428E-05 3.00419E-06 1.20414E-18-7.85718E-18
 -1      1315 7.94040E-05-1.40258E-06-3.34439E-05 2.20375E-06 1.05495E-18-8.19174E-18
 -1      1316 8.00556E-05-2.65614E-06-3.32125E-05 1.89338E-06 1.56620E-18-6.95209E-18
 -1      1317 8.15964E-05-1.84198E-06-3.41353E-05 4.88290E-06 1.57789E-18-7.00258E-18
 -1      1318 8.08004E-05-1.83437E-06-3.38581E-05 3.85436E-06 1.44281E-18-7.51109E-18
 -1      1319 8.15308E-05-3.33462E-06-3.35574E-05 3.44947E-06 2.15434E-18-6.35858E-18
 -1      1320 8.37512E-05-2.45394E-06-3.47794E-05 7.43213E-06 2.06046E-18-5.69149E-18
 -1      1321 8.27210E-05-2.44810E-06-3.44200E-05 6.03642E-06 1.84410E-18-6.49174E-18
 -1      1322 8.36591E-05-4.35374E-06-3.40399E-05 5.47988E-06 2.80680E-18-5.44988E-18
 -1      1323 8.64714E-05-3.29308E-06-3.55741E-05 1.08510E-05 2.43342E-18-3.42069E-18
 -1      1324 8.51831E-05-3.29810E-06-3.51217E-05 8.96850E-06 2.21327E-18-4.79234E-18
 -1      1325 8.64724E-05-5.79602E-06-3.46379E-05 8.18784E-06 3.43426E-18-3.97883E-18
 -1      1326 9.01838E-05-4.57912E-06-3.66030E-05 1.55138E-05 2.70585E-18 6.04702E-19
 -1      1327 8.84019E-05-4.59281E-06-3.59802E-05 1.28535E-05 2.43040E-18-1.79682E-18
 -1      1328 9.01880E-05-7.91286E-06-3.53313E-05 1.17472E-05 3.89754E-18-1.38950E-18
 -1      1329 9.68914E-05-7.66874E-06-3.81449E-05 2.23897E-05 2.27852E-18 7.89408E-18
 -1      1330 9.34967E-05-7.23399E-06-3.70993E-05 1.79532E-05 2.23468E-18 3.48882E-18
 -1      1331 9.58304E-05-1.16853E-05-3.61095E-05 1.61940E-05 3.97989E-18 3.08410E-18
 -1      1332 1.25757E-04-2.55961E-05-3.98330E-05 2.68221E-05 1.06546E-18 2.10867E-17
 -1      1333 1.03403E-04-1.53581E-05-3.83379E-05 2.18847E-05 1.12719E-18 1.19794E-17
 -1      1334 1.05613E-04-2.06397E-05-3.64896E-05 1.85807E-05 3.62478E-18 9.67947E-18
 -1      1335 1.06281E-04-2.90178E-05-3.57925E-05 5.96521E-06 1.96255E-18 2.04218E-17
 -1      1336 1.09249E-04-3.15415E-05-3.47069E-05-6.46677E-06-2.20123E-18 1.32724E-17
 -1      1337 1.03611E-04-2.95365E-05-3.22925E-05-3.70659E-06-2.05702E-18 1.07071E-17
 -1      1338 1.01602E-04-2.96913E-05-3.10651E-05-1.22105E-06-1.67654E-18 9.64956E-18
 -1      1339 1.00578E-04-2.97549E-05-3.03918E-05-7.94650E-07-1.53811E-18 7.23835E-18
 -1      1340 1.04884E-04-2.97523E-05-3.25636E-05-5.42093E-06-3.58025E-18 5.27421E-18
 -1      1341 9.98122E-05-2.96470E-05-3.00569E-05 4.56150E-07-1.22103E-18 6.43184E-18
 -1      1342 1.00334E-04-2.99210E-05-3.01273E-05 5.88832E-07-1.07097E-18 4.76615E-18
 -1      1343 1.01783E-04-2.98816E-05-3.09458E-05-6.29752E-07-2.64558E-18 3.69611E-18
 -1      1344 1.00598E-04-3.00278E-05-3.02019E-05 1.23894E-06-8.51870E-19 4.07264E-18
 -1      1345 1.01868E-04-3.04676E-05-3.05639E-05 1.32718E-06-9.21175E-19 2.78023E-18
 -1      1346 1.01467E-04-3.01321E-05-3.06113E-05 1.61439E-06-1.96911E-18 2.26857E-18
 -1      1347 1.02707E-04-3.07261E-05-3.08256E-05 1.68084E-06-6.11667E-19 2.35232E-18
 -1      1348 1.04357E-04-3.12709E-05-3.13052E-05 1.73002E-06-5.10365E-19 1.53633E-18
 -1      1349 1.02580E-04-3.06127E-05-3.08649E-05 2.82434E-06-1.44205E-18 1.18176E-18
 -1      1350 1.05497E-04-3.16257E-05-3.16498E-05 1.85262E-06-4.04656E-19 1.22857E-18
 -1      1351 1.07256E-04-3.22102E-05-3.21548E-05 1.85341E-06-3.03986E-19 6.85898E-19
 -1      1352 1.04540E-04-3.13171E-05-3.13933E-05 3.41534E-06-9.73140E-19 5.81104E-19
 -1      1353 1.08460E-04-3.26022E-05-3.25048E-05 1.70993E-06-2.38617E-19 6.00123E-19
 -1      1354 1.10015E-04-3.31348E-05-3.29422E-05 1.64127E-06-2.98923E-19 2.15398E-19
 -1      1355 1.06880E-04-3.21658E-05-3.20176E-05 3.41563E-06-5.84011E-19 3.29099E-19
 -1      1356 1.11029E-04-3.34934E-05-3.32167E-05 1.15916E-06-3.39091E-19-6.11849E-20
 -1      1357 1.11974E-04-3.38448E-05-3.34709E-05 9.95541E-07-4.87014E-19-7.23280E-19
 -1      1358 1.09137E-04-3.30398E-05-3.25871E-05 2.69546E-06-7.89934E-19 8.29695E-20
 -1      1359 1.12506E-04-3.40784E-05-3.35832E-05 1.23951E-07-4.30425E-19-8.92581E-19
 -1      1360 1.12377E-04-3.40849E-05-3.35281E-05-1.47356E-07-4.20247E-19-1.41916E-18
 -1      1361 1.10775E-04-3.37638E-05-3.29494E-05 1.09997E-06-7.49439E-19-1.60513E-19
 -1      1362 1.12135E-04-3.40818E-05-3.34044E-05-1.34522E-06-1.73079E-19-1.36542E-18
 -1      1363 1.10553E-04-3.35880E-05-3.29483E-05-1.69313E-06-6.70347E-20-1.54610E-18
 -1      1364 1.11203E-04-3.40876E-05-3.29651E-05-1.37364E-06-5.35113E-19 7.93473E-20
 -1      1365 1.09358E-04-3.32458E-05-3.25652E-05-2.93296E-06-7.21963E-21-1.63173E-18
 -1      1366 1.06300E-04-3.22020E-05-3.17228E-05-3.24958E-06-1.43162E-19-1.71863E-18
 -1      1367 1.09909E-04-3.37183E-05-3.25565E-05-4.33309E-06-1.36789E-19 7.13890E-20
 -1      1368 1.04263E-04-3.15049E-05-3.11476E-05-4.00120E-06-3.51644E-19-1.83923E-18
 -1      1369 1.00344E-04-3.00953E-05-3.01028E-05-4.10921E-06-4.19306E-19-2.21642E-18
 -1      1370 1.06759E-04-3.24662E-05-3.17706E-05-6.80907E-06-3.89377E-19-5.45000E-19
 -1      1371 9.80255E-05-2.92193E-05-2.95041E-05-3.80311E-06-1.11683E-19-2.60378E-18
 -1      1372 9.45198E-05-2.79103E-05-2.85939E-05-3.55562E-06-2.86165E-19-2.57276E-18
 -1      1373 1.02379E-04-3.05059E-05-3.08129E-05-7.43716E-06-6.62095E-19-1.45916E-18
 -1      1374 9.28467E-05-2.72360E-05-2.81902E-05-2.02303E-06-4.61712E-19-2.95731E-18
 -1      1375 9.12017E-05-2.66041E-05-2.77720E-05-1.45683E-06-8.00023E-19-3.64726E-18
 -1      1376 9.82888E-05-2.85444E-05-3.00040E-05-5.24431E-06-8.20140E-19-2.07464E-18
 -1      1377 9.10031E-05-2.65120E-05-2.77315E-05 7.51571E-07-7.50167E-19-3.86010E-18
 -1      1378 9.20072E-05-2.68841E-05-2.79935E-05 1.37535E-06-7.00734E-19-4.61585E-18
 -1      1379 9.63470E-05-2.75637E-05-2.96529E-05-6.54980E-07-1.03219E-18-2.91401E-18
 -1      1380 9.34327E-05-2.74451E-05-2.83449E-05 3.24394E-06-4.80896E-19-5.35452E-18
 -1      1381 9.66907E-05-2.86557E-05-2.91938E-05 3.62047E-06-4.76363E-19-5.74622E-18
 -1      1382 9.76030E-05-2.81400E-05-2.99130E-05 4.36034E-06-1.15268E-18-3.28270E-18
 -1      1383 9.90968E-05-2.95679E-05-2.98112E-05 4.37617E-06-3.42705E-19-5.90954E-18
 -1      1384 1.03303E-04-3.10868E-05-3.09295E-05 4.38441E-06-3.10701E-20-6.06100E-18
 -1      1385 1.01525E-04-2.99782E-05-3.07089E-05 7.53714E-06-5.79966E-19-3.72525E-18
 -1      1386 1.05730E-04-3.19363E-05-3.16004E-05 3.95925E-06-3.41540E-19-6.49632E-18
 -1      1387 1.09474E-04-3.32289E-05-3.26253E-05 3.69778E-06-3.62444E-19-6.76578E-18
 -1      1388 1.06405E-04-3.21580E-05-3.17730E-05 7.85800E-06-5.75228E-19-4.74509E-18
 -1      1389 1.11206E-04-3.37609E-05-3.31546E-05 2.57361E-06-1.53392E-20-7.25889E-18
 -1      1390 1.13626E-04-3.45425E-05-3.38425E-05 2.22448E-06-1.94546E-19-7.20563E-18
 -1      1391 1.10505E-04-3.38217E-05-3.27721E-05 5.90104E-06-4.33800E-19-5.29818E-18
 -1      1392 1.14404E-04-3.47156E-05-3.41251E-05 9.79551E-07 1.48668E-19-6.90828E-18
 -1      1393 1.15328E-04-3.49688E-05-3.44065E-05 6.78927E-07 1.26109E-19-6.64924E-18
 -1      1394 1.12872E-04-3.46121E-05-3.34489E-05 3.00328E-06 1.53062E-19-5.54938E-18
 -1      1395 1.15243E-04-3.48642E-05-3.44355E-05-3.16804E-07-9.30413E-20-6.08699E-18
 -1      1396 1.14954E-04-3.47202E-05-3.43721E-05-5.15559E-07 3.73416E-19-5.59596E-18
 -1      1397 1.13405E-04-3.46218E-05-3.36976E-05 3.09765E-07 3.83673E-19-5.24124E-18
 -1      1398 1.14258E-04-3.44467E-05-3.42033E-05-1.14226E-06 3.97497E-19-5.75436E-18
 -1      1399 1.13197E-04-3.40692E-05-3.39115E-05-1.24298E-06 8.55900E-20-5.52734E-18
 -1      1400 1.12498E-04-3.41250E-05-3.35509E-05-1.61503E-06 5.67611E-19-4.80931E-18
 -1      1401 1.12158E-04-3.37173E-05-3.36213E-05-1.53794E-06 1.32386E-19-5.10442E-18
 -1      1402 1.10729E-04-3.32411E-05-3.32147E-05-1.56721E-06 1.84054E-19-5.47527E-18
 -1      1403 1.10691E-04-3.33822E-05-3.31181E-05-2.69388E-06 4.68211E-19-3.86936E-18
 -1      1404 1.09562E-04-3.28724E-05-3.28716E-05-1.62559E-06 7.51130E-19-5.02730E-18
 -1      1405 1.08053E-04-3.23868E-05-3.24355E-05-1.61150E-06 6.48540E-19-4.12516E-18
 -1      1406 1.08461E-04-3.25722E-05-3.25250E-05-3.09621E-06 9.13702E-19-3.14995E-18
 -1      1407 1.06904E-04-3.20381E-05-3.20889E-05-1.52790E-06-9.08352E-20-3.90012E-18
 -1      1408 1.05490E-04-3.15931E-05-3.16761E-05-1.49197E-06 2.09897E-19-3.49038E-18
 -1      1409 1.06155E-04-3.17974E-05-3.18770E-05-3.05175E-06 7.06086E-19-2.16644E-18
 -1      1410 1.04444E-04-3.12834E-05-3.13559E-05-1.33826E-06 1.86169E-19-3.45844E-18
 -1      1411 1.03209E-04-3.09013E-05-3.09932E-05-1.29444E-06-3.87121E-21-3.62637E-18
 -1      1412 1.03988E-04-3.11075E-05-3.12474E-05-2.75877E-06 4.39625E-19-2.60089E-18
 -1      1413 1.02305E-04-3.06379E-05-3.07144E-05-1.11752E-06-1.64815E-19-3.55157E-18
 -1      1414 1.01278E-04-3.03240E-05-3.04114E-05-1.07381E-06-3.59298E-19-3.86114E-18
 -1      1415 1.02071E-04-3.05206E-05-3.06785E-05-2.35765E-06-2.07609E-19-2.59429E-18
 -1      1416 1.00526E-04-3.01073E-05-3.01785E-05-9.00799E-07 3.50787E-19-3.32124E-18
 -1      1417 9.97020E-05-2.98578E-05-2.99344E-05-8.61219E-07 4.65986E-19-2.83018E-18
 -1      1418 1.00450E-04-3.00375E-05-3.01897E-05-1.93548E-06 5.37959E-19-2.12860E-18
 -1      1419 9.90960E-05-2.96842E-05-2.97461E-05-7.05803E-07 3.74870E-20-2.68162E-18
 -1      1420 9.84531E-05-2.94914E-05-2.95553E-05-6.71963E-07 1.44078E-19-2.14980E-18
 -1      1421 9.91219E-05-2.96500E-05-2.97852E-05-1.54016E-06 2.87549E-19-9.68548E-19
 -1      1422 9.79765E-05-2.93556E-05-2.94070E-05-5.39535E-07-6.38292E-19-2.55382E-18
 -1      1423 9.74876E-05-2.92101E-05-2.92615E-05-5.11709E-07-9.12555E-19-3.39033E-18
 -1      1424 9.80636E-05-2.93462E-05-2.94602E-05-1.19400E-06-6.54930E-19-1.83989E-18
 -1      1425 9.71213E-05-2.91060E-05-2.91475E-05-4.02960E-07 2.07973E-19-3.04163E-18
 -1      1426 9.67583E-05-2.89989E-05-2.90391E-05-3.80739E-07 5.53561E-19-2.62410E-18
 -1      1427 9.72400E-05-2.91127E-05-2.92055E-05-9.04009E-07-4.78776E-19-8.76593E-19
 -1      1428 9.64829E-05-2.89208E-05-2.89534E-05-2.93935E-07 2.89042E-19-2.82859E-18
 -1      1429 9.62198E-05-2.88438E-05-2.88747E-05-2.76611E-07 2.94538E-19-2.45495E-18
 -1      1430 9.66129E-05-2.89370E-05-2.90104E-05-6.68835E-07 2.86357E-19-7.20926E-19
 -1      1431 9.60173E-05-2.87866E-05-2.88116E-05-2.08945E-07-2.77065E-19-2.49098E-18
 -1      1432 9.58318E-05-2.87328E-05-2.87559E-05-1.95727E-07-6.08311E-19-3.20743E-18
 -1      1433 9.61457E-05-2.88075E-05-2.88643E-05-4.82991E-07 2.19444E-19-1.19865E-18
 -1      1434 9.56865E-05-2.86919E-05-2.87107E-05-1.44097E-07 3.00463E-19-2.11829E-18
 -1      1435 9.55598E-05-2.86556E-05-2.86725E-05-1.34218E-07 1.04075E-18-1.72233E-18
 -1      1436 9.58054E-05-2.87143E-05-2.87572E-05-3.39387E-07 2.48755E-19 9.82980E-20
 -1      1437 9.54584E-05-2.86271E-05-2.86409E-05-9.56287E-08 1.97877E-19-2.18560E-18
 -1      1438 9.53754E-05-2.86037E-05-2.86158E-05-8.84006E-08-2.94212E-19-2.13635E-18
 -1      1439 9.55639E-05-2.86490E-05-2.86808E-05-2.30712E-07 4.81636E-19-4.26432E-21
 -1      1440 9.53072E-05-2.85846E-05-2.85946E-05-6.01643E-08-7.96201E-19-2.06629E-18
 -1      1441 9.52559E-05-2.85705E-05-2.85789E-05-5.49963E-08-6.92964E-19-2.46035E-18
 -1      1442 9.53977E-05-2.86047E-05-2.86278E-05-1.50157E-07-8.35451E-19-2.66192E-18
 -1      1443 9.52121E-05-2.85582E-05-2.85653E-05-3.48059E-08-1.17046E-19-2.97762E-18
 -1      1444 9.51834E-05-2.85507E-05-2.85564E-05-3.12070E-08 1.40856E-19-2.49430E-18
 -1      1445 9.52877E-05-2.85760E-05-2.85923E-05-9.17301E-08-8.67241E-19-1.10613E-18
 -1      1446 9.51573E-05-2.85435E-05-2.85483E-05-1.71452E-08-1.45335E-19-1.75472E-18
 -1      1447 9.51442E-05-2.85404E-05-2.85441E-05-1.47177E-08-1.83066E-19-2.01474E-18
 -1      1448 9.52188E-05-2.85586E-05-2.85698E-05-5.03627E-08 4.44262E-20-7.94319E-19
 -1      1449 9.51304E-05-2.85366E-05-2.85398E-05-5.23126E-09-1.56902E-19-2.23242E-18
 -1      1450 9.51277E-05-2.85365E-05-2.85388E-05-3.65973E-09-2.39302E-19-2.31796E-18
 -1      1451 9.51794E-05-2.85492E-05-2.85566E-05-2.18873E-08-4.45368E-19-9.59451E-19
 -1      1452 9.51225E-05-2.85352E-05-2.85372E-05 2.48104E-09-3.10294E-19-3.08151E-18
 -1      1453 9.51264E-05-2.85369E-05-2.85381E-05 3.44113E-09-5.39117E-19-2.94546E-18
 -1      1454 9.51605E-05-2.85452E-05-2.85499E-05-2.95982E-09-6.28914E-19-1.51789E-18
 -1      1455 9.51268E-05-2.85371E-05-2.85383E-05 7.18746E-09-6.55555E-19-3.17917E-18
 -1      1456 9.51347E-05-2.85399E-05-2.85404E-05 7.72137E-09-4.74302E-19-3.52855E-18
 -1      1457 9.51555E-05-2.85449E-05-2.85477E-05 9.04235E-09-7.71500E-19-2.89928E-18
 -1      1458 9.51385E-05-2.85411E-05-2.85416E-05 9.78881E-09 2.42047E-19-3.40889E-18
 -1      1459 9.51485E-05-2.85444E-05-2.85445E-05 1.00324E-08-6.13954E-20-3.59796E-18
 -1      1460 9.51594E-05-2.85469E-05-2.85484E-05 1.61252E-08 1.63265E-20-2.53961E-18
 -1      1461 9.51544E-05-2.85461E-05-2.85463E-05 1.09380E-08-1.71191E-19-2.02165E-18
 -1      1462 9.51652E-05-2.85496E-05-2.85494E-05 1.09855E-08 8.78053E-19-1.47109E-18
 -1      1463 9.51687E-05-2.85503E-05-2.85508E-05 1.97739E-08 8.99930E-19-1.24885E-18
 -1      1464 9.51720E-05-2.85516E-05-2.85515E-05 1.10770E-08 1.16663E-18-1.78941E-18
 -1      1465 9.51827E-05-2.85550E-05-2.85546E-05 1.09866E-08 1.15486E-18-1.61524E-19
 -1      1466 9.51809E-05-2.85544E-05-2.85543E-05 2.10328E-08 1.25067E-18-4.35130E-19
 -1      1467 9.51896E-05-2.85571E-05-2.85568E-05 1.04614E-08 1.23279E-18-2.61175E-19
 -1      1468 9.51996E-05-2.85603E-05-2.85597E-05 1.02574E-08 5.18124E-19 9.89665E-19
 -1      1469 9.51942E-05-2.85587E-05-2.85581E-05 2.05640E-08 1.69233E-18 2.64824E-20
 -1      1470 9.52061E-05-2.85622E-05-2.85617E-05 9.17317E-09-7.23810E-19 7.85909E-19
 -1      1471 9.52147E-05-2.85650E-05-2.85641E-05 8.84257E-09-4.48924E-19-5.08871E-19
 -1      1472 9.52073E-05-2.85629E-05-2.85618E-05 1.86861E-08-4.37850E-19-1.72458E-19
 -1      1473 9.52202E-05-2.85666E-05-2.85658E-05 7.13522E-09 6.40200E-19-6.73436E-19
 -1      1474 9.52267E-05-2.85688E-05-2.85676E-05 6.61862E-09 9.00978E-19 1.29900E-18
 -1      1475 9.52190E-05-2.85667E-05-2.85651E-05 1.53931E-08-3.91141E-20 3.66440E-20
 -1      1476 9.52308E-05-2.85702E-05-2.85688E-05 4.14608E-09 4.48979E-19 1.40292E-18
 -1      1477 9.52343E-05-2.85712E-05-2.85699E-05 3.44247E-09 2.57292E-19 1.70493E-18
 -1      1478 9.52285E-05-2.85701E-05-2.85677E-05 1.05187E-08 1.22003E-18 1.48413E-18
 -1      1479 9.52371E-05-2.85716E-05-2.85709E-05 8.38702E-11-1.37372E-18 1.88693E-18
 -1      1480 9.52357E-05-2.85725E-05-2.85699E-05 3.43117E-09-5.06512E-19 7.55509E-19
 -1      1481 1.02278E-04-3.01066E-05-3.14363E-05 1.88467E-06 1.67450E-18 1.66061E-17
 -1      1482 1.06924E-04-3.07109E-05-3.34650E-05 3.28506E-06 1.49708E-18 1.92305E-17
 -1      1483 1.06836E-04-2.82403E-05-3.40156E-05 1.05867E-05 2.94831E-18 1.28637E-17
 -1      1484 9.98360E-05-2.97691E-05-3.00917E-05 6.86438E-08 1.37953E-18 1.31925E-17
 -1      1485 1.00591E-04-2.95633E-05-3.06422E-05 4.00220E-07 1.25729E-18 1.52419E-17
 -1      1486 1.02680E-04-2.99294E-05-3.13822E-05 2.78822E-06 2.61566E-18 1.02952E-17
 -1      1487 1.00237E-04-2.99982E-05-3.00826E-05-8.30053E-07 9.09872E-19 1.06227E-17
 -1      1488 9.96197E-05-2.96347E-05-2.99810E-05-6.28817E-07 9.45342E-19 1.21797E-17
 -1      1489 1.01108E-04-2.99803E-05-3.05380E-05-2.91423E-07 2.05592E-18 8.17403E-18
 -1      1490 1.02155E-04-3.06110E-05-3.06415E-05-1.32857E-06 6.46935E-19 8.92609E-18
 -1      1491 1.00852E-04-3.01255E-05-3.02703E-05-1.19175E-06 6.50799E-19 9.93448E-18
 -1      1492 1.01606E-04-3.03023E-05-3.05819E-05-1.80729E-06 1.46535E-18 6.56490E-18
 -1      1493 1.04888E-04-3.14614E-05-3.14531E-05-1.58286E-06 4.13400E-19 7.71618E-18
 -1      1494 1.03228E-04-3.08983E-05-3.09693E-05-1.49569E-06 4.39197E-19 8.47528E-18
 -1      1495 1.03297E-04-3.08994E-05-3.10463E-05-2.63168E-06 1.00817E-18 5.56503E-18
 -1      1496 1.07909E-04-3.24132E-05-3.23356E-05-1.59219E-06 1.00960E-19 7.13165E-18
 -1      1497 1.06159E-04-3.18409E-05-3.18323E-05-1.56578E-06 2.39604E-19 7.36082E-18
 -1      1498 1.05618E-04-3.16830E-05-3.16973E-05-2.96201E-06 5.75455E-19 5.00359E-18
 -1      1499 1.10647E-04-3.33006E-05-3.31131E-05-1.28618E-06 3.74360E-19 6.36662E-18
 -1      1500 1.09123E-04-3.28191E-05-3.26868E-05-1.34821E-06 1.05019E-19 6.60842E-18
 -1      1501 1.08085E-04-3.25400E-05-3.23701E-05-2.75885E-06 3.00432E-19 4.24775E-18
 -1      1502 1.12393E-04-3.39063E-05-3.35781E-05-5.76789E-07 3.00627E-19 5.39993E-18
 -1      1503 1.11507E-04-3.36530E-05-3.33472E-05-7.61155E-07 3.55926E-19 6.00824E-18
 -1      1504 1.10174E-04-3.33222E-05-3.29023E-05-1.88813E-06 5.74566E-19 3.46916E-18
 -1      1505 1.12355E-04-3.39665E-05-3.35119E-05 5.64185E-07 3.41242E-19 4.84664E-18
 -1      1506 1.12573E-04-3.41014E-05-3.36028E-05 2.39291E-07 2.80269E-19 5.28135E-18
 -1      1507 1.11280E-04-3.38285E-05-3.31251E-05-2.40225E-07 4.55790E-19 3.25756E-18
 -1      1508 1.09882E-04-3.32342E-05-3.27607E-05 1.98581E-06 2.48644E-19 4.63737E-18
 -1      1509 1.11573E-04-3.38845E-05-3.32595E-05 1.55579E-06 3.44233E-19 4.93810E-18
 -1      1510 1.10797E-04-3.38092E-05-3.28982E-05 2.09313E-06 4.47472E-19 3.42886E-18
 -1      1511 1.04908E-04-3.16295E-05-3.13544E-05 3.24921E-06-2.56396E-19 4.74852E-18
 -1      1512 1.08068E-04-3.27849E-05-3.22335E-05 2.83982E-06 4.00223E-20 4.58139E-18
 -1      1513 1.08343E-04-3.30329E-05-3.21783E-05 4.60527E-06 8.04946E-20 3.91423E-18
 -1      1514 9.84316E-05-2.94413E-05-2.96064E-05 3.68334E-06 2.84748E-19 5.30534E-18
 -1      1515 1.02398E-04-3.08442E-05-3.06660E-05 3.49514E-06-4.55400E-20 4.75244E-18
 -1      1516 1.04136E-04-3.14580E-05-3.10935E-05 6.29553E-06-1.10530E-19 4.01197E-18
 -1      1517 9.25850E-05-2.74058E-05-2.80811E-05 2.74759E-06 5.28330E-19 4.45730E-18
 -1      1518 9.60390E-05-2.85544E-05-2.89741E-05 2.94656E-06 4.08554E-19 4.76700E-18
 -1      1519 9.92904E-05-2.94483E-05-2.99582E-05 6.01513E-06 5.87523E-19 3.42032E-18
 -1      1520 8.98409E-05-2.64397E-05-2.73760E-05 5.58044E-07 9.61918E-19 1.85437E-18
 -1      1521 9.13264E-05-2.68077E-05-2.77479E-05 1.11987E-06 1.07234E-18 3.52236E-18
 -1      1522 9.56568E-05-2.78091E-05-2.91783E-05 3.28236E-06 1.55200E-18 2.13923E-18
 -1      1523 9.15701E-05-2.70608E-05-2.78073E-05-1.95534E-06-2.01938E-19 8.53624E-19
 -1      1524 9.03531E-05-2.64423E-05-2.74888E-05-1.28107E-06 2.75074E-19 1.19429E-18
 -1      1525 9.49382E-05-2.74042E-05-2.90681E-05-1.01688E-06 9.52714E-19 1.20933E-18
 -1      1526 9.70881E-05-2.89907E-05-2.92289E-05-3.62465E-06 3.51241E-19-3.15520E-20
 -1      1527 9.36613E-05-2.76607E-05-2.83352E-05-3.14852E-06 2.09429E-19 3.96570E-19
 -1      1528 9.75802E-05-2.85131E-05-2.96934E-05-4.94817E-06 4.38260E-19-2.33437E-19
 -1      1529 1.04134E-04-3.13725E-05-3.11144E-05-3.87424E-06 7.49740E-19-2.12769E-18
 -1      1530 9.98750E-05-2.98845E-05-2.99784E-05-3.74624E-06 7.08317E-19-7.86682E-19
 -1      1531 1.02440E-04-3.05751E-05-3.08377E-05-6.83998E-06 1.20741E-18-1.94548E-18
 -1      1532 1.10321E-04-3.33689E-05-3.28536E-05-2.96455E-06-3.12654E-19-3.15382E-18
 -1      1533 1.06633E-04-3.21998E-05-3.18371E-05-3.12471E-06 1.84435E-19-2.58297E-18
 -1      1534 1.07603E-04-3.26476E-05-3.21166E-05-6.33940E-06 9.44309E-19-2.48144E-18
 -1      1535 1.14231E-04-3.45475E-05-3.40285E-05-1.56310E-06-6.27539E-19-2.00916E-18
 -1      1536 1.11922E-04-3.39091E-05-3.33622E-05-1.85431E-06-5.81667E-19-2.78499E-18
 -1      1537 1.11502E-04-3.40563E-05-3.31617E-05-4.26542E-06-6.56517E-19-2.76252E-18
 -1      1538 1.15607E-04-3.48892E-05-3.45092E-05-2.53236E-07-1.65879E-19-1.13233E-18
 -1      1539 1.14796E-04-3.47524E-05-3.42502E-05-5.38536E-07-4.29896E-19-1.86358E-18
 -1      1540 1.13458E-04-3.46168E-05-3.37566E-05-1.76532E-06-6.89419E-19-2.39097E-18
 -1      1541 1.14944E-04-3.46023E-05-3.43895E-05 6.78271E-07 6.06211E-19-1.92618E-18
 -1      1542 1.15315E-04-3.48201E-05-3.44694E-05 4.67060E-07 4.27871E-19-1.18610E-18
 -1      1543 1.13567E-04-3.44863E-05-3.38656E-05 3.40923E-07 1.78175E-19-2.11234E-18
 -1      1544 1.12983E-04-3.39424E-05-3.38634E-05 1.19674E-06 6.85928E-19-3.11750E-18
 -1      1545 1.14088E-04-3.43548E-05-3.41641E-05 1.07087E-06 5.78709E-19-2.10443E-18
 -1      1546 1.12323E-04-3.39296E-05-3.35798E-05 1.73262E-06 8.73877E-19-2.33610E-18
 -1      1547 1.10398E-04-3.31202E-05-3.31264E-05 1.38982E-06-5.13512E-19-3.51615E-18
 -1      1548 1.11841E-04-3.36037E-05-3.35356E-05 1.33303E-06 3.81537E-20-3.56159E-18
 -1      1549 1.10292E-04-3.31747E-05-3.30402E-05 2.43869E-06 6.41449E-19-2.27933E-18
 -1      1550 1.07677E-04-3.22781E-05-3.23288E-05 1.37145E-06-2.02123E-19-2.67915E-18
 -1      1551 1.09178E-04-3.27544E-05-3.27636E-05 1.36100E-06-2.78105E-19-3.19384E-18
 -1      1552 1.07940E-04-3.23751E-05-3.23803E-05 2.63479E-06-6.62625E-19-3.31162E-18
 -1      1553 1.05114E-04-3.14987E-05-3.15665E-05 1.23744E-06 2.69077E-19-3.18181E-18
 -1      1554 1.06512E-04-3.19264E-05-3.19760E-05 1.25375E-06 2.49938E-19-2.54152E-18
 -1      1555 1.05591E-04-3.16194E-05-3.17007E-05 2.51257E-06 2.98395E-19-2.35840E-18
 -1      1556 1.02862E-04-3.08212E-05-3.08903E-05 1.05423E-06-3.19940E-19-3.30451E-18
 -1      1557 1.04076E-04-3.11833E-05-3.12489E-05 1.08344E-06 7.48268E-21-3.04835E-18
 -1      1558 1.03435E-04-3.09514E-05-3.10648E-05 2.22448E-06 3.27398E-20-2.39900E-18
 -1      1559 1.00973E-04-3.02574E-05-3.03200E-05 8.62289E-07-1.04247E-18-1.84419E-18
 -1      1560 1.01980E-04-3.05517E-05-3.06190E-05 8.95692E-07-7.24571E-19-2.81186E-18
 -1      1561 1.01563E-04-3.03866E-05-3.05057E-05 1.87341E-06-8.40846E-19-1.44860E-18
 -1      1562 9.94444E-05-2.98034E-05-2.98566E-05 6.83444E-07-8.66199E-19-5.29045E-19
 -1      1563 1.00251E-04-3.00352E-05-3.00969E-05 7.16100E-07-1.03234E-18-1.91136E-18
 -1      1564 1.00002E-04-2.99246E-05-3.00353E-05 1.52078E-06-1.37824E-18-1.31645E-18
 -1      1565 9.82412E-05-2.94477E-05-2.94909E-05 5.27590E-07 3.04608E-19-4.35691E-19
 -1      1566 9.88688E-05-2.96254E-05-2.96785E-05 5.57021E-07 2.05594E-19-3.38223E-19
 -1      1567 9.87411E-05-2.95565E-05-2.96528E-05 1.19890E-06-3.14813E-19-8.30832E-19
 -1      1568 9.73174E-05-2.91755E-05-2.92096E-05 3.97629E-07 9.72559E-19-2.14932E-18
 -1      1569 9.77939E-05-2.93086E-05-2.93524E-05 4.22844E-07 6.47160E-19-9.65022E-19
 -1      1570 9.77485E-05-2.92701E-05-2.93501E-05 9.21621E-07 9.33306E-19-2.93337E-19
 -1      1571 9.66244E-05-2.89720E-05-2.89981E-05 2.92701E-07-1.06282E-18-2.78354E-18
 -1      1572 9.69776E-05-2.90692E-05-2.91043E-05 3.13552E-07 2.83604E-19-2.35073E-18
 -1      1573 9.69851E-05-2.90519E-05-2.91163E-05 6.92069E-07 7.20832E-19-2.75946E-19
 -1      1574 9.61165E-05-2.88233E-05-2.88429E-05 2.10145E-07-2.65121E-19-5.27142E-20
 -1      1575 9.63720E-05-2.88925E-05-2.89199E-05 2.26924E-07-1.11820E-18-1.93479E-18
 -1      1576 9.64110E-05-2.88892E-05-2.89397E-05 5.07640E-07-1.45092E-18-8.22605E-19
 -1      1577 9.57536E-05-2.87174E-05-2.87318E-05 1.46635E-07 5.42120E-19-2.44328E-19
 -1      1578 9.59334E-05-2.87652E-05-2.87861E-05 1.59833E-07 2.77354E-19 2.76010E-19
 -1      1579 9.59888E-05-2.87707E-05-2.88093E-05 3.63068E-07-3.35865E-19-8.68609E-19
 -1      1580 9.55018E-05-2.86442E-05-2.86545E-05 9.87960E-08 2.32328E-19-1.80919E-18
 -1      1581 9.56242E-05-2.86760E-05-2.86917E-05 1.08968E-07 5.53588E-19-3.76586E-19
 -1      1582 9.56859E-05-2.86864E-05-2.87154E-05 2.52192E-07 9.76077E-19-2.43673E-19
 -1      1583 9.53334E-05-2.85955E-05-2.86027E-05 6.35138E-08-3.78204E-20-3.06701E-18
 -1      1584 9.54132E-05-2.86156E-05-2.86270E-05 7.12030E-08 3.55258E-19-2.10853E-18
 -1      1585 9.54747E-05-2.86282E-05-2.86495E-05 1.68909E-07 9.41866E-19-8.66206E-19
 -1      1586 9.52262E-05-2.85647E-05-2.85696E-05 3.80691E-08 3.01606E-19-5.08257E-18
 -1      1587 9.52752E-05-2.85764E-05-2.85847E-05 4.37693E-08 2.71124E-19-4.23385E-18
 -1      1588 9.53325E-05-2.85896E-05-2.86049E-05 1.07659E-07 8.47368E-19-3.25876E-18
 -1      1589 9.51631E-05-2.85468E-05-2.85500E-05 2.01742E-08 4.36986E-19-5.47856E-18
 -1      1590 9.51902E-05-2.85527E-05-2.85584E-05 2.43149E-08-3.22008E-19-5.47308E-18
 -1      1591 9.52413E-05-2.85654E-05-2.85761E-05 6.36191E-08 3.88922E-19-5.10824E-18
 -1      1592 9.51309E-05-2.85379E-05-2.85399E-05 7.95733E-09 4.15050E-20-5.56751E-18
 -1      1593 9.51429E-05-2.85399E-05-2.85437E-05 1.08997E-08 6.06612E-19-4.75419E-18
 -1      1594 9.51868E-05-2.85513E-05-2.85586E-05 3.27507E-08 4.62556E-19-3.95181E-18
 -1      1595 9.51196E-05-2.85351E-05-2.85362E-05-7.69609E-11-2.76011E-19-5.38678E-18
 -1      1596 9.51216E-05-2.85345E-05-2.85370E-05 1.96316E-09-2.77682E-19-6.17163E-18
 -1      1597 9.51583E-05-2.85444E-05-2.85492E-05 1.17625E-08-7.56597E-20-2.97376E-18
 -1      1598 9.51220E-05-2.85362E-05-2.85367E-05-5.09715E-09 1.27216E-19-5.84420E-18
 -1      1599 9.51177E-05-2.85340E-05-2.85355E-05-3.72247E-09 2.41334E-19-5.95486E-18
 -1      1600 9.51475E-05-2.85424E-05-2.85453E-05-1.96544E-09 2.80235E-19-3.18293E-18
 -1      1601 9.51329E-05-2.85397E-05-2.85398E-05-7.99406E-09 3.80038E-19-6.75385E-18
 -1      1602 9.51248E-05-2.85366E-05-2.85375E-05-7.10015E-09-3.28582E-20-6.45362E-18
 -1      1603 9.51483E-05-2.85435E-05-2.85451E-05-1.04710E-08 4.12826E-19-5.46869E-18
 -1      1604 9.51486E-05-2.85446E-05-2.85444E-05-9.42544E-09-6.06845E-19-5.99328E-18
 -1      1605 9.51385E-05-2.85411E-05-2.85415E-05-8.87312E-09-5.94054E-20-6.59811E-18
 -1      1606 9.51565E-05-2.85465E-05-2.85473E-05-1.52969E-08-3.14389E-19-5.79626E-18
 -1      1607 9.51665E-05-2.85500E-05-2.85498E-05-9.85251E-09 1.98310E-19-6.54826E-18
 -1      1608 9.51557E-05-2.85465E-05-2.85466E-05-9.54288E-09 1.42699E-19-6.23169E-18
 -1      1609 9.51687E-05-2.85506E-05-2.85508E-05-1.75679E-08-1.17785E-19-5.92529E-18
 -1      1610 9.51848E-05-2.85556E-05-2.85552E-05-9.56574E-09 5.25344E-19-7.13807E-18
 -1      1611 9.51741E-05-2.85522E-05-2.85521E-05-9.43779E-09 4.74187E-19-6.82754E-18
 -1      1612 9.51830E-05-2.85551E-05-2.85549E-05-1.80527E-08 4.94656E-19-5.17088E-18
 -1      1613 9.52022E-05-2.85609E-05-2.85604E-05-8.69807E-09-4.29084E-19-6.93493E-18
 -1      1614 9.51922E-05-2.85578E-05-2.85575E-05-8.72968E-09 3.32269E-19-7.06952E-18
 -1      1615 9.51975E-05-2.85597E-05-2.85591E-05-1.72044E-08 3.98866E-19-5.86655E-18
 -1      1616 9.52173E-05-2.85656E-05-2.85649E-05-7.23042E-09-1.18568E-18-5.46063E-18
 -1      1617 9.52088E-05-2.85630E-05-2.85624E-05-7.44335E-09-7.69046E-19-6.86835E-18
 -1      1618 9.52111E-05-2.85640E-05-2.85631E-05-1.51850E-08-8.96891E-19-4.01771E-18
 -1      1619 9.52289E-05-2.85692E-05-2.85682E-05-4.98529E-09-1.51424E-18-1.72125E-18
 -1      1620 9.52226E-05-2.85674E-05-2.85664E-05-5.47237E-09-1.36371E-18-4.20112E-18
 -1      1621 9.52227E-05-2.85678E-05-2.85664E-05-1.18914E-08-2.51283E-18-2.68757E-18
 -1      1622 9.52355E-05-2.85713E-05-2.85703E-05-1.98828E-09 6.71037E-19-9.46574E-19
 -1      1623 9.52324E-05-2.85706E-05-2.85693E-05-2.71259E-09 5.28869E-19-1.34691E-18
 -1      1624 9.52315E-05-2.85708E-05-2.85688E-05-7.09853E-09-4.75989E-20-7.14058E-19
 -1      1625 9.52370E-05-2.85716E-05-2.85709E-05-2.24769E-10-2.14667E-19-7.39645E-19
 -1      1626 9.52383E-05-2.85776E-05-2.85688E-05-4.21993E-09-5.68593E-19-8.88663E-19
 -1      1627 9.52372E-05-2.85742E-05-2.85698E-05-3.42477E-09 6.44840E-20 3.76910E-19
 -1      1628 9.52416E-05-2.85873E-05-2.85661E-05-6.57683E-09-7.57357E-19 6.36325E-19
 -1      1629 9.52396E-05-2.85815E-05-2.85677E-05-6.21977E-09-9.05012E-20-3.35148E-19
 -1      1630 9.52384E-05-2.85800E-05-2.85678E-05-1.00775E-08-8.34649E-19-1.24653E-18
 -1      1631 9.52455E-05-2.85990E-05-2.85628E-05-7.49301E-09-1.24369E-18-5.28438E-19
 -1      1632 9.52432E-05-2.85921E-05-2.85647E-05-7.43218E-09-9.04916E-19 7.78322E-19
 -1      1633 9.52419E-05-2.85887E-05-2.85656E-05-1.34664E-08-2.18571E-19 6.15923E-19
 -1      1634 9.52493E-05-2.86108E-05-2.85594E-05-7.18700E-09-1.22893E-18-2.99492E-19
 -1      1635 9.52471E-05-2.86040E-05-2.85613E-05-7.34477E-09-1.23228E-18 3.35176E-19
 -1      1636 9.52454E-05-2.85985E-05-2.85630E-05-1.42688E-08-1.68113E-18-3.49674E-19
 -1      1637 9.52525E-05-2.86209E-05-2.85564E-05-6.00954E-09-1.87985E-18 3.75485E-19
 -1      1638 9.52507E-05-2.86152E-05-2.85581E-05-6.30306E-09-2.26662E-18-1.37339E-18
 -1      1639 9.52487E-05-2.86078E-05-2.85604E-05-1.29852E-08-1.24606E-18-1.25882E-18
 -1      1640 9.52549E-05-2.86286E-05-2.85542E-05-4.21597E-09-1.66523E-18-6.80729E-19
 -1      1641 9.52536E-05-2.86245E-05-2.85554E-05-4.60608E-09-2.07859E-18-3.53443E-20
 -1      1642 9.52513E-05-2.86157E-05-2.85582E-05-1.02290E-08-1.59298E-18-4.01948E-19
 -1      1643 9.52563E-05-2.86330E-05-2.85529E-05-2.06418E-09-1.93673E-18-6.92279E-19
 -1      1644 9.52556E-05-2.86309E-05-2.85535E-05-2.50231E-09-8.70306E-19-2.67418E-19
 -1      1645 9.52532E-05-2.86215E-05-2.85566E-05-6.47910E-09-1.22093E-18 2.17359E-19
 -1      1646 9.52565E-05-2.86337E-05-2.85526E-05 2.46161E-10-1.50021E-18 3.60881E-19
 -1      1647 9.52565E-05-2.86338E-05-2.85526E-05-2.06906E-10-1.75464E-18-4.05794E-19
 -1      1648 9.52542E-05-2.86245E-05-2.85557E-05-2.19118E-09-3.33742E-19-7.78447E-19
 -1      1649 9.52556E-05-2.86308E-05-2.85535E-05 2.53935E-09 3.48769E-19 2.16595E-18
 -1      1650 9.52563E-05-2.86329E-05-2.85529E-05 2.10208E-09-1.71760E-18 1.63977E-18
 -1      1651 9.52542E-05-2.86244E-05-2.85558E-05 2.26570E-09 6.95270E-19 9.52198E-19
 -1      1652 9.52536E-05-2.86243E-05-2.85554E-05 4.63710E-09-1.50069E-18-2.65700E-18
 -1      1653 9.52549E-05-2.86285E-05-2.85542E-05 4.24947E-09 6.53853E-19-5.96501E-19
 -1      1654 9.52532E-05-2.86214E-05-2.85566E-05 6.54770E-09-1.47836E-18 9.44005E-19
 -1      1655 9.52507E-05-2.86151E-05-2.85581E-05 6.30843E-09-1.70876E-18 1.22744E-18
 -1      1656 9.52525E-05-2.86208E-05-2.85565E-05 6.01859E-09-1.54927E-18-8.98187E-19
 -1      1657 9.52513E-05-2.86157E-05-2.85582E-05 1.02606E-08-6.82276E-19-2.88132E-18
 -1      1658 9.52470E-05-2.86038E-05-2.85614E-05 7.35386E-09-2.80326E-19-4.62004E-19
 -1      1659 9.52493E-05-2.86106E-05-2.85594E-05 7.19930E-09-1.37577E-18 2.00028E-18
 -1      1660 9.52486E-05-2.86077E-05-2.85605E-05 1.30040E-08-5.95111E-19 2.37583E-18
 -1      1661 9.52432E-05-2.85920E-05-2.85648E-05 7.44620E-09 1.07259E-19-6.98083E-19
 -1      1662 9.52455E-05-2.85989E-05-2.85628E-05 7.49105E-09 5.11466E-19-6.75974E-19
 -1      1663 9.52454E-05-2.85983E-05-2.85630E-05 1.42732E-08 7.86478E-19-5.35943E-19
 -1      1664 9.52396E-05-2.85815E-05-2.85678E-05 6.18460E-09-6.91854E-20 2.51876E-19
 -1      1665 9.52416E-05-2.85872E-05-2.85661E-05 6.54341E-09 1.53952E-20 4.05107E-19
 -1      1666 9.52418E-05-2.85886E-05-2.85656E-05 1.34325E-08 7.74464E-19-5.73676E-19
 -1      1667 9.52370E-05-2.85749E-05-2.85695E-05 4.91764E-09-1.01212E-18-3.20204E-19
 -1      1668 9.52381E-05-2.85783E-05-2.85685E-05 6.08209E-09-3.90825E-19-6.61167E-19
 -1      1669 9.52382E-05-2.85805E-05-2.85675E-05 1.17331E-08-4.17896E-19-2.86809E-19
 -1      1670 9.52341E-05-2.85744E-05-2.85684E-05 9.48862E-09-3.90445E-20 1.45605E-19
 -1      1671 2.01818E-05-6.60832E-05 1.38314E-05-6.00214E-06 7.57544E-18 4.89013E-18
 -1      1672 2.35172E-05-7.56547E-05 1.58467E-05 1.79863E-06 1.39887E-18 4.03315E-18
 -1      1673 2.01549E-05-3.84644E-05 3.73907E-06 3.95263E-06 1.39972E-17 9.57624E-18
 -1      1674 2.44073E-05-6.09388E-05 9.79092E-06 1.55386E-07 9.13949E-18 5.70625E-18
 -1      1675 3.52379E-05-1.19802E-05-1.18858E-05 2.81429E-05 1.78267E-17 1.37939E-17
 -1      1676 2.94826E-05-3.24443E-05-3.23822E-06 1.07172E-05 1.57506E-17 1.01779E-17
 -1      1677 7.54000E-05-2.00032E-06-3.08949E-05 5.93435E-05 1.60462E-17 1.68238E-17
 -1      1678 4.98590E-05-7.03479E-06-2.08120E-05 3.62149E-05 1.79673E-17 1.49908E-17
 -1      1679 1.46769E-04-2.21323E-05-5.02127E-05 7.12581E-05 1.04465E-17 1.31104E-17
 -1      1680 1.04513E-04-9.50713E-06-4.03681E-05 5.98455E-05 1.37863E-17 1.45385E-17
 -1      1681 2.11334E-04-4.49416E-05-6.56664E-05 6.16599E-05 6.65164E-18 8.93704E-18
 -1      1682 1.68692E-04-2.43749E-05-5.86855E-05 7.21123E-05 9.81923E-18 1.30748E-17
 -1      1683 2.50120E-04-6.28445E-05-7.37773E-05 2.13596E-05 4.14432E-18-1.11342E-18
 -1      1684 2.27490E-04-5.04227E-05-7.05226E-05 5.01888E-05 5.94712E-18 5.64039E-18
 -1      1685 2.46613E-04-5.98435E-05-7.39642E-05-2.91076E-05 6.27122E-18-1.23336E-17
 -1      1686 2.54227E-04-6.41805E-05-7.49454E-05 5.84359E-06 4.46026E-18-4.62956E-18
 -1      1687 1.99748E-04-3.71953E-05-6.52947E-05-6.45683E-05 1.11218E-17-2.06549E-17
 -1      1688 2.34728E-04-5.56202E-05-7.06936E-05-4.29797E-05 7.56242E-18-1.49743E-17
 -1      1689 1.36080E-04-1.20736E-05-5.09508E-05-7.50101E-05 1.72176E-17-2.48113E-17
 -1      1690 1.79796E-04-3.08441E-05-5.90584E-05-7.57384E-05 1.29621E-17-2.32519E-17
 -1      1691 7.65805E-05-1.90412E-06-3.26200E-05-5.53099E-05 2.09912E-17-2.27767E-17
 -1      1692 1.11937E-04-7.28714E-06-4.23522E-05-7.39811E-05 1.86898E-17-2.48231E-17
 -1      1693 3.93468E-05-1.47889E-05-1.37682E-05-2.55213E-05 2.09700E-17-1.67103E-17
 -1      1694 5.57608E-05-1.93970E-06-2.33129E-05-4.79901E-05 2.15688E-17-2.14240E-17
 -1      1695 2.72392E-05-4.50224E-05 2.49789E-06-5.34132E-06 1.39896E-17-9.97784E-18
 -1      1696 2.80304E-05-2.16974E-05-5.49190E-06-1.83580E-05 1.88431E-17-1.45304E-17
 -1      1697 2.42956E-05-7.04770E-05 1.32903E-05 1.03931E-06 4.62056E-18-5.45119E-18
 -1      1698 1.88448E-05-5.11095E-05 8.73684E-06 2.85163E-06 1.20965E-17-8.39717E-18
 -1      1699 2.34293E-05-7.72867E-05 1.63931E-05-4.18073E-06-5.71705E-18-4.17079E-18
 -1      1700 2.25617E-05-7.48502E-05 1.58774E-05 5.60525E-06 1.55049E-18-4.12082E-18
 -1      1701 1.94949E-05-5.83197E-05 1.11418E-05-4.81047E-06-1.52280E-17-7.79884E-18
 -1      1702 2.43563E-05-7.42290E-05 1.47635E-05-9.32817E-08-8.71089E-18-4.99961E-18
 -1      1703 2.15118E-05-2.91163E-05-4.70772E-07 8.32881E-06-2.24159E-17-1.46554E-17
 -1      1704 2.42079E-05-5.25938E-05 6.26222E-06-1.35676E-07-1.77987E-17-9.94406E-18
 -1      1705 4.79249E-05-8.03842E-06-1.80470E-05 3.96011E-05-2.33281E-17-2.03135E-17
 -1      1706 3.59760E-05-2.51619E-05-8.52276E-06 1.84093E-05-2.23693E-17-1.60483E-17
 -1      1707 9.47571E-05-3.46941E-06-3.73022E-05 6.86506E-05-2.09768E-17-2.43827E-17
 -1      1708 6.36535E-05-3.19967E-06-2.73754E-05 4.71271E-05-2.38829E-17-2.24303E-17
 -1      1709 1.64225E-04-2.51439E-05-5.53058E-05 7.66844E-05-1.42331E-17-2.15434E-17
 -1      1710 1.20358E-04-8.96931E-06-4.63541E-05 7.00868E-05-1.86741E-17-2.39439E-17
 -1      1711 2.24172E-04-5.03138E-05-6.83387E-05 5.80322E-05-8.56123E-18-1.40658E-17
 -1      1712 1.86635E-04-3.10839E-05-6.25186E-05 7.25740E-05-1.26966E-17-1.98350E-17
 -1      1713 2.55680E-04-6.53468E-05-7.47172E-05 1.53972E-05-4.85053E-18-4.60871E-18
 -1      1714 2.38297E-04-5.54522E-05-7.23062E-05 4.54748E-05-6.59415E-18-1.12380E-17
 -1      1715 2.47538E-04-6.05995E-05-7.38114E-05-3.20816E-05-4.24088E-18 4.34274E-18
 -1      1716 2.57526E-04-6.61000E-05-7.51895E-05-4.08695E-07-3.88682E-18-1.40205E-18
 -1      1717 2.03200E-04-3.87097E-05-6.58321E-05-6.64590E-05-6.94382E-18 1.12918E-17
 -1      1718 2.36728E-04-5.64394E-05-7.07954E-05-4.62852E-05-4.52707E-18 6.97743E-18
 -1      1719 1.38721E-04-1.51840E-05-5.09222E-05-7.03038E-05-1.19389E-17 1.50416E-17
 -1      1720 1.82057E-04-3.31980E-05-5.91613E-05-7.06813E-05-8.80152E-18 1.25217E-17
 -1      1721 7.96851E-05-2.35453E-06-3.36706E-05-5.63486E-05-1.40582E-17 1.57955E-17
 -1      1722 1.13750E-04-8.39338E-06-4.27435E-05-7.30408E-05-1.25479E-17 1.71711E-17
 -1      1723 4.44210E-05-1.62373E-05-1.50724E-05-2.76607E-05-1.37219E-17 1.08725E-17
 -1      1724 6.28034E-05-5.46949E-06-2.46809E-05-4.96343E-05-1.35441E-17 1.39439E-17
 -1      1725 2.58346E-05-3.89817E-05 5.32239E-07-5.19409E-06-1.22201E-17 7.51255E-18
 -1      1726 2.72753E-05-1.82418E-05-6.75733E-06-1.86336E-05-1.42615E-17 1.00661E-17
 -1      1727 2.39996E-05-6.55570E-05 1.11928E-05 4.34475E-06-8.40003E-18 4.06700E-18
 -1      1728 1.83595E-05-4.44497E-05 6.12107E-06 3.30432E-06-1.20160E-17 6.48023E-18
 -1      1729 3.32123E-05-4.25804E-05 4.55427E-07-2.33627E-05-5.69460E-18 6.62820E-18
 -1      1730 2.40991E-05-7.71637E-05 1.61364E-05-1.57310E-06-1.37960E-19 3.26743E-18
 -1      1731 2.13043E-05-6.98977E-05 1.45240E-05 6.28891E-06-5.53155E-18 3.47749E-18
 -1      1732 1.18504E-04-3.35366E-05-3.52124E-05 4.33211E-05 8.92730E-18 6.98972E-18
 -1      1733 7.21855E-05-3.44218E-05-1.74578E-05 3.91809E-05 9.47745E-18 9.13737E-18
 -1      1734 9.52364E-05-2.85722E-05-2.85703E-05-1.97674E-09-3.01633E-19 2.53300E-19
 -1      1735 9.52357E-05-2.85740E-05-2.85692E-05-5.88700E-09 4.37117E-19 8.75164E-19
 -1      1736 1.88539E-05-4.68557E-05 8.02132E-06 1.50011E-05 3.85019E-18 7.75480E-18
 -1      1737 4.03478E-05-4.16284E-05-2.35931E-06 2.84977E-05 6.85080E-18 8.68873E-18
 -1      1738 1.19132E-05-5.11726E-05 1.21475E-05 6.72279E-07 8.29351E-19 6.16386E-18
 -1      1739 1.60952E-04-3.44486E-05-5.17953E-05 3.49153E-05 8.00531E-18 5.08982E-18
 -1      1740 1.94474E-04-3.30265E-05-6.45516E-05 2.60718E-05 8.35640E-18 2.04008E-18
 -1      1741 2.11087E-04-3.44043E-05-7.02988E-05 5.45213E-06 8.32210E-18-3.10078E-18
 -1      1742 2.03841E-04-3.26964E-05-6.82813E-05-1.55779E-05 9.70912E-18-8.00404E-18
 -1      1743 1.79906E-04-3.18186E-05-5.93540E-05-3.54731E-05 1.07689E-17-1.22396E-17
 -1      1744 1.40745E-04-2.98974E-05-4.52026E-05-4.68417E-05 1.21515E-17-1.49628E-17
 -1      1745 9.64927E-05-3.08120E-05-2.81086E-05-4.49090E-05 1.25471E-17-1.52745E-17
 -1      1746 5.93004E-05-3.77202E-05-1.12695E-05-3.57757E-05 9.97551E-18-1.27565E-17
 -1      1747 3.10454E-05-4.44597E-05 2.37301E-06-2.40814E-05 6.05967E-18-1.08354E-17
 -1      1748 1.46986E-05-5.05543E-05 1.07746E-05-8.77675E-06 1.44610E-18-9.13186E-18
 -1      1749 1.32130E-05-5.15566E-05 1.17039E-05 5.25206E-06-4.40627E-18-8.42205E-18
 -1      1750 2.43174E-05-4.65673E-05 5.52071E-06 1.85512E-05-9.10349E-18-1.05771E-17
 -1      1751 5.07458E-05-4.02757E-05-6.86962E-06 3.31171E-05-1.21541E-17-1.28633E-17
 -1      1752 8.72533E-05-3.45613E-05-2.31960E-05 4.23826E-05-1.37092E-17-1.41336E-17
 -1      1753 1.29913E-04-3.06257E-05-4.08107E-05 4.62349E-05-1.39040E-17-1.41268E-17
 -1      1754 1.71580E-04-3.18983E-05-5.62076E-05 3.95158E-05-1.25472E-17-1.18466E-17
 -1      1755 2.02769E-04-3.47352E-05-6.68795E-05 2.56525E-05-1.04016E-17-7.99387E-18
 -1      1756 2.15937E-04-3.66861E-05-7.11083E-05 3.83747E-06-7.91637E-18-3.57231E-18
 -1      1757 2.08060E-04-3.52267E-05-6.86677E-05-1.84948E-05-6.65937E-18 1.61063E-18
 -1      1758 1.80818E-04-3.31207E-05-5.94079E-05-3.29851E-05-7.78640E-18 4.66461E-18
 -1      1759 1.42810E-04-3.14502E-05-4.54711E-05-4.32924E-05-7.58391E-18 7.28872E-18
 -1      1760 1.01121E-04-3.32212E-05-2.89922E-05-4.36149E-05-6.45270E-18 8.60162E-18
 -1      1761 6.33385E-05-3.73246E-05-1.27604E-05-3.67285E-05-6.17148E-18 7.13795E-18
 -1      1762 1.09688E-04-2.43949E-05-3.66505E-05-1.47710E-05-2.64756E-18 9.97593E-18
 -1      1763 1.77915E-05-5.07853E-05 9.43176E-06-9.91992E-06-2.87906E-18 5.90530E-18
 -1      1764 9.09605E-05-1.07976E-05-3.44909E-05-9.19390E-06-3.22226E-18-4.10515E-18
 -1      1765 9.31423E-05-1.22039E-05-3.48202E-05-1.10479E-05-3.74649E-18-3.01538E-18
 -1      1766 9.59626E-05-1.48959E-05-3.49090E-05-1.22096E-05-3.82770E-18-1.58406E-18
 -1      1767 9.83046E-05-1.71495E-05-3.52464E-05-1.41093E-05-4.11624E-18 3.90006E-19
 -1      1768 9.66652E-05-1.71774E-05-3.40673E-05-9.62767E-06-4.01993E-18-2.03542E-18
 -1      1769 8.42297E-05-6.18714E-06-3.35235E-05-4.26901E-06-1.66555E-18-6.05539E-18
 -1      1770 8.55146E-05-6.79164E-06-3.37803E-05-5.38971E-06-2.07495E-18-5.84946E-18
 -1      1771 8.19809E-05-4.81999E-06-3.31281E-05-2.56346E-06-8.59209E-19-6.23837E-18
 -1      1772 8.29502E-05-5.24905E-06-3.33310E-05-3.43709E-06-1.26087E-18-6.19533E-18
 -1      1773 8.47883E-05-7.65446E-06-3.30811E-05-3.38168E-06-1.60360E-18-5.87541E-18
 -1      1774 8.04983E-05-3.94026E-06-3.28564E-05-1.25543E-06-9.40074E-20-6.22050E-18
 -1      1775 8.10983E-05-4.19701E-06-3.29852E-05-1.94498E-06-4.39018E-19-6.24702E-18
 -1      1776 8.25037E-05-6.11376E-06-3.27582E-05-1.95450E-06-6.83537E-19-5.99699E-18
 -1      1777 7.98507E-05-3.54672E-06-3.27376E-05-1.81381E-07 6.36215E-19-6.09998E-18
 -1      1778 8.00491E-05-3.63007E-06-3.27811E-05-7.77213E-07 2.89483E-19-6.19315E-18
 -1      1779 8.10953E-05-5.19168E-06-3.25469E-05-8.69296E-07 1.05074E-19-6.00427E-18
 -1      1780 8.00769E-05-3.64761E-06-3.27848E-05 8.47702E-07 1.34316E-18-5.86097E-18
 -1      1781 7.98608E-05-3.55556E-06-3.27390E-05 2.49730E-07 1.00953E-18-6.02178E-18
 -1      1782 8.06335E-05-4.89487E-06-3.24752E-05 3.30400E-08 8.90064E-19-5.89077E-18
 -1      1783 8.11631E-05-4.24231E-06-3.29933E-05 2.02706E-06 2.02304E-18-5.53695E-18
 -1      1784 8.05462E-05-3.97553E-06-3.28625E-05 1.33117E-06 1.69375E-18-5.73685E-18
 -1      1785 8.11453E-05-5.23020E-06-3.25521E-05 9.40659E-07 1.60016E-18-5.61649E-18
 -1      1786 8.30107E-05-5.30049E-06-3.33349E-05 3.50994E-06 2.67554E-18-4.92854E-18
 -1      1787 8.20467E-05-4.87108E-06-3.31349E-05 2.64364E-06 2.34512E-18-5.30341E-18
 -1      1788 8.25852E-05-6.17986E-06-3.27650E-05 2.02979E-06 2.35826E-18-5.20866E-18
 -1      1789 8.56207E-05-6.88265E-06-3.37872E-05 5.50047E-06 3.48723E-18-3.96332E-18
 -1      1790 8.43017E-05-6.25437E-06-3.35266E-05 4.34997E-06 3.04784E-18-4.49989E-18
 -1      1791 8.48849E-05-7.74092E-06-3.30858E-05 3.46186E-06 3.03730E-18-4.48002E-18
 -1      1792 8.89835E-05-9.11294E-06-3.43019E-05 8.08912E-06 4.11188E-18-2.49390E-18
 -1      1793 8.73017E-05-8.21308E-06-3.39998E-05 6.58737E-06 3.73546E-18-3.42236E-18
 -1      1794 8.80190E-05-9.98300E-06-3.34699E-05 5.34123E-06 3.82755E-18-3.45989E-18
 -1      1795 9.33537E-05-1.24412E-05-3.48180E-05 1.12569E-05 4.51580E-18 9.74353E-20
 -1      1796 9.11325E-05-1.10010E-05-3.44911E-05 9.36788E-06 4.22622E-18-1.43575E-18
 -1      1797 9.20170E-05-1.30992E-05-3.38384E-05 7.61764E-06 4.37008E-18-1.69745E-18
 -1      1798 9.98795E-05-1.83123E-05-3.51420E-05 1.42003E-05 4.29861E-18 4.68430E-18
 -1      1799 9.63446E-05-1.53632E-05-3.48861E-05 1.24047E-05 4.34951E-18 1.98579E-18
 -1      1800 9.71752E-05-1.76983E-05-3.40494E-05 9.79702E-06 4.52563E-18 1.12184E-18
 -1      1801 1.06303E-04-2.65471E-05-3.45989E-05 1.17112E-05 3.56220E-18 1.00018E-17
 -1      1802 1.02354E-04-2.10391E-05-3.48529E-05 1.38118E-05 3.94611E-18 6.51506E-18
 -1      1803 1.01780E-04-2.32449E-05-3.37185E-05 9.70843E-06 4.40730E-18 4.59147E-18
 -1      1804 1.03868E-04-2.77530E-05-3.28140E-05 6.72602E-06 3.56926E-18 8.82993E-18
 -1      1805 1.04385E-04-2.10306E-05-3.54223E-05-1.59432E-05-3.58438E-18 3.87571E-18
 -1      1806 1.01890E-04-2.92209E-05-3.11572E-05 1.31811E-06 2.96624E-18 6.99510E-18
 -1      1807 1.03425E-04-2.90954E-05-3.18896E-05 3.70008E-06 3.05342E-18 8.11249E-18
 -1      1808 1.02895E-04-2.72436E-05-3.24259E-05 5.50060E-06 3.68544E-18 5.69291E-18
 -1      1809 1.76537E-05-3.66619E-05 6.67986E-06-1.58575E-05 5.92711E-19 5.37146E-18
 -1      1810 2.53887E-05-3.67640E-05 3.62846E-06-2.35436E-05-1.59793E-18 5.07034E-18
 -1      1811 1.04149E-04-2.39358E-05-3.41039E-05-1.12211E-05-3.83849E-18 2.52225E-18
 -1      1812 1.02801E-04-2.86594E-05-3.16568E-05-2.44343E-06-3.10268E-18 2.07662E-18
 -1      1813 1.01885E-04-2.89295E-05-3.12211E-05-5.58829E-07-2.64166E-18 1.32232E-18
 -1      1814 1.01672E-04-2.92720E-05-3.09315E-05 1.11360E-06-2.26258E-18 1.23319E-18
 -1      1815 1.01879E-04-2.96349E-05-3.09138E-05 2.10618E-06-2.01259E-18 5.86756E-19
 -1      1816 1.01520E-04-2.81321E-05-3.14840E-05-1.52660E-07-2.90002E-18-1.31250E-19
 -1      1817 1.02089E-04-2.99140E-05-3.08742E-05 3.12907E-06-1.78282E-18 5.96099E-19
 -1      1818 1.02858E-04-3.03406E-05-3.10517E-05 3.68475E-06-1.45765E-18 1.81153E-19
 -1      1819 1.01667E-04-2.91816E-05-3.10947E-05 2.93202E-06-2.20396E-18-3.45044E-19
 -1      1820 1.03436E-04-3.06924E-05-3.11454E-05 4.24738E-06-1.14750E-18 2.26422E-19
 -1      1821 1.04517E-04-3.12124E-05-3.14117E-05 4.46401E-06-7.97235E-19-2.74789E-20
 -1      1822 1.02572E-04-3.00990E-05-3.10850E-05 4.75033E-06-1.54484E-18-4.16290E-19
 -1      1823 1.05370E-04-3.16774E-05-3.15679E-05 4.59007E-06-6.35215E-19 8.04880E-20
 -1      1824 1.06535E-04-3.22697E-05-3.18482E-05 4.43469E-06-5.73122E-19-2.46367E-19
 -1      1825 1.04097E-04-3.11772E-05-3.12720E-05 5.56953E-06-8.94197E-19-5.47362E-19
 -1      1826 1.07563E-04-3.28505E-05-3.20140E-05 4.04797E-06-6.04487E-19 2.78065E-20
 -1      1827 1.08565E-04-3.34517E-05-3.22383E-05 3.43364E-06-6.23509E-19-2.46381E-19
 -1      1828 1.06074E-04-3.25209E-05-3.15373E-05 5.34249E-06-6.35895E-19-5.75561E-19
 -1      1829 1.09636E-04-3.40997E-05-3.23735E-05 2.42532E-06-5.54747E-19 1.27240E-19
 -1      1830 1.10192E-04-3.45787E-05-3.24748E-05 1.28837E-06-4.61633E-19 1.40166E-19
 -1      1831 1.08278E-04-3.40948E-05-3.17988E-05 3.87021E-06-4.67708E-19-1.14687E-19
 -1      1832 1.11096E-04-3.51492E-05-3.25566E-05-3.74987E-07-3.75368E-19 4.68858E-19
 -1      1833 1.10915E-04-3.52867E-05-3.24868E-05-1.95680E-06-1.87988E-19 6.61389E-19
 -1      1834 1.10361E-04-3.56486E-05-3.20111E-05 9.85370E-07-2.50464E-19 2.49604E-19
 -1      1835 1.11340E-04-3.55060E-05-3.25200E-05-4.06084E-06-3.68969E-19 6.77522E-19
 -1      1836 1.10228E-04-3.50331E-05-3.22761E-05-5.72759E-06-2.43132E-19 3.23858E-19
 -1      1837 1.11768E-04-3.66137E-05-3.21790E-05-3.15010E-06-3.73733E-19 7.06464E-19
 -1      1838 1.09831E-04-3.45660E-05-3.22937E-05-7.63162E-06-4.16423E-19 2.23041E-19
 -1      1839 1.07878E-04-3.33396E-05-3.19377E-05-8.68886E-06-9.58140E-19-3.53868E-19
 -1      1840 1.11784E-04-3.61602E-05-3.23605E-05-7.65185E-06-5.93486E-19 5.77544E-19
 -1      1841 1.06571E-04-3.20703E-05-3.19773E-05-9.36417E-06-1.18265E-18-5.53132E-19
 -1      1842 1.04312E-04-3.03627E-05-3.16257E-05-9.02399E-06-1.13786E-18-9.07980E-19
 -1      1843 1.09916E-04-3.36947E-05-3.26243E-05-1.06902E-05-1.37244E-18 1.65006E-19
 -1      1844 1.02647E-04-2.87734E-05-3.16919E-05-7.60864E-06-1.08952E-18-1.53668E-18
 -1      1845 1.01004E-04-2.73789E-05-3.14700E-05-5.59143E-06-1.14760E-18-1.73635E-18
 -1      1846 1.06634E-04-2.97428E-05-3.29647E-05-1.00484E-05-1.57223E-18-5.76537E-19
 -1      1847 1.00079E-04-2.64781E-05-3.15242E-05-2.29323E-06-1.12420E-18-2.54237E-18
 -1      1848 9.98831E-05-2.62577E-05-3.15120E-05 6.67826E-07-1.34654E-18-2.47610E-18
 -1      1849 1.03753E-04-2.63440E-05-3.32593E-05-4.81260E-06-1.57580E-18-1.53455E-18
 -1      1850 1.00451E-04-2.67441E-05-3.15161E-05 4.30667E-06-1.35823E-18-2.71876E-18
 -1      1851 1.01852E-04-2.78612E-05-3.17257E-05 6.79017E-06-1.11741E-18-2.89683E-18
 -1      1852 1.03344E-04-2.57721E-05-3.33452E-05 3.06101E-06-1.69620E-18-3.01409E-18
 -1      1853 1.03515E-04-2.93651E-05-3.16995E-05 8.96492E-06-1.00576E-18-3.26237E-18
 -1      1854 1.05865E-04-3.11270E-05-3.20743E-05 9.91290E-06-8.19319E-19-3.58450E-18
 -1      1855 1.05803E-04-2.84573E-05-3.31863E-05 9.59404E-06-1.28206E-18-2.99978E-18
 -1      1856 1.07519E-04-3.26303E-05-3.20655E-05 9.91680E-06-1.05299E-18-4.22581E-18
 -1      1857 1.09863E-04-3.41411E-05-3.24919E-05 9.28317E-06-7.11521E-19-4.50725E-18
 -1      1858 1.09448E-04-3.25601E-05-3.29196E-05 1.18779E-05-1.39289E-18-3.74512E-18
 -1      1859 1.10713E-04-3.49324E-05-3.25117E-05 7.69717E-06-4.83530E-19-4.49941E-18
 -1      1860 1.12350E-04-3.57280E-05-3.28626E-05 6.16643E-06-2.27825E-19-4.38638E-18
 -1      1861 1.12177E-04-3.57536E-05-3.27000E-05 9.92204E-06-6.05215E-19-4.20179E-18
 -1      1862 1.12291E-04-3.57479E-05-3.28767E-05 4.04611E-06-1.60407E-20-4.11416E-18
 -1      1863 1.12987E-04-3.58596E-05-3.30660E-05 2.38780E-06 4.43276E-19-4.30710E-18
 -1      1864 1.13029E-04-3.69493E-05-3.25666E-05 5.70626E-06 1.13403E-19-3.28565E-18
 -1      1865 1.12307E-04-3.54094E-05-3.30330E-05 5.24260E-07 6.24257E-19-4.01952E-18
 -1      1866 1.12171E-04-3.50904E-05-3.30392E-05-7.90198E-07 9.28573E-19-3.99229E-18
 -1      1867 1.12239E-04-3.64597E-05-3.24593E-05 1.29757E-06 5.87053E-19-3.47313E-18
 -1      1868 1.11196E-04-3.44811E-05-3.29379E-05-2.06698E-06 8.40204E-19-4.00337E-18
 -1      1869 1.10482E-04-3.39754E-05-3.27904E-05-2.89164E-06 6.64028E-19-3.56194E-18
 -1      1870 1.10490E-04-3.51165E-05-3.23001E-05-2.12162E-06 9.39009E-19-3.41072E-18
 -1      1871 1.09431E-04-3.33910E-05-3.26253E-05-3.57685E-06 5.45115E-19-2.95483E-18
 -1      1872 1.08399E-04-3.28541E-05-3.23766E-05-3.96354E-06 1.07047E-18-2.69277E-18
 -1      1873 1.08371E-04-3.36024E-05-3.20485E-05-4.23257E-06 9.26060E-19-2.14715E-18
 -1      1874 1.07387E-04-3.23658E-05-3.21679E-05-4.19300E-06 1.20136E-18-2.59137E-18
 -1      1875 1.06242E-04-3.18739E-05-3.18707E-05-4.26575E-06 1.23234E-18-2.20985E-18
 -1      1876 1.06236E-04-3.22674E-05-3.17085E-05-5.20045E-06 1.21920E-18-2.23354E-18
 -1      1877 1.05322E-04-3.14909E-05-3.16425E-05-4.19883E-06 9.63454E-19-2.40545E-18
 -1      1878 1.04199E-04-3.10721E-05-3.13377E-05-4.08107E-06 8.51038E-19-2.03391E-18
 -1      1879 1.04256E-04-3.12172E-05-3.13109E-05-5.35258E-06 1.16569E-18-2.37376E-18
 -1      1880 1.03392E-04-3.07796E-05-3.11108E-05-3.84990E-06 3.85956E-19-2.42822E-18
 -1      1881 1.02371E-04-3.04374E-05-3.08250E-05-3.63644E-06 1.27053E-19-2.55398E-18
 -1      1882 1.02500E-04-3.04373E-05-3.08928E-05-5.00614E-06 3.85366E-19-2.40116E-18
 -1      1883 1.01680E-04-3.02161E-05-3.06138E-05-3.33382E-06 1.05943E-19-2.25059E-18
 -1      1884 1.00797E-04-2.99439E-05-3.03613E-05-3.08744E-06 3.34716E-19-1.97355E-18
 -1      1885 1.00988E-04-2.98735E-05-3.04862E-05-4.40489E-06 5.04790E-19-2.22837E-18
 -1      1886 1.00218E-04-2.97768E-05-3.01741E-05-2.77153E-06 5.67411E-19-1.02552E-18
 -1      1887 9.94831E-05-2.95646E-05-2.99605E-05-2.52924E-06 6.92671E-19-7.82034E-19
 -1      1888 9.97145E-05-2.94702E-05-3.01128E-05-3.71258E-06 8.55938E-19-9.01763E-19
 -1      1889 9.90075E-05-2.94387E-05-2.98007E-05-2.23270E-06 6.11894E-19-6.29514E-19
 -1      1890 9.84135E-05-2.92762E-05-2.96258E-05-2.01366E-06 4.21851E-19-4.06613E-19
 -1      1891 9.86631E-05-2.91826E-05-2.97847E-05-3.02807E-06 9.13826E-19-1.12108E-18
 -1      1892 9.80302E-05-2.91816E-05-2.94936E-05-1.75228E-06-6.65935E-19-8.05940E-19
 -1      1893 9.75619E-05-2.90593E-05-2.93541E-05-1.56444E-06-1.27639E-18-1.37868E-18
 -1      1894 9.78110E-05-2.89780E-05-2.95065E-05-2.40438E-06-5.32999E-19-9.63824E-19
 -1      1895 9.72588E-05-2.89889E-05-2.92474E-05-1.34362E-06-9.19192E-19-2.25861E-19
 -1      1896 9.68978E-05-2.88985E-05-2.91389E-05-1.18837E-06 2.99307E-20-3.66663E-19
 -1      1897 9.71327E-05-2.88330E-05-2.92771E-05-1.86485E-06-1.82732E-19-4.03806E-19
 -1      1898 9.66624E-05-2.88466E-05-2.90547E-05-1.00762E-06 1.68697E-19-2.23133E-19
 -1      1899 9.63901E-05-2.87811E-05-2.89721E-05-8.82917E-07 3.37024E-19-3.29022E-20
 -1      1900 9.66023E-05-2.87311E-05-2.90925E-05-1.41499E-06 2.45015E-20 3.40659E-19
 -1      1901 9.62106E-05-2.87436E-05-2.89071E-05-7.38680E-07 6.17794E-19 2.49357E-19
 -1      1902 9.60097E-05-2.86973E-05-2.88456E-05-6.40851E-07 6.52891E-19 4.59707E-19
 -1      1903 9.61950E-05-2.86607E-05-2.89473E-05-1.05043E-06 6.29406E-19 6.74060E-19
 -1      1904 9.58755E-05-2.86706E-05-2.87964E-05-5.28257E-07 4.87544E-19 8.30881E-19
 -1      1905 9.57308E-05-2.86388E-05-2.87516E-05-4.53125E-07 8.21911E-19 1.26722E-18
 -1      1906 9.58880E-05-2.86131E-05-2.88354E-05-7.61900E-07 9.01737E-19 1.32761E-18
 -1      1907 9.56326E-05-2.86203E-05-2.87151E-05-3.67004E-07-2.82747E-19 8.17728E-19
 -1      1908 9.55311E-05-2.85993E-05-2.86834E-05-3.10465E-07-4.41645E-19-4.07991E-19
 -1      1909 9.56613E-05-2.85820E-05-2.87509E-05-5.38318E-07-2.29993E-19 4.98248E-19
 -1      1910 9.54609E-05-2.85870E-05-2.86570E-05-2.45891E-07-5.32589E-19-6.87428E-19
 -1      1911 9.53922E-05-2.85738E-05-2.86351E-05-2.04212E-07-9.49007E-19-6.24440E-20
 -1      1912 9.54976E-05-2.85627E-05-2.86885E-05-3.68490E-07-7.93786E-19 5.73822E-19
 -1      1913 9.53435E-05-2.85660E-05-2.86165E-05-1.56780E-07-1.11608E-18 2.46941E-19
 -1      1914 9.52990E-05-2.85584E-05-2.86021E-05-1.26728E-07-4.06010E-19-6.46937E-20
 -1      1915 9.53825E-05-2.85517E-05-2.86434E-05-2.42044E-07-3.93938E-19 8.98010E-19
 -1      1916 9.52664E-05-2.85538E-05-2.85894E-05-9.26551E-08 3.75180E-19 3.46162E-19
 -1      1917 9.52395E-05-2.85501E-05-2.85804E-05-7.15176E-08 1.39961E-19 1.01092E-18
 -1      1918 9.53042E-05-2.85464E-05-2.86117E-05-1.49854E-07 5.10728E-20 1.28960E-18
 -1      1919 9.52188E-05-2.85477E-05-2.85721E-05-4.76541E-08-5.98674E-19 6.95773E-19
 -1      1920 9.52043E-05-2.85467E-05-2.85670E-05-3.32192E-08-3.89924E-19 4.67370E-19
 -1      1921 9.52533E-05-2.85449E-05-2.85902E-05-8.41780E-08-2.35378E-19 8.22845E-19
 -1      1922 9.51922E-05-2.85458E-05-2.85619E-05-1.70087E-08-6.98056E-19 1.11411E-18
 -1      1923 9.51862E-05-2.85464E-05-2.85595E-05-7.51336E-09-9.08849E-19 1.71955E-19
 -1      1924 9.52223E-05-2.85459E-05-2.85762E-05-3.86302E-08-1.74206E-19 4.54561E-19
 -1      1925 9.51801E-05-2.85466E-05-2.85567E-05 3.07101E-09-1.18997E-18 3.29421E-20
 -1      1926 9.51799E-05-2.85482E-05-2.85561E-05 8.99904E-09-1.19468E-18-3.00997E-19
 -1      1927 9.52054E-05-2.85483E-05-2.85678E-05-8.07365E-09-1.27931E-18 1.32977E-18
 -1      1928 9.51779E-05-2.85490E-05-2.85549E-05 1.55249E-08-7.44043E-19-7.58801E-19
 -1      1929 9.51812E-05-2.85512E-05-2.85555E-05 1.89249E-08 4.19125E-19-3.25142E-19
 -1      1930 9.51983E-05-2.85515E-05-2.85632E-05 1.15272E-08-9.47706E-19 1.14713E-18
 -1      1931 9.51819E-05-2.85524E-05-2.85553E-05 2.25684E-08 1.01494E-18-1.01234E-18
 -1      1932 9.51872E-05-2.85549E-05-2.85566E-05 2.41980E-08 1.24324E-18-2.96945E-19
 -1      1933 9.51977E-05-2.85551E-05-2.85613E-05 2.32581E-08 5.30681E-19 9.01292E-19
 -1      1934 9.51896E-05-2.85562E-05-2.85571E-05 2.58035E-08 1.59018E-18-6.98308E-19
 -1      1935 9.51959E-05-2.85588E-05-2.85587E-05 2.61799E-08 2.32606E-18 3.80789E-19
 -1      1936 9.52012E-05-2.85588E-05-2.85612E-05 2.93972E-08 2.00238E-18-1.87741E-19
 -1      1937 9.51992E-05-2.85602E-05-2.85596E-05 2.63095E-08 1.59556E-18 5.63278E-19
 -1      1938 9.52057E-05-2.85627E-05-2.85613E-05 2.57403E-08 9.95040E-19-2.18867E-19
 -1      1939 9.52071E-05-2.85624E-05-2.85621E-05 3.15368E-08 1.95900E-18-8.56324E-19
 -1      1940 9.52093E-05-2.85642E-05-2.85622E-05 2.47152E-08-2.61522E-19-2.09854E-19
 -1      1941 9.52155E-05-2.85666E-05-2.85639E-05 2.33202E-08-9.15259E-19-1.59846E-19
 -1      1942 9.52142E-05-2.85661E-05-2.85635E-05 3.06882E-08 4.53428E-19-9.17808E-19
 -1      1943 9.52191E-05-2.85681E-05-2.85648E-05 2.12912E-08 1.25416E-19 1.32281E-19
 -1      1944 9.52244E-05-2.85703E-05-2.85661E-05 1.90201E-08 1.02194E-18 6.74842E-19
 -1      1945 9.52215E-05-2.85697E-05-2.85651E-05 2.73849E-08-3.31593E-19 8.10061E-19
 -1      1946 9.52273E-05-2.85715E-05-2.85668E-05 1.61703E-08 1.51307E-18 8.43267E-19
 -1      1947 9.52314E-05-2.85733E-05-2.85678E-05 1.30735E-08 1.64717E-18 1.22229E-18
 -1      1948 9.52334E-05-2.85758E-05-2.85675E-05 1.52218E-08 3.77930E-19 3.90902E-19
 -1      1949 9.52281E-05-2.85732E-05-2.85664E-05 2.20407E-08 1.14208E-18 7.80881E-19
 -1      1950 1.01482E-04-2.97417E-05-3.07082E-05-1.36035E-06 2.15227E-18 5.62312E-18
 -1      1951 1.01695E-04-2.95653E-05-3.08491E-05-1.62040E-07 2.40727E-18 6.47602E-18
 -1      1952 1.01871E-04-2.89439E-05-3.12706E-05 5.58565E-07 2.96070E-18 4.55967E-18
 -1      1953 1.02335E-04-3.03013E-05-3.08429E-05-2.89082E-06 1.56296E-18 4.57296E-18
 -1      1954 1.01758E-04-2.99976E-05-3.07020E-05-2.19054E-06 1.77016E-18 5.30211E-18
 -1      1955 1.01837E-04-2.96868E-05-3.09394E-05-2.23657E-06 2.21059E-18 3.83014E-18
 -1      1956 1.04029E-04-3.10407E-05-3.12684E-05-3.70947E-06 9.97084E-19 3.91956E-18
 -1      1957 1.03009E-04-3.06253E-05-3.09928E-05-3.31759E-06 1.07366E-18 4.21038E-18
 -1      1958 1.02795E-04-3.03915E-05-3.10502E-05-3.83990E-06 1.51583E-18 3.01670E-18
 -1      1959 1.06168E-04-3.19452E-05-3.18132E-05-3.87829E-06 5.77227E-19 3.29923E-18
 -1      1960 1.04961E-04-3.14596E-05-3.14906E-05-3.78256E-06 8.06427E-19 3.77736E-18
 -1      1961 1.04435E-04-3.12520E-05-3.13832E-05-4.58055E-06 1.04127E-18 2.49768E-18
 -1      1962 1.08349E-04-3.29391E-05-3.23366E-05-3.27774E-06 6.22938E-19 2.65717E-18
 -1      1963 1.07204E-04-3.24467E-05-3.20432E-05-3.54914E-06 4.02043E-19 3.07620E-18
 -1      1964 1.06450E-04-3.22958E-05-3.17938E-05-4.45697E-06 6.87000E-19 1.92301E-18
 -1      1965 1.10106E-04-3.38747E-05-3.27003E-05-1.73108E-06 4.31239E-19 2.79272E-18
 -1      1966 1.09306E-04-3.34743E-05-3.25153E-05-2.46643E-06 4.83126E-19 2.75644E-18
 -1      1967 1.08500E-04-3.34571E-05-3.21649E-05-3.30855E-06 5.55528E-19 1.80428E-18
 -1      1968 1.10906E-04-3.44932E-05-3.27802E-05 8.23664E-07 4.79004E-19 2.61409E-18
 -1      1969 1.10754E-04-3.43313E-05-3.27773E-05-4.13765E-07 3.53266E-19 2.86808E-18
 -1      1970 1.10166E-04-3.45420E-05-3.23985E-05-9.82580E-07 4.44196E-19 2.43251E-18
 -1      1971 1.10224E-04-3.44186E-05-3.25071E-05 4.07353E-06-5.53086E-20 3.24767E-18
 -1      1972 1.10971E-04-3.46721E-05-3.27284E-05 2.48569E-06 1.34294E-19 3.00618E-18
 -1      1973 1.10925E-04-3.51723E-05-3.24344E-05 2.42179E-06 1.19802E-19 2.70994E-18
 -1      1974 1.07769E-04-3.32795E-05-3.19185E-05 7.07269E-06-1.02458E-19 3.68336E-18
 -1      1975 1.09468E-04-3.40707E-05-3.23399E-05 5.60395E-06 3.80834E-20 3.50529E-18
 -1      1976 1.10242E-04-3.48212E-05-3.22766E-05 6.23758E-06-1.17989E-19 3.13719E-18
 -1      1977 1.03871E-04-3.10577E-05-3.11845E-05 8.30960E-06 4.68986E-19 3.15243E-18
 -1      1978 1.06206E-04-3.22884E-05-3.16955E-05 7.69849E-06 1.76355E-21 3.47232E-18
 -1      1979 1.07873E-04-3.30982E-05-3.20042E-05 9.04344E-06 8.31614E-20 2.70139E-18
 -1      1980 9.98000E-05-2.84736E-05-3.05605E-05 6.46790E-06 1.55755E-18 2.07585E-18
 -1      1981 1.02020E-04-2.97049E-05-3.09904E-05 7.32813E-06 1.04185E-18 2.53260E-18
 -1      1982 1.04361E-04-3.02852E-05-3.17417E-05 9.05187E-06 1.32663E-18 1.66767E-18
 -1      1983 9.74720E-05-2.68881E-05-3.02766E-05 1.65635E-06 1.75201E-18 1.43993E-18
 -1      1984 9.86302E-05-2.74853E-05-3.04642E-05 3.88390E-06 1.75897E-18 1.90105E-18
 -1      1985 1.01236E-04-2.76344E-05-3.15907E-05 5.29895E-06 2.00241E-18 1.41573E-18
 -1      1986 9.82853E-05-2.73502E-05-3.04454E-05-4.09572E-06 1.13833E-18 1.51050E-19
 -1      1987 9.77716E-05-2.69405E-05-3.03103E-05-1.48488E-06 1.45322E-18 6.45935E-19
 -1      1988 1.00292E-04-2.67226E-05-3.15906E-05-1.08510E-06 1.83012E-18 2.03387E-19
 -1      1989 1.01949E-04-2.96128E-05-3.10288E-05-8.06515E-06 1.27434E-18-1.79862E-18
 -1      1990 9.99429E-05-2.84217E-05-3.06091E-05-6.29094E-06 1.01284E-18-8.49548E-19
 -1      1991 1.02209E-04-2.81975E-05-3.17475E-05-7.12952E-06 1.63512E-18-1.38923E-18
 -1      1992 1.06683E-04-3.23509E-05-3.18475E-05-8.80925E-06 1.18480E-18-2.92140E-18
 -1      1993 1.04032E-04-3.09996E-05-3.12837E-05-8.45190E-06 1.38423E-18-2.31232E-18
 -1      1994 1.05920E-04-3.11245E-05-3.20429E-05-1.01092E-05 1.87859E-18-2.70796E-18
 -1      1995 1.10613E-04-3.43460E-05-3.26506E-05-6.83058E-06 5.34557E-19-2.99951E-18
 -1      1996 1.08256E-04-3.33493E-05-3.21192E-05-7.63578E-06 1.14891E-18-2.63178E-18
 -1      1997 1.09565E-04-3.38784E-05-3.24133E-05-9.39922E-06 1.23209E-18-3.21131E-18
 -1      1998 1.12768E-04-3.51688E-05-3.32180E-05-3.62520E-06-1.17676E-18-3.20295E-18
 -1      1999 1.11281E-04-3.47070E-05-3.28552E-05-4.95131E-06-5.87510E-19-3.04900E-18
 -1      2000 1.11846E-04-3.53975E-05-3.27504E-05-6.26139E-06-2.54408E-19-3.35707E-18
 -1      2001 1.13104E-04-3.50201E-05-3.34374E-05-5.50717E-07-3.41870E-19-3.49984E-18
 -1      2002 1.12610E-04-3.50138E-05-3.32990E-05-1.83066E-06-7.75293E-19-3.18495E-18
 -1      2003 1.12442E-04-3.55878E-05-3.29395E-05-2.45713E-06-7.60053E-19-3.69239E-18
 -1      2004 1.12082E-04-3.43200E-05-3.33144E-05 1.69208E-06 3.34591E-19-2.67713E-18
 -1      2005 1.12404E-04-3.45970E-05-3.33827E-05 7.48025E-07-8.15865E-20-3.18687E-18
 -1      2006 1.11685E-04-3.49020E-05-3.29162E-05 7.61821E-07-2.65492E-19-3.82517E-18
 -1      2007 1.10253E-04-3.34122E-05-3.29307E-05 2.98330E-06 1.14355E-18-2.57096E-18
 -1      2008 1.11108E-04-3.38217E-05-3.31477E-05 2.42838E-06 6.25564E-19-2.27198E-18
 -1      2009 1.10095E-04-3.38566E-05-3.26827E-05 2.90876E-06 4.94125E-19-2.32015E-18
 -1      2010 1.08068E-04-3.24986E-05-3.23920E-05 3.49905E-06-5.03645E-20-2.59392E-18
 -1      2011 1.09192E-04-3.29411E-05-3.26921E-05 3.26469E-06 1.03355E-18-2.14793E-18
 -1      2012 1.08111E-04-3.27838E-05-3.22893E-05 4.01771E-06 9.18933E-19-1.94064E-18
 -1      2013 1.05841E-04-3.16738E-05-3.17928E-05 3.49305E-06-5.62698E-19-2.81693E-18
 -1      2014 1.07035E-04-3.20936E-05-3.21212E-05 3.47708E-06-1.40395E-18-3.31996E-18
 -1      2015 1.06035E-04-3.18350E-05-3.18038E-05 4.34209E-06-6.06869E-19-2.03530E-18
 -1      2016 1.03759E-04-3.09706E-05-3.12018E-05 3.18911E-06-5.20843E-20-1.65772E-18
 -1      2017 1.04897E-04-3.13414E-05-3.15208E-05 3.30017E-06 3.81157E-20-2.01835E-18
 -1      2018 1.04055E-04-3.10528E-05-3.12887E-05 4.16510E-06-5.08334E-19-1.39563E-18
 -1      2019 1.01921E-04-3.03913E-05-3.06608E-05 2.74859E-06-1.52558E-19-1.85177E-18
 -1      2020 1.02935E-04-3.07043E-05-3.09489E-05 2.92003E-06 1.14083E-19-1.70897E-18
 -1      2021 1.02272E-04-3.04303E-05-3.07904E-05 3.71743E-06 7.71586E-20-9.83667E-19
 -1      2022 1.00362E-04-2.99258E-05-3.01907E-05 2.27376E-06-9.92062E-19-8.51801E-19
 -1      2023 1.01223E-04-3.01813E-05-3.04380E-05 2.46282E-06-6.47231E-19-1.12890E-18
 -1      2024 1.00730E-04-2.99441E-05-3.03378E-05 3.15911E-06-7.76021E-19-8.12861E-19
 -1      2025 9.90806E-05-2.95588E-05-2.97975E-05 1.82242E-06-9.40898E-19-1.04015E-18
 -1      2026 9.97874E-05-2.97620E-05-3.00019E-05 2.00453E-06-1.27170E-18-1.15159E-18
 -1      2027 9.94380E-05-2.95691E-05-2.99451E-05 2.58893E-06-1.00903E-18-1.35135E-18
 -1      2028 9.80545E-05-2.92747E-05-2.94785E-05 1.42276E-06 1.38039E-19-4.74530E-19
 -1      2029 9.86182E-05-2.94327E-05-2.96425E-05 1.58556E-06-4.24421E-19-5.06111E-19
 -1      2030 9.83841E-05-2.92829E-05-2.96163E-05 2.06109E-06-2.33240E-19-4.18265E-19
 -1      2031 9.72514E-05-2.90586E-05-2.92262E-05 1.08488E-06 1.17196E-18 8.77378E-20
 -1      2032 9.76901E-05-2.91789E-05-2.93546E-05 1.22359E-06 7.40012E-19 4.89333E-20
 -1      2033 9.75434E-05-2.90669E-05-2.93486E-05 1.60066E-06 5.32780E-19-2.10664E-19
 -1      2034 9.66362E-05-2.88973E-05-2.90312E-05 8.08662E-07-3.19992E-19 3.63193E-19
 -1      2035 9.69700E-05-2.89870E-05-2.91293E-05 9.22848E-07 5.58215E-19 3.28347E-19
 -1      2036 9.68867E-05-2.89061E-05-2.91361E-05 1.21506E-06 4.83175E-19-3.85992E-19
 -1      2037 9.61746E-05-2.87792E-05-2.88836E-05 5.88785E-07-7.01283E-19-1.33567E-18
 -1      2038 9.64230E-05-2.88446E-05-2.89571E-05 6.80278E-07-7.58917E-19-6.08449E-19
 -1      2039 9.63840E-05-2.87883E-05-2.89711E-05 9.01857E-07-6.47302E-20-1.74385E-19
 -1      2040 9.58359E-05-2.86948E-05-2.87745E-05 4.17696E-07-1.38464E-19-1.18032E-18
 -1      2041 9.60165E-05-2.87413E-05-2.88282E-05 4.89349E-07-5.80877E-19-1.65336E-18
 -1      2042 9.60069E-05-2.87037E-05-2.88456E-05 6.53743E-07-4.44877E-19-1.24367E-18
 -1      2043 9.55933E-05-2.86360E-05-2.86956E-05 2.87324E-07 7.45381E-19 3.44568E-19
 -1      2044 9.57212E-05-2.86681E-05-2.87339E-05 3.42288E-07 9.88951E-19 3.12695E-19
 -1      2045 9.57301E-05-2.86444E-05-2.87522E-05 4.61446E-07 2.88883E-19-7.03253E-19
 -1      2046 9.54245E-05-2.85965E-05-2.86401E-05 1.89991E-07 1.32843E-18-6.40631E-19
 -1      2047 9.55123E-05-2.86179E-05-2.86666E-05 2.31319E-07 1.15748E-18-8.61036E-20
 -1      2048 9.55317E-05-2.86040E-05-2.86843E-05 3.15434E-07 1.32569E-18 9.04382E-19
 -1      2049 9.53111E-05-2.85712E-05-2.86024E-05 1.18850E-07 1.39475E-18-3.26746E-18
 -1      2050 9.53690E-05-2.85847E-05-2.86200E-05 1.49297E-07 1.60787E-18-1.89399E-18
 -1      2051 9.53935E-05-2.85777E-05-2.86362E-05 2.06802E-07 2.18176E-18-3.45977E-19
 -1      2052 9.52387E-05-2.85561E-05-2.85779E-05 6.80401E-08-3.38006E-19-4.02012E-18
 -1      2053 9.52747E-05-2.85640E-05-2.85890E-05 8.99883E-08 3.10344E-19-4.53588E-18
 -1      2054 9.53007E-05-2.85615E-05-2.86032E-05 1.27686E-07 1.34872E-18-2.89305E-18
 -1      2055 9.51957E-05-2.85482E-05-2.85629E-05 3.27016E-08 7.54254E-19-2.91386E-18
 -1      2056 9.52162E-05-2.85521E-05-2.85693E-05 4.81424E-08-4.45522E-20-3.42115E-18
 -1      2057 9.52412E-05-2.85526E-05-2.85814E-05 7.14028E-08-1.34056E-19-2.54241E-18
 -1      2058 9.51735E-05-2.85452E-05-2.85547E-05 8.90402E-09-2.49847E-19-3.09946E-18
 -1      2059 9.51831E-05-2.85465E-05-2.85579E-05 1.94598E-08-1.19296E-19-2.93802E-18
 -1      2060 9.52059E-05-2.85486E-05-2.85679E-05 3.24398E-08-3.23141E-20-3.51306E-18
 -1      2061 9.51656E-05-2.85455E-05-2.85512E-05-6.45845E-09 9.67285E-19-3.27784E-18
 -1      2062 9.51679E-05-2.85449E-05-2.85522E-05 5.02781E-10 4.94625E-19-2.51613E-18
 -1      2063 9.51877E-05-2.85479E-05-2.85603E-05 6.35821E-09-3.30111E-20-3.37950E-18
 -1      2064 9.51669E-05-2.85477E-05-2.85509E-05-1.57805E-08 2.44197E-19-4.09565E-18
 -1      2065 9.51645E-05-2.85461E-05-2.85504E-05-1.14128E-08 6.93214E-19-3.63065E-18
 -1      2066 9.51811E-05-2.85493E-05-2.85567E-05-1.03306E-08 1.00463E-18-1.91038E-18
 -1      2067 9.51740E-05-2.85511E-05-2.85525E-05-2.08534E-08-7.44557E-19-4.13591E-18
 -1      2068 9.51688E-05-2.85490E-05-2.85512E-05-1.83268E-08-2.07148E-19-4.05253E-18
 -1      2069 9.51822E-05-2.85520E-05-2.85560E-05-2.02976E-08 3.42074E-19-2.15988E-18
 -1      2070 9.51844E-05-2.85551E-05-2.85553E-05-2.29579E-08-5.01681E-19-4.21962E-18
 -1      2071 9.51777E-05-2.85527E-05-2.85535E-05-2.17339E-08-7.39744E-19-4.59017E-18
 -1      2072 9.51880E-05-2.85554E-05-2.85570E-05-2.55180E-08-5.49970E-19-3.21384E-18
 -1      2073 9.51962E-05-2.85593E-05-2.85586E-05-2.29376E-08 6.34011E-19-4.29835E-18
 -1      2074 9.51890E-05-2.85568E-05-2.85566E-05-2.26650E-08 4.92948E-19-3.90187E-18
 -1      2075 9.51965E-05-2.85591E-05-2.85590E-05-2.73771E-08 3.36634E-19-1.89897E-18
 -1      2076 9.52081E-05-2.85635E-05-2.85619E-05-2.12473E-08-4.01029E-19-4.08614E-18
 -1      2077 9.52010E-05-2.85611E-05-2.85600E-05-2.17494E-08 8.82475E-20-4.18495E-18
 -1      2078 9.52061E-05-2.85629E-05-2.85614E-05-2.67533E-08-7.76679E-21-1.84459E-18
 -1      2079 9.52190E-05-2.85674E-05-2.85650E-05-1.80041E-08-2.00551E-18-2.41656E-18
 -1      2080 9.52127E-05-2.85652E-05-2.85633E-05-1.92620E-08-1.32572E-18-3.74506E-18
 -1      2081 9.52157E-05-2.85666E-05-2.85639E-05-2.40760E-08-1.18051E-18-1.44452E-18
 -1      2082 9.52281E-05-2.85709E-05-2.85674E-05-1.30623E-08-2.20140E-18-2.33198E-18
 -1      2083 9.52231E-05-2.85690E-05-2.85661E-05-1.52193E-08-2.02868E-18-3.04636E-18
 -1      2084 9.52245E-05-2.85703E-05-2.85661E-05-1.94813E-08-2.07189E-18-1.91002E-18
 -1      2085 9.52338E-05-2.85733E-05-2.85688E-05-8.16909E-09-3.81133E-19 6.09036E-20
 -1      2086 9.52303E-05-2.85719E-05-2.85679E-05-1.11213E-08-1.67527E-18-1.66021E-18
 -1      2087 9.52309E-05-2.85732E-05-2.85675E-05-1.45215E-08-1.77207E-18-1.96483E-18
 -1      2088 9.52350E-05-2.85754E-05-2.85684E-05-1.00294E-08-9.68187E-19-3.03992E-20
 -1      2089 9.52458E-05-2.85980E-05-2.85633E-05-1.86547E-08-1.29451E-18-5.03898E-19
 -1      2090 9.52437E-05-2.85931E-05-2.85645E-05-1.88813E-08-1.43107E-18 1.99811E-19
 -1      2091 9.52417E-05-2.85895E-05-2.85653E-05-1.85119E-08-7.64627E-19 1.84415E-19
 -1      2092 9.52395E-05-2.85847E-05-2.85664E-05-1.73485E-08-3.45130E-19 5.22201E-19
 -1      2093 9.52417E-05-2.85890E-05-2.85655E-05-2.32764E-08-1.43779E-18-5.99245E-19
 -1      2094 9.52381E-05-2.85821E-05-2.85669E-05-1.54230E-08-1.14290E-18-5.42041E-19
 -1      2095 9.52361E-05-2.85780E-05-2.85678E-05-1.28904E-08-1.38772E-18-4.82033E-19
 -1      2096 9.52344E-05-2.85771E-05-2.85675E-05-1.54568E-08-1.15161E-18-8.81069E-19
 -1      2097 9.52378E-05-2.85826E-05-2.85665E-05-2.06599E-08-1.02539E-18 1.53124E-18
 -1      2098 9.52492E-05-2.86055E-05-2.85615E-05-1.64296E-08-1.50953E-18-1.94165E-18
 -1      2099 9.52474E-05-2.86012E-05-2.85626E-05-1.76446E-08-1.19388E-18-1.12218E-18
 -1      2100 9.52460E-05-2.85961E-05-2.85643E-05-2.24848E-08-1.67856E-18-1.39189E-18
 -1      2101 9.52518E-05-2.86117E-05-2.85600E-05-1.24319E-08-9.01860E-19-6.08265E-19
 -1      2102 9.52504E-05-2.86082E-05-2.85609E-05-1.43671E-08-8.77065E-19-2.44530E-19
 -1      2103 9.52494E-05-2.86022E-05-2.85631E-05-1.90497E-08-7.03079E-19-1.18714E-18
 -1      2104 9.52535E-05-2.86158E-05-2.85589E-05-7.30513E-09 3.28261E-19-3.63434E-19
 -1      2105 9.52526E-05-2.86136E-05-2.85595E-05-9.67147E-09-1.68837E-19 2.92573E-19
 -1      2106 9.52519E-05-2.86070E-05-2.85622E-05-1.36698E-08 4.91113E-19 2.47000E-19
 -1      2107 9.52542E-05-2.86175E-05-2.85585E-05-1.58724E-09-3.80262E-19-1.13654E-18
 -1      2108 9.52539E-05-2.86167E-05-2.85587E-05-4.15536E-09-3.73881E-19-7.81234E-19
 -1      2109 9.52533E-05-2.86099E-05-2.85615E-05-7.08800E-09 2.25096E-19-1.44136E-18
 -1      2110 9.52539E-05-2.86167E-05-2.85587E-05 4.25183E-09-8.26007E-19 3.81009E-19
 -1      2111 9.52541E-05-2.86175E-05-2.85585E-05 1.68567E-09-4.42500E-19-9.96631E-20
 -1      2112 9.52538E-05-2.86109E-05-2.85613E-05 6.09107E-11-1.40100E-18-4.90015E-19
 -1      2113 9.52526E-05-2.86135E-05-2.85595E-05 9.75742E-09-1.41273E-18-5.38928E-19
 -1      2114 9.52534E-05-2.86157E-05-2.85589E-05 7.39751E-09-1.77787E-18 1.51578E-18
 -1      2115 9.52533E-05-2.86099E-05-2.85615E-05 7.20515E-09-1.60804E-18-3.24686E-19
 -1      2116 9.52504E-05-2.86082E-05-2.85609E-05 1.43645E-08-1.23939E-19-4.69729E-19
 -1      2117 9.52518E-05-2.86116E-05-2.85600E-05 1.24680E-08-1.22171E-18-1.63513E-18
 -1      2118 9.52519E-05-2.86069E-05-2.85622E-05 1.37238E-08-1.52749E-18-4.04530E-19
 -1      2119 9.52474E-05-2.86011E-05-2.85626E-05 1.76600E-08-1.50999E-19 1.70994E-18
 -1      2120 9.52492E-05-2.86055E-05-2.85615E-05 1.64319E-08-2.33147E-19 1.14546E-18
 -1      2121 9.52494E-05-2.86022E-05-2.85631E-05 1.90497E-08-4.40322E-20 1.11543E-19
 -1      2122 9.52436E-05-2.85930E-05-2.85646E-05 1.88791E-08 1.21711E-18 7.47869E-21
 -1      2123 9.52458E-05-2.85978E-05-2.85634E-05 1.86740E-08 5.39652E-19 2.67427E-19
 -1      2124 9.52460E-05-2.85961E-05-2.85643E-05 2.25079E-08 1.79079E-19 1.53658E-18
 -1      2125 9.52393E-05-2.85845E-05-2.85664E-05 1.74524E-08 4.78091E-19-1.55724E-18
 -1      2126 9.52417E-05-2.85893E-05-2.85653E-05 1.84913E-08 9.01472E-19-1.73826E-18
 -1      2127 9.52417E-05-2.85889E-05-2.85655E-05 2.32388E-08-2.01426E-19-6.75184E-19
 -1      2128 5.75381E-05-3.97171E-05-8.18553E-06 3.95244E-05 3.51985E-18 5.77809E-18
 -1      2129 4.25626E-05-4.08545E-05-1.98345E-06 3.24946E-05 1.74150E-18 6.30891E-18
 -1      2130 1.19526E-05-3.37818E-05 8.04202E-06 4.68013E-06 1.41889E-18 6.30065E-18
 -1      2131 1.19041E-05-3.49772E-05 8.35747E-06-4.38259E-06 1.47701E-19 5.69079E-18
 -1      2132 2.60873E-05-3.41631E-05 2.57144E-06 2.61207E-05 2.35983E-18 7.39756E-18
 -1      2133 1.79464E-05-3.56710E-05 6.13807E-06 1.59779E-05 9.35760E-19 6.53782E-18
 -1      2134 9.60826E-05-4.28452E-05-2.28574E-05 4.22714E-05 4.78362E-18 4.59600E-18
 -1      2135 7.72560E-05-4.49063E-05-1.49362E-05 3.77804E-05 3.74304E-18 4.69087E-18
 -1      2136 3.51108E-05-4.06989E-05 7.41793E-07-2.77955E-05-1.00458E-18 5.05403E-18
 -1      2137 4.57785E-05-3.78919E-05-4.18550E-06-3.56866E-05-1.55642E-18 5.44282E-18
 -1      2138 3.54016E-05-3.37610E-05-1.34763E-06-3.28507E-05 1.55896E-18 4.67986E-18
 -1      2139 1.63665E-04-3.60612E-05-5.34631E-05 1.83070E-05 6.67626E-18 1.10114E-18
 -1      2140 1.47462E-04-3.95331E-05-4.61117E-05 1.89149E-05 6.02727E-18 1.19093E-18
 -1      2141 1.34360E-04-4.59581E-05-3.80165E-05 3.03058E-05 4.47445E-18 1.44546E-18
 -1      2142 1.12669E-04-4.43840E-05-2.97800E-05 3.46688E-05 5.00131E-18 3.82901E-18
 -1      2143 1.16970E-04-5.42875E-05-2.65606E-05 3.34568E-05 7.69106E-19 8.48092E-19
 -1      2144 8.71733E-05-8.08867E-06-3.39941E-05-6.45904E-06-2.40556E-18-5.48560E-18
 -1      2145 8.88345E-05-8.96879E-06-3.42971E-05-7.94085E-06-2.92596E-18-4.83968E-18
 -1      2146 9.17875E-05-1.28782E-05-3.38409E-05-7.46156E-06-3.27346E-18-4.15108E-18
 -1      2147 8.78755E-05-9.84954E-06-3.34674E-05-5.23969E-06-2.37152E-18-5.34611E-18
 -1      2148 1.77165E-04-2.85338E-05-6.24710E-05 8.26079E-06 8.47605E-18-1.63223E-18
 -1      2149 1.66766E-04-3.03419E-05-5.80511E-05 1.35297E-05 8.15036E-18 2.76133E-19
 -1      2150 1.55242E-04-3.23059E-05-5.21348E-05 6.86229E-08 6.81989E-18-1.87787E-18
 -1      2151 1.83894E-04-2.47014E-05-6.69962E-05-1.68816E-06 9.02090E-18-4.12103E-18
 -1      2152 1.81494E-04-2.46088E-05-6.60021E-05 5.75068E-06 8.75705E-18-1.47490E-18
 -1      2153 1.71494E-04-2.44099E-05-6.24376E-05-8.13464E-06 9.33854E-18-4.84926E-18
 -1      2154 1.79455E-04-2.43605E-05-6.52713E-05-3.24407E-06 9.40122E-18-3.48819E-18
 -1      2155 1.58742E-04-3.40990E-05-5.30038E-05-2.08917E-05 8.77913E-18-7.43568E-18
 -1      2156 1.70401E-04-3.21121E-05-5.84812E-05-1.36290E-05 8.49680E-18-5.50614E-18
 -1      2157 1.33875E-04-3.94450E-05-4.05990E-05-3.11413E-05 8.37440E-18-8.81846E-18
 -1      2158 1.53407E-04-3.88514E-05-4.81821E-05-2.96138E-05 8.73905E-18-8.09552E-18
 -1      2159 1.54085E-04-3.97805E-05-4.81283E-05-9.00206E-06 6.48743E-18-2.81300E-18
 -1      2160 9.87885E-05-4.44140E-05-2.41289E-05-3.76380E-05 6.58272E-18-9.71377E-18
 -1      2161 1.19145E-04-4.25929E-05-3.24051E-05-4.04338E-05 7.47634E-18-1.00759E-17
 -1      2162 6.44662E-05-4.42530E-05-9.75009E-06-3.77872E-05 4.05305E-18-9.17278E-18
 -1      2163 8.13141E-05-4.19177E-05-1.71155E-05-4.29043E-05 6.52766E-18-1.01417E-17
 -1      2164 3.03517E-05-3.96834E-05 2.42850E-06-2.64898E-05 1.73176E-18-9.38343E-18
 -1      2165 4.33364E-05-3.78669E-05-3.12839E-06-3.58256E-05 3.86882E-18-9.82484E-18
 -1      2166 1.37288E-05-3.59028E-05 7.89481E-06-8.18099E-06-1.06281E-18-9.12085E-18
 -1      2167 1.83690E-05-3.41499E-05 5.60006E-06-1.80787E-05 1.57209E-18-9.69810E-18
 -1      2168 1.45658E-05-3.39288E-05 7.03898E-06 1.25907E-05-3.82901E-18-8.72740E-18
 -1      2169 1.22687E-05-3.59079E-05 8.52349E-06 2.72394E-06-1.14519E-18-8.60204E-18
 -1      2170 3.71588E-05-3.66570E-05-9.31965E-07 3.26800E-05-5.38925E-18-9.97042E-18
 -1      2171 2.63828E-05-3.69910E-05 3.33953E-06 2.43959E-05-3.22698E-18-8.83519E-18
 -1      2172 6.92906E-05-4.16144E-05-1.21957E-05 4.27780E-05-6.07619E-18-9.37745E-18
 -1      2173 5.19642E-05-4.28807E-05-5.15192E-06 3.54137E-05-4.97335E-18-9.56173E-18
 -1      2174 5.41912E-05-3.94679E-05-6.50037E-06 4.03359E-05-4.46175E-19-8.46017E-18
 -1      2175 1.12328E-04-4.50807E-05-2.85296E-05 4.05114E-05-8.07392E-18-8.35598E-18
 -1      2176 9.35024E-05-4.76509E-05-2.03706E-05 3.77721E-05-6.47133E-18-7.87275E-18
 -1      2177 1.43532E-04-4.25116E-05-4.27222E-05 3.12006E-05-8.79601E-18-6.64328E-18
 -1      2178 1.23769E-04-4.38858E-05-3.47353E-05 3.26830E-05-8.66557E-18-7.81811E-18
 -1      2179 1.29249E-04-5.57920E-05-3.12036E-05 2.75307E-05-3.46818E-18-2.95360E-18
 -1      2180 1.69436E-04-3.43880E-05-5.66256E-05 1.92448E-05-1.04430E-17-5.62515E-18
 -1      2181 1.53210E-04-3.55989E-05-5.02557E-05 2.17523E-05-9.96397E-18-6.41246E-18
 -1      2182 1.83492E-04-2.83548E-05-6.49431E-05 9.08107E-06-9.56004E-18-4.28196E-18
 -1      2183 1.73921E-04-2.86357E-05-6.13970E-05 1.53219E-05-1.05053E-17-5.97497E-18
 -1      2184 1.86320E-04-2.57693E-05-6.74351E-05-1.99245E-06-7.94093E-18-2.43580E-18
 -1      2185 1.85597E-04-2.59148E-05-6.70201E-05 5.91720E-06-9.10645E-18-4.18731E-18
 -1      2186 1.74781E-04-2.66595E-05-6.27519E-05-9.67389E-06-6.85588E-18-1.80842E-19
 -1      2187 1.81553E-04-2.58354E-05-6.54206E-05-3.55202E-06-7.01301E-18-2.08794E-18
 -1      2188 1.58840E-04-3.25270E-05-5.38963E-05-1.64834E-05-6.37117E-18 4.45539E-19
 -1      2189 1.74154E-04-3.18754E-05-5.97069E-05-1.38633E-05-6.44020E-18 1.59242E-19
 -1      2190 1.58669E-04-2.30331E-05-5.72089E-05 1.93684E-06-6.45545E-18-3.03788E-18
 -1      2191 1.33668E-04-4.17253E-05-3.96386E-05-2.94603E-05-4.23665E-18 3.09252E-18
 -1      2192 1.51500E-04-4.07854E-05-4.68663E-05-2.55589E-05-5.30708E-18 1.07150E-18
 -1      2193 1.04650E-04-4.62463E-05-2.56693E-05-3.55759E-05-2.21160E-18 3.95226E-18
 -1      2194 1.23113E-04-4.37077E-05-3.36067E-05-3.76577E-05-2.83121E-18 4.97208E-18
 -1      2195 1.36984E-04-5.26739E-05-3.57293E-05-2.19303E-05-8.62068E-19-1.43572E-19
 -1      2196 6.56157E-05-4.42004E-05-1.03780E-05-3.71322E-05-1.46367E-18 4.48472E-18
 -1      2197 8.43419E-05-4.34226E-05-1.77420E-05-4.25964E-05-2.24210E-18 3.71911E-18
 -1      2198 1.46585E-04-4.74306E-05-4.31620E-05 2.26651E-06 3.04620E-18-2.38313E-18
 -1      2199 1.43724E-04-4.68724E-05-4.11853E-05 1.77055E-05 4.33670E-18-1.83806E-19
 -1      2200 1.39387E-04-5.39548E-05-3.61207E-05 1.48969E-05 1.58236E-18-1.85140E-18
 -1      2201 1.74639E-05-2.66835E-05 3.24090E-06-1.39020E-05 1.06027E-18 6.11515E-18
 -1      2202 1.02273E-04-2.58783E-05-3.28011E-05-6.73656E-06-3.69163E-18 1.63508E-18
 -1      2203 1.00976E-04-2.44315E-05-3.28836E-05-6.36305E-06-3.85077E-18-2.67424E-19
 -1      2204 4.14136E-05-3.54790E-05-2.94910E-06 3.47559E-05-7.25484E-19 6.42580E-18
 -1      2205 1.75053E-05-2.59379E-05 3.01433E-06 1.33332E-05 3.80424E-19 6.90713E-18
 -1      2206 9.52375E-05-2.85813E-05-2.85670E-05 1.71435E-08-3.49918E-20-1.48832E-18
 -1      2207 7.99880E-05-4.84209E-05-1.37348E-05 4.17911E-05-5.13302E-19 3.24297E-18
 -1      2208 6.59162E-05-4.43277E-05-9.48488E-06-4.17378E-05 1.73261E-18 3.69899E-18
 -1      2209 1.07061E-04-5.40414E-05-2.26533E-05-3.68151E-05 1.14138E-18 1.55049E-18
 -1      2210 1.53729E-04-4.01395E-05-4.80886E-05-7.04229E-06-4.28424E-18-2.38863E-18
 -1      2211 1.62684E-04-1.52446E-05-6.19926E-05 1.92239E-06-8.29669E-18-3.28818E-18
 -1      2212 1.65569E-04-1.77967E-05-6.19620E-05 5.13199E-07-9.67862E-18-2.78907E-18
 -1      2213 1.49663E-04-4.55519E-05-4.40772E-05 1.25037E-05-6.60050E-18-1.87660E-18
 -1      2214 9.40669E-05-5.24405E-05-1.78339E-05 4.10801E-05-1.50602E-18-5.92484E-18
 -1      2215 2.49248E-05-2.84357E-05 9.98334E-07 2.37626E-05-1.11067E-18-9.49778E-18
 -1      2216 1.45430E-05-2.51898E-05 3.82054E-06-3.76316E-06-7.95205E-19-1.02648E-17
 -1      2217 2.90813E-05-3.13640E-05 3.88474E-07-2.75418E-05-5.25584E-19-1.02406E-17
 -1      2218 6.37468E-05-4.39458E-05-8.85917E-06-4.15172E-05 6.12405E-19-8.82645E-18
 -1      2219 1.36369E-04-5.13982E-05-3.60496E-05-2.50707E-05 4.10387E-18-4.93651E-18
 -1      2220 1.61984E-04-1.93560E-05-6.00764E-05-1.45690E-06 9.09120E-18-2.50828E-18
 -1      2221 1.58023E-04-2.41717E-05-5.65368E-05 4.58947E-07 8.47287E-18-1.70508E-18
 -1      2222 1.60420E-04-1.42301E-05-6.16546E-05 8.42071E-07 9.71504E-18-1.68343E-18
 -1      2223 1.04093E-04-5.31862E-05-2.18348E-05-3.89209E-05 1.76564E-18-6.86266E-18
 -1      2224 1.60170E-04-2.85279E-05-5.54537E-05 2.06918E-06-9.55983E-18-2.28657E-18
 -1      2225 1.01244E-04-2.79166E-05-3.14007E-05-8.04548E-08 2.87527E-18 2.57523E-18
 -1      2226 1.01507E-04-2.72407E-05-3.17556E-05 1.90641E-06 3.30572E-18 3.05742E-18
 -1      2227 8.27254E-05-7.35413E-06-3.23418E-05-1.12019E-06-4.49098E-19-5.66560E-18
 -1      2228 8.37078E-05-7.97922E-06-3.24752E-05-1.70692E-06-9.49660E-19-5.69940E-18
 -1      2229 8.49994E-05-9.02532E-06-3.26104E-05-2.16303E-06-1.29942E-18-5.66971E-18
 -1      2230 8.64079E-05-9.97151E-06-3.27866E-05-2.94122E-06-1.84530E-18-5.55451E-18
 -1      2231 8.52577E-05-1.01458E-05-3.21835E-05-1.24840E-06-1.09043E-18-5.32142E-18
 -1      2232 8.11671E-05-6.21013E-06-3.21483E-05 2.29661E-07 1.13538E-18-5.56185E-18
 -1      2233 8.11533E-05-6.20015E-06-3.21470E-05-1.81977E-07 6.85897E-19-5.65325E-18
 -1      2234 8.19900E-05-6.77364E-06-3.22555E-05 8.86873E-07 1.83183E-18-5.27607E-18
 -1      2235 8.14620E-05-6.44329E-06-3.21822E-05 4.25724E-07 1.42124E-18-5.42692E-18
 -1      2236 8.19813E-05-7.66596E-06-3.18397E-05 1.79391E-07 1.25682E-18-5.17345E-18
 -1      2237 8.37897E-05-8.05298E-06-3.24791E-05 1.76148E-06 2.60140E-18-4.86912E-18
 -1      2238 8.28059E-05-7.42303E-06-3.23471E-05 1.17663E-06 2.12976E-18-5.18737E-18
 -1      2239 8.31459E-05-8.54372E-06-3.19637E-05 6.05375E-07 1.92593E-18-4.90319E-18
 -1      2240 8.65202E-05-1.00783E-05-3.27890E-05 3.00801E-06 3.32798E-18-4.05559E-18
 -1      2241 8.50965E-05-9.11598E-06-3.26136E-05 2.22282E-06 2.84747E-18-4.46975E-18
 -1      2242 8.53523E-05-1.02358E-05-3.21857E-05 1.29123E-06 2.64012E-18-4.38202E-18
 -1      2243 9.00567E-05-1.28882E-05-3.31200E-05 4.63138E-06 3.94004E-18-3.06964E-18
 -1      2244 8.82480E-05-1.15443E-05-3.29350E-05 3.64821E-06 3.49579E-18-3.68986E-18
 -1      2245 8.84863E-05-1.27286E-05-3.24588E-05 2.31071E-06 3.20608E-18-3.58933E-18
 -1      2246 9.43536E-05-1.66675E-05-3.33795E-05 6.43263E-06 4.38969E-18-1.21894E-18
 -1      2247 9.21588E-05-1.47949E-05-3.32271E-05 5.35886E-06 4.06904E-18-2.23938E-18
 -1      2248 9.23632E-05-1.60225E-05-3.26990E-05 3.55643E-06 3.74373E-18-2.38029E-18
 -1      2249 1.00539E-04-2.60956E-05-3.18523E-05-1.45105E-06-2.95446E-18-1.04547E-18
 -1      2250 1.00474E-04-2.69790E-05-3.14999E-05 6.93437E-07-2.57874E-18-1.10407E-18
 -1      2251 1.01590E-04-2.90292E-05-3.10726E-05-2.96215E-06 2.17416E-18 2.13782E-18
 -1      2252 1.01356E-04-2.85450E-05-3.11330E-05-1.79353E-06 2.49385E-18 2.55969E-18
 -1      2253 1.00447E-04-2.69831E-05-3.15042E-05-7.69535E-07 2.93821E-18 1.16825E-18
 -1      2254 9.85809E-05-2.08462E-05-3.33511E-05-7.43194E-06-3.81784E-18-1.75683E-18
 -1      2255 9.96520E-05-2.42903E-05-3.23090E-05-3.42803E-06-3.44787E-18-1.37751E-18
 -1      2256 9.83243E-05-2.30274E-05-3.22736E-05-2.49645E-06-3.14032E-18-2.18222E-18
 -1      2257 9.58163E-05-1.81003E-05-3.33516E-05-6.72163E-06-3.55671E-18-2.90808E-18
 -1      2258 1.00753E-04-2.77608E-05-3.12237E-05 2.37155E-06-2.18467E-18-9.42455E-19
 -1      2259 1.01017E-04-2.83870E-05-3.11192E-05 3.67184E-06-1.89000E-18-1.08388E-18
 -1      2260 9.94535E-05-2.59969E-05-3.14996E-05 1.45765E-06-2.46886E-18-1.79522E-18
 -1      2261 1.01390E-04-2.89772E-05-3.09911E-05 4.82098E-06-1.60733E-18-8.30953E-19
 -1      2262 1.01998E-04-2.96136E-05-3.10193E-05 5.56092E-06-1.23766E-18-9.10167E-19
 -1      2263 1.00122E-04-2.77254E-05-3.10515E-05 4.51500E-06-1.75978E-18-1.54834E-18
 -1      2264 1.02638E-04-3.02712E-05-3.09806E-05 6.21372E-06-1.00815E-18-7.80283E-19
 -1      2265 1.03522E-04-3.10398E-05-3.10742E-05 6.44078E-06-7.35602E-19-8.68267E-19
 -1      2266 1.01179E-04-2.92986E-05-3.08339E-05 6.49273E-06-1.20254E-18-1.21594E-18
 -1      2267 1.04512E-04-3.19006E-05-3.10870E-05 6.55020E-06-5.15536E-19-8.41299E-19
 -1      2268 1.05581E-04-3.28473E-05-3.12004E-05 6.19680E-06-4.63961E-19-7.70696E-19
 -1      2269 1.02846E-04-3.11601E-05-3.07552E-05 7.39833E-06-7.49468E-19-1.00343E-18
 -1      2270 1.06964E-04-3.39649E-05-3.12504E-05 5.62939E-06-3.82162E-19-4.58555E-19
 -1      2271 1.08081E-04-3.50347E-05-3.13568E-05 4.58584E-06-2.34969E-19-3.17233E-19
 -1      2272 1.05256E-04-3.35470E-05-3.07702E-05 7.06401E-06-3.04532E-19-7.40908E-19
 -1      2273 1.09810E-04-3.63200E-05-3.14608E-05 3.17235E-06-3.26984E-20-7.18737E-20
 -1      2274 1.10750E-04-3.72762E-05-3.15583E-05 1.39243E-06 6.67766E-20 4.39613E-20
 -1      2275 1.08417E-04-3.64252E-05-3.08935E-05 5.18289E-06-8.35361E-20-4.84195E-19
 -1      2276 1.12553E-04-3.83752E-05-3.17690E-05-9.30940E-07-8.45379E-20 3.94893E-19
 -1      2277 1.12974E-04-3.87288E-05-3.18863E-05-3.24915E-06-3.33390E-19 4.91202E-19
 -1      2278 1.12031E-04-3.92624E-05-3.12154E-05 1.47600E-06 1.36149E-19 8.99592E-20
 -1      2279 1.14250E-04-3.89652E-05-3.22839E-05-6.15864E-06-3.95406E-19 8.62693E-19
 -1      2280 1.13781E-04-3.80755E-05-3.24725E-05-8.36565E-06-6.55938E-19 7.57515E-19
 -1      2281 1.15225E-04-4.07821E-05-3.18966E-05-3.90395E-06-2.91288E-19 7.35843E-19
 -1      2282 1.13734E-04-3.66964E-05-3.31071E-05-1.07921E-05-1.10563E-18 9.89952E-19
 -1      2283 1.12281E-04-3.42807E-05-3.33900E-05-1.17416E-05-1.49639E-18 8.54444E-19
 -1      2284 1.16540E-04-3.92044E-05-3.31037E-05-9.68254E-06-8.55536E-19 1.34911E-18
 -1      2285 1.10677E-04-3.13071E-05-3.41602E-05-1.19484E-05-1.98290E-18 6.52222E-19
 -1      2286 1.08848E-04-2.82326E-05-3.44704E-05-1.05260E-05-2.08796E-18 2.81994E-19
 -1      2287 1.14799E-04-3.35841E-05-3.47795E-05-1.28993E-05-1.97666E-18 1.47584E-18
 -1      2288 1.06879E-04-2.52958E-05-3.50873E-05-7.41668E-06-2.40315E-18-6.98508E-19
 -1      2289 1.05864E-04-2.35203E-05-3.52697E-05-3.71503E-06-2.53137E-18-1.26590E-18
 -1      2290 1.10953E-04-2.60261E-05-3.64543E-05-1.02002E-05-2.80650E-18 3.65534E-19
 -1      2291 1.05497E-04-2.29792E-05-3.53890E-05 1.47484E-06-2.44120E-18-2.08137E-18
 -1      2292 1.06122E-04-2.39158E-05-3.53245E-05 5.59985E-06-2.05109E-18-2.43452E-18
 -1      2293 1.08410E-04-2.15834E-05-3.73461E-05-1.32016E-06-3.10067E-18-1.06225E-18
 -1      2294 1.07779E-04-2.62541E-05-3.48734E-05 9.70481E-06-1.60425E-18-2.76890E-18
 -1      2295 1.09593E-04-2.91451E-05-3.46229E-05 1.20352E-05-1.55922E-18-2.79346E-18
 -1      2296 1.09838E-04-2.38908E-05-3.69322E-05 8.74007E-06-1.95512E-18-2.24245E-18
 -1      2297 1.11596E-04-3.23867E-05-3.38838E-05 1.29538E-05-1.73222E-18-3.08860E-18
 -1      2298 1.13411E-04-3.52297E-05-3.36137E-05 1.27467E-05-1.37810E-18-3.14174E-18
 -1      2299 1.13791E-04-3.09892E-05-3.54753E-05 1.38535E-05-1.91991E-18-3.22710E-18
 -1      2300 1.14075E-04-3.72445E-05-3.29345E-05 1.09040E-05-8.07059E-19-3.45384E-18
 -1      2301 1.15029E-04-3.87146E-05-3.27471E-05 9.00004E-06 5.71962E-20-3.29936E-18
 -1      2302 1.16625E-04-3.77485E-05-3.37592E-05 1.23762E-05-1.17219E-18-2.79927E-18
 -1      2303 1.14174E-04-3.89897E-05-3.22831E-05 6.09793E-06 2.46460E-19-3.09114E-18
 -1      2304 1.14140E-04-3.90428E-05-3.21746E-05 3.72042E-06 6.30411E-19-2.84392E-18
 -1      2305 1.16408E-04-4.07641E-05-3.23992E-05 7.10770E-06 2.98659E-19-2.77498E-18
 -1      2306 1.12464E-04-3.81761E-05-3.19124E-05 1.10927E-06 8.80041E-19-2.39594E-18
 -1      2307 1.11756E-04-3.74133E-05-3.18315E-05-9.16718E-07 1.07322E-18-2.48243E-18
 -1      2308 1.13769E-04-4.01721E-05-3.15592E-05 1.34309E-06 8.84145E-19-2.18928E-18
 -1      2309 1.09966E-04-3.61729E-05-3.16868E-05-2.70539E-06 9.10094E-19-2.66738E-18
 -1      2310 1.08944E-04-3.51697E-05-3.15875E-05-4.07060E-06 1.05585E-18-2.85514E-18
 -1      2311 1.10215E-04-3.76896E-05-3.11164E-05-3.08803E-06 8.97945E-19-1.60606E-18
 -1      2312 1.07402E-04-3.40260E-05-3.14860E-05-5.03955E-06 1.08919E-18-2.60243E-18
 -1      2313 1.06306E-04-3.31042E-05-3.13499E-05-5.76092E-06 1.39041E-18-1.65618E-18
 -1      2314 1.06837E-04-3.48631E-05-3.08790E-05-5.78973E-06 1.38227E-18-1.88194E-18
 -1      2315 1.05102E-04-3.22305E-05-3.12500E-05-6.10717E-06 1.39336E-18-1.70782E-18
 -1      2316 1.04058E-04-3.15034E-05-3.10805E-05-6.33511E-06 1.35656E-18-1.30285E-18
 -1      2317 1.04071E-04-3.24783E-05-3.07077E-05-7.03299E-06 1.42398E-18-1.17848E-18
 -1      2318 1.03153E-04-3.09057E-05-3.09679E-05-6.27501E-06 6.38836E-19-1.80035E-18
 -1      2319 1.02215E-04-3.03769E-05-3.07792E-05-6.18013E-06 4.73321E-19-2.31392E-18
 -1      2320 1.01953E-04-3.07509E-05-3.05323E-05-7.25301E-06 6.41438E-19-1.66800E-18
 -1      2321 1.01537E-04-2.99978E-05-3.06550E-05-5.88829E-06 4.42184E-19-2.39762E-18
 -1      2322 1.00721E-04-2.96300E-05-3.04628E-05-5.61235E-06 5.04341E-19-2.15088E-18
 -1      2323 1.00366E-04-2.96185E-05-3.03320E-05-6.84286E-06 3.16756E-19-2.75796E-18
 -1      2324 1.00207E-04-2.94035E-05-3.03342E-05-5.21145E-06 3.20882E-19-2.39356E-18
 -1      2325 9.95124E-05-2.91540E-05-3.01513E-05-4.85537E-06 6.08202E-19-2.07752E-18
 -1      2326 9.91732E-05-2.89323E-05-3.01113E-05-6.09734E-06 2.80464E-19-3.11300E-18
 -1      2327 9.91153E-05-2.90262E-05-3.00260E-05-4.42420E-06 1.35376E-18-1.80079E-18
 -1      2328 9.85368E-05-2.88595E-05-2.98606E-05-4.05243E-06 1.71012E-18-1.18888E-18
 -1      2329 9.82621E-05-2.85476E-05-2.98837E-05-5.21613E-06 1.05299E-18-2.61248E-18
 -1      2330 9.82255E-05-2.87924E-05-2.97445E-05-3.63756E-06 8.37178E-19-1.38927E-18
 -1      2331 9.77522E-05-2.86823E-05-2.96007E-05-3.28717E-06 2.44722E-19-1.53203E-18
 -1      2332 9.75552E-05-2.83531E-05-2.96630E-05-4.32423E-06 9.41265E-19-1.61589E-18
 -1      2333 9.75062E-05-2.86511E-05-2.94975E-05-2.91320E-06-4.86672E-20-1.00043E-18
 -1      2334 9.71258E-05-2.85795E-05-2.93766E-05-2.60269E-06-6.22500E-19-6.72568E-19
 -1      2335 9.70008E-05-2.82724E-05-2.94594E-05-3.49326E-06 3.45067E-19-5.96079E-19
 -1      2336 9.69315E-05-2.85687E-05-2.92879E-05-2.28011E-06-3.24611E-19-9.76876E-19
 -1      2337 9.66311E-05-2.85231E-05-2.91888E-05-2.01627E-06 3.37558E-19-1.84150E-19
 -1      2338 9.65645E-05-2.82560E-05-2.92789E-05-2.75893E-06-3.02240E-19 3.07948E-19
 -1      2339 9.64785E-05-2.85235E-05-2.91146E-05-1.74695E-06 2.54791E-19-2.08609E-19
 -1      2340 9.62454E-05-2.84954E-05-2.90354E-05-1.52972E-06 2.81322E-19 5.09991E-19
 -1      2341 9.62220E-05-2.82736E-05-2.91241E-05-2.13398E-06 3.90698E-19 2.49612E-19
 -1      2342 9.61266E-05-2.85015E-05-2.89748E-05-1.31066E-06 2.31452E-19 6.86055E-19
 -1      2343 9.59491E-05-2.84853E-05-2.89128E-05-1.13629E-06 9.59789E-19 1.46134E-18
 -1      2344 9.59550E-05-2.83072E-05-2.89949E-05-1.61741E-06 3.42764E-19 9.84625E-19
 -1      2345 9.58579E-05-2.84938E-05-2.88644E-05-9.62042E-07 9.14481E-19 6.93997E-19
 -1      2346 9.57252E-05-2.84855E-05-2.88168E-05-8.25115E-07 5.18979E-19 3.27716E-19
 -1      2347 9.57494E-05-2.83463E-05-2.88896E-05-1.20060E-06 3.42755E-19 6.80253E-19
 -1      2348 9.56563E-05-2.84946E-05-2.87789E-05-6.89292E-07 4.29202E-19 6.61985E-21
 -1      2349 9.55592E-05-2.84914E-05-2.87431E-05-5.83919E-07-3.58029E-19 5.02609E-19
 -1      2350 9.55932E-05-2.83853E-05-2.88055E-05-8.71341E-07 4.89759E-19 1.28467E-19
 -1      2351 9.55081E-05-2.85003E-05-2.87140E-05-4.80065E-07-1.40888E-18 5.59416E-19
 -1      2352 9.54388E-05-2.85003E-05-2.86877E-05-4.00550E-07-8.11852E-19 5.80527E-19
 -1      2353 9.54765E-05-2.84211E-05-2.87398E-05-6.16297E-07-6.85100E-19 5.32932E-20
 -1      2354 9.54016E-05-2.85083E-05-2.86658E-05-3.22655E-07-4.58650E-19 3.29153E-19
 -1      2355 9.53535E-05-2.85103E-05-2.86469E-05-2.63843E-07-1.89385E-19 1.22186E-18
 -1      2356 9.53910E-05-2.84525E-05-2.86894E-05-4.22471E-07-5.53304E-19 7.55879E-19
 -1      2357 9.53271E-05-2.85173E-05-2.86308E-05-2.06580E-07-4.46381E-19 4.32196E-19
 -1      2358 9.52950E-05-2.85203E-05-2.86175E-05-1.64004E-07-1.37977E-19-7.71134E-20
 -1      2359 9.53299E-05-2.84791E-05-2.86515E-05-2.77994E-07-7.05567E-19-4.15435E-19
 -1      2360 9.52769E-05-2.85262E-05-2.86060E-05-1.22821E-07-4.35609E-19-6.13492E-19
 -1      2361 9.52565E-05-2.85296E-05-2.85971E-05-9.27316E-08-1.05490E-18-3.80463E-19
 -1      2362 9.52873E-05-2.85010E-05-2.86236E-05-1.72488E-07-7.55847E-19-1.52342E-18
 -1      2363 9.52445E-05-2.85345E-05-2.85890E-05-6.38464E-08-1.97790E-19-4.25724E-19
 -1      2364 9.52326E-05-2.85380E-05-2.85833E-05-4.31798E-08 2.70329E-19-4.54942E-20
 -1      2365 9.52588E-05-2.85187E-05-2.86036E-05-9.71729E-08-7.78994E-19-2.79225E-19
 -1      2366 9.52252E-05-2.85420E-05-2.85778E-05-2.35262E-08-7.64579E-19-2.80016E-20
 -1      2367 9.52192E-05-2.85454E-05-2.85744E-05-9.83836E-09-1.55930E-18 5.78636E-19
 -1      2368 9.52406E-05-2.85328E-05-2.85896E-05-4.48163E-08-5.98267E-19-6.82675E-21
 -1      2369 9.52150E-05-2.85485E-05-2.85709E-05 3.01054E-09-1.47094E-18 1.18169E-18
 -1      2370 9.52131E-05-2.85517E-05-2.85691E-05 1.16219E-08-4.78576E-19 9.19338E-19
 -1      2371 9.52299E-05-2.85438E-05-2.85801E-05-9.60331E-09-9.83338E-19 7.90607E-19
 -1      2372 9.52112E-05-2.85542E-05-2.85670E-05 1.95380E-08-2.42300E-19 1.14606E-18
 -1      2373 9.52119E-05-2.85571E-05-2.85663E-05 2.45101E-08 5.15523E-19 1.25007E-18
 -1      2374 9.52245E-05-2.85524E-05-2.85740E-05 1.30272E-08-7.13408E-19 1.25670E-18
 -1      2375 9.52115E-05-2.85591E-05-2.85651E-05 2.88920E-08 1.43532E-18 4.36588E-19
 -1      2376 9.52139E-05-2.85617E-05-2.85652E-05 3.12668E-08 2.10453E-18-2.71239E-19
 -1      2377 9.52228E-05-2.85591E-05-2.85703E-05 2.65545E-08 1.25755E-19 1.02762E-18
 -1      2378 9.52145E-05-2.85635E-05-2.85646E-05 3.31143E-08 1.46991E-18-5.54227E-19
 -1      2379 9.52177E-05-2.85658E-05-2.85651E-05 3.36001E-08 1.15579E-18-1.01459E-18
 -1      2380 9.52234E-05-2.85645E-05-2.85682E-05 3.35390E-08 1.35760E-18 6.52061E-19
 -1      2381 9.52190E-05-2.85675E-05-2.85649E-05 3.35756E-08 1.96689E-18-5.42043E-19
 -1      2382 9.52226E-05-2.85697E-05-2.85655E-05 3.25972E-08 9.55422E-19 1.11556E-18
 -1      2383 9.52256E-05-2.85690E-05-2.85672E-05 3.57714E-08 1.68250E-18-1.25672E-19
 -1      2384 9.52243E-05-2.85714E-05-2.85655E-05 3.11082E-08-8.69204E-19 1.04283E-18
 -1      2385 9.52278E-05-2.85735E-05-2.85661E-05 2.88493E-08-4.46834E-19 1.03416E-18
 -1      2386 9.52288E-05-2.85731E-05-2.85668E-05 3.44062E-08 5.73777E-19 5.46103E-19
 -1      2387 1.04077E-04-3.11304E-05-3.12683E-05-5.53151E-06 1.07788E-18 1.38522E-18
 -1      2388 1.03150E-04-3.05084E-05-3.11024E-05-5.31827E-06 1.30629E-18 1.66142E-18
 -1      2389 1.06012E-04-3.25267E-05-3.15201E-05-5.32993E-06 6.85581E-19 1.08628E-18
 -1      2390 1.04966E-04-3.17863E-05-3.13415E-05-5.61560E-06 8.53791E-19 1.29029E-18
 -1      2391 1.03518E-04-3.11871E-05-3.10252E-05-6.49240E-06 1.15316E-18 6.46732E-19
 -1      2392 1.08152E-04-3.41660E-05-3.17573E-05-3.91218E-06 3.80308E-19 1.27982E-18
 -1      2393 1.07170E-04-3.33641E-05-3.16140E-05-4.79516E-06 4.27867E-19 1.29043E-18
 -1      2394 1.05651E-04-3.30449E-05-3.11431E-05-6.11874E-06 5.64377E-19 7.13184E-19
 -1      2395 1.10170E-04-3.58060E-05-3.19367E-05-1.10553E-06 1.82780E-19 1.83482E-18
 -1      2396 1.09491E-04-3.51185E-05-3.18611E-05-2.63001E-06 1.60969E-19 1.74175E-18
 -1      2397 1.08255E-04-3.52513E-05-3.13099E-05-4.31534E-06 7.23452E-20 1.08637E-18
 -1      2398 1.11546E-04-3.68659E-05-3.20716E-05 2.95565E-06-2.05717E-19 2.41652E-18
 -1      2399 1.11461E-04-3.66313E-05-3.20680E-05 9.50487E-07 9.05664E-20 2.14144E-18
 -1      2400 1.11013E-04-3.74163E-05-3.15511E-05-8.94348E-07-1.97441E-19 1.74480E-18
 -1      2401 1.11592E-04-3.64481E-05-3.22367E-05 7.43820E-06 3.53967E-20 2.38079E-18
 -1      2402 1.12353E-04-3.70988E-05-3.22752E-05 5.48466E-06-3.61180E-20 2.53630E-18
 -1      2403 1.13230E-04-3.86311E-05-3.19542E-05 3.92621E-06 3.21608E-21 1.98116E-18
 -1      2404 1.09782E-04-3.38243E-05-3.25241E-05 1.05328E-05 7.42935E-19 1.72950E-18
 -1      2405 1.11379E-04-3.55565E-05-3.25534E-05 9.56304E-06 1.87922E-19 2.13175E-18
 -1      2406 1.13855E-04-3.76216E-05-3.26274E-05 9.00191E-06 4.79567E-19 1.54500E-18
 -1      2407 1.06515E-04-2.94637E-05-3.29486E-05 9.97831E-06 1.81933E-18 1.05305E-18
 -1      2408 1.08409E-04-3.17587E-05-3.29352E-05 1.09060E-05 1.25536E-18 1.42425E-18
 -1      2409 1.12110E-04-3.36530E-05-3.35842E-05 1.19712E-05 1.26396E-18 1.38197E-18
 -1      2410 1.03561E-04-2.56193E-05-3.33552E-05 4.73969E-06 2.46334E-18 8.61439E-19
 -1      2411 1.04779E-04-2.71909E-05-3.33216E-05 7.64843E-06 2.38187E-18 8.64152E-19
 -1      2412 1.08676E-04-2.79780E-05-3.46196E-05 1.01677E-05 2.09675E-18 9.99846E-19
 -1      2413 1.03198E-04-2.50625E-05-3.35057E-05-3.21936E-06 2.42333E-18-6.21087E-19
 -1      2414 1.02947E-04-2.47945E-05-3.34878E-05 3.96076E-07 2.62697E-18 7.28961E-20
 -1      2415 1.06035E-04-2.39480E-05-3.52790E-05 2.99797E-06 2.91574E-18 3.07877E-21
 -1      2416 1.05934E-04-2.83102E-05-3.33439E-05-9.75670E-06 1.88739E-18-1.84814E-18
 -1      2417 1.04324E-04-2.63838E-05-3.33313E-05-7.26790E-06 1.98964E-18-1.10117E-18
 -1      2418 1.06551E-04-2.45830E-05-3.52091E-05-6.12780E-06 2.69789E-18-1.19734E-18
 -1      2419 1.09876E-04-3.29992E-05-3.30225E-05-1.18433E-05 1.93571E-18-2.83775E-18
 -1      2420 1.07824E-04-3.07176E-05-3.29783E-05-1.14308E-05 2.12791E-18-2.27308E-18
 -1      2421 1.09855E-04-2.94366E-05-3.44741E-05-1.21520E-05 2.22936E-18-2.31127E-18
 -1      2422 1.12647E-04-3.63483E-05-3.27383E-05-9.66667E-06 7.17900E-19-2.67360E-18
 -1      2423 1.11066E-04-3.48393E-05-3.26577E-05-1.09208E-05 1.72113E-18-2.44875E-18
 -1      2424 1.13224E-04-3.49843E-05-3.34844E-05-1.26293E-05 1.87347E-18-2.53309E-18
 -1      2425 1.13359E-04-3.74223E-05-3.25508E-05-5.32894E-06-6.41743E-19-2.82025E-18
 -1      2426 1.12648E-04-3.69734E-05-3.24764E-05-7.31002E-06-1.59242E-19-2.42872E-18
 -1      2427 1.14531E-04-3.82711E-05-3.26375E-05-8.91720E-06 2.26384E-19-2.33198E-18
 -1      2428 1.12332E-04-3.66966E-05-3.24058E-05-9.31030E-07-7.65208E-19-3.10881E-18
 -1      2429 1.12433E-04-3.70203E-05-3.23891E-05-2.80631E-06-7.72163E-19-2.68204E-18
 -1      2430 1.13576E-04-3.87135E-05-3.20750E-05-3.73227E-06-6.44652E-19-2.43642E-18
 -1      2431 1.10381E-04-3.51627E-05-3.22235E-05 2.38594E-06-5.95206E-19-2.41546E-18
 -1      2432 1.11030E-04-3.58301E-05-3.22920E-05 1.01776E-06-4.59575E-19-2.66849E-18
 -1      2433 1.11251E-04-3.72240E-05-3.17393E-05 8.51088E-07-6.39677E-19-1.92603E-18
 -1      2434 1.08136E-04-3.35359E-05-3.19611E-05 4.37940E-06 3.91966E-19-1.67768E-18
 -1      2435 1.09074E-04-3.42542E-05-3.21105E-05 3.58389E-06-3.71735E-19-2.31640E-18
 -1      2436 1.08548E-04-3.50810E-05-3.15057E-05 4.00485E-06-4.77344E-19-1.56843E-18
 -1      2437 1.05944E-04-3.21471E-05-3.16201E-05 5.25572E-06 4.30751E-19-5.48373E-19
 -1      2438 1.06984E-04-3.27796E-05-3.18270E-05 4.93148E-06 9.73697E-19-9.51418E-19
 -1      2439 1.06018E-04-3.30707E-05-3.12812E-05 5.72520E-06 2.83079E-19-8.10048E-19
 -1      2440 1.03957E-04-3.10791E-05-3.12283E-05 5.35135E-06-7.05069E-19-1.50423E-18
 -1      2441 1.04982E-04-3.15867E-05-3.14639E-05 5.35041E-06 5.07252E-20-8.26915E-19
 -1      2442 1.03855E-04-3.14942E-05-3.10256E-05 6.33348E-06 3.83219E-19-4.80564E-19
 -1      2443 1.02223E-04-3.03010E-05-3.08202E-05 4.97718E-06-4.38404E-19-1.08990E-18
 -1      2444 1.03167E-04-3.06897E-05-3.10594E-05 5.16625E-06-8.28647E-19-1.26674E-18
 -1      2445 1.02073E-04-3.03768E-05-3.07373E-05 6.20390E-06-4.36356E-19-1.18702E-18
 -1      2446 1.00748E-04-2.97488E-05-3.04252E-05 4.36681E-06-2.20344E-20-1.07312E-18
 -1      2447 1.01577E-04-3.00395E-05-3.06504E-05 4.64721E-06-1.45915E-21-1.16994E-18
 -1      2448 1.00623E-04-2.96328E-05-3.04322E-05 5.64988E-06-1.09872E-19-1.85336E-18
 -1      2449 9.95159E-05-2.93615E-05-3.00635E-05 3.67553E-06-1.07046E-18-1.21553E-18
 -1      2450 1.00221E-04-2.95762E-05-3.02644E-05 3.98272E-06-5.55860E-19-1.29767E-18
 -1      2451 9.94451E-05-2.91577E-05-3.01297E-05 4.89704E-06-1.92103E-19-1.51472E-18
 -1      2452 9.85045E-05-2.90911E-05-2.97461E-05 2.99656E-06-7.46899E-19-1.71241E-18
 -1      2453 9.90867E-05-2.92482E-05-2.99182E-05 3.29266E-06-9.76733E-19-1.47832E-18
 -1      2454 9.84911E-05-2.88638E-05-2.98460E-05 4.09208E-06-5.99031E-19-2.11432E-18
 -1      2455 9.76879E-05-2.89031E-05-2.94770E-05 2.37965E-06-4.23101E-19-7.06732E-19
 -1      2456 9.81577E-05-2.90169E-05-2.96198E-05 2.64516E-06-8.49163E-19-1.02884E-18
 -1      2457 9.77216E-05-2.86870E-05-2.95913E-05 3.32158E-06-1.16215E-18-1.91093E-18
 -1      2458 9.70397E-05-2.87730E-05-2.92551E-05 1.84653E-06 5.12802E-19 5.09270E-20
 -1      2459 9.74107E-05-2.88546E-05-2.93704E-05 2.07361E-06 3.14636E-19 1.83804E-19
 -1      2460 9.71059E-05-2.85845E-05-2.93709E-05 2.63070E-06-4.44945E-19-5.06328E-19
 -1      2461 9.65337E-05-2.86842E-05-2.90766E-05 1.40204E-06 3.25073E-19-5.05973E-19
 -1      2462 9.68209E-05-2.87417E-05-2.91676E-05 1.58970E-06 9.39506E-19-3.16109E-19
 -1      2463 9.66187E-05-2.85282E-05-2.91856E-05 2.03794E-06 7.06403E-19-4.15399E-19
 -1      2464 9.61457E-05-2.86247E-05-2.89360E-05 1.04167E-06-4.77924E-19-2.79607E-19
 -1      2465 9.63636E-05-2.86643E-05-2.90064E-05 1.19263E-06-1.27854E-19-4.13804E-19
 -1      2466 9.62381E-05-2.85005E-05-2.90339E-05 1.54572E-06 1.84418E-20-6.25267E-19
 -1      2467 9.58536E-05-2.85860E-05-2.88277E-05 7.56280E-07-1.01919E-18 2.92297E-19
 -1      2468 9.60155E-05-2.86125E-05-2.88809E-05 8.74950E-07-7.65878E-19 6.45346E-19
 -1      2469 9.59453E-05-2.84900E-05-2.89123E-05 1.14758E-06-1.22581E-18 9.67641E-19
 -1      2470 9.56381E-05-2.85620E-05-2.87458E-05 5.34948E-07 8.50116E-19 8.09128E-19
 -1      2471 9.57558E-05-2.85790E-05-2.87852E-05 6.26319E-07-3.24020E-19 2.60288E-19
 -1      2472 9.57238E-05-2.84898E-05-2.88170E-05 8.32676E-07-5.67790E-19 1.79934E-18
 -1      2473 9.54827E-05-2.85483E-05-2.86853E-05 3.66681E-07 1.75219E-18 7.20557E-19
 -1      2474 9.55660E-05-2.85585E-05-2.87138E-05 4.35641E-07 1.47649E-18 1.34399E-18
 -1      2475 9.55592E-05-2.84953E-05-2.87437E-05 5.88640E-07 1.07288E-18 1.78596E-18
 -1      2476 9.53735E-05-2.85416E-05-2.86415E-05 2.41280E-07 2.31553E-18 5.06453E-20
 -1      2477 9.54307E-05-2.85471E-05-2.86616E-05 2.92280E-07 2.61345E-18 8.00123E-19
 -1      2478 9.54396E-05-2.85037E-05-2.86885E-05 4.03190E-07 2.65909E-18 7.84116E-19
 -1      2479 9.52994E-05-2.85396E-05-2.86108E-05 1.49759E-07 1.02577E-18-7.36961E-19
 -1      2480 9.53371E-05-2.85419E-05-2.86244E-05 1.86670E-07 2.05187E-18-3.48587E-19
 -1      2481 9.53548E-05-2.85131E-05-2.86477E-05 2.65012E-07 2.56446E-18 5.19691E-19
 -1      2482 9.52513E-05-2.85405E-05-2.85899E-05 8.44857E-08 2.07511E-19-1.58111E-18
 -1      2483 9.52747E-05-2.85407E-05-2.85988E-05 1.10562E-07 1.79951E-19-6.19375E-19
 -1      2484 9.52965E-05-2.85226E-05-2.86184E-05 1.64177E-07 1.23481E-18 1.14079E-19
 -1      2485 9.52221E-05-2.85432E-05-2.85763E-05 3.91590E-08-3.69513E-19-2.06294E-18
 -1      2486 9.52353E-05-2.85420E-05-2.85818E-05 5.70625E-08 5.02161E-19-1.61559E-18
 -1      2487 9.52579E-05-2.85315E-05-2.85978E-05 9.22643E-08 5.93646E-19 3.10244E-19
 -1      2488 9.52063E-05-2.85468E-05-2.85681E-05 8.70232E-09 7.49332E-20-1.88513E-18
 -1      2489 9.52124E-05-2.85449E-05-2.85711E-05 2.05594E-08-1.02427E-18-2.64502E-18
 -1      2490 9.52339E-05-2.85395E-05-2.85839E-05 4.23315E-08-1.66770E-19 3.70201E-19
 -1      2491 9.51998E-05-2.85508E-05-2.85637E-05-1.08758E-08 8.58494E-20-3.59177E-19
 -1      2492 9.52011E-05-2.85486E-05-2.85649E-05-3.40848E-09 8.33677E-19-1.32495E-18
 -1      2493 9.52203E-05-2.85465E-05-2.85749E-05 8.79266E-09-1.34932E-19-5.84626E-19
 -1      2494 9.51995E-05-2.85549E-05-2.85618E-05-2.26303E-08 4.66996E-19-7.19843E-19
 -1      2495 9.51978E-05-2.85525E-05-2.85619E-05-1.82991E-08 3.89898E-19-6.55337E-19
 -1      2496 9.52140E-05-2.85525E-05-2.85695E-05-1.27370E-08 1.76952E-19 1.01859E-18
 -1      2497 9.52030E-05-2.85590E-05-2.85617E-05-2.88175E-08-2.10191E-19-9.76124E-19
 -1      2498 9.51995E-05-2.85566E-05-2.85611E-05-2.67124E-08 2.81698E-19-5.36877E-19
 -1      2499 9.52126E-05-2.85577E-05-2.85666E-05-2.56045E-08 2.82475E-19 5.52962E-19
 -1      2500 9.52088E-05-2.85629E-05-2.85625E-05-3.10179E-08 4.89094E-19 3.63394E-19
 -1      2501 9.52044E-05-2.85605E-05-2.85616E-05-3.05210E-08-6.06453E-19 1.28784E-19
 -1      2502 9.52144E-05-2.85622E-05-2.85654E-05-3.22733E-08-7.55792E-19 8.95687E-19
 -1      2503 9.52157E-05-2.85666E-05-2.85639E-05-3.02365E-08-1.54628E-19 7.44413E-19
 -1      2504 9.52109E-05-2.85643E-05-2.85628E-05-3.09851E-08 4.35613E-19 1.33416E-18
 -1      2505 9.52181E-05-2.85662E-05-2.85652E-05-3.44659E-08-1.52406E-19 1.98336E-18
 -1      2506 9.52228E-05-2.85704E-05-2.85654E-05-2.69997E-08-8.56441E-19 3.04906E-19
 -1      2507 9.52182E-05-2.85682E-05-2.85643E-05-2.88555E-08-3.18204E-20 7.32601E-19
 -1      2508 9.52228E-05-2.85700E-05-2.85655E-05-3.33015E-08 1.03660E-20 1.65748E-18
 -1      2509 9.52295E-05-2.85741E-05-2.85667E-05-2.15415E-08-2.18897E-18-1.04407E-18
 -1      2510 9.52254E-05-2.85720E-05-2.85658E-05-2.44075E-08-1.86870E-18-1.58749E-19
 -1      2511 9.52281E-05-2.85739E-05-2.85661E-05-2.94130E-08-8.46766E-19 1.32444E-18
 -1      2512 9.52321E-05-2.85757E-05-2.85671E-05-1.76079E-08-1.72806E-18-9.00603E-19
 -1      2513 9.52508E-05-2.85996E-05-2.85648E-05-2.01193E-08 6.62135E-19 9.85003E-19
 -1      2514 9.52491E-05-2.85968E-05-2.85652E-05-2.25100E-08-8.00724E-19-2.94285E-19
 -1      2515 9.52533E-05-2.86030E-05-2.85643E-05-1.36444E-08 1.19248E-18 7.49518E-20
 -1      2516 9.52521E-05-2.86011E-05-2.85647E-05-1.68486E-08 1.34970E-18 3.25546E-19
 -1      2517 9.52520E-05-2.85961E-05-2.85668E-05-2.04259E-08 1.72989E-18 1.10472E-18
 -1      2518 9.52424E-05-2.85886E-05-2.85659E-05-2.66102E-08-1.60952E-18-9.17068E-19
 -1      2519 9.52394E-05-2.85848E-05-2.85664E-05-2.63070E-08-1.34267E-18 6.93705E-19
 -1      2520 9.52472E-05-2.85946E-05-2.85653E-05-2.47135E-08-2.13039E-18-1.93497E-18
 -1      2521 9.52448E-05-2.85913E-05-2.85658E-05-2.58907E-08-1.99265E-18-1.06775E-18
 -1      2522 9.52430E-05-2.85873E-05-2.85668E-05-2.92486E-08-8.26176E-19-6.39952E-19
 -1      2523 9.52482E-05-2.85923E-05-2.85669E-05-2.61612E-08-1.45148E-18-3.11844E-19
 -1      2524 9.52546E-05-2.86050E-05-2.85640E-05-6.06375E-09-1.01062E-18-2.07453E-18
 -1      2525 9.52540E-05-2.86040E-05-2.85642E-05-9.72394E-09-3.98929E-19-9.99791E-19
 -1      2526 9.52544E-05-2.85987E-05-2.85668E-05-1.28902E-08 7.30089E-20-1.60655E-18
 -1      2527 9.52548E-05-2.86053E-05-2.85640E-05 1.96969E-09-1.45408E-18-1.25232E-18
 -1      2528 9.52548E-05-2.86053E-05-2.85640E-05-1.83446E-09-1.02829E-18-1.37765E-18
 -1      2529 9.52555E-05-2.85999E-05-2.85667E-05-4.35268E-09-8.71983E-19-1.68192E-18
 -1      2530 9.52540E-05-2.86039E-05-2.85642E-05 9.85065E-09-9.47792E-19 2.17348E-19
 -1      2531 9.52546E-05-2.86049E-05-2.85641E-05 6.19645E-09-1.14659E-18-1.99221E-19
 -1      2532 9.52555E-05-2.85999E-05-2.85667E-05 4.50060E-09-6.78453E-19-7.74247E-19
 -1      2533 9.52521E-05-2.86011E-05-2.85647E-05 1.68483E-08-4.54092E-19-6.12690E-19
 -1      2534 9.52533E-05-2.86030E-05-2.85643E-05 1.37030E-08-5.18218E-19-1.78114E-19
 -1      2535 9.52543E-05-2.85987E-05-2.85668E-05 1.29597E-08 2.38783E-19-1.06997E-19
 -1      2536 9.52491E-05-2.85968E-05-2.85652E-05 2.25118E-08-9.48408E-20 4.41048E-20
 -1      2537 9.52508E-05-2.85996E-05-2.85648E-05 2.01169E-08 2.68682E-19-8.65889E-19
 -1      2538 9.52520E-05-2.85961E-05-2.85668E-05 2.04313E-08 4.56104E-19-4.65174E-19
 -1      2539 9.52448E-05-2.85912E-05-2.85658E-05 2.59019E-08-4.20908E-19 9.56754E-19
 -1      2540 9.52472E-05-2.85946E-05-2.85653E-05 2.47218E-08-9.04295E-19 1.64376E-18
 -1      2541 9.52483E-05-2.85923E-05-2.85669E-05 2.62183E-08-6.84531E-19-9.05943E-19
 -1      2542 9.52394E-05-2.85847E-05-2.85664E-05 2.61505E-08-2.09040E-18-5.76110E-19
 -1      2543 9.52423E-05-2.85885E-05-2.85659E-05 2.66303E-08-1.11112E-18-3.10658E-19
 -1      2544 9.52432E-05-2.85872E-05-2.85668E-05 2.92461E-08-1.38306E-18-4.78633E-20
 -1      2545 2.42453E-05-2.07639E-05-1.35531E-06 2.02467E-05-3.95988E-19 6.16809E-18
 -1      2546 1.87143E-05-1.88400E-05 2.69248E-07 6.14127E-06 4.83338E-20 5.74331E-18
 -1      2547 9.54867E-05-5.22725E-05-1.85556E-05 4.09558E-05-1.96109E-18 5.06195E-19
 -1      2548 7.63285E-05-4.60824E-05-1.27338E-05 4.11957E-05-2.83798E-18 1.88777E-18
 -1      2549 1.02554E-04-3.00016E-05-3.10822E-05-4.71928E-06 1.51219E-18 1.67593E-18
 -1      2550 1.01899E-04-2.94845E-05-3.09884E-05-4.06116E-06 1.83993E-18 2.04411E-18
 -1      2551 1.01956E-04-2.97120E-05-3.09873E-05-5.68037E-06 1.64465E-18 6.75277E-19
 -1      2552 5.51053E-05-3.63998E-05-7.99469E-06 4.08084E-05-2.18535E-18 4.24215E-18
 -1      2553 3.85249E-05-2.86320E-05-3.94906E-06 3.20055E-05-1.84187E-18 5.01698E-18
 -1      2554 9.52350E-05-2.85797E-05-2.85666E-05 2.10749E-08 6.61178E-19-7.64394E-19
 -1      2555 6.08972E-05-3.99787E-05-8.81406E-06-4.02075E-05 3.26362E-18 3.05324E-18
 -1      2556 7.95024E-05-4.67963E-05-1.41121E-05-4.31520E-05 3.07515E-18 1.52678E-18
 -1      2557 1.45088E-04-1.27502E-05-5.72428E-05 3.88904E-06-7.32853E-18-3.48967E-18
 -1      2558 1.48997E-04-1.21997E-05-5.89066E-05 9.75599E-07-8.45889E-18-3.14638E-18
 -1      2559 3.46077E-05-2.44453E-05-4.13589E-06 2.96448E-05 2.91591E-19-8.15587E-18
 -1      2560 2.36802E-05-2.05252E-05-1.03512E-06 1.60194E-05 6.69156E-20-8.90338E-18
 -1      2561 1.49928E-04-1.43995E-05-5.83520E-05-3.75027E-06 8.81761E-18-2.11504E-18
 -1      2562 1.47203E-04-1.91454E-05-5.52827E-05-5.89978E-06 8.47880E-18-2.81236E-18
 -1      2563 1.79007E-05-1.92847E-05 7.15103E-07-6.30342E-06 1.06242E-18 5.50444E-18
 -1      2564 2.42434E-05-2.18223E-05-8.63520E-07-2.01748E-05 1.56934E-18 4.91321E-18
 -1      2565 2.45901E-05-1.56823E-05-3.24317E-06 1.16812E-07 1.73099E-19 5.32233E-18
 -1      2566 3.86244E-05-2.93255E-05-3.77544E-06-3.29139E-05 2.03034E-18 3.94971E-18
 -1      2567 4.93921E-05-3.42257E-05-6.24433E-06-3.87330E-05 2.06528E-18 3.69815E-18
 -1      2568 6.38035E-05-3.77735E-05-1.07975E-05-3.98293E-05 3.40994E-18 2.13198E-18
 -1      2569 8.14189E-05-6.40724E-06-3.21788E-05-3.75133E-07 3.67845E-19-5.72300E-18
 -1      2570 8.19204E-05-6.71727E-06-3.22498E-05-8.31483E-07-6.51839E-20-5.75136E-18
 -1      2571 8.30711E-05-8.47807E-06-3.19600E-05-5.70245E-07-2.64912E-19-5.28079E-18
 -1      2572 8.19503E-05-7.63985E-06-3.18377E-05-1.49197E-07 5.26535E-19-5.36336E-18
 -1      2573 1.25812E-04-5.75627E-05-2.96139E-05 2.66289E-05-5.13514E-19-5.24313E-19
 -1      2574 1.11820E-04-5.65903E-05-2.36384E-05 3.30597E-05-1.48040E-18 1.79995E-19
 -1      2575 1.00499E-04-5.43215E-05-1.96378E-05-3.83841E-05-7.62330E-19-5.11894E-18
 -1      2576 1.16703E-04-5.71498E-05-2.57338E-05-3.45352E-05 2.06676E-19-4.06862E-18
 -1      2577 1.43840E-04-1.17060E-05-5.71100E-05 1.97433E-06 9.14753E-18-4.65709E-19
 -1      2578 1.48404E-04-1.17551E-05-5.86869E-05-1.18376E-06 8.76001E-18-1.53313E-18
 -1      2579 1.37297E-04-1.09327E-05-5.43598E-05-3.75187E-06 8.30812E-18-1.54112E-18
 -1      2580 1.46800E-04-4.58138E-05-4.33706E-05-4.46750E-06 3.90472E-18-5.15420E-19
 -1      2581 1.48966E-04-3.93203E-05-4.75617E-05 6.62078E-07 5.02163E-18 8.87267E-20
 -1      2582 1.50612E-04-2.41652E-05-5.45355E-05-4.57781E-06-8.73206E-18-1.07383E-18
 -1      2583 1.47974E-04-3.10203E-05-5.04247E-05-4.28319E-06-7.87656E-18-1.57972E-19
 -1      2584 1.30137E-04-5.68456E-05-3.14443E-05-2.31483E-05 1.15281E-18-2.53475E-18
 -1      2585 1.42181E-04-5.29816E-05-3.85121E-05-1.53739E-05 2.92449E-18-1.46579E-18
 -1      2586 1.42525E-04-5.22191E-05-3.86707E-05-4.94619E-06 1.59508E-18 1.09288E-18
 -1      2587 5.87247E-05-3.94865E-05-8.08033E-06-4.04593E-05-1.57188E-18-8.04565E-18
 -1      2588 7.92607E-05-4.69633E-05-1.39498E-05-4.40916E-05-8.06799E-19-6.93466E-18
 -1      2589 2.83010E-05-2.34199E-05-1.84008E-06-2.39318E-05-1.80619E-18-9.63627E-18
 -1      2590 4.06681E-05-2.96788E-05-4.62870E-06-3.53687E-05-1.23243E-18-9.08083E-18
 -1      2591 1.90399E-05-1.81454E-05-1.01155E-07 5.13465E-06-8.46504E-19-9.39614E-18
 -1      2592 1.98655E-05-1.81482E-05-4.92717E-07-9.14896E-06-5.31460E-19-9.77518E-18
 -1      2593 2.90061E-05-1.61120E-05-4.92123E-06 1.10687E-05 3.12979E-19-8.83921E-18
 -1      2594 6.71228E-05-4.09780E-05-1.11787E-05 4.33186E-05 1.30803E-18-6.44507E-18
 -1      2595 5.24704E-05-3.39301E-05-7.51302E-06 3.80987E-05 1.52360E-18-7.27114E-18
 -1      2596 1.08978E-04-5.64240E-05-2.27089E-05 3.72570E-05 3.14249E-19-2.74867E-18
 -1      2597 8.72878E-05-4.99679E-05-1.57136E-05 4.09322E-05 1.53334E-18-4.75702E-18
 -1      2598 1.36027E-04-5.77048E-05-3.38687E-05 1.92135E-05-2.30922E-18-3.23143E-19
 -1      2599 1.25926E-04-5.88587E-05-2.86066E-05 2.50329E-05-6.85567E-19-9.52383E-19
 -1      2600 1.48708E-04-4.32979E-05-4.55935E-05 1.68745E-06-6.07365E-18 4.26693E-19
 -1      2601 1.42113E-04-5.12322E-05-3.91253E-05 8.56414E-06-4.01965E-18 2.24040E-19
 -1      2602 1.49461E-04-1.32313E-05-5.87790E-05-1.93465E-06-9.10560E-18-1.87247E-18
 -1      2603 1.48598E-04-1.64687E-05-5.70007E-05-3.71275E-06-9.10730E-18-1.77284E-18
 -1      2604 1.36763E-04-1.00619E-05-5.44493E-05-1.55101E-06-8.12178E-18-2.09649E-18
 -1      2605 1.47517E-04-2.56485E-05-5.25409E-05 7.10945E-06-5.38501E-18-4.00901E-18
 -1      2606 1.47073E-04-1.94705E-05-5.52032E-05 6.75872E-06-6.09186E-18-4.18974E-18
 -1      2607 1.44971E-04-4.57140E-05-4.27278E-05-2.37250E-06-3.01983E-18-3.73372E-18
 -1      2608 1.49232E-04-3.65995E-05-4.87396E-05 3.53051E-06-4.51818E-18-4.08799E-18
 -1      2609 1.32466E-04-5.70847E-05-3.23080E-05-1.90908E-05 1.00310E-18-1.01347E-18
 -1      2610 1.40803E-04-5.43007E-05-3.74813E-05-1.29350E-05-6.44010E-19-2.55465E-18
 -1      2611 1.01654E-04-5.45785E-05-1.99687E-05-3.68098E-05 2.86212E-18 3.44954E-19
 -1      2612 1.19977E-04-5.77369E-05-2.69005E-05-3.11467E-05 2.21181E-18 1.31820E-19
 -1      2613 1.01512E-04-2.65296E-05-3.21445E-05 3.75862E-06 3.77565E-18 3.36079E-18
 -1      2614 1.02052E-04-2.51229E-05-3.29856E-05 6.97923E-06 4.04299E-18 3.93870E-18
 -1      2615 1.00063E-04-2.24828E-05-3.33050E-05 7.84128E-06 4.36464E-18 2.41285E-18
 -1      2616 1.00366E-04-2.52446E-05-3.22317E-05 3.12372E-06 3.82238E-18 1.63304E-18
 -1      2617 1.47425E-04-2.79382E-05-5.14205E-05 5.66284E-06 6.83492E-18 1.56701E-19
 -1      2618 1.45421E-04-1.90356E-05-5.46871E-05 6.68908E-06 8.45635E-18 4.16317E-19
 -1      2619 1.48027E-04-2.87061E-05-5.14547E-05-6.60227E-06 7.07124E-18-3.69920E-18
 -1      2620 1.45602E-04-3.58236E-05-4.74830E-05-5.53052E-06 5.35314E-18-3.41418E-18
 -1      2621 1.08149E-04-5.63424E-05-2.19430E-05 3.42765E-05-3.05927E-18-1.41560E-19
 -1      2622 8.83503E-05-1.25978E-05-3.24592E-05-2.25432E-06-1.88427E-18-5.04884E-18
 -1      2623 8.81202E-05-1.14130E-05-3.29344E-05-3.57456E-06-2.06936E-18-5.29228E-18
 -1      2624 8.98999E-05-1.27318E-05-3.31191E-05-4.55121E-06-2.57894E-18-4.87851E-18
 -1      2625 3.81519E-05-2.30003E-05-5.91995E-06 2.63088E-05-1.99455E-18 4.94731E-18
 -1      2626 9.75796E-05-1.98502E-05-3.33592E-05 7.26583E-06 4.33246E-18 5.72250E-19
 -1      2627 1.42828E-04-3.40393E-05-4.68022E-05 8.26201E-06 4.88209E-18 1.73811E-18
 -1      2628 9.16742E-05-1.43464E-05-3.32045E-05-5.13421E-06-2.84499E-18-4.40466E-18
 -1      2629 9.38046E-05-1.61516E-05-3.33478E-05-6.17208E-06-3.33717E-18-3.74223E-18
 -1      2630 9.55461E-05-1.90741E-05-3.27578E-05-4.22407E-06-3.24412E-18-3.23609E-18
 -1      2631 9.18839E-05-1.55977E-05-3.26805E-05-3.33910E-06-2.62048E-18-4.29713E-18
 -1      2632 9.59818E-05-5.19272E-05-1.85687E-05-3.80869E-05 4.27286E-18 4.61739E-19
 -1      2633 1.28011E-04-5.95786E-05-2.91876E-05-2.14279E-05 2.71686E-18-1.42450E-18
 -1      2634 1.42106E-04-5.11434E-05-3.89921E-05-9.35251E-07-9.24881E-19-3.70556E-18
 -1      2635 9.52333E-05-2.85777E-05-2.85667E-05-2.26828E-08-2.35087E-18 4.10659E-19
 -1      2636 9.52354E-05-2.85805E-05-2.85664E-05-2.46570E-08-1.72781E-18 1.33941E-18
 -1      2637 9.75667E-05-2.09949E-05-3.27759E-05 4.94515E-06 4.01886E-18 9.86727E-20
 -1      2638 7.25575E-05-4.12804E-05-1.29185E-05 4.00482E-05-3.57342E-18 1.71630E-18
 -1      2639 1.43682E-04-3.81013E-05-4.54168E-05-6.80575E-06-5.48899E-18 1.27055E-18
 -1      2640 1.39630E-04-5.55962E-05-3.59968E-05 6.93005E-06-1.83213E-18 1.13333E-18
 -1      2641 1.00970E-04-2.84431E-05-3.11060E-05-3.80257E-06 2.27622E-18 9.90961E-19
 -1      2642 9.52318E-05-2.85764E-05-2.85667E-05 2.39953E-08 3.47873E-19 5.48318E-19
 -1      2643 9.52365E-05-2.85816E-05-2.85664E-05 2.60707E-08-3.14818E-19-2.61672E-19
 -1      2644 9.52366E-05-2.85810E-05-2.85667E-05 2.95783E-08-1.65645E-18 1.67031E-18
 -1      2645 9.52289E-05-2.85747E-05-2.85662E-05 2.70616E-08-4.27547E-20 9.13610E-19
 -1      2646 1.37769E-04-1.48620E-05-5.29294E-05 7.94588E-06-6.20558E-18-3.98010E-18
 -1      2647 1.19782E-04-5.90379E-05-2.58355E-05 2.81276E-05 1.52762E-18-8.22363E-19
 -1      2648 1.44663E-04-4.26269E-05-4.39722E-05-4.55809E-06 3.48189E-18-3.30788E-18
 -1      2649 1.40648E-04-4.77475E-05-3.98679E-05-2.75053E-06 1.75908E-18-3.88513E-18
 -1      2650 1.38628E-04-3.76559E-05-4.36826E-05-1.17122E-05 3.71847E-18-4.63486E-18
 -1      2651 3.09377E-05-1.81252E-05-4.91719E-06-1.63937E-05-1.37473E-18-9.55517E-18
 -1      2652 4.87621E-05-2.73779E-05-8.61331E-06 3.28253E-05 1.95728E-18-7.20444E-18
 -1      2653 1.27256E-04-5.96379E-05-2.87803E-05-2.43306E-05-1.13185E-18-1.49406E-18
 -1      2654 1.40024E-04-1.88331E-05-5.21256E-05-8.57822E-06-8.09615E-18-5.39136E-19
 -1      2655 1.39070E-04-1.53108E-05-5.35219E-05 6.48680E-06 8.32866E-18 2.04135E-19
 -1      2656 1.29543E-04-1.11639E-05-5.13497E-05 5.02992E-06 7.59979E-18-7.03567E-20
 -1      2657 1.32122E-04-1.81058E-05-4.91353E-05 1.05071E-05 6.93021E-18 1.61937E-18
 -1      2658 1.39835E-04-2.26305E-05-5.05258E-05-1.10461E-05 7.06362E-18-3.38421E-18
 -1      2659 3.32865E-05-1.73645E-05-6.27028E-06-2.02015E-05 1.52381E-18 4.07423E-18
 -1      2660 3.54228E-05-2.39651E-05-4.46669E-06-2.69491E-05 1.78692E-18 4.40034E-18
 -1      2661 4.70056E-05-2.59008E-05-8.77440E-06-3.20546E-05 2.34014E-18 3.20920E-18
 -1      2662 9.49815E-05-5.19117E-05-1.81395E-05-3.97814E-05-2.27301E-18-5.17630E-18
 -1      2663 9.52319E-05-2.85766E-05-2.85666E-05 3.09601E-08-7.43469E-19 1.94088E-18
 -1      2664 1.34581E-04-5.74122E-05-3.28806E-05 1.71150E-05-3.00061E-19-1.39676E-18
 -1      2665 1.29932E-04-5.94281E-05-2.99430E-05 1.84343E-05-2.26576E-18-1.50804E-18
 -1      2666 1.37741E-04-5.59094E-05-3.56931E-05 5.60070E-06-3.84735E-19-2.84921E-18
 -1      2667 5.72697E-05-3.39156E-05-9.50406E-06-3.78129E-05-2.72490E-18-8.21114E-18
 -1      2668 8.51233E-05-4.64294E-05-1.61161E-05 4.00713E-05 3.11793E-18-4.19705E-18
 -1      2669 1.42164E-04-3.21335E-05-4.73426E-05 1.00701E-05-4.11319E-18-4.60405E-18
 -1      2670 9.52354E-05-2.85801E-05-2.85666E-05-2.86535E-08-1.68773E-18 1.11379E-18
 -1      2671 8.39816E-05-1.01962E-05-3.16328E-05 1.54753E-07 2.04551E-18-4.57844E-18
 -1      2672 8.30885E-05-9.54902E-06-3.15438E-05-6.81586E-08 1.65810E-18-4.74122E-18
 -1      2673 8.24296E-05-9.00516E-06-3.14820E-05 4.52406E-08 1.46119E-18-4.88410E-18
 -1      2674 8.21065E-05-8.77320E-06-3.14489E-05-8.43645E-08 1.08455E-18-4.93156E-18
 -1      2675 8.32251E-05-1.05081E-05-3.11409E-05-3.96340E-07 1.47831E-18-4.63413E-18
 -1      2676 9.00969E-05-1.51684E-05-3.21328E-05 1.32588E-06 3.15642E-18-3.29064E-18
 -1      2677 8.82926E-05-1.37097E-05-3.19976E-05 8.00160E-07 2.89942E-18-3.67997E-18
 -1      2678 9.42142E-05-1.88630E-05-3.23183E-05 2.20629E-06 3.53419E-18-1.96342E-18
 -1      2679 9.21015E-05-1.69452E-05-3.22377E-05 1.67711E-06 3.29037E-18-2.65727E-18
 -1      2680 9.18965E-05-1.76840E-05-3.17867E-05 6.22320E-08 2.99033E-18-2.72206E-18
 -1      2681 8.40149E-05-4.47533E-05-1.67058E-05 3.88060E-05-3.63335E-18 1.73959E-19
 -1      2682 6.55445E-05-3.49343E-05-1.25691E-05 3.74092E-05-3.46288E-18 1.83129E-18
 -1      2683 9.78126E-05-2.38816E-05-3.16620E-05 5.73319E-07-2.34124E-18-2.37270E-18
 -1      2684 9.81242E-05-2.50030E-05-3.13476E-05 2.44445E-06-1.98507E-18-2.22619E-18
 -1      2685 9.93159E-05-2.59806E-05-3.14306E-05-1.70843E-06 2.78567E-18 4.23446E-20
 -1      2686 9.91665E-05-2.50170E-05-3.17428E-05 2.29222E-07 3.05998E-18 1.99177E-19
 -1      2687 9.76713E-05-2.22176E-05-3.23409E-05 2.83502E-06 3.63792E-18-2.21674E-19
 -1      2688 1.08278E-04-3.64485E-05-3.08300E-05-5.25230E-06-3.91405E-19 7.13810E-19
 -1      2689 1.06872E-04-3.50135E-05-3.07452E-05-6.45651E-06-4.94487E-20 3.64943E-19
 -1      2690 1.22167E-04-5.89157E-05-2.67125E-05-2.29113E-05 4.09535E-18-1.09850E-18
 -1      2691 1.31319E-04-5.92602E-05-3.13632E-05-1.36486E-05 2.53676E-18-1.88994E-18
 -1      2692 9.85489E-05-2.60142E-05-3.10538E-05 4.02382E-06-1.69704E-18-2.04879E-18
 -1      2693 9.89577E-05-2.69172E-05-3.08775E-05 5.34351E-06-1.34361E-18-1.99250E-18
 -1      2694 9.67552E-05-2.40591E-05-3.11642E-05 3.32983E-06-1.75672E-18-2.55330E-18
 -1      2695 9.94480E-05-2.78148E-05-3.06671E-05 6.52618E-06-1.06589E-18-1.70277E-18
 -1      2696 1.00120E-04-2.87809E-05-3.05756E-05 7.32879E-06-9.49474E-19-1.69407E-18
 -1      2697 9.76497E-05-2.62437E-05-3.06230E-05 6.22299E-06-1.19063E-18-2.20956E-18
 -1      2698 1.00915E-04-2.98429E-05-3.04218E-05 8.08736E-06-7.20850E-19-1.41601E-18
 -1      2699 1.01941E-04-3.10617E-05-3.03829E-05 8.34316E-06-4.21692E-19-1.39128E-18
 -1      2700 9.89165E-05-2.84966E-05-3.02128E-05 8.32099E-06-7.28311E-19-1.86626E-18
 -1      2701 1.03253E-04-3.24823E-05-3.02809E-05 8.57965E-06-2.12770E-19-1.15831E-18
 -1      2702 1.04682E-04-3.40502E-05-3.02884E-05 8.17619E-06-1.05493E-19-1.06114E-18
 -1      2703 1.00993E-04-3.13286E-05-2.99052E-05 9.51410E-06-3.16465E-19-1.64245E-18
 -1      2704 1.06698E-04-3.59099E-05-3.02709E-05 7.68335E-06 1.25068E-19-6.48649E-19
 -1      2705 1.08481E-04-3.77400E-05-3.03559E-05 6.45831E-06 2.04142E-19-5.74172E-19
 -1      2706 1.04283E-04-3.50675E-05-2.97326E-05 9.53385E-06 8.44634E-20-1.14042E-18
 -1      2707 1.11237E-04-3.98543E-05-3.05148E-05 4.90064E-06 4.42459E-19-1.88761E-19
 -1      2708 1.13078E-04-4.14682E-05-3.07528E-05 2.73803E-06 5.70017E-19 5.59224E-20
 -1      2709 1.09065E-04-3.96579E-05-2.98315E-05 7.82951E-06 5.36116E-19-5.72772E-19
 -1      2710 1.16189E-04-4.31551E-05-3.12411E-05-1.23884E-07 4.98112E-19 6.23846E-19
 -1      2711 1.17481E-04-4.35608E-05-3.17435E-05-3.04498E-06 7.60477E-20 1.09429E-18
 -1      2712 1.15016E-04-4.41147E-05-3.04760E-05 3.75493E-06 7.94276E-19 3.03983E-19
 -1      2713 1.19800E-04-4.34520E-05-3.27625E-05-6.90728E-06-2.74895E-19 1.63205E-18
 -1      2714 1.19680E-04-4.13470E-05-3.36217E-05-9.65049E-06-9.21062E-19 1.89948E-18
 -1      2715 1.20721E-04-4.59097E-05-3.20777E-05-3.06826E-06 2.87773E-19 1.66694E-18
 -1      2716 1.19696E-04-3.80367E-05-3.52051E-05-1.27917E-05-1.81610E-18 2.21253E-18
 -1      2717 1.17864E-04-3.31809E-05-3.63001E-05-1.34585E-05-2.44718E-18 1.96173E-18
 -1      2718 1.23451E-04-4.20632E-05-3.49123E-05-1.05825E-05-1.35454E-18 2.43736E-18
 -1      2719 1.15525E-04-2.75736E-05-3.80299E-05-1.27467E-05-3.35081E-18 1.36496E-18
 -1      2720 1.13296E-04-2.25386E-05-3.89484E-05-9.87242E-06-4.15062E-18 7.33286E-19
 -1      2721 1.21035E-04-3.08912E-05-3.87348E-05-1.41379E-05-3.44115E-18 2.45698E-18
 -1      2722 1.11254E-04-1.88282E-05-3.99112E-05-4.19470E-06-3.88703E-18-5.39335E-19
 -1      2723 1.10934E-04-1.78764E-05-4.00849E-05 1.09951E-06-3.18786E-18-9.75339E-19
 -1      2724 1.16282E-04-1.89219E-05-4.19366E-05-8.12567E-06-4.73830E-18 5.07717E-19
 -1      2725 1.11853E-04-1.98089E-05-3.96044E-05 7.78369E-06-2.66847E-18-2.04494E-18
 -1      2726 1.13846E-04-2.38400E-05-3.89137E-05 1.17970E-05-2.48837E-18-2.47533E-18
 -1      2727 1.15273E-04-1.67612E-05-4.24707E-05 4.80471E-06-3.68560E-18-1.21857E-18
 -1      2728 1.16478E-04-2.93980E-05-3.73343E-05 1.43601E-05-2.11674E-18-3.07045E-18
 -1      2729 1.18811E-04-3.48176E-05-3.62434E-05 1.48211E-05-1.75982E-18-3.27474E-18
 -1      2730 1.19445E-04-2.61999E-05-4.00678E-05 1.44307E-05-2.73994E-18-3.42815E-18
 -1      2731 1.19631E-04-3.91180E-05-3.45394E-05 1.26416E-05-1.38365E-18-2.92379E-18
 -1      2732 1.20475E-04-4.22657E-05-3.35935E-05 1.04487E-05-5.30107E-19-2.77435E-18
 -1      2733 1.23168E-04-3.86621E-05-3.62677E-05 1.39067E-05-1.35470E-18-3.40370E-18
 -1      2734 1.18760E-04-4.34236E-05-3.23633E-05 6.50373E-06 4.99032E-20-2.50388E-18
 -1      2735 1.17946E-04-4.37808E-05-3.17482E-05 3.50545E-06 8.17302E-19-2.50328E-18
 -1      2736 1.22174E-04-4.54214E-05-3.29366E-05 6.90040E-06-1.66879E-19-2.65595E-18
 -1      2737 1.14920E-04-4.25640E-05-3.10816E-05 1.66596E-07 1.43179E-18-2.04419E-18
 -1      2738 1.13209E-04-4.12644E-05-3.07607E-05-2.33499E-06 1.57192E-18-1.71166E-18
 -1      2739 1.17132E-04-4.52135E-05-3.08918E-05-5.75166E-07 1.21814E-18-2.29527E-18
 -1      2740 1.10240E-04-3.92345E-05-3.04788E-05-4.38104E-06 1.16729E-18-8.70211E-19
 -1      2741 1.08397E-04-3.74746E-05-3.03295E-05-6.01015E-06 1.36772E-18-4.16601E-19
 -1      2742 1.10983E-04-4.13622E-05-2.99193E-05-5.69276E-06 1.82867E-18-1.30286E-18
 -1      2743 1.06084E-04-3.55687E-05-3.02449E-05-6.96229E-06 1.13768E-18-1.59045E-19
 -1      2744 1.04494E-04-3.39979E-05-3.01668E-05-7.79915E-06 1.14245E-18-6.24017E-20
 -1      2745 1.05684E-04-3.68304E-05-2.95786E-05-8.34499E-06 1.33102E-18 3.65420E-19
 -1      2746 1.02906E-04-3.25604E-05-3.01563E-05-8.02881E-06 1.06098E-18-2.96208E-19
 -1      2747 1.01667E-04-3.13900E-05-3.00915E-05-8.28384E-06 1.01227E-18-5.05856E-19
 -1      2748 1.01823E-04-3.30474E-05-2.95246E-05-9.25888E-06 8.99460E-19 1.05952E-18
 -1      2749 1.00660E-04-3.04438E-05-3.00915E-05-8.09232E-06 2.57355E-19-1.39261E-18
 -1      2750 9.97335E-05-2.96636E-05-3.00161E-05-7.97167E-06 7.05075E-20-1.62489E-18
 -1      2751 9.92772E-05-3.03815E-05-2.95569E-05-9.12354E-06 4.42997E-20-5.76489E-19
 -1      2752 9.91264E-05-2.91084E-05-3.00013E-05-7.56013E-06 1.81063E-19-2.02762E-18
 -1      2753 9.84369E-05-2.86314E-05-2.99114E-05-7.22512E-06 1.54465E-19-2.20916E-18
 -1      2754 9.77005E-05-2.87172E-05-2.95811E-05-8.41797E-06-3.40381E-19-1.24055E-18
 -1      2755 9.80809E-05-2.83475E-05-2.98769E-05-6.71845E-06-4.02981E-19-2.64534E-18
 -1      2756 9.75615E-05-2.80802E-05-2.97774E-05-6.28253E-06-5.60688E-19-3.17072E-18
 -1      2757 9.67606E-05-2.77958E-05-2.95652E-05-7.44028E-06-5.19821E-19-1.96780E-18
 -1      2758 9.73540E-05-2.79675E-05-2.97273E-05-5.75594E-06 7.44465E-19-2.93946E-18
 -1      2759 9.69555E-05-2.78349E-05-2.96253E-05-5.29324E-06 1.57778E-18-2.59927E-18
 -1      2760 9.62099E-05-2.73686E-05-2.95080E-05-6.37037E-06 1.54124E-19-2.18550E-18
 -1      2761 9.68325E-05-2.78219E-05-2.95661E-05-4.79063E-06 1.82255E-18-2.82336E-18
 -1      2762 9.65219E-05-2.77707E-05-2.94679E-05-4.34612E-06 1.61151E-18-2.22465E-18
 -1      2763 9.58863E-05-2.72443E-05-2.94205E-05-5.31564E-06 1.64319E-18-2.52277E-18
 -1      2764 9.64459E-05-2.78105E-05-2.94058E-05-3.89136E-06 9.48382E-19-1.61820E-18
 -1      2765 9.62018E-05-2.78057E-05-2.93160E-05-3.48955E-06 4.91706E-19-6.64378E-19
 -1      2766 9.56911E-05-2.72907E-05-2.93160E-05-4.33796E-06 1.60822E-18-2.61856E-18
 -1      2767 9.61518E-05-2.78691E-05-2.92555E-05-3.09346E-06 2.10892E-19 1.34149E-19
 -1      2768 9.59597E-05-2.78887E-05-2.91764E-05-2.74526E-06-4.56953E-19 1.24925E-19
 -1      2769 9.55676E-05-2.74228E-05-2.92061E-05-3.46945E-06 8.19506E-19-1.54573E-18
 -1      2770 9.59244E-05-2.79589E-05-2.91207E-05-2.41035E-06-5.08179E-19 7.87294E-19
 -1      2771 9.57739E-05-2.79896E-05-2.90531E-05-2.11807E-06 5.76262E-19 9.03874E-19
 -1      2772 9.54845E-05-2.75888E-05-2.90993E-05-2.72254E-06 5.83083E-20-6.71260E-19
 -1      2773 9.57476E-05-2.80573E-05-2.90038E-05-1.84177E-06 3.63342E-19 8.32119E-19
 -1      2774 9.56308E-05-2.80914E-05-2.89477E-05-1.60268E-06 1.22129E-19 3.99772E-19
 -1      2775 9.54250E-05-2.77587E-05-2.90009E-05-2.09696E-06-7.44825E-20 1.67791E-19
 -1      2776 9.56104E-05-2.81522E-05-2.89054E-05-1.37957E-06-3.20674E-19 8.46457E-19
 -1      2777 9.55209E-05-2.81854E-05-2.88598E-05-1.18828E-06-7.05513E-21-9.12481E-21
 -1      2778 9.53804E-05-2.79170E-05-2.89139E-05-1.58477E-06-2.05684E-19-4.09014E-19
 -1      2779 9.55047E-05-2.82375E-05-2.88245E-05-1.01161E-06 4.69978E-19-3.44828E-19
 -1      2780 9.54371E-05-2.82677E-05-2.87883E-05-8.61623E-07 2.16349E-19-1.02777E-18
 -1      2781 9.53458E-05-2.80561E-05-2.88394E-05-1.17386E-06-1.88112E-19-1.10244E-18
 -1      2782 9.54243E-05-2.83109E-05-2.87595E-05-7.24303E-07-5.44128E-19-5.32364E-19
 -1      2783 9.53742E-05-2.83371E-05-2.87312E-05-6.08912E-07-9.98045E-19-5.86805E-19
 -1      2784 9.53187E-05-2.81738E-05-2.87773E-05-8.50395E-07-3.88238E-19-1.63373E-18
 -1      2785 9.53641E-05-2.83720E-05-2.87082E-05-5.04116E-07-1.26877E-18-1.04239E-18
 -1      2786 9.53277E-05-2.83941E-05-2.86866E-05-4.17007E-07-1.30769E-18-1.56059E-18
 -1      2787 9.52975E-05-2.82706E-05-2.87266E-05-6.00388E-07-1.60863E-18-2.43422E-18
 -1      2788 9.53198E-05-2.84217E-05-2.86686E-05-3.38514E-07-1.25247E-18-2.04227E-18
 -1      2789 9.52940E-05-2.84398E-05-2.86523E-05-2.74028E-07-7.94080E-19-2.64100E-18
 -1      2790 9.52810E-05-2.83483E-05-2.86861E-05-4.10656E-07-1.92249E-18-4.08130E-18
 -1      2791 9.52879E-05-2.84612E-05-2.86385E-05-2.16390E-07 9.35039E-20-1.91588E-18
 -1      2792 9.52702E-05-2.84757E-05-2.86266E-05-1.69648E-07-1.97379E-19-1.69885E-18
 -1      2793 9.52682E-05-2.84093E-05-2.86544E-05-2.69366E-07-6.79797E-19-2.22307E-18
 -1      2794 9.52656E-05-2.84920E-05-2.86161E-05-1.28238E-07-5.25404E-19-1.01479E-18
 -1      2795 9.52540E-05-2.85034E-05-2.86076E-05-9.51552E-08-4.05306E-21-5.79335E-19
 -1      2796 9.52586E-05-2.84564E-05-2.86300E-05-1.66263E-07 6.16368E-19-1.42459E-18
 -1      2797 9.52505E-05-2.85155E-05-2.85999E-05-6.61457E-08-7.46353E-19-5.47183E-19
 -1      2798 9.52433E-05-2.85245E-05-2.85940E-05-4.33864E-08-9.81133E-19-1.16928E-18
 -1      2799 9.52515E-05-2.84920E-05-2.86116E-05-9.27155E-08-7.03826E-19-1.40035E-18
 -1      2800 9.52409E-05-2.85333E-05-2.85884E-05-2.36844E-08-6.08445E-19-1.43174E-18
 -1      2801 9.52368E-05-2.85402E-05-2.85844E-05-8.59234E-09-7.23542E-19-8.02224E-19
 -1      2802 9.52464E-05-2.85185E-05-2.85980E-05-4.16388E-08-7.72574E-19-2.73658E-18
 -1      2803 9.52351E-05-2.85465E-05-2.85804E-05 4.24213E-09-2.77520E-19-3.20052E-19
 -1      2804 9.52333E-05-2.85517E-05-2.85779E-05 1.37298E-08-4.68274E-20-1.59990E-19
 -1      2805 9.52428E-05-2.85378E-05-2.85881E-05-7.35274E-09-2.02234E-19-2.20569E-18
 -1      2806 9.52321E-05-2.85563E-05-2.85751E-05 2.15714E-08-1.09775E-19 5.66188E-19
 -1      2807 9.52318E-05-2.85603E-05-2.85735E-05 2.70080E-08 9.96428E-19 3.93857E-19
 -1      2808 9.52403E-05-2.85517E-05-2.85810E-05 1.45838E-08 7.63306E-19-4.39264E-19
 -1      2809 9.52312E-05-2.85636E-05-2.85717E-05 3.12510E-08 1.62231E-18 1.06910E-18
 -1      2810 9.52318E-05-2.85668E-05-2.85708E-05 3.37601E-08 1.60237E-18 1.41669E-18
 -1      2811 9.52389E-05-2.85617E-05-2.85761E-05 2.75466E-08 1.60210E-18 7.17606E-19
 -1      2812 9.52316E-05-2.85693E-05-2.85695E-05 3.54030E-08 7.66668E-19 1.58570E-18
 -1      2813 9.52329E-05-2.85720E-05-2.85690E-05 3.57521E-08 1.09117E-18 3.12258E-20
 -1      2814 9.52382E-05-2.85691E-05-2.85726E-05 3.40113E-08 1.21339E-18 1.20191E-18
 -1      2815 9.52330E-05-2.85741E-05-2.85680E-05 3.54468E-08 1.63835E-18-4.72491E-19
 -1      2816 9.52347E-05-2.85766E-05-2.85678E-05 3.40843E-08 1.47442E-19 4.23911E-19
 -1      2817 9.52382E-05-2.85749E-05-2.85701E-05 3.57264E-08 1.18112E-18 7.21157E-19
 -1      2818 1.05162E-04-3.35145E-05-3.07316E-05-7.05972E-06 3.41216E-19 2.04492E-19
 -1      2819 1.03947E-04-3.22588E-05-3.06816E-05-7.49544E-06 6.91704E-19 3.25568E-19
 -1      2820 1.04895E-04-3.44467E-05-3.02463E-05-8.11610E-06 1.61000E-19-9.01263E-20
 -1      2821 1.31037E-04-1.77464E-05-4.90170E-05 1.15467E-05-5.00978E-18-4.61442E-18
 -1      2822 1.29083E-04-1.23401E-05-5.06785E-05 6.36099E-06-5.91949E-18-3.82716E-18
 -1      2823 1.02780E-04-3.11010E-05-3.07302E-05-7.37433E-06 9.76616E-19 2.65059E-19
 -1      2824 1.01847E-04-3.01021E-05-3.07117E-05-7.17005E-06 1.21586E-18 2.92080E-19
 -1      2825 1.02016E-04-3.13456E-05-3.03283E-05-8.40184E-06 8.38291E-19-1.58158E-19
 -1      2826 1.11857E-04-3.94004E-05-3.11171E-05-1.66798E-06-5.34938E-19 1.28236E-18
 -1      2827 1.10510E-04-3.81402E-05-3.09593E-05-3.69569E-06-6.41562E-19 1.03168E-18
 -1      2828 1.08866E-04-3.81751E-05-3.03575E-05-6.17748E-06-6.43606E-19 2.79101E-19
 -1      2829 1.15076E-04-4.11030E-05-3.17692E-05 3.59299E-06 5.55998E-20 1.46526E-18
 -1      2830 1.14267E-04-4.07543E-05-3.14662E-05 9.73471E-07-2.57891E-19 1.55467E-18
 -1      2831 1.13601E-04-4.17507E-05-3.08419E-05-2.15663E-06-4.93719E-19 7.80912E-19
 -1      2832 1.16490E-04-3.96035E-05-3.29790E-05 9.36314E-06 7.01727E-19 1.55019E-18
 -1      2833 1.16798E-04-4.11069E-05-3.24687E-05 6.96795E-06 2.88262E-19 1.78392E-18
 -1      2834 1.17920E-04-4.33247E-05-3.19753E-05 3.93056E-06 1.79816E-19 1.59558E-18
 -1      2835 1.14867E-04-3.37214E-05-3.47332E-05 1.27230E-05 1.60825E-18 1.68982E-18
 -1      2836 1.16410E-04-3.72729E-05-3.40548E-05 1.20139E-05 1.11309E-18 1.67680E-18
 -1      2837 1.19711E-04-4.04081E-05-3.39741E-05 1.05117E-05 8.90165E-19 2.07714E-18
 -1      2838 1.10811E-04-2.53852E-05-3.66001E-05 1.01958E-05 2.70923E-18 1.22267E-18
 -1      2839 1.12799E-04-2.94485E-05-3.59648E-05 1.24220E-05 2.02396E-18 1.43264E-18
 -1      2840 1.17555E-04-3.22908E-05-3.65496E-05 1.37652E-05 1.96475E-18 1.71348E-18
 -1      2841 1.08054E-04-2.05385E-05-3.76167E-05 1.23476E-06 3.48231E-18-2.77152E-19
 -1      2842 1.08830E-04-2.20280E-05-3.73995E-05 5.75498E-06 3.25658E-18 2.25582E-19
 -1      2843 1.13191E-04-2.26772E-05-3.88904E-05 9.05767E-06 3.39832E-18 1.03994E-18
 -1      2844 1.09711E-04-2.34595E-05-3.71825E-05-9.03028E-06 3.17964E-18-1.77820E-18
 -1      2845 1.08497E-04-2.10765E-05-3.75030E-05-4.87858E-06 3.64335E-18-1.09376E-18
 -1      2846 1.11307E-04-1.87212E-05-3.98149E-05-2.14704E-06 3.99225E-18-9.11970E-19
 -1      2847 1.14137E-04-3.16160E-05-3.55775E-05-1.41206E-05 2.64658E-18-3.12858E-18
 -1      2848 1.11986E-04-2.73473E-05-3.62293E-05-1.25844E-05 2.83550E-18-2.58740E-18
 -1      2849 1.14186E-04-2.45030E-05-3.85354E-05-1.20587E-05 3.63515E-18-2.58418E-18
 -1      2850 1.17118E-04-3.86527E-05-3.37372E-05-1.21068E-05 1.09654E-18-2.62289E-18
 -1      2851 1.15852E-04-3.55970E-05-3.43593E-05-1.33283E-05 1.91225E-18-3.13894E-18
 -1      2852 1.18685E-04-3.50785E-05-3.58839E-05-1.44494E-05 2.11550E-18-3.66065E-18
 -1      2853 1.16858E-04-4.14670E-05-3.23114E-05-6.59677E-06-4.91995E-19-2.30624E-18
 -1      2854 1.16781E-04-4.04203E-05-3.27520E-05-9.19174E-06 4.63313E-19-2.20609E-18
 -1      2855 1.19708E-04-4.15034E-05-3.34702E-05-1.02180E-05 4.75913E-19-2.89908E-18
 -1      2856 1.13909E-04-4.03984E-05-3.14588E-05-7.52770E-07-8.84116E-19-2.08886E-18
 -1      2857 1.14837E-04-4.10166E-05-3.17079E-05-3.29286E-06-7.00043E-19-2.22892E-18
 -1      2858 1.17238E-04-4.33698E-05-3.16842E-05-3.44065E-06-6.75967E-19-2.63497E-18
 -1      2859 1.10124E-04-3.76141E-05-3.10230E-05 3.54367E-06-8.70187E-19-1.84783E-18
 -1      2860 1.11481E-04-3.89139E-05-3.11610E-05 1.66037E-06-9.03242E-19-2.05056E-18
 -1      2861 1.12617E-04-4.10693E-05-3.07159E-05 2.25763E-06-8.45917E-19-1.75759E-18
 -1      2862 1.06623E-04-3.46701E-05-3.07955E-05 6.06151E-06-8.23730E-19-1.33495E-18
 -1      2863 1.07990E-04-3.59963E-05-3.08950E-05 4.93620E-06-8.17787E-19-1.39862E-18
 -1      2864 1.07989E-04-3.74400E-05-3.02881E-05 5.88939E-06-9.79182E-19-1.20759E-18
 -1      2865 1.03806E-04-3.22663E-05-3.06325E-05 7.15139E-06 6.63795E-19-9.49126E-19
 -1      2866 1.05006E-04-3.33418E-05-3.07349E-05 6.65734E-06-6.27863E-20-1.20736E-18
 -1      2867 1.04234E-04-3.40380E-05-3.01265E-05 7.69727E-06-4.17470E-19-1.66089E-18
 -1      2868 1.01681E-04-3.05607E-05-3.04645E-05 7.26749E-06 3.55947E-19-2.20783E-19
 -1      2869 1.02675E-04-3.13316E-05-3.05835E-05 7.21600E-06 8.55173E-19-2.31930E-19
 -1      2870 1.01501E-04-3.14423E-05-3.00540E-05 8.21989E-06 2.68068E-19-7.40712E-19
 -1      2871 1.00112E-04-2.94594E-05-3.02719E-05 6.79867E-06-3.06396E-19-1.11648E-18
 -1      2872 1.00919E-04-2.99703E-05-3.04050E-05 7.01895E-06 9.03993E-20-1.64979E-19
 -1      2873 9.96257E-05-2.97061E-05-2.99834E-05 7.94202E-06 4.31717E-19 2.21758E-19
 -1      2874 9.89472E-05-2.88022E-05-3.00595E-05 6.02657E-06-9.32994E-20-1.13948E-18
 -1      2875 9.96004E-05-2.91215E-05-3.01982E-05 6.38898E-06 5.98089E-20-1.10043E-18
 -1      2876 9.83649E-05-2.86591E-05-2.98846E-05 7.21959E-06-9.42221E-20 4.78893E-20
 -1      2877 9.80697E-05-2.84421E-05-2.98403E-05 5.13875E-06-2.98626E-19-3.89624E-19
 -1      2878 9.85980E-05-2.86313E-05-2.99760E-05 5.55477E-06-2.23940E-19-7.68948E-19
 -1      2879 9.75123E-05-2.80955E-05-2.97567E-05 6.29089E-06-9.12235E-20 5.35959E-19
 -1      2880 9.73966E-05-2.82681E-05-2.96277E-05 4.25129E-06-1.16641E-18-4.98765E-19
 -1      2881 9.78233E-05-2.83734E-05-2.97535E-05 4.66576E-06-6.35436E-19-3.11508E-19
 -1      2882 9.69218E-05-2.78422E-05-2.96099E-05 5.30815E-06-4.77890E-19 1.01076E-18
 -1      2883 9.68735E-05-2.82042E-05-2.94313E-05 3.42985E-06-1.41147E-18-9.28060E-20
 -1      2884 9.72164E-05-2.82575E-05-2.95432E-05 3.81174E-06-1.01273E-18-1.21581E-19
 -1      2885 9.64992E-05-2.77737E-05-2.94571E-05 4.36295E-06-1.45307E-18 1.23331E-18
 -1      2886 9.64647E-05-2.82019E-05-2.92571E-05 2.70657E-06 2.50978E-19-5.58075E-19
 -1      2887 9.67378E-05-2.82239E-05-2.93533E-05 3.04105E-06-9.15133E-19-5.14421E-19
 -1      2888 9.61868E-05-2.78066E-05-2.93086E-05 3.50561E-06-9.71198E-19 3.70934E-19
 -1      2889 9.61455E-05-2.82312E-05-2.91075E-05 2.09231E-06 6.33689E-19-3.18147E-19
 -1      2890 9.63604E-05-2.82351E-05-2.91879E-05 2.37477E-06 6.33666E-19-8.09169E-19
 -1      2891 9.59503E-05-2.78889E-05-2.91716E-05 2.75920E-06 4.68416E-19-6.56309E-19
 -1      2892 9.58977E-05-2.82744E-05-2.89826E-05 1.58518E-06-5.37549E-19 1.71855E-19
 -1      2893 9.60645E-05-2.82684E-05-2.90481E-05 1.81701E-06 3.69030E-19-9.94349E-21
 -1      2894 9.57685E-05-2.79897E-05-2.90502E-05 2.12940E-06 3.14004E-19-3.24993E-19
 -1      2895 9.57073E-05-2.83214E-05-2.88806E-05 1.17628E-06-1.65370E-18 5.06671E-19
 -1      2896 9.58348E-05-2.83105E-05-2.89329E-05 1.36209E-06-1.04058E-18 1.03957E-19
 -1      2897 9.56281E-05-2.80918E-05-2.89461E-05 1.61143E-06-1.02641E-18 4.25768E-19
 -1      2898 9.55631E-05-2.83667E-05-2.87992E-05 8.53396E-07-3.25806E-21 4.03225E-19
 -1      2899 9.56588E-05-2.83538E-05-2.88401E-05 9.99222E-07-1.04543E-18 3.85997E-19
 -1      2900 9.55200E-05-2.81861E-05-2.88591E-05 1.19473E-06-1.27533E-18-1.04709E-18
 -1      2901 9.54556E-05-2.84075E-05-2.87354E-05 6.03364E-07 1.70754E-18 5.90256E-19
 -1      2902 9.55261E-05-2.83945E-05-2.87668E-05 7.15578E-07 7.62536E-19 6.21524E-19
 -1      2903 9.54375E-05-2.82686E-05-2.87881E-05 8.66141E-07 1.01268E-21-1.37433E-18
 -1      2904 9.53771E-05-2.84428E-05-2.86865E-05 4.13387E-07 2.61427E-18 6.99186E-19
 -1      2905 9.54278E-05-2.84306E-05-2.87100E-05 4.98085E-07 2.55237E-18 6.32870E-19
 -1      2906 9.53752E-05-2.83382E-05-2.87314E-05 6.11902E-07 2.05910E-18-7.23525E-19
 -1      2907 9.53210E-05-2.84723E-05-2.86497E-05 2.71807E-07 2.12527E-18 6.07903E-19
 -1      2908 9.53565E-05-2.84615E-05-2.86670E-05 3.34479E-07 2.65593E-18 1.22171E-18
 -1      2909 9.53291E-05-2.83952E-05-2.86870E-05 4.18831E-07 1.96835E-18 7.50573E-19
 -1      2910 9.52821E-05-2.84965E-05-2.86225E-05 1.68440E-07 1.53186E-18 6.00855E-19
 -1      2911 9.53061E-05-2.84872E-05-2.86350E-05 2.13835E-07 2.02423E-18 1.11905E-18
 -1      2912 9.52955E-05-2.84409E-05-2.86528E-05 2.74996E-07 1.93711E-18 1.39453E-18
 -1      2913 9.52560E-05-2.85158E-05-2.86030E-05 9.46722E-08 8.06928E-19 3.90679E-19
 -1      2914 9.52716E-05-2.85080E-05-2.86117E-05 1.26774E-07 1.18593E-18 3.96098E-19
 -1      2915 9.52717E-05-2.84767E-05-2.86271E-05 1.70010E-07 1.65970E-18 1.68402E-18
 -1      2916 9.52396E-05-2.85311E-05-2.85894E-05 4.34094E-08-4.67637E-19 6.41897E-19
 -1      2917 9.52489E-05-2.85247E-05-2.85952E-05 6.54701E-08 3.17926E-19 8.98912E-19
 -1      2918 9.52553E-05-2.85043E-05-2.86081E-05 9.51058E-08 4.93641E-20 8.07451E-19
 -1      2919 9.52300E-05-2.85429E-05-2.85802E-05 8.94964E-09 1.36806E-19 7.36077E-19
 -1      2920 9.52349E-05-2.85377E-05-2.85839E-05 2.35637E-08-5.61883E-19 1.51119E-19
 -1      2921 9.52445E-05-2.85252E-05-2.85944E-05 4.30745E-08 3.46049E-21 1.64691E-18
 -1      2922 9.52252E-05-2.85521E-05-2.85742E-05-1.31791E-08 1.68113E-19 1.35724E-18
 -1      2923 9.52271E-05-2.85479E-05-2.85764E-05-3.99578E-09 6.20812E-19 1.31277E-18
 -1      2924 9.52378E-05-2.85408E-05-2.85847E-05 8.12834E-09-1.66286E-19 1.94411E-18
 -1      2925 9.52238E-05-2.85591E-05-2.85706E-05-2.63859E-08-3.54864E-20 1.65608E-18
 -1      2926 9.52237E-05-2.85557E-05-2.85717E-05-2.11143E-08 3.99184E-19 1.54590E-18
 -1      2927 9.52340E-05-2.85523E-05-2.85781E-05-1.42646E-08 5.60125E-19 3.27077E-18
 -1      2928 9.52245E-05-2.85647E-05-2.85685E-05-3.31739E-08-4.67975E-19 9.52280E-19
 -1      2929 9.52232E-05-2.85618E-05-2.85690E-05-3.07167E-08-3.18501E-19 7.07106E-19
 -1      2930 9.52324E-05-2.85607E-05-2.85737E-05-2.75518E-08 2.74028E-19 3.59081E-18
 -1      2931 9.52267E-05-2.85693E-05-2.85674E-05-3.52948E-08-6.28931E-19 1.01569E-18
 -1      2932 9.52246E-05-2.85668E-05-2.85675E-05-3.49034E-08-7.74402E-19 2.86499E-19
 -1      2933 9.52322E-05-2.85672E-05-2.85708E-05-3.42610E-08-3.80038E-19 9.23364E-19
 -1      2934 9.52297E-05-2.85735E-05-2.85670E-05-3.38280E-08 3.12475E-19 1.28395E-18
 -1      2935 9.52273E-05-2.85712E-05-2.85669E-05-3.50860E-08 1.67092E-19 2.02974E-18
 -1      2936 9.52331E-05-2.85723E-05-2.85690E-05-3.61870E-08-4.97613E-19 9.62151E-19
 -1      2937 9.52338E-05-2.85778E-05-2.85669E-05-3.03419E-08-1.28718E-18 1.65971E-18
 -1      2938 9.52313E-05-2.85755E-05-2.85668E-05-3.29115E-08 4.22915E-20 1.65619E-18
 -1      2939 9.52358E-05-2.85771E-05-2.85680E-05-3.49289E-08-1.33142E-19 1.85117E-18
 -1      2940 9.52388E-05-2.85819E-05-2.85672E-05-3.19403E-08-1.15833E-18 4.75758E-19
 -1      2941 9.52572E-05-2.85953E-05-2.85694E-05-2.30518E-09-1.01595E-18-2.02293E-18
 -1      2942 9.52568E-05-2.85950E-05-2.85694E-05-6.74979E-09-1.15455E-18-1.74679E-18
 -1      2943 9.52540E-05-2.85930E-05-2.85690E-05-1.96629E-08 1.21186E-18-1.53390E-19
 -1      2944 9.52523E-05-2.85914E-05-2.85689E-05-2.30905E-08 1.00658E-18 2.02838E-18
 -1      2945 9.52568E-05-2.85950E-05-2.85694E-05 6.90144E-09-1.41805E-19 5.15536E-19
 -1      2946 9.52571E-05-2.85953E-05-2.85694E-05 2.45905E-09-2.04778E-19-8.99984E-19
 -1      2947 9.52585E-05-2.85905E-05-2.85720E-05 7.95161E-11-8.88761E-19-1.26403E-18
 -1      2948 9.52563E-05-2.85947E-05-2.85692E-05-1.13720E-08-9.21289E-19-2.68926E-18
 -1      2949 9.52553E-05-2.85937E-05-2.85692E-05-1.54965E-08 6.66200E-19-1.70893E-18
 -1      2950 9.52558E-05-2.85891E-05-2.85714E-05-1.83285E-08-2.69004E-19-1.62661E-18
 -1      2951 9.52579E-05-2.85901E-05-2.85719E-05-9.42010E-09-8.89646E-19-2.26684E-18
 -1      2952 8.83778E-05-4.70435E-05-1.72316E-05-3.78716E-05 4.60341E-18 4.28122E-19
 -1      2953 1.06913E-04-5.53126E-05-2.23301E-05-3.34871E-05 4.41389E-18-6.78870E-19
 -1      2954 1.28617E-04-1.01687E-05-5.15698E-05 2.51551E-06-6.69601E-18-3.09400E-18
 -1      2955 1.29714E-04-1.05017E-05-5.15993E-05-3.01901E-06-7.47761E-18-1.68665E-18
 -1      2956 1.23740E-04-1.25552E-05-4.79873E-05 5.15821E-06-5.55484E-18-3.19916E-18
 -1      2957 9.52553E-05-2.85937E-05-2.85692E-05 1.54939E-08 4.14776E-19-1.49982E-19
 -1      2958 9.52563E-05-2.85946E-05-2.85692E-05 1.14435E-08-1.51485E-19 9.82307E-19
 -1      2959 9.52579E-05-2.85901E-05-2.85719E-05 9.49711E-09-1.89829E-19 6.57236E-19
 -1      2960 9.52523E-05-2.85914E-05-2.85689E-05 2.31025E-08 7.63958E-19-4.04581E-19
 -1      2961 9.52541E-05-2.85930E-05-2.85690E-05 1.96573E-08 6.50174E-19-5.66680E-19
 -1      2962 9.52558E-05-2.85891E-05-2.85714E-05 1.83256E-08 2.30409E-19 1.37113E-19
 -1      2963 9.52477E-05-2.85880E-05-2.85684E-05 2.87292E-08-1.20852E-19-6.63445E-19
 -1      2964 9.52503E-05-2.85902E-05-2.85686E-05 2.64049E-08 3.75413E-19-1.32326E-18
 -1      2965 9.52520E-05-2.85872E-05-2.85706E-05 2.59607E-08 1.15743E-19-1.22200E-18
 -1      2966 6.21489E-05-3.29416E-05-1.19132E-05-3.65185E-05 2.99479E-18 1.55907E-18
 -1      2967 7.21070E-05-3.85066E-05-1.42400E-05-3.92263E-05 3.64034E-18 9.58206E-19
 -1      2968 1.37265E-04-3.25340E-05-4.56066E-05-1.13874E-05-5.57252E-18 1.49999E-18
 -1      2969 1.38931E-04-4.26220E-05-4.14478E-05-8.06642E-06-3.77798E-18 2.08974E-18
 -1      2970 3.60085E-05-1.49511E-05-8.63484E-06 1.59500E-05 9.81605E-19-7.52885E-18
 -1      2971 3.23102E-05-1.27107E-05-7.81702E-06 4.12674E-06 4.75199E-19-8.24777E-18
 -1      2972 2.91207E-05-1.31260E-05-6.46101E-06 6.05026E-06-1.94659E-19 4.60278E-18
 -1      2973 2.93201E-05-1.36743E-05-6.08912E-06-7.50681E-06 5.43689E-19 4.26693E-18
 -1      2974 1.21728E-04-5.91446E-05-2.64606E-05-2.52057E-05-2.19562E-18-9.56247E-19
 -1      2975 1.31930E-04-5.97094E-05-3.13577E-05-1.64443E-05-9.69641E-19 4.17905E-19
 -1      2976 1.25587E-04-5.97070E-05-2.87146E-05 2.04151E-05 1.53255E-18 2.15835E-19
 -1      2977 1.12590E-04-5.60101E-05-2.37711E-05 2.95571E-05 2.83634E-18-8.88193E-19
 -1      2978 1.01113E-04-2.92264E-05-3.08109E-05-6.49701E-06 1.41842E-18 3.68958E-20
 -1      2979 1.00477E-04-2.84144E-05-3.08477E-05-5.74813E-06 1.68988E-18 1.77561E-19
 -1      2980 1.00113E-04-2.89523E-05-3.05266E-05-7.43532E-06 1.34108E-18-3.01505E-19
 -1      2981 8.79908E-05-4.70699E-05-1.70193E-05-3.91833E-05-3.11369E-18-5.01359E-18
 -1      2982 1.05726E-04-5.51617E-05-2.19101E-05-3.56409E-05-2.61204E-18-3.33657E-18
 -1      2983 9.52361E-05-2.85796E-05-2.85671E-05 3.12157E-08 4.11151E-19 2.42263E-18
 -1      2984 9.52394E-05-2.85825E-05-2.85673E-05 3.16015E-08-4.36808E-19 8.37116E-19
 -1      2985 9.52348E-05-2.85780E-05-2.85672E-05 3.29707E-08 1.73973E-19 1.00301E-18
 -1      2986 1.31175E-04-1.56929E-05-5.02685E-05-8.38096E-06-7.60593E-18-1.77453E-19
 -1      2987 1.33524E-04-2.20210E-05-4.81685E-05-1.19611E-05-6.75403E-18 9.13631E-19
 -1      2988 4.89037E-05-2.46838E-05-1.01155E-05 3.17851E-05-2.30880E-18 2.98346E-18
 -1      2989 3.67090E-05-1.68897E-05-7.85381E-06 1.92302E-05-1.19395E-18 4.41156E-18
 -1      2990 8.66141E-05-1.22789E-05-3.18700E-05 5.75153E-07 2.73670E-18-3.90864E-18
 -1      2991 8.52046E-05-1.12164E-05-3.17410E-05 1.95543E-07 2.34209E-18-4.29421E-18
 -1      2992 8.51819E-05-1.20683E-05-3.13135E-05-5.65085E-07 2.03372E-18-4.16405E-18
 -1      2993 8.81729E-05-1.45050E-05-3.15522E-05-3.94156E-07 2.56696E-18-3.54978E-18
 -1      2994 8.51039E-05-1.11222E-05-3.17381E-05-1.70895E-07-7.30485E-19-5.02288E-18
 -1      2995 8.64983E-05-1.21674E-05-3.18679E-05-5.44562E-07-1.20852E-18-4.97226E-18
 -1      2996 1.26988E-04-1.03738E-05-5.07018E-05-2.01068E-06 7.56379E-18-1.17648E-18
 -1      2997 1.28748E-04-1.28808E-05-5.02685E-05-7.82858E-06 7.67751E-18-2.21610E-18
 -1      2998 1.39102E-04-5.27726E-05-3.76009E-05-2.94856E-07-2.23459E-18 1.84463E-18
 -1      2999 1.35034E-04-5.71013E-05-3.31681E-05 7.33988E-06-3.32414E-19 1.65288E-18
 -1      3000 1.37688E-04-5.58585E-05-3.50746E-05-5.27915E-06 1.48522E-19 1.62408E-18
 -1      3001 1.39649E-04-4.95272E-05-3.92106E-05 2.61093E-06 1.83534E-18 2.39488E-18
 -1      3002 9.56182E-05-4.97331E-05-1.98486E-05 3.73903E-05 3.38940E-18-2.40822E-18
 -1      3003 7.90143E-05-4.04462E-05-1.58958E-05 3.80602E-05 3.69963E-18-4.11330E-18
 -1      3004 6.00410E-05-3.04304E-05-1.25879E-05 3.61388E-05 2.78991E-18-5.82896E-18
 -1      3005 4.52784E-05-2.10224E-05-9.74980E-06 2.65345E-05 2.03807E-18-6.67102E-18
 -1      3006 1.36885E-04-3.65518E-05-4.32605E-05 1.23860E-05-2.82888E-18-5.39793E-18
 -1      3007 1.34336E-04-2.73403E-05-4.65900E-05 1.32663E-05-3.92335E-18-5.01507E-18
 -1      3008 1.00028E-04-2.76539E-05-3.10161E-05-4.59989E-06 2.06787E-18 8.34981E-20
 -1      3009 9.96614E-05-2.68740E-05-3.11535E-05-3.31066E-06 2.35377E-18 1.94392E-19
 -1      3010 9.80995E-05-2.50225E-05-3.13264E-05-2.54421E-06 2.61816E-18-8.47083E-19
 -1      3011 9.89116E-05-2.69884E-05-3.08425E-05-5.45294E-06 1.88472E-18-6.00250E-19
 -1      3012 9.63367E-05-2.07812E-05-3.23968E-05-2.75883E-06-2.96538E-18-2.97346E-18
 -1      3013 9.72179E-05-2.26794E-05-3.19466E-05-7.57325E-07-2.71762E-18-2.66916E-18
 -1      3014 9.57804E-05-2.16651E-05-3.17668E-05 3.04815E-07-2.33134E-18-2.96068E-18
 -1      3015 9.44372E-05-1.88757E-05-3.23974E-05-2.47786E-06-2.71946E-18-3.48392E-18
 -1      3016 1.30705E-04-1.85322E-05-4.87412E-05-1.13024E-05 6.69834E-18-3.13296E-18
 -1      3017 1.31902E-04-2.66916E-05-4.56185E-05-1.37257E-05 5.23572E-18-4.34083E-18
 -1      3018 1.23039E-04-1.73438E-05-4.56239E-05-1.07901E-05 6.04379E-18-3.32974E-18
 -1      3019 1.36938E-04-5.42245E-05-3.53629E-05-1.08990E-06 6.93945E-19-4.49139E-18
 -1      3020 1.38321E-04-4.73108E-05-3.96522E-05 6.29306E-06-1.54409E-18-5.34171E-18
 -1      3021 1.38532E-04-3.94054E-05-4.26525E-05 1.00747E-05 3.21767E-18 2.84942E-18
 -1      3022 1.35033E-04-2.97881E-05-4.58990E-05 1.20047E-05 4.91459E-18 2.59849E-18
 -1      3023 5.37644E-05-2.77819E-05-1.06000E-05-3.38720E-05-3.05885E-18-7.77153E-18
 -1      3024 7.00429E-05-3.79158E-05-1.36486E-05-4.03546E-05-2.92851E-18-6.72851E-18
 -1      3025 3.20349E-05-1.36063E-05-7.39203E-06-8.57520E-06-7.74718E-19-8.66726E-18
 -1      3026 3.95271E-05-1.87140E-05-8.53447E-06-2.40074E-05-1.80873E-18-8.53788E-18
 -1      3027 1.17094E-04-5.82144E-05-2.53010E-05 2.79684E-05-3.48671E-18-6.31503E-19
 -1      3028 1.02937E-04-5.33161E-05-2.09906E-05 3.39481E-05-3.60656E-18-7.01423E-19
 -1      3029 8.81680E-05-1.35815E-05-3.19970E-05-7.66790E-07-1.57196E-18-4.84630E-18
 -1      3030 8.99511E-05-1.50176E-05-3.21328E-05-1.27849E-06-1.96695E-18-4.62710E-18
 -1      3031 8.80409E-05-1.43725E-05-3.15504E-05 4.08100E-07-1.25332E-18-4.55459E-18
 -1      3032 8.25272E-05-9.95504E-06-3.10779E-05-5.93676E-09 9.12675E-19-4.58734E-18
 -1      3033 8.20923E-05-8.76063E-06-3.14484E-05 9.10556E-08 7.75708E-19-4.94865E-18
 -1      3034 8.23884E-05-8.96856E-06-3.14797E-05-3.61549E-08 3.33745E-19-5.02609E-18
 -1      3035 6.23194E-05-2.90362E-05-1.37281E-05 3.19126E-05-2.90209E-18 1.43869E-18
 -1      3036 9.59852E-05-4.89019E-05-1.98336E-05 3.49891E-05-3.48681E-18-8.93143E-19
 -1      3037 8.84401E-05-4.28638E-05-1.92242E-05 3.40562E-05-2.88383E-18-4.45010E-19
 -1      3038 1.05038E-04-5.13274E-05-2.29577E-05 2.89898E-05-3.73579E-18-1.17346E-18
 -1      3039 9.52388E-05-2.85793E-05-2.85684E-05 3.43783E-08 8.53799E-19 5.16398E-19
 -1      3040 9.62124E-05-2.11399E-05-3.21893E-05 1.71334E-06 3.46645E-18-1.12898E-18
 -1      3041 1.24498E-04-5.88963E-05-2.79581E-05 2.02840E-05-3.24747E-18-7.99864E-19
 -1      3042 1.19112E-04-5.69245E-05-2.66205E-05 2.16510E-05-3.43747E-18-7.17162E-19
 -1      3043 1.28616E-04-5.81703E-05-3.07128E-05 1.15780E-05-2.54602E-18-1.87493E-18
 -1      3044 3.99909E-05-1.30702E-05-1.08545E-05-3.22789E-06-1.25407E-19-7.95427E-18
 -1      3045 1.32173E-04-5.57758E-05-3.27201E-05-4.60947E-06 1.65981E-18-3.53033E-18
 -1      3046 1.33642E-04-4.15461E-05-3.95557E-05 1.18402E-05-1.42683E-18-6.18207E-18
 -1      3047 1.27729E-04-2.31495E-05-4.50993E-05 1.36268E-05-3.99609E-18-5.07627E-18
 -1      3048 1.14827E-04-5.62946E-05-2.48561E-05-2.73693E-05-2.57413E-18-1.52310E-18
 -1      3049 7.37082E-05-3.43793E-05-1.63571E-05 3.41672E-05 3.41121E-18-4.31674E-18
 -1      3050 9.52425E-05-2.85844E-05-2.85678E-05-3.09960E-08-6.69363E-19-6.91252E-19
 -1      3051 9.52411E-05-2.85818E-05-2.85683E-05-3.30407E-08-1.42601E-18 2.09913E-20
 -1      3052 9.52457E-05-2.85871E-05-2.85679E-05-3.02311E-08-1.16331E-18-1.25199E-18
 -1      3053 8.57679E-05-4.27890E-05-1.79759E-05-3.53158E-05 3.84722E-18 1.62154E-19
 -1      3054 1.06098E-04-5.15445E-05-2.30567E-05 2.98519E-05 3.36177E-18-1.75345E-18
 -1      3055 1.24812E-04-1.37363E-05-4.79721E-05-6.05526E-06-6.41860E-18-6.33104E-19
 -1      3056 1.32973E-04-5.71754E-05-3.24798E-05-7.77747E-06-7.32154E-19 1.16229E-18
 -1      3057 5.67530E-05-2.70808E-05-1.22627E-05-3.18774E-05 2.28212E-18 1.74319E-18
 -1      3058 9.52428E-05-2.85852E-05-2.85675E-05 3.08042E-08-2.39957E-19-3.11601E-19
 -1      3059 1.35597E-04-4.66657E-05-3.83168E-05-7.00860E-06-2.39446E-18 2.05151E-18
 -1      3060 1.28967E-04-5.71098E-05-3.06899E-05 1.11679E-05 1.17513E-18 8.52062E-19
 -1      3061 9.58426E-05-2.17267E-05-3.17567E-05-2.15409E-07 3.03551E-18-1.50487E-18
 -1      3062 8.30164E-05-9.48522E-06-3.15402E-05 8.19248E-08 1.98311E-20-4.93602E-18
 -1      3063 8.39008E-05-1.01220E-05-3.16299E-05-1.37784E-07-5.39752E-19-4.95215E-18
 -1      3064 8.50832E-05-1.19754E-05-3.13103E-05 5.68120E-07-5.49212E-19-4.66998E-18
 -1      3065 8.31743E-05-1.04618E-05-3.11391E-05 3.87837E-07 1.62805E-19-4.69315E-18
 -1      3066 1.33307E-04-3.29427E-05-4.35073E-05-1.39925E-05 4.33956E-18-4.46556E-18
 -1      3067 1.32308E-04-3.81806E-05-4.05248E-05-1.32305E-05 2.94116E-18-4.48467E-18
 -1      3068 1.26005E-04-2.82067E-05-4.22544E-05-1.53345E-05 4.67488E-18-4.58827E-18
 -1      3069 4.00786E-05-1.48239E-05-1.01989E-05 1.21812E-05-4.31034E-19 4.08609E-18
 -1      3070 3.77546E-05-1.54605E-05-8.96981E-06-1.38115E-05 9.70859E-19 3.68332E-18
 -1      3071 4.79857E-05-1.79633E-05-1.21946E-05 2.00632E-05 1.83536E-18-6.47525E-18
 -1      3072 1.30861E-04-2.79749E-05-4.43346E-05-1.32240E-05-5.20692E-18 1.53408E-18
 -1      3073 1.29623E-04-2.49587E-05-4.52614E-05 1.27673E-05 4.98331E-18 2.30605E-18
 -1      3074 8.38504E-05-4.18616E-05-1.74727E-05-3.66611E-05-3.23482E-18-5.46463E-18
 -1      3075 9.52506E-05-2.85906E-05-2.85685E-05-2.59315E-08 2.23184E-19 2.41454E-18
 -1      3076 9.52481E-05-2.85884E-05-2.85684E-05-2.82472E-08-9.71746E-19-7.62822E-19
 -1      3077 9.52478E-05-2.85855E-05-2.85696E-05-3.01937E-08-1.26414E-19-7.58629E-19
 -1      3078 9.52524E-05-2.85876E-05-2.85706E-05-2.53801E-08 9.32260E-19 2.98685E-18
 -1      3079 1.14389E-04-5.58221E-05-2.49166E-05-2.56983E-05 4.30155E-18-7.70774E-19
 -1      3080 1.39177E-04-5.29275E-05-3.72168E-05-8.62840E-07 4.41718E-19-3.58517E-18
 -1      3081 1.35392E-04-5.50573E-05-3.43088E-05 1.90533E-06-9.92061E-19-3.72578E-18
 -1      3082 1.36261E-04-4.87824E-05-3.79779E-05-7.05275E-06 1.12110E-18-4.04606E-18
 -1      3083 1.35312E-04-4.50455E-05-3.88973E-05 8.06360E-06 1.85659E-18 2.88542E-18
 -1      3084 5.31866E-05-2.28965E-05-1.23319E-05-2.71399E-05-2.32950E-18-7.71668E-18
 -1      3085 9.52422E-05-2.85815E-05-2.85689E-05 3.31265E-08 5.34547E-20-4.92398E-19
 -1      3086 9.52456E-05-2.85859E-05-2.85684E-05 3.08758E-08-1.86446E-19-2.80762E-19
 -1      3087 9.52473E-05-2.85837E-05-2.85701E-05 3.11389E-08-6.76724E-20-3.36694E-19
 -1      3088 9.52418E-05-2.85795E-05-2.85695E-05 3.40516E-08 5.99432E-19-5.04785E-19
 -1      3089 9.33756E-05-1.99438E-05-3.14784E-05-1.27119E-06 2.72208E-18-2.35941E-18
 -1      3090 9.13626E-05-1.81873E-05-3.13754E-05-1.47827E-06 2.55305E-18-2.98154E-18
 -1      3091 9.12885E-05-1.61242E-05-3.22429E-05-1.63956E-06-2.16013E-18-4.35903E-18
 -1      3092 9.30262E-05-1.76744E-05-3.23179E-05-2.06314E-06-2.54083E-18-3.90679E-18
 -1      3093 9.38334E-05-1.91770E-05-3.19750E-05-7.22897E-07-2.34243E-18-3.59070E-18
 -1      3094 9.11281E-05-1.69082E-05-3.17849E-05-6.93368E-08-1.91635E-18-4.19277E-18
 -1      3095 1.14857E-04-4.42002E-05-3.03387E-05-4.06856E-06-8.32071E-19 6.62236E-19
 -1      3096 1.12383E-04-4.22132E-05-2.99652E-05-6.39562E-06-1.13917E-18 4.81843E-19
 -1      3097 1.08950E-04-3.96052E-05-2.97490E-05-7.93351E-06-9.88676E-19-1.02397E-20
 -1      3098 1.06652E-04-3.72966E-05-2.96412E-05-9.16250E-06-7.37246E-19-6.69545E-20
 -1      3099 1.09467E-04-4.16926E-05-2.91535E-05-9.97976E-06-1.27361E-18 1.99341E-19
 -1      3100 9.56462E-05-2.43131E-05-3.05542E-05 5.71833E-06-1.10442E-18-2.68359E-18
 -1      3101 9.61560E-05-2.54433E-05-3.03030E-05 7.01706E-06-8.35707E-19-2.52924E-18
 -1      3102 9.66432E-05-2.65944E-05-2.99972E-05 8.28520E-06-6.86319E-19-2.15667E-18
 -1      3103 9.74608E-05-2.79174E-05-2.97952E-05 9.19697E-06-4.59222E-19-2.14772E-18
 -1      3104 9.44630E-05-2.47429E-05-2.98959E-05 7.90734E-06-6.46140E-19-2.75486E-18
 -1      3105 9.83313E-05-2.93714E-05-2.95179E-05 1.02146E-05-2.54543E-19-1.81673E-18
 -1      3106 9.96756E-05-3.11288E-05-2.93643E-05 1.06785E-05-1.33145E-19-1.84756E-18
 -1      3107 9.57475E-05-2.75514E-05-2.92637E-05 1.03494E-05-2.43555E-19-2.33085E-18
 -1      3108 1.01270E-04-3.31371E-05-2.91393E-05 1.13260E-05 2.38230E-19-1.51546E-18
 -1      3109 1.03353E-04-3.54748E-05-2.90724E-05 1.11694E-05 5.15602E-19-1.31154E-18
 -1      3110 9.81156E-05-3.13053E-05-2.86997E-05 1.22904E-05 2.46148E-19-1.89123E-18
 -1      3111 1.06017E-04-3.81884E-05-2.89784E-05 1.12398E-05 8.29589E-19-8.63466E-19
 -1      3112 1.08926E-04-4.10356E-05-2.91035E-05 1.01620E-05 1.03016E-18-5.45235E-19
 -1      3113 1.02163E-04-3.63754E-05-2.83041E-05 1.34062E-05 8.78072E-19-1.34596E-18
 -1      3114 1.12989E-04-4.41135E-05-2.93499E-05 8.77813E-06 1.38683E-18-1.38551E-19
 -1      3115 1.16174E-04-4.66739E-05-2.98282E-05 6.52606E-06 1.27207E-18 2.97800E-19
 -1      3116 1.09064E-04-4.32863E-05-2.83675E-05 1.29761E-05 1.47943E-18-5.59895E-19
 -1      3117 1.21928E-04-2.18762E-05-4.35566E-05-1.23186E-05-5.41614E-18 1.03785E-18
 -1      3118 1.19547E-04-1.56196E-05-4.48873E-05-6.88377E-06-5.58968E-18-3.37225E-20
 -1      3119 1.18273E-04-1.27849E-05-4.58321E-05-3.01766E-07-5.29491E-18-1.35557E-18
 -1      3120 1.19063E-04-1.44377E-05-4.52397E-05 6.47534E-06-4.63539E-18-2.33715E-18
 -1      3121 1.23146E-04-2.45218E-05-4.25334E-05 1.36584E-05-3.32789E-18-4.52189E-18
 -1      3122 1.26168E-04-3.30684E-05-4.04472E-05 1.57403E-05-2.42204E-18-4.90999E-18
 -1      3123 1.25479E-04-4.85801E-05-3.30738E-05 4.80260E-06-2.00002E-19-3.35118E-18
 -1      3124 1.23654E-04-4.95884E-05-3.16312E-05 9.72090E-07 6.27562E-19-3.17696E-18
 -1      3125 1.18651E-04-4.80491E-05-3.03323E-05-3.28034E-06 1.28940E-18-2.26918E-18
 -1      3126 1.15489E-04-4.60447E-05-2.96216E-05-6.12847E-06 2.28067E-18-2.03990E-18
 -1      3127 1.21186E-04-5.12227E-05-3.01872E-05-5.46481E-06 1.51657E-18-2.86831E-18
 -1      3128 1.11019E-04-4.30581E-05-2.91496E-05-8.11975E-06 2.18330E-18-1.29852E-18
 -1      3129 1.07947E-04-4.02952E-05-2.88834E-05-9.67749E-06 2.24002E-18-7.08061E-19
 -1      3130 1.11454E-04-4.54356E-05-2.84456E-05-1.08422E-05 2.68313E-18-1.43898E-18
 -1      3131 1.04763E-04-3.75055E-05-2.88203E-05-1.01802E-05 1.73945E-18-4.99315E-19
 -1      3132 1.02388E-04-3.51011E-05-2.87721E-05-1.07770E-05 1.37755E-18-5.05955E-19
 -1      3133 1.03865E-04-3.88201E-05-2.79917E-05-1.25797E-05 2.33473E-18-1.19498E-18
 -1      3134 1.00424E-04-3.30346E-05-2.88659E-05-1.05274E-05 1.10881E-18-6.57530E-20
 -1      3135 9.88013E-05-3.12992E-05-2.88963E-05-1.05356E-05 9.69883E-19-3.06130E-19
 -1      3136 9.88466E-05-3.34651E-05-2.80974E-05-1.23170E-05 1.45709E-18-1.82268E-18
 -1      3137 9.77316E-05-2.99718E-05-2.90231E-05-9.97541E-06 3.04374E-20-2.64345E-19
 -1      3138 9.67064E-05-2.88619E-05-2.90623E-05-9.66305E-06-4.02136E-19-7.71002E-19
 -1      3139 9.59343E-05-2.98200E-05-2.83772E-05-1.12061E-05 3.97670E-19-1.03485E-18
 -1      3140 9.62047E-05-2.81076E-05-2.91696E-05-9.00389E-06-7.30637E-19-4.43008E-19
 -1      3141 9.55885E-05-2.74723E-05-2.91896E-05-8.53223E-06-3.84278E-19-8.68744E-19
 -1      3142 9.44455E-05-2.76266E-05-2.86574E-05-9.83455E-06-5.42004E-19-4.38397E-19
 -1      3143 9.54176E-05-2.71131E-05-2.92611E-05-7.86823E-06-4.41537E-19-9.01196E-19
 -1      3144 9.50573E-05-2.67996E-05-2.92561E-05-7.33334E-06-5.56657E-19-1.04520E-18
 -1      3145 9.38211E-05-2.64728E-05-2.88720E-05-8.44366E-06-2.39183E-19-4.95040E-19
 -1      3146 9.50629E-05-2.66903E-05-2.92924E-05-6.70561E-06-1.04491E-19-9.63870E-19
 -1      3147 9.48539E-05-2.65789E-05-2.92662E-05-6.16543E-06 2.90684E-19-5.91321E-19
 -1      3148 9.36801E-05-2.59999E-05-2.90079E-05-7.12687E-06-4.28906E-19 3.67717E-19
 -1      3149 9.49423E-05-2.66150E-05-2.92744E-05-5.59334E-06 4.72204E-19-7.62318E-19
 -1      3150 9.48194E-05-2.66215E-05-2.92340E-05-5.08271E-06 1.49340E-18-8.31277E-19
 -1      3151 9.37845E-05-2.59423E-05-2.90743E-05-5.92146E-06-3.56639E-20 5.99832E-19
 -1      3152 9.49372E-05-2.67335E-05-2.92225E-05-4.57536E-06 1.30618E-18-1.99141E-18
 -1      3153 9.48621E-05-2.68024E-05-2.91748E-05-4.11394E-06 1.06309E-18-2.10720E-18
 -1      3154 9.39939E-05-2.61172E-05-2.90880E-05-4.84383E-06 6.47701E-19-8.66667E-19
 -1      3155 9.49810E-05-2.69461E-05-2.91511E-05-3.67443E-06 1.16914E-18-2.63762E-18
 -1      3156 9.49323E-05-2.70427E-05-2.91014E-05-3.27150E-06 1.17206E-18-1.80265E-18
 -1      3157 9.42304E-05-2.64053E-05-2.90657E-05-3.90040E-06 9.44019E-19-2.23541E-18
 -1      3158 9.50389E-05-2.71920E-05-2.90714E-05-2.89877E-06 6.29374E-19-1.93653E-18
 -1      3159 9.50051E-05-2.72957E-05-2.90234E-05-2.55657E-06-1.30569E-19-1.65527E-18
 -1      3160 9.44545E-05-2.67330E-05-2.90216E-05-3.09084E-06 1.14107E-18-2.13863E-18
 -1      3161 9.50945E-05-2.74363E-05-2.89913E-05-2.24667E-06-4.68812E-19-1.44851E-18
 -1      3162 9.50696E-05-2.75355E-05-2.89474E-05-1.96286E-06-4.54718E-20-1.45537E-18
 -1      3163 9.46489E-05-2.70568E-05-2.89665E-05-2.40943E-06 1.82296E-20-2.88888E-18
 -1      3164 9.51412E-05-2.76602E-05-2.89161E-05-1.70998E-06-1.18071E-19-1.91189E-18
 -1      3165 9.51220E-05-2.77494E-05-2.88775E-05-1.47949E-06-1.66225E-19-2.00329E-18
 -1      3166 9.48084E-05-2.73537E-05-2.89081E-05-1.84646E-06-3.07868E-19-2.87223E-18
 -1      3167 9.51775E-05-2.78557E-05-2.88486E-05-1.27681E-06-5.47572E-19-2.50400E-18
 -1      3168 9.51624E-05-2.79323E-05-2.88156E-05-1.09323E-06-4.63683E-19-2.88925E-18
 -1      3169 9.49345E-05-2.76131E-05-2.88513E-05-1.38964E-06-4.24402E-19-3.30291E-18
 -1      3170 9.52040E-05-2.80203E-05-2.87900E-05-9.33588E-07 6.63686E-20-2.55570E-18
 -1      3171 9.51921E-05-2.80842E-05-2.87627E-05-7.90035E-07-4.81774E-19-1.76582E-18
 -1      3172 9.50309E-05-2.78321E-05-2.87991E-05-1.02541E-06-4.09801E-19-3.09083E-18
 -1      3173 9.52225E-05-2.81552E-05-2.87407E-05-6.66465E-07-1.53103E-18-2.03040E-18
 -1      3174 9.52131E-05-2.82072E-05-2.87185E-05-5.56225E-07-1.91036E-18-2.34710E-18
 -1      3175 9.51027E-05-2.80119E-05-2.87530E-05-7.39959E-07-8.31784E-19-2.36292E-18
 -1      3176 9.52347E-05-2.82633E-05-2.87002E-05-4.62249E-07-2.21403E-18-1.05121E-18
 -1      3177 9.52274E-05-2.83046E-05-2.86824E-05-3.79129E-07-1.69758E-18-8.17826E-19
 -1      3178 9.51548E-05-2.81562E-05-2.87136E-05-5.20102E-07-1.82255E-18-1.11702E-19
 -1      3179 9.52422E-05-2.83481E-05-2.86675E-05-3.08962E-07-1.36110E-18-8.78974E-19
 -1      3180 9.52366E-05-2.83803E-05-2.86536E-05-2.47487E-07-1.59868E-19-6.54904E-19
 -1      3181 9.51914E-05-2.82698E-05-2.86807E-05-3.53742E-07-1.38932E-18 5.86379E-19
 -1      3182 9.52464E-05-2.84133E-05-2.86416E-05-1.96124E-07 3.52733E-19-7.12426E-19
 -1      3183 9.52421E-05-2.84380E-05-2.86310E-05-1.51601E-07 3.64053E-19-7.17259E-19
 -1      3184 9.52162E-05-2.83573E-05-2.86539E-05-2.30196E-07 8.42324E-20 1.01126E-19
 -1      3185 9.52482E-05-2.84626E-05-2.86216E-05-1.14826E-07-9.23854E-19-1.19929E-18
 -1      3186 9.52450E-05-2.84811E-05-2.86135E-05-8.33428E-08-1.50785E-18-1.97154E-18
 -1      3187 9.52323E-05-2.84236E-05-2.86324E-05-1.40293E-07-6.55343E-19-7.82344E-19
 -1      3188 9.52484E-05-2.84991E-05-2.86063E-05-5.76873E-08-5.48177E-19-2.05057E-18
 -1      3189 9.52461E-05-2.85128E-05-2.86003E-05-3.60617E-08-3.91141E-19-2.02589E-18
 -1      3190 9.52421E-05-2.84727E-05-2.86156E-05-7.63670E-08-6.95338E-19-1.49868E-18
 -1      3191 9.52477E-05-2.85256E-05-2.85948E-05-1.87359E-08-7.56185E-21-9.68435E-19
 -1      3192 9.52461E-05-2.85355E-05-2.85905E-05-4.44022E-09 1.11951E-18-5.05117E-19
 -1      3193 9.52474E-05-2.85085E-05-2.86025E-05-3.21530E-08 3.77138E-19 1.53119E-19
 -1      3194 9.52465E-05-2.85445E-05-2.85863E-05 6.74545E-09 1.27771E-18-4.92742E-20
 -1      3195 9.52455E-05-2.85517E-05-2.85832E-05 1.56670E-08 1.35912E-18 9.90732E-19
 -1      3196 9.52496E-05-2.85340E-05-2.85925E-05-2.65277E-09 1.68137E-18 8.01971E-19
 -1      3197 9.52451E-05-2.85579E-05-2.85800E-05 2.23851E-08 1.50329E-18 7.04603E-19
 -1      3198 9.52445E-05-2.85631E-05-2.85778E-05 2.73992E-08 1.95163E-18 1.01399E-18
 -1      3199 9.52498E-05-2.85519E-05-2.85849E-05 1.60245E-08 1.95246E-18 1.75151E-18
 -1      3200 9.52438E-05-2.85674E-05-2.85754E-05 3.08885E-08 1.80592E-18 4.70628E-19
 -1      3201 9.52436E-05-2.85713E-05-2.85739E-05 3.30414E-08 8.45351E-19 7.49367E-19
 -1      3202 9.52489E-05-2.85645E-05-2.85791E-05 2.68080E-08 1.61633E-18 5.91080E-19
 -1      3203 9.52425E-05-2.85741E-05-2.85721E-05 3.42739E-08-1.46898E-19 5.75608E-19
 -1      3204 9.52426E-05-2.85772E-05-2.85709E-05 3.43102E-08 6.62961E-19 4.52122E-19
 -1      3205 9.52457E-05-2.85793E-05-2.85714E-05 3.32325E-08-7.44300E-19-4.28757E-19
 -1      3206 9.52473E-05-2.85731E-05-2.85747E-05 3.19081E-08 5.59748E-19-2.34464E-19
 -1      3207 1.04230E-04-3.49873E-05-2.96823E-05-9.50318E-06-2.96971E-19-4.13550E-19
 -1      3208 1.02468E-04-3.30105E-05-2.97107E-05-9.85033E-06 1.55015E-19-5.63175E-19
 -1      3209 1.03634E-04-3.60854E-05-2.90400E-05-1.12893E-05-5.86742E-19-4.75639E-19
 -1      3210 1.20648E-04-4.64113E-05-3.18879E-05 2.44845E-06-2.63828E-19 1.96377E-18
 -1      3211 1.18828E-04-4.61936E-05-3.10566E-05-9.01872E-07-6.68623E-19 1.57652E-18
 -1      3212 1.16942E-04-4.70318E-05-3.00440E-05-5.86302E-06-1.20794E-18 1.16647E-18
 -1      3213 1.22686E-04-2.99103E-05-3.99647E-05 1.39757E-05 3.05059E-18 2.69605E-18
 -1      3214 1.25431E-04-3.71747E-05-3.81015E-05 1.35359E-05 2.06237E-18 2.51561E-18
 -1      3215 1.17327E-04-1.60562E-05-4.37931E-05 6.95916E-06 5.36182E-18 5.37707E-19
 -1      3216 1.19502E-04-2.11966E-05-4.26358E-05 1.12282E-05 4.53041E-18 1.55383E-18
 -1      3217 1.15634E-04-1.63498E-05-4.30650E-05-6.68090E-06 4.94905E-18-1.93243E-18
 -1      3218 1.14698E-04-1.45685E-05-4.33137E-05-5.81513E-07 5.33175E-18-1.09500E-18
 -1      3219 1.20290E-04-2.67381E-05-4.05124E-05-1.44905E-05 4.48933E-18-3.87970E-18
 -1      3220 1.17617E-04-2.04758E-05-4.19143E-05-1.14503E-05 4.78701E-18-2.97676E-18
 -1      3221 1.23047E-04-4.66443E-05-3.27151E-05-6.39132E-06-8.65345E-19-3.00657E-18
 -1      3222 1.23130E-04-4.40066E-05-3.38873E-05-9.70453E-06 9.55691E-20-3.53275E-18
 -1      3223 1.17201E-04-4.53178E-05-3.06984E-05 1.34912E-06-1.27419E-18-1.98794E-18
 -1      3224 1.19247E-04-4.62236E-05-3.13922E-05-1.62190E-06-9.97586E-19-2.34162E-18
 -1      3225 1.22807E-04-4.94052E-05-3.17131E-05-8.24956E-07-1.24325E-18-2.82151E-18
 -1      3226 1.10769E-04-4.10453E-05-2.97877E-05 6.23854E-06-9.07768E-19-1.35422E-18
 -1      3227 1.13306E-04-4.31815E-05-3.01028E-05 4.16857E-06-8.99387E-19-1.62472E-18
 -1      3228 1.14725E-04-4.59069E-05-2.96887E-05 5.82189E-06-1.18930E-18-1.49799E-18
 -1      3229 1.05406E-04-3.64256E-05-2.94923E-05 8.62858E-06-1.09883E-18-9.15885E-19
 -1      3230 1.07604E-04-3.85746E-05-2.96018E-05 7.51150E-06-1.03417E-18-9.97466E-19
 -1      3231 1.07542E-04-4.03202E-05-2.89230E-05 9.38654E-06-1.23382E-18-1.47737E-18
 -1      3232 1.01536E-04-3.26868E-05-2.94650E-05 9.36642E-06-4.44298E-19-8.40381E-19
 -1      3233 1.03195E-04-3.43877E-05-2.94921E-05 8.96394E-06-8.79478E-19-8.33638E-19
 -1      3234 1.02250E-04-3.52608E-05-2.87865E-05 1.06059E-05-1.31826E-18-4.23526E-19
 -1      3235 9.90191E-05-3.01105E-05-2.95107E-05 9.11253E-06 1.35470E-19-2.33007E-19
 -1      3236 1.00176E-04-3.12755E-05-2.95227E-05 9.16412E-06-2.02268E-19-6.66447E-19
 -1      3237 9.87561E-05-3.14436E-05-2.88956E-05 1.04319E-05-5.64887E-19-5.82335E-21
 -1      3238 9.74788E-05-2.85266E-05-2.95422E-05 8.34361E-06-1.66627E-20 3.74933E-19
 -1      3239 9.82563E-05-2.92465E-05-2.95663E-05 8.65845E-06 5.38276E-19 5.28885E-19
 -1      3240 9.67040E-05-2.89742E-05-2.90532E-05 9.60439E-06-4.01224E-21 8.95096E-20
 -1      3241 9.65729E-05-2.76636E-05-2.95314E-05 7.33722E-06-5.85573E-19 7.04741E-19
 -1      3242 9.70923E-05-2.80634E-05-2.95739E-05 7.78569E-06-4.99694E-19 3.20357E-19
 -1      3243 9.55989E-05-2.75487E-05-2.91776E-05 8.50323E-06-5.46072E-19 7.01754E-19
 -1      3244 9.60534E-05-2.72767E-05-2.94785E-05 6.25980E-06-7.13210E-19 1.90346E-18
 -1      3245 9.64061E-05-2.74658E-05-2.95361E-05 6.75688E-06-2.17588E-19 1.43119E-18
 -1      3246 9.50699E-05-2.68469E-05-2.92441E-05 7.32067E-06-1.14736E-18 2.19626E-18
 -1      3247 9.57574E-05-2.71795E-05-2.93951E-05 5.21014E-06-8.09657E-19 1.41538E-18
 -1      3248 9.60046E-05-2.72399E-05-2.94614E-05 5.70266E-06-3.64783E-19 1.71007E-18
 -1      3249 9.48661E-05-2.66069E-05-2.92558E-05 6.16182E-06-3.75227E-19 3.36535E-18
 -1      3250 9.55864E-05-2.72440E-05-2.92946E-05 4.24395E-06-1.15279E-18 6.62600E-19
 -1      3251 9.57659E-05-2.72316E-05-2.93633E-05 4.70079E-06-1.19793E-18 7.20267E-19
 -1      3252 9.48304E-05-2.66374E-05-2.92257E-05 5.08413E-06-1.62219E-19 1.04327E-18
 -1      3253 9.54839E-05-2.73886E-05-2.91885E-05 3.38937E-06-3.46730E-19 3.74103E-19
 -1      3254 9.56182E-05-2.73389E-05-2.92548E-05 3.79443E-06-8.05998E-19 6.67966E-19
 -1      3255 9.48718E-05-2.68110E-05-2.91685E-05 4.11782E-06-5.35250E-19 8.85056E-19
 -1      3256 9.54186E-05-2.75634E-05-2.90851E-05 2.65655E-06 2.21912E-19 7.69205E-19
 -1      3257 9.55213E-05-2.74981E-05-2.91458E-05 3.00370E-06-4.84050E-20 6.15564E-19
 -1      3258 9.49408E-05-2.70471E-05-2.90968E-05 3.27624E-06-2.42267E-19 6.65204E-19
 -1      3259 9.53741E-05-2.77399E-05-2.89897E-05 2.04398E-06 3.38239E-20 9.36049E-19
 -1      3260 9.54535E-05-2.76717E-05-2.90433E-05 2.33351E-06 5.13391E-19 8.56354E-19
 -1      3261 9.50125E-05-2.72980E-05-2.90202E-05 2.56124E-06 3.10922E-19 2.05658E-18
 -1      3262 9.53418E-05-2.79031E-05-2.89053E-05 1.54318E-06-1.14996E-18 4.93749E-19
 -1      3263 9.54032E-05-2.78387E-05-2.89510E-05 1.77910E-06-4.28824E-19 9.54765E-19
 -1      3264 9.50761E-05-2.75368E-05-2.89453E-05 1.96698E-06-5.68939E-20 1.24589E-18
 -1      3265 9.53172E-05-2.80460E-05-2.88329E-05 1.14186E-06-8.11842E-19-1.09845E-18
 -1      3266 9.53644E-05-2.79888E-05-2.88710E-05 1.33017E-06-8.13800E-19 1.81739E-19
 -1      3267 9.51276E-05-2.77502E-05-2.88761E-05 1.48288E-06-4.86890E-19 1.12419E-18
 -1      3268 9.52979E-05-2.81666E-05-2.87724E-05 8.26259E-07 1.10348E-18-1.37712E-18
 -1      3269 9.53339E-05-2.81178E-05-2.88034E-05 9.73699E-07-4.02839E-19-1.46670E-18
 -1      3270 9.51672E-05-2.79330E-05-2.88148E-05 1.09586E-06-3.13185E-19-4.62817E-19
 -1      3271 9.52828E-05-2.82656E-05-2.87231E-05 5.82542E-07 1.55385E-18-5.04533E-19
 -1      3272 9.53098E-05-2.82251E-05-2.87477E-05 6.95861E-07 1.87869E-18-1.07816E-18
 -1      3273 9.51961E-05-2.80848E-05-2.87622E-05 7.91986E-07 1.35815E-18-5.24634E-19
 -1      3274 9.52709E-05-2.83450E-05-2.86836E-05 3.97746E-07 1.60498E-18-5.71835E-19
 -1      3275 9.52908E-05-2.83122E-05-2.87029E-05 4.83230E-07 1.77167E-18-1.03232E-18
 -1      3276 9.52165E-05-2.82078E-05-2.87183E-05 5.57593E-07 1.52477E-18-3.24297E-19
 -1      3277 9.52616E-05-2.84072E-05-2.86527E-05 2.60257E-07 1.50264E-18 2.59077E-19
 -1      3278 9.52760E-05-2.83813E-05-2.86674E-05 3.23502E-07 9.40998E-19-1.80575E-19
 -1      3279 9.52301E-05-2.83052E-05-2.86824E-05 3.80027E-07 1.13972E-18-1.27331E-18
 -1      3280 9.52545E-05-2.84552E-05-2.86288E-05 1.60029E-07 6.92547E-19 1.93534E-18
 -1      3281 9.52646E-05-2.84350E-05-2.86400E-05 2.05845E-07 1.90890E-18 1.98737E-18
 -1      3282 9.52388E-05-2.83809E-05-2.86537E-05 2.48020E-07 4.68342E-19 1.41821E-20
 -1      3283 9.52492E-05-2.84914E-05-2.86109E-05 8.86172E-08 5.13804E-19 1.90910E-18
 -1      3284 9.52560E-05-2.84760E-05-2.86190E-05 1.21021E-07 7.63282E-19 2.24927E-18
 -1      3285 9.52438E-05-2.84385E-05-2.86311E-05 1.51862E-07 4.99081E-19 1.94585E-18
 -1      3286 9.52452E-05-2.85183E-05-2.85975E-05 3.90949E-08-4.97204E-20 1.38625E-18
 -1      3287 9.52497E-05-2.85067E-05-2.86034E-05 6.13614E-08-1.41870E-19 1.70086E-18
 -1      3288 9.52463E-05-2.84816E-05-2.86137E-05 8.34095E-08-3.55412E-20 2.16113E-18
 -1      3289 9.52424E-05-2.85378E-05-2.85879E-05 5.91655E-09-1.03711E-18 2.94999E-18
 -1      3290 9.52451E-05-2.85293E-05-2.85920E-05 2.06500E-08-6.91721E-19 2.19849E-18
 -1      3291 9.52471E-05-2.85132E-05-2.86004E-05 3.59959E-08-6.67558E-19 2.93705E-18
 -1      3292 9.52405E-05-2.85519E-05-2.85809E-05-1.52514E-08 9.10210E-20 4.05221E-18
 -1      3293 9.52419E-05-2.85456E-05-2.85838E-05-6.03254E-09-1.77656E-19 2.95099E-18
 -1      3294 9.52468E-05-2.85359E-05-2.85906E-05 4.29160E-09-1.04624E-18 2.67716E-18
 -1      3295 9.52393E-05-2.85620E-05-2.85761E-05-2.76968E-08 1.02517E-18 2.47807E-18
 -1      3296 9.52398E-05-2.85573E-05-2.85780E-05-2.24780E-08 1.46300E-18 3.22699E-18
 -1      3297 9.52459E-05-2.85520E-05-2.85832E-05-1.58638E-08 7.49372E-19 2.39659E-18
 -1      3298 9.52388E-05-2.85694E-05-2.85726E-05-3.38119E-08 1.75222E-20 1.36022E-18
 -1      3299 9.52386E-05-2.85658E-05-2.85739E-05-3.15000E-08 1.86430E-19 1.53473E-18
 -1      3300 9.52448E-05-2.85634E-05-2.85778E-05-2.76025E-08 1.25398E-18 2.62150E-18
 -1      3301 9.52388E-05-2.85752E-05-2.85701E-05-3.52723E-08-4.89051E-19 3.63523E-19
 -1      3302 9.52382E-05-2.85723E-05-2.85710E-05-3.51356E-08-4.87908E-19 9.84888E-19
 -1      3303 9.52437E-05-2.85717E-05-2.85738E-05-3.32473E-08 3.12451E-19 1.31773E-18
 -1      3304 9.52407E-05-2.85796E-05-2.85691E-05-3.38453E-08-1.10772E-18 1.20968E-18
 -1      3305 9.52392E-05-2.85771E-05-2.85695E-05-3.50023E-08-4.69384E-19 1.10825E-19
 -1      3306 9.52439E-05-2.85774E-05-2.85714E-05-3.42681E-08-5.94407E-19 1.72449E-18
 -1      3307 9.52449E-05-2.85819E-05-2.85698E-05-3.30060E-08-7.57221E-19 2.49105E-20
 -1      3308 1.07322E-04-5.14770E-05-2.35313E-05-2.71339E-05 4.17391E-18-5.27132E-19
 -1      3309 1.18900E-04-5.61542E-05-2.72404E-05-1.91464E-05 3.62991E-18-6.34573E-19
 -1      3310 9.52600E-05-2.85855E-05-2.85748E-05 2.42827E-09-2.33973E-19-3.91086E-19
 -1      3311 9.52600E-05-2.85855E-05-2.85748E-05-2.27549E-09-7.14561E-19-1.22252E-18
 -1      3312 8.20627E-05-3.81625E-05-1.85478E-05-3.28277E-05 3.40311E-18 1.98523E-20
 -1      3313 9.57887E-05-4.64610E-05-2.11706E-05-3.19678E-05 3.94431E-18-2.25628E-19
 -1      3314 1.03540E-04-4.76451E-05-2.36694E-05-2.56608E-05 3.73698E-18-5.75241E-19
 -1      3315 9.52519E-05-2.85831E-05-2.85724E-05 2.77378E-08-8.41527E-19-1.28885E-18
 -1      3316 9.52545E-05-2.85843E-05-2.85730E-05 2.43914E-08-7.34466E-19-6.22207E-19
 -1      3317 1.11456E-04-5.28986E-05-2.55599E-05 2.44822E-05 2.72639E-18-9.22022E-19
 -1      3318 9.89877E-05-4.58120E-05-2.22701E-05 2.99011E-05 3.47858E-18-2.08722E-18
 -1      3319 1.29999E-04-5.50730E-05-3.25198E-05 3.95761E-06 3.35531E-19 1.30733E-18
 -1      3320 1.23738E-04-5.56195E-05-2.88064E-05 1.37910E-05 1.90948E-18 4.48425E-19
 -1      3321 4.52268E-05-1.20938E-05-1.39558E-05 2.02684E-06 3.83746E-19-6.92915E-18
 -1      3322 4.61498E-05-1.32038E-05-1.37620E-05-1.04996E-05-5.10509E-19-7.28565E-18
 -1      3323 1.27666E-04-5.58502E-05-3.04585E-05-7.71583E-06 2.05943E-18-2.82586E-18
 -1      3324 1.30112E-04-5.20435E-05-3.37582E-05 2.17528E-06 4.49179E-19-5.01402E-18
 -1      3325 9.88643E-05-2.84380E-05-3.01809E-05-8.30735E-06 1.09001E-18-8.62123E-19
 -1      3326 9.80998E-05-2.72676E-05-3.03309E-05-7.47811E-06 1.30872E-18-9.06557E-19
 -1      3327 8.30539E-05-3.76906E-05-1.96196E-05 3.27438E-05 3.36727E-18-3.05138E-18
 -1      3328 6.82490E-05-2.77243E-05-1.68712E-05 2.96250E-05 2.89556E-18-4.48361E-18
 -1      3329 9.52564E-05-2.85845E-05-2.85737E-05 2.03304E-08-6.00754E-19-1.22119E-18
 -1      3330 9.52580E-05-2.85852E-05-2.85740E-05 1.61919E-08-2.11519E-20 3.92078E-19
 -1      3331 9.52566E-05-2.85802E-05-2.85756E-05 2.23832E-08-1.25225E-18-1.14436E-18
 -1      3332 1.00951E-04-3.12525E-05-2.98690E-05-9.46406E-06 6.04325E-19-7.48203E-19
 -1      3333 9.97465E-05-2.97347E-05-2.99669E-05-9.15474E-06 9.07551E-19-7.15191E-19
 -1      3334 9.74526E-05-2.81637E-05-2.97297E-05-9.38476E-06 8.85996E-19-1.37490E-18
 -1      3335 5.22746E-05-2.09777E-05-1.28583E-05-2.51363E-05 2.01366E-18 2.43924E-18
 -1      3336 6.46295E-05-2.76887E-05-1.55850E-05-3.00976E-05 2.44581E-18 4.39504E-19
 -1      3337 5.62151E-05-2.05558E-05-1.51823E-05 2.43005E-05 2.19556E-18-5.40089E-18
 -1      3338 4.84309E-05-1.46306E-05-1.41239E-05 1.36912E-05 1.44161E-18-5.94575E-18
 -1      3339 4.74705E-05-1.59254E-05-1.32203E-05 1.66942E-05-7.97137E-19 3.51180E-18
 -1      3340 4.12519E-05-1.21174E-05-1.19625E-05 4.20032E-06 1.82046E-19 3.49666E-18
 -1      3341 9.48402E-05-2.19641E-05-3.12172E-05 2.57712E-06-1.68977E-18-3.13126E-18
 -1      3342 9.52642E-05-2.31868E-05-3.08955E-05 4.23340E-06-1.39901E-18-3.01095E-18
 -1      3343 9.36375E-05-2.23004E-05-3.05802E-05 5.06482E-06-1.12277E-18-3.25806E-18
 -1      3344 1.32195E-04-4.35639E-05-3.82719E-05-9.96524E-06-2.50542E-18 1.91043E-18
 -1      3345 1.32920E-04-5.10836E-05-3.50071E-05-4.06076E-06-8.02246E-19 1.97348E-18
 -1      3346 1.28474E-04-5.18284E-05-3.28762E-05-4.88382E-07 2.25218E-19 1.26679E-18
 -1      3347 7.29540E-05-3.32552E-05-1.67383E-05 3.30395E-05-2.89172E-18-8.20563E-20
 -1      3348 5.89065E-05-2.38143E-05-1.46543E-05 2.73359E-05-1.87692E-18 1.22735E-18
 -1      3349 1.28017E-04-5.67413E-05-3.03152E-05-1.04351E-05-1.50263E-18 7.87158E-19
 -1      3350 1.31167E-04-5.39191E-05-3.33897E-05-1.71517E-06-1.66095E-19 1.97282E-18
 -1      3351 4.02998E-05-1.22947E-05-1.16327E-05-5.09468E-06 5.46455E-19 2.74015E-18
 -1      3352 4.39214E-05-1.58446E-05-1.16693E-05-1.74462E-05 1.28450E-18 3.54452E-18
 -1      3353 5.32825E-05-1.74523E-05-1.49813E-05-1.74957E-05 1.33737E-18 2.65783E-18
 -1      3354 4.72841E-05-1.30272E-05-1.43043E-05 2.11258E-07 5.99547E-19 3.16864E-18
 -1      3355 1.23245E-04-1.24888E-05-4.79000E-05 1.34301E-06 6.83609E-18-6.20743E-19
 -1      3356 9.67946E-05-2.36315E-05-3.13513E-05-2.16801E-06 2.62494E-18-1.28420E-18
 -1      3357 9.48535E-05-2.14422E-05-3.14597E-05-1.61878E-06 2.68265E-18-1.77596E-18
 -1      3358 9.43284E-05-2.18310E-05-3.10625E-05-3.18102E-06 2.28812E-18-2.05243E-18
 -1      3359 9.71621E-05-2.47222E-05-3.10526E-05-3.88139E-06 2.23968E-18-1.20407E-18
 -1      3360 1.29594E-04-4.27590E-05-3.74526E-05 1.04393E-05 1.86969E-18 3.10183E-18
 -1      3361 1.23226E-04-4.27708E-05-3.45449E-05 9.76312E-06 1.04790E-18 2.28618E-18
 -1      3362 1.23384E-04-4.57926E-05-3.33292E-05 6.81796E-06 4.08932E-19 2.34907E-18
 -1      3363 1.31578E-04-5.07664E-05-3.46955E-05 4.50833E-06 4.02261E-19 2.88425E-18
 -1      3364 1.25871E-04-2.96305E-05-4.14861E-05-1.35183E-05-4.54348E-18 1.88012E-18
 -1      3365 1.07594E-04-5.14776E-05-2.36074E-05-2.82113E-05-3.17365E-18-2.00020E-18
 -1      3366 1.19573E-04-5.63741E-05-2.73844E-05-2.04274E-05-2.28291E-18-4.24423E-19
 -1      3367 1.28482E-04-3.81747E-05-3.90626E-05-1.34612E-05-3.23617E-18 2.20276E-18
 -1      3368 5.16038E-05-1.78865E-05-1.41161E-05-2.05100E-05-1.57040E-18-7.11741E-18
 -1      3369 6.39986E-05-2.67282E-05-1.58419E-05-3.05184E-05-2.40653E-18-6.68404E-18
 -1      3370 1.28545E-04-4.12836E-05-3.75711E-05 1.19431E-05-1.00516E-18-5.16907E-18
 -1      3371 8.35986E-05-1.18496E-05-3.07568E-05-9.58060E-07 1.56305E-18-4.30568E-18
 -1      3372 8.28723E-05-1.13085E-05-3.06930E-05-7.48279E-07 1.20413E-18-4.44216E-18
 -1      3373 9.52590E-05-2.85852E-05-2.85745E-05 1.16653E-08 5.74723E-19 1.23240E-18
 -1      3374 9.52597E-05-2.85856E-05-2.85747E-05 7.17384E-09-1.19507E-19 8.47459E-19
 -1      3375 9.52612E-05-2.85803E-05-2.85775E-05 4.73210E-09 3.94596E-19 8.83519E-20
 -1      3376 9.52598E-05-2.85804E-05-2.85769E-05 1.38689E-08 9.17187E-20 2.44649E-19
 -1      3377 7.82187E-05-3.60124E-05-1.76555E-05-3.40133E-05-3.30655E-18-5.27394E-18
 -1      3378 9.31003E-05-4.54442E-05-2.05633E-05-3.42889E-05-3.21121E-18-3.71588E-18
 -1      3379 1.26703E-04-4.29480E-05-3.60225E-05-1.01986E-05-1.94532E-18 2.19317E-18
 -1      3380 1.29231E-04-4.71822E-05-3.52782E-05 9.12589E-06-3.22098E-19-4.56866E-18
 -1      3381 8.24801E-05-1.09804E-05-3.06568E-05-1.51301E-07 1.01036E-18-4.39267E-18
 -1      3382 8.24667E-05-1.09722E-05-3.06564E-05 1.19899E-07 6.05954E-19-4.33747E-18
 -1      3383 8.28139E-05-1.21397E-05-3.02577E-05-6.89561E-07 1.01631E-18-4.19435E-18
 -1      3384 1.13613E-04-5.44168E-05-2.50412E-05 2.42800E-05-3.28797E-18-4.39279E-19
 -1      3385 1.05594E-04-4.94485E-05-2.38648E-05 2.60122E-05-2.72723E-18-4.44983E-19
 -1      3386 1.18950E-04-5.59812E-05-2.74216E-05 1.77997E-05-3.05737E-18-3.76232E-19
 -1      3387 8.75115E-05-1.50019E-05-3.11012E-05 1.64030E-06-8.76710E-19-4.24129E-18
 -1      3388 8.92752E-05-1.64183E-05-3.12308E-05 1.51758E-06-1.32779E-18-4.17950E-18
 -1      3389 1.31113E-04-5.54637E-05-3.23246E-05 4.07391E-06-1.69798E-18-2.95699E-18
 -1      3390 9.78337E-05-2.64923E-05-3.05764E-05-6.41615E-06 1.53774E-18-1.11313E-18
 -1      3391 9.73469E-05-2.54717E-05-3.07846E-05-5.14559E-06 1.79316E-18-1.20208E-18
 -1      3392 9.59596E-05-2.41643E-05-3.07767E-05-4.87863E-06 1.89891E-18-1.51201E-18
 -1      3393 9.63685E-05-2.58546E-05-3.02394E-05-7.31288E-06 1.25543E-18-1.40718E-18
 -1      3394 1.18878E-04-5.06545E-05-2.94743E-05 9.62651E-06 1.56919E-18 2.56280E-19
 -1      3395 1.22010E-04-4.98186E-05-3.08544E-05 3.11421E-06 1.08423E-18 9.90618E-19
 -1      3396 1.21183E-04-5.42141E-05-2.87007E-05-1.36332E-05-1.83637E-18 1.38040E-20
 -1      3397 1.24580E-04-4.97629E-05-3.20992E-05-6.02770E-07 5.09848E-19 1.39192E-18
 -1      3398 1.26806E-04-4.74584E-05-3.41821E-05-6.91898E-06-4.05841E-19 1.92663E-18
 -1      3399 7.53113E-05-3.05572E-05-1.87803E-05-2.87871E-05-2.74277E-18-5.31804E-18
 -1      3400 9.97766E-05-3.15463E-05-2.93015E-05-1.08664E-05 3.25324E-19-1.05966E-18
 -1      3401 1.24087E-04-4.88097E-05-3.22931E-05 1.75437E-06-2.15418E-19 2.52111E-18
 -1      3402 1.27261E-04-4.26461E-05-3.64300E-05-1.14280E-05 1.02908E-18-4.22775E-18
 -1      3403 1.23445E-04-3.74661E-05-3.71253E-05-1.44236E-05 2.15956E-18-4.01450E-18
 -1      3404 1.21113E-04-3.08030E-05-3.87843E-05-1.53296E-05 3.84987E-18-4.15332E-18
 -1      3405 9.52580E-05-2.85852E-05-2.85740E-05-1.62089E-08-6.05807E-19-2.22950E-18
 -1      3406 9.52564E-05-2.85845E-05-2.85737E-05-2.03415E-08-7.40718E-19-1.37548E-19
 -1      3407 9.52612E-05-2.85803E-05-2.85775E-05-4.62449E-09-9.00183E-19-2.15063E-18
 -1      3408 9.52597E-05-2.85856E-05-2.85747E-05-7.05763E-09-1.10940E-18-1.98059E-18
 -1      3409 9.52590E-05-2.85852E-05-2.85745E-05-1.16256E-08-6.06964E-19-3.00857E-18
 -1      3410 9.23086E-05-3.96861E-05-2.22766E-05 2.78458E-05 3.01655E-18-2.50195E-18
 -1      3411 1.16897E-04-5.18633E-05-2.76919E-05 1.60688E-05 2.30028E-18-2.69449E-19
 -1      3412 1.27241E-04-5.12650E-05-3.26518E-05 5.84470E-07-5.74659E-20 2.15293E-18
 -1      3413 6.97304E-05-2.63923E-05-1.84558E-05-2.57126E-05 2.13500E-18-3.22931E-19
 -1      3414 7.59241E-05-3.26612E-05-1.81969E-05-3.06298E-05 2.65545E-18-6.20452E-19
 -1      3415 8.56540E-05-3.65112E-05-2.10910E-05-2.78965E-05 3.13243E-18-1.07703E-18
 -1      3416 1.20958E-04-5.35559E-05-2.88319E-05-1.14763E-05 2.27682E-18-1.50143E-18
 -1      3417 5.34982E-05-1.40125E-05-1.65276E-05 6.80188E-06 8.84733E-19-5.92748E-18
 -1      3418 6.53706E-05-2.34091E-05-1.77571E-05 2.34391E-05-1.43485E-18 5.88476E-19
 -1      3419 5.59535E-05-1.93816E-05-1.52278E-05 2.14041E-05-1.38426E-18 1.93753E-18
 -1      3420 5.50554E-05-1.62703E-05-1.64791E-05 1.44761E-05-5.00980E-19 1.66617E-18
 -1      3421 5.68447E-05-1.66036E-05-1.68170E-05-1.45897E-05-1.02275E-18-6.52538E-18
 -1      3422 8.94198E-05-1.65484E-05-3.12355E-05-1.51476E-06 2.39956E-18-3.32651E-18
 -1      3423 8.76477E-05-1.51264E-05-3.11054E-05-1.63847E-06 2.09828E-18-3.49829E-18
 -1      3424 9.08694E-05-1.86446E-05-3.09377E-05-2.82368E-06 2.10623E-18-2.89539E-18
 -1      3425 9.19024E-05-4.13172E-05-2.15965E-05 2.87087E-05-3.01331E-18-1.10355E-18
 -1      3426 8.28608E-05-3.75866E-05-1.90411E-05 3.18910E-05-2.81170E-18-8.36127E-19
 -1      3427 7.82812E-05-3.24665E-05-1.94690E-05 2.86629E-05-2.26745E-18-6.82073E-19
 -1      3428 6.78064E-05-2.40456E-05-1.83465E-05 2.40697E-05 2.28982E-18-4.28241E-18
 -1      3429 9.44091E-05-2.05008E-05-3.16875E-05 6.06223E-07-2.09730E-18-3.35009E-18
 -1      3430 9.52548E-05-2.85845E-05-2.85730E-05-2.37961E-08 4.49916E-19 2.09889E-18
 -1      3431 9.52527E-05-2.85837E-05-2.85724E-05-2.66368E-08 6.68736E-19 2.01847E-18
 -1      3432 9.52568E-05-2.85804E-05-2.85756E-05-2.17755E-08-2.27029E-20-1.87194E-20
 -1      3433 8.60208E-05-1.37719E-05-3.09675E-05-1.44540E-06 2.02065E-18-3.76984E-18
 -1      3434 8.46900E-05-1.27541E-05-3.08560E-05-1.39439E-06 1.70262E-18-4.06976E-18
 -1      3435 8.43740E-05-1.33802E-05-3.03993E-05-1.84427E-06 1.50183E-18-3.96567E-18
 -1      3436 8.72051E-05-1.56456E-05-3.06469E-05-2.57474E-06 1.77149E-18-3.50266E-18
 -1      3437 9.28857E-05-1.96082E-05-3.14089E-05 1.58556E-06-1.82805E-18-3.65481E-18
 -1      3438 1.01691E-04-4.65563E-05-2.33968E-05-2.75430E-05-3.08092E-18-2.45029E-18
 -1      3439 8.45895E-05-1.26617E-05-3.08520E-05 1.37503E-06-2.63221E-19-4.43383E-18
 -1      3440 8.59005E-05-1.36640E-05-3.09633E-05 1.43751E-06-6.09995E-19-4.40566E-18
 -1      3441 8.70781E-05-1.55235E-05-3.06428E-05 2.56525E-06-7.08597E-19-3.99762E-18
 -1      3442 9.52480E-05-2.85803E-05-2.85719E-05 3.15776E-08-8.16255E-19-1.01511E-18
 -1      3443 9.52503E-05-2.85822E-05-2.85721E-05 2.97561E-08-3.90116E-19-8.80238E-19
 -1      3444 9.52526E-05-2.85789E-05-2.85744E-05 2.81912E-08-3.52405E-19-3.41537E-19
 -1      3445 9.52488E-05-2.85772E-05-2.85735E-05 3.14899E-08-2.82940E-19 1.41203E-19
 -1      3446 1.08760E-04-4.28937E-05-2.82553E-05-1.29297E-05-1.72390E-18-2.48714E-19
 -1      3447 1.05324E-04-3.94677E-05-2.81055E-05-1.37156E-05-1.52528E-18-5.20134E-19
 -1      3448 7.46829E-05-2.67842E-05-2.07226E-05 2.44173E-05 2.27468E-18-3.49525E-18
 -1      3449 6.53926E-05-1.97365E-05-1.93191E-05 1.88110E-05 1.92693E-18-4.27834E-18
 -1      3450 9.28778E-05-2.51445E-05-2.90208E-05 9.98831E-06-1.20650E-19-2.75193E-18
 -1      3451 9.37599E-05-2.67400E-05-2.86920E-05 1.11667E-05 1.56293E-19-2.55016E-18
 -1      3452 9.44013E-05-2.84363E-05-2.82474E-05 1.26775E-05 3.31119E-19-2.42801E-18
 -1      3453 9.60112E-05-3.06860E-05-2.79581E-05 1.36428E-05 6.05347E-19-2.23226E-18
 -1      3454 9.11863E-05-2.59986E-05-2.79679E-05 1.24024E-05 3.33919E-19-2.75729E-18
 -1      3455 9.76356E-05-3.32097E-05-2.75449E-05 1.50491E-05 9.30691E-19-1.97643E-18
 -1      3456 1.00417E-04-3.62460E-05-2.74109E-05 1.54793E-05 1.30496E-18-1.64541E-18
 -1      3457 9.32601E-05-3.03970E-05-2.70179E-05 1.57736E-05 9.64886E-19-2.44904E-18
 -1      3458 1.19727E-04-1.79144E-05-4.43784E-05 1.09725E-05-4.08259E-18-3.49917E-18
 -1      3459 1.10514E-04-4.66680E-05-2.72776E-05-1.47299E-05 2.76154E-18-2.25982E-19
 -1      3460 1.05774E-04-4.26910E-05-2.68583E-05-1.59047E-05 2.93285E-18-8.71418E-20
 -1      3461 1.01921E-04-3.88726E-05-2.69359E-05-1.52953E-05 2.29002E-18-9.35731E-19
 -1      3462 9.86101E-05-3.55356E-05-2.69484E-05-1.51244E-05 1.50063E-18-1.42865E-18
 -1      3463 9.91742E-05-3.96482E-05-2.56965E-05-1.92313E-05 2.04376E-18-8.25169E-19
 -1      3464 9.66540E-05-3.29395E-05-2.72432E-05-1.39159E-05 1.32120E-18-1.46600E-18
 -1      3465 9.46340E-05-3.06316E-05-2.73997E-05-1.32905E-05 1.49086E-18-1.64080E-18
 -1      3466 9.35876E-05-3.27994E-05-2.61876E-05-1.63411E-05 1.69726E-18-1.49034E-18
 -1      3467 9.38024E-05-2.90480E-05-2.77101E-05-1.20567E-05 1.42323E-18-1.81788E-18
 -1      3468 9.27213E-05-2.76459E-05-2.78857E-05-1.13227E-05 3.37515E-19-1.51357E-18
 -1      3469 9.10140E-05-2.84133E-05-2.68769E-05-1.34861E-05 1.10323E-18-1.90194E-18
 -1      3470 9.25246E-05-2.67770E-05-2.81487E-05-1.02597E-05-3.06652E-19-8.50755E-19
 -1      3471 9.20226E-05-2.60149E-05-2.82946E-05-9.53017E-06-2.88874E-20-4.50604E-19
 -1      3472 9.01321E-05-2.59764E-05-2.75113E-05-1.10241E-05 7.27463E-19-1.18287E-18
 -1      3473 9.21575E-05-2.56294E-05-2.84934E-05-8.64351E-06-7.03755E-21-6.74051E-19
 -1      3474 9.19885E-05-2.52872E-05-2.85956E-05-7.96113E-06 1.41142E-19-1.59774E-19
 -1      3475 9.01462E-05-2.47848E-05-2.80146E-05-9.02646E-06 1.25880E-19-6.81876E-19
 -1      3476 9.22779E-05-2.52054E-05-2.87332E-05-7.21893E-06-1.42144E-19 1.37407E-19
 -1      3477 9.22855E-05-2.51238E-05-2.87938E-05-6.59657E-06-1.14273E-19 5.46251E-19
 -1      3478 9.06077E-05-2.43777E-05-2.83807E-05-7.39941E-06 3.26797E-19-4.38535E-19
 -1      3479 9.26281E-05-2.52200E-05-2.88808E-05-5.96957E-06-4.24169E-19 8.80523E-19
 -1      3480 9.27184E-05-2.52893E-05-2.89081E-05-5.41146E-06 7.41309E-21 6.66667E-19
 -1      3481 9.12560E-05-2.44447E-05-2.86273E-05-6.05307E-06 1.04457E-19-1.16403E-19
 -1      3482 9.30587E-05-2.54790E-05-2.89565E-05-4.87917E-06-7.04682E-19 1.13732E-19
 -1      3483 9.31783E-05-2.56267E-05-2.89598E-05-4.38689E-06-4.73292E-19-6.51212E-19
 -1      3484 9.19444E-05-2.47769E-05-2.87794E-05-4.92245E-06-8.74821E-19 1.91371E-19
 -1      3485 9.34882E-05-2.58554E-05-2.89806E-05-3.93588E-06 4.86927E-19-1.36540E-18
 -1      3486 9.36087E-05-2.60354E-05-2.89680E-05-3.50926E-06 1.00909E-18-2.02242E-18
 -1      3487 9.25948E-05-2.52373E-05-2.88612E-05-3.96663E-06-5.52566E-19-9.37819E-19
 -1      3488 9.38761E-05-2.62695E-05-2.89702E-05-3.12999E-06 1.30224E-18-2.21199E-18
 -1      3489 9.39843E-05-2.64540E-05-2.89484E-05-2.76692E-06 8.91330E-19-2.11789E-18
 -1      3490 9.31700E-05-2.57389E-05-2.88936E-05-3.15984E-06 9.24614E-19-1.45672E-18
 -1      3491 9.42064E-05-2.66741E-05-2.89389E-05-2.45154E-06 2.43731E-19-2.39319E-18
 -1      3492 9.42972E-05-2.68475E-05-2.89128E-05-2.14815E-06 1.52740E-19-2.07378E-18
 -1      3493 9.36567E-05-2.62288E-05-2.88933E-05-2.48390E-06 4.05580E-19-2.80212E-18
 -1      3494 9.44764E-05-2.70437E-05-2.88967E-05-1.88941E-06-3.13122E-19-2.32440E-18
 -1      3495 9.45492E-05-2.71980E-05-2.88695E-05-1.64041E-06-6.22446E-19-2.33996E-18
 -1      3496 9.40555E-05-2.66775E-05-2.88727E-05-1.92396E-06-2.72594E-19-2.03347E-18
 -1      3497 9.46904E-05-2.73666E-05-2.88504E-05-1.43128E-06-6.43764E-19-2.57726E-18
 -1      3498 9.47468E-05-2.74988E-05-2.88244E-05-1.23048E-06-4.01371E-19-2.64712E-18
 -1      3499 9.43736E-05-2.70712E-05-2.88412E-05-1.46640E-06-8.14409E-19-2.38974E-18
 -1      3500 9.48556E-05-2.76394E-05-2.88047E-05-1.06406E-06 1.51114E-19-2.56751E-18
 -1      3501 9.48981E-05-2.77495E-05-2.87810E-05-9.04911E-07-3.13061E-19-2.04509E-18
 -1      3502 9.46218E-05-2.74055E-05-2.88050E-05-1.09805E-06-1.12935E-19-2.53459E-18
 -1      3503 9.49801E-05-2.78640E-05-2.87622E-05-7.74593E-07-5.37981E-19-1.22075E-18
 -1      3504 9.50112E-05-2.79535E-05-2.87413E-05-6.50600E-07-8.42063E-19-8.68492E-19
 -1      3505 9.48112E-05-2.76821E-05-2.87682E-05-8.06122E-07 2.59098E-19-6.47509E-19
 -1      3506 9.50717E-05-2.80448E-05-2.87243E-05-5.50229E-07-1.24804E-18-3.99538E-19
 -1      3507 9.50939E-05-2.81160E-05-2.87066E-05-4.55293E-07-1.26864E-18-2.08134E-19
 -1      3508 9.49527E-05-2.79058E-05-2.87334E-05-5.78472E-07-5.61261E-19 3.08372E-19
 -1      3509 9.51375E-05-2.81874E-05-2.86917E-05-3.79313E-07-1.65137E-18 1.17981E-18
 -1      3510 9.51528E-05-2.82430E-05-2.86769E-05-3.07920E-07-7.62807E-19 1.00382E-18
 -1      3511 9.50562E-05-2.80831E-05-2.87020E-05-4.03888E-07-8.84868E-19 5.02549E-19
 -1      3512 9.51833E-05-2.82977E-05-2.86643E-05-2.51450E-07-1.06056E-18 7.54985E-19
 -1      3513 9.51934E-05-2.83403E-05-2.86523E-05-1.98781E-07-6.69832E-19-3.69357E-19
 -1      3514 9.51298E-05-2.82211E-05-2.86747E-05-2.72324E-07-1.29632E-18 1.16045E-18
 -1      3515 9.52140E-05-2.83814E-05-2.86418E-05-1.57646E-07-2.44125E-19-1.15288E-18
 -1      3516 9.52203E-05-2.84134E-05-2.86322E-05-1.19605E-07-7.66911E-19-1.57168E-18
 -1      3517 9.51807E-05-2.83263E-05-2.86516E-05-1.75019E-07-1.16795E-18-7.74241E-19
 -1      3518 9.52336E-05-2.84437E-05-2.86237E-05-9.03150E-08-1.17700E-18-7.30717E-19
 -1      3519 9.52372E-05-2.84673E-05-2.86162E-05-6.35046E-08-5.46469E-19-9.10992E-19
 -1      3520 9.52145E-05-2.84051E-05-2.86325E-05-1.04527E-07-8.25778E-19-1.42477E-18
 -1      3521 9.52452E-05-2.84892E-05-2.86093E-05-4.32090E-08 5.23061E-19 3.70810E-19
 -1      3522 9.52470E-05-2.85062E-05-2.86035E-05-2.48776E-08 1.57369E-18 4.17824E-19
 -1      3523 9.52358E-05-2.84629E-05-2.86169E-05-5.46657E-08 5.85948E-19-2.25785E-19
 -1      3524 9.52512E-05-2.85217E-05-2.85980E-05-1.12961E-08 1.66155E-18 8.09249E-19
 -1      3525 9.52517E-05-2.85338E-05-2.85936E-05 7.33130E-10 2.01335E-18 1.18048E-18
 -1      3526 9.52480E-05-2.85044E-05-2.86044E-05-2.04110E-08 1.98980E-18 2.85246E-19
 -1      3527 9.52534E-05-2.85445E-05-2.85893E-05 9.37370E-09 1.78880E-18 1.36235E-18
 -1      3528 9.52531E-05-2.85530E-05-2.85859E-05 1.67703E-08 1.91917E-18 1.62276E-18
 -1      3529 9.52540E-05-2.85337E-05-2.85944E-05 2.22146E-09 2.00974E-18 1.22757E-18
 -1      3530 9.52532E-05-2.85605E-05-2.85825E-05 2.18491E-08 1.87085E-18 9.66946E-19
 -1      3531 9.52525E-05-2.85664E-05-2.85798E-05 2.57737E-08 1.00040E-18 2.91479E-20
 -1      3532 9.52559E-05-2.85540E-05-2.85865E-05 1.63288E-08 1.12708E-18 1.32914E-18
 -1      3533 9.52566E-05-2.85755E-05-2.85776E-05 2.33103E-08-5.75605E-19-8.36125E-19
 -1      3534 9.52589E-05-2.85757E-05-2.85785E-05 1.93967E-08-7.42371E-19-1.70764E-18
 -1      3535 9.52598E-05-2.85804E-05-2.85769E-05-1.38246E-08-1.14014E-18-2.42266E-18
 -1      3536 1.17919E-04-5.09134E-05-2.84869E-05 1.12450E-05-2.14182E-18-1.64823E-18
 -1      3537 1.22503E-04-5.24578E-05-2.99156E-05 7.39178E-06-2.37823E-18-2.19080E-18
 -1      3538 9.83715E-05-3.28705E-05-2.80262E-05 1.23808E-05-1.56383E-18-3.09830E-19
 -1      3539 1.00659E-04-3.52943E-05-2.79753E-05 1.24231E-05-1.63387E-18-5.13671E-19
 -1      3540 9.55751E-05-2.94183E-05-2.83340E-05 1.11312E-05-1.72259E-19-4.80209E-19
 -1      3541 9.69629E-05-3.10084E-05-2.82313E-05 1.15378E-05-8.57699E-19-2.45276E-19
 -1      3542 9.46907E-05-3.08230E-05-2.74250E-05 1.32417E-05-1.18950E-18-8.15236E-20
 -1      3543 9.41739E-05-2.73688E-05-2.86265E-05 9.71089E-06-5.69806E-19 7.55297E-19
 -1      3544 9.49467E-05-2.83121E-05-2.85320E-05 1.02649E-05-3.59811E-19 1.48107E-19
 -1      3545 9.28009E-05-2.77897E-05-2.78885E-05 1.13036E-05-6.30928E-19-1.08878E-19
 -1      3546 9.36107E-05-2.63082E-05-2.88475E-05 8.30256E-06-1.40221E-18 8.22202E-19
 -1      3547 9.40010E-05-2.67979E-05-2.87833E-05 8.90249E-06-7.91292E-19 6.18514E-19
 -1      3548 9.20822E-05-2.61054E-05-2.82876E-05 9.52565E-06-9.39192E-19 1.64048E-19
 -1      3549 9.35169E-05-2.58972E-05-2.89868E-05 6.98448E-06-1.69962E-18 1.67941E-18
 -1      3550 9.36845E-05-2.60915E-05-2.89556E-05 7.57709E-06-1.44014E-18 1.68199E-18
 -1      3551 9.20290E-05-2.53354E-05-2.85855E-05 7.95617E-06-1.72747E-18-2.72641E-19
 -1      3552 9.36568E-05-2.58788E-05-2.90557E-05 5.78865E-06-4.96386E-21 1.76951E-18
 -1      3553 9.37051E-05-2.58956E-05-2.90517E-05 6.34539E-06-3.80894E-19 1.88689E-18
 -1      3554 9.23146E-05-2.51481E-05-2.87836E-05 6.59058E-06-1.03576E-18-2.08808E-19
 -1      3555 9.38931E-05-2.60777E-05-2.90717E-05 4.72587E-06-9.84901E-20 1.70094E-18
 -1      3556 9.38835E-05-2.59963E-05-2.90871E-05 5.23107E-06-9.78062E-20 1.75430E-18
 -1      3557 9.27395E-05-2.52995E-05-2.88990E-05 5.40639E-06-1.39662E-19 1.01060E-18
 -1      3558 9.41508E-05-2.63806E-05-2.90517E-05 3.79911E-06-5.86049E-20 1.34810E-18
 -1      3559 9.41176E-05-2.62521E-05-2.90790E-05 4.24469E-06 3.46603E-20 1.95065E-18
 -1      3560 9.31937E-05-2.56285E-05-2.89523E-05 4.38322E-06 2.32214E-19 1.26705E-18
 -1      3561 9.43919E-05-2.67174E-05-2.90099E-05 3.00616E-06-2.67081E-19 1.09548E-18
 -1      3562 9.43530E-05-2.65732E-05-2.90432E-05 3.38953E-06-1.17468E-19 1.19920E-18
 -1      3563 9.36204E-05-2.60329E-05-2.89622E-05 3.50692E-06 1.54514E-19 2.19157E-18
 -1      3564 9.46002E-05-2.70470E-05-2.89569E-05 2.34023E-06 1.42446E-19 1.89555E-18
 -1      3565 9.45639E-05-2.69053E-05-2.89920E-05 2.66281E-06-2.64928E-19 1.34130E-18
 -1      3566 9.39934E-05-2.64496E-05-2.89441E-05 2.76568E-06-1.00764E-20 2.40584E-18
 -1      3567 9.47711E-05-2.73477E-05-2.89003E-05 1.79106E-06-4.76042E-19 2.00076E-18
 -1      3568 9.47408E-05-2.72182E-05-2.89343E-05 2.05700E-06 4.79436E-19 2.34938E-18
 -1      3569 9.43045E-05-2.68427E-05-2.89096E-05 2.14771E-06-1.70743E-19 1.67237E-18
 -1      3570 9.49064E-05-2.76096E-05-2.88452E-05 1.34612E-06 5.01099E-20 9.53173E-19
 -1      3571 9.48827E-05-2.74967E-05-2.88763E-05 1.56122E-06 8.55115E-20 1.75350E-18
 -1      3572 9.45553E-05-2.71936E-05-2.88673E-05 1.64051E-06 1.31529E-19 2.21819E-18
 -1      3573 9.50102E-05-2.78302E-05-2.87943E-05 9.91847E-07 4.49515E-19 4.55188E-20
 -1      3574 9.49925E-05-2.77350E-05-2.88218E-05 1.16268E-06-7.92489E-20 4.12065E-19
 -1      3575 9.47519E-05-2.74951E-05-2.88229E-05 1.23091E-06 6.16741E-19 5.33448E-19
 -1      3576 9.50878E-05-2.80112E-05-2.87494E-05 7.14558E-07 1.28860E-18 1.31598E-19
 -1      3577 9.50752E-05-2.79330E-05-2.87729E-05 8.47851E-07 1.06181E-18-6.08134E-19
 -1      3578 9.49023E-05-2.77466E-05-2.87800E-05 9.05498E-07 1.16795E-18-1.05726E-18
 -1      3579 9.51443E-05-2.81562E-05-2.87109E-05 5.01248E-07 2.24768E-18-1.53882E-19
 -1      3580 9.51357E-05-2.80936E-05-2.87304E-05 6.03422E-07 2.28564E-18 5.84429E-19
 -1      3581 9.50148E-05-2.79513E-05-2.87408E-05 6.51239E-07 1.78609E-18-6.06330E-20
 -1      3582 9.51843E-05-2.82702E-05-2.86788E-05 3.40045E-07 7.44174E-19 3.65249E-19
 -1      3583 9.51787E-05-2.82209E-05-2.86947E-05 4.16955E-07 1.16391E-18 4.18930E-19
 -1      3584 9.50968E-05-2.81144E-05-2.87063E-05 4.55912E-07 1.56344E-18-3.04679E-20
 -1      3585 9.52116E-05-2.83580E-05-2.86525E-05 2.20487E-07-3.48108E-19 1.23832E-18
 -1      3586 9.52083E-05-2.83200E-05-2.86652E-05 2.77277E-07 4.94492E-19 1.13429E-18
 -1      3587 9.51551E-05-2.82419E-05-2.86768E-05 3.08477E-07 3.03187E-20 1.38955E-18
 -1      3588 9.52295E-05-2.84243E-05-2.86315E-05 1.33616E-07-1.64986E-19 1.31860E-18
 -1      3589 9.52277E-05-2.83956E-05-2.86414E-05 1.74672E-07-4.21244E-19 7.05775E-19
 -1      3590 9.51953E-05-2.83396E-05-2.86523E-05 1.99257E-07-2.14686E-20 1.12011E-18
 -1      3591 9.52406E-05-2.84735E-05-2.86149E-05 7.19517E-08-4.32238E-19 1.78419E-18
 -1      3592 9.52398E-05-2.84522E-05-2.86226E-05 1.00919E-07-3.33916E-19 1.71400E-18
 -1      3593 9.52218E-05-2.84130E-05-2.86323E-05 1.19993E-07-4.55066E-19 3.51400E-19
 -1      3594 9.52467E-05-2.85092E-05-2.86021E-05 2.93928E-08-1.35663E-18 2.69080E-18
 -1      3595 9.52467E-05-2.84937E-05-2.86079E-05 4.92306E-08-3.09145E-19 2.57129E-18
 -1      3596 9.52383E-05-2.84671E-05-2.86162E-05 6.38087E-08-1.21542E-18 1.88853E-18
 -1      3597 9.52494E-05-2.85347E-05-2.85922E-05 1.08130E-09-4.15673E-19 1.89233E-18
 -1      3598 9.52498E-05-2.85235E-05-2.85966E-05 1.41325E-08-8.50886E-19 2.57168E-18
 -1      3599 9.52477E-05-2.85062E-05-2.86036E-05 2.51061E-08-7.83401E-19 1.84129E-18
 -1      3600 9.52500E-05-2.85525E-05-2.85848E-05-1.67652E-08 1.32092E-18 1.54701E-18
 -1      3601 9.52506E-05-2.85446E-05-2.85880E-05-8.69023E-09 4.91820E-19 1.62940E-18
 -1      3602 9.52522E-05-2.85338E-05-2.85936E-05-5.61278E-10 2.62421E-19 8.10594E-19
 -1      3603 9.52493E-05-2.85651E-05-2.85790E-05-2.69669E-08 1.28479E-18 1.65262E-18
 -1      3604 9.52499E-05-2.85594E-05-2.85815E-05-2.25728E-08 1.59979E-18 1.35715E-18
 -1      3605 9.52534E-05-2.85532E-05-2.85859E-05-1.66900E-08 1.32577E-18 3.58200E-19
 -1      3606 9.52480E-05-2.85740E-05-2.85746E-05-3.17076E-08 6.16237E-19 7.97349E-19
 -1      3607 9.52484E-05-2.85698E-05-2.85765E-05-2.98443E-08 8.73732E-19 1.25210E-18
 -1      3608 9.52527E-05-2.85665E-05-2.85798E-05-2.56805E-08 1.38899E-18 2.28153E-20
 -1      3609 9.57553E-05-2.75086E-05-2.92305E-05-1.02738E-05 4.84382E-19-1.69184E-18
 -1      3610 9.48694E-05-2.60098E-05-2.94953E-05-9.25364E-06 7.25471E-19-1.90340E-18
 -1      3611 9.81433E-05-3.11990E-05-2.86607E-05-1.21674E-05-9.54881E-20-1.18589E-18
 -1      3612 9.65934E-05-2.91434E-05-2.88753E-05-1.15022E-05 1.75708E-19-1.33648E-18
 -1      3613 9.36694E-05-2.70163E-05-2.86008E-05-1.15093E-05 1.32173E-19-2.03510E-18
 -1      3614 9.47925E-05-4.07669E-05-2.28177E-05-2.75059E-05-3.04234E-18-2.74627E-18
 -1      3615 1.05706E-04-4.70345E-05-2.53532E-05-2.30827E-05-2.68204E-18-1.49297E-18
 -1      3616 1.31513E-04-4.79478E-05-3.62122E-05-7.27756E-06 2.77145E-19-3.65558E-18
 -1      3617 9.90079E-05-4.29844E-05-2.36352E-05-2.47899E-05 3.07789E-18-4.32344E-19
 -1      3618 1.07151E-04-4.78783E-05-2.56364E-05-2.10462E-05 3.19501E-18 1.43678E-19
 -1      3619 9.84669E-05-4.19731E-05-2.45431E-05 2.44990E-05 2.57501E-18-2.04703E-18
 -1      3620 8.66051E-05-3.35873E-05-2.23459E-05 2.56676E-05 2.55175E-18-2.79223E-18
 -1      3621 1.10626E-04-4.72709E-05-2.68218E-05 1.79996E-05 2.48134E-18-7.13460E-19
 -1      3622 8.28332E-05-1.12683E-05-3.06916E-05 7.20303E-07 4.19852E-19-4.37344E-18
 -1      3623 8.35308E-05-1.17908E-05-3.07543E-05 9.30827E-07-3.86510E-21-4.40583E-18
 -1      3624 8.42963E-05-1.33011E-05-3.03970E-05 1.80587E-06-4.97553E-20-4.17464E-18
 -1      3625 1.24454E-04-5.17665E-05-3.10358E-05-3.71208E-06-1.04675E-18 1.71248E-18
 -1      3626 5.85361E-05-1.47918E-05-1.86601E-05-9.53199E-06-5.90951E-19-5.83690E-18
 -1      3627 6.36568E-05-1.90916E-05-1.89852E-05-1.87458E-05-1.38489E-18-5.99625E-18
 -1      3628 1.15362E-04-5.04929E-05-2.75351E-05-1.47199E-05 2.98185E-18-5.70798E-19
 -1      3629 1.03419E-04-3.81595E-05-2.78635E-05 1.29014E-05-1.61625E-18-7.43625E-19
 -1      3630 1.06899E-04-4.12550E-05-2.80368E-05 1.19933E-05-1.30689E-18-1.01558E-18
 -1      3631 9.86235E-05-3.58077E-05-2.70127E-05 1.51421E-05-1.68998E-18-1.34844E-19
 -1      3632 1.09383E-04-4.42098E-05-2.77773E-05 1.31014E-05-1.43657E-18-1.38592E-18
 -1      3633 1.13939E-04-4.73125E-05-2.83958E-05 1.07906E-05-1.62665E-18-1.59502E-18
 -1      3634 1.09122E-04-4.88587E-05-2.59856E-05 2.00922E-05-2.27066E-18-1.49607E-19
 -1      3635 1.03363E-04-4.17748E-05-2.65586E-05 1.71081E-05-1.52130E-18-5.75652E-19
 -1      3636 7.14471E-05-2.50113E-05-1.97091E-05-2.40763E-05-2.13933E-18-5.12283E-18
 -1      3637 8.31012E-05-3.38361E-05-2.11907E-05-2.82403E-05-2.76371E-18-3.75889E-18
 -1      3638 8.99752E-05-3.52208E-05-2.32964E-05-2.42629E-05-2.53652E-18-3.11216E-18
 -1      3639 9.21562E-05-2.26105E-05-2.98025E-05 7.19684E-06-6.63117E-19-3.05164E-18
 -1      3640 9.26322E-05-2.38822E-05-2.94539E-05 8.53692E-06-3.66603E-19-2.99294E-18
 -1      3641 9.04305E-05-2.30084E-05-2.89017E-05 9.31921E-06-1.57674E-19-2.96640E-18
 -1      3642 5.89612E-05-1.53735E-05-1.86040E-05 1.20986E-05 1.29338E-18-4.80254E-18
 -1      3643 5.66667E-05-1.32250E-05-1.84959E-05 1.29197E-06 3.64317E-19-5.51408E-18
 -1      3644 1.20572E-04-5.19163E-05-2.95522E-05-9.71057E-06-1.51390E-18 5.72588E-19
 -1      3645 1.17913E-04-4.93594E-05-2.94646E-05-8.53639E-06-1.53414E-18 9.64866E-19
 -1      3646 1.14057E-04-4.63958E-05-2.87888E-05-1.09762E-05-1.84827E-18 2.24002E-19
 -1      3647 1.14345E-04-5.02311E-05-2.71542E-05-1.75863E-05-2.50118E-18-6.73533E-19
 -1      3648 9.15110E-05-1.85215E-05-3.12958E-05 1.83173E-06-1.50291E-18-3.89387E-18
 -1      3649 1.02294E-04-3.63133E-05-2.82519E-05-1.33163E-05-1.13697E-18-7.99607E-19
 -1      3650 9.98152E-05-3.35089E-05-2.83538E-05-1.31913E-05-6.01112E-19-9.46773E-19
 -1      3651 1.00559E-04-3.71313E-05-2.73093E-05-1.61578E-05-1.50425E-18-1.27716E-18
 -1      3652 9.52505E-05-2.85838E-05-2.85714E-05-2.92031E-08 8.43489E-19 1.39719E-19
 -1      3653 9.52477E-05-2.85824E-05-2.85708E-05-3.11637E-08 1.22434E-19-1.01643E-19
 -1      3654 9.52475E-05-2.85802E-05-2.85717E-05-3.21009E-08-1.91784E-19 1.11969E-18
 -1      3655 9.52528E-05-2.85807E-05-2.85738E-05-2.78462E-08 2.99776E-19 1.09148E-18
 -1      3656 9.10019E-05-1.89592E-05-3.08610E-05 3.16764E-06-1.19983E-18-3.69595E-18
 -1      3657 1.04453E-04-4.21637E-05-2.65795E-05 1.80232E-05 2.04839E-18-1.48666E-18
 -1      3658 8.96940E-05-1.87087E-05-3.04367E-05 4.22255E-06-7.51050E-19-3.59080E-18
 -1      3659 9.20096E-05-2.07858E-05-3.05243E-05 4.59310E-06-9.60139E-19-3.41691E-18
 -1      3660 1.00294E-04-3.81466E-05-2.65026E-05 1.82429E-05 1.70463E-18-1.68962E-18
 -1      3661 6.71038E-05-1.79293E-05-2.08541E-05 1.33407E-05 1.43277E-18-4.07429E-18
 -1      3662 9.47366E-05-2.50626E-05-2.98498E-05-8.05127E-06 9.86493E-19-1.90194E-18
 -1      3663 9.44700E-05-2.41488E-05-3.01280E-05-6.92854E-06 1.21615E-18-2.00159E-18
 -1      3664 9.28094E-05-2.43279E-05-2.93640E-05-8.94798E-06 8.09449E-19-2.41388E-18
 -1      3665 9.41561E-05-3.44555E-05-2.55934E-05 1.99219E-05 1.66824E-18-2.26108E-18
 -1      3666 9.23787E-05-2.19941E-05-3.01602E-05 6.09790E-06-7.76404E-19-3.23830E-18
 -1      3667 1.05016E-04-4.70463E-05-2.47415E-05 2.26372E-05-2.23686E-18 7.25034E-19
 -1      3668 9.81207E-05-4.40723E-05-2.29122E-05 2.68083E-05-2.85592E-18 7.76623E-20
 -1      3669 9.18332E-05-3.89702E-05-2.26484E-05 2.58669E-05-2.36224E-18-2.04201E-19
 -1      3670 1.01802E-04-4.31635E-05-2.50399E-05 2.11721E-05-2.18018E-18 2.96435E-19
 -1      3671 9.52624E-05-2.85745E-05-2.85806E-05-2.11271E-09-5.40915E-19-1.21212E-18
 -1      3672 9.52621E-05-2.85745E-05-2.85804E-05-6.56706E-09-1.10545E-18-1.91927E-18
 -1      3673 9.60123E-05-3.11669E-05-2.78647E-05-1.40807E-05-5.41041E-19-1.63338E-18
 -1      3674 9.52512E-05-2.85704E-05-2.85774E-05 2.83824E-08-1.96286E-19-4.69807E-19
 -1      3675 9.52503E-05-2.85743E-05-2.85754E-05 3.00500E-08-2.52477E-19-4.31360E-19
 -1      3676 9.52523E-05-2.85750E-05-2.85760E-05 2.84919E-08-3.12584E-19-1.22737E-20
 -1      3677 9.52548E-05-2.85669E-05-2.85806E-05 2.40659E-08 5.19938E-20 3.50281E-19
 -1      3678 8.77117E-05-1.71573E-05-3.02379E-05 3.84093E-06-6.33188E-19-3.74757E-18
 -1      3679 8.86117E-05-1.88856E-05-2.98778E-05 5.30115E-06-5.46429E-19-3.44214E-18
 -1      3680 8.59760E-05-1.58390E-05-3.00866E-05 3.57327E-06-3.36426E-19-3.91445E-18
 -1      3681 9.52602E-05-2.85750E-05-2.85794E-05 1.51627E-08-7.13634E-19-2.12555E-18
 -1      3682 9.52614E-05-2.85750E-05-2.85799E-05 1.09657E-08 2.13720E-19 2.09753E-19
 -1      3683 9.52605E-05-2.85698E-05-2.85817E-05 1.65373E-08-6.17965E-19-1.94061E-18
 -1      3684 9.52614E-05-2.85750E-05-2.85799E-05-1.09097E-08-1.12087E-18-2.69083E-18
 -1      3685 9.52603E-05-2.85750E-05-2.85794E-05-1.51888E-08-1.05984E-18-2.70872E-18
 -1      3686 9.52626E-05-2.85684E-05-2.85831E-05-8.19415E-09-8.61853E-19-1.47481E-18
 -1      3687 7.24387E-05-2.24362E-05-2.11950E-05-1.89929E-05-1.76684E-18-4.89349E-18
 -1      3688 1.07436E-04-4.56719E-05-2.64705E-05-1.90372E-05-2.42791E-18-1.05657E-18
 -1      3689 9.52471E-05-2.85777E-05-2.85725E-05-3.23422E-08 4.64210E-19 1.12663E-18
 -1      3690 9.22628E-05-3.77786E-05-2.31621E-05-2.38782E-05 2.50481E-18-5.94247E-19
 -1      3691 8.32198E-05-2.92360E-05-2.29846E-05 2.19020E-05 1.99249E-18-3.08423E-18
 -1      3692 1.08718E-04-4.46880E-05-2.75816E-05-1.55913E-05-2.06993E-18-5.77346E-19
 -1      3693 8.27874E-05-1.21133E-05-3.02573E-05 6.36786E-07 4.70216E-19-4.09829E-18
 -1      3694 6.41245E-05-2.13455E-05-1.80617E-05-2.15582E-05 1.78201E-18 7.78053E-19
 -1      3695 7.31447E-05-2.54698E-05-2.02452E-05-2.20528E-05 2.50521E-18-1.17319E-18
 -1      3696 7.23624E-05-2.68745E-05-1.91924E-05 2.55145E-05-1.86392E-18-4.82544E-19
 -1      3697 6.81512E-05-2.26791E-05-1.94864E-05 2.08115E-05-1.23370E-18-2.82644E-19
 -1      3698 8.02584E-05-3.09231E-05-2.10382E-05 2.47625E-05-1.92696E-18-1.23190E-18
 -1      3699 9.21448E-05-2.05993E-05-3.06575E-05-4.15080E-06 1.82312E-18-2.67948E-18
 -1      3700 9.00980E-05-1.89553E-05-3.05064E-05-4.09564E-06 1.52888E-18-2.99836E-18
 -1      3701 9.52624E-05-2.85745E-05-2.85806E-05 2.21446E-09 9.98269E-19-6.63844E-19
 -1      3702 9.52633E-05-2.85679E-05-2.85836E-05 4.87183E-11 7.10220E-19 4.32657E-19
 -1      3703 9.52621E-05-2.85745E-05-2.85804E-05 6.62370E-09 8.14032E-19 8.62741E-19
 -1      3704 8.26234E-05-1.31029E-05-2.98015E-05-1.31775E-06 1.11219E-18-3.97449E-18
 -1      3705 8.21741E-05-1.27846E-05-2.97624E-05-6.08604E-07 7.71360E-19-3.94309E-18
 -1      3706 6.06418E-05-1.38335E-05-1.98442E-05-3.85147E-06-1.03067E-20-5.41213E-18
 -1      3707 6.62048E-05-1.56365E-05-2.16411E-05-7.83375E-06-5.00405E-19-4.88775E-18
 -1      3708 6.46074E-05-1.43381E-05-2.15090E-05 1.10966E-06 5.06903E-19-4.56890E-18
 -1      3709 9.52512E-05-2.85764E-05-2.85749E-05-2.96668E-08 7.35612E-20 2.61877E-19
 -1      3710 6.00677E-05-1.66903E-05-1.84828E-05 1.24528E-05-4.82635E-19 1.19606E-18
 -1      3711 5.42640E-05-1.37953E-05-1.69117E-05 7.79185E-06 2.51099E-20 2.24040E-18
 -1      3712 5.22784E-05-1.34059E-05-1.65519E-05 8.56454E-07 7.20408E-19 2.80278E-18
 -1      3713 5.26442E-05-1.35894E-05-1.63591E-05-8.03302E-06 9.83326E-19 3.13603E-18
 -1      3714 5.76977E-05-1.40896E-05-1.86088E-05 4.19239E-07 6.58528E-19 2.06483E-18
 -1      3715 9.52591E-05-2.85759E-05-2.85785E-05-1.87819E-08-8.07092E-19-1.93186E-18
 -1      3716 9.52572E-05-2.85759E-05-2.85777E-05-2.20963E-08 1.33734E-19-9.92319E-20
 -1      3717 9.52606E-05-2.85697E-05-2.85817E-05-1.58166E-08-6.61780E-19-2.92735E-18
 -1      3718 5.69283E-05-1.66428E-05-1.71084E-05-1.45971E-05 1.31617E-18 1.84685E-18
 -1      3719 9.04748E-05-2.10891E-05-2.97284E-05 6.75256E-06-5.35911E-19-3.20347E-18
 -1      3720 8.47459E-05-1.47433E-05-3.00019E-05-2.85920E-06 1.40502E-18-3.77752E-18
 -1      3721 8.35205E-05-1.38350E-05-2.98932E-05-2.32581E-06 1.20075E-18-3.93803E-18
 -1      3722 8.29051E-05-1.42750E-05-2.93833E-05-2.35633E-06 9.26031E-19-3.76269E-18
 -1      3723 9.52542E-05-2.85759E-05-2.85764E-05 2.66581E-08-6.79846E-19-3.25454E-19
 -1      3724 9.52563E-05-2.85709E-05-2.85794E-05 2.37281E-08-7.94693E-19-8.95028E-20
 -1      3725 8.81076E-05-2.62159E-05-2.65180E-05 1.49491E-05 1.02710E-18-2.76913E-18
 -1      3726 8.93684E-05-2.87768E-05-2.59682E-05 1.69613E-05 1.20407E-18-2.71909E-18
 -1      3727 8.86699E-05-3.34882E-05-2.35131E-05-2.19067E-05 1.91589E-18-9.96309E-19
 -1      3728 7.21316E-05-1.98938E-05-2.24648E-05 1.53017E-05 1.46558E-18-3.54830E-18
 -1      3729 6.72325E-05-1.60183E-05-2.18977E-05 9.02533E-06 9.54064E-19-3.94544E-18
 -1      3730 9.33330E-05-3.01839E-05-2.69898E-05-1.53964E-05-9.29455E-19-2.09885E-18
 -1      3731 9.16340E-05-2.77376E-05-2.73728E-05-1.40348E-05-4.90340E-19-2.33697E-18
 -1      3732 8.99380E-05-2.46186E-05-2.80094E-05 8.81576E-06-1.41307E-18 4.21699E-19
 -1      3733 9.01012E-05-2.51305E-05-2.78165E-05 9.65125E-06-5.65136E-19 4.04758E-19
 -1      3734 8.80568E-05-2.70503E-05-2.60711E-05-1.39674E-05 1.08740E-18-1.00691E-18
 -1      3735 8.71563E-05-2.55291E-05-2.64301E-05-1.25885E-05 8.96656E-19-1.23433E-18
 -1      3736 8.76539E-05-2.47840E-05-2.69068E-05-1.10762E-05 9.36756E-19-9.18196E-19
 -1      3737 8.74862E-05-2.40396E-05-2.72156E-05-9.97656E-06 6.38629E-19-5.50090E-19
 -1      3738 8.44831E-05-2.34723E-05-2.61318E-05-1.14769E-05 9.41558E-19-5.37687E-19
 -1      3739 8.81506E-05-2.37578E-05-2.75731E-05-8.86232E-06 1.16171E-19-6.37916E-19
 -1      3740 8.83014E-05-2.34728E-05-2.78050E-05-7.99293E-06-7.66929E-20-7.78460E-19
 -1      3741 8.56942E-05-2.26312E-05-2.70119E-05-8.85316E-06 3.98424E-19-8.74229E-19
 -1      3742 8.89945E-05-2.34883E-05-2.80610E-05-7.16059E-06 1.15591E-20-6.90633E-19
 -1      3743 8.92944E-05-2.34817E-05-2.82232E-05-6.45646E-06 2.72561E-19-6.20882E-19
 -1      3744 8.70817E-05-2.25180E-05-2.76548E-05-6.97580E-06 2.20729E-20-1.18623E-18
 -1      3745 8.99530E-05-2.36705E-05-2.83994E-05-5.81009E-06 5.96382E-19-7.11799E-19
 -1      3746 9.03022E-05-2.38245E-05-2.85052E-05-5.22622E-06 8.49142E-21-8.60533E-19
 -1      3747 8.84405E-05-2.28226E-05-2.81075E-05-5.56851E-06 3.94371E-19-9.22445E-19
 -1      3748 9.08966E-05-2.41050E-05-2.86207E-05-4.70819E-06-8.86307E-19-4.47864E-19
 -1      3749 9.12413E-05-2.43419E-05-2.86835E-05-4.21648E-06-9.49216E-19-5.12683E-19
 -1      3750 8.96918E-05-2.33623E-05-2.84141E-05-4.47002E-06 1.32481E-19-1.40762E-18
 -1      3751 9.17593E-05-2.46599E-05-2.87541E-05-3.79284E-06-1.26269E-18-6.73723E-19
 -1      3752 9.20723E-05-2.49293E-05-2.87858E-05-3.37676E-06-6.64696E-19-1.09701E-18
 -1      3753 9.07987E-05-2.40130E-05-2.86114E-05-3.58487E-06-1.18647E-18-1.60668E-18
 -1      3754 9.25111E-05-2.52492E-05-2.88245E-05-3.02734E-06 3.47029E-20-1.15858E-18
 -1      3755 9.27808E-05-2.55194E-05-2.88348E-05-2.67637E-06 7.40454E-19-1.68829E-18
 -1      3756 9.17489E-05-2.46927E-05-2.87291E-05-2.85874E-06-5.95875E-19-1.12821E-18
 -1      3757 9.31438E-05-2.58198E-05-2.88515E-05-2.38802E-06 7.84728E-19-2.65615E-18
 -1      3758 9.33678E-05-2.60721E-05-2.88480E-05-2.09461E-06 4.02498E-19-2.09983E-18
 -1      3759 9.25441E-05-2.53482E-05-2.87907E-05-2.25859E-06 1.48604E-19-2.08316E-18
 -1      3760 9.36621E-05-2.63414E-05-2.88502E-05-1.85811E-06-1.72136E-20-1.73522E-18
 -1      3761 9.38428E-05-2.65664E-05-2.88385E-05-1.61585E-06-1.53190E-19-1.51902E-18
 -1      3762 9.31956E-05-2.59483E-05-2.88142E-05-1.76317E-06 3.48904E-19-1.93045E-18
 -1      3763 9.40769E-05-2.67996E-05-2.88318E-05-1.42387E-06-4.04351E-19-1.86963E-18
 -1      3764 9.42193E-05-2.69932E-05-2.88158E-05-1.22670E-06-5.04025E-19-1.69795E-18
 -1      3765 9.37189E-05-2.64773E-05-2.88131E-05-1.35724E-06-2.60383E-19-1.37568E-18
 -1      3766 9.44019E-05-2.71896E-05-2.88041E-05-1.07284E-06-5.26103E-19-7.67888E-19
 -1      3767 9.45117E-05-2.73518E-05-2.87865E-05-9.14824E-07-2.19335E-21-9.04838E-19
 -1      3768 9.41316E-05-2.69300E-05-2.87970E-05-1.02833E-06 2.64005E-21-5.03716E-19
 -1      3769 9.46517E-05-2.75134E-05-2.87725E-05-7.93280E-07 4.16345E-19-1.51115E-18
 -1      3770 9.47345E-05-2.76461E-05-2.87551E-05-6.68637E-07 4.98724E-19-8.79497E-19
 -1      3771 9.44511E-05-2.73077E-05-2.87729E-05-7.65390E-07-4.85511E-21-8.24972E-19
 -1      3772 9.48398E-05-2.77762E-05-2.87406E-05-5.74084E-07-1.73717E-19-8.62586E-19
 -1      3773 9.49009E-05-2.78826E-05-2.87244E-05-4.77366E-07-8.65242E-19-7.97398E-19
 -1      3774 9.46939E-05-2.76161E-05-2.87455E-05-5.58244E-07 5.58352E-20-2.27047E-18
 -1      3775 9.49784E-05-2.79854E-05-2.87105E-05-4.04996E-07-7.34655E-19 3.62106E-19
 -1      3776 9.50225E-05-2.80690E-05-2.86960E-05-3.31209E-07-7.82859E-19 1.15212E-18
 -1      3777 9.48748E-05-2.78628E-05-2.87179E-05-3.97586E-07-1.41987E-19-4.38682E-19
 -1      3778 9.50782E-05-2.81487E-05-2.86834E-05-2.76766E-07-1.87061E-18 7.93607E-19
 -1      3779 9.51091E-05-2.82132E-05-2.86709E-05-2.21472E-07-1.72318E-18 5.67142E-19
 -1      3780 9.50066E-05-2.80566E-05-2.86918E-05-2.75020E-07-1.53479E-18 9.70651E-19
 -1      3781 9.51481E-05-2.82738E-05-2.86599E-05-1.81272E-07-1.62675E-18 3.18369E-19
 -1      3782 9.51691E-05-2.83227E-05-2.86494E-05-1.40628E-07-1.07415E-18-3.04196E-19
 -1      3783 9.51004E-05-2.82060E-05-2.86683E-05-1.83141E-07-2.05632E-18 2.13415E-19
 -1      3784 9.51954E-05-2.83679E-05-2.86399E-05-1.11554E-07-4.24001E-19-6.77391E-19
 -1      3785 9.52089E-05-2.84042E-05-2.86313E-05-8.23170E-08-3.00628E-19-4.76899E-19
 -1      3786 9.51650E-05-2.83190E-05-2.86478E-05-1.15567E-07-8.65151E-19 1.67105E-18
 -1      3787 9.52259E-05-2.84373E-05-2.86234E-05-6.17891E-08 5.13063E-19-4.55361E-19
 -1      3788 9.52340E-05-2.84636E-05-2.86163E-05-4.12883E-08 2.10196E-18 5.40017E-19
 -1      3789 9.52079E-05-2.84028E-05-2.86304E-05-6.69206E-08 3.58407E-19 1.51145E-18
 -1      3790 9.52442E-05-2.84873E-05-2.86099E-05-2.72123E-08 1.63558E-18 9.22377E-19
 -1      3791 9.52486E-05-2.85061E-05-2.86042E-05-1.32933E-08 1.96053E-18 6.20485E-19
 -1      3792 9.52347E-05-2.84637E-05-2.86159E-05-3.27735E-08 1.80386E-18 6.69001E-19
 -1      3793 9.52540E-05-2.85227E-05-2.85989E-05-3.99602E-09 2.46614E-18 5.85902E-19
 -1      3794 9.52558E-05-2.85359E-05-2.85944E-05 5.04068E-09 2.10967E-18 7.40387E-19
 -1      3795 9.52501E-05-2.85071E-05-2.86040E-05-9.53614E-09 2.03072E-18 2.90166E-19
 -1      3796 9.52579E-05-2.85473E-05-2.85901E-05 1.07869E-08 1.46342E-18 5.73580E-19
 -1      3797 9.52581E-05-2.85565E-05-2.85865E-05 1.63618E-08 1.37116E-18 5.11423E-19
 -1      3798 9.52575E-05-2.85374E-05-2.85943E-05 5.56233E-09 1.46296E-18-3.07416E-19
 -1      3799 9.52576E-05-2.85665E-05-2.85819E-05 2.07301E-08-1.54089E-19-4.19822E-19
 -1      3800 8.98440E-05-2.57087E-05-2.74996E-05 1.07931E-05-9.67482E-19-1.38233E-19
 -1      3801 9.04662E-05-2.67575E-05-2.72543E-05 1.17415E-05-1.15784E-18-7.12301E-19
 -1      3802 8.76421E-05-2.41137E-05-2.72178E-05 1.00670E-05-1.22438E-18-1.51639E-19
 -1      3803 9.52629E-05-2.85608E-05-2.85867E-05-5.13697E-09-8.20109E-20-5.09580E-19
 -1      3804 9.52622E-05-2.85613E-05-2.85862E-05-8.85009E-09-6.17587E-19-1.89802E-18
 -1      3805 7.18823E-05-1.98013E-05-2.23035E-05-1.51538E-05-1.17893E-18-4.77962E-18
 -1      3806 7.85749E-05-2.51503E-05-2.29160E-05-2.00568E-05-1.72761E-18-4.08253E-18
 -1      3807 9.05833E-05-2.79598E-05-2.68516E-05 1.32323E-05-9.22473E-19-7.53042E-19
 -1      3808 9.20080E-05-2.98056E-05-2.65836E-05 1.42543E-05-1.33445E-18-4.16187E-19
 -1      3809 8.74004E-05-2.56498E-05-2.64325E-05 1.28137E-05-1.05776E-18-5.74712E-19
 -1      3810 9.04652E-05-2.42878E-05-2.83764E-05 7.21008E-06-1.48141E-18 4.60963E-20
 -1      3811 9.03840E-05-2.44497E-05-2.82409E-05 7.92502E-06-1.51848E-18 3.00528E-19
 -1      3812 8.83998E-05-2.35088E-05-2.78028E-05 8.01654E-06-1.37810E-18 2.54582E-19
 -1      3813 9.11560E-05-2.44019E-05-2.86221E-05 5.88890E-06-7.93223E-19-2.96398E-19
 -1      3814 9.09622E-05-2.43553E-05-2.85359E-05 6.50260E-06-1.48297E-18-3.81586E-19
 -1      3815 8.93668E-05-2.35024E-05-2.82181E-05 6.45918E-06-1.33701E-18-1.93135E-19
 -1      3816 9.18709E-05-2.47601E-05-2.87734E-05 4.78210E-06-5.50862E-19 3.82787E-19
 -1      3817 9.16404E-05-2.45994E-05-2.87256E-05 5.31152E-06-3.01779E-19 2.98794E-19
 -1      3818 9.03546E-05-2.38347E-05-2.84991E-05 5.22138E-06-9.09495E-19-6.97651E-19
 -1      3819 9.25394E-05-2.52349E-05-2.88548E-05 3.84773E-06 1.15510E-19 9.07880E-19
 -1      3820 9.23120E-05-2.50205E-05-2.88349E-05 4.30304E-06-5.09194E-20 6.16753E-19
 -1      3821 9.12792E-05-2.43442E-05-2.86776E-05 4.20882E-06-5.09019E-19-5.39227E-19
 -1      3822 9.31276E-05-2.57438E-05-2.88872E-05 3.06043E-06-3.18090E-19 1.76800E-18
 -1      3823 9.29230E-05-2.55140E-05-2.88862E-05 3.44855E-06 6.21379E-20 1.21701E-18
 -1      3824 9.21001E-05-2.49272E-05-2.87807E-05 3.36885E-06-2.31501E-19 2.28496E-19
 -1      3825 9.36241E-05-2.62370E-05-2.88873E-05 2.40200E-06 1.68044E-19 1.38894E-18
 -1      3826 9.34502E-05-2.60148E-05-2.88981E-05 2.72872E-06 1.81379E-19 1.81404E-18
 -1      3827 9.28016E-05-2.55150E-05-2.88306E-05 2.66941E-06-2.70424E-19-2.99879E-19
 -1      3828 9.40305E-05-2.66869E-05-2.88674E-05 1.85754E-06-4.93702E-19 1.10410E-18
 -1      3829 9.38883E-05-2.64847E-05-2.88849E-05 2.12855E-06-9.44021E-20 1.15798E-18
 -1      3830 9.33836E-05-2.60670E-05-2.88447E-05 2.08906E-06 5.00062E-20 4.77517E-19
 -1      3831 9.43548E-05-2.70805E-05-2.88366E-05 1.41342E-06 3.70938E-19 1.29948E-19
 -1      3832 9.42419E-05-2.69040E-05-2.88570E-05 1.63469E-06-8.76438E-20 2.36499E-19
 -1      3833 9.38551E-05-2.65613E-05-2.88360E-05 1.61175E-06 2.41489E-19-2.80234E-19
 -1      3834 9.46077E-05-2.74142E-05-2.88011E-05 1.05649E-06 1.13567E-18-1.02326E-18
 -1      3835 9.45205E-05-2.72649E-05-2.88220E-05 1.23425E-06 6.48137E-19-5.51246E-19
 -1      3836 9.42288E-05-2.69887E-05-2.88140E-05 1.22389E-06 1.17672E-18-1.47107E-18
 -1      3837 9.48010E-05-2.76898E-05-2.87649E-05 7.74088E-07 1.11203E-18-1.21800E-18
 -1      3838 9.47351E-05-2.75668E-05-2.87849E-05 9.14552E-07 1.26332E-18-5.13122E-19
 -1      3839 9.45191E-05-2.73480E-05-2.87852E-05 9.13053E-07 1.06347E-18-3.39549E-19
 -1      3840 9.49455E-05-2.79124E-05-2.87308E-05 5.54224E-07 1.45152E-18-1.13761E-19
 -1      3841 9.48969E-05-2.78133E-05-2.87488E-05 6.63382E-07 1.09255E-18-1.14361E-18
 -1      3842 9.47403E-05-2.76430E-05-2.87542E-05 6.67655E-07 8.13795E-19-4.25460E-20
 -1      3843 9.50512E-05-2.80887E-05-2.87000E-05 3.85888E-07 4.80751E-19 2.17952E-18
 -1      3844 9.50162E-05-2.80104E-05-2.87157E-05 4.69277E-07 1.74711E-18 1.03803E-18
 -1      3845 9.49054E-05-2.78802E-05-2.87238E-05 4.76947E-07 4.65687E-19 1.65339E-18
 -1      3846 9.51266E-05-2.82256E-05-2.86731E-05 2.59248E-07 7.99787E-21 1.03482E-18
 -1      3847 9.51021E-05-2.81649E-05-2.86865E-05 3.21820E-07-4.18257E-20 1.12718E-18
 -1      3848 9.50259E-05-2.80672E-05-2.86956E-05 3.31169E-07 1.04794E-18 2.56242E-18
 -1      3849 9.51787E-05-2.83300E-05-2.86504E-05 1.65757E-07 6.12135E-19-6.50167E-19
 -1      3850 9.51622E-05-2.82838E-05-2.86615E-05 2.11813E-07 4.88739E-19 1.95344E-19
 -1      3851 9.51117E-05-2.82119E-05-2.86707E-05 2.21668E-07 6.00365E-19-1.15859E-18
 -1      3852 9.52134E-05-2.84080E-05-2.86315E-05 9.81653E-08-1.66603E-18 7.86797E-19
 -1      3853 9.52028E-05-2.83736E-05-2.86405E-05 1.31345E-07-1.88997E-19-1.50330E-20
 -1      3854 9.51709E-05-2.83218E-05-2.86492E-05 1.40954E-07-1.88497E-19-1.92368E-18
 -1      3855 9.52352E-05-2.84652E-05-2.86162E-05 5.04729E-08-9.18995E-19 1.08681E-18
 -1      3856 9.52289E-05-2.84400E-05-2.86234E-05 7.37828E-08-1.56520E-18 7.73936E-19
 -1      3857 9.52103E-05-2.84036E-05-2.86312E-05 8.27025E-08-1.60933E-18-8.68938E-19
 -1      3858 9.52478E-05-2.85062E-05-2.86039E-05 1.78029E-08-3.26727E-19-3.97392E-19
 -1      3859 9.52445E-05-2.84881E-05-2.86096E-05 3.36755E-08-1.42352E-20 4.57002E-19
 -1      3860 9.52350E-05-2.84632E-05-2.86163E-05 4.16918E-08-2.91834E-19-1.94633E-18
 -1      3861 9.52541E-05-2.85350E-05-2.85941E-05-3.67931E-09 7.38851E-19-1.19841E-18
 -1      3862 9.52528E-05-2.85223E-05-2.85985E-05 6.65632E-09-9.72975E-20-1.19154E-18
 -1      3863 9.52492E-05-2.85059E-05-2.86042E-05 1.36523E-08 4.94713E-19-2.51233E-18
 -1      3864 9.52562E-05-2.85551E-05-2.85863E-05-1.71643E-08 1.50011E-18-1.42994E-18
 -1      3865 9.52560E-05-2.85461E-05-2.85898E-05-1.06845E-08 1.30102E-18-1.05247E-18
 -1      3866 9.52561E-05-2.85358E-05-2.85944E-05-4.66359E-09 5.88751E-19-3.56968E-18
 -1      3867 8.78243E-05-2.99308E-05-2.49205E-05 1.93502E-05 1.59810E-18-2.68001E-18
 -1      3868 9.12986E-05-2.60081E-05-2.79398E-05-1.22265E-05-2.06262E-19-2.51007E-18
 -1      3869 9.04683E-05-2.43257E-05-2.83550E-05-1.08363E-05 9.64617E-20-2.66714E-18
 -1      3870 8.81464E-05-2.49751E-05-2.70897E-05-1.33949E-05-4.41382E-19-2.76980E-18
 -1      3871 8.79424E-05-2.07285E-05-2.88257E-05 8.07596E-06-1.20387E-19-3.12436E-18
 -1      3872 8.81733E-05-2.19750E-05-2.83475E-05 9.54171E-06 1.16989E-19-2.99844E-18
 -1      3873 8.83364E-05-1.95000E-05-2.95033E-05 6.30243E-06-3.43079E-19-3.36449E-18
 -1      3874 9.44674E-05-2.26850E-05-3.07674E-05-4.52425E-06 1.86038E-18-1.98397E-18
 -1      3875 9.37964E-05-2.29384E-05-3.03620E-05-5.85101E-06 1.45164E-18-2.15087E-18
 -1      3876 9.27615E-05-3.18524E-05-2.61188E-05 1.61350E-05-1.64757E-18-1.15126E-19
 -1      3877 9.55115E-05-3.49750E-05-2.59212E-05 1.72292E-05-1.56521E-18-3.90380E-20
 -1      3878 8.82326E-05-2.86540E-05-2.54598E-05 1.64050E-05-1.21277E-18-4.50724E-19
 -1      3879 6.61577E-05-1.91606E-05-1.98076E-05 1.61257E-05-1.16996E-18-1.69883E-19
 -1      3880 6.38426E-05-1.68979E-05-2.01303E-05 1.06414E-05-6.99087E-19 5.66255E-19
 -1      3881 1.02188E-04-4.09859E-05-2.60075E-05-1.99366E-05-2.24424E-18-1.51249E-18
 -1      3882 8.53156E-05-3.00485E-05-2.35517E-05-2.19357E-05-1.94458E-18-3.37695E-18
 -1      3883 9.43447E-05-3.66995E-05-2.48424E-05-2.20436E-05-2.07060E-18-2.43126E-18
 -1      3884 9.72902E-05-3.63498E-05-2.60592E-05-1.88508E-05-1.79388E-18-2.07559E-18
 -1      3885 8.43115E-05-2.70097E-05-2.44273E-05-1.83711E-05-1.34064E-18-3.54084E-18
 -1      3886 8.81105E-05-1.73742E-05-3.03125E-05-3.81770E-06 1.61275E-18-3.31393E-18
 -1      3887 8.63290E-05-1.60097E-05-3.01619E-05-3.53495E-06 1.42125E-18-3.51375E-18
 -1      3888 8.55446E-05-1.63122E-05-2.96516E-05-4.14671E-06 1.15223E-18-3.58878E-18
 -1      3889 7.92264E-05-2.36030E-05-2.36508E-05 1.76505E-05 1.55479E-18-3.47373E-18
 -1      3890 9.52539E-05-2.85763E-05-2.85761E-05-2.69215E-08 3.83772E-19 1.49578E-18
 -1      3891 8.32743E-05-1.37382E-05-2.98240E-05 2.21655E-06 2.43003E-19-3.87326E-18
 -1      3892 8.44049E-05-1.45764E-05-2.99288E-05 2.76773E-06-1.34532E-19-3.92742E-18
 -1      3893 8.48837E-05-1.60386E-05-2.94973E-05 4.08975E-06-9.73840E-20-3.66004E-18
 -1      3894 6.21627E-05-1.71449E-05-1.91267E-05-1.24500E-05 1.28909E-18 1.64020E-18
 -1      3895 8.21256E-05-1.27845E-05-2.97336E-05 4.74587E-07 6.21416E-19-3.90525E-18
 -1      3896 8.25099E-05-1.30792E-05-2.97715E-05 1.19574E-06 3.36490E-19-3.95598E-18
 -1      3897 8.26248E-05-1.42060E-05-2.92833E-05 2.13162E-06 2.24959E-19-3.73821E-18
 -1      3898 8.19040E-05-1.35495E-05-2.92580E-05-1.21454E-07 5.75966E-19-3.65251E-18
 -1      3899 9.43176E-05-3.27009E-05-2.63439E-05-1.75912E-05-1.40345E-18-2.03331E-18
 -1      3900 8.78043E-05-2.31339E-05-2.77364E-05 1.12211E-05 3.77268E-19-2.93552E-18
 -1      3901 8.84068E-05-2.47585E-05-2.72295E-05 1.28315E-05 7.06705E-19-2.88224E-18
 -1      3902 8.53201E-05-2.07697E-05-2.76491E-05 9.93262E-06 2.49317E-19-3.14980E-18
 -1      3903 8.93334E-05-1.92263E-05-3.00294E-05-5.17561E-06 1.27224E-18-3.10014E-18
 -1      3904 8.04032E-05-2.86968E-05-2.21684E-05-2.22295E-05 2.20801E-18-8.69400E-19
 -1      3905 8.91224E-05-3.11297E-05-2.46934E-05-1.84483E-05 1.73486E-18-4.95819E-19
 -1      3906 9.52594E-05-2.85607E-05-2.85852E-05 1.60502E-08 1.83724E-19-6.87057E-19
 -1      3907 9.52561E-05-2.85716E-05-2.85791E-05-2.42655E-08-4.20327E-19 5.20216E-19
 -1      3908 9.20147E-05-2.20917E-05-2.99800E-05-6.60335E-06 1.15744E-18-2.71426E-18
 -1      3909 8.92417E-05-2.92240E-05-2.57766E-05-1.76952E-05-1.15862E-18-2.76766E-18
 -1      3910 8.27085E-05-1.52574E-05-2.89035E-05-3.50816E-06 7.11578E-19-3.74005E-18
 -1      3911 8.16508E-05-1.45344E-05-2.87977E-05-2.38083E-06 6.06083E-19-3.77799E-18
 -1      3912 9.07685E-05-2.34013E-05-2.88518E-05-9.43679E-06 4.09570E-19-2.77315E-18
 -1      3913 9.06407E-05-2.24188E-05-2.92380E-05-8.25395E-06 6.99342E-19-2.91965E-18
 -1      3914 8.81982E-05-2.23452E-05-2.82118E-05-1.01506E-05 1.30544E-19-3.07290E-18
 -1      3915 8.46364E-05-2.32773E-05-2.62571E-05 1.36816E-05 9.23938E-19-2.98658E-18
 -1      3916 9.52610E-05-2.85598E-05-2.85863E-05 1.23975E-08-1.03231E-19-7.53365E-19
 -1      3917 7.84320E-05-2.13610E-05-2.44450E-05 1.40096E-05 1.10659E-18-3.43363E-18
 -1      3918 9.52619E-05-2.85542E-05-2.85889E-05-8.58754E-09-1.09095E-18-1.59912E-18
 -1      3919 9.52618E-05-2.85631E-05-2.85852E-05-1.18602E-08-1.30111E-18-2.61833E-18
 -1      3920 9.52605E-05-2.85642E-05-2.85843E-05-1.53918E-08-1.56688E-18-1.93545E-18
 -1      3921 7.22114E-05-1.63468E-05-2.39513E-05 6.87614E-06 7.81064E-19-3.57574E-18
 -1      3922 6.77997E-05-1.48547E-05-2.25708E-05 4.81174E-06 6.95111E-19-4.13963E-18
 -1      3923 6.97222E-05-1.48866E-05-2.35554E-05 2.91835E-07 2.94969E-19-4.17057E-18
 -1      3924 8.70056E-05-2.84366E-05-2.50796E-05-1.66750E-05 1.75194E-18-5.61637E-19
 -1      3925 9.52570E-05-2.85656E-05-2.85819E-05-2.10790E-08 3.01722E-20 8.79493E-20
 -1      3926 7.07595E-05-1.72684E-05-2.28017E-05-1.10881E-05-6.85185E-19-4.70123E-18
 -1      3927 7.64263E-05-1.96363E-05-2.42919E-05-1.22643E-05-8.06657E-19-4.09881E-18
 -1      3928 7.10817E-05-1.60032E-05-2.36480E-05-6.38887E-06-7.59286E-20-4.26036E-18
 -1      3929 9.52630E-05-2.85602E-05-2.85870E-05-1.87750E-09 3.86190E-19 7.59460E-19
 -1      3930 9.52626E-05-2.85516E-05-2.85902E-05-2.85433E-09 7.98442E-19 6.74682E-19
 -1      3931 9.52631E-05-2.85603E-05-2.85870E-05 1.75764E-09 1.16079E-18 8.73206E-19
 -1      3932 6.79102E-05-1.73422E-05-2.16415E-05 8.99161E-06-9.20010E-19-3.39786E-19
 -1      3933 6.35699E-05-1.51563E-05-2.05243E-05 5.55857E-06-1.27001E-19 1.05714E-18
 -1      3934 9.52589E-05-2.85598E-05-2.85853E-05-1.61875E-08-1.09186E-18-1.89032E-18
 -1      3935 9.02835E-05-2.14298E-05-2.94957E-05-7.26892E-06 9.47152E-19-3.08745E-18
 -1      3936 8.96422E-05-2.01885E-05-2.97611E-05-6.11745E-06 1.04437E-18-3.19197E-18
 -1      3937 8.75008E-05-1.86040E-05-2.95481E-05-5.80414E-06 9.85452E-19-3.27469E-18
 -1      3938 8.81368E-05-2.04736E-05-2.89890E-05-7.78161E-06 6.13985E-19-3.39005E-18
 -1      3939 8.61998E-05-1.85221E-05-2.89862E-05 6.48839E-06-1.43052E-19-3.38301E-18
 -1      3940 1.30506E-04-5.10825E-05-3.41859E-05-4.78228E-06-5.64303E-19-3.59301E-18
 -1      3941 8.27149E-05-2.53654E-05-2.46160E-05-1.57446E-05 1.17623E-18-5.85356E-19
 -1      3942 9.52626E-05-2.85684E-05-2.85831E-05 8.27691E-09 1.23357E-18-8.37663E-19
 -1      3943 8.59998E-05-3.39484E-05-2.20293E-05 2.51206E-05-1.80061E-18-1.07146E-18
 -1      3944 7.96085E-05-2.89621E-05-2.17017E-05 2.26515E-05-1.34226E-18-1.32929E-18
 -1      3945 9.13999E-05-3.68186E-05-2.33021E-05 2.35732E-05-1.65204E-18 4.67618E-19
 -1      3946 7.12924E-05-2.21219E-05-2.10037E-05 1.83920E-05-1.33718E-18-1.08195E-18
 -1      3947 8.75381E-05-3.14405E-05-2.38789E-05 2.07011E-05-1.34802E-18-2.25036E-19
 -1      3948 9.40854E-05-3.59518E-05-2.49199E-05 1.97579E-05-1.25235E-18-1.81184E-19
 -1      3949 6.65826E-05-1.55702E-05-2.18150E-05 2.31948E-07 4.63119E-19 3.14428E-19
 -1      3950 6.22382E-05-1.48772E-05-2.03073E-05 7.98719E-07 3.51529E-19 1.21842E-18
 -1      3951 6.24098E-05-1.48247E-05-2.01529E-05-5.53177E-06 9.15504E-19 1.31763E-18
 -1      3952 7.42178E-05-2.36276E-05-2.17305E-05-1.84067E-05 2.07793E-18-1.28905E-18
 -1      3953 8.10418E-05-1.40917E-05-2.87013E-05-8.25044E-07 5.62557E-19-3.69708E-18
 -1      3954 8.09236E-05-1.40652E-05-2.86689E-05 3.61869E-07 3.50816E-19-3.53748E-18
 -1      3955 8.08477E-05-1.49360E-05-2.82070E-05-2.01391E-06 3.57153E-19-3.66505E-18
 -1      3956 6.41668E-05-1.68375E-05-2.03176E-05-1.01316E-05 1.45130E-18 9.63765E-19
 -1      3957 6.93989E-05-2.00667E-05-2.10328E-05-1.57926E-05 2.28649E-18-5.88979E-19
 -1      3958 7.63702E-05-2.28759E-05-2.27821E-05-1.60336E-05 1.89261E-18-6.89270E-19
 -1      3959 6.87214E-05-1.74091E-05-2.19195E-05-8.65690E-06 1.09911E-18 2.45507E-19
 -1      3960 1.27308E-04-5.33434E-05-3.13638E-05 3.41569E-06-2.11594E-18-2.94767E-18
 -1      3961 8.42652E-05-1.71557E-05-2.87818E-05 5.61087E-06 9.30289E-20-3.46806E-18
 -1      3962 8.33866E-05-2.14665E-05-2.65217E-05-8.09321E-06 3.86171E-19-8.90055E-19
 -1      3963 8.40992E-05-2.13883E-05-2.69138E-05-7.08477E-06 1.66223E-19-1.43104E-18
 -1      3964 8.53240E-05-2.15888E-05-2.73067E-05-6.27742E-06 1.92330E-19-1.40113E-18
 -1      3965 8.60362E-05-2.17315E-05-2.75865E-05-5.54134E-06 3.25423E-19-1.01040E-18
 -1      3966 8.32937E-05-2.05265E-05-2.68655E-05-5.52358E-06 2.54195E-19-1.36533E-18
 -1      3967 8.70703E-05-2.20557E-05-2.78604E-05-4.96157E-06 4.34812E-19-1.49477E-18
 -1      3968 8.77388E-05-2.23271E-05-2.80538E-05-4.40069E-06 2.79536E-19-1.32576E-18
 -1      3969 8.55334E-05-2.11893E-05-2.75484E-05-4.27569E-06 2.26841E-19-2.00518E-18
 -1      3970 8.86079E-05-2.27118E-05-2.82409E-05-3.96150E-06 6.59035E-20-1.57795E-18
 -1      3971 8.92086E-05-2.30499E-05-2.83693E-05-3.51546E-06-3.21414E-19-2.26478E-18
 -1      3972 8.74151E-05-2.19849E-05-2.80207E-05-3.37748E-06-3.58442E-20-2.09094E-18
 -1      3973 8.99393E-05-2.34581E-05-2.84926E-05-3.17127E-06-7.49960E-19-1.89879E-18
 -1      3974 9.04610E-05-2.38193E-05-2.85730E-05-2.80733E-06-8.15154E-19-1.36729E-18
 -1      3975 8.89999E-05-2.28352E-05-2.83395E-05-2.68318E-06-2.74112E-19-2.98399E-18
 -1      3976 9.10684E-05-2.42205E-05-2.86502E-05-2.53130E-06-9.19429E-19-1.07073E-18
 -1      3977 9.15096E-05-2.45748E-05-2.86961E-05-2.22991E-06-6.72178E-19-1.37933E-18
 -1      3978 9.03249E-05-2.36862E-05-2.85461E-05-2.13569E-06-9.24164E-19-1.56265E-18
 -1      3979 9.20091E-05-2.49497E-05-2.87407E-05-2.00516E-06-5.28912E-19-1.94818E-18
 -1      3980 9.23738E-05-2.52791E-05-2.87628E-05-1.75473E-06-2.49360E-19-2.65036E-18
 -1      3981 9.14207E-05-2.44936E-05-2.86723E-05-1.69192E-06-1.07814E-18-2.71448E-18
 -1      3982 9.27793E-05-2.56165E-05-2.87848E-05-1.57129E-06 4.98281E-19-2.73229E-18
 -1      3983 9.30748E-05-2.59107E-05-2.87910E-05-1.36417E-06 3.89475E-19-2.45289E-18
 -1      3984 9.23165E-05-2.52314E-05-2.87422E-05-1.32836E-06 6.76131E-20-3.12575E-18
 -1      3985 9.33992E-05-2.62051E-05-2.87979E-05-1.21519E-06-1.17008E-19-2.19589E-18
 -1      3986 9.36342E-05-2.64599E-05-2.87941E-05-1.04557E-06 1.65123E-19-1.62737E-18
 -1      3987 9.30389E-05-2.58847E-05-2.87737E-05-1.03060E-06 8.41631E-19-2.34640E-18
 -1      3988 9.38897E-05-2.67101E-05-2.87915E-05-9.25720E-07 1.44778E-19-1.42269E-18
 -1      3989 9.40732E-05-2.69251E-05-2.87818E-05-7.88538E-07 3.91503E-19-1.09549E-18
 -1      3990 9.36129E-05-2.64477E-05-2.87798E-05-7.88378E-07 4.53808E-19-2.54272E-18
 -1      3991 9.42713E-05-2.71330E-05-2.87736E-05-6.93303E-07 2.08854E-19-5.79316E-19
 -1      3992 9.44119E-05-2.73104E-05-2.87610E-05-5.83936E-07-3.54821E-19-1.17655E-18
 -1      3993 9.40617E-05-2.69216E-05-2.87703E-05-5.93423E-07 3.39612E-19-2.29245E-18
 -1      3994 9.45628E-05-2.74796E-05-2.87499E-05-5.09310E-07-4.41319E-19-1.03039E-18
 -1      3995 9.46686E-05-2.76229E-05-2.87363E-05-4.23440E-07 2.28688E-19-1.34533E-18
 -1      3996 9.44068E-05-2.73120E-05-2.87519E-05-4.38541E-07 2.34688E-20-1.05882E-18
 -1      3997 9.47813E-05-2.77580E-05-2.87242E-05-3.65847E-07 5.74251E-19-1.74149E-18
 -1      3998 9.48593E-05-2.78717E-05-2.87109E-05-2.99499E-07 1.65069E-19-6.32518E-19
 -1      3999 9.46675E-05-2.76274E-05-2.87292E-05-3.17264E-07 1.71603E-19-1.37533E-18
 -1      4000 9.49419E-05-2.79775E-05-2.86989E-05-2.55775E-07-9.70770E-19-1.27421E-19
 -1      4001 9.49980E-05-2.80660E-05-2.86866E-05-2.05367E-07-1.98458E-18-7.36072E-20
 -1      4002 9.48607E-05-2.78775E-05-2.87054E-05-2.23769E-07 9.66917E-20-2.41459E-18
 -1      4003 9.50570E-05-2.81474E-05-2.86754E-05-1.72753E-07-1.93818E-18 5.97355E-19
 -1      4004 9.50963E-05-2.82150E-05-2.86644E-05-1.35138E-07-1.36502E-18 1.23930E-18
 -1      4005 9.50007E-05-2.80722E-05-2.86824E-05-1.52879E-07-1.57142E-18-8.44378E-19
 -1      4006 9.51373E-05-2.82765E-05-2.86545E-05-1.11277E-07-1.33033E-18 1.69589E-18
 -1      4007 9.51638E-05-2.83272E-05-2.86450E-05-8.37556E-08-5.98493E-19 1.71087E-18
 -1      4008 9.50995E-05-2.82210E-05-2.86614E-05-1.00082E-07-6.19359E-19 1.41292E-18
 -1      4009 9.51913E-05-2.83727E-05-2.86364E-05-6.66764E-08-3.20126E-19 1.83631E-18
 -1      4010 9.52084E-05-2.84099E-05-2.86284E-05-4.69863E-08 7.78518E-19 1.54539E-18
 -1      4011 9.51670E-05-2.83326E-05-2.86428E-05-6.15267E-08-6.05008E-19 1.19094E-18
 -1      4012 9.52258E-05-2.84430E-05-2.86211E-05-3.50777E-08 1.31899E-18 1.14847E-18
 -1      4013 9.52361E-05-2.84698E-05-2.86145E-05-2.13690E-08 1.63498E-18 5.37303E-19
 -1      4014 9.52113E-05-2.84147E-05-2.86267E-05-3.39939E-08 3.97608E-19 1.27682E-18
 -1      4015 9.52463E-05-2.84932E-05-2.86084E-05-1.33488E-08 1.60415E-18 4.30181E-19
 -1      4016 9.52518E-05-2.85121E-05-2.86029E-05-4.13421E-09 1.53340E-18 4.33391E-19
 -1      4017 9.52385E-05-2.84738E-05-2.86132E-05-1.48853E-08 1.17133E-18 6.70038E-19
 -1      4018 9.52569E-05-2.85285E-05-2.85978E-05 1.17188E-09 1.00214E-18-5.00845E-19
 -1      4019 9.52593E-05-2.85417E-05-2.85934E-05 6.91560E-09 7.21058E-19-1.26346E-18
 -1      4020 9.52535E-05-2.85154E-05-2.86019E-05-2.04164E-09 6.08797E-19-4.74969E-19
 -1      4021 8.54841E-05-2.24980E-05-2.70355E-05 8.51290E-06-1.47879E-18-7.94369E-19
 -1      4022 8.50951E-05-2.28806E-05-2.66717E-05 9.68920E-06-1.36032E-18-7.30611E-19
 -1      4023 8.07356E-05-2.12773E-05-2.55149E-05 1.25520E-05 9.15095E-19-3.28850E-18
 -1      4024 7.52974E-05-1.76688E-05-2.45455E-05 1.01556E-05 7.43663E-19-3.46789E-18
 -1      4025 7.49985E-05-1.66013E-05-2.50531E-05 6.47308E-06 6.14158E-19-3.46306E-18
 -1      4026 8.11684E-05-1.99315E-05-2.63075E-05 1.04837E-05 5.76958E-19-3.20433E-18
 -1      4027 7.19654E-05-1.89678E-05-2.25094E-05 1.23715E-05-9.56381E-19-1.28569E-18
 -1      4028 7.07198E-05-1.75946E-05-2.28260E-05 7.77741E-06-7.72123E-19-5.24748E-19
 -1      4029 8.57872E-05-1.74305E-05-2.92941E-05-5.24399E-06 9.66223E-19-3.49618E-18
 -1      4030 8.40563E-05-1.61798E-05-2.91181E-05-4.51463E-06 8.11144E-19-3.65200E-18
 -1      4031 8.28432E-05-1.62336E-05-2.85211E-05-4.70298E-06 5.53220E-19-3.58719E-18
 -1      4032 8.59798E-05-1.83218E-05-2.89976E-05-6.21730E-06 6.64129E-19-3.54543E-18
 -1      4033 9.52598E-05-2.85517E-05-2.85891E-05-1.15719E-08-1.06951E-18-2.78242E-18
 -1      4034 8.96566E-05-2.33773E-05-2.84214E-05 4.31414E-06-8.71063E-19-1.63882E-18
 -1      4035 8.91660E-05-2.31197E-05-2.83025E-05 4.83328E-06-8.32358E-19-1.07695E-18
 -1      4036 9.07769E-05-2.40387E-05-2.86150E-05 3.45617E-06-5.96282E-19-1.11787E-18
 -1      4037 9.03323E-05-2.37315E-05-2.85418E-05 3.88424E-06-9.51939E-19-1.31216E-18
 -1      4038 8.92679E-05-2.30464E-05-2.83660E-05 3.50732E-06-9.74090E-19-2.65428E-18
 -1      4039 9.17346E-05-2.47221E-05-2.87300E-05 2.75222E-06-1.04293E-19-7.07518E-19
 -1      4040 9.13487E-05-2.44046E-05-2.86898E-05 3.10922E-06 3.31608E-20-4.12728E-19
 -1      4041 9.05049E-05-2.38146E-05-2.85694E-05 2.79625E-06-6.22881E-19-1.96294E-18
 -1      4042 9.25344E-05-2.53776E-05-2.87900E-05 2.17073E-06-7.67466E-19 8.66460E-20
 -1      4043 9.22103E-05-2.50738E-05-2.87725E-05 2.46875E-06-3.88823E-19-6.49117E-20
 -1      4044 9.15425E-05-2.45696E-05-2.86927E-05 2.21851E-06-6.79738E-19-4.39370E-19
 -1      4045 9.31889E-05-2.59759E-05-2.88125E-05 1.69137E-06 2.41200E-19-2.11510E-20
 -1      4046 9.29237E-05-2.56995E-05-2.88101E-05 1.93863E-06-1.89232E-19 6.27640E-20
 -1      4047 9.23988E-05-2.52738E-05-2.87598E-05 1.74460E-06-4.98760E-19 3.75306E-19
 -1      4048 9.37144E-05-2.65020E-05-2.88109E-05 1.29933E-06 7.24991E-19-1.15524E-18
 -1      4049 9.35021E-05-2.62598E-05-2.88178E-05 1.50231E-06 6.06754E-19-5.37931E-19
 -1      4050 9.30939E-05-2.59058E-05-2.87885E-05 1.35594E-06 7.54959E-19-4.45943E-19
 -1      4051 9.41286E-05-2.69514E-05-2.87947E-05 9.82326E-07 1.62261E-18-1.31554E-18
 -1      4052 9.39622E-05-2.67453E-05-2.88068E-05 1.14677E-06 1.39902E-18-9.02799E-19
 -1      4053 9.36488E-05-2.64555E-05-2.87922E-05 1.03930E-06 9.69601E-19-1.90204E-18
 -1      4054 9.44492E-05-2.73258E-05-2.87707E-05 7.29426E-07 7.94389E-19 2.15636E-19
 -1      4055 9.43213E-05-2.71547E-05-2.87852E-05 8.60730E-07 9.98145E-19-3.77821E-19
 -1      4056 9.40843E-05-2.69214E-05-2.87803E-05 7.84052E-07 1.01651E-18-4.41760E-19
 -1      4057 9.46928E-05-2.76311E-05-2.87435E-05 5.30613E-07 5.22381E-20 8.66271E-19
 -1      4058 9.45964E-05-2.74921E-05-2.87585E-05 6.33848E-07 7.05905E-19 5.31189E-19
 -1      4059 9.44203E-05-2.73073E-05-2.87598E-05 5.80921E-07 3.95275E-19 2.86423E-19
 -1      4060 9.48742E-05-2.78750E-05-2.87160E-05 3.76746E-07 1.91441E-19 1.54847E-18
 -1      4061 9.48031E-05-2.77643E-05-2.87305E-05 4.56615E-07-4.65950E-20 5.51883E-19
 -1      4062 9.46749E-05-2.76205E-05-2.87355E-05 4.21573E-07 1.47237E-19 5.39681E-19
 -1      4063 9.50065E-05-2.80664E-05-2.86902E-05 2.59616E-07 2.06755E-18 1.64834E-21
 -1      4064 9.49552E-05-2.79798E-05-2.87034E-05 3.20375E-07 1.87564E-18 1.45197E-18
 -1      4065 9.48640E-05-2.78697E-05-2.87102E-05 2.98486E-07 1.21150E-18 1.08410E-20
 -1      4066 9.51005E-05-2.82136E-05-2.86670E-05 1.72010E-07 6.44168E-19-9.57448E-19
 -1      4067 9.50646E-05-2.81472E-05-2.86785E-05 2.17413E-07 1.47327E-18-4.10304E-19
 -1      4068 9.50014E-05-2.80645E-05-2.86861E-05 2.04957E-07 1.55757E-18 1.31785E-19
 -1      4069 9.51653E-05-2.83249E-05-2.86467E-05 1.07736E-07-5.05171E-19-1.46185E-18
 -1      4070 9.51410E-05-2.82749E-05-2.86566E-05 1.41007E-07 3.44529E-19-1.24177E-18
 -1      4071 9.50987E-05-2.82139E-05-2.86641E-05 1.35133E-07 5.31730E-19 2.21048E-19
 -1      4072 9.52082E-05-2.84073E-05-2.86296E-05 6.15875E-08-1.21517E-18-2.79840E-18
 -1      4073 9.51925E-05-2.83704E-05-2.86378E-05 8.54363E-08-1.01550E-18-2.28764E-18
 -1      4074 9.51655E-05-2.83264E-05-2.86448E-05 8.40006E-08 1.26523E-19-1.68710E-18
 -1      4075 9.52350E-05-2.84671E-05-2.86153E-05 2.93052E-08-4.47536E-19-3.18434E-18
 -1      4076 9.52256E-05-2.84404E-05-2.86220E-05 4.59515E-08-1.33813E-18-3.27046E-18
 -1      4077 9.52095E-05-2.84094E-05-2.86283E-05 4.73585E-08-7.57844E-19-3.35027E-18
 -1      4078 9.52503E-05-2.85095E-05-2.86035E-05 7.37978E-09 8.54593E-19-2.18692E-18
 -1      4079 9.52453E-05-2.84906E-05-2.86090E-05 1.87199E-08 1.28358E-18-1.96436E-18
 -1      4080 9.52368E-05-2.84695E-05-2.86144E-05 2.18759E-08-8.60407E-20-2.15746E-18
 -1      4081 9.52580E-05-2.85394E-05-2.85939E-05-6.84070E-09 5.76897E-19-2.51215E-18
 -1      4082 9.52558E-05-2.85260E-05-2.85983E-05 5.59844E-10 8.18975E-19-2.70507E-18
 -1      4083 9.52521E-05-2.85119E-05-2.86028E-05 4.58500E-09 1.35730E-18-1.40909E-18
 -1      4084 8.06054E-05-2.31005E-05-2.47438E-05 1.29894E-05-1.27198E-18-1.18389E-18
 -1      4085 8.09428E-05-2.46848E-05-2.41212E-05 1.51934E-05-1.29349E-18-8.66141E-19
 -1      4086 8.48223E-05-2.33915E-05-2.62593E-05-1.33973E-05-7.53546E-19-3.39305E-18
 -1      4087 8.44633E-05-2.18365E-05-2.68889E-05-1.15097E-05-3.13448E-19-3.36190E-18
 -1      4088 8.32784E-05-2.25659E-05-2.60810E-05 1.03602E-05-1.19666E-18-9.12802E-19
 -1      4089 8.30535E-05-2.34260E-05-2.55883E-05 1.20077E-05-1.34964E-18-1.23615E-18
 -1      4090 7.73818E-05-1.98731E-05-2.45208E-05 9.80868E-06-1.28751E-18-1.43348E-18
 -1      4091 8.16035E-05-2.09208E-05-2.59470E-05 8.54092E-06-1.09804E-18-1.66634E-18
 -1      4092 1.00076E-04-4.03059E-05-2.55308E-05 1.94021E-05-1.99238E-18 4.15577E-19
 -1      4093 8.34489E-05-2.46251E-05-2.52239E-05-1.59220E-05-1.04202E-18-3.53583E-18
 -1      4094 8.12924E-05-1.44391E-05-2.86882E-05 2.07853E-06 3.64211E-19-3.66167E-18
 -1      4095 8.20922E-05-1.50324E-05-2.87370E-05 3.19343E-06 1.77783E-19-3.70425E-18
 -1      4096 8.03842E-05-1.47290E-05-2.81050E-05 1.42223E-06 3.57056E-19-3.51143E-18
 -1      4097 8.14812E-05-2.19530E-05-2.54751E-05-1.06730E-05 7.87031E-19-7.31264E-19
 -1      4098 8.19177E-05-2.14541E-05-2.59665E-05-9.25129E-06 8.96234E-19-9.66008E-19
 -1      4099 8.06663E-05-2.01045E-05-2.58921E-05-7.34453E-06 5.44622E-19-6.31719E-19
 -1      4100 7.78502E-05-2.19747E-05-2.39970E-05-1.32854E-05 1.17683E-18-6.73261E-19
 -1      4101 8.83840E-05-2.28180E-05-2.81197E-05 5.37516E-06-1.31809E-18-1.24510E-18
 -1      4102 8.78731E-05-2.26633E-05-2.79399E-05 6.01780E-06-1.47581E-18-1.29568E-18
 -1      4103 8.78208E-05-2.23297E-05-2.80515E-05 4.40031E-06-1.18962E-18-2.57955E-18
 -1      4104 8.29296E-05-1.71997E-05-2.81581E-05 5.79113E-06 1.48706E-19-3.43924E-18
 -1      4105 7.98258E-05-2.13370E-05-2.50234E-05-1.37703E-05-7.99569E-19-3.92297E-18
 -1      4106 9.52610E-05-2.85503E-05-2.85902E-05 8.45671E-09-8.09500E-20-1.95797E-18
 -1      4107 9.52623E-05-2.85612E-05-2.85863E-05 8.96006E-09-5.68332E-20-1.73364E-18
 -1      4108 9.52629E-05-2.85608E-05-2.85867E-05 5.12921E-09 8.10883E-19-7.90458E-19
 -1      4109 9.52606E-05-2.85430E-05-2.85934E-05 4.44297E-09 1.30414E-20-3.02079E-18
 -1      4110 8.69817E-05-2.24735E-05-2.76736E-05 6.73235E-06-1.40164E-18-1.13957E-18
 -1      4111 8.65052E-05-2.25130E-05-2.74143E-05 7.55725E-06-9.77510E-19-6.14436E-19
 -1      4112 8.42739E-05-2.13862E-05-2.69228E-05 7.08703E-06-9.94250E-19-1.46713E-18
 -1      4113 8.61529E-05-2.17352E-05-2.75873E-05 5.54831E-06-1.56782E-18-1.74324E-18
 -1      4114 7.55443E-05-1.97528E-05-2.38701E-05-1.08778E-05 8.35431E-19-1.89644E-19
 -1      4115 7.87253E-05-2.51669E-05-2.30458E-05 1.74348E-05-1.10067E-18-8.69281E-19
 -1      4116 7.19281E-05-1.50527E-05-2.42743E-05-2.95361E-06 1.53752E-19-4.12805E-18
 -1      4117 7.49787E-05-1.61599E-05-2.52345E-05-5.76255E-06-1.09332E-19-3.93746E-18
 -1      4118 7.37921E-05-1.52104E-05-2.51634E-05 6.59319E-08 4.42262E-19-3.83726E-18
 -1      4119 9.52630E-05-2.85519E-05-2.85902E-05 2.82593E-09-5.14128E-19-5.39456E-19
 -1      4120 8.30543E-05-1.74668E-05-2.80848E-05-6.43804E-06 4.60808E-19-3.41056E-18
 -1      4121 8.14078E-05-1.65194E-05-2.78564E-05-5.35915E-06 3.25106E-19-3.60420E-18
 -1      4122 7.84332E-05-1.64023E-05-2.65935E-05-5.28767E-06 2.62904E-19-3.64796E-18
 -1      4123 7.87697E-05-1.54671E-05-2.71245E-05-3.34572E-06 3.58053E-19-3.73815E-18
 -1      4124 9.52594E-05-2.85430E-05-2.85927E-05-7.05755E-09-2.48720E-19-2.07118E-18
 -1      4125 8.12654E-05-1.88630E-05-2.67211E-05-9.33295E-06-7.99090E-20-3.64238E-18
 -1      4126 8.46303E-05-2.03841E-05-2.75087E-05-9.43249E-06 9.48880E-20-3.40395E-18
 -1      4127 7.78665E-05-1.88280E-05-2.53543E-05-1.02965E-05-4.37727E-19-4.02022E-18
 -1      4128 6.94644E-05-1.62935E-05-2.28509E-05 2.04581E-06 5.00899E-21 5.23552E-19
 -1      4129 6.91718E-05-1.60858E-05-2.27304E-05-2.60984E-06 1.57493E-19 6.39712E-19
 -1      4130 8.50153E-05-1.96077E-05-2.80531E-05-8.19153E-06 2.99711E-19-3.36135E-18
 -1      4131 7.44295E-05-1.85241E-05-2.40205E-05 7.82283E-06-1.00051E-18-1.22515E-18
 -1      4132 7.13311E-05-1.69244E-05-2.32419E-05 4.93556E-06-7.56955E-19-5.04957E-19
 -1      4133 7.31933E-05-1.71372E-05-2.40262E-05 2.57063E-06-4.02427E-19-8.45834E-19
 -1      4134 7.71034E-05-1.91847E-05-2.48524E-05 7.39663E-06-8.92963E-19-1.73608E-18
 -1      4135 9.52608E-05-2.85414E-05-2.85942E-05-3.35433E-10 3.98618E-19 6.60857E-19
 -1      4136 9.52607E-05-2.85418E-05-2.85940E-05-3.10135E-09 4.06438E-19 5.24083E-19
 -1      4137 7.79703E-05-1.49512E-05-2.70063E-05-1.50983E-06 2.74502E-19-3.58082E-18
 -1      4138 8.30056E-05-1.85446E-05-2.76508E-05 7.75034E-06 1.83706E-19-3.33976E-18
 -1      4139 8.25408E-05-1.95480E-05-2.69924E-05 9.34675E-06 4.48023E-19-3.31944E-18
 -1      4140 8.05580E-05-1.62951E-05-2.75746E-05 5.10576E-06 3.38067E-19-3.38102E-18
 -1      4141 7.93639E-05-1.76924E-05-2.63509E-05 8.05534E-06 5.04474E-19-3.33233E-18
 -1      4142 9.14383E-05-2.45484E-05-2.86780E-05 1.60872E-06-1.48156E-18-6.86019E-19
 -1      4143 9.09654E-05-2.41675E-05-2.86302E-05 1.83617E-06-1.24438E-18-1.80245E-18
 -1      4144 9.52600E-05-2.85413E-05-2.85938E-05-4.67917E-09 7.26375E-19-7.44839E-19
 -1      4145 7.64132E-05-1.53308E-05-2.61689E-05 4.87270E-07 3.20910E-19-3.60754E-18
 -1      4146 7.86731E-05-1.50151E-05-2.73349E-05 1.46280E-06 4.12251E-19-3.49295E-18
 -1      4147 7.93247E-05-1.54176E-05-2.73636E-05 3.21228E-06 3.55947E-19-3.42765E-18
 -1      4148 7.51350E-05-1.52751E-05-2.55482E-05 3.40245E-06 5.12134E-19-3.56606E-18
 -1      4149 8.42555E-05-2.05560E-05-2.73051E-05-3.23425E-06-1.65864E-19-1.70260E-18
 -1      4150 8.52800E-05-2.09683E-05-2.75925E-05-2.81654E-06-2.21833E-19-2.22964E-18
 -1      4151 8.64116E-05-2.14420E-05-2.78516E-05-2.52630E-06-2.58467E-19-2.83578E-18
 -1      4152 8.72888E-05-2.18862E-05-2.80487E-05-2.20741E-06-5.94003E-20-2.94544E-18
 -1      4153 8.53686E-05-2.07863E-05-2.76341E-05-1.49189E-06-6.22501E-19-2.13030E-18
 -1      4154 8.82097E-05-2.23742E-05-2.82232E-05-2.00514E-06 1.81861E-19-3.73680E-18
 -1      4155 8.89475E-05-2.28226E-05-2.83537E-05-1.75689E-06-3.85914E-20-3.69375E-18
 -1      4156 8.74229E-05-2.18286E-05-2.80720E-05-1.18446E-06-4.59625E-19-3.54288E-18
 -1      4157 8.96982E-05-2.32878E-05-2.84681E-05-1.59828E-06-8.61181E-19-3.70512E-18
 -1      4158 9.03102E-05-2.37179E-05-2.85506E-05-1.39686E-06-1.39829E-18-4.02006E-18
 -1      4159 8.90728E-05-2.28162E-05-2.83644E-05-9.47505E-07-3.81937E-19-4.62629E-18
 -1      4160 9.09238E-05-2.41511E-05-2.86221E-05-1.27001E-06-1.20528E-18-3.54496E-18
 -1      4161 9.14268E-05-2.45488E-05-2.86706E-05-1.10317E-06-8.27713E-19-3.55600E-18
 -1      4162 9.04240E-05-2.37431E-05-2.85531E-05-7.54164E-07-1.34104E-18-4.54552E-18
 -1      4163 9.19250E-05-2.49405E-05-2.87118E-05-1.00128E-06-2.24145E-19-3.18006E-18
 -1      4164 9.23334E-05-2.52966E-05-2.87368E-05-8.62453E-07 7.07791E-19-3.09078E-18
 -1      4165 9.15270E-05-2.45905E-05-2.86680E-05-5.95742E-07-1.02178E-19-2.78813E-18
 -1      4166 9.27336E-05-2.56412E-05-2.87571E-05-7.80761E-07 6.12236E-19-3.57039E-18
 -1      4167 9.30604E-05-2.59515E-05-2.87662E-05-6.65777E-07 5.06414E-19-3.48388E-18
 -1      4168 9.24192E-05-2.53450E-05-2.87312E-05-4.65755E-07 2.42945E-19-3.64240E-18
 -1      4169 9.33777E-05-2.62472E-05-2.87727E-05-6.00714E-07 4.44026E-19-3.57375E-18
 -1      4170 9.36354E-05-2.65110E-05-2.87717E-05-5.06402E-07 8.68303E-19-3.34286E-18
 -1      4171 9.31321E-05-2.60004E-05-2.87592E-05-3.59516E-07 3.16615E-19-4.27012E-18
 -1      4172 9.38833E-05-2.67592E-05-2.87693E-05-4.55109E-07 1.02520E-18-3.38871E-18
 -1      4173 9.40831E-05-2.69786E-05-2.87622E-05-3.78729E-07 7.65423E-19-2.93567E-18
 -1      4174 9.36939E-05-2.65570E-05-2.87642E-05-2.73414E-07 9.42716E-19-3.75424E-18
 -1      4175 9.42737E-05-2.71828E-05-2.87547E-05-3.38803E-07 5.35622E-19-2.65873E-18
 -1      4176 9.44261E-05-2.73616E-05-2.87443E-05-2.77826E-07 6.15487E-19-1.87642E-18
 -1      4177 9.41300E-05-2.70197E-05-2.87550E-05-2.04434E-07 8.75900E-19-3.45905E-18
 -1      4178 9.45702E-05-2.75263E-05-2.87341E-05-2.47197E-07-4.80786E-21-2.03008E-18
 -1      4179 9.46842E-05-2.76693E-05-2.87225E-05-1.99256E-07 9.54501E-20-2.35491E-18
 -1      4180 9.44630E-05-2.73970E-05-2.87377E-05-1.49913E-07-1.98757E-20-3.79723E-18
 -1      4181 9.47910E-05-2.77997E-05-2.87113E-05-1.76135E-07 4.64204E-19-2.24043E-18
 -1      4182 9.48747E-05-2.79120E-05-2.86996E-05-1.39045E-07-1.37469E-19-2.35976E-18
 -1      4183 9.47126E-05-2.76990E-05-2.87166E-05-1.07458E-07-1.67365E-19-2.57324E-18
 -1      4184 9.49521E-05-2.80134E-05-2.86886E-05-1.21899E-07-2.22821E-19-2.58242E-18
 -1      4185 9.50120E-05-2.81000E-05-2.86775E-05-9.36840E-08-3.53739E-19-5.56424E-19
 -1      4186 9.48961E-05-2.79363E-05-2.86945E-05-7.49218E-08-1.87274E-20-2.61176E-18
 -1      4187 9.50668E-05-2.81774E-05-2.86672E-05-8.12187E-08-4.56433E-19 8.00494E-19
 -1      4188 9.51085E-05-2.82430E-05-2.86573E-05-6.01375E-08 3.70624E-20 1.60723E-18
 -1      4189 9.50278E-05-2.81194E-05-2.86733E-05-5.04106E-08 3.38797E-19-3.07450E-19
 -1      4190 9.51460E-05-2.83010E-05-2.86481E-05-5.12780E-08-6.06122E-19 1.58042E-18
 -1      4191 9.51739E-05-2.83496E-05-2.86394E-05-3.58338E-08 3.36600E-19 1.29218E-18
 -1      4192 9.51198E-05-2.82582E-05-2.86538E-05-3.22876E-08 2.24710E-19 1.38837E-18
 -1      4193 9.51986E-05-2.83922E-05-2.86314E-05-2.97004E-08 6.73256E-19 7.82365E-19
 -1      4194 9.52164E-05-2.84276E-05-2.86240E-05-1.86341E-08 8.72762E-19 6.34450E-19
 -1      4195 9.51818E-05-2.83614E-05-2.86366E-05-1.91741E-08 8.46565E-20 1.83685E-18
 -1      4196 9.52316E-05-2.84583E-05-2.86172E-05-1.45168E-08 8.16412E-19-2.15799E-20
 -1      4197 9.52421E-05-2.84835E-05-2.86110E-05-6.85767E-09 1.00543E-18 4.63681E-20
 -1      4198 9.52215E-05-2.84366E-05-2.86217E-05-9.93437E-09 5.62479E-19-3.63859E-19
 -1      4199 9.52508E-05-2.85052E-05-2.86053E-05-4.18180E-09-3.15990E-20-3.37344E-19
 -1      4200 9.52563E-05-2.85227E-05-2.86001E-05 8.84022E-10-1.38028E-19-1.59800E-18
 -1      4201 9.52453E-05-2.84903E-05-2.86090E-05-3.54329E-09 1.53516E-19-1.28396E-18
 -1      4202 7.74715E-05-1.67076E-05-2.60865E-05 6.20057E-06 5.95503E-19-3.35310E-18
 -1      4203 8.62267E-05-1.92574E-05-2.87115E-05-7.25542E-06 5.03846E-19-3.43175E-18
 -1      4204 9.03445E-05-2.37464E-05-2.85558E-05 2.03540E-06-9.55337E-19-1.75915E-18
 -1      4205 8.97750E-05-2.33434E-05-2.84739E-05 2.31081E-06-9.32425E-19-2.34387E-18
 -1      4206 9.03520E-05-2.36844E-05-2.85438E-05 1.40445E-06-1.42177E-18-2.32402E-18
 -1      4207 8.90202E-05-2.28996E-05-2.83551E-05 2.56086E-06-1.03332E-18-2.32307E-18
 -1      4208 8.83462E-05-2.24956E-05-2.82253E-05 2.90060E-06-1.65879E-18-2.43368E-18
 -1      4209 8.90020E-05-2.27794E-05-2.83457E-05 1.77143E-06-1.14024E-18-1.67541E-18
 -1      4210 9.23317E-05-2.52801E-05-2.87451E-05 1.25952E-06-2.06543E-19-1.18710E-18
 -1      4211 9.19453E-05-2.49341E-05-2.87211E-05 1.44826E-06-4.37694E-19-9.98668E-19
 -1      4212 9.14588E-05-2.45227E-05-2.86650E-05 1.10701E-06-9.08744E-19-3.09021E-18
 -1      4213 9.30517E-05-2.59270E-05-2.87747E-05 9.74235E-07 1.04566E-18-1.48525E-18
 -1      4214 9.27411E-05-2.56225E-05-2.87666E-05 1.13020E-06 5.12819E-19-1.28762E-18
 -1      4215 9.23579E-05-2.52762E-05-2.87323E-05 8.64631E-07 1.89405E-19-3.31305E-18
 -1      4216 9.36234E-05-2.64837E-05-2.87797E-05 7.42867E-07 4.65722E-19-1.70138E-18
 -1      4217 9.33779E-05-2.62229E-05-2.87817E-05 8.70559E-07 9.34361E-19-1.51953E-18
 -1      4218 9.30792E-05-2.59354E-05-2.87627E-05 6.67394E-07 9.40105E-19-2.19647E-18
 -1      4219 9.40702E-05-2.69517E-05-2.87694E-05 5.57258E-07 5.38531E-19-1.43381E-18
 -1      4220 9.38795E-05-2.67334E-05-2.87775E-05 6.60517E-07 5.47965E-19-1.46201E-18
 -1      4221 9.36495E-05-2.64984E-05-2.87690E-05 5.07949E-07 3.36832E-19-2.75596E-18
 -1      4222 9.44135E-05-2.73367E-05-2.87506E-05 4.10289E-07 2.77235E-19-1.51880E-18
 -1      4223 9.42680E-05-2.71579E-05-2.87618E-05 4.92625E-07 7.17092E-19-1.74716E-18
 -1      4224 9.40937E-05-2.69688E-05-2.87602E-05 3.80365E-07 5.05275E-19-3.30317E-18
 -1      4225 9.46728E-05-2.76473E-05-2.87278E-05 2.95588E-07 6.20374E-19-2.32149E-18
 -1      4226 9.45638E-05-2.75037E-05-2.87402E-05 3.60258E-07-1.24338E-20-1.86263E-18
 -1      4227 9.44339E-05-2.73541E-05-2.87428E-05 2.79550E-07 3.21620E-19-4.34517E-18
 -1      4228 9.48647E-05-2.78932E-05-2.87040E-05 2.07455E-07 6.86677E-19-8.27621E-20
 -1      4229 9.47848E-05-2.77800E-05-2.87164E-05 2.57448E-07 8.85448E-19-7.94183E-19
 -1      4230 9.46898E-05-2.76636E-05-2.87214E-05 2.01008E-07 1.60772E-19-2.66824E-18
 -1      4231 9.50037E-05-2.80845E-05-2.86811E-05 1.40858E-07 7.29584E-19 2.64677E-19
 -1      4232 9.49465E-05-2.79968E-05-2.86927E-05 1.78863E-07 1.13558E-18-1.96289E-19
 -1      4233 9.48786E-05-2.79078E-05-2.86988E-05 1.40753E-07 6.30551E-19-1.33813E-18
 -1      4234 9.51018E-05-2.82304E-05-2.86602E-05 9.14344E-08 1.13393E-18-1.08989E-18
 -1      4235 9.50620E-05-2.81638E-05-2.86705E-05 1.19815E-07 9.98066E-19 1.56489E-19
 -1      4236 9.50147E-05-2.80969E-05-2.86770E-05 9.52884E-08 1.12448E-18-1.49637E-18
 -1      4237 9.51687E-05-2.83397E-05-2.86418E-05 5.54818E-08 2.55393E-19-1.79908E-18
 -1      4238 9.51420E-05-2.82900E-05-2.86507E-05 7.62658E-08 1.14339E-18-8.67004E-19
 -1      4239 9.51102E-05-2.82408E-05-2.86569E-05 6.16012E-08 9.07623E-19-2.08029E-18
 -1      4240 9.52124E-05-2.84199E-05-2.86259E-05 2.99140E-08-3.93727E-19-2.13803E-18
 -1      4241 9.51954E-05-2.83836E-05-2.86335E-05 4.48014E-08-3.63273E-19-2.45534E-18
 -1      4242 9.51750E-05-2.83481E-05-2.86392E-05 3.71455E-08 8.12498E-19-1.73189E-18
 -1      4243 9.52393E-05-2.84775E-05-2.86125E-05 1.23601E-08 3.08272E-19-1.45033E-18
 -1      4244 9.52293E-05-2.84517E-05-2.86189E-05 2.25169E-08-3.73040E-19-1.57846E-18
 -1      4245 9.52168E-05-2.84266E-05-2.86239E-05 1.97576E-08-3.52239E-19-1.85701E-18
 -1      4246 9.52588E-05-2.85333E-05-2.85967E-05 1.69612E-10-7.65172E-19-5.55647E-19
 -1      4247 9.52558E-05-2.85207E-05-2.86008E-05-7.01135E-10-1.51994E-20-7.50795E-19
 -1      4248 9.52578E-05-2.85286E-05-2.85981E-05-1.41081E-09 6.59242E-19-2.54515E-19
 -1      4249 8.15755E-05-1.97295E-05-2.65165E-05-4.21968E-06-4.05327E-19-6.33587E-19
 -1      4250 8.28252E-05-2.00690E-05-2.69310E-05-3.59164E-06-1.90956E-19-6.97841E-19
 -1      4251 8.29483E-05-1.98184E-05-2.70032E-05-1.94963E-06-1.02169E-18-9.38180E-19
 -1      4252 9.52587E-05-2.85339E-05-2.85964E-05 2.19976E-09-1.00182E-18-2.25619E-18
 -1      4253 7.59444E-05-2.50354E-05-2.18292E-05 1.91973E-05-1.16073E-18-1.33252E-18
 -1      4254 8.74283E-05-2.20414E-05-2.80445E-05 3.22551E-06-1.53703E-18-2.23313E-18
 -1      4255 8.66398E-05-2.16779E-05-2.78467E-05 3.66838E-06-1.12393E-18-2.23030E-18
 -1      4256 8.73592E-05-2.18349E-05-2.80398E-05 2.22883E-06-1.05977E-18-1.68061E-18
 -1      4257 7.89329E-05-1.64800E-05-2.67821E-05 5.37521E-06 4.37602E-19-3.34258E-18
 -1      4258 7.81298E-05-1.89857E-05-2.53831E-05-5.75659E-06 6.72799E-19-5.47713E-19
 -1      4259 7.97296E-05-1.92411E-05-2.59767E-05-4.70977E-06 3.98043E-19-7.08548E-19
 -1      4260 7.97678E-05-1.88098E-05-2.60863E-05-2.63008E-06-2.62602E-19-4.34410E-19
 -1      4261 9.52534E-05-2.85137E-05-2.86026E-05 8.50690E-10 5.35412E-19-3.81449E-19
 -1      4262 9.52531E-05-2.85144E-05-2.86025E-05 1.21801E-09 1.09531E-18-9.89367E-19
 -1      4263 9.52475E-05-2.84956E-05-2.86078E-05 7.62166E-09 1.08000E-18-7.76432E-19
 -1      4264 9.52506E-05-2.85050E-05-2.86053E-05 1.06785E-09 3.50077E-19-1.61908E-18
 -1      4265 8.11455E-05-2.02417E-05-2.61363E-05 6.83952E-06-1.48859E-18-1.19523E-18
 -1      4266 7.93477E-05-1.98166E-05-2.55484E-05 7.28538E-06-1.15314E-18-1.66298E-18
 -1      4267 7.71084E-05-1.84947E-05-2.50874E-05 5.35283E-06-1.33666E-18-1.89455E-18
 -1      4268 7.78031E-05-1.74330E-05-2.58543E-05-7.32011E-06-8.54593E-20-3.85850E-18
 -1      4269 8.36995E-05-2.07222E-05-2.70295E-05 5.19466E-06-7.60538E-19-1.60113E-18
 -1      4270 8.26784E-05-2.05583E-05-2.66337E-05 5.99649E-06-1.19478E-18-1.67744E-18
 -1      4271 8.09221E-05-1.95263E-05-2.62812E-05 4.77456E-06-1.09107E-18-1.45501E-18
 -1      4272 7.52819E-05-1.81136E-05-2.44864E-05-4.95973E-06 1.79048E-19 1.25819E-19
 -1      4273 7.49919E-05-1.73888E-05-2.46473E-05-1.97605E-06-1.14699E-19-4.64483E-19
 -1      4274 9.52406E-05-2.84786E-05-2.86120E-05 7.28785E-09 1.92450E-19-1.21419E-18
 -1      4275 7.49475E-05-1.72842E-05-2.46942E-05-6.83740E-08-4.74454E-19-9.02521E-19
 -1      4276 7.79463E-05-1.82609E-05-2.55657E-05-1.20617E-06-5.38660E-20-1.31549E-18
 -1      4277 7.95836E-05-1.87033E-05-2.61163E-05-9.44954E-07-4.09544E-19-1.29455E-18
 -1      4278 7.60598E-05-1.78511E-05-2.49871E-05 2.77888E-06-1.24783E-18-1.81261E-18
 -1      4279 8.57097E-05-2.13113E-05-2.76223E-05 4.06306E-06-1.65594E-18-2.09226E-18
 -1      4280 8.47978E-05-2.10110E-05-2.73397E-05 4.66582E-06-1.02514E-18-1.09832E-18
 -1      4281 8.35746E-05-2.02653E-05-2.70921E-05 3.60714E-06-1.06892E-18-1.77627E-18
 -1      4282 8.55377E-05-2.10290E-05-2.76389E-05 2.83971E-06-1.29125E-18-1.25149E-18
 -1      4283 7.29434E-05-1.78298E-05-2.36386E-05-6.74975E-06 3.27008E-19 1.75999E-19
 -1      4284 8.20052E-05-1.94807E-05-2.68068E-05-4.50396E-07-1.28838E-18-9.83370E-19
 -1      4285 8.33118E-05-1.99903E-05-2.71741E-05-2.73260E-07-1.42237E-18-1.73868E-18
 -1      4286 8.50923E-05-2.07684E-05-2.75893E-05 5.02320E-07-1.35998E-18-8.86635E-19
 -1      4287 8.61842E-05-2.12824E-05-2.78408E-05 5.55087E-07-6.86877E-19-1.37624E-18
 -1      4288 8.71173E-05-2.17792E-05-2.80335E-05 3.78292E-07-3.33558E-19-1.59708E-18
 -1      4289 8.80447E-05-2.22746E-05-2.82095E-05 4.36179E-07-4.77640E-19-1.77721E-18
 -1      4290 8.88220E-05-2.27608E-05-2.83380E-05 2.94197E-07-8.49965E-19-2.00625E-18
 -1      4291 8.95833E-05-2.32314E-05-2.84541E-05 3.46524E-07-1.27803E-18-2.08834E-18
 -1      4292 9.02233E-05-2.36875E-05-2.85359E-05 2.30327E-07-1.28250E-18-2.82459E-18
 -1      4293 9.08455E-05-2.41231E-05-2.86088E-05 2.74736E-07-1.14583E-18-2.96226E-18
 -1      4294 9.13677E-05-2.45383E-05-2.86573E-05 1.79111E-07-6.74647E-19-2.88197E-18
 -1      4295 9.18722E-05-2.49303E-05-2.86998E-05 2.16579E-07 2.56215E-19-2.80540E-18
 -1      4296 9.22938E-05-2.52980E-05-2.87251E-05 1.37722E-07 5.91528E-19-3.42414E-18
 -1      4297 9.26986E-05-2.56417E-05-2.87465E-05 1.69203E-07 3.10462E-19-3.47910E-18
 -1      4298 9.30345E-05-2.59594E-05-2.87563E-05 1.04430E-07 2.95376E-19-3.10228E-18
 -1      4299 9.33551E-05-2.62537E-05-2.87636E-05 1.30661E-07 7.14936E-19-3.08192E-18
 -1      4300 9.36190E-05-2.65222E-05-2.87634E-05 7.79103E-08 6.62882E-19-3.03213E-18
 -1      4301 9.38692E-05-2.67687E-05-2.87617E-05 9.95097E-08 5.33713E-19-3.25252E-18
 -1      4302 9.40734E-05-2.69909E-05-2.87554E-05 5.70466E-08 8.58792E-19-3.82634E-18
 -1      4303 9.42656E-05-2.71933E-05-2.87485E-05 7.45845E-08 6.80208E-19-3.86115E-18
 -1      4304 9.44209E-05-2.73736E-05-2.87389E-05 4.08599E-08 1.51564E-19-3.38004E-18
 -1      4305 9.45660E-05-2.75367E-05-2.87291E-05 5.48846E-08-6.41423E-19-3.06277E-18
 -1      4306 9.46820E-05-2.76804E-05-2.87182E-05 2.84908E-08-3.79754E-19-2.29337E-18
 -1      4307 9.47895E-05-2.78094E-05-2.87074E-05 3.95282E-08-1.97074E-19-2.45110E-18
 -1      4308 9.48743E-05-2.79218E-05-2.86963E-05 1.91925E-08 8.54850E-20-2.50570E-18
 -1      4309 9.49522E-05-2.80220E-05-2.86855E-05 2.77359E-08 5.68201E-19-2.80624E-18
 -1      4310 9.50127E-05-2.81083E-05-2.86750E-05 1.23270E-08 9.03556E-19-2.07908E-18
 -1      4311 9.50678E-05-2.81848E-05-2.86649E-05 1.88250E-08 5.17633E-19-1.74844E-18
 -1      4312 9.51097E-05-2.82499E-05-2.86554E-05 7.36039E-09 4.00543E-19-1.42594E-18
 -1      4313 9.51474E-05-2.83071E-05-2.86463E-05 1.22082E-08 6.17962E-19-1.18744E-18
 -1      4314 9.51754E-05-2.83552E-05-2.86380E-05 3.86013E-09 7.01004E-20-9.84796E-19
 -1      4315 9.52002E-05-2.83972E-05-2.86301E-05 7.40419E-09-3.07682E-19-8.98124E-19
 -1      4316 9.52178E-05-2.84320E-05-2.86229E-05 1.50088E-09-6.27158E-19-7.41916E-19
 -1      4317 9.52330E-05-2.84621E-05-2.86162E-05 3.77225E-09-6.28897E-20-1.23603E-18
 -1      4318 9.52418E-05-2.84832E-05-2.86111E-05-9.63102E-10 4.73258E-19-1.54700E-18
 -1      4319 7.84106E-05-1.85554E-05-2.56541E-05 3.01966E-06-1.47080E-18-1.62390E-18
 -1      4320 8.04351E-05-1.89205E-05-2.63378E-05 8.90912E-07-8.60680E-19-1.51240E-18
 -1      4321 8.00404E-05-1.89460E-05-2.61911E-05 2.49634E-06-7.98742E-19-1.81522E-18
 -1      4322 8.46512E-05-2.05474E-05-2.74456E-05 1.87507E-06-1.01279E-18-1.35799E-18
 -1      4323 8.25119E-05-1.98126E-05-2.68880E-05 2.56962E-06-9.97558E-19-1.55908E-18
 -1      4324 8.36863E-05-2.02219E-05-2.72024E-05 2.19687E-06-1.62387E-18-1.16781E-18
 -3
    1PSTEP                         4           1           1          
  100CL  101 1.000000000        4324                     0    1           1
 -4  ERROR       1    1
 -5  STR(%)      1    1    0    0
 -1         1 1.19205E+01
 -1         2 2.45790E+01
 -1         3 4.31954E-04
 -1         4 5.02082E-04
 -1         5 1.32915E+01
 -1         6 1.23872E+01
 -1         7 1.23872E+01
 -1         8 3.55278E+00
 -1         9 1.99645E+00
 -1        10 1.46396E+00
 -1        11 1.15949E+00
 -1        12 9.23613E-01
 -1        13 7.22984E-01
 -1        14 5.61212E-01
 -1        15 5.66712E-01
 -1        16 7.30685E-01
 -1        17 9.20346E-01
 -1        18 1.17098E+00
 -1        19 1.48247E+00
 -1        20 2.00392E+00
 -1        21 3.40270E+00
 -1        22 8.09464E+00
 -1        23 1.23872E+01
 -1        24 3.90433E+00
 -1        25 2.64298E+00
 -1        26 1.62182E+00
 -1        27 1.02700E+00
 -1        28 8.07039E-01
 -1        29 1.01709E+00
 -1        30 1.20309E+00
 -1        31 1.20309E+00
 -1        32 1.21851E+00
 -1        33 1.40712E+00
 -1        34 1.91100E+00
 -1        35 3.38154E+00
 -1        36 4.10209E+00
 -1        37 4.11596E+00
 -1        38 4.11596E+00
 -1        39 3.76182E+00
 -1        40 2.44061E+00
 -1        41 1.67266E+00
 -1        42 1.39246E+00
 -1        43 1.39246E+00
 -1        44 1.34601E+00
 -1        45 1.32569E+00
 -1        46 1.15939E+00
 -1        47 9.38424E-01
 -1        48 7.51298E-01
 -1        49 5.81552E-01
 -1        50 4.89369E-01
 -1        51 4.05771E-01
 -1        52 3.25287E-01
 -1        53 2.53320E-01
 -1        54 1.92117E-01
 -1        55 1.41979E-01
 -1        56 1.07635E-01
 -1        57 8.96171E-02
 -1        58 7.28850E-02
 -1        59 5.80332E-02
 -1        60 4.52788E-02
 -1        61 3.46018E-02
 -1        62 2.58437E-02
 -1        63 2.07032E-02
 -1        64 1.69081E-02
 -1        65 1.34134E-02
 -1        66 1.02561E-02
 -1        67 7.41438E-03
 -1        68 5.16034E-03
 -1        69 4.43428E-03
 -1        70 3.52327E-03
 -1        71 2.53189E-03
 -1        72 1.32915E+01
 -1        73 3.15778E+00
 -1        74 2.01056E+00
 -1        75 1.45637E+00
 -1        76 1.12497E+00
 -1        77 8.02135E-01
 -1        78 7.56116E-01
 -1        79 9.27349E-01
 -1        80 1.01317E+00
 -1        81 1.33801E+00
 -1        82 1.39585E+00
 -1        83 1.78286E+00
 -1        84 2.50794E+00
 -1        85 3.37262E+00
 -1        86 3.79356E+00
 -1        87 3.83387E+00
 -1        88 3.83387E+00
 -1        89 2.78928E+00
 -1        90 1.62861E+00
 -1        91 1.10833E+00
 -1        92 1.20708E+00
 -1        93 1.31446E+00
 -1        94 1.31446E+00
 -1        95 1.23849E+00
 -1        96 1.07075E+00
 -1        97 9.01133E-01
 -1        98 7.33568E-01
 -1        99 5.72778E-01
 -1       100 4.30799E-01
 -1       101 3.23111E-01
 -1       102 2.52073E-01
 -1       103 1.91491E-01
 -1       104 1.41748E-01
 -1       105 1.02131E-01
 -1       106 7.13916E-02
 -1       107 5.03433E-02
 -1       108 4.21364E-02
 -1       109 3.44415E-02
 -1       110 2.75455E-02
 -1       111 2.15608E-02
 -1       112 1.83717E-02
 -1       113 1.59898E-02
 -1       114 1.34701E-02
 -1       115 1.09641E-02
 -1       116 8.53113E-03
 -1       117 6.42572E-03
 -1       118 4.41576E-03
 -1       119 3.47982E-03
 -1       120 1.89881E-03
 -1       121 8.83317E-04
 -1       122 8.62911E-04
 -1       123 5.20043E-04
 -1       124 2.25212E-04
 -1       125 4.25058E-04
 -1       126 5.50624E-04
 -1       127 6.15002E-04
 -1       128 6.30698E-04
 -1       129 6.30698E-04
 -1       130 6.14152E-04
 -1       131 5.44320E-04
 -1       132 4.23383E-04
 -1       133 2.21735E-04
 -1       134 5.31123E-04
 -1       135 1.14288E-03
 -1       136 1.47046E-03
 -1       137 2.51521E+01
 -1       138 4.74579E+01
 -1       139 4.74579E+01
 -1       140 2.07199E+01
 -1       141 1.23124E+01
 -1       142 1.24394E+01
 -1       143 1.24394E+01
 -1       144 1.28052E+01
 -1       145 1.28052E+01
 -1       146 1.29599E+01
 -1       147 2.96634E+01
 -1       148 2.99192E+01
 -1       149 2.82128E+01
 -1       150 2.50496E+01
 -1       151 2.48495E+01
 -1       152 2.48495E+01
 -1       153 4.07797E+01
 -1       154 4.07797E+01
 -1       155 1.50540E+01
 -1       156 1.19205E+01
 -1       157 1.18216E+01
 -1       158 1.19919E+01
 -1       159 1.19919E+01
 -1       160 1.20531E+01
 -1       161 2.73142E+01
 -1       162 2.92802E+01
 -1       163 2.78592E+01
 -1       164 2.46280E+01
 -1       165 5.78080E+00
 -1       166 2.45726E+00
 -1       167 1.71438E+00
 -1       168 1.31274E+00
 -1       169 1.02850E+00
 -1       170 8.06139E-01
 -1       171 6.21052E-01
 -1       172 4.84445E-01
 -1       173 6.27378E-01
 -1       174 8.07363E-01
 -1       175 1.04071E+00
 -1       176 1.32890E+00
 -1       177 1.73666E+00
 -1       178 2.44385E+00
 -1       179 3.77650E+00
 -1       180 1.32915E+01
 -1       181 3.90433E+00
 -1       182 2.64298E+00
 -1       183 1.62182E+00
 -1       184 1.02700E+00
 -1       185 8.07039E-01
 -1       186 7.62731E-01
 -1       187 1.01709E+00
 -1       188 1.20309E+00
 -1       189 1.12633E+00
 -1       190 1.21851E+00
 -1       191 1.40712E+00
 -1       192 2.13850E+00
 -1       193 3.38154E+00
 -1       194 4.10209E+00
 -1       195 4.11596E+00
 -1       196 3.76182E+00
 -1       197 2.44061E+00
 -1       198 1.67266E+00
 -1       199 1.30924E+00
 -1       200 1.39246E+00
 -1       201 1.34601E+00
 -1       202 1.32569E+00
 -1       203 1.15939E+00
 -1       204 9.58482E-01
 -1       205 8.18030E-01
 -1       206 6.96509E-01
 -1       207 5.63931E-01
 -1       208 4.37793E-01
 -1       209 3.27209E-01
 -1       210 2.53320E-01
 -1       211 1.98146E-01
 -1       212 1.51643E-01
 -1       213 1.13355E-01
 -1       214 8.96171E-02
 -1       215 7.28850E-02
 -1       216 5.80332E-02
 -1       217 4.52788E-02
 -1       218 3.46018E-02
 -1       219 2.64602E-02
 -1       220 2.07032E-02
 -1       221 1.69081E-02
 -1       222 1.34134E-02
 -1       223 1.02561E-02
 -1       224 7.77768E-03
 -1       225 5.65168E-03
 -1       226 4.43428E-03
 -1       227 3.52327E-03
 -1       228 2.53189E-03
 -1       229 3.15778E+00
 -1       230 2.01056E+00
 -1       231 1.45637E+00
 -1       232 1.12497E+00
 -1       233 8.02135E-01
 -1       234 7.56116E-01
 -1       235 7.03596E-01
 -1       236 9.27349E-01
 -1       237 1.01317E+00
 -1       238 1.33801E+00
 -1       239 1.39585E+00
 -1       240 1.78286E+00
 -1       241 2.50794E+00
 -1       242 3.37262E+00
 -1       243 3.79356E+00
 -1       244 3.83387E+00
 -1       245 2.78928E+00
 -1       246 1.62861E+00
 -1       247 1.07494E+00
 -1       248 1.10833E+00
 -1       249 1.20708E+00
 -1       250 1.31446E+00
 -1       251 1.23849E+00
 -1       252 1.07075E+00
 -1       253 9.01133E-01
 -1       254 7.45537E-01
 -1       255 5.99205E-01
 -1       256 4.63871E-01
 -1       257 3.46922E-01
 -1       258 2.52570E-01
 -1       259 1.91491E-01
 -1       260 1.41748E-01
 -1       261 1.03841E-01
 -1       262 7.47199E-02
 -1       263 5.22079E-02
 -1       264 4.21364E-02
 -1       265 3.44415E-02
 -1       266 2.75455E-02
 -1       267 2.15608E-02
 -1       268 1.83717E-02
 -1       269 1.59898E-02
 -1       270 1.34701E-02
 -1       271 1.09641E-02
 -1       272 8.53113E-03
 -1       273 6.42572E-03
 -1       274 4.46142E-03
 -1       275 3.47982E-03
 -1       276 2.00251E-03
 -1       277 9.29990E-04
 -1       278 9.11013E-04
 -1       279 6.69242E-04
 -1       280 7.01218E-04
 -1       281 9.53716E-04
 -1       282 1.09226E-03
 -1       283 1.14314E-03
 -1       284 1.14314E-03
 -1       285 1.14285E-03
 -1       286 1.08697E-03
 -1       287 9.52162E-04
 -1       288 7.06581E-04
 -1       289 6.50372E-04
 -1       290 6.50372E-04
 -1       291 1.44673E-03
 -1       292 2.97679E+01
 -1       293 2.84896E+01
 -1       294 4.74579E+01
 -1       295 2.15351E+01
 -1       296 1.14307E+01
 -1       297 1.23124E+01
 -1       298 1.24394E+01
 -1       299 1.20978E+01
 -1       300 1.28052E+01
 -1       301 1.15409E+01
 -1       302 1.29599E+01
 -1       303 2.99192E+01
 -1       304 2.99192E+01
 -1       305 2.62375E+01
 -1       306 2.83554E+01
 -1       307 2.83554E+01
 -1       308 3.68041E+01
 -1       309 4.07797E+01
 -1       310 1.50540E+01
 -1       311 1.12321E+01
 -1       312 1.19205E+01
 -1       313 1.18216E+01
 -1       314 1.16927E+01
 -1       315 1.19919E+01
 -1       316 1.18492E+01
 -1       317 1.20531E+01
 -1       318 2.92802E+01
 -1       319 2.92802E+01
 -1       320 2.46280E+01
 -1       321 2.97679E+01
 -1       322 1.32817E+00
 -1       323 2.45248E+00
 -1       324 9.40654E-01
 -1       325 7.66911E-01
 -1       326 6.10148E-01
 -1       327 4.67544E-01
 -1       328 4.76406E-01
 -1       329 6.15533E-01
 -1       330 7.80331E-01
 -1       331 9.51606E-01
 -1       332 1.13522E+00
 -1       333 1.41029E+00
 -1       334 1.50199E+00
 -1       335 1.78205E+00
 -1       336 1.39617E+00
 -1       337 2.92915E+01
 -1       338 1.07048E+00
 -1       339 5.98167E-01
 -1       340 5.47930E-01
 -1       341 6.33282E-01
 -1       342 7.21340E-01
 -1       343 7.82454E-01
 -1       344 7.23132E-01
 -1       345 8.41914E-01
 -1       346 9.74722E-01
 -1       347 1.49886E+00
 -1       348 1.96119E+00
 -1       349 2.45110E+00
 -1       350 2.37418E+00
 -1       351 2.51404E+00
 -1       352 2.18985E+00
 -1       353 1.65133E+00
 -1       354 1.02353E+00
 -1       355 8.52033E-01
 -1       356 8.04941E-01
 -1       357 1.00571E+00
 -1       358 1.02781E+00
 -1       359 9.39407E-01
 -1       360 8.37667E-01
 -1       361 7.47280E-01
 -1       362 6.35286E-01
 -1       363 5.17475E-01
 -1       364 4.06735E-01
 -1       365 3.09700E-01
 -1       366 2.28774E-01
 -1       367 1.63801E-01
 -1       368 1.13355E-01
 -1       369 8.26988E-02
 -1       370 5.94742E-02
 -1       371 4.41080E-02
 -1       372 3.68100E-02
 -1       373 2.99835E-02
 -1       374 2.38578E-02
 -1       375 1.85214E-02
 -1       376 1.40605E-02
 -1       377 1.18044E-02
 -1       378 9.64125E-03
 -1       379 7.51079E-03
 -1       380 5.65168E-03
 -1       381 4.09499E-03
 -1       382 2.91118E-03
 -1       383 2.23310E-03
 -1       384 7.19128E-01
 -1       385 5.79733E-01
 -1       386 5.48357E-01
 -1       387 6.38966E-01
 -1       388 6.79607E-01
 -1       389 6.49996E-01
 -1       390 5.99184E-01
 -1       391 7.02805E-01
 -1       392 1.25702E+00
 -1       393 1.84470E+00
 -1       394 1.99121E+00
 -1       395 1.99121E+00
 -1       396 2.03909E+00
 -1       397 2.31925E+00
 -1       398 1.93890E+00
 -1       399 1.21389E+00
 -1       400 7.60696E-01
 -1       401 7.26968E-01
 -1       402 9.07516E-01
 -1       403 9.43732E-01
 -1       404 9.60839E-01
 -1       405 8.84476E-01
 -1       406 7.92524E-01
 -1       407 6.82993E-01
 -1       408 5.61788E-01
 -1       409 4.44749E-01
 -1       410 3.40482E-01
 -1       411 2.52570E-01
 -1       412 1.85909E-01
 -1       413 1.40637E-01
 -1       414 1.03841E-01
 -1       415 7.47199E-02
 -1       416 5.22079E-02
 -1       417 3.51850E-02
 -1       418 2.69755E-02
 -1       419 2.28924E-02
 -1       420 1.88731E-02
 -1       421 1.51231E-02
 -1       422 1.17468E-02
 -1       423 9.51824E-03
 -1       424 8.00031E-03
 -1       425 6.53508E-03
 -1       426 5.24942E-03
 -1       427 4.00128E-03
 -1       428 2.86293E-03
 -1       429 2.00251E-03
 -1       430 1.00697E-03
 -1       431 1.78563E-03
 -1       432 1.78563E-03
 -1       433 1.25482E-03
 -1       434 1.42906E-03
 -1       435 1.49498E-03
 -1       436 1.49498E-03
 -1       437 1.49164E-03
 -1       438 1.49164E-03
 -1       439 1.42916E-03
 -1       440 1.25500E-03
 -1       441 1.00320E-03
 -1       442 1.75168E-03
 -1       443 2.84896E+01
 -1       444 3.04307E+01
 -1       445 3.04307E+01
 -1       446 1.66485E+01
 -1       447 2.19577E+01
 -1       448 7.41031E+00
 -1       449 8.88759E+00
 -1       450 1.11304E+00
 -1       451 1.01202E+01
 -1       452 1.01208E+01
 -1       453 1.09899E+01
 -1       454 8.89751E+00
 -1       455 7.26417E+00
 -1       456 1.20706E+01
 -1       457 2.04856E+01
 -1       458 2.54814E+01
 -1       459 3.78941E+01
 -1       460 3.78941E+01
 -1       461 2.72231E+01
 -1       462 2.35778E+01
 -1       463 1.34428E+01
 -1       464 7.19881E+00
 -1       465 8.37964E+00
 -1       466 1.00700E+01
 -1       467 1.01951E+01
 -1       468 1.09983E+01
 -1       469 8.98305E+00
 -1       470 6.28904E+00
 -1       471 1.10225E+01
 -1       472 1.90234E+01
 -1       473 4.44910E+00
 -1       474 1.08493E+00
 -1       475 6.31040E-01
 -1       476 7.55610E-01
 -1       477 2.93234E-01
 -1       478 4.40250E-01
 -1       479 6.35224E-01
 -1       480 7.59635E-01
 -1       481 8.59040E-01
 -1       482 1.18393E+00
 -1       483 7.96030E-01
 -1       484 6.03667E-01
 -1       485 9.75002E-01
 -1       486 6.78899E-01
 -1       487 7.27652E-01
 -1       488 8.29819E-01
 -1       489 9.52200E-01
 -1       490 1.06093E+00
 -1       491 1.13003E+00
 -1       492 1.48358E+00
 -1       493 1.57568E+00
 -1       494 1.83977E+00
 -1       495 2.12803E+00
 -1       496 3.11400E+00
 -1       497 3.14802E+00
 -1       498 2.48096E+00
 -1       499 1.86987E+00
 -1       500 1.65266E+00
 -1       501 1.57893E+00
 -1       502 1.26719E+00
 -1       503 1.21635E+00
 -1       504 1.13211E+00
 -1       505 9.99736E-01
 -1       506 8.86805E-01
 -1       507 7.98551E-01
 -1       508 6.86560E-01
 -1       509 5.68882E-01
 -1       510 4.57140E-01
 -1       511 3.57625E-01
 -1       512 2.72928E-01
 -1       513 2.03302E-01
 -1       514 1.47672E-01
 -1       515 1.04319E-01
 -1       516 7.13083E-02
 -1       517 4.67450E-02
 -1       518 3.05706E-02
 -1       519 2.09620E-02
 -1       520 1.83359E-02
 -1       521 1.56305E-02
 -1       522 1.28808E-02
 -1       523 1.02542E-02
 -1       524 7.93240E-03
 -1       525 6.66988E-03
 -1       526 5.29034E-03
 -1       527 3.96021E-03
 -1       528 2.91118E-03
 -1       529 7.30787E-01
 -1       530 8.25899E-01
 -1       531 8.83539E-01
 -1       532 9.21655E-01
 -1       533 1.15931E+00
 -1       534 1.28385E+00
 -1       535 1.61558E+00
 -1       536 1.93785E+00
 -1       537 2.62704E+00
 -1       538 2.50560E+00
 -1       539 2.34032E+00
 -1       540 1.82175E+00
 -1       541 1.47156E+00
 -1       542 1.24005E+00
 -1       543 1.10727E+00
 -1       544 1.01924E+00
 -1       545 1.03597E+00
 -1       546 9.69608E-01
 -1       547 8.84368E-01
 -1       548 8.04739E-01
 -1       549 7.07641E-01
 -1       550 5.94653E-01
 -1       551 4.81741E-01
 -1       552 3.78292E-01
 -1       553 2.88813E-01
 -1       554 2.14608E-01
 -1       555 1.55083E-01
 -1       556 1.08665E-01
 -1       557 7.33905E-02
 -1       558 4.92684E-02
 -1       559 3.44729E-02
 -1       560 2.69755E-02
 -1       561 2.28924E-02
 -1       562 1.88731E-02
 -1       563 1.51231E-02
 -1       564 1.17468E-02
 -1       565 9.51824E-03
 -1       566 7.89323E-03
 -1       567 6.20570E-03
 -1       568 4.67052E-03
 -1       569 3.39996E-03
 -1       570 2.48183E-03
 -1       571 1.70724E-03
 -1       572 1.78258E-03
 -1       573 2.17838E-03
 -1       574 1.65823E-03
 -1       575 1.78258E-03
 -1       576 1.73740E-03
 -1       577 1.77895E-03
 -1       578 1.77895E-03
 -1       579 1.72833E-03
 -1       580 1.50652E-03
 -1       581 1.41860E-03
 -1       582 3.04307E+01
 -1       583 1.31860E+01
 -1       584 6.43898E-01
 -1       585 2.10618E+01
 -1       586 1.51673E+01
 -1       587 8.45652E+00
 -1       588 2.72231E+01
 -1       589 7.33039E+00
 -1       590 2.92915E+01
 -1       591 2.19577E+01
 -1       592 4.38415E-01
 -1       593 8.28484E+00
 -1       594 1.09428E+01
 -1       595 7.98646E+00
 -1       596 3.84863E+00
 -1       597 6.14076E+00
 -1       598 6.68679E+00
 -1       599 1.65451E+01
 -1       600 2.54814E+01
 -1       601 3.78941E+01
 -1       602 1.65202E+01
 -1       603 1.16157E+01
 -1       604 7.95059E+00
 -1       605 3.91269E+00
 -1       606 8.17980E+00
 -1       607 6.18840E+00
 -1       608 4.24842E+00
 -1       609 6.44100E+00
 -1       610 1.10593E+01
 -1       611 1.18393E+00
 -1       612 5.95259E+00
 -1       613 4.82328E+00
 -1       614 8.11396E-01
 -1       615 8.66574E-01
 -1       616 1.80586E-03
 -1       617 3.24968E+00
 -1       618 6.95289E+00
 -1       619 1.82053E+01
 -1       620 5.15689E+00
 -1       621 6.06342E-01
 -1       622 4.04249E-01
 -1       623 8.04730E-01
 -1       624 8.36249E-01
 -1       625 1.10166E+01
 -1       626 7.51969E-01
 -1       627 9.46409E-01
 -1       628 1.30122E+00
 -1       629 6.99940E+00
 -1       630 7.90171E-01
 -1       631 8.84339E-01
 -1       632 1.05257E+00
 -1       633 1.30358E+00
 -1       634 1.62442E+00
 -1       635 1.82292E+00
 -1       636 2.66064E+00
 -1       637 2.04513E+00
 -1       638 2.55928E+00
 -1       639 3.46040E+00
 -1       640 4.21923E+00
 -1       641 3.71544E+00
 -1       642 2.48096E+00
 -1       643 2.55460E+00
 -1       644 2.65923E+00
 -1       645 1.99171E+00
 -1       646 1.76858E+00
 -1       647 1.48023E+00
 -1       648 1.19133E+00
 -1       649 1.02430E+00
 -1       650 8.76166E-01
 -1       651 7.29199E-01
 -1       652 5.94094E-01
 -1       653 4.75108E-01
 -1       654 3.73374E-01
 -1       655 2.88414E-01
 -1       656 2.18897E-01
 -1       657 1.63071E-01
 -1       658 1.19033E-01
 -1       659 8.49001E-02
 -1       660 5.89169E-02
 -1       661 3.95105E-02
 -1       662 2.53165E-02
 -1       663 1.51820E-02
 -1       664 1.01099E-02
 -1       665 9.60846E-03
 -1       666 8.61680E-03
 -1       667 7.33368E-03
 -1       668 5.93957E-03
 -1       669 4.71582E-03
 -1       670 3.77624E-03
 -1       671 2.79808E-03
 -1       672 1.11897E+00
 -1       673 4.96989E+00
 -1       674 9.40214E-01
 -1       675 1.43764E+00
 -1       676 1.91938E+00
 -1       677 1.85860E+00
 -1       678 2.98716E+00
 -1       679 4.25531E+00
 -1       680 5.27513E+00
 -1       681 4.31244E+00
 -1       682 2.65842E+00
 -1       683 2.17963E+00
 -1       684 2.36590E+00
 -1       685 1.80161E+00
 -1       686 1.50662E+00
 -1       687 1.35841E+00
 -1       688 1.16145E+00
 -1       689 9.75460E-01
 -1       690 8.71947E-01
 -1       691 7.53387E-01
 -1       692 6.29889E-01
 -1       693 5.12540E-01
 -1       694 4.07318E-01
 -1       695 3.16751E-01
 -1       696 2.41216E-01
 -1       697 1.79839E-01
 -1       698 1.31092E-01
 -1       699 9.31822E-02
 -1       700 6.42962E-02
 -1       701 4.27409E-02
 -1       702 2.70133E-02
 -1       703 1.73306E-02
 -1       704 1.34245E-02
 -1       705 1.20679E-02
 -1       706 1.03609E-02
 -1       707 8.52865E-03
 -1       708 6.71789E-03
 -1       709 5.37330E-03
 -1       710 4.27926E-03
 -1       711 3.17266E-03
 -1       712 2.82661E-03
 -1       713 1.92134E-03
 -1       714 2.00970E-03
 -1       715 1.91859E-03
 -1       716 2.00970E-03
 -1       717 8.73488E+00
 -1       718 5.59495E+00
 -1       719 2.01223E-03
 -1       720 2.01223E-03
 -1       721 1.98531E-03
 -1       722 1.26022E+01
 -1       723 3.46040E+00
 -1       724 1.33268E+01
 -1       725 1.48628E+01
 -1       726 7.23378E+00
 -1       727 7.48127E+00
 -1       728 7.76379E-01
 -1       729 9.19009E+00
 -1       730 1.94705E-03
 -1       731 4.62836E+00
 -1       732 1.68068E+01
 -1       733 7.35763E-01
 -1       734 7.36967E-01
 -1       735 6.22379E+00
 -1       736 5.01047E+00
 -1       737 3.80082E+00
 -1       738 1.05593E+01
 -1       739 1.41862E+01
 -1       740 3.47106E+00
 -1       741 6.43898E-01
 -1       742 7.96030E-01
 -1       743 4.60829E+00
 -1       744 4.07103E+00
 -1       745 4.25531E+00
 -1       746 1.33836E+01
 -1       747 1.68026E+01
 -1       748 7.09766E+00
 -1       749 8.73635E-01
 -1       750 3.98792E-01
 -1       751 6.91271E+00
 -1       752 4.74178E+00
 -1       753 2.16605E-03
 -1       754 5.98912E-01
 -1       755 2.85952E+00
 -1       756 1.96826E-03
 -1       757 3.82250E+00
 -1       758 2.21709E-03
 -1       759 9.26353E-01
 -1       760 7.11009E-01
 -1       761 2.49317E+00
 -1       762 1.96958E+00
 -1       763 9.50369E-01
 -1       764 1.16805E+00
 -1       765 1.46039E+00
 -1       766 1.75409E+00
 -1       767 3.10629E+00
 -1       768 4.94903E+00
 -1       769 4.46414E+00
 -1       770 3.55501E+00
 -1       771 2.72877E+00
 -1       772 2.05674E+00
 -1       773 1.65402E+00
 -1       774 1.32757E+00
 -1       775 1.03831E+00
 -1       776 8.19505E-01
 -1       777 6.43979E-01
 -1       778 5.11954E-01
 -1       779 4.07457E-01
 -1       780 3.16396E-01
 -1       781 2.40102E-01
 -1       782 1.78070E-01
 -1       783 1.29358E-01
 -1       784 9.30581E-02
 -1       785 6.52120E-02
 -1       786 4.42515E-02
 -1       787 2.98643E-02
 -1       788 1.94272E-02
 -1       789 1.19566E-02
 -1       790 6.75504E-03
 -1       791 5.45056E-03
 -1       792 5.52738E-03
 -1       793 5.10181E-03
 -1       794 4.38619E-03
 -1       795 3.53327E-03
 -1       796 2.88922E-03
 -1       797 1.54391E+00
 -1       798 3.18719E+00
 -1       799 4.74178E+00
 -1       800 3.64741E+00
 -1       801 2.36322E+00
 -1       802 1.98429E+00
 -1       803 1.51505E+00
 -1       804 1.25865E+00
 -1       805 1.04443E+00
 -1       806 8.50673E-01
 -1       807 6.87738E-01
 -1       808 5.45048E-01
 -1       809 4.24905E-01
 -1       810 3.27923E-01
 -1       811 2.51200E-01
 -1       812 1.89692E-01
 -1       813 1.40945E-01
 -1       814 1.02808E-01
 -1       815 7.33938E-02
 -1       816 5.10611E-02
 -1       817 3.43975E-02
 -1       818 2.22073E-02
 -1       819 1.34938E-02
 -1       820 8.02842E-03
 -1       821 7.10156E-03
 -1       822 6.74421E-03
 -1       823 5.97206E-03
 -1       824 4.98474E-03
 -1       825 3.96009E-03
 -1       826 3.24280E-03
 -1       827 2.64714E-03
 -1       828 5.01032E+00
 -1       829 1.81446E-03
 -1       830 7.18121E+00
 -1       831 2.24536E-03
 -1       832 7.03872E+00
 -1       833 5.33349E+00
 -1       834 9.67568E+00
 -1       835 1.02609E+00
 -1       836 8.07979E+00
 -1       837 2.24536E-03
 -1       838 1.21489E+00
 -1       839 8.91767E+00
 -1       840 9.35691E+00
 -1       841 1.00880E+01
 -1       842 9.06597E-01
 -1       843 2.58811E+00
 -1       844 9.81513E+00
 -1       845 4.17081E+00
 -1       846 1.00880E+01
 -1       847 6.80288E-01
 -1       848 2.98716E+00
 -1       849 6.30841E+00
 -1       850 1.09394E+01
 -1       851 6.22168E-01
 -1       852 1.97945E-03
 -1       853 7.55149E+00
 -1       854 6.02046E-01
 -1       855 4.74178E+00
 -1       856 9.06597E-01
 -1       857 9.78811E-01
 -1       858 2.21555E-03
 -1       859 1.99952E-03
 -1       860 6.95140E+00
 -1       861 6.66393E+00
 -1       862 8.33653E-01
 -1       863 5.58741E+00
 -1       864 2.21555E-03
 -1       865 7.85801E-01
 -1       866 7.75578E-01
 -1       867 2.37746E-03
 -1       868 3.30370E+00
 -1       869 6.12856E+00
 -1       870 1.51240E+00
 -1       871 2.23540E+00
 -1       872 2.71467E+00
 -1       873 6.39199E+00
 -1       874 4.24977E+00
 -1       875 2.80474E+00
 -1       876 1.76799E+00
 -1       877 1.28277E+00
 -1       878 9.83341E-01
 -1       879 8.02474E-01
 -1       880 6.43979E-01
 -1       881 5.08894E-01
 -1       882 3.96393E-01
 -1       883 3.04228E-01
 -1       884 2.29853E-01
 -1       885 1.70682E-01
 -1       886 1.24283E-01
 -1       887 8.84534E-02
 -1       888 6.13170E-02
 -1       889 4.21924E-02
 -1       890 2.79926E-02
 -1       891 1.76670E-02
 -1       892 1.03713E-02
 -1       893 5.45436E-03
 -1       894 2.98514E-03
 -1       895 3.59368E-03
 -1       896 3.64815E-03
 -1       897 3.32847E-03
 -1       898 2.33279E-03
 -1       899 2.42992E+00
 -1       900 1.75740E+00
 -1       901 1.30096E+00
 -1       902 9.95367E-01
 -1       903 7.83319E-01
 -1       904 6.41356E-01
 -1       905 5.14939E-01
 -1       906 4.05210E-01
 -1       907 3.12795E-01
 -1       908 2.36945E-01
 -1       909 1.75980E-01
 -1       910 1.27902E-01
 -1       911 9.06823E-02
 -1       912 6.33424E-02
 -1       913 4.32683E-02
 -1       914 2.84059E-02
 -1       915 1.77030E-02
 -1       916 1.02488E-02
 -1       917 5.51411E-03
 -1       918 3.97735E-03
 -1       919 4.40736E-03
 -1       920 4.26890E-03
 -1       921 3.78792E-03
 -1       922 3.09917E-03
 -1       923 1.35987E+00
 -1       924 1.80155E+00
 -1       925 5.03487E+00
 -1       926 5.70827E+00
 -1       927 7.32055E-01
 -1       928 5.88092E+00
 -1       929 3.99033E+00
 -1       930 3.64899E+00
 -1       931 6.41901E+00
 -1       932 1.09452E+00
 -1       933 6.23350E+00
 -1       934 3.85541E+00
 -1       935 2.42307E+00
 -1       936 2.60903E-03
 -1       937 9.57279E-01
 -1       938 1.09017E+00
 -1       939 3.99033E+00
 -1       940 1.85471E-03
 -1       941 2.83731E-03
 -1       942 1.07039E+00
 -1       943 2.33279E-03
 -1       944 2.02615E-03
 -1       945 8.36181E+00
 -1       946 4.96193E+00
 -1       947 1.00777E+00
 -1       948 1.85828E-03
 -1       949 8.80183E-01
 -1       950 6.23350E+00
 -1       951 5.14263E+00
 -1       952 7.94359E+00
 -1       953 2.75912E-03
 -1       954 8.80183E-01
 -1       955 4.05381E+00
 -1       956 4.05381E+00
 -1       957 2.80671E+00
 -1       958 1.26313E+00
 -1       959 3.53137E+00
 -1       960 1.68816E+00
 -1       961 1.28277E+00
 -1       962 9.83341E-01
 -1       963 7.56383E-01
 -1       964 5.82798E-01
 -1       965 4.48571E-01
 -1       966 3.43487E-01
 -1       967 2.60933E-01
 -1       968 1.96042E-01
 -1       969 1.45240E-01
 -1       970 1.05782E-01
 -1       971 7.54703E-02
 -1       972 5.24965E-02
 -1       973 3.57543E-02
 -1       974 2.39985E-02
 -1       975 1.54053E-02
 -1       976 9.26389E-03
 -1       977 5.04373E-03
 -1       978 2.49389E-03
 -1       979 2.36631E-03
 -1       980 2.63774E-03
 -1       981 2.20684E+00
 -1       982 1.89953E-03
 -1       983 4.14466E+00
 -1       984 4.08838E+00
 -1       985 9.95367E-01
 -1       986 7.83319E-01
 -1       987 6.13385E-01
 -1       988 4.77775E-01
 -1       989 3.68513E-01
 -1       990 2.81194E-01
 -1       991 2.11797E-01
 -1       992 1.57094E-01
 -1       993 1.14429E-01
 -1       994 8.15763E-02
 -1       995 5.66490E-02
 -1       996 3.87595E-02
 -1       997 2.58875E-02
 -1       998 1.65005E-02
 -1       999 9.81364E-03
 -1      1000 5.26172E-03
 -1      1001 2.50020E-03
 -1      1002 2.85941E-03
 -1      1003 3.04131E-03
 -1      1004 1.84941E+00
 -1      1005 1.43877E+00
 -1      1006 5.93361E+00
 -1      1007 5.93361E+00
 -1      1008 3.78464E+00
 -1      1009 9.42163E-01
 -1      1010 1.00138E+00
 -1      1011 9.70978E-01
 -1      1012 2.05775E+00
 -1      1013 4.16187E+00
 -1      1014 2.04766E+00
 -1      1015 1.77158E+00
 -1      1016 2.22305E-03
 -1      1017 3.84275E+00
 -1      1018 3.58818E+00
 -1      1019 1.66453E-03
 -1      1020 3.41560E+00
 -1      1021 1.09017E+00
 -1      1022 5.93361E+00
 -1      1023 4.77089E+00
 -1      1024 2.04766E+00
 -1      1025 5.00526E+00
 -1      1026 1.54793E+00
 -1      1027 1.13079E+00
 -1      1028 8.24704E-01
 -1      1029 6.12910E-01
 -1      1030 4.62243E-01
 -1      1031 3.50343E-01
 -1      1032 2.65822E-01
 -1      1033 2.00672E-01
 -1      1034 1.50075E-01
 -1      1035 1.10791E-01
 -1      1036 8.04593E-02
 -1      1037 5.72590E-02
 -1      1038 3.97314E-02
 -1      1039 2.68732E-02
 -1      1040 1.87135E-02
 -1      1041 1.25617E-02
 -1      1042 8.00531E-03
 -1      1043 4.70073E-03
 -1      1044 2.35506E-03
 -1      1045 1.75758E-03
 -1      1046 1.81419E+00
 -1      1047 2.85223E+00
 -1      1048 4.65260E+00
 -1      1049 1.55348E+00
 -1      1050 6.83202E-01
 -1      1051 5.20973E-01
 -1      1052 3.96749E-01
 -1      1053 3.01950E-01
 -1      1054 2.28458E-01
 -1      1055 1.71159E-01
 -1      1056 1.26545E-01
 -1      1057 9.20245E-02
 -1      1058 6.55766E-02
 -1      1059 4.55690E-02
 -1      1060 3.08550E-02
 -1      1061 2.07589E-02
 -1      1062 1.33681E-02
 -1      1063 8.19191E-03
 -1      1064 4.80440E-03
 -1      1065 2.50020E-03
 -1      1066 1.98360E-03
 -1      1067 2.59815E+00
 -1      1068 2.90745E+00
 -1      1069 1.40347E+00
 -1      1070 4.30571E+00
 -1      1071 9.06969E-01
 -1      1072 1.90020E-03
 -1      1073 1.20717E+00
 -1      1074 3.03589E+00
 -1      1075 1.98456E+00
 -1      1076 4.30571E+00
 -1      1077 2.76341E+00
 -1      1078 1.52396E-03
 -1      1079 1.71648E+00
 -1      1080 3.89731E-01
 -1      1081 1.94343E+00
 -1      1082 1.05116E+00
 -1      1083 6.56739E-01
 -1      1084 5.07549E-01
 -1      1085 3.89731E-01
 -1      1086 2.98511E-01
 -1      1087 2.27396E-01
 -1      1088 1.71671E-01
 -1      1089 1.28163E-01
 -1      1090 9.57083E-02
 -1      1091 7.02549E-02
 -1      1092 5.05251E-02
 -1      1093 3.54394E-02
 -1      1094 2.44848E-02
 -1      1095 1.67524E-02
 -1      1096 1.09797E-02
 -1      1097 6.74363E-03
 -1      1098 3.68816E-03
 -1      1099 1.75758E-03
 -1      1100 5.07549E-01
 -1      1101 6.56739E-01
 -1      1102 2.98511E-01
 -1      1103 2.27396E-01
 -1      1104 1.71671E-01
 -1      1105 1.28025E-01
 -1      1106 9.40196E-02
 -1      1107 6.77625E-02
 -1      1108 4.77790E-02
 -1      1109 3.36120E-02
 -1      1110 2.29388E-02
 -1      1111 1.50326E-02
 -1      1112 9.27789E-03
 -1      1113 5.10423E-03
 -1      1114 1.52533E+00
 -1      1115 1.05116E+00
 -1      1116 2.12604E+00
 -1      1117 2.33859E-03
 -1      1118 1.61815E+00
 -1      1119 1.51586E+00
 -1      1120 2.12604E+00
 -1      1121 9.43969E-01
 -1      1122 1.52533E+00
 -1      1123 1.23872E+01
 -1      1124 7.96997E+00
 -1      1125 2.77462E+00
 -1      1126 1.73021E+00
 -1      1127 1.31172E+00
 -1      1128 1.04155E+00
 -1      1129 8.23298E-01
 -1      1130 6.42098E-01
 -1      1131 5.63962E-01
 -1      1132 6.48699E-01
 -1      1133 8.25516E-01
 -1      1134 1.04566E+00
 -1      1135 1.32672E+00
 -1      1136 1.74319E+00
 -1      1137 2.70331E+00
 -1      1138 5.74867E+00
 -1      1139 1.06931E+01
 -1      1140 1.23872E+01
 -1      1141 8.14575E+00
 -1      1142 3.27365E+00
 -1      1143 2.13240E+00
 -1      1144 1.32441E+00
 -1      1145 9.17019E-01
 -1      1146 9.12065E-01
 -1      1147 1.11009E+00
 -1      1148 1.20309E+00
 -1      1149 1.21080E+00
 -1      1150 1.31282E+00
 -1      1151 1.65906E+00
 -1      1152 2.64627E+00
 -1      1153 3.74182E+00
 -1      1154 4.10903E+00
 -1      1155 4.11596E+00
 -1      1156 3.93889E+00
 -1      1157 3.10122E+00
 -1      1158 2.05664E+00
 -1      1159 1.53256E+00
 -1      1160 1.39246E+00
 -1      1161 1.36923E+00
 -1      1162 1.33585E+00
 -1      1163 1.24254E+00
 -1      1164 1.04891E+00
 -1      1165 8.44861E-01
 -1      1166 6.66425E-01
 -1      1167 5.35460E-01
 -1      1168 4.47570E-01
 -1      1169 3.65529E-01
 -1      1170 2.89304E-01
 -1      1171 2.22719E-01
 -1      1172 1.67048E-01
 -1      1173 1.24807E-01
 -1      1174 9.86260E-02
 -1      1175 8.12511E-02
 -1      1176 6.54591E-02
 -1      1177 5.16560E-02
 -1      1178 3.99403E-02
 -1      1179 3.02227E-02
 -1      1180 2.32734E-02
 -1      1181 1.88057E-02
 -1      1182 1.51608E-02
 -1      1183 1.18348E-02
 -1      1184 8.83524E-03
 -1      1185 6.28736E-03
 -1      1186 4.79731E-03
 -1      1187 3.97877E-03
 -1      1188 3.02758E-03
 -1      1189 1.51699E-03
 -1      1190 1.32915E+01
 -1      1191 8.22466E+00
 -1      1192 2.58417E+00
 -1      1193 1.73347E+00
 -1      1194 1.29067E+00
 -1      1195 9.63552E-01
 -1      1196 7.79125E-01
 -1      1197 8.41733E-01
 -1      1198 9.70260E-01
 -1      1199 1.17559E+00
 -1      1200 1.36693E+00
 -1      1201 1.58936E+00
 -1      1202 2.14540E+00
 -1      1203 2.94028E+00
 -1      1204 3.58309E+00
 -1      1205 3.81371E+00
 -1      1206 3.83387E+00
 -1      1207 3.31157E+00
 -1      1208 2.20895E+00
 -1      1209 1.36847E+00
 -1      1210 1.15771E+00
 -1      1211 1.26077E+00
 -1      1212 1.31446E+00
 -1      1213 1.27647E+00
 -1      1214 1.15462E+00
 -1      1215 9.85940E-01
 -1      1216 8.17351E-01
 -1      1217 6.53173E-01
 -1      1218 5.01789E-01
 -1      1219 3.76955E-01
 -1      1220 2.87592E-01
 -1      1221 2.21782E-01
 -1      1222 1.66620E-01
 -1      1223 1.21940E-01
 -1      1224 8.67612E-02
 -1      1225 6.08674E-02
 -1      1226 4.62398E-02
 -1      1227 3.82889E-02
 -1      1228 3.09935E-02
 -1      1229 2.45532E-02
 -1      1230 1.99662E-02
 -1      1231 1.71807E-02
 -1      1232 1.47299E-02
 -1      1233 1.22171E-02
 -1      1234 9.74761E-03
 -1      1235 7.47842E-03
 -1      1236 5.42074E-03
 -1      1237 3.94779E-03
 -1      1238 2.68932E-03
 -1      1239 1.16538E-03
 -1      1240 6.57635E-04
 -1      1241 8.73114E-04
 -1      1242 6.91477E-04
 -1      1243 3.72627E-04
 -1      1244 3.25135E-04
 -1      1245 4.87841E-04
 -1      1246 5.82813E-04
 -1      1247 6.22850E-04
 -1      1248 6.30698E-04
 -1      1249 6.22425E-04
 -1      1250 5.79236E-04
 -1      1251 4.83851E-04
 -1      1252 3.22559E-04
 -1      1253 3.76429E-04
 -1      1254 8.37002E-04
 -1      1255 1.30667E-03
 -1      1256 9.86273E-04
 -1      1257 2.48656E+01
 -1      1258 3.63050E+01
 -1      1259 4.74579E+01
 -1      1260 3.40889E+01
 -1      1261 1.65162E+01
 -1      1262 1.23759E+01
 -1      1263 1.24394E+01
 -1      1264 1.26223E+01
 -1      1265 1.28052E+01
 -1      1266 1.28825E+01
 -1      1267 2.13116E+01
 -1      1268 2.97913E+01
 -1      1269 2.90660E+01
 -1      1270 2.66312E+01
 -1      1271 2.49496E+01
 -1      1272 2.48495E+01
 -1      1273 3.28146E+01
 -1      1274 4.07797E+01
 -1      1275 2.79169E+01
 -1      1276 1.34872E+01
 -1      1277 1.19205E+01
 -1      1278 1.18710E+01
 -1      1279 1.19068E+01
 -1      1280 1.19919E+01
 -1      1281 1.20225E+01
 -1      1282 1.96836E+01
 -1      1283 2.82972E+01
 -1      1284 2.85697E+01
 -1      1285 2.62436E+01
 -1      1286 2.46035E+01
 -1      1287 1.23872E+01
 -1      1288 4.66679E+00
 -1      1289 9.08398E+00
 -1      1290 2.22686E+00
 -1      1291 3.00502E+00
 -1      1292 4.11903E+00
 -1      1293 1.58917E+00
 -1      1294 1.85542E+00
 -1      1295 2.08582E+00
 -1      1296 1.23611E+00
 -1      1297 1.38835E+00
 -1      1298 1.51356E+00
 -1      1299 9.76055E-01
 -1      1300 1.09399E+00
 -1      1301 1.17062E+00
 -1      1302 7.64562E-01
 -1      1303 8.64876E-01
 -1      1304 9.17318E-01
 -1      1305 5.91132E-01
 -1      1306 6.72018E-01
 -1      1307 7.13596E-01
 -1      1308 5.25579E-01
 -1      1309 5.22829E-01
 -1      1310 5.52749E-01
 -1      1311 6.79031E-01
 -1      1312 5.97045E-01
 -1      1313 5.55911E-01
 -1      1314 8.63855E-01
 -1      1315 7.69024E-01
 -1      1316 7.17370E-01
 -1      1317 1.10585E+00
 -1      1318 9.80530E-01
 -1      1319 9.24038E-01
 -1      1320 1.40569E+00
 -1      1321 1.24994E+00
 -1      1322 1.18481E+00
 -1      1323 1.87029E+00
 -1      1324 1.60957E+00
 -1      1325 1.53278E+00
 -1      1326 2.92327E+00
 -1      1327 2.22388E+00
 -1      1328 2.09026E+00
 -1      1329 5.93557E+00
 -1      1330 3.58960E+00
 -1      1331 3.11018E+00
 -1      1332 1.32915E+01
 -1      1333 1.06931E+01
 -1      1334 8.53401E+00
 -1      1335 1.32915E+01
 -1      1336 8.14575E+00
 -1      1337 3.90433E+00
 -1      1338 3.27365E+00
 -1      1339 2.64298E+00
 -1      1340 3.27365E+00
 -1      1341 2.13240E+00
 -1      1342 1.62182E+00
 -1      1343 2.13240E+00
 -1      1344 1.32441E+00
 -1      1345 1.02700E+00
 -1      1346 1.32441E+00
 -1      1347 9.17019E-01
 -1      1348 8.07039E-01
 -1      1349 9.17019E-01
 -1      1350 7.84885E-01
 -1      1351 8.89911E-01
 -1      1352 7.84885E-01
 -1      1353 1.01709E+00
 -1      1354 1.11009E+00
 -1      1355 8.89911E-01
 -1      1356 1.20309E+00
 -1      1357 1.20309E+00
 -1      1358 1.11009E+00
 -1      1359 1.16471E+00
 -1      1360 1.17242E+00
 -1      1361 1.16471E+00
 -1      1362 1.21851E+00
 -1      1363 1.31282E+00
 -1      1364 1.17242E+00
 -1      1365 1.40712E+00
 -1      1366 1.65906E+00
 -1      1367 1.31282E+00
 -1      1368 2.02475E+00
 -1      1369 2.76002E+00
 -1      1370 1.77281E+00
 -1      1371 3.38154E+00
 -1      1372 3.74182E+00
 -1      1373 2.76002E+00
 -1      1374 4.10209E+00
 -1      1375 4.10903E+00
 -1      1376 3.74182E+00
 -1      1377 4.11596E+00
 -1      1378 4.11596E+00
 -1      1379 4.10903E+00
 -1      1380 3.93889E+00
 -1      1381 3.76182E+00
 -1      1382 3.93889E+00
 -1      1383 3.10122E+00
 -1      1384 2.44061E+00
 -1      1385 3.10122E+00
 -1      1386 2.05664E+00
 -1      1387 1.67266E+00
 -1      1388 2.05664E+00
 -1      1389 1.49095E+00
 -1      1390 1.35085E+00
 -1      1391 1.49095E+00
 -1      1392 1.39246E+00
 -1      1393 1.39246E+00
 -1      1394 1.35085E+00
 -1      1395 1.36923E+00
 -1      1396 1.34601E+00
 -1      1397 1.36923E+00
 -1      1398 1.33585E+00
 -1      1399 1.32569E+00
 -1      1400 1.33585E+00
 -1      1401 1.24254E+00
 -1      1402 1.15939E+00
 -1      1403 1.24254E+00
 -1      1404 1.05894E+00
 -1      1405 9.48453E-01
 -1      1406 1.05894E+00
 -1      1407 8.78227E-01
 -1      1408 7.84664E-01
 -1      1409 8.88256E-01
 -1      1410 7.23904E-01
 -1      1411 6.39031E-01
 -1      1412 7.57270E-01
 -1      1413 5.72741E-01
 -1      1414 5.26650E-01
 -1      1415 6.30220E-01
 -1      1416 4.63581E-01
 -1      1417 4.21782E-01
 -1      1418 5.00862E-01
 -1      1419 3.66490E-01
 -1      1420 3.26248E-01
 -1      1421 3.82501E-01
 -1      1422 2.89304E-01
 -1      1423 2.53320E-01
 -1      1424 2.90265E-01
 -1      1425 2.25733E-01
 -1      1426 1.95131E-01
 -1      1427 2.25733E-01
 -1      1428 1.71880E-01
 -1      1429 1.46811E-01
 -1      1430 1.74894E-01
 -1      1431 1.27667E-01
 -1      1432 1.10495E-01
 -1      1433 1.32499E-01
 -1      1434 9.86260E-02
 -1      1435 8.96171E-02
 -1      1436 1.01486E-01
 -1      1437 8.12511E-02
 -1      1438 7.28850E-02
 -1      1439 8.12511E-02
 -1      1440 6.54591E-02
 -1      1441 5.80332E-02
 -1      1442 6.54591E-02
 -1      1443 5.16560E-02
 -1      1444 4.52788E-02
 -1      1445 5.16560E-02
 -1      1446 3.99403E-02
 -1      1447 3.46018E-02
 -1      1448 3.99403E-02
 -1      1449 3.05310E-02
 -1      1450 2.61519E-02
 -1      1451 3.05310E-02
 -1      1452 2.32734E-02
 -1      1453 2.07032E-02
 -1      1454 2.35817E-02
 -1      1455 1.88057E-02
 -1      1456 1.69081E-02
 -1      1457 1.88057E-02
 -1      1458 1.51608E-02
 -1      1459 1.34134E-02
 -1      1460 1.51608E-02
 -1      1461 1.18348E-02
 -1      1462 1.02561E-02
 -1      1463 1.18348E-02
 -1      1464 9.01689E-03
 -1      1465 7.59603E-03
 -1      1466 9.01689E-03
 -1      1467 6.53303E-03
 -1      1468 5.40601E-03
 -1      1469 6.71468E-03
 -1      1470 4.79731E-03
 -1      1471 4.43428E-03
 -1      1472 5.04298E-03
 -1      1473 3.97877E-03
 -1      1474 3.52327E-03
 -1      1475 3.97877E-03
 -1      1476 3.02758E-03
 -1      1477 2.53189E-03
 -1      1478 3.02758E-03
 -1      1479 2.00118E-03
 -1      1480 2.00118E-03
 -1      1481 3.15778E+00
 -1      1482 8.22466E+00
 -1      1483 8.22466E+00
 -1      1484 2.01056E+00
 -1      1485 2.58417E+00
 -1      1486 2.58417E+00
 -1      1487 1.45637E+00
 -1      1488 1.73347E+00
 -1      1489 1.73347E+00
 -1      1490 1.12497E+00
 -1      1491 1.29067E+00
 -1      1492 1.29067E+00
 -1      1493 8.02135E-01
 -1      1494 9.63552E-01
 -1      1495 9.63552E-01
 -1      1496 7.56116E-01
 -1      1497 7.79125E-01
 -1      1498 7.79125E-01
 -1      1499 8.15472E-01
 -1      1500 7.29856E-01
 -1      1501 7.29856E-01
 -1      1502 9.70260E-01
 -1      1503 9.27349E-01
 -1      1504 8.15472E-01
 -1      1505 1.17559E+00
 -1      1506 1.01317E+00
 -1      1507 9.70260E-01
 -1      1508 1.36693E+00
 -1      1509 1.33801E+00
 -1      1510 1.17559E+00
 -1      1511 1.58936E+00
 -1      1512 1.39585E+00
 -1      1513 1.36693E+00
 -1      1514 2.14540E+00
 -1      1515 1.78286E+00
 -1      1516 1.58936E+00
 -1      1517 2.94028E+00
 -1      1518 2.50794E+00
 -1      1519 2.14540E+00
 -1      1520 3.58309E+00
 -1      1521 3.37262E+00
 -1      1522 2.94028E+00
 -1      1523 3.81371E+00
 -1      1524 3.79356E+00
 -1      1525 3.58309E+00
 -1      1526 3.83387E+00
 -1      1527 3.83387E+00
 -1      1528 3.81371E+00
 -1      1529 2.78928E+00
 -1      1530 3.31157E+00
 -1      1531 3.31157E+00
 -1      1532 1.62861E+00
 -1      1533 2.20895E+00
 -1      1534 2.20895E+00
 -1      1535 1.09164E+00
 -1      1536 1.35178E+00
 -1      1537 1.35178E+00
 -1      1538 1.15771E+00
 -1      1539 1.10833E+00
 -1      1540 1.09164E+00
 -1      1541 1.26077E+00
 -1      1542 1.20708E+00
 -1      1543 1.15771E+00
 -1      1544 1.31446E+00
 -1      1545 1.31446E+00
 -1      1546 1.26077E+00
 -1      1547 1.23849E+00
 -1      1548 1.27647E+00
 -1      1549 1.27647E+00
 -1      1550 1.07075E+00
 -1      1551 1.15462E+00
 -1      1552 1.15462E+00
 -1      1553 9.01133E-01
 -1      1554 9.85940E-01
 -1      1555 9.85940E-01
 -1      1556 7.39552E-01
 -1      1557 8.23335E-01
 -1      1558 8.23335E-01
 -1      1559 5.85992E-01
 -1      1560 6.66387E-01
 -1      1561 6.72371E-01
 -1      1562 4.47335E-01
 -1      1563 5.18325E-01
 -1      1564 5.31538E-01
 -1      1565 3.35017E-01
 -1      1566 3.88861E-01
 -1      1567 4.05397E-01
 -1      1568 2.52322E-01
 -1      1569 2.87841E-01
 -1      1570 2.99746E-01
 -1      1571 1.91491E-01
 -1      1572 2.21782E-01
 -1      1573 2.22031E-01
 -1      1574 1.41748E-01
 -1      1575 1.66620E-01
 -1      1576 1.66620E-01
 -1      1577 1.02986E-01
 -1      1578 1.22795E-01
 -1      1579 1.22795E-01
 -1      1580 7.30557E-02
 -1      1581 8.84254E-02
 -1      1582 8.92807E-02
 -1      1583 5.12756E-02
 -1      1584 6.17997E-02
 -1      1585 6.34639E-02
 -1      1586 4.21364E-02
 -1      1587 4.62398E-02
 -1      1588 4.71721E-02
 -1      1589 3.44415E-02
 -1      1590 3.82889E-02
 -1      1591 3.82889E-02
 -1      1592 2.75455E-02
 -1      1593 3.09935E-02
 -1      1594 3.09935E-02
 -1      1595 2.15608E-02
 -1      1596 2.45532E-02
 -1      1597 2.45532E-02
 -1      1598 1.83717E-02
 -1      1599 1.99662E-02
 -1      1600 1.99662E-02
 -1      1601 1.59898E-02
 -1      1602 1.71807E-02
 -1      1603 1.71807E-02
 -1      1604 1.34701E-02
 -1      1605 1.47299E-02
 -1      1606 1.47299E-02
 -1      1607 1.09641E-02
 -1      1608 1.22171E-02
 -1      1609 1.22171E-02
 -1      1610 8.53113E-03
 -1      1611 9.74761E-03
 -1      1612 9.74761E-03
 -1      1613 6.42572E-03
 -1      1614 7.47842E-03
 -1      1615 7.47842E-03
 -1      1616 4.43859E-03
 -1      1617 5.44357E-03
 -1      1618 5.44357E-03
 -1      1619 3.47982E-03
 -1      1620 3.94779E-03
 -1      1621 3.97062E-03
 -1      1622 1.95066E-03
 -1      1623 2.74117E-03
 -1      1624 2.74117E-03
 -1      1625 1.39106E-03
 -1      1626 8.96450E-04
 -1      1627 9.06653E-04
 -1      1628 7.15528E-04
 -1      1629 8.86962E-04
 -1      1630 9.20501E-04
 -1      1631 4.47227E-04
 -1      1632 5.94643E-04
 -1      1633 7.90127E-04
 -1      1634 5.63138E-04
 -1      1635 4.63215E-04
 -1      1636 6.85230E-04
 -1      1637 7.52170E-04
 -1      1638 6.89387E-04
 -1      1639 8.27467E-04
 -1      1640 8.53630E-04
 -1      1641 8.21441E-04
 -1      1642 1.02299E-03
 -1      1643 8.86919E-04
 -1      1644 8.79071E-04
 -1      1645 1.11770E-03
 -1      1646 8.86919E-04
 -1      1647 8.86919E-04
 -1      1648 1.14314E-03
 -1      1649 8.78500E-04
 -1      1650 8.86773E-04
 -1      1651 1.14299E-03
 -1      1652 8.15646E-04
 -1      1653 8.50563E-04
 -1      1654 1.11491E-03
 -1      1655 6.87772E-04
 -1      1656 7.48241E-04
 -1      1657 1.01957E-03
 -1      1658 4.64158E-04
 -1      1659 5.64982E-04
 -1      1660 8.29372E-04
 -1      1661 5.90747E-04
 -1      1662 4.36054E-04
 -1      1663 6.78477E-04
 -1      1664 8.96627E-04
 -1      1665 5.90747E-04
 -1      1666 6.50372E-04
 -1      1667 1.45860E-03
 -1      1668 1.29481E-03
 -1      1669 1.04855E-03
 -1      1670 1.98931E-03
 -1      1671 2.74600E+01
 -1      1672 2.71734E+01
 -1      1673 3.79737E+01
 -1      1674 2.68209E+01
 -1      1675 4.74579E+01
 -1      1676 4.74579E+01
 -1      1677 2.11275E+01
 -1      1678 3.44965E+01
 -1      1679 1.18716E+01
 -1      1680 1.60753E+01
 -1      1681 1.23759E+01
 -1      1682 1.23124E+01
 -1      1683 1.24394E+01
 -1      1684 1.24394E+01
 -1      1685 1.24515E+01
 -1      1686 1.22686E+01
 -1      1687 1.28052E+01
 -1      1688 1.28052E+01
 -1      1689 1.22504E+01
 -1      1690 1.21730E+01
 -1      1691 2.13116E+01
 -1      1692 1.29599E+01
 -1      1693 2.99192E+01
 -1      1694 2.97913E+01
 -1      1695 2.90660E+01
 -1      1696 2.99192E+01
 -1      1697 2.56436E+01
 -1      1698 2.72251E+01
 -1      1699 2.66025E+01
 -1      1700 2.67025E+01
 -1      1701 2.66025E+01
 -1      1702 2.66025E+01
 -1      1703 3.87919E+01
 -1      1704 3.08268E+01
 -1      1705 4.07797E+01
 -1      1706 4.07797E+01
 -1      1707 1.50540E+01
 -1      1708 2.79169E+01
 -1      1709 1.15763E+01
 -1      1710 1.31431E+01
 -1      1711 1.19205E+01
 -1      1712 1.19205E+01
 -1      1713 1.18216E+01
 -1      1714 1.18710E+01
 -1      1715 1.18423E+01
 -1      1716 1.17571E+01
 -1      1717 1.19919E+01
 -1      1718 1.19919E+01
 -1      1719 1.19512E+01
 -1      1720 1.19206E+01
 -1      1721 1.96836E+01
 -1      1722 1.20531E+01
 -1      1723 2.92802E+01
 -1      1724 2.82972E+01
 -1      1725 2.85697E+01
 -1      1726 2.92802E+01
 -1      1727 2.46280E+01
 -1      1728 2.62436E+01
 -1      1729 2.69541E+01
 -1      1730 2.71734E+01
 -1      1731 2.71979E+01
 -1      1732 1.64829E+01
 -1      1733 3.44965E+01
 -1      1734 1.44292E-03
 -1      1735 1.46625E-03
 -1      1736 2.91287E+01
 -1      1737 3.79737E+01
 -1      1738 2.97679E+01
 -1      1739 1.18716E+01
 -1      1740 1.23759E+01
 -1      1741 1.22686E+01
 -1      1742 1.24515E+01
 -1      1743 1.21730E+01
 -1      1744 1.22504E+01
 -1      1745 2.14395E+01
 -1      1746 2.99192E+01
 -1      1747 2.80783E+01
 -1      1748 2.72965E+01
 -1      1749 2.83554E+01
 -1      1750 3.25798E+01
 -1      1751 3.87919E+01
 -1      1752 2.79169E+01
 -1      1753 1.31431E+01
 -1      1754 1.15763E+01
 -1      1755 1.18710E+01
 -1      1756 1.17571E+01
 -1      1757 1.18423E+01
 -1      1758 1.19206E+01
 -1      1759 1.19512E+01
 -1      1760 2.06667E+01
 -1      1761 2.92802E+01
 -1      1762 9.08398E+00
 -1      1763 2.71979E+01
 -1      1764 1.52127E+00
 -1      1765 1.89271E+00
 -1      1766 2.45487E+00
 -1      1767 4.11664E+00
 -1      1768 1.89032E+00
 -1      1769 9.84575E-01
 -1      1770 1.12670E+00
 -1      1771 7.86525E-01
 -1      1772 8.97704E-01
 -1      1773 8.53782E-01
 -1      1774 6.15600E-01
 -1      1775 7.08144E-01
 -1      1776 6.88529E-01
 -1      1777 4.75995E-01
 -1      1778 5.44298E-01
 -1      1779 5.38846E-01
 -1      1780 5.51892E-01
 -1      1781 4.80426E-01
 -1      1782 4.71975E-01
 -1      1783 7.11448E-01
 -1      1784 6.21455E-01
 -1      1785 5.45970E-01
 -1      1786 9.10522E-01
 -1      1787 7.93847E-01
 -1      1788 6.97932E-01
 -1      1789 1.14025E+00
 -1      1790 9.96160E-01
 -1      1791 8.65968E-01
 -1      1792 1.43594E+00
 -1      1793 1.23206E+00
 -1      1794 1.04342E+00
 -1      1795 1.92707E+00
 -1      1796 1.57347E+00
 -1      1797 1.27276E+00
 -1      1798 2.63925E+00
 -1      1799 1.97292E+00
 -1      1800 1.45614E+00
 -1      1801 7.53679E+00
 -1      1802 2.77928E+00
 -1      1803 1.64202E+00
 -1      1804 2.46992E+00
 -1      1805 4.84257E+00
 -1      1806 1.70337E+00
 -1      1807 2.27698E+00
 -1      1808 1.58911E+00
 -1      1809 2.95297E+01
 -1      1810 2.69597E+01
 -1      1811 3.17840E+00
 -1      1812 1.85673E+00
 -1      1813 1.34615E+00
 -1      1814 1.10999E+00
 -1      1815 8.12583E-01
 -1      1816 8.34325E-01
 -1      1817 7.87465E-01
 -1      1818 6.77485E-01
 -1      1819 5.73048E-01
 -1      1820 7.20161E-01
 -1      1821 6.98007E-01
 -1      1822 5.90606E-01
 -1      1823 7.42035E-01
 -1      1824 8.69215E-01
 -1      1825 6.77311E-01
 -1      1826 8.99772E-01
 -1      1827 9.92774E-01
 -1      1828 7.51897E-01
 -1      1829 9.63113E-01
 -1      1830 9.24729E-01
 -1      1831 7.52793E-01
 -1      1832 9.84120E-01
 -1      1833 1.03021E+00
 -1      1834 7.82523E-01
 -1      1835 1.09662E+00
 -1      1836 1.19092E+00
 -1      1837 9.08318E-01
 -1      1838 1.45299E+00
 -1      1839 1.81868E+00
 -1      1840 1.23679E+00
 -1      1841 2.04984E+00
 -1      1842 2.67136E+00
 -1      1843 1.73002E+00
 -1      1844 2.91632E+00
 -1      1845 3.27660E+00
 -1      1846 2.20614E+00
 -1      1847 3.23814E+00
 -1      1848 3.24507E+00
 -1      1849 2.41264E+00
 -1      1850 3.31500E+00
 -1      1851 3.13793E+00
 -1      1852 2.44411E+00
 -1      1853 2.97584E+00
 -1      1854 2.31523E+00
 -1      1855 2.35195E+00
 -1      1856 2.04597E+00
 -1      1857 1.66200E+00
 -1      1858 1.92059E+00
 -1      1859 1.34810E+00
 -1      1860 1.16638E+00
 -1      1861 1.33743E+00
 -1      1862 1.08064E+00
 -1      1863 1.12225E+00
 -1      1864 9.37779E-01
 -1      1865 1.09870E+00
 -1      1866 1.07547E+00
 -1      1867 8.28487E-01
 -1      1868 1.17586E+00
 -1      1869 1.16570E+00
 -1      1870 9.05328E-01
 -1      1871 1.17675E+00
 -1      1872 1.09360E+00
 -1      1873 1.01676E+00
 -1      1874 1.04940E+00
 -1      1875 9.48945E-01
 -1      1876 9.83610E-01
 -1      1877 8.98075E-01
 -1      1878 8.27848E-01
 -1      1879 8.88537E-01
 -1      1880 7.82655E-01
 -1      1881 7.21895E-01
 -1      1882 7.92473E-01
 -1      1883 6.65898E-01
 -1      1884 5.99608E-01
 -1      1885 6.91283E-01
 -1      1886 5.40703E-01
 -1      1887 4.77634E-01
 -1      1888 5.76380E-01
 -1      1889 4.22264E-01
 -1      1890 3.66972E-01
 -1      1891 4.62105E-01
 -1      1892 3.18454E-01
 -1      1893 2.81510E-01
 -1      1894 3.58217E-01
 -1      1895 2.41047E-01
 -1      1896 2.13460E-01
 -1      1897 2.69237E-01
 -1      1898 1.80973E-01
 -1      1899 1.57722E-01
 -1      1900 1.96287E-01
 -1      1901 1.32499E-01
 -1      1902 1.13355E-01
 -1      1903 1.38578E-01
 -1      1904 9.80267E-02
 -1      1905 8.61580E-02
 -1      1906 9.80267E-02
 -1      1907 7.45457E-02
 -1      1908 6.61796E-02
 -1      1909 7.10865E-02
 -1      1910 5.84965E-02
 -1      1911 5.10706E-02
 -1      1912 5.17911E-02
 -1      1913 4.74216E-02
 -1      1914 4.10444E-02
 -1      1915 4.04590E-02
 -1      1916 3.76312E-02
 -1      1917 3.22927E-02
 -1      1918 3.33968E-02
 -1      1919 2.92298E-02
 -1      1920 2.51590E-02
 -1      1921 2.69207E-02
 -1      1922 2.24908E-02
 -1      1923 1.96123E-02
 -1      1924 2.11896E-02
 -1      1925 1.73818E-02
 -1      1926 1.54843E-02
 -1      1927 1.62909E-02
 -1      1928 1.43563E-02
 -1      1929 1.26089E-02
 -1      1930 1.29324E-02
 -1      1931 1.15273E-02
 -1      1932 9.94867E-03
 -1      1933 1.07228E-02
 -1      1934 8.88344E-03
 -1      1935 7.64423E-03
 -1      1936 8.57602E-03
 -1      1937 6.71468E-03
 -1      1938 5.65168E-03
 -1      1939 6.58123E-03
 -1      1940 4.87333E-03
 -1      1941 4.26463E-03
 -1      1942 4.87333E-03
 -1      1943 3.67273E-03
 -1      1944 3.21722E-03
 -1      1945 3.50308E-03
 -1      1946 2.87818E-03
 -1      1947 2.38249E-03
 -1      1948 1.83991E-03
 -1      1949 2.57214E-03
 -1      1950 1.08775E+00
 -1      1951 1.36484E+00
 -1      1952 1.05765E+00
 -1      1953 8.52351E-01
 -1      1954 1.01805E+00
 -1      1955 6.49431E-01
 -1      1956 6.75246E-01
 -1      1957 8.36663E-01
 -1      1958 5.64045E-01
 -1      1959 6.97541E-01
 -1      1960 7.20550E-01
 -1      1961 5.93661E-01
 -1      1962 6.91601E-01
 -1      1963 7.17861E-01
 -1      1964 6.59286E-01
 -1      1965 7.88673E-01
 -1      1966 6.76796E-01
 -1      1967 6.64801E-01
 -1      1968 8.06177E-01
 -1      1969 7.63266E-01
 -1      1970 6.24590E-01
 -1      1971 1.02041E+00
 -1      1972 8.57988E-01
 -1      1973 6.50994E-01
 -1      1974 1.32644E+00
 -1      1975 1.29752E+00
 -1      1976 9.79912E-01
 -1      1977 1.81378E+00
 -1      1978 1.62028E+00
 -1      1979 1.55086E+00
 -1      1980 2.24957E+00
 -1      1981 1.88704E+00
 -1      1982 1.91796E+00
 -1      1983 2.68191E+00
 -1      1984 2.24957E+00
 -1      1985 1.99121E+00
 -1      1986 2.91632E+00
 -1      1987 2.70585E+00
 -1      1988 2.01515E+00
 -1      1989 3.07656E+00
 -1      1990 3.05641E+00
 -1      1991 2.17917E+00
 -1      1992 2.36409E+00
 -1      1993 2.88638E+00
 -1      1994 2.12908E+00
 -1      1995 1.42125E+00
 -1      1996 2.00159E+00
 -1      1997 1.57640E+00
 -1      1998 9.17817E-01
 -1      1999 1.19465E+00
 -1      2000 9.87294E-01
 -1      2001 9.17651E-01
 -1      2002 9.00953E-01
 -1      2003 7.43832E-01
 -1      2004 1.05730E+00
 -1      2005 1.00792E+00
 -1      2006 8.17242E-01
 -1      2007 1.12909E+00
 -1      2008 1.07541E+00
 -1      2009 9.25624E-01
 -1      2010 1.09967E+00
 -1      2011 1.13765E+00
 -1      2012 9.52285E-01
 -1      2013 9.77611E-01
 -1      2014 1.06148E+00
 -1      2015 9.22657E-01
 -1      2016 8.46829E-01
 -1      2017 9.31635E-01
 -1      2018 8.38500E-01
 -1      2019 7.14265E-01
 -1      2020 7.92063E-01
 -1      2021 7.37758E-01
 -1      2022 5.80497E-01
 -1      2023 6.53663E-01
 -1      2024 6.22391E-01
 -1      2025 4.54310E-01
 -1      2026 5.21977E-01
 -1      2027 5.03269E-01
 -1      2028 3.43702E-01
 -1      2029 4.02177E-01
 -1      2030 3.92616E-01
 -1      2031 2.52570E-01
 -1      2032 2.99746E-01
 -1      2033 2.96526E-01
 -1      2034 1.88700E-01
 -1      2035 2.19240E-01
 -1      2036 2.19240E-01
 -1      2037 1.41193E-01
 -1      2038 1.66064E-01
 -1      2039 1.63273E-01
 -1      2040 1.03841E-01
 -1      2041 1.22795E-01
 -1      2042 1.22239E-01
 -1      2043 7.47199E-02
 -1      2044 8.92807E-02
 -1      2045 8.92807E-02
 -1      2046 5.22079E-02
 -1      2047 6.34639E-02
 -1      2048 6.34639E-02
 -1      2049 3.86607E-02
 -1      2050 4.36964E-02
 -1      2051 4.36964E-02
 -1      2052 3.07085E-02
 -1      2053 3.45559E-02
 -1      2054 3.10802E-02
 -1      2055 2.52190E-02
 -1      2056 2.86669E-02
 -1      2057 2.49339E-02
 -1      2058 2.02170E-02
 -1      2059 2.32093E-02
 -1      2060 2.08828E-02
 -1      2061 1.67474E-02
 -1      2062 1.83419E-02
 -1      2063 1.69981E-02
 -1      2064 1.38683E-02
 -1      2065 1.50592E-02
 -1      2066 1.34350E-02
 -1      2067 1.14942E-02
 -1      2068 1.27540E-02
 -1      2069 1.06325E-02
 -1      2070 9.48220E-03
 -1      2071 1.07352E-02
 -1      2072 8.75927E-03
 -1      2073 7.53310E-03
 -1      2074 8.74958E-03
 -1      2075 7.26769E-03
 -1      2076 5.83757E-03
 -1      2077 6.89027E-03
 -1      2078 5.89225E-03
 -1      2079 4.23135E-03
 -1      2080 5.21350E-03
 -1      2081 4.62535E-03
 -1      2082 3.17138E-03
 -1      2083 3.66218E-03
 -1      2084 3.43211E-03
 -1      2085 2.00251E-03
 -1      2086 2.74117E-03
 -1      2087 2.43272E-03
 -1      2088 1.46625E-03
 -1      2089 8.54093E-04
 -1      2090 8.38105E-04
 -1      2091 1.22743E-03
 -1      2092 1.34832E-03
 -1      2093 1.39630E-03
 -1      2094 1.34832E-03
 -1      2095 1.35781E-03
 -1      2096 1.89407E-03
 -1      2097 1.78563E-03
 -1      2098 1.10427E-03
 -1      2099 9.78020E-04
 -1      2100 1.13089E-03
 -1      2101 1.26066E-03
 -1      2102 1.19139E-03
 -1      2103 1.34194E-03
 -1      2104 1.31906E-03
 -1      2105 1.29362E-03
 -1      2106 1.46202E-03
 -1      2107 1.31906E-03
 -1      2108 1.31906E-03
 -1      2109 1.49498E-03
 -1      2110 1.31725E-03
 -1      2111 1.31739E-03
 -1      2112 1.49331E-03
 -1      2113 1.28931E-03
 -1      2114 1.31725E-03
 -1      2115 1.49164E-03
 -1      2116 1.19066E-03
 -1      2117 1.25806E-03
 -1      2118 1.46040E-03
 -1      2119 9.80791E-04
 -1      2120 1.10358E-03
 -1      2121 1.34208E-03
 -1      2122 8.26784E-04
 -1      2123 8.54889E-04
 -1      2124 1.12910E-03
 -1      2125 1.20102E-03
 -1      2126 1.20102E-03
 -1      2127 1.37744E-03
 -1      2128 3.79737E+01
 -1      2129 2.84896E+01
 -1      2130 3.00993E+01
 -1      2131 3.00993E+01
 -1      2132 2.94601E+01
 -1      2133 3.00993E+01
 -1      2134 1.90918E+01
 -1      2135 3.20532E+01
 -1      2136 2.32928E+01
 -1      2137 2.56190E+01
 -1      2138 2.56246E+01
 -1      2139 9.86138E+00
 -1      2140 9.42051E+00
 -1      2141 1.01591E+01
 -1      2142 1.52113E+01
 -1      2143 1.27680E+01
 -1      2144 1.21289E+00
 -1      2145 1.41371E+00
 -1      2146 1.22060E+00
 -1      2147 1.02685E+00
 -1      2148 1.12798E+01
 -1      2149 1.12163E+01
 -1      2150 8.76526E+00
 -1      2151 1.11093E+01
 -1      2152 1.12801E+01
 -1      2153 1.18975E+01
 -1      2154 1.15438E+01
 -1      2155 1.02192E+01
 -1      2156 1.08514E+01
 -1      2157 1.01120E+01
 -1      2158 9.40253E+00
 -1      2159 8.08084E+00
 -1      2160 2.09949E+01
 -1      2161 1.25152E+01
 -1      2162 2.52024E+01
 -1      2163 2.52024E+01
 -1      2164 2.58595E+01
 -1      2165 2.77003E+01
 -1      2166 3.31247E+01
 -1      2167 3.20658E+01
 -1      2168 3.31247E+01
 -1      2169 3.31247E+01
 -1      2170 3.20136E+01
 -1      2171 2.77893E+01
 -1      2172 3.21788E+01
 -1      2173 3.01909E+01
 -1      2174 2.54004E+01
 -1      2175 1.42484E+01
 -1      2176 2.71113E+01
 -1      2177 9.21547E+00
 -1      2178 1.11264E+01
 -1      2179 1.03208E+01
 -1      2180 1.01500E+01
 -1      2181 9.80588E+00
 -1      2182 1.09458E+01
 -1      2183 1.09952E+01
 -1      2184 1.09439E+01
 -1      2185 1.10084E+01
 -1      2186 1.14951E+01
 -1      2187 1.13455E+01
 -1      2188 1.04161E+01
 -1      2189 1.04875E+01
 -1      2190 9.99068E+00
 -1      2191 9.17107E+00
 -1      2192 9.06913E+00
 -1      2193 2.01514E+01
 -1      2194 1.15378E+01
 -1      2195 8.65578E+00
 -1      2196 2.41518E+01
 -1      2197 2.41518E+01
 -1      2198 5.92970E+00
 -1      2199 7.93990E+00
 -1      2200 6.66834E+00
 -1      2201 2.98611E+01
 -1      2202 2.54773E+00
 -1      2203 1.76148E+00
 -1      2204 2.94601E+01
 -1      2205 3.04307E+01
 -1      2206 1.59920E-03
 -1      2207 2.25690E+01
 -1      2208 2.04905E+01
 -1      2209 1.50229E+01
 -1      2210 7.63604E+00
 -1      2211 1.05967E+01
 -1      2212 1.01326E+01
 -1      2213 7.78923E+00
 -1      2214 1.85103E+01
 -1      2215 3.25586E+01
 -1      2216 3.78941E+01
 -1      2217 3.16877E+01
 -1      2218 2.29835E+01
 -1      2219 9.66737E+00
 -1      2220 1.01205E+01
 -1      2221 9.94370E+00
 -1      2222 1.05554E+01
 -1      2223 1.62781E+01
 -1      2224 9.22482E+00
 -1      2225 9.02030E-01
 -1      2226 1.24055E+00
 -1      2227 6.20594E-01
 -1      2228 6.98975E-01
 -1      2229 7.61260E-01
 -1      2230 8.48132E-01
 -1      2231 6.93325E-01
 -1      2232 3.84820E-01
 -1      2233 3.80389E-01
 -1      2234 5.27892E-01
 -1      2235 4.58328E-01
 -1      2236 3.66742E-01
 -1      2237 7.07777E-01
 -1      2238 6.25378E-01
 -1      2239 5.37737E-01
 -1      2240 8.55621E-01
 -1      2241 7.69983E-01
 -1      2242 6.97429E-01
 -1      2243 9.97132E-01
 -1      2244 9.05323E-01
 -1      2245 8.09337E-01
 -1      2246 1.29711E+00
 -1      2247 1.15958E+00
 -1      2248 1.02149E+00
 -1      2249 9.33257E-01
 -1      2250 6.97099E-01
 -1      2251 5.91700E-01
 -1      2252 6.61397E-01
 -1      2253 8.44299E-01
 -1      2254 1.71374E+00
 -1      2255 1.02274E+00
 -1      2256 8.85516E-01
 -1      2257 1.15158E+00
 -1      2258 6.38533E-01
 -1      2259 6.13415E-01
 -1      2260 7.37465E-01
 -1      2261 6.37791E-01
 -1      2262 6.80467E-01
 -1      2263 7.03276E-01
 -1      2264 7.31551E-01
 -1      2265 7.75579E-01
 -1      2266 7.78736E-01
 -1      2267 8.36770E-01
 -1      2268 8.67327E-01
 -1      2269 8.91010E-01
 -1      2270 9.21691E-01
 -1      2271 8.92030E-01
 -1      2272 1.00656E+00
 -1      2273 9.26582E-01
 -1      2274 9.85973E-01
 -1      2275 1.09548E+00
 -1      2276 1.16275E+00
 -1      2277 1.22915E+00
 -1      2278 1.30681E+00
 -1      2279 1.27520E+00
 -1      2280 1.53727E+00
 -1      2281 1.52963E+00
 -1      2282 1.66932E+00
 -1      2283 1.90048E+00
 -1      2284 1.70773E+00
 -1      2285 2.04461E+00
 -1      2286 2.28957E+00
 -1      2287 1.98390E+00
 -1      2288 2.78255E+00
 -1      2289 2.74409E+00
 -1      2290 2.62101E+00
 -1      2291 2.76110E+00
 -1      2292 2.83103E+00
 -1      2293 3.13101E+00
 -1      2294 2.49750E+00
 -1      2295 2.33541E+00
 -1      2296 2.81449E+00
 -1      2297 2.02986E+00
 -1      2298 1.76060E+00
 -1      2299 2.17541E+00
 -1      2300 1.65199E+00
 -1      2301 1.33809E+00
 -1      2302 1.76126E+00
 -1      2303 1.30123E+00
 -1      2304 1.21548E+00
 -1      2305 1.61579E+00
 -1      2306 1.05961E+00
 -1      2307 1.03607E+00
 -1      2308 1.42306E+00
 -1      2309 1.01064E+00
 -1      2310 1.11103E+00
 -1      2311 1.24177E+00
 -1      2312 1.06891E+00
 -1      2313 1.07996E+00
 -1      2314 1.17423E+00
 -1      2315 1.01377E+00
 -1      2316 9.69572E-01
 -1      2317 1.06592E+00
 -1      2318 9.13106E-01
 -1      2319 8.62236E-01
 -1      2320 9.43271E-01
 -1      2321 8.18109E-01
 -1      2322 7.72915E-01
 -1      2323 8.42678E-01
 -1      2324 7.16920E-01
 -1      2325 6.60923E-01
 -1      2326 7.42556E-01
 -1      2327 6.02084E-01
 -1      2328 5.43178E-01
 -1      2329 6.27721E-01
 -1      2330 4.87307E-01
 -1      2331 4.31938E-01
 -1      2332 5.13011E-01
 -1      2333 3.82180E-01
 -1      2334 3.33662E-01
 -1      2335 4.07383E-01
 -1      2336 2.91314E-01
 -1      2337 2.50851E-01
 -1      2338 3.15276E-01
 -1      2339 2.16038E-01
 -1      2340 1.83551E-01
 -1      2341 2.38115E-01
 -1      2342 1.55736E-01
 -1      2343 1.30513E-01
 -1      2344 1.75487E-01
 -1      2345 1.08837E-01
 -1      2346 9.35089E-02
 -1      2347 1.25996E-01
 -1      2348 7.70035E-02
 -1      2349 6.53912E-02
 -1      2350 8.78137E-02
 -1      2351 5.31096E-02
 -1      2352 4.54265E-02
 -1      2353 5.90266E-02
 -1      2354 3.73393E-02
 -1      2355 3.36903E-02
 -1      2356 3.86578E-02
 -1      2357 2.88860E-02
 -1      2358 2.54728E-02
 -1      2359 2.57663E-02
 -1      2360 2.41597E-02
 -1      2361 2.10968E-02
 -1      2362 1.96490E-02
 -1      2363 1.97441E-02
 -1      2364 1.70759E-02
 -1      2365 1.69832E-02
 -1      2366 1.57011E-02
 -1      2367 1.34706E-02
 -1      2368 1.42556E-02
 -1      2369 1.21574E-02
 -1      2370 1.10293E-02
 -1      2371 1.15675E-02
 -1      2372 9.86839E-03
 -1      2373 8.78683E-03
 -1      2374 9.09331E-03
 -1      2375 8.15556E-03
 -1      2376 7.09033E-03
 -1      2377 7.30114E-03
 -1      2378 6.40056E-03
 -1      2379 5.47101E-03
 -1      2380 5.98011E-03
 -1      2381 4.80594E-03
 -1      2382 4.02760E-03
 -1      2383 4.62528E-03
 -1      2384 3.50308E-03
 -1      2385 2.91118E-03
 -1      2386 3.43569E-03
 -1      2387 6.84877E-01
 -1      2388 6.39572E-01
 -1      2389 7.52753E-01
 -1      2390 7.32432E-01
 -1      2391 7.78343E-01
 -1      2392 7.66768E-01
 -1      2393 7.81573E-01
 -1      2394 8.54719E-01
 -1      2395 7.60419E-01
 -1      2396 7.85826E-01
 -1      2397 9.02597E-01
 -1      2398 9.31057E-01
 -1      2399 8.79246E-01
 -1      2400 1.04048E+00
 -1      2401 1.27043E+00
 -1      2402 9.93325E-01
 -1      2403 1.22158E+00
 -1      2404 1.73014E+00
 -1      2405 1.43630E+00
 -1      2406 1.44971E+00
 -1      2407 1.96453E+00
 -1      2408 1.89128E+00
 -1      2409 1.77672E+00
 -1      2410 2.30913E+00
 -1      2411 2.30913E+00
 -1      2412 2.28245E+00
 -1      2413 2.27234E+00
 -1      2414 2.24840E+00
 -1      2415 2.56632E+00
 -1      2416 2.32979E+00
 -1      2417 2.18971E+00
 -1      2418 2.42296E+00
 -1      2419 1.88033E+00
 -1      2420 2.07050E+00
 -1      2421 2.08104E+00
 -1      2422 1.34272E+00
 -1      2423 1.70523E+00
 -1      2424 1.64666E+00
 -1      2425 1.00037E+00
 -1      2426 1.22697E+00
 -1      2427 1.35580E+00
 -1      2428 9.17120E-01
 -1      2429 9.33984E-01
 -1      2430 1.17366E+00
 -1      2431 9.63376E-01
 -1      2432 8.73102E-01
 -1      2433 1.06325E+00
 -1      2434 9.89848E-01
 -1      2435 9.71741E-01
 -1      2436 1.02760E+00
 -1      2437 9.65224E-01
 -1      2438 9.56670E-01
 -1      2439 1.00279E+00
 -1      2440 8.84422E-01
 -1      2441 9.22604E-01
 -1      2442 9.26988E-01
 -1      2443 7.98631E-01
 -1      2444 8.44607E-01
 -1      2445 8.44553E-01
 -1      2446 6.95317E-01
 -1      2447 7.50082E-01
 -1      2448 7.56190E-01
 -1      2449 5.78221E-01
 -1      2450 6.38823E-01
 -1      2451 6.51147E-01
 -1      2452 4.63245E-01
 -1      2453 5.21765E-01
 -1      2454 5.38197E-01
 -1      2455 3.59387E-01
 -1      2456 4.11521E-01
 -1      2457 4.30017E-01
 -1      2458 2.70692E-01
 -1      2459 3.14648E-01
 -1      2460 3.33553E-01
 -1      2461 2.00258E-01
 -1      2462 2.33589E-01
 -1      2463 2.51711E-01
 -1      2464 1.47860E-01
 -1      2465 1.70496E-01
 -1      2466 1.84845E-01
 -1      2467 1.06253E-01
 -1      2468 1.24651E-01
 -1      2469 1.31874E-01
 -1      2470 7.40552E-02
 -1      2471 8.86159E-02
 -1      2472 9.10279E-02
 -1      2473 5.07381E-02
 -1      2474 6.19941E-02
 -1      2475 6.13294E-02
 -1      2476 3.48289E-02
 -1      2477 4.33404E-02
 -1      2478 4.18706E-02
 -1      2479 2.69755E-02
 -1      2480 3.10802E-02
 -1      2481 3.07242E-02
 -1      2482 2.28924E-02
 -1      2483 2.49339E-02
 -1      2484 2.49339E-02
 -1      2485 1.88731E-02
 -1      2486 2.08828E-02
 -1      2487 2.08828E-02
 -1      2488 1.51231E-02
 -1      2489 1.69981E-02
 -1      2490 1.69981E-02
 -1      2491 1.17468E-02
 -1      2492 1.34350E-02
 -1      2493 1.34350E-02
 -1      2494 9.51824E-03
 -1      2495 1.06325E-02
 -1      2496 1.06325E-02
 -1      2497 7.94677E-03
 -1      2498 8.70573E-03
 -1      2499 8.70573E-03
 -1      2500 6.37039E-03
 -1      2501 7.10300E-03
 -1      2502 7.04946E-03
 -1      2503 4.95997E-03
 -1      2504 5.60280E-03
 -1      2505 5.43811E-03
 -1      2506 3.70062E-03
 -1      2507 4.32469E-03
 -1      2508 4.03524E-03
 -1      2509 2.67238E-03
 -1      2510 3.24155E-03
 -1      2511 2.94089E-03
 -1      2512 2.32428E-03
 -1      2513 1.56815E-03
 -1      2514 1.48103E-03
 -1      2515 1.63878E-03
 -1      2516 1.60582E-03
 -1      2517 1.74491E-03
 -1      2518 1.59267E-03
 -1      2519 1.98200E-03
 -1      2520 1.45652E-03
 -1      2521 1.33260E-03
 -1      2522 1.91830E-03
 -1      2523 1.68273E-03
 -1      2524 1.63878E-03
 -1      2525 1.63878E-03
 -1      2526 1.78258E-03
 -1      2527 1.61452E-03
 -1      2528 1.61619E-03
 -1      2529 1.75999E-03
 -1      2530 1.63529E-03
 -1      2531 1.63529E-03
 -1      2532 1.75817E-03
 -1      2533 1.60405E-03
 -1      2534 1.63529E-03
 -1      2535 1.77895E-03
 -1      2536 1.49167E-03
 -1      2537 1.57874E-03
 -1      2538 1.75364E-03
 -1      2539 1.25486E-03
 -1      2540 1.38076E-03
 -1      2541 1.61743E-03
 -1      2542 1.58514E-03
 -1      2543 1.21090E-03
 -1      2544 1.46256E-03
 -1      2545 3.04307E+01
 -1      2546 3.04307E+01
 -1      2547 1.49172E+01
 -1      2548 2.08378E+01
 -1      2549 5.96127E-01
 -1      2550 6.11815E-01
 -1      2551 6.87342E-01
 -1      2552 2.47757E+01
 -1      2553 2.57462E+01
 -1      2554 1.99239E-03
 -1      2555 1.85625E+01
 -1      2556 1.70953E+01
 -1      2557 9.72741E+00
 -1      2558 9.32584E+00
 -1      2559 2.72231E+01
 -1      2560 3.25586E+01
 -1      2561 8.72561E+00
 -1      2562 8.72530E+00
 -1      2563 2.98611E+01
 -1      2564 2.92915E+01
 -1      2565 2.98611E+01
 -1      2566 2.56246E+01
 -1      2567 2.19577E+01
 -1      2568 1.85625E+01
 -1      2569 4.52980E-01
 -1      2570 5.24281E-01
 -1      2571 5.34727E-01
 -1      2572 3.65825E-01
 -1      2573 8.58621E+00
 -1      2574 1.24667E+01
 -1      2575 1.57142E+01
 -1      2576 1.15067E+01
 -1      2577 9.48817E+00
 -1      2578 9.05365E+00
 -1      2579 7.65842E+00
 -1      2580 5.55640E+00
 -1      2581 6.37307E+00
 -1      2582 8.10539E+00
 -1      2583 7.26020E+00
 -1      2584 9.37868E+00
 -1      2585 6.97548E+00
 -1      2586 5.26771E+00
 -1      2587 2.10133E+01
 -1      2588 1.85154E+01
 -1      2589 3.16877E+01
 -1      2590 2.54814E+01
 -1      2591 3.78941E+01
 -1      2592 3.78941E+01
 -1      2593 3.25586E+01
 -1      2594 2.00490E+01
 -1      2595 2.18717E+01
 -1      2596 1.25293E+01
 -1      2597 1.75967E+01
 -1      2598 7.57470E+00
 -1      2599 1.06967E+01
 -1      2600 6.14617E+00
 -1      2601 5.55575E+00
 -1      2602 9.18747E+00
 -1      2603 9.12491E+00
 -1      2604 8.31816E+00
 -1      2605 7.58572E+00
 -1      2606 8.59335E+00
 -1      2607 5.26873E+00
 -1      2608 6.61573E+00
 -1      2609 8.73176E+00
 -1      2610 6.36502E+00
 -1      2611 1.50413E+01
 -1      2612 1.10409E+01
 -1      2613 1.29005E+00
 -1      2614 1.48299E+00
 -1      2615 1.34296E+00
 -1      2616 1.13443E+00
 -1      2617 7.42506E+00
 -1      2618 8.47124E+00
 -1      2619 7.47174E+00
 -1      2620 6.11680E+00
 -1      2621 1.07354E+01
 -1      2622 7.83503E-01
 -1      2623 8.76025E-01
 -1      2624 9.62218E-01
 -1      2625 2.57462E+01
 -1      2626 1.29711E+00
 -1      2627 4.90061E+00
 -1      2628 9.89807E-01
 -1      2629 1.09737E+00
 -1      2630 9.20788E-01
 -1      2631 8.38985E-01
 -1      2632 1.31133E+01
 -1      2633 8.75017E+00
 -1      2634 5.34471E+00
 -1      2635 2.13373E-03
 -1      2636 2.13373E-03
 -1      2637 1.18393E+00
 -1      2638 1.71239E+01
 -1      2639 5.02673E+00
 -1      2640 5.93164E+00
 -1      2641 6.23782E-01
 -1      2642 2.01948E-03
 -1      2643 1.77877E-03
 -1      2644 1.61223E-03
 -1      2645 2.35852E-03
 -1      2646 7.32246E+00
 -1      2647 9.78315E+00
 -1      2648 5.33000E+00
 -1      2649 3.84939E+00
 -1      2650 4.03648E+00
 -1      2651 3.16877E+01
 -1      2652 2.18717E+01
 -1      2653 8.81478E+00
 -1      2654 7.16028E+00
 -1      2655 8.97139E+00
 -1      2656 7.46967E+00
 -1      2657 6.45274E+00
 -1      2658 6.07683E+00
 -1      2659 2.37484E+01
 -1      2660 2.37484E+01
 -1      2661 2.00815E+01
 -1      2662 1.37439E+01
 -1      2663 2.35852E-03
 -1      2664 7.02224E+00
 -1      2665 6.72087E+00
 -1      2666 4.80299E+00
 -1      2667 2.10133E+01
 -1      2668 1.40680E+01
 -1      2669 5.21841E+00
 -1      2670 2.33010E-03
 -1      2671 6.20783E-01
 -1      2672 5.23296E-01
 -1      2673 4.22250E-01
 -1      2674 3.48742E-01
 -1      2675 5.05296E-01
 -1      2676 8.31885E-01
 -1      2677 7.82182E-01
 -1      2678 1.01009E+00
 -1      2679 8.47645E-01
 -1      2680 8.20489E-01
 -1      2681 1.21013E+01
 -1      2682 1.60392E+01
 -1      2683 7.74000E-01
 -1      2684 7.15434E-01
 -1      2685 7.75038E-01
 -1      2686 1.01567E+00
 -1      2687 1.13443E+00
 -1      2688 1.11144E+00
 -1      2689 1.09238E+00
 -1      2690 9.02937E+00
 -1      2691 6.72020E+00
 -1      2692 7.34535E-01
 -1      2693 7.58911E-01
 -1      2694 7.71070E-01
 -1      2695 8.05995E-01
 -1      2696 8.57079E-01
 -1      2697 8.37255E-01
 -1      2698 9.41197E-01
 -1      2699 1.00239E+00
 -1      2700 9.68457E-01
 -1      2701 1.12789E+00
 -1      2702 1.18226E+00
 -1      2703 1.17808E+00
 -1      2704 1.34268E+00
 -1      2705 1.37723E+00
 -1      2706 1.46400E+00
 -1      2707 1.47648E+00
 -1      2708 1.65325E+00
 -1      2709 1.72367E+00
 -1      2710 2.07211E+00
 -1      2711 2.11816E+00
 -1      2712 2.24178E+00
 -1      2713 1.81041E+00
 -1      2714 1.94245E+00
 -1      2715 2.35289E+00
 -1      2716 2.19953E+00
 -1      2717 2.34366E+00
 -1      2718 2.30221E+00
 -1      2719 2.79422E+00
 -1      2720 3.28720E+00
 -1      2721 3.00984E+00
 -1      2722 3.66661E+00
 -1      2723 3.68363E+00
 -1      2724 3.83982E+00
 -1      2725 3.43173E+00
 -1      2726 3.09820E+00
 -1      2727 3.96733E+00
 -1      2728 2.48096E+00
 -1      2729 2.17541E+00
 -1      2730 3.09820E+00
 -1      2731 2.21223E+00
 -1      2732 2.10363E+00
 -1      2733 2.51778E+00
 -1      2734 2.15594E+00
 -1      2735 2.11908E+00
 -1      2736 2.60691E+00
 -1      2737 1.78532E+00
 -1      2738 1.62945E+00
 -1      2739 2.32547E+00
 -1      2740 1.51789E+00
 -1      2741 1.49247E+00
 -1      2742 1.88015E+00
 -1      2743 1.34829E+00
 -1      2744 1.30617E+00
 -1      2745 1.62440E+00
 -1      2746 1.16172E+00
 -1      2747 1.09553E+00
 -1      2748 1.33578E+00
 -1      2749 1.01202E+00
 -1      2750 9.55553E-01
 -1      2751 1.10781E+00
 -1      2752 8.81486E-01
 -1      2753 8.37359E-01
 -1      2754 9.50233E-01
 -1      2755 7.63875E-01
 -1      2756 7.07880E-01
 -1      2757 8.02683E-01
 -1      2758 6.40327E-01
 -1      2759 5.81488E-01
 -1      2760 6.61647E-01
 -1      2761 5.21995E-01
 -1      2762 4.66124E-01
 -1      2763 5.34601E-01
 -1      2764 4.15257E-01
 -1      2765 3.65500E-01
 -1      2766 4.24241E-01
 -1      2767 3.23020E-01
 -1      2768 2.80671E-01
 -1      2769 3.30894E-01
 -1      2770 2.45912E-01
 -1      2771 2.11100E-01
 -1      2772 2.53656E-01
 -1      2773 1.83187E-01
 -1      2774 1.55372E-01
 -1      2775 1.90984E-01
 -1      2776 1.33353E-01
 -1      2777 1.11676E-01
 -1      2778 1.41052E-01
 -1      2779 9.46096E-02
 -1      2780 7.81042E-02
 -1      2781 1.01967E-01
 -1      2782 6.51126E-02
 -1      2783 5.28310E-02
 -1      2784 7.19085E-02
 -1      2785 4.31278E-02
 -1      2786 3.50406E-02
 -1      2787 4.92137E-02
 -1      2788 2.79436E-02
 -1      2789 2.31393E-02
 -1      2790 3.24135E-02
 -1      2791 1.80720E-02
 -1      2792 1.67589E-02
 -1      2793 2.02493E-02
 -1      2794 1.42229E-02
 -1      2795 1.28702E-02
 -1      2796 1.26459E-02
 -1      2797 1.26195E-02
 -1      2798 1.12446E-02
 -1      2799 9.85917E-03
 -1      2800 1.07488E-02
 -1      2801 9.43551E-03
 -1      2802 9.11263E-03
 -1      2803 8.79395E-03
 -1      2804 7.63304E-03
 -1      2805 7.97524E-03
 -1      2806 6.93599E-03
 -1      2807 6.30472E-03
 -1      2808 6.63663E-03
 -1      2809 5.69285E-03
 -1      2810 5.00308E-03
 -1      2811 5.32769E-03
 -1      2812 4.53329E-03
 -1      2813 3.86823E-03
 -1      2814 4.24603E-03
 -1      2815 3.37915E-03
 -1      2816 2.85463E-03
 -1      2817 3.28716E-03
 -1      2818 1.00125E+00
 -1      2819 9.72435E-01
 -1      2820 1.21009E+00
 -1      2821 5.57914E+00
 -1      2822 6.71321E+00
 -1      2823 8.83056E-01
 -1      2824 8.35501E-01
 -1      2825 1.02959E+00
 -1      2826 1.29848E+00
 -1      2827 1.17965E+00
 -1      2828 1.36943E+00
 -1      2829 1.60162E+00
 -1      2830 1.53935E+00
 -1      2831 1.67851E+00
 -1      2832 1.73709E+00
 -1      2833 1.57122E+00
 -1      2834 1.88899E+00
 -1      2835 2.46251E+00
 -1      2836 2.30137E+00
 -1      2837 2.42288E+00
 -1      2838 3.44118E+00
 -1      2839 3.09658E+00
 -1      2840 3.62124E+00
 -1      2841 3.89036E+00
 -1      2842 3.95109E+00
 -1      2843 4.76522E+00
 -1      2844 3.32638E+00
 -1      2845 3.40902E+00
 -1      2846 4.79378E+00
 -1      2847 2.24009E+00
 -1      2848 2.49937E+00
 -1      2849 3.48543E+00
 -1      2850 1.82559E+00
 -1      2851 2.00069E+00
 -1      2852 2.41903E+00
 -1      2853 1.80297E+00
 -1      2854 1.91873E+00
 -1      2855 2.27276E+00
 -1      2856 1.45444E+00
 -1      2857 1.52083E+00
 -1      2858 2.08375E+00
 -1      2859 1.26293E+00
 -1      2860 1.30694E+00
 -1      2861 1.65411E+00
 -1      2862 1.19719E+00
 -1      2863 1.18882E+00
 -1      2864 1.43251E+00
 -1      2865 1.06553E+00
 -1      2866 1.09871E+00
 -1      2867 1.25993E+00
 -1      2868 9.29914E-01
 -1      2869 9.72534E-01
 -1      2870 1.06845E+00
 -1      2871 8.38343E-01
 -1      2872 8.78158E-01
 -1      2873 9.23703E-01
 -1      2874 7.30514E-01
 -1      2875 7.79063E-01
 -1      2876 8.12667E-01
 -1      2877 6.12271E-01
 -1      2878 6.68765E-01
 -1      2879 6.91638E-01
 -1      2880 4.97141E-01
 -1      2881 5.53597E-01
 -1      2882 5.71215E-01
 -1      2883 3.92805E-01
 -1      2884 4.44530E-01
 -1      2885 4.59929E-01
 -1      2886 3.02782E-01
 -1      2887 3.47521E-01
 -1      2888 3.62035E-01
 -1      2889 2.27912E-01
 -1      2890 2.65015E-01
 -1      2891 2.78983E-01
 -1      2892 1.67461E-01
 -1      2893 1.97224E-01
 -1      2894 2.10528E-01
 -1      2895 1.19879E-01
 -1      2896 1.43088E-01
 -1      2897 1.55466E-01
 -1      2898 8.32863E-02
 -1      2899 1.00924E-01
 -1      2900 1.12137E-01
 -1      2901 5.67823E-02
 -1      2902 6.88433E-02
 -1      2903 7.87392E-02
 -1      2904 3.86069E-02
 -1      2905 4.60046E-02
 -1      2906 5.35185E-02
 -1      2907 2.69944E-02
 -1      2908 3.07431E-02
 -1      2909 3.48771E-02
 -1      2910 2.01115E-02
 -1      2911 2.21531E-02
 -1      2912 2.21720E-02
 -1      2913 1.61488E-02
 -1      2914 1.81585E-02
 -1      2915 1.53776E-02
 -1      2916 1.35955E-02
 -1      2917 1.54705E-02
 -1      2918 1.27462E-02
 -1      2919 1.10539E-02
 -1      2920 1.27420E-02
 -1      2921 1.12144E-02
 -1      2922 9.02345E-03
 -1      2923 1.01377E-02
 -1      2924 9.44476E-03
 -1      2925 7.30556E-03
 -1      2926 8.11807E-03
 -1      2927 7.62327E-03
 -1      2928 5.78950E-03
 -1      2929 6.63327E-03
 -1      2930 6.04560E-03
 -1      2931 4.47489E-03
 -1      2932 5.24248E-03
 -1      2933 4.82628E-03
 -1      2934 3.28631E-03
 -1      2935 3.92159E-03
 -1      2936 3.72596E-03
 -1      2937 2.65422E-03
 -1      2938 3.11329E-03
 -1      2939 2.99964E-03
 -1      2940 2.50250E-03
 -1      2941 1.82937E-03
 -1      2942 1.85196E-03
 -1      2943 1.89614E-03
 -1      2944 1.85847E-03
 -1      2945 1.84877E-03
 -1      2946 1.82799E-03
 -1      2947 1.91996E-03
 -1      2948 1.89614E-03
 -1      2949 1.89614E-03
 -1      2950 2.00970E-03
 -1      2951 1.96552E-03
 -1      2952 1.19511E+01
 -1      2953 9.89711E+00
 -1      2954 7.02574E+00
 -1      2955 6.88738E+00
 -1      2956 5.28242E+00
 -1      2957 1.89559E-03
 -1      2958 1.89559E-03
 -1      2959 1.96541E-03
 -1      2960 1.87028E-03
 -1      2961 1.89559E-03
 -1      2962 2.01223E-03
 -1      2963 1.74591E-03
 -1      2964 1.85682E-03
 -1      2965 1.99877E-03
 -1      2966 1.72799E+01
 -1      2967 1.38848E+01
 -1      2968 4.80058E+00
 -1      2969 3.68655E+00
 -1      2970 2.02750E+01
 -1      2971 2.56104E+01
 -1      2972 2.26467E+01
 -1      2973 2.20772E+01
 -1      2974 9.08827E+00
 -1      2975 6.96029E+00
 -1      2976 7.71593E+00
 -1      2977 9.54850E+00
 -1      2978 7.53583E-01
 -1      2979 7.10138E-01
 -1      2980 8.58297E-01
 -1      2981 1.28676E+01
 -1      2982 1.00664E+01
 -1      2983 1.87645E-03
 -1      2984 1.68282E-03
 -1      2985 2.42911E-03
 -1      2986 6.40408E+00
 -1      2987 5.38456E+00
 -1      2988 1.89343E+01
 -1      2989 2.36187E+01
 -1      2990 7.47699E-01
 -1      2991 6.85493E-01
 -1      2992 6.71053E-01
 -1      2993 7.70246E-01
 -1      2994 6.84003E-01
 -1      2995 7.46288E-01
 -1      2996 7.10512E+00
 -1      2997 6.77709E+00
 -1      2998 4.46158E+00
 -1      2999 6.48053E+00
 -1      3000 5.24381E+00
 -1      3001 3.82472E+00
 -1      3002 1.10875E+01
 -1      3003 1.35398E+01
 -1      3004 1.53532E+01
 -1      3005 2.07047E+01
 -1      3006 3.85974E+00
 -1      3007 4.82973E+00
 -1      3008 6.43898E-01
 -1      3009 6.23782E-01
 -1      3010 7.95153E-01
 -1      3011 7.10138E-01
 -1      3012 8.85516E-01
 -1      3013 7.96030E-01
 -1      3014 7.74000E-01
 -1      3015 8.31302E-01
 -1      3016 5.96934E+00
 -1      3017 4.71579E+00
 -1      3018 5.41604E+00
 -1      3019 5.25602E+00
 -1      3020 4.15973E+00
 -1      3021 4.05197E+00
 -1      3022 5.10395E+00
 -1      3023 1.94325E+01
 -1      3024 1.49644E+01
 -1      3025 2.73483E+01
 -1      3026 2.11420E+01
 -1      3027 7.69125E+00
 -1      3028 1.01418E+01
 -1      3029 8.14622E-01
 -1      3030 8.42516E-01
 -1      3031 8.05301E-01
 -1      3032 4.01521E-01
 -1      3033 3.46013E-01
 -1      3034 4.18604E-01
 -1      3035 1.39117E+01
 -1      3036 1.00494E+01
 -1      3037 8.96463E+00
 -1      3038 7.00519E+00
 -1      3039 2.37257E-03
 -1      3040 1.06517E+00
 -1      3041 6.51331E+00
 -1      3042 5.91972E+00
 -1      3043 4.94933E+00
 -1      3044 1.50647E+01
 -1      3045 5.53521E+00
 -1      3046 3.77105E+00
 -1      3047 4.22048E+00
 -1      3048 8.21194E+00
 -1      3049 1.23728E+01
 -1      3050 2.17221E-03
 -1      3051 2.49633E-03
 -1      3052 1.91214E-03
 -1      3053 1.06686E+01
 -1      3054 9.02030E+00
 -1      3055 5.11166E+00
 -1      3056 5.51730E+00
 -1      3057 1.54038E+01
 -1      3058 1.72678E-03
 -1      3059 4.23544E+00
 -1      3060 6.24587E+00
 -1      3061 8.91329E-01
 -1      3062 5.18664E-01
 -1      3063 6.14976E-01
 -1      3064 6.67939E-01
 -1      3065 4.98852E-01
 -1      3066 3.84140E+00
 -1      3067 3.05460E+00
 -1      3068 3.73391E+00
 -1      3069 1.58348E+01
 -1      3070 1.65340E+01
 -1      3071 1.37565E+01
 -1      3072 4.04438E+00
 -1      3073 5.60410E+00
 -1      3074 1.12869E+01
 -1      3075 1.83775E-03
 -1      3076 1.81324E-03
 -1      3077 2.06715E-03
 -1      3078 1.98898E-03
 -1      3079 7.86714E+00
 -1      3080 4.13580E+00
 -1      3081 4.48970E+00
 -1      3082 3.53609E+00
 -1      3083 4.02807E+00
 -1      3084 1.50931E+01
 -1      3085 2.08207E-03
 -1      3086 1.86181E-03
 -1      3087 2.10120E-03
 -1      3088 2.50759E-03
 -1      3089 8.81301E-01
 -1      3090 8.65541E-01
 -1      3091 7.61202E-01
 -1      3092 7.88791E-01
 -1      3093 7.53520E-01
 -1      3094 7.92322E-01
 -1      3095 2.20628E+00
 -1      3096 1.96540E+00
 -1      3097 1.70361E+00
 -1      3098 1.63540E+00
 -1      3099 2.23137E+00
 -1      3100 8.70270E-01
 -1      3101 9.17354E-01
 -1      3102 1.02620E+00
 -1      3103 1.11031E+00
 -1      3104 1.05921E+00
 -1      3105 1.25648E+00
 -1      3106 1.38199E+00
 -1      3107 1.31422E+00
 -1      3108 1.52883E+00
 -1      3109 1.68925E+00
 -1      3110 1.60724E+00
 -1      3111 2.36536E+00
 -1      3112 2.46460E+00
 -1      3113 2.43019E+00
 -1      3114 3.38597E+00
 -1      3115 3.80483E+00
 -1      3116 4.02766E+00
 -1      3117 4.04438E+00
 -1      3118 4.42379E+00
 -1      3119 4.90709E+00
 -1      3120 4.65520E+00
 -1      3121 3.59325E+00
 -1      3122 2.97601E+00
 -1      3123 3.50937E+00
 -1      3124 3.56168E+00
 -1      3125 3.10712E+00
 -1      3126 2.77336E+00
 -1      3127 4.00957E+00
 -1      3128 2.36024E+00
 -1      3129 2.24868E+00
 -1      3130 3.14189E+00
 -1      3131 1.91266E+00
 -1      3132 1.76848E+00
 -1      3133 2.39276E+00
 -1      3134 1.56713E+00
 -1      3135 1.42268E+00
 -1      3136 1.85538E+00
 -1      3137 1.25945E+00
 -1      3138 1.17593E+00
 -1      3139 1.49080E+00
 -1      3140 1.03131E+00
 -1      3141 9.57239E-01
 -1      3142 1.18294E+00
 -1      3143 8.47836E-01
 -1      3144 7.74352E-01
 -1      3145 9.28908E-01
 -1      3146 6.86589E-01
 -1      3147 6.19037E-01
 -1      3148 7.31742E-01
 -1      3149 5.53024E-01
 -1      3150 4.93531E-01
 -1      3151 5.77967E-01
 -1      3152 4.41283E-01
 -1      3153 3.90416E-01
 -1      3154 4.59706E-01
 -1      3155 3.44885E-01
 -1      3156 3.02405E-01
 -1      3157 3.61926E-01
 -1      3158 2.64258E-01
 -1      3159 2.29500E-01
 -1      3160 2.78249E-01
 -1      3161 1.98484E-01
 -1      3162 1.70571E-01
 -1      3163 2.09086E-01
 -1      3164 1.46214E-01
 -1      3165 1.24195E-01
 -1      3166 1.53714E-01
 -1      3167 1.06046E-01
 -1      3168 8.89791E-02
 -1      3169 1.11208E-01
 -1      3170 7.50561E-02
 -1      3171 6.20645E-02
 -1      3172 7.91350E-02
 -1      3173 5.15842E-02
 -1      3174 4.18810E-02
 -1      3175 5.47317E-02
 -1      3176 3.46874E-02
 -1      3177 2.75904E-02
 -1      3178 3.70579E-02
 -1      3179 2.23718E-02
 -1      3180 1.73046E-02
 -1      3181 2.46458E-02
 -1      3182 1.35693E-02
 -1      3183 1.10332E-02
 -1      3184 1.56919E-02
 -1      3185 8.43246E-03
 -1      3186 8.18175E-03
 -1      3187 9.35582E-03
 -1      3188 7.52951E-03
 -1      3189 7.03368E-03
 -1      3190 6.10280E-03
 -1      3191 7.07209E-03
 -1      3192 6.43053E-03
 -1      3193 5.48897E-03
 -1      3194 6.21775E-03
 -1      3195 5.52069E-03
 -1      3196 5.31459E-03
 -1      3197 5.16288E-03
 -1      3198 4.55101E-03
 -1      3199 4.74400E-03
 -1      3200 4.12454E-03
 -1      3201 3.65476E-03
 -1      3202 3.95973E-03
 -1      3203 3.33273E-03
 -1      3204 2.84365E-03
 -1      3205 2.55316E-03
 -1      3206 3.21125E-03
 -1      3207 1.42256E+00
 -1      3208 1.33144E+00
 -1      3209 1.75675E+00
 -1      3210 2.52290E+00
 -1      3211 2.55329E+00
 -1      3212 2.84018E+00
 -1      3213 4.25531E+00
 -1      3214 3.62124E+00
 -1      3215 6.11401E+00
 -1      3216 5.60410E+00
 -1      3217 5.26811E+00
 -1      3218 5.74946E+00
 -1      3219 3.63336E+00
 -1      3220 4.46036E+00
 -1      3221 3.55384E+00
 -1      3222 3.46070E+00
 -1      3223 2.72451E+00
 -1      3224 3.00665E+00
 -1      3225 4.19459E+00
 -1      3226 1.93492E+00
 -1      3227 2.08241E+00
 -1      3228 3.00532E+00
 -1      3229 1.67135E+00
 -1      3230 1.74545E+00
 -1      3231 2.17375E+00
 -1      3232 1.33825E+00
 -1      3233 1.43673E+00
 -1      3234 1.74967E+00
 -1      3235 1.11705E+00
 -1      3236 1.21005E+00
 -1      3237 1.38685E+00
 -1      3238 9.58189E-01
 -1      3239 1.00995E+00
 -1      3240 1.15154E+00
 -1      3241 8.02030E-01
 -1      3242 8.61310E-01
 -1      3243 9.47552E-01
 -1      3244 6.58814E-01
 -1      3245 7.20562E-01
 -1      3246 7.69206E-01
 -1      3247 5.28794E-01
 -1      3248 5.87469E-01
 -1      3249 6.16393E-01
 -1      3250 4.16112E-01
 -1      3251 4.68723E-01
 -1      3252 4.84977E-01
 -1      3253 3.22337E-01
 -1      3254 3.67621E-01
 -1      3255 3.76414E-01
 -1      3256 2.46208E-01
 -1      3257 2.83975E-01
 -1      3258 2.89561E-01
 -1      3259 1.84766E-01
 -1      3260 2.15454E-01
 -1      3261 2.20446E-01
 -1      3262 1.36019E-01
 -1      3263 1.60392E-01
 -1      3264 1.65319E-01
 -1      3265 9.79950E-02
 -1      3266 1.16950E-01
 -1      3267 1.21876E-01
 -1      3268 6.88450E-02
 -1      3269 8.32880E-02
 -1      3270 8.81008E-02
 -1      3271 4.69010E-02
 -1      3272 5.76786E-02
 -1      3273 6.22274E-02
 -1      3274 3.07054E-02
 -1      3275 3.85692E-02
 -1      3276 4.27293E-02
 -1      3277 1.97690E-02
 -1      3278 2.46103E-02
 -1      3279 2.83024E-02
 -1      3280 1.34592E-02
 -1      3281 1.54122E-02
 -1      3282 1.78506E-02
 -1      3283 1.00482E-02
 -1      3284 1.07265E-02
 -1      3285 1.07611E-02
 -1      3286 8.73121E-03
 -1      3287 9.58474E-03
 -1      3288 7.56499E-03
 -1      3289 7.63643E-03
 -1      3290 8.55254E-03
 -1      3291 6.92288E-03
 -1      3292 6.34498E-03
 -1      3293 7.25036E-03
 -1      3294 6.35813E-03
 -1      3295 5.17902E-03
 -1      3296 5.85132E-03
 -1      3297 5.47840E-03
 -1      3298 4.11968E-03
 -1      3299 4.66670E-03
 -1      3300 4.47242E-03
 -1      3301 3.20773E-03
 -1      3302 3.76103E-03
 -1      3303 3.60145E-03
 -1      3304 2.73688E-03
 -1      3305 2.90990E-03
 -1      3306 2.94497E-03
 -1      3307 2.40660E-03
 -1      3308 6.87260E+00
 -1      3309 6.00486E+00
 -1      3310 1.86653E-03
 -1      3311 1.86790E-03
 -1      3312 9.89172E+00
 -1      3313 7.95805E+00
 -1      3314 6.09577E+00
 -1      3315 2.11534E-03
 -1      3316 2.12880E-03
 -1      3317 7.26000E+00
 -1      3318 8.79902E+00
 -1      3319 5.17198E+00
 -1      3320 6.40738E+00
 -1      3321 1.15013E+01
 -1      3322 1.32391E+01
 -1      3323 5.73177E+00
 -1      3324 4.26759E+00
 -1      3325 9.83150E-01
 -1      3326 9.01233E-01
 -1      3327 9.31956E+00
 -1      3328 1.11330E+01
 -1      3329 2.12880E-03
 -1      3330 2.12880E-03
 -1      3331 2.24536E-03
 -1      3332 1.16693E+00
 -1      3333 1.07755E+00
 -1      3334 1.12049E+00
 -1      3335 1.35615E+01
 -1      3336 1.07599E+01
 -1      3337 1.17716E+01
 -1      3338 1.13419E+01
 -1      3339 1.34474E+01
 -1      3340 1.24754E+01
 -1      3341 8.29283E-01
 -1      3342 8.48384E-01
 -1      3343 9.28483E-01
 -1      3344 3.02426E+00
 -1      3345 3.79929E+00
 -1      3346 3.96080E+00
 -1      3347 1.04158E+01
 -1      3348 1.33109E+01
 -1      3349 5.70230E+00
 -1      3350 3.98581E+00
 -1      3351 1.24754E+01
 -1      3352 1.41466E+01
 -1      3353 9.50283E+00
 -1      3354 1.00880E+01
 -1      3355 6.58834E+00
 -1      3356 8.13348E-01
 -1      3357 7.58268E-01
 -1      3358 8.03320E-01
 -1      3359 6.62093E-01
 -1      3360 3.62124E+00
 -1      3361 2.98716E+00
 -1      3362 2.42288E+00
 -1      3363 3.39399E+00
 -1      3364 3.46040E+00
 -1      3365 7.74925E+00
 -1      3366 6.77110E+00
 -1      3367 3.00984E+00
 -1      3368 1.38710E+01
 -1      3369 1.21615E+01
 -1      3370 3.27599E+00
 -1      3371 6.14255E-01
 -1      3372 5.13208E-01
 -1      3373 1.99584E-03
 -1      3374 1.94902E-03
 -1      3375 1.89696E-03
 -1      3376 2.11241E-03
 -1      3377 1.04676E+01
 -1      3378 8.37079E+00
 -1      3379 2.57370E+00
 -1      3380 3.31281E+00
 -1      3381 5.03148E-01
 -1      3382 5.00419E-01
 -1      3383 6.12107E-01
 -1      3384 5.91972E+00
 -1      3385 5.82724E+00
 -1      3386 4.74178E+00
 -1      3387 8.21782E-01
 -1      3388 8.90116E-01
 -1      3389 4.28214E+00
 -1      3390 8.77595E-01
 -1      3391 8.11355E-01
 -1      3392 8.29549E-01
 -1      3393 1.00245E+00
 -1      3394 5.14126E+00
 -1      3395 3.99707E+00
 -1      3396 5.23961E+00
 -1      3397 3.68931E+00
 -1      3398 2.31662E+00
 -1      3399 9.24546E+00
 -1      3400 1.37940E+00
 -1      3401 3.08718E+00
 -1      3402 3.80065E+00
 -1      3403 2.51958E+00
 -1      3404 2.75897E+00
 -1      3405 2.11262E-03
 -1      3406 2.11262E-03
 -1      3407 1.90699E-03
 -1      3408 1.96043E-03
 -1      3409 2.00461E-03
 -1      3410 7.55925E+00
 -1      3411 6.18611E+00
 -1      3412 3.57899E+00
 -1      3413 7.93453E+00
 -1      3414 9.77681E+00
 -1      3415 7.06631E+00
 -1      3416 4.73723E+00
 -1      3417 9.51629E+00
 -1      3418 8.23953E+00
 -1      3419 1.17353E+01
 -1      3420 8.37596E+00
 -1      3421 1.03076E+01
 -1      3422 8.19191E-01
 -1      3423 7.84708E-01
 -1      3424 8.80003E-01
 -1      3425 6.25006E+00
 -1      3426 8.30198E+00
 -1      3427 7.70127E+00
 -1      3428 8.71835E+00
 -1      3429 7.31489E-01
 -1      3430 2.11262E-03
 -1      3431 2.09190E-03
 -1      3432 2.21555E-03
 -1      3433 7.60782E-01
 -1      3434 6.96072E-01
 -1      3435 7.03984E-01
 -1      3436 8.09727E-01
 -1      3437 8.08803E-01
 -1      3438 6.92995E+00
 -1      3439 6.87245E-01
 -1      3440 7.56272E-01
 -1      3441 8.41087E-01
 -1      3442 2.29728E-03
 -1      3443 2.18138E-03
 -1      3444 2.31141E-03
 -1      3445 2.63334E-03
 -1      3446 2.89843E+00
 -1      3447 2.63664E+00
 -1      3448 7.10417E+00
 -1      3449 7.74273E+00
 -1      3450 1.34023E+00
 -1      3451 1.48639E+00
 -1      3452 1.84789E+00
 -1      3453 1.99474E+00
 -1      3454 1.87390E+00
 -1      3455 2.23438E+00
 -1      3456 2.91048E+00
 -1      3457 2.47504E+00
 -1      3458 4.34266E+00
 -1      3459 4.97350E+00
 -1      3460 4.56038E+00
 -1      3461 3.48927E+00
 -1      3462 3.15325E+00
 -1      3463 5.32088E+00
 -1      3464 2.43074E+00
 -1      3465 2.22938E+00
 -1      3466 3.52726E+00
 -1      3467 1.71101E+00
 -1      3468 1.54778E+00
 -1      3469 2.28637E+00
 -1      3470 1.30517E+00
 -1      3471 1.16054E+00
 -1      3472 1.52538E+00
 -1      3473 1.01083E+00
 -1      3474 9.01423E-01
 -1      3475 1.13306E+00
 -1      3476 8.10989E-01
 -1      3477 7.23226E-01
 -1      3478 8.92908E-01
 -1      3479 6.43979E-01
 -1      3480 5.77967E-01
 -1      3481 7.23226E-01
 -1      3482 5.10424E-01
 -1      3483 4.58175E-01
 -1      3484 5.76436E-01
 -1      3485 4.01925E-01
 -1      3486 3.56394E-01
 -1      3487 4.52643E-01
 -1      3488 3.10312E-01
 -1      3489 2.72165E-01
 -1      3490 3.50310E-01
 -1      3491 2.34977E-01
 -1      3492 2.03962E-01
 -1      3493 2.67040E-01
 -1      3494 1.74376E-01
 -1      3495 1.50020E-01
 -1      3496 2.00267E-01
 -1      3497 1.26820E-01
 -1      3498 1.08671E-01
 -1      3499 1.47482E-01
 -1      3500 9.07557E-02
 -1      3501 7.68327E-02
 -1      3502 1.06368E-01
 -1      3503 6.32645E-02
 -1      3504 5.27842E-02
 -1      3505 7.48852E-02
 -1      3506 4.32219E-02
 -1      3507 3.60284E-02
 -1      3508 5.17547E-02
 -1      3509 2.89284E-02
 -1      3510 2.37099E-02
 -1      3511 3.50925E-02
 -1      3512 1.85471E-02
 -1      3513 1.48118E-02
 -1      3514 2.28298E-02
 -1      3515 1.11640E-02
 -1      3516 8.56319E-03
 -1      3517 1.40192E-02
 -1      3518 6.10470E-03
 -1      3519 5.45246E-03
 -1      3520 7.91285E-03
 -1      3521 4.21785E-03
 -1      3522 4.25626E-03
 -1      3523 4.21975E-03
 -1      3524 4.56053E-03
 -1      3525 4.34775E-03
 -1      3526 3.28941E-03
 -1      3527 4.37498E-03
 -1      3528 4.01717E-03
 -1      3529 3.62091E-03
 -1      3530 3.85733E-03
 -1      3531 3.43087E-03
 -1      3532 3.48831E-03
 -1      3533 2.28908E-03
 -1      3534 2.28908E-03
 -1      3535 2.10754E-03
 -1      3536 4.19459E+00
 -1      3537 4.74178E+00
 -1      3538 1.97249E+00
 -1      3539 2.20711E+00
 -1      3540 1.50803E+00
 -1      3541 1.63623E+00
 -1      3542 2.09366E+00
 -1      3543 1.17269E+00
 -1      3544 1.27980E+00
 -1      3545 1.52918E+00
 -1      3546 9.23020E-01
 -1      3547 1.01990E+00
 -1      3548 1.14816E+00
 -1      3549 7.35529E-01
 -1      3550 8.16996E-01
 -1      3551 8.89343E-01
 -1      3552 5.93202E-01
 -1      3553 6.64547E-01
 -1      3554 7.12338E-01
 -1      3555 4.69922E-01
 -1      3556 5.29994E-01
 -1      3557 5.78148E-01
 -1      3558 3.66566E-01
 -1      3559 4.15058E-01
 -1      3560 4.60074E-01
 -1      3561 2.81997E-01
 -1      3562 3.20359E-01
 -1      3563 3.59002E-01
 -1      3564 2.13318E-01
 -1      3565 2.44072E-01
 -1      3566 2.74870E-01
 -1      3567 1.58462E-01
 -1      3568 1.82836E-01
 -1      3569 2.06462E-01
 -1      3570 1.15355E-01
 -1      3571 1.34424E-01
 -1      3572 1.51941E-01
 -1      3573 8.20380E-02
 -1      3574 9.67450E-02
 -1      3575 1.09292E-01
 -1      3576 5.72017E-02
 -1      3577 6.83681E-02
 -1      3578 7.70123E-02
 -1      3579 3.88329E-02
 -1      3580 4.71647E-02
 -1      3581 5.33053E-02
 -1      3582 2.53066E-02
 -1      3583 3.14017E-02
 -1      3584 3.58371E-02
 -1      3585 1.55984E-02
 -1      3586 1.99552E-02
 -1      3587 2.30545E-02
 -1      3588 9.13861E-03
 -1      3589 1.18713E-02
 -1      3590 1.39759E-02
 -1      3591 6.30783E-03
 -1      3592 6.77127E-03
 -1      3593 7.88145E-03
 -1      3594 5.36078E-03
 -1      3595 5.53945E-03
 -1      3596 4.74573E-03
 -1      3597 5.18971E-03
 -1      3598 5.57578E-03
 -1      3599 4.19236E-03
 -1      3600 4.62682E-03
 -1      3601 5.12048E-03
 -1      3602 4.33813E-03
 -1      3603 3.87401E-03
 -1      3604 4.38633E-03
 -1      3605 4.02841E-03
 -1      3606 3.17099E-03
 -1      3607 3.52963E-03
 -1      3608 3.44355E-03
 -1      3609 1.28738E+00
 -1      3610 1.19298E+00
 -1      3611 1.67273E+00
 -1      3612 1.50822E+00
 -1      3613 1.58071E+00
 -1      3614 6.29318E+00
 -1      3615 5.67164E+00
 -1      3616 3.99573E+00
 -1      3617 6.78660E+00
 -1      3618 5.70116E+00
 -1      3619 6.37349E+00
 -1      3620 6.89403E+00
 -1      3621 5.99387E+00
 -1      3622 5.65423E-01
 -1      3623 6.65483E-01
 -1      3624 7.53816E-01
 -1      3625 3.67900E+00
 -1      3626 7.77830E+00
 -1      3627 8.41017E+00
 -1      3628 4.28266E+00
 -1      3629 2.98731E+00
 -1      3630 3.17678E+00
 -1      3631 3.21013E+00
 -1      3632 3.00610E+00
 -1      3633 3.64820E+00
 -1      3634 4.19538E+00
 -1      3635 3.81966E+00
 -1      3636 8.67922E+00
 -1      3637 6.98525E+00
 -1      3638 5.72694E+00
 -1      3639 1.02245E+00
 -1      3640 1.13129E+00
 -1      3641 1.30346E+00
 -1      3642 7.79520E+00
 -1      3643 7.95459E+00
 -1      3644 4.01311E+00
 -1      3645 3.52130E+00
 -1      3646 3.17429E+00
 -1      3647 5.08191E+00
 -1      3648 8.90116E-01
 -1      3649 2.19632E+00
 -1      3650 1.98349E+00
 -1      3651 2.86338E+00
 -1      3652 2.28864E-03
 -1      3653 2.38754E-03
 -1      3654 2.62808E-03
 -1      3655 2.41229E-03
 -1      3656 9.06597E-01
 -1      3657 5.32865E+00
 -1      3658 9.31938E-01
 -1      3659 9.31938E-01
 -1      3660 4.40728E+00
 -1      3661 6.18103E+00
 -1      3662 1.05813E+00
 -1      3663 1.03449E+00
 -1      3664 1.22502E+00
 -1      3665 4.21147E+00
 -1      3666 9.53824E-01
 -1      3667 4.36605E+00
 -1      3668 5.45152E+00
 -1      3669 4.78887E+00
 -1      3670 3.81966E+00
 -1      3671 1.83459E-03
 -1      3672 1.92711E-03
 -1      3673 2.11231E+00
 -1      3674 3.18529E-03
 -1      3675 2.86327E-03
 -1      3676 2.60739E-03
 -1      3677 3.08289E-03
 -1      3678 9.88492E-01
 -1      3679 1.01383E+00
 -1      3680 9.22983E-01
 -1      3681 2.28908E-03
 -1      3682 2.15612E-03
 -1      3683 2.33279E-03
 -1      3684 2.01284E-03
 -1      3685 2.12085E-03
 -1      3686 1.94043E-03
 -1      3687 6.14996E+00
 -1      3688 4.44514E+00
 -1      3689 2.92591E-03
 -1      3690 6.67170E+00
 -1      3691 5.91841E+00
 -1      3692 3.57956E+00
 -1      3693 6.67051E-01
 -1      3694 8.63974E+00
 -1      3695 7.65661E+00
 -1      3696 7.38853E+00
 -1      3697 5.81293E+00
 -1      3698 5.27467E+00
 -1      3699 9.67059E-01
 -1      3700 9.20709E-01
 -1      3701 1.83637E-03
 -1      3702 1.85650E-03
 -1      3703 1.91887E-03
 -1      3704 7.51175E-01
 -1      3705 7.41115E-01
 -1      3706 7.95459E+00
 -1      3707 6.05721E+00
 -1      3708 6.23350E+00
 -1      3709 2.85410E-03
 -1      3710 5.90328E+00
 -1      3711 7.61531E+00
 -1      3712 9.01579E+00
 -1      3713 9.01579E+00
 -1      3714 6.54311E+00
 -1      3715 2.48734E-03
 -1      3716 2.48734E-03
 -1      3717 2.39264E-03
 -1      3718 9.22490E+00
 -1      3719 1.02590E+00
 -1      3720 8.32992E-01
 -1      3721 7.51175E-01
 -1      3722 8.80183E-01
 -1      3723 2.54134E-03
 -1      3724 2.58505E-03
 -1      3725 3.14461E+00
 -1      3726 3.38424E+00
 -1      3727 5.60058E+00
 -1      3728 5.09119E+00
 -1      3729 5.14366E+00
 -1      3730 2.61489E+00
 -1      3731 2.30413E+00
 -1      3732 1.12925E+00
 -1      3733 1.28204E+00
 -1      3734 3.16806E+00
 -1      3735 2.64968E+00
 -1      3736 1.72808E+00
 -1      3737 1.48546E+00
 -1      3738 2.60976E+00
 -1      3739 1.28277E+00
 -1      3740 1.13306E+00
 -1      3741 1.48546E+00
 -1      3742 9.83341E-01
 -1      3743 8.92908E-01
 -1      3744 1.13306E+00
 -1      3745 7.79428E-01
 -1      3746 7.00181E-01
 -1      3747 8.69862E-01
 -1      3748 6.13388E-01
 -1      3749 5.45846E-01
 -1      3750 6.69590E-01
 -1      3751 4.78732E-01
 -1      3752 4.22482E-01
 -1      3753 5.15684E-01
 -1      3754 3.69940E-01
 -1      3755 3.23857E-01
 -1      3756 3.96029E-01
 -1      3757 2.82580E-01
 -1      3758 2.45393E-01
 -1      3759 3.02210E-01
 -1      3760 2.12947E-01
 -1      3761 1.83362E-01
 -1      3762 2.28488E-01
 -1      3763 1.57961E-01
 -1      3764 1.34761E-01
 -1      3765 1.70641E-01
 -1      3766 1.15032E-01
 -1      3767 9.71176E-02
 -1      3768 1.25511E-01
 -1      3769 8.19619E-02
 -1      3770 6.83937E-02
 -1      3771 9.06261E-02
 -1      3772 5.69067E-02
 -1      3773 4.73445E-02
 -1      3774 6.39834E-02
 -1      3775 3.89734E-02
 -1      3776 3.18734E-02
 -1      3777 4.41254E-02
 -1      3778 2.59955E-02
 -1      3779 2.08328E-02
 -1      3780 2.98764E-02
 -1      3781 1.65361E-02
 -1      3782 1.28883E-02
 -1      3783 1.97019E-02
 -1      3784 9.81762E-03
 -1      3785 7.35913E-03
 -1      3786 1.23346E-02
 -1      3787 5.24904E-03
 -1      3788 4.01443E-03
 -1      3789 7.15381E-03
 -1      3790 2.73952E-03
 -1      3791 3.04379E-03
 -1      3792 3.76881E-03
 -1      3793 2.98000E-03
 -1      3794 3.00723E-03
 -1      3795 2.43010E-03
 -1      3796 3.14294E-03
 -1      3797 2.98310E-03
 -1      3798 2.50203E-03
 -1      3799 2.83063E-03
 -1      3800 1.75390E+00
 -1      3801 1.98212E+00
 -1      3802 1.73499E+00
 -1      3803 1.87712E-03
 -1      3804 1.96284E-03
 -1      3805 5.01279E+00
 -1      3806 5.28184E+00
 -1      3807 2.92289E+00
 -1      3808 3.25915E+00
 -1      3809 3.14761E+00
 -1      3810 8.89343E-01
 -1      3811 9.95367E-01
 -1      3812 1.12925E+00
 -1      3813 7.12338E-01
 -1      3814 7.83319E-01
 -1      3815 8.89343E-01
 -1      3816 5.64162E-01
 -1      3817 6.27371E-01
 -1      3818 6.98352E-01
 -1      3819 4.41492E-01
 -1      3820 4.96357E-01
 -1      3821 5.45580E-01
 -1      3822 3.40654E-01
 -1      3823 3.86861E-01
 -1      3824 4.23144E-01
 -1      3825 2.59070E-01
 -1      3826 2.96995E-01
 -1      3827 3.24854E-01
 -1      3828 1.93888E-01
 -1      3829 2.24371E-01
 -1      3830 2.46496E-01
 -1      3831 1.42498E-01
 -1      3832 1.66537E-01
 -1      3833 1.84446E-01
 -1      3834 1.02556E-01
 -1      3835 1.21166E-01
 -1      3836 1.35761E-01
 -1      3837 7.24594E-02
 -1      3838 8.61293E-02
 -1      3839 9.80027E-02
 -1      3840 4.99586E-02
 -1      3841 5.99957E-02
 -1      3842 6.91127E-02
 -1      3843 3.35827E-02
 -1      3844 4.10139E-02
 -1      3845 4.77043E-02
 -1      3846 2.17953E-02
 -1      3847 2.71467E-02
 -1      3848 3.23235E-02
 -1      3849 1.33746E-02
 -1      3850 1.71017E-02
 -1      3851 2.11940E-02
 -1      3852 7.66387E-03
 -1      3853 1.00312E-02
 -1      3854 1.31571E-02
 -1      3855 4.61953E-03
 -1      3856 5.38791E-03
 -1      3857 7.53768E-03
 -1      3858 3.45378E-03
 -1      3859 3.23877E-03
 -1      3860 3.88096E-03
 -1      3861 3.56415E-03
 -1      3862 3.63339E-03
 -1      3863 2.67980E-03
 -1      3864 3.41462E-03
 -1      3865 3.65511E-03
 -1      3866 2.95036E-03
 -1      3867 4.88104E+00
 -1      3868 1.82548E+00
 -1      3869 1.60464E+00
 -1      3870 2.32806E+00
 -1      3871 1.26665E+00
 -1      3872 1.47559E+00
 -1      3873 1.08246E+00
 -1      3874 9.52582E-01
 -1      3875 9.93289E-01
 -1      3876 4.18177E+00
 -1      3877 4.96197E+00
 -1      3878 5.01099E+00
 -1      3879 6.29877E+00
 -1      3880 5.53812E+00
 -1      3881 4.16929E+00
 -1      3882 5.10183E+00
 -1      3883 4.40976E+00
 -1      3884 3.54417E+00
 -1      3885 3.96465E+00
 -1      3886 8.87908E-01
 -1      3887 8.63982E-01
 -1      3888 9.11173E-01
 -1      3889 5.09119E+00
 -1      3890 2.65736E-03
 -1      3891 8.66719E-01
 -1      3892 8.88481E-01
 -1      3893 1.03589E+00
 -1      3894 8.15270E+00
 -1      3895 7.86512E-01
 -1      3896 8.51516E-01
 -1      3897 9.86181E-01
 -1      3898 9.25581E-01
 -1      3899 3.10385E+00
 -1      3900 1.78507E+00
 -1      3901 2.14657E+00
 -1      3902 1.74826E+00
 -1      3903 9.74965E-01
 -1      3904 5.55664E+00
 -1      3905 4.20582E+00
 -1      3906 2.48527E-03
 -1      3907 2.92915E-03
 -1      3908 1.04897E+00
 -1      3909 3.29568E+00
 -1      3910 1.46392E+00
 -1      3911 1.46392E+00
 -1      3912 1.56572E+00
 -1      3913 1.43088E+00
 -1      3914 1.81050E+00
 -1      3915 3.05578E+00
 -1      3916 2.48527E-03
 -1      3917 4.05381E+00
 -1      3918 2.06129E-03
 -1      3919 2.12460E-03
 -1      3920 2.49109E-03
 -1      3921 3.94828E+00
 -1      3922 5.03812E+00
 -1      3923 5.03812E+00
 -1      3924 3.48331E+00
 -1      3925 3.27352E-03
 -1      3926 4.73455E+00
 -1      3927 3.86642E+00
 -1      3928 4.91084E+00
 -1      3929 1.75962E-03
 -1      3930 1.78203E-03
 -1      3931 1.76141E-03
 -1      3932 4.67460E+00
 -1      3933 4.27912E+00
 -1      3934 2.90022E-03
 -1      3935 1.09017E+00
 -1      3936 1.04897E+00
 -1      3937 1.01617E+00
 -1      3938 1.43088E+00
 -1      3939 1.25458E+00
 -1      3940 4.28214E+00
 -1      3941 3.84662E+00
 -1      3942 2.09554E-03
 -1      3943 5.76051E+00
 -1      3944 5.44777E+00
 -1      3945 4.96197E+00
 -1      3946 5.44777E+00
 -1      3947 5.93361E+00
 -1      3948 4.96197E+00
 -1      3949 4.09325E+00
 -1      3950 4.95676E+00
 -1      3951 6.35724E+00
 -1      3952 6.26184E+00
 -1      3953 1.46392E+00
 -1      3954 1.50932E+00
 -1      3955 2.04766E+00
 -1      3956 6.47443E+00
 -1      3957 6.68354E+00
 -1      3958 4.58357E+00
 -1      3959 4.88808E+00
 -1      3960 4.74178E+00
 -1      3961 1.22008E+00
 -1      3962 1.61804E+00
 -1      3963 1.41535E+00
 -1      3964 1.20678E+00
 -1      3965 1.05707E+00
 -1      3966 1.33936E+00
 -1      3967 9.04023E-01
 -1      3968 7.90544E-01
 -1      3969 9.77748E-01
 -1      3970 6.84647E-01
 -1      3971 5.97854E-01
 -1      3972 7.18807E-01
 -1      3973 5.22520E-01
 -1      3974 4.55407E-01
 -1      3975 5.37577E-01
 -1      3976 3.99457E-01
 -1      3977 3.46915E-01
 -1      3978 4.06293E-01
 -1      3979 3.04654E-01
 -1      3980 2.63377E-01
 -1      3981 3.08082E-01
 -1      3982 2.30803E-01
 -1      3983 1.98357E-01
 -1      3984 2.33247E-01
 -1      3985 1.73059E-01
 -1      3986 1.47657E-01
 -1      3987 1.75374E-01
 -1      3988 1.28015E-01
 -1      3989 1.08286E-01
 -1      3990 1.30433E-01
 -1      3991 9.31206E-02
 -1      3992 7.79648E-02
 -1      3993 9.56250E-02
 -1      3994 6.63646E-02
 -1      3995 5.48777E-02
 -1      3996 6.88591E-02
 -1      3997 4.61139E-02
 -1      3998 3.77429E-02
 -1      3999 4.84952E-02
 -1      4000 3.13138E-02
 -1      4001 2.54359E-02
 -1      4002 3.33023E-02
 -1      4003 2.13560E-02
 -1      4004 1.70594E-02
 -1      4005 2.27934E-02
 -1      4006 1.39835E-02
 -1      4007 1.09128E-02
 -1      4008 1.56376E-02
 -1      4009 8.63460E-03
 -1      4010 6.52452E-03
 -1      4011 1.02835E-02
 -1      4012 4.87223E-03
 -1      4013 3.59731E-03
 -1      4014 6.35302E-03
 -1      4015 2.42448E-03
 -1      4016 2.36068E-03
 -1      4017 3.52790E-03
 -1      4018 2.06195E-03
 -1      4019 2.19766E-03
 -1      4020 2.05632E-03
 -1      4021 1.53866E+00
 -1      4022 2.01051E+00
 -1      4023 3.45302E+00
 -1      4024 3.45302E+00
 -1      4025 3.34749E+00
 -1      4026 2.45499E+00
 -1      4027 5.29310E+00
 -1      4028 4.03410E+00
 -1      4029 1.24782E+00
 -1      4030 1.21683E+00
 -1      4031 1.80057E+00
 -1      4032 1.32183E+00
 -1      4033 2.63218E-03
 -1      4034 6.48294E-01
 -1      4035 7.33261E-01
 -1      4036 4.99374E-01
 -1      4037 5.67179E-01
 -1      4038 6.02087E-01
 -1      4039 3.82631E-01
 -1      4040 4.37262E-01
 -1      4041 4.58861E-01
 -1      4042 2.91572E-01
 -1      4043 3.35232E-01
 -1      4044 3.49350E-01
 -1      4045 2.20128E-01
 -1      4046 2.54826E-01
 -1      4047 2.65204E-01
 -1      4048 1.64126E-01
 -1      4049 1.91478E-01
 -1      4050 1.99808E-01
 -1      4051 1.20487E-01
 -1      4052 1.41819E-01
 -1      4053 1.48852E-01
 -1      4054 8.68004E-02
 -1      4055 1.03227E-01
 -1      4056 1.09285E-01
 -1      4057 6.11128E-02
 -1      4058 7.35765E-02
 -1      4059 7.88006E-02
 -1      4060 4.21643E-02
 -1      4061 5.11090E-02
 -1      4062 5.55728E-02
 -1      4063 2.83713E-02
 -1      4064 3.48073E-02
 -1      4065 3.82120E-02
 -1      4066 1.86297E-02
 -1      4067 2.33232E-02
 -1      4068 2.58070E-02
 -1      4069 1.15909E-02
 -1      4070 1.49343E-02
 -1      4071 1.70635E-02
 -1      4072 6.72682E-03
 -1      4073 9.00278E-03
 -1      4074 1.07800E-02
 -1      4075 3.65230E-03
 -1      4076 5.03306E-03
 -1      4077 6.49815E-03
 -1      4078 2.67980E-03
 -1      4079 2.50020E-03
 -1      4080 3.65230E-03
 -1      4081 2.51246E-03
 -1      4082 2.42150E-03
 -1      4083 2.24190E-03
 -1      4084 4.37049E+00
 -1      4085 5.29310E+00
 -1      4086 2.70243E+00
 -1      4087 2.22378E+00
 -1      4088 2.55714E+00
 -1      4089 3.49791E+00
 -1      4090 3.78002E+00
 -1      4091 2.36082E+00
 -1      4092 3.99033E+00
 -1      4093 3.47569E+00
 -1      4094 1.18722E+00
 -1      4095 1.20243E+00
 -1      4096 1.72556E+00
 -1      4097 3.91854E+00
 -1      4098 2.99694E+00
 -1      4099 2.92682E+00
 -1      4100 4.26832E+00
 -1      4101 8.45144E-01
 -1      4102 9.51168E-01
 -1      4103 7.95085E-01
 -1      4104 1.42112E+00
 -1      4105 3.37141E+00
 -1      4106 2.26897E-03
 -1      4107 2.11650E-03
 -1      4108 1.87924E-03
 -1      4109 1.82889E-03
 -1      4110 1.10127E+00
 -1      4111 1.23515E+00
 -1      4112 1.51068E+00
 -1      4113 1.05707E+00
 -1      4114 4.65549E+00
 -1      4115 5.93361E+00
 -1      4116 4.63469E+00
 -1      4117 3.31204E+00
 -1      4118 3.43932E+00
 -1      4119 1.78237E-03
 -1      4120 1.76902E+00
 -1      4121 2.01611E+00
 -1      4122 2.51022E+00
 -1      4123 2.54177E+00
 -1      4124 2.10332E-03
 -1      4125 2.29135E+00
 -1      4126 1.91698E+00
 -1      4127 3.09317E+00
 -1      4128 3.86066E+00
 -1      4129 4.53830E+00
 -1      4130 1.87807E+00
 -1      4131 3.70801E+00
 -1      4132 3.08950E+00
 -1      4133 3.53456E+00
 -1      4134 2.83543E+00
 -1      4135 1.59425E-03
 -1      4136 1.71174E-03
 -1      4137 2.54177E+00
 -1      4138 1.57762E+00
 -1      4139 1.88711E+00
 -1      4140 1.55997E+00
 -1      4141 2.28435E+00
 -1      4142 3.45841E-01
 -1      4143 3.93240E-01
 -1      4144 1.94156E-03
 -1      4145 2.48966E+00
 -1      4146 1.99554E+00
 -1      4147 1.67345E+00
 -1      4148 2.89309E+00
 -1      4149 1.09098E+00
 -1      4150 9.37931E-01
 -1      4151 7.40722E-01
 -1      4152 6.34825E-01
 -1      4153 8.53949E-01
 -1      4154 5.60230E-01
 -1      4155 4.84896E-01
 -1      4156 5.82144E-01
 -1      4157 4.25987E-01
 -1      4158 3.70037E-01
 -1      4159 4.48640E-01
 -1      4160 3.24427E-01
 -1      4161 2.82166E-01
 -1      4162 3.44121E-01
 -1      4163 2.46609E-01
 -1      4164 2.14034E-01
 -1      4165 2.62953E-01
 -1      4166 1.86172E-01
 -1      4167 1.60873E-01
 -1      4168 1.99533E-01
 -1      4169 1.39119E-01
 -1      4170 1.19477E-01
 -1      4171 1.49917E-01
 -1      4172 1.03250E-01
 -1      4173 8.80838E-02
 -1      4174 1.11935E-01
 -1      4175 7.53571E-02
 -1      4176 6.37570E-02
 -1      4177 8.29816E-02
 -1      4178 5.38920E-02
 -1      4179 4.51282E-02
 -1      4180 6.03900E-02
 -1      4181 3.75854E-02
 -1      4182 3.11563E-02
 -1      4183 4.29822E-02
 -1      4184 2.56790E-02
 -1      4185 2.15991E-02
 -1      4186 2.99621E-02
 -1      4187 1.77330E-02
 -1      4188 1.46570E-02
 -1      4189 2.06186E-02
 -1      4190 1.17707E-02
 -1      4191 9.49249E-03
 -1      4192 1.38661E-02
 -1      4193 7.37447E-03
 -1      4194 5.72218E-03
 -1      4195 8.86165E-03
 -1      4196 4.19445E-03
 -1      4197 3.02161E-03
 -1      4198 5.21590E-03
 -1      4199 2.05632E-03
 -1      4200 1.75758E-03
 -1      4201 2.72287E-03
 -1      4202 2.39783E+00
 -1      4203 1.66253E+00
 -1      4204 4.52149E-01
 -1      4205 5.14261E-01
 -1      4206 4.48640E-01
 -1      4207 5.88856E-01
 -1      4208 6.69971E-01
 -1      4209 5.82144E-01
 -1      4210 2.63484E-01
 -1      4211 3.00230E-01
 -1      4212 3.44121E-01
 -1      4213 1.99277E-01
 -1      4214 2.27927E-01
 -1      4215 2.62953E-01
 -1      4216 1.49108E-01
 -1      4217 1.71415E-01
 -1      4218 1.99533E-01
 -1      4219 1.10025E-01
 -1      4220 1.27285E-01
 -1      4221 1.49848E-01
 -1      4222 7.97981E-02
 -1      4223 9.30220E-02
 -1      4224 1.11022E-01
 -1      4225 5.66658E-02
 -1      4226 6.66696E-02
 -1      4227 8.08911E-02
 -1      4228 3.93170E-02
 -1      4229 4.66740E-02
 -1      4230 5.77708E-02
 -1      4231 2.71855E-02
 -1      4232 3.22335E-02
 -1      4233 4.06955E-02
 -1      4234 1.81534E-02
 -1      4235 2.18489E-02
 -1      4236 2.82754E-02
 -1      4237 1.16123E-02
 -1      4238 1.42003E-02
 -1      4239 1.89857E-02
 -1      4240 7.04115E-03
 -1      4241 8.73490E-03
 -1      4242 1.21552E-02
 -1      4243 3.80221E-03
 -1      4244 4.95431E-03
 -1      4245 7.19106E-03
 -1      4246 1.71106E-03
 -1      4247 1.64077E-03
 -1      4248 1.75378E-03
 -1      4249 1.53663E+00
 -1      4250 1.32806E+00
 -1      4251 1.28824E+00
 -1      4252 1.82889E-03
 -1      4253 5.93361E+00
 -1      4254 8.67181E-01
 -1      4255 9.79064E-01
 -1      4256 8.53949E-01
 -1      4257 1.82995E+00
 -1      4258 3.21588E+00
 -1      4259 1.83699E+00
 -1      4260 1.82569E+00
 -1      4261 1.93128E-03
 -1      4262 2.16110E-03
 -1      4263 2.41939E-03
 -1      4264 2.04809E-03
 -1      4265 1.71617E+00
 -1      4266 2.26280E+00
 -1      4267 2.19078E+00
 -1      4268 2.81702E+00
 -1      4269 1.36151E+00
 -1      4270 1.66502E+00
 -1      4271 1.56701E+00
 -1      4272 4.30571E+00
 -1      4273 3.21588E+00
 -1      4274 3.72141E-03
 -1      4275 3.21588E+00
 -1      4276 2.12604E+00
 -1      4277 1.82569E+00
 -1      4278 2.44473E+00
 -1      4279 9.25469E-01
 -1      4280 1.07557E+00
 -1      4281 1.22991E+00
 -1      4282 9.97564E-01
 -1      4283 4.53830E+00
 -1      4284 1.52533E+00
 -1      4285 1.28824E+00
 -1      4286 1.05116E+00
 -1      4287 8.53949E-01
 -1      4288 6.56739E-01
 -1      4289 5.82144E-01
 -1      4290 5.07549E-01
 -1      4291 4.48640E-01
 -1      4292 3.89731E-01
 -1      4293 3.44121E-01
 -1      4294 2.98511E-01
 -1      4295 2.62953E-01
 -1      4296 2.27396E-01
 -1      4297 1.99533E-01
 -1      4298 1.71671E-01
 -1      4299 1.49917E-01
 -1      4300 1.28094E-01
 -1      4301 1.11867E-01
 -1      4302 9.48640E-02
 -1      4303 8.21373E-02
 -1      4304 6.90087E-02
 -1      4305 5.91438E-02
 -1      4306 4.91520E-02
 -1      4307 4.16092E-02
 -1      4308 3.45257E-02
 -1      4309 2.90484E-02
 -1      4310 2.37118E-02
 -1      4311 1.98456E-02
 -1      4312 1.58925E-02
 -1      4313 1.30061E-02
 -1      4314 1.01288E-02
 -1      4315 8.01076E-03
 -1      4316 5.92393E-03
 -1      4317 4.39620E-03
 -1      4318 3.01338E-03
 -1      4319 1.87210E+00
 -1      4320 1.82569E+00
 -1      4321 1.82095E+00
 -1      4322 1.28824E+00
 -1      4323 1.52059E+00
 -1      4324 1.23465E+00
 -3
 9999
