    1C
    1UUSER                                                              
    1UDATE              27.october.2022                                 
    1UTIME              00:08:57                                        
    1UHOST                                                              
    1UPGM               CalculiX                                        
    1UVERSION           Version 2.17                             
    1UCOMPILETIME       Thu Jul 23 21:43:50 CEST 2020                    
    1UDIR                                                               
    1UDBN                                                               
    1UMAT    1SOLIDMATERIAL                                             
    2C                          4361                                     1
 -1         1 7.07340E+01 2.84345E+01 0.00000E+00
 -1         2 7.58753E+01 2.16858E+01 0.00000E+00
 -1         3 1.50000E+02 0.00000E+00 0.00000E+00
 -1         4 1.50000E+02 5.00000E+01 0.00000E+00
 -1         5 0.00000E+00 0.00000E+00 0.00000E+00
 -1         6 0.00000E+00 5.00000E+01 0.00000E+00
 -1         7 0.00000E+00 4.70500E+01 0.00000E+00
 -1         8 0.00000E+00 4.41000E+01 0.00000E+00
 -1         9 0.00000E+00 4.11500E+01 0.00000E+00
 -1        10 0.00000E+00 3.82000E+01 0.00000E+00
 -1        11 0.00000E+00 3.52500E+01 0.00000E+00
 -1        12 0.00000E+00 3.23500E+01 0.00000E+00
 -1        13 0.00000E+00 2.94000E+01 0.00000E+00
 -1        14 0.00000E+00 2.64500E+01 0.00000E+00
 -1        15 0.00000E+00 2.35000E+01 0.00000E+00
 -1        16 0.00000E+00 2.05500E+01 0.00000E+00
 -1        17 0.00000E+00 1.76000E+01 0.00000E+00
 -1        18 0.00000E+00 1.47000E+01 0.00000E+00
 -1        19 0.00000E+00 1.17500E+01 0.00000E+00
 -1        20 0.00000E+00 8.80000E+00 0.00000E+00
 -1        21 0.00000E+00 5.85000E+00 0.00000E+00
 -1        22 0.00000E+00 2.90000E+00 0.00000E+00
 -1        23 3.15000E+00 5.00000E+01 0.00000E+00
 -1        24 6.15000E+00 5.00000E+01 0.00000E+00
 -1        25 9.15000E+00 5.00000E+01 0.00000E+00
 -1        26 1.21500E+01 5.00000E+01 0.00000E+00
 -1        27 1.51500E+01 5.00000E+01 0.00000E+00
 -1        28 1.81500E+01 5.00000E+01 0.00000E+00
 -1        29 2.11500E+01 5.00000E+01 0.00000E+00
 -1        30 2.41500E+01 5.00000E+01 0.00000E+00
 -1        31 2.71500E+01 5.00000E+01 0.00000E+00
 -1        32 3.01500E+01 5.00000E+01 0.00000E+00
 -1        33 3.31500E+01 5.00000E+01 0.00000E+00
 -1        34 3.61500E+01 5.00000E+01 0.00000E+00
 -1        35 3.91500E+01 5.00000E+01 0.00000E+00
 -1        36 4.21500E+01 5.00000E+01 0.00000E+00
 -1        37 4.51500E+01 5.00000E+01 0.00000E+00
 -1        38 4.81500E+01 5.00000E+01 0.00000E+00
 -1        39 5.11500E+01 5.00000E+01 0.00000E+00
 -1        40 5.41500E+01 5.00000E+01 0.00000E+00
 -1        41 5.71500E+01 5.00000E+01 0.00000E+00
 -1        42 6.01500E+01 5.00000E+01 0.00000E+00
 -1        43 6.31500E+01 5.00000E+01 0.00000E+00
 -1        44 6.61500E+01 5.00000E+01 0.00000E+00
 -1        45 6.91500E+01 5.00000E+01 0.00000E+00
 -1        46 7.21500E+01 5.00000E+01 0.00000E+00
 -1        47 7.51500E+01 5.00000E+01 0.00000E+00
 -1        48 7.81500E+01 5.00000E+01 0.00000E+00
 -1        49 8.11500E+01 5.00000E+01 0.00000E+00
 -1        50 8.41500E+01 5.00000E+01 0.00000E+00
 -1        51 8.71500E+01 5.00000E+01 0.00000E+00
 -1        52 9.01500E+01 5.00000E+01 0.00000E+00
 -1        53 9.31500E+01 5.00000E+01 0.00000E+00
 -1        54 9.61500E+01 5.00000E+01 0.00000E+00
 -1        55 9.91500E+01 5.00000E+01 0.00000E+00
 -1        56 1.02150E+02 5.00000E+01 0.00000E+00
 -1        57 1.05150E+02 5.00000E+01 0.00000E+00
 -1        58 1.08150E+02 5.00000E+01 0.00000E+00
 -1        59 1.11150E+02 5.00000E+01 0.00000E+00
 -1        60 1.14150E+02 5.00000E+01 0.00000E+00
 -1        61 1.17150E+02 5.00000E+01 0.00000E+00
 -1        62 1.20150E+02 5.00000E+01 0.00000E+00
 -1        63 1.23150E+02 5.00000E+01 0.00000E+00
 -1        64 1.26150E+02 5.00000E+01 0.00000E+00
 -1        65 1.29150E+02 5.00000E+01 0.00000E+00
 -1        66 1.32150E+02 5.00000E+01 0.00000E+00
 -1        67 1.35150E+02 5.00000E+01 0.00000E+00
 -1        68 1.38150E+02 5.00000E+01 0.00000E+00
 -1        69 1.41150E+02 5.00000E+01 0.00000E+00
 -1        70 1.44150E+02 5.00000E+01 0.00000E+00
 -1        71 1.47150E+02 5.00000E+01 0.00000E+00
 -1        72 3.15000E+00 0.00000E+00 0.00000E+00
 -1        73 6.15000E+00 0.00000E+00 0.00000E+00
 -1        74 9.15000E+00 0.00000E+00 0.00000E+00
 -1        75 1.21500E+01 0.00000E+00 0.00000E+00
 -1        76 1.51500E+01 0.00000E+00 0.00000E+00
 -1        77 1.81500E+01 0.00000E+00 0.00000E+00
 -1        78 2.11500E+01 0.00000E+00 0.00000E+00
 -1        79 2.41500E+01 0.00000E+00 0.00000E+00
 -1        80 2.71500E+01 0.00000E+00 0.00000E+00
 -1        81 3.01500E+01 0.00000E+00 0.00000E+00
 -1        82 3.31500E+01 0.00000E+00 0.00000E+00
 -1        83 3.61500E+01 0.00000E+00 0.00000E+00
 -1        84 3.91500E+01 0.00000E+00 0.00000E+00
 -1        85 4.21500E+01 0.00000E+00 0.00000E+00
 -1        86 4.51500E+01 0.00000E+00 0.00000E+00
 -1        87 4.81500E+01 0.00000E+00 0.00000E+00
 -1        88 5.11500E+01 0.00000E+00 0.00000E+00
 -1        89 5.41500E+01 0.00000E+00 0.00000E+00
 -1        90 5.71500E+01 0.00000E+00 0.00000E+00
 -1        91 6.01500E+01 0.00000E+00 0.00000E+00
 -1        92 6.31500E+01 0.00000E+00 0.00000E+00
 -1        93 6.61500E+01 0.00000E+00 0.00000E+00
 -1        94 6.91500E+01 0.00000E+00 0.00000E+00
 -1        95 7.21500E+01 0.00000E+00 0.00000E+00
 -1        96 7.51500E+01 0.00000E+00 0.00000E+00
 -1        97 7.81500E+01 0.00000E+00 0.00000E+00
 -1        98 8.11500E+01 0.00000E+00 0.00000E+00
 -1        99 8.41500E+01 0.00000E+00 0.00000E+00
 -1       100 8.71500E+01 0.00000E+00 0.00000E+00
 -1       101 9.01500E+01 0.00000E+00 0.00000E+00
 -1       102 9.31500E+01 0.00000E+00 0.00000E+00
 -1       103 9.61500E+01 0.00000E+00 0.00000E+00
 -1       104 9.91500E+01 0.00000E+00 0.00000E+00
 -1       105 1.02150E+02 0.00000E+00 0.00000E+00
 -1       106 1.05150E+02 0.00000E+00 0.00000E+00
 -1       107 1.08150E+02 0.00000E+00 0.00000E+00
 -1       108 1.11150E+02 0.00000E+00 0.00000E+00
 -1       109 1.14150E+02 0.00000E+00 0.00000E+00
 -1       110 1.17150E+02 0.00000E+00 0.00000E+00
 -1       111 1.20150E+02 0.00000E+00 0.00000E+00
 -1       112 1.23150E+02 0.00000E+00 0.00000E+00
 -1       113 1.26150E+02 0.00000E+00 0.00000E+00
 -1       114 1.29150E+02 0.00000E+00 0.00000E+00
 -1       115 1.32150E+02 0.00000E+00 0.00000E+00
 -1       116 1.35150E+02 0.00000E+00 0.00000E+00
 -1       117 1.38150E+02 0.00000E+00 0.00000E+00
 -1       118 1.41150E+02 0.00000E+00 0.00000E+00
 -1       119 1.44150E+02 0.00000E+00 0.00000E+00
 -1       120 1.47150E+02 0.00000E+00 0.00000E+00
 -1       121 1.50000E+02 2.95000E+00 0.00000E+00
 -1       122 1.50000E+02 5.90000E+00 0.00000E+00
 -1       123 1.50000E+02 8.85000E+00 0.00000E+00
 -1       124 1.50000E+02 1.18000E+01 0.00000E+00
 -1       125 1.50000E+02 1.47500E+01 0.00000E+00
 -1       126 1.50000E+02 1.76500E+01 0.00000E+00
 -1       127 1.50000E+02 2.06000E+01 0.00000E+00
 -1       128 1.50000E+02 2.35500E+01 0.00000E+00
 -1       129 1.50000E+02 2.65000E+01 0.00000E+00
 -1       130 1.50000E+02 2.94500E+01 0.00000E+00
 -1       131 1.50000E+02 3.24000E+01 0.00000E+00
 -1       132 1.50000E+02 3.53000E+01 0.00000E+00
 -1       133 1.50000E+02 3.82500E+01 0.00000E+00
 -1       134 1.50000E+02 4.12000E+01 0.00000E+00
 -1       135 1.50000E+02 4.41500E+01 0.00000E+00
 -1       136 1.50000E+02 4.71000E+01 0.00000E+00
 -1       137 7.56968E+01 2.01151E+01 0.00000E+00
 -1       138 7.52331E+01 1.87570E+01 0.00000E+00
 -1       139 7.45036E+01 1.75238E+01 0.00000E+00
 -1       140 7.34713E+01 1.64059E+01 0.00000E+00
 -1       141 7.23150E+01 1.55892E+01 0.00000E+00
 -1       142 7.09203E+01 1.49912E+01 0.00000E+00
 -1       143 6.93442E+01 1.47015E+01 0.00000E+00
 -1       144 6.78844E+01 1.47563E+01 0.00000E+00
 -1       145 6.63195E+01 1.51690E+01 0.00000E+00
 -1       146 6.49741E+01 1.58736E+01 0.00000E+00
 -1       147 6.36762E+01 1.69986E+01 0.00000E+00
 -1       148 6.27810E+01 1.82420E+01 0.00000E+00
 -1       149 6.22004E+01 1.95771E+01 0.00000E+00
 -1       150 6.19017E+01 2.10784E+01 0.00000E+00
 -1       151 6.19234E+01 2.25056E+01 0.00000E+00
 -1       152 6.22495E+01 2.39439E+01 0.00000E+00
 -1       153 6.28471E+01 2.52440E+01 0.00000E+00
 -1       154 6.37715E+01 2.64765E+01 0.00000E+00
 -1       155 6.49485E+01 2.74807E+01 0.00000E+00
 -1       156 6.62519E+01 2.81756E+01 0.00000E+00
 -1       157 6.77679E+01 2.85976E+01 0.00000E+00
 -1       158 6.92262E+01 2.86770E+01 0.00000E+00
 -1       159 7.21286E+01 2.78838E+01 0.00000E+00
 -1       160 7.33656E+01 2.70558E+01 0.00000E+00
 -1       161 7.44370E+01 2.59363E+01 0.00000E+00
 -1       162 7.52067E+01 2.46713E+01 0.00000E+00
 -1       163 7.57047E+01 2.32217E+01 0.00000E+00
 -1       164 2.59800E+00 4.55750E+01 0.00000E+00
 -1       165 2.59800E+00 4.26250E+01 0.00000E+00
 -1       166 2.59800E+00 3.96750E+01 0.00000E+00
 -1       167 2.59800E+00 3.67250E+01 0.00000E+00
 -1       168 2.59800E+00 3.38250E+01 0.00000E+00
 -1       169 2.59800E+00 3.08750E+01 0.00000E+00
 -1       170 2.59800E+00 2.79250E+01 0.00000E+00
 -1       171 2.59800E+00 2.49750E+01 0.00000E+00
 -1       172 2.59800E+00 2.20250E+01 0.00000E+00
 -1       173 2.59800E+00 1.90750E+01 0.00000E+00
 -1       174 2.59800E+00 1.61750E+01 0.00000E+00
 -1       175 2.59800E+00 1.32250E+01 0.00000E+00
 -1       176 2.59800E+00 1.02750E+01 0.00000E+00
 -1       177 2.59800E+00 7.32500E+00 0.00000E+00
 -1       178 2.59800E+00 4.37500E+00 0.00000E+00
 -1       179 2.87400E+00 2.18750E+00 0.00000E+00
 -1       180 4.65000E+00 4.74020E+01 0.00000E+00
 -1       181 7.65000E+00 4.74020E+01 0.00000E+00
 -1       182 1.06500E+01 4.74020E+01 0.00000E+00
 -1       183 1.36500E+01 4.74020E+01 0.00000E+00
 -1       184 1.66500E+01 4.74020E+01 0.00000E+00
 -1       185 1.96500E+01 4.74020E+01 0.00000E+00
 -1       186 2.26500E+01 4.74020E+01 0.00000E+00
 -1       187 2.56500E+01 4.74020E+01 0.00000E+00
 -1       188 2.86500E+01 4.74020E+01 0.00000E+00
 -1       189 3.16500E+01 4.74020E+01 0.00000E+00
 -1       190 3.46500E+01 4.74020E+01 0.00000E+00
 -1       191 3.76500E+01 4.74020E+01 0.00000E+00
 -1       192 4.06500E+01 4.74020E+01 0.00000E+00
 -1       193 4.36500E+01 4.74020E+01 0.00000E+00
 -1       194 4.66500E+01 4.74020E+01 0.00000E+00
 -1       195 4.96500E+01 4.74020E+01 0.00000E+00
 -1       196 5.26500E+01 4.74020E+01 0.00000E+00
 -1       197 5.56500E+01 4.74020E+01 0.00000E+00
 -1       198 5.86500E+01 4.74020E+01 0.00000E+00
 -1       199 6.16500E+01 4.74020E+01 0.00000E+00
 -1       200 6.46500E+01 4.74020E+01 0.00000E+00
 -1       201 6.76500E+01 4.74020E+01 0.00000E+00
 -1       202 7.06500E+01 4.74020E+01 0.00000E+00
 -1       203 7.36500E+01 4.74020E+01 0.00000E+00
 -1       204 7.66500E+01 4.74020E+01 0.00000E+00
 -1       205 7.96500E+01 4.74020E+01 0.00000E+00
 -1       206 8.26500E+01 4.74020E+01 0.00000E+00
 -1       207 8.56500E+01 4.74020E+01 0.00000E+00
 -1       208 8.86500E+01 4.74020E+01 0.00000E+00
 -1       209 9.16500E+01 4.74020E+01 0.00000E+00
 -1       210 9.46500E+01 4.74020E+01 0.00000E+00
 -1       211 9.76500E+01 4.74020E+01 0.00000E+00
 -1       212 1.00650E+02 4.74020E+01 0.00000E+00
 -1       213 1.03650E+02 4.74020E+01 0.00000E+00
 -1       214 1.06650E+02 4.74020E+01 0.00000E+00
 -1       215 1.09650E+02 4.74020E+01 0.00000E+00
 -1       216 1.12650E+02 4.74020E+01 0.00000E+00
 -1       217 1.15650E+02 4.74020E+01 0.00000E+00
 -1       218 1.18650E+02 4.74020E+01 0.00000E+00
 -1       219 1.21650E+02 4.74020E+01 0.00000E+00
 -1       220 1.24650E+02 4.74020E+01 0.00000E+00
 -1       221 1.27650E+02 4.74020E+01 0.00000E+00
 -1       222 1.30650E+02 4.74020E+01 0.00000E+00
 -1       223 1.33650E+02 4.74020E+01 0.00000E+00
 -1       224 1.36650E+02 4.74020E+01 0.00000E+00
 -1       225 1.39650E+02 4.74020E+01 0.00000E+00
 -1       226 1.42650E+02 4.74020E+01 0.00000E+00
 -1       227 1.45650E+02 4.74020E+01 0.00000E+00
 -1       228 5.87400E+00 2.18750E+00 0.00000E+00
 -1       229 8.87400E+00 2.18750E+00 0.00000E+00
 -1       230 1.18740E+01 2.18750E+00 0.00000E+00
 -1       231 1.48740E+01 2.18750E+00 0.00000E+00
 -1       232 1.78740E+01 2.18750E+00 0.00000E+00
 -1       233 2.08740E+01 2.18750E+00 0.00000E+00
 -1       234 2.38740E+01 2.18750E+00 0.00000E+00
 -1       235 2.68740E+01 2.18750E+00 0.00000E+00
 -1       236 2.98740E+01 2.18750E+00 0.00000E+00
 -1       237 3.28740E+01 2.18750E+00 0.00000E+00
 -1       238 3.58740E+01 2.18750E+00 0.00000E+00
 -1       239 3.88740E+01 2.18750E+00 0.00000E+00
 -1       240 4.18740E+01 2.18750E+00 0.00000E+00
 -1       241 4.48740E+01 2.18750E+00 0.00000E+00
 -1       242 4.78740E+01 2.18750E+00 0.00000E+00
 -1       243 5.08740E+01 2.18750E+00 0.00000E+00
 -1       244 5.38740E+01 2.18750E+00 0.00000E+00
 -1       245 5.68740E+01 2.18750E+00 0.00000E+00
 -1       246 5.98740E+01 2.18750E+00 0.00000E+00
 -1       247 6.28740E+01 2.18750E+00 0.00000E+00
 -1       248 6.58740E+01 2.18750E+00 0.00000E+00
 -1       249 6.88740E+01 2.18750E+00 0.00000E+00
 -1       250 7.18740E+01 2.18750E+00 0.00000E+00
 -1       251 7.48740E+01 2.18750E+00 0.00000E+00
 -1       252 7.78740E+01 2.18750E+00 0.00000E+00
 -1       253 8.08740E+01 2.18750E+00 0.00000E+00
 -1       254 8.38740E+01 2.18750E+00 0.00000E+00
 -1       255 8.68740E+01 2.18750E+00 0.00000E+00
 -1       256 8.98740E+01 2.18750E+00 0.00000E+00
 -1       257 9.28740E+01 2.18750E+00 0.00000E+00
 -1       258 9.58740E+01 2.18750E+00 0.00000E+00
 -1       259 9.88740E+01 2.18750E+00 0.00000E+00
 -1       260 1.01874E+02 2.18750E+00 0.00000E+00
 -1       261 1.04874E+02 2.18750E+00 0.00000E+00
 -1       262 1.07874E+02 2.18750E+00 0.00000E+00
 -1       263 1.10874E+02 2.18750E+00 0.00000E+00
 -1       264 1.13874E+02 2.18750E+00 0.00000E+00
 -1       265 1.16874E+02 2.18750E+00 0.00000E+00
 -1       266 1.19874E+02 2.18750E+00 0.00000E+00
 -1       267 1.22874E+02 2.18750E+00 0.00000E+00
 -1       268 1.25874E+02 2.18750E+00 0.00000E+00
 -1       269 1.28874E+02 2.18750E+00 0.00000E+00
 -1       270 1.31874E+02 2.18750E+00 0.00000E+00
 -1       271 1.34874E+02 2.18750E+00 0.00000E+00
 -1       272 1.37874E+02 2.18750E+00 0.00000E+00
 -1       273 1.40874E+02 2.18750E+00 0.00000E+00
 -1       274 1.43874E+02 2.18750E+00 0.00000E+00
 -1       275 1.46874E+02 2.18750E+00 0.00000E+00
 -1       276 1.47402E+02 4.42500E+00 0.00000E+00
 -1       277 1.47402E+02 7.37500E+00 0.00000E+00
 -1       278 1.47402E+02 1.03250E+01 0.00000E+00
 -1       279 1.47402E+02 1.32750E+01 0.00000E+00
 -1       280 1.47402E+02 1.61750E+01 0.00000E+00
 -1       281 1.47402E+02 1.91250E+01 0.00000E+00
 -1       282 1.47402E+02 2.20750E+01 0.00000E+00
 -1       283 1.47402E+02 2.50250E+01 0.00000E+00
 -1       284 1.47402E+02 2.79750E+01 0.00000E+00
 -1       285 1.47402E+02 3.09250E+01 0.00000E+00
 -1       286 1.47402E+02 3.38250E+01 0.00000E+00
 -1       287 1.47402E+02 3.67750E+01 0.00000E+00
 -1       288 1.47402E+02 3.97250E+01 0.00000E+00
 -1       289 1.47402E+02 4.26750E+01 0.00000E+00
 -1       290 1.46526E+02 4.50385E+01 0.00000E+00
 -1       291 7.72404E+01 2.07352E+01 0.00000E+00
 -1       292 7.66916E+01 1.90173E+01 0.00000E+00
 -1       293 7.59840E+01 1.74805E+01 0.00000E+00
 -1       294 7.49397E+01 1.60855E+01 0.00000E+00
 -1       295 7.35926E+01 1.50073E+01 0.00000E+00
 -1       296 7.20954E+01 1.41759E+01 0.00000E+00
 -1       297 7.04120E+01 1.33243E+01 0.00000E+00
 -1       298 6.85657E+01 1.34336E+01 0.00000E+00
 -1       299 6.67500E+01 1.36283E+01 0.00000E+00
 -1       300 6.50455E+01 1.43731E+01 0.00000E+00
 -1       301 6.35311E+01 1.55199E+01 0.00000E+00
 -1       302 6.22447E+01 1.69119E+01 0.00000E+00
 -1       303 6.13789E+01 1.84261E+01 0.00000E+00
 -1       304 6.08620E+01 2.00911E+01 0.00000E+00
 -1       305 6.07003E+01 2.18105E+01 0.00000E+00
 -1       306 6.09041E+01 2.34928E+01 0.00000E+00
 -1       307 6.14467E+01 2.51003E+01 0.00000E+00
 -1       308 6.22053E+01 2.66882E+01 0.00000E+00
 -1       309 6.33556E+01 2.81559E+01 0.00000E+00
 -1       310 6.49903E+01 2.89719E+01 0.00000E+00
 -1       311 6.65949E+01 2.98775E+01 0.00000E+00
 -1       312 6.84312E+01 2.98479E+01 0.00000E+00
 -1       313 7.01860E+01 2.98355E+01 0.00000E+00
 -1       314 7.18766E+01 2.92868E+01 0.00000E+00
 -1       315 7.34215E+01 2.84773E+01 0.00000E+00
 -1       316 7.48377E+01 2.73923E+01 0.00000E+00
 -1       317 7.58576E+01 2.59339E+01 0.00000E+00
 -1       318 7.66815E+01 2.43676E+01 0.00000E+00
 -1       319 7.70782E+01 2.25968E+01 0.00000E+00
 -1       320 5.19600E+00 4.11500E+01 0.00000E+00
 -1       321 5.19600E+00 4.41000E+01 0.00000E+00
 -1       322 5.19600E+00 3.52750E+01 0.00000E+00
 -1       323 5.19600E+00 3.23250E+01 0.00000E+00
 -1       324 5.19600E+00 2.93750E+01 0.00000E+00
 -1       325 5.19600E+00 2.64250E+01 0.00000E+00
 -1       326 5.19600E+00 2.34750E+01 0.00000E+00
 -1       327 5.19600E+00 2.05250E+01 0.00000E+00
 -1       328 5.19600E+00 1.76250E+01 0.00000E+00
 -1       329 5.19600E+00 1.46750E+01 0.00000E+00
 -1       330 5.19600E+00 1.17250E+01 0.00000E+00
 -1       331 5.19600E+00 8.77500E+00 0.00000E+00
 -1       332 5.19600E+00 5.82500E+00 0.00000E+00
 -1       333 5.53500E+00 4.00625E+00 0.00000E+00
 -1       334 8.53500E+00 4.00625E+00 0.00000E+00
 -1       335 9.15000E+00 4.48040E+01 0.00000E+00
 -1       336 1.21500E+01 4.48040E+01 0.00000E+00
 -1       337 1.51500E+01 4.48040E+01 0.00000E+00
 -1       338 1.81500E+01 4.48040E+01 0.00000E+00
 -1       339 2.11500E+01 4.48040E+01 0.00000E+00
 -1       340 2.41500E+01 4.48040E+01 0.00000E+00
 -1       341 2.71500E+01 4.48040E+01 0.00000E+00
 -1       342 3.01500E+01 4.48040E+01 0.00000E+00
 -1       343 3.31500E+01 4.48040E+01 0.00000E+00
 -1       344 3.61500E+01 4.48040E+01 0.00000E+00
 -1       345 3.91500E+01 4.48040E+01 0.00000E+00
 -1       346 4.21500E+01 4.48040E+01 0.00000E+00
 -1       347 4.51500E+01 4.48040E+01 0.00000E+00
 -1       348 4.81500E+01 4.48040E+01 0.00000E+00
 -1       349 5.11500E+01 4.48040E+01 0.00000E+00
 -1       350 5.41500E+01 4.48040E+01 0.00000E+00
 -1       351 5.71500E+01 4.48040E+01 0.00000E+00
 -1       352 6.01500E+01 4.48040E+01 0.00000E+00
 -1       353 6.31500E+01 4.48040E+01 0.00000E+00
 -1       354 6.61500E+01 4.48040E+01 0.00000E+00
 -1       355 6.91500E+01 4.48040E+01 0.00000E+00
 -1       356 7.21500E+01 4.48040E+01 0.00000E+00
 -1       357 7.51500E+01 4.48040E+01 0.00000E+00
 -1       358 7.81500E+01 4.48040E+01 0.00000E+00
 -1       359 8.11500E+01 4.48040E+01 0.00000E+00
 -1       360 8.41500E+01 4.48040E+01 0.00000E+00
 -1       361 8.71500E+01 4.48040E+01 0.00000E+00
 -1       362 9.01500E+01 4.48040E+01 0.00000E+00
 -1       363 9.31500E+01 4.48040E+01 0.00000E+00
 -1       364 9.61500E+01 4.48040E+01 0.00000E+00
 -1       365 9.91500E+01 4.48040E+01 0.00000E+00
 -1       366 1.02150E+02 4.48040E+01 0.00000E+00
 -1       367 1.05150E+02 4.48040E+01 0.00000E+00
 -1       368 1.08150E+02 4.48040E+01 0.00000E+00
 -1       369 1.11150E+02 4.48040E+01 0.00000E+00
 -1       370 1.14150E+02 4.48040E+01 0.00000E+00
 -1       371 1.17150E+02 4.48040E+01 0.00000E+00
 -1       372 1.20150E+02 4.48040E+01 0.00000E+00
 -1       373 1.23150E+02 4.48040E+01 0.00000E+00
 -1       374 1.26150E+02 4.48040E+01 0.00000E+00
 -1       375 1.29150E+02 4.48040E+01 0.00000E+00
 -1       376 1.32150E+02 4.48040E+01 0.00000E+00
 -1       377 1.35150E+02 4.48040E+01 0.00000E+00
 -1       378 1.38150E+02 4.48040E+01 0.00000E+00
 -1       379 1.41150E+02 4.48040E+01 0.00000E+00
 -1       380 1.43838E+02 4.49212E+01 0.00000E+00
 -1       381 1.15350E+01 4.00625E+00 0.00000E+00
 -1       382 1.45350E+01 4.00625E+00 0.00000E+00
 -1       383 1.75350E+01 4.00625E+00 0.00000E+00
 -1       384 2.05350E+01 4.00625E+00 0.00000E+00
 -1       385 2.35350E+01 4.00625E+00 0.00000E+00
 -1       386 2.65350E+01 4.00625E+00 0.00000E+00
 -1       387 2.95350E+01 4.00625E+00 0.00000E+00
 -1       388 3.25350E+01 4.00625E+00 0.00000E+00
 -1       389 3.55350E+01 4.00625E+00 0.00000E+00
 -1       390 3.85350E+01 4.00625E+00 0.00000E+00
 -1       391 4.15350E+01 4.00625E+00 0.00000E+00
 -1       392 4.45350E+01 4.00625E+00 0.00000E+00
 -1       393 4.75350E+01 4.00625E+00 0.00000E+00
 -1       394 5.05350E+01 4.00625E+00 0.00000E+00
 -1       395 5.35350E+01 4.00625E+00 0.00000E+00
 -1       396 5.65350E+01 4.00625E+00 0.00000E+00
 -1       397 5.95350E+01 4.00625E+00 0.00000E+00
 -1       398 6.25350E+01 4.00625E+00 0.00000E+00
 -1       399 6.55350E+01 4.00625E+00 0.00000E+00
 -1       400 6.85350E+01 4.00625E+00 0.00000E+00
 -1       401 7.15350E+01 4.00625E+00 0.00000E+00
 -1       402 7.45350E+01 4.00625E+00 0.00000E+00
 -1       403 7.75350E+01 4.00625E+00 0.00000E+00
 -1       404 8.05350E+01 4.00625E+00 0.00000E+00
 -1       405 8.35350E+01 4.00625E+00 0.00000E+00
 -1       406 8.65350E+01 4.00625E+00 0.00000E+00
 -1       407 8.95350E+01 4.00625E+00 0.00000E+00
 -1       408 9.25350E+01 4.00625E+00 0.00000E+00
 -1       409 9.55350E+01 4.00625E+00 0.00000E+00
 -1       410 9.85350E+01 4.00625E+00 0.00000E+00
 -1       411 1.01535E+02 4.00625E+00 0.00000E+00
 -1       412 1.04535E+02 4.00625E+00 0.00000E+00
 -1       413 1.07535E+02 4.00625E+00 0.00000E+00
 -1       414 1.10535E+02 4.00625E+00 0.00000E+00
 -1       415 1.13535E+02 4.00625E+00 0.00000E+00
 -1       416 1.16535E+02 4.00625E+00 0.00000E+00
 -1       417 1.19535E+02 4.00625E+00 0.00000E+00
 -1       418 1.22535E+02 4.00625E+00 0.00000E+00
 -1       419 1.25535E+02 4.00625E+00 0.00000E+00
 -1       420 1.28535E+02 4.00625E+00 0.00000E+00
 -1       421 1.31535E+02 4.00625E+00 0.00000E+00
 -1       422 1.34535E+02 4.00625E+00 0.00000E+00
 -1       423 1.37535E+02 4.00625E+00 0.00000E+00
 -1       424 1.40535E+02 4.00625E+00 0.00000E+00
 -1       425 1.43535E+02 4.00625E+00 0.00000E+00
 -1       426 1.45469E+02 4.21562E+00 0.00000E+00
 -1       427 1.44804E+02 1.18000E+01 0.00000E+00
 -1       428 1.44804E+02 8.85000E+00 0.00000E+00
 -1       429 1.45136E+02 6.53281E+00 0.00000E+00
 -1       430 1.44804E+02 1.47000E+01 0.00000E+00
 -1       431 1.44804E+02 1.76500E+01 0.00000E+00
 -1       432 1.44804E+02 2.06000E+01 0.00000E+00
 -1       433 1.44804E+02 2.35500E+01 0.00000E+00
 -1       434 1.44804E+02 2.65000E+01 0.00000E+00
 -1       435 1.44804E+02 2.94500E+01 0.00000E+00
 -1       436 1.44804E+02 3.23500E+01 0.00000E+00
 -1       437 1.44804E+02 3.53000E+01 0.00000E+00
 -1       438 1.44804E+02 3.82500E+01 0.00000E+00
 -1       439 1.44804E+02 4.12000E+01 0.00000E+00
 -1       440 7.75913E+01 1.76717E+01 0.00000E+00
 -1       441 7.84506E+01 2.17785E+01 0.00000E+00
 -1       442 7.82007E+01 1.94818E+01 0.00000E+00
 -1       443 7.65666E+01 1.59560E+01 0.00000E+00
 -1       444 7.51285E+01 1.44690E+01 0.00000E+00
 -1       445 5.19600E+00 3.82125E+01 0.00000E+00
 -1       446 7.19523E+01 1.23692E+01 0.00000E+00
 -1       447 6.94073E+01 1.20014E+01 0.00000E+00
 -1       448 6.75018E+01 1.20755E+01 0.00000E+00
 -1       449 6.53117E+01 1.26594E+01 0.00000E+00
 -1       450 6.35057E+01 1.39132E+01 0.00000E+00
 -1       451 6.16283E+01 1.50519E+01 0.00000E+00
 -1       452 6.06138E+01 1.69840E+01 0.00000E+00
 -1       453 5.97225E+01 1.88246E+01 0.00000E+00
 -1       454 5.94906E+01 2.08294E+01 0.00000E+00
 -1       455 5.93491E+01 2.28277E+01 0.00000E+00
 -1       456 5.97885E+01 2.47647E+01 0.00000E+00
 -1       457 6.04296E+01 2.65614E+01 0.00000E+00
 -1       458 6.16943E+01 2.82733E+01 0.00000E+00
 -1       459 6.35193E+01 2.98736E+01 0.00000E+00
 -1       460 6.51238E+01 3.07792E+01 0.00000E+00
 -1       461 6.75393E+01 3.14938E+01 0.00000E+00
 -1       462 6.92940E+01 3.14814E+01 0.00000E+00
 -1       463 7.14314E+01 3.07940E+01 0.00000E+00
 -1       464 7.32507E+01 3.00302E+01 0.00000E+00
 -1       465 7.50708E+01 2.91632E+01 0.00000E+00
 -1       466 7.64785E+01 2.74540E+01 0.00000E+00
 -1       467 7.76392E+01 2.58713E+01 0.00000E+00
 -1       468 7.83083E+01 2.38022E+01 0.00000E+00
 -1       469 7.34733E+01 1.34584E+01 0.00000E+00
 -1       470 7.94109E+01 2.05251E+01 0.00000E+00
 -1       471 6.18580E+01 2.99910E+01 0.00000E+00
 -1       472 7.09476E+01 1.10463E+01 0.00000E+00
 -1       473 1.00350E+01 6.60425E+00 0.00000E+00
 -1       474 7.79400E+00 3.08500E+01 0.00000E+00
 -1       475 7.79400E+00 3.38000E+01 0.00000E+00
 -1       476 7.79400E+00 2.49500E+01 0.00000E+00
 -1       477 7.79400E+00 2.20000E+01 0.00000E+00
 -1       478 7.79400E+00 1.91000E+01 0.00000E+00
 -1       479 7.79400E+00 1.61500E+01 0.00000E+00
 -1       480 7.79400E+00 1.32000E+01 0.00000E+00
 -1       481 7.79400E+00 1.02500E+01 0.00000E+00
 -1       482 1.30350E+01 6.60425E+00 0.00000E+00
 -1       483 1.06500E+01 4.22060E+01 0.00000E+00
 -1       484 7.50637E+01 1.27144E+01 0.00000E+00
 -1       485 1.36500E+01 4.22060E+01 0.00000E+00
 -1       486 1.66500E+01 4.22060E+01 0.00000E+00
 -1       487 1.96500E+01 4.22060E+01 0.00000E+00
 -1       488 2.26500E+01 4.22060E+01 0.00000E+00
 -1       489 2.56500E+01 4.22060E+01 0.00000E+00
 -1       490 2.86500E+01 4.22060E+01 0.00000E+00
 -1       491 3.16500E+01 4.22060E+01 0.00000E+00
 -1       492 3.46500E+01 4.22060E+01 0.00000E+00
 -1       493 3.76500E+01 4.22060E+01 0.00000E+00
 -1       494 4.06500E+01 4.22060E+01 0.00000E+00
 -1       495 4.36500E+01 4.22060E+01 0.00000E+00
 -1       496 4.66500E+01 4.22060E+01 0.00000E+00
 -1       497 4.96500E+01 4.22060E+01 0.00000E+00
 -1       498 5.26500E+01 4.22060E+01 0.00000E+00
 -1       499 5.56500E+01 4.22060E+01 0.00000E+00
 -1       500 5.86500E+01 4.22060E+01 0.00000E+00
 -1       501 6.16500E+01 4.22060E+01 0.00000E+00
 -1       502 6.46500E+01 4.22060E+01 0.00000E+00
 -1       503 6.76500E+01 4.22060E+01 0.00000E+00
 -1       504 7.06500E+01 4.22060E+01 0.00000E+00
 -1       505 7.36500E+01 4.22060E+01 0.00000E+00
 -1       506 7.66500E+01 4.22060E+01 0.00000E+00
 -1       507 7.96500E+01 4.22060E+01 0.00000E+00
 -1       508 8.26500E+01 4.22060E+01 0.00000E+00
 -1       509 8.56500E+01 4.22060E+01 0.00000E+00
 -1       510 8.86500E+01 4.22060E+01 0.00000E+00
 -1       511 9.16500E+01 4.22060E+01 0.00000E+00
 -1       512 9.46500E+01 4.22060E+01 0.00000E+00
 -1       513 9.76500E+01 4.22060E+01 0.00000E+00
 -1       514 1.00650E+02 4.22060E+01 0.00000E+00
 -1       515 1.03650E+02 4.22060E+01 0.00000E+00
 -1       516 1.06650E+02 4.22060E+01 0.00000E+00
 -1       517 1.09650E+02 4.22060E+01 0.00000E+00
 -1       518 1.12650E+02 4.22060E+01 0.00000E+00
 -1       519 1.15650E+02 4.22060E+01 0.00000E+00
 -1       520 1.18650E+02 4.22060E+01 0.00000E+00
 -1       521 1.21650E+02 4.22060E+01 0.00000E+00
 -1       522 1.24650E+02 4.22060E+01 0.00000E+00
 -1       523 1.27650E+02 4.22060E+01 0.00000E+00
 -1       524 1.30650E+02 4.22060E+01 0.00000E+00
 -1       525 1.33650E+02 4.22060E+01 0.00000E+00
 -1       526 1.36650E+02 4.22060E+01 0.00000E+00
 -1       527 1.39650E+02 4.22060E+01 0.00000E+00
 -1       528 1.90350E+01 6.60425E+00 0.00000E+00
 -1       529 2.20350E+01 6.60425E+00 0.00000E+00
 -1       530 2.50350E+01 6.60425E+00 0.00000E+00
 -1       531 2.80350E+01 6.60425E+00 0.00000E+00
 -1       532 3.10350E+01 6.60425E+00 0.00000E+00
 -1       533 3.40350E+01 6.60425E+00 0.00000E+00
 -1       534 3.70350E+01 6.60425E+00 0.00000E+00
 -1       535 4.00350E+01 6.60425E+00 0.00000E+00
 -1       536 4.30350E+01 6.60425E+00 0.00000E+00
 -1       537 4.60350E+01 6.60425E+00 0.00000E+00
 -1       538 4.90350E+01 6.60425E+00 0.00000E+00
 -1       539 5.20350E+01 6.60425E+00 0.00000E+00
 -1       540 5.50350E+01 6.60425E+00 0.00000E+00
 -1       541 5.80350E+01 6.60425E+00 0.00000E+00
 -1       542 6.10350E+01 6.60425E+00 0.00000E+00
 -1       543 6.40350E+01 6.60425E+00 0.00000E+00
 -1       544 6.70350E+01 6.60425E+00 0.00000E+00
 -1       545 7.00350E+01 6.60425E+00 0.00000E+00
 -1       546 7.30350E+01 6.60425E+00 0.00000E+00
 -1       547 7.60350E+01 6.60425E+00 0.00000E+00
 -1       548 7.90350E+01 6.60425E+00 0.00000E+00
 -1       549 8.20350E+01 6.60425E+00 0.00000E+00
 -1       550 8.50350E+01 6.60425E+00 0.00000E+00
 -1       551 8.80350E+01 6.60425E+00 0.00000E+00
 -1       552 9.10350E+01 6.60425E+00 0.00000E+00
 -1       553 9.40350E+01 6.60425E+00 0.00000E+00
 -1       554 9.70350E+01 6.60425E+00 0.00000E+00
 -1       555 1.00035E+02 6.60425E+00 0.00000E+00
 -1       556 1.03035E+02 6.60425E+00 0.00000E+00
 -1       557 1.06035E+02 6.60425E+00 0.00000E+00
 -1       558 1.09035E+02 6.60425E+00 0.00000E+00
 -1       559 1.12035E+02 6.60425E+00 0.00000E+00
 -1       560 1.15035E+02 6.60425E+00 0.00000E+00
 -1       561 1.18035E+02 6.60425E+00 0.00000E+00
 -1       562 1.21035E+02 6.60425E+00 0.00000E+00
 -1       563 1.24035E+02 6.60425E+00 0.00000E+00
 -1       564 1.27035E+02 6.60425E+00 0.00000E+00
 -1       565 1.30035E+02 6.60425E+00 0.00000E+00
 -1       566 1.33035E+02 6.60425E+00 0.00000E+00
 -1       567 1.36035E+02 6.60425E+00 0.00000E+00
 -1       568 1.39035E+02 6.60425E+00 0.00000E+00
 -1       569 1.42035E+02 6.60425E+00 0.00000E+00
 -1       570 1.42206E+02 1.61750E+01 0.00000E+00
 -1       571 1.42206E+02 1.91250E+01 0.00000E+00
 -1       572 1.42206E+02 1.03250E+01 0.00000E+00
 -1       573 1.42206E+02 1.32500E+01 0.00000E+00
 -1       574 1.42206E+02 2.20750E+01 0.00000E+00
 -1       575 1.42206E+02 2.50250E+01 0.00000E+00
 -1       576 1.42206E+02 2.79750E+01 0.00000E+00
 -1       577 1.42206E+02 3.08750E+01 0.00000E+00
 -1       578 1.42206E+02 3.38250E+01 0.00000E+00
 -1       579 1.42206E+02 3.67750E+01 0.00000E+00
 -1       580 1.42206E+02 3.97250E+01 0.00000E+00
 -1       581 7.84075E+01 1.60203E+01 0.00000E+00
 -1       582 1.60350E+01 6.60425E+00 0.00000E+00
 -1       583 8.00067E+01 2.29048E+01 0.00000E+00
 -1       584 7.95214E+01 1.80294E+01 0.00000E+00
 -1       585 7.92300E+00 4.16780E+01 0.00000E+00
 -1       586 7.96056E+01 2.53644E+01 0.00000E+00
 -1       587 7.79400E+00 2.79000E+01 0.00000E+00
 -1       588 6.83943E+01 1.04921E+01 0.00000E+00
 -1       589 7.29077E+01 3.17617E+01 0.00000E+00
 -1       590 6.58786E+01 1.03864E+01 0.00000E+00
 -1       591 6.34306E+01 1.18774E+01 0.00000E+00
 -1       592 6.15531E+01 1.30161E+01 0.00000E+00
 -1       593 5.96767E+01 1.52596E+01 0.00000E+00
 -1       594 5.87854E+01 1.71002E+01 0.00000E+00
 -1       595 5.81525E+01 1.96589E+01 0.00000E+00
 -1       596 5.77090E+01 2.17073E+01 0.00000E+00
 -1       597 5.77328E+01 2.42127E+01 0.00000E+00
 -1       598 5.83739E+01 2.60094E+01 0.00000E+00
 -1       599 5.96825E+01 2.84365E+01 0.00000E+00
 -1       600 6.35197E+01 3.17470E+01 0.00000E+00
 -1       601 6.57974E+01 3.29418E+01 0.00000E+00
 -1       602 6.84288E+01 3.32026E+01 0.00000E+00
 -1       603 7.09904E+01 3.30895E+01 0.00000E+00
 -1       604 7.48262E+01 3.09938E+01 0.00000E+00
 -1       605 7.70682E+01 2.93739E+01 0.00000E+00
 -1       606 7.82288E+01 2.77912E+01 0.00000E+00
 -1       607 7.35427E+01 1.16252E+01 0.00000E+00
 -1       608 7.61550E+00 6.21462E+00 0.00000E+00
 -1       609 7.72008E+01 1.39037E+01 0.00000E+00
 -1       610 6.99346E+01 9.53698E+00 0.00000E+00
 -1       611 7.79400E+00 3.67375E+01 0.00000E+00
 -1       612 7.68236E+01 3.12045E+01 0.00000E+00
 -1       613 5.98461E+01 3.01541E+01 0.00000E+00
 -1       614 5.96015E+01 1.32238E+01 0.00000E+00
 -1       615 7.25379E+01 1.03023E+01 0.00000E+00
 -1       616 1.41678E+02 4.22645E+01 0.00000E+00
 -1       617 1.03920E+01 2.05500E+01 0.00000E+00
 -1       618 1.03920E+01 2.35000E+01 0.00000E+00
 -1       619 1.03920E+01 1.46750E+01 0.00000E+00
 -1       620 1.03920E+01 1.17250E+01 0.00000E+00
 -1       621 1.15350E+01 9.20225E+00 0.00000E+00
 -1       622 6.98001E+01 3.51943E+01 0.00000E+00
 -1       623 8.14989E+01 2.44107E+01 0.00000E+00
 -1       624 8.07005E+01 2.75895E+01 0.00000E+00
 -1       625 1.51500E+01 3.96080E+01 0.00000E+00
 -1       626 1.81500E+01 3.96080E+01 0.00000E+00
 -1       627 2.11500E+01 3.96080E+01 0.00000E+00
 -1       628 2.41500E+01 3.96080E+01 0.00000E+00
 -1       629 2.71500E+01 3.96080E+01 0.00000E+00
 -1       630 3.01500E+01 3.96080E+01 0.00000E+00
 -1       631 3.31500E+01 3.96080E+01 0.00000E+00
 -1       632 3.61500E+01 3.96080E+01 0.00000E+00
 -1       633 3.91500E+01 3.96080E+01 0.00000E+00
 -1       634 4.21500E+01 3.96080E+01 0.00000E+00
 -1       635 4.51500E+01 3.96080E+01 0.00000E+00
 -1       636 4.81500E+01 3.96080E+01 0.00000E+00
 -1       637 5.11500E+01 3.96080E+01 0.00000E+00
 -1       638 5.41500E+01 3.96080E+01 0.00000E+00
 -1       639 5.71500E+01 3.96080E+01 0.00000E+00
 -1       640 6.01500E+01 3.96080E+01 0.00000E+00
 -1       641 6.31500E+01 3.96080E+01 0.00000E+00
 -1       642 6.61500E+01 3.96080E+01 0.00000E+00
 -1       643 6.91500E+01 3.96080E+01 0.00000E+00
 -1       644 7.21500E+01 3.96080E+01 0.00000E+00
 -1       645 7.51500E+01 3.96080E+01 0.00000E+00
 -1       646 7.81500E+01 3.96080E+01 0.00000E+00
 -1       647 8.11500E+01 3.96080E+01 0.00000E+00
 -1       648 8.41500E+01 3.96080E+01 0.00000E+00
 -1       649 8.71500E+01 3.96080E+01 0.00000E+00
 -1       650 9.01500E+01 3.96080E+01 0.00000E+00
 -1       651 9.31500E+01 3.96080E+01 0.00000E+00
 -1       652 9.61500E+01 3.96080E+01 0.00000E+00
 -1       653 9.91500E+01 3.96080E+01 0.00000E+00
 -1       654 1.02150E+02 3.96080E+01 0.00000E+00
 -1       655 1.05150E+02 3.96080E+01 0.00000E+00
 -1       656 1.08150E+02 3.96080E+01 0.00000E+00
 -1       657 1.11150E+02 3.96080E+01 0.00000E+00
 -1       658 1.14150E+02 3.96080E+01 0.00000E+00
 -1       659 1.17150E+02 3.96080E+01 0.00000E+00
 -1       660 1.20150E+02 3.96080E+01 0.00000E+00
 -1       661 1.23150E+02 3.96080E+01 0.00000E+00
 -1       662 1.26150E+02 3.96080E+01 0.00000E+00
 -1       663 1.29150E+02 3.96080E+01 0.00000E+00
 -1       664 1.32150E+02 3.96080E+01 0.00000E+00
 -1       665 1.35150E+02 3.96080E+01 0.00000E+00
 -1       666 1.38150E+02 3.96080E+01 0.00000E+00
 -1       667 2.35350E+01 9.20225E+00 0.00000E+00
 -1       668 1.39206E+02 1.03250E+01 0.00000E+00
 -1       669 2.05350E+01 9.20225E+00 0.00000E+00
 -1       670 2.95350E+01 9.20225E+00 0.00000E+00
 -1       671 3.25350E+01 9.20225E+00 0.00000E+00
 -1       672 3.55350E+01 9.20225E+00 0.00000E+00
 -1       673 3.85350E+01 9.20225E+00 0.00000E+00
 -1       674 4.15350E+01 9.20225E+00 0.00000E+00
 -1       675 4.45350E+01 9.20225E+00 0.00000E+00
 -1       676 4.75350E+01 9.20225E+00 0.00000E+00
 -1       677 5.05350E+01 9.20225E+00 0.00000E+00
 -1       678 5.35350E+01 9.20225E+00 0.00000E+00
 -1       679 5.65350E+01 9.20225E+00 0.00000E+00
 -1       680 5.95350E+01 9.20225E+00 0.00000E+00
 -1       681 6.55350E+01 8.82207E+00 0.00000E+00
 -1       682 6.85350E+01 8.65450E+00 0.00000E+00
 -1       683 7.75350E+01 9.20225E+00 0.00000E+00
 -1       684 8.05350E+01 9.20225E+00 0.00000E+00
 -1       685 8.35350E+01 9.20225E+00 0.00000E+00
 -1       686 8.65350E+01 9.20225E+00 0.00000E+00
 -1       687 8.95350E+01 9.20225E+00 0.00000E+00
 -1       688 9.25350E+01 9.20225E+00 0.00000E+00
 -1       689 9.55350E+01 9.20225E+00 0.00000E+00
 -1       690 9.85350E+01 9.20225E+00 0.00000E+00
 -1       691 1.01535E+02 9.20225E+00 0.00000E+00
 -1       692 1.04535E+02 9.20225E+00 0.00000E+00
 -1       693 1.07535E+02 9.20225E+00 0.00000E+00
 -1       694 1.10535E+02 9.20225E+00 0.00000E+00
 -1       695 1.13535E+02 9.20225E+00 0.00000E+00
 -1       696 1.16535E+02 9.20225E+00 0.00000E+00
 -1       697 1.19535E+02 9.20225E+00 0.00000E+00
 -1       698 1.22535E+02 9.20225E+00 0.00000E+00
 -1       699 1.25535E+02 9.20225E+00 0.00000E+00
 -1       700 1.28535E+02 9.20225E+00 0.00000E+00
 -1       701 1.31535E+02 9.20225E+00 0.00000E+00
 -1       702 1.34535E+02 9.20225E+00 0.00000E+00
 -1       703 1.36870E+02 9.76363E+00 0.00000E+00
 -1       704 1.39608E+02 2.35500E+01 0.00000E+00
 -1       705 1.40178E+02 3.96665E+01 0.00000E+00
 -1       706 1.39608E+02 1.76500E+01 0.00000E+00
 -1       707 1.39608E+02 2.65000E+01 0.00000E+00
 -1       708 1.39608E+02 2.06000E+01 0.00000E+00
 -1       709 1.75350E+01 9.20225E+00 0.00000E+00
 -1       710 7.52530E+01 1.08435E+01 0.00000E+00
 -1       711 1.39608E+02 2.94000E+01 0.00000E+00
 -1       712 1.39608E+02 3.23500E+01 0.00000E+00
 -1       713 1.39608E+02 3.53000E+01 0.00000E+00
 -1       714 7.95853E+01 1.39466E+01 0.00000E+00
 -1       715 8.06992E+01 1.59557E+01 0.00000E+00
 -1       716 9.78035E+00 3.93914E+01 0.00000E+00
 -1       717 5.56707E+01 2.29794E+01 0.00000E+00
 -1       718 6.37624E+01 9.66713E+00 0.00000E+00
 -1       719 2.65350E+01 9.20225E+00 0.00000E+00
 -1       720 1.24652E+01 3.94997E+01 0.00000E+00
 -1       721 7.73901E+01 1.20327E+01 0.00000E+00
 -1       722 1.03920E+01 1.76125E+01 0.00000E+00
 -1       723 1.45350E+01 9.20225E+00 0.00000E+00
 -1       724 8.15144E+01 1.93679E+01 0.00000E+00
 -1       725 7.45043E+01 3.29701E+01 0.00000E+00
 -1       726 1.03920E+01 3.23250E+01 0.00000E+00
 -1       727 6.15155E+01 1.08370E+01 0.00000E+00
 -1       728 5.76874E+01 1.54323E+01 0.00000E+00
 -1       729 6.14431E+01 3.20479E+01 0.00000E+00
 -1       730 5.64380E+01 2.56875E+01 0.00000E+00
 -1       731 5.68040E+01 1.79677E+01 0.00000E+00
 -1       732 5.73710E+01 2.81164E+01 0.00000E+00
 -1       733 6.38619E+01 3.38633E+01 0.00000E+00
 -1       734 6.69274E+01 3.49457E+01 0.00000E+00
 -1       735 8.15067E+01 2.18893E+01 0.00000E+00
 -1       736 7.25870E+01 3.42979E+01 0.00000E+00
 -1       737 7.95398E+01 2.91722E+01 0.00000E+00
 -1       738 5.64183E+01 2.03557E+01 0.00000E+00
 -1       739 1.03920E+01 3.52625E+01 0.00000E+00
 -1       740 1.03920E+01 2.64500E+01 0.00000E+00
 -1       741 8.26922E+01 1.72942E+01 0.00000E+00
 -1       742 8.25938E+01 2.66358E+01 0.00000E+00
 -1       743 1.39608E+02 1.47250E+01 0.00000E+00
 -1       744 7.45350E+01 9.15721E+00 0.00000E+00
 -1       745 6.49919E+01 3.58672E+01 0.00000E+00
 -1       746 5.75346E+01 2.98340E+01 0.00000E+00
 -1       747 7.92952E+01 3.10029E+01 0.00000E+00
 -1       748 7.65016E+01 3.31808E+01 0.00000E+00
 -1       749 1.03920E+01 2.93875E+01 0.00000E+00
 -1       750 5.76122E+01 1.33966E+01 0.00000E+00
 -1       751 5.95683E+01 1.12130E+01 0.00000E+00
 -1       752 6.17852E+01 3.41641E+01 0.00000E+00
 -1       753 1.38879E+02 3.74540E+01 0.00000E+00
 -1       754 1.29900E+01 1.32000E+01 0.00000E+00
 -1       755 1.96500E+01 3.70100E+01 0.00000E+00
 -1       756 2.26500E+01 3.70100E+01 0.00000E+00
 -1       757 2.56500E+01 3.70100E+01 0.00000E+00
 -1       758 2.86500E+01 3.70100E+01 0.00000E+00
 -1       759 3.16500E+01 3.70100E+01 0.00000E+00
 -1       760 3.46500E+01 3.70100E+01 0.00000E+00
 -1       761 3.76500E+01 3.70100E+01 0.00000E+00
 -1       762 4.06500E+01 3.70100E+01 0.00000E+00
 -1       763 4.36500E+01 3.70100E+01 0.00000E+00
 -1       764 4.66500E+01 3.70100E+01 0.00000E+00
 -1       765 4.96500E+01 3.70100E+01 0.00000E+00
 -1       766 5.26500E+01 3.70100E+01 0.00000E+00
 -1       767 5.56500E+01 3.70100E+01 0.00000E+00
 -1       768 5.86500E+01 3.70100E+01 0.00000E+00
 -1       769 6.16500E+01 3.70100E+01 0.00000E+00
 -1       770 7.06500E+01 3.70550E+01 0.00000E+00
 -1       771 7.36500E+01 3.70550E+01 0.00000E+00
 -1       772 7.66500E+01 3.70550E+01 0.00000E+00
 -1       773 7.96500E+01 3.70550E+01 0.00000E+00
 -1       774 8.26500E+01 3.70550E+01 0.00000E+00
 -1       775 8.56500E+01 3.70550E+01 0.00000E+00
 -1       776 8.86500E+01 3.70550E+01 0.00000E+00
 -1       777 9.16500E+01 3.70550E+01 0.00000E+00
 -1       778 9.46500E+01 3.70550E+01 0.00000E+00
 -1       779 9.76500E+01 3.70550E+01 0.00000E+00
 -1       780 1.00650E+02 3.70550E+01 0.00000E+00
 -1       781 1.03650E+02 3.70550E+01 0.00000E+00
 -1       782 1.06650E+02 3.70550E+01 0.00000E+00
 -1       783 1.09650E+02 3.70550E+01 0.00000E+00
 -1       784 1.12650E+02 3.70550E+01 0.00000E+00
 -1       785 1.15650E+02 3.70550E+01 0.00000E+00
 -1       786 1.18650E+02 3.70550E+01 0.00000E+00
 -1       787 1.21650E+02 3.70550E+01 0.00000E+00
 -1       788 1.24650E+02 3.70550E+01 0.00000E+00
 -1       789 1.27650E+02 3.70550E+01 0.00000E+00
 -1       790 1.30650E+02 3.70550E+01 0.00000E+00
 -1       791 1.33650E+02 3.70550E+01 0.00000E+00
 -1       792 1.36264E+02 3.72545E+01 0.00000E+00
 -1       793 2.20350E+01 1.18003E+01 0.00000E+00
 -1       794 3.40350E+01 1.18003E+01 0.00000E+00
 -1       795 3.10350E+01 1.18003E+01 0.00000E+00
 -1       796 4.00350E+01 1.18003E+01 0.00000E+00
 -1       797 4.30350E+01 1.18003E+01 0.00000E+00
 -1       798 4.60350E+01 1.18003E+01 0.00000E+00
 -1       799 4.90350E+01 1.18003E+01 0.00000E+00
 -1       800 5.20350E+01 1.18003E+01 0.00000E+00
 -1       801 5.50350E+01 1.18003E+01 0.00000E+00
 -1       802 5.73016E+01 1.15066E+01 0.00000E+00
 -1       803 5.92053E+01 3.23147E+01 0.00000E+00
 -1       804 7.90350E+01 1.15876E+01 0.00000E+00
 -1       805 8.80350E+01 1.18003E+01 0.00000E+00
 -1       806 9.10350E+01 1.18003E+01 0.00000E+00
 -1       807 9.40350E+01 1.18003E+01 0.00000E+00
 -1       808 9.70350E+01 1.18003E+01 0.00000E+00
 -1       809 1.00035E+02 1.18003E+01 0.00000E+00
 -1       810 1.03035E+02 1.18003E+01 0.00000E+00
 -1       811 1.06035E+02 1.18003E+01 0.00000E+00
 -1       812 1.09035E+02 1.18003E+01 0.00000E+00
 -1       813 1.12035E+02 1.18003E+01 0.00000E+00
 -1       814 1.15035E+02 1.18003E+01 0.00000E+00
 -1       815 1.18035E+02 1.18003E+01 0.00000E+00
 -1       816 1.21035E+02 1.18003E+01 0.00000E+00
 -1       817 1.24035E+02 1.18003E+01 0.00000E+00
 -1       818 1.27035E+02 1.18003E+01 0.00000E+00
 -1       819 1.30035E+02 1.18003E+01 0.00000E+00
 -1       820 1.33035E+02 1.18003E+01 0.00000E+00
 -1       821 1.29900E+01 2.20250E+01 0.00000E+00
 -1       822 1.90350E+01 1.18003E+01 0.00000E+00
 -1       823 1.37010E+02 2.50250E+01 0.00000E+00
 -1       824 1.37010E+02 3.38250E+01 0.00000E+00
 -1       825 1.37010E+02 2.79250E+01 0.00000E+00
 -1       826 8.17888E+01 1.40382E+01 0.00000E+00
 -1       827 6.81870E+01 3.71126E+01 0.00000E+00
 -1       828 1.37010E+02 3.08750E+01 0.00000E+00
 -1       829 5.42430E+01 2.48466E+01 0.00000E+00
 -1       830 8.50350E+01 1.18003E+01 0.00000E+00
 -1       831 8.20350E+01 1.16939E+01 0.00000E+00
 -1       832 3.70350E+01 1.18003E+01 0.00000E+00
 -1       833 1.66500E+01 3.70100E+01 0.00000E+00
 -1       834 5.40727E+01 2.11058E+01 0.00000E+00
 -1       835 5.44585E+01 1.87178E+01 0.00000E+00
 -1       836 5.46777E+01 2.77573E+01 0.00000E+00
 -1       837 1.37625E+01 1.12011E+01 0.00000E+00
 -1       838 7.48083E+01 3.54573E+01 0.00000E+00
 -1       839 8.19086E+01 2.96924E+01 0.00000E+00
 -1       840 5.53096E+01 1.60254E+01 0.00000E+00
 -1       841 1.29900E+01 2.49750E+01 0.00000E+00
 -1       842 8.37818E+01 1.53767E+01 0.00000E+00
 -1       843 8.40363E+01 2.45441E+01 0.00000E+00
 -1       844 1.37010E+02 1.61875E+01 0.00000E+00
 -1       845 1.29900E+01 3.37938E+01 0.00000E+00
 -1       846 1.39652E+01 3.69017E+01 0.00000E+00
 -1       847 1.37010E+02 2.20750E+01 0.00000E+00
 -1       848 8.32257E+01 2.06339E+01 0.00000E+00
 -1       849 2.80350E+01 1.18003E+01 0.00000E+00
 -1       850 1.35370E+02 1.23616E+01 0.00000E+00
 -1       851 1.29900E+01 1.90875E+01 0.00000E+00
 -1       852 1.37010E+02 1.91313E+01 0.00000E+00
 -1       853 1.29900E+01 1.61375E+01 0.00000E+00
 -1       854 5.26449E+01 2.29730E+01 0.00000E+00
 -1       855 5.48414E+01 2.94750E+01 0.00000E+00
 -1       856 5.95475E+01 3.44309E+01 0.00000E+00
 -1       857 7.89732E+01 3.29791E+01 0.00000E+00
 -1       858 1.36940E+02 1.29756E+01 0.00000E+00
 -1       859 8.44035E+01 1.85602E+01 0.00000E+00
 -1       860 1.36637E+02 3.55398E+01 0.00000E+00
 -1       861 5.52345E+01 1.39897E+01 0.00000E+00
 -1       862 2.50350E+01 1.18003E+01 0.00000E+00
 -1       863 1.63988E+01 1.15007E+01 0.00000E+00
 -1       864 8.36310E+01 2.25890E+01 0.00000E+00
 -1       865 1.29900E+01 3.08563E+01 0.00000E+00
 -1       866 2.41500E+01 3.44120E+01 0.00000E+00
 -1       867 2.71500E+01 3.44120E+01 0.00000E+00
 -1       868 3.01500E+01 3.44120E+01 0.00000E+00
 -1       869 3.31500E+01 3.44120E+01 0.00000E+00
 -1       870 3.61500E+01 3.44120E+01 0.00000E+00
 -1       871 3.91500E+01 3.44120E+01 0.00000E+00
 -1       872 4.21500E+01 3.44120E+01 0.00000E+00
 -1       873 4.51500E+01 3.44120E+01 0.00000E+00
 -1       874 4.81500E+01 3.44120E+01 0.00000E+00
 -1       875 5.11500E+01 3.44120E+01 0.00000E+00
 -1       876 5.41500E+01 3.44120E+01 0.00000E+00
 -1       877 8.54167E+01 2.70393E+01 0.00000E+00
 -1       878 8.41500E+01 3.44570E+01 0.00000E+00
 -1       879 8.71500E+01 3.44570E+01 0.00000E+00
 -1       880 9.01500E+01 3.44570E+01 0.00000E+00
 -1       881 9.31500E+01 3.44570E+01 0.00000E+00
 -1       882 9.61500E+01 3.44570E+01 0.00000E+00
 -1       883 9.91500E+01 3.44570E+01 0.00000E+00
 -1       884 1.02150E+02 3.44570E+01 0.00000E+00
 -1       885 1.05150E+02 3.44570E+01 0.00000E+00
 -1       886 1.08150E+02 3.44570E+01 0.00000E+00
 -1       887 1.11150E+02 3.44570E+01 0.00000E+00
 -1       888 1.14150E+02 3.44570E+01 0.00000E+00
 -1       889 1.17150E+02 3.44570E+01 0.00000E+00
 -1       890 1.20150E+02 3.44570E+01 0.00000E+00
 -1       891 1.23150E+02 3.44570E+01 0.00000E+00
 -1       892 1.26150E+02 3.44570E+01 0.00000E+00
 -1       893 1.29150E+02 3.44570E+01 0.00000E+00
 -1       894 1.32150E+02 3.44570E+01 0.00000E+00
 -1       895 5.22416E+01 1.95848E+01 0.00000E+00
 -1       896 3.25350E+01 1.43982E+01 0.00000E+00
 -1       897 4.45350E+01 1.43982E+01 0.00000E+00
 -1       898 4.15350E+01 1.43982E+01 0.00000E+00
 -1       899 5.05350E+01 1.43982E+01 0.00000E+00
 -1       900 2.05350E+01 1.43982E+01 0.00000E+00
 -1       901 9.55350E+01 1.43982E+01 0.00000E+00
 -1       902 2.11500E+01 3.44120E+01 0.00000E+00
 -1       903 9.25350E+01 1.43982E+01 0.00000E+00
 -1       904 8.95350E+01 1.43982E+01 0.00000E+00
 -1       905 9.85350E+01 1.43982E+01 0.00000E+00
 -1       906 1.01535E+02 1.43982E+01 0.00000E+00
 -1       907 1.04535E+02 1.43982E+01 0.00000E+00
 -1       908 1.07535E+02 1.43982E+01 0.00000E+00
 -1       909 1.10535E+02 1.43982E+01 0.00000E+00
 -1       910 1.13535E+02 1.43982E+01 0.00000E+00
 -1       911 1.16535E+02 1.43982E+01 0.00000E+00
 -1       912 1.19535E+02 1.43982E+01 0.00000E+00
 -1       913 1.22535E+02 1.43982E+01 0.00000E+00
 -1       914 1.25535E+02 1.43982E+01 0.00000E+00
 -1       915 1.28535E+02 1.43982E+01 0.00000E+00
 -1       916 1.31535E+02 1.43982E+01 0.00000E+00
 -1       917 8.44084E+01 1.35885E+01 0.00000E+00
 -1       918 1.34412E+02 2.64750E+01 0.00000E+00
 -1       919 8.15866E+01 3.16687E+01 0.00000E+00
 -1       920 5.22669E+01 2.66296E+01 0.00000E+00
 -1       921 8.69717E+01 1.39934E+01 0.00000E+00
 -1       922 1.29900E+01 2.79188E+01 0.00000E+00
 -1       923 8.47315E+01 3.00960E+01 0.00000E+00
 -1       924 4.75350E+01 1.43982E+01 0.00000E+00
 -1       925 2.35350E+01 1.43982E+01 0.00000E+00
 -1       926 5.26096E+01 1.66526E+01 0.00000E+00
 -1       927 5.63915E+01 3.24069E+01 0.00000E+00
 -1       928 1.81500E+01 3.44120E+01 0.00000E+00
 -1       929 1.55880E+01 1.46687E+01 0.00000E+00
 -1       930 8.44095E+01 3.20722E+01 0.00000E+00
 -1       931 8.58888E+01 2.07751E+01 0.00000E+00
 -1       932 2.65350E+01 1.43982E+01 0.00000E+00
 -1       933 1.55700E+01 3.41029E+01 0.00000E+00
 -1       934 5.74277E+01 3.46623E+01 0.00000E+00
 -1       935 5.24305E+01 2.83473E+01 0.00000E+00
 -1       936 8.21183E+01 3.43619E+01 0.00000E+00
 -1       937 5.08138E+01 2.14521E+01 0.00000E+00
 -1       938 1.34394E+02 3.49984E+01 0.00000E+00
 -1       939 2.95350E+01 1.43982E+01 0.00000E+00
 -1       940 3.85350E+01 1.43982E+01 0.00000E+00
 -1       941 1.75351E+01 1.43983E+01 0.00000E+00
 -1       942 5.35350E+01 1.43982E+01 0.00000E+00
 -1       943 1.34394E+02 3.20484E+01 0.00000E+00
 -1       944 1.34412E+02 2.35250E+01 0.00000E+00
 -1       945 1.33870E+02 1.49596E+01 0.00000E+00
 -1       946 8.54930E+01 1.66427E+01 0.00000E+00
 -1       947 1.55880E+01 2.05562E+01 0.00000E+00
 -1       948 1.34412E+02 1.76594E+01 0.00000E+00
 -1       949 1.55880E+01 2.35063E+01 0.00000E+00
 -1       950 5.06688E+01 2.47560E+01 0.00000E+00
 -1       951 8.62941E+01 2.27302E+01 0.00000E+00
 -1       952 1.34403E+02 2.92617E+01 0.00000E+00
 -1       953 1.55700E+01 3.11654E+01 0.00000E+00
 -1       954 3.55350E+01 1.43982E+01 0.00000E+00
 -1       955 8.76745E+01 2.52254E+01 0.00000E+00
 -1       956 8.69783E+01 1.88576E+01 0.00000E+00
 -1       957 2.56500E+01 3.18140E+01 0.00000E+00
 -1       958 9.70350E+01 1.69963E+01 0.00000E+00
 -1       959 2.86500E+01 3.18140E+01 0.00000E+00
 -1       960 3.16500E+01 3.18140E+01 0.00000E+00
 -1       961 3.46500E+01 3.18140E+01 0.00000E+00
 -1       962 3.76500E+01 3.18140E+01 0.00000E+00
 -1       963 4.06500E+01 3.18140E+01 0.00000E+00
 -1       964 4.36500E+01 3.18140E+01 0.00000E+00
 -1       965 4.66500E+01 3.18140E+01 0.00000E+00
 -1       966 4.96500E+01 3.18140E+01 0.00000E+00
 -1       967 5.26500E+01 3.18140E+01 0.00000E+00
 -1       968 1.55880E+01 1.76125E+01 0.00000E+00
 -1       969 8.86500E+01 3.18590E+01 0.00000E+00
 -1       970 9.16500E+01 3.18590E+01 0.00000E+00
 -1       971 9.46500E+01 3.18590E+01 0.00000E+00
 -1       972 9.76500E+01 3.18590E+01 0.00000E+00
 -1       973 1.00650E+02 3.18590E+01 0.00000E+00
 -1       974 1.03650E+02 3.18590E+01 0.00000E+00
 -1       975 1.06650E+02 3.18590E+01 0.00000E+00
 -1       976 1.09650E+02 3.18590E+01 0.00000E+00
 -1       977 1.12650E+02 3.18590E+01 0.00000E+00
 -1       978 1.15650E+02 3.18590E+01 0.00000E+00
 -1       979 1.18650E+02 3.18590E+01 0.00000E+00
 -1       980 1.21650E+02 3.18590E+01 0.00000E+00
 -1       981 1.24650E+02 3.18590E+01 0.00000E+00
 -1       982 1.27650E+02 3.18590E+01 0.00000E+00
 -1       983 1.30650E+02 3.18590E+01 0.00000E+00
 -1       984 1.81500E+01 3.14745E+01 0.00000E+00
 -1       985 1.90351E+01 1.69963E+01 0.00000E+00
 -1       986 1.32077E+02 1.70980E+01 0.00000E+00
 -1       987 1.55700E+01 2.82279E+01 0.00000E+00
 -1       988 2.20351E+01 1.69963E+01 0.00000E+00
 -1       989 2.26500E+01 3.18140E+01 0.00000E+00
 -1       990 9.40350E+01 1.69963E+01 0.00000E+00
 -1       991 9.10350E+01 1.69963E+01 0.00000E+00
 -1       992 1.03035E+02 1.69963E+01 0.00000E+00
 -1       993 1.06035E+02 1.69963E+01 0.00000E+00
 -1       994 1.09035E+02 1.69963E+01 0.00000E+00
 -1       995 1.12035E+02 1.69963E+01 0.00000E+00
 -1       996 1.15035E+02 1.69963E+01 0.00000E+00
 -1       997 1.18035E+02 1.69963E+01 0.00000E+00
 -1       998 1.21035E+02 1.69963E+01 0.00000E+00
 -1       999 1.24035E+02 1.69963E+01 0.00000E+00
 -1      1000 1.27035E+02 1.69963E+01 0.00000E+00
 -1      1001 1.29556E+02 1.70471E+01 0.00000E+00
 -1      1002 8.62324E+01 1.53180E+01 0.00000E+00
 -1      1003 1.34412E+02 2.05922E+01 0.00000E+00
 -1      1004 8.86353E+01 2.12253E+01 0.00000E+00
 -1      1005 1.73115E+01 1.73044E+01 0.00000E+00
 -1      1006 4.98925E+01 1.78008E+01 0.00000E+00
 -1      1007 8.76092E+01 2.91359E+01 0.00000E+00
 -1      1008 1.00035E+02 1.69963E+01 0.00000E+00
 -1      1009 4.30350E+01 1.69963E+01 0.00000E+00
 -1      1010 1.55790E+01 2.58671E+01 0.00000E+00
 -1      1011 2.04000E+01 3.16443E+01 0.00000E+00
 -1      1012 2.50351E+01 1.69963E+01 0.00000E+00
 -1      1013 3.40350E+01 1.69963E+01 0.00000E+00
 -1      1014 8.80351E+01 1.69963E+01 0.00000E+00
 -1      1015 4.97624E+01 2.77348E+01 0.00000E+00
 -1      1016 4.60350E+01 1.69963E+01 0.00000E+00
 -1      1017 4.00350E+01 1.69963E+01 0.00000E+00
 -1      1018 1.32077E+02 2.00308E+01 0.00000E+00
 -1      1019 1.31814E+02 2.50000E+01 0.00000E+00
 -1      1020 3.10350E+01 1.69963E+01 0.00000E+00
 -1      1021 1.81860E+01 2.20313E+01 0.00000E+00
 -1      1022 9.00157E+01 2.37205E+01 0.00000E+00
 -1      1023 1.77488E+01 1.96678E+01 0.00000E+00
 -1      1024 1.31805E+02 2.77867E+01 0.00000E+00
 -1      1025 3.70350E+01 1.69963E+01 0.00000E+00
 -1      1026 9.02395E+01 2.72240E+01 0.00000E+00
 -1      1027 3.01500E+01 2.92160E+01 0.00000E+00
 -1      1028 3.31500E+01 2.92160E+01 0.00000E+00
 -1      1029 3.61500E+01 2.92160E+01 0.00000E+00
 -1      1030 3.91500E+01 2.92160E+01 0.00000E+00
 -1      1031 4.21500E+01 2.92160E+01 0.00000E+00
 -1      1032 4.51500E+01 2.92160E+01 0.00000E+00
 -1      1033 4.74562E+01 2.84754E+01 0.00000E+00
 -1      1034 9.31500E+01 2.92610E+01 0.00000E+00
 -1      1035 9.61500E+01 2.92610E+01 0.00000E+00
 -1      1036 9.91500E+01 2.92610E+01 0.00000E+00
 -1      1037 1.02150E+02 2.92610E+01 0.00000E+00
 -1      1038 1.05150E+02 2.92610E+01 0.00000E+00
 -1      1039 1.08150E+02 2.92610E+01 0.00000E+00
 -1      1040 1.11150E+02 2.92610E+01 0.00000E+00
 -1      1041 1.14150E+02 2.92610E+01 0.00000E+00
 -1      1042 1.17150E+02 2.92610E+01 0.00000E+00
 -1      1043 1.20150E+02 2.92610E+01 0.00000E+00
 -1      1044 1.23150E+02 2.92610E+01 0.00000E+00
 -1      1045 1.26150E+02 2.92610E+01 0.00000E+00
 -1      1046 1.29150E+02 2.92610E+01 0.00000E+00
 -1      1047 1.81500E+01 2.85370E+01 0.00000E+00
 -1      1048 1.10535E+02 1.95942E+01 0.00000E+00
 -1      1049 9.55350E+01 1.95942E+01 0.00000E+00
 -1      1050 9.25350E+01 1.95942E+01 0.00000E+00
 -1      1051 1.07535E+02 1.95942E+01 0.00000E+00
 -1      1052 1.04535E+02 1.95942E+01 0.00000E+00
 -1      1053 1.13535E+02 1.95942E+01 0.00000E+00
 -1      1054 1.16535E+02 1.95942E+01 0.00000E+00
 -1      1055 1.19535E+02 1.95942E+01 0.00000E+00
 -1      1056 1.22535E+02 1.95942E+01 0.00000E+00
 -1      1057 1.25535E+02 1.95942E+01 0.00000E+00
 -1      1058 1.31945E+02 2.25154E+01 0.00000E+00
 -1      1059 4.77732E+01 2.55022E+01 0.00000E+00
 -1      1060 1.81770E+01 2.43921E+01 0.00000E+00
 -1      1061 4.79182E+01 2.21983E+01 0.00000E+00
 -1      1062 2.71500E+01 2.92160E+01 0.00000E+00
 -1      1063 2.80350E+01 1.69963E+01 0.00000E+00
 -1      1064 2.41500E+01 2.92160E+01 0.00000E+00
 -1      1065 8.98352E+01 1.91108E+01 0.00000E+00
 -1      1066 9.09447E+01 2.95415E+01 0.00000E+00
 -1      1067 3.55350E+01 1.95942E+01 0.00000E+00
 -1      1068 9.12155E+01 2.16060E+01 0.00000E+00
 -1      1069 9.85350E+01 1.95942E+01 0.00000E+00
 -1      1070 4.45350E+01 1.95942E+01 0.00000E+00
 -1      1071 4.15350E+01 1.95942E+01 0.00000E+00
 -1      1072 2.35351E+01 1.95943E+01 0.00000E+00
 -1      1073 2.04000E+01 2.87068E+01 0.00000E+00
 -1      1074 3.25350E+01 1.95942E+01 0.00000E+00
 -1      1075 2.22750E+01 2.89614E+01 0.00000E+00
 -1      1076 1.28056E+02 1.96451E+01 0.00000E+00
 -1      1077 1.29285E+02 2.36207E+01 0.00000E+00
 -1      1078 1.01535E+02 1.95942E+01 0.00000E+00
 -1      1079 2.07795E+01 2.32216E+01 0.00000E+00
 -1      1080 2.01105E+01 1.95138E+01 0.00000E+00
 -1      1081 1.29276E+02 2.64074E+01 0.00000E+00
 -1      1082 3.85350E+01 1.95942E+01 0.00000E+00
 -1      1083 9.24447E+01 2.69435E+01 0.00000E+00
 -1      1084 3.46500E+01 2.66180E+01 0.00000E+00
 -1      1085 3.76500E+01 2.66180E+01 0.00000E+00
 -1      1086 4.06500E+01 2.66180E+01 0.00000E+00
 -1      1087 4.36500E+01 2.66180E+01 0.00000E+00
 -1      1088 4.57116E+01 2.60601E+01 0.00000E+00
 -1      1089 9.54447E+01 2.69435E+01 0.00000E+00
 -1      1090 2.65350E+01 1.95943E+01 0.00000E+00
 -1      1091 9.84447E+01 2.69435E+01 0.00000E+00
 -1      1092 1.01445E+02 2.69435E+01 0.00000E+00
 -1      1093 1.04445E+02 2.69435E+01 0.00000E+00
 -1      1094 1.07445E+02 2.69435E+01 0.00000E+00
 -1      1095 1.10445E+02 2.69435E+01 0.00000E+00
 -1      1096 1.13445E+02 2.69435E+01 0.00000E+00
 -1      1097 1.16445E+02 2.69435E+01 0.00000E+00
 -1      1098 1.19445E+02 2.69435E+01 0.00000E+00
 -1      1099 1.22445E+02 2.69435E+01 0.00000E+00
 -1      1100 1.25445E+02 2.69435E+01 0.00000E+00
 -1      1101 1.15035E+02 2.21922E+01 0.00000E+00
 -1      1102 1.12035E+02 2.21922E+01 0.00000E+00
 -1      1103 1.09035E+02 2.21922E+01 0.00000E+00
 -1      1104 1.06035E+02 2.21922E+01 0.00000E+00
 -1      1105 1.18035E+02 2.21922E+01 0.00000E+00
 -1      1106 1.21035E+02 2.21922E+01 0.00000E+00
 -1      1107 1.24035E+02 2.21922E+01 0.00000E+00
 -1      1108 2.05439E+01 2.61762E+01 0.00000E+00
 -1      1109 4.58566E+01 2.27562E+01 0.00000E+00
 -1      1110 3.16500E+01 2.66180E+01 0.00000E+00
 -1      1111 2.86500E+01 2.66180E+01 0.00000E+00
 -1      1112 2.56500E+01 2.66180E+01 0.00000E+00
 -1      1113 2.42260E+01 2.29795E+01 0.00000E+00
 -1      1114 9.40350E+01 2.21922E+01 0.00000E+00
 -1      1115 4.30350E+01 2.21922E+01 0.00000E+00
 -1      1116 9.33301E+01 2.42748E+01 0.00000E+00
 -1      1117 1.26556E+02 2.22431E+01 0.00000E+00
 -1      1118 3.40350E+01 2.21922E+01 0.00000E+00
 -1      1119 1.03035E+02 2.21922E+01 0.00000E+00
 -1      1120 9.70350E+01 2.21922E+01 0.00000E+00
 -1      1121 3.70350E+01 2.21922E+01 0.00000E+00
 -1      1122 1.26656E+02 2.42998E+01 0.00000E+00
 -1      1123 2.95350E+01 1.95943E+01 0.00000E+00
 -1      1124 3.01500E+01 2.40200E+01 0.00000E+00
 -1      1125 4.00350E+01 2.21922E+01 0.00000E+00
 -1      1126 3.91500E+01 2.40200E+01 0.00000E+00
 -1      1127 9.69447E+01 2.43455E+01 0.00000E+00
 -1      1128 9.99447E+01 2.43455E+01 0.00000E+00
 -1      1129 1.00035E+02 2.21922E+01 0.00000E+00
 -1      1130 2.75268E+01 2.27508E+01 0.00000E+00
 -1      1131 2.26501E+01 2.66180E+01 0.00000E+00
 -1      1132 0.00000E+00 4.85250E+01 0.00000E+00
 -1      1133 0.00000E+00 4.55750E+01 0.00000E+00
 -1      1134 0.00000E+00 4.26250E+01 0.00000E+00
 -1      1135 0.00000E+00 3.96750E+01 0.00000E+00
 -1      1136 0.00000E+00 3.67250E+01 0.00000E+00
 -1      1137 0.00000E+00 3.38000E+01 0.00000E+00
 -1      1138 0.00000E+00 3.08750E+01 0.00000E+00
 -1      1139 0.00000E+00 2.79250E+01 0.00000E+00
 -1      1140 0.00000E+00 2.49750E+01 0.00000E+00
 -1      1141 0.00000E+00 2.20250E+01 0.00000E+00
 -1      1142 0.00000E+00 1.90750E+01 0.00000E+00
 -1      1143 0.00000E+00 1.61500E+01 0.00000E+00
 -1      1144 0.00000E+00 1.32250E+01 0.00000E+00
 -1      1145 0.00000E+00 1.02750E+01 0.00000E+00
 -1      1146 0.00000E+00 7.32500E+00 0.00000E+00
 -1      1147 0.00000E+00 4.37500E+00 0.00000E+00
 -1      1148 0.00000E+00 1.45000E+00 0.00000E+00
 -1      1149 1.57500E+00 5.00000E+01 0.00000E+00
 -1      1150 4.65000E+00 5.00000E+01 0.00000E+00
 -1      1151 7.65000E+00 5.00000E+01 0.00000E+00
 -1      1152 1.06500E+01 5.00000E+01 0.00000E+00
 -1      1153 1.36500E+01 5.00000E+01 0.00000E+00
 -1      1154 1.66500E+01 5.00000E+01 0.00000E+00
 -1      1155 1.96500E+01 5.00000E+01 0.00000E+00
 -1      1156 2.26500E+01 5.00000E+01 0.00000E+00
 -1      1157 2.56500E+01 5.00000E+01 0.00000E+00
 -1      1158 2.86500E+01 5.00000E+01 0.00000E+00
 -1      1159 3.16500E+01 5.00000E+01 0.00000E+00
 -1      1160 3.46500E+01 5.00000E+01 0.00000E+00
 -1      1161 3.76500E+01 5.00000E+01 0.00000E+00
 -1      1162 4.06500E+01 5.00000E+01 0.00000E+00
 -1      1163 4.36500E+01 5.00000E+01 0.00000E+00
 -1      1164 4.66500E+01 5.00000E+01 0.00000E+00
 -1      1165 4.96500E+01 5.00000E+01 0.00000E+00
 -1      1166 5.26500E+01 5.00000E+01 0.00000E+00
 -1      1167 5.56500E+01 5.00000E+01 0.00000E+00
 -1      1168 5.86500E+01 5.00000E+01 0.00000E+00
 -1      1169 6.16500E+01 5.00000E+01 0.00000E+00
 -1      1170 6.46500E+01 5.00000E+01 0.00000E+00
 -1      1171 6.76500E+01 5.00000E+01 0.00000E+00
 -1      1172 7.06500E+01 5.00000E+01 0.00000E+00
 -1      1173 7.36500E+01 5.00000E+01 0.00000E+00
 -1      1174 7.66500E+01 5.00000E+01 0.00000E+00
 -1      1175 7.96500E+01 5.00000E+01 0.00000E+00
 -1      1176 8.26500E+01 5.00000E+01 0.00000E+00
 -1      1177 8.56500E+01 5.00000E+01 0.00000E+00
 -1      1178 8.86500E+01 5.00000E+01 0.00000E+00
 -1      1179 9.16500E+01 5.00000E+01 0.00000E+00
 -1      1180 9.46500E+01 5.00000E+01 0.00000E+00
 -1      1181 9.76500E+01 5.00000E+01 0.00000E+00
 -1      1182 1.00650E+02 5.00000E+01 0.00000E+00
 -1      1183 1.03650E+02 5.00000E+01 0.00000E+00
 -1      1184 1.06650E+02 5.00000E+01 0.00000E+00
 -1      1185 1.09650E+02 5.00000E+01 0.00000E+00
 -1      1186 1.12650E+02 5.00000E+01 0.00000E+00
 -1      1187 1.15650E+02 5.00000E+01 0.00000E+00
 -1      1188 1.18650E+02 5.00000E+01 0.00000E+00
 -1      1189 1.21650E+02 5.00000E+01 0.00000E+00
 -1      1190 1.24650E+02 5.00000E+01 0.00000E+00
 -1      1191 1.27650E+02 5.00000E+01 0.00000E+00
 -1      1192 1.30650E+02 5.00000E+01 0.00000E+00
 -1      1193 1.33650E+02 5.00000E+01 0.00000E+00
 -1      1194 1.36650E+02 5.00000E+01 0.00000E+00
 -1      1195 1.39650E+02 5.00000E+01 0.00000E+00
 -1      1196 1.42650E+02 5.00000E+01 0.00000E+00
 -1      1197 1.45650E+02 5.00000E+01 0.00000E+00
 -1      1198 1.48575E+02 5.00000E+01 0.00000E+00
 -1      1199 1.57500E+00 0.00000E+00 0.00000E+00
 -1      1200 4.65000E+00 0.00000E+00 0.00000E+00
 -1      1201 7.65000E+00 0.00000E+00 0.00000E+00
 -1      1202 1.06500E+01 0.00000E+00 0.00000E+00
 -1      1203 1.36500E+01 0.00000E+00 0.00000E+00
 -1      1204 1.66500E+01 0.00000E+00 0.00000E+00
 -1      1205 1.96500E+01 0.00000E+00 0.00000E+00
 -1      1206 2.26500E+01 0.00000E+00 0.00000E+00
 -1      1207 2.56500E+01 0.00000E+00 0.00000E+00
 -1      1208 2.86500E+01 0.00000E+00 0.00000E+00
 -1      1209 3.16500E+01 0.00000E+00 0.00000E+00
 -1      1210 3.46500E+01 0.00000E+00 0.00000E+00
 -1      1211 3.76500E+01 0.00000E+00 0.00000E+00
 -1      1212 4.06500E+01 0.00000E+00 0.00000E+00
 -1      1213 4.36500E+01 0.00000E+00 0.00000E+00
 -1      1214 4.66500E+01 0.00000E+00 0.00000E+00
 -1      1215 4.96500E+01 0.00000E+00 0.00000E+00
 -1      1216 5.26500E+01 0.00000E+00 0.00000E+00
 -1      1217 5.56500E+01 0.00000E+00 0.00000E+00
 -1      1218 5.86500E+01 0.00000E+00 0.00000E+00
 -1      1219 6.16500E+01 0.00000E+00 0.00000E+00
 -1      1220 6.46500E+01 0.00000E+00 0.00000E+00
 -1      1221 6.76500E+01 0.00000E+00 0.00000E+00
 -1      1222 7.06500E+01 0.00000E+00 0.00000E+00
 -1      1223 7.36500E+01 0.00000E+00 0.00000E+00
 -1      1224 7.66500E+01 0.00000E+00 0.00000E+00
 -1      1225 7.96500E+01 0.00000E+00 0.00000E+00
 -1      1226 8.26500E+01 0.00000E+00 0.00000E+00
 -1      1227 8.56500E+01 0.00000E+00 0.00000E+00
 -1      1228 8.86500E+01 0.00000E+00 0.00000E+00
 -1      1229 9.16500E+01 0.00000E+00 0.00000E+00
 -1      1230 9.46500E+01 0.00000E+00 0.00000E+00
 -1      1231 9.76500E+01 0.00000E+00 0.00000E+00
 -1      1232 1.00650E+02 0.00000E+00 0.00000E+00
 -1      1233 1.03650E+02 0.00000E+00 0.00000E+00
 -1      1234 1.06650E+02 0.00000E+00 0.00000E+00
 -1      1235 1.09650E+02 0.00000E+00 0.00000E+00
 -1      1236 1.12650E+02 0.00000E+00 0.00000E+00
 -1      1237 1.15650E+02 0.00000E+00 0.00000E+00
 -1      1238 1.18650E+02 0.00000E+00 0.00000E+00
 -1      1239 1.21650E+02 0.00000E+00 0.00000E+00
 -1      1240 1.24650E+02 0.00000E+00 0.00000E+00
 -1      1241 1.27650E+02 0.00000E+00 0.00000E+00
 -1      1242 1.30650E+02 0.00000E+00 0.00000E+00
 -1      1243 1.33650E+02 0.00000E+00 0.00000E+00
 -1      1244 1.36650E+02 0.00000E+00 0.00000E+00
 -1      1245 1.39650E+02 0.00000E+00 0.00000E+00
 -1      1246 1.42650E+02 0.00000E+00 0.00000E+00
 -1      1247 1.45650E+02 0.00000E+00 0.00000E+00
 -1      1248 1.48575E+02 0.00000E+00 0.00000E+00
 -1      1249 1.50000E+02 1.47500E+00 0.00000E+00
 -1      1250 1.50000E+02 4.42500E+00 0.00000E+00
 -1      1251 1.50000E+02 7.37500E+00 0.00000E+00
 -1      1252 1.50000E+02 1.03250E+01 0.00000E+00
 -1      1253 1.50000E+02 1.32750E+01 0.00000E+00
 -1      1254 1.50000E+02 1.62000E+01 0.00000E+00
 -1      1255 1.50000E+02 1.91250E+01 0.00000E+00
 -1      1256 1.50000E+02 2.20750E+01 0.00000E+00
 -1      1257 1.50000E+02 2.50250E+01 0.00000E+00
 -1      1258 1.50000E+02 2.79750E+01 0.00000E+00
 -1      1259 1.50000E+02 3.09250E+01 0.00000E+00
 -1      1260 1.50000E+02 3.38500E+01 0.00000E+00
 -1      1261 1.50000E+02 3.67750E+01 0.00000E+00
 -1      1262 1.50000E+02 3.97250E+01 0.00000E+00
 -1      1263 1.50000E+02 4.26750E+01 0.00000E+00
 -1      1264 1.50000E+02 4.56250E+01 0.00000E+00
 -1      1265 1.50000E+02 4.85500E+01 0.00000E+00
 -1      1266 7.58305E+01 2.08954E+01 0.00000E+00
 -1      1267 7.54998E+01 1.94241E+01 0.00000E+00
 -1      1268 7.49000E+01 1.81217E+01 0.00000E+00
 -1      1269 7.40179E+01 1.69367E+01 0.00000E+00
 -1      1270 7.29138E+01 1.59682E+01 0.00000E+00
 -1      1271 7.16339E+01 1.52523E+01 0.00000E+00
 -1      1272 7.01406E+01 1.48011E+01 0.00000E+00
 -1      1273 6.86129E+01 1.46907E+01 0.00000E+00
 -1      1274 6.70900E+01 1.49173E+01 0.00000E+00
 -1      1275 6.56276E+01 1.54847E+01 0.00000E+00
 -1      1276 6.42905E+01 1.63961E+01 0.00000E+00
 -1      1277 6.31945E+01 1.75957E+01 0.00000E+00
 -1      1278 6.24559E+01 1.88944E+01 0.00000E+00
 -1      1279 6.20099E+01 2.03195E+01 0.00000E+00
 -1      1280 6.18761E+01 2.17925E+01 0.00000E+00
 -1      1281 6.20485E+01 2.32334E+01 0.00000E+00
 -1      1282 6.25150E+01 2.46093E+01 0.00000E+00
 -1      1283 6.32753E+01 2.58858E+01 0.00000E+00
 -1      1284 6.43322E+01 2.70112E+01 0.00000E+00
 -1      1285 6.55818E+01 2.78626E+01 0.00000E+00
 -1      1286 6.69980E+01 2.84294E+01 0.00000E+00
 -1      1287 6.84950E+01 2.86754E+01 0.00000E+00
 -1      1288 6.99868E+01 2.85970E+01 0.00000E+00
 -1      1289 7.14461E+01 2.81966E+01 0.00000E+00
 -1      1290 7.27692E+01 2.75028E+01 0.00000E+00
 -1      1291 7.39324E+01 2.65258E+01 0.00000E+00
 -1      1292 7.48554E+01 2.53242E+01 0.00000E+00
 -1      1293 7.54955E+01 2.39602E+01 0.00000E+00
 -1      1294 7.58325E+01 2.24585E+01 0.00000E+00
 -1      1295 1.57500E+00 4.85250E+01 0.00000E+00
 -1      1296 1.29900E+00 4.48375E+01 0.00000E+00
 -1      1297 1.29900E+00 4.63125E+01 0.00000E+00
 -1      1298 1.29900E+00 4.18875E+01 0.00000E+00
 -1      1299 1.29900E+00 4.33625E+01 0.00000E+00
 -1      1300 2.59800E+00 4.41000E+01 0.00000E+00
 -1      1301 1.29900E+00 3.89375E+01 0.00000E+00
 -1      1302 1.29900E+00 4.04125E+01 0.00000E+00
 -1      1303 2.59800E+00 4.11500E+01 0.00000E+00
 -1      1304 1.29900E+00 3.59875E+01 0.00000E+00
 -1      1305 1.29900E+00 3.74625E+01 0.00000E+00
 -1      1306 2.59800E+00 3.82000E+01 0.00000E+00
 -1      1307 1.29900E+00 3.30875E+01 0.00000E+00
 -1      1308 1.29900E+00 3.45375E+01 0.00000E+00
 -1      1309 2.59800E+00 3.52750E+01 0.00000E+00
 -1      1310 1.29900E+00 3.01375E+01 0.00000E+00
 -1      1311 1.29900E+00 3.16125E+01 0.00000E+00
 -1      1312 2.59800E+00 3.23500E+01 0.00000E+00
 -1      1313 1.29900E+00 2.71875E+01 0.00000E+00
 -1      1314 1.29900E+00 2.86625E+01 0.00000E+00
 -1      1315 2.59800E+00 2.94000E+01 0.00000E+00
 -1      1316 1.29900E+00 2.42375E+01 0.00000E+00
 -1      1317 1.29900E+00 2.57125E+01 0.00000E+00
 -1      1318 2.59800E+00 2.64500E+01 0.00000E+00
 -1      1319 1.29900E+00 2.12875E+01 0.00000E+00
 -1      1320 1.29900E+00 2.27625E+01 0.00000E+00
 -1      1321 2.59800E+00 2.35000E+01 0.00000E+00
 -1      1322 1.29900E+00 1.83375E+01 0.00000E+00
 -1      1323 1.29900E+00 1.98125E+01 0.00000E+00
 -1      1324 2.59800E+00 2.05500E+01 0.00000E+00
 -1      1325 1.29900E+00 1.54375E+01 0.00000E+00
 -1      1326 1.29900E+00 1.68875E+01 0.00000E+00
 -1      1327 2.59800E+00 1.76250E+01 0.00000E+00
 -1      1328 1.29900E+00 1.24875E+01 0.00000E+00
 -1      1329 1.29900E+00 1.39625E+01 0.00000E+00
 -1      1330 2.59800E+00 1.47000E+01 0.00000E+00
 -1      1331 1.29900E+00 9.53750E+00 0.00000E+00
 -1      1332 1.29900E+00 1.10125E+01 0.00000E+00
 -1      1333 2.59800E+00 1.17500E+01 0.00000E+00
 -1      1334 1.29900E+00 6.58750E+00 0.00000E+00
 -1      1335 1.29900E+00 8.06250E+00 0.00000E+00
 -1      1336 2.59800E+00 8.80000E+00 0.00000E+00
 -1      1337 1.29900E+00 3.63750E+00 0.00000E+00
 -1      1338 1.29900E+00 5.11250E+00 0.00000E+00
 -1      1339 2.59800E+00 5.85000E+00 0.00000E+00
 -1      1340 1.43700E+00 1.09375E+00 0.00000E+00
 -1      1341 1.43700E+00 2.54375E+00 0.00000E+00
 -1      1342 2.73600E+00 3.28125E+00 0.00000E+00
 -1      1343 3.01200E+00 1.09375E+00 0.00000E+00
 -1      1344 3.90000E+00 4.87010E+01 0.00000E+00
 -1      1345 5.40000E+00 4.87010E+01 0.00000E+00
 -1      1346 6.90000E+00 4.87010E+01 0.00000E+00
 -1      1347 8.40000E+00 4.87010E+01 0.00000E+00
 -1      1348 6.15000E+00 4.74020E+01 0.00000E+00
 -1      1349 9.90000E+00 4.87010E+01 0.00000E+00
 -1      1350 1.14000E+01 4.87010E+01 0.00000E+00
 -1      1351 9.15000E+00 4.74020E+01 0.00000E+00
 -1      1352 1.29000E+01 4.87010E+01 0.00000E+00
 -1      1353 1.44000E+01 4.87010E+01 0.00000E+00
 -1      1354 1.21500E+01 4.74020E+01 0.00000E+00
 -1      1355 1.59000E+01 4.87010E+01 0.00000E+00
 -1      1356 1.74000E+01 4.87010E+01 0.00000E+00
 -1      1357 1.51500E+01 4.74020E+01 0.00000E+00
 -1      1358 1.89000E+01 4.87010E+01 0.00000E+00
 -1      1359 2.04000E+01 4.87010E+01 0.00000E+00
 -1      1360 1.81500E+01 4.74020E+01 0.00000E+00
 -1      1361 2.19000E+01 4.87010E+01 0.00000E+00
 -1      1362 2.34000E+01 4.87010E+01 0.00000E+00
 -1      1363 2.11500E+01 4.74020E+01 0.00000E+00
 -1      1364 2.49000E+01 4.87010E+01 0.00000E+00
 -1      1365 2.64000E+01 4.87010E+01 0.00000E+00
 -1      1366 2.41500E+01 4.74020E+01 0.00000E+00
 -1      1367 2.79000E+01 4.87010E+01 0.00000E+00
 -1      1368 2.94000E+01 4.87010E+01 0.00000E+00
 -1      1369 2.71500E+01 4.74020E+01 0.00000E+00
 -1      1370 3.09000E+01 4.87010E+01 0.00000E+00
 -1      1371 3.24000E+01 4.87010E+01 0.00000E+00
 -1      1372 3.01500E+01 4.74020E+01 0.00000E+00
 -1      1373 3.39000E+01 4.87010E+01 0.00000E+00
 -1      1374 3.54000E+01 4.87010E+01 0.00000E+00
 -1      1375 3.31500E+01 4.74020E+01 0.00000E+00
 -1      1376 3.69000E+01 4.87010E+01 0.00000E+00
 -1      1377 3.84000E+01 4.87010E+01 0.00000E+00
 -1      1378 3.61500E+01 4.74020E+01 0.00000E+00
 -1      1379 3.99000E+01 4.87010E+01 0.00000E+00
 -1      1380 4.14000E+01 4.87010E+01 0.00000E+00
 -1      1381 3.91500E+01 4.74020E+01 0.00000E+00
 -1      1382 4.29000E+01 4.87010E+01 0.00000E+00
 -1      1383 4.44000E+01 4.87010E+01 0.00000E+00
 -1      1384 4.21500E+01 4.74020E+01 0.00000E+00
 -1      1385 4.59000E+01 4.87010E+01 0.00000E+00
 -1      1386 4.74000E+01 4.87010E+01 0.00000E+00
 -1      1387 4.51500E+01 4.74020E+01 0.00000E+00
 -1      1388 4.89000E+01 4.87010E+01 0.00000E+00
 -1      1389 5.04000E+01 4.87010E+01 0.00000E+00
 -1      1390 4.81500E+01 4.74020E+01 0.00000E+00
 -1      1391 5.19000E+01 4.87010E+01 0.00000E+00
 -1      1392 5.34000E+01 4.87010E+01 0.00000E+00
 -1      1393 5.11500E+01 4.74020E+01 0.00000E+00
 -1      1394 5.49000E+01 4.87010E+01 0.00000E+00
 -1      1395 5.64000E+01 4.87010E+01 0.00000E+00
 -1      1396 5.41500E+01 4.74020E+01 0.00000E+00
 -1      1397 5.79000E+01 4.87010E+01 0.00000E+00
 -1      1398 5.94000E+01 4.87010E+01 0.00000E+00
 -1      1399 5.71500E+01 4.74020E+01 0.00000E+00
 -1      1400 6.09000E+01 4.87010E+01 0.00000E+00
 -1      1401 6.24000E+01 4.87010E+01 0.00000E+00
 -1      1402 6.01500E+01 4.74020E+01 0.00000E+00
 -1      1403 6.39000E+01 4.87010E+01 0.00000E+00
 -1      1404 6.54000E+01 4.87010E+01 0.00000E+00
 -1      1405 6.31500E+01 4.74020E+01 0.00000E+00
 -1      1406 6.69000E+01 4.87010E+01 0.00000E+00
 -1      1407 6.84000E+01 4.87010E+01 0.00000E+00
 -1      1408 6.61500E+01 4.74020E+01 0.00000E+00
 -1      1409 6.99000E+01 4.87010E+01 0.00000E+00
 -1      1410 7.14000E+01 4.87010E+01 0.00000E+00
 -1      1411 6.91500E+01 4.74020E+01 0.00000E+00
 -1      1412 7.29000E+01 4.87010E+01 0.00000E+00
 -1      1413 7.44000E+01 4.87010E+01 0.00000E+00
 -1      1414 7.21500E+01 4.74020E+01 0.00000E+00
 -1      1415 7.59000E+01 4.87010E+01 0.00000E+00
 -1      1416 7.74000E+01 4.87010E+01 0.00000E+00
 -1      1417 7.51500E+01 4.74020E+01 0.00000E+00
 -1      1418 7.89000E+01 4.87010E+01 0.00000E+00
 -1      1419 8.04000E+01 4.87010E+01 0.00000E+00
 -1      1420 7.81500E+01 4.74020E+01 0.00000E+00
 -1      1421 8.19000E+01 4.87010E+01 0.00000E+00
 -1      1422 8.34000E+01 4.87010E+01 0.00000E+00
 -1      1423 8.11500E+01 4.74020E+01 0.00000E+00
 -1      1424 8.49000E+01 4.87010E+01 0.00000E+00
 -1      1425 8.64000E+01 4.87010E+01 0.00000E+00
 -1      1426 8.41500E+01 4.74020E+01 0.00000E+00
 -1      1427 8.79000E+01 4.87010E+01 0.00000E+00
 -1      1428 8.94000E+01 4.87010E+01 0.00000E+00
 -1      1429 8.71500E+01 4.74020E+01 0.00000E+00
 -1      1430 9.09000E+01 4.87010E+01 0.00000E+00
 -1      1431 9.24000E+01 4.87010E+01 0.00000E+00
 -1      1432 9.01500E+01 4.74020E+01 0.00000E+00
 -1      1433 9.39000E+01 4.87010E+01 0.00000E+00
 -1      1434 9.54000E+01 4.87010E+01 0.00000E+00
 -1      1435 9.31500E+01 4.74020E+01 0.00000E+00
 -1      1436 9.69000E+01 4.87010E+01 0.00000E+00
 -1      1437 9.84000E+01 4.87010E+01 0.00000E+00
 -1      1438 9.61500E+01 4.74020E+01 0.00000E+00
 -1      1439 9.99000E+01 4.87010E+01 0.00000E+00
 -1      1440 1.01400E+02 4.87010E+01 0.00000E+00
 -1      1441 9.91500E+01 4.74020E+01 0.00000E+00
 -1      1442 1.02900E+02 4.87010E+01 0.00000E+00
 -1      1443 1.04400E+02 4.87010E+01 0.00000E+00
 -1      1444 1.02150E+02 4.74020E+01 0.00000E+00
 -1      1445 1.05900E+02 4.87010E+01 0.00000E+00
 -1      1446 1.07400E+02 4.87010E+01 0.00000E+00
 -1      1447 1.05150E+02 4.74020E+01 0.00000E+00
 -1      1448 1.08900E+02 4.87010E+01 0.00000E+00
 -1      1449 1.10400E+02 4.87010E+01 0.00000E+00
 -1      1450 1.08150E+02 4.74020E+01 0.00000E+00
 -1      1451 1.11900E+02 4.87010E+01 0.00000E+00
 -1      1452 1.13400E+02 4.87010E+01 0.00000E+00
 -1      1453 1.11150E+02 4.74020E+01 0.00000E+00
 -1      1454 1.14900E+02 4.87010E+01 0.00000E+00
 -1      1455 1.16400E+02 4.87010E+01 0.00000E+00
 -1      1456 1.14150E+02 4.74020E+01 0.00000E+00
 -1      1457 1.17900E+02 4.87010E+01 0.00000E+00
 -1      1458 1.19400E+02 4.87010E+01 0.00000E+00
 -1      1459 1.17150E+02 4.74020E+01 0.00000E+00
 -1      1460 1.20900E+02 4.87010E+01 0.00000E+00
 -1      1461 1.22400E+02 4.87010E+01 0.00000E+00
 -1      1462 1.20150E+02 4.74020E+01 0.00000E+00
 -1      1463 1.23900E+02 4.87010E+01 0.00000E+00
 -1      1464 1.25400E+02 4.87010E+01 0.00000E+00
 -1      1465 1.23150E+02 4.74020E+01 0.00000E+00
 -1      1466 1.26900E+02 4.87010E+01 0.00000E+00
 -1      1467 1.28400E+02 4.87010E+01 0.00000E+00
 -1      1468 1.26150E+02 4.74020E+01 0.00000E+00
 -1      1469 1.29900E+02 4.87010E+01 0.00000E+00
 -1      1470 1.31400E+02 4.87010E+01 0.00000E+00
 -1      1471 1.29150E+02 4.74020E+01 0.00000E+00
 -1      1472 1.32900E+02 4.87010E+01 0.00000E+00
 -1      1473 1.34400E+02 4.87010E+01 0.00000E+00
 -1      1474 1.32150E+02 4.74020E+01 0.00000E+00
 -1      1475 1.35900E+02 4.87010E+01 0.00000E+00
 -1      1476 1.37400E+02 4.87010E+01 0.00000E+00
 -1      1477 1.35150E+02 4.74020E+01 0.00000E+00
 -1      1478 1.38900E+02 4.87010E+01 0.00000E+00
 -1      1479 1.40400E+02 4.87010E+01 0.00000E+00
 -1      1480 1.38150E+02 4.74020E+01 0.00000E+00
 -1      1481 1.41900E+02 4.87010E+01 0.00000E+00
 -1      1482 1.43400E+02 4.87010E+01 0.00000E+00
 -1      1483 1.41150E+02 4.74020E+01 0.00000E+00
 -1      1484 1.44900E+02 4.87010E+01 0.00000E+00
 -1      1485 1.46400E+02 4.87010E+01 0.00000E+00
 -1      1486 1.44150E+02 4.74020E+01 0.00000E+00
 -1      1487 1.48575E+02 4.85500E+01 0.00000E+00
 -1      1488 1.47825E+02 4.72510E+01 0.00000E+00
 -1      1489 6.01200E+00 1.09375E+00 0.00000E+00
 -1      1490 4.51200E+00 1.09375E+00 0.00000E+00
 -1      1491 4.37400E+00 2.18750E+00 0.00000E+00
 -1      1492 9.01200E+00 1.09375E+00 0.00000E+00
 -1      1493 7.51200E+00 1.09375E+00 0.00000E+00
 -1      1494 7.37400E+00 2.18750E+00 0.00000E+00
 -1      1495 1.20120E+01 1.09375E+00 0.00000E+00
 -1      1496 1.05120E+01 1.09375E+00 0.00000E+00
 -1      1497 1.03740E+01 2.18750E+00 0.00000E+00
 -1      1498 1.50120E+01 1.09375E+00 0.00000E+00
 -1      1499 1.35120E+01 1.09375E+00 0.00000E+00
 -1      1500 1.33740E+01 2.18750E+00 0.00000E+00
 -1      1501 1.80120E+01 1.09375E+00 0.00000E+00
 -1      1502 1.65120E+01 1.09375E+00 0.00000E+00
 -1      1503 1.63740E+01 2.18750E+00 0.00000E+00
 -1      1504 2.10120E+01 1.09375E+00 0.00000E+00
 -1      1505 1.95120E+01 1.09375E+00 0.00000E+00
 -1      1506 1.93740E+01 2.18750E+00 0.00000E+00
 -1      1507 2.40120E+01 1.09375E+00 0.00000E+00
 -1      1508 2.25120E+01 1.09375E+00 0.00000E+00
 -1      1509 2.23740E+01 2.18750E+00 0.00000E+00
 -1      1510 2.70120E+01 1.09375E+00 0.00000E+00
 -1      1511 2.55120E+01 1.09375E+00 0.00000E+00
 -1      1512 2.53740E+01 2.18750E+00 0.00000E+00
 -1      1513 3.00120E+01 1.09375E+00 0.00000E+00
 -1      1514 2.85120E+01 1.09375E+00 0.00000E+00
 -1      1515 2.83740E+01 2.18750E+00 0.00000E+00
 -1      1516 3.30120E+01 1.09375E+00 0.00000E+00
 -1      1517 3.15120E+01 1.09375E+00 0.00000E+00
 -1      1518 3.13740E+01 2.18750E+00 0.00000E+00
 -1      1519 3.60120E+01 1.09375E+00 0.00000E+00
 -1      1520 3.45120E+01 1.09375E+00 0.00000E+00
 -1      1521 3.43740E+01 2.18750E+00 0.00000E+00
 -1      1522 3.90120E+01 1.09375E+00 0.00000E+00
 -1      1523 3.75120E+01 1.09375E+00 0.00000E+00
 -1      1524 3.73740E+01 2.18750E+00 0.00000E+00
 -1      1525 4.20120E+01 1.09375E+00 0.00000E+00
 -1      1526 4.05120E+01 1.09375E+00 0.00000E+00
 -1      1527 4.03740E+01 2.18750E+00 0.00000E+00
 -1      1528 4.50120E+01 1.09375E+00 0.00000E+00
 -1      1529 4.35120E+01 1.09375E+00 0.00000E+00
 -1      1530 4.33740E+01 2.18750E+00 0.00000E+00
 -1      1531 4.80120E+01 1.09375E+00 0.00000E+00
 -1      1532 4.65120E+01 1.09375E+00 0.00000E+00
 -1      1533 4.63740E+01 2.18750E+00 0.00000E+00
 -1      1534 5.10120E+01 1.09375E+00 0.00000E+00
 -1      1535 4.95120E+01 1.09375E+00 0.00000E+00
 -1      1536 4.93740E+01 2.18750E+00 0.00000E+00
 -1      1537 5.40120E+01 1.09375E+00 0.00000E+00
 -1      1538 5.25120E+01 1.09375E+00 0.00000E+00
 -1      1539 5.23740E+01 2.18750E+00 0.00000E+00
 -1      1540 5.70120E+01 1.09375E+00 0.00000E+00
 -1      1541 5.55120E+01 1.09375E+00 0.00000E+00
 -1      1542 5.53740E+01 2.18750E+00 0.00000E+00
 -1      1543 6.00120E+01 1.09375E+00 0.00000E+00
 -1      1544 5.85120E+01 1.09375E+00 0.00000E+00
 -1      1545 5.83740E+01 2.18750E+00 0.00000E+00
 -1      1546 6.30120E+01 1.09375E+00 0.00000E+00
 -1      1547 6.15120E+01 1.09375E+00 0.00000E+00
 -1      1548 6.13740E+01 2.18750E+00 0.00000E+00
 -1      1549 6.60120E+01 1.09375E+00 0.00000E+00
 -1      1550 6.45120E+01 1.09375E+00 0.00000E+00
 -1      1551 6.43740E+01 2.18750E+00 0.00000E+00
 -1      1552 6.90120E+01 1.09375E+00 0.00000E+00
 -1      1553 6.75120E+01 1.09375E+00 0.00000E+00
 -1      1554 6.73740E+01 2.18750E+00 0.00000E+00
 -1      1555 7.20120E+01 1.09375E+00 0.00000E+00
 -1      1556 7.05120E+01 1.09375E+00 0.00000E+00
 -1      1557 7.03740E+01 2.18750E+00 0.00000E+00
 -1      1558 7.50120E+01 1.09375E+00 0.00000E+00
 -1      1559 7.35120E+01 1.09375E+00 0.00000E+00
 -1      1560 7.33740E+01 2.18750E+00 0.00000E+00
 -1      1561 7.80120E+01 1.09375E+00 0.00000E+00
 -1      1562 7.65120E+01 1.09375E+00 0.00000E+00
 -1      1563 7.63740E+01 2.18750E+00 0.00000E+00
 -1      1564 8.10120E+01 1.09375E+00 0.00000E+00
 -1      1565 7.95120E+01 1.09375E+00 0.00000E+00
 -1      1566 7.93740E+01 2.18750E+00 0.00000E+00
 -1      1567 8.40120E+01 1.09375E+00 0.00000E+00
 -1      1568 8.25120E+01 1.09375E+00 0.00000E+00
 -1      1569 8.23740E+01 2.18750E+00 0.00000E+00
 -1      1570 8.70120E+01 1.09375E+00 0.00000E+00
 -1      1571 8.55120E+01 1.09375E+00 0.00000E+00
 -1      1572 8.53740E+01 2.18750E+00 0.00000E+00
 -1      1573 9.00120E+01 1.09375E+00 0.00000E+00
 -1      1574 8.85120E+01 1.09375E+00 0.00000E+00
 -1      1575 8.83740E+01 2.18750E+00 0.00000E+00
 -1      1576 9.30120E+01 1.09375E+00 0.00000E+00
 -1      1577 9.15120E+01 1.09375E+00 0.00000E+00
 -1      1578 9.13740E+01 2.18750E+00 0.00000E+00
 -1      1579 9.60120E+01 1.09375E+00 0.00000E+00
 -1      1580 9.45120E+01 1.09375E+00 0.00000E+00
 -1      1581 9.43740E+01 2.18750E+00 0.00000E+00
 -1      1582 9.90120E+01 1.09375E+00 0.00000E+00
 -1      1583 9.75120E+01 1.09375E+00 0.00000E+00
 -1      1584 9.73740E+01 2.18750E+00 0.00000E+00
 -1      1585 1.02012E+02 1.09375E+00 0.00000E+00
 -1      1586 1.00512E+02 1.09375E+00 0.00000E+00
 -1      1587 1.00374E+02 2.18750E+00 0.00000E+00
 -1      1588 1.05012E+02 1.09375E+00 0.00000E+00
 -1      1589 1.03512E+02 1.09375E+00 0.00000E+00
 -1      1590 1.03374E+02 2.18750E+00 0.00000E+00
 -1      1591 1.08012E+02 1.09375E+00 0.00000E+00
 -1      1592 1.06512E+02 1.09375E+00 0.00000E+00
 -1      1593 1.06374E+02 2.18750E+00 0.00000E+00
 -1      1594 1.11012E+02 1.09375E+00 0.00000E+00
 -1      1595 1.09512E+02 1.09375E+00 0.00000E+00
 -1      1596 1.09374E+02 2.18750E+00 0.00000E+00
 -1      1597 1.14012E+02 1.09375E+00 0.00000E+00
 -1      1598 1.12512E+02 1.09375E+00 0.00000E+00
 -1      1599 1.12374E+02 2.18750E+00 0.00000E+00
 -1      1600 1.17012E+02 1.09375E+00 0.00000E+00
 -1      1601 1.15512E+02 1.09375E+00 0.00000E+00
 -1      1602 1.15374E+02 2.18750E+00 0.00000E+00
 -1      1603 1.20012E+02 1.09375E+00 0.00000E+00
 -1      1604 1.18512E+02 1.09375E+00 0.00000E+00
 -1      1605 1.18374E+02 2.18750E+00 0.00000E+00
 -1      1606 1.23012E+02 1.09375E+00 0.00000E+00
 -1      1607 1.21512E+02 1.09375E+00 0.00000E+00
 -1      1608 1.21374E+02 2.18750E+00 0.00000E+00
 -1      1609 1.26012E+02 1.09375E+00 0.00000E+00
 -1      1610 1.24512E+02 1.09375E+00 0.00000E+00
 -1      1611 1.24374E+02 2.18750E+00 0.00000E+00
 -1      1612 1.29012E+02 1.09375E+00 0.00000E+00
 -1      1613 1.27512E+02 1.09375E+00 0.00000E+00
 -1      1614 1.27374E+02 2.18750E+00 0.00000E+00
 -1      1615 1.32012E+02 1.09375E+00 0.00000E+00
 -1      1616 1.30512E+02 1.09375E+00 0.00000E+00
 -1      1617 1.30374E+02 2.18750E+00 0.00000E+00
 -1      1618 1.35012E+02 1.09375E+00 0.00000E+00
 -1      1619 1.33512E+02 1.09375E+00 0.00000E+00
 -1      1620 1.33374E+02 2.18750E+00 0.00000E+00
 -1      1621 1.38012E+02 1.09375E+00 0.00000E+00
 -1      1622 1.36512E+02 1.09375E+00 0.00000E+00
 -1      1623 1.36374E+02 2.18750E+00 0.00000E+00
 -1      1624 1.41012E+02 1.09375E+00 0.00000E+00
 -1      1625 1.39512E+02 1.09375E+00 0.00000E+00
 -1      1626 1.39374E+02 2.18750E+00 0.00000E+00
 -1      1627 1.44012E+02 1.09375E+00 0.00000E+00
 -1      1628 1.42512E+02 1.09375E+00 0.00000E+00
 -1      1629 1.42374E+02 2.18750E+00 0.00000E+00
 -1      1630 1.47012E+02 1.09375E+00 0.00000E+00
 -1      1631 1.45512E+02 1.09375E+00 0.00000E+00
 -1      1632 1.45374E+02 2.18750E+00 0.00000E+00
 -1      1633 1.48575E+02 1.47500E+00 0.00000E+00
 -1      1634 1.48701E+02 5.16250E+00 0.00000E+00
 -1      1635 1.48701E+02 3.68750E+00 0.00000E+00
 -1      1636 1.48701E+02 8.11250E+00 0.00000E+00
 -1      1637 1.48701E+02 6.63750E+00 0.00000E+00
 -1      1638 1.47402E+02 5.90000E+00 0.00000E+00
 -1      1639 1.48701E+02 1.10625E+01 0.00000E+00
 -1      1640 1.48701E+02 9.58750E+00 0.00000E+00
 -1      1641 1.47402E+02 8.85000E+00 0.00000E+00
 -1      1642 1.48701E+02 1.40125E+01 0.00000E+00
 -1      1643 1.48701E+02 1.25375E+01 0.00000E+00
 -1      1644 1.47402E+02 1.18000E+01 0.00000E+00
 -1      1645 1.48701E+02 1.69125E+01 0.00000E+00
 -1      1646 1.48701E+02 1.54625E+01 0.00000E+00
 -1      1647 1.47402E+02 1.47250E+01 0.00000E+00
 -1      1648 1.48701E+02 1.98625E+01 0.00000E+00
 -1      1649 1.48701E+02 1.83875E+01 0.00000E+00
 -1      1650 1.47402E+02 1.76500E+01 0.00000E+00
 -1      1651 1.48701E+02 2.28125E+01 0.00000E+00
 -1      1652 1.48701E+02 2.13375E+01 0.00000E+00
 -1      1653 1.47402E+02 2.06000E+01 0.00000E+00
 -1      1654 1.48701E+02 2.57625E+01 0.00000E+00
 -1      1655 1.48701E+02 2.42875E+01 0.00000E+00
 -1      1656 1.47402E+02 2.35500E+01 0.00000E+00
 -1      1657 1.48701E+02 2.87125E+01 0.00000E+00
 -1      1658 1.48701E+02 2.72375E+01 0.00000E+00
 -1      1659 1.47402E+02 2.65000E+01 0.00000E+00
 -1      1660 1.48701E+02 3.16625E+01 0.00000E+00
 -1      1661 1.48701E+02 3.01875E+01 0.00000E+00
 -1      1662 1.47402E+02 2.94500E+01 0.00000E+00
 -1      1663 1.48701E+02 3.45625E+01 0.00000E+00
 -1      1664 1.48701E+02 3.31125E+01 0.00000E+00
 -1      1665 1.47402E+02 3.23750E+01 0.00000E+00
 -1      1666 1.48701E+02 3.75125E+01 0.00000E+00
 -1      1667 1.48701E+02 3.60375E+01 0.00000E+00
 -1      1668 1.47402E+02 3.53000E+01 0.00000E+00
 -1      1669 1.48701E+02 4.04625E+01 0.00000E+00
 -1      1670 1.48701E+02 3.89875E+01 0.00000E+00
 -1      1671 1.47402E+02 3.82500E+01 0.00000E+00
 -1      1672 1.48701E+02 4.34125E+01 0.00000E+00
 -1      1673 1.48701E+02 4.19375E+01 0.00000E+00
 -1      1674 1.47402E+02 4.12000E+01 0.00000E+00
 -1      1675 1.48263E+02 4.60692E+01 0.00000E+00
 -1      1676 1.48263E+02 4.45942E+01 0.00000E+00
 -1      1677 1.46964E+02 4.38568E+01 0.00000E+00
 -1      1678 1.46088E+02 4.62202E+01 0.00000E+00
 -1      1679 7.64686E+01 2.04251E+01 0.00000E+00
 -1      1680 7.65578E+01 2.12105E+01 0.00000E+00
 -1      1681 7.59624E+01 1.88871E+01 0.00000E+00
 -1      1682 7.61942E+01 1.95662E+01 0.00000E+00
 -1      1683 7.52438E+01 1.75021E+01 0.00000E+00
 -1      1684 7.56085E+01 1.81187E+01 0.00000E+00
 -1      1685 7.42055E+01 1.62457E+01 0.00000E+00
 -1      1686 7.47216E+01 1.68047E+01 0.00000E+00
 -1      1687 7.29538E+01 1.52982E+01 0.00000E+00
 -1      1688 7.35319E+01 1.57066E+01 0.00000E+00
 -1      1689 7.15079E+01 1.45835E+01 0.00000E+00
 -1      1690 7.22052E+01 1.48825E+01 0.00000E+00
 -1      1691 6.98781E+01 1.40129E+01 0.00000E+00
 -1      1692 7.06662E+01 1.41577E+01 0.00000E+00
 -1      1693 6.82250E+01 1.40949E+01 0.00000E+00
 -1      1694 6.89549E+01 1.40675E+01 0.00000E+00
 -1      1695 6.65347E+01 1.43987E+01 0.00000E+00
 -1      1696 6.73172E+01 1.41923E+01 0.00000E+00
 -1      1697 6.50098E+01 1.51234E+01 0.00000E+00
 -1      1698 6.56825E+01 1.47711E+01 0.00000E+00
 -1      1699 6.36037E+01 1.62592E+01 0.00000E+00
 -1      1700 6.42526E+01 1.56968E+01 0.00000E+00
 -1      1701 6.25128E+01 1.75770E+01 0.00000E+00
 -1      1702 6.29604E+01 1.69552E+01 0.00000E+00
 -1      1703 6.17896E+01 1.90016E+01 0.00000E+00
 -1      1704 6.20799E+01 1.83341E+01 0.00000E+00
 -1      1705 6.13818E+01 2.05847E+01 0.00000E+00
 -1      1706 6.15312E+01 1.98341E+01 0.00000E+00
 -1      1707 6.13119E+01 2.21580E+01 0.00000E+00
 -1      1708 6.13010E+01 2.14444E+01 0.00000E+00
 -1      1709 6.15768E+01 2.37184E+01 0.00000E+00
 -1      1710 6.14138E+01 2.29992E+01 0.00000E+00
 -1      1711 6.21469E+01 2.51721E+01 0.00000E+00
 -1      1712 6.18481E+01 2.45221E+01 0.00000E+00
 -1      1713 6.29884E+01 2.65824E+01 0.00000E+00
 -1      1714 6.25262E+01 2.59661E+01 0.00000E+00
 -1      1715 6.41521E+01 2.78183E+01 0.00000E+00
 -1      1716 6.35636E+01 2.73162E+01 0.00000E+00
 -1      1717 6.56211E+01 2.85737E+01 0.00000E+00
 -1      1718 6.49694E+01 2.82263E+01 0.00000E+00
 -1      1719 6.71814E+01 2.92375E+01 0.00000E+00
 -1      1720 6.64234E+01 2.90265E+01 0.00000E+00
 -1      1721 6.88287E+01 2.92624E+01 0.00000E+00
 -1      1722 6.80996E+01 2.92228E+01 0.00000E+00
 -1      1723 7.04600E+01 2.91350E+01 0.00000E+00
 -1      1724 6.97061E+01 2.92562E+01 0.00000E+00
 -1      1725 7.20026E+01 2.85853E+01 0.00000E+00
 -1      1726 7.13053E+01 2.88606E+01 0.00000E+00
 -1      1727 7.33936E+01 2.77666E+01 0.00000E+00
 -1      1728 7.27751E+01 2.81806E+01 0.00000E+00
 -1      1729 7.46374E+01 2.66643E+01 0.00000E+00
 -1      1730 7.41016E+01 2.72240E+01 0.00000E+00
 -1      1731 7.55322E+01 2.53026E+01 0.00000E+00
 -1      1732 7.51473E+01 2.59351E+01 0.00000E+00
 -1      1733 7.61931E+01 2.37947E+01 0.00000E+00
 -1      1734 7.59441E+01 2.45195E+01 0.00000E+00
 -1      1735 7.64768E+01 2.21413E+01 0.00000E+00
 -1      1736 7.63915E+01 2.29093E+01 0.00000E+00
 -1      1737 7.42661E+01 1.55464E+01 0.00000E+00
 -1      1738 7.54618E+01 1.67830E+01 0.00000E+00
 -1      1739 1.48437E+02 2.56875E+00 0.00000E+00
 -1      1740 1.47138E+02 3.30625E+00 0.00000E+00
 -1      1741 7.69660E+01 1.98762E+01 0.00000E+00
 -1      1742 7.63378E+01 1.82489E+01 0.00000E+00
 -1      1743 7.71593E+01 2.16660E+01 0.00000E+00
 -1      1744 7.28440E+01 1.45916E+01 0.00000E+00
 -1      1745 7.12537E+01 1.37501E+01 0.00000E+00
 -1      1746 6.94888E+01 1.33789E+01 0.00000E+00
 -1      1747 6.76578E+01 1.35310E+01 0.00000E+00
 -1      1748 6.58977E+01 1.40007E+01 0.00000E+00
 -1      1749 6.42883E+01 1.49465E+01 0.00000E+00
 -1      1750 6.28879E+01 1.62159E+01 0.00000E+00
 -1      1751 6.18118E+01 1.76690E+01 0.00000E+00
 -1      1752 6.11204E+01 1.92586E+01 0.00000E+00
 -1      1753 6.07811E+01 2.09508E+01 0.00000E+00
 -1      1754 6.08022E+01 2.26516E+01 0.00000E+00
 -1      1755 6.11754E+01 2.42965E+01 0.00000E+00
 -1      1756 6.18260E+01 2.58943E+01 0.00000E+00
 -1      1757 6.27805E+01 2.74221E+01 0.00000E+00
 -1      1758 6.41730E+01 2.85639E+01 0.00000E+00
 -1      1759 6.57926E+01 2.94247E+01 0.00000E+00
 -1      1760 6.75131E+01 2.98627E+01 0.00000E+00
 -1      1761 6.93086E+01 2.98417E+01 0.00000E+00
 -1      1762 7.10313E+01 2.95611E+01 0.00000E+00
 -1      1763 7.26491E+01 2.88821E+01 0.00000E+00
 -1      1764 7.41296E+01 2.79348E+01 0.00000E+00
 -1      1765 7.53477E+01 2.66631E+01 0.00000E+00
 -1      1766 7.62696E+01 2.51508E+01 0.00000E+00
 -1      1767 7.68799E+01 2.34822E+01 0.00000E+00
 -1      1768 2.87400E+00 4.77875E+01 0.00000E+00
 -1      1769 3.89700E+00 4.04125E+01 0.00000E+00
 -1      1770 3.89700E+00 4.18875E+01 0.00000E+00
 -1      1771 3.89700E+00 4.33625E+01 0.00000E+00
 -1      1772 3.89700E+00 4.48375E+01 0.00000E+00
 -1      1773 5.19600E+00 4.26250E+01 0.00000E+00
 -1      1774 3.89700E+00 3.45500E+01 0.00000E+00
 -1      1775 3.89700E+00 3.60000E+01 0.00000E+00
 -1      1776 3.89700E+00 3.16000E+01 0.00000E+00
 -1      1777 3.89700E+00 3.30750E+01 0.00000E+00
 -1      1778 5.19600E+00 3.38000E+01 0.00000E+00
 -1      1779 3.89700E+00 2.86500E+01 0.00000E+00
 -1      1780 3.89700E+00 3.01250E+01 0.00000E+00
 -1      1781 5.19600E+00 3.08500E+01 0.00000E+00
 -1      1782 3.89700E+00 2.57000E+01 0.00000E+00
 -1      1783 3.89700E+00 2.71750E+01 0.00000E+00
 -1      1784 5.19600E+00 2.79000E+01 0.00000E+00
 -1      1785 3.89700E+00 2.27500E+01 0.00000E+00
 -1      1786 3.89700E+00 2.42250E+01 0.00000E+00
 -1      1787 5.19600E+00 2.49500E+01 0.00000E+00
 -1      1788 3.89700E+00 1.98000E+01 0.00000E+00
 -1      1789 3.89700E+00 2.12750E+01 0.00000E+00
 -1      1790 5.19600E+00 2.20000E+01 0.00000E+00
 -1      1791 3.89700E+00 1.69000E+01 0.00000E+00
 -1      1792 3.89700E+00 1.83500E+01 0.00000E+00
 -1      1793 5.19600E+00 1.90750E+01 0.00000E+00
 -1      1794 3.89700E+00 1.39500E+01 0.00000E+00
 -1      1795 3.89700E+00 1.54250E+01 0.00000E+00
 -1      1796 5.19600E+00 1.61500E+01 0.00000E+00
 -1      1797 3.89700E+00 1.10000E+01 0.00000E+00
 -1      1798 3.89700E+00 1.24750E+01 0.00000E+00
 -1      1799 5.19600E+00 1.32000E+01 0.00000E+00
 -1      1800 3.89700E+00 8.05000E+00 0.00000E+00
 -1      1801 3.89700E+00 9.52500E+00 0.00000E+00
 -1      1802 5.19600E+00 1.02500E+01 0.00000E+00
 -1      1803 3.89700E+00 5.10000E+00 0.00000E+00
 -1      1804 3.89700E+00 6.57500E+00 0.00000E+00
 -1      1805 5.19600E+00 7.30000E+00 0.00000E+00
 -1      1806 4.20450E+00 3.09687E+00 0.00000E+00
 -1      1807 4.06650E+00 4.19063E+00 0.00000E+00
 -1      1808 5.36550E+00 4.91563E+00 0.00000E+00
 -1      1809 5.70450E+00 3.09687E+00 0.00000E+00
 -1      1810 3.62400E+00 4.64885E+01 0.00000E+00
 -1      1811 8.70450E+00 3.09687E+00 0.00000E+00
 -1      1812 7.20450E+00 3.09687E+00 0.00000E+00
 -1      1813 7.03500E+00 4.00625E+00 0.00000E+00
 -1      1814 4.92300E+00 4.57510E+01 0.00000E+00
 -1      1815 8.40000E+00 4.61030E+01 0.00000E+00
 -1      1816 9.90000E+00 4.61030E+01 0.00000E+00
 -1      1817 1.14000E+01 4.61030E+01 0.00000E+00
 -1      1818 1.29000E+01 4.61030E+01 0.00000E+00
 -1      1819 1.06500E+01 4.48040E+01 0.00000E+00
 -1      1820 1.44000E+01 4.61030E+01 0.00000E+00
 -1      1821 1.59000E+01 4.61030E+01 0.00000E+00
 -1      1822 1.36500E+01 4.48040E+01 0.00000E+00
 -1      1823 1.74000E+01 4.61030E+01 0.00000E+00
 -1      1824 1.89000E+01 4.61030E+01 0.00000E+00
 -1      1825 1.66500E+01 4.48040E+01 0.00000E+00
 -1      1826 2.04000E+01 4.61030E+01 0.00000E+00
 -1      1827 2.19000E+01 4.61030E+01 0.00000E+00
 -1      1828 1.96500E+01 4.48040E+01 0.00000E+00
 -1      1829 2.34000E+01 4.61030E+01 0.00000E+00
 -1      1830 2.49000E+01 4.61030E+01 0.00000E+00
 -1      1831 2.26500E+01 4.48040E+01 0.00000E+00
 -1      1832 2.64000E+01 4.61030E+01 0.00000E+00
 -1      1833 2.79000E+01 4.61030E+01 0.00000E+00
 -1      1834 2.56500E+01 4.48040E+01 0.00000E+00
 -1      1835 2.94000E+01 4.61030E+01 0.00000E+00
 -1      1836 3.09000E+01 4.61030E+01 0.00000E+00
 -1      1837 2.86500E+01 4.48040E+01 0.00000E+00
 -1      1838 3.24000E+01 4.61030E+01 0.00000E+00
 -1      1839 3.39000E+01 4.61030E+01 0.00000E+00
 -1      1840 3.16500E+01 4.48040E+01 0.00000E+00
 -1      1841 3.54000E+01 4.61030E+01 0.00000E+00
 -1      1842 3.69000E+01 4.61030E+01 0.00000E+00
 -1      1843 3.46500E+01 4.48040E+01 0.00000E+00
 -1      1844 3.84000E+01 4.61030E+01 0.00000E+00
 -1      1845 3.99000E+01 4.61030E+01 0.00000E+00
 -1      1846 3.76500E+01 4.48040E+01 0.00000E+00
 -1      1847 4.14000E+01 4.61030E+01 0.00000E+00
 -1      1848 4.29000E+01 4.61030E+01 0.00000E+00
 -1      1849 4.06500E+01 4.48040E+01 0.00000E+00
 -1      1850 4.44000E+01 4.61030E+01 0.00000E+00
 -1      1851 4.59000E+01 4.61030E+01 0.00000E+00
 -1      1852 4.36500E+01 4.48040E+01 0.00000E+00
 -1      1853 4.74000E+01 4.61030E+01 0.00000E+00
 -1      1854 4.89000E+01 4.61030E+01 0.00000E+00
 -1      1855 4.66500E+01 4.48040E+01 0.00000E+00
 -1      1856 5.04000E+01 4.61030E+01 0.00000E+00
 -1      1857 5.19000E+01 4.61030E+01 0.00000E+00
 -1      1858 4.96500E+01 4.48040E+01 0.00000E+00
 -1      1859 5.34000E+01 4.61030E+01 0.00000E+00
 -1      1860 5.49000E+01 4.61030E+01 0.00000E+00
 -1      1861 5.26500E+01 4.48040E+01 0.00000E+00
 -1      1862 5.64000E+01 4.61030E+01 0.00000E+00
 -1      1863 5.79000E+01 4.61030E+01 0.00000E+00
 -1      1864 5.56500E+01 4.48040E+01 0.00000E+00
 -1      1865 5.94000E+01 4.61030E+01 0.00000E+00
 -1      1866 6.09000E+01 4.61030E+01 0.00000E+00
 -1      1867 5.86500E+01 4.48040E+01 0.00000E+00
 -1      1868 6.24000E+01 4.61030E+01 0.00000E+00
 -1      1869 6.39000E+01 4.61030E+01 0.00000E+00
 -1      1870 6.16500E+01 4.48040E+01 0.00000E+00
 -1      1871 6.54000E+01 4.61030E+01 0.00000E+00
 -1      1872 6.69000E+01 4.61030E+01 0.00000E+00
 -1      1873 6.46500E+01 4.48040E+01 0.00000E+00
 -1      1874 6.84000E+01 4.61030E+01 0.00000E+00
 -1      1875 6.99000E+01 4.61030E+01 0.00000E+00
 -1      1876 6.76500E+01 4.48040E+01 0.00000E+00
 -1      1877 7.14000E+01 4.61030E+01 0.00000E+00
 -1      1878 7.29000E+01 4.61030E+01 0.00000E+00
 -1      1879 7.06500E+01 4.48040E+01 0.00000E+00
 -1      1880 7.44000E+01 4.61030E+01 0.00000E+00
 -1      1881 7.59000E+01 4.61030E+01 0.00000E+00
 -1      1882 7.36500E+01 4.48040E+01 0.00000E+00
 -1      1883 7.74000E+01 4.61030E+01 0.00000E+00
 -1      1884 7.89000E+01 4.61030E+01 0.00000E+00
 -1      1885 7.66500E+01 4.48040E+01 0.00000E+00
 -1      1886 8.04000E+01 4.61030E+01 0.00000E+00
 -1      1887 8.19000E+01 4.61030E+01 0.00000E+00
 -1      1888 7.96500E+01 4.48040E+01 0.00000E+00
 -1      1889 8.34000E+01 4.61030E+01 0.00000E+00
 -1      1890 8.49000E+01 4.61030E+01 0.00000E+00
 -1      1891 8.26500E+01 4.48040E+01 0.00000E+00
 -1      1892 8.64000E+01 4.61030E+01 0.00000E+00
 -1      1893 8.79000E+01 4.61030E+01 0.00000E+00
 -1      1894 8.56500E+01 4.48040E+01 0.00000E+00
 -1      1895 8.94000E+01 4.61030E+01 0.00000E+00
 -1      1896 9.09000E+01 4.61030E+01 0.00000E+00
 -1      1897 8.86500E+01 4.48040E+01 0.00000E+00
 -1      1898 9.24000E+01 4.61030E+01 0.00000E+00
 -1      1899 9.39000E+01 4.61030E+01 0.00000E+00
 -1      1900 9.16500E+01 4.48040E+01 0.00000E+00
 -1      1901 9.54000E+01 4.61030E+01 0.00000E+00
 -1      1902 9.69000E+01 4.61030E+01 0.00000E+00
 -1      1903 9.46500E+01 4.48040E+01 0.00000E+00
 -1      1904 9.84000E+01 4.61030E+01 0.00000E+00
 -1      1905 9.99000E+01 4.61030E+01 0.00000E+00
 -1      1906 9.76500E+01 4.48040E+01 0.00000E+00
 -1      1907 1.01400E+02 4.61030E+01 0.00000E+00
 -1      1908 1.02900E+02 4.61030E+01 0.00000E+00
 -1      1909 1.00650E+02 4.48040E+01 0.00000E+00
 -1      1910 1.04400E+02 4.61030E+01 0.00000E+00
 -1      1911 1.05900E+02 4.61030E+01 0.00000E+00
 -1      1912 1.03650E+02 4.48040E+01 0.00000E+00
 -1      1913 1.07400E+02 4.61030E+01 0.00000E+00
 -1      1914 1.08900E+02 4.61030E+01 0.00000E+00
 -1      1915 1.06650E+02 4.48040E+01 0.00000E+00
 -1      1916 1.10400E+02 4.61030E+01 0.00000E+00
 -1      1917 1.11900E+02 4.61030E+01 0.00000E+00
 -1      1918 1.09650E+02 4.48040E+01 0.00000E+00
 -1      1919 1.13400E+02 4.61030E+01 0.00000E+00
 -1      1920 1.14900E+02 4.61030E+01 0.00000E+00
 -1      1921 1.12650E+02 4.48040E+01 0.00000E+00
 -1      1922 1.16400E+02 4.61030E+01 0.00000E+00
 -1      1923 1.17900E+02 4.61030E+01 0.00000E+00
 -1      1924 1.15650E+02 4.48040E+01 0.00000E+00
 -1      1925 1.19400E+02 4.61030E+01 0.00000E+00
 -1      1926 1.20900E+02 4.61030E+01 0.00000E+00
 -1      1927 1.18650E+02 4.48040E+01 0.00000E+00
 -1      1928 1.22400E+02 4.61030E+01 0.00000E+00
 -1      1929 1.23900E+02 4.61030E+01 0.00000E+00
 -1      1930 1.21650E+02 4.48040E+01 0.00000E+00
 -1      1931 1.25400E+02 4.61030E+01 0.00000E+00
 -1      1932 1.26900E+02 4.61030E+01 0.00000E+00
 -1      1933 1.24650E+02 4.48040E+01 0.00000E+00
 -1      1934 1.28400E+02 4.61030E+01 0.00000E+00
 -1      1935 1.29900E+02 4.61030E+01 0.00000E+00
 -1      1936 1.27650E+02 4.48040E+01 0.00000E+00
 -1      1937 1.31400E+02 4.61030E+01 0.00000E+00
 -1      1938 1.32900E+02 4.61030E+01 0.00000E+00
 -1      1939 1.30650E+02 4.48040E+01 0.00000E+00
 -1      1940 1.34400E+02 4.61030E+01 0.00000E+00
 -1      1941 1.35900E+02 4.61030E+01 0.00000E+00
 -1      1942 1.33650E+02 4.48040E+01 0.00000E+00
 -1      1943 1.37400E+02 4.61030E+01 0.00000E+00
 -1      1944 1.38900E+02 4.61030E+01 0.00000E+00
 -1      1945 1.36650E+02 4.48040E+01 0.00000E+00
 -1      1946 1.40400E+02 4.61030E+01 0.00000E+00
 -1      1947 1.41900E+02 4.61030E+01 0.00000E+00
 -1      1948 1.39650E+02 4.48040E+01 0.00000E+00
 -1      1949 1.43244E+02 4.61616E+01 0.00000E+00
 -1      1950 1.44744E+02 4.61616E+01 0.00000E+00
 -1      1951 1.45182E+02 4.49799E+01 0.00000E+00
 -1      1952 1.42494E+02 4.48626E+01 0.00000E+00
 -1      1953 1.17045E+01 3.09687E+00 0.00000E+00
 -1      1954 1.02045E+01 3.09687E+00 0.00000E+00
 -1      1955 1.00350E+01 4.00625E+00 0.00000E+00
 -1      1956 1.47045E+01 3.09687E+00 0.00000E+00
 -1      1957 1.32045E+01 3.09687E+00 0.00000E+00
 -1      1958 1.30350E+01 4.00625E+00 0.00000E+00
 -1      1959 1.77045E+01 3.09687E+00 0.00000E+00
 -1      1960 1.62045E+01 3.09687E+00 0.00000E+00
 -1      1961 1.60350E+01 4.00625E+00 0.00000E+00
 -1      1962 2.07045E+01 3.09687E+00 0.00000E+00
 -1      1963 1.92045E+01 3.09687E+00 0.00000E+00
 -1      1964 1.90350E+01 4.00625E+00 0.00000E+00
 -1      1965 2.37045E+01 3.09687E+00 0.00000E+00
 -1      1966 2.22045E+01 3.09687E+00 0.00000E+00
 -1      1967 2.20350E+01 4.00625E+00 0.00000E+00
 -1      1968 2.67045E+01 3.09687E+00 0.00000E+00
 -1      1969 2.52045E+01 3.09687E+00 0.00000E+00
 -1      1970 2.50350E+01 4.00625E+00 0.00000E+00
 -1      1971 2.97045E+01 3.09687E+00 0.00000E+00
 -1      1972 2.82045E+01 3.09687E+00 0.00000E+00
 -1      1973 2.80350E+01 4.00625E+00 0.00000E+00
 -1      1974 3.27045E+01 3.09687E+00 0.00000E+00
 -1      1975 3.12045E+01 3.09687E+00 0.00000E+00
 -1      1976 3.10350E+01 4.00625E+00 0.00000E+00
 -1      1977 3.57045E+01 3.09687E+00 0.00000E+00
 -1      1978 3.42045E+01 3.09687E+00 0.00000E+00
 -1      1979 3.40350E+01 4.00625E+00 0.00000E+00
 -1      1980 3.87045E+01 3.09687E+00 0.00000E+00
 -1      1981 3.72045E+01 3.09687E+00 0.00000E+00
 -1      1982 3.70350E+01 4.00625E+00 0.00000E+00
 -1      1983 4.17045E+01 3.09687E+00 0.00000E+00
 -1      1984 4.02045E+01 3.09687E+00 0.00000E+00
 -1      1985 4.00350E+01 4.00625E+00 0.00000E+00
 -1      1986 4.47045E+01 3.09687E+00 0.00000E+00
 -1      1987 4.32045E+01 3.09687E+00 0.00000E+00
 -1      1988 4.30350E+01 4.00625E+00 0.00000E+00
 -1      1989 4.77045E+01 3.09687E+00 0.00000E+00
 -1      1990 4.62045E+01 3.09687E+00 0.00000E+00
 -1      1991 4.60350E+01 4.00625E+00 0.00000E+00
 -1      1992 5.07045E+01 3.09687E+00 0.00000E+00
 -1      1993 4.92045E+01 3.09687E+00 0.00000E+00
 -1      1994 4.90350E+01 4.00625E+00 0.00000E+00
 -1      1995 5.37045E+01 3.09687E+00 0.00000E+00
 -1      1996 5.22045E+01 3.09687E+00 0.00000E+00
 -1      1997 5.20350E+01 4.00625E+00 0.00000E+00
 -1      1998 5.67045E+01 3.09687E+00 0.00000E+00
 -1      1999 5.52045E+01 3.09687E+00 0.00000E+00
 -1      2000 5.50350E+01 4.00625E+00 0.00000E+00
 -1      2001 5.97045E+01 3.09687E+00 0.00000E+00
 -1      2002 5.82045E+01 3.09687E+00 0.00000E+00
 -1      2003 5.80350E+01 4.00625E+00 0.00000E+00
 -1      2004 6.27045E+01 3.09687E+00 0.00000E+00
 -1      2005 6.12045E+01 3.09687E+00 0.00000E+00
 -1      2006 6.10350E+01 4.00625E+00 0.00000E+00
 -1      2007 6.57045E+01 3.09687E+00 0.00000E+00
 -1      2008 6.42045E+01 3.09687E+00 0.00000E+00
 -1      2009 6.40350E+01 4.00625E+00 0.00000E+00
 -1      2010 6.87045E+01 3.09687E+00 0.00000E+00
 -1      2011 6.72045E+01 3.09687E+00 0.00000E+00
 -1      2012 6.70350E+01 4.00625E+00 0.00000E+00
 -1      2013 7.17045E+01 3.09687E+00 0.00000E+00
 -1      2014 7.02045E+01 3.09687E+00 0.00000E+00
 -1      2015 7.00350E+01 4.00625E+00 0.00000E+00
 -1      2016 7.47045E+01 3.09687E+00 0.00000E+00
 -1      2017 7.32045E+01 3.09687E+00 0.00000E+00
 -1      2018 7.30350E+01 4.00625E+00 0.00000E+00
 -1      2019 7.77045E+01 3.09687E+00 0.00000E+00
 -1      2020 7.62045E+01 3.09687E+00 0.00000E+00
 -1      2021 7.60350E+01 4.00625E+00 0.00000E+00
 -1      2022 8.07045E+01 3.09687E+00 0.00000E+00
 -1      2023 7.92045E+01 3.09687E+00 0.00000E+00
 -1      2024 7.90350E+01 4.00625E+00 0.00000E+00
 -1      2025 8.37045E+01 3.09687E+00 0.00000E+00
 -1      2026 8.22045E+01 3.09687E+00 0.00000E+00
 -1      2027 8.20350E+01 4.00625E+00 0.00000E+00
 -1      2028 8.67045E+01 3.09687E+00 0.00000E+00
 -1      2029 8.52045E+01 3.09687E+00 0.00000E+00
 -1      2030 8.50350E+01 4.00625E+00 0.00000E+00
 -1      2031 8.97045E+01 3.09687E+00 0.00000E+00
 -1      2032 8.82045E+01 3.09687E+00 0.00000E+00
 -1      2033 8.80350E+01 4.00625E+00 0.00000E+00
 -1      2034 9.27045E+01 3.09687E+00 0.00000E+00
 -1      2035 9.12045E+01 3.09687E+00 0.00000E+00
 -1      2036 9.10350E+01 4.00625E+00 0.00000E+00
 -1      2037 9.57045E+01 3.09687E+00 0.00000E+00
 -1      2038 9.42045E+01 3.09687E+00 0.00000E+00
 -1      2039 9.40350E+01 4.00625E+00 0.00000E+00
 -1      2040 9.87045E+01 3.09687E+00 0.00000E+00
 -1      2041 9.72045E+01 3.09687E+00 0.00000E+00
 -1      2042 9.70350E+01 4.00625E+00 0.00000E+00
 -1      2043 1.01704E+02 3.09687E+00 0.00000E+00
 -1      2044 1.00204E+02 3.09687E+00 0.00000E+00
 -1      2045 1.00035E+02 4.00625E+00 0.00000E+00
 -1      2046 1.04704E+02 3.09687E+00 0.00000E+00
 -1      2047 1.03204E+02 3.09687E+00 0.00000E+00
 -1      2048 1.03035E+02 4.00625E+00 0.00000E+00
 -1      2049 1.07704E+02 3.09687E+00 0.00000E+00
 -1      2050 1.06204E+02 3.09687E+00 0.00000E+00
 -1      2051 1.06035E+02 4.00625E+00 0.00000E+00
 -1      2052 1.10704E+02 3.09687E+00 0.00000E+00
 -1      2053 1.09204E+02 3.09687E+00 0.00000E+00
 -1      2054 1.09035E+02 4.00625E+00 0.00000E+00
 -1      2055 1.13704E+02 3.09687E+00 0.00000E+00
 -1      2056 1.12204E+02 3.09687E+00 0.00000E+00
 -1      2057 1.12035E+02 4.00625E+00 0.00000E+00
 -1      2058 1.16704E+02 3.09687E+00 0.00000E+00
 -1      2059 1.15204E+02 3.09687E+00 0.00000E+00
 -1      2060 1.15035E+02 4.00625E+00 0.00000E+00
 -1      2061 1.19704E+02 3.09687E+00 0.00000E+00
 -1      2062 1.18204E+02 3.09687E+00 0.00000E+00
 -1      2063 1.18035E+02 4.00625E+00 0.00000E+00
 -1      2064 1.22704E+02 3.09687E+00 0.00000E+00
 -1      2065 1.21204E+02 3.09687E+00 0.00000E+00
 -1      2066 1.21035E+02 4.00625E+00 0.00000E+00
 -1      2067 1.25704E+02 3.09687E+00 0.00000E+00
 -1      2068 1.24204E+02 3.09687E+00 0.00000E+00
 -1      2069 1.24035E+02 4.00625E+00 0.00000E+00
 -1      2070 1.28704E+02 3.09687E+00 0.00000E+00
 -1      2071 1.27204E+02 3.09687E+00 0.00000E+00
 -1      2072 1.27035E+02 4.00625E+00 0.00000E+00
 -1      2073 1.31704E+02 3.09687E+00 0.00000E+00
 -1      2074 1.30204E+02 3.09687E+00 0.00000E+00
 -1      2075 1.30035E+02 4.00625E+00 0.00000E+00
 -1      2076 1.34704E+02 3.09687E+00 0.00000E+00
 -1      2077 1.33204E+02 3.09687E+00 0.00000E+00
 -1      2078 1.33035E+02 4.00625E+00 0.00000E+00
 -1      2079 1.37704E+02 3.09687E+00 0.00000E+00
 -1      2080 1.36204E+02 3.09687E+00 0.00000E+00
 -1      2081 1.36035E+02 4.00625E+00 0.00000E+00
 -1      2082 1.40704E+02 3.09687E+00 0.00000E+00
 -1      2083 1.39204E+02 3.09687E+00 0.00000E+00
 -1      2084 1.39035E+02 4.00625E+00 0.00000E+00
 -1      2085 1.43704E+02 3.09687E+00 0.00000E+00
 -1      2086 1.42204E+02 3.09687E+00 0.00000E+00
 -1      2087 1.42035E+02 4.00625E+00 0.00000E+00
 -1      2088 1.46171E+02 3.20156E+00 0.00000E+00
 -1      2089 1.44671E+02 3.20156E+00 0.00000E+00
 -1      2090 1.44502E+02 4.11094E+00 0.00000E+00
 -1      2091 1.46435E+02 4.32031E+00 0.00000E+00
 -1      2092 1.46103E+02 1.25375E+01 0.00000E+00
 -1      2093 1.46103E+02 1.10625E+01 0.00000E+00
 -1      2094 1.46103E+02 9.58750E+00 0.00000E+00
 -1      2095 1.46103E+02 8.11250E+00 0.00000E+00
 -1      2096 1.44804E+02 1.03250E+01 0.00000E+00
 -1      2097 1.46269E+02 6.95391E+00 0.00000E+00
 -1      2098 1.46269E+02 5.47891E+00 0.00000E+00
 -1      2099 1.45302E+02 5.37422E+00 0.00000E+00
 -1      2100 1.44970E+02 7.69141E+00 0.00000E+00
 -1      2101 1.46103E+02 1.54375E+01 0.00000E+00
 -1      2102 1.46103E+02 1.39875E+01 0.00000E+00
 -1      2103 1.44804E+02 1.32500E+01 0.00000E+00
 -1      2104 1.46103E+02 1.83875E+01 0.00000E+00
 -1      2105 1.46103E+02 1.69125E+01 0.00000E+00
 -1      2106 1.44804E+02 1.61750E+01 0.00000E+00
 -1      2107 1.46103E+02 2.13375E+01 0.00000E+00
 -1      2108 1.46103E+02 1.98625E+01 0.00000E+00
 -1      2109 1.44804E+02 1.91250E+01 0.00000E+00
 -1      2110 1.46103E+02 2.42875E+01 0.00000E+00
 -1      2111 1.46103E+02 2.28125E+01 0.00000E+00
 -1      2112 1.44804E+02 2.20750E+01 0.00000E+00
 -1      2113 1.46103E+02 2.72375E+01 0.00000E+00
 -1      2114 1.46103E+02 2.57625E+01 0.00000E+00
 -1      2115 1.44804E+02 2.50250E+01 0.00000E+00
 -1      2116 1.46103E+02 3.01875E+01 0.00000E+00
 -1      2117 1.46103E+02 2.87125E+01 0.00000E+00
 -1      2118 1.44804E+02 2.79750E+01 0.00000E+00
 -1      2119 1.46103E+02 3.30875E+01 0.00000E+00
 -1      2120 1.46103E+02 3.16375E+01 0.00000E+00
 -1      2121 1.44804E+02 3.09000E+01 0.00000E+00
 -1      2122 1.46103E+02 3.60375E+01 0.00000E+00
 -1      2123 1.46103E+02 3.45625E+01 0.00000E+00
 -1      2124 1.44804E+02 3.38250E+01 0.00000E+00
 -1      2125 1.46103E+02 3.89875E+01 0.00000E+00
 -1      2126 1.46103E+02 3.75125E+01 0.00000E+00
 -1      2127 1.44804E+02 3.67750E+01 0.00000E+00
 -1      2128 1.46103E+02 4.19375E+01 0.00000E+00
 -1      2129 1.46103E+02 4.04625E+01 0.00000E+00
 -1      2130 1.44804E+02 3.97250E+01 0.00000E+00
 -1      2131 7.67876E+01 1.75761E+01 0.00000E+00
 -1      2132 7.71414E+01 1.83445E+01 0.00000E+00
 -1      2133 7.78455E+01 2.12568E+01 0.00000E+00
 -1      2134 7.77644E+01 2.21877E+01 0.00000E+00
 -1      2135 7.74462E+01 1.92495E+01 0.00000E+00
 -1      2136 7.77206E+01 2.01085E+01 0.00000E+00
 -1      2137 7.57531E+01 1.60207E+01 0.00000E+00
 -1      2138 7.62753E+01 1.67182E+01 0.00000E+00
 -1      2139 7.43605E+01 1.47381E+01 0.00000E+00
 -1      2140 7.50341E+01 1.52773E+01 0.00000E+00
 -1      2141 3.89700E+00 3.74688E+01 0.00000E+00
 -1      2142 3.89700E+00 3.89437E+01 0.00000E+00
 -1      2143 5.19600E+00 3.96813E+01 0.00000E+00
 -1      2144 5.19600E+00 3.67438E+01 0.00000E+00
 -1      2145 7.11821E+01 1.28467E+01 0.00000E+00
 -1      2146 7.20238E+01 1.32725E+01 0.00000E+00
 -1      2147 6.89865E+01 1.27175E+01 0.00000E+00
 -1      2148 6.99096E+01 1.26628E+01 0.00000E+00
 -1      2149 6.71259E+01 1.28519E+01 0.00000E+00
 -1      2150 6.80337E+01 1.27546E+01 0.00000E+00
 -1      2151 6.51786E+01 1.35162E+01 0.00000E+00
 -1      2152 6.60308E+01 1.31438E+01 0.00000E+00
 -1      2153 6.35184E+01 1.47166E+01 0.00000E+00
 -1      2154 6.42756E+01 1.41431E+01 0.00000E+00
 -1      2155 6.19365E+01 1.59819E+01 0.00000E+00
 -1      2156 6.25797E+01 1.52859E+01 0.00000E+00
 -1      2157 6.09963E+01 1.77050E+01 0.00000E+00
 -1      2158 6.14292E+01 1.69480E+01 0.00000E+00
 -1      2159 6.02922E+01 1.94579E+01 0.00000E+00
 -1      2160 6.05507E+01 1.86254E+01 0.00000E+00
 -1      2161 6.00955E+01 2.13200E+01 0.00000E+00
 -1      2162 6.01763E+01 2.04603E+01 0.00000E+00
 -1      2163 6.01266E+01 2.31602E+01 0.00000E+00
 -1      2164 6.00247E+01 2.23191E+01 0.00000E+00
 -1      2165 6.06176E+01 2.49325E+01 0.00000E+00
 -1      2166 6.03463E+01 2.41288E+01 0.00000E+00
 -1      2167 6.13175E+01 2.66248E+01 0.00000E+00
 -1      2168 6.09382E+01 2.58308E+01 0.00000E+00
 -1      2169 6.25250E+01 2.82146E+01 0.00000E+00
 -1      2170 6.19498E+01 2.74808E+01 0.00000E+00
 -1      2171 6.42548E+01 2.94227E+01 0.00000E+00
 -1      2172 6.34375E+01 2.90147E+01 0.00000E+00
 -1      2173 6.58594E+01 3.03283E+01 0.00000E+00
 -1      2174 6.50571E+01 2.98755E+01 0.00000E+00
 -1      2175 6.43215E+01 3.03264E+01 0.00000E+00
 -1      2176 6.79853E+01 3.06709E+01 0.00000E+00
 -1      2177 6.70671E+01 3.06856E+01 0.00000E+00
 -1      2178 6.97400E+01 3.06584E+01 0.00000E+00
 -1      2179 6.88626E+01 3.06646E+01 0.00000E+00
 -1      2180 6.84167E+01 3.14876E+01 0.00000E+00
 -1      2181 7.16540E+01 3.00404E+01 0.00000E+00
 -1      2182 7.08087E+01 3.03147E+01 0.00000E+00
 -1      2183 7.33361E+01 2.92537E+01 0.00000E+00
 -1      2184 7.25636E+01 2.96585E+01 0.00000E+00
 -1      2185 7.49543E+01 2.82777E+01 0.00000E+00
 -1      2186 7.42462E+01 2.88203E+01 0.00000E+00
 -1      2187 7.61681E+01 2.66940E+01 0.00000E+00
 -1      2188 7.56581E+01 2.74231E+01 0.00000E+00
 -1      2189 7.71604E+01 2.51194E+01 0.00000E+00
 -1      2190 7.67484E+01 2.59026E+01 0.00000E+00
 -1      2191 7.76932E+01 2.31995E+01 0.00000E+00
 -1      2192 7.74949E+01 2.40849E+01 0.00000E+00
 -1      2193 7.27844E+01 1.38171E+01 0.00000E+00
 -1      2194 7.35329E+01 1.42328E+01 0.00000E+00
 -1      2195 7.58475E+01 1.52125E+01 0.00000E+00
 -1      2196 6.42300E+00 4.57510E+01 0.00000E+00
 -1      2197 7.43009E+01 1.39637E+01 0.00000E+00
 -1      2198 7.27128E+01 1.29138E+01 0.00000E+00
 -1      2199 7.17300E+00 4.44520E+01 0.00000E+00
 -1      2200 7.78960E+01 1.85767E+01 0.00000E+00
 -1      2201 7.83257E+01 2.06301E+01 0.00000E+00
 -1      2202 7.89308E+01 2.11518E+01 0.00000E+00
 -1      2203 7.88058E+01 2.00034E+01 0.00000E+00
 -1      2204 1.45665E+02 4.31193E+01 0.00000E+00
 -1      2205 7.70789E+01 1.68138E+01 0.00000E+00
 -1      2206 7.83794E+01 2.27903E+01 0.00000E+00
 -1      2207 7.79737E+01 2.48367E+01 0.00000E+00
 -1      2208 7.70588E+01 2.66626E+01 0.00000E+00
 -1      2209 7.57747E+01 2.83086E+01 0.00000E+00
 -1      2210 7.41607E+01 2.95967E+01 0.00000E+00
 -1      2211 7.03627E+01 3.11377E+01 0.00000E+00
 -1      2212 6.63316E+01 3.11365E+01 0.00000E+00
 -1      2213 6.26068E+01 2.90735E+01 0.00000E+00
 -1      2214 6.17762E+01 2.91322E+01 0.00000E+00
 -1      2215 6.26886E+01 2.99323E+01 0.00000E+00
 -1      2216 6.10620E+01 2.74174E+01 0.00000E+00
 -1      2217 6.01091E+01 2.56630E+01 0.00000E+00
 -1      2218 5.95688E+01 2.37962E+01 0.00000E+00
 -1      2219 5.94198E+01 2.18285E+01 0.00000E+00
 -1      2220 5.96066E+01 1.98270E+01 0.00000E+00
 -1      2221 6.01681E+01 1.79043E+01 0.00000E+00
 -1      2222 6.11211E+01 1.60179E+01 0.00000E+00
 -1      2223 6.25670E+01 1.44825E+01 0.00000E+00
 -1      2224 6.44087E+01 1.32863E+01 0.00000E+00
 -1      2225 6.64067E+01 1.23675E+01 0.00000E+00
 -1      2226 7.06798E+01 1.21853E+01 0.00000E+00
 -1      2227 7.14499E+01 1.17077E+01 0.00000E+00
 -1      2228 7.01774E+01 1.15238E+01 0.00000E+00
 -1      2229 6.84545E+01 1.20385E+01 0.00000E+00
 -1      2230 7.23410E+01 3.04121E+01 0.00000E+00
 -1      2231 1.07850E+01 5.30525E+00 0.00000E+00
 -1      2232 9.28500E+00 5.30525E+00 0.00000E+00
 -1      2233 6.49500E+00 3.01125E+01 0.00000E+00
 -1      2234 6.49500E+00 3.15875E+01 0.00000E+00
 -1      2235 6.49500E+00 3.30625E+01 0.00000E+00
 -1      2236 6.49500E+00 3.45375E+01 0.00000E+00
 -1      2237 7.79400E+00 3.23250E+01 0.00000E+00
 -1      2238 6.49500E+00 2.42125E+01 0.00000E+00
 -1      2239 6.49500E+00 2.56875E+01 0.00000E+00
 -1      2240 6.49500E+00 2.12625E+01 0.00000E+00
 -1      2241 6.49500E+00 2.27375E+01 0.00000E+00
 -1      2242 7.79400E+00 2.34750E+01 0.00000E+00
 -1      2243 6.49500E+00 1.83625E+01 0.00000E+00
 -1      2244 6.49500E+00 1.98125E+01 0.00000E+00
 -1      2245 7.79400E+00 2.05500E+01 0.00000E+00
 -1      2246 6.49500E+00 1.54125E+01 0.00000E+00
 -1      2247 6.49500E+00 1.68875E+01 0.00000E+00
 -1      2248 7.79400E+00 1.76250E+01 0.00000E+00
 -1      2249 6.49500E+00 1.24625E+01 0.00000E+00
 -1      2250 6.49500E+00 1.39375E+01 0.00000E+00
 -1      2251 7.79400E+00 1.46750E+01 0.00000E+00
 -1      2252 6.49500E+00 9.51250E+00 0.00000E+00
 -1      2253 6.49500E+00 1.09875E+01 0.00000E+00
 -1      2254 7.79400E+00 1.17250E+01 0.00000E+00
 -1      2255 1.37850E+01 5.30525E+00 0.00000E+00
 -1      2256 1.22850E+01 5.30525E+00 0.00000E+00
 -1      2257 1.15350E+01 6.60425E+00 0.00000E+00
 -1      2258 9.90000E+00 4.35050E+01 0.00000E+00
 -1      2259 1.14000E+01 4.35050E+01 0.00000E+00
 -1      2260 7.42685E+01 1.30864E+01 0.00000E+00
 -1      2261 7.50961E+01 1.35917E+01 0.00000E+00
 -1      2262 1.29000E+01 4.35050E+01 0.00000E+00
 -1      2263 1.44000E+01 4.35050E+01 0.00000E+00
 -1      2264 1.21500E+01 4.22060E+01 0.00000E+00
 -1      2265 1.59000E+01 4.35050E+01 0.00000E+00
 -1      2266 1.74000E+01 4.35050E+01 0.00000E+00
 -1      2267 1.51500E+01 4.22060E+01 0.00000E+00
 -1      2268 1.89000E+01 4.35050E+01 0.00000E+00
 -1      2269 2.04000E+01 4.35050E+01 0.00000E+00
 -1      2270 1.81500E+01 4.22060E+01 0.00000E+00
 -1      2271 2.19000E+01 4.35050E+01 0.00000E+00
 -1      2272 2.34000E+01 4.35050E+01 0.00000E+00
 -1      2273 2.11500E+01 4.22060E+01 0.00000E+00
 -1      2274 2.49000E+01 4.35050E+01 0.00000E+00
 -1      2275 2.64000E+01 4.35050E+01 0.00000E+00
 -1      2276 2.41500E+01 4.22060E+01 0.00000E+00
 -1      2277 2.79000E+01 4.35050E+01 0.00000E+00
 -1      2278 2.94000E+01 4.35050E+01 0.00000E+00
 -1      2279 2.71500E+01 4.22060E+01 0.00000E+00
 -1      2280 3.09000E+01 4.35050E+01 0.00000E+00
 -1      2281 3.24000E+01 4.35050E+01 0.00000E+00
 -1      2282 3.01500E+01 4.22060E+01 0.00000E+00
 -1      2283 3.39000E+01 4.35050E+01 0.00000E+00
 -1      2284 3.54000E+01 4.35050E+01 0.00000E+00
 -1      2285 3.31500E+01 4.22060E+01 0.00000E+00
 -1      2286 3.69000E+01 4.35050E+01 0.00000E+00
 -1      2287 3.84000E+01 4.35050E+01 0.00000E+00
 -1      2288 3.61500E+01 4.22060E+01 0.00000E+00
 -1      2289 3.99000E+01 4.35050E+01 0.00000E+00
 -1      2290 4.14000E+01 4.35050E+01 0.00000E+00
 -1      2291 3.91500E+01 4.22060E+01 0.00000E+00
 -1      2292 4.29000E+01 4.35050E+01 0.00000E+00
 -1      2293 4.44000E+01 4.35050E+01 0.00000E+00
 -1      2294 4.21500E+01 4.22060E+01 0.00000E+00
 -1      2295 4.59000E+01 4.35050E+01 0.00000E+00
 -1      2296 4.74000E+01 4.35050E+01 0.00000E+00
 -1      2297 4.51500E+01 4.22060E+01 0.00000E+00
 -1      2298 4.89000E+01 4.35050E+01 0.00000E+00
 -1      2299 5.04000E+01 4.35050E+01 0.00000E+00
 -1      2300 4.81500E+01 4.22060E+01 0.00000E+00
 -1      2301 5.19000E+01 4.35050E+01 0.00000E+00
 -1      2302 5.34000E+01 4.35050E+01 0.00000E+00
 -1      2303 5.11500E+01 4.22060E+01 0.00000E+00
 -1      2304 5.49000E+01 4.35050E+01 0.00000E+00
 -1      2305 5.64000E+01 4.35050E+01 0.00000E+00
 -1      2306 5.41500E+01 4.22060E+01 0.00000E+00
 -1      2307 5.79000E+01 4.35050E+01 0.00000E+00
 -1      2308 5.94000E+01 4.35050E+01 0.00000E+00
 -1      2309 5.71500E+01 4.22060E+01 0.00000E+00
 -1      2310 6.09000E+01 4.35050E+01 0.00000E+00
 -1      2311 6.24000E+01 4.35050E+01 0.00000E+00
 -1      2312 6.01500E+01 4.22060E+01 0.00000E+00
 -1      2313 6.39000E+01 4.35050E+01 0.00000E+00
 -1      2314 6.54000E+01 4.35050E+01 0.00000E+00
 -1      2315 6.31500E+01 4.22060E+01 0.00000E+00
 -1      2316 6.69000E+01 4.35050E+01 0.00000E+00
 -1      2317 6.84000E+01 4.35050E+01 0.00000E+00
 -1      2318 6.61500E+01 4.22060E+01 0.00000E+00
 -1      2319 6.99000E+01 4.35050E+01 0.00000E+00
 -1      2320 7.14000E+01 4.35050E+01 0.00000E+00
 -1      2321 6.91500E+01 4.22060E+01 0.00000E+00
 -1      2322 7.29000E+01 4.35050E+01 0.00000E+00
 -1      2323 7.44000E+01 4.35050E+01 0.00000E+00
 -1      2324 7.21500E+01 4.22060E+01 0.00000E+00
 -1      2325 7.59000E+01 4.35050E+01 0.00000E+00
 -1      2326 7.74000E+01 4.35050E+01 0.00000E+00
 -1      2327 7.51500E+01 4.22060E+01 0.00000E+00
 -1      2328 7.89000E+01 4.35050E+01 0.00000E+00
 -1      2329 8.04000E+01 4.35050E+01 0.00000E+00
 -1      2330 7.81500E+01 4.22060E+01 0.00000E+00
 -1      2331 8.19000E+01 4.35050E+01 0.00000E+00
 -1      2332 8.34000E+01 4.35050E+01 0.00000E+00
 -1      2333 8.11500E+01 4.22060E+01 0.00000E+00
 -1      2334 8.49000E+01 4.35050E+01 0.00000E+00
 -1      2335 8.64000E+01 4.35050E+01 0.00000E+00
 -1      2336 8.41500E+01 4.22060E+01 0.00000E+00
 -1      2337 8.79000E+01 4.35050E+01 0.00000E+00
 -1      2338 8.94000E+01 4.35050E+01 0.00000E+00
 -1      2339 8.71500E+01 4.22060E+01 0.00000E+00
 -1      2340 9.09000E+01 4.35050E+01 0.00000E+00
 -1      2341 9.24000E+01 4.35050E+01 0.00000E+00
 -1      2342 9.01500E+01 4.22060E+01 0.00000E+00
 -1      2343 9.39000E+01 4.35050E+01 0.00000E+00
 -1      2344 9.54000E+01 4.35050E+01 0.00000E+00
 -1      2345 9.31500E+01 4.22060E+01 0.00000E+00
 -1      2346 9.69000E+01 4.35050E+01 0.00000E+00
 -1      2347 9.84000E+01 4.35050E+01 0.00000E+00
 -1      2348 9.61500E+01 4.22060E+01 0.00000E+00
 -1      2349 9.99000E+01 4.35050E+01 0.00000E+00
 -1      2350 1.01400E+02 4.35050E+01 0.00000E+00
 -1      2351 9.91500E+01 4.22060E+01 0.00000E+00
 -1      2352 1.02900E+02 4.35050E+01 0.00000E+00
 -1      2353 1.04400E+02 4.35050E+01 0.00000E+00
 -1      2354 1.02150E+02 4.22060E+01 0.00000E+00
 -1      2355 1.05900E+02 4.35050E+01 0.00000E+00
 -1      2356 1.07400E+02 4.35050E+01 0.00000E+00
 -1      2357 1.05150E+02 4.22060E+01 0.00000E+00
 -1      2358 1.08900E+02 4.35050E+01 0.00000E+00
 -1      2359 1.10400E+02 4.35050E+01 0.00000E+00
 -1      2360 1.08150E+02 4.22060E+01 0.00000E+00
 -1      2361 1.11900E+02 4.35050E+01 0.00000E+00
 -1      2362 1.13400E+02 4.35050E+01 0.00000E+00
 -1      2363 1.11150E+02 4.22060E+01 0.00000E+00
 -1      2364 1.14900E+02 4.35050E+01 0.00000E+00
 -1      2365 1.16400E+02 4.35050E+01 0.00000E+00
 -1      2366 1.14150E+02 4.22060E+01 0.00000E+00
 -1      2367 1.17900E+02 4.35050E+01 0.00000E+00
 -1      2368 1.19400E+02 4.35050E+01 0.00000E+00
 -1      2369 1.17150E+02 4.22060E+01 0.00000E+00
 -1      2370 1.20900E+02 4.35050E+01 0.00000E+00
 -1      2371 1.22400E+02 4.35050E+01 0.00000E+00
 -1      2372 1.20150E+02 4.22060E+01 0.00000E+00
 -1      2373 1.23900E+02 4.35050E+01 0.00000E+00
 -1      2374 1.25400E+02 4.35050E+01 0.00000E+00
 -1      2375 1.23150E+02 4.22060E+01 0.00000E+00
 -1      2376 1.26900E+02 4.35050E+01 0.00000E+00
 -1      2377 1.28400E+02 4.35050E+01 0.00000E+00
 -1      2378 1.26150E+02 4.22060E+01 0.00000E+00
 -1      2379 1.29900E+02 4.35050E+01 0.00000E+00
 -1      2380 1.31400E+02 4.35050E+01 0.00000E+00
 -1      2381 1.29150E+02 4.22060E+01 0.00000E+00
 -1      2382 1.32900E+02 4.35050E+01 0.00000E+00
 -1      2383 1.34400E+02 4.35050E+01 0.00000E+00
 -1      2384 1.32150E+02 4.22060E+01 0.00000E+00
 -1      2385 1.35900E+02 4.35050E+01 0.00000E+00
 -1      2386 1.37400E+02 4.35050E+01 0.00000E+00
 -1      2387 1.35150E+02 4.22060E+01 0.00000E+00
 -1      2388 1.38900E+02 4.35050E+01 0.00000E+00
 -1      2389 1.40400E+02 4.35050E+01 0.00000E+00
 -1      2390 1.38150E+02 4.22060E+01 0.00000E+00
 -1      2391 1.97850E+01 5.30525E+00 0.00000E+00
 -1      2392 1.82850E+01 5.30525E+00 0.00000E+00
 -1      2393 2.27850E+01 5.30525E+00 0.00000E+00
 -1      2394 2.12850E+01 5.30525E+00 0.00000E+00
 -1      2395 2.05350E+01 6.60425E+00 0.00000E+00
 -1      2396 2.57850E+01 5.30525E+00 0.00000E+00
 -1      2397 2.42850E+01 5.30525E+00 0.00000E+00
 -1      2398 2.35350E+01 6.60425E+00 0.00000E+00
 -1      2399 2.87850E+01 5.30525E+00 0.00000E+00
 -1      2400 2.72850E+01 5.30525E+00 0.00000E+00
 -1      2401 2.65350E+01 6.60425E+00 0.00000E+00
 -1      2402 3.17850E+01 5.30525E+00 0.00000E+00
 -1      2403 3.02850E+01 5.30525E+00 0.00000E+00
 -1      2404 2.95350E+01 6.60425E+00 0.00000E+00
 -1      2405 3.47850E+01 5.30525E+00 0.00000E+00
 -1      2406 3.32850E+01 5.30525E+00 0.00000E+00
 -1      2407 3.25350E+01 6.60425E+00 0.00000E+00
 -1      2408 3.77850E+01 5.30525E+00 0.00000E+00
 -1      2409 3.62850E+01 5.30525E+00 0.00000E+00
 -1      2410 3.55350E+01 6.60425E+00 0.00000E+00
 -1      2411 4.07850E+01 5.30525E+00 0.00000E+00
 -1      2412 3.92850E+01 5.30525E+00 0.00000E+00
 -1      2413 3.85350E+01 6.60425E+00 0.00000E+00
 -1      2414 4.37850E+01 5.30525E+00 0.00000E+00
 -1      2415 4.22850E+01 5.30525E+00 0.00000E+00
 -1      2416 4.15350E+01 6.60425E+00 0.00000E+00
 -1      2417 4.67850E+01 5.30525E+00 0.00000E+00
 -1      2418 4.52850E+01 5.30525E+00 0.00000E+00
 -1      2419 4.45350E+01 6.60425E+00 0.00000E+00
 -1      2420 4.97850E+01 5.30525E+00 0.00000E+00
 -1      2421 4.82850E+01 5.30525E+00 0.00000E+00
 -1      2422 4.75350E+01 6.60425E+00 0.00000E+00
 -1      2423 5.27850E+01 5.30525E+00 0.00000E+00
 -1      2424 5.12850E+01 5.30525E+00 0.00000E+00
 -1      2425 5.05350E+01 6.60425E+00 0.00000E+00
 -1      2426 5.57850E+01 5.30525E+00 0.00000E+00
 -1      2427 5.42850E+01 5.30525E+00 0.00000E+00
 -1      2428 5.35350E+01 6.60425E+00 0.00000E+00
 -1      2429 5.87850E+01 5.30525E+00 0.00000E+00
 -1      2430 5.72850E+01 5.30525E+00 0.00000E+00
 -1      2431 5.65350E+01 6.60425E+00 0.00000E+00
 -1      2432 6.17850E+01 5.30525E+00 0.00000E+00
 -1      2433 6.02850E+01 5.30525E+00 0.00000E+00
 -1      2434 5.95350E+01 6.60425E+00 0.00000E+00
 -1      2435 6.47850E+01 5.30525E+00 0.00000E+00
 -1      2436 6.32850E+01 5.30525E+00 0.00000E+00
 -1      2437 6.25350E+01 6.60425E+00 0.00000E+00
 -1      2438 6.77850E+01 5.30525E+00 0.00000E+00
 -1      2439 6.62850E+01 5.30525E+00 0.00000E+00
 -1      2440 6.55350E+01 6.60425E+00 0.00000E+00
 -1      2441 7.07850E+01 5.30525E+00 0.00000E+00
 -1      2442 6.92850E+01 5.30525E+00 0.00000E+00
 -1      2443 6.85350E+01 6.60425E+00 0.00000E+00
 -1      2444 7.37850E+01 5.30525E+00 0.00000E+00
 -1      2445 7.22850E+01 5.30525E+00 0.00000E+00
 -1      2446 7.15350E+01 6.60425E+00 0.00000E+00
 -1      2447 7.67850E+01 5.30525E+00 0.00000E+00
 -1      2448 7.52850E+01 5.30525E+00 0.00000E+00
 -1      2449 7.45350E+01 6.60425E+00 0.00000E+00
 -1      2450 7.97850E+01 5.30525E+00 0.00000E+00
 -1      2451 7.82850E+01 5.30525E+00 0.00000E+00
 -1      2452 7.75350E+01 6.60425E+00 0.00000E+00
 -1      2453 8.27850E+01 5.30525E+00 0.00000E+00
 -1      2454 8.12850E+01 5.30525E+00 0.00000E+00
 -1      2455 8.05350E+01 6.60425E+00 0.00000E+00
 -1      2456 8.57850E+01 5.30525E+00 0.00000E+00
 -1      2457 8.42850E+01 5.30525E+00 0.00000E+00
 -1      2458 8.35350E+01 6.60425E+00 0.00000E+00
 -1      2459 8.87850E+01 5.30525E+00 0.00000E+00
 -1      2460 8.72850E+01 5.30525E+00 0.00000E+00
 -1      2461 8.65350E+01 6.60425E+00 0.00000E+00
 -1      2462 9.17850E+01 5.30525E+00 0.00000E+00
 -1      2463 9.02850E+01 5.30525E+00 0.00000E+00
 -1      2464 8.95350E+01 6.60425E+00 0.00000E+00
 -1      2465 9.47850E+01 5.30525E+00 0.00000E+00
 -1      2466 9.32850E+01 5.30525E+00 0.00000E+00
 -1      2467 9.25350E+01 6.60425E+00 0.00000E+00
 -1      2468 9.77850E+01 5.30525E+00 0.00000E+00
 -1      2469 9.62850E+01 5.30525E+00 0.00000E+00
 -1      2470 9.55350E+01 6.60425E+00 0.00000E+00
 -1      2471 1.00785E+02 5.30525E+00 0.00000E+00
 -1      2472 9.92850E+01 5.30525E+00 0.00000E+00
 -1      2473 9.85350E+01 6.60425E+00 0.00000E+00
 -1      2474 1.03785E+02 5.30525E+00 0.00000E+00
 -1      2475 1.02285E+02 5.30525E+00 0.00000E+00
 -1      2476 1.01535E+02 6.60425E+00 0.00000E+00
 -1      2477 1.06785E+02 5.30525E+00 0.00000E+00
 -1      2478 1.05285E+02 5.30525E+00 0.00000E+00
 -1      2479 1.04535E+02 6.60425E+00 0.00000E+00
 -1      2480 1.09785E+02 5.30525E+00 0.00000E+00
 -1      2481 1.08285E+02 5.30525E+00 0.00000E+00
 -1      2482 1.07535E+02 6.60425E+00 0.00000E+00
 -1      2483 1.12785E+02 5.30525E+00 0.00000E+00
 -1      2484 1.11285E+02 5.30525E+00 0.00000E+00
 -1      2485 1.10535E+02 6.60425E+00 0.00000E+00
 -1      2486 1.15785E+02 5.30525E+00 0.00000E+00
 -1      2487 1.14285E+02 5.30525E+00 0.00000E+00
 -1      2488 1.13535E+02 6.60425E+00 0.00000E+00
 -1      2489 1.18785E+02 5.30525E+00 0.00000E+00
 -1      2490 1.17285E+02 5.30525E+00 0.00000E+00
 -1      2491 1.16535E+02 6.60425E+00 0.00000E+00
 -1      2492 1.21785E+02 5.30525E+00 0.00000E+00
 -1      2493 1.20285E+02 5.30525E+00 0.00000E+00
 -1      2494 1.19535E+02 6.60425E+00 0.00000E+00
 -1      2495 1.24785E+02 5.30525E+00 0.00000E+00
 -1      2496 1.23285E+02 5.30525E+00 0.00000E+00
 -1      2497 1.22535E+02 6.60425E+00 0.00000E+00
 -1      2498 1.27785E+02 5.30525E+00 0.00000E+00
 -1      2499 1.26285E+02 5.30525E+00 0.00000E+00
 -1      2500 1.25535E+02 6.60425E+00 0.00000E+00
 -1      2501 1.30785E+02 5.30525E+00 0.00000E+00
 -1      2502 1.29285E+02 5.30525E+00 0.00000E+00
 -1      2503 1.28535E+02 6.60425E+00 0.00000E+00
 -1      2504 1.33785E+02 5.30525E+00 0.00000E+00
 -1      2505 1.32285E+02 5.30525E+00 0.00000E+00
 -1      2506 1.31535E+02 6.60425E+00 0.00000E+00
 -1      2507 1.36785E+02 5.30525E+00 0.00000E+00
 -1      2508 1.35285E+02 5.30525E+00 0.00000E+00
 -1      2509 1.34535E+02 6.60425E+00 0.00000E+00
 -1      2510 1.39785E+02 5.30525E+00 0.00000E+00
 -1      2511 1.38285E+02 5.30525E+00 0.00000E+00
 -1      2512 1.37535E+02 6.60425E+00 0.00000E+00
 -1      2513 1.42785E+02 5.30525E+00 0.00000E+00
 -1      2514 1.41285E+02 5.30525E+00 0.00000E+00
 -1      2515 1.40535E+02 6.60425E+00 0.00000E+00
 -1      2516 1.44336E+02 5.26953E+00 0.00000E+00
 -1      2517 1.43505E+02 1.69125E+01 0.00000E+00
 -1      2518 1.43505E+02 1.54375E+01 0.00000E+00
 -1      2519 1.43505E+02 1.98625E+01 0.00000E+00
 -1      2520 1.43505E+02 1.83875E+01 0.00000E+00
 -1      2521 1.42206E+02 1.76500E+01 0.00000E+00
 -1      2522 1.43505E+02 1.10625E+01 0.00000E+00
 -1      2523 1.43505E+02 9.58750E+00 0.00000E+00
 -1      2524 1.43505E+02 1.39750E+01 0.00000E+00
 -1      2525 1.43505E+02 1.25250E+01 0.00000E+00
 -1      2526 1.42206E+02 1.17875E+01 0.00000E+00
 -1      2527 1.42206E+02 1.47125E+01 0.00000E+00
 -1      2528 1.43505E+02 2.28125E+01 0.00000E+00
 -1      2529 1.43505E+02 2.13375E+01 0.00000E+00
 -1      2530 1.42206E+02 2.06000E+01 0.00000E+00
 -1      2531 1.43505E+02 2.57625E+01 0.00000E+00
 -1      2532 1.43505E+02 2.42875E+01 0.00000E+00
 -1      2533 1.42206E+02 2.35500E+01 0.00000E+00
 -1      2534 1.43505E+02 2.87125E+01 0.00000E+00
 -1      2535 1.43505E+02 2.72375E+01 0.00000E+00
 -1      2536 1.42206E+02 2.65000E+01 0.00000E+00
 -1      2537 1.43505E+02 3.16125E+01 0.00000E+00
 -1      2538 1.43505E+02 3.01625E+01 0.00000E+00
 -1      2539 1.42206E+02 2.94250E+01 0.00000E+00
 -1      2540 1.43505E+02 3.45625E+01 0.00000E+00
 -1      2541 1.43505E+02 3.30875E+01 0.00000E+00
 -1      2542 1.42206E+02 3.23500E+01 0.00000E+00
 -1      2543 1.43505E+02 3.75125E+01 0.00000E+00
 -1      2544 1.43505E+02 3.60375E+01 0.00000E+00
 -1      2545 1.42206E+02 3.53000E+01 0.00000E+00
 -1      2546 1.43505E+02 4.04625E+01 0.00000E+00
 -1      2547 1.43505E+02 3.89875E+01 0.00000E+00
 -1      2548 1.42206E+02 3.82500E+01 0.00000E+00
 -1      2549 7.74870E+01 1.59881E+01 0.00000E+00
 -1      2550 7.79994E+01 1.68460E+01 0.00000E+00
 -1      2551 1.67850E+01 5.30525E+00 0.00000E+00
 -1      2552 1.52850E+01 5.30525E+00 0.00000E+00
 -1      2553 1.75350E+01 6.60425E+00 0.00000E+00
 -1      2554 1.44321E+02 4.30606E+01 0.00000E+00
 -1      2555 7.92287E+01 2.23417E+01 0.00000E+00
 -1      2556 7.91575E+01 2.33535E+01 0.00000E+00
 -1      2557 7.85564E+01 1.78505E+01 0.00000E+00
 -1      2558 7.88611E+01 1.87556E+01 0.00000E+00
 -1      2559 6.55950E+00 4.28890E+01 0.00000E+00
 -1      2560 8.53650E+00 4.32410E+01 0.00000E+00
 -1      2561 9.28650E+00 4.19420E+01 0.00000E+00
 -1      2562 6.55950E+00 4.14140E+01 0.00000E+00
 -1      2563 7.89569E+01 2.45833E+01 0.00000E+00
 -1      2564 7.86224E+01 2.56178E+01 0.00000E+00
 -1      2565 6.49500E+00 2.71625E+01 0.00000E+00
 -1      2566 6.49500E+00 2.86375E+01 0.00000E+00
 -1      2567 7.79400E+00 2.93750E+01 0.00000E+00
 -1      2568 7.79400E+00 2.64250E+01 0.00000E+00
 -1      2569 6.79481E+01 1.12838E+01 0.00000E+00
 -1      2570 6.89008E+01 1.12467E+01 0.00000E+00
 -1      2571 7.30792E+01 3.08960E+01 0.00000E+00
 -1      2572 7.21695E+01 3.12779E+01 0.00000E+00
 -1      2573 6.55951E+01 1.15229E+01 0.00000E+00
 -1      2574 6.66902E+01 1.12310E+01 0.00000E+00
 -1      2575 6.34681E+01 1.28953E+01 0.00000E+00
 -1      2576 6.43711E+01 1.22684E+01 0.00000E+00
 -1      2577 6.15907E+01 1.40340E+01 0.00000E+00
 -1      2578 6.25294E+01 1.34646E+01 0.00000E+00
 -1      2579 6.24918E+01 1.24468E+01 0.00000E+00
 -1      2580 6.01453E+01 1.61218E+01 0.00000E+00
 -1      2581 6.06525E+01 1.51557E+01 0.00000E+00
 -1      2582 5.92539E+01 1.79624E+01 0.00000E+00
 -1      2583 5.96996E+01 1.70421E+01 0.00000E+00
 -1      2584 5.92311E+01 1.61799E+01 0.00000E+00
 -1      2585 5.88216E+01 2.02442E+01 0.00000E+00
 -1      2586 5.89375E+01 1.92417E+01 0.00000E+00
 -1      2587 5.85290E+01 2.22675E+01 0.00000E+00
 -1      2588 5.85998E+01 2.12684E+01 0.00000E+00
 -1      2589 5.87606E+01 2.44887E+01 0.00000E+00
 -1      2590 5.85409E+01 2.35202E+01 0.00000E+00
 -1      2591 5.94017E+01 2.62854E+01 0.00000E+00
 -1      2592 5.90812E+01 2.53870E+01 0.00000E+00
 -1      2593 5.80533E+01 2.51110E+01 0.00000E+00
 -1      2594 6.06884E+01 2.83549E+01 0.00000E+00
 -1      2595 6.00560E+01 2.74989E+01 0.00000E+00
 -1      2596 6.43218E+01 3.12631E+01 0.00000E+00
 -1      2597 6.35195E+01 3.08103E+01 0.00000E+00
 -1      2598 6.66684E+01 3.22178E+01 0.00000E+00
 -1      2599 6.54606E+01 3.18605E+01 0.00000E+00
 -1      2600 6.88614E+01 3.23420E+01 0.00000E+00
 -1      2601 6.79841E+01 3.23482E+01 0.00000E+00
 -1      2602 7.12109E+01 3.19418E+01 0.00000E+00
 -1      2603 7.01422E+01 3.22854E+01 0.00000E+00
 -1      2604 7.49485E+01 3.00785E+01 0.00000E+00
 -1      2605 7.40384E+01 3.05120E+01 0.00000E+00
 -1      2606 7.67733E+01 2.84139E+01 0.00000E+00
 -1      2607 7.60695E+01 2.92685E+01 0.00000E+00
 -1      2608 7.79340E+01 2.68312E+01 0.00000E+00
 -1      2609 7.73537E+01 2.76226E+01 0.00000E+00
 -1      2610 7.76485E+01 2.85825E+01 0.00000E+00
 -1      2611 7.27475E+01 1.19972E+01 0.00000E+00
 -1      2612 7.35080E+01 1.25418E+01 0.00000E+00
 -1      2613 7.43032E+01 1.21698E+01 0.00000E+00
 -1      2614 8.07525E+00 5.11044E+00 0.00000E+00
 -1      2615 6.57525E+00 5.11044E+00 0.00000E+00
 -1      2616 6.40575E+00 6.01981E+00 0.00000E+00
 -1      2617 8.82525E+00 6.40944E+00 0.00000E+00
 -1      2618 7.61646E+01 1.41863E+01 0.00000E+00
 -1      2619 7.68837E+01 1.49298E+01 0.00000E+00
 -1      2620 6.91645E+01 1.00145E+01 0.00000E+00
 -1      2621 6.96710E+01 1.07692E+01 0.00000E+00
 -1      2622 7.04411E+01 1.02916E+01 0.00000E+00
 -1      2623 7.79400E+00 3.52687E+01 0.00000E+00
 -1      2624 6.49500E+00 3.60062E+01 0.00000E+00
 -1      2625 6.49500E+00 3.74750E+01 0.00000E+00
 -1      2626 1.45350E+01 6.60425E+00 0.00000E+00
 -1      2627 6.40575E+00 7.49481E+00 0.00000E+00
 -1      2628 7.61322E+01 1.33090E+01 0.00000E+00
 -1      2629 7.98062E+01 2.41346E+01 0.00000E+00
 -1      2630 7.89172E+01 2.65778E+01 0.00000E+00
 -1      2631 7.94662E+01 1.92773E+01 0.00000E+00
 -1      2632 1.43586E+02 6.56853E+00 0.00000E+00
 -1      2633 1.43419E+02 7.72713E+00 0.00000E+00
 -1      2634 7.89645E+01 1.70249E+01 0.00000E+00
 -1      2635 7.78042E+01 1.49620E+01 0.00000E+00
 -1      2636 7.97088E+01 2.17150E+01 0.00000E+00
 -1      2637 7.59472E+01 3.01839E+01 0.00000E+00
 -1      2638 7.58249E+01 3.10992E+01 0.00000E+00
 -1      2639 7.69459E+01 3.02892E+01 0.00000E+00
 -1      2640 7.19490E+01 3.24256E+01 0.00000E+00
 -1      2641 7.70475E+00 8.23231E+00 0.00000E+00
 -1      2642 6.97096E+01 3.31461E+01 0.00000E+00
 -1      2643 6.71131E+01 3.30722E+01 0.00000E+00
 -1      2644 6.46586E+01 3.23444E+01 0.00000E+00
 -1      2645 5.90282E+01 2.72229E+01 0.00000E+00
 -1      2646 5.77209E+01 2.29600E+01 0.00000E+00
 -1      2647 6.26889E+01 3.08690E+01 0.00000E+00
 -1      2648 6.08520E+01 3.00725E+01 0.00000E+00
 -1      2649 6.07702E+01 2.92137E+01 0.00000E+00
 -1      2650 5.97643E+01 2.92953E+01 0.00000E+00
 -1      2651 5.84689E+01 1.83795E+01 0.00000E+00
 -1      2652 6.06149E+01 1.41378E+01 0.00000E+00
 -1      2653 6.05773E+01 1.31200E+01 0.00000E+00
 -1      2654 5.96391E+01 1.42417E+01 0.00000E+00
 -1      2655 6.46546E+01 1.11319E+01 0.00000E+00
 -1      2656 6.55950E+00 3.99453E+01 0.00000E+00
 -1      2657 7.38670E+01 3.13778E+01 0.00000E+00
 -1      2658 6.71365E+01 1.04392E+01 0.00000E+00
 -1      2659 7.17427E+01 1.06743E+01 0.00000E+00
 -1      2660 7.22451E+01 1.13357E+01 0.00000E+00
 -1      2661 7.30403E+01 1.09638E+01 0.00000E+00
 -1      2662 5.79308E+01 2.06831E+01 0.00000E+00
 -1      2663 1.42758E+02 4.35929E+01 0.00000E+00
 -1      2664 1.43241E+02 4.17323E+01 0.00000E+00
 -1      2665 1.41942E+02 4.09948E+01 0.00000E+00
 -1      2666 1.41414E+02 4.35342E+01 0.00000E+00
 -1      2667 1.42120E+02 8.46463E+00 0.00000E+00
 -1      2668 1.40664E+02 4.22352E+01 0.00000E+00
 -1      2669 9.09300E+00 1.98250E+01 0.00000E+00
 -1      2670 9.09300E+00 2.12750E+01 0.00000E+00
 -1      2671 9.09300E+00 2.27500E+01 0.00000E+00
 -1      2672 9.09300E+00 2.42250E+01 0.00000E+00
 -1      2673 1.03920E+01 2.20250E+01 0.00000E+00
 -1      2674 9.09300E+00 1.39375E+01 0.00000E+00
 -1      2675 9.09300E+00 1.54125E+01 0.00000E+00
 -1      2676 9.09300E+00 1.09875E+01 0.00000E+00
 -1      2677 9.09300E+00 1.24625E+01 0.00000E+00
 -1      2678 1.03920E+01 1.32000E+01 0.00000E+00
 -1      2679 1.22850E+01 7.90325E+00 0.00000E+00
 -1      2680 1.07850E+01 7.90325E+00 0.00000E+00
 -1      2681 7.03952E+01 3.41419E+01 0.00000E+00
 -1      2682 6.91145E+01 3.41985E+01 0.00000E+00
 -1      2683 8.07528E+01 2.36578E+01 0.00000E+00
 -1      2684 8.05523E+01 2.48876E+01 0.00000E+00
 -1      2685 8.01530E+01 2.64770E+01 0.00000E+00
 -1      2686 7.94646E+01 2.76903E+01 0.00000E+00
 -1      2687 1.44000E+01 4.09070E+01 0.00000E+00
 -1      2688 1.59000E+01 4.09070E+01 0.00000E+00
 -1      2689 1.74000E+01 4.09070E+01 0.00000E+00
 -1      2690 1.89000E+01 4.09070E+01 0.00000E+00
 -1      2691 1.66500E+01 3.96080E+01 0.00000E+00
 -1      2692 2.04000E+01 4.09070E+01 0.00000E+00
 -1      2693 2.19000E+01 4.09070E+01 0.00000E+00
 -1      2694 1.96500E+01 3.96080E+01 0.00000E+00
 -1      2695 2.34000E+01 4.09070E+01 0.00000E+00
 -1      2696 2.49000E+01 4.09070E+01 0.00000E+00
 -1      2697 2.26500E+01 3.96080E+01 0.00000E+00
 -1      2698 2.64000E+01 4.09070E+01 0.00000E+00
 -1      2699 2.79000E+01 4.09070E+01 0.00000E+00
 -1      2700 2.56500E+01 3.96080E+01 0.00000E+00
 -1      2701 2.94000E+01 4.09070E+01 0.00000E+00
 -1      2702 3.09000E+01 4.09070E+01 0.00000E+00
 -1      2703 2.86500E+01 3.96080E+01 0.00000E+00
 -1      2704 3.24000E+01 4.09070E+01 0.00000E+00
 -1      2705 3.39000E+01 4.09070E+01 0.00000E+00
 -1      2706 3.16500E+01 3.96080E+01 0.00000E+00
 -1      2707 3.54000E+01 4.09070E+01 0.00000E+00
 -1      2708 3.69000E+01 4.09070E+01 0.00000E+00
 -1      2709 3.46500E+01 3.96080E+01 0.00000E+00
 -1      2710 3.84000E+01 4.09070E+01 0.00000E+00
 -1      2711 3.99000E+01 4.09070E+01 0.00000E+00
 -1      2712 3.76500E+01 3.96080E+01 0.00000E+00
 -1      2713 4.14000E+01 4.09070E+01 0.00000E+00
 -1      2714 4.29000E+01 4.09070E+01 0.00000E+00
 -1      2715 4.06500E+01 3.96080E+01 0.00000E+00
 -1      2716 4.44000E+01 4.09070E+01 0.00000E+00
 -1      2717 4.59000E+01 4.09070E+01 0.00000E+00
 -1      2718 4.36500E+01 3.96080E+01 0.00000E+00
 -1      2719 4.74000E+01 4.09070E+01 0.00000E+00
 -1      2720 4.89000E+01 4.09070E+01 0.00000E+00
 -1      2721 4.66500E+01 3.96080E+01 0.00000E+00
 -1      2722 5.04000E+01 4.09070E+01 0.00000E+00
 -1      2723 5.19000E+01 4.09070E+01 0.00000E+00
 -1      2724 4.96500E+01 3.96080E+01 0.00000E+00
 -1      2725 5.34000E+01 4.09070E+01 0.00000E+00
 -1      2726 5.49000E+01 4.09070E+01 0.00000E+00
 -1      2727 5.26500E+01 3.96080E+01 0.00000E+00
 -1      2728 5.64000E+01 4.09070E+01 0.00000E+00
 -1      2729 5.79000E+01 4.09070E+01 0.00000E+00
 -1      2730 5.56500E+01 3.96080E+01 0.00000E+00
 -1      2731 5.94000E+01 4.09070E+01 0.00000E+00
 -1      2732 6.09000E+01 4.09070E+01 0.00000E+00
 -1      2733 5.86500E+01 3.96080E+01 0.00000E+00
 -1      2734 6.24000E+01 4.09070E+01 0.00000E+00
 -1      2735 6.39000E+01 4.09070E+01 0.00000E+00
 -1      2736 6.16500E+01 3.96080E+01 0.00000E+00
 -1      2737 6.54000E+01 4.09070E+01 0.00000E+00
 -1      2738 6.69000E+01 4.09070E+01 0.00000E+00
 -1      2739 6.46500E+01 3.96080E+01 0.00000E+00
 -1      2740 6.84000E+01 4.09070E+01 0.00000E+00
 -1      2741 6.99000E+01 4.09070E+01 0.00000E+00
 -1      2742 6.76500E+01 3.96080E+01 0.00000E+00
 -1      2743 7.14000E+01 4.09070E+01 0.00000E+00
 -1      2744 7.29000E+01 4.09070E+01 0.00000E+00
 -1      2745 7.06500E+01 3.96080E+01 0.00000E+00
 -1      2746 7.44000E+01 4.09070E+01 0.00000E+00
 -1      2747 7.59000E+01 4.09070E+01 0.00000E+00
 -1      2748 7.36500E+01 3.96080E+01 0.00000E+00
 -1      2749 7.74000E+01 4.09070E+01 0.00000E+00
 -1      2750 7.89000E+01 4.09070E+01 0.00000E+00
 -1      2751 7.66500E+01 3.96080E+01 0.00000E+00
 -1      2752 8.04000E+01 4.09070E+01 0.00000E+00
 -1      2753 8.19000E+01 4.09070E+01 0.00000E+00
 -1      2754 7.96500E+01 3.96080E+01 0.00000E+00
 -1      2755 8.34000E+01 4.09070E+01 0.00000E+00
 -1      2756 8.49000E+01 4.09070E+01 0.00000E+00
 -1      2757 8.26500E+01 3.96080E+01 0.00000E+00
 -1      2758 8.64000E+01 4.09070E+01 0.00000E+00
 -1      2759 8.79000E+01 4.09070E+01 0.00000E+00
 -1      2760 8.56500E+01 3.96080E+01 0.00000E+00
 -1      2761 8.94000E+01 4.09070E+01 0.00000E+00
 -1      2762 9.09000E+01 4.09070E+01 0.00000E+00
 -1      2763 8.86500E+01 3.96080E+01 0.00000E+00
 -1      2764 9.24000E+01 4.09070E+01 0.00000E+00
 -1      2765 9.39000E+01 4.09070E+01 0.00000E+00
 -1      2766 9.16500E+01 3.96080E+01 0.00000E+00
 -1      2767 9.54000E+01 4.09070E+01 0.00000E+00
 -1      2768 9.69000E+01 4.09070E+01 0.00000E+00
 -1      2769 9.46500E+01 3.96080E+01 0.00000E+00
 -1      2770 9.84000E+01 4.09070E+01 0.00000E+00
 -1      2771 9.99000E+01 4.09070E+01 0.00000E+00
 -1      2772 9.76500E+01 3.96080E+01 0.00000E+00
 -1      2773 1.01400E+02 4.09070E+01 0.00000E+00
 -1      2774 1.02900E+02 4.09070E+01 0.00000E+00
 -1      2775 1.00650E+02 3.96080E+01 0.00000E+00
 -1      2776 1.04400E+02 4.09070E+01 0.00000E+00
 -1      2777 1.05900E+02 4.09070E+01 0.00000E+00
 -1      2778 1.03650E+02 3.96080E+01 0.00000E+00
 -1      2779 1.07400E+02 4.09070E+01 0.00000E+00
 -1      2780 1.08900E+02 4.09070E+01 0.00000E+00
 -1      2781 1.06650E+02 3.96080E+01 0.00000E+00
 -1      2782 1.10400E+02 4.09070E+01 0.00000E+00
 -1      2783 1.11900E+02 4.09070E+01 0.00000E+00
 -1      2784 1.09650E+02 3.96080E+01 0.00000E+00
 -1      2785 1.13400E+02 4.09070E+01 0.00000E+00
 -1      2786 1.14900E+02 4.09070E+01 0.00000E+00
 -1      2787 1.12650E+02 3.96080E+01 0.00000E+00
 -1      2788 1.16400E+02 4.09070E+01 0.00000E+00
 -1      2789 1.17900E+02 4.09070E+01 0.00000E+00
 -1      2790 1.15650E+02 3.96080E+01 0.00000E+00
 -1      2791 1.19400E+02 4.09070E+01 0.00000E+00
 -1      2792 1.20900E+02 4.09070E+01 0.00000E+00
 -1      2793 1.18650E+02 3.96080E+01 0.00000E+00
 -1      2794 1.22400E+02 4.09070E+01 0.00000E+00
 -1      2795 1.23900E+02 4.09070E+01 0.00000E+00
 -1      2796 1.21650E+02 3.96080E+01 0.00000E+00
 -1      2797 1.25400E+02 4.09070E+01 0.00000E+00
 -1      2798 1.26900E+02 4.09070E+01 0.00000E+00
 -1      2799 1.24650E+02 3.96080E+01 0.00000E+00
 -1      2800 1.28400E+02 4.09070E+01 0.00000E+00
 -1      2801 1.29900E+02 4.09070E+01 0.00000E+00
 -1      2802 1.27650E+02 3.96080E+01 0.00000E+00
 -1      2803 1.31400E+02 4.09070E+01 0.00000E+00
 -1      2804 1.32900E+02 4.09070E+01 0.00000E+00
 -1      2805 1.30650E+02 3.96080E+01 0.00000E+00
 -1      2806 1.34400E+02 4.09070E+01 0.00000E+00
 -1      2807 1.35900E+02 4.09070E+01 0.00000E+00
 -1      2808 1.33650E+02 3.96080E+01 0.00000E+00
 -1      2809 1.37400E+02 4.09070E+01 0.00000E+00
 -1      2810 1.38900E+02 4.09070E+01 0.00000E+00
 -1      2811 1.36650E+02 3.96080E+01 0.00000E+00
 -1      2812 2.42850E+01 7.90325E+00 0.00000E+00
 -1      2813 2.27850E+01 7.90325E+00 0.00000E+00
 -1      2814 1.40706E+02 1.03250E+01 0.00000E+00
 -1      2815 1.40620E+02 8.46463E+00 0.00000E+00
 -1      2816 1.39120E+02 8.46463E+00 0.00000E+00
 -1      2817 2.12850E+01 7.90325E+00 0.00000E+00
 -1      2818 1.97850E+01 7.90325E+00 0.00000E+00
 -1      2819 2.20350E+01 9.20225E+00 0.00000E+00
 -1      2820 3.02850E+01 7.90325E+00 0.00000E+00
 -1      2821 2.87850E+01 7.90325E+00 0.00000E+00
 -1      2822 3.32850E+01 7.90325E+00 0.00000E+00
 -1      2823 3.17850E+01 7.90325E+00 0.00000E+00
 -1      2824 3.10350E+01 9.20225E+00 0.00000E+00
 -1      2825 3.62850E+01 7.90325E+00 0.00000E+00
 -1      2826 3.47850E+01 7.90325E+00 0.00000E+00
 -1      2827 3.40350E+01 9.20225E+00 0.00000E+00
 -1      2828 3.92850E+01 7.90325E+00 0.00000E+00
 -1      2829 3.77850E+01 7.90325E+00 0.00000E+00
 -1      2830 3.70350E+01 9.20225E+00 0.00000E+00
 -1      2831 4.22850E+01 7.90325E+00 0.00000E+00
 -1      2832 4.07850E+01 7.90325E+00 0.00000E+00
 -1      2833 4.00350E+01 9.20225E+00 0.00000E+00
 -1      2834 4.52850E+01 7.90325E+00 0.00000E+00
 -1      2835 4.37850E+01 7.90325E+00 0.00000E+00
 -1      2836 4.30350E+01 9.20225E+00 0.00000E+00
 -1      2837 4.82850E+01 7.90325E+00 0.00000E+00
 -1      2838 4.67850E+01 7.90325E+00 0.00000E+00
 -1      2839 4.60350E+01 9.20225E+00 0.00000E+00
 -1      2840 5.12850E+01 7.90325E+00 0.00000E+00
 -1      2841 4.97850E+01 7.90325E+00 0.00000E+00
 -1      2842 4.90350E+01 9.20225E+00 0.00000E+00
 -1      2843 5.42850E+01 7.90325E+00 0.00000E+00
 -1      2844 5.27850E+01 7.90325E+00 0.00000E+00
 -1      2845 5.20350E+01 9.20225E+00 0.00000E+00
 -1      2846 5.72850E+01 7.90325E+00 0.00000E+00
 -1      2847 5.57850E+01 7.90325E+00 0.00000E+00
 -1      2848 5.50350E+01 9.20225E+00 0.00000E+00
 -1      2849 6.02850E+01 7.90325E+00 0.00000E+00
 -1      2850 5.87850E+01 7.90325E+00 0.00000E+00
 -1      2851 5.80350E+01 9.20225E+00 0.00000E+00
 -1      2852 6.62850E+01 7.71316E+00 0.00000E+00
 -1      2853 6.47850E+01 7.71316E+00 0.00000E+00
 -1      2854 6.92850E+01 7.62938E+00 0.00000E+00
 -1      2855 6.77850E+01 7.62938E+00 0.00000E+00
 -1      2856 7.27865E+01 8.45328E+00 0.00000E+00
 -1      2857 7.12865E+01 8.45328E+00 0.00000E+00
 -1      2858 7.82850E+01 7.90325E+00 0.00000E+00
 -1      2859 7.67850E+01 7.90325E+00 0.00000E+00
 -1      2860 8.12850E+01 7.90325E+00 0.00000E+00
 -1      2861 7.97850E+01 7.90325E+00 0.00000E+00
 -1      2862 7.90350E+01 9.20225E+00 0.00000E+00
 -1      2863 8.42850E+01 7.90325E+00 0.00000E+00
 -1      2864 8.27850E+01 7.90325E+00 0.00000E+00
 -1      2865 8.20350E+01 9.20225E+00 0.00000E+00
 -1      2866 8.72850E+01 7.90325E+00 0.00000E+00
 -1      2867 8.57850E+01 7.90325E+00 0.00000E+00
 -1      2868 8.50350E+01 9.20225E+00 0.00000E+00
 -1      2869 9.02850E+01 7.90325E+00 0.00000E+00
 -1      2870 8.87850E+01 7.90325E+00 0.00000E+00
 -1      2871 8.80350E+01 9.20225E+00 0.00000E+00
 -1      2872 9.32850E+01 7.90325E+00 0.00000E+00
 -1      2873 9.17850E+01 7.90325E+00 0.00000E+00
 -1      2874 9.10350E+01 9.20225E+00 0.00000E+00
 -1      2875 9.62850E+01 7.90325E+00 0.00000E+00
 -1      2876 9.47850E+01 7.90325E+00 0.00000E+00
 -1      2877 9.40350E+01 9.20225E+00 0.00000E+00
 -1      2878 9.92850E+01 7.90325E+00 0.00000E+00
 -1      2879 9.77850E+01 7.90325E+00 0.00000E+00
 -1      2880 9.70350E+01 9.20225E+00 0.00000E+00
 -1      2881 1.02285E+02 7.90325E+00 0.00000E+00
 -1      2882 1.00785E+02 7.90325E+00 0.00000E+00
 -1      2883 1.00035E+02 9.20225E+00 0.00000E+00
 -1      2884 1.05285E+02 7.90325E+00 0.00000E+00
 -1      2885 1.03785E+02 7.90325E+00 0.00000E+00
 -1      2886 1.03035E+02 9.20225E+00 0.00000E+00
 -1      2887 1.08285E+02 7.90325E+00 0.00000E+00
 -1      2888 1.06785E+02 7.90325E+00 0.00000E+00
 -1      2889 1.06035E+02 9.20225E+00 0.00000E+00
 -1      2890 1.11285E+02 7.90325E+00 0.00000E+00
 -1      2891 1.09785E+02 7.90325E+00 0.00000E+00
 -1      2892 1.09035E+02 9.20225E+00 0.00000E+00
 -1      2893 1.14285E+02 7.90325E+00 0.00000E+00
 -1      2894 1.12785E+02 7.90325E+00 0.00000E+00
 -1      2895 1.12035E+02 9.20225E+00 0.00000E+00
 -1      2896 1.17285E+02 7.90325E+00 0.00000E+00
 -1      2897 1.15785E+02 7.90325E+00 0.00000E+00
 -1      2898 1.15035E+02 9.20225E+00 0.00000E+00
 -1      2899 1.20285E+02 7.90325E+00 0.00000E+00
 -1      2900 1.18785E+02 7.90325E+00 0.00000E+00
 -1      2901 1.18035E+02 9.20225E+00 0.00000E+00
 -1      2902 1.23285E+02 7.90325E+00 0.00000E+00
 -1      2903 1.21785E+02 7.90325E+00 0.00000E+00
 -1      2904 1.21035E+02 9.20225E+00 0.00000E+00
 -1      2905 1.26285E+02 7.90325E+00 0.00000E+00
 -1      2906 1.24785E+02 7.90325E+00 0.00000E+00
 -1      2907 1.24035E+02 9.20225E+00 0.00000E+00
 -1      2908 1.29285E+02 7.90325E+00 0.00000E+00
 -1      2909 1.27785E+02 7.90325E+00 0.00000E+00
 -1      2910 1.27035E+02 9.20225E+00 0.00000E+00
 -1      2911 1.32285E+02 7.90325E+00 0.00000E+00
 -1      2912 1.30785E+02 7.90325E+00 0.00000E+00
 -1      2913 1.30035E+02 9.20225E+00 0.00000E+00
 -1      2914 1.35285E+02 7.90325E+00 0.00000E+00
 -1      2915 1.33785E+02 7.90325E+00 0.00000E+00
 -1      2916 1.33035E+02 9.20225E+00 0.00000E+00
 -1      2917 1.37953E+02 8.18394E+00 0.00000E+00
 -1      2918 1.36453E+02 8.18394E+00 0.00000E+00
 -1      2919 1.35703E+02 9.48294E+00 0.00000E+00
 -1      2920 1.38038E+02 1.00443E+01 0.00000E+00
 -1      2921 1.40907E+02 2.42875E+01 0.00000E+00
 -1      2922 1.40907E+02 2.28125E+01 0.00000E+00
 -1      2923 1.39914E+02 4.09362E+01 0.00000E+00
 -1      2924 1.40928E+02 4.09655E+01 0.00000E+00
 -1      2925 1.39164E+02 3.96372E+01 0.00000E+00
 -1      2926 1.40907E+02 1.83875E+01 0.00000E+00
 -1      2927 1.40907E+02 1.69125E+01 0.00000E+00
 -1      2928 1.40907E+02 2.72375E+01 0.00000E+00
 -1      2929 1.40907E+02 2.57625E+01 0.00000E+00
 -1      2930 1.39608E+02 2.50250E+01 0.00000E+00
 -1      2931 1.40907E+02 2.13375E+01 0.00000E+00
 -1      2932 1.40907E+02 1.98625E+01 0.00000E+00
 -1      2933 1.39608E+02 1.91250E+01 0.00000E+00
 -1      2934 1.39608E+02 2.20750E+01 0.00000E+00
 -1      2935 1.82850E+01 7.90325E+00 0.00000E+00
 -1      2936 1.67850E+01 7.90325E+00 0.00000E+00
 -1      2937 1.90350E+01 9.20225E+00 0.00000E+00
 -1      2938 7.43978E+01 1.12343E+01 0.00000E+00
 -1      2939 7.51583E+01 1.17790E+01 0.00000E+00
 -1      2940 1.40907E+02 3.01375E+01 0.00000E+00
 -1      2941 1.40907E+02 2.86875E+01 0.00000E+00
 -1      2942 1.39608E+02 2.79500E+01 0.00000E+00
 -1      2943 1.40907E+02 3.30875E+01 0.00000E+00
 -1      2944 1.40907E+02 3.16125E+01 0.00000E+00
 -1      2945 1.39608E+02 3.08750E+01 0.00000E+00
 -1      2946 1.40907E+02 3.60375E+01 0.00000E+00
 -1      2947 1.40907E+02 3.45625E+01 0.00000E+00
 -1      2948 1.39608E+02 3.38250E+01 0.00000E+00
 -1      2949 7.83931E+01 1.39251E+01 0.00000E+00
 -1      2950 7.89964E+01 1.49834E+01 0.00000E+00
 -1      2951 7.95534E+01 1.59880E+01 0.00000E+00
 -1      2952 8.01103E+01 1.69925E+01 0.00000E+00
 -1      2953 8.01423E+01 1.49511E+01 0.00000E+00
 -1      2954 8.85168E+00 4.05347E+01 0.00000E+00
 -1      2955 1.02152E+01 4.07987E+01 0.00000E+00
 -1      2956 5.67017E+01 2.35961E+01 0.00000E+00
 -1      2957 5.66899E+01 2.23434E+01 0.00000E+00
 -1      2958 6.35965E+01 1.07723E+01 0.00000E+00
 -1      2959 6.48205E+01 1.00268E+01 0.00000E+00
 -1      2960 2.72850E+01 7.90325E+00 0.00000E+00
 -1      2961 2.57850E+01 7.90325E+00 0.00000E+00
 -1      2962 2.50350E+01 9.20225E+00 0.00000E+00
 -1      2963 2.80350E+01 9.20225E+00 0.00000E+00
 -1      2964 1.15576E+01 4.08528E+01 0.00000E+00
 -1      2965 1.30576E+01 4.08528E+01 0.00000E+00
 -1      2966 1.38076E+01 3.95538E+01 0.00000E+00
 -1      2967 1.11228E+01 3.94455E+01 0.00000E+00
 -1      2968 7.62269E+01 1.23736E+01 0.00000E+00
 -1      2969 7.72955E+01 1.29682E+01 0.00000E+00
 -1      2970 7.63215E+01 1.14381E+01 0.00000E+00
 -1      2971 9.09300E+00 1.68813E+01 0.00000E+00
 -1      2972 9.09300E+00 1.83563E+01 0.00000E+00
 -1      2973 1.03920E+01 1.90812E+01 0.00000E+00
 -1      2974 1.03920E+01 1.61437E+01 0.00000E+00
 -1      2975 1.52850E+01 7.90325E+00 0.00000E+00
 -1      2976 1.37850E+01 7.90325E+00 0.00000E+00
 -1      2977 1.30350E+01 9.20225E+00 0.00000E+00
 -1      2978 1.60350E+01 9.20225E+00 0.00000E+00
 -1      2979 8.05179E+01 1.86987E+01 0.00000E+00
 -1      2980 8.04627E+01 1.99465E+01 0.00000E+00
 -1      2981 7.46652E+01 3.19820E+01 0.00000E+00
 -1      2982 7.37060E+01 3.23659E+01 0.00000E+00
 -1      2983 9.09300E+00 3.15875E+01 0.00000E+00
 -1      2984 9.09300E+00 3.30625E+01 0.00000E+00
 -1      2985 8.91450E+00 8.42712E+00 0.00000E+00
 -1      2986 7.48818E+00 3.88019E+01 0.00000E+00
 -1      2987 6.15343E+01 1.19266E+01 0.00000E+00
 -1      2988 6.24730E+01 1.13572E+01 0.00000E+00
 -1      2989 5.82364E+01 1.62663E+01 0.00000E+00
 -1      2990 5.86821E+01 1.53460E+01 0.00000E+00
 -1      2991 1.41192E+02 3.96958E+01 0.00000E+00
 -1      2992 6.24814E+01 3.18975E+01 0.00000E+00
 -1      2993 6.16505E+01 3.10194E+01 0.00000E+00
 -1      2994 5.74059E+01 2.58484E+01 0.00000E+00
 -1      2995 5.70854E+01 2.49501E+01 0.00000E+00
 -1      2996 5.74783E+01 1.88133E+01 0.00000E+00
 -1      2997 5.77947E+01 1.75339E+01 0.00000E+00
 -1      2998 5.85267E+01 2.82764E+01 0.00000E+00
 -1      2999 5.78724E+01 2.70629E+01 0.00000E+00
 -1      3000 6.48297E+01 3.34025E+01 0.00000E+00
 -1      3001 6.36908E+01 3.28051E+01 0.00000E+00
 -1      3002 6.76781E+01 3.40742E+01 0.00000E+00
 -1      3003 6.63624E+01 3.39438E+01 0.00000E+00
 -1      3004 8.04588E+01 2.12072E+01 0.00000E+00
 -1      3005 8.07567E+01 2.23971E+01 0.00000E+00
 -1      3006 8.15028E+01 2.31500E+01 0.00000E+00
 -1      3007 8.15106E+01 2.06286E+01 0.00000E+00
 -1      3008 6.72068E+01 9.52045E+00 0.00000E+00
 -1      3009 6.84647E+01 9.57330E+00 0.00000E+00
 -1      3010 7.27473E+01 3.30298E+01 0.00000E+00
 -1      3011 7.17887E+01 3.36937E+01 0.00000E+00
 -1      3012 7.35456E+01 3.36340E+01 0.00000E+00
 -1      3013 7.88843E+01 2.84817E+01 0.00000E+00
 -1      3014 7.83040E+01 2.92731E+01 0.00000E+00
 -1      3015 8.01201E+01 2.83809E+01 0.00000E+00
 -1      3016 5.70636E+01 2.10315E+01 0.00000E+00
 -1      3017 5.72854E+01 2.00073E+01 0.00000E+00
 -1      3018 9.09300E+00 3.45313E+01 0.00000E+00
 -1      3019 9.09300E+00 3.60000E+01 0.00000E+00
 -1      3020 1.03920E+01 3.37938E+01 0.00000E+00
 -1      3021 1.03920E+01 2.49750E+01 0.00000E+00
 -1      3022 9.09300E+00 2.57000E+01 0.00000E+00
 -1      3023 9.09300E+00 2.71750E+01 0.00000E+00
 -1      3024 8.11068E+01 1.76618E+01 0.00000E+00
 -1      3025 8.21033E+01 1.83311E+01 0.00000E+00
 -1      3026 8.16957E+01 1.66249E+01 0.00000E+00
 -1      3027 6.83638E+01 3.50700E+01 0.00000E+00
 -1      3028 8.20463E+01 2.55233E+01 0.00000E+00
 -1      3029 8.10997E+01 2.60001E+01 0.00000E+00
 -1      3030 8.16471E+01 2.71127E+01 0.00000E+00
 -1      3031 5.66111E+01 1.91617E+01 0.00000E+00
 -1      3032 1.39608E+02 1.61875E+01 0.00000E+00
 -1      3033 1.40907E+02 1.54500E+01 0.00000E+00
 -1      3034 1.40907E+02 1.39875E+01 0.00000E+00
 -1      3035 6.92348E+01 9.09574E+00 0.00000E+00
 -1      3036 6.12753E+01 8.72063E+00 0.00000E+00
 -1      3037 6.05253E+01 1.00196E+01 0.00000E+00
 -1      3038 6.38987E+01 8.13569E+00 0.00000E+00
 -1      3039 6.23987E+01 8.13569E+00 0.00000E+00
 -1      3040 7.52850E+01 7.88073E+00 0.00000E+00
 -1      3041 7.37850E+01 7.88073E+00 0.00000E+00
 -1      3042 6.06446E+01 3.11010E+01 0.00000E+00
 -1      3043 1.40706E+02 1.17875E+01 0.00000E+00
 -1      3044 7.40388E+01 1.03912E+01 0.00000E+00
 -1      3045 7.48940E+01 1.00004E+01 0.00000E+00
 -1      3046 6.53947E+01 3.44045E+01 0.00000E+00
 -1      3047 6.44269E+01 3.48652E+01 0.00000E+00
 -1      3048 6.59596E+01 3.54065E+01 0.00000E+00
 -1      3049 7.84877E+01 1.29897E+01 0.00000E+00
 -1      3050 1.41192E+02 3.82207E+01 0.00000E+00
 -1      3051 5.86086E+01 2.91353E+01 0.00000E+00
 -1      3052 5.74528E+01 2.89752E+01 0.00000E+00
 -1      3053 5.86904E+01 2.99941E+01 0.00000E+00
 -1      3054 9.66450E+00 9.72612E+00 0.00000E+00
 -1      3055 1.09635E+01 1.04636E+01 0.00000E+00
 -1      3056 7.81817E+01 3.01884E+01 0.00000E+00
 -1      3057 7.80594E+01 3.11037E+01 0.00000E+00
 -1      3058 7.94175E+01 3.00876E+01 0.00000E+00
 -1      3059 6.26390E+01 1.02521E+01 0.00000E+00
 -1      3060 5.60544E+01 2.43334E+01 0.00000E+00
 -1      3061 7.66626E+01 3.21926E+01 0.00000E+00
 -1      3062 7.56639E+01 3.20873E+01 0.00000E+00
 -1      3063 7.55029E+01 3.30754E+01 0.00000E+00
 -1      3064 5.60445E+01 2.16675E+01 0.00000E+00
 -1      3065 9.09300E+00 2.86437E+01 0.00000E+00
 -1      3066 9.09300E+00 3.01187E+01 0.00000E+00
 -1      3067 1.03920E+01 3.08563E+01 0.00000E+00
 -1      3068 1.03920E+01 2.79188E+01 0.00000E+00
 -1      3069 6.46487E+01 9.24460E+00 0.00000E+00
 -1      3070 6.57068E+01 9.60424E+00 0.00000E+00
 -1      3071 6.99848E+01 8.07062E+00 0.00000E+00
 -1      3072 5.86445E+01 1.43281E+01 0.00000E+00
 -1      3073 5.86069E+01 1.33102E+01 0.00000E+00
 -1      3074 5.76498E+01 1.44145E+01 0.00000E+00
 -1      3075 5.69045E+01 2.69019E+01 0.00000E+00
 -1      3076 8.78718E+00 3.80644E+01 0.00000E+00
 -1      3077 7.12363E+01 9.91964E+00 0.00000E+00
 -1      3078 5.72457E+01 1.67000E+01 0.00000E+00
 -1      3079 7.35365E+01 9.72976E+00 0.00000E+00
 -1      3080 6.05607E+01 1.21146E+01 0.00000E+00
 -1      3081 6.05419E+01 1.10250E+01 0.00000E+00
 -1      3082 5.95516E+01 1.02076E+01 0.00000E+00
 -1      3083 5.95849E+01 1.22184E+01 0.00000E+00
 -1      3084 6.26525E+01 3.29556E+01 0.00000E+00
 -1      3085 6.16142E+01 3.31060E+01 0.00000E+00
 -1      3086 6.28236E+01 3.40137E+01 0.00000E+00
 -1      3087 7.11935E+01 3.47461E+01 0.00000E+00
 -1      3088 7.60350E+01 9.17973E+00 0.00000E+00
 -1      3089 1.39529E+02 3.85602E+01 0.00000E+00
 -1      3090 1.40542E+02 3.71145E+01 0.00000E+00
 -1      3091 1.39243E+02 3.63770E+01 0.00000E+00
 -1      3092 1.38514E+02 3.85310E+01 0.00000E+00
 -1      3093 1.16910E+01 1.24625E+01 0.00000E+00
 -1      3094 1.16910E+01 1.39375E+01 0.00000E+00
 -1      3095 1.89000E+01 3.83090E+01 0.00000E+00
 -1      3096 2.04000E+01 3.83090E+01 0.00000E+00
 -1      3097 2.19000E+01 3.83090E+01 0.00000E+00
 -1      3098 2.34000E+01 3.83090E+01 0.00000E+00
 -1      3099 2.11500E+01 3.70100E+01 0.00000E+00
 -1      3100 2.49000E+01 3.83090E+01 0.00000E+00
 -1      3101 2.64000E+01 3.83090E+01 0.00000E+00
 -1      3102 2.41500E+01 3.70100E+01 0.00000E+00
 -1      3103 2.79000E+01 3.83090E+01 0.00000E+00
 -1      3104 2.94000E+01 3.83090E+01 0.00000E+00
 -1      3105 2.71500E+01 3.70100E+01 0.00000E+00
 -1      3106 3.09000E+01 3.83090E+01 0.00000E+00
 -1      3107 3.24000E+01 3.83090E+01 0.00000E+00
 -1      3108 3.01500E+01 3.70100E+01 0.00000E+00
 -1      3109 3.39000E+01 3.83090E+01 0.00000E+00
 -1      3110 3.54000E+01 3.83090E+01 0.00000E+00
 -1      3111 3.31500E+01 3.70100E+01 0.00000E+00
 -1      3112 3.69000E+01 3.83090E+01 0.00000E+00
 -1      3113 3.84000E+01 3.83090E+01 0.00000E+00
 -1      3114 3.61500E+01 3.70100E+01 0.00000E+00
 -1      3115 3.99000E+01 3.83090E+01 0.00000E+00
 -1      3116 4.14000E+01 3.83090E+01 0.00000E+00
 -1      3117 3.91500E+01 3.70100E+01 0.00000E+00
 -1      3118 4.29000E+01 3.83090E+01 0.00000E+00
 -1      3119 4.44000E+01 3.83090E+01 0.00000E+00
 -1      3120 4.21500E+01 3.70100E+01 0.00000E+00
 -1      3121 4.59000E+01 3.83090E+01 0.00000E+00
 -1      3122 4.74000E+01 3.83090E+01 0.00000E+00
 -1      3123 4.51500E+01 3.70100E+01 0.00000E+00
 -1      3124 4.89000E+01 3.83090E+01 0.00000E+00
 -1      3125 5.04000E+01 3.83090E+01 0.00000E+00
 -1      3126 4.81500E+01 3.70100E+01 0.00000E+00
 -1      3127 5.19000E+01 3.83090E+01 0.00000E+00
 -1      3128 5.34000E+01 3.83090E+01 0.00000E+00
 -1      3129 5.11500E+01 3.70100E+01 0.00000E+00
 -1      3130 5.49000E+01 3.83090E+01 0.00000E+00
 -1      3131 5.64000E+01 3.83090E+01 0.00000E+00
 -1      3132 5.41500E+01 3.70100E+01 0.00000E+00
 -1      3133 5.79000E+01 3.83090E+01 0.00000E+00
 -1      3134 5.94000E+01 3.83090E+01 0.00000E+00
 -1      3135 5.71500E+01 3.70100E+01 0.00000E+00
 -1      3136 6.09000E+01 3.83090E+01 0.00000E+00
 -1      3137 6.24000E+01 3.83090E+01 0.00000E+00
 -1      3138 6.01500E+01 3.70100E+01 0.00000E+00
 -1      3139 6.40709E+01 3.77376E+01 0.00000E+00
 -1      3140 6.55709E+01 3.77376E+01 0.00000E+00
 -1      3141 6.99000E+01 3.83315E+01 0.00000E+00
 -1      3142 7.14000E+01 3.83315E+01 0.00000E+00
 -1      3143 7.29000E+01 3.83315E+01 0.00000E+00
 -1      3144 7.44000E+01 3.83315E+01 0.00000E+00
 -1      3145 7.21500E+01 3.70550E+01 0.00000E+00
 -1      3146 7.59000E+01 3.83315E+01 0.00000E+00
 -1      3147 7.74000E+01 3.83315E+01 0.00000E+00
 -1      3148 7.51500E+01 3.70550E+01 0.00000E+00
 -1      3149 7.89000E+01 3.83315E+01 0.00000E+00
 -1      3150 8.04000E+01 3.83315E+01 0.00000E+00
 -1      3151 7.81500E+01 3.70550E+01 0.00000E+00
 -1      3152 8.19000E+01 3.83315E+01 0.00000E+00
 -1      3153 8.34000E+01 3.83315E+01 0.00000E+00
 -1      3154 8.11500E+01 3.70550E+01 0.00000E+00
 -1      3155 8.49000E+01 3.83315E+01 0.00000E+00
 -1      3156 8.64000E+01 3.83315E+01 0.00000E+00
 -1      3157 8.41500E+01 3.70550E+01 0.00000E+00
 -1      3158 8.79000E+01 3.83315E+01 0.00000E+00
 -1      3159 8.94000E+01 3.83315E+01 0.00000E+00
 -1      3160 8.71500E+01 3.70550E+01 0.00000E+00
 -1      3161 9.09000E+01 3.83315E+01 0.00000E+00
 -1      3162 9.24000E+01 3.83315E+01 0.00000E+00
 -1      3163 9.01500E+01 3.70550E+01 0.00000E+00
 -1      3164 9.39000E+01 3.83315E+01 0.00000E+00
 -1      3165 9.54000E+01 3.83315E+01 0.00000E+00
 -1      3166 9.31500E+01 3.70550E+01 0.00000E+00
 -1      3167 9.69000E+01 3.83315E+01 0.00000E+00
 -1      3168 9.84000E+01 3.83315E+01 0.00000E+00
 -1      3169 9.61500E+01 3.70550E+01 0.00000E+00
 -1      3170 9.99000E+01 3.83315E+01 0.00000E+00
 -1      3171 1.01400E+02 3.83315E+01 0.00000E+00
 -1      3172 9.91500E+01 3.70550E+01 0.00000E+00
 -1      3173 1.02900E+02 3.83315E+01 0.00000E+00
 -1      3174 1.04400E+02 3.83315E+01 0.00000E+00
 -1      3175 1.02150E+02 3.70550E+01 0.00000E+00
 -1      3176 1.05900E+02 3.83315E+01 0.00000E+00
 -1      3177 1.07400E+02 3.83315E+01 0.00000E+00
 -1      3178 1.05150E+02 3.70550E+01 0.00000E+00
 -1      3179 1.08900E+02 3.83315E+01 0.00000E+00
 -1      3180 1.10400E+02 3.83315E+01 0.00000E+00
 -1      3181 1.08150E+02 3.70550E+01 0.00000E+00
 -1      3182 1.11900E+02 3.83315E+01 0.00000E+00
 -1      3183 1.13400E+02 3.83315E+01 0.00000E+00
 -1      3184 1.11150E+02 3.70550E+01 0.00000E+00
 -1      3185 1.14900E+02 3.83315E+01 0.00000E+00
 -1      3186 1.16400E+02 3.83315E+01 0.00000E+00
 -1      3187 1.14150E+02 3.70550E+01 0.00000E+00
 -1      3188 1.17900E+02 3.83315E+01 0.00000E+00
 -1      3189 1.19400E+02 3.83315E+01 0.00000E+00
 -1      3190 1.17150E+02 3.70550E+01 0.00000E+00
 -1      3191 1.20900E+02 3.83315E+01 0.00000E+00
 -1      3192 1.22400E+02 3.83315E+01 0.00000E+00
 -1      3193 1.20150E+02 3.70550E+01 0.00000E+00
 -1      3194 1.23900E+02 3.83315E+01 0.00000E+00
 -1      3195 1.25400E+02 3.83315E+01 0.00000E+00
 -1      3196 1.23150E+02 3.70550E+01 0.00000E+00
 -1      3197 1.26900E+02 3.83315E+01 0.00000E+00
 -1      3198 1.28400E+02 3.83315E+01 0.00000E+00
 -1      3199 1.26150E+02 3.70550E+01 0.00000E+00
 -1      3200 1.29900E+02 3.83315E+01 0.00000E+00
 -1      3201 1.31400E+02 3.83315E+01 0.00000E+00
 -1      3202 1.29150E+02 3.70550E+01 0.00000E+00
 -1      3203 1.32900E+02 3.83315E+01 0.00000E+00
 -1      3204 1.34400E+02 3.83315E+01 0.00000E+00
 -1      3205 1.32150E+02 3.70550E+01 0.00000E+00
 -1      3206 1.35707E+02 3.84313E+01 0.00000E+00
 -1      3207 1.37207E+02 3.84313E+01 0.00000E+00
 -1      3208 1.37572E+02 3.73543E+01 0.00000E+00
 -1      3209 1.34957E+02 3.71548E+01 0.00000E+00
 -1      3210 2.27850E+01 1.05013E+01 0.00000E+00
 -1      3211 2.12850E+01 1.05013E+01 0.00000E+00
 -1      3212 3.47850E+01 1.05013E+01 0.00000E+00
 -1      3213 3.32850E+01 1.05013E+01 0.00000E+00
 -1      3214 3.17850E+01 1.05013E+01 0.00000E+00
 -1      3215 3.02850E+01 1.05013E+01 0.00000E+00
 -1      3216 3.25350E+01 1.18003E+01 0.00000E+00
 -1      3217 4.07850E+01 1.05013E+01 0.00000E+00
 -1      3218 3.92850E+01 1.05013E+01 0.00000E+00
 -1      3219 4.37850E+01 1.05013E+01 0.00000E+00
 -1      3220 4.22850E+01 1.05013E+01 0.00000E+00
 -1      3221 4.15350E+01 1.18003E+01 0.00000E+00
 -1      3222 4.67850E+01 1.05013E+01 0.00000E+00
 -1      3223 4.52850E+01 1.05013E+01 0.00000E+00
 -1      3224 4.45350E+01 1.18003E+01 0.00000E+00
 -1      3225 4.97850E+01 1.05013E+01 0.00000E+00
 -1      3226 4.82850E+01 1.05013E+01 0.00000E+00
 -1      3227 4.75350E+01 1.18003E+01 0.00000E+00
 -1      3228 5.27850E+01 1.05013E+01 0.00000E+00
 -1      3229 5.12850E+01 1.05013E+01 0.00000E+00
 -1      3230 5.05350E+01 1.18003E+01 0.00000E+00
 -1      3231 5.57850E+01 1.05013E+01 0.00000E+00
 -1      3232 5.42850E+01 1.05013E+01 0.00000E+00
 -1      3233 5.35350E+01 1.18003E+01 0.00000E+00
 -1      3234 5.84183E+01 1.03544E+01 0.00000E+00
 -1      3235 5.69183E+01 1.03544E+01 0.00000E+00
 -1      3236 5.61683E+01 1.16534E+01 0.00000E+00
 -1      3237 5.84350E+01 1.13598E+01 0.00000E+00
 -1      3238 6.70350E+01 8.73829E+00 0.00000E+00
 -1      3239 6.03242E+01 3.21813E+01 0.00000E+00
 -1      3240 5.95257E+01 3.12344E+01 0.00000E+00
 -1      3241 7.97850E+01 1.03949E+01 0.00000E+00
 -1      3242 7.82850E+01 1.03949E+01 0.00000E+00
 -1      3243 8.87850E+01 1.05013E+01 0.00000E+00
 -1      3244 8.72850E+01 1.05013E+01 0.00000E+00
 -1      3245 9.17850E+01 1.05013E+01 0.00000E+00
 -1      3246 9.02850E+01 1.05013E+01 0.00000E+00
 -1      3247 8.95350E+01 1.18003E+01 0.00000E+00
 -1      3248 9.47850E+01 1.05013E+01 0.00000E+00
 -1      3249 9.32850E+01 1.05013E+01 0.00000E+00
 -1      3250 9.25350E+01 1.18003E+01 0.00000E+00
 -1      3251 9.77850E+01 1.05013E+01 0.00000E+00
 -1      3252 9.62850E+01 1.05013E+01 0.00000E+00
 -1      3253 9.55350E+01 1.18003E+01 0.00000E+00
 -1      3254 1.00785E+02 1.05013E+01 0.00000E+00
 -1      3255 9.92850E+01 1.05013E+01 0.00000E+00
 -1      3256 9.85350E+01 1.18003E+01 0.00000E+00
 -1      3257 1.03785E+02 1.05013E+01 0.00000E+00
 -1      3258 1.02285E+02 1.05013E+01 0.00000E+00
 -1      3259 1.01535E+02 1.18003E+01 0.00000E+00
 -1      3260 1.06785E+02 1.05013E+01 0.00000E+00
 -1      3261 1.05285E+02 1.05013E+01 0.00000E+00
 -1      3262 1.04535E+02 1.18003E+01 0.00000E+00
 -1      3263 1.09785E+02 1.05013E+01 0.00000E+00
 -1      3264 1.08285E+02 1.05013E+01 0.00000E+00
 -1      3265 1.07535E+02 1.18003E+01 0.00000E+00
 -1      3266 1.12785E+02 1.05013E+01 0.00000E+00
 -1      3267 1.11285E+02 1.05013E+01 0.00000E+00
 -1      3268 1.10535E+02 1.18003E+01 0.00000E+00
 -1      3269 1.15785E+02 1.05013E+01 0.00000E+00
 -1      3270 1.14285E+02 1.05013E+01 0.00000E+00
 -1      3271 1.13535E+02 1.18003E+01 0.00000E+00
 -1      3272 1.18785E+02 1.05013E+01 0.00000E+00
 -1      3273 1.17285E+02 1.05013E+01 0.00000E+00
 -1      3274 1.16535E+02 1.18003E+01 0.00000E+00
 -1      3275 1.21785E+02 1.05013E+01 0.00000E+00
 -1      3276 1.20285E+02 1.05013E+01 0.00000E+00
 -1      3277 1.19535E+02 1.18003E+01 0.00000E+00
 -1      3278 1.24785E+02 1.05013E+01 0.00000E+00
 -1      3279 1.23285E+02 1.05013E+01 0.00000E+00
 -1      3280 1.22535E+02 1.18003E+01 0.00000E+00
 -1      3281 1.27785E+02 1.05013E+01 0.00000E+00
 -1      3282 1.26285E+02 1.05013E+01 0.00000E+00
 -1      3283 1.25535E+02 1.18003E+01 0.00000E+00
 -1      3284 1.30785E+02 1.05013E+01 0.00000E+00
 -1      3285 1.29285E+02 1.05013E+01 0.00000E+00
 -1      3286 1.28535E+02 1.18003E+01 0.00000E+00
 -1      3287 1.33785E+02 1.05013E+01 0.00000E+00
 -1      3288 1.32285E+02 1.05013E+01 0.00000E+00
 -1      3289 1.31535E+02 1.18003E+01 0.00000E+00
 -1      3290 1.16910E+01 2.12875E+01 0.00000E+00
 -1      3291 1.16910E+01 2.27625E+01 0.00000E+00
 -1      3292 1.97850E+01 1.05013E+01 0.00000E+00
 -1      3293 1.82850E+01 1.05013E+01 0.00000E+00
 -1      3294 2.05350E+01 1.18003E+01 0.00000E+00
 -1      3295 1.38309E+02 2.57625E+01 0.00000E+00
 -1      3296 1.38309E+02 2.42875E+01 0.00000E+00
 -1      3297 1.38309E+02 3.45625E+01 0.00000E+00
 -1      3298 1.38309E+02 3.30875E+01 0.00000E+00
 -1      3299 1.38309E+02 2.86625E+01 0.00000E+00
 -1      3300 1.38309E+02 2.72125E+01 0.00000E+00
 -1      3301 1.37010E+02 2.64750E+01 0.00000E+00
 -1      3302 8.06871E+01 1.39924E+01 0.00000E+00
 -1      3303 8.12440E+01 1.49969E+01 0.00000E+00
 -1      3304 6.89935E+01 3.61535E+01 0.00000E+00
 -1      3305 6.75572E+01 3.60292E+01 0.00000E+00
 -1      3306 1.38309E+02 3.16125E+01 0.00000E+00
 -1      3307 1.38309E+02 3.01375E+01 0.00000E+00
 -1      3308 1.37010E+02 2.94000E+01 0.00000E+00
 -1      3309 1.37010E+02 3.23500E+01 0.00000E+00
 -1      3310 5.53405E+01 2.52671E+01 0.00000E+00
 -1      3311 5.49568E+01 2.39130E+01 0.00000E+00
 -1      3312 8.57850E+01 1.05013E+01 0.00000E+00
 -1      3313 8.42850E+01 1.05013E+01 0.00000E+00
 -1      3314 8.65350E+01 1.18003E+01 0.00000E+00
 -1      3315 8.27850E+01 1.04481E+01 0.00000E+00
 -1      3316 8.12850E+01 1.04481E+01 0.00000E+00
 -1      3317 8.05350E+01 1.16408E+01 0.00000E+00
 -1      3318 8.35350E+01 1.17471E+01 0.00000E+00
 -1      3319 1.39407E+02 1.25250E+01 0.00000E+00
 -1      3320 3.77850E+01 1.05013E+01 0.00000E+00
 -1      3321 3.62850E+01 1.05013E+01 0.00000E+00
 -1      3322 3.55350E+01 1.18003E+01 0.00000E+00
 -1      3323 3.85350E+01 1.18003E+01 0.00000E+00
 -1      3324 7.63940E+01 1.00229E+01 0.00000E+00
 -1      3325 1.59000E+01 3.83090E+01 0.00000E+00
 -1      3326 1.74000E+01 3.83090E+01 0.00000E+00
 -1      3327 1.81500E+01 3.70100E+01 0.00000E+00
 -1      3328 5.48717E+01 2.20426E+01 0.00000E+00
 -1      3329 5.52455E+01 2.07307E+01 0.00000E+00
 -1      3330 5.54384E+01 1.95367E+01 0.00000E+00
 -1      3331 5.56312E+01 1.83428E+01 0.00000E+00
 -1      3332 5.42656E+01 1.99118E+01 0.00000E+00
 -1      3333 5.60244E+01 2.79369E+01 0.00000E+00
 -1      3334 5.55579E+01 2.67224E+01 0.00000E+00
 -1      3335 1.00862E+01 3.73269E+01 0.00000E+00
 -1      3336 1.26488E+01 1.02017E+01 0.00000E+00
 -1      3337 1.20772E+01 1.14631E+01 0.00000E+00
 -1      3338 1.33763E+01 1.22006E+01 0.00000E+00
 -1      3339 1.41488E+01 1.02017E+01 0.00000E+00
 -1      3340 7.16185E+01 3.56764E+01 0.00000E+00
 -1      3341 7.02250E+01 3.61247E+01 0.00000E+00
 -1      3342 7.82126E+01 1.18102E+01 0.00000E+00
 -1      3343 7.93102E+01 1.27671E+01 0.00000E+00
 -1      3344 7.46563E+01 3.42137E+01 0.00000E+00
 -1      3345 7.36976E+01 3.48776E+01 0.00000E+00
 -1      3346 8.13045E+01 2.86410E+01 0.00000E+00
 -1      3347 8.07242E+01 2.94323E+01 0.00000E+00
 -1      3348 5.60568E+01 1.69966E+01 0.00000E+00
 -1      3349 5.64985E+01 1.57289E+01 0.00000E+00
 -1      3350 1.16910E+01 2.42375E+01 0.00000E+00
 -1      3351 1.16910E+01 2.57125E+01 0.00000E+00
 -1      3352 1.29900E+01 2.35000E+01 0.00000E+00
 -1      3353 8.22405E+01 1.56662E+01 0.00000E+00
 -1      3354 8.32370E+01 1.63355E+01 0.00000E+00
 -1      3355 8.27853E+01 1.47075E+01 0.00000E+00
 -1      3356 6.33209E+01 3.64386E+01 0.00000E+00
 -1      3357 8.27676E+01 2.44774E+01 0.00000E+00
 -1      3358 8.33150E+01 2.55899E+01 0.00000E+00
 -1      3359 1.38309E+02 1.69188E+01 0.00000E+00
 -1      3360 1.38309E+02 1.54563E+01 0.00000E+00
 -1      3361 6.94185E+01 3.70838E+01 0.00000E+00
 -1      3362 1.16910E+01 3.30594E+01 0.00000E+00
 -1      3363 1.16910E+01 3.45281E+01 0.00000E+00
 -1      3364 1.32152E+01 3.82007E+01 0.00000E+00
 -1      3365 1.45576E+01 3.82548E+01 0.00000E+00
 -1      3366 1.53076E+01 3.69558E+01 0.00000E+00
 -1      3367 6.71685E+01 3.83603E+01 0.00000E+00
 -1      3368 6.86685E+01 3.83603E+01 0.00000E+00
 -1      3369 1.37010E+02 2.35500E+01 0.00000E+00
 -1      3370 1.38309E+02 2.28125E+01 0.00000E+00
 -1      3371 1.38309E+02 2.13375E+01 0.00000E+00
 -1      3372 1.14286E+01 3.73811E+01 0.00000E+00
 -1      3373 7.74626E+01 1.06175E+01 0.00000E+00
 -1      3374 8.23701E+01 2.00009E+01 0.00000E+00
 -1      3375 8.23662E+01 2.12616E+01 0.00000E+00
 -1      3376 2.95350E+01 1.18003E+01 0.00000E+00
 -1      3377 2.87850E+01 1.05013E+01 0.00000E+00
 -1      3378 2.72850E+01 1.05013E+01 0.00000E+00
 -1      3379 5.44604E+01 2.63020E+01 0.00000E+00
 -1      3380 1.34953E+02 1.07819E+01 0.00000E+00
 -1      3381 1.34203E+02 1.20809E+01 0.00000E+00
 -1      3382 1.36120E+02 1.10626E+01 0.00000E+00
 -1      3383 1.16910E+01 1.98188E+01 0.00000E+00
 -1      3384 1.29900E+01 2.05562E+01 0.00000E+00
 -1      3385 1.16910E+01 1.83500E+01 0.00000E+00
 -1      3386 1.38309E+02 1.98656E+01 0.00000E+00
 -1      3387 1.38309E+02 1.83906E+01 0.00000E+00
 -1      3388 1.37010E+02 1.76594E+01 0.00000E+00
 -1      3389 1.37010E+02 2.06031E+01 0.00000E+00
 -1      3390 1.29900E+01 1.46687E+01 0.00000E+00
 -1      3391 1.16910E+01 1.54063E+01 0.00000E+00
 -1      3392 1.16910E+01 1.68750E+01 0.00000E+00
 -1      3393 8.22512E+01 2.81641E+01 0.00000E+00
 -1      3394 6.65894E+01 3.64899E+01 0.00000E+00
 -1      3395 5.34440E+01 2.39098E+01 0.00000E+00
 -1      3396 5.41578E+01 2.29762E+01 0.00000E+00
 -1      3397 5.33588E+01 2.20394E+01 0.00000E+00
 -1      3398 5.61062E+01 2.87957E+01 0.00000E+00
 -1      3399 5.47596E+01 2.86161E+01 0.00000E+00
 -1      3400 5.61880E+01 2.96545E+01 0.00000E+00
 -1      3401 6.27559E+01 3.54366E+01 0.00000E+00
 -1      3402 8.08102E+01 1.28203E+01 0.00000E+00
 -1      3403 8.19119E+01 1.28661E+01 0.00000E+00
 -1      3404 8.06019E+01 3.03476E+01 0.00000E+00
 -1      3405 5.83700E+01 3.10744E+01 0.00000E+00
 -1      3406 6.04953E+01 3.32394E+01 0.00000E+00
 -1      3407 5.93764E+01 3.33728E+01 0.00000E+00
 -1      3408 6.06664E+01 3.42975E+01 0.00000E+00
 -1      3409 7.91342E+01 3.19910E+01 0.00000E+00
 -1      3410 7.78984E+01 3.20918E+01 0.00000E+00
 -1      3411 7.77374E+01 3.30799E+01 0.00000E+00
 -1      3412 1.38274E+02 1.38503E+01 0.00000E+00
 -1      3413 1.38073E+02 1.16503E+01 0.00000E+00
 -1      3414 1.36905E+02 1.13696E+01 0.00000E+00
 -1      3415 1.36975E+02 1.45815E+01 0.00000E+00
 -1      3416 8.35479E+01 1.79272E+01 0.00000E+00
 -1      3417 8.29590E+01 1.89641E+01 0.00000E+00
 -1      3418 8.38146E+01 1.95970E+01 0.00000E+00
 -1      3419 1.37758E+02 3.64969E+01 0.00000E+00
 -1      3420 1.38123E+02 3.54199E+01 0.00000E+00
 -1      3421 1.36824E+02 3.46824E+01 0.00000E+00
 -1      3422 1.36451E+02 3.63971E+01 0.00000E+00
 -1      3423 5.64609E+01 1.47110E+01 0.00000E+00
 -1      3424 5.64233E+01 1.36931E+01 0.00000E+00
 -1      3425 5.52720E+01 1.50075E+01 0.00000E+00
 -1      3426 2.57850E+01 1.05013E+01 0.00000E+00
 -1      3427 2.42850E+01 1.05013E+01 0.00000E+00
 -1      3428 2.65350E+01 1.18003E+01 0.00000E+00
 -1      3429 5.85903E+01 1.23048E+01 0.00000E+00
 -1      3430 5.48840E+01 1.73716E+01 0.00000E+00
 -1      3431 2.35350E+01 1.18003E+01 0.00000E+00
 -1      3432 7.56549E+01 3.43190E+01 0.00000E+00
 -1      3433 1.69669E+01 1.03515E+01 0.00000E+00
 -1      3434 1.54669E+01 1.03515E+01 0.00000E+00
 -1      3435 1.50806E+01 1.13509E+01 0.00000E+00
 -1      3436 1.77169E+01 1.16505E+01 0.00000E+00
 -1      3437 8.25688E+01 2.22392E+01 0.00000E+00
 -1      3438 8.25650E+01 2.34999E+01 0.00000E+00
 -1      3439 8.38336E+01 2.35665E+01 0.00000E+00
 -1      3440 8.34283E+01 2.16115E+01 0.00000E+00
 -1      3441 1.16910E+01 3.01219E+01 0.00000E+00
 -1      3442 1.16910E+01 3.15906E+01 0.00000E+00
 -1      3443 1.29900E+01 3.23250E+01 0.00000E+00
 -1      3444 1.34776E+01 3.53477E+01 0.00000E+00
 -1      3445 1.21786E+01 3.60821E+01 0.00000E+00
 -1      3446 2.34000E+01 3.57110E+01 0.00000E+00
 -1      3447 2.49000E+01 3.57110E+01 0.00000E+00
 -1      3448 2.64000E+01 3.57110E+01 0.00000E+00
 -1      3449 2.79000E+01 3.57110E+01 0.00000E+00
 -1      3450 2.56500E+01 3.44120E+01 0.00000E+00
 -1      3451 2.94000E+01 3.57110E+01 0.00000E+00
 -1      3452 3.09000E+01 3.57110E+01 0.00000E+00
 -1      3453 2.86500E+01 3.44120E+01 0.00000E+00
 -1      3454 3.24000E+01 3.57110E+01 0.00000E+00
 -1      3455 3.39000E+01 3.57110E+01 0.00000E+00
 -1      3456 3.16500E+01 3.44120E+01 0.00000E+00
 -1      3457 3.54000E+01 3.57110E+01 0.00000E+00
 -1      3458 3.69000E+01 3.57110E+01 0.00000E+00
 -1      3459 3.46500E+01 3.44120E+01 0.00000E+00
 -1      3460 3.84000E+01 3.57110E+01 0.00000E+00
 -1      3461 3.99000E+01 3.57110E+01 0.00000E+00
 -1      3462 3.76500E+01 3.44120E+01 0.00000E+00
 -1      3463 4.14000E+01 3.57110E+01 0.00000E+00
 -1      3464 4.29000E+01 3.57110E+01 0.00000E+00
 -1      3465 4.06500E+01 3.44120E+01 0.00000E+00
 -1      3466 4.44000E+01 3.57110E+01 0.00000E+00
 -1      3467 4.59000E+01 3.57110E+01 0.00000E+00
 -1      3468 4.36500E+01 3.44120E+01 0.00000E+00
 -1      3469 4.74000E+01 3.57110E+01 0.00000E+00
 -1      3470 4.89000E+01 3.57110E+01 0.00000E+00
 -1      3471 4.66500E+01 3.44120E+01 0.00000E+00
 -1      3472 5.04000E+01 3.57110E+01 0.00000E+00
 -1      3473 5.19000E+01 3.57110E+01 0.00000E+00
 -1      3474 4.96500E+01 3.44120E+01 0.00000E+00
 -1      3475 5.34000E+01 3.57110E+01 0.00000E+00
 -1      3476 5.49000E+01 3.57110E+01 0.00000E+00
 -1      3477 5.26500E+01 3.44120E+01 0.00000E+00
 -1      3478 5.90987E+01 3.57205E+01 0.00000E+00
 -1      3479 6.05987E+01 3.57205E+01 0.00000E+00
 -1      3480 8.47265E+01 2.57917E+01 0.00000E+00
 -1      3481 8.40052E+01 2.68376E+01 0.00000E+00
 -1      3482 7.42291E+01 3.62562E+01 0.00000E+00
 -1      3483 7.57291E+01 3.62562E+01 0.00000E+00
 -1      3484 7.78116E+01 3.50171E+01 0.00000E+00
 -1      3485 7.93116E+01 3.50171E+01 0.00000E+00
 -1      3486 8.34000E+01 3.57560E+01 0.00000E+00
 -1      3487 8.49000E+01 3.57560E+01 0.00000E+00
 -1      3488 8.64000E+01 3.57560E+01 0.00000E+00
 -1      3489 8.79000E+01 3.57560E+01 0.00000E+00
 -1      3490 8.56500E+01 3.44570E+01 0.00000E+00
 -1      3491 8.94000E+01 3.57560E+01 0.00000E+00
 -1      3492 9.09000E+01 3.57560E+01 0.00000E+00
 -1      3493 8.86500E+01 3.44570E+01 0.00000E+00
 -1      3494 9.24000E+01 3.57560E+01 0.00000E+00
 -1      3495 9.39000E+01 3.57560E+01 0.00000E+00
 -1      3496 9.16500E+01 3.44570E+01 0.00000E+00
 -1      3497 9.54000E+01 3.57560E+01 0.00000E+00
 -1      3498 9.69000E+01 3.57560E+01 0.00000E+00
 -1      3499 9.46500E+01 3.44570E+01 0.00000E+00
 -1      3500 9.84000E+01 3.57560E+01 0.00000E+00
 -1      3501 9.99000E+01 3.57560E+01 0.00000E+00
 -1      3502 9.76500E+01 3.44570E+01 0.00000E+00
 -1      3503 1.01400E+02 3.57560E+01 0.00000E+00
 -1      3504 1.02900E+02 3.57560E+01 0.00000E+00
 -1      3505 1.00650E+02 3.44570E+01 0.00000E+00
 -1      3506 1.04400E+02 3.57560E+01 0.00000E+00
 -1      3507 1.05900E+02 3.57560E+01 0.00000E+00
 -1      3508 1.03650E+02 3.44570E+01 0.00000E+00
 -1      3509 1.07400E+02 3.57560E+01 0.00000E+00
 -1      3510 1.08900E+02 3.57560E+01 0.00000E+00
 -1      3511 1.06650E+02 3.44570E+01 0.00000E+00
 -1      3512 1.10400E+02 3.57560E+01 0.00000E+00
 -1      3513 1.11900E+02 3.57560E+01 0.00000E+00
 -1      3514 1.09650E+02 3.44570E+01 0.00000E+00
 -1      3515 1.13400E+02 3.57560E+01 0.00000E+00
 -1      3516 1.14900E+02 3.57560E+01 0.00000E+00
 -1      3517 1.12650E+02 3.44570E+01 0.00000E+00
 -1      3518 1.16400E+02 3.57560E+01 0.00000E+00
 -1      3519 1.17900E+02 3.57560E+01 0.00000E+00
 -1      3520 1.15650E+02 3.44570E+01 0.00000E+00
 -1      3521 1.19400E+02 3.57560E+01 0.00000E+00
 -1      3522 1.20900E+02 3.57560E+01 0.00000E+00
 -1      3523 1.18650E+02 3.44570E+01 0.00000E+00
 -1      3524 1.22400E+02 3.57560E+01 0.00000E+00
 -1      3525 1.23900E+02 3.57560E+01 0.00000E+00
 -1      3526 1.21650E+02 3.44570E+01 0.00000E+00
 -1      3527 1.25400E+02 3.57560E+01 0.00000E+00
 -1      3528 1.26900E+02 3.57560E+01 0.00000E+00
 -1      3529 1.24650E+02 3.44570E+01 0.00000E+00
 -1      3530 1.28400E+02 3.57560E+01 0.00000E+00
 -1      3531 1.29900E+02 3.57560E+01 0.00000E+00
 -1      3532 1.27650E+02 3.44570E+01 0.00000E+00
 -1      3533 1.31400E+02 3.57560E+01 0.00000E+00
 -1      3534 1.32900E+02 3.57560E+01 0.00000E+00
 -1      3535 1.30650E+02 3.44570E+01 0.00000E+00
 -1      3536 5.31571E+01 2.03453E+01 0.00000E+00
 -1      3537 5.33500E+01 1.91513E+01 0.00000E+00
 -1      3538 3.32850E+01 1.30992E+01 0.00000E+00
 -1      3539 3.17850E+01 1.30992E+01 0.00000E+00
 -1      3540 5.74569E+01 1.24516E+01 0.00000E+00
 -1      3541 4.52850E+01 1.30992E+01 0.00000E+00
 -1      3542 4.37850E+01 1.30992E+01 0.00000E+00
 -1      3543 4.22850E+01 1.30992E+01 0.00000E+00
 -1      3544 4.07850E+01 1.30992E+01 0.00000E+00
 -1      3545 4.30350E+01 1.43982E+01 0.00000E+00
 -1      3546 5.12850E+01 1.30992E+01 0.00000E+00
 -1      3547 4.97850E+01 1.30992E+01 0.00000E+00
 -1      3548 2.12850E+01 1.30992E+01 0.00000E+00
 -1      3549 1.97850E+01 1.30992E+01 0.00000E+00
 -1      3550 9.62850E+01 1.30992E+01 0.00000E+00
 -1      3551 9.47850E+01 1.30992E+01 0.00000E+00
 -1      3552 2.04000E+01 3.57110E+01 0.00000E+00
 -1      3553 2.19000E+01 3.57110E+01 0.00000E+00
 -1      3554 2.26500E+01 3.44120E+01 0.00000E+00
 -1      3555 9.32850E+01 1.30992E+01 0.00000E+00
 -1      3556 9.17850E+01 1.30992E+01 0.00000E+00
 -1      3557 9.40350E+01 1.43982E+01 0.00000E+00
 -1      3558 9.02850E+01 1.30992E+01 0.00000E+00
 -1      3559 8.87850E+01 1.30992E+01 0.00000E+00
 -1      3560 9.10350E+01 1.43982E+01 0.00000E+00
 -1      3561 9.92850E+01 1.30992E+01 0.00000E+00
 -1      3562 9.77850E+01 1.30992E+01 0.00000E+00
 -1      3563 9.70350E+01 1.43982E+01 0.00000E+00
 -1      3564 1.02285E+02 1.30992E+01 0.00000E+00
 -1      3565 1.00785E+02 1.30992E+01 0.00000E+00
 -1      3566 1.00035E+02 1.43982E+01 0.00000E+00
 -1      3567 1.05285E+02 1.30992E+01 0.00000E+00
 -1      3568 1.03785E+02 1.30992E+01 0.00000E+00
 -1      3569 1.03035E+02 1.43982E+01 0.00000E+00
 -1      3570 1.08285E+02 1.30992E+01 0.00000E+00
 -1      3571 1.06785E+02 1.30992E+01 0.00000E+00
 -1      3572 1.06035E+02 1.43982E+01 0.00000E+00
 -1      3573 1.11285E+02 1.30992E+01 0.00000E+00
 -1      3574 1.09785E+02 1.30992E+01 0.00000E+00
 -1      3575 1.09035E+02 1.43982E+01 0.00000E+00
 -1      3576 1.14285E+02 1.30992E+01 0.00000E+00
 -1      3577 1.12785E+02 1.30992E+01 0.00000E+00
 -1      3578 1.12035E+02 1.43982E+01 0.00000E+00
 -1      3579 1.17285E+02 1.30992E+01 0.00000E+00
 -1      3580 1.15785E+02 1.30992E+01 0.00000E+00
 -1      3581 1.15035E+02 1.43982E+01 0.00000E+00
 -1      3582 1.20285E+02 1.30992E+01 0.00000E+00
 -1      3583 1.18785E+02 1.30992E+01 0.00000E+00
 -1      3584 1.18035E+02 1.43982E+01 0.00000E+00
 -1      3585 1.23285E+02 1.30992E+01 0.00000E+00
 -1      3586 1.21785E+02 1.30992E+01 0.00000E+00
 -1      3587 1.21035E+02 1.43982E+01 0.00000E+00
 -1      3588 1.26285E+02 1.30992E+01 0.00000E+00
 -1      3589 1.24785E+02 1.30992E+01 0.00000E+00
 -1      3590 1.24035E+02 1.43982E+01 0.00000E+00
 -1      3591 1.29285E+02 1.30992E+01 0.00000E+00
 -1      3592 1.27785E+02 1.30992E+01 0.00000E+00
 -1      3593 1.27035E+02 1.43982E+01 0.00000E+00
 -1      3594 1.32285E+02 1.30992E+01 0.00000E+00
 -1      3595 1.30785E+02 1.30992E+01 0.00000E+00
 -1      3596 1.30035E+02 1.43982E+01 0.00000E+00
 -1      3597 8.32217E+01 1.26412E+01 0.00000E+00
 -1      3598 8.30986E+01 1.38134E+01 0.00000E+00
 -1      3599 8.40951E+01 1.44826E+01 0.00000E+00
 -1      3600 8.47217E+01 1.26944E+01 0.00000E+00
 -1      3601 1.35711E+02 2.72000E+01 0.00000E+00
 -1      3602 1.35711E+02 2.57500E+01 0.00000E+00
 -1      3603 8.17476E+01 3.06805E+01 0.00000E+00
 -1      3604 8.04409E+01 3.13358E+01 0.00000E+00
 -1      3605 8.02799E+01 3.23239E+01 0.00000E+00
 -1      3606 7.31185E+01 3.56764E+01 0.00000E+00
 -1      3607 7.65758E+01 3.51179E+01 0.00000E+00
 -1      3608 5.34723E+01 2.71935E+01 0.00000E+00
 -1      3609 5.32549E+01 2.57381E+01 0.00000E+00
 -1      3610 8.75033E+01 1.28968E+01 0.00000E+00
 -1      3611 8.60033E+01 1.28968E+01 0.00000E+00
 -1      3612 8.56901E+01 1.37909E+01 0.00000E+00
 -1      3613 8.82533E+01 1.41958E+01 0.00000E+00
 -1      3614 1.16910E+01 2.71844E+01 0.00000E+00
 -1      3615 1.16910E+01 2.86531E+01 0.00000E+00
 -1      3616 1.29900E+01 2.93875E+01 0.00000E+00
 -1      3617 8.36626E+01 2.83659E+01 0.00000E+00
 -1      3618 8.33200E+01 2.98942E+01 0.00000E+00
 -1      3619 8.50741E+01 2.85676E+01 0.00000E+00
 -1      3620 4.82850E+01 1.30992E+01 0.00000E+00
 -1      3621 4.67850E+01 1.30992E+01 0.00000E+00
 -1      3622 4.60350E+01 1.43982E+01 0.00000E+00
 -1      3623 4.90350E+01 1.43982E+01 0.00000E+00
 -1      3624 2.42850E+01 1.30992E+01 0.00000E+00
 -1      3625 2.27850E+01 1.30992E+01 0.00000E+00
 -1      3626 2.20350E+01 1.43982E+01 0.00000E+00
 -1      3627 5.35340E+01 1.76852E+01 0.00000E+00
 -1      3628 5.39596E+01 1.63390E+01 0.00000E+00
 -1      3629 6.17176E+01 3.55871E+01 0.00000E+00
 -1      3630 5.77984E+01 3.23608E+01 0.00000E+00
 -1      3631 5.69631E+01 3.11205E+01 0.00000E+00
 -1      3632 1.74000E+01 3.57110E+01 0.00000E+00
 -1      3633 1.89000E+01 3.57110E+01 0.00000E+00
 -1      3634 1.96500E+01 3.44120E+01 0.00000E+00
 -1      3635 1.42890E+01 1.39344E+01 0.00000E+00
 -1      3636 1.42890E+01 1.54031E+01 0.00000E+00
 -1      3637 8.45705E+01 3.10841E+01 0.00000E+00
 -1      3638 8.31591E+01 3.08823E+01 0.00000E+00
 -1      3639 8.29981E+01 3.18704E+01 0.00000E+00
 -1      3640 8.51461E+01 1.96676E+01 0.00000E+00
 -1      3641 8.45572E+01 2.07045E+01 0.00000E+00
 -1      3642 2.72850E+01 1.30992E+01 0.00000E+00
 -1      3643 2.57850E+01 1.30992E+01 0.00000E+00
 -1      3644 2.50350E+01 1.43982E+01 0.00000E+00
 -1      3645 1.47676E+01 3.55023E+01 0.00000E+00
 -1      3646 1.61100E+01 3.55564E+01 0.00000E+00
 -1      3647 1.68600E+01 3.42574E+01 0.00000E+00
 -1      3648 1.42800E+01 3.39483E+01 0.00000E+00
 -1      3649 5.80388E+01 3.58362E+01 0.00000E+00
 -1      3650 5.84876E+01 3.45466E+01 0.00000E+00
 -1      3651 5.83165E+01 3.34885E+01 0.00000E+00
 -1      3652 5.65388E+01 3.58362E+01 0.00000E+00
 -1      3653 5.35541E+01 2.80523E+01 0.00000E+00
 -1      3654 5.23487E+01 2.74885E+01 0.00000E+00
 -1      3655 5.36359E+01 2.89111E+01 0.00000E+00
 -1      3656 5.51347E+01 1.28950E+01 0.00000E+00
 -1      3657 5.63236E+01 1.25984E+01 0.00000E+00
 -1      3658 1.29900E+01 1.76125E+01 0.00000E+00
 -1      3659 8.05458E+01 3.36705E+01 0.00000E+00
 -1      3660 8.08842E+01 3.57084E+01 0.00000E+00
 -1      3661 8.23842E+01 3.57084E+01 0.00000E+00
 -1      3662 8.18525E+01 3.30153E+01 0.00000E+00
 -1      3663 5.24256E+01 1.81187E+01 0.00000E+00
 -1      3664 5.24433E+01 2.12789E+01 0.00000E+00
 -1      3665 5.15277E+01 2.05185E+01 0.00000E+00
 -1      3666 5.17294E+01 2.22125E+01 0.00000E+00
 -1      3667 1.34022E+02 3.60267E+01 0.00000E+00
 -1      3668 1.35329E+02 3.61265E+01 0.00000E+00
 -1      3669 1.35515E+02 3.52691E+01 0.00000E+00
 -1      3670 1.33272E+02 3.47277E+01 0.00000E+00
 -1      3671 3.10350E+01 1.43982E+01 0.00000E+00
 -1      3672 3.02850E+01 1.30992E+01 0.00000E+00
 -1      3673 2.87850E+01 1.30992E+01 0.00000E+00
 -1      3674 1.35702E+02 3.44117E+01 0.00000E+00
 -1      3675 4.00350E+01 1.43982E+01 0.00000E+00
 -1      3676 3.92850E+01 1.30992E+01 0.00000E+00
 -1      3677 3.77850E+01 1.30992E+01 0.00000E+00
 -1      3678 1.90350E+01 1.43983E+01 0.00000E+00
 -1      3679 1.82850E+01 1.30993E+01 0.00000E+00
 -1      3680 5.42850E+01 1.30992E+01 0.00000E+00
 -1      3681 5.27850E+01 1.30992E+01 0.00000E+00
 -1      3682 1.34394E+02 3.35234E+01 0.00000E+00
 -1      3683 1.35702E+02 3.29367E+01 0.00000E+00
 -1      3684 1.35702E+02 3.14617E+01 0.00000E+00
 -1      3685 1.34412E+02 2.50000E+01 0.00000E+00
 -1      3686 1.35711E+02 2.42750E+01 0.00000E+00
 -1      3687 1.35711E+02 2.28000E+01 0.00000E+00
 -1      3688 8.47599E+01 2.16821E+01 0.00000E+00
 -1      3689 1.33453E+02 1.33799E+01 0.00000E+00
 -1      3690 1.32703E+02 1.46789E+01 0.00000E+00
 -1      3691 1.34620E+02 1.36606E+01 0.00000E+00
 -1      3692 1.29900E+01 2.64469E+01 0.00000E+00
 -1      3693 8.46374E+01 1.60097E+01 0.00000E+00
 -1      3694 8.40926E+01 1.69685E+01 0.00000E+00
 -1      3695 8.49482E+01 1.76014E+01 0.00000E+00
 -1      3696 8.31342E+01 3.44094E+01 0.00000E+00
 -1      3697 1.42890E+01 1.98219E+01 0.00000E+00
 -1      3698 1.42890E+01 2.12906E+01 0.00000E+00
 -1      3699 1.35711E+02 1.83953E+01 0.00000E+00
 -1      3700 1.35711E+02 1.69234E+01 0.00000E+00
 -1      3701 1.55880E+01 2.20313E+01 0.00000E+00
 -1      3702 1.42890E+01 2.27656E+01 0.00000E+00
 -1      3703 1.42890E+01 2.42406E+01 0.00000E+00
 -1      3704 5.24559E+01 2.48013E+01 0.00000E+00
 -1      3705 5.16569E+01 2.38645E+01 0.00000E+00
 -1      3706 5.14678E+01 2.56928E+01 0.00000E+00
 -1      3707 5.56164E+01 3.09409E+01 0.00000E+00
 -1      3708 8.49625E+01 2.26596E+01 0.00000E+00
 -1      3709 8.51652E+01 2.36371E+01 0.00000E+00
 -1      3710 8.60914E+01 2.17526E+01 0.00000E+00
 -1      3711 1.36155E+02 1.26686E+01 0.00000E+00
 -1      3712 1.35706E+02 3.00683E+01 0.00000E+00
 -1      3713 1.35706E+02 2.85933E+01 0.00000E+00
 -1      3714 1.34407E+02 2.78683E+01 0.00000E+00
 -1      3715 1.34398E+02 3.06550E+01 0.00000E+00
 -1      3716 1.69669E+01 1.29495E+01 0.00000E+00
 -1      3717 1.42800E+01 3.10108E+01 0.00000E+00
 -1      3718 1.42800E+01 3.24796E+01 0.00000E+00
 -1      3719 1.55700E+01 3.26341E+01 0.00000E+00
 -1      3720 3.62850E+01 1.30992E+01 0.00000E+00
 -1      3721 3.47850E+01 1.30992E+01 0.00000E+00
 -1      3722 3.40350E+01 1.43982E+01 0.00000E+00
 -1      3723 3.70350E+01 1.43982E+01 0.00000E+00
 -1      3724 5.57888E+01 3.45372E+01 0.00000E+00
 -1      3725 5.69096E+01 3.35346E+01 0.00000E+00
 -1      3726 8.58554E+01 2.48848E+01 0.00000E+00
 -1      3727 8.65456E+01 2.61324E+01 0.00000E+00
 -1      3728 8.69843E+01 2.39778E+01 0.00000E+00
 -1      3729 5.20350E+01 1.43982E+01 0.00000E+00
 -1      3730 1.34141E+02 1.63095E+01 0.00000E+00
 -1      3731 1.35440E+02 1.55736E+01 0.00000E+00
 -1      3732 8.56909E+01 1.87089E+01 0.00000E+00
 -1      3733 8.64336E+01 1.98164E+01 0.00000E+00
 -1      3734 8.62357E+01 1.77502E+01 0.00000E+00
 -1      3735 2.49000E+01 3.31130E+01 0.00000E+00
 -1      3736 2.64000E+01 3.31130E+01 0.00000E+00
 -1      3737 9.77850E+01 1.56973E+01 0.00000E+00
 -1      3738 9.62850E+01 1.56973E+01 0.00000E+00
 -1      3739 5.52707E+01 3.34094E+01 0.00000E+00
 -1      3740 1.46944E+01 1.23503E+01 0.00000E+00
 -1      3741 1.59934E+01 1.30847E+01 0.00000E+00
 -1      3742 2.79000E+01 3.31130E+01 0.00000E+00
 -1      3743 2.94000E+01 3.31130E+01 0.00000E+00
 -1      3744 2.71500E+01 3.18140E+01 0.00000E+00
 -1      3745 3.09000E+01 3.31130E+01 0.00000E+00
 -1      3746 3.24000E+01 3.31130E+01 0.00000E+00
 -1      3747 3.01500E+01 3.18140E+01 0.00000E+00
 -1      3748 3.39000E+01 3.31130E+01 0.00000E+00
 -1      3749 3.54000E+01 3.31130E+01 0.00000E+00
 -1      3750 3.31500E+01 3.18140E+01 0.00000E+00
 -1      3751 3.69000E+01 3.31130E+01 0.00000E+00
 -1      3752 3.84000E+01 3.31130E+01 0.00000E+00
 -1      3753 3.61500E+01 3.18140E+01 0.00000E+00
 -1      3754 3.99000E+01 3.31130E+01 0.00000E+00
 -1      3755 4.14000E+01 3.31130E+01 0.00000E+00
 -1      3756 3.91500E+01 3.18140E+01 0.00000E+00
 -1      3757 4.29000E+01 3.31130E+01 0.00000E+00
 -1      3758 4.44000E+01 3.31130E+01 0.00000E+00
 -1      3759 4.21500E+01 3.18140E+01 0.00000E+00
 -1      3760 4.59000E+01 3.31130E+01 0.00000E+00
 -1      3761 4.74000E+01 3.31130E+01 0.00000E+00
 -1      3762 4.51500E+01 3.18140E+01 0.00000E+00
 -1      3763 4.89000E+01 3.31130E+01 0.00000E+00
 -1      3764 5.04000E+01 3.31130E+01 0.00000E+00
 -1      3765 4.81500E+01 3.18140E+01 0.00000E+00
 -1      3766 5.19000E+01 3.31130E+01 0.00000E+00
 -1      3767 5.34000E+01 3.31130E+01 0.00000E+00
 -1      3768 5.11500E+01 3.18140E+01 0.00000E+00
 -1      3769 5.43847E+01 1.41940E+01 0.00000E+00
 -1      3770 1.42890E+01 1.68750E+01 0.00000E+00
 -1      3771 1.42890E+01 1.83500E+01 0.00000E+00
 -1      3772 1.55880E+01 1.90844E+01 0.00000E+00
 -1      3773 1.55880E+01 1.61406E+01 0.00000E+00
 -1      3774 8.32639E+01 3.32170E+01 0.00000E+00
 -1      3775 8.79000E+01 3.31580E+01 0.00000E+00
 -1      3776 8.94000E+01 3.31580E+01 0.00000E+00
 -1      3777 9.09000E+01 3.31580E+01 0.00000E+00
 -1      3778 9.24000E+01 3.31580E+01 0.00000E+00
 -1      3779 9.01500E+01 3.18590E+01 0.00000E+00
 -1      3780 9.39000E+01 3.31580E+01 0.00000E+00
 -1      3781 9.54000E+01 3.31580E+01 0.00000E+00
 -1      3782 9.31500E+01 3.18590E+01 0.00000E+00
 -1      3783 9.69000E+01 3.31580E+01 0.00000E+00
 -1      3784 9.84000E+01 3.31580E+01 0.00000E+00
 -1      3785 9.61500E+01 3.18590E+01 0.00000E+00
 -1      3786 9.99000E+01 3.31580E+01 0.00000E+00
 -1      3787 1.01400E+02 3.31580E+01 0.00000E+00
 -1      3788 9.91500E+01 3.18590E+01 0.00000E+00
 -1      3789 1.02900E+02 3.31580E+01 0.00000E+00
 -1      3790 1.04400E+02 3.31580E+01 0.00000E+00
 -1      3791 1.02150E+02 3.18590E+01 0.00000E+00
 -1      3792 1.05900E+02 3.31580E+01 0.00000E+00
 -1      3793 1.07400E+02 3.31580E+01 0.00000E+00
 -1      3794 1.05150E+02 3.18590E+01 0.00000E+00
 -1      3795 1.08900E+02 3.31580E+01 0.00000E+00
 -1      3796 1.10400E+02 3.31580E+01 0.00000E+00
 -1      3797 1.08150E+02 3.18590E+01 0.00000E+00
 -1      3798 1.11900E+02 3.31580E+01 0.00000E+00
 -1      3799 1.13400E+02 3.31580E+01 0.00000E+00
 -1      3800 1.11150E+02 3.18590E+01 0.00000E+00
 -1      3801 1.14900E+02 3.31580E+01 0.00000E+00
 -1      3802 1.16400E+02 3.31580E+01 0.00000E+00
 -1      3803 1.14150E+02 3.18590E+01 0.00000E+00
 -1      3804 1.17900E+02 3.31580E+01 0.00000E+00
 -1      3805 1.19400E+02 3.31580E+01 0.00000E+00
 -1      3806 1.17150E+02 3.18590E+01 0.00000E+00
 -1      3807 1.20900E+02 3.31580E+01 0.00000E+00
 -1      3808 1.22400E+02 3.31580E+01 0.00000E+00
 -1      3809 1.20150E+02 3.18590E+01 0.00000E+00
 -1      3810 1.23900E+02 3.31580E+01 0.00000E+00
 -1      3811 1.25400E+02 3.31580E+01 0.00000E+00
 -1      3812 1.23150E+02 3.18590E+01 0.00000E+00
 -1      3813 1.26900E+02 3.31580E+01 0.00000E+00
 -1      3814 1.28400E+02 3.31580E+01 0.00000E+00
 -1      3815 1.26150E+02 3.18590E+01 0.00000E+00
 -1      3816 1.29900E+02 3.31580E+01 0.00000E+00
 -1      3817 1.31400E+02 3.31580E+01 0.00000E+00
 -1      3818 1.29150E+02 3.18590E+01 0.00000E+00
 -1      3819 1.33272E+02 3.32527E+01 0.00000E+00
 -1      3820 1.68600E+01 3.27887E+01 0.00000E+00
 -1      3821 1.81500E+01 3.29432E+01 0.00000E+00
 -1      3822 1.68600E+01 3.13199E+01 0.00000E+00
 -1      3823 1.97850E+01 1.56973E+01 0.00000E+00
 -1      3824 1.82851E+01 1.56973E+01 0.00000E+00
 -1      3825 1.35405E+02 1.39676E+01 0.00000E+00
 -1      3826 1.33244E+02 1.73787E+01 0.00000E+00
 -1      3827 1.32973E+02 1.60288E+01 0.00000E+00
 -1      3828 1.31806E+02 1.57481E+01 0.00000E+00
 -1      3829 1.65615E+01 1.45335E+01 0.00000E+00
 -1      3830 1.42800E+01 2.80733E+01 0.00000E+00
 -1      3831 1.42800E+01 2.95421E+01 0.00000E+00
 -1      3832 1.55700E+01 2.96966E+01 0.00000E+00
 -1      3833 2.27850E+01 1.56973E+01 0.00000E+00
 -1      3834 2.12850E+01 1.56973E+01 0.00000E+00
 -1      3835 2.05351E+01 1.69963E+01 0.00000E+00
 -1      3836 5.44223E+01 1.52118E+01 0.00000E+00
 -1      3837 2.19000E+01 3.31130E+01 0.00000E+00
 -1      3838 2.34000E+01 3.31130E+01 0.00000E+00
 -1      3839 2.41500E+01 3.18140E+01 0.00000E+00
 -1      3840 9.47850E+01 1.56973E+01 0.00000E+00
 -1      3841 9.32850E+01 1.56973E+01 0.00000E+00
 -1      3842 9.55350E+01 1.69963E+01 0.00000E+00
 -1      3843 9.17850E+01 1.56973E+01 0.00000E+00
 -1      3844 9.02850E+01 1.56973E+01 0.00000E+00
 -1      3845 9.25350E+01 1.69963E+01 0.00000E+00
 -1      3846 1.03785E+02 1.56973E+01 0.00000E+00
 -1      3847 1.02285E+02 1.56973E+01 0.00000E+00
 -1      3848 1.06785E+02 1.56973E+01 0.00000E+00
 -1      3849 1.05285E+02 1.56973E+01 0.00000E+00
 -1      3850 1.04535E+02 1.69963E+01 0.00000E+00
 -1      3851 1.09785E+02 1.56973E+01 0.00000E+00
 -1      3852 1.08285E+02 1.56973E+01 0.00000E+00
 -1      3853 1.07535E+02 1.69963E+01 0.00000E+00
 -1      3854 1.12785E+02 1.56973E+01 0.00000E+00
 -1      3855 1.11285E+02 1.56973E+01 0.00000E+00
 -1      3856 1.10535E+02 1.69963E+01 0.00000E+00
 -1      3857 1.15785E+02 1.56973E+01 0.00000E+00
 -1      3858 1.14285E+02 1.56973E+01 0.00000E+00
 -1      3859 1.13535E+02 1.69963E+01 0.00000E+00
 -1      3860 1.18785E+02 1.56973E+01 0.00000E+00
 -1      3861 1.17285E+02 1.56973E+01 0.00000E+00
 -1      3862 1.16535E+02 1.69963E+01 0.00000E+00
 -1      3863 1.21785E+02 1.56973E+01 0.00000E+00
 -1      3864 1.20285E+02 1.56973E+01 0.00000E+00
 -1      3865 1.19535E+02 1.69963E+01 0.00000E+00
 -1      3866 1.24785E+02 1.56973E+01 0.00000E+00
 -1      3867 1.23285E+02 1.56973E+01 0.00000E+00
 -1      3868 1.22535E+02 1.69963E+01 0.00000E+00
 -1      3869 1.27785E+02 1.56973E+01 0.00000E+00
 -1      3870 1.26285E+02 1.56973E+01 0.00000E+00
 -1      3871 1.25535E+02 1.69963E+01 0.00000E+00
 -1      3872 1.30545E+02 1.57227E+01 0.00000E+00
 -1      3873 1.29045E+02 1.57227E+01 0.00000E+00
 -1      3874 1.28295E+02 1.70217E+01 0.00000E+00
 -1      3875 1.30816E+02 1.70726E+01 0.00000E+00
 -1      3876 8.53204E+01 1.44533E+01 0.00000E+00
 -1      3877 8.50071E+01 1.53474E+01 0.00000E+00
 -1      3878 8.58627E+01 1.59804E+01 0.00000E+00
 -1      3879 8.66020E+01 1.46557E+01 0.00000E+00
 -1      3880 1.35711E+02 2.13336E+01 0.00000E+00
 -1      3881 1.35711E+02 1.98617E+01 0.00000E+00
 -1      3882 1.34412E+02 1.91258E+01 0.00000E+00
 -1      3883 1.34412E+02 2.20586E+01 0.00000E+00
 -1      3884 8.42798E+01 3.32646E+01 0.00000E+00
 -1      3885 8.72620E+01 2.10002E+01 0.00000E+00
 -1      3886 8.74647E+01 2.19777E+01 0.00000E+00
 -1      3887 1.74233E+01 1.58513E+01 0.00000E+00
 -1      3888 1.64498E+01 1.59866E+01 0.00000E+00
 -1      3889 1.64498E+01 1.74584E+01 0.00000E+00
 -1      3890 1.81733E+01 1.71503E+01 0.00000E+00
 -1      3891 5.10670E+01 1.86928E+01 0.00000E+00
 -1      3892 5.12511E+01 1.72267E+01 0.00000E+00
 -1      3893 8.65129E+01 2.80876E+01 0.00000E+00
 -1      3894 8.61703E+01 2.96159E+01 0.00000E+00
 -1      3895 1.00785E+02 1.56973E+01 0.00000E+00
 -1      3896 9.92850E+01 1.56973E+01 0.00000E+00
 -1      3897 9.85350E+01 1.69963E+01 0.00000E+00
 -1      3898 1.01535E+02 1.69963E+01 0.00000E+00
 -1      3899 5.30723E+01 1.55254E+01 0.00000E+00
 -1      3900 4.37850E+01 1.56973E+01 0.00000E+00
 -1      3901 4.22850E+01 1.56973E+01 0.00000E+00
 -1      3902 1.42845E+01 2.54210E+01 0.00000E+00
 -1      3903 1.42845E+01 2.68929E+01 0.00000E+00
 -1      3904 1.55745E+01 2.70475E+01 0.00000E+00
 -1      3905 1.55835E+01 2.46867E+01 0.00000E+00
 -1      3906 5.45207E+01 3.21104E+01 0.00000E+00
 -1      3907 5.37457E+01 3.06445E+01 0.00000E+00
 -1      3908 8.57798E+01 3.32646E+01 0.00000E+00
 -1      3909 1.92750E+01 3.30281E+01 0.00000E+00
 -1      3910 2.07750E+01 3.30281E+01 0.00000E+00
 -1      3911 2.15250E+01 3.17291E+01 0.00000E+00
 -1      3912 1.92750E+01 3.15594E+01 0.00000E+00
 -1      3913 5.15723E+01 1.55254E+01 0.00000E+00
 -1      3914 5.02138E+01 1.60995E+01 0.00000E+00
 -1      3915 1.32522E+02 3.19537E+01 0.00000E+00
 -1      3916 2.57850E+01 1.56973E+01 0.00000E+00
 -1      3917 2.42850E+01 1.56973E+01 0.00000E+00
 -1      3918 2.35351E+01 1.69963E+01 0.00000E+00
 -1      3919 3.47850E+01 1.56973E+01 0.00000E+00
 -1      3920 3.32850E+01 1.56973E+01 0.00000E+00
 -1      3921 8.95350E+01 1.69963E+01 0.00000E+00
 -1      3922 8.87850E+01 1.56973E+01 0.00000E+00
 -1      3923 8.76418E+01 2.71807E+01 0.00000E+00
 -1      3924 5.10964E+01 2.80411E+01 0.00000E+00
 -1      3925 5.10146E+01 2.71822E+01 0.00000E+00
 -1      3926 4.67850E+01 1.56973E+01 0.00000E+00
 -1      3927 4.52850E+01 1.56973E+01 0.00000E+00
 -1      3928 4.45350E+01 1.69963E+01 0.00000E+00
 -1      3929 5.03532E+01 1.96264E+01 0.00000E+00
 -1      3930 8.65298E+01 3.19656E+01 0.00000E+00
 -1      3931 2.80350E+01 1.43982E+01 0.00000E+00
 -1      3932 5.07413E+01 2.31040E+01 0.00000E+00
 -1      3933 4.07850E+01 1.56973E+01 0.00000E+00
 -1      3934 3.92850E+01 1.56973E+01 0.00000E+00
 -1      3935 4.15350E+01 1.69963E+01 0.00000E+00
 -1      3936 1.33244E+02 1.88451E+01 0.00000E+00
 -1      3937 1.32077E+02 1.85644E+01 0.00000E+00
 -1      3938 1.33244E+02 2.03115E+01 0.00000E+00
 -1      3939 1.33113E+02 2.57375E+01 0.00000E+00
 -1      3940 1.33113E+02 2.42625E+01 0.00000E+00
 -1      3941 3.25350E+01 1.69963E+01 0.00000E+00
 -1      3942 3.17850E+01 1.56973E+01 0.00000E+00
 -1      3943 3.02850E+01 1.56973E+01 0.00000E+00
 -1      3944 1.68870E+01 2.12938E+01 0.00000E+00
 -1      3945 1.68870E+01 2.27687E+01 0.00000E+00
 -1      3946 8.78068E+01 2.00414E+01 0.00000E+00
 -1      3947 5.02156E+01 2.62454E+01 0.00000E+00
 -1      3948 8.93255E+01 2.24729E+01 0.00000E+00
 -1      3949 8.81549E+01 2.32253E+01 0.00000E+00
 -1      3950 8.88451E+01 2.44730E+01 0.00000E+00
 -1      3951 5.25402E+01 3.00806E+01 0.00000E+00
 -1      3952 1.66684E+01 1.86402E+01 0.00000E+00
 -1      3953 1.66684E+01 2.01120E+01 0.00000E+00
 -1      3954 1.79674E+01 2.08495E+01 0.00000E+00
 -1      3955 1.75301E+01 1.84861E+01 0.00000E+00
 -1      3956 4.87138E+01 1.60995E+01 0.00000E+00
 -1      3957 1.33104E+02 2.85242E+01 0.00000E+00
 -1      3958 1.33108E+02 2.71308E+01 0.00000E+00
 -1      3959 1.31809E+02 2.63933E+01 0.00000E+00
 -1      3960 8.75034E+01 1.54948E+01 0.00000E+00
 -1      3961 3.62850E+01 1.56973E+01 0.00000E+00
 -1      3962 3.55350E+01 1.69963E+01 0.00000E+00
 -1      3963 3.77850E+01 1.56973E+01 0.00000E+00
 -1      3964 8.89570E+01 2.62247E+01 0.00000E+00
 -1      3965 8.89243E+01 2.81800E+01 0.00000E+00
 -1      3966 5.10402E+01 3.00806E+01 0.00000E+00
 -1      3967 4.97062E+01 2.97744E+01 0.00000E+00
 -1      3968 2.94000E+01 3.05150E+01 0.00000E+00
 -1      3969 3.09000E+01 3.05150E+01 0.00000E+00
 -1      3970 3.24000E+01 3.05150E+01 0.00000E+00
 -1      3971 3.39000E+01 3.05150E+01 0.00000E+00
 -1      3972 3.16500E+01 2.92160E+01 0.00000E+00
 -1      3973 3.54000E+01 3.05150E+01 0.00000E+00
 -1      3974 3.69000E+01 3.05150E+01 0.00000E+00
 -1      3975 3.46500E+01 2.92160E+01 0.00000E+00
 -1      3976 3.84000E+01 3.05150E+01 0.00000E+00
 -1      3977 3.99000E+01 3.05150E+01 0.00000E+00
 -1      3978 3.76500E+01 2.92160E+01 0.00000E+00
 -1      3979 4.14000E+01 3.05150E+01 0.00000E+00
 -1      3980 4.29000E+01 3.05150E+01 0.00000E+00
 -1      3981 4.06500E+01 2.92160E+01 0.00000E+00
 -1      3982 4.44000E+01 3.05150E+01 0.00000E+00
 -1      3983 4.59000E+01 3.05150E+01 0.00000E+00
 -1      3984 4.36500E+01 2.92160E+01 0.00000E+00
 -1      3985 4.70531E+01 3.01447E+01 0.00000E+00
 -1      3986 4.85531E+01 3.01447E+01 0.00000E+00
 -1      3987 4.86093E+01 2.81051E+01 0.00000E+00
 -1      3988 4.63031E+01 2.88457E+01 0.00000E+00
 -1      3989 9.24000E+01 3.05600E+01 0.00000E+00
 -1      3990 9.39000E+01 3.05600E+01 0.00000E+00
 -1      3991 9.54000E+01 3.05600E+01 0.00000E+00
 -1      3992 9.69000E+01 3.05600E+01 0.00000E+00
 -1      3993 9.46500E+01 2.92610E+01 0.00000E+00
 -1      3994 9.84000E+01 3.05600E+01 0.00000E+00
 -1      3995 9.99000E+01 3.05600E+01 0.00000E+00
 -1      3996 9.76500E+01 2.92610E+01 0.00000E+00
 -1      3997 1.01400E+02 3.05600E+01 0.00000E+00
 -1      3998 1.02900E+02 3.05600E+01 0.00000E+00
 -1      3999 1.00650E+02 2.92610E+01 0.00000E+00
 -1      4000 1.04400E+02 3.05600E+01 0.00000E+00
 -1      4001 1.05900E+02 3.05600E+01 0.00000E+00
 -1      4002 1.03650E+02 2.92610E+01 0.00000E+00
 -1      4003 1.07400E+02 3.05600E+01 0.00000E+00
 -1      4004 1.08900E+02 3.05600E+01 0.00000E+00
 -1      4005 1.06650E+02 2.92610E+01 0.00000E+00
 -1      4006 1.10400E+02 3.05600E+01 0.00000E+00
 -1      4007 1.11900E+02 3.05600E+01 0.00000E+00
 -1      4008 1.09650E+02 2.92610E+01 0.00000E+00
 -1      4009 1.13400E+02 3.05600E+01 0.00000E+00
 -1      4010 1.14900E+02 3.05600E+01 0.00000E+00
 -1      4011 1.12650E+02 2.92610E+01 0.00000E+00
 -1      4012 1.16400E+02 3.05600E+01 0.00000E+00
 -1      4013 1.17900E+02 3.05600E+01 0.00000E+00
 -1      4014 1.15650E+02 2.92610E+01 0.00000E+00
 -1      4015 1.19400E+02 3.05600E+01 0.00000E+00
 -1      4016 1.20900E+02 3.05600E+01 0.00000E+00
 -1      4017 1.18650E+02 2.92610E+01 0.00000E+00
 -1      4018 1.22400E+02 3.05600E+01 0.00000E+00
 -1      4019 1.23900E+02 3.05600E+01 0.00000E+00
 -1      4020 1.21650E+02 2.92610E+01 0.00000E+00
 -1      4021 1.25400E+02 3.05600E+01 0.00000E+00
 -1      4022 1.26900E+02 3.05600E+01 0.00000E+00
 -1      4023 1.24650E+02 2.92610E+01 0.00000E+00
 -1      4024 1.28400E+02 3.05600E+01 0.00000E+00
 -1      4025 1.29900E+02 3.05600E+01 0.00000E+00
 -1      4026 1.27650E+02 2.92610E+01 0.00000E+00
 -1      4027 1.68600E+01 2.98512E+01 0.00000E+00
 -1      4028 1.81500E+01 3.00058E+01 0.00000E+00
 -1      4029 1.68600E+01 2.83824E+01 0.00000E+00
 -1      4030 1.11285E+02 1.82952E+01 0.00000E+00
 -1      4031 1.09785E+02 1.82952E+01 0.00000E+00
 -1      4032 9.62850E+01 1.82952E+01 0.00000E+00
 -1      4033 9.47850E+01 1.82952E+01 0.00000E+00
 -1      4034 9.32850E+01 1.82952E+01 0.00000E+00
 -1      4035 9.17850E+01 1.82952E+01 0.00000E+00
 -1      4036 9.40350E+01 1.95942E+01 0.00000E+00
 -1      4037 1.08285E+02 1.82952E+01 0.00000E+00
 -1      4038 1.06785E+02 1.82952E+01 0.00000E+00
 -1      4039 1.09035E+02 1.95942E+01 0.00000E+00
 -1      4040 1.05285E+02 1.82952E+01 0.00000E+00
 -1      4041 1.03785E+02 1.82952E+01 0.00000E+00
 -1      4042 1.06035E+02 1.95942E+01 0.00000E+00
 -1      4043 1.14285E+02 1.82952E+01 0.00000E+00
 -1      4044 1.12785E+02 1.82952E+01 0.00000E+00
 -1      4045 1.12035E+02 1.95942E+01 0.00000E+00
 -1      4046 1.17285E+02 1.82952E+01 0.00000E+00
 -1      4047 1.15785E+02 1.82952E+01 0.00000E+00
 -1      4048 1.15035E+02 1.95942E+01 0.00000E+00
 -1      4049 1.20285E+02 1.82952E+01 0.00000E+00
 -1      4050 1.18785E+02 1.82952E+01 0.00000E+00
 -1      4051 1.18035E+02 1.95942E+01 0.00000E+00
 -1      4052 1.23285E+02 1.82952E+01 0.00000E+00
 -1      4053 1.21785E+02 1.82952E+01 0.00000E+00
 -1      4054 1.21035E+02 1.95942E+01 0.00000E+00
 -1      4055 1.26285E+02 1.82952E+01 0.00000E+00
 -1      4056 1.24785E+02 1.82952E+01 0.00000E+00
 -1      4057 1.24035E+02 1.95942E+01 0.00000E+00
 -1      4058 1.33179E+02 2.30202E+01 0.00000E+00
 -1      4059 1.33179E+02 2.15538E+01 0.00000E+00
 -1      4060 1.32011E+02 2.12731E+01 0.00000E+00
 -1      4061 1.31880E+02 2.37577E+01 0.00000E+00
 -1      4062 4.87678E+01 2.66185E+01 0.00000E+00
 -1      4063 4.92210E+01 2.51291E+01 0.00000E+00
 -1      4064 4.79638E+01 1.73985E+01 0.00000E+00
 -1      4065 8.81296E+01 3.04975E+01 0.00000E+00
 -1      4066 8.66908E+01 3.09775E+01 0.00000E+00
 -1      4067 1.32526E+02 3.05604E+01 0.00000E+00
 -1      4068 1.81815E+01 2.32117E+01 0.00000E+00
 -1      4069 1.68825E+01 2.39492E+01 0.00000E+00
 -1      4070 1.68780E+01 2.51296E+01 0.00000E+00
 -1      4071 4.92935E+01 2.34771E+01 0.00000E+00
 -1      4072 4.93660E+01 2.18252E+01 0.00000E+00
 -1      4073 4.78457E+01 2.38502E+01 0.00000E+00
 -1      4074 4.89053E+01 1.99995E+01 0.00000E+00
 -1      4075 2.64000E+01 3.05150E+01 0.00000E+00
 -1      4076 2.79000E+01 3.05150E+01 0.00000E+00
 -1      4077 2.86500E+01 2.92160E+01 0.00000E+00
 -1      4078 2.87850E+01 1.56973E+01 0.00000E+00
 -1      4079 2.72850E+01 1.56973E+01 0.00000E+00
 -1      4080 2.65350E+01 1.69963E+01 0.00000E+00
 -1      4081 2.95350E+01 1.69963E+01 0.00000E+00
 -1      4082 8.67641E+01 1.68195E+01 0.00000E+00
 -1      4083 8.75067E+01 1.79270E+01 0.00000E+00
 -1      4084 2.34000E+01 3.05150E+01 0.00000E+00
 -1      4085 2.49000E+01 3.05150E+01 0.00000E+00
 -1      4086 2.56500E+01 2.92160E+01 0.00000E+00
 -1      4087 8.89351E+01 1.80535E+01 0.00000E+00
 -1      4088 8.84068E+01 1.89842E+01 0.00000E+00
 -1      4089 8.92352E+01 2.01680E+01 0.00000E+00
 -1      4090 9.04351E+01 1.80535E+01 0.00000E+00
 -1      4091 8.92770E+01 2.93387E+01 0.00000E+00
 -1      4092 8.97974E+01 3.07003E+01 0.00000E+00
 -1      4093 9.12974E+01 3.07003E+01 0.00000E+00
 -1      4094 9.05921E+01 2.83828E+01 0.00000E+00
 -1      4095 1.31227E+02 2.98229E+01 0.00000E+00
 -1      4096 8.71337E+01 1.61572E+01 0.00000E+00
 -1      4097 9.01276E+01 2.54723E+01 0.00000E+00
 -1      4098 3.62850E+01 1.82952E+01 0.00000E+00
 -1      4099 3.47850E+01 1.82952E+01 0.00000E+00
 -1      4100 9.20474E+01 2.94013E+01 0.00000E+00
 -1      4101 4.76147E+01 2.69888E+01 0.00000E+00
 -1      4102 9.05254E+01 2.03584E+01 0.00000E+00
 -1      4103 8.99254E+01 2.14156E+01 0.00000E+00
 -1      4104 9.06156E+01 2.26632E+01 0.00000E+00
 -1      4105 9.77850E+01 1.82952E+01 0.00000E+00
 -1      4106 9.70350E+01 1.95942E+01 0.00000E+00
 -1      4107 9.92850E+01 1.82952E+01 0.00000E+00
 -1      4108 4.52850E+01 1.82952E+01 0.00000E+00
 -1      4109 4.37850E+01 1.82952E+01 0.00000E+00
 -1      4110 4.22850E+01 1.82952E+01 0.00000E+00
 -1      4111 4.07850E+01 1.82952E+01 0.00000E+00
 -1      4112 4.30350E+01 1.95942E+01 0.00000E+00
 -1      4113 2.42851E+01 1.82953E+01 0.00000E+00
 -1      4114 2.27851E+01 1.82953E+01 0.00000E+00
 -1      4115 1.92750E+01 2.86219E+01 0.00000E+00
 -1      4116 1.92750E+01 3.00906E+01 0.00000E+00
 -1      4117 2.04000E+01 3.01755E+01 0.00000E+00
 -1      4118 1.68645E+01 2.72020E+01 0.00000E+00
 -1      4119 3.32850E+01 1.82952E+01 0.00000E+00
 -1      4120 3.17850E+01 1.82952E+01 0.00000E+00
 -1      4121 3.40350E+01 1.95942E+01 0.00000E+00
 -1      4122 9.11851E+01 1.93525E+01 0.00000E+00
 -1      4123 2.13375E+01 3.03028E+01 0.00000E+00
 -1      4124 2.24625E+01 3.03877E+01 0.00000E+00
 -1      4125 2.32125E+01 2.90887E+01 0.00000E+00
 -1      4126 2.13375E+01 2.88341E+01 0.00000E+00
 -1      4127 1.27545E+02 1.83207E+01 0.00000E+00
 -1      4128 1.26795E+02 1.96197E+01 0.00000E+00
 -1      4129 1.28806E+02 1.83461E+01 0.00000E+00
 -1      4130 1.30550E+02 2.43103E+01 0.00000E+00
 -1      4131 1.30615E+02 2.30680E+01 0.00000E+00
 -1      4132 1.30816E+02 1.85390E+01 0.00000E+00
 -1      4133 1.83919E+01 1.83320E+01 0.00000E+00
 -1      4134 1.02285E+02 1.82952E+01 0.00000E+00
 -1      4135 1.00785E+02 1.82952E+01 0.00000E+00
 -1      4136 1.03035E+02 1.95942E+01 0.00000E+00
 -1      4137 4.69766E+01 1.95973E+01 0.00000E+00
 -1      4138 1.94827E+01 2.26264E+01 0.00000E+00
 -1      4139 1.94782E+01 2.38068E+01 0.00000E+00
 -1      4140 1.95728E+01 1.82550E+01 0.00000E+00
 -1      4141 1.89296E+01 1.95908E+01 0.00000E+00
 -1      4142 1.91483E+01 2.07725E+01 0.00000E+00
 -1      4143 2.10728E+01 1.82550E+01 0.00000E+00
 -1      4144 3.85350E+01 1.69963E+01 0.00000E+00
 -1      4145 1.30477E+02 2.85239E+01 0.00000E+00
 -1      4146 1.30540E+02 2.70970E+01 0.00000E+00
 -1      4147 1.30545E+02 2.57037E+01 0.00000E+00
 -1      4148 1.29281E+02 2.50140E+01 0.00000E+00
 -1      4149 2.18228E+01 1.95540E+01 0.00000E+00
 -1      4150 2.04450E+01 2.13677E+01 0.00000E+00
 -1      4151 3.77850E+01 1.82952E+01 0.00000E+00
 -1      4152 3.70350E+01 1.95942E+01 0.00000E+00
 -1      4153 3.92850E+01 1.82952E+01 0.00000E+00
 -1      4154 9.16947E+01 2.82425E+01 0.00000E+00
 -1      4155 9.27974E+01 2.81023E+01 0.00000E+00
 -1      4156 9.13421E+01 2.70838E+01 0.00000E+00
 -1      4157 3.39000E+01 2.79170E+01 0.00000E+00
 -1      4158 3.54000E+01 2.79170E+01 0.00000E+00
 -1      4159 3.69000E+01 2.79170E+01 0.00000E+00
 -1      4160 3.84000E+01 2.79170E+01 0.00000E+00
 -1      4161 3.61500E+01 2.66180E+01 0.00000E+00
 -1      4162 3.99000E+01 2.79170E+01 0.00000E+00
 -1      4163 4.14000E+01 2.79170E+01 0.00000E+00
 -1      4164 3.91500E+01 2.66180E+01 0.00000E+00
 -1      4165 4.29000E+01 2.79170E+01 0.00000E+00
 -1      4166 4.44000E+01 2.79170E+01 0.00000E+00
 -1      4167 4.21500E+01 2.66180E+01 0.00000E+00
 -1      4168 4.54308E+01 2.76381E+01 0.00000E+00
 -1      4169 4.65839E+01 2.72678E+01 0.00000E+00
 -1      4170 4.67424E+01 2.57812E+01 0.00000E+00
 -1      4171 4.46808E+01 2.63391E+01 0.00000E+00
 -1      4172 9.42974E+01 2.81023E+01 0.00000E+00
 -1      4173 9.57974E+01 2.81023E+01 0.00000E+00
 -1      4174 9.39447E+01 2.69435E+01 0.00000E+00
 -1      4175 2.57850E+01 1.82953E+01 0.00000E+00
 -1      4176 2.50350E+01 1.95943E+01 0.00000E+00
 -1      4177 2.72850E+01 1.82953E+01 0.00000E+00
 -1      4178 9.72974E+01 2.81023E+01 0.00000E+00
 -1      4179 9.87974E+01 2.81023E+01 0.00000E+00
 -1      4180 9.69447E+01 2.69435E+01 0.00000E+00
 -1      4181 1.00297E+02 2.81023E+01 0.00000E+00
 -1      4182 1.01797E+02 2.81023E+01 0.00000E+00
 -1      4183 9.99447E+01 2.69435E+01 0.00000E+00
 -1      4184 1.03297E+02 2.81023E+01 0.00000E+00
 -1      4185 1.04797E+02 2.81023E+01 0.00000E+00
 -1      4186 1.02945E+02 2.69435E+01 0.00000E+00
 -1      4187 1.06297E+02 2.81023E+01 0.00000E+00
 -1      4188 1.07797E+02 2.81023E+01 0.00000E+00
 -1      4189 1.05945E+02 2.69435E+01 0.00000E+00
 -1      4190 1.09297E+02 2.81023E+01 0.00000E+00
 -1      4191 1.10797E+02 2.81023E+01 0.00000E+00
 -1      4192 1.08945E+02 2.69435E+01 0.00000E+00
 -1      4193 1.12297E+02 2.81023E+01 0.00000E+00
 -1      4194 1.13797E+02 2.81023E+01 0.00000E+00
 -1      4195 1.11945E+02 2.69435E+01 0.00000E+00
 -1      4196 1.15297E+02 2.81023E+01 0.00000E+00
 -1      4197 1.16797E+02 2.81023E+01 0.00000E+00
 -1      4198 1.14945E+02 2.69435E+01 0.00000E+00
 -1      4199 1.18297E+02 2.81023E+01 0.00000E+00
 -1      4200 1.19797E+02 2.81023E+01 0.00000E+00
 -1      4201 1.17945E+02 2.69435E+01 0.00000E+00
 -1      4202 1.21297E+02 2.81023E+01 0.00000E+00
 -1      4203 1.22797E+02 2.81023E+01 0.00000E+00
 -1      4204 1.20945E+02 2.69435E+01 0.00000E+00
 -1      4205 1.24297E+02 2.81023E+01 0.00000E+00
 -1      4206 1.25797E+02 2.81023E+01 0.00000E+00
 -1      4207 1.23945E+02 2.69435E+01 0.00000E+00
 -1      4208 1.15785E+02 2.08932E+01 0.00000E+00
 -1      4209 1.14285E+02 2.08932E+01 0.00000E+00
 -1      4210 1.12785E+02 2.08932E+01 0.00000E+00
 -1      4211 1.11285E+02 2.08932E+01 0.00000E+00
 -1      4212 1.13535E+02 2.21922E+01 0.00000E+00
 -1      4213 1.09785E+02 2.08932E+01 0.00000E+00
 -1      4214 1.08285E+02 2.08932E+01 0.00000E+00
 -1      4215 1.10535E+02 2.21922E+01 0.00000E+00
 -1      4216 1.06785E+02 2.08932E+01 0.00000E+00
 -1      4217 1.05285E+02 2.08932E+01 0.00000E+00
 -1      4218 1.07535E+02 2.21922E+01 0.00000E+00
 -1      4219 1.18785E+02 2.08932E+01 0.00000E+00
 -1      4220 1.17285E+02 2.08932E+01 0.00000E+00
 -1      4221 1.16535E+02 2.21922E+01 0.00000E+00
 -1      4222 1.21785E+02 2.08932E+01 0.00000E+00
 -1      4223 1.20285E+02 2.08932E+01 0.00000E+00
 -1      4224 1.19535E+02 2.21922E+01 0.00000E+00
 -1      4225 1.24785E+02 2.08932E+01 0.00000E+00
 -1      4226 1.23285E+02 2.08932E+01 0.00000E+00
 -1      4227 1.22535E+02 2.21922E+01 0.00000E+00
 -1      4228 2.21573E+01 2.14079E+01 0.00000E+00
 -1      4229 1.30066E+02 1.98380E+01 0.00000E+00
 -1      4230 9.18753E+01 2.06001E+01 0.00000E+00
 -1      4231 9.12302E+01 2.53320E+01 0.00000E+00
 -1      4232 2.06617E+01 2.46989E+01 0.00000E+00
 -1      4233 1.93605E+01 2.52841E+01 0.00000E+00
 -1      4234 4.68149E+01 2.41292E+01 0.00000E+00
 -1      4235 4.68874E+01 2.24772E+01 0.00000E+00
 -1      4236 4.57841E+01 2.44081E+01 0.00000E+00
 -1      4237 3.09000E+01 2.79170E+01 0.00000E+00
 -1      4238 3.24000E+01 2.79170E+01 0.00000E+00
 -1      4239 3.31500E+01 2.66180E+01 0.00000E+00
 -1      4240 2.79000E+01 2.79170E+01 0.00000E+00
 -1      4241 2.94000E+01 2.79170E+01 0.00000E+00
 -1      4242 3.01500E+01 2.66180E+01 0.00000E+00
 -1      4243 1.81635E+01 2.64645E+01 0.00000E+00
 -1      4244 1.29213E+02 2.78342E+01 0.00000E+00
 -1      4245 2.49000E+01 2.79170E+01 0.00000E+00
 -1      4246 2.64000E+01 2.79170E+01 0.00000E+00
 -1      4247 2.71500E+01 2.66180E+01 0.00000E+00
 -1      4248 2.38805E+01 2.12869E+01 0.00000E+00
 -1      4249 2.25028E+01 2.31005E+01 0.00000E+00
 -1      4250 1.93470E+01 2.73566E+01 0.00000E+00
 -1      4251 2.04720E+01 2.74415E+01 0.00000E+00
 -1      4252 9.47850E+01 2.08932E+01 0.00000E+00
 -1      4253 9.32850E+01 2.08932E+01 0.00000E+00
 -1      4254 4.37850E+01 2.08932E+01 0.00000E+00
 -1      4255 4.22850E+01 2.08932E+01 0.00000E+00
 -1      4256 9.16729E+01 2.39976E+01 0.00000E+00
 -1      4257 9.28874E+01 2.56091E+01 0.00000E+00
 -1      4258 9.43874E+01 2.56091E+01 0.00000E+00
 -1      4259 9.22728E+01 2.29404E+01 0.00000E+00
 -1      4260 1.00035E+02 1.95942E+01 0.00000E+00
 -1      4261 4.62266E+01 2.08963E+01 0.00000E+00
 -1      4262 1.27360E+02 2.66754E+01 0.00000E+00
 -1      4263 1.27713E+02 2.78342E+01 0.00000E+00
 -1      4264 4.00350E+01 1.95942E+01 0.00000E+00
 -1      4265 1.27306E+02 2.09441E+01 0.00000E+00
 -1      4266 1.26045E+02 2.09187E+01 0.00000E+00
 -1      4267 1.25295E+02 2.22177E+01 0.00000E+00
 -1      4268 3.47850E+01 2.08932E+01 0.00000E+00
 -1      4269 3.32850E+01 2.08932E+01 0.00000E+00
 -1      4270 1.30001E+02 2.10803E+01 0.00000E+00
 -1      4271 1.28671E+02 2.16329E+01 0.00000E+00
 -1      4272 1.04535E+02 2.21922E+01 0.00000E+00
 -1      4273 1.03785E+02 2.08932E+01 0.00000E+00
 -1      4274 1.02285E+02 2.08932E+01 0.00000E+00
 -1      4275 9.77850E+01 2.08932E+01 0.00000E+00
 -1      4276 9.62850E+01 2.08932E+01 0.00000E+00
 -1      4277 9.55350E+01 2.21922E+01 0.00000E+00
 -1      4278 2.23850E+01 2.45778E+01 0.00000E+00
 -1      4279 3.77850E+01 2.08932E+01 0.00000E+00
 -1      4280 3.62850E+01 2.08932E+01 0.00000E+00
 -1      4281 3.55350E+01 2.21922E+01 0.00000E+00
 -1      4282 1.27920E+02 2.29319E+01 0.00000E+00
 -1      4283 9.26253E+01 2.18991E+01 0.00000E+00
 -1      4284 1.27970E+02 2.39602E+01 0.00000E+00
 -1      4285 1.26606E+02 2.32715E+01 0.00000E+00
 -1      4286 1.25345E+02 2.32460E+01 0.00000E+00
 -1      4287 1.27966E+02 2.53536E+01 0.00000E+00
 -1      4288 4.51958E+01 2.11752E+01 0.00000E+00
 -1      4289 2.53805E+01 2.12869E+01 0.00000E+00
 -1      4290 3.10350E+01 1.95943E+01 0.00000E+00
 -1      4291 3.02850E+01 1.82953E+01 0.00000E+00
 -1      4292 2.87850E+01 1.82953E+01 0.00000E+00
 -1      4293 4.44458E+01 2.24742E+01 0.00000E+00
 -1      4294 2.94000E+01 2.53190E+01 0.00000E+00
 -1      4295 3.09000E+01 2.53190E+01 0.00000E+00
 -1      4296 4.15350E+01 2.21922E+01 0.00000E+00
 -1      4297 4.07850E+01 2.08932E+01 0.00000E+00
 -1      4298 3.92850E+01 2.08932E+01 0.00000E+00
 -1      4299 1.26050E+02 2.56217E+01 0.00000E+00
 -1      4300 3.84000E+01 2.53190E+01 0.00000E+00
 -1      4301 3.99000E+01 2.53190E+01 0.00000E+00
 -1      4302 4.18425E+01 2.44051E+01 0.00000E+00
 -1      4303 4.33425E+01 2.44051E+01 0.00000E+00
 -1      4304 2.80350E+01 1.95943E+01 0.00000E+00
 -1      4305 9.36826E+01 2.32335E+01 0.00000E+00
 -1      4306 9.61947E+01 2.56445E+01 0.00000E+00
 -1      4307 9.76947E+01 2.56445E+01 0.00000E+00
 -1      4308 9.91947E+01 2.56445E+01 0.00000E+00
 -1      4309 1.00695E+02 2.56445E+01 0.00000E+00
 -1      4310 9.84447E+01 2.43455E+01 0.00000E+00
 -1      4311 1.02240E+02 2.45679E+01 0.00000E+00
 -1      4312 1.03740E+02 2.45679E+01 0.00000E+00
 -1      4313 1.05240E+02 2.45679E+01 0.00000E+00
 -1      4314 1.06740E+02 2.45679E+01 0.00000E+00
 -1      4315 1.08240E+02 2.45679E+01 0.00000E+00
 -1      4316 1.09740E+02 2.45679E+01 0.00000E+00
 -1      4317 1.11240E+02 2.45679E+01 0.00000E+00
 -1      4318 1.12740E+02 2.45679E+01 0.00000E+00
 -1      4319 1.14240E+02 2.45679E+01 0.00000E+00
 -1      4320 1.15740E+02 2.45679E+01 0.00000E+00
 -1      4321 1.17240E+02 2.45679E+01 0.00000E+00
 -1      4322 1.18740E+02 2.45679E+01 0.00000E+00
 -1      4323 1.20240E+02 2.45679E+01 0.00000E+00
 -1      4324 1.21740E+02 2.45679E+01 0.00000E+00
 -1      4325 2.14095E+01 2.75688E+01 0.00000E+00
 -1      4326 1.23240E+02 2.45679E+01 0.00000E+00
 -1      4327 1.00785E+02 2.08932E+01 0.00000E+00
 -1      4328 9.92850E+01 2.08932E+01 0.00000E+00
 -1      4329 9.85350E+01 2.21922E+01 0.00000E+00
 -1      4330 1.01535E+02 2.21922E+01 0.00000E+00
 -1      4331 3.28425E+01 2.44051E+01 0.00000E+00
 -1      4332 3.43425E+01 2.44051E+01 0.00000E+00
 -1      4333 3.58425E+01 2.44051E+01 0.00000E+00
 -1      4334 3.73425E+01 2.44051E+01 0.00000E+00
 -1      4335 4.43733E+01 2.41262E+01 0.00000E+00
 -1      4336 2.70309E+01 2.11725E+01 0.00000E+00
 -1      4337 2.58764E+01 2.28652E+01 0.00000E+00
 -1      4338 2.65884E+01 2.46844E+01 0.00000E+00
 -1      4339 2.80884E+01 2.46844E+01 0.00000E+00
 -1      4340 3.20925E+01 2.31061E+01 0.00000E+00
 -1      4341 3.13425E+01 2.18071E+01 0.00000E+00
 -1      4342 2.34000E+01 2.79170E+01 0.00000E+00
 -1      4343 2.41500E+01 2.66180E+01 0.00000E+00
 -1      4344 2.24625E+01 2.77897E+01 0.00000E+00
 -1      4345 2.49380E+01 2.47987E+01 0.00000E+00
 -1      4346 3.85350E+01 2.21922E+01 0.00000E+00
 -1      4347 4.10925E+01 2.31061E+01 0.00000E+00
 -1      4348 9.51374E+01 2.43101E+01 0.00000E+00
 -1      4349 2.85309E+01 2.11725E+01 0.00000E+00
 -1      4350 1.24550E+02 2.56217E+01 0.00000E+00
 -1      4351 2.15970E+01 2.63971E+01 0.00000E+00
 -1      4352 2.88384E+01 2.33854E+01 0.00000E+00
 -1      4353 9.69899E+01 2.32689E+01 0.00000E+00
 -1      4354 9.54899E+01 2.32689E+01 0.00000E+00
 -1      4355 2.34381E+01 2.47987E+01 0.00000E+00
 -1      4356 2.98425E+01 2.18071E+01 0.00000E+00
 -1      4357 3.80925E+01 2.31061E+01 0.00000E+00
 -1      4358 9.84899E+01 2.32689E+01 0.00000E+00
 -1      4359 1.01490E+02 2.32689E+01 0.00000E+00
 -1      4360 9.99899E+01 2.32689E+01 0.00000E+00
 -1      4361 3.95925E+01 2.31061E+01 0.00000E+00
 -3
    3C                          2099                                     1
 -1       164    8    0    1
 -2         6         7        23      1132      1295      1149
 -1       165    8    0    1
 -2         7         8       164      1133      1296      1297
 -1       166    8    0    1
 -2         8         9       165      1134      1298      1299
 -1       167    8    0    1
 -2         8       165       164      1299      1300      1296
 -1       168    8    0    1
 -2         9        10       166      1135      1301      1302
 -1       169    8    0    1
 -2         9       166       165      1302      1303      1298
 -1       170    8    0    1
 -2        10        11       167      1136      1304      1305
 -1       171    8    0    1
 -2        10       167       166      1305      1306      1301
 -1       172    8    0    1
 -2        11        12       168      1137      1307      1308
 -1       173    8    0    1
 -2        11       168       167      1308      1309      1304
 -1       174    8    0    1
 -2        12        13       169      1138      1310      1311
 -1       175    8    0    1
 -2        12       169       168      1311      1312      1307
 -1       176    8    0    1
 -2        13        14       170      1139      1313      1314
 -1       177    8    0    1
 -2        13       170       169      1314      1315      1310
 -1       178    8    0    1
 -2        14        15       171      1140      1316      1317
 -1       179    8    0    1
 -2        14       171       170      1317      1318      1313
 -1       180    8    0    1
 -2        15        16       172      1141      1319      1320
 -1       181    8    0    1
 -2        15       172       171      1320      1321      1316
 -1       182    8    0    1
 -2        16        17       173      1142      1322      1323
 -1       183    8    0    1
 -2        16       173       172      1323      1324      1319
 -1       184    8    0    1
 -2        17        18       174      1143      1325      1326
 -1       185    8    0    1
 -2        17       174       173      1326      1327      1322
 -1       186    8    0    1
 -2        18        19       175      1144      1328      1329
 -1       187    8    0    1
 -2        18       175       174      1329      1330      1325
 -1       188    8    0    1
 -2        19        20       176      1145      1331      1332
 -1       189    8    0    1
 -2        19       176       175      1332      1333      1328
 -1       190    8    0    1
 -2        20        21       177      1146      1334      1335
 -1       191    8    0    1
 -2        20       177       176      1335      1336      1331
 -1       192    8    0    1
 -2        21        22       178      1147      1337      1338
 -1       193    8    0    1
 -2        21       178       177      1338      1339      1334
 -1       194    8    0    1
 -2        22         5       179      1148      1340      1341
 -1       195    8    0    1
 -2       178        22       179      1337      1341      1342
 -1       196    8    0    1
 -2         5        72       179      1199      1343      1340
 -1       197    8    0    1
 -2        24        23       180      1150      1344      1345
 -1       198    8    0    1
 -2        25        24       181      1151      1346      1347
 -1       199    8    0    1
 -2        24       180       181      1345      1348      1346
 -1       200    8    0    1
 -2        26        25       182      1152      1349      1350
 -1       201    8    0    1
 -2        25       181       182      1347      1351      1349
 -1       202    8    0    1
 -2        27        26       183      1153      1352      1353
 -1       203    8    0    1
 -2        26       182       183      1350      1354      1352
 -1       204    8    0    1
 -2        28        27       184      1154      1355      1356
 -1       205    8    0    1
 -2        27       183       184      1353      1357      1355
 -1       206    8    0    1
 -2        29        28       185      1155      1358      1359
 -1       207    8    0    1
 -2        28       184       185      1356      1360      1358
 -1       208    8    0    1
 -2        30        29       186      1156      1361      1362
 -1       209    8    0    1
 -2        29       185       186      1359      1363      1361
 -1       210    8    0    1
 -2        31        30       187      1157      1364      1365
 -1       211    8    0    1
 -2        30       186       187      1362      1366      1364
 -1       212    8    0    1
 -2        32        31       188      1158      1367      1368
 -1       213    8    0    1
 -2        31       187       188      1365      1369      1367
 -1       214    8    0    1
 -2        33        32       189      1159      1370      1371
 -1       215    8    0    1
 -2        32       188       189      1368      1372      1370
 -1       216    8    0    1
 -2        34        33       190      1160      1373      1374
 -1       217    8    0    1
 -2        33       189       190      1371      1375      1373
 -1       218    8    0    1
 -2        35        34       191      1161      1376      1377
 -1       219    8    0    1
 -2        34       190       191      1374      1378      1376
 -1       220    8    0    1
 -2        36        35       192      1162      1379      1380
 -1       221    8    0    1
 -2        35       191       192      1377      1381      1379
 -1       222    8    0    1
 -2        37        36       193      1163      1382      1383
 -1       223    8    0    1
 -2        36       192       193      1380      1384      1382
 -1       224    8    0    1
 -2        38        37       194      1164      1385      1386
 -1       225    8    0    1
 -2        37       193       194      1383      1387      1385
 -1       226    8    0    1
 -2        39        38       195      1165      1388      1389
 -1       227    8    0    1
 -2        38       194       195      1386      1390      1388
 -1       228    8    0    1
 -2        40        39       196      1166      1391      1392
 -1       229    8    0    1
 -2        39       195       196      1389      1393      1391
 -1       230    8    0    1
 -2        41        40       197      1167      1394      1395
 -1       231    8    0    1
 -2        40       196       197      1392      1396      1394
 -1       232    8    0    1
 -2        42        41       198      1168      1397      1398
 -1       233    8    0    1
 -2        41       197       198      1395      1399      1397
 -1       234    8    0    1
 -2        43        42       199      1169      1400      1401
 -1       235    8    0    1
 -2        42       198       199      1398      1402      1400
 -1       236    8    0    1
 -2        44        43       200      1170      1403      1404
 -1       237    8    0    1
 -2        43       199       200      1401      1405      1403
 -1       238    8    0    1
 -2        45        44       201      1171      1406      1407
 -1       239    8    0    1
 -2        44       200       201      1404      1408      1406
 -1       240    8    0    1
 -2        46        45       202      1172      1409      1410
 -1       241    8    0    1
 -2        45       201       202      1407      1411      1409
 -1       242    8    0    1
 -2        47        46       203      1173      1412      1413
 -1       243    8    0    1
 -2        46       202       203      1410      1414      1412
 -1       244    8    0    1
 -2        48        47       204      1174      1415      1416
 -1       245    8    0    1
 -2        47       203       204      1413      1417      1415
 -1       246    8    0    1
 -2        49        48       205      1175      1418      1419
 -1       247    8    0    1
 -2        48       204       205      1416      1420      1418
 -1       248    8    0    1
 -2        50        49       206      1176      1421      1422
 -1       249    8    0    1
 -2        49       205       206      1419      1423      1421
 -1       250    8    0    1
 -2        51        50       207      1177      1424      1425
 -1       251    8    0    1
 -2        50       206       207      1422      1426      1424
 -1       252    8    0    1
 -2        52        51       208      1178      1427      1428
 -1       253    8    0    1
 -2        51       207       208      1425      1429      1427
 -1       254    8    0    1
 -2        53        52       209      1179      1430      1431
 -1       255    8    0    1
 -2        52       208       209      1428      1432      1430
 -1       256    8    0    1
 -2        54        53       210      1180      1433      1434
 -1       257    8    0    1
 -2        53       209       210      1431      1435      1433
 -1       258    8    0    1
 -2        55        54       211      1181      1436      1437
 -1       259    8    0    1
 -2        54       210       211      1434      1438      1436
 -1       260    8    0    1
 -2        56        55       212      1182      1439      1440
 -1       261    8    0    1
 -2        55       211       212      1437      1441      1439
 -1       262    8    0    1
 -2        57        56       213      1183      1442      1443
 -1       263    8    0    1
 -2        56       212       213      1440      1444      1442
 -1       264    8    0    1
 -2        58        57       214      1184      1445      1446
 -1       265    8    0    1
 -2        57       213       214      1443      1447      1445
 -1       266    8    0    1
 -2        59        58       215      1185      1448      1449
 -1       267    8    0    1
 -2        58       214       215      1446      1450      1448
 -1       268    8    0    1
 -2        60        59       216      1186      1451      1452
 -1       269    8    0    1
 -2        59       215       216      1449      1453      1451
 -1       270    8    0    1
 -2        61        60       217      1187      1454      1455
 -1       271    8    0    1
 -2        60       216       217      1452      1456      1454
 -1       272    8    0    1
 -2        62        61       218      1188      1457      1458
 -1       273    8    0    1
 -2        61       217       218      1455      1459      1457
 -1       274    8    0    1
 -2        63        62       219      1189      1460      1461
 -1       275    8    0    1
 -2        62       218       219      1458      1462      1460
 -1       276    8    0    1
 -2        64        63       220      1190      1463      1464
 -1       277    8    0    1
 -2        63       219       220      1461      1465      1463
 -1       278    8    0    1
 -2        65        64       221      1191      1466      1467
 -1       279    8    0    1
 -2        64       220       221      1464      1468      1466
 -1       280    8    0    1
 -2        66        65       222      1192      1469      1470
 -1       281    8    0    1
 -2        65       221       222      1467      1471      1469
 -1       282    8    0    1
 -2        67        66       223      1193      1472      1473
 -1       283    8    0    1
 -2        66       222       223      1470      1474      1472
 -1       284    8    0    1
 -2        68        67       224      1194      1475      1476
 -1       285    8    0    1
 -2        67       223       224      1473      1477      1475
 -1       286    8    0    1
 -2        69        68       225      1195      1478      1479
 -1       287    8    0    1
 -2        68       224       225      1476      1480      1478
 -1       288    8    0    1
 -2        70        69       226      1196      1481      1482
 -1       289    8    0    1
 -2        69       225       226      1479      1483      1481
 -1       290    8    0    1
 -2        71        70       227      1197      1484      1485
 -1       291    8    0    1
 -2        70       226       227      1482      1486      1484
 -1       292    8    0    1
 -2         4        71       136      1198      1487      1265
 -1       293    8    0    1
 -2       136        71       227      1487      1485      1488
 -1       294    8    0    1
 -2        72        73       228      1200      1489      1490
 -1       295    8    0    1
 -2        72       228       179      1490      1491      1343
 -1       296    8    0    1
 -2        73        74       229      1201      1492      1493
 -1       297    8    0    1
 -2        73       229       228      1493      1494      1489
 -1       298    8    0    1
 -2        74        75       230      1202      1495      1496
 -1       299    8    0    1
 -2        74       230       229      1496      1497      1492
 -1       300    8    0    1
 -2        75        76       231      1203      1498      1499
 -1       301    8    0    1
 -2        75       231       230      1499      1500      1495
 -1       302    8    0    1
 -2        76        77       232      1204      1501      1502
 -1       303    8    0    1
 -2        76       232       231      1502      1503      1498
 -1       304    8    0    1
 -2        77        78       233      1205      1504      1505
 -1       305    8    0    1
 -2        77       233       232      1505      1506      1501
 -1       306    8    0    1
 -2        78        79       234      1206      1507      1508
 -1       307    8    0    1
 -2        78       234       233      1508      1509      1504
 -1       308    8    0    1
 -2        79        80       235      1207      1510      1511
 -1       309    8    0    1
 -2        79       235       234      1511      1512      1507
 -1       310    8    0    1
 -2        80        81       236      1208      1513      1514
 -1       311    8    0    1
 -2        80       236       235      1514      1515      1510
 -1       312    8    0    1
 -2        81        82       237      1209      1516      1517
 -1       313    8    0    1
 -2        81       237       236      1517      1518      1513
 -1       314    8    0    1
 -2        82        83       238      1210      1519      1520
 -1       315    8    0    1
 -2        82       238       237      1520      1521      1516
 -1       316    8    0    1
 -2        83        84       239      1211      1522      1523
 -1       317    8    0    1
 -2        83       239       238      1523      1524      1519
 -1       318    8    0    1
 -2        84        85       240      1212      1525      1526
 -1       319    8    0    1
 -2        84       240       239      1526      1527      1522
 -1       320    8    0    1
 -2        85        86       241      1213      1528      1529
 -1       321    8    0    1
 -2        85       241       240      1529      1530      1525
 -1       322    8    0    1
 -2        86        87       242      1214      1531      1532
 -1       323    8    0    1
 -2        86       242       241      1532      1533      1528
 -1       324    8    0    1
 -2        87        88       243      1215      1534      1535
 -1       325    8    0    1
 -2        87       243       242      1535      1536      1531
 -1       326    8    0    1
 -2        88        89       244      1216      1537      1538
 -1       327    8    0    1
 -2        88       244       243      1538      1539      1534
 -1       328    8    0    1
 -2        89        90       245      1217      1540      1541
 -1       329    8    0    1
 -2        89       245       244      1541      1542      1537
 -1       330    8    0    1
 -2        90        91       246      1218      1543      1544
 -1       331    8    0    1
 -2        90       246       245      1544      1545      1540
 -1       332    8    0    1
 -2        91        92       247      1219      1546      1547
 -1       333    8    0    1
 -2        91       247       246      1547      1548      1543
 -1       334    8    0    1
 -2        92        93       248      1220      1549      1550
 -1       335    8    0    1
 -2        92       248       247      1550      1551      1546
 -1       336    8    0    1
 -2        93        94       249      1221      1552      1553
 -1       337    8    0    1
 -2        93       249       248      1553      1554      1549
 -1       338    8    0    1
 -2        94        95       250      1222      1555      1556
 -1       339    8    0    1
 -2        94       250       249      1556      1557      1552
 -1       340    8    0    1
 -2        95        96       251      1223      1558      1559
 -1       341    8    0    1
 -2        95       251       250      1559      1560      1555
 -1       342    8    0    1
 -2        96        97       252      1224      1561      1562
 -1       343    8    0    1
 -2        96       252       251      1562      1563      1558
 -1       344    8    0    1
 -2        97        98       253      1225      1564      1565
 -1       345    8    0    1
 -2        97       253       252      1565      1566      1561
 -1       346    8    0    1
 -2        98        99       254      1226      1567      1568
 -1       347    8    0    1
 -2        98       254       253      1568      1569      1564
 -1       348    8    0    1
 -2        99       100       255      1227      1570      1571
 -1       349    8    0    1
 -2        99       255       254      1571      1572      1567
 -1       350    8    0    1
 -2       100       101       256      1228      1573      1574
 -1       351    8    0    1
 -2       100       256       255      1574      1575      1570
 -1       352    8    0    1
 -2       101       102       257      1229      1576      1577
 -1       353    8    0    1
 -2       101       257       256      1577      1578      1573
 -1       354    8    0    1
 -2       102       103       258      1230      1579      1580
 -1       355    8    0    1
 -2       102       258       257      1580      1581      1576
 -1       356    8    0    1
 -2       103       104       259      1231      1582      1583
 -1       357    8    0    1
 -2       103       259       258      1583      1584      1579
 -1       358    8    0    1
 -2       104       105       260      1232      1585      1586
 -1       359    8    0    1
 -2       104       260       259      1586      1587      1582
 -1       360    8    0    1
 -2       105       106       261      1233      1588      1589
 -1       361    8    0    1
 -2       105       261       260      1589      1590      1585
 -1       362    8    0    1
 -2       106       107       262      1234      1591      1592
 -1       363    8    0    1
 -2       106       262       261      1592      1593      1588
 -1       364    8    0    1
 -2       107       108       263      1235      1594      1595
 -1       365    8    0    1
 -2       107       263       262      1595      1596      1591
 -1       366    8    0    1
 -2       108       109       264      1236      1597      1598
 -1       367    8    0    1
 -2       108       264       263      1598      1599      1594
 -1       368    8    0    1
 -2       109       110       265      1237      1600      1601
 -1       369    8    0    1
 -2       109       265       264      1601      1602      1597
 -1       370    8    0    1
 -2       110       111       266      1238      1603      1604
 -1       371    8    0    1
 -2       110       266       265      1604      1605      1600
 -1       372    8    0    1
 -2       111       112       267      1239      1606      1607
 -1       373    8    0    1
 -2       111       267       266      1607      1608      1603
 -1       374    8    0    1
 -2       112       113       268      1240      1609      1610
 -1       375    8    0    1
 -2       112       268       267      1610      1611      1606
 -1       376    8    0    1
 -2       113       114       269      1241      1612      1613
 -1       377    8    0    1
 -2       113       269       268      1613      1614      1609
 -1       378    8    0    1
 -2       114       115       270      1242      1615      1616
 -1       379    8    0    1
 -2       114       270       269      1616      1617      1612
 -1       380    8    0    1
 -2       115       116       271      1243      1618      1619
 -1       381    8    0    1
 -2       115       271       270      1619      1620      1615
 -1       382    8    0    1
 -2       116       117       272      1244      1621      1622
 -1       383    8    0    1
 -2       116       272       271      1622      1623      1618
 -1       384    8    0    1
 -2       117       118       273      1245      1624      1625
 -1       385    8    0    1
 -2       117       273       272      1625      1626      1621
 -1       386    8    0    1
 -2       118       119       274      1246      1627      1628
 -1       387    8    0    1
 -2       118       274       273      1628      1629      1624
 -1       388    8    0    1
 -2       119       120       275      1247      1630      1631
 -1       389    8    0    1
 -2       119       275       274      1631      1632      1627
 -1       390    8    0    1
 -2       120         3       121      1248      1249      1633
 -1       391    8    0    1
 -2       121       122       276      1250      1634      1635
 -1       392    8    0    1
 -2       122       123       277      1251      1636      1637
 -1       393    8    0    1
 -2       122       277       276      1637      1638      1634
 -1       394    8    0    1
 -2       123       124       278      1252      1639      1640
 -1       395    8    0    1
 -2       123       278       277      1640      1641      1636
 -1       396    8    0    1
 -2       124       125       279      1253      1642      1643
 -1       397    8    0    1
 -2       124       279       278      1643      1644      1639
 -1       398    8    0    1
 -2       125       126       280      1254      1645      1646
 -1       399    8    0    1
 -2       125       280       279      1646      1647      1642
 -1       400    8    0    1
 -2       126       127       281      1255      1648      1649
 -1       401    8    0    1
 -2       126       281       280      1649      1650      1645
 -1       402    8    0    1
 -2       127       128       282      1256      1651      1652
 -1       403    8    0    1
 -2       127       282       281      1652      1653      1648
 -1       404    8    0    1
 -2       128       129       283      1257      1654      1655
 -1       405    8    0    1
 -2       128       283       282      1655      1656      1651
 -1       406    8    0    1
 -2       129       130       284      1258      1657      1658
 -1       407    8    0    1
 -2       129       284       283      1658      1659      1654
 -1       408    8    0    1
 -2       130       131       285      1259      1660      1661
 -1       409    8    0    1
 -2       130       285       284      1661      1662      1657
 -1       410    8    0    1
 -2       131       132       286      1260      1663      1664
 -1       411    8    0    1
 -2       131       286       285      1664      1665      1660
 -1       412    8    0    1
 -2       132       133       287      1261      1666      1667
 -1       413    8    0    1
 -2       132       287       286      1667      1668      1663
 -1       414    8    0    1
 -2       133       134       288      1262      1669      1670
 -1       415    8    0    1
 -2       133       288       287      1670      1671      1666
 -1       416    8    0    1
 -2       134       135       289      1263      1672      1673
 -1       417    8    0    1
 -2       134       289       288      1673      1674      1669
 -1       418    8    0    1
 -2       135       136       290      1264      1675      1676
 -1       419    8    0    1
 -2       289       135       290      1672      1676      1677
 -1       420    8    0    1
 -2       136       227       290      1488      1678      1675
 -1       421    8    0    1
 -2         2       137       291      1266      1679      1680
 -1       422    8    0    1
 -2       137       138       292      1267      1681      1682
 -1       423    8    0    1
 -2       138       139       293      1268      1683      1684
 -1       424    8    0    1
 -2       139       140       294      1269      1685      1686
 -1       425    8    0    1
 -2       140       141       295      1270      1687      1688
 -1       426    8    0    1
 -2       141       142       296      1271      1689      1690
 -1       427    8    0    1
 -2       142       143       297      1272      1691      1692
 -1       428    8    0    1
 -2       143       144       298      1273      1693      1694
 -1       429    8    0    1
 -2       144       145       299      1274      1695      1696
 -1       430    8    0    1
 -2       145       146       300      1275      1697      1698
 -1       431    8    0    1
 -2       146       147       301      1276      1699      1700
 -1       432    8    0    1
 -2       147       148       302      1277      1701      1702
 -1       433    8    0    1
 -2       148       149       303      1278      1703      1704
 -1       434    8    0    1
 -2       149       150       304      1279      1705      1706
 -1       435    8    0    1
 -2       150       151       305      1280      1707      1708
 -1       436    8    0    1
 -2       151       152       306      1281      1709      1710
 -1       437    8    0    1
 -2       152       153       307      1282      1711      1712
 -1       438    8    0    1
 -2       153       154       308      1283      1713      1714
 -1       439    8    0    1
 -2       154       155       309      1284      1715      1716
 -1       440    8    0    1
 -2       155       156       310      1285      1717      1718
 -1       441    8    0    1
 -2       156       157       311      1286      1719      1720
 -1       442    8    0    1
 -2       157       158       312      1287      1721      1722
 -1       443    8    0    1
 -2       158         1       313      1288      1723      1724
 -1       444    8    0    1
 -2         1       159       314      1289      1725      1726
 -1       445    8    0    1
 -2       159       160       315      1290      1727      1728
 -1       446    8    0    1
 -2       160       161       316      1291      1729      1730
 -1       447    8    0    1
 -2       161       162       317      1292      1731      1732
 -1       448    8    0    1
 -2       162       163       318      1293      1733      1734
 -1       449    8    0    1
 -2       163         2       319      1294      1735      1736
 -1       450    8    0    1
 -2       294       140       295      1685      1688      1737
 -1       451    8    0    1
 -2       293       139       294      1683      1686      1738
 -1       452    8    0    1
 -2       120       121       275      1633      1739      1630
 -1       453    8    0    1
 -2       121       276       275      1635      1740      1739
 -1       454    8    0    1
 -2       291       137       292      1679      1682      1741
 -1       455    8    0    1
 -2       292       138       293      1681      1684      1742
 -1       456    8    0    1
 -2         2       291       319      1680      1743      1735
 -1       457    8    0    1
 -2       141       296       295      1690      1744      1687
 -1       458    8    0    1
 -2       142       297       296      1692      1745      1689
 -1       459    8    0    1
 -2       143       298       297      1694      1746      1691
 -1       460    8    0    1
 -2       144       299       298      1696      1747      1693
 -1       461    8    0    1
 -2       145       300       299      1698      1748      1695
 -1       462    8    0    1
 -2       146       301       300      1700      1749      1697
 -1       463    8    0    1
 -2       147       302       301      1702      1750      1699
 -1       464    8    0    1
 -2       148       303       302      1704      1751      1701
 -1       465    8    0    1
 -2       149       304       303      1706      1752      1703
 -1       466    8    0    1
 -2       150       305       304      1708      1753      1705
 -1       467    8    0    1
 -2       151       306       305      1710      1754      1707
 -1       468    8    0    1
 -2       152       307       306      1712      1755      1709
 -1       469    8    0    1
 -2       153       308       307      1714      1756      1711
 -1       470    8    0    1
 -2       154       309       308      1716      1757      1713
 -1       471    8    0    1
 -2       155       310       309      1718      1758      1715
 -1       472    8    0    1
 -2       156       311       310      1720      1759      1717
 -1       473    8    0    1
 -2       157       312       311      1722      1760      1719
 -1       474    8    0    1
 -2       158       313       312      1724      1761      1721
 -1       475    8    0    1
 -2         1       314       313      1726      1762      1723
 -1       476    8    0    1
 -2       159       315       314      1728      1763      1725
 -1       477    8    0    1
 -2       160       316       315      1730      1764      1727
 -1       478    8    0    1
 -2       161       317       316      1732      1765      1729
 -1       479    8    0    1
 -2       162       318       317      1734      1766      1731
 -1       480    8    0    1
 -2       163       319       318      1736      1767      1733
 -1       481    8    0    1
 -2        23         7       164      1295      1297      1768
 -1       482    8    0    1
 -2       165       166       320      1303      1769      1770
 -1       483    8    0    1
 -2       164       165       321      1300      1771      1772
 -1       484    8    0    1
 -2       165       320       321      1770      1773      1771
 -1       485    8    0    1
 -2       167       168       322      1309      1774      1775
 -1       486    8    0    1
 -2       168       169       323      1312      1776      1777
 -1       487    8    0    1
 -2       168       323       322      1777      1778      1774
 -1       488    8    0    1
 -2       169       170       324      1315      1779      1780
 -1       489    8    0    1
 -2       169       324       323      1780      1781      1776
 -1       490    8    0    1
 -2       170       171       325      1318      1782      1783
 -1       491    8    0    1
 -2       170       325       324      1783      1784      1779
 -1       492    8    0    1
 -2       171       172       326      1321      1785      1786
 -1       493    8    0    1
 -2       171       326       325      1786      1787      1782
 -1       494    8    0    1
 -2       172       173       327      1324      1788      1789
 -1       495    8    0    1
 -2       172       327       326      1789      1790      1785
 -1       496    8    0    1
 -2       173       174       328      1327      1791      1792
 -1       497    8    0    1
 -2       173       328       327      1792      1793      1788
 -1       498    8    0    1
 -2       174       175       329      1330      1794      1795
 -1       499    8    0    1
 -2       174       329       328      1795      1796      1791
 -1       500    8    0    1
 -2       175       176       330      1333      1797      1798
 -1       501    8    0    1
 -2       175       330       329      1798      1799      1794
 -1       502    8    0    1
 -2       176       177       331      1336      1800      1801
 -1       503    8    0    1
 -2       176       331       330      1801      1802      1797
 -1       504    8    0    1
 -2       177       178       332      1339      1803      1804
 -1       505    8    0    1
 -2       177       332       331      1804      1805      1800
 -1       506    8    0    1
 -2       178       179       333      1342      1806      1807
 -1       507    8    0    1
 -2       332       178       333      1803      1807      1808
 -1       508    8    0    1
 -2       179       228       333      1491      1809      1806
 -1       509    8    0    1
 -2       180        23       164      1344      1768      1810
 -1       510    8    0    1
 -2       228       229       334      1494      1811      1812
 -1       511    8    0    1
 -2       228       334       333      1812      1813      1809
 -1       512    8    0    1
 -2       180       164       321      1810      1772      1814
 -1       513    8    0    1
 -2       182       181       335      1351      1815      1816
 -1       514    8    0    1
 -2       183       182       336      1354      1817      1818
 -1       515    8    0    1
 -2       182       335       336      1816      1819      1817
 -1       516    8    0    1
 -2       184       183       337      1357      1820      1821
 -1       517    8    0    1
 -2       183       336       337      1818      1822      1820
 -1       518    8    0    1
 -2       185       184       338      1360      1823      1824
 -1       519    8    0    1
 -2       184       337       338      1821      1825      1823
 -1       520    8    0    1
 -2       186       185       339      1363      1826      1827
 -1       521    8    0    1
 -2       185       338       339      1824      1828      1826
 -1       522    8    0    1
 -2       187       186       340      1366      1829      1830
 -1       523    8    0    1
 -2       186       339       340      1827      1831      1829
 -1       524    8    0    1
 -2       188       187       341      1369      1832      1833
 -1       525    8    0    1
 -2       187       340       341      1830      1834      1832
 -1       526    8    0    1
 -2       189       188       342      1372      1835      1836
 -1       527    8    0    1
 -2       188       341       342      1833      1837      1835
 -1       528    8    0    1
 -2       190       189       343      1375      1838      1839
 -1       529    8    0    1
 -2       189       342       343      1836      1840      1838
 -1       530    8    0    1
 -2       191       190       344      1378      1841      1842
 -1       531    8    0    1
 -2       190       343       344      1839      1843      1841
 -1       532    8    0    1
 -2       192       191       345      1381      1844      1845
 -1       533    8    0    1
 -2       191       344       345      1842      1846      1844
 -1       534    8    0    1
 -2       193       192       346      1384      1847      1848
 -1       535    8    0    1
 -2       192       345       346      1845      1849      1847
 -1       536    8    0    1
 -2       194       193       347      1387      1850      1851
 -1       537    8    0    1
 -2       193       346       347      1848      1852      1850
 -1       538    8    0    1
 -2       195       194       348      1390      1853      1854
 -1       539    8    0    1
 -2       194       347       348      1851      1855      1853
 -1       540    8    0    1
 -2       196       195       349      1393      1856      1857
 -1       541    8    0    1
 -2       195       348       349      1854      1858      1856
 -1       542    8    0    1
 -2       197       196       350      1396      1859      1860
 -1       543    8    0    1
 -2       196       349       350      1857      1861      1859
 -1       544    8    0    1
 -2       198       197       351      1399      1862      1863
 -1       545    8    0    1
 -2       197       350       351      1860      1864      1862
 -1       546    8    0    1
 -2       199       198       352      1402      1865      1866
 -1       547    8    0    1
 -2       198       351       352      1863      1867      1865
 -1       548    8    0    1
 -2       200       199       353      1405      1868      1869
 -1       549    8    0    1
 -2       199       352       353      1866      1870      1868
 -1       550    8    0    1
 -2       201       200       354      1408      1871      1872
 -1       551    8    0    1
 -2       200       353       354      1869      1873      1871
 -1       552    8    0    1
 -2       202       201       355      1411      1874      1875
 -1       553    8    0    1
 -2       201       354       355      1872      1876      1874
 -1       554    8    0    1
 -2       203       202       356      1414      1877      1878
 -1       555    8    0    1
 -2       202       355       356      1875      1879      1877
 -1       556    8    0    1
 -2       204       203       357      1417      1880      1881
 -1       557    8    0    1
 -2       203       356       357      1878      1882      1880
 -1       558    8    0    1
 -2       205       204       358      1420      1883      1884
 -1       559    8    0    1
 -2       204       357       358      1881      1885      1883
 -1       560    8    0    1
 -2       206       205       359      1423      1886      1887
 -1       561    8    0    1
 -2       205       358       359      1884      1888      1886
 -1       562    8    0    1
 -2       207       206       360      1426      1889      1890
 -1       563    8    0    1
 -2       206       359       360      1887      1891      1889
 -1       564    8    0    1
 -2       208       207       361      1429      1892      1893
 -1       565    8    0    1
 -2       207       360       361      1890      1894      1892
 -1       566    8    0    1
 -2       209       208       362      1432      1895      1896
 -1       567    8    0    1
 -2       208       361       362      1893      1897      1895
 -1       568    8    0    1
 -2       210       209       363      1435      1898      1899
 -1       569    8    0    1
 -2       209       362       363      1896      1900      1898
 -1       570    8    0    1
 -2       211       210       364      1438      1901      1902
 -1       571    8    0    1
 -2       210       363       364      1899      1903      1901
 -1       572    8    0    1
 -2       212       211       365      1441      1904      1905
 -1       573    8    0    1
 -2       211       364       365      1902      1906      1904
 -1       574    8    0    1
 -2       213       212       366      1444      1907      1908
 -1       575    8    0    1
 -2       212       365       366      1905      1909      1907
 -1       576    8    0    1
 -2       214       213       367      1447      1910      1911
 -1       577    8    0    1
 -2       213       366       367      1908      1912      1910
 -1       578    8    0    1
 -2       215       214       368      1450      1913      1914
 -1       579    8    0    1
 -2       214       367       368      1911      1915      1913
 -1       580    8    0    1
 -2       216       215       369      1453      1916      1917
 -1       581    8    0    1
 -2       215       368       369      1914      1918      1916
 -1       582    8    0    1
 -2       217       216       370      1456      1919      1920
 -1       583    8    0    1
 -2       216       369       370      1917      1921      1919
 -1       584    8    0    1
 -2       218       217       371      1459      1922      1923
 -1       585    8    0    1
 -2       217       370       371      1920      1924      1922
 -1       586    8    0    1
 -2       219       218       372      1462      1925      1926
 -1       587    8    0    1
 -2       218       371       372      1923      1927      1925
 -1       588    8    0    1
 -2       220       219       373      1465      1928      1929
 -1       589    8    0    1
 -2       219       372       373      1926      1930      1928
 -1       590    8    0    1
 -2       221       220       374      1468      1931      1932
 -1       591    8    0    1
 -2       220       373       374      1929      1933      1931
 -1       592    8    0    1
 -2       222       221       375      1471      1934      1935
 -1       593    8    0    1
 -2       221       374       375      1932      1936      1934
 -1       594    8    0    1
 -2       223       222       376      1474      1937      1938
 -1       595    8    0    1
 -2       222       375       376      1935      1939      1937
 -1       596    8    0    1
 -2       224       223       377      1477      1940      1941
 -1       597    8    0    1
 -2       223       376       377      1938      1942      1940
 -1       598    8    0    1
 -2       225       224       378      1480      1943      1944
 -1       599    8    0    1
 -2       224       377       378      1941      1945      1943
 -1       600    8    0    1
 -2       226       225       379      1483      1946      1947
 -1       601    8    0    1
 -2       225       378       379      1944      1948      1946
 -1       602    8    0    1
 -2       227       226       380      1486      1949      1950
 -1       603    8    0    1
 -2       290       227       380      1678      1950      1951
 -1       604    8    0    1
 -2       226       379       380      1947      1952      1949
 -1       605    8    0    1
 -2       229       230       381      1497      1953      1954
 -1       606    8    0    1
 -2       229       381       334      1954      1955      1811
 -1       607    8    0    1
 -2       230       231       382      1500      1956      1957
 -1       608    8    0    1
 -2       230       382       381      1957      1958      1953
 -1       609    8    0    1
 -2       231       232       383      1503      1959      1960
 -1       610    8    0    1
 -2       231       383       382      1960      1961      1956
 -1       611    8    0    1
 -2       232       233       384      1506      1962      1963
 -1       612    8    0    1
 -2       232       384       383      1963      1964      1959
 -1       613    8    0    1
 -2       233       234       385      1509      1965      1966
 -1       614    8    0    1
 -2       233       385       384      1966      1967      1962
 -1       615    8    0    1
 -2       234       235       386      1512      1968      1969
 -1       616    8    0    1
 -2       234       386       385      1969      1970      1965
 -1       617    8    0    1
 -2       235       236       387      1515      1971      1972
 -1       618    8    0    1
 -2       235       387       386      1972      1973      1968
 -1       619    8    0    1
 -2       236       237       388      1518      1974      1975
 -1       620    8    0    1
 -2       236       388       387      1975      1976      1971
 -1       621    8    0    1
 -2       237       238       389      1521      1977      1978
 -1       622    8    0    1
 -2       237       389       388      1978      1979      1974
 -1       623    8    0    1
 -2       238       239       390      1524      1980      1981
 -1       624    8    0    1
 -2       238       390       389      1981      1982      1977
 -1       625    8    0    1
 -2       239       240       391      1527      1983      1984
 -1       626    8    0    1
 -2       239       391       390      1984      1985      1980
 -1       627    8    0    1
 -2       240       241       392      1530      1986      1987
 -1       628    8    0    1
 -2       240       392       391      1987      1988      1983
 -1       629    8    0    1
 -2       241       242       393      1533      1989      1990
 -1       630    8    0    1
 -2       241       393       392      1990      1991      1986
 -1       631    8    0    1
 -2       242       243       394      1536      1992      1993
 -1       632    8    0    1
 -2       242       394       393      1993      1994      1989
 -1       633    8    0    1
 -2       243       244       395      1539      1995      1996
 -1       634    8    0    1
 -2       243       395       394      1996      1997      1992
 -1       635    8    0    1
 -2       244       245       396      1542      1998      1999
 -1       636    8    0    1
 -2       244       396       395      1999      2000      1995
 -1       637    8    0    1
 -2       245       246       397      1545      2001      2002
 -1       638    8    0    1
 -2       245       397       396      2002      2003      1998
 -1       639    8    0    1
 -2       246       247       398      1548      2004      2005
 -1       640    8    0    1
 -2       246       398       397      2005      2006      2001
 -1       641    8    0    1
 -2       247       248       399      1551      2007      2008
 -1       642    8    0    1
 -2       247       399       398      2008      2009      2004
 -1       643    8    0    1
 -2       248       249       400      1554      2010      2011
 -1       644    8    0    1
 -2       248       400       399      2011      2012      2007
 -1       645    8    0    1
 -2       249       250       401      1557      2013      2014
 -1       646    8    0    1
 -2       249       401       400      2014      2015      2010
 -1       647    8    0    1
 -2       250       251       402      1560      2016      2017
 -1       648    8    0    1
 -2       250       402       401      2017      2018      2013
 -1       649    8    0    1
 -2       251       252       403      1563      2019      2020
 -1       650    8    0    1
 -2       251       403       402      2020      2021      2016
 -1       651    8    0    1
 -2       252       253       404      1566      2022      2023
 -1       652    8    0    1
 -2       252       404       403      2023      2024      2019
 -1       653    8    0    1
 -2       253       254       405      1569      2025      2026
 -1       654    8    0    1
 -2       253       405       404      2026      2027      2022
 -1       655    8    0    1
 -2       254       255       406      1572      2028      2029
 -1       656    8    0    1
 -2       254       406       405      2029      2030      2025
 -1       657    8    0    1
 -2       255       256       407      1575      2031      2032
 -1       658    8    0    1
 -2       255       407       406      2032      2033      2028
 -1       659    8    0    1
 -2       256       257       408      1578      2034      2035
 -1       660    8    0    1
 -2       256       408       407      2035      2036      2031
 -1       661    8    0    1
 -2       257       258       409      1581      2037      2038
 -1       662    8    0    1
 -2       257       409       408      2038      2039      2034
 -1       663    8    0    1
 -2       258       259       410      1584      2040      2041
 -1       664    8    0    1
 -2       258       410       409      2041      2042      2037
 -1       665    8    0    1
 -2       259       260       411      1587      2043      2044
 -1       666    8    0    1
 -2       259       411       410      2044      2045      2040
 -1       667    8    0    1
 -2       260       261       412      1590      2046      2047
 -1       668    8    0    1
 -2       260       412       411      2047      2048      2043
 -1       669    8    0    1
 -2       261       262       413      1593      2049      2050
 -1       670    8    0    1
 -2       261       413       412      2050      2051      2046
 -1       671    8    0    1
 -2       262       263       414      1596      2052      2053
 -1       672    8    0    1
 -2       262       414       413      2053      2054      2049
 -1       673    8    0    1
 -2       263       264       415      1599      2055      2056
 -1       674    8    0    1
 -2       263       415       414      2056      2057      2052
 -1       675    8    0    1
 -2       264       265       416      1602      2058      2059
 -1       676    8    0    1
 -2       264       416       415      2059      2060      2055
 -1       677    8    0    1
 -2       265       266       417      1605      2061      2062
 -1       678    8    0    1
 -2       265       417       416      2062      2063      2058
 -1       679    8    0    1
 -2       266       267       418      1608      2064      2065
 -1       680    8    0    1
 -2       266       418       417      2065      2066      2061
 -1       681    8    0    1
 -2       267       268       419      1611      2067      2068
 -1       682    8    0    1
 -2       267       419       418      2068      2069      2064
 -1       683    8    0    1
 -2       268       269       420      1614      2070      2071
 -1       684    8    0    1
 -2       268       420       419      2071      2072      2067
 -1       685    8    0    1
 -2       269       270       421      1617      2073      2074
 -1       686    8    0    1
 -2       269       421       420      2074      2075      2070
 -1       687    8    0    1
 -2       270       271       422      1620      2076      2077
 -1       688    8    0    1
 -2       270       422       421      2077      2078      2073
 -1       689    8    0    1
 -2       271       272       423      1623      2079      2080
 -1       690    8    0    1
 -2       271       423       422      2080      2081      2076
 -1       691    8    0    1
 -2       272       273       424      1626      2082      2083
 -1       692    8    0    1
 -2       272       424       423      2083      2084      2079
 -1       693    8    0    1
 -2       273       274       425      1629      2085      2086
 -1       694    8    0    1
 -2       273       425       424      2086      2087      2082
 -1       695    8    0    1
 -2       274       275       426      1632      2088      2089
 -1       696    8    0    1
 -2       425       274       426      2085      2089      2090
 -1       697    8    0    1
 -2       275       276       426      1740      2091      2088
 -1       698    8    0    1
 -2       278       279       427      1644      2092      2093
 -1       699    8    0    1
 -2       277       278       428      1641      2094      2095
 -1       700    8    0    1
 -2       278       427       428      2093      2096      2094
 -1       701    8    0    1
 -2       276       277       429      1638      2097      2098
 -1       702    8    0    1
 -2       426       276       429      2091      2098      2099
 -1       703    8    0    1
 -2       277       428       429      2095      2100      2097
 -1       704    8    0    1
 -2       279       280       430      1647      2101      2102
 -1       705    8    0    1
 -2       279       430       427      2102      2103      2092
 -1       706    8    0    1
 -2       280       281       431      1650      2104      2105
 -1       707    8    0    1
 -2       280       431       430      2105      2106      2101
 -1       708    8    0    1
 -2       281       282       432      1653      2107      2108
 -1       709    8    0    1
 -2       281       432       431      2108      2109      2104
 -1       710    8    0    1
 -2       282       283       433      1656      2110      2111
 -1       711    8    0    1
 -2       282       433       432      2111      2112      2107
 -1       712    8    0    1
 -2       283       284       434      1659      2113      2114
 -1       713    8    0    1
 -2       283       434       433      2114      2115      2110
 -1       714    8    0    1
 -2       284       285       435      1662      2116      2117
 -1       715    8    0    1
 -2       284       435       434      2117      2118      2113
 -1       716    8    0    1
 -2       285       286       436      1665      2119      2120
 -1       717    8    0    1
 -2       285       436       435      2120      2121      2116
 -1       718    8    0    1
 -2       286       287       437      1668      2122      2123
 -1       719    8    0    1
 -2       286       437       436      2123      2124      2119
 -1       720    8    0    1
 -2       287       288       438      1671      2125      2126
 -1       721    8    0    1
 -2       287       438       437      2126      2127      2122
 -1       722    8    0    1
 -2       288       289       439      1674      2128      2129
 -1       723    8    0    1
 -2       288       439       438      2129      2130      2125
 -1       724    8    0    1
 -2       292       293       440      1742      2131      2132
 -1       725    8    0    1
 -2       319       291       441      1743      2133      2134
 -1       726    8    0    1
 -2       291       292       442      1741      2135      2136
 -1       727    8    0    1
 -2       293       294       443      1738      2137      2138
 -1       728    8    0    1
 -2       294       295       444      1737      2139      2140
 -1       729    8    0    1
 -2       166       167       445      1306      2141      2142
 -1       730    8    0    1
 -2       320       166       445      1769      2142      2143
 -1       731    8    0    1
 -2       167       322       445      1775      2144      2141
 -1       732    8    0    1
 -2       296       297       446      1745      2145      2146
 -1       733    8    0    1
 -2       297       298       447      1746      2147      2148
 -1       734    8    0    1
 -2       298       299       448      1747      2149      2150
 -1       735    8    0    1
 -2       299       300       449      1748      2151      2152
 -1       736    8    0    1
 -2       300       301       450      1749      2153      2154
 -1       737    8    0    1
 -2       301       302       451      1750      2155      2156
 -1       738    8    0    1
 -2       302       303       452      1751      2157      2158
 -1       739    8    0    1
 -2       303       304       453      1752      2159      2160
 -1       740    8    0    1
 -2       304       305       454      1753      2161      2162
 -1       741    8    0    1
 -2       305       306       455      1754      2163      2164
 -1       742    8    0    1
 -2       306       307       456      1755      2165      2166
 -1       743    8    0    1
 -2       307       308       457      1756      2167      2168
 -1       744    8    0    1
 -2       308       309       458      1757      2169      2170
 -1       745    8    0    1
 -2       309       310       459      1758      2171      2172
 -1       746    8    0    1
 -2       310       311       460      1759      2173      2174
 -1       747    8    0    1
 -2       310       460       459      2174      2175      2171
 -1       748    8    0    1
 -2       311       312       461      1760      2176      2177
 -1       749    8    0    1
 -2       312       313       462      1761      2178      2179
 -1       750    8    0    1
 -2       312       462       461      2179      2180      2176
 -1       751    8    0    1
 -2       313       314       463      1762      2181      2182
 -1       752    8    0    1
 -2       314       315       464      1763      2183      2184
 -1       753    8    0    1
 -2       315       316       465      1764      2185      2186
 -1       754    8    0    1
 -2       316       317       466      1765      2187      2188
 -1       755    8    0    1
 -2       317       318       467      1766      2189      2190
 -1       756    8    0    1
 -2       318       319       468      1767      2191      2192
 -1       757    8    0    1
 -2       295       296       469      1744      2193      2194
 -1       758    8    0    1
 -2       443       294       444      2137      2140      2195
 -1       759    8    0    1
 -2       180       321       181      1814      2196      1348
 -1       760    8    0    1
 -2       444       295       469      2139      2194      2197
 -1       761    8    0    1
 -2       296       446       469      2146      2198      2193
 -1       762    8    0    1
 -2       335       181       321      1815      2196      2199
 -1       763    8    0    1
 -2       442       292       440      2135      2132      2200
 -1       764    8    0    1
 -2       441       291       470      2133      2201      2202
 -1       765    8    0    1
 -2       291       442       470      2136      2203      2201
 -1       766    8    0    1
 -2       439       289       290      2128      1677      2204
 -1       767    8    0    1
 -2       440       293       443      2131      2138      2205
 -1       768    8    0    1
 -2       319       441       468      2134      2206      2191
 -1       769    8    0    1
 -2       467       318       468      2189      2192      2207
 -1       770    8    0    1
 -2       466       317       467      2187      2190      2208
 -1       771    8    0    1
 -2       465       316       466      2185      2188      2209
 -1       772    8    0    1
 -2       464       315       465      2183      2186      2210
 -1       773    8    0    1
 -2       462       313       463      2178      2182      2211
 -1       774    8    0    1
 -2       460       311       461      2173      2177      2212
 -1       775    8    0    1
 -2       458       309       471      2169      2213      2214
 -1       776    8    0    1
 -2       309       459       471      2172      2215      2213
 -1       777    8    0    1
 -2       457       308       458      2167      2170      2216
 -1       778    8    0    1
 -2       456       307       457      2165      2168      2217
 -1       779    8    0    1
 -2       455       306       456      2163      2166      2218
 -1       780    8    0    1
 -2       454       305       455      2161      2164      2219
 -1       781    8    0    1
 -2       453       304       454      2159      2162      2220
 -1       782    8    0    1
 -2       452       303       453      2157      2160      2221
 -1       783    8    0    1
 -2       451       302       452      2155      2158      2222
 -1       784    8    0    1
 -2       450       301       451      2153      2156      2223
 -1       785    8    0    1
 -2       449       300       450      2151      2154      2224
 -1       786    8    0    1
 -2       448       299       449      2149      2152      2225
 -1       787    8    0    1
 -2       446       297       472      2145      2226      2227
 -1       788    8    0    1
 -2       297       447       472      2148      2228      2226
 -1       789    8    0    1
 -2       447       298       448      2147      2150      2229
 -1       790    8    0    1
 -2       463       314       464      2181      2184      2230
 -1       791    8    0    1
 -2       334       381       473      1955      2231      2232
 -1       792    8    0    1
 -2       323       324       474      1781      2233      2234
 -1       793    8    0    1
 -2       322       323       475      1778      2235      2236
 -1       794    8    0    1
 -2       323       474       475      2234      2237      2235
 -1       795    8    0    1
 -2       325       326       476      1787      2238      2239
 -1       796    8    0    1
 -2       326       327       477      1790      2240      2241
 -1       797    8    0    1
 -2       326       477       476      2241      2242      2238
 -1       798    8    0    1
 -2       327       328       478      1793      2243      2244
 -1       799    8    0    1
 -2       327       478       477      2244      2245      2240
 -1       800    8    0    1
 -2       328       329       479      1796      2246      2247
 -1       801    8    0    1
 -2       328       479       478      2247      2248      2243
 -1       802    8    0    1
 -2       329       330       480      1799      2249      2250
 -1       803    8    0    1
 -2       329       480       479      2250      2251      2246
 -1       804    8    0    1
 -2       330       331       481      1802      2252      2253
 -1       805    8    0    1
 -2       330       481       480      2253      2254      2249
 -1       806    8    0    1
 -2       381       382       482      1958      2255      2256
 -1       807    8    0    1
 -2       381       482       473      2256      2257      2231
 -1       808    8    0    1
 -2       336       335       483      1819      2258      2259
 -1       809    8    0    1
 -2       444       469       484      2197      2260      2261
 -1       810    8    0    1
 -2       337       336       485      1822      2262      2263
 -1       811    8    0    1
 -2       336       483       485      2259      2264      2262
 -1       812    8    0    1
 -2       338       337       486      1825      2265      2266
 -1       813    8    0    1
 -2       337       485       486      2263      2267      2265
 -1       814    8    0    1
 -2       339       338       487      1828      2268      2269
 -1       815    8    0    1
 -2       338       486       487      2266      2270      2268
 -1       816    8    0    1
 -2       340       339       488      1831      2271      2272
 -1       817    8    0    1
 -2       339       487       488      2269      2273      2271
 -1       818    8    0    1
 -2       341       340       489      1834      2274      2275
 -1       819    8    0    1
 -2       340       488       489      2272      2276      2274
 -1       820    8    0    1
 -2       342       341       490      1837      2277      2278
 -1       821    8    0    1
 -2       341       489       490      2275      2279      2277
 -1       822    8    0    1
 -2       343       342       491      1840      2280      2281
 -1       823    8    0    1
 -2       342       490       491      2278      2282      2280
 -1       824    8    0    1
 -2       344       343       492      1843      2283      2284
 -1       825    8    0    1
 -2       343       491       492      2281      2285      2283
 -1       826    8    0    1
 -2       345       344       493      1846      2286      2287
 -1       827    8    0    1
 -2       344       492       493      2284      2288      2286
 -1       828    8    0    1
 -2       346       345       494      1849      2289      2290
 -1       829    8    0    1
 -2       345       493       494      2287      2291      2289
 -1       830    8    0    1
 -2       347       346       495      1852      2292      2293
 -1       831    8    0    1
 -2       346       494       495      2290      2294      2292
 -1       832    8    0    1
 -2       348       347       496      1855      2295      2296
 -1       833    8    0    1
 -2       347       495       496      2293      2297      2295
 -1       834    8    0    1
 -2       349       348       497      1858      2298      2299
 -1       835    8    0    1
 -2       348       496       497      2296      2300      2298
 -1       836    8    0    1
 -2       350       349       498      1861      2301      2302
 -1       837    8    0    1
 -2       349       497       498      2299      2303      2301
 -1       838    8    0    1
 -2       351       350       499      1864      2304      2305
 -1       839    8    0    1
 -2       350       498       499      2302      2306      2304
 -1       840    8    0    1
 -2       352       351       500      1867      2307      2308
 -1       841    8    0    1
 -2       351       499       500      2305      2309      2307
 -1       842    8    0    1
 -2       353       352       501      1870      2310      2311
 -1       843    8    0    1
 -2       352       500       501      2308      2312      2310
 -1       844    8    0    1
 -2       354       353       502      1873      2313      2314
 -1       845    8    0    1
 -2       353       501       502      2311      2315      2313
 -1       846    8    0    1
 -2       355       354       503      1876      2316      2317
 -1       847    8    0    1
 -2       354       502       503      2314      2318      2316
 -1       848    8    0    1
 -2       356       355       504      1879      2319      2320
 -1       849    8    0    1
 -2       355       503       504      2317      2321      2319
 -1       850    8    0    1
 -2       357       356       505      1882      2322      2323
 -1       851    8    0    1
 -2       356       504       505      2320      2324      2322
 -1       852    8    0    1
 -2       358       357       506      1885      2325      2326
 -1       853    8    0    1
 -2       357       505       506      2323      2327      2325
 -1       854    8    0    1
 -2       359       358       507      1888      2328      2329
 -1       855    8    0    1
 -2       358       506       507      2326      2330      2328
 -1       856    8    0    1
 -2       360       359       508      1891      2331      2332
 -1       857    8    0    1
 -2       359       507       508      2329      2333      2331
 -1       858    8    0    1
 -2       361       360       509      1894      2334      2335
 -1       859    8    0    1
 -2       360       508       509      2332      2336      2334
 -1       860    8    0    1
 -2       362       361       510      1897      2337      2338
 -1       861    8    0    1
 -2       361       509       510      2335      2339      2337
 -1       862    8    0    1
 -2       363       362       511      1900      2340      2341
 -1       863    8    0    1
 -2       362       510       511      2338      2342      2340
 -1       864    8    0    1
 -2       364       363       512      1903      2343      2344
 -1       865    8    0    1
 -2       363       511       512      2341      2345      2343
 -1       866    8    0    1
 -2       365       364       513      1906      2346      2347
 -1       867    8    0    1
 -2       364       512       513      2344      2348      2346
 -1       868    8    0    1
 -2       366       365       514      1909      2349      2350
 -1       869    8    0    1
 -2       365       513       514      2347      2351      2349
 -1       870    8    0    1
 -2       367       366       515      1912      2352      2353
 -1       871    8    0    1
 -2       366       514       515      2350      2354      2352
 -1       872    8    0    1
 -2       368       367       516      1915      2355      2356
 -1       873    8    0    1
 -2       367       515       516      2353      2357      2355
 -1       874    8    0    1
 -2       369       368       517      1918      2358      2359
 -1       875    8    0    1
 -2       368       516       517      2356      2360      2358
 -1       876    8    0    1
 -2       370       369       518      1921      2361      2362
 -1       877    8    0    1
 -2       369       517       518      2359      2363      2361
 -1       878    8    0    1
 -2       371       370       519      1924      2364      2365
 -1       879    8    0    1
 -2       370       518       519      2362      2366      2364
 -1       880    8    0    1
 -2       372       371       520      1927      2367      2368
 -1       881    8    0    1
 -2       371       519       520      2365      2369      2367
 -1       882    8    0    1
 -2       373       372       521      1930      2370      2371
 -1       883    8    0    1
 -2       372       520       521      2368      2372      2370
 -1       884    8    0    1
 -2       374       373       522      1933      2373      2374
 -1       885    8    0    1
 -2       373       521       522      2371      2375      2373
 -1       886    8    0    1
 -2       375       374       523      1936      2376      2377
 -1       887    8    0    1
 -2       374       522       523      2374      2378      2376
 -1       888    8    0    1
 -2       376       375       524      1939      2379      2380
 -1       889    8    0    1
 -2       375       523       524      2377      2381      2379
 -1       890    8    0    1
 -2       377       376       525      1942      2382      2383
 -1       891    8    0    1
 -2       376       524       525      2380      2384      2382
 -1       892    8    0    1
 -2       378       377       526      1945      2385      2386
 -1       893    8    0    1
 -2       377       525       526      2383      2387      2385
 -1       894    8    0    1
 -2       379       378       527      1948      2388      2389
 -1       895    8    0    1
 -2       378       526       527      2386      2390      2388
 -1       896    8    0    1
 -2       383       384       528      1964      2391      2392
 -1       897    8    0    1
 -2       384       385       529      1967      2393      2394
 -1       898    8    0    1
 -2       384       529       528      2394      2395      2391
 -1       899    8    0    1
 -2       385       386       530      1970      2396      2397
 -1       900    8    0    1
 -2       385       530       529      2397      2398      2393
 -1       901    8    0    1
 -2       386       387       531      1973      2399      2400
 -1       902    8    0    1
 -2       386       531       530      2400      2401      2396
 -1       903    8    0    1
 -2       387       388       532      1976      2402      2403
 -1       904    8    0    1
 -2       387       532       531      2403      2404      2399
 -1       905    8    0    1
 -2       388       389       533      1979      2405      2406
 -1       906    8    0    1
 -2       388       533       532      2406      2407      2402
 -1       907    8    0    1
 -2       389       390       534      1982      2408      2409
 -1       908    8    0    1
 -2       389       534       533      2409      2410      2405
 -1       909    8    0    1
 -2       390       391       535      1985      2411      2412
 -1       910    8    0    1
 -2       390       535       534      2412      2413      2408
 -1       911    8    0    1
 -2       391       392       536      1988      2414      2415
 -1       912    8    0    1
 -2       391       536       535      2415      2416      2411
 -1       913    8    0    1
 -2       392       393       537      1991      2417      2418
 -1       914    8    0    1
 -2       392       537       536      2418      2419      2414
 -1       915    8    0    1
 -2       393       394       538      1994      2420      2421
 -1       916    8    0    1
 -2       393       538       537      2421      2422      2417
 -1       917    8    0    1
 -2       394       395       539      1997      2423      2424
 -1       918    8    0    1
 -2       394       539       538      2424      2425      2420
 -1       919    8    0    1
 -2       395       396       540      2000      2426      2427
 -1       920    8    0    1
 -2       395       540       539      2427      2428      2423
 -1       921    8    0    1
 -2       396       397       541      2003      2429      2430
 -1       922    8    0    1
 -2       396       541       540      2430      2431      2426
 -1       923    8    0    1
 -2       397       398       542      2006      2432      2433
 -1       924    8    0    1
 -2       397       542       541      2433      2434      2429
 -1       925    8    0    1
 -2       398       399       543      2009      2435      2436
 -1       926    8    0    1
 -2       398       543       542      2436      2437      2432
 -1       927    8    0    1
 -2       399       400       544      2012      2438      2439
 -1       928    8    0    1
 -2       399       544       543      2439      2440      2435
 -1       929    8    0    1
 -2       400       401       545      2015      2441      2442
 -1       930    8    0    1
 -2       400       545       544      2442      2443      2438
 -1       931    8    0    1
 -2       401       402       546      2018      2444      2445
 -1       932    8    0    1
 -2       401       546       545      2445      2446      2441
 -1       933    8    0    1
 -2       402       403       547      2021      2447      2448
 -1       934    8    0    1
 -2       402       547       546      2448      2449      2444
 -1       935    8    0    1
 -2       403       404       548      2024      2450      2451
 -1       936    8    0    1
 -2       403       548       547      2451      2452      2447
 -1       937    8    0    1
 -2       404       405       549      2027      2453      2454
 -1       938    8    0    1
 -2       404       549       548      2454      2455      2450
 -1       939    8    0    1
 -2       405       406       550      2030      2456      2457
 -1       940    8    0    1
 -2       405       550       549      2457      2458      2453
 -1       941    8    0    1
 -2       406       407       551      2033      2459      2460
 -1       942    8    0    1
 -2       406       551       550      2460      2461      2456
 -1       943    8    0    1
 -2       407       408       552      2036      2462      2463
 -1       944    8    0    1
 -2       407       552       551      2463      2464      2459
 -1       945    8    0    1
 -2       408       409       553      2039      2465      2466
 -1       946    8    0    1
 -2       408       553       552      2466      2467      2462
 -1       947    8    0    1
 -2       409       410       554      2042      2468      2469
 -1       948    8    0    1
 -2       409       554       553      2469      2470      2465
 -1       949    8    0    1
 -2       410       411       555      2045      2471      2472
 -1       950    8    0    1
 -2       410       555       554      2472      2473      2468
 -1       951    8    0    1
 -2       411       412       556      2048      2474      2475
 -1       952    8    0    1
 -2       411       556       555      2475      2476      2471
 -1       953    8    0    1
 -2       412       413       557      2051      2477      2478
 -1       954    8    0    1
 -2       412       557       556      2478      2479      2474
 -1       955    8    0    1
 -2       413       414       558      2054      2480      2481
 -1       956    8    0    1
 -2       413       558       557      2481      2482      2477
 -1       957    8    0    1
 -2       414       415       559      2057      2483      2484
 -1       958    8    0    1
 -2       414       559       558      2484      2485      2480
 -1       959    8    0    1
 -2       415       416       560      2060      2486      2487
 -1       960    8    0    1
 -2       415       560       559      2487      2488      2483
 -1       961    8    0    1
 -2       416       417       561      2063      2489      2490
 -1       962    8    0    1
 -2       416       561       560      2490      2491      2486
 -1       963    8    0    1
 -2       417       418       562      2066      2492      2493
 -1       964    8    0    1
 -2       417       562       561      2493      2494      2489
 -1       965    8    0    1
 -2       418       419       563      2069      2495      2496
 -1       966    8    0    1
 -2       418       563       562      2496      2497      2492
 -1       967    8    0    1
 -2       419       420       564      2072      2498      2499
 -1       968    8    0    1
 -2       419       564       563      2499      2500      2495
 -1       969    8    0    1
 -2       420       421       565      2075      2501      2502
 -1       970    8    0    1
 -2       420       565       564      2502      2503      2498
 -1       971    8    0    1
 -2       421       422       566      2078      2504      2505
 -1       972    8    0    1
 -2       421       566       565      2505      2506      2501
 -1       973    8    0    1
 -2       422       423       567      2081      2507      2508
 -1       974    8    0    1
 -2       422       567       566      2508      2509      2504
 -1       975    8    0    1
 -2       423       424       568      2084      2510      2511
 -1       976    8    0    1
 -2       423       568       567      2511      2512      2507
 -1       977    8    0    1
 -2       424       425       569      2087      2513      2514
 -1       978    8    0    1
 -2       424       569       568      2514      2515      2510
 -1       979    8    0    1
 -2       425       426       429      2090      2099      2516
 -1       980    8    0    1
 -2       430       431       570      2106      2517      2518
 -1       981    8    0    1
 -2       431       432       571      2109      2519      2520
 -1       982    8    0    1
 -2       431       571       570      2520      2521      2517
 -1       983    8    0    1
 -2       428       427       572      2096      2522      2523
 -1       984    8    0    1
 -2       427       430       573      2103      2524      2525
 -1       985    8    0    1
 -2       572       427       573      2522      2525      2526
 -1       986    8    0    1
 -2       430       570       573      2518      2527      2524
 -1       987    8    0    1
 -2       432       433       574      2112      2528      2529
 -1       988    8    0    1
 -2       432       574       571      2529      2530      2519
 -1       989    8    0    1
 -2       433       434       575      2115      2531      2532
 -1       990    8    0    1
 -2       433       575       574      2532      2533      2528
 -1       991    8    0    1
 -2       434       435       576      2118      2534      2535
 -1       992    8    0    1
 -2       434       576       575      2535      2536      2531
 -1       993    8    0    1
 -2       435       436       577      2121      2537      2538
 -1       994    8    0    1
 -2       435       577       576      2538      2539      2534
 -1       995    8    0    1
 -2       436       437       578      2124      2540      2541
 -1       996    8    0    1
 -2       436       578       577      2541      2542      2537
 -1       997    8    0    1
 -2       437       438       579      2127      2543      2544
 -1       998    8    0    1
 -2       437       579       578      2544      2545      2540
 -1       999    8    0    1
 -2       438       439       580      2130      2546      2547
 -1      1000    8    0    1
 -2       438       580       579      2547      2548      2543
 -1      1001    8    0    1
 -2       440       443       581      2205      2549      2550
 -1      1002    8    0    1
 -2       382       383       582      1961      2551      2552
 -1      1003    8    0    1
 -2       383       528       582      2392      2553      2551
 -1      1004    8    0    1
 -2       439       290       380      2204      1951      2554
 -1      1005    8    0    1
 -2       468       441       583      2206      2555      2556
 -1      1006    8    0    1
 -2       442       440       584      2200      2557      2558
 -1      1007    8    0    1
 -2       335       321       585      2199      2559      2560
 -1      1008    8    0    1
 -2       483       335       585      2258      2560      2561
 -1      1009    8    0    1
 -2       321       320       585      1773      2562      2559
 -1      1010    8    0    1
 -2       467       468       586      2207      2563      2564
 -1      1011    8    0    1
 -2       324       325       587      1784      2565      2566
 -1      1012    8    0    1
 -2       474       324       587      2233      2566      2567
 -1      1013    8    0    1
 -2       325       476       587      2239      2568      2565
 -1      1014    8    0    1
 -2       447       448       588      2229      2569      2570
 -1      1015    8    0    1
 -2       463       464       589      2230      2571      2572
 -1      1016    8    0    1
 -2       448       449       590      2225      2573      2574
 -1      1017    8    0    1
 -2       449       450       591      2224      2575      2576
 -1      1018    8    0    1
 -2       450       451       592      2223      2577      2578
 -1      1019    8    0    1
 -2       450       592       591      2578      2579      2575
 -1      1020    8    0    1
 -2       451       452       593      2222      2580      2581
 -1      1021    8    0    1
 -2       452       453       594      2221      2582      2583
 -1      1022    8    0    1
 -2       452       594       593      2583      2584      2580
 -1      1023    8    0    1
 -2       453       454       595      2220      2585      2586
 -1      1024    8    0    1
 -2       454       455       596      2219      2587      2588
 -1      1025    8    0    1
 -2       455       456       597      2218      2589      2590
 -1      1026    8    0    1
 -2       456       457       598      2217      2591      2592
 -1      1027    8    0    1
 -2       456       598       597      2592      2593      2589
 -1      1028    8    0    1
 -2       457       458       599      2216      2594      2595
 -1      1029    8    0    1
 -2       459       460       600      2175      2596      2597
 -1      1030    8    0    1
 -2       460       461       601      2212      2598      2599
 -1      1031    8    0    1
 -2       461       462       602      2180      2600      2601
 -1      1032    8    0    1
 -2       462       463       603      2211      2602      2603
 -1      1033    8    0    1
 -2       464       465       604      2210      2604      2605
 -1      1034    8    0    1
 -2       465       466       605      2209      2606      2607
 -1      1035    8    0    1
 -2       466       467       606      2208      2608      2609
 -1      1036    8    0    1
 -2       466       606       605      2609      2610      2606
 -1      1037    8    0    1
 -2       469       446       607      2198      2611      2612
 -1      1038    8    0    1
 -2       469       607       484      2612      2613      2260
 -1      1039    8    0    1
 -2       333       334       608      1813      2614      2615
 -1      1040    8    0    1
 -2       332       333       608      1808      2615      2616
 -1      1041    8    0    1
 -2       334       473       608      2232      2617      2614
 -1      1042    8    0    1
 -2       443       444       609      2195      2618      2619
 -1      1043    8    0    1
 -2       447       588       610      2570      2620      2621
 -1      1044    8    0    1
 -2       447       610       472      2621      2622      2228
 -1      1045    8    0    1
 -2       322       475       611      2236      2623      2624
 -1      1046    8    0    1
 -2       322       611       445      2624      2625      2144
 -1      1047    8    0    1
 -2       482       382       582      2255      2552      2626
 -1      1048    8    0    1
 -2       331       332       608      1805      2616      2627
 -1      1049    8    0    1
 -2       609       444       484      2618      2261      2628
 -1      1050    8    0    1
 -2       586       468       583      2563      2556      2629
 -1      1051    8    0    1
 -2       606       467       586      2608      2564      2630
 -1      1052    8    0    1
 -2       470       442       584      2203      2558      2631
 -1      1053    8    0    1
 -2       425       429       569      2516      2632      2513
 -1      1054    8    0    1
 -2       429       428       569      2100      2633      2632
 -1      1055    8    0    1
 -2       440       581       584      2550      2634      2557
 -1      1056    8    0    1
 -2       581       443       609      2549      2619      2635
 -1      1057    8    0    1
 -2       441       470       583      2202      2636      2555
 -1      1058    8    0    1
 -2       604       465       612      2604      2637      2638
 -1      1059    8    0    1
 -2       465       605       612      2607      2639      2637
 -1      1060    8    0    1
 -2       603       463       589      2602      2572      2640
 -1      1061    8    0    1
 -2       331       608       481      2627      2641      2252
 -1      1062    8    0    1
 -2       602       462       603      2600      2603      2642
 -1      1063    8    0    1
 -2       601       461       602      2598      2601      2643
 -1      1064    8    0    1
 -2       600       460       601      2596      2599      2644
 -1      1065    8    0    1
 -2       598       457       599      2591      2595      2645
 -1      1066    8    0    1
 -2       596       455       597      2587      2590      2646
 -1      1067    8    0    1
 -2       471       459       600      2215      2597      2647
 -1      1068    8    0    1
 -2       458       471       613      2214      2648      2649
 -1      1069    8    0    1
 -2       458       613       599      2649      2650      2594
 -1      1070    8    0    1
 -2       594       453       595      2582      2586      2651
 -1      1071    8    0    1
 -2       592       451       614      2577      2652      2653
 -1      1072    8    0    1
 -2       451       593       614      2581      2654      2652
 -1      1073    8    0    1
 -2       590       449       591      2573      2576      2655
 -1      1074    8    0    1
 -2       585       320       445      2562      2143      2656
 -1      1075    8    0    1
 -2       589       464       604      2571      2605      2657
 -1      1076    8    0    1
 -2       588       448       590      2569      2574      2658
 -1      1077    8    0    1
 -2       446       472       615      2227      2659      2660
 -1      1078    8    0    1
 -2       446       615       607      2660      2661      2611
 -1      1079    8    0    1
 -2       595       454       596      2585      2588      2662
 -1      1080    8    0    1
 -2       439       380       616      2554      2663      2664
 -1      1081    8    0    1
 -2       580       439       616      2546      2664      2665
 -1      1082    8    0    1
 -2       380       379       616      1952      2666      2663
 -1      1083    8    0    1
 -2       569       428       572      2633      2523      2667
 -1      1084    8    0    1
 -2       616       379       527      2666      2389      2668
 -1      1085    8    0    1
 -2       477       478       617      2245      2669      2670
 -1      1086    8    0    1
 -2       476       477       618      2242      2671      2672
 -1      1087    8    0    1
 -2       477       617       618      2670      2673      2671
 -1      1088    8    0    1
 -2       479       480       619      2251      2674      2675
 -1      1089    8    0    1
 -2       480       481       620      2254      2676      2677
 -1      1090    8    0    1
 -2       480       620       619      2677      2678      2674
 -1      1091    8    0    1
 -2       473       482       621      2257      2679      2680
 -1      1092    8    0    1
 -2       602       603       622      2642      2681      2682
 -1      1093    8    0    1
 -2       586       583       623      2629      2683      2684
 -1      1094    8    0    1
 -2       606       586       624      2630      2685      2686
 -1      1095    8    0    1
 -2       486       485       625      2267      2687      2688
 -1      1096    8    0    1
 -2       487       486       626      2270      2689      2690
 -1      1097    8    0    1
 -2       486       625       626      2688      2691      2689
 -1      1098    8    0    1
 -2       488       487       627      2273      2692      2693
 -1      1099    8    0    1
 -2       487       626       627      2690      2694      2692
 -1      1100    8    0    1
 -2       489       488       628      2276      2695      2696
 -1      1101    8    0    1
 -2       488       627       628      2693      2697      2695
 -1      1102    8    0    1
 -2       490       489       629      2279      2698      2699
 -1      1103    8    0    1
 -2       489       628       629      2696      2700      2698
 -1      1104    8    0    1
 -2       491       490       630      2282      2701      2702
 -1      1105    8    0    1
 -2       490       629       630      2699      2703      2701
 -1      1106    8    0    1
 -2       492       491       631      2285      2704      2705
 -1      1107    8    0    1
 -2       491       630       631      2702      2706      2704
 -1      1108    8    0    1
 -2       493       492       632      2288      2707      2708
 -1      1109    8    0    1
 -2       492       631       632      2705      2709      2707
 -1      1110    8    0    1
 -2       494       493       633      2291      2710      2711
 -1      1111    8    0    1
 -2       493       632       633      2708      2712      2710
 -1      1112    8    0    1
 -2       495       494       634      2294      2713      2714
 -1      1113    8    0    1
 -2       494       633       634      2711      2715      2713
 -1      1114    8    0    1
 -2       496       495       635      2297      2716      2717
 -1      1115    8    0    1
 -2       495       634       635      2714      2718      2716
 -1      1116    8    0    1
 -2       497       496       636      2300      2719      2720
 -1      1117    8    0    1
 -2       496       635       636      2717      2721      2719
 -1      1118    8    0    1
 -2       498       497       637      2303      2722      2723
 -1      1119    8    0    1
 -2       497       636       637      2720      2724      2722
 -1      1120    8    0    1
 -2       499       498       638      2306      2725      2726
 -1      1121    8    0    1
 -2       498       637       638      2723      2727      2725
 -1      1122    8    0    1
 -2       500       499       639      2309      2728      2729
 -1      1123    8    0    1
 -2       499       638       639      2726      2730      2728
 -1      1124    8    0    1
 -2       501       500       640      2312      2731      2732
 -1      1125    8    0    1
 -2       500       639       640      2729      2733      2731
 -1      1126    8    0    1
 -2       502       501       641      2315      2734      2735
 -1      1127    8    0    1
 -2       501       640       641      2732      2736      2734
 -1      1128    8    0    1
 -2       503       502       642      2318      2737      2738
 -1      1129    8    0    1
 -2       502       641       642      2735      2739      2737
 -1      1130    8    0    1
 -2       504       503       643      2321      2740      2741
 -1      1131    8    0    1
 -2       503       642       643      2738      2742      2740
 -1      1132    8    0    1
 -2       505       504       644      2324      2743      2744
 -1      1133    8    0    1
 -2       504       643       644      2741      2745      2743
 -1      1134    8    0    1
 -2       506       505       645      2327      2746      2747
 -1      1135    8    0    1
 -2       505       644       645      2744      2748      2746
 -1      1136    8    0    1
 -2       507       506       646      2330      2749      2750
 -1      1137    8    0    1
 -2       506       645       646      2747      2751      2749
 -1      1138    8    0    1
 -2       508       507       647      2333      2752      2753
 -1      1139    8    0    1
 -2       507       646       647      2750      2754      2752
 -1      1140    8    0    1
 -2       509       508       648      2336      2755      2756
 -1      1141    8    0    1
 -2       508       647       648      2753      2757      2755
 -1      1142    8    0    1
 -2       510       509       649      2339      2758      2759
 -1      1143    8    0    1
 -2       509       648       649      2756      2760      2758
 -1      1144    8    0    1
 -2       511       510       650      2342      2761      2762
 -1      1145    8    0    1
 -2       510       649       650      2759      2763      2761
 -1      1146    8    0    1
 -2       512       511       651      2345      2764      2765
 -1      1147    8    0    1
 -2       511       650       651      2762      2766      2764
 -1      1148    8    0    1
 -2       513       512       652      2348      2767      2768
 -1      1149    8    0    1
 -2       512       651       652      2765      2769      2767
 -1      1150    8    0    1
 -2       514       513       653      2351      2770      2771
 -1      1151    8    0    1
 -2       513       652       653      2768      2772      2770
 -1      1152    8    0    1
 -2       515       514       654      2354      2773      2774
 -1      1153    8    0    1
 -2       514       653       654      2771      2775      2773
 -1      1154    8    0    1
 -2       516       515       655      2357      2776      2777
 -1      1155    8    0    1
 -2       515       654       655      2774      2778      2776
 -1      1156    8    0    1
 -2       517       516       656      2360      2779      2780
 -1      1157    8    0    1
 -2       516       655       656      2777      2781      2779
 -1      1158    8    0    1
 -2       518       517       657      2363      2782      2783
 -1      1159    8    0    1
 -2       517       656       657      2780      2784      2782
 -1      1160    8    0    1
 -2       519       518       658      2366      2785      2786
 -1      1161    8    0    1
 -2       518       657       658      2783      2787      2785
 -1      1162    8    0    1
 -2       520       519       659      2369      2788      2789
 -1      1163    8    0    1
 -2       519       658       659      2786      2790      2788
 -1      1164    8    0    1
 -2       521       520       660      2372      2791      2792
 -1      1165    8    0    1
 -2       520       659       660      2789      2793      2791
 -1      1166    8    0    1
 -2       522       521       661      2375      2794      2795
 -1      1167    8    0    1
 -2       521       660       661      2792      2796      2794
 -1      1168    8    0    1
 -2       523       522       662      2378      2797      2798
 -1      1169    8    0    1
 -2       522       661       662      2795      2799      2797
 -1      1170    8    0    1
 -2       524       523       663      2381      2800      2801
 -1      1171    8    0    1
 -2       523       662       663      2798      2802      2800
 -1      1172    8    0    1
 -2       525       524       664      2384      2803      2804
 -1      1173    8    0    1
 -2       524       663       664      2801      2805      2803
 -1      1174    8    0    1
 -2       526       525       665      2387      2806      2807
 -1      1175    8    0    1
 -2       525       664       665      2804      2808      2806
 -1      1176    8    0    1
 -2       527       526       666      2390      2809      2810
 -1      1177    8    0    1
 -2       526       665       666      2807      2811      2809
 -1      1178    8    0    1
 -2       529       530       667      2398      2812      2813
 -1      1179    8    0    1
 -2       569       572       668      2667      2814      2815
 -1      1180    8    0    1
 -2       569       668       568      2815      2816      2515
 -1      1181    8    0    1
 -2       528       529       669      2395      2817      2818
 -1      1182    8    0    1
 -2       529       667       669      2813      2819      2817
 -1      1183    8    0    1
 -2       531       532       670      2404      2820      2821
 -1      1184    8    0    1
 -2       532       533       671      2407      2822      2823
 -1      1185    8    0    1
 -2       532       671       670      2823      2824      2820
 -1      1186    8    0    1
 -2       533       534       672      2410      2825      2826
 -1      1187    8    0    1
 -2       533       672       671      2826      2827      2822
 -1      1188    8    0    1
 -2       534       535       673      2413      2828      2829
 -1      1189    8    0    1
 -2       534       673       672      2829      2830      2825
 -1      1190    8    0    1
 -2       535       536       674      2416      2831      2832
 -1      1191    8    0    1
 -2       535       674       673      2832      2833      2828
 -1      1192    8    0    1
 -2       536       537       675      2419      2834      2835
 -1      1193    8    0    1
 -2       536       675       674      2835      2836      2831
 -1      1194    8    0    1
 -2       537       538       676      2422      2837      2838
 -1      1195    8    0    1
 -2       537       676       675      2838      2839      2834
 -1      1196    8    0    1
 -2       538       539       677      2425      2840      2841
 -1      1197    8    0    1
 -2       538       677       676      2841      2842      2837
 -1      1198    8    0    1
 -2       539       540       678      2428      2843      2844
 -1      1199    8    0    1
 -2       539       678       677      2844      2845      2840
 -1      1200    8    0    1
 -2       540       541       679      2431      2846      2847
 -1      1201    8    0    1
 -2       540       679       678      2847      2848      2843
 -1      1202    8    0    1
 -2       541       542       680      2434      2849      2850
 -1      1203    8    0    1
 -2       541       680       679      2850      2851      2846
 -1      1204    8    0    1
 -2       543       544       681      2440      2852      2853
 -1      1205    8    0    1
 -2       544       545       682      2443      2854      2855
 -1      1206    8    0    1
 -2       545       546       615      2446      2856      2857
 -1      1207    8    0    1
 -2       547       548       683      2452      2858      2859
 -1      1208    8    0    1
 -2       548       549       684      2455      2860      2861
 -1      1209    8    0    1
 -2       548       684       683      2861      2862      2858
 -1      1210    8    0    1
 -2       549       550       685      2458      2863      2864
 -1      1211    8    0    1
 -2       549       685       684      2864      2865      2860
 -1      1212    8    0    1
 -2       550       551       686      2461      2866      2867
 -1      1213    8    0    1
 -2       550       686       685      2867      2868      2863
 -1      1214    8    0    1
 -2       551       552       687      2464      2869      2870
 -1      1215    8    0    1
 -2       551       687       686      2870      2871      2866
 -1      1216    8    0    1
 -2       552       553       688      2467      2872      2873
 -1      1217    8    0    1
 -2       552       688       687      2873      2874      2869
 -1      1218    8    0    1
 -2       553       554       689      2470      2875      2876
 -1      1219    8    0    1
 -2       553       689       688      2876      2877      2872
 -1      1220    8    0    1
 -2       554       555       690      2473      2878      2879
 -1      1221    8    0    1
 -2       554       690       689      2879      2880      2875
 -1      1222    8    0    1
 -2       555       556       691      2476      2881      2882
 -1      1223    8    0    1
 -2       555       691       690      2882      2883      2878
 -1      1224    8    0    1
 -2       556       557       692      2479      2884      2885
 -1      1225    8    0    1
 -2       556       692       691      2885      2886      2881
 -1      1226    8    0    1
 -2       557       558       693      2482      2887      2888
 -1      1227    8    0    1
 -2       557       693       692      2888      2889      2884
 -1      1228    8    0    1
 -2       558       559       694      2485      2890      2891
 -1      1229    8    0    1
 -2       558       694       693      2891      2892      2887
 -1      1230    8    0    1
 -2       559       560       695      2488      2893      2894
 -1      1231    8    0    1
 -2       559       695       694      2894      2895      2890
 -1      1232    8    0    1
 -2       560       561       696      2491      2896      2897
 -1      1233    8    0    1
 -2       560       696       695      2897      2898      2893
 -1      1234    8    0    1
 -2       561       562       697      2494      2899      2900
 -1      1235    8    0    1
 -2       561       697       696      2900      2901      2896
 -1      1236    8    0    1
 -2       562       563       698      2497      2902      2903
 -1      1237    8    0    1
 -2       562       698       697      2903      2904      2899
 -1      1238    8    0    1
 -2       563       564       699      2500      2905      2906
 -1      1239    8    0    1
 -2       563       699       698      2906      2907      2902
 -1      1240    8    0    1
 -2       564       565       700      2503      2908      2909
 -1      1241    8    0    1
 -2       564       700       699      2909      2910      2905
 -1      1242    8    0    1
 -2       565       566       701      2506      2911      2912
 -1      1243    8    0    1
 -2       565       701       700      2912      2913      2908
 -1      1244    8    0    1
 -2       566       567       702      2509      2914      2915
 -1      1245    8    0    1
 -2       566       702       701      2915      2916      2911
 -1      1246    8    0    1
 -2       567       568       703      2512      2917      2918
 -1      1247    8    0    1
 -2       702       567       703      2914      2918      2919
 -1      1248    8    0    1
 -2       568       668       703      2816      2920      2917
 -1      1249    8    0    1
 -2       574       575       704      2533      2921      2922
 -1      1250    8    0    1
 -2       616       527       705      2668      2923      2924
 -1      1251    8    0    1
 -2       527       666       705      2810      2925      2923
 -1      1252    8    0    1
 -2       570       571       706      2521      2926      2927
 -1      1253    8    0    1
 -2       575       576       707      2536      2928      2929
 -1      1254    8    0    1
 -2       575       707       704      2929      2930      2921
 -1      1255    8    0    1
 -2       571       574       708      2530      2931      2932
 -1      1256    8    0    1
 -2       706       571       708      2926      2932      2933
 -1      1257    8    0    1
 -2       574       704       708      2922      2934      2931
 -1      1258    8    0    1
 -2       582       528       709      2553      2935      2936
 -1      1259    8    0    1
 -2       528       669       709      2818      2937      2935
 -1      1260    8    0    1
 -2       484       607       710      2613      2938      2939
 -1      1261    8    0    1
 -2       576       577       711      2539      2940      2941
 -1      1262    8    0    1
 -2       576       711       707      2941      2942      2928
 -1      1263    8    0    1
 -2       577       578       712      2542      2943      2944
 -1      1264    8    0    1
 -2       577       712       711      2944      2945      2940
 -1      1265    8    0    1
 -2       578       579       713      2545      2946      2947
 -1      1266    8    0    1
 -2       578       713       712      2947      2948      2943
 -1      1267    8    0    1
 -2       581       609       714      2635      2949      2950
 -1      1268    8    0    1
 -2       584       581       715      2634      2951      2952
 -1      1269    8    0    1
 -2       581       714       715      2950      2953      2951
 -1      1270    8    0    1
 -2       483       585       716      2561      2954      2955
 -1      1271    8    0    1
 -2       596       597       717      2646      2956      2957
 -1      1272    8    0    1
 -2       590       591       718      2655      2958      2959
 -1      1273    8    0    1
 -2       530       531       719      2401      2960      2961
 -1      1274    8    0    1
 -2       667       530       719      2812      2961      2962
 -1      1275    8    0    1
 -2       531       670       719      2821      2963      2960
 -1      1276    8    0    1
 -2       485       483       720      2264      2964      2965
 -1      1277    8    0    1
 -2       625       485       720      2687      2965      2966
 -1      1278    8    0    1
 -2       483       716       720      2955      2967      2964
 -1      1279    8    0    1
 -2       609       484       721      2628      2968      2969
 -1      1280    8    0    1
 -2       484       710       721      2939      2970      2968
 -1      1281    8    0    1
 -2       478       479       722      2248      2971      2972
 -1      1282    8    0    1
 -2       617       478       722      2669      2972      2973
 -1      1283    8    0    1
 -2       479       619       722      2675      2974      2971
 -1      1284    8    0    1
 -2       482       582       723      2626      2975      2976
 -1      1285    8    0    1
 -2       621       482       723      2679      2976      2977
 -1      1286    8    0    1
 -2       582       709       723      2936      2978      2975
 -1      1287    8    0    1
 -2       470       584       724      2631      2979      2980
 -1      1288    8    0    1
 -2       589       604       725      2657      2981      2982
 -1      1289    8    0    1
 -2       475       474       726      2237      2983      2984
 -1      1290    8    0    1
 -2       481       608       473      2641      2617      2985
 -1      1291    8    0    1
 -2       585       445       716      2656      2986      2954
 -1      1292    8    0    1
 -2       591       592       727      2579      2987      2988
 -1      1293    8    0    1
 -2       593       594       728      2584      2989      2990
 -1      1294    8    0    1
 -2       580       616       705      2665      2924      2991
 -1      1295    8    0    1
 -2       471       600       729      2647      2992      2993
 -1      1296    8    0    1
 -2       597       598       730      2593      2994      2995
 -1      1297    8    0    1
 -2       594       595       731      2651      2996      2997
 -1      1298    8    0    1
 -2       598       599       732      2645      2998      2999
 -1      1299    8    0    1
 -2       600       601       733      2644      3000      3001
 -1      1300    8    0    1
 -2       601       602       734      2643      3002      3003
 -1      1301    8    0    1
 -2       583       470       735      2636      3004      3005
 -1      1302    8    0    1
 -2       623       583       735      2683      3005      3006
 -1      1303    8    0    1
 -2       470       724       735      2980      3007      3004
 -1      1304    8    0    1
 -2       588       590       682      2658      3008      3009
 -1      1305    8    0    1
 -2       603       589       736      2640      3010      3011
 -1      1306    8    0    1
 -2       589       725       736      2982      3012      3010
 -1      1307    8    0    1
 -2       605       606       737      2610      3013      3014
 -1      1308    8    0    1
 -2       606       624       737      2686      3015      3013
 -1      1309    8    0    1
 -2       595       596       738      2662      3016      3017
 -1      1310    8    0    1
 -2       611       475       739      2623      3018      3019
 -1      1311    8    0    1
 -2       475       726       739      2984      3020      3018
 -1      1312    8    0    1
 -2       476       618       740      2672      3021      3022
 -1      1313    8    0    1
 -2       476       740       587      3022      3023      2568
 -1      1314    8    0    1
 -2       724       584       741      2979      3024      3025
 -1      1315    8    0    1
 -2       584       715       741      2952      3026      3024
 -1      1316    8    0    1
 -2       602       622       734      2682      3027      3002
 -1      1317    8    0    1
 -2       586       623       742      2684      3028      3029
 -1      1318    8    0    1
 -2       586       742       624      3029      3030      2685
 -1      1319    8    0    1
 -2       595       738       731      3017      3031      2996
 -1      1320    8    0    1
 -2       570       706       743      2927      3032      3033
 -1      1321    8    0    1
 -2       570       743       573      3033      3034      2527
 -1      1322    8    0    1
 -2       588       682       610      3009      3035      2620
 -1      1323    8    0    1
 -2       680       542       727      2849      3036      3037
 -1      1324    8    0    1
 -2       542       543       718      2437      3038      3039
 -1      1325    8    0    1
 -2       546       547       744      2449      3040      3041
 -1      1326    8    0    1
 -2       471       729       613      2993      3042      2648
 -1      1327    8    0    1
 -2       572       573       668      2526      3043      2814
 -1      1328    8    0    1
 -2       710       607       744      2938      3044      3045
 -1      1329    8    0    1
 -2       733       601       745      3000      3046      3047
 -1      1330    8    0    1
 -2       601       734       745      3003      3048      3046
 -1      1331    8    0    1
 -2       609       721       714      2969      3049      2949
 -1      1332    8    0    1
 -2       579       580       705      2548      2991      3050
 -1      1333    8    0    1
 -2       732       599       746      2998      3051      3052
 -1      1334    8    0    1
 -2       599       613       746      2650      3053      3051
 -1      1335    8    0    1
 -2       620       481       621      2676      3054      3055
 -1      1336    8    0    1
 -2       612       605       747      2639      3056      3057
 -1      1337    8    0    1
 -2       605       737       747      3014      3058      3056
 -1      1338    8    0    1
 -2       718       591       727      2958      2988      3059
 -1      1339    8    0    1
 -2       717       597       730      2956      2995      3060
 -1      1340    8    0    1
 -2       604       612       748      2638      3061      3062
 -1      1341    8    0    1
 -2       604       748       725      3062      3063      2981
 -1      1342    8    0    1
 -2       596       717       738      2957      3064      3016
 -1      1343    8    0    1
 -2       474       587       749      2567      3065      3066
 -1      1344    8    0    1
 -2       726       474       749      2983      3066      3067
 -1      1345    8    0    1
 -2       587       740       749      3023      3068      3065
 -1      1346    8    0    1
 -2       590       718       681      2959      3069      3070
 -1      1347    8    0    1
 -2       682       545       610      2854      3071      3035
 -1      1348    8    0    1
 -2       614       593       750      2654      3072      3073
 -1      1349    8    0    1
 -2       593       728       750      2990      3074      3072
 -1      1350    8    0    1
 -2       730       598       732      2994      2999      3075
 -1      1351    8    0    1
 -2       445       611       716      2625      3076      2986
 -1      1352    8    0    1
 -2       481       473       621      2985      2680      3054
 -1      1353    8    0    1
 -2       615       472       610      2659      2622      3077
 -1      1354    8    0    1
 -2       728       594       731      2989      2997      3078
 -1      1355    8    0    1
 -2       607       615       744      2661      3079      3044
 -1      1356    8    0    1
 -2       727       592       751      2987      3080      3081
 -1      1357    8    0    1
 -2       680       727       751      3037      3081      3082
 -1      1358    8    0    1
 -2       592       614       751      2653      3083      3080
 -1      1359    8    0    1
 -2       729       600       752      2992      3084      3085
 -1      1360    8    0    1
 -2       600       733       752      3001      3086      3084
 -1      1361    8    0    1
 -2       622       603       736      2681      3011      3087
 -1      1362    8    0    1
 -2       744       547       683      3040      2859      3088
 -1      1363    8    0    1
 -2       718       543       681      3038      2853      3069
 -1      1364    8    0    1
 -2       727       542       718      3036      3039      3059
 -1      1365    8    0    1
 -2       546       744       615      3041      3079      2856
 -1      1366    8    0    1
 -2       579       705       753      3050      3089      3090
 -1      1367    8    0    1
 -2       713       579       753      2946      3090      3091
 -1      1368    8    0    1
 -2       705       666       753      2925      3092      3089
 -1      1369    8    0    1
 -2       619       620       754      2678      3093      3094
 -1      1370    8    0    1
 -2       627       626       755      2694      3095      3096
 -1      1371    8    0    1
 -2       628       627       756      2697      3097      3098
 -1      1372    8    0    1
 -2       627       755       756      3096      3099      3097
 -1      1373    8    0    1
 -2       629       628       757      2700      3100      3101
 -1      1374    8    0    1
 -2       628       756       757      3098      3102      3100
 -1      1375    8    0    1
 -2       630       629       758      2703      3103      3104
 -1      1376    8    0    1
 -2       629       757       758      3101      3105      3103
 -1      1377    8    0    1
 -2       631       630       759      2706      3106      3107
 -1      1378    8    0    1
 -2       630       758       759      3104      3108      3106
 -1      1379    8    0    1
 -2       632       631       760      2709      3109      3110
 -1      1380    8    0    1
 -2       631       759       760      3107      3111      3109
 -1      1381    8    0    1
 -2       633       632       761      2712      3112      3113
 -1      1382    8    0    1
 -2       632       760       761      3110      3114      3112
 -1      1383    8    0    1
 -2       634       633       762      2715      3115      3116
 -1      1384    8    0    1
 -2       633       761       762      3113      3117      3115
 -1      1385    8    0    1
 -2       635       634       763      2718      3118      3119
 -1      1386    8    0    1
 -2       634       762       763      3116      3120      3118
 -1      1387    8    0    1
 -2       636       635       764      2721      3121      3122
 -1      1388    8    0    1
 -2       635       763       764      3119      3123      3121
 -1      1389    8    0    1
 -2       637       636       765      2724      3124      3125
 -1      1390    8    0    1
 -2       636       764       765      3122      3126      3124
 -1      1391    8    0    1
 -2       638       637       766      2727      3127      3128
 -1      1392    8    0    1
 -2       637       765       766      3125      3129      3127
 -1      1393    8    0    1
 -2       639       638       767      2730      3130      3131
 -1      1394    8    0    1
 -2       638       766       767      3128      3132      3130
 -1      1395    8    0    1
 -2       640       639       768      2733      3133      3134
 -1      1396    8    0    1
 -2       639       767       768      3131      3135      3133
 -1      1397    8    0    1
 -2       641       640       769      2736      3136      3137
 -1      1398    8    0    1
 -2       640       768       769      3134      3138      3136
 -1      1399    8    0    1
 -2       642       641       745      2739      3139      3140
 -1      1400    8    0    1
 -2       644       643       770      2745      3141      3142
 -1      1401    8    0    1
 -2       645       644       771      2748      3143      3144
 -1      1402    8    0    1
 -2       644       770       771      3142      3145      3143
 -1      1403    8    0    1
 -2       646       645       772      2751      3146      3147
 -1      1404    8    0    1
 -2       645       771       772      3144      3148      3146
 -1      1405    8    0    1
 -2       647       646       773      2754      3149      3150
 -1      1406    8    0    1
 -2       646       772       773      3147      3151      3149
 -1      1407    8    0    1
 -2       648       647       774      2757      3152      3153
 -1      1408    8    0    1
 -2       647       773       774      3150      3154      3152
 -1      1409    8    0    1
 -2       649       648       775      2760      3155      3156
 -1      1410    8    0    1
 -2       648       774       775      3153      3157      3155
 -1      1411    8    0    1
 -2       650       649       776      2763      3158      3159
 -1      1412    8    0    1
 -2       649       775       776      3156      3160      3158
 -1      1413    8    0    1
 -2       651       650       777      2766      3161      3162
 -1      1414    8    0    1
 -2       650       776       777      3159      3163      3161
 -1      1415    8    0    1
 -2       652       651       778      2769      3164      3165
 -1      1416    8    0    1
 -2       651       777       778      3162      3166      3164
 -1      1417    8    0    1
 -2       653       652       779      2772      3167      3168
 -1      1418    8    0    1
 -2       652       778       779      3165      3169      3167
 -1      1419    8    0    1
 -2       654       653       780      2775      3170      3171
 -1      1420    8    0    1
 -2       653       779       780      3168      3172      3170
 -1      1421    8    0    1
 -2       655       654       781      2778      3173      3174
 -1      1422    8    0    1
 -2       654       780       781      3171      3175      3173
 -1      1423    8    0    1
 -2       656       655       782      2781      3176      3177
 -1      1424    8    0    1
 -2       655       781       782      3174      3178      3176
 -1      1425    8    0    1
 -2       657       656       783      2784      3179      3180
 -1      1426    8    0    1
 -2       656       782       783      3177      3181      3179
 -1      1427    8    0    1
 -2       658       657       784      2787      3182      3183
 -1      1428    8    0    1
 -2       657       783       784      3180      3184      3182
 -1      1429    8    0    1
 -2       659       658       785      2790      3185      3186
 -1      1430    8    0    1
 -2       658       784       785      3183      3187      3185
 -1      1431    8    0    1
 -2       660       659       786      2793      3188      3189
 -1      1432    8    0    1
 -2       659       785       786      3186      3190      3188
 -1      1433    8    0    1
 -2       661       660       787      2796      3191      3192
 -1      1434    8    0    1
 -2       660       786       787      3189      3193      3191
 -1      1435    8    0    1
 -2       662       661       788      2799      3194      3195
 -1      1436    8    0    1
 -2       661       787       788      3192      3196      3194
 -1      1437    8    0    1
 -2       663       662       789      2802      3197      3198
 -1      1438    8    0    1
 -2       662       788       789      3195      3199      3197
 -1      1439    8    0    1
 -2       664       663       790      2805      3200      3201
 -1      1440    8    0    1
 -2       663       789       790      3198      3202      3200
 -1      1441    8    0    1
 -2       665       664       791      2808      3203      3204
 -1      1442    8    0    1
 -2       664       790       791      3201      3205      3203
 -1      1443    8    0    1
 -2       666       665       792      2811      3206      3207
 -1      1444    8    0    1
 -2       753       666       792      3092      3207      3208
 -1      1445    8    0    1
 -2       665       791       792      3204      3209      3206
 -1      1446    8    0    1
 -2       669       667       793      2819      3210      3211
 -1      1447    8    0    1
 -2       671       672       794      2827      3212      3213
 -1      1448    8    0    1
 -2       670       671       795      2824      3214      3215
 -1      1449    8    0    1
 -2       671       794       795      3213      3216      3214
 -1      1450    8    0    1
 -2       673       674       796      2833      3217      3218
 -1      1451    8    0    1
 -2       674       675       797      2836      3219      3220
 -1      1452    8    0    1
 -2       674       797       796      3220      3221      3217
 -1      1453    8    0    1
 -2       675       676       798      2839      3222      3223
 -1      1454    8    0    1
 -2       675       798       797      3223      3224      3219
 -1      1455    8    0    1
 -2       676       677       799      2842      3225      3226
 -1      1456    8    0    1
 -2       676       799       798      3226      3227      3222
 -1      1457    8    0    1
 -2       677       678       800      2845      3228      3229
 -1      1458    8    0    1
 -2       677       800       799      3229      3230      3225
 -1      1459    8    0    1
 -2       678       679       801      2848      3231      3232
 -1      1460    8    0    1
 -2       678       801       800      3232      3233      3228
 -1      1461    8    0    1
 -2       679       680       802      2851      3234      3235
 -1      1462    8    0    1
 -2       801       679       802      3231      3235      3236
 -1      1463    8    0    1
 -2       680       751       802      3082      3237      3234
 -1      1464    8    0    1
 -2       681       544       682      2852      2855      3238
 -1      1465    8    0    1
 -2       545       615       610      2857      3077      3071
 -1      1466    8    0    1
 -2       613       729       803      3042      3239      3240
 -1      1467    8    0    1
 -2       683       684       804      2862      3241      3242
 -1      1468    8    0    1
 -2       686       687       805      2871      3243      3244
 -1      1469    8    0    1
 -2       687       688       806      2874      3245      3246
 -1      1470    8    0    1
 -2       687       806       805      3246      3247      3243
 -1      1471    8    0    1
 -2       688       689       807      2877      3248      3249
 -1      1472    8    0    1
 -2       688       807       806      3249      3250      3245
 -1      1473    8    0    1
 -2       689       690       808      2880      3251      3252
 -1      1474    8    0    1
 -2       689       808       807      3252      3253      3248
 -1      1475    8    0    1
 -2       690       691       809      2883      3254      3255
 -1      1476    8    0    1
 -2       690       809       808      3255      3256      3251
 -1      1477    8    0    1
 -2       691       692       810      2886      3257      3258
 -1      1478    8    0    1
 -2       691       810       809      3258      3259      3254
 -1      1479    8    0    1
 -2       692       693       811      2889      3260      3261
 -1      1480    8    0    1
 -2       692       811       810      3261      3262      3257
 -1      1481    8    0    1
 -2       693       694       812      2892      3263      3264
 -1      1482    8    0    1
 -2       693       812       811      3264      3265      3260
 -1      1483    8    0    1
 -2       694       695       813      2895      3266      3267
 -1      1484    8    0    1
 -2       694       813       812      3267      3268      3263
 -1      1485    8    0    1
 -2       695       696       814      2898      3269      3270
 -1      1486    8    0    1
 -2       695       814       813      3270      3271      3266
 -1      1487    8    0    1
 -2       696       697       815      2901      3272      3273
 -1      1488    8    0    1
 -2       696       815       814      3273      3274      3269
 -1      1489    8    0    1
 -2       697       698       816      2904      3275      3276
 -1      1490    8    0    1
 -2       697       816       815      3276      3277      3272
 -1      1491    8    0    1
 -2       698       699       817      2907      3278      3279
 -1      1492    8    0    1
 -2       698       817       816      3279      3280      3275
 -1      1493    8    0    1
 -2       699       700       818      2910      3281      3282
 -1      1494    8    0    1
 -2       699       818       817      3282      3283      3278
 -1      1495    8    0    1
 -2       700       701       819      2913      3284      3285
 -1      1496    8    0    1
 -2       700       819       818      3285      3286      3281
 -1      1497    8    0    1
 -2       701       702       820      2916      3287      3288
 -1      1498    8    0    1
 -2       701       820       819      3288      3289      3284
 -1      1499    8    0    1
 -2       618       617       821      2673      3290      3291
 -1      1500    8    0    1
 -2       709       669       822      2937      3292      3293
 -1      1501    8    0    1
 -2       669       793       822      3211      3294      3292
 -1      1502    8    0    1
 -2       704       707       823      2930      3295      3296
 -1      1503    8    0    1
 -2       712       713       824      2948      3297      3298
 -1      1504    8    0    1
 -2       707       711       825      2942      3299      3300
 -1      1505    8    0    1
 -2       707       825       823      3300      3301      3295
 -1      1506    8    0    1
 -2       715       714       826      2953      3302      3303
 -1      1507    8    0    1
 -2       734       622       827      3027      3304      3305
 -1      1508    8    0    1
 -2       711       712       828      2945      3306      3307
 -1      1509    8    0    1
 -2       825       711       828      3299      3307      3308
 -1      1510    8    0    1
 -2       712       824       828      3298      3309      3306
 -1      1511    8    0    1
 -2       717       730       829      3060      3310      3311
 -1      1512    8    0    1
 -2       685       686       830      2868      3312      3313
 -1      1513    8    0    1
 -2       686       805       830      3244      3314      3312
 -1      1514    8    0    1
 -2       684       685       831      2865      3315      3316
 -1      1515    8    0    1
 -2       804       684       831      3241      3316      3317
 -1      1516    8    0    1
 -2       685       830       831      3313      3318      3315
 -1      1517    8    0    1
 -2       668       573       743      3043      3034      3319
 -1      1518    8    0    1
 -2       672       673       832      2830      3320      3321
 -1      1519    8    0    1
 -2       794       672       832      3212      3321      3322
 -1      1520    8    0    1
 -2       673       796       832      3218      3323      3320
 -1      1521    8    0    1
 -2       710       744       683      3045      3088      3324
 -1      1522    8    0    1
 -2       626       625       833      2691      3325      3326
 -1      1523    8    0    1
 -2       626       833       755      3326      3327      3095
 -1      1524    8    0    1
 -2       738       717       834      3064      3328      3329
 -1      1525    8    0    1
 -2       731       738       835      3031      3330      3331
 -1      1526    8    0    1
 -2       738       834       835      3329      3332      3330
 -1      1527    8    0    1
 -2       590       681       682      3070      3238      3008
 -1      1528    8    0    1
 -2       730       732       836      3075      3333      3334
 -1      1529    8    0    1
 -2       716       611       739      3076      3019      3335
 -1      1530    8    0    1
 -2       620       621       837      3055      3336      3337
 -1      1531    8    0    1
 -2       754       620       837      3093      3337      3338
 -1      1532    8    0    1
 -2       621       723       837      2977      3339      3336
 -1      1533    8    0    1
 -2       622       736       770      3087      3340      3341
 -1      1534    8    0    1
 -2       714       721       804      3049      3342      3343
 -1      1535    8    0    1
 -2       736       725       838      3012      3344      3345
 -1      1536    8    0    1
 -2       737       624       839      3015      3346      3347
 -1      1537    8    0    1
 -2       728       731       840      3078      3348      3349
 -1      1538    8    0    1
 -2       740       618       841      3021      3350      3351
 -1      1539    8    0    1
 -2       618       821       841      3291      3352      3350
 -1      1540    8    0    1
 -2       741       715       842      3026      3353      3354
 -1      1541    8    0    1
 -2       715       826       842      3303      3355      3353
 -1      1542    8    0    1
 -2       641       769       745      3137      3356      3139
 -1      1543    8    0    1
 -2       742       623       843      3028      3357      3358
 -1      1544    8    0    1
 -2       743       706       844      3032      3359      3360
 -1      1545    8    0    1
 -2       622       770       827      3341      3361      3304
 -1      1546    8    0    1
 -2       739       726       845      3020      3362      3363
 -1      1547    8    0    1
 -2       625       720       846      2966      3364      3365
 -1      1548    8    0    1
 -2       625       846       833      3365      3366      3325
 -1      1549    8    0    1
 -2       643       642       827      2742      3367      3368
 -1      1550    8    0    1
 -2       704       823       847      3296      3369      3370
 -1      1551    8    0    1
 -2       704       847       708      3370      3371      2934
 -1      1552    8    0    1
 -2       720       716       739      2967      3335      3372
 -1      1553    8    0    1
 -2       710       683       721      3324      3373      2970
 -1      1554    8    0    1
 -2       735       724       848      3007      3374      3375
 -1      1555    8    0    1
 -2       670       795       849      3215      3376      3377
 -1      1556    8    0    1
 -2       670       849       719      3377      3378      2963
 -1      1557    8    0    1
 -2       829       730       836      3310      3334      3379
 -1      1558    8    0    1
 -2       683       804       721      3242      3342      3373
 -1      1559    8    0    1
 -2       820       702       850      3287      3380      3381
 -1      1560    8    0    1
 -2       702       703       850      2919      3382      3380
 -1      1561    8    0    1
 -2       821       617       851      3290      3383      3384
 -1      1562    8    0    1
 -2       617       722       851      2973      3385      3383
 -1      1563    8    0    1
 -2       706       708       852      2933      3386      3387
 -1      1564    8    0    1
 -2       844       706       852      3359      3387      3388
 -1      1565    8    0    1
 -2       708       847       852      3371      3389      3386
 -1      1566    8    0    1
 -2       619       754       853      3094      3390      3391
 -1      1567    8    0    1
 -2       619       853       722      3391      3392      2974
 -1      1568    8    0    1
 -2       624       742       839      3030      3393      3346
 -1      1569    8    0    1
 -2       745       734       827      3048      3305      3394
 -1      1570    8    0    1
 -2       717       829       854      3311      3395      3396
 -1      1571    8    0    1
 -2       717       854       834      3396      3397      3328
 -1      1572    8    0    1
 -2       836       732       855      3333      3398      3399
 -1      1573    8    0    1
 -2       732       746       855      3052      3400      3398
 -1      1574    8    0    1
 -2       733       745       769      3047      3356      3401
 -1      1575    8    0    1
 -2       826       714       831      3302      3402      3403
 -1      1576    8    0    1
 -2       747       737       839      3058      3347      3404
 -1      1577    8    0    1
 -2       746       613       803      3053      3240      3405
 -1      1578    8    0    1
 -2       803       729       856      3239      3406      3407
 -1      1579    8    0    1
 -2       729       752       856      3085      3408      3406
 -1      1580    8    0    1
 -2       612       747       857      3057      3409      3410
 -1      1581    8    0    1
 -2       612       857       748      3410      3411      3061
 -1      1582    8    0    1
 -2       668       743       858      3319      3412      3413
 -1      1583    8    0    1
 -2       703       668       858      2920      3413      3414
 -1      1584    8    0    1
 -2       743       844       858      3360      3415      3412
 -1      1585    8    0    1
 -2       724       741       859      3025      3416      3417
 -1      1586    8    0    1
 -2       724       859       848      3417      3418      3374
 -1      1587    8    0    1
 -2       713       753       860      3091      3419      3420
 -1      1588    8    0    1
 -2       824       713       860      3297      3420      3421
 -1      1589    8    0    1
 -2       753       792       860      3208      3422      3419
 -1      1590    8    0    1
 -2       750       728       861      3074      3423      3424
 -1      1591    8    0    1
 -2       728       840       861      3349      3425      3423
 -1      1592    8    0    1
 -2       643       827       770      3368      3361      3141
 -1      1593    8    0    1
 -2       667       719       862      2962      3426      3427
 -1      1594    8    0    1
 -2       719       849       862      3378      3428      3426
 -1      1595    8    0    1
 -2       614       750       751      3073      3429      3083
 -1      1596    8    0    1
 -2       731       835       840      3331      3430      3348
 -1      1597    8    0    1
 -2       667       862       793      3427      3431      3210
 -1      1598    8    0    1
 -2       838       725       748      3344      3063      3432
 -1      1599    8    0    1
 -2       723       709       863      2978      3433      3434
 -1      1600    8    0    1
 -2       837       723       863      3339      3434      3435
 -1      1601    8    0    1
 -2       709       822       863      3293      3436      3433
 -1      1602    8    0    1
 -2       714       804       831      3343      3317      3402
 -1      1603    8    0    1
 -2       623       735       864      3006      3437      3438
 -1      1604    8    0    1
 -2       843       623       864      3357      3438      3439
 -1      1605    8    0    1
 -2       735       848       864      3375      3440      3437
 -1      1606    8    0    1
 -2       726       749       865      3067      3441      3442
 -1      1607    8    0    1
 -2       726       865       845      3442      3443      3362
 -1      1608    8    0    1
 -2       827       642       745      3367      3140      3394
 -1      1609    8    0    1
 -2       739       845       846      3363      3444      3445
 -1      1610    8    0    1
 -2       757       756       866      3102      3446      3447
 -1      1611    8    0    1
 -2       758       757       867      3105      3448      3449
 -1      1612    8    0    1
 -2       757       866       867      3447      3450      3448
 -1      1613    8    0    1
 -2       759       758       868      3108      3451      3452
 -1      1614    8    0    1
 -2       758       867       868      3449      3453      3451
 -1      1615    8    0    1
 -2       760       759       869      3111      3454      3455
 -1      1616    8    0    1
 -2       759       868       869      3452      3456      3454
 -1      1617    8    0    1
 -2       761       760       870      3114      3457      3458
 -1      1618    8    0    1
 -2       760       869       870      3455      3459      3457
 -1      1619    8    0    1
 -2       762       761       871      3117      3460      3461
 -1      1620    8    0    1
 -2       761       870       871      3458      3462      3460
 -1      1621    8    0    1
 -2       763       762       872      3120      3463      3464
 -1      1622    8    0    1
 -2       762       871       872      3461      3465      3463
 -1      1623    8    0    1
 -2       764       763       873      3123      3466      3467
 -1      1624    8    0    1
 -2       763       872       873      3464      3468      3466
 -1      1625    8    0    1
 -2       765       764       874      3126      3469      3470
 -1      1626    8    0    1
 -2       764       873       874      3467      3471      3469
 -1      1627    8    0    1
 -2       766       765       875      3129      3472      3473
 -1      1628    8    0    1
 -2       765       874       875      3470      3474      3472
 -1      1629    8    0    1
 -2       767       766       876      3132      3475      3476
 -1      1630    8    0    1
 -2       766       875       876      3473      3477      3475
 -1      1631    8    0    1
 -2       769       768       856      3138      3478      3479
 -1      1632    8    0    1
 -2       742       843       877      3358      3480      3481
 -1      1633    8    0    1
 -2       772       771       838      3148      3482      3483
 -1      1634    8    0    1
 -2       773       772       857      3151      3484      3485
 -1      1635    8    0    1
 -2       775       774       878      3157      3486      3487
 -1      1636    8    0    1
 -2       776       775       879      3160      3488      3489
 -1      1637    8    0    1
 -2       775       878       879      3487      3490      3488
 -1      1638    8    0    1
 -2       777       776       880      3163      3491      3492
 -1      1639    8    0    1
 -2       776       879       880      3489      3493      3491
 -1      1640    8    0    1
 -2       778       777       881      3166      3494      3495
 -1      1641    8    0    1
 -2       777       880       881      3492      3496      3494
 -1      1642    8    0    1
 -2       779       778       882      3169      3497      3498
 -1      1643    8    0    1
 -2       778       881       882      3495      3499      3497
 -1      1644    8    0    1
 -2       780       779       883      3172      3500      3501
 -1      1645    8    0    1
 -2       779       882       883      3498      3502      3500
 -1      1646    8    0    1
 -2       781       780       884      3175      3503      3504
 -1      1647    8    0    1
 -2       780       883       884      3501      3505      3503
 -1      1648    8    0    1
 -2       782       781       885      3178      3506      3507
 -1      1649    8    0    1
 -2       781       884       885      3504      3508      3506
 -1      1650    8    0    1
 -2       783       782       886      3181      3509      3510
 -1      1651    8    0    1
 -2       782       885       886      3507      3511      3509
 -1      1652    8    0    1
 -2       784       783       887      3184      3512      3513
 -1      1653    8    0    1
 -2       783       886       887      3510      3514      3512
 -1      1654    8    0    1
 -2       785       784       888      3187      3515      3516
 -1      1655    8    0    1
 -2       784       887       888      3513      3517      3515
 -1      1656    8    0    1
 -2       786       785       889      3190      3518      3519
 -1      1657    8    0    1
 -2       785       888       889      3516      3520      3518
 -1      1658    8    0    1
 -2       787       786       890      3193      3521      3522
 -1      1659    8    0    1
 -2       786       889       890      3519      3523      3521
 -1      1660    8    0    1
 -2       788       787       891      3196      3524      3525
 -1      1661    8    0    1
 -2       787       890       891      3522      3526      3524
 -1      1662    8    0    1
 -2       789       788       892      3199      3527      3528
 -1      1663    8    0    1
 -2       788       891       892      3525      3529      3527
 -1      1664    8    0    1
 -2       790       789       893      3202      3530      3531
 -1      1665    8    0    1
 -2       789       892       893      3528      3532      3530
 -1      1666    8    0    1
 -2       791       790       894      3205      3533      3534
 -1      1667    8    0    1
 -2       790       893       894      3531      3535      3533
 -1      1668    8    0    1
 -2       835       834       895      3332      3536      3537
 -1      1669    8    0    1
 -2       795       794       896      3216      3538      3539
 -1      1670    8    0    1
 -2       751       750       802      3429      3540      3237
 -1      1671    8    0    1
 -2       797       798       897      3224      3541      3542
 -1      1672    8    0    1
 -2       796       797       898      3221      3543      3544
 -1      1673    8    0    1
 -2       797       897       898      3542      3545      3543
 -1      1674    8    0    1
 -2       799       800       899      3230      3546      3547
 -1      1675    8    0    1
 -2       822       793       900      3294      3548      3549
 -1      1676    8    0    1
 -2       807       808       901      3253      3550      3551
 -1      1677    8    0    1
 -2       756       755       902      3099      3552      3553
 -1      1678    8    0    1
 -2       756       902       866      3553      3554      3446
 -1      1679    8    0    1
 -2       806       807       903      3250      3555      3556
 -1      1680    8    0    1
 -2       807       901       903      3551      3557      3555
 -1      1681    8    0    1
 -2       805       806       904      3247      3558      3559
 -1      1682    8    0    1
 -2       806       903       904      3556      3560      3558
 -1      1683    8    0    1
 -2       808       809       905      3256      3561      3562
 -1      1684    8    0    1
 -2       808       905       901      3562      3563      3550
 -1      1685    8    0    1
 -2       809       810       906      3259      3564      3565
 -1      1686    8    0    1
 -2       809       906       905      3565      3566      3561
 -1      1687    8    0    1
 -2       810       811       907      3262      3567      3568
 -1      1688    8    0    1
 -2       810       907       906      3568      3569      3564
 -1      1689    8    0    1
 -2       811       812       908      3265      3570      3571
 -1      1690    8    0    1
 -2       811       908       907      3571      3572      3567
 -1      1691    8    0    1
 -2       812       813       909      3268      3573      3574
 -1      1692    8    0    1
 -2       812       909       908      3574      3575      3570
 -1      1693    8    0    1
 -2       813       814       910      3271      3576      3577
 -1      1694    8    0    1
 -2       813       910       909      3577      3578      3573
 -1      1695    8    0    1
 -2       814       815       911      3274      3579      3580
 -1      1696    8    0    1
 -2       814       911       910      3580      3581      3576
 -1      1697    8    0    1
 -2       815       816       912      3277      3582      3583
 -1      1698    8    0    1
 -2       815       912       911      3583      3584      3579
 -1      1699    8    0    1
 -2       816       817       913      3280      3585      3586
 -1      1700    8    0    1
 -2       816       913       912      3586      3587      3582
 -1      1701    8    0    1
 -2       817       818       914      3283      3588      3589
 -1      1702    8    0    1
 -2       817       914       913      3589      3590      3585
 -1      1703    8    0    1
 -2       818       819       915      3286      3591      3592
 -1      1704    8    0    1
 -2       818       915       914      3592      3593      3588
 -1      1705    8    0    1
 -2       819       820       916      3289      3594      3595
 -1      1706    8    0    1
 -2       819       916       915      3595      3596      3591
 -1      1707    8    0    1
 -2       826       831       917      3403      3597      3598
 -1      1708    8    0    1
 -2       842       826       917      3355      3598      3599
 -1      1709    8    0    1
 -2       831       830       917      3318      3600      3597
 -1      1710    8    0    1
 -2       720       739       846      3372      3445      3364
 -1      1711    8    0    1
 -2       823       825       918      3301      3601      3602
 -1      1712    8    0    1
 -2       747       839       919      3404      3603      3604
 -1      1713    8    0    1
 -2       747       919       857      3604      3605      3409
 -1      1714    8    0    1
 -2       770       736       771      3340      3606      3145
 -1      1715    8    0    1
 -2       771       736       838      3606      3345      3482
 -1      1716    8    0    1
 -2       772       838       748      3483      3432      3607
 -1      1717    8    0    1
 -2       829       836       920      3379      3608      3609
 -1      1718    8    0    1
 -2       830       805       921      3314      3610      3611
 -1      1719    8    0    1
 -2       917       830       921      3600      3611      3612
 -1      1720    8    0    1
 -2       805       904       921      3559      3613      3610
 -1      1721    8    0    1
 -2       749       740       922      3068      3614      3615
 -1      1722    8    0    1
 -2       749       922       865      3615      3616      3441
 -1      1723    8    0    1
 -2       839       742       923      3393      3617      3618
 -1      1724    8    0    1
 -2       742       877       923      3481      3619      3617
 -1      1725    8    0    1
 -2       798       799       924      3227      3620      3621
 -1      1726    8    0    1
 -2       897       798       924      3541      3621      3622
 -1      1727    8    0    1
 -2       799       899       924      3547      3623      3620
 -1      1728    8    0    1
 -2       793       862       925      3431      3624      3625
 -1      1729    8    0    1
 -2       793       925       900      3625      3626      3548
 -1      1730    8    0    1
 -2       840       835       926      3430      3627      3628
 -1      1731    8    0    1
 -2       733       769       752      3401      3629      3086
 -1      1732    8    0    1
 -2       746       803       927      3405      3630      3631
 -1      1733    8    0    1
 -2       755       833       928      3327      3632      3633
 -1      1734    8    0    1
 -2       755       928       902      3633      3634      3552
 -1      1735    8    0    1
 -2       752       769       856      3629      3479      3408
 -1      1736    8    0    1
 -2       853       754       929      3390      3635      3636
 -1      1737    8    0    1
 -2       839       923       930      3618      3637      3638
 -1      1738    8    0    1
 -2       839       930       919      3638      3639      3603
 -1      1739    8    0    1
 -2       848       859       931      3418      3640      3641
 -1      1740    8    0    1
 -2       862       849       932      3428      3642      3643
 -1      1741    8    0    1
 -2       862       932       925      3643      3644      3624
 -1      1742    8    0    1
 -2       833       846       933      3366      3645      3646
 -1      1743    8    0    1
 -2       928       833       933      3632      3646      3647
 -1      1744    8    0    1
 -2       846       845       933      3444      3648      3645
 -1      1745    8    0    1
 -2       856       768       934      3478      3649      3650
 -1      1746    8    0    1
 -2       803       856       934      3407      3650      3651
 -1      1747    8    0    1
 -2       768       767       934      3135      3652      3649
 -1      1748    8    0    1
 -2       920       836       935      3608      3653      3654
 -1      1749    8    0    1
 -2       836       855       935      3399      3655      3653
 -1      1750    8    0    1
 -2       750       861       801      3424      3656      3657
 -1      1751    8    0    1
 -2       722       853       851      3392      3658      3385
 -1      1752    8    0    1
 -2       773       857       936      3485      3659      3660
 -1      1753    8    0    1
 -2       774       773       936      3154      3660      3661
 -1      1754    8    0    1
 -2       857       919       936      3605      3662      3659
 -1      1755    8    0    1
 -2       835       895       926      3537      3663      3627
 -1      1756    8    0    1
 -2       895       834       937      3536      3664      3665
 -1      1757    8    0    1
 -2       834       854       937      3397      3666      3664
 -1      1758    8    0    1
 -2       792       791       938      3209      3667      3668
 -1      1759    8    0    1
 -2       860       792       938      3422      3668      3669
 -1      1760    8    0    1
 -2       791       894       938      3534      3670      3667
 -1      1761    8    0    1
 -2       795       896       939      3539      3671      3672
 -1      1762    8    0    1
 -2       795       939       849      3672      3673      3376
 -1      1763    8    0    1
 -2       802       750       801      3540      3657      3236
 -1      1764    8    0    1
 -2       824       860       938      3421      3669      3674
 -1      1765    8    0    1
 -2       796       898       940      3544      3675      3676
 -1      1766    8    0    1
 -2       796       940       832      3676      3677      3323
 -1      1767    8    0    1
 -2       822       900       941      3549      3678      3679
 -1      1768    8    0    1
 -2       800       801       942      3233      3680      3681
 -1      1769    8    0    1
 -2       824       938       943      3674      3682      3683
 -1      1770    8    0    1
 -2       824       943       828      3683      3684      3309
 -1      1771    8    0    1
 -2       823       918       944      3602      3685      3686
 -1      1772    8    0    1
 -2       823       944       847      3686      3687      3369
 -1      1773    8    0    1
 -2       864       848       931      3440      3641      3688
 -1      1774    8    0    1
 -2       916       820       945      3594      3689      3690
 -1      1775    8    0    1
 -2       820       850       945      3381      3691      3689
 -1      1776    8    0    1
 -2       922       740       841      3614      3351      3692
 -1      1777    8    0    1
 -2       741       842       946      3354      3693      3694
 -1      1778    8    0    1
 -2       741       946       859      3694      3695      3416
 -1      1779    8    0    1
 -2       774       936       878      3661      3696      3486
 -1      1780    8    0    1
 -2       821       851       947      3384      3697      3698
 -1      1781    8    0    1
 -2       844       852       948      3388      3699      3700
 -1      1782    8    0    1
 -2       821       947       949      3698      3701      3702
 -1      1783    8    0    1
 -2       821       949       841      3702      3703      3352
 -1      1784    8    0    1
 -2       854       829       950      3395      3704      3705
 -1      1785    8    0    1
 -2       829       920       950      3609      3706      3704
 -1      1786    8    0    1
 -2       855       746       927      3400      3631      3707
 -1      1787    8    0    1
 -2       843       864       951      3439      3708      3709
 -1      1788    8    0    1
 -2       864       931       951      3688      3710      3708
 -1      1789    8    0    1
 -2       703       858       850      3414      3711      3382
 -1      1790    8    0    1
 -2       825       828       952      3308      3712      3713
 -1      1791    8    0    1
 -2       918       825       952      3601      3713      3714
 -1      1792    8    0    1
 -2       828       943       952      3684      3715      3712
 -1      1793    8    0    1
 -2       822       941       863      3679      3716      3436
 -1      1794    8    0    1
 -2       845       865       953      3443      3717      3718
 -1      1795    8    0    1
 -2       845       953       933      3718      3719      3648
 -1      1796    8    0    1
 -2       794       832       954      3322      3720      3721
 -1      1797    8    0    1
 -2       896       794       954      3538      3721      3722
 -1      1798    8    0    1
 -2       832       940       954      3677      3723      3720
 -1      1799    8    0    1
 -2       934       767       876      3652      3476      3724
 -1      1800    8    0    1
 -2       927       803       934      3630      3651      3725
 -1      1801    8    0    1
 -2       877       843       955      3480      3726      3727
 -1      1802    8    0    1
 -2       843       951       955      3709      3728      3726
 -1      1803    8    0    1
 -2       800       942       899      3681      3729      3546
 -1      1804    8    0    1
 -2       844       948       945      3700      3730      3731
 -1      1805    8    0    1
 -2       931       859       956      3640      3732      3733
 -1      1806    8    0    1
 -2       859       946       956      3695      3734      3732
 -1      1807    8    0    1
 -2       867       866       957      3450      3735      3736
 -1      1808    8    0    1
 -2       901       905       958      3563      3737      3738
 -1      1809    8    0    1
 -2       927       934       876      3725      3724      3739
 -1      1810    8    0    1
 -2       929       754       863      3635      3740      3741
 -1      1811    8    0    1
 -2       868       867       959      3453      3742      3743
 -1      1812    8    0    1
 -2       867       957       959      3736      3744      3742
 -1      1813    8    0    1
 -2       869       868       960      3456      3745      3746
 -1      1814    8    0    1
 -2       868       959       960      3743      3747      3745
 -1      1815    8    0    1
 -2       870       869       961      3459      3748      3749
 -1      1816    8    0    1
 -2       869       960       961      3746      3750      3748
 -1      1817    8    0    1
 -2       871       870       962      3462      3751      3752
 -1      1818    8    0    1
 -2       870       961       962      3749      3753      3751
 -1      1819    8    0    1
 -2       872       871       963      3465      3754      3755
 -1      1820    8    0    1
 -2       871       962       963      3752      3756      3754
 -1      1821    8    0    1
 -2       873       872       964      3468      3757      3758
 -1      1822    8    0    1
 -2       872       963       964      3755      3759      3757
 -1      1823    8    0    1
 -2       874       873       965      3471      3760      3761
 -1      1824    8    0    1
 -2       873       964       965      3758      3762      3760
 -1      1825    8    0    1
 -2       875       874       966      3474      3763      3764
 -1      1826    8    0    1
 -2       874       965       966      3761      3765      3763
 -1      1827    8    0    1
 -2       876       875       967      3477      3766      3767
 -1      1828    8    0    1
 -2       875       966       967      3764      3768      3766
 -1      1829    8    0    1
 -2       801       861       942      3656      3769      3680
 -1      1830    8    0    1
 -2       851       853       968      3658      3770      3771
 -1      1831    8    0    1
 -2       947       851       968      3697      3771      3772
 -1      1832    8    0    1
 -2       853       929       968      3636      3773      3770
 -1      1833    8    0    1
 -2       936       919       930      3662      3639      3774
 -1      1834    8    0    1
 -2       880       879       969      3493      3775      3776
 -1      1835    8    0    1
 -2       881       880       970      3496      3777      3778
 -1      1836    8    0    1
 -2       880       969       970      3776      3779      3777
 -1      1837    8    0    1
 -2       882       881       971      3499      3780      3781
 -1      1838    8    0    1
 -2       881       970       971      3778      3782      3780
 -1      1839    8    0    1
 -2       883       882       972      3502      3783      3784
 -1      1840    8    0    1
 -2       882       971       972      3781      3785      3783
 -1      1841    8    0    1
 -2       884       883       973      3505      3786      3787
 -1      1842    8    0    1
 -2       883       972       973      3784      3788      3786
 -1      1843    8    0    1
 -2       885       884       974      3508      3789      3790
 -1      1844    8    0    1
 -2       884       973       974      3787      3791      3789
 -1      1845    8    0    1
 -2       886       885       975      3511      3792      3793
 -1      1846    8    0    1
 -2       885       974       975      3790      3794      3792
 -1      1847    8    0    1
 -2       887       886       976      3514      3795      3796
 -1      1848    8    0    1
 -2       886       975       976      3793      3797      3795
 -1      1849    8    0    1
 -2       888       887       977      3517      3798      3799
 -1      1850    8    0    1
 -2       887       976       977      3796      3800      3798
 -1      1851    8    0    1
 -2       889       888       978      3520      3801      3802
 -1      1852    8    0    1
 -2       888       977       978      3799      3803      3801
 -1      1853    8    0    1
 -2       890       889       979      3523      3804      3805
 -1      1854    8    0    1
 -2       889       978       979      3802      3806      3804
 -1      1855    8    0    1
 -2       891       890       980      3526      3807      3808
 -1      1856    8    0    1
 -2       890       979       980      3805      3809      3807
 -1      1857    8    0    1
 -2       892       891       981      3529      3810      3811
 -1      1858    8    0    1
 -2       891       980       981      3808      3812      3810
 -1      1859    8    0    1
 -2       893       892       982      3532      3813      3814
 -1      1860    8    0    1
 -2       892       981       982      3811      3815      3813
 -1      1861    8    0    1
 -2       894       893       983      3535      3816      3817
 -1      1862    8    0    1
 -2       893       982       983      3814      3818      3816
 -1      1863    8    0    1
 -2       938       894       943      3670      3819      3682
 -1      1864    8    0    1
 -2       928       933       984      3647      3820      3821
 -1      1865    8    0    1
 -2       933       953       984      3719      3822      3820
 -1      1866    8    0    1
 -2       941       900       985      3678      3823      3824
 -1      1867    8    0    1
 -2       844       945       858      3731      3825      3415
 -1      1868    8    0    1
 -2       945       948       986      3730      3826      3827
 -1      1869    8    0    1
 -2       945       986       916      3827      3828      3690
 -1      1870    8    0    1
 -2       863       941       929      3716      3829      3741
 -1      1871    8    0    1
 -2       865       922       987      3616      3830      3831
 -1      1872    8    0    1
 -2       865       987       953      3831      3832      3717
 -1      1873    8    0    1
 -2       900       925       988      3626      3833      3834
 -1      1874    8    0    1
 -2       900       988       985      3834      3835      3823
 -1      1875    8    0    1
 -2       861       840       942      3425      3836      3769
 -1      1876    8    0    1
 -2       866       902       989      3554      3837      3838
 -1      1877    8    0    1
 -2       866       989       957      3838      3839      3735
 -1      1878    8    0    1
 -2       903       901       990      3557      3840      3841
 -1      1879    8    0    1
 -2       901       958       990      3738      3842      3840
 -1      1880    8    0    1
 -2       904       903       991      3560      3843      3844
 -1      1881    8    0    1
 -2       903       990       991      3841      3845      3843
 -1      1882    8    0    1
 -2       906       907       992      3569      3846      3847
 -1      1883    8    0    1
 -2       907       908       993      3572      3848      3849
 -1      1884    8    0    1
 -2       907       993       992      3849      3850      3846
 -1      1885    8    0    1
 -2       908       909       994      3575      3851      3852
 -1      1886    8    0    1
 -2       908       994       993      3852      3853      3848
 -1      1887    8    0    1
 -2       909       910       995      3578      3854      3855
 -1      1888    8    0    1
 -2       909       995       994      3855      3856      3851
 -1      1889    8    0    1
 -2       910       911       996      3581      3857      3858
 -1      1890    8    0    1
 -2       910       996       995      3858      3859      3854
 -1      1891    8    0    1
 -2       911       912       997      3584      3860      3861
 -1      1892    8    0    1
 -2       911       997       996      3861      3862      3857
 -1      1893    8    0    1
 -2       912       913       998      3587      3863      3864
 -1      1894    8    0    1
 -2       912       998       997      3864      3865      3860
 -1      1895    8    0    1
 -2       913       914       999      3590      3866      3867
 -1      1896    8    0    1
 -2       913       999       998      3867      3868      3863
 -1      1897    8    0    1
 -2       914       915      1000      3593      3869      3870
 -1      1898    8    0    1
 -2       914      1000       999      3870      3871      3866
 -1      1899    8    0    1
 -2       915       916      1001      3596      3872      3873
 -1      1900    8    0    1
 -2      1000       915      1001      3869      3873      3874
 -1      1901    8    0    1
 -2       916       986      1001      3828      3875      3872
 -1      1902    8    0    1
 -2       842       917      1002      3599      3876      3877
 -1      1903    8    0    1
 -2       946       842      1002      3693      3877      3878
 -1      1904    8    0    1
 -2       917       921      1002      3612      3879      3876
 -1      1905    8    0    1
 -2       852       847      1003      3389      3880      3881
 -1      1906    8    0    1
 -2       948       852      1003      3699      3881      3882
 -1      1907    8    0    1
 -2       847       944      1003      3687      3883      3880
 -1      1908    8    0    1
 -2       878       936       930      3696      3774      3884
 -1      1909    8    0    1
 -2       951       931      1004      3710      3885      3886
 -1      1910    8    0    1
 -2       929       941      1005      3829      3887      3888
 -1      1911    8    0    1
 -2       968       929      1005      3773      3888      3889
 -1      1912    8    0    1
 -2       941       985      1005      3824      3890      3887
 -1      1913    8    0    1
 -2       926       895      1006      3663      3891      3892
 -1      1914    8    0    1
 -2       923       877      1007      3619      3893      3894
 -1      1915    8    0    1
 -2       905       906      1008      3566      3895      3896
 -1      1916    8    0    1
 -2       958       905      1008      3737      3896      3897
 -1      1917    8    0    1
 -2       906       992      1008      3847      3898      3895
 -1      1918    8    0    1
 -2       840       926       942      3628      3899      3836
 -1      1919    8    0    1
 -2       898       897      1009      3545      3900      3901
 -1      1920    8    0    1
 -2       922       841      1010      3692      3902      3903
 -1      1921    8    0    1
 -2       987       922      1010      3830      3903      3904
 -1      1922    8    0    1
 -2       841       949      1010      3703      3905      3902
 -1      1923    8    0    1
 -2       748       857       772      3411      3484      3607
 -1      1924    8    0    1
 -2       855       927       967      3707      3906      3907
 -1      1925    8    0    1
 -2       879       878       930      3490      3884      3908
 -1      1926    8    0    1
 -2       902       928      1011      3634      3909      3910
 -1      1927    8    0    1
 -2       989       902      1011      3837      3910      3911
 -1      1928    8    0    1
 -2       928       984      1011      3821      3912      3909
 -1      1929    8    0    1
 -2       754       837       863      3338      3435      3740
 -1      1930    8    0    1
 -2       899       942       926      3729      3899      3913
 -1      1931    8    0    1
 -2       927       876       967      3739      3767      3906
 -1      1932    8    0    1
 -2       899       926      1006      3913      3892      3914
 -1      1933    8    0    1
 -2       894       983       943      3817      3915      3819
 -1      1934    8    0    1
 -2       925       932      1012      3644      3916      3917
 -1      1935    8    0    1
 -2       925      1012       988      3917      3918      3833
 -1      1936    8    0    1
 -2       896       954      1013      3722      3919      3920
 -1      1937    8    0    1
 -2       904       991      1014      3844      3921      3922
 -1      1938    8    0    1
 -2       877       955      1007      3727      3923      3893
 -1      1939    8    0    1
 -2       920       935      1015      3654      3924      3925
 -1      1940    8    0    1
 -2       897       924      1016      3622      3926      3927
 -1      1941    8    0    1
 -2       897      1016      1009      3927      3928      3900
 -1      1942    8    0    1
 -2      1006       895       937      3891      3665      3929
 -1      1943    8    0    1
 -2       969       879       930      3775      3908      3930
 -1      1944    8    0    1
 -2       849       939       932      3673      3931      3642
 -1      1945    8    0    1
 -2       937       854       950      3666      3705      3932
 -1      1946    8    0    1
 -2       940       898      1017      3675      3933      3934
 -1      1947    8    0    1
 -2       898      1009      1017      3901      3935      3933
 -1      1948    8    0    1
 -2       858       945       850      3825      3691      3711
 -1      1949    8    0    1
 -2       986       948      1018      3826      3936      3937
 -1      1950    8    0    1
 -2       948      1003      1018      3882      3938      3936
 -1      1951    8    0    1
 -2       944       918      1019      3685      3939      3940
 -1      1952    8    0    1
 -2       896      1013      1020      3920      3941      3942
 -1      1953    8    0    1
 -2       896      1020       939      3942      3943      3671
 -1      1954    8    0    1
 -2       949       947      1021      3701      3944      3945
 -1      1955    8    0    1
 -2       931       956      1004      3733      3946      3885
 -1      1956    8    0    1
 -2       950       920      1015      3706      3925      3947
 -1      1957    8    0    1
 -2       951      1004      1022      3886      3948      3949
 -1      1958    8    0    1
 -2       951      1022       955      3949      3950      3728
 -1      1959    8    0    1
 -2       935       855       967      3655      3907      3951
 -1      1960    8    0    1
 -2       947       968      1023      3772      3952      3953
 -1      1961    8    0    1
 -2      1021       947      1023      3944      3953      3954
 -1      1962    8    0    1
 -2       968      1005      1023      3889      3955      3952
 -1      1963    8    0    1
 -2       924       899      1006      3623      3914      3956
 -1      1964    8    0    1
 -2       918       952      1024      3714      3957      3958
 -1      1965    8    0    1
 -2       918      1024      1019      3958      3959      3939
 -1      1966    8    0    1
 -2       921       904      1014      3613      3922      3960
 -1      1967    8    0    1
 -2      1013       954      1025      3919      3961      3962
 -1      1968    8    0    1
 -2       954       940      1025      3723      3963      3961
 -1      1969    8    0    1
 -2      1007       955      1026      3923      3964      3965
 -1      1970    8    0    1
 -2      1015       935       966      3924      3966      3967
 -1      1971    8    0    1
 -2       960       959      1027      3747      3968      3969
 -1      1972    8    0    1
 -2       961       960      1028      3750      3970      3971
 -1      1973    8    0    1
 -2       960      1027      1028      3969      3972      3970
 -1      1974    8    0    1
 -2       962       961      1029      3753      3973      3974
 -1      1975    8    0    1
 -2       961      1028      1029      3971      3975      3973
 -1      1976    8    0    1
 -2       963       962      1030      3756      3976      3977
 -1      1977    8    0    1
 -2       962      1029      1030      3974      3978      3976
 -1      1978    8    0    1
 -2       964       963      1031      3759      3979      3980
 -1      1979    8    0    1
 -2       963      1030      1031      3977      3981      3979
 -1      1980    8    0    1
 -2       965       964      1032      3762      3982      3983
 -1      1981    8    0    1
 -2       964      1031      1032      3980      3984      3982
 -1      1982    8    0    1
 -2       966       965      1033      3765      3985      3986
 -1      1983    8    0    1
 -2      1015       966      1033      3967      3986      3987
 -1      1984    8    0    1
 -2       965      1032      1033      3983      3988      3985
 -1      1985    8    0    1
 -2       967       966       935      3768      3966      3951
 -1      1986    8    0    1
 -2       971       970      1034      3782      3989      3990
 -1      1987    8    0    1
 -2       972       971      1035      3785      3991      3992
 -1      1988    8    0    1
 -2       971      1034      1035      3990      3993      3991
 -1      1989    8    0    1
 -2       973       972      1036      3788      3994      3995
 -1      1990    8    0    1
 -2       972      1035      1036      3992      3996      3994
 -1      1991    8    0    1
 -2       974       973      1037      3791      3997      3998
 -1      1992    8    0    1
 -2       973      1036      1037      3995      3999      3997
 -1      1993    8    0    1
 -2       975       974      1038      3794      4000      4001
 -1      1994    8    0    1
 -2       974      1037      1038      3998      4002      4000
 -1      1995    8    0    1
 -2       976       975      1039      3797      4003      4004
 -1      1996    8    0    1
 -2       975      1038      1039      4001      4005      4003
 -1      1997    8    0    1
 -2       977       976      1040      3800      4006      4007
 -1      1998    8    0    1
 -2       976      1039      1040      4004      4008      4006
 -1      1999    8    0    1
 -2       978       977      1041      3803      4009      4010
 -1      2000    8    0    1
 -2       977      1040      1041      4007      4011      4009
 -1      2001    8    0    1
 -2       979       978      1042      3806      4012      4013
 -1      2002    8    0    1
 -2       978      1041      1042      4010      4014      4012
 -1      2003    8    0    1
 -2       980       979      1043      3809      4015      4016
 -1      2004    8    0    1
 -2       979      1042      1043      4013      4017      4015
 -1      2005    8    0    1
 -2       981       980      1044      3812      4018      4019
 -1      2006    8    0    1
 -2       980      1043      1044      4016      4020      4018
 -1      2007    8    0    1
 -2       982       981      1045      3815      4021      4022
 -1      2008    8    0    1
 -2       981      1044      1045      4019      4023      4021
 -1      2009    8    0    1
 -2       983       982      1046      3818      4024      4025
 -1      2010    8    0    1
 -2       982      1045      1046      4022      4026      4024
 -1      2011    8    0    1
 -2       984       953      1047      3822      4027      4028
 -1      2012    8    0    1
 -2       953       987      1047      3832      4029      4027
 -1      2013    8    0    1
 -2       994       995      1048      3856      4030      4031
 -1      2014    8    0    1
 -2       990       958      1049      3842      4032      4033
 -1      2015    8    0    1
 -2       991       990      1050      3845      4034      4035
 -1      2016    8    0    1
 -2       990      1049      1050      4033      4036      4034
 -1      2017    8    0    1
 -2       993       994      1051      3853      4037      4038
 -1      2018    8    0    1
 -2       994      1048      1051      4031      4039      4037
 -1      2019    8    0    1
 -2       992       993      1052      3850      4040      4041
 -1      2020    8    0    1
 -2       993      1051      1052      4038      4042      4040
 -1      2021    8    0    1
 -2       995       996      1053      3859      4043      4044
 -1      2022    8    0    1
 -2       995      1053      1048      4044      4045      4030
 -1      2023    8    0    1
 -2       996       997      1054      3862      4046      4047
 -1      2024    8    0    1
 -2       996      1054      1053      4047      4048      4043
 -1      2025    8    0    1
 -2       997       998      1055      3865      4049      4050
 -1      2026    8    0    1
 -2       997      1055      1054      4050      4051      4046
 -1      2027    8    0    1
 -2       998       999      1056      3868      4052      4053
 -1      2028    8    0    1
 -2       998      1056      1055      4053      4054      4049
 -1      2029    8    0    1
 -2       999      1000      1057      3871      4055      4056
 -1      2030    8    0    1
 -2       999      1057      1056      4056      4057      4052
 -1      2031    8    0    1
 -2      1003       944      1058      3883      4058      4059
 -1      2032    8    0    1
 -2      1018      1003      1058      3938      4059      4060
 -1      2033    8    0    1
 -2       944      1019      1058      3940      4061      4058
 -1      2034    8    0    1
 -2       950      1015      1059      3947      4062      4063
 -1      2035    8    0    1
 -2       924      1006      1016      3956      4064      3926
 -1      2036    8    0    1
 -2       923      1007       969      3894      4065      4066
 -1      2037    8    0    1
 -2       952       943       983      3715      3915      4067
 -1      2038    8    0    1
 -2       949      1021      1060      3945      4068      4069
 -1      2039    8    0    1
 -2       949      1060      1010      4069      4070      3905
 -1      2040    8    0    1
 -2       937       950      1061      3932      4071      4072
 -1      2041    8    0    1
 -2       950      1059      1061      4063      4073      4071
 -1      2042    8    0    1
 -2      1006       937      1061      3929      4072      4074
 -1      2043    8    0    1
 -2       930       923       969      3637      4066      3930
 -1      2044    8    0    1
 -2       959       957      1062      3744      4075      4076
 -1      2045    8    0    1
 -2       959      1062      1027      4076      4077      3968
 -1      2046    8    0    1
 -2       932       939      1063      3931      4078      4079
 -1      2047    8    0    1
 -2      1012       932      1063      3916      4079      4080
 -1      2048    8    0    1
 -2       939      1020      1063      3943      4081      4078
 -1      2049    8    0    1
 -2       956       946      1014      3734      4082      4083
 -1      2050    8    0    1
 -2       957       989      1064      3839      4084      4085
 -1      2051    8    0    1
 -2       957      1064      1062      4085      4086      4075
 -1      2052    8    0    1
 -2       956      1014      1065      4083      4087      4088
 -1      2053    8    0    1
 -2      1004       956      1065      3946      4088      4089
 -1      2054    8    0    1
 -2      1014       991      1065      3921      4090      4087
 -1      2055    8    0    1
 -2       969      1007      1066      4065      4091      4092
 -1      2056    8    0    1
 -2       970       969      1066      3779      4092      4093
 -1      2057    8    0    1
 -2      1007      1026      1066      3965      4094      4091
 -1      2058    8    0    1
 -2       952       983      1024      4067      4095      3957
 -1      2059    8    0    1
 -2      1014       946      1002      4082      3878      4096
 -1      2060    8    0    1
 -2      1026       955      1022      3964      3950      4097
 -1      2061    8    0    1
 -2      1013      1025      1067      3962      4098      4099
 -1      2062    8    0    1
 -2       970      1066      1034      4093      4100      3989
 -1      2063    8    0    1
 -2      1015      1033      1059      3987      4101      4062
 -1      2064    8    0    1
 -2      1004      1065      1068      4089      4102      4103
 -1      2065    8    0    1
 -2      1004      1068      1022      4103      4104      3948
 -1      2066    8    0    1
 -2      1049       958      1069      4032      4105      4106
 -1      2067    8    0    1
 -2       958      1008      1069      3897      4107      4105
 -1      2068    8    0    1
 -2      1009      1016      1070      3928      4108      4109
 -1      2069    8    0    1
 -2      1017      1009      1071      3935      4110      4111
 -1      2070    8    0    1
 -2      1009      1070      1071      4109      4112      4110
 -1      2071    8    0    1
 -2       988      1012      1072      3918      4113      4114
 -1      2072    8    0    1
 -2       984      1047      1073      4028      4115      4116
 -1      2073    8    0    1
 -2       984      1073      1011      4116      4117      3912
 -1      2074    8    0    1
 -2      1047       987      1010      4029      3904      4118
 -1      2075    8    0    1
 -2      1020      1013      1074      3941      4119      4120
 -1      2076    8    0    1
 -2      1013      1067      1074      4099      4121      4119
 -1      2077    8    0    1
 -2       991      1050      1065      4035      4122      4090
 -1      2078    8    0    1
 -2       989      1011      1075      3911      4123      4124
 -1      2079    8    0    1
 -2      1064       989      1075      4084      4124      4125
 -1      2080    8    0    1
 -2      1011      1073      1075      4117      4126      4123
 -1      2081    8    0    1
 -2      1057      1000      1076      4055      4127      4128
 -1      2082    8    0    1
 -2      1000      1001      1076      3874      4129      4127
 -1      2083    8    0    1
 -2      1058      1019      1077      4061      4130      4131
 -1      2084    8    0    1
 -2      1001       986      1018      3875      3937      4132
 -1      2085    8    0    1
 -2      1005       985      1023      3890      4133      3955
 -1      2086    8    0    1
 -2      1008       992      1078      3898      4134      4135
 -1      2087    8    0    1
 -2       992      1052      1078      4041      4136      4134
 -1      2088    8    0    1
 -2      1016      1006      1061      4064      4074      4137
 -1      2089    8    0    1
 -2      1060      1021      1079      4068      4138      4139
 -1      2090    8    0    1
 -2      1023       985      1080      4133      4140      4141
 -1      2091    8    0    1
 -2      1021      1023      1080      3954      4141      4142
 -1      2092    8    0    1
 -2       985       988      1080      3835      4143      4140
 -1      2093    8    0    1
 -2       940      1017      1025      3934      4144      3963
 -1      2094    8    0    1
 -2      1024       983      1046      4095      4025      4145
 -1      2095    8    0    1
 -2      1019      1024      1081      3959      4146      4147
 -1      2096    8    0    1
 -2      1019      1081      1077      4147      4148      4130
 -1      2097    8    0    1
 -2      1080       988      1072      4143      4114      4149
 -1      2098    8    0    1
 -2      1079      1021      1080      4138      4142      4150
 -1      2099    8    0    1
 -2      1067      1025      1082      4098      4151      4152
 -1      2100    8    0    1
 -2      1025      1017      1082      4144      4153      4151
 -1      2101    8    0    1
 -2      1034      1066      1083      4100      4154      4155
 -1      2102    8    0    1
 -2      1066      1026      1083      4094      4156      4154
 -1      2103    8    0    1
 -2      1029      1028      1084      3975      4157      4158
 -1      2104    8    0    1
 -2      1030      1029      1085      3978      4159      4160
 -1      2105    8    0    1
 -2      1029      1084      1085      4158      4161      4159
 -1      2106    8    0    1
 -2      1031      1030      1086      3981      4162      4163
 -1      2107    8    0    1
 -2      1030      1085      1086      4160      4164      4162
 -1      2108    8    0    1
 -2      1032      1031      1087      3984      4165      4166
 -1      2109    8    0    1
 -2      1031      1086      1087      4163      4167      4165
 -1      2110    8    0    1
 -2      1033      1032      1088      3988      4168      4169
 -1      2111    8    0    1
 -2      1059      1033      1088      4101      4169      4170
 -1      2112    8    0    1
 -2      1032      1087      1088      4166      4171      4168
 -1      2113    8    0    1
 -2      1035      1034      1089      3993      4172      4173
 -1      2114    8    0    1
 -2      1034      1083      1089      4155      4174      4172
 -1      2115    8    0    1
 -2      1072      1012      1090      4113      4175      4176
 -1      2116    8    0    1
 -2      1012      1063      1090      4080      4177      4175
 -1      2117    8    0    1
 -2      1036      1035      1091      3996      4178      4179
 -1      2118    8    0    1
 -2      1035      1089      1091      4173      4180      4178
 -1      2119    8    0    1
 -2      1037      1036      1092      3999      4181      4182
 -1      2120    8    0    1
 -2      1036      1091      1092      4179      4183      4181
 -1      2121    8    0    1
 -2      1038      1037      1093      4002      4184      4185
 -1      2122    8    0    1
 -2      1037      1092      1093      4182      4186      4184
 -1      2123    8    0    1
 -2      1039      1038      1094      4005      4187      4188
 -1      2124    8    0    1
 -2      1038      1093      1094      4185      4189      4187
 -1      2125    8    0    1
 -2      1040      1039      1095      4008      4190      4191
 -1      2126    8    0    1
 -2      1039      1094      1095      4188      4192      4190
 -1      2127    8    0    1
 -2      1041      1040      1096      4011      4193      4194
 -1      2128    8    0    1
 -2      1040      1095      1096      4191      4195      4193
 -1      2129    8    0    1
 -2      1042      1041      1097      4014      4196      4197
 -1      2130    8    0    1
 -2      1041      1096      1097      4194      4198      4196
 -1      2131    8    0    1
 -2      1043      1042      1098      4017      4199      4200
 -1      2132    8    0    1
 -2      1042      1097      1098      4197      4201      4199
 -1      2133    8    0    1
 -2      1044      1043      1099      4020      4202      4203
 -1      2134    8    0    1
 -2      1043      1098      1099      4200      4204      4202
 -1      2135    8    0    1
 -2      1045      1044      1100      4023      4205      4206
 -1      2136    8    0    1
 -2      1044      1099      1100      4203      4207      4205
 -1      2137    8    0    1
 -2      1053      1054      1101      4048      4208      4209
 -1      2138    8    0    1
 -2       921      1014      1002      3960      4096      3879
 -1      2139    8    0    1
 -2      1048      1053      1102      4045      4210      4211
 -1      2140    8    0    1
 -2      1053      1101      1102      4209      4212      4210
 -1      2141    8    0    1
 -2      1051      1048      1103      4039      4213      4214
 -1      2142    8    0    1
 -2      1048      1102      1103      4211      4215      4213
 -1      2143    8    0    1
 -2      1052      1051      1104      4042      4216      4217
 -1      2144    8    0    1
 -2      1051      1103      1104      4214      4218      4216
 -1      2145    8    0    1
 -2      1054      1055      1105      4051      4219      4220
 -1      2146    8    0    1
 -2      1054      1105      1101      4220      4221      4208
 -1      2147    8    0    1
 -2      1055      1056      1106      4054      4222      4223
 -1      2148    8    0    1
 -2      1055      1106      1105      4223      4224      4219
 -1      2149    8    0    1
 -2      1056      1057      1107      4057      4225      4226
 -1      2150    8    0    1
 -2      1056      1107      1106      4226      4227      4222
 -1      2151    8    0    1
 -2      1080      1072      1079      4149      4228      4150
 -1      2152    8    0    1
 -2      1001      1018      1076      4132      4229      4129
 -1      2153    8    0    1
 -2      1065      1050      1068      4122      4230      4102
 -1      2154    8    0    1
 -2      1026      1022      1083      4097      4231      4156
 -1      2155    8    0    1
 -2      1060      1079      1108      4139      4232      4233
 -1      2156    8    0    1
 -2      1061      1059      1109      4073      4234      4235
 -1      2157    8    0    1
 -2      1059      1088      1109      4170      4236      4234
 -1      2158    8    0    1
 -2      1028      1027      1110      3972      4237      4238
 -1      2159    8    0    1
 -2      1028      1110      1084      4238      4239      4157
 -1      2160    8    0    1
 -2      1027      1062      1111      4077      4240      4241
 -1      2161    8    0    1
 -2      1027      1111      1110      4241      4242      4237
 -1      2162    8    0    1
 -2      1010      1060      1047      4070      4243      4118
 -1      2163    8    0    1
 -2      1024      1046      1081      4145      4244      4146
 -1      2164    8    0    1
 -2      1062      1064      1112      4086      4245      4246
 -1      2165    8    0    1
 -2      1062      1112      1111      4246      4247      4240
 -1      2166    8    0    1
 -2      1079      1072      1113      4228      4248      4249
 -1      2167    8    0    1
 -2      1073      1047      1108      4115      4250      4251
 -1      2168    8    0    1
 -2      1060      1108      1047      4233      4250      4243
 -1      2169    8    0    1
 -2      1050      1049      1114      4036      4252      4253
 -1      2170    8    0    1
 -2      1071      1070      1115      4112      4254      4255
 -1      2171    8    0    1
 -2      1083      1022      1116      4231      4256      4257
 -1      2172    8    0    1
 -2      1089      1083      1116      4174      4257      4258
 -1      2173    8    0    1
 -2      1022      1068      1116      4104      4259      4256
 -1      2174    8    0    1
 -2      1069      1008      1078      4107      4135      4260
 -1      2175    8    0    1
 -2      1070      1016      1061      4108      4137      4261
 -1      2176    8    0    1
 -2      1045      1100      1081      4206      4262      4263
 -1      2177    8    0    1
 -2      1017      1071      1082      4111      4264      4153
 -1      2178    8    0    1
 -2      1057      1076      1117      4128      4265      4266
 -1      2179    8    0    1
 -2      1057      1117      1107      4266      4267      4225
 -1      2180    8    0    1
 -2      1046      1045      1081      4026      4263      4244
 -1      2181    8    0    1
 -2      1074      1067      1118      4121      4268      4269
 -1      2182    8    0    1
 -2      1018      1058      1076      4060      4270      4229
 -1      2183    8    0    1
 -2      1058      1077      1076      4131      4271      4270
 -1      2184    8    0    1
 -2      1052      1104      1119      4217      4272      4273
 -1      2185    8    0    1
 -2      1052      1119      1078      4273      4274      4136
 -1      2186    8    0    1
 -2      1049      1069      1120      4106      4275      4276
 -1      2187    8    0    1
 -2      1049      1120      1114      4276      4277      4252
 -1      2188    8    0    1
 -2      1108      1079      1113      4232      4249      4278
 -1      2189    8    0    1
 -2      1067      1082      1121      4152      4279      4280
 -1      2190    8    0    1
 -2      1067      1121      1118      4280      4281      4268
 -1      2191    8    0    1
 -2      1076      1077      1117      4271      4282      4265
 -1      2192    8    0    1
 -2      1050      1114      1068      4253      4283      4230
 -1      2193    8    0    1
 -2      1117      1077      1122      4282      4284      4285
 -1      2194    8    0    1
 -2      1107      1117      1122      4267      4285      4286
 -1      2195    8    0    1
 -2      1077      1081      1122      4148      4287      4284
 -1      2196    8    0    1
 -2      1070      1061      1109      4261      4235      4288
 -1      2197    8    0    1
 -2      1072      1090      1113      4176      4289      4248
 -1      2198    8    0    1
 -2      1020      1074      1123      4120      4290      4291
 -1      2199    8    0    1
 -2      1020      1123      1063      4291      4292      4081
 -1      2200    8    0    1
 -2      1070      1109      1115      4288      4293      4254
 -1      2201    8    0    1
 -2      1110      1111      1124      4242      4294      4295
 -1      2202    8    0    1
 -2      1071      1115      1125      4255      4296      4297
 -1      2203    8    0    1
 -2      1071      1125      1082      4297      4298      4264
 -1      2204    8    0    1
 -2      1081      1100      1122      4262      4299      4287
 -1      2205    8    0    1
 -2      1086      1085      1126      4164      4300      4301
 -1      2206    8    0    1
 -2      1087      1086      1115      4167      4302      4303
 -1      2207    8    0    1
 -2      1090      1063      1123      4177      4292      4304
 -1      2208    8    0    1
 -2      1068      1114      1116      4283      4305      4259
 -1      2209    8    0    1
 -2      1091      1089      1127      4180      4306      4307
 -1      2210    8    0    1
 -2      1092      1091      1128      4183      4308      4309
 -1      2211    8    0    1
 -2      1091      1127      1128      4307      4310      4308
 -1      2212    8    0    1
 -2      1093      1092      1119      4186      4311      4312
 -1      2213    8    0    1
 -2      1094      1093      1104      4189      4313      4314
 -1      2214    8    0    1
 -2      1095      1094      1103      4192      4315      4316
 -1      2215    8    0    1
 -2      1096      1095      1102      4195      4317      4318
 -1      2216    8    0    1
 -2      1097      1096      1101      4198      4319      4320
 -1      2217    8    0    1
 -2      1098      1097      1105      4201      4321      4322
 -1      2218    8    0    1
 -2      1099      1098      1106      4204      4323      4324
 -1      2219    8    0    1
 -2      1105      1106      1098      4224      4323      4322
 -1      2220    8    0    1
 -2      1101      1105      1097      4221      4321      4320
 -1      2221    8    0    1
 -2      1103      1102      1095      4215      4317      4316
 -1      2222    8    0    1
 -2      1075      1073      1108      4126      4251      4325
 -1      2223    8    0    1
 -2      1104      1103      1094      4218      4315      4314
 -1      2224    8    0    1
 -2      1106      1107      1099      4227      4326      4324
 -1      2225    8    0    1
 -2      1069      1078      1129      4260      4327      4328
 -1      2226    8    0    1
 -2      1120      1069      1129      4275      4328      4329
 -1      2227    8    0    1
 -2      1078      1119      1129      4274      4330      4327
 -1      2228    8    0    1
 -2      1084      1110      1118      4239      4331      4332
 -1      2229    8    0    1
 -2      1085      1084      1121      4161      4333      4334
 -1      2230    8    0    1
 -2      1109      1088      1115      4236      4335      4293
 -1      2231    8    0    1
 -2      1113      1090      1130      4289      4336      4337
 -1      2232    8    0    1
 -2      1101      1096      1102      4319      4318      4212
 -1      2233    8    0    1
 -2      1104      1093      1119      4313      4312      4272
 -1      2234    8    0    1
 -2      1111      1112      1130      4247      4338      4339
 -1      2235    8    0    1
 -2      1074      1118      1124      4269      4340      4341
 -1      2236    8    0    1
 -2      1112      1064      1131      4245      4342      4343
 -1      2237    8    0    1
 -2      1064      1075      1131      4125      4344      4342
 -1      2238    8    0    1
 -2      1084      1118      1121      4332      4281      4333
 -1      2239    8    0    1
 -2      1118      1110      1124      4331      4295      4340
 -1      2240    8    0    1
 -2      1130      1112      1113      4338      4345      4337
 -1      2241    8    0    1
 -2      1082      1125      1121      4298      4346      4279
 -1      2242    8    0    1
 -2      1115      1086      1126      4302      4301      4347
 -1      2243    8    0    1
 -2      1089      1116      1127      4258      4348      4306
 -1      2244    8    0    1
 -2      1087      1115      1088      4303      4335      4171
 -1      2245    8    0    1
 -2      1090      1123      1130      4304      4349      4336
 -1      2246    8    0    1
 -2      1099      1107      1122      4326      4286      4350
 -1      2247    8    0    1
 -2      1075      1108      1131      4325      4351      4344
 -1      2248    8    0    1
 -2      1111      1130      1124      4339      4352      4294
 -1      2249    8    0    1
 -2      1114      1120      1127      4277      4353      4354
 -1      2250    8    0    1
 -2      1113      1112      1131      4345      4343      4355
 -1      2251    8    0    1
 -2      1123      1074      1124      4290      4341      4356
 -1      2252    8    0    1
 -2      1114      1127      1116      4354      4348      4305
 -1      2253    8    0    1
 -2      1126      1085      1121      4300      4334      4357
 -1      2254    8    0    1
 -2      1130      1123      1124      4349      4356      4352
 -1      2255    8    0    1
 -2      1128      1127      1120      4310      4353      4358
 -1      2256    8    0    1
 -2      1092      1128      1119      4309      4359      4311
 -1      2257    8    0    1
 -2      1100      1099      1122      4207      4350      4299
 -1      2258    8    0    1
 -2      1113      1131      1108      4355      4351      4278
 -1      2259    8    0    1
 -2      1119      1128      1129      4359      4360      4330
 -1      2260    8    0    1
 -2      1115      1126      1125      4347      4361      4296
 -1      2261    8    0    1
 -2      1129      1128      1120      4360      4358      4329
 -1      2262    8    0    1
 -2      1121      1125      1126      4346      4361      4357
 -3
    1PSTEP                         1           1           1          
  100CL  101 1.000000000        4361                     0    1           1
 -4  DISP        4    1
 -5  D1          1    2    1    0
 -5  D2          1    2    2    0
 -5  D3          1    2    3    0
 -5  ALL         1    2    0    0    1ALL
 -1         1 7.54024E-03-5.22928E-04-3.17986E-14
 -1         2 9.21574E-03 3.12637E-04-3.59225E-14
 -1         3 1.55923E-02 1.98093E-03-1.17657E-13
 -1         4 1.48125E-02 5.51259E-04-1.19767E-13
 -1         5 0.00000E+00 0.00000E+00 0.00000E+00
 -1         6 0.00000E+00 0.00000E+00 0.00000E+00
 -1         7 0.00000E+00 0.00000E+00 0.00000E+00
 -1         8 0.00000E+00 0.00000E+00 0.00000E+00
 -1         9 0.00000E+00 0.00000E+00 0.00000E+00
 -1        10 0.00000E+00 0.00000E+00 0.00000E+00
 -1        11 0.00000E+00 0.00000E+00 0.00000E+00
 -1        12 0.00000E+00 0.00000E+00 0.00000E+00
 -1        13 0.00000E+00 0.00000E+00 0.00000E+00
 -1        14 0.00000E+00 0.00000E+00 0.00000E+00
 -1        15 0.00000E+00 0.00000E+00 0.00000E+00
 -1        16 0.00000E+00 0.00000E+00 0.00000E+00
 -1        17 0.00000E+00 0.00000E+00 0.00000E+00
 -1        18 0.00000E+00 0.00000E+00 0.00000E+00
 -1        19 0.00000E+00 0.00000E+00 0.00000E+00
 -1        20 0.00000E+00 0.00000E+00 0.00000E+00
 -1        21 0.00000E+00 0.00000E+00 0.00000E+00
 -1        22 0.00000E+00 0.00000E+00 0.00000E+00
 -1        23 4.09094E-04-2.58048E-04 2.55702E-17
 -1        24 7.00144E-04-3.95145E-04-1.05286E-16
 -1        25 9.70121E-04-4.88838E-04-3.86034E-16
 -1        26 1.23531E-03-5.53381E-04-8.11017E-16
 -1        27 1.50048E-03-5.97876E-04-1.37509E-15
 -1        28 1.76803E-03-6.27708E-04-2.07365E-15
 -1        29 2.03933E-03-6.46663E-04-2.90604E-15
 -1        30 2.31531E-03-6.57639E-04-3.86637E-15
 -1        31 2.59666E-03-6.63036E-04-4.95216E-15
 -1        32 2.88404E-03-6.65014E-04-6.15881E-15
 -1        33 3.17803E-03-6.65685E-04-7.48035E-15
 -1        34 3.47917E-03-6.67271E-04-8.90671E-15
 -1        35 3.78778E-03-6.72216E-04-1.04356E-14
 -1        36 4.10376E-03-6.83207E-04-1.20643E-14
 -1        37 4.42628E-03-7.03051E-04-1.37883E-14
 -1        38 4.75335E-03-7.34291E-04-1.56104E-14
 -1        39 5.08150E-03-7.78466E-04-1.75229E-14
 -1        40 5.40566E-03-8.35003E-04-1.95282E-14
 -1        41 5.71979E-03-8.99931E-04-2.16250E-14
 -1        42 6.01824E-03-9.65010E-04-2.38176E-14
 -1        43 6.29806E-03-1.01819E-03-2.61087E-14
 -1        44 6.56111E-03-1.04614E-03-2.84917E-14
 -1        45 6.81460E-03-1.03843E-03-3.09679E-14
 -1        46 7.06917E-03-9.91583E-04-3.35347E-14
 -1        47 7.33511E-03-9.10533E-04-3.61857E-14
 -1        48 7.61875E-03-8.06563E-04-3.89091E-14
 -1        49 7.92101E-03-6.93052E-04-4.17016E-14
 -1        50 8.23834E-03-5.81483E-04-4.45794E-14
 -1        51 8.56499E-03-4.79323E-04-4.75277E-14
 -1        52 8.89512E-03-3.89898E-04-5.05459E-14
 -1        53 9.22413E-03-3.13411E-04-5.36179E-14
 -1        54 9.54902E-03-2.48241E-04-5.67532E-14
 -1        55 9.86827E-03-1.92015E-04-5.99419E-14
 -1        56 1.01815E-02-1.42295E-04-6.31842E-14
 -1        57 1.04889E-02-9.69393E-05-6.64824E-14
 -1        58 1.07912E-02-5.42392E-05-6.98156E-14
 -1        59 1.10892E-02-1.29226E-05-7.31883E-14
 -1        60 1.13837E-02 2.78994E-05-7.65946E-14
 -1        61 1.16755E-02 6.88088E-05-8.00302E-14
 -1        62 1.19652E-02 1.10155E-04-8.35039E-14
 -1        63 1.22535E-02 1.52120E-04-8.70222E-14
 -1        64 1.25407E-02 1.94770E-04-9.05726E-14
 -1        65 1.28271E-02 2.38098E-04-9.41537E-14
 -1        66 1.31131E-02 2.82049E-04-9.77724E-14
 -1        67 1.33988E-02 3.26541E-04-1.01427E-13
 -1        68 1.36843E-02 3.71479E-04-1.05099E-13
 -1        69 1.39699E-02 4.16760E-04-1.08791E-13
 -1        70 1.42555E-02 4.62274E-04-1.12492E-13
 -1        71 1.45411E-02 5.07906E-04-1.16209E-13
 -1        72 4.11427E-04 2.58704E-04 6.54587E-17
 -1        73 6.99833E-04 3.97732E-04 2.46995E-18
 -1        74 9.70443E-04 4.90386E-04-1.87455E-16
 -1        75 1.23584E-03 5.54672E-04-5.05320E-16
 -1        76 1.50108E-03 5.98900E-04-9.50222E-16
 -1        77 1.76868E-03 6.28330E-04-1.52134E-15
 -1        78 2.04011E-03 6.46648E-04-2.21439E-15
 -1        79 2.31645E-03 6.56642E-04-3.02920E-15
 -1        80 2.59863E-03 6.60597E-04-3.96501E-15
 -1        81 2.88769E-03 6.60570E-04-5.01945E-15
 -1        82 3.18484E-03 6.58636E-04-6.19125E-15
 -1        83 3.49158E-03 6.57150E-04-7.46912E-15
 -1        84 3.80964E-03 6.59051E-04-8.84775E-15
 -1        85 4.14087E-03 6.68197E-04-1.03277E-14
 -1        86 4.48682E-03 6.89664E-04-1.19168E-14
 -1        87 4.84798E-03 7.29851E-04-1.36086E-14
 -1        88 5.22244E-03 7.95967E-04-1.54064E-14
 -1        89 5.60419E-03 8.94242E-04-1.73059E-14
 -1        90 5.98185E-03 1.02616E-03-1.93005E-14
 -1        91 6.33955E-03 1.18290E-03-2.13935E-14
 -1        92 6.66241E-03 1.34084E-03-2.35938E-14
 -1        93 6.94621E-03 1.46435E-03-2.59073E-14
 -1        94 7.20481E-03 1.52001E-03-2.83458E-14
 -1        95 7.46620E-03 1.49582E-03-3.09053E-14
 -1        96 7.75681E-03 1.40887E-03-3.35871E-14
 -1        97 8.08731E-03 1.29442E-03-3.63714E-14
 -1        98 8.45077E-03 1.18664E-03-3.92418E-14
 -1        99 8.83144E-03 1.10635E-03-4.21800E-14
 -1       100 9.21406E-03 1.06011E-03-4.51924E-14
 -1       101 9.58837E-03 1.04523E-03-4.82777E-14
 -1       102 9.94943E-03 1.05518E-03-5.14204E-14
 -1       103 1.02961E-02 1.08297E-03-5.46260E-14
 -1       104 1.06294E-02 1.12266E-03-5.78769E-14
 -1       105 1.09512E-02 1.16978E-03-6.11737E-14
 -1       106 1.12637E-02 1.22116E-03-6.45234E-14
 -1       107 1.15688E-02 1.27467E-03-6.79239E-14
 -1       108 1.18682E-02 1.32896E-03-7.13664E-14
 -1       109 1.21635E-02 1.38320E-03-7.48551E-14
 -1       110 1.24555E-02 1.43689E-03-7.83769E-14
 -1       111 1.27454E-02 1.48981E-03-8.19295E-14
 -1       112 1.30336E-02 1.54187E-03-8.55137E-14
 -1       113 1.33207E-02 1.59308E-03-8.91156E-14
 -1       114 1.36071E-02 1.64350E-03-9.27389E-14
 -1       115 1.38930E-02 1.69323E-03-9.63662E-14
 -1       116 1.41786E-02 1.74237E-03-9.99778E-14
 -1       117 1.44642E-02 1.79104E-03-1.03574E-13
 -1       118 1.47497E-02 1.83935E-03-1.07164E-13
 -1       119 1.50353E-02 1.88742E-03-1.10739E-13
 -1       120 1.53209E-02 1.93537E-03-1.14294E-13
 -1       121 1.55451E-02 1.89663E-03-1.17762E-13
 -1       122 1.54980E-02 1.81227E-03-1.17898E-13
 -1       123 1.54509E-02 1.72786E-03-1.18036E-13
 -1       124 1.54040E-02 1.64342E-03-1.18172E-13
 -1       125 1.53573E-02 1.55899E-03-1.18294E-13
 -1       126 1.53116E-02 1.47605E-03-1.18431E-13
 -1       127 1.52653E-02 1.39173E-03-1.18604E-13
 -1       128 1.52192E-02 1.30747E-03-1.18756E-13
 -1       129 1.51732E-02 1.22322E-03-1.18915E-13
 -1       130 1.51273E-02 1.13895E-03-1.19052E-13
 -1       131 1.50816E-02 1.05465E-03-1.19182E-13
 -1       132 1.50369E-02 9.71719E-04-1.19302E-13
 -1       133 1.49916E-02 8.87312E-04-1.19419E-13
 -1       134 1.49464E-02 8.02884E-04-1.19542E-13
 -1       135 1.49015E-02 7.18476E-04-1.19632E-13
 -1       136 1.48566E-02 6.34128E-04-1.19706E-13
 -1       137 9.17999E-03 4.94762E-04-3.56540E-14
 -1       138 9.05258E-03 6.55553E-04-3.51455E-14
 -1       139 8.83895E-03 8.03910E-04-3.44086E-14
 -1       140 8.52612E-03 9.41845E-04-3.34136E-14
 -1       141 8.16682E-03 1.04490E-03-3.23424E-14
 -1       142 7.72350E-03 1.11938E-03-3.10986E-14
 -1       143 7.22106E-03 1.15034E-03-2.97492E-14
 -1       144 6.74741E-03 1.13142E-03-2.85460E-14
 -1       145 6.24135E-03 1.05959E-03-2.73032E-14
 -1       146 5.80663E-03 9.50774E-04-2.62796E-14
 -1       147 5.38893E-03 7.90539E-04-2.53438E-14
 -1       148 5.10227E-03 6.25398E-04-2.47413E-14
 -1       149 4.91603E-03 4.57573E-04-2.43851E-14
 -1       150 4.81797E-03 2.76525E-04-2.42565E-14
 -1       151 4.81994E-03 1.09593E-04-2.43646E-14
 -1       152 4.91590E-03-5.54367E-05-2.47033E-14
 -1       153 5.09620E-03-2.02907E-04-2.52404E-14
 -1       154 5.37815E-03-3.40797E-04-2.60293E-14
 -1       155 5.73859E-03-4.52319E-04-2.70092E-14
 -1       156 6.14265E-03-5.26243E-04-2.80858E-14
 -1       157 6.61059E-03-5.66717E-04-2.93387E-14
 -1       158 7.06775E-03-5.64870E-04-3.05448E-14
 -1       159 7.98095E-03-4.44523E-04-3.29626E-14
 -1       160 8.37444E-03-3.34823E-04-3.39970E-14
 -1       161 8.71911E-03-1.93617E-04-3.48854E-14
 -1       162 8.97211E-03-3.94558E-05-3.55030E-14
 -1       163 9.14379E-03 1.32372E-04-3.58656E-14
 -1       164 2.40317E-04-1.23505E-04-3.67070E-17
 -1       165 2.25555E-04-9.24406E-05-5.56467E-17
 -1       166 2.19880E-04-7.05270E-05-6.53740E-17
 -1       167 2.17012E-04-5.29559E-05-7.00869E-17
 -1       168 2.15379E-04-3.81169E-05-7.20588E-17
 -1       169 2.14393E-04-2.45582E-05-7.24179E-17
 -1       170 2.13865E-04-1.19234E-05-7.16488E-17
 -1       171 2.13706E-04 2.76867E-07-7.03613E-17
 -1       172 2.13892E-04 1.24864E-05-6.81828E-17
 -1       173 2.14449E-04 2.51531E-05-6.53062E-17
 -1       174 2.15446E-04 3.85404E-05-6.14505E-17
 -1       175 2.17140E-04 5.37491E-05-5.57449E-17
 -1       176 2.20061E-04 7.15467E-05-4.69764E-17
 -1       177 2.25733E-04 9.38220E-05-3.27361E-17
 -1       178 2.39238E-04 1.25558E-04-8.99888E-18
 -1       179 2.96905E-04 1.83214E-04 1.66832E-17
 -1       180 4.67804E-04-2.59478E-04-9.59451E-17
 -1       181 7.65960E-04-3.74495E-04-3.27876E-16
 -1       182 1.05046E-03-4.53254E-04-6.97386E-16
 -1       183 1.32927E-03-5.07320E-04-1.20327E-15
 -1       184 1.60629E-03-5.43660E-04-1.84152E-15
 -1       185 1.88386E-03-5.66971E-04-2.61019E-15
 -1       186 2.16351E-03-5.80658E-04-3.50716E-15
 -1       187 2.44629E-03-5.87404E-04-4.52838E-15
 -1       188 2.73300E-03-5.89493E-04-5.66968E-15
 -1       189 3.02428E-03-5.89059E-04-6.92596E-15
 -1       190 3.32065E-03-5.88273E-04-8.29125E-15
 -1       191 3.62249E-03-5.89503E-04-9.76053E-15
 -1       192 3.92994E-03-5.95407E-04-1.13314E-14
 -1       193 4.24272E-03-6.08917E-04-1.29987E-14
 -1       194 4.55998E-03-6.33016E-04-1.47643E-14
 -1       195 4.88003E-03-6.70185E-04-1.66237E-14
 -1       196 5.20024E-03-7.21424E-04-1.85745E-14
 -1       197 5.51719E-03-7.84886E-04-2.06168E-14
 -1       198 5.82714E-03-8.54492E-04-2.27537E-14
 -1       199 6.12721E-03-9.19389E-04-2.49849E-14
 -1       200 6.41671E-03-9.65351E-04-2.73144E-14
 -1       201 6.69819E-03-9.78619E-04-2.97380E-14
 -1       202 6.97707E-03-9.50986E-04-3.22568E-14
 -1       203 7.25982E-03-8.83317E-04-3.48611E-14
 -1       204 7.55147E-03-7.85163E-04-3.75447E-14
 -1       205 7.85396E-03-6.70722E-04-4.03018E-14
 -1       206 8.16616E-03-5.53820E-04-4.31384E-14
 -1       207 8.48500E-03-4.44482E-04-4.60503E-14
 -1       208 8.80683E-03-3.47968E-04-4.90293E-14
 -1       209 9.12844E-03-2.65573E-04-5.20723E-14
 -1       210 9.44751E-03-1.96070E-04-5.51710E-14
 -1       211 9.76265E-03-1.37035E-04-5.83286E-14
 -1       212 1.00733E-02-8.57713E-05-6.15421E-14
 -1       213 1.03794E-02-3.98154E-05-6.48080E-14
 -1       214 1.06813E-02 2.84196E-06-6.81215E-14
 -1       215 1.09795E-02 4.37181E-05-7.14761E-14
 -1       216 1.12746E-02 8.38863E-05-7.48651E-14
 -1       217 1.15672E-02 1.24058E-04-7.82836E-14
 -1       218 1.18578E-02 1.64666E-04-8.17363E-14
 -1       219 1.21469E-02 2.05945E-04-8.52273E-14
 -1       220 1.24349E-02 2.47990E-04-8.87575E-14
 -1       221 1.27220E-02 2.90803E-04-9.23177E-14
 -1       222 1.30085E-02 3.34332E-04-9.59128E-14
 -1       223 1.32947E-02 3.78492E-04-9.95471E-14
 -1       224 1.35806E-02 4.23180E-04-1.03205E-13
 -1       225 1.38663E-02 4.68288E-04-1.06887E-13
 -1       226 1.41521E-02 5.13701E-04-1.10584E-13
 -1       227 1.44377E-02 5.59300E-04-1.14295E-13
 -1       228 6.03319E-04 3.25476E-04-6.83217E-17
 -1       229 8.92580E-04 4.23209E-04-2.72406E-16
 -1       230 1.17236E-03 4.90440E-04-5.99506E-16
 -1       231 1.44851E-03 5.36287E-04-1.05009E-15
 -1       232 1.72432E-03 5.66481E-04-1.62467E-15
 -1       233 2.00181E-03 5.84960E-04-2.32146E-15
 -1       234 2.28238E-03 5.94647E-04-3.13897E-15
 -1       235 2.56713E-03 5.97882E-04-4.07505E-15
 -1       236 2.85711E-03 5.96717E-04-5.12736E-15
 -1       237 3.15336E-03 5.93178E-04-6.29442E-15
 -1       238 3.45708E-03 5.89538E-04-7.56912E-15
 -1       239 3.76953E-03 5.88630E-04-8.94508E-15
 -1       240 4.09199E-03 5.94213E-04-1.04240E-14
 -1       241 4.42551E-03 6.11331E-04-1.20073E-14
 -1       242 4.77043E-03 6.46526E-04-1.36923E-14
 -1       243 5.12573E-03 7.07505E-04-1.54808E-14
 -1       244 5.48812E-03 8.01575E-04-1.73706E-14
 -1       245 5.85137E-03 9.31959E-04-1.93554E-14
 -1       246 6.20658E-03 1.09179E-03-2.14379E-14
 -1       247 6.54476E-03 1.25823E-03-2.36309E-14
 -1       248 6.86204E-03 1.39346E-03-2.59338E-14
 -1       249 7.16451E-03 1.45907E-03-2.83602E-14
 -1       250 7.46709E-03 1.43867E-03-3.09077E-14
 -1       251 7.78465E-03 1.34894E-03-3.35711E-14
 -1       252 8.12336E-03 1.22827E-03-3.63405E-14
 -1       253 8.47931E-03 1.11432E-03-3.91986E-14
 -1       254 8.84354E-03 1.02980E-03-4.21283E-14
 -1       255 9.20722E-03 9.81574E-04-4.51259E-14
 -1       256 9.56422E-03 9.66463E-04-4.81945E-14
 -1       257 9.91140E-03 9.77268E-04-5.13258E-14
 -1       258 1.02479E-02 1.00645E-03-5.45122E-14
 -1       259 1.05742E-02 1.04770E-03-5.77485E-14
 -1       260 1.08915E-02 1.09633E-03-6.10377E-14
 -1       261 1.12012E-02 1.14907E-03-6.43771E-14
 -1       262 1.15049E-02 1.20375E-03-6.77634E-14
 -1       263 1.18038E-02 1.25901E-03-7.11920E-14
 -1       264 1.20989E-02 1.31402E-03-7.46608E-14
 -1       265 1.23912E-02 1.36833E-03-7.81671E-14
 -1       266 1.26814E-02 1.42174E-03-8.17094E-14
 -1       267 1.29701E-02 1.47416E-03-8.52820E-14
 -1       268 1.32577E-02 1.52564E-03-8.88794E-14
 -1       269 1.35445E-02 1.57627E-03-9.24978E-14
 -1       270 1.38308E-02 1.62613E-03-9.61184E-14
 -1       271 1.41168E-02 1.67537E-03-9.97250E-14
 -1       272 1.44026E-02 1.72410E-03-1.03321E-13
 -1       273 1.46883E-02 1.77244E-03-1.06913E-13
 -1       274 1.49739E-02 1.82052E-03-1.10490E-13
 -1       275 1.52596E-02 1.86846E-03-1.14047E-13
 -1       276 1.52741E-02 1.81296E-03-1.14757E-13
 -1       277 1.52270E-02 1.72864E-03-1.14882E-13
 -1       278 1.51800E-02 1.64433E-03-1.15006E-13
 -1       279 1.51332E-02 1.56005E-03-1.15131E-13
 -1       280 1.50874E-02 1.47724E-03-1.15252E-13
 -1       281 1.50410E-02 1.39307E-03-1.15390E-13
 -1       282 1.49948E-02 1.30893E-03-1.15534E-13
 -1       283 1.49488E-02 1.22483E-03-1.15676E-13
 -1       284 1.49029E-02 1.14073E-03-1.15809E-13
 -1       285 1.48571E-02 1.05660E-03-1.15938E-13
 -1       286 1.48122E-02 9.73860E-04-1.16052E-13
 -1       287 1.47668E-02 8.89636E-04-1.16160E-13
 -1       288 1.47215E-02 8.05363E-04-1.16263E-13
 -1       289 1.46765E-02 7.21061E-04-1.16354E-13
 -1       290 1.45571E-02 6.40168E-04-1.15328E-13
 -1       291 9.23690E-03 3.71318E-04-3.71607E-14
 -1       292 9.11196E-03 4.74897E-04-3.65391E-14
 -1       293 8.88050E-03 5.98220E-04-3.57876E-14
 -1       294 8.55807E-03 7.56731E-04-3.47394E-14
 -1       295 8.19615E-03 9.33600E-04-3.34491E-14
 -1       296 7.81236E-03 1.09106E-03-3.20698E-14
 -1       297 7.39530E-03 1.21195E-03-3.05651E-14
 -1       298 7.01068E-03 1.22482E-03-2.90261E-14
 -1       299 6.61663E-03 1.14563E-03-2.75650E-14
 -1       300 6.19300E-03 9.79053E-04-2.62702E-14
 -1       301 5.74791E-03 7.72585E-04-2.51832E-14
 -1       302 5.34386E-03 5.67831E-04-2.43120E-14
 -1       303 5.04160E-03 4.11016E-04-2.37709E-14
 -1       304 4.84519E-03 2.90211E-04-2.34977E-14
 -1       305 4.78055E-03 1.92413E-04-2.34854E-14
 -1       306 4.85030E-03 9.88220E-05-2.37344E-14
 -1       307 5.04058E-03-1.14257E-05-2.42266E-14
 -1       308 5.33992E-03-1.40276E-04-2.48839E-14
 -1       309 5.72007E-03-3.02063E-04-2.58347E-14
 -1       310 6.08740E-03-4.72127E-04-2.71380E-14
 -1       311 6.48520E-03-6.00495E-04-2.84570E-14
 -1       312 6.85324E-03-6.43170E-04-2.99482E-14
 -1       313 7.22628E-03-6.11804E-04-3.14116E-14
 -1       314 7.62125E-03-4.96009E-04-3.28287E-14
 -1       315 8.01645E-03-3.31928E-04-3.41412E-14
 -1       316 8.40517E-03-1.41466E-04-3.53524E-14
 -1       317 8.76824E-03 2.45979E-05-3.61962E-14
 -1       318 9.04481E-03 1.69383E-04-3.68630E-14
 -1       319 9.21280E-03 2.78099E-04-3.71234E-14
 -1       320 4.56125E-04-1.59974E-04-2.17864E-16
 -1       321 4.74672E-04-2.08212E-04-1.88119E-16
 -1       322 4.40717E-04-8.98735E-05-2.43349E-16
 -1       323 4.37340E-04-6.16334E-05-2.46710E-16
 -1       324 4.35364E-04-3.57955E-05-2.46710E-16
 -1       325 4.34454E-04-1.12837E-05-2.43993E-16
 -1       326 4.34492E-04 1.28149E-05-2.38850E-16
 -1       327 4.35482E-04 3.73703E-05-2.31850E-16
 -1       328 4.37512E-04 6.28538E-05-2.22197E-16
 -1       329 4.40999E-04 9.12369E-05-2.08729E-16
 -1       330 4.46739E-04 1.23616E-04-1.89729E-16
 -1       331 4.56676E-04 1.62408E-04-1.61983E-16
 -1       332 4.76288E-04 2.12200E-04-1.20699E-16
 -1       333 5.31836E-04 2.64794E-04-1.01668E-16
 -1       334 8.24698E-04 3.64455E-04-3.13575E-16
 -1       335 8.64209E-04-3.47640E-04-5.72479E-16
 -1       336 1.15162E-03-4.11889E-04-1.02446E-15
 -1       337 1.43610E-03-4.55876E-04-1.60675E-15
 -1       338 1.71937E-03-4.84714E-04-2.31614E-15
 -1       339 2.00281E-03-5.02231E-04-3.15191E-15
 -1       340 2.28747E-03-5.11397E-04-4.11100E-15
 -1       341 2.57419E-03-5.14656E-04-5.18898E-15
 -1       342 2.86364E-03-5.14178E-04-6.38191E-15
 -1       343 3.15641E-03-5.12074E-04-7.68646E-15
 -1       344 3.45300E-03-5.10572E-04-9.09656E-15
 -1       345 3.75384E-03-5.12166E-04-1.06096E-14
 -1       346 4.05924E-03-5.19688E-04-1.22210E-14
 -1       347 4.36932E-03-5.36241E-04-1.39298E-14
 -1       348 4.68383E-03-5.64888E-04-1.57340E-14
 -1       349 5.00194E-03-6.07961E-04-1.76311E-14
 -1       350 5.32193E-03-6.65861E-04-1.96181E-14
 -1       351 5.64111E-03-7.35425E-04-2.16995E-14
 -1       352 5.95609E-03-8.08361E-04-2.38748E-14
 -1       353 6.26396E-03-8.70958E-04-2.61473E-14
 -1       354 6.56412E-03-9.06604E-04-2.85162E-14
 -1       355 6.85941E-03-9.01494E-04-3.09842E-14
 -1       356 7.15530E-03-8.50874E-04-3.35431E-14
 -1       357 7.45694E-03-7.61472E-04-3.61841E-14
 -1       358 7.76656E-03-6.48089E-04-3.89032E-14
 -1       359 8.08304E-03-5.27138E-04-4.17010E-14
 -1       360 8.40327E-03-4.11430E-04-4.45748E-14
 -1       361 8.72400E-03-3.08253E-04-4.75211E-14
 -1       362 9.04277E-03-2.20034E-04-5.05300E-14
 -1       363 9.35812E-03-1.46014E-04-5.35956E-14
 -1       364 9.66943E-03-8.38207E-05-5.67193E-14
 -1       365 9.97660E-03-3.05945E-05-5.99026E-14
 -1       366 1.02799E-02 1.63723E-05-6.31400E-14
 -1       367 1.05796E-02 5.93441E-05-6.64313E-14
 -1       368 1.08764E-02 1.00064E-04-6.97641E-14
 -1       369 1.11705E-02 1.39788E-04-7.31337E-14
 -1       370 1.14626E-02 1.79363E-04-7.65414E-14
 -1       371 1.17531E-02 2.19321E-04-7.99715E-14
 -1       372 1.20422E-02 2.59959E-04-8.34427E-14
 -1       373 1.23302E-02 3.01412E-04-8.69502E-14
 -1       374 1.26176E-02 3.43704E-04-9.04933E-14
 -1       375 1.29044E-02 3.86791E-04-9.40667E-14
 -1       376 1.31907E-02 4.30589E-04-9.76759E-14
 -1       377 1.34768E-02 4.74994E-04-1.01318E-13
 -1       378 1.37628E-02 5.19892E-04-1.04984E-13
 -1       379 1.40486E-02 5.65167E-04-1.08673E-13
 -1       380 1.43028E-02 6.02607E-04-1.11996E-13
 -1       381 1.11113E-03 4.34242E-04-6.44694E-16
 -1       382 1.39359E-03 4.82019E-04-1.09700E-15
 -1       383 1.67460E-03 5.13487E-04-1.67113E-15
 -1       384 1.95602E-03 5.32701E-04-2.36640E-15
 -1       385 2.23921E-03 5.42685E-04-3.18133E-15
 -1       386 2.52524E-03 5.45836E-04-4.11398E-15
 -1       387 2.81504E-03 5.44216E-04-5.16142E-15
 -1       388 3.10953E-03 5.39818E-04-6.32212E-15
 -1       389 3.40962E-03 5.34833E-04-7.59065E-15
 -1       390 3.71633E-03 5.31963E-04-8.96071E-15
 -1       391 4.03069E-03 5.34783E-04-1.04342E-14
 -1       392 4.35373E-03 5.48120E-04-1.20100E-14
 -1       393 4.68630E-03 5.78341E-04-1.36864E-14
 -1       394 5.02877E-03 6.33212E-04-1.54650E-14
 -1       395 5.38047E-03 7.20725E-04-1.73436E-14
 -1       396 5.73879E-03 8.45952E-04-1.93160E-14
 -1       397 6.09813E-03 1.00517E-03-2.13864E-14
 -1       398 6.45034E-03 1.17847E-03-2.35655E-14
 -1       399 6.78860E-03 1.32729E-03-2.58546E-14
 -1       400 7.11413E-03 1.40670E-03-2.82666E-14
 -1       401 7.43819E-03 1.39306E-03-3.07987E-14
 -1       402 7.77326E-03 1.30173E-03-3.34475E-14
 -1       403 8.12320E-03 1.17549E-03-3.62031E-14
 -1       404 8.48230E-03 1.05627E-03-3.90483E-14
 -1       405 8.84224E-03 9.68336E-04-4.19687E-14
 -1       406 9.19680E-03 9.18377E-04-4.49528E-14
 -1       407 9.54286E-03 9.02664E-04-4.80072E-14
 -1       408 9.87948E-03 9.13545E-04-5.11261E-14
 -1       409 1.02070E-02 9.43185E-04-5.42983E-14
 -1       410 1.05262E-02 9.85102E-04-5.75233E-14
 -1       411 1.08384E-02 1.03448E-03-6.07983E-14
 -1       412 1.11445E-02 1.08796E-03-6.41252E-14
 -1       413 1.14457E-02 1.14333E-03-6.74997E-14
 -1       414 1.17431E-02 1.19921E-03-7.09161E-14
 -1       415 1.20373E-02 1.25475E-03-7.43704E-14
 -1       416 1.23291E-02 1.30952E-03-7.78616E-14
 -1       417 1.26192E-02 1.36329E-03-8.13946E-14
 -1       418 1.29078E-02 1.41601E-03-8.49617E-14
 -1       419 1.31955E-02 1.46773E-03-8.85530E-14
 -1       420 1.34824E-02 1.51853E-03-9.21643E-14
 -1       421 1.37689E-02 1.56853E-03-9.57813E-14
 -1       422 1.40550E-02 1.61786E-03-9.93849E-14
 -1       423 1.43410E-02 1.66666E-03-1.02981E-13
 -1       424 1.46268E-02 1.71504E-03-1.06574E-13
 -1       425 1.49125E-02 1.76314E-03-1.10153E-13
 -1       426 1.50933E-02 1.78807E-03-1.12459E-13
 -1       427 1.49091E-02 1.56089E-03-1.11962E-13
 -1       428 1.49560E-02 1.64508E-03-1.11847E-13
 -1       429 1.50246E-02 1.71656E-03-1.12153E-13
 -1       430 1.48633E-02 1.47820E-03-1.12077E-13
 -1       431 1.48168E-02 1.39416E-03-1.12195E-13
 -1       432 1.47706E-02 1.31019E-03-1.12320E-13
 -1       433 1.47245E-02 1.22627E-03-1.12449E-13
 -1       434 1.46785E-02 1.14237E-03-1.12575E-13
 -1       435 1.46326E-02 1.05845E-03-1.12694E-13
 -1       436 1.45876E-02 9.75913E-04-1.12806E-13
 -1       437 1.45421E-02 8.91879E-04-1.12908E-13
 -1       438 1.44967E-02 8.07766E-04-1.13002E-13
 -1       439 1.44515E-02 7.23578E-04-1.13093E-13
 -1       440 8.99697E-03 4.82887E-04-3.73124E-14
 -1       441 9.25897E-03 3.34665E-04-3.83759E-14
 -1       442 9.19301E-03 3.99434E-04-3.79994E-14
 -1       443 8.68916E-03 6.19755E-04-3.62428E-14
 -1       444 8.31035E-03 8.10312E-04-3.48158E-14
 -1       445 4.46304E-04-1.21761E-04-2.34659E-16
 -1       446 7.60500E-03 1.16140E-03-3.18336E-14
 -1       447 7.17568E-03 1.26521E-03-2.96368E-14
 -1       448 6.86135E-03 1.22872E-03-2.80763E-14
 -1       449 6.46507E-03 1.06546E-03-2.63803E-14
 -1       450 6.03437E-03 8.35187E-04-2.50829E-14
 -1       451 5.61557E-03 5.89434E-04-2.37786E-14
 -1       452 5.21774E-03 4.08880E-04-2.31673E-14
 -1       453 4.93221E-03 2.84306E-04-2.26506E-14
 -1       454 4.78231E-03 2.15024E-04-2.26037E-14
 -1       455 4.78341E-03 1.59867E-04-2.26241E-14
 -1       456 4.93324E-03 9.21133E-05-2.30421E-14
 -1       457 5.18560E-03-6.14600E-06-2.35988E-14
 -1       458 5.54587E-03-1.67490E-04-2.46094E-14
 -1       459 5.99173E-03-3.87562E-04-2.60593E-14
 -1       460 6.31646E-03-5.41481E-04-2.73423E-14
 -1       461 6.72767E-03-6.70818E-04-2.93030E-14
 -1       462 7.00150E-03-6.75426E-04-3.07468E-14
 -1       463 7.37642E-03-5.71811E-04-3.25250E-14
 -1       464 7.74114E-03-4.01853E-04-3.40759E-14
 -1       465 8.11833E-03-1.90214E-04-3.56651E-14
 -1       466 8.55001E-03 2.12703E-05-3.68626E-14
 -1       467 8.88271E-03 1.74173E-04-3.78529E-14
 -1       468 9.15073E-03 2.77171E-04-3.83623E-14
 -1       469 7.94241E-03 1.00468E-03-3.32482E-14
 -1       470 9.27025E-03 3.65980E-04-3.92163E-14
 -1       471 5.77348E-03-2.72773E-04-2.48215E-14
 -1       472 7.39935E-03 1.24517E-03-3.08773E-14
 -1       473 9.32841E-04 3.34760E-04-5.55986E-16
 -1       474 6.64774E-04-7.08846E-05-5.20963E-16
 -1       475 6.69494E-04-1.10011E-04-5.17771E-16
 -1       476 6.61378E-04 1.13913E-06-5.11249E-16
 -1       477 6.62298E-04 3.65732E-05-4.99888E-16
 -1       478 6.64976E-04 7.26145E-05-4.84225E-16
 -1       479 6.69842E-04 1.11832E-04-4.62707E-16
 -1       480 6.77654E-04 1.55231E-04-4.33522E-16
 -1       481 6.90136E-04 2.04889E-04-3.93880E-16
 -1       482 1.21984E-03 3.90330E-04-9.70974E-16
 -1       483 9.78099E-04-3.16755E-04-8.41659E-16
 -1       484 8.10531E-03 9.11183E-04-3.46417E-14
 -1       485 1.26498E-03-3.66836E-04-1.36983E-15
 -1       486 1.55140E-03-4.01040E-04-2.02351E-15
 -1       487 1.83750E-03-4.22790E-04-2.80081E-15
 -1       488 2.12377E-03-4.35045E-04-3.69999E-15
 -1       489 2.41075E-03-4.40291E-04-4.71700E-15
 -1       490 2.69897E-03-4.40687E-04-5.84854E-15
 -1       491 2.98895E-03-4.38241E-04-7.09181E-15
 -1       492 3.28122E-03-4.34984E-04-8.44341E-15
 -1       493 3.57640E-03-4.33134E-04-9.89883E-15
 -1       494 3.87522E-03-4.35221E-04-1.14542E-14
 -1       495 4.17850E-03-4.44161E-04-1.31065E-14
 -1       496 4.48715E-03-4.63190E-04-1.48547E-14
 -1       497 4.80190E-03-4.95550E-04-1.66969E-14
 -1       498 5.12287E-03-5.43738E-04-1.86309E-14
 -1       499 5.44882E-03-6.08065E-04-2.06551E-14
 -1       500 5.77656E-03-6.84428E-04-2.27743E-14
 -1       501 6.10121E-03-7.61944E-04-2.49920E-14
 -1       502 6.41839E-03-8.22483E-04-2.73063E-14
 -1       503 6.72768E-03-8.45277E-04-2.97185E-14
 -1       504 7.03402E-03-8.16580E-04-3.22268E-14
 -1       505 7.34461E-03-7.37911E-04-3.48268E-14
 -1       506 7.66350E-03-6.25046E-04-3.75071E-14
 -1       507 7.98933E-03-4.98859E-04-4.02679E-14
 -1       508 8.31740E-03-3.76321E-04-4.31045E-14
 -1       509 8.64306E-03-2.66944E-04-4.60150E-14
 -1       510 8.96353E-03-1.73842E-04-4.89917E-14
 -1       511 9.27791E-03-9.62412E-05-5.20283E-14
 -1       512 9.58652E-03-3.15599E-05-5.51174E-14
 -1       513 9.89017E-03 2.32832E-05-5.82698E-14
 -1       514 1.01898E-02 7.11857E-05-6.14792E-14
 -1       515 1.04862E-02 1.14574E-04-6.47387E-14
 -1       516 1.07801E-02 1.55332E-04-6.80500E-14
 -1       517 1.10720E-02 1.94835E-04-7.14022E-14
 -1       518 1.13624E-02 2.34030E-04-7.47925E-14
 -1       519 1.16516E-02 2.73524E-04-7.82119E-14
 -1       520 1.19398E-02 3.13673E-04-8.16609E-14
 -1       521 1.22274E-02 3.54650E-04-8.51486E-14
 -1       522 1.25144E-02 3.96503E-04-8.86721E-14
 -1       523 1.28010E-02 4.39203E-04-9.22267E-14
 -1       524 1.30873E-02 4.82674E-04-9.58158E-14
 -1       525 1.33734E-02 5.26812E-04-9.94381E-14
 -1       526 1.36594E-02 5.71503E-04-1.03088E-13
 -1       527 1.39452E-02 6.16633E-04-1.06762E-13
 -1       528 1.79079E-03 4.52418E-04-2.15908E-15
 -1       529 2.07618E-03 4.66069E-04-2.93055E-15
 -1       530 2.36257E-03 4.71754E-04-3.81844E-15
 -1       531 2.65063E-03 4.71611E-04-4.82063E-15
 -1       532 2.94098E-03 4.67581E-04-5.93691E-15
 -1       533 3.23421E-03 4.61639E-04-7.16213E-15
 -1       534 3.53094E-03 4.56057E-04-8.49109E-15
 -1       535 3.83193E-03 4.53711E-04-9.92054E-15
 -1       536 4.13820E-03 4.58431E-04-1.14536E-14
 -1       537 4.45118E-03 4.75360E-04-1.30862E-14
 -1       538 4.77296E-03 5.11234E-04-1.48173E-14
 -1       539 5.10630E-03 5.74291E-04-1.66474E-14
 -1       540 5.45396E-03 6.73188E-04-1.85721E-14
 -1       541 5.81663E-03 8.13606E-04-2.05919E-14
 -1       542 6.18860E-03 9.90317E-04-2.27133E-14
 -1       543 6.55952E-03 1.17486E-03-2.49422E-14
 -1       544 6.91690E-03 1.31261E-03-2.72879E-14
 -1       545 7.26562E-03 1.34792E-03-2.97578E-14
 -1       546 7.61931E-03 1.27549E-03-3.23489E-14
 -1       547 7.98804E-03 1.14125E-03-3.50542E-14
 -1       548 8.36156E-03 1.00500E-03-3.78562E-14
 -1       549 8.72753E-03 9.01098E-04-4.07375E-14
 -1       550 9.07922E-03 8.38841E-04-4.36851E-14
 -1       551 9.41635E-03 8.14155E-04-4.66977E-14
 -1       552 9.74151E-03 8.18679E-04-4.97773E-14
 -1       553 1.00576E-02 8.44037E-04-5.29151E-14
 -1       554 1.03669E-02 8.83306E-04-5.61045E-14
 -1       555 1.06711E-02 9.31274E-04-5.93450E-14
 -1       556 1.09712E-02 9.84235E-04-6.26342E-14
 -1       557 1.12682E-02 1.03968E-03-6.59737E-14
 -1       558 1.15625E-02 1.09599E-03-6.93576E-14
 -1       559 1.18548E-02 1.15215E-03-7.27863E-14
 -1       560 1.21454E-02 1.20761E-03-7.62473E-14
 -1       561 1.24347E-02 1.26207E-03-7.97517E-14
 -1       562 1.27230E-02 1.31544E-03-8.32952E-14
 -1       563 1.30106E-02 1.36773E-03-8.68706E-14
 -1       564 1.32975E-02 1.41903E-03-9.04631E-14
 -1       565 1.35841E-02 1.46944E-03-9.40736E-14
 -1       566 1.38703E-02 1.51911E-03-9.76783E-14
 -1       567 1.41564E-02 1.56815E-03-1.01277E-13
 -1       568 1.44423E-02 1.61672E-03-1.04872E-13
 -1       569 1.47281E-02 1.66493E-03-1.08462E-13
 -1       570 1.45927E-02 1.39498E-03-1.09016E-13
 -1       571 1.45464E-02 1.31118E-03-1.09125E-13
 -1       572 1.46851E-02 1.56151E-03-1.08799E-13
 -1       573 1.46388E-02 1.47818E-03-1.08908E-13
 -1       574 1.45002E-02 1.22747E-03-1.09238E-13
 -1       575 1.44542E-02 1.14381E-03-1.09352E-13
 -1       576 1.44083E-02 1.06015E-03-1.09458E-13
 -1       577 1.43632E-02 9.77855E-04-1.09563E-13
 -1       578 1.43175E-02 8.94058E-04-1.09661E-13
 -1       579 1.42720E-02 8.10145E-04-1.09753E-13
 -1       580 1.42266E-02 7.26107E-04-1.09839E-13
 -1       581 8.86784E-03 5.29068E-04-3.79784E-14
 -1       582 1.50563E-03 4.28238E-04-1.50514E-15
 -1       583 9.25517E-03 3.30392E-04-3.99261E-14
 -1       584 9.13858E-03 4.26136E-04-3.91682E-14
 -1       585 7.13834E-04-2.43665E-04-4.79543E-16
 -1       586 9.05699E-03 2.65950E-04-3.96811E-14
 -1       587 6.62177E-04-3.42750E-05-5.18493E-16
 -1       588 7.03346E-03 1.27995E-03-2.86985E-14
 -1       589 7.53154E-03-4.91226E-04-3.38579E-14
 -1       590 6.68670E-03 1.17525E-03-2.66719E-14
 -1       591 6.24579E-03 9.27624E-04-2.49001E-14
 -1       592 5.87003E-03 7.02295E-04-2.35985E-14
 -1       593 5.37284E-03 4.40282E-04-2.24146E-14
 -1       594 5.07338E-03 3.12590E-04-2.19122E-14
 -1       595 4.81013E-03 2.18762E-04-2.16304E-14
 -1       596 4.73170E-03 1.77510E-04-2.14473E-14
 -1       597 4.80650E-03 1.32165E-04-2.15998E-14
 -1       598 4.97866E-03 7.47675E-05-2.21323E-14
 -1       599 5.34471E-03-7.06373E-05-2.31688E-14
 -1       600 6.14677E-03-4.70147E-04-2.61512E-14
 -1       601 6.51189E-03-6.35200E-04-2.79751E-14
 -1       602 6.86413E-03-6.99842E-04-3.01107E-14
 -1       603 7.20342E-03-6.39497E-04-3.22544E-14
 -1       604 7.86786E-03-3.03112E-04-3.55329E-14
 -1       605 8.34457E-03-3.99049E-05-3.75061E-14
 -1       606 8.67068E-03 1.15206E-04-3.85091E-14
 -1       607 7.80389E-03 1.07766E-03-3.31912E-14
 -1       608 7.04709E-04 2.83042E-04-2.97644E-16
 -1       609 8.50901E-03 6.99151E-04-3.67013E-14
 -1       610 7.24631E-03 1.29609E-03-2.99093E-14
 -1       611 6.77073E-04-1.53083E-04-5.07339E-16
 -1       612 8.12179E-03-1.61540E-04-3.73615E-14
 -1       613 5.53080E-03-1.74514E-04-2.33657E-14
 -1       614 5.59395E-03 5.53427E-04-2.22277E-14
 -1       615 7.60599E-03 1.18845E-03-3.22060E-14
 -1       616 1.41375E-02 6.45659E-04-1.09258E-13
 -1       617 8.97008E-04 6.96056E-05-8.45430E-16
 -1       618 8.94317E-04 2.37184E-05-8.66725E-16
 -1       619 9.11517E-04 1.68898E-04-7.78803E-16
 -1       620 9.25160E-04 2.25982E-04-7.28509E-16
 -1       621 1.05078E-03 3.00652E-04-8.30807E-16
 -1       622 7.01557E-03-7.04435E-04-3.13312E-14
 -1       623 9.23036E-03 3.19946E-04-4.14417E-14
 -1       624 8.91502E-03 2.10235E-04-4.08336E-14
 -1       625 1.38521E-03-3.18492E-04-1.73447E-15
 -1       626 1.67189E-03-3.43682E-04-2.45530E-15
 -1       627 1.95877E-03-3.58954E-04-3.29581E-15
 -1       628 2.24575E-03-3.66542E-04-4.25430E-15
 -1       629 2.53297E-03-3.68453E-04-5.32577E-15
 -1       630 2.82070E-03-3.66522E-04-6.50876E-15
 -1       631 3.10934E-03-3.62527E-04-7.80100E-15
 -1       632 3.39946E-03-3.58327E-04-9.19874E-15
 -1       633 3.69190E-03-3.56006E-04-1.06981E-14
 -1       634 3.98787E-03-3.58015E-04-1.22957E-14
 -1       635 4.28896E-03-3.67290E-04-1.39881E-14
 -1       636 4.59715E-03-3.87294E-04-1.57750E-14
 -1       637 4.91444E-03-4.21858E-04-1.76541E-14
 -1       638 5.24199E-03-4.74504E-04-1.96242E-14
 -1       639 5.57862E-03-5.46546E-04-2.16870E-14
 -1       640 5.91950E-03-6.33332E-04-2.38478E-14
 -1       641 6.25660E-03-7.19683E-04-2.61065E-14
 -1       642 6.58356E-03-7.78686E-04-2.84610E-14
 -1       643 6.90201E-03-7.82144E-04-3.09150E-14
 -1       644 7.22138E-03-7.19439E-04-3.34681E-14
 -1       645 7.55041E-03-6.05554E-04-3.61109E-14
 -1       646 7.88889E-03-4.69753E-04-3.88336E-14
 -1       647 8.22958E-03-3.37204E-04-4.16362E-14
 -1       648 8.56483E-03-2.20863E-04-4.45100E-14
 -1       649 8.89054E-03-1.23867E-04-4.74574E-14
 -1       650 9.20614E-03-4.43481E-05-5.04624E-14
 -1       651 9.51301E-03 2.12360E-05-5.35234E-14
 -1       652 9.81317E-03 7.65319E-05-5.66408E-14
 -1       653 1.01085E-02 1.24680E-04-5.98191E-14
 -1       654 1.04006E-02 1.68186E-04-6.30545E-14
 -1       655 1.06906E-02 2.08954E-04-6.63382E-14
 -1       656 1.09791E-02 2.48370E-04-6.96697E-14
 -1       657 1.12667E-02 2.87398E-04-7.30436E-14
 -1       658 1.15537E-02 3.26666E-04-7.64484E-14
 -1       659 1.18402E-02 3.66553E-04-7.98821E-14
 -1       660 1.21266E-02 4.07254E-04-8.33520E-14
 -1       661 1.24127E-02 4.48835E-04-8.68568E-14
 -1       662 1.26987E-02 4.91282E-04-9.03932E-14
 -1       663 1.29846E-02 5.34526E-04-9.39646E-14
 -1       664 1.32705E-02 5.78471E-04-9.75664E-14
 -1       665 1.35563E-02 6.23006E-04-1.01200E-13
 -1       666 1.38421E-02 6.68020E-04-1.04858E-13
 -1       667 2.19703E-03 3.98029E-04-3.51468E-15
 -1       668 1.43993E-02 1.51341E-03-1.05211E-13
 -1       669 1.91044E-03 3.89241E-04-2.66928E-15
 -1       670 2.77108E-03 3.97753E-04-5.54395E-15
 -1       671 3.05896E-03 3.92360E-04-6.72625E-15
 -1       672 3.34770E-03 3.85967E-04-8.01354E-15
 -1       673 3.63766E-03 3.80815E-04-9.40298E-15
 -1       674 3.92949E-03 3.79727E-04-1.08935E-14
 -1       675 4.22442E-03 3.86407E-04-1.24849E-14
 -1       676 4.52480E-03 4.05798E-04-1.41723E-14
 -1       677 4.83465E-03 4.44551E-04-1.59555E-14
 -1       678 5.16011E-03 5.11578E-04-1.78342E-14
 -1       679 5.50842E-03 6.18168E-04-1.98061E-14
 -1       680 5.88377E-03 7.74949E-04-2.18698E-14
 -1       681 6.69022E-03 1.19413E-03-2.62854E-14
 -1       682 7.07203E-03 1.30801E-03-2.86782E-14
 -1       683 8.24882E-03 9.48937E-04-3.66643E-14
 -1       684 8.63017E-03 8.26041E-04-3.95077E-14
 -1       685 8.98468E-03 7.54660E-04-4.24211E-14
 -1       686 9.31489E-03 7.25512E-04-4.53975E-14
 -1       687 9.62797E-03 7.26995E-04-4.84373E-14
 -1       688 9.93050E-03 7.49701E-04-5.15390E-14
 -1       689 1.02270E-02 7.86661E-04-5.46940E-14
 -1       690 1.05200E-02 8.32807E-04-5.79007E-14
 -1       691 1.08111E-02 8.84506E-04-6.11573E-14
 -1       692 1.11010E-02 9.39211E-04-6.44596E-14
 -1       693 1.13901E-02 9.95199E-04-6.78115E-14
 -1       694 1.16785E-02 1.05136E-03-7.12090E-14
 -1       695 1.19663E-02 1.10700E-03-7.46466E-14
 -1       696 1.22537E-02 1.16177E-03-7.81213E-14
 -1       697 1.25407E-02 1.21550E-03-8.16376E-14
 -1       698 1.28274E-02 1.26816E-03-8.51893E-14
 -1       699 1.31138E-02 1.31980E-03-8.87700E-14
 -1       700 1.34000E-02 1.37052E-03-9.23693E-14
 -1       701 1.36861E-02 1.42045E-03-9.59689E-14
 -1       702 1.39721E-02 1.46971E-03-9.95660E-14
 -1       703 1.41857E-02 1.49171E-03-1.02391E-13
 -1       704 1.42301E-02 1.14497E-03-1.06152E-13
 -1       705 1.40344E-02 6.96997E-04-1.07343E-13
 -1       706 1.43223E-02 1.31185E-03-1.05946E-13
 -1       707 1.41841E-02 1.06162E-03-1.06248E-13
 -1       708 1.42762E-02 1.22836E-03-1.06051E-13
 -1       709 1.62386E-03 3.71763E-04-1.93955E-15
 -1       710 8.00884E-03 9.95713E-04-3.46825E-14
 -1       711 1.41390E-02 9.79641E-04-1.06341E-13
 -1       712 1.40931E-02 8.96149E-04-1.06432E-13
 -1       713 1.40474E-02 8.12507E-04-1.06522E-13
 -1       714 8.79114E-03 6.03940E-04-3.89569E-14
 -1       715 9.05790E-03 4.90849E-04-4.01628E-14
 -1       716 8.73562E-04-2.36984E-04-7.52233E-16
 -1       717 4.67530E-03 1.45154E-04-2.01527E-14
 -1       718 6.42533E-03 1.04987E-03-2.49892E-14
 -1       719 2.48384E-03 4.00241E-04-4.47279E-15
 -1       720 1.12845E-03-2.83048E-04-1.19403E-15
 -1       721 8.37471E-03 8.01350E-04-3.67468E-14
 -1       722 9.02550E-04 1.17424E-04-8.16591E-16
 -1       723 1.33722E-03 3.43135E-04-1.32626E-15
 -1       724 9.30831E-03 3.94845E-04-4.11680E-14
 -1       725 7.68010E-03-4.14833E-04-3.53289E-14
 -1       726 9.02177E-04-1.14966E-04-8.88433E-16
 -1       727 6.05115E-03 8.23043E-04-2.34159E-14
 -1       728 5.16144E-03 3.49742E-04-2.10597E-14
 -1       729 5.87874E-03-3.59602E-04-2.46069E-14
 -1       730 4.83126E-03 9.37969E-05-2.07985E-14
 -1       731 4.86783E-03 2.38100E-04-2.06255E-14
 -1       732 5.08632E-03-6.41233E-07-2.15424E-14
 -1       733 6.27931E-03-5.68842E-04-2.65020E-14
 -1       734 6.67730E-03-7.03532E-04-2.89586E-14
 -1       735 9.33297E-03 3.59138E-04-4.13113E-14
 -1       736 7.37307E-03-5.81235E-04-3.36856E-14
 -1       737 8.64770E-03 9.97253E-05-3.98049E-14
 -1       738 4.71741E-03 1.85730E-04-2.05074E-14
 -1       739 9.10882E-04-1.66331E-04-8.78597E-16
 -1       740 8.94264E-04-2.14724E-05-8.81090E-16
 -1       741 9.28773E-03 4.46352E-04-4.21800E-14
 -1       742 9.14280E-03 2.76861E-04-4.26053E-14
 -1       743 1.43682E-02 1.39479E-03-1.05842E-13
 -1       744 7.84869E-03 1.11549E-03-3.39016E-14
 -1       745 6.45100E-03-6.71132E-04-2.74498E-14
 -1       746 5.23882E-03-8.67180E-05-2.17258E-14
 -1       747 8.44982E-03-9.39541E-06-3.96494E-14
 -1       748 7.93379E-03-2.86338E-04-3.71441E-14
 -1       749 8.96818E-04-6.71690E-05-8.88599E-16
 -1       750 5.34435E-03 4.47750E-04-2.08680E-14
 -1       751 5.76224E-03 6.68478E-04-2.20563E-14
 -1       752 6.01857E-03-4.78402E-04-2.49396E-14
 -1       753 1.39447E-02 7.40275E-04-1.05693E-13
 -1       754 1.16146E-03 2.29939E-04-1.16410E-15
 -1       755 1.79562E-03-2.84292E-04-2.90101E-15
 -1       756 2.08198E-03-2.93927E-04-3.80056E-15
 -1       757 2.36817E-03-2.97558E-04-4.81385E-15
 -1       758 2.65402E-03-2.96743E-04-5.93746E-15
 -1       759 2.93962E-03-2.92951E-04-7.17137E-15
 -1       760 3.22530E-03-2.87646E-04-8.51148E-15
 -1       761 3.51171E-03-2.82394E-04-9.95394E-15
 -1       762 3.79997E-03-2.79012E-04-1.14969E-14
 -1       763 4.09183E-03-2.79751E-04-1.31346E-14
 -1       764 4.38981E-03-2.87544E-04-1.48662E-14
 -1       765 4.69721E-03-3.06318E-04-1.66911E-14
 -1       766 5.01776E-03-3.41251E-04-1.86066E-14
 -1       767 5.35414E-03-3.98401E-04-2.06148E-14
 -1       768 5.70544E-03-4.82058E-04-2.27171E-14
 -1       769 6.06405E-03-5.87030E-04-2.49168E-14
 -1       770 7.09007E-03-7.10830E-04-3.21124E-14
 -1       771 7.43143E-03-5.97918E-04-3.47131E-14
 -1       772 7.78622E-03-4.45783E-04-3.74011E-14
 -1       773 8.14406E-03-2.96498E-04-4.01692E-14
 -1       774 8.49244E-03-1.69898E-04-4.30140E-14
 -1       775 8.82552E-03-6.92890E-05-4.59267E-14
 -1       776 9.14308E-03 1.02667E-05-4.89019E-14
 -1       777 9.44810E-03 7.46236E-05-5.19356E-14
 -1       778 9.74419E-03 1.28633E-04-5.50222E-14
 -1       779 1.00345E-02 1.75851E-04-5.81686E-14
 -1       780 1.03214E-02 2.18817E-04-6.13765E-14
 -1       781 1.06064E-02 2.59332E-04-6.46340E-14
 -1       782 1.08906E-02 2.98664E-04-6.79388E-14
 -1       783 1.11745E-02 3.37683E-04-7.12921E-14
 -1       784 1.14585E-02 3.76961E-04-7.46836E-14
 -1       785 1.17427E-02 4.16848E-04-7.81040E-14
 -1       786 1.20272E-02 4.57526E-04-8.15569E-14
 -1       787 1.23120E-02 4.99064E-04-8.50447E-14
 -1       788 1.25970E-02 5.41451E-04-8.85647E-14
 -1       789 1.28822E-02 5.84628E-04-9.21201E-14
 -1       790 1.31676E-02 6.28504E-04-9.57066E-14
 -1       791 1.34531E-02 6.72978E-04-9.93196E-14
 -1       792 1.36988E-02 7.06487E-04-1.02497E-13
 -1       793 2.03200E-03 3.25020E-04-3.20313E-15
 -1       794 3.16987E-03 3.20240E-04-7.53022E-15
 -1       795 2.88694E-03 3.25871E-04-6.28487E-15
 -1       796 3.73188E-03 3.10574E-04-1.03293E-14
 -1       797 4.01147E-03 3.11010E-04-1.18793E-14
 -1       798 4.29163E-03 3.18871E-04-1.35264E-14
 -1       799 4.57534E-03 3.38330E-04-1.52657E-14
 -1       800 4.86834E-03 3.75579E-04-1.70995E-14
 -1       801 5.18037E-03 4.40756E-04-1.90244E-14
 -1       802 5.45775E-03 5.34655E-04-2.05143E-14
 -1       803 5.60327E-03-2.71196E-04-2.29918E-14
 -1       804 8.55912E-03 7.52165E-04-3.82621E-14
 -1       805 9.53891E-03 6.36906E-04-4.71062E-14
 -1       806 9.82384E-03 6.59931E-04-5.01708E-14
 -1       807 1.01041E-02 6.95808E-04-5.32929E-14
 -1       808 1.03833E-02 7.40230E-04-5.64635E-14
 -1       809 1.06629E-02 7.90141E-04-5.96891E-14
 -1       810 1.09436E-02 8.43314E-04-6.29560E-14
 -1       811 1.12254E-02 8.98141E-04-6.62734E-14
 -1       812 1.15083E-02 9.53505E-04-6.96434E-14
 -1       813 1.17920E-02 1.00867E-03-7.30556E-14
 -1       814 1.20763E-02 1.06319E-03-7.65032E-14
 -1       815 1.23611E-02 1.11683E-03-7.99923E-14
 -1       816 1.26462E-02 1.16951E-03-8.35184E-14
 -1       817 1.29316E-02 1.22124E-03-8.70792E-14
 -1       818 1.32171E-02 1.27207E-03-9.06652E-14
 -1       819 1.35027E-02 1.32212E-03-9.42587E-14
 -1       820 1.37883E-02 1.37149E-03-9.78568E-14
 -1       821 1.13287E-03 5.51024E-05-1.30379E-15
 -1       822 1.74578E-03 3.13336E-04-2.40016E-15
 -1       823 1.39602E-02 1.06279E-03-1.03061E-13
 -1       824 1.38230E-02 8.14821E-04-1.03312E-13
 -1       825 1.39150E-02 9.81196E-04-1.03146E-13
 -1       826 9.02581E-03 5.62284E-04-4.10829E-14
 -1       827 6.81621E-03-7.45119E-04-3.00538E-14
 -1       828 1.38690E-02 8.98098E-04-1.03230E-13
 -1       829 4.65662E-03 1.03049E-04-1.93048E-14
 -1       830 9.24291E-03 6.33518E-04-4.41037E-14
 -1       831 8.91980E-03 6.66467E-04-4.11501E-14
 -1       832 3.45150E-03 3.14469E-04-8.87877E-15
 -1       833 1.50951E-03-2.66996E-04-2.11765E-15
 -1       834 4.59915E-03 1.58013E-04-1.90095E-14
 -1       835 4.68939E-03 1.97360E-04-1.91237E-14
 -1       836 4.82905E-03 2.56979E-05-1.97133E-14
 -1       837 1.24745E-03 2.84694E-04-1.24966E-15
 -1       838 7.61310E-03-4.87911E-04-3.56925E-14
 -1       839 8.84393E-03 1.48170E-04-4.20763E-14
 -1       840 4.90928E-03 2.75461E-04-1.95114E-14
 -1       841 1.13108E-03 1.42068E-06-1.32896E-15
 -1       842 9.27917E-03 5.06473E-04-4.31190E-14
 -1       843 9.36112E-03 3.40607E-04-4.39071E-14
 -1       844 1.40980E-02 1.31179E-03-1.02773E-13
 -1       845 1.14710E-03-1.64946E-04-1.34397E-15
 -1       846 1.25373E-03-2.41178E-04-1.51786E-15
 -1       847 1.40062E-02 1.14579E-03-1.02972E-13
 -1       848 9.41004E-03 3.89039E-04-4.29057E-14
 -1       849 2.60284E-03 3.29620E-04-5.14658E-15
 -1       850 1.40019E-02 1.39362E-03-1.00679E-13
 -1       851 1.13826E-03 1.09971E-04-1.26894E-15
 -1       852 1.40521E-02 1.22870E-03-1.02875E-13
 -1       853 1.14761E-03 1.67946E-04-1.22284E-15
 -1       854 4.52253E-03 1.23011E-04-1.81878E-14
 -1       855 4.94247E-03-3.94358E-05-1.98853E-14
 -1       856 5.74277E-03-3.94112E-04-2.33042E-14
 -1       857 8.26322E-03-1.32056E-04-3.94195E-14
 -1       858 1.41417E-02 1.40160E-03-1.02585E-13
 -1       859 9.44198E-03 4.31701E-04-4.39341E-14
 -1       860 1.37609E-02 7.60676E-04-1.02904E-13
 -1       861 5.05154E-03 3.50599E-04-1.93208E-14
 -1       862 2.31779E-03 3.29875E-04-4.11923E-15
 -1       863 1.49649E-03 3.03462E-04-1.77832E-15
 -1       864 9.40922E-03 3.67359E-04-4.34110E-14
 -1       865 1.13802E-03-1.07121E-04-1.34986E-15
 -1       866 2.20661E-03-2.28287E-04-4.31395E-15
 -1       867 2.49088E-03-2.28781E-04-5.37955E-15
 -1       868 2.77409E-03-2.25878E-04-6.55471E-15
 -1       869 3.05617E-03-2.20640E-04-7.83794E-15
 -1       870 3.33735E-03-2.14129E-04-9.22431E-15
 -1       871 3.61834E-03-2.07502E-04-1.07101E-14
 -1       872 3.90044E-03-2.02162E-04-1.22944E-14
 -1       873 4.18586E-03-2.00027E-04-1.39715E-14
 -1       874 4.47802E-03-2.04022E-04-1.57424E-14
 -1       875 4.78180E-03-2.18777E-04-1.76050E-14
 -1       876 5.10354E-03-2.51922E-04-1.95577E-14
 -1       877 9.32741E-03 2.97539E-04-4.53738E-14
 -1       878 8.77983E-03-4.46483E-06-4.43982E-14
 -1       879 9.09696E-03 7.22948E-05-4.73443E-14
 -1       880 9.39751E-03 1.32506E-04-5.03495E-14
 -1       881 9.68706E-03 1.82830E-04-5.34102E-14
 -1       882 9.97028E-03 2.27446E-04-5.65262E-14
 -1       883 1.02503E-02 2.68865E-04-5.97029E-14
 -1       884 1.05290E-02 3.08636E-04-6.29342E-14
 -1       885 1.08078E-02 3.47753E-04-6.62126E-14
 -1       886 1.10871E-02 3.86864E-04-6.95398E-14
 -1       887 1.13673E-02 4.26386E-04-7.29155E-14
 -1       888 1.16485E-02 4.66567E-04-7.63239E-14
 -1       889 1.19306E-02 5.07533E-04-7.97609E-14
 -1       890 1.22136E-02 5.49323E-04-8.32323E-14
 -1       891 1.24972E-02 5.91914E-04-8.67384E-14
 -1       892 1.27814E-02 6.35248E-04-9.02805E-14
 -1       893 1.30661E-02 6.79241E-04-9.38537E-14
 -1       894 1.33510E-02 7.23804E-04-9.74526E-14
 -1       895 4.52818E-03 1.68863E-04-1.77554E-14
 -1       896 2.99941E-03 2.57252E-04-7.04173E-15
 -1       897 4.08112E-03 2.48577E-04-1.28757E-14
 -1       898 3.81671E-03 2.46483E-04-1.12705E-14
 -1       899 4.60196E-03 2.74061E-04-1.63662E-14
 -1       900 1.87008E-03 2.53525E-04-2.88719E-15
 -1       901 1.02577E-02 6.54469E-04-5.50336E-14
 -1       902 1.92163E-03-2.23287E-04-3.35951E-15
 -1       903 9.99540E-03 6.11577E-04-5.18942E-14
 -1       904 9.73600E-03 5.75544E-04-4.88081E-14
 -1       905 1.05238E-02 7.02160E-04-5.82242E-14
 -1       906 1.07937E-02 7.53050E-04-6.14629E-14
 -1       907 1.10671E-02 8.05852E-04-6.47489E-14
 -1       908 1.13433E-02 8.59571E-04-6.80848E-14
 -1       909 1.16219E-02 9.13476E-04-7.14697E-14
 -1       910 1.19023E-02 9.67077E-04-7.48949E-14
 -1       911 1.21842E-02 1.02008E-03-7.83565E-14
 -1       912 1.24671E-02 1.07232E-03-8.18568E-14
 -1       913 1.27509E-02 1.12376E-03-8.53958E-14
 -1       914 1.30353E-02 1.17443E-03-8.89674E-14
 -1       915 1.33201E-02 1.22438E-03-9.25530E-14
 -1       916 1.36052E-02 1.27370E-03-9.61449E-14
 -1       917 9.25405E-03 5.68213E-04-4.36128E-14
 -1       918 1.36909E-02 9.81724E-04-9.99687E-14
 -1       919 8.66173E-03 4.53132E-05-4.18418E-14
 -1       920 4.58914E-03 4.90317E-05-1.81042E-14
 -1       921 9.50235E-03 5.64030E-04-4.61918E-14
 -1       922 1.13278E-03-5.21754E-05-1.34455E-15
 -1       923 9.08839E-03 1.90126E-04-4.48252E-14
 -1       924 4.34206E-03 2.56775E-04-1.45748E-14
 -1       925 2.15481E-03 2.60603E-04-3.76034E-15
 -1       926 4.66485E-03 2.29450E-04-1.78104E-14
 -1       927 5.27025E-03-1.95989E-04-2.10252E-14
 -1       928 1.63661E-03-2.12595E-04-2.51782E-15
 -1       929 1.39891E-03 2.20829E-04-1.69862E-15
 -1       930 8.93746E-03 1.05011E-04-4.45794E-14
 -1       931 9.55327E-03 4.11771E-04-4.55325E-14
 -1       932 2.43839E-03 2.62660E-04-4.74514E-15
 -1       933 1.39076E-03-1.90946E-04-1.88776E-15
 -1       934 5.49108E-03-3.34606E-04-2.18015E-14
 -1       935 4.67110E-03 1.46592E-06-1.82716E-14
 -1       936 8.55730E-03-6.68027E-05-4.24357E-14
 -1       937 4.41054E-03 1.33549E-04-1.69638E-14
 -1       938 1.35559E-02 7.42177E-04-1.00168E-13
 -1       939 2.72013E-03 2.61090E-04-5.83936E-15
 -1       940 3.54818E-03 2.48403E-04-9.76041E-15
 -1       941 1.58504E-03 2.39989E-04-2.12538E-15
 -1       942 4.86613E-03 3.05505E-04-1.82462E-14
 -1       943 1.36020E-02 8.25222E-04-1.00094E-13
 -1       944 1.37369E-02 1.06426E-03-9.98838E-14
 -1       945 1.38186E-02 1.29589E-03-9.89629E-14
 -1       946 9.46281E-03 4.81945E-04-4.48918E-14
 -1       947 1.37644E-03 9.23975E-05-1.81669E-15
 -1       948 1.38281E-02 1.22866E-03-9.97028E-14
 -1       949 1.37205E-03 3.16751E-05-1.85587E-15
 -1       950 4.42380E-03 7.88959E-05-1.70247E-14
 -1       951 9.55425E-03 3.88014E-04-4.60387E-14
 -1       952 1.36465E-02 9.03555E-04-1.00033E-13
 -1       953 1.37939E-03-1.26440E-04-1.89566E-15
 -1       954 3.27561E-03 2.52533E-04-8.34965E-15
 -1       955 9.57290E-03 3.58522E-04-4.75357E-14
 -1       956 9.61343E-03 4.52492E-04-4.65079E-14
 -1       957 2.33269E-03-1.62575E-04-4.83574E-15
 -1       958 1.03898E-02 6.21242E-04-5.67653E-14
 -1       959 2.61421E-03-1.60832E-04-5.95186E-15
 -1       960 2.89375E-03-1.56518E-04-7.17608E-15
 -1       961 3.17103E-03-1.50254E-04-8.50665E-15
 -1       962 3.44616E-03-1.42632E-04-9.93783E-15
 -1       963 3.71967E-03-1.34290E-04-1.14661E-14
 -1       964 3.99278E-03-1.26087E-04-1.30893E-14
 -1       965 4.26772E-03-1.19366E-04-1.48064E-14
 -1       966 4.54853E-03-1.17151E-04-1.66154E-14
 -1       967 4.84191E-03-1.24822E-04-1.85153E-14
 -1       968 1.38532E-03 1.54981E-04-1.76464E-15
 -1       969 9.36414E-03 1.93110E-04-4.87645E-14
 -1       970 9.64222E-03 2.37384E-04-5.17994E-14
 -1       971 9.91490E-03 2.77733E-04-5.48888E-14
 -1       972 1.01857E-02 3.16640E-04-5.80344E-14
 -1       973 1.04567E-02 3.55190E-04-6.12385E-14
 -1       974 1.07289E-02 3.93960E-04-6.44929E-14
 -1       975 1.10028E-02 4.33259E-04-6.77950E-14
 -1       976 1.12787E-02 4.73260E-04-7.11456E-14
 -1       977 1.15563E-02 5.14045E-04-7.45391E-14
 -1       978 1.18357E-02 5.55632E-04-7.79674E-14
 -1       979 1.21165E-02 5.98001E-04-8.14241E-14
 -1       980 1.23985E-02 6.41099E-04-8.49131E-14
 -1       981 1.26815E-02 6.84857E-04-8.84425E-14
 -1       982 1.29652E-02 7.29194E-04-9.20007E-14
 -1       983 1.32495E-02 7.74027E-04-9.55852E-14
 -1       984 1.62311E-03-1.43260E-04-2.52696E-15
 -1       985 1.71296E-03 1.84674E-04-2.56844E-15
 -1       986 1.36149E-02 1.20680E-03-9.68789E-14
 -1       987 1.37247E-03-6.47729E-05-1.88881E-15
 -1       988 1.99647E-03 1.92856E-04-3.39904E-15
 -1       989 2.04972E-03-1.61084E-04-3.82882E-15
 -1       990 1.01385E-02 5.76438E-04-5.36072E-14
 -1       991 9.89560E-03 5.35512E-04-5.05055E-14
 -1       992 1.09125E-02 7.18973E-04-6.32309E-14
 -1       993 1.11817E-02 7.70198E-04-6.65384E-14
 -1       994 1.14547E-02 8.22050E-04-6.98935E-14
 -1       995 1.17308E-02 8.74018E-04-7.32914E-14
 -1       996 1.20093E-02 9.25752E-04-7.67304E-14
 -1       997 1.22897E-02 9.77039E-04-8.02089E-14
 -1       998 1.25715E-02 1.02777E-03-8.37220E-14
 -1       999 1.28545E-02 1.07791E-03-8.72682E-14
 -1      1000 1.31383E-02 1.12748E-03-9.08455E-14
 -1      1001 1.33764E-02 1.16731E-03-9.38596E-14
 -1      1002 9.47981E-03 5.21511E-04-4.55407E-14
 -1      1003 1.37825E-02 1.14637E-03-9.97980E-14
 -1      1004 9.72582E-03 4.33331E-04-4.83044E-14
 -1      1005 1.54879E-03 1.70478E-04-2.14869E-15
 -1      1006 4.41964E-03 1.89785E-04-1.61971E-14
 -1      1007 9.39844E-03 2.63236E-04-4.76318E-14
 -1      1008 1.06482E-02 6.69052E-04-5.99728E-14
 -1      1009 3.89679E-03 1.89534E-04-1.22208E-14
 -1      1010 1.37085E-03-1.64122E-05-1.87610E-15
 -1      1011 1.83629E-03-1.53290E-04-3.14665E-15
 -1      1012 2.27903E-03 1.96667E-04-4.34084E-15
 -1      1013 3.11059E-03 1.92783E-04-7.81596E-15
 -1      1014 9.66261E-03 4.99380E-04-4.74562E-14
 -1      1015 4.42953E-03 6.63128E-06-1.65747E-14
 -1      1016 4.14409E-03 1.93886E-04-1.38803E-14
 -1      1017 3.64158E-03 1.88649E-04-1.06555E-14
 -1      1018 1.35696E-02 1.12488E-03-9.69713E-14
 -1      1019 1.34675E-02 9.82500E-04-9.68013E-14
 -1      1020 2.83707E-03 1.95519E-04-6.55091E-15
 -1      1021 1.61651E-03 6.70873E-05-2.45710E-15
 -1      1022 9.78242E-03 4.07595E-04-4.98267E-14
 -1      1023 1.58118E-03 1.18659E-04-2.30498E-15
 -1      1024 1.34231E-02 9.04902E-04-9.68665E-14
 -1      1025 3.37912E-03 1.90110E-04-9.18593E-15
 -1      1026 9.69575E-03 3.40793E-04-5.02062E-14
 -1      1027 2.73891E-03-9.43060E-05-6.52837E-15
 -1      1028 3.01396E-03-8.93226E-05-7.80078E-15
 -1      1029 3.28538E-03-8.25459E-05-9.17695E-15
 -1      1030 3.55292E-03-7.40604E-05-1.06514E-14
 -1      1031 3.81662E-03-6.39477E-05-1.22213E-14
 -1      1032 4.07717E-03-5.24430E-05-1.38847E-14
 -1      1033 4.25854E-03-2.36709E-05-1.52054E-14
 -1      1034 9.86799E-03 3.25402E-04-5.32552E-14
 -1      1035 1.01265E-02 3.61278E-04-5.63735E-14
 -1      1036 1.03878E-02 3.98388E-04-5.95475E-14
 -1      1037 1.06524E-02 4.36824E-04-6.27776E-14
 -1      1038 1.09204E-02 4.76482E-04-6.60558E-14
 -1      1039 1.11914E-02 5.17236E-04-6.93807E-14
 -1      1040 1.14654E-02 5.58957E-04-7.27549E-14
 -1      1041 1.17417E-02 6.01524E-04-7.61680E-14
 -1      1042 1.20202E-02 6.44825E-04-7.96153E-14
 -1      1043 1.23005E-02 6.88760E-04-8.30919E-14
 -1      1044 1.25821E-02 7.33239E-04-8.66065E-14
 -1      1045 1.28649E-02 7.78177E-04-9.01537E-14
 -1      1046 1.31484E-02 8.23494E-04-9.37236E-14
 -1      1047 1.61446E-03-7.65907E-05-2.51923E-15
 -1      1048 1.15603E-02 7.84326E-04-7.16984E-14
 -1      1049 1.02548E-02 5.47526E-04-5.53192E-14
 -1      1050 1.00178E-02 5.06725E-04-5.21951E-14
 -1      1051 1.12884E-02 7.34658E-04-6.83266E-14
 -1      1052 1.10208E-02 6.85576E-04-6.49991E-14
 -1      1053 1.18354E-02 8.34193E-04-7.51145E-14
 -1      1054 1.21132E-02 8.83991E-04-7.85694E-14
 -1      1055 1.23931E-02 9.33552E-04-8.20588E-14
 -1      1056 1.26745E-02 9.82787E-04-8.55840E-14
 -1      1057 1.29572E-02 1.03167E-03-8.91388E-14
 -1      1058 1.35186E-02 1.05362E-03-9.68876E-14
 -1      1059 4.22597E-03 4.58073E-05-1.52978E-14
 -1      1060 1.61325E-03 1.49786E-05-2.48912E-15
 -1      1061 4.21327E-03 1.06596E-04-1.52469E-14
 -1      1062 2.46074E-03-9.73261E-05-5.36425E-15
 -1      1063 2.55957E-03 1.97186E-04-5.39217E-15
 -1      1064 2.18019E-03-9.81395E-05-4.30722E-15
 -1      1065 9.81577E-03 4.81193E-04-4.94032E-14
 -1      1066 9.66835E-03 2.92269E-04-5.10089E-14
 -1      1067 3.22353E-03 1.32827E-04-8.60729E-15
 -1      1068 9.90419E-03 4.56026E-04-5.09456E-14
 -1      1069 1.05025E-02 5.91362E-04-5.84943E-14
 -1      1070 3.97917E-03 1.40692E-04-1.31815E-14
 -1      1071 3.73723E-03 1.35559E-04-1.15630E-14
 -1      1072 2.12531E-03 1.31772E-04-3.93641E-15
 -1      1073 1.82627E-03-8.36414E-05-3.13718E-15
 -1      1074 2.95574E-03 1.33341E-04-7.27943E-15
 -1      1075 2.00328E-03-9.12739E-05-3.70024E-15
 -1      1076 1.31946E-02 1.07106E-03-9.21457E-14
 -1      1077 1.32496E-02 9.81122E-04-9.37318E-14
 -1      1078 1.07584E-02 6.37607E-04-6.17213E-14
 -1      1079 1.85793E-03 4.32487E-05-3.18165E-15
 -1      1080 1.80380E-03 1.28363E-04-2.91826E-15
 -1      1081 1.32053E-02 9.04178E-04-9.37992E-14
 -1      1082 3.48456E-03 1.33270E-04-1.00369E-14
 -1      1083 9.88232E-03 3.70507E-04-5.24470E-14
 -1      1084 3.13629E-03-2.49473E-05-8.42748E-15
 -1      1085 3.40110E-03-1.83270E-05-9.84758E-15
 -1      1086 3.66003E-03-9.46528E-06-1.13650E-14
 -1      1087 3.91182E-03 1.60085E-06-1.29760E-14
 -1      1088 4.07268E-03 2.33043E-05-1.41177E-14
 -1      1089 1.01286E-02 4.04594E-04-5.55534E-14
 -1      1090 2.40547E-03 1.33691E-04-4.94346E-15
 -1      1091 1.03812E-02 4.41274E-04-5.87132E-14
 -1      1092 1.06396E-02 4.80130E-04-6.19310E-14
 -1      1093 1.09028E-02 5.20755E-04-6.51987E-14
 -1      1094 1.11704E-02 5.62762E-04-6.85154E-14
 -1      1095 1.14417E-02 6.05845E-04-7.18787E-14
 -1      1096 1.17161E-02 6.49764E-04-7.52841E-14
 -1      1097 1.19931E-02 6.94329E-04-7.87275E-14
 -1      1098 1.22722E-02 7.39395E-04-8.22030E-14
 -1      1099 1.25530E-02 7.84852E-04-8.57110E-14
 -1      1100 1.28351E-02 8.30606E-04-8.92533E-14
 -1      1101 1.19368E-02 7.93282E-04-7.69393E-14
 -1      1102 1.16614E-02 7.45434E-04-7.35065E-14
 -1      1103 1.13891E-02 6.97927E-04-7.01117E-14
 -1      1104 1.11208E-02 6.51069E-04-6.67677E-14
 -1      1105 1.22148E-02 8.41254E-04-8.04073E-14
 -1      1106 1.24948E-02 8.89213E-04-8.39097E-14
 -1      1107 1.27763E-02 9.37073E-04-8.74425E-14
 -1      1108 1.83550E-03-2.50274E-05-3.15603E-15
 -1      1109 4.06159E-03 8.73594E-05-1.40750E-14
 -1      1110 2.86623E-03-2.97337E-05-7.10878E-15
 -1      1111 2.59164E-03-3.30543E-05-5.89733E-15
 -1      1112 2.31371E-03-3.49696E-05-4.79290E-15
 -1      1113 2.18072E-03 5.12913E-05-4.24364E-15
 -1      1114 1.01106E-02 4.79937E-04-5.38808E-14
 -1      1115 3.84282E-03 8.81309E-05-1.24821E-14
 -1      1116 1.00200E-02 4.33533E-04-5.32477E-14
 -1      1117 1.30130E-02 9.75802E-04-9.04346E-14
 -1      1118 3.07908E-03 7.45349E-05-8.02622E-15
 -1      1119 1.08574E-02 6.05253E-04-6.34689E-14
 -1      1120 1.03504E-02 5.19092E-04-5.70249E-14
 -1      1121 3.34202E-03 7.70131E-05-9.41384E-15
 -1      1122 1.29907E-02 9.21276E-04-9.06148E-14
 -1      1123 2.68274E-03 1.33958E-04-6.05838E-15
 -1      1124 2.72674E-03 2.97884E-05-6.43403E-15
 -1      1125 3.59735E-03 8.13999E-05-1.09012E-14
 -1      1126 3.52159E-03 4.17446E-05-1.05183E-14
 -1      1127 1.03088E-02 4.75972E-04-5.70239E-14
 -1      1128 1.05593E-02 5.15580E-04-6.02147E-14
 -1      1129 1.06001E-02 5.61094E-04-6.02200E-14
 -1      1130 2.48746E-03 5.84152E-05-5.39191E-15
 -1      1131 2.03346E-03-3.55535E-05-3.79582E-15
 -1      1132 0.00000E+00 0.00000E+00 0.00000E+00
 -1      1133 0.00000E+00 0.00000E+00 0.00000E+00
 -1      1134 0.00000E+00 0.00000E+00 0.00000E+00
 -1      1135 0.00000E+00 0.00000E+00 0.00000E+00
 -1      1136 0.00000E+00 0.00000E+00 0.00000E+00
 -1      1137 0.00000E+00 0.00000E+00 0.00000E+00
 -1      1138 0.00000E+00 0.00000E+00 0.00000E+00
 -1      1139 0.00000E+00 0.00000E+00 0.00000E+00
 -1      1140 0.00000E+00 0.00000E+00 0.00000E+00
 -1      1141 0.00000E+00 0.00000E+00 0.00000E+00
 -1      1142 0.00000E+00 0.00000E+00 0.00000E+00
 -1      1143 0.00000E+00 0.00000E+00 0.00000E+00
 -1      1144 0.00000E+00 0.00000E+00 0.00000E+00
 -1      1145 0.00000E+00 0.00000E+00 0.00000E+00
 -1      1146 0.00000E+00 0.00000E+00 0.00000E+00
 -1      1147 0.00000E+00 0.00000E+00 0.00000E+00
 -1      1148 0.00000E+00 0.00000E+00 0.00000E+00
 -1      1149 2.10451E-04-1.47199E-04 1.01915E-17
 -1      1150 5.48936E-04-3.33527E-04-6.05662E-17
 -1      1151 8.30289E-04-4.51523E-04-2.62838E-16
 -1      1152 1.10019E-03-5.29226E-04-6.16328E-16
 -1      1153 1.36680E-03-5.81962E-04-1.11185E-15
 -1      1154 1.63391E-03-6.17580E-04-1.74340E-15
 -1      1155 1.90374E-03-6.40747E-04-2.50875E-15
 -1      1156 2.17762E-03-6.54701E-04-3.40450E-15
 -1      1157 2.45644E-03-6.61996E-04-4.42632E-15
 -1      1158 2.74091E-03-6.64841E-04-5.57100E-15
 -1      1159 3.03166E-03-6.65317E-04-6.83508E-15
 -1      1160 3.32924E-03-6.65557E-04-8.20997E-15
 -1      1161 3.63408E-03-6.67885E-04-9.68656E-15
 -1      1162 3.94628E-03-6.74908E-04-1.12649E-14
 -1      1163 4.26536E-03-6.89487E-04-1.29406E-14
 -1      1164 4.58994E-03-7.14506E-04-1.47130E-14
 -1      1165 4.91731E-03-7.52314E-04-1.65804E-14
 -1      1166 5.24329E-03-8.03752E-04-1.85396E-14
 -1      1167 5.56238E-03-8.66816E-04-2.05899E-14
 -1      1168 5.86874E-03-9.35359E-04-2.27356E-14
 -1      1169 6.15803E-03-9.98685E-04-2.49776E-14
 -1      1170 6.42958E-03-1.04304E-03-2.73175E-14
 -1      1171 6.68787E-03-1.05533E-03-2.97444E-14
 -1      1172 6.94189E-03-1.02782E-03-3.22627E-14
 -1      1173 7.20219E-03-9.61331E-04-3.48704E-14
 -1      1174 7.47711E-03-8.64864E-04-3.75609E-14
 -1      1175 7.77021E-03-7.51977E-04-4.03183E-14
 -1      1176 8.08007E-03-6.36081E-04-4.31503E-14
 -1      1177 8.40199E-03-5.27097E-04-4.60658E-14
 -1      1178 8.73020E-03-4.30386E-04-4.90486E-14
 -1      1179 9.05955E-03-3.47405E-04-5.20902E-14
 -1      1180 9.38631E-03-2.77085E-04-5.51938E-14
 -1      1181 9.70824E-03-2.17127E-04-5.83548E-14
 -1      1182 1.00244E-02-1.64923E-04-6.15684E-14
 -1      1183 1.03347E-02-1.18075E-04-6.48375E-14
 -1      1184 1.06396E-02-7.46093E-05-6.81542E-14
 -1      1185 1.09397E-02-3.30291E-05-7.15057E-14
 -1      1186 1.12361E-02 7.73293E-06-7.48959E-14
 -1      1187 1.15293E-02 4.83911E-05-7.83177E-14
 -1      1188 1.18201E-02 8.93887E-05-8.17702E-14
 -1      1189 1.21092E-02 1.30971E-04-8.52660E-14
 -1      1190 1.23969E-02 1.73246E-04-8.88051E-14
 -1      1191 1.26838E-02 2.16231E-04-9.23726E-14
 -1      1192 1.29700E-02 2.59883E-04-9.59697E-14
 -1      1193 1.32559E-02 3.04128E-04-9.96049E-14
 -1      1194 1.35415E-02 3.48874E-04-1.03265E-13
 -1      1195 1.38271E-02 3.94019E-04-1.06947E-13
 -1      1196 1.41127E-02 4.39454E-04-1.10643E-13
 -1      1197 1.43983E-02 4.85064E-04-1.14352E-13
 -1      1198 1.46768E-02 5.29580E-04-1.17992E-13
 -1      1199 2.27060E-04 1.59481E-04 3.34476E-17
 -1      1200 5.50990E-04 3.38066E-04 1.97054E-17
 -1      1201 8.31042E-04 4.53545E-04-1.07146E-16
 -1      1202 1.10084E-03 5.30630E-04-3.62422E-16
 -1      1203 1.36738E-03 5.83121E-04-7.44874E-16
 -1      1204 1.63452E-03 6.18445E-04-1.25350E-15
 -1      1205 1.90446E-03 6.41120E-04-1.88594E-15
 -1      1206 2.17862E-03 6.54288E-04-2.63853E-15
 -1      1207 2.45809E-03 6.60383E-04-3.51405E-15
 -1      1208 2.74388E-03 6.61482E-04-4.50868E-15
 -1      1209 3.03714E-03 6.59562E-04-5.62111E-15
 -1      1210 3.33921E-03 6.56739E-04-6.84565E-15
 -1      1211 3.65170E-03 6.55564E-04-8.17406E-15
 -1      1212 3.97636E-03 6.59357E-04-9.60388E-15
 -1      1213 4.31484E-03 6.72583E-04-1.11375E-14
 -1      1214 4.66814E-03 7.01155E-04-1.27786E-14
 -1      1215 5.03556E-03 7.52392E-04-1.45233E-14
 -1      1216 5.41334E-03 8.34005E-04-1.63716E-14
 -1      1217 5.79305E-03 9.51271E-04-1.83182E-14
 -1      1218 6.16125E-03 1.10178E-03-2.03633E-14
 -1      1219 6.50227E-03 1.26918E-03-2.25114E-14
 -1      1220 6.80577E-03 1.42103E-03-2.47669E-14
 -1      1221 7.07610E-03 1.51780E-03-2.71419E-14
 -1      1222 7.33478E-03 1.53269E-03-2.96398E-14
 -1      1223 7.61011E-03 1.46865E-03-3.22606E-14
 -1      1224 7.92098E-03 1.35642E-03-3.49924E-14
 -1      1225 8.26864E-03 1.23575E-03-3.78184E-14
 -1      1226 8.64109E-03 1.13645E-03-4.07204E-14
 -1      1227 9.02268E-03 1.07184E-03-4.36947E-14
 -1      1228 9.40083E-03 1.04235E-03-4.67441E-14
 -1      1229 9.76819E-03 1.04197E-03-4.98586E-14
 -1      1230 1.01218E-02 1.06303E-03-5.30350E-14
 -1      1231 1.04618E-02 1.09866E-03-5.62632E-14
 -1      1232 1.07893E-02 1.14353E-03-5.95343E-14
 -1      1233 1.11066E-02 1.19384E-03-6.28533E-14
 -1      1234 1.14155E-02 1.24703E-03-6.62287E-14
 -1      1235 1.17179E-02 1.30142E-03-6.96462E-14
 -1      1236 1.20154E-02 1.35599E-03-7.31141E-14
 -1      1237 1.23091E-02 1.41014E-03-7.66202E-14
 -1      1238 1.26002E-02 1.46355E-03-8.01598E-14
 -1      1239 1.28893E-02 1.51609E-03-8.37318E-14
 -1      1240 1.31770E-02 1.56773E-03-8.73212E-14
 -1      1241 1.34638E-02 1.61853E-03-9.09312E-14
 -1      1242 1.37499E-02 1.66858E-03-9.45515E-14
 -1      1243 1.40358E-02 1.71798E-03-9.81717E-14
 -1      1244 1.43214E-02 1.76685E-03-1.01774E-13
 -1      1245 1.46069E-02 1.81530E-03-1.05366E-13
 -1      1246 1.48925E-02 1.86345E-03-1.08949E-13
 -1      1247 1.51781E-02 1.91142E-03-1.12513E-13
 -1      1248 1.54566E-02 1.95815E-03-1.15975E-13
 -1      1249 1.55687E-02 1.93878E-03-1.17711E-13
 -1      1250 1.55215E-02 1.85446E-03-1.17826E-13
 -1      1251 1.54744E-02 1.77007E-03-1.17967E-13
 -1      1252 1.54274E-02 1.68564E-03-1.18105E-13
 -1      1253 1.53806E-02 1.60121E-03-1.18237E-13
 -1      1254 1.53344E-02 1.51753E-03-1.18360E-13
 -1      1255 1.52884E-02 1.43390E-03-1.18523E-13
 -1      1256 1.52422E-02 1.34960E-03-1.18683E-13
 -1      1257 1.51961E-02 1.26534E-03-1.18837E-13
 -1      1258 1.51502E-02 1.18108E-03-1.18983E-13
 -1      1259 1.51044E-02 1.09680E-03-1.19113E-13
 -1      1260 1.50592E-02 1.01318E-03-1.19241E-13
 -1      1261 1.50142E-02 9.29511E-04-1.19363E-13
 -1      1262 1.49689E-02 8.45093E-04-1.19480E-13
 -1      1263 1.49239E-02 7.60673E-04-1.19582E-13
 -1      1264 1.48790E-02 6.76295E-04-1.19667E-13
 -1      1265 1.48346E-02 5.92690E-04-1.19745E-13
 -1      1266 9.25093E-03 3.90525E-04-3.58320E-14
 -1      1267 9.15159E-03 5.41145E-04-3.54338E-14
 -1      1268 8.95567E-03 6.88312E-04-3.48144E-14
 -1      1269 8.66731E-03 8.40943E-04-3.39549E-14
 -1      1270 8.31292E-03 9.83960E-04-3.29250E-14
 -1      1271 7.91144E-03 1.10164E-03-3.17725E-14
 -1      1272 7.45320E-03 1.17687E-03-3.04750E-14
 -1      1273 6.98838E-03 1.18906E-03-2.91933E-14
 -1      1274 6.52046E-03 1.13063E-03-2.79570E-14
 -1      1275 6.05980E-03 1.01289E-03-2.68094E-14
 -1      1276 5.62145E-03 8.50210E-04-2.58050E-14
 -1      1277 5.24651E-03 6.68447E-04-2.50303E-14
 -1      1278 4.98341E-03 5.02144E-04-2.45462E-14
 -1      1279 4.81916E-03 3.44060E-04-2.42944E-14
 -1      1280 4.76609E-03 1.94823E-04-2.42898E-14
 -1      1281 4.82415E-03 5.21628E-05-2.45151E-14
 -1      1282 4.98507E-03-9.03641E-05-2.49627E-14
 -1      1283 5.24228E-03-2.35251E-04-2.56304E-14
 -1      1284 5.58602E-03-3.77481E-04-2.65239E-14
 -1      1285 5.97645E-03-4.96613E-04-2.75666E-14
 -1      1286 6.40329E-03-5.78054E-04-2.87427E-14
 -1      1287 6.84564E-03-6.10626E-04-2.99826E-14
 -1      1288 7.28674E-03-5.84489E-04-3.12173E-14
 -1      1289 7.72726E-03-5.05136E-04-3.24286E-14
 -1      1290 8.14316E-03-3.84492E-04-3.35266E-14
 -1      1291 8.52809E-03-2.35345E-04-3.44838E-14
 -1      1292 8.85198E-03-7.65989E-05-3.52318E-14
 -1      1293 9.09133E-03 8.03998E-05-3.57272E-14
 -1      1294 9.23129E-03 2.35768E-04-3.59399E-14
 -1      1295 1.66114E-04-1.09385E-04-1.07743E-17
 -1      1296 1.12574E-04-5.61168E-05-3.38678E-17
 -1      1297 1.17514E-04-6.67811E-05-2.73354E-17
 -1      1298 1.08592E-04-4.24867E-05-4.43439E-17
 -1      1299 1.10400E-04-4.86551E-05-4.13217E-17
 -1      1300 2.26529E-04-1.05660E-04-9.68599E-17
 -1      1301 1.07042E-04-3.25368E-05-4.96022E-17
 -1      1302 1.07880E-04-3.72692E-05-4.81657E-17
 -1      1303 2.19492E-04-8.03035E-05-1.15129E-16
 -1      1304 1.06234E-04-2.43162E-05-5.24212E-17
 -1      1305 1.06685E-04-2.83056E-05-5.18113E-17
 -1      1306 2.16253E-04-6.10870E-05-1.25049E-16
 -1      1307 1.05776E-04-1.72118E-05-5.37222E-17
 -1      1308 1.06037E-04-2.06835E-05-5.35325E-17
 -1      1309 2.14486E-04-4.51680E-05-1.30267E-16
 -1      1310 1.05500E-04-1.06218E-05-5.41017E-17
 -1      1311 1.05651E-04-1.38636E-05-5.41695E-17
 -1      1312 2.13425E-04-3.11189E-05-1.32422E-16
 -1      1313 1.05364E-04-4.40924E-06-5.36680E-17
 -1      1314 1.05433E-04-7.48839E-06-5.38306E-17
 -1      1315 2.12801E-04-1.81262E-05-1.32611E-16
 -1      1316 1.05347E-04 1.64984E-06-5.30175E-17
 -1      1317 1.05344E-04-1.37808E-06-5.33427E-17
 -1      1318 2.12514E-04-5.78979E-06-1.31500E-16
 -1      1319 1.05447E-04 7.76807E-06-5.13099E-17
 -1      1320 1.05372E-04 4.68372E-06-5.17707E-17
 -1      1321 2.12526E-04 6.34051E-06-1.28885E-16
 -1      1322 1.05677E-04 1.41658E-05-4.92363E-17
 -1      1323 1.05520E-04 1.09109E-05-4.98733E-17
 -1      1324 2.12838E-04 1.86978E-05-1.24751E-16
 -1      1325 1.06071E-04 2.09694E-05-4.62954E-17
 -1      1326 1.05805E-04 1.74758E-05-4.71628E-17
 -1      1327 2.13485E-04 3.16269E-05-1.19194E-16
 -1      1328 1.06741E-04 2.87318E-05-4.21890E-17
 -1      1329 1.06282E-04 2.46987E-05-4.35985E-17
 -1      1330 2.14577E-04 4.57635E-05-1.11659E-16
 -1      1331 1.07930E-04 3.78478E-05-3.62124E-17
 -1      1332 1.07088E-04 3.30424E-05-3.85163E-17
 -1      1333 2.16391E-04 6.20014E-05-1.01210E-16
 -1      1334 1.10383E-04 4.93939E-05-2.65358E-17
 -1      1335 1.08605E-04 4.31554E-05-3.06965E-17
 -1      1336 2.19613E-04 8.15406E-05-8.56113E-17
 -1      1337 1.16823E-04 6.68252E-05-1.10860E-17
 -1      1338 1.12219E-04 5.69177E-05-1.85399E-17
 -1      1339 2.26516E-04 1.07469E-04-6.23958E-17
 -1      1340 1.56918E-04 1.08963E-04 1.27665E-17
 -1      1341 1.35378E-04 8.52365E-05-1.96512E-18
 -1      1342 2.55756E-04 1.50145E-04-3.45183E-17
 -1      1343 3.33774E-04 2.18480E-04 5.17707E-18
 -1      1344 4.20160E-04-2.58640E-04-7.19504E-17
 -1      1345 5.72987E-04-3.32031E-04-1.41190E-16
 -1      1346 7.20077E-04-3.90843E-04-2.50518E-16
 -1      1347 8.63317E-04-4.38228E-04-3.96276E-16
 -1      1348 6.11358E-04-3.25245E-04-2.32860E-16
 -1      1349 1.00360E-03-4.77261E-04-5.76416E-16
 -1      1350 1.14191E-03-5.09083E-04-7.91901E-16
 -1      1351 9.04946E-04-4.22046E-04-5.32831E-16
 -1      1352 1.27909E-03-5.35536E-04-1.04188E-15
 -1      1353 1.41568E-03-5.57109E-04-1.32622E-15
 -1      1354 1.18844E-03-4.87023E-04-9.70239E-16
 -1      1355 1.55215E-03-5.74844E-04-1.64350E-15
 -1      1356 1.68880E-03-5.89093E-04-1.99383E-15
 -1      1357 1.46732E-03-5.30729E-04-1.54230E-15
 -1      1358 1.82592E-03-6.00472E-04-2.37749E-15
 -1      1359 1.96366E-03-6.09304E-04-2.79341E-15
 -1      1360 1.74511E-03-5.59301E-04-2.24588E-15
 -1      1361 2.10222E-03-6.15993E-04-3.24094E-15
 -1      1362 2.24170E-03-6.20839E-04-3.72041E-15
 -1      1363 2.02400E-03-5.76755E-04-3.07831E-15
 -1      1364 2.38223E-03-6.24141E-04-4.23094E-15
 -1      1365 2.52390E-03-6.26183E-04-4.77179E-15
 -1      1366 2.30539E-03-5.86065E-04-4.03642E-15
 -1      1367 2.66680E-03-6.27214E-04-5.34285E-15
 -1      1368 2.81100E-03-6.27512E-04-5.94353E-15
 -1      1369 2.59025E-03-5.89646E-04-5.11635E-15
 -1      1370 2.95659E-03-6.27317E-04-6.57283E-15
 -1      1371 3.10363E-03-6.26915E-04-7.23113E-15
 -1      1372 2.87933E-03-5.89652E-04-6.31400E-15
 -1      1373 3.25217E-03-6.26568E-04-7.91569E-15
 -1      1374 3.40227E-03-6.26577E-04-8.62679E-15
 -1      1375 3.17320E-03-5.88194E-04-7.62465E-15
 -1      1376 3.55395E-03-6.27252E-04-9.36320E-15
 -1      1377 3.70721E-03-6.28917E-04-1.01246E-14
 -1      1378 3.47230E-03-5.87517E-04-9.04160E-15
 -1      1379 3.86206E-03-6.31944E-04-1.09120E-14
 -1      1380 4.01842E-03-6.36669E-04-1.17237E-14
 -1      1381 3.77688E-03-5.90147E-04-1.05616E-14
 -1      1382 4.17620E-03-6.43525E-04-1.25595E-14
 -1      1383 4.33527E-03-6.52827E-04-1.34194E-14
 -1      1384 4.08685E-03-5.98948E-04-1.21812E-14
 -1      1385 4.49540E-03-6.65028E-04-1.43036E-14
 -1      1386 4.65633E-03-6.80353E-04-1.52117E-14
 -1      1387 4.40163E-03-6.17029E-04-1.38963E-14
 -1      1388 4.81771E-03-6.99170E-04-1.61428E-14
 -1      1389 4.97911E-03-7.21510E-04-1.70978E-14
 -1      1390 4.71997E-03-6.47373E-04-1.57083E-14
 -1      1391 5.14007E-03-7.47476E-04-1.80749E-14
 -1      1392 5.30004E-03-7.76754E-04-1.90747E-14
 -1      1393 5.03978E-03-6.92069E-04-1.76126E-14
 -1      1394 5.45846E-03-8.08953E-04-2.00986E-14
 -1      1395 5.61476E-03-8.43267E-04-2.11462E-14
 -1      1396 5.35811E-03-7.51049E-04-1.96096E-14
 -1      1397 5.76843E-03-8.78619E-04-2.22171E-14
 -1      1398 5.91906E-03-9.13664E-04-2.33105E-14
 -1      1399 5.67146E-03-8.20537E-04-2.16997E-14
 -1      1400 6.06636E-03-9.46653E-04-2.44292E-14
 -1      1401 6.21030E-03-9.75875E-04-2.55738E-14
 -1      1402 5.97656E-03-8.91828E-04-2.38849E-14
 -1      1403 6.35102E-03-9.99282E-04-2.67397E-14
 -1      1404 6.48896E-03-1.01524E-03-2.79291E-14
 -1      1405 6.27155E-03-9.51556E-04-2.61648E-14
 -1      1406 6.62476E-03-1.02209E-03-2.91431E-14
 -1      1407 6.75930E-03-1.01888E-03-3.03787E-14
 -1      1408 6.55727E-03-9.84450E-04-2.85416E-14
 -1      1409 6.89351E-03-1.00505E-03-3.16372E-14
 -1      1410 7.02845E-03-9.80694E-04-3.29167E-14
 -1      1411 6.83766E-03-9.78348E-04-3.10123E-14
 -1      1412 7.16502E-03-9.46604E-04-3.42188E-14
 -1      1413 7.30403E-03-9.03911E-04-3.55435E-14
 -1      1414 7.11869E-03-9.29158E-04-3.35708E-14
 -1      1415 7.44604E-03-8.54388E-04-3.68866E-14
 -1      1416 7.59140E-03-7.99729E-04-3.82479E-14
 -1      1417 7.40612E-03-8.42682E-04-3.62140E-14
 -1      1418 7.74020E-03-7.41967E-04-3.96273E-14
 -1      1419 7.89229E-03-6.82777E-04-4.10238E-14
 -1      1420 7.70339E-03-7.32043E-04-3.89355E-14
 -1      1421 8.04736E-03-6.23796E-04-4.24412E-14
 -1      1422 8.20496E-03-5.66283E-04-4.38787E-14
 -1      1423 8.01081E-03-6.12476E-04-4.17316E-14
 -1      1424 8.36457E-03-5.11177E-04-4.53345E-14
 -1      1425 8.52562E-03-4.59197E-04-4.68096E-14
 -1      1426 8.32621E-03-4.96624E-04-4.46057E-14
 -1      1427 8.68757E-03-4.10627E-04-4.82994E-14
 -1      1428 8.84992E-03-3.65723E-04-4.98036E-14
 -1      1429 8.64629E-03-3.92266E-04-4.75502E-14
 -1      1430 9.01223E-03-3.24321E-04-5.13244E-14
 -1      1431 9.17413E-03-2.86370E-04-5.28603E-14
 -1      1432 8.96769E-03-3.02439E-04-5.05604E-14
 -1      1433 9.33531E-03-2.51488E-04-5.44129E-14
 -1      1434 9.49556E-03-2.19460E-04-5.59783E-14
 -1      1435 9.28775E-03-2.26805E-04-5.36311E-14
 -1      1436 9.65470E-03-1.89853E-04-5.75567E-14
 -1      1437 9.81263E-03-1.62392E-04-5.91498E-14
 -1      1438 9.60466E-03-1.63199E-04-5.67603E-14
 -1      1439 9.96930E-03-1.36688E-04-6.07571E-14
 -1      1440 1.01247E-02-1.12467E-04-6.23765E-14
 -1      1441 9.91744E-03-1.08819E-04-5.99447E-14
 -1      1442 1.02788E-02-8.94204E-05-6.40088E-14
 -1      1443 1.04318E-02-6.73101E-05-6.56557E-14
 -1      1444 1.02258E-02-6.09368E-05-6.31830E-14
 -1      1445 1.05836E-02-4.59124E-05-6.73131E-14
 -1      1446 1.07342E-02-2.50342E-05-6.89793E-14
 -1      1447 1.05298E-02-1.72479E-05-6.64722E-14
 -1      1448 1.08840E-02-4.52660E-06-7.06553E-14
 -1      1449 1.10327E-02 1.57578E-05-7.23392E-14
 -1      1450 1.08299E-02 2.40328E-05-6.98041E-14
 -1      1451 1.11807E-02 3.59099E-05-7.40334E-14
 -1      1452 1.13279E-02 5.60365E-05-7.57391E-14
 -1      1453 1.11266E-02 6.41952E-05-7.31751E-14
 -1      1454 1.14745E-02 7.61861E-05-7.74499E-14
 -1      1455 1.16204E-02 9.64323E-05-7.91657E-14
 -1      1456 1.14206E-02 1.04113E-04-7.65792E-14
 -1      1457 1.17659E-02 1.16795E-04-8.08934E-14
 -1      1458 1.19108E-02 1.37321E-04-8.26292E-14
 -1      1459 1.17122E-02 1.44338E-04-8.00157E-14
 -1      1460 1.20554E-02 1.58011E-04-8.43761E-14
 -1      1461 1.21997E-02 1.78894E-04-8.61344E-14
 -1      1462 1.20022E-02 1.85183E-04-8.34876E-14
 -1      1463 1.23437E-02 1.99960E-04-8.79001E-14
 -1      1464 1.24874E-02 2.21223E-04-8.96756E-14
 -1      1465 1.22907E-02 2.26793E-04-8.69991E-14
 -1      1466 1.26310E-02 2.42666E-04-9.14595E-14
 -1      1467 1.27743E-02 2.64294E-04-9.32487E-14
 -1      1468 1.25783E-02 2.69203E-04-9.05461E-14
 -1      1469 1.29176E-02 2.86088E-04-9.50455E-14
 -1      1470 1.30607E-02 3.08047E-04-9.68519E-14
 -1      1471 1.28652E-02 3.12377E-04-9.41241E-14
 -1      1472 1.32037E-02 3.30150E-04-9.86680E-14
 -1      1473 1.33467E-02 3.52393E-04-1.00492E-13
 -1      1474 1.31515E-02 3.56239E-04-9.77351E-14
 -1      1475 1.34896E-02 3.74757E-04-1.02322E-13
 -1      1476 1.36324E-02 3.97232E-04-1.04156E-13
 -1      1477 1.34376E-02 4.00689E-04-1.01379E-13
 -1      1478 1.37753E-02 4.19801E-04-1.05997E-13
 -1      1479 1.39181E-02 4.42454E-04-1.07841E-13
 -1      1480 1.37234E-02 4.45619E-04-1.05047E-13
 -1      1481 1.40609E-02 4.65174E-04-1.09691E-13
 -1      1482 1.42038E-02 4.87948E-04-1.11541E-13
 -1      1483 1.40092E-02 4.90914E-04-1.08736E-13
 -1      1484 1.43466E-02 5.10759E-04-1.13398E-13
 -1      1485 1.44894E-02 5.33591E-04-1.15258E-13
 -1      1486 1.42949E-02 5.36458E-04-1.12442E-13
 -1      1487 1.46989E-02 5.71011E-04-1.17962E-13
 -1      1488 1.46472E-02 5.96714E-04-1.17000E-13
 -1      1489 6.41076E-04 3.66430E-04-6.68953E-17
 -1      1490 4.91211E-04 2.99843E-04-1.49755E-17
 -1      1491 4.43933E-04 2.62239E-04-4.44387E-17
 -1      1492 9.26694E-04 4.62511E-04-2.65372E-16
 -1      1493 7.85724E-04 4.19031E-04-1.50419E-16
 -1      1494 7.43689E-04 3.83426E-04-1.86944E-16
 -1      1495 1.20241E-03 5.27447E-04-5.88302E-16
 -1      1496 1.06523E-03 4.98088E-04-4.11184E-16
 -1      1497 1.03029E-03 4.64643E-04-4.53251E-16
 -1      1498 1.47477E-03 5.71454E-04-1.03688E-15
 -1      1499 1.33868E-03 5.51678E-04-7.96889E-16
 -1      1500 1.30959E-03 5.19575E-04-8.42940E-16
 -1      1501 1.74742E-03 6.00362E-04-1.60917E-15
 -1      1502 1.61087E-03 5.87549E-04-1.30725E-15
 -1      1503 1.58626E-03 5.56186E-04-1.35567E-15
 -1      1504 2.02248E-03 6.17999E-04-2.30332E-15
 -1      1505 1.88453E-03 6.10403E-04-1.94133E-15
 -1      1506 1.86330E-03 5.79366E-04-1.99104E-15
 -1      1507 2.30140E-03 6.27167E-04-3.11845E-15
 -1      1508 2.16138E-03 6.23483E-04-2.69596E-15
 -1      1509 2.14257E-03 5.92478E-04-2.74740E-15
 -1      1510 2.58530E-03 6.30118E-04-4.05416E-15
 -1      1511 2.44266E-03 6.29273E-04-3.57129E-15
 -1      1512 2.42543E-03 5.98070E-04-3.62380E-15
 -1      1513 2.87526E-03 6.28850E-04-5.10697E-15
 -1      1514 2.72946E-03 6.29861E-04-4.56631E-15
 -1      1515 2.71296E-03 5.98254E-04-4.61787E-15
 -1      1516 3.17244E-03 6.25350E-04-6.27428E-15
 -1      1517 3.02287E-03 6.27210E-04-5.67665E-15
 -1      1518 3.00625E-03 5.94985E-04-5.72716E-15
 -1      1519 3.47817E-03 6.21872E-04-7.54872E-15
 -1      1520 3.32415E-03 6.23404E-04-6.89833E-15
 -1      1521 3.30639E-03 5.90325E-04-6.94731E-15
 -1      1522 3.79387E-03 6.21250E-04-8.92728E-15
 -1      1523 3.63468E-03 6.20947E-04-8.22548E-15
 -1      1524 3.61461E-03 5.86731E-04-8.27252E-15
 -1      1525 4.12099E-03 6.27275E-04-1.04075E-14
 -1      1526 3.95591E-03 6.23107E-04-9.65417E-15
 -1      1527 3.93213E-03 5.87424E-04-9.70036E-15
 -1      1528 4.46058E-03 6.45085E-04-1.19920E-14
 -1      1529 4.28916E-03 6.34313E-04-1.11869E-14
 -1      1530 4.26006E-03 5.96784E-04-1.12311E-14
 -1      1531 4.81278E-03 6.81402E-04-1.36813E-14
 -1      1532 4.63512E-03 6.60499E-04-1.28240E-14
 -1      1533 4.59902E-03 6.20737E-04-1.28655E-14
 -1      1534 5.17583E-03 7.44204E-04-1.54740E-14
 -1      1535 4.99312E-03 7.09122E-04-1.45648E-14
 -1      1536 4.94865E-03 6.66827E-04-1.46022E-14
 -1      1537 5.54510E-03 8.41068E-04-1.73666E-14
 -1      1538 5.36011E-03 7.88275E-04-1.64084E-14
 -1      1539 5.30688E-03 7.43435E-04-1.64411E-14
 -1      1540 5.91231E-03 9.75212E-04-1.93570E-14
 -1      1541 5.72966E-03 9.03967E-04-1.83502E-14
 -1      1542 5.66921E-03 8.57193E-04-1.83784E-14
 -1      1543 6.26633E-03 1.13909E-03-2.14502E-14
 -1      1544 6.09179E-03 1.05483E-03-2.03897E-14
 -1      1545 6.02839E-03 1.00773E-03-2.04134E-14
 -1      1546 6.59677E-03 1.30845E-03-2.36435E-14
 -1      1547 6.43504E-03 1.22538E-03-2.25336E-14
 -1      1548 6.37552E-03 1.18057E-03-2.25509E-14
 -1      1549 6.90036E-03 1.44403E-03-2.59557E-14
 -1      1550 6.75168E-03 1.38291E-03-2.47849E-14
 -1      1551 6.70369E-03 1.34307E-03-2.47981E-14
 -1      1552 7.18603E-03 1.50706E-03-2.83861E-14
 -1      1553 7.04429E-03 1.48587E-03-2.71556E-14
 -1      1554 7.01347E-03 1.45195E-03-2.71632E-14
 -1      1555 7.47271E-03 1.48201E-03-3.09388E-14
 -1      1556 7.32782E-03 1.50467E-03-2.96478E-14
 -1      1557 7.31558E-03 1.47483E-03-2.96500E-14
 -1      1558 7.77877E-03 1.38712E-03-3.36107E-14
 -1      1559 7.62245E-03 1.44081E-03-3.22606E-14
 -1      1560 7.62560E-03 1.41165E-03-3.22555E-14
 -1      1561 8.11211E-03 1.26232E-03-3.63809E-14
 -1      1562 7.94204E-03 1.32582E-03-3.49823E-14
 -1      1563 7.95424E-03 1.29459E-03-3.49703E-14
 -1      1564 8.46855E-03 1.14605E-03-3.92403E-14
 -1      1565 8.28806E-03 1.20145E-03-3.78014E-14
 -1      1566 8.30200E-03 1.16724E-03-3.77818E-14
 -1      1567 8.83746E-03 1.06095E-03-4.21723E-14
 -1      1568 8.65222E-03 1.09907E-03-4.06975E-14
 -1      1569 8.66201E-03 1.06233E-03-4.06729E-14
 -1      1570 9.20792E-03 1.01327E-03-4.51796E-14
 -1      1571 9.02312E-03 1.03264E-03-4.36671E-14
 -1      1572 9.02546E-03 9.94342E-04-4.36363E-14
 -1      1573 9.57206E-03 9.99145E-04-4.82531E-14
 -1      1574 9.39116E-03 1.00251E-03-4.67083E-14
 -1      1575 9.38520E-03 9.63586E-04-4.66702E-14
 -1      1576 9.92567E-03 1.01090E-03-5.13915E-14
 -1      1577 9.75035E-03 1.00231E-03-4.98146E-14
 -1      1578 9.73683E-03 9.63431E-04-4.97699E-14
 -1      1579 1.02674E-02 1.04079E-03-5.45848E-14
 -1      1580 1.00980E-02 1.02401E-03-5.29807E-14
 -1      1581 1.00784E-02 9.85588E-04-5.29275E-14
 -1      1582 1.05977E-02 1.08246E-03-5.78314E-14
 -1      1583 1.04339E-02 1.06047E-03-5.62025E-14
 -1      1584 1.04098E-02 1.02270E-03-5.61405E-14
 -1      1585 1.09179E-02 1.13127E-03-6.11191E-14
 -1      1586 1.07590E-02 1.10620E-03-5.94683E-14
 -1      1587 1.07317E-02 1.06914E-03-5.94016E-14
 -1      1588 1.12297E-02 1.18401E-03-6.44635E-14
 -1      1589 1.10747E-02 1.15730E-03-6.27852E-14
 -1      1590 1.10454E-02 1.12092E-03-6.27133E-14
 -1      1591 1.15347E-02 1.23859E-03-6.78534E-14
 -1      1592 1.13829E-02 1.21117E-03-6.61532E-14
 -1      1593 1.13523E-02 1.17540E-03-6.60758E-14
 -1      1594 1.18343E-02 1.29369E-03-7.12882E-14
 -1      1595 1.16851E-02 1.26613E-03-6.95649E-14
 -1      1596 1.16537E-02 1.23089E-03-6.94813E-14
 -1      1597 1.21299E-02 1.34852E-03-7.47683E-14
 -1      1598 1.19826E-02 1.32117E-03-7.30231E-14
 -1      1599 1.19508E-02 1.28636E-03-7.29311E-14
 -1      1600 1.24225E-02 1.40265E-03-7.82817E-14
 -1      1601 1.22765E-02 1.37569E-03-7.65214E-14
 -1      1602 1.22447E-02 1.34122E-03-7.64195E-14
 -1      1603 1.27127E-02 1.45588E-03-8.18313E-14
 -1      1604 1.25678E-02 1.42938E-03-8.00517E-14
 -1      1605 1.25360E-02 1.39520E-03-7.99444E-14
 -1      1606 1.30014E-02 1.50816E-03-8.54090E-14
 -1      1607 1.28572E-02 1.48214E-03-8.36167E-14
 -1      1608 1.28255E-02 1.44817E-03-8.35026E-14
 -1      1609 1.32889E-02 1.55952E-03-8.90049E-14
 -1      1610 1.31452E-02 1.53395E-03-8.72046E-14
 -1      1611 1.31137E-02 1.50014E-03-8.70872E-14
 -1      1612 1.35756E-02 1.61003E-03-9.26190E-14
 -1      1613 1.34323E-02 1.58487E-03-9.08098E-14
 -1      1614 1.34010E-02 1.55119E-03-9.06905E-14
 -1      1615 1.38618E-02 1.65981E-03-9.62358E-14
 -1      1616 1.37187E-02 1.63501E-03-9.44280E-14
 -1      1617 1.36876E-02 1.60141E-03-9.43039E-14
 -1      1618 1.41476E-02 1.70898E-03-9.98497E-14
 -1      1619 1.40047E-02 1.68446E-03-9.80447E-14
 -1      1620 1.39737E-02 1.65093E-03-9.79192E-14
 -1      1621 1.44333E-02 1.75765E-03-1.03445E-13
 -1      1622 1.42905E-02 1.73337E-03-1.01650E-13
 -1      1623 1.42596E-02 1.69988E-03-1.01522E-13
 -1      1624 1.47190E-02 1.80595E-03-1.07033E-13
 -1      1625 1.45762E-02 1.78184E-03-1.05239E-13
 -1      1626 1.45454E-02 1.74837E-03-1.05115E-13
 -1      1627 1.50046E-02 1.85400E-03-1.10608E-13
 -1      1628 1.48618E-02 1.83000E-03-1.08823E-13
 -1      1629 1.48311E-02 1.79655E-03-1.08698E-13
 -1      1630 1.52903E-02 1.90193E-03-1.14165E-13
 -1      1631 1.51474E-02 1.87797E-03-1.12389E-13
 -1      1632 1.51168E-02 1.84452E-03-1.12264E-13
 -1      1633 1.54330E-02 1.91600E-03-1.16028E-13
 -1      1634 1.53860E-02 1.81262E-03-1.16323E-13
 -1      1635 1.54096E-02 1.85479E-03-1.16261E-13
 -1      1636 1.53389E-02 1.72827E-03-1.16455E-13
 -1      1637 1.53624E-02 1.77045E-03-1.16390E-13
 -1      1638 1.52505E-02 1.77081E-03-1.14816E-13
 -1      1639 1.52919E-02 1.64390E-03-1.16587E-13
 -1      1640 1.53154E-02 1.68609E-03-1.16519E-13
 -1      1641 1.52034E-02 1.68649E-03-1.14940E-13
 -1      1642 1.52452E-02 1.55956E-03-1.16712E-13
 -1      1643 1.52685E-02 1.60173E-03-1.16652E-13
 -1      1644 1.51565E-02 1.60220E-03-1.15064E-13
 -1      1645 1.51995E-02 1.47669E-03-1.16843E-13
 -1      1646 1.52223E-02 1.51812E-03-1.16774E-13
 -1      1647 1.51102E-02 1.51865E-03-1.15189E-13
 -1      1648 1.51531E-02 1.39244E-03-1.16997E-13
 -1      1649 1.51763E-02 1.43456E-03-1.16920E-13
 -1      1650 1.50642E-02 1.43516E-03-1.15320E-13
 -1      1651 1.51070E-02 1.30823E-03-1.17142E-13
 -1      1652 1.51300E-02 1.35033E-03-1.17071E-13
 -1      1653 1.50179E-02 1.35100E-03-1.15462E-13
 -1      1654 1.50609E-02 1.22404E-03-1.17291E-13
 -1      1655 1.50839E-02 1.26613E-03-1.17216E-13
 -1      1656 1.49717E-02 1.26688E-03-1.15602E-13
 -1      1657 1.50150E-02 1.13985E-03-1.17424E-13
 -1      1658 1.50380E-02 1.18195E-03-1.17361E-13
 -1      1659 1.49257E-02 1.18278E-03-1.15739E-13
 -1      1660 1.49693E-02 1.05563E-03-1.17552E-13
 -1      1661 1.49921E-02 1.09774E-03-1.17488E-13
 -1      1662 1.48799E-02 1.09866E-03-1.15868E-13
 -1      1663 1.49245E-02 9.72789E-04-1.17671E-13
 -1      1664 1.49469E-02 1.01421E-03-1.17613E-13
 -1      1665 1.48346E-02 1.01523E-03-1.15987E-13
 -1      1666 1.48791E-02 8.88477E-04-1.17785E-13
 -1      1667 1.49018E-02 9.30638E-04-1.17730E-13
 -1      1668 1.47894E-02 9.31743E-04-1.16100E-13
 -1      1669 1.48339E-02 8.04132E-04-1.17896E-13
 -1      1670 1.48565E-02 8.46307E-04-1.17842E-13
 -1      1671 1.47441E-02 8.47495E-04-1.16209E-13
 -1      1672 1.47889E-02 7.19779E-04-1.17987E-13
 -1      1673 1.48114E-02 7.61954E-04-1.17946E-13
 -1      1674 1.46989E-02 7.63206E-04-1.16309E-13
 -1      1675 1.47068E-02 6.37157E-04-1.17518E-13
 -1      1676 1.47293E-02 6.79318E-04-1.17475E-13
 -1      1677 1.46167E-02 6.80602E-04-1.15844E-13
 -1      1678 1.44974E-02 5.99718E-04-1.14816E-13
 -1      1679 9.24982E-03 3.91754E-04-3.64126E-14
 -1      1680 9.27638E-03 3.46770E-04-3.65473E-14
 -1      1681 9.09703E-03 5.04905E-04-3.58469E-14
 -1      1682 9.18095E-03 4.53075E-04-3.61007E-14
 -1      1683 8.84263E-03 6.39572E-04-3.51070E-14
 -1      1684 8.97133E-03 5.73973E-04-3.54761E-14
 -1      1685 8.49851E-03 8.08863E-04-3.40966E-14
 -1      1686 8.66744E-03 7.26809E-04-3.45927E-14
 -1      1687 8.12987E-03 9.83113E-04-3.29284E-14
 -1      1688 8.30188E-03 9.05860E-04-3.34627E-14
 -1      1689 7.73234E-03 1.13599E-03-3.16276E-14
 -1      1690 7.91995E-03 1.06878E-03-3.22487E-14
 -1      1691 7.30689E-03 1.23688E-03-3.02044E-14
 -1      1692 7.49468E-03 1.20181E-03-3.08798E-14
 -1      1693 6.91584E-03 1.22869E-03-2.88361E-14
 -1      1694 7.09191E-03 1.24237E-03-2.94372E-14
 -1      1695 6.49806E-03 1.12551E-03-2.74799E-14
 -1      1696 6.69629E-03 1.18686E-03-2.80995E-14
 -1      1697 6.07009E-03 9.51339E-04-2.63120E-14
 -1      1698 6.26207E-03 1.03684E-03-2.68235E-14
 -1      1699 5.61333E-03 7.37312E-04-2.52883E-14
 -1      1700 5.82474E-03 8.42038E-04-2.57551E-14
 -1      1701 5.23173E-03 5.42356E-04-2.45435E-14
 -1      1702 5.39526E-03 6.25949E-04-2.48424E-14
 -1      1703 4.95425E-03 3.92868E-04-2.40898E-14
 -1      1704 5.06925E-03 4.56528E-04-2.42668E-14
 -1      1705 4.78542E-03 2.72933E-04-2.38845E-14
 -1      1706 4.84839E-03 3.25654E-04-2.39489E-14
 -1      1707 4.75429E-03 1.74329E-04-2.39329E-14
 -1      1708 4.75173E-03 2.17758E-04-2.38792E-14
 -1      1709 4.85574E-03 7.24248E-05-2.42285E-14
 -1      1710 4.79236E-03 1.21165E-04-2.40612E-14
 -1      1711 5.07040E-03-4.67935E-05-2.47489E-14
 -1      1712 4.95899E-03 1.07601E-05-2.44828E-14
 -1      1713 5.39349E-03-1.89493E-04-2.54755E-14
 -1      1714 5.23480E-03-1.15548E-04-2.50867E-14
 -1      1715 5.78386E-03-3.55858E-04-2.64450E-14
 -1      1716 5.60532E-03-2.75155E-04-2.59603E-14
 -1      1717 6.15863E-03-5.16351E-04-2.76446E-14
 -1      1718 5.98205E-03-4.49970E-04-2.71065E-14
 -1      1719 6.56585E-03-6.29242E-04-2.89352E-14
 -1      1720 6.38498E-03-5.84138E-04-2.83112E-14
 -1      1721 6.94203E-03-6.55203E-04-3.02868E-14
 -1      1722 6.76883E-03-6.51362E-04-2.96836E-14
 -1      1723 7.33056E-03-6.03307E-04-3.16439E-14
 -1      1724 7.14904E-03-6.38844E-04-3.10176E-14
 -1      1725 7.73404E-03-4.76342E-04-3.29322E-14
 -1      1726 7.54918E-03-5.42205E-04-3.23477E-14
 -1      1727 8.13466E-03-3.06566E-04-3.40951E-14
 -1      1728 7.95002E-03-3.88804E-04-3.35790E-14
 -1      1729 8.52686E-03-1.16692E-04-3.51312E-14
 -1      1730 8.34521E-03-2.03412E-04-3.46895E-14
 -1      1731 8.87161E-03 4.38495E-05-3.58579E-14
 -1      1732 8.72442E-03-2.80715E-05-3.55463E-14
 -1      1733 9.12688E-03 1.83292E-04-3.63719E-14
 -1      1734 9.02008E-03 1.24902E-04-3.61875E-14
 -1      1735 9.26295E-03 2.92398E-04-3.65290E-14
 -1      1736 9.21742E-03 2.45194E-04-3.64991E-14
 -1      1737 8.34631E-03 8.18084E-04-3.41168E-14
 -1      1738 8.71218E-03 6.32949E-04-3.52754E-14
 -1      1739 1.54024E-02 1.88254E-03-1.15905E-13
 -1      1740 1.52669E-02 1.84072E-03-1.14396E-13
 -1      1741 9.21981E-03 3.93158E-04-3.68544E-14
 -1      1742 9.01698E-03 4.91923E-04-3.61681E-14
 -1      1743 9.28024E-03 3.27617E-04-3.71473E-14
 -1      1744 7.96297E-03 1.01384E-03-3.27934E-14
 -1      1745 7.56319E-03 1.18205E-03-3.13575E-14
 -1      1746 7.19931E-03 1.26753E-03-2.98376E-14
 -1      1747 6.83092E-03 1.22975E-03-2.83359E-14
 -1      1748 6.44416E-03 1.08293E-03-2.69521E-14
 -1      1749 6.00926E-03 8.64971E-04-2.57522E-14
 -1      1750 5.56356E-03 6.32672E-04-2.47634E-14
 -1      1751 5.18253E-03 4.43056E-04-2.40528E-14
 -1      1752 4.90641E-03 3.14807E-04-2.36428E-14
 -1      1753 4.76091E-03 2.29531E-04-2.34991E-14
 -1      1754 4.76617E-03 1.61813E-04-2.36191E-14
 -1      1755 4.91366E-03 8.11057E-05-2.39938E-14
 -1      1756 5.18558E-03-3.16079E-05-2.45744E-14
 -1      1757 5.55338E-03-1.86636E-04-2.53817E-14
 -1      1758 5.94037E-03-3.78269E-04-2.65109E-14
 -1      1759 6.32863E-03-5.54244E-04-2.78290E-14
 -1      1760 6.68205E-03-6.62844E-04-2.92359E-14
 -1      1761 7.03526E-03-6.72285E-04-3.07140E-14
 -1      1762 7.39250E-03-5.84993E-04-3.21526E-14
 -1      1763 7.77849E-03-4.19862E-04-3.35111E-14
 -1      1764 8.17832E-03-2.14487E-04-3.47627E-14
 -1      1765 8.57613E-03-1.73366E-05-3.57826E-14
 -1      1766 8.92478E-03 1.41081E-04-3.65349E-14
 -1      1767 9.17246E-03 2.52010E-04-3.69986E-14
 -1      1768 2.84609E-04-1.74211E-04-6.27346E-17
 -1      1769 3.32786E-04-1.13344E-04-1.81523E-16
 -1      1770 3.36896E-04-1.29634E-04-1.71927E-16
 -1      1771 3.42664E-04-1.48705E-04-1.59689E-16
 -1      1772 3.51970E-04-1.70814E-04-1.42261E-16
 -1      1773 4.59080E-04-1.83349E-04-2.48906E-16
 -1      1774 3.24833E-04-6.24411E-05-1.99940E-16
 -1      1775 3.26103E-04-7.35007E-05-1.97420E-16
 -1      1776 3.23083E-04-4.16294E-05-2.02244E-16
 -1      1777 3.23863E-04-5.17438E-05-2.01418E-16
 -1      1778 4.36645E-04-7.55251E-05-2.95323E-16
 -1      1779 3.22091E-04-2.24291E-05-2.01960E-16
 -1      1780 3.22515E-04-3.18585E-05-2.02502E-16
 -1      1781 4.34258E-04-4.85717E-05-2.97559E-16
 -1      1782 3.21701E-04-4.05882E-06-1.99724E-16
 -1      1783 3.21829E-04-1.31668E-05-2.01025E-16
 -1      1784 4.32956E-04-2.34728E-05-2.96502E-16
 -1      1785 3.21864E-04 1.41606E-05-1.94912E-16
 -1      1786 3.21712E-04 5.04489E-06-1.97664E-16
 -1      1787 4.32562E-04 7.61352E-07-2.92084E-16
 -1      1788 3.22599E-04 3.28953E-05-1.88516E-16
 -1      1789 3.22149E-04 2.34394E-05-1.92066E-16
 -1      1790 4.33030E-04 2.50173E-05-2.85010E-16
 -1      1791 3.23979E-04 5.25220E-05-1.79761E-16
 -1      1792 3.23185E-04 4.25363E-05-1.84707E-16
 -1      1793 4.34402E-04 4.99693E-05-2.75292E-16
 -1      1794 3.26305E-04 7.46169E-05-1.67713E-16
 -1      1795 3.24979E-04 6.32770E-05-1.74448E-16
 -1      1796 4.36864E-04 7.68086E-05-2.62119E-16
 -1      1797 3.30175E-04 1.00204E-04-1.50663E-16
 -1      1798 3.27957E-04 8.69405E-05-1.60218E-16
 -1      1799 4.40921E-04 1.07082E-04-2.43837E-16
 -1      1800 3.37178E-04 1.31690E-04-1.25429E-16
 -1      1801 3.33051E-04 1.15146E-04-1.39564E-16
 -1      1802 4.47643E-04 1.42533E-04-2.17925E-16
 -1      1803 3.52493E-04 1.74369E-04-8.79830E-17
 -1      1804 3.43266E-04 1.51420E-04-1.08922E-16
 -1      1805 4.60082E-04 1.86656E-04-1.80642E-16
 -1      1806 4.07239E-04 2.30213E-04-6.11083E-17
 -1      1807 3.78045E-04 1.99298E-04-7.85098E-17
 -1      1808 4.96149E-04 2.39115E-04-1.46747E-16
 -1      1809 5.58064E-04 2.97292E-04-1.18937E-16
 -1      1810 3.39805E-04-1.88101E-04-1.05899E-16
 -1      1811 8.53411E-04 3.97970E-04-3.28202E-16
 -1      1812 7.06774E-04 3.52272E-04-2.08587E-16
 -1      1813 6.73521E-04 3.21892E-04-2.26219E-16
 -1      1814 4.59013E-04-2.32462E-04-1.85006E-16
 -1      1815 8.07572E-04-3.65512E-04-4.85967E-16
 -1      1816 9.53234E-04-4.04587E-04-6.74591E-16
 -1      1817 1.09663E-03-4.37015E-04-8.96378E-16
 -1      1818 1.23904E-03-4.63495E-04-1.15206E-15
 -1      1819 1.00553E-03-3.86015E-04-8.21242E-16
 -1      1820 1.38039E-03-4.85390E-04-1.44013E-15
 -1      1821 1.52127E-03-5.03003E-04-1.76097E-15
 -1      1822 1.29262E-03-4.39091E-04-1.33719E-15
 -1      1823 1.66189E-03-5.17238E-04-2.11418E-15
 -1      1824 1.80251E-03-5.28350E-04-2.49936E-15
 -1      1825 1.57719E-03-4.74431E-04-1.98236E-15
 -1      1826 1.94333E-03-5.36945E-04-2.91610E-15
 -1      1827 2.08450E-03-5.43253E-04-3.36399E-15
 -1      1828 1.86095E-03-4.96631E-04-2.75446E-15
 -1      1829 2.22619E-03-5.47712E-04-3.84321E-15
 -1      1830 2.36848E-03-5.50540E-04-4.35243E-15
 -1      1831 2.14526E-03-5.09100E-04-3.65111E-15
 -1      1832 2.51150E-03-5.52084E-04-4.89139E-15
 -1      1833 2.65533E-03-5.52558E-04-5.45970E-15
 -1      1834 2.43112E-03-5.14508E-04-4.66838E-15
 -1      1835 2.80006E-03-5.52270E-04-6.05775E-15
 -1      1836 2.94575E-03-5.51439E-04-6.68346E-15
 -1      1837 2.71932E-03-5.15121E-04-5.80318E-15
 -1      1838 3.09247E-03-5.50375E-04-7.33688E-15
 -1      1839 3.24028E-03-5.49314E-04-8.01704E-15
 -1      1840 3.01049E-03-5.13040E-04-7.05177E-15
 -1      1841 3.38923E-03-5.48598E-04-8.72365E-15
 -1      1842 3.53936E-03-5.48491E-04-9.45617E-15
 -1      1843 3.30517E-03-5.10408E-04-8.40819E-15
 -1      1844 3.69071E-03-5.49389E-04-1.02140E-14
 -1      1845 3.84325E-03-5.51589E-04-1.09972E-14
 -1      1846 3.60383E-03-5.09582E-04-9.86966E-15
 -1      1847 3.99705E-03-5.55545E-04-1.18042E-14
 -1      1848 4.15197E-03-5.61582E-04-1.26360E-14
 -1      1849 3.90684E-03-5.13258E-04-1.14309E-14
 -1      1850 4.30810E-03-5.70181E-04-1.34926E-14
 -1      1851 4.46513E-03-5.81664E-04-1.43725E-14
 -1      1852 4.21442E-03-5.24498E-04-1.30903E-14
 -1      1853 4.62323E-03-5.96462E-04-1.52759E-14
 -1      1854 4.78185E-03-6.14818E-04-1.62029E-14
 -1      1855 4.52655E-03-5.46562E-04-1.48468E-14
 -1      1856 4.94120E-03-6.36966E-04-1.71539E-14
 -1      1857 5.10049E-03-6.62937E-04-1.81269E-14
 -1      1858 4.84275E-03-5.82430E-04-1.66967E-14
 -1      1859 5.25996E-03-6.92552E-04-1.91221E-14
 -1      1860 5.41864E-03-7.25440E-04-2.01417E-14
 -1      1861 5.16185E-03-6.33825E-04-1.86385E-14
 -1      1862 5.57671E-03-7.60790E-04-2.11857E-14
 -1      1863 5.73322E-03-7.97622E-04-2.22518E-14
 -1      1864 5.48173E-03-6.99709E-04-2.06726E-14
 -1      1865 5.88823E-03-8.34391E-04-2.33422E-14
 -1      1866 6.04118E-03-8.69462E-04-2.44564E-14
 -1      1867 5.79928E-03-7.74460E-04-2.28022E-14
 -1      1868 6.19191E-03-9.00729E-04-2.55949E-14
 -1      1869 6.34069E-03-9.26225E-04-2.67566E-14
 -1      1870 6.11109E-03-8.46635E-04-2.50265E-14
 -1      1871 6.48718E-03-9.43862E-04-2.79426E-14
 -1      1872 6.63259E-03-9.51985E-04-2.91543E-14
 -1      1873 6.41504E-03-8.99951E-04-2.73476E-14
 -1      1874 6.77650E-03-9.49339E-04-3.03885E-14
 -1      1875 6.92080E-03-9.35360E-04-3.16446E-14
 -1      1876 6.71214E-03-9.17711E-04-2.97655E-14
 -1      1877 7.06503E-03-9.10181E-04-3.29233E-14
 -1      1878 7.21100E-03-8.74600E-04-3.42227E-14
 -1      1879 7.00687E-03-8.89581E-04-3.22769E-14
 -1      1880 7.35828E-03-8.30083E-04-3.55429E-14
 -1      1881 7.50795E-03-7.78395E-04-3.68840E-14
 -1      1882 7.30509E-03-8.16668E-04-3.48747E-14
 -1      1883 7.65969E-03-7.21676E-04-3.82451E-14
 -1      1884 7.81360E-03-6.61887E-04-3.96245E-14
 -1      1885 7.61076E-03-7.10927E-04-3.75550E-14
 -1      1886 7.96956E-03-6.01057E-04-4.10235E-14
 -1      1887 8.12692E-03-5.40709E-04-4.24411E-14
 -1      1888 7.92424E-03-5.89442E-04-4.03151E-14
 -1      1889 8.28577E-03-4.82255E-04-4.38767E-14
 -1      1890 8.44514E-03-4.26560E-04-4.53318E-14
 -1      1891 8.24306E-03-4.67831E-04-4.31497E-14
 -1      1892 8.60523E-03-3.74305E-04-4.68041E-14
 -1      1893 8.76512E-03-3.25782E-04-4.82928E-14
 -1      1894 8.56380E-03-3.56455E-04-4.60585E-14
 -1      1895 8.92505E-03-2.81081E-04-4.97974E-14
 -1      1896 9.08429E-03-2.40135E-04-5.13160E-14
 -1      1897 8.88358E-03-2.60000E-04-4.90353E-14
 -1      1898 9.24304E-03-2.02674E-04-5.28497E-14
 -1      1899 9.40084E-03-1.68453E-04-5.43999E-14
 -1      1900 9.20052E-03-1.78933E-04-5.20717E-14
 -1      1901 9.55783E-03-1.37050E-04-5.59653E-14
 -1      1902 9.71376E-03-1.08167E-04-5.75415E-14
 -1      1903 9.51369E-03-1.11334E-04-5.51688E-14
 -1      1904 9.86871E-03-8.13620E-05-5.91333E-14
 -1      1905 1.00226E-02-5.63546E-05-6.07393E-14
 -1      1906 9.82278E-03-5.43217E-05-5.83239E-14
 -1      1907 1.01755E-02-3.27588E-05-6.23569E-14
 -1      1908 1.03275E-02-1.03368E-05-6.39872E-14
 -1      1909 1.01279E-02-4.93910E-06-6.15323E-14
 -1      1910 1.04784E-02 1.12130E-05-6.56315E-14
 -1      1911 1.06285E-02 3.20781E-05-6.72876E-14
 -1      1912 1.04294E-02 3.93915E-05-6.47922E-14
 -1      1913 1.07778E-02 5.24752E-05-6.89532E-14
 -1      1914 1.09263E-02 7.25447E-05-7.06289E-14
 -1      1915 1.07276E-02 8.07123E-05-6.81034E-14
 -1      1916 1.10741E-02 9.24304E-05-7.23134E-14
 -1      1917 1.12213E-02 1.12233E-04-7.40080E-14
 -1      1918 1.10231E-02 1.20529E-04-7.14537E-14
 -1      1919 1.13678E-02 1.32038E-04-7.57100E-14
 -1      1920 1.15139E-02 1.51916E-04-7.74199E-14
 -1      1921 1.13163E-02 1.59882E-04-7.48410E-14
 -1      1922 1.16595E-02 1.71911E-04-7.91389E-14
 -1      1923 1.18046E-02 1.92067E-04-8.08644E-14
 -1      1924 1.16076E-02 1.99444E-04-7.82615E-14
 -1      1925 1.19494E-02 2.12401E-04-8.26013E-14
 -1      1926 1.20939E-02 2.32939E-04-8.43469E-14
 -1      1927 1.18974E-02 2.39609E-04-8.17146E-14
 -1      1928 1.22381E-02 2.53679E-04-8.61000E-14
 -1      1929 1.23821E-02 2.74635E-04-8.78632E-14
 -1      1930 1.21860E-02 2.80575E-04-8.52043E-14
 -1      1931 1.25259E-02 2.95795E-04-8.96352E-14
 -1      1932 1.26695E-02 3.17162E-04-9.14173E-14
 -1      1933 1.24738E-02 3.22407E-04-8.87282E-14
 -1      1934 1.28129E-02 3.38718E-04-9.32065E-14
 -1      1935 1.29562E-02 3.60462E-04-9.49999E-14
 -1      1936 1.27609E-02 3.65083E-04-9.22871E-14
 -1      1937 1.30994E-02 3.82372E-04-9.68066E-14
 -1      1938 1.32426E-02 4.04445E-04-9.86203E-14
 -1      1939 1.30475E-02 4.08531E-04-9.58790E-14
 -1      1940 1.33856E-02 4.26658E-04-1.00439E-13
 -1      1941 1.35286E-02 4.49004E-04-1.02267E-13
 -1      1942 1.33337E-02 4.52650E-04-9.95034E-14
 -1      1943 1.36716E-02 4.71462E-04-1.04100E-13
 -1      1944 1.38145E-02 4.94025E-04-1.05939E-13
 -1      1945 1.36198E-02 4.97325E-04-1.03153E-13
 -1      1946 1.39574E-02 5.16671E-04-1.07784E-13
 -1      1947 1.41003E-02 5.39390E-04-1.09633E-13
 -1      1948 1.39057E-02 5.42440E-04-1.06831E-13
 -1      1949 1.42274E-02 5.58119E-04-1.11292E-13
 -1      1950 1.43703E-02 5.80932E-04-1.13148E-13
 -1      1951 1.44299E-02 6.21360E-04-1.13661E-13
 -1      1952 1.41757E-02 5.83833E-04-1.10335E-13
 -1      1953 1.13945E-03 4.66366E-04-6.57542E-16
 -1      1954 9.97095E-04 4.35482E-04-4.77361E-16
 -1      1955 9.65286E-04 4.06222E-04-4.97757E-16
 -1      1956 1.42042E-03 5.12535E-04-1.10967E-15
 -1      1957 1.28022E-03 4.91838E-04-8.68175E-16
 -1      1958 1.25113E-03 4.63888E-04-8.89629E-16
 -1      1959 1.69978E-03 5.42659E-04-1.68348E-15
 -1      1960 1.56010E-03 5.29357E-04-1.38140E-15
 -1      1961 1.53365E-03 5.02346E-04-1.40305E-15
 -1      1962 1.97984E-03 5.60843E-04-2.37881E-15
 -1      1963 1.83960E-03 5.53066E-04-2.01613E-15
 -1      1964 1.81532E-03 5.26645E-04-2.03761E-15
 -1      1965 2.26217E-03 5.70058E-04-3.19424E-15
 -1      1966 2.12064E-03 5.66430E-04-2.77155E-15
 -1      1967 2.09791E-03 5.40329E-04-2.79208E-15
 -1      1968 2.54793E-03 5.72636E-04-4.12725E-15
 -1      1969 2.40455E-03 5.72052E-04-3.64614E-15
 -1      1970 2.38274E-03 5.46058E-04-3.66516E-15
 -1      1971 2.83818E-03 5.70593E-04-5.17728E-15
 -1      1972 2.69242E-03 5.72071E-04-4.63795E-15
 -1      1973 2.67083E-03 5.45996E-04-4.65448E-15
 -1      1974 3.13390E-03 5.65888E-04-6.33933E-15
 -1      1975 2.98527E-03 5.68440E-04-5.74425E-15
 -1      1976 2.96313E-03 5.42099E-04-5.75808E-15
 -1      1977 3.43614E-03 5.60704E-04-7.60866E-15
 -1      1978 3.28411E-03 5.63196E-04-6.96109E-15
 -1      1979 3.26055E-03 5.36376E-04-6.97193E-15
 -1      1980 3.74600E-03 5.57768E-04-8.98322E-15
 -1      1981 3.59002E-03 5.58749E-04-8.28333E-15
 -1      1982 3.56403E-03 5.31186E-04-8.29119E-15
 -1      1983 4.06455E-03 5.60743E-04-1.04591E-14
 -1      1984 3.90409E-03 5.58247E-04-9.70786E-15
 -1      1985 3.87457E-03 5.29592E-04-9.71299E-15
 -1      1986 4.39271E-03 5.74639E-04-1.20381E-14
 -1      1987 4.22735E-03 5.65976E-04-1.12360E-14
 -1      1988 4.19315E-03 5.35762E-04-1.12373E-14
 -1      1989 4.73092E-03 6.06133E-04-1.37192E-14
 -1      1990 4.56055E-03 5.87761E-04-1.28661E-14
 -1      1991 4.52065E-03 5.55381E-04-1.28644E-14
 -1      1992 5.07880E-03 6.63412E-04-1.55031E-14
 -1      1993 4.90379E-03 6.31105E-04-1.45985E-14
 -1      1994 4.85772E-03 5.95854E-04-1.45919E-14
 -1      1995 5.43447E-03 7.54822E-04-1.73851E-14
 -1      1996 5.25603E-03 7.04544E-04-1.64318E-14
 -1      1997 5.20436E-03 6.65822E-04-1.64204E-14
 -1      1998 5.79391E-03 8.85308E-04-1.93640E-14
 -1      1999 5.61439E-03 8.15349E-04-1.83625E-14
 -1      2000 5.55934E-03 7.73150E-04-1.83448E-14
 -1      2001 6.15044E-03 1.04989E-03-2.14453E-14
 -1      2002 5.97341E-03 9.64407E-04-2.03919E-14
 -1      2003 5.91898E-03 9.20145E-04-2.03678E-14
 -1      2004 6.49588E-03 1.22639E-03-2.36288E-14
 -1      2005 6.32525E-03 1.13888E-03-2.25237E-14
 -1      2006 6.27631E-03 1.09589E-03-2.24932E-14
 -1      2007 6.82464E-03 1.37428E-03-2.59288E-14
 -1      2008 6.66223E-03 1.30665E-03-2.47646E-14
 -1      2009 6.62252E-03 1.26923E-03-2.47278E-14
 -1      2010 7.13997E-03 1.44929E-03-2.83469E-14
 -1      2011 6.98279E-03 1.42260E-03-2.71222E-14
 -1      2012 6.95321E-03 1.39301E-03-2.70783E-14
 -1      2013 7.45449E-03 1.43003E-03-3.08849E-14
 -1      2014 7.29569E-03 1.45069E-03-2.96008E-14
 -1      2015 7.27510E-03 1.42689E-03-2.95490E-14
 -1      2016 7.78164E-03 1.33374E-03-3.35414E-14
 -1      2017 7.61558E-03 1.38892E-03-3.21988E-14
 -1      2018 7.60276E-03 1.36629E-03-3.21393E-14
 -1      2019 8.12584E-03 1.20373E-03-3.62968E-14
 -1      2020 7.95176E-03 1.27023E-03-3.49064E-14
 -1      2021 7.94580E-03 1.24528E-03-3.48401E-14
 -1      2022 8.48217E-03 1.08201E-03-3.91446E-14
 -1      2023 8.30319E-03 1.14021E-03-3.77114E-14
 -1      2024 8.30191E-03 1.11234E-03-3.76386E-14
 -1      2025 8.84252E-03 9.92965E-04-4.20654E-14
 -1      2026 8.66259E-03 1.03296E-03-4.05964E-14
 -1      2027 8.66249E-03 1.00301E-03-4.05184E-14
 -1      2028 9.20006E-03 9.43089E-04-4.50591E-14
 -1      2029 9.02220E-03 9.63399E-04-4.35537E-14
 -1      2030 9.01989E-03 9.32323E-04-4.34698E-14
 -1      2031 9.55054E-03 9.28194E-04-4.81201E-14
 -1      2032 9.37651E-03 9.31788E-04-4.65819E-14
 -1      2033 9.36982E-03 9.00226E-04-4.64909E-14
 -1      2034 9.89199E-03 9.40141E-04-5.12428E-14
 -1      2035 9.72253E-03 9.31320E-04-4.96734E-14
 -1      2036 9.71070E-03 8.99640E-04-4.95775E-14
 -1      2037 1.02240E-02 9.70783E-04-5.44186E-14
 -1      2038 1.00592E-02 9.53531E-04-5.28238E-14
 -1      2039 1.00424E-02 9.21945E-04-5.27201E-14
 -1      2040 1.05471E-02 1.01348E-03-5.76535E-14
 -1      2041 1.03866E-02 9.90916E-04-5.60299E-14
 -1      2042 1.03657E-02 9.59559E-04-5.59189E-14
 -1      2043 1.08622E-02 1.06339E-03-6.09315E-14
 -1      2044 1.07055E-02 1.03773E-03-5.92868E-14
 -1      2045 1.06814E-02 1.00668E-03-5.91694E-14
 -1      2046 1.11706E-02 1.11720E-03-6.42658E-14
 -1      2047 1.10172E-02 1.08993E-03-6.25926E-14
 -1      2048 1.09906E-02 1.05922E-03-6.24709E-14
 -1      2049 1.14735E-02 1.17273E-03-6.76416E-14
 -1      2050 1.13227E-02 1.14482E-03-6.59476E-14
 -1      2051 1.12944E-02 1.11445E-03-6.58197E-14
 -1      2052 1.17720E-02 1.22865E-03-7.10636E-14
 -1      2053 1.16232E-02 1.20068E-03-6.93471E-14
 -1      2054 1.15938E-02 1.17062E-03-6.92116E-14
 -1      2055 1.20670E-02 1.28416E-03-7.45258E-14
 -1      2056 1.19199E-02 1.25648E-03-7.27901E-14
 -1      2057 1.18897E-02 1.22670E-03-7.26490E-14
 -1      2058 1.23594E-02 1.33886E-03-7.80270E-14
 -1      2059 1.22135E-02 1.31162E-03-7.62721E-14
 -1      2060 1.21828E-02 1.28209E-03-7.61235E-14
 -1      2061 1.26497E-02 1.39254E-03-8.15635E-14
 -1      2062 1.25047E-02 1.36582E-03-7.97900E-14
 -1      2063 1.24738E-02 1.33649E-03-7.96373E-14
 -1      2064 1.29385E-02 1.44516E-03-8.51314E-14
 -1      2065 1.27943E-02 1.41898E-03-8.33436E-14
 -1      2066 1.27633E-02 1.38981E-03-8.31855E-14
 -1      2067 1.32263E-02 1.49679E-03-8.87230E-14
 -1      2068 1.30825E-02 1.47110E-03-8.69242E-14
 -1      2069 1.30515E-02 1.44206E-03-8.67620E-14
 -1      2070 1.35133E-02 1.54751E-03-9.23303E-14
 -1      2071 1.33698E-02 1.52225E-03-9.05248E-14
 -1      2072 1.33388E-02 1.49333E-03-9.03577E-14
 -1      2073 1.37997E-02 1.59744E-03-9.59426E-14
 -1      2074 1.36565E-02 1.57256E-03-9.41371E-14
 -1      2075 1.36256E-02 1.54372E-03-9.39695E-14
 -1      2076 1.40858E-02 1.64671E-03-9.95503E-14
 -1      2077 1.39428E-02 1.62215E-03-9.77478E-14
 -1      2078 1.39119E-02 1.59336E-03-9.75781E-14
 -1      2079 1.43717E-02 1.69545E-03-1.03148E-13
 -1      2080 1.42288E-02 1.67114E-03-1.01350E-13
 -1      2081 1.41980E-02 1.64240E-03-1.01179E-13
 -1      2082 1.46575E-02 1.74379E-03-1.06738E-13
 -1      2083 1.45146E-02 1.71967E-03-1.04945E-13
 -1      2084 1.44838E-02 1.69095E-03-1.04773E-13
 -1      2085 1.49432E-02 1.79186E-03-1.10314E-13
 -1      2086 1.48004E-02 1.76785E-03-1.08529E-13
 -1      2087 1.47696E-02 1.73916E-03-1.08359E-13
 -1      2088 1.51765E-02 1.82828E-03-1.13247E-13
 -1      2089 1.50336E-02 1.80432E-03-1.11468E-13
 -1      2090 1.50029E-02 1.77563E-03-1.11300E-13
 -1      2091 1.51837E-02 1.80053E-03-1.13603E-13
 -1      2092 1.50211E-02 1.56051E-03-1.13546E-13
 -1      2093 1.50445E-02 1.60262E-03-1.13486E-13
 -1      2094 1.50679E-02 1.64474E-03-1.13423E-13
 -1      2095 1.50914E-02 1.68687E-03-1.13365E-13
 -1      2096 1.49325E-02 1.60299E-03-1.11905E-13
 -1      2097 1.51258E-02 1.72262E-03-1.13514E-13
 -1      2098 1.51493E-02 1.76477E-03-1.13453E-13
 -1      2099 1.50589E-02 1.75233E-03-1.12300E-13
 -1      2100 1.49903E-02 1.68083E-03-1.11997E-13
 -1      2101 1.49753E-02 1.47776E-03-1.13664E-13
 -1      2102 1.49982E-02 1.51913E-03-1.13603E-13
 -1      2103 1.48861E-02 1.51955E-03-1.12021E-13
 -1      2104 1.49289E-02 1.39365E-03-1.13794E-13
 -1      2105 1.49521E-02 1.43570E-03-1.13727E-13
 -1      2106 1.48400E-02 1.43618E-03-1.12136E-13
 -1      2107 1.48826E-02 1.30960E-03-1.13926E-13
 -1      2108 1.49057E-02 1.35162E-03-1.13860E-13
 -1      2109 1.47936E-02 1.35217E-03-1.12259E-13
 -1      2110 1.48366E-02 1.22558E-03-1.14059E-13
 -1      2111 1.48596E-02 1.26759E-03-1.13993E-13
 -1      2112 1.47474E-02 1.26823E-03-1.12384E-13
 -1      2113 1.47906E-02 1.14157E-03-1.14189E-13
 -1      2114 1.48136E-02 1.18357E-03-1.14125E-13
 -1      2115 1.47014E-02 1.18432E-03-1.12511E-13
 -1      2116 1.47448E-02 1.05754E-03-1.14310E-13
 -1      2117 1.47677E-02 1.09956E-03-1.14252E-13
 -1      2118 1.46555E-02 1.10041E-03-1.12632E-13
 -1      2119 1.46999E-02 9.74887E-04-1.14424E-13
 -1      2120 1.47223E-02 1.01622E-03-1.14367E-13
 -1      2121 1.46100E-02 1.01718E-03-1.12748E-13
 -1      2122 1.46543E-02 8.90754E-04-1.14530E-13
 -1      2123 1.46771E-02 9.32828E-04-1.14478E-13
 -1      2124 1.45648E-02 9.33894E-04-1.12854E-13
 -1      2125 1.46091E-02 8.06558E-04-1.14633E-13
 -1      2126 1.46317E-02 8.48662E-04-1.14582E-13
 -1      2127 1.45193E-02 8.49819E-04-1.12955E-13
 -1      2128 1.45640E-02 7.22309E-04-1.14722E-13
 -1      2129 1.45865E-02 7.64438E-04-1.14678E-13
 -1      2130 1.44740E-02 7.65665E-04-1.13049E-13
 -1      2131 8.93936E-03 4.86156E-04-3.65575E-14
 -1      2132 9.06684E-03 4.37698E-04-3.69342E-14
 -1      2133 9.28770E-03 3.40540E-04-3.77771E-14
 -1      2134 9.27310E-03 3.22802E-04-3.77565E-14
 -1      2135 9.17636E-03 3.95016E-04-3.72749E-14
 -1      2136 9.24951E-03 3.67843E-04-3.75880E-14
 -1      2137 8.59798E-03 6.39325E-04-3.55057E-14
 -1      2138 8.76807E-03 5.60122E-04-3.60282E-14
 -1      2139 8.20882E-03 8.45681E-04-3.41581E-14
 -1      2140 8.38940E-03 7.45690E-04-3.48009E-14
 -1      2141 3.27683E-04-8.56354E-05-1.93747E-16
 -1      2142 3.29839E-04-9.87210E-05-1.88299E-16
 -1      2143 4.47097E-04-1.40360E-04-2.74046E-16
 -1      2144 4.40543E-04-1.05496E-04-2.88208E-16
 -1      2145 7.47824E-03 1.21760E-03-3.12397E-14
 -1      2146 7.64885E-03 1.14117E-03-3.19962E-14
 -1      2147 7.10397E-03 1.28829E-03-2.93768E-14
 -1      2148 7.25708E-03 1.27793E-03-3.01436E-14
 -1      2149 6.78123E-03 1.22008E-03-2.78620E-14
 -1      2150 6.93830E-03 1.26919E-03-2.85938E-14
 -1      2151 6.38987E-03 1.02778E-03-2.63635E-14
 -1      2152 6.57155E-03 1.12857E-03-2.70086E-14
 -1      2153 5.94675E-03 7.78134E-04-2.51629E-14
 -1      2154 6.15667E-03 8.99877E-04-2.57056E-14
 -1      2155 5.51428E-03 5.30306E-04-2.40667E-14
 -1      2156 5.72005E-03 6.39449E-04-2.44987E-14
 -1      2157 5.12820E-03 3.63366E-04-2.34856E-14
 -1      2158 5.29160E-03 4.33345E-04-2.37530E-14
 -1      2159 4.86154E-03 2.59079E-04-2.30868E-14
 -1      2160 4.97080E-03 2.97343E-04-2.32222E-14
 -1      2161 4.74171E-03 2.05493E-04-2.30561E-14
 -1      2162 4.77786E-03 2.26136E-04-2.30617E-14
 -1      2163 4.78452E-03 1.61123E-04-2.31894E-14
 -1      2164 4.74433E-03 1.80247E-04-2.30669E-14
 -1      2165 4.97480E-03 9.12031E-05-2.36484E-14
 -1      2166 4.86886E-03 1.27259E-04-2.34042E-14
 -1      2167 5.27571E-03-2.06326E-05-2.42593E-14
 -1      2168 5.11840E-03 3.93162E-05-2.39351E-14
 -1      2169 5.66584E-03-2.00596E-04-2.52443E-14
 -1      2170 5.47626E-03-1.10445E-04-2.47740E-14
 -1      2171 6.08487E-03-4.23473E-04-2.66263E-14
 -1      2172 5.90850E-03-3.24739E-04-2.59761E-14
 -1      2173 6.43114E-03-5.90885E-04-2.79310E-14
 -1      2174 6.26294E-03-5.11858E-04-2.72741E-14
 -1      2175 6.19269E-03-4.68451E-04-2.67270E-14
 -1      2176 6.79409E-03-6.97488E-04-2.96613E-14
 -1      2177 6.64756E-03-6.66520E-04-2.89154E-14
 -1      2178 7.08472E-03-6.82023E-04-3.11163E-14
 -1      2179 6.94123E-03-7.01563E-04-3.03845E-14
 -1      2180 6.86893E-03-7.11528E-04-3.00547E-14
 -1      2181 7.44726E-03-5.53481E-04-3.27127E-14
 -1      2182 7.28338E-03-6.24348E-04-3.20030E-14
 -1      2183 7.81986E-03-3.58718E-04-3.41364E-14
 -1      2184 7.64138E-03-4.58385E-04-3.34808E-14
 -1      2185 8.21280E-03-1.31303E-04-3.55263E-14
 -1      2186 8.02214E-03-2.39621E-04-3.49222E-14
 -1      2187 8.63858E-03 7.08213E-05-3.65398E-14
 -1      2188 8.45074E-03-1.49410E-05-3.61163E-14
 -1      2189 8.97258E-03 2.13458E-04-3.73672E-14
 -1      2190 8.82137E-03 1.54836E-04-3.70302E-14
 -1      2191 9.21436E-03 2.95963E-04-3.77504E-14
 -1      2192 9.12130E-03 2.66412E-04-3.76188E-14
 -1      2193 7.83448E-03 1.05310E-03-3.26977E-14
 -1      2194 8.00977E-03 9.56119E-04-3.33857E-14
 -1      2195 8.47986E-03 6.78654E-04-3.55466E-14
 -1      2196 6.08065E-04-2.92074E-04-2.97234E-16
 -1      2197 8.08976E-03 8.93964E-04-3.40595E-14
 -1      2198 7.73059E-03 1.09573E-03-3.25778E-14
 -1      2199 6.64364E-04-2.85361E-04-3.94663E-16
 -1      2200 9.12408E-03 4.05001E-04-3.76653E-14
 -1      2201 9.28215E-03 3.52176E-04-3.81967E-14
 -1      2202 9.29852E-03 3.47952E-04-3.88069E-14
 -1      2203 9.26285E-03 3.60374E-04-3.86176E-14
 -1      2204 1.45042E-02 6.81873E-04-1.14213E-13
 -1      2205 8.84883E-03 5.06834E-04-3.67888E-14
 -1      2206 9.25047E-03 3.20470E-04-3.83788E-14
 -1      2207 9.04690E-03 2.61668E-04-3.81166E-14
 -1      2208 8.71867E-03 1.40712E-04-3.73655E-14
 -1      2209 8.31061E-03-5.27929E-05-3.62755E-14
 -1      2210 7.89437E-03-2.87491E-04-3.48880E-14
 -1      2211 7.16585E-03-6.63121E-04-3.16641E-14
 -1      2212 6.55124E-03-6.39518E-04-2.83462E-14
 -1      2213 5.80185E-03-2.54899E-04-2.53549E-14
 -1      2214 5.69540E-03-1.94666E-04-2.47437E-14
 -1      2215 5.91443E-03-3.12821E-04-2.54640E-14
 -1      2216 5.37371E-03-4.68431E-05-2.41252E-14
 -1      2217 5.04395E-03 8.23088E-05-2.33391E-14
 -1      2218 4.81958E-03 1.52557E-04-2.28471E-14
 -1      2219 4.73370E-03 1.88533E-04-2.26272E-14
 -1      2220 4.81443E-03 2.26871E-04-2.26413E-14
 -1      2221 5.05231E-03 3.04569E-04-2.29233E-14
 -1      2222 5.42372E-03 4.57587E-04-2.34904E-14
 -1      2223 5.85203E-03 6.85974E-04-2.44493E-14
 -1      2224 6.29253E-03 9.54929E-04-2.57585E-14
 -1      2225 6.69245E-03 1.18085E-03-2.72568E-14
 -1      2226 7.36807E-03 1.26001E-03-3.07664E-14
 -1      2227 7.46870E-03 1.22828E-03-3.13956E-14
 -1      2228 7.28099E-03 1.28873E-03-3.02945E-14
 -1      2229 7.02438E-03 1.29062E-03-2.88907E-14
 -1      2230 7.52222E-03-5.04903E-04-3.33259E-14
 -1      2231 1.01829E-03 3.87425E-04-6.37294E-16
 -1      2232 8.73327E-04 3.53336E-04-4.65462E-16
 -1      2233 5.47100E-04-5.22037E-05-4.21185E-16
 -1      2234 5.48387E-04-6.81724E-05-4.20806E-16
 -1      2235 5.50095E-04-8.48359E-05-4.19424E-16
 -1      2236 5.52254E-04-1.02265E-04-4.16605E-16
 -1      2237 6.64672E-04-9.03505E-05-5.67783E-16
 -1      2238 5.45307E-04 8.40603E-06-4.11617E-16
 -1      2239 5.45284E-04-6.50257E-06-4.15615E-16
 -1      2240 5.46289E-04 3.86075E-05-4.01155E-16
 -1      2241 5.45641E-04 2.34225E-05-4.06860E-16
 -1      2242 6.59683E-04 1.88290E-05-5.53607E-16
 -1      2243 5.48580E-04 6.96511E-05-3.87236E-16
 -1      2244 5.47262E-04 5.39133E-05-3.94853E-16
 -1      2245 6.61395E-04 5.45307E-05-5.39160E-16
 -1      2246 5.52578E-04 1.03864E-04-3.67748E-16
 -1      2247 5.50345E-04 8.63682E-05-3.78237E-16
 -1      2248 6.64942E-04 9.21229E-05-5.19306E-16
 -1      2249 5.59029E-04 1.42376E-04-3.41198E-16
 -1      2250 5.55444E-04 1.22505E-04-3.55605E-16
 -1      2251 6.70865E-04 1.33436E-04-4.92472E-16
 -1      2252 5.69675E-04 1.87597E-04-3.04403E-16
 -1      2253 5.63727E-04 1.64014E-04-3.24488E-16
 -1      2254 6.80257E-04 1.80043E-04-4.56205E-16
 -1      2255 1.30523E-03 4.39193E-04-1.07069E-15
 -1      2256 1.16208E-03 4.15937E-04-8.38739E-16
 -1      2257 1.07407E-03 3.67721E-04-7.84122E-16
 -1      2258 9.16847E-04-3.35571E-04-7.44386E-16
 -1      2259 1.06145E-03-3.66617E-04-9.72936E-16
 -1      2260 7.98719E-03 9.47585E-04-3.39757E-14
 -1      2261 8.16371E-03 8.42121E-04-3.47567E-14
 -1      2262 1.20532E-03-3.92561E-04-1.23346E-15
 -1      2263 1.34889E-03-4.13806E-04-1.52626E-15
 -1      2264 1.11939E-03-3.46316E-04-1.12973E-15
 -1      2265 1.49197E-03-4.31200E-04-1.85076E-15
 -1      2266 1.63486E-03-4.45026E-04-2.20702E-15
 -1      2267 1.40693E-03-3.87845E-04-1.71971E-15
 -1      2268 1.77759E-03-4.55950E-04-2.59374E-15
 -1      2269 1.92032E-03-4.64198E-04-3.01176E-15
 -1      2270 1.69377E-03-4.15063E-04-2.43413E-15
 -1      2271 2.06316E-03-4.70276E-04-3.46007E-15
 -1      2272 2.20621E-03-4.74385E-04-3.93885E-15
 -1      2273 1.98033E-03-4.31310E-04-3.27092E-15
 -1      2274 2.34956E-03-4.76923E-04-4.44728E-15
 -1      2275 2.49330E-03-4.78080E-04-4.98450E-15
 -1      2276 2.26720E-03-4.39336E-04-4.22767E-15
 -1      2277 2.63750E-03-4.78193E-04-5.55114E-15
 -1      2278 2.78225E-03-4.77452E-04-6.14618E-15
 -1      2279 2.55495E-03-4.41449E-04-5.30164E-15
 -1      2280 2.92761E-03-4.76172E-04-6.76878E-15
 -1      2281 3.07365E-03-4.74559E-04-7.41902E-15
 -1      2282 2.84413E-03-4.39710E-04-6.48868E-15
 -1      2283 3.22043E-03-4.72934E-04-8.09540E-15
 -1      2284 3.36803E-03-4.71537E-04-8.79845E-15
 -1      2285 3.13527E-03-4.36114E-04-7.78562E-15
 -1      2286 3.51651E-03-4.70720E-04-9.52728E-15
 -1      2287 3.66593E-03-4.70769E-04-1.02816E-14
 -1      2288 3.42894E-03-4.32769E-04-9.18769E-15
 -1      2289 3.81640E-03-4.72080E-04-1.10604E-14
 -1      2290 3.96792E-03-4.74999E-04-1.18633E-14
 -1      2291 3.72583E-03-4.32054E-04-1.06924E-14
 -1      2292 4.12065E-03-4.79955E-04-1.26910E-14
 -1      2293 4.27451E-03-4.87351E-04-1.35440E-14
 -1      2294 4.02673E-03-4.36735E-04-1.22954E-14
 -1      2295 4.42974E-03-4.97607E-04-1.44205E-14
 -1      2296 4.58611E-03-5.11152E-04-1.53196E-14
 -1      2297 4.33256E-03-4.49985E-04-1.39958E-14
 -1      2298 4.74394E-03-5.28307E-04-1.62423E-14
 -1      2299 4.90277E-03-5.49428E-04-1.71888E-14
 -1      2300 4.64424E-03-4.75231E-04-1.57914E-14
 -1      2301 5.06295E-03-5.74587E-04-1.81576E-14
 -1      2302 5.22374E-03-6.03865E-04-1.91482E-14
 -1      2303 4.96235E-03-5.15650E-04-1.76782E-14
 -1      2304 5.38543E-03-6.36885E-04-2.01638E-14
 -1      2305 5.54699E-03-6.73136E-04-2.12032E-14
 -1      2306 5.28649E-03-5.73080E-04-1.96583E-14
 -1      2307 5.70854E-03-7.11600E-04-2.22656E-14
 -1      2308 5.86901E-03-7.50811E-04-2.33519E-14
 -1      2309 5.61444E-03-6.46096E-04-2.17312E-14
 -1      2310 6.02820E-03-7.89054E-04-2.44617E-14
 -1      2311 6.18553E-03-8.23845E-04-2.55965E-14
 -1      2312 5.94179E-03-7.27380E-04-2.38999E-14
 -1      2313 6.34054E-03-8.53023E-04-2.67541E-14
 -1      2314 6.49382E-03-8.73832E-04-2.79367E-14
 -1      2315 6.26307E-03-8.01714E-04-2.61643E-14
 -1      2316 6.64483E-03-8.84432E-04-2.91461E-14
 -1      2317 6.79533E-03-8.82910E-04-3.03774E-14
 -1      2318 6.57517E-03-8.47887E-04-2.85268E-14
 -1      2319 6.94484E-03-8.68650E-04-3.16326E-14
 -1      2320 7.09568E-03-8.41869E-04-3.29091E-14
 -1      2321 6.88063E-03-8.46532E-04-3.09884E-14
 -1      2322 7.24734E-03-8.03466E-04-3.42066E-14
 -1      2323 7.40141E-03-7.55571E-04-3.55258E-14
 -1      2324 7.18687E-03-7.90615E-04-3.35397E-14
 -1      2325 7.55737E-03-7.00145E-04-3.68663E-14
 -1      2326 7.71552E-03-6.40013E-04-3.82272E-14
 -1      2327 7.50078E-03-6.90021E-04-3.61786E-14
 -1      2328 7.87546E-03-5.77287E-04-3.96071E-14
 -1      2329 8.03648E-03-5.14281E-04-4.10071E-14
 -1      2330 7.82373E-03-5.65241E-04-3.88992E-14
 -1      2331 8.19846E-03-4.52578E-04-4.24243E-14
 -1      2332 8.36028E-03-3.93473E-04-4.38590E-14
 -1      2333 8.15188E-03-4.36802E-04-4.16980E-14
 -1      2334 8.52210E-03-3.37849E-04-4.53138E-14
 -1      2335 8.68296E-03-2.86080E-04-4.67860E-14
 -1      2336 8.47980E-03-3.18453E-04-4.45700E-14
 -1      2337 8.84318E-03-2.38450E-04-4.82742E-14
 -1      2338 9.00207E-03-1.94814E-04-4.97770E-14
 -1      2339 8.80345E-03-2.16237E-04-4.75139E-14
 -1      2340 9.15999E-03-1.55055E-04-5.12954E-14
 -1      2341 9.31653E-03-1.18809E-04-5.28274E-14
 -1      2342 9.12107E-03-1.30824E-04-5.05193E-14
 -1      2343 9.47201E-03-8.57493E-05-5.43728E-14
 -1      2344 9.62624E-03-5.54689E-05-5.59364E-14
 -1      2345 9.43252E-03-6.01264E-05-5.35816E-14
 -1      2346 9.77944E-03-2.75746E-05-5.75140E-14
 -1      2347 9.93156E-03-1.70332E-06-5.91042E-14
 -1      2348 9.73850E-03-1.02393E-06-5.67028E-14
 -1      2349 1.00827E-02 2.25195E-05-6.07083E-14
 -1      2350 1.02330E-02 4.53858E-05-6.23245E-14
 -1      2351 1.00400E-02 4.96498E-05-5.98845E-14
 -1      2352 1.03825E-02 6.72093E-05-6.39558E-14
 -1      2353 1.05313E-02 8.82103E-05-6.55987E-14
 -1      2354 1.03379E-02 9.46521E-05-6.31187E-14
 -1      2355 1.06793E-02 1.08629E-04-6.72528E-14
 -1      2356 1.08268E-02 1.28624E-04-6.89179E-14
 -1      2357 1.06329E-02 1.36181E-04-6.64038E-14
 -1      2358 1.09736E-02 1.48364E-04-7.05933E-14
 -1      2359 1.11200E-02 1.67961E-04-7.22778E-14
 -1      2360 1.09258E-02 1.75879E-04-6.97322E-14
 -1      2361 1.12660E-02 1.87524E-04-7.39711E-14
 -1      2362 1.14115E-02 2.07125E-04-7.56748E-14
 -1      2363 1.12169E-02 2.14900E-04-7.31022E-14
 -1      2364 1.15566E-02 2.26830E-04-7.73829E-14
 -1      2365 1.17015E-02 2.46683E-04-7.91006E-14
 -1      2366 1.15067E-02 2.54009E-04-7.65056E-14
 -1      2367 1.18460E-02 2.66716E-04-8.08279E-14
 -1      2368 1.19903E-02 2.86955E-04-8.25646E-14
 -1      2369 1.17955E-02 2.93669E-04-7.99402E-14
 -1      2370 1.21344E-02 3.07407E-04-8.43091E-14
 -1      2371 1.22783E-02 3.28084E-04-8.60602E-14
 -1      2372 1.20834E-02 3.34127E-04-8.34126E-14
 -1      2373 1.24220E-02 3.48982E-04-8.78203E-14
 -1      2374 1.25656E-02 3.70102E-04-8.95909E-14
 -1      2375 1.23707E-02 3.75481E-04-8.69166E-14
 -1      2376 1.27091E-02 3.91430E-04-9.13708E-14
 -1      2377 1.28524E-02 4.12964E-04-9.31593E-14
 -1      2378 1.26576E-02 4.17728E-04-9.04558E-14
 -1      2379 1.29957E-02 4.34683E-04-9.49536E-14
 -1      2380 1.31388E-02 4.56583E-04-9.67568E-14
 -1      2381 1.29440E-02 4.60805E-04-9.40298E-14
 -1      2382 1.32819E-02 4.78641E-04-9.85680E-14
 -1      2383 1.34250E-02 5.00851E-04-1.00385E-13
 -1      2384 1.32303E-02 5.04615E-04-9.76331E-14
 -1      2385 1.35680E-02 5.23190E-04-1.02211E-13
 -1      2386 1.37110E-02 5.45650E-04-1.04042E-13
 -1      2387 1.35163E-02 5.49045E-04-1.01269E-13
 -1      2388 1.38539E-02 5.68211E-04-1.05879E-13
 -1      2389 1.39968E-02 5.90863E-04-1.07722E-13
 -1      2390 1.38023E-02 5.93977E-04-1.04930E-13
 -1      2391 1.87398E-03 4.94598E-04-2.29818E-15
 -1      2392 1.73193E-03 4.85494E-04-1.94656E-15
 -1      2393 2.15875E-03 5.05807E-04-3.09040E-15
 -1      2394 2.01621E-03 5.01299E-04-2.67938E-15
 -1      2395 1.93333E-03 4.61997E-04-2.56403E-15
 -1      2396 2.44526E-03 5.09578E-04-3.99900E-15
 -1      2397 2.30173E-03 5.08499E-04-3.53037E-15
 -1      2398 2.21950E-03 4.70877E-04-3.39313E-15
 -1      2399 2.73439E-03 5.07991E-04-5.02384E-15
 -1      2400 2.58944E-03 5.09341E-04-4.49700E-15
 -1      2401 2.50694E-03 4.72876E-04-4.33762E-15
 -1      2402 3.02691E-03 5.02970E-04-6.16095E-15
 -1      2403 2.88016E-03 5.05793E-04-5.57848E-15
 -1      2404 2.79630E-03 4.69982E-04-5.39620E-15
 -1      2405 3.32359E-03 4.96551E-04-7.40541E-15
 -1      2406 3.17465E-03 4.99802E-04-6.77006E-15
 -1      2407 3.08819E-03 4.64087E-04-6.56620E-15
 -1      2408 3.62522E-03 4.91178E-04-8.75492E-15
 -1      2409 3.47370E-03 4.93566E-04-8.06680E-15
 -1      2410 3.38321E-03 4.57247E-04-7.84198E-15
 -1      2411 3.93268E-03 4.90054E-04-1.02064E-14
 -1      2412 3.77813E-03 4.89859E-04-9.46797E-15
 -1      2413 3.68202E-03 4.51962E-04-9.22104E-15
 -1      2414 4.24698E-03 4.97551E-04-1.17603E-14
 -1      2415 4.08888E-03 4.92414E-04-1.09708E-14
 -1      2416 3.98547E-03 4.51528E-04-1.07031E-14
 -1      2417 4.56933E-03 5.19597E-04-1.34148E-14
 -1      2418 4.40709E-03 5.06331E-04-1.25746E-14
 -1      2419 4.29477E-03 4.60422E-04-1.22856E-14
 -1      2420 4.90117E-03 5.63854E-04-1.51693E-14
 -1      2421 4.73408E-03 5.38397E-04-1.42793E-14
 -1      2422 4.61170E-03 4.84688E-04-1.39674E-14
 -1      2423 5.24398E-03 6.39205E-04-1.70222E-14
 -1      2424 5.07139E-03 5.97023E-04-1.60840E-14
 -1      2425 4.93889E-03 5.32152E-04-1.57477E-14
 -1      2426 5.59835E-03 7.53629E-04-1.89701E-14
 -1      2427 5.42019E-03 6.91057E-04-1.79842E-14
 -1      2428 5.27958E-03 6.12042E-04-1.76253E-14
 -1      2429 5.96195E-03 9.09126E-04-2.10188E-14
 -1      2430 5.77992E-03 8.26522E-04-1.99811E-14
 -1      2431 5.63629E-03 7.33082E-04-1.95979E-14
 -1      2432 6.32697E-03 1.09262E-03-2.31681E-14
 -1      2433 6.14537E-03 9.99055E-04-2.20811E-14
 -1      2434 6.00701E-03 8.97819E-04-2.16691E-14
 -1      2435 6.68212E-03 1.26752E-03-2.54315E-14
 -1      2436 6.50642E-03 1.18471E-03-2.42853E-14
 -1      2437 6.38189E-03 1.09077E-03-2.38451E-14
 -1      2438 7.02090E-03 1.37937E-03-2.78097E-14
 -1      2439 6.85238E-03 1.33505E-03-2.66052E-14
 -1      2440 6.74544E-03 1.26775E-03-2.61336E-14
 -1      2441 7.35314E-03 1.38732E-03-3.03099E-14
 -1      2442 7.18557E-03 1.39722E-03-2.90449E-14
 -1      2443 7.09223E-03 1.36331E-03-2.85415E-14
 -1      2444 7.69519E-03 1.29824E-03-3.29293E-14
 -1      2445 7.52124E-03 1.35204E-03-3.16041E-14
 -1      2446 7.43619E-03 1.33948E-03-3.10708E-14
 -1      2447 8.05378E-03 1.16106E-03-3.56531E-14
 -1      2448 7.87283E-03 1.23168E-03-3.42785E-14
 -1      2449 7.79568E-03 1.22012E-03-3.37166E-14
 -1      2450 8.41992E-03 1.02821E-03-3.84736E-14
 -1      2451 8.23719E-03 1.09170E-03-3.70529E-14
 -1      2452 8.16962E-03 1.07121E-03-3.64685E-14
 -1      2453 8.78219E-03 9.29237E-04-4.13686E-14
 -1      2454 8.60255E-03 9.73725E-04-3.99124E-14
 -1      2455 8.54299E-03 9.43580E-04-3.93077E-14
 -1      2456 9.13445E-03 8.71884E-04-4.43366E-14
 -1      2457 8.96009E-03 8.95554E-04-4.28441E-14
 -1      2458 8.90377E-03 8.58238E-04-4.22206E-14
 -1      2459 9.47536E-03 8.51756E-04-4.73704E-14
 -1      2460 9.30647E-03 8.57709E-04-4.58448E-14
 -1      2461 9.24862E-03 8.15436E-04-4.52016E-14
 -1      2462 9.80598E-03 8.60253E-04-5.04665E-14
 -1      2463 9.64194E-03 8.52976E-04-4.89108E-14
 -1      2464 9.57946E-03 8.07209E-04-4.82471E-14
 -1      2465 1.01279E-02 8.88845E-04-5.36175E-14
 -1      2466 9.96794E-03 8.72494E-04-5.20352E-14
 -1      2467 9.89963E-03 8.24228E-04-5.13530E-14
 -1      2468 1.04426E-02 9.30550E-04-5.68271E-14
 -1      2469 1.02860E-02 9.08401E-04-5.52151E-14
 -1      2470 1.02120E-02 8.58434E-04-5.45154E-14
 -1      2471 1.07513E-02 9.80202E-04-6.00844E-14
 -1      2472 1.05976E-02 9.54626E-04-5.84508E-14
 -1      2473 1.05185E-02 9.03611E-04-5.77321E-14
 -1      2474 1.10550E-02 1.03422E-03-6.33927E-14
 -1      2475 1.09036E-02 1.00683E-03-6.17318E-14
 -1      2476 1.08206E-02 9.55280E-04-6.09977E-14
 -1      2477 1.13546E-02 1.09025E-03-6.67470E-14
 -1      2478 1.12052E-02 1.06210E-03-6.50655E-14
 -1      2479 1.11191E-02 1.01038E-03-6.43123E-14
 -1      2480 1.16509E-02 1.14679E-03-7.01470E-14
 -1      2481 1.15031E-02 1.11853E-03-6.84408E-14
 -1      2482 1.14148E-02 1.06689E-03-6.76736E-14
 -1      2483 1.19446E-02 1.20297E-03-7.35858E-14
 -1      2484 1.17980E-02 1.17497E-03-7.18605E-14
 -1      2485 1.17082E-02 1.12356E-03-7.10775E-14
 -1      2486 1.22362E-02 1.25831E-03-7.70659E-14
 -1      2487 1.20906E-02 1.23077E-03-7.53216E-14
 -1      2488 1.19997E-02 1.17966E-03-7.45228E-14
 -1      2489 1.25261E-02 1.31257E-03-8.05848E-14
 -1      2490 1.23813E-02 1.28558E-03-7.88210E-14
 -1      2491 1.22897E-02 1.23481E-03-7.80072E-14
 -1      2492 1.28148E-02 1.36571E-03-8.41375E-14
 -1      2493 1.26706E-02 1.33929E-03-8.23563E-14
 -1      2494 1.25786E-02 1.28884E-03-8.15309E-14
 -1      2495 1.31026E-02 1.41777E-03-8.77164E-14
 -1      2496 1.29588E-02 1.39188E-03-8.59243E-14
 -1      2497 1.28666E-02 1.34173E-03-8.50877E-14
 -1      2498 1.33897E-02 1.46885E-03-9.13141E-14
 -1      2499 1.32462E-02 1.44343E-03-8.95132E-14
 -1      2500 1.31539E-02 1.39355E-03-8.86695E-14
 -1      2501 1.36763E-02 1.51906E-03-9.49202E-14
 -1      2502 1.35330E-02 1.49406E-03-9.31162E-14
 -1      2503 1.34407E-02 1.44440E-03-9.22655E-14
 -1      2504 1.39625E-02 1.56856E-03-9.85275E-14
 -1      2505 1.38195E-02 1.54390E-03-9.67262E-14
 -1      2506 1.37271E-02 1.49443E-03-9.58719E-14
 -1      2507 1.42486E-02 1.61747E-03-1.02126E-13
 -1      2508 1.41056E-02 1.59308E-03-1.00327E-13
 -1      2509 1.40133E-02 1.54376E-03-9.94741E-14
 -1      2510 1.45345E-02 1.66593E-03-1.05719E-13
 -1      2511 1.43915E-02 1.64175E-03-1.03923E-13
 -1      2512 1.42993E-02 1.59254E-03-1.03072E-13
 -1      2513 1.48203E-02 1.71407E-03-1.09302E-13
 -1      2514 1.46774E-02 1.69003E-03-1.07513E-13
 -1      2515 1.45851E-02 1.64090E-03-1.06663E-13
 -1      2516 1.49685E-02 1.73988E-03-1.11145E-13
 -1      2517 1.47047E-02 1.39461E-03-1.10605E-13
 -1      2518 1.47279E-02 1.43659E-03-1.10548E-13
 -1      2519 1.46584E-02 1.31073E-03-1.10723E-13
 -1      2520 1.46815E-02 1.35266E-03-1.10663E-13
 -1      2521 1.45695E-02 1.35308E-03-1.09072E-13
 -1      2522 1.47971E-02 1.56125E-03-1.10381E-13
 -1      2523 1.48205E-02 1.60332E-03-1.10324E-13
 -1      2524 1.47510E-02 1.47824E-03-1.10491E-13
 -1      2525 1.47739E-02 1.51955E-03-1.10436E-13
 -1      2526 1.46618E-02 1.51985E-03-1.08853E-13
 -1      2527 1.46156E-02 1.43658E-03-1.08961E-13
 -1      2528 1.46123E-02 1.22691E-03-1.10840E-13
 -1      2529 1.46353E-02 1.26881E-03-1.10781E-13
 -1      2530 1.45232E-02 1.26932E-03-1.09184E-13
 -1      2531 1.45663E-02 1.14312E-03-1.10961E-13
 -1      2532 1.45893E-02 1.18501E-03-1.10903E-13
 -1      2533 1.44772E-02 1.18564E-03-1.09298E-13
 -1      2534 1.45204E-02 1.05932E-03-1.11077E-13
 -1      2535 1.45433E-02 1.10122E-03-1.11020E-13
 -1      2536 1.44312E-02 1.10198E-03-1.09411E-13
 -1      2537 1.44753E-02 9.76891E-04-1.11183E-13
 -1      2538 1.44978E-02 1.01811E-03-1.11131E-13
 -1      2539 1.43857E-02 1.01900E-03-1.09517E-13
 -1      2540 1.44297E-02 8.92964E-04-1.11283E-13
 -1      2541 1.44525E-02 9.34938E-04-1.11234E-13
 -1      2542 1.43403E-02 9.35959E-04-1.09617E-13
 -1      2543 1.43843E-02 8.08941E-04-1.11381E-13
 -1      2544 1.44070E-02 8.50965E-04-1.11333E-13
 -1      2545 1.42946E-02 8.52101E-04-1.09714E-13
 -1      2546 1.43390E-02 7.24817E-04-1.11466E-13
 -1      2547 1.43616E-02 7.66890E-04-1.11422E-13
 -1      2548 1.42492E-02 7.68120E-04-1.09804E-13
 -1      2549 8.77108E-03 5.30767E-04-3.71239E-14
 -1      2550 8.92902E-03 4.68217E-04-3.76600E-14
 -1      2551 1.58991E-03 4.73463E-04-1.62465E-15
 -1      2552 1.44773E-03 4.58279E-04-1.33257E-15
 -1      2553 1.64764E-03 4.43917E-04-1.85216E-15
 -1      2554 1.43771E-02 6.63073E-04-1.12544E-13
 -1      2555 9.28602E-03 3.36669E-04-3.91629E-14
 -1      2556 9.23110E-03 3.25898E-04-3.91534E-14
 -1      2557 9.08053E-03 4.14832E-04-3.82500E-14
 -1      2558 9.18248E-03 3.86304E-04-3.85952E-14
 -1      2559 5.89440E-04-2.31655E-04-3.61446E-16
 -1      2560 7.82641E-04-2.95921E-04-5.70195E-16
 -1      2561 8.42336E-04-2.83732E-04-6.90054E-16
 -1      2562 5.80022E-04-2.03877E-04-3.80365E-16
 -1      2563 9.12015E-03 2.97547E-04-3.90321E-14
 -1      2564 8.98208E-03 2.59359E-04-3.87737E-14
 -1      2565 5.45569E-04-2.15075E-05-4.18448E-16
 -1      2566 5.46166E-04-3.66693E-05-4.20386E-16
 -1      2567 6.61229E-04-5.25149E-05-5.68366E-16
 -1      2568 6.59624E-04-1.65471E-05-5.63446E-16
 -1      2569 6.96590E-03 1.28708E-03-2.84247E-14
 -1      2570 7.09710E-03 1.30671E-03-2.92053E-14
 -1      2571 7.58960E-03-4.53565E-04-3.39970E-14
 -1      2572 7.42777E-03-5.48215E-04-3.32214E-14
 -1      2573 6.61969E-03 1.13969E-03-2.65639E-14
 -1      2574 6.78849E-03 1.22897E-03-2.74087E-14
 -1      2575 6.19159E-03 8.74036E-04-2.50258E-14
 -1      2576 6.38636E-03 1.00083E-03-2.56693E-14
 -1      2577 5.77990E-03 6.20165E-04-2.37144E-14
 -1      2578 5.98728E-03 7.46312E-04-2.43643E-14
 -1      2579 6.08737E-03 8.05901E-04-2.42724E-14
 -1      2580 5.31017E-03 3.85104E-04-2.28103E-14
 -1      2581 5.50676E-03 4.74740E-04-2.31109E-14
 -1      2582 4.99189E-03 2.65799E-04-2.22985E-14
 -1      2583 5.14239E-03 3.17266E-04-2.25539E-14
 -1      2584 5.21755E-03 3.40597E-04-2.21803E-14
 -1      2585 4.76819E-03 2.03909E-04-2.21315E-14
 -1      2586 4.84546E-03 2.21450E-04-2.21541E-14
 -1      2587 4.72552E-03 1.79996E-04-2.20477E-14
 -1      2588 4.72656E-03 1.87746E-04-2.20395E-14
 -1      2589 4.84975E-03 1.45069E-04-2.23344E-14
 -1      2590 4.77182E-03 1.62347E-04-2.21279E-14
 -1      2591 5.07511E-03 7.66775E-05-2.28811E-14
 -1      2592 4.94963E-03 1.16113E-04-2.26061E-14
 -1      2593 4.86936E-03 1.29915E-04-2.18851E-14
 -1      2594 5.46227E-03-8.12375E-05-2.39094E-14
 -1      2595 5.28163E-03-2.19575E-06-2.34096E-14
 -1      2596 6.26295E-03-5.10073E-04-2.67739E-14
 -1      2597 6.11454E-03-4.25114E-04-2.61362E-14
 -1      2598 6.63232E-03-6.78634E-04-2.86663E-14
 -1      2599 6.45657E-03-6.06646E-04-2.76896E-14
 -1      2600 6.92605E-03-7.18525E-04-3.04619E-14
 -1      2601 6.81235E-03-7.15676E-04-2.97393E-14
 -1      2602 7.25437E-03-6.30636E-04-3.24248E-14
 -1      2603 7.09982E-03-6.88693E-04-3.15311E-14
 -1      2604 7.94915E-03-2.33912E-04-3.56201E-14
 -1      2605 7.76797E-03-3.46520E-04-3.48270E-14
 -1      2606 8.41603E-03 2.43477E-05-3.71996E-14
 -1      2607 8.20582E-03-8.58644E-05-3.65985E-14
 -1      2608 8.76968E-03 1.81281E-04-3.81935E-14
 -1      2609 8.59638E-03 1.08938E-04-3.76946E-14
 -1      2610 8.49621E-03 6.82490E-05-3.80208E-14
 -1      2611 7.67601E-03 1.13093E-03-3.25464E-14
 -1      2612 7.82486E-03 1.04259E-03-3.32572E-14
 -1      2613 7.92118E-03 9.94370E-04-3.39435E-14
 -1      2614 7.58699E-04 3.25862E-04-3.42920E-16
 -1      2615 6.11994E-04 2.78492E-04-2.24755E-16
 -1      2616 5.85506E-04 2.51898E-04-2.34689E-16
 -1      2617 8.15102E-04 3.13452E-04-4.52329E-16
 -1      2618 8.38192E-03 7.20865E-04-3.57770E-14
 -1      2619 8.56885E-03 6.24009E-04-3.64903E-14
 -1      2620 7.14196E-03 1.31991E-03-2.93361E-14
 -1      2621 7.20554E-03 1.31002E-03-2.98153E-14
 -1      2622 7.30541E-03 1.29817E-03-3.04313E-14
 -1      2623 6.70392E-04-1.31439E-04-5.60234E-16
 -1      2624 5.55003E-04-1.20727E-04-4.11821E-16
 -1      2625 5.58452E-04-1.40393E-04-4.05044E-16
 -1      2626 1.36153E-03 4.13741E-04-1.25831E-15
 -1      2627 5.73262E-04 2.21658E-04-2.64627E-16
 -1      2628 8.28567E-03 7.82360E-04-3.56900E-14
 -1      2629 9.19253E-03 3.19921E-04-3.98167E-14
 -1      2630 8.88263E-03 2.28110E-04-3.91051E-14
 -1      2631 9.24134E-03 3.75091E-04-3.92064E-14
 -1      2632 1.48763E-02 1.69079E-03-1.10303E-13
 -1      2633 1.48420E-02 1.65506E-03-1.10150E-13
 -1      2634 9.02131E-03 4.41835E-04-3.85888E-14
 -1      2635 8.68130E-03 5.79735E-04-3.73576E-14
 -1      2636 9.30827E-03 3.46418E-04-3.95848E-14
 -1      2637 8.07808E-03-1.51958E-04-3.65319E-14
 -1      2638 7.97092E-03-2.18395E-04-3.64640E-14
 -1      2639 8.20514E-03-8.27485E-05-3.74526E-14
 -1      2640 7.33702E-03-5.91130E-04-3.30819E-14
 -1      2641 6.90865E-04 2.43378E-04-3.87507E-16
 -1      2642 7.02727E-03-7.07655E-04-3.12038E-14
 -1      2643 6.70119E-03-7.03178E-04-2.90618E-14
 -1      2644 6.36077E-03-5.71316E-04-2.70832E-14
 -1      2645 5.15172E-03 3.89461E-05-2.26708E-14
 -1      2646 4.72672E-03 1.66257E-04-2.15417E-14
 -1      2647 5.99653E-03-3.66241E-04-2.55102E-14
 -1      2648 5.67225E-03-1.99145E-04-2.41144E-14
 -1      2649 5.57399E-03-1.38111E-04-2.40136E-14
 -1      2650 5.45605E-03-9.84294E-05-2.32937E-14
 -1      2651 4.90761E-03 2.34868E-04-2.17882E-14
 -1      2652 5.63782E-03 5.36671E-04-2.30235E-14
 -1      2653 5.74829E-03 6.03116E-04-2.29321E-14
 -1      2654 5.50163E-03 4.70063E-04-2.23434E-14
 -1      2655 6.50152E-03 1.07248E-03-2.58095E-14
 -1      2656 5.72752E-04-1.79068E-04-3.94812E-16
 -1      2657 7.66815E-03-4.02233E-04-3.47167E-14
 -1      2658 6.87113E-03 1.26447E-03-2.77092E-14
 -1      2659 7.48610E-03 1.23808E-03-3.15759E-14
 -1      2660 7.57247E-03 1.18984E-03-3.20608E-14
 -1      2661 7.67507E-03 1.14698E-03-3.27319E-14
 -1      2662 4.73099E-03 1.87547E-04-2.15551E-14
 -1      2663 1.42201E-02 6.24105E-04-1.10627E-13
 -1      2664 1.42945E-02 6.84563E-04-1.11175E-13
 -1      2665 1.41820E-02 6.85862E-04-1.09553E-13
 -1      2666 1.40930E-02 6.05382E-04-1.08971E-13
 -1      2667 1.47065E-02 1.61323E-03-1.08627E-13
 -1      2668 1.40413E-02 6.31095E-04-1.08014E-13
 -1      2669 7.78480E-04 7.28579E-05-6.97440E-16
 -1      2670 7.76870E-04 5.22119E-05-7.07943E-16
 -1      2671 7.75773E-04 3.16050E-05-7.17159E-16
 -1      2672 7.75224E-04 1.12832E-05-7.24898E-16
 -1      2673 8.93433E-04 4.66427E-05-9.01487E-16
 -1      2674 7.91867E-04 1.64848E-04-6.35342E-16
 -1      2675 7.87320E-04 1.40179E-04-6.54506E-16
 -1      2676 8.04647E-04 2.19017E-04-5.87949E-16
 -1      2677 7.97613E-04 1.91060E-04-6.13509E-16
 -1      2678 9.15316E-04 1.97638E-04-7.95791E-16
 -1      2679 1.13235E-03 3.47207E-04-9.38526E-16
 -1      2680 9.88276E-04 3.20587E-04-7.25670E-16
 -1      2681 7.09404E-03-6.96361E-04-3.18230E-14
 -1      2682 6.94370E-03-7.27262E-04-3.07497E-14
 -1      2683 9.26177E-03 3.37152E-04-4.06972E-14
 -1      2684 9.16343E-03 3.15664E-04-4.05697E-14
 -1      2685 8.98821E-03 2.62840E-04-4.02709E-14
 -1      2686 8.79470E-03 1.95791E-04-3.96786E-14
 -1      2687 1.32288E-03-3.44997E-04-1.58880E-15
 -1      2688 1.46659E-03-3.61211E-04-1.91702E-15
 -1      2689 1.61020E-03-3.74320E-04-2.27521E-15
 -1      2690 1.75380E-03-3.84555E-04-2.66413E-15
 -1      2691 1.52730E-03-3.33956E-04-2.11804E-15
 -1      2692 1.89734E-03-3.92388E-04-3.08350E-15
 -1      2693 2.04091E-03-3.98017E-04-3.53225E-15
 -1      2694 1.81457E-03-3.53638E-04-2.89742E-15
 -1      2695 2.18451E-03-4.01838E-04-4.01076E-15
 -1      2696 2.32822E-03-4.04030E-04-4.51826E-15
 -1      2697 2.10183E-03-3.64476E-04-3.79594E-15
 -1      2698 2.47207E-03-4.04930E-04-5.05436E-15
 -1      2699 2.61612E-03-4.04709E-04-5.61885E-15
 -1      2700 2.38915E-03-3.68622E-04-4.81006E-15
 -1      2701 2.76042E-03-4.03668E-04-6.21152E-15
 -1      2702 2.90504E-03-4.01986E-04-6.83119E-15
 -1      2703 2.67674E-03-3.67995E-04-5.93667E-15
 -1      2704 3.05002E-03-3.99953E-04-7.47804E-15
 -1      2705 3.19547E-03-3.97771E-04-8.15156E-15
 -1      2706 2.96496E-03-3.64387E-04-7.17370E-15
 -1      2707 3.34145E-03-3.95742E-04-8.85140E-15
 -1      2708 3.48806E-03-3.94114E-04-9.57689E-15
 -1      2709 3.25429E-03-3.59598E-04-8.51797E-15
 -1      2710 3.63543E-03-3.93212E-04-1.03274E-14
 -1      2711 3.78365E-03-3.93356E-04-1.11029E-14
 -1      2712 3.54545E-03-3.55585E-04-9.96539E-15
 -1      2713 3.93292E-03-3.94897E-04-1.19028E-14
 -1      2714 4.08333E-03-3.98252E-04-1.27270E-14
 -1      2715 3.83948E-03-3.54616E-04-1.15128E-14
 -1      2716 4.23517E-03-4.03781E-04-1.35749E-14
 -1      2717 4.38848E-03-4.12018E-04-1.44472E-14
 -1      2718 4.13782E-03-3.59411E-04-1.31576E-14
 -1      2719 4.54366E-03-4.23291E-04-1.53427E-14
 -1      2720 4.70060E-03-4.38228E-04-1.62607E-14
 -1      2721 4.44238E-03-3.73244E-04-1.48970E-14
 -1      2722 4.85982E-03-4.57051E-04-1.72025E-14
 -1      2723 5.02090E-03-4.80369E-04-1.81669E-14
 -1      2724 4.75534E-03-3.99938E-04-1.67295E-14
 -1      2725 5.18436E-03-5.08180E-04-1.91546E-14
 -1      2726 5.34931E-03-5.40724E-04-2.01655E-14
 -1      2727 5.07854E-03-4.43557E-04-1.86546E-14
 -1      2728 5.51608E-03-5.77569E-04-2.12001E-14
 -1      2729 5.68327E-03-6.18043E-04-2.22583E-14
 -1      2730 5.41220E-03-5.07185E-04-2.06726E-14
 -1      2731 5.85085E-03-6.61027E-04-2.33399E-14
 -1      2732 6.01717E-03-7.04172E-04-2.44468E-14
 -1      2733 5.75319E-03-5.90063E-04-2.27841E-14
 -1      2734 6.18174E-03-7.45597E-04-2.55767E-14
 -1      2735 6.34378E-03-7.81098E-04-2.67305E-14
 -1      2736 6.09407E-03-6.82810E-04-2.49915E-14
 -1      2737 6.50246E-03-8.08316E-04-2.79121E-14
 -1      2738 6.65934E-03-8.23275E-04-2.91170E-14
 -1      2739 6.42564E-03-7.62855E-04-2.72990E-14
 -1      2740 6.81372E-03-8.24297E-04-3.03453E-14
 -1      2741 6.96855E-03-8.09531E-04-3.15974E-14
 -1      2742 6.74466E-03-7.99244E-04-2.97040E-14
 -1      2743 7.12335E-03-7.79307E-04-3.28732E-14
 -1      2744 7.28107E-03-7.35924E-04-3.41699E-14
 -1      2745 7.05876E-03-7.69100E-04-3.22058E-14
 -1      2746 7.44103E-03-6.81206E-04-3.54895E-14
 -1      2747 7.60410E-03-6.19526E-04-3.68310E-14
 -1      2748 7.37993E-03-6.74890E-04-3.48020E-14
 -1      2749 7.76954E-03-5.53222E-04-3.81925E-14
 -1      2750 7.93636E-03-4.86089E-04-3.95736E-14
 -1      2751 7.71386E-03-5.42708E-04-3.74846E-14
 -1      2752 8.10417E-03-4.19858E-04-4.09731E-14
 -1      2753 8.27126E-03-3.56684E-04-4.23909E-14
 -1      2754 8.05555E-03-4.02793E-04-4.02486E-14
 -1      2755 8.43768E-03-2.97505E-04-4.38274E-14
 -1      2756 8.60212E-03-2.42709E-04-4.52823E-14
 -1      2757 8.39570E-03-2.75262E-04-4.30854E-14
 -1      2758 8.76496E-03-1.92663E-04-4.67532E-14
 -1      2759 8.92544E-03-1.47004E-04-4.82408E-14
 -1      2760 8.72760E-03-1.67618E-04-4.59945E-14
 -1      2761 9.08408E-03-1.05701E-04-4.97446E-14
 -1      2762 9.24054E-03-6.81484E-05-5.12615E-14
 -1      2763 9.04890E-03-7.94556E-05-4.89701E-14
 -1      2764 9.39530E-03-3.41139E-05-5.27926E-14
 -1      2765 9.54831E-03-2.99494E-06-5.43365E-14
 -1      2766 9.36028E-03-7.48687E-06-5.20039E-14
 -1      2767 9.69994E-03 2.55176E-05-5.58965E-14
 -1      2768 9.85024E-03 5.19146E-05-5.74728E-14
 -1      2769 9.66367E-03 5.22117E-05-5.50930E-14
 -1      2770 9.99949E-03 7.65124E-05-5.90630E-14
 -1      2771 1.01478E-02 9.96778E-05-6.06662E-14
 -1      2772 9.96124E-03 1.03199E-04-5.82420E-14
 -1      2773 1.02953E-02 1.21694E-04-6.22821E-14
 -1      2774 1.04421E-02 1.42821E-04-6.39124E-14
 -1      2775 1.02548E-02 1.48369E-04-6.14488E-14
 -1      2776 1.05884E-02 1.63291E-04-6.55546E-14
 -1      2777 1.07341E-02 1.83282E-04-6.72066E-14
 -1      2778 1.05456E-02 1.89953E-04-6.47063E-14
 -1      2779 1.08795E-02 2.02968E-04-6.88718E-14
 -1      2780 1.10245E-02 2.22467E-04-7.05481E-14
 -1      2781 1.08347E-02 2.29601E-04-6.80119E-14
 -1      2782 1.11692E-02 2.41901E-04-7.22321E-14
 -1      2783 1.13136E-02 2.61343E-04-7.39265E-14
 -1      2784 1.11227E-02 2.68480E-04-7.13627E-14
 -1      2785 1.14578E-02 2.80873E-04-7.56286E-14
 -1      2786 1.16019E-02 3.00534E-04-7.73364E-14
 -1      2787 1.14100E-02 3.07374E-04-7.47501E-14
 -1      2788 1.17457E-02 3.20370E-04-7.90539E-14
 -1      2789 1.18894E-02 3.40404E-04-8.07821E-14
 -1      2790 1.16968E-02 3.46771E-04-7.81691E-14
 -1      2791 1.20330E-02 3.60654E-04-8.25183E-14
 -1      2792 1.21765E-02 3.81131E-04-8.42615E-14
 -1      2793 1.19832E-02 3.86943E-04-8.16229E-14
 -1      2794 1.23198E-02 4.01835E-04-8.60141E-14
 -1      2795 1.24632E-02 4.22768E-04-8.77727E-14
 -1      2796 1.22695E-02 4.28006E-04-8.51110E-14
 -1      2797 1.26064E-02 4.43921E-04-8.95429E-14
 -1      2798 1.27496E-02 4.65287E-04-9.13218E-14
 -1      2799 1.25556E-02 4.69976E-04-8.86331E-14
 -1      2800 1.28927E-02 4.86853E-04-9.31065E-14
 -1      2801 1.30358E-02 5.08610E-04-9.49006E-14
 -1      2802 1.28416E-02 5.12801E-04-9.21858E-14
 -1      2803 1.31788E-02 5.30539E-04-9.67030E-14
 -1      2804 1.33218E-02 5.52631E-04-9.85118E-14
 -1      2805 1.31275E-02 5.56391E-04-9.57735E-14
 -1      2806 1.34648E-02 5.74866E-04-1.00327E-13
 -1      2807 1.36077E-02 5.97236E-04-1.02151E-13
 -1      2808 1.34133E-02 6.00638E-04-9.93886E-14
 -1      2809 1.37507E-02 6.19719E-04-1.03981E-13
 -1      2810 1.38936E-02 6.42306E-04-1.05815E-13
 -1      2811 1.36992E-02 6.45427E-04-1.03033E-13
 -1      2812 2.28011E-03 4.35691E-04-3.70030E-15
 -1      2813 2.13660E-03 4.33249E-04-3.25357E-15
 -1      2814 1.45422E-02 1.53753E-03-1.07005E-13
 -1      2815 1.45636E-02 1.58919E-03-1.06833E-13
 -1      2816 1.44207E-02 1.56508E-03-1.05039E-13
 -1      2817 1.99325E-03 4.28939E-04-2.83531E-15
 -1      2818 1.84994E-03 4.22580E-04-2.44604E-15
 -1      2819 2.05346E-03 3.95646E-04-3.11169E-15
 -1      2820 2.85661E-03 4.32218E-04-5.77305E-15
 -1      2821 2.71199E-03 4.34636E-04-5.21255E-15
 -1      2822 3.14709E-03 4.25740E-04-6.97450E-15
 -1      2823 3.00160E-03 4.29191E-04-6.36036E-15
 -1      2824 2.91530E-03 3.94908E-04-6.15302E-15
 -1      2825 3.43962E-03 4.18768E-04-8.28160E-15
 -1      2826 3.29304E-03 4.22189E-04-7.61523E-15
 -1      2827 3.20363E-03 3.88119E-04-7.38667E-15
 -1      2828 3.73476E-03 4.13816E-04-9.69148E-15
 -1      2829 3.58678E-03 4.15872E-04-8.97372E-15
 -1      2830 3.49290E-03 3.81271E-04-8.72489E-15
 -1      2831 4.03336E-03 4.14187E-04-1.12032E-14
 -1      2832 3.88352E-03 4.13102E-04-1.04347E-14
 -1      2833 3.78357E-03 3.76835E-04-1.01647E-14
 -1      2834 4.33690E-03 4.24330E-04-1.28132E-14
 -1      2835 4.18437E-03 4.17697E-04-1.19952E-14
 -1      2836 4.07655E-03 3.78015E-04-1.17051E-14
 -1      2837 4.64788E-03 4.50239E-04-1.45218E-14
 -1      2838 4.49127E-03 4.34815E-04-1.36554E-14
 -1      2839 4.37364E-03 3.89083E-04-1.33436E-14
 -1      2840 4.97026E-03 4.99782E-04-1.63283E-14
 -1      2841 4.80744E-03 4.71331E-04-1.54131E-14
 -1      2842 4.67817E-03 4.15813E-04-1.50787E-14
 -1      2843 5.30941E-03 5.82729E-04-1.82293E-14
 -1      2844 5.13767E-03 5.36150E-04-1.72672E-14
 -1      2845 4.99567E-03 4.66145E-04-1.69098E-14
 -1      2846 5.67017E-03 7.09157E-04-2.02254E-14
 -1      2847 5.48749E-03 6.39545E-04-1.92151E-14
 -1      2848 5.33390E-03 5.50787E-04-1.88348E-14
 -1      2849 6.05217E-03 8.83969E-04-2.23189E-14
 -1      2850 5.85994E-03 7.90736E-04-2.12591E-14
 -1      2851 5.70008E-03 6.82962E-04-2.08521E-14
 -1      2852 6.81774E-03 1.27623E-03-2.68188E-14
 -1      2853 6.63403E-03 1.19656E-03-2.56467E-14
 -1      2854 7.17091E-03 1.35135E-03-2.92496E-14
 -1      2855 6.99466E-03 1.33175E-03-2.80159E-14
 -1      2856 7.59336E-03 1.24356E-03-3.23182E-14
 -1      2857 7.40476E-03 1.30353E-03-3.10122E-14
 -1      2858 8.29513E-03 9.74012E-04-3.72825E-14
 -1      2859 8.10191E-03 1.04873E-03-3.58822E-14
 -1      2860 8.67209E-03 8.57844E-04-4.01405E-14
 -1      2861 8.48689E-03 9.10175E-04-3.87027E-14
 -1      2862 8.43417E-03 8.74810E-04-3.80968E-14
 -1      2863 9.02729E-03 7.89893E-04-4.30704E-14
 -1      2864 8.85299E-03 8.18453E-04-4.15969E-14
 -1      2865 8.80729E-03 7.76020E-04-4.09742E-14
 -1      2866 9.36191E-03 7.63057E-04-4.60656E-14
 -1      2867 9.19706E-03 7.72268E-04-4.45600E-14
 -1      2868 9.15148E-03 7.27513E-04-4.39200E-14
 -1      2869 9.68144E-03 7.66695E-04-4.91220E-14
 -1      2870 9.52329E-03 7.61796E-04-4.75855E-14
 -1      2871 9.47314E-03 7.16243E-04-4.69264E-14
 -1      2872 9.99096E-03 7.91660E-04-5.22391E-14
 -1      2873 9.83719E-03 7.77045E-04-5.06747E-14
 -1      2874 9.78038E-03 7.30682E-04-4.99961E-14
 -1      2875 1.02941E-02 8.30785E-04-5.54105E-14
 -1      2876 1.01431E-02 8.09823E-04-5.38182E-14
 -1      2877 1.00793E-02 7.62484E-04-5.31238E-14
 -1      2878 1.05929E-02 8.78794E-04-5.86358E-14
 -1      2879 1.04439E-02 8.53932E-04-5.70161E-14
 -1      2880 1.03736E-02 8.05622E-04-5.63033E-14
 -1      2881 1.08889E-02 9.31949E-04-6.19064E-14
 -1      2882 1.07412E-02 9.04899E-04-6.02651E-14
 -1      2883 1.06654E-02 8.55780E-04-5.95347E-14
 -1      2884 1.11826E-02 9.87698E-04-6.52285E-14
 -1      2885 1.10360E-02 9.59611E-04-6.35621E-14
 -1      2886 1.09558E-02 9.09919E-04-6.28145E-14
 -1      2887 1.14747E-02 1.04437E-03-6.85951E-14
 -1      2888 1.13288E-02 1.01599E-03-6.69067E-14
 -1      2889 1.12452E-02 9.65956E-04-6.61426E-14
 -1      2890 1.17653E-02 1.10093E-03-7.20059E-14
 -1      2891 1.16201E-02 1.07271E-03-7.02966E-14
 -1      2892 1.15339E-02 1.02252E-03-6.95163E-14
 -1      2893 1.20548E-02 1.15677E-03-7.54573E-14
 -1      2894 1.19102E-02 1.12896E-03-7.37259E-14
 -1      2895 1.18220E-02 1.07877E-03-7.29344E-14
 -1      2896 1.23434E-02 1.21160E-03-7.89481E-14
 -1      2897 1.21992E-02 1.18432E-03-7.71975E-14
 -1      2898 1.21097E-02 1.13421E-03-7.63910E-14
 -1      2899 1.26312E-02 1.26529E-03-8.24740E-14
 -1      2900 1.24874E-02 1.23859E-03-8.07066E-14
 -1      2901 1.23969E-02 1.18861E-03-7.98851E-14
 -1      2902 1.29185E-02 1.31786E-03-8.60359E-14
 -1      2903 1.27749E-02 1.29171E-03-8.42518E-14
 -1      2904 1.26838E-02 1.24189E-03-8.34182E-14
 -1      2905 1.32053E-02 1.36939E-03-8.96210E-14
 -1      2906 1.30619E-02 1.34375E-03-8.78258E-14
 -1      2907 1.29704E-02 1.29409E-03-8.69829E-14
 -1      2908 1.34918E-02 1.41999E-03-9.32165E-14
 -1      2909 1.33486E-02 1.39480E-03-9.14190E-14
 -1      2910 1.32568E-02 1.34529E-03-9.05703E-14
 -1      2911 1.37780E-02 1.46981E-03-9.68204E-14
 -1      2912 1.36349E-02 1.44499E-03-9.50169E-14
 -1      2913 1.35430E-02 1.39561E-03-9.41670E-14
 -1      2914 1.40641E-02 1.51897E-03-1.00420E-13
 -1      2915 1.39211E-02 1.49446E-03-9.86206E-14
 -1      2916 1.38290E-02 1.44520E-03-9.77654E-14
 -1      2917 1.43139E-02 1.55424E-03-1.03628E-13
 -1      2918 1.41709E-02 1.52996E-03-1.01829E-13
 -1      2919 1.40788E-02 1.48079E-03-1.00976E-13
 -1      2920 1.42925E-02 1.50263E-03-1.03798E-13
 -1      2921 1.43421E-02 1.14443E-03-1.07751E-13
 -1      2922 1.43651E-02 1.18619E-03-1.07698E-13
 -1      2923 1.39897E-02 6.56791E-04-1.07060E-13
 -1      2924 1.40859E-02 6.71312E-04-1.08305E-13
 -1      2925 1.39382E-02 6.82460E-04-1.06108E-13
 -1      2926 1.44343E-02 1.31157E-03-1.07537E-13
 -1      2927 1.44574E-02 1.35341E-03-1.07482E-13
 -1      2928 1.42961E-02 1.06091E-03-1.07858E-13
 -1      2929 1.43191E-02 1.10267E-03-1.07805E-13
 -1      2930 1.42070E-02 1.10330E-03-1.06205E-13
 -1      2931 1.43881E-02 1.22796E-03-1.07642E-13
 -1      2932 1.44112E-02 1.26975E-03-1.07589E-13
 -1      2933 1.42991E-02 1.27010E-03-1.05999E-13
 -1      2934 1.42531E-02 1.18666E-03-1.06103E-13
 -1      2935 1.70666E-03 4.13756E-04-2.08573E-15
 -1      2936 1.56327E-03 4.02256E-04-1.75471E-15
 -1      2937 1.76650E-03 3.83180E-04-2.32537E-15
 -1      2938 7.88194E-03 1.03613E-03-3.39632E-14
 -1      2939 8.02208E-03 9.47868E-04-3.46915E-14
 -1      2940 1.42510E-02 9.78764E-04-1.07953E-13
 -1      2941 1.42735E-02 1.01985E-03-1.07907E-13
 -1      2942 1.41615E-02 1.02063E-03-1.06302E-13
 -1      2943 1.42052E-02 8.95105E-04-1.08051E-13
 -1      2944 1.42281E-02 9.36949E-04-1.08004E-13
 -1      2945 1.41160E-02 9.37902E-04-1.06395E-13
 -1      2946 1.41596E-02 8.11311E-04-1.08142E-13
 -1      2947 1.41824E-02 8.53226E-04-1.08094E-13
 -1      2948 1.40702E-02 8.54335E-04-1.06485E-13
 -1      2949 8.64262E-03 6.20320E-04-3.78426E-14
 -1      2950 8.81499E-03 5.38543E-04-3.84866E-14
 -1      2951 8.96525E-03 4.77340E-04-3.90832E-14
 -1      2952 9.10227E-03 4.33610E-04-3.96801E-14
 -1      2953 8.92889E-03 5.20497E-04-3.95771E-14
 -1      2954 7.90272E-04-2.43370E-04-6.52703E-16
 -1      2955 9.21748E-04-2.77245E-04-8.40677E-16
 -1      2956 4.71651E-03 1.53508E-04-2.08917E-14
 -1      2957 4.68200E-03 1.64107E-04-2.08168E-14
 -1      2958 6.37037E-03 9.94761E-04-2.49802E-14
 -1      2959 6.57325E-03 1.12645E-03-2.58578E-14
 -1      2960 2.56776E-03 4.36153E-04-4.68020E-15
 -1      2961 2.42380E-03 4.36603E-04-4.17621E-15
 -1      2962 2.34043E-03 4.00470E-04-4.01279E-15
 -1      2963 2.62763E-03 3.99625E-04-5.02740E-15
 -1      2964 1.05025E-03-3.02810E-04-1.05374E-15
 -1      2965 1.19387E-03-3.26057E-04-1.32267E-15
 -1      2966 1.25491E-03-3.03634E-04-1.49212E-15
 -1      2967 9.98242E-04-2.62797E-04-1.00271E-15
 -1      2968 8.21787E-03 8.36494E-04-3.57136E-14
 -1      2969 8.41657E-03 7.30898E-04-3.67452E-14
 -1      2970 8.17120E-03 8.88218E-04-3.57329E-14
 -1      2971 7.83627E-04 1.16815E-04-6.70809E-16
 -1      2972 7.80731E-04 9.44072E-05-6.85134E-16
 -1      2973 8.97429E-04 9.35027E-05-8.75371E-16
 -1      2974 9.04444E-04 1.43207E-04-8.41029E-16
 -1      2975 1.41982E-03 3.87562E-04-1.45310E-15
 -1      2976 1.27610E-03 3.69414E-04-1.18087E-15
 -1      2977 1.19208E-03 3.25723E-04-1.10075E-15
 -1      2978 1.47937E-03 3.60776E-04-1.65445E-15
 -1      2979 9.24903E-03 3.86293E-04-4.01798E-14
 -1      2980 9.30737E-03 3.68042E-04-4.02029E-14
 -1      2981 7.73802E-03-3.60038E-04-3.54553E-14
 -1      2982 7.58064E-03-4.57247E-04-3.46185E-14
 -1      2983 7.80447E-04-9.23086E-05-7.39751E-16
 -1      2984 7.83256E-04-1.14672E-04-7.37501E-16
 -1      2985 8.04673E-04 2.68751E-04-5.14210E-16
 -1      2986 6.53858E-04-1.81216E-04-5.03517E-16
 -1      2987 5.99334E-03 7.53186E-04-2.35374E-14
 -1      2988 6.17263E-03 8.68199E-04-2.41848E-14
 -1      2989 5.11930E-03 3.03029E-04-2.15048E-14
 -1      2990 5.26758E-03 3.62081E-04-2.17515E-14
 -1      2991 1.41305E-02 7.11511E-04-1.08595E-13
 -1      2992 6.03604E-03-4.08683E-04-2.54009E-14
 -1      2993 5.86165E-03-3.03820E-04-2.47433E-14
 -1      2994 4.89320E-03 1.09803E-04-2.14830E-14
 -1      2995 4.80582E-03 1.31546E-04-2.12199E-14
 -1      2996 4.82263E-03 2.09144E-04-2.11440E-14
 -1      2997 4.95396E-03 2.44963E-04-2.12821E-14
 -1      2998 5.21587E-03-3.80656E-06-2.23729E-14
 -1      2999 5.03487E-03 6.30748E-05-2.18608E-14
 -1      3000 6.41310E-03-6.14065E-04-2.72616E-14
 -1      3001 6.24594E-03-5.27010E-04-2.63569E-14
 -1      3002 6.77308E-03-7.25087E-04-2.95618E-14
 -1      3003 6.61561E-03-6.91758E-04-2.84938E-14
 -1      3004 9.32906E-03 3.55564E-04-4.02736E-14
 -1      3005 9.31895E-03 3.51258E-04-4.06304E-14
 -1      3006 9.31432E-03 3.48997E-04-4.13903E-14
 -1      3007 9.35588E-03 3.69764E-04-4.12542E-14
 -1      3008 6.90072E-03 1.28088E-03-2.76985E-14
 -1      3009 7.05681E-03 1.31886E-03-2.87246E-14
 -1      3010 7.41836E-03-5.50984E-04-3.38034E-14
 -1      3011 7.27485E-03-6.28123E-04-3.29975E-14
 -1      3012 7.50136E-03-5.12882E-04-3.45285E-14
 -1      3013 8.64621E-03 1.34423E-04-3.91698E-14
 -1      3014 8.48826E-03 6.12309E-05-3.86646E-14
 -1      3015 8.78355E-03 1.80180E-04-4.03313E-14
 -1      3016 4.69838E-03 1.78203E-04-2.09931E-14
 -1      3017 4.74063E-03 1.87707E-04-2.10838E-14
 -1      3018 7.86838E-04-1.37961E-04-7.33016E-16
 -1      3019 7.91225E-04-1.62410E-04-7.25941E-16
 -1      3020 9.03946E-04-1.40690E-04-9.29283E-16
 -1      3021 8.92100E-04 1.12100E-06-9.20013E-16
 -1      3022 7.75194E-04-8.98094E-06-7.30901E-16
 -1      3023 7.75684E-04-2.92974E-05-7.35604E-16
 -1      3024 9.21728E-03 4.12572E-04-4.06826E-14
 -1      3025 9.31250E-03 4.05522E-04-4.16894E-14
 -1      3026 9.18881E-03 4.45607E-04-4.11848E-14
 -1      3027 6.84992E-03-7.36417E-04-3.01604E-14
 -1      3028 9.19748E-03 3.14335E-04-4.20384E-14
 -1      3029 9.09961E-03 2.93802E-04-4.11517E-14
 -1      3030 9.03915E-03 2.64422E-04-4.17299E-14
 -1      3031 4.76204E-03 1.94988E-04-2.05848E-14
 -1      3032 1.43451E-02 1.35331E-03-1.05894E-13
 -1      3033 1.44804E-02 1.39494E-03-1.07428E-13
 -1      3034 1.45034E-02 1.43650E-03-1.07375E-13
 -1      3035 7.15421E-03 1.33042E-03-2.93259E-14
 -1      3036 6.14802E-03 9.10561E-04-2.31033E-14
 -1      3037 5.98213E-03 7.90991E-04-2.26679E-14
 -1      3038 6.51240E-03 1.12390E-03-2.50042E-14
 -1      3039 6.31894E-03 1.01956E-03-2.38786E-14
 -1      3040 7.90612E-03 1.13142E-03-3.45055E-14
 -1      3041 7.71439E-03 1.21088E-03-3.31543E-14
 -1      3042 5.72754E-03-2.52764E-04-2.40092E-14
 -1      3043 1.45190E-02 1.49587E-03-1.07057E-13
 -1      3044 7.79656E-03 1.10039E-03-3.35795E-14
 -1      3045 7.90400E-03 1.05983E-03-3.43203E-14
 -1      3046 6.50062E-03-6.65212E-04-2.77440E-14
 -1      3047 6.38606E-03-6.34023E-04-2.70033E-14
 -1      3048 6.57296E-03-7.04072E-04-2.82266E-14
 -1      3049 8.57576E-03 6.75962E-04-3.78674E-14
 -1      3050 1.41531E-02 7.53527E-04-1.08558E-13
 -1      3051 5.30635E-03-5.25545E-05-2.24688E-14
 -1      3052 5.16680E-03-2.34855E-05-2.16583E-14
 -1      3053 5.39104E-03-1.06366E-04-2.25633E-14
 -1      3054 8.66445E-04 2.56189E-04-6.30992E-16
 -1      3055 9.84537E-04 2.63723E-04-8.19467E-16
 -1      3056 8.37546E-03-2.46731E-07-3.85911E-14
 -1      3057 8.27443E-03-6.49610E-05-3.85166E-14
 -1      3058 8.53704E-03 6.37916E-05-3.97421E-14
 -1      3059 6.26057E-03 9.39748E-04-2.42257E-14
 -1      3060 4.72107E-03 1.36143E-04-2.04983E-14
 -1      3061 8.00119E-03-2.17776E-04-3.72733E-14
 -1      3062 7.86998E-03-2.85576E-04-3.63599E-14
 -1      3063 7.78800E-03-3.48451E-04-3.62545E-14
 -1      3064 4.66023E-03 1.64189E-04-2.03515E-14
 -1      3065 7.76707E-04-4.98042E-05-7.38545E-16
 -1      3066 7.78274E-04-7.07870E-05-7.39941E-16
 -1      3067 8.97152E-04-9.10574E-05-9.34623E-16
 -1      3068 8.93317E-04-4.43064E-05-9.31126E-16
 -1      3069 6.57624E-03 1.13868E-03-2.56653E-14
 -1      3070 6.70582E-03 1.20159E-03-2.65139E-14
 -1      3071 7.24895E-03 1.34220E-03-2.98731E-14
 -1      3072 5.37621E-03 4.16409E-04-2.16591E-14
 -1      3073 5.47511E-03 4.76432E-04-2.15642E-14
 -1      3074 5.25806E-03 3.76480E-04-2.09852E-14
 -1      3075 4.94396E-03 7.20782E-05-2.11930E-14
 -1      3076 7.70906E-04-1.93836E-04-6.70037E-16
 -1      3077 7.40873E-03 1.27629E-03-3.10821E-14
 -1      3078 4.99634E-03 2.65337E-04-2.08611E-14
 -1      3079 7.71092E-03 1.16100E-03-3.30817E-14
 -1      3080 5.84090E-03 6.66752E-04-2.28504E-14
 -1      3081 5.92091E-03 7.34142E-04-2.27573E-14
 -1      3082 5.83896E-03 7.14958E-04-2.19905E-14
 -1      3083 5.69777E-03 5.95454E-04-2.21670E-14
 -1      3084 6.11053E-03-4.70937E-04-2.55735E-14
 -1      3085 5.97486E-03-4.18083E-04-2.48016E-14
 -1      3086 6.16580E-03-5.26618E-04-2.57420E-14
 -1      3087 7.17985E-03-6.72405E-04-3.25256E-14
 -1      3088 8.03573E-03 1.03000E-03-3.52963E-14
 -1      3089 1.39895E-02 7.18628E-04-1.06524E-13
 -1      3090 1.41083E-02 7.75139E-04-1.07727E-13
 -1      3091 1.39960E-02 7.76372E-04-1.06113E-13
 -1      3092 1.38933E-02 7.04125E-04-1.05283E-13
 -1      3093 1.04098E-03 2.30954E-04-9.73166E-16
 -1      3094 1.03353E-03 2.00102E-04-1.00328E-15
 -1      3095 1.73248E-03-3.15356E-04-2.71364E-15
 -1      3096 1.87604E-03-3.22345E-04-3.13389E-15
 -1      3097 2.01957E-03-3.27421E-04-3.58294E-15
 -1      3098 2.16309E-03-3.30741E-04-4.06097E-15
 -1      3099 1.93799E-03-2.90755E-04-3.37278E-15
 -1      3100 2.30656E-03-3.32614E-04-4.56757E-15
 -1      3101 2.45001E-03-3.33184E-04-5.10221E-15
 -1      3102 2.22455E-03-2.96919E-04-4.32795E-15
 -1      3103 2.59344E-03-3.32729E-04-5.66492E-15
 -1      3104 2.73689E-03-3.31391E-04-6.25535E-15
 -1      3105 2.51074E-03-2.97828E-04-5.39593E-15
 -1      3106 2.88039E-03-3.29427E-04-6.87258E-15
 -1      3107 3.02400E-03-3.26991E-04-7.51672E-15
 -1      3108 2.79654E-03-2.94995E-04-6.57437E-15
 -1      3109 3.16777E-03-3.24336E-04-8.18750E-15
 -1      3110 3.31182E-03-3.21647E-04-8.88455E-15
 -1      3111 3.08216E-03-2.89873E-04-7.86036E-15
 -1      3112 3.45623E-03-3.19183E-04-9.60667E-15
 -1      3113 3.60116E-03-3.17190E-04-1.03537E-14
 -1      3114 3.36809E-03-2.83956E-04-9.25109E-15
 -1      3115 3.74678E-03-3.15938E-04-1.11256E-14
 -1      3116 3.89328E-03-3.15777E-04-1.19224E-14
 -1      3117 3.65522E-03-2.78912E-04-1.07423E-14
 -1      3118 4.04093E-03-3.16983E-04-1.27430E-14
 -1      3119 4.18998E-03-3.20064E-04-1.35870E-14
 -1      3120 3.94504E-03-2.76747E-04-1.23321E-14
 -1      3121 4.34083E-03-3.25288E-04-1.44557E-14
 -1      3122 4.49373E-03-3.33388E-04-1.53470E-14
 -1      3123 4.23973E-03-2.80029E-04-1.40167E-14
 -1      3124 4.64924E-03-3.44600E-04-1.62602E-14
 -1      3125 4.80747E-03-3.59918E-04-1.71973E-14
 -1      3126 4.54240E-03-2.92196E-04-1.57949E-14
 -1      3127 4.96914E-03-3.79520E-04-1.81582E-14
 -1      3128 5.13390E-03-4.04548E-04-1.91414E-14
 -1      3129 4.85688E-03-3.17936E-04-1.76651E-14
 -1      3130 5.30252E-03-4.35048E-04-2.01472E-14
 -1      3131 5.47374E-03-4.71695E-04-2.11782E-14
 -1      3132 5.18688E-03-3.63466E-04-1.96271E-14
 -1      3133 5.64809E-03-5.14046E-04-2.22319E-14
 -1      3134 5.82320E-03-5.61348E-04-2.33092E-14
 -1      3135 5.53369E-03-4.35036E-04-2.16816E-14
 -1      3136 5.99912E-03-6.12441E-04-2.44110E-14
 -1      3137 6.17278E-03-6.63039E-04-2.55365E-14
 -1      3138 5.89257E-03-5.34161E-04-2.38326E-14
 -1      3139 6.36183E-03-7.00465E-04-2.68077E-14
 -1      3140 6.53053E-03-7.39194E-04-2.79871E-14
 -1      3141 6.99123E-03-7.61437E-04-3.15421E-14
 -1      3142 7.15260E-03-7.25815E-04-3.28163E-14
 -1      3143 7.31592E-03-6.72276E-04-3.41140E-14
 -1      3144 7.48422E-03-6.07367E-04-3.54349E-14
 -1      3145 7.25242E-03-6.74106E-04-3.34265E-14
 -1      3146 7.65610E-03-5.34272E-04-3.67771E-14
 -1      3147 7.83038E-03-4.59625E-04-3.81409E-14
 -1      3148 7.59865E-03-5.29647E-04-3.60707E-14
 -1      3149 8.00665E-03-3.85599E-04-3.95240E-14
 -1      3150 8.18120E-03-3.16106E-04-4.09260E-14
 -1      3151 7.95827E-03-3.69292E-04-3.87980E-14
 -1      3152 8.35456E-03-2.51894E-04-4.23450E-14
 -1      3153 8.52458E-03-1.93631E-04-4.37829E-14
 -1      3154 8.31520E-03-2.27204E-04-4.16052E-14
 -1      3155 8.69182E-03-1.41429E-04-4.52372E-14
 -1      3156 8.85525E-03-9.44055E-05-4.67075E-14
 -1      3157 8.65846E-03-1.13151E-04-4.44800E-14
 -1      3158 9.01561E-03-5.25078E-05-4.81969E-14
 -1      3159 9.17269E-03-1.46917E-05-4.97002E-14
 -1      3160 8.98506E-03-2.38341E-05-4.74248E-14
 -1      3161 9.32715E-03 1.92443E-05-5.12150E-14
 -1      3162 9.47914E-03 5.02255E-05-5.27457E-14
 -1      3163 9.29673E-03 4.70839E-05-5.04288E-14
 -1      3164 9.62919E-03 7.84862E-05-5.42905E-14
 -1      3165 9.77755E-03 1.04695E-04-5.58499E-14
 -1      3166 9.59720E-03 1.05238E-04-5.34901E-14
 -1      3167 9.92458E-03 1.29091E-04-5.74251E-14
 -1      3168 1.00705E-02 1.52125E-04-5.90139E-14
 -1      3169 9.89014E-03 1.54980E-04-5.66089E-14
 -1      3170 1.02156E-02 1.74021E-04-6.06144E-14
 -1      3171 1.03601E-02 1.95075E-04-6.22306E-14
 -1      3172 1.01785E-02 1.99362E-04-5.97844E-14
 -1      3173 1.05041E-02 2.15481E-04-6.38585E-14
 -1      3174 1.06477E-02 2.35429E-04-6.54988E-14
 -1      3175 1.04642E-02 2.40535E-04-6.30133E-14
 -1      3176 1.07909E-02 2.55074E-04-6.71538E-14
 -1      3177 1.09341E-02 2.74535E-04-6.88184E-14
 -1      3178 1.07486E-02 2.80012E-04-6.62940E-14
 -1      3179 1.10770E-02 2.93927E-04-7.04937E-14
 -1      3180 1.12199E-02 3.13320E-04-7.21786E-14
 -1      3181 1.10325E-02 3.18844E-04-6.96244E-14
 -1      3182 1.13627E-02 3.32797E-04-7.38704E-14
 -1      3183 1.15055E-02 3.52393E-04-7.55732E-14
 -1      3184 1.13163E-02 3.57736E-04-7.29926E-14
 -1      3185 1.16482E-02 3.72161E-04-7.72830E-14
 -1      3186 1.17909E-02 3.92117E-04-7.90007E-14
 -1      3187 1.16004E-02 3.97132E-04-7.63967E-14
 -1      3188 1.19337E-02 4.12288E-04-8.07283E-14
 -1      3189 1.20764E-02 4.32678E-04-8.24661E-14
 -1      3190 1.18848E-02 4.37284E-04-7.98345E-14
 -1      3191 1.22192E-02 4.53297E-04-8.42092E-14
 -1      3192 1.23620E-02 4.74140E-04-8.59600E-14
 -1      3193 1.21694E-02 4.78306E-04-8.33074E-14
 -1      3194 1.25048E-02 4.95206E-04-8.77223E-14
 -1      3195 1.26476E-02 5.16486E-04-8.94920E-14
 -1      3196 1.24543E-02 5.20215E-04-8.68111E-14
 -1      3197 1.27904E-02 5.37969E-04-9.12687E-14
 -1      3198 1.29332E-02 5.59645E-04-9.30540E-14
 -1      3199 1.27394E-02 5.62968E-04-9.03509E-14
 -1      3200 1.30760E-02 5.81500E-04-9.48449E-14
 -1      3201 1.32189E-02 6.03522E-04-9.66456E-14
 -1      3202 1.30248E-02 6.06482E-04-9.39214E-14
 -1      3203 1.33617E-02 6.25694E-04-9.84557E-14
 -1      3204 1.35046E-02 6.48005E-04-1.00268E-13
 -1      3205 1.33102E-02 6.50657E-04-9.75213E-14
 -1      3206 1.36275E-02 6.64720E-04-1.01856E-13
 -1      3207 1.37704E-02 6.87248E-04-1.03685E-13
 -1      3208 1.38217E-02 7.23327E-04-1.04100E-13
 -1      3209 1.35759E-02 6.89672E-04-1.00916E-13
 -1      3210 2.11394E-03 3.62221E-04-3.39340E-15
 -1      3211 1.97055E-03 3.58234E-04-2.96792E-15
 -1      3212 3.25811E-03 3.51469E-04-7.80237E-15
 -1      3213 3.11535E-03 3.54978E-04-7.15651E-15
 -1      3214 2.97256E-03 3.58274E-04-6.53671E-15
 -1      3215 2.82964E-03 3.61207E-04-5.94442E-15
 -1      3216 3.02845E-03 3.22477E-04-6.92495E-15
 -1      3217 3.82892E-03 3.41249E-04-1.06410E-14
 -1      3218 3.68609E-03 3.42640E-04-9.89311E-15
 -1      3219 4.11545E-03 3.43196E-04-1.22094E-14
 -1      3220 3.97191E-03 3.41295E-04-1.14132E-14
 -1      3221 3.87100E-03 3.07096E-04-1.11202E-14
 -1      3222 4.40509E-03 3.54794E-04-1.38758E-14
 -1      3223 4.25963E-03 3.47453E-04-1.30309E-14
 -1      3224 4.15024E-03 3.09649E-04-1.27170E-14
 -1      3225 4.70188E-03 3.81436E-04-1.56370E-14
 -1      3226 4.55219E-03 3.65678E-04-1.47445E-14
 -1      3227 4.43135E-03 3.21185E-04-1.44102E-14
 -1      3228 5.01276E-03 4.31043E-04-1.74928E-14
 -1      3229 4.85495E-03 4.02402E-04-1.65533E-14
 -1      3230 4.71888E-03 3.46551E-04-1.61969E-14
 -1      3231 5.34810E-03 5.15807E-04-1.94397E-14
 -1      3232 5.17675E-03 4.67478E-04-1.84547E-14
 -1      3233 5.02130E-03 3.93767E-04-1.80760E-14
 -1      3234 5.68099E-03 6.41058E-04-2.12122E-14
 -1      3235 5.49321E-03 5.67027E-04-2.01865E-14
 -1      3236 5.31955E-03 4.71423E-04-1.97870E-14
 -1      3237 5.61605E-03 5.84334E-04-2.13029E-14
 -1      3238 6.89045E-03 1.28770E-03-2.74996E-14
 -1      3239 5.75577E-03-3.01871E-04-2.38198E-14
 -1      3240 5.58962E-03-2.08847E-04-2.32075E-14
 -1      3241 8.58091E-03 7.79476E-04-3.89039E-14
 -1      3242 8.38656E-03 8.41613E-04-3.74836E-14
 -1      3243 9.58114E-03 6.75185E-04-4.77868E-14
 -1      3244 9.43001E-03 6.70543E-04-4.62701E-14
 -1      3245 9.87544E-03 6.99174E-04-5.08692E-14
 -1      3246 9.72925E-03 6.85230E-04-4.93203E-14
 -1      3247 9.68376E-03 6.40347E-04-4.86468E-14
 -1      3248 1.01640E-02 7.36649E-04-5.40039E-14
 -1      3249 1.00201E-02 7.16585E-04-5.24289E-14
 -1      3250 9.96549E-03 6.71976E-04-5.17375E-14
 -1      3251 1.04502E-02 7.82879E-04-5.71951E-14
 -1      3252 1.03072E-02 7.58898E-04-5.55939E-14
 -1      3253 1.02445E-02 7.13735E-04-5.48841E-14
 -1      3254 1.07356E-02 8.34507E-04-6.04331E-14
 -1      3255 1.05929E-02 8.08171E-04-5.88082E-14
 -1      3256 1.05234E-02 7.62111E-04-5.80828E-14
 -1      3257 1.10210E-02 8.89136E-04-6.37197E-14
 -1      3258 1.08782E-02 8.61548E-04-6.20698E-14
 -1      3259 1.08032E-02 8.14574E-04-6.13286E-14
 -1      3260 1.13066E-02 9.45102E-04-6.70540E-14
 -1      3261 1.11637E-02 9.17019E-04-6.53805E-14
 -1      3262 1.10843E-02 8.69268E-04-6.46216E-14
 -1      3263 1.15923E-02 1.00130E-03-7.04377E-14
 -1      3264 1.14494E-02 9.73216E-04-6.87404E-14
 -1      3265 1.13666E-02 9.24877E-04-6.79656E-14
 -1      3266 1.18783E-02 1.05705E-03-7.38596E-14
 -1      3267 1.17353E-02 1.02926E-03-7.21435E-14
 -1      3268 1.16499E-02 9.80512E-04-7.13552E-14
 -1      3269 1.21643E-02 1.11194E-03-7.73225E-14
 -1      3270 1.20213E-02 1.08461E-03-7.55852E-14
 -1      3271 1.19339E-02 1.03561E-03-7.47840E-14
 -1      3272 1.24503E-02 1.16582E-03-8.08221E-14
 -1      3273 1.23073E-02 1.13901E-03-7.90682E-14
 -1      3274 1.22185E-02 1.08987E-03-7.82516E-14
 -1      3275 1.27363E-02 1.21862E-03-8.43627E-14
 -1      3276 1.25933E-02 1.19235E-03-8.25890E-14
 -1      3277 1.25035E-02 1.14315E-03-8.17610E-14
 -1      3278 1.30223E-02 1.27039E-03-8.79291E-14
 -1      3279 1.28793E-02 1.24463E-03-8.61416E-14
 -1      3280 1.27887E-02 1.19542E-03-8.53031E-14
 -1      3281 1.33083E-02 1.32123E-03-9.15168E-14
 -1      3282 1.31653E-02 1.29592E-03-8.97213E-14
 -1      3283 1.30742E-02 1.24673E-03-8.88734E-14
 -1      3284 1.35942E-02 1.37125E-03-9.51124E-14
 -1      3285 1.34512E-02 1.34634E-03-9.33150E-14
 -1      3286 1.33597E-02 1.29719E-03-9.24624E-14
 -1      3287 1.38800E-02 1.42059E-03-9.87117E-14
 -1      3288 1.37371E-02 1.39600E-03-9.69098E-14
 -1      3289 1.36454E-02 1.34690E-03-9.60583E-14
 -1      3290 1.01267E-03 6.38195E-05-1.10570E-15
 -1      3291 1.01112E-03 3.86236E-05-1.11909E-15
 -1      3292 1.82711E-03 3.52250E-04-2.57071E-15
 -1      3293 1.68358E-03 3.44102E-04-2.20219E-15
 -1      3294 1.88819E-03 3.21085E-04-2.82244E-15
 -1      3295 1.40721E-02 1.06225E-03-1.04658E-13
 -1      3296 1.40951E-02 1.10384E-03-1.04609E-13
 -1      3297 1.39351E-02 8.13657E-04-1.04922E-13
 -1      3298 1.39580E-02 8.55421E-04-1.04882E-13
 -1      3299 1.40269E-02 9.80448E-04-1.04746E-13
 -1      3300 1.40495E-02 1.02135E-03-1.04703E-13
 -1      3301 1.39375E-02 1.02200E-03-1.03108E-13
 -1      3302 8.90916E-03 5.59808E-04-4.00349E-14
 -1      3303 9.03869E-03 5.07139E-04-4.06393E-14
 -1      3304 6.91222E-03-7.44795E-04-3.07199E-14
 -1      3305 6.75541E-03-7.43226E-04-2.95333E-14
 -1      3306 1.39809E-02 8.97137E-04-1.04836E-13
 -1      3307 1.40039E-02 9.38810E-04-1.04791E-13
 -1      3308 1.38919E-02 9.39659E-04-1.03193E-13
 -1      3309 1.38459E-02 8.56476E-04-1.03280E-13
 -1      3310 4.72882E-03 1.13288E-04-2.00689E-14
 -1      3311 4.65024E-03 1.32444E-04-1.97509E-14
 -1      3312 9.27495E-03 6.71585E-04-4.47658E-14
 -1      3313 9.11464E-03 6.81029E-04-4.32774E-14
 -1      3314 9.39403E-03 6.24087E-04-4.56117E-14
 -1      3315 8.94511E-03 7.01253E-04-4.18025E-14
 -1      3316 8.76972E-03 7.32588E-04-4.03463E-14
 -1      3317 8.73828E-03 6.88727E-04-3.97164E-14
 -1      3318 9.08443E-03 6.34112E-04-4.26342E-14
 -1      3319 1.43836E-02 1.45408E-03-1.05526E-13
 -1      3320 3.54345E-03 3.45007E-04-9.17074E-15
 -1      3321 3.40076E-03 3.48082E-04-8.47347E-15
 -1      3322 3.31065E-03 3.15930E-04-8.22153E-15
 -1      3323 3.59143E-03 3.10078E-04-9.62026E-15
 -1      3324 8.11194E-03 9.64691E-04-3.56931E-14
 -1      3325 1.44556E-03-2.94448E-04-1.96291E-15
 -1      3326 1.58899E-03-3.06117E-04-2.32331E-15
 -1      3327 1.65135E-03-2.77704E-04-2.53267E-15
 -1      3328 4.61404E-03 1.53852E-04-1.96003E-14
 -1      3329 4.64192E-03 1.66717E-04-1.97730E-14
 -1      3330 4.68891E-03 1.81603E-04-1.98323E-14
 -1      3331 4.76263E-03 2.00824E-04-1.98884E-14
 -1      3332 4.61987E-03 1.70183E-04-1.90898E-14
 -1      3333 4.95093E-03 3.41237E-05-2.06410E-14
 -1      3334 4.82805E-03 7.60437E-05-2.02776E-14
 -1      3335 8.88571E-04-2.01902E-04-8.61290E-16
 -1      3336 1.14690E-03 2.95776E-04-1.06812E-15
 -1      3337 1.08359E-03 2.58269E-04-1.01061E-15
 -1      3338 1.20219E-03 2.58070E-04-1.24648E-15
 -1      3339 1.29028E-03 3.15163E-04-1.32644E-15
 -1      3340 7.21214E-03-6.69305E-04-3.29250E-14
 -1      3341 7.04928E-03-7.23776E-04-3.17510E-14
 -1      3342 8.45410E-03 7.60341E-04-3.75225E-14
 -1      3343 8.66214E-03 6.59836E-04-3.86302E-14
 -1      3344 7.62243E-03-4.56782E-04-3.55364E-14
 -1      3345 7.47966E-03-5.43004E-04-3.47091E-14
 -1      3346 8.87432E-03 1.97196E-04-4.14703E-14
 -1      3347 8.74285E-03 1.44903E-04-4.09511E-14
 -1      3348 4.88367E-03 2.38023E-04-2.00868E-14
 -1      3349 5.02619E-03 2.87399E-04-2.02995E-14
 -1      3350 1.01034E-03 1.36841E-05-1.13002E-15
 -1      3351 1.01031E-03-1.11534E-05-1.13881E-15
 -1      3352 1.12980E-03 2.82629E-05-1.35993E-15
 -1      3353 9.17116E-03 4.78498E-04-4.16491E-14
 -1      3354 9.28904E-03 4.62268E-04-4.26665E-14
 -1      3355 9.16167E-03 5.14905E-04-4.21159E-14
 -1      3356 6.26681E-03-6.36617E-04-2.61971E-14
 -1      3357 9.30584E-03 3.40955E-04-4.26834E-14
 -1      3358 9.27122E-03 3.22774E-04-4.32696E-14
 -1      3359 1.42101E-02 1.31189E-03-1.04360E-13
 -1      3360 1.42330E-02 1.35329E-03-1.04308E-13
 -1      3361 6.95173E-03-7.50185E-04-3.11033E-14
 -1      3362 1.02182E-03-1.39970E-04-1.14905E-15
 -1      3363 1.02670E-03-1.68023E-04-1.14309E-15
 -1      3364 1.18882E-03-2.64040E-04-1.39399E-15
 -1      3365 1.31707E-03-2.80367E-04-1.66650E-15
 -1      3366 1.37992E-03-2.56128E-04-1.84566E-15
 -1      3367 6.70083E-03-7.75023E-04-2.92841E-14
 -1      3368 6.86121E-03-7.76470E-04-3.05137E-14
 -1      3369 1.39831E-02 1.10428E-03-1.03019E-13
 -1      3370 1.41181E-02 1.14543E-03-1.04561E-13
 -1      3371 1.41411E-02 1.18704E-03-1.04511E-13
 -1      3372 1.01488E-03-2.22682E-04-1.07726E-15
 -1      3373 8.28607E-03 8.68695E-04-3.67297E-14
 -1      3374 9.38004E-03 3.82334E-04-4.20497E-14
 -1      3375 9.39015E-03 3.72407E-04-4.21196E-14
 -1      3376 2.74490E-03 3.27888E-04-5.73443E-15
 -1      3377 2.68668E-03 3.63481E-04-5.37888E-15
 -1      3378 2.54360E-03 3.64960E-04-4.84047E-15
 -1      3379 4.72594E-03 8.04391E-05-1.95328E-14
 -1      3380 1.39869E-02 1.43167E-03-1.00122E-13
 -1      3381 1.38950E-02 1.38263E-03-9.92669E-14
 -1      3382 1.40937E-02 1.44266E-03-1.01531E-13
 -1      3383 1.01502E-03 8.93818E-05-1.09034E-15
 -1      3384 1.13335E-03 8.25606E-05-1.32931E-15
 -1      3385 1.01817E-03 1.15572E-04-1.07252E-15
 -1      3386 1.41640E-02 1.22859E-03-1.04459E-13
 -1      3387 1.41871E-02 1.27026E-03-1.04410E-13
 -1      3388 1.40750E-02 1.27023E-03-1.02823E-13
 -1      3389 1.40290E-02 1.18723E-03-1.02923E-13
 -1      3390 1.15206E-03 1.99207E-04-1.23526E-15
 -1      3391 1.02732E-03 1.70798E-04-1.02944E-15
 -1      3392 1.02228E-03 1.42732E-04-1.05252E-15
 -1      3393 9.00182E-03 2.33090E-04-4.23577E-14
 -1      3394 6.64519E-03-7.35720E-04-2.87656E-14
 -1      3395 4.57095E-03 1.19758E-04-1.87661E-14
 -1      3396 4.58914E-03 1.38133E-04-1.91828E-14
 -1      3397 4.54327E-03 1.41341E-04-1.86199E-14
 -1      3398 5.01929E-03-2.22581E-06-2.07310E-14
 -1      3399 4.88249E-03 7.07582E-06-1.98214E-14
 -1      3400 5.08793E-03-4.35660E-05-2.08193E-14
 -1      3401 6.18737E-03-5.78499E-04-2.57374E-14
 -1      3402 8.84270E-03 6.17556E-04-4.00681E-14
 -1      3403 8.96779E-03 5.98985E-04-4.11357E-14
 -1      3404 8.64894E-03 9.21282E-05-4.08727E-14
 -1      3405 5.43210E-03-1.60908E-04-2.23804E-14
 -1      3406 5.83208E-03-3.68780E-04-2.39828E-14
 -1      3407 5.69084E-03-3.27444E-04-2.31766E-14
 -1      3408 5.89352E-03-4.32157E-04-2.41421E-14
 -1      3409 8.34106E-03-5.99631E-05-3.95521E-14
 -1      3410 8.17295E-03-1.32863E-04-3.84073E-14
 -1      3411 8.08564E-03-1.99871E-04-3.82942E-14
 -1      3412 1.42549E-02 1.39827E-03-1.04210E-13
 -1      3413 1.42704E-02 1.45751E-03-1.03896E-13
 -1      3414 1.41636E-02 1.44665E-03-1.02483E-13
 -1      3415 1.41198E-02 1.35668E-03-1.02677E-13
 -1      3416 9.38075E-03 4.26084E-04-4.30734E-14
 -1      3417 9.38295E-03 4.01790E-04-4.25616E-14
 -1      3418 9.44230E-03 4.02794E-04-4.34358E-14
 -1      3419 1.38527E-02 7.50471E-04-1.04304E-13
 -1      3420 1.39041E-02 7.86531E-04-1.04717E-13
 -1      3421 1.37919E-02 7.87738E-04-1.03117E-13
 -1      3422 1.37298E-02 7.33568E-04-1.02709E-13
 -1      3423 5.11154E-03 3.29382E-04-2.02057E-14
 -1      3424 5.19391E-03 3.77095E-04-2.01092E-14
 -1      3425 4.97650E-03 2.95952E-04-1.94395E-14
 -1      3426 2.40048E-03 3.65360E-04-4.33030E-15
 -1      3427 2.25724E-03 3.64547E-04-3.84766E-15
 -1      3428 2.46018E-03 3.30529E-04-4.65249E-15
 -1      3429 5.56113E-03 5.37011E-04-2.14806E-14
 -1      3430 4.77807E-03 2.18015E-04-1.93405E-14
 -1      3431 2.17453E-03 3.28813E-04-3.68133E-15
 -1      3432 7.74922E-03-3.93814E-04-3.64364E-14
 -1      3433 1.55871E-03 3.38754E-04-1.89689E-15
 -1      3434 1.41513E-03 3.25571E-04-1.58289E-15
 -1      3435 1.37040E-03 2.96628E-04-1.53992E-15
 -1      3436 1.62005E-03 3.10571E-04-2.11415E-15
 -1      3437 9.38608E-03 3.65495E-04-4.23709E-14
 -1      3438 9.34351E-03 3.53796E-04-4.24355E-14
 -1      3439 9.40345E-03 3.59963E-04-4.36737E-14
 -1      3440 9.43164E-03 3.77454E-04-4.31727E-14
 -1      3441 1.01479E-03-8.67246E-05-1.15211E-15
 -1      3442 1.01784E-03-1.12929E-04-1.15183E-15
 -1      3443 1.14022E-03-1.36124E-04-1.39100E-15
 -1      3444 1.19763E-03-2.02713E-04-1.47334E-15
 -1      3445 1.07893E-03-2.04771E-04-1.22047E-15
 -1      3446 2.14340E-03-2.61666E-04-4.09163E-15
 -1      3447 2.28626E-03-2.63067E-04-4.59680E-15
 -1      3448 2.42893E-03-2.63353E-04-5.12998E-15
 -1      3449 2.57142E-03-2.62625E-04-5.69133E-15
 -1      3450 2.34815E-03-2.29272E-04-4.86773E-15
 -1      3451 2.71370E-03-2.61104E-04-6.27917E-15
 -1      3452 2.85581E-03-2.58889E-04-6.89435E-15
 -1      3453 2.63202E-03-2.27666E-04-5.98745E-15
 -1      3454 2.99773E-03-2.56188E-04-7.53625E-15
 -1      3455 3.13957E-03-2.53115E-04-8.20432E-15
 -1      3456 2.91468E-03-2.23154E-04-7.21518E-15
 -1      3457 3.28133E-03-2.49871E-04-8.89836E-15
 -1      3458 3.42318E-03-2.46605E-04-9.61761E-15
 -1      3459 3.19622E-03-2.16781E-04-8.54899E-15
 -1      3460 3.56520E-03-2.43515E-04-1.03617E-14
 -1      3461 3.70764E-03-2.40826E-04-1.11303E-14
 -1      3462 3.47711E-03-2.09624E-04-9.98434E-15
 -1      3463 3.85064E-03-2.38731E-04-1.19240E-14
 -1      3464 3.99457E-03-2.37596E-04-1.27410E-14
 -1      3465 3.75836E-03-2.02912E-04-1.15186E-14
 -1      3466 4.13972E-03-2.37607E-04-1.35811E-14
 -1      3467 4.28658E-03-2.39367E-04-1.44453E-14
 -1      3468 4.04178E-03-1.98229E-04-1.31494E-14
 -1      3469 4.43559E-03-2.43044E-04-1.53324E-14
 -1      3470 4.58735E-03-2.49666E-04-1.62422E-14
 -1      3471 4.33027E-03-1.97858E-04-1.48728E-14
 -1      3472 4.74256E-03-2.59365E-04-1.71755E-14
 -1      3473 4.90175E-03-2.73789E-04-1.81321E-14
 -1      3474 4.62821E-03-2.05452E-04-1.66898E-14
 -1      3475 5.06592E-03-2.93152E-04-1.91098E-14
 -1      3476 5.23491E-03-3.19670E-04-2.01111E-14
 -1      3477 4.94172E-03-2.27155E-04-1.85972E-14
 -1      3478 5.73712E-03-4.36927E-04-2.30413E-14
 -1      3479 5.92265E-03-4.95158E-04-2.41327E-14
 -1      3480 9.35314E-03 3.28072E-04-4.46572E-14
 -1      3481 9.24012E-03 2.98061E-04-4.39991E-14
 -1      3482 7.50770E-03-5.53096E-04-3.52245E-14
 -1      3483 7.68855E-03-4.69190E-04-3.65672E-14
 -1      3484 7.99535E-03-2.93989E-04-3.84273E-14
 -1      3485 8.18167E-03-2.13820E-04-3.98203E-14
 -1      3486 8.63069E-03-8.13552E-05-4.37246E-14
 -1      3487 8.79764E-03-3.35176E-05-4.51791E-14
 -1      3488 8.95983E-03 7.63660E-06-4.66524E-14
 -1      3489 9.11722E-03 4.44117E-05-4.81416E-14
 -1      3490 8.93937E-03 4.14276E-05-4.58816E-14
 -1      3491 9.27083E-03 7.68329E-05-4.96434E-14
 -1      3492 9.42119E-03 1.06342E-04-5.11583E-14
 -1      3493 9.24900E-03 1.08061E-04-4.88573E-14
 -1      3494 9.56894E-03 1.33133E-04-5.26879E-14
 -1      3495 9.71467E-03 1.58126E-04-5.42332E-14
 -1      3496 9.54390E-03 1.61683E-04-5.18882E-14
 -1      3497 9.85879E-03 1.81465E-04-5.57928E-14
 -1      3498 1.00018E-02 2.03692E-04-5.73672E-14
 -1      3499 9.82994E-03 2.08002E-04-5.49781E-14
 -1      3500 1.01438E-02 2.24949E-04-5.89552E-14
 -1      3501 1.02853E-02 2.45554E-04-6.05551E-14
 -1      3502 1.01112E-02 2.50199E-04-5.81249E-14
 -1      3503 1.04264E-02 2.65643E-04-6.21693E-14
 -1      3504 1.05673E-02 2.85395E-04-6.37958E-14
 -1      3505 1.03902E-02 2.90196E-04-6.13275E-14
 -1      3506 1.07080E-02 3.04929E-04-6.54358E-14
 -1      3507 1.08487E-02 3.24347E-04-6.70904E-14
 -1      3508 1.06687E-02 3.29199E-04-6.45808E-14
 -1      3509 1.09895E-02 3.43744E-04-6.87547E-14
 -1      3510 1.11304E-02 3.63173E-04-7.04291E-14
 -1      3511 1.09475E-02 3.67984E-04-6.78852E-14
 -1      3512 1.12713E-02 3.82707E-04-7.21149E-14
 -1      3513 1.14125E-02 4.02368E-04-7.38078E-14
 -1      3514 1.12272E-02 4.07058E-04-7.12349E-14
 -1      3515 1.15538E-02 4.22209E-04-7.55103E-14
 -1      3516 1.16952E-02 4.42232E-04-7.72211E-14
 -1      3517 1.15078E-02 4.46733E-04-7.46250E-14
 -1      3518 1.18368E-02 4.62469E-04-7.89407E-14
 -1      3519 1.19786E-02 4.82915E-04-8.06694E-14
 -1      3520 1.17894E-02 4.87181E-04-7.80470E-14
 -1      3521 1.21204E-02 5.03586E-04-8.24054E-14
 -1      3522 1.22625E-02 5.24469E-04-8.41486E-14
 -1      3523 1.20719E-02 5.28473E-04-8.15030E-14
 -1      3524 1.24046E-02 5.45570E-04-8.59017E-14
 -1      3525 1.25468E-02 5.66874E-04-8.76644E-14
 -1      3526 1.23552E-02 5.70608E-04-8.49931E-14
 -1      3527 1.26892E-02 5.88378E-04-8.94335E-14
 -1      3528 1.28316E-02 6.10066E-04-9.12120E-14
 -1      3529 1.26392E-02 6.13537E-04-8.85172E-14
 -1      3530 1.29741E-02 6.31930E-04-9.29964E-14
 -1      3531 1.31166E-02 6.53955E-04-9.47878E-14
 -1      3532 1.29236E-02 6.57184E-04-9.20721E-14
 -1      3533 1.32592E-02 6.76131E-04-9.65872E-14
 -1      3534 1.34019E-02 6.98441E-04-9.83941E-14
 -1      3535 1.32084E-02 7.01456E-04-9.56566E-14
 -1      3536 4.55080E-03 1.59412E-04-1.84013E-14
 -1      3537 4.59569E-03 1.75143E-04-1.84568E-14
 -1      3538 3.08331E-03 2.87689E-04-7.31736E-15
 -1      3539 2.94316E-03 2.90553E-04-6.69244E-15
 -1      3540 5.41077E-03 4.76124E-04-2.07147E-14
 -1      3541 4.18145E-03 2.77751E-04-1.32274E-14
 -1      3542 4.04603E-03 2.75395E-04-1.24032E-14
 -1      3543 3.91044E-03 2.74626E-04-1.16024E-14
 -1      3544 3.77419E-03 2.75186E-04-1.08261E-14
 -1      3545 3.94755E-03 2.43875E-04-1.20879E-14
 -1      3546 4.72800E-03 3.12326E-04-1.67580E-14
 -1      3547 4.58900E-03 2.98604E-04-1.58404E-14
 -1      3548 1.94978E-03 2.89754E-04-3.08054E-15
 -1      3549 1.80676E-03 2.84445E-04-2.67595E-15
 -1      3550 1.03204E-02 6.93514E-04-5.57618E-14
 -1      3551 1.01849E-02 6.70400E-04-5.41757E-14
 -1      3552 1.85740E-03-2.54701E-04-3.16564E-15
 -1      3553 2.00045E-03-2.58919E-04-3.61435E-15
 -1      3554 2.06330E-03-2.26889E-04-3.85853E-15
 -1      3555 1.00499E-02 6.48823E-04-5.26043E-14
 -1      3556 9.91492E-03 6.29076E-04-5.10478E-14
 -1      3557 1.01281E-02 6.28874E-04-5.34711E-14
 -1      3558 9.78000E-03 6.11481E-04-4.95040E-14
 -1      3559 9.64405E-03 5.96733E-04-4.79752E-14
 -1      3560 9.86825E-03 5.87765E-04-5.03594E-14
 -1      3561 1.05931E-02 7.43143E-04-5.89673E-14
 -1      3562 1.04564E-02 7.17812E-04-5.73581E-14
 -1      3563 1.03916E-02 6.75294E-04-5.66349E-14
 -1      3564 1.08682E-02 7.95852E-04-6.22216E-14
 -1      3565 1.07303E-02 7.69185E-04-6.05898E-14
 -1      3566 1.06591E-02 7.25426E-04-5.98506E-14
 -1      3567 1.11457E-02 8.50221E-04-6.55231E-14
 -1      3568 1.10066E-02 8.22881E-04-6.38656E-14
 -1      3569 1.09305E-02 7.77914E-04-6.31124E-14
 -1      3570 1.14252E-02 9.05207E-04-6.88757E-14
 -1      3571 1.12852E-02 8.77672E-04-6.71934E-14
 -1      3572 1.12051E-02 8.31664E-04-6.64242E-14
 -1      3573 1.17064E-02 9.60095E-04-7.22727E-14
 -1      3574 1.15656E-02 9.32686E-04-7.05693E-14
 -1      3575 1.14824E-02 8.85841E-04-6.97839E-14
 -1      3576 1.19888E-02 1.01443E-03-7.57071E-14
 -1      3577 1.18474E-02 9.87343E-04-7.39860E-14
 -1      3578 1.17618E-02 9.39861E-04-7.31889E-14
 -1      3579 1.22722E-02 1.06796E-03-7.91831E-14
 -1      3580 1.21304E-02 1.04130E-03-7.74400E-14
 -1      3581 1.20430E-02 9.93349E-04-7.66310E-14
 -1      3582 1.25563E-02 1.12058E-03-8.26976E-14
 -1      3583 1.24142E-02 1.09438E-03-8.09356E-14
 -1      3584 1.23254E-02 1.04610E-03-8.01143E-14
 -1      3585 1.28409E-02 1.17227E-03-8.62467E-14
 -1      3586 1.26985E-02 1.14654E-03-8.44694E-14
 -1      3587 1.26088E-02 1.09803E-03-8.36348E-14
 -1      3588 1.31259E-02 1.22310E-03-8.98172E-14
 -1      3589 1.29834E-02 1.19779E-03-8.80266E-14
 -1      3590 1.28929E-02 1.14913E-03-8.71853E-14
 -1      3591 1.34112E-02 1.27316E-03-9.34045E-14
 -1      3592 1.32685E-02 1.24822E-03-9.16102E-14
 -1      3593 1.31775E-02 1.19946E-03-9.07586E-14
 -1      3594 1.36966E-02 1.32254E-03-9.70007E-14
 -1      3595 1.35538E-02 1.29793E-03-9.52021E-14
 -1      3596 1.34625E-02 1.24910E-03-9.43469E-14
 -1      3597 9.09394E-03 5.98368E-04-4.23936E-14
 -1      3598 9.14175E-03 5.49056E-04-4.23578E-14
 -1      3599 9.26911E-03 5.25145E-04-4.33821E-14
 -1      3600 9.24840E-03 5.90615E-04-4.38720E-14
 -1      3601 1.38028E-02 9.81504E-04-1.01560E-13
 -1      3602 1.38254E-02 1.02220E-03-1.01518E-13
 -1      3603 8.74867E-03 1.10175E-04-4.19771E-14
 -1      3604 8.54951E-03 3.35523E-05-4.07578E-14
 -1      3605 8.45799E-03-2.80529E-05-4.06423E-14
 -1      3606 7.38861E-03-5.98225E-04-3.42274E-14
 -1      3607 7.83346E-03-3.70650E-04-3.72985E-14
 -1      3608 4.69791E-03 5.04474E-05-1.89237E-14
 -1      3609 4.61747E-03 8.49736E-05-1.87253E-14
 -1      3610 9.52122E-03 5.92645E-04-4.66639E-14
 -1      3611 9.38013E-03 5.85458E-04-4.51591E-14
 -1      3612 9.38380E-03 5.54341E-04-4.49110E-14
 -1      3613 9.62387E-03 5.61579E-04-4.75102E-14
 -1      3614 1.01104E-03-3.60463E-05-1.14543E-15
 -1      3615 1.01252E-03-6.11513E-05-1.14980E-15
 -1      3616 1.13318E-03-7.96786E-05-1.39121E-15
 -1      3617 9.10927E-03 2.46528E-04-4.37306E-14
 -1      3618 8.96755E-03 1.82746E-04-4.34602E-14
 -1      3619 9.21610E-03 2.56658E-04-4.51180E-14
 -1      3620 4.45249E-03 2.88890E-04-1.49463E-14
 -1      3621 4.31663E-03 2.82050E-04-1.40750E-14
 -1      3622 4.20932E-03 2.47420E-04-1.37395E-14
 -1      3623 4.46846E-03 2.57714E-04-1.54839E-14
 -1      3624 2.23530E-03 2.95523E-04-3.97455E-15
 -1      3625 2.09263E-03 2.93405E-04-3.51332E-15
 -1      3626 2.01173E-03 2.58338E-04-3.34472E-15
 -1      3627 4.66996E-03 2.02467E-04-1.84867E-14
 -1      3628 4.77685E-03 2.36830E-04-1.86748E-14
 -1      3629 6.06034E-03-5.36910E-04-2.49588E-14
 -1      3630 5.44200E-03-2.17506E-04-2.20242E-14
 -1      3631 5.26848E-03-1.28699E-04-2.14024E-14
 -1      3632 1.57147E-03-2.41018E-04-2.35437E-15
 -1      3633 1.71439E-03-2.48782E-04-2.74557E-15
 -1      3634 1.77796E-03-2.19353E-04-2.96178E-15
 -1      3635 1.27837E-03 2.27788E-04-1.45822E-15
 -1      3636 1.27091E-03 1.95042E-04-1.49204E-15
 -1      3637 9.01272E-03 1.56963E-04-4.47192E-14
 -1      3638 8.88292E-03 1.36962E-04-4.33409E-14
 -1      3639 8.79918E-03 8.72014E-05-4.32201E-14
 -1      3640 9.51668E-03 4.15381E-04-4.47504E-14
 -1      3641 9.49122E-03 3.96761E-04-4.42280E-14
 -1      3642 2.51969E-03 2.96102E-04-4.97967E-15
 -1      3643 2.37765E-03 2.96386E-04-4.46344E-15
 -1      3644 2.29617E-03 2.62459E-04-4.27327E-15
 -1      3645 1.32027E-03-2.17578E-04-1.74027E-15
 -1      3646 1.44791E-03-2.29042E-04-2.04251E-15
 -1      3647 1.51211E-03-2.03017E-04-2.23140E-15
 -1      3648 1.26690E-03-1.79146E-04-1.64601E-15
 -1      3649 5.60989E-03-4.06440E-04-2.22872E-14
 -1      3650 5.62499E-03-3.57671E-04-2.25753E-14
 -1      3651 5.56191E-03-2.95033E-04-2.24246E-14
 -1      3652 5.43026E-03-3.62962E-04-2.12353E-14
 -1      3653 4.74706E-03 2.44639E-05-1.90097E-14
 -1      3654 4.62293E-03 3.45584E-05-1.82123E-14
 -1      3655 4.79894E-03-5.31267E-06-1.90939E-14
 -1      3656 5.11812E-03 3.81846E-04-1.91980E-14
 -1      3657 5.26911E-03 4.27942E-04-1.99623E-14
 -1      3658 1.14062E-03 1.39049E-04-1.28825E-15
 -1      3659 8.40392E-03-8.83241E-05-4.09390E-14
 -1      3660 8.34070E-03-1.75914E-04-4.13200E-14
 -1      3661 8.51647E-03-1.15200E-04-4.27475E-14
 -1      3662 8.59894E-03-3.38471E-06-4.21596E-14
 -1      3663 4.57817E-03 1.88983E-04-1.78087E-14
 -1      3664 4.49772E-03 1.44134E-04-1.79974E-14
 -1      3665 4.45543E-03 1.48456E-04-1.73822E-14
 -1      3666 4.45402E-03 1.28587E-04-1.75950E-14
 -1      3667 1.35044E-02 7.07566E-04-9.97574E-14
 -1      3668 1.36272E-02 7.24350E-04-1.01341E-13
 -1      3669 1.36583E-02 7.51396E-04-1.01545E-13
 -1      3670 1.34534E-02 7.32963E-04-9.88167E-14
 -1      3671 2.85960E-03 2.58944E-04-6.45919E-15
 -1      3672 2.80251E-03 2.93001E-04-6.09438E-15
 -1      3673 2.66131E-03 2.94942E-04-5.52352E-15
 -1      3674 1.36894E-02 7.78428E-04-1.01749E-13
 -1      3675 3.68168E-03 2.44920E-04-1.05311E-14
 -1      3676 3.63741E-03 2.76692E-04-1.00747E-14
 -1      3677 3.49987E-03 2.78984E-04-9.34692E-15
 -1      3678 1.72645E-03 2.48417E-04-2.52875E-15
 -1      3679 1.66372E-03 2.77192E-04-2.29970E-15
 -1      3680 5.01734E-03 3.55751E-04-1.86593E-14
 -1      3681 4.86983E-03 3.30195E-04-1.76976E-14
 -1      3682 1.35789E-02 7.83729E-04-1.00143E-13
 -1      3683 1.37124E-02 8.20044E-04-1.01710E-13
 -1      3684 1.37354E-02 8.61596E-04-1.01669E-13
 -1      3685 1.37138E-02 1.02299E-03-9.99286E-14
 -1      3686 1.38484E-02 1.06358E-03-1.01473E-13
 -1      3687 1.38714E-02 1.10497E-03-1.01429E-13
 -1      3688 9.49630E-03 3.89127E-04-4.44816E-14
 -1      3689 1.38033E-02 1.33368E-03-9.84123E-14
 -1      3690 1.37118E-02 1.28485E-03-9.75533E-14
 -1      3691 1.39101E-02 1.34472E-03-9.98218E-14
 -1      3692 1.12975E-03-2.53831E-05-1.38054E-15
 -1      3693 9.38183E-03 4.81330E-04-4.40211E-14
 -1      3694 9.38033E-03 4.51904E-04-4.35464E-14
 -1      3695 9.46163E-03 4.47303E-04-4.44302E-14
 -1      3696 8.66621E-03-2.83054E-05-4.34326E-14
 -1      3697 1.25542E-03 1.02642E-04-1.57158E-15
 -1      3698 1.25243E-03 7.33976E-05-1.59204E-15
 -1      3699 1.39400E-02 1.22875E-03-1.01287E-13
 -1      3700 1.39629E-02 1.27021E-03-1.01239E-13
 -1      3701 1.37212E-03 6.20601E-05-1.87782E-15
 -1      3702 1.25043E-03 4.44728E-05-1.60946E-15
 -1      3703 1.24943E-03 1.58070E-05-1.62418E-15
 -1      3704 4.53425E-03 9.67396E-05-1.81738E-14
 -1      3705 4.46374E-03 1.04672E-04-1.76269E-14
 -1      3706 4.49399E-03 7.10421E-05-1.75854E-14
 -1      3707 5.10755E-03-1.00859E-04-2.04770E-14
 -1      3708 9.49048E-03 3.79597E-04-4.47337E-14
 -1      3709 9.47386E-03 3.69120E-04-4.49841E-14
 -1      3710 9.56882E-03 3.99684E-04-4.58022E-14
 -1      3711 1.40717E-02 1.39765E-03-1.01629E-13
 -1      3712 1.37576E-02 9.00863E-04-1.01635E-13
 -1      3713 1.37806E-02 9.42312E-04-1.01594E-13
 -1      3714 1.36686E-02 9.42651E-04-1.00006E-13
 -1      3715 1.36242E-02 8.64411E-04-1.00072E-13
 -1      3716 1.53904E-03 2.72806E-04-1.98812E-15
 -1      3717 1.25667E-03-1.17488E-04-1.65349E-15
 -1      3718 1.26122E-03-1.47884E-04-1.65155E-15
 -1      3719 1.38296E-03-1.58853E-04-1.93376E-15
 -1      3720 3.36171E-03 2.81692E-04-8.64482E-15
 -1      3721 3.22280E-03 2.84704E-04-7.96840E-15
 -1      3722 3.13730E-03 2.54028E-04-7.71365E-15
 -1      3723 3.41150E-03 2.48855E-04-9.07245E-15
 -1      3724 5.29860E-03-2.82497E-04-2.06932E-14
 -1      3725 5.39050E-03-2.57272E-04-2.14399E-14
 -1      3726 9.47033E-03 3.54296E-04-4.57254E-14
 -1      3727 9.46241E-03 3.35121E-04-4.64671E-14
 -1      3728 9.57496E-03 3.77161E-04-4.68033E-14
 -1      3729 4.72894E-03 2.77972E-04-1.73192E-14
 -1      3730 1.38232E-02 1.26227E-03-9.93334E-14
 -1      3731 1.39582E-02 1.30394E-03-1.00870E-13
 -1      3732 9.53630E-03 4.35382E-04-4.52331E-14
 -1      3733 9.59509E-03 4.27925E-04-4.60356E-14
 -1      3734 9.55303E-03 4.58452E-04-4.57161E-14
 -1      3735 2.26862E-03-1.95663E-04-4.60911E-15
 -1      3736 2.41035E-03-1.95595E-04-5.14047E-15
 -1      3737 1.04580E-02 6.58760E-04-5.75071E-14
 -1      3738 1.03281E-02 6.34739E-04-5.59137E-14
 -1      3739 5.19367E-03-2.16408E-04-2.03140E-14
 -1      3740 1.32656E-03 2.68521E-04-1.49474E-15
 -1      3741 1.44539E-03 2.62292E-04-1.77991E-15
 -1      3742 2.55170E-03-1.94699E-04-5.69920E-15
 -1      3743 2.69268E-03-1.93025E-04-6.28505E-15
 -1      3744 2.47282E-03-1.62116E-04-5.41465E-15
 -1      3745 2.83321E-03-1.90737E-04-6.89791E-15
 -1      3746 2.97333E-03-1.87880E-04-7.53748E-15
 -1      3747 2.75342E-03-1.58784E-04-6.58380E-15
 -1      3748 3.11299E-03-1.84610E-04-8.20288E-15
 -1      3749 3.25230E-03-1.80981E-04-8.89409E-15
 -1      3750 3.03179E-03-1.53146E-04-7.86000E-15
 -1      3751 3.39124E-03-1.77136E-04-9.61045E-15
 -1      3752 3.53000E-03-1.73161E-04-1.03511E-14
 -1      3753 3.30783E-03-1.45785E-04-9.23937E-15
 -1      3754 3.66862E-03-1.69187E-04-1.11171E-14
 -1      3755 3.80742E-03-1.65381E-04-1.19066E-14
 -1      3756 3.58186E-03-1.37262E-04-1.07185E-14
 -1      3757 3.94651E-03-1.61852E-04-1.27203E-14
 -1      3758 4.08641E-03-1.58947E-04-1.35571E-14
 -1      3759 3.85477E-03-1.28237E-04-1.22946E-14
 -1      3760 4.22734E-03-1.56746E-04-1.44167E-14
 -1      3761 4.37012E-03-1.55969E-04-1.53001E-14
 -1      3762 4.12832E-03-1.19701E-04-1.39644E-14
 -1      3763 4.51508E-03-1.56599E-04-1.62063E-14
 -1      3764 4.66344E-03-1.60083E-04-1.71357E-14
 -1      3765 4.40574E-03-1.13442E-04-1.57268E-14
 -1      3766 4.81596E-03-1.66474E-04-1.80869E-14
 -1      3767 4.97375E-03-1.78285E-04-1.90607E-14
 -1      3768 4.69252E-03-1.12990E-04-1.75799E-14
 -1      3769 4.95400E-03 3.13206E-04-1.88037E-14
 -1      3770 1.26460E-03 1.63362E-04-1.52202E-15
 -1      3771 1.25948E-03 1.32566E-04-1.54846E-15
 -1      3772 1.37874E-03 1.23770E-04-1.83227E-15
 -1      3773 1.38996E-03 1.88117E-04-1.77301E-15
 -1      3774 8.74638E-03 3.11732E-05-4.35216E-14
 -1      3775 9.23269E-03 1.40323E-04-4.80709E-14
 -1      3776 9.37925E-03 1.66605E-04-4.95734E-14
 -1      3777 9.52267E-03 1.90474E-04-5.10894E-14
 -1      3778 9.66409E-03 2.13038E-04-5.26193E-14
 -1      3779 9.50559E-03 2.19700E-04-5.02909E-14
 -1      3780 9.80377E-03 2.34316E-04-5.41647E-14
 -1      3781 9.94250E-03 2.54925E-04-5.57245E-14
 -1      3782 9.78041E-03 2.60487E-04-5.33530E-14
 -1      3783 1.00804E-02 2.74924E-04-5.72989E-14
 -1      3784 1.02180E-02 2.94614E-04-5.88861E-14
 -1      3785 1.00516E-02 2.99159E-04-5.64729E-14
 -1      3786 1.03554E-02 3.14064E-04-6.04865E-14
 -1      3787 1.04929E-02 3.33408E-04-6.20996E-14
 -1      3788 1.03220E-02 3.37245E-04-5.96462E-14
 -1      3789 1.06305E-02 3.52721E-04-6.37259E-14
 -1      3790 1.07683E-02 3.72055E-04-6.53658E-14
 -1      3791 1.05933E-02 3.75476E-04-6.28738E-14
 -1      3792 1.09064E-02 3.91482E-04-6.70189E-14
 -1      3793 1.10449E-02 4.11016E-04-6.86816E-14
 -1      3794 1.08661E-02 4.14211E-04-6.61529E-14
 -1      3795 1.11837E-02 4.30715E-04-7.03572E-14
 -1      3796 1.13229E-02 4.50574E-04-7.20430E-14
 -1      3797 1.11408E-02 4.53647E-04-6.94798E-14
 -1      3798 1.14624E-02 4.70637E-04-7.37363E-14
 -1      3799 1.16023E-02 4.90888E-04-7.54395E-14
 -1      3800 1.14174E-02 4.93888E-04-7.28493E-14
 -1      3801 1.17425E-02 5.11358E-04-7.71529E-14
 -1      3802 1.18830E-02 5.32026E-04-7.88741E-14
 -1      3803 1.16959E-02 5.34967E-04-7.62579E-14
 -1      3804 1.20238E-02 5.52912E-04-8.06033E-14
 -1      3805 1.21648E-02 5.73993E-04-8.23390E-14
 -1      3806 1.19759E-02 5.76871E-04-7.97023E-14
 -1      3807 1.23061E-02 5.95280E-04-8.40845E-14
 -1      3808 1.24477E-02 6.16749E-04-8.58393E-14
 -1      3809 1.22573E-02 6.19556E-04-8.31769E-14
 -1      3810 1.25894E-02 6.38405E-04-8.76000E-14
 -1      3811 1.27313E-02 6.60226E-04-8.93710E-14
 -1      3812 1.25398E-02 6.62954E-04-8.66861E-14
 -1      3813 1.28733E-02 6.82210E-04-9.11504E-14
 -1      3814 1.30155E-02 7.04339E-04-9.29348E-14
 -1      3815 1.28232E-02 7.06985E-04-9.02274E-14
 -1      3816 1.31578E-02 7.26607E-04-9.47269E-14
 -1      3817 1.33002E-02 7.48998E-04-9.65243E-14
 -1      3818 1.31072E-02 7.51563E-04-9.37988E-14
 -1      3819 1.34765E-02 7.74438E-04-9.87793E-14
 -1      3820 1.50524E-03-1.68916E-04-2.23755E-15
 -1      3821 1.62797E-03-1.78105E-04-2.56288E-15
 -1      3822 1.49959E-03-1.35620E-04-2.24003E-15
 -1      3823 1.78979E-03 2.19286E-04-2.76405E-15
 -1      3824 1.64747E-03 2.13270E-04-2.38069E-15
 -1      3825 1.39800E-02 1.34875E-03-1.00773E-13
 -1      3826 1.37214E-02 1.21777E-03-9.82933E-14
 -1      3827 1.37166E-02 1.25129E-03-9.79252E-14
 -1      3828 1.36100E-02 1.24023E-03-9.65150E-14
 -1      3829 1.49049E-03 2.31608E-04-1.94450E-15
 -1      3830 1.25061E-03-5.87375E-05-1.64745E-15
 -1      3831 1.25312E-03-8.78390E-05-1.65209E-15
 -1      3832 1.37382E-03-9.56549E-05-1.93454E-15
 -1      3833 2.07416E-03 2.26906E-04-3.61496E-15
 -1      3834 1.93205E-03 2.23795E-04-3.17557E-15
 -1      3835 1.85366E-03 1.89823E-04-3.00633E-15
 -1      3836 4.88711E-03 2.76397E-04-1.88992E-14
 -1      3837 1.98441E-03-1.92732E-04-3.62927E-15
 -1      3838 2.12663E-03-1.94733E-04-4.10525E-15
 -1      3839 2.19040E-03-1.62505E-04-4.35409E-15
 -1      3840 1.01999E-02 6.11685E-04-5.43337E-14
 -1      3841 1.00731E-02 5.89516E-04-5.27667E-14
 -1      3842 1.02655E-02 5.96168E-04-5.51952E-14
 -1      3843 9.94813E-03 5.68602E-04-5.12137E-14
 -1      3844 9.82437E-03 5.48840E-04-4.96745E-14
 -1      3845 1.00194E-02 5.52349E-04-5.20662E-14
 -1      3846 1.09901E-02 7.60610E-04-6.40031E-14
 -1      3847 1.08553E-02 7.34467E-04-6.23610E-14
 -1      3848 1.12625E-02 8.13492E-04-6.73248E-14
 -1      3849 1.11258E-02 7.86948E-04-6.56579E-14
 -1      3850 1.10472E-02 7.43551E-04-6.48935E-14
 -1      3851 1.15381E-02 8.66702E-04-7.06926E-14
 -1      3852 1.13999E-02 8.40073E-04-6.90025E-14
 -1      3853 1.13181E-02 7.95415E-04-6.82246E-14
 -1      3854 1.18163E-02 9.19751E-04-7.41042E-14
 -1      3855 1.16769E-02 8.93257E-04-7.23949E-14
 -1      3856 1.15925E-02 8.47571E-04-7.16015E-14
 -1      3857 1.20965E-02 9.72327E-04-7.75561E-14
 -1      3858 1.19562E-02 9.46103E-04-7.58249E-14
 -1      3859 1.18698E-02 8.99603E-04-7.50209E-14
 -1      3860 1.23781E-02 1.02425E-03-8.10421E-14
 -1      3861 1.22371E-02 9.98372E-04-7.92931E-14
 -1      3862 1.21493E-02 9.51242E-04-7.84771E-14
 -1      3863 1.26610E-02 1.07547E-03-8.45700E-14
 -1      3864 1.25194E-02 1.04995E-03-8.28008E-14
 -1      3865 1.24304E-02 1.00234E-03-8.19713E-14
 -1      3866 1.29447E-02 1.12596E-03-8.81224E-14
 -1      3867 1.28027E-02 1.10080E-03-8.63451E-14
 -1      3868 1.27128E-02 1.05283E-03-8.55015E-14
 -1      3869 1.32290E-02 1.17579E-03-9.16984E-14
 -1      3870 1.30868E-02 1.15095E-03-8.99065E-14
 -1      3871 1.29962E-02 1.10272E-03-8.90592E-14
 -1      3872 1.34906E-02 1.22040E-03-9.50013E-14
 -1      3873 1.33482E-02 1.19583E-03-9.32062E-14
 -1      3874 1.32572E-02 1.14742E-03-9.23521E-14
 -1      3875 1.34956E-02 1.18709E-03-9.53705E-14
 -1      3876 9.37618E-03 5.31584E-04-4.45907E-14
 -1      3877 9.38497E-03 5.02332E-04-4.43423E-14
 -1      3878 9.47704E-03 4.92832E-04-4.52328E-14
 -1      3879 9.49481E-03 5.34434E-04-4.58810E-14
 -1      3880 1.38942E-02 1.14614E-03-1.01382E-13
 -1      3881 1.39172E-02 1.18750E-03-1.01334E-13
 -1      3882 1.38052E-02 1.18748E-03-9.97483E-14
 -1      3883 1.37596E-02 1.10529E-03-9.98387E-14
 -1      3884 8.85468E-03 5.73098E-05-4.45071E-14
 -1      3885 9.64626E-03 4.20527E-04-4.69278E-14
 -1      3886 9.64924E-03 4.10109E-04-4.71827E-14
 -1      3887 1.56497E-03 2.05423E-04-2.17755E-15
 -1      3888 1.47210E-03 1.96916E-04-1.95753E-15
 -1      3889 1.46549E-03 1.63420E-04-1.99144E-15
 -1      3890 1.62952E-03 1.78270E-04-2.39208E-15
 -1      3891 4.46774E-03 1.73418E-04-1.69937E-14
 -1      3892 4.53209E-03 2.00912E-04-1.70192E-14
 -1      3893 9.36378E-03 2.87037E-04-4.65167E-14
 -1      3894 9.25026E-03 2.36859E-04-4.62373E-14
 -1      3895 1.07216E-02 7.08743E-04-6.07310E-14
 -1      3896 1.05891E-02 6.83413E-04-5.91127E-14
 -1      3897 1.05198E-02 6.43164E-04-5.83777E-14
 -1      3898 1.07807E-02 6.92561E-04-6.16100E-14
 -1      3899 4.75466E-03 2.53535E-04-1.80529E-14
 -1      3900 3.98326E-03 2.15152E-04-1.25752E-14
 -1      3901 3.85486E-03 2.14648E-04-1.17709E-14
 -1      3902 1.24892E-03-7.06657E-06-1.63300E-15
 -1      3903 1.24969E-03-3.56517E-05-1.64257E-15
 -1      3904 1.36975E-03-4.06470E-05-1.92400E-15
 -1      3905 1.36954E-03 7.63936E-06-1.90721E-15
 -1      3906 5.05147E-03-1.44098E-04-1.97774E-14
 -1      3907 4.89767E-03-7.30203E-05-1.92216E-14
 -1      3908 9.01301E-03 9.38135E-05-4.59739E-14
 -1      3909 1.73497E-03-1.84161E-04-2.86400E-15
 -1      3910 1.87726E-03-1.88329E-04-3.29070E-15
 -1      3911 1.94191E-03-1.57794E-04-3.51614E-15
 -1      3912 1.72839E-03-1.48966E-04-2.86632E-15
 -1      3913 4.63189E-03 2.42626E-04-1.71083E-14
 -1      3914 4.49840E-03 2.21663E-04-1.63097E-14
 -1      3915 1.34256E-02 7.99563E-04-9.78428E-14
 -1      3916 2.35734E-03 2.29701E-04-4.57769E-15
 -1      3917 2.21595E-03 2.28848E-04-4.08224E-15
 -1      3918 2.13703E-03 1.95525E-04-3.89147E-15
 -1      3919 3.19090E-03 2.21598E-04-8.11416E-15
 -1      3920 3.05422E-03 2.23799E-04-7.45794E-15
 -1      3921 9.78287E-03 5.12278E-04-4.89886E-14
 -1      3922 9.70247E-03 5.30624E-04-4.81466E-14
 -1      3923 9.49734E-03 3.20384E-04-4.76027E-14
 -1      3924 4.54384E-03 1.15627E-05-1.74395E-14
 -1      3925 4.50679E-03 3.38128E-05-1.73579E-14
 -1      3926 4.23489E-03 2.19337E-04-1.42530E-14
 -1      3927 4.10979E-03 2.16791E-04-1.34026E-14
 -1      3928 4.01817E-03 1.88457E-04-1.30644E-14
 -1      3929 4.39828E-03 1.56370E-04-1.66073E-14
 -1      3930 9.15611E-03 1.59286E-04-4.66731E-14
 -1      3931 2.57902E-03 2.62205E-04-5.31168E-15
 -1      3932 4.39828E-03 1.08903E-04-1.70217E-14
 -1      3933 3.72502E-03 2.14933E-04-1.09904E-14
 -1      3934 3.59353E-03 2.16018E-04-1.02347E-14
 -1      3935 3.76787E-03 1.86787E-04-1.14535E-14
 -1      3936 1.36987E-02 1.17668E-03-9.83397E-14
 -1      3937 1.35922E-02 1.16579E-03-9.69307E-14
 -1      3938 1.36759E-02 1.13566E-03-9.83827E-14
 -1      3939 1.35791E-02 9.82175E-04-9.83884E-14
 -1      3940 1.36021E-02 1.02331E-03-9.83446E-14
 -1      3941 2.97348E-03 1.93694E-04-7.20188E-15
 -1      3942 2.91653E-03 2.25814E-04-6.82859E-15
 -1      3943 2.77787E-03 2.27613E-04-6.22556E-15
 -1      3944 1.49479E-03 8.07511E-05-2.16480E-15
 -1      3945 1.49241E-03 4.90206E-05-2.18682E-15
 -1      3946 9.68312E-03 4.39638E-04-4.74216E-14
 -1      3947 4.41831E-03 4.92629E-05-1.68275E-14
 -1      3948 9.76410E-03 4.21244E-04-4.90787E-14
 -1      3949 9.67128E-03 3.98864E-04-4.79359E-14
 -1      3950 9.68611E-03 3.85291E-04-4.86900E-14
 -1      3951 4.75428E-03-4.98157E-05-1.84216E-14
 -1      3952 1.48158E-03 1.38070E-04-2.06610E-15
 -1      3953 1.47708E-03 1.05744E-04-2.09366E-15
 -1      3954 1.59706E-03 9.31268E-05-2.42047E-15
 -1      3955 1.56324E-03 1.44941E-04-2.26628E-15
 -1      3956 4.37896E-03 2.16041E-04-1.54066E-14
 -1      3957 1.35346E-02 9.04278E-04-9.84544E-14
 -1      3958 1.35569E-02 9.43240E-04-9.84211E-14
 -1      3959 1.34453E-02 9.43710E-04-9.68397E-14
 -1      3960 9.59376E-03 5.21292E-04-4.68389E-14
 -1      3961 3.32638E-03 2.19507E-04-8.79592E-15
 -1      3962 3.24438E-03 1.90474E-04-8.51858E-15
 -1      3963 3.46067E-03 2.17537E-04-9.50332E-15
 -1      3964 9.63686E-03 3.53415E-04-4.88804E-14
 -1      3965 9.55609E-03 3.08816E-04-4.89270E-14
 -1      3966 4.61556E-03-5.13416E-05-1.74659E-14
 -1      3967 4.48522E-03-4.59594E-05-1.66274E-14
 -1      3968 2.67541E-03-1.27261E-04-6.27370E-15
 -1      3969 2.81444E-03-1.25020E-04-6.88371E-15
 -1      3970 2.95273E-03-1.22292E-04-7.52049E-15
 -1      3971 3.09029E-03-1.19054E-04-8.18353E-15
 -1      3972 2.87581E-03-9.18142E-05-7.18434E-15
 -1      3973 3.22705E-03-1.15414E-04-8.87162E-15
 -1      3974 3.36309E-03-1.11341E-04-9.58513E-15
 -1      3975 3.14894E-03-8.56893E-05-8.50714E-15
 -1      3976 3.49832E-03-1.06934E-04-1.03235E-14
 -1      3977 3.63296E-03-1.02168E-04-1.10858E-14
 -1      3978 3.41817E-03-7.77360E-05-9.93144E-15
 -1      3979 3.76691E-03-9.71271E-05-1.18717E-14
 -1      3980 3.90057E-03-9.18759E-05-1.26821E-14
 -1      3981 3.68338E-03-6.79418E-05-1.14528E-14
 -1      3982 4.03381E-03-8.64860E-05-1.35154E-14
 -1      3983 4.16737E-03-8.11368E-05-1.43712E-14
 -1      3984 3.94488E-03-5.63590E-05-1.30693E-14
 -1      3985 4.26088E-03-6.66771E-05-1.50366E-14
 -1      3986 4.39421E-03-6.12196E-05-1.59330E-14
 -1      3987 4.34149E-03-4.53175E-06-1.59110E-14
 -1      3988 4.16581E-03-3.53585E-05-1.45663E-14
 -1      3989 9.75982E-03 2.85961E-04-5.25411E-14
 -1      3990 9.89232E-03 3.04285E-04-5.40871E-14
 -1      3991 1.00245E-02 3.22548E-04-5.56468E-14
 -1      3992 1.01570E-02 3.40952E-04-5.72211E-14
 -1      3993 9.99903E-03 3.45054E-04-5.48227E-14
 -1      3994 1.02897E-02 3.59530E-04-5.88084E-14
 -1      3995 1.04230E-02 3.78310E-04-6.04079E-14
 -1      3996 1.02584E-02 3.80870E-04-5.79690E-14
 -1      3997 1.05568E-02 3.97337E-04-6.20222E-14
 -1      3998 1.06912E-02 4.16581E-04-6.36489E-14
 -1      3999 1.05209E-02 4.18256E-04-6.11711E-14
 -1      4000 1.08263E-02 4.36085E-04-6.52877E-14
 -1      4001 1.09620E-02 4.55808E-04-6.69399E-14
 -1      4002 1.07868E-02 4.57064E-04-6.44247E-14
 -1      4003 1.10983E-02 4.75792E-04-6.86028E-14
 -1      4004 1.12353E-02 4.95989E-04-7.02780E-14
 -1      4005 1.10561E-02 4.97112E-04-6.77272E-14
 -1      4006 1.13728E-02 5.16435E-04-7.19628E-14
 -1      4007 1.15110E-02 5.37084E-04-7.36562E-14
 -1      4008 1.13284E-02 5.38246E-04-7.10756E-14
 -1      4009 1.16496E-02 5.57965E-04-7.53625E-14
 -1      4010 1.17887E-02 5.79033E-04-7.70784E-14
 -1      4011 1.16035E-02 5.80320E-04-7.44685E-14
 -1      4012 1.19283E-02 6.00313E-04-7.87995E-14
 -1      4013 1.20683E-02 6.21764E-04-8.05303E-14
 -1      4014 1.18809E-02 6.23206E-04-7.78980E-14
 -1      4015 1.22087E-02 6.43403E-04-8.22695E-14
 -1      4016 1.23494E-02 6.65197E-04-8.40161E-14
 -1      4017 1.21602E-02 6.66794E-04-8.13607E-14
 -1      4018 1.24904E-02 6.87155E-04-8.57710E-14
 -1      4019 1.26317E-02 7.09248E-04-8.75344E-14
 -1      4020 1.24411E-02 7.10982E-04-8.48556E-14
 -1      4021 1.27732E-02 7.31482E-04-8.93050E-14
 -1      4022 1.29149E-02 7.53833E-04-9.10847E-14
 -1      4023 1.27233E-02 7.55680E-04-8.83842E-14
 -1      4024 1.30568E-02 7.76301E-04-9.28720E-14
 -1      4025 1.31989E-02 7.98869E-04-9.46632E-14
 -1      4026 1.30065E-02 8.00804E-04-9.19433E-14
 -1      4027 1.49508E-03-1.03053E-04-2.23850E-15
 -1      4028 1.61681E-03-1.09980E-04-2.56343E-15
 -1      4029 1.49175E-03-7.10303E-05-2.23293E-15
 -1      4030 1.16457E-02 8.28383E-04-7.25090E-14
 -1      4031 1.15084E-02 8.02833E-04-7.08104E-14
 -1      4032 1.03252E-02 5.81889E-04-5.60541E-14
 -1      4033 1.02025E-02 5.59644E-04-5.44780E-14
 -1      4034 1.00824E-02 5.38375E-04-5.29164E-14
 -1      4035 9.96512E-03 5.17659E-04-5.13676E-14
 -1      4036 1.01383E-02 5.25172E-04-5.37654E-14
 -1      4037 1.13719E-02 7.77343E-04-6.91222E-14
 -1      4038 1.12364E-02 7.51885E-04-6.74472E-14
 -1      4039 1.14243E-02 7.59049E-04-7.00212E-14
 -1      4040 1.11020E-02 7.26609E-04-6.57825E-14
 -1      4041 1.09686E-02 7.01477E-04-6.41294E-14
 -1      4042 1.11547E-02 7.09477E-04-6.66718E-14
 -1      4043 1.19224E-02 8.79366E-04-7.59355E-14
 -1      4044 1.17837E-02 8.53887E-04-7.42167E-14
 -1      4045 1.16977E-02 8.08968E-04-7.34157E-14
 -1      4046 1.22014E-02 9.30056E-04-7.93978E-14
 -1      4047 1.20616E-02 9.04750E-04-7.76629E-14
 -1      4048 1.19741E-02 8.58914E-04-7.68500E-14
 -1      4049 1.24822E-02 9.80320E-04-8.29009E-14
 -1      4050 1.23416E-02 9.55240E-04-8.11450E-14
 -1      4051 1.22530E-02 9.08675E-04-8.03216E-14
 -1      4052 1.27644E-02 1.03010E-03-8.64334E-14
 -1      4053 1.26231E-02 1.00527E-03-8.46621E-14
 -1      4054 1.25336E-02 9.58128E-04-8.38265E-14
 -1      4055 1.30476E-02 1.07939E-03-8.99929E-14
 -1      4056 1.29059E-02 1.05480E-03-8.82113E-14
 -1      4057 1.28157E-02 1.00722E-03-8.73642E-14
 -1      4058 1.36276E-02 1.05898E-03-9.83880E-14
 -1      4059 1.36504E-02 1.09991E-03-9.83418E-14
 -1      4060 1.35440E-02 1.08922E-03-9.69345E-14
 -1      4061 1.34930E-02 1.01804E-03-9.68498E-14
 -1      4062 4.31773E-03 3.14382E-05-1.59588E-14
 -1      4063 4.32129E-03 6.49141E-05-1.61773E-14
 -1      4064 4.28078E-03 1.86989E-04-1.50441E-14
 -1      4065 9.38156E-03 2.34139E-04-4.82157E-14
 -1      4066 9.22406E-03 1.98116E-04-4.68005E-14
 -1      4067 1.34479E-02 8.38601E-04-9.78111E-14
 -1      4068 1.61308E-03 4.10746E-05-2.51302E-15
 -1      4069 1.49095E-03 2.38051E-05-2.20086E-15
 -1      4070 1.49027E-03-1.35001E-06-2.21271E-15
 -1      4071 4.30584E-03 9.40992E-05-1.61516E-14
 -1      4072 4.30613E-03 1.19091E-04-1.61199E-14
 -1      4073 4.20712E-03 7.88113E-05-1.53028E-14
 -1      4074 4.29415E-03 1.44091E-04-1.57502E-14
 -1      4075 2.39549E-03-1.29941E-04-5.13360E-15
 -1      4076 2.53576E-03-1.28896E-04-5.68959E-15
 -1      4077 2.59918E-03-9.60174E-05-5.96670E-15
 -1      4078 2.63841E-03 2.28926E-04-5.64890E-15
 -1      4079 2.49818E-03 2.29705E-04-5.09957E-15
 -1      4080 2.41882E-03 1.97329E-04-4.88695E-15
 -1      4081 2.69796E-03 1.96354E-04-5.99113E-15
 -1      4082 9.56956E-03 4.82758E-04-4.61842E-14
 -1      4083 9.64555E-03 4.70077E-04-4.69965E-14
 -1      4084 2.11359E-03-1.29882E-04-4.10278E-15
 -1      4085 2.25474E-03-1.30272E-04-4.60480E-15
 -1      4086 2.31969E-03-9.81018E-05-4.85685E-15
 -1      4087 9.74965E-03 4.85030E-04-4.84431E-14
 -1      4088 9.71999E-03 4.62804E-04-4.79656E-14
 -1      4089 9.77940E-03 4.54562E-04-4.88684E-14
 -1      4090 9.86128E-03 5.04269E-04-4.99692E-14
 -1      4091 9.53575E-03 2.82215E-04-4.93261E-14
 -1      4092 9.52266E-03 2.49553E-04-4.98980E-14
 -1      4093 9.65692E-03 2.68605E-04-5.14185E-14
 -1      4094 9.68570E-03 3.20686E-04-5.06206E-14
 -1      4095 1.33363E-02 8.39442E-04-9.62321E-14
 -1      4096 9.58106E-03 5.01560E-04-4.65118E-14
 -1      4097 9.74954E-03 3.78874E-04-5.00299E-14
 -1      4098 3.29838E-03 1.60656E-04-8.92748E-15
 -1      4099 3.16539E-03 1.61617E-04-8.24070E-15
 -1      4100 9.77100E-03 3.11688E-04-5.21415E-14
 -1      4101 4.23499E-03 1.58652E-05-1.52822E-14
 -1      4102 9.86962E-03 4.66821E-04-5.01891E-14
 -1      4103 9.81957E-03 4.43603E-04-4.96348E-14
 -1      4104 9.85149E-03 4.32003E-04-5.03982E-14
 -1      4105 1.04502E-02 6.04672E-04-5.76451E-14
 -1      4106 1.03798E-02 5.67909E-04-5.69148E-14
 -1      4107 1.05773E-02 6.28216E-04-5.92472E-14
 -1      4108 4.05328E-03 1.64140E-04-1.35567E-14
 -1      4109 3.93381E-03 1.62082E-04-1.27261E-14
 -1      4110 3.81143E-03 1.60557E-04-1.19186E-14
 -1      4111 3.68639E-03 1.59907E-04-1.11347E-14
 -1      4112 3.85645E-03 1.36268E-04-1.23871E-14
 -1      4113 2.20052E-03 1.64235E-04-4.17389E-15
 -1      4114 2.05952E-03 1.62625E-04-3.70057E-15
 -1      4115 1.71899E-03-8.04766E-05-2.85762E-15
 -1      4116 1.72304E-03-1.14461E-04-2.86383E-15
 -1      4117 1.82942E-03-1.18488E-04-3.18049E-15
 -1      4118 1.49038E-03-4.56048E-05-2.22687E-15
 -1      4119 3.03092E-03 1.62601E-04-7.57974E-15
 -1      4120 2.89506E-03 1.63648E-04-6.94556E-15
 -1      4121 3.08910E-03 1.32570E-04-7.96196E-15
 -1      4122 9.92078E-03 4.91401E-04-5.08100E-14
 -1      4123 1.91829E-03-1.22877E-04-3.45706E-15
 -1      4124 2.02472E-03-1.26113E-04-3.80253E-15
 -1      4125 2.09067E-03-9.49634E-05-4.03422E-15
 -1      4126 1.91357E-03-8.77397E-05-3.44967E-15
 -1      4127 1.31664E-02 1.09926E-03-9.15000E-14
 -1      4128 1.30757E-02 1.05137E-03-9.06459E-14
 -1      4129 1.32854E-02 1.11905E-03-9.30060E-14
 -1      4130 1.33585E-02 9.81885E-04-9.52705E-14
 -1      4131 1.33840E-02 1.01731E-03-9.53134E-14
 -1      4132 1.34730E-02 1.14621E-03-9.54159E-14
 -1      4133 1.64507E-03 1.51545E-04-2.47508E-15
 -1      4134 1.08367E-02 6.76689E-04-6.24906E-14
 -1      4135 1.07061E-02 6.52183E-04-6.08631E-14
 -1      4136 1.08899E-02 6.60702E-04-6.33700E-14
 -1      4137 4.16132E-03 1.45003E-04-1.45924E-14
 -1      4138 1.73582E-03 5.56980E-05-2.84644E-15
 -1      4139 1.73410E-03 2.88910E-05-2.86385E-15
 -1      4140 1.75680E-03 1.56995E-04-2.77909E-15
 -1      4141 1.69113E-03 1.24059E-04-2.64121E-15
 -1      4142 1.70818E-03 9.74343E-05-2.72288E-15
 -1      4143 1.89834E-03 1.60632E-04-3.19288E-15
 -1      4144 3.50957E-03 1.87805E-04-9.93705E-15
 -1      4145 1.32857E-02 8.64106E-04-9.53003E-14
 -1      4146 1.33141E-02 9.04606E-04-9.53372E-14
 -1      4147 1.33363E-02 9.43253E-04-9.53053E-14
 -1      4148 1.32274E-02 9.42648E-04-9.37735E-14
 -1      4149 1.96357E-03 1.30778E-04-3.44574E-15
 -1      4150 1.82853E-03 8.59315E-05-3.08895E-15
 -1      4151 3.42965E-03 1.60033E-04-9.63830E-15
 -1      4152 3.35329E-03 1.32162E-04-9.33902E-15
 -1      4153 3.55908E-03 1.59664E-04-1.03743E-14
 -1      4154 9.78208E-03 3.35732E-04-5.17392E-14
 -1      4155 9.87842E-03 3.50889E-04-5.28647E-14
 -1      4156 9.79263E-03 3.58218E-04-5.13344E-14
 -1      4157 3.07349E-03-5.64482E-05-8.14518E-15
 -1      4158 3.20806E-03-5.31574E-05-8.83061E-15
 -1      4159 3.34137E-03-4.94266E-05-9.54149E-15
 -1      4160 3.47349E-03-4.51465E-05-1.02770E-14
 -1      4161 3.26785E-03-2.15368E-05-9.15470E-15
 -1      4162 3.60424E-03-4.03304E-05-1.10359E-14
 -1      4163 3.73372E-03-3.48877E-05-1.18192E-14
 -1      4164 3.52936E-03-1.35955E-05-1.06218E-14
 -1      4165 3.86157E-03-2.89825E-05-1.26252E-14
 -1      4166 3.98817E-03-2.22477E-05-1.34548E-14
 -1      4167 3.78416E-03-3.18494E-06-1.21845E-14
 -1      4168 4.06959E-03-1.08436E-05-1.40313E-14
 -1      4169 4.15771E-03 3.81924E-06-1.46850E-14
 -1      4170 4.14579E-03 3.64696E-05-1.47295E-14
 -1      4171 3.98956E-03 1.38753E-05-1.35670E-14
 -1      4172 1.00036E-02 3.67625E-04-5.44149E-14
 -1      4173 1.01302E-02 3.84861E-04-5.59783E-14
 -1      4174 1.00075E-02 3.88868E-04-5.40056E-14
 -1      4175 2.34100E-03 1.65141E-04-4.67416E-15
 -1      4176 2.26467E-03 1.33088E-04-4.46148E-15
 -1      4177 2.48085E-03 1.65382E-04-5.20174E-15
 -1      4178 1.02577E-02 4.02768E-04-5.75569E-14
 -1      4179 1.03865E-02 4.21146E-04-5.91479E-14
 -1      4180 1.02562E-02 4.23609E-04-5.71415E-14
 -1      4181 1.05165E-02 4.40075E-04-6.07523E-14
 -1      4182 1.06475E-02 4.59419E-04-6.23694E-14
 -1      4183 1.05112E-02 4.61060E-04-6.03321E-14
 -1      4184 1.07796E-02 4.79187E-04-6.39998E-14
 -1      4185 1.09127E-02 4.99301E-04-6.56415E-14
 -1      4186 1.07716E-02 5.00593E-04-6.35742E-14
 -1      4187 1.10467E-02 5.19759E-04-6.72969E-14
 -1      4188 1.11817E-02 5.40504E-04-6.89643E-14
 -1      4189 1.10368E-02 5.41818E-04-6.68660E-14
 -1      4190 1.13175E-02 5.61525E-04-7.06418E-14
 -1      4191 1.14540E-02 5.82780E-04-7.23295E-14
 -1      4192 1.13061E-02 5.84318E-04-7.02058E-14
 -1      4193 1.15913E-02 6.04259E-04-7.40293E-14
 -1      4194 1.17292E-02 6.25928E-04-7.57388E-14
 -1      4195 1.15788E-02 6.27796E-04-7.35900E-14
 -1      4196 1.18678E-02 6.47782E-04-7.74555E-14
 -1      4197 1.20069E-02 6.69790E-04-7.91816E-14
 -1      4198 1.18545E-02 6.72026E-04-7.70133E-14
 -1      4199 1.21464E-02 6.91950E-04-8.09151E-14
 -1      4200 1.22864E-02 7.14237E-04-8.26595E-14
 -1      4201 1.21325E-02 7.16837E-04-8.04709E-14
 -1      4202 1.24268E-02 7.36648E-04-8.44099E-14
 -1      4203 1.25676E-02 7.59162E-04-8.61689E-14
 -1      4204 1.24124E-02 7.62097E-04-8.39616E-14
 -1      4205 1.27086E-02 7.81783E-04-8.79370E-14
 -1      4206 1.28500E-02 8.04478E-04-8.97108E-14
 -1      4207 1.26939E-02 8.07715E-04-8.74878E-14
 -1      4208 1.20252E-02 8.38211E-04-7.77642E-14
 -1      4209 1.18866E-02 8.13734E-04-7.60381E-14
 -1      4210 1.17487E-02 7.89280E-04-7.43225E-14
 -1      4211 1.16116E-02 7.64828E-04-7.26154E-14
 -1      4212 1.17989E-02 7.69209E-04-7.52287E-14
 -1      4213 1.14753E-02 7.40469E-04-7.09200E-14
 -1      4214 1.13399E-02 7.16172E-04-6.92345E-14
 -1      4215 1.15251E-02 7.21457E-04-7.18171E-14
 -1      4216 1.12056E-02 6.92068E-04-6.75606E-14
 -1      4217 1.10724E-02 6.68107E-04-6.58992E-14
 -1      4218 1.12550E-02 6.74181E-04-6.84505E-14
 -1      4219 1.23040E-02 8.87070E-04-8.12427E-14
 -1      4220 1.21643E-02 8.62651E-04-7.94996E-14
 -1      4221 1.20756E-02 8.17175E-04-7.86782E-14
 -1      4222 1.25846E-02 9.35743E-04-8.47540E-14
 -1      4223 1.24441E-02 9.11430E-04-8.29949E-14
 -1      4224 1.23546E-02 8.65181E-04-8.21634E-14
 -1      4225 1.28667E-02 9.84176E-04-8.82957E-14
 -1      4226 1.27255E-02 9.59987E-04-8.65225E-14
 -1      4227 1.26354E-02 9.13120E-04-8.56811E-14
 -1      4228 1.98917E-03 8.70764E-05-3.59055E-15
 -1      4229 1.33819E-02 1.09805E-03-9.45608E-14
 -1      4230 9.96696E-03 4.79665E-04-5.15845E-14
 -1      4231 9.83706E-03 3.92127E-04-5.11477E-14
 -1      4232 1.84472E-03 9.07214E-06-3.20819E-15
 -1      4233 1.72271E-03-4.59052E-06-2.85153E-15
 -1      4234 4.13366E-03 6.83226E-05-1.47101E-14
 -1      4235 4.13284E-03 9.69057E-05-1.46814E-14
 -1      4236 4.05784E-03 5.75656E-05-1.41262E-14
 -1      4237 2.80104E-03-6.16243E-05-6.85223E-15
 -1      4238 2.93782E-03-5.92299E-05-7.48586E-15
 -1      4239 3.00059E-03-2.73786E-05-7.78720E-15
 -1      4240 2.52473E-03-6.50253E-05-5.66387E-15
 -1      4241 2.66332E-03-6.35326E-05-6.24468E-15
 -1      4242 2.72829E-03-3.15027E-05-6.52339E-15
 -1      4243 1.61120E-03-3.07266E-05-2.54624E-15
 -1      4244 1.31769E-02 8.63860E-04-9.37709E-14
 -1      4245 2.24544E-03-6.66331E-05-4.58407E-15
 -1      4246 2.38541E-03-6.60454E-05-5.11031E-15
 -1      4247 2.45196E-03-3.41756E-05-5.36588E-15
 -1      4248 2.15089E-03 9.15396E-05-4.12704E-15
 -1      4249 2.01832E-03 4.73816E-05-3.73093E-15
 -1      4250 1.72329E-03-5.16216E-05-2.86885E-15
 -1      4251 1.82911E-03-5.43807E-05-3.18493E-15
 -1      4252 1.01877E-02 5.12263E-04-5.46128E-14
 -1      4253 1.00710E-02 4.92459E-04-5.30548E-14
 -1      4254 3.90468E-03 1.13650E-04-1.28571E-14
 -1      4255 3.78516E-03 1.10542E-04-1.20463E-14
 -1      4256 9.90343E-03 4.21000E-04-5.15425E-14
 -1      4257 9.95807E-03 4.04200E-04-5.28615E-14
 -1      4258 1.00775E-02 4.20735E-04-5.44132E-14
 -1      4259 9.96849E-03 4.45526E-04-5.21095E-14
 -1      4260 1.06311E-02 6.13305E-04-6.01174E-14
 -1      4261 4.09156E-03 1.20663E-04-1.42266E-14
 -1      4262 1.30200E-02 8.67307E-04-9.15289E-14
 -1      4263 1.30350E-02 8.40949E-04-9.19796E-14
 -1      4264 3.60974E-03 1.33134E-04-1.08154E-14
 -1      4265 1.31037E-02 1.02328E-03-9.12976E-14
 -1      4266 1.29851E-02 1.00375E-03-8.97948E-14
 -1      4267 1.28946E-02 9.56425E-04-8.89463E-14
 -1      4268 3.14864E-03 1.03503E-04-8.34861E-15
 -1      4269 3.01540E-03 1.03286E-04-7.68332E-15
 -1      4270 1.33565E-02 1.06259E-03-9.45188E-14
 -1      4271 1.32222E-02 1.02615E-03-9.29444E-14
 -1      4272 1.09893E-02 6.27741E-04-6.51269E-14
 -1      4273 1.09406E-02 6.44469E-04-6.42473E-14
 -1      4274 1.08102E-02 6.21098E-04-6.26102E-14
 -1      4275 1.04298E-02 5.53926E-04-5.77737E-14
 -1      4276 1.03074E-02 5.32625E-04-5.61858E-14
 -1      4277 1.02321E-02 4.98681E-04-5.54608E-14
 -1      4278 2.00623E-03 1.25129E-05-3.72033E-15
 -1      4279 3.40989E-03 1.04847E-04-9.75440E-15
 -1      4280 3.28020E-03 1.04049E-04-9.03874E-15
 -1      4281 3.20981E-03 7.53778E-05-8.73810E-15
 -1      4282 1.31312E-02 9.78551E-04-9.20901E-14
 -1      4283 1.00103E-02 4.67293E-04-5.24219E-14
 -1      4284 1.31200E-02 9.51140E-04-9.21791E-14
 -1      4285 1.30019E-02 9.48520E-04-9.05350E-14
 -1      4286 1.28834E-02 9.29325E-04-8.90357E-14
 -1      4287 1.30979E-02 9.12868E-04-9.22141E-14
 -1      4288 4.01212E-03 1.12617E-04-1.36546E-14
 -1      4289 2.29086E-03 9.24428E-05-4.62571E-15
 -1      4290 2.81877E-03 1.33468E-04-6.68840E-15
 -1      4291 2.75802E-03 1.64514E-04-6.33747E-15
 -1      4292 2.61990E-03 1.65173E-04-5.75615E-15
 -1      4293 3.94936E-03 8.72121E-05-1.32929E-14
 -1      4294 2.65746E-03-1.40336E-06-6.19882E-15
 -1      4295 2.79431E-03 1.24617E-08-6.80256E-15
 -1      4296 3.71854E-03 8.40607E-05-1.17050E-14
 -1      4297 3.66264E-03 1.07966E-04-1.12590E-14
 -1      4298 3.53745E-03 1.06205E-04-1.04944E-14
 -1      4299 1.29129E-02 8.75853E-04-8.99422E-14
 -1      4300 3.45855E-03 1.25642E-05-1.02107E-14
 -1      4301 3.58636E-03 1.66963E-05-1.09670E-14
 -1      4302 3.74455E-03 4.13643E-05-1.19513E-14
 -1      4303 3.86627E-03 4.70586E-05-1.27596E-14
 -1      4304 2.54355E-03 1.33913E-04-5.52152E-15
 -1      4305 1.00709E-02 4.56977E-04-5.35790E-14
 -1      4306 1.02235E-02 4.41307E-04-5.63015E-14
 -1      4307 1.03477E-02 4.59716E-04-5.78845E-14
 -1      4308 1.04737E-02 4.78933E-04-5.94802E-14
 -1      4309 1.06014E-02 4.98654E-04-6.10888E-14
 -1      4310 1.04351E-02 4.95646E-04-5.86268E-14
 -1      4311 1.07534E-02 5.42779E-04-6.27154E-14
 -1      4312 1.08837E-02 5.63978E-04-6.43501E-14
 -1      4313 1.10154E-02 5.85701E-04-6.60000E-14
 -1      4314 1.11483E-02 6.07669E-04-6.76595E-14
 -1      4315 1.12823E-02 6.29996E-04-6.93311E-14
 -1      4316 1.14174E-02 6.52491E-04-7.10119E-14
 -1      4317 1.15533E-02 6.75237E-04-7.27044E-14
 -1      4318 1.16901E-02 6.98091E-04-7.44099E-14
 -1      4319 1.18277E-02 7.21117E-04-7.61223E-14
 -1      4320 1.19659E-02 7.44208E-04-7.78444E-14
 -1      4321 1.21048E-02 7.67412E-04-7.95772E-14
 -1      4322 1.22442E-02 7.90654E-04-8.13168E-14
 -1      4323 1.23840E-02 8.13968E-04-8.30655E-14
 -1      4324 1.25243E-02 8.37300E-04-8.48222E-14
 -1      4325 1.91742E-03-5.78449E-05-3.46171E-15
 -1      4326 1.26650E-02 8.60676E-04-8.65864E-14
 -1      4327 1.06815E-02 5.98234E-04-6.09857E-14
 -1      4328 1.05546E-02 5.75735E-04-5.93731E-14
 -1      4329 1.04762E-02 5.39330E-04-5.86302E-14
 -1      4330 1.07293E-02 5.82593E-04-6.18522E-14
 -1      4331 2.96893E-03 2.31759E-05-7.60134E-15
 -1      4332 3.10270E-03 2.50628E-05-8.26353E-15
 -1      4333 3.23489E-03 2.72030E-05-8.95143E-15
 -1      4334 3.36543E-03 2.99510E-05-9.66553E-15
 -1      4335 3.94683E-03 5.65797E-05-1.33192E-14
 -1      4336 2.44446E-03 9.58841E-05-5.20231E-15
 -1      4337 2.33341E-03 5.49267E-05-4.83585E-15
 -1      4338 2.39809E-03 1.18192E-05-5.12721E-15
 -1      4339 2.53669E-03 1.27248E-05-5.67993E-15
 -1      4340 2.90225E-03 5.23283E-05-7.24326E-15
 -1      4341 2.83748E-03 8.19131E-05-6.89023E-15
 -1      4342 2.10500E-03-6.67186E-05-4.08530E-15
 -1      4343 2.17267E-03-3.54877E-05-4.31584E-15
 -1      4344 2.01676E-03-6.34876E-05-3.78578E-15
 -1      4345 2.24474E-03 8.30957E-06-4.55216E-15
 -1      4346 3.46865E-03 7.86070E-05-1.01732E-14
 -1      4347 3.68110E-03 6.50990E-05-1.15089E-14
 -1      4348 1.01656E-02 4.54615E-04-5.51401E-14
 -1      4349 2.58287E-03 9.62170E-05-5.75705E-15
 -1      4350 1.27717E-02 8.52665E-04-8.81657E-14
 -1      4351 1.93328E-03-3.03304E-05-3.50590E-15
 -1      4352 2.60616E-03 4.39585E-05-5.93575E-15
 -1      4353 1.03333E-02 4.97590E-04-5.70392E-14
 -1      4354 1.02124E-02 4.78282E-04-5.54628E-14
 -1      4355 2.10473E-03 7.66995E-06-4.05626E-15
 -1      4356 2.70111E-03 8.15374E-05-6.28427E-15
 -1      4357 3.42938E-03 5.89108E-05-9.98850E-15
 -1      4358 1.04568E-02 5.17540E-04-5.86297E-14
 -1      4359 1.07099E-02 5.59557E-04-6.18494E-14
 -1      4360 1.05824E-02 5.38241E-04-6.02335E-14
 -1      4361 3.55646E-03 6.16679E-05-1.07366E-14
 -3
    1PSTEP                         2           1           1          
  100CL  101 1.000000000        4361                     0    1           1
 -4  STRESS      6    1
 -5  SXX         1    4    1    1
 -5  SYY         1    4    2    2
 -5  SZZ         1    4    3    3
 -5  SXY         1    4    1    2
 -5  SYZ         1    4    2    3
 -5  SZX         1    4    3    1
 -1         1 5.54265E+01 4.56481E+00 2.99286E+00-1.45672E+01-3.23096E-13 1.15469E-12
 -1         2-8.01989E-01-2.44347E+01-3.34009E+00-1.50982E-01-9.26266E-13-1.67664E-13
 -1         3 2.00001E+01 3.69667E-04 8.63653E-04 3.44680E-04-1.47561E-13-2.68687E-13
 -1         4 2.00001E+01 2.63875E-04 8.11529E-04-2.47864E-04 2.54628E-13 8.59446E-15
 -1         5 3.25593E+01 6.10427E+00 2.71062E+00 6.18509E+00-4.04746E-14 3.01344E-12
 -1         6 3.55187E+01 1.21776E+01 5.07303E+00-8.58725E+00-1.89945E-13 2.56228E-12
 -1         7 2.07856E+01 6.08854E+00-1.22068E-01-4.67992E+00-2.66176E-14 2.75367E-13
 -1         8 1.96805E+01 5.93637E+00 5.45733E-02-3.21944E+00-2.80262E-14-4.00982E-13
 -1         9 1.91662E+01 5.77967E+00 5.13113E-02-2.46221E+00-2.66939E-14-7.41341E-13
 -1        10 1.89289E+01 5.70138E+00 5.17707E-02-1.88405E+00-1.87307E-14-8.89868E-13
 -1        11 1.88026E+01 5.65916E+00 4.95867E-02-1.39325E+00-8.94467E-15-9.45126E-13
 -1        12 1.87305E+01 5.63500E+00 4.68952E-02-9.63814E-01-4.16073E-15-9.60723E-13
 -1        13 1.86888E+01 5.62116E+00 4.46869E-02-5.61819E-01-1.00506E-15-9.43608E-13
 -1        14 1.86700E+01 5.61493E+00 4.34920E-02-1.79551E-01 5.25784E-15-9.24975E-13
 -1        15 1.86709E+01 5.61519E+00 4.35253E-02 1.96488E-01 8.35307E-15-8.90640E-13
 -1        16 1.86915E+01 5.62197E+00 4.48152E-02 5.79452E-01 1.35194E-14-8.44730E-13
 -1        17 1.87351E+01 5.63627E+00 4.72270E-02 9.83276E-01 1.67874E-14-7.82642E-13
 -1        18 1.88088E+01 5.66092E+00 5.01861E-02 1.41575E+00 2.04350E-14-6.94892E-13
 -1        19 1.89367E+01 5.70363E+00 5.23294E-02 1.91251E+00 3.21661E-14-5.58385E-13
 -1        20 1.91730E+01 5.78264E+00 5.11130E-02 2.49932E+00 3.80251E-14-3.17895E-13
 -1        21 1.96759E+01 5.95070E+00 4.96344E-02 3.25369E+00 4.07868E-14 1.47185E-13
 -1        22 2.11573E+01 6.36618E+00 1.42308E-01 4.47888E+00 5.78704E-15 1.05640E-12
 -1        23 2.29261E+01-1.37556E+00-9.37686E-01-6.99940E-01-1.38386E-13 1.91437E-12
 -1        24 1.93331E+01-9.95272E-02-3.08293E-01 6.38462E-02-3.13673E-14 1.33879E-12
 -1        25 1.86983E+01-5.69173E-02-6.87370E-02 6.05709E-02-1.69968E-14 8.03352E-13
 -1        26 1.85552E+01-2.32779E-02-7.55541E-03 3.28743E-02 5.44269E-17 4.06026E-13
 -1        27 1.86422E+01-1.35308E-02-2.98376E-04 2.27994E-02-1.01970E-14 1.67494E-13
 -1        28 1.88572E+01-8.49712E-03-8.31005E-04 1.70244E-02-1.19609E-14 1.59308E-14
 -1        29 1.91516E+01-5.85018E-03-1.64682E-03 1.36715E-02 1.59642E-14-1.60974E-13
 -1        30 1.95030E+01-4.42813E-03-2.20837E-03 1.18409E-02-2.61935E-15-2.47831E-13
 -1        31 1.99016E+01-3.59384E-03-2.67626E-03 1.11261E-02 5.22539E-15-4.24910E-13
 -1        32 2.03437E+01-2.90168E-03-2.95695E-03 1.13135E-02-4.92370E-14-6.68229E-13
 -1        33 2.08256E+01-1.95996E-03-2.70596E-03 1.22064E-02 2.40506E-14-7.77019E-13
 -1        34 2.13387E+01-3.78033E-04-1.37731E-03 1.34834E-02-1.99313E-14-6.28451E-13
 -1        35 2.18624E+01 2.21910E-03 1.73566E-03 1.45461E-02-2.20814E-14-6.47267E-13
 -1        36 2.23569E+01 6.09100E-03 7.36300E-03 1.43533E-02 2.74406E-14-5.64527E-13
 -1        37 2.27566E+01 1.11655E-02 1.58780E-02 1.13124E-02-3.68597E-14-6.04830E-13
 -1        38 2.29684E+01 1.67094E-02 2.65571E-02 3.42144E-03-1.91485E-14-7.09642E-13
 -1        39 2.28813E+01 2.10074E-02 3.65870E-02-1.09971E-02-1.55210E-14-8.22479E-13
 -1        40 2.23973E+01 2.14080E-02 4.05675E-02-3.16875E-02-3.80355E-14-7.78180E-13
 -1        41 2.14861E+01 1.52260E-02 3.17985E-02-5.43141E-02 4.33390E-14-8.05644E-13
 -1        42 2.02507E+01 1.65088E-03 6.57106E-03-6.95540E-02-3.92989E-14-8.62584E-13
 -1        43 1.89590E+01-1.61978E-02-2.99366E-02-6.62549E-02-1.60550E-14-7.52811E-13
 -1        44 1.79890E+01-3.13976E-02-6.26588E-02-3.91770E-02 7.25529E-14-3.93097E-13
 -1        45 1.76751E+01-3.66691E-02-7.42187E-02 4.12880E-03-1.41673E-14-2.89191E-13
 -1        46 1.81351E+01-2.92792E-02-5.79064E-02 4.56457E-02-5.75549E-14-5.56616E-13
 -1        47 1.92035E+01-1.30892E-02-2.31976E-02 6.85671E-02 7.94839E-15-6.35988E-13
 -1        48 2.05252E+01 4.30605E-03 1.20257E-02 6.78604E-02 5.00029E-14-2.41276E-13
 -1        49 2.17348E+01 1.65132E-02 3.41377E-02 5.04920E-02 1.92121E-15-9.80830E-14
 -1        50 2.25952E+01 2.12233E-02 3.99624E-02 2.77974E-02-5.03961E-14-4.04770E-13
 -1        51 2.30342E+01 1.97617E-02 3.41645E-02 8.29924E-03 3.05625E-14-1.33983E-13
 -1        52 2.31016E+01 1.49448E-02 2.34990E-02-4.55590E-03 3.53241E-14 1.48796E-13
 -1        53 2.29032E+01 9.28771E-03 1.28894E-02-1.10251E-02-3.90440E-14-1.93275E-13
 -1        54 2.25506E+01 4.32114E-03 4.67933E-03-1.29078E-02 6.19538E-14-1.95702E-13
 -1        55 2.21340E+01 6.51987E-04-6.62933E-04-1.21227E-02-8.38415E-14-2.70202E-13
 -1        56 2.17158E+01-1.69610E-03-3.59698E-03-1.01207E-02 4.57582E-14-4.89748E-13
 -1        57 2.13328E+01-2.96555E-03-4.83787E-03-7.80267E-03 4.48153E-14-3.98551E-13
 -1        58 2.10029E+01-3.46422E-03-5.03097E-03-5.64096E-03 5.36036E-14-4.66136E-13
 -1        59 2.07313E+01-3.46801E-03-4.65235E-03-3.83346E-03 1.29567E-14-4.85848E-13
 -1        60 2.05156E+01-3.18863E-03-4.01421E-03-2.42423E-03-2.63687E-14-1.78775E-13
 -1        61 2.03497E+01-2.77337E-03-3.30395E-03-1.38222E-03 3.23150E-14-2.04094E-13
 -1        62 2.02259E+01-2.31696E-03-2.62441E-03-6.46671E-04-9.47602E-14-4.28933E-13
 -1        63 2.01366E+01-1.87548E-03-2.02518E-03-1.51040E-04 1.46682E-14-9.99855E-13
 -1        64 2.00743E+01-1.47850E-03-1.52435E-03 1.65940E-04 1.50672E-14-5.19213E-13
 -1        65 2.00330E+01-1.13832E-03-1.12262E-03 3.56196E-04 2.03951E-14-6.23589E-14
 -1        66 2.00074E+01-8.56355E-04-8.12010E-04 4.61997E-04-8.28299E-14-2.67263E-14
 -1        67 1.99935E+01-6.27075E-04-5.80115E-04 5.17444E-04 6.77835E-14-8.59980E-14
 -1        68 1.99880E+01-4.39134E-04-4.07725E-04 5.51203E-04-1.71246E-14 3.53090E-13
 -1        69 1.99883E+01-2.74619E-04-2.53139E-04 5.85048E-04 2.86778E-14 3.75022E-13
 -1        70 1.99924E+01-1.10973E-04-3.09009E-05 6.12748E-04 9.66053E-14 5.90117E-13
 -1        71 1.99979E+01 1.32464E-05 4.24167E-04 5.41611E-04-1.14227E-13 4.29537E-13
 -1        72 2.09460E+01-4.03030E-01-9.78679E-01-3.11638E-01 2.88346E-14 2.78048E-12
 -1        73 1.92932E+01-6.60376E-02-2.89714E-01-5.37070E-02 2.97310E-14 2.12683E-12
 -1        74 1.87018E+01-2.12183E-02-6.43224E-02-1.95722E-02 1.26027E-14 1.63232E-12
 -1        75 1.85584E+01-1.10446E-02-1.04819E-02-1.42032E-02 9.05873E-15 1.28552E-12
 -1        76 1.86470E+01-6.82341E-03-1.43855E-03-1.08095E-02 1.83546E-14 1.09603E-12
 -1        77 1.88662E+01-4.83881E-03-1.36990E-03-8.32936E-03-1.49118E-14 9.96645E-13
 -1        78 1.91717E+01-4.02466E-03-2.41058E-03-6.51550E-03-1.00142E-14 9.69998E-13
 -1        79 1.95464E+01-3.90200E-03-3.65880E-03-5.22119E-03 1.77081E-14 7.48217E-13
 -1        80 1.99896E+01-4.19207E-03-5.26697E-03-4.49050E-03-1.39812E-14 5.24352E-13
 -1        81 2.05112E+01-4.65997E-03-7.29022E-03-4.52824E-03 5.70231E-14 4.02337E-13
 -1        82 2.11280E+01-5.01310E-03-9.54797E-03-5.69906E-03-2.46060E-16 2.09196E-13
 -1        83 2.18592E+01-4.80717E-03-1.15110E-02-8.54404E-03 3.89874E-15 1.93368E-13
 -1        84 2.27190E+01-3.35578E-03-1.20180E-02-1.37432E-02-1.37204E-14 2.48674E-13
 -1        85 2.37040E+01 2.95621E-04-8.83794E-03-2.18747E-02 1.06867E-14 1.78328E-13
 -1        86 2.47702E+01 7.16174E-03 1.66686E-03-3.26834E-02-8.06964E-15 1.09834E-13
 -1        87 2.58007E+01 1.75384E-02 2.39014E-02-4.34806E-02 8.07048E-15 5.45154E-14
 -1        88 2.65681E+01 2.93625E-02 5.96831E-02-4.66943E-02-3.66454E-14 1.24099E-13
 -1        89 2.67249E+01 3.62178E-02 1.00458E-01-2.85117E-02 3.98809E-14 4.09516E-14
 -1        90 2.58851E+01 2.80303E-02 1.18839E-01 2.56189E-02-1.30312E-14-4.25771E-14
 -1        91 2.38717E+01-2.16126E-04 7.50957E-02 1.11568E-01-3.29324E-14 1.40117E-13
 -1        92 2.10851E+01-3.70481E-02-4.25723E-02 1.83779E-01 1.71503E-14 2.84717E-13
 -1        93 1.86400E+01-5.61195E-02-1.75015E-01 1.71808E-01-1.53102E-14 1.30611E-13
 -1        94 1.78383E+01-4.49443E-02-2.19243E-01 5.48245E-02 3.49980E-15-2.55529E-13
 -1        95 1.91554E+01-1.33982E-02-1.38937E-01-9.04510E-02 6.34779E-15-6.33417E-13
 -1        96 2.18360E+01 1.55270E-02-1.85129E-03-1.68980E-01 8.63367E-14-6.35283E-13
 -1        97 2.45344E+01 3.04619E-02 9.59140E-02-1.53872E-01-1.00783E-14-7.02938E-13
 -1        98 2.62898E+01 3.04628E-02 1.17924E-01-9.16284E-02-2.35333E-14-4.69898E-13
 -1        99 2.68786E+01 2.19677E-02 8.94705E-02-3.09954E-02-2.30100E-14-6.80475E-13
 -1       100 2.65662E+01 1.16613E-02 4.80368E-02 7.44749E-03-1.13160E-14-9.64601E-13
 -1       101 2.57481E+01 3.40381E-03 1.53471E-02 2.46373E-02 3.27402E-14-1.16249E-12
 -1       102 2.47470E+01-1.80331E-03-3.75154E-03 2.84440E-02 2.87178E-14-1.23328E-12
 -1       103 2.37621E+01-4.41984E-03-1.21793E-02 2.58357E-02-4.53632E-14-8.92059E-13
 -1       104 2.28909E+01-5.31021E-03-1.42917E-02 2.10445E-02-2.51963E-14-2.51700E-13
 -1       105 2.21665E+01-5.22453E-03-1.33720E-02 1.61332E-02 3.78364E-14-3.32755E-14
 -1       106 2.15879E+01-4.67253E-03-1.13307E-02 1.19032E-02-6.11569E-14-9.49028E-14
 -1       107 2.11385E+01-3.95530E-03-9.10814E-03 8.54311E-03-5.32309E-14-2.44270E-13
 -1       108 2.07973E+01-3.23181E-03-7.09545E-03 5.98930E-03 3.80481E-14-6.95548E-13
 -1       109 2.05431E+01-2.57582E-03-5.41360E-03 4.10004E-03-6.87121E-15-6.49739E-13
 -1       110 2.03573E+01-2.01430E-03-4.06600E-03 2.72853E-03 5.55205E-14-9.20549E-13
 -1       111 2.02243E+01-1.55046E-03-3.01280E-03 1.74822E-03-3.04884E-14-1.00972E-12
 -1       112 2.01314E+01-1.17657E-03-2.20372E-03 1.05786E-03-7.86146E-14-2.76365E-13
 -1       113 2.00685E+01-8.80715E-04-1.59115E-03 5.79228E-04 8.56673E-14 3.97169E-14
 -1       114 2.00278E+01-6.50055E-04-1.13459E-03 2.52566E-04 2.61199E-14 1.52915E-13
 -1       115 2.00034E+01-4.71102E-04-8.00430E-04 3.10838E-05 7.96689E-14-1.74260E-13
 -1       116 1.99906E+01-3.31381E-04-5.59212E-04-1.22921E-04-6.05459E-14 1.33396E-13
 -1       117 1.99862E+01-2.17837E-04-3.84681E-04-2.38386E-04 6.39157E-14-1.49685E-13
 -1       118 1.99874E+01-1.13261E-04-2.29419E-04-3.51402E-04 1.04741E-14-2.86645E-13
 -1       119 1.99922E+01 2.60021E-05 2.62281E-05-5.08123E-04 1.77191E-14-4.04069E-13
 -1       120 1.99979E+01 6.25770E-05 4.05231E-04-5.87332E-04 4.11601E-14-3.87492E-13
 -1       121 1.99999E+01-2.17947E-03 3.01912E-04-6.61514E-04-2.46412E-13 2.17988E-14
 -1       122 1.99997E+01-7.36759E-03-1.32084E-04-5.18278E-04-7.90658E-13-9.17561E-14
 -1       123 1.99997E+01-1.07015E-02-3.26906E-04-2.82329E-04-3.08183E-13 1.37534E-13
 -1       124 1.99997E+01-1.08068E-02-2.93252E-04-6.55772E-05-3.14059E-13 1.20138E-13
 -1       125 1.99997E+01-8.16361E-03-1.56974E-04 7.31276E-05 2.04318E-13-8.92484E-14
 -1       126 1.99998E+01-4.19994E-03-7.61506E-06 1.27483E-04-1.46428E-12-2.76895E-13
 -1       127 1.99999E+01-3.16847E-04 1.18271E-04 1.12962E-04-9.97605E-13 1.25103E-13
 -1       128 1.99999E+01 2.11233E-03 1.89241E-04 5.05714E-05-9.61089E-13 1.75908E-13
 -1       129 1.99999E+01 2.33566E-03 1.92467E-04-2.93851E-05-9.00543E-13-5.72994E-14
 -1       130 1.99999E+01 3.19468E-04 1.27916E-04-9.48289E-05-3.87502E-13-1.89065E-13
 -1       131 1.99998E+01-3.25000E-03 8.25443E-06-1.15541E-04-5.20658E-13-6.97082E-14
 -1       132 1.99998E+01-7.06109E-03-1.38197E-04-7.00928E-05-7.70201E-13 3.30259E-13
 -1       133 1.99997E+01-9.73638E-03-2.71753E-04 5.82786E-05-7.88861E-13 9.18443E-14
 -1       134 1.99997E+01-9.88376E-03-3.21085E-04 2.58674E-04-8.32646E-13 6.95810E-14
 -1       135 1.99998E+01-6.98067E-03-1.37313E-04 6.82174E-04-4.56119E-13-1.64439E-13
 -1       136 1.99998E+01-2.22837E-03 2.78997E-04 8.64418E-04-3.72142E-13 1.37394E-13
 -1       137-1.50180E+00-1.98521E+01-3.08845E+00-3.86885E+00-8.34610E-14 1.44766E-13
 -1       138-1.67294E+00-8.94237E+00-2.36897E+00-3.23090E+00 1.27853E-12 5.78260E-13
 -1       139 2.62864E+00 2.75466E+00-1.23487E+00 3.07080E+00 1.26749E-12 9.33587E-13
 -1       140 1.52633E+01 1.01337E+01 2.45721E-01 1.23686E+01 1.21519E-12 1.41342E-12
 -1       141 3.38608E+01 1.01473E+01 1.70497E+00 1.81412E+01 7.89147E-13 1.53177E-12
 -1       142 5.46992E+01 5.28759E+00 3.03154E+00 1.54860E+01 2.95347E-13 6.87783E-13
 -1       143 6.69243E+01 1.35232E+00 3.72461E+00 4.54909E+00-2.61735E-14-4.96200E-13
 -1       144 6.45340E+01 2.18851E+00 3.62057E+00-8.93494E+00 4.17419E-13-1.93695E-12
 -1       145 4.78296E+01 7.27866E+00 2.65454E+00-1.76700E+01 1.30745E-12-3.31513E-12
 -1       146 2.62731E+01 1.10160E+01 1.19923E+00-1.66351E+01 2.05541E-12-3.18851E-12
 -1       147 7.02168E+00 7.18269E+00-6.01060E-01-7.31086E+00 2.32725E-12-2.13862E-12
 -1       148-8.12938E-01-3.86715E+00-1.96981E+00 1.35672E+00 2.12730E-12-1.10517E-12
 -1       149-1.84770E+00-1.61618E+01-2.90043E+00 4.52357E+00 1.43507E-12-5.24372E-13
 -1       150-8.24454E-01-2.40858E+01-3.35943E+00 1.97189E+00-3.29417E-13 4.36803E-15
 -1       151-9.02509E-01-2.29702E+01-3.26381E+00-2.45853E+00-1.44304E-12-1.95733E-13
 -1       152-1.71331E+00-1.37785E+01-2.65435E+00-4.04464E+00-2.54824E-12-8.39398E-13
 -1       153 1.35718E-01-1.50533E+00-1.62008E+00 2.84731E-02-2.58971E-12-1.59522E-12
 -1       154 9.40988E+00 8.24903E+00-2.22587E-01 8.82611E+00-2.21217E-12-1.97536E-12
 -1       155 2.63091E+01 1.10100E+01 1.24490E+00 1.66689E+01-1.59917E-12-2.36411E-12
 -1       156 4.61974E+01 7.38575E+00 2.50518E+00 1.73952E+01-8.91481E-13-2.11803E-12
 -1       157 6.17176E+01 2.43875E+00 3.31266E+00 9.75467E+00-1.86368E-13-1.01130E-12
 -1       158 6.53503E+01 9.40877E-01 3.48168E+00-3.26748E+00-7.58629E-14 3.13499E-13
 -1       159 3.67058E+01 9.74687E+00 1.93571E+00-1.84166E+01-8.34305E-13 1.64846E-12
 -1       160 1.74671E+01 1.09967E+01 5.72875E-01-1.37273E+01-1.42020E-12 1.67044E-12
 -1       161 3.87053E+00 4.74756E+00-8.91027E-01-4.51178E+00-1.61920E-12 1.33060E-12
 -1       162-1.29087E+00-7.05963E+00-2.13857E+00 2.47427E+00-1.45295E-12 6.45012E-13
 -1       163-1.41553E+00-1.90903E+01-3.01072E+00 3.77209E+00-1.02685E-12 3.53294E-13
 -1       164 2.10124E+01 3.67876E+00-5.64245E-02-3.54798E+00-4.00902E-13-5.56118E-14
 -1       165 2.00190E+01 4.20403E+00-4.50549E-02-2.73950E+00-3.60289E-13-4.68153E-13
 -1       166 1.95411E+01 4.48751E+00-3.12351E-02-2.12156E+00-2.83003E-13-6.79873E-13
 -1       167 1.92953E+01 4.63644E+00-2.33818E-02-1.60384E+00-1.89384E-13-7.78786E-13
 -1       168 1.91509E+01 4.72975E+00-1.90752E-02-1.15763E+00-1.14619E-13-8.07230E-13
 -1       169 1.90632E+01 4.78891E+00-1.68592E-02-7.46894E-01-4.48581E-14-8.12719E-13
 -1       170 1.90158E+01 4.82219E+00-1.57738E-02-3.62812E-01 2.24349E-14-7.92623E-13
 -1       171 1.90014E+01 4.83282E+00-1.54550E-02 8.43783E-03 8.21104E-14-7.61165E-13
 -1       172 1.90181E+01 4.82153E+00-1.58054E-02 3.79892E-01 1.42125E-13-7.29381E-13
 -1       173 1.90682E+01 4.78692E+00-1.69134E-02 7.64695E-01 1.97913E-13-6.91568E-13
 -1       174 1.91571E+01 4.72633E+00-1.91588E-02 1.16994E+00 2.61064E-13-6.21618E-13
 -1       175 1.93065E+01 4.62820E+00-2.35337E-02 1.62671E+00 3.34803E-13-5.15178E-13
 -1       176 1.95602E+01 4.46957E+00-3.23397E-02 2.15242E+00 3.89940E-13-3.33077E-13
 -1       177 2.00420E+01 4.18060E+00-4.64557E-02 2.77677E+00 4.35425E-13-2.25375E-14
 -1       178 2.11306E+01 3.45019E+00-5.89003E-02 3.47588E+00 4.01863E-13 5.23082E-13
 -1       179 2.23707E+01 1.13605E+00-3.34343E-01 2.96993E+00 2.91461E-13 1.24503E-12
 -1       180 2.19505E+01 8.53161E-01 7.48424E-04-1.91371E+00-3.57651E-13 4.63057E-13
 -1       181 2.04692E+01 1.90559E-01-9.62220E-03-7.19931E-01-3.18398E-13 2.91932E-13
 -1       182 1.97439E+01 1.05287E-01 1.38779E-02-2.35500E-01-2.31809E-13 1.35530E-13
 -1       183 1.94663E+01 5.35257E-02 1.03847E-02-4.28421E-03-1.49339E-13 9.23220E-15
 -1       184 1.94163E+01 3.14761E-02 5.66013E-03 1.23194E-01-1.02979E-13-8.13928E-14
 -1       185 1.95060E+01 2.10444E-02 3.03655E-03 2.02617E-01-9.86037E-14-1.03805E-13
 -1       186 1.96871E+01 1.61935E-02 1.81503E-03 2.58341E-01-5.02603E-14-1.44959E-13
 -1       187 1.99336E+01 1.41329E-02 1.21188E-03 3.02499E-01-8.46714E-14-1.74768E-13
 -1       188 2.02306E+01 1.30672E-02 8.21594E-04 3.40735E-01-1.12692E-13-1.73110E-13
 -1       189 2.05685E+01 1.13784E-02 4.49271E-04 3.73996E-01-7.23547E-14-1.95494E-13
 -1       190 2.09374E+01 7.27364E-03-1.53768E-05 3.98743E-01-3.06043E-14-3.73045E-13
 -1       191 2.13233E+01-1.32633E-03-6.36442E-04 4.06534E-01-2.05486E-14-4.54967E-13
 -1       192 2.17035E+01-1.65976E-02-1.42019E-03 3.83688E-01 2.39562E-14-3.88302E-13
 -1       193 2.20429E+01-4.00847E-02-2.27934E-03 3.12094E-01-1.52756E-14-3.82233E-13
 -1       194 2.22928E+01-7.11196E-02-3.00186E-03 1.72783E-01-9.43486E-14-3.46363E-13
 -1       195 2.23931E+01-1.04313E-01-3.26780E-03-4.56418E-02-5.42507E-14-3.60115E-13
 -1       196 2.22842E+01-1.27115E-01-2.78236E-03-3.32701E-01-5.22598E-14-3.93146E-13
 -1       197 2.19298E+01-1.20375E-01-1.45687E-03-6.39462E-01-3.52496E-15-4.70324E-13
 -1       198 2.13488E+01-6.63163E-02 3.54832E-04-8.71942E-01-6.33950E-14-4.07923E-13
 -1       199 2.06445E+01 3.49783E-02 1.89996E-03-9.13705E-01 7.04767E-14-3.70323E-13
 -1       200 2.00032E+01 1.51360E-01 2.83859E-03-6.86827E-01 1.41429E-13-2.94497E-13
 -1       201 1.96360E+01 2.26991E-01 3.16896E-03-2.21872E-01 3.04669E-14-4.20140E-13
 -1       202 1.96803E+01 2.18922E-01 3.20022E-03 3.27102E-01-1.90533E-14-3.30249E-13
 -1       203 2.01215E+01 1.32092E-01 2.85928E-03 7.58124E-01-1.20021E-14-1.74267E-13
 -1       204 2.08024E+01 1.50718E-02 1.81930E-03 9.36631E-01 2.45307E-14-2.43572E-13
 -1       205 2.15107E+01-7.85279E-02 1.43968E-04 8.55547E-01 8.15387E-14-4.16124E-13
 -1       206 2.20741E+01-1.22591E-01-1.61183E-03 6.05707E-01-1.45881E-13-4.22931E-13
 -1       207 2.24071E+01-1.21712E-01-2.79954E-03 3.03233E-01 8.11642E-14-3.41589E-13
 -1       208 2.25051E+01-9.50776E-02-3.10102E-03 3.45196E-02 1.40159E-13-2.14140E-13
 -1       209 2.24122E+01-6.09784E-02-2.69742E-03-1.59714E-01-1.23926E-13-1.97649E-13
 -1       210 2.21905E+01-3.05014E-02-1.91699E-03-2.74346E-01-4.93719E-14-2.26869E-14
 -1       211 2.18993E+01-8.00268E-03-1.06127E-03-3.23163E-01-1.05959E-13-1.84466E-13
 -1       212 2.15855E+01 6.30905E-03-3.27084E-04-3.25774E-01-8.34586E-14-8.09571E-14
 -1       213 2.12814E+01 1.40333E-02 2.04538E-04-3.00338E-01 2.92584E-14-9.48902E-14
 -1       214 2.10061E+01 1.71501E-02 5.32016E-04-2.60798E-01 2.19587E-14-3.49540E-13
 -1       215 2.07689E+01 1.73783E-02 6.92633E-04-2.16629E-01-2.11056E-15-2.20323E-13
 -1       216 2.05721E+01 1.59944E-02 7.34474E-04-1.73619E-01 4.02486E-14-4.82805E-13
 -1       217 2.04141E+01 1.38579E-02 7.01327E-04-1.34882E-01 8.71105E-14-2.79612E-13
 -1       218 2.02908E+01 1.15045E-02 6.27098E-04-1.01757E-01-1.85664E-13-3.52574E-13
 -1       219 2.01971E+01 9.24100E-03 5.35384E-04-7.44930E-02-2.07652E-13-3.20564E-13
 -1       220 2.01280E+01 7.22367E-03 4.41158E-04-5.27215E-02 1.61057E-13-2.52759E-13
 -1       221 2.00785E+01 5.51448E-03 3.52934E-04-3.57753E-02 3.93936E-13-1.93378E-13
 -1       222 2.00445E+01 4.11971E-03 2.74576E-04-2.28828E-02 8.94463E-14 7.94344E-14
 -1       223 2.00223E+01 3.01361E-03 2.06579E-04-1.32860E-02 6.79644E-14 2.20423E-13
 -1       224 2.00088E+01 2.15128E-03 1.47089E-04-6.31159E-03 1.09338E-13 3.92297E-14
 -1       225 2.00017E+01 1.46278E-03 9.52852E-05-1.42274E-03-6.26811E-14-1.73735E-13
 -1       226 1.99989E+01 8.15100E-04 6.14059E-05 1.68595E-03 1.72449E-13-2.53584E-13
 -1       227 1.99986E+01-2.67462E-05 5.24733E-05 2.99725E-03-2.78435E-14-1.22025E-13
 -1       228 2.09519E+01 2.75770E-01-5.06405E-02 1.12751E+00 3.32286E-13 1.05576E-12
 -1       229 1.99045E+01 1.28107E-01 8.62853E-03 4.04970E-01 2.47297E-13 8.08680E-13
 -1       230 1.94551E+01 6.15596E-02 1.29853E-02 1.03625E-01 1.87986E-13 5.91996E-13
 -1       231 1.93188E+01 3.34699E-02 7.93989E-03-5.07443E-02 9.45836E-14 4.67557E-13
 -1       232 1.93669E+01 2.13370E-02 4.23116E-03-1.42294E-01 3.57326E-14 3.97740E-13
 -1       233 1.95340E+01 1.63437E-02 2.41442E-03-2.05544E-01 5.66207E-14 2.96228E-13
 -1       234 1.97886E+01 1.53214E-02 1.59952E-03-2.58005E-01 1.14450E-13 2.22556E-13
 -1       235 2.01181E+01 1.68641E-02 1.19238E-03-3.10051E-01 9.53132E-14 1.57541E-13
 -1       236 2.05212E+01 2.01078E-02 9.08213E-04-3.68325E-01 1.00508E-13 4.39448E-14
 -1       237 2.10032E+01 2.41760E-02 5.92172E-04-4.36574E-01 4.02449E-14 9.93451E-14
 -1       238 2.15714E+01 2.77186E-02 1.28447E-04-5.14960E-01 3.00571E-14 7.50313E-14
 -1       239 2.22293E+01 2.83290E-02-5.59179E-04-5.97876E-01-8.43119E-15 4.56527E-14
 -1       240 2.29685E+01 2.17993E-02-1.42111E-03-6.69940E-01 6.27172E-14-1.86739E-14
 -1       241 2.37559E+01 1.52120E-03-2.11144E-03-7.00322E-01 2.06902E-14-3.70658E-14
 -1       242 2.45181E+01-4.07927E-02-1.80478E-03-6.37595E-01 5.66084E-15 7.36351E-14
 -1       243 2.51267E+01-1.10407E-01 6.05186E-04-4.12494E-01-4.17982E-14 6.26717E-14
 -1       244 2.53983E+01-1.97061E-01 5.46920E-03 3.59208E-02 1.74496E-14 2.64145E-14
 -1       245 2.51357E+01-2.56831E-01 9.81739E-03 6.91935E-01-3.85334E-14 2.14632E-13
 -1       246 2.42401E+01-2.07829E-01 7.05400E-03 1.36352E+00-1.17836E-13 3.16662E-13
 -1       247 2.28837E+01 6.53554E-03-7.54966E-03 1.65398E+00 3.95812E-14 2.34044E-13
 -1       248 2.16076E+01 3.09482E-01-2.63672E-02 1.18915E+00 8.73399E-14 3.38765E-14
 -1       249 2.11119E+01 4.65773E-01-3.28279E-02 4.48209E-02 2.59404E-13-1.94030E-13
 -1       250 2.17113E+01 3.41434E-01-1.95446E-02-1.12484E+00 2.23761E-13-5.69109E-13
 -1       251 2.30505E+01 4.60194E-02 6.56673E-04-1.65855E+00-2.08648E-14-5.59074E-13
 -1       252 2.44130E+01-1.83720E-01 1.16681E-02-1.41884E+00-1.16811E-13-2.92859E-13
 -1       253 2.52789E+01-2.51076E-01 9.89314E-03-7.65842E-01-5.95782E-14-2.71090E-13
 -1       254 2.55107E+01-2.02951E-01 3.11873E-03-1.04027E-01 5.58416E-14-3.45354E-13
 -1       255 2.52286E+01-1.19159E-01-1.98381E-03 3.57599E-01 5.63187E-14-3.94079E-13
 -1       256 2.46352E+01-4.75423E-02-3.63378E-03 5.92565E-01 5.29160E-14-4.96178E-13
 -1       257 2.39108E+01-1.76097E-03-3.07615E-03 6.58276E-01-6.07111E-14-5.19499E-13
 -1       258 2.31790E+01 2.16837E-02-1.77768E-03 6.24380E-01-2.66524E-13-2.54320E-13
 -1       259 2.25101E+01 3.05101E-02-5.89232E-04 5.43966E-01-2.23212E-13-1.23848E-13
 -1       260 2.19350E+01 3.12767E-02 2.09086E-04 4.49741E-01-7.01148E-14 8.89961E-14
 -1       261 2.14605E+01 2.82719E-02 6.35740E-04 3.58938E-01-9.28695E-15 1.02037E-13
 -1       262 2.10807E+01 2.39227E-02 8.00505E-04 2.79124E-01 1.66319E-13-3.22073E-14
 -1       263 2.07838E+01 1.94543E-02 8.09924E-04 2.12544E-01 2.05465E-13-1.33497E-13
 -1       264 2.05561E+01 1.54078E-02 7.40291E-04 1.58818E-01 6.96374E-14-2.82986E-13
 -1       265 2.03849E+01 1.19685E-02 6.38547E-04 1.16462E-01 1.52243E-13-4.14673E-13
 -1       266 2.02584E+01 9.15227E-03 5.30644E-04 8.36612E-02-1.72732E-13-1.80036E-13
 -1       267 2.01670E+01 6.90225E-03 4.29450E-04 5.86383E-02-3.30174E-13 4.26025E-14
 -1       268 2.01024E+01 5.13738E-03 3.40277E-04 3.98092E-02-1.29610E-13 2.75700E-13
 -1       269 2.00582E+01 3.77474E-03 2.64213E-04 2.58281E-02-4.74826E-15 2.77150E-13
 -1       270 2.00293E+01 2.73913E-03 2.00244E-04 1.55854E-02 2.47892E-13 3.32201E-13
 -1       271 2.00116E+01 1.95745E-03 1.45846E-04 8.18883E-03-2.82631E-14-1.51283E-13
 -1       272 2.00020E+01 1.36355E-03 9.88062E-05 2.97145E-03 2.26125E-13-1.90529E-13
 -1       273 1.99979E+01 9.01415E-04 6.34390E-05-5.44538E-04 3.80881E-14-3.65293E-13
 -1       274 1.99974E+01 4.26561E-04 6.89143E-05-2.56396E-03 6.02966E-14-3.75585E-13
 -1       275 1.99986E+01-4.88581E-04 1.27670E-04-2.76095E-03-3.38263E-14-1.60485E-13
 -1       276 1.99999E+01-1.65899E-03 3.85544E-05-2.95155E-03-7.70341E-14-3.03909E-13
 -1       277 2.00007E+01-1.90873E-03 6.15027E-06-1.59953E-03-1.06929E-13 1.93661E-13
 -1       278 2.00008E+01-6.28190E-04-1.46799E-07 6.62157E-04-1.55037E-13 1.28963E-13
 -1       279 2.00004E+01 2.12174E-03 2.76615E-06 2.53875E-03-3.33415E-13 1.27482E-14
 -1       280 2.00000E+01 5.68581E-03-3.89914E-06 3.43226E-03-5.21188E-13-1.11469E-12
 -1       281 1.99995E+01 9.29182E-03-1.21960E-05 3.18679E-03-3.05629E-13-3.70946E-14
 -1       282 1.99992E+01 1.19551E-02-2.02501E-05 1.95642E-03-4.83179E-13-6.54907E-14
 -1       283 1.99991E+01 1.30066E-02-2.35708E-05 1.60832E-04-3.49151E-13-1.97971E-14
 -1       284 1.99992E+01 1.21927E-02-2.09581E-05-1.65838E-03-4.55784E-13 2.08281E-13
 -1       285 1.99995E+01 9.73184E-03-1.36430E-05-2.95911E-03-3.25531E-13 1.46467E-13
 -1       286 1.99999E+01 6.32813E-03-4.38795E-06-3.32018E-03-2.60683E-13-1.04370E-13
 -1       287 2.00004E+01 2.74244E-03 1.16889E-06-2.56379E-03-1.42678E-13 3.33334E-13
 -1       288 2.00007E+01-8.10538E-05-3.22516E-06-7.99947E-04 9.40952E-14 1.07764E-13
 -1       289 2.00006E+01-1.33217E-03 2.48355E-05 1.21292E-03-9.78073E-14 1.30428E-13
 -1       290 2.00005E+01-5.06535E-04 1.29838E-05 2.72425E-03 3.01491E-14 5.93738E-14
 -1       291-5.48754E-01-9.25594E+00-7.08466E-01 1.26049E+00-1.47229E-13 4.56191E-13
 -1       292 2.82086E+00-8.44730E+00-7.58544E-01 3.36135E+00-3.80251E-14 6.20559E-13
 -1       293 9.46908E+00-5.39908E+00-5.10708E-01 5.44416E+00 2.23904E-13 2.71158E-13
 -1       294 1.87390E+01-1.71446E+00-1.55583E-01 6.85854E+00 1.53350E-13 4.65017E-13
 -1       295 2.89899E+01 2.04281E+00 2.85837E-01 7.40770E+00 3.93102E-13 3.27571E-13
 -1       296 3.89522E+01 4.63380E+00 7.24002E-01 6.20371E+00 4.76829E-13-5.38458E-14
 -1       297 4.29681E+01 6.66940E+00 6.70359E-01 1.82883E+00 5.97314E-13-4.74815E-13
 -1       298 4.68838E+01 6.88753E+00 9.96237E-01-6.40394E-01 7.96391E-13-9.66980E-13
 -1       299 4.30004E+01 5.93086E+00 8.14124E-01-3.56877E+00 9.39998E-13-1.13429E-12
 -1       300 3.54903E+01 3.57151E+00 5.41934E-01-6.45590E+00 9.06553E-13-1.54299E-12
 -1       301 2.38711E+01 6.78663E-01 8.24710E-02-7.52301E+00 9.73360E-13-1.52783E-12
 -1       302 1.27060E+01-3.60778E+00-4.14114E-01-6.09918E+00 8.93119E-13-1.11550E-12
 -1       303 4.74184E+00-7.55248E+00-7.65324E-01-3.93528E+00 6.50452E-13-7.80361E-13
 -1       304-1.68558E-02-1.04622E+01-9.85314E-01-1.67595E+00 6.93334E-14-8.81212E-13
 -1       305-1.29244E+00-1.12611E+01-1.02542E+00 3.85023E-01-3.85299E-13-5.85032E-13
 -1       306 6.49593E-01-9.82316E+00-9.22382E-01 2.44477E+00-7.61030E-13-7.39631E-13
 -1       307 5.80170E+00-6.57808E+00-6.51449E-01 4.65772E+00-9.56624E-13-6.05887E-13
 -1       308 1.47935E+01-3.06594E+00-2.30987E-01 6.79081E+00-8.56565E-13-6.66606E-13
 -1       309 2.54993E+01-3.20254E-01 9.26547E-02 6.64257E+00-6.57863E-13-6.93695E-13
 -1       310 3.43780E+01 3.92501E+00 4.90741E-01 6.65589E+00-7.54230E-13-8.71414E-13
 -1       311 4.03898E+01 6.03394E+00 5.80528E-01 3.21616E+00-7.30221E-13-5.92804E-13
 -1       312 4.63975E+01 6.65124E+00 1.00095E+00 1.02955E+00-6.23154E-13-5.22957E-13
 -1       313 4.46561E+01 6.53506E+00 9.20397E-01-2.68512E+00-5.50657E-13-1.85560E-13
 -1       314 3.92646E+01 5.27160E+00 7.63604E-01-6.31027E+00-4.45397E-13 3.80168E-13
 -1       315 2.98498E+01 3.07905E+00 3.79019E-01-7.75815E+00-5.56319E-13 5.81479E-13
 -1       316 1.96945E+01-6.22214E-01-4.90666E-02-7.31738E+00-4.93966E-13 6.14064E-13
 -1       317 9.83069E+00-4.37897E+00-4.72628E-01-5.74969E+00-6.43041E-13 5.34892E-13
 -1       318 3.18798E+00-8.02724E+00-7.30645E-01-3.85742E+00-4.86444E-13 4.72740E-13
 -1       319-7.05258E-01-1.02446E+01-8.92857E-01-1.45786E+00-4.48197E-13 1.37682E-13
 -1       320 2.01829E+01 3.02767E+00-1.77384E-02-2.02436E+00-3.75453E-13-4.26678E-13
 -1       321 2.07828E+01 2.20786E+00-1.75021E-02-2.28846E+00-4.16679E-13-2.00001E-13
 -1       322 1.95940E+01 3.74435E+00-1.53300E-02-1.23802E+00-1.81368E-13-6.21616E-13
 -1       323 1.94511E+01 3.91889E+00-1.32781E-02-8.58975E-01-1.02244E-13-6.47344E-13
 -1       324 1.93647E+01 4.02376E+00-1.21894E-02-5.01654E-01-7.19184E-15-6.33295E-13
 -1       325 1.93244E+01 4.07281E+00-1.17204E-02-1.58359E-01 5.77256E-14-6.10512E-13
 -1       326 1.93260E+01 4.07179E+00-1.17387E-02 1.80133E-01 1.31073E-13-5.80612E-13
 -1       327 1.93697E+01 4.02017E+00-1.22378E-02 5.23325E-01 2.05932E-13-5.64386E-13
 -1       328 1.94582E+01 3.91380E+00-1.33441E-02 8.74318E-01 2.78780E-13-5.14574E-13
 -1       329 1.96065E+01 3.73321E+00-1.53527E-02 1.25199E+00 3.58888E-13-4.16411E-13
 -1       330 1.98404E+01 3.44347E+00-1.86371E-02 1.64976E+00 4.31186E-13-2.99540E-13
 -1       331 2.02190E+01 2.96845E+00-2.26653E-02 2.04021E+00 4.81087E-13-9.10218E-14
 -1       332 2.07763E+01 2.12862E+00-3.00733E-02 2.24768E+00 4.78110E-13 2.51037E-13
 -1       333 2.11063E+01 1.18463E+00-2.43886E-02 1.86233E+00 4.26496E-13 5.59977E-13
 -1       334 2.04387E+01 4.94656E-01 8.62674E-03 8.61374E-01 3.60317E-13 4.36262E-13
 -1       335 2.05177E+01 6.86795E-01 1.27793E-02-9.41690E-01-3.45732E-13-1.08905E-13
 -1       336 2.01383E+01 3.58967E-01 7.43782E-03-3.53580E-01-2.67472E-13-1.27097E-13
 -1       337 1.99397E+01 2.08375E-01 4.51904E-03-1.37781E-02-1.83133E-13-1.58586E-13
 -1       338 1.98754E+01 1.32473E-01 2.37017E-03 1.98654E-01-1.14735E-13-1.97978E-13
 -1       339 1.99106E+01 9.34136E-02 1.35964E-03 3.41837E-01-7.62243E-14-1.85165E-13
 -1       340 2.00189E+01 7.35346E-02 9.19373E-04 4.47204E-01-9.18600E-14-1.73269E-13
 -1       341 2.01830E+01 6.29536E-02 6.93950E-04 5.31669E-01-6.51571E-14-1.95093E-13
 -1       342 2.03914E+01 5.43934E-02 5.08305E-04 6.02660E-01-1.31071E-13-2.05983E-13
 -1       343 2.06360E+01 4.09535E-02 2.57957E-04 6.59864E-01-1.26516E-13-2.37365E-13
 -1       344 2.09097E+01 1.51627E-02-1.40543E-04 6.95375E-01-1.07232E-13-2.23792E-13
 -1       345 2.12037E+01-3.09553E-02-7.52791E-04 6.93321E-01-1.59074E-14-2.88732E-13
 -1       346 2.15057E+01-1.04345E-01-1.60345E-03 6.30144E-01 2.80116E-14-2.69118E-13
 -1       347 2.17965E+01-2.06981E-01-2.62212E-03 4.77273E-01 9.75890E-15-2.86660E-13
 -1       348 2.20479E+01-3.28746E-01-3.57509E-03 2.08854E-01-2.60237E-14-2.12241E-13
 -1       349 2.22194E+01-4.38121E-01-4.03536E-03-1.82446E-01-1.12821E-13-8.01181E-14
 -1       350 2.22605E+01-4.77018E-01-3.56182E-03-6.60805E-01-9.67629E-14-5.29284E-14
 -1       351 2.21249E+01-3.73180E-01-1.82253E-03-1.12235E+00 2.65238E-14-1.06549E-13
 -1       352 2.18044E+01-8.39227E-02 7.63253E-04-1.39428E+00 4.94369E-15-1.03107E-13
 -1       353 2.13737E+01 3.38341E-01 2.82570E-03-1.29309E+00 1.08947E-13-1.04744E-13
 -1       354 2.10023E+01 7.20933E-01 4.39944E-03-7.49261E-01 7.70879E-14-1.18216E-13
 -1       355 2.08756E+01 8.57606E-01 4.98168E-03 8.86288E-02-1.29870E-14-1.16990E-13
 -1       356 2.10659E+01 6.66010E-01 4.51215E-03 8.94928E-01-2.99413E-14-1.12289E-13
 -1       357 2.14724E+01 2.61470E-01 2.96937E-03 1.36495E+00-1.12913E-14-2.18716E-13
 -1       358 2.19038E+01-1.44423E-01 4.97608E-04 1.39254E+00-2.19938E-14-3.51137E-13
 -1       359 2.22062E+01-3.98137E-01-2.03216E-03 1.07831E+00 8.33511E-14-3.19101E-13
 -1       360 2.23230E+01-4.68465E-01-3.67042E-03 6.11962E-01 2.92203E-14-2.28513E-13
 -1       361 2.22744E+01-4.08749E-01-3.89016E-03 1.56368E-01 1.12705E-13-1.57759E-13
 -1       362 2.21100E+01-2.91340E-01-3.23833E-03-1.98823E-01 5.08543E-14-1.70644E-13
 -1       363 2.18791E+01-1.69387E-01-2.23270E-03-4.28071E-01-7.93016E-14-1.72760E-13
 -1       364 2.16201E+01-6.99300E-02-1.22079E-03-5.43890E-01 1.95045E-14-1.36013E-13
 -1       365 2.13593E+01-6.24028E-04-4.03563E-04-5.74171E-01-5.05682E-14 1.09135E-13
 -1       366 2.11134E+01 4.12592E-02 1.60127E-04-5.48214E-01-6.12348E-14 9.43383E-14
 -1       367 2.08920E+01 6.22227E-02 4.93291E-04-4.90379E-01-1.41118E-13 1.37604E-13
 -1       368 2.06997E+01 6.89857E-02 6.49424E-04-4.18423E-01 8.09735E-14-1.70430E-14
 -1       369 2.05374E+01 6.70530E-02 6.85466E-04-3.44040E-01-1.45066E-13-7.35277E-14
 -1       370 2.04042E+01 6.04188E-02 6.48908E-04-2.74185E-01 2.08652E-13 4.48064E-14
 -1       371 2.02972E+01 5.17474E-02 5.74509E-04-2.12437E-01-2.89573E-14-3.40878E-14
 -1       372 2.02134E+01 4.26886E-02 4.85457E-04-1.60154E-01 5.33831E-15 3.82856E-13
 -1       373 2.01491E+01 3.41785E-02 3.95934E-04-1.17327E-01-5.33562E-14 5.63264E-13
 -1       374 2.01010E+01 2.66796E-02 3.13707E-04-8.31930E-02 4.64554E-14 2.71084E-13
 -1       375 2.00660E+01 2.03565E-02 2.42337E-04-5.66325E-02 3.38050E-13-7.86496E-14
 -1       376 2.00412E+01 1.51938E-02 1.82515E-04-3.64276E-02 2.04092E-13 2.59038E-13
 -1       377 2.00243E+01 1.10651E-02 1.32802E-04-2.14201E-02 6.24978E-14 1.24719E-13
 -1       378 2.00132E+01 7.76713E-03 9.32584E-05-1.06258E-02-2.31100E-13 1.94948E-13
 -1       379 2.00064E+01 4.99136E-03 6.91535E-05-3.25412E-03 2.15859E-14 3.28937E-13
 -1       380 2.00025E+01 2.33377E-03 1.27588E-05 9.25231E-04 1.40746E-14 1.15566E-13
 -1       381 1.99851E+01 2.41186E-01 1.10767E-02 3.17179E-01 2.76390E-13 3.35805E-13
 -1       382 1.97596E+01 1.35694E-01 6.60793E-03 1.27925E-02 1.72862E-13 2.53431E-13
 -1       383 1.97082E+01 8.65600E-02 3.42121E-03-1.73335E-01 8.91239E-14 1.22396E-13
 -1       384 1.97782E+01 6.46392E-02 1.99399E-03-3.00904E-01 7.98367E-14 7.10172E-14
 -1       385 1.99377E+01 5.79080E-02 1.49036E-03-4.02414E-01 1.27719E-13 5.00878E-14
 -1       386 2.01699E+01 6.07189E-02 1.37939E-03-4.97160E-01 1.58754E-13 9.51669E-15
 -1       387 2.04679E+01 6.95904E-02 1.41445E-03-5.97245E-01 1.49597E-13-4.52719E-14
 -1       388 2.08307E+01 8.12149E-02 1.45317E-03-7.09433E-01 4.30130E-15-9.28034E-15
 -1       389 2.12603E+01 9.09267E-02 1.35018E-03-8.34580E-01 4.47182E-14-7.94341E-15
 -1       390 2.17582E+01 9.09625E-02 9.18298E-04-9.64908E-01 2.27969E-14-3.34059E-14
 -1       391 2.23215E+01 6.84181E-02-6.15805E-05-1.07892E+00 1.18592E-13-8.34117E-14
 -1       392 2.29384E+01 3.85215E-03-1.74803E-03-1.13428E+00 6.00334E-14-6.54531E-14
 -1       393 2.35818E+01-1.26276E-01-4.03867E-03-1.06124E+00-1.11540E-13 1.04005E-14
 -1       394 2.42004E+01-3.36195E-01-6.25984E-03-7.65094E-01 2.97201E-15 1.33842E-13
 -1       395 2.47068E+01-5.97240E-01-7.43254E-03-1.56239E-01 2.74646E-14 1.96327E-13
 -1       396 2.49661E+01-7.85618E-01-6.97381E-03 7.66246E-01-9.08722E-14 2.06451E-13
 -1       397 2.48223E+01-6.72261E-01-7.82220E-03 1.77405E+00-1.75853E-13 2.62211E-13
 -1       398 2.42003E+01-5.07387E-02-1.14963E-02 2.32471E+00 1.10613E-13 2.57567E-13
 -1       399 2.33654E+01 8.78461E-01-1.74188E-02 1.81691E+00 1.24485E-13 1.95730E-13
 -1       400 2.29040E+01 1.44066E+00-1.65492E-02 2.23182E-01 4.52584E-13-2.34886E-14
 -1       401 2.32370E+01 1.10305E+00-1.22585E-02-1.50959E+00 4.07596E-13-3.05526E-13
 -1       402 2.40791E+01 1.92135E-01-7.20148E-03-2.34550E+00-7.59622E-14-3.31178E-13
 -1       403 2.48056E+01-5.55101E-01-5.09633E-03-2.00722E+00-1.39832E-13-2.39839E-13
 -1       404 2.50633E+01-7.94281E-01-7.54516E-03-1.04878E+00-2.08063E-14-2.40251E-13
 -1       405 2.48798E+01-6.57941E-01-9.38878E-03-7.42763E-02 8.85294E-14-1.63395E-13
 -1       406 2.44207E+01-3.95976E-01-8.43496E-03 6.09760E-01 1.62786E-14-1.74402E-13
 -1       407 2.38356E+01-1.64494E-01-5.47711E-03 9.63636E-01 4.30372E-14-1.37908E-14
 -1       408 2.32223E+01-1.22322E-02-2.46556E-03 1.06734E+00 3.06974E-14 1.18092E-13
 -1       409 2.26373E+01 6.84651E-02-2.33562E-04 1.01964E+00-2.79913E-13-1.83970E-13
 -1       410 2.21109E+01 1.00789E-01 1.07169E-03 8.97751E-01-3.66152E-13-1.99720E-13
 -1       411 2.16563E+01 1.05540E-01 1.64818E-03 7.50947E-01-2.79147E-13-1.41953E-13
 -1       412 2.12757E+01 9.68235E-02 1.76720E-03 6.06469E-01 5.47006E-14 1.44629E-13
 -1       413 2.09652E+01 8.28925E-02 1.64484E-03 4.77174E-01 3.02853E-13 1.73264E-14
 -1       414 2.07173E+01 6.80717E-02 1.42048E-03 3.67595E-01 3.22308E-13-3.59557E-14
 -1       415 2.05230E+01 5.43714E-02 1.17228E-03 2.77916E-01 9.24270E-14-1.37294E-13
 -1       416 2.03735E+01 4.25557E-02 9.38688E-04 2.06304E-01 4.52421E-14-5.46336E-14
 -1       417 2.02605E+01 3.27688E-02 7.35398E-04 1.50189E-01-1.94538E-13 1.19243E-13
 -1       418 2.01767E+01 2.48746E-02 5.66252E-04 1.06904E-01-4.32298E-13 8.77558E-14
 -1       419 2.01158E+01 1.86294E-02 4.29459E-04 7.39873E-02-2.21252E-13 1.27541E-13
 -1       420 2.00726E+01 1.37662E-02 3.20835E-04 4.92966E-02 4.81725E-14 1.59660E-13
 -1       421 2.00430E+01 1.00326E-02 2.35100E-04 3.10371E-02 1.99913E-13 2.10267E-13
 -1       422 2.00235E+01 7.19078E-03 1.68320E-04 1.77405E-02 2.78255E-13 1.55009E-13
 -1       423 2.00114E+01 4.99015E-03 1.13968E-04 8.29297E-03 3.24010E-14-4.09948E-14
 -1       424 2.00045E+01 3.24458E-03 7.01858E-05 1.89953E-03 1.96799E-13 2.80334E-13
 -1       425 2.00012E+01 1.52070E-03 4.03186E-05-1.90161E-03 5.65673E-14 1.19591E-15
 -1       426 2.00003E+01 1.99293E-04 8.67127E-06-2.89324E-03-1.44411E-13-2.16705E-13
 -1       427 2.00027E+01 9.92460E-03 1.82421E-05 5.06468E-03-1.44508E-13-3.72895E-13
 -1       428 2.00035E+01 5.26100E-03 2.82880E-05 1.87872E-03 9.78524E-14 5.47092E-14
 -1       429 2.00024E+01 1.99291E-03 1.53532E-05-1.09742E-03 4.10955E-14 1.60382E-13
 -1       430 2.00011E+01 1.50357E-02 8.88584E-06 6.97386E-03-3.08093E-13-5.24941E-13
 -1       431 1.99992E+01 2.00415E-02-1.68955E-06 7.00848E-03-7.03651E-14-4.82788E-13
 -1       432 1.99977E+01 2.39719E-02-1.42841E-05 5.19155E-03-1.05546E-13-1.86840E-13
 -1       433 1.99968E+01 2.61504E-02-2.18954E-05 2.05001E-03-4.31124E-13-2.14938E-14
 -1       434 1.99967E+01 2.61969E-02-2.24526E-05-1.58843E-03-2.55949E-13 5.63787E-14
 -1       435 1.99976E+01 2.41086E-02-1.58282E-05-4.79380E-03-3.29162E-13 1.00201E-13
 -1       436 1.99990E+01 2.03405E-02-4.30262E-06-6.71863E-03-3.13524E-13 1.51184E-13
 -1       437 2.00009E+01 1.54096E-02 7.20416E-06-6.89934E-03 2.52252E-13 4.85305E-13
 -1       438 2.00025E+01 1.02183E-02 1.66306E-05-5.19646E-03 2.64689E-13 1.89214E-13
 -1       439 2.00033E+01 5.41981E-03 1.56080E-05-2.06514E-03 1.34276E-13-5.51406E-14
 -1       440 1.03591E+01-5.66398E+00-5.50451E-02 6.63987E+00-2.81483E-13 3.25434E-15
 -1       441 1.11451E+00-4.34164E+00-6.18973E-02-6.02404E-01-1.15324E-14 1.23568E-13
 -1       442 3.96244E+00-4.85617E+00-6.27228E-02 4.30851E+00-1.75152E-13 6.64704E-13
 -1       443 1.88605E+01-5.62531E+00-3.93854E-02 6.47967E+00-2.27818E-13 1.82979E-13
 -1       444 2.70616E+01-3.51209E+00 2.10810E-03 4.22455E+00 2.56323E-14 1.35308E-14
 -1       445 1.98321E+01 3.46312E+00-1.74709E-02-1.65030E+00-2.84255E-13-5.49560E-13
 -1       446 3.46229E+01 4.09807E+00-1.31987E-02-6.77316E-01 5.76400E-13-2.77181E-13
 -1       447 3.59745E+01 7.77134E+00 2.42672E-02-1.99189E-01 7.30638E-13-4.27033E-13
 -1       448 3.60163E+01 7.15777E+00 5.97929E-02 5.04092E-01 7.76018E-13-3.05200E-13
 -1       449 3.45867E+01 3.09673E+00 3.50776E-02 7.01691E-02 6.95305E-13-1.81244E-13
 -1       450 3.04301E+01-1.49575E+00 1.68192E-02-2.94339E+00 2.97928E-13-7.89702E-13
 -1       451 2.35158E+01-5.32295E+00-3.39899E-03-5.38017E+00 8.47239E-14-7.35065E-13
 -1       452 1.36302E+01-5.86646E+00-5.73599E-02-6.92672E+00 1.82243E-13-6.18698E-13
 -1       453 5.85781E+00-5.22866E+00-6.89120E-02-5.45029E+00-2.95458E-14-9.78329E-13
 -1       454 1.21647E+00-5.01960E+00-1.19321E-01-1.60727E+00-9.89278E-14-9.33448E-13
 -1       455 1.99736E+00-4.49938E+00-5.81479E-02 2.86023E+00-1.15873E-13-6.74349E-13
 -1       456 7.00340E+00-5.17312E+00-3.22568E-02 6.23089E+00-8.01442E-14-4.12281E-13
 -1       457 1.45912E+01-5.56298E+00-2.01582E-02 7.26818E+00-9.43412E-14-3.28253E-13
 -1       458 2.30313E+01-4.57915E+00-3.63020E-03 5.73685E+00-3.06088E-13-2.52173E-13
 -1       459 3.00951E+01-6.20385E-01-1.12811E-02 2.36272E+00-3.88120E-13-2.31953E-13
 -1       460 3.31240E+01 3.19240E+00-2.50447E-02 2.88335E-01-5.58088E-13-2.55004E-13
 -1       461 3.42921E+01 7.47057E+00-1.24425E-02-4.13052E-01-6.71158E-13-3.37605E-13
 -1       462 3.47568E+01 8.11699E+00 2.83294E-03 1.56322E-01-5.88030E-13-4.12382E-13
 -1       463 3.54726E+01 5.69255E+00 9.51011E-02-3.91870E-01-5.04624E-13-3.80182E-13
 -1       464 3.26028E+01 1.70918E+00 7.00631E-02-2.07576E+00-2.65284E-13-2.09111E-13
 -1       465 2.74908E+01-2.80226E+00 5.56920E-03-3.97820E+00 7.89507E-14-2.32411E-13
 -1       466 1.91557E+01-5.07645E+00-3.23624E-02-6.73251E+00-1.19960E-13 1.38174E-13
 -1       467 1.13999E+01-5.36619E+00-1.62042E-02-7.19529E+00-6.87506E-14 2.52728E-13
 -1       468 4.08380E+00-4.59855E+00-3.39702E-02-4.79485E+00-2.07515E-13 3.40436E-13
 -1       469 3.28397E+01 4.74761E-01 6.29040E-02 1.86444E+00 3.52773E-13-2.56489E-13
 -1       470 3.95373E+00-2.31275E+00 1.21572E-01 2.21996E+00-7.94712E-14 4.02303E-13
 -1       471 2.73989E+01-3.89884E+00-3.10951E-02 2.69468E+00-1.86968E-13-1.03764E-13
 -1       472 3.17087E+01 5.80136E+00-1.37682E-01-1.69025E+00 6.98719E-13-9.28008E-14
 -1       473 2.04449E+01 8.58767E-01 4.08779E-03 8.62986E-01 3.68833E-13 6.65895E-14
 -1       474 1.96917E+01 3.22300E+00-5.13702E-03-5.64650E-01-6.36616E-14-5.84942E-13
 -1       475 1.98152E+01 3.02619E+00-5.57348E-03-8.56467E-01-1.32049E-13-5.64194E-13
 -1       476 1.95985E+01 3.36769E+00-4.78329E-03 9.88092E-03 8.19021E-14-5.32091E-13
 -1       477 1.96237E+01 3.33052E+00-4.87636E-03 2.94788E-01 1.61754E-13-5.19461E-13
 -1       478 1.96962E+01 3.21976E+00-5.22317E-03 5.77722E-01 2.29962E-13-4.97803E-13
 -1       479 1.98222E+01 3.01941E+00-5.80623E-03 8.67817E-01 3.03040E-13-4.17480E-13
 -1       480 2.00076E+01 2.70643E+00-6.45240E-03 1.14831E+00 3.69458E-13-3.13663E-13
 -1       481 2.02741E+01 2.23145E+00-5.66760E-03 1.39080E+00 4.33105E-13-1.81390E-13
 -1       482 2.02220E+01 4.98006E-01 5.28918E-03 3.23261E-01 2.73757E-13 2.31913E-14
 -1       483 2.04130E+01 1.01138E+00 2.86527E-03-8.17428E-01-2.93214E-13-2.80040E-13
 -1       484 2.97282E+01-2.87674E+00-5.17888E-02 6.98303E-01 2.10647E-14-1.13104E-14
 -1       485 2.02716E+01 6.03542E-01 2.47985E-03-3.09799E-01-2.45766E-13-2.52840E-13
 -1       486 2.01648E+01 3.82059E-01 1.29052E-03 3.88807E-02-1.60012E-13-2.29956E-13
 -1       487 2.01165E+01 2.60700E-01 6.91410E-04 2.80856E-01-1.10400E-13-2.26605E-13
 -1       488 2.01239E+01 1.94205E-01 4.29135E-04 4.57148E-01-7.20795E-14-2.87104E-13
 -1       489 2.01791E+01 1.57822E-01 3.19923E-04 5.94260E-01-9.85469E-14-3.16980E-13
 -1       490 2.02751E+01 1.34841E-01 2.53438E-04 7.07618E-01-7.79879E-14-3.04711E-13
 -1       491 2.04076E+01 1.11128E-01 1.76321E-04 8.03496E-01-1.33704E-13-2.67757E-13
 -1       492 2.05756E+01 7.24233E-02 4.84617E-05 8.79583E-01-1.29908E-13-2.23582E-13
 -1       493 2.07810E+01 3.38229E-03-1.67099E-04 9.24664E-01-8.24566E-14-1.79821E-13
 -1       494 2.10278E+01-1.11357E-01-5.00859E-04 9.18038E-01 2.61503E-14-1.97126E-13
 -1       495 2.13207E+01-2.82802E-01-9.72020E-04 8.29701E-01 3.55400E-14-2.06136E-13
 -1       496 2.16602E+01-5.08009E-01-1.52912E-03 6.23258E-01 5.38539E-15-1.31049E-13
 -1       497 2.20327E+01-7.54048E-01-1.97127E-03 2.65089E-01-2.16706E-14-1.61143E-13
 -1       498 2.23959E+01-9.38844E-01-1.96057E-03-2.54375E-01-5.69263E-14-4.93699E-14
 -1       499 2.26674E+01-9.26481E-01-1.56729E-03-8.82119E-01-8.68445E-14-6.01945E-14
 -1       500 2.27411E+01-5.70164E-01-6.77242E-04-1.45892E+00-2.57277E-14 3.31896E-15
 -1       501 2.25546E+01 1.69975E-01-3.08078E-04-1.71585E+00 6.69023E-14 1.44610E-13
 -1       502 2.21957E+01 1.07470E+00-2.57466E-03-1.38766E+00 1.09840E-13-4.74431E-14
 -1       503 2.19205E+01 1.68750E+00-2.31042E-03-4.63043E-01-2.38724E-14-8.94859E-14
 -1       504 2.19566E+01 1.62005E+00-2.10945E-03 6.86971E-01-5.41984E-14-8.47142E-14
 -1       505 2.22745E+01 9.21954E-01-9.02691E-04 1.52221E+00-1.13194E-13-1.45447E-13
 -1       506 2.26230E+01 2.21272E-02 5.03089E-04 1.73619E+00-1.01425E-13-3.15761E-13
 -1       507 2.27707E+01-6.51742E-01-2.36878E-04 1.40582E+00 7.42071E-15-2.09264E-13
 -1       508 2.26618E+01-9.32691E-01-1.86452E-03 8.11943E-01 4.54817E-15-2.66872E-13
 -1       509 2.23761E+01-8.91476E-01-2.07341E-03 2.09836E-01 1.09682E-13-3.52829E-13
 -1       510 2.20200E+01-6.82520E-01-1.77260E-03-2.64716E-01 1.09969E-13-2.85687E-13
 -1       511 2.16671E+01-4.32011E-01-1.30793E-03-5.74686E-01 3.08569E-15-1.24901E-13
 -1       512 2.13529E+01-2.11715E-01-7.79844E-04-7.36147E-01-7.00599E-14-6.83730E-14
 -1       513 2.10874E+01-4.85666E-02-3.33806E-04-7.85094E-01-3.03082E-16-1.57487E-13
 -1       514 2.08678E+01 5.69233E-02-1.98659E-05-7.58775E-01-5.61427E-14-1.01138E-13
 -1       515 2.06876E+01 1.15514E-01 1.73011E-04-6.88123E-01-3.38935E-14 4.44246E-14
 -1       516 2.05402E+01 1.40471E-01 2.71037E-04-5.96028E-01-1.42411E-13 1.32644E-13
 -1       517 2.04200E+01 1.43581E-01 3.04016E-04-4.98029E-01 2.31407E-14 2.10553E-13
 -1       518 2.03226E+01 1.33896E-01 2.96867E-04-4.03816E-01-4.10309E-14 2.44830E-13
 -1       519 2.02443E+01 1.17767E-01 2.67827E-04-3.18784E-01-2.67399E-14 6.85998E-14
 -1       520 2.01822E+01 9.93386E-02 2.29201E-04-2.45375E-01 1.11712E-13 9.11417E-14
 -1       521 2.01335E+01 8.11198E-02 1.88667E-04-1.84122E-01-4.06476E-14 4.32648E-14
 -1       522 2.00959E+01 6.44859E-02 1.50568E-04-1.34416E-01-5.74525E-14 3.38662E-13
 -1       523 2.00674E+01 5.00632E-02 1.16916E-04-9.50475E-02-4.74709E-14 2.19358E-13
 -1       524 2.00461E+01 3.80071E-02 8.87143E-05-6.45648E-02 2.76387E-13 1.35405E-14
 -1       525 2.00306E+01 2.81893E-02 6.60197E-05-4.14986E-02 5.11319E-14-1.62281E-13
 -1       526 2.00195E+01 2.02720E-02 4.80240E-05-2.45175E-02 1.28961E-13 3.05064E-14
 -1       527 2.00116E+01 1.38033E-02 3.78756E-05-1.25104E-02-1.47765E-13 2.22610E-13
 -1       528 2.00381E+01 2.16066E-01 1.43607E-03-2.69727E-01 1.22595E-13-6.74125E-14
 -1       529 2.00658E+01 1.73313E-01 9.30663E-04-4.50501E-01 1.16388E-13-9.81176E-14
 -1       530 2.01550E+01 1.62321E-01 7.97950E-04-6.03143E-01 1.50669E-13-1.01503E-13
 -1       531 2.02955E+01 1.71690E-01 8.13748E-04-7.49123E-01 1.69327E-13-6.64667E-14
 -1       532 2.04811E+01 1.92794E-01 8.76843E-04-9.02105E-01 7.88464E-14-1.44488E-14
 -1       533 2.07091E+01 2.16014E-01 9.10497E-04-1.06877E+00 5.79713E-14-1.05076E-13
 -1       534 2.09806E+01 2.27271E-01 8.16324E-04-1.24753E+00 8.02089E-14-1.15427E-13
 -1       535 2.13010E+01 2.04065E-01 4.56738E-04-1.42504E+00 5.53921E-14-1.81537E-13
 -1       536 2.16835E+01 1.11547E-01-3.49363E-04-1.57039E+00-1.12834E-14-1.22723E-13
 -1       537 2.21532E+01-9.77816E-02-1.73894E-03-1.62706E+00-1.24830E-13 5.95813E-14
 -1       538 2.27490E+01-4.71712E-01-3.59426E-03-1.50509E+00-1.06444E-13 6.23562E-14
 -1       539 2.35109E+01-1.01482E+00-5.04899E-03-1.08173E+00-5.17145E-14 9.89398E-14
 -1       540 2.44305E+01-1.59661E+00-6.20195E-03-2.35979E-01-9.50373E-14 2.70773E-13
 -1       541 2.53613E+01-1.82976E+00-7.50616E-03 1.04659E+00-2.39547E-13 3.56957E-13
 -1       542 2.58808E+01-1.10165E+00-2.50278E-02 2.40921E+00-1.35453E-13 4.51639E-13
 -1       543 2.57097E+01 8.12964E-01-5.91026E-02 2.80523E+00 2.73124E-13 4.13851E-13
 -1       544 2.52525E+01 2.88024E+00-7.20573E-02 1.47003E+00 3.82722E-13 1.67386E-13
 -1       545 2.50500E+01 3.20595E+00-9.80252E-02-1.02988E+00 6.00183E-13 2.18986E-13
 -1       546 2.57148E+01 1.33308E+00-4.55332E-02-2.71672E+00 2.56378E-13 6.43418E-14
 -1       547 2.59525E+01-7.63372E-01-3.06907E-02-2.58724E+00-8.01043E-14-1.58626E-13
 -1       548 2.55535E+01-1.76638E+00-1.22499E-02-1.38095E+00-1.09959E-13-2.15232E-13
 -1       549 2.46868E+01-1.68998E+00-7.28508E-03-5.65804E-02-5.75035E-14-1.74594E-13
 -1       550 2.37594E+01-1.13753E+00-6.35020E-03 8.81522E-01-6.07280E-14-6.99699E-14
 -1       551 2.29747E+01-5.61157E-01-4.18327E-03 1.37583E+00-7.93965E-14 6.93931E-14
 -1       552 2.23646E+01-1.42115E-01-2.08509E-03 1.53625E+00-5.20954E-14 1.34271E-13
 -1       553 2.18939E+01 1.04045E-01-4.22363E-04 1.49081E+00-4.43024E-14 3.24530E-13
 -1       554 2.15212E+01 2.20835E-01 6.03981E-04 1.33815E+00-1.77308E-13 1.35722E-13
 -1       555 2.12177E+01 2.57043E-01 1.07916E-03 1.14273E+00-3.11967E-13-4.08831E-14
 -1       556 2.09664E+01 2.49559E-01 1.20323E-03 9.42437E-01-1.68125E-13-8.96730E-14
 -1       557 2.07578E+01 2.21893E-01 1.13904E-03 7.57101E-01 1.82414E-13 8.30712E-15
 -1       558 2.05859E+01 1.87458E-01 9.92132E-04 5.95385E-01 3.91022E-13 2.12315E-13
 -1       559 2.04459E+01 1.53190E-01 8.22430E-04 4.59558E-01 2.93367E-13 8.53769E-14
 -1       560 2.03337E+01 1.22260E-01 6.59961E-04 3.48525E-01 3.54423E-14 1.58411E-14
 -1       561 2.02451E+01 9.57981E-02 5.17427E-04 2.59628E-01-3.84877E-14 9.99456E-14
 -1       562 2.01765E+01 7.39087E-02 3.98372E-04 1.89668E-01-2.69694E-13 3.71507E-15
 -1       563 2.01243E+01 5.62214E-02 3.01960E-04 1.35442E-01-2.81001E-13 2.63953E-15
 -1       564 2.00853E+01 4.21825E-02 2.25377E-04 9.40112E-02-2.11640E-13 3.52049E-14
 -1       565 2.00568E+01 3.11999E-02 1.64703E-04 6.28160E-02 8.54869E-14 8.90211E-14
 -1       566 2.00366E+01 2.27010E-02 1.22846E-04 3.97250E-02 2.32516E-13 2.92454E-13
 -1       567 2.00225E+01 1.62027E-02 1.08354E-04 2.30032E-02 1.36531E-13 3.09687E-13
 -1       568 2.00130E+01 1.08594E-02 5.83987E-05 1.11012E-02-1.02296E-13 4.66105E-13
 -1       569 2.00067E+01 6.45878E-03 3.65761E-05 3.29335E-03 2.50983E-13 3.68326E-13
 -1       570 1.99999E+01 3.05284E-02 2.29829E-06 1.25852E-02 9.25116E-14-4.89427E-13
 -1       571 1.99961E+01 3.69740E-02-3.54929E-06 1.04161E-02 1.28023E-13-2.38049E-13
 -1       572 2.00063E+01 1.50898E-02-1.05472E-05 8.98750E-03 1.53365E-13-3.45191E-13
 -1       573 2.00037E+01 2.29131E-02 1.96398E-05 1.20289E-02 4.66296E-15-5.76149E-13
 -1       574 1.99935E+01 4.12219E-02-8.48138E-06 5.96806E-03 9.17349E-15-2.99377E-13
 -1       575 1.99925E+01 4.26849E-02-1.06543E-05 2.44786E-04 4.24680E-14 2.69328E-13
 -1       576 1.99933E+01 4.11710E-02-9.11143E-06-5.50400E-03 8.21699E-16-5.74592E-14
 -1       577 1.99958E+01 3.70019E-02-4.88993E-06-9.97364E-03-8.01149E-14 2.00371E-13
 -1       578 1.99994E+01 3.06039E-02-3.46915E-06-1.23387E-02 1.73740E-14 6.16797E-13
 -1       579 2.00032E+01 2.29736E-02-5.08546E-06-1.20067E-02 1.37524E-14 3.74538E-13
 -1       580 2.00060E+01 1.51710E-02 1.34348E-05-9.21553E-03-8.88866E-14-6.24012E-14
 -1       581 1.73373E+01-5.35116E+00 8.55568E-02 6.53261E+00-3.38368E-13 2.31724E-14
 -1       582 2.00861E+01 3.10567E-01 2.77551E-03-2.83686E-02 2.10089E-13-1.13770E-14
 -1       583 5.22312E+00-1.55064E+00 1.78992E-01-2.86347E+00-1.21812E-14 3.43267E-13
 -1       584 1.03113E+01-3.25800E+00 1.59888E-01 5.96027E+00-3.62731E-13 1.23131E-13
 -1       585 2.04450E+01 1.78075E+00-5.99034E-03-1.43428E+00-3.45716E-13-3.62730E-13
 -1       586 1.06072E+01-3.27154E+00 1.47886E-01-6.43065E+00 7.32053E-15 1.05596E-13
 -1       587 1.96209E+01 3.33280E+00-4.86817E-03-2.75550E-01 6.49831E-15-5.61698E-13
 -1       588 3.07901E+01 6.71088E+00-1.99107E-01 4.99702E-01 5.93026E-13 1.81480E-13
 -1       589 3.09261E+01 2.67350E+00-1.12144E-01 1.15521E+00-2.62151E-13-5.88321E-13
 -1       590 3.02067E+01 4.02308E+00-1.62679E-01 2.39884E+00 5.13714E-13 3.45383E-13
 -1       591 3.06275E+01-1.01623E+00-1.03947E-01 1.01650E+00 2.99913E-13 5.90986E-14
 -1       592 2.77437E+01-4.50299E+00-3.94381E-02-1.86310E+00-1.44849E-13-3.61482E-13
 -1       593 2.01979E+01-5.62795E+00 7.32767E-02-5.90573E+00-1.21944E-13-4.81421E-13
 -1       594 1.32210E+01-4.43492E+00 1.26109E-01-6.69296E+00-1.36544E-13-6.54296E-13
 -1       595 5.85534E+00-2.43334E+00 1.41062E-01-3.85618E+00-2.06293E-14-9.97355E-13
 -1       596 4.46798E+00-1.34420E+00 1.77430E-01 3.63316E-01 6.44263E-14-7.42878E-13
 -1       597 7.75321E+00-2.13165E+00 1.80599E-01 4.97559E+00 1.54557E-13-3.73868E-13
 -1       598 1.25672E+01-3.99150E+00 1.16459E-01 6.82697E+00 1.67116E-13-2.06467E-13
 -1       599 2.09442E+01-5.43735E+00 7.29856E-02 5.96860E+00 1.30708E-13-2.63544E-13
 -1       600 2.97325E+01-1.49360E-01-1.08399E-01-7.15178E-01-2.79325E-13-2.91225E-14
 -1       601 2.93979E+01 4.47034E+00-1.63795E-01-1.87705E+00-4.13967E-13-9.65200E-15
 -1       602 2.92219E+01 7.16045E+00-1.87568E-01-3.59232E-01-5.19695E-13-3.72674E-13
 -1       603 2.92665E+01 5.95586E+00-1.81216E-01 1.53932E+00-4.20969E-13-5.61811E-13
 -1       604 2.92531E+01-1.56612E+00-8.46326E-02-5.20586E-01 7.91190E-14-4.19560E-13
 -1       605 2.43812E+01-5.08847E+00 4.76173E-03-4.34653E+00 3.11702E-13-5.29941E-13
 -1       606 1.88576E+01-5.33475E+00 8.23451E-02-6.61760E+00 1.80120E-13-3.39723E-13
 -1       607 3.11609E+01 5.93880E-01-1.18033E-01-1.59171E+00 4.65641E-13-4.65045E-14
 -1       608 2.06331E+01 1.31659E+00-9.03185E-04 1.45979E+00 4.44004E-13 1.48256E-13
 -1       609 2.48897E+01-5.59583E+00 1.96822E-02 3.90080E+00-3.45952E-13 1.07241E-14
 -1       610 2.88340E+01 5.56220E+00-1.69961E-01-1.08919E+00 5.26246E-13 1.80635E-13
 -1       611 1.99878E+01 2.71795E+00-9.55134E-03-1.13238E+00-2.19414E-13-5.32354E-13
 -1       612 2.67948E+01-4.02151E+00-3.87570E-02-1.56961E+00 2.87738E-13-2.73930E-13
 -1       613 2.46250E+01-5.10122E+00 6.20178E-03 3.54694E+00-1.80064E-14-1.43267E-13
 -1       614 2.46755E+01-5.25855E+00 1.79972E-02-3.31257E+00-2.64861E-13-2.76818E-13
 -1       615 2.97480E+01 2.85319E+00-1.43864E-01-2.61979E+00 6.39322E-13 3.36536E-14
 -1       616 2.00077E+01 9.79943E-03 2.99508E-05-6.57237E-03-1.72119E-13 6.85965E-14
 -1       617 1.98750E+01 2.63157E+00-1.53149E-03 3.27415E-01 1.65823E-13-4.54866E-13
 -1       618 1.98264E+01 2.71796E+00-1.45422E-03 1.14714E-01 9.69707E-14-4.67314E-13
 -1       619 2.01072E+01 2.17161E+00-1.56755E-03 7.19743E-01 3.05220E-13-3.05698E-13
 -1       620 2.02679E+01 1.76336E+00-2.18767E-03 8.51852E-01 3.55362E-13-2.19706E-13
 -1       621 2.03834E+01 1.10408E+00 2.84314E-03 6.83767E-01 3.44730E-13-9.12650E-14
 -1       622 2.60656E+01 5.55274E+00-1.41085E-01 7.22254E-01-4.29136E-13-3.64444E-13
 -1       623 9.83390E+00-9.91213E-01 1.37708E-01-4.29492E+00 8.41827E-14 1.17122E-13
 -1       624 1.67150E+01-3.58397E+00 7.97559E-02-5.90818E+00 1.57862E-13-4.12254E-13
 -1       625 2.03035E+01 7.87357E-01 6.42882E-04-1.89387E-01-1.87470E-13-3.27170E-13
 -1       626 2.02506E+01 5.36676E-01 2.67225E-04 1.26274E-01-1.22936E-13-3.09918E-13
 -1       627 2.02104E+01 3.89963E-01 1.46085E-04 3.64054E-01-1.08322E-13-2.85119E-13
 -1       628 2.01928E+01 3.05764E-01 1.02799E-04 5.49774E-01-9.16943E-14-3.03139E-13
 -1       629 2.02006E+01 2.56476E-01 8.70078E-05 7.02942E-01-1.09057E-13-3.08945E-13
 -1       630 2.02355E+01 2.19892E-01 7.51623E-05 8.35867E-01-6.24591E-14-2.68848E-13
 -1       631 2.03017E+01 1.74929E-01 5.31924E-05 9.53393E-01-8.27709E-14-1.82108E-13
 -1       632 2.04077E+01 9.92566E-02 7.13733E-06 1.05249E+00-6.06688E-14-1.19681E-13
 -1       633 2.05680E+01-3.11770E-02-7.78508E-05 1.12122E+00-8.84890E-14-1.00580E-13
 -1       634 2.08042E+01-2.39532E-01-2.19766E-04 1.13708E+00 3.07843E-14-1.40857E-13
 -1       635 2.11422E+01-5.40011E-01-4.86336E-04 1.06504E+00 3.94197E-14-1.68727E-13
 -1       636 2.16048E+01-9.20850E-01-8.36888E-04 8.57013E-01 2.74220E-14-1.98622E-13
 -1       637 2.21917E+01-1.31538E+00-9.99189E-04 4.57488E-01 2.79775E-14-9.24453E-14
 -1       638 2.28443E+01-1.56431E+00-6.81036E-04-1.69627E-01-9.47096E-14-2.65319E-14
 -1       639 2.34106E+01-1.40932E+00-2.09746E-03-9.72281E-01 3.47862E-14 1.32844E-13
 -1       640 2.36831E+01-6.01107E-01-4.97019E-03-1.71341E+00 1.00109E-13 1.17514E-13
 -1       641 2.35241E+01 8.41938E-01-3.51337E-03-1.93881E+00 3.11140E-14 1.10405E-13
 -1       642 2.30992E+01 2.35667E+00-2.21053E-02-1.27520E+00-4.27002E-14 6.34306E-14
 -1       643 2.29455E+01 2.90217E+00-2.19396E-02 1.52327E-01-1.58509E-13-8.22753E-14
 -1       644 2.31981E+01 2.12500E+00-1.76182E-02 1.48223E+00-2.27954E-13-2.29246E-13
 -1       645 2.35878E+01 5.73436E-01-8.83775E-03 1.98908E+00-1.82294E-13-2.64284E-13
 -1       646 2.36775E+01-7.91250E-01-2.46543E-03 1.63654E+00-1.49871E-14-2.45672E-13
 -1       647 2.33336E+01-1.46155E+00-3.63445E-03 8.67051E-01 4.81509E-14-3.08892E-13
 -1       648 2.27368E+01-1.50581E+00-1.58166E-03 9.85077E-02 9.64787E-14-2.24238E-13
 -1       649 2.20940E+01-1.20664E+00-6.57503E-04-4.69534E-01 1.41023E-13-1.46897E-13
 -1       650 2.15323E+01-8.00943E-01-5.62058E-04-8.12293E-01 2.13029E-14-3.00929E-13
 -1       651 2.10965E+01-4.26265E-01-3.49227E-04-9.71416E-01 1.13993E-13-2.17291E-13
 -1       652 2.07812E+01-1.38892E-01-1.51376E-04-1.00271E+00-2.06576E-14-2.37611E-14
 -1       653 2.05612E+01 5.43939E-02-2.30303E-05-9.53895E-01-1.28793E-13-1.27859E-13
 -1       654 2.04094E+01 1.68209E-01 5.46596E-05-8.60083E-01 1.23785E-13 1.81348E-13
 -1       655 2.03041E+01 2.23037E-01 9.19145E-05-7.45559E-01-5.85521E-14 2.21795E-13
 -1       656 2.02296E+01 2.38043E-01 1.03907E-04-6.26302E-01-7.30310E-14 1.36272E-13
 -1       657 2.01754E+01 2.28508E-01 1.01550E-04-5.12239E-01-1.36670E-13-1.24567E-14
 -1       658 2.01350E+01 2.05546E-01 9.16162E-05-4.08994E-01-7.33639E-14 1.36729E-13
 -1       659 2.01041E+01 1.76700E-01 7.83982E-05-3.19213E-01-9.68451E-14-6.38807E-14
 -1       660 2.00800E+01 1.46756E-01 6.45082E-05-2.43559E-01 4.94028E-14-2.48218E-13
 -1       661 2.00611E+01 1.18513E-01 5.14504E-05-1.81462E-01-6.62921E-14-2.12231E-13
 -1       662 2.00462E+01 9.34074E-02 3.98843E-05-1.31660E-01-1.73573E-13-5.17086E-13
 -1       663 2.00345E+01 7.19849E-02 2.95607E-05-9.25687E-02 4.71796E-14-2.41416E-13
 -1       664 2.00252E+01 5.42331E-02 2.09490E-05-6.25502E-02 1.13035E-13-2.09876E-13
 -1       665 2.00180E+01 3.97966E-02 2.47008E-05-4.00298E-02 1.01203E-13-3.94155E-13
 -1       666 2.00122E+01 2.80456E-02 1.02420E-05-2.37182E-02 1.12220E-13-6.26661E-13
 -1       667 2.01684E+01 3.13656E-01 2.79968E-04-5.67893E-01 1.53256E-13-1.42337E-13
 -1       668 2.00114E+01 2.41373E-02 8.65514E-06 1.89644E-02 1.03119E-13-4.87793E-13
 -1       669 2.01792E+01 3.66165E-01 3.34277E-04-3.63713E-01 1.36187E-13-1.19896E-13
 -1       670 2.02282E+01 3.26649E-01 3.14582E-04-9.25839E-01 7.49982E-14-2.18142E-14
 -1       671 2.02887E+01 3.61937E-01 3.51802E-04-1.11141E+00 1.54940E-13-5.31212E-14
 -1       672 2.03669E+01 3.93672E-01 3.70544E-04-1.31205E+00 1.02080E-13-9.89628E-14
 -1       673 2.04678E+01 3.95341E-01 3.30060E-04-1.52700E+00 7.90581E-14-7.93404E-14
 -1       674 2.06092E+01 3.25993E-01 1.75006E-04-1.74612E+00-3.98111E-15 1.28344E-14
 -1       675 2.08314E+01 1.24595E-01-2.10781E-04-1.94532E+00-1.44881E-13 6.27396E-14
 -1       676 2.12110E+01-2.87665E-01-7.96096E-04-2.07728E+00-1.68009E-13 1.42320E-14
 -1       677 2.18713E+01-9.83955E-01-9.87435E-04-2.05376E+00-1.73582E-13 1.05936E-13
 -1       678 2.29657E+01-1.94880E+00 1.83597E-03-1.71971E+00-1.83888E-13 2.15377E-13
 -1       679 2.45728E+01-2.88076E+00 8.13029E-03-8.55816E-01-3.04361E-13 3.92232E-13
 -1       680 2.64399E+01-2.98973E+00-1.10471E-02 6.34043E-01-2.94235E-13 3.86181E-13
 -1       681 2.78452E+01 2.83209E+00-1.27999E-01 2.55321E+00 5.17277E-13 2.23987E-13
 -1       682 2.73247E+01 5.20486E+00-1.68283E-01 4.24917E-01 4.81913E-13 6.01754E-14
 -1       683 2.68683E+01-2.77791E+00-2.82041E-02-1.18787E+00-1.27682E-13 3.38011E-14
 -1       684 2.50052E+01-3.02256E+00 9.43196E-04 5.04289E-01-1.09422E-13 1.02681E-13
 -1       685 2.33019E+01-2.15734E+00 8.05469E-04 1.52496E+00-1.05892E-13 1.93286E-13
 -1       686 2.21029E+01-1.14760E+00 5.03888E-05 1.94425E+00-1.86813E-13 3.80725E-13
 -1       687 2.13678E+01-3.78722E-01-5.88755E-04 2.00286E+00-6.95563E-14 3.03716E-13
 -1       688 2.09473E+01 9.66543E-02-2.98294E-04 1.87591E+00-7.61531E-14 3.07381E-13
 -1       689 2.07074E+01 3.41902E-01 1.31498E-04 1.66508E+00-9.23760E-14 3.39489E-13
 -1       690 2.05613E+01 4.36658E-01 3.51139E-04 1.42559E+00-2.91072E-14 2.49039E-13
 -1       691 2.04607E+01 4.44593E-01 4.19785E-04 1.18792E+00-1.10166E-13-1.58300E-13
 -1       692 2.03820E+01 4.08395E-01 4.08828E-04 9.68289E-01-1.38516E-15-3.03520E-13
 -1       693 2.03151E+01 3.53871E-01 3.62206E-04 7.74340E-01 1.61429E-13-3.14572E-13
 -1       694 2.02566E+01 2.95349E-01 3.03975E-04 6.08550E-01 2.23867E-13 4.76111E-15
 -1       695 2.02054E+01 2.40084E-01 2.46330E-04 4.70342E-01 1.71753E-13 2.29078E-13
 -1       696 2.01615E+01 1.91258E-01 1.94819E-04 3.57469E-01-2.43338E-14 2.83370E-13
 -1       697 2.01246E+01 1.49838E-01 1.51211E-04 2.66900E-01-1.08139E-13 2.70156E-13
 -1       698 2.00943E+01 1.15660E-01 1.15483E-04 1.95372E-01-1.20794E-13-7.64215E-14
 -1       699 2.00699E+01 8.80291E-02 8.68725E-05 1.39722E-01-1.56602E-13-2.58793E-13
 -1       700 2.00508E+01 6.60459E-02 6.39402E-05 9.70671E-02-9.88148E-14-2.09248E-13
 -1       701 2.00360E+01 4.87836E-02 5.05513E-05 6.49181E-02 7.59271E-14-2.67040E-13
 -1       702 2.00248E+01 3.53748E-02 4.74064E-05 4.12255E-02 1.14758E-13-1.78849E-13
 -1       703 2.00171E+01 2.97665E-02 3.40670E-05 2.87380E-02 9.75183E-14-2.45690E-13
 -1       704 1.99863E+01 6.16832E-02-4.48978E-06 4.68851E-03 2.87983E-13 2.10031E-13
 -1       705 2.00089E+01 2.12141E-02-3.50658E-06-1.55349E-02-2.36261E-14-3.48580E-13
 -1       706 1.99952E+01 5.01993E-02-1.49543E-06 1.86469E-02 1.74117E-13-4.32664E-13
 -1       707 1.99863E+01 6.15546E-02-4.23653E-06-4.32910E-03 3.71812E-14-8.86773E-14
 -1       708 1.99895E+01 5.77378E-02-3.25365E-06 1.28581E-02-4.55341E-14-3.45933E-13
 -1       709 2.02218E+01 4.87605E-01 7.57411E-04-1.10280E-01 2.02310E-13-1.24889E-13
 -1       710 2.89979E+01-1.94104E+00-7.82589E-02-1.42560E+00 5.00971E-14-9.11528E-14
 -1       711 1.99892E+01 5.75044E-02-3.20324E-06-1.23759E-02 2.17602E-13-4.10989E-14
 -1       712 1.99946E+01 4.99029E-02-4.74149E-06-1.82250E-02 1.73718E-13 2.30643E-13
 -1       713 2.00013E+01 3.97515E-02-1.05167E-05-2.06343E-02-7.00739E-14 5.20846E-13
 -1       714 2.17994E+01-4.89726E+00 4.38877E-02 4.48896E+00-2.79100E-13 5.24255E-14
 -1       715 1.64455E+01-3.40131E+00 9.20339E-02 5.60315E+00-2.14155E-13 1.70131E-13
 -1       716 2.03199E+01 1.74059E+00 8.90802E-05-1.01196E+00-2.57350E-13-3.94132E-13
 -1       717 8.70151E+00-7.38495E-02 1.49891E-01 2.25134E+00 2.35057E-13-5.14234E-13
 -1       718 2.86520E+01 4.20347E-01-9.21257E-02 2.67780E+00 4.14436E-13 3.17822E-13
 -1       719 2.01866E+01 3.05728E-01 2.83069E-04-7.48904E-01 1.14040E-13-8.98368E-14
 -1       720 2.03401E+01 1.16280E+00-1.47615E-04-5.60522E-01-2.35596E-13-3.49105E-13
 -1       721 2.68898E+01-4.60384E+00-6.49144E-03 1.29583E+00-3.05278E-13 7.14498E-14
 -1       722 1.99704E+01 2.45337E+00-1.60928E-03 5.33025E-01 2.32317E-13-4.06404E-13
 -1       723 2.02934E+01 7.12165E-01 1.10143E-03 2.25167E-01 2.68289E-13-1.42232E-13
 -1       724 9.20215E+00-6.67636E-01 1.57251E-01 3.27956E+00-2.43328E-13 1.27523E-13
 -1       725 2.82852E+01 8.81603E-02-9.98266E-02 1.55442E+00-1.51861E-13-5.25174E-13
 -1       726 1.99663E+01 2.45622E+00-1.51306E-03-5.23769E-01-9.18064E-14-5.21544E-13
 -1       727 2.81737E+01-2.98063E+00-6.45309E-02 8.86324E-01-4.34808E-15 2.20553E-13
 -1       728 1.80422E+01-4.18852E+00 9.81142E-02-5.71631E+00-2.58970E-13-3.51788E-13
 -1       729 2.75141E+01-2.96789E+00-4.69477E-02 2.90508E-01-1.96626E-13 2.75474E-14
 -1       730 1.23800E+01-2.07919E+00 1.17185E-01 5.50472E+00 2.08746E-13-2.39694E-13
 -1       731 1.14349E+01-2.03331E+00 1.34342E-01-5.13710E+00-1.13288E-13-6.43874E-13
 -1       732 1.81416E+01-4.08999E+00 8.74252E-02 5.86921E+00 1.88689E-13-1.99587E-13
 -1       733 2.75495E+01 1.27509E+00-1.15569E-01-2.04652E+00-2.63407E-13 4.93355E-14
 -1       734 2.63841E+01 5.11576E+00-1.28950E-01-1.39963E+00-2.42049E-13-1.02069E-13
 -1       735 7.19346E+00-9.05776E-02 1.63733E-01-6.26310E-01-3.18628E-14 2.22461E-13
 -1       736 2.72871E+01 3.29938E+00-1.26514E-01 2.23669E+00-3.70544E-13-4.23439E-13
 -1       737 2.09591E+01-4.79559E+00 5.70022E-02-5.11954E+00 1.73691E-13-6.17922E-13
 -1       738 7.60562E+00-4.60533E-01 1.56845E-01-1.99621E+00 3.30846E-14-9.15504E-13
 -1       739 2.01058E+01 2.18118E+00-1.15799E-03-7.24587E-01-1.61361E-13-4.89876E-13
 -1       740 1.98261E+01 2.71759E+00-1.46882E-03-1.00045E-01 1.30297E-14-4.76486E-13
 -1       741 1.38299E+01-1.18330E+00 8.73414E-02 4.32635E+00-2.58416E-13 2.57978E-13
 -1       742 1.48114E+01-1.84030E+00 7.01099E-02-5.02845E+00 3.08429E-13-3.38621E-13
 -1       743 2.00019E+01 4.01790E-02-1.03984E-05 2.09996E-02 3.15819E-13-5.25667E-13
 -1       744 2.79421E+01-2.11551E-01-8.05659E-02-2.72881E+00 1.27731E-13-9.70890E-14
 -1       745 2.56480E+01 2.72482E+00-7.57561E-02-2.15633E+00-1.75887E-13 5.10867E-14
 -1       746 2.15280E+01-4.59145E+00 2.53466E-02 4.50216E+00 2.42665E-13-2.36894E-13
 -1       747 2.37793E+01-4.63246E+00 1.14961E-02-3.15641E+00 2.83197E-13-3.36641E-13
 -1       748 2.70165E+01-2.28430E+00-2.79841E-02 6.40590E-01 1.07353E-13-4.77948E-13
 -1       749 1.98736E+01 2.63170E+00-1.50067E-03-3.14115E-01-4.64887E-14-5.17395E-13
 -1       750 2.22255E+01-4.56256E+00 3.06392E-02-3.99332E+00-3.17172E-13-2.30241E-13
 -1       751 2.64067E+01-4.26186E+00 7.42459E-03-9.41005E-01-2.98353E-13 3.44291E-14
 -1       752 2.67244E+01-1.26728E+00-4.54234E-02-1.40407E+00-1.47495E-13 2.15116E-13
 -1       753 2.00065E+01 3.47167E-02-5.24608E-06-2.30439E-02-5.85448E-14 2.89059E-13
 -1       754 2.02699E+01 1.44879E+00 8.44404E-04 4.55811E-01 2.66508E-13-2.10723E-13
 -1       755 2.02505E+01 6.61246E-01-3.64005E-05 2.15434E-01-1.05366E-13-3.14391E-13
 -1       756 2.02014E+01 5.08149E-01 1.09943E-05 4.31432E-01-1.09416E-13-3.33792E-13
 -1       757 2.01518E+01 4.17941E-01 1.72892E-05 6.11608E-01-1.22165E-13-3.33367E-13
 -1       758 2.01099E+01 3.62087E-01 2.15882E-05 7.70652E-01-3.43059E-14-2.49993E-13
 -1       759 2.00842E+01 3.13936E-01 2.77398E-05 9.18827E-01-3.26181E-15-2.49626E-13
 -1       760 2.00863E+01 2.46107E-01 3.11046E-05 1.06127E+00-4.65112E-14-1.76471E-13
 -1       761 2.01347E+01 1.28425E-01 2.52297E-05 1.19707E+00-3.48368E-14-1.19823E-13
 -1       762 2.02577E+01-7.21848E-02 1.24783E-05 1.31733E+00-5.97637E-15-8.89896E-14
 -1       763 2.04965E+01-3.87955E-01-6.12843E-06 1.40122E+00 3.80954E-14-1.39549E-13
 -1       764 2.09042E+01-8.38997E-01-2.88422E-04 1.40915E+00-9.78192E-15-1.05652E-13
 -1       765 2.15364E+01-1.40813E+00-5.91060E-04 1.27376E+00 5.04121E-14-8.57657E-14
 -1       766 2.24214E+01-1.99175E+00-2.61193E-04 8.90105E-01 7.52772E-14-2.64349E-14
 -1       767 2.34836E+01-2.31836E+00-1.17086E-04 1.57897E-01 8.75469E-14 1.29333E-13
 -1       768 2.44847E+01-1.90487E+00-4.75163E-03-9.23913E-01 8.41074E-14 2.81485E-13
 -1       769 2.49855E+01-3.80083E-01-2.39348E-02-1.96238E+00 3.22060E-14 2.05241E-13
 -1       770 2.44579E+01 3.96181E+00-7.47222E-02 1.15555E+00-3.84484E-13-1.78256E-13
 -1       771 2.49014E+01 1.70096E+00-4.00509E-02 2.18796E+00-2.99856E-13-2.91205E-13
 -1       772 2.49795E+01-6.93145E-01-3.10478E-02 1.90153E+00-5.78339E-14-3.29930E-13
 -1       773 2.43410E+01-2.01750E+00-8.13178E-03 8.02168E-01 7.34057E-14-1.80887E-13
 -1       774 2.32902E+01-2.22737E+00 2.93141E-03-2.38264E-01 9.70866E-14-4.06968E-14
 -1       775 2.22394E+01-1.83338E+00 1.03850E-03-9.01758E-01 8.05972E-14-1.96483E-13
 -1       776 2.13965E+01-1.23780E+00-4.54766E-05-1.21718E+00 6.18517E-14-2.22249E-13
 -1       777 2.08015E+01-6.80131E-01-9.07788E-05-1.30650E+00 8.30362E-14 5.32201E-14
 -1       778 2.04185E+01-2.49632E-01-1.43155E-05-1.26378E+00 9.43808E-14-1.85165E-13
 -1       779 2.01903E+01 4.41443E-02 1.59509E-05-1.15380E+00-4.76841E-14 1.82400E-14
 -1       780 2.00651E+01 2.22219E-01 4.49084E-05-1.01412E+00 2.96185E-14 2.79249E-13
 -1       781 2.00036E+01 3.13390E-01 5.05029E-05-8.66414E-01 3.39469E-15-6.35512E-14
 -1       782 1.99790E+01 3.44692E-01 4.57970E-05-7.23036E-01-2.20212E-14-4.08811E-14
 -1       783 1.99740E+01 3.37908E-01 3.88994E-05-5.90860E-01-2.89497E-13 1.01741E-13
 -1       784 1.99781E+01 3.09199E-01 3.19591E-05-4.73431E-01-7.40999E-14-7.09475E-15
 -1       785 1.99855E+01 2.69844E-01 2.57063E-05-3.72115E-01-1.35025E-13-1.83602E-13
 -1       786 1.99930E+01 2.27251E-01 2.02146E-05-2.86837E-01-2.54024E-13-2.02641E-13
 -1       787 1.99991E+01 1.85958E-01 1.54630E-05-2.16612E-01-2.05682E-13-5.47984E-13
 -1       788 2.00036E+01 1.48468E-01 1.15561E-05-1.59937E-01-1.76059E-13-4.82734E-13
 -1       789 2.00063E+01 1.15918E-01 8.08752E-06-1.15072E-01 1.37490E-13-1.03257E-13
 -1       790 2.00075E+01 8.85375E-02 3.00965E-06-8.02304E-02 1.76672E-13-3.44165E-14
 -1       791 2.00076E+01 6.59876E-02 1.00911E-05-5.38385E-02 1.05715E-13 2.19684E-13
 -1       792 2.00077E+01 4.86470E-02 3.24892E-06-3.62795E-02-4.61313E-14 3.28885E-13
 -1       793 2.01869E+01 5.16646E-01 5.46376E-05-4.38813E-01 1.51943E-13-1.61214E-13
 -1       794 1.99253E+01 5.56848E-01 1.25121E-04-1.20753E+00 1.20507E-13-7.89280E-14
 -1       795 2.00006E+01 5.07101E-01 1.02115E-04-1.01143E+00 1.22448E-13-1.31182E-13
 -1       796 1.97552E+01 5.80769E-01 1.37603E-04-1.66434E+00-7.14995E-14-5.15131E-14
 -1       797 1.96949E+01 4.60601E-01 1.10880E-04-1.93667E+00-1.26370E-13-2.32649E-14
 -1       798 1.97223E+01 1.48118E-01-9.72317E-05-2.24246E+00-8.96115E-14 3.71293E-15
 -1       799 1.99565E+01-4.66000E-01-2.24156E-04-2.57202E+00-1.94001E-13-1.07295E-13
 -1       800 2.06159E+01-1.49648E+00 3.03652E-03-2.86704E+00-2.40948E-13-3.93744E-14
 -1       801 2.20479E+01-2.96023E+00 1.78267E-02-2.93603E+00-3.12550E-13-1.77349E-14
 -1       802 2.39446E+01-3.98085E+00-7.92190E-03-2.25826E+00-3.25465E-13 1.25324E-13
 -1       803 2.54105E+01-4.03414E+00 3.22137E-03 1.50960E+00 5.22529E-14 3.56199E-14
 -1       804 2.52089E+01-4.38277E+00-1.81849E-02 1.78073E+00-1.53669E-13 8.66978E-14
 -1       805 2.00524E+01-6.04057E-01 2.88785E-03 2.56572E+00-9.56329E-14 3.76504E-13
 -1       806 1.97479E+01 9.90299E-02 1.76279E-04 2.21534E+00 4.33782E-14 3.59598E-13
 -1       807 1.96831E+01 4.74289E-01 9.97643E-05 1.88285E+00-3.80424E-14 8.68480E-14
 -1       808 1.97245E+01 6.32641E-01 1.59271E-04 1.58244E+00 2.21815E-14-1.64698E-13
 -1       809 1.97985E+01 6.62258E-01 1.62767E-04 1.31531E+00 1.41811E-13-5.25125E-14
 -1       810 1.98711E+01 6.22485E-01 1.44239E-04 1.07974E+00 6.03868E-14-1.62746E-13
 -1       811 1.99297E+01 5.50480E-01 1.21125E-04 8.74353E-01 2.30651E-14-2.36566E-13
 -1       812 1.99717E+01 4.68009E-01 9.82788E-05 6.97880E-01-2.81221E-14-2.28770E-13
 -1       813 1.99991E+01 3.86925E-01 7.74949E-05 5.48699E-01-1.33639E-13 2.47478E-13
 -1       814 2.00152E+01 3.13094E-01 6.01489E-05 4.24691E-01 5.91403E-14 3.09677E-13
 -1       815 2.00233E+01 2.48907E-01 4.61929E-05 3.23290E-01-1.74500E-14 1.65164E-13
 -1       816 2.00260E+01 1.94827E-01 3.49129E-05 2.41686E-01-3.80856E-14-9.81704E-14
 -1       817 2.00255E+01 1.50303E-01 2.59288E-05 1.77019E-01-1.25741E-13 1.96484E-14
 -1       818 2.00231E+01 1.14299E-01 1.80987E-05 1.26560E-01-1.91807E-13-3.09837E-14
 -1       819 2.00198E+01 8.55485E-02 1.31385E-05 8.78396E-02 9.89660E-14 2.55761E-14
 -1       820 2.00162E+01 6.30720E-02 2.58095E-05 5.88162E-02 1.06375E-13-1.81415E-13
 -1       821 1.99973E+01 2.13858E+00-3.56112E-04 1.43615E-01 8.22664E-14-4.09238E-13
 -1       822 2.02440E+01 6.41527E-01-1.21340E-04-2.00931E-01 1.76925E-13-1.22714E-13
 -1       823 1.99761E+01 8.55489E-02-3.04101E-06 4.79378E-06 2.14880E-13-2.12962E-13
 -1       824 1.99949E+01 6.21574E-02 5.67154E-07-3.03901E-02 2.38034E-13 2.49090E-13
 -1       825 1.99784E+01 8.25788E-02-2.76508E-06-1.27536E-02 2.11094E-13 1.46699E-13
 -1       826 1.97164E+01-3.24579E+00 3.11757E-02 4.30939E+00-2.87992E-13 9.79616E-14
 -1       827 2.43489E+01 4.30026E+00-7.70234E-02-4.43330E-01-1.52618E-13-5.91844E-14
 -1       828 1.99851E+01 7.44649E-02-1.04149E-05-2.36260E-02 1.57301E-13 3.61649E-14
 -1       829 1.23754E+01-4.00934E-01 6.72954E-02 3.61184E+00 1.84423E-13-4.15168E-13
 -1       830 2.08310E+01-1.74066E+00 9.28175E-03 2.85460E+00-2.47301E-13 3.40825E-13
 -1       831 2.25721E+01-3.26696E+00 1.38108E-02 2.74348E+00-2.70037E-13 2.32778E-13
 -1       832 1.98406E+01 5.94009E-01 1.41909E-04-1.42315E+00 5.64723E-14-2.13498E-14
 -1       833 2.02857E+01 9.13632E-01-5.82605E-05-5.25992E-02-1.19254E-13-3.36051E-13
 -1       834 1.04671E+01 5.98584E-01 9.01615E-02-5.07475E-01 7.56877E-14-5.70339E-13
 -1       835 1.19426E+01-2.02548E-01 8.59166E-02-3.17873E+00-1.97989E-13-5.98362E-13
 -1       836 1.66073E+01-2.17154E+00 5.39296E-02 4.81221E+00 1.27608E-13-1.62209E-13
 -1       837 2.03167E+01 1.06898E+00 2.91608E-04 3.62019E-01 2.81197E-13-1.44396E-13
 -1       838 2.60819E+01 4.90146E-01-6.69922E-02 2.10192E+00-1.58790E-13-3.13039E-13
 -1       839 2.00050E+01-3.52877E+00 4.80531E-02-4.47291E+00 1.12160E-13-6.07383E-13
 -1       840 1.60780E+01-2.09480E+00 7.60743E-02-4.79478E+00-2.42233E-13-2.95226E-13
 -1       841 1.99749E+01 2.18166E+00-5.63308E-04 8.81319E-03 2.72073E-14-3.92673E-13
 -1       842 1.70508E+01-1.53314E+00 4.37877E-02 4.07516E+00-2.92722E-13 2.38837E-14
 -1       843 1.24040E+01-2.45535E-02 6.28261E-02-3.11375E+00 1.18906E-13-8.66824E-14
 -1       844 1.99956E+01 6.30700E-02-5.85962E-06 3.07761E-02 7.28494E-14-4.65625E-13
 -1       845 2.01590E+01 1.77093E+00-8.37083E-04-3.74975E-01-1.14627E-13-4.42039E-13
 -1       846 2.02883E+01 1.27013E+00 1.85983E-04-3.48096E-01-1.80334E-13-3.87428E-13
 -1       847 1.99786E+01 8.30397E-02-4.71234E-06 1.30270E-02 2.35251E-13 2.98164E-13
 -1       848 1.00469E+01 4.70413E-01 9.81556E-02 1.08663E+00-9.84878E-14 1.53304E-13
 -1       849 2.00669E+01 4.70692E-01 7.79514E-05-8.26370E-01 6.27133E-14-1.56941E-13
 -1       850 2.00107E+01 5.21872E-02-1.29166E-04 4.19014E-02-4.23319E-14-4.43050E-13
 -1       851 2.00615E+01 2.00415E+00-3.61292E-04 2.71028E-01 1.37400E-13-4.00649E-13
 -1       852 1.99856E+01 7.52253E-02-5.02433E-06 2.38862E-02-1.08069E-13-6.05454E-13
 -1       853 2.01589E+01 1.77494E+00-2.88096E-04 3.81793E-01 2.09664E-13-3.00287E-13
 -1       854 1.21858E+01 6.92245E-01 3.94936E-02 1.38451E+00 1.09756E-13-4.01608E-13
 -1       855 1.91934E+01-3.00903E+00 1.98328E-02 4.34554E+00 1.38988E-13-1.62662E-13
 -1       856 2.55941E+01-2.75952E+00-2.37065E-02-3.05478E-01-1.06772E-14 2.78051E-13
 -1       857 2.52302E+01-3.78405E+00-8.09091E-03-1.04236E+00 3.24636E-13-2.19313E-13
 -1       858 2.00076E+01 4.69184E-02-1.96509E-07 3.30320E-02 1.05492E-13-5.38928E-13
 -1       859 1.29760E+01 1.70636E-01 5.24231E-02 2.73744E+00-7.81085E-14 1.00244E-13
 -1       860 2.00011E+01 5.62168E-02 8.81826E-05-3.41155E-02 1.06963E-13 4.00118E-13
 -1       861 1.94847E+01-2.87184E+00 1.82923E-02-4.17572E+00-3.14942E-13-1.04468E-13
 -1       862 2.01279E+01 4.67505E-01 6.05011E-05-6.40686E-01 8.44006E-14-1.62096E-13
 -1       863 2.02892E+01 8.02673E-01-3.99446E-04 5.21832E-02 2.21841E-13-1.11083E-13
 -1       864 1.04600E+01 5.81721E-01 9.56146E-02-1.29000E+00-2.13987E-14 1.80828E-13
 -1       865 2.00634E+01 1.99950E+00-3.48779E-04-2.58065E-01-5.16640E-14-4.95824E-13
 -1       866 2.01175E+01 6.11322E-01-3.79526E-05 4.65725E-01-6.61158E-14-3.17905E-13
 -1       867 2.00252E+01 5.26930E-01-3.49262E-06 6.32147E-01-5.30610E-14-2.64491E-13
 -1       868 1.99265E+01 4.72906E-01 3.70801E-06 7.91663E-01-3.08109E-14-3.34543E-13
 -1       869 1.98335E+01 4.19473E-01 1.23818E-05 9.54728E-01 1.38233E-14-3.29519E-13
 -1       870 1.97627E+01 3.34284E-01 2.19326E-05 1.12955E+00 2.97424E-14-3.00991E-13
 -1       871 1.97397E+01 1.80223E-01 2.70808E-05 1.32118E+00 2.19445E-14-2.34103E-13
 -1       872 1.98047E+01-8.49984E-02 7.39882E-05 1.52905E+00-3.79562E-14-2.23145E-13
 -1       873 2.00204E+01-5.06482E-01 4.31573E-04 1.74026E+00 3.31860E-14-2.17301E-13
 -1       874 2.04723E+01-1.11655E+00 1.82802E-04 1.91309E+00 7.04200E-14-1.68261E-13
 -1       875 2.12727E+01-1.91566E+00-5.79858E-04 1.96128E+00 6.66250E-14-8.17181E-14
 -1       876 2.25329E+01-2.78282E+00 2.59866E-03 1.69382E+00 2.29669E-13-2.73219E-16
 -1       877 1.57933E+01-7.15877E-01 2.02147E-02-3.64091E+00 1.45174E-13-4.44042E-13
 -1       878 2.22133E+01-2.54867E+00-8.52713E-03-1.70417E+00 2.54705E-14-8.85420E-14
 -1       879 2.10768E+01-1.69265E+00 1.17373E-03-1.87481E+00 8.47521E-14-8.35294E-14
 -1       880 2.03235E+01-9.14437E-01 1.90170E-04-1.79876E+00 1.67565E-13-9.45240E-14
 -1       881 1.99051E+01-3.34154E-01 1.80287E-04-1.59899E+00 1.47202E-14 2.21761E-14
 -1       882 1.96983E+01 5.87689E-02-2.23353E-06-1.37343E+00 1.71756E-13 1.68601E-13
 -1       883 1.96238E+01 2.97591E-01 4.24555E-05-1.15535E+00 5.58257E-14 2.21047E-13
 -1       884 1.96243E+01 4.22251E-01 4.16469E-05-9.57507E-01-1.19284E-13 2.75534E-13
 -1       885 1.96631E+01 4.68171E-01 2.71565E-05-7.83307E-01-3.66239E-14 1.06805E-13
 -1       886 1.97178E+01 4.63230E-01 1.66233E-05-6.32572E-01-2.05497E-13-8.88784E-14
 -1       887 1.97753E+01 4.28075E-01 9.73309E-06-5.04006E-01-2.25494E-13-4.04139E-14
 -1       888 1.98285E+01 3.77407E-01 5.92499E-06-3.95870E-01-1.76157E-13-9.60596E-14
 -1       889 1.98742E+01 3.21139E-01 3.98912E-06-3.06181E-01-2.07045E-13-1.62947E-13
 -1       890 1.99113E+01 2.65546E-01 2.77446E-06-2.32859E-01-4.66138E-13-2.00322E-13
 -1       891 1.99403E+01 2.14278E-01 1.81798E-06-1.73797E-01-6.90410E-14-1.12268E-13
 -1       892 1.99619E+01 1.69135E-01 9.07815E-07-1.26958E-01 2.12584E-13 1.95249E-13
 -1       893 1.99774E+01 1.30734E-01 4.23705E-06-9.04209E-02 1.67293E-13 4.03045E-13
 -1       894 1.99879E+01 9.86963E-02-2.49486E-05-6.24368E-02 7.52677E-14 6.54426E-14
 -1       895 1.29133E+01 6.74073E-01 2.79457E-02-1.67438E+00-8.50142E-14-4.79328E-13
 -1       896 1.96535E+01 6.93704E-01 3.47675E-05-9.86809E-01 8.71262E-14-1.54748E-13
 -1       897 1.85385E+01 6.43095E-01-6.77581E-06-1.96098E+00-9.53807E-14-1.79648E-13
 -1       898 1.88707E+01 7.82865E-01 1.91951E-04-1.63190E+00-3.78228E-14-7.90495E-14
 -1       899 1.81115E+01-4.58982E-01 7.20346E-03-3.05213E+00-2.87155E-13-2.54488E-13
 -1       900 2.01908E+01 7.67095E-01-4.88364E-05-2.68094E-01 1.93123E-13-1.40309E-13
 -1       901 1.87262E+01 8.47524E-01 5.33653E-05 1.57860E+00 7.27254E-14-4.39514E-14
 -1       902 2.01923E+01 7.56725E-01 5.95636E-05 2.80531E-01-1.05467E-13-3.50496E-13
 -1       903 1.84169E+01 6.56841E-01 2.46409E-04 1.94707E+00 1.52697E-13-5.16085E-14
 -1       904 1.81477E+01 2.11144E-01 8.54277E-04 2.45037E+00-4.35217E-14-1.45343E-13
 -1       905 1.90160E+01 8.87856E-01 4.67844E-05 1.29479E+00 3.58497E-14-5.22188E-14
 -1       906 1.92630E+01 8.43611E-01 3.80715E-05 1.06430E+00 2.80934E-13 2.61020E-14
 -1       907 1.94620E+01 7.56830E-01 3.17351E-05 8.70567E-01 3.80781E-14-4.89672E-14
 -1       908 1.96163E+01 6.53517E-01 2.54636E-05 7.05204E-01-1.87781E-13-8.97229E-14
 -1       909 1.97328E+01 5.48732E-01 1.70795E-05 5.64020E-01-3.09546E-13 9.22125E-14
 -1       910 1.98186E+01 4.50713E-01 1.08042E-05 4.44580E-01-7.45989E-16 1.06214E-13
 -1       911 1.98806E+01 3.63465E-01 7.14460E-06 3.44899E-01-8.83790E-15-5.98099E-14
 -1       912 1.99244E+01 2.88398E-01 4.98157E-06 2.62980E-01 7.41484E-14 2.64319E-14
 -1       913 1.99546E+01 2.25432E-01 3.00686E-06 1.96735E-01-1.10779E-13 1.30290E-13
 -1       914 1.99750E+01 1.73667E-01-9.71410E-07 1.44023E-01-1.53792E-13-1.00030E-13
 -1       915 1.99882E+01 1.31739E-01 4.25565E-07 1.02839E-01-4.70225E-14-2.22906E-13
 -1       916 1.99962E+01 9.83316E-02 4.50316E-06 7.13107E-02 1.95691E-13-3.13438E-13
 -1       917 1.92461E+01-1.78191E+00 2.15085E-02 3.56202E+00-2.56510E-13 1.68169E-13
 -1       918 1.99629E+01 1.12638E-01-2.96336E-06-9.65660E-03 2.69045E-13-1.90824E-13
 -1       919 2.22865E+01-3.75717E+00 5.42528E-03-3.05204E+00 1.31238E-13-3.79126E-13
 -1       920 1.54193E+01-5.88583E-01 2.75120E-02 3.47260E+00 1.52619E-13-2.45279E-13
 -1       921 1.84086E+01-5.70510E-01 8.99291E-03 3.02332E+00-2.29434E-13-1.42004E-14
 -1       922 1.99988E+01 2.13496E+00-5.06367E-04-1.26048E-01-1.76700E-14-4.46794E-13
 -1       923 1.91647E+01-2.13679E+00 7.48978E-03-3.64025E+00 8.54149E-14-3.20887E-13
 -1       924 1.82502E+01 2.68150E-01-1.08778E-03-2.41627E+00-9.33680E-14-2.36738E-13
 -1       925 2.01009E+01 6.54421E-01 1.72383E-06-4.70829E-01 1.34197E-13-1.56560E-13
 -1       926 1.55413E+01-4.34312E-01 3.43885E-02-3.46356E+00-2.92282E-13-2.76020E-13
 -1       927 2.30509E+01-3.76877E+00 1.05102E-02 2.53455E+00 2.50484E-13-4.50161E-16
 -1       928 2.02362E+01 9.93559E-01 1.06098E-04 6.47306E-02-8.52074E-14-4.01843E-13
 -1       929 2.02471E+01 1.22803E+00-4.42634E-04 1.54259E-01 1.96242E-13-2.02249E-13
 -1       930 2.09362E+01-2.57319E+00 6.56146E-03-2.85267E+00-3.63491E-14-2.80254E-13
 -1       931 1.26863E+01 1.00580E+00 4.19111E-02 6.10939E-01 9.10296E-15 1.91566E-14
 -1       932 1.99822E+01 6.19467E-01-9.89751E-07-6.49195E-01 5.96961E-14-1.75255E-13
 -1       933 2.02275E+01 1.32420E+00 1.53897E-04-1.49826E-01-1.09670E-13-3.90034E-13
 -1       934 2.43625E+01-3.13826E+00-8.05695E-03 6.04239E-01 2.02802E-13 1.64593E-13
 -1       935 1.73079E+01-1.40809E+00 1.79239E-02 3.79393E+00 1.77455E-13-7.76085E-14
 -1       936 2.33105E+01-3.07968E+00 4.16481E-03-1.36605E+00 1.76764E-14-8.54488E-14
 -1       937 1.34677E+01 1.01209E+00 1.81829E-02-9.88698E-02 6.52535E-14-4.24599E-13
 -1       938 1.99962E+01 7.52801E-02 1.51111E-05-4.69447E-02 1.92052E-13-6.50280E-14
 -1       939 1.98344E+01 6.39701E-01 1.44155E-05-8.17113E-01 6.30414E-14-1.76050E-13
 -1       940 1.91716E+01 8.02529E-01 5.00520E-05-1.37926E+00 5.58283E-15-3.98666E-14
 -1       941 2.02452E+01 9.90062E-01 3.39151E-04-2.55689E-02 1.75064E-13-1.67276E-13
 -1       942 1.84009E+01-1.75851E+00 1.83233E-02-3.86567E+00-3.19728E-13-1.44612E-13
 -1       943 1.99807E+01 9.32352E-02 2.56743E-05-3.89740E-02 2.91947E-13 1.54756E-13
 -1       944 1.99628E+01 1.13122E-01-1.15319E-05 9.35060E-03 2.76357E-13 1.25001E-13
 -1       945 1.99967E+01 8.11030E-02 4.40486E-05 5.12827E-02 3.65152E-13-4.55208E-13
 -1       946 1.56061E+01-2.47779E-01 2.33878E-02 3.21533E+00-7.15565E-14 1.83924E-14
 -1       947 2.01006E+01 1.64707E+00-3.10881E-04 9.11012E-02 7.97770E-14-3.67474E-13
 -1       948 1.99826E+01 9.31488E-02-1.54459E-05 4.05359E-02 1.43747E-14-6.47286E-13
 -1       949 2.00657E+01 1.72959E+00 1.68223E-04 4.05570E-02 3.64978E-14-3.72874E-13
 -1       950 1.45093E+01 5.18014E-01 2.04623E-02 2.13716E+00 1.19609E-13-4.05474E-13
 -1       951 1.30589E+01 9.59836E-01 3.28900E-02-9.84057E-01 1.10038E-13 3.14705E-14
 -1       952 1.99690E+01 1.05755E-01-9.33736E-07-2.59475E-02 2.76785E-13 3.45475E-14
 -1       953 2.01490E+01 1.54393E+00 8.96962E-05-1.05011E-01-7.69589E-14-4.29669E-13
 -1       954 1.94337E+01 7.58406E-01 4.56864E-05-1.16987E+00 3.09046E-14-1.52428E-13
 -1       955 1.50076E+01 5.16454E-01 4.59620E-03-2.20061E+00 1.97011E-13-3.08774E-13
 -1       956 1.43170E+01 8.05813E-01 1.67822E-02 1.75818E+00 8.59712E-14 1.84922E-13
 -1       957 1.99778E+01 7.00268E-01-5.09490E-05 4.52598E-01-3.18176E-14-2.95173E-13
 -1       958 1.81658E+01 1.10247E+00-9.20546E-05 1.08426E+00 7.65881E-14 5.03218E-14
 -1       959 1.98318E+01 6.32990E-01-2.11906E-05 6.00358E-01-4.33606E-14-2.15024E-13
 -1       960 1.96655E+01 5.91117E-01-3.11682E-05 7.56666E-01-2.28520E-14-2.38175E-13
 -1       961 1.94906E+01 5.43615E-01-3.80019E-05 9.34208E-01 2.06057E-14-2.88121E-13
 -1       962 1.93237E+01 4.55235E-01-3.32790E-05 1.14705E+00 7.75511E-14-2.43937E-13
 -1       963 1.91916E+01 2.83479E-01-1.00367E-04 1.40997E+00 3.40424E-14-2.66919E-13
 -1       964 1.91358E+01-1.98869E-02-4.39613E-06 1.73780E+00 6.71445E-14-9.81764E-14
 -1       965 1.92312E+01-5.25914E-01-9.96958E-04 2.14975E+00 9.29519E-14 7.48002E-15
 -1       966 1.96537E+01-1.30285E+00-7.60981E-05 2.61288E+00 9.74357E-14-7.19233E-14
 -1       967 2.05118E+01-2.34769E+00 1.12595E-02 2.99912E+00 1.48466E-13 1.53648E-14
 -1       968 2.01684E+01 1.47860E+00-2.89842E-04 1.32415E-01 1.31578E-13-2.82836E-13
 -1       969 1.94616E+01-1.02569E+00 4.07371E-03-2.43343E+00 1.92498E-13-1.48247E-13
 -1       970 1.91213E+01-3.27215E-01-1.48334E-04-1.98716E+00 9.31694E-14-1.49046E-13
 -1       971 1.90266E+01 1.41184E-01-9.54194E-05-1.58860E+00 1.67103E-13-2.60868E-13
 -1       972 1.90621E+01 4.18211E-01 5.82124E-05-1.26431E+00 1.21059E-13-3.11629E-13
 -1       973 1.91626E+01 5.60553E-01 7.78410E-05-1.00335E+00-2.21477E-14-3.76845E-13
 -1       974 1.92887E+01 6.10996E-01 2.15381E-05-7.94497E-01-2.01155E-14-3.25977E-13
 -1       975 1.94179E+01 6.02228E-01-1.62790E-06-6.26625E-01-1.78513E-13-2.89686E-13
 -1       976 1.95385E+01 5.57521E-01-1.16445E-05-4.91203E-01-2.55383E-13-9.49558E-14
 -1       977 1.96442E+01 4.93861E-01-1.43280E-05-3.81949E-01-2.93112E-13-2.80563E-13
 -1       978 1.97331E+01 4.22942E-01-1.35486E-05-2.93965E-01-1.31796E-13-4.11583E-13
 -1       979 1.98052E+01 3.52343E-01-1.02715E-05-2.23451E-01-2.29909E-13-2.69677E-13
 -1       980 1.98619E+01 2.86645E-01-4.68534E-06-1.67374E-01-2.66046E-13 1.00699E-13
 -1       981 1.99053E+01 2.28282E-01-4.03526E-06-1.23200E-01 2.79752E-13-1.71191E-14
 -1       982 1.99376E+01 1.78122E-01-2.55087E-06-8.88694E-02 2.19009E-13-6.83783E-14
 -1       983 1.99604E+01 1.36357E-01-5.42101E-06-6.21183E-02-4.38079E-15-8.48614E-15
 -1       984 2.01713E+01 1.19826E+00 4.09770E-05 4.95180E-02-8.26175E-14-3.99230E-13
 -1       985 2.01704E+01 1.05356E+00-1.77191E-04-1.05037E-01 1.46362E-13-2.14603E-13
 -1       986 1.99764E+01 1.15027E-01 8.83150E-05 5.74909E-02 3.00926E-13-1.06178E-12
 -1       987 2.00890E+01 1.68803E+00 1.18388E-03-5.19262E-02-2.92125E-14-4.18593E-13
 -1       988 2.00898E+01 8.59062E-01-1.56136E-04-2.85681E-01 1.18618E-13-1.72137E-13
 -1       989 2.00922E+01 8.24653E-01-5.76896E-06 3.02425E-01-6.57576E-14-3.04228E-13
 -1       990 1.76068E+01 1.07570E+00 4.19011E-05 1.34039E+00 3.05557E-14 7.16632E-14
 -1       991 1.69077E+01 9.09675E-01 4.80316E-04 1.71905E+00-2.56940E-14 8.23066E-14
 -1       992 1.89562E+01 9.49297E-01-5.21193E-05 7.42565E-01 1.59247E-13 1.27066E-13
 -1       993 1.92262E+01 8.30796E-01-3.22085E-05 6.13647E-01-6.83726E-14 2.90330E-13
 -1       994 1.94339E+01 7.07942E-01-3.17355E-05 5.01609E-01-1.71160E-13-5.79001E-14
 -1       995 1.95921E+01 5.90112E-01-2.98370E-05 4.04229E-01-2.14601E-13-2.60922E-13
 -1       996 1.97111E+01 4.82729E-01-2.53013E-05 3.20518E-01 5.68687E-14 2.32195E-15
 -1       997 1.97995E+01 3.88317E-01-1.98660E-05 2.49679E-01 7.09137E-14-4.72546E-14
 -1       998 1.98642E+01 3.07526E-01-1.36337E-05 1.90822E-01-2.35544E-14-2.72991E-13
 -1       999 1.99108E+01 2.39930E-01-1.08071E-05 1.42852E-01 1.82361E-14-2.15898E-13
 -1      1000 1.99436E+01 1.84480E-01 9.46941E-06 1.04626E-01 2.77898E-14-3.20243E-13
 -1      1001 1.99626E+01 1.46344E-01-2.99046E-05 7.83940E-02 2.36233E-13-8.65775E-13
 -1      1002 1.71327E+01-4.68031E-01 1.11399E-02 3.18112E+00-7.33424E-14 7.85799E-14
 -1      1003 1.99698E+01 1.06351E-01-2.28883E-05 2.70300E-02 2.84562E-13 3.43620E-13
 -1      1004 1.45015E+01 1.22443E+00 1.07197E-02 1.75662E-01 2.18183E-13-2.88719E-14
 -1      1005 2.01823E+01 1.24615E+00 7.63570E-04 1.34269E-02 1.50649E-13-2.30739E-13
 -1      1006 1.54610E+01 6.32669E-01 1.28683E-02-2.17549E+00-1.19772E-13-1.81304E-13
 -1      1007 1.78157E+01-7.33964E-01 1.19357E-02-2.99100E+00 1.18697E-13-3.79163E-13
 -1      1008 1.86087E+01 1.04825E+00-5.75454E-05 8.94762E-01 1.66795E-13 1.10722E-14
 -1      1009 1.78577E+01 9.89313E-01-7.77689E-04-1.37768E+00-3.23427E-14-5.76889E-14
 -1      1010 2.00653E+01 1.73393E+00 2.45406E-04-6.46221E-03 1.51399E-14-3.72071E-13
 -1      1011 2.01466E+01 9.81383E-01-7.11284E-05 1.78810E-01-4.28068E-14-3.50435E-13
 -1      1012 1.99546E+01 7.69030E-01-1.48051E-05-4.40374E-01 1.10026E-13-1.18073E-13
 -1      1013 1.92360E+01 8.65584E-01 3.15102E-05-8.35564E-01 6.07498E-14-1.73952E-13
 -1      1014 1.60413E+01 5.09444E-01 5.87451E-03 2.32987E+00-5.26991E-14-1.51567E-14
 -1      1015 1.68929E+01-3.12798E-01 6.21457E-03 2.81969E+00 1.02275E-13-9.83358E-14
 -1      1016 1.71703E+01 8.85861E-01 6.06577E-03-1.73986E+00-6.63848E-14-8.22257E-14
 -1      1017 1.84140E+01 1.00134E+00-6.88532E-05-1.14759E+00-2.17145E-14-1.49061E-13
 -1      1018 1.99578E+01 1.32687E-01 4.49260E-05 3.97203E-02 2.54749E-13 4.38278E-13
 -1      1019 1.99421E+01 1.47917E-01 1.35162E-05-8.09869E-04-1.80859E-14-1.42764E-13
 -1      1020 1.95326E+01 7.93499E-01-6.10337E-05-7.06319E-01 7.53653E-14-1.38255E-13
 -1      1021 2.00932E+01 1.36645E+00 4.32527E-04-1.21222E-03 4.73721E-14-3.34392E-13
 -1      1022 1.54380E+01 1.06630E+00-4.80951E-04-1.01544E+00 1.52155E-13-2.27729E-13
 -1      1023 2.01297E+01 1.33162E+00 3.89323E-04-9.80031E-04 1.10051E-13-3.25047E-13
 -1      1024 1.99463E+01 1.43332E-01 7.20083E-06-2.51620E-02 1.06837E-13-5.51531E-15
 -1      1025 1.88691E+01 9.44205E-01-1.18572E-05-9.77209E-01-3.03758E-15-1.70322E-13
 -1      1026 1.68718E+01 3.59589E-01 5.93903E-03-2.07032E+00 1.08226E-13-4.18484E-13
 -1      1027 1.95891E+01 7.37733E-01-1.63172E-05 5.04716E-01-2.69970E-14-2.95345E-13
 -1      1028 1.93427E+01 7.19045E-01-1.65140E-04 6.51198E-01-2.34863E-14-1.93670E-13
 -1      1029 1.90655E+01 6.92509E-01-2.09385E-04 8.37161E-01 1.59043E-14-2.11436E-13
 -1      1030 1.87663E+01 6.23322E-01-1.04573E-04 1.08259E+00 9.22860E-14-2.33621E-13
 -1      1031 1.84596E+01 4.64642E-01-1.42250E-03 1.41280E+00 1.88248E-13-1.02661E-13
 -1      1032 1.81853E+01 1.60249E-01 4.33334E-04 1.87507E+00 9.43507E-14-9.74567E-14
 -1      1033 1.76369E+01-4.05894E-02 4.67890E-03 2.29858E+00 4.33155E-15-1.29423E-13
 -1      1034 1.81002E+01 3.33438E-01-5.03837E-04-1.72392E+00 1.38792E-13-3.08321E-13
 -1      1035 1.83511E+01 6.06084E-01-4.63467E-04-1.28927E+00 6.78075E-14-3.64155E-13
 -1      1036 1.86132E+01 7.38046E-01-1.87441E-04-9.70021E-01 7.19544E-16-4.07216E-13
 -1      1037 1.88618E+01 7.75395E-01-3.67277E-04-7.34272E-01 4.21091E-14-3.58064E-13
 -1      1038 1.90853E+01 7.53013E-01-4.03264E-04-5.57609E-01-1.28617E-13-3.62265E-13
 -1      1039 1.92806E+01 6.93228E-01-2.77022E-04-4.23712E-01-9.26666E-14-2.87562E-13
 -1      1040 1.94453E+01 6.13843E-01-2.10738E-04-3.21647E-01-3.37590E-13-1.96280E-13
 -1      1041 1.95808E+01 5.27125E-01-1.61303E-04-2.43140E-01-2.77173E-13-2.23006E-13
 -1      1042 1.96900E+01 4.41172E-01-1.22627E-04-1.82502E-01-1.58764E-13-1.59335E-13
 -1      1043 1.97761E+01 3.60969E-01-8.47108E-05-1.35635E-01-6.26800E-14-2.70649E-14
 -1      1044 1.98425E+01 2.89229E-01-5.28964E-05-9.94843E-02-4.29877E-14 2.48097E-13
 -1      1045 1.98921E+01 2.27718E-01-5.04956E-05-7.16446E-02 2.78136E-13 1.54201E-13
 -1      1046 1.99288E+01 1.75808E-01 2.84693E-05-5.09373E-02 1.64497E-14 1.66898E-13
 -1      1047 2.01127E+01 1.33570E+00-5.19591E-04 3.47399E-02-4.65894E-14-3.69977E-13
 -1      1048 1.93633E+01 7.14820E-01-1.36946E-04 2.96362E-01 5.62501E-14-7.51938E-14
 -1      1049 1.73467E+01 1.26147E+00-5.17657E-05 6.32165E-01-7.67482E-15-2.90272E-13
 -1      1050 1.64874E+01 1.26183E+00 4.66974E-04 7.60201E-01 1.39026E-13-2.25160E-13
 -1      1051 1.91387E+01 8.44264E-01-1.72172E-04 3.53592E-01 7.81479E-14 1.44390E-13
 -1      1052 1.88485E+01 9.74816E-01-1.50679E-04 4.13931E-01 2.98696E-14 1.34393E-13
 -1      1053 1.95355E+01 5.93619E-01-1.13365E-04 2.43329E-01-1.25184E-13-2.86145E-13
 -1      1054 1.96664E+01 4.84403E-01-9.15330E-05 1.95496E-01-1.11485E-13-8.72332E-14
 -1      1055 1.97648E+01 3.88864E-01-7.66678E-05 1.53598E-01 1.34114E-13 1.78232E-13
 -1      1056 1.98381E+01 3.07152E-01-4.62730E-05 1.17937E-01-4.65596E-14 3.69861E-13
 -1      1057 1.98913E+01 2.39171E-01-1.69289E-05 8.86567E-02 4.19496E-14 3.63654E-15
 -1      1058 1.99465E+01 1.43368E-01-1.21148E-05 2.05754E-02 1.92074E-13 2.90962E-13
 -1      1059 1.60890E+01 6.32103E-01 2.44151E-03 1.68247E+00 8.97420E-14-3.79243E-13
 -1      1060 2.00773E+01 1.40211E+00-4.41567E-05 1.32102E-02 6.05761E-15-3.53918E-13
 -1      1061 1.51226E+01 1.20166E+00 9.69393E-03 2.24676E-01 8.29370E-14-3.38255E-13
 -1      1062 1.97990E+01 7.76731E-01-9.22419E-05 3.80620E-01-6.12100E-15-3.22798E-13
 -1      1063 1.97690E+01 7.54881E-01-8.39803E-05-5.76883E-01 5.04225E-14-9.66249E-14
 -1      1064 1.99634E+01 8.68361E-01-5.22611E-05 2.67069E-01-2.25294E-14-3.50602E-13
 -1      1065 1.56056E+01 1.12698E+00 3.44285E-03 1.16173E+00-5.74478E-14-5.93318E-14
 -1      1066 1.80842E+01-5.52652E-02-1.53091E-03-2.16268E+00 1.75144E-13-4.14938E-13
 -1      1067 1.88126E+01 9.93609E-01 4.64936E-05-5.47819E-01 8.33826E-14-8.35032E-14
 -1      1068 1.57451E+01 1.28015E+00 2.92046E-03 1.67482E-02 7.45713E-14 9.98493E-14
 -1      1069 1.79862E+01 1.19889E+00-2.41976E-04 5.46143E-01-1.01040E-14-2.81541E-13
 -1      1070 1.68031E+01 1.17054E+00-4.15102E-03-7.79049E-01-8.66256E-14-1.44214E-13
 -1      1071 1.76647E+01 1.14979E+00 3.10297E-04-6.84126E-01-6.13667E-14-1.79423E-13
 -1      1072 1.99643E+01 9.15137E-01 3.16158E-05-2.38000E-01 6.75698E-14-2.15506E-13
 -1      1073 2.00850E+01 1.11726E+00 6.80113E-04 1.16953E-01-2.09566E-14-3.85154E-13
 -1      1074 1.92084E+01 9.14167E-01-1.46879E-04-4.82421E-01 9.39254E-14-7.67576E-14
 -1      1075 2.00346E+01 9.73110E-01-2.67168E-04 1.88196E-01-3.47992E-15-4.00605E-13
 -1      1076 1.99236E+01 1.91706E-01-8.68935E-06 6.70317E-02 3.41929E-13-2.02247E-14
 -1      1077 1.99164E+01 1.87392E-01-3.49475E-06 1.47061E-02 4.12419E-14-1.05168E-13
 -1      1078 1.84730E+01 1.09820E+00-1.10992E-04 4.76130E-01 1.75168E-14-3.53583E-14
 -1      1079 2.00339E+01 1.15344E+00 4.69630E-04-2.29708E-02 1.87015E-14-2.77902E-13
 -1      1080 2.00959E+01 1.10318E+00-8.12193E-05-1.09383E-01 1.00715E-13-2.66597E-13
 -1      1081 1.99174E+01 1.85621E-01-1.20982E-06-1.83829E-02 2.17434E-13-1.46330E-13
 -1      1082 1.83081E+01 1.08199E+00-1.33859E-04-6.09245E-01-3.63689E-14-1.38891E-13
 -1      1083 1.71698E+01 6.67924E-01-1.12045E-03-1.55620E+00 1.55384E-13-5.68183E-13
 -1      1084 1.89761E+01 8.59086E-01 3.56563E-04 4.64489E-01-2.75732E-14-2.41680E-13
 -1      1085 1.85817E+01 8.64353E-01 7.94465E-04 6.35421E-01 2.51192E-14-2.25834E-13
 -1      1086 1.81091E+01 8.32983E-01-1.00928E-04 8.92904E-01 9.87073E-14-2.53558E-13
 -1      1087 1.75671E+01 7.44828E-01 9.14192E-03 1.23735E+00 1.66071E-13-3.99372E-13
 -1      1088 1.68812E+01 7.04755E-01-1.89095E-03 1.44414E+00 1.13137E-13-4.39564E-13
 -1      1089 1.77043E+01 8.64491E-01 6.57828E-04-1.09147E+00 9.82947E-14-5.90516E-13
 -1      1090 1.97785E+01 8.51140E-01-7.38291E-05-3.34358E-01 2.08621E-14-1.36499E-13
 -1      1091 1.81545E+01 9.33098E-01 9.90135E-05-7.74931E-01 7.55772E-14-5.33285E-13
 -1      1092 1.85247E+01 9.34748E-01 9.89465E-04-5.55343E-01 8.64910E-14-5.18359E-13
 -1      1093 1.88299E+01 8.82655E-01 5.88308E-06-4.01732E-01 8.40379E-14-5.31911E-13
 -1      1094 1.90907E+01 7.98821E-01 8.02687E-05-2.90878E-01-5.53783E-14-4.14843E-13
 -1      1095 1.93035E+01 7.00534E-01 6.40865E-05-2.10543E-01-2.64153E-13-3.36783E-13
 -1      1096 1.94751E+01 5.98325E-01 4.34420E-05-1.52233E-01-1.64128E-13-1.93428E-13
 -1      1097 1.96115E+01 4.99409E-01 2.53626E-05-1.09853E-01-1.46380E-13-2.54726E-14
 -1      1098 1.97181E+01 4.08387E-01 1.31540E-05-7.90456E-02-9.69364E-14-1.10936E-13
 -1      1099 1.98004E+01 3.27153E-01-6.41173E-05-5.53487E-02-1.82863E-14-1.81202E-13
 -1      1100 1.98646E+01 2.56929E-01 2.46942E-04-3.90865E-02 1.38900E-13-3.43282E-13
 -1      1101 1.95397E+01 5.67293E-01-2.44855E-05 9.88380E-02-1.03934E-15-1.90361E-13
 -1      1102 1.93731E+01 6.84135E-01-4.49674E-05 1.12464E-01 3.55023E-14-1.39407E-13
 -1      1103 1.91582E+01 8.09414E-01-7.52234E-05 1.20808E-01 7.34328E-14-2.87504E-13
 -1      1104 1.88823E+01 9.38273E-01-5.76572E-05 1.19007E-01 6.30074E-14-3.99850E-13
 -1      1105 1.96676E+01 4.62114E-01-1.55544E-05 8.31736E-02-8.14178E-14-1.98863E-13
 -1      1106 1.97647E+01 3.70252E-01 5.57609E-06 6.76871E-02-1.72869E-13-7.77028E-14
 -1      1107 1.98392E+01 2.90870E-01 2.64560E-04 5.28595E-02 1.58687E-13 2.46592E-14
 -1      1108 2.00475E+01 1.16299E+00-2.83054E-04 6.06451E-02-6.30443E-14-3.32092E-13
 -1      1109 1.61482E+01 1.13995E+00 8.66628E-04 3.48391E-01 4.08870E-14-3.11776E-13
 -1      1110 1.93191E+01 8.39794E-01 6.57684E-04 3.36961E-01-2.02610E-15-2.48671E-13
 -1      1111 1.95981E+01 8.42836E-01-1.20598E-04 2.40776E-01 3.21051E-14-2.64251E-13
 -1      1112 1.98196E+01 8.94255E-01 2.45399E-04 1.69638E-01 2.38879E-14-2.80356E-13
 -1      1113 1.98813E+01 9.63104E-01-3.45743E-05-6.25827E-02 3.93796E-14-2.29580E-13
 -1      1114 1.67412E+01 1.27844E+00 9.14223E-04-8.93903E-02 1.09526E-13 2.12239E-13
 -1      1115 1.70638E+01 1.18053E+00-1.01152E-03 3.40376E-02-4.76196E-14-1.81358E-13
 -1      1116 1.67183E+01 1.11293E+00 3.56370E-04-7.72100E-01 5.36281E-14-3.37299E-13
 -1      1117 1.98845E+01 2.34745E-01 9.62659E-05 4.11047E-02 1.71562E-13-7.03231E-14
 -1      1118 1.89241E+01 9.73537E-01-4.18850E-04-1.51721E-01 6.56183E-14-1.66000E-13
 -1      1119 1.85296E+01 1.06463E+00 3.97983E-04 1.07078E-01-8.01101E-15-2.86730E-13
 -1      1120 1.75177E+01 1.23796E+00-3.22202E-04 7.08396E-03 1.01799E-13 5.66284E-14
 -1      1121 1.84505E+01 1.05322E+00 5.80141E-04-1.24571E-01 6.26490E-14-6.40068E-14
 -1      1122 1.98778E+01 2.37226E-01-1.64344E-04 7.88094E-03 2.49391E-13 1.12908E-13
 -1      1123 1.95283E+01 8.60288E-01 4.65153E-04-4.13483E-01 8.36730E-14-1.14640E-13
 -1      1124 1.93950E+01 8.96089E-01-6.90238E-04 2.83748E-02 3.20479E-14-2.64233E-13
 -1      1125 1.78795E+01 1.11488E+00 1.41745E-03-6.23826E-02-3.38813E-15-1.11805E-13
 -1      1126 1.80969E+01 1.02493E+00-4.98830E-03 2.77221E-01 3.68571E-14-1.18433E-13
 -1      1127 1.75894E+01 1.13672E+00-7.74762E-04-4.60090E-01 1.75430E-13-2.01258E-13
 -1      1128 1.81099E+01 1.09905E+00-2.95361E-03-2.90532E-01 8.15903E-14-3.55614E-13
 -1      1129 1.81057E+01 1.15798E+00 1.26372E-03 7.55764E-02 6.29606E-14-1.46901E-13
 -1      1130 1.96428E+01 8.99752E-01 9.51643E-05-1.00548E-01 2.74697E-14-2.24259E-13
 -1      1131 1.99788E+01 1.01584E+00 3.09879E-05 1.05514E-01 1.72162E-14-3.18521E-13
 -1      1132 2.78368E+01 9.04311E+00 2.30671E+00-6.64802E+00-5.53446E-14 1.38942E-12
 -1      1133 2.05315E+01 6.22330E+00 2.12831E-01-3.85381E+00-2.73392E-14 1.09149E-14
 -1      1134 1.94536E+01 5.85970E+00 7.86690E-02-2.82793E+00-1.73958E-14-5.56676E-13
 -1      1135 1.90578E+01 5.73603E+00 6.22639E-02-2.16904E+00-1.14908E-14-8.00260E-13
 -1      1136 1.88712E+01 5.67869E+00 5.77908E-02-1.63616E+00-7.89646E-15-9.00294E-13
 -1      1137 1.87708E+01 5.64754E+00 5.43014E-02-1.17676E+00-3.67588E-15-9.39180E-13
 -1      1138 1.87134E+01 5.62944E+00 5.13777E-02-7.61683E-01-4.90927E-16-9.38993E-13
 -1      1139 1.86829E+01 5.61970E+00 4.93871E-02-3.70132E-01 1.33075E-15-9.16383E-13
 -1      1140 1.86740E+01 5.61681E+00 4.87270E-02 8.45030E-03 2.15550E-15-8.94900E-13
 -1      1141 1.86848E+01 5.62030E+00 4.95077E-02 3.87370E-01 5.32994E-15-8.52846E-13
 -1      1142 1.87171E+01 5.63065E+00 5.16761E-02 7.80123E-01 7.32053E-15-7.99205E-13
 -1      1143 1.87768E+01 5.64956E+00 5.50944E-02 1.19771E+00 9.31720E-15-7.22437E-13
 -1      1144 1.88788E+01 5.68129E+00 5.87850E-02 1.66148E+00 1.24796E-14-6.07805E-13
 -1      1145 1.90651E+01 5.73827E+00 6.23907E-02 2.20198E+00 1.62786E-14-4.22750E-13
 -1      1146 1.94511E+01 5.85718E+00 7.27659E-02 2.86851E+00 2.19200E-14-6.92987E-14
 -1      1147 2.04368E+01 6.17813E+00 1.56930E-01 3.82915E+00 2.17326E-14 6.07871E-13
 -1      1148 2.51070E+01 7.95754E+00 1.41805E+00 5.80108E+00 4.61853E-14 1.96179E-12
 -1      1149 2.86438E+01 3.58398E+00 1.24871E+00-4.18312E+00-2.18908E-13 2.25064E-12
 -1      1150 2.01615E+01-1.78220E-01-6.15808E-01-1.06048E-01-7.25323E-14 1.74497E-12
 -1      1151 1.88262E+01-9.70567E-02-2.35857E-01 6.28015E-02-2.71953E-14 1.06225E-12
 -1      1152 1.85466E+01-4.96486E-02-6.09665E-02 4.04770E-02-1.81469E-14 6.00180E-13
 -1      1153 1.85572E+01-2.71312E-02-1.80478E-02 2.69330E-02-9.55182E-15 2.70811E-13
 -1      1154 1.87256E+01-1.64872E-02-9.10629E-03 1.96283E-02-8.73195E-15 1.08309E-13
 -1      1155 1.89886E+01-1.09690E-02-6.86803E-03 1.53623E-02-3.25651E-15-9.44939E-14
 -1      1156 1.93155E+01-8.06979E-03-6.07392E-03 1.29133E-02-2.65630E-15-1.97137E-13
 -1      1157 1.96924E+01-6.53329E-03-5.84317E-03 1.17089E-02-6.40525E-15-3.31811E-13
 -1      1158 2.01139E+01-5.55286E-03-5.76175E-03 1.14679E-02-1.32345E-14-5.45956E-13
 -1      1159 2.05774E+01-4.46449E-03-5.24351E-03 1.19921E-02-1.37021E-14-8.01307E-13
 -1      1160 2.10779E+01-2.60507E-03-3.47316E-03 1.30183E-02 1.04634E-14-6.96975E-13
 -1      1161 2.16022E+01 7.27682E-04 5.75099E-04 1.40790E-02-1.46270E-14-6.27075E-13
 -1      1162 2.21213E+01 6.20199E-03 8.00977E-03 1.43516E-02 4.89496E-15-6.47142E-13
 -1      1163 2.25833E+01 1.42055E-02 1.96237E-02 1.25324E-02-7.27955E-15-5.41189E-13
 -1      1164 2.29081E+01 2.43519E-02 3.50469E-02 6.86414E-03-2.14997E-14-7.28540E-13
 -1      1165 2.29899E+01 3.47573E-02 5.14472E-02-4.42662E-03-1.44099E-14-7.60605E-13
 -1      1166 2.27164E+01 4.13950E-02 6.23885E-02-2.19869E-02-1.77805E-14-7.96460E-13
 -1      1167 2.20125E+01 3.84451E-02 5.84017E-02-4.35109E-02-3.04964E-15-8.24701E-13
 -1      1168 2.09051E+01 2.07652E-02 3.12134E-02-6.22407E-02 1.05476E-14-8.20892E-13
 -1      1169 1.95813E+01-1.13035E-02-1.82733E-02-6.80476E-02 2.52955E-15-8.44956E-13
 -1      1170 1.83835E+01-4.75975E-02-7.40162E-02-5.27697E-02 1.89015E-14-6.00672E-13
 -1      1171 1.76988E+01-7.10710E-02-1.09830E-01-1.75336E-02 3.14661E-14-2.62582E-13
 -1      1172 1.77764E+01-6.85785E-02-1.05999E-01 2.49161E-02-5.54340E-14-4.11952E-13
 -1      1173 1.85898E+01-4.16428E-02-6.47957E-02 5.71857E-02-1.43332E-15-6.71123E-13
 -1      1174 1.98524E+01-5.10620E-03-8.55887E-03 6.83968E-02 7.21667E-15-4.67459E-13
 -1      1175 2.11741E+01 2.45874E-02 3.73425E-02 5.95412E-02 7.17705E-14-6.71754E-14
 -1      1176 2.22374E+01 3.91708E-02 5.96923E-02 3.97119E-02-5.25530E-14-3.32658E-13
 -1      1177 2.28889E+01 3.96650E-02 5.98799E-02 1.87347E-02 1.63905E-14-3.08347E-13
 -1      1178 2.31274E+01 3.17264E-02 4.69695E-02 2.53354E-03 7.08071E-15-1.63897E-14
 -1      1179 2.30417E+01 2.09449E-02 3.00826E-02-7.27288E-03-1.81129E-14 4.85254E-14
 -1      1180 2.27474E+01 1.09276E-02 1.49286E-02-1.16452E-02 2.87769E-14-3.28352E-13
 -1      1181 2.23484E+01 3.25588E-03 3.79725E-03-1.23799E-02 3.18636E-15-2.18010E-13
 -1      1182 2.19217E+01-1.82764E-03-3.19592E-03-1.11282E-02-1.61123E-14-3.50836E-13
 -1      1183 2.15159E+01-4.72266E-03-6.88758E-03-9.05830E-03 4.46445E-14-4.78416E-13
 -1      1184 2.11572E+01-6.01703E-03-8.30496E-03-6.86377E-03 4.02064E-14-3.60932E-13
 -1      1185 2.08560E+01-6.26054E-03-8.32633E-03-4.89223E-03 2.58408E-14-5.30629E-13
 -1      1186 2.06131E+01-5.88399E-03-7.59105E-03-3.27673E-03-1.35308E-15-2.90122E-13
 -1      1187 2.04236E+01-5.19167E-03-6.51991E-03-2.03324E-03 6.94567E-15-2.02797E-13
 -1      1188 2.02803E+01-4.38222E-03-5.36828E-03-1.12236E-03 2.59157E-15-2.87715E-13
 -1      1189 2.01751E+01-3.57569E-03-4.27812E-03-4.84424E-04-6.05060E-14-6.98875E-13
 -1      1190 2.01006E+01-2.83770E-03-3.31856E-03-5.77038E-05 4.69123E-14-8.30574E-13
 -1      1191 2.00499E+01-2.19824E-03-2.51460E-03 2.13415E-04 1.97235E-14-2.21530E-13
 -1      1192 2.00174E+01-1.66501E-03-1.86606E-03 3.75754E-04-3.49849E-14 3.84320E-14
 -1      1193 1.99984E+01-1.23206E-03-1.35891E-03 4.67545E-04-4.11313E-14-1.22058E-13
 -1      1194 1.99893E+01-8.84501E-04-9.69061E-04 5.20093E-04 3.78592E-14 1.15310E-13
 -1      1195 1.99872E+01-5.99625E-04-6.52752E-04 5.58694E-04-4.46144E-15 3.60419E-13
 -1      1196 1.99898E+01-3.35351E-04-3.25111E-04 5.90074E-04 7.97429E-14 5.51981E-13
 -1      1197 1.99952E+01-1.01425E-04 1.95028E-04 6.13800E-04-2.67967E-14 5.27970E-13
 -1      1198 1.99992E+01 2.38466E-04 6.55981E-04 1.77916E-04 6.90562E-14 2.33146E-13
 -1      1199 2.76269E+01 5.21918E-01 3.62619E-01 1.95442E+00-3.75602E-14 3.06127E-12
 -1      1200 2.00176E+01-6.68772E-02-5.72713E-01 1.28158E-01 1.51372E-14 2.49439E-12
 -1      1201 1.88950E+01-4.17392E-02-1.93091E-01 1.97228E-02 2.25289E-14 1.88854E-12
 -1      1202 1.85698E+01-2.32871E-02-5.20697E-02 2.61205E-03 1.19258E-14 1.47788E-12
 -1      1203 1.85654E+01-1.51643E-02-1.64362E-02-2.28937E-03 1.08598E-14 1.20003E-12
 -1      1204 1.87305E+01-1.12438E-02-9.27780E-03-3.19619E-03 6.53188E-15 1.03230E-12
 -1      1205 1.89983E+01-9.49632E-03-8.41257E-03-2.88654E-03-1.95452E-14 1.02189E-12
 -1      1206 1.93402E+01-9.13736E-03-9.11245E-03-2.17790E-03 5.36290E-15 9.00044E-13
 -1      1207 1.97486E+01-9.76200E-03-1.07906E-02-1.40431E-03-2.99825E-15 6.23416E-13
 -1      1208 2.02286E+01-1.10599E-02-1.33918E-02-8.48829E-04 2.06199E-14 4.95550E-13
 -1      1209 2.07939E+01-1.26432E-02-1.66766E-02-8.77930E-04 2.75056E-14 2.79179E-13
 -1      1210 2.14634E+01-1.38652E-02-1.99950E-02-2.02751E-03-4.82904E-16 1.93946E-13
 -1      1211 2.22553E+01-1.35862E-02-2.19447E-02-5.06891E-03 9.13375E-15 2.23290E-13
 -1      1212 2.31781E+01-9.91872E-03-1.98235E-02-1.09832E-02-2.26123E-14 2.46188E-13
 -1      1213 2.42132E+01-1.63140E-04-9.08417E-03-2.06396E-02 1.46758E-15 1.38476E-13
 -1      1214 2.52875E+01 1.85079E-02 1.63927E-02-3.37931E-02 5.70529E-15 1.05242E-13
 -1      1215 2.62361E+01 4.65871E-02 6.13445E-02-4.70008E-02-2.36170E-14 6.63705E-14
 -1      1216 2.67707E+01 7.73818E-02 1.21082E-01-5.09064E-02 5.44703E-16 9.61514E-14
 -1      1217 2.65023E+01 9.20969E-02 1.69670E-01-3.01335E-02 3.54499E-14-1.64174E-14
 -1      1218 2.50976E+01 6.46027E-02 1.57490E-01 2.71588E-02-2.67026E-14 2.94625E-14
 -1      1219 2.26110E+01-1.20769E-02 4.44640E-02 1.08025E-01-3.23777E-14 2.65898E-13
 -1      1220 1.98051E+01-9.85324E-02-1.38166E-01 1.62549E-01 1.26158E-14 2.11137E-13
 -1      1221 1.79975E+01-1.27429E-01-2.72112E-01 1.36608E-01 1.04604E-15-7.63556E-14
 -1      1222 1.82095E+01-8.29803E-02-2.55188E-01 3.30086E-02 8.23994E-16-4.16868E-13
 -1      1223 2.03138E+01-8.71738E-03-1.09879E-01-7.98420E-02 3.98596E-14-6.98830E-13
 -1      1224 2.31587E+01 4.02460E-02 4.86854E-02-1.35176E-01 7.73448E-14-7.29694E-13
 -1      1225 2.54872E+01 5.27395E-02 1.30590E-01-1.22904E-01-4.21416E-14-5.65173E-13
 -1      1226 2.66871E+01 4.29216E-02 1.30531E-01-7.66394E-02-1.45214E-14-5.80133E-13
 -1      1227 2.68081E+01 2.66610E-02 8.93758E-02-3.01813E-02 3.29207E-15-8.24129E-13
 -1      1228 2.62122E+01 1.24577E-02 4.43149E-02 1.32044E-03 4.73146E-16-1.05834E-12
 -1      1229 2.52758E+01 2.75847E-03 1.19402E-02 1.72237E-02 4.75069E-14-1.26057E-12
 -1      1230 2.42644E+01-2.81617E-03-6.12778E-03 2.24115E-02 3.69478E-14-1.14909E-12
 -1      1231 2.33256E+01-5.46750E-03-1.38892E-02 2.18125E-02-2.32721E-14-5.84990E-13
 -1      1232 2.25224E+01-6.31994E-03-1.57325E-02 1.87619E-02-2.83796E-14-1.69927E-13
 -1      1233 2.18688E+01-6.18452E-03-1.47329E-02 1.50913E-02-1.35817E-14 5.09245E-14
 -1      1234 2.13545E+01-5.57437E-03-1.26491E-02 1.16480E-02-5.55303E-14-1.72308E-13
 -1      1235 2.09598E+01-4.78682E-03-1.03577E-02 8.73953E-03 3.42523E-14-4.73748E-13
 -1      1236 2.06631E+01-3.98157E-03-8.23972E-03 6.41521E-03 2.56403E-15-7.51788E-13
 -1      1237 2.04442E+01-3.23693E-03-6.42748E-03 4.61804E-03-9.32918E-15-6.81657E-13
 -1      1238 2.02859E+01-2.58563E-03-4.93983E-03 3.25860E-03 4.35375E-14-1.04348E-12
 -1      1239 2.01738E+01-2.03597E-03-3.74963E-03 2.24703E-03-4.63591E-14-7.48711E-13
 -1      1240 2.00967E+01-1.58393E-03-2.81503E-03 1.50470E-03 3.53923E-14 8.21422E-14
 -1      1241 2.00456E+01-1.21994E-03-2.09322E-03 9.66759E-04 1.47296E-14 3.15018E-14
 -1      1242 2.00136E+01-9.31908E-04-1.54538E-03 5.80590E-04 1.15990E-13-8.23815E-14
 -1      1243 1.99954E+01-7.03879E-04-1.13514E-03 3.02755E-04-3.10307E-14-1.14721E-13
 -1      1244 1.99872E+01-5.20057E-04-8.27881E-04 9.71375E-05-2.01993E-14 8.67331E-14
 -1      1245 1.99858E+01-3.57032E-04-5.78440E-04-7.19645E-05 3.26974E-14-2.85650E-13
 -1      1246 1.99892E+01-1.58009E-04-2.80164E-04-2.52724E-04 1.33586E-14-3.57106E-13
 -1      1247 1.99950E+01 1.84347E-04 2.60851E-04-4.64981E-04 7.33644E-14-4.30061E-13
 -1      1248 1.99993E+01 1.83689E-04 6.64353E-04-1.77062E-04-6.48714E-14-2.72924E-13
 -1      1249 1.99999E+01-5.70177E-04 5.90034E-04-2.21236E-04-1.23641E-13-1.28408E-13
 -1      1250 1.99998E+01-4.81990E-03 8.75487E-05-5.30513E-04-7.40677E-13-1.06437E-13
 -1      1251 1.99995E+01-9.52143E-03-3.88602E-04-3.97868E-04-4.91831E-13 3.17978E-14
 -1      1252 1.99995E+01-1.13101E-02-4.82193E-04-1.78169E-04-3.36732E-13 1.52466E-14
 -1      1253 1.99996E+01-9.86010E-03-3.35552E-04-4.49215E-06 4.60432E-14-8.08475E-15
 -1      1254 1.99998E+01-6.27472E-03-1.04681E-04 9.31236E-05-6.04773E-13-1.98860E-13
 -1      1255 1.99999E+01-2.07438E-03 1.22061E-04 1.14479E-04-1.50632E-12 6.72310E-15
 -1      1256 2.00000E+01 1.28423E-03 2.84413E-04 7.86013E-05-6.96588E-13-6.41049E-14
 -1      1257 2.00001E+01 2.68703E-03 3.45615E-04 1.07022E-05-1.14687E-12 1.56086E-14
 -1      1258 2.00000E+01 1.72641E-03 2.94488E-04-5.87892E-05-4.71327E-13-1.06829E-13
 -1      1259 1.99999E+01-1.25644E-03 1.41992E-04-9.89907E-05-4.63429E-13-1.55977E-13
 -1      1260 1.99998E+01-5.21433E-03-7.53133E-05-8.50144E-05-5.92959E-13 4.33589E-14
 -1      1261 1.99996E+01-8.73721E-03-3.04585E-04 1.58334E-06-6.60799E-13 2.22107E-13
 -1      1262 1.99995E+01-1.03169E-02-4.53229E-04 1.65651E-04-1.14790E-12 8.25579E-15
 -1      1263 1.99996E+01-8.83543E-03-3.48109E-04 4.37394E-04-5.04314E-13 5.60810E-14
 -1      1264 1.99998E+01-4.40417E-03 1.69771E-04 7.42799E-04-3.70804E-13-6.71265E-14
 -1      1265 1.99999E+01-6.94166E-04 5.40205E-04 2.92850E-04-1.30010E-13 4.14228E-14
 -1      1266-1.26654E+00-2.39531E+01-3.72208E+00-2.32720E+00-6.67078E-13-5.29646E-14
 -1      1267-1.96970E+00-1.56734E+01-3.18920E+00-4.26868E+00 6.83009E-13 4.76119E-13
 -1      1268-1.18317E-01-3.41440E+00-2.04690E+00-6.87324E-01 1.30429E-12 7.84262E-13
 -1      1269 8.40786E+00 6.91475E+00-5.06846E-01 7.61987E+00 1.33760E-12 1.17706E-12
 -1      1270 2.46619E+01 1.08898E+01 1.21547E+00 1.57586E+01 1.05271E-12 1.63825E-12
 -1      1271 4.57133E+01 8.32426E+00 2.94637E+00 1.78661E+01 5.48672E-13 1.19127E-12
 -1      1272 6.30959E+01 3.76888E+00 4.12038E+00 1.05604E+01 1.04888E-13 1.53766E-13
 -1      1273 6.88090E+01 1.88045E+00 4.57038E+00-2.31260E+00 1.23644E-13-1.22949E-12
 -1      1274 5.83122E+01 5.12271E+00 3.82189E+00-1.41351E+01 8.54927E-13-2.76379E-12
 -1      1275 3.79866E+01 9.92699E+00 2.41150E+00-1.80204E+01 1.73839E-12-3.42126E-12
 -1      1276 1.63142E+01 9.89212E+00 4.30870E-01-1.23479E+01 2.26219E-12-2.75113E-12
 -1      1277 2.52133E+00 1.72070E+00-1.41049E+00-2.48159E+00 2.17515E-12-1.62592E-12
 -1      1278-1.74045E+00-1.07694E+01-2.74799E+00 3.60931E+00 1.90847E-12-8.71636E-13
 -1      1279-1.39481E+00-2.16413E+01-3.54258E+00 3.73362E+00 5.38014E-13-2.83523E-13
 -1      1280-8.65693E-01-2.52184E+01-3.77243E+00-3.04020E-01-9.00308E-13-6.63358E-14
 -1      1281-1.44983E+00-1.97267E+01-3.35729E+00-3.77268E+00-2.06113E-12-5.66963E-13
 -1      1282-1.20832E+00-8.21339E+00-2.39877E+00-2.67096E+00-2.63434E-12-1.21592E-12
 -1      1283 4.22783E+00 3.75689E+00-9.41278E-01 4.14209E+00-2.50422E-12-1.91092E-12
 -1      1284 1.77324E+01 1.04700E+01 7.10625E-01 1.30654E+01-1.91935E-12-2.24465E-12
 -1      1285 3.72769E+01 1.00137E+01 2.39578E+00 1.80427E+01-1.33427E-12-2.35034E-12
 -1      1286 5.57177E+01 5.49884E+00 3.55100E+00 1.42687E+01-5.62606E-13-1.61937E-12
 -1      1287 6.62333E+01 1.66650E+00 4.14486E+00 3.47005E+00-7.74936E-14-3.22575E-13
 -1      1288 6.25133E+01 2.98309E+00 3.88383E+00-9.38158E+00-1.64223E-13 7.87814E-13
 -1      1289 4.74080E+01 7.65102E+00 2.97454E+00-1.73589E+01-6.00520E-13 1.49658E-12
 -1      1290 2.73689E+01 1.11199E+01 1.53934E+00-1.67064E+01-1.15852E-12 1.79456E-12
 -1      1291 1.02680E+01 8.47733E+00-9.41300E-02-9.14286E+00-1.61027E-12 1.55320E-12
 -1      1292 7.34088E-01-1.28223E+00-1.69448E+00-4.75309E-01-1.53211E-12 1.02940E-12
 -1      1293-1.68584E+00-1.41076E+01-2.94070E+00 3.79769E+00-1.31539E-12 5.26856E-13
 -1      1294-1.10229E+00-2.36948E+01-3.69470E+00 2.15129E+00-8.88012E-13 9.67559E-14
 -1      1295 2.21953E+01 1.83543E+00-7.21640E-01-2.76151E+00-8.56537E-14 1.07125E-12
 -1      1296 2.03618E+01 4.68252E+00-4.68971E-02-3.25067E+00-2.00936E-13-2.55310E-13
 -1      1297 2.08485E+01 4.79525E+00-1.10970E-01-4.10637E+00-2.65760E-13 4.37983E-14
 -1      1298 1.95590E+01 4.99397E+00-1.88388E-02-2.58839E+00-1.97967E-13-6.64926E-13
 -1      1299 1.98483E+01 5.08793E+00 2.18699E-03-2.98287E+00-2.24619E-13-4.95180E-13
 -1      1300 2.05396E+01 3.94511E+00-2.49376E-02-3.01034E+00-3.55251E-13-2.25930E-13
 -1      1301 1.92168E+01 5.09275E+00-3.50517E-03-2.00105E+00-1.53433E-13-8.49654E-13
 -1      1302 1.93649E+01 5.14762E+00 1.19676E-02-2.29463E+00-1.77382E-13-7.68718E-13
 -1      1303 1.97848E+01 4.37003E+00-2.36659E-02-2.41762E+00-3.07471E-13-5.66880E-13
 -1      1304 1.90362E+01 5.14506E+00 2.75523E-03-1.49824E+00-9.87543E-14-9.23791E-13
 -1      1305 1.91180E+01 5.17583E+00 1.34279E-02-1.74563E+00-1.21889E-13-8.91578E-13
 -1      1306 1.94226E+01 4.57143E+00-1.93995E-02-1.85959E+00-2.26052E-13-7.24594E-13
 -1      1307 1.89318E+01 5.17939E+00 5.62926E-03-1.06098E+00-5.66110E-14-9.47003E-13
 -1      1308 1.89801E+01 5.19748E+00 1.30511E-02-1.27645E+00-7.09433E-14-9.36088E-13
 -1      1309 1.92265E+01 4.68939E+00-1.55169E-02-1.37811E+00-1.43814E-13-7.84886E-13
 -1      1310 1.88697E+01 5.20242E+00 7.10226E-03-6.54628E-01-2.10019E-14-9.41932E-13
 -1      1311 1.88979E+01 5.21287E+00 1.18485E-02-8.55886E-01-2.94079E-14-9.50608E-13
 -1      1312 1.91098E+01 4.76406E+00-1.34053E-02-9.50775E-01-7.42312E-14-8.08416E-13
 -1      1313 1.88387E+01 5.21660E+00 8.20457E-03-2.71353E-01 2.19768E-14-9.20031E-13
 -1      1314 1.88516E+01 5.22135E+00 1.05106E-02-4.62562E-01 6.98920E-15-9.29593E-13
 -1      1315 1.90420E+01 4.80969E+00-1.22730E-02-5.54001E-01-1.60964E-14-7.95784E-13
 -1      1316 1.88338E+01 5.22281E+00 9.31861E-03 1.02469E-01 5.19604E-14-8.87988E-13
 -1      1317 1.88333E+01 5.22263E+00 9.26390E-03-8.55791E-02 4.39787E-14-9.07188E-13
 -1      1318 1.90109E+01 4.83140E+00-1.17938E-02-1.76920E-01 5.19243E-14-7.71674E-13
 -1      1319 1.88542E+01 5.22144E+00 1.05951E-02 4.79901E-01 8.87025E-14-8.46469E-13
 -1      1320 1.88402E+01 5.21632E+00 8.15291E-03 2.88350E-01 7.46222E-14-8.70984E-13
 -1      1321 1.90121E+01 4.83109E+00-1.18015E-02 1.93868E-01 1.00802E-13-7.41414E-13
 -1      1322 1.89028E+01 5.21244E+00 1.19768E-02 8.74464E-01 1.20512E-13-7.93624E-13
 -1      1323 1.88734E+01 5.20173E+00 7.05415E-03 6.72347E-01 1.08944E-13-8.27026E-13
 -1      1324 1.90456E+01 4.80848E+00-1.22955E-02 5.71399E-01 1.62647E-13-7.05946E-13
 -1      1325 1.89864E+01 5.19647E+00 1.32925E-02 1.29373E+00 1.58453E-13-7.13355E-13
 -1      1326 1.89371E+01 5.17790E+00 5.55124E-03 1.07690E+00 1.44935E-13-7.60173E-13
 -1      1327 1.91157E+01 4.76162E+00-1.33243E-02 9.65792E-01 2.17863E-13-6.50330E-13
 -1      1328 1.91283E+01 5.17287E+00 1.37654E-02 1.77117E+00 2.06973E-13-5.90004E-13
 -1      1329 1.90446E+01 5.14131E+00 2.62333E-03 1.52104E+00 1.83001E-13-6.60529E-13
 -1      1330 1.92353E+01 4.68390E+00-1.54890E-02 1.39577E+00 2.81447E-13-5.58421E-13
 -1      1331 1.93775E+01 5.14184E+00 1.16439E-02 2.32845E+00 2.44960E-13-3.72105E-13
 -1      1332 1.92284E+01 5.08517E+00-4.30304E-03 2.03034E+00 2.22451E-13-5.01620E-13
 -1      1333 1.94384E+01 4.55979E+00-1.92923E-02 1.88518E+00 3.44725E-13-4.22301E-13
 -1      1334 1.98737E+01 5.09694E+00 7.96495E-03 3.02110E+00 2.71450E-13 1.39472E-14
 -1      1335 1.95718E+01 4.98536E+00-1.96332E-02 2.63021E+00 2.46636E-13-2.16657E-13
 -1      1336 1.98074E+01 4.35089E+00-2.37439E-02 2.45589E+00 3.93649E-13-1.63189E-13
 -1      1337 2.10792E+01 4.89084E+00 9.64424E-03 4.00100E+00 2.26513E-13 7.30138E-13
 -1      1338 2.03357E+01 4.72548E+00-4.62021E-02 3.35939E+00 2.23821E-13 2.93918E-13
 -1      1339 2.05774E+01 3.90855E+00-2.13657E-02 3.11305E+00 4.02987E-13 2.59223E-13
 -1      1340 2.70783E+01 3.18525E+00 9.16882E-01 4.54060E+00 1.05679E-13 2.04953E-12
 -1      1341 2.19705E+01 3.51054E+00-1.79786E-01 3.84074E+00 1.10884E-13 1.14120E-12
 -1      1342 2.20837E+01 2.55123E+00-3.18031E-02 3.40197E+00 3.64290E-13 9.07829E-13
 -1      1343 2.13571E+01 3.57267E-01-7.60408E-01 1.16125E+00 1.88488E-13 1.98147E-12
 -1      1344 2.19454E+01 1.30064E-01-3.99436E-01-1.25875E+00-2.32578E-13 1.16565E-12
 -1      1345 2.06519E+01 3.04787E-01-1.63346E-01-7.83245E-01-2.05759E-13 8.88949E-13
 -1      1346 2.00744E+01 1.53549E-01-7.28033E-02-3.79898E-01-1.69455E-13 7.85521E-13
 -1      1347 1.96319E+01 9.19167E-02-1.42856E-02-3.07859E-01-1.58824E-13 5.46764E-13
 -1      1348 2.09719E+01 3.67137E-01-1.04017E-01-1.22952E+00-3.59844E-13 3.84217E-13
 -1      1349 1.92997E+01 6.60016E-02 3.35653E-03-1.10687E-01-1.31744E-13 4.60992E-13
 -1      1350 1.91759E+01 4.33989E-02 1.35927E-02-9.19491E-02-1.14322E-13 2.78461E-13
 -1      1351 1.99663E+01 1.35065E-01-3.55955E-02-4.57237E-01-2.81750E-13 2.23849E-13
 -1      1352 1.90466E+01 3.43369E-02 1.33908E-02 3.13524E-03-7.74940E-14 2.02310E-13
 -1      1353 1.90657E+01 2.27505E-02 1.13819E-02 1.41116E-02-7.78102E-14 8.77180E-14
 -1      1354 1.95441E+01 5.92008E-02-9.29811E-03-1.13444E-01-1.99396E-13 7.23813E-14
 -1      1355 1.90496E+01 2.00783E-02 8.87681E-03 6.61190E-02-5.09365E-14 4.49814E-14
 -1      1356 1.91428E+01 1.36364E-02 6.78136E-03 7.29861E-02-5.17841E-14-2.92093E-14
 -1      1357 1.94048E+01 3.03103E-02-4.63484E-03 6.22573E-02-1.18432E-13-3.38870E-14
 -1      1358 1.91948E+01 1.32037E-02 4.72660E-03 1.05271E-01-6.61186E-14-5.70828E-14
 -1      1359 1.93326E+01 9.25145E-03 3.99622E-03 1.10063E-01-3.72077E-14-1.38872E-13
 -1      1360 1.94380E+01 1.81763E-02-3.69844E-03 1.64430E-01-1.16880E-13-8.83143E-14
 -1      1361 1.94290E+01 9.81714E-03 2.41085E-03 1.32709E-01-1.42731E-14-1.49597E-13
 -1      1362 1.95979E+01 7.17778E-03 2.53696E-03 1.36538E-01-2.37152E-14-2.01925E-13
 -1      1363 1.95807E+01 1.28304E-02-3.15789E-03 2.31344E-01-6.21575E-14-1.23765E-13
 -1      1364 1.97262E+01 8.23009E-03 1.15747E-03 1.54532E-01-4.99206E-14-2.13989E-13
 -1      1365 1.99198E+01 6.21485E-03 1.67599E-03 1.57995E-01-4.59233E-14-2.86882E-13
 -1      1366 1.97985E+01 1.06529E-02-2.72624E-03 2.80949E-01-7.42442E-14-1.72406E-13
 -1      1367 2.00731E+01 7.44240E-03 3.64131E-04 1.73640E-01-4.88038E-14-3.11019E-13
 -1      1368 2.02888E+01 5.53012E-03 1.03901E-03 1.76957E-01-8.50012E-14-3.99546E-13
 -1      1369 2.00727E+01 9.83604E-03-2.42739E-03 3.22024E-01-8.78143E-14-1.84941E-13
 -1      1370 2.04625E+01 6.63472E-03-2.37195E-04 1.90609E-01-8.38429E-14-4.28216E-13
 -1      1371 2.06974E+01 4.34031E-03 4.75650E-04 1.93624E-01-2.34254E-14-4.97600E-13
 -1      1372 2.03921E+01 9.04147E-03-2.17418E-03 3.57843E-01-1.18733E-13-1.84042E-13
 -1      1373 2.08869E+01 4.94990E-03-7.20004E-04 2.03767E-01 1.22791E-14-5.40791E-13
 -1      1374 2.11361E+01 1.78158E-03-4.70075E-05 2.05884E-01-1.41690E-14-5.24379E-13
 -1      1375 2.07479E+01 6.90858E-03-1.78471E-03 3.87126E-01-3.27160E-14-2.87698E-13
 -1      1376 2.13344E+01 1.40389E-03-1.03496E-03 2.08949E-01-2.82849E-14-5.15758E-13
 -1      1377 2.15869E+01-3.10264E-03-4.70938E-04 2.09035E-01-2.78284E-14-5.49295E-13
 -1      1378 2.11290E+01 1.86376E-03-1.01387E-03 4.03908E-01-2.50854E-14-4.39204E-13
 -1      1379 2.17824E+01-5.07175E-03-1.02400E-03 1.99257E-01-1.17379E-14-4.92582E-13
 -1      1380 2.20182E+01-1.12094E-02-6.40867E-04 1.95585E-01 2.98880E-14-4.74322E-13
 -1      1381 2.15179E+01-7.84144E-03 4.29015E-04 3.97127E-01-1.32920E-14-4.24467E-13
 -1      1382 2.21929E+01-1.53630E-02-4.34678E-04 1.65344E-01 1.62466E-14-4.42107E-13
 -1      1383 2.23800E+01-2.29458E-02-3.19197E-04 1.55705E-01-4.10648E-14-4.85509E-13
 -1      1384 2.18864E+01-2.37354E-02 2.83487E-03 3.50803E-01 2.50262E-14-3.81025E-13
 -1      1385 2.25083E+01-2.95357E-02 9.96198E-04 9.70486E-02-6.58345E-14-4.91033E-13
 -1      1386 2.26028E+01-3.74057E-02 7.15612E-04 7.92653E-02-4.99765E-14-5.40775E-13
 -1      1387 2.21924E+01-4.61358E-02 6.36993E-03 2.46129E-01-6.92662E-14-3.83842E-13
 -1      1388 2.26530E+01-4.57390E-02 3.32248E-03-1.25101E-02-3.08659E-14-5.44139E-13
 -1      1389 2.26041E+01-5.12325E-02 2.43122E-03-3.93721E-02-4.22622E-14-5.90174E-13
 -1      1390 2.23799E+01-7.24118E-02 1.08175E-02 6.73667E-02-6.63879E-14-3.86577E-13
 -1      1391 2.25442E+01-5.89564E-02 6.03055E-03-1.59690E-01-2.02728E-14-5.92838E-13
 -1      1392 2.23097E+01-5.78339E-02 4.22918E-03-1.93337E-01-4.72816E-14-5.86977E-13
 -1      1393 2.23857E+01-9.49335E-02 1.51861E-02-1.86792E-01-4.65548E-14-3.58531E-13
 -1      1394 2.21198E+01-6.07413E-02 7.80511E-03-3.21437E-01-2.99760E-14-6.28584E-13
 -1      1395 2.16907E+01-4.84625E-02 4.80331E-03-3.54293E-01 1.27676E-14-6.40037E-13
 -1      1396 2.21560E+01-1.00505E-01 1.73914E-02-4.87441E-01-5.53099E-14-4.41135E-13
 -1      1397 2.13801E+01-4.19688E-02 6.80810E-03-4.50690E-01 1.71347E-15-5.90084E-13
 -1      1398 2.08085E+01-1.68994E-02 2.61764E-03-4.69854E-01-5.38532E-14-6.30752E-13
 -1      1399 2.16758E+01-7.42117E-02 1.45794E-02-7.62991E-01-1.45543E-14-4.61277E-13
 -1      1400 2.04318E+01 2.17680E-04 1.94154E-03-4.86138E-01 1.39782E-14-6.18616E-13
 -1      1401 1.98420E+01 3.29546E-02-2.66810E-03-4.78081E-01 2.15175E-14-5.73243E-13
 -1      1402 2.10033E+01-9.79414E-03 4.64430E-03-9.06064E-01-1.30455E-14-3.91463E-13
 -1      1403 1.94984E+01 5.48277E-02-5.32658E-03-3.82394E-01 4.42615E-14-4.88325E-13
 -1      1404 1.90595E+01 8.28275E-02-8.97475E-03-3.42172E-01 1.07797E-13-3.36613E-13
 -1      1405 2.02892E+01 7.83110E-02-1.09573E-02-8.15395E-01 1.14615E-13-3.49580E-13
 -1      1406 1.88625E+01 9.76731E-02-1.12446E-02-1.47783E-01 6.90333E-14-3.78272E-13
 -1      1407 1.87214E+01 1.07405E-01-1.24508E-02-8.63775E-02 6.03684E-15-3.48603E-13
 -1      1408 1.97488E+01 1.54886E-01-2.55070E-02-4.64183E-01 9.60031E-14-3.52262E-13
 -1      1409 1.87449E+01 1.05811E-01-1.21760E-02 1.42746E-01-1.69587E-14-3.45654E-13
 -1      1410 1.89527E+01 9.21049E-02-1.04014E-02 2.01875E-01-4.94292E-14-4.11643E-13
 -1      1411 1.95745E+01 1.81557E-01-3.07683E-02 5.36722E-02-1.58241E-14-4.11147E-13
 -1      1412 1.91889E+01 7.51584E-02-7.85457E-03 3.82225E-01-4.50516E-14-3.57797E-13
 -1      1413 1.96736E+01 4.52912E-02-3.87515E-03 4.17052E-01-1.11126E-14-3.62724E-13
 -1      1414 1.98351E+01 1.44051E-01-2.33078E-02 5.53913E-01-1.54009E-14-2.57730E-13
 -1      1415 2.00379E+01 2.36189E-02-1.46330E-03 4.92627E-01 2.98912E-14-4.30968E-13
 -1      1416 2.06434E+01-8.36592E-03 3.20552E-03 4.95232E-01 4.17035E-14-2.68258E-13
 -1      1417 2.04346E+01 6.25981E-02-7.93231E-03 8.62601E-01 6.71338E-16-2.10132E-13
 -1      1418 2.10217E+01-2.36286E-02 3.31779E-03 4.62480E-01 8.28014E-14-3.11778E-13
 -1      1419 2.15837E+01-4.64014E-02 7.35753E-03 4.40102E-01 3.59760E-14-2.67234E-13
 -1      1420 2.11691E+01-2.30496E-02 6.85984E-03 9.08365E-01 6.27705E-14-2.69252E-13
 -1      1421 2.18843E+01-5.07556E-02 4.88875E-03 3.36323E-01-7.38741E-14-2.90625E-13
 -1      1422 2.22919E+01-6.06185E-02 7.72398E-03 3.03024E-01-1.02351E-13-3.69843E-13
 -1      1423 2.18315E+01-8.04010E-02 1.53741E-02 7.36676E-01-5.45466E-14-4.66606E-13
 -1      1424 2.24698E+01-5.62535E-02 3.94375E-03 1.76599E-01 4.51843E-14-3.43283E-13
 -1      1425 2.26848E+01-5.57106E-02 5.62782E-03 1.44512E-01 9.54280E-14-2.29996E-13
 -1      1426 2.22889E+01-9.95116E-02 1.69336E-02 4.54889E-01-2.37527E-14-3.84424E-13
 -1      1427 2.27383E+01-4.73780E-02 2.05430E-03 3.18025E-02 4.08180E-14-1.61794E-13
 -1      1428 2.27788E+01-4.11275E-02 2.91866E-03 7.42763E-03 7.10894E-14-4.50054E-14
 -1      1429 2.25002E+01-8.91296E-02 1.40390E-02 1.66028E-01 7.97444E-14-2.54360E-13
 -1      1430 2.27319E+01-3.27360E-02 4.11881E-04-7.42403E-02-4.64247E-14-3.18755E-15
 -1      1431 2.26444E+01-2.47776E-02 7.40971E-04-8.93846E-02-1.07078E-13-1.45642E-13
 -1      1432 2.24916E+01-6.45535E-02 9.47545E-03-6.64998E-02 3.18877E-14-2.18539E-13
 -1      1433 2.25303E+01-1.83078E-02-5.32038E-04-1.37701E-01-3.77441E-14-7.52905E-14
 -1      1434 2.23661E+01-1.10141E-02-5.43431E-04-1.44900E-01 2.48280E-14-6.01932E-14
 -1      1435 2.23216E+01-3.80848E-02 5.08681E-03-2.20639E-01-1.02177E-13-9.46261E-14
 -1      1436 2.22161E+01-6.92779E-03-8.23204E-04-1.65586E-01-1.30274E-14-1.38991E-13
 -1      1437 2.20181E+01-1.27279E-03-1.05345E-03-1.67095E-01-7.97077E-14-2.30109E-13
 -1      1438 2.20541E+01-1.62858E-02 1.70257E-03-3.01514E-01-7.51786E-14-1.15089E-13
 -1      1439 2.18568E+01 7.71955E-04-7.05038E-04-1.68368E-01-8.54250E-14-2.01008E-13
 -1      1440 2.16556E+01 4.66826E-03-1.07229E-03-1.66364E-01-1.44618E-14-3.05111E-13
 -1      1441 2.17435E+01-1.14275E-03-5.37260E-04-3.26312E-01-8.92165E-14-1.82527E-13
 -1      1442 2.14996E+01 5.26975E-03-4.17059E-04-1.55855E-01 1.81034E-14-2.91970E-13
 -1      1443 2.13135E+01 7.67764E-03-8.56485E-04-1.52027E-01 3.54558E-14-2.99959E-13
 -1      1444 2.14293E+01 7.89606E-03-1.81545E-03-3.14139E-01-5.17591E-14-1.79425E-14
 -1      1445 2.11727E+01 7.39977E-03-1.16382E-04-1.35596E-01-6.34345E-15-3.44338E-13
 -1      1446 2.10111E+01 8.69738E-03-5.75150E-04-1.31092E-01 1.87029E-14-4.24048E-13
 -1      1447 2.11367E+01 1.23200E-02-2.39973E-03-2.81100E-01 9.44416E-15-2.26904E-13
 -1      1448 2.08902E+01 7.96683E-03 1.21806E-04-1.12717E-01 3.56113E-14-3.42978E-13
 -1      1449 2.07562E+01 8.50590E-03-3.16743E-04-1.08238E-01 1.35571E-14-3.86411E-13
 -1      1450 2.08793E+01 1.36706E-02-2.53384E-03-2.38884E-01 3.32759E-14-3.01464E-13
 -1      1451 2.06562E+01 7.60576E-03 2.77222E-04-9.03451E-02 9.64032E-14-4.74840E-13
 -1      1452 2.05492E+01 7.66534E-03-1.15484E-04-8.62716E-02 2.70627E-14-3.78494E-13
 -1      1453 2.06622E+01 1.31912E-02-2.40355E-03-1.95077E-01 2.67304E-14-3.65009E-13
 -1      1454 2.04691E+01 6.76417E-03 3.57814E-04-7.01642E-02 3.15956E-14-2.19216E-13
 -1      1455 2.03864E+01 6.54657E-03 2.40228E-05-6.66642E-02 5.05336E-14-2.71794E-13
 -1      1456 2.04855E+01 1.17622E-02-2.13721E-03-1.54087E-01 4.05651E-14-4.03198E-13
 -1      1457 2.03240E+01 5.73305E-03 3.81756E-04-5.29004E-02-6.95435E-14-2.03568E-13
 -1      1458 2.02619E+01 5.37586E-03 1.10270E-04-5.00132E-02-1.33102E-13-4.21898E-13
 -1      1459 2.03458E+01 9.95342E-03-1.81751E-03-1.18106E-01-4.70265E-14-2.46965E-13
 -1      1460 2.02148E+01 4.68777E-03 3.67890E-04-3.86937E-02-1.89642E-13-3.82511E-13
 -1      1461 2.01696E+01 4.27937E-03 1.55645E-04-3.63867E-02-1.67813E-13-6.72481E-13
 -1      1462 2.02383E+01 8.10519E-03-1.49437E-03-8.79027E-02-1.78763E-13-4.12999E-13
 -1      1463 2.01349E+01 3.72444E-03 3.31736E-04-2.73558E-02 8.61572E-14-6.57352E-13
 -1      1464 2.01032E+01 3.31806E-03 1.72002E-04-2.55604E-02 1.24100E-13-4.53176E-13
 -1      1465 2.01580E+01 6.40173E-03-1.19541E-03-6.33979E-02-7.09337E-14-2.67351E-13
 -1      1466 2.00785E+01 2.88792E-03 2.84475E-04-1.85377E-02 1.89330E-13-3.59698E-13
 -1      1467 2.00573E+01 2.51268E-03 1.68855E-04-1.71726E-02 1.83917E-13-1.61467E-13
 -1      1468 2.00996E+01 4.92770E-03-9.33840E-04-4.40632E-02 3.03437E-13-2.50564E-13
 -1      1469 2.00404E+01 2.19155E-03 2.33126E-04-1.18350E-02 4.31996E-14 2.10897E-14
 -1      1470 2.00271E+01 1.86041E-03 1.52788E-04-1.08188E-02 1.68827E-15 1.99237E-14
 -1      1471 2.00587E+01 3.70778E-03-7.13901E-04-2.91720E-02 2.37354E-13 1.91158E-14
 -1      1472 2.00161E+01 1.62993E-03 1.81141E-04-6.84910E-03-3.34837E-14 3.28754E-14
 -1      1473 2.00086E+01 1.34489E-03 1.27631E-04-6.10772E-03 4.48122E-14 6.05274E-14
 -1      1474 2.00313E+01 2.73193E-03-5.34663E-04-1.79551E-02 5.91654E-14 4.92698E-14
 -1      1475 2.00021E+01 1.18627E-03 1.29397E-04-3.22468E-03 1.14532E-13-2.77176E-14
 -1      1476 1.99989E+01 9.41053E-04 9.62611E-05-2.69546E-03 5.52408E-14 1.69953E-13
 -1      1477 2.00140E+01 1.97054E-03-3.91960E-04-9.69385E-03 9.36685E-14 1.51115E-13
 -1      1478 1.99955E+01 8.33282E-04 7.98486E-05-6.75396E-04-5.22154E-14 1.68100E-13
 -1      1479 1.99953E+01 6.10110E-04 6.76834E-05-3.12497E-04-3.64709E-14 1.11559E-13
 -1      1480 2.00042E+01 1.37904E-03-2.77840E-04-3.78041E-03 1.86009E-14-7.35637E-14
 -1      1481 1.99941E+01 5.14667E-04 4.58417E-05 9.66899E-04 5.61979E-14 1.52168E-13
 -1      1482 1.99957E+01 2.76053E-04 6.41856E-05 1.17711E-03 9.81825E-14 1.84932E-13
 -1      1483 1.99996E+01 8.74545E-04-1.75365E-04 2.06913E-04 8.56181E-15-2.11608E-13
 -1      1484 1.99957E+01 2.05213E-04 8.25155E-05 1.67347E-03 1.61143E-14 2.22926E-13
 -1      1485 1.99980E+01-1.48039E-04 1.77725E-04 1.74796E-03-8.22391E-14 1.73724E-13
 -1      1486 1.99984E+01 2.66774E-04-6.37978E-05 2.37973E-03 1.08308E-13-1.91450E-13
 -1      1487 1.99990E+01-6.57078E-04 4.05917E-04 7.10343E-04-2.44334E-13 3.08393E-13
 -1      1488 1.99992E+01-1.23889E-03 1.16930E-04 2.10016E-03-1.71923E-13 7.29767E-14
 -1      1489 2.02344E+01 7.52685E-02-1.50845E-01 4.65071E-01 1.93106E-13 1.57132E-12
 -1      1490 2.14748E+01 2.15802E-01-2.28724E-01 7.00584E-01 1.58901E-13 1.85793E-12
 -1      1491 2.16947E+01 8.75521E-01-8.58775E-02 2.02420E+00 3.12153E-13 1.22855E-12
 -1      1492 1.93561E+01 3.30777E-02-2.09325E-02 1.66725E-01 1.34018E-13 1.20325E-12
 -1      1493 1.97504E+01 1.14224E-01-6.18993E-02 2.18992E-01 1.35128E-13 1.42179E-12
 -1      1494 2.03136E+01 1.86933E-01-5.52830E-02 7.49055E-01 2.90296E-13 9.51880E-13
 -1      1495 1.90330E+01 1.65881E-02 5.59190E-03 2.99103E-02 9.70439E-14 9.31869E-13
 -1      1496 1.91414E+01 5.35000E-02 1.44358E-03 5.73666E-02 9.99695E-14 1.08970E-12
 -1      1497 1.96199E+01 7.34120E-02-1.25966E-02 2.57226E-01 2.22511E-13 7.14446E-13
 -1      1498 1.89985E+01 9.42351E-03 6.62600E-03-4.04639E-02 6.01671E-14 7.71456E-13
 -1      1499 1.89739E+01 2.90610E-02 1.14191E-02-2.40352E-02 5.04028E-14 8.58008E-13
 -1      1500 1.93486E+01 3.44893E-02-3.25559E-03 3.01675E-02 1.36760E-13 5.44348E-13
 -1      1501 1.91271E+01 6.43885E-03 4.21038E-03-8.24338E-02 1.63992E-14 6.86473E-13
 -1      1502 1.90299E+01 1.85286E-02 8.85740E-03-7.12600E-02 3.03011E-14 7.36761E-13
 -1      1503 1.93161E+01 1.86198E-02-2.79779E-03-9.33569E-02 7.04454E-14 4.38339E-13
 -1      1504 1.93611E+01 5.37528E-03 2.48058E-03-1.11995E-01 3.02807E-14 6.27812E-13
 -1      1505 1.92171E+01 1.38161E-02 5.76966E-03-1.03219E-01 1.83963E-14 6.53935E-13
 -1      1506 1.94301E+01 1.20156E-02-3.30105E-03-1.71171E-01 3.71916E-14 3.66128E-13
 -1      1507 1.96750E+01 5.42497E-03 1.39793E-03-1.37288E-01 7.31468E-14 4.80003E-13
 -1      1508 1.94942E+01 1.21857E-02 3.91366E-03-1.29221E-01 5.72964E-14 5.65997E-13
 -1      1509 1.96439E+01 9.83384E-03-3.67852E-03-2.29188E-01 9.08017E-14 2.63056E-13
 -1      1510 2.00616E+01 6.21980E-03 5.46425E-04-1.63256E-01 4.93334E-14 3.30156E-13
 -1      1511 1.98455E+01 1.24986E-02 2.87934E-03-1.54700E-01 5.59457E-14 4.33922E-13
 -1      1512 1.99367E+01 1.02141E-02-4.11294E-03-2.81376E-01 9.66265E-14 2.13117E-13
 -1      1513 2.05249E+01 7.49294E-03-2.90375E-04-1.93140E-01 7.34265E-14 2.29577E-13
 -1      1514 2.02693E+01 1.41507E-02 2.22468E-03-1.83179E-01 3.86258E-14 2.84267E-13
 -1      1515 2.03022E+01 1.22430E-02-4.77978E-03-3.36300E-01 9.73195E-14 1.04095E-13
 -1      1516 2.10755E+01 8.91635E-03-1.17187E-03-2.28775E-01 2.09539E-14 1.66108E-13
 -1      1517 2.07730E+01 1.66234E-02 1.69865E-03-2.16765E-01 5.80304E-14 2.34800E-13
 -1      1518 2.07428E+01 1.52284E-02-5.71647E-03-3.99228E-01 8.03246E-14 5.96136E-14
 -1      1519 2.17262E+01 9.94216E-03-2.02932E-03-2.70151E-01 1.49947E-14 1.26727E-13
 -1      1520 2.13684E+01 1.91827E-02 1.15977E-03-2.55875E-01 1.19744E-14 1.48680E-13
 -1      1521 2.12656E+01 1.83021E-02-6.83155E-03-4.72246E-01 2.57546E-14 9.90917E-14
 -1      1522 2.24850E+01 9.59378E-03-2.58257E-03-3.14158E-01-3.35799E-15 1.42620E-13
 -1      1523 2.20661E+01 2.05320E-02 5.41214E-04-2.98230E-01-2.15800E-15 1.03466E-13
 -1      1524 2.18770E+01 2.00084E-02-7.84545E-03-5.52872E-01 1.21413E-14 5.50653E-14
 -1      1525 2.33442E+01 6.21828E-03-2.14344E-03-3.52316E-01 3.55302E-14 9.06775E-14
 -1      1526 2.28679E+01 1.83676E-02-8.46028E-05-3.36948E-01 3.56204E-15 1.29594E-13
 -1      1527 2.25762E+01 1.77683E-02-8.13653E-03-6.31029E-01 1.74982E-14 3.24341E-14
 -1      1528 2.42633E+01-2.63672E-03 6.25466E-04-3.67540E-01-6.12840E-15 4.11823E-14
 -1      1529 2.37531E+01 8.96521E-03-3.39193E-04-3.57707E-01 1.87191E-14 6.92779E-14
 -1      1530 2.33454E+01 7.30820E-03-6.52566E-03-6.84244E-01 6.17003E-14-1.04682E-14
 -1      1531 2.51449E+01-1.97159E-02 7.67340E-03-3.31169E-01 1.28344E-14 7.37882E-14
 -1      1532 2.46590E+01-1.26306E-02 6.65010E-04-3.35880E-01 5.38285E-15 7.17967E-14
 -1      1533 2.41352E+01-1.74062E-02-1.17863E-03-6.72112E-01 6.08151E-15-1.96006E-14
 -1      1534 2.58108E+01-4.58979E-02 2.04414E-02-2.04531E-01-4.66207E-14 9.36473E-14
 -1      1535 2.54576E+01-5.04635E-02 4.23673E-03-2.36839E-01-2.50676E-14 6.67418E-14
 -1      1536 2.48482E+01-6.21723E-02 9.88643E-03-5.34542E-01-1.71096E-14 9.62754E-14
 -1      1537 2.60009E+01-7.52898E-02 3.65787E-02 4.59026E-02 2.13926E-14 4.23463E-14
 -1      1538 2.59399E+01-1.01560E-01 1.10566E-02-2.66995E-02 1.69136E-15 7.62597E-14
 -1      1539 2.53278E+01-1.26006E-01 2.67444E-02-2.05033E-01-1.04864E-14 3.60944E-14
 -1      1540 2.54382E+01-8.93376E-02 4.52731E-02 4.09271E-01-2.07698E-14 9.15587E-14
 -1      1541 2.58380E+01-1.46190E-01 1.84654E-02 2.96793E-01 2.47840E-14 1.03622E-13
 -1      1542 2.53733E+01-1.88090E-01 4.39229E-02 3.43671E-01 6.03337E-15 1.31705E-13
 -1      1543 2.40035E+01-5.92818E-02 2.78456E-02 7.74364E-01-6.01290E-14 2.08639E-13
 -1      1544 2.49300E+01-1.43410E-01 1.79878E-02 6.54586E-01-7.18835E-14 1.52579E-13
 -1      1545 2.48121E+01-1.97285E-01 4.76689E-02 1.01463E+00-1.00950E-13 2.75727E-13
 -1      1546 2.19887E+01 2.63710E-02-2.48411E-02 9.18029E-01 1.03849E-14 2.78361E-13
 -1      1547 2.32484E+01-5.45939E-02-6.44437E-04 8.59697E-01-2.79019E-15 2.16299E-13
 -1      1548 2.36528E+01-8.89617E-02 2.42917E-02 1.51526E+00-2.59254E-14 3.07102E-13
 -1      1549 2.01946E+01 1.26556E-01-8.86687E-02 6.38429E-01 4.69035E-14 8.80268E-14
 -1      1550 2.12872E+01 1.01962E-01-3.52971E-02 7.04115E-01 6.07014E-14 1.34726E-13
 -1      1551 2.22514E+01 1.38704E-01-2.21706E-02 1.44733E+00 4.80241E-14 1.06526E-13
 -1      1552 1.95775E+01 1.59496E-01-1.10450E-01-8.48936E-03 1.41942E-13-2.25837E-13
 -1      1553 1.99288E+01 2.25417E-01-6.20869E-02 1.64802E-01 1.24820E-13-1.73611E-14
 -1      1554 2.12748E+01 3.60488E-01-5.98002E-02 6.40710E-01 1.67019E-13-4.77101E-14
 -1      1555 2.05104E+01 9.70106E-02-6.75084E-02-6.51457E-01 9.10279E-14-5.86461E-13
 -1      1556 1.99155E+01 2.18241E-01-5.50254E-02-4.73868E-01 1.12410E-13-4.05322E-13
 -1      1557 2.12886E+01 3.83080E-01-6.35648E-02-5.37239E-01 2.70638E-13-4.05913E-13
 -1      1558 2.24638E+01-6.52116E-03 6.32023E-03-9.29037E-01-5.31302E-15-5.82756E-13
 -1      1559 2.12549E+01 9.62287E-02-1.73993E-02-8.44138E-01-1.52777E-14-6.28469E-13
 -1      1560 2.22815E+01 1.84878E-01-3.66867E-02-1.40576E+00 1.09156E-13-5.88335E-13
 -1      1561 2.44468E+01-7.39705E-02 5.68059E-02-7.78120E-01-6.23737E-14-4.94368E-13
 -1      1562 2.32204E+01-3.90395E-02 2.11499E-02-8.00228E-01 2.11550E-14-4.19664E-13
 -1      1563 2.36842E+01-7.80931E-02-6.93436E-03-1.55033E+00-5.94542E-14-3.97127E-13
 -1      1564 2.57379E+01-8.54393E-02 6.39920E-02-4.09435E-01-4.55330E-14-3.28182E-13
 -1      1565 2.49288E+01-1.08384E-01 3.75231E-02-4.86998E-01-7.73600E-14-4.10311E-13
 -1      1566 2.48450E+01-2.23373E-01 1.06294E-02-1.09504E+00-1.39536E-13-2.42473E-13
 -1      1567 2.61516E+01-6.32406E-02 4.44437E-02-4.77496E-02 1.19705E-14-4.92242E-13
 -1      1568 2.58722E+01-1.09916E-01 3.16279E-02-1.27388E-01 3.92637E-14-4.12149E-13
 -1      1569 2.54213E+01-2.26621E-01 1.47439E-02-4.32213E-01 4.64524E-14-3.05385E-13
 -1      1570 2.58679E+01-3.39972E-02 2.03365E-02 1.97350E-01 3.72194E-14-6.53881E-13
 -1      1571 2.60078E+01-7.76243E-02 1.68684E-02 1.41343E-01 3.54109E-14-5.43374E-13
 -1      1572 2.54044E+01-1.55579E-01 1.17536E-02 1.30061E-01 3.64032E-14-3.60698E-13
 -1      1573 2.51763E+01-1.12255E-02 3.21061E-03 3.17394E-01 4.68679E-14-7.95364E-13
 -1      1574 2.55586E+01-4.10571E-02 4.09467E-03 2.87727E-01 1.20234E-14-7.15405E-13
 -1      1575 2.49625E+01-7.63530E-02 7.20093E-03 4.76949E-01 3.11765E-14-4.44485E-13
 -1      1576 2.43242E+01 2.37642E-03-5.52739E-03 3.47189E-01-5.66903E-14-8.46986E-13
 -1      1577 2.47992E+01-1.35017E-02-3.02111E-03 3.36874E-01 2.68974E-14-8.94382E-13
 -1      1578 2.42945E+01-1.87770E-02 3.59928E-03 6.25936E-01 6.93716E-14-6.09211E-13
 -1      1579 2.34724E+01 8.81835E-03-8.42747E-03 3.25611E-01-1.73628E-13-5.41716E-13
 -1      1580 2.39450E+01 3.06148E-03-5.45349E-03 3.26667E-01-1.28990E-13-7.06549E-13
 -1      1581 2.35571E+01 1.37535E-02 1.35943E-03 6.41152E-01-2.12628E-13-3.88386E-13
 -1      1582 2.27056E+01 1.08527E-02-8.29602E-03 2.81111E-01-9.18757E-14-1.91278E-13
 -1      1583 2.31272E+01 1.11644E-02-5.27980E-03 2.87644E-01-1.31120E-13-4.53877E-13
 -1      1584 2.28496E+01 2.79233E-02 1.51567E-04 5.83828E-01-2.44613E-13-2.01041E-13
 -1      1585 2.20570E+01 1.05880E-02-6.98776E-03 2.30652E-01 2.72352E-16-3.93435E-14
 -1      1586 2.24101E+01 1.39636E-02-4.12194E-03 2.39088E-01-6.12058E-14-7.80608E-14
 -1      1587 2.22227E+01 3.12771E-02-4.40776E-04 4.96599E-01-1.66486E-13-3.76283E-14
 -1      1588 2.15305E+01 9.32499E-03-5.44954E-03 1.82867E-01-5.23208E-14 1.85702E-14
 -1      1589 2.18141E+01 1.38859E-02-2.84987E-03 1.91319E-01-9.47311E-15-2.80678E-15
 -1      1590 2.16951E+01 2.92585E-02-7.03152E-04 4.04249E-01-6.31726E-14 4.58184E-16
 -1      1591 2.11153E+01 7.76603E-03-4.06882E-03 1.41356E-01 1.70510E-14-1.56573E-13
 -1      1592 2.13367E+01 1.24709E-02-1.80077E-03 1.48964E-01 4.69312E-14-7.49296E-14
 -1      1593 2.12667E+01 2.51047E-02-7.93393E-04 3.19089E-01 1.31901E-13 1.16082E-13
 -1      1594 2.07954E+01 6.24856E-03-2.95522E-03 1.07033E-01 1.36404E-13-4.31192E-13
 -1      1595 2.09643E+01 1.05867E-02-1.04068E-03 1.13499E-01 1.03177E-13-2.43149E-13
 -1      1596 2.09279E+01 2.05043E-02-7.92725E-04 2.45995E-01 1.77086E-13-1.42020E-13
 -1      1597 2.05537E+01 4.91092E-03-2.10297E-03 7.95343E-02 2.75476E-14-4.76253E-13
 -1      1598 2.06800E+01 8.67665E-03-5.30568E-04 8.48402E-02 2.63301E-14-4.61810E-13
 -1      1599 2.06657E+01 1.62292E-02-7.43649E-04 1.85899E-01 1.29109E-13-1.53857E-13
 -1      1600 2.03744E+01 3.79192E-03-1.46917E-03 5.79853E-02 9.82621E-14-6.50725E-13
 -1      1601 2.04671E+01 6.94144E-03-2.06837E-04 6.22375E-02 6.30081E-14-5.00525E-13
 -1      1602 2.04666E+01 1.25648E-02-6.70120E-04 1.37880E-01 1.17345E-13-3.76211E-13
 -1      1603 2.02440E+01 2.88508E-03-1.00617E-03 4.13867E-02-1.20841E-13-6.36459E-13
 -1      1604 2.03107E+01 5.45349E-03-1.20450E-05 4.47353E-02 8.87289E-15-6.61547E-13
 -1      1605 2.03183E+01 9.56128E-03-5.86725E-04 1.00300E-01 6.01820E-14-3.51593E-13
 -1      1606 2.01512E+01 2.16592E-03-6.72561E-04 2.87870E-02-1.95420E-13-1.80108E-13
 -1      1607 2.01980E+01 4.22186E-03 9.73948E-05 3.13874E-02-1.59373E-13-5.01200E-13
 -1      1608 2.02098E+01 7.16762E-03-5.02664E-04 7.13712E-02-2.79687E-13-6.70129E-14
 -1      1609 2.00870E+01 1.60512E-03-4.35564E-04 1.93510E-02-7.11009E-15 2.45039E-13
 -1      1610 2.01189E+01 3.22701E-03 1.51998E-04 2.13469E-02-1.47884E-13 4.35288E-14
 -1      1611 2.01323E+01 5.29735E-03-4.23687E-04 4.94219E-02-2.87068E-13 9.79710E-14
 -1      1612 2.00442E+01 1.17430E-03-2.70410E-04 1.23770E-02-9.79176E-15 1.79308E-13
 -1      1613 2.00650E+01 2.43881E-03 1.72115E-04 1.38938E-02 3.09031E-14 8.09514E-14
 -1      1614 2.00784E+01 3.85914E-03-3.53273E-04 3.29913E-02 2.44054E-16 3.62371E-13
 -1      1615 2.00172E+01 8.48240E-04-1.58831E-04 7.28998E-03 1.94425E-13 1.17843E-13
 -1      1616 2.00299E+01 1.82519E-03 1.70782E-04 8.43461E-03 1.71315E-13 2.63938E-13
 -1      1617 2.00422E+01 2.76935E-03-2.93467E-04 2.08546E-02 1.10843E-13 3.19766E-13
 -1      1618 2.00018E+01 6.01657E-04-8.65758E-05 3.63198E-03-3.69050E-14-2.30479E-14
 -1      1619 2.00086E+01 1.35307E-03 1.55960E-04 4.49194E-03-7.89199E-15-5.08518E-14
 -1      1620 2.00192E+01 1.95494E-03-2.44554E-04 1.20121E-02 1.31173E-13 1.38972E-13
 -1      1621 1.99946E+01 4.12579E-04-4.19206E-05 1.06147E-03 1.44935E-13-1.22078E-13
 -1      1622 1.99972E+01 9.88476E-04 1.32884E-04 1.70312E-03 6.89847E-14 1.33243E-15
 -1      1623 2.00058E+01 1.34658E-03-2.04835E-04 5.68300E-03 5.88964E-14-2.64370E-13
 -1      1624 1.99930E+01 2.56890E-04-5.22097E-06-6.64409E-04 3.24116E-14-2.93796E-13
 -1      1625 1.99928E+01 6.98397E-04 1.06810E-04-1.91168E-04 6.43640E-14-2.30469E-13
 -1      1626 1.99992E+01 8.85977E-04-1.68798E-04 1.29396E-03 1.06259E-13-2.51404E-13
 -1      1627 1.99950E+01 8.48309E-05 7.34072E-05-1.63825E-03 2.54444E-14-3.49286E-13
 -1      1628 1.99930E+01 4.17031E-04 9.73700E-05-1.31948E-03 3.78761E-14-2.76635E-13
 -1      1629 1.99971E+01 5.03008E-04-1.09506E-04-1.49666E-03 6.60612E-14-4.27906E-13
 -1      1630 1.99982E+01-2.49398E-04 2.40251E-04-1.61853E-03-3.06300E-15-2.69355E-13
 -1      1631 1.99958E+01-2.48742E-05 1.48383E-04-1.55172E-03 2.91589E-14-2.50070E-13
 -1      1632 1.99977E+01-1.20043E-04-4.30316E-07-2.69496E-03 4.48638E-14-2.63523E-13
 -1      1633 1.99991E+01-7.74373E-04 3.82095E-04-7.27676E-04-5.83698E-14-1.29605E-13
 -1      1634 2.00000E+01-4.30459E-03-7.95960E-06-1.67030E-03-3.91074E-13-1.96947E-13
 -1      1635 1.99997E+01-2.18649E-03 1.22345E-04-1.64690E-03-9.45745E-14-2.54815E-13
 -1      1636 2.00003E+01-5.98251E-03-8.58328E-05-8.37519E-04-2.47414E-13 2.28321E-13
 -1      1637 2.00001E+01-4.57252E-03-1.70243E-05-1.08107E-03-3.65779E-13 1.26490E-13
 -1      1638 2.00003E+01-1.97260E-03-4.82664E-05-2.36908E-03-1.63912E-13 4.21167E-15
 -1      1639 2.00002E+01-5.46263E-03-8.52840E-05 3.71324E-04-2.60876E-13 9.63081E-15
 -1      1640 2.00002E+01-5.44963E-03-5.55274E-05 1.10646E-04-2.58670E-13 1.12509E-13
 -1      1641 2.00006E+01-1.58131E-03-1.33409E-04-4.78364E-04-1.42906E-13 1.27005E-13
 -1      1642 2.00000E+01-2.90738E-03-5.81062E-05 1.33461E-03-8.94340E-14 6.19416E-15
 -1      1643 2.00001E+01-4.12452E-03-4.57808E-05 1.16680E-03-2.88496E-13 1.40689E-13
 -1      1644 2.00005E+01 4.91511E-04-1.02311E-04 1.63502E-03-2.42421E-13 1.83827E-14
 -1      1645 1.99998E+01 7.04585E-04-3.39440E-05 1.75782E-03-9.44030E-13-7.93405E-13
 -1      1646 1.99999E+01-1.11152E-03-2.43184E-05 1.71738E-03-1.89013E-13-5.62606E-13
 -1      1647 2.00002E+01 3.81126E-03-4.02739E-05 3.03942E-03-4.33406E-13-4.83740E-13
 -1      1648 1.99996E+01 4.32806E-03-1.40312E-05 1.58763E-03-6.85746E-13 1.80144E-13
 -1      1649 1.99997E+01 2.54299E-03-8.49362E-06 1.66793E-03-8.12908E-13-2.54849E-14
 -1      1650 1.99998E+01 7.59613E-03 3.43943E-05 3.36430E-03-4.56930E-13-6.20189E-13
 -1      1651 1.99995E+01 6.81296E-03-1.56513E-06 9.20543E-04-6.51748E-13-2.54229E-14
 -1      1652 1.99995E+01 5.69382E-03 8.68527E-07 1.08692E-03-6.77453E-13 3.68292E-14
 -1      1653 1.99995E+01 1.09043E-02 9.45439E-05 2.61085E-03-4.45366E-13 8.08902E-14
 -1      1654 1.99994E+01 7.45949E-03 3.87557E-06-1.45306E-05-6.63732E-13-4.81643E-14
 -1      1655 1.99994E+01 7.35472E-03 2.96772E-06 1.84146E-04-6.90993E-13 1.67620E-13
 -1      1656 1.99993E+01 1.28619E-02 1.28360E-04 1.07360E-03-4.06279E-13-1.33153E-13
 -1      1657 1.99995E+01 6.11826E-03 2.31056E-06-9.32213E-04-4.74525E-13 2.33375E-16
 -1      1658 1.99995E+01 7.04418E-03-1.64795E-06-7.60992E-04-5.96301E-13 1.71677E-13
 -1      1659 1.99993E+01 1.29843E-02 1.29328E-04-7.61137E-04-3.43102E-13 1.44033E-13
 -1      1660 1.99997E+01 3.22075E-03-6.72724E-06-1.55265E-03-3.59896E-13 6.76158E-15
 -1      1661 1.99996E+01 4.86124E-03-1.27840E-05-1.46322E-03-3.66444E-13-7.66835E-15
 -1      1662 1.99995E+01 1.12547E-02 9.73373E-05-2.34556E-03-4.71731E-13 1.18915E-13
 -1      1663 1.99999E+01-2.57687E-04-2.16038E-05-1.66618E-03-4.28122E-13 9.49797E-14
 -1      1664 1.99998E+01 1.48800E-03-3.15512E-05-1.69124E-03-3.59700E-13-1.06457E-13
 -1      1665 1.99998E+01 8.15557E-03 4.13017E-05-3.19067E-03-2.89056E-13-4.51785E-14
 -1      1666 2.00001E+01-3.29323E-03-4.10904E-05-1.18749E-03-3.88718E-13 1.87808E-13
 -1      1667 2.00000E+01-2.06321E-03-5.58740E-05-1.33969E-03-4.97583E-13 4.20110E-13
 -1      1668 2.00001E+01 4.46606E-03-3.09508E-05-2.99641E-03-1.97366E-13 2.40635E-13
 -1      1669 2.00002E+01-4.78467E-03-6.55227E-05-1.88923E-04-4.54493E-13 5.96723E-14
 -1      1670 2.00002E+01-4.66651E-03-8.06817E-05-4.42827E-04-4.69176E-13 9.52906E-14
 -1      1671 2.00004E+01 1.09875E-03-9.60063E-05-1.72475E-03-1.02976E-13 1.40460E-13
 -1      1672 2.00002E+01-4.18604E-03-2.03781E-05 8.91422E-04-3.16491E-13 4.27224E-14
 -1      1673 2.00002E+01-5.36051E-03-9.54255E-05 6.34287E-04-4.39104E-13 1.59234E-13
 -1      1674 2.00005E+01-1.00546E-03-1.29492E-04 2.77278E-04-2.87231E-14 1.24473E-13
 -1      1675 1.99999E+01-1.76828E-03 6.76846E-05 1.71789E-03-1.60572E-13 3.46497E-14
 -1      1676 2.00001E+01-3.55644E-03-8.67740E-05 1.75806E-03-2.17299E-13-1.91665E-14
 -1      1677 2.00008E+01-7.43799E-04 1.09951E-04 1.95123E-03-1.21721E-14 1.35569E-13
 -1      1678 1.99997E+01 4.70499E-05 1.47599E-04 2.81369E-03 1.66590E-14-1.54041E-13
 -1      1679-5.29314E-01-1.39617E+01-1.53601E+00-9.37119E-01-1.33060E-13 3.12278E-13
 -1      1680-5.35678E-01-1.59002E+01-1.68747E+00 2.59839E-01-5.66630E-13 1.18905E-13
 -1      1681 1.22923E+00-8.40299E+00-1.24483E+00 2.24007E-01 5.89417E-13 6.16895E-13
 -1      1682 5.92569E-01-1.31728E+01-1.67709E+00-2.26376E-01-3.99680E-14 4.63900E-13
 -1      1683 6.58601E+00-1.28274E+00-6.49207E-01 4.08953E+00 7.22533E-13 5.97189E-13
 -1      1684 3.75636E+00-6.58085E+00-1.34632E+00 1.43186E+00 6.84008E-13 4.06342E-13
 -1      1685 1.70687E+01 4.24606E+00 1.32923E-01 9.18728E+00 6.85896E-13 8.77298E-13
 -1      1686 1.06176E+01 5.68542E-01-7.54154E-01 5.40748E+00 6.89671E-13 6.74349E-13
 -1      1687 3.08549E+01 6.26851E+00 9.24003E-01 1.23967E+01 6.29274E-13 9.03499E-13
 -1      1688 2.20442E+01 5.60974E+00 4.71420E-02 1.01517E+01 7.30971E-13 8.63531E-13
 -1      1689 4.54853E+01 5.03044E+00 1.53276E+00 1.08265E+01 4.30156E-13 3.10529E-13
 -1      1690 3.61426E+01 6.66083E+00 8.75192E-01 1.21413E+01 5.69489E-13 6.97220E-13
 -1      1691 5.34885E+01 3.86615E+00 1.71711E+00 3.49042E+00 3.20577E-13-4.16334E-13
 -1      1692 4.83090E+01 5.16156E+00 1.39082E+00 8.09134E+00 4.18096E-13 5.87308E-14
 -1      1693 5.46657E+01 3.99043E+00 1.81828E+00-4.24402E+00 5.67102E-13-1.39544E-12
 -1      1694 5.56535E+01 3.64142E+00 1.83989E+00 1.50682E+00 3.60711E-13-7.67303E-13
 -1      1695 4.50179E+01 5.69044E+00 1.29505E+00-1.02116E+01 1.05384E-12-2.14917E-12
 -1      1696 5.23860E+01 4.01541E+00 1.81132E+00-6.43846E+00 7.39464E-13-1.55276E-12
 -1      1697 3.07897E+01 6.44771E+00 5.38233E-01-1.15976E+01 1.42331E-12-2.37277E-12
 -1      1698 4.05006E+01 5.53623E+00 1.33445E+00-1.18317E+01 1.15657E-12-2.35523E-12
 -1      1699 1.52256E+01 3.73090E+00-4.42768E-01-7.79752E+00 1.63969E-12-1.81732E-12
 -1      1700 2.46156E+01 6.06173E+00 6.18002E-01-1.16681E+01 1.54099E-12-2.27707E-12
 -1      1701 5.70338E+00-3.37099E+00-1.19493E+00-2.71748E+00 1.48126E-12-1.11633E-12
 -1      1702 1.02029E+01 1.89557E+00-3.14034E-01-6.37500E+00 1.59694E-12-1.59528E-12
 -1      1703 1.25776E+00-1.11086E+01-1.69788E+00 1.99175E-01 9.97646E-13-6.60222E-13
 -1      1704 2.61326E+00-5.58503E+00-1.09657E+00-1.28690E+00 1.39933E-12-8.89844E-13
 -1      1705-3.92039E-01-1.64866E+01-1.93563E+00 3.47282E-01-9.11493E-14-4.39759E-13
 -1      1706-3.53166E-01-1.29642E+01-1.63802E+00 1.14394E+00 6.99552E-13-6.87637E-13
 -1      1707-7.35693E-01-1.64848E+01-1.84010E+00-6.94339E-01-9.00502E-13-3.63570E-13
 -1      1708-7.59914E-01-1.69954E+01-1.89810E+00 8.53398E-01-3.34080E-13-2.89990E-13
 -1      1709 6.56526E-02-1.15070E+01-1.49129E+00-5.85843E-01-1.63347E-12-7.67997E-13
 -1      1710-1.47450E-01-1.55984E+01-1.87369E+00-1.67286E-01-1.11144E-12-4.96797E-13
 -1      1711 3.48612E+00-3.93464E+00-9.06116E-01 2.24890E+00-1.77103E-12-1.02091E-12
 -1      1712 1.79465E+00-9.52722E+00-1.56211E+00 4.16502E-01-1.72418E-12-7.15955E-13
 -1      1713 1.22259E+01 2.48954E+00-1.59523E-01 7.42136E+00-1.54299E-12-1.23301E-12
 -1      1714 7.28291E+00-2.08497E+00-9.69468E-01 3.82988E+00-1.64913E-12-1.13887E-12
 -1      1715 2.54604E+01 5.31441E+00 5.91585E-01 1.10794E+01-1.11378E-12-1.52434E-12
 -1      1716 1.75583E+01 3.60713E+00-2.12888E-01 8.18132E+00-1.34548E-12-1.30163E-12
 -1      1717 3.91524E+01 5.81178E+00 1.24132E+00 1.18376E+01-8.59590E-13-1.53344E-12
 -1      1718 3.00303E+01 6.81301E+00 5.33402E-01 1.17350E+01-1.14048E-12-1.61759E-12
 -1      1719 4.96746E+01 4.25346E+00 1.56694E+00 6.52865E+00-5.03375E-13-8.41327E-13
 -1      1720 4.29121E+01 5.75230E+00 1.09628E+00 9.83681E+00-7.52245E-13-1.26732E-12
 -1      1721 5.49472E+01 3.47111E+00 1.85913E+00-6.59523E-01-3.63320E-13-1.26434E-13
 -1      1722 5.31900E+01 3.92221E+00 1.69449E+00 4.98370E+00-3.80362E-13-7.42628E-13
 -1      1723 4.94854E+01 4.81344E+00 1.54382E+00-8.19385E+00-4.13281E-13 4.58522E-13
 -1      1724 5.38523E+01 3.56759E+00 1.81538E+00-3.35730E+00-3.22936E-13 9.43134E-14
 -1      1725 3.77492E+01 6.69965E+00 9.98454E-01-1.22247E+01-5.74096E-13 8.98392E-13
 -1      1726 4.62274E+01 5.01856E+00 1.60325E+00-1.04445E+01-3.97168E-13 6.96221E-13
 -1      1727 2.35393E+01 6.47714E+00 2.21181E-01-1.09430E+01-9.39471E-13 1.08358E-12
 -1      1728 3.26265E+01 6.62378E+00 1.06609E+00-1.27668E+01-7.24754E-13 1.07780E-12
 -1      1729 1.16974E+01 1.96617E+00-5.77776E-01-6.34709E+00-1.06837E-12 9.32365E-13
 -1      1730 1.85185E+01 5.22837E+00 3.13578E-01-1.00784E+01-9.62119E-13 1.09512E-12
 -1      1731 4.00289E+00-5.19866E+00-1.26983E+00-1.88431E+00-1.05471E-12 6.15175E-13
 -1      1732 7.23284E+00 2.61840E-01-4.98097E-01-4.87869E+00-1.10756E-12 8.95062E-13
 -1      1733 7.71695E-01-1.26918E+01-1.67333E+00-5.15005E-02-8.00471E-13 4.32567E-13
 -1      1734 1.62811E+00-7.37709E+00-1.14021E+00-8.01038E-01-9.75775E-13 4.99961E-13
 -1      1735-5.78430E-01-1.64407E+01-1.79997E+00-5.29468E-01-6.28053E-13-2.56184E-14
 -1      1736-5.58762E-01-1.41325E+01-1.61850E+00 8.09505E-01-7.04548E-13 2.71755E-13
 -1      1737 2.40133E+01 3.11971E-01 1.59703E-01 7.15374E+00 2.70561E-13 4.03566E-13
 -1      1738 1.39533E+01-3.74761E+00-4.20042E-01 6.13193E+00 2.42362E-13 3.82971E-13
 -1      1739 1.99994E+01-1.38722E-03 2.26006E-04-1.76913E-03-1.68578E-13-4.65573E-14
 -1      1740 1.99992E+01-9.38752E-04 1.12251E-04-2.88611E-03-1.86087E-14-2.98188E-13
 -1      1741 6.30317E-01-9.80285E+00-1.10671E+00 2.21461E+00-1.19349E-13 6.24001E-13
 -1      1742 5.76080E+00-7.45692E+00-8.82802E-01 4.31283E+00 1.00253E-13 4.02265E-13
 -1      1743-1.17143E+00-1.06812E+01-1.17710E+00-1.20252E-01-3.38063E-13 1.90792E-13
 -1      1744 3.46872E+01 3.79149E+00 8.34082E-01 7.02517E+00 4.78922E-13 2.06946E-13
 -1      1745 4.25002E+01 6.25362E+00 1.25324E+00 4.19060E+00 5.48284E-13-2.57017E-13
 -1      1746 4.62882E+01 7.48623E+00 1.39302E+00 7.10082E-01 6.65024E-13-6.65357E-13
 -1      1747 4.63317E+01 7.19505E+00 1.50716E+00-2.21017E+00 8.92675E-13-1.16396E-12
 -1      1748 4.03834E+01 5.34618E+00 1.15240E+00-5.13535E+00 9.37223E-13-1.34048E-12
 -1      1749 3.03436E+01 2.53982E+00 6.01362E-01-7.25586E+00 9.89653E-13-1.62015E-12
 -1      1750 1.82961E+01-1.50014E+00-1.61523E-01-6.82915E+00 9.17599E-13-1.35980E-12
 -1      1751 8.42232E+00-5.96078E+00-7.63500E-01-4.92365E+00 8.57425E-13-9.11660E-13
 -1      1752 1.93462E+00-9.69097E+00-1.16845E+00-2.72090E+00 3.19744E-13-8.98087E-13
 -1      1753-1.11922E+00-1.17670E+01-1.36823E+00-5.92821E-01-1.29674E-13-7.25808E-13
 -1      1754-7.96133E-01-1.13981E+01-1.33138E+00 1.36206E+00-6.29163E-13-6.84064E-13
 -1      1755 2.82816E+00-8.85982E+00-1.06437E+00 3.43815E+00-8.90843E-13-6.81566E-13
 -1      1756 1.01136E+01-4.94643E+00-5.25238E-01 5.77725E+00-9.35474E-13-6.98580E-13
 -1      1757 2.04168E+01-1.42294E+00 7.35493E-02 6.98810E+00-8.23452E-13-6.68576E-13
 -1      1758 3.01042E+01 2.10247E+00 4.45153E-01 6.62859E+00-7.34413E-13-8.89622E-13
 -1      1759 3.86697E+01 5.52864E+00 1.02551E+00 5.15498E+00-7.42073E-13-7.10099E-13
 -1      1760 4.44980E+01 7.09629E+00 1.31600E+00 2.25012E+00-6.67411E-13-6.23057E-13
 -1      1761 4.69308E+01 7.32907E+00 1.55305E+00-8.60363E-01-5.99687E-13-3.35787E-13
 -1      1762 4.31963E+01 6.46727E+00 1.33367E+00-4.64953E+00-5.15588E-13 1.70752E-13
 -1      1763 3.52871E+01 4.64945E+00 9.02637E-01-7.23681E+00-5.42844E-13 5.06928E-13
 -1      1764 2.50183E+01 1.43359E+00 3.01768E-01-7.55470E+00-5.04041E-13 6.77458E-13
 -1      1765 1.47179E+01-2.53121E+00-2.81439E-01-6.60521E+00-5.81535E-13 5.64326E-13
 -1      1766 6.16737E+00-6.75934E+00-8.33641E-01-4.68171E+00-5.87752E-13 4.99670E-13
 -1      1767 7.67729E-01-9.94205E+00-1.15084E+00-2.59019E+00-4.99711E-13 4.39870E-13
 -1      1768 2.28059E+01 1.97493E+00-2.45103E-02-2.68156E+00-2.74360E-13 8.47489E-13
 -1      1769 1.98581E+01 3.72487E+00-3.56373E-02-2.07291E+00-3.22199E-13-4.99285E-13
 -1      1770 2.00920E+01 3.56711E+00-3.94059E-02-2.36707E+00-3.74697E-13-3.99108E-13
 -1      1771 2.03907E+01 3.17857E+00-4.55076E-02-2.51344E+00-3.76818E-13-2.66266E-13
 -1      1772 2.05999E+01 2.80246E+00-1.40953E-01-2.78562E+00-4.07320E-13-7.45098E-14
 -1      1773 2.04577E+01 2.69901E+00-3.95577E-03-2.14557E+00-3.97549E-13-3.09301E-13
 -1      1774 1.93659E+01 4.23112E+00-2.04121E-02-1.20019E+00-1.48646E-13-6.51807E-13
 -1      1775 1.94477E+01 4.18636E+00-1.68262E-02-1.41935E+00-1.90890E-13-6.36682E-13
 -1      1776 1.92525E+01 4.34974E+00-1.68513E-02-8.04991E-01-7.13401E-14-6.65830E-13
 -1      1777 1.93039E+01 4.32254E+00-1.36334E-02-1.00737E+00-1.12743E-13-6.67787E-13
 -1      1778 1.95280E+01 3.84496E+00-8.61130E-03-1.04720E+00-1.41772E-13-6.42160E-13
 -1      1779 1.91875E+01 4.41996E+00-1.46611E-02-4.33838E-01 4.66706E-15-6.51285E-13
 -1      1780 1.92157E+01 4.40493E+00-1.26631E-02-6.23329E-01-2.79839E-14-6.60659E-13
 -1      1781 1.94119E+01 3.98141E+00-8.42297E-03-6.79446E-01-4.93271E-14-6.42070E-13
 -1      1782 1.91618E+01 4.45064E+00-1.33255E-02-7.62365E-02 7.17243E-14-6.19000E-13
 -1      1783 1.91704E+01 4.44587E+00-1.26840E-02-2.59500E-01 4.13234E-14-6.42170E-13
 -1      1784 1.93480E+01 4.05676E+00-8.26419E-03-3.29576E-01 2.42698E-14-6.27144E-13
 -1      1785 1.91725E+01 4.44507E+00-1.26535E-02 2.78966E-01 1.40498E-13-5.89933E-13
 -1      1786 1.91625E+01 4.45013E+00-1.33923E-02 9.56211E-02 1.03242E-13-6.07507E-13
 -1      1787 1.93285E+01 4.08036E+00-8.20158E-03 1.08835E-02 8.39272E-14-5.98448E-13
 -1      1788 1.92207E+01 4.40213E+00-1.26919E-02 6.43114E-01 2.03849E-13-5.68299E-13
 -1      1789 1.91910E+01 4.41788E+00-1.47606E-02 4.53320E-01 1.74169E-13-5.88786E-13
 -1      1790 1.93512E+01 4.05461E+00-8.27082E-03 3.51304E-01 1.66021E-13-5.73867E-13
 -1      1791 1.93106E+01 4.31821E+00-1.37078E-02 1.02117E+00 2.72526E-13-5.11233E-13
 -1      1792 1.92584E+01 4.34600E+00-1.70228E-02 8.21685E-01 2.38967E-13-5.45702E-13
 -1      1793 1.94181E+01 3.97721E+00-8.36799E-03 6.97968E-01 2.39009E-13-5.40875E-13
 -1      1794 1.94601E+01 4.17642E+00-1.66759E-02 1.43799E+00 3.51685E-13-4.11489E-13
 -1      1795 1.93747E+01 4.22354E+00-2.07148E-02 1.21386E+00 3.08047E-13-4.65640E-13
 -1      1796 1.95373E+01 3.83758E+00-8.58998E-03 1.06195E+00 3.12725E-13-4.66203E-13
 -1      1797 1.97021E+01 3.94298E+00-2.44673E-02 1.89793E+00 4.15025E-13-2.70051E-13
 -1      1798 1.95637E+01 4.02515E+00-2.71702E-02 1.64240E+00 3.79787E-13-3.59678E-13
 -1      1799 1.97307E+01 3.61070E+00-8.25617E-03 1.44963E+00 3.87888E-13-3.62996E-13
 -1      1800 2.01109E+01 3.52786E+00-4.43508E-02 2.39349E+00 4.64262E-13-1.76387E-14
 -1      1801 1.98728E+01 3.69414E+00-3.97615E-02 2.10265E+00 4.27284E-13-1.61714E-13
 -1      1802 2.00401E+01 3.24673E+00-5.07329E-03 1.84613E+00 4.49978E-13-1.88108E-13
 -1      1803 2.09335E+01 2.67533E+00-5.67267E-02 2.79041E+00 4.40680E-13 4.15730E-13
 -1      1804 2.04410E+01 3.09459E+00-5.00450E-02 2.54365E+00 4.45336E-13 1.54002E-13
 -1      1805 2.05509E+01 2.61605E+00 3.21064E-03 2.16358E+00 4.73894E-13 7.81805E-14
 -1      1806 2.17134E+01 1.20797E+00-1.21117E-01 2.27890E+00 3.67845E-13 9.41844E-13
 -1      1807 2.12754E+01 2.25454E+00 6.38326E-05 2.68038E+00 4.02822E-13 5.97841E-13
 -1      1808 2.09581E+01 1.68361E+00-2.20836E-02 2.07249E+00 4.53075E-13 4.08555E-13
 -1      1809 2.09542E+01 7.76715E-01-6.13593E-02 1.47475E+00 3.88113E-13 8.15639E-13
 -1      1810 2.17832E+01 2.44641E+00 9.01708E-02-2.99223E+00-3.58266E-13 2.73254E-13
 -1      1811 2.01451E+01 3.01940E-01-8.03586E-03 6.04182E-01 3.06376E-13 6.30053E-13
 -1      1812 2.06729E+01 4.42267E-01-1.18819E-02 9.83060E-01 3.36391E-13 7.41469E-13
 -1      1813 2.07720E+01 8.45547E-01 1.83029E-03 1.35276E+00 3.93380E-13 4.99236E-13
 -1      1814 2.15108E+01 1.73817E+00 7.90238E-02-2.27554E+00-3.78343E-13 1.28286E-13
 -1      1815 2.05635E+01 5.05833E-01 3.27997E-02-8.57941E-01-3.25361E-13 8.90235E-14
 -1      1816 2.01576E+01 3.61013E-01 8.77275E-03-5.62078E-01-2.76053E-13 6.19123E-15
 -1      1817 1.99836E+01 2.69498E-01 2.76885E-02-3.14554E-01-2.46196E-13-3.26735E-15
 -1      1818 1.98246E+01 1.93847E-01 1.17567E-02-1.68457E-01-2.09045E-13-6.70835E-14
 -1      1819 2.02778E+01 4.99514E-01-6.45559E-03-6.29189E-01-3.09646E-13-1.06874E-13
 -1      1820 1.97297E+01 1.51349E-01 1.70973E-02-2.13033E-02-1.63416E-13-7.30301E-14
 -1      1821 1.96925E+01 1.15279E-01 8.65142E-03 6.15671E-02-1.33569E-13-1.27301E-13
 -1      1822 2.00002E+01 2.69673E-01-6.50253E-03-1.76423E-01-2.34601E-13-1.44791E-13
 -1      1823 1.96626E+01 9.34685E-02 9.29847E-03 1.53378E-01-1.16154E-13-1.40467E-13
 -1      1824 1.97007E+01 7.54568E-02 6.14828E-03 2.05462E-01-9.93598E-14-1.44202E-13
 -1      1825 1.98801E+01 1.60519E-01-5.56691E-03 9.62781E-02-1.53958E-13-1.86470E-13
 -1      1826 1.97192E+01 6.39268E-02 5.00202E-03 2.67269E-01-8.53248E-14-1.34598E-13
 -1      1827 1.98063E+01 5.50711E-02 4.80637E-03 3.03714E-01-5.32703E-14-1.63906E-13
 -1      1828 1.98736E+01 1.05914E-01-4.59163E-03 2.72337E-01-1.05987E-13-1.94968E-13
 -1      1829 1.98605E+01 4.89084E-02 2.74150E-03 3.49288E-01-7.85864E-14-1.59350E-13
 -1      1830 1.99821E+01 4.47865E-02 4.06944E-03 3.77741E-01-7.11723E-14-1.79344E-13
 -1      1831 1.99506E+01 7.82326E-02-3.66055E-03 3.95666E-01-8.69335E-14-1.89707E-13
 -1      1832 2.00637E+01 4.12221E-02 1.50959E-03 4.14463E-01-6.45359E-14-1.57948E-13
 -1      1833 2.02114E+01 3.90032E-02 3.50664E-03 4.38564E-01-6.85819E-14-1.75664E-13
 -1      1834 2.00902E+01 6.41360E-02-2.93010E-03 4.90106E-01-7.58381E-14-1.75148E-13
 -1      1835 2.03151E+01 3.59561E-02 7.83198E-04 4.69622E-01-1.28981E-13-1.72474E-13
 -1      1836 2.04833E+01 3.32388E-02 2.81519E-03 4.90155E-01-9.69473E-14-1.97629E-13
 -1      1837 2.02788E+01 5.53363E-02-2.41018E-03 5.67705E-01-9.77558E-14-2.10624E-13
 -1      1838 2.06053E+01 2.86983E-02 2.93981E-04 5.15293E-01-9.24469E-14-2.10151E-13
 -1      1839 2.07884E+01 2.29855E-02 1.72765E-03 5.30388E-01-9.35428E-14-2.80877E-13
 -1      1840 2.05072E+01 4.49809E-02-2.02928E-03 6.31998E-01-1.36641E-13-2.29659E-13
 -1      1841 2.09255E+01 1.47528E-02-1.08672E-04 5.45924E-01-9.11015E-14-2.79263E-13
 -1      1842 2.11157E+01 3.28211E-03-1.36607E-05 5.50889E-01-4.32555E-14-3.36653E-13
 -1      1843 2.07685E+01 2.60943E-02-1.69335E-03 6.78896E-01-1.21426E-13-2.31764E-13
 -1      1844 2.12639E+01-1.10000E-02-5.13755E-04 5.49522E-01-1.27864E-14-3.69820E-13
 -1      1845 2.14493E+01-3.10153E-02-2.60958E-03 5.36720E-01 8.22758E-15-3.35783E-13
 -1      1846 2.10551E+01-8.85086E-03-1.29933E-03 6.96535E-01-4.74677E-14-2.84711E-13
 -1      1847 2.16029E+01-5.33987E-02-9.74711E-04 5.07623E-01 2.84076E-14-3.49512E-13
 -1      1848 2.17653E+01-8.38541E-02-6.07921E-03 4.66975E-01 5.22022E-15-3.31315E-13
 -1      1849 2.13568E+01-6.71346E-02-7.22851E-04 6.65166E-01-2.69750E-16-2.76543E-13
 -1      1850 2.19152E+01-1.14899E-01-1.53379E-03 3.97020E-01 1.28300E-14-3.47192E-13
 -1      1851 2.20304E+01-1.54857E-01-1.00488E-02 3.18025E-01-2.09702E-14-2.91578E-13
 -1      1852 2.16581E+01-1.53076E-01 2.06977E-04 5.58535E-01 1.90418E-14-2.92880E-13
 -1      1853 2.21621E+01-1.91470E-01-2.26191E-03 1.95382E-01-7.92695E-14-2.60782E-13
 -1      1854 2.22015E+01-2.34124E-01-1.34976E-02 7.17486E-02-3.83404E-14-2.55581E-13
 -1      1855 2.19355E+01-2.62537E-01 1.73045E-03 3.48934E-01-2.45789E-14-2.68492E-13
 -1      1856 2.22937E+01-2.66699E-01-3.28633E-03-1.06727E-01-6.97645E-14-1.91150E-13
 -1      1857 2.22309E+01-2.96417E-01-1.46763E-02-2.69239E-01-7.04896E-14-2.09712E-13
 -1      1858 2.21539E+01-3.74783E-01 4.09173E-03 1.88062E-02-3.92564E-14-1.64005E-13
 -1      1859 2.22559E+01-3.07200E-01-4.73355E-03-4.86625E-01-1.08758E-13-2.32642E-13
 -1      1860 2.20780E+01-3.00199E-01-1.15710E-02-6.60997E-01-7.11358E-14-2.61437E-13
 -1      1861 2.22666E+01-4.45466E-01 7.18005E-03-4.18993E-01-1.33176E-13-4.69651E-14
 -1      1862 2.20091E+01-2.66983E-01-6.27026E-03-8.69168E-01 4.45382E-14-3.13972E-13
 -1      1863 2.17309E+01-2.00995E-01-3.26600E-03-1.00299E+00 1.37381E-14-2.46046E-13
 -1      1864 2.22217E+01-4.10917E-01 9.87638E-03-8.95741E-01-2.99097E-14-9.32336E-14
 -1      1865 2.15614E+01-1.10562E-01-6.70879E-03-1.12316E+00-3.04160E-14-2.25013E-13
 -1      1866 2.12355E+01 1.48580E-02 7.98764E-03-1.15025E+00 4.34088E-14-1.94710E-13
 -1      1867 2.19870E+01-2.16274E-01 9.73830E-03-1.27233E+00 1.50839E-14-1.00858E-13
 -1      1868 2.10043E+01 1.46326E-01-4.14522E-03-1.10071E+00 8.72254E-14-2.13455E-13
 -1      1869 2.07155E+01 2.91415E-01 1.66558E-02-9.75188E-01 1.42668E-13-2.05644E-13
 -1      1870 2.15921E+01 1.30540E-01 3.75290E-03-1.36591E+00 2.76074E-14-1.07600E-13
 -1      1871 2.05143E+01 4.10504E-01 3.12915E-03-7.26945E-01 8.42009E-14-1.96388E-13
 -1      1872 2.03519E+01 5.05145E-01 1.77487E-02-4.64568E-01 2.93298E-14-2.65463E-13
 -1      1873 2.11638E+01 5.17559E-01-7.20093E-03-1.04232E+00 1.26573E-13-8.21504E-14
 -1      1874 2.02829E+01 5.47629E-01 1.25799E-02-8.55440E-02-1.11699E-14-2.67806E-13
 -1      1875 2.03028E+01 5.37552E-01 1.10621E-02 2.25446E-01-1.13919E-14-2.01053E-13
 -1      1876 2.08950E+01 7.65471E-01-1.55077E-02-3.38056E-01 1.74088E-14-1.30668E-13
 -1      1877 2.04058E+01 4.77928E-01 1.83431E-02 5.90501E-01-1.55136E-14-2.23264E-13
 -1      1878 2.06022E+01 3.69383E-01 1.83606E-03 8.33299E-01 3.01131E-14-2.05607E-13
 -1      1879 2.09290E+01 7.39407E-01-1.43811E-02 5.02649E-01-2.60686E-14-9.48452E-14
 -1      1880 2.08216E+01 2.43451E-01 1.57820E-02 1.04856E+00 2.27422E-15-2.41612E-13
 -1      1881 2.11304E+01 9.78270E-02-4.48706E-03 1.14651E+00-1.28599E-14-2.31903E-13
 -1      1882 2.12497E+01 4.54616E-01-4.72875E-03 1.15216E+00 8.87658E-15-2.00262E-13
 -1      1883 2.13611E+01-2.86717E-02 6.11813E-03 1.16274E+00-2.75978E-14-3.33041E-13
 -1      1884 2.16914E+01-1.44242E-01-6.41070E-03 1.11360E+00 2.26431E-14-3.88620E-13
 -1      1885 2.16951E+01 6.38224E-02 5.47621E-03 1.39984E+00-2.31577E-14-2.74746E-13
 -1      1886 2.18502E+01-2.23723E-01-4.96921E-03 9.73881E-01 8.10680E-14-4.32372E-13
 -1      1887 2.21225E+01-2.77113E-01-5.56713E-03 8.30664E-01-2.68873E-14-3.95587E-13
 -1      1888 2.20788E+01-2.58382E-01 1.01432E-02 1.24749E+00 2.14423E-14-3.65540E-13
 -1      1889 2.21806E+01-3.00072E-01-1.24145E-02 6.19902E-01-7.63547E-14-3.15584E-13
 -1      1890 2.23500E+01-2.97486E-01-3.97335E-03 4.48310E-01 3.81691E-14-2.94059E-13
 -1      1891 2.22929E+01-4.19674E-01 9.32599E-03 8.47628E-01 3.71860E-14-2.41509E-13
 -1      1892 2.23204E+01-2.80356E-01-1.45840E-02 2.40981E-01 8.00783E-14-2.75387E-13
 -1      1893 2.23789E+01-2.45785E-01-2.50557E-03 8.90671E-02 1.78154E-13-2.06570E-13
 -1      1894 2.23234E+01-4.27534E-01 6.30950E-03 3.80606E-01 6.79383E-14-2.47306E-13
 -1      1895 2.22899E+01-2.10793E-01-1.27921E-02-7.31112E-02 1.13205E-13-1.94966E-13
 -1      1896 2.22545E+01-1.66923E-01-1.43818E-03-1.82928E-01-2.63908E-14-2.27709E-13
 -1      1897 2.22101E+01-3.42464E-01 3.35580E-03-2.71150E-02 8.67141E-14-8.95831E-14
 -1      1898 2.21330E+01-1.30306E-01-9.14427E-03-2.87799E-01-9.48842E-14-1.71094E-13
 -1      1899 2.20317E+01-9.09774E-02-6.68243E-04-3.52714E-01-6.08992E-14-1.56064E-13
 -1      1900 2.20054E+01-2.26072E-01 1.16402E-03-3.19270E-01-1.75487E-14-1.75827E-13
 -1      1901 2.18979E+01-6.09728E-02-5.24650E-03-4.05842E-01-5.56744E-14-1.71032E-13
 -1      1902 2.17594E+01-3.17506E-02-7.53391E-05-4.33497E-01-5.85160E-14-1.42288E-13
 -1      1903 2.17545E+01-1.18007E-01-2.30005E-04-4.90625E-01-5.28570E-14-1.91303E-13
 -1      1904 2.16264E+01-1.07083E-02-1.98469E-03-4.47632E-01-1.15053E-13-4.92135E-14
 -1      1905 2.14739E+01 8.01896E-03 3.80752E-04-4.48954E-01-5.36164E-14 5.95617E-15
 -1      1906 2.14900E+01-3.55474E-02-1.03618E-03-5.62242E-01-1.69820E-14 8.96169E-15
 -1      1907 2.13498E+01 2.08866E-02 3.38336E-04-4.37516E-01-8.23473E-14 1.04001E-13
 -1      1908 2.12000E+01 3.10527E-02 7.06346E-04-4.22701E-01-2.21132E-14 8.53142E-14
 -1      1909 2.12335E+01 1.87776E-02-1.46629E-03-5.63140E-01-3.44387E-14 9.96902E-14
 -1      1910 2.10891E+01 3.76681E-02 1.76464E-03-3.96825E-01-6.19873E-14-7.17548E-14
 -1      1911 2.09522E+01 4.17566E-02 9.06745E-04-3.73777E-01-1.36783E-14-1.03364E-13
 -1      1912 2.09979E+01 4.94716E-02-1.65773E-03-5.20287E-01-1.33338E-13 3.68393E-14
 -1      1913 2.08563E+01 4.41091E-02 2.48080E-03-3.41543E-01 1.35472E-13-1.87569E-13
 -1      1914 2.07375E+01 4.43278E-02 9.97065E-04-3.15694E-01 9.19280E-14-1.11136E-13
 -1      1915 2.07901E+01 6.30167E-02-1.69361E-03-4.54740E-01 1.08273E-14 1.33605E-13
 -1      1916 2.06570E+01 4.40480E-02 2.70006E-03-2.82401E-01-1.09359E-13-1.41955E-13
 -1      1917 2.05579E+01 4.20709E-02 1.00104E-03-2.57114E-01-1.37561E-13-2.39987E-13
 -1      1918 2.06125E+01 6.54027E-02-1.62691E-03-3.81167E-01-2.29052E-14-9.36211E-14
 -1      1919 2.04919E+01 4.03437E-02 2.60754E-03-2.25890E-01 1.35007E-13-2.46713E-13
 -1      1920 2.04119E+01 3.73212E-02 9.44875E-04-2.03007E-01 2.05040E-13-1.08234E-13
 -1      1921 2.04650E+01 6.12753E-02-1.49502E-03-3.08824E-01 1.67437E-14-1.05354E-13
 -1      1922 2.03592E+01 3.49399E-02 2.34321E-03-1.75453E-01 3.14223E-15-1.58657E-13
 -1      1923 2.02964E+01 3.16026E-02 8.52410E-04-1.55792E-01-1.46744E-13-1.42282E-13
 -1      1924 2.03454E+01 5.38830E-02-1.32636E-03-2.42921E-01 8.77487E-14 6.37813E-14
 -1      1925 2.02551E+01 2.90616E-02 2.00337E-03-1.32500E-01-7.28196E-14-2.95336E-14
 -1      1926 2.02073E+01 2.58369E-02 7.42639E-04-1.16240E-01-2.93637E-14 9.35966E-14
 -1      1927 2.02507E+01 4.53242E-02-1.14252E-03-1.85880E-01 5.32154E-15 8.77024E-14
 -1      1928 2.01757E+01 2.34201E-02 1.64907E-03-9.71947E-02-7.83926E-14 1.82142E-13
 -1      1929 2.01402E+01 2.05307E-02 6.29167E-04-8.41486E-02 5.74281E-14 2.04175E-13
 -1      1930 2.01774E+01 3.68525E-02-9.59113E-04-1.38345E-01-6.08123E-14 5.62391E-13
 -1      1931 2.01166E+01 1.83822E-02 1.31549E-03-6.89954E-02 1.27771E-13 2.27028E-14
 -1      1932 2.00911E+01 1.59198E-02 5.20695E-04-5.87925E-02 2.75154E-13 4.65697E-14
 -1      1933 2.01219E+01 2.91430E-02-7.86480E-04-9.99075E-02 1.59123E-14 3.71968E-13
 -1      1934 2.00739E+01 1.40949E-02 1.02016E-03-4.70217E-02 3.97563E-13-8.39268E-14
 -1      1935 2.00563E+01 1.20722E-02 4.21835E-04-3.92236E-02 2.64324E-13 1.71158E-14
 -1      1936 2.00810E+01 2.24964E-02-6.30566E-04-6.96120E-02 1.73948E-13 8.71936E-14
 -1      1937 2.00441E+01 1.05722E-02 7.69072E-04-3.02839E-02 1.36111E-13 1.83399E-13
 -1      1938 2.00325E+01 8.95479E-03 3.33496E-04-2.44547E-02 1.56818E-13 3.39056E-13
 -1      1939 2.00516E+01 1.69826E-02-4.93852E-04-4.62815E-02 2.92101E-13 8.57949E-14
 -1      1940 2.00242E+01 7.74736E-03 5.61074E-04-1.78239E-02 6.85850E-14 2.43985E-13
 -1      1941 2.00171E+01 6.47150E-03 2.53072E-04-1.35747E-02 5.90332E-14 1.74076E-13
 -1      1942 2.00312E+01 1.25304E-02-3.76874E-04-2.87226E-02 9.61050E-14 1.94203E-13
 -1      1943 2.00117E+01 5.50102E-03 3.90886E-04-8.80713E-03-9.39324E-14 6.91539E-14
 -1      1944 2.00078E+01 4.48766E-03 1.82843E-04-5.83119E-03-1.28413E-13-4.26712E-14
 -1      1945 2.00176E+01 8.98198E-03-2.76555E-04-1.58563E-02-4.78226E-14 1.86301E-13
 -1      1946 2.00045E+01 3.62720E-03 2.43954E-04-2.55849E-03-2.37202E-14-4.22004E-14
 -1      1947 2.00028E+01 2.74215E-03 1.16956E-04-6.85774E-04 1.42448E-13 1.58492E-14
 -1      1948 2.00090E+01 6.13345E-03-1.84114E-04-6.80728E-03-1.37020E-13 1.68548E-13
 -1      1949 2.00010E+01 1.93732E-03 1.62307E-04 1.17281E-03 2.06280E-13-1.71767E-13
 -1      1950 2.00006E+01 9.43195E-04 6.48404E-05 1.93532E-03 7.24920E-14-6.57222E-14
 -1      1951 2.00013E+01 6.89580E-04-1.12199E-04 1.94419E-03 5.21457E-14 9.67295E-14
 -1      1952 2.00039E+01 3.37142E-03-1.78332E-04-1.04048E-03 2.98053E-14 2.92752E-13
 -1      1953 1.97151E+01 1.50993E-01 8.74567E-03 1.94472E-01 2.40745E-13 4.56562E-13
 -1      1954 1.99579E+01 2.11166E-01 1.69833E-02 3.73241E-01 2.65463E-13 5.65339E-13
 -1      1955 2.01719E+01 3.58773E-01-2.02349E-03 5.81582E-01 3.23267E-13 3.97403E-13
 -1      1956 1.95414E+01 8.60109E-02 8.02748E-03-2.92684E-02 1.32336E-13 3.61013E-13
 -1      1957 1.96188E+01 1.13990E-01 1.49208E-02 6.90137E-02 1.68779E-13 4.24001E-13
 -1      1958 1.98342E+01 1.80627E-01-2.58643E-03 1.62302E-01 2.18613E-13 3.07117E-13
 -1      1959 1.95421E+01 5.60354E-02 5.85224E-03-1.65064E-01 5.95413E-14 2.52928E-13
 -1      1960 1.95223E+01 6.97908E-02 9.33826E-03-1.03593E-01 8.76278E-14 3.00186E-13
 -1      1961 1.97062E+01 1.03878E-01-3.61620E-03-8.10745E-02 1.44087E-13 1.95753E-13
 -1      1962 1.96618E+01 4.28680E-02 4.72687E-03-2.58912E-01 7.20112E-14 1.74028E-13
 -1      1963 1.95797E+01 4.94185E-02 5.68105E-03-2.14745E-01 4.99967E-14 2.36815E-13
 -1      1964 1.97225E+01 6.94979E-02-3.84742E-03-2.36832E-01 7.60466E-14 9.90451E-14
 -1      1965 1.98698E+01 3.92068E-02 4.38688E-03-3.35230E-01 1.18605E-13 1.38014E-13
 -1      1966 1.97422E+01 4.16281E-02 3.83801E-03-2.97975E-01 8.94861E-14 1.71643E-13
 -1      1967 1.98414E+01 5.59710E-02-3.59170E-03-3.50703E-01 1.11126E-13 7.79859E-14
 -1      1968 2.01516E+01 4.15919E-02 4.44687E-03-4.08552E-01 1.17291E-13 7.96574E-14
 -1      1969 1.99854E+01 4.14902E-02 3.02181E-03-3.71831E-01 1.17495E-13 1.35731E-13
 -1      1970 2.00393E+01 5.43637E-02-3.30642E-03-4.48328E-01 1.38568E-13 3.36025E-14
 -1      1971 2.05032E+01 4.78014E-02 4.67179E-03-4.88063E-01 1.18738E-13-4.02044E-15
 -1      1972 2.02995E+01 4.63024E-02 2.71693E-03-4.47684E-01 1.19748E-13 4.53421E-14
 -1      1973 2.03051E+01 6.01797E-02-3.18396E-03-5.45330E-01 1.63593E-13-2.73639E-14
 -1      1974 2.09267E+01 5.56017E-02 4.86018E-03-5.78854E-01 1.54839E-14 3.32763E-14
 -1      1975 2.06833E+01 5.38617E-02 2.61800E-03-5.32353E-01 5.89140E-14 8.31431E-15
 -1      1976 2.06354E+01 7.01233E-02-3.26512E-03-6.51151E-01 7.22059E-14-2.34186E-14
 -1      1977 2.14262E+01 6.17257E-02 4.73000E-03-6.81208E-01 3.46333E-14 2.16530E-14
 -1      1978 2.11403E+01 6.13843E-02 2.48966E-03-6.28296E-01 3.69605E-14 4.31515E-14
 -1      1979 2.10311E+01 8.03425E-02-3.54080E-03-7.69708E-01 3.29565E-14 1.44849E-14
 -1      1980 2.20036E+01 6.06834E-02 3.85669E-03-7.88064E-01 1.14453E-14 1.84583E-14
 -1      1981 2.16743E+01 6.43832E-02 2.08756E-03-7.31965E-01 2.92806E-14 2.84208E-14
 -1      1982 2.14947E+01 8.48226E-02-3.98750E-03-8.97764E-01 2.86036E-14-1.97374E-14
 -1      1983 2.26519E+01 4.33959E-02 1.68994E-03-8.80374E-01 9.63101E-14-7.49470E-14
 -1      1984 2.22853E+01 5.53141E-02 1.14708E-03-8.30271E-01 5.30012E-14-1.07336E-14
 -1      1985 2.20264E+01 7.35392E-02-4.54846E-03-1.02108E+00 7.77403E-14-6.15369E-14
 -1      1986 2.33471E+01-3.56944E-03-2.24915E-03-9.20623E-01 3.84643E-14-6.00223E-14
 -1      1987 2.29619E+01 2.23482E-02-5.47112E-04-8.95137E-01 6.20549E-14-6.29184E-14
 -1      1988 2.26198E+01 3.07916E-02-5.05139E-03-1.10832E+00 8.19590E-14-7.31485E-14
 -1      1989 2.40375E+01-9.57450E-02-7.83435E-03-8.47048E-01-5.18110E-14 2.65239E-14
 -1      1990 2.36722E+01-5.01540E-02-3.00138E-03-8.77488E-01-3.04613E-14-4.37185E-14
 -1      1991 2.32567E+01-6.42486E-02-5.04338E-03-1.10405E+00-9.61601E-15-2.72109E-14
 -1      1992 2.46343E+01-2.40389E-01-1.34636E-02-5.76758E-01-2.57225E-14 9.90041E-14
 -1      1993 2.43522E+01-1.75504E-01-5.79291E-03-7.05808E-01-2.60425E-14 1.16614E-13
 -1      1994 2.38990E+01-2.29707E-01-3.56648E-03-9.26097E-01-7.81371E-14 4.71376E-14
 -1      1995 2.50089E+01-4.12238E-01-1.55235E-02-3.51988E-02-4.92835E-15 1.00499E-13
 -1      1996 2.48934E+01-3.46687E-01-8.23885E-03-3.01801E-01-1.45994E-14 1.25643E-13
 -1      1997 2.44777E+01-4.57555E-01 7.62375E-04-4.80410E-01 4.14564E-14 1.93960E-13
 -1      1998 2.50079E+01-5.20153E-01-1.02408E-02 7.65363E-01-6.08784E-14 2.04628E-13
 -1      1999 2.51406E+01-5.03410E-01-9.79070E-03 3.67106E-01-3.35218E-14 1.10560E-13
 -1      2000 2.48801E+01-6.71981E-01 8.45948E-03 2.84424E-01-3.56607E-14 2.02751E-13
 -1      2001 2.45132E+01-4.07707E-01 2.71801E-04 1.60418E+00-1.37994E-13 2.63452E-13
 -1      2002 2.49238E+01-5.09024E-01-1.18817E-02 1.18703E+00-1.19363E-13 2.06508E-13
 -1      2003 2.49501E+01-6.96276E-01 1.57931E-02 1.26373E+00-1.36228E-13 2.20479E-13
 -1      2004 2.35644E+01 2.83259E-02 3.83624E-03 2.00319E+00 8.90763E-14 2.28595E-13
 -1      2005 2.41758E+01-2.06466E-01-1.36344E-02 1.80778E+00-1.80793E-14 2.60587E-13
 -1      2006 2.45627E+01-3.30705E-01 1.19669E-02 2.08138E+00-3.78269E-14 2.68915E-13
 -1      2007 2.25216E+01 6.24233E-01-1.23629E-02 1.48308E+00 1.11557E-13 9.42579E-14
 -1      2008 2.31144E+01 3.75909E-01-1.19740E-02 1.73574E+00 9.95107E-14 1.53648E-13
 -1      2009 2.38011E+01 4.17600E-01-9.60204E-03 2.12967E+00 1.21811E-13 2.15820E-13
 -1      2010 2.20188E+01 9.26196E-01-3.60318E-02 9.69175E-02 3.36942E-13-1.20265E-13
 -1      2011 2.22920E+01 8.77786E-01-2.38113E-03 7.44560E-01 2.45783E-13 2.40615E-14
 -1      2012 2.31092E+01 1.12635E+00-3.50225E-02 1.06068E+00 2.82628E-13 1.02163E-13
 -1      2013 2.24532E+01 6.64709E-01-3.96609E-02-1.34748E+00 3.39097E-13-4.74443E-13
 -1      2014 2.22322E+01 8.61002E-01 4.50620E-03-6.95736E-01 3.63660E-13-2.88224E-13
 -1      2015 2.30385E+01 1.23730E+00-3.26370E-02-6.68472E-01 4.43583E-13-1.78549E-13
 -1      2016 2.35505E+01 7.44175E-02-1.56124E-02-2.01394E+00-5.62094E-14-4.60597E-13
 -1      2017 2.29446E+01 3.59057E-01 2.77601E-03-1.72371E+00 5.53516E-14-4.93383E-13
 -1      2018 2.36465E+01 6.52582E-01-1.07327E-02-1.98469E+00 1.70055E-13-3.47330E-13
 -1      2019 2.46213E+01-3.76892E-01 1.23850E-02-1.71295E+00-1.29169E-13-2.82576E-13
 -1      2020 2.39505E+01-2.12900E-01-7.82727E-03-1.83426E+00-7.65651E-14-3.35475E-13
 -1      2021 2.44520E+01-1.61710E-01 3.82452E-03-2.21241E+00-1.32947E-13-2.22286E-13
 -1      2022 2.52019E+01-5.06929E-01 2.22738E-02-9.00434E-01-1.04604E-14-2.95855E-13
 -1      2023 2.47388E+01-4.96765E-01-1.55618E-02-1.23498E+00-5.98722E-14-2.56541E-13
 -1      2024 2.49421E+01-6.57205E-01 1.81238E-03-1.53057E+00-6.02261E-14-2.43907E-13
 -1      2025 2.52255E+01-4.09713E-01 1.69563E-02-7.94484E-02 6.28577E-14-2.24385E-13
 -1      2026 2.50691E+01-4.84362E-01-1.74726E-02-4.19022E-01 3.22329E-14-2.92040E-13
 -1      2027 2.49752E+01-7.21016E-01-6.11122E-03-5.46852E-01 3.44967E-14-2.43340E-13
 -1      2028 2.48436E+01-2.41838E-01 7.35233E-03 4.92889E-01 3.06439E-14-3.16669E-13
 -1      2029 2.49531E+01-3.29136E-01-1.44955E-02 2.53024E-01 3.54751E-14-2.92040E-13
 -1      2030 2.46535E+01-5.28632E-01-9.25825E-03 2.83697E-01 6.66654E-14-1.28071E-13
 -1      2031 2.42422E+01-9.70416E-02 3.47892E-04 7.84843E-01 4.06376E-14-2.10980E-13
 -1      2032 2.45211E+01-1.62606E-01-9.34372E-03 6.58939E-01 2.08418E-14-2.29353E-13
 -1      2033 2.41324E+01-2.83492E-01-7.55823E-03 7.97739E-01-7.19910E-15-1.33088E-13
 -1      2034 2.35651E+01-3.05722E-03-2.99253E-03 8.66611E-01-3.48240E-14-1.90549E-13
 -1      2035 2.39206E+01-4.12324E-02-4.20517E-03 8.27271E-01 5.44786E-14-2.46841E-13
 -1      2036 2.35326E+01-9.13309E-02-4.43492E-03 1.02132E+00 9.54371E-14 1.32836E-14
 -1      2037 2.29026E+01 4.61404E-02-3.77315E-03 8.23333E-01-2.60835E-13-2.45670E-13
 -1      2038 2.32687E+01 2.90110E-02-2.66587E-04 8.36402E-01-2.06730E-13-2.68003E-13
 -1      2039 2.29312E+01 2.56830E-02-1.98641E-03 1.04572E+00-1.49023E-13-1.98630E-14
 -1      2040 2.23038E+01 6.53907E-02-3.32604E-03 7.20474E-01-3.13464E-13-1.79847E-13
 -1      2041 2.26420E+01 6.12324E-02 2.21978E-03 7.59253E-01-2.94840E-13-2.85995E-13
 -1      2042 2.23729E+01 8.24792E-02-6.40215E-04 9.58896E-01-3.21778E-13-2.67157E-13
 -1      2043 2.17893E+01 6.77015E-02-2.50576E-03 5.98977E-01-1.59321E-13 4.00405E-14
 -1      2044 2.20819E+01 7.03216E-02 3.46256E-03 6.46519E-01-2.48878E-13-8.59887E-14
 -1      2045 2.18801E+01 1.01112E-01-1.26551E-04 8.23604E-01-3.30572E-13-1.56226E-13
 -1      2046 2.13628E+01 6.18096E-02-1.71149E-03 4.80888E-01 1.58523E-14 1.12221E-13
 -1      2047 2.16051E+01 6.73208E-02 3.83453E-03 5.27905E-01-1.45162E-14 1.77805E-13
 -1      2048 2.14611E+01 9.91705E-02-6.24122E-05 6.77643E-01-1.13198E-13 4.77583E-14
 -1      2049 2.10188E+01 5.27974E-02-1.07824E-03 3.76230E-01 2.11610E-13 5.38127E-14
 -1      2050 2.12133E+01 5.90541E-02 3.68770E-03 4.18373E-01 1.13548E-13 1.32167E-13
 -1      2051 2.11149E+01 8.79160E-02-1.71018E-04 5.40750E-01 1.69322E-13 9.67075E-15
 -1      2052 2.07474E+01 4.33150E-02-6.20223E-04 2.88244E-01 2.12164E-13-9.65082E-14
 -1      2053 2.08998E+01 4.92656E-02 3.28184E-03 3.23984E-01 2.50157E-13-2.58466E-14
 -1      2054 2.08357E+01 7.36639E-02-3.03943E-04 4.21439E-01 3.16761E-13 2.61334E-14
 -1      2055 2.05373E+01 3.45868E-02-3.08769E-04 2.16734E-01 7.09567E-14-2.31617E-13
 -1      2056 2.06543E+01 3.97962E-02 2.78209E-03 2.46001E-01 1.48007E-13-1.18103E-13
 -1      2057 2.06149E+01 5.95745E-02-4.00706E-04 3.21976E-01 2.40760E-13-1.11437E-13
 -1      2058 2.03776E+01 2.70727E-02-1.07112E-04 1.59979E-01 7.87400E-14-1.38222E-13
 -1      2059 2.04658E+01 3.14243E-02 2.28147E-03 1.83369E-01 7.80526E-14-1.92761E-13
 -1      2060 2.04436E+01 4.70159E-02-4.48062E-04 2.41493E-01 6.11694E-14-1.51262E-13
 -1      2061 2.02584E+01 2.08531E-02 1.70529E-05 1.15750E-01-1.96781E-13 2.33813E-14
 -1      2062 2.03236E+01 2.43808E-02 1.82582E-03 1.34102E-01 2.90783E-16-6.28562E-14
 -1      2063 2.03130E+01 3.64228E-02-4.53038E-04 1.77772E-01-5.96516E-14 1.10450E-13
 -1      2064 2.01711E+01 1.58369E-02 8.86000E-05 8.18091E-02-3.84526E-13 1.36968E-13
 -1      2065 2.02184E+01 1.86366E-02 1.43315E-03 9.59897E-02-3.60434E-13 1.44255E-14
 -1      2066 2.02153E+01 2.77842E-02-4.28445E-04 1.28189E-01-3.72934E-13 4.21922E-14
 -1      2067 2.01087E+01 1.18682E-02 1.25467E-04 5.61232E-02-2.09392E-13 1.39762E-13
 -1      2068 2.01421E+01 1.40530E-02 1.10631E-03 6.69339E-02-2.92806E-13 8.39330E-14
 -1      2069 2.01435E+01 2.09001E-02-3.86451E-04 9.01814E-02-2.57673E-13 8.13626E-14
 -1      2070 2.00652E+01 8.77757E-03 1.39982E-04 3.69465E-02 1.23506E-14 2.37473E-13
 -1      2071 2.00881E+01 1.04574E-02 8.40583E-04 4.50847E-02 2.06161E-15 1.70284E-13
 -1      2072 2.00920E+01 1.55101E-02-3.36472E-04 6.14505E-02-1.15731E-13 1.65848E-13
 -1      2073 2.00361E+01 6.40432E-03 1.40106E-04 2.28276E-02 1.64411E-13 2.29978E-13
 -1      2074 2.00511E+01 7.67834E-03 6.27776E-04 2.88793E-02 6.20712E-14 2.36687E-13
 -1      2075 2.00561E+01 1.13530E-02-2.85041E-04 4.00315E-02 1.15264E-13 2.28577E-13
 -1      2076 2.00175E+01 4.59463E-03 1.29296E-04 1.25874E-02 1.69531E-13-4.61081E-14
 -1      2077 2.00268E+01 5.55716E-03 4.58916E-04 1.70341E-02 3.29718E-13 1.85413E-13
 -1      2078 2.00319E+01 8.18961E-03-2.35470E-04 2.42964E-02 3.11002E-13 2.07163E-13
 -1      2079 2.00067E+01 3.19158E-03 1.09653E-04 5.34533E-03 1.70817E-13-1.88708E-13
 -1      2080 2.00119E+01 3.92336E-03 3.24164E-04 8.54274E-03-1.34010E-14-1.70213E-13
 -1      2081 2.00164E+01 5.76130E-03-1.94165E-04 1.29517E-02 7.55467E-14 8.96597E-14
 -1      2082 2.00013E+01 2.05523E-03 7.98280E-05 4.69027E-04 7.94069E-14-7.92357E-14
 -1      2083 2.00036E+01 2.64251E-03 2.16825E-04 2.67553E-03 2.15450E-13 7.39626E-14
 -1      2084 2.00072E+01 3.86971E-03-1.53685E-04 5.05175E-03 1.11743E-13 8.37343E-14
 -1      2085 1.99994E+01 9.29532E-04 7.58122E-05-2.29445E-03 7.75382E-14-3.14248E-13
 -1      2086 1.99998E+01 1.48997E-03 1.30993E-04-1.05800E-03 7.08154E-14-2.17460E-13
 -1      2087 2.00023E+01 2.24187E-03-1.10067E-04-8.39909E-05 1.23466E-13 1.62611E-13
 -1      2088 1.99994E+01-3.17006E-04 6.77367E-05-2.81900E-03-8.01167E-14-1.81225E-13
 -1      2089 1.99989E+01 5.19751E-04 7.11831E-05-2.65812E-03-3.59573E-14-2.88212E-13
 -1      2090 2.00005E+01 9.30137E-04-4.27210E-05-2.41300E-03-4.10346E-14-1.42273E-13
 -1      2091 2.00001E+01-7.63619E-04 3.67435E-05-2.96318E-03-1.71797E-13-2.19799E-13
 -1      2092 2.00014E+01 6.01875E-03-4.29542E-05 3.81629E-03-2.06430E-13-3.19066E-13
 -1      2093 2.00019E+01 4.77916E-03 1.06075E-04 2.79594E-03-9.91439E-14 1.11920E-14
 -1      2094 2.00021E+01 2.38423E-03-3.25408E-06 1.32038E-03-1.91608E-14 4.44191E-14
 -1      2095 2.00021E+01 1.73208E-03 8.05519E-05 3.34667E-05 2.82524E-14 7.20687E-14
 -1      2096 2.00030E+01 7.47204E-03-3.63910E-05 3.52598E-03-6.17643E-14-1.00321E-13
 -1      2097 2.00016E+01 8.31491E-05 2.97783E-05-1.30630E-03-6.42880E-14 9.50799E-14
 -1      2098 2.00010E+01 2.13130E-05 4.04703E-05-2.08634E-03-1.32451E-13-1.31982E-15
 -1      2099 2.00014E+01 9.78710E-04 1.05645E-05-2.00250E-03-3.17507E-14 5.52513E-15
 -1      2100 2.00028E+01 3.42926E-03-8.07705E-05 2.84331E-04 4.73060E-14 1.11943E-13
 -1      2101 2.00003E+01 1.02771E-02-7.97491E-05 5.16209E-03-4.45602E-13-8.12174E-13
 -1      2102 2.00010E+01 8.67022E-03 9.11646E-05 4.70373E-03-3.25606E-13-1.65799E-13
 -1      2103 2.00019E+01 1.24568E-02-8.06680E-06 6.09635E-03-2.23676E-13-3.99869E-13
 -1      2104 1.99992E+01 1.45102E-02-1.04607E-04 5.01569E-03-2.05840E-13-4.21234E-13
 -1      2105 1.99998E+01 1.28773E-02 4.81247E-05 5.22018E-03-2.52168E-13-6.88579E-13
 -1      2106 2.00002E+01 1.76777E-02 5.43078E-05 7.08495E-03-1.79642E-13-5.76463E-13
 -1      2107 1.99982E+01 1.77675E-02-1.11805E-04 3.46501E-03-3.16301E-13-1.15586E-13
 -1      2108 1.99987E+01 1.65557E-02-8.11603E-06 4.24005E-03-2.38202E-13-1.63560E-13
 -1      2109 1.99986E+01 2.22919E-02 1.02485E-04 6.17818E-03-1.08283E-13-3.44513E-13
 -1      2110 1.99978E+01 1.93828E-02-9.72218E-05 9.92304E-04-3.82271E-13-6.14556E-14
 -1      2111 1.99980E+01 1.89010E-02-6.08056E-05 2.09499E-03-4.44888E-13-9.95627E-14
 -1      2112 1.99974E+01 2.54498E-02 1.34866E-04 3.66542E-03-2.46717E-13-1.98054E-13
 -1      2113 1.99979E+01 1.90402E-02-6.17558E-05-1.71655E-03-2.98206E-13 8.45162E-14
 -1      2114 1.99978E+01 1.94068E-02-9.79843E-05-6.01108E-04-2.85171E-13 3.04618E-14
 -1      2115 1.99970E+01 2.65998E-02 1.45982E-04 2.32240E-04-3.45996E-13 1.92992E-14
 -1      2116 1.99986E+01 1.68370E-02-1.24071E-05-3.92922E-03-3.75234E-13 2.01165E-13
 -1      2117 1.99982E+01 1.79551E-02-1.12954E-04-3.11703E-03-3.84448E-13 1.87397E-13
 -1      2118 1.99973E+01 2.55437E-02 1.33664E-04-3.23280E-03-2.34276E-13 6.02985E-14
 -1      2119 1.99996E+01 1.33380E-02 4.21238E-05-5.02338E-03-2.99380E-13 9.52948E-16
 -1      2120 1.99990E+01 1.48744E-02-1.07251E-04-4.75464E-03-3.81482E-13 2.31455E-13
 -1      2121 1.99984E+01 2.25122E-02 1.04006E-04-5.82953E-03-3.81959E-13 1.62797E-13
 -1      2122 2.00008E+01 9.15874E-03 8.61692E-05-4.68657E-03 1.11760E-13 4.40797E-13
 -1      2123 2.00002E+01 1.07780E-02-8.35085E-05-5.06776E-03-2.66309E-14 2.57651E-13
 -1      2124 2.00000E+01 1.80252E-02 5.45718E-05-6.90174E-03-4.46282E-15 2.36216E-13
 -1      2125 2.00017E+01 5.18959E-03 9.99738E-05-2.93721E-03 2.25748E-13 1.47728E-13
 -1      2126 2.00013E+01 6.47040E-03-4.83476E-05-3.89105E-03 8.55679E-14 2.71721E-13
 -1      2127 2.00016E+01 1.28099E-02-4.58006E-07-6.12696E-03 2.43196E-13 3.70419E-13
 -1      2128 2.00018E+01 1.85731E-03-2.34761E-05-2.22679E-04 1.00975E-13 5.55750E-14
 -1      2129 2.00020E+01 2.78378E-03 9.89114E-06-1.52705E-03 1.86734E-13 1.25423E-13
 -1      2130 2.00028E+01 7.80820E-03-1.65172E-05-3.71238E-03 1.40686E-13 3.00648E-14
 -1      2131 1.01166E+01-5.46780E+00-1.75495E-01 6.14751E+00-1.93179E-14 7.14845E-14
 -1      2132 6.57431E+00-6.85887E+00-4.09122E-01 4.94256E+00-8.80407E-14 2.09888E-13
 -1      2133 3.35058E-01-6.65598E+00-3.44567E-01 4.51437E-01-1.03861E-13 2.16160E-13
 -1      2134 2.66197E-01-7.20788E+00-4.43304E-01-1.25923E+00-2.12275E-13 3.78586E-14
 -1      2135 3.54941E+00-6.63155E+00-3.44255E-01 4.04055E+00-1.00697E-13 6.02352E-13
 -1      2136 1.69695E+00-6.77770E+00-3.43843E-01 2.71035E+00-9.85878E-14 5.90972E-13
 -1      2137 1.88731E+01-3.63626E+00-1.70335E-02 6.70832E+00-1.35447E-14 3.40672E-13
 -1      2138 1.41155E+01-5.46673E+00-3.32187E-01 5.96129E+00 2.22045E-14 2.12858E-13
 -1      2139 2.79444E+01-7.23828E-01 1.79573E-01 5.77800E+00 2.20435E-13 1.75415E-13
 -1      2140 2.28666E+01-2.76398E+00-1.92727E-01 5.50092E+00 5.48450E-14 2.46692E-13
 -1      2141 1.95512E+01 4.04375E+00-2.52180E-02-1.62088E+00-2.32040E-13-6.07675E-13
 -1      2142 1.96807E+01 3.96440E+00-2.40436E-02-1.87541E+00-2.90634E-13-5.53713E-13
 -1      2143 1.99978E+01 3.25999E+00-1.84681E-02-1.83861E+00-3.20508E-13-4.93296E-13
 -1      2144 1.97158E+01 3.63236E+00-6.24123E-03-1.43579E+00-2.26160E-13-5.86812E-13
 -1      2145 3.80917E+01 5.29218E+00 1.40706E-01 7.31313E-01 6.30107E-13-4.06064E-13
 -1      2146 3.69120E+01 4.11079E+00 2.83455E-01 2.32099E+00 5.22110E-13-2.30482E-13
 -1      2147 4.13024E+01 7.29398E+00 4.71342E-01-5.33847E-02 7.75491E-13-7.01328E-13
 -1      2148 3.92101E+01 7.07975E+00 2.19573E-01 6.07850E-01 6.18727E-13-4.90358E-13
 -1      2149 3.91469E+01 6.28452E+00 2.43528E-01-1.14516E+00 8.29226E-13-7.29194E-13
 -1      2150 4.09800E+01 6.86899E+00 3.80693E-01-3.76193E-01 8.32223E-13-7.09224E-13
 -1      2151 3.49942E+01 2.99031E+00 1.45251E-01-2.85854E+00 7.65582E-13-8.77298E-13
 -1      2152 3.81819E+01 4.43640E+00 2.83163E-01-1.95222E+00 8.33417E-13-6.07903E-13
 -1      2153 2.71096E+01-6.60182E-01-8.35639E-02-5.12648E+00 6.10956E-13-1.15108E-12
 -1      2154 3.25247E+01 1.10507E+00 2.20998E-01-4.76502E+00 6.20060E-13-1.11644E-12
 -1      2155 1.82592E+01-4.52800E+00-2.67275E-01-5.83353E+00 4.41980E-13-8.81517E-13
 -1      2156 2.37106E+01-2.49054E+00 8.22151E-02-6.38387E+00 5.08427E-13-1.08247E-12
 -1      2157 9.09387E+00-6.52786E+00-4.32968E-01-5.41160E+00 4.27880E-13-6.82530E-13
 -1      2158 1.33233E+01-4.71395E+00-1.46079E-01-6.57697E+00 5.72098E-13-8.24091E-13
 -1      2159 2.92553E+00-7.48655E+00-4.69543E-01-3.49919E+00-2.22045E-15-9.24150E-13
 -1      2160 5.55849E+00-6.26749E+00-2.86386E-01-4.90857E+00 2.98872E-13-8.97282E-13
 -1      2161 3.93304E-03-7.82604E+00-4.85410E-01-4.09133E-01-2.51490E-13-7.49456E-13
 -1      2162 7.66425E-01-7.48668E+00-4.33806E-01-1.86698E+00-2.27596E-15-9.02278E-13
 -1      2163 1.52086E+00-6.89672E+00-3.55013E-01 2.90600E+00-4.17388E-13-6.95777E-13
 -1      2164 4.16253E-01-7.52076E+00-4.46430E-01 1.43772E+00-2.39947E-13-6.51479E-13
 -1      2165 6.63987E+00-5.79613E+00-2.22969E-01 5.61596E+00-5.00600E-13-4.88207E-13
 -1      2166 3.79487E+00-7.17678E+00-4.37190E-01 4.27090E+00-3.76310E-13-5.69211E-13
 -1      2167 1.47132E+01-4.34334E+00-7.41904E-02 7.05430E+00-4.80727E-13-4.97186E-13
 -1      2168 1.02505E+01-5.99105E+00-3.62105E-01 6.01449E+00-4.77063E-13-4.90878E-13
 -1      2169 2.38094E+01-2.51799E+00-5.43504E-02 6.08510E+00-5.12534E-13-4.01734E-13
 -1      2170 1.88957E+01-3.91711E+00-2.05232E-01 6.14446E+00-5.64382E-13-4.78284E-13
 -1      2171 3.21540E+01 1.65509E+00 2.82288E-01 4.56854E+00-5.84213E-13-5.22693E-13
 -1      2172 2.78916E+01-5.05503E-01 4.37011E-03 4.54812E+00-5.45008E-13-5.14366E-13
 -1      2173 3.62332E+01 4.56759E+00 1.56483E-01 1.94221E+00-6.70575E-13-4.13947E-13
 -1      2174 3.38303E+01 3.17036E+00 1.18231E-01 3.20109E+00-6.42222E-13-5.32352E-13
 -1      2175 3.20862E+01 1.43608E+00 1.63394E-01 1.33155E+00-4.40745E-13-2.76668E-13
 -1      2176 3.97958E+01 7.01207E+00 3.70711E-01 5.41745E-01-6.07625E-13-4.21274E-13
 -1      2177 3.69423E+01 6.51832E+00 7.81874E-02 1.13303E+00-6.76459E-13-4.72455E-13
 -1      2178 3.92290E+01 7.14931E+00 2.69392E-01-8.35434E-01-5.51725E-13-4.09395E-13
 -1      2179 3.99425E+01 7.15023E+00 2.76991E-01 2.38894E-01-6.12177E-13-4.63962E-13
 -1      2180 3.50755E+01 8.20880E+00 2.81038E-01-1.34987E-01-6.29052E-13-3.21035E-13
 -1      2181 3.72028E+01 5.15580E+00 2.71128E-01-3.05379E+00-4.57717E-13 3.89688E-14
 -1      2182 3.94299E+01 6.04892E+00 3.34660E-01-1.75299E+00-5.43898E-13-3.46889E-13
 -1      2183 3.10953E+01 2.06630E+00 5.30161E-02-4.76016E+00-3.87884E-13 1.38889E-13
 -1      2184 3.55203E+01 3.54552E+00 3.60128E-01-4.25589E+00-3.95392E-13 1.28453E-13
 -1      2185 2.36342E+01-1.89275E+00-1.32230E-01-5.61744E+00-1.65479E-13 2.54852E-13
 -1      2186 2.85157E+01 1.28762E-01 2.08520E-01-5.80960E+00-2.48079E-13 2.71894E-13
 -1      2187 1.44624E+01-4.72562E+00-3.12610E-01-6.25830E+00-3.49054E-13 3.17996E-13
 -1      2188 1.93805E+01-2.79480E+00 1.34817E-02-7.03253E+00-3.06033E-13 4.32931E-13
 -1      2189 7.31037E+00-6.42775E+00-3.52089E-01-5.53727E+00-2.28262E-13 3.32581E-13
 -1      2190 1.09139E+01-4.88446E+00-1.25186E-01-6.61631E+00-3.54605E-13 4.01949E-13
 -1      2191 1.73303E+00-7.11223E+00-4.04174E-01-2.97806E+00-3.27349E-13 2.70062E-13
 -1      2192 3.81906E+00-6.14289E+00-2.66542E-01-4.54695E+00-3.13582E-13 4.34319E-13
 -1      2193 3.53853E+01 2.49028E+00 2.82585E-01 4.05254E+00 4.43780E-13-1.51434E-13
 -1      2194 3.07908E+01 9.79687E-01 1.19964E-02 4.48273E+00 3.39478E-13 6.50591E-14
 -1      2195 2.31431E+01-4.66329E+00 1.37965E-02 5.38824E+00-1.12688E-13 1.25622E-13
 -1      2196 2.07602E+01 1.10863E+00-2.01283E-02-1.55388E+00-3.64649E-13 4.21052E-14
 -1      2197 3.02457E+01-1.39579E+00 1.50234E-01 3.04848E+00 1.92846E-13-9.52571E-14
 -1      2198 3.44324E+01 2.66353E+00 2.83695E-01 6.33890E-01 4.82170E-13-2.69951E-13
 -1      2199 2.06668E+01 1.33676E+00-1.83997E-02-1.59797E+00-3.86738E-13-1.41793E-13
 -1      2200 7.02674E+00-5.53833E+00-1.44431E-01 5.49639E+00-2.08666E-13 3.51053E-13
 -1      2201 2.02947E+00-5.38218E+00-1.73586E-01 1.81056E+00-8.11434E-14 4.14446E-13
 -1      2202 2.48655E+00-3.24897E+00 2.56936E-02 8.35557E-01-6.33937E-14 2.73892E-13
 -1      2203 3.76936E+00-3.69466E+00-6.10099E-02 3.28402E+00-1.14436E-13 5.55722E-13
 -1      2204 2.00020E+01 2.06711E-03 1.46363E-05 3.68317E-04 1.23889E-13 7.45266E-14
 -1      2205 1.45759E+01-5.81786E+00-8.12610E-02 6.60890E+00-2.82108E-13 9.08197E-14
 -1      2206 2.37389E+00-4.78788E+00-1.62161E-01-2.70023E+00-1.06970E-13 2.21101E-13
 -1      2207 7.61550E+00-5.27260E+00-1.10904E-01-6.06852E+00-1.13021E-13 3.14304E-13
 -1      2208 1.52532E+01-5.40899E+00-5.64280E-02-6.91174E+00-1.28564E-13 1.94365E-13
 -1      2209 2.36031E+01-3.89463E+00 6.47468E-02-5.54288E+00-6.71685E-15 2.04281E-14
 -1      2210 3.02038E+01-4.78199E-01 1.10302E-01-2.97648E+00-8.92064E-14-1.99118E-13
 -1      2211 3.58715E+01 7.31135E+00 3.22282E-01-1.04417E-01-5.56222E-13-4.60687E-13
 -1      2212 3.44102E+01 5.59149E+00 1.84169E-01-6.84454E-02-6.37990E-13-3.33011E-13
 -1      2213 2.67222E+01-2.29506E+00 7.48160E-02 4.49308E+00-3.89744E-13-3.26406E-13
 -1      2214 2.56156E+01-3.97450E+00 1.45149E-01 4.31088E+00-2.49994E-13-1.66811E-13
 -1      2215 2.84077E+01-2.63594E+00-2.01162E-01 2.49951E+00-3.00565E-13-1.49519E-13
 -1      2216 1.90179E+01-5.11596E+00 5.33407E-02 6.55482E+00-2.07390E-13-3.05256E-13
 -1      2217 1.07240E+01-5.54533E+00-8.72441E-02 6.85120E+00-1.30229E-13-3.89022E-13
 -1      2218 4.28723E+00-5.19012E+00-1.74974E-01 4.56573E+00-1.07886E-13-5.66658E-13
 -1      2219 1.32040E+00-5.11885E+00-2.33776E-01 6.59588E-01-1.40818E-13-8.17735E-13
 -1      2220 3.29894E+00-5.42463E+00-2.15559E-01-3.57973E+00-3.50830E-14-9.99978E-13
 -1      2221 9.61973E+00-5.81767E+00-1.35965E-01-6.18081E+00 7.11098E-14-7.97140E-13
 -1      2222 1.87059E+01-5.58048E+00-8.99996E-04-6.36580E+00 1.80800E-13-7.01703E-13
 -1      2223 2.70340E+01-3.52807E+00 3.32665E-02-4.07280E+00 1.97120E-13-8.08575E-13
 -1      2224 3.31689E+01 1.02082E+00 2.30457E-01-1.53775E+00 5.11667E-13-5.32185E-13
 -1      2225 3.59398E+01 5.47958E+00 2.88425E-01 3.26725E-01 7.39409E-13-2.14440E-13
 -1      2226 3.68295E+01 6.24083E+00 2.15115E-01-1.24122E-01 6.97775E-13-3.47666E-13
 -1      2227 3.33744E+01 5.07612E+00 1.36578E-02-1.12400E+00 6.58085E-13-1.77608E-13
 -1      2228 3.37863E+01 6.77488E+00-5.77151E-02-1.01761E+00 7.14095E-13-2.51410E-13
 -1      2229 3.66973E+01 7.87925E+00 3.18180E-01 1.22405E-01 7.82374E-13-4.28109E-13
 -1      2230 3.46527E+01 3.99187E+00 3.15001E-01-1.29615E+00-3.90243E-13-1.66644E-13
 -1      2231 2.02331E+01 5.28022E-01 4.93465E-03 5.81607E-01 3.12892E-13 2.10511E-13
 -1      2232 2.04761E+01 7.15453E-01 2.08659E-02 8.82364E-01 3.57743E-13 2.55139E-13
 -1      2233 1.95250E+01 3.61687E+00-1.13262E-02-5.36170E-01-3.12374E-14-6.11820E-13
 -1      2234 1.95710E+01 3.56473E+00-1.00018E-02-7.08864E-01-8.28784E-14-6.22791E-13
 -1      2235 1.96293E+01 3.46378E+00-1.31555E-02-8.61564E-01-1.12783E-13-6.14155E-13
 -1      2236 1.97028E+01 3.37502E+00-1.22136E-02-1.04328E+00-1.58723E-13-6.00633E-13
 -1      2237 1.97595E+01 3.14166E+00 8.72219E-04-7.10336E-01-9.52564E-14-5.80892E-13
 -1      2238 1.94610E+01 3.71490E+00-9.47186E-03 9.25930E-02 1.08403E-13-5.63022E-13
 -1      2239 1.94602E+01 3.71548E+00-9.43169E-03-7.18312E-02 6.55204E-14-5.79601E-13
 -1      2240 1.94960E+01 3.67026E+00-9.40417E-03 4.06556E-01 1.89974E-13-5.45893E-13
 -1      2241 1.94726E+01 3.69582E+00-1.01493E-02 2.40105E-01 1.45183E-13-5.63343E-13
 -1      2242 1.96159E+01 3.36164E+00-6.69232E-05 1.52255E-01 1.19554E-13-5.29672E-13
 -1      2243 1.95766E+01 3.56045E+00-1.01439E-02 7.22974E-01 2.57362E-13-5.08708E-13
 -1      2244 1.95297E+01 3.61321E+00-1.14251E-02 5.53485E-01 2.20244E-13-5.35182E-13
 -1      2245 1.96655E+01 3.28899E+00 2.74388E-04 4.36007E-01 1.93383E-13-5.04904E-13
 -1      2246 1.97121E+01 3.36653E+00-1.23671E-02 1.05555E+00 3.36110E-13-4.17267E-13
 -1      2247 1.96364E+01 3.45793E+00-1.32630E-02 8.74886E-01 2.86589E-13-4.72121E-13
 -1      2248 1.97656E+01 3.13698E+00 8.93909E-04 7.22595E-01 2.61122E-13-4.63433E-13
 -1      2249 1.99158E+01 3.05676E+00-1.75119E-02 1.39157E+00 4.09885E-13-3.07344E-13
 -1      2250 1.98042E+01 3.20724E+00-1.56746E-02 1.20530E+00 3.57815E-13-3.66294E-13
 -1      2251 1.99234E+01 2.88638E+00 2.36832E-03 1.00866E+00 3.26436E-13-3.63791E-13
 -1      2252 2.02107E+01 2.57250E+00-2.78044E-02 1.69589E+00 4.65026E-13-1.40487E-13
 -1      2253 2.00525E+01 2.82107E+00-1.75364E-02 1.52094E+00 4.28132E-13-2.41130E-13
 -1      2254 2.01452E+01 2.50708E+00 6.01177E-03 1.26628E+00 4.04081E-13-2.46352E-13
 -1      2255 2.00077E+01 3.02800E-01 6.36336E-03 1.59870E-01 2.24524E-13 1.38658E-13
 -1      2256 2.01356E+01 3.95665E-01 2.03376E-02 3.31623E-01 2.66369E-13 1.92926E-13
 -1      2257 2.02989E+01 6.69123E-01-3.06791E-03 5.80462E-01 3.27872E-13 5.83283E-14
 -1      2258 2.04673E+01 8.80268E-01 1.37726E-02-8.96493E-01-3.15117E-13-1.90542E-13
 -1      2259 2.02766E+01 6.58875E-01-3.41617E-03-5.77516E-01-2.75445E-13-1.98807E-13
 -1      2260 3.10133E+01-1.33278E+00-7.09060E-02 1.34784E+00 2.02813E-13-1.73639E-13
 -1      2261 2.84187E+01-3.09621E+00-3.39649E-02 2.34711E+00 2.57017E-14-3.80806E-14
 -1      2262 2.02257E+01 5.08808E-01 1.61456E-02-3.44160E-01-2.58747E-13-1.77694E-13
 -1      2263 2.01139E+01 3.91478E-01 1.55039E-03-1.56069E-01-2.11524E-13-2.04866E-13
 -1      2264 2.03270E+01 7.96584E-01-1.46893E-03-5.54226E-01-2.79736E-13-2.55293E-13
 -1      2265 2.00696E+01 3.13601E-01 1.08642E-02 3.50535E-03-1.72634E-13-1.79943E-13
 -1      2266 2.00279E+01 2.50380E-01 2.45337E-03 1.22914E-01-1.34589E-13-2.02873E-13
 -1      2267 2.01982E+01 4.83382E-01-4.31138E-03-1.29446E-01-2.02270E-13-2.46029E-13
 -1      2268 2.00085E+01 2.08094E-01 6.45749E-03 2.33442E-01-1.09212E-13-1.86072E-13
 -1      2269 2.00202E+01 1.73999E-01 2.71920E-03 3.14580E-01-8.80968E-14-2.02303E-13
 -1      2270 2.01235E+01 3.14734E-01-4.38065E-03 1.63442E-01-1.40105E-13-2.17544E-13
 -1      2271 2.00261E+01 1.50923E-01 3.71550E-03 3.95024E-01-6.84812E-14-2.31142E-13
 -1      2272 2.00770E+01 1.32908E-01 2.83778E-03 4.54740E-01-7.21583E-14-2.33956E-13
 -1      2273 2.01066E+01 2.22316E-01-3.80958E-03 3.71118E-01-9.97408E-14-2.60989E-13
 -1      2274 2.01053E+01 1.20179E-01 2.10010E-03 5.17464E-01-1.08609E-13-2.33241E-13
 -1      2275 2.01856E+01 1.10388E-01 2.81702E-03 5.65018E-01-8.93824E-14-2.58897E-13
 -1      2276 2.01409E+01 1.71991E-01-3.14596E-03 5.26952E-01-8.66896E-14-3.03532E-13
 -1      2277 2.02337E+01 1.02115E-01 1.19977E-03 6.17124E-01-7.71829E-14-2.64338E-13
 -1      2278 2.03369E+01 9.46439E-02 2.57799E-03 6.56743E-01-8.59844E-14-2.61782E-13
 -1      2279 2.02186E+01 1.43084E-01-2.62699E-03 6.51743E-01-9.27487E-14-3.20106E-13
 -1      2280 2.04032E+01 8.58272E-02 8.04392E-04 7.00989E-01-1.36584E-13-2.49653E-13
 -1      2281 2.05245E+01 7.51431E-02 1.99796E-03 7.32802E-01-1.32348E-13-2.43123E-13
 -1      2282 2.03343E+01 1.20252E-01-2.31919E-03 7.56290E-01-9.71045E-14-2.91649E-13
 -1      2283 2.06091E+01 6.06904E-02 8.20477E-04 7.67829E-01-1.10106E-13-2.44927E-13
 -1      2284 2.07441E+01 4.09026E-02 9.14127E-04 7.88005E-01-1.09410E-13-2.28681E-13
 -1      2285 2.04855E+01 8.93547E-02-2.23792E-03 8.42573E-01-1.34386E-13-2.41753E-13
 -1      2286 2.08487E+01 1.53054E-02 1.21181E-03 8.08137E-01-1.01464E-13-2.21913E-13
 -1      2287 2.09920E+01-1.98443E-02-8.50188E-04 8.08757E-01-4.41022E-14-2.39309E-13
 -1      2288 2.06726E+01 3.56219E-02-2.39297E-03 9.03860E-01-1.16456E-13-2.08684E-13
 -1      2289 2.11196E+01-6.20769E-02 1.94356E-03 8.03675E-01 9.57784E-16-2.25572E-13
 -1      2290 2.12641E+01-1.18173E-01-3.42550E-03 7.72906E-01 3.67798E-14-2.09031E-13
 -1      2291 2.08987E+01-5.62879E-02-2.77577E-03 9.24224E-01-2.33800E-14-1.90007E-13
 -1      2292 2.14176E+01-1.80843E-01 2.89087E-03 7.27760E-01 3.04711E-14-2.17794E-13
 -1      2293 2.15531E+01-2.60018E-01-6.77049E-03 6.51185E-01 8.14648E-15-2.30627E-13
 -1      2294 2.11684E+01-1.99519E-01-3.29834E-03 8.78282E-01 3.44321E-14-2.03992E-13
 -1      2295 2.17329E+01-3.41632E-01 3.71755E-03 5.48165E-01-2.32978E-14-1.92270E-13
 -1      2296 2.18452E+01-4.37353E-01-1.04279E-02 4.12525E-01-8.58883E-15-1.68371E-13
 -1      2297 2.14847E+01-3.97952E-01-3.66710E-03 7.32644E-01 1.20212E-14-1.86362E-13
 -1      2298 2.20435E+01-5.25249E-01 3.72901E-03 2.35724E-01-7.26784E-15-1.77853E-13
 -1      2299 2.21142E+01-6.14952E-01-1.31514E-02 3.65455E-02-5.96498E-14-1.56173E-13
 -1      2300 2.18424E+01-6.33201E-01-3.18306E-03 4.51745E-01-1.36422E-14-1.30425E-13
 -1      2301 2.23065E+01-6.78602E-01 1.83725E-03-2.17084E-01-1.02951E-13-8.36038E-14
 -1      2302 2.23154E+01-7.18257E-01-1.27661E-02-4.63230E-01-5.08343E-14-2.69553E-14
 -1      2303 2.22155E+01-8.46757E-01-7.16554E-04 1.26731E-02-3.69330E-14-1.72358E-13
 -1      2304 2.24545E+01-7.08395E-01-3.13256E-03-7.65151E-01-4.44662E-14-5.33209E-14
 -1      2305 2.23874E+01-6.39528E-01-6.86625E-03-1.00732E+00-3.99819E-14-8.44857E-14
 -1      2306 2.25429E+01-9.28350E-01 4.36194E-03-5.65147E-01-7.01561E-14-1.95552E-15
 -1      2307 2.24134E+01-5.04598E-01-1.05678E-02-1.27805E+00-4.18936E-14-6.02172E-14
 -1      2308 2.22752E+01-2.86775E-01 4.99813E-03-1.42799E+00-2.90631E-15-6.85786E-14
 -1      2309 2.27275E+01-7.37712E-01 1.03713E-02-1.17777E+00-8.46670E-14-5.36457E-14
 -1      2310 2.21542E+01-1.55482E-02-1.69529E-02-1.53919E+00 3.59190E-14-2.18250E-14
 -1      2311 2.19813E+01 3.17669E-01 1.71691E-02-1.49770E+00 8.31401E-14-9.44904E-15
 -1      2312 2.26760E+01-1.84957E-01 1.27007E-02-1.61015E+00 4.48689E-14 8.51489E-14
 -1      2313 2.17659E+01 6.44008E-01-1.66040E-02-1.33040E+00 1.23896E-13-7.25023E-14
 -1      2314 2.16247E+01 9.53991E-01 1.99973E-02-1.05401E+00 1.24448E-13-1.09363E-13
 -1      2315 2.23906E+01 6.32252E-01 4.47537E-03-1.58542E+00 8.22179E-14 1.00201E-13
 -1      2316 2.14620E+01 1.17348E+00-3.88215E-03-6.10295E-01 4.77916E-14-1.42369E-13
 -1      2317 2.14146E+01 1.28555E+00 9.95642E-03-1.73901E-01-8.53831E-15-1.42846E-13
 -1      2318 2.20500E+01 1.37268E+00-1.10049E-02-9.50470E-01 5.07090E-14-9.55131E-14
 -1      2319 2.14356E+01 1.26175E+00 1.28438E-02 3.73444E-01-3.85386E-14-1.29198E-13
 -1      2320 2.15074E+01 1.10460E+00-6.46355E-03 7.92181E-01-6.48656E-14-8.09576E-14
 -1      2321 2.19196E+01 1.64089E+00-1.59093E-02 1.15421E-01-3.08074E-14-4.08604E-14
 -1      2322 2.16950E+01 8.54323E-01 2.10690E-02 1.19498E+00-7.58187E-14-8.29395E-14
 -1      2323 2.18527E+01 5.27808E-01-1.65088E-02 1.43173E+00-3.45913E-14-1.23502E-13
 -1      2324 2.21108E+01 1.26716E+00-7.36717E-03 1.13272E+00-9.64658E-14-1.58714E-13
 -1      2325 2.20625E+01 2.02137E-01 1.58273E-02 1.54539E+00-7.33205E-14-2.31814E-13
 -1      2326 2.22387E+01-1.15878E-01-1.55033E-02 1.54867E+00-5.56484E-14-2.33356E-13
 -1      2327 2.24678E+01 4.83128E-01 7.48379E-03 1.66152E+00-1.05751E-13-2.64838E-13
 -1      2328 2.23371E+01-3.63763E-01 2.79384E-03 1.40149E+00 2.64250E-14-2.75249E-13
 -1      2329 2.24711E+01-5.52307E-01-8.52386E-03 1.23078E+00 7.75218E-14-2.06657E-13
 -1      2330 2.27252E+01-2.99350E-01 1.38706E-02 1.59085E+00-3.92289E-14-3.14004E-13
 -1      2331 2.24242E+01-6.60091E-01-8.49369E-03 9.50463E-01 5.94299E-14-2.87546E-13
 -1      2332 2.24852E+01-7.02757E-01-1.68986E-03 7.07010E-01 6.36830E-14-2.62226E-13
 -1      2333 2.27372E+01-7.83285E-01 9.33750E-03 1.11362E+00-6.59271E-15-2.30367E-13
 -1      2334 2.23369E+01-6.92998E-01-1.32980E-02 4.16264E-01 7.74385E-14-3.53596E-13
 -1      2335 2.23257E+01-6.37956E-01 2.75760E-03 1.82671E-01 1.10099E-13-2.92465E-13
 -1      2336 2.25275E+01-9.09174E-01 2.88584E-03 5.06409E-01 3.85551E-14-2.92668E-13
 -1      2337 2.21360E+01-5.65154E-01-1.27848E-02-4.97737E-02 8.26748E-14-1.77032E-13
 -1      2338 2.20691E+01-4.70039E-01 4.35438E-03-2.30053E-01 6.64577E-14-1.62375E-13
 -1      2339 2.21975E+01-7.87910E-01-1.45550E-03-3.50396E-02 1.31869E-13-3.41147E-13
 -1      2340 2.18804E+01-3.80277E-01-9.77022E-03-3.83600E-01 5.57106E-14-2.44743E-13
 -1      2341 2.17782E+01-2.84845E-01 4.16299E-03-4.99009E-01-1.02023E-15-1.34944E-13
 -1      2342 2.18385E+01-5.59733E-01-3.38725E-03-4.27157E-01 3.09955E-14-2.33888E-13
 -1      2343 2.16112E+01-2.04932E-01-6.16006E-03-5.80184E-01-6.34847E-14-1.91814E-13
 -1      2344 2.14912E+01-1.28411E-01 3.28348E-03-6.37695E-01-1.30410E-14-8.94638E-14
 -1      2345 2.15038E+01-3.24582E-01-3.66577E-03-6.61340E-01-2.22899E-14-3.21071E-14
 -1      2346 2.13516E+01-6.87602E-02-2.97920E-03-6.63639E-01 4.02983E-14-1.68664E-13
 -1      2347 2.12273E+01-1.59818E-02 2.32711E-03-6.77568E-01 8.23777E-15 3.08036E-14
 -1      2348 2.12142E+01-1.32656E-01-3.18808E-03-7.64750E-01-3.45287E-14-1.19633E-13
 -1      2349 2.11135E+01 2.28686E-02-6.05582E-04-6.66488E-01-1.15979E-14 1.06449E-14
 -1      2350 2.09939E+01 5.44728E-02 1.54633E-03-6.51701E-01 3.21000E-15 1.94354E-14
 -1      2351 2.09722E+01 1.90814E-03-2.56741E-03-7.74508E-01-5.16077E-14-1.43423E-13
 -1      2352 2.09019E+01 7.62869E-02 9.56024E-04-6.18820E-01-6.29340E-14-3.31883E-14
 -1      2353 2.07925E+01 9.18385E-02 9.93035E-04-5.87693E-01-9.70166E-14 8.16540E-14
 -1      2354 2.07728E+01 8.41429E-02-2.04255E-03-7.24835E-01-7.16862E-14-7.14162E-14
 -1      2355 2.07184E+01 1.01395E-01 1.84759E-03-5.44266E-01-1.48263E-13 1.75515E-13
 -1      2356 2.06221E+01 1.06054E-01 6.32274E-04-5.05869E-01-6.61763E-14 4.51891E-14
 -1      2357 2.06094E+01 1.26069E-01-1.65827E-03-6.42632E-01-8.69623E-14 1.10642E-13
 -1      2358 2.05626E+01 1.07632E-01 2.24595E-03-4.59505E-01-4.68409E-14 7.41796E-14
 -1      2359 2.04806E+01 1.05607E-01 4.09598E-04-4.19859E-01-5.05421E-14 1.09102E-13
 -1      2360 2.04759E+01 1.40244E-01-1.38615E-03-5.47048E-01-3.35068E-14 1.44268E-13
 -1      2361 2.04329E+01 1.02496E-01 2.31300E-03-3.75272E-01-4.54029E-14 1.53610E-13
 -1      2362 2.03650E+01 9.68504E-02 2.76812E-04-3.37990E-01 3.10474E-14 1.90418E-13
 -1      2363 2.03674E+01 1.37108E-01-1.18467E-03-4.50626E-01-9.74164E-15 2.27311E-13
 -1      2364 2.03270E+01 9.13571E-02 2.17755E-03-2.97786E-01 3.64134E-14 8.30558E-14
 -1      2365 2.02721E+01 8.41498E-02 1.98782E-04-2.64755E-01 1.06370E-14 1.11197E-14
 -1      2366 2.02799E+01 1.24368E-01-1.02239E-03-3.60843E-01-7.28516E-14 1.37611E-13
 -1      2367 2.02422E+01 7.77783E-02 1.93375E-03-2.30099E-01 7.56700E-14 4.88724E-14
 -1      2368 2.01989E+01 7.02938E-02 1.52428E-04-2.02052E-01 6.05043E-14 2.02477E-13
 -1      2369 2.02101E+01 1.07267E-01-8.81101E-04-2.81565E-01 6.68333E-14 9.86027E-14
 -1      2370 2.01757E+01 6.39549E-02 1.64574E-03-1.73186E-01-3.46110E-14 1.79242E-13
 -1      2371 2.01422E+01 5.69288E-02 1.23564E-04-1.50141E-01-3.78918E-14 2.85920E-13
 -1      2372 2.01551E+01 8.91247E-02-7.52328E-04-2.14239E-01 7.86205E-15 3.25566E-14
 -1      2373 2.01244E+01 5.11226E-02 1.35422E-03-1.26763E-01-7.99597E-14 3.52795E-13
 -1      2374 2.00992E+01 4.49217E-02 1.03797E-04-1.08336E-01-3.28099E-14 2.65967E-13
 -1      2375 2.01124E+01 7.18749E-02-6.33271E-04-1.58801E-01-4.95579E-14 2.01779E-13
 -1      2376 2.00858E+01 3.98782E-02 1.08269E-03-8.98567E-02 4.39129E-15 2.83499E-13
 -1      2377 2.00673E+01 3.46341E-02 8.81996E-05-7.54720E-02 1.43505E-13 7.52318E-14
 -1      2378 2.00797E+01 5.65119E-02-5.23785E-04-1.14323E-01-3.47446E-14 3.27851E-13
 -1      2379 2.00573E+01 3.04139E-02 8.43095E-04-6.11915E-02 3.06044E-13 6.38153E-14
 -1      2380 2.00441E+01 2.61149E-02 7.40182E-05-5.02152E-02 3.00519E-13 1.00107E-13
 -1      2381 2.00552E+01 4.34223E-02-4.24279E-04-7.94606E-02 1.04199E-13 1.76920E-13
 -1      2382 2.00369E+01 2.26763E-02 6.39900E-04-3.94278E-02 9.65063E-14-9.24797E-14
 -1      2383 2.00278E+01 1.92208E-02 5.78495E-05-3.12524E-02 4.21596E-14-7.07453E-14
 -1      2384 2.00371E+01 3.26191E-02-3.34444E-04-5.27473E-02 1.55637E-13-1.76670E-13
 -1      2385 2.00226E+01 1.64474E-02 4.72041E-04-2.33193E-02 1.19220E-13 6.37035E-14
 -1      2386 2.00166E+01 1.36887E-02 4.53002E-05-1.74316E-02-3.54007E-14 1.47797E-13
 -1      2387 2.00241E+01 2.38676E-02-2.56222E-04-3.27689E-02 1.02304E-13-3.23405E-15
 -1      2388 2.00129E+01 1.13511E-02 3.17582E-04-1.17994E-02-1.69364E-13 2.56252E-13
 -1      2389 2.00092E+01 9.19585E-03 7.24044E-05-7.83584E-03-2.30730E-14 2.78614E-13
 -1      2390 2.00148E+01 1.68345E-02-1.80877E-04-1.82992E-02-3.73514E-14 8.99758E-14
 -1      2391 1.99174E+01 1.38614E-01 4.76152E-03-2.91203E-01 8.23733E-14-3.53282E-15
 -1      2392 1.98883E+01 1.61102E-01 7.35354E-03-2.16834E-01 9.88962E-14 2.37395E-14
 -1      2393 2.00093E+01 1.16488E-01 4.70988E-03-4.31821E-01 1.15920E-13-4.53510E-14
 -1      2394 1.99325E+01 1.24582E-01 4.25341E-03-3.72581E-01 9.93088E-14-2.85560E-14
 -1      2395 2.00351E+01 1.88454E-01-4.29974E-03-3.61864E-01 1.19539E-13-8.38349E-14
 -1      2396 2.01692E+01 1.14089E-01 5.00019E-03-5.55379E-01 1.60100E-13-5.10062E-14
 -1      2397 2.00541E+01 1.12959E-01 2.50454E-03-5.00653E-01 1.42507E-13-3.52205E-14
 -1      2398 2.00970E+01 1.62809E-01-3.58644E-03-5.27482E-01 1.30227E-13-9.12253E-14
 -1      2399 2.03881E+01 1.24265E-01 5.44496E-03-6.78543E-01 1.70941E-13-6.26060E-14
 -1      2400 2.02389E+01 1.17281E-01 1.50641E-03-6.21658E-01 1.77167E-13-3.25967E-14
 -1      2401 2.02140E+01 1.62740E-01-2.98823E-03-6.76090E-01 1.58710E-13-8.55426E-14
 -1      2402 2.06620E+01 1.40999E-01 5.86437E-03-8.11381E-01 2.51678E-14-1.68986E-14
 -1      2403 2.04799E+01 1.31306E-01 9.33175E-04-7.48614E-01 1.13310E-13-3.23989E-14
 -1      2404 2.03785E+01 1.78401E-01-2.57834E-03-8.25152E-01 1.35665E-13-4.47980E-14
 -1      2405 2.09902E+01 1.56830E-01 5.99489E-03-9.57457E-01 5.24394E-14-4.50637E-14
 -1      2406 2.07749E+01 1.48640E-01 6.26860E-04-8.88317E-01 3.95253E-14-5.46181E-14
 -1      2407 2.05861E+01 2.00795E-01-2.36421E-03-9.84862E-01 6.84127E-14-5.86608E-14
 -1      2408 2.13735E+01 1.60228E-01 5.42778E-03-1.11179E+00 4.34926E-14-8.76682E-14
 -1      2409 2.11251E+01 1.60233E-01 5.32997E-04-1.04040E+00 6.25723E-14-7.79569E-14
 -1      2410 2.08364E+01 2.18158E-01-2.39521E-03-1.15787E+00 7.52815E-14-1.17046E-13
 -1      2411 2.18130E+01 1.32586E-01 3.57019E-03-1.25658E+00 1.00705E-13-1.35570E-13
 -1      2412 2.15339E+01 1.51570E-01 7.04728E-04-1.19420E+00 5.31978E-14-1.33004E-13
 -1      2413 2.11324E+01 2.12212E-01-2.83294E-03-1.33691E+00 6.15788E-14-1.43927E-13
 -1      2414 2.23091E+01 4.57344E-02-3.14367E-04-1.35473E+00 2.10977E-14-9.25642E-14
 -1      2415 2.20067E+01 9.96486E-02 1.32861E-03-1.32324E+00 6.42012E-14-9.14405E-14
 -1      2416 2.14829E+01 1.54127E-01-4.01095E-03-1.50018E+00 2.95365E-14-1.68791E-13
 -1      2417 2.28607E+01-1.36298E-01-6.87542E-03-1.34267E+00-9.46561E-14 4.45434E-14
 -1      2418 2.25500E+01-2.81912E-02 2.72548E-03-1.37760E+00-1.13451E-15 2.68537E-14
 -1      2419 2.19062E+01 2.34988E-03-6.37036E-03-1.60439E+00-7.73975E-14-1.79503E-14
 -1      2420 2.34620E+01-4.42560E-01-1.59831E-02-1.12783E+00-5.42925E-14 5.11774E-14
 -1      2421 2.31699E+01-2.67898E-01 5.15111E-03-1.27691E+00-1.18842E-13 6.59364E-14
 -1      2422 2.24331E+01-2.91402E-01-1.01158E-02-1.57668E+00-9.80407E-14 8.17968E-14
 -1      2423 2.40899E+01-8.53028E-01-2.55897E-02-6.04373E-01 2.31499E-15 1.80549E-13
 -1      2424 2.38594E+01-6.32687E-01 8.15091E-03-9.12762E-01-9.80986E-16 1.31686E-13
 -1      2425 2.31041E+01-7.53811E-01-1.41545E-02-1.31054E+00-9.98862E-14 3.51593E-14
 -1      2426 2.46746E+01-1.22325E+00-3.08988E-02 2.87155E-01-9.12170E-14 2.41329E-13
 -1      2427 2.45667E+01-1.05376E+00 8.25700E-03-1.82938E-01 5.02289E-15 2.66472E-13
 -1      2428 2.39414E+01-1.31930E+00-1.50159E-02-6.81501E-01-4.98334E-14 2.30430E-13
 -1      2429 2.50725E+01-1.21217E+00-2.11219E-02 1.43136E+00-1.81015E-13 2.94528E-13
 -1      2430 2.51422E+01-1.29273E+00-1.35797E-03 9.09136E-01-1.57225E-13 2.89395E-13
 -1      2431 2.48788E+01-1.72895E+00-1.00695E-02 3.82720E-01-1.91926E-13 3.02539E-13
 -1      2432 2.50817E+01-4.34007E-01 3.41832E-03 2.33301E+00-7.93636E-15 3.87624E-13
 -1      2433 2.53099E+01-9.48406E-01-3.57281E-02 2.03738E+00-1.75218E-13 3.78428E-13
 -1      2434 2.56050E+01-1.47499E+00-2.22929E-02 1.74020E+00-1.88868E-13 3.77632E-13
 -1      2435 2.46069E+01 1.02505E+00 5.10270E-03 2.28038E+00 1.70634E-13 3.41038E-13
 -1      2436 2.49433E+01 2.32292E-01-6.47494E-02 2.52742E+00 1.94924E-13 3.54558E-13
 -1      2437 2.59049E+01-2.06121E-01-1.08609E-02 2.65330E+00 6.66654E-14 4.31384E-13
 -1      2438 2.41089E+01 2.21053E+00-2.11497E-02 8.07517E-01 4.38635E-13 7.57892E-14
 -1      2439 2.43041E+01 1.74825E+00-6.26618E-02 1.62429E+00 2.52486E-13 1.88133E-13
 -1      2440 2.55505E+01 1.90081E+00-4.34363E-02 2.22506E+00 3.20029E-13 2.77195E-13
 -1      2441 2.41543E+01 1.97030E+00-7.81725E-02-1.22342E+00 4.84661E-13-2.22617E-14
 -1      2442 2.40850E+01 2.28916E+00-2.60381E-02-3.64791E-01 5.31658E-13 7.58733E-14
 -1      2443 2.52671E+01 3.05438E+00-6.23880E-02 2.26552E-01 4.98823E-13 2.11834E-13
 -1      2444 2.48263E+01 5.94771E-01-6.49122E-02-2.48701E+00 1.03820E-13-1.39022E-13
 -1      2445 2.44939E+01 1.38820E+00 8.21831E-03-2.10404E+00 3.13596E-13-9.67204E-14
 -1      2446 2.54305E+01 2.39420E+00-4.86028E-02-1.98736E+00 4.48933E-13 1.70551E-13
 -1      2447 2.53210E+01-7.45266E-01-3.50228E-02-2.26425E+00-1.70872E-13-2.40173E-13
 -1      2448 2.50090E+01-1.63547E-01-5.12976E-03-2.46586E+00-7.82673E-14-2.18584E-13
 -1      2449 2.58888E+01 2.82871E-01-2.22390E-02-2.72639E+00 7.44994E-14-7.70981E-14
 -1      2450 2.52733E+01-1.27108E+00-2.76355E-03-1.21034E+00-1.00790E-13-2.29705E-13
 -1      2451 2.51404E+01-1.11539E+00-2.02217E-02-1.70037E+00-1.01956E-13-2.72800E-13
 -1      2452 2.57885E+01-1.24724E+00 1.25881E-04-2.01089E+00-9.32882E-14-2.31421E-13
 -1      2453 2.47736E+01-1.12251E+00 1.01407E-02-7.70891E-02 2.61076E-15-1.85269E-13
 -1      2454 2.48309E+01-1.25865E+00-2.98964E-02-5.56562E-01-5.90968E-14-2.37936E-13
 -1      2455 2.51096E+01-1.73558E+00-8.20712E-03-7.02438E-01-5.74259E-14-1.94747E-13
 -1      2456 2.40934E+01-7.14140E-01 9.80852E-03 7.32824E-01-4.35528E-14-8.86591E-14
 -1      2457 2.42890E+01-9.33024E-01-2.62328E-02 4.01020E-01 2.27717E-14-1.55972E-13
 -1      2458 2.41922E+01-1.42922E+00-1.66562E-02 4.35803E-01-7.84824E-14-1.37237E-13
 -1      2459 2.34135E+01-3.24981E-01 6.31123E-03 1.16112E+00-5.58069E-14 2.15752E-14
 -1      2460 2.36822E+01-5.10469E-01-1.69129E-02 9.90948E-01-5.15378E-14-2.42610E-14
 -1      2461 2.33375E+01-8.61455E-01-1.62192E-02 1.14702E+00-5.75078E-14 2.35629E-14
 -1      2462 2.28030E+01-5.50340E-02 3.23980E-03 1.29717E+00 1.92461E-14 2.17601E-13
 -1      2463 2.30961E+01-1.75199E-01-7.78330E-03 1.24903E+00 2.03583E-14 6.54719E-14
 -1      2464 2.26487E+01-3.59481E-01-1.16073E-02 1.46769E+00-7.16972E-14 5.75921E-14
 -1      2465 2.22752E+01 9.69148E-02 1.53190E-03 1.25292E+00-1.34216E-13 8.33632E-14
 -1      2466 2.25613E+01 3.35583E-02-1.15657E-03 1.27936E+00 1.21431E-14 2.81563E-13
 -1      2467 2.21156E+01-2.41269E-02-7.14321E-03 1.51996E+00-6.01680E-14 2.46390E-13
 -1      2468 2.18253E+01 1.64439E-01 8.09456E-04 1.11662E+00-2.77436E-13-5.52097E-14
 -1      2469 2.20867E+01 1.39317E-01 2.87772E-03 1.18023E+00-2.35711E-13-1.24192E-14
 -1      2470 2.16978E+01 1.58593E-01-4.16490E-03 1.41745E+00-1.05194E-13 2.49131E-13
 -1      2471 2.14454E+01 1.81154E-01 5.87513E-04 9.45787E-01-3.29751E-13-1.21451E-13
 -1      2472 2.16736E+01 1.78058E-01 4.87801E-03 1.02226E+00-3.25602E-13-5.78975E-14
 -1      2473 2.13613E+01 2.35545E-01-2.57263E-03 1.24132E+00-2.62086E-13-1.75647E-14
 -1      2474 2.11286E+01 1.71332E-01 5.64565E-04 7.73409E-01-4.34362E-14-2.64876E-15
 -1      2475 2.13211E+01 1.79206E-01 5.52034E-03 8.49021E-01-2.10581E-13-1.60763E-13
 -1      2476 2.10845E+01 2.50082E-01-1.85172E-03 1.04232E+00-2.48453E-13-9.64284E-15
 -1      2477 2.08681E+01 1.49956E-01 5.88975E-04 6.16051E-01 2.80203E-13-2.14758E-14
 -1      2478 2.10260E+01 1.62207E-01 5.36921E-03 6.84138E-01 1.05944E-13 2.64522E-14
 -1      2479 2.08549E+01 2.32657E-01-1.55628E-03 8.48948E-01-4.10349E-15-7.12137E-14
 -1      2480 2.06571E+01 1.25328E-01 6.00320E-04 4.80398E-01 3.25811E-13 3.58674E-14
 -1      2481 2.07839E+01 1.38407E-01 4.81856E-03 5.38476E-01 3.71810E-13 1.23882E-13
 -1      2482 2.06650E+01 2.01819E-01-1.42110E-03 6.75218E-01 2.91737E-13 1.48283E-13
 -1      2483 2.04890E+01 1.01599E-01 5.83620E-04 3.67691E-01 1.85028E-13-9.21707E-15
 -1      2484 2.05887E+01 1.13793E-01 4.11449E-03 4.15522E-01 3.40692E-13 3.65742E-14
 -1      2485 2.05097E+01 1.67747E-01-1.31984E-03 5.26433E-01 3.43232E-13 7.97400E-14
 -1      2486 2.03573E+01 8.05646E-02 5.42495E-04 2.76456E-01 3.52245E-14-6.31246E-14
 -1      2487 2.04343E+01 9.11834E-02 3.39626E-03 3.14880E-01 6.30265E-14-9.67152E-15
 -1      2488 2.03842E+01 1.35469E-01-1.20676E-03 4.03085E-01 1.80100E-13 2.80160E-14
 -1      2489 2.02558E+01 6.27811E-02 4.85856E-04 2.04062E-01-1.47019E-13 8.00007E-14
 -1      2490 2.03142E+01 7.16591E-02 2.73414E-03 2.34343E-01-3.52097E-14 2.28551E-14
 -1      2491 2.02846E+01 1.07106E-01-1.07482E-03 3.03241E-01-2.86926E-14 4.14242E-14
 -1      2492 2.01789E+01 4.81960E-02 4.22258E-04 1.47560E-01-3.75180E-13 3.53970E-14
 -1      2493 2.02224E+01 5.54199E-02 2.15759E-03 1.71045E-01-2.75489E-13 2.09601E-14
 -1      2494 2.02068E+01 8.32516E-02-9.31399E-04 2.23943E-01-1.60274E-13 1.00118E-13
 -1      2495 2.01218E+01 3.64904E-02 3.57994E-04 1.04107E-01-2.94779E-13 9.34260E-14
 -1      2496 2.01536E+01 4.22522E-02 1.67342E-03 1.22061E-01-3.62630E-13-5.40971E-15
 -1      2497 2.01471E+01 6.37582E-02-7.86615E-04 1.61975E-01-2.49711E-13-8.12763E-14
 -1      2498 2.00803E+01 2.72528E-02 2.96859E-04 7.11560E-02-6.70357E-14 1.40930E-13
 -1      2499 2.01029E+01 3.17754E-02 1.27684E-03 8.46935E-02-2.07863E-13 1.60847E-13
 -1      2500 2.01021E+01 4.81560E-02-6.48704E-04 1.14258E-01-2.85074E-13 1.10041E-13
 -1      2501 2.00509E+01 2.00626E-02 2.39027E-04 4.65267E-02 1.63809E-13 1.58714E-13
 -1      2502 2.00665E+01 2.35664E-02 9.57615E-04 5.65893E-02 1.07333E-13 1.66156E-13
 -1      2503 2.00690E+01 3.58703E-02-5.22891E-04 7.80407E-02-4.07457E-14 2.39031E-14
 -1      2504 2.00307E+01 1.45413E-02 1.95860E-04 2.84208E-02 2.65027E-13 2.32797E-13
 -1      2505 2.00411E+01 1.72172E-02 7.04110E-04 3.57775E-02 2.56029E-13 1.91775E-13
 -1      2506 2.00451E+01 2.63182E-02-4.11604E-04 5.09685E-02 1.27691E-13 1.41207E-13
 -1      2507 2.00174E+01 1.02525E-02 1.49526E-04 1.53410E-02 7.38796E-14 1.39372E-13
 -1      2508 2.00239E+01 1.23353E-02 4.95454E-04 2.06043E-02 1.58961E-13 2.52554E-13
 -1      2509 2.00282E+01 1.89956E-02-3.22933E-04 3.11411E-02 2.32742E-13 3.76526E-13
 -1      2510 2.00090E+01 6.80943E-03 9.36205E-05 6.30313E-03 5.78758E-14 3.48471E-13
 -1      2511 2.00128E+01 8.48930E-03 3.45279E-04 9.89767E-03-4.73762E-14 2.24640E-13
 -1      2512 2.00166E+01 1.30160E-02-3.36288E-04 1.68238E-02-3.06616E-14 3.79409E-13
 -1      2513 2.00039E+01 3.84657E-03 4.35440E-05 6.16304E-04 7.24789E-14 2.26760E-13
 -1      2514 2.00060E+01 5.39073E-03 2.67348E-04 2.82623E-03 2.18655E-13 3.22317E-13
 -1      2515 2.00091E+01 8.11497E-03-2.95458E-04 6.95027E-03 1.28799E-13 4.12896E-13
 -1      2516 2.00021E+01 2.06287E-03 1.30582E-04-1.41956E-03 7.03299E-14 1.37991E-13
 -1      2517 1.99992E+01 2.50537E-02-1.62367E-04 9.69124E-03-2.39675E-14-4.57235E-13
 -1      2518 2.00007E+01 2.28234E-02 1.00118E-04 9.77984E-03-1.32600E-13-5.51766E-13
 -1      2519 1.99966E+01 3.02083E-02-1.64220E-04 7.66944E-03 4.29015E-15-1.99879E-13
 -1      2520 1.99979E+01 2.84619E-02 4.58432E-05 8.75100E-03 1.06820E-14-3.48619E-13
 -1      2521 1.99981E+01 3.41003E-02 1.32114E-04 1.16255E-02 1.56485E-13-3.53453E-13
 -1      2522 2.00043E+01 1.24106E-02-8.78951E-05 7.02879E-03-8.24312E-15-3.77407E-13
 -1      2523 2.00051E+01 1.03103E-02 1.36128E-04 5.49537E-03 1.17195E-13-1.09272E-13
 -1      2524 2.00022E+01 1.87719E-02-1.17928E-04 9.43669E-03-1.97103E-13-5.01047E-13
 -1      2525 2.00035E+01 1.64723E-02 1.37080E-04 8.46018E-03-1.48676E-13-4.15762E-13
 -1      2526 2.00048E+01 1.89171E-02-9.59410E-05 1.04838E-02 7.06149E-14-4.84919E-13
 -1      2527 2.00019E+01 2.68967E-02 8.36394E-05 1.24581E-02 3.09504E-14-5.73512E-13
 -1      2528 1.99949E+01 3.34309E-02-1.38068E-04 3.87306E-03-2.39953E-13-1.41391E-13
 -1      2529 1.99956E+01 3.24628E-02-2.32506E-05 5.66202E-03-3.29931E-14-2.53604E-13
 -1      2530 1.99950E+01 3.95575E-02 1.75593E-04 8.27680E-03 5.89676E-14-3.15721E-13
 -1      2531 1.99945E+01 3.42323E-02-8.87714E-05-7.88880E-04-1.12800E-13 1.37125E-13
 -1      2532 1.99946E+01 3.42100E-02-8.87083E-05 1.26378E-03-2.58323E-13 1.87856E-13
 -1      2533 1.99932E+01 4.24725E-02 1.98079E-04 3.13712E-03-6.08430E-14 1.54709E-14
 -1      2534 1.99955E+01 3.25029E-02-2.61823E-05-5.22990E-03-1.67450E-13-1.24030E-13
 -1      2535 1.99948E+01 3.34334E-02-1.37289E-04-3.41242E-03-1.23662E-13 7.73792E-14
 -1      2536 1.99931E+01 4.24454E-02 1.95683E-04-2.65815E-03 1.30135E-13 1.54832E-13
 -1      2537 1.99976E+01 2.86214E-02 4.07132E-05-8.38481E-03-2.01500E-13 2.72005E-13
 -1      2538 1.99964E+01 3.02904E-02-1.63641E-04-7.25189E-03-2.72375E-13 1.18043E-13
 -1      2539 1.99948E+01 3.95344E-02 1.73998E-04-7.81801E-03-8.04978E-14-1.26890E-13
 -1      2540 2.00004E+01 2.30396E-02 9.19545E-05-9.61671E-03 1.68389E-13 6.02998E-13
 -1      2541 1.99989E+01 2.52496E-02-1.62173E-04-9.42100E-03-8.25740E-14 3.87811E-13
 -1      2542 1.99978E+01 3.41455E-02 1.24755E-04-1.12778E-02-2.46261E-14 4.47685E-13
 -1      2543 2.00031E+01 1.65972E-02 1.01265E-04-8.57200E-03 1.65989E-13 2.99544E-13
 -1      2544 2.00018E+01 1.90315E-02-1.20592E-04-9.40669E-03 9.67822E-14 4.50264E-13
 -1      2545 2.00014E+01 2.70072E-02 7.21143E-05-1.22929E-02-4.13561E-14 4.69150E-13
 -1      2546 2.00048E+01 1.03350E-02 9.37730E-05-5.63160E-03-4.51447E-14-6.63223E-14
 -1      2547 2.00041E+01 1.25981E-02-6.64646E-05-7.19083E-03 8.54304E-14 3.25382E-14
 -1      2548 2.00046E+01 1.90215E-02-4.19347E-05-1.07168E-02 3.03400E-14 9.36958E-14
 -1      2549 1.79123E+01-5.57910E+00-2.77616E-02 6.57742E+00-2.86382E-13 6.29913E-14
 -1      2550 1.39228E+01-5.38241E+00 3.48753E-02 6.50300E+00-3.66318E-13-8.04912E-15
 -1      2551 1.99093E+01 1.92480E-01 5.38099E-03-1.07732E-01 1.54095E-13 5.73297E-14
 -1      2552 1.99448E+01 2.39389E-01 1.26861E-02-6.18714E-04 1.92673E-13 1.16253E-13
 -1      2553 2.00406E+01 2.55127E-01-4.81964E-03-1.52449E-01 1.78950E-13-4.06296E-14
 -1      2554 2.00032E+01 4.18643E-03 1.31792E-04-6.83339E-04 6.74112E-14 4.48634E-14
 -1      2555 3.29129E+00-2.88621E+00 9.26136E-02-1.61413E+00-3.12250E-14 3.05034E-13
 -1      2556 4.54776E+00-3.04296E+00 4.35108E-02-3.87839E+00-1.25511E-13 3.27516E-13
 -1      2557 1.02209E+01-4.48915E+00 3.04254E-02 6.37936E+00-3.19078E-13 7.43294E-14
 -1      2558 7.29777E+00-3.93198E+00 1.06661E-01 5.06737E+00-3.05839E-13 3.56104E-13
 -1      2559 2.05871E+01 1.96691E+00-1.31232E-02-1.80825E+00-3.70665E-13-2.95279E-13
 -1      2560 2.04643E+01 1.22837E+00-8.04124E-03-1.19470E+00-3.48463E-13-2.48940E-13
 -1      2561 2.04377E+01 1.41524E+00 8.05673E-03-1.12590E+00-3.21376E-13-3.11782E-13
 -1      2562 2.03358E+01 2.41624E+00 2.82365E-04-1.74177E+00-3.59350E-13-3.87719E-13
 -1      2563 7.47057E+00-3.77336E+00 1.03581E-01-5.53607E+00-8.59313E-14 2.25875E-13
 -1      2564 1.08048E+01-4.37618E+00 2.48352E-02-6.89899E+00-4.24660E-14 1.98952E-13
 -1      2565 1.94704E+01 3.69748E+00-1.01319E-02-2.19538E-01 3.65180E-14-5.90730E-13
 -1      2566 1.94923E+01 3.67339E+00-9.29423E-03-3.86147E-01-2.59441E-15-5.97678E-13
 -1      2567 1.96615E+01 3.29158E+00 1.54603E-04-4.19846E-01-2.70261E-14-5.67814E-13
 -1      2568 1.96145E+01 3.36263E+00-1.03003E-04-1.32716E-01 3.86650E-14-5.55793E-13
 -1      2569 3.31965E+01 6.97137E+00-1.05562E-01 6.38052E-01 6.69464E-13-4.83502E-14
 -1      2570 3.32097E+01 7.16893E+00-1.44340E-01-2.85510E-02 6.73350E-13-1.27277E-13
 -1      2571 3.17563E+01 2.17171E+00-5.25741E-02-3.31657E-01-2.49176E-13-3.79141E-13
 -1      2572 3.28038E+01 4.04528E+00-1.22669E-01 3.11810E-01-3.91603E-13-4.46004E-13
 -1      2573 3.23252E+01 3.55647E+00-9.35309E-02 1.50659E+00 5.75762E-13 1.13382E-13
 -1      2574 3.26887E+01 5.35699E+00-1.73905E-01 1.31005E+00 6.19005E-13 6.85424E-14
 -1      2575 3.06701E+01-1.24957E+00-3.43326E-02-7.86370E-01 2.66769E-13-3.82139E-13
 -1      2576 3.21945E+01 8.54823E-01-1.58460E-01 4.83994E-01 4.78187E-13-3.87468E-14
 -1      2577 2.57464E+01-4.74262E+00 2.11354E-03-3.59971E+00-1.85962E-14-5.77233E-13
 -1      2578 2.89407E+01-3.17382E+00-3.48448E-02-2.50413E+00 1.07442E-13-5.92054E-13
 -1      2579 2.94440E+01-2.80987E+00-5.27496E-03-4.29465E-01 6.79283E-14-1.79273E-13
 -1      2580 1.71081E+01-5.71719E+00 2.12846E-02-6.33741E+00 2.77556E-15-5.63031E-13
 -1      2581 2.14729E+01-5.58264E+00-5.38011E-02-5.63091E+00-7.77156E-16-6.09360E-13
 -1      2582 9.66364E+00-4.70356E+00 5.93244E-02-6.03100E+00-8.54317E-14-7.85566E-13
 -1      2583 1.33266E+01-5.22437E+00-3.55569E-03-6.86571E+00 9.65894E-15-6.22780E-13
 -1      2584 1.68752E+01-5.11080E+00 1.31163E-01-6.33436E+00-1.22458E-13-5.65464E-13
 -1      2585 3.61656E+00-3.60222E+00 3.49024E-02-2.64560E+00-6.24639E-14-9.43079E-13
 -1      2586 5.73721E+00-3.82089E+00 1.26343E-02-4.71842E+00-2.53408E-14-9.78773E-13
 -1      2587 3.15529E+00-2.83139E+00 5.34280E-02 1.65605E+00-3.47777E-14-6.65190E-13
 -1      2588 2.93655E+00-3.04271E+00 6.81781E-02-7.11025E-01-3.03646E-14-8.37497E-13
 -1      2589 7.33018E+00-3.61149E+00 7.28120E-02 5.66124E+00 5.12645E-14-3.85164E-13
 -1      2590 5.00790E+00-3.14604E+00 1.03771E-01 3.88693E+00 2.95736E-14-5.10647E-13
 -1      2591 1.32963E+01-4.83339E+00-9.52625E-03 7.12583E+00 1.87073E-14-2.55032E-13
 -1      2592 9.96008E+00-4.45788E+00 8.14576E-02 6.41646E+00 6.52811E-14-3.14138E-13
 -1      2593 1.02236E+01-3.14134E+00 1.54475E-01 5.88963E+00 1.69947E-13-3.01370E-13
 -1      2594 2.17081E+01-5.16902E+00-5.43331E-02 5.84820E+00-8.39329E-14-2.89740E-13
 -1      2595 1.79795E+01-5.42210E+00 5.98334E-02 6.51532E+00 4.31044E-14-2.89225E-13
 -1      2596 3.10626E+01 1.37366E+00-1.67720E-01-1.06364E-01-3.40478E-13-1.03639E-13
 -1      2597 3.00746E+01-3.74041E-01-3.84256E-02 6.42920E-01-2.53658E-13-1.15408E-13
 -1      2598 3.15635E+01 5.84945E+00-1.78100E-01-1.03937E+00-5.76428E-13-1.86476E-13
 -1      2599 3.12621E+01 3.90629E+00-1.03975E-01-9.70894E-01-4.70041E-13-9.27869E-14
 -1      2600 3.17638E+01 7.53782E+00-1.49473E-01 4.54439E-02-5.65548E-13-3.31696E-13
 -1      2601 3.14944E+01 7.26280E+00-1.64330E-01-5.21112E-01-6.17506E-13-2.98830E-13
 -1      2602 3.22669E+01 5.76644E+00-7.28435E-02 8.26819E-01-4.29046E-13-4.95826E-13
 -1      2603 3.16678E+01 6.92220E+00-1.95226E-01 7.42345E-01-4.75009E-13-4.68209E-13
 -1      2604 2.84713E+01-2.04947E+00-2.09748E-02-2.24006E+00 7.98459E-14-4.43756E-13
 -1      2605 3.08131E+01-1.45789E-02-2.05847E-02-1.41288E+00-7.12624E-14-3.71536E-13
 -1      2606 2.19519E+01-5.03915E+00-1.53798E-02-5.44115E+00 8.99836E-14-2.46636E-13
 -1      2607 2.56364E+01-4.06868E+00-6.70389E-02-4.14199E+00 2.05252E-13-4.16195E-13
 -1      2608 1.52486E+01-5.22843E+00 5.01346E-02-6.83733E+00 4.94604E-14-3.29667E-14
 -1      2609 1.89590E+01-5.27785E+00-9.47027E-04-6.73667E+00 5.04041E-14-1.22478E-13
 -1      2610 2.17602E+01-5.28188E+00 5.06354E-02-5.49770E+00 2.32092E-13-4.72899E-13
 -1      2611 3.25031E+01 2.23901E+00-1.83512E-01-1.05903E+00 4.81365E-13-1.09690E-13
 -1      2612 3.21233E+01 5.19817E-01-2.37813E-02-4.25677E-02 4.36956E-13-1.76081E-13
 -1      2613 3.07696E+01-1.01163E+00 9.43302E-03-4.57268E-01 2.80900E-13-5.47340E-14
 -1      2614 2.05397E+01 8.84513E-01-6.22905E-03 1.14932E+00 4.04392E-13 2.86711E-13
 -1      2615 2.08711E+01 1.26093E+00-5.67665E-03 1.65438E+00 4.24119E-13 3.39142E-13
 -1      2616 2.06834E+01 1.72082E+00-1.57818E-02 1.84067E+00 4.58354E-13 1.99906E-13
 -1      2617 2.05077E+01 1.07684E+00-9.69138E-03 1.14340E+00 4.17310E-13 1.13182E-13
 -1      2618 2.57781E+01-4.76387E+00-5.37646E-02 4.12684E+00-1.78024E-13 1.66533E-15
 -1      2619 2.21347E+01-5.50597E+00 2.53290E-02 5.10082E+00-3.13444E-13 9.28702E-14
 -1      2620 2.98392E+01 6.18965E+00-1.48998E-01-3.43188E-01 5.51170E-13 1.65392E-13
 -1      2621 3.21295E+01 6.54456E+00-1.07922E-01-7.23644E-01 6.33049E-13-6.30260E-14
 -1      2622 3.03286E+01 5.76957E+00-1.25496E-01-1.44572E+00 5.76456E-13 6.96387E-14
 -1      2623 1.99135E+01 2.89354E+00 1.50540E-03-9.96858E-01-1.75510E-13-5.45428E-13
 -1      2624 1.97920E+01 3.21568E+00-1.66139E-02-1.19375E+00-1.94545E-13-5.78256E-13
 -1      2625 1.99054E+01 3.06262E+00-1.83125E-02-1.38070E+00-2.54234E-13-5.42419E-13
 -1      2626 2.01277E+01 3.93360E-01-4.36938E-03 1.41272E-01 2.40551E-13 1.49923E-15
 -1      2627 2.04657E+01 2.12822E+00-1.26228E-02 1.78627E+00 4.57984E-13 2.49262E-14
 -1      2628 2.74398E+01-4.36666E+00 1.17349E-02 2.26326E+00-1.73056E-13-1.88738E-14
 -1      2629 7.78207E+00-2.43723E+00 1.62083E-01-4.70990E+00 2.75890E-14 2.05003E-13
 -1      2630 1.46368E+01-4.49447E+00 9.25605E-02-6.67243E+00 7.36911E-14-5.60246E-14
 -1      2631 7.00201E+00-2.82071E+00 1.36080E-01 4.26731E+00-2.09721E-13 3.24157E-13
 -1      2632 2.00041E+01 4.40287E-03-4.53480E-05 9.84916E-04 1.04485E-13 2.84492E-13
 -1      2633 2.00051E+01 6.05973E-03 2.44117E-06 2.64495E-03 1.87215E-13 1.91260E-13
 -1      2634 1.37643E+01-4.43880E+00 1.11752E-01 6.29283E+00-3.62960E-13 5.71349E-14
 -1      2635 2.13195E+01-5.52824E+00 8.24995E-02 5.35212E+00-3.52773E-13 8.77909E-14
 -1      2636 4.42518E+00-1.98384E+00 1.45397E-01-4.04802E-01-9.22769E-14 3.08087E-13
 -1      2637 2.72113E+01-3.52252E+00-1.50821E-02-2.63072E+00 1.59747E-13-3.48777E-13
 -1      2638 2.78544E+01-2.93352E+00-1.21776E-01-9.79347E-01 1.70908E-13-3.63015E-13
 -1      2639 2.57985E+01-4.44277E+00 4.60809E-02-3.00142E+00 2.89796E-13-3.84845E-13
 -1      2640 3.04748E+01 4.48134E+00-2.97416E-02 1.36558E+00-3.86663E-13-6.04850E-13
 -1      2641 2.04819E+01 1.83479E+00 1.23723E-02 1.46169E+00 4.37370E-13-1.55284E-14
 -1      2642 2.95240E+01 6.74836E+00-8.76819E-02 5.92924E-01-4.46004E-13-4.75467E-13
 -1      2643 2.95515E+01 5.99267E+00-1.01857E-01-1.13915E+00-5.07538E-13-2.01394E-13
 -1      2644 2.98737E+01 2.29831E+00-6.49108E-02-1.36339E+00-3.22423E-13-1.15741E-14
 -1      2645 1.68463E+01-4.81679E+00 1.26148E-01 6.55877E+00 1.33060E-13-1.94303E-13
 -1      2646 5.99380E+00-1.81809E+00 1.64289E-01 2.76770E+00 1.13187E-13-5.55278E-13
 -1      2647 2.88782E+01-1.91592E+00 2.49100E-03 1.06581E+00-2.28432E-13-9.40914E-14
 -1      2648 2.55588E+01-4.72694E+00-1.73878E-01 3.09648E+00-1.04035E-13-1.28009E-13
 -1      2649 2.41014E+01-4.85165E+00 6.46292E-02 4.58984E+00-1.54488E-13-2.03157E-13
 -1      2650 2.29260E+01-5.13839E+00 9.41204E-02 4.79818E+00 2.38698E-14-2.43670E-13
 -1      2651 9.39194E+00-3.49556E+00 1.25686E-01-5.43759E+00-8.11573E-14-8.37747E-13
 -1      2652 2.42952E+01-5.34148E+00 4.07970E-02-4.26462E+00-1.03334E-13-5.15879E-13
 -1      2653 2.60579E+01-4.99197E+00-5.71429E-02-2.52724E+00-2.26423E-13-3.23949E-13
 -1      2654 2.26684E+01-5.37439E+00 9.96873E-02-4.70187E+00-1.74305E-13-4.04163E-13
 -1      2655 3.08481E+01 1.63676E+00-3.63545E-02 1.80420E+00 4.29795E-13 2.14551E-13
 -1      2656 2.01572E+01 2.64270E+00-9.54069E-03-1.57987E+00-3.14746E-13-4.57981E-13
 -1      2657 3.03533E+01 5.70002E-01-2.97738E-02 3.34305E-01-5.13478E-14-4.36456E-13
 -1      2658 3.07124E+01 5.67401E+00-5.97365E-02 1.48204E+00 5.45120E-13 2.71616E-13
 -1      2659 3.05242E+01 4.13773E+00-2.57534E-01-2.07759E+00 6.74544E-13-1.65701E-14
 -1      2660 3.22155E+01 3.28250E+00-7.12313E-02-1.60091E+00 5.94025E-13-5.17919E-14
 -1      2661 3.07191E+01 1.75266E+00-4.74351E-02-2.00838E+00 5.13659E-13 1.08247E-14
 -1      2662 5.10736E+00-1.95247E+00 1.51850E-01-1.71359E+00-1.33227E-15-9.17322E-13
 -1      2663 2.00052E+01 5.95884E-03 9.07611E-05-2.79093E-03-1.29896E-13 1.32553E-13
 -1      2664 2.00052E+01 7.59440E-03-1.03795E-04-4.16824E-03-4.65353E-14-8.20700E-14
 -1      2665 2.00070E+01 1.26912E-02 1.06656E-04-7.98266E-03-1.36286E-13 1.96494E-14
 -1      2666 2.00074E+01 7.75722E-03 2.36595E-04-5.07339E-03-4.19165E-14 2.41951E-13
 -1      2667 2.00071E+01 1.08288E-02 1.46806E-04 6.23012E-03 2.27784E-13-3.23790E-14
 -1      2668 2.00091E+01 1.14468E-02-2.04878E-04-9.44413E-03-1.20862E-13 1.38756E-13
 -1      2669 1.97825E+01 2.91726E+00-6.11112E-03 4.48664E-01 2.02240E-13-4.71995E-13
 -1      2670 1.97467E+01 2.97327E+00-6.14865E-03 3.14707E-01 1.63454E-13-4.76502E-13
 -1      2671 1.97224E+01 3.01696E+00-5.67560E-03 2.01176E-01 1.30654E-13-4.96115E-13
 -1      2672 1.97101E+01 3.03573E+00-5.64890E-03 6.56318E-02 8.92013E-14-4.91441E-13
 -1      2673 1.98569E+01 2.69071E+00 4.46198E-03 2.21130E-01 1.28528E-13-4.73452E-13
 -1      2674 2.00468E+01 2.42341E+00-1.01135E-02 9.26649E-01 3.36810E-13-3.15615E-13
 -1      2675 1.99642E+01 2.58477E+00-7.06764E-03 7.98861E-01 3.01878E-13-3.61499E-13
 -1      2676 2.02528E+01 1.97413E+00-1.15072E-02 1.10291E+00 3.90907E-13-2.10756E-13
 -1      2677 2.01449E+01 2.22543E+00-5.55822E-03 1.00986E+00 3.60698E-13-2.69935E-13
 -1      2678 2.01974E+01 1.99439E+00 6.75646E-03 7.90319E-01 3.29938E-13-2.58334E-13
 -1      2679 2.03021E+01 7.85036E-01-2.11135E-03 4.97583E-01 3.08319E-13-3.91416E-14
 -1      2680 2.04237E+01 9.98059E-01 9.12665E-03 7.78658E-01 3.53239E-13-2.12574E-14
 -1      2681 2.76643E+01 5.79842E+00-1.39837E-01 1.20278E+00-4.26742E-13-4.53665E-13
 -1      2682 2.75503E+01 6.32580E+00-1.76437E-01 1.24449E-01-4.30767E-13-4.01958E-13
 -1      2683 7.67292E+00-1.24785E+00 1.83786E-01-3.56885E+00 6.76820E-14 2.15439E-13
 -1      2684 1.00400E+01-2.15353E+00 9.12369E-02-5.31662E+00 8.24479E-14 7.77156E-16
 -1      2685 1.38397E+01-3.37386E+00 1.32580E-01-6.22071E+00 5.61357E-14-7.75491E-14
 -1      2686 1.75783E+01-4.49178E+00 5.21996E-02-6.32179E+00 1.10842E-13-3.78864E-13
 -1      2687 2.02976E+01 7.11238E-01 7.48336E-03-2.56131E-01-2.09969E-13-2.95703E-13
 -1      2688 2.02363E+01 5.73495E-01-1.77779E-03-7.24702E-02-1.70599E-13-2.93933E-13
 -1      2689 2.02183E+01 4.72726E-01 6.11684E-03 7.68228E-02-1.37473E-13-2.73434E-13
 -1      2690 2.01870E+01 3.92092E-01-2.12433E-04 2.05786E-01-1.14475E-13-2.89633E-13
 -1      2691 2.02680E+01 6.56890E-01-1.91975E-03-2.70805E-02-1.59748E-13-3.07156E-13
 -1      2692 2.01719E+01 3.34524E-01 4.00474E-03 3.18019E-01-1.22054E-13-2.73188E-13
 -1      2693 2.01709E+01 2.88614E-01 8.90503E-04 4.12569E-01-1.02148E-13-2.90382E-13
 -1      2694 2.02210E+01 4.59500E-01-2.47820E-03 2.47977E-01-1.18008E-13-3.04885E-13
 -1      2695 2.01647E+01 2.55979E-01 2.39264E-03 5.00140E-01-7.46002E-14-2.93979E-13
 -1      2696 2.01896E+01 2.30284E-01 1.56905E-03 5.73714E-01-7.19962E-14-3.10855E-13
 -1      2697 2.01933E+01 3.44642E-01-2.39398E-03 4.58672E-01-1.00588E-13-2.91253E-13
 -1      2698 2.01946E+01 2.11110E-01 1.34524E-03 6.46075E-01-9.34694E-14-3.01523E-13
 -1      2699 2.02412E+01 1.95122E-01 1.91498E-03 7.06725E-01-9.58448E-14-2.99104E-13
 -1      2700 2.01896E+01 2.78437E-01-2.17152E-03 6.27425E-01-1.08382E-13-3.07343E-13
 -1      2701 2.02591E+01 1.80432E-01 8.22762E-04 7.69678E-01-7.66577E-14-2.84114E-13
 -1      2702 2.03246E+01 1.65031E-01 1.96247E-03 8.20901E-01-8.49896E-14-2.65858E-13
 -1      2703 2.02118E+01 2.35850E-01-2.05536E-03 7.70107E-01-8.26596E-14-3.05272E-13
 -1      2704 2.03583E+01 1.46360E-01 8.28187E-04 8.76496E-01-1.06685E-13-2.44036E-13
 -1      2705 2.04414E+01 1.22310E-01 1.68401E-03 9.17520E-01-1.13374E-13-2.08253E-13
 -1      2706 2.02626E+01 1.95160E-01-2.18281E-03 8.95294E-01-6.76403E-14-2.20627E-13
 -1      2707 2.04960E+01 9.07006E-02 1.41102E-03 9.63810E-01-1.04802E-13-1.69682E-13
 -1      2708 2.05968E+01 4.80200E-02 9.96863E-04 9.89490E-01-7.13439E-14-1.28721E-13
 -1      2709 2.03479E+01 1.34558E-01-2.67695E-03 1.00392E+00-6.97037E-14-1.61442E-13
 -1      2710 2.06805E+01-6.09100E-03 2.65035E-03 1.01997E+00-8.58841E-14-1.25680E-13
 -1      2711 2.08001E+01-7.76783E-02-2.34671E-04 1.02054E+00-3.68381E-14-1.55679E-13
 -1      2712 2.04790E+01 3.07161E-02-3.66072E-03 1.08856E+00-8.23686E-14-1.07906E-13
 -1      2713 2.09247E+01-1.63193E-01 4.58987E-03 1.02332E+00 2.13012E-14-1.90035E-13
 -1      2714 2.10641E+01-2.71914E-01-2.20013E-03 9.84419E-01 4.44126E-14-1.76374E-13
 -1      2715 2.06736E+01-1.40130E-01-5.21539E-03 1.13208E+00-3.23789E-14-1.26065E-13
 -1      2716 2.12436E+01-3.93474E-01 7.06869E-03 9.41405E-01 4.94376E-14-2.07744E-13
 -1      2717 2.14017E+01-5.40003E-01-5.08019E-03 8.45347E-01 4.06717E-14-1.80440E-13
 -1      2718 2.09556E+01-3.96703E-01-7.26613E-03 1.10583E+00 3.75059E-14-1.25191E-13
 -1      2719 2.16475E+01-6.90778E-01 9.52589E-03 7.32448E-01 2.06733E-15-1.82669E-13
 -1      2720 2.18168E+01-8.58257E-01-8.73456E-03 5.62139E-01-1.32369E-14-1.36170E-13
 -1      2721 2.13505E+01-7.40016E-01-9.32730E-03 9.68258E-01 2.70546E-14-2.26707E-13
 -1      2722 2.21270E+01-1.00859E+00 1.06242E-02 3.53237E-01-4.83495E-15-1.36262E-13
 -1      2723 2.22879E+01-1.14833E+00-1.19188E-02 1.01495E-01-6.23937E-15-8.37072E-14
 -1      2724 2.18726E+01-1.12990E+00-9.94933E-03 6.67295E-01 2.26468E-14-1.38230E-13
 -1      2725 2.26277E+01-1.23285E+00 7.85039E-03-2.16573E-01-8.27046E-14-3.42231E-14
 -1      2726 2.27463E+01-1.25506E+00-1.18804E-02-5.28397E-01-9.72252E-14-4.03533E-14
 -1      2727 2.24984E+01-1.45046E+00-6.46502E-03 1.55162E-01-2.19041E-14-5.79381E-14
 -1      2728 2.30305E+01-1.17465E+00-2.42845E-03-9.21774E-01-3.09509E-14 3.40396E-15
 -1      2729 2.30684E+01-9.68912E-01-5.40600E-03-1.21994E+00 3.36534E-15 5.71949E-14
 -1      2730 2.31280E+01-1.48876E+00 2.42349E-03-5.65080E-01-2.96913E-14 5.70047E-14
 -1      2731 2.31815E+01-6.34606E-01-1.91160E-02-1.56606E+00 5.94208E-14 5.37691E-14
 -1      2732 2.31226E+01-1.47519E-01 8.66062E-03-1.71752E+00 8.17571E-14 1.25492E-13
 -1      2733 2.35751E+01-9.94947E-01 1.09568E-02-1.35188E+00 7.12015E-14 1.51687E-13
 -1      2734 2.29949E+01 4.22787E-01-3.47275E-02-1.80098E+00 3.50317E-14 1.76909E-13
 -1      2735 2.28808E+01 1.05861E+00 1.87172E-02-1.65714E+00 4.71220E-14 5.10242E-14
 -1      2736 2.36483E+01 1.52384E-01 1.24916E-02-1.86671E+00 7.53455E-14 1.08745E-13
 -1      2737 2.26233E+01 1.62400E+00-3.74612E-02-1.30766E+00 3.46034E-14 2.20405E-14
 -1      2738 2.25365E+01 2.06967E+00 6.58096E-03-8.47182E-01-3.32182E-14-4.93008E-15
 -1      2739 2.33493E+01 1.59627E+00-4.98337E-03-1.66313E+00-9.49761E-15 9.10591E-14
 -1      2740 2.24372E+01 2.28335E+00-9.53509E-03-1.59809E-01-1.14977E-13-6.47252E-14
 -1      2741 2.24413E+01 2.23058E+00-1.79006E-02 4.21314E-01-1.00173E-13-8.31746E-14
 -1      2742 2.30490E+01 2.63056E+00-2.59481E-02-5.69296E-01-1.13866E-13 3.47899E-15
 -1      2743 2.25981E+01 1.93769E+00 1.25549E-02 1.07119E+00-1.32458E-13-1.81580E-13
 -1      2744 2.26997E+01 1.43127E+00-3.60206E-02 1.48348E+00-1.59670E-13-1.86000E-13
 -1      2745 2.30837E+01 2.52801E+00-2.25700E-02 8.47877E-01-1.76409E-13-1.95858E-13
 -1      2746 2.29484E+01 8.38269E-01 1.80824E-02 1.75185E+00-1.83353E-13-2.28594E-13
 -1      2747 2.30625E+01 2.13250E-01-3.15605E-02 1.83591E+00-1.52235E-13-3.05296E-13
 -1      2748 2.34324E+01 1.37034E+00-4.79902E-04 1.78778E+00-2.12722E-13-2.56425E-13
 -1      2749 2.31498E+01-3.22993E-01 7.01884E-03 1.69188E+00-3.26346E-14-3.10484E-13
 -1      2750 2.31970E+01-7.59089E-01-1.41418E-02 1.50419E+00 7.98363E-15-2.28040E-13
 -1      2751 2.36762E+01-8.29115E-02 1.51695E-02 1.84712E+00-9.43208E-14-2.72211E-13
 -1      2752 2.30428E+01-1.04142E+00-7.69767E-03 1.14076E+00 6.52549E-15-2.34284E-13
 -1      2753 2.29931E+01-1.19522E+00-2.42090E-04 8.35745E-01 1.34980E-14-3.02820E-13
 -1      2754 2.35235E+01-1.12310E+00 6.74830E-03 1.25593E+00 2.75899E-14-2.70963E-13
 -1      2755 2.26905E+01-1.23285E+00-1.29871E-02 4.56978E-01-3.32475E-14-2.23630E-13
 -1      2756 2.25665E+01-1.17709E+00 8.64051E-03 1.59792E-01 4.50355E-14-3.02707E-13
 -1      2757 2.30293E+01-1.48975E+00-2.10735E-03 4.73265E-01 5.05880E-14-2.63788E-13
 -1      2758 2.22302E+01-1.07103E+00-1.14841E-02-1.29994E-01 1.18406E-13-1.72689E-13
 -1      2759 2.20724E+01-9.18402E-01 1.09656E-02-3.58865E-01 1.46716E-13-2.39004E-13
 -1      2760 2.23944E+01-1.36684E+00-7.36605E-03-1.96677E-01 1.41292E-13-1.91442E-13
 -1      2761 2.17749E+01-7.62105E-01-8.04798E-03-5.39497E-01 1.04829E-13-2.32417E-13
 -1      2762 2.16144E+01-5.93600E-01 9.49822E-03-6.85992E-01 7.55827E-15-1.51033E-13
 -1      2763 2.17883E+01-1.01489E+00-9.45414E-03-6.50414E-01 8.93872E-14-2.11752E-13
 -1      2764 2.13825E+01-4.44482E-01-4.64791E-03-7.74183E-01 6.14981E-14-8.62679E-14
 -1      2765 2.12363E+01-3.02040E-01 6.91977E-03-8.48142E-01 1.91891E-14-7.18126E-14
 -1      2766 2.12928E+01-6.22497E-01-8.65483E-03-8.98675E-01 6.07310E-14-3.05442E-13
 -1      2767 2.10687E+01-1.85380E-01-2.00343E-03-8.70388E-01-4.84269E-14-2.02975E-14
 -1      2768 2.09424E+01-8.24807E-02 4.44831E-03-8.90053E-01-8.63132E-15-9.92376E-14
 -1      2769 2.09229E+01-2.88790E-01-6.58809E-03-9.91439E-01 4.80414E-14-1.06798E-13
 -1      2770 2.08262E+01-2.86051E-03-2.17986E-04-8.70326E-01-1.05233E-13-1.32905E-13
 -1      2771 2.07197E+01 6.23857E-02 2.51929E-03-8.53836E-01-1.16799E-13-1.08190E-13
 -1      2772 2.06604E+01-4.63647E-02-4.56796E-03-9.80893E-01-7.52604E-14-7.18314E-14
 -1      2773 2.06406E+01 1.09968E-01 8.96380E-04-8.10230E-01-6.32643E-15 3.08461E-14
 -1      2774 2.05517E+01 1.45342E-01 1.18745E-03-7.72511E-01 8.28546E-14 9.69881E-14
 -1      2775 2.04782E+01 1.08635E-01-3.00785E-03-9.08333E-01-1.35061E-14 1.49668E-14
 -1      2776 2.04980E+01 1.68859E-01 1.52708E-03-7.17674E-01-1.96675E-14 2.22257E-13
 -1      2777 2.04240E+01 1.83067E-01 3.48181E-04-6.69771E-01-1.11243E-13 2.37933E-13
 -1      2778 2.03521E+01 1.93863E-01-1.94365E-03-8.03329E-01 5.29497E-14 1.78067E-13
 -1      2779 2.03870E+01 1.90230E-01 1.82066E-03-6.12043E-01-8.93592E-14 1.94655E-13
 -1      2780 2.03259E+01 1.90776E-01-1.31938E-04-5.61486E-01 3.41589E-14 1.89437E-13
 -1      2781 2.02637E+01 2.29314E-01-1.27311E-03-6.85903E-01-7.08796E-14 1.90572E-13
 -1      2782 2.02999E+01 1.87811E-01 1.88718E-03-5.06037E-01-6.54259E-15 8.32401E-14
 -1      2783 2.02497E+01 1.80400E-01-3.71082E-04-4.57553E-01-6.80924E-14 4.16912E-14
 -1      2784 2.02002E+01 2.32355E-01-8.69688E-04-5.68923E-01-7.67694E-14 7.94729E-15
 -1      2785 2.02309E+01 1.71856E-01 1.80749E-03-4.07298E-01-7.87415E-14 1.35376E-13
 -1      2786 2.01901E+01 1.60484E-01-4.59447E-04-3.63539E-01-6.86055E-14 1.35462E-13
 -1      2787 2.01534E+01 2.16287E-01-6.31408E-04-4.60100E-01-1.27308E-13 3.81997E-14
 -1      2788 2.01761E+01 1.49448E-01 1.64138E-03-3.19848E-01-2.43529E-14 4.13923E-14
 -1      2789 2.01434E+01 1.36729E-01-4.60375E-04-2.82023E-01 2.50323E-14-3.03017E-14
 -1      2790 2.01180E+01 1.90498E-01-4.88625E-04-3.63521E-01-5.66906E-14 7.11098E-14
 -1      2791 2.01328E+01 1.25160E-01 1.43225E-03-2.45245E-01 6.81945E-14-1.05628E-13
 -1      2792 2.01070E+01 1.12681E-01-4.15845E-04-2.13623E-01-1.81606E-14-6.34077E-14
 -1      2793 2.00907E+01 1.61187E-01-3.97724E-04-2.80804E-01-6.55911E-14-2.52182E-13
 -1      2794 2.00988E+01 1.01723E-01 1.21024E-03-1.83482E-01-2.18877E-14-6.33940E-14
 -1      2795 2.00787E+01 9.03586E-02-3.52259E-04-1.57762E-01 1.79465E-14 6.37799E-14
 -1      2796 2.00694E+01 1.32164E-01-3.33477E-04-2.11970E-01-3.16099E-14-1.99798E-13
 -1      2797 2.00724E+01 8.06006E-02 9.94974E-04-1.33632E-01-8.11552E-14-5.39173E-14
 -1      2798 2.00570E+01 7.07457E-02-2.85608E-04-1.13211E-01-1.39281E-13-1.81755E-13
 -1      2799 2.00527E+01 1.05556E-01-2.82277E-04-1.56081E-01-7.21624E-14-4.11042E-13
 -1      2800 2.00520E+01 6.24156E-02 7.97884E-04-9.43067E-02-4.21162E-14-9.05105E-14
 -1      2801 2.00404E+01 5.41629E-02-2.24865E-04-7.84539E-02 1.35175E-13-2.05571E-13
 -1      2802 2.00395E+01 8.23540E-02-2.37911E-04-1.11703E-01-5.34140E-14-3.15383E-13
 -1      2803 2.00365E+01 4.72633E-02 6.25305E-04-6.39640E-02 1.65399E-13-2.42011E-13
 -1      2804 2.00280E+01 4.05256E-02-1.73045E-04-5.19409E-02 8.23587E-14-2.01341E-13
 -1      2805 2.00291E+01 6.28277E-02-1.96826E-04-7.72146E-02 7.64904E-14-2.56288E-13
 -1      2806 2.00249E+01 3.49371E-02 4.84813E-04-4.10904E-02 1.19720E-13-1.86969E-13
 -1      2807 2.00188E+01 2.94854E-02-1.25644E-04-3.22010E-02 1.58196E-13-2.03396E-13
 -1      2808 2.00210E+01 4.68081E-02-1.55428E-04-5.10136E-02 8.65773E-14-2.49887E-13
 -1      2809 2.00163E+01 2.48869E-02 3.44719E-04-2.43671E-02 1.20228E-13-2.64994E-13
 -1      2810 2.00120E+01 2.06553E-02-3.11455E-05-1.80972E-02-5.32966E-14-1.93764E-13
 -1      2811 2.00145E+01 3.36674E-02-1.70622E-04-3.15917E-02 1.52836E-13-5.31703E-13
 -1      2812 2.01670E+01 2.38600E-01 3.07653E-03-5.87950E-01 1.42904E-13-9.92442E-14
 -1      2813 2.01241E+01 2.48541E-01 2.38828E-03-5.05459E-01 1.35487E-13-9.15147E-14
 -1      2814 2.00086E+01 1.95044E-02-4.46459E-05 1.36911E-02 1.14621E-13-3.89871E-13
 -1      2815 2.00095E+01 1.47891E-02 1.02356E-04 1.08647E-02 1.54714E-13-7.69731E-14
 -1      2816 2.00130E+01 1.79423E-02 3.28071E-04 1.52618E-02-5.31873E-14-5.12034E-14
 -1      2817 2.01280E+01 2.67721E-01 2.25429E-03-4.09867E-01 1.26346E-13-9.63106E-14
 -1      2818 2.01185E+01 3.00266E-01 4.59209E-03-3.11509E-01 1.37469E-13-8.25333E-14
 -1      2819 2.01635E+01 3.35997E-01-2.80669E-03-4.67298E-01 1.47853E-13-1.48587E-13
 -1      2820 2.03593E+01 2.63179E-01 4.32314E-03-9.15879E-01 8.10883E-14-1.09527E-14
 -1      2821 2.02648E+01 2.49258E-01-2.99862E-04-8.35594E-01 1.16726E-13-3.93615E-14
 -1      2822 2.05034E+01 2.92713E-01 4.73753E-03-1.09171E+00 9.72376E-14-6.29377E-14
 -1      2823 2.03868E+01 2.76372E-01-1.04148E-03-1.00539E+00 1.23615E-13-2.84504E-14
 -1      2824 2.02542E+01 3.42680E-01-1.09512E-03-1.01809E+00 1.16309E-13-6.30732E-14
 -1      2825 2.06779E+01 3.13474E-01 4.90414E-03-1.28109E+00 9.83689E-14-9.63366E-14
 -1      2826 2.05394E+01 3.03855E-01-1.37662E-03-1.18930E+00 8.32295E-14-9.62477E-14
 -1      2827 2.03247E+01 3.76695E-01-8.26204E-04-1.21107E+00 1.26076E-13-7.24120E-14
 -1      2828 2.08887E+01 3.00550E-01 4.66805E-03-1.47704E+00 5.00989E-14-1.12270E-13
 -1      2829 2.07262E+01 3.11850E-01-1.11933E-03-1.38601E+00 7.95744E-14-7.28928E-14
 -1      2830 2.04144E+01 3.93614E-01-1.01771E-03-1.41908E+00 9.21006E-14-9.12347E-14
 -1      2831 2.11515E+01 2.15348E-01 3.75781E-03-1.65939E+00-6.01805E-15-5.09932E-14
 -1      2832 2.09594E+01 2.69447E-01 1.36509E-04-1.58343E+00 3.35520E-14-9.18875E-14
 -1      2833 2.05335E+01 3.59366E-01-2.14405E-03-1.63679E+00 3.95252E-14-5.67904E-14
 -1      2834 2.14997E+01 2.64802E-03 1.73468E-03-1.78831E+00-1.72070E-13 4.34742E-14
 -1      2835 2.12674E+01 1.30033E-01 3.05976E-03-1.75335E+00-9.22782E-14-1.26342E-14
 -1      2836 2.07086E+01 2.22085E-01-5.08680E-03-1.84736E+00-6.95860E-14 4.80546E-14
 -1      2837 2.19912E+01-4.02229E-01-2.12591E-03-1.79601E+00-1.15373E-13 3.32318E-14
 -1      2838 2.17023E+01-1.67852E-01 8.59593E-03-1.84277E+00-1.40247E-13 2.59782E-14
 -1      2839 2.09950E+01-8.93834E-02-1.09210E-02-2.01555E+00-1.47990E-13 2.30861E-14
 -1      2840 2.27061E+01-1.03869E+00-8.44975E-03-1.57702E+00-1.28521E-13 7.45190E-14
 -1      2841 2.23457E+01-6.83467E-01 1.76020E-02-1.76160E+00-1.49330E-13 8.80882E-14
 -1      2842 2.14893E+01-6.53175E-01-2.03644E-02-2.07491E+00-1.76336E-13 5.58490E-14
 -1      2843 2.37134E+01-1.82795E+00-1.67199E-02-9.89929E-01-1.46182E-13 2.39949E-13
 -1      2844 2.32891E+01-1.41498E+00 2.94188E-02-1.37126E+00-1.04282E-13 1.47054E-13
 -1      2845 2.23312E+01-1.49957E+00-3.08532E-02-1.90546E+00-1.76240E-13 1.47031E-13
 -1      2846 2.49816E+01-2.40986E+00-2.29543E-02 8.57592E-02-2.94929E-13 4.01942E-13
 -1      2847 2.45522E+01-2.16835E+00 3.45703E-02-5.07816E-01-2.32474E-13 3.08029E-13
 -1      2848 2.36556E+01-2.46294E+00-3.22135E-02-1.31648E+00-2.43706E-13 2.90916E-13
 -1      2849 2.63068E+01-1.96159E+00 1.73702E-03 1.57948E+00-1.75199E-13 4.27127E-13
 -1      2850 2.59739E+01-2.38101E+00 2.51660E-02 8.74986E-01-2.63005E-13 3.91555E-13
 -1      2851 2.53885E+01-3.04289E+00-4.45520E-02-1.41420E-01-3.04438E-13 3.84127E-13
 -1      2852 2.65256E+01 3.06601E+00-6.33494E-02 2.05919E+00 4.48253E-13 1.74888E-13
 -1      2853 2.66232E+01 1.65130E+00-1.52717E-01 2.61885E+00 4.22939E-13 2.91170E-13
 -1      2854 2.61652E+01 4.21319E+00-8.73796E-02-3.67565E-01 5.36682E-13 1.29876E-13
 -1      2855 2.61791E+01 3.91553E+00-1.65632E-01 8.75990E-01 4.11629E-13 1.01775E-13
 -1      2856 2.75259E+01 1.97689E+00-1.42315E-01-2.67285E+00 4.21857E-13 9.13714E-14
 -1      2857 2.73740E+01 3.40164E+00-9.79813E-02-1.91431E+00 5.93081E-13 1.52375E-13
 -1      2858 2.61956E+01-2.27429E+00-1.50970E-02-1.27751E+00-1.12120E-13-9.39041E-14
 -1      2859 2.64322E+01-1.67791E+00-2.46524E-02-1.89404E+00-3.21340E-14-3.62731E-14
 -1      2860 2.48902E+01-2.28276E+00 2.99577E-02 1.90888E-01-7.96039E-14-1.26253E-14
 -1      2861 2.52843E+01-2.42361E+00-2.79523E-02-4.33428E-01-9.48920E-14-2.64047E-14
 -1      2862 2.58437E+01-2.94349E+00-3.27178E-02-3.13621E-01-1.25187E-13 6.91374E-14
 -1      2863 2.35840E+01-1.57499E+00 3.07797E-02 1.17096E+00-9.24733E-14 3.48103E-14
 -1      2864 2.40063E+01-1.98040E+00-2.09326E-02 7.45924E-01-5.54357E-14 9.02620E-15
 -1      2865 2.40394E+01-2.63906E+00-3.53031E-02 1.05162E+00-7.31052E-14 1.39290E-13
 -1      2866 2.25782E+01-8.04243E-01 2.06366E-02 1.63929E+00-1.41417E-13 2.18520E-13
 -1      2867 2.29459E+01-1.18598E+00-1.07677E-02 1.42301E+00-1.34971E-13 1.80712E-13
 -1      2868 2.26092E+01-1.68829E+00-3.21965E-02 1.75645E+00-1.71232E-13 2.67221E-13
 -1      2869 2.18897E+01-2.31477E-01 1.07184E-02 1.75824E+00-7.23344E-14 1.74763E-13
 -1      2870 2.21836E+01-4.95736E-01-3.28427E-03 1.69467E+00-4.50026E-14 2.43894E-13
 -1      2871 2.16766E+01-7.83248E-01-2.20104E-02 1.98443E+00-1.18702E-13 3.57039E-13
 -1      2872 2.14326E+01 1.14746E-01 4.39599E-03 1.67781E+00-7.72631E-14 2.45426E-13
 -1      2873 2.16642E+01-3.58154E-02 9.37980E-04 1.70852E+00-6.50384E-14 1.54398E-13
 -1      2874 2.11268E+01-1.50579E-01-1.25668E-02 1.94451E+00-8.38081E-14 2.87394E-13
 -1      2875 2.11198E+01 2.86926E-01 9.87839E-04 1.49897E+00-8.37153E-14 2.31942E-13
 -1      2876 2.13063E+01 2.17857E-01 3.24962E-03 1.57921E+00-5.09610E-14 3.21431E-13
 -1      2877 2.08133E+01 2.15325E-01-6.06601E-03 1.77265E+00-9.43712E-14 3.40701E-13
 -1      2878 2.08917E+01 3.47516E-01-6.30203E-04 1.28282E+00-1.70067E-13-9.80039E-15
 -1      2879 2.10457E+01 3.28499E-01 4.35900E-03 1.38293E+00-6.60568E-14 1.88071E-13
 -1      2880 2.06287E+01 3.87785E-01-2.50449E-03 1.54579E+00-4.62245E-14 2.77842E-13
 -1      2881 2.07145E+01 3.45302E-01-1.23500E-03 1.06436E+00-1.64746E-13-1.02057E-13
 -1      2882 2.08433E+01 3.53342E-01 4.70420E-03 1.16657E+00-2.02852E-13-7.69971E-14
 -1      2883 2.05087E+01 4.39960E-01-9.05424E-04 1.30629E+00-8.32127E-14 2.58321E-14
 -1      2884 2.05704E+01 3.12359E-01-1.32269E-03 8.62044E-01 8.39543E-14-1.64503E-13
 -1      2885 2.06782E+01 3.32887E-01 4.58857E-03 9.56831E-01-7.64883E-14-2.04175E-13
 -1      2886 2.04199E+01 4.25952E-01-3.47867E-04 1.07715E+00-6.82685E-14-2.49997E-13
 -1      2887 2.04509E+01 2.67647E-01-1.18192E-03 6.84263E-01 2.62822E-13-2.25933E-14
 -1      2888 2.05404E+01 2.92290E-01 4.20903E-03 7.67317E-01 1.69237E-13-1.37193E-13
 -1      2889 2.03471E+01 3.80480E-01-2.56314E-04 8.70161E-01 9.68826E-14-3.17318E-13
 -1      2890 2.03517E+01 2.21414E-01-9.66097E-04 5.33482E-01 2.83685E-13 7.25426E-14
 -1      2891 2.04250E+01 2.45772E-01 3.70001E-03 6.03575E-01 3.83802E-13 1.56420E-13
 -1      2892 2.02841E+01 3.23824E-01-3.25242E-04 6.90259E-01 1.62106E-13-1.56084E-13
 -1      2893 2.02701E+01 1.78650E-01-7.48434E-04 4.08898E-01 1.34361E-13 1.69464E-13
 -1      2894 2.03291E+01 2.00669E-01 3.15057E-03 4.66473E-01 2.74904E-13 1.96910E-13
 -1      2895 2.02290E+01 2.66854E-01-4.13757E-04 5.38325E-01 2.15457E-13 5.90150E-14
 -1      2896 2.02039E+01 1.41391E-01-5.58686E-04 3.08064E-01 1.72555E-14 1.32337E-13
 -1      2897 2.02506E+01 1.60313E-01 2.61579E-03 3.54374E-01-2.06571E-14 1.88911E-13
 -1      2898 2.01814E+01 2.14800E-01-4.70370E-04 4.12900E-01 2.76695E-14 2.44635E-13
 -1      2899 2.01511E+01 1.10113E-01-4.05151E-04 2.27860E-01-1.84069E-13 1.26045E-13
 -1      2900 2.01875E+01 1.25849E-01 2.12653E-03 2.64465E-01-3.52869E-14 2.20104E-13
 -1      2901 2.01410E+01 1.69721E-01-4.85624E-04 3.11314E-01-5.29583E-14 2.74382E-13
 -1      2902 2.01098E+01 8.45196E-02-2.86563E-04 1.65047E-01-1.41830E-13-5.03397E-14
 -1      2903 2.01376E+01 9.73060E-02 1.69716E-03 1.93537E-01-1.85364E-13-1.22964E-14
 -1      2904 2.01076E+01 1.32002E-01-4.66539E-04 2.30403E-01-1.36674E-13 8.84179E-14
 -1      2905 2.00780E+01 6.39750E-02-1.98432E-04 1.16571E-01-2.20589E-13-1.70313E-13
 -1      2906 2.00989E+01 7.41810E-02 1.33168E-03 1.38423E-01-1.75849E-13-8.96620E-14
 -1      2907 2.00805E+01 1.01195E-01-4.24445E-04 1.66942E-01-1.31097E-13-2.03027E-13
 -1      2908 2.00542E+01 4.77314E-02-1.36072E-04 7.97074E-02-1.03061E-13-4.93563E-14
 -1      2909 2.00695E+01 5.57621E-02 1.02759E-03 9.62201E-02-2.07463E-13-1.85906E-13
 -1      2910 2.00590E+01 7.64894E-02-3.69903E-04 1.17903E-01-1.35062E-13-2.74875E-13
 -1      2911 2.00366E+01 3.50645E-02-7.72583E-05 5.21329E-02 1.49303E-13-1.45398E-14
 -1      2912 2.00475E+01 4.12974E-02 7.79853E-04 6.43978E-02 6.17879E-14-9.51970E-14
 -1      2913 2.00422E+01 5.69676E-02-3.08989E-04 8.05902E-02-4.86451E-14-2.06082E-13
 -1      2914 2.00242E+01 2.54288E-02 1.06416E-04 3.20137E-02 1.66123E-13 6.21682E-14
 -1      2915 2.00315E+01 2.99642E-02 5.69109E-04 4.07663E-02 2.16352E-13 1.22597E-13
 -1      2916 2.00293E+01 4.17045E-02-2.79705E-04 5.26994E-02 1.52171E-13-2.32339E-13
 -1      2917 2.00157E+01 2.00268E-02 1.74257E-04 1.98445E-02-4.92036E-14 6.05822E-14
 -1      2918 2.00206E+01 2.35848E-02 4.01445E-04 2.61734E-02 5.36338E-14 1.32873E-14
 -1      2919 2.00198E+01 3.20918E-02-4.07305E-04 3.47410E-02 6.68398E-14-2.01310E-13
 -1      2920 2.00133E+01 2.61644E-02-4.70045E-04 2.35898E-02 1.10082E-13-4.36518E-13
 -1      2921 1.99892E+01 5.18748E-02-1.40908E-04 2.30270E-03 1.64138E-13 1.85948E-13
 -1      2922 1.99899E+01 5.12247E-02-6.43122E-05 5.45690E-03 1.81434E-13-1.87276E-14
 -1      2923 2.00107E+01 1.79394E-02 2.42945E-04-1.42139E-02-1.31282E-13-5.35471E-15
 -1      2924 2.00084E+01 1.53478E-02 2.10545E-05-1.11142E-02-1.52723E-13 2.10857E-15
 -1      2925 2.00102E+01 2.43241E-02-1.85075E-04-1.94710E-02 1.57572E-14-5.25787E-13
 -1      2926 1.99952E+01 4.32143E-02-2.34213E-04 1.43492E-02 1.70570E-13-3.82246E-13
 -1      2927 1.99978E+01 4.03271E-02 9.41768E-05 1.56548E-02 1.94796E-13-4.08125E-13
 -1      2928 1.99898E+01 5.11358E-02-6.37239E-05-5.04098E-03 3.41644E-14-2.55505E-14
 -1      2929 1.99892E+01 5.18147E-02-1.40830E-04-1.87887E-03 1.27472E-13 1.61249E-13
 -1      2930 1.99866E+01 6.23017E-02 2.72100E-04 1.79875E-04 1.65189E-13 1.54687E-13
 -1      2931 1.99911E+01 4.91182E-02-2.01569E-04 9.22988E-03-1.69604E-14-2.89864E-13
 -1      2932 1.99930E+01 4.72271E-02 1.97626E-05 1.17198E-02 5.99456E-14-3.44439E-13
 -1      2933 1.99926E+01 5.45325E-02 2.19921E-04 1.58873E-02 8.22931E-14-5.48024E-13
 -1      2934 1.99882E+01 6.03641E-02 2.60958E-04 8.84843E-03 7.57475E-14 9.00483E-14
 -1      2935 2.01362E+01 3.45252E-01 1.28988E-03-1.93265E-01 1.70304E-13-9.36009E-14
 -1      2936 2.01663E+01 4.12747E-01 7.38833E-03-6.24575E-02 2.06519E-13-6.42155E-14
 -1      2937 2.01887E+01 4.20976E-01-3.19210E-03-2.39733E-01 1.70331E-13-1.14049E-13
 -1      2938 2.98670E+01-7.51987E-01-1.59402E-01-1.48346E+00 3.00537E-13-3.49720E-14
 -1      2939 2.94527E+01-2.28891E+00-3.02562E-02-5.05977E-01 4.81316E-14-3.22520E-14
 -1      2940 1.99927E+01 4.71319E-02 2.02391E-05-1.12552E-02 9.25639E-14-6.45548E-14
 -1      2941 1.99909E+01 4.89799E-02-1.99650E-04-8.76418E-03 9.99546E-14-7.60789E-14
 -1      2942 1.99880E+01 6.01620E-02 2.56921E-04-8.42448E-03 1.09118E-13-1.19356E-13
 -1      2943 1.99973E+01 4.02219E-02 8.09543E-05-1.53120E-02 5.75732E-14 3.83569E-13
 -1      2944 1.99948E+01 4.31045E-02-2.28712E-04-1.39329E-02 9.12116E-14 2.55591E-13
 -1      2945 1.99922E+01 5.42484E-02 2.11295E-04-1.54447E-02 2.17359E-13 1.49523E-13
 -1      2946 2.00024E+01 3.12014E-02 2.47688E-05-1.62684E-02-7.14109E-14 4.07815E-13
 -1      2947 2.00000E+01 3.49021E-02-2.08221E-04-1.64241E-02-1.16200E-14 5.19295E-13
 -1      2948 1.99981E+01 4.53212E-02 1.49403E-04-1.96329E-02 5.58884E-14 3.87627E-13
 -1      2949 2.29832E+01-5.37044E+00-7.03703E-02 4.32065E+00-3.13569E-13 1.71547E-14
 -1      2950 1.97674E+01-4.99660E+00 1.09953E-01 5.42267E+00-3.04659E-13 1.04120E-13
 -1      2951 1.67243E+01-4.40800E+00 4.82065E-02 6.12523E+00-2.64622E-13 9.25926E-14
 -1      2952 1.34781E+01-3.30578E+00 1.16679E-01 5.79312E+00-2.37407E-13 1.56583E-13
 -1      2953 1.92194E+01-4.16343E+00 1.03742E-01 5.11288E+00-2.74281E-13 1.09756E-13
 -1      2954 2.03647E+01 1.75265E+00-9.64279E-03-1.21687E+00-3.00756E-13-3.75051E-13
 -1      2955 2.03439E+01 1.37969E+00-5.93963E-03-9.08466E-01-2.81172E-13-3.48948E-13
 -1      2956 8.01362E+00-1.13030E+00 1.05406E-01 3.59849E+00 1.74881E-13-4.35679E-13
 -1      2957 6.73644E+00-6.28265E-01 2.03299E-01 1.30768E+00 1.79048E-13-6.03823E-13
 -1      2958 2.98008E+01-1.30145E-01-4.08038E-02 1.95652E+00 3.42365E-13 2.17576E-13
 -1      2959 2.93243E+01 2.05989E+00-1.82763E-01 2.52330E+00 4.91107E-13 3.12819E-13
 -1      2960 2.02460E+01 2.41106E-01 3.75784E-03-7.51176E-01 1.28771E-13-7.20922E-14
 -1      2961 2.01755E+01 2.36115E-01 8.13930E-04-6.73369E-01 1.42665E-13-1.01300E-13
 -1      2962 2.01696E+01 3.06659E-01-2.18646E-03-6.58928E-01 1.39608E-13-1.24882E-13
 -1      2963 2.02015E+01 3.13925E-01-1.58667E-03-8.37235E-01 9.25927E-14-4.58857E-14
 -1      2964 2.03788E+01 1.09747E+00 4.86895E-03-6.91384E-01-2.57121E-13-3.15103E-13
 -1      2965 2.03015E+01 8.72849E-01-3.99918E-03-4.32443E-01-2.36720E-13-3.09172E-13
 -1      2966 2.03165E+01 9.77040E-01 1.42035E-03-3.70813E-01-2.18776E-13-3.28577E-13
 -1      2967 2.03228E+01 1.45971E+00 1.52648E-03-7.74541E-01-2.51491E-13-3.62114E-13
 -1      2968 2.80315E+01-3.97447E+00-1.16600E-01 1.10789E+00-1.52406E-13 1.00142E-13
 -1      2969 2.59729E+01-4.92556E+00 6.67526E-02 2.49483E+00-2.66634E-13 3.96905E-14
 -1      2970 2.81095E+01-3.33491E+00-1.45536E-02-1.15201E-01-1.73342E-13-9.03444E-15
 -1      2971 1.98911E+01 2.72545E+00-7.44919E-03 6.95237E-01 2.74305E-13-4.10209E-13
 -1      2972 1.98308E+01 2.82765E+00-6.76265E-03 5.59617E-01 2.30331E-13-4.52540E-13
 -1      2973 1.99296E+01 2.56040E+00 5.04958E-03 4.30561E-01 1.91433E-13-4.36901E-13
 -1      2974 2.00470E+01 2.33398E+00 6.12489E-03 6.27403E-01 2.69512E-13-3.54822E-13
 -1      2975 2.01966E+01 4.99514E-01 1.15941E-04 9.55403E-02 2.32468E-13-7.69281E-14
 -1      2976 2.02707E+01 6.23816E-01 1.01769E-02 2.82865E-01 2.61345E-13-6.67864E-14
 -1      2977 2.03274E+01 9.03066E-01-2.12565E-04 4.46525E-01 3.12529E-13-1.10890E-13
 -1      2978 2.02458E+01 5.92574E-01-2.77552E-03 5.39093E-02 2.35794E-13-1.41666E-13
 -1      2979 9.47128E+00-1.96571E+00 1.01305E-01 4.55430E+00-3.23602E-13 1.30257E-13
 -1      2980 6.74441E+00-1.38506E+00 1.84287E-01 2.74255E+00-1.33754E-13 3.02647E-13
 -1      2981 2.88059E+01-6.52392E-01-8.11054E-02 5.58894E-01-5.03902E-14-4.44839E-13
 -1      2982 2.94383E+01 1.24255E+00-1.55897E-01 1.27192E+00-1.93415E-13-5.34017E-13
 -1      2983 1.98267E+01 2.83087E+00-6.58288E-03-5.48342E-01-7.61224E-14-5.55453E-13
 -1      2984 1.98857E+01 2.73092E+00-7.07466E-03-6.84877E-01-1.17911E-13-5.42685E-13
 -1      2985 2.03946E+01 1.53682E+00-1.30774E-03 1.15539E+00 4.05184E-13-6.02760E-14
 -1      2986 2.01169E+01 2.57332E+00-2.43426E-03-1.35013E+00-2.72933E-13-4.60968E-13
 -1      2987 2.80744E+01-3.62326E+00-2.12816E-02-4.69389E-01-7.69766E-14-9.07607E-14
 -1      2988 2.91295E+01-2.20384E+00-1.74325E-01 7.72640E-01 1.60386E-13 1.06234E-13
 -1      2989 1.58720E+01-4.25629E+00 1.64072E-01-6.10664E+00-2.12524E-13-5.25496E-13
 -1      2990 1.88588E+01-5.01456E+00 1.89307E-03-5.81313E+00-1.90861E-13-4.12025E-13
 -1      2991 2.00073E+01 1.82288E-02-2.25579E-05-1.23130E-02-4.76083E-14-2.14372E-13
 -1      2992 2.84001E+01-1.69701E+00-1.48107E-01-1.93809E-01-2.80484E-13-2.05391E-14
 -1      2993 2.76057E+01-3.26970E+00 2.04941E-02 1.39422E+00-1.87187E-13-8.54594E-14
 -1      2994 1.22953E+01-3.10621E+00 3.48591E-02 6.18462E+00 1.91763E-13-2.25056E-13
 -1      2995 1.01794E+01-2.06720E+00 1.66722E-01 5.15730E+00 1.78704E-13-2.77889E-13
 -1      2996 8.77565E+00-2.15883E+00 1.66700E-01-4.49034E+00-6.83342E-14-8.14904E-13
 -1      2997 1.20265E+01-3.33082E+00 3.99085E-02-5.95014E+00-1.12799E-13-6.38656E-13
 -1      2998 1.93015E+01-4.89472E+00 1.07294E-02 5.95239E+00 1.63994E-13-2.09208E-13
 -1      2999 1.55669E+01-3.96368E+00 1.46040E-01 6.33050E+00 1.71460E-13-1.73320E-13
 -1      3000 2.83844E+01 2.80660E+00-1.66881E-01-1.94524E+00-3.26711E-13 3.59018E-14
 -1      3001 2.87049E+01 7.10989E-01-7.92203E-02-1.45356E+00-3.07032E-13 2.55213E-14
 -1      3002 2.77519E+01 6.10784E+00-1.60562E-01-8.43558E-01-3.75339E-13-2.79516E-13
 -1      3003 2.78369E+01 4.84506E+00-1.43601E-01-1.63386E+00-3.39978E-13-9.06358E-14
 -1      3004 5.49240E+00-1.14539E+00 1.24433E-01 7.43490E-01-7.34586E-14 2.37310E-13
 -1      3005 6.11347E+00-8.67061E-01 1.19181E-01-1.77359E+00 1.27676E-15 2.11969E-13
 -1      3006 8.44550E+00-5.83077E-01 1.53015E-01-2.56462E+00 3.58394E-14 2.36533E-13
 -1      3007 8.09996E+00-3.72397E-01 1.75858E-01 1.41230E+00-1.33244E-13 2.06446E-13
 -1      3008 2.88402E+01 4.92774E+00-1.25651E-01 1.40287E+00 4.91635E-13 2.12275E-13
 -1      3009 2.90674E+01 5.75792E+00-2.21715E-01 4.17076E-01 5.43066E-13 1.43070E-13
 -1      3010 2.91720E+01 3.02591E+00-9.41958E-02 1.80353E+00-3.40172E-13-5.48811E-13
 -1      3011 2.80715E+01 4.47217E+00-2.39156E-01 1.82654E+00-4.32820E-13-4.61152E-13
 -1      3012 2.80314E+01 1.70204E+00-6.65427E-02 1.93323E+00-2.73448E-13-4.69777E-13
 -1      3013 2.00104E+01-4.99818E+00 9.48455E-02-5.72267E+00 1.61371E-13-5.30936E-13
 -1      3014 2.24736E+01-5.01405E+00 3.56823E-03-4.75319E+00 2.51410E-13-5.67909E-13
 -1      3015 1.89712E+01-4.28041E+00 9.16434E-02-5.53547E+00 1.47923E-13-5.08940E-13
 -1      3016 5.92419E+00-9.44520E-01 1.12980E-01-7.98056E-01 4.21017E-14-8.16708E-13
 -1      3017 6.72788E+00-1.46630E+00 1.27788E-01-2.95079E+00 2.42306E-14-9.77135E-13
 -1      3018 1.99569E+01 2.59537E+00-6.13880E-03-7.91227E-01-1.42780E-13-5.16542E-13
 -1      3019 2.00358E+01 2.45351E+00-6.18080E-03-9.18026E-01-1.94756E-13-5.09038E-13
 -1      3020 2.00408E+01 2.34016E+00 6.30566E-03-6.21669E-01-1.21885E-13-5.03427E-13
 -1      3021 1.98321E+01 2.73290E+00 4.21903E-03 7.33356E-03 5.86954E-14-4.60375E-13
 -1      3022 1.97096E+01 3.03551E+00-5.77032E-03-4.85718E-02 4.96374E-14-4.98355E-13
 -1      3023 1.97213E+01 3.01806E+00-5.50525E-03-1.84433E-01 2.10864E-15-5.24903E-13
 -1      3024 1.23131E+01-2.16361E+00 1.51823E-01 5.09275E+00-2.88769E-13 1.57860E-13
 -1      3025 1.15237E+01-9.38970E-01 1.04131E-01 3.92637E+00-2.32446E-13 1.39680E-13
 -1      3026 1.50350E+01-2.27810E+00 8.60861E-02 4.90561E+00-2.62450E-13 1.79946E-13
 -1      3027 2.63190E+01 5.40430E+00-1.18738E-01-3.67504E-01-3.31513E-13-2.39571E-13
 -1      3028 1.23514E+01-1.42557E+00 8.63199E-02-4.76242E+00 1.63987E-13-5.84255E-14
 -1      3029 1.30015E+01-2.48413E+00 1.37124E-01-5.65373E+00 1.11453E-13-4.08285E-14
 -1      3030 1.55820E+01-2.78312E+00 7.34239E-03-5.43854E+00 2.78385E-13-3.33442E-13
 -1      3031 9.56062E+00-1.21848E+00 1.89839E-01-3.62631E+00-5.74471E-14-8.42604E-13
 -1      3032 1.99988E+01 4.55942E-02 1.68360E-04 1.99335E-02 1.79964E-13-3.65817E-13
 -1      3033 2.00003E+01 3.49693E-02-2.57737E-04 1.66008E-02 1.69766E-13-5.96962E-13
 -1      3034 2.00032E+01 3.16875E-02 1.62179E-04 1.65898E-02 2.52210E-13-6.46532E-13
 -1      3035 2.80436E+01 5.33765E+00-1.73783E-01-2.26088E-01 4.88332E-13 1.28687E-13
 -1      3036 2.70600E+01-1.87200E+00-1.26548E-02 1.78703E+00-5.26593E-14 3.64597E-13
 -1      3037 2.71339E+01-3.04638E+00-8.16148E-02 7.36401E-01-1.47412E-13 3.08777E-13
 -1      3038 2.70692E+01 7.39279E-01-6.79667E-02 2.73632E+00 3.74825E-13 3.25278E-13
 -1      3039 2.69872E+01-6.05352E-01-1.33551E-01 2.47454E+00 1.44572E-13 3.66575E-13
 -1      3040 2.68907E+01-6.21420E-01-9.18515E-02-2.60513E+00 2.14724E-14-7.16649E-14
 -1      3041 2.68392E+01 7.02004E-01-4.79605E-02-2.64419E+00 1.89376E-13 8.25728E-15
 -1      3042 2.63426E+01-4.05145E+00 3.11520E-02 1.96411E+00-1.00413E-13-4.86555E-14
 -1      3043 2.00071E+01 2.37575E-02-9.88362E-05 1.55264E-02 1.25421E-13-5.86758E-13
 -1      3044 2.95102E+01 1.05478E-01-1.07991E-01-2.19933E+00 3.05783E-13-6.03267E-14
 -1      3045 2.85596E+01-9.35583E-01-2.77757E-02-2.06547E+00 1.16566E-13-1.17198E-13
 -1      3046 2.74299E+01 3.43662E+00-1.25469E-01-1.99401E+00-2.96527E-13-2.70617E-16
 -1      3047 2.66476E+01 2.05889E+00-7.44471E-02-2.07217E+00-2.42487E-13 2.76203E-14
 -1      3048 2.60089E+01 3.92557E+00-9.97760E-02-1.80705E+00-2.33272E-13 1.50088E-14
 -1      3049 2.44565E+01-4.88614E+00 3.68693E-02 3.00784E+00-2.66009E-13 2.37588E-14
 -1      3050 2.00061E+01 2.25220E-02 9.12314E-05-1.39021E-02 7.94346E-14-4.36771E-14
 -1      3051 2.13799E+01-4.94900E+00 9.97509E-02 5.13774E+00 1.89043E-13-2.65371E-13
 -1      3052 1.98419E+01-4.30523E+00 6.31612E-02 5.24362E+00 2.03663E-13-2.58037E-13
 -1      3053 2.27680E+01-4.97717E+00-8.39626E-02 4.05422E+00 1.31860E-13-1.81542E-13
 -1      3054 2.03398E+01 1.64304E+00-1.80875E-03 1.03737E+00 3.91207E-13-1.25038E-13
 -1      3055 2.03274E+01 1.44553E+00 2.94893E-03 7.75202E-01 3.52858E-13-1.54852E-13
 -1      3056 2.41709E+01-4.89269E+00 2.84388E-02-3.71706E+00 3.20757E-13-3.54550E-13
 -1      3057 2.51627E+01-4.39307E+00-4.57185E-02-2.32121E+00 3.07639E-13-2.33216E-13
 -1      3058 2.24138E+01-4.69098E+00 3.91381E-02-4.17267E+00 2.20851E-13-4.96780E-13
 -1      3059 2.86896E+01-1.31833E+00-2.43322E-02 1.87614E+00 1.74950E-13 3.18620E-13
 -1      3060 1.03983E+01-1.05954E+00 1.48732E-01 3.95689E+00 2.14141E-13-3.25642E-13
 -1      3061 2.68861E+01-3.03154E+00-1.70103E-02-5.81180E-01 2.00747E-13-3.71828E-13
 -1      3062 2.80939E+01-2.06926E+00-6.55757E-02 7.30975E-02 4.52346E-14-4.27089E-13
 -1      3063 2.75673E+01-1.19839E+00-9.42883E-02 1.12007E+00-2.65482E-14-5.22221E-13
 -1      3064 8.04221E+00-2.27866E-01 1.69282E-01 2.01155E-01 1.19604E-13-6.86340E-13
 -1      3065 1.97445E+01 2.97460E+00-6.14642E-03-2.98480E-01-1.45017E-14-5.34139E-13
 -1      3066 1.97798E+01 2.91925E+00-5.88654E-03-4.35523E-01-5.93528E-14-5.42094E-13
 -1      3067 1.99268E+01 2.56109E+00 4.86356E-03-4.19300E-01-7.20497E-14-5.23087E-13
 -1      3068 1.98559E+01 2.69011E+00 4.30066E-03-2.07129E-01-1.89496E-14-5.06652E-13
 -1      3069 2.83242E+01 1.64139E+00-8.93258E-02 2.57118E+00 4.91190E-13 2.82829E-13
 -1      3070 2.89902E+01 3.30513E+00-1.62575E-01 2.45563E+00 4.89941E-13 2.82302E-13
 -1      3071 2.67203E+01 4.20627E+00-2.29462E-01-1.00928E+00 5.49116E-13 1.81189E-13
 -1      3072 2.14488E+01-5.00668E+00 1.12419E-01-4.87359E+00-2.47136E-13-3.26038E-13
 -1      3073 2.31967E+01-5.07552E+00-8.59648E-02-3.66407E+00-2.81011E-13-2.46128E-13
 -1      3074 2.02369E+01-4.32753E+00 8.39299E-02-4.87901E+00-2.63345E-13-2.32658E-13
 -1      3075 1.53990E+01-3.13126E+00 1.40463E-01 5.77075E+00 2.07348E-13-2.22843E-13
 -1      3076 2.01706E+01 2.23887E+00 6.36431E-04-1.08876E+00-2.31148E-13-4.64493E-13
 -1      3077 2.95654E+01 4.49959E+00-7.26322E-02-1.99917E+00 6.24195E-13 6.89310E-14
 -1      3078 1.47841E+01-3.16630E+00 1.44397E-01-5.56515E+00-1.93540E-13-5.23498E-13
 -1      3079 2.87180E+01 1.25322E+00-1.24778E-01-2.71220E+00 3.74714E-13-3.43892E-14
 -1      3080 2.70132E+01-4.49199E+00-4.59110E-02-1.37971E+00-2.35152E-13-1.74395E-13
 -1      3081 2.73431E+01-3.63698E+00-4.77682E-04-3.77130E-03-1.83517E-13 1.15782E-13
 -1      3082 2.64754E+01-3.43549E+00 6.13139E-02-5.92529E-02-3.20377E-13 2.47108E-13
 -1      3083 2.56601E+01-4.59766E+00 8.18372E-02-2.11784E+00-2.54588E-13-1.60347E-13
 -1      3084 2.81438E+01-8.28998E-01-7.67584E-02-1.06155E+00-2.71710E-13 9.66865E-14
 -1      3085 2.70932E+01-2.02062E+00-3.94768E-02-5.16321E-01-2.00270E-13 1.34177E-13
 -1      3086 2.71762E+01-9.28969E-02-8.23281E-02-1.78218E+00-1.84783E-13 1.45113E-13
 -1      3087 2.68456E+01 4.57789E+00-8.53753E-02 1.54135E+00-4.18207E-13-3.84782E-13
 -1      3088 2.74535E+01-1.59248E+00-4.48220E-02-2.00493E+00-3.23318E-14-6.79873E-14
 -1      3089 2.00077E+01 2.77670E-02-8.27491E-05-1.92545E-02-1.79963E-14-1.79112E-13
 -1      3090 2.00046E+01 2.88003E-02-8.93479E-05-1.72724E-02 2.25468E-15 3.15887E-13
 -1      3091 2.00042E+01 3.77299E-02 2.24062E-04-2.19107E-02-7.20215E-14 4.61006E-13
 -1      3092 2.00098E+01 3.20651E-02 3.09553E-04-2.35959E-02-1.22639E-14-2.02898E-13
 -1      3093 2.02549E+01 1.59300E+00-7.59039E-03 6.44200E-01 3.15017E-13-2.14746E-13
 -1      3094 2.01907E+01 1.80477E+00-1.48962E-03 5.93703E-01 2.86582E-13-2.56052E-13
 -1      3095 2.02562E+01 6.07732E-01 3.12499E-03 1.67571E-01-1.14566E-13-3.02276E-13
 -1      3096 2.02314E+01 5.20388E-01-9.81133E-04 2.90605E-01-9.54526E-14-3.04824E-13
 -1      3097 2.02109E+01 4.55396E-01 2.15201E-03 3.95012E-01-1.05443E-13-2.95244E-13
 -1      3098 2.01989E+01 4.04004E-01 1.82661E-04 4.91553E-01-1.16322E-13-3.11530E-13
 -1      3099 2.02218E+01 5.82931E-01-8.53820E-04 3.25329E-01-1.07506E-13-3.35801E-13
 -1      3100 2.01761E+01 3.66005E-01 1.20340E-03 5.78588E-01-1.15858E-13-3.23672E-13
 -1      3101 2.01784E+01 3.35954E-01 1.02028E-03 6.58250E-01-1.13465E-13-3.28852E-13
 -1      3102 2.01725E+01 4.61464E-01-1.01008E-03 5.22728E-01-1.24903E-13-3.36720E-13
 -1      3103 2.01583E+01 3.11953E-01 5.54179E-04 7.35133E-01-8.39142E-14-2.86306E-13
 -1      3104 2.01752E+01 2.90733E-01 1.60521E-03 8.04238E-01-6.42787E-14-2.70658E-13
 -1      3105 2.01269E+01 3.88594E-01-1.14410E-03 6.91788E-01-7.20286E-14-2.94862E-13
 -1      3106 2.01627E+01 2.69001E-01 3.25826E-04 8.75840E-01-3.20467E-14-2.41947E-13
 -1      3107 2.01959E+01 2.44488E-01 1.99719E-03 9.37171E-01-3.24943E-14-2.09288E-13
 -1      3108 2.00930E+01 3.36566E-01-1.41069E-03 8.45065E-01-2.79554E-14-2.36595E-13
 -1      3109 2.01975E+01 2.13081E-01 6.29656E-04 1.00558E+00-7.53784E-14-1.62177E-13
 -1      3110 2.02507E+01 1.72317E-01 2.22077E-03 1.05821E+00-5.04966E-14-1.47621E-13
 -1      3111 2.00801E+01 2.78215E-01-2.00530E-03 9.90269E-01-2.06240E-14-2.31504E-13
 -1      3112 2.02765E+01 1.18207E-01 1.62428E-03 1.12222E+00-6.39135E-14-1.13436E-13
 -1      3113 2.03563E+01 4.69420E-02 2.23224E-03 1.16104E+00-6.37519E-14-1.17690E-13
 -1      3114 2.01027E+01 1.84529E-01-3.15619E-03 1.12956E+00-4.58195E-14-1.35705E-13
 -1      3115 2.04216E+01-4.37599E-02 3.52854E-03 1.21512E+00-4.74705E-14-9.57853E-14
 -1      3116 2.05375E+01-1.60119E-01 1.86039E-03 1.23011E+00 1.67683E-14-1.24448E-13
 -1      3117 2.01835E+01 2.35893E-02-5.11548E-03 1.25815E+00-2.11346E-14-1.04161E-13
 -1      3118 2.06644E+01-2.99961E-01 6.57381E-03 1.26237E+00 3.52818E-14-1.33383E-13
 -1      3119 2.08278E+01-4.72661E-01 6.78277E-04 1.23750E+00 2.59978E-14-1.31588E-13
 -1      3120 2.03565E+01-2.37673E-01-8.11905E-03 1.36141E+00 2.60497E-14-1.13989E-13
 -1      3121 2.10441E+01-6.67105E-01 1.07072E-02 1.22662E+00-8.56845E-16-1.29991E-13
 -1      3122 2.12640E+01-8.95482E-01-2.05679E-03 1.13918E+00 1.87730E-14-1.54513E-13
 -1      3123 2.06685E+01-6.25522E-01-1.22366E-02 1.40952E+00 1.26711E-14-1.50750E-13
 -1      3124 2.15984E+01-1.13120E+00 1.55239E-02 1.05045E+00 4.59546E-14-1.30063E-13
 -1      3125 2.18715E+01-1.38652E+00-6.94585E-03 8.72859E-01 4.90687E-14-1.27286E-13
 -1      3126 2.11748E+01-1.14179E+00-1.70878E-02 1.34954E+00 2.05101E-14-7.16406E-14
 -1      3127 2.23369E+01-1.61174E+00 1.90826E-02 6.56245E-01 3.59799E-14-6.00722E-14
 -1      3128 2.26341E+01-1.80762E+00-1.23387E-02 3.65369E-01-2.00638E-14-3.26529E-14
 -1      3129 2.19234E+01-1.72513E+00-2.00005E-02 1.09643E+00 7.74051E-14-8.72013E-14
 -1      3130 2.31852E+01-1.90637E+00 1.53418E-02-2.10737E-02-3.21509E-15 7.11571E-14
 -1      3131 2.34429E+01-1.88085E+00-1.58130E-02-4.11251E-01 3.79462E-14 1.34767E-13
 -1      3132 2.29044E+01-2.17629E+00-1.44893E-02 5.42472E-01 7.86611E-14 4.31272E-14
 -1      3133 2.39353E+01-1.66226E+00-3.32942E-03-9.40777E-01 4.36634E-14 2.13257E-13
 -1      3134 2.40663E+01-1.22825E+00-1.35330E-02-1.31816E+00 6.62179E-14 2.15540E-13
 -1      3135 2.39731E+01-2.12601E+00 6.79042E-04-3.72523E-01 8.90642E-14 2.16599E-13
 -1      3136 2.43036E+01-5.46918E-01-3.53119E-02-1.79868E+00 5.12203E-14 1.74588E-13
 -1      3137 2.42451E+01 3.41164E-01 3.06196E-03-1.92777E+00 3.95239E-14 1.31288E-13
 -1      3138 2.47697E+01-1.15512E+00-1.12183E-02-1.45216E+00 4.88654E-14 2.35015E-13
 -1      3139 2.44953E+01 1.62451E+00-6.17892E-02-2.00968E+00-5.45328E-14 6.07812E-14
 -1      3140 2.43245E+01 2.66506E+00-3.21067E-02-1.70243E+00-8.71664E-14 1.91340E-15
 -1      3141 2.37107E+01 3.46957E+00-2.40716E-02 6.31344E-01-2.38212E-13-9.18042E-14
 -1      3142 2.37658E+01 2.91464E+00-7.95354E-02 1.28253E+00-2.76140E-13-1.75843E-13
 -1      3143 2.40513E+01 2.06278E+00 1.39734E-03 1.83941E+00-3.09003E-13-2.52443E-13
 -1      3144 2.41716E+01 1.00987E+00-6.78878E-02 2.05502E+00-2.19282E-13-2.59324E-13
 -1      3145 2.47249E+01 2.91493E+00-3.89621E-02 1.75649E+00-3.40054E-13-2.75287E-13
 -1      3146 2.42666E+01 4.63232E-02 4.59560E-03 1.91449E+00-9.20496E-14-2.94399E-13
 -1      3147 2.42941E+01-7.97730E-01-1.87773E-02 1.72023E+00-6.06242E-14-2.86987E-13
 -1      3148 2.49714E+01 4.82056E-01-2.04054E-02 2.05062E+00-1.57655E-13-2.88311E-13
 -1      3149 2.39647E+01-1.37918E+00-1.45906E-02 1.18371E+00-2.26212E-14-2.04758E-13
 -1      3150 2.38175E+01-1.71368E+00 5.95307E-03 8.20883E-01 2.98967E-14-2.11681E-13
 -1      3151 2.46338E+01-1.41503E+00-3.84265E-02 1.33807E+00-7.18176E-16-3.04942E-13
 -1      3152 2.32922E+01-1.87566E+00-2.03338E-02 3.01247E-01 7.75112E-14-1.41910E-13
 -1      3153 2.30286E+01-1.82881E+00 1.72970E-02-5.87642E-02 1.67468E-13-6.95837E-14
 -1      3154 2.37344E+01-2.19867E+00-3.38899E-02 2.48359E-01 7.00633E-14-9.90787E-14
 -1      3155 2.24884E+01-1.70000E+00-1.21097E-02-4.08026E-01 1.39501E-13-1.55261E-13
 -1      3156 2.21951E+01-1.47882E+00 1.92595E-02-6.68191E-01 1.35700E-13-1.97182E-13
 -1      3157 2.27057E+01-2.06123E+00-1.72420E-02-5.86316E-01 7.32810E-14-8.90362E-14
 -1      3158 2.17519E+01-1.24525E+00-5.94572E-03-8.50268E-01 3.87856E-14-2.80769E-13
 -1      3159 2.14905E+01-9.87970E-01 1.50516E-02-1.00104E+00-1.46186E-14-3.35689E-13
 -1      3160 2.17642E+01-1.55743E+00-1.80645E-02-1.07185E+00 8.70284E-14-2.52795E-13
 -1      3161 2.11749E+01-7.55144E-01-1.85687E-03-1.06521E+00 4.32464E-14-2.12485E-13
 -1      3162 2.09679E+01-5.32324E-01 1.00644E-02-1.12946E+00 1.14588E-13-1.47059E-13
 -1      3163 2.10574E+01-9.76295E-01-1.56694E-02-1.26942E+00 8.59345E-14-3.67714E-14
 -1      3164 2.07647E+01-3.45899E-01 5.22352E-04-1.12147E+00 9.63600E-14-1.87704E-13
 -1      3165 2.06121E+01-1.81765E-01 5.97252E-03-1.12728E+00 2.34034E-14-8.44326E-14
 -1      3166 2.05816E+01-4.75522E-01-1.09545E-02-1.28895E+00 8.60127E-14-6.08730E-14
 -1      3167 2.04912E+01-5.11514E-02 1.53729E-03-1.08064E+00-5.04789E-14-5.15567E-15
 -1      3168 2.03828E+01 5.60314E-02 3.05696E-03-1.05038E+00-8.30183E-14-8.16052E-14
 -1      3169 2.02869E+01-1.09179E-01-7.04902E-03-1.21061E+00 2.54130E-14-1.02779E-13
 -1      3170 2.03170E+01 1.37100E-01 1.89713E-03-9.85412E-01-3.72297E-14 8.76202E-14
 -1      3171 2.02409E+01 1.98242E-01 1.16448E-03-9.35237E-01 7.78693E-14 1.86596E-13
 -1      3172 2.01178E+01 1.29631E-01-4.18676E-03-1.08464E+00 3.93484E-16 1.93967E-13
 -1      3173 2.02093E+01 2.41168E-01 1.95651E-03-8.64084E-01 6.10652E-14 7.83543E-14
 -1      3174 2.01554E+01 2.68917E-01 1.71400E-05-8.05087E-01-3.00468E-14 1.76273E-14
 -1      3175 2.00292E+01 2.66015E-01-2.29371E-03-9.40298E-01 6.74881E-15 7.17190E-14
 -1      3176 2.01437E+01 2.85182E-01 1.88403E-03-7.34847E-01-5.70615E-14 5.98910E-14
 -1      3177 2.01046E+01 2.90695E-01-6.17310E-04-6.74310E-01-8.03274E-14 1.25675E-13
 -1      3178 1.99890E+01 3.28255E-01-1.13869E-03-7.94390E-01 2.36290E-14-8.03127E-14
 -1      3179 2.01035E+01 2.89831E-01 1.75402E-03-6.09008E-01-1.66367E-13 1.00112E-13
 -1      3180 2.00744E+01 2.81788E-01-9.15751E-04-5.51473E-01-2.12340E-13 6.57013E-14
 -1      3181 1.99757E+01 3.41041E-01-4.80178E-04-6.56407E-01-1.80571E-13 4.93355E-14
 -1      3182 2.00782E+01 2.70959E-01 1.59390E-03-4.93220E-01-1.56292E-13 5.37048E-15
 -1      3183 2.00560E+01 2.55620E-01-1.00435E-03-4.41267E-01-7.09328E-14 2.73780E-14
 -1      3184 1.99759E+01 3.23541E-01-1.32649E-04-5.31505E-01-2.06231E-13 8.27381E-14
 -1      3185 2.00615E+01 2.39846E-01 1.41664E-03-3.90929E-01-1.06314E-13 7.40375E-15
 -1      3186 2.00441E+01 2.21450E-01-9.70065E-04-3.45766E-01-1.10806E-13-8.71288E-14
 -1      3187 1.99819E+01 2.89598E-01 2.88944E-05-4.22107E-01-1.04961E-13-8.75604E-14
 -1      3188 2.00497E+01 2.04035E-01 1.23233E-03-3.03393E-01-1.97894E-13-1.01124E-13
 -1      3189 2.00359E+01 1.85271E-01-8.71082E-04-2.65304E-01-1.10550E-13-2.55569E-13
 -1      3190 1.99894E+01 2.48634E-01 8.66788E-05-3.28832E-01-1.85250E-13-2.16114E-13
 -1      3191 2.00406E+01 1.68239E-01 1.04968E-03-2.30440E-01-4.30753E-14-3.55137E-13
 -1      3192 2.00296E+01 1.50677E-01-7.44940E-04-1.99130E-01-1.88223E-13-3.91655E-13
 -1      3193 1.99962E+01 2.06668E-01 9.18340E-05-2.51132E-01-2.49844E-13-3.98563E-13
 -1      3194 2.00333E+01 1.35150E-01 8.76047E-04-1.71032E-01-1.93938E-13-3.27892E-13
 -1      3195 2.00245E+01 1.19590E-01-6.14430E-04-1.45872E-01-2.01972E-13-4.85574E-13
 -1      3196 2.00014E+01 1.67244E-01 7.41105E-05-1.87750E-01-1.89652E-13-5.64622E-13
 -1      3197 2.00270E+01 1.06084E-01 7.16682E-04-1.23667E-01-1.65985E-14-2.13261E-13
 -1      3198 2.00201E+01 9.28175E-02-4.93651E-04-1.03876E-01 1.15050E-13-1.19371E-13
 -1      3199 2.00049E+01 1.32195E-01 5.06339E-05-1.37053E-01 5.48401E-15-2.23986E-13
 -1      3200 2.00217E+01 8.14497E-02 5.73158E-04-8.66695E-02 4.53267E-14-1.06834E-13
 -1      3201 2.00161E+01 7.04468E-02-3.89266E-04-7.14392E-02 1.13978E-13-9.69240E-14
 -1      3202 2.00068E+01 1.02212E-01 2.84388E-05-9.72733E-02 9.85340E-14-9.03774E-14
 -1      3203 2.00169E+01 6.11132E-02 4.46618E-04-5.84051E-02 1.44817E-13 9.61198E-14
 -1      3204 2.00126E+01 5.22075E-02-2.58307E-04-4.69649E-02 3.94136E-14-6.01878E-16
 -1      3205 2.00074E+01 7.73105E-02 2.88498E-05-6.67075E-02 2.19559E-13 4.45670E-14
 -1      3206 2.00133E+01 4.50367E-02 3.66036E-04-3.83711E-02 3.06370E-14-1.29286E-13
 -1      3207 2.00099E+01 3.78623E-02-1.49586E-04-2.99310E-02 7.74375E-14-1.96793E-13
 -1      3208 2.00068E+01 4.12510E-02-2.01250E-04-2.94708E-02-8.57971E-14 3.49677E-13
 -1      3209 2.00074E+01 5.70930E-02-1.07247E-04-4.48563E-02 4.75689E-15 3.00210E-13
 -1      3210 2.01801E+01 4.12989E-01 8.09190E-04-5.04700E-01 1.53035E-13-1.67273E-13
 -1      3211 2.01886E+01 4.47764E-01 2.24646E-03-3.98130E-01 1.47444E-13-1.40103E-13
 -1      3212 2.01478E+01 4.78259E-01 3.56710E-03-1.25985E+00 9.50845E-14-9.10118E-14
 -1      3213 2.01057E+01 4.56853E-01-2.52491E-03-1.15973E+00 1.48213E-13-6.66425E-14
 -1      3214 2.01466E+01 4.37056E-01 3.02526E-03-1.06185E+00 1.27036E-13-8.78831E-14
 -1      3215 2.01144E+01 4.15584E-01-1.70719E-03-9.68259E-01 9.27719E-14-6.68987E-14
 -1      3216 1.99649E+01 5.32846E-01 8.40807E-04-1.10885E+00 1.25771E-13-1.23775E-13
 -1      3217 2.01863E+01 4.56249E-01 5.26434E-03-1.70543E+00-6.04578E-14-2.87465E-14
 -1      3218 2.01109E+01 4.85669E-01-2.76771E-03-1.59611E+00 2.05327E-14-6.22587E-14
 -1      3219 2.02722E+01 2.94539E-01 6.83024E-03-1.94295E+00-1.12613E-13 4.78463E-14
 -1      3220 2.01554E+01 3.93312E-01-1.38713E-03-1.84040E+00-7.04708E-14 4.98983E-14
 -1      3221 1.97249E+01 5.21989E-01-7.11293E-04-1.79902E+00-1.18421E-13-4.50425E-14
 -1      3222 2.04853E+01-7.00643E-02 9.00442E-03-2.16598E+00-1.57044E-13 3.09666E-14
 -1      3223 2.02896E+01 1.42665E-01 2.22601E-03-2.08906E+00-9.40854E-14 6.56957E-14
 -1      3224 1.96973E+01 3.02406E-01-5.12909E-03-2.08819E+00-9.08719E-14-2.35226E-14
 -1      3225 2.09482E+01-7.33808E-01 1.08488E-02-2.32754E+00-1.78713E-13 1.00228E-14
 -1      3226 2.06155E+01-3.57026E-01 1.01865E-02-2.31139E+00-1.95750E-13 6.88750E-15
 -1      3227 1.98035E+01-1.68278E-01-1.41654E-02-2.40621E+00-1.53381E-13-4.25035E-14
 -1      3228 2.18432E+01-1.75110E+00 1.18065E-02-2.31957E+00-2.41343E-13 1.07584E-13
 -1      3229 2.13053E+01-1.19318E+00 2.61974E-02-2.43033E+00-2.13551E-13 5.36755E-14
 -1      3230 2.02018E+01-1.00751E+00-2.91466E-02-2.72404E+00-2.23940E-13-1.00402E-13
 -1      3231 2.33831E+01-2.97110E+00 1.22555E-02-1.90553E+00-2.98586E-13 2.03019E-13
 -1      3232 2.25889E+01-2.37246E+00 4.70148E-02-2.26752E+00-2.39298E-13 1.13043E-13
 -1      3233 2.11676E+01-2.26043E+00-3.93241E-02-2.92615E+00-2.49023E-13-3.71873E-14
 -1      3234 2.53010E+01-3.60469E+00-2.12322E-02-8.32105E-01-3.32290E-13 2.26319E-13
 -1      3235 2.44236E+01-3.33738E+00 6.59380E-02-1.51687E+00-3.06748E-13 2.53767E-13
 -1      3236 2.28684E+01-3.47960E+00-2.66302E-02-2.58741E+00-3.40945E-13 6.29462E-14
 -1      3237 2.49972E+01-4.25643E+00-7.67506E-02-1.67601E+00-3.00406E-13 1.24130E-13
 -1      3238 2.76736E+01 4.22775E+00-1.22719E-01 1.59803E+00 4.85528E-13 1.07928E-13
 -1      3239 2.62602E+01-3.62254E+00-9.15838E-02 9.33481E-01-6.63185E-14 5.80508E-14
 -1      3240 2.52015E+01-4.40524E+00 8.03441E-02 2.47206E+00 6.98400E-15-4.87457E-14
 -1      3241 2.52537E+01-3.63495E+00 5.06269E-02 1.08422E+00-1.42759E-13 1.06676E-13
 -1      3242 2.62275E+01-3.61108E+00-1.52494E-02 2.78924E-01-1.39777E-13 1.28144E-13
 -1      3243 2.07493E+01-4.69512E-01 1.34634E-02 2.26706E+00-8.48181E-14 3.20535E-13
 -1      3244 2.11173E+01-8.89436E-01 1.20556E-02 2.26835E+00-9.80878E-14 3.69329E-13
 -1      3245 2.03633E+01 1.06498E-01 3.84107E-03 2.03952E+00-4.79231E-14 3.37339E-13
 -1      3246 2.05790E+01-1.41296E-01 9.57320E-03 2.11643E+00-4.92789E-14 2.90763E-13
 -1      3247 1.98596E+01-2.64498E-01-1.51604E-02 2.38992E+00-5.54176E-14 3.99525E-13
 -1      3248 2.02000E+01 4.09176E-01-6.31770E-04 1.77249E+00-1.24234E-13 2.71775E-13
 -1      3249 2.03256E+01 2.86886E-01 7.00055E-03 1.88187E+00-8.44946E-14 2.76294E-13
 -1      3250 1.97006E+01 2.83985E-01-6.27457E-03 2.04787E+00 2.19540E-15 2.60658E-13
 -1      3251 2.01424E+01 5.32360E-01-2.49380E-03 1.50452E+00-1.50334E-14 1.01411E-13
 -1      3252 2.02205E+01 4.89861E-01 5.26274E-03 1.62407E+00-3.74380E-14 1.23836E-13
 -1      3253 1.97028E+01 5.54526E-01-1.16560E-03 1.73119E+00 1.32143E-14-3.73297E-14
 -1      3254 2.01271E+01 5.49713E-01-3.06773E-03 1.25273E+00 1.77552E-14-5.13476E-14
 -1      3255 2.01819E+01 5.52622E-01 4.14577E-03 1.37013E+00 3.52902E-14 1.59162E-13
 -1      3256 1.97657E+01 6.49737E-01 1.03273E-03 1.44757E+00 6.68306E-14-2.22638E-13
 -1      3257 2.01237E+01 5.11278E-01-3.01706E-03 1.02513E+00 3.86314E-14-2.57944E-13
 -1      3258 2.01671E+01 5.37089E-01 3.46602E-03 1.13355E+00 3.44479E-14-1.30367E-13
 -1      3259 1.98401E+01 6.44695E-01 1.68614E-03 1.19629E+00 1.25125E-13 2.38340E-14
 -1      3260 2.01199E+01 4.48074E-01-2.68967E-03 8.25251E-01 1.70641E-13-2.55661E-13
 -1      3261 2.01570E+01 4.83190E-01 3.01033E-03 9.21300E-01 4.57421E-14-2.17400E-13
 -1      3262 1.99051E+01 5.88375E-01 1.62944E-03 9.75841E-01 6.66101E-15-2.68471E-13
 -1      3263 2.01121E+01 3.77898E-01-2.27015E-03 6.53872E-01 1.66573E-14-9.27730E-14
 -1      3264 2.01447E+01 4.14698E-01 2.64729E-03 7.36360E-01 5.21252E-14-2.18946E-13
 -1      3265 1.99542E+01 5.10597E-01 1.30498E-03 7.84957E-01 1.04009E-14-2.54056E-13
 -1      3266 2.01008E+01 3.10164E-01-1.85015E-03 5.09961E-01-1.42561E-15 2.22524E-13
 -1      3267 2.01293E+01 3.44727E-01 2.31587E-03 5.79072E-01 4.28987E-14 5.37606E-14
 -1      3268 1.99877E+01 4.28335E-01 9.33816E-04 6.22197E-01-7.30187E-14-1.30030E-14
 -1      3269 2.00873E+01 2.49313E-01-1.47057E-03 3.91354E-01 4.36978E-14 2.97203E-13
 -1      3270 2.01118E+01 2.79884E-01 1.99667E-03 4.48075E-01 1.07133E-13 2.99182E-13
 -1      3271 2.00085E+01 3.50501E-01 6.08669E-04 4.85695E-01-3.92631E-14 3.84852E-13
 -1      3272 2.00732E+01 1.96977E-01-1.14652E-03 2.95251E-01-1.08363E-13 2.01651E-13
 -1      3273 2.00939E+01 2.23007E-01 1.69065E-03 3.40977E-01-2.63305E-14 2.71749E-13
 -1      3274 2.00199E+01 2.81223E-01 3.57373E-04 3.73102E-01 6.03744E-14 2.25912E-13
 -1      3275 2.00597E+01 1.53276E-01-8.79843E-04 2.18605E-01-5.89895E-14-1.81681E-14
 -1      3276 2.00767E+01 1.74856E-01 1.40473E-03 2.54876E-01-6.35012E-14 9.71132E-14
 -1      3277 2.00248E+01 2.21914E-01 1.79165E-04 2.81719E-01-9.02727E-14-2.55706E-14
 -1      3278 2.00474E+01 1.17574E-01-6.66156E-04 1.58398E-01-1.41727E-13-1.05989E-13
 -1      3279 2.00611E+01 1.35108E-01 1.14568E-03 1.86732E-01-8.51514E-14-9.43441E-14
 -1      3280 2.00256E+01 1.72506E-01 6.16058E-05 2.08701E-01-1.63828E-14-1.04490E-13
 -1      3281 2.00367E+01 8.88974E-02-5.01104E-04 1.11811E-01-9.60438E-14-1.57476E-13
 -1      3282 2.00476E+01 1.02922E-01 9.18494E-04 1.33611E-01-1.40681E-13-1.38959E-13
 -1      3283 2.00240E+01 1.32184E-01-1.09430E-05 1.51248E-01-1.84583E-13 3.09974E-14
 -1      3284 2.00278E+01 6.61868E-02-3.58007E-04 7.63611E-02 7.59832E-14-1.39678E-13
 -1      3285 2.00362E+01 7.72436E-02 7.24601E-04 9.28437E-02 1.12237E-13-9.03914E-14
 -1      3286 2.00211E+01 9.97762E-02-5.84639E-05 1.06736E-01-4.18467E-14 2.86649E-14
 -1      3287 2.00207E+01 4.86699E-02-1.01616E-04 4.99683E-02 7.56137E-14-2.25003E-13
 -1      3288 2.00268E+01 5.69887E-02 5.59456E-04 6.20521E-02 5.76025E-14-1.77187E-13
 -1      3289 2.00175E+01 7.40918E-02-1.14406E-04 7.29066E-02 1.00862E-13-5.82790E-14
 -1      3290 1.99321E+01 2.37612E+00-4.35356E-03 2.31188E-01 1.27795E-13-4.35837E-13
 -1      3291 1.99091E+01 2.42005E+00-3.92030E-03 1.33122E-01 8.56384E-14-4.41683E-13
 -1      3292 2.02134E+01 4.98958E-01-4.18064E-04-2.83888E-01 1.48526E-13-1.27300E-13
 -1      3293 2.02395E+01 5.73674E-01 3.42992E-03-1.51267E-01 1.88810E-13-1.24935E-13
 -1      3294 2.02100E+01 5.76706E-01-1.14130E-03-3.22267E-01 1.69740E-13-1.37936E-13
 -1      3295 1.99811E+01 7.31988E-02-1.31321E-04-2.34906E-03 6.09737E-14-1.31772E-13
 -1      3296 1.99811E+01 7.32620E-02-1.34931E-04 2.53907E-03 2.27479E-13 9.49532E-14
 -1      3297 1.99983E+01 5.07201E-02-3.04564E-06-2.54718E-02 8.37505E-14 4.52315E-13
 -1      3298 1.99942E+01 5.55797E-02-2.93594E-04-2.41225E-02 1.25403E-13 2.29287E-13
 -1      3299 1.99840E+01 6.98141E-02-2.55285E-05-1.26947E-02 2.32450E-13 9.47646E-14
 -1      3300 1.99820E+01 7.16294E-02-2.22396E-04-8.32563E-03 1.09485E-13-3.53025E-14
 -1      3301 1.99777E+01 8.49157E-02 3.51604E-04-6.42611E-03 1.70202E-13-1.24808E-13
 -1      3302 2.05830E+01-4.05220E+00 3.28653E-03 4.38700E+00-2.80692E-13 3.80911E-14
 -1      3303 1.81851E+01-3.33466E+00 6.81096E-02 4.92485E+00-2.39468E-13 8.43353E-14
 -1      3304 2.51712E+01 4.95291E+00-1.00121E-01 1.41700E-01-2.91919E-13-2.26801E-13
 -1      3305 2.53936E+01 4.70729E+00-9.90854E-02-9.58108E-01-1.55570E-13-6.32463E-14
 -1      3306 1.99902E+01 6.20829E-02 6.85184E-05-2.09992E-02 2.25222E-13 1.25614E-13
 -1      3307 1.99866E+01 6.55271E-02-2.86554E-04-1.77472E-02 2.31003E-13 7.16098E-14
 -1      3308 1.99821E+01 7.93210E-02 3.17184E-04-1.83190E-02 1.84400E-13 6.72905E-14
 -1      3309 1.99903E+01 6.89878E-02 2.57228E-04-2.72839E-02 1.69998E-13 4.31946E-14
 -1      3310 1.22123E+01-1.28067E+00 4.44050E-02 4.56604E+00 1.73632E-13-3.01426E-13
 -1      3311 1.05566E+01-2.61966E-01 9.66943E-02 2.96643E+00 2.17482E-13-4.11490E-13
 -1      3312 2.15457E+01-1.39478E+00 3.16611E-02 2.36286E+00-2.14301E-13 3.66541E-13
 -1      3313 2.21297E+01-1.99472E+00 8.93330E-03 2.21495E+00-2.12499E-13 3.33622E-13
 -1      3314 2.03624E+01-1.18799E+00-2.13473E-02 2.71374E+00-1.78104E-13 3.30330E-13
 -1      3315 2.30283E+01-2.61174E+00 5.26935E-02 2.08150E+00-1.59833E-13 2.18317E-13
 -1      3316 2.38524E+01-3.21398E+00 1.15349E-03 1.66263E+00-1.35052E-13 1.21418E-13
 -1      3317 2.37315E+01-3.85823E+00-3.09995E-02 2.26777E+00-1.93163E-13 7.35349E-14
 -1      3318 2.15452E+01-2.51684E+00-2.41249E-02 2.83730E+00-2.60209E-13 3.09031E-13
 -1      3319 2.00068E+01 3.26777E-02 9.59513E-05 2.04091E-02 3.28470E-13-5.06439E-13
 -1      3320 2.01564E+01 4.97723E-01 4.22190E-03-1.47495E+00 8.42912E-14-7.03949E-14
 -1      3321 2.01021E+01 4.90846E-01-2.96140E-03-1.36823E+00 8.71353E-14-7.02010E-14
 -1      3322 1.98864E+01 5.77008E-01 1.15790E-03-1.31443E+00 7.85694E-14-3.47616E-14
 -1      3323 1.98013E+01 5.89240E-01 8.59492E-04-1.54264E+00 1.68298E-14-3.17805E-14
 -1      3324 2.78096E+01-2.56263E+00-1.06643E-01-1.23334E+00-8.49251E-14-5.23262E-14
 -1      3325 2.02984E+01 8.59026E-01 2.94595E-03-1.24189E-01-1.56523E-13-3.32685E-13
 -1      3326 2.02677E+01 7.17271E-01-2.31571E-03 3.76806E-02-1.24575E-13-3.18604E-13
 -1      3327 2.02650E+01 7.84779E-01-3.83856E-04 8.43225E-02-1.08756E-13-3.02125E-13
 -1      3328 9.44140E+00 2.28931E-01 7.50316E-02 7.74183E-01 1.77223E-13-5.72625E-13
 -1      3329 9.09615E+00 1.25927E-01 1.40621E-01-1.22222E+00 8.87970E-14-7.05505E-13
 -1      3330 9.81639E+00-3.20902E-01 1.05883E-01-2.61504E+00-8.31279E-14-7.65027E-13
 -1      3331 1.15318E+01-1.15182E+00 4.76453E-02-4.13963E+00-1.45717E-13-6.14925E-13
 -1      3332 1.12315E+01 2.43514E-01 1.30939E-01-1.83154E+00-7.89317E-14-5.82728E-13
 -1      3333 1.71848E+01-3.17847E+00 1.39920E-02 5.32870E+00 1.53315E-13-1.99819E-13
 -1      3334 1.47014E+01-2.08312E+00 1.21120E-01 5.13269E+00 1.80363E-13-2.59730E-13
 -1      3335 2.02105E+01 1.98025E+00 8.42218E-04-8.76206E-01-2.04796E-13-4.53904E-13
 -1      3336 2.03428E+01 1.08480E+00-9.48383E-04 5.21221E-01 3.13851E-13-1.31693E-13
 -1      3337 2.03009E+01 1.41651E+00 3.78763E-03 6.08611E-01 3.21716E-13-1.79527E-13
 -1      3338 2.03018E+01 1.26830E+00 5.66333E-03 4.13698E-01 2.75912E-13-1.69407E-13
 -1      3339 2.02979E+01 8.89339E-01-2.63605E-03 2.89514E-01 2.77242E-13-1.44362E-13
 -1      3340 2.58653E+01 3.84361E+00-6.78213E-02 1.70040E+00-4.17957E-13-3.40672E-13
 -1      3341 2.51798E+01 4.64074E+00-1.50356E-01 9.01928E-01-4.40148E-13-2.62347E-13
 -1      3342 2.59516E+01-4.56495E+00-5.97684E-02 1.58190E+00-2.42743E-13 8.07895E-14
 -1      3343 2.36319E+01-4.60129E+00 4.31271E-02 3.14448E+00-1.97904E-13 9.17686E-14
 -1      3344 2.73169E+01 2.92924E-01-4.58939E-02 1.90174E+00-1.41984E-13-4.52319E-13
 -1      3345 2.65827E+01 1.79183E+00-1.18502E-01 2.16838E+00-2.37699E-13-3.73243E-13
 -1      3346 1.85703E+01-3.48277E+00 1.22292E-01-5.17548E+00 1.91767E-13-5.79786E-13
 -1      3347 2.03849E+01-4.21160E+00 1.38282E-02-4.84650E+00 1.71203E-13-5.79398E-13
 -1      3348 1.39219E+01-2.02258E+00 1.36961E-01-4.95398E+00-1.80092E-13-4.57287E-13
 -1      3349 1.68456E+01-3.21328E+00 2.53695E-02-5.26176E+00-2.55927E-13-2.89366E-13
 -1      3350 1.98980E+01 2.44182E+00-3.88472E-03 5.77134E-02 6.64749E-14-4.24164E-13
 -1      3351 1.98978E+01 2.44151E+00-3.91838E-03-4.21834E-02 2.08242E-14-4.31279E-13
 -1      3352 1.99923E+01 2.17669E+00 5.64225E-03 7.63443E-02 5.26205E-14-4.00220E-13
 -1      3353 1.67703E+01-2.44581E+00 7.10429E-02 4.81062E+00-2.76140E-13 6.58570E-14
 -1      3354 1.54096E+01-1.39580E+00 4.16196E-02 4.22447E+00-3.04982E-13 8.12059E-14
 -1      3355 1.84105E+01-2.37642E+00 6.60432E-02 4.17964E+00-3.00961E-13 5.51191E-14
 -1      3356 2.53284E+01 1.08136E+00-4.42248E-02-2.12827E+00-6.73836E-14 1.44811E-13
 -1      3357 1.13096E+01-4.29460E-01 1.55731E-01-3.67339E+00 8.21461E-14 7.23033E-14
 -1      3358 1.34855E+01-9.06164E-01 7.57736E-02-4.04490E+00 2.04722E-13-1.92187E-13
 -1      3359 1.99947E+01 5.61792E-02-3.25134E-04 2.45068E-02 9.89298E-14-4.39425E-13
 -1      3360 1.99994E+01 5.16846E-02 2.04837E-04 2.59139E-02 2.20561E-13-4.36651E-13
 -1      3361 2.44718E+01 4.12803E+00-6.27275E-02 3.79801E-01-2.91003E-13-1.25882E-13
 -1      3362 2.00639E+01 2.10386E+00-3.33965E-03-4.55137E-01-9.47880E-14-4.75953E-13
 -1      3363 2.01241E+01 1.95892E+00-6.33058E-03-5.42628E-01-1.36788E-13-4.69757E-13
 -1      3364 2.03118E+01 1.21906E+00-5.00586E-04-4.56819E-01-2.07203E-13-3.81201E-13
 -1      3365 2.02898E+01 1.02361E+00-3.56562E-03-2.66744E-01-1.86356E-13-3.67522E-13
 -1      3366 2.02849E+01 1.09356E+00 1.17305E-03-1.96362E-01-1.56999E-13-3.55507E-13
 -1      3367 2.36711E+01 3.30715E+00-5.63715E-02-8.69940E-01-1.32512E-13-1.15446E-14
 -1      3368 2.36236E+01 3.56935E+00-4.69910E-02-1.65400E-01-1.96700E-13-3.30992E-14
 -1      3369 1.99777E+01 8.51642E-02 3.52498E-04 6.56162E-03 2.54405E-13 1.18770E-13
 -1      3370 1.99821E+01 7.19171E-02-2.23647E-04 8.63019E-03 1.99378E-13 2.41770E-13
 -1      3371 1.99842E+01 7.01510E-02-3.03363E-05 1.30839E-02 4.76703E-14 1.75091E-14
 -1      3372 2.02344E+01 1.67212E+00-1.62504E-03-6.59602E-01-2.00474E-13-4.27179E-13
 -1      3373 2.70004E+01-3.47164E+00 3.41504E-02-6.38927E-02-2.25632E-13 3.19189E-14
 -1      3374 9.50027E+00-1.27733E-01 9.40972E-02 2.15073E+00-1.60292E-13 1.46161E-13
 -1      3375 8.61104E+00 1.94153E-01 1.20815E-01 2.60902E-01-8.05588E-14 2.04586E-13
 -1      3376 2.00337E+01 4.88905E-01 2.67039E-04-9.18682E-01 9.49335E-14-1.47309E-13
 -1      3377 2.01498E+01 4.00246E-01 2.45431E-03-8.76911E-01 6.06509E-14-7.78086E-14
 -1      3378 2.01284E+01 3.88831E-01-6.21852E-04-7.86460E-01 8.12759E-14-1.10582E-13
 -1      3379 1.45349E+01-1.31094E+00 8.40891E-02 4.32381E+00 1.50290E-13-3.00107E-13
 -1      3380 2.00184E+01 4.46391E-02 3.44395E-04 4.20327E-02-9.18856E-15-2.51285E-13
 -1      3381 2.00127E+01 5.74754E-02-2.75070E-04 5.00771E-02 4.26076E-14-3.39560E-13
 -1      3382 2.00145E+01 4.10464E-02 1.22436E-04 3.55784E-02 5.49900E-14-2.78047E-13
 -1      3383 1.99664E+01 2.30918E+00-3.87130E-03 3.03435E-01 1.49628E-13-4.28769E-13
 -1      3384 2.00363E+01 2.08872E+00 6.11705E-03 2.07797E-01 1.11344E-13-4.06299E-13
 -1      3385 2.00102E+01 2.21830E+00-5.13276E-03 3.96904E-01 1.85565E-13-4.06689E-13
 -1      3386 1.99870E+01 6.59960E-02-2.91298E-04 1.81331E-02-4.57537E-14-5.40737E-13
 -1      3387 1.99907E+01 6.26067E-02 6.81703E-05 2.13436E-02 4.56735E-14-5.64410E-13
 -1      3388 1.99908E+01 6.98739E-02 2.73158E-04 2.75176E-02-6.08038E-14-5.09305E-13
 -1      3389 1.99824E+01 7.99389E-02 3.21179E-04 1.85998E-02 5.77956E-14-1.64695E-13
 -1      3390 2.02209E+01 1.63371E+00 6.81338E-03 4.21424E-01 2.42018E-13-2.56957E-13
 -1      3391 2.01241E+01 1.96061E+00-6.38477E-03 5.44136E-01 2.62026E-13-3.02131E-13
 -1      3392 2.00645E+01 2.10495E+00-3.49853E-03 4.62128E-01 2.21357E-13-3.51426E-13
 -1      3393 1.75070E+01-2.70221E+00 9.54665E-02-4.87242E+00 2.40891E-13-5.34968E-13
 -1      3394 2.50521E+01 3.66494E+00-7.41692E-02-1.33237E+00-1.36877E-13 1.65970E-14
 -1      3395 1.22726E+01 1.74356E-01 6.64556E-02 2.39030E+00 1.73116E-13-4.15418E-13
 -1      3396 1.06819E+01 3.20496E-01 1.18850E-01 1.79038E+00 1.81728E-13-4.92710E-13
 -1      3397 1.12764E+01 6.58005E-01 5.41028E-02 5.30671E-01 8.49407E-14-4.88748E-13
 -1      3398 1.87706E+01-3.46463E+00 8.88794E-02 4.98945E+00 1.66846E-13-2.12448E-13
 -1      3399 1.78581E+01-2.58859E+00 2.42534E-02 4.59548E+00 1.22631E-13-1.58019E-13
 -1      3400 2.01300E+01-3.85854E+00-4.67040E-02 4.45931E+00 1.77611E-13-2.22794E-13
 -1      3401 2.61858E+01 2.62819E-01-9.03037E-02-1.97191E+00-1.10727E-13 1.15321E-13
 -1      3402 2.22905E+01-4.01837E+00 4.81909E-02 3.49585E+00-2.78361E-13 2.16729E-13
 -1      3403 2.12295E+01-3.26699E+00 2.59873E-02 3.55587E+00-3.22856E-13 2.26005E-13
 -1      3404 2.18136E+01-4.16073E+00 1.81583E-02-3.86223E+00 1.99875E-13-4.86880E-13
 -1      3405 2.36836E+01-4.41498E+00 3.69917E-02 3.04927E+00 1.37376E-13-1.02775E-13
 -1      3406 2.65454E+01-2.86449E+00-1.12000E-02-3.29938E-03-9.87543E-14 1.72265E-13
 -1      3407 2.54745E+01-3.33990E+00-1.16666E-02 6.16253E-01 2.61761E-14 1.56195E-13
 -1      3408 2.61128E+01-2.05823E+00-5.94226E-02-8.53454E-01-8.01234E-14 2.68043E-13
 -1      3409 2.45040E+01-4.10502E+00 2.47109E-02-2.14000E+00 2.95656E-13-2.85950E-13
 -1      3410 2.59728E+01-3.93664E+00-1.77877E-02-1.36154E+00 3.32373E-13-2.99837E-13
 -1      3411 2.60334E+01-3.14147E+00-6.50533E-02-2.11805E-01 2.30210E-13-3.70946E-13
 -1      3412 2.00039E+01 4.30736E-02-3.80751E-04 2.67905E-02 2.61277E-13-5.02700E-13
 -1      3413 2.00101E+01 3.55810E-02 1.91206E-04 2.60427E-02 1.89587E-13-4.82070E-13
 -1      3414 2.00129E+01 3.90995E-02 3.46497E-04 3.12435E-02 1.67665E-13-3.68589E-13
 -1      3415 2.00018E+01 5.55420E-02 1.89889E-04 3.21846E-02 1.43662E-13-4.59191E-13
 -1      3416 1.33061E+01-5.29952E-01 4.41178E-02 3.47976E+00-1.31332E-13 2.06231E-13
 -1      3417 1.13519E+01-2.20906E-01 1.41180E-01 2.99732E+00-1.65416E-13 7.81042E-14
 -1      3418 1.14680E+01 2.99795E-01 5.32283E-02 2.01640E+00-9.41885E-14 1.27516E-13
 -1      3419 2.00038E+01 4.48822E-02-1.23318E-04-2.85454E-02 3.02967E-16 3.94438E-13
 -1      3420 2.00009E+01 4.74860E-02-1.73810E-04-2.71243E-02 4.87191E-15 4.59414E-13
 -1      3421 1.99981E+01 5.96225E-02 2.13176E-04-3.23292E-02 2.42783E-13 3.79343E-13
 -1      3422 2.00047E+01 5.29793E-02 2.90705E-04-3.53466E-02-8.31682E-15 4.09215E-13
 -1      3423 1.89338E+01-3.47115E+00 9.97536E-02-4.86681E+00-2.98039E-13-1.95288E-13
 -1      3424 2.06628E+01-3.68650E+00-2.38953E-03-4.05065E+00-3.26284E-13-1.46924E-13
 -1      3425 1.78720E+01-2.52014E+00 5.50819E-02-4.53503E+00-2.77653E-13-1.72719E-13
 -1      3426 2.01598E+01 3.86657E-01 1.74953E-03-6.95912E-01 8.70329E-14-1.19739E-13
 -1      3427 2.01517E+01 3.93761E-01 7.02648E-04-6.02187E-01 1.16614E-13-1.49336E-13
 -1      3428 2.00952E+01 4.68280E-01-3.31676E-04-7.33874E-01 7.48009E-14-1.57064E-13
 -1      3429 2.43624E+01-4.55449E+00-5.85701E-03-2.57326E+00-2.71172E-13-1.74097E-13
 -1      3430 1.40467E+01-1.13441E+00 1.21815E-01-4.06774E+00-2.20157E-13-4.82517E-13
 -1      3431 2.01534E+01 4.90488E-01-8.35332E-04-5.40864E-01 1.15382E-13-1.77072E-13
 -1      3432 2.67491E+01-8.59412E-01-1.97134E-02 1.43112E+00-1.69344E-14-3.80557E-13
 -1      3433 2.02539E+01 6.44206E-01-8.23260E-04-3.16802E-02 2.12724E-13-1.26848E-13
 -1      3434 2.02947E+01 7.68475E-01 3.69919E-03 1.42628E-01 2.46519E-13-1.31528E-13
 -1      3435 2.02940E+01 9.24587E-01-4.93089E-03 2.02979E-01 2.52225E-13-1.19638E-13
 -1      3436 2.02589E+01 7.22628E-01-1.77559E-03-7.87935E-02 2.04314E-13-1.11720E-13
 -1      3437 8.98415E+00 3.00190E-01 1.67502E-01-9.72156E-01-2.82318E-14 2.54033E-13
 -1      3438 9.95984E+00-2.14366E-01 8.21639E-02-2.73068E+00 6.97706E-15 1.85102E-13
 -1      3439 1.12892E+01 2.40154E-01 4.00851E-02-2.27773E+00 6.69638E-14 5.19029E-15
 -1      3440 1.02732E+01 4.93709E-01 1.01862E-01-1.72693E-01-5.85001E-14 2.15578E-13
 -1      3441 1.99673E+01 2.30709E+00-3.55210E-03-2.91050E-01-4.48571E-14-5.03732E-13
 -1      3442 2.00101E+01 2.21702E+00-4.82491E-03-3.87888E-01-7.48779E-14-5.05358E-13
 -1      3443 2.01171E+01 1.90083E+00 4.88775E-03-3.17094E-01-8.62954E-14-4.74514E-13
 -1      3444 2.02293E+01 1.53021E+00 3.00195E-03-3.67393E-01-1.50807E-13-4.15763E-13
 -1      3445 2.02090E+01 1.71353E+00 9.12409E-04-5.41549E-01-1.71185E-13-4.28961E-13
 -1      3446 2.01615E+01 5.63141E-01 6.15757E-04 4.47270E-01-9.50845E-14-3.34568E-13
 -1      3447 2.01351E+01 5.12727E-01 3.04318E-05 5.38898E-01-1.09094E-13-3.08924E-13
 -1      3448 2.00900E+01 4.74352E-01 5.43465E-05 6.20936E-01-8.27740E-14-2.88108E-13
 -1      3449 2.00688E+01 4.44137E-01 9.28306E-04 7.01805E-01-1.90534E-14-2.54303E-13
 -1      3450 2.00708E+01 5.68977E-01 1.79788E-04 5.49541E-01-5.70206E-14-2.73720E-13
 -1      3451 2.00194E+01 4.18200E-01-3.96060E-04 7.80433E-01-2.37948E-14-2.60974E-13
 -1      3452 2.00074E+01 3.94257E-01 1.74644E-03 8.55865E-01-3.01572E-14-2.91391E-13
 -1      3453 1.99750E+01 4.99712E-01-1.35988E-04 7.11988E-01-4.03402E-14-2.84651E-13
 -1      3454 1.99603E+01 3.66796E-01-5.27756E-04 9.36014E-01 2.35828E-16-3.03878E-13
 -1      3455 1.99631E+01 3.34518E-01 2.57351E-03 1.00901E+00 6.34272E-16-2.72561E-13
 -1      3456 1.98784E+01 4.45747E-01-6.35222E-04 8.72879E-01-1.64481E-14-3.52201E-13
 -1      3457 1.99271E+01 2.90507E-01-1.80541E-04 1.09416E+00-1.12355E-14-2.49717E-13
 -1      3458 1.99538E+01 2.33605E-01 3.48553E-03 1.16506E+00 7.46791E-15-2.16272E-13
 -1      3459 1.97945E+01 3.75797E-01-1.54930E-03 1.04151E+00 2.64331E-14-3.10109E-13
 -1      3460 1.99426E+01 1.56123E-01 8.97009E-04 1.25666E+00-1.51737E-14-1.66763E-13
 -1      3461 2.00068E+01 5.61888E-02 4.50392E-03 1.32232E+00-1.54493E-14-1.44355E-13
 -1      3462 1.97437E+01 2.54810E-01-3.19675E-03 1.22459E+00 2.36805E-14-2.60107E-13
 -1      3463 2.00417E+01-7.32193E-02 3.14178E-03 1.41835E+00-2.52075E-14-1.64873E-13
 -1      3464 2.01631E+01-2.35811E-01 5.43475E-03 1.47037E+00 6.23969E-15-1.50761E-13
 -1      3465 1.97574E+01 4.26895E-02-5.97867E-03 1.42444E+00-8.21280E-15-2.57934E-13
 -1      3466 2.02771E+01-4.34667E-01 7.24028E-03 1.56160E+00 3.67988E-14-1.87059E-13
 -1      3467 2.04802E+01-6.76413E-01 5.58833E-03 1.58292E+00 2.81099E-14-1.62014E-13
 -1      3468 1.98851E+01-3.05169E-01-1.04103E-02 1.63485E+00-2.77179E-15-2.12509E-13
 -1      3469 2.07191E+01-9.53142E-01 1.34458E-02 1.64586E+00 4.17609E-14-1.24925E-13
 -1      3470 2.10275E+01-1.27603E+00 3.32546E-03 1.60634E+00 5.42886E-14-7.40388E-14
 -1      3471 2.02004E+01-8.27158E-01-1.64932E-02 1.82868E+00 7.72248E-14-2.29121E-13
 -1      3472 2.14520E+01-1.61691E+00 2.26648E-02 1.59298E+00 5.82698E-14-8.69884E-14
 -1      3473 2.18701E+01-1.98726E+00-4.25006E-03 1.44273E+00 1.22253E-13-4.15466E-14
 -1      3474 2.07999E+01-1.54467E+00-2.66310E-02 1.94491E+00 3.72505E-14-1.20972E-13
 -1      3475 2.25370E+01-2.31898E+00 3.14538E-02 1.25376E+00 1.52971E-13-5.27356E-16
 -1      3476 2.30198E+01-2.59389E+00-1.45593E-02 9.32362E-01 1.55102E-13 6.68315E-14
 -1      3477 2.18085E+01-2.39375E+00-3.43769E-02 1.85307E+00 1.70390E-13-6.05501E-14
 -1      3478 2.50733E+01-2.28042E+00 3.49278E-03-6.35054E-01 5.66786E-14 2.54616E-13
 -1      3479 2.54049E+01-1.53332E+00-2.37332E-02-1.17947E+00 1.10814E-14 2.53539E-13
 -1      3480 1.40262E+01-4.08128E-01 4.29833E-03-3.42472E+00 1.51837E-13-2.33594E-13
 -1      3481 1.52774E+01-1.28730E+00 3.07173E-02-4.29849E+00 2.34160E-13-4.30982E-13
 -1      3482 2.54780E+01 1.17837E+00-2.90207E-02 2.11659E+00-2.53079E-13-3.00980E-13
 -1      3483 2.53664E+01-2.23095E-01-1.15074E-01 1.94548E+00-1.09555E-13-2.84088E-13
 -1      3484 2.53547E+01-2.17393E+00-7.79918E-03 5.99697E-01 1.11836E-13-2.55254E-13
 -1      3485 2.48914E+01-2.75669E+00 2.26438E-02 8.09404E-03 2.20298E-13-1.86712E-13
 -1      3486 2.28262E+01-2.43207E+00-1.70001E-04-9.68511E-01 6.97515E-14-1.04562E-13
 -1      3487 2.23004E+01-2.14405E+00 2.76286E-02-1.28041E+00 7.67220E-14-1.86173E-13
 -1      3488 2.16840E+01-1.78506E+00 1.47900E-03-1.40217E+00 7.05326E-14-2.03814E-13
 -1      3489 2.12819E+01-1.42480E+00 2.22907E-02-1.52553E+00 1.26702E-13-1.61044E-13
 -1      3490 2.15767E+01-2.10876E+00-1.59288E-02-1.79236E+00 4.14762E-14-1.00900E-13
 -1      3491 2.08812E+01-1.09075E+00 2.87585E-03-1.52038E+00 1.70067E-13-1.11801E-13
 -1      3492 2.05917E+01-7.75416E-01 1.24600E-02-1.53840E+00 1.18713E-13 2.50683E-14
 -1      3493 2.06354E+01-1.33881E+00-2.54398E-02-1.85056E+00 1.32798E-13-1.10780E-13
 -1      3494 2.03699E+01-5.10046E-01 5.37795E-03-1.45995E+00-1.95603E-14 2.93659E-14
 -1      3495 2.01783E+01-2.81219E-01 6.27329E-03-1.42357E+00 3.09407E-14-9.33762E-14
 -1      3496 2.00738E+01-6.38231E-01-1.49571E-02-1.69960E+00 8.27061E-14-3.69431E-14
 -1      3497 2.00693E+01-9.46651E-02 4.85044E-03-1.32305E+00 1.45624E-13-3.23899E-14
 -1      3498 1.99530E+01 5.56197E-02 2.53685E-03-1.25975E+00 6.95602E-14 1.08687E-13
 -1      3499 1.97784E+01-1.45726E-01-9.15772E-03-1.48619E+00 1.02224E-13 1.15088E-13
 -1      3500 1.99138E+01 1.73026E-01 3.97574E-03-1.15706E+00 6.06768E-14 1.89775E-13
 -1      3501 1.98482E+01 2.60528E-01 4.34807E-04-1.08315E+00 8.43268E-14 3.00619E-13
 -1      3502 1.96494E+01 1.74347E-01-4.94799E-03-1.26362E+00 1.29741E-13 1.67486E-13
 -1      3503 1.98487E+01 3.24767E-01 3.10423E-03-9.87072E-01-7.37009E-14 3.21945E-13
 -1      3504 1.98149E+01 3.66611E-01-7.12609E-04-9.11639E-01-8.53277E-14 1.29899E-13
 -1      3505 1.96193E+01 3.58476E-01-2.29695E-03-1.05545E+00-2.36756E-14 2.80285E-13
 -1      3506 1.98356E+01 3.93319E-01 2.39837E-03-8.25439E-01-3.66985E-15 4.99629E-14
 -1      3507 1.98205E+01 4.04324E-01-1.27969E-03-7.53495E-01-1.43914E-14-3.46289E-14
 -1      3508 1.96428E+01 4.45087E-01-7.56885E-04-8.69416E-01-6.37259E-14 2.18680E-13
 -1      3509 1.98497E+01 4.06402E-01 1.88168E-03-6.78043E-01-1.18036E-13-1.02483E-13
 -1      3510 1.98446E+01 3.98083E-01-1.49792E-03-6.12327E-01-2.55937E-13-1.33131E-15
 -1      3511 1.96915E+01 4.66230E-01 7.82788E-05-7.06999E-01-1.34323E-13-4.73672E-15
 -1      3512 1.98754E+01 3.85303E-01 1.51105E-03-5.47525E-01-2.54781E-13 1.52576E-14
 -1      3513 1.98752E+01 3.66084E-01-1.50960E-03-4.89413E-01-1.28620E-13 5.87053E-14
 -1      3514 1.97484E+01 4.46453E-01 4.89829E-04-5.67411E-01-2.12903E-13-1.27410E-13
 -1      3515 1.99038E+01 3.45456E-01 1.23653E-03-4.34700E-01-1.07715E-13-5.14204E-14
 -1      3516 1.99055E+01 3.21191E-01-1.40454E-03-3.84660E-01-1.58682E-13-1.09215E-13
 -1      3517 1.98039E+01 4.03584E-01 6.44813E-04-4.49136E-01-1.88781E-13 1.06688E-14
 -1      3518 1.99303E+01 2.97459E-01 1.02411E-03-3.39204E-01-1.82027E-13-2.35818E-13
 -1      3519 1.99322E+01 2.71982E-01-1.24125E-03-2.97097E-01-2.18645E-13-2.12275E-13
 -1      3520 1.98532E+01 3.50043E-01 6.55434E-04-3.50306E-01-2.11102E-13-1.53182E-13
 -1      3521 1.99525E+01 2.48162E-01 8.51338E-04-2.59926E-01-3.73914E-13-1.99910E-13
 -1      3522 1.99541E+01 2.23811E-01-1.05655E-03-2.25226E-01-3.79839E-13-3.25068E-13
 -1      3523 1.98943E+01 2.93991E-01 5.93043E-04-2.68885E-01-3.24199E-13-1.94901E-13
 -1      3524 1.99701E+01 2.01666E-01 7.05338E-04-1.95304E-01-1.61543E-13-3.75545E-13
 -1      3525 1.99710E+01 1.79716E-01-8.73730E-04-1.67260E-01-1.10362E-13-3.18460E-13
 -1      3526 1.99271E+01 2.40431E-01 5.00768E-04-2.02779E-01-2.74046E-13-2.46685E-13
 -1      3527 1.99831E+01 1.60134E-01 5.79770E-04-1.43560E-01 8.86779E-14-1.08456E-13
 -1      3528 1.99833E+01 1.41146E-01-7.05094E-04-1.21321E-01 1.96585E-13 7.01752E-14
 -1      3529 1.99521E+01 1.92100E-01 4.01275E-04-1.49909E-01 7.92768E-14 1.11292E-13
 -1      3530 1.99922E+01 1.24449E-01 4.70534E-04-1.02860E-01 1.32091E-13 7.56598E-14
 -1      3531 1.99919E+01 1.08523E-01-5.54037E-04-8.55624E-02 2.02599E-13 2.52780E-13
 -1      3532 1.99703E+01 1.50222E-01 3.10666E-04-1.08292E-01 1.69567E-13 2.66920E-13
 -1      3533 1.99980E+01 9.44794E-02 3.27535E-04-7.14139E-02 2.45477E-13 2.81204E-14
 -1      3534 1.99976E+01 8.15952E-02-3.26099E-04-5.84212E-02 1.70041E-13 7.37894E-14
 -1      3535 1.99832E+01 1.15041E-01 2.59731E-04-7.60337E-02 8.24937E-14 2.76065E-13
 -1      3536 1.16727E+01 6.07867E-01 3.83489E-02-1.10917E+00-3.45227E-14-5.17017E-13
 -1      3537 1.23691E+01 1.87921E-01 2.24042E-02-2.40525E+00-1.47229E-13-5.11445E-13
 -1      3538 1.97881E+01 6.26964E-01 1.78427E-03-1.09596E+00 9.71044E-14-1.04434E-13
 -1      3539 1.98238E+01 5.97645E-01-2.92872E-03-1.00040E+00 1.09358E-13-1.35405E-13
 -1      3540 2.31761E+01-4.14647E+00 6.64438E-02-3.10192E+00-3.13811E-13-8.34185E-14
 -1      3541 1.91424E+01 4.05785E-01 1.09445E-02-2.10301E+00-1.00165E-13-1.17186E-13
 -1      3542 1.91161E+01 5.39413E-01-6.02058E-03-1.95068E+00-1.20095E-13-1.33059E-13
 -1      3543 1.92850E+01 6.29865E-01 6.62196E-03-1.78287E+00-1.15730E-13-9.40233E-14
 -1      3544 1.93067E+01 6.73561E-01-5.78819E-03-1.65133E+00-7.37418E-14-6.10842E-14
 -1      3545 1.87201E+01 7.18329E-01 4.00611E-03-1.79062E+00-7.67161E-14-1.33605E-13
 -1      3546 1.93997E+01-9.57711E-01 2.93680E-02-2.98240E+00-2.78640E-13-1.91309E-13
 -1      3547 1.90582E+01-4.58591E-01 6.22287E-03-2.79253E+00-2.52998E-13-2.21194E-13
 -1      3548 2.01884E+01 6.37717E-01-1.09133E-03-3.53485E-01 1.61883E-13-1.40097E-13
 -1      3549 2.02207E+01 7.09830E-01 1.48751E-03-2.32974E-01 1.80358E-13-1.29386E-13
 -1      3550 1.92193E+01 7.30875E-01-5.98399E-03 1.58402E+00 3.21243E-14-1.38784E-13
 -1      3551 1.92077E+01 6.69354E-01 7.00060E-03 1.72967E+00 5.12324E-14-1.25999E-13
 -1      3552 2.02232E+01 7.13497E-01 9.95608E-04 2.46079E-01-1.10351E-13-3.42806E-13
 -1      3553 2.01967E+01 6.28694E-01-8.13647E-04 3.56040E-01-1.02105E-13-3.45955E-13
 -1      3554 2.01548E+01 6.82771E-01 3.35694E-04 3.74301E-01-8.75692E-14-3.41156E-13
 -1      3555 1.90483E+01 5.54798E-01-5.79783E-03 1.91714E+00 8.77488E-14-2.28995E-14
 -1      3556 1.90953E+01 3.91838E-01 1.26534E-02 2.08385E+00 1.26051E-13 1.87307E-13
 -1      3557 1.85844E+01 7.58470E-01 3.44629E-03 1.75824E+00 1.41565E-13-6.52524E-14
 -1      3558 1.89596E+01 1.47485E-01-2.67155E-03 2.33109E+00 3.47683E-14 1.18388E-13
 -1      3559 1.91212E+01-1.79846E-01 1.93316E-02 2.52370E+00-5.09417E-14 1.95761E-13
 -1      3560 1.82831E+01 4.38598E-01-1.08829E-03 2.18999E+00 1.63644E-14-1.37257E-13
 -1      3561 1.94002E+01 7.67537E-01-5.37720E-03 1.30856E+00 1.02976E-13-8.39631E-14
 -1      3562 1.93693E+01 7.65293E-01 4.01450E-03 1.43652E+00-3.80934E-16-1.22486E-13
 -1      3563 1.88864E+01 8.74180E-01 4.62296E-03 1.43402E+00 1.76729E-15-2.80492E-14
 -1      3564 1.95605E+01 7.26798E-01-4.62342E-03 1.07507E+00 1.24280E-13 2.33393E-14
 -1      3565 1.95285E+01 7.56328E-01 2.51263E-03 1.18771E+00 2.01756E-13 3.22122E-15
 -1      3566 1.91536E+01 8.71424E-01 4.53679E-03 1.17784E+00 1.92829E-13-2.21104E-14
 -1      3567 1.96903E+01 6.48356E-01-3.88353E-03 8.74920E-01 1.35512E-15-1.47903E-13
 -1      3568 1.96644E+01 6.92403E-01 1.81084E-03 9.73448E-01 3.62676E-14-1.42013E-13
 -1      3569 1.93742E+01 8.04869E-01 3.94941E-03 9.66183E-01 1.74577E-13 7.17967E-14
 -1      3570 1.97896E+01 5.56210E-01-3.21276E-03 7.03448E-01-5.40214E-14-2.19163E-13
 -1      3571 1.97715E+01 6.04541E-01 1.49093E-03 7.88579E-01-8.73698E-14-1.67478E-13
 -1      3572 1.95484E+01 7.08765E-01 3.20013E-03 7.86853E-01-7.70918E-14-1.16147E-13
 -1      3573 1.98625E+01 4.63910E-01-2.62496E-03 5.57798E-01-2.56138E-13 1.56922E-13
 -1      3574 1.98513E+01 5.10852E-01 1.32778E-03 6.30205E-01-1.54986E-13-6.68568E-14
 -1      3575 1.96815E+01 6.03806E-01 2.47839E-03 6.33683E-01-2.38610E-13 2.21867E-14
 -1      3576 1.99142E+01 3.78558E-01-2.11707E-03 4.35699E-01-2.05966E-14 1.90696E-13
 -1      3577 1.99085E+01 4.21224E-01 1.20910E-03 4.96250E-01-6.25088E-14 1.98038E-13
 -1      3578 1.97807E+01 5.01668E-01 1.85733E-03 5.03445E-01-1.52176E-13 1.05306E-13
 -1      3579 1.99499E+01 3.03365E-01-1.68574E-03 3.34867E-01 4.03457E-14 9.19944E-14
 -1      3580 1.99479E+01 3.40545E-01 1.09240E-03 3.84659E-01 4.09928E-14 1.00282E-13
 -1      3581 1.98532E+01 4.08461E-01 1.35429E-03 3.93960E-01-7.56800E-16 5.81961E-14
 -1      3582 1.99737E+01 2.39266E-01-1.32598E-03 2.52887E-01-1.31651E-14-1.38528E-14
 -1      3583 1.99741E+01 2.70721E-01 9.67571E-04 2.93164E-01 6.56124E-14 1.30444E-13
 -1      3584 1.99049E+01 3.26872E-01 9.64499E-04 3.03241E-01 4.55209E-14 7.77995E-15
 -1      3585 1.99890E+01 1.85943E-01-1.03054E-03 1.87269E-01-1.32477E-13 1.64458E-13
 -1      3586 1.99908E+01 2.11960E-01 8.36392E-04 2.19336E-01-1.04101E-13-1.65902E-15
 -1      3587 1.99411E+01 2.57544E-01 6.72875E-04 2.29246E-01-6.87311E-14-1.93124E-17
 -1      3588 1.99983E+01 1.42412E-01-7.97909E-04 1.35562E-01-2.72235E-13 2.41345E-14
 -1      3589 2.00007E+01 1.63564E-01 7.06891E-04 1.60696E-01-2.03588E-13 3.49932E-14
 -1      3590 1.99659E+01 1.99955E-01 4.57803E-04 1.69860E-01-1.02387E-13 3.64063E-14
 -1      3591 2.00034E+01 1.07425E-01-5.93875E-04 9.54415E-02-3.04886E-14-4.94321E-14
 -1      3592 2.00061E+01 1.24435E-01 6.08415E-04 1.14873E-01-9.91196E-14-1.02598E-13
 -1      3593 1.99822E+01 1.52915E-01 2.82818E-04 1.22985E-01-7.62996E-14-1.91378E-13
 -1      3594 2.00060E+01 7.99825E-02-2.89077E-04 6.51220E-02 1.97712E-13-2.22914E-13
 -1      3595 2.00085E+01 9.30577E-02 5.02183E-04 7.96778E-02 1.20572E-13-2.12918E-13
 -1      3596 1.99923E+01 1.14912E-01 4.62074E-05 8.66525E-02 5.30651E-14-2.72095E-13
 -1      3597 2.08912E+01-2.54353E+00 2.38115E-02 3.20841E+00-3.05263E-13 2.18231E-13
 -1      3598 1.94860E+01-2.51928E+00 2.74030E-02 3.94351E+00-2.90889E-13 2.06311E-13
 -1      3599 1.81280E+01-1.67723E+00 1.63822E-02 3.81780E+00-2.68284E-13 1.35218E-13
 -1      3600 2.00707E+01-1.74843E+00 2.62726E-02 3.18620E+00-2.12507E-13 2.22209E-13
 -1      3601 1.99707E+01 9.72353E-02-1.00274E-04-1.13997E-02 2.23488E-13-3.36027E-14
 -1      3602 1.99692E+01 9.85952E-02-2.33448E-04-4.56787E-03 2.69088E-13-2.87582E-13
 -1      3603 2.11779E+01-3.62127E+00 3.84689E-02-3.76098E+00 1.21174E-13-4.78557E-13
 -1      3604 2.29766E+01-4.21112E+00-3.96183E-03-3.15760E+00 2.27589E-13-4.12118E-13
 -1      3605 2.37901E+01-3.81059E+00 2.44038E-02-2.10652E+00 2.44284E-13-2.70925E-13
 -1      3606 2.59736E+01 2.33259E+00-1.21148E-01 2.15087E+00-2.87395E-13-3.72907E-13
 -1      3607 2.61158E+01-1.31865E+00 1.83204E-02 1.37573E+00 1.89605E-14-3.73875E-13
 -1      3608 1.58792E+01-1.41651E+00 6.36415E-03 4.14013E+00 1.32420E-13-1.59098E-13
 -1      3609 1.39870E+01-4.81400E-01 5.92264E-02 3.56487E+00 1.77766E-13-3.67019E-13
 -1      3610 1.92566E+01-5.87753E-01 7.78199E-03 2.77487E+00-2.00975E-13 1.26826E-13
 -1      3611 1.96332E+01-1.13572E+00 2.60275E-02 2.95491E+00-2.52022E-13 1.34114E-13
 -1      3612 1.87569E+01-1.18770E+00-9.13952E-03 3.29540E+00-2.42613E-13 9.78618E-14
 -1      3613 1.82449E+01-2.01667E-01-1.31481E-02 2.73451E+00-1.20215E-13-2.47840E-14
 -1      3614 1.99103E+01 2.41843E+00-3.70768E-03-1.17608E-01 5.03544E-16-4.62247E-13
 -1      3615 1.99329E+01 2.37425E+00-4.21414E-03-2.17384E-01-3.60840E-14-4.88239E-13
 -1      3616 2.00358E+01 2.08268E+00 4.79679E-03-1.91909E-01-3.97936E-14-4.76000E-13
 -1      3617 1.71580E+01-1.98364E+00 4.93341E-02-4.34704E+00 2.07669E-13-4.21909E-13
 -1      3618 1.94468E+01-2.88175E+00-3.08352E-02-4.03953E+00 6.82666E-14-5.11858E-13
 -1      3619 1.75914E+01-1.44771E+00 4.41447E-02-3.68876E+00 8.77354E-14-3.69779E-13
 -1      3620 1.91288E+01-8.07960E-02 1.88951E-02-2.50140E+00-1.39376E-13-2.08304E-13
 -1      3621 1.89920E+01 1.99482E-01-3.69673E-03-2.32562E+00-8.63521E-14-1.45616E-13
 -1      3622 1.83992E+01 4.61939E-01 1.82444E-03-2.18353E+00-8.86477E-14-2.08352E-13
 -1      3623 1.81456E+01-1.19078E-01-1.57621E-02-2.72857E+00-1.68497E-13-2.62474E-13
 -1      3624 2.01142E+01 5.58784E-01-1.05319E-04-5.55772E-01 1.13212E-13-1.74100E-13
 -1      3625 2.01459E+01 5.89214E-01 5.31273E-04-4.53539E-01 1.41394E-13-1.58717E-13
 -1      3626 2.01462E+01 7.10889E-01 8.41537E-04-3.70935E-01 1.61030E-13-1.33682E-13
 -1      3627 1.38362E+01-3.04096E-01 7.63378E-02-3.33077E+00-2.23800E-13-4.33445E-13
 -1      3628 1.56464E+01-1.31113E+00-4.44854E-04-4.10961E+00-2.71946E-13-3.02092E-13
 -1      3629 2.58884E+01-6.98914E-01-3.79817E-04-1.69031E+00-4.12587E-14 1.78652E-13
 -1      3630 2.40597E+01-4.01411E+00-5.36188E-02 2.05863E+00 1.58170E-13 1.94979E-14
 -1      3631 2.25078E+01-4.03981E+00 9.21862E-02 3.44287E+00 2.53117E-13-1.15599E-13
 -1      3632 2.02611E+01 9.56837E-01 2.95669E-04 3.49561E-03-9.53573E-14-3.70381E-13
 -1      3633 2.02426E+01 8.22185E-01-1.56826E-03 1.39502E-01-9.88750E-14-3.58880E-13
 -1      3634 2.02149E+01 8.72580E-01 5.30307E-04 1.74169E-01-1.03641E-13-3.77319E-13
 -1      3635 2.02518E+01 1.32674E+00-4.42170E-03 3.00183E-01 2.34262E-13-2.07998E-13
 -1      3636 2.02057E+01 1.49257E+00-1.32993E-03 2.72364E-01 1.93296E-13-2.48127E-13
 -1      3637 2.00705E+01-2.34658E+00 1.80204E-02-3.26672E+00 1.14171E-14-3.25821E-13
 -1      3638 2.04984E+01-2.98381E+00 2.81527E-02-3.53773E+00-2.50722E-14-4.00419E-13
 -1      3639 2.14985E+01-3.19985E+00-3.70026E-02-2.96006E+00 1.30252E-14-3.37759E-13
 -1      3640 1.27344E+01 5.90155E-01 4.11784E-02 1.62727E+00-6.12426E-14 1.00375E-13
 -1      3641 1.15218E+01 8.13870E-01 1.18930E-01 8.54449E-01-5.11431E-14 5.52891E-14
 -1      3642 2.00243E+01 5.44537E-01 6.56226E-04-7.37530E-01 5.96270E-14-1.66699E-13
 -1      3643 2.00554E+01 5.44790E-01-6.55441E-04-6.44443E-01 7.73933E-14-1.64601E-13
 -1      3644 2.00430E+01 6.37560E-01 1.07678E-03-5.60785E-01 1.10784E-13-1.78235E-13
 -1      3645 2.02542E+01 1.29678E+00-1.78257E-03-2.49304E-01-1.45537E-13-3.86991E-13
 -1      3646 2.02557E+01 1.11725E+00-1.48210E-03-1.02586E-01-1.10939E-13-3.81726E-13
 -1      3647 2.02332E+01 1.15713E+00 8.75834E-04-4.30640E-02-8.94995E-14-3.88442E-13
 -1      3648 2.01948E+01 1.55081E+00 1.62495E-03-2.65537E-01-1.12672E-13-4.00385E-13
 -1      3649 2.44395E+01-2.54428E+00-2.10696E-02-1.53882E-01 1.37704E-13 2.53150E-13
 -1      3650 2.48993E+01-2.93011E+00-2.71805E-02 1.47075E-01 7.99612E-14 1.98023E-13
 -1      3651 2.49230E+01-3.51320E+00 2.97630E-02 1.00020E+00 1.47523E-13 9.16160E-14
 -1      3652 2.39568E+01-2.67961E+00 2.19624E-02 3.80211E-01 1.58828E-13 1.56015E-13
 -1      3653 1.70212E+01-1.71623E+00 7.67616E-02 4.23742E+00 1.35020E-13-7.06935E-14
 -1      3654 1.63199E+01-1.01042E+00 1.42473E-02 3.68142E+00 1.21987E-13-1.26777E-13
 -1      3655 1.80626E+01-2.21771E+00-2.48683E-02 4.06705E+00 1.62915E-13-9.53647E-14
 -1      3656 2.08246E+01-2.87861E+00 4.42114E-02-3.57120E+00-3.03080E-13-9.15596E-14
 -1      3657 2.21028E+01-3.71108E+00 2.77886E-02-3.43383E+00-3.46962E-13-1.08385E-13
 -1      3658 2.01177E+01 1.90823E+00 6.46270E-03 3.27491E-01 1.73699E-13-3.50559E-13
 -1      3659 2.40590E+01-3.48421E+00-4.99595E-02-1.28028E+00 1.79435E-13-1.30698E-13
 -1      3660 2.39652E+01-2.60176E+00 1.18275E-02-2.55034E-01 9.85843E-14-1.25178E-13
 -1      3661 2.34092E+01-2.57237E+00 4.67529E-02-7.57413E-01 4.96348E-14-1.52445E-13
 -1      3662 2.28408E+01-3.35340E+00 2.62013E-02-2.14833E+00 4.15299E-14-1.92735E-13
 -1      3663 1.42807E+01 1.49285E-01 7.07299E-02-2.62496E+00-1.71786E-13-4.02119E-13
 -1      3664 1.21656E+01 8.07052E-01 7.66000E-02-2.97229E-01 2.37514E-14-4.79353E-13
 -1      3665 1.31027E+01 8.45686E-01-2.50313E-03-8.81283E-01-1.53978E-14-4.50081E-13
 -1      3666 1.27600E+01 7.88818E-01-7.45984E-03 6.55114E-01 7.03231E-14-3.89241E-13
 -1      3667 2.00021E+01 7.12394E-02 2.38383E-04-5.05407E-02 1.17674E-13-1.50470E-14
 -1      3668 2.00021E+01 6.14593E-02-1.25492E-04-4.17050E-02 5.86250E-14 1.79748E-13
 -1      3669 1.99987E+01 6.52890E-02-6.84251E-05-4.03379E-02 1.22234E-13 1.87544E-13
 -1      3670 1.99924E+01 8.73665E-02 1.98835E-04-5.47464E-02 1.83691E-13-4.63486E-14
 -1      3671 1.97499E+01 6.69082E-01 2.33147E-03-9.01715E-01 6.64383E-14-1.72967E-13
 -1      3672 1.99168E+01 5.74069E-01 1.23055E-03-9.13599E-01 1.00585E-13-1.63658E-13
 -1      3673 1.99492E+01 5.54338E-01-1.82061E-03-8.22105E-01 7.64523E-14-1.69273E-13
 -1      3674 1.99950E+01 6.83314E-02-2.36788E-04-3.84366E-02 2.49278E-13 1.16985E-13
 -1      3675 1.90344E+01 7.98296E-01 4.18234E-03-1.50357E+00 1.06282E-15-2.52659E-14
 -1      3676 1.94626E+01 6.95998E-01 3.81454E-03-1.52001E+00-2.67517E-14-2.26269E-14
 -1      3677 1.95001E+01 6.91951E-01-4.97200E-03-1.40405E+00 1.49802E-14-2.72494E-14
 -1      3678 2.02185E+01 8.74948E-01 5.88939E-04-1.49445E-01 1.89203E-13-1.63816E-13
 -1      3679 2.02453E+01 8.09674E-01-1.30027E-03-1.12565E-01 1.79218E-13-1.28802E-13
 -1      3680 2.02364E+01-2.37337E+00 2.99616E-02-3.48237E+00-3.06852E-13-1.10427E-13
 -1      3681 1.95760E+01-1.59550E+00 2.83614E-02-3.33615E+00-2.44273E-13-1.23644E-13
 -1      3682 1.99881E+01 8.47522E-02 4.39763E-05-4.32571E-02 2.85022E-13 2.16758E-14
 -1      3683 1.99883E+01 7.74842E-02 8.72581E-05-3.48171E-02 2.91102E-13 1.42091E-13
 -1      3684 1.99823E+01 8.30299E-02-3.90282E-04-3.11976E-02 2.07301E-13 1.60619E-13
 -1      3685 1.99633E+01 1.13999E-01 4.40482E-04-1.59294E-04 2.05516E-13-6.80675E-14
 -1      3686 1.99692E+01 9.88488E-02-2.18582E-04 4.39215E-03 2.74858E-13-1.09059E-13
 -1      3687 1.99708E+01 9.76781E-02-1.18219E-04 1.13516E-02 3.58237E-13 1.92256E-13
 -1      3688 1.15265E+01 7.62295E-01 3.75869E-02-2.57208E-01 4.42615E-15 6.54407E-14
 -1      3689 2.00067E+01 7.30847E-02 3.55326E-04 5.56234E-02 3.35910E-13-3.04252E-13
 -1      3690 1.99957E+01 8.94405E-02-2.45391E-04 6.09841E-02 3.34160E-13-3.32381E-13
 -1      3691 2.00043E+01 6.65800E-02 8.44444E-05 4.68017E-02 2.27046E-13-4.86479E-13
 -1      3692 1.99924E+01 2.17462E+00 5.28316E-03-5.82416E-02 2.29946E-15-4.26010E-13
 -1      3693 1.63251E+01-8.74684E-01 4.19695E-02 3.61808E+00-1.81051E-13 2.91780E-15
 -1      3694 1.48209E+01-7.07051E-01 7.31202E-02 3.73155E+00-1.65661E-13 1.47174E-13
 -1      3695 1.42355E+01-9.52752E-02 3.97093E-03 3.01960E+00-4.09724E-14 3.81292E-14
 -1      3696 2.26669E+01-2.86329E+00-3.98080E-02-1.56508E+00 9.69884E-15-7.65221E-14
 -1      3697 2.00767E+01 1.81616E+00-3.95833E-03 1.77469E-01 1.09652E-13-3.82422E-13
 -1      3698 2.00476E+01 1.88426E+00-2.92454E-03 1.22069E-01 7.67005E-14-3.86432E-13
 -1      3699 1.99833E+01 8.36045E-02-3.73712E-04 3.18361E-02-9.76364E-14-5.70730E-13
 -1      3700 1.99894E+01 7.77417E-02 7.01362E-06 3.55699E-02-4.37226E-15-6.19730E-13
 -1      3701 2.00888E+01 1.70429E+00 5.58639E-03 6.60137E-02 5.61427E-14-3.70185E-13
 -1      3702 2.00279E+01 1.92585E+00-3.32752E-03 8.75510E-02 6.25304E-14-3.86297E-13
 -1      3703 2.00178E+01 1.94705E+00-3.19750E-03 2.82917E-02 3.19614E-14-3.80211E-13
 -1      3704 1.35491E+01 8.55842E-02 5.22885E-02 2.84020E+00 1.71232E-13-4.60375E-13
 -1      3705 1.33624E+01 6.04757E-01 3.18163E-02 1.77548E+00 1.21112E-13-3.72181E-13
 -1      3706 1.49656E+01-5.60488E-02 2.04935E-02 2.78328E+00 1.67462E-13-3.76471E-13
 -1      3707 2.12438E+01-3.49284E+00 2.00458E-02 3.52765E+00 1.84918E-13-8.70415E-14
 -1      3708 1.19247E+01 8.27358E-01 1.13141E-01-1.09007E+00 4.71958E-14 1.16830E-13
 -1      3709 1.25993E+01 4.65813E-01 1.70795E-02-1.97960E+00 1.01953E-13-7.43572E-14
 -1      3710 1.28428E+01 9.48640E-01 2.86960E-02-2.22264E-01 8.65280E-14 3.78517E-14
 -1      3711 2.00085E+01 4.90175E-02-3.99118E-04 3.73486E-02-1.12110E-14-5.55676E-13
 -1      3712 1.99774E+01 8.99162E-02 1.41561E-05-2.50218E-02 1.39148E-13 8.45085E-14
 -1      3713 1.99733E+01 9.35323E-02-3.24629E-04-1.91708E-02 1.96405E-13 1.33294E-13
 -1      3714 1.99667E+01 1.10245E-01 5.09301E-04-1.79726E-02 2.30263E-13-1.15344E-13
 -1      3715 1.99749E+01 1.00102E-01 1.83250E-04-3.27591E-02 2.91887E-13 1.67536E-13
 -1      3716 2.02691E+01 9.02037E-01 3.00598E-04 1.60274E-02 1.99050E-13-1.34029E-13
 -1      3717 2.01079E+01 1.76712E+00-3.53484E-04-1.84554E-01-5.61351E-14-4.61277E-13
 -1      3718 2.01480E+01 1.65197E+00-3.61687E-03-2.33614E-01-9.01594E-14-4.38885E-13
 -1      3719 2.01896E+01 1.44431E+00 2.92837E-03-1.27051E-01-9.08882E-14-4.05384E-13
 -1      3720 1.96357E+01 6.78940E-01 2.53062E-03-1.29484E+00 2.61720E-14-6.09279E-14
 -1      3721 1.96746E+01 6.53051E-01-3.99499E-03-1.19084E+00 8.99859E-14-1.01788E-13
 -1      3722 1.95525E+01 7.29602E-01 3.15889E-03-1.07757E+00 7.69398E-14-1.73721E-13
 -1      3723 1.93143E+01 7.85288E-01 3.89525E-03-1.27323E+00 7.59050E-16-1.07612E-13
 -1      3724 2.33796E+01-2.98072E+00-1.32820E-02 1.17558E+00 2.24416E-13 1.06235E-13
 -1      3725 2.37002E+01-3.51263E+00-2.54641E-02 1.58582E+00 2.29577E-13 4.77435E-14
 -1      3726 1.39011E+01 2.88387E-01 7.14554E-02-2.60732E+00 1.12713E-13-2.24975E-13
 -1      3727 1.52419E+01-1.06688E-01-2.65866E-02-2.89384E+00 1.75859E-13-3.80231E-13
 -1      3728 1.40136E+01 7.35982E-01 1.15688E-02-1.64000E+00 1.33222E-13-1.90917E-13
 -1      3729 1.81424E+01-1.13555E+00-2.99204E-02-3.45724E+00-3.05304E-13-2.14691E-13
 -1      3730 1.99899E+01 8.80600E-02 3.76018E-04 4.60311E-02 1.57946E-13-6.00116E-13
 -1      3731 1.99953E+01 7.15488E-02-3.33399E-04 4.04731E-02 1.19781E-13-4.58521E-13
 -1      3732 1.37171E+01 5.34184E-01 6.71515E-02 2.22639E+00-2.50399E-14 8.11018E-14
 -1      3733 1.34010E+01 8.42955E-01-1.37745E-02 1.20440E+00 3.97486E-14 1.14464E-13
 -1      3734 1.49316E+01 3.02491E-01 3.22774E-02 2.49239E+00 3.74614E-15 1.03582E-13
 -1      3735 2.00473E+01 6.56504E-01-6.91638E-04 4.59133E-01-3.71593E-14-3.12316E-13
 -1      3736 2.00010E+01 6.12946E-01 8.26105E-05 5.42054E-01-4.74876E-14-2.84105E-13
 -1      3737 1.85768E+01 9.82882E-01-8.45581E-03 1.19638E+00 7.31818E-14-5.22822E-14
 -1      3738 1.84383E+01 9.81224E-01 2.59484E-03 1.32625E+00 8.09636E-14 8.99353E-14
 -1      3739 2.28528E+01-3.17626E+00 5.31009E-02 2.07435E+00 2.35655E-13-3.10581E-15
 -1      3740 2.02852E+01 1.11575E+00 1.29453E-03 2.54625E-01 2.37904E-13-1.55027E-13
 -1      3741 2.02754E+01 1.02253E+00 2.51135E-03 1.07566E-01 2.17634E-13-1.53485E-13
 -1      3742 1.99278E+01 5.79400E-01-1.14080E-03 6.16459E-01-5.12612E-14-2.60988E-13
 -1      3743 1.98795E+01 5.53835E-01 1.02740E-03 6.95899E-01-3.42240E-14-2.73419E-13
 -1      3744 1.99075E+01 6.67814E-01 1.28719E-03 5.26450E-01-3.37434E-14-2.56745E-13
 -1      3745 1.97950E+01 5.30141E-01-1.62372E-03 7.74547E-01-2.05255E-14-2.89708E-13
 -1      3746 1.97509E+01 5.07808E-01 2.07163E-03 8.55896E-01-5.84634E-15-2.74695E-13
 -1      3747 1.97511E+01 6.13171E-01 9.79201E-04 6.77936E-01-3.85805E-14-1.99265E-13
 -1      3748 1.96612E+01 4.78550E-01-1.95314E-03 9.44823E-01 1.31226E-14-2.86785E-13
 -1      3749 1.96298E+01 4.43230E-01 3.36615E-03 1.03265E+00 2.71286E-14-2.80870E-13
 -1      3750 1.95799E+01 5.68303E-01 4.94466E-04 8.44286E-01-4.20896E-15-2.66900E-13
 -1      3751 1.95435E+01 3.91041E-01-1.95794E-03 1.13820E+00 4.42672E-14-2.71823E-13
 -1      3752 1.95377E+01 3.23869E-01 5.06245E-03 1.23596E+00 6.95384E-14-2.44062E-13
 -1      3753 1.94074E+01 4.99834E-01-3.69062E-04 1.03880E+00 3.89652E-14-2.79713E-13
 -1      3754 1.94688E+01 2.28414E-01-1.38061E-03 1.36427E+00 4.51974E-14-2.72046E-13
 -1      3755 1.95088E+01 1.07473E-01 7.40188E-03 1.47316E+00 3.69327E-15-2.61111E-13
 -1      3756 1.92540E+01 3.68603E-01-2.02187E-03 1.27609E+00 4.77330E-14-2.43802E-13
 -1      3757 1.94800E+01-5.43185E-02 4.83076E-04 1.62951E+00-2.93727E-15-1.72486E-13
 -1      3758 1.95973E+01-2.53805E-01 1.08938E-02 1.74567E+00 1.68501E-14-1.60603E-13
 -1      3759 1.91528E+01 1.28178E-01-5.00843E-03 1.57061E+00 6.06781E-14-2.02181E-13
 -1      3760 1.96499E+01-5.13129E-01 4.06893E-03 1.93188E+00 6.35441E-14-1.12647E-13
 -1      3761 1.98906E+01-8.14969E-01 1.45666E-02 2.03560E+00 8.66397E-14-1.20768E-13
 -1      3762 1.91605E+01-2.74795E-01-8.47300E-03 1.93907E+00 8.31216E-14-3.23810E-14
 -1      3763 2.00860E+01-1.17639E+00 1.39152E-02 2.23271E+00 7.52987E-14-1.11895E-13
 -1      3764 2.04910E+01-1.60979E+00 1.21816E-02 2.29782E+00 5.87245E-14-5.94782E-14
 -1      3765 1.93838E+01-9.05702E-01-9.53298E-03 2.37479E+00 9.46021E-14-5.04167E-14
 -1      3766 2.09587E+01-2.06527E+00 3.61430E-02 2.42334E+00 9.76146E-14-2.84434E-14
 -1      3767 2.15017E+01-2.63105E+00-1.24482E-02 2.38621E+00 1.99132E-13-2.85271E-14
 -1      3768 1.99684E+01-1.87819E+00-4.57667E-02 2.78776E+00 1.17612E-13-2.36382E-14
 -1      3769 1.88228E+01-2.39020E+00-3.46723E-02-4.03345E+00-3.18251E-13-9.67247E-14
 -1      3770 2.01583E+01 1.61593E+00-4.34695E-03 2.53259E-01 1.76943E-13-2.91739E-13
 -1      3771 2.01155E+01 1.73219E+00-2.32373E-03 2.06379E-01 1.28229E-13-3.45140E-13
 -1      3772 2.01399E+01 1.57714E+00 4.75458E-03 1.12153E-01 1.03914E-13-3.30639E-13
 -1      3773 2.02130E+01 1.36532E+00 3.76315E-03 1.44508E-01 1.68871E-13-2.44056E-13
 -1      3774 2.21729E+01-2.86526E+00 1.78346E-02-2.15962E+00-1.22680E-14-1.37392E-13
 -1      3775 2.02816E+01-1.39128E+00 1.69109E-03-2.19006E+00 9.30384E-14-7.22755E-14
 -1      3776 1.99323E+01-9.50675E-01 1.50719E-02-2.10299E+00 1.42040E-13-1.01346E-13
 -1      3777 1.97518E+01-6.14783E-01 1.20271E-02-1.89875E+00 1.11765E-13-1.35051E-13
 -1      3778 1.95328E+01-3.29237E-01 3.05786E-03-1.78441E+00 6.91980E-14-9.44485E-14
 -1      3779 1.92600E+01-6.81268E-01-7.77832E-03-2.20731E+00 1.49386E-13-1.42925E-13
 -1      3780 1.94818E+01-8.77940E-02 9.37919E-03-1.59973E+00 9.88529E-14-1.29959E-13
 -1      3781 1.93698E+01 9.76632E-02-1.11858E-04-1.47812E+00 1.69950E-13-1.35881E-13
 -1      3782 1.90541E+01-9.75889E-02-8.27221E-03-1.78458E+00 1.10491E-13-2.13118E-13
 -1      3783 1.93892E+01 2.45794E-01 6.54386E-03-1.32182E+00 1.72362E-13-1.06382E-13
 -1      3784 1.93447E+01 3.53522E-01-1.68637E-03-1.20923E+00 5.87639E-14-1.46269E-13
 -1      3785 1.90366E+01 2.77781E-01-3.66483E-03-1.42355E+00 1.76095E-13-3.26822E-13
 -1      3786 1.93979E+01 4.34851E-01 4.53378E-03-1.08056E+00-3.53891E-14-7.75603E-14
 -1      3787 1.93924E+01 4.86582E-01-2.31053E-03-9.81054E-01-3.09541E-14-1.03995E-13
 -1      3788 1.91117E+01 4.89717E-01-8.63854E-04-1.13131E+00 2.93836E-14-3.62666E-13
 -1      3789 1.94586E+01 5.21048E-01 3.06622E-03-8.76250E-01-9.89916E-14-8.73178E-14
 -1      3790 1.94735E+01 5.35026E-01-2.46214E-03-7.90065E-01-5.32031E-14-1.27228E-13
 -1      3791 1.92284E+01 5.87134E-01 5.18991E-04-8.96941E-01-1.80754E-14-3.43879E-13
 -1      3792 1.95413E+01 5.38583E-01 2.08476E-03-7.04749E-01-1.21279E-13-1.36888E-13
 -1      3793 1.95650E+01 5.28591E-01-2.36728E-03-6.30931E-01-2.02847E-13-1.81259E-13
 -1      3794 1.93575E+01 6.08428E-01 1.16536E-03-7.09044E-01-8.61780E-14-3.36095E-13
 -1      3795 1.96282E+01 5.13063E-01 1.45457E-03-5.61471E-01-2.19429E-13-1.40004E-13
 -1      3796 1.96540E+01 4.89138E-01-2.15547E-03-4.98916E-01-2.59847E-13-1.02051E-13
 -1      3797 1.94828E+01 5.81802E-01 1.42988E-03-5.57698E-01-1.98397E-13-1.89905E-13
 -1      3798 1.97095E+01 4.63159E-01 1.04431E-03-4.42527E-01-2.90308E-13-1.70441E-13
 -1      3799 1.97338E+01 4.32460E-01-1.89190E-03-3.90094E-01-2.73803E-13-2.44932E-13
 -1      3800 1.95957E+01 5.27484E-01 1.44776E-03-4.35600E-01-2.69828E-13-1.15189E-13
 -1      3801 1.97804E+01 4.02004E-01 7.78025E-04-3.44514E-01-1.47187E-13-3.31474E-13
 -1      3802 1.98014E+01 3.69327E-01-1.61577E-03-3.01089E-01-1.17326E-13-2.59617E-13
 -1      3803 1.96925E+01 4.59968E-01 1.33603E-03-3.37164E-01-2.53339E-13-4.33434E-13
 -1      3804 1.98393E+01 3.38292E-01 6.00916E-04-2.64493E-01-1.88669E-13-1.98655E-13
 -1      3805 1.98564E+01 3.06657E-01-1.34897E-03-2.28994E-01-3.10090E-13-1.99141E-13
 -1      3806 1.97724E+01 3.88951E-01 1.16445E-03-2.58055E-01-1.52431E-13-4.28045E-13
 -1      3807 1.98864E+01 2.77416E-01 4.76909E-04-1.99877E-01-3.93261E-13-4.73330E-14
 -1      3808 1.98996E+01 2.48566E-01-1.10092E-03-1.71263E-01-1.44615E-13-1.49473E-14
 -1      3809 1.98362E+01 3.20549E-01 9.75723E-04-1.94873E-01-2.84742E-13-1.66118E-14
 -1      3810 1.99226E+01 2.22396E-01 3.82982E-04-1.48335E-01 1.46562E-13 2.73707E-14
 -1      3811 1.99324E+01 1.97142E-01-8.85448E-04-1.25605E-01 2.46812E-13-1.79705E-14
 -1      3812 1.98857E+01 2.58311E-01 8.00160E-04-1.44856E-01 4.70296E-14 1.19695E-14
 -1      3813 1.99496E+01 1.74584E-01 3.12287E-04-1.07802E-01 1.62021E-13 2.75962E-14
 -1      3814 1.99565E+01 1.53190E-01-6.96124E-04-9.00262E-02 1.81831E-13 1.18626E-13
 -1      3815 1.99230E+01 2.03813E-01 6.16055E-04-1.05660E-01 2.62428E-13-4.85531E-14
 -1      3816 1.99690E+01 1.34230E-01 2.48734E-04-7.63734E-02 3.39621E-14 1.62882E-13
 -1      3817 1.99737E+01 1.16594E-01-4.47214E-04-6.26205E-02-1.01960E-13-1.22820E-17
 -1      3818 1.99502E+01 1.57551E-01 4.35413E-04-7.53894E-02 7.95256E-14-1.09141E-13
 -1      3819 1.99837E+01 9.62018E-02-7.96697E-05-5.04494E-02 1.43881E-13 5.13885E-14
 -1      3820 2.01962E+01 1.25557E+00-2.45616E-03-4.57462E-02-1.03187E-13-3.93862E-13
 -1      3821 2.02040E+01 1.10306E+00 1.49961E-03 5.78184E-02-8.55861E-14-3.96665E-13
 -1      3822 2.01623E+01 1.36713E+00 2.69825E-04-3.07895E-02-7.89886E-14-4.03329E-13
 -1      3823 2.01780E+01 9.05690E-01-2.05784E-03-1.85854E-01 1.66594E-13-1.94641E-13
 -1      3824 2.02075E+01 1.02425E+00 1.06089E-04-6.63082E-02 1.57511E-13-2.14617E-13
 -1      3825 2.00028E+01 6.33850E-02 5.58354E-05 4.19889E-02 1.56789E-13-5.41394E-13
 -1      3826 1.99791E+01 1.03272E-01-2.94384E-04 4.89119E-02 1.61970E-13-8.02717E-13
 -1      3827 1.99864E+01 9.75199E-02-1.68970E-04 5.44837E-02 3.07488E-13-7.67613E-13
 -1      3828 1.99867E+01 1.07631E-01 4.25910E-04 6.46228E-02 2.83707E-13-7.10841E-13
 -1      3829 2.02437E+01 1.11395E+00 7.91959E-04 6.54657E-02 1.86146E-13-1.73795E-13
 -1      3830 2.00454E+01 1.90267E+00-1.32324E-03-9.05560E-02-1.63193E-14-4.21733E-13
 -1      3831 2.00707E+01 1.83519E+00-3.71083E-03-1.48542E-01-3.91818E-14-4.65075E-13
 -1      3832 2.01193E+01 1.62664E+00 3.20921E-03-7.71719E-02-6.03554E-14-4.35519E-13
 -1      3833 2.00925E+01 7.53359E-01-1.68333E-03-3.77220E-01 1.19829E-13-1.60718E-13
 -1      3834 2.01408E+01 8.16661E-01 1.62436E-04-2.76728E-01 1.64879E-13-1.54940E-13
 -1      3835 2.01342E+01 9.55606E-01 1.71798E-03-1.97613E-01 1.34141E-13-1.87149E-13
 -1      3836 1.73526E+01-1.87769E+00 7.44232E-02-4.25702E+00-2.83180E-13-1.98713E-13
 -1      3837 2.01414E+01 7.91143E-01-7.97745E-04 2.90721E-01-7.94809E-14-3.30448E-13
 -1      3838 2.01040E+01 7.15916E-01-5.01071E-04 3.83321E-01-5.58468E-14-3.15109E-13
 -1      3839 2.00381E+01 7.62105E-01 1.34766E-03 3.78077E-01-5.48782E-14-2.96692E-13
 -1      3840 1.81487E+01 9.43263E-01-1.14955E-02 1.46841E+00 8.25974E-14 3.13760E-14
 -1      3841 1.80057E+01 8.80112E-01 6.66991E-03 1.63860E+00 1.32367E-13 4.06491E-14
 -1      3842 1.79200E+01 1.10187E+00 1.08007E-02 1.20886E+00 9.36843E-15 2.44438E-14
 -1      3843 1.76428E+01 7.57010E-01-1.46308E-02 1.84664E+00 4.20115E-14-9.68567E-15
 -1      3844 1.75326E+01 5.88111E-01 1.59147E-02 2.08198E+00-6.81217E-14-7.71755E-14
 -1      3845 1.72968E+01 1.00797E+00 1.23530E-02 1.52291E+00 3.37971E-14 1.26426E-13
 -1      3846 1.92003E+01 8.46802E-01-4.90125E-03 8.10666E-01 8.37348E-14 4.93924E-14
 -1      3847 1.91034E+01 8.97735E-01 2.00036E-04 8.99780E-01 2.20579E-13 4.12271E-14
 -1      3848 1.94144E+01 7.37230E-01-3.87328E-03 6.62558E-01-1.59439E-13 5.43119E-14
 -1      3849 1.93392E+01 7.94655E-01 4.36126E-05 7.39321E-01 1.20303E-14 9.55528E-14
 -1      3850 1.91065E+01 8.95906E-01 5.21150E-03 6.77388E-01 1.25032E-13 2.13408E-13
 -1      3851 1.95780E+01 6.24265E-01-3.11353E-03 5.35210E-01-2.69768E-13-4.67322E-14
 -1      3852 1.95216E+01 6.81619E-01 1.06219E-04 6.01370E-01-2.63917E-13-3.68093E-14
 -1      3853 1.93417E+01 7.73822E-01 4.02511E-03 5.57027E-01-1.55743E-13 1.41770E-13
 -1      3854 1.97013E+01 5.16981E-01-2.51229E-03 4.26224E-01-9.59082E-14-7.00936E-14
 -1      3855 1.96600E+01 5.70483E-01 2.16915E-04 4.82691E-01-2.21268E-13-1.19611E-13
 -1      3856 1.95218E+01 6.52397E-01 3.08758E-03 4.52348E-01-1.82077E-13-1.96671E-13
 -1      3857 1.97927E+01 4.20195E-01-2.01976E-03 3.34079E-01 1.24635E-14-3.61526E-14
 -1      3858 1.97632E+01 4.67911E-01 3.09928E-04 3.81585E-01 5.28850E-14 5.07235E-14
 -1      3859 1.96581E+01 5.38928E-01 2.33967E-03 3.61828E-01-9.51418E-14-1.14068E-13
 -1      3860 1.98595E+01 3.35914E-01-1.61310E-03 2.57353E-01 4.72335E-14-5.90469E-14
 -1      3861 1.98390E+01 3.77136E-01 3.67806E-04 2.96673E-01-1.01540E-14-1.34429E-13
 -1      3862 1.97600E+01 4.37368E-01 1.75449E-03 2.84581E-01 8.81129E-14 3.69255E-14
 -1      3863 1.99076E+01 2.64445E-01-1.27620E-03 1.94539E-01-9.56505E-14-1.28705E-13
 -1      3864 1.98937E+01 2.99188E-01 3.88816E-04 2.26532E-01-4.99402E-14-1.93806E-13
 -1      3865 1.98352E+01 3.49257E-01 1.30079E-03 2.19769E-01-8.93736E-15-1.43155E-13
 -1      3866 1.99415E+01 2.05118E-01-1.00353E-03 1.43996E-01 2.80020E-14-1.94209E-13
 -1      3867 1.99324E+01 2.33826E-01 3.79360E-04 1.69591E-01 5.55899E-14-9.73845E-14
 -1      3868 1.98899E+01 2.74689E-01 9.57740E-04 1.66410E-01 3.28316E-14-2.70370E-13
 -1      3869 1.99650E+01 1.56837E-01-7.18384E-04 1.04103E-01-6.04786E-14-3.32125E-13
 -1      3870 1.99592E+01 1.80134E-01 3.79264E-04 1.24154E-01-3.37008E-14-2.45694E-13
 -1      3871 1.99289E+01 2.12772E-01 6.72111E-04 1.23305E-01 9.41046E-15-1.71823E-13
 -1      3872 1.99793E+01 1.21281E-01-4.31233E-04 7.54537E-02 2.02434E-13-6.31053E-13
 -1      3873 1.99757E+01 1.39903E-01 3.57667E-04 9.07754E-02 7.25659E-14-4.91337E-13
 -1      3874 1.99540E+01 1.65949E-01 4.17980E-04 9.11422E-02 1.18783E-13-5.64278E-13
 -1      3875 1.99698E+01 1.30838E-01 1.85977E-04 6.77507E-02 2.79015E-13-1.02606E-12
 -1      3876 1.82019E+01-1.09782E+00 3.44481E-02 3.38072E+00-1.79206E-13 7.17031E-14
 -1      3877 1.70988E+01-9.93753E-01 2.84879E-02 3.60911E+00-1.64115E-13 1.19720E-13
 -1      3878 1.63190E+01-3.82797E-01-6.30677E-03 3.19397E+00-9.22630E-14 8.50639E-14
 -1      3879 1.77962E+01-5.13003E-01 1.92883E-02 3.10185E+00-1.18386E-13-1.17423E-14
 -1      3880 1.99737E+01 9.41542E-02-3.16830E-04 1.96587E-02 2.68199E-13 2.35995E-13
 -1      3881 1.99780E+01 9.04793E-02-1.28359E-05 2.55196E-02 5.35035E-14-2.35549E-13
 -1      3882 1.99766E+01 1.00734E-01 3.61806E-04 3.40201E-02 1.33089E-13-1.65831E-13
 -1      3883 1.99667E+01 1.10836E-01 4.05629E-04 1.82974E-02 3.33792E-13 2.78587E-13
 -1      3884 2.16402E+01-2.56091E+00 1.59375E-02-2.28263E+00-3.16184E-14-1.53040E-13
 -1      3885 1.37123E+01 1.14057E+00 6.03947E-02 3.90515E-01 1.15675E-13-8.46025E-15
 -1      3886 1.37223E+01 1.04797E+00-1.17491E-02-3.71468E-01 1.66107E-13 1.89224E-14
 -1      3887 2.02119E+01 1.12098E+00 2.15399E-05-6.85407E-03 1.57645E-13-2.14163E-13
 -1      3888 2.02118E+01 1.23619E+00-1.70719E-03 8.09958E-02 1.68638E-13-2.31532E-13
 -1      3889 2.01747E+01 1.36047E+00-2.19292E-04 7.41498E-02 1.42101E-13-2.45719E-13
 -1      3890 2.01767E+01 1.15222E+00 1.35638E-03-4.50254E-02 1.52062E-13-2.12660E-13
 -1      3891 1.43410E+01 7.07537E-01 7.25114E-02-1.91062E+00-1.03723E-13-3.62495E-13
 -1      3892 1.54162E+01 5.94070E-02-1.27386E-02-2.80099E+00-1.96800E-13-2.30566E-13
 -1      3893 1.69614E+01-6.72041E-01 7.01330E-02-3.31509E+00 9.93650E-14-4.64325E-13
 -1      3894 1.83509E+01-1.42980E+00-1.55406E-02-3.28823E+00 1.06566E-13-2.98109E-13
 -1      3895 1.89246E+01 9.37407E-01-6.34496E-03 9.84827E-01 2.51813E-13-5.11313E-14
 -1      3896 1.88050E+01 9.70725E-01 8.62076E-04 1.09027E+00 1.47008E-13-5.07233E-14
 -1      3897 1.84135E+01 1.08534E+00 8.57334E-03 9.87615E-01 1.75105E-13 3.54614E-14
 -1      3898 1.88026E+01 1.00643E+00 6.69661E-03 8.17530E-01 1.17242E-13 4.22820E-14
 -1      3899 1.70260E+01-1.08017E+00 5.68010E-02-3.68291E+00-3.35267E-13-1.99472E-13
 -1      3900 1.81892E+01 8.25718E-01 3.42417E-03-1.66136E+00-4.86628E-14-1.02382E-13
 -1      3901 1.83492E+01 8.70084E-01-1.05948E-02-1.51142E+00-9.59844E-15-6.94362E-14
 -1      3902 2.00174E+01 1.94937E+00-3.03849E-03-1.58092E-03 2.77482E-14-3.76504E-13
 -1      3903 2.00265E+01 1.92689E+00-3.75120E-03-6.01233E-02-6.48841E-16-4.07283E-13
 -1      3904 2.00790E+01 1.72056E+00 3.82881E-03-3.05823E-02-1.44515E-14-3.91955E-13
 -1      3905 2.00747E+01 1.74599E+00 6.82987E-03 1.75503E-02 3.08276E-14-3.70316E-13
 -1      3906 2.15799E+01-3.11160E+00-3.49789E-02 2.81016E+00 2.08806E-13 1.66932E-14
 -1      3907 2.00332E+01-2.56642E+00 8.49675E-02 3.65216E+00 1.46133E-13-4.91187E-14
 -1      3908 2.10301E+01-2.08182E+00 1.98826E-02-2.32849E+00 4.52693E-14-1.43616E-13
 -1      3909 2.01907E+01 9.85267E-01-1.43430E-03 1.24014E-01-5.55296E-14-3.76320E-13
 -1      3910 2.01691E+01 8.69876E-01-8.07547E-05 2.29512E-01-6.71328E-14-3.50117E-13
 -1      3911 2.01204E+01 9.04312E-01 1.07488E-03 2.39719E-01-5.29194E-14-3.20463E-13
 -1      3912 2.01601E+01 1.08856E+00 4.34212E-04 1.11816E-01-6.14075E-14-3.73373E-13
 -1      3913 1.68982E+01-4.30648E-01 3.29116E-02-3.22276E+00-2.97959E-13-2.02742E-13
 -1      3914 1.68142E+01 8.40791E-02 2.67534E-02-2.67121E+00-1.96637E-13-1.58656E-13
 -1      3915 1.99716E+01 1.14370E-01 2.03178E-04-5.00102E-02 1.11950E-13 2.21497E-14
 -1      3916 1.99657E+01 6.91905E-01-9.11463E-04-5.43536E-01 9.39279E-14-1.47411E-13
 -1      3917 2.00268E+01 7.13575E-01-6.32861E-04-4.55807E-01 1.19011E-13-1.46218E-13
 -1      3918 2.00263E+01 8.16847E-01 2.36697E-03-3.64237E-01 1.05543E-13-1.60513E-13
 -1      3919 1.93298E+01 8.12278E-01 2.56453E-04-9.99738E-01 4.28639E-14-1.66400E-13
 -1      3920 1.94382E+01 7.75254E-01-4.01541E-03-9.14159E-01 8.74000E-14-1.65612E-13
 -1      3921 1.65197E+01 7.27273E-01 1.29046E-02 2.00806E+00-5.98814E-14 3.82064E-14
 -1      3922 1.71042E+01 3.36758E-01-6.03514E-03 2.41026E+00-6.08222E-14-1.08225E-13
 -1      3923 1.64067E+01-1.43817E-01 1.13883E-02-2.67330E+00 1.55771E-13-3.66841E-13
 -1      3924 1.70029E+01-8.88503E-01-2.66007E-02 3.29385E+00 1.45161E-13-7.06935E-14
 -1      3925 1.62823E+01-3.99262E-01 6.07693E-02 3.10871E+00 1.33988E-13-1.82715E-13
 -1      3926 1.76930E+01 5.89027E-01 1.87255E-03-2.03506E+00-9.91967E-14-1.44425E-13
 -1      3927 1.78454E+01 7.33410E-01-1.15668E-02-1.83009E+00-6.86677E-14-1.46929E-13
 -1      3928 1.75965E+01 9.52736E-01 2.70120E-02-1.54770E+00-4.67807E-14-7.22521E-14
 -1      3929 1.42662E+01 8.10163E-01-2.51000E-02-1.18524E+00-2.71146E-14-3.55781E-13
 -1      3930 2.00576E+01-1.77976E+00-1.83492E-02-2.63366E+00 8.84158E-14-2.43379E-13
 -1      3931 1.99117E+01 6.30938E-01 1.58853E-03-7.33354E-01 5.70168E-14-1.69444E-13
 -1      3932 1.39012E+01 7.90573E-01 2.41871E-02 1.08756E+00 1.06559E-13-3.80683E-13
 -1      3933 1.86362E+01 8.97254E-01 2.66808E-03-1.38542E+00-7.12267E-15-1.03946E-13
 -1      3934 1.87808E+01 8.91205E-01-7.61415E-03-1.26935E+00 6.86517E-15-9.79167E-14
 -1      3935 1.81649E+01 1.00951E+00 9.94091E-03-1.25949E+00-2.44182E-14-9.68916E-14
 -1      3936 1.99703E+01 1.12587E-01-8.84537E-05 4.06174E-02 1.45750E-13-1.12645E-13
 -1      3937 1.99663E+01 1.24357E-01-5.87406E-06 4.88312E-02 2.56602E-13-2.60847E-13
 -1      3938 1.99636E+01 1.18520E-01-3.36373E-04 3.34822E-02 2.71280E-13 4.68796E-13
 -1      3939 1.99523E+01 1.29726E-01-2.02059E-04-5.52104E-03 1.26954E-13-1.44202E-13
 -1      3940 1.99523E+01 1.29987E-01-2.15815E-04 4.59684E-03 1.26406E-13 2.28836E-14
 -1      3941 1.93966E+01 8.34267E-01 4.46469E-03-7.70438E-01 6.72931E-14-1.71497E-13
 -1      3942 1.95890E+01 7.43200E-01-1.28225E-04-8.44276E-01 7.25367E-14-1.55100E-13
 -1      3943 1.96790E+01 7.14782E-01-2.76708E-03-7.63494E-01 5.96136E-14-1.65874E-13
 -1      3944 2.00933E+01 1.50071E+00-2.47918E-03 4.05630E-02 6.00671E-14-3.49835E-13
 -1      3945 2.00768E+01 1.54013E+00-2.48587E-03 2.36566E-02 2.96838E-14-3.55031E-13
 -1      3946 1.43642E+01 1.02316E+00 1.11548E-02 9.37735E-01 1.83225E-13 6.27050E-14
 -1      3947 1.56914E+01 3.47394E-02-6.09222E-03 2.52251E+00 1.14514E-13-2.95807E-13
 -1      3948 1.49640E+01 1.13740E+00 3.01658E-03-4.45753E-01 2.12988E-13-6.13736E-14
 -1      3949 1.43814E+01 1.03232E+00 3.94687E-02-9.86652E-01 1.69860E-13-7.66260E-14
 -1      3950 1.51142E+01 7.61983E-01-3.68442E-02-1.57017E+00 1.98082E-13-2.81206E-13
 -1      3951 1.90310E+01-1.92876E+00 2.55403E-02 3.44666E+00 1.64704E-13-5.44191E-14
 -1      3952 2.01451E+01 1.40117E+00-2.37619E-03 6.12405E-02 1.14913E-13-3.09086E-13
 -1      3953 2.01141E+01 1.48260E+00-1.91327E-03 4.65351E-02 9.15012E-14-3.39804E-13
 -1      3954 2.01134E+01 1.35842E+00 3.56992E-03-1.66571E-03 8.08013E-14-3.20790E-13
 -1      3955 2.01554E+01 1.29388E+00 1.69851E-03 6.36867E-03 1.36925E-13-2.75940E-13
 -1      3956 1.69099E+01 4.16459E-01-4.85070E-03-2.35096E+00-1.24972E-13-1.51861E-13
 -1      3957 1.99579E+01 1.23947E-01-1.18944E-04-2.57303E-02 2.21990E-13-7.39041E-14
 -1      3958 1.99541E+01 1.27017E-01-4.12679E-04-1.71925E-02 1.82941E-13-1.34874E-13
 -1      3959 1.99449E+01 1.46773E-01 5.51533E-04-1.31250E-02 2.44138E-14-1.01223E-13
 -1      3960 1.72157E+01-1.78856E-02 1.98326E-02 2.71471E+00-1.24422E-13-2.93838E-14
 -1      3961 1.91421E+01 8.44545E-01-5.54730E-03-1.07792E+00 5.27248E-16-1.53011E-13
 -1      3962 1.90697E+01 9.11343E-01 5.91850E-03-9.05874E-01 3.11132E-14-1.67263E-13
 -1      3963 1.90141E+01 8.75527E-01 9.84982E-04-1.17430E+00-1.84825E-14-1.30302E-13
 -1      3964 1.60336E+01 4.75114E-01 3.92347E-02-2.14253E+00 1.63698E-13-3.50358E-13
 -1      3965 1.72419E+01-2.01579E-01-1.59655E-02-2.53299E+00 1.12634E-13-3.84879E-13
 -1      3966 1.86539E+01-1.32299E+00 3.90951E-02 3.15625E+00 1.63192E-13-1.07493E-13
 -1      3967 1.83315E+01-8.55855E-01 1.85242E-03 2.78372E+00 9.89937E-14-8.34575E-14
 -1      3968 1.97073E+01 6.82042E-01-2.40311E-03 5.53855E-01-3.74896E-14-2.67353E-13
 -1      3969 1.96266E+01 6.66330E-01 1.02871E-03 6.29882E-01-3.28961E-14-2.74881E-13
 -1      3970 1.95001E+01 6.50272E-01-3.20020E-03 7.05761E-01-1.84116E-14-2.62343E-13
 -1      3971 1.94167E+01 6.35686E-01 2.16855E-03 7.92254E-01-9.16666E-16-2.50638E-13
 -1      3972 1.94729E+01 7.31412E-01 2.54548E-03 5.76975E-01-2.04961E-14-2.49587E-13
 -1      3973 1.92735E+01 6.11187E-01-4.08427E-03 8.87743E-01 1.56225E-14-2.61553E-13
 -1      3974 1.91963E+01 5.80964E-01 3.81673E-03 9.91996E-01 5.49805E-14-2.45160E-13
 -1      3975 1.92110E+01 7.08962E-01 2.15415E-03 7.42105E-01-1.60299E-14-1.65007E-13
 -1      3976 1.90409E+01 5.29520E-01-4.91315E-03 1.11673E+00 8.49762E-14-2.35608E-13
 -1      3977 1.89839E+01 4.63276E-01 6.11895E-03 1.24701E+00 6.12837E-14-2.21122E-13
 -1      3978 1.89239E+01 6.60711E-01 2.07275E-03 9.56268E-01 5.13929E-14-2.47828E-13
 -1      3979 1.88235E+01 3.62258E-01-6.04781E-03 1.41316E+00 1.01979E-13-1.67835E-13
 -1      3980 1.88060E+01 2.36458E-01 8.35757E-03 1.57844E+00 1.30272E-13-8.06269E-14
 -1      3981 1.86210E+01 5.48012E-01 1.49014E-03 1.24340E+00 1.56318E-13-1.47791E-13
 -1      3982 1.86593E+01 5.90233E-02-6.25204E-03 1.79780E+00 1.07637E-13-5.87869E-14
 -1      3983 1.87081E+01-1.63023E-01 8.26253E-03 2.01222E+00 9.04592E-14 1.82124E-15
 -1      3984 1.83294E+01 3.15783E-01 4.64762E-04 1.63719E+00 1.46526E-13-1.07968E-13
 -1      3985 1.84325E+01-3.14535E-01-9.70790E-03 2.23265E+00 5.11787E-14-3.12265E-14
 -1      3986 1.85953E+01-6.79992E-01-2.89179E-04 2.49662E+00 4.00506E-14-9.20390E-14
 -1      3987 1.73294E+01-1.19638E-01 3.88708E-02 2.55536E+00 4.21963E-14-1.23937E-13
 -1      3988 1.79650E+01 7.29558E-02 1.76296E-02 2.06724E+00 5.41348E-14-1.14446E-13
 -1      3989 1.86209E+01 1.87276E-02 1.06641E-02-1.86399E+00 9.99417E-14-1.79600E-13
 -1      3990 1.85662E+01 2.22453E-01-6.33615E-03-1.65988E+00 1.31955E-13-2.08704E-13
 -1      3991 1.86975E+01 3.85704E-01 8.05159E-03-1.44073E+00 1.55816E-13-2.30324E-13
 -1      3992 1.87041E+01 4.98712E-01-5.98985E-03-1.28132E+00 8.20841E-14-2.44930E-13
 -1      3993 1.82364E+01 4.78008E-01 2.86963E-03-1.49858E+00 1.13667E-13-3.53537E-13
 -1      3994 1.88412E+01 5.86555E-01 5.14628E-03-1.11723E+00 4.06056E-14-3.00040E-13
 -1      3995 1.88834E+01 6.38405E-01-5.15799E-03-9.91175E-01-5.10556E-15-3.18815E-13
 -1      3996 1.84949E+01 6.79342E-01 3.98040E-03-1.12420E+00 2.25244E-14-4.55923E-13
 -1      3997 1.90129E+01 6.73882E-01 3.07799E-03-8.68137E-01 6.29344E-15-3.63092E-13
 -1      3998 1.90699E+01 6.84725E-01-4.52250E-03-7.68333E-01 5.07163E-14-3.01348E-13
 -1      3999 1.87494E+01 7.62456E-01 3.65751E-03-8.47852E-01 1.80190E-14-3.96946E-13
 -1      4000 1.91865E+01 6.85936E-01 1.80573E-03-6.75125E-01-3.87420E-14-3.03875E-13
 -1      4001 1.92467E+01 6.70877E-01-3.78281E-03-5.95502E-01-1.24334E-13-3.34818E-13
 -1      4002 1.89841E+01 7.69778E-01 3.38234E-03-6.43196E-01-3.10869E-14-3.06193E-13
 -1      4003 1.93480E+01 6.50560E-01 1.05937E-03-5.24188E-01-1.58595E-13-2.46570E-13
 -1      4004 1.94051E+01 6.20110E-01-3.08580E-03-4.60325E-01-1.82927E-13-1.68765E-13
 -1      4005 1.91922E+01 7.27731E-01 2.98271E-03-4.88469E-01-1.09821E-13-3.88239E-13
 -1      4006 1.94903E+01 5.87708E-01 5.78549E-04-4.05545E-01-3.08959E-13-5.61602E-14
 -1      4007 1.95409E+01 5.49732E-01-2.50140E-03-3.54165E-01-2.69536E-13-1.12489E-13
 -1      4008 1.93706E+01 6.57184E-01 2.54585E-03-3.71121E-01-2.03581E-13-2.41670E-13
 -1      4009 1.96110E+01 5.12000E-01 3.04877E-04-3.11812E-01-2.62010E-13-1.53997E-13
 -1      4010 1.96538E+01 4.71790E-01-2.01509E-03-2.70479E-01-2.67481E-13-2.13648E-13
 -1      4011 1.95193E+01 5.73362E-01 2.12205E-03-2.81257E-01-2.82343E-13-2.37210E-13
 -1      4012 1.97102E+01 4.33221E-01 1.53662E-04-2.37654E-01-1.60597E-13-2.57459E-13
 -1      4013 1.97450E+01 3.94197E-01-1.60960E-03-2.04519E-01-1.72640E-13-2.56947E-13
 -1      4014 1.96405E+01 4.86383E-01 1.73641E-03-2.11986E-01-2.58265E-13-2.57388E-13
 -1      4015 1.97894E+01 3.57607E-01 7.88371E-05-1.79104E-01-1.51861E-13-7.71108E-14
 -1      4016 1.98170E+01 3.21815E-01-1.26423E-03-1.52713E-01-1.70666E-13 1.12465E-13
 -1      4017 1.97370E+01 4.02776E-01 1.38756E-03-1.58442E-01-9.18324E-14-1.30618E-13
 -1      4018 1.98512E+01 2.88758E-01 4.19513E-05-1.33129E-01-1.65147E-13 1.53716E-13
 -1      4019 1.98724E+01 2.57281E-01-9.46341E-04-1.12326E-01 1.04085E-13 1.57225E-13
 -1      4020 1.98123E+01 3.26480E-01 1.11267E-03-1.17141E-01-1.07385E-13 4.69573E-14
 -1      4021 1.98980E+01 2.28536E-01 7.83038E-07-9.73687E-02 2.74423E-13 1.10679E-13
 -1      4022 1.99137E+01 2.01612E-01-7.65953E-04-8.11292E-02 3.05988E-13 1.44083E-13
 -1      4023 1.98698E+01 2.59371E-01 8.88655E-04-8.53491E-02 1.55645E-13 2.07558E-13
 -1      4024 1.99327E+01 1.77584E-01 8.73856E-05-6.96775E-02 6.92112E-14 6.53793E-14
 -1      4025 1.99438E+01 1.55281E-01-4.94794E-04-5.71378E-02 8.27483E-15 1.72635E-13
 -1      4026 1.99120E+01 2.02071E-01 4.87126E-04-6.10886E-02 1.29738E-13 1.50741E-13
 -1      4027 2.01283E+01 1.43368E+00-2.74242E-03-2.97568E-02-7.28255E-14-4.18461E-13
 -1      4028 2.01441E+01 1.27648E+00 2.80407E-03 4.39247E-02-5.72985E-14-3.93349E-13
 -1      4029 2.01029E+01 1.50502E+00-4.35851E-04-1.16145E-02-4.63270E-14-4.01131E-13
 -1      4030 1.94725E+01 6.49308E-01-2.66893E-03 3.52719E-01-1.20455E-13-2.23203E-13
 -1      4031 1.93939E+01 7.10542E-01-1.04028E-03 3.96495E-01-2.25206E-14-8.84841E-14
 -1      4032 1.77323E+01 1.16706E+00-1.12825E-02 8.69397E-01-9.34463E-15-1.39361E-13
 -1      4033 1.74570E+01 1.17218E+00-1.44737E-03 9.75969E-01-3.66113E-14-1.38649E-13
 -1      4034 1.70143E+01 1.14510E+00-1.62449E-02 1.07120E+00 7.95056E-14-3.52985E-14
 -1      4035 1.66787E+01 1.10100E+00 4.99035E-03 1.22989E+00 6.47551E-14-5.18864E-14
 -1      4036 1.69705E+01 1.28169E+00 1.73436E-02 6.93881E-01 6.71627E-14-2.06471E-13
 -1      4037 1.92796E+01 7.72280E-01-3.32084E-03 4.30771E-01-7.38323E-15 1.91756E-14
 -1      4038 1.91760E+01 8.36065E-01-1.48883E-03 4.80280E-01-3.92458E-14 2.19551E-13
 -1      4039 1.92633E+01 7.84250E-01 4.20565E-03 3.24817E-01 6.79325E-14 3.17275E-14
 -1      4040 1.90283E+01 8.98154E-01-4.20182E-03 5.17937E-01 3.98019E-15 2.08396E-13
 -1      4041 1.88936E+01 9.60205E-01-1.97564E-03 5.73780E-01 1.32605E-13 1.62069E-13
 -1      4042 1.90096E+01 9.15767E-01 5.45731E-03 3.83787E-01 6.73536E-14 1.73011E-13
 -1      4043 1.96192E+01 5.35506E-01-2.15939E-03 2.83774E-01-6.77865E-14-1.61967E-13
 -1      4044 1.95604E+01 5.91525E-01-6.85662E-04 3.21971E-01-1.80115E-13-2.74205E-13
 -1      4045 1.94586E+01 6.57786E-01 3.21936E-03 2.69642E-01-5.37457E-14-2.20980E-13
 -1      4046 1.97298E+01 4.34092E-01-1.74435E-03 2.23999E-01 1.21564E-14 4.08471E-14
 -1      4047 1.96863E+01 4.83610E-01-4.09470E-04 2.56717E-01-4.91947E-14 1.56231E-14
 -1      4048 1.96079E+01 5.41713E-01 2.45989E-03 2.19160E-01-1.28686E-13-1.99091E-13
 -1      4049 1.98121E+01 3.46267E-01-1.40359E-03 1.73274E-01 9.85947E-14-7.13659E-14
 -1      4050 1.97805E+01 3.88891E-01-2.11434E-04 2.00736E-01 1.33397E-13 2.20701E-14
 -1      4051 1.97208E+01 4.38670E-01 1.87029E-03 1.74275E-01 3.69403E-14 8.23969E-15
 -1      4052 1.98726E+01 2.71965E-01-1.11229E-03 1.31205E-01-8.53204E-14 1.88136E-14
 -1      4053 1.98500E+01 3.07835E-01-7.13265E-05 1.53768E-01 5.11824E-14-2.22060E-14
 -1      4054 1.98052E+01 3.49531E-01 1.39728E-03 1.35462E-01 4.86050E-14 3.12696E-13
 -1      4055 1.99162E+01 2.10547E-01-8.11912E-04 9.71445E-02 1.15020E-13-1.18163E-13
 -1      4056 1.99004E+01 2.40101E-01 5.96269E-05 1.15265E-01-2.76749E-14-7.80929E-14
 -1      4057 1.98675E+01 2.74169E-01 1.05126E-03 1.03058E-01-7.31846E-14 1.81467E-13
 -1      4058 1.99544E+01 1.27532E-01-3.00107E-04 1.49242E-02 2.25119E-13 1.69449E-13
 -1      4059 1.99581E+01 1.24622E-01-1.33220E-04 2.43151E-02 2.52953E-13 4.17022E-13
 -1      4060 1.99521E+01 1.38704E-01 2.10253E-04 3.05191E-02 2.39764E-13 4.82219E-13
 -1      4061 1.99454E+01 1.46868E-01 6.68622E-04 1.00948E-02 1.03967E-13-2.62713E-14
 -1      4062 1.64106E+01 1.58760E-01-1.31661E-02 2.23253E+00 9.17617E-14-2.29235E-13
 -1      4063 1.54340E+01 6.16003E-01 5.27744E-02 1.87812E+00 9.15591E-14-3.89263E-13
 -1      4064 1.64265E+01 8.12836E-01 4.05090E-02-1.94436E+00-7.99640E-14-1.13563E-13
 -1      4065 1.86419E+01-9.17050E-01-1.05288E-02-2.70712E+00 1.91791E-13-2.42641E-13
 -1      4066 1.93491E+01-1.52418E+00 3.03472E-02-2.96807E+00 1.58084E-13-1.83205E-13
 -1      4067 1.99639E+01 1.20989E-01-2.09886E-04-4.29281E-02 2.53846E-13 2.54162E-14
 -1      4068 2.00942E+01 1.39446E+00 5.70459E-03 5.75754E-03 1.42530E-14-3.46465E-13
 -1      4069 2.00682E+01 1.55558E+00-3.40216E-03 2.44808E-02 2.16510E-14-3.69703E-13
 -1      4070 2.00702E+01 1.56208E+00-1.82666E-03 7.55685E-03 1.58562E-14-3.66748E-13
 -1      4071 1.46956E+01 8.29828E-01-2.45817E-02 1.13975E+00 8.51880E-14-3.42757E-13
 -1      4072 1.44333E+01 1.20439E+00 7.89871E-02 8.81404E-02 1.03933E-13-4.20920E-13
 -1      4073 1.55562E+01 8.63974E-01-1.92274E-02 1.00871E+00 6.52191E-14-3.58948E-13
 -1      4074 1.50979E+01 9.41773E-01-1.17191E-02-9.17550E-01 8.10116E-16-3.00678E-13
 -1      4075 1.98858E+01 7.37035E-01-1.79833E-03 4.17783E-01-1.53560E-14-3.06772E-13
 -1      4076 1.98139E+01 7.05468E-01 1.04777E-04 4.89552E-01-2.14965E-14-2.81121E-13
 -1      4077 1.97003E+01 7.59538E-01 2.42006E-03 4.41718E-01-1.34307E-14-3.16336E-13
 -1      4078 1.97987E+01 6.95870E-01-4.65017E-04-6.95421E-01 4.54215E-14-1.60470E-13
 -1      4079 1.98732E+01 6.86876E-01-1.68881E-03-6.13986E-01 5.10176E-14-1.58394E-13
 -1      4080 1.98680E+01 7.64315E-01 2.66912E-03-5.09072E-01 8.58805E-14-9.63527E-14
 -1      4081 1.96592E+01 7.77741E-01 3.29671E-03-6.42017E-01 6.39087E-14-1.16806E-13
 -1      4082 1.58464E+01 1.56810E-01 2.86057E-02 2.75048E+00-4.26798E-14 4.10132E-14
 -1      4083 1.51376E+01 6.08657E-01-1.73509E-02 2.05885E+00 2.11454E-14 9.82894E-14
 -1      4084 2.00260E+01 8.45342E-01-1.44219E-03 2.86318E-01-4.57902E-14-3.24881E-13
 -1      4085 1.99690E+01 7.83383E-01-5.34584E-04 3.58535E-01-3.11560E-14-3.11869E-13
 -1      4086 1.98870E+01 8.24486E-01 2.45135E-03 3.23770E-01-1.64265E-14-3.24299E-13
 -1      4087 1.58173E+01 8.47986E-01 1.43931E-02 1.71447E+00-8.82098E-14 1.68728E-14
 -1      4088 1.50484E+01 9.99671E-01 3.64559E-02 1.44439E+00 2.89766E-14 1.79991E-13
 -1      4089 1.49793E+01 1.12866E+00-2.44864E-02 7.01656E-01 1.01941E-13-5.71522E-14
 -1      4090 1.62064E+01 9.79450E-01-2.43047E-02 1.45547E+00-5.78149E-14 2.48642E-14
 -1      4091 1.79914E+01-3.78635E-01 1.70661E-02-2.54441E+00 1.34389E-13-4.29797E-13
 -1      4092 1.87735E+01-5.32398E-01 9.26041E-03-2.30703E+00 2.32249E-13-3.18529E-13
 -1      4093 1.85938E+01-2.09653E-01-9.47211E-03-2.07429E+00 1.86318E-13-2.02019E-13
 -1      4094 1.74269E+01 1.33694E-01-1.81051E-02-2.11908E+00 1.18712E-13-4.26856E-13
 -1      4095 1.99525E+01 1.41482E-01 2.70373E-04-4.38735E-02 1.13149E-13 1.24720E-13
 -1      4096 1.65383E+01 2.30568E-02 1.44603E-03 2.76135E+00-5.76340E-14 6.16616E-14
 -1      4097 1.61571E+01 7.25500E-01 1.62824E-02-1.58364E+00 1.27367E-13-4.03219E-13
 -1      4098 1.88304E+01 9.66969E-01-2.06796E-03-7.57324E-01 3.74853E-14-1.25523E-13
 -1      4099 1.90139E+01 9.25192E-01-4.68998E-03-6.96441E-01 6.13353E-14-1.40129E-13
 -1      4100 1.80965E+01 1.43291E-01 1.29112E-03-1.93644E+00 1.62851E-13-3.07811E-13
 -1      4101 1.68095E+01 2.59517E-01-2.16608E-02 2.01896E+00 5.43719E-14-2.56030E-13
 -1      4102 1.56465E+01 1.20801E+00 1.72890E-03 5.72159E-01 3.26067E-14-6.84674E-14
 -1      4103 1.52085E+01 1.28883E+00 3.91891E-02 8.83255E-02 1.47106E-13 3.42609E-14
 -1      4104 1.55286E+01 1.14666E+00-1.92119E-02-4.61809E-01 1.00060E-13-2.65491E-14
 -1      4105 1.80605E+01 1.15024E+00-2.54486E-03 8.07275E-01 4.46185E-14-1.48001E-13
 -1      4106 1.77066E+01 1.24406E+00 1.29352E-02 5.88273E-01 7.86193E-15-3.60171E-13
 -1      4107 1.82807E+01 1.11441E+00-7.69025E-03 7.28346E-01 9.77551E-14-4.83530E-14
 -1      4108 1.68919E+01 1.01282E+00-2.23306E-02-1.28332E+00-6.86508E-14-1.28847E-13
 -1      4109 1.72815E+01 1.06299E+00-2.12685E-02-1.09567E+00-6.18395E-14-1.00929E-13
 -1      4110 1.77386E+01 1.07173E+00-2.86747E-03-1.02301E+00-5.43417E-14-1.24976E-13
 -1      4111 1.80170E+01 1.06244E+00-1.03722E-02-9.25076E-01-4.52292E-14-1.34990E-13
 -1      4112 1.72857E+01 1.17808E+00 1.47271E-02-7.25599E-01-6.55336E-14-1.56424E-13
 -1      4113 1.99543E+01 8.38697E-01-2.31395E-03-3.38601E-01 8.67103E-14-1.70797E-13
 -1      4114 2.00273E+01 8.90538E-01 3.61098E-04-2.63549E-01 8.20951E-14-2.00669E-13
 -1      4115 2.00994E+01 1.22193E+00-5.90354E-04 7.51538E-02-2.61881E-14-3.62145E-13
 -1      4116 2.01248E+01 1.15294E+00-2.40715E-03 8.59144E-02-4.40461E-14-3.90556E-13
 -1      4117 2.01154E+01 1.05461E+00 1.32472E-03 1.48895E-01-3.75835E-14-3.83563E-13
 -1      4118 2.00876E+01 1.53146E+00-1.56035E-03 4.58735E-03-2.38010E-14-3.66508E-13
 -1      4119 1.92171E+01 8.86025E-01-1.70094E-03-6.57048E-01 7.74893E-14-1.21571E-13
 -1      4120 1.93634E+01 8.49376E-01-4.15237E-03-6.00253E-01 9.38034E-14-8.33792E-14
 -1      4121 1.90332E+01 9.60558E-01 7.52938E-03-5.15543E-01 8.37716E-14-1.04885E-13
 -1      4122 1.61041E+01 1.21972E+00 2.29657E-02 9.52453E-01 2.00514E-14-2.31201E-13
 -1      4123 2.00895E+01 9.75874E-01-1.32945E-03 1.86837E-01-2.63389E-14-3.72399E-13
 -1      4124 2.00626E+01 9.01947E-01 1.84933E-04 2.46507E-01-3.54475E-14-3.55525E-13
 -1      4125 2.00017E+01 9.24852E-01 2.04339E-03 2.26975E-01-1.32645E-14-3.86416E-13
 -1      4126 2.00616E+01 1.04433E+00 7.40006E-04 1.51626E-01-1.34915E-14-3.96493E-13
 -1      4127 1.99334E+01 1.88698E-01 1.38993E-04 8.61958E-02 2.57785E-13-2.24139E-13
 -1      4128 1.99093E+01 2.16135E-01 6.96224E-04 7.79840E-02 2.26392E-13-1.20257E-13
 -1      4129 1.99423E+01 1.68114E-01-5.79968E-04 7.33139E-02 3.21099E-13-3.89942E-13
 -1      4130 1.99289E+01 1.66591E-01-4.24511E-04 6.87166E-03 4.47864E-14-1.39128E-13
 -1      4131 1.99316E+01 1.64532E-01-2.17270E-04 1.77474E-02 1.15572E-13 1.22056E-13
 -1      4132 1.99594E+01 1.40024E-01 5.68137E-06 5.83412E-02 2.51931E-13-2.37541E-13
 -1      4133 2.01469E+01 1.19072E+00-1.69199E-03-4.98661E-02 1.35326E-13-2.63735E-13
 -1      4134 1.87026E+01 1.01721E+00-5.53898E-03 6.15125E-01 3.94380E-14 1.01315E-13
 -1      4135 1.85292E+01 1.07152E+00-2.34166E-03 6.79612E-01 7.20048E-14 1.99108E-14
 -1      4136 1.86824E+01 1.04456E+00 7.26798E-03 4.44941E-01-9.79989E-15 2.75298E-14
 -1      4137 1.60104E+01 1.03505E+00-1.80765E-02-8.49774E-01 7.45497E-15-1.91036E-13
 -1      4138 2.00633E+01 1.25785E+00-1.93448E-04-1.68204E-02 4.45755E-14-3.13463E-13
 -1      4139 2.00550E+01 1.26950E+00-1.96315E-03-3.72462E-03 5.02837E-15-3.15519E-13
 -1      4140 2.01333E+01 1.08241E+00 6.92123E-04-1.07233E-01 1.28639E-13-2.35836E-13
 -1      4141 2.01161E+01 1.21802E+00 1.73486E-03-5.55488E-02 1.05041E-13-2.91791E-13
 -1      4142 2.00886E+01 1.22920E+00-3.38743E-03-5.17993E-02 8.60853E-14-3.00561E-13
 -1      4143 2.00878E+01 9.74005E-01-3.28461E-03-1.95915E-01 1.07334E-13-2.18731E-13
 -1      4144 1.86646E+01 9.81525E-01 7.62204E-03-1.06071E+00-1.60444E-14-1.75430E-13
 -1      4145 1.99373E+01 1.59124E-01-1.78080E-04-3.77085E-02 7.18114E-14 1.32351E-13
 -1      4146 1.99319E+01 1.64061E-01-1.12774E-04-2.20301E-02 1.47143E-13-3.11755E-14
 -1      4147 1.99292E+01 1.66137E-01-3.21149E-04-9.44891E-03 4.10403E-14-8.76537E-14
 -1      4148 1.99174E+01 1.87983E-01 5.95547E-04-2.04600E-03 1.52174E-13-1.12482E-13
 -1      4149 2.00378E+01 1.00659E+00 2.13153E-03-1.76709E-01 8.21963E-14-2.52637E-13
 -1      4150 2.00627E+01 1.14004E+00 2.04263E-03-6.65586E-02 6.58822E-14-2.75681E-13
 -1      4151 1.85742E+01 1.00494E+00-6.85321E-03-7.99971E-01 2.83508E-15-1.49063E-13
 -1      4152 1.85858E+01 1.04742E+00 8.76351E-03-5.78175E-01 3.18531E-14-9.01145E-14
 -1      4153 1.83470E+01 1.04081E+00-2.29067E-03-8.71442E-01-4.73634E-14-1.45469E-13
 -1      4154 1.76189E+01 3.21187E-01 6.35785E-03-1.86563E+00 1.63779E-13-4.59854E-13
 -1      4155 1.76107E+01 4.79720E-01-1.34650E-02-1.64342E+00 1.90073E-13-4.55481E-13
 -1      4156 1.70280E+01 5.00168E-01-2.82220E-04-1.80587E+00 1.16191E-13-4.72394E-13
 -1      4157 1.91529E+01 7.79588E-01-5.51033E-03 5.58251E-01-2.21723E-14-2.05706E-13
 -1      4158 1.90232E+01 7.80277E-01 2.41814E-03 6.45981E-01-2.45490E-15-2.16452E-13
 -1      4159 1.88117E+01 7.66260E-01-7.70159E-03 7.40328E-01 9.60901E-15-2.25652E-13
 -1      4160 1.86747E+01 7.52865E-01 4.11539E-03 8.56879E-01 4.76564E-14-2.42804E-13
 -1      4161 1.87964E+01 8.67973E-01 6.36923E-03 5.47030E-01-6.58783E-15-2.40157E-13
 -1      4162 1.84308E+01 7.08478E-01-9.04146E-03 9.85937E-01 1.00699E-13-2.44193E-13
 -1      4163 1.82841E+01 6.55905E-01 2.80171E-03 1.14068E+00 1.58091E-13-2.04789E-13
 -1      4164 1.83813E+01 8.56361E-01 1.05536E-02 7.58129E-01 6.77563E-14-2.22402E-13
 -1      4165 1.79862E+01 5.86646E-01-1.20752E-02 1.32671E+00 1.75552E-13-2.57828E-13
 -1      4166 1.78438E+01 4.62652E-01 1.21306E-03 1.56457E+00 1.16868E-13-2.65167E-13
 -1      4167 1.78586E+01 7.89487E-01 8.53276E-03 1.06294E+00 1.41692E-13-3.22152E-13
 -1      4168 1.75111E+01 3.87983E-01-2.06186E-02 1.69155E+00 1.00672E-13-2.73326E-13
 -1      4169 1.72230E+01 3.21679E-01-9.70584E-03 1.86972E+00 5.39672E-14-2.71366E-13
 -1      4170 1.66101E+01 7.23809E-01 4.87829E-02 1.54208E+00 9.79960E-14-3.98442E-13
 -1      4171 1.72719E+01 7.48259E-01 2.22633E-02 1.33436E+00 1.51967E-13-4.34014E-13
 -1      4172 1.78903E+01 6.14170E-01 4.12778E-03-1.40241E+00 1.54811E-13-4.78281E-13
 -1      4173 1.80026E+01 7.14980E-01-1.24498E-02-1.19592E+00 4.71279E-14-4.90196E-13
 -1      4174 1.74689E+01 7.81912E-01 1.10676E-02-1.31418E+00 1.55103E-13-5.77830E-13
 -1      4175 1.98645E+01 8.10437E-01-1.24900E-03-3.89006E-01 7.10448E-14-1.16703E-13
 -1      4176 1.98790E+01 8.87649E-01 3.62735E-03-2.87971E-01 4.74020E-14-1.64630E-13
 -1      4177 1.97690E+01 7.99390E-01-2.11800E-03-4.53920E-01 3.77848E-14-1.03081E-13
 -1      4178 1.82432E+01 7.81070E-01 2.15716E-03-1.02831E+00 3.40549E-14-5.26613E-13
 -1      4179 1.83652E+01 8.21221E-01-9.29071E-03-8.77564E-01 1.52933E-14-5.20831E-13
 -1      4180 1.79572E+01 9.12289E-01 1.06445E-02-9.26117E-01 5.77626E-14-5.62916E-13
 -1      4181 1.85667E+01 8.41597E-01 1.72721E-03-7.61382E-01 3.98162E-14-4.44416E-13
 -1      4182 1.86780E+01 8.41496E-01-8.50841E-03-6.52107E-01 4.70593E-14-4.40520E-13
 -1      4183 1.83692E+01 9.41202E-01 9.24990E-03-6.60297E-01 9.95900E-14-5.22008E-13
 -1      4184 1.88469E+01 8.31883E-01 4.90308E-04-5.62841E-01 4.86410E-14-3.88071E-13
 -1      4185 1.89509E+01 8.05985E-01-6.55451E-03-4.82548E-01-5.78392E-14-3.76206E-13
 -1      4186 1.87004E+01 9.22245E-01 9.96358E-03-4.74084E-01 7.79501E-14-5.67170E-13
 -1      4187 1.90888E+01 7.76792E-01-1.93412E-04-4.19334E-01-1.27354E-13-3.40800E-13
 -1      4188 1.91813E+01 7.36916E-01-4.76885E-03-3.59224E-01-7.14662E-14-2.79513E-13
 -1      4189 1.89883E+01 8.53236E-01 1.04252E-02-3.43383E-01 3.55564E-16-4.70738E-13
 -1      4190 1.92926E+01 6.96704E-01-4.30642E-04-3.13183E-01-1.60443E-13-3.21369E-13
 -1      4191 1.93713E+01 6.50423E-01-3.49093E-03-2.67642E-01-2.77165E-13-2.93056E-13
 -1      4192 1.92196E+01 7.59606E-01 8.48182E-03-2.48721E-01-1.58547E-13-3.73488E-13
 -1      4193 1.94604E+01 6.05343E-01-5.65458E-04-2.33796E-01-3.01441E-13-2.40208E-13
 -1      4194 1.95257E+01 5.57757E-01-2.56061E-03-1.98931E-01-2.18086E-13-2.61390E-13
 -1      4195 1.94069E+01 6.57159E-01 6.70889E-03-1.80028E-01-2.16130E-13-2.31248E-13
 -1      4196 1.95961E+01 5.12249E-01-6.12013E-04-1.73992E-01-2.24290E-13-1.83013E-13
 -1      4197 1.96491E+01 4.66680E-01-1.87393E-03-1.47145E-01-1.80375E-13-9.15040E-14
 -1      4198 1.95570E+01 5.54825E-01 5.25776E-03-1.30127E-01-1.75808E-13-1.27585E-13
 -1      4199 1.97039E+01 4.23691E-01-5.88435E-04-1.28747E-01-1.08356E-13-1.09035E-13
 -1      4200 1.97459E+01 3.82131E-01-1.33783E-03-1.07996E-01-6.63747E-14-7.40081E-14
 -1      4201 1.96754E+01 4.58410E-01 4.06390E-03-9.38314E-02-1.08019E-13-1.07006E-13
 -1      4202 1.97877E+01 3.43250E-01-5.43726E-04-9.42587E-02-4.46717E-14-8.61299E-14
 -1      4203 1.98209E+01 3.06814E-01-6.99099E-04-7.78893E-02-3.48051E-14 1.67040E-15
 -1      4204 1.97666E+01 3.71267E-01 2.92616E-03-6.74626E-02-3.02049E-14-1.36540E-13
 -1      4205 1.98517E+01 2.72359E-01-5.94843E-04-6.89217E-02 7.17118E-14-3.73991E-14
 -1      4206 1.98765E+01 2.42181E-01-4.72349E-04-5.58973E-02 1.80968E-13-1.56340E-13
 -1      4207 1.98356E+01 2.90368E-01 2.99082E-04-4.63319E-02 3.08985E-14-2.76641E-13
 -1      4208 1.96016E+01 5.22508E-01-1.88298E-03 1.49011E-01-8.81790E-14-1.47018E-13
 -1      4209 1.95359E+01 5.77563E-01-1.51776E-03 1.68634E-01-8.92526E-14-2.08462E-13
 -1      4210 1.94526E+01 6.34965E-01-2.27820E-03 1.80462E-01-7.38464E-14-1.33916E-13
 -1      4211 1.93657E+01 6.95399E-01-2.17439E-03 2.01245E-01 4.19481E-14-6.01495E-14
 -1      4212 1.94731E+01 6.32466E-01 6.13880E-03 1.06266E-01 3.99916E-15-1.40417E-13
 -1      4213 1.92587E+01 7.57553E-01-2.76047E-03 2.12179E-01 1.39889E-13-8.29758E-14
 -1      4214 1.91447E+01 8.21269E-01-3.07411E-03 2.33164E-01 1.22226E-13 4.82025E-15
 -1      4215 1.92873E+01 7.55469E-01 7.84404E-03 1.17677E-01 8.39906E-14-2.35965E-13
 -1      4216 1.90077E+01 8.85949E-01-3.35613E-03 2.41704E-01 9.37606E-14-1.18419E-14
 -1      4217 1.88599E+01 9.49583E-01-3.98591E-03 2.61915E-01 4.64218E-14-4.73588E-14
 -1      4218 1.90482E+01 8.84707E-01 9.90837E-03 1.21620E-01 4.18899E-14-3.44574E-13
 -1      4219 1.97150E+01 4.22678E-01-1.55172E-03 1.19694E-01-7.46737E-15-2.56004E-14
 -1      4220 1.96659E+01 4.71269E-01-1.04369E-03 1.37455E-01-1.00342E-13-2.14143E-13
 -1      4221 1.96164E+01 5.19887E-01 4.76342E-03 9.13310E-02-2.54196E-14-2.01377E-13
 -1      4222 1.98003E+01 3.36497E-01-1.19687E-03 9.35797E-02-1.42126E-13 2.20056E-13
 -1      4223 1.97639E+01 3.78279E-01-6.97271E-04 1.09124E-01-9.35976E-14 1.57293E-13
 -1      4224 1.97257E+01 4.20030E-01 3.61429E-03 7.55450E-02-1.47539E-13-1.27627E-13
 -1      4225 1.98641E+01 2.63597E-01-6.92583E-04 7.09784E-02 9.02038E-14 4.76255E-14
 -1      4226 1.98368E+01 2.98526E-01-5.25419E-04 8.39921E-02 1.11298E-13 2.37132E-13
 -1      4227 1.98069E+01 3.33607E-01 2.33761E-03 6.05543E-02 1.45377E-14-6.51998E-14
 -1      4228 1.99917E+01 1.02562E+00-4.13832E-03-1.23987E-01 4.49369E-14-2.49383E-13
 -1      4229 1.99423E+01 1.61467E-01 2.87339E-04 5.25329E-02 2.91739E-13 1.81500E-13
 -1      4230 1.60646E+01 1.24054E+00-2.10720E-02 4.04350E-01 1.06075E-13-8.80131E-14
 -1      4231 1.63145E+01 8.68085E-01 6.86296E-04-1.33173E+00 8.64627E-14-4.59909E-13
 -1      4232 2.00463E+01 1.16758E+00 4.24418E-03 1.99021E-02-2.77885E-14-2.94955E-13
 -1      4233 2.00595E+01 1.27805E+00-2.37787E-03 3.05000E-02-2.43370E-14-3.44160E-13
 -1      4234 1.60080E+01 8.58874E-01-3.08853E-02 1.02962E+00 6.18099E-14-3.71518E-13
 -1      4235 1.57210E+01 1.15680E+00 1.61121E-02 2.88564E-01 5.54903E-14-3.29307E-13
 -1      4236 1.64162E+01 8.98909E-01-3.03591E-02 9.31015E-01 7.00666E-14-3.81552E-13
 -1      4237 1.94501E+01 7.81254E-01-3.57065E-03 4.20766E-01-1.37428E-15-2.55918E-13
 -1      4238 1.93287E+01 7.80403E-01 2.69176E-04 4.88404E-01-6.28740E-15-2.11982E-13
 -1      4239 1.91621E+01 8.58548E-01 6.65594E-03 3.98745E-01-1.20678E-14-2.45069E-13
 -1      4240 1.96933E+01 8.05293E-01-3.29027E-03 3.13150E-01 8.59450E-15-2.88136E-13
 -1      4241 1.95922E+01 7.91360E-01 2.04205E-04 3.71574E-01 3.86366E-15-2.80946E-13
 -1      4242 1.94755E+01 8.44029E-01 5.58863E-03 2.87425E-01 2.21819E-14-2.60908E-13
 -1      4243 2.00939E+01 1.38790E+00 3.64090E-03 2.31923E-02-1.72831E-14-3.46503E-13
 -1      4244 1.99226E+01 1.81440E-01 1.18256E-04-3.48035E-02 1.67566E-13-6.08513E-14
 -1      4245 1.98885E+01 8.78348E-01-1.90251E-03 2.20000E-01 7.61517E-17-3.20605E-13
 -1      4246 1.98073E+01 8.34862E-01-4.95409E-04 2.72940E-01 7.16145E-15-3.01437E-13
 -1      4247 1.97177E+01 8.73178E-01 4.06079E-03 2.03914E-01 2.41555E-14-2.66005E-13
 -1      4248 1.99189E+01 9.45973E-01 4.59523E-04-1.50662E-01 4.62986E-14-2.18659E-13
 -1      4249 1.99660E+01 1.05121E+00 1.20449E-03-4.42540E-02 2.94975E-14-2.49040E-13
 -1      4250 2.00768E+01 1.24844E+00-1.82589E-03 5.11143E-02-4.75061E-14-3.48418E-13
 -1      4251 2.00667E+01 1.14815E+00 2.53977E-03 8.69043E-02-4.83015E-14-3.59703E-13
 -1      4252 1.70090E+01 1.25818E+00-1.07896E-02 2.87509E-01 4.84901E-14 2.14878E-14
 -1      4253 1.65880E+01 1.26892E+00-3.93163E-03 3.17335E-01 1.24615E-13 6.05043E-14
 -1      4254 1.69197E+01 1.14058E+00-1.62226E-02-3.50454E-01-1.00656E-13-1.49753E-13
 -1      4255 1.73578E+01 1.14347E+00-9.11233E-03-3.42381E-01-7.03675E-14-1.86651E-13
 -1      4256 1.61424E+01 1.10326E+00 1.71491E-02-8.94224E-01 6.25494E-14-2.78373E-13
 -1      4257 1.69319E+01 9.01183E-01 2.29592E-03-1.14984E+00 1.10696E-13-4.67045E-13
 -1      4258 1.71917E+01 9.66069E-01-1.22715E-02-9.40238E-01 1.12957E-13-4.60386E-13
 -1      4259 1.62055E+01 1.18461E+00-9.33485E-03-4.01916E-01 4.14380E-14-7.71785E-14
 -1      4260 1.82586E+01 1.15952E+00 9.59423E-03 5.11041E-01 2.33021E-14-1.02798E-13
 -1      4261 1.60605E+01 1.22060E+00 3.08558E-02-3.27982E-01-1.51064E-14-2.43755E-13
 -1      4262 1.98930E+01 2.21186E-01 6.35907E-04-2.81603E-02 2.01332E-13-2.71926E-13
 -1      4263 1.99041E+01 2.06459E-01-2.46071E-04-4.34423E-02 2.30215E-13-1.36114E-13
 -1      4264 1.80231E+01 1.12844E+00 1.19845E-02-6.45609E-01-6.34133E-14-1.68741E-13
 -1      4265 1.99026E+01 2.12512E-01-6.26978E-04 5.48211E-02 2.66976E-13-2.60330E-14
 -1      4266 1.98866E+01 2.37247E-01-2.01283E-04 6.47184E-02 1.16645E-13-4.73786E-14
 -1      4267 1.98645E+01 2.62465E-01 7.96726E-04 4.66018E-02 1.49291E-13-9.30744E-14
 -1      4268 1.88569E+01 9.78239E-01-4.70678E-03-3.47293E-01 7.70523E-14-1.21779E-13
 -1      4269 1.90539E+01 9.39311E-01-5.72943E-03-3.20119E-01 7.53098E-14-1.45417E-13
 -1      4270 1.99344E+01 1.67380E-01-1.45234E-04 4.20684E-02 2.66131E-13 2.44385E-13
 -1      4271 1.99188E+01 1.91457E-01 2.92025E-04 4.07309E-02 1.29755E-13 8.40075E-14
 -1      4272 1.87379E+01 1.01349E+00 1.13875E-02 1.13240E-01 2.39165E-14-4.48905E-13
 -1      4273 1.86842E+01 1.01095E+00-4.57844E-03 2.67908E-01-1.30155E-14-1.38888E-13
 -1      4274 1.84952E+01 1.06957E+00-4.93884E-03 2.86234E-01 2.10593E-14-1.85349E-13
 -1      4275 1.77261E+01 1.21373E+00-7.56510E-03 2.86711E-01 2.41130E-14-9.36397E-14
 -1      4276 1.74045E+01 1.24440E+00-7.04673E-03 3.11181E-01 5.64724E-14-1.13846E-13
 -1      4277 1.71646E+01 1.26611E+00 9.73977E-03-4.18045E-02 1.16311E-13 8.80327E-14
 -1      4278 1.99653E+01 1.05719E+00-1.29436E-03 9.32457E-03 2.34307E-15-2.63691E-13
 -1      4279 1.83694E+01 1.05605E+00-5.43537E-03-3.62235E-01 1.89932E-14-1.03100E-13
 -1      4280 1.86231E+01 1.01606E+00-4.78772E-03-3.45035E-01 8.67619E-14-6.69895E-14
 -1      4281 1.87126E+01 1.02191E+00 8.26726E-03-1.39624E-01 5.19252E-14-9.34419E-14
 -1      4282 1.99006E+01 2.10744E-01 7.42741E-06 2.73145E-02 5.82542E-14-1.54992E-14
 -1      4283 1.63046E+01 1.29820E+00 2.14168E-02-4.08138E-02 9.22014E-14 1.51953E-13
 -1      4284 1.98974E+01 2.11700E-01-2.20706E-04 1.11745E-02 1.69833E-13-6.38660E-14
 -1      4285 1.98820E+01 2.36891E-01 5.40484E-04 2.48106E-02 1.98656E-13 3.19676E-14
 -1      4286 1.98570E+01 2.62508E-01-7.48955E-04 3.04661E-02 1.60903E-13 8.74157E-14
 -1      4287 1.98970E+01 2.10094E-01-6.69208E-04-6.82943E-03 2.36342E-13-9.67070E-15
 -1      4288 1.65297E+01 1.16430E+00 1.54637E-02-2.50269E-01-3.24353E-14-2.09231E-13
 -1      4289 1.98213E+01 9.01530E-01-3.70562E-03-1.95167E-01 1.54117E-14-1.98704E-13
 -1      4290 1.93796E+01 8.95395E-01 5.36502E-03-4.48978E-01 9.15791E-14-9.36966E-14
 -1      4291 1.95246E+01 8.23894E-01-1.87826E-03-5.56793E-01 9.06654E-14-9.87175E-14
 -1      4292 1.96460E+01 8.06103E-01-1.81646E-03-4.96872E-01 7.91892E-14-7.04898E-14
 -1      4293 1.67036E+01 1.20996E+00 3.82889E-02 1.60377E-01-6.77800E-15-2.35481E-13
 -1      4294 1.94858E+01 8.61377E-01-6.25534E-03 1.34604E-01 3.96090E-14-2.69278E-13
 -1      4295 1.93456E+01 8.65850E-01-3.81028E-03 1.82256E-01 1.17360E-14-2.63519E-13
 -1      4296 1.75197E+01 1.14052E+00 5.40624E-03-1.49293E-02-2.91581E-14-1.57113E-13
 -1      4297 1.77451E+01 1.12732E+00-6.13580E-03-3.64154E-01-3.92787E-14-1.69424E-13
 -1      4298 1.80697E+01 1.09585E+00-6.00443E-03-3.45587E-01-1.09624E-14-1.44498E-13
 -1      4299 1.98722E+01 2.48095E-01 6.25171E-04-1.53319E-02 2.00393E-13-5.50774E-14
 -1      4300 1.83125E+01 9.36392E-01-1.04683E-02 4.59013E-01 4.94218E-14-1.77002E-13
 -1      4301 1.80738E+01 9.37509E-01-6.26610E-03 5.84436E-01 6.71210E-14-1.96372E-13
 -1      4302 1.75576E+01 1.00646E+00-6.06691E-03 5.04602E-01 2.70858E-14-1.97709E-13
 -1      4303 1.72268E+01 9.59849E-01-1.10366E-02 6.50835E-01 7.98302E-14-2.83129E-13
 -1      4304 1.96675E+01 8.58584E-01 4.96263E-03-3.75041E-01 5.83805E-14-1.26373E-13
 -1      4305 1.67049E+01 1.18882E+00-6.25698E-03-4.20416E-01 5.93651E-14-1.04578E-13
 -1      4306 1.76334E+01 1.00919E+00 1.26899E-03-7.67463E-01 1.44576E-13-3.96408E-13
 -1      4307 1.78496E+01 1.01933E+00-9.78562E-03-6.25939E-01 1.43230E-13-3.54257E-13
 -1      4308 1.81237E+01 1.01985E+00-9.01556E-04-5.25203E-01 7.90381E-14-4.29964E-13
 -1      4309 1.82997E+01 1.00546E+00-8.07108E-03-4.23860E-01 7.01695E-14-4.30183E-13
 -1      4310 1.78732E+01 1.12520E+00 5.97827E-03-3.74514E-01 1.24815E-13-2.87127E-13
 -1      4311 1.84893E+01 1.00799E+00-2.92418E-03-2.24802E-01 2.77860E-14-3.50664E-13
 -1      4312 1.86458E+01 9.64925E-01-8.28556E-03-1.64719E-01 6.05371E-14-4.67844E-13
 -1      4313 1.88234E+01 9.10959E-01-5.84777E-03-1.41208E-01 8.47407E-14-5.42656E-13
 -1      4314 1.89564E+01 8.61079E-01-7.98326E-03-9.47905E-02 1.90686E-14-5.21834E-13
 -1      4315 1.90970E+01 8.04069E-01-5.35617E-03-8.43316E-02-2.87242E-14-4.89182E-13
 -1      4316 1.92065E+01 7.49887E-01-6.31291E-03-5.11416E-02-1.29332E-13-3.70695E-13
 -1      4317 1.93167E+01 6.92059E-01-4.45024E-03-4.80312E-02-1.04596E-13-3.26746E-13
 -1      4318 1.94051E+01 6.37816E-01-4.85091E-03-2.44067E-02-2.21719E-15-1.86031E-13
 -1      4319 1.94907E+01 5.82442E-01-3.61186E-03-2.55832E-02-2.22601E-14-2.23036E-13
 -1      4320 1.95611E+01 5.31125E-01-3.68996E-03-8.78264E-03-4.26917E-14-8.66774E-14
 -1      4321 1.96269E+01 4.80383E-01-2.88158E-03-1.22482E-02-7.24063E-14-8.54951E-14
 -1      4322 1.96820E+01 4.33857E-01-2.75080E-03-3.25893E-04-9.98738E-14-7.05635E-14
 -1      4323 1.97322E+01 3.88976E-01-2.17098E-03-4.68549E-03-1.12965E-13-9.00072E-14
 -1      4324 1.97750E+01 3.48237E-01-1.82202E-03 3.59675E-03-6.38216E-15-1.52363E-13
 -1      4325 2.00410E+01 1.06875E+00-5.45099E-06 1.19383E-01-3.73729E-14-3.66160E-13
 -1      4326 1.98140E+01 3.10874E-01-6.90799E-04 3.10647E-05 2.67898E-14-6.13484E-14
 -1      4327 1.82699E+01 1.12726E+00-4.55269E-03 2.82095E-01 3.27609E-14-1.38722E-13
 -1      4328 1.80250E+01 1.17416E+00-5.08431E-03 3.03027E-01 6.36703E-15-2.09781E-13
 -1      4329 1.78346E+01 1.20283E+00 6.38534E-03 3.91103E-02 9.36762E-14 2.03036E-14
 -1      4330 1.83440E+01 1.11495E+00 6.86390E-03 9.84049E-02 1.84416E-14-1.88002E-13
 -1      4331 1.91094E+01 9.02771E-01-3.18294E-03 1.04228E-01 2.35295E-14-2.15729E-13
 -1      4332 1.89289E+01 9.20277E-01-2.48767E-03 1.56341E-01 9.96973E-15-1.82994E-13
 -1      4333 1.86889E+01 9.48413E-01-6.74145E-03 1.89073E-01-1.54558E-15-1.57647E-13
 -1      4334 1.84838E+01 9.68876E-01-1.05659E-03 2.59418E-01 4.44085E-14-1.48739E-13
 -1      4335 1.68865E+01 9.65048E-01-1.18569E-02 7.07678E-01 5.61196E-14-3.29719E-13
 -1      4336 1.97038E+01 8.76685E-01-1.74453E-03-2.20016E-01 3.09193E-14-1.86368E-13
 -1      4337 1.97750E+01 9.35141E-01 4.98163E-03-8.37912E-02 2.28334E-14-2.23302E-13
 -1      4338 1.97242E+01 8.92161E-01-3.43519E-03 4.02647E-02 1.99192E-14-2.41900E-13
 -1      4339 1.96155E+01 8.76383E-01 9.01075E-05 6.88438E-02 2.40558E-14-2.42095E-13
 -1      4340 1.91860E+01 9.37808E-01 7.01533E-03-5.76684E-02 6.43341E-14-2.33121E-13
 -1      4341 1.92922E+01 9.03676E-01-2.10111E-03-2.16344E-01 6.17403E-14-1.68970E-13
 -1      4342 1.99681E+01 9.40763E-01-1.26540E-03 1.83805E-01 9.06949E-16-3.44781E-13
 -1      4343 1.99072E+01 9.59390E-01 3.94908E-03 1.38227E-01 1.97504E-14-2.83773E-13
 -1      4344 2.00020E+01 9.93818E-01-1.77676E-03 1.43651E-01 1.18376E-14-3.74262E-13
 -1      4345 1.98437E+01 9.30412E-01-1.72312E-03 4.96307E-02 3.48781E-14-2.50420E-13
 -1      4346 1.81983E+01 1.09024E+00 9.96248E-03-1.00953E-01 3.99578E-14-8.68027E-14
 -1      4347 1.76506E+01 1.10697E+00 1.07338E-02 1.71202E-01 3.47162E-16-1.51717E-13
 -1      4348 1.71945E+01 1.13578E+00 1.05075E-02-6.11664E-01 1.40558E-13-2.74641E-13
 -1      4349 1.95733E+01 8.71834E-01-4.85992E-03-2.55122E-01 5.47920E-14-1.82536E-13
 -1      4350 1.98409E+01 2.83105E-01 5.35579E-04-2.15451E-02 8.27476E-14-2.30013E-15
 -1      4351 2.00139E+01 1.08251E+00-1.57571E-03 8.41477E-02-2.87315E-14-3.33913E-13
 -1      4352 1.95314E+01 9.04996E-01 5.08151E-03-4.18464E-02 2.26887E-14-2.47328E-13
 -1      4353 1.75550E+01 1.18352E+00-1.87609E-05-2.21976E-01 1.35596E-13-1.12431E-13
 -1      4354 1.71568E+01 1.19340E+00-9.76925E-03-2.86902E-01 1.53518E-13-3.10136E-15
 -1      4355 1.99270E+01 9.94754E-01 2.74774E-04 2.71990E-02 3.42069E-14-2.61577E-13
 -1      4356 1.94507E+01 8.82996E-01-1.16699E-03-1.95531E-01 3.73460E-14-1.93373E-13
 -1      4357 1.82778E+01 1.04353E+00 6.05261E-04 6.86057E-02 5.56976E-14-8.05832E-14
 -1      4358 1.78172E+01 1.16296E+00-4.20500E-03-1.53206E-01 1.21802E-13-1.66853E-13
 -1      4359 1.83293E+01 1.09142E+00 3.60320E-03-8.21088E-02 1.97511E-14-2.33972E-13
 -1      4360 1.81125E+01 1.12271E+00-1.02631E-03-1.09454E-01 1.02007E-13-2.15642E-13
 -1      4361 1.80102E+01 1.06086E+00 5.21245E-04 1.13932E-01-3.07913E-16-9.10660E-14
 -3
    1PSTEP                         3           1           1          
  100CL  101 1.000000000        4361                     0    1           1
 -4  TOSTRAIN    6    1
 -5  EXX         1    4    1    1
 -5  EYY         1    4    2    2
 -5  EZZ         1    4    3    3
 -5  EXY         1    4    1    2
 -5  EYZ         1    4    2    3
 -5  EZX         1    4    3    1
 -1         1 2.53139E-04-6.17190E-05-7.14502E-05-9.01779E-05-2.00000E-18 7.14748E-18
 -1         2 3.58593E-05-1.10438E-04 2.01472E-05-9.34651E-07-5.73412E-18-1.03820E-18
 -1         3 9.52370E-05-2.85711E-05-2.85681E-05 2.13374E-09-9.13475E-19-1.66330E-18
 -1         4 9.52368E-05-2.85714E-05-2.85680E-05-1.53440E-09 1.57627E-18 5.32039E-20
 -1         5 1.42452E-04-2.13176E-05-4.23259E-05 3.82886E-05-2.50986E-19 1.86543E-17
 -1         6 1.44493E-04 2.56371E-10-4.39802E-05-5.31592E-05-1.17526E-18 1.58620E-17
 -1         7 9.04556E-05-5.26300E-07-3.89729E-05-2.89709E-05-1.64642E-19 1.70479E-18
 -1         8 8.51582E-05 7.54685E-08-3.63356E-05-1.99299E-05-1.73404E-19-2.48232E-18
 -1         9 8.29374E-05 6.87247E-08-3.53926E-05-1.52422E-05-1.65277E-19-4.58926E-18
 -1        10 8.19186E-05 3.42570E-08-3.49395E-05-1.16632E-05-1.15957E-19-5.50872E-18
 -1        11 8.13807E-05 1.67247E-08-3.47092E-05-8.62489E-06-5.53682E-20-5.85079E-18
 -1        12 8.10757E-05 8.56275E-09-3.45845E-05-5.96646E-06-2.57617E-20-5.94732E-18
 -1        13 8.09000E-05 5.35747E-09-3.45157E-05-3.47793E-06-6.22205E-21-5.84138E-18
 -1        14 8.08214E-05 4.16738E-09-3.44857E-05-1.11151E-06 3.25467E-20-5.72603E-18
 -1        15 8.08252E-05 4.11714E-09-3.44872E-05 1.21635E-06 5.17104E-20-5.51349E-18
 -1        16 8.09117E-05 5.13668E-09-3.45201E-05 3.58709E-06 8.36883E-20-5.22929E-18
 -1        17 8.10955E-05 7.50614E-09-3.45914E-05 6.08695E-06 1.03920E-19-4.84493E-18
 -1        18 8.14070E-05 1.53647E-08-3.47178E-05 8.76419E-06 1.26502E-19-4.30172E-18
 -1        19 8.19521E-05 3.29221E-08-3.49513E-05 1.18393E-05 1.99126E-19-3.45667E-18
 -1        20 8.29663E-05 7.32886E-08-3.54076E-05 1.54720E-05 2.35356E-19-1.96792E-18
 -1        21 8.51228E-05 1.57361E-07-3.63730E-05 2.01419E-05 2.52416E-19 9.11133E-19
 -1        22 9.14510E-05-1.12835E-07-3.86415E-05 2.77264E-05 3.59989E-20 6.53962E-18
 -1        23 1.12476E-04-3.79623E-05-3.52516E-05-4.33296E-06-8.56641E-19 1.18508E-17
 -1        24 9.26452E-05-2.76523E-05-2.89446E-05 3.95238E-07-1.94129E-19 8.28773E-18
 -1        25 8.92190E-05-2.68847E-05-2.69579E-05 3.74963E-07-1.05229E-19 4.97312E-18
 -1        26 8.84021E-05-2.66075E-05-2.65101E-05 2.03508E-07 3.37490E-22 2.51353E-18
 -1        27 8.87923E-05-2.66958E-05-2.66139E-05 1.41139E-07-6.31222E-20 1.03689E-18
 -1        28 8.98094E-05-2.69781E-05-2.69306E-05 1.05389E-07-7.40422E-20 9.85801E-20
 -1        29 9.12090E-05-2.73850E-05-2.73590E-05 8.46333E-08 9.88268E-20-9.96504E-19
 -1        30 9.28810E-05-2.78794E-05-2.78656E-05 7.33006E-08-1.62144E-20-1.53420E-18
 -1        31 9.47787E-05-2.84442E-05-2.84385E-05 6.88757E-08 3.23477E-20-2.63040E-18
 -1        32 9.68830E-05-2.90720E-05-2.90723E-05 7.00362E-08-3.04800E-19-4.13665E-18
 -1        33 9.91763E-05-2.97564E-05-2.97610E-05 7.55635E-08 1.48885E-19-4.81011E-18
 -1        34 1.01616E-04-3.04837E-05-3.04899E-05 8.34685E-08-1.23385E-19-3.89042E-18
 -1        35 1.04101E-04-3.12239E-05-3.12269E-05 9.00470E-08-1.36694E-19-4.00690E-18
 -1        36 1.06442E-04-3.19199E-05-3.19120E-05 8.88538E-08 1.69871E-19-3.49469E-18
 -1        37 1.08326E-04-3.24790E-05-3.24498E-05 7.00290E-08-2.28182E-19-3.74419E-18
 -1        38 1.09312E-04-3.27704E-05-3.27094E-05 2.11803E-08-1.18537E-19-4.39302E-18
 -1        39 1.08876E-04-3.26398E-05-3.25434E-05-6.80775E-08-9.60836E-20-5.09156E-18
 -1        40 1.06565E-04-3.19521E-05-3.18335E-05-1.96161E-07-2.35462E-19-4.81733E-18
 -1        41 1.02248E-04-3.06674E-05-3.05648E-05-3.36230E-07 2.68293E-19-4.98729E-18
 -1        42 9.64203E-05-2.89311E-05-2.89007E-05-4.30572E-07-2.43279E-19-5.33988E-18
 -1        43 9.03469E-05-2.71187E-05-2.72037E-05-4.10150E-07-9.93924E-20-4.66019E-18
 -1        44 8.57961E-05-2.57585E-05-2.59520E-05-2.42524E-07 4.49139E-19-2.43345E-18
 -1        45 8.43254E-05-2.53187E-05-2.55511E-05 2.55592E-08-8.77093E-20-1.79023E-18
 -1        46 8.64822E-05-2.59640E-05-2.61412E-05 2.82568E-07-3.56285E-19-3.44572E-18
 -1        47 9.14972E-05-2.74628E-05-2.75254E-05 4.24463E-07 4.92057E-20-3.93719E-18
 -1        48 9.77159E-05-2.93184E-05-2.92707E-05 4.20088E-07 3.09541E-19-1.49358E-18
 -1        49 1.03427E-04-3.10199E-05-3.09108E-05 3.12570E-07 1.18915E-20-6.07177E-19
 -1        50 1.07509E-04-3.22349E-05-3.21189E-05 1.72079E-07-3.11976E-19-2.50573E-18
 -1        51 1.09610E-04-3.28608E-05-3.27716E-05 5.13762E-08 1.89199E-19-8.29424E-19
 -1        52 1.09953E-04-3.29647E-05-3.29117E-05-2.82032E-08 2.18673E-19 9.21118E-19
 -1        53 1.09031E-04-3.26931E-05-3.26708E-05-6.82506E-08-2.41701E-19-1.19646E-18
 -1        54 1.07371E-04-3.22012E-05-3.21990E-05-7.99051E-08 3.83524E-19-1.21148E-18
 -1        55 1.05400E-04-3.16159E-05-3.16241E-05-7.50451E-08-5.19019E-19-1.67267E-18
 -1        56 1.03416E-04-3.10255E-05-3.10373E-05-6.26522E-08 2.83265E-19-3.03178E-18
 -1        57 1.01596E-04-3.04827E-05-3.04943E-05-4.83022E-08 2.77428E-19-2.46722E-18
 -1        58 1.00026E-04-3.00135E-05-3.00232E-05-3.49203E-08 3.31832E-19-2.88561E-18
 -1        59 9.87319E-05-2.96259E-05-2.96333E-05-2.37310E-08 8.02080E-20-3.00763E-18
 -1        60 9.77034E-05-2.93174E-05-2.93225E-05-1.50072E-08-1.63235E-19-1.10670E-18
 -1        61 9.69119E-05-2.90795E-05-2.90827E-05-8.55658E-09 2.00045E-19-1.26344E-18
 -1        62 9.63211E-05-2.89015E-05-2.89034E-05-4.00320E-09-5.86610E-19-2.65530E-18
 -1        63 9.58939E-05-2.87725E-05-2.87735E-05-9.35011E-10 9.08031E-20-6.18958E-18
 -1        64 9.55962E-05-2.86824E-05-2.86827E-05 1.02725E-09 9.32730E-20-3.21418E-18
 -1        65 9.53983E-05-2.86223E-05-2.86222E-05 2.20502E-09 1.26256E-19-3.86032E-19
 -1        66 9.52758E-05-2.85849E-05-2.85847E-05 2.85998E-09-5.12757E-19-1.65449E-19
 -1        67 9.52088E-05-2.85643E-05-2.85640E-05 3.20323E-09 4.19612E-19-5.32369E-19
 -1        68 9.51820E-05-2.85557E-05-2.85555E-05 3.41221E-09-1.06009E-19 2.18579E-18
 -1        69 9.51833E-05-2.85557E-05-2.85556E-05 3.62173E-09 1.77529E-19 2.32157E-18
 -1        70 9.52022E-05-2.85611E-05-2.85606E-05 3.79320E-09 5.98033E-19 3.65310E-18
 -1        71 9.52274E-05-2.85689E-05-2.85664E-05 3.35283E-09-7.07118E-19 2.65904E-18
 -1        72 1.01717E-04-3.04439E-05-3.40075E-05-1.92919E-06 1.78459E-19 1.72128E-17
 -1        73 9.23804E-05-2.74623E-05-2.88469E-05-3.32472E-07 1.84038E-19 1.31661E-17
 -1        74 8.91786E-05-2.67261E-05-2.69929E-05-1.21161E-07 7.80164E-20 1.01049E-17
 -1        75 8.84041E-05-2.65496E-05-2.65462E-05-8.79248E-08 5.60750E-20 7.95801E-18
 -1        76 8.88069E-05-2.66690E-05-2.66356E-05-6.69160E-08 1.13619E-19 6.78495E-18
 -1        77 8.98481E-05-2.69728E-05-2.69514E-05-5.15627E-08-9.23134E-20 6.16971E-18
 -1        78 9.13029E-05-2.74038E-05-2.73938E-05-4.03341E-08-6.19949E-20 6.00475E-18
 -1        79 9.30888E-05-2.79368E-05-2.79353E-05-3.23217E-08 1.09622E-19 4.63181E-18
 -1        80 9.52021E-05-2.85690E-05-2.85757E-05-2.77983E-08-8.65498E-20 3.24600E-18
 -1        81 9.76896E-05-2.93135E-05-2.93298E-05-2.80320E-08 3.53000E-19 2.49066E-18
 -1        82 1.00631E-04-3.01932E-05-3.02212E-05-3.52799E-08-1.52243E-21 1.29503E-18
 -1        83 1.04115E-04-3.12339E-05-3.12754E-05-5.28917E-08 2.41351E-20 1.19702E-18
 -1        84 1.08208E-04-3.24546E-05-3.25082E-05-8.50771E-08-8.49357E-20 1.53938E-18
 -1        85 1.12888E-04-3.38488E-05-3.39053E-05-1.35415E-07 6.61556E-20 1.10393E-18
 -1        86 1.17941E-04-3.53543E-05-3.53883E-05-2.02326E-07-4.99540E-20 6.79969E-19
 -1        87 1.22801E-04-3.68087E-05-3.67693E-05-2.69165E-07 4.99601E-20 3.37463E-19
 -1        88 1.26387E-04-3.78998E-05-3.77121E-05-2.89060E-07-2.26866E-19 7.68222E-19
 -1        89 1.27066E-04-3.81495E-05-3.77518E-05-1.76501E-07 2.46887E-19 2.53461E-19
 -1        90 1.23053E-04-3.70150E-05-3.64529E-05 1.58593E-07-8.06766E-20-2.63613E-19
 -1        91 1.13568E-04-3.42108E-05-3.37445E-05 6.90658E-07-2.03869E-19 8.67203E-19
 -1        92 1.00519E-04-3.02372E-05-3.02714E-05 1.13768E-06 1.06174E-19 1.76236E-18
 -1        93 8.90919E-05-2.66457E-05-2.73817E-05 1.06358E-06-9.47916E-20 8.08572E-19
 -1        94 8.53219E-05-2.53841E-05-2.64631E-05 3.39389E-07 2.16821E-20-1.58181E-18
 -1        95 9.14337E-05-2.72301E-05-2.80073E-05-5.59935E-07 3.93060E-20-3.92121E-18
 -1        96 1.03962E-04-3.11178E-05-3.12254E-05-1.04606E-06 5.34462E-19-3.93283E-18
 -1        97 1.16650E-04-3.50412E-05-3.46360E-05-9.52541E-07-6.23975E-20-4.35142E-18
 -1        98 1.24977E-04-3.75802E-05-3.70388E-05-5.67223E-07-1.45688E-19-2.90882E-18
 -1        99 1.27834E-04-3.84213E-05-3.80034E-05-1.91876E-07-1.42441E-19-4.21245E-18
 -1       100 1.26420E-04-3.79648E-05-3.77396E-05 4.61035E-08-7.00506E-20-5.97132E-18
 -1       101 1.22583E-04-3.67887E-05-3.67147E-05 1.52517E-07 2.02678E-19-7.19633E-18
 -1       102 1.17851E-04-3.53561E-05-3.53682E-05 1.76082E-07 1.77777E-19-7.63459E-18
 -1       103 1.13177E-04-3.39496E-05-3.39976E-05 1.59935E-07-2.80820E-19-5.52226E-18
 -1       104 1.09032E-04-3.27062E-05-3.27618E-05 1.30275E-07-1.55978E-19-1.55815E-18
 -1       105 1.05581E-04-3.16722E-05-3.17227E-05 9.98721E-08 2.34225E-19-2.06011E-19
 -1       106 1.02822E-04-3.08459E-05-3.08871E-05 7.36867E-08-3.78592E-19-5.87497E-19
 -1       107 1.00678E-04-3.02037E-05-3.02356E-05 5.28859E-08-3.29525E-19-1.51215E-18
 -1       108 9.90495E-05-2.97157E-05-2.97396E-05 3.70766E-08 2.35537E-19-4.30577E-18
 -1       109 9.78358E-05-2.93518E-05-2.93694E-05 2.53812E-08-4.25353E-20-4.02219E-18
 -1       110 9.69484E-05-2.90857E-05-2.90984E-05 1.68909E-08 3.43698E-19-5.69864E-18
 -1       111 9.63127E-05-2.88949E-05-2.89040E-05 1.08223E-08-1.88738E-19-6.25067E-18
 -1       112 9.58685E-05-2.87616E-05-2.87679E-05 6.54868E-09-4.86662E-19-1.71083E-18
 -1       113 9.55677E-05-2.86712E-05-2.86756E-05 3.58570E-09 5.30322E-19 2.45867E-19
 -1       114 9.53731E-05-2.86126E-05-2.86156E-05 1.56351E-09 1.61695E-19 9.46617E-19
 -1       115 9.52560E-05-2.85774E-05-2.85794E-05 1.92423E-10 4.93189E-19-1.07875E-18
 -1       116 9.51948E-05-2.85588E-05-2.85602E-05-7.60940E-10-3.74808E-19 8.25784E-19
 -1       117 9.51732E-05-2.85522E-05-2.85532E-05-1.47572E-09 3.95668E-19-9.26620E-19
 -1       118 9.51788E-05-2.85537E-05-2.85544E-05-2.17534E-09 6.48394E-20-1.77447E-18
 -1       119 9.52011E-05-2.85603E-05-2.85603E-05-3.14553E-09 1.09690E-19-2.50138E-18
 -1       120 9.52272E-05-2.85686E-05-2.85665E-05-3.63587E-09 2.54801E-19-2.39876E-18
 -1       121 9.52402E-05-2.85821E-05-2.85667E-05-4.09509E-09-1.52541E-18 1.34945E-19
 -1       122 9.52476E-05-2.86060E-05-2.85612E-05-3.20839E-09-4.89455E-18-5.68014E-19
 -1       123 9.52522E-05-2.86214E-05-2.85572E-05-1.74775E-09-1.90780E-18 8.51403E-19
 -1       124 9.52524E-05-2.86220E-05-2.85569E-05-4.05954E-10-1.94417E-18 7.43713E-19
 -1       125 9.52488E-05-2.86097E-05-2.85601E-05 4.52695E-10 1.26482E-18-5.52490E-19
 -1       126 9.52433E-05-2.85912E-05-2.85652E-05 7.89178E-10-9.06458E-18-1.71411E-18
 -1       127 9.52379E-05-2.85730E-05-2.85703E-05 6.99287E-10-6.17565E-18 7.74444E-19
 -1       128 9.52346E-05-2.85616E-05-2.85735E-05 3.13061E-10-5.94960E-18 1.08895E-18
 -1       129 9.52342E-05-2.85605E-05-2.85738E-05-1.81908E-10-5.57479E-18-3.54711E-19
 -1       130 9.52370E-05-2.85700E-05-2.85711E-05-5.87036E-10-2.39882E-18-1.17040E-18
 -1       131 9.52420E-05-2.85867E-05-2.85665E-05-7.15253E-10-3.22312E-18-4.31527E-19
 -1       132 9.52472E-05-2.86045E-05-2.85616E-05-4.33908E-10-4.76791E-18 2.04446E-18
 -1       133 9.52509E-05-2.86170E-05-2.85584E-05 3.60773E-10-4.88342E-18 5.68560E-19
 -1       134 9.52511E-05-2.86176E-05-2.85584E-05 1.60132E-09-5.15447E-18 4.30739E-19
 -1       135 9.52473E-05-2.86042E-05-2.85618E-05 4.22298E-09-2.82359E-18-1.01795E-18
 -1       136 9.52400E-05-2.85822E-05-2.85667E-05 5.35116E-09-2.30373E-18 8.50536E-19
 -1       137 2.56207E-05-8.79761E-05 1.57986E-05-2.39500E-05-5.17325E-19 8.96134E-19
 -1       138 8.19266E-06-3.68085E-05 3.88391E-06-2.00008E-05 7.91510E-18 3.57998E-18
 -1       139 1.03462E-05 1.11263E-05-1.35708E-05 1.90097E-05 7.84649E-18 5.77846E-18
 -1       140 5.78547E-05 2.61000E-05-3.51114E-05 7.65673E-05 7.52123E-18 8.75070E-18
 -1       141 1.44310E-04-2.48762E-06-5.47499E-05 1.12302E-04 4.88442E-18 9.48169E-18
 -1       142 2.48588E-04-5.72935E-05-7.12595E-05 9.58658E-05 1.82843E-18 4.25803E-18
 -1       143 3.11434E-04-9.44874E-05-7.98018E-05 2.81610E-05-1.62233E-19-3.07134E-18
 -1       144 2.99006E-04-8.69422E-05-7.80770E-05-5.53116E-05 2.58394E-18-1.19906E-17
 -1       145 2.13570E-04-3.74599E-05-6.60854E-05-1.09385E-04 8.09351E-18-2.05228E-17
 -1       146 1.07660E-04 1.32109E-05-4.75594E-05-1.02979E-04 1.27241E-17-1.97393E-17
 -1       147 2.40342E-05 2.50310E-05-2.31541E-05-4.52577E-05 1.44076E-17-1.32395E-17
 -1       148 4.46738E-06-1.44397E-05-2.69420E-06 8.39872E-06 1.31680E-17-6.84106E-18
 -1       149 1.84332E-05-7.01779E-05 1.19163E-05 2.80031E-05 8.88411E-18-3.24604E-18
 -1       150 3.52815E-05-1.08717E-04 1.95888E-05 1.22070E-05-2.03934E-18 2.73036E-20
 -1       151 3.31795E-05-1.03430E-04 1.85620E-05-1.52195E-05-8.93344E-18-1.21166E-18
 -1       152 1.53169E-05-5.93725E-05 9.49142E-06-2.50382E-05-1.57747E-17-5.19665E-18
 -1       153 5.11116E-06-5.04774E-06-5.75808E-06 1.76262E-07-1.60293E-17-9.87492E-18
 -1       154 3.33426E-05 2.61564E-05-2.62870E-05 5.46378E-05-1.36931E-17-1.22278E-17
 -1       155 1.07775E-04 1.30659E-05-4.73850E-05 1.03189E-04-9.89906E-18-1.46342E-17
 -1       156 2.05858E-04-3.44049E-05-6.46179E-05 1.07684E-04-5.51895E-18-1.31112E-17
 -1       157 2.85677E-04-8.12873E-05-7.58773E-05 6.03861E-05-1.15382E-18-6.25979E-18
 -1       158 3.04874E-04-9.38511E-05-7.81223E-05-2.02272E-05-4.69892E-19 1.94071E-18
 -1       159 1.58100E-04-8.78857E-06-5.71433E-05-1.14008E-04-5.16436E-18 1.02021E-17
 -1       160 6.66487E-05 2.65940E-05-3.79347E-05-8.49786E-05-8.79093E-18 1.03406E-17
 -1       161 1.29218E-05 1.83510E-05-1.65546E-05-2.79301E-05-1.00229E-17 8.23782E-18
 -1       162 6.99327E-06-2.87181E-05 1.74564E-06 1.53169E-05-8.99549E-18 3.99249E-18
 -1       163 2.48323E-05-8.45831E-05 1.49573E-05 2.33510E-05-6.35762E-18 2.18701E-18
 -1       164 9.48844E-05-1.24192E-05-3.55418E-05-2.19637E-05-2.48181E-18-3.44213E-19
 -1       165 8.93870E-05-8.51495E-06-3.48188E-05-1.69588E-05-2.23036E-18-2.89807E-18
 -1       166 8.66868E-05-6.50218E-06-3.44753E-05-1.31335E-05-1.75194E-18-4.20871E-18
 -1       167 8.52921E-05-5.45297E-06-3.42995E-05-9.92853E-06-1.17237E-18-4.82104E-18
 -1       168 8.44652E-05-4.80857E-06-3.42060E-05-7.16630E-06-7.09551E-19-4.99715E-18
 -1       169 8.39597E-05-4.40466E-06-3.41547E-05-4.62363E-06-2.77694E-19-5.03112E-18
 -1       170 8.36851E-05-4.18007E-06-3.41294E-05-2.24598E-06 1.38883E-19-4.90674E-18
 -1       171 8.36010E-05-4.10935E-06-3.41225E-05 5.22342E-08 5.08302E-19-4.71198E-18
 -1       172 8.36972E-05-4.18654E-06-3.41319E-05 2.35171E-06 8.79821E-19-4.51521E-18
 -1       173 8.39866E-05-4.42123E-06-3.41593E-05 4.73383E-06 1.22517E-18-4.28110E-18
 -1       174 8.44999E-05-4.83365E-06-3.42105E-05 7.24251E-06 1.61611E-18-3.84812E-18
 -1       175 8.53575E-05-5.50801E-06-3.43045E-05 1.00701E-05 2.07259E-18-3.18920E-18
 -1       176 8.68049E-05-6.61327E-06-3.44822E-05 1.33245E-05 2.41391E-18-2.06190E-18
 -1       177 8.95322E-05-8.65745E-06-3.48249E-05 1.71895E-05 2.69551E-18-1.39535E-19
 -1       178 9.57772E-05-1.36730E-05-3.53959E-05 2.15174E-05 2.48776E-18 3.23810E-18
 -1       179 1.05382E-04-2.60708E-05-3.51732E-05 1.83853E-05 1.80426E-18 7.70742E-18
 -1       180 1.03306E-04-2.72963E-05-3.25731E-05-1.18468E-05-2.21412E-18 2.86654E-18
 -1       181 9.72138E-05-2.83205E-05-2.95597E-05-4.45671E-06-1.97103E-18 1.80719E-18
 -1       182 9.38485E-05-2.77241E-05-2.82900E-05-1.45786E-06-1.43501E-18 8.38993E-19
 -1       183 9.26052E-05-2.75689E-05-2.78360E-05-2.65213E-08-9.24482E-19 5.71449E-20
 -1       184 9.24054E-05-2.75957E-05-2.77555E-05 7.62631E-07-6.37487E-19-5.03859E-19
 -1       185 9.28513E-05-2.77698E-05-2.78813E-05 1.25430E-06-6.10406E-19-6.42597E-19
 -1       186 9.37225E-05-2.80500E-05-2.81390E-05 1.59925E-06-3.11134E-19-8.97366E-19
 -1       187 9.48999E-05-2.84110E-05-2.84910E-05 1.87261E-06-5.24156E-19-1.08190E-18
 -1       188 9.63166E-05-2.88399E-05-2.89157E-05 2.10931E-06-6.97615E-19-1.07163E-18
 -1       189 9.79284E-05-2.93300E-05-2.93977E-05 2.31521E-06-4.47911E-19-1.21020E-18
 -1       190 9.96916E-05-2.98759E-05-2.99211E-05 2.46841E-06-1.89455E-19-2.30933E-18
 -1       191 1.01542E-04-3.04673E-05-3.04630E-05 2.51664E-06-1.27205E-19-2.81646E-18
 -1       192 1.03376E-04-3.10820E-05-3.09880E-05 2.37521E-06 1.48301E-19-2.40378E-18
 -1       193 1.05027E-04-3.16775E-05-3.14435E-05 1.93201E-06-9.45641E-20-2.36621E-18
 -1       194 1.06262E-04-3.21812E-05-3.17595E-05 1.06961E-06-5.84064E-19-2.14415E-18
 -1       195 1.06787E-04-3.24821E-05-3.18566E-05-2.82545E-07-3.35842E-19-2.22928E-18
 -1       196 1.06301E-04-3.24359E-05-3.16663E-05-2.05957E-06-3.23505E-19-2.43376E-18
 -1       197 1.04602E-04-3.18994E-05-3.11632E-05-3.95857E-06-2.18177E-20-2.91153E-18
 -1       198 1.01755E-04-3.08146E-05-3.04018E-05-5.39774E-06-3.92446E-19-2.52524E-18
 -1       199 9.82546E-05-2.93284E-05-2.95331E-05-5.65627E-06 4.36285E-19-2.29247E-18
 -1       200 9.50329E-05-2.78592E-05-2.87787E-05-4.25179E-06 8.75514E-19-1.82307E-18
 -1       201 9.31759E-05-2.69750E-05-2.83606E-05-1.37349E-06 1.88617E-19-2.60087E-18
 -1       202 9.33982E-05-2.70767E-05-2.84122E-05 2.02492E-06-1.17939E-19-2.04440E-18
 -1       203 9.56237E-05-2.81200E-05-2.89200E-05 4.69315E-06-7.43040E-20-1.07880E-18
 -1       204 9.90350E-05-2.96486E-05-2.97306E-05 5.79819E-06 1.51857E-19-1.50781E-18
 -1       205 1.02544E-04-3.11037E-05-3.06167E-05 5.29625E-06 5.04767E-19-2.57599E-18
 -1       206 1.05292E-04-3.21158E-05-3.13669E-05 3.74962E-06-9.03066E-19-2.61815E-18
 -1       207 1.06879E-04-3.25858E-05-3.18497E-05 1.87716E-06 5.02448E-19-2.11460E-18
 -1       208 1.07307E-04-3.25985E-05-3.20291E-05 2.13693E-07 8.67653E-19-1.32563E-18
 -1       209 1.06816E-04-3.23040E-05-3.19432E-05-9.88708E-07-7.67162E-19-1.22354E-18
 -1       210 1.05715E-04-3.18432E-05-3.16662E-05-1.69833E-06-3.05635E-19-1.40439E-19
 -1       211 1.04295E-04-3.13213E-05-3.12783E-05-2.00053E-06-6.55935E-19-1.14194E-18
 -1       212 1.02780E-04-3.08059E-05-3.08470E-05-2.01670E-06-5.16649E-19-5.01162E-19
 -1       213 1.01320E-04-3.03355E-05-3.04211E-05-1.85923E-06 1.81124E-19-5.87415E-19
 -1       214 1.00004E-04-2.99278E-05-3.00307E-05-1.61447E-06 1.35935E-19-2.16382E-18
 -1       215 9.88735E-05-2.95880E-05-2.96913E-05-1.34104E-06-1.30653E-20-1.36390E-18
 -1       216 9.79385E-05-2.93136E-05-2.94081E-05-1.07478E-06 2.49159E-19-2.98879E-18
 -1       217 9.71891E-05-2.90980E-05-2.91794E-05-8.34981E-07 5.39256E-19-1.73093E-18
 -1       218 9.66053E-05-2.89329E-05-2.90002E-05-6.29926E-07-1.14935E-18-2.18260E-18
 -1       219 9.61628E-05-2.88098E-05-2.88637E-05-4.61147E-07-1.28546E-18-1.98444E-18
 -1       220 9.58366E-05-2.87205E-05-2.87625E-05-3.26371E-07 9.97020E-19-1.56470E-18
 -1       221 9.56037E-05-2.86579E-05-2.86898E-05-2.21466E-07 2.43865E-18-1.19710E-18
 -1       222 9.54437E-05-2.86158E-05-2.86396E-05-1.41656E-07 5.53715E-19 4.91736E-19
 -1       223 9.53395E-05-2.85892E-05-2.86066E-05-8.22467E-08 4.20732E-19 1.36452E-18
 -1       224 9.52768E-05-2.85740E-05-2.85864E-05-3.90717E-08 6.76855E-19 2.42850E-19
 -1       225 9.52440E-05-2.85670E-05-2.85755E-05-8.80741E-09-3.88026E-19-1.07550E-18
 -1       226 9.52316E-05-2.85661E-05-2.85707E-05 1.04368E-08 1.06754E-18-1.56981E-18
 -1       227 9.52313E-05-2.85696E-05-2.85691E-05 1.85544E-08-1.72365E-19-7.55394E-19
 -1       228 9.94494E-05-2.85458E-05-3.05664E-05 6.97979E-06 2.05705E-18 6.53569E-18
 -1       229 9.45881E-05-2.78373E-05-2.85770E-05 2.50696E-06 1.53089E-18 5.00610E-18
 -1       230 9.25369E-05-2.75184E-05-2.78191E-05 6.41491E-07 1.16371E-18 3.66474E-18
 -1       231 9.19353E-05-2.74503E-05-2.76083E-05-3.14132E-07 5.85520E-19 2.89441E-18
 -1       232 9.21866E-05-2.75714E-05-2.76773E-05-8.80869E-07 2.21203E-19 2.46220E-18
 -1       233 9.29923E-05-2.78314E-05-2.79176E-05-1.27242E-06 3.50510E-19 1.83379E-18
 -1       234 9.42074E-05-2.81988E-05-2.82837E-05-1.59718E-06 7.08501E-19 1.37772E-18
 -1       235 9.57746E-05-2.86615E-05-2.87585E-05-1.91936E-06 5.90034E-19 9.75257E-19
 -1       236 9.76899E-05-2.92215E-05-2.93404E-05-2.28011E-06 6.22191E-19 2.72043E-19
 -1       237 9.99798E-05-2.98903E-05-3.00363E-05-2.70260E-06 2.49134E-19 6.14993E-19
 -1       238 1.02681E-04-3.06845E-05-3.08552E-05-3.18785E-06 1.86069E-19 4.64481E-19
 -1       239 1.05814E-04-3.16205E-05-3.17993E-05-3.70114E-06-5.21910E-20 2.82615E-19
 -1       240 1.09345E-04-3.27063E-05-3.28501E-05-4.14725E-06 3.88249E-19-1.15595E-19
 -1       241 1.13124E-04-3.39268E-05-3.39493E-05-4.33532E-06 1.28081E-19-2.29453E-19
 -1       242 1.16814E-04-3.52176E-05-3.49762E-05-3.94702E-06 3.50377E-20 4.55820E-19
 -1       243 1.19808E-04-3.64219E-05-3.57347E-05-2.55353E-06-2.58745E-19 3.87979E-19
 -1       244 1.21218E-04-3.72295E-05-3.59757E-05 2.22367E-07 1.08043E-19 1.63520E-19
 -1       245 1.20047E-04-3.71452E-05-3.54945E-05 4.28341E-06-2.38546E-19 1.32868E-18
 -1       246 1.15716E-04-3.56284E-05-3.42982E-05 8.44086E-06-7.29454E-19 1.96026E-18
 -1       247 1.08971E-04-3.26491E-05-3.27363E-05 1.02389E-05 2.45019E-19 1.44884E-18
 -1       248 1.02489E-04-2.93566E-05-3.14356E-05 7.36141E-06 5.40685E-19 2.09747E-19
 -1       249 9.99145E-05-2.78950E-05-3.09816E-05 2.77462E-07 1.60584E-18-1.20115E-18
 -1       250 1.02927E-04-2.93623E-05-3.15969E-05-6.96332E-06 1.38517E-18-3.52306E-18
 -1       251 1.09698E-04-3.27111E-05-3.29919E-05-1.02672E-05-1.29161E-19-3.46090E-18
 -1       252 1.16498E-04-3.57672E-05-3.45576E-05-8.78332E-06-7.23125E-19-1.81293E-18
 -1       253 1.20720E-04-3.73225E-05-3.57070E-05-4.74093E-06-3.68837E-19-1.67816E-18
 -1       254 1.21765E-04-3.74148E-05-3.61391E-05-6.43976E-07 3.45682E-19-2.13790E-18
 -1       255 1.20309E-04-3.66055E-05-3.58801E-05 2.21371E-06 3.48633E-19-2.43954E-18
 -1       256 1.17384E-04-3.54144E-05-3.51426E-05 3.66826E-06 3.27575E-19-3.07158E-18
 -1       257 1.13868E-04-3.41622E-05-3.41703E-05 4.07504E-06-3.75831E-19-3.21596E-18
 -1       258 1.10348E-04-3.30071E-05-3.31524E-05 3.86521E-06-1.64991E-18-1.57436E-18
 -1       259 1.07148E-04-3.20112E-05-3.22037E-05 3.36741E-06-1.38179E-18-7.66678E-19
 -1       260 1.04407E-04-3.11871E-05-3.13794E-05 2.78411E-06-4.34042E-19 5.50928E-19
 -1       261 1.02152E-04-3.05242E-05-3.06953E-05 2.22200E-06-5.74932E-20 6.31660E-19
 -1       262 1.00349E-04-3.00026E-05-3.01457E-05 1.72791E-06 1.02960E-18-1.99380E-19
 -1       263 9.89413E-05-2.95996E-05-2.97150E-05 1.31575E-06 1.27193E-18-8.26408E-19
 -1       264 9.78633E-05-2.92936E-05-2.93844E-05 9.83161E-07 4.31090E-19-1.75182E-18
 -1       265 9.70529E-05-2.90652E-05-2.91353E-05 7.20958E-07 9.42457E-19-2.56703E-18
 -1       266 9.64550E-05-2.88978E-05-2.89512E-05 5.17902E-07-1.06930E-18-1.11451E-18
 -1       267 9.60227E-05-2.87777E-05-2.88178E-05 3.62999E-07-2.04394E-18 2.63730E-19
 -1       268 9.57179E-05-2.86938E-05-2.87234E-05 2.46438E-07-8.02345E-19 1.70671E-18
 -1       269 9.55096E-05-2.86370E-05-2.86588E-05 1.59888E-07-2.93944E-20 1.71569E-18
 -1       270 9.53735E-05-2.86005E-05-2.86163E-05 9.64808E-08 1.53457E-18 2.05649E-18
 -1       271 9.52903E-05-2.85789E-05-2.85901E-05 5.06928E-08-1.74962E-19-9.36516E-19
 -1       272 9.52454E-05-2.85679E-05-2.85757E-05 1.83947E-08 1.39982E-18-1.17946E-18
 -1       273 9.52269E-05-2.85643E-05-2.85695E-05-3.37095E-09 2.35783E-19-2.26134E-18
 -1       274 9.52251E-05-2.85658E-05-2.85680E-05-1.58721E-08 3.73264E-19-2.32505E-18
 -1       275 9.52321E-05-2.85720E-05-2.85682E-05-1.70916E-08-2.09401E-19-9.93478E-19
 -1       276 9.52400E-05-2.85792E-05-2.85687E-05-1.82715E-08-4.76878E-19-1.88134E-18
 -1       277 9.52442E-05-2.85815E-05-2.85697E-05-9.90183E-09-6.61944E-19 1.19885E-18
 -1       278 9.52426E-05-2.85755E-05-2.85716E-05 4.09907E-09-9.59753E-19 7.98340E-19
 -1       279 9.52372E-05-2.85620E-05-2.85751E-05 1.57161E-08-2.06400E-18 7.89176E-20
 -1       280 9.52298E-05-2.85443E-05-2.85795E-05 2.12473E-08-3.22640E-18-6.90044E-18
 -1       281 9.52225E-05-2.85265E-05-2.85841E-05 1.97277E-08-1.89199E-18-2.29633E-19
 -1       282 9.52171E-05-2.85133E-05-2.85874E-05 1.21111E-08-2.99111E-18-4.05418E-19
 -1       283 9.52150E-05-2.85081E-05-2.85888E-05 9.95628E-10-2.16141E-18-1.22554E-19
 -1       284 9.52167E-05-2.85121E-05-2.85877E-05-1.02661E-08-2.82152E-18 1.28936E-18
 -1       285 9.52217E-05-2.85243E-05-2.85846E-05-1.83183E-08-2.01519E-18 9.06699E-19
 -1       286 9.52286E-05-2.85412E-05-2.85804E-05-2.05535E-08-1.61375E-18-6.46098E-19
 -1       287 9.52360E-05-2.85589E-05-2.85759E-05-1.58711E-08-8.83243E-19 2.06349E-18
 -1       288 9.52416E-05-2.85728E-05-2.85724E-05-4.95206E-09 5.82494E-19 6.67109E-19
 -1       289 9.52429E-05-2.85787E-05-2.85703E-05 7.50852E-09-6.05474E-19 8.07413E-19
 -1       290 9.52411E-05-2.85746E-05-2.85713E-05 1.68644E-08 1.86637E-19 3.67552E-19
 -1       291 1.16217E-05-4.22799E-05 1.06331E-05 7.80302E-06-9.11143E-19 2.82422E-18
 -1       292 2.65839E-05-4.31714E-05 4.42566E-06 2.08083E-05-2.35052E-19 3.84156E-18
 -1       293 5.35334E-05-3.85076E-05-8.24621E-06 3.37019E-05 1.38638E-18 1.67861E-18
 -1       294 9.19048E-05-3.47118E-05-2.50616E-05 4.24576E-05 9.49947E-19 2.87906E-18
 -1       295 1.34721E-04-3.20948E-05-4.29714E-05 4.58572E-05 2.43321E-18 2.02737E-18
 -1       296 1.77833E-04-3.46146E-05-5.88181E-05 3.84039E-05 2.95181E-18-3.33096E-19
 -1       297 1.94125E-04-3.05816E-05-6.77185E-05 1.13213E-05 3.69772E-18-2.93920E-18
 -1       298 2.11994E-04-3.56023E-05-7.20722E-05-3.96434E-06 4.92973E-18-5.98596E-18
 -1       299 1.95128E-04-3.43500E-05-6.60250E-05-2.20924E-05 5.81848E-18-7.02190E-18
 -1       300 1.63125E-04-3.44675E-05-5.32220E-05-3.99651E-05 5.61191E-18-9.55072E-18
 -1       301 1.12585E-04-3.09877E-05-3.46784E-05-4.65710E-05 6.02600E-18-9.45818E-18
 -1       302 6.62504E-05-3.47398E-05-1.49694E-05-3.77568E-05 5.52922E-18-6.90565E-18
 -1       303 3.44628E-05-4.16449E-05 3.70791E-07-2.43612E-05 4.02764E-18-4.83089E-18
 -1       304 1.62733E-05-4.83883E-05 1.02781E-05-1.03749E-05 4.28705E-19-5.45489E-18
 -1       305 1.13977E-05-5.03130E-05 1.30506E-05 2.38348E-06-2.38513E-18-3.62191E-18
 -1       306 1.84441E-05-4.63872E-05 8.71280E-06 1.51343E-05-4.71067E-18-4.57874E-18
 -1       307 3.79550E-05-3.86817E-05-1.99302E-06 2.88335E-05-5.92161E-18-3.75073E-18
 -1       308 7.51551E-05-3.54033E-05-1.78536E-05 4.20384E-05-5.30200E-18-4.12674E-18
 -1       309 1.21750E-04-3.80850E-05-3.55289E-05 4.11207E-05-4.07285E-18-4.29446E-18
 -1       310 1.57397E-04-3.11220E-05-5.23818E-05 4.12031E-05-4.66911E-18-5.39433E-18
 -1       311 1.82883E-04-2.97961E-05-6.35553E-05 1.99095E-05-4.52061E-18-3.66892E-18
 -1       312 2.10009E-04-3.60396E-05-7.10175E-05 6.37340E-06-3.85749E-18-3.23736E-18
 -1       313 2.01997E-04-3.39899E-05-6.87474E-05-1.66222E-05-3.40846E-18-1.14889E-18
 -1       314 1.78353E-04-3.20803E-05-5.99870E-05-3.90636E-05-2.75732E-18 2.35348E-18
 -1       315 1.37202E-04-2.85219E-05-4.52363E-05-4.80266E-05-3.44372E-18 3.59989E-18
 -1       316 9.47423E-05-3.10278E-05-2.74798E-05-4.52981E-05-3.05715E-18 3.80148E-18
 -1       317 5.37436E-05-3.42209E-05-1.00388E-05-3.55933E-05-3.97978E-18 3.31126E-18
 -1       318 2.76921E-05-4.17355E-05 3.43397E-06-2.38793E-05-3.01163E-18 2.92666E-18
 -1       319 1.25523E-05-4.65008E-05 1.13910E-05-9.02488E-06-2.77435E-18 8.52327E-19
 -1       320 9.18090E-05-1.43899E-05-3.32424E-05-1.25318E-05-2.32424E-18-2.64134E-18
 -1       321 9.58368E-05-1.91512E-05-3.29272E-05-1.41667E-05-2.57944E-18-1.23808E-18
 -1       322 8.79777E-05-1.01393E-05-3.34135E-05-7.66396E-06-1.12275E-18-3.84809E-18
 -1       323 8.70449E-05-9.10696E-06-3.34490E-05-5.31746E-06-6.32936E-19-4.00737E-18
 -1       324 8.64821E-05-8.48570E-06-3.34702E-05-3.10548E-06-4.45211E-20-3.92040E-18
 -1       325 8.62195E-05-8.19523E-06-3.34804E-05-9.80318E-07 3.57349E-19-3.77936E-18
 -1       326 8.62284E-05-8.20229E-06-3.34813E-05 1.11511E-06 8.11407E-19-3.59427E-18
 -1       327 8.65108E-05-8.50979E-06-3.34723E-05 3.23963E-06 1.27482E-18-3.49381E-18
 -1       328 8.70860E-05-9.14119E-06-3.34521E-05 5.41244E-06 1.72578E-18-3.18545E-18
 -1       329 8.80529E-05-1.02101E-05-3.34155E-05 7.75041E-06 2.22169E-18-2.57780E-18
 -1       330 8.95857E-05-1.19194E-05-3.33515E-05 1.02128E-05 2.66925E-18-1.85430E-18
 -1       331 9.20729E-05-1.47165E-05-3.32329E-05 1.26299E-05 2.97816E-18-5.63462E-19
 -1       332 9.59368E-05-1.95012E-05-3.28645E-05 1.39142E-05 2.95973E-18 1.55403E-18
 -1       333 9.88487E-05-2.44759E-05-3.19603E-05 1.15287E-05 2.64024E-18 3.46650E-18
 -1       334 9.66080E-05-2.68549E-05-2.98637E-05 5.33232E-06 2.23054E-18 2.70067E-18
 -1       335 9.67040E-05-2.60588E-05-3.02313E-05-5.82951E-06-2.14024E-18-6.74172E-19
 -1       336 9.53733E-05-2.70703E-05-2.92464E-05-2.18883E-06-1.65579E-18-7.86794E-19
 -1       337 9.46466E-05-2.74994E-05-2.87614E-05-8.52932E-08-1.13368E-18-9.81720E-19
 -1       338 9.44522E-05-2.77660E-05-2.85714E-05 1.22977E-06-7.10266E-19-1.22558E-18
 -1       339 9.46770E-05-2.80008E-05-2.85707E-05 2.11614E-06-4.71865E-19-1.14626E-18
 -1       340 9.52219E-05-2.82496E-05-2.86992E-05 2.76841E-06-5.68657E-19-1.07261E-18
 -1       341 9.60186E-05-2.85341E-05-2.89195E-05 3.29128E-06-4.03354E-19-1.20772E-18
 -1       342 9.70233E-05-2.88722E-05-2.92058E-05 3.73075E-06-8.11390E-19-1.27513E-18
 -1       343 9.82078E-05-2.92854E-05-2.95373E-05 4.08487E-06-7.83193E-19-1.46940E-18
 -1       344 9.95484E-05-2.97986E-05-2.98933E-05 4.30470E-06-6.63817E-19-1.38538E-18
 -1       345 1.01015E-04-3.04373E-05-3.02504E-05 4.29199E-06-9.84745E-20-1.78739E-18
 -1       346 1.02559E-04-3.12170E-05-3.05809E-05 3.90089E-06 1.73405E-19-1.66597E-18
 -1       347 1.04093E-04-3.21198E-05-3.08547E-05 2.95455E-06 6.04098E-20-1.77456E-18
 -1       348 1.05465E-04-3.30574E-05-3.10444E-05 1.29290E-06-1.61102E-19-1.31387E-18
 -1       349 1.06438E-04-3.38225E-05-3.11353E-05-1.12943E-06-6.98418E-19-4.95970E-19
 -1       350 1.06689E-04-3.40671E-05-3.11362E-05-4.09069E-06-5.99011E-19-3.27653E-19
 -1       351 1.05892E-04-3.33814E-05-3.10826E-05-6.94788E-06 1.64193E-19-6.59588E-19
 -1       352 1.03949E-04-3.15499E-05-3.10256E-05-8.63129E-06 3.06044E-20-6.38281E-19
 -1       353 1.01292E-04-2.89268E-05-3.10038E-05-8.00485E-06 6.74433E-19-6.48417E-19
 -1       354 9.89748E-05-2.65766E-05-3.10123E-05-4.63828E-06 4.77207E-19-7.31819E-19
 -1       355 9.81752E-05-2.57455E-05-3.10237E-05 5.48655E-07-8.03986E-20-7.24223E-19
 -1       356 9.93559E-05-2.69291E-05-3.10241E-05 5.54003E-06-1.85345E-19-6.95119E-19
 -1       357 1.01872E-04-2.94341E-05-3.10343E-05 8.44971E-06-6.98988E-20-1.35396E-18
 -1       358 1.04509E-04-3.19795E-05-3.10824E-05 8.62050E-06-1.36154E-19-2.17370E-18
 -1       359 1.06315E-04-3.36161E-05-3.11640E-05 6.67527E-06 5.15983E-19-1.97539E-18
 -1       360 1.06975E-04-3.41156E-05-3.12383E-05 3.78833E-06 1.80885E-19-1.41460E-18
 -1       361 1.06658E-04-3.37614E-05-3.12552E-05 9.67991E-07 6.97698E-19-9.76604E-19
 -1       362 1.05706E-04-3.29684E-05-3.11849E-05-1.23081E-06 3.14813E-19-1.05637E-18
 -1       363 1.04431E-04-3.20592E-05-3.10245E-05-2.64996E-06-4.90915E-19-1.06947E-18
 -1       364 1.03054E-04-3.12171E-05-3.07917E-05-3.36694E-06 1.20742E-19-8.41982E-19
 -1       365 1.01712E-04-3.05157E-05-3.05143E-05-3.55439E-06-3.13041E-19 6.75601E-19
 -1       366 1.00481E-04-2.99658E-05-3.02202E-05-3.39370E-06-3.79073E-19 5.84000E-19
 -1       367 9.93962E-05-2.95501E-05-2.99323E-05-3.03568E-06-8.73588E-19 8.51831E-19
 -1       368 9.84703E-05-2.92434E-05-2.96664E-05-2.59024E-06 5.01264E-19-1.05504E-19
 -1       369 9.77006E-05-2.90209E-05-2.94317E-05-2.12977E-06-8.98027E-19-4.55171E-19
 -1       370 9.70754E-05-2.88620E-05-2.92320E-05-1.69734E-06 1.29166E-18 2.77373E-19
 -1       371 9.65787E-05-2.87504E-05-2.90672E-05-1.31509E-06-1.79260E-19-2.11020E-19
 -1       372 9.61926E-05-2.86737E-05-2.89349E-05-9.91428E-07 3.30466E-20 2.37006E-18
 -1       373 9.58989E-05-2.86223E-05-2.88314E-05-7.26310E-07-3.30300E-19 3.48687E-18
 -1       374 9.56807E-05-2.85892E-05-2.87524E-05-5.15004E-07 2.87581E-19 1.67814E-18
 -1       375 9.55229E-05-2.85691E-05-2.86936E-05-3.50582E-07 2.09269E-18-4.86878E-19
 -1       376 9.54122E-05-2.85582E-05-2.86511E-05-2.25504E-07 1.26343E-18 1.60357E-18
 -1       377 9.53376E-05-2.85536E-05-2.86213E-05-1.32601E-07 3.86891E-19 7.72069E-19
 -1       378 9.52898E-05-2.85535E-05-2.86010E-05-6.57789E-08-1.43062E-18 1.20682E-18
 -1       379 9.52612E-05-2.85568E-05-2.85873E-05-2.01445E-08 1.33627E-19 2.03628E-18
 -1       380 9.52467E-05-2.85639E-05-2.85783E-05 5.72762E-09 8.71283E-20 7.15409E-19
 -1       381 9.48066E-05-2.74174E-05-2.88419E-05 1.96349E-06 1.71099E-18 2.07878E-18
 -1       382 9.38901E-05-2.75913E-05-2.83904E-05 7.91918E-08 1.07010E-18 1.56885E-18
 -1       383 9.37202E-05-2.77473E-05-2.82620E-05-1.07302E-06 5.51717E-19 7.57685E-19
 -1       384 9.40865E-05-2.79496E-05-2.83374E-05-1.86274E-06 4.94228E-19 4.39631E-19
 -1       385 9.48564E-05-2.82088E-05-2.85580E-05-2.49113E-06 7.90644E-19 3.10067E-19
 -1       386 9.59585E-05-2.85270E-05-2.88943E-05-3.07766E-06 9.82761E-19 5.89126E-20
 -1       387 9.73648E-05-2.89105E-05-2.93325E-05-3.69723E-06 9.26074E-19-2.80255E-19
 -1       388 9.90759E-05-2.93735E-05-2.98673E-05-4.39173E-06 2.66278E-20-5.74501E-20
 -1       389 1.01108E-04-2.99408E-05-3.04954E-05-5.16645E-06 2.76828E-19-4.91740E-20
 -1       390 1.03479E-04-3.06513E-05-3.12087E-05-5.97324E-06 1.41124E-19-2.06799E-19
 -1       391 1.06195E-04-3.15620E-05-3.19859E-05-6.67906E-06 7.34139E-19-5.16357E-19
 -1       392 1.09228E-04-3.27484E-05-3.27830E-05-7.02176E-06 3.71635E-19-4.05184E-19
 -1       393 1.12480E-04-3.42838E-05-3.35271E-05-6.56957E-06-6.90487E-19 6.43828E-20
 -1       394 1.15729E-04-3.61639E-05-3.41215E-05-4.73629E-06 1.83965E-20 8.28547E-19
 -1       395 1.18515E-04-3.81289E-05-3.44777E-05-9.67192E-07 1.70015E-19 1.21536E-18
 -1       396 1.20019E-04-3.93970E-05-3.45768E-05 4.74343E-06-5.62536E-19 1.27803E-18
 -1       397 1.19173E-04-3.86505E-05-3.45373E-05 1.09822E-05-1.08862E-18 1.62320E-18
 -1       398 1.15329E-04-3.47971E-05-3.45541E-05 1.43910E-05 6.84753E-19 1.59447E-18
 -1       399 1.10034E-04-2.91711E-05-3.47170E-05 1.12475E-05 7.70654E-19 1.21166E-18
 -1       400 1.07032E-04-2.58361E-05-3.48569E-05 1.38160E-06 2.80168E-18-1.45409E-19
 -1       401 1.09094E-04-2.79256E-05-3.48299E-05-9.34506E-06 2.52321E-18-1.89133E-18
 -1       402 1.14398E-04-3.34735E-05-3.47074E-05-1.45197E-05-4.70242E-19-2.05015E-18
 -1       403 1.18922E-04-3.80726E-05-3.46678E-05-1.24256E-05-8.65631E-19-1.48472E-18
 -1       404 1.20495E-04-3.95762E-05-3.47060E-05-6.49243E-06-1.28805E-19-1.48727E-18
 -1       405 1.19429E-04-3.86623E-05-3.46474E-05-4.59805E-07 5.48034E-19-1.01149E-18
 -1       406 1.16867E-04-3.67603E-05-3.43612E-05 3.77470E-06 1.00774E-19-1.07963E-18
 -1       407 1.13746E-04-3.48264E-05-3.38420E-05 5.96537E-06 2.66418E-19-8.53733E-20
 -1       408 1.10603E-04-3.32294E-05-3.31689E-05 6.60735E-06 1.90031E-19 7.31043E-19
 -1       409 1.07699E-04-3.20127E-05-3.24379E-05 6.31209E-06-1.73279E-18-1.13886E-18
 -1       410 1.05145E-04-3.11086E-05-3.17259E-05 5.55751E-06-2.26666E-18-1.23636E-18
 -1       411 1.02972E-04-3.04373E-05-3.10805E-05 4.64872E-06-1.72805E-18-8.78758E-19
 -1       412 1.01172E-04-2.99354E-05-3.05238E-05 3.75433E-06 3.38622E-19 8.95323E-19
 -1       413 9.97137E-05-2.95580E-05-3.00609E-05 2.95393E-06 1.87481E-18 1.07259E-19
 -1       414 9.85544E-05-2.92740E-05-2.96866E-05 2.27559E-06 1.99524E-18-2.22583E-19
 -1       415 9.76493E-05-2.90614E-05-2.93907E-05 1.72043E-06 5.72165E-19-8.49917E-19
 -1       416 9.69547E-05-2.89037E-05-2.91614E-05 1.27712E-06 2.80070E-19-3.38208E-19
 -1       417 9.64308E-05-2.87886E-05-2.89869E-05 9.29742E-07-1.20428E-18 7.38168E-19
 -1       418 9.60432E-05-2.87062E-05-2.88567E-05 6.61788E-07-2.67613E-18 5.43250E-19
 -1       419 9.57623E-05-2.86488E-05-2.87614E-05 4.58017E-07-1.36966E-18 7.89542E-19
 -1       420 9.55639E-05-2.86101E-05-2.86933E-05 3.05170E-07 2.98210E-19 9.88373E-19
 -1       421 9.54282E-05-2.85854E-05-2.86461E-05 1.92134E-07 1.23756E-18 1.30165E-18
 -1       422 9.53395E-05-2.85710E-05-2.86145E-05 1.09822E-07 1.72253E-18 9.59577E-19
 -1       423 9.52852E-05-2.85641E-05-2.85943E-05 5.13375E-08 2.00578E-19-2.53777E-19
 -1       424 9.52550E-05-2.85626E-05-2.85822E-05 1.17590E-08 1.21828E-18 1.73540E-18
 -1       425 9.52415E-05-2.85659E-05-2.85751E-05-1.17719E-08 3.50179E-19 7.40328E-21
 -1       426 9.52394E-05-2.85710E-05-2.85722E-05-1.79105E-08-8.93973E-19-1.34151E-18
 -1       427 9.52366E-05-2.85280E-05-2.85893E-05 3.13528E-08-8.94573E-19-2.30839E-18
 -1       428 9.52470E-05-2.85514E-05-2.85838E-05 1.16302E-08 6.05753E-19 3.38676E-19
 -1       429 9.52464E-05-2.85653E-05-2.85776E-05-6.79355E-09 2.54401E-19 9.92839E-19
 -1       430 9.52219E-05-2.85014E-05-2.85944E-05 4.31715E-08-1.90724E-18-3.24964E-18
 -1       431 9.52059E-05-2.84749E-05-2.85990E-05 4.33858E-08-4.35593E-19-2.98869E-18
 -1       432 9.51928E-05-2.84539E-05-2.86024E-05 3.21381E-08-6.53382E-19-1.15663E-18
 -1       433 9.51854E-05-2.84423E-05-2.86043E-05 1.26905E-08-2.66886E-18-1.33057E-19
 -1       434 9.51852E-05-2.84420E-05-2.86043E-05-9.83316E-09-1.58445E-18 3.49011E-19
 -1       435 9.51921E-05-2.84531E-05-2.86025E-05-2.96759E-08-2.03767E-18 6.20293E-19
 -1       436 9.52045E-05-2.84732E-05-2.85991E-05-4.15915E-08-1.94086E-18 9.35904E-19
 -1       437 9.52202E-05-2.84993E-05-2.85946E-05-4.27102E-08 1.56156E-18 3.00427E-18
 -1       438 9.52352E-05-2.85263E-05-2.85895E-05-3.21686E-08 1.63855E-18 1.17133E-18
 -1       439 9.52460E-05-2.85503E-05-2.85838E-05-1.27842E-08 8.31234E-19-3.41347E-19
 -1       440 5.74989E-05-4.16913E-05-6.96937E-06 4.11039E-05-1.74277E-18 2.01170E-20
 -1       441 1.15980E-05-2.21782E-05 4.31544E-06-3.72917E-06-7.13691E-20 7.65506E-19
 -1       442 2.58957E-05-2.86956E-05 9.78072E-07 2.66717E-05-1.08426E-18 4.11489E-18
 -1       443 9.79044E-05-5.36745E-05-1.90950E-05 4.01122E-05-1.41063E-18 1.13259E-18
 -1       444 1.33879E-04-5.53867E-05-3.36321E-05 2.61520E-05 1.58501E-19 8.39621E-20
 -1       445 8.95162E-05-1.18156E-05-3.33621E-05-1.02162E-05-1.75968E-18-3.40203E-18
 -1       446 1.59036E-04-2.99279E-05-5.53786E-05-4.19291E-06 3.56834E-18-1.71588E-18
 -1       447 1.60171E-04-1.44204E-05-6.23785E-05-1.23307E-06 4.52337E-18-2.64354E-18
 -1       448 1.61195E-04-1.74526E-05-6.13925E-05 3.12057E-06 4.80384E-18-1.88936E-18
 -1       449 1.60225E-04-3.47134E-05-5.36665E-05 4.34380E-07 4.30393E-18-1.12221E-18
 -1       450 1.47018E-04-5.06182E-05-4.12546E-05-1.82210E-05 1.84447E-18-4.88854E-18
 -1       451 1.19589E-04-5.89365E-05-2.60059E-05-3.33058E-05 5.24313E-19-4.55058E-18
 -1       452 7.33683E-05-4.73253E-05-1.13642E-05-4.28797E-05 1.12782E-18-3.83008E-18
 -1       453 3.54623E-05-3.31682E-05-1.22694E-06-3.37399E-05-1.82641E-19-6.05607E-18
 -1       454 1.31341E-05-2.54702E-05 4.86484E-06-9.94978E-06-6.12405E-19-5.77835E-18
 -1       455 1.60220E-05-2.41959E-05 3.29741E-06 1.77062E-05-7.17278E-19-4.17439E-18
 -1       456 4.07858E-05-3.45927E-05-2.76828E-06 3.85722E-05-4.96044E-19-2.55253E-18
 -1       457 7.74580E-05-4.73062E-05-1.29935E-05 4.49935E-05-5.83923E-19-2.03201E-18
 -1       458 1.16220E-04-5.47022E-05-2.63775E-05 3.55138E-05-1.89481E-18-1.56098E-18
 -1       459 1.44213E-04-4.59312E-05-4.21605E-05 1.46264E-05-2.40258E-18-1.43593E-18
 -1       460 1.53209E-04-3.20824E-05-5.19999E-05 1.78493E-06-3.45489E-18-1.57876E-18
 -1       461 1.52641E-04-1.33968E-05-5.97202E-05-2.55699E-06-4.15470E-18-2.08989E-18
 -1       462 1.53909E-04-1.10043E-05-6.12348E-05 9.67705E-07-3.64012E-18-2.55289E-18
 -1       463 1.60649E-04-2.37037E-05-5.83545E-05-2.42586E-06-3.12396E-18-2.35390E-18
 -1       464 1.52710E-04-3.85365E-05-4.86835E-05-1.28500E-05-1.64216E-18-1.29416E-18
 -1       465 1.34904E-04-5.26246E-05-3.52428E-05-2.46269E-05 4.88579E-19-1.43837E-18
 -1       466 9.85160E-05-5.14926E-05-2.02673E-05-4.16774E-05-7.42636E-19 8.55450E-19
 -1       467 6.19746E-05-4.18158E-05-8.69682E-06-4.45423E-05-4.25105E-19 1.56463E-18
 -1       468 2.60646E-05-2.76833E-05 5.73593E-07-2.96824E-05-1.28484E-18 2.10774E-18
 -1       469 1.55611E-04-4.47429E-05-4.72925E-05 1.15417E-05 2.18385E-18-1.58819E-18
 -1       470 2.19575E-05-1.68350E-05-1.76533E-06 1.37426E-05-4.91941E-19 2.49081E-18
 -1       471 1.36085E-04-5.76627E-05-3.37195E-05 1.66813E-05-1.15758E-18-6.42369E-19
 -1       472 1.42903E-04-1.74760E-05-5.42415E-05-1.04635E-05 4.32537E-18-5.74500E-19
 -1       473 9.61242E-05-2.51235E-05-3.04144E-05 5.34229E-06 2.28325E-18 4.12223E-19
 -1       474 8.91731E-05-1.27761E-05-3.27598E-05-3.49546E-06-3.94095E-19-3.62107E-18
 -1       475 9.00429E-05-1.38890E-05-3.26571E-05-5.30194E-06-8.17447E-19-3.49263E-18
 -1       476 8.85220E-05-1.19544E-05-3.28316E-05 6.11676E-08 5.07013E-19-3.29390E-18
 -1       477 8.86953E-05-1.21673E-05-3.28150E-05 1.82488E-06 1.00133E-18-3.21571E-18
 -1       478 8.91991E-05-1.27977E-05-3.27619E-05 3.57638E-06 1.42358E-18-3.08163E-18
 -1       479 9.00865E-05-1.39310E-05-3.26586E-05 5.37220E-06 1.87596E-18-2.58440E-18
 -1       480 9.14170E-05-1.56852E-05-3.24793E-05 7.10856E-06 2.28712E-18-1.94172E-18
 -1       481 9.33635E-05-1.83289E-05-3.21777E-05 8.60973E-06 2.68113E-18-1.12289E-18
 -1       482 9.55761E-05-2.65246E-05-2.95748E-05 2.00114E-06 1.69469E-18 1.43564E-19
 -1       483 9.57556E-05-2.43493E-05-3.05926E-05-5.06027E-06-1.81513E-18-1.73358E-18
 -1       484 1.45747E-04-5.60937E-05-3.86059E-05 4.32283E-06 1.30390E-19-7.00920E-20
 -1       485 9.56656E-05-2.60889E-05-2.98098E-05-1.91780E-06-1.52141E-18-1.56520E-18
 -1       486 9.54753E-05-2.69894E-05-2.93465E-05 2.40690E-07-9.90551E-19-1.42354E-18
 -1       487 9.54195E-05-2.74974E-05-2.91070E-05 1.73863E-06-6.83431E-19-1.40279E-18
 -1       488 9.55502E-05-2.78243E-05-2.90239E-05 2.82997E-06-4.46206E-19-1.77731E-18
 -1       489 9.58651E-05-2.80762E-05-2.90512E-05 3.67875E-06-6.10052E-19-1.96226E-18
 -1       490 9.63550E-05-2.83226E-05-2.91558E-05 4.38049E-06-4.82782E-19-1.88631E-18
 -1       491 9.70201E-05-2.86248E-05-2.93117E-05 4.97402E-06-8.27690E-19-1.65754E-18
 -1       492 9.78758E-05-2.90490E-05-2.94970E-05 5.44504E-06-8.04190E-19-1.38408E-18
 -1       493 9.89525E-05-2.96708E-05-2.96928E-05 5.72411E-06-5.10445E-19-1.11318E-18
 -1       494 1.00292E-04-3.05693E-05-2.98830E-05 5.68309E-06 1.61883E-19-1.22030E-18
 -1       495 1.01933E-04-3.18035E-05-3.00588E-05 5.13624E-06 2.20010E-19-1.27608E-18
 -1       496 1.03872E-04-3.33601E-05-3.02247E-05 3.85827E-06 3.33383E-20-8.11256E-19
 -1       497 1.05998E-04-3.50632E-05-3.04075E-05 1.64102E-06-1.34150E-19-9.97551E-19
 -1       498 1.07991E-04-3.64621E-05-3.06623E-05-1.57470E-06-3.52399E-19-3.05623E-19
 -1       499 1.09266E-04-3.67916E-05-3.10659E-05-5.46074E-06-5.37608E-19-3.72632E-19
 -1       500 1.09107E-04-3.52014E-05-3.16760E-05-9.03144E-06-1.59268E-19 2.05474E-20
 -1       501 1.07161E-04-3.14111E-05-3.24652E-05-1.06219E-05 4.14157E-19 8.95205E-19
 -1       502 1.04162E-04-2.65868E-05-3.32557E-05-8.59025E-06 6.79969E-19-2.93693E-19
 -1       503 1.01976E-04-2.32761E-05-3.37368E-05-2.86646E-06-1.47776E-19-5.53960E-19
 -1       504 1.02244E-04-2.36490E-05-3.36909E-05 4.25268E-06-3.35516E-19-5.24423E-19
 -1       505 1.04753E-04-2.74291E-05-3.31421E-05 9.42323E-06-7.00728E-19-9.00383E-19
 -1       506 1.07696E-04-3.22139E-05-3.23477E-05 1.07478E-05-6.27870E-19-1.95471E-18
 -1       507 1.09363E-04-3.56327E-05-3.15996E-05 8.70269E-06 4.59400E-20-1.29545E-18
 -1       508 1.09248E-04-3.68127E-05-3.10504E-05 5.02632E-06 2.81539E-20-1.65207E-18
 -1       509 1.07829E-04-3.62080E-05-3.07022E-05 1.29898E-06 6.78988E-19-2.18418E-18
 -1       510 1.05835E-04-3.47047E-05-3.04905E-05-1.63872E-06 6.80759E-19-1.76854E-18
 -1       511 1.03795E-04-3.30083E-05-3.03420E-05-3.55758E-06 1.91019E-20-7.73196E-19
 -1       512 1.01984E-04-3.15113E-05-3.02055E-05-4.55710E-06-4.33704E-19-4.23262E-19
 -1       513 1.00486E-04-3.03557E-05-3.00571E-05-4.86011E-06-1.87596E-21-9.74920E-19
 -1       514 9.92893E-05-2.95401E-05-2.98926E-05-4.69718E-06-3.47550E-19-6.26094E-19
 -1       515 9.83472E-05-2.90039E-05-2.97179E-05-4.25981E-06-2.09817E-19 2.75010E-19
 -1       516 9.76094E-05-2.86746E-05-2.95425E-05-3.68970E-06-8.81592E-19 8.21132E-19
 -1       517 9.70325E-05-2.84881E-05-2.93751E-05-3.08304E-06 1.43252E-19 1.30343E-18
 -1       518 9.65825E-05-2.83951E-05-2.92221E-05-2.49981E-06-2.54001E-19 1.51561E-18
 -1       519 9.62329E-05-2.83600E-05-2.90874E-05-1.97343E-06-1.65533E-19 4.24666E-19
 -1       520 9.59633E-05-2.83589E-05-2.89725E-05-1.51899E-06 6.91549E-19 5.64211E-19
 -1       521 9.57574E-05-2.83761E-05-2.88771E-05-1.13980E-06-2.51628E-19 2.67830E-19
 -1       522 9.56023E-05-2.84015E-05-2.87998E-05-8.32097E-07-3.55659E-19 2.09648E-18
 -1       523 9.54872E-05-2.84294E-05-2.87386E-05-5.88389E-07-2.93868E-19 1.35793E-18
 -1       524 9.54033E-05-2.84564E-05-2.86912E-05-3.99687E-07 1.71097E-18 8.38222E-20
 -1       525 9.53434E-05-2.84810E-05-2.86551E-05-2.56896E-07 3.16531E-19-1.00459E-18
 -1       526 9.53017E-05-2.85028E-05-2.86280E-05-1.51775E-07 7.98327E-19 1.88849E-19
 -1       527 9.52736E-05-2.85223E-05-2.86076E-05-7.74454E-08-9.14734E-19 1.37806E-18
 -1       528 9.51090E-05-2.75991E-05-2.89277E-05-1.66974E-06 7.58923E-19-4.17315E-19
 -1       529 9.53026E-05-2.78415E-05-2.89086E-05-2.78882E-06 7.20494E-19-6.07395E-19
 -1       530 9.57433E-05-2.80211E-05-2.90210E-05-3.73374E-06 9.32713E-19-6.28351E-19
 -1       531 9.63989E-05-2.81772E-05-2.92350E-05-4.63743E-06 1.04821E-18-4.11460E-19
 -1       532 9.72523E-05-2.83419E-05-2.95299E-05-5.58446E-06 4.88097E-19-8.94451E-20
 -1       533 9.83050E-05-2.85571E-05-2.98887E-05-6.61622E-06 3.58869E-19-6.50472E-19
 -1       534 9.95816E-05-2.88912E-05-3.02930E-05-7.72281E-06 4.96531E-19-7.14546E-19
 -1       535 1.01141E-04-2.94589E-05-3.07193E-05-8.82166E-06 3.42903E-19-1.12380E-18
 -1       536 1.03096E-04-3.04447E-05-3.11374E-05-9.72145E-06-6.98498E-20-7.59715E-19
 -1       537 1.05634E-04-3.21106E-05-3.15160E-05-1.00723E-05-7.72757E-19 3.68836E-19
 -1       538 1.09007E-04-3.47396E-05-3.18418E-05-9.31723E-06-6.58937E-19 3.86015E-19
 -1       539 1.13414E-04-3.84122E-05-3.21613E-05-6.69645E-06-3.20140E-19 6.12486E-19
 -1       540 1.18625E-04-4.24947E-05-3.26493E-05-1.46082E-06-5.88324E-19 1.67621E-18
 -1       541 1.23393E-04-4.49328E-05-3.36522E-05 6.47890E-06-1.48291E-18 2.20974E-18
 -1       542 1.24852E-04-4.21828E-05-3.55180E-05 1.49141E-05-8.38500E-19 2.79586E-18
 -1       543 1.21350E-04-3.27725E-05-3.81710E-05 1.73657E-05 1.69077E-18 2.56193E-18
 -1       544 1.16238E-04-2.22567E-05-4.05328E-05 9.10020E-06 2.36923E-18 1.03619E-18
 -1       545 1.14846E-04-2.03793E-05-4.08325E-05-6.37546E-06 3.71540E-18 1.35565E-18
 -1       546 1.20612E-04-3.03224E-05-3.88567E-05-1.68178E-05 1.58711E-18 3.98311E-19
 -1       547 1.24718E-04-4.06662E-05-3.61306E-05-1.60163E-05-4.95898E-19-9.81949E-19
 -1       548 1.24224E-04-4.48988E-05-3.40399E-05-8.54872E-06-6.80694E-19-1.33240E-18
 -1       549 1.19981E-04-4.33040E-05-3.28873E-05-3.50260E-07-3.55977E-19-1.08082E-18
 -1       550 1.14774E-04-3.93498E-05-3.23472E-05 5.45704E-06-3.75934E-19-4.33146E-19
 -1       551 1.10211E-04-3.54872E-05-3.20392E-05 8.51706E-06-4.91501E-19 4.29575E-19
 -1       552 1.06704E-04-3.26231E-05-3.17563E-05 9.51013E-06-3.22496E-19 8.31198E-19
 -1       553 1.04109E-04-3.07809E-05-3.14276E-05 9.22885E-06-2.74253E-19 2.00900E-18
 -1       554 1.02166E-04-2.96939E-05-3.10572E-05 8.28376E-06-1.09762E-18 8.40181E-19
 -1       555 1.00668E-04-2.90885E-05-3.06730E-05 7.07403E-06-1.93122E-18-2.53086E-19
 -1       556 9.94817E-05-2.87653E-05-3.03028E-05 5.83413E-06-1.04078E-18-5.55118E-19
 -1       557 9.85282E-05-2.85990E-05-2.99656E-05 4.68681E-06 1.12923E-18 5.14252E-20
 -1       558 9.77588E-05-2.85172E-05-2.96715E-05 3.68572E-06 2.42061E-18 1.31433E-18
 -1       559 9.71415E-05-2.84801E-05-2.94234E-05 2.84488E-06 1.81608E-18 5.28523E-19
 -1       560 9.66514E-05-2.84669E-05-2.92196E-05 2.15753E-06 2.19406E-19 9.80640E-20
 -1       561 9.62679E-05-2.84662E-05-2.90560E-05 1.60722E-06-2.38257E-19 6.18711E-19
 -1       562 9.59725E-05-2.84722E-05-2.89273E-05 1.17413E-06-1.66953E-18 2.29980E-20
 -1       563 9.57492E-05-2.84817E-05-2.88279E-05 8.38448E-07-1.73953E-18 1.63400E-20
 -1       564 9.55838E-05-2.84928E-05-2.87525E-05 5.81974E-07-1.31015E-18 2.17935E-19
 -1       565 9.54640E-05-2.85043E-05-2.86964E-05 3.88861E-07 5.29204E-19 5.51083E-19
 -1       566 9.53796E-05-2.85157E-05-2.86555E-05 2.45917E-07 1.43939E-18 1.81043E-18
 -1       567 9.53219E-05-2.85266E-05-2.86262E-05 1.42401E-07 8.45193E-19 1.91711E-18
 -1       568 9.52844E-05-2.85384E-05-2.86052E-05 6.87214E-08-6.33263E-19 2.88541E-18
 -1       569 9.52609E-05-2.85504E-05-2.85901E-05 2.03874E-08 1.55370E-18 2.28011E-18
 -1       570 9.51938E-05-2.84259E-05-2.86148E-05 7.79085E-08 5.72691E-19-3.02978E-18
 -1       571 9.51668E-05-2.83898E-05-2.86187E-05 6.44803E-08 7.92522E-19-1.47364E-18
 -1       572 9.52464E-05-2.85085E-05-2.86020E-05 5.56369E-08 9.49404E-19-2.13689E-18
 -1       573 9.52232E-05-2.84677E-05-2.86094E-05 7.44647E-08 2.88659E-20-3.56663E-18
 -1       574 9.51480E-05-2.83658E-05-2.86210E-05 3.69451E-08 5.67883E-20-1.85328E-18
 -1       575 9.51412E-05-2.83574E-05-2.86217E-05 1.51534E-09 2.62897E-19 1.66727E-18
 -1       576 9.51475E-05-2.83658E-05-2.86208E-05-3.40724E-08 5.08671E-21-3.55700E-19
 -1       577 9.51653E-05-2.83892E-05-2.86183E-05-6.17416E-08-4.95950E-19 1.24039E-18
 -1       578 9.51917E-05-2.84249E-05-2.86144E-05-7.63825E-08 1.07554E-19 3.81827E-18
 -1       579 9.52206E-05-2.84666E-05-2.86089E-05-7.43271E-08 8.51341E-20 2.31857E-18
 -1       580 9.52450E-05-2.85078E-05-2.86016E-05-5.70485E-08-5.50250E-19-3.86293E-19
 -1       581 9.00809E-05-5.03715E-05-1.67157E-05 4.04400E-05-2.09471E-18 1.43493E-19
 -1       582 9.52004E-05-2.72195E-05-2.91249E-05-1.75615E-07 1.30055E-18-7.04278E-20
 -1       583 2.68315E-05-1.51013E-05-4.39407E-06-1.77263E-05-7.54124E-20 2.12478E-18
 -1       584 5.35272E-05-3.04731E-05-9.31476E-06 3.68969E-05-2.24548E-18 7.62383E-19
 -1       585 9.48220E-05-2.07189E-05-3.17797E-05-8.87886E-06-2.14014E-18-2.24547E-18
 -1       586 5.49727E-05-3.09431E-05-9.77525E-06-3.98088E-05 4.53163E-20 6.53751E-19
 -1       587 8.86787E-05-1.21524E-05-3.28142E-05-1.70579E-06 4.02274E-20-3.47718E-18
 -1       588 1.37317E-04-1.17449E-05-5.45210E-05 3.09339E-06 3.67136E-18 1.12343E-18
 -1       589 1.43608E-04-3.12890E-05-4.85334E-05 7.15127E-06-1.62260E-18-3.64171E-18
 -1       590 1.38327E-04-2.37625E-05-4.96743E-05 1.48499E-05 3.18019E-18 2.13818E-18
 -1       591 1.47445E-04-4.84442E-05-4.27968E-05 6.29262E-06 1.85662E-18 3.65759E-19
 -1       592 1.38602E-04-6.10204E-05-3.33889E-05-1.15335E-05-8.96637E-19-2.23786E-18
 -1       593 1.04116E-04-5.57586E-05-2.04653E-05-3.65593E-05-7.55024E-19-2.98023E-18
 -1       594 6.91128E-05-4.01860E-05-1.19511E-05-4.14326E-05-8.45021E-19-4.05041E-18
 -1       595 3.11572E-05-2.01536E-05-4.21685E-06-2.38716E-05-1.27690E-19-6.17381E-18
 -1       596 2.29429E-05-1.30373E-05-3.61763E-06 2.24910E-06 3.98827E-19-4.59875E-18
 -1       597 3.97073E-05-2.14847E-05-7.17081E-06 3.08013E-05 9.56671E-19-2.31452E-18
 -1       598 6.53793E-05-3.71266E-05-1.16964E-05 4.22622E-05 1.03454E-18-1.27828E-18
 -1       599 1.07398E-04-5.59167E-05-2.18051E-05 3.69485E-05 8.09128E-19-1.63148E-18
 -1       600 1.41952E-04-4.30314E-05-4.27779E-05-4.42729E-06-1.72920E-18-1.80365E-19
 -1       601 1.33838E-04-2.04757E-05-4.91632E-05-1.16199E-05-2.56249E-18-5.96629E-20
 -1       602 1.29191E-04-7.38028E-06-5.28680E-05-2.22382E-06-3.21714E-18-2.30703E-18
 -1       603 1.31115E-04-1.31891E-05-5.11805E-05 9.52915E-06-2.60595E-18-3.47786E-18
 -1       604 1.41659E-04-4.91270E-05-3.99559E-05-3.22267E-06 4.89790E-19-2.59737E-18
 -1       605 1.23363E-04-5.90679E-05-2.75384E-05-2.69071E-05 1.92954E-18-3.28053E-18
 -1       606 9.73015E-05-5.24606E-05-1.89262E-05-4.09661E-05 1.11480E-18-2.10305E-18
 -1       607 1.47705E-04-4.15189E-05-4.59260E-05-9.85344E-06 2.88269E-18-2.87832E-19
 -1       608 9.63731E-05-2.32050E-05-3.13610E-05 9.03679E-06 2.74861E-18 9.17772E-19
 -1       609 1.26488E-04-6.22317E-05-2.74690E-05 2.41478E-05-2.14151E-18 6.63068E-20
 -1       610 1.29602E-04-1.44619E-05-4.99468E-05-6.74260E-06 3.25753E-18 1.11825E-18
 -1       611 9.13108E-05-1.55977E-05-3.24823E-05-7.00999E-06-1.35828E-18-3.29552E-18
 -1       612 1.33395E-04-5.73729E-05-3.27178E-05-9.71665E-06 1.78126E-18-1.69571E-18
 -1       613 1.24540E-04-5.94789E-05-2.78615E-05 2.19573E-05-1.11451E-19-8.86923E-19
 -1       614 1.24989E-04-6.03171E-05-2.76528E-05-2.05064E-05-1.63966E-18-1.71362E-18
 -1       615 1.37787E-04-2.87050E-05-4.72582E-05-1.62177E-05 3.95766E-18 2.08317E-19
 -1       616 9.52605E-05-2.85357E-05-2.85962E-05-4.06861E-08-1.06550E-18 4.24645E-19
 -1       617 9.08858E-05-1.58595E-05-3.21596E-05 2.02685E-06 1.02653E-18-2.81584E-18
 -1       618 9.05305E-05-1.53786E-05-3.22131E-05 7.10136E-07 6.00295E-19-2.89290E-18
 -1       619 9.26484E-05-1.83813E-05-3.18343E-05 4.45555E-06 1.88946E-18-1.89241E-18
 -1       620 9.39978E-05-2.05541E-05-3.14836E-05 5.27337E-06 2.19986E-18-1.36008E-18
 -1       621 9.54826E-05-2.38657E-05-3.06829E-05 4.23284E-06 2.13404E-18-5.64973E-19
 -1       622 1.16391E-04-1.05934E-05-4.58409E-05 4.47110E-06-2.65682E-18-2.25609E-18
 -1       623 4.80474E-05-1.89652E-05-1.19767E-05-2.65876E-05 5.21097E-19 7.25007E-19
 -1       624 8.46011E-05-4.10590E-05-1.83788E-05-3.65744E-05 9.77185E-19-2.55200E-18
 -1       625 9.55578E-05-2.52567E-05-3.01268E-05-1.17239E-06-1.16053E-18-2.02534E-18
 -1       626 9.56643E-05-2.63742E-05-2.96948E-05 7.81698E-07-7.61033E-19-1.91854E-18
 -1       627 9.56829E-05-2.70153E-05-2.94284E-05 2.25367E-06-6.70564E-19-1.76502E-18
 -1       628 9.57193E-05-2.73910E-05-2.92832E-05 3.40336E-06-5.67631E-19-1.87658E-18
 -1       629 9.58266E-05-2.76368E-05-2.92239E-05 4.35154E-06-6.75116E-19-1.91251E-18
 -1       630 9.60452E-05-2.78608E-05-2.92216E-05 5.17441E-06-3.86652E-19-1.66430E-18
 -1       631 9.64247E-05-2.81695E-05-2.92520E-05 5.90196E-06-5.12391E-19-1.12734E-18
 -1       632 9.70375E-05-2.86812E-05-2.92956E-05 6.51540E-06-3.75569E-19-7.40882E-19
 -1       633 9.79877E-05-2.95313E-05-2.93388E-05 6.94090E-06-5.47789E-19-6.22635E-19
 -1       634 9.94102E-05-3.08606E-05-2.93792E-05 7.03907E-06 1.90569E-19-8.71974E-19
 -1       635 1.01449E-04-3.27740E-05-2.94341E-05 6.59313E-06 2.44028E-19-1.04450E-18
 -1       636 1.04197E-04-3.52479E-05-2.95525E-05 5.30532E-06 1.69755E-19-1.22957E-18
 -1       637 1.07555E-04-3.79648E-05-2.98281E-05 2.83207E-06 1.73195E-19-5.72279E-19
 -1       638 1.11018E-04-4.00828E-05-3.04032E-05-1.05007E-06-5.86297E-19-1.64248E-19
 -1       639 1.13496E-04-4.01518E-05-3.14404E-05-6.01888E-06 2.15342E-19 8.22373E-19
 -1       640 1.13642E-04-3.66883E-05-3.29979E-05-1.06068E-05 6.19723E-19 7.27469E-19
 -1       641 1.10822E-04-2.95916E-05-3.48254E-05-1.20022E-05 1.92611E-19 6.83459E-19
 -1       642 1.06661E-04-2.17450E-05-3.64707E-05-7.89407E-06-2.64347E-19 3.92676E-19
 -1       643 1.05150E-04-1.89281E-05-3.70298E-05 9.42975E-07-9.81258E-19-5.09318E-19
 -1       644 1.07457E-04-2.29960E-05-3.62598E-05 9.17574E-06-1.41112E-18-1.41914E-18
 -1       645 1.11516E-04-3.09536E-05-3.45581E-05 1.23133E-05-1.12849E-18-1.63605E-18
 -1       646 1.13884E-04-3.75893E-05-3.27063E-05 1.01310E-05-9.27815E-20-1.52083E-18
 -1       647 1.13205E-04-4.02883E-05-3.12631E-05 5.36746E-06 2.98078E-19-1.91219E-18
 -1       648 1.10424E-04-3.96494E-05-3.03375E-05 6.09809E-07 5.97249E-19-1.38814E-18
 -1       649 1.06934E-04-3.73078E-05-2.98422E-05-2.90664E-06 8.72999E-19-9.09363E-19
 -1       650 1.03680E-04-3.45736E-05-2.96189E-05-5.02848E-06 1.31874E-19-1.86290E-18
 -1       651 1.01069E-04-3.21672E-05-2.95306E-05-6.01353E-06 7.05669E-19-1.34513E-18
 -1       652 9.91570E-05-3.03487E-05-2.94898E-05-6.20725E-06-1.27880E-19-1.47093E-19
 -1       653 9.78326E-05-2.91140E-05-2.94509E-05-5.90506E-06-7.97289E-19-7.91506E-19
 -1       654 9.69471E-05-2.83553E-05-2.93963E-05-5.32432E-06 7.66290E-19 1.12263E-18
 -1       655 9.63673E-05-2.79439E-05-2.93240E-05-4.61536E-06-3.62466E-19 1.37301E-18
 -1       656 9.59910E-05-2.77660E-05-2.92389E-05-3.87711E-06-4.52096E-19 8.43586E-19
 -1       657 9.57469E-05-2.77341E-05-2.91480E-05-3.17100E-06-8.46052E-19-7.71132E-20
 -1       658 9.55872E-05-2.77856E-05-2.90575E-05-2.53187E-06-4.54158E-19 8.46416E-19
 -1       659 9.54812E-05-2.78788E-05-2.89722E-05-1.97608E-06-5.99517E-19-3.95452E-19
 -1       660 9.54095E-05-2.79870E-05-2.88951E-05-1.50774E-06 3.05827E-19-1.53659E-18
 -1       661 9.53599E-05-2.80945E-05-2.88278E-05-1.12334E-06-4.10380E-19-1.31381E-18
 -1       662 9.53248E-05-2.81927E-05-2.87707E-05-8.15035E-07-1.07450E-18-3.20101E-18
 -1       663 9.52994E-05-2.82779E-05-2.87234E-05-5.73044E-07 2.92064E-19-1.49448E-18
 -1       664 9.52807E-05-2.83492E-05-2.86848E-05-3.87216E-07 6.99742E-19-1.29923E-18
 -1       665 9.52667E-05-2.84076E-05-2.86538E-05-2.47804E-07 6.26496E-19-2.44000E-18
 -1       666 9.52560E-05-2.84553E-05-2.86288E-05-1.46827E-07 6.94693E-19-3.87933E-18
 -1       667 9.55917E-05-2.73188E-05-2.92588E-05-3.51553E-06 9.48728E-19-8.81133E-19
 -1       668 9.52580E-05-2.84728E-05-2.86222E-05 1.17399E-07 6.38354E-19-3.01967E-18
 -1       669 9.55677E-05-2.70842E-05-2.93489E-05-2.25156E-06 8.43064E-19-7.42214E-19
 -1       670 9.58576E-05-2.73424E-05-2.93625E-05-5.73139E-06 4.64275E-19-1.35041E-19
 -1       671 9.60953E-05-2.72608E-05-2.94992E-05-6.88015E-06 9.59152E-19-3.28845E-19
 -1       672 9.64222E-05-2.72214E-05-2.96561E-05-8.12222E-06 6.31926E-19-6.12627E-19
 -1       673 9.69007E-05-2.73577E-05-2.98030E-05-9.45284E-06 4.89407E-19-4.91155E-19
 -1       674 9.76731E-05-2.78896E-05-2.99066E-05-1.08093E-05-2.46453E-20 7.94509E-20
 -1       675 9.90194E-05-2.91655E-05-2.99381E-05-1.20425E-05-8.96882E-19 3.88388E-19
 -1       676 1.01417E-04-3.16701E-05-2.98942E-05-1.28593E-05-1.04006E-18 8.81018E-20
 -1       677 1.05556E-04-3.59289E-05-2.98438E-05-1.27138E-05-1.07456E-18 6.55800E-19
 -1       678 1.12142E-04-4.20908E-05-3.00154E-05-1.06459E-05-1.13836E-18 1.33329E-18
 -1       679 1.21117E-04-4.88335E-05-3.09498E-05-5.29791E-06-1.88414E-18 2.42810E-18
 -1       680 1.30191E-04-5.19923E-05-3.35528E-05 3.92503E-06-1.82143E-18 2.39064E-18
 -1       681 1.28733E-04-2.61098E-05-4.44342E-05 1.58056E-05 3.20197E-18 1.38654E-18
 -1       682 1.22923E-04-1.40099E-05-4.72722E-05 2.63044E-06 2.98336E-18 3.72493E-19
 -1       683 1.31953E-04-5.15712E-05-3.45492E-05-7.35346E-06-7.90407E-19 2.09237E-19
 -1       684 1.23389E-04-5.01163E-05-3.13993E-05 3.12179E-06-6.77382E-19 6.35644E-19
 -1       685 1.14042E-04-4.35627E-05-3.02027E-05 9.44025E-06-6.55530E-19 1.19653E-18
 -1       686 1.06891E-04-3.70404E-05-2.99359E-05 1.20359E-05-1.15646E-18 2.35687E-18
 -1       687 1.02293E-04-3.23281E-05-2.99873E-05 1.23987E-05-4.30586E-19 1.88015E-18
 -1       688 9.96113E-05-2.94640E-05-3.00642E-05 1.16128E-05-4.71423E-19 1.90284E-18
 -1       689 9.81181E-05-2.79541E-05-3.00698E-05 1.03077E-05-5.71851E-19 2.10160E-18
 -1       690 9.72869E-05-2.72945E-05-2.99955E-05 8.82506E-06-1.80187E-19 1.54167E-18
 -1       691 9.67963E-05-2.71131E-05-2.98627E-05 7.35381E-06-6.81982E-19-9.79953E-19
 -1       692 9.64731E-05-2.71730E-05-2.96986E-05 5.99417E-06-8.57461E-21-1.87893E-18
 -1       693 9.62326E-05-2.73370E-05-2.95254E-05 4.79354E-06 9.99320E-19-1.94735E-18
 -1       694 9.60376E-05-2.75320E-05-2.93585E-05 3.76722E-06 1.38585E-18 2.94735E-20
 -1       695 9.58731E-05-2.77220E-05-2.92067E-05 2.91164E-06 1.06323E-18 1.41810E-18
 -1       696 9.57337E-05-2.78917E-05-2.90744E-05 2.21291E-06-1.50638E-19 1.75419E-18
 -1       697 9.56171E-05-2.80361E-05-2.89627E-05 1.65224E-06-6.69433E-19 1.67239E-18
 -1       698 9.55216E-05-2.81555E-05-2.88708E-05 1.20945E-06-7.47769E-19-4.73086E-19
 -1       699 9.54451E-05-2.82522E-05-2.87966E-05 8.64943E-07-9.69439E-19-1.60205E-18
 -1       700 9.53853E-05-2.83295E-05-2.87380E-05 6.00891E-07-6.11710E-19-1.29534E-18
 -1       701 9.53397E-05-2.83906E-05-2.86923E-05 4.01874E-07 4.70025E-19-1.65311E-18
 -1       702 9.53056E-05-2.84385E-05-2.86572E-05 2.55206E-07 7.10409E-19-1.10716E-18
 -1       703 9.52770E-05-2.84542E-05-2.86382E-05 1.77902E-07 6.03684E-19-1.52094E-18
 -1       704 9.50850E-05-2.82582E-05-2.86401E-05 2.90241E-08 1.78275E-18 1.30019E-18
 -1       705 9.52502E-05-2.84831E-05-2.86145E-05-9.61685E-08-1.46257E-19-2.15788E-18
 -1       706 9.51433E-05-2.83255E-05-2.86362E-05 1.15433E-07 1.07787E-18-2.67840E-18
 -1       707 9.50848E-05-2.82587E-05-2.86398E-05-2.67992E-08 2.30170E-19-5.48955E-19
 -1       708 9.51057E-05-2.82815E-05-2.86390E-05 7.95979E-08-2.81878E-19-2.14149E-18
 -1       709 9.55968E-05-2.65675E-05-2.95813E-05-6.82689E-07 1.25240E-18-7.73122E-19
 -1       710 1.40970E-04-5.05568E-05-3.90253E-05-8.82516E-06 3.10080E-19-5.64230E-19
 -1       711 9.51046E-05-2.82822E-05-2.86382E-05-7.66128E-08 1.34706E-18-2.54422E-19
 -1       712 9.51413E-05-2.83261E-05-2.86351E-05-1.12821E-07 1.07540E-18 1.42779E-18
 -1       713 9.51875E-05-2.83840E-05-2.86301E-05-1.27736E-07-4.33791E-19 3.22428E-18
 -1       714 1.10740E-04-5.45250E-05-2.39369E-05 2.77888E-05-1.72774E-18 3.24543E-19
 -1       715 8.30393E-05-3.98217E-05-1.81963E-05 3.46862E-05-1.32577E-18 1.05326E-18
 -1       716 9.42748E-05-2.07401E-05-3.15146E-05-6.26454E-06-1.59312E-18-2.43986E-18
 -1       717 4.13271E-05-1.29965E-05-1.16115E-05 1.39369E-05 1.45514E-18-3.18320E-18
 -1       718 1.35969E-04-3.87981E-05-4.19706E-05 1.65769E-05 2.56545E-18 1.96745E-18
 -1       719 9.56896E-05-2.73826E-05-2.92734E-05-4.63607E-06 7.05959E-19-5.56133E-19
 -1       720 9.51966E-05-2.35199E-05-3.07191E-05-3.46990E-06-1.45845E-18-2.16112E-18
 -1       721 1.34633E-04-6.03278E-05-3.18680E-05 8.02180E-06-1.88984E-18 4.42257E-19
 -1       722 9.15945E-05-1.68441E-05-3.20416E-05 3.29968E-06 1.43815E-18-2.51583E-18
 -1       723 9.56162E-05-2.56009E-05-3.00027E-05 1.39389E-06 1.66083E-18-8.80484E-19
 -1       724 4.45489E-05-1.65498E-05-1.14434E-05 2.03020E-05-1.50632E-18 7.89594E-19
 -1       725 1.34708E-04-3.98450E-05-4.10088E-05 9.62261E-06-9.40101E-19-3.25104E-18
 -1       726 9.15708E-05-1.68248E-05-3.20393E-05-3.24238E-06-5.68325E-19-3.22861E-18
 -1       727 1.38511E-04-5.43494E-05-3.62974E-05 5.48677E-06-2.69330E-20 1.36534E-18
 -1       728 9.17585E-05-4.58600E-05-1.93237E-05-3.53867E-05-1.60317E-18-2.17768E-18
 -1       729 1.35327E-04-5.33717E-05-3.52896E-05 1.79838E-06-1.21720E-18 1.70624E-19
 -1       730 6.17550E-05-2.77540E-05-1.41574E-05 3.40769E-05 1.29239E-18-1.48376E-18
 -1       731 5.71646E-05-2.62099E-05-1.27911E-05-3.18011E-05-7.01396E-19-3.98608E-18
 -1       732 9.21066E-05-4.55176E-05-1.96574E-05 3.63332E-05 1.16811E-18-1.23554E-18
 -1       733 1.29532E-04-3.31196E-05-4.17284E-05-1.26689E-05-1.63067E-18 3.05488E-19
 -1       734 1.18515E-04-1.31467E-05-4.56139E-05-8.66440E-06-1.49824E-18-6.31860E-19
 -1       735 3.41501E-05-1.09416E-05-9.36730E-06-3.87716E-06-1.97247E-19 1.37738E-18
 -1       736 1.25406E-04-2.30895E-05-4.42974E-05 1.38462E-05-2.29382E-18-2.62124E-18
 -1       737 1.06575E-04-5.28591E-05-2.28193E-05-3.16924E-05 1.07520E-18-3.82523E-18
 -1       738 3.66511E-05-1.32823E-05-9.46039E-06-1.23575E-05 2.04823E-19-5.66718E-18
 -1       739 9.26276E-05-1.83344E-05-3.18441E-05-4.48554E-06-9.98899E-19-3.03256E-18
 -1       740 9.05297E-05-1.53800E-05-3.22122E-05-6.19325E-07 8.06602E-20-2.94967E-18
 -1       741 6.74221E-05-2.55165E-05-1.76506E-05 2.67822E-05-1.59973E-18 1.59704E-18
 -1       742 7.30594E-05-3.00226E-05-1.81963E-05-3.11285E-05 1.90933E-18-2.09622E-18
 -1       743 9.51898E-05-2.83828E-05-2.86316E-05 1.29998E-07 1.95507E-18-3.25413E-18
 -1       744 1.33475E-04-4.08096E-05-3.99987E-05-1.68926E-05 7.90679E-19-6.01023E-19
 -1       745 1.18349E-04-2.35564E-05-4.08933E-05-1.33487E-05-1.08874E-18 3.16248E-19
 -1       746 1.09037E-04-5.26545E-05-2.40743E-05 2.78705E-05 1.50228E-18-1.46648E-18
 -1       747 1.19836E-04-5.60462E-05-2.72979E-05-1.95397E-05 1.75307E-18-2.08397E-18
 -1       748 1.31953E-04-4.94326E-05-3.54649E-05 3.96556E-06 6.64590E-19-2.95867E-18
 -1       749 9.08787E-05-1.58568E-05-3.21575E-05-1.94452E-06-2.87787E-19-3.20292E-18
 -1       750 1.12310E-04-5.35209E-05-2.50869E-05-2.47205E-05-1.96346E-18-1.42529E-18
 -1       751 1.31824E-04-5.80291E-05-3.16002E-05-5.82527E-06-1.84695E-18 2.13188E-19
 -1       752 1.29135E-04-4.41475E-05-3.65837E-05-8.69187E-06-9.13088E-19 1.33165E-18
 -1       753 9.52197E-05-2.84155E-05-2.86304E-05-1.42653E-07-3.62420E-19 1.78941E-18
 -1       754 9.44523E-05-2.20592E-05-3.10226E-05 2.82169E-06 1.64981E-18-1.30448E-18
 -1       755 9.54864E-05-2.57804E-05-2.98741E-05 1.33364E-06-6.52267E-19-1.94623E-18
 -1       756 9.54714E-05-2.64395E-05-2.95851E-05 2.67077E-06-6.77337E-19-2.06633E-18
 -1       757 9.53637E-05-2.67981E-05-2.93852E-05 3.78615E-06-7.56261E-19-2.06370E-18
 -1       758 9.52440E-05-2.70042E-05-2.92456E-05 4.77071E-06-2.12370E-19-1.54757E-18
 -1       759 9.51905E-05-2.71968E-05-2.91400E-05 5.68797E-06-2.01921E-20-1.54530E-18
 -1       760 9.52976E-05-2.75229E-05-2.90462E-05 6.56975E-06-2.87927E-19-1.09244E-18
 -1       761 9.56959E-05-2.81523E-05-2.89472E-05 7.41040E-06-2.15656E-19-7.41763E-19
 -1       762 9.65682E-05-2.92833E-05-2.88363E-05 8.15489E-06-3.69963E-20-5.50888E-19
 -1       763 9.81568E-05-3.11282E-05-2.87266E-05 8.67420E-06 2.35828E-19-8.63874E-19
 -1       764 1.00743E-04-3.38579E-05-2.86659E-05 8.72331E-06-6.05556E-20-6.54034E-19
 -1       765 1.04567E-04-3.74708E-05-2.87574E-05 7.88519E-06 3.12074E-19-5.30930E-19
 -1       766 1.09614E-04-4.15148E-05-2.91865E-05 5.51018E-06 4.66003E-19-1.63642E-19
 -1       767 1.15139E-04-4.45876E-05-3.02366E-05 9.77458E-07 5.41960E-19 8.00634E-19
 -1       768 1.19322E-04-4.40422E-05-3.22795E-05-5.71946E-06 5.20664E-19 1.74253E-18
 -1       769 1.19556E-04-3.74693E-05-3.52645E-05-1.21481E-05 1.99374E-19 1.27055E-18
 -1       770 1.10913E-04-1.59674E-05-4.09554E-05 7.15340E-06-2.38011E-18-1.10350E-18
 -1       771 1.16205E-04-2.74164E-05-3.81941E-05 1.35445E-05-1.85625E-18-1.80269E-18
 -1       772 1.19985E-04-3.89413E-05-3.48426E-05 1.17714E-05-3.58024E-19-2.04242E-18
 -1       773 1.18803E-04-4.43684E-05-3.19294E-05 4.96580E-06 4.54410E-19-1.11978E-18
 -1       774 1.14084E-04-4.38824E-05-3.00758E-05-1.47497E-06 6.01013E-19-2.51929E-19
 -1       775 1.08519E-04-4.05024E-05-2.91464E-05-5.58231E-06 4.98935E-19-1.21632E-18
 -1       776 1.03656E-04-3.64606E-05-2.87983E-05-7.53490E-06 3.82891E-19-1.37583E-18
 -1       777 1.00026E-04-3.29550E-05-2.87452E-05-8.08787E-06 5.14035E-19 3.29458E-19
 -1       778 9.75877E-05-3.03580E-05-2.88128E-05-7.82342E-06 5.84262E-19-1.14626E-18
 -1       779 9.60813E-05-2.86331E-05-2.89063E-05-7.14258E-06-2.95188E-19 1.12914E-19
 -1       780 9.52305E-05-2.76063E-05-2.89817E-05-6.27786E-06 1.83353E-19 1.72868E-18
 -1       781 9.48077E-05-2.70844E-05-2.90241E-05-5.36351E-06 2.10147E-20-3.93412E-19
 -1       782 9.46457E-05-2.69001E-05-2.90337E-05-4.47594E-06-1.36322E-19-2.53074E-19
 -1       783 9.46315E-05-2.69252E-05-2.90168E-05-3.65770E-06-1.79212E-18 6.29827E-19
 -1       784 9.46922E-05-2.70678E-05-2.89817E-05-2.93076E-06-4.58714E-19-4.39199E-20
 -1       785 9.47834E-05-2.72657E-05-2.89360E-05-2.30357E-06-8.35871E-19-1.13658E-18
 -1       786 9.48799E-05-2.74792E-05-2.88859E-05-1.77566E-06-1.57253E-18-1.25445E-18
 -1       787 9.49683E-05-2.76847E-05-2.88358E-05-1.34093E-06-1.27327E-18-3.39228E-18
 -1       788 9.50430E-05-2.78696E-05-2.87886E-05-9.90087E-07-1.08989E-18-2.98835E-18
 -1       789 9.51024E-05-2.80284E-05-2.87460E-05-7.12353E-07 8.51128E-19-6.39210E-19
 -1       790 9.51474E-05-2.81605E-05-2.87086E-05-4.96664E-07 1.09368E-18-2.13055E-19
 -1       791 9.51802E-05-2.82681E-05-2.86766E-05-3.33286E-07 6.54427E-19 1.35995E-18
 -1       792 9.52053E-05-2.83508E-05-2.86519E-05-2.24588E-07-2.85575E-19 2.03596E-18
 -1       793 9.53900E-05-2.63783E-05-2.95762E-05-2.71646E-06 9.40597E-19-9.97988E-19
 -1       794 9.40865E-05-2.58132E-05-2.92596E-05-7.47515E-06 7.45995E-19-4.88602E-19
 -1       795 9.45164E-05-2.61577E-05-2.92962E-05-6.26124E-06 7.58012E-19-8.12082E-19
 -1       796 9.32424E-05-2.54563E-05-2.90507E-05-1.03031E-05-4.42616E-19-3.18891E-19
 -1       797 9.31270E-05-2.59424E-05-2.87930E-05-1.19889E-05-7.82290E-19-1.44020E-19
 -1       798 9.37044E-05-2.74693E-05-2.83868E-05-1.38819E-05-5.54738E-19 2.29845E-20
 -1       799 9.56969E-05-3.07280E-05-2.78446E-05-1.59221E-05-1.20096E-18-6.64209E-19
 -1       800 1.00304E-04-3.65817E-05-2.72990E-05-1.77484E-05-1.49159E-18-2.43751E-19
 -1       801 1.09193E-04-4.56187E-05-2.71831E-05-1.81754E-05-1.93483E-18-1.09794E-19
 -1       802 1.19720E-04-5.31516E-05-2.85573E-05-1.39797E-05-2.01478E-18 7.75812E-19
 -1       803 1.26761E-04-5.55155E-05-3.05223E-05 9.34513E-06 3.23463E-19 2.20526E-19
 -1       804 1.26329E-04-5.68571E-05-2.98382E-05 1.10236E-05-9.51297E-19 5.36693E-19
 -1       805 9.63464E-05-3.15269E-05-2.77696E-05 1.58830E-05-5.92013E-19 2.33074E-18
 -1       806 9.38957E-05-2.77399E-05-2.83519E-05 1.37140E-05 2.68532E-19 2.22609E-18
 -1       807 9.30513E-05-2.58603E-05-2.87958E-05 1.16558E-05-2.35501E-19 5.37631E-19
 -1       808 9.30223E-05-2.51656E-05-2.90809E-05 9.79604E-06 1.37314E-19-1.01956E-18
 -1       809 9.33321E-05-2.51302E-05-2.92288E-05 8.14241E-06 8.77875E-19-3.25077E-19
 -1       810 9.37350E-05-2.54233E-05-2.92759E-05 6.68408E-06 3.73823E-19-1.00748E-18
 -1       811 9.41168E-05-2.58498E-05-2.92568E-05 5.41266E-06 1.42784E-19-1.46446E-18
 -1       812 9.44346E-05-2.63025E-05-2.91991E-05 4.32021E-06-1.74089E-19-1.41619E-18
 -1       813 9.46809E-05-2.67277E-05-2.91225E-05 3.39671E-06-8.27290E-19 1.53201E-18
 -1       814 9.48630E-05-2.71023E-05-2.90401E-05 2.62904E-06 3.66106E-19 1.91705E-18
 -1       815 9.49932E-05-2.74194E-05-2.89600E-05 2.00132E-06-1.08024E-19 1.02245E-18
 -1       816 9.50836E-05-2.76809E-05-2.88867E-05 1.49615E-06-2.35768E-19-6.07722E-19
 -1       817 9.51447E-05-2.78921E-05-2.88224E-05 1.09583E-06-7.78400E-19 1.21633E-19
 -1       818 9.51848E-05-2.80602E-05-2.87676E-05 7.83466E-07-1.18738E-18-1.91804E-19
 -1       819 9.52103E-05-2.81924E-05-2.87219E-05 5.43769E-07 6.12647E-19 1.58328E-19
 -1       820 9.52249E-05-2.82942E-05-2.86845E-05 3.64101E-07 6.58513E-19-1.12304E-18
 -1       821 9.21704E-05-1.83833E-05-3.16243E-05 8.89043E-07 5.09268E-19-2.53338E-18
 -1       822 9.54835E-05-2.58649E-05-2.98370E-05-1.24386E-06 1.09525E-18-7.59657E-19
 -1       823 9.50021E-05-2.81299E-05-2.86595E-05 2.96758E-11 1.33021E-18-1.31833E-18
 -1       824 9.51251E-05-2.82682E-05-2.86530E-05-1.88129E-07 1.47354E-18 1.54199E-18
 -1       825 9.50175E-05-2.81474E-05-2.86586E-05-7.89511E-08 1.30677E-18 9.08138E-19
 -1       826 9.84798E-05-4.36669E-05-2.33809E-05 2.66772E-05-1.78280E-18 6.06409E-19
 -1       827 1.09914E-04-1.41966E-05-4.12941E-05-2.74442E-06-9.44773E-19-3.66385E-19
 -1       828 9.50609E-05-2.81956E-05-2.86566E-05-1.46256E-07 9.73767E-19 2.23878E-19
 -1       829 5.94071E-05-1.96845E-05-1.67859E-05 2.23590E-05 1.14164E-18-2.57007E-18
 -1       830 1.01669E-04-3.80607E-05-2.72277E-05 1.76713E-05-1.53091E-18 2.10987E-18
 -1       831 1.12133E-04-4.78225E-05-2.75130E-05 1.69835E-05-1.67167E-18 1.44101E-18
 -1       832 9.36304E-05-2.55153E-05-2.91917E-05-8.80999E-06 3.49590E-19-1.32166E-19
 -1       833 9.52935E-05-2.46289E-05-3.02851E-05-3.25614E-07-7.38240E-19-2.08032E-18
 -1       834 4.88595E-05-1.22314E-05-1.53788E-05-3.14151E-06 4.68558E-19-3.53070E-18
 -1       835 5.70363E-05-1.81482E-05-1.63624E-05-1.96778E-05-1.22565E-18-3.70413E-18
 -1       836 8.21075E-05-3.41424E-05-2.03657E-05 2.97899E-05 7.89931E-19-1.00417E-18
 -1       837 9.52185E-05-2.39338E-05-3.05495E-05 2.24107E-06 1.74074E-18-8.93881E-19
 -1       838 1.23595E-04-3.48301E-05-3.82790E-05 1.30119E-05-9.83021E-19-1.93786E-18
 -1       839 1.00234E-04-4.54509E-05-2.33087E-05-2.76894E-05 6.94322E-19-3.75999E-18
 -1       840 7.94456E-05-3.30524E-05-1.96137E-05-2.96820E-05-1.49953E-18-1.82758E-18
 -1       841 9.20029E-05-1.81460E-05-3.16550E-05 5.45578E-08 1.68426E-19-2.43083E-18
 -1       842 8.33218E-05-3.17215E-05-2.19595E-05 2.52272E-05-1.81209E-18 1.47840E-19
 -1       843 5.90120E-05-1.79267E-05-1.73857E-05-1.92756E-05 7.36072E-19-5.36635E-19
 -1       844 9.51269E-05-2.82647E-05-2.86552E-05 1.90519E-07 4.50973E-19-2.88244E-18
 -1       845 9.34666E-05-2.03644E-05-3.13325E-05-2.32127E-06-7.09593E-19-2.73643E-18
 -1       846 9.47963E-05-2.29353E-05-3.07969E-05-2.15488E-06-1.11635E-18-2.39836E-18
 -1       847 9.50176E-05-2.81454E-05-2.86595E-05 8.06432E-08 1.45632E-18 1.84578E-18
 -1       848 4.70302E-05-1.22529E-05-1.45573E-05 6.72674E-06-6.09678E-19 9.48995E-19
 -1       849 9.48843E-05-2.64258E-05-2.93391E-05-5.11562E-06 3.88225E-19-9.71540E-19
 -1       850 9.52148E-05-2.83381E-05-2.86619E-05 2.59390E-07-2.62055E-19-2.74269E-18
 -1       851 9.26682E-05-1.91151E-05-3.15240E-05 1.67779E-06 8.50569E-19-2.48021E-18
 -1       852 9.50619E-05-2.81926E-05-2.86583E-05 1.47867E-07-6.68996E-19-3.74805E-18
 -1       853 9.34596E-05-2.03459E-05-3.13355E-05 2.36348E-06 1.29792E-18-1.85892E-18
 -1       854 5.69824E-05-1.41683E-05-1.82092E-05 8.57078E-06 6.79437E-19-2.48615E-18
 -1       855 9.56676E-05-4.17762E-05-2.30262E-05 2.69010E-05 8.60413E-19-1.00695E-18
 -1       856 1.25853E-04-4.96697E-05-3.27337E-05-1.89105E-06-6.60988E-20 1.72128E-18
 -1       857 1.25561E-04-5.40509E-05-3.06759E-05-6.45269E-06 2.00966E-18-1.35766E-18
 -1       858 9.52073E-05-2.83589E-05-2.86493E-05 2.04484E-07 6.53045E-19-3.33622E-18
 -1       859 6.14719E-05-1.77995E-05-1.85313E-05 1.69461E-05-4.83500E-19 6.20571E-19
 -1       860 9.51629E-05-2.83054E-05-2.86529E-05-2.11191E-07 6.62155E-19 2.47692E-18
 -1       861 9.68610E-05-4.15369E-05-2.36456E-05-2.58497E-05-1.94963E-18-6.46690E-19
 -1       862 9.51791E-05-2.65280E-05-2.94217E-05-3.96615E-06 5.22480E-19-1.00345E-18
 -1       863 9.54692E-05-2.51618E-05-3.01332E-05 3.23039E-07 1.37330E-18-6.87656E-19
 -1       864 4.88421E-05-1.23094E-05-1.53186E-05-7.98572E-06-1.32476E-19 1.11943E-18
 -1       865 9.26839E-05-1.91400E-05-3.15200E-05-1.59754E-06-3.19825E-19-3.06939E-18
 -1       866 9.49243E-05-2.58281E-05-2.96128E-05 2.88306E-06-4.09288E-19-1.96798E-18
 -1       867 9.46055E-05-2.60983E-05-2.93602E-05 3.91329E-06-3.28473E-19-1.63733E-18
 -1       868 9.42127E-05-2.62146E-05-2.91420E-05 4.90077E-06-1.90734E-19-2.07098E-18
 -1       869 9.38460E-05-2.63361E-05-2.89328E-05 5.91022E-06 8.55726E-20-2.03988E-18
 -1       870 9.36303E-05-2.66406E-05-2.87098E-05 6.99246E-06 1.84120E-19-1.86328E-18
 -1       871 9.37408E-05-2.73413E-05-2.84568E-05 8.17875E-06 1.35847E-19-1.44921E-18
 -1       872 9.44293E-05-2.86972E-05-2.81706E-05 9.46554E-06-2.34966E-19-1.38137E-18
 -1       873 9.60584E-05-3.10131E-05-2.78750E-05 1.07731E-05 2.05438E-19-1.34520E-18
 -1       874 9.90819E-05-3.45633E-05-2.76502E-05 1.18429E-05 4.35933E-19-1.04162E-18
 -1       875 1.04036E-04-3.95110E-05-2.76557E-05 1.21412E-05 4.12437E-19-5.05875E-19
 -1       876 1.11271E-04-4.54451E-05-2.82020E-05 1.04855E-05 1.42176E-18-1.69241E-21
 -1       877 7.62000E-05-2.59997E-05-2.14429E-05-2.25390E-05 8.98702E-19-2.74882E-18
 -1       878 1.09431E-04-4.38577E-05-2.81329E-05-1.05496E-05 1.57675E-19-5.48110E-19
 -1       879 1.02782E-04-3.81716E-05-2.76861E-05-1.16060E-05 5.24657E-19-5.17086E-19
 -1       880 9.80847E-05-3.33883E-05-2.77263E-05-1.11352E-05 1.03731E-18-5.85149E-19
 -1       881 9.52632E-05-3.00273E-05-2.79576E-05-9.89851E-06 9.11253E-20 1.37280E-19
 -1       882 9.37175E-05-2.78606E-05-2.82244E-05-8.50220E-06 1.06325E-18 1.04372E-18
 -1       883 9.30215E-05-2.66170E-05-2.84589E-05-7.15220E-06 3.45588E-19 1.36839E-18
 -1       884 9.28458E-05-2.60241E-05-2.86378E-05-5.92742E-06-7.38422E-19 1.70569E-18
 -1       885 9.29652E-05-2.58609E-05-2.87589E-05-4.84904E-06-2.26719E-19 6.61177E-19
 -1       886 9.32326E-05-2.59625E-05-2.88300E-05-3.91592E-06-1.27213E-18-5.50200E-19
 -1       887 9.35564E-05-2.62120E-05-2.88619E-05-3.12004E-06-1.39591E-18-2.50181E-19
 -1       888 9.38822E-05-2.65292E-05-2.88655E-05-2.45062E-06-1.09049E-18-5.94655E-19
 -1       889 9.41801E-05-2.68624E-05-2.88504E-05-1.89541E-06-1.28171E-18-1.00872E-18
 -1       890 9.44365E-05-2.71802E-05-2.88241E-05-1.44151E-06-2.88561E-18-1.24009E-18
 -1       891 9.46475E-05-2.74657E-05-2.87922E-05-1.07589E-06-4.27397E-19-6.94994E-19
 -1       892 9.48150E-05-2.77116E-05-2.87586E-05-7.85929E-07 1.31600E-18 1.20869E-18
 -1       893 9.49436E-05-2.79166E-05-2.87259E-05-5.59748E-07 1.03562E-18 2.49504E-18
 -1       894 9.50397E-05-2.80842E-05-2.86953E-05-3.86513E-07 4.65943E-19 4.05121E-19
 -1       895 6.04892E-05-1.52777E-05-1.92775E-05-1.03652E-05-5.26290E-19-2.96725E-18
 -1       896 9.25971E-05-2.47732E-05-2.90673E-05-6.10882E-06 5.39353E-19-9.57961E-19
 -1       897 8.73599E-05-2.34212E-05-2.74023E-05-1.21394E-05-5.90452E-19-1.11211E-18
 -1       898 8.87416E-05-2.32304E-05-2.80756E-05-1.01023E-05-2.34140E-19-4.89354E-19
 -1       899 8.68907E-05-2.80695E-05-2.51836E-05-1.88941E-05-1.77762E-18-1.57540E-18
 -1       900 9.50511E-05-2.51912E-05-2.99402E-05-1.65963E-06 1.19552E-18-8.68578E-19
 -1       901 8.79616E-05-2.27160E-05-2.79622E-05 9.77228E-06 4.50205E-19-2.72080E-19
 -1       902 9.50728E-05-2.52428E-05-2.99269E-05 1.73662E-06-6.52889E-19-2.16974E-18
 -1       903 8.67609E-05-2.31824E-05-2.72471E-05 1.20533E-05 9.45265E-19-3.19481E-19
 -1       904 8.61146E-05-2.49210E-05-2.62228E-05 1.51690E-05-2.69420E-19-8.99743E-19
 -1       905 8.92842E-05-2.29380E-05-2.84339E-05 8.01538E-06 2.21927E-19-3.23260E-19
 -1       906 9.05232E-05-2.35014E-05-2.87235E-05 6.58855E-06 1.73912E-18 1.61584E-19
 -1       907 9.15947E-05-2.41989E-05-2.88838E-05 5.38922E-06 2.35722E-19-3.03130E-19
 -1       908 9.24774E-05-2.49114E-05-2.89568E-05 4.36555E-06-1.16245E-18-5.55428E-19
 -1       909 9.31816E-05-2.55767E-05-2.89735E-05 3.49155E-06-1.91624E-18 5.70839E-19
 -1       910 9.37304E-05-2.61660E-05-2.89561E-05 2.75216E-06-4.61813E-21 6.57513E-19
 -1       911 9.41501E-05-2.66700E-05-2.89200E-05 2.13509E-06-5.47108E-20-3.70251E-19
 -1       912 9.44659E-05-2.70901E-05-2.88753E-05 1.62797E-06 4.59014E-19 1.63626E-19
 -1       913 9.47000E-05-2.74331E-05-2.88286E-05 1.21788E-06-6.85774E-19 8.06559E-19
 -1       914 9.48708E-05-2.77087E-05-2.87838E-05 8.91569E-07-9.52046E-19-6.19235E-19
 -1       915 9.49937E-05-2.79272E-05-2.87428E-05 6.36622E-07-2.91092E-19-1.37990E-18
 -1       916 9.50796E-05-2.80978E-05-2.87065E-05 4.41447E-07 1.21142E-18-1.94033E-18
 -1       917 9.41631E-05-3.60105E-05-2.48465E-05 2.20506E-05-1.58793E-18 1.04106E-18
 -1       918 9.49003E-05-2.79820E-05-2.86793E-05-5.97790E-08 1.66552E-18-1.18129E-18
 -1       919 1.11486E-04-4.97369E-05-2.64446E-05-1.88936E-05 8.12410E-19-2.34697E-18
 -1       920 7.42268E-05-2.48697E-05-2.10557E-05 2.14970E-05 9.44799E-19-1.51843E-18
 -1       921 8.84621E-05-2.90275E-05-2.54401E-05 1.87158E-05-1.42030E-18-8.79053E-20
 -1       922 9.21831E-05-1.84025E-05-3.16221E-05-7.80296E-07-1.09386E-19-2.76587E-18
 -1       923 9.43025E-05-3.75641E-05-2.42900E-05-2.25349E-05 5.28766E-19-1.98643E-18
 -1       924 8.65241E-05-2.47932E-05-2.64599E-05-1.49579E-05-5.77996E-19-1.46552E-18
 -1       925 9.47838E-05-2.55993E-05-2.96505E-05-2.91466E-06 8.30746E-19-9.69182E-19
 -1       926 7.45777E-05-2.43192E-05-2.14177E-05-2.14411E-05-1.80937E-18-1.70871E-18
 -1       927 1.15135E-04-5.08913E-05-2.74958E-05 1.56901E-05 1.55062E-18-2.78512E-21
 -1       928 9.49435E-05-2.41778E-05-3.03278E-05 4.00713E-07-5.27475E-19-2.48760E-18
 -1       929 9.46612E-05-2.30761E-05-3.06809E-05 9.54934E-07 1.21483E-18-1.25202E-18
 -1       930 1.03363E-04-4.21715E-05-2.62016E-05-1.76594E-05-2.25027E-19-1.73491E-18
 -1       931 5.89143E-05-1.33937E-05-1.93606E-05 3.78200E-06 5.63475E-20 1.18591E-19
 -1       932 9.42683E-05-2.55961E-05-2.94309E-05-4.01882E-06 3.69547E-19-1.08491E-18
 -1       933 9.44293E-05-2.25909E-05-3.07874E-05-9.27497E-07-6.78908E-19-2.41449E-18
 -1       934 1.20506E-04-4.97361E-05-3.03587E-05 3.74053E-06 1.25544E-18 1.01891E-18
 -1       935 8.44046E-05-3.14564E-05-2.26287E-05 2.34862E-05 1.09852E-18-4.80426E-19
 -1       936 1.15396E-04-4.79718E-05-2.88813E-05-8.45649E-06 1.09416E-19-5.28964E-19
 -1       937 6.26600E-05-1.44461E-05-2.05988E-05-6.12051E-07 4.03952E-19-2.62847E-18
 -1       938 9.51126E-05-2.82076E-05-2.86735E-05-2.90610E-07 1.18889E-18-4.02554E-19
 -1       939 9.35355E-05-2.52886E-05-2.92486E-05-5.05832E-06 3.90257E-19-1.08983E-18
 -1       940 9.01466E-05-2.35665E-05-2.85342E-05-8.53827E-06 3.45597E-20-2.46794E-19
 -1       941 9.49910E-05-2.42077E-05-3.03345E-05-1.58284E-07 1.08373E-18-1.03552E-18
 -1       942 9.01091E-05-3.46869E-05-2.36875E-05-2.39304E-05-1.97926E-18-8.95224E-19
 -1       943 9.50130E-05-2.80999E-05-2.86769E-05-2.41268E-07 1.80729E-18 9.58012E-19
 -1       944 9.48996E-05-2.79797E-05-2.86800E-05 5.78846E-08 1.71078E-18 7.73818E-19
 -1       945 9.51063E-05-2.81805E-05-2.86823E-05 3.17464E-07 2.26047E-18-2.81796E-18
 -1       946 7.46352E-05-2.35077E-05-2.18290E-05 1.99044E-05-4.42959E-19 1.13853E-19
 -1       947 9.33648E-05-2.08716E-05-3.10696E-05 5.63960E-07 4.93858E-19-2.27484E-18
 -1       948 9.50220E-05-2.81029E-05-2.86796E-05 2.50937E-07 8.89863E-20-4.00701E-18
 -1       949 9.30800E-05-2.04294E-05-3.11354E-05 2.51067E-07 2.25939E-19-2.30827E-18
 -1       950 6.83229E-05-1.82901E-05-2.13702E-05 1.32300E-05 7.40428E-19-2.51008E-18
 -1       951 6.07669E-05-1.41319E-05-1.98701E-05-6.09178E-06 6.81187E-19 1.94831E-19
 -1       952 9.49396E-05-2.80236E-05-2.86783E-05-1.60628E-07 1.71343E-18 2.13866E-19
 -1       953 9.37417E-05-2.14323E-05-3.09894E-05-6.50067E-07-4.76412E-19-2.65986E-18
 -1       954 9.14581E-05-2.41511E-05-2.88457E-05-7.24208E-06 1.91314E-19-9.43602E-19
 -1       955 7.07206E-05-1.89867E-05-2.21554E-05-1.36228E-05 1.21959E-18-1.91146E-18
 -1       956 6.70010E-05-1.66396E-05-2.15241E-05 1.08840E-05 5.32205E-19 1.14475E-18
 -1       957 9.41320E-05-2.52050E-05-2.95403E-05 2.80180E-06-1.96966E-19-1.82726E-18
 -1       958 8.49291E-05-2.07012E-05-2.75266E-05 6.71206E-06 4.74116E-19 3.11516E-19
 -1       959 9.35330E-05-2.53169E-05-2.92356E-05 3.71650E-06-2.68423E-19-1.33110E-18
 -1       960 9.28009E-05-2.52787E-05-2.89382E-05 4.68412E-06-1.41465E-19-1.47442E-18
 -1       961 9.20360E-05-2.52551E-05-2.86205E-05 5.78319E-06 1.27559E-19-1.78361E-18
 -1       962 9.13675E-05-2.54375E-05-2.82558E-05 7.10080E-06 4.80078E-19-1.51009E-18
 -1       963 9.09837E-05-2.60665E-05-2.78220E-05 8.72839E-06 2.10739E-19-1.65236E-18
 -1       964 9.11511E-05-2.74315E-05-2.73084E-05 1.07578E-05 4.15657E-19-6.07758E-19
 -1       965 9.23300E-05-2.99761E-05-2.67266E-05 1.33080E-05 5.75419E-19 4.63089E-20
 -1       966 9.54505E-05-3.42807E-05-2.62159E-05 1.61749E-05 6.03172E-19-4.45240E-19
 -1       967 1.01013E-04-4.04981E-05-2.58951E-05 1.85660E-05 9.19080E-19 9.51084E-20
 -1       968 9.39281E-05-2.17706E-05-3.09257E-05 8.19709E-07 8.14528E-19-1.75089E-18
 -1       969 9.41336E-05-3.26923E-05-2.63176E-05-1.50641E-05 1.19165E-18-9.17717E-19
 -1       970 9.15216E-05-2.88742E-05-2.68495E-05-1.23015E-05 5.76763E-19-9.22668E-19
 -1       971 9.04015E-05-2.65085E-05-2.73831E-05-9.83420E-06 1.03445E-18-1.61490E-18
 -1       972 9.01746E-05-2.52402E-05-2.78288E-05-7.82668E-06 7.49410E-19-1.92913E-18
 -1       973 9.04496E-05-2.47060E-05-2.81756E-05-6.21124E-06-1.37105E-19-2.33285E-18
 -1       974 9.09780E-05-2.46458E-05-2.84280E-05-4.91832E-06-1.24524E-19-2.01795E-18
 -1       975 9.16061E-05-2.48722E-05-2.86003E-05-3.87911E-06-1.10508E-18-1.79329E-18
 -1       976 9.22439E-05-2.52572E-05-2.87086E-05-3.04078E-06-1.58094E-18-5.87821E-19
 -1       977 9.28384E-05-2.57114E-05-2.87688E-05-2.36444E-06-1.81450E-18-1.73682E-18
 -1       978 9.33628E-05-2.61761E-05-2.87944E-05-1.81978E-06-8.15881E-19-2.54789E-18
 -1       979 9.38070E-05-2.66153E-05-2.87965E-05-1.38327E-06-1.42324E-18-1.66943E-18
 -1       980 9.41712E-05-2.70092E-05-2.87837E-05-1.03612E-06-1.64695E-18 6.23376E-19
 -1       981 9.44611E-05-2.73491E-05-2.87623E-05-7.62664E-07 1.73180E-18-1.05975E-19
 -1       982 9.46864E-05-2.76340E-05-2.87367E-05-5.50144E-07 1.35577E-18-4.23294E-19
 -1       983 9.48547E-05-2.78655E-05-2.87097E-05-3.84542E-07-2.71192E-20-5.25332E-20
 -1       984 9.43419E-05-2.31102E-05-3.05277E-05 3.06540E-07-5.11442E-19-2.47142E-18
 -1       985 9.45448E-05-2.37977E-05-3.03208E-05-6.50231E-07 9.06052E-19-1.32849E-18
 -1       986 9.49612E-05-2.79901E-05-2.87016E-05 3.55896E-07 1.86287E-18-6.57294E-18
 -1       987 9.32487E-05-2.06620E-05-3.11044E-05-3.21448E-07-1.80839E-19-2.59129E-18
 -1       988 9.44388E-05-2.46087E-05-2.99277E-05-1.76850E-06 7.34304E-19-1.06561E-18
 -1       989 9.44990E-05-2.47762E-05-2.98812E-05 1.87215E-06-4.07071E-19-1.88332E-18
 -1       990 8.23052E-05-2.00303E-05-2.66891E-05 8.29764E-06 1.89153E-19 4.43631E-19
 -1       991 7.92127E-05-1.98228E-05-2.54511E-05 1.06417E-05-1.59058E-19 5.09518E-19
 -1       992 8.89117E-05-2.25598E-05-2.84367E-05 4.59683E-06 9.85818E-19 7.86596E-19
 -1       993 9.03665E-05-2.35098E-05-2.86530E-05 3.79876E-06-4.23259E-19 1.79728E-18
 -1       994 9.15313E-05-2.43916E-05-2.87743E-05 3.10520E-06-1.05956E-18-3.58429E-19
 -1       995 9.24529E-05-2.51787E-05-2.88319E-05 2.50237E-06-1.32848E-18-1.61523E-18
 -1       996 9.31729E-05-2.58600E-05-2.88485E-05 1.98416E-06 3.52044E-19 1.43740E-20
 -1       997 9.37284E-05-2.64358E-05-2.88398E-05 1.54563E-06 4.38989E-19-2.92528E-19
 -1       998 9.41520E-05-2.69130E-05-2.88168E-05 1.18128E-06-1.45813E-19-1.68994E-18
 -1       999 9.44704E-05-2.73014E-05-2.87867E-05 8.84320E-07 1.12890E-19-1.33651E-18
 -1      1000 9.47059E-05-2.76124E-05-2.87543E-05 6.47686E-07 1.72032E-19-1.98245E-18
 -1      1001 9.48508E-05-2.78210E-05-2.87271E-05 4.85296E-07 1.46239E-18-5.35956E-18
 -1      1002 8.22369E-05-2.67199E-05-2.37536E-05 1.96927E-05-4.54024E-19 4.86455E-19
 -1      1003 9.49426E-05-2.80219E-05-2.86804E-05 1.67329E-07 1.76157E-18 2.12717E-18
 -1      1004 6.72903E-05-1.49011E-05-2.24146E-05 1.08743E-06 1.35066E-18-1.78731E-19
 -1      1005 9.43249E-05-2.28989E-05-3.06084E-05 8.31192E-08 9.32590E-19-1.42839E-18
 -1      1006 7.27018E-05-1.90929E-05-2.29297E-05-1.34673E-05-7.41447E-19-1.12236E-18
 -1      1007 8.58683E-05-2.89632E-05-2.43457E-05-1.85157E-05 7.34788E-19-2.34720E-18
 -1      1008 8.71152E-05-2.15921E-05-2.80816E-05 5.53900E-06 1.03254E-18 6.85421E-20
 -1      1009 8.36247E-05-2.07989E-05-2.69281E-05-8.52852E-06-2.00215E-19-3.57121E-19
 -1      1010 9.30716E-05-2.04083E-05-3.11406E-05-4.00042E-08 9.37233E-20-2.30330E-18
 -1      1011 9.45341E-05-2.41074E-05-3.01831E-05 1.10692E-06-2.64994E-19-2.16936E-18
 -1      1012 9.39231E-05-2.48444E-05-2.96052E-05-2.72613E-06 6.81114E-19-7.30929E-19
 -1      1013 9.03634E-05-2.33582E-05-2.87164E-05-5.17254E-06 3.76071E-19-1.07684E-18
 -1      1014 7.56509E-05-2.04986E-05-2.36159E-05 1.44230E-05-3.26234E-19-9.38238E-20
 -1      1015 8.08805E-05-2.56312E-05-2.36563E-05 1.74552E-05 6.33127E-19-6.08744E-19
 -1      1016 8.04890E-05-2.03192E-05-2.57656E-05-1.07706E-05-4.10958E-19-5.09017E-19
 -1      1017 8.62555E-05-2.15374E-05-2.77366E-05-7.10410E-06-1.34423E-19-9.22761E-19
 -1      1018 9.48473E-05-2.78793E-05-2.87004E-05 2.45887E-07 1.57702E-18 2.71315E-18
 -1      1019 9.47509E-05-2.77843E-05-2.86999E-05-5.01348E-09-1.11961E-19-8.83780E-19
 -1      1020 9.18791E-05-2.41251E-05-2.90376E-05-4.37245E-06 4.66547E-19-8.55861E-19
 -1      1021 9.37290E-05-2.21982E-05-3.06545E-05-7.50424E-09 2.93257E-19-2.07005E-18
 -1      1022 7.19916E-05-1.69760E-05-2.35798E-05-6.28604E-06 9.41912E-19-1.40975E-18
 -1      1023 9.39529E-05-2.24162E-05-3.06572E-05-6.06686E-09 6.81265E-19-2.01220E-18
 -1      1024 9.47776E-05-2.78122E-05-2.86994E-05-1.55765E-07 6.61372E-19-3.41424E-20
 -1      1025 8.85041E-05-2.24596E-05-2.83048E-05-6.04939E-06-1.88041E-20-1.05437E-18
 -1      1026 7.98199E-05-2.23988E-05-2.45881E-05-1.28163E-05 6.69973E-19-2.59061E-18
 -1      1027 9.22274E-05-2.44713E-05-2.90384E-05 3.12443E-06-1.67125E-19-1.82833E-18
 -1      1028 9.10811E-05-2.42082E-05-2.86604E-05 4.03122E-06-1.45391E-19-1.19891E-18
 -1      1029 8.97992E-05-2.39385E-05-2.82268E-05 5.18242E-06 9.84554E-20-1.30889E-18
 -1      1030 8.84731E-05-2.38407E-05-2.77000E-05 6.70174E-06 5.71295E-19-1.44622E-18
 -1      1031 8.72413E-05-2.41563E-05-2.70414E-05 8.74590E-06 1.16534E-18-6.35520E-19
 -1      1032 8.63669E-05-2.52165E-05-2.62058E-05 1.16076E-05 5.84075E-19-6.03303E-19
 -1      1033 8.40368E-05-2.53956E-05-2.51154E-05 1.42293E-05 2.68143E-20-8.01192E-19
 -1      1034 8.57157E-05-2.42689E-05-2.63361E-05-1.06719E-05 8.59190E-19-1.90865E-18
 -1      1035 8.65209E-05-2.33290E-05-2.70839E-05-7.98118E-06 4.19760E-19-2.25429E-18
 -1      1036 8.75804E-05-2.30756E-05-2.76456E-05-6.00489E-06 4.45509E-21-2.52086E-18
 -1      1037 8.87110E-05-2.32526E-05-2.80549E-05-4.54549E-06 2.60675E-19-2.21658E-18
 -1      1038 8.98074E-05-2.36784E-05-2.83424E-05-3.45187E-06-7.96198E-19-2.24259E-18
 -1      1039 9.08224E-05-2.42422E-05-2.85353E-05-2.62298E-06-5.73651E-19-1.78015E-18
 -1      1040 9.17198E-05-2.48556E-05-2.86569E-05-1.99115E-06-2.08984E-18-1.21507E-18
 -1      1041 9.24892E-05-2.54623E-05-2.87264E-05-1.50515E-06-1.71583E-18-1.38051E-18
 -1      1042 9.31318E-05-2.60276E-05-2.87594E-05-1.12977E-06-9.82824E-19-9.86359E-19
 -1      1043 9.36562E-05-2.65325E-05-2.87676E-05-8.39645E-07-3.88019E-19-1.67544E-19
 -1      1044 9.40751E-05-2.69691E-05-2.87599E-05-6.15855E-07-2.66115E-19 1.53584E-18
 -1      1045 9.43992E-05-2.73329E-05-2.87429E-05-4.43514E-07 1.72180E-18 9.54575E-19
 -1      1046 9.46481E-05-2.76326E-05-2.87208E-05-3.15326E-07 1.01832E-19 1.03318E-18
 -1      1047 9.38673E-05-2.23712E-05-3.06430E-05 2.15057E-07-2.88411E-19-2.29034E-18
 -1      1048 9.11851E-05-2.42577E-05-2.86836E-05 1.83462E-06 3.48215E-19-4.65485E-19
 -1      1049 8.08011E-05-1.87739E-05-2.65833E-05 3.91340E-06-4.75124E-20-1.79692E-18
 -1      1050 7.67080E-05-1.75453E-05-2.53538E-05 4.70601E-06 8.60639E-19-1.39385E-18
 -1      1051 8.99307E-05-2.33204E-05-2.85479E-05 2.18890E-06 4.83772E-19 8.93842E-19
 -1      1052 8.83623E-05-2.22842E-05-2.83197E-05 2.56243E-06 1.84907E-19 8.31956E-19
 -1      1053 9.21781E-05-2.50809E-05-2.87564E-05 1.50632E-06-7.74948E-19-1.77138E-18
 -1      1054 9.29575E-05-2.57880E-05-2.87873E-05 1.21021E-06-6.90146E-19-5.40015E-19
 -1      1055 9.35627E-05-2.63836E-05-2.87913E-05 9.50845E-07 8.30233E-19 1.10334E-18
 -1      1056 9.40282E-05-2.68774E-05-2.87791E-05 7.30089E-07-2.88226E-19 2.28961E-18
 -1      1057 9.43788E-05-2.72772E-05-2.87579E-05 5.48827E-07 2.59688E-19 2.25119E-20
 -1      1058 9.47785E-05-2.78123E-05-2.86999E-05 1.27371E-07 1.18903E-18 1.80120E-18
 -1      1059 7.57080E-05-1.99778E-05-2.38757E-05 1.04153E-05 5.55551E-19-2.34770E-18
 -1      1060 9.36031E-05-2.20050E-05-3.06850E-05 8.17772E-08 3.74996E-20-2.19092E-18
 -1      1061 7.02819E-05-1.58954E-05-2.32742E-05 1.39085E-06 5.13421E-19-2.09397E-18
 -1      1062 9.31716E-05-2.45855E-05-2.93944E-05 2.35622E-06-3.78918E-20-1.99827E-18
 -1      1063 9.30600E-05-2.46467E-05-2.93203E-05-3.57118E-06 3.12139E-19-5.98154E-19
 -1      1064 9.38235E-05-2.43841E-05-2.97600E-05 1.65328E-06-1.39468E-19-2.17039E-18
 -1      1065 7.26977E-05-1.69321E-05-2.38874E-05 7.19169E-06-3.55630E-19-3.67295E-19
 -1      1066 8.61961E-05-2.60955E-05-2.57628E-05-1.33880E-05 1.08423E-18-2.56867E-18
 -1      1067 8.81643E-05-2.21437E-05-2.82944E-05-3.39126E-06 5.16178E-19-5.16924E-19
 -1      1068 7.31439E-05-1.64013E-05-2.43079E-05 1.03680E-07 4.61629E-19 6.18114E-19
 -1      1069 8.39364E-05-1.99853E-05-2.74085E-05 3.38089E-06-6.25485E-20-1.74287E-18
 -1      1070 7.83485E-05-1.84245E-05-2.56964E-05-4.82268E-06-5.36250E-19-8.92756E-19
 -1      1071 8.24744E-05-1.97605E-05-2.68763E-05-4.23507E-06-3.79889E-19-1.11071E-18
 -1      1072 9.37609E-05-2.41627E-05-2.98277E-05-1.47333E-06 4.18289E-19-1.33409E-18
 -1      1073 9.40457E-05-2.33735E-05-3.02857E-05 7.23992E-07-1.29731E-19-2.38428E-18
 -1      1074 9.01629E-05-2.30872E-05-2.87472E-05-2.98642E-06 5.81443E-19-4.75166E-19
 -1      1075 9.40131E-05-2.39866E-05-3.00123E-05 1.16502E-06-2.15425E-20-2.47994E-18
 -1      1076 9.46004E-05-2.75494E-05-2.87362E-05 4.14958E-07 2.11670E-18-1.25201E-19
 -1      1077 9.45725E-05-2.75597E-05-2.87198E-05 9.10376E-08 2.55307E-19-6.51038E-19
 -1      1078 8.63982E-05-2.11604E-05-2.79595E-05 2.94747E-06 1.08437E-19-2.18885E-19
 -1      1079 9.37511E-05-2.31280E-05-3.02654E-05-1.42200E-07 1.15771E-19-1.72035E-18
 -1      1080 9.41190E-05-2.34551E-05-3.02848E-05-6.77133E-07 6.23476E-19-1.65036E-18
 -1      1081 9.45795E-05-2.75695E-05-2.87186E-05-1.13799E-07 1.34602E-18-9.05851E-19
 -1      1082 8.56360E-05-2.10019E-05-2.77008E-05-3.77152E-06-2.25140E-19-8.59803E-19
 -1      1083 8.08085E-05-2.13461E-05-2.54878E-05-9.63359E-06 9.61897E-19-3.51733E-18
 -1      1084 8.91346E-05-2.30183E-05-2.83343E-05 2.87541E-06-1.70692E-19-1.49611E-18
 -1      1085 8.72484E-05-2.24305E-05-2.77763E-05 3.93356E-06 1.55500E-19-1.39802E-18
 -1      1086 8.50440E-05-2.19034E-05-2.70606E-05 5.52750E-06 6.11046E-19-1.56964E-18
 -1      1087 8.25759E-05-2.15622E-05-2.61164E-05 7.65979E-06 1.02806E-18-2.47230E-18
 -1      1088 7.93828E-05-2.07574E-05-2.51319E-05 8.93993E-06 7.00372E-19-2.72111E-18
 -1      1089 8.30701E-05-2.11761E-05-2.65237E-05-6.75669E-06 6.08491E-19-3.65557E-18
 -1      1090 9.29673E-05-2.42018E-05-2.94712E-05-2.06983E-06 1.29146E-19-8.44994E-19
 -1      1091 8.51167E-05-2.14918E-05-2.72675E-05-4.79719E-06 4.67859E-19-3.30129E-18
 -1      1092 8.68759E-05-2.20140E-05-2.77944E-05-3.43784E-06 5.35421E-19-3.20889E-18
 -1      1093 8.84050E-05-2.26967E-05-2.81607E-05-2.48691E-06 5.20234E-19-3.29278E-18
 -1      1094 8.97670E-05-2.34687E-05-2.84133E-05-1.80067E-06-3.42818E-19-2.56807E-18
 -1      1095 9.09204E-05-2.42406E-05-2.85768E-05-1.30336E-06-1.63523E-18-2.08485E-18
 -1      1096 9.18836E-05-2.49724E-05-2.86761E-05-9.42396E-07-1.01603E-18-1.19741E-18
 -1      1097 9.26745E-05-2.56383E-05-2.87297E-05-6.80042E-07-9.06162E-19-1.57687E-19
 -1      1098 9.33125E-05-2.62241E-05-2.87521E-05-4.89330E-07-6.00083E-19-6.86745E-19
 -1      1099 9.38206E-05-2.67284E-05-2.87540E-05-3.42635E-07-1.13201E-19-1.12173E-18
 -1      1100 9.42259E-05-2.71549E-05-2.87438E-05-2.41964E-07 8.59855E-19-2.12508E-18
 -1      1101 9.22357E-05-2.52124E-05-2.87244E-05 6.11854E-07-6.43448E-21-1.17843E-18
 -1      1102 9.12755E-05-2.44180E-05-2.86534E-05 6.96208E-07 2.19776E-19-8.62998E-19
 -1      1103 9.00733E-05-2.35144E-05-2.85255E-05 7.47856E-07 4.54584E-19-1.77978E-18
 -1      1104 8.85752E-05-2.25066E-05-2.83153E-05 7.36711E-07 3.90046E-19-2.47527E-18
 -1      1105 9.29952E-05-2.58960E-05-2.87568E-05 5.14884E-07-5.04015E-19-1.23106E-18
 -1      1106 9.35885E-05-2.64721E-05-2.87641E-05 4.19015E-07-1.07014E-18-4.81017E-19
 -1      1107 9.40563E-05-2.69569E-05-2.87559E-05 3.27226E-07 9.82350E-19 1.52652E-19
 -1      1108 9.38035E-05-2.31009E-05-3.03021E-05 3.75422E-07-3.90274E-19-2.05581E-18
 -1      1109 7.52665E-05-1.76418E-05-2.46933E-05 2.15671E-06 2.53111E-19-1.93004E-18
 -1      1110 9.07950E-05-2.36006E-05-2.87953E-05 2.08595E-06-1.25424E-20-1.53939E-18
 -1      1111 9.21206E-05-2.39837E-05-2.92020E-05 1.49052E-06 1.98746E-19-1.63584E-18
 -1      1112 9.31013E-05-2.40557E-05-2.95901E-05 1.05014E-06 1.47878E-19-1.73554E-18
 -1      1113 9.32968E-05-2.38155E-05-2.97778E-05-3.87417E-07 2.43779E-19-1.42121E-18
 -1      1114 7.78924E-05-1.78295E-05-2.57380E-05-5.53369E-07 6.78018E-19 1.31386E-18
 -1      1115 7.95709E-05-1.87538E-05-2.60681E-05 2.10709E-07-2.94789E-19-1.12269E-18
 -1      1116 7.80207E-05-1.85842E-05-2.54716E-05-4.77967E-06 3.31982E-19-2.08804E-18
 -1      1117 9.43524E-05-2.72887E-05-2.87413E-05 2.54458E-07 1.06205E-18-4.35334E-19
 -1      1118 8.87246E-05-2.23980E-05-2.84272E-05-9.39226E-07 4.06209E-19-1.02762E-18
 -1      1119 8.67146E-05-2.14017E-05-2.79898E-05 6.62861E-07-4.95920E-20-1.77500E-18
 -1      1120 8.16496E-05-1.91298E-05-2.67953E-05 4.38531E-08 6.30184E-19 3.50557E-19
 -1      1121 8.63543E-05-2.13434E-05-2.78597E-05-7.71155E-07 3.87827E-19-3.96233E-19
 -1      1122 9.43175E-05-2.72670E-05-2.87365E-05 4.87868E-08 1.54385E-18 6.98955E-19
 -1      1123 9.17623E-05-2.38017E-05-2.91244E-05-2.55966E-06 5.17976E-19-7.09675E-19
 -1      1124 9.10781E-05-2.34391E-05-2.89906E-05 1.75654E-07 1.98392E-19-1.63573E-18
 -1      1125 8.35459E-05-2.02353E-05-2.71281E-05-3.86178E-07-2.09748E-20-6.92128E-19
 -1      1126 8.47185E-05-2.09649E-05-2.73406E-05 1.71613E-06 2.28164E-19-7.33158E-19
 -1      1127 8.21363E-05-1.97137E-05-2.67553E-05-2.84818E-06 1.08600E-18-1.24589E-18
 -1      1128 8.46719E-05-2.06336E-05-2.74555E-05-1.79853E-06 5.05083E-19-2.20142E-18
 -1      1129 8.45614E-05-2.03528E-05-2.75135E-05 4.67854E-07 3.89756E-19-9.09385E-19
 -1      1130 9.22516E-05-2.37767E-05-2.93460E-05-6.22441E-07 1.70050E-19-1.38827E-18
 -1      1131 9.36857E-05-2.37038E-05-2.99921E-05 6.53183E-07 1.06577E-19-1.97180E-18
 -1      1132 1.16342E-04 2.56371E-10-4.17012E-05-4.11544E-05-3.42201E-19 8.60141E-18
 -1      1133 8.85744E-05 7.23007E-11-3.72076E-05-2.38569E-05-1.69195E-19 6.76038E-20
 -1      1134 8.41530E-05 4.18198E-11-3.57873E-05-1.75062E-05-1.07679E-19-3.44610E-18
 -1      1135 8.24682E-05 3.20840E-11-3.51233E-05-1.34274E-05-7.11243E-20-4.95401E-18
 -1      1136 8.16677E-05 2.70466E-11-3.47960E-05-1.01286E-05-4.88764E-20-5.57325E-18
 -1      1137 8.12394E-05 2.39430E-11-3.46248E-05-7.28472E-06-2.27508E-20-5.81398E-18
 -1      1138 8.09960E-05 2.19780E-11-3.45308E-05-4.71518E-06-3.03410E-21-5.81280E-18
 -1      1139 8.08677E-05 2.08756E-11-3.44829E-05-2.29129E-06 8.23541E-21-5.67284E-18
 -1      1140 8.08300E-05 2.05282E-11-3.44691E-05 5.23114E-08 1.33441E-20-5.53986E-18
 -1      1141 8.08756E-05 2.09109E-11-3.44858E-05 2.39801E-06 3.29946E-20-5.27952E-18
 -1      1142 8.10116E-05 2.20670E-11-3.45365E-05 4.82933E-06 4.53196E-20-4.94747E-18
 -1      1143 8.12637E-05 2.40941E-11-3.46324E-05 7.41438E-06 5.76710E-20-4.47223E-18
 -1      1144 8.16991E-05 2.73429E-11-3.48060E-05 1.02854E-05 7.72653E-20-3.76260E-18
 -1      1145 8.24997E-05 3.25786E-11-3.51363E-05 1.36313E-05 1.00744E-19-2.61702E-18
 -1      1146 8.41531E-05 4.22948E-11-3.58082E-05 1.77574E-05 1.35737E-19-4.29022E-19
 -1      1147 8.82679E-05 6.71695E-11-3.72740E-05 2.37043E-05 1.34678E-19 3.76308E-18
 -1      1148 1.06163E-04 1.63629E-10-4.04824E-05 3.59114E-05 2.85238E-19 1.21447E-17
 -1      1149 1.29495E-04-2.56370E-05-4.00934E-05-2.58955E-05-1.35494E-18 1.39337E-17
 -1      1150 9.71414E-05-2.87711E-05-3.14800E-05-6.56486E-07-4.48927E-19 1.08020E-17
 -1      1151 9.01241E-05-2.70198E-05-2.78790E-05 3.88771E-07-1.68361E-19 6.57583E-18
 -1      1152 8.84750E-05-2.66444E-05-2.67145E-05 2.50572E-07-1.12338E-19 3.71538E-18
 -1      1153 8.84324E-05-2.66138E-05-2.65575E-05 1.66728E-07-5.91252E-20 1.67649E-18
 -1      1154 8.92061E-05-2.68164E-05-2.67707E-05 1.21508E-07-5.40513E-20 6.70480E-19
 -1      1155 9.04473E-05-2.71690E-05-2.71436E-05 9.51002E-08-2.01584E-20-5.84956E-19
 -1      1156 9.19988E-05-2.76233E-05-2.76110E-05 7.99395E-08-1.64435E-20-1.22036E-18
 -1      1157 9.37911E-05-2.81548E-05-2.81505E-05 7.24834E-08-3.96517E-20-2.05409E-18
 -1      1158 9.57966E-05-2.87523E-05-2.87536E-05 7.09917E-08-8.19285E-20-3.37974E-18
 -1      1159 9.80014E-05-2.94100E-05-2.94148E-05 7.42367E-08-8.48224E-20-4.96048E-18
 -1      1160 1.00380E-04-3.01188E-05-3.01242E-05 8.05894E-08 6.47728E-20-4.31460E-18
 -1      1161 1.02866E-04-3.08577E-05-3.08586E-05 8.71557E-08-9.05483E-20-3.88191E-18
 -1      1162 1.05319E-04-3.15838E-05-3.15726E-05 8.88432E-08 3.03021E-20-4.00611E-18
 -1      1163 1.07491E-04-3.22222E-05-3.21887E-05 7.75814E-08-4.50648E-20-3.35023E-18
 -1      1164 1.09001E-04-3.26599E-05-3.25937E-05 4.24923E-08-1.33090E-19-4.51000E-18
 -1      1165 1.09353E-04-3.27507E-05-3.26474E-05-2.74029E-08-8.92098E-20-4.70852E-18
 -1      1166 1.08025E-04-3.23440E-05-3.22141E-05-1.36109E-07-1.10075E-19-4.93047E-18
 -1      1167 1.04683E-04-3.13467E-05-3.12232E-05-2.69353E-07-1.88862E-20-5.10528E-18
 -1      1168 9.94737E-05-2.98101E-05-2.97454E-05-3.85299E-07 6.52976E-20-5.08172E-18
 -1      1169 9.32867E-05-2.80011E-05-2.80442E-05-4.21247E-07 1.56577E-20-5.23075E-18
 -1      1170 8.77142E-05-2.63831E-05-2.65466E-05-3.26669E-07 1.17010E-19-3.71842E-18
 -1      1171 8.45383E-05-2.54655E-05-2.57054E-05-1.08541E-07 1.94778E-19-1.62550E-18
 -1      1172 8.48987E-05-2.55699E-05-2.58016E-05 1.54242E-07-3.43161E-19-2.55018E-18
 -1      1173 8.86747E-05-2.66625E-05-2.68059E-05 3.54007E-07-8.86738E-21-4.15470E-18
 -1      1174 9.45549E-05-2.83727E-05-2.83941E-05 4.23409E-07 4.46748E-20-2.89378E-18
 -1      1175 1.00740E-04-3.01849E-05-3.01060E-05 3.68588E-07 4.44292E-19-4.15840E-19
 -1      1176 1.05751E-04-3.16665E-05-3.15395E-05 2.45835E-07-3.25333E-19-2.05935E-18
 -1      1177 1.08852E-04-3.25950E-05-3.24699E-05 1.15976E-07 1.01465E-19-1.90882E-18
 -1      1178 1.10018E-04-3.29552E-05-3.28608E-05 1.56838E-08 4.38340E-20-1.01462E-19
 -1      1179 1.09649E-04-3.28599E-05-3.28034E-05-4.50226E-08-1.12128E-19 3.00392E-19
 -1      1180 1.08284E-04-3.24655E-05-3.24408E-05-7.20891E-08 1.78144E-19-2.03265E-18
 -1      1181 1.06411E-04-3.19163E-05-3.19129E-05-7.66373E-08 1.97249E-20-1.34956E-18
 -1      1182 1.04396E-04-3.13208E-05-3.13293E-05-6.88891E-08-9.97429E-20-2.17185E-18
 -1      1183 1.02473E-04-3.07496E-05-3.07630E-05-5.60752E-08 2.76371E-19-2.96162E-18
 -1      1184 1.00769E-04-3.02413E-05-3.02555E-05-4.24900E-08 2.48896E-19-2.23433E-18
 -1      1185 9.93353E-05-2.98122E-05-2.98250E-05-3.02852E-08 1.59966E-19-3.28486E-18
 -1      1186 9.81769E-05-2.94645E-05-2.94750E-05-2.02845E-08-8.37686E-21-1.79599E-18
 -1      1187 9.72720E-05-2.91920E-05-2.92002E-05-1.25867E-08 4.29968E-20-1.25541E-18
 -1      1188 9.65866E-05-2.89850E-05-2.89911E-05-6.94792E-09 1.60432E-20-1.78109E-18
 -1      1189 9.60833E-05-2.88325E-05-2.88369E-05-2.99881E-09-3.74561E-19-4.32637E-18
 -1      1190 9.57260E-05-2.87239E-05-2.87269E-05-3.57214E-10 2.90409E-19-5.14165E-18
 -1      1191 9.54826E-05-2.86497E-05-2.86516E-05 1.32114E-09 1.22098E-19-1.37137E-18
 -1      1192 9.53261E-05-2.86016E-05-2.86028E-05 2.32610E-09-2.16573E-19 2.37911E-19
 -1      1193 9.52342E-05-2.85731E-05-2.85739E-05 2.89433E-09-2.54622E-19-7.55595E-19
 -1      1194 9.51896E-05-2.85589E-05-2.85594E-05 3.21963E-09 2.34366E-19 7.13820E-19
 -1      1195 9.51787E-05-2.85550E-05-2.85553E-05 3.45858E-09-2.76184E-20 2.23117E-18
 -1      1196 9.51906E-05-2.85580E-05-2.85580E-05 3.65284E-09 4.93647E-19 3.41702E-18
 -1      1197 9.52150E-05-2.85653E-05-2.85635E-05 3.79971E-09-1.65884E-19 3.26839E-18
 -1      1198 9.52332E-05-2.85702E-05-2.85676E-05 1.10138E-09 4.27490E-19 1.44329E-18
 -1      1199 1.30293E-04-3.74998E-05-3.84859E-05 1.20988E-05-2.32563E-19 1.89507E-17
 -1      1200 9.62357E-05-2.80969E-05-3.12283E-05 7.93358E-07 9.37295E-20 1.54415E-17
 -1      1201 9.03118E-05-2.69158E-05-2.78528E-05 1.22094E-07 1.39463E-19 1.16910E-17
 -1      1202 8.85354E-05-2.65648E-05-2.67430E-05 1.61699E-08 7.38209E-20 9.14880E-18
 -1      1203 8.84516E-05-2.65707E-05-2.65785E-05-1.41723E-08 6.72233E-20 7.42874E-18
 -1      1204 8.92224E-05-2.67982E-05-2.67860E-05-1.97859E-08 4.04309E-20 6.39044E-18
 -1      1205 9.04935E-05-2.71736E-05-2.71669E-05-1.78690E-08-1.20995E-19 6.32603E-18
 -1      1206 9.21223E-05-2.76594E-05-2.76592E-05-1.34822E-08 3.31981E-20 5.57170E-18
 -1      1207 9.40704E-05-2.82434E-05-2.82497E-05-8.69335E-09-1.85603E-20 3.85924E-18
 -1      1208 9.63615E-05-2.89315E-05-2.89459E-05-5.25466E-09 1.27648E-19 3.06770E-18
 -1      1209 9.90606E-05-2.97420E-05-2.97670E-05-5.43481E-09 1.70271E-19 1.72824E-18
 -1      1210 1.02255E-04-3.06995E-05-3.07374E-05-1.25513E-08-2.98860E-21 1.20062E-18
 -1      1211 1.06028E-04-3.18267E-05-3.18784E-05-3.13790E-08 5.65436E-20 1.38225E-18
 -1      1212 1.10414E-04-3.31305E-05-3.31918E-05-6.79914E-08-1.39980E-19 1.52400E-18
 -1      1213 1.15314E-04-3.45780E-05-3.46333E-05-1.27769E-07 9.08492E-21 8.57224E-19
 -1      1214 1.20367E-04-3.60603E-05-3.60734E-05-2.09195E-07 3.53206E-20 6.51501E-19
 -1      1215 1.24780E-04-3.73459E-05-3.72546E-05-2.90957E-07-1.46199E-19 4.10864E-19
 -1      1216 1.27196E-04-3.80483E-05-3.77778E-05-3.15135E-07 3.35504E-21 5.95219E-19
 -1      1217 1.25828E-04-3.76643E-05-3.71841E-05-1.86541E-07 2.19468E-19-1.01644E-19
 -1      1218 1.19195E-04-3.57710E-05-3.51960E-05 1.68126E-07-1.65304E-19 1.82324E-19
 -1      1219 1.07625E-04-3.24224E-05-3.20724E-05 6.68729E-07-2.00439E-19 1.64589E-18
 -1      1220 9.46483E-05-2.85649E-05-2.88102E-05 1.00626E-06 7.80925E-20 1.30676E-18
 -1      1221 8.62730E-05-2.59288E-05-2.68244E-05 8.45667E-07 6.45863E-21-4.72644E-19
 -1      1222 8.71950E-05-2.60442E-05-2.71102E-05 2.04339E-07 5.14837E-21-2.58064E-18
 -1      1223 9.69019E-05-2.89043E-05-2.95305E-05-4.94260E-07 2.46751E-19-4.32633E-18
 -1      1224 1.10153E-04-3.29618E-05-3.29095E-05-8.36803E-07 4.78799E-19-4.51723E-18
 -1      1225 1.21106E-04-3.63457E-05-3.58638E-05-7.60835E-07-2.60893E-19-3.49835E-18
 -1      1226 1.26834E-04-3.81065E-05-3.75642E-05-4.74434E-07-8.98980E-20-3.59131E-18
 -1      1227 1.27492E-04-3.82980E-05-3.79097E-05-1.86837E-07 2.03850E-20-5.10173E-18
 -1      1228 1.24739E-04-3.74500E-05-3.72528E-05 8.17417E-09 2.92822E-21-6.55164E-18
 -1      1229 1.20340E-04-3.61121E-05-3.60553E-05 1.06623E-07 2.94090E-19-7.80350E-18
 -1      1230 1.15557E-04-3.46680E-05-3.46885E-05 1.38738E-07 2.28725E-19-7.11344E-18
 -1      1231 1.11102E-04-3.33284E-05-3.33806E-05 1.35030E-07-1.44065E-19-3.62130E-18
 -1      1232 1.07281E-04-3.21825E-05-3.22407E-05 1.16145E-07-1.75682E-19-1.05194E-18
 -1      1233 1.04167E-04-3.12495E-05-3.13024E-05 9.34225E-08-8.40788E-20 3.15229E-19
 -1      1234 1.01714E-04-3.05149E-05-3.05587E-05 7.21065E-08-3.43761E-19-1.06666E-18
 -1      1235 9.98304E-05-2.99506E-05-2.99851E-05 5.41018E-08 2.12037E-19-2.93273E-18
 -1      1236 9.84133E-05-2.95259E-05-2.95523E-05 3.97132E-08 1.58744E-20-4.65393E-18
 -1      1237 9.73673E-05-2.92123E-05-2.92320E-05 2.85878E-08-5.77513E-20-4.21978E-18
 -1      1238 9.66101E-05-2.89851E-05-2.89996E-05 2.01723E-08 2.69518E-19-6.45965E-18
 -1      1239 9.60741E-05-2.88241E-05-2.88347E-05 1.39102E-08-2.86985E-19-4.63488E-18
 -1      1240 9.57049E-05-2.87131E-05-2.87207E-05 9.31480E-09 2.19095E-19 5.08499E-19
 -1      1241 9.54600E-05-2.86394E-05-2.86448E-05 5.98470E-09 9.11835E-20 1.95012E-19
 -1      1242 9.53064E-05-2.85931E-05-2.85969E-05 3.59413E-09 7.18032E-19-5.09981E-19
 -1      1243 9.52190E-05-2.85666E-05-2.85693E-05 1.87420E-09-1.92095E-19-7.10176E-19
 -1      1244 9.51789E-05-2.85544E-05-2.85563E-05 6.01327E-10-1.25043E-19 5.36919E-19
 -1      1245 9.51720E-05-2.85521E-05-2.85535E-05-4.45494E-10 2.02413E-19-1.76831E-18
 -1      1246 9.51872E-05-2.85563E-05-2.85571E-05-1.56448E-09 8.26963E-20-2.21066E-18
 -1      1247 9.52136E-05-2.85638E-05-2.85633E-05-2.87846E-09 4.54161E-19-2.66228E-18
 -1      1248 9.52336E-05-2.85705E-05-2.85675E-05-1.09610E-09-4.01585E-19-1.68953E-18
 -1      1249 9.52377E-05-2.85749E-05-2.85677E-05-1.36956E-09-7.65395E-19-7.94906E-19
 -1      1250 9.52437E-05-2.85942E-05-2.85638E-05-3.28413E-09-4.58514E-18-6.58897E-19
 -1      1251 9.52501E-05-2.86156E-05-2.85590E-05-2.46299E-09-3.04467E-18 1.96844E-19
 -1      1252 9.52526E-05-2.86239E-05-2.85569E-05-1.10295E-09-2.08453E-18 9.43838E-20
 -1      1253 9.52508E-05-2.86174E-05-2.85584E-05-2.78085E-11 2.85029E-19-5.00484E-20
 -1      1254 9.52461E-05-2.86008E-05-2.85626E-05 5.76479E-10-3.74383E-18-1.23104E-18
 -1      1255 9.52405E-05-2.85814E-05-2.85678E-05 7.08679E-10-9.32481E-18 4.16192E-20
 -1      1256 9.52360E-05-2.85658E-05-2.85720E-05 4.86580E-10-4.31221E-18-3.96840E-19
 -1      1257 9.52342E-05-2.85592E-05-2.85737E-05 6.62520E-11-7.09967E-18 9.66248E-20
 -1      1258 9.52354E-05-2.85637E-05-2.85726E-05-3.63933E-10-2.91774E-18-6.61325E-19
 -1      1259 9.52394E-05-2.85775E-05-2.85689E-05-6.12800E-10-2.86884E-18-9.65573E-19
 -1      1260 9.52447E-05-2.85959E-05-2.85640E-05-5.26280E-10-3.67070E-18 2.68412E-19
 -1      1261 9.52493E-05-2.86121E-05-2.85599E-05 9.80162E-12-4.09066E-18 1.37495E-18
 -1      1262 9.52512E-05-2.86192E-05-2.85582E-05 1.02546E-09-7.10605E-18 5.11073E-20
 -1      1263 9.52495E-05-2.86125E-05-2.85599E-05 2.70768E-09-3.12194E-18 3.47168E-19
 -1      1264 9.52431E-05-2.85923E-05-2.85640E-05 4.59828E-09-2.29545E-18-4.15545E-19
 -1      1265 9.52379E-05-2.85754E-05-2.85678E-05 1.81288E-09-8.04825E-19 2.56427E-19
 -1      1266 3.35049E-05-1.06936E-04 1.83039E-05-1.44065E-05-4.13013E-18-3.28066E-19
 -1      1267 1.75670E-05-6.72654E-05 1.00178E-05-2.64252E-05 4.22839E-18 2.94767E-18
 -1      1268 7.23845E-06-1.31659E-05-4.70041E-06-4.25486E-06 8.07392E-18 4.85350E-18
 -1      1269 3.08833E-05 2.16402E-05-2.43030E-05 4.71706E-05 8.28059E-18 7.28618E-18
 -1      1270 1.00145E-04 1.48886E-05-4.50003E-05 9.75532E-05 6.51284E-18 1.01407E-17
 -1      1271 2.01582E-04-2.98745E-05-6.31662E-05 1.10600E-04 3.39576E-18 7.37596E-18
 -1      1272 2.89186E-04-7.80762E-05-7.59003E-05 6.53740E-05 6.49251E-19 9.52065E-19
 -1      1273 3.18446E-04-9.58731E-05-7.92212E-05-1.43161E-05 7.65188E-19-7.61123E-18
 -1      1274 2.64899E-04-6.43691E-05-7.24218E-05-8.75031E-05 5.29269E-18-1.71101E-17
 -1      1275 1.63262E-04-1.04402E-05-5.69646E-05-1.11555E-04 1.07607E-17-2.11758E-17
 -1      1276 6.29396E-05 2.31838E-05-3.53858E-05-7.64395E-05 1.40057E-17-1.70321E-17
 -1      1277 1.15632E-05 6.60688E-06-1.27766E-05-1.53622E-05 1.34644E-17-1.00644E-17
 -1      1278 1.10226E-05-4.48706E-05 4.78551E-06 2.23433E-05 1.18136E-17-5.39602E-18
 -1      1279 2.93351E-05-9.60005E-05 1.60393E-05 2.31129E-05 3.33053E-18-1.75495E-18
 -1      1280 3.72932E-05-1.13462E-04 1.92991E-05-1.88203E-06-5.57337E-18-4.10493E-19
 -1      1281 2.60732E-05-8.70693E-05 1.42651E-05-2.33547E-05-1.27606E-17-3.50968E-18
 -1      1282 9.40631E-06-3.39584E-05 2.03690E-06-1.65345E-05-1.63054E-17-7.52758E-18
 -1      1283 1.61102E-05 1.31949E-05-1.58890E-05 2.56415E-05-1.55007E-17-1.18314E-17
 -1      1284 6.84678E-05 2.35098E-05-3.69052E-05 8.08808E-05-1.18813E-17-1.38964E-17
 -1      1285 1.59781E-04-8.99114E-06-5.61495E-05 1.11693E-04-8.25942E-18-1.45486E-17
 -1      1286 2.52394E-04-5.84846E-05-7.05427E-05 8.83299E-05-3.48321E-18-1.00255E-17
 -1      1287 3.07095E-04-9.26045E-05-7.72623E-05 2.14813E-05-4.79897E-19-1.99646E-18
 -1      1288 2.87872E-04-8.06478E-05-7.50718E-05-5.80764E-05-1.01660E-18 4.87637E-18
 -1      1289 2.10573E-04-3.55416E-05-6.44912E-05-1.07460E-04-3.71678E-18 9.26315E-18
 -1      1290 1.12244E-04 1.16545E-05-4.76539E-05-1.03420E-04-7.17267E-18 1.11063E-17
 -1      1291 3.69193E-05 2.58341E-05-2.72273E-05-5.65987E-05-9.96619E-18 9.61467E-18
 -1      1292 7.74810E-06-4.73386E-06-7.28590E-06-2.94239E-06-9.48507E-18 6.37223E-18
 -1      1293 1.63269E-05-6.05698E-05 8.55874E-06 2.35095E-05-8.14422E-18 3.26150E-18
 -1      1294 3.38788E-05-1.05979E-04 1.78306E-05 1.33175E-05-5.49851E-18 5.98852E-19
 -1      1295 1.04101E-04-2.19365E-05-3.77660E-05-1.70950E-05-5.30243E-19 6.63184E-18
 -1      1296 9.03386E-05-6.72357E-06-3.60009E-05-2.01232E-05-1.24387E-18-1.58056E-18
 -1      1297 9.25865E-05-6.79046E-06-3.71623E-05-2.54204E-05-1.64494E-18 2.71051E-19
 -1      1298 8.60308E-05-4.13368E-06-3.51654E-05-1.60234E-05-1.22555E-18-4.11621E-18
 -1      1299 8.72440E-05-4.12955E-06-3.56127E-05-1.84654E-05-1.39046E-18-3.06541E-18
 -1      1300 9.22076E-05-1.05205E-05-3.50970E-05-1.86354E-05-2.19916E-18-1.39872E-18
 -1      1301 8.42383E-05-3.19641E-06-3.47447E-05-1.23875E-05-9.49855E-19-5.25973E-18
 -1      1302 8.48428E-05-3.16870E-06-3.49608E-05-1.42048E-05-1.09813E-18-4.75876E-18
 -1      1303 8.80041E-05-7.42049E-06-3.46196E-05-1.49662E-05-1.90340E-18-3.50923E-18
 -1      1304 8.32945E-05-2.69819E-06-3.45315E-05-9.27484E-06-6.11359E-19-5.71869E-18
 -1      1305 8.36249E-05-2.68383E-06-3.46415E-05-1.08063E-05-7.54574E-19-5.51927E-18
 -1      1306 8.59856E-05-5.95013E-06-3.43695E-05-1.15117E-05-1.39936E-18-4.48557E-18
 -1      1307 8.27444E-05-2.38976E-06-3.44178E-05-6.56798E-06-3.50447E-19-5.86239E-18
 -1      1308 8.29379E-05-2.38317E-06-3.44773E-05-7.90184E-06-4.39173E-19-5.79484E-18
 -1      1309 8.48780E-05-5.11388E-06-3.42395E-05-8.53118E-06-8.90278E-19-4.85885E-18
 -1      1310 8.24134E-05-2.19339E-06-3.43549E-05-4.05246E-06-1.30011E-19-5.83101E-18
 -1      1311 8.25261E-05-2.19073E-06-3.43875E-05-5.29834E-06-1.82053E-19-5.88471E-18
 -1      1312 8.42122E-05-4.59451E-06-3.41693E-05-5.88575E-06-4.59532E-19-5.00448E-18
 -1      1313 8.22441E-05-2.08320E-06-3.43256E-05-1.67980E-06 1.36046E-19-5.69545E-18
 -1      1314 8.22954E-05-2.08226E-06-3.43399E-05-2.86348E-06 4.32649E-20-5.75464E-18
 -1      1315 8.38226E-05-4.28197E-06-3.41322E-05-3.42953E-06-9.96422E-20-4.92629E-18
 -1      1316 8.22102E-05-2.04821E-06-3.43222E-05 6.34333E-07 3.21659E-19-5.49710E-18
 -1      1317 8.22081E-05-2.04824E-06-3.43214E-05-5.29776E-07 2.72248E-19-5.61593E-18
 -1      1318 8.36431E-05-4.13495E-06-3.41166E-05-1.09522E-06 3.21437E-19-4.77703E-18
 -1      1319 8.23076E-05-2.08571E-06-3.43433E-05 2.97082E-06 5.49109E-19-5.24006E-18
 -1      1320 8.22518E-05-2.08664E-06-3.43277E-05 1.78502E-06 4.61947E-19-5.39181E-18
 -1      1321 8.36491E-05-4.13810E-06-3.41179E-05 1.20014E-06 6.24013E-19-4.58971E-18
 -1      1322 8.25500E-05-2.19998E-06-3.43933E-05 5.41335E-06 7.46024E-19-4.91290E-18
 -1      1323 8.24322E-05-2.20194E-06-3.43595E-05 4.16215E-06 6.74415E-19-5.11968E-18
 -1      1324 8.38416E-05-4.29287E-06-3.41358E-05 3.53723E-06 1.00686E-18-4.37011E-18
 -1      1325 8.29689E-05-2.39731E-06-3.44837E-05 8.00878E-06 9.80884E-19-4.41601E-18
 -1      1326 8.27716E-05-2.40423E-06-3.44235E-05 6.66654E-06 8.97210E-19-4.70582E-18
 -1      1327 8.42440E-05-4.61477E-06-3.41740E-05 5.97871E-06 1.34868E-18-4.02584E-18
 -1      1328 8.36774E-05-2.71304E-06-3.46503E-05 1.09644E-05 1.28126E-18-3.65243E-18
 -1      1329 8.33399E-05-2.72785E-06-3.45388E-05 9.41594E-06 1.13287E-18-4.08899E-18
 -1      1330 8.49277E-05-5.15266E-06-3.42441E-05 8.64046E-06 1.74229E-18-3.45690E-18
 -1      1331 8.49118E-05-3.21384E-06-3.49722E-05 1.44142E-05 1.51635E-18-2.30353E-18
 -1      1332 8.43052E-05-3.24783E-06-3.47541E-05 1.25688E-05 1.37710E-18-3.10525E-18
 -1      1333 8.60774E-05-6.02830E-06-3.43750E-05 1.16702E-05 2.13401E-18-2.61426E-18
 -1      1334 8.73442E-05-4.13130E-06-3.56345E-05 1.87021E-05 1.68041E-18 8.62915E-20
 -1      1335 8.61051E-05-4.19184E-06-3.51751E-05 1.62822E-05 1.52683E-18-1.34120E-18
 -1      1336 8.81392E-05-7.54381E-06-3.46249E-05 1.52031E-05 2.43687E-18-1.01025E-18
 -1      1337 9.33763E-05-6.83716E-06-3.70541E-05 2.47681E-05 1.40247E-18 4.51966E-18
 -1      1338 9.01520E-05-6.48272E-06-3.60217E-05 2.07962E-05 1.38553E-18 1.81937E-18
 -1      1339 9.24344E-05-1.07536E-05-3.50816E-05 1.92713E-05 2.49467E-18 1.60481E-18
 -1      1340 1.23084E-04-2.48253E-05-3.88676E-05 2.81085E-05 6.53804E-19 1.26877E-17
 -1      1341 9.98634E-05-1.44128E-05-3.72577E-05 2.37760E-05 6.86520E-19 7.06489E-18
 -1      1342 1.01562E-04-1.93540E-05-3.53443E-05 2.10598E-05 2.25510E-18 5.61985E-18
 -1      1343 1.02277E-04-2.77226E-05-3.46416E-05 7.18870E-06 1.16673E-18 1.22663E-17
 -1      1344 1.04887E-04-3.01605E-05-3.34384E-05-7.79226E-06-1.43985E-18 7.21587E-18
 -1      1345 9.81402E-05-2.78180E-05-3.07159E-05-4.84866E-06-1.27383E-18 5.50307E-18
 -1      1346 9.54773E-05-2.78426E-05-2.92438E-05-2.35175E-06-1.04900E-18 4.86274E-18
 -1      1347 9.33744E-05-2.75875E-05-2.82449E-05-1.90579E-06-9.83193E-19 3.38472E-18
 -1      1348 9.94903E-05-2.80630E-05-3.09797E-05-7.61134E-06-2.22764E-18 2.37852E-18
 -1      1349 9.18044E-05-2.72616E-05-2.76494E-05-6.85204E-07-8.15554E-19 2.85376E-18
 -1      1350 9.12323E-05-2.72069E-05-2.73914E-05-5.69208E-07-7.07703E-19 1.72382E-18
 -1      1351 9.49355E-05-2.78293E-05-2.88857E-05-2.83051E-06-1.74417E-18 1.38572E-18
 -1      1352 9.06300E-05-2.70651E-05-2.71947E-05 1.94086E-08-4.79732E-19 1.25239E-18
 -1      1353 9.07402E-05-2.71446E-05-2.72150E-05 8.73578E-08-4.81681E-19 5.43041E-19
 -1      1354 9.29958E-05-2.76249E-05-2.80490E-05-7.02270E-07-1.23438E-18 4.48067E-19
 -1      1355 9.06709E-05-2.71308E-05-2.72001E-05 4.09308E-07-3.15321E-19 2.78475E-19
 -1      1356 9.11272E-05-2.72917E-05-2.73341E-05 4.51819E-07-3.20569E-19-1.80842E-19
 -1      1357 9.23670E-05-2.75701E-05-2.77865E-05 3.85402E-07-7.33153E-19-2.09773E-19
 -1      1358 9.13780E-05-2.73650E-05-2.74174E-05 6.51678E-07-4.09304E-19-3.53385E-19
 -1      1359 9.20412E-05-2.75797E-05-2.76122E-05 6.81341E-07-2.30333E-19-8.59686E-19
 -1      1360 9.25414E-05-2.76768E-05-2.78122E-05 1.01790E-06-7.23548E-19-5.46713E-19
 -1      1361 9.25016E-05-2.77124E-05-2.77583E-05 8.21529E-07-8.83578E-20-9.26085E-19
 -1      1362 9.33092E-05-2.79664E-05-2.79951E-05 8.45237E-07-1.46807E-19-1.25002E-18
 -1      1363 9.32276E-05-2.79068E-05-2.80058E-05 1.43213E-06-3.84786E-19-7.66164E-19
 -1      1364 9.39207E-05-2.81427E-05-2.81865E-05 9.56625E-07-3.09032E-19-1.32471E-18
 -1      1365 9.48451E-05-2.84297E-05-2.84578E-05 9.78066E-07-2.84286E-19-1.77594E-18
 -1      1366 9.42673E-05-2.82290E-05-2.83118E-05 1.73921E-06-4.59606E-19-1.06728E-18
 -1      1367 9.55752E-05-2.86410E-05-2.86848E-05 1.07491E-06-3.02118E-19-1.92535E-18
 -1      1368 9.66037E-05-2.89591E-05-2.89869E-05 1.09545E-06-5.26197E-19-2.47338E-18
 -1      1369 9.55736E-05-2.86249E-05-2.87009E-05 1.99349E-06-5.43612E-19-1.14487E-18
 -1      1370 9.74312E-05-2.92002E-05-2.92427E-05 1.17996E-06-5.19028E-19-2.65086E-18
 -1      1371 9.85523E-05-2.95478E-05-2.95717E-05 1.19862E-06-1.45016E-19-3.08038E-18
 -1      1372 9.70953E-05-2.90854E-05-2.91548E-05 2.21522E-06-7.35015E-19-1.13931E-18
 -1      1373 9.94554E-05-2.98138E-05-2.98489E-05 1.26142E-06 7.60138E-20-3.34775E-18
 -1      1374 1.00646E-04-3.01859E-05-3.01972E-05 1.27452E-06-8.77126E-20-3.24616E-18
 -1      1375 9.87920E-05-2.96044E-05-2.96582E-05 2.39650E-06-2.02526E-19-1.78099E-18
 -1      1376 1.01592E-04-3.04695E-05-3.04846E-05 1.29350E-06-1.75097E-19-3.19278E-18
 -1      1377 1.02800E-04-3.08525E-05-3.08362E-05 1.29403E-06-1.72271E-19-3.40040E-18
 -1      1378 1.00613E-04-3.01740E-05-3.01918E-05 2.50038E-06-1.55291E-19-2.71888E-18
 -1      1379 1.03734E-04-3.11404E-05-3.11153E-05 1.23350E-06-7.26612E-20-3.04932E-18
 -1      1380 1.04865E-04-3.15070E-05-3.14416E-05 1.21076E-06 1.85022E-19-2.93627E-18
 -1      1381 1.02477E-04-3.07779E-05-3.07267E-05 2.45840E-06-8.22838E-20-2.62765E-18
 -1      1382 1.05703E-04-3.17766E-05-3.16842E-05 1.02356E-06 1.00577E-19-2.73686E-18
 -1      1383 1.06605E-04-3.20803E-05-3.19402E-05 9.63887E-07-2.54209E-19-3.00554E-18
 -1      1384 1.04251E-04-3.13834E-05-3.12189E-05 2.17164E-06 1.54923E-19-2.35873E-18
 -1      1385 1.07223E-04-3.22968E-05-3.21078E-05 6.00777E-07-4.07545E-19-3.03972E-18
 -1      1386 1.07685E-04-3.24689E-05-3.22329E-05 4.90690E-07-3.09379E-19-3.34765E-18
 -1      1387 1.05735E-04-3.19322E-05-3.16072E-05 1.52366E-06-4.28784E-19-2.37617E-18
 -1      1388 1.07932E-04-3.25839E-05-3.22802E-05-7.74437E-08-1.91072E-19-3.36848E-18
 -1      1389 1.07708E-04-3.25390E-05-3.22068E-05-2.43732E-07-2.61624E-19-3.65346E-18
 -1      1390 1.06659E-04-3.23316E-05-3.18163E-05 4.17032E-07-4.10963E-19-2.39310E-18
 -1      1391 1.07429E-04-3.24954E-05-3.20931E-05-9.88557E-07-1.25493E-19-3.66996E-18
 -1      1392 1.06313E-04-3.21524E-05-3.17682E-05-1.19685E-06-2.92696E-19-3.63368E-18
 -1      1393 1.06713E-04-3.24533E-05-3.17717E-05-1.15633E-06-2.88203E-19-2.21948E-18
 -1      1394 1.05408E-04-3.19001E-05-3.14758E-05-1.98985E-06-1.85563E-19-3.89124E-18
 -1      1395 1.03351E-04-3.12243E-05-3.08945E-05-2.19324E-06 7.90355E-20-3.96213E-18
 -1      1396 1.05624E-04-3.21549E-05-3.14251E-05-3.01749E-06-3.42387E-19-2.73084E-18
 -1      1397 1.01860E-04-3.07526E-05-3.04507E-05-2.78999E-06 1.06094E-20-3.65294E-18
 -1      1398 9.91086E-05-2.98107E-05-2.96899E-05-2.90862E-06-3.33379E-19-3.90461E-18
 -1      1399 1.03303E-04-3.13396E-05-3.07899E-05-4.72328E-06-9.01031E-20-2.85551E-18
 -1      1400 9.72912E-05-2.91900E-05-2.91793E-05-3.00942E-06 8.65330E-20-3.82962E-18
 -1      1401 9.44425E-05-2.81850E-05-2.84055E-05-2.95955E-06 1.33201E-19-3.54864E-18
 -1      1402 1.00023E-04-3.00579E-05-2.99685E-05-5.60897E-06-8.07576E-20-2.42334E-18
 -1      1403 9.27788E-05-2.75861E-05-2.79585E-05-2.36720E-06 2.74002E-19-3.02293E-18
 -1      1404 9.06541E-05-2.68206E-05-2.73889E-05-2.11821E-06 6.67310E-19-2.08378E-18
 -1      1405 9.65192E-05-2.85961E-05-2.91487E-05-5.04768E-06 7.09526E-19-2.16405E-18
 -1      1406 8.96981E-05-2.64653E-05-2.71396E-05-9.14845E-07 4.27348E-19-2.34168E-18
 -1      1407 8.90137E-05-2.62156E-05-2.69575E-05-5.34718E-07 3.73621E-20-2.15802E-18
 -1      1408 9.38569E-05-2.74385E-05-2.85552E-05-2.87351E-06 5.94299E-19-2.18067E-18
 -1      1409 8.91277E-05-2.62572E-05-2.69876E-05 8.83668E-07-1.04986E-19-2.13975E-18
 -1      1410 9.01341E-05-2.66218E-05-2.72563E-05 1.24970E-06-3.05997E-19-2.54825E-18
 -1      1411 9.29967E-05-2.70551E-05-2.83695E-05 3.32256E-07-9.79514E-20-2.54520E-18
 -1      1412 9.12796E-05-2.70436E-05-2.75575E-05 2.36616E-06-2.78886E-19-2.21494E-18
 -1      1413 9.36247E-05-2.78840E-05-2.81883E-05 2.58175E-06-6.87950E-20-2.24554E-18
 -1      1414 9.42806E-05-2.76167E-05-2.86527E-05 3.42899E-06-9.53441E-20-1.59547E-18
 -1      1415 9.53868E-05-2.85110E-05-2.86663E-05 3.04960E-06 1.85042E-19-2.66789E-18
 -1      1416 9.83093E-05-2.95350E-05-2.94633E-05 3.06572E-06 2.58164E-19-1.66061E-18
 -1      1417 9.72295E-05-2.88829E-05-2.93195E-05 5.33991E-06 4.15245E-21-1.30082E-18
 -1      1418 1.00132E-04-3.01483E-05-2.99814E-05 2.86297E-06 5.12584E-19-1.93002E-18
 -1      1419 1.02835E-04-3.10654E-05-3.07326E-05 2.72444E-06 2.22703E-19-1.65431E-18
 -1      1420 1.00828E-04-3.03611E-05-3.01759E-05 5.62321E-06 3.88583E-19-1.66679E-18
 -1      1421 1.04276E-04-3.15119E-05-3.11674E-05 2.08200E-06-4.57318E-19-1.79910E-18
 -1      1422 1.06228E-04-3.21453E-05-3.17222E-05 1.87586E-06-6.33600E-19-2.28949E-18
 -1      1423 1.04052E-04-3.15926E-05-3.09997E-05 4.56038E-06-3.37672E-19-2.88852E-18
 -1      1424 1.07074E-04-3.23733E-05-3.20006E-05 1.09323E-06 2.79716E-19-2.12507E-18
 -1      1425 1.08094E-04-3.26802E-05-3.23005E-05 8.94597E-07 5.90753E-19-1.42378E-18
 -1      1426 1.06256E-04-3.23393E-05-3.16185E-05 2.81598E-06-1.47040E-19-2.37977E-18
 -1      1427 1.08342E-04-3.27118E-05-3.24058E-05 1.96873E-07 2.52687E-19-1.00158E-18
 -1      1428 1.08525E-04-3.27411E-05-3.24684E-05 4.59806E-08 4.40073E-19-2.78606E-19
 -1      1429 1.07251E-04-3.25876E-05-3.19490E-05 1.02779E-06 4.93661E-19-1.57461E-18
 -1      1430 1.08293E-04-3.26306E-05-3.24254E-05-4.59583E-07-2.87396E-19-1.97299E-20
 -1      1431 1.07865E-04-3.24682E-05-3.23102E-05-5.53333E-07-6.62863E-19-9.01594E-19
 -1      1432 1.07182E-04-3.24518E-05-3.19935E-05-4.11665E-07 1.97402E-19-1.35286E-18
 -1      1433 1.07314E-04-3.22725E-05-3.21625E-05-8.52435E-07-2.33655E-19-4.66086E-19
 -1      1434 1.06522E-04-3.20032E-05-3.19384E-05-8.97001E-07 1.53697E-19-3.72628E-19
 -1      1435 1.06341E-04-3.20767E-05-3.18094E-05-1.36586E-06-6.32528E-19-5.85781E-19
 -1      1436 1.05802E-04-3.17691E-05-3.17313E-05-1.02505E-06-8.06468E-20-8.60413E-19
 -1      1437 1.04852E-04-3.14590E-05-3.14577E-05-1.03440E-06-4.93429E-19-1.42448E-18
 -1      1438 1.05041E-04-3.15859E-05-3.14745E-05-1.86651E-06-4.65390E-19-7.12459E-19
 -1      1439 1.04080E-04-3.12194E-05-3.12285E-05-1.04228E-06-5.28822E-19-1.24433E-18
 -1      1440 1.03117E-04-3.09127E-05-3.09483E-05-1.02987E-06-8.95253E-20-1.88879E-18
 -1      1441 1.03543E-04-3.10668E-05-3.10631E-05-2.02003E-06-5.52293E-19-1.12993E-18
 -1      1442 1.02372E-04-3.06880E-05-3.07232E-05-9.64818E-07 1.12068E-19-1.80743E-18
 -1      1443 1.01483E-04-3.04101E-05-3.04629E-05-9.41122E-07 2.19488E-19-1.85689E-18
 -1      1444 1.02036E-04-3.05731E-05-3.06332E-05-1.94467E-06-3.20413E-19-1.11074E-19
 -1      1445 1.00812E-04-3.02113E-05-3.02579E-05-8.39404E-07-3.92679E-20-2.13161E-18
 -1      1446 1.00041E-04-2.99737E-05-3.00311E-05-8.11523E-07 1.15780E-19-2.62506E-18
 -1      1447 1.00637E-04-3.01332E-05-3.02243E-05-1.74014E-06 5.84626E-20-1.40464E-18
 -1      1448 9.94654E-05-2.98053E-05-2.98539E-05-6.97770E-07 2.20451E-19-2.12320E-18
 -1      1449 9.88275E-05-2.96108E-05-2.96654E-05-6.70045E-07 8.39241E-20-2.39207E-18
 -1      1450 9.94092E-05-2.97588E-05-2.98591E-05-1.47880E-06 2.05994E-19-1.86621E-18
 -1      1451 9.83515E-05-2.94730E-05-2.95184E-05-5.59279E-07 5.96783E-19-2.93949E-18
 -1      1452 9.78426E-05-2.93193E-05-2.93675E-05-5.34062E-07 1.67531E-19-2.34306E-18
 -1      1453 9.83762E-05-2.94512E-05-2.95478E-05-1.20762E-06 1.65474E-19-2.25958E-18
 -1      1454 9.74617E-05-2.92099E-05-2.92495E-05-4.34350E-07 1.95593E-19-1.35705E-18
 -1      1455 9.70685E-05-2.90922E-05-2.91326E-05-4.12683E-07 3.12826E-19-1.68254E-18
 -1      1456 9.75361E-05-2.92059E-05-2.92919E-05-9.53872E-07 2.51117E-19-2.49599E-18
 -1      1457 9.67723E-05-2.90076E-05-2.90407E-05-3.27478E-07-4.30508E-19-1.26018E-18
 -1      1458 9.64776E-05-2.89202E-05-2.89528E-05-3.09606E-07-8.23962E-19-2.61175E-18
 -1      1459 9.68729E-05-2.90154E-05-2.90882E-05-7.31135E-07-2.91116E-19-1.52883E-18
 -1      1460 9.62535E-05-2.88564E-05-2.88832E-05-2.39533E-07-1.17398E-18-2.36793E-18
 -1      1461 9.60394E-05-2.87936E-05-2.88191E-05-2.25251E-07-1.03884E-18-4.16298E-18
 -1      1462 9.63636E-05-2.88712E-05-2.89306E-05-5.44159E-07-1.10663E-18-2.55666E-18
 -1      1463 9.58747E-05-2.87469E-05-2.87679E-05-1.69345E-07 5.33354E-19-4.06932E-18
 -1      1464 9.57248E-05-2.87034E-05-2.87228E-05-1.58231E-07 7.68236E-19-2.80538E-18
 -1      1465 9.59829E-05-2.87649E-05-2.88120E-05-3.92463E-07-4.39115E-19-1.65503E-18
 -1      1466 9.56075E-05-2.86703E-05-2.86864E-05-1.14757E-07 1.17204E-18-2.22670E-18
 -1      1467 9.55071E-05-2.86416E-05-2.86561E-05-1.06307E-07 1.13854E-18-9.99555E-19
 -1      1468 9.57068E-05-2.86890E-05-2.87253E-05-2.72772E-07 1.87842E-18-1.55111E-18
 -1      1469 9.54270E-05-2.86190E-05-2.86312E-05-7.32641E-08 2.67426E-19 1.30555E-19
 -1      1470 9.53641E-05-2.86015E-05-2.86120E-05-6.69733E-08 1.04508E-20 1.23337E-19
 -1      1471 9.55134E-05-2.86366E-05-2.86640E-05-1.80589E-07 1.46933E-18 1.18336E-19
 -1      1472 9.53122E-05-2.85869E-05-2.85959E-05-4.23992E-08-2.07280E-19 2.03515E-19
 -1      1473 9.52771E-05-2.85776E-05-2.85851E-05-3.78097E-08 2.77409E-19 3.74694E-19
 -1      1474 9.53838E-05-2.86023E-05-2.86225E-05-1.11151E-07 3.66262E-19 3.05004E-19
 -1      1475 9.52463E-05-2.85690E-05-2.85755E-05-1.99623E-08 7.09005E-19-1.71586E-19
 -1      1476 9.52313E-05-2.85655E-05-2.85707E-05-1.66862E-08 3.41967E-19 1.05209E-18
 -1      1477 9.53024E-05-2.85815E-05-2.85961E-05-6.00095E-08 5.79852E-19 9.35472E-19
 -1      1478 9.52156E-05-2.85612E-05-2.85659E-05-4.18102E-09-3.23238E-19 1.04062E-18
 -1      1479 9.52147E-05-2.85619E-05-2.85652E-05-1.93451E-09-2.25772E-19 6.90601E-19
 -1      1480 9.52564E-05-2.85704E-05-2.85807E-05-2.34025E-08 1.15148E-19-4.55394E-19
 -1      1481 9.52092E-05-2.85606E-05-2.85635E-05 5.98556E-09 3.47892E-19 9.41995E-19
 -1      1482 9.52170E-05-2.85640E-05-2.85653E-05 7.28688E-09 6.07796E-19 1.14482E-18
 -1      1483 9.52352E-05-2.85665E-05-2.85730E-05 1.28089E-09 5.30018E-20-1.30996E-18
 -1      1484 9.52173E-05-2.85645E-05-2.85652E-05 1.03596E-08 9.97551E-20 1.38002E-18
 -1      1485 9.52286E-05-2.85696E-05-2.85675E-05 1.08207E-08-5.09099E-19 1.07543E-18
 -1      1486 9.52302E-05-2.85678E-05-2.85698E-05 1.47316E-08 6.70478E-19-1.18516E-18
 -1      1487 9.52338E-05-2.85738E-05-2.85672E-05 4.39736E-09-1.51255E-18 1.90910E-18
 -1      1488 9.52361E-05-2.85764E-05-2.85680E-05 1.30010E-08-1.06429E-18 4.51761E-19
 -1      1489 9.64621E-05-2.83323E-05-2.97321E-05 2.87901E-06 1.19540E-18 9.72719E-18
 -1      1490 1.02280E-04-2.93239E-05-3.20758E-05 4.33695E-06 9.83564E-19 1.15014E-17
 -1      1491 1.02180E-04-2.67006E-05-3.26521E-05 1.25308E-05 1.93235E-18 7.60519E-18
 -1      1492 9.21547E-05-2.74642E-05-2.77985E-05 1.03211E-06 8.29616E-19 7.44868E-18
 -1      1493 9.39745E-05-2.75824E-05-2.86727E-05 1.35566E-06 8.36511E-19 8.80157E-18
 -1      1494 9.65433E-05-2.80503E-05-2.95497E-05 4.63701E-06 1.79717E-18 5.89260E-18
 -1      1495 9.06017E-05-2.71190E-05-2.71871E-05 1.85159E-07 6.00732E-19 5.76872E-18
 -1      1496 9.10712E-05-2.70922E-05-2.74144E-05 3.55127E-07 6.18850E-19 6.74577E-18
 -1      1497 9.33412E-05-2.76608E-05-2.81933E-05 1.59235E-06 1.37743E-18 4.42278E-18
 -1      1498 9.04459E-05-2.71052E-05-2.71226E-05-2.50491E-07 3.72456E-19 4.77568E-18
 -1      1499 9.02942E-05-2.69835E-05-2.70928E-05-1.48789E-07 3.12016E-19 5.31148E-18
 -1      1500 9.20915E-05-2.74720E-05-2.77056E-05 1.86751E-07 8.46616E-19 3.36979E-18
 -1      1501 9.10661E-05-2.72997E-05-2.73135E-05-5.10304E-07 1.01517E-19 4.24960E-18
 -1      1502 9.05795E-05-2.71100E-05-2.71699E-05-4.41134E-07 1.87576E-19 4.56093E-18
 -1      1503 9.19590E-05-2.75018E-05-2.76344E-05-5.77924E-07 4.36090E-19 2.71352E-18
 -1      1504 9.21843E-05-2.76366E-05-2.76545E-05-6.93300E-07 1.87451E-19 3.88646E-18
 -1      1505 9.14819E-05-2.73954E-05-2.74452E-05-6.38972E-07 1.13883E-19 4.04818E-18
 -1      1506 9.25117E-05-2.76953E-05-2.77901E-05-1.05963E-06 2.30234E-19 2.26651E-18
 -1      1507 9.36806E-05-2.80833E-05-2.81082E-05-8.49878E-07 4.52815E-19 2.97144E-18
 -1      1508 9.28067E-05-2.77965E-05-2.78477E-05-7.99937E-07 3.54690E-19 3.50379E-18
 -1      1509 9.35337E-05-2.80107E-05-2.80943E-05-1.41878E-06 5.62106E-19 1.62844E-18
 -1      1510 9.55217E-05-2.86306E-05-2.86657E-05-1.01063E-06 3.05398E-19 2.04382E-18
 -1      1511 9.44803E-05-2.82953E-05-2.83548E-05-9.57664E-07 3.46331E-19 2.68618E-18
 -1      1512 9.49279E-05-2.84265E-05-2.85152E-05-1.74185E-06 5.98164E-19 1.31929E-18
 -1      1513 9.77273E-05-2.92852E-05-2.93334E-05-1.19563E-06 4.54544E-19 1.42120E-18
 -1      1514 9.64971E-05-2.88920E-05-2.89658E-05-1.13396E-06 2.39115E-19 1.75976E-18
 -1      1515 9.66663E-05-2.89380E-05-2.90433E-05-2.08186E-06 6.02452E-19 6.44400E-19
 -1      1516 1.00349E-04-3.00638E-05-3.01262E-05-1.41623E-06 1.29715E-19 1.02827E-18
 -1      1517 9.88930E-05-2.95990E-05-2.96914E-05-1.34188E-06 3.59235E-19 1.45353E-18
 -1      1518 9.87618E-05-2.95519E-05-2.96816E-05-2.47141E-06 4.97248E-19 3.69038E-19
 -1      1519 1.03447E-04-3.09872E-05-3.10613E-05-1.67237E-06 9.28229E-20 7.84485E-19
 -1      1520 1.01725E-04-3.04365E-05-3.05481E-05-1.58399E-06 7.41270E-20 9.20387E-19
 -1      1521 1.01248E-04-3.02825E-05-3.04381E-05-2.92343E-06 1.59432E-19 6.13427E-19
 -1      1522 1.07061E-04-3.20720E-05-3.21474E-05-1.94479E-06-2.07887E-20 8.82873E-19
 -1      1523 1.05047E-04-3.14260E-05-3.15498E-05-1.84619E-06-1.33590E-20 6.40502E-19
 -1      1524 1.04159E-04-3.11463E-05-3.13187E-05-3.42254E-06 7.51626E-20 3.40888E-19
 -1      1525 1.11157E-04-3.33162E-05-3.33679E-05-2.18101E-06 2.19949E-19 5.61331E-19
 -1      1526 1.08869E-04-3.25809E-05-3.26951E-05-2.08587E-06 2.20502E-20 8.02233E-19
 -1      1527 1.07492E-04-3.21555E-05-3.23159E-05-3.90637E-06 1.08323E-19 2.00787E-19
 -1      1528 1.15543E-04-3.46754E-05-3.46552E-05-2.27525E-06-3.79382E-20 2.54957E-19
 -1      1529 1.13098E-04-3.38898E-05-3.39474E-05-2.21437E-06 1.15879E-19 4.28890E-19
 -1      1530 1.11168E-04-3.33065E-05-3.33921E-05-4.23580E-06 3.81955E-19-6.48046E-20
 -1      1531 1.19755E-04-3.60261E-05-3.58566E-05-2.05009E-06 7.94524E-20 4.56763E-19
 -1      1532 1.17441E-04-3.52882E-05-3.52059E-05-2.07925E-06 3.33188E-20 4.44454E-19
 -1      1533 1.14956E-04-3.45601E-05-3.44597E-05-4.16069E-06 3.76466E-20-1.21344E-19
 -1      1534 1.22945E-04-3.71203E-05-3.67096E-05-1.26614E-06-2.88607E-19 5.79741E-19
 -1      1535 1.21293E-04-3.66144E-05-3.62758E-05-1.46615E-06-1.55179E-19 4.13167E-19
 -1      1536 1.18399E-04-3.58076E-05-3.53615E-05-3.30907E-06-1.05912E-19 5.95994E-19
 -1      1537 1.23869E-04-3.75549E-05-3.68624E-05 2.84159E-07 1.32428E-19 2.62117E-19
 -1      1538 1.23653E-04-3.75565E-05-3.68593E-05-1.65283E-07 1.04423E-20 4.72082E-19
 -1      1539 1.20750E-04-3.68208E-05-3.58752E-05-1.26925E-06-6.49039E-20 2.23448E-19
 -1      1540 1.21197E-04-3.68303E-05-3.59970E-05 2.53358E-06-1.28564E-19 5.66771E-19
 -1      1541 1.23221E-04-3.76340E-05-3.66147E-05 1.83729E-06 1.53432E-19 6.41442E-19
 -1      1542 1.21031E-04-3.72059E-05-3.57697E-05 2.12748E-06 3.73489E-20 8.15316E-19
 -1      1543 1.14347E-04-3.46127E-05-3.40734E-05 4.79368E-06-3.72231E-19 1.29173E-18
 -1      1544 1.18894E-04-3.63229E-05-3.53238E-05 4.05220E-06-4.44990E-19 9.44548E-19
 -1      1545 1.18366E-04-3.64533E-05-3.49370E-05 6.28104E-06-6.24925E-19 1.70688E-18
 -1      1546 1.04706E-04-3.12514E-05-3.15684E-05 5.68304E-06 6.42918E-20 1.72329E-18
 -1      1547 1.10786E-04-3.34711E-05-3.31371E-05 5.32194E-06-1.72773E-20 1.33895E-18
 -1      1548 1.12725E-04-3.42481E-05-3.35470E-05 9.38017E-06-1.60490E-19 1.90114E-18
 -1      1549 9.61107E-05-2.81201E-05-2.94525E-05 3.95218E-06 2.90334E-19 5.44960E-19
 -1      1550 1.01272E-04-2.98743E-05-3.07240E-05 4.35881E-06 3.75752E-19 8.33904E-19
 -1      1551 1.05793E-04-3.10956E-05-3.20915E-05 8.95966E-06 2.97309E-19 6.59389E-19
 -1      1552 9.31560E-05-2.70505E-05-2.87216E-05-5.25532E-08 8.78691E-19-1.39801E-18
 -1      1553 9.46658E-05-2.73076E-05-2.90874E-05 1.02020E-06 7.72653E-19-1.07414E-19
 -1      1554 1.00879E-04-2.85905E-05-3.11923E-05 3.96630E-06 1.03391E-18-2.95337E-19
 -1      1555 9.76263E-05-2.87421E-05-2.97606E-05-4.03283E-06 5.63515E-19-3.63044E-18
 -1      1556 9.46025E-05-2.73328E-05-2.90245E-05-2.93347E-06 6.95864E-19-2.50915E-18
 -1      1557 1.00918E-04-2.84973E-05-3.12622E-05-3.32577E-06 1.67535E-18-2.51279E-18
 -1      1558 1.06971E-04-3.21313E-05-3.20518E-05-5.75118E-06-3.28887E-20-3.60751E-18
 -1      1559 1.01101E-04-2.98810E-05-3.05844E-05-5.22561E-06-9.45699E-20-3.89042E-18
 -1      1560 1.05891E-04-3.08979E-05-3.22695E-05-8.70230E-06 6.75707E-19-3.64198E-18
 -1      1561 1.16438E-04-3.53574E-05-3.45479E-05-4.81694E-06-3.86121E-19-3.06044E-18
 -1      1562 1.10599E-04-3.33881E-05-3.30155E-05-4.95379E-06 1.30953E-19-2.59796E-18
 -1      1563 1.12903E-04-3.41965E-05-3.37560E-05-9.59730E-06-3.68049E-19-2.45835E-18
 -1      1564 1.22592E-04-3.72667E-05-3.63416E-05-2.53460E-06-2.81870E-19-2.03150E-18
 -1      1565 1.18810E-04-3.61823E-05-3.52791E-05-3.01475E-06-4.78891E-19-2.53988E-18
 -1      1566 1.18614E-04-3.65718E-05-3.51232E-05-6.77879E-06-8.63828E-19-1.50100E-18
 -1      1567 1.24558E-04-3.77240E-05-3.70574E-05-2.95593E-07 7.41021E-20-3.04720E-18
 -1      1568 1.23313E-04-3.75288E-05-3.66526E-05-7.88593E-07 2.43059E-19-2.55137E-18
 -1      1569 1.21356E-04-3.74163E-05-3.59221E-05-2.67560E-06 2.87554E-19-1.89048E-18
 -1      1570 1.23200E-04-3.71451E-05-3.68087E-05 1.22169E-06 2.30406E-19-4.04784E-18
 -1      1571 1.23933E-04-3.75477E-05-3.69628E-05 8.74981E-07 2.19203E-19-3.36372E-18
 -1      1572 1.21179E-04-3.70496E-05-3.60137E-05 8.05137E-07 2.25337E-19-2.23289E-18
 -1      1573 1.19899E-04-3.60242E-05-3.59348E-05 1.96482E-06 2.90132E-19-4.92364E-18
 -1      1574 1.21760E-04-3.67136E-05-3.64341E-05 1.78117E-06 7.44330E-20-4.42870E-18
 -1      1575 1.18968E-04-3.60346E-05-3.55174E-05 2.95254E-06 1.92998E-19-2.75157E-18
 -1      1576 1.15834E-04-3.47296E-05-3.47786E-05 2.14927E-06-3.50940E-19-5.24324E-18
 -1      1577 1.18115E-04-3.54874E-05-3.54226E-05 2.08541E-06 1.66508E-19-5.53664E-18
 -1      1578 1.15710E-04-3.48009E-05-3.46624E-05 3.87484E-06 4.29441E-19-3.77131E-18
 -1      1579 1.11773E-04-3.34780E-05-3.35848E-05 2.01569E-06-1.07484E-18-3.35347E-18
 -1      1580 1.14027E-04-3.41847E-05-3.42374E-05 2.02223E-06-7.98511E-19-4.37388E-18
 -1      1581 1.12155E-04-3.35895E-05-3.36662E-05 3.96904E-06-1.31627E-18-2.40430E-18
 -1      1582 1.08118E-04-3.23731E-05-3.24916E-05 1.74021E-06-5.68756E-19-1.18410E-18
 -1      1583 1.10121E-04-3.29782E-05-3.30800E-05 1.78065E-06-8.11696E-19-2.80970E-18
 -1      1584 1.08767E-04-3.25095E-05-3.26814E-05 3.61417E-06-1.51427E-18-1.24453E-18
 -1      1585 1.05028E-04-3.14497E-05-3.15585E-05 1.42785E-06 1.68579E-21-2.43575E-19
 -1      1586 1.06701E-04-3.19420E-05-3.20540E-05 1.48007E-06-3.78895E-19-4.83259E-19
 -1      1587 1.05778E-04-3.15972E-05-3.17935E-05 3.07418E-06-1.03063E-18-2.32934E-19
 -1      1588 1.02521E-04-3.07056E-05-3.07971E-05 1.13203E-06-3.23891E-19 1.14952E-19
 -1      1589 1.03861E-04-3.10928E-05-3.11964E-05 1.18435E-06-5.86438E-20-1.73840E-20
 -1      1590 1.03269E-04-3.08527E-05-3.10382E-05 2.50249E-06-3.91065E-19 2.83558E-21
 -1      1591 1.00544E-04-3.01220E-05-3.01952E-05 8.75063E-07 1.05555E-19-9.69264E-19
 -1      1592 1.01588E-04-3.04190E-05-3.05074E-05 9.22158E-07 2.90526E-19-4.63860E-19
 -1      1593 1.01235E-04-3.02603E-05-3.04206E-05 1.97531E-06 8.16533E-19 7.18606E-19
 -1      1594 9.90211E-05-2.96738E-05-2.97307E-05 6.62588E-07 8.44406E-19-2.66928E-18
 -1      1595 9.98163E-05-2.98971E-05-2.99690E-05 7.02614E-07 6.38712E-19-1.50521E-18
 -1      1596 9.96283E-05-2.97982E-05-2.99300E-05 1.52283E-06 1.09625E-18-8.79174E-19
 -1      1597 9.78707E-05-2.93360E-05-2.93794E-05 4.92355E-07 1.70534E-19-2.94823E-18
 -1      1598 9.84645E-05-2.95008E-05-2.95578E-05 5.25201E-07 1.62997E-19-2.85883E-18
 -1      1599 9.83858E-05-2.94440E-05-2.95491E-05 1.15081E-06 7.99248E-19-9.52449E-19
 -1      1600 9.70176E-05-2.90861E-05-2.91187E-05 3.58956E-07 6.08290E-19-4.02830E-18
 -1      1601 9.74528E-05-2.92054E-05-2.92496E-05 3.85280E-07 3.90051E-19-3.09848E-18
 -1      1602 9.74431E-05-2.91772E-05-2.92592E-05 8.53545E-07 7.26420E-19-2.32893E-18
 -1      1603 9.63972E-05-2.89048E-05-2.89289E-05 2.56203E-07-7.48062E-19-3.93998E-18
 -1      1604 9.67096E-05-2.89892E-05-2.90231E-05 2.76933E-07 5.49281E-20-4.09529E-18
 -1      1605 9.67408E-05-2.89797E-05-2.90425E-05 6.20902E-07 3.72556E-19-2.17653E-18
 -1      1606 9.59560E-05-2.87762E-05-2.87937E-05 1.78205E-07-1.20974E-18-1.11496E-18
 -1      1607 9.61749E-05-2.88344E-05-2.88599E-05 1.94303E-07-9.86592E-19-3.10266E-18
 -1      1608 9.62277E-05-2.88363E-05-2.88838E-05 4.41822E-07-1.73139E-18-4.14841E-19
 -1      1609 9.56508E-05-2.86875E-05-2.87001E-05 1.19792E-07-4.40151E-20 1.51691E-18
 -1      1610 9.57995E-05-2.87261E-05-2.87452E-05 1.32147E-07-9.15469E-19 2.69464E-19
 -1      1611 9.58611E-05-2.87346E-05-2.87700E-05 3.05945E-07-1.77708E-18 6.06488E-19
 -1      1612 9.54474E-05-2.86286E-05-2.86376E-05 7.66192E-08-6.06162E-20 1.11000E-18
 -1      1613 9.55440E-05-2.86530E-05-2.86670E-05 8.60090E-08 1.91305E-19 5.01128E-19
 -1      1614 9.56062E-05-2.86645E-05-2.86906E-05 2.04232E-07 1.51043E-21 2.24325E-18
 -1      1615 9.53192E-05-2.85918E-05-2.85980E-05 4.51284E-08 1.20358E-18 7.29505E-19
 -1      1616 9.53778E-05-2.86057E-05-2.86160E-05 5.22143E-08 1.06052E-18 1.63390E-18
 -1      1617 9.54354E-05-2.86181E-05-2.86370E-05 1.29100E-07 6.86169E-19 1.97950E-18
 -1      1618 9.52459E-05-2.85710E-05-2.85753E-05 2.24837E-08-2.28459E-19-1.42677E-19
 -1      1619 9.52770E-05-2.85775E-05-2.85849E-05 2.78073E-08-4.88551E-20-3.14797E-19
 -1      1620 9.53270E-05-2.85892E-05-2.86028E-05 7.43608E-08 8.12021E-19 8.60305E-19
 -1      1621 9.52117E-05-2.85617E-05-2.85645E-05 6.57101E-09 8.97219E-19-7.55720E-19
 -1      1622 9.52233E-05-2.85629E-05-2.85682E-05 1.05431E-08 4.27048E-19 8.24865E-21
 -1      1623 9.52640E-05-2.85730E-05-2.85826E-05 3.51804E-08 3.64596E-19-1.63657E-18
 -1      1624 9.52045E-05-2.85602E-05-2.85619E-05-4.11301E-09 2.00643E-19-1.81873E-18
 -1      1625 9.52027E-05-2.85580E-05-2.85617E-05-1.18342E-09 3.98443E-19-1.42671E-18
 -1      1626 9.52332E-05-2.85658E-05-2.85723E-05 8.01023E-09 6.57793E-19-1.55631E-18
 -1      1627 9.52139E-05-2.85639E-05-2.85640E-05-1.01415E-08 1.57513E-19-2.16225E-18
 -1      1628 9.52042E-05-2.85596E-05-2.85616E-05-8.16818E-09 2.34471E-19-1.71250E-18
 -1      1629 9.52239E-05-2.85648E-05-2.85686E-05-9.26501E-09 4.08950E-19-2.64894E-18
 -1      1630 9.52293E-05-2.85703E-05-2.85673E-05-1.00195E-08-1.89614E-20-1.66744E-18
 -1      1631 9.52179E-05-2.85658E-05-2.85647E-05-9.60588E-09 1.80507E-19-1.54805E-18
 -1      1632 9.52274E-05-2.85687E-05-2.85680E-05-1.66831E-08 2.77728E-19-1.63133E-18
 -1      1633 9.52341E-05-2.85743E-05-2.85671E-05-4.50466E-09-3.61337E-19-8.02319E-19
 -1      1634 9.52442E-05-2.85919E-05-2.85653E-05-1.03400E-08-2.42093E-18-1.21919E-18
 -1      1635 9.52398E-05-2.85816E-05-2.85674E-05-1.01951E-08-5.85461E-19-1.57743E-18
 -1      1636 9.52480E-05-2.86002E-05-2.85637E-05-5.18464E-09-1.53161E-18 1.41342E-18
 -1      1637 9.52453E-05-2.85934E-05-2.85652E-05-6.69234E-09-2.26435E-18 7.83034E-19
 -1      1638 9.52422E-05-2.85811E-05-2.85692E-05-1.46657E-08-1.01470E-18 2.60723E-20
 -1      1639 9.52471E-05-2.85976E-05-2.85644E-05 2.29867E-09-1.61495E-18 5.96193E-20
 -1      1640 9.52471E-05-2.85976E-05-2.85643E-05 6.84949E-10-1.60129E-18 6.96486E-19
 -1      1641 9.52433E-05-2.85796E-05-2.85706E-05-2.96130E-09-8.84656E-19 7.86221E-19
 -1      1642 9.52425E-05-2.85853E-05-2.85676E-05 8.26189E-09-5.53639E-19 3.83447E-20
 -1      1643 9.52447E-05-2.85912E-05-2.85659E-05 7.22303E-09-1.78593E-18 8.70934E-19
 -1      1644 9.52398E-05-2.85696E-05-2.85733E-05 1.01215E-08-1.50070E-18 1.13797E-19
 -1      1645 9.52363E-05-2.85678E-05-2.85723E-05 1.08818E-08-5.84400E-18-4.91155E-18
 -1      1646 9.52394E-05-2.85766E-05-2.85699E-05 1.06314E-08-1.17008E-18-3.48280E-18
 -1      1647 9.52335E-05-2.85534E-05-2.85773E-05 1.88154E-08-2.68299E-18-2.99458E-18
 -1      1648 9.52301E-05-2.85502E-05-2.85771E-05 9.82819E-09-4.24509E-18 1.11518E-18
 -1      1649 9.52331E-05-2.85589E-05-2.85747E-05 1.03253E-08-5.03229E-18-1.57764E-19
 -1      1650 9.52262E-05-2.85350E-05-2.85818E-05 2.08266E-08-2.82862E-18-3.83927E-18
 -1      1651 9.52258E-05-2.85382E-05-2.85804E-05 5.69860E-09-4.03463E-18-1.57380E-19
 -1      1652 9.52277E-05-2.85436E-05-2.85789E-05 6.72855E-09-4.19376E-18 2.27990E-19
 -1      1653 9.52199E-05-2.85189E-05-2.85858E-05 1.61624E-08-2.75703E-18 5.00749E-19
 -1      1654 9.52248E-05-2.85351E-05-2.85813E-05-8.99515E-11-4.10882E-18-2.98160E-19
 -1      1655 9.52249E-05-2.85356E-05-2.85811E-05 1.13995E-09-4.27757E-18 1.03764E-18
 -1      1656 9.52162E-05-2.85094E-05-2.85882E-05 6.64607E-09-2.51506E-18-8.24281E-19
 -1      1657 9.52271E-05-2.85416E-05-2.85795E-05-5.77085E-09-2.93754E-18 1.44467E-21
 -1      1658 9.52255E-05-2.85371E-05-2.85807E-05-4.71090E-09-3.69138E-18 1.06276E-18
 -1      1659 9.52160E-05-2.85088E-05-2.85883E-05-4.71180E-09-2.12396E-18 8.91630E-19
 -1      1660 9.52320E-05-2.85556E-05-2.85756E-05-9.61162E-09-2.22793E-18 4.18574E-20
 -1      1661 9.52292E-05-2.85477E-05-2.85778E-05-9.05805E-09-2.26847E-18-4.74707E-20
 -1      1662 9.52193E-05-2.85172E-05-2.85863E-05-1.45202E-08-2.92024E-18 7.36139E-19
 -1      1663 9.52380E-05-2.85725E-05-2.85710E-05-1.03144E-08-2.65028E-18 5.87970E-19
 -1      1664 9.52350E-05-2.85640E-05-2.85734E-05-1.04696E-08-2.22671E-18-6.59020E-19
 -1      1665 9.52252E-05-2.85323E-05-2.85825E-05-1.97517E-08-1.78939E-18-2.79677E-19
 -1      1666 9.52434E-05-2.85872E-05-2.85671E-05-7.35114E-09-2.40635E-18 1.16262E-18
 -1      1667 9.52412E-05-2.85812E-05-2.85688E-05-8.29331E-09-3.08028E-18 2.60068E-18
 -1      1668 9.52323E-05-2.85503E-05-2.85781E-05-1.85492E-08-1.22179E-18 1.48965E-18
 -1      1669 9.52460E-05-2.85944E-05-2.85652E-05-1.16953E-09-2.81353E-18 3.69400E-19
 -1      1670 9.52458E-05-2.85938E-05-2.85654E-05-2.74131E-09-2.90442E-18 5.89894E-19
 -1      1671 9.52387E-05-2.85667E-05-2.85741E-05-1.06770E-08-6.37469E-19 8.69516E-19
 -1      1672 9.52452E-05-2.85917E-05-2.85659E-05 5.51833E-09-1.95923E-18 2.64472E-19
 -1      1673 9.52469E-05-2.85971E-05-2.85645E-05 3.92654E-09-2.71826E-18 9.85734E-19
 -1      1674 9.52420E-05-2.85767E-05-2.85713E-05 1.71648E-09-1.77810E-19 7.70548E-19
 -1      1675 9.52400E-05-2.85798E-05-2.85684E-05 1.06346E-08-9.94016E-19 2.14498E-19
 -1      1676 9.52436E-05-2.85883E-05-2.85669E-05 1.08832E-08-1.34519E-18-1.18650E-19
 -1      1677 9.52428E-05-2.85763E-05-2.85710E-05 1.20790E-08-7.53512E-20 8.39237E-19
 -1      1678 9.52364E-05-2.85710E-05-2.85704E-05 1.74181E-08 1.03127E-19-9.53587E-19
 -1      1679 1.96190E-05-6.35338E-05 1.33871E-05-5.80121E-06-8.24163E-19 1.93314E-18
 -1      1680 2.25744E-05-7.25392E-05 1.54442E-05 1.60853E-06-3.50767E-18 7.36072E-19
 -1      1681 1.96361E-05-3.99920E-05 4.32049E-06 1.38671E-06 3.64817E-18 3.81906E-18
 -1      1682 2.40359E-05-6.11783E-05 9.98561E-06-1.40138E-06-2.47334E-19 2.87165E-18
 -1      1683 3.41219E-05-1.45894E-05-1.06676E-05 2.53162E-05 4.47233E-18 3.69560E-18
 -1      1684 2.92119E-05-3.47803E-05-2.37605E-06 8.86391E-06 4.23432E-18 2.51569E-18
 -1      1685 7.50237E-05-4.35436E-06-2.98167E-05 5.68736E-05 4.24702E-18 5.43118E-18
 -1      1686 5.08253E-05-1.13834E-05-1.95715E-05 3.34749E-05 4.26989E-18 4.17418E-18
 -1      1687 1.36653E-04-1.55484E-05-4.86334E-05 7.67415E-05 3.89550E-18 5.59381E-18
 -1      1688 9.68912E-05-4.84603E-06-3.92812E-05 6.28439E-05 4.52485E-18 5.34817E-18
 -1      1689 2.07221E-04-4.32142E-05-6.48666E-05 6.70215E-05 2.66297E-18 1.92276E-18
 -1      1690 1.61342E-04-2.11644E-05-5.69802E-05 7.51602E-05 3.52450E-18 4.31648E-18
 -1      1691 2.46731E-04-6.04550E-05-7.37585E-05 2.16074E-05 1.98460E-18-2.57710E-18
 -1      1692 2.20682E-04-4.64209E-05-6.97636E-05 5.00892E-05 2.58832E-18 3.65071E-19
 -1      1693 2.52015E-04-6.16894E-05-7.51360E-05-2.62725E-05 3.51095E-18-8.63847E-18
 -1      1694 2.57186E-04-6.47933E-05-7.59456E-05 9.32792E-06 2.23320E-18-4.74963E-18
 -1      1695 2.04392E-04-3.90641E-05-6.62736E-05-6.32146E-05 6.52364E-18-1.33060E-17
 -1      1696 2.41133E-04-5.83037E-05-7.19481E-05-3.98572E-05 4.57747E-18-9.61128E-18
 -1      1697 1.36638E-04-1.40508E-05-5.06332E-05-7.17948E-05 8.81041E-18-1.46892E-17
 -1      1698 1.83045E-04-3.34013E-05-5.94124E-05-7.32439E-05 7.15933E-18-1.45817E-17
 -1      1699 6.78054E-05-3.35210E-06-2.91891E-05-4.82704E-05 1.01500E-17-1.12511E-17
 -1      1700 1.07675E-04-7.18259E-06-4.08818E-05-7.22314E-05 9.53929E-18-1.40980E-17
 -1      1701 3.36817E-05-2.24930E-05-9.02213E-06-1.68225E-05 9.17167E-18-6.91009E-18
 -1      1702 4.63261E-05-5.10048E-06-1.87790E-05-3.94643E-05 9.88572E-18-9.87640E-18
 -1      1703 2.42842E-05-5.22691E-05 5.98742E-06 1.23299E-06 6.17656E-18-4.08736E-18
 -1      1704 2.19892E-05-2.87621E-05-9.76378E-07-7.96653E-06 8.66176E-18-5.50868E-18
 -1      1705 2.44506E-05-7.51824E-05 1.48951E-05 2.14984E-06-5.64124E-19-2.72215E-18
 -1      1706 1.91786E-05-5.88898E-05 1.12247E-05 7.08153E-06 4.33003E-18-4.25666E-18
 -1      1707 2.26752E-05-7.48195E-05 1.58384E-05-4.29829E-06-5.57475E-18-2.25099E-18
 -1      1708 2.33721E-05-7.71333E-05 1.63262E-05 5.28294E-06-2.06803E-18-1.79507E-18
 -1      1709 1.88816E-05-5.27586E-05 9.24340E-06-3.62665E-06-1.01119E-17-4.75429E-18
 -1      1710 2.42580E-05-7.13907E-05 1.35717E-05-1.03558E-06-6.88045E-18-3.07558E-18
 -1      1711 2.35159E-05-2.24221E-05-3.67410E-06 1.39217E-05-1.09623E-17-6.31929E-18
 -1      1712 2.43878E-05-4.56999E-05 3.60792E-06 2.57834E-06-1.06726E-17-4.43210E-18
 -1      1713 5.48898E-05-5.38269E-06-2.17816E-05 4.59418E-05-9.55030E-18-7.63261E-18
 -1      1714 3.90440E-05-1.89477E-05-1.20421E-05 2.37088E-05-1.02084E-17-7.05070E-18
 -1      1715 1.12803E-04-1.19104E-05-4.11470E-05 6.85870E-05-6.89485E-18-9.43679E-18
 -1      1716 7.87621E-05-7.60237E-06-3.12501E-05 5.06463E-05-8.32803E-18-8.05698E-18
 -1      1717 1.76364E-04-3.00301E-05-5.83235E-05 7.32804E-05-5.32148E-18-9.49100E-18
 -1      1718 1.32506E-04-1.12195E-05-5.00932E-05 7.26453E-05-7.06002E-18-1.00136E-17
 -1      1719 2.28231E-04-5.29476E-05-6.95784E-05 4.04154E-05-3.11613E-18-5.20714E-18
 -1      1720 1.94560E-04-3.54772E-05-6.43002E-05 6.08945E-05-4.65730E-18-7.84607E-18
 -1      1721 2.54039E-04-6.46228E-05-7.46018E-05-4.08276E-06-2.24951E-18-7.82473E-19
 -1      1722 2.45262E-04-5.97292E-05-7.35198E-05 3.08515E-05-2.35475E-18-4.59685E-18
 -1      1723 2.26563E-04-4.99777E-05-7.02182E-05-5.07238E-05-2.55825E-18 2.83798E-18
 -1      1724 2.48749E-04-6.25367E-05-7.33837E-05-2.07833E-05-1.99921E-18 5.83606E-19
 -1      1725 1.68761E-04-2.34507E-05-5.87438E-05-7.56770E-05-3.55309E-18 5.56247E-18
 -1      1726 2.10671E-04-4.44316E-05-6.55740E-05-6.46567E-05-2.45872E-18 4.30970E-18
 -1      1727 1.02523E-04-3.09994E-06-4.18273E-05-6.77423E-05-5.81488E-18 6.70765E-18
 -1      1728 1.44379E-04-1.65905E-05-5.09953E-05-7.90329E-05-4.48589E-18 6.67123E-18
 -1      1729 5.37187E-05-6.52251E-06-2.22708E-05-3.92915E-05-6.61279E-18 5.77084E-18
 -1      1730 8.02660E-05-2.00589E-06-3.24308E-05-6.23899E-05-5.95464E-18 6.77965E-18
 -1      1731 2.83021E-05-2.86599E-05-4.33857E-06-1.16648E-05-6.52893E-18 3.80826E-18
 -1      1732 3.47796E-05-8.37420E-06-1.30786E-05-3.02014E-05-6.85504E-18 5.54087E-18
 -1      1733 2.41964E-05-5.91492E-05 9.06055E-06-3.18813E-07-4.95514E-18 2.67784E-18
 -1      1734 1.99205E-05-3.58260E-05 2.78324E-06-4.95881E-06-6.04104E-18 3.09506E-18
 -1      1735 2.33036E-05-7.48911E-05 1.57417E-05-3.27766E-06-3.88788E-18-1.58819E-19
 -1      1736 1.98406E-05-6.41871E-05 1.32803E-05 5.01122E-06-4.36222E-18 1.68221E-18
 -1      1737 1.13675E-04-3.30474E-05-3.39900E-05 4.42850E-05 1.67628E-18 2.49790E-18
 -1      1738 7.23981E-05-3.71790E-05-1.65798E-05 3.79596E-05 1.49925E-18 2.37085E-18
 -1      1739 9.52369E-05-2.85775E-05-2.85675E-05-1.09517E-08-1.04358E-18-2.88212E-19
 -1      1740 9.52356E-05-2.85750E-05-2.85685E-05-1.78664E-08-1.15197E-19-1.84592E-18
 -1      1741 1.85866E-05-4.59997E-05 7.83358E-06 1.37095E-05-7.38613E-19 3.86332E-18
 -1      1742 3.93463E-05-4.24777E-05-1.78079E-06 2.66985E-05 6.21722E-19 2.49017E-18
 -1      1743 1.13622E-05-4.75076E-05 1.13270E-05-7.44415E-07-2.09270E-18 1.18119E-18
 -1      1744 1.58569E-04-3.26901E-05-5.09978E-05 4.34891E-05 2.96462E-18 1.28071E-18
 -1      1745 1.91658E-04-3.27258E-05-6.36804E-05 2.59418E-05 3.39448E-18-1.59115E-18
 -1      1746 2.07735E-04-3.24673E-05-7.01872E-05 4.39574E-06 4.11616E-18-4.11870E-18
 -1      1747 2.08196E-04-3.40791E-05-6.92899E-05-1.36820E-05 5.52562E-18-7.20571E-18
 -1      1748 1.83018E-04-3.38788E-05-5.98403E-05-3.17903E-05 5.80159E-18-8.29923E-18
 -1      1749 1.40006E-04-3.21128E-05-4.41127E-05-4.49173E-05 6.12574E-18-1.00289E-17
 -1      1750 8.94981E-05-3.30500E-05-2.47634E-05-4.22757E-05 5.68105E-18-8.41739E-18
 -1      1751 4.97124E-05-3.93259E-05-7.15219E-06-3.04798E-05 5.30920E-18-5.64378E-18
 -1      1752 2.47259E-05-4.72420E-05 5.51646E-06-1.68437E-05 1.97867E-18-5.55950E-18
 -1      1753 1.34350E-05-5.24801E-05 1.18936E-05-3.66984E-06-8.02564E-19-4.49266E-18
 -1      1754 1.43939E-05-5.12376E-05 1.10805E-05 8.43180E-06-3.89466E-18-4.23516E-18
 -1      1755 2.76448E-05-4.47093E-05 3.54823E-06 2.12838E-05-5.51334E-18-4.21907E-18
 -1      1756 5.59769E-05-3.72522E-05-9.88288E-06 3.57639E-05-5.79201E-18-4.32474E-18
 -1      1757 9.91507E-05-3.60479E-05-2.67839E-05 4.32597E-05-5.09787E-18-4.13818E-18
 -1      1758 1.39714E-04-3.36301E-05-4.38897E-05 4.10342E-05-4.54730E-18-5.50656E-18
 -1      1759 1.74778E-04-3.03806E-05-5.82571E-05 3.19118E-05-4.59394E-18-4.39483E-18
 -1      1760 1.99878E-04-3.16568E-05-6.74395E-05 1.39293E-05-4.13183E-18-3.85654E-18
 -1      1761 2.10791E-04-3.43623E-05-7.01186E-05-5.32606E-06-3.71255E-18-2.07904E-18
 -1      1762 1.94553E-04-3.28177E-05-6.45972E-05-2.87828E-05-3.19141E-18 1.05710E-18
 -1      1763 1.60102E-04-2.95593E-05-5.27539E-05-4.47993E-05-3.36039E-18 3.13910E-18
 -1      1764 1.16656E-04-2.93449E-05-3.63514E-05-4.67672E-05-3.11962E-18 4.19281E-18
 -1      1765 7.41032E-05-3.26769E-05-1.87497E-05-4.08894E-05-3.60074E-18 3.49316E-18
 -1      1766 4.02156E-05-3.98069E-05-3.12406E-06-2.89820E-05-3.63716E-18 3.09310E-18
 -1      1767 1.95028E-05-4.67958E-05 7.62598E-06-1.60345E-05-3.09379E-18 2.72300E-18
 -1      1768 1.05813E-04-2.31404E-05-3.55179E-05-1.66002E-05-1.69850E-18 5.24610E-18
 -1      1769 8.92920E-05-1.05803E-05-3.38596E-05-1.28323E-05-1.99457E-18-3.09077E-18
 -1      1770 9.06365E-05-1.16603E-05-3.39863E-05-1.46533E-05-2.31955E-18-2.47064E-18
 -1      1771 9.26227E-05-1.39285E-05-3.38871E-05-1.55594E-05-2.33269E-18-1.64827E-18
 -1      1772 9.42927E-05-1.58821E-05-3.41032E-05-1.72443E-05-2.52151E-18-4.61315E-19
 -1      1773 9.35677E-05-1.63672E-05-3.30999E-05-1.32821E-05-2.46102E-18-1.91469E-18
 -1      1774 8.62031E-05-7.48815E-06-3.38072E-05-7.42977E-06-9.20190E-19-4.03499E-18
 -1      1775 8.66516E-05-7.82335E-06-3.38431E-05-8.78646E-06-1.18170E-18-3.94136E-18
 -1      1776 8.54889E-05-6.76650E-06-3.37978E-05-4.98328E-06-4.41629E-19-4.12179E-18
 -1      1777 8.57676E-05-6.97394E-06-3.38169E-05-6.23608E-06-6.97932E-19-4.13393E-18
 -1      1778 8.75098E-05-9.57545E-06-3.34309E-05-6.48265E-06-8.77636E-19-3.97527E-18
 -1      1779 8.50759E-05-6.34240E-06-3.37948E-05-2.68566E-06 2.88918E-20-4.03176E-18
 -1      1780 8.52285E-05-6.45700E-06-3.38040E-05-3.85871E-06-1.73234E-19-4.08979E-18
 -1      1781 8.67620E-05-8.76018E-06-3.34591E-05-4.20609E-06-3.05358E-19-3.97472E-18
 -1      1782 8.49078E-05-6.16148E-06-3.37956E-05-4.71940E-07 4.44008E-19-3.83190E-18
 -1      1783 8.49546E-05-6.19739E-06-3.37980E-05-1.60643E-06 2.55812E-19-3.97535E-18
 -1      1784 8.63498E-05-8.31030E-06-3.34748E-05-2.04023E-06 1.50242E-19-3.88230E-18
 -1      1785 8.49656E-05-6.20421E-06-3.37996E-05 1.72693E-06 8.69746E-19-3.65197E-18
 -1      1786 8.49116E-05-6.16474E-06-3.37960E-05 5.91940E-07 6.39119E-19-3.76079E-18
 -1      1787 8.62231E-05-8.17015E-06-3.34803E-05 6.73740E-08 5.19549E-19-3.70468E-18
 -1      1788 8.52567E-05-6.47756E-06-3.38074E-05 3.98118E-06 1.26192E-18-3.51803E-18
 -1      1789 8.50955E-05-6.35709E-06-3.37972E-05 2.80627E-06 1.07819E-18-3.64486E-18
 -1      1790 8.63682E-05-8.32512E-06-3.34763E-05 2.17474E-06 1.02775E-18-3.55251E-18
 -1      1791 8.58062E-05-7.00415E-06-3.38208E-05 6.32153E-06 1.68706E-18-3.16477E-18
 -1      1792 8.55225E-05-6.79247E-06-3.38016E-05 5.08662E-06 1.47932E-18-3.37817E-18
 -1      1793 8.67975E-05-8.78911E-06-3.34618E-05 4.32075E-06 1.47958E-18-3.34829E-18
 -1      1794 8.67247E-05-7.88863E-06-3.38459E-05 8.90187E-06 2.17710E-18-2.54732E-18
 -1      1795 8.62563E-05-7.53638E-06-3.38104E-05 7.51438E-06 1.90696E-18-2.88255E-18
 -1      1796 8.75650E-05-9.62405E-06-3.34337E-05 6.57396E-06 1.93592E-18-2.88604E-18
 -1      1797 8.82215E-05-9.33473E-06-3.38952E-05 1.17491E-05 2.56920E-18-1.67178E-18
 -1      1798 8.74490E-05-8.74194E-06-3.38277E-05 1.01672E-05 2.35107E-18-2.22656E-18
 -1      1799 8.88094E-05-1.09811E-05-3.33842E-05 8.97391E-06 2.40121E-18-2.24710E-18
 -1      1800 9.07899E-05-1.18672E-05-3.39809E-05 1.48169E-05 2.87401E-18-1.09214E-19
 -1      1801 8.94120E-05-1.07418E-05-3.38565E-05 1.30164E-05 2.64508E-18-1.00109E-18
 -1      1802 9.07981E-05-1.31609E-05-3.32911E-05 1.14284E-05 2.78558E-18-1.16449E-18
 -1      1803 9.59426E-05-1.70843E-05-3.39971E-05 1.72740E-05 2.72802E-18 2.57360E-18
 -1      1804 9.29889E-05-1.43938E-05-3.38606E-05 1.57464E-05 2.75683E-18 9.53336E-19
 -1      1805 9.41196E-05-1.69056E-05-3.30804E-05 1.33936E-05 2.93363E-18 4.83947E-19
 -1      1806 1.01844E-04-2.50939E-05-3.33215E-05 1.41075E-05 2.27704E-18 5.83034E-18
 -1      1807 9.80904E-05-1.96576E-05-3.36139E-05 1.65928E-05 2.49366E-18 3.70090E-18
 -1      1808 9.74268E-05-2.18914E-05-3.24504E-05 1.28297E-05 2.80474E-18 2.52913E-18
 -1      1809 9.87600E-05-2.61483E-05-3.13364E-05 9.12943E-06 2.40264E-18 5.04922E-18
 -1      1810 1.00106E-04-1.95981E-05-3.41844E-05-1.85233E-05-2.21794E-18 1.69142E-18
 -1      1811 9.55093E-05-2.73294E-05-2.92483E-05 3.74018E-06 1.89664E-18 3.90034E-18
 -1      1812 9.78276E-05-2.74097E-05-3.02211E-05 6.08561E-06 2.08243E-18 4.59005E-18
 -1      1813 9.77040E-05-2.56506E-05-3.08736E-05 8.37420E-06 2.43522E-18 3.09051E-18
 -1      1814 9.98364E-05-2.25656E-05-3.28365E-05-1.40867E-05-2.34213E-18 7.94199E-19
 -1      1815 9.71520E-05-2.70146E-05-2.99429E-05-5.31106E-06-2.01416E-18 5.51102E-19
 -1      1816 9.54603E-05-2.70900E-05-2.92705E-05-3.47953E-06-1.70890E-18 3.83216E-20
 -1      1817 9.47355E-05-2.73043E-05-2.88012E-05-1.94724E-06-1.52408E-18-2.02361E-20
 -1      1818 9.41091E-05-2.74146E-05-2.85418E-05-1.04283E-06-1.29409E-18-4.15278E-19
 -1      1819 9.58567E-05-2.65805E-05-2.97127E-05-3.89498E-06-1.91684E-18-6.61601E-19
 -1      1820 9.37104E-05-2.74890E-05-2.83201E-05-1.31878E-07-1.01163E-18-4.52084E-19
 -1      1821 9.35969E-05-2.75956E-05-2.82557E-05 3.81129E-07-8.26856E-19-7.88050E-19
 -1      1822 9.48630E-05-2.72783E-05-2.89879E-05-1.09214E-06-1.45229E-18-8.96326E-19
 -1      1823 9.34846E-05-2.76576E-05-2.81787E-05 9.49480E-07-7.19048E-19-8.69560E-19
 -1      1824 9.36965E-05-2.77934E-05-2.82224E-05 1.27191E-06-6.15085E-19-8.92682E-19
 -1      1825 9.44458E-05-2.76278E-05-2.86560E-05 5.96007E-07-9.53078E-19-1.15434E-18
 -1      1826 9.38025E-05-2.78730E-05-2.82378E-05 1.65452E-06-5.28203E-19-8.33226E-19
 -1      1827 9.42301E-05-2.80393E-05-2.83505E-05 1.88013E-06-3.29767E-19-1.01466E-18
 -1      1828 9.44914E-05-2.78799E-05-2.85640E-05 1.68590E-06-6.56108E-19-1.20694E-18
 -1      1829 9.45001E-05-2.81432E-05-2.84290E-05 2.16226E-06-4.86488E-19-9.86451E-19
 -1      1830 9.50828E-05-2.83383E-05-2.85904E-05 2.33840E-06-4.40592E-19-1.11023E-18
 -1      1831 9.48962E-05-2.81231E-05-2.86300E-05 2.44936E-06-5.38160E-19-1.17438E-18
 -1      1832 9.54804E-05-2.84683E-05-2.87141E-05 2.56572E-06-3.99508E-19-9.77772E-19
 -1      1833 9.61841E-05-2.86927E-05-2.89125E-05 2.71492E-06-4.24554E-19-1.08744E-18
 -1      1834 9.55800E-05-2.83907E-05-2.88058E-05 3.03399E-06-4.69474E-19-1.08425E-18
 -1      1835 9.66860E-05-2.88515E-05-2.90692E-05 2.90719E-06-7.98454E-19-1.06769E-18
 -1      1836 9.74880E-05-2.91076E-05-2.92959E-05 3.03429E-06-6.00151E-19-1.22342E-18
 -1      1837 9.64899E-05-2.87027E-05-2.90602E-05 3.51436E-06-6.05154E-19-1.30386E-18
 -1      1838 9.80790E-05-2.92999E-05-2.94757E-05 3.18991E-06-5.72290E-19-1.30093E-18
 -1      1839 9.89571E-05-2.95907E-05-2.97223E-05 3.28335E-06-5.79074E-19-1.73876E-18
 -1      1840 9.75922E-05-2.90790E-05-2.93700E-05 3.91237E-06-8.45875E-19-1.42170E-18
 -1      1841 9.96241E-05-2.98231E-05-2.99151E-05 3.37953E-06-5.63961E-19-1.72877E-18
 -1      1842 1.00546E-04-3.01497E-05-3.01701E-05 3.41027E-06-2.67772E-19-2.08404E-18
 -1      1843 9.88628E-05-2.95426E-05-2.97146E-05 4.20269E-06-7.51684E-19-1.43473E-18
 -1      1844 1.01273E-04-3.04287E-05-3.03638E-05 3.40180E-06-7.91533E-20-2.28937E-18
 -1      1845 1.02187E-04-3.07858E-05-3.06099E-05 3.32255E-06 5.09312E-20-2.07866E-18
 -1      1846 1.00277E-04-3.01190E-05-3.00722E-05 4.31188E-06-2.93848E-19-1.76249E-18
 -1      1847 1.02949E-04-3.11142E-05-3.07896E-05 3.14243E-06 1.75855E-19-2.16365E-18
 -1      1848 1.03773E-04-3.14840E-05-3.10025E-05 2.89080E-06 3.23146E-20-2.05100E-18
 -1      1849 1.01796E-04-3.08283E-05-3.04172E-05 4.11770E-06-1.67090E-21-1.71193E-18
 -1      1850 1.04524E-04-3.18524E-05-3.11506E-05 2.45774E-06 7.94226E-20-2.14929E-18
 -1      1851 1.05142E-04-3.21951E-05-3.12986E-05 1.96872E-06-1.29824E-19-1.80500E-18
 -1      1852 1.03352E-04-3.16694E-05-3.07205E-05 3.45760E-06 1.17880E-19-1.81306E-18
 -1      1853 1.05811E-04-3.25687E-05-3.13974E-05 1.20951E-06-4.90720E-19-1.61437E-18
 -1      1854 1.06075E-04-3.28121E-05-3.14463E-05 4.44158E-07-2.37345E-19-1.58217E-18
 -1      1855 1.04827E-04-3.25890E-05-3.09531E-05 2.16007E-06-1.52158E-19-1.66210E-18
 -1      1856 1.06546E-04-3.31135E-05-3.14829E-05-6.60692E-07-4.31881E-19-1.18331E-18
 -1      1857 1.06306E-04-3.31490E-05-3.14049E-05-1.66672E-06-4.36361E-19-1.29822E-18
 -1      1858 1.06024E-04-3.34390E-05-3.10936E-05 1.16419E-07-2.43012E-19-1.01527E-18
 -1      1859 1.06426E-04-3.32503E-05-3.13778E-05-3.01244E-06-6.73262E-19-1.44017E-18
 -1      1860 1.05579E-04-3.29530E-05-3.11662E-05-4.09189E-06-4.40361E-19-1.61842E-18
 -1      1861 1.06657E-04-3.39409E-05-3.11388E-05-2.59377E-06-8.24424E-19-2.90737E-19
 -1      1862 1.05195E-04-3.27039E-05-3.10900E-05-5.38057E-06 2.75713E-19-1.94365E-18
 -1      1863 1.03772E-04-3.19966E-05-3.07726E-05-6.20896E-06 8.50474E-20-1.52314E-18
 -1      1864 1.06391E-04-3.37161E-05-3.11112E-05-5.54506E-06-1.85156E-19-5.77162E-19
 -1      1865 1.02841E-04-3.13189E-05-3.06760E-05-6.95288E-06-1.88288E-19-1.39294E-18
 -1      1866 1.01089E-04-3.02771E-05-3.03197E-05-7.12061E-06 2.68719E-19-1.20535E-18
 -1      1867 1.04995E-04-3.24538E-05-3.10546E-05-7.87634E-06 9.33755E-20-6.24363E-19
 -1      1868 9.98172E-05-2.93034E-05-3.02349E-05-6.81389E-06 5.39964E-19-1.32140E-18
 -1      1869 9.82050E-05-2.82296E-05-2.99305E-05-6.03688E-06 8.83184E-19-1.27303E-18
 -1      1870 1.02628E-04-3.02296E-05-3.10144E-05-8.45563E-06 1.70900E-19-6.66090E-19
 -1      1871 9.70964E-05-2.73559E-05-2.98777E-05-4.50014E-06 5.21243E-19-1.21574E-18
 -1      1872 9.61668E-05-2.66940E-05-2.97113E-05-2.87590E-06 1.81569E-19-1.64334E-18
 -1      1873 1.00051E-04-2.77592E-05-3.10077E-05-6.45243E-06 7.83542E-19-5.08552E-19
 -1      1874 9.57851E-05-2.63858E-05-2.96980E-05-5.29558E-07-6.91523E-20-1.65784E-18
 -1      1875 9.58964E-05-2.64601E-05-2.97193E-05 1.39562E-06-7.05353E-20-1.24462E-18
 -1      1876 9.84284E-05-2.61827E-05-3.10173E-05-2.09273E-06 1.07765E-19-8.08900E-19
 -1      1877 9.64617E-05-2.69016E-05-2.97466E-05 3.65548E-06-9.60257E-20-1.38211E-18
 -1      1878 9.75755E-05-2.76754E-05-2.99507E-05 5.15852E-06 1.86407E-19-1.27281E-18
 -1      1879 9.86261E-05-2.63570E-05-3.10233E-05 3.11164E-06-1.61380E-19-5.87137E-19
 -1      1880 9.87803E-05-2.86084E-05-3.00178E-05 6.49109E-06 1.40753E-20-1.49570E-18
 -1      1881 1.00488E-04-2.97141E-05-3.03474E-05 7.09743E-06-7.96062E-20-1.43558E-18
 -1      1882 1.00546E-04-2.81851E-05-3.10287E-05 7.13239E-06 5.49513E-20-1.23972E-18
 -1      1883 1.01752E-04-3.06611E-05-3.04457E-05 7.19790E-06-1.70843E-19-2.06168E-18
 -1      1884 1.03508E-04-3.16654E-05-3.08122E-05 6.89371E-06 1.40174E-19-2.40573E-18
 -1      1885 1.03211E-04-3.06969E-05-3.10581E-05 8.66565E-06-1.43359E-19-1.70081E-18
 -1      1886 1.04375E-04-3.22728E-05-3.09186E-05 6.02879E-06 5.01847E-19-2.67659E-18
 -1      1887 1.05749E-04-3.29151E-05-3.12341E-05 5.14221E-06-1.66442E-19-2.44887E-18
 -1      1888 1.05492E-04-3.27860E-05-3.11237E-05 7.72254E-06 1.32736E-19-2.26287E-18
 -1      1889 1.06068E-04-3.30977E-05-3.13170E-05 3.83749E-06-4.72671E-19-1.95362E-18
 -1      1890 1.06859E-04-3.33395E-05-3.15225E-05 2.77525E-06 2.36286E-19-1.82037E-18
 -1      1891 1.06743E-04-3.38587E-05-3.12030E-05 5.24722E-06 2.30201E-19-1.49506E-18
 -1      1892 1.06709E-04-3.32005E-05-3.15553E-05 1.49179E-06 4.95729E-19-1.70478E-18
 -1      1893 1.06921E-04-3.31366E-05-3.16306E-05 5.51368E-07 1.10286E-18-1.27876E-18
 -1      1894 1.06904E-04-3.39354E-05-3.12497E-05 2.35613E-06 4.20568E-19-1.53094E-18
 -1      1895 1.06462E-04-3.28283E-05-3.16025E-05-4.52593E-07 7.00791E-19-1.20693E-18
 -1      1896 1.06214E-04-3.25849E-05-3.15605E-05-1.13241E-06-1.63368E-19-1.40962E-18
 -1      1897 1.06247E-04-3.33643E-05-3.12235E-05-1.67855E-07 5.36804E-19-5.54562E-19
 -1      1898 1.05595E-04-3.22261E-05-3.14760E-05-1.78162E-06-5.87378E-19-1.05915E-18
 -1      1899 1.05044E-04-3.19062E-05-3.13471E-05-2.18347E-06-3.76993E-19-9.66102E-19
 -1      1900 1.05109E-04-3.25145E-05-3.11078E-05-1.97643E-06-1.08630E-19-1.08845E-18
 -1      1901 1.04370E-04-3.15656E-05-3.12206E-05-2.51235E-06-3.44651E-19-1.05877E-18
 -1      1902 1.03661E-04-3.12359E-05-3.10398E-05-2.68355E-06-3.62242E-19-8.80831E-19
 -1      1903 1.03762E-04-3.16394E-05-3.09103E-05-3.03720E-06-3.27210E-19-1.18425E-18
 -1      1904 1.03001E-04-3.09430E-05-3.08890E-05-2.77106E-06-7.12233E-19-3.04655E-19
 -1      1905 1.02245E-04-3.06394E-05-3.06867E-05-2.77924E-06-3.31911E-19 3.68724E-20
 -1      1906 1.02386E-04-3.08678E-05-3.06541E-05-3.48055E-06-1.05126E-19 5.54782E-20
 -1      1907 1.01635E-04-3.04007E-05-3.05279E-05-2.70844E-06-5.09769E-19 6.43819E-19
 -1      1908 1.00907E-04-3.01389E-05-3.03268E-05-2.61672E-06-1.36891E-19 5.28137E-19
 -1      1909 1.01087E-04-3.02420E-05-3.03674E-05-3.48610E-06-2.13192E-19 6.17130E-19
 -1      1910 1.00368E-04-2.99504E-05-3.01726E-05-2.45653E-06-3.83731E-19-4.44196E-19
 -1      1911 9.97115E-05-2.97342E-05-2.99871E-05-2.31386E-06-8.46768E-20-6.39870E-19
 -1      1912 9.99217E-05-2.97591E-05-3.00756E-05-3.22083E-06-8.25424E-19 2.28053E-19
 -1      1913 9.92493E-05-2.95883E-05-2.98460E-05-2.11432E-06 8.38634E-19-1.16114E-18
 -1      1914 9.86853E-05-2.94154E-05-2.96836E-05-1.95430E-06 5.69078E-19-6.87987E-19
 -1      1915 9.89127E-05-2.93976E-05-2.97982E-05-2.81506E-06 6.70264E-20 8.27076E-19
 -1      1916 9.82999E-05-2.93041E-05-2.95601E-05-1.74820E-06-6.76981E-19-8.78771E-19
 -1      1917 9.78331E-05-2.91695E-05-2.94237E-05-1.59166E-06-8.51568E-19-1.48564E-18
 -1      1918 9.80637E-05-2.91327E-05-2.95476E-05-2.35960E-06-1.41794E-19-5.79559E-19
 -1      1919 9.75193E-05-2.90858E-05-2.93194E-05-1.39837E-06 8.35760E-19-1.52727E-18
 -1      1920 9.71449E-05-2.89835E-05-2.92087E-05-1.25671E-06 1.26929E-18-6.70020E-19
 -1      1921 9.73670E-05-2.89418E-05-2.93304E-05-1.91177E-06 1.03650E-19-6.52194E-19
 -1      1922 9.68951E-05-2.89215E-05-2.91233E-05-1.08614E-06 1.94516E-20-9.82161E-19
 -1      1923 9.66032E-05-2.88456E-05-2.90360E-05-9.64425E-07-9.08413E-19-8.80793E-19
 -1      1924 9.68079E-05-2.88064E-05-2.91482E-05-1.50380E-06 5.43205E-19 3.94836E-19
 -1      1925 9.64086E-05-2.88004E-05-2.89679E-05-8.20239E-07-4.50788E-19-1.82827E-19
 -1      1926 9.61871E-05-2.87456E-05-2.89009E-05-7.19582E-07-1.81776E-19 5.79407E-19
 -1      1927 9.63688E-05-2.87121E-05-2.89998E-05-1.15069E-06 3.29429E-20 5.42919E-19
 -1      1928 9.60389E-05-2.87132E-05-2.88480E-05-6.01682E-07-4.85289E-19 1.12754E-18
 -1      1929 9.58755E-05-2.86749E-05-2.87981E-05-5.20920E-07 3.55507E-19 1.26394E-18
 -1      1930 9.60315E-05-2.86480E-05-2.88820E-05-8.56422E-07-3.76457E-19 3.48147E-18
 -1      1931 9.57652E-05-2.86524E-05-2.87580E-05-4.27114E-07 7.90966E-19 1.40541E-19
 -1      1932 9.56484E-05-2.86265E-05-2.87218E-05-3.63953E-07 1.70334E-18 2.88289E-19
 -1      1933 9.57781E-05-2.86057E-05-2.87909E-05-6.18475E-07 9.85048E-20 2.30266E-18
 -1      1934 9.55685E-05-2.86114E-05-2.86923E-05-2.91087E-07 2.46110E-18-5.19547E-19
 -1      1935 9.54881E-05-2.85949E-05-2.86670E-05-2.42813E-07 1.63629E-18 1.05955E-19
 -1      1936 9.55924E-05-2.85791E-05-2.87222E-05-4.30931E-07 1.07682E-18 5.39770E-19
 -1      1937 9.54320E-05-2.85852E-05-2.86459E-05-1.87472E-07 8.42591E-19 1.13533E-18
 -1      1938 9.53795E-05-2.85757E-05-2.86290E-05-1.51386E-07 9.70778E-19 2.09892E-18
 -1      1939 9.54602E-05-2.85635E-05-2.86717E-05-2.86505E-07 1.80824E-18 5.31111E-19
 -1      1940 9.53416E-05-2.85700E-05-2.86144E-05-1.10339E-07 4.24574E-19 1.51038E-18
 -1      1941 9.53099E-05-2.85654E-05-2.86039E-05-8.40339E-08 3.65443E-19 1.07761E-18
 -1      1942 9.53693E-05-2.85558E-05-2.86357E-05-1.77806E-07 5.94935E-19 1.20221E-18
 -1      1943 9.52855E-05-2.85625E-05-2.85942E-05-5.45203E-08-5.81486E-19 4.28096E-19
 -1      1944 9.52687E-05-2.85615E-05-2.85882E-05-3.60979E-08-7.94935E-19-2.64155E-19
 -1      1945 9.53096E-05-2.85534E-05-2.86108E-05-9.81582E-08-2.96045E-19 1.15329E-18
 -1      1946 9.52539E-05-2.85609E-05-2.85819E-05-1.58383E-08-1.46840E-19-2.61241E-19
 -1      1947 9.52476E-05-2.85626E-05-2.85789E-05-4.24527E-09 8.81819E-19 9.81140E-20
 -1      1948 9.52725E-05-2.85548E-05-2.85939E-05-4.21403E-08-8.48218E-19 1.04339E-18
 -1      1949 9.52398E-05-2.85638E-05-2.85748E-05 7.26026E-09 1.27697E-18-1.06332E-18
 -1      1950 9.52396E-05-2.85679E-05-2.85733E-05 1.19805E-08 4.48760E-19-4.06851E-19
 -1      1951 9.52433E-05-2.85698E-05-2.85748E-05 1.20354E-08 3.22807E-19 5.98801E-19
 -1      1952 9.52521E-05-2.85607E-05-2.85827E-05-6.44106E-09 1.84509E-19 1.81227E-18
 -1      1953 9.36531E-05-2.74579E-05-2.83384E-05 1.20388E-06 1.49031E-18 2.82636E-18
 -1      1954 9.47116E-05-2.75300E-05-2.87320E-05 2.31054E-06 1.64335E-18 3.49973E-18
 -1      1955 9.55471E-05-2.71057E-05-2.93392E-05 3.60027E-06 2.00117E-18 2.46010E-18
 -1      1956 9.29200E-05-2.75182E-05-2.80010E-05-1.81186E-07 8.19220E-19 2.23484E-18
 -1      1957 9.32387E-05-2.75054E-05-2.81187E-05 4.27227E-07 1.04483E-18 2.62476E-18
 -1      1958 9.41942E-05-2.74707E-05-2.86049E-05 1.00473E-06 1.35333E-18 1.90121E-18
 -1      1959 9.29693E-05-2.76588E-05-2.79695E-05-1.02183E-06 3.68588E-19 1.56575E-18
 -1      1960 9.28503E-05-2.75700E-05-2.79442E-05-6.41291E-07 5.42458E-19 1.85830E-18
 -1      1961 9.36960E-05-2.76519E-05-2.83174E-05-5.01890E-07 8.91962E-19 1.21181E-18
 -1      1962 9.35598E-05-2.78910E-05-2.81271E-05-1.60279E-06 4.45784E-19 1.07732E-18
 -1      1963 9.31578E-05-2.77437E-05-2.80145E-05-1.32938E-06 3.09501E-19 1.46599E-18
 -1      1964 9.38230E-05-2.78386E-05-2.82926E-05-1.46610E-06 4.70762E-19 6.13136E-19
 -1      1965 9.45558E-05-2.82050E-05-2.84205E-05-2.07524E-06 7.34220E-19 8.54373E-19
 -1      1966 9.39454E-05-2.80104E-05-2.82443E-05-1.84460E-06 5.53961E-19 1.06255E-18
 -1      1967 9.44079E-05-2.80732E-05-2.84419E-05-2.17102E-06 6.87920E-19 4.82770E-19
 -1      1968 9.58942E-05-2.85963E-05-2.88262E-05-2.52913E-06 7.26088E-19 4.93117E-19
 -1      1969 9.51051E-05-2.83573E-05-2.85955E-05-2.30181E-06 7.27353E-19 8.40242E-19
 -1      1970 9.53524E-05-2.83640E-05-2.87210E-05-2.77537E-06 8.57800E-19 2.08016E-19
 -1      1971 9.75594E-05-2.90694E-05-2.93364E-05-3.02135E-06 7.35044E-19-2.48882E-20
 -1      1972 9.65944E-05-2.87827E-05-2.90525E-05-2.77138E-06 7.41291E-19 2.80687E-19
 -1      1973 9.66096E-05-2.87162E-05-2.91084E-05-3.37585E-06 1.01272E-18-1.69396E-19
 -1      1974 9.95646E-05-2.96375E-05-2.99516E-05-3.58338E-06 9.58570E-20 2.05997E-19
 -1      1975 9.84114E-05-2.92949E-05-2.96121E-05-3.29552E-06 3.64707E-19 5.14680E-20
 -1      1976 9.81682E-05-2.91405E-05-2.95948E-05-4.03094E-06 4.46989E-19-1.44973E-19
 -1      1977 1.01935E-04-3.03217E-05-3.06746E-05-4.21700E-06 2.14399E-19 1.34043E-19
 -1      1978 1.00577E-04-2.99116E-05-3.02762E-05-3.88945E-06 2.28801E-19 2.67128E-19
 -1      1979 1.00039E-04-2.96568E-05-3.01761E-05-4.76486E-06 2.04016E-19 8.96676E-20
 -1      1980 1.04687E-04-3.11503E-05-3.15021E-05-4.87849E-06 7.08530E-20 1.14267E-19
 -1      1981 1.03116E-04-3.06597E-05-3.10454E-05-4.53121E-06 1.81258E-19 1.75935E-19
 -1      1982 1.02240E-04-3.02971E-05-3.08469E-05-5.55759E-06 1.77070E-19-1.22185E-19
 -1      1983 1.07802E-04-3.21557E-05-3.24138E-05-5.44993E-06 5.96204E-19-4.63956E-19
 -1      1984 1.06040E-04-3.15744E-05-3.19097E-05-5.13977E-06 3.28104E-19-6.64458E-20
 -1      1985 1.04789E-04-3.11096E-05-3.15930E-05-6.32098E-06 4.81251E-19-3.80943E-19
 -1      1986 1.11185E-04-3.33668E-05-3.33586E-05-5.69910E-06 2.38112E-19-3.71570E-19
 -1      1987 1.09311E-04-3.26955E-05-3.28372E-05-5.54133E-06 3.84149E-19-3.89493E-19
 -1      1988 1.07677E-04-3.21601E-05-3.23820E-05-6.86104E-06 5.07365E-19-4.52825E-19
 -1      1989 1.14612E-04-3.47840E-05-3.42398E-05-5.24363E-06-3.20738E-19 1.64199E-19
 -1      1990 1.12801E-04-3.40520E-05-3.37601E-05-5.43207E-06-1.88571E-19-2.70640E-19
 -1      1991 1.10845E-04-3.35226E-05-3.31561E-05-6.83459E-06-5.95289E-20-1.68454E-19
 -1      1992 1.17669E-04-3.63174E-05-3.49126E-05-3.57041E-06-1.59236E-19 6.12891E-19
 -1      1993 1.16222E-04-3.56163E-05-3.45657E-05-4.36929E-06-1.61214E-19 7.21897E-19
 -1      1994 1.14138E-04-3.52301E-05-3.38302E-05-5.73298E-06-4.83709E-19 2.91809E-19
 -1      1995 1.19701E-04-3.76678E-05-3.52120E-05-2.17897E-07-3.04998E-20 6.22132E-19
 -1      1996 1.19047E-04-3.72012E-05-3.51060E-05-1.86829E-06-9.03811E-20 7.77791E-19
 -1      1997 1.17213E-04-3.71481E-05-3.43109E-05-2.97396E-06 2.56625E-19 1.20071E-18
 -1      1998 1.19843E-04-3.81878E-05-3.50312E-05 4.73796E-06-3.76883E-19 1.26674E-18
 -1      1999 1.20450E-04-3.82983E-05-3.52426E-05 2.27256E-06-2.07510E-19 6.84416E-19
 -1      2000 1.19424E-04-3.87549E-05-3.45427E-05 1.76072E-06-2.20745E-19 1.25512E-18
 -1      2001 1.17311E-04-3.69607E-05-3.44351E-05 9.93061E-06-8.54259E-19 1.63088E-18
 -1      2002 1.19429E-04-3.80124E-05-3.49349E-05 7.34827E-06-7.38917E-19 1.27840E-18
 -1      2003 1.19782E-04-3.89812E-05-3.45731E-05 7.82307E-06-8.43327E-19 1.36487E-18
 -1      2004 1.12166E-04-3.35340E-05-3.36856E-05 1.24007E-05 5.51432E-19 1.41507E-18
 -1      2005 1.15437E-04-3.55006E-05-3.43069E-05 1.11910E-05-1.11921E-19 1.61315E-18
 -1      2006 1.17421E-04-3.66814E-05-3.45601E-05 1.28847E-05-2.34154E-19 1.66472E-18
 -1      2007 1.06372E-04-2.91835E-05-3.31244E-05 9.18097E-06 6.90597E-19 5.83513E-19
 -1      2008 1.09549E-04-3.12135E-05-3.36147E-05 1.07450E-05 6.16031E-19 9.51112E-19
 -1      2009 1.12756E-04-3.19993E-05-3.46439E-05 1.31837E-05 7.54084E-19 1.33604E-18
 -1      2010 1.03580E-04-2.69934E-05-3.29501E-05 5.99965E-07 2.08592E-18-7.44509E-19
 -1      2011 1.04902E-04-2.76623E-05-3.31110E-05 4.60918E-06 1.52151E-18 1.48952E-19
 -1      2012 1.08485E-04-2.75995E-05-3.47890E-05 6.56614E-06 1.74960E-18 6.32436E-19
 -1      2013 1.06027E-04-2.88541E-05-3.32145E-05-8.34157E-06 2.09919E-18-2.93698E-18
 -1      2014 1.04631E-04-2.76667E-05-3.29689E-05-4.30694E-06 2.25123E-18-1.78422E-18
 -1      2015 1.07986E-04-2.69737E-05-3.48352E-05-4.13816E-06 2.74592E-18-1.10530E-18
 -1      2016 1.12061E-04-3.32670E-05-3.38243E-05-1.24673E-05-3.47965E-19-2.85138E-18
 -1      2017 1.08743E-04-3.10722E-05-3.32778E-05-1.06706E-05 3.42638E-19-3.05427E-18
 -1      2018 1.11685E-04-3.06579E-05-3.47641E-05-1.22862E-05 1.05270E-18-2.15011E-18
 -1      2019 1.17765E-04-3.69857E-05-3.45759E-05-1.06040E-05-7.99629E-19-1.74927E-18
 -1      2020 1.14365E-04-3.52177E-05-3.39482E-05-1.13549E-05-4.73970E-19-2.07671E-18
 -1      2021 1.16663E-04-3.57069E-05-3.46822E-05-1.36959E-05-8.23008E-19-1.37603E-18
 -1      2022 1.20701E-04-3.84485E-05-3.51724E-05-5.57412E-06-6.47583E-20-1.83149E-18
 -1      2023 1.18536E-04-3.76844E-05-3.47056E-05-7.64514E-06-3.70656E-19-1.58812E-18
 -1      2024 1.19708E-04-3.87637E-05-3.46841E-05-9.47497E-06-3.72827E-19-1.50990E-18
 -1      2025 1.20682E-04-3.80117E-05-3.53704E-05-4.91823E-07 3.89119E-19-1.38905E-18
 -1      2026 1.20094E-04-3.80946E-05-3.52043E-05-2.59394E-06 1.99503E-19-1.80786E-18
 -1      2027 1.19968E-04-3.91035E-05-3.46779E-05-3.38527E-06 2.13532E-19-1.50639E-18
 -1      2028 1.18638E-04-3.66529E-05-3.51103E-05 3.05122E-06 1.89696E-19-1.96034E-18
 -1      2029 1.19315E-04-3.71939E-05-3.52461E-05 1.56634E-06 2.19593E-19-1.80786E-18
 -1      2030 1.18166E-04-3.77234E-05-3.45082E-05 1.75622E-06 4.12697E-19-7.92826E-19
 -1      2031 1.15577E-04-3.50943E-05-3.44915E-05 4.85855E-06 2.51565E-19-1.30607E-18
 -1      2032 1.17013E-04-3.57911E-05-3.48423E-05 4.07915E-06 1.29020E-19-1.41981E-18
 -1      2033 1.15332E-04-3.58140E-05-3.41058E-05 4.93838E-06-4.45619E-20-8.23882E-19
 -1      2034 1.12223E-04-3.36746E-05-3.36742E-05 5.36473E-06-2.15577E-19-1.17960E-18
 -1      2035 1.13972E-04-3.43626E-05-3.41334E-05 5.12120E-06 3.37250E-19-1.52806E-18
 -1      2036 1.12197E-04-3.40466E-05-3.35087E-05 6.32245E-06 5.90801E-19 8.22350E-20
 -1      2037 1.09000E-04-3.24930E-05-3.28019E-05 5.09683E-06-1.61469E-18-1.52082E-18
 -1      2038 1.10762E-04-3.31025E-05-3.32837E-05 5.17773E-06-1.27976E-18-1.65907E-18
 -1      2039 1.09163E-04-3.26338E-05-3.28051E-05 6.47348E-06-9.22525E-19-1.22962E-19
 -1      2040 1.06120E-04-3.15464E-05-3.19718E-05 4.46008E-06-1.94049E-18-1.11334E-18
 -1      2041 1.07728E-04-3.20573E-05-3.24226E-05 4.70014E-06-1.82520E-18-1.77044E-18
 -1      2042 1.06421E-04-3.15676E-05-3.20821E-05 5.93602E-06-1.99196E-18-1.65383E-18
 -1      2043 1.03665E-04-3.08016E-05-3.12362E-05 3.70795E-06-9.86267E-19 2.47869E-19
 -1      2044 1.05046E-04-3.12156E-05-3.16295E-05 4.00226E-06-1.54068E-18-5.32312E-19
 -1      2045 1.04047E-04-3.07756E-05-3.14023E-05 5.09850E-06-2.04640E-18-9.67113E-19
 -1      2046 1.01642E-04-3.02215E-05-3.06147E-05 2.97693E-06 9.81334E-20 6.94700E-19
 -1      2047 1.02780E-04-3.05494E-05-3.09424E-05 3.26799E-06-8.98632E-20 1.10070E-18
 -1      2048 1.02054E-04-3.01863E-05-3.08006E-05 4.19494E-06-7.00749E-19 2.95647E-19
 -1      2049 1.00016E-04-2.97739E-05-3.01074E-05 2.32904E-06 1.30997E-18 3.33126E-19
 -1      2050 1.00926E-04-3.00288E-05-3.03715E-05 2.58993E-06 7.02917E-19 8.18177E-19
 -1      2051 1.00422E-04-2.97453E-05-3.02906E-05 3.34750E-06 1.04819E-18 5.98664E-20
 -1      2052 9.87360E-05-2.94320E-05-2.97039E-05 1.78437E-06 1.31339E-18-5.97432E-19
 -1      2053 9.94477E-05-2.96269E-05-2.99116E-05 2.00562E-06 1.54859E-18-1.60002E-19
 -1      2054 9.91126E-05-2.94140E-05-2.98719E-05 2.60891E-06 1.96090E-18 1.61778E-19
 -1      2055 9.77477E-05-2.91739E-05-2.93899E-05 1.34169E-06 4.39254E-19-1.43382E-18
 -1      2056 9.82931E-05-2.93206E-05-2.95498E-05 1.52286E-06 9.16233E-19-7.31111E-19
 -1      2057 9.80817E-05-2.91656E-05-2.95369E-05 1.99319E-06 1.49041E-18-6.89848E-19
 -1      2058 9.69978E-05-2.89818E-05-2.91501E-05 9.90345E-07 4.87438E-19-8.55658E-19
 -1      2059 9.74080E-05-2.90905E-05-2.92709E-05 1.13514E-06 4.83182E-19-1.19328E-18
 -1      2060 9.72840E-05-2.89806E-05-2.92745E-05 1.49496E-06 3.78668E-19-9.36386E-19
 -1      2061 9.64388E-05-2.88413E-05-2.89703E-05 7.16550E-07-1.21817E-18 1.44741E-19
 -1      2062 9.67417E-05-2.89202E-05-2.90599E-05 8.30155E-07 1.80160E-21-3.89110E-19
 -1      2063 9.66773E-05-2.88445E-05-2.90728E-05 1.10049E-06-3.69272E-19 6.83736E-19
 -1      2064 9.60303E-05-2.87406E-05-2.88381E-05 5.06437E-07-2.38040E-18 8.47898E-19
 -1      2065 9.62493E-05-2.87967E-05-2.89032E-05 5.94222E-07-2.23126E-18 8.93008E-20
 -1      2066 9.62241E-05-2.87460E-05-2.89207E-05 7.93551E-07-2.30864E-18 2.61190E-19
 -1      2067 9.57385E-05-2.86703E-05-2.87430E-05 3.47429E-07-1.29624E-18 8.65193E-19
 -1      2068 9.58931E-05-2.87091E-05-2.87892E-05 4.14353E-07-1.81261E-18 5.19585E-19
 -1      2069 9.58921E-05-2.86764E-05-2.88081E-05 5.58266E-07-1.59512E-18 5.03673E-19
 -1      2070 9.55359E-05-2.86230E-05-2.86765E-05 2.28716E-07 7.64551E-20 1.47007E-18
 -1      2071 9.56416E-05-2.86487E-05-2.87083E-05 2.79096E-07 1.27622E-20 1.05414E-18
 -1      2072 9.56546E-05-2.86285E-05-2.87266E-05 3.80408E-07-7.16432E-19 1.02668E-18
 -1      2073 9.54005E-05-2.85926E-05-2.86314E-05 1.41314E-07 1.01778E-18 1.42367E-18
 -1      2074 9.54697E-05-2.86088E-05-2.86525E-05 1.78777E-07 3.84250E-19 1.46521E-18
 -1      2075 9.54894E-05-2.85971E-05-2.86691E-05 2.47814E-07 7.13538E-19 1.41500E-18
 -1      2076 9.53149E-05-2.85748E-05-2.86024E-05 7.79223E-08 1.04948E-18-2.85431E-19
 -1      2077 9.53573E-05-2.85839E-05-2.86155E-05 1.05449E-07 2.04111E-18 1.14779E-18
 -1      2078 9.53786E-05-2.85777E-05-2.86298E-05 1.50406E-07 1.92525E-18 1.28244E-18
 -1      2079 9.52655E-05-2.85660E-05-2.85851E-05 3.30901E-08 1.05744E-18-1.16819E-18
 -1      2080 9.52885E-05-2.85701E-05-2.85924E-05 5.28836E-08-8.29588E-20-1.05370E-18
 -1      2081 9.53084E-05-2.85672E-05-2.86041E-05 8.01769E-08 4.67670E-19 5.55036E-19
 -1      2082 9.52412E-05-2.85636E-05-2.85758E-05 2.90350E-09 4.91567E-19-4.90507E-19
 -1      2083 9.52509E-05-2.85642E-05-2.85792E-05 1.65628E-08 1.33374E-18 4.57864E-19
 -1      2084 9.52672E-05-2.85631E-05-2.85880E-05 3.12727E-08 6.91740E-19 5.18355E-19
 -1      2085 9.52337E-05-2.85662E-05-2.85715E-05-1.42037E-08 4.79999E-19-1.94534E-18
 -1      2086 9.52347E-05-2.85642E-05-2.85726E-05-6.54951E-09 4.38381E-19-1.34618E-18
 -1      2087 9.52462E-05-2.85639E-05-2.85785E-05-5.19944E-10 7.64315E-19 1.00664E-18
 -1      2088 9.52356E-05-2.85722E-05-2.85698E-05-1.74509E-08-4.95961E-19-1.12187E-18
 -1      2089 9.52322E-05-2.85675E-05-2.85703E-05-1.64550E-08-2.22593E-19-1.78417E-18
 -1      2090 9.52394E-05-2.85677E-05-2.85737E-05-1.49376E-08-2.54024E-19-8.80739E-19
 -1      2091 9.52398E-05-2.85753E-05-2.85704E-05-1.83435E-08-1.06350E-18-1.36066E-18
 -1      2092 9.52364E-05-2.85447E-05-2.85823E-05 2.36247E-08-1.27790E-18-1.97517E-18
 -1      2093 9.52400E-05-2.85515E-05-2.85804E-05 1.73082E-08-6.13748E-19 6.92840E-20
 -1      2094 9.52446E-05-2.85631E-05-2.85778E-05 8.17376E-09-1.18615E-19 2.74975E-19
 -1      2095 9.52454E-05-2.85663E-05-2.85765E-05 2.07175E-10 1.74895E-19 4.46139E-19
 -1      2096 9.52417E-05-2.85401E-05-2.85865E-05 2.18275E-08-3.82351E-19-6.21032E-19
 -1      2097 9.52456E-05-2.85734E-05-2.85737E-05-8.08664E-09-3.97973E-19 5.88590E-19
 -1      2098 9.52428E-05-2.85728E-05-2.85727E-05-1.29154E-08-8.19937E-19-8.17034E-21
 -1      2099 9.52435E-05-2.85688E-05-2.85748E-05-1.23964E-08-1.96552E-19 3.42032E-20
 -1      2100 9.52464E-05-2.85589E-05-2.85806E-05 1.76014E-09 2.92847E-19 6.92981E-19
 -1      2101 9.52251E-05-2.85229E-05-2.85870E-05 3.19558E-08-2.75849E-18-5.02774E-18
 -1      2102 9.52302E-05-2.85317E-05-2.85848E-05 2.91183E-08-2.01565E-18-1.02638E-18
 -1      2103 9.52291E-05-2.85147E-05-2.85919E-05 3.77393E-08-1.38466E-18-2.47538E-18
 -1      2104 9.52135E-05-2.85010E-05-2.85915E-05 3.10495E-08-1.27425E-18-2.60764E-18
 -1      2105 9.52186E-05-2.85099E-05-2.85893E-05 3.23154E-08-1.56104E-18-4.26263E-18
 -1      2106 9.52139E-05-2.84877E-05-2.85968E-05 4.38592E-08-1.11207E-18-3.56858E-18
 -1      2107 9.52045E-05-2.84842E-05-2.85948E-05 2.14500E-08-1.95805E-18-7.15534E-19
 -1      2108 9.52082E-05-2.84907E-05-2.85932E-05 2.62479E-08-1.47459E-18-1.01251E-18
 -1      2109 9.51994E-05-2.84634E-05-2.86008E-05 3.82459E-08-6.70326E-19-2.13270E-18
 -1      2110 9.52001E-05-2.84759E-05-2.85964E-05 6.14283E-09-2.36644E-18-3.80440E-19
 -1      2111 9.52015E-05-2.84784E-05-2.85958E-05 1.29690E-08-2.75407E-18-6.16341E-19
 -1      2112 9.51892E-05-2.84467E-05-2.86034E-05 2.26907E-08-1.52730E-18-1.22605E-18
 -1      2113 9.52012E-05-2.84777E-05-2.85960E-05-1.06263E-08-1.84604E-18 5.23196E-19
 -1      2114 9.52000E-05-2.84757E-05-2.85965E-05-3.72115E-09-1.76534E-18 1.88573E-19
 -1      2115 9.51854E-05-2.84406E-05-2.86044E-05 1.43767E-09-2.14188E-18 1.19472E-19
 -1      2116 9.52074E-05-2.84892E-05-2.85935E-05-2.43237E-08-2.32288E-18 1.24531E-18
 -1      2117 9.52040E-05-2.84832E-05-2.85950E-05-1.92959E-08-2.37992E-18 1.16008E-18
 -1      2118 9.51887E-05-2.84462E-05-2.86035E-05-2.00126E-08-1.45028E-18 3.73276E-19
 -1      2119 9.52172E-05-2.85075E-05-2.85898E-05-3.10971E-08-1.85330E-18 5.89920E-21
 -1      2120 9.52125E-05-2.84991E-05-2.85918E-05-2.94335E-08-2.36155E-18 1.43281E-18
 -1      2121 9.51984E-05-2.84622E-05-2.86009E-05-3.60876E-08-2.36451E-18 1.00779E-18
 -1      2122 9.52288E-05-2.85291E-05-2.85853E-05-2.90121E-08 6.91850E-19 2.72874E-18
 -1      2123 9.52237E-05-2.85202E-05-2.85875E-05-3.13718E-08-1.64858E-19 1.59498E-18
 -1      2124 9.52123E-05-2.84857E-05-2.85969E-05-4.27251E-08-2.76270E-20 1.46229E-18
 -1      2125 9.52388E-05-2.85494E-05-2.85809E-05-1.81827E-08 1.39749E-18 9.14505E-19
 -1      2126 9.52351E-05-2.85424E-05-2.85827E-05-2.40874E-08 5.29706E-19 1.68208E-18
 -1      2127 9.52277E-05-2.85128E-05-2.85921E-05-3.79288E-08 1.50550E-18 2.29307E-18
 -1      2128 9.52441E-05-2.85651E-05-2.85768E-05-1.37849E-09 6.25085E-19 3.44035E-19
 -1      2129 9.52438E-05-2.85611E-05-2.85783E-05-9.45319E-09 1.15597E-18 7.76428E-19
 -1      2130 9.52404E-05-2.85383E-05-2.85867E-05-2.29814E-08 8.70912E-19 1.86115E-19
 -1      2131 5.62362E-05-4.02387E-05-7.47685E-06 3.80560E-05-1.19432E-19 4.42469E-19
 -1      2132 4.16891E-05-4.14687E-05-1.54168E-06 3.05968E-05-5.45066E-19 1.29935E-18
 -1      2133 1.15963E-05-3.16816E-05 7.38909E-06 2.79461E-06-6.42898E-19 1.33747E-18
 -1      2134 1.21979E-05-3.40702E-05 7.80572E-06-7.79524E-06-1.31396E-18 2.35475E-19
 -1      2135 2.68674E-05-3.61576E-05 2.76374E-06 2.50129E-05-6.22569E-19 3.72906E-18
 -1      2136 1.82544E-05-3.42078E-05 5.62087E-06 1.67784E-05-6.10711E-19 3.65918E-18
 -1      2137 9.50907E-05-4.42527E-05-2.18480E-05 4.15277E-05-8.38563E-20 2.10890E-18
 -1      2138 7.55006E-05-4.57224E-05-1.39372E-05 3.69033E-05 1.38066E-19 1.31777E-18
 -1      2139 1.33846E-04-4.36239E-05-3.80314E-05 3.57686E-05 1.36415E-18 1.08590E-18
 -1      2140 1.13112E-04-4.55530E-05-2.96357E-05 3.40533E-05 3.39237E-19 1.52678E-18
 -1      2141 8.73600E-05-8.63825E-06-3.38271E-05-1.00340E-05-1.43644E-18-3.76182E-18
 -1      2142 8.80887E-05-9.20286E-06-3.38933E-05-1.16097E-05-1.79916E-18-3.42772E-18
 -1      2143 9.05969E-05-1.30182E-05-3.33134E-05-1.13819E-05-1.98410E-18-3.05371E-18
 -1      2144 8.87045E-05-1.08595E-05-3.33842E-05-8.88820E-06-1.40004E-18-3.63265E-18
 -1      2145 1.73628E-04-2.94169E-05-6.13070E-05 4.52718E-06 3.90059E-18-2.51357E-18
 -1      2146 1.69494E-04-3.35611E-05-5.72541E-05 1.43680E-05 3.23196E-18-1.42725E-18
 -1      2147 1.85585E-04-2.49435E-05-6.71790E-05-3.30477E-07 4.80098E-18-4.34153E-18
 -1      2148 1.76287E-04-2.26150E-05-6.50828E-05 3.76288E-06 3.82986E-18-3.03534E-18
 -1      2149 1.77088E-04-2.63457E-05-6.37424E-05-7.08909E-06 5.13387E-18-4.51469E-18
 -1      2150 1.84786E-04-2.63773E-05-6.65429E-05-2.32882E-06 5.15165E-18-4.39038E-18
 -1      2151 1.62160E-04-3.59596E-05-5.35719E-05-1.76957E-05 4.73920E-18-5.43160E-18
 -1      2152 1.75076E-04-3.38243E-05-5.95348E-05-1.20852E-05 5.15885E-18-3.76379E-18
 -1      2153 1.30156E-04-4.17524E-05-3.81828E-05-3.17354E-05 3.78243E-18-7.12609E-18
 -1      2154 1.52985E-04-4.15172E-05-4.69901E-05-2.94978E-05 3.83833E-18-6.91179E-18
 -1      2155 9.37989E-05-4.72646E-05-2.08887E-05-3.61123E-05 2.73592E-18-5.45701E-18
 -1      2156 1.16348E-04-4.58494E-05-2.99228E-05-3.95192E-05 3.14757E-18-6.70088E-18
 -1      2157 5.32482E-05-4.34578E-05-5.72748E-06-3.35004E-05 2.64910E-18-4.22519E-18
 -1      2158 7.03871E-05-4.12720E-05-1.29947E-05-4.07146E-05 3.54229E-18-5.10168E-18
 -1      2159 2.52969E-05-3.91588E-05 4.27984E-06-2.16616E-05-1.39760E-20-5.72107E-18
 -1      2160 3.58317E-05-3.73767E-05-3.50894E-07-3.03864E-05 1.85077E-18-5.55484E-18
 -1      2161 1.18922E-05-3.65791E-05 8.86297E-06-2.53273E-06-1.55678E-18-4.63962E-18
 -1      2162 1.49646E-05-3.61260E-05 7.53463E-06-1.15575E-05-1.41878E-20-5.58491E-18
 -1      2163 1.76018E-05-3.45070E-05 5.98926E-06 1.79895E-05-2.58345E-18-4.30759E-18
 -1      2164 1.33639E-05-3.57700E-05 8.02344E-06 8.90018E-06-1.48559E-18-4.03357E-18
 -1      2165 4.02171E-05-3.67676E-05-2.26711E-06 3.47655E-05-3.09929E-18-3.02221E-18
 -1      2166 2.89479E-05-3.89718E-05 2.74944E-06 2.64389E-05-2.33019E-18-3.52408E-18
 -1      2167 7.63738E-05-4.15955E-05-1.51674E-05 4.36694E-05-2.97478E-18-3.07791E-18
 -1      2168 5.78879E-05-4.26551E-05-7.80926E-06 3.72326E-05-2.95276E-18-3.03873E-18
 -1      2169 1.17053E-04-4.59262E-05-3.06751E-05 3.76697E-05-3.17256E-18-2.48689E-18
 -1      2170 9.58685E-05-4.53535E-05-2.23753E-05 3.80371E-05-3.49401E-18-2.96038E-18
 -1      2171 1.50346E-04-3.84561E-05-4.69544E-05 2.82815E-05-3.61662E-18-3.23524E-18
 -1      2172 1.33533E-04-4.22585E-05-3.91022E-05 2.81550E-05-3.37416E-18-3.18400E-18
 -1      2173 1.65790E-04-3.02349E-05-5.75417E-05 1.20232E-05-4.15131E-18-2.56143E-18
 -1      2174 1.56399E-04-3.34009E-05-5.22950E-05 1.98163E-05-3.97566E-18-3.29581E-18
 -1      2175 1.50506E-04-3.92323E-05-4.71109E-05 8.24292E-06-2.72829E-18-1.71270E-18
 -1      2176 1.78957E-04-2.39899E-05-6.51031E-05 3.35366E-06-3.76167E-18-2.60801E-18
 -1      2177 1.66492E-04-2.18468E-05-6.17143E-05 7.01399E-06-4.18731E-18-2.92480E-18
 -1      2178 1.76206E-04-2.23819E-05-6.49718E-05-5.17173E-06-3.41524E-18-2.53475E-18
 -1      2179 1.79592E-04-2.34078E-05-6.59564E-05 1.47887E-06-3.79005E-18-2.87208E-18
 -1      2180 1.54898E-04-1.14199E-05-6.04965E-05-8.35632E-07-3.89466E-18-1.98725E-18
 -1      2181 1.69403E-04-2.89827E-05-5.92212E-05-1.89044E-05-2.83354E-18 2.41404E-19
 -1      2182 1.78642E-04-2.80021E-05-6.33761E-05-1.08519E-05-3.36696E-18-2.14765E-18
 -1      2183 1.45045E-04-3.46581E-05-4.71213E-05-2.94677E-05-2.40134E-18 8.60162E-19
 -1      2184 1.63565E-04-3.43743E-05-5.40934E-05-2.63460E-05-2.44766E-18 7.94517E-19
 -1      2185 1.15437E-04-4.25873E-05-3.16889E-05-3.47746E-05-1.02449E-18 1.57802E-18
 -1      2186 1.35307E-04-4.04214E-05-3.99277E-05-3.59642E-05-1.53652E-18 1.68390E-18
 -1      2187 7.60663E-05-4.27170E-05-1.53984E-05-3.87419E-05-2.16078E-18 1.96850E-18
 -1      2188 9.62614E-05-4.10143E-05-2.36297E-05-4.35347E-05-1.89439E-18 2.68044E-18
 -1      2189 4.44968E-05-4.05487E-05-2.93750E-06-3.42784E-05-1.41327E-18 2.05893E-18
 -1      2190 5.91276E-05-3.86718E-05-9.20960E-06-4.09581E-05-2.19424E-18 2.48824E-18
 -1      2191 1.89903E-05-3.57661E-05 5.75993E-06-1.84356E-05-2.02653E-18 1.67162E-18
 -1      2192 2.73423E-05-3.43269E-05 2.05051E-06-2.81478E-05-1.94140E-18 2.68891E-18
 -1      2193 1.64540E-04-3.90957E-05-5.27624E-05 2.50872E-05 2.74722E-18-9.38936E-19
 -1      2194 1.45206E-04-3.93389E-05-4.53293E-05 2.77503E-05 2.10107E-18 4.01494E-19
 -1      2195 1.16847E-04-5.52874E-05-2.63340E-05 3.33558E-05-6.98379E-19 7.77576E-19
 -1      2196 9.73030E-05-2.43494E-05-3.13370E-05-9.61925E-06-2.25734E-18 2.60674E-19
 -1      2197 1.45807E-04-5.00694E-05-4.04988E-05 1.88715E-05 1.19389E-18-5.89535E-19
 -1      2198 1.59754E-04-3.69110E-05-5.16433E-05 3.92408E-06 2.98494E-18-1.67120E-18
 -1      2199 9.65299E-05-2.31322E-05-3.15213E-05-9.89217E-06-2.39410E-18-8.77751E-19
 -1      2200 4.15789E-05-3.62049E-05-2.81407E-06 3.40253E-05-1.29173E-18 2.17306E-18
 -1      2201 1.76010E-05-2.82807E-05 3.96298E-06 1.12082E-05-5.02502E-19 2.56566E-18
 -1      2202 1.64454E-05-1.90602E-05 1.21153E-06 5.17249E-06-3.92441E-19 1.69491E-18
 -1      2203 2.33146E-05-2.28913E-05-3.97232E-07 2.03296E-05-7.08543E-19 3.44065E-18
 -1      2204 9.52447E-05-2.85645E-05-2.85772E-05 2.28006E-09 7.66935E-19 4.61355E-19
 -1      2205 7.78364E-05-4.84107E-05-1.28985E-05 4.09122E-05-1.74658E-18 5.62059E-19
 -1      2206 1.83757E-05-2.59591E-05 2.67637E-06-1.67157E-05-6.62168E-19 1.36838E-18
 -1      2207 4.39550E-05-3.58285E-05-3.87511E-06-3.75671E-05-6.99226E-19 1.94627E-18
 -1      2208 8.04419E-05-4.74667E-05-1.43318E-05-4.27870E-05-7.95364E-19 1.20329E-18
 -1      2209 1.17867E-04-5.23571E-05-2.78467E-05-3.43131E-05-4.15046E-20 1.26631E-19
 -1      2210 1.44353E-04-4.55831E-05-4.19400E-05-1.84258E-05-5.52477E-19-1.23286E-18
 -1      2211 1.59912E-04-1.68895E-05-6.01552E-05-6.46391E-07-3.44277E-18-2.85175E-18
 -1      2212 1.55607E-04-2.27943E-05-5.62682E-05-4.23709E-07-3.94971E-18-2.06168E-18
 -1      2213 1.30420E-04-4.92104E-05-3.45397E-05 2.78143E-05-2.41277E-18-2.02102E-18
 -1      2214 1.27449E-04-5.57272E-05-3.02246E-05 2.66864E-05-1.54774E-18-1.03253E-18
 -1      2215 1.39328E-04-5.28472E-05-3.77747E-05 1.54732E-05-1.86077E-18-9.25383E-19
 -1      2216 9.77938E-05-5.16064E-05-1.96059E-05 4.05774E-05-1.28368E-18-1.88962E-18
 -1      2217 5.91132E-05-4.16017E-05-7.81355E-06 4.24122E-05-8.06375E-19-2.40822E-18
 -1      2218 2.80798E-05-3.05895E-05 4.56638E-07 2.82640E-05-6.67462E-19-3.50820E-18
 -1      2219 1.39342E-05-2.59278E-05 4.31313E-06 4.08316E-06-8.71756E-19-5.06187E-18
 -1      2220 2.37667E-05-3.02364E-05 2.01022E-06-2.21602E-05-2.16840E-19-6.19012E-18
 -1      2221 5.43134E-05-4.12514E-05-6.07897E-06-3.82622E-05 4.40881E-19-4.93481E-18
 -1      2222 9.70492E-05-5.32952E-05-1.87549E-05-3.94073E-05 1.11893E-18-4.34401E-18
 -1      2223 1.33726E-04-5.54679E-05-3.34216E-05-2.52126E-05 1.22057E-18-5.00512E-18
 -1      2224 1.56159E-04-4.28523E-05-4.77450E-05-9.51943E-06 3.16732E-18-3.29496E-18
 -1      2225 1.62902E-04-2.56614E-05-5.77971E-05 2.02258E-06 4.57715E-18-1.32730E-18
 -1      2226 1.66156E-04-2.32027E-05-6.05047E-05-7.68376E-07 4.31944E-18-2.15231E-18
 -1      2227 1.51655E-04-2.35252E-05-5.48643E-05-6.95811E-06 4.07423E-18-1.09987E-18
 -1      2228 1.51291E-04-1.59224E-05-5.82194E-05-6.29949E-06 4.42066E-18-1.55642E-18
 -1      2229 1.63038E-04-1.53590E-05-6.21656E-05 7.57742E-07 4.84291E-18-2.65021E-18
 -1      2230 1.58860E-04-3.09449E-05-5.37065E-05-8.02379E-06-2.41584E-18-1.03169E-18
 -1      2231 9.55869E-05-2.63971E-05-2.96353E-05 3.60042E-06 1.93696E-18 1.30316E-18
 -1      2232 9.64532E-05-2.58744E-05-3.01742E-05 5.46225E-06 2.21459E-18 1.57943E-18
 -1      2233 8.78255E-05-1.06535E-05-3.31138E-05-3.31915E-06-1.93374E-19-3.78746E-18
 -1      2234 8.81170E-05-1.09694E-05-3.30986E-05-4.38821E-06-5.13057E-19-3.85536E-18
 -1      2235 8.85432E-05-1.15288E-05-3.30527E-05-5.33349E-06-6.98183E-19-3.80191E-18
 -1      2236 8.90189E-05-1.20579E-05-3.30265E-05-6.45841E-06-9.82571E-19-3.71820E-18
 -1      2237 8.96035E-05-1.32688E-05-3.27118E-05-4.39732E-06-5.89683E-19-3.59600E-18
 -1      2238 8.73778E-05-1.00978E-05-3.31535E-05 5.73195E-07 6.71069E-19-3.48537E-18
 -1      2239 8.73735E-05-1.00941E-05-3.31531E-05-4.44669E-07 4.05602E-19-3.58801E-18
 -1      2240 8.76085E-05-1.03606E-05-3.31395E-05 2.51678E-06 1.17603E-18-3.37932E-18
 -1      2241 8.74615E-05-1.02044E-05-3.31461E-05 1.48636E-06 8.98752E-19-3.48736E-18
 -1      2242 8.86070E-05-1.20149E-05-3.28254E-05 9.42531E-07 7.40097E-19-3.27892E-18
 -1      2243 8.81500E-05-1.09976E-05-3.31012E-05 4.47556E-06 1.59319E-18-3.14914E-18
 -1      2244 8.78533E-05-1.06775E-05-3.31158E-05 3.42634E-06 1.36342E-18-3.31302E-18
 -1      2245 8.89463E-05-1.24321E-05-3.27908E-05 2.69909E-06 1.19713E-18-3.12559E-18
 -1      2246 8.90757E-05-1.21114E-05-3.30284E-05 6.53434E-06 2.08068E-18-2.58308E-18
 -1      2247 8.85856E-05-1.15667E-05-3.30550E-05 5.41596E-06 1.77412E-18-2.92265E-18
 -1      2248 8.96390E-05-1.32998E-05-3.27137E-05 4.47321E-06 1.61647E-18-2.86887E-18
 -1      2249 9.04955E-05-1.38702E-05-3.29014E-05 8.61449E-06 2.53738E-18-1.90261E-18
 -1      2250 8.97464E-05-1.29968E-05-3.29482E-05 7.46136E-06 2.21504E-18-2.26754E-18
 -1      2251 9.07468E-05-1.47208E-05-3.25742E-05 6.24406E-06 2.02080E-18-2.25204E-18
 -1      2252 9.26060E-05-1.65827E-05-3.26798E-05 1.04984E-05 2.87874E-18-8.69684E-19
 -1      2253 9.14829E-05-1.51877E-05-3.27600E-05 9.41536E-06 2.65034E-18-1.49272E-18
 -1      2254 9.23393E-05-1.68490E-05-3.23317E-05 7.83889E-06 2.50146E-18-1.52504E-18
 -1      2255 9.48330E-05-2.71496E-05-2.89847E-05 9.89672E-07 1.38991E-18 8.58355E-19
 -1      2256 9.52896E-05-2.69101E-05-2.92336E-05 2.05291E-06 1.64896E-18 1.19431E-18
 -1      2257 9.57101E-05-2.58078E-05-2.99690E-05 3.59334E-06 2.02969E-18 3.61074E-19
 -1      2258 9.61862E-05-2.50670E-05-3.04310E-05-5.54972E-06-1.95072E-18-1.17955E-18
 -1      2259 9.56189E-05-2.58242E-05-2.99241E-05-3.57510E-06-1.70513E-18-1.23071E-18
 -1      2260 1.49688E-04-5.05501E-05-4.27385E-05 8.34374E-06 1.25551E-18-1.07531E-18
 -1      2261 1.39799E-04-5.52935E-05-3.63367E-05 1.45297E-05 1.59242E-19-2.35899E-19
 -1      2262 9.55630E-05-2.64941E-05-2.95439E-05-2.13051E-06-1.60177E-18-1.10001E-18
 -1      2263 9.52188E-05-2.68721E-05-2.92860E-05-9.66141E-07-1.30944E-18-1.26822E-18
 -1      2264 9.56593E-05-2.52432E-05-3.01835E-05-3.43093E-06-1.73170E-18-1.58039E-18
 -1      2265 9.51061E-05-2.71931E-05-2.90671E-05 2.16998E-08-1.06868E-18-1.11393E-18
 -1      2266 9.50098E-05-2.74225E-05-2.89573E-05 7.60896E-07-8.33170E-19-1.25588E-18
 -1      2267 9.54977E-05-2.65466E-05-2.95657E-05-8.01335E-07-1.25214E-18-1.52303E-18
 -1      2268 9.49721E-05-2.76019E-05-2.88501E-05 1.44512E-06-6.76072E-19-1.15187E-18
 -1      2269 9.50817E-05-2.77756E-05-2.88359E-05 1.94740E-06-5.45361E-19-1.25235E-18
 -1      2270 9.53829E-05-2.72429E-05-2.92184E-05 1.01178E-06-8.67317E-19-1.34670E-18
 -1      2271 9.51413E-05-2.78953E-05-2.88066E-05 2.44538E-06-4.23931E-19-1.43088E-18
 -1      2272 9.54107E-05-2.80525E-05-2.88577E-05 2.81506E-06-4.46694E-19-1.44830E-18
 -1      2273 9.54337E-05-2.76597E-05-2.90595E-05 2.29740E-06-6.17442E-19-1.61565E-18
 -1      2274 9.55647E-05-2.81525E-05-2.88835E-05 3.20335E-06-6.72339E-19-1.44387E-18
 -1      2275 9.59604E-05-2.83150E-05-2.89809E-05 3.49773E-06-5.53320E-19-1.60270E-18
 -1      2276 9.56677E-05-2.79492E-05-2.90333E-05 3.26208E-06-5.36650E-19-1.87901E-18
 -1      2277 9.62031E-05-2.84207E-05-2.90454E-05 3.82029E-06-4.77799E-19-1.63638E-18
 -1      2278 9.67036E-05-2.86058E-05-2.91757E-05 4.06555E-06-5.32283E-19-1.62056E-18
 -1      2279 9.60784E-05-2.81986E-05-2.91006E-05 4.03460E-06-5.74159E-19-1.98161E-18
 -1      2280 9.70343E-05-2.87399E-05-2.92662E-05 4.33945E-06-8.45520E-19-1.54547E-18
 -1      2281 9.76256E-05-2.89658E-05-2.94186E-05 4.53639E-06-8.19299E-19-1.50505E-18
 -1      2282 9.66617E-05-2.84731E-05-2.92319E-05 4.68179E-06-6.01124E-19-1.80544E-18
 -1      2283 9.80509E-05-2.91538E-05-2.95244E-05 4.75323E-06-6.81608E-19-1.51622E-18
 -1      2284 9.87215E-05-2.94409E-05-2.96884E-05 4.87813E-06-6.77303E-19-1.41565E-18
 -1      2285 9.74257E-05-2.88364E-05-2.94034E-05 5.21593E-06-8.31916E-19-1.49657E-18
 -1      2286 9.92560E-05-2.97127E-05-2.98000E-05 5.00275E-06-6.28113E-19-1.37375E-18
 -1      2287 9.99914E-05-3.00818E-05-2.99643E-05 5.00659E-06-2.73014E-19-1.48144E-18
 -1      2288 9.83937E-05-2.93593E-05-2.95946E-05 5.59533E-06-7.20916E-19-1.29186E-18
 -1      2289 1.00655E-04-3.04692E-05-3.00729E-05 4.97513E-06 5.92882E-21-1.39640E-18
 -1      2290 1.01431E-04-3.09351E-05-3.02247E-05 4.78466E-06 2.27686E-19-1.29400E-18
 -1      2291 9.96021E-05-3.01194E-05-2.97881E-05 5.72139E-06-1.44733E-19-1.17624E-18
 -1      2292 1.02243E-04-3.14619E-05-3.03245E-05 4.50518E-06 1.88630E-19-1.34825E-18
 -1      2293 1.03015E-04-3.20186E-05-3.04509E-05 4.03115E-06 5.04307E-20-1.42769E-18
 -1      2294 1.01092E-04-3.11859E-05-2.99712E-05 5.43699E-06 2.13151E-19-1.26281E-18
 -1      2295 1.03973E-04-3.26792E-05-3.05413E-05 3.39340E-06-1.44226E-19-1.19024E-18
 -1      2296 1.04664E-04-3.32751E-05-3.06323E-05 2.55373E-06-5.31712E-20-1.04230E-18
 -1      2297 1.02882E-04-3.25822E-05-3.01414E-05 4.53541E-06 7.44177E-20-1.15367E-18
 -1      2298 1.05714E-04-3.39972E-05-3.07226E-05 1.45924E-06-4.49920E-20-1.10099E-18
 -1      2299 1.06203E-04-3.45012E-05-3.07758E-05 2.26234E-07-3.69258E-19-9.66788E-19
 -1      2300 1.04920E-04-3.42141E-05-3.03140E-05 2.79652E-06-8.44518E-20-8.07395E-19
 -1      2301 1.07188E-04-3.51004E-05-3.08882E-05-1.34386E-06-6.37313E-19-5.17548E-19
 -1      2302 1.07308E-04-3.52812E-05-3.09138E-05-2.86761E-06-3.14689E-19-1.66867E-19
 -1      2303 1.06999E-04-3.57676E-05-3.05302E-05 7.84525E-08-2.28634E-19-1.06698E-18
 -1      2304 1.07943E-04-3.54467E-05-3.10808E-05-4.73665E-06-2.75266E-19-3.30081E-19
 -1      2305 1.07530E-04-3.50176E-05-3.11011E-05-6.23578E-06-2.47509E-19-5.23005E-19
 -1      2306 1.08667E-04-3.66311E-05-3.08572E-05-3.49853E-06-4.34300E-19-1.21056E-20
 -1      2307 1.07467E-04-3.44070E-05-3.13487E-05-7.91174E-06-2.59343E-19-3.72771E-19
 -1      2308 1.06475E-04-3.31944E-05-3.13882E-05-8.83995E-06-1.79904E-20-4.24531E-19
 -1      2309 1.09265E-04-3.59956E-05-3.13646E-05-7.29097E-06-5.24128E-19-3.32093E-19
 -1      2310 1.05543E-04-3.16987E-05-3.17074E-05-9.52831E-06 2.22356E-19-1.35102E-19
 -1      2311 1.04195E-04-2.99137E-05-3.17740E-05-9.27146E-06 5.14678E-19-5.84966E-20
 -1      2312 1.08227E-04-3.32932E-05-3.20696E-05-9.96760E-06 2.77760E-19 5.27113E-19
 -1      2313 1.02751E-04-2.80038E-05-3.20933E-05-8.23583E-06 7.66972E-19-4.48827E-19
 -1      2314 1.01583E-04-2.63782E-05-3.21600E-05-6.52482E-06 7.70390E-19-6.77008E-19
 -1      2315 1.05712E-04-2.89822E-05-3.28685E-05-9.81452E-06 5.08977E-19 6.20293E-19
 -1      2316 1.00529E-04-2.50664E-05-3.23548E-05-3.77801E-06 2.95846E-19-8.81334E-19
 -1      2317 1.00124E-04-2.44849E-05-3.23814E-05-1.07653E-06-5.28535E-20-8.84285E-19
 -1      2318 1.03055E-04-2.49477E-05-3.35133E-05-5.88386E-06 3.13918E-19-5.91270E-19
 -1      2319 1.00253E-04-2.46323E-05-3.23636E-05 2.31179E-06-2.38566E-19-7.99797E-19
 -1      2320 1.00848E-04-2.54557E-05-3.23337E-05 4.90398E-06-4.01547E-19-5.01164E-19
 -1      2321 1.02057E-04-2.34772E-05-3.37335E-05 7.14512E-07-1.90715E-19-2.52944E-19
 -1      2322 1.02059E-04-2.69548E-05-3.21130E-05 7.39751E-06-4.69346E-19-5.13436E-19
 -1      2323 1.03330E-04-2.86811E-05-3.20507E-05 8.86310E-06-2.14135E-19-7.64540E-19
 -1      2324 1.03490E-04-2.55423E-05-3.34322E-05 7.01209E-06-5.97165E-19-9.82514E-19
 -1      2325 1.04748E-04-3.05779E-05-3.17312E-05 9.56671E-06-4.53891E-19-1.43504E-18
 -1      2326 1.06086E-04-3.22992E-05-3.16779E-05 9.58701E-06-3.44491E-19-1.44459E-18
 -1      2327 1.06289E-04-2.98069E-05-3.27514E-05 1.02856E-05-6.54651E-19-1.63948E-18
 -1      2328 1.06883E-04-3.36463E-05-3.13771E-05 8.67590E-06 1.63582E-19-1.70393E-18
 -1      2329 1.07806E-04-3.47194E-05-3.13531E-05 7.61909E-06 4.79895E-19-1.27931E-18
 -1      2330 1.08623E-04-3.39099E-05-3.19709E-05 9.84809E-06-2.42845E-19-1.94383E-18
 -1      2331 1.07737E-04-3.51657E-05-3.11320E-05 5.88382E-06 3.67902E-19-1.78005E-18
 -1      2332 1.08079E-04-3.54658E-05-3.11258E-05 4.37673E-06 3.94224E-19-1.62330E-18
 -1      2333 1.09378E-04-3.62250E-05-3.13182E-05 6.89383E-06-4.08098E-20-1.42608E-18
 -1      2334 1.07375E-04-3.51908E-05-3.09831E-05 2.57687E-06 4.79381E-19-2.18892E-18
 -1      2335 1.07220E-04-3.49356E-05-3.09693E-05 1.13082E-06 6.81569E-19-1.81050E-18
 -1      2336 1.08568E-04-3.65156E-05-3.08695E-05 3.13491E-06 2.38675E-19-1.81176E-18
 -1      2337 1.06235E-04-3.42958E-05-3.08764E-05-3.08123E-07 5.11801E-19-1.09591E-18
 -1      2338 1.05756E-04-3.37718E-05-3.08351E-05-1.42414E-06 4.11405E-19-1.00518E-18
 -1      2339 1.06830E-04-3.54606E-05-3.05920E-05-2.16912E-07 8.16334E-19-2.11186E-18
 -1      2340 1.04750E-04-3.30547E-05-3.07610E-05-2.37467E-06 3.44876E-19-1.51508E-18
 -1      2341 1.04106E-04-3.24740E-05-3.06849E-05-3.08911E-06-6.31635E-21-8.35366E-19
 -1      2342 1.04797E-04-3.38585E-05-3.04144E-05-2.64430E-06 1.91879E-19-1.44788E-18
 -1      2343 1.03212E-04-3.18402E-05-3.06097E-05-3.59161E-06-3.93001E-19-1.18742E-18
 -1      2344 1.02518E-04-3.13179E-05-3.05027E-05-3.94764E-06-8.07291E-20-5.53824E-19
 -1      2345 1.02868E-04-3.22601E-05-3.02735E-05-4.09401E-06-1.37985E-19-1.98758E-19
 -1      2346 1.01777E-04-3.08255E-05-3.04183E-05-4.10824E-06 2.49466E-19-1.04411E-18
 -1      2347 1.01102E-04-3.04042E-05-3.02908E-05-4.19447E-06 5.09957E-20 1.90688E-19
 -1      2348 1.01214E-04-3.09331E-05-3.01317E-05-4.73417E-06-2.13748E-19-7.40583E-19
 -1      2349 1.00509E-04-3.00524E-05-3.01978E-05-4.12588E-06-7.17966E-20 6.58967E-20
 -1      2350 9.98907E-05-2.97340E-05-3.00617E-05-4.03434E-06 1.98714E-20 1.20315E-19
 -1      2351 9.98686E-05-2.99475E-05-2.99752E-05-4.79457E-06-3.19476E-19-8.87859E-19
 -1      2352 9.94227E-05-2.94980E-05-2.99643E-05-3.83079E-06-3.89592E-19-2.05451E-19
 -1      2353 9.88791E-05-2.92676E-05-2.98300E-05-3.63810E-06-6.00578E-19 5.05477E-19
 -1      2354 9.88009E-05-2.92718E-05-2.98054E-05-4.48708E-06-4.43771E-19-4.42100E-19
 -1      2355 9.85117E-05-2.91175E-05-2.97338E-05-3.36927E-06-9.17816E-19 1.08652E-18
 -1      2356 9.80483E-05-2.89561E-05-2.96087E-05-3.13157E-06-4.09663E-19 2.79742E-19
 -1      2357 9.79622E-05-2.88393E-05-2.96300E-05-3.97820E-06-5.38338E-19 6.84926E-19
 -1      2358 9.77602E-05-2.88658E-05-2.95182E-05-2.84455E-06-2.89969E-19 4.59208E-19
 -1      2359 9.73752E-05-2.87557E-05-2.94069E-05-2.59912E-06-3.12879E-19 6.75395E-19
 -1      2360 9.73059E-05-2.85815E-05-2.94582E-05-3.38649E-06-2.07423E-19 8.93086E-19
 -1      2361 9.71498E-05-2.87051E-05-2.93253E-05-2.32311E-06-2.81065E-19 9.50919E-19
 -1      2362 9.68373E-05-2.86320E-05-2.92299E-05-2.09232E-06 1.92198E-19 1.17878E-18
 -1      2363 9.67935E-05-2.84417E-05-2.92978E-05-2.78959E-06-6.03052E-20 1.40716E-18
 -1      2364 9.66617E-05-2.86067E-05-2.91587E-05-1.84344E-06 2.25416E-19 5.14155E-19
 -1      2365 9.64135E-05-2.85598E-05-2.90795E-05-1.63896E-06 6.58479E-20 6.88362E-20
 -1      2366 9.63950E-05-2.83777E-05-2.91539E-05-2.23379E-06-4.50986E-19 8.51880E-19
 -1      2367 9.62778E-05-2.85499E-05-2.90194E-05-1.42442E-06 4.68433E-19 3.02544E-19
 -1      2368 9.60847E-05-2.85211E-05-2.89553E-05-1.25080E-06 3.74550E-19 1.25343E-18
 -1      2369 9.60867E-05-2.83596E-05-2.90291E-05-1.74302E-06 4.13730E-19 6.10398E-19
 -1      2370 9.59808E-05-2.85202E-05-2.89059E-05-1.07210E-06-2.14259E-19 1.10959E-18
 -1      2371 9.58340E-05-2.85037E-05-2.88554E-05-9.29446E-07-2.34568E-19 1.76998E-18
 -1      2372 9.58505E-05-2.83675E-05-2.89239E-05-1.32624E-06 4.86700E-20 2.01541E-19
 -1      2373 9.57555E-05-2.85076E-05-2.88157E-05-7.84721E-07-4.94989E-19 2.18397E-18
 -1      2374 9.56463E-05-2.84994E-05-2.87769E-05-6.70652E-07-2.03109E-19 1.64646E-18
 -1      2375 9.56714E-05-2.83888E-05-2.88377E-05-9.83055E-07-3.06787E-19 1.24911E-18
 -1      2376 9.55879E-05-2.85056E-05-2.87457E-05-5.56256E-07 2.71843E-20 1.75500E-18
 -1      2377 9.55089E-05-2.85028E-05-2.87166E-05-4.67208E-07 8.88367E-19 4.65720E-19
 -1      2378 9.55377E-05-2.84155E-05-2.87685E-05-7.07713E-07-2.15085E-19 2.02956E-18
 -1      2379 9.54663E-05-2.85097E-05-2.86927E-05-3.78805E-07 1.89456E-18 3.95047E-19
 -1      2380 9.54108E-05-2.85102E-05-2.86714E-05-3.10856E-07 1.86036E-18 6.19708E-19
 -1      2381 9.54395E-05-2.84429E-05-2.87143E-05-4.91899E-07 6.45039E-19 1.09522E-18
 -1      2382 9.53803E-05-2.85170E-05-2.86534E-05-2.44077E-07 5.97420E-19-5.72494E-19
 -1      2383 9.53428E-05-2.85197E-05-2.86383E-05-1.93467E-07 2.60988E-19-4.37947E-19
 -1      2384 9.53688E-05-2.84687E-05-2.86727E-05-3.26531E-07 9.63466E-19-1.09367E-18
 -1      2385 9.53215E-05-2.85261E-05-2.86250E-05-1.44357E-07 7.38029E-19 3.94355E-19
 -1      2386 9.52975E-05-2.85300E-05-2.86145E-05-1.07910E-07-2.19147E-19 9.14934E-19
 -1      2387 9.53191E-05-2.84918E-05-2.86412E-05-2.02855E-07 6.33311E-19-2.00204E-20
 -1      2388 9.52829E-05-2.85363E-05-2.86046E-05-7.30439E-08-1.04844E-18 1.58632E-18
 -1      2389 9.52687E-05-2.85409E-05-2.85974E-05-4.85076E-08-1.42833E-19 1.72475E-18
 -1      2390 9.52848E-05-2.85122E-05-2.86175E-05-1.13281E-07-2.31223E-19 5.56993E-19
 -1      2391 9.46397E-05-2.78001E-05-2.86287E-05-1.80268E-06 5.09930E-19-2.18696E-20
 -1      2392 9.44654E-05-2.76552E-05-2.86069E-05-1.34230E-06 6.12211E-19 1.46959E-19
 -1      2393 9.51092E-05-2.80367E-05-2.87287E-05-2.67318E-06 7.17602E-19-2.80745E-19
 -1      2394 9.47328E-05-2.78879E-05-2.86328E-05-2.30645E-06 6.14769E-19-1.76776E-19
 -1      2395 9.51423E-05-2.77181E-05-2.89113E-05-2.24011E-06 7.40002E-19-5.18978E-19
 -1      2396 9.58737E-05-2.82770E-05-2.89523E-05-3.43806E-06 9.91096E-19-3.15752E-19
 -1      2397 9.53310E-05-2.81144E-05-2.87982E-05-3.09928E-06 8.82186E-19-2.18032E-19
 -1      2398 9.54724E-05-2.79295E-05-2.89596E-05-3.26536E-06 8.06167E-19-5.64728E-19
 -1      2399 9.69008E-05-2.85419E-05-2.92774E-05-4.20051E-06 1.05821E-18-3.87561E-19
 -1      2400 9.62062E-05-2.83564E-05-2.90731E-05-3.84836E-06 1.09675E-18-2.01789E-19
 -1      2401 9.60291E-05-2.80980E-05-2.91239E-05-4.18532E-06 9.82492E-19-5.29549E-19
 -1      2402 9.81805E-05-2.88541E-05-2.96906E-05-5.02283E-06 1.55800E-19-1.04611E-19
 -1      2403 9.73343E-05-2.86330E-05-2.94401E-05-4.63428E-06 7.01441E-19-2.00565E-19
 -1      2404 9.67892E-05-2.82589E-05-2.93792E-05-5.10809E-06 8.39832E-19-2.77321E-19
 -1      2405 9.97206E-05-2.92477E-05-3.01815E-05-5.92711E-06 3.24625E-19-2.78966E-19
 -1      2406 9.87146E-05-2.89715E-05-2.98877E-05-5.49911E-06 2.44681E-19-3.38112E-19
 -1      2407 9.77458E-05-2.84492E-05-2.97069E-05-6.09677E-06 4.23508E-19-3.63138E-19
 -1      2408 1.01542E-04-2.97783E-05-3.07366E-05-6.88251E-06 2.69241E-19-5.42708E-19
 -1      2409 1.00366E-04-2.94164E-05-3.04050E-05-6.44058E-06 3.87355E-19-4.82590E-19
 -1      2410 9.89126E-05-2.87240E-05-3.00893E-05-7.16776E-06 4.66028E-19-7.24569E-19
 -1      2411 1.03677E-04-3.05352E-05-3.13338E-05-7.77883E-06 6.23415E-19-8.39243E-19
 -1      2412 1.02325E-04-3.00420E-05-3.09759E-05-7.39269E-06 3.29319E-19-8.23357E-19
 -1      2413 1.00331E-04-2.91745E-05-3.05057E-05-8.27608E-06 3.81202E-19-8.90974E-19
 -1      2414 1.06169E-04-3.16519E-05-3.19370E-05-8.38641E-06 1.30605E-19-5.73014E-19
 -1      2415 1.04649E-04-3.09655E-05-3.15741E-05-8.19151E-06 3.97436E-19-5.66062E-19
 -1      2416 1.02085E-04-2.99502E-05-3.09292E-05-9.28682E-06 1.82845E-19-1.04489E-18
 -1      2417 1.09065E-04-3.32974E-05-3.24962E-05-8.31174E-06-5.85968E-19 2.75742E-19
 -1      2418 1.07418E-04-3.23525E-05-3.21611E-05-8.52802E-06-7.02359E-21 1.66238E-19
 -1      2419 1.04321E-04-3.12743E-05-3.13283E-05-9.93191E-06-4.79127E-19-1.11120E-19
 -1      2420 1.12379E-04-3.56018E-05-3.29611E-05-6.98180E-06-3.36097E-19 3.16817E-19
 -1      2421 1.10708E-04-3.43829E-05-3.26926E-05-7.90469E-06-7.35689E-19 4.08174E-19
 -1      2422 1.07255E-04-3.34205E-05-3.16792E-05-9.76042E-06-6.06919E-19 5.06362E-19
 -1      2423 1.15969E-04-3.84397E-05-3.33175E-05-3.74136E-06 1.43334E-20 1.11769E-18
 -1      2424 1.14508E-04-3.71093E-05-3.31422E-05-5.65043E-06-6.07481E-21 8.15203E-19
 -1      2425 1.11117E-04-3.65753E-05-3.19964E-05-8.11285E-06-6.18349E-19 2.17653E-19
 -1      2426 1.19290E-04-4.10303E-05-3.36490E-05 1.77762E-06-5.64673E-19 1.49394E-18
 -1      2427 1.18478E-04-4.01250E-05-3.35506E-05-1.13248E-06 3.10888E-20 1.64959E-18
 -1      2428 1.15913E-04-4.04629E-05-3.23888E-05-4.21882E-06-3.08489E-19 1.42647E-18
 -1      2429 1.21155E-04-4.15599E-05-3.41868E-05 8.86078E-06-1.12057E-18 1.82327E-18
 -1      2430 1.21574E-04-4.20714E-05-3.40772E-05 5.62799E-06-9.73294E-19 1.79149E-18
 -1      2431 1.20955E-04-4.37599E-05-3.31192E-05 2.36922E-06-1.18811E-18 1.87286E-18
 -1      2432 1.20052E-04-3.79026E-05-3.51947E-05 1.44424E-05-4.91147E-20 2.39958E-18
 -1      2433 1.21929E-04-4.06221E-05-3.49722E-05 1.26123E-05-1.08467E-18 2.34265E-18
 -1      2434 1.24068E-04-4.35705E-05-3.45777E-05 1.07726E-05-1.16917E-18 2.33772E-18
 -1      2435 1.15704E-04-3.02789E-05-3.65928E-05 1.41166E-05 1.05628E-18 2.11120E-18
 -1      2436 1.18538E-04-3.44347E-05-3.62735E-05 1.56459E-05 1.20668E-18 2.19489E-18
 -1      2437 1.23666E-04-3.79730E-05-3.67642E-05 1.64252E-05 4.12704E-19 2.67048E-18
 -1      2438 1.11677E-04-2.38848E-05-3.77000E-05 4.99892E-06 2.71538E-18 4.69167E-19
 -1      2439 1.13326E-04-2.63057E-05-3.75161E-05 1.00551E-05 1.56309E-18 1.16462E-18
 -1      2440 1.19016E-04-2.73873E-05-3.94231E-05 1.37742E-05 1.98121E-18 1.71596E-18
 -1      2441 1.12318E-04-2.50121E-05-3.76932E-05-7.57355E-06 3.00032E-18-1.37795E-19
 -1      2442 1.11458E-04-2.34693E-05-3.78014E-05-2.25823E-06 3.29115E-18 4.69693E-19
 -1      2443 1.16045E-04-2.14621E-05-4.07563E-05 1.40246E-06 3.08786E-18 1.31134E-18
 -1      2444 1.17464E-04-3.25412E-05-3.66249E-05-1.53958E-05 6.42713E-19-8.60615E-19
 -1      2445 1.14643E-04-2.83926E-05-3.69353E-05-1.30250E-05 1.94129E-18-5.98736E-19
 -1      2446 1.17747E-04-2.48588E-05-3.99809E-05-1.23027E-05 2.77906E-18 1.05577E-18
 -1      2447 1.21691E-04-3.96717E-05-3.52749E-05-1.40168E-05-1.05779E-18-1.48677E-18
 -1      2448 1.19332E-04-3.64986E-05-3.55180E-05-1.52649E-05-4.84516E-19-1.35313E-18
 -1      2449 1.22908E-04-3.56052E-05-3.74940E-05-1.68776E-05 4.61236E-19-4.77303E-19
 -1      2450 1.22169E-04-4.21535E-05-3.43020E-05-7.49260E-06-6.23939E-19-1.42198E-18
 -1      2451 1.21339E-04-4.11974E-05-3.44178E-05-1.05261E-05-6.31155E-19-1.68877E-18
 -1      2452 1.24584E-04-4.27801E-05-3.50584E-05-1.24484E-05-5.77504E-19-1.43261E-18
 -1      2453 1.19559E-04-4.07506E-05-3.37390E-05-4.77218E-07 1.61664E-20-1.14691E-18
 -1      2454 1.20083E-04-4.14236E-05-3.38170E-05-3.44539E-06-3.65839E-19-1.47294E-18
 -1      2455 1.22061E-04-4.41238E-05-3.34305E-05-4.34842E-06-3.55487E-19-1.20557E-18
 -1      2456 1.15737E-04-3.78338E-05-3.33523E-05 4.53653E-06-2.69608E-19-5.48848E-19
 -1      2457 1.17032E-04-3.91041E-05-3.34906E-05 2.48250E-06 1.40971E-19-9.65546E-19
 -1      2458 1.17266E-04-4.13423E-05-3.25978E-05 2.69783E-06-4.85843E-19-8.49559E-19
 -1      2459 1.11948E-04-3.50043E-05-3.29535E-05 7.18791E-06-3.45474E-19 1.33560E-19
 -1      2460 1.13526E-04-3.62383E-05-3.31830E-05 6.13444E-06-3.19037E-19-1.50183E-19
 -1      2461 1.12385E-04-3.74182E-05-3.21858E-05 7.10063E-06-3.55999E-19 1.45865E-19
 -1      2462 1.08660E-04-3.28424E-05-3.24817E-05 8.03010E-06 1.19144E-19 1.34706E-18
 -1      2463 1.10243E-04-3.38176E-05-3.27812E-05 7.73208E-06 1.26026E-19 4.05302E-19
 -1      2464 1.08381E-04-3.40506E-05-3.18971E-05 9.08573E-06-4.43842E-19 3.56521E-19
 -1      2465 1.05932E-04-3.13625E-05-3.19529E-05 7.75617E-06-8.30861E-19 5.16059E-19
 -1      2466 1.07389E-04-3.20690E-05-3.22839E-05 7.91984E-06 7.51713E-20 1.74301E-18
 -1      2467 1.05357E-04-3.16984E-05-3.15932E-05 9.40925E-06-3.72468E-19 1.52527E-18
 -1      2468 1.03694E-04-3.03970E-05-3.14100E-05 6.91241E-06-1.71746E-18-3.41774E-19
 -1      2469 1.04971E-04-3.08931E-05-3.17377E-05 7.30617E-06-1.45916E-18-7.68806E-20
 -1      2470 1.03102E-04-3.02358E-05-3.12433E-05 8.77468E-06-6.51201E-19 1.54224E-18
 -1      2471 1.01861E-04-2.97745E-05-3.08923E-05 5.85487E-06-2.04132E-18-7.51837E-19
 -1      2472 1.02946E-04-3.01214E-05-3.11934E-05 6.32826E-06-2.01563E-18-3.58414E-19
 -1      2473 1.01388E-04-2.93909E-05-3.08650E-05 7.68434E-06-1.62244E-18-1.08735E-19
 -1      2474 1.00367E-04-2.93687E-05-3.04258E-05 4.78777E-06-2.68892E-19-1.63972E-20
 -1      2475 1.01265E-04-2.96132E-05-3.06884E-05 5.25584E-06-1.30360E-18-9.95201E-19
 -1      2476 1.00048E-04-2.89272E-05-3.04868E-05 6.45243E-06-1.53804E-18-5.96941E-20
 -1      2477 9.91567E-05-2.90983E-05-3.00230E-05 3.81365E-06 1.73459E-18-1.32945E-19
 -1      2478 9.98846E-05-2.92725E-05-3.02434E-05 4.23514E-06 6.55843E-19 1.63752E-19
 -1      2479 9.89788E-05-2.86826E-05-3.01325E-05 5.25539E-06-2.54035E-20-4.40846E-19
 -1      2480 9.81874E-05-2.89142E-05-2.96864E-05 2.97389E-06 2.01692E-18 2.22036E-19
 -1      2481 9.87662E-05-2.90390E-05-2.98660E-05 3.33342E-06 2.30168E-18 7.66887E-19
 -1      2482 9.81187E-05-2.85584E-05-2.98166E-05 4.17992E-06 1.80599E-18 9.17943E-19
 -1      2483 9.74209E-05-2.87871E-05-2.94124E-05 2.27618E-06 1.14541E-18-5.70581E-20
 -1      2484 9.78732E-05-2.88765E-05-2.95555E-05 2.57228E-06 2.10904E-18 2.26411E-19
 -1      2485 9.74273E-05-2.84988E-05-2.95454E-05 3.25887E-06 2.12477E-18 4.93629E-19
 -1      2486 9.68237E-05-2.86990E-05-2.91944E-05 1.71140E-06 2.18056E-19-3.90771E-19
 -1      2487 9.71711E-05-2.87625E-05-2.93060E-05 1.94926E-06 3.90164E-19-5.98715E-20
 -1      2488 9.68760E-05-2.84735E-05-2.93196E-05 2.49529E-06 1.11491E-18 1.73432E-19
 -1      2489 9.63658E-05-2.86386E-05-2.90242E-05 1.26324E-06-9.10116E-19 4.95242E-19
 -1      2490 9.66280E-05-2.86830E-05-2.91096E-05 1.45069E-06-2.17965E-19 1.41484E-19
 -1      2491 9.64420E-05-2.84665E-05-2.91362E-05 1.87720E-06-1.77620E-19 2.56436E-19
 -1      2492 9.60207E-05-2.85981E-05-2.88939E-05 9.13468E-07-2.32255E-18 2.19124E-19
 -1      2493 9.62150E-05-2.86284E-05-2.89581E-05 1.05885E-06-1.70541E-18 1.29753E-19
 -1      2494 9.61053E-05-2.84691E-05-2.89902E-05 1.38631E-06-9.92175E-19 6.19780E-19
 -1      2495 9.57656E-05-2.85722E-05-2.87959E-05 6.44471E-07-1.82482E-18 5.78351E-19
 -1      2496 9.59066E-05-2.85920E-05-2.88432E-05 7.55618E-07-2.24485E-18-3.34887E-20
 -1      2497 9.58486E-05-2.84768E-05-2.88764E-05 1.00270E-06-1.54583E-18-5.03139E-19
 -1      2498 9.55813E-05-2.85568E-05-2.87237E-05 4.40490E-07-4.14983E-19 8.72425E-19
 -1      2499 9.56810E-05-2.85690E-05-2.87578E-05 5.24293E-07-1.28677E-18 9.95718E-19
 -1      2500 9.56566E-05-2.84871E-05-2.87892E-05 7.07309E-07-1.76474E-18 6.81204E-19
 -1      2501 9.54516E-05-2.85490E-05-2.86717E-05 2.88023E-07 1.01406E-18 9.82513E-19
 -1      2502 9.55199E-05-2.85556E-05-2.86956E-05 3.50315E-07 6.64441E-19 1.02859E-18
 -1      2503 9.55160E-05-2.84984E-05-2.87237E-05 4.83109E-07-2.52235E-19 1.47972E-19
 -1      2504 9.53634E-05-2.85464E-05-2.86352E-05 1.75938E-07 1.64064E-18 1.44112E-18
 -1      2505 9.54083E-05-2.85492E-05-2.86514E-05 2.21480E-07 1.58494E-18 1.18718E-18
 -1      2506 9.54157E-05-2.85099E-05-2.86754E-05 3.15519E-07 7.90469E-19 8.74139E-19
 -1      2507 9.53061E-05-2.85477E-05-2.86102E-05 9.49679E-08 4.57350E-19 8.62778E-19
 -1      2508 9.53335E-05-2.85475E-05-2.86208E-05 1.27550E-07 9.84044E-19 1.56343E-18
 -1      2509 9.53456E-05-2.85208E-05-2.86404E-05 1.92778E-07 1.44078E-18 2.33087E-18
 -1      2510 9.52711E-05-2.85520E-05-2.85936E-05 3.90194E-08 3.58279E-19 2.15720E-18
 -1      2511 9.52864E-05-2.85498E-05-2.86002E-05 6.12713E-08-2.93281E-19 1.39063E-18
 -1      2512 9.52991E-05-2.85327E-05-2.86154E-05 1.04147E-07-1.89810E-19 2.34872E-18
 -1      2513 9.52512E-05-2.85588E-05-2.85823E-05 3.81522E-09 4.48679E-19 1.40375E-18
 -1      2514 9.52588E-05-2.85548E-05-2.85865E-05 1.74957E-08 1.35358E-18 1.99530E-18
 -1      2515 9.52702E-05-2.85453E-05-2.85974E-05 4.30255E-08 7.97327E-19 2.55602E-18
 -1      2516 9.52448E-05-2.85647E-05-2.85767E-05-8.78777E-09 4.35376E-19 8.54229E-19
 -1      2517 9.51988E-05-2.84508E-05-2.86069E-05 5.99934E-08-1.48370E-19-2.83050E-18
 -1      2518 9.52089E-05-2.84639E-05-2.86046E-05 6.05418E-08-8.20859E-19-3.41569E-18
 -1      2519 9.51790E-05-2.84225E-05-2.86105E-05 4.74775E-08 2.65581E-20-1.23734E-18
 -1      2520 9.51873E-05-2.84329E-05-2.86088E-05 5.41728E-08 6.61269E-20-2.15812E-18
 -1      2521 9.51803E-05-2.84066E-05-2.86169E-05 7.19676E-08 9.68715E-19-2.18804E-18
 -1      2522 9.52409E-05-2.85183E-05-2.85957E-05 4.35115E-08-5.10289E-20-2.33633E-18
 -1      2523 9.52474E-05-2.85298E-05-2.85928E-05 3.40190E-08 7.25490E-19-6.76449E-19
 -1      2524 9.52218E-05-2.84850E-05-2.86019E-05 5.84176E-08-1.22016E-18-3.10172E-18
 -1      2525 9.52309E-05-2.84981E-05-2.85993E-05 5.23725E-08-9.20374E-19-2.57377E-18
 -1      2526 9.52340E-05-2.84881E-05-2.86058E-05 6.48995E-08 4.37140E-19-3.00188E-18
 -1      2527 9.52086E-05-2.84462E-05-2.86122E-05 7.71218E-08 1.91598E-19-3.55031E-18
 -1      2528 9.51663E-05-2.84048E-05-2.86126E-05 2.39761E-08-1.48542E-18-8.75278E-19
 -1      2529 9.51710E-05-2.84106E-05-2.86117E-05 3.50506E-08-2.04243E-19-1.56993E-18
 -1      2530 9.51575E-05-2.83761E-05-2.86199E-05 5.12373E-08 3.65038E-19-1.95446E-18
 -1      2531 9.51633E-05-2.84005E-05-2.86129E-05-4.88354E-09-6.98284E-19 8.48872E-19
 -1      2532 9.51634E-05-2.84006E-05-2.86129E-05 7.82342E-09-1.59914E-18 1.16292E-18
 -1      2533 9.51447E-05-2.83597E-05-2.86214E-05 1.94203E-08-3.76647E-19 9.57720E-20
 -1      2534 9.51704E-05-2.84102E-05-2.86116E-05-3.23756E-08-1.03659E-18-7.67806E-19
 -1      2535 9.51660E-05-2.84047E-05-2.86125E-05-2.11245E-08-7.65525E-19 4.79014E-19
 -1      2536 9.51444E-05-2.83598E-05-2.86213E-05-1.64552E-08 8.05595E-19 9.58483E-19
 -1      2537 9.51858E-05-2.84318E-05-2.86087E-05-5.19060E-08-1.24738E-18 1.68384E-18
 -1      2538 9.51779E-05-2.84218E-05-2.86103E-05-4.48927E-08-1.68613E-18 7.30744E-19
 -1      2539 9.51565E-05-2.83760E-05-2.86196E-05-4.83972E-08-4.98320E-19-7.85510E-19
 -1      2540 9.52069E-05-2.84624E-05-2.86045E-05-5.95320E-08 1.04241E-18 3.73284E-18
 -1      2541 9.51970E-05-2.84494E-05-2.86067E-05-5.83205E-08-5.11172E-19 2.40074E-18
 -1      2542 9.51785E-05-2.84058E-05-2.86164E-05-6.98150E-08-1.52447E-19 2.77138E-18
 -1      2543 9.52290E-05-2.84970E-05-2.85991E-05-5.30648E-08 1.02755E-18 1.85432E-18
 -1      2544 9.52196E-05-2.84832E-05-2.86017E-05-5.82319E-08 5.99128E-19 2.78735E-18
 -1      2545 9.52061E-05-2.84449E-05-2.86117E-05-7.60988E-08-2.56014E-19 2.90426E-18
 -1      2546 9.52459E-05-2.85292E-05-2.85926E-05-3.48623E-08-2.79467E-19-4.10567E-19
 -1      2547 9.52397E-05-2.85172E-05-2.85956E-05-4.45147E-08 5.28855E-19 2.01427E-19
 -1      2548 9.52329E-05-2.84874E-05-2.86054E-05-6.63423E-08 1.87819E-19 5.80022E-19
 -1      2549 9.33066E-05-5.21165E-05-1.77511E-05 4.07174E-05-1.77284E-18 3.89979E-19
 -1      2550 7.39383E-05-4.55700E-05-1.20345E-05 4.02567E-05-2.26772E-18-4.98691E-20
 -1      2551 9.45236E-05-2.75330E-05-2.86912E-05-6.66910E-07 9.53925E-19 3.54899E-19
 -1      2552 9.46153E-05-2.73708E-05-2.87742E-05-3.83014E-09 1.19274E-18 7.19660E-19
 -1      2553 9.50737E-05-2.74076E-05-2.90168E-05-9.43731E-07 1.10779E-18-2.51518E-19
 -1      2554 9.52473E-05-2.85563E-05-2.85814E-05-4.23019E-09 4.17307E-19 2.77726E-19
 -1      2555 1.96637E-05-1.85780E-05-1.37669E-07-9.99225E-06-1.93282E-19 1.88846E-18
 -1      2556 2.59409E-05-2.10492E-05-1.94253E-06-2.40091E-05-7.77259E-19 2.02759E-18
 -1      2557 5.50404E-05-3.60216E-05-8.04329E-06 3.94913E-05-1.97528E-18 4.60151E-19
 -1      2558 4.02160E-05-2.93015E-05-4.30036E-06 3.13694E-05-1.89354E-18 2.20462E-18
 -1      2559 9.52425E-05-2.00251E-05-3.22825E-05-1.11939E-05-2.29459E-18-1.82791E-18
 -1      2560 9.57057E-05-2.33739E-05-3.10278E-05-7.39579E-06-2.15715E-18-1.54106E-18
 -1      2561 9.52893E-05-2.24690E-05-3.11802E-05-6.96987E-06-1.98947E-18-1.93008E-18
 -1      2562 9.33852E-05-1.75457E-05-3.25016E-05-1.07824E-05-2.22456E-18-2.40017E-18
 -1      2563 4.08167E-05-2.87886E-05-4.78849E-06-3.42709E-05-5.32148E-19 1.39845E-18
 -1      2564 5.76677E-05-3.63099E-05-9.06550E-06-4.27080E-05-2.62368E-19 1.23159E-18
 -1      2565 8.74487E-05-1.01934E-05-3.31453E-05-1.35905E-06 2.26064E-19-3.65689E-18
 -1      2566 8.75862E-05-1.03406E-05-3.31381E-05-2.39044E-06-1.60605E-20-3.69991E-18
 -1      2567 8.89238E-05-1.24139E-05-3.27894E-05-2.59905E-06-1.67304E-19-3.51504E-18
 -1      2568 8.85989E-05-1.20081E-05-3.28250E-05-8.21574E-07 2.39355E-19-3.44063E-18
 -1      2569 1.48270E-04-1.40758E-05-5.78854E-05 3.94984E-06 4.14453E-18-2.99214E-19
 -1      2570 1.48106E-04-1.30985E-05-5.83711E-05-1.76744E-07 4.16867E-18-7.87926E-19
 -1      2571 1.48193E-04-3.49496E-05-4.87190E-05-2.05311E-06-1.54255E-18-2.34713E-18
 -1      2572 1.50605E-04-2.74241E-05-5.32257E-05 1.93025E-06-2.42442E-18-2.76090E-18
 -1      2573 1.48982E-04-2.91097E-05-5.17049E-05 9.32652E-06 3.56431E-18 7.01979E-19
 -1      2574 1.48256E-04-2.09402E-05-5.51790E-05 8.10986E-06 3.83198E-18 4.24152E-19
 -1      2575 1.47882E-04-4.97158E-05-4.21929E-05-4.86800E-06 1.65148E-18-2.36576E-18
 -1      2576 1.52313E-04-4.16952E-05-4.79679E-05 2.99615E-06 2.95996E-18-2.39710E-19
 -1      2577 1.29374E-04-5.93675E-05-2.99954E-05-2.22839E-05-1.14985E-19-3.57363E-18
 -1      2578 1.42397E-04-5.64075E-05-3.69758E-05-1.55017E-05 6.65239E-19-3.66511E-18
 -1      2579 1.44231E-04-5.54356E-05-3.80738E-05-2.65859E-06 4.20486E-19-1.10982E-18
 -1      2580 8.96043E-05-5.16953E-05-1.61714E-05-3.92316E-05 1.69407E-20-3.48541E-18
 -1      2581 1.10304E-04-5.71828E-05-2.29566E-05-3.48580E-05-4.87044E-21-3.77242E-18
 -1      2582 5.26519E-05-3.62878E-05-6.80333E-06-3.73347E-05-5.28760E-19-4.86324E-18
 -1      2583 7.09285E-05-4.39109E-05-1.15916E-05-4.25020E-05 6.05629E-20-3.85527E-18
 -1      2584 8.74721E-05-4.86320E-05-1.61818E-05-3.92127E-05-7.58094E-19-3.50047E-18
 -1      2585 2.23179E-05-2.23698E-05 1.45726E-07-1.63775E-05-3.86671E-19-5.83817E-18
 -1      2586 3.27604E-05-2.64088E-05-2.67744E-06-2.92093E-05-1.56701E-19-6.05883E-18
 -1      2587 1.89937E-05-1.80667E-05-2.08297E-07 1.02517E-05-2.15252E-19-4.11785E-18
 -1      2588 1.82329E-05-1.87816E-05 4.76323E-07-4.40159E-06-1.87935E-19-5.18469E-18
 -1      2589 3.99608E-05-2.77733E-05-4.96569E-06 3.50458E-05 3.17426E-19-2.38419E-18
 -1      2590 2.81932E-05-2.22835E-05-2.16565E-06 2.40619E-05 1.83171E-19-3.16070E-18
 -1      2591 7.02344E-05-4.19973E-05-1.21353E-05 4.41123E-05 1.16044E-19-1.57898E-18
 -1      2592 5.36810E-05-3.55731E-05-7.47239E-06 3.97209E-05 4.04035E-19-1.94479E-18
 -1      2593 5.29506E-05-2.97845E-05-9.38187E-06 3.64596E-05 1.05223E-18-1.86601E-18
 -1      2594 1.10834E-04-5.55483E-05-2.38859E-05 3.62032E-05-5.19655E-19-1.79338E-18
 -1      2595 9.32769E-05-5.15900E-05-1.76542E-05 4.03330E-05 2.66815E-19-1.79044E-18
 -1      2596 1.46194E-04-3.75943E-05-4.71362E-05-6.58447E-07-2.10763E-18-6.41416E-19
 -1      2597 1.43802E-04-4.46900E-05-4.26124E-05 3.97998E-06-1.57029E-18-7.14472E-19
 -1      2598 1.42200E-04-1.69817E-05-5.42951E-05-6.43421E-06-3.56834E-18-1.15429E-18
 -1      2599 1.43435E-04-2.59103E-05-5.07357E-05-6.01030E-06-2.90998E-18-5.74288E-19
 -1      2600 1.40701E-04-9.26888E-06-5.68569E-05 2.81319E-07-3.50100E-18-2.05342E-18
 -1      2601 1.39833E-04-1.01725E-05-5.61500E-05-3.22593E-06-3.82287E-18-1.84971E-18
 -1      2602 1.45518E-04-1.85323E-05-5.46802E-05 5.11841E-06-2.65608E-18-3.06922E-18
 -1      2603 1.41189E-04-1.19979E-05-5.60582E-05 4.59547E-06-2.94026E-18-2.89844E-18
 -1      2604 1.38536E-04-5.04028E-05-3.78454E-05-1.38670E-05 4.94244E-19-2.74693E-18
 -1      2605 1.46779E-04-4.40588E-05-4.40959E-05-8.74639E-06-4.41145E-19-2.30033E-18
 -1      2606 1.11754E-04-5.53339E-05-2.42344E-05-3.36833E-05 5.56712E-19-1.52667E-18
 -1      2607 1.27986E-04-5.59023E-05-3.11303E-05-2.56409E-05 1.27076E-18-2.57667E-18
 -1      2608 8.00098E-05-4.67526E-05-1.40758E-05-4.23263E-05 3.06838E-19-2.04029E-19
 -1      2609 9.78220E-05-5.22155E-05-1.95490E-05-4.17032E-05 3.12132E-19-7.58200E-19
 -1      2610 1.11093E-04-5.63102E-05-2.32994E-05-3.40334E-05 1.43699E-18-2.92745E-18
 -1      2611 1.51840E-04-3.55088E-05-5.05054E-05-6.55588E-06 2.98029E-18-6.79109E-19
 -1      2612 1.52259E-04-4.33811E-05-4.67462E-05-2.63514E-07 2.70511E-18-1.09013E-18
 -1      2613 1.47954E-04-4.87874E-05-4.24665E-05-2.83071E-06 1.73893E-18-3.38813E-19
 -1      2614 9.65533E-05-2.51215E-05-3.06356E-05 7.11484E-06 2.50339E-18 1.77487E-18
 -1      2615 9.75931E-05-2.38033E-05-3.16442E-05 1.02414E-05 2.62548E-18 2.09942E-18
 -1      2616 9.60568E-05-2.13308E-05-3.20812E-05 1.13946E-05 2.83743E-18 1.23750E-18
 -1      2617 9.61313E-05-2.41551E-05-3.08812E-05 7.07817E-06 2.58334E-18 7.00653E-19
 -1      2618 1.29635E-04-5.94341E-05-3.02763E-05 2.55471E-05-1.10220E-18 1.01644E-20
 -1      2619 1.13233E-04-5.78760E-05-2.36347E-05 3.15765E-05-1.94034E-18 5.74924E-19
 -1      2620 1.33462E-04-1.29400E-05-5.21793E-05-2.12450E-06 3.41206E-18 1.02386E-18
 -1      2621 1.43803E-04-1.45806E-05-5.57626E-05-4.47970E-06 3.91901E-18-3.90112E-19
 -1      2622 1.36359E-04-1.56731E-05-5.21664E-05-8.94967E-06 3.56855E-18 4.31246E-19
 -1      2623 9.06904E-05-1.46712E-05-3.25743E-05-6.17102E-06-1.08649E-18-3.37646E-18
 -1      2624 8.96774E-05-1.29377E-05-3.29472E-05-7.38985E-06-1.20432E-18-3.57967E-18
 -1      2625 9.04384E-05-1.38261E-05-3.28986E-05-8.54717E-06-1.57383E-18-3.35783E-18
 -1      2626 9.52905E-05-2.68745E-05-2.93366E-05 8.74543E-07 1.48912E-18 9.28262E-21
 -1      2627 9.44334E-05-1.90843E-05-3.23371E-05 1.10579E-05 2.83514E-18 1.54319E-19
 -1      2628 1.36887E-04-6.00100E-05-3.29057E-05 1.40106E-05-1.07118E-18-1.17314E-19
 -1      2629 4.03077E-05-2.29546E-05-6.86366E-06-2.91565E-05 1.70783E-19 1.26907E-18
 -1      2630 7.59874E-05-4.24442E-05-1.40482E-05-4.13055E-05 4.55704E-19-3.46754E-19
 -1      2631 3.71781E-05-2.36292E-05-5.32529E-06 2.64167E-05-1.29808E-18 2.00683E-18
 -1      2632 9.52513E-05-2.85562E-05-2.85838E-05 6.09710E-09 6.46812E-19 1.76114E-18
 -1      2633 9.52537E-05-2.85499E-05-2.85874E-05 1.63735E-08 1.15895E-18 1.18399E-18
 -1      2634 7.17260E-05-4.09601E-05-1.27900E-05 3.89556E-05-2.24697E-18 3.53636E-19
 -1      2635 1.09301E-04-5.68992E-05-2.21661E-05 3.31322E-05-2.18344E-18 5.43478E-19
 -1      2636 2.36986E-05-1.59762E-05-2.79526E-06-2.50592E-06-5.71244E-19 1.90709E-18
 -1      2637 1.34631E-04-5.56257E-05-3.39129E-05-1.62854E-05 9.88911E-19-2.15909E-18
 -1      2638 1.37005E-04-5.35872E-05-3.61812E-05-6.06263E-06 1.05798E-18-2.24697E-18
 -1      2639 1.29131E-04-5.80769E-05-3.02888E-05-1.85802E-05 1.79391E-18-2.38223E-18
 -1      2640 1.38759E-04-2.21532E-05-5.00789E-05 8.45356E-06-2.39372E-18-3.74420E-18
 -1      2641 9.48941E-05-2.05405E-05-3.18221E-05 9.04858E-06 2.70753E-18-9.61250E-20
 -1      2642 1.31075E-04-9.91685E-06-5.22352E-05 3.67048E-06-2.76112E-18-2.94341E-18
 -1      2643 1.32306E-04-1.35344E-05-5.12624E-05-7.05191E-06-3.14165E-18-1.24673E-18
 -1      2644 1.39065E-04-3.16396E-05-4.62691E-05-8.44006E-06-1.99593E-18-7.17860E-20
 -1      2645 8.69216E-05-4.71835E-05-1.65844E-05 4.06019E-05 8.23528E-19-1.20289E-18
 -1      2646 3.09045E-05-1.74548E-05-5.18298E-06 1.71334E-05 7.00655E-19-3.43747E-18
 -1      2647 1.40249E-04-5.03815E-05-3.85056E-05 6.59790E-06-1.41413E-18-5.82335E-19
 -1      2648 1.28710E-04-5.87735E-05-3.05878E-05 1.91687E-05-6.44010E-19-7.92399E-19
 -1      2649 1.21607E-04-5.76260E-05-2.71918E-05 2.84133E-05-9.56406E-19-1.25763E-18
 -1      2650 1.16378E-04-5.73544E-05-2.49627E-05 2.97030E-05 1.47807E-19-1.50846E-18
 -1      2651 4.95377E-05-3.02421E-05-7.82490E-06-3.36613E-05-5.02291E-19-5.18617E-18
 -1      2652 1.23264E-04-6.02013E-05-2.68824E-05-2.64000E-05-6.39404E-19-3.19353E-18
 -1      2653 1.31298E-04-6.09152E-05-3.03663E-05-1.56448E-05-1.40157E-18-2.00540E-18
 -1      2654 1.15480E-04-5.81182E-05-2.42310E-05-2.91068E-05-1.07912E-18-2.50194E-18
 -1      2655 1.44609E-04-3.62227E-05-4.65800E-05 1.11689E-05 2.66074E-18 1.32836E-18
 -1      2656 9.22248E-05-1.61980E-05-3.26166E-05-9.78012E-06-1.94842E-18-2.83514E-18
 -1      2657 1.43768E-04-4.06051E-05-4.43180E-05 2.06951E-06-3.17743E-19-2.70161E-18
 -1      2658 1.38229E-04-1.67705E-05-5.22651E-05 9.17454E-06 3.37500E-18 1.68136E-18
 -1      2659 1.39810E-04-2.35346E-05-5.07434E-05-1.28613E-05 4.17545E-18-1.02491E-19
 -1      2660 1.48820E-04-3.02894E-05-5.10506E-05-9.91042E-06 3.67739E-18-3.20602E-19
 -1      2661 1.43845E-04-3.54706E-05-4.66141E-05-1.24328E-05 3.17976E-18 6.70215E-20
 -1      2662 2.68931E-05-1.68106E-05-3.78388E-06-1.06080E-05-8.25857E-21-5.67893E-18
 -1      2663 9.52544E-05-2.85507E-05-2.85870E-05-1.72772E-08-8.04116E-19 8.20567E-19
 -1      2664 9.52520E-05-2.85425E-05-2.85902E-05-2.58034E-08-2.88076E-19-5.08052E-19
 -1      2665 9.52532E-05-2.85212E-05-2.85991E-05-4.94165E-08-8.43676E-19 1.21639E-19
 -1      2666 9.52618E-05-2.85454E-05-2.85919E-05-3.14067E-08-2.59483E-19 1.49779E-18
 -1      2667 9.52562E-05-2.85302E-05-2.85963E-05 3.85674E-08 1.41009E-18-2.00442E-19
 -1      2668 9.52655E-05-2.85297E-05-2.86018E-05-5.84637E-08-7.48192E-19 8.58965E-19
 -1      2669 9.00436E-05-1.43603E-05-3.24573E-05 2.77744E-06 1.25196E-18-2.92187E-18
 -1      2670 8.97931E-05-1.40423E-05-3.24864E-05 1.94818E-06 1.01186E-18-2.94978E-18
 -1      2671 8.96142E-05-1.38002E-05-3.25118E-05 1.24538E-06 8.08808E-19-3.07119E-18
 -1      2672 8.95288E-05-1.36933E-05-3.25209E-05 4.06292E-07 5.52198E-19-3.04225E-18
 -1      2673 9.07062E-05-1.55604E-05-3.21896E-05 1.36890E-06 7.95650E-19-2.93089E-18
 -1      2674 9.20133E-05-1.70838E-05-3.21484E-05 5.73640E-06 2.08501E-18-1.95381E-18
 -1      2675 9.13850E-05-1.62017E-05-3.22464E-05 4.94533E-06 1.86877E-18-2.23785E-18
 -1      2676 9.36384E-05-1.95156E-05-3.18076E-05 6.82751E-06 2.41990E-18-1.30468E-18
 -1      2677 9.27569E-05-1.81732E-05-3.19841E-05 6.25151E-06 2.23289E-18-1.67103E-18
 -1      2678 9.33191E-05-1.93659E-05-3.16703E-05 4.89245E-06 2.04248E-18-1.59921E-18
 -1      2679 9.55584E-05-2.52618E-05-3.01346E-05 3.08028E-06 1.90865E-18-2.42305E-19
 -1      2680 9.58167E-05-2.44370E-05-3.05590E-05 4.82026E-06 2.18672E-18-1.31591E-19
 -1      2681 1.23651E-04-1.17091E-05-4.84697E-05 7.44579E-06-2.64168E-18-2.80839E-18
 -1      2682 1.22407E-04-8.98264E-06-4.92346E-05 7.70399E-07-2.66667E-18-2.48832E-18
 -1      2683 3.80578E-05-1.71660E-05-8.30351E-06-2.20929E-05 4.18964E-19 1.33323E-18
 -1      2684 5.07556E-05-2.47281E-05-1.08319E-05-3.29124E-05 5.10443E-19 4.76456E-21
 -1      2685 7.05339E-05-3.60264E-05-1.43199E-05-3.85092E-05 3.47495E-19-4.79950E-19
 -1      2686 9.00486E-05-4.65759E-05-1.84465E-05-3.91349E-05 6.85885E-19-2.34543E-18
 -1      2687 9.56287E-05-2.56205E-05-2.99771E-05-1.58557E-06-1.29981E-18-1.83054E-18
 -1      2688 9.55464E-05-2.61755E-05-2.97367E-05-4.48625E-07-1.05609E-18-1.81959E-18
 -1      2689 9.55934E-05-2.66409E-05-2.95294E-05 4.75570E-07-8.51023E-19-1.69269E-18
 -1      2690 9.55688E-05-2.69712E-05-2.93997E-05 1.27392E-06-7.08656E-19-1.79296E-18
 -1      2691 9.55785E-05-2.58235E-05-2.99018E-05-1.67641E-07-9.88914E-19-1.90144E-18
 -1      2692 9.55731E-05-2.72298E-05-2.92758E-05 1.96869E-06-7.55571E-19-1.69116E-18
 -1      2693 9.56384E-05-2.74425E-05-2.92237E-05 2.55400E-06-6.32346E-19-1.79760E-18
 -1      2694 9.56377E-05-2.66955E-05-2.95554E-05 1.53510E-06-7.30529E-19-1.88738E-18
 -1      2695 9.56532E-05-2.75912E-05-2.91610E-05 3.09610E-06-4.61811E-19-1.81987E-18
 -1      2696 9.58097E-05-2.77479E-05-2.91638E-05 3.55157E-06-4.45690E-19-1.92434E-18
 -1      2697 9.56695E-05-2.72030E-05-2.93513E-05 2.83940E-06-6.22690E-19-1.80300E-18
 -1      2698 9.58611E-05-2.78460E-05-2.91446E-05 3.99951E-06-5.78620E-19-1.86657E-18
 -1      2699 9.61051E-05-2.79896E-05-2.91856E-05 4.37497E-06-5.93325E-19-1.85160E-18
 -1      2700 9.57463E-05-2.75133E-05-2.92504E-05 3.88406E-06-6.70936E-19-1.90260E-18
 -1      2701 9.62129E-05-2.80835E-05-2.91954E-05 4.76467E-06-4.74548E-19-1.75880E-18
 -1      2702 9.65454E-05-2.82521E-05-2.92616E-05 5.08177E-06-5.26126E-19-1.64579E-18
 -1      2703 9.59128E-05-2.77480E-05-2.92207E-05 4.76733E-06-5.11702E-19-1.88978E-18
 -1      2704 9.67340E-05-2.83875E-05-2.92884E-05 5.42593E-06-6.60434E-19-1.51070E-18
 -1      2705 9.71630E-05-2.86220E-05-2.93688E-05 5.67989E-06-7.01839E-19-1.28919E-18
 -1      2706 9.62127E-05-2.80141E-05-2.92357E-05 5.54230E-06-4.18726E-19-1.36579E-18
 -1      2707 9.74684E-05-2.88501E-05-2.94029E-05 5.96644E-06-6.48772E-19-1.05041E-18
 -1      2708 9.80099E-05-2.91967E-05-2.94878E-05 6.12541E-06-4.41652E-19-7.96846E-19
 -1      2709 9.67062E-05-2.84238E-05-2.92734E-05 6.21473E-06-4.31499E-19-9.99400E-19
 -1      2710 9.84837E-05-2.95764E-05-2.95223E-05 6.31413E-06-5.31663E-19-7.78016E-19
 -1      2711 9.91592E-05-3.00839E-05-2.96045E-05 6.31760E-06-2.28045E-19-9.63727E-19
 -1      2712 9.74803E-05-2.91042E-05-2.93170E-05 6.73869E-06-5.09901E-19-6.67990E-19
 -1      2713 9.98681E-05-3.06761E-05-2.96375E-05 6.33483E-06 1.31864E-19-1.17640E-18
 -1      2714 1.00697E-04-3.13832E-05-2.97136E-05 6.09402E-06 2.74935E-19-1.09184E-18
 -1      2715 9.86534E-05-3.01936E-05-2.93584E-05 7.00812E-06-2.00440E-19-7.80400E-19
 -1      2716 1.01712E-04-3.22317E-05-2.97522E-05 5.82775E-06 3.06043E-19-1.28604E-18
 -1      2717 1.02691E-04-3.31380E-05-2.98266E-05 5.23310E-06 2.51777E-19-1.11701E-18
 -1      2718 1.00366E-04-3.18153E-05-2.94045E-05 6.84559E-06 2.32179E-19-7.74990E-19
 -1      2719 1.04056E-04-3.42280E-05-2.98928E-05 4.53420E-06 1.27977E-20-1.13080E-18
 -1      2720 1.05128E-04-3.52413E-05-2.99824E-05 3.47991E-06-8.19405E-20-8.42956E-19
 -1      2721 1.02739E-04-3.40112E-05-2.94879E-05 5.99398E-06 1.67482E-19-1.40343E-18
 -1      2722 1.06792E-04-3.64280E-05-3.01185E-05 2.18670E-06-2.99307E-20-8.43527E-19
 -1      2723 1.07791E-04-3.72912E-05-3.02562E-05 6.28305E-07-3.86260E-20-5.18187E-19
 -1      2724 1.05784E-04-3.66129E-05-2.96799E-05 4.13087E-06 1.40196E-19-8.55708E-19
 -1      2725 1.09501E-04-3.82072E-05-3.05267E-05-1.34069E-06-5.11980E-19-2.11857E-19
 -1      2726 1.10126E-04-3.84542E-05-3.07584E-05-3.27103E-06-6.01868E-19-2.49806E-19
 -1      2727 1.09217E-04-3.90383E-05-3.00993E-05 9.60524E-07-1.35596E-19-3.58663E-19
 -1      2728 1.11350E-04-3.84908E-05-3.12342E-05-5.70622E-06-1.91600E-19 2.10716E-20
 -1      2729 1.11241E-04-3.75610E-05-3.15964E-05-7.55202E-06 2.08301E-20 3.54066E-19
 -1      2730 1.12257E-04-4.01328E-05-3.09017E-05-3.49812E-06-1.83803E-19 3.52887E-19
 -1      2731 1.11322E-04-3.61110E-05-3.23008E-05-9.69467E-06 3.67841E-19 3.32859E-19
 -1      2732 1.10306E-04-3.37471E-05-3.27803E-05-1.06322E-05 5.06112E-19 7.76853E-19
 -1      2733 1.13668E-04-3.84322E-05-3.22052E-05-8.36880E-06 4.40768E-19 9.39020E-19
 -1      2734 1.08945E-04-3.07870E-05-3.36193E-05-1.11489E-05 2.16864E-19 1.09515E-18
 -1      2735 1.07417E-04-2.76726E-05-3.41100E-05-1.02585E-05 2.91717E-19 3.15867E-19
 -1      2736 1.12375E-04-3.30755E-05-3.39415E-05-1.15558E-05 4.66427E-19 6.73186E-19
 -1      2737 1.05464E-04-2.45322E-05-3.48174E-05-8.09506E-06 2.14207E-19 1.36450E-19
 -1      2738 1.04351E-04-2.23489E-05-3.51204E-05-5.24446E-06-2.05617E-19-3.05197E-20
 -1      2739 1.08914E-04-2.57478E-05-3.56603E-05-1.02956E-05-5.88225E-20 5.63700E-19
 -1      2740 1.03596E-04-2.11665E-05-3.53605E-05-9.89294E-07-7.11753E-19-4.00679E-19
 -1      2741 1.03702E-04-2.14116E-05-3.53308E-05 2.60814E-06-6.20127E-19-5.14893E-19
 -1      2742 1.06036E-04-2.03637E-05-3.68087E-05-3.52421E-06-7.04877E-19 2.15464E-20
 -1      2743 1.04824E-04-2.30739E-05-3.49914E-05 6.63120E-06-8.19968E-19-1.12407E-18
 -1      2744 1.06101E-04-2.55612E-05-3.46444E-05 9.18348E-06-9.88428E-19-1.15142E-18
 -1      2745 1.06343E-04-2.09064E-05-3.66957E-05 5.24876E-06-1.09206E-18-1.21245E-18
 -1      2746 1.08055E-04-2.88175E-05-3.38949E-05 1.08448E-05-1.13506E-18-1.41510E-18
 -1      2747 1.09562E-04-3.18859E-05-3.34014E-05 1.13651E-05-9.42404E-19-1.88992E-18
 -1      2748 1.09626E-04-2.69487E-05-3.54347E-05 1.10672E-05-1.31686E-18-1.58739E-18
 -1      2749 1.10689E-04-3.46192E-05-3.25763E-05 1.04736E-05-2.02024E-19-1.92204E-18
 -1      2750 1.11567E-04-3.67331E-05-3.21215E-05 9.31165E-06 4.94224E-20-1.41167E-18
 -1      2751 1.12841E-04-3.42397E-05-3.36325E-05 1.14345E-05-5.83892E-19-1.68512E-18
 -1      2752 1.11226E-04-3.78665E-05-3.14672E-05 7.06182E-06 4.03987E-20-1.45033E-18
 -1      2753 1.11199E-04-3.85384E-05-3.11409E-05 5.17366E-06 8.35581E-20-1.87460E-18
 -1      2754 1.13611E-04-3.89627E-05-3.19684E-05 7.77479E-06 1.70795E-19-1.67739E-18
 -1      2755 1.09830E-04-3.82672E-05-3.07157E-05 2.82891E-06-2.05818E-19-1.38438E-18
 -1      2756 1.09129E-04-3.78554E-05-3.05151E-05 9.89192E-07 2.78792E-19-1.87390E-18
 -1      2757 1.11795E-04-3.99901E-05-3.07808E-05 2.92974E-06 3.13161E-19-1.63297E-18
 -1      2758 1.07405E-04-3.68412E-05-3.02821E-05-8.04727E-07 7.32993E-19-1.06902E-18
 -1      2759 1.06403E-04-3.59210E-05-3.01677E-05-2.22155E-06 9.08242E-19-1.47955E-18
 -1      2760 1.08603E-04-3.84902E-05-3.00744E-05-1.21752E-06 8.74665E-19-1.18512E-18
 -1      2761 1.04790E-04-3.47245E-05-3.00565E-05-3.33974E-06 6.48943E-19-1.43877E-18
 -1      2762 1.03760E-04-3.37180E-05-2.99845E-05-4.24662E-06 4.67884E-20-9.34969E-19
 -1      2763 1.05217E-04-3.59454E-05-2.97213E-05-4.02637E-06 5.53349E-19-1.31084E-18
 -1      2764 1.02463E-04-3.26564E-05-2.99336E-05-4.79256E-06 3.80702E-19-5.34040E-19
 -1      2765 1.01547E-04-3.17858E-05-2.98732E-05-5.25040E-06 1.18790E-19-4.44555E-19
 -1      2766 1.02296E-04-3.33703E-05-2.95703E-05-5.56322E-06 3.75955E-19-1.89083E-18
 -1      2767 1.00595E-04-3.09780E-05-2.98428E-05-5.38812E-06-2.99785E-19-1.25651E-19
 -1      2768 9.98373E-05-3.03169E-05-2.97787E-05-5.50985E-06-5.34317E-20-6.14328E-19
 -1      2769 1.00055E-04-3.12557E-05-2.95087E-05-6.13748E-06 2.97399E-19-6.61133E-19
 -1      2770 9.91767E-05-2.97650E-05-2.97486E-05-5.38773E-06-6.51444E-19-8.22744E-19
 -1      2771 9.85726E-05-2.93061E-05-2.96767E-05-5.28565E-06-7.23041E-19-6.69745E-19
 -1      2772 9.84555E-05-2.97291E-05-2.94703E-05-6.07219E-06-4.65898E-19-4.44671E-19
 -1      2773 9.81304E-05-2.89642E-05-2.96394E-05-5.01571E-06-3.91637E-20 1.90952E-19
 -1      2774 9.76560E-05-2.86692E-05-2.95616E-05-4.78221E-06 5.12909E-19 6.00403E-19
 -1      2775 9.73644E-05-2.87330E-05-2.94241E-05-5.62301E-06-8.36090E-20 9.26519E-20
 -1      2776 9.73659E-05-2.84809E-05-2.95168E-05-4.44274E-06-1.21752E-19 1.37588E-18
 -1      2777 9.69953E-05-2.83060E-05-2.94371E-05-4.14620E-06-6.88649E-19 1.47292E-18
 -1      2778 9.66406E-05-2.81485E-05-2.93606E-05-4.97299E-06 3.27784E-19 1.10232E-18
 -1      2779 9.68068E-05-2.82211E-05-2.93874E-05-3.78884E-06-5.53176E-19 1.20501E-18
 -1      2780 9.65177E-05-2.81284E-05-2.93102E-05-3.47587E-06 2.11460E-19 1.17271E-18
 -1      2781 9.61679E-05-2.78543E-05-2.92818E-05-4.24607E-06-4.38778E-19 1.17973E-18
 -1      2782 9.63950E-05-2.81082E-05-2.92591E-05-3.13261E-06-4.05016E-20 5.15296E-19
 -1      2783 9.61699E-05-2.80686E-05-2.91876E-05-2.83247E-06-4.21524E-19 2.58088E-19
 -1      2784 9.58608E-05-2.77497E-05-2.91935E-05-3.52191E-06-4.75239E-19 4.91975E-20
 -1      2785 9.60893E-05-2.80854E-05-2.91381E-05-2.52137E-06-4.87448E-19 8.38042E-19
 -1      2786 9.59148E-05-2.80781E-05-2.90745E-05-2.25048E-06-4.24701E-19 8.38576E-19
 -1      2787 9.56606E-05-2.77598E-05-2.91026E-05-2.84824E-06-7.88096E-19 2.36474E-19
 -1      2788 9.58610E-05-2.81137E-05-2.90287E-05-1.98001E-06-1.50756E-19 2.56238E-19
 -1      2789 9.57264E-05-2.81246E-05-2.89739E-05-1.74585E-06 1.54962E-19-1.87582E-19
 -1      2790 9.55287E-05-2.78322E-05-2.90145E-05-2.25037E-06-3.50942E-19 4.40203E-19
 -1      2791 9.56898E-05-2.81672E-05-2.89332E-05-1.51818E-06 4.22156E-19-6.53888E-19
 -1      2792 9.55872E-05-2.81871E-05-2.88872E-05-1.32243E-06-1.12423E-19-3.92524E-19
 -1      2793 9.54405E-05-2.79329E-05-2.89332E-05-1.73831E-06-4.06040E-19-1.56113E-18
 -1      2794 9.55616E-05-2.82299E-05-2.88522E-05-1.13584E-06-1.35495E-19-3.92439E-19
 -1      2795 9.54843E-05-2.82531E-05-2.88146E-05-9.76625E-07 1.11097E-19 3.94828E-19
 -1      2796 9.53804E-05-2.80408E-05-2.88610E-05-1.31219E-06-1.95680E-19-1.23684E-18
 -1      2797 9.54661E-05-2.82924E-05-2.87852E-05-8.27246E-07-5.02389E-19-3.33774E-19
 -1      2798 9.54086E-05-2.83155E-05-2.87552E-05-7.00827E-07-8.62217E-19-1.12515E-18
 -1      2799 9.53386E-05-2.81437E-05-2.87988E-05-9.66217E-07-4.46719E-19-2.54455E-18
 -1      2800 9.53954E-05-2.83496E-05-2.87311E-05-5.83803E-07-2.60719E-19-5.60303E-19
 -1      2801 9.53536E-05-2.83709E-05-2.87076E-05-4.85667E-07 8.36800E-19-1.27258E-18
 -1      2802 9.53089E-05-2.82354E-05-2.87467E-05-6.91494E-07-3.30658E-19-1.95237E-18
 -1      2803 9.53437E-05-2.83995E-05-2.86882E-05-3.95968E-07 1.02390E-18-1.49816E-18
 -1      2804 9.53138E-05-2.84182E-05-2.86702E-05-3.21539E-07 5.09840E-19-1.24640E-18
 -1      2805 9.52874E-05-2.83136E-05-2.87038E-05-4.77995E-07 4.73512E-19-1.58654E-18
 -1      2806 9.53063E-05-2.84414E-05-2.86547E-05-2.54369E-07 7.41126E-19-1.15743E-18
 -1      2807 9.52855E-05-2.84576E-05-2.86410E-05-1.99339E-07 9.79308E-19-1.25912E-18
 -1      2808 9.52714E-05-2.83783E-05-2.86690E-05-3.15798E-07 5.35955E-19-1.54692E-18
 -1      2809 9.52797E-05-2.84767E-05-2.86286E-05-1.50844E-07 7.44265E-19-1.64044E-18
 -1      2810 9.52657E-05-2.84901E-05-2.86182E-05-1.12030E-07-3.29932E-19-1.19949E-18
 -1      2811 9.52594E-05-2.84316E-05-2.86411E-05-1.95568E-07 9.46131E-19-3.29149E-18
 -1      2812 9.56881E-05-2.76782E-05-2.91362E-05-3.63969E-06 8.84642E-19-6.14368E-19
 -1      2813 9.54706E-05-2.75686E-05-2.90924E-05-3.12903E-06 8.38730E-19-5.66520E-19
 -1      2814 9.52512E-05-2.84908E-05-2.86118E-05 8.47542E-08 7.09556E-19-2.41349E-18
 -1      2815 9.52622E-05-2.85148E-05-2.86057E-05 6.72576E-08 9.57753E-19-4.76500E-19
 -1      2816 9.52738E-05-2.85050E-05-2.86140E-05 9.44779E-08-3.29255E-19-3.16973E-19
 -1      2817 9.54622E-05-2.74827E-05-2.91261E-05-2.53727E-06 7.82144E-19-5.96208E-19
 -1      2818 9.53668E-05-2.73174E-05-2.91478E-05-1.92839E-06 8.50999E-19-5.10921E-19
 -1      2819 9.55407E-05-2.72010E-05-2.92984E-05-2.89280E-06 9.15281E-19-9.19824E-19
 -1      2820 9.65671E-05-2.78377E-05-2.94402E-05-5.66973E-06 5.01975E-19-6.78028E-20
 -1      2821 9.61436E-05-2.77624E-05-2.93073E-05-5.17272E-06 7.22593E-19-2.43666E-19
 -1      2822 9.72101E-05-2.79034E-05-2.96861E-05-6.75822E-06 6.01946E-19-3.89614E-19
 -1      2823 9.66864E-05-2.78064E-05-2.95237E-05-6.22381E-06 7.65239E-19-1.76121E-19
 -1      2824 9.59607E-05-2.73012E-05-2.94294E-05-6.30244E-06 7.20010E-19-3.90453E-19
 -1      2825 9.80116E-05-2.80542E-05-2.99644E-05-7.93054E-06 6.08951E-19-5.96370E-19
 -1      2826 9.73745E-05-2.78931E-05-2.97826E-05-7.36230E-06 5.15230E-19-5.95819E-19
 -1      2827 9.62475E-05-2.72404E-05-2.95774E-05-7.49709E-06 7.80469E-19-4.48265E-19
 -1      2828 9.90341E-05-2.84165E-05-3.02482E-05-9.14361E-06 3.10136E-19-6.95007E-19
 -1      2829 9.82521E-05-2.81222E-05-3.00596E-05-8.58004E-06 4.92604E-19-4.51241E-19
 -1      2830 9.66507E-05-2.72877E-05-2.97306E-05-8.78481E-06 5.70146E-19-5.64786E-19
 -1      2831 1.00409E-04-2.91964E-05-3.05062E-05-1.02724E-05-3.72541E-20-3.15672E-19
 -1      2832 9.94217E-05-2.86592E-05-3.03263E-05-9.80218E-06 2.07703E-19-5.68827E-19
 -1      2833 9.72682E-05-2.76192E-05-2.98571E-05-1.01325E-05 2.44680E-19-3.51560E-19
 -1      2834 1.02373E-04-3.07038E-05-3.07094E-05-1.10705E-05-1.06520E-18 2.69126E-19
 -1      2835 1.01083E-04-2.97671E-05-3.05532E-05-1.08541E-05-5.71246E-19-7.82121E-20
 -1      2836 9.83024E-05-2.85189E-05-2.99252E-05-1.14361E-05-4.30771E-19 2.97480E-19
 -1      2837 1.05298E-04-3.33284E-05-3.08516E-05-1.11182E-05-7.14214E-19 2.05721E-19
 -1      2838 1.03572E-04-3.18149E-05-3.07226E-05-1.14076E-05-8.68196E-19 1.60817E-19
 -1      2839 1.00120E-04-3.04029E-05-2.99172E-05-1.24772E-05-9.16131E-19 1.42914E-19
 -1      2840 1.09620E-04-3.73714E-05-3.09937E-05-9.76248E-06-7.95609E-19 4.61312E-19
 -1      2841 1.07359E-04-3.52021E-05-3.08622E-05-1.09051E-05-9.24423E-19 5.45307E-19
 -1      2842 1.03292E-04-3.37802E-05-2.98628E-05-1.28447E-05-1.09161E-18 3.45732E-19
 -1      2843 1.15556E-04-4.25569E-05-3.13445E-05-6.12813E-06-9.04949E-19 1.48540E-18
 -1      2844 1.12880E-04-4.00501E-05-3.11086E-05-8.48873E-06-6.45561E-19 9.10336E-19
 -1      2845 1.08526E-04-3.89985E-05-2.99065E-05-1.17957E-05-1.09101E-18 9.10196E-19
 -1      2846 1.22435E-04-4.71307E-05-3.23546E-05 5.30891E-07-1.82575E-18 2.48820E-18
 -1      2847 1.19963E-04-4.54494E-05-3.18123E-05-3.14362E-06-1.43912E-18 1.90685E-18
 -1      2848 1.16210E-04-4.54759E-05-3.04286E-05-8.14965E-06-1.50866E-18 1.80091E-18
 -1      2849 1.28070E-04-4.69245E-05-3.47706E-05 9.77771E-06-1.08456E-18 2.64413E-18
 -1      2850 1.27051E-04-4.84796E-05-3.35842E-05 5.41658E-06-1.62813E-18 2.42392E-18
 -1      2851 1.25308E-04-5.06956E-05-3.21344E-05-8.75456E-07-1.88461E-18 2.37793E-18
 -1      2852 1.22023E-04-2.32031E-05-4.25753E-05 1.27474E-05 2.77467E-18 1.08259E-18
 -1      2853 1.24636E-04-2.99517E-05-4.11194E-05 1.62119E-05 2.61818E-18 1.80251E-18
 -1      2854 1.18702E-04-1.71912E-05-4.38138E-05-2.27540E-06 3.32249E-18 8.04010E-19
 -1      2855 1.19305E-04-1.85167E-05-4.37810E-05 5.42280E-06 2.54819E-18 6.30027E-19
 -1      2856 1.28455E-04-2.97056E-05-4.28245E-05-1.65462E-05 2.61146E-18 5.65659E-19
 -1      2857 1.25633E-04-2.27674E-05-4.44318E-05-1.18505E-05 3.67157E-18 9.43330E-19
 -1      2858 1.28011E-04-4.82306E-05-3.42452E-05-7.90838E-06-6.94071E-19-5.81343E-19
 -1      2859 1.28300E-04-4.57150E-05-3.54806E-05-1.17250E-05-1.98920E-19-2.24550E-19
 -1      2860 1.21743E-04-4.64705E-05-3.21537E-05 1.18169E-06-4.92790E-19-7.81586E-20
 -1      2861 1.23904E-04-4.76215E-05-3.27912E-05-2.68312E-06-5.87431E-19-1.63461E-19
 -1      2862 1.27317E-04-5.08895E-05-3.28704E-05-1.94147E-06-7.74969E-19 4.27996E-19
 -1      2863 1.14511E-04-4.12354E-05-3.12949E-05 7.24881E-06-5.72450E-19 2.15494E-19
 -1      2864 1.17175E-04-4.36952E-05-3.15652E-05 4.61763E-06-3.43181E-19 5.58727E-20
 -1      2865 1.18294E-04-4.68585E-05-3.07400E-05 6.51001E-06-4.52570E-19 8.62270E-19
 -1      2866 1.08634E-04-3.61137E-05-3.10073E-05 1.01480E-05-8.75438E-19 1.35274E-18
 -1      2867 1.10976E-04-3.84119E-05-3.11368E-05 8.80912E-06-8.35535E-19 1.11869E-18
 -1      2868 1.10121E-04-4.02924E-05-3.00404E-05 1.08733E-05-1.06001E-18 1.65423E-18
 -1      2869 1.04552E-04-3.23886E-05-3.08893E-05 1.08844E-05-4.47785E-19 1.08187E-18
 -1      2870 1.06349E-04-3.40467E-05-3.09982E-05 1.04908E-05-2.78585E-19 1.50982E-18
 -1      2871 1.04372E-04-3.46649E-05-2.99524E-05 1.22846E-05-7.34823E-19 2.21024E-18
 -1      2872 1.01890E-04-3.00779E-05-3.07610E-05 1.03864E-05-4.78295E-19 1.51930E-18
 -1      2873 1.03213E-04-3.11207E-05-3.08932E-05 1.05766E-05-4.02620E-19 9.55795E-19
 -1      2874 1.00837E-04-3.08802E-05-3.00259E-05 1.20374E-05-5.18813E-19 1.77910E-18
 -1      2875 1.00159E-04-2.88062E-05-3.05763E-05 9.27932E-06-5.18238E-19 1.43583E-18
 -1      2876 1.01143E-04-2.94048E-05-3.07333E-05 9.77605E-06-3.15473E-19 1.98981E-18
 -1      2877 9.88122E-05-2.86993E-05-3.00698E-05 1.09736E-05-5.84203E-19 2.10910E-18
 -1      2878 9.89889E-05-2.81896E-05-3.03448E-05 7.94129E-06-1.05279E-18-6.06694E-20
 -1      2879 9.97422E-05-2.85073E-05-3.05138E-05 8.56097E-06-4.08923E-19 1.16425E-18
 -1      2880 9.76815E-05-2.76194E-05-3.00355E-05 9.56921E-06-2.86151E-19 1.71997E-18
 -1      2881 9.81487E-05-2.79460E-05-3.00912E-05 6.58889E-06-1.01986E-18-6.31782E-19
 -1      2882 9.87422E-05-2.81002E-05-3.02585E-05 7.22163E-06-1.25575E-18-4.76649E-19
 -1      2883 9.70332E-05-2.72018E-05-2.99310E-05 8.08653E-06-5.15126E-19 1.59913E-19
 -1      2884 9.75099E-05-2.78969E-05-2.98388E-05 5.33647E-06 5.19718E-19-1.01835E-18
 -1      2885 9.79855E-05-2.79617E-05-2.99940E-05 5.92324E-06-4.73498E-19-1.26394E-18
 -1      2886 9.66297E-05-2.71425E-05-2.97815E-05 6.66810E-06-4.22614E-19-1.54760E-18
 -1      2887 9.70047E-05-2.79394E-05-2.96036E-05 4.23591E-06 1.62700E-18-1.39864E-19
 -1      2888 9.73878E-05-2.79576E-05-2.97409E-05 4.75006E-06 1.04766E-18-8.49292E-19
 -1      2889 9.63477E-05-2.72551E-05-2.96120E-05 5.38671E-06 5.99749E-19-1.96435E-18
 -1      2890 9.65981E-05-2.80182E-05-2.93948E-05 3.30251E-06 1.75614E-18 4.49073E-19
 -1      2891 9.69054E-05-2.80135E-05-2.95120E-05 3.73642E-06 2.37591E-18 9.68313E-19
 -1      2892 9.61288E-05-2.74348E-05-2.94414E-05 4.27303E-06 1.00351E-18-9.66236E-19
 -1      2893 9.62701E-05-2.81055E-05-2.92161E-05 2.53127E-06 8.31759E-19 1.04906E-18
 -1      2894 9.65141E-05-2.80905E-05-2.93132E-05 2.88769E-06 1.70179E-18 1.21896E-18
 -1      2895 9.59481E-05-2.76273E-05-2.92818E-05 3.33249E-06 1.33378E-18 3.65331E-19
 -1      2896 9.60078E-05-2.81886E-05-2.90673E-05 1.90706E-06 1.06819E-19 8.19231E-19
 -1      2897 9.61988E-05-2.81698E-05-2.91460E-05 2.19374E-06-1.27877E-19 1.16945E-18
 -1      2898 9.57958E-05-2.78071E-05-2.91397E-05 2.55605E-06 1.71287E-19 1.51441E-18
 -1      2899 9.58008E-05-2.82623E-05-2.89465E-05 1.41056E-06-1.13948E-18 7.80278E-19
 -1      2900 9.59480E-05-2.82430E-05-2.90089E-05 1.63716E-06-2.18443E-19 1.36255E-18
 -1      2901 9.56680E-05-2.79640E-05-2.90177E-05 1.92718E-06-3.27837E-19 1.69855E-18
 -1      2902 9.56405E-05-2.83254E-05-2.88503E-05 1.02172E-06-8.77995E-19-3.11626E-19
 -1      2903 9.57518E-05-2.83070E-05-2.88989E-05 1.19809E-06-1.14749E-18-7.61208E-20
 -1      2904 9.55625E-05-2.80959E-05-2.89159E-05 1.42630E-06-8.46075E-19 5.47349E-19
 -1      2905 9.55186E-05-2.83780E-05-2.87752E-05 7.21628E-07-1.36555E-18-1.05432E-18
 -1      2906 9.56012E-05-2.83614E-05-2.88124E-05 8.56902E-07-1.08859E-18-5.55051E-19
 -1      2907 9.54773E-05-2.82039E-05-2.88330E-05 1.03345E-06-8.11552E-19-1.25683E-18
 -1      2908 9.54280E-05-2.84213E-05-2.87176E-05 4.93426E-07-6.37996E-19-3.05539E-19
 -1      2909 9.54879E-05-2.84066E-05-2.87455E-05 5.95648E-07-1.28430E-18-1.15085E-18
 -1      2910 9.54101E-05-2.82909E-05-2.87667E-05 7.29875E-07-8.36096E-19-1.70160E-18
 -1      2911 9.53622E-05-2.84566E-05-2.86741E-05 3.22727E-07 9.24259E-19-9.00082E-20
 -1      2912 9.54044E-05-2.84438E-05-2.86946E-05 3.98653E-07 3.82497E-19-5.89315E-19
 -1      2913 9.53582E-05-2.83600E-05-2.87146E-05 4.98892E-07-3.01136E-19-1.27575E-18
 -1      2914 9.53167E-05-2.84850E-05-2.86418E-05 1.98180E-07 1.02838E-18 3.84851E-19
 -1      2915 9.53447E-05-2.84746E-05-2.86566E-05 2.52363E-07 1.33932E-18 7.58934E-19
 -1      2916 9.53186E-05-2.84143E-05-2.86742E-05 3.26235E-07 9.42008E-19-1.43829E-18
 -1      2917 9.52840E-05-2.84987E-05-2.86216E-05 1.22847E-07-3.04594E-19 3.75033E-19
 -1      2918 9.53018E-05-2.84891E-05-2.86326E-05 1.62026E-07 3.32019E-19 8.22545E-20
 -1      2919 9.52872E-05-2.84463E-05-2.86475E-05 2.15063E-07 4.13770E-19-1.24620E-18
 -1      2920 9.52646E-05-2.84651E-05-2.86300E-05 1.46032E-07 6.81463E-19-2.70225E-18
 -1      2921 9.51129E-05-2.83088E-05-2.86308E-05 1.42548E-08 1.01609E-18 1.15111E-18
 -1      2922 9.51170E-05-2.83130E-05-2.86305E-05 3.37808E-08 1.12316E-18-1.15933E-19
 -1      2923 9.52630E-05-2.85016E-05-2.86112E-05-8.79908E-08-8.12698E-19-3.31482E-20
 -1      2924 9.52563E-05-2.85104E-05-2.86053E-05-6.88024E-08-9.45427E-19 1.30531E-20
 -1      2925 9.52519E-05-2.84698E-05-2.86216E-05-1.20535E-07 9.75444E-20-3.25487E-18
 -1      2926 9.51538E-05-2.83584E-05-2.86274E-05 8.88287E-08 1.05591E-18-2.36628E-18
 -1      2927 9.51700E-05-2.83764E-05-2.86255E-05 9.69104E-08 1.20588E-18-2.52649E-18
 -1      2928 9.51167E-05-2.83133E-05-2.86302E-05-3.12061E-08 2.11494E-19-1.58170E-19
 -1      2929 9.51129E-05-2.83091E-05-2.86307E-05-1.16311E-08 7.89115E-19 9.98208E-19
 -1      2930 9.50849E-05-2.82560E-05-2.86400E-05 1.11351E-09 1.02260E-18 9.57587E-19
 -1      2931 9.51261E-05-2.83246E-05-2.86299E-05 5.71374E-08-1.04993E-19-1.79439E-18
 -1      2932 9.51373E-05-2.83366E-05-2.86288E-05 7.25511E-08 3.71092E-19-2.13224E-18
 -1      2933 9.51245E-05-2.83015E-05-2.86377E-05 9.83497E-08 5.09434E-19-3.39253E-18
 -1      2934 9.50954E-05-2.82675E-05-2.86396E-05 5.47760E-08 4.68913E-19 5.57442E-19
 -1      2935 9.53915E-05-2.71237E-05-2.92530E-05-1.19640E-06 1.05426E-18-5.79434E-19
 -1      2936 9.54298E-05-2.68541E-05-2.93635E-05-3.86642E-07 1.27845E-18-3.97524E-19
 -1      2937 9.55399E-05-2.68318E-05-2.94576E-05-1.48406E-06 1.05443E-18-7.06016E-19
 -1      2938 1.43526E-04-4.60203E-05-4.23519E-05-9.18332E-06 1.86040E-18-2.16205E-19
 -1      2939 1.43564E-04-5.29316E-05-3.89495E-05-3.13224E-06 2.97891E-19-1.99476E-19
 -1      2940 9.51360E-05-2.83366E-05-2.86282E-05-6.96753E-08 5.73014E-19-3.99625E-19
 -1      2941 9.51253E-05-2.83250E-05-2.86294E-05-5.42544E-08 6.18766E-19-4.70965E-19
 -1      2942 9.50948E-05-2.82682E-05-2.86391E-05-5.21515E-08 6.75494E-19-7.38871E-19
 -1      2943 9.51678E-05-2.83762E-05-2.86247E-05-9.47888E-08 3.56406E-19 2.37448E-18
 -1      2944 9.51520E-05-2.83584E-05-2.86267E-05-8.62512E-08 5.64643E-19 1.58223E-18
 -1      2945 9.51230E-05-2.83022E-05-2.86367E-05-9.56100E-08 1.34555E-18 9.25620E-19
 -1      2946 9.52051E-05-2.84264E-05-2.86194E-05-1.00709E-07-4.42067E-19 2.52457E-18
 -1      2947 9.51883E-05-2.84049E-05-2.86222E-05-1.01673E-07-7.19332E-20 3.21468E-18
 -1      2948 9.51640E-05-2.83531E-05-2.86327E-05-1.21537E-07 3.45976E-19 2.39960E-18
 -1      2949 1.17216E-04-5.83061E-05-2.54962E-05 2.67469E-05-1.94119E-18 1.06184E-19
 -1      2950 1.01111E-04-5.21896E-05-2.05776E-05 3.35689E-05-1.88602E-18 6.44566E-19
 -1      2951 8.58680E-05-4.49512E-05-1.73652E-05 3.79181E-05-1.63859E-18 5.73230E-19
 -1      2952 6.87373E-05-3.51629E-05-1.39763E-05 3.58622E-05-1.46981E-18 9.69323E-19
 -1      2953 9.73205E-05-4.74303E-05-2.10145E-05 3.16511E-05-1.69788E-18 6.79453E-19
 -1      2954 9.44849E-05-2.07327E-05-3.16422E-05-7.53303E-06-1.86182E-18-2.32175E-18
 -1      2955 9.49131E-05-2.24842E-05-3.10619E-05-5.62383E-06-1.74059E-18-2.16015E-18
 -1      2956 3.96242E-05-1.69810E-05-9.33138E-06 2.22764E-05 1.08261E-18-2.69716E-18
 -1      2957 3.26854E-05-1.29057E-05-7.75788E-06 8.09518E-06 1.10840E-18-3.73817E-18
 -1      2958 1.42153E-04-4.31340E-05-4.25809E-05 1.21118E-05 2.11928E-18 1.34678E-18
 -1      2959 1.36958E-04-3.18218E-05-4.57049E-05 1.56204E-05 3.04021E-18 1.93674E-18
 -1      2960 9.60599E-05-2.77802E-05-2.92495E-05-4.65014E-06 7.97155E-19-4.46285E-19
 -1      2961 9.57354E-05-2.76990E-05-2.91556E-05-4.16847E-06 8.83164E-19-6.27093E-19
 -1      2962 9.56106E-05-2.73503E-05-2.92622E-05-4.07908E-06 8.64242E-19-7.73076E-19
 -1      2963 9.57513E-05-2.73621E-05-2.93153E-05-5.18288E-06 5.73193E-19-2.84055E-19
 -1      2964 9.54669E-05-2.38934E-05-3.06571E-05-4.28000E-06-1.59170E-18-1.95064E-18
 -1      2965 9.54324E-05-2.48399E-05-3.02680E-05-2.67703E-06-1.46541E-18-1.91392E-18
 -1      2966 9.53476E-05-2.43731E-05-3.04126E-05-2.29551E-06-1.35433E-18-2.03405E-18
 -1      2967 9.46877E-05-2.20837E-05-3.11106E-05-4.79478E-06-1.55685E-18-2.24166E-18
 -1      2968 1.39328E-04-5.88046E-05-3.49225E-05 6.85835E-06-9.43542E-19 6.19922E-19
 -1      2969 1.30622E-04-6.06546E-05-2.97498E-05 1.54442E-05-1.65050E-18 2.45640E-19
 -1      2970 1.38640E-04-5.60161E-05-3.54615E-05-7.13151E-07-1.07310E-18-5.60101E-20
 -1      2971 9.08366E-05-1.54268E-05-3.23448E-05 4.30385E-06 1.69808E-18-2.53939E-18
 -1      2972 9.04025E-05-1.48550E-05-3.24014E-05 3.46429E-06 1.42586E-18-2.80144E-18
 -1      2973 9.12382E-05-1.62858E-05-3.21046E-05 2.66538E-06 1.18506E-18-2.70463E-18
 -1      2974 9.21187E-05-1.75331E-05-3.19436E-05 3.88393E-06 1.66841E-18-2.19652E-18
 -1      2975 9.54607E-05-2.64739E-05-2.95654E-05 5.91440E-07 1.43909E-18-4.76221E-19
 -1      2976 9.56213E-05-2.60021E-05-2.98008E-05 1.75107E-06 1.61785E-18-4.13440E-19
 -1      2977 9.55073E-05-2.47385E-05-3.03302E-05 2.76420E-06 1.93470E-18-6.86464E-19
 -1      2978 9.55662E-05-2.60969E-05-2.97824E-05 3.33724E-07 1.45967E-18-8.76980E-19
 -1      2979 4.77648E-05-2.30356E-05-1.02398E-05 2.81933E-05-2.00334E-18 8.06375E-19
 -1      2980 3.38316E-05-1.64937E-05-6.77865E-06 1.69777E-05-8.28028E-19 1.87364E-18
 -1      2981 1.38219E-04-4.41420E-05-4.06055E-05 3.45982E-06-3.11920E-19-2.75370E-18
 -1      2982 1.38630E-04-3.59151E-05-4.45722E-05 7.87377E-06-1.19728E-18-3.30608E-18
 -1      2983 9.03782E-05-1.48341E-05-3.23993E-05-3.39450E-06-4.71234E-19-3.43852E-18
 -1      2984 9.08026E-05-1.53936E-05-3.23432E-05-4.23972E-06-7.29926E-19-3.35948E-18
 -1      2985 9.49234E-05-2.18150E-05-3.13368E-05 7.15243E-06 2.50829E-18-3.73138E-19
 -1      2986 9.21221E-05-1.64810E-05-3.24262E-05-8.35795E-06-1.68958E-18-2.85362E-18
 -1      2987 1.38894E-04-5.73295E-05-3.50316E-05-2.90574E-06-4.76509E-19-5.62112E-19
 -1      2988 1.42109E-04-5.18590E-05-3.92953E-05 4.78301E-06 9.92881E-19 6.57615E-19
 -1      2989 8.14272E-05-4.31768E-05-1.58126E-05-3.78030E-05-1.31576E-18-3.25314E-18
 -1      2990 9.69648E-05-5.08227E-05-1.97685E-05-3.59860E-05-1.18172E-18-2.55063E-18
 -1      2991 9.52468E-05-2.84950E-05-2.86080E-05-7.62231E-08-2.94718E-19-1.32707E-18
 -1      2992 1.37874E-04-4.84409E-05-3.88525E-05-1.19977E-06-1.73636E-18-1.27161E-19
 -1      2993 1.36097E-04-5.50360E-05-3.46681E-05 8.63091E-06-1.15874E-18-5.28760E-19
 -1      2994 6.29367E-05-3.24060E-05-1.29613E-05 3.82857E-05 1.18733E-18-1.39326E-18
 -1      2995 5.11881E-05-2.46239E-05-1.07949E-05 3.19262E-05 1.10623E-18-1.72043E-18
 -1      2996 4.46347E-05-2.30549E-05-8.65880E-06-2.77974E-05-4.22987E-19-5.04472E-18
 -1      2997 6.19701E-05-3.30987E-05-1.22323E-05-3.68342E-05-6.98590E-19-3.95363E-18
 -1      2998 9.88893E-05-5.08972E-05-2.05301E-05 3.68481E-05 1.01517E-18-1.29517E-18
 -1      2999 7.95820E-05-4.13218E-05-1.58806E-05 3.91888E-05 1.06133E-18-1.07287E-18
 -1      3000 1.31393E-04-2.69460E-05-4.53533E-05-1.20419E-05-2.02229E-18 2.22346E-19
 -1      3001 1.35788E-04-3.75082E-05-4.24000E-05-8.99822E-06-1.90074E-18 1.58183E-19
 -1      3002 1.23656E-04-1.03313E-05-4.91357E-05-5.22203E-06-2.32320E-18-1.73033E-18
 -1      3003 1.25840E-04-1.64902E-05-4.73723E-05-1.01144E-05-2.10424E-18-5.61053E-19
 -1      3004 2.76128E-05-1.34783E-05-5.61747E-06 4.60255E-06-4.54777E-19 1.46918E-18
 -1      3005 3.01802E-05-1.30326E-05-6.92734E-06-1.09794E-05 7.88799E-21 1.31205E-18
 -1      3006 4.08311E-05-1.50602E-05-1.05034E-05-1.58762E-05 2.21817E-19 1.46420E-18
 -1      3007 3.88520E-05-1.35959E-05-1.02019E-05 8.74284E-06-8.24878E-19 1.27817E-18
 -1      3008 1.30474E-04-1.75554E-05-4.88383E-05 8.68445E-06 3.04339E-18 1.31401E-18
 -1      3009 1.30507E-04-1.37894E-05-5.08062E-05 2.58190E-06 3.36187E-18 8.85666E-19
 -1      3010 1.34726E-04-2.71306E-05-4.64455E-05 1.11647E-05-2.10594E-18-3.39745E-18
 -1      3011 1.27627E-04-1.84645E-05-4.76298E-05 1.13071E-05-2.67917E-18-2.85461E-18
 -1      3012 1.31147E-04-3.18449E-05-4.27933E-05 1.19676E-05-1.69290E-18-2.90813E-18
 -1      3013 1.02292E-04-5.25226E-05-2.09944E-05-3.54261E-05 9.99075E-19-3.28675E-18
 -1      3014 1.14175E-04-5.59867E-05-2.49252E-05-2.94245E-05 1.55632E-18-3.51564E-18
 -1      3015 9.63232E-05-4.76156E-05-2.05505E-05-3.42672E-05 9.15537E-19-3.15043E-18
 -1      3016 2.93983E-05-1.31222E-05-6.57581E-06-4.94034E-06 2.60635E-19-5.05552E-18
 -1      3017 3.39497E-05-1.67762E-05-6.90803E-06-1.82668E-05 1.50137E-19-6.04866E-18
 -1      3018 9.13339E-05-1.61422E-05-3.22467E-05-4.89807E-06-8.83879E-19-3.19764E-18
 -1      3019 9.19124E-05-1.69304E-05-3.21570E-05-5.68302E-06-1.20564E-18-3.15118E-18
 -1      3020 9.20804E-05-1.74951E-05-3.19428E-05-3.84843E-06-7.54528E-19-3.11646E-18
 -1      3021 9.05285E-05-1.53238E-05-3.22156E-05 4.53983E-08 3.63352E-19-2.84994E-18
 -1      3022 8.95270E-05-1.36935E-05-3.25205E-05-3.00683E-07 3.07279E-19-3.08506E-18
 -1      3023 8.96072E-05-1.37937E-05-3.25110E-05-1.14173E-06 1.30534E-20-3.24940E-18
 -1      3024 6.15080E-05-2.81100E-05-1.37764E-05 3.15266E-05-1.78761E-18 9.77264E-19
 -1      3025 5.60672E-05-2.10824E-05-1.46251E-05 2.43061E-05-1.43898E-18 8.64609E-19
 -1      3026 7.47268E-05-3.24497E-05-1.78142E-05 3.03680E-05-1.62466E-18 1.11406E-18
 -1      3027 1.17778E-04-1.16942E-05-4.58844E-05-2.27502E-06-2.05247E-18-1.48304E-18
 -1      3028 6.07294E-05-2.45566E-05-1.51973E-05-2.94816E-05 1.01517E-18-3.61683E-19
 -1      3029 6.52646E-05-3.05986E-05-1.43718E-05-3.49993E-05 6.89961E-19-2.52733E-19
 -1      3030 7.81652E-05-3.55234E-05-1.82491E-05-3.36672E-05 1.72334E-18-2.06411E-18
 -1      3031 4.69962E-05-1.97315E-05-1.10133E-05-2.24486E-05-3.55595E-19-5.21613E-18
 -1      3032 9.51668E-05-2.83528E-05-2.86340E-05 1.23398E-07 1.11406E-18-2.26458E-18
 -1      3033 9.51901E-05-2.84050E-05-2.86231E-05 1.02767E-07 1.05093E-18-3.69548E-18
 -1      3034 9.52078E-05-2.84253E-05-2.86205E-05 1.02699E-07 1.56130E-18-4.00234E-18
 -1      3035 1.26164E-04-1.43966E-05-4.85150E-05-1.39959E-06 3.02285E-18 7.96634E-19
 -1      3036 1.31550E-04-4.75533E-05-3.60431E-05 1.10625E-05-3.26002E-19 2.25695E-18
 -1      3037 1.33677E-04-5.31527E-05-3.47993E-05 4.55867E-06-9.12552E-19 1.91152E-18
 -1      3038 1.27942E-04-3.50529E-05-4.00501E-05 1.69391E-05 2.32039E-18 2.01361E-18
 -1      3039 1.29566E-04-4.12450E-05-3.83244E-05 1.53186E-05 8.94943E-19 2.26925E-18
 -1      3040 1.29070E-04-4.12432E-05-3.79649E-05-1.61270E-05 1.32984E-19-4.43607E-19
 -1      3041 1.26871E-04-3.49303E-05-3.95729E-05-1.63688E-05 1.17235E-18 5.11131E-20
 -1      3042 1.31184E-04-5.69694E-05-3.16962E-05 1.21588E-05-6.21590E-19-3.01226E-19
 -1      3043 9.52381E-05-2.84683E-05-2.86160E-05 9.61157E-08 7.76415E-19-3.63231E-18
 -1      3044 1.40528E-04-4.15008E-05-4.28223E-05-1.36149E-05 1.89291E-18-3.73542E-19
 -1      3045 1.37374E-04-4.52149E-05-3.95952E-05-1.27862E-05 7.21619E-19-7.25484E-19
 -1      3046 1.25888E-04-2.26414E-05-4.46925E-05-1.23438E-05-1.83520E-18-1.58819E-21
 -1      3047 1.24058E-04-2.81573E-05-4.13637E-05-1.28277E-05-1.50110E-18 1.71021E-19
 -1      3048 1.18387E-04-1.83198E-05-4.32387E-05-1.11865E-05-1.44387E-18 9.28825E-20
 -1      3049 1.23387E-04-5.82579E-05-2.77821E-05 1.86200E-05-1.64668E-18 1.46987E-19
 -1      3050 9.52347E-05-2.84730E-05-2.86119E-05-8.60609E-08 4.91738E-19-2.70382E-19
 -1      3051 1.08736E-04-5.42519E-05-2.29977E-05 3.18050E-05 1.17028E-18-1.64277E-18
 -1      3052 1.00545E-04-4.89369E-05-2.18945E-05 3.24605E-05 1.26076E-18-1.59735E-18
 -1      3053 1.15649E-04-5.61065E-05-2.58152E-05 2.50976E-05 8.16222E-19-1.12384E-18
 -1      3054 9.45113E-05-2.12302E-05-3.14126E-05 6.42179E-06 2.42176E-18-7.74043E-19
 -1      3055 9.47279E-05-2.21599E-05-3.10902E-05 4.79887E-06 2.18436E-18-9.58606E-19
 -1      3056 1.22049E-04-5.78690E-05-2.74049E-05-2.30104E-05 1.98560E-18-2.19474E-18
 -1      3057 1.26164E-04-5.68008E-05-2.98886E-05-1.43694E-05 1.90445E-18-1.44371E-18
 -1      3058 1.13378E-04-5.44136E-05-2.51319E-05-2.58308E-05 1.36722E-18-3.07529E-18
 -1      3059 1.38535E-04-4.72281E-05-3.92177E-05 1.16142E-05 1.08293E-18 1.97232E-18
 -1      3060 5.08170E-05-2.01127E-05-1.26329E-05 2.44951E-05 1.32561E-18-2.01551E-18
 -1      3061 1.32384E-04-5.28203E-05-3.41589E-05-3.59778E-06 1.24272E-18-2.30176E-18
 -1      3062 1.36830E-04-4.98941E-05-3.74904E-05 4.52508E-07 2.80050E-19-2.64401E-18
 -1      3063 1.33119E-04-4.49538E-05-3.81188E-05 6.93377E-06-1.64324E-19-3.23281E-18
 -1      3064 3.83799E-05-1.28158E-05-1.03572E-05 1.24525E-06 7.40452E-19-4.24872E-18
 -1      3065 8.97806E-05-1.40328E-05-3.24851E-05-1.84773E-06-8.97725E-20-3.30657E-18
 -1      3066 9.00277E-05-1.43473E-05-3.24553E-05-2.69610E-06-3.67422E-19-3.35582E-18
 -1      3067 9.12237E-05-1.62781E-05-3.21024E-05-2.59566E-06-4.46022E-19-3.23816E-18
 -1      3068 9.07026E-05-1.55616E-05-3.21881E-05-1.28223E-06-1.17307E-19-3.13641E-18
 -1      3069 1.32660E-04-3.25194E-05-4.32333E-05 1.59168E-05 3.04053E-18 1.75082E-18
 -1      3070 1.33559E-04-2.54435E-05-4.69103E-05 1.52015E-05 3.03291E-18 1.74764E-18
 -1      3071 1.21559E-04-1.78143E-05-4.52735E-05-6.24793E-06 3.39925E-18 1.12170E-18
 -1      3072 1.09129E-04-5.46430E-05-2.29534E-05-3.01698E-05-1.52995E-18-2.01833E-18
 -1      3073 1.17834E-04-5.71844E-05-2.62967E-05-2.26824E-05-1.73959E-18-1.52364E-18
 -1      3074 1.02429E-04-4.96371E-05-2.23280E-05-3.02034E-05-1.63011E-18-1.44030E-18
 -1      3075 7.76013E-05-3.71100E-05-1.68565E-05 3.57237E-05 1.28384E-18-1.37939E-18
 -1      3076 9.28511E-05-1.81547E-05-3.20105E-05-6.73994E-06-1.43092E-18-2.87544E-18
 -1      3077 1.34463E-04-2.07059E-05-4.90101E-05-1.23758E-05 3.86438E-18 4.26693E-19
 -1      3078 7.47174E-05-3.64040E-05-1.59092E-05-3.44509E-05-1.19823E-18-3.24064E-18
 -1      3079 1.35140E-04-3.48798E-05-4.34103E-05-1.67898E-05 2.31960E-18-2.12817E-19
 -1      3080 1.35117E-04-5.99152E-05-3.23918E-05-8.54106E-06-1.45568E-18-1.07960E-18
 -1      3081 1.35402E-04-5.63799E-05-3.38682E-05-2.33462E-08-1.13609E-18 7.16802E-19
 -1      3082 1.30894E-04-5.42691E-05-3.26222E-05-3.66804E-07-1.98328E-18 1.52977E-18
 -1      3083 1.28642E-04-5.86678E-05-2.96995E-05-1.31105E-05-1.57604E-18-9.92617E-19
 -1      3084 1.35312E-04-4.40433E-05-3.93866E-05-6.57152E-06-1.68208E-18 5.98535E-19
 -1      3085 1.31958E-04-4.82701E-05-3.60059E-05-3.19628E-06-1.23979E-18 8.30542E-19
 -1      3086 1.29661E-04-3.91479E-05-3.90825E-05-1.10325E-05-1.14392E-18 8.98278E-19
 -1      3087 1.21418E-04-1.64294E-05-4.52973E-05 9.54170E-06-2.58906E-18-2.38199E-18
 -1      3088 1.33070E-04-4.67385E-05-3.71578E-05-1.24115E-05-2.00138E-19-4.20764E-19
 -1      3089 9.52351E-05-2.84500E-05-2.86224E-05-1.19195E-07-1.11406E-19-1.10879E-18
 -1      3090 9.52188E-05-2.84407E-05-2.86195E-05-1.06925E-07 1.39576E-20 1.95549E-18
 -1      3091 9.52041E-05-2.83981E-05-2.86303E-05-1.35638E-07-4.45848E-19 2.85385E-18
 -1      3092 9.52384E-05-2.84332E-05-2.86297E-05-1.46070E-07-7.59191E-20-1.25603E-18
 -1      3093 9.41869E-05-2.13390E-05-3.12474E-05 3.98791E-06 1.95011E-18-1.32938E-18
 -1      3094 9.35701E-05-2.02476E-05-3.14292E-05 3.67530E-06 1.77408E-18-1.58508E-18
 -1      3095 9.55855E-05-2.60480E-05-2.97908E-05 1.03734E-06-7.09220E-19-1.87124E-18
 -1      3096 9.55982E-05-2.64226E-05-2.96501E-05 1.79898E-06-5.90897E-19-1.88701E-18
 -1      3097 9.55886E-05-2.67072E-05-2.95130E-05 2.44531E-06-6.52742E-19-1.82770E-18
 -1      3098 9.56078E-05-2.69320E-05-2.94318E-05 3.04295E-06-7.20085E-19-1.92852E-18
 -1      3099 9.54627E-05-2.61112E-05-2.97251E-05 2.01394E-06-6.65513E-19-2.07877E-18
 -1      3100 9.55523E-05-2.70819E-05-2.93402E-05 3.58174E-06-7.17218E-19-2.00368E-18
 -1      3101 9.56061E-05-2.72279E-05-2.93013E-05 4.07488E-06-7.02405E-19-2.03575E-18
 -1      3102 9.54018E-05-2.66190E-05-2.94819E-05 3.23594E-06-7.73210E-19-2.08446E-18
 -1      3103 9.55453E-05-2.73128E-05-2.92405E-05 4.55082E-06-5.19469E-19-1.77237E-18
 -1      3104 9.56549E-05-2.74396E-05-2.92294E-05 4.97862E-06-3.97916E-19-1.67550E-18
 -1      3105 9.52890E-05-2.69007E-05-2.93133E-05 4.28250E-06-4.45891E-19-1.82533E-18
 -1      3106 9.56280E-05-2.75233E-05-2.91866E-05 5.42187E-06-1.98384E-19-1.49777E-18
 -1      3107 9.58189E-05-2.76899E-05-2.91911E-05 5.80154E-06-2.01155E-19-1.29559E-18
 -1      3108 9.52020E-05-2.70995E-05-2.91918E-05 5.23135E-06-1.73057E-19-1.46463E-18
 -1      3109 9.58732E-05-2.78398E-05-2.91550E-05 6.22503E-06-4.66628E-19-1.00395E-18
 -1      3110 9.61826E-05-2.81122E-05-2.91652E-05 6.55080E-06-3.12598E-19-9.13843E-19
 -1      3111 9.52250E-05-2.73582E-05-2.90929E-05 6.13024E-06-1.27672E-19-1.43312E-18
 -1      3112 9.63836E-05-2.84059E-05-2.91276E-05 6.94707E-06-3.95655E-19-7.02220E-19
 -1      3113 9.68643E-05-2.88600E-05-2.91368E-05 7.18741E-06-3.94654E-19-7.28556E-19
 -1      3114 9.54682E-05-2.78350E-05-2.89968E-05 6.99253E-06-2.83644E-19-8.40081E-19
 -1      3115 9.73032E-05-2.93871E-05-2.90944E-05 7.52218E-06-2.93865E-19-5.92956E-19
 -1      3116 9.80238E-05-3.01045E-05-2.91017E-05 7.61496E-06 1.03804E-19-7.70395E-19
 -1      3117 9.60856E-05-2.87139E-05-2.88916E-05 7.78857E-06-1.30833E-19-6.44807E-19
 -1      3118 9.88210E-05-3.09583E-05-2.90607E-05 7.81467E-06 2.18411E-19-8.25703E-19
 -1      3119 9.98544E-05-3.20058E-05-2.90756E-05 7.66072E-06 1.60938E-19-8.14594E-19
 -1      3120 9.72869E-05-3.02009E-05-2.87798E-05 8.42780E-06 1.61261E-19-7.05649E-19
 -1      3121 1.01148E-04-3.32550E-05-2.90590E-05 7.59334E-06-5.30264E-21-8.04711E-19
 -1      3122 1.02539E-04-3.46384E-05-2.91077E-05 7.05205E-06 1.16212E-19-9.56513E-19
 -1      3123 9.93324E-05-3.24876E-05-2.86911E-05 8.72558E-06 7.84395E-20-9.33211E-19
 -1      3124 1.04443E-04-3.62637E-05-2.91650E-05 6.50282E-06 2.84481E-19-8.05155E-19
 -1      3125 1.06141E-04-3.78376E-05-2.92974E-05 5.40341E-06 3.03759E-19-7.87960E-19
 -1      3126 1.02488E-04-3.56624E-05-2.86999E-05 8.35430E-06 1.26966E-19-4.43489E-19
 -1      3127 1.08641E-04-3.96120E-05-2.95164E-05 4.06247E-06 2.22733E-19-3.71872E-19
 -1      3128 1.10382E-04-4.09246E-05-2.98109E-05 2.26181E-06-1.24206E-19-2.02141E-19
 -1      3129 1.06890E-04-3.95054E-05-2.89498E-05 6.78744E-06 4.79173E-19-5.39816E-19
 -1      3130 1.13107E-04-4.22215E-05-3.03252E-05-1.30456E-07-1.99032E-20 4.40494E-19
 -1      3131 1.14342E-04-4.24237E-05-3.08782E-05-2.54584E-06 2.34906E-19 8.34273E-19
 -1      3132 1.12198E-04-4.30632E-05-2.96806E-05 3.35816E-06 4.86957E-19 2.66976E-19
 -1      3133 1.16357E-04-4.21040E-05-3.18345E-05-5.82386E-06 2.70301E-19 1.32016E-18
 -1      3134 1.16375E-04-4.02099E-05-3.26902E-05-8.16004E-06 4.09928E-19 1.33429E-18
 -1      3135 1.17194E-04-4.43722E-05-3.12069E-05-2.30610E-06 5.51351E-19 1.34085E-18
 -1      3136 1.16563E-04-3.72733E-05-3.41062E-05-1.11347E-05 3.17085E-19 1.08079E-18
 -1      3137 1.14961E-04-3.30157E-05-3.51087E-05-1.19338E-05 2.44687E-19 8.12741E-19
 -1      3138 1.19617E-04-4.08698E-05-3.37885E-05-8.98958E-06 3.02510E-19 1.45490E-18
 -1      3139 1.14412E-04-2.71692E-05-3.76082E-05-1.24408E-05-3.37596E-19 3.76251E-19
 -1      3140 1.12070E-04-2.20127E-05-3.87095E-05-1.05388E-05-5.39613E-19 1.18386E-20
 -1      3141 1.07986E-04-1.73162E-05-3.89435E-05 3.90832E-06-1.47463E-18-5.68300E-19
 -1      3142 1.09120E-04-1.99582E-05-3.84936E-05 7.93950E-06-1.70944E-18-1.08857E-18
 -1      3143 1.11581E-04-2.45383E-05-3.72992E-05 1.13868E-05-1.91289E-18-1.56275E-18
 -1      3144 1.13757E-04-2.96250E-05-3.62969E-05 1.27216E-05-1.35746E-18-1.60534E-18
 -1      3145 1.13629E-04-2.13851E-05-3.96711E-05 1.08735E-05-2.10509E-18-1.70418E-18
 -1      3146 1.15482E-04-3.44525E-05-3.47108E-05 1.18516E-05-5.69815E-19-1.82248E-18
 -1      3147 1.16853E-04-3.84778E-05-3.36557E-05 1.06490E-05-3.75302E-19-1.77659E-18
 -1      3148 1.18252E-04-3.33487E-05-3.64592E-05 1.26943E-05-9.75954E-19-1.78472E-18
 -1      3149 1.16109E-04-4.07820E-05-3.23346E-05 7.32772E-06-1.40038E-19-1.26755E-18
 -1      3150 1.15856E-04-4.21939E-05-3.15485E-05 5.08166E-06 1.85077E-19-1.31041E-18
 -1      3151 1.19380E-04-4.18745E-05-3.33526E-05 8.28331E-06-4.43369E-21-1.88773E-18
 -1      3152 1.13624E-04-4.21773E-05-3.06919E-05 1.86486E-06 4.79833E-19-8.78492E-19
 -1      3153 1.12248E-04-4.16314E-05-3.02031E-05-3.63778E-07 1.03671E-18-4.30758E-19
 -1      3154 1.16210E-04-4.43277E-05-3.09267E-05 1.53746E-06 4.33721E-19-6.13358E-19
 -1      3155 1.09533E-04-4.02041E-05-2.97553E-05-2.52588E-06 8.63577E-19-9.61139E-19
 -1      3156 1.07776E-04-3.87767E-05-2.95029E-05-4.13642E-06 8.40052E-19-1.22065E-18
 -1      3157 1.11092E-04-4.22275E-05-2.95742E-05-3.62957E-06 4.53640E-19-5.51175E-19
 -1      3158 1.05368E-04-3.69955E-05-2.93236E-05-5.26356E-06 2.40100E-19-1.73810E-18
 -1      3159 1.03726E-04-3.54268E-05-2.92177E-05-6.19694E-06-9.04969E-20-2.07807E-18
 -1      3160 1.05890E-04-3.84823E-05-2.89529E-05-6.63524E-06 5.38750E-19-1.56492E-18
 -1      3161 1.01914E-04-3.38432E-05-2.91800E-05-6.59418E-06 2.67718E-19-1.31538E-18
 -1      3162 1.00593E-04-3.25034E-05-2.91457E-05-6.99187E-06 7.09355E-19-9.10369E-19
 -1      3163 1.01690E-04-3.47086E-05-2.87619E-05-7.85833E-06 5.31977E-19-2.27633E-19
 -1      3164 9.93727E-05-3.13117E-05-2.91672E-05-6.94243E-06 5.96514E-19-1.16198E-18
 -1      3165 9.84039E-05-3.03199E-05-2.91577E-05-6.97840E-06 1.44878E-19-5.22678E-19
 -1      3166 9.87027E-05-3.16511E-05-2.87752E-05-7.97919E-06 5.32459E-19-3.76832E-19
 -1      3167 9.76479E-05-2.95189E-05-2.91927E-05-6.68971E-06-3.12488E-19-3.19161E-20
 -1      3168 9.69768E-05-2.88559E-05-2.91838E-05-6.50235E-06-5.13922E-19-5.05175E-19
 -1      3169 9.67704E-05-2.94911E-05-2.88589E-05-7.49424E-06 1.57318E-19-6.36254E-19
 -1      3170 9.65490E-05-2.83741E-05-2.92111E-05-6.10017E-06-2.30470E-19 5.42411E-19
 -1      3171 9.61004E-05-2.79732E-05-2.91933E-05-5.78956E-06 4.82048E-19 1.15512E-18
 -1      3172 9.56196E-05-2.81164E-05-2.89448E-05-6.71444E-06 2.43574E-21 1.20075E-18
 -1      3173 9.58874E-05-2.77248E-05-2.92056E-05-5.34909E-06 3.78023E-19 4.85051E-19
 -1      3174 9.55939E-05-2.75129E-05-2.91775E-05-4.98387E-06-1.86004E-19 1.09121E-19
 -1      3175 9.50004E-05-2.73431E-05-2.90041E-05-5.82089E-06 4.17783E-20 4.43975E-19
 -1      3176 9.55120E-05-2.74213E-05-2.91751E-05-4.54905E-06-3.53238E-19 3.70754E-19
 -1      3177 9.53219E-05-2.73358E-05-2.91391E-05-4.17430E-06-4.97265E-19 7.77988E-19
 -1      3178 9.47183E-05-2.69909E-05-2.90300E-05-4.91765E-06 1.46274E-19-4.97174E-19
 -1      3179 9.53143E-05-2.73416E-05-2.91250E-05-3.77005E-06-1.02989E-18 6.19740E-19
 -1      3180 9.51912E-05-2.73346E-05-2.90847E-05-3.41388E-06-1.31449E-18 4.06722E-19
 -1      3181 9.46357E-05-2.69120E-05-2.90261E-05-4.06347E-06-1.11782E-18 3.05410E-19
 -1      3182 9.52213E-05-2.73952E-05-2.90627E-05-3.05327E-06-9.67525E-19 3.32458E-20
 -1      3183 9.51410E-05-2.74328E-05-2.90214E-05-2.73165E-06-4.39108E-19 1.69483E-19
 -1      3184 9.46614E-05-2.69962E-05-2.89999E-05-3.29027E-06-1.27667E-18 5.12188E-19
 -1      3185 9.51865E-05-2.75192E-05-2.89952E-05-2.42004E-06-6.58137E-19 4.58329E-20
 -1      3186 9.51333E-05-2.75786E-05-2.89555E-05-2.14046E-06-6.85940E-19-5.39369E-19
 -1      3187 9.47384E-05-2.71666E-05-2.89592E-05-2.61304E-06-6.49756E-19-5.42041E-19
 -1      3188 9.51815E-05-2.76726E-05-2.89280E-05-1.87815E-06-1.22506E-18-6.26007E-19
 -1      3189 9.51456E-05-2.77392E-05-2.88915E-05-1.64236E-06-6.84359E-19-1.58209E-18
 -1      3190 9.48323E-05-2.73724E-05-2.89111E-05-2.03562E-06-1.14679E-18-1.33785E-18
 -1      3191 9.51897E-05-2.78298E-05-2.88648E-05-1.42654E-06-2.66657E-19-2.19847E-18
 -1      3192 9.51650E-05-2.78952E-05-2.88326E-05-1.23271E-06-1.16519E-18-2.42453E-18
 -1      3193 9.49246E-05-2.75820E-05-2.88608E-05-1.55463E-06-1.54666E-18-2.46730E-18
 -1      3194 9.52022E-05-2.79766E-05-2.88079E-05-1.05877E-06-1.20057E-18-2.02981E-18
 -1      3195 9.51848E-05-2.80361E-05-2.87802E-05-9.03016E-07-1.25030E-18-3.00593E-18
 -1      3196 9.50059E-05-2.77772E-05-2.88120E-05-1.16226E-06-1.17404E-18-3.49528E-18
 -1      3197 9.52143E-05-2.81059E-05-2.87582E-05-7.65557E-07-1.02752E-19-1.32019E-18
 -1      3198 9.52017E-05-2.81574E-05-2.87350E-05-6.43040E-07 7.12214E-19-7.38963E-19
 -1      3199 9.50726E-05-2.79490E-05-2.87671E-05-8.48426E-07 3.39486E-20-1.38658E-18
 -1      3200 9.52240E-05-2.82153E-05-2.87160E-05-5.36526E-07 2.80594E-19-6.61353E-19
 -1      3201 9.52148E-05-2.82584E-05-2.86969E-05-4.42243E-07 7.05579E-19-6.00006E-19
 -1      3202 9.51246E-05-2.80945E-05-2.87271E-05-6.02168E-07 6.09972E-19-5.59479E-19
 -1      3203 9.52307E-05-2.83052E-05-2.86808E-05-3.61555E-07 8.96483E-19 5.95028E-19
 -1      3204 9.52241E-05-2.83405E-05-2.86653E-05-2.90735E-07 2.43989E-19-3.72593E-21
 -1      3205 9.51631E-05-2.82140E-05-2.86924E-05-4.12951E-07 1.35917E-18 2.75891E-19
 -1      3206 9.52364E-05-2.83765E-05-2.86530E-05-2.37536E-07 1.89657E-19-8.00340E-19
 -1      3207 9.52312E-05-2.84050E-05-2.86403E-05-1.85287E-07 4.79375E-19-1.21824E-18
 -1      3208 9.52117E-05-2.83844E-05-2.86410E-05-1.82438E-07-5.31125E-19 2.16467E-18
 -1      3209 9.51921E-05-2.83100E-05-2.86641E-05-2.77682E-07 2.94474E-20 1.85844E-18
 -1      3210 9.55048E-05-2.68633E-05-2.94149E-05-3.12433E-06 9.47359E-19-1.03550E-18
 -1      3211 9.54935E-05-2.67119E-05-2.94699E-05-2.46462E-06 9.12751E-19-8.67305E-19
 -1      3212 9.52538E-05-2.65103E-05-2.94489E-05-7.79909E-06 5.88618E-19-5.63407E-19
 -1      3213 9.50926E-05-2.65434E-05-2.93872E-05-7.17931E-06 9.17507E-19-4.12548E-19
 -1      3214 9.53075E-05-2.67040E-05-2.93908E-05-6.57335E-06 7.86411E-19-5.44038E-19
 -1      3215 9.51915E-05-2.67534E-05-2.93367E-05-5.99399E-06 5.74302E-19-4.14135E-19
 -1      3216 9.43085E-05-2.59851E-05-2.92785E-05-6.86431E-06 7.78582E-19-7.66226E-19
 -1      3217 9.54661E-05-2.66725E-05-2.94643E-05-1.05574E-05-3.74263E-19-1.77955E-19
 -1      3218 9.50762E-05-2.64132E-05-2.94368E-05-9.88068E-06 1.27107E-19-3.85411E-19
 -1      3219 9.61037E-05-2.75675E-05-2.93485E-05-1.20278E-05-6.97128E-19 2.96191E-19
 -1      3220 9.54184E-05-2.69186E-05-2.93620E-05-1.13930E-05-4.36248E-19 3.08894E-19
 -1      3221 9.31834E-05-2.56918E-05-2.89275E-05-1.11368E-05-7.33086E-19-2.78834E-19
 -1      3222 9.76362E-05-2.96112E-05-2.91217E-05-1.34085E-05-9.72175E-19 1.91696E-19
 -1      3223 9.64100E-05-2.83089E-05-2.91783E-05-1.29323E-05-5.82434E-19 4.06686E-19
 -1      3224 9.33720E-05-2.66917E-05-2.85954E-05-1.29269E-05-5.62541E-19-1.45615E-19
 -1      3225 1.00786E-04-3.34359E-05-2.88261E-05-1.44086E-05-1.10632E-18 6.20466E-20
 -1      3226 9.86643E-05-3.11653E-05-2.88921E-05-1.43086E-05-1.21179E-18 4.26333E-20
 -1      3227 9.45631E-05-2.90718E-05-2.81178E-05-1.48956E-05-9.49500E-19-2.63118E-19
 -1      3228 1.06500E-04-3.95600E-05-2.86468E-05-1.43592E-05-1.49403E-18 6.65990E-19
 -1      3229 1.03121E-04-3.61554E-05-2.86069E-05-1.50449E-05-1.32198E-18 3.32278E-19
 -1      3230 9.76798E-05-3.36157E-05-2.75592E-05-1.68631E-05-1.38630E-18-6.21544E-19
 -1      3231 1.15575E-04-4.75700E-05-2.91016E-05-1.17961E-05-1.84837E-18 1.25677E-18
 -1      3232 1.10888E-04-4.36344E-05-2.86567E-05-1.40371E-05-1.48136E-18 6.99790E-19
 -1      3233 1.04084E-04-4.09473E-05-2.71975E-05-1.81143E-05-1.54158E-18-2.30208E-19
 -1      3234 1.25661E-04-5.32792E-05-3.10959E-05-5.15112E-06-2.05701E-18 1.40102E-18
 -1      3235 1.20976E-04-5.08774E-05-2.98092E-05-9.39017E-06-1.89892E-18 1.57094E-18
 -1      3236 1.13906E-04-4.92006E-05-2.78250E-05-1.60173E-05-2.11061E-18 3.89662E-19
 -1      3237 1.25224E-04-5.58693E-05-2.99951E-05-1.03753E-05-1.85966E-18 7.68438E-19
 -1      3238 1.25915E-04-1.92262E-05-4.61577E-05 9.89255E-06 3.00559E-18 6.68044E-19
 -1      3239 1.30354E-04-5.46339E-05-3.27756E-05 5.77869E-06-4.10558E-19 3.59407E-19
 -1      3240 1.26186E-04-5.70943E-05-2.93264E-05 1.53032E-05 4.31722E-20-3.01808E-19
 -1      3241 1.25376E-04-5.34584E-05-3.06429E-05 6.71181E-06-8.83766E-19 6.60368E-19
 -1      3242 1.30073E-04-5.46416E-05-3.23818E-05 1.72667E-06-8.65310E-19 7.93246E-19
 -1      3243 9.94576E-05-3.18968E-05-2.89070E-05 1.40342E-05-5.25061E-19 1.98426E-18
 -1      3244 1.01812E-04-3.44203E-05-2.88396E-05 1.40422E-05-6.07210E-19 2.28632E-18
 -1      3245 9.68105E-05-2.85888E-05-2.92243E-05 1.26256E-05-2.96666E-19 2.08829E-18
 -1      3246 9.81834E-05-3.00851E-05-2.91511E-05 1.31017E-05-3.05062E-19 1.79996E-18
 -1      3247 9.49693E-05-2.96088E-05-2.80653E-05 1.47948E-05-3.43062E-19 2.47325E-18
 -1      3248 9.56069E-05-2.69078E-05-2.94447E-05 1.09726E-05-7.69065E-19 1.68242E-18
 -1      3249 9.63687E-05-2.76804E-05-2.94131E-05 1.16497E-05-5.23062E-19 1.71039E-18
 -1      3250 9.34155E-05-2.67824E-05-2.85793E-05 1.26773E-05 1.35914E-20 1.61360E-18
 -1      3251 9.51595E-05-2.62363E-05-2.95473E-05 9.31368E-06-9.30637E-20 6.27781E-19
 -1      3252 9.55808E-05-2.65613E-05-2.95612E-05 1.00538E-05-2.31759E-19 7.66607E-19
 -1      3253 9.30323E-05-2.55046E-05-2.89446E-05 1.07169E-05 8.18028E-20-2.31089E-19
 -1      3254 9.50626E-05-2.61310E-05-2.95530E-05 7.75497E-06 1.09913E-19-3.17866E-19
 -1      3255 9.53088E-05-2.62056E-05-2.96010E-05 8.48175E-06 2.18463E-19 9.85291E-19
 -1      3256 9.31927E-05-2.51442E-05-2.91600E-05 8.96116E-06 4.13713E-19-1.37824E-18
 -1      3257 9.51012E-05-2.63092E-05-2.94930E-05 6.34602E-06 2.39147E-19-1.59680E-18
 -1      3258 9.52615E-05-2.62575E-05-2.95609E-05 7.01720E-06 2.13249E-19-8.07033E-19
 -1      3259 9.35534E-05-2.52755E-05-2.92560E-05 7.40558E-06 7.74582E-19 1.47544E-19
 -1      3260 9.51727E-05-2.66052E-05-2.93956E-05 5.10870E-06 1.05635E-18-1.58266E-18
 -1      3261 9.52909E-05-2.64990E-05-2.94716E-05 5.70329E-06 2.83166E-19-1.34581E-18
 -1      3262 9.39435E-05-2.56364E-05-2.92687E-05 6.04092E-06 4.12344E-20-1.66196E-18
 -1      3263 9.52354E-05-2.69289E-05-2.92823E-05 4.04778E-06 1.03116E-19-5.74310E-19
 -1      3264 9.53309E-05-2.68072E-05-2.93580E-05 4.55842E-06 3.22680E-19-1.35538E-18
 -1      3265 9.42888E-05-2.60765E-05-2.92292E-05 4.85926E-06 6.43864E-20-1.57273E-18
 -1      3266 9.52775E-05-2.72358E-05-2.91673E-05 3.15690E-06-8.82529E-21 1.37753E-18
 -1      3267 9.53580E-05-2.71179E-05-2.92376E-05 3.58473E-06 2.65563E-19 3.32804E-19
 -1      3268 9.45665E-05-2.65156E-05-2.91614E-05 3.85169E-06-4.52021E-19-8.04949E-20
 -1      3269 9.52996E-05-2.75068E-05-2.90593E-05 2.42267E-06 2.70510E-19 1.83983E-18
 -1      3270 9.53680E-05-2.74013E-05-2.91215E-05 2.77380E-06 6.63203E-19 1.85208E-18
 -1      3271 9.47770E-05-2.69154E-05-2.90814E-05 3.00669E-06-2.43058E-19 2.38242E-18
 -1      3272 9.53069E-05-2.77364E-05-2.89628E-05 1.82774E-06-6.70821E-19 1.24832E-18
 -1      3273 9.53641E-05-2.76460E-05-2.90161E-05 2.11081E-06-1.62998E-19 1.68225E-18
 -1      3274 9.49305E-05-2.72612E-05-2.89999E-05 2.30968E-06 3.73746E-19 1.39850E-18
 -1      3275 9.53045E-05-2.79255E-05-2.88798E-05 1.35327E-06-3.65173E-19-1.12469E-19
 -1      3276 9.53515E-05-2.78503E-05-2.89241E-05 1.57780E-06-3.93103E-19 6.01177E-19
 -1      3277 9.50390E-05-2.75504E-05-2.89230E-05 1.74397E-06-5.58831E-19-1.58294E-19
 -1      3278 9.52968E-05-2.80783E-05-2.88103E-05 9.80558E-07-8.77358E-19-6.56124E-19
 -1      3279 9.53345E-05-2.80170E-05-2.88463E-05 1.15596E-06-5.27128E-19-5.84035E-19
 -1      3280 9.51137E-05-2.77867E-05-2.88542E-05 1.29196E-06-1.01417E-19-6.46845E-19
 -1      3281 9.52867E-05-2.81999E-05-2.87533E-05 6.92162E-07-5.94557E-19-9.74849E-19
 -1      3282 9.53163E-05-2.81506E-05-2.87821E-05 8.27118E-07-8.70885E-19-8.60225E-19
 -1      3283 9.51637E-05-2.79763E-05-2.87946E-05 9.36295E-07-1.14266E-18 1.91889E-19
 -1      3284 9.52764E-05-2.82955E-05-2.87074E-05 4.72711E-07 4.70372E-19-8.64675E-19
 -1      3285 9.52990E-05-2.82563E-05-2.87300E-05 5.74747E-07 6.94798E-19-5.59566E-19
 -1      3286 9.51962E-05-2.81264E-05-2.87444E-05 6.60748E-07-2.59051E-19 1.77449E-19
 -1      3287 9.52671E-05-2.83690E-05-2.86709E-05 3.09327E-07 4.68085E-19-1.39288E-18
 -1      3288 9.52836E-05-2.83392E-05-2.86885E-05 3.84132E-07 3.56587E-19-1.09687E-18
 -1      3289 9.52158E-05-2.82435E-05-2.87028E-05 4.51327E-07 6.24387E-19-3.60775E-19
 -1      3290 9.15265E-05-1.71533E-05-3.18896E-05 1.43116E-06 7.91115E-19-2.69804E-18
 -1      3291 9.13535E-05-1.69119E-05-3.19174E-05 8.24085E-07 5.30143E-19-2.73423E-18
 -1      3292 9.55423E-05-2.64998E-05-2.95911E-05-1.75740E-06 9.19444E-19-7.88049E-19
 -1      3293 9.55541E-05-2.61867E-05-2.97168E-05-9.36414E-07 1.16883E-18-7.73409E-19
 -1      3294 9.54160E-05-2.61236E-05-2.97008E-05-1.99498E-06 1.05077E-18-8.53888E-19
 -1      3295 9.50437E-05-2.81957E-05-2.86496E-05-1.45418E-08 3.77456E-19-8.15729E-19
 -1      3296 9.50438E-05-2.81954E-05-2.86498E-05 1.57180E-08 1.40820E-18 5.87806E-19
 -1      3297 9.51576E-05-2.83275E-05-2.86415E-05-1.57683E-07 5.18456E-19 2.80004E-18
 -1      3298 9.51316E-05-2.82981E-05-2.86440E-05-1.49330E-07 7.76307E-19 1.41940E-18
 -1      3299 9.50621E-05-2.82160E-05-2.86484E-05-7.85865E-08 1.43898E-18 5.86638E-19
 -1      3300 9.50505E-05-2.82044E-05-2.86492E-05-5.15396E-08 6.77763E-19-2.18539E-19
 -1      3301 9.50099E-05-2.81356E-05-2.86591E-05-3.97807E-08 1.05363E-18-7.72618E-19
 -1      3302 1.03799E-04-4.87052E-05-2.35998E-05 2.71576E-05-1.73764E-18 2.35793E-19
 -1      3303 9.12624E-05-4.19554E-05-2.08906E-05 3.04871E-05-1.48241E-18 5.22037E-19
 -1      3304 1.12930E-04-1.22305E-05-4.35112E-05 8.77190E-07-1.80736E-18-1.40401E-18
 -1      3305 1.14339E-04-1.37193E-05-4.34731E-05-5.93114E-06-9.63182E-19-3.91541E-19
 -1      3306 9.51028E-05-2.82619E-05-2.86458E-05-1.29995E-07 1.39423E-18 7.77612E-19
 -1      3307 9.50813E-05-2.82399E-05-2.86473E-05-1.09863E-07 1.43002E-18 4.43299E-19
 -1      3308 9.50392E-05-2.81686E-05-2.86577E-05-1.13403E-07 1.14152E-18 4.16560E-19
 -1      3309 9.50930E-05-2.82294E-05-2.86549E-05-1.68901E-07 1.05237E-18 2.67395E-19
 -1      3310 5.99200E-05-2.36080E-05-1.54052E-05 2.82660E-05 1.07483E-18-1.86580E-18
 -1      3311 5.05059E-05-1.64665E-05-1.42462E-05 1.83636E-05 1.34633E-18-2.54724E-18
 -1      3312 1.04546E-04-3.74665E-05-2.86362E-05 1.46272E-05-1.32662E-18 2.26907E-18
 -1      3313 1.08216E-04-4.11253E-05-2.87217E-05 1.37116E-05-1.31548E-18 2.06528E-18
 -1      3314 9.86916E-05-3.47158E-05-2.74937E-05 1.67993E-05-1.10256E-18 2.04490E-18
 -1      3315 1.13314E-04-4.54096E-05-2.89155E-05 1.28855E-05-9.89454E-19 1.35149E-18
 -1      3316 1.18172E-04-4.93811E-05-2.94779E-05 1.02924E-05-8.36048E-19 7.51636E-19
 -1      3317 1.18563E-04-5.22304E-05-2.85381E-05 1.40386E-05-1.19581E-18 4.55214E-19
 -1      3318 1.06226E-04-4.27294E-05-2.72983E-05 1.75643E-05-1.61083E-18 1.91306E-18
 -1      3319 9.52236E-05-2.84257E-05-2.86273E-05 1.26342E-07 2.03339E-18-3.13510E-18
 -1      3320 9.52659E-05-2.64308E-05-2.94858E-05-9.13063E-06 5.21802E-19-4.35778E-19
 -1      3321 9.50272E-05-2.63756E-05-2.94326E-05-8.46998E-06 5.39409E-19-4.34578E-19
 -1      3322 9.38711E-05-2.56631E-05-2.92279E-05-8.13694E-06 4.86382E-19-2.15191E-19
 -1      3323 9.34489E-05-2.54829E-05-2.91252E-05-9.54970E-06 1.04185E-19-1.96737E-19
 -1      3324 1.36240E-04-5.17787E-05-3.65749E-05-7.63496E-06-5.25749E-19-3.23990E-19
 -1      3325 9.54276E-05-2.49113E-05-3.02109E-05-7.68788E-07-9.68951E-19-2.05948E-18
 -1      3326 9.54914E-05-2.55349E-05-2.99895E-05 2.33261E-07-7.71178E-19-1.97231E-18
 -1      3327 9.53797E-05-2.52125E-05-3.00730E-05 5.21996E-07-6.73251E-19-1.87030E-18
 -1      3328 4.45248E-05-1.25048E-05-1.34575E-05 4.79256E-06 1.09711E-18-3.54483E-18
 -1      3329 4.29342E-05-1.25957E-05-1.25048E-05-7.56615E-06 5.49711E-19-4.36730E-18
 -1      3330 4.70519E-05-1.57028E-05-1.30608E-05-1.61884E-05-5.14599E-19-4.73566E-18
 -1      3331 5.64906E-05-2.20269E-05-1.46016E-05-2.56263E-05-9.02090E-19-3.80678E-18
 -1      3332 5.29484E-05-1.50725E-05-1.57694E-05-1.13381E-05-4.88619E-19-3.60741E-18
 -1      3333 8.63529E-05-3.97052E-05-1.99424E-05 3.29872E-05 9.49153E-19-1.23699E-18
 -1      3334 7.28094E-05-3.10946E-05-1.74493E-05 3.17738E-05 1.11657E-18-1.60788E-18
 -1      3335 9.34106E-05-1.94437E-05-3.16971E-05-5.42413E-06-1.26779E-18-2.80988E-18
 -1      3336 9.53221E-05-2.38940E-05-3.06154E-05 3.22661E-06 1.94289E-18-8.15244E-19
 -1      3337 9.46417E-05-2.22613E-05-3.10068E-05 3.76759E-06 1.99157E-18-1.11136E-18
 -1      3338 9.48552E-05-2.29711E-05-3.07874E-05 2.56099E-06 1.70802E-18-1.04871E-18
 -1      3339 9.53900E-05-2.47583E-05-3.02801E-05 1.79223E-06 1.71626E-18-8.93667E-19
 -1      3340 1.17774E-04-1.85506E-05-4.27643E-05 1.05263E-05-2.58716E-18-2.10891E-18
 -1      3341 1.13489E-04-1.36576E-05-4.33168E-05 5.58336E-06-2.72480E-18-1.62405E-18
 -1      3342 1.30186E-04-5.87262E-05-3.08370E-05 9.79273E-06-1.50274E-18 5.00120E-19
 -1      3343 1.19044E-04-5.57323E-05-2.69812E-05 1.94658E-05-1.22518E-18 5.68088E-19
 -1      3344 1.29727E-04-3.75637E-05-3.96611E-05 1.17727E-05-8.78903E-19-2.80003E-18
 -1      3345 1.24194E-04-2.92735E-05-4.10994E-05 1.34233E-05-1.47146E-18-2.31049E-18
 -1      3346 9.32307E-05-4.32883E-05-2.09713E-05-3.20387E-05 1.18712E-18-3.58914E-18
 -1      3347 1.03068E-04-4.91963E-05-2.30388E-05-3.00022E-05 1.05985E-18-3.58675E-18
 -1      3348 6.89883E-05-2.97154E-05-1.63468E-05-3.06675E-05-1.11485E-18-2.83100E-18
 -1      3349 8.47714E-05-3.94028E-05-1.93540E-05-3.25728E-05-1.58427E-18-1.79126E-18
 -1      3350 9.12696E-05-1.67924E-05-3.19325E-05 3.57274E-07 4.11511E-19-2.62578E-18
 -1      3351 9.12693E-05-1.67936E-05-3.19320E-05-2.61135E-07 1.28912E-19-2.66982E-18
 -1      3352 9.20839E-05-1.82033E-05-3.16432E-05 4.72608E-07 3.25745E-19-2.47755E-18
 -1      3353 8.32510E-05-3.57058E-05-2.01252E-05 2.97800E-05-1.70942E-18 4.07740E-19
 -1      3354 7.53138E-05-2.87199E-05-1.98216E-05 2.61515E-05-1.88798E-18 5.02714E-19
 -1      3355 9.09698E-05-3.77114E-05-2.25914E-05 2.58740E-05-1.86309E-18 3.41195E-19
 -1      3356 1.19130E-04-3.09709E-05-3.79388E-05-1.31750E-05-4.17137E-19 8.96452E-19
 -1      3357 5.42461E-05-1.84240E-05-1.48014E-05-2.27400E-05 5.08537E-19 4.47551E-19
 -1      3358 6.54028E-05-2.36883E-05-1.76096E-05-2.50399E-05 1.26732E-18-1.18966E-18
 -1      3359 9.51330E-05-2.82958E-05-2.86456E-05 1.51709E-07 6.12423E-19-2.72025E-18
 -1      3360 9.51609E-05-2.83247E-05-2.86434E-05 1.60419E-07 1.36538E-18-2.70308E-18
 -1      3361 1.10725E-04-1.52127E-05-4.11555E-05 2.35115E-06-1.80143E-18-7.79284E-19
 -1      3362 9.25416E-05-1.86396E-05-3.16841E-05-2.81751E-06-5.86782E-19-2.94637E-18
 -1      3363 9.30395E-05-1.94115E-05-3.15773E-05-3.35913E-06-8.46782E-19-2.90802E-18
 -1      3364 9.49820E-05-2.32111E-05-3.07608E-05-2.82793E-06-1.28269E-18-2.35982E-18
 -1      3365 9.51607E-05-2.41060E-05-3.04646E-05-1.65127E-06-1.15363E-18-2.27514E-18
 -1      3366 9.50308E-05-2.37727E-05-3.05351E-05-1.21557E-06-9.71900E-19-2.20075E-18
 -1      3367 1.08076E-04-1.79870E-05-3.88088E-05-5.38535E-06-8.20298E-19-7.14618E-20
 -1      3368 1.07461E-04-1.66840E-05-3.90708E-05-1.02391E-06-1.21764E-18-2.04895E-19
 -1      3369 9.50099E-05-2.81346E-05-2.86596E-05 4.06196E-08 1.57489E-18 7.35244E-19
 -1      3370 9.50507E-05-2.82031E-05-2.86497E-05 5.34250E-08 1.23424E-18 1.49667E-18
 -1      3371 9.50627E-05-2.82148E-05-2.86492E-05 8.09955E-08 2.95102E-19 1.08390E-19
 -1      3372 9.39679E-05-2.09415E-05-3.13028E-05-4.08325E-06-1.24103E-18-2.64444E-18
 -1      3373 1.33484E-04-5.51524E-05-3.34499E-05-3.95526E-07-1.39678E-18 1.97570E-19
 -1      3374 4.52874E-05-1.43145E-05-1.29413E-05 1.33141E-05-9.92326E-19 9.05055E-19
 -1      3375 4.05550E-05-1.15495E-05-1.20035E-05 1.61511E-06-4.98691E-19 1.26674E-18
 -1      3376 9.46997E-05-2.62918E-05-2.93167E-05-5.68708E-06 5.87683E-19-9.11915E-19
 -1      3377 9.53763E-05-2.68831E-05-2.93456E-05-5.42850E-06 3.75459E-19-4.81673E-19
 -1      3378 9.52950E-05-2.69024E-05-2.93133E-05-4.86856E-06 5.03136E-19-6.84556E-19
 -1      3379 7.09665E-05-2.71268E-05-1.84910E-05 2.67664E-05 9.30307E-19-1.85781E-18
 -1      3380 9.52616E-05-2.83857E-05-2.86599E-05 2.60202E-07-5.68816E-20-1.55557E-18
 -1      3381 9.52170E-05-2.83155E-05-2.86730E-05 3.10001E-07 2.63761E-19-2.10204E-18
 -1      3382 9.52483E-05-2.83969E-05-2.86502E-05 2.20247E-07 3.40414E-19-1.72125E-18
 -1      3383 9.17846E-05-1.75218E-05-3.18406E-05 1.87840E-06 9.26266E-19-2.65428E-18
 -1      3384 9.24185E-05-1.86858E-05-3.15781E-05 1.28636E-06 6.89271E-19-2.51518E-18
 -1      3385 9.21248E-05-1.80153E-05-3.17794E-05 2.45702E-06 1.14874E-18-2.51760E-18
 -1      3386 9.50824E-05-2.82382E-05-2.86485E-05 1.12253E-07-2.83237E-19-3.34742E-18
 -1      3387 9.51043E-05-2.82601E-05-2.86473E-05 1.32127E-07 2.82741E-19-3.49396E-18
 -1      3388 9.50943E-05-2.82260E-05-2.86569E-05 1.70347E-07-3.76404E-19-3.15284E-18
 -1      3389 9.50398E-05-2.81661E-05-2.86590E-05 1.15142E-07 3.57782E-19-1.01954E-18
 -1      3390 9.39463E-05-2.11171E-05-3.11884E-05 2.60882E-06 1.49820E-18-1.59068E-18
 -1      3391 9.30372E-05-1.94033E-05-3.15800E-05 3.36846E-06 1.62207E-18-1.87033E-18
 -1      3392 9.25432E-05-1.86350E-05-3.16873E-05 2.86079E-06 1.37031E-18-2.17550E-18
 -1      3393 8.70906E-05-3.80140E-05-2.06951E-05-3.01626E-05 1.49131E-18-3.31169E-18
 -1      3394 1.14166E-04-1.82306E-05-4.13775E-05-8.24803E-06-8.47351E-19 1.02742E-19
 -1      3395 5.80968E-05-1.67969E-05-1.74649E-05 1.47971E-05 1.07166E-18-2.57164E-18
 -1      3396 5.02387E-05-1.39035E-05-1.51518E-05 1.10833E-05 1.12499E-18-3.05017E-18
 -1      3397 5.26800E-05-1.30531E-05-1.67916E-05 3.28511E-06 5.25822E-19-3.02571E-18
 -1      3398 9.42063E-05-4.34404E-05-2.14424E-05 3.08871E-05 1.03288E-18-1.31515E-18
 -1      3399 8.87019E-05-3.78729E-05-2.16981E-05 2.84482E-05 7.59153E-19-9.78191E-19
 -1      3400 1.01436E-04-4.70645E-05-2.34674E-05 2.76053E-05 1.09953E-18-1.37918E-18
 -1      3401 1.24448E-04-3.60278E-05-3.82138E-05-1.22071E-05-6.85461E-19 7.13916E-19
 -1      3402 1.11817E-04-5.10476E-05-2.58736E-05 2.16410E-05-1.72321E-18 1.34166E-18
 -1      3403 1.05723E-04-4.59221E-05-2.55370E-05 2.20125E-05-1.99860E-18 1.39906E-18
 -1      3404 1.09792E-04-5.10012E-05-2.51319E-05-2.39091E-05 1.23730E-18-3.01401E-18
 -1      3405 1.19033E-04-5.49103E-05-2.73505E-05 1.88764E-05 8.50474E-19-6.36228E-19
 -1      3406 1.30515E-04-5.15464E-05-3.38832E-05-2.04247E-08-6.11333E-19 1.06641E-18
 -1      3407 1.26095E-04-5.22798E-05-3.16765E-05 3.81490E-06 1.62043E-19 9.66934E-19
 -1      3408 1.27372E-04-4.70202E-05-3.46467E-05-5.28329E-06-4.96004E-19 1.65928E-18
 -1      3409 1.22515E-04-5.45887E-05-2.90237E-05-1.32476E-05 1.83020E-18-1.77016E-18
 -1      3410 1.29329E-04-5.58245E-05-3.15649E-05-8.42859E-06 2.05752E-18-1.85617E-18
 -1      3411 1.28549E-04-5.20570E-05-3.30125E-05-1.31117E-06 1.42511E-18-2.29636E-18
 -1      3412 9.51958E-05-2.83714E-05-2.86404E-05 1.65846E-07 1.61743E-18-3.11195E-18
 -1      3413 9.52350E-05-2.84167E-05-2.86358E-05 1.61216E-07 1.17363E-18-2.98424E-18
 -1      3414 9.52431E-05-2.84042E-05-2.86440E-05 1.93412E-07 1.03793E-18-2.28174E-18
 -1      3415 9.51669E-05-2.83097E-05-2.86524E-05 1.99238E-07 8.89335E-19-2.84261E-18
 -1      3416 6.40564E-05-2.15953E-05-1.80416E-05 2.15414E-05-8.13019E-19 1.27669E-18
 -1      3417 5.41707E-05-1.74706E-05-1.52292E-05 1.85548E-05-1.02400E-18 4.83656E-19
 -1      3418 5.41054E-05-1.50313E-05-1.65577E-05 1.24825E-05-5.83023E-19 7.89382E-19
 -1      3419 9.51924E-05-2.83630E-05-2.86416E-05-1.76709E-07 1.87550E-21 2.44176E-18
 -1      3420 9.51747E-05-2.83463E-05-2.86414E-05-1.67912E-07 3.01595E-20 2.84399E-18
 -1      3421 9.51437E-05-2.82852E-05-2.86529E-05-2.00133E-07 1.50294E-18 2.34831E-18
 -1      3422 9.51845E-05-2.83263E-05-2.86525E-05-2.18812E-07-5.14851E-20 2.53323E-18
 -1      3423 9.49773E-05-4.37201E-05-2.16145E-05-3.01279E-05-1.84494E-18-1.20893E-18
 -1      3424 1.03664E-04-4.70696E-05-2.42633E-05-2.50754E-05-2.01980E-18-9.09528E-19
 -1      3425 8.86262E-05-3.76108E-05-2.16689E-05-2.80740E-05-1.71884E-18-1.06919E-18
 -1      3426 9.54440E-05-2.69609E-05-2.93437E-05-4.30803E-06 5.38775E-19-7.41243E-19
 -1      3427 9.53971E-05-2.69141E-05-2.93474E-05-3.72782E-06 7.21895E-19-9.24464E-19
 -1      3428 9.50231E-05-2.64771E-05-2.93780E-05-4.54303E-06 4.63053E-19-9.72301E-19
 -1      3429 1.22526E-04-5.64832E-05-2.83250E-05-1.59297E-05-1.67871E-18-1.07774E-18
 -1      3430 6.83357E-05-2.56427E-05-1.78661E-05-2.51813E-05-1.36285E-18-2.98706E-18
 -1      3431 9.52688E-05-2.64536E-05-2.94952E-05-3.34821E-06 7.14272E-19-1.09616E-18
 -1      3432 1.28632E-04-4.22772E-05-3.70791E-05 8.85934E-06-1.04820E-19-2.35581E-18
 -1      3433 9.55282E-05-2.58654E-05-2.98584E-05-1.96115E-07 1.31686E-18-7.85250E-19
 -1      3434 9.55383E-05-2.53383E-05-3.00726E-05 8.82934E-07 1.52607E-18-8.14219E-19
 -1      3435 9.53242E-05-2.45816E-05-3.03357E-05 1.25653E-06 1.56139E-18-7.40618E-19
 -1      3436 9.54411E-05-2.54977E-05-2.99821E-05-4.87769E-07 1.26480E-18-6.91600E-19
 -1      3437 4.21135E-05-1.16443E-05-1.24657E-05-6.01811E-06-1.74780E-19 1.57262E-18
 -1      3438 4.76167E-05-1.53665E-05-1.35309E-05-1.69042E-05 4.31722E-20 1.14582E-18
 -1      3439 5.33577E-05-1.50411E-05-1.62796E-05-1.41003E-05 4.14517E-19 3.21873E-20
 -1      3440 4.80690E-05-1.24705E-05-1.48962E-05-1.06905E-06-3.62146E-19 1.33450E-18
 -1      3441 9.17918E-05-1.75335E-05-3.18375E-05-1.80174E-06-2.77687E-19-3.11834E-18
 -1      3442 9.21260E-05-1.80217E-05-3.17760E-05-2.40121E-06-4.63530E-19-3.12841E-18
 -1      3443 9.30733E-05-1.96941E-05-3.14309E-05-1.96296E-06-5.34209E-19-2.93747E-18
 -1      3444 9.41397E-05-2.16166E-05-3.10707E-05-2.27434E-06-9.33565E-19-2.57377E-18
 -1      3445 9.37842E-05-2.07116E-05-3.13136E-05-3.35244E-06-1.05972E-18-2.65547E-18
 -1      3446 9.52018E-05-2.61214E-05-2.96037E-05 2.76881E-06-5.88618E-19-2.07113E-18
 -1      3447 9.51490E-05-2.63229E-05-2.94968E-05 3.33603E-06-6.75344E-19-1.91239E-18
 -1      3448 9.49891E-05-2.64413E-05-2.93774E-05 3.84389E-06-5.12411E-19-1.78353E-18
 -1      3449 9.49297E-05-2.65560E-05-2.92997E-05 4.34451E-06-1.17950E-19-1.57426E-18
 -1      3450 9.47621E-05-2.59634E-05-2.94845E-05 3.40192E-06-3.52985E-19-1.69446E-18
 -1      3451 9.47337E-05-2.66072E-05-2.91985E-05 4.83125E-06-1.47301E-19-1.61556E-18
 -1      3452 9.47076E-05-2.67071E-05-2.91369E-05 5.29821E-06-1.86687E-19-1.80385E-18
 -1      3453 9.44054E-05-2.61559E-05-2.92502E-05 4.40754E-06-2.49725E-19-1.76213E-18
 -1      3454 9.45257E-05-2.67673E-05-2.90412E-05 5.79437E-06 1.45977E-21-1.88115E-18
 -1      3455 9.45810E-05-2.69295E-05-2.89844E-05 6.24624E-06 3.92663E-21-1.68728E-18
 -1      3456 9.40230E-05-2.62742E-05-2.90375E-05 5.40354E-06-1.01821E-19-2.18029E-18
 -1      3457 9.44764E-05-2.70837E-05-2.88832E-05 6.77336E-06-6.95533E-20-1.54587E-18
 -1      3458 9.46793E-05-2.73980E-05-2.88225E-05 7.21230E-06 4.62303E-20-1.33883E-18
 -1      3459 9.37250E-05-2.64862E-05-2.88221E-05 6.44746E-06 1.63633E-19-1.91972E-18
 -1      3460 9.47402E-05-2.77472E-05-2.87081E-05 7.77933E-06-9.39324E-20-1.03234E-18
 -1      3461 9.51837E-05-2.83200E-05-2.86399E-05 8.18580E-06-9.56385E-20-8.93625E-19
 -1      3462 9.36579E-05-2.69873E-05-2.85845E-05 7.58077E-06 1.46594E-19-1.61019E-18
 -1      3463 9.55365E-05-2.89841E-05-2.85114E-05 8.78029E-06-1.56046E-19-1.02064E-18
 -1      3464 9.63439E-05-2.99351E-05-2.84417E-05 9.10231E-06 3.86281E-20-9.33279E-19
 -1      3465 9.40302E-05-2.80130E-05-2.83143E-05 8.81795E-06-5.08414E-20-1.59674E-18
 -1      3466 9.71681E-05-3.10474E-05-2.83118E-05 9.66705E-06 2.27802E-19-1.15798E-18
 -1      3467 9.84832E-05-3.24865E-05-2.82646E-05 9.79905E-06 1.74014E-19-1.00294E-18
 -1      3468 9.51417E-05-2.98456E-05-2.80209E-05 1.01205E-05-1.71578E-20-1.31553E-18
 -1      3469 1.00005E-04-3.41566E-05-2.81730E-05 1.01886E-05 2.58518E-19-7.73342E-19
 -1      3470 1.01949E-04-3.61204E-05-2.82005E-05 9.94400E-06 3.36072E-19-4.58334E-19
 -1      3471 9.73976E-05-3.27730E-05-2.77546E-05 1.13204E-05 4.78058E-19-1.41837E-18
 -1      3472 1.04430E-04-3.83776E-05-2.82279E-05 9.86128E-06 3.60719E-19-5.38498E-19
 -1      3473 1.06988E-04-4.07000E-05-2.84242E-05 8.93121E-06 7.56802E-19-2.57191E-19
 -1      3474 1.01292E-04-3.70316E-05-2.76343E-05 1.20399E-05 2.30599E-19-7.48873E-19
 -1      3475 1.10587E-04-4.32834E-05-2.87331E-05 7.76139E-06 9.46961E-19-3.25909E-21
 -1      3476 1.13345E-04-4.52165E-05-2.92492E-05 5.77176E-06 9.60168E-19 4.13719E-19
 -1      3477 1.07319E-04-4.25046E-05-2.78990E-05 1.14714E-05 1.05479E-18-3.74832E-19
 -1      3478 1.22650E-04-4.66832E-05-3.25447E-05-3.93129E-06 3.50867E-19 1.57622E-18
 -1      3479 1.23200E-04-4.35603E-05-3.42152E-05-7.30148E-06 6.86229E-20 1.56957E-18
 -1      3480 6.73681E-05-2.19870E-05-1.94339E-05-2.12007E-05 9.39929E-19-1.44604E-18
 -1      3481 7.45446E-05-2.79987E-05-1.98396E-05-2.66097E-05 1.44959E-18-2.66802E-18
 -1      3482 1.19682E-04-3.07445E-05-3.82188E-05 1.31027E-05-1.56669E-18-1.86320E-18
 -1      3483 1.21276E-04-3.71357E-05-3.64670E-05 1.20435E-05-6.78222E-19-1.75864E-18
 -1      3484 1.23853E-04-4.65619E-05-3.31525E-05 3.71241E-06 6.92304E-19-1.58015E-18
 -1      3485 1.22436E-04-4.87186E-05-3.15132E-05 5.01060E-08 1.36374E-18-1.15583E-18
 -1      3486 1.12171E-04-4.41899E-05-2.91353E-05-5.99555E-06 4.31795E-19-6.47285E-19
 -1      3487 1.09216E-04-4.21069E-05-2.86632E-05-7.92633E-06 4.74943E-19-1.15250E-18
 -1      3488 1.05805E-04-3.94795E-05-2.84200E-05-8.68008E-06 4.36632E-19-1.26170E-18
 -1      3489 1.03346E-04-3.72193E-05-2.82611E-05-9.44374E-06 7.84343E-19-9.96939E-19
 -1      3490 1.05782E-04-4.08428E-05-2.78872E-05-1.10956E-05 2.56762E-19-6.24621E-19
 -1      3491 1.00988E-04-3.50284E-05-2.82584E-05-9.41190E-06 1.05280E-18-6.92100E-19
 -1      3492 9.91457E-05-3.31270E-05-2.82496E-05-9.52342E-06 7.34889E-19 1.55184E-19
 -1      3493 1.00213E-04-3.58181E-05-2.76877E-05-1.14559E-05 8.22084E-19-6.85781E-19
 -1      3494 9.77204E-05-3.15363E-05-2.83456E-05-9.03778E-06-1.21087E-19 1.81788E-19
 -1      3495 9.64799E-05-3.01742E-05-2.83945E-05-8.81258E-06 1.91537E-19-5.78043E-19
 -1      3496 9.65227E-05-3.16947E-05-2.78363E-05-1.05214E-05 5.11990E-19-2.28696E-19
 -1      3497 9.56966E-05-2.91282E-05-2.85121E-05-8.19034E-06 9.01480E-19-2.00508E-19
 -1      3498 9.49312E-05-2.82431E-05-2.85717E-05-7.79848E-06 4.30611E-19 6.72822E-19
 -1      3499 9.44043E-05-2.89358E-05-2.80903E-05-9.20021E-06 6.32816E-19 7.12449E-19
 -1      3500 9.45748E-05-2.76300E-05-2.86765E-05-7.16273E-06 3.75619E-19 1.17480E-18
 -1      3501 9.41426E-05-2.71146E-05-2.87247E-05-6.70521E-06 5.22023E-19 1.86098E-18
 -1      3502 9.33265E-05-2.72333E-05-2.83432E-05-7.82241E-06 8.03156E-19 1.03682E-18
 -1      3503 9.40491E-05-2.68132E-05-2.88044E-05-6.11044E-06-4.56243E-19 1.99300E-18
 -1      3504 9.38342E-05-2.65603E-05-2.88342E-05-5.64348E-06-5.28219E-19 8.04136E-19
 -1      3505 9.29163E-05-2.63172E-05-2.85506E-05-6.53372E-06-1.46563E-19 1.73510E-18
 -1      3506 9.38902E-05-2.64671E-05-2.88871E-05-5.10986E-06-2.27181E-20 3.09294E-19
 -1      3507 9.38077E-05-2.63879E-05-2.88987E-05-4.66449E-06-8.90894E-20-2.14370E-19
 -1      3508 9.29023E-05-2.59406E-05-2.87005E-05-5.38210E-06-3.94493E-19 1.35373E-18
 -1      3509 9.39392E-05-2.64242E-05-2.89283E-05-4.19741E-06-7.30698E-19-6.34419E-19
 -1      3510 9.39317E-05-2.64517E-05-2.89253E-05-3.79060E-06-1.58437E-18-8.24136E-21
 -1      3511 9.31027E-05-2.59106E-05-2.87963E-05-4.37666E-06-8.31524E-19-2.93226E-20
 -1      3512 9.40923E-05-2.65608E-05-2.89367E-05-3.38944E-06-1.57722E-18 9.44519E-20
 -1      3513 9.41229E-05-2.66477E-05-2.89233E-05-3.02970E-06-7.96217E-19 3.63414E-19
 -1      3514 9.34013E-05-2.60867E-05-2.88474E-05-3.51254E-06-1.31797E-18-7.88727E-19
 -1      3515 9.42849E-05-2.67908E-05-2.89217E-05-2.69100E-06-6.66805E-19-3.18316E-19
 -1      3516 9.43311E-05-2.69049E-05-2.89019E-05-2.38123E-06-9.82316E-19-6.76094E-19
 -1      3517 9.37267E-05-2.63704E-05-2.88647E-05-2.78036E-06-1.16865E-18 6.60448E-20
 -1      3518 9.44796E-05-2.70568E-05-2.88919E-05-2.09983E-06-1.12683E-18-1.45983E-18
 -1      3519 9.45285E-05-2.71776E-05-2.88690E-05-1.83917E-06-1.35352E-18-1.31408E-18
 -1      3520 9.40380E-05-2.66958E-05-2.88586E-05-2.16856E-06-1.30682E-18-9.48269E-19
 -1      3521 9.46563E-05-2.73231E-05-2.88541E-05-1.60906E-06-2.31471E-18-1.23754E-18
 -1      3522 9.47012E-05-2.74386E-05-2.88306E-05-1.39425E-06-2.35138E-18-2.01233E-18
 -1      3523 9.43141E-05-2.70214E-05-2.88376E-05-1.66453E-06-2.00695E-18-1.20653E-18
 -1      3524 9.48065E-05-2.75694E-05-2.88134E-05-1.20902E-06-1.00003E-18-2.32480E-18
 -1      3525 9.48444E-05-2.76729E-05-2.87909E-05-1.03542E-06-6.83195E-19-1.97142E-18
 -1      3526 9.45466E-05-2.73230E-05-2.88083E-05-1.25530E-06-1.69647E-18-1.52710E-18
 -1      3527 9.49280E-05-2.77856E-05-2.87733E-05-8.88705E-07 5.48958E-19-6.71397E-19
 -1      3528 9.49582E-05-2.78745E-05-2.87526E-05-7.51037E-07 1.21696E-18 4.34418E-19
 -1      3529 9.47348E-05-2.75887E-05-2.87754E-05-9.28007E-07 4.90761E-19 6.88952E-19
 -1      3530 9.50223E-05-2.79683E-05-2.87358E-05-6.36752E-07 8.17709E-19 4.68370E-19
 -1      3531 9.50451E-05-2.80422E-05-2.87175E-05-5.29672E-07 1.25418E-18 1.56483E-18
 -1      3532 9.48818E-05-2.78142E-05-2.87422E-05-6.70381E-07 1.04970E-18 1.65236E-18
 -1      3533 9.50930E-05-2.81191E-05-2.87019E-05-4.42086E-07 1.51962E-18 1.74079E-19
 -1      3534 9.51105E-05-2.81790E-05-2.86861E-05-3.61655E-07 1.05263E-18 4.56791E-19
 -1      3535 9.49932E-05-2.79999E-05-2.87105E-05-4.70685E-07 5.10675E-19 1.70897E-18
 -1      3536 5.46612E-05-1.38355E-05-1.73611E-05-6.86628E-06-2.13710E-19-3.20062E-18
 -1      3537 5.85999E-05-1.68073E-05-1.78319E-05-1.48896E-05-9.11447E-19-3.16610E-18
 -1      3538 9.33310E-05-2.52858E-05-2.91559E-05-6.78453E-06 6.01122E-19-6.46493E-19
 -1      3539 9.35496E-05-2.54696E-05-2.91875E-05-6.19297E-06 6.76979E-19-8.38222E-19
 -1      3540 1.16191E-04-5.29488E-05-2.68688E-05-1.92024E-05-1.94267E-18-5.16389E-19
 -1      3541 9.05592E-05-2.54297E-05-2.78739E-05-1.30186E-05-6.20066E-19-7.25438E-19
 -1      3542 9.02669E-05-2.47314E-05-2.81079E-05-1.20756E-05-7.43448E-19-8.23701E-19
 -1      3543 9.09239E-05-2.45601E-05-2.84182E-05-1.10368E-05-7.16423E-19-5.82049E-19
 -1      3544 9.09826E-05-2.43653E-05-2.85708E-05-1.02225E-05-4.56497E-19-3.78141E-19
 -1      3545 8.81113E-05-2.33281E-05-2.77501E-05-1.10848E-05-4.74908E-19-8.27077E-19
 -1      3546 9.37056E-05-3.23163E-05-2.62058E-05-1.84625E-05-1.72491E-18-1.18430E-18
 -1      3547 9.13994E-05-2.94186E-05-2.65412E-05-1.72871E-05-1.56618E-18-1.36930E-18
 -1      3548 9.52257E-05-2.58022E-05-2.97568E-05-2.18824E-06 1.00213E-18-8.67266E-19
 -1      3549 9.52727E-05-2.55086E-05-2.98936E-05-1.44222E-06 1.11650E-18-8.00958E-19
 -1      3550 9.04847E-05-2.39672E-05-2.85287E-05 9.80584E-06 1.98865E-19-8.59136E-19
 -1      3551 9.04991E-05-2.42622E-05-2.83625E-05 1.07075E-05 3.17153E-19-7.79994E-19
 -1      3552 9.52801E-05-2.54941E-05-2.99048E-05 1.52335E-06-6.83127E-19-2.12213E-18
 -1      3553 9.52777E-05-2.58574E-05-2.97544E-05 2.20406E-06-6.32078E-19-2.14162E-18
 -1      3554 9.49993E-05-2.55417E-05-2.97663E-05 2.31710E-06-5.42096E-19-2.11192E-18
 -1      3555 8.99219E-05-2.45617E-05-2.80320E-05 1.18680E-05 5.43207E-19-1.41758E-19
 -1      3556 9.03520E-05-2.54311E-05-2.77785E-05 1.29000E-05 7.80316E-19 1.15952E-18
 -1      3557 8.74088E-05-2.29423E-05-2.76163E-05 1.08843E-05 8.76352E-19-4.03943E-19
 -1      3558 9.00768E-05-2.63790E-05-2.73085E-05 1.44306E-05 2.15232E-19 7.32882E-19
 -1      3559 9.12824E-05-2.82000E-05-2.69670E-05 1.56229E-05-3.15354E-19 1.21185E-18
 -1      3560 8.64372E-05-2.40285E-05-2.67504E-05 1.35571E-05 1.01304E-19-8.49690E-19
 -1      3561 9.12933E-05-2.40520E-05-2.88367E-05 8.10062E-06 6.37469E-19-5.19772E-19
 -1      3562 9.11358E-05-2.40319E-05-2.87446E-05 8.89276E-06-2.35850E-21-7.58246E-19
 -1      3563 8.86796E-05-2.28243E-05-2.82073E-05 8.87725E-06 1.09401E-20-1.73638E-19
 -1      3564 9.21137E-05-2.44761E-05-2.90039E-05 6.65518E-06 7.69351E-19 1.44481E-19
 -1      3565 9.19089E-05-2.42999E-05-2.89664E-05 7.35249E-06 1.24897E-18 1.99407E-20
 -1      3566 8.99562E-05-2.32191E-05-2.85856E-05 7.29140E-06 1.19370E-18-1.36874E-19
 -1      3567 9.28427E-05-2.50361E-05-2.90737E-05 5.41617E-06 8.38885E-21-9.15592E-19
 -1      3568 9.26485E-05-2.47975E-05-2.90726E-05 6.02611E-06 2.24514E-19-8.79130E-19
 -1      3569 9.11028E-05-2.38504E-05-2.88085E-05 5.98113E-06 1.08071E-18 4.44455E-19
 -1      3570 9.34460E-05-2.56176E-05-2.90807E-05 4.35468E-06-3.34418E-19-1.35673E-18
 -1      3571 9.32841E-05-2.53683E-05-2.91015E-05 4.88168E-06-5.40860E-19-1.03677E-18
 -1      3572 9.20704E-05-2.45557E-05-2.89235E-05 4.87100E-06-4.77235E-19-7.19003E-19
 -1      3573 9.39242E-05-2.61621E-05-2.90502E-05 3.45303E-06-1.58562E-18 9.71422E-19
 -1      3574 9.37985E-05-2.59283E-05-2.90825E-05 3.90127E-06-9.59440E-19-4.13875E-19
 -1      3575 9.28553E-05-2.52447E-05-2.89672E-05 3.92280E-06-1.47711E-18 1.37346E-19
 -1      3576 9.42920E-05-2.66432E-05-2.89998E-05 2.69718E-06-1.27503E-19 1.18050E-18
 -1      3577 9.41989E-05-2.64366E-05-2.90367E-05 3.07203E-06-3.86959E-19 1.22595E-18
 -1      3578 9.34747E-05-2.58720E-05-2.89660E-05 3.11656E-06-9.42044E-19 6.51894E-19
 -1      3579 9.45686E-05-2.70529E-05-2.89413E-05 2.07299E-06 2.49759E-19 5.69489E-19
 -1      3580 9.45020E-05-2.68769E-05-2.89783E-05 2.38122E-06 2.53765E-19 6.20795E-19
 -1      3581 9.39534E-05-2.64185E-05-2.89387E-05 2.43880E-06-4.68502E-21 3.60262E-19
 -1      3582 9.47730E-05-2.73926E-05-2.88820E-05 1.56549E-06-8.14980E-20-8.57556E-20
 -1      3583 9.47266E-05-2.72467E-05-2.89166E-05 1.81483E-06 4.06172E-19 8.07507E-19
 -1      3584 9.43169E-05-2.68804E-05-2.88980E-05 1.87720E-06 2.81796E-19 4.81615E-20
 -1      3585 9.49215E-05-2.76688E-05-2.88262E-05 1.15929E-06-8.20094E-19 1.01807E-18
 -1      3586 9.48901E-05-2.75501E-05-2.88570E-05 1.35779E-06-6.44433E-19-1.02701E-20
 -1      3587 9.45889E-05-2.72619E-05-2.88520E-05 1.41914E-06-4.25478E-19-1.19579E-22
 -1      3588 9.50275E-05-2.78896E-05-2.87762E-05 8.39192E-07-1.68527E-18 1.49404E-19
 -1      3589 9.50068E-05-2.77946E-05-2.88027E-05 9.94783E-07-1.26031E-18 2.16624E-19
 -1      3590 9.47892E-05-2.75711E-05-2.88061E-05 1.05151E-06-6.33822E-19 2.25372E-19
 -1      3591 9.51019E-05-2.80639E-05-2.87326E-05 5.90829E-07-1.88739E-19-3.06008E-19
 -1      3592 9.50886E-05-2.79885E-05-2.87550E-05 7.11121E-07-6.13597E-19-6.35128E-19
 -1      3593 9.49344E-05-2.78182E-05-2.87631E-05 7.61338E-07-4.72331E-19-1.18472E-18
 -1      3594 9.51528E-05-2.81987E-05-2.86956E-05 4.03136E-07 1.22393E-18-1.37995E-18
 -1      3595 9.51450E-05-2.81412E-05-2.87141E-05 4.93244E-07 7.46396E-19-1.31806E-18
 -1      3596 9.50372E-05-2.80133E-05-2.87244E-05 5.36420E-07 3.28498E-19-1.68440E-18
 -1      3597 1.03082E-04-4.19907E-05-2.60976E-05 1.98616E-05-1.88972E-18 1.35096E-18
 -1      3598 9.63504E-05-3.98729E-05-2.41077E-05 2.44122E-05-1.80074E-18 1.27711E-18
 -1      3599 8.86964E-05-3.39073E-05-2.34231E-05 2.36340E-05-1.66081E-18 8.37067E-19
 -1      3600 9.80352E-05-3.70359E-05-2.60496E-05 1.97241E-05-1.31551E-18 1.37559E-18
 -1      3601 9.49598E-05-2.80664E-05-2.86690E-05-7.05693E-08 1.38350E-18-2.08017E-19
 -1      3602 9.49509E-05-2.80576E-05-2.86694E-05-2.82773E-08 1.66578E-18-1.78027E-18
 -1      3603 1.05965E-04-4.75532E-05-2.48977E-05-2.32823E-05 7.50127E-19-2.96250E-18
 -1      3604 1.15434E-04-5.28710E-05-2.68267E-05-1.95470E-05 1.40883E-18-2.55121E-18
 -1      3605 1.18695E-04-5.21664E-05-2.84260E-05-1.30404E-05 1.51219E-18-1.67716E-18
 -1      3606 1.20525E-04-2.58245E-05-4.10143E-05 1.33149E-05-1.77909E-18-2.30843E-18
 -1      3607 1.26218E-04-4.36137E-05-3.53372E-05 8.51640E-06 1.17367E-19-2.31449E-18
 -1      3608 7.76296E-05-2.94389E-05-2.06306E-05 2.56294E-05 8.19743E-19-9.84940E-19
 -1      3609 6.72081E-05-2.23585E-05-1.90117E-05 2.20682E-05 1.10046E-18-2.27206E-18
 -1      3610 9.25267E-05-3.03194E-05-2.66327E-05 1.71777E-05-1.24413E-18 7.85115E-19
 -1      3611 9.50765E-05-3.34928E-05-2.63010E-05 1.82923E-05-1.56014E-18 8.30235E-19
 -1      3612 9.10285E-05-3.24383E-05-2.51424E-05 2.04001E-05-1.50189E-18 6.05820E-19
 -1      3613 8.71874E-05-2.70057E-05-2.58387E-05 1.69279E-05-7.44185E-19-1.53424E-19
 -1      3614 9.13615E-05-1.69217E-05-3.19159E-05-7.28047E-07 3.11723E-21-2.86153E-18
 -1      3615 9.15329E-05-1.71636E-05-3.18874E-05-1.34571E-06-2.23377E-19-3.02243E-18
 -1      3616 9.24266E-05-1.87119E-05-3.15750E-05-1.18801E-06-2.46341E-19-2.94666E-18
 -1      3617 8.44681E-05-3.40278E-05-2.14427E-05-2.69102E-05 1.28558E-18-2.61185E-18
 -1      3618 9.67645E-05-4.14597E-05-2.38111E-05-2.50066E-05 4.22623E-19-3.16864E-18
 -1      3619 8.57737E-05-3.20875E-05-2.28522E-05-2.28352E-05 5.43120E-19-2.28911E-18
 -1      3620 9.11781E-05-2.77386E-05-2.71215E-05-1.54848E-05-8.62806E-19-1.28950E-18
 -1      3621 9.01583E-05-2.61762E-05-2.74340E-05-1.43967E-05-5.34561E-19-9.01430E-19
 -1      3622 8.69525E-05-2.40874E-05-2.69357E-05-1.35171E-05-5.48774E-19-1.28979E-18
 -1      3623 8.66001E-05-2.64668E-05-2.58272E-05-1.68911E-05-1.04308E-18-1.62484E-18
 -1      3624 9.49838E-05-2.60736E-05-2.95334E-05-3.44050E-06 7.00837E-19-1.07776E-18
 -1      3625 9.50903E-05-2.59748E-05-2.96190E-05-2.80762E-06 8.75299E-19-9.82535E-19
 -1      3626 9.49174E-05-2.53963E-05-2.97918E-05-2.29627E-06 9.96854E-19-8.27555E-19
 -1      3627 6.62119E-05-2.13231E-05-1.89680E-05-2.06190E-05-1.38542E-18-2.68324E-18
 -1      3628 7.63802E-05-2.85948E-05-2.04810E-05-2.54404E-05-1.68345E-18-1.87014E-18
 -1      3629 1.24277E-04-4.03110E-05-3.59868E-05-1.04638E-05-2.55407E-19 1.10591E-18
 -1      3630 1.20381E-04-5.34093E-05-2.88919E-05 1.27439E-05 9.79163E-19 1.20689E-19
 -1      3631 1.12819E-04-5.15228E-05-2.59438E-05 2.13130E-05 1.56693E-18-7.15617E-19
 -1      3632 9.51139E-05-2.43884E-05-3.03099E-05 2.16395E-08-5.90307E-19-2.29284E-18
 -1      3633 9.52211E-05-2.50006E-05-3.01000E-05 8.63585E-07-6.12083E-19-2.22164E-18
 -1      3634 9.50140E-05-2.47240E-05-3.01224E-05 1.07819E-06-6.41588E-19-2.33578E-18
 -1      3635 9.45479E-05-2.26070E-05-3.08475E-05 1.85827E-06 1.45020E-18-1.28761E-18
 -1      3636 9.40871E-05-2.17559E-05-3.10038E-05 1.68606E-06 1.19660E-18-1.53602E-18
 -1      3637 9.89002E-05-3.98720E-05-2.52340E-05-2.02225E-05 7.06875E-20-2.01700E-18
 -1      3638 1.01834E-04-4.35323E-05-2.48868E-05-2.19002E-05-1.55207E-19-2.47880E-18
 -1      3639 1.06998E-04-4.58966E-05-2.63171E-05-1.83242E-05 8.06170E-20-2.09089E-18
 -1      3640 5.97381E-05-1.54406E-05-1.88390E-05 1.00736E-05-3.79118E-19 6.21352E-19
 -1      3641 5.35331E-05-1.27540E-05-1.70560E-05 5.28944E-06-3.16598E-19 3.42254E-19
 -1      3642 9.45749E-05-2.60140E-05-2.93809E-05-4.56566E-06 3.69119E-19-1.03195E-18
 -1      3643 9.47245E-05-2.60554E-05-2.94319E-05-3.98941E-06 4.79101E-19-1.01896E-18
 -1      3644 9.45305E-05-2.55984E-05-2.95385E-05-3.47153E-06 6.85808E-19-1.10336E-18
 -1      3645 9.45985E-05-2.27568E-05-3.07956E-05-1.54331E-06-9.00942E-19-2.39566E-18
 -1      3646 9.48619E-05-2.36144E-05-3.05399E-05-6.35058E-07-6.86765E-19-2.36307E-18
 -1      3647 9.46942E-05-2.33956E-05-3.05534E-05-2.66587E-07-5.54045E-19-2.40464E-18
 -1      3648 9.39477E-05-2.14672E-05-3.10574E-05-1.64380E-06-6.97490E-19-2.47857E-18
 -1      3649 1.20043E-04-4.69991E-05-3.13792E-05-9.52603E-07 8.52447E-19 1.56712E-18
 -1      3650 1.22793E-04-4.94846E-05-3.15140E-05 9.10464E-07 4.94995E-19 1.22586E-18
 -1      3651 1.23657E-04-5.23763E-05-3.04437E-05 6.19172E-06 9.13236E-19 5.67141E-19
 -1      3652 1.17877E-04-4.70154E-05-3.02914E-05 2.35369E-06 9.83218E-19 9.65809E-19
 -1      3653 8.33953E-05-3.25981E-05-2.14987E-05 2.62316E-05 8.35830E-19-4.37638E-19
 -1      3654 7.91369E-05-2.81460E-05-2.18028E-05 2.27897E-05 7.55160E-19-7.84816E-19
 -1      3655 8.92163E-05-3.63288E-05-2.27540E-05 2.51770E-05 1.00851E-18-5.90329E-19
 -1      3656 1.03214E-04-4.35202E-05-2.54265E-05-2.21074E-05-1.87623E-18-5.66778E-19
 -1      3657 1.10513E-04-4.92869E-05-2.61416E-05-2.12571E-05-2.14786E-18-6.70954E-19
 -1      3658 9.30633E-05-1.96620E-05-3.14348E-05 2.02732E-06 1.07528E-18-2.17013E-18
 -1      3659 1.19616E-04-5.08902E-05-2.96305E-05-7.92554E-06 1.11078E-18-8.09069E-19
 -1      3660 1.17820E-04-4.66422E-05-3.04628E-05-1.57878E-06 6.10267E-19-7.74903E-19
 -1      3661 1.15080E-04-4.57579E-05-2.95443E-05-4.68875E-06 3.07261E-19-9.43704E-19
 -1      3662 1.13519E-04-4.86357E-05-2.77143E-05-1.32992E-05 2.57091E-19-1.19311E-18
 -1      3663 6.76891E-05-1.97912E-05-2.02775E-05-1.62498E-05-1.06344E-18-2.48935E-18
 -1      3664 5.66691E-05-1.36458E-05-1.81676E-05-1.83999E-06 1.47046E-19-2.96747E-18
 -1      3665 6.11893E-05-1.46875E-05-1.99382E-05-5.45556E-06-9.53177E-20-2.78624E-18
 -1      3666 5.96457E-05-1.44616E-05-1.93910E-05 4.05547E-06 4.35339E-19-2.40957E-18
 -1      3667 9.51462E-05-2.82356E-05-2.86751E-05-3.12871E-07 7.28456E-19-9.31481E-20
 -1      3668 9.51604E-05-2.82816E-05-2.86628E-05-2.58174E-07 3.62916E-19 1.11273E-18
 -1      3669 9.51387E-05-2.82586E-05-2.86631E-05-2.49711E-07 7.56688E-19 1.16099E-18
 -1      3670 9.50768E-05-2.81448E-05-2.86844E-05-3.38906E-07 1.13714E-18-2.86920E-19
 -1      3671 9.30882E-05-2.50314E-05-2.91589E-05-5.58204E-06 4.11285E-19-1.07075E-18
 -1      3672 9.40199E-05-2.57206E-05-2.92668E-05-5.65561E-06 6.22670E-19-1.01312E-18
 -1      3673 9.42069E-05-2.58566E-05-2.92995E-05-5.08922E-06 4.73276E-19-1.04788E-18
 -1      3674 9.51172E-05-2.82386E-05-2.86631E-05-2.37941E-07 1.54315E-18 7.24193E-19
 -1      3675 8.94936E-05-2.33966E-05-2.83125E-05-9.30782E-06 6.57888E-21-1.56408E-19
 -1      3676 9.16791E-05-2.44948E-05-2.87798E-05-9.40959E-06-1.65605E-19-1.40072E-19
 -1      3677 9.18764E-05-2.45552E-05-2.88695E-05-8.69176E-06 9.27344E-20-1.68688E-19
 -1      3678 9.50277E-05-2.47180E-05-3.01307E-05-9.25134E-07 1.17126E-18-1.01410E-18
 -1      3679 9.52516E-05-2.50645E-05-3.00848E-05-6.96830E-07 1.10945E-18-7.97347E-19
 -1      3680 9.97116E-05-4.02537E-05-2.53760E-05-2.15575E-05-1.89955E-18-6.83611E-19
 -1      3681 9.54577E-05-3.56038E-05-2.55514E-05-2.06524E-05-1.51216E-18-7.65422E-19
 -1      3682 9.50604E-05-2.81510E-05-2.86753E-05-2.67782E-07 1.76442E-18 1.34184E-19
 -1      3683 9.50716E-05-2.81859E-05-2.86650E-05-2.15535E-07 1.80206E-18 8.79609E-19
 -1      3684 9.50359E-05-2.81503E-05-2.86667E-05-1.93128E-07 1.28329E-18 9.94308E-19
 -1      3685 9.48996E-05-2.79767E-05-2.86797E-05-9.86104E-10 1.27224E-18-4.21370E-19
 -1      3686 9.49507E-05-2.80564E-05-2.86697E-05 2.71895E-08 1.70150E-18-6.75125E-19
 -1      3687 9.49595E-05-2.80644E-05-2.86698E-05 7.02720E-08 2.21766E-18 1.19016E-18
 -1      3688 5.37452E-05-1.28901E-05-1.73764E-05-1.59224E-06 2.73962E-20 4.05094E-19
 -1      3689 9.51649E-05-2.82334E-05-2.86836E-05 3.44336E-07 2.07944E-18-1.88347E-18
 -1      3690 9.50902E-05-2.81390E-05-2.86942E-05 3.77520E-07 2.06861E-18-2.05760E-18
 -1      3691 9.51632E-05-2.82606E-05-2.86722E-05 2.89725E-07 1.40552E-18-3.01154E-18
 -1      3692 9.20879E-05-1.82128E-05-3.16420E-05-3.60543E-07 1.42345E-20-2.63720E-18
 -1      3693 7.89281E-05-2.75467E-05-2.18721E-05 2.23977E-05-1.12079E-18 1.80524E-20
 -1      3694 7.14814E-05-2.46441E-05-1.98145E-05 2.31001E-05-1.02549E-18 9.11090E-19
 -1      3695 6.79188E-05-2.07959E-05-2.01815E-05 1.86928E-05-2.53607E-19 2.36057E-19
 -1      3696 1.12085E-04-4.59592E-05-2.84805E-05-9.68857E-06 6.00335E-20-4.73697E-19
 -1      3697 9.30146E-05-2.00270E-05-3.12944E-05 1.09862E-06 6.78798E-19-2.36737E-18
 -1      3698 9.27771E-05-1.96626E-05-3.13452E-05 7.55663E-07 4.74813E-19-2.39220E-18
 -1      3699 9.50398E-05-2.81489E-05-2.86688E-05 1.97081E-07-6.04416E-19-3.53309E-18
 -1      3700 9.50767E-05-2.81861E-05-2.86674E-05 2.20195E-07-2.70664E-20-3.83643E-18
 -1      3701 9.32181E-05-2.05905E-05-3.11063E-05 4.08656E-07 3.47550E-19-2.29162E-18
 -1      3702 9.26247E-05-1.94359E-05-3.13784E-05 5.41983E-07 3.87093E-19-2.39136E-18
 -1      3703 9.25458E-05-1.93206E-05-3.13935E-05 1.75139E-07 1.97856E-19-2.35368E-18
 -1      3704 6.43226E-05-1.90230E-05-1.92291E-05 1.75822E-05 1.05998E-18-2.85000E-18
 -1      3705 6.27209E-05-1.62547E-05-1.98015E-05 1.09911E-05 7.49737E-19-2.30398E-18
 -1      3706 7.13154E-05-2.16755E-05-2.12017E-05 1.72298E-05 1.03668E-18-2.33054E-18
 -1      3707 1.06122E-04-4.70095E-05-2.52631E-05 2.18378E-05 1.14471E-18-5.38802E-19
 -1      3708 5.54405E-05-1.32570E-05-1.76784E-05-6.74807E-06 2.92164E-19 7.23207E-19
 -1      3709 5.93068E-05-1.58052E-05-1.85831E-05-1.22547E-05 6.31133E-19-4.60336E-19
 -1      3710 5.97602E-05-1.38706E-05-1.95655E-05-1.37592E-06 5.35646E-19 2.34284E-19
 -1      3711 9.52092E-05-2.83496E-05-2.86555E-05 2.31206E-07-6.94015E-20-3.43990E-18
 -1      3712 9.50019E-05-2.81110E-05-2.86675E-05-1.54897E-07 8.61391E-19 5.23148E-19
 -1      3713 9.49777E-05-2.80874E-05-2.86684E-05-1.18676E-07 1.21584E-18 8.25152E-19
 -1      3714 9.49212E-05-2.79996E-05-2.86789E-05-1.11259E-07 1.42544E-18-7.14036E-19
 -1      3715 9.49751E-05-2.80591E-05-2.86776E-05-2.02795E-07 1.80692E-18 1.03713E-18
 -1      3716 9.52305E-05-2.46609E-05-3.02431E-05 9.92175E-08 1.23222E-18-8.29704E-19
 -1      3717 9.32282E-05-2.03103E-05-3.12518E-05-1.14248E-06-3.47503E-19-2.85552E-18
 -1      3718 9.35882E-05-2.09112E-05-3.11601E-05-1.44618E-06-5.58129E-19-2.71691E-18
 -1      3719 9.40736E-05-2.19689E-05-3.08917E-05-7.86506E-07-5.62641E-19-2.50952E-18
 -1      3720 9.25298E-05-2.48216E-05-2.90089E-05-8.01569E-06 1.62017E-19-3.77174E-19
 -1      3721 9.27616E-05-2.49912E-05-2.90586E-05-7.37187E-06 5.57055E-19-6.30116E-19
 -1      3722 9.20605E-05-2.44624E-05-2.89594E-05-6.67067E-06 4.76294E-19-1.07542E-18
 -1      3723 9.08456E-05-2.38580E-05-2.86952E-05-7.88189E-06 4.69901E-21-6.66169E-19
 -1      3724 1.15609E-04-4.75744E-05-2.92045E-05 7.27743E-06 1.38924E-18 6.57646E-19
 -1      3725 1.17912E-04-5.05478E-05-2.89606E-05 9.81701E-06 1.42118E-18 2.95545E-19
 -1      3726 6.56818E-05-1.85876E-05-1.99305E-05-1.61406E-05 6.97747E-19-1.39271E-18
 -1      3727 7.27707E-05-2.22441E-05-2.17483E-05-1.79142E-05 1.08866E-18-2.35380E-18
 -1      3728 6.56637E-05-1.65313E-05-2.10158E-05-1.01524E-05 8.24719E-19-1.18187E-18
 -1      3729 8.80576E-05-3.12824E-05-2.44380E-05-2.14019E-05-1.88998E-18-1.32905E-18
 -1      3730 9.50637E-05-2.81382E-05-2.86810E-05 2.84955E-07 9.77762E-19-3.71500E-18
 -1      3731 9.51138E-05-2.82235E-05-2.86685E-05 2.50548E-07 7.41504E-19-2.83847E-18
 -1      3732 6.44607E-05-1.71481E-05-2.00393E-05 1.37824E-05-1.54994E-19 5.02079E-19
 -1      3733 6.26299E-05-1.51106E-05-2.04141E-05 7.45581E-06 2.46063E-19 7.08596E-19
 -1      3734 7.06246E-05-1.99365E-05-2.16093E-05 1.54291E-05 2.31908E-20 6.41224E-19
 -1      3735 9.45263E-05-2.55117E-05-2.95801E-05 2.84225E-06-2.30034E-19-1.93339E-18
 -1      3736 9.43671E-05-2.56542E-05-2.94481E-05 3.35557E-06-2.93971E-19-1.75875E-18
 -1      3737 8.70688E-05-2.18458E-05-2.79826E-05 7.40618E-06 4.53030E-19-3.23653E-19
 -1      3738 8.63958E-05-2.16716E-05-2.77298E-05 8.21013E-06 5.01203E-19 5.56744E-19
 -1      3739 1.13285E-04-4.78478E-05-2.78565E-05 1.28412E-05 1.45881E-18-1.92220E-20
 -1      3740 9.50002E-05-2.36676E-05-3.05666E-05 1.57625E-06 1.47274E-18-9.59688E-19
 -1      3741 9.50853E-05-2.40993E-05-3.04137E-05 6.65884E-07 1.34726E-18-9.50146E-19
 -1      3742 9.40681E-05-2.57076E-05-2.93014E-05 3.81618E-06-3.17331E-19-1.61564E-18
 -1      3743 9.38717E-05-2.57635E-05-2.91856E-05 4.30794E-06-2.11863E-19-1.69259E-18
 -1      3744 9.38417E-05-2.52611E-05-2.93872E-05 3.25898E-06-2.08888E-19-1.58937E-18
 -1      3745 9.35069E-05-2.57518E-05-2.90436E-05 4.79481E-06-1.27062E-19-1.79343E-18
 -1      3746 9.33237E-05-2.58005E-05-2.89312E-05 5.29840E-06-3.61918E-20-1.70049E-18
 -1      3747 9.31757E-05-2.52975E-05-2.90872E-05 4.19675E-06-2.38832E-19-1.23354E-18
 -1      3748 9.29441E-05-2.58059E-05-2.87804E-05 5.84890E-06 8.12351E-20-1.77534E-18
 -1      3749 9.28372E-05-2.59367E-05-2.86597E-05 6.39261E-06 1.67939E-19-1.73872E-18
 -1      3750 9.24251E-05-2.52658E-05-2.87808E-05 5.22653E-06-2.60556E-20-1.65224E-18
 -1      3751 9.25087E-05-2.60545E-05-2.84873E-05 7.04598E-06 2.74035E-19-1.68271E-18
 -1      3752 9.25666E-05-2.63760E-05-2.83495E-05 7.65117E-06 4.30475E-19-1.51086E-18
 -1      3753 9.17025E-05-2.53441E-05-2.84406E-05 6.43067E-06 2.41213E-19-1.73156E-18
 -1      3754 9.23843E-05-2.67229E-05-2.81455E-05 8.44549E-06 2.79793E-19-1.68409E-18
 -1      3755 9.27350E-05-2.73685E-05-2.79880E-05 9.11955E-06 2.28628E-20-1.61640E-18
 -1      3756 9.11620E-05-2.57476E-05-2.80419E-05 7.89962E-06 2.95490E-19-1.50925E-18
 -1      3757 9.28389E-05-2.80879E-05-2.77487E-05 1.00874E-05-1.81831E-20-1.06777E-18
 -1      3758 9.36675E-05-2.92203E-05-2.75817E-05 1.08065E-05 1.04310E-19-9.94210E-19
 -1      3759 9.10278E-05-2.67436E-05-2.75681E-05 9.72282E-06 3.75626E-19-1.25160E-18
 -1      3760 9.42983E-05-3.05206E-05-2.73189E-05 1.19592E-05 3.93369E-19-6.97335E-19
 -1      3761 9.58605E-05-3.23167E-05-2.71815E-05 1.26013E-05 5.36341E-19-7.47607E-19
 -1      3762 9.16451E-05-2.86686E-05-2.70199E-05 1.20038E-05 5.14562E-19-2.00452E-19
 -1      3763 9.73082E-05-3.43160E-05-2.69474E-05 1.38215E-05 4.66136E-19-6.92679E-19
 -1      3764 9.98583E-05-3.69559E-05-2.69151E-05 1.42246E-05 3.63525E-19-3.68198E-19
 -1      3765 9.36114E-05-3.19904E-05-2.64427E-05 1.47011E-05 5.85632E-19-3.12104E-19
 -1      3766 1.02702E-04-3.98273E-05-2.68186E-05 1.50016E-05 6.04279E-19-1.76078E-19
 -1      3767 1.06165E-04-4.32277E-05-2.70173E-05 1.47718E-05 1.23272E-18-1.76601E-19
 -1      3768 9.78363E-05-3.74047E-05-2.60612E-05 1.72575E-05 7.28066E-19-1.46335E-19
 -1      3769 9.30964E-05-3.82220E-05-2.36402E-05-2.49690E-05-1.97012E-18-5.98746E-19
 -1      3770 9.36897E-05-2.10965E-05-3.11268E-05 1.56779E-06 1.09536E-18-1.80601E-18
 -1      3771 9.33167E-05-2.04845E-05-3.12220E-05 1.27758E-06 7.93801E-19-2.13658E-18
 -1      3772 9.36443E-05-2.12679E-05-3.10017E-05 6.94282E-07 6.43274E-19-2.04681E-18
 -1      3773 9.42964E-05-2.23795E-05-3.08082E-05 8.94573E-07 1.04539E-18-1.51082E-18
 -1      3774 1.09653E-04-4.53452E-05-2.74975E-05-1.33691E-05-7.59550E-20-8.50519E-19
 -1      3775 9.85643E-05-3.56013E-05-2.69782E-05-1.35575E-05 5.75956E-19-4.47422E-19
 -1      3776 9.62521E-05-3.30232E-05-2.70448E-05-1.30185E-05 8.79293E-19-6.27377E-19
 -1      3777 9.49172E-05-3.11616E-05-2.72813E-05-1.17542E-05 6.91880E-19-8.36031E-19
 -1      3778 9.34791E-05-2.94761E-05-2.74191E-05-1.10464E-05 4.28369E-19-5.84681E-19
 -1      3779 9.26986E-05-3.07473E-05-2.65781E-05-1.36643E-05 9.24770E-19-8.84771E-19
 -1      3780 9.28823E-05-2.82626E-05-2.76610E-05-9.90311E-06 6.11946E-19-8.04508E-19
 -1      3781 9.20977E-05-2.72059E-05-2.78112E-05-9.15026E-06 1.05207E-18-8.41165E-19
 -1      3782 9.08849E-05-2.76730E-05-2.71201E-05-1.10474E-05 6.83991E-19-1.31930E-18
 -1      3783 9.19690E-05-2.65377E-05-2.80188E-05-8.18270E-06 1.06701E-18-6.58555E-19
 -1      3784 9.16152E-05-2.59495E-05-2.81484E-05-7.48568E-06 3.63777E-19-9.05478E-19
 -1      3785 9.02587E-05-2.58671E-05-2.76094E-05-8.81244E-06 1.09011E-18-2.02318E-18
 -1      3786 9.17432E-05-2.56470E-05-2.83109E-05-6.68918E-06-2.19075E-19-4.80135E-19
 -1      3787 9.16529E-05-2.53830E-05-2.84095E-05-6.07319E-06-1.91621E-19-6.43779E-19
 -1      3788 9.03099E-05-2.49693E-05-2.80062E-05-7.00336E-06 1.81898E-19-2.24508E-18
 -1      3789 9.19115E-05-2.53213E-05-2.85278E-05-5.42440E-06-6.12805E-19-5.40539E-19
 -1      3790 9.19703E-05-2.52681E-05-2.85954E-05-4.89088E-06-3.29353E-19-7.87603E-19
 -1      3791 9.07245E-05-2.46741E-05-2.83055E-05-5.55249E-06-1.11896E-19-2.12878E-18
 -1      3792 9.22814E-05-2.53544E-05-2.86756E-05-4.36273E-06-7.50772E-19-8.47404E-19
 -1      3793 9.24151E-05-2.54296E-05-2.87165E-05-3.90577E-06-1.25572E-18-1.12208E-18
 -1      3794 9.13079E-05-2.47580E-05-2.85173E-05-4.38932E-06-5.33483E-19-2.08059E-18
 -1      3795 9.27325E-05-2.55992E-05-2.87663E-05-3.47577E-06-1.35837E-18-8.66690E-19
 -1      3796 9.28950E-05-2.57449E-05-2.87862E-05-3.08853E-06-1.60857E-18-6.31743E-19
 -1      3797 9.19421E-05-2.50641E-05-2.86569E-05-3.45241E-06-1.22817E-18-1.17561E-18
 -1      3798 9.31915E-05-2.59524E-05-2.88131E-05-2.73945E-06-1.79714E-18-1.05511E-18
 -1      3799 9.33552E-05-2.61290E-05-2.88179E-05-2.41487E-06-1.69497E-18-1.51624E-18
 -1      3800 9.25573E-05-2.54841E-05-2.87405E-05-2.69657E-06-1.67037E-18-7.13077E-19
 -1      3801 9.36170E-05-2.63445E-05-2.88283E-05-2.13271E-06-9.11158E-19-2.05198E-18
 -1      3802 9.37669E-05-2.65266E-05-2.88229E-05-1.86388E-06-7.26302E-19-1.60715E-18
 -1      3803 9.31148E-05-2.59437E-05-2.87829E-05-2.08720E-06-1.56829E-18-2.68316E-18
 -1      3804 9.39889E-05-2.67318E-05-2.88223E-05-1.63733E-06-1.16795E-18-1.22977E-18
 -1      3805 9.41179E-05-2.69040E-05-2.88107E-05-1.41758E-06-1.91961E-18-1.23278E-18
 -1      3806 9.35968E-05-2.63957E-05-2.87963E-05-1.59748E-06-9.43622E-19-2.64980E-18
 -1      3807 9.43000E-05-2.70888E-05-2.88031E-05-1.23733E-06-2.43447E-18-2.93014E-19
 -1      3808 9.44063E-05-2.72427E-05-2.87883E-05-1.06020E-06-8.95233E-19-9.25311E-20
 -1      3809 9.39986E-05-2.68124E-05-2.87907E-05-1.20636E-06-1.76269E-18-1.02835E-19
 -1      3810 9.45514E-05-2.74024E-05-2.87768E-05-9.18265E-07 9.07287E-19 1.69438E-19
 -1      3811 9.46358E-05-2.75348E-05-2.87607E-05-7.77556E-07 1.52789E-18-1.11246E-19
 -1      3812 9.43236E-05-2.71792E-05-2.87733E-05-8.96725E-07 2.91136E-19 7.40969E-20
 -1      3813 9.47484E-05-2.76686E-05-2.87474E-05-6.67346E-07 1.00299E-18 1.70834E-19
 -1      3814 9.48132E-05-2.77788E-05-2.87315E-05-5.57305E-07 1.12562E-18 7.34354E-19
 -1      3815 9.45794E-05-2.74918E-05-2.87497E-05-6.54086E-07 1.62455E-18-3.00567E-19
 -1      3816 9.48983E-05-2.78883E-05-2.87177E-05-4.72788E-07 2.10241E-19 1.00832E-18
 -1      3817 9.49472E-05-2.79781E-05-2.87026E-05-3.87651E-07-6.31180E-19-7.60360E-23
 -1      3818 9.47753E-05-2.77507E-05-2.87233E-05-4.66696E-07 4.92301E-19-6.75634E-19
 -1      3819 9.50233E-05-2.80900E-05-2.86860E-05-3.12306E-07 8.90691E-19 3.18119E-19
 -1      3820 9.43822E-05-2.28693E-05-3.06571E-05-2.83191E-07-6.38778E-19-2.43820E-18
 -1      3821 9.46317E-05-2.36124E-05-3.04316E-05 3.57924E-07-5.29819E-19-2.45554E-18
 -1      3822 9.40577E-05-2.22936E-05-3.07551E-05-1.90602E-07-4.88977E-19-2.49680E-18
 -1      3823 9.47948E-05-2.45100E-05-3.01294E-05-1.15052E-06 1.03130E-18-1.20492E-18
 -1      3824 9.47626E-05-2.39906E-05-3.03305E-05-4.10480E-07 9.75066E-19-1.32858E-18
 -1      3825 9.51607E-05-2.82736E-05-2.86657E-05 2.59931E-07 9.70599E-19-3.35149E-18
 -1      3826 9.49915E-05-2.80494E-05-2.86905E-05 3.02788E-07 1.00267E-18-4.96920E-18
 -1      3827 9.50341E-05-2.80873E-05-2.86921E-05 3.37280E-07 1.90350E-18-4.75189E-18
 -1      3828 9.50204E-05-2.80405E-05-2.87042E-05 4.00046E-07 1.75628E-18-4.40044E-18
 -1      3829 9.48062E-05-2.36162E-05-3.05072E-05 4.05264E-07 1.15233E-18-1.07588E-18
 -1      3830 9.27379E-05-1.95740E-05-3.13606E-05-5.60585E-07-1.01024E-19-2.61073E-18
 -1      3831 9.29582E-05-1.99281E-05-3.13118E-05-9.19548E-07-2.42554E-19-2.87904E-18
 -1      3832 9.34779E-05-2.10005E-05-3.10504E-05-4.77731E-07-3.73629E-19-2.69607E-18
 -1      3833 9.46046E-05-2.51137E-05-2.97878E-05-2.33517E-06 7.41798E-19-9.94920E-19
 -1      3834 9.47416E-05-2.48839E-05-2.99384E-05-1.71308E-06 1.02068E-18-9.59150E-19
 -1      3835 9.45096E-05-2.42151E-05-3.01201E-05-1.22332E-06 8.30396E-19-1.15854E-18
 -1      3836 8.52075E-05-3.38371E-05-2.17526E-05-2.63530E-05-1.75301E-18-1.23010E-18
 -1      3837 9.47823E-05-2.50049E-05-2.99074E-05 1.79970E-06-4.92025E-19-2.04563E-18
 -1      3838 9.47111E-05-2.53101E-05-2.97451E-05 2.37294E-06-3.45718E-19-1.95068E-18
 -1      3839 9.43288E-05-2.49987E-05-2.97082E-05 2.34048E-06-3.39722E-19-1.83666E-18
 -1      3840 8.50915E-05-2.14186E-05-2.73290E-05 9.09018E-06 5.11318E-19 1.94234E-19
 -1      3841 8.44746E-05-2.15409E-05-2.69480E-05 1.01437E-05 8.19416E-19 2.51641E-19
 -1      3842 8.37437E-05-2.03684E-05-2.71226E-05 7.48339E-06 5.79938E-20 1.51318E-19
 -1      3843 8.29528E-05-2.15783E-05-2.63551E-05 1.14316E-05 2.60071E-19-5.99574E-20
 -1      3844 8.26257E-05-2.22688E-05-2.58110E-05 1.28884E-05-4.21705E-19-4.77752E-19
 -1      3845 8.09082E-05-1.99275E-05-2.60909E-05 9.42753E-06 2.09219E-19 7.82642E-19
 -1      3846 9.02273E-05-2.33896E-05-2.86621E-05 5.01841E-06 5.18358E-19 3.05763E-19
 -1      3847 8.96856E-05-2.30159E-05-2.85720E-05 5.57007E-06 1.36549E-18 2.55216E-19
 -1      3848 9.14019E-05-2.42187E-05-2.88065E-05 4.10155E-06-9.87003E-19 3.36217E-19
 -1      3849 9.09562E-05-2.38434E-05-2.87624E-05 4.57675E-06 7.44731E-20 5.91518E-19
 -1      3850 8.96962E-05-2.30363E-05-2.85501E-05 4.19336E-06 7.74010E-19 1.32110E-18
 -1      3851 9.23414E-05-2.49915E-05-2.88753E-05 3.31320E-06-1.66999E-18-2.89295E-19
 -1      3852 9.19859E-05-2.46423E-05-2.88612E-05 3.72277E-06-1.63377E-18-2.27867E-19
 -1      3853 9.09919E-05-2.39518E-05-2.87172E-05 3.44826E-06-9.64125E-19 8.77622E-19
 -1      3854 9.30806E-05-2.56793E-05-2.88952E-05 2.63853E-06-5.93718E-19-4.33913E-19
 -1      3855 9.28036E-05-2.53694E-05-2.88996E-05 2.98809E-06-1.36976E-18-7.40449E-19
 -1      3856 9.20243E-05-2.47860E-05-2.88055E-05 2.80025E-06-1.12715E-18-1.21748E-18
 -1      3857 9.36535E-05-2.62715E-05-2.88852E-05 2.06811E-06 7.71552E-20-2.23801E-19
 -1      3858 9.34416E-05-2.60054E-05-2.89001E-05 2.36219E-06 3.27383E-19 3.14003E-19
 -1      3859 9.28368E-05-2.55200E-05-2.88418E-05 2.23989E-06-5.88973E-19-7.06134E-19
 -1      3860 9.40916E-05-2.67688E-05-2.88583E-05 1.59313E-06 2.92398E-19-3.65529E-19
 -1      3861 9.39321E-05-2.65460E-05-2.88784E-05 1.83655E-06-6.28584E-20-8.32181E-19
 -1      3862 9.34681E-05-2.61484E-05-2.88451E-05 1.76169E-06 5.45460E-19 2.28587E-19
 -1      3863 9.44221E-05-2.71783E-05-2.88233E-05 1.20429E-06-5.92122E-19-7.96745E-19
 -1      3864 9.43038E-05-2.69954E-05-2.88451E-05 1.40234E-06-3.09154E-19-1.19975E-18
 -1      3865 9.39528E-05-2.66748E-05-2.88288E-05 1.36048E-06-5.53265E-20-8.86196E-19
 -1      3866 9.46680E-05-2.75097E-05-2.87857E-05 8.91402E-07 1.73345E-19-1.20224E-18
 -1      3867 9.45817E-05-2.73620E-05-2.88071E-05 1.04985E-06 3.44128E-19-6.02857E-19
 -1      3868 9.43201E-05-2.71075E-05-2.88020E-05 1.03016E-06 2.03243E-19-1.67372E-18
 -1      3869 9.48482E-05-2.77735E-05-2.87488E-05 6.44448E-07-3.74391E-19-2.05601E-18
 -1      3870 9.47860E-05-2.76559E-05-2.87687E-05 7.68570E-07-2.08624E-19-1.52096E-18
 -1      3871 9.45946E-05-2.74576E-05-2.87706E-05 7.63319E-07 5.82553E-20-1.06366E-18
 -1      3872 9.49668E-05-2.79637E-05-2.87171E-05 4.67094E-07 1.25317E-18-3.90652E-18
 -1      3873 9.49222E-05-2.78711E-05-2.87349E-05 5.61943E-07 4.49218E-19-3.04161E-18
 -1      3874 9.47812E-05-2.77160E-05-2.87407E-05 5.64214E-07 7.35321E-19-3.49315E-18
 -1      3875 9.49071E-05-2.79055E-05-2.87143E-05 4.19409E-07 1.72723E-18-6.35182E-18
 -1      3876 8.81948E-05-3.12796E-05-2.42704E-05 2.09283E-05-1.10937E-18 4.43898E-19
 -1      3877 8.28016E-05-2.91997E-05-2.28715E-05 2.23421E-05-1.01595E-18 7.41127E-19
 -1      3878 7.82653E-05-2.51267E-05-2.27960E-05 1.97722E-05-5.71155E-19 5.26570E-19
 -1      3879 8.54490E-05-2.78935E-05-2.45984E-05 1.92019E-05-7.32864E-19-7.26959E-20
 -1      3880 9.49787E-05-2.80850E-05-2.86698E-05 1.21697E-07 1.66028E-18 1.46092E-18
 -1      3881 9.50042E-05-2.81092E-05-2.86693E-05 1.57978E-07 3.31212E-19-1.45816E-18
 -1      3882 9.49820E-05-2.80588E-05-2.86801E-05 2.10601E-07 8.23886E-19-1.02657E-18
 -1      3883 9.49205E-05-2.79966E-05-2.86802E-05 1.13270E-07 2.06633E-18 1.72459E-18
 -1      3884 1.06684E-04-4.31321E-05-2.71802E-05-1.41306E-05-1.95729E-19-9.47373E-19
 -1      3885 6.35809E-05-1.42439E-05-2.09308E-05 2.41748E-06 7.16075E-19-5.23837E-20
 -1      3886 6.38639E-05-1.45962E-05-2.11563E-05-2.29957E-06 1.02828E-18 1.17129E-19
 -1      3887 9.46455E-05-2.35361E-05-3.04754E-05-4.24300E-08 9.75898E-19-1.32577E-18
 -1      3888 9.44833E-05-2.29850E-05-3.06482E-05 5.01402E-07 1.04395E-18-1.43329E-18
 -1      3889 9.41268E-05-2.23423E-05-3.07656E-05 4.59023E-07 8.79675E-19-1.52112E-18
 -1      3890 9.44316E-05-2.33390E-05-3.04634E-05-2.78729E-07 9.41339E-19-1.31647E-18
 -1      3891 6.71760E-05-1.72215E-05-2.11526E-05-1.18276E-05-6.42101E-19-2.24400E-18
 -1      3892 7.33436E-05-2.17220E-05-2.21686E-05-1.73395E-05-1.21828E-18-1.42730E-18
 -1      3893 8.16287E-05-2.75310E-05-2.29366E-05-2.05220E-05 6.15110E-19-2.87439E-18
 -1      3894 8.94502E-05-3.30020E-05-2.42471E-05-2.03557E-05 6.59690E-19-1.84542E-18
 -1      3895 8.87871E-05-2.25622E-05-2.84045E-05 6.09654E-06 1.55885E-18-3.16527E-19
 -1      3896 8.81595E-05-2.22430E-05-2.82469E-05 6.74929E-06 9.10051E-19-3.14002E-19
 -1      3897 8.61208E-05-2.11490E-05-2.78147E-05 6.11380E-06 1.08399E-18 2.19524E-19
 -1      3898 8.80887E-05-2.20779E-05-2.82667E-05 5.06090E-06 7.25781E-19 2.61746E-19
 -1      3899 8.25382E-05-2.95477E-05-2.25093E-05-2.27990E-05-2.07547E-18-1.23488E-18
 -1      3900 8.54307E-05-2.20575E-05-2.71479E-05-1.02846E-05-3.01246E-19-6.33793E-19
 -1      3901 8.61495E-05-2.20548E-05-2.75066E-05-9.35643E-06-5.94172E-20-4.29842E-19
 -1      3902 9.25405E-05-1.93092E-05-3.13956E-05-9.78666E-09 1.71775E-19-2.33074E-18
 -1      3903 9.26171E-05-1.94283E-05-3.13799E-05-3.72192E-07-4.01663E-21-2.52128E-18
 -1      3904 9.31510E-05-2.04967E-05-3.11240E-05-1.89319E-07-8.94615E-20-2.42639E-18
 -1      3905 9.30899E-05-2.03737E-05-3.11399E-05 1.08645E-07 1.90838E-19-2.29243E-18
 -1      3906 1.07256E-04-4.55956E-05-2.65498E-05 1.73962E-05 1.29262E-18 1.03325E-19
 -1      3907 9.89410E-05-4.09612E-05-2.45479E-05 2.26086E-05 9.04631E-19-3.04067E-19
 -1      3908 1.03089E-04-3.99848E-05-2.69743E-05-1.44144E-05 2.80242E-19-8.89045E-19
 -1      3909 9.47405E-05-2.41500E-05-3.02582E-05 7.67708E-07-3.43754E-19-2.32960E-18
 -1      3910 9.48009E-05-2.46707E-05-3.00561E-05 1.42079E-06-4.15584E-19-2.16739E-18
 -1      3911 9.45179E-05-2.44387E-05-3.00302E-05 1.48398E-06-3.27596E-19-1.98382E-18
 -1      3912 9.44447E-05-2.36171E-05-3.03531E-05 6.92192E-07-3.80142E-19-2.31136E-18
 -1      3913 8.10359E-05-2.62380E-05-2.33684E-05-1.99504E-05-1.84450E-18-1.25506E-18
 -1      3914 7.99092E-05-2.36581E-05-2.40130E-05-1.65361E-05-1.21727E-18-9.82158E-19
 -1      3915 9.49391E-05-2.79865E-05-2.86932E-05-3.09587E-07 6.93026E-19 1.37117E-19
 -1      3916 9.40877E-05-2.52263E-05-2.95152E-05-3.36475E-06 5.81459E-19-9.12544E-19
 -1      3917 9.43471E-05-2.52108E-05-2.96321E-05-2.82166E-06 7.36732E-19-9.05159E-19
 -1      3918 9.41932E-05-2.47227E-05-2.97647E-05-2.25480E-06 6.53361E-19-9.93649E-19
 -1      3919 9.08860E-05-2.37464E-05-2.87732E-05-6.18886E-06 2.65348E-19-1.03010E-18
 -1      3920 9.14611E-05-2.40714E-05-2.88955E-05-5.65908E-06 5.41048E-19-1.02522E-18
 -1      3921 7.76078E-05-2.01548E-05-2.45771E-05 1.24308E-05-3.70694E-19 2.36515E-19
 -1      3922 8.09759E-05-2.28223E-05-2.49443E-05 1.49207E-05-3.76518E-19-6.69963E-19
 -1      3923 7.83165E-05-2.41393E-05-2.31785E-05-1.65490E-05 9.64294E-19-2.27092E-18
 -1      3924 8.22733E-05-2.84828E-05-2.31472E-05 2.03905E-05 8.98614E-19-4.37625E-19
 -1      3925 7.80183E-05-2.52485E-05-2.24007E-05 1.92444E-05 8.29449E-19-1.13109E-18
 -1      3926 8.34083E-05-2.24735E-05-2.61083E-05-1.25980E-05-6.14079E-19-8.94065E-19
 -1      3927 8.39467E-05-2.19844E-05-2.65962E-05-1.13291E-05-4.25087E-19-9.09561E-19
 -1      3928 8.23934E-05-2.06397E-05-2.63703E-05-9.58098E-06-2.89599E-19-4.47273E-19
 -1      3929 6.68128E-05-1.64865E-05-2.16572E-05-7.33718E-06-1.67858E-19-2.20244E-18
 -1      3930 9.80812E-05-3.71026E-05-2.61986E-05-1.63036E-05 5.47342E-19-1.50663E-18
 -1      3931 9.39141E-05-2.54431E-05-2.93391E-05-4.53981E-06 3.52961E-19-1.04894E-18
 -1      3932 6.50324E-05-1.61288E-05-2.08731E-05 6.73254E-06 6.59640E-19-2.35660E-18
 -1      3933 8.74580E-05-2.23543E-05-2.78922E-05-8.57641E-06-4.40929E-20-6.43474E-19
 -1      3934 8.81699E-05-2.25749E-05-2.81391E-05-7.85790E-06 4.24976E-20-6.06152E-19
 -1      3935 8.50434E-05-2.11569E-05-2.73448E-05-7.79687E-06-1.51160E-19-5.99804E-19
 -1      3936 9.49359E-05-2.79927E-05-2.86903E-05 2.51441E-07 9.02260E-19-6.97329E-19
 -1      3937 9.49001E-05-2.79311E-05-2.87010E-05 3.02289E-07 1.58849E-18-1.61477E-18
 -1      3938 9.48961E-05-2.79546E-05-2.86904E-05 2.07270E-07 1.67935E-18 2.90207E-18
 -1      3939 9.48260E-05-2.78853E-05-2.86896E-05-3.41779E-08 7.85904E-19-8.92679E-19
 -1      3940 9.48255E-05-2.78840E-05-2.86900E-05 2.84567E-08 7.82512E-19 1.41661E-19
 -1      3941 9.11666E-05-2.37431E-05-2.88800E-05-4.76938E-06 4.16576E-19-1.06165E-18
 -1      3942 9.22195E-05-2.44451E-05-2.90466E-05-5.22647E-06 4.49037E-19-9.60140E-19
 -1      3943 9.26922E-05-2.47051E-05-2.91471E-05-4.72639E-06 3.69036E-19-1.02684E-18
 -1      3944 9.35421E-05-2.15550E-05-3.08604E-05 2.51105E-07 3.71844E-19-2.16565E-18
 -1      3945 9.34072E-05-2.13437E-05-3.08932E-05 1.46446E-07 1.83757E-19-2.19781E-18
 -1      3946 6.69232E-05-1.56640E-05-2.19288E-05 5.80503E-06 1.13425E-18 3.88179E-19
 -1      3947 7.46798E-05-2.22421E-05-2.24949E-05 1.56155E-05 7.08894E-19-1.83118E-18
 -1      3948 6.96277E-05-1.59652E-05-2.29876E-05-2.75943E-06 1.31850E-18-3.79931E-19
 -1      3949 6.69518E-05-1.56855E-05-2.18317E-05-6.10785E-06 1.05152E-18-4.74345E-19
 -1      3950 7.09364E-05-1.79106E-05-2.28557E-05-9.72008E-06 1.22622E-18-1.74080E-18
 -1      3951 9.33425E-05-3.64082E-05-2.43101E-05 2.13364E-05 1.01959E-18-3.36868E-19
 -1      3952 9.39309E-05-2.21031E-05-3.07917E-05 3.79108E-07 7.11368E-19-1.91339E-18
 -1      3953 9.36662E-05-2.16717E-05-3.08615E-05 2.88075E-07 5.66436E-19-2.10355E-18
 -1      3954 9.38325E-05-2.22699E-05-3.06571E-05-1.03115E-08 5.00199E-19-1.98585E-18
 -1      3955 9.41275E-05-2.26346E-05-3.06338E-05 3.94251E-08 8.47633E-19-1.70820E-18
 -1      3956 7.99351E-05-2.21669E-05-2.47750E-05-1.45535E-05-7.73633E-19-9.40091E-19
 -1      3957 9.48606E-05-2.79209E-05-2.86889E-05-1.59283E-07 1.37422E-18-4.57502E-19
 -1      3958 9.48389E-05-2.79005E-05-2.86893E-05-1.06430E-07 1.13249E-18-8.34934E-19
 -1      3959 9.47650E-05-2.77945E-05-2.86997E-05-8.12499E-08 1.51133E-19-6.26617E-19
 -1      3960 8.19767E-05-2.47073E-05-2.44738E-05 1.68054E-05-7.70234E-19-1.81894E-19
 -1      3961 8.99543E-05-2.33163E-05-2.85788E-05-6.67282E-06 3.26447E-21-9.47209E-19
 -1      3962 8.94978E-05-2.29112E-05-2.85162E-05-5.60779E-06 1.92605E-19-1.03544E-18
 -1      3963 8.92912E-05-2.29952E-05-2.84091E-05-7.26945E-06-1.14415E-19-8.06635E-19
 -1      3964 7.56155E-05-2.06987E-05-2.33970E-05-1.32633E-05 1.01337E-18-2.16888E-18
 -1      3965 8.24152E-05-2.55684E-05-2.44194E-05-1.56804E-05 6.97260E-19-2.38257E-18
 -1      3966 9.06624E-05-3.30043E-05-2.45723E-05 1.95387E-05 1.01024E-18-6.65432E-19
 -1      3967 8.85127E-05-3.02659E-05-2.49563E-05 1.72326E-05 6.12828E-19-5.16640E-19
 -1      3968 9.28736E-05-2.49021E-05-2.91391E-05 3.42863E-06-2.32078E-19-1.65504E-18
 -1      3969 9.25066E-05-2.48665E-05-2.89850E-05 3.89927E-06-2.03642E-19-1.70164E-18
 -1      3970 9.19333E-05-2.47562E-05-2.88015E-05 4.36900E-06-1.13977E-19-1.62403E-18
 -1      3971 9.15493E-05-2.47142E-05-2.86359E-05 4.90443E-06-5.67467E-21-1.55157E-18
 -1      3972 9.16796E-05-2.43392E-05-2.88512E-05 3.57175E-06-1.26881E-19-1.54506E-18
 -1      3973 9.09111E-05-2.46173E-05-2.84261E-05 5.49555E-06 9.67106E-20-1.61914E-18
 -1      3974 9.05757E-05-2.46623E-05-2.82351E-05 6.14093E-06 3.40355E-19-1.51766E-18
 -1      3975 9.04651E-05-2.40714E-05-2.84468E-05 4.59398E-06-9.92323E-20-1.02147E-18
 -1      3976 8.99214E-05-2.46727E-05-2.79811E-05 6.91307E-06 5.26043E-19-1.45853E-18
 -1      3977 8.97288E-05-2.49225E-05-2.77525E-05 7.71960E-06 3.79376E-19-1.36885E-18
 -1      3978 8.91670E-05-2.38909E-05-2.79681E-05 5.91976E-06 3.18147E-19-1.53417E-18
 -1      3979 8.91267E-05-2.51570E-05-2.74370E-05 8.74813E-06 6.31298E-19-1.03898E-18
 -1      3980 8.92026E-05-2.57516E-05-2.71637E-05 9.77131E-06 8.06447E-19-4.99119E-19
 -1      3981 8.78864E-05-2.39940E-05-2.73772E-05 7.69726E-06 9.67681E-19-9.14898E-19
 -1      3982 8.87785E-05-2.63662E-05-2.67703E-05 1.11292E-05 6.66324E-19-3.63917E-19
 -1      3983 8.93075E-05-2.75140E-05-2.64537E-05 1.24566E-05 5.59986E-19 1.12778E-20
 -1      3984 8.68311E-05-2.46818E-05-2.66338E-05 1.01350E-05 9.07064E-19-6.68375E-19
 -1      3985 8.82372E-05-2.78161E-05-2.59291E-05 1.38211E-05 3.16823E-19-1.93304E-19
 -1      3986 8.95208E-05-2.98023E-05-2.55946E-05 1.54552E-05 2.47934E-19-5.69764E-19
 -1      3987 8.26364E-05-2.53815E-05-2.44003E-05 1.58189E-05 2.61217E-19-7.67227E-19
 -1      3988 8.54182E-05-2.53421E-05-2.56846E-05 1.27972E-05 3.35119E-19-7.08477E-19
 -1      3989 8.86290E-05-2.65274E-05-2.65773E-05-1.15390E-05 6.18686E-19-1.11181E-18
 -1      3990 8.81016E-05-2.54547E-05-2.68711E-05-1.02754E-05 8.16864E-19-1.29198E-18
 -1      3991 8.84733E-05-2.48856E-05-2.72234E-05-8.91882E-06 9.64574E-19-1.42582E-18
 -1      3992 8.83632E-05-2.43367E-05-2.74611E-05-7.93198E-06 5.08140E-19-1.51623E-18
 -1      3993 8.61532E-05-2.37799E-05-2.67213E-05-9.27690E-06 7.03655E-19-2.18856E-18
 -1      3994 8.88747E-05-2.41302E-05-2.77294E-05-6.91617E-06 2.51368E-19-1.85739E-18
 -1      3995 8.90161E-05-2.39288E-05-2.79128E-05-6.13584E-06-3.16055E-20-1.97362E-18
 -1      3996 8.70950E-05-2.31921E-05-2.73729E-05-6.95932E-06 1.39437E-19-2.82238E-18
 -1      3997 8.95703E-05-2.39567E-05-2.81093E-05-5.37418E-06 3.89593E-20-2.24771E-18
 -1      3998 8.98374E-05-2.39757E-05-2.82424E-05-4.75634E-06 3.13958E-19-1.86549E-18
 -1      3999 8.81884E-05-2.31593E-05-2.78567E-05-5.24861E-06 1.11546E-19-2.45728E-18
 -1      4000 9.03817E-05-2.41455E-05-2.83806E-05-4.17935E-06-2.39832E-19-1.88113E-18
 -1      4001 9.06980E-05-2.42953E-05-2.84717E-05-3.68644E-06-7.69687E-19-2.07268E-18
 -1      4002 8.92959E-05-2.34593E-05-2.82037E-05-3.98169E-06-1.92443E-19-1.89548E-18
 -1      4003 9.12024E-05-2.45436E-05-2.85643E-05-3.24497E-06-9.81777E-19-1.52639E-18
 -1      4004 9.15237E-05-2.47642E-05-2.86221E-05-2.84963E-06-1.13241E-18-1.04474E-18
 -1      4005 9.03474E-05-2.39562E-05-2.84428E-05-3.02385E-06-6.79842E-19-2.40338E-18
 -1      4006 9.19707E-05-2.50455E-05-2.86802E-05-2.51051E-06-1.91260E-18-3.47659E-19
 -1      4007 9.22703E-05-2.52943E-05-2.87129E-05-2.19245E-06-1.66856E-18-6.96359E-19
 -1      4008 9.12984E-05-2.45465E-05-2.85990E-05-2.29742E-06-1.26026E-18-1.49605E-18
 -1      4009 9.26539E-05-2.55781E-05-2.87457E-05-1.93026E-06-1.62197E-18-9.53312E-19
 -1      4010 9.29184E-05-2.58273E-05-2.87604E-05-1.67440E-06-1.65583E-18-1.32259E-18
 -1      4011 9.21270E-05-2.51575E-05-2.86937E-05-1.74112E-06-1.74784E-18-1.46844E-18
 -1      4012 9.32389E-05-2.60947E-05-2.87756E-05-1.47119E-06-9.94171E-19-1.59379E-18
 -1      4013 9.34631E-05-2.63278E-05-2.87780E-05-1.26607E-06-1.06872E-18-1.59063E-18
 -1      4014 9.28287E-05-2.57442E-05-2.87444E-05-1.31229E-06-1.59878E-18-1.59336E-18
 -1      4015 9.37245E-05-2.65679E-05-2.87811E-05-1.10874E-06-9.40089E-19-4.77353E-19
 -1      4016 9.39086E-05-2.67757E-05-2.87757E-05-9.45369E-07-1.05650E-18 6.96211E-19
 -1      4017 9.34083E-05-2.62797E-05-2.87645E-05-9.80829E-07-5.68486E-19-8.08587E-19
 -1      4018 9.41171E-05-2.69839E-05-2.87712E-05-8.24129E-07-1.02234E-18 9.51573E-19
 -1      4019 9.42643E-05-2.71626E-05-2.87612E-05-6.95351E-07 6.44333E-19 9.73295E-19
 -1      4020 9.38763E-05-2.67502E-05-2.87644E-05-7.25158E-07-6.64767E-19 2.90688E-19
 -1      4021 9.44260E-05-2.73375E-05-2.87522E-05-6.02759E-07 1.69881E-18 6.85153E-19
 -1      4022 9.45404E-05-2.74870E-05-2.87399E-05-5.02228E-07 1.89421E-18 8.91945E-19
 -1      4023 9.42464E-05-2.71516E-05-2.87518E-05-5.28352E-07 9.63517E-19 1.28488E-18
 -1      4024 9.46639E-05-2.76298E-05-2.87286E-05-4.31337E-07 4.28450E-19 4.04729E-19
 -1      4025 9.47494E-05-2.77510E-05-2.87153E-05-3.53710E-07 5.12251E-20 1.06869E-18
 -1      4026 9.45297E-05-2.74842E-05-2.87321E-05-3.78168E-07 8.03142E-19 9.33161E-19
 -1      4027 9.38048E-05-2.19237E-05-3.08159E-05-1.84208E-07-4.50824E-19-2.59047E-18
 -1      4028 9.40969E-05-2.27029E-05-3.05875E-05 2.71915E-07-3.54705E-19-2.43502E-18
 -1      4029 9.35786E-05-2.15510E-05-3.08705E-05-7.18991E-08-2.86786E-19-2.48319E-18
 -1      4030 9.18023E-05-2.47221E-05-2.87581E-05 2.18350E-06-7.45672E-19-1.38173E-18
 -1      4031 9.13382E-05-2.43205E-05-2.87256E-05 2.45449E-06-1.39413E-19-5.47759E-19
 -1      4032 8.27883E-05-1.97583E-05-2.70528E-05 5.38198E-06-5.78497E-20-8.62708E-19
 -1      4033 8.14559E-05-1.93546E-05-2.66200E-05 6.04171E-06-2.26642E-19-8.58302E-19
 -1      4034 7.94078E-05-1.88301E-05-2.60193E-05 6.63124E-06 4.92176E-19-2.18515E-19
 -1      4035 7.78426E-05-1.85911E-05-2.53759E-05 7.61359E-06 4.00864E-19-3.21199E-19
 -1      4036 7.89559E-05-1.81650E-05-2.59919E-05 4.29545E-06 4.15767E-19-1.27816E-18
 -1      4037 9.07089E-05-2.38600E-05-2.86613E-05 2.66668E-06-4.57057E-20 1.18706E-19
 -1      4038 9.01221E-05-2.34109E-05-2.85958E-05 2.97316E-06-2.42951E-19 1.35913E-18
 -1      4039 9.06036E-05-2.37905E-05-2.86193E-05 2.01077E-06 4.20535E-19 1.96408E-19
 -1      4040 8.93340E-05-2.29004E-05-2.84864E-05 3.20628E-06 2.46392E-20 1.29007E-18
 -1      4041 8.86007E-05-2.24156E-05-2.83720E-05 3.55197E-06 8.20888E-19 1.00328E-18
 -1      4042 8.92061E-05-2.28036E-05-2.84389E-05 2.37582E-06 4.16951E-19 1.07102E-18
 -1      4043 9.26630E-05-2.54744E-05-2.88028E-05 1.75670E-06-4.19631E-19-1.00265E-18
 -1      4044 9.23006E-05-2.51256E-05-2.87917E-05 1.99315E-06-1.11500E-18-1.69746E-18
 -1      4045 9.17159E-05-2.46703E-05-2.87224E-05 1.66921E-06-3.32711E-19-1.36797E-18
 -1      4046 9.33337E-05-2.61158E-05-2.88139E-05 1.38666E-06 7.52539E-20 2.52863E-19
 -1      4047 9.30541E-05-2.58198E-05-2.88161E-05 1.58920E-06-3.04539E-19 9.67145E-20
 -1      4048 9.25935E-05-2.54352E-05-2.87734E-05 1.35671E-06-7.96629E-19-1.23247E-18
 -1      4049 9.38506E-05-2.66521E-05-2.88043E-05 1.07265E-06 6.10348E-19-4.41789E-19
 -1      4050 9.36375E-05-2.64057E-05-2.88144E-05 1.24265E-06 8.25794E-19 1.36625E-19
 -1      4051 9.32792E-05-2.60863E-05-2.87903E-05 1.07884E-06 2.28678E-19 5.10076E-20
 -1      4052 9.42443E-05-2.70927E-05-2.87832E-05 8.12220E-07-5.28174E-19 1.16465E-19
 -1      4053 9.40839E-05-2.68911E-05-2.87972E-05 9.51897E-07 3.16844E-19-1.37466E-19
 -1      4054 9.38092E-05-2.66307E-05-2.87858E-05 8.38572E-07 3.00888E-19 1.93574E-18
 -1      4055 9.45392E-05-2.74479E-05-2.87563E-05 6.01370E-07 7.12029E-19-7.31486E-19
 -1      4056 9.44207E-05-2.72859E-05-2.87719E-05 7.13545E-07-1.71321E-19-4.83432E-19
 -1      4057 9.42141E-05-2.70781E-05-2.87689E-05 6.37977E-07-4.53048E-19 1.12337E-18
 -1      4058 9.48394E-05-2.78986E-05-2.86900E-05 9.23878E-08 1.39359E-18 1.04897E-18
 -1      4059 9.48608E-05-2.79180E-05-2.86903E-05 1.50522E-07 1.56590E-18 2.58157E-18
 -1      4060 9.48115E-05-2.78428E-05-2.87001E-05 1.88928E-07 1.48425E-18 2.98517E-18
 -1      4061 9.47671E-05-2.77949E-05-2.87000E-05 6.24919E-08 6.43606E-19-1.62632E-19
 -1      4062 7.79379E-05-2.26689E-05-2.37332E-05 1.38204E-05 5.68050E-19-1.41908E-18
 -1      4063 7.25399E-05-1.91906E-05-2.26773E-05 1.16264E-05 5.66801E-19-2.40972E-18
 -1      4064 7.70025E-05-1.96537E-05-2.44348E-05-1.20365E-05-4.95020E-19-7.03001E-19
 -1      4065 9.00959E-05-3.09831E-05-2.53713E-05-1.67584E-05 1.18728E-18-1.50207E-18
 -1      4066 9.42724E-05-3.49429E-05-2.53196E-05-1.83738E-05 9.78622E-19-1.13413E-18
 -1      4067 9.48935E-05-2.79434E-05-2.86937E-05-2.65746E-07 1.57143E-18 1.57338E-19
 -1      4068 9.36864E-05-2.20738E-05-3.06709E-05 3.56419E-08 8.82329E-20-2.14478E-18
 -1      4069 9.33453E-05-2.12564E-05-3.09073E-05 1.51548E-07 1.34030E-19-2.28864E-18
 -1      4070 9.33436E-05-2.12307E-05-3.09120E-05 4.67805E-08 9.81575E-20-2.27035E-18
 -1      4071 6.88288E-05-1.70071E-05-2.22963E-05 7.05561E-06 5.27351E-19-2.12183E-18
 -1      4072 6.68965E-05-1.49966E-05-2.19634E-05 5.45631E-07 6.43394E-19-2.60570E-18
 -1      4073 7.28704E-05-1.80815E-05-2.35490E-05 6.24439E-06 4.03744E-19-2.22207E-18
 -1      4074 7.05660E-05-1.70670E-05-2.29696E-05-5.68007E-06 5.01602E-21-1.86135E-18
 -1      4075 9.36438E-05-2.48960E-05-2.94697E-05 2.58628E-06-9.50610E-20-1.89906E-18
 -1      4076 9.33439E-05-2.49463E-05-2.93129E-05 3.03056E-06-1.33074E-19-1.74027E-18
 -1      4077 9.27225E-05-2.45299E-05-2.92168E-05 2.73445E-06-8.31421E-20-1.95827E-18
 -1      4078 9.32862E-05-2.49695E-05-2.92802E-05-4.30499E-06 2.81181E-19-9.93385E-19
 -1      4079 9.36557E-05-2.51171E-05-2.93796E-05-3.80086E-06 3.15823E-19-9.80537E-19
 -1      4080 9.35140E-05-2.47471E-05-2.94621E-05-3.15140E-06 5.31641E-19-5.96469E-19
 -1      4081 9.24997E-05-2.43858E-05-2.91800E-05-3.97439E-06 3.95625E-19-7.23087E-19
 -1      4082 7.51943E-05-2.19319E-05-2.27255E-05 1.70268E-05-2.64208E-19 2.53878E-19
 -1      4083 7.12393E-05-1.87020E-05-2.25773E-05 1.27452E-05 1.30900E-19 6.08461E-19
 -1      4084 9.41562E-05-2.45810E-05-2.98230E-05 1.77245E-06-2.83463E-19-2.01117E-18
 -1      4085 9.39719E-05-2.47959E-05-2.96488E-05 2.21950E-06-1.92871E-19-1.93062E-18
 -1      4086 9.35186E-05-2.44874E-05-2.95761E-05 2.00429E-06-1.01688E-19-2.00757E-18
 -1      4087 7.40887E-05-1.85787E-05-2.37391E-05 1.06134E-05-5.46062E-19 1.04450E-19
 -1      4088 7.01791E-05-1.67895E-05-2.27523E-05 8.94145E-06 1.79378E-19 1.11423E-18
 -1      4089 6.97528E-05-1.59895E-05-2.31280E-05 4.34358E-06 6.31064E-19-3.53802E-19
 -1      4090 7.58087E-05-1.84532E-05-2.46669E-05 9.01004E-06-3.57900E-19 1.53922E-19
 -1      4091 8.61900E-05-2.75294E-05-2.50799E-05-1.57511E-05 8.31927E-19-2.66064E-18
 -1      4092 9.01451E-05-2.93678E-05-2.60147E-05-1.42816E-05 1.43773E-18-1.97184E-18
 -1      4093 8.88549E-05-2.75474E-05-2.63082E-05-1.28408E-05 1.15340E-18-1.25060E-18
 -1      4094 8.28203E-05-2.42331E-05-2.51728E-05-1.31181E-05 7.34885E-19-2.64244E-18
 -1      4095 9.48094E-05-2.78302E-05-2.87044E-05-2.71598E-07 7.00449E-19 7.72077E-19
 -1      4096 7.87190E-05-2.35185E-05-2.36522E-05 1.70941E-05-3.56783E-19 3.81707E-19
 -1      4097 7.58789E-05-1.96501E-05-2.40405E-05-9.80350E-06 7.88465E-19-2.49612E-18
 -1      4098 8.82902E-05-2.22930E-05-2.82918E-05-4.68820E-06 2.32052E-19-7.77045E-19
 -1      4099 8.92275E-05-2.27504E-05-2.85068E-05-4.31130E-06 3.79694E-19-8.67467E-19
 -1      4100 8.59671E-05-2.51716E-05-2.60506E-05-1.19875E-05 1.00813E-18-1.90550E-18
 -1      4101 7.97054E-05-2.27468E-05-2.44874E-05 1.24983E-05 3.36591E-19-1.58495E-18
 -1      4102 7.27790E-05-1.66022E-05-2.40696E-05 3.54194E-06 2.01852E-19-4.23849E-19
 -1      4103 7.05244E-05-1.56451E-05-2.33810E-05 5.46777E-07 9.10648E-19 2.12086E-19
 -1      4104 7.23349E-05-1.66959E-05-2.39132E-05-2.85882E-06 6.19413E-19-1.64351E-19
 -1      4105 8.43628E-05-2.03197E-05-2.74560E-05 4.99741E-06 2.76210E-19-9.16195E-19
 -1      4106 8.25213E-05-1.93895E-05-2.70107E-05 3.64169E-06 4.86692E-20-2.22963E-18
 -1      4107 8.54700E-05-2.07976E-05-2.77439E-05 4.50881E-06 6.05151E-19-2.99328E-19
 -1      4108 7.90228E-05-1.92765E-05-2.56846E-05-7.94437E-06-4.24986E-19-7.97632E-19
 -1      4109 8.08048E-05-1.95956E-05-2.63077E-05-6.78270E-06-3.82815E-19-6.24801E-19
 -1      4110 8.29427E-05-2.02333E-05-2.68856E-05-6.33291E-06-3.36400E-19-7.73660E-19
 -1      4111 8.42921E-05-2.06645E-05-2.73057E-05-5.72666E-06-2.79991E-19-8.35654E-19
 -1      4112 8.06089E-05-1.91050E-05-2.63067E-05-4.49180E-06-4.05682E-19-9.68335E-19
 -1      4113 9.38256E-05-2.45090E-05-2.97153E-05-2.09610E-06 5.36778E-19-1.05731E-18
 -1      4114 9.40954E-05-2.43703E-05-2.98809E-05-1.63150E-06 5.08209E-19-1.24224E-18
 -1      4115 9.39665E-05-2.28938E-05-3.04618E-05 4.65238E-07-1.62117E-19-2.24185E-18
 -1      4116 9.41887E-05-2.32561E-05-3.04082E-05 5.31851E-07-2.72666E-19-2.41772E-18
 -1      4117 9.42790E-05-2.37162E-05-3.02365E-05 9.21731E-07-2.32660E-19-2.37444E-18
 -1      4118 9.34696E-05-2.14017E-05-3.08918E-05 2.83979E-08-1.47340E-19-2.26886E-18
 -1      4119 9.02467E-05-2.32314E-05-2.87268E-05-4.06744E-06 4.79696E-19-7.52580E-19
 -1      4120 9.09993E-05-2.36115E-05-2.88952E-05-3.71585E-06 5.80688E-19-5.16157E-19
 -1      4121 8.92511E-05-2.26269E-05-2.85266E-05-3.19146E-06 5.18586E-19-6.49289E-19
 -1      4122 7.49110E-05-1.72305E-05-2.46390E-05 5.89614E-06 1.24125E-19-1.43124E-18
 -1      4123 9.42723E-05-2.40504E-05-3.00998E-05 1.15661E-06-1.63051E-19-2.30533E-18
 -1      4124 9.42475E-05-2.43662E-05-2.99485E-05 1.52600E-06-2.19437E-19-2.20087E-18
 -1      4125 9.39219E-05-2.41727E-05-2.98853E-05 1.40509E-06-8.21134E-20-2.39210E-18
 -1      4126 9.40385E-05-2.36875E-05-3.01478E-05 9.38637E-07-8.35186E-20-2.45448E-18
 -1      4127 9.46511E-05-2.75779E-05-2.87452E-05 5.33593E-07 1.59581E-18-1.38753E-18
 -1      4128 9.44963E-05-2.74136E-05-2.87473E-05 4.82758E-07 1.40148E-18-7.44450E-19
 -1      4129 9.47238E-05-2.76876E-05-2.87319E-05 4.53848E-07 1.98775E-18-2.41392E-18
 -1      4130 9.46620E-05-2.76759E-05-2.87098E-05 4.25388E-08 2.77249E-19-8.61267E-19
 -1      4131 9.46778E-05-2.76900E-05-2.87098E-05 1.09865E-07 7.15447E-19 7.55587E-19
 -1      4132 9.48446E-05-2.78466E-05-2.87134E-05 3.61160E-07 1.55957E-18-1.47049E-18
 -1      4133 9.42388E-05-2.31087E-05-3.04903E-05-3.08695E-07 8.37734E-19-1.63265E-18
 -1      4134 8.76150E-05-2.18663E-05-2.81976E-05 3.80792E-06 2.44140E-19 6.27187E-19
 -1      4135 8.67069E-05-2.13645E-05-2.80122E-05 4.20712E-06 4.45744E-19 1.23257E-19
 -1      4136 8.74611E-05-2.17254E-05-2.81467E-05 2.75439E-06-6.06658E-20 1.70423E-19
 -1      4137 7.47873E-05-1.79174E-05-2.44368E-05-5.26050E-06 4.61434E-20-1.18260E-18
 -1      4138 9.37430E-05-2.26719E-05-3.04598E-05-1.04126E-07 2.75944E-19-1.94048E-18
 -1      4139 9.36890E-05-2.26019E-05-3.04729E-05-2.30572E-08 3.11283E-20-1.95321E-18
 -1      4140 9.43256E-05-2.36085E-05-3.03049E-05-6.63823E-07 7.96338E-19-1.45994E-18
 -1      4141 9.40485E-05-2.29397E-05-3.04691E-05-3.43873E-07 6.50255E-19-1.80633E-18
 -1      4142 9.39087E-05-2.28398E-05-3.04701E-05-3.20662E-07 5.32909E-19-1.86062E-18
 -1      4143 9.42694E-05-2.40540E-05-3.01039E-05-1.21281E-06 6.64449E-19-1.35405E-18
 -1      4144 8.74658E-05-2.20006E-05-2.80295E-05-6.56629E-06-9.93231E-20-1.08600E-18
 -1      4145 9.47125E-05-2.77239E-05-2.87100E-05-2.33434E-07 4.44547E-19 8.19317E-19
 -1      4146 9.46796E-05-2.76928E-05-2.87091E-05-1.36377E-07 9.10887E-19-1.92991E-19
 -1      4147 9.46643E-05-2.76788E-05-2.87092E-05-5.84933E-08 2.54059E-19-5.42618E-19
 -1      4148 9.45752E-05-2.75591E-05-2.87191E-05-1.26657E-08 9.42029E-19-6.96316E-19
 -1      4149 9.39771E-05-2.38352E-05-3.00533E-05-1.09392E-06 5.08834E-19-1.56394E-18
 -1      4150 9.39052E-05-2.32352E-05-3.02799E-05-4.12030E-07 4.07842E-19-1.70660E-18
 -1      4151 8.70228E-05-2.17394E-05-2.80028E-05-4.95220E-06 1.75507E-20-9.22772E-19
 -1      4152 8.69950E-05-2.15759E-05-2.80057E-05-3.57918E-06 1.97185E-19-5.57851E-19
 -1      4153 8.58832E-05-2.12505E-05-2.77078E-05-5.39464E-06-2.93201E-19-9.00523E-19
 -1      4154 8.34317E-05-2.36495E-05-2.55985E-05-1.15492E-05 1.01387E-18-2.84672E-18
 -1      4155 8.31943E-05-2.28545E-05-2.59076E-05-1.01736E-05 1.17664E-18-2.81964E-18
 -1      4156 8.03714E-05-2.19435E-05-2.50415E-05-1.11792E-05 7.19278E-19-2.92434E-18
 -1      4157 9.00987E-05-2.36412E-05-2.85013E-05 3.45584E-06-1.37257E-19-1.27342E-18
 -1      4158 8.94684E-05-2.34638E-05-2.82791E-05 3.99893E-06-1.51965E-20-1.33994E-18
 -1      4159 8.84959E-05-2.32140E-05-2.80052E-05 4.58298E-06 5.94848E-20-1.39689E-18
 -1      4160 8.78459E-05-2.30990E-05-2.77341E-05 5.30449E-06 2.95016E-19-1.50307E-18
 -1      4161 8.82574E-05-2.27278E-05-2.80616E-05 3.38637E-06-4.07817E-20-1.48669E-18
 -1      4162 8.67666E-05-2.29431E-05-2.73849E-05 6.10342E-06 6.23376E-19-1.51167E-18
 -1      4163 8.61260E-05-2.30007E-05-2.70438E-05 7.06133E-06 9.78661E-19-1.26774E-18
 -1      4164 8.62917E-05-2.21962E-05-2.74322E-05 4.69318E-06 4.19446E-19-1.37677E-18
 -1      4165 8.48279E-05-2.28838E-05-2.65902E-05 8.21298E-06 1.08675E-18-1.59608E-18
 -1      4166 8.43078E-05-2.32898E-05-2.61463E-05 9.68544E-06 7.23464E-19-1.64151E-18
 -1      4167 8.39008E-05-2.17650E-05-2.65994E-05 6.58008E-06 8.77137E-19-1.99427E-18
 -1      4168 8.28615E-05-2.31389E-05-2.56683E-05 1.04715E-05 6.23207E-19-1.69202E-18
 -1      4169 8.15685E-05-2.30586E-05-2.51100E-05 1.15745E-05 3.34079E-19-1.67989E-18
 -1      4170 7.79919E-05-2.03517E-05-2.45304E-05 9.54622E-06 6.06641E-19-2.46655E-18
 -1      4171 8.11465E-05-2.11429E-05-2.56371E-05 8.26032E-06 9.40748E-19-2.68675E-18
 -1      4172 8.43087E-05-2.26389E-05-2.64153E-05-8.68160E-06 9.58352E-19-2.96079E-18
 -1      4173 8.47228E-05-2.22955E-05-2.67986E-05-7.40332E-06 2.91745E-19-3.03455E-18
 -1      4174 8.20524E-05-2.12480E-05-2.60199E-05-8.13538E-06 9.60161E-19-3.57704E-18
 -1      4175 9.34367E-05-2.45168E-05-2.95415E-05-2.40814E-06 4.39801E-19-7.22450E-19
 -1      4176 9.33885E-05-2.41768E-05-2.96493E-05-1.78268E-06 2.93441E-19-1.01914E-18
 -1      4177 9.29991E-05-2.44318E-05-2.93935E-05-2.80998E-06 2.33906E-19-6.38122E-19
 -1      4178 8.57533E-05-2.23454E-05-2.71672E-05-6.36576E-06 2.10816E-19-3.25999E-18
 -1      4179 8.62936E-05-2.23122E-05-2.74535E-05-5.43254E-06 9.46737E-20-3.22419E-18
 -1      4180 8.41922E-05-2.13242E-05-2.69058E-05-5.73310E-06 3.57577E-19-3.48472E-18
 -1      4181 8.72079E-05-2.25187E-05-2.77179E-05-4.71332E-06 2.46481E-19-2.75115E-18
 -1      4182 8.77531E-05-2.26636E-05-2.79256E-05-4.03685E-06 2.91319E-19-2.72703E-18
 -1      4183 8.61148E-05-2.17731E-05-2.75423E-05-4.08755E-06 6.16509E-19-3.23148E-18
 -1      4184 8.85581E-05-2.29635E-05-2.81102E-05-3.48426E-06 3.01111E-19-2.40235E-18
 -1      4185 8.91002E-05-2.32253E-05-2.82553E-05-2.98720E-06-3.58052E-19-2.32890E-18
 -1      4186 8.77178E-05-2.23374E-05-2.79849E-05-2.93481E-06 4.82547E-19-3.51105E-18
 -1      4187 8.97897E-05-2.35705E-05-2.83804E-05-2.59587E-06-7.88381E-19-2.10971E-18
 -1      4188 9.02936E-05-2.38859E-05-2.84773E-05-2.22377E-06-4.42410E-19-1.73032E-18
 -1      4189 8.91866E-05-2.30780E-05-2.82954E-05-2.12570E-06 2.20071E-21-2.91409E-18
 -1      4190 9.08746E-05-2.42425E-05-2.85581E-05-1.93875E-06-9.93221E-19-1.98942E-18
 -1      4191 9.13202E-05-2.45711E-05-2.86191E-05-1.65683E-06-1.71579E-18-1.81416E-18
 -1      4192 9.04246E-05-2.38515E-05-2.85013E-05-1.53970E-06-9.81479E-19-2.31207E-18
 -1      4193 9.18044E-05-2.49171E-05-2.86680E-05-1.44731E-06-1.86607E-18-1.48700E-18
 -1      4194 9.21865E-05-2.52343E-05-2.87029E-05-1.23148E-06-1.35006E-18-1.61813E-18
 -1      4195 9.14656E-05-2.46044E-05-2.86310E-05-1.11446E-06-1.33795E-18-1.43154E-18
 -1      4196 9.25840E-05-2.55543E-05-2.87292E-05-1.07709E-06-1.38846E-18-1.13294E-18
 -1      4197 9.29031E-05-2.58452E-05-2.87457E-05-9.10895E-07-1.11661E-18-5.66453E-19
 -1      4198 9.23285E-05-2.53041E-05-2.87062E-05-8.05546E-07-1.08834E-18-7.89809E-19
 -1      4199 9.32236E-05-2.61300E-05-2.87565E-05-7.97005E-07-6.70774E-19-6.74981E-19
 -1      4200 9.34839E-05-2.63868E-05-2.87606E-05-6.68544E-07-4.10891E-19-4.58145E-19
 -1      4201 9.30316E-05-2.59306E-05-2.87432E-05-5.80861E-07-6.68688E-19-6.62420E-19
 -1      4202 9.37375E-05-2.66328E-05-2.87611E-05-5.83507E-07-2.76539E-19-5.33185E-19
 -1      4203 9.39480E-05-2.68536E-05-2.87572E-05-4.82172E-07-2.15460E-19 1.03406E-20
 -1      4204 9.35921E-05-2.64742E-05-2.87544E-05-4.17626E-07-1.86983E-19-8.45246E-19
 -1      4205 9.41437E-05-2.70618E-05-2.87515E-05-4.26658E-07 4.43930E-19-2.31518E-19
 -1      4206 9.43046E-05-2.72411E-05-2.87432E-05-3.46031E-07 1.12028E-18-9.67817E-19
 -1      4207 9.40400E-05-2.69543E-05-2.87500E-05-2.86816E-07 1.91277E-19-1.71254E-18
 -1      4208 9.25973E-05-2.55115E-05-2.87577E-05 9.22451E-07-5.45870E-19-9.10114E-19
 -1      4209 9.22051E-05-2.51559E-05-2.87407E-05 1.04392E-06-5.52516E-19-1.29048E-18
 -1      4210 9.17277E-05-2.47626E-05-2.87074E-05 1.11715E-06-4.57144E-19-8.29005E-19
 -1      4211 9.12272E-05-2.43507E-05-2.86690E-05 1.24580E-06 2.59679E-19-3.72354E-19
 -1      4212 9.18167E-05-2.48157E-05-2.86930E-05 6.57839E-07 2.47561E-20-8.69246E-19
 -1      4213 9.06300E-05-2.39011E-05-2.86078E-05 1.31349E-06 8.65982E-19-5.13660E-19
 -1      4214 8.99962E-05-2.34343E-05-2.85374E-05 1.44340E-06 7.56637E-19 2.98403E-20
 -1      4215 9.07541E-05-2.39671E-05-2.85952E-05 7.28475E-07 5.19941E-19-1.46074E-18
 -1      4216 8.92522E-05-2.29303E-05-2.84355E-05 1.49626E-06 5.80423E-19-7.33066E-20
 -1      4217 8.84580E-05-2.24151E-05-2.83182E-05 1.62138E-06 2.87372E-19-2.93175E-19
 -1      4218 8.94279E-05-2.30130E-05-2.84285E-05 7.52886E-07 2.59319E-19-2.13307E-18
 -1      4219 9.32792E-05-2.61493E-05-2.87755E-05 7.40964E-07-4.62266E-20-1.58479E-19
 -1      4220 9.29752E-05-2.58484E-05-2.87723E-05 8.50912E-07-6.21163E-19-1.32565E-18
 -1      4221 9.26620E-05-2.55546E-05-2.87435E-05 5.65382E-07-1.57358E-19-1.24662E-18
 -1      4222 9.38080E-05-2.66820E-05-2.87725E-05 5.79303E-07-8.79828E-19 1.36225E-18
 -1      4223 9.35743E-05-2.64318E-05-2.87778E-05 6.75530E-07-5.79414E-19 9.73716E-19
 -1      4224 9.33267E-05-2.61846E-05-2.87624E-05 4.67659E-07-9.13338E-19-7.90073E-19
 -1      4225 9.42156E-05-2.71211E-05-2.87572E-05 4.39390E-07 5.58405E-19 2.94825E-19
 -1      4226 9.40354E-05-2.69160E-05-2.87673E-05 5.19951E-07 6.88985E-19 1.46796E-18
 -1      4227 9.38387E-05-2.67103E-05-2.87610E-05 3.74860E-07 8.99956E-20-4.03618E-19
 -1      4228 9.37393E-05-2.36697E-05-3.00444E-05-7.67538E-07 2.78181E-19-1.54380E-18
 -1      4229 9.47323E-05-2.77205E-05-2.87183E-05 3.25204E-07 1.80600E-18 1.12357E-18
 -1      4230 7.47562E-05-1.70120E-05-2.48220E-05 2.50312E-06 6.56651E-19-5.44846E-19
 -1      4231 7.64469E-05-1.91736E-05-2.45433E-05-8.24403E-06 5.35245E-19-2.84705E-18
 -1      4232 9.37846E-05-2.30838E-05-3.02854E-05 1.23203E-07-1.72024E-19-1.82591E-18
 -1      4233 9.36988E-05-2.25670E-05-3.04935E-05 1.88810E-07-1.50657E-19-2.13051E-18
 -1      4234 7.50455E-05-1.87345E-05-2.42425E-05 6.37382E-06 3.82631E-19-2.29987E-18
 -1      4235 7.31861E-05-1.69729E-05-2.40344E-05 1.78635E-06 3.43508E-19-2.03857E-18
 -1      4236 7.69318E-05-1.91279E-05-2.48805E-05 5.76343E-06 4.33746E-19-2.36199E-18
 -1      4237 9.15084E-05-2.40604E-05-2.89189E-05 2.60474E-06-8.50755E-21-1.58426E-18
 -1      4238 9.09263E-05-2.38966E-05-2.87260E-05 3.02345E-06-3.89213E-20-1.31227E-18
 -1      4239 9.00120E-05-2.32956E-05-2.85692E-05 2.46842E-06-7.47058E-20-1.51709E-18
 -1      4240 9.26319E-05-2.42939E-05-2.92994E-05 1.93855E-06 5.32043E-20-1.78370E-18
 -1      4241 9.21654E-05-2.42208E-05-2.91184E-05 2.30022E-06 2.39183E-20-1.73919E-18
 -1      4242 9.15269E-05-2.38110E-05-2.90013E-05 1.77930E-06 1.37317E-19-1.61515E-18
 -1      4243 9.36972E-05-2.21017E-05-3.06709E-05 1.43572E-07-1.06991E-19-2.14502E-18
 -1      4244 9.46104E-05-2.75971E-05-2.87196E-05-2.15450E-07 1.03731E-18-3.76699E-19
 -1      4245 9.34552E-05-2.42269E-05-2.96760E-05 1.36190E-06 4.71390E-22-1.98470E-18
 -1      4246 9.31286E-05-2.43199E-05-2.94912E-05 1.68963E-06 4.43332E-20-1.86604E-18
 -1      4247 9.26407E-05-2.40160E-05-2.93962E-05 1.26232E-06 1.49534E-19-1.64670E-18
 -1      4248 9.34997E-05-2.39515E-05-2.98047E-05-9.32668E-07 2.86611E-19-1.35360E-18
 -1      4249 9.35727E-05-2.35188E-05-3.00188E-05-2.73953E-07 1.82603E-19-1.54168E-18
 -1      4250 9.38228E-05-2.27336E-05-3.04733E-05 3.16422E-07-2.94085E-19-2.15687E-18
 -1      4251 9.39121E-05-2.32030E-05-3.02949E-05 5.37979E-07-2.99010E-19-2.22673E-18
 -1      4252 7.92130E-05-1.82918E-05-2.61473E-05 1.77982E-06 3.00176E-19 1.33020E-19
 -1      4253 7.71831E-05-1.76490E-05-2.55285E-05 1.96445E-06 7.71427E-19 3.74547E-19
 -1      4254 7.89637E-05-1.87165E-05-2.58776E-05-2.16948E-06-6.23102E-19-9.27046E-19
 -1      4255 8.10357E-05-1.93388E-05-2.64738E-05-2.11950E-06-4.35610E-19-1.15546E-18
 -1      4256 7.52678E-05-1.78314E-05-2.45549E-05-5.53567E-06 3.87212E-19-1.72327E-18
 -1      4257 7.93374E-05-1.99004E-05-2.54649E-05-7.11806E-06 6.85258E-19-2.89123E-18
 -1      4258 8.05026E-05-1.99417E-05-2.59981E-05-5.82052E-06 6.99259E-19-2.85001E-18
 -1      4259 7.54899E-05-1.74963E-05-2.48874E-05-2.48805E-06 2.56519E-19-4.77771E-19
 -1      4260 8.52754E-05-2.05759E-05-2.76944E-05 3.16358E-06 1.44250E-19-6.36372E-19
 -1      4261 7.46906E-05-1.71752E-05-2.45403E-05-2.03036E-06-9.35177E-20-1.50896E-18
 -1      4262 9.44117E-05-2.73662E-05-2.87315E-05-1.74326E-07 1.24634E-18-1.68335E-18
 -1      4263 9.44869E-05-2.74510E-05-2.87306E-05-2.68928E-07 1.42514E-18-8.42613E-19
 -1      4264 8.41951E-05-2.03909E-05-2.73023E-05-3.99663E-06-3.92558E-19-1.04459E-18
 -1      4265 9.44716E-05-2.74194E-05-2.87388E-05 3.39369E-07 1.65271E-18-1.61156E-19
 -1      4266 9.43594E-05-2.72794E-05-2.87493E-05 4.00637E-07 7.22089E-19-2.93296E-19
 -1      4267 9.42169E-05-2.71292E-05-2.87490E-05 2.88487E-07 9.24183E-19-5.76175E-19
 -1      4268 8.84040E-05-2.22734E-05-2.83583E-05-2.14991E-06 4.76991E-19-7.53870E-19
 -1      4269 8.93991E-05-2.27387E-05-2.85890E-05-1.98169E-06 4.66203E-19-9.00199E-19
 -1      4270 9.46870E-05-2.76805E-05-2.87176E-05 2.60423E-07 1.64748E-18 1.51286E-18
 -1      4271 9.45777E-05-2.75442E-05-2.87276E-05 2.52144E-07 8.03245E-19 5.20047E-19
 -1      4272 8.77641E-05-2.19586E-05-2.81621E-05 7.01008E-07 1.48055E-19-2.77894E-18
 -1      4273 8.75349E-05-2.18712E-05-2.81578E-05 1.65848E-06-8.05721E-20-8.59786E-19
 -1      4274 8.65515E-05-2.13215E-05-2.79732E-05 1.77193E-06 1.30367E-19-1.14740E-18
 -1      4275 8.26871E-05-1.95326E-05-2.70930E-05 1.77488E-06 1.49271E-19-5.79674E-19
 -1      4276 8.11111E-05-1.89279E-05-2.66749E-05 1.92636E-06 3.49591E-19-7.04759E-19
 -1      4277 7.99135E-05-1.85057E-05-2.62832E-05-2.58789E-07 7.20023E-19 5.44965E-19
 -1      4278 9.35643E-05-2.34857E-05-3.00382E-05 5.77235E-08 1.45048E-20-1.63237E-18
 -1      4279 8.59726E-05-2.12055E-05-2.77766E-05-2.24240E-06 1.17577E-19-6.38241E-19
 -1      4280 8.72367E-05-2.17592E-05-2.80787E-05-2.13593E-06 5.37097E-19-4.14695E-19
 -1      4281 8.76358E-05-2.18778E-05-2.81527E-05-8.64336E-07 3.21442E-19-5.78449E-19
 -1      4282 9.44639E-05-2.74260E-05-2.87305E-05 1.69090E-07 3.60621E-19-9.59474E-20
 -1      4283 7.57558E-05-1.71410E-05-2.50449E-05-2.52657E-07 5.70770E-19 9.40657E-19
 -1      4284 9.44475E-05-2.74165E-05-2.87283E-05 6.91752E-08 1.05135E-18-3.95361E-19
 -1      4285 9.43371E-05-2.72756E-05-2.87387E-05 1.53589E-07 1.22978E-18 1.97895E-19
 -1      4286 9.41832E-05-2.71160E-05-2.87457E-05 1.88599E-07 9.96067E-19 5.41145E-19
 -1      4287 9.44484E-05-2.74229E-05-2.87276E-05-4.22774E-08 1.46307E-18-5.98662E-20
 -1      4288 7.70273E-05-1.80916E-05-2.52035E-05-1.54928E-06-2.00790E-19-1.29524E-18
 -1      4289 9.31048E-05-2.40179E-05-2.96218E-05-1.20818E-06 9.54058E-20-1.23007E-18
 -1      4290 9.09972E-05-2.34291E-05-2.89388E-05-2.77939E-06 5.66918E-19-5.80026E-19
 -1      4291 9.17998E-05-2.39663E-05-2.90782E-05-3.44682E-06 5.61262E-19-6.11109E-19
 -1      4292 9.24036E-05-2.42246E-05-2.92260E-05-3.07588E-06 4.90219E-19-4.36365E-19
 -1      4293 7.77575E-05-1.81552E-05-2.54084E-05 9.92810E-07-4.19612E-20-1.45774E-18
 -1      4294 9.15678E-05-2.37261E-05-2.90971E-05 8.33265E-07 2.45198E-19-1.66696E-18
 -1      4295 9.08902E-05-2.35080E-05-2.88916E-05 1.12825E-06 7.26517E-20-1.63131E-18
 -1      4296 8.17903E-05-1.96049E-05-2.66318E-05-9.24194E-08-1.80499E-19-9.72609E-19
 -1      4297 8.28986E-05-1.99731E-05-2.69897E-05-2.25429E-06-2.43155E-19-1.04881E-18
 -1      4298 8.44890E-05-2.05869E-05-2.74079E-05-2.13935E-06-6.78627E-20-8.94509E-19
 -1      4299 9.42742E-05-2.72083E-05-2.87403E-05-9.49120E-08 1.24053E-18-3.40955E-19
 -1      4300 8.58796E-05-2.16867E-05-2.75482E-05 2.84151E-06 3.05945E-19-1.09573E-18
 -1      4301 8.47352E-05-2.13464E-05-2.71888E-05 3.61794E-06 4.15510E-19-1.21563E-18
 -1      4302 8.21783E-05-2.02809E-05-2.65489E-05 3.12372E-06 1.67674E-19-1.22391E-18
 -1      4303 8.06770E-05-2.00232E-05-2.60335E-05 4.02898E-06 4.94187E-19-1.75269E-18
 -1      4304 9.24213E-05-2.40151E-05-2.92994E-05-2.32168E-06 3.61403E-19-7.82308E-19
 -1      4305 7.78579E-05-1.81942E-05-2.55923E-05-2.60258E-06 3.67496E-19-6.47391E-19
 -1      4306 8.25249E-05-2.03867E-05-2.66262E-05-4.75096E-06 8.94993E-19-2.45395E-18
 -1      4307 8.35559E-05-2.06315E-05-2.70022E-05-3.87486E-06 8.86663E-19-2.19302E-18
 -1      4308 8.48475E-05-2.10332E-05-2.73522E-05-3.25126E-06 4.89284E-19-2.66168E-18
 -1      4309 8.57166E-05-2.13430E-05-2.76172E-05-2.62390E-06 4.34382E-19-2.66304E-18
 -1      4310 8.34947E-05-2.01836E-05-2.71122E-05-2.31842E-06 7.72664E-19-1.77746E-18
 -1      4311 8.66084E-05-2.16091E-05-2.78672E-05-1.39163E-06 1.72009E-19-2.17078E-18
 -1      4312 8.74227E-05-2.20301E-05-2.80547E-05-1.01969E-06 3.74752E-19-2.89617E-18
 -1      4313 8.83423E-05-2.25443E-05-2.82198E-05-8.74146E-07 5.24585E-19-3.35930E-18
 -1      4314 8.90498E-05-2.29688E-05-2.83487E-05-5.86798E-07 1.18044E-19-3.23040E-18
 -1      4315 8.97972E-05-2.34449E-05-2.84556E-05-5.22053E-07-1.77817E-19-3.02827E-18
 -1      4316 9.03974E-05-2.38580E-05-2.85392E-05-3.16591E-07-8.00626E-19-2.29478E-18
 -1      4317 9.10019E-05-2.42934E-05-2.86051E-05-2.97336E-07-6.47500E-19-2.02271E-18
 -1      4318 9.15012E-05-2.46775E-05-2.86559E-05-1.51089E-07-1.37250E-20-1.15162E-18
 -1      4319 9.19859E-05-2.50651E-05-2.86931E-05-1.58372E-07-1.37801E-19-1.38070E-18
 -1      4320 9.23945E-05-2.54099E-05-2.87207E-05-5.43687E-08-2.64283E-19-5.36574E-19
 -1      4321 9.27791E-05-2.57467E-05-2.87384E-05-7.58224E-08-4.48229E-19-5.29255E-19
 -1      4322 9.31081E-05-2.60473E-05-2.87501E-05-2.01743E-09-6.18266E-19-4.36822E-19
 -1      4323 9.34103E-05-2.63335E-05-2.87549E-05-2.90054E-08-6.99308E-19-5.57188E-19
 -1      4324 9.36718E-05-2.65891E-05-2.87562E-05 2.22656E-08-3.95085E-20-9.43199E-19
 -1      4325 9.39068E-05-2.35408E-05-3.01569E-05 7.39040E-07-2.31356E-19-2.26670E-18
 -1      4326 9.39091E-05-2.68243E-05-2.87531E-05 1.92305E-10 1.65841E-19-3.79776E-19
 -1      4327 8.53957E-05-2.07255E-05-2.77319E-05 1.74630E-06 2.02805E-19-8.58753E-19
 -1      4328 8.41635E-05-2.01516E-05-2.74517E-05 1.87588E-06 3.94143E-20-1.29864E-18
 -1      4329 8.31994E-05-1.97594E-05-2.71660E-05 2.42111E-07 5.79899E-19 1.25691E-19
 -1      4330 8.57497E-05-2.09062E-05-2.77658E-05 6.09173E-07 1.14162E-19-1.16382E-18
 -1      4331 8.97121E-05-2.29957E-05-2.86040E-05 6.45222E-07 1.45658E-19-1.33546E-18
 -1      4332 8.88264E-05-2.26554E-05-2.83678E-05 9.67824E-07 6.17172E-20-1.13282E-18
 -1      4333 8.76494E-05-2.21725E-05-2.80854E-05 1.17045E-06-9.56841E-21-9.75912E-19
 -1      4334 8.66356E-05-2.17903E-05-2.77946E-05 1.60592E-06 2.74909E-19-9.20763E-19
 -1      4335 7.90501E-05-1.95111E-05-2.55586E-05 4.38086E-06 3.47403E-19-2.04112E-18
 -1      4336 9.25777E-05-2.39711E-05-2.94090E-05-1.36200E-06 1.91405E-19-1.15371E-18
 -1      4337 9.28238E-05-2.38041E-05-2.95623E-05-5.18708E-07 1.41349E-19-1.38235E-18
 -1      4338 9.26551E-05-2.39241E-05-2.94683E-05 2.49258E-07 1.23309E-19-1.49747E-18
 -1      4339 9.21550E-05-2.38490E-05-2.92737E-05 4.26176E-07 1.48917E-19-1.49868E-18
 -1      4340 9.00120E-05-2.29528E-05-2.87148E-05-3.56995E-07 3.98259E-19-1.44313E-18
 -1      4341 9.05799E-05-2.32541E-05-2.88613E-05-1.33927E-06 3.82201E-19-1.04601E-18
 -1      4342 9.37439E-05-2.40442E-05-2.98758E-05 1.13784E-06 5.61449E-21-2.13436E-18
 -1      4343 9.34201E-05-2.38760E-05-2.97907E-05 8.55691E-07 1.22265E-19-1.75669E-18
 -1      4344 9.38304E-05-2.38393E-05-3.00025E-05 8.89267E-07 7.32803E-20-2.31686E-18
 -1      4345 9.31669E-05-2.39151E-05-2.96855E-05 3.07237E-07 2.15912E-19-1.55022E-18
 -1      4346 8.50866E-05-2.08201E-05-2.75075E-05-6.24949E-07 2.47358E-19-5.37353E-19
 -1      4347 8.24537E-05-1.99592E-05-2.67454E-05 1.05982E-06 2.14902E-21-9.39201E-19
 -1      4348 8.02412E-05-1.91702E-05-2.61361E-05-3.78649E-06 8.70121E-19-1.70016E-18
 -1      4349 9.19676E-05-2.38033E-05-2.92304E-05-1.57932E-06 3.39188E-19-1.12998E-18
 -1      4350 9.40751E-05-2.69967E-05-2.87460E-05-1.33374E-07 5.12247E-19-1.42389E-20
 -1      4351 9.37600E-05-2.34342E-05-3.01452E-05 5.20914E-07-1.77861E-19-2.06708E-18
 -1      4352 9.17066E-05-2.35998E-05-2.91707E-05-2.59049E-07 1.40453E-19-1.53108E-18
 -1      4353 8.19043E-05-1.94427E-05-2.67693E-05-1.37414E-06 8.39404E-19-6.96005E-19
 -1      4354 8.00084E-05-1.88129E-05-2.62612E-05-1.77606E-06 9.50347E-19-1.91989E-20
 -1      4355 9.34688E-05-2.37306E-05-2.98869E-05 1.68375E-07 2.11758E-19-1.61929E-18
 -1      4356 9.13628E-05-2.35804E-05-2.90538E-05-1.21043E-06 2.31190E-19-1.19707E-18
 -1      4357 8.55454E-05-2.11428E-05-2.75990E-05 4.24702E-07 3.44795E-19-4.98848E-19
 -1      4358 8.31884E-05-1.99092E-05-2.71345E-05-9.48420E-07 7.54010E-19-1.03290E-18
 -1      4359 8.57178E-05-2.09925E-05-2.77267E-05-5.08293E-07 1.22269E-19-1.44840E-18
 -1      4360 8.46474E-05-2.05273E-05-2.74837E-05-6.77572E-07 6.31472E-19-1.33492E-18
 -1      4361 8.42466E-05-2.06779E-05-2.72419E-05 7.05291E-07-1.90624E-21-5.63743E-19
 -3
    1PSTEP                         4           1           1          
  100CL  101 1.000000000        4361                     0    1           1
 -4  ERROR       1    1
 -5  STR(%)      1    1    0    0
 -1         1 1.21822E+01
 -1         2 2.61642E+01
 -1         3 2.16134E-03
 -1         4 2.26905E-03
 -1         5 1.39944E+01
 -1         6 1.30963E+01
 -1         7 1.30963E+01
 -1         8 3.60258E+00
 -1         9 1.79031E+00
 -1        10 1.27856E+00
 -1        11 1.03340E+00
 -1        12 8.80533E-01
 -1        13 7.81243E-01
 -1        14 7.16716E-01
 -1        15 7.19399E-01
 -1        16 7.85208E-01
 -1        17 8.80562E-01
 -1        18 1.03891E+00
 -1        19 1.29609E+00
 -1        20 1.79872E+00
 -1        21 3.44245E+00
 -1        22 8.55840E+00
 -1        23 1.30963E+01
 -1        24 4.34049E+00
 -1        25 3.34555E+00
 -1        26 2.11187E+00
 -1        27 1.43489E+00
 -1        28 1.11000E+00
 -1        29 8.81739E-01
 -1        30 7.06093E-01
 -1        31 5.58761E-01
 -1        32 5.32661E-01
 -1        33 5.44397E-01
 -1        34 5.72363E-01
 -1        35 7.33987E-01
 -1        36 8.60424E-01
 -1        37 9.07596E-01
 -1        38 9.07596E-01
 -1        39 9.29500E-01
 -1        40 9.91346E-01
 -1        41 1.30540E+00
 -1        42 2.05263E+00
 -1        43 2.84121E+00
 -1        44 3.04635E+00
 -1        45 3.06909E+00
 -1        46 3.06909E+00
 -1        47 2.73943E+00
 -1        48 1.88272E+00
 -1        49 1.27638E+00
 -1        50 9.43757E-01
 -1        51 9.43757E-01
 -1        52 8.87002E-01
 -1        53 8.87002E-01
 -1        54 8.25931E-01
 -1        55 7.01054E-01
 -1        56 5.57005E-01
 -1        57 4.43734E-01
 -1        58 3.68852E-01
 -1        59 3.14825E-01
 -1        60 2.57897E-01
 -1        61 2.03963E-01
 -1        62 1.56188E-01
 -1        63 1.15848E-01
 -1        64 8.98860E-02
 -1        65 7.45937E-02
 -1        66 5.97539E-02
 -1        67 4.59593E-02
 -1        68 3.33629E-02
 -1        69 2.17943E-02
 -1        70 1.50072E-02
 -1        71 7.03569E-03
 -1        72 1.39944E+01
 -1        73 3.43081E+00
 -1        74 2.44408E+00
 -1        75 1.69923E+00
 -1        76 1.25298E+00
 -1        77 1.07005E+00
 -1        78 9.36254E-01
 -1        79 8.38825E-01
 -1        80 7.67814E-01
 -1        81 7.14553E-01
 -1        82 7.94626E-01
 -1        83 8.87024E-01
 -1        84 9.52706E-01
 -1        85 9.70995E-01
 -1        86 1.20079E+00
 -1        87 1.51604E+00
 -1        88 1.66743E+00
 -1        89 2.01370E+00
 -1        90 2.03898E+00
 -1        91 2.53442E+00
 -1        92 3.61027E+00
 -1        93 4.78511E+00
 -1        94 5.42921E+00
 -1        95 5.42921E+00
 -1        96 4.65945E+00
 -1        97 2.54370E+00
 -1        98 1.59009E+00
 -1        99 1.79834E+00
 -1       100 1.92561E+00
 -1       101 1.92561E+00
 -1       102 1.76639E+00
 -1       103 1.48630E+00
 -1       104 1.24001E+00
 -1       105 9.86440E-01
 -1       106 7.55301E-01
 -1       107 5.59430E-01
 -1       108 4.08467E-01
 -1       109 3.13902E-01
 -1       110 2.35836E-01
 -1       111 1.73278E-01
 -1       112 1.24295E-01
 -1       113 8.66716E-02
 -1       114 5.82588E-02
 -1       115 4.56868E-02
 -1       116 3.63248E-02
 -1       117 2.74312E-02
 -1       118 1.93278E-02
 -1       119 1.48461E-02
 -1       120 7.90218E-03
 -1       121 3.81632E-03
 -1       122 2.00849E-03
 -1       123 2.11150E-03
 -1       124 2.11150E-03
 -1       125 1.45043E-03
 -1       126 8.27563E-04
 -1       127 1.42324E-03
 -1       128 1.62953E-03
 -1       129 1.62953E-03
 -1       130 1.45085E-03
 -1       131 8.80836E-04
 -1       132 1.32278E-03
 -1       133 2.03702E-03
 -1       134 2.03702E-03
 -1       135 1.72333E-03
 -1       136 3.27738E-03
 -1       137 2.61642E+01
 -1       138 4.82567E+01
 -1       139 4.82567E+01
 -1       140 2.23446E+01
 -1       141 1.22587E+01
 -1       142 1.36211E+01
 -1       143 1.36211E+01
 -1       144 1.29824E+01
 -1       145 1.29824E+01
 -1       146 1.63064E+01
 -1       147 4.08531E+01
 -1       148 4.08531E+01
 -1       149 2.41917E+01
 -1       150 2.41917E+01
 -1       151 2.43646E+01
 -1       152 2.68863E+01
 -1       153 3.32869E+01
 -1       154 3.30140E+01
 -1       155 1.31396E+01
 -1       156 1.32973E+01
 -1       157 1.32973E+01
 -1       158 1.21822E+01
 -1       159 1.18725E+01
 -1       160 1.89658E+01
 -1       161 4.67524E+01
 -1       162 4.67524E+01
 -1       163 2.49827E+01
 -1       164 5.98932E+00
 -1       165 2.26042E+00
 -1       166 1.50116E+00
 -1       167 1.15024E+00
 -1       168 9.59428E-01
 -1       169 8.41736E-01
 -1       170 7.64495E-01
 -1       171 7.18222E-01
 -1       172 7.67931E-01
 -1       173 8.44123E-01
 -1       174 9.66542E-01
 -1       175 1.16424E+00
 -1       176 1.52015E+00
 -1       177 2.24649E+00
 -1       178 3.87786E+00
 -1       179 1.39944E+01
 -1       180 4.34049E+00
 -1       181 3.34555E+00
 -1       182 2.11187E+00
 -1       183 1.43489E+00
 -1       184 1.11000E+00
 -1       185 8.81739E-01
 -1       186 7.06093E-01
 -1       187 5.58761E-01
 -1       188 5.06129E-01
 -1       189 5.32661E-01
 -1       190 5.44397E-01
 -1       191 5.72363E-01
 -1       192 7.33987E-01
 -1       193 8.60424E-01
 -1       194 9.07596E-01
 -1       195 8.74495E-01
 -1       196 9.29500E-01
 -1       197 9.91346E-01
 -1       198 1.32766E+00
 -1       199 2.05263E+00
 -1       200 2.84121E+00
 -1       201 3.04635E+00
 -1       202 3.06909E+00
 -1       203 2.73943E+00
 -1       204 1.88272E+00
 -1       205 1.27638E+00
 -1       206 9.37250E-01
 -1       207 9.43757E-01
 -1       208 8.67411E-01
 -1       209 8.87002E-01
 -1       210 8.25931E-01
 -1       211 7.01054E-01
 -1       212 5.80915E-01
 -1       213 4.95165E-01
 -1       214 4.14586E-01
 -1       215 3.30485E-01
 -1       216 2.57897E-01
 -1       217 2.03963E-01
 -1       218 1.59628E-01
 -1       219 1.23198E-01
 -1       220 9.23519E-02
 -1       221 7.45937E-02
 -1       222 5.97539E-02
 -1       223 4.59593E-02
 -1       224 3.33629E-02
 -1       225 2.28528E-02
 -1       226 1.50072E-02
 -1       227 7.24259E-03
 -1       228 3.43081E+00
 -1       229 2.44408E+00
 -1       230 1.69923E+00
 -1       231 1.25298E+00
 -1       232 1.07005E+00
 -1       233 9.36254E-01
 -1       234 8.38825E-01
 -1       235 7.67814E-01
 -1       236 7.14553E-01
 -1       237 6.99098E-01
 -1       238 7.94626E-01
 -1       239 8.87024E-01
 -1       240 9.52706E-01
 -1       241 1.03687E+00
 -1       242 1.23191E+00
 -1       243 1.51604E+00
 -1       244 1.66743E+00
 -1       245 2.01370E+00
 -1       246 2.03898E+00
 -1       247 2.53442E+00
 -1       248 3.61027E+00
 -1       249 4.78511E+00
 -1       250 5.42921E+00
 -1       251 4.65945E+00
 -1       252 2.54370E+00
 -1       253 1.59009E+00
 -1       254 1.58970E+00
 -1       255 1.79834E+00
 -1       256 1.92561E+00
 -1       257 1.76639E+00
 -1       258 1.48630E+00
 -1       259 1.24001E+00
 -1       260 1.01330E+00
 -1       261 7.97577E-01
 -1       262 6.06837E-01
 -1       263 4.47957E-01
 -1       264 3.23696E-01
 -1       265 2.35836E-01
 -1       266 1.73278E-01
 -1       267 1.26124E-01
 -1       268 9.04097E-02
 -1       269 6.29913E-02
 -1       270 4.56868E-02
 -1       271 3.63248E-02
 -1       272 2.74312E-02
 -1       273 1.93278E-02
 -1       274 1.48461E-02
 -1       275 7.90218E-03
 -1       276 3.53991E-03
 -1       277 4.06158E-03
 -1       278 4.06158E-03
 -1       279 3.55942E-03
 -1       280 2.10038E-03
 -1       281 3.22002E-03
 -1       282 3.79797E-03
 -1       283 3.79797E-03
 -1       284 3.79691E-03
 -1       285 3.25780E-03
 -1       286 2.02962E-03
 -1       287 3.37240E-03
 -1       288 4.38193E-03
 -1       289 4.38193E-03
 -1       290 5.03966E-03
 -1       291 3.03650E+01
 -1       292 2.93958E+01
 -1       293 4.82567E+01
 -1       294 2.38075E+01
 -1       295 1.13723E+01
 -1       296 1.22587E+01
 -1       297 1.36211E+01
 -1       298 1.24759E+01
 -1       299 1.29824E+01
 -1       300 1.18663E+01
 -1       301 1.63064E+01
 -1       302 4.08531E+01
 -1       303 3.65879E+01
 -1       304 2.72357E+01
 -1       305 2.72357E+01
 -1       306 2.59218E+01
 -1       307 3.32869E+01
 -1       308 3.32869E+01
 -1       309 1.31396E+01
 -1       310 1.20129E+01
 -1       311 1.32973E+01
 -1       312 1.16675E+01
 -1       313 1.21822E+01
 -1       314 1.18725E+01
 -1       315 1.07280E+01
 -1       316 2.04254E+01
 -1       317 4.67524E+01
 -1       318 2.81853E+01
 -1       319 2.89834E+01
 -1       320 1.02846E+00
 -1       321 2.42450E+00
 -1       322 7.88579E-01
 -1       323 6.82299E-01
 -1       324 6.12281E-01
 -1       325 5.61394E-01
 -1       326 5.64663E-01
 -1       327 6.14646E-01
 -1       328 6.88240E-01
 -1       329 7.89118E-01
 -1       330 9.28061E-01
 -1       331 1.13746E+00
 -1       332 1.29466E+00
 -1       333 2.16436E+00
 -1       334 1.86168E+00
 -1       335 1.71463E+00
 -1       336 1.23756E+00
 -1       337 8.58177E-01
 -1       338 6.91916E-01
 -1       339 5.78429E-01
 -1       340 4.67343E-01
 -1       341 3.69759E-01
 -1       342 4.04876E-01
 -1       343 4.25201E-01
 -1       344 4.39512E-01
 -1       345 5.46610E-01
 -1       346 6.28015E-01
 -1       347 6.43545E-01
 -1       348 5.54507E-01
 -1       349 4.63445E-01
 -1       350 5.66797E-01
 -1       351 9.72167E-01
 -1       352 1.36792E+00
 -1       353 1.76738E+00
 -1       354 1.95946E+00
 -1       355 1.87012E+00
 -1       356 1.95680E+00
 -1       357 1.70290E+00
 -1       358 1.31396E+00
 -1       359 8.82030E-01
 -1       360 4.85917E-01
 -1       361 4.72992E-01
 -1       362 5.82363E-01
 -1       363 6.57542E-01
 -1       364 6.40711E-01
 -1       365 5.70690E-01
 -1       366 5.08974E-01
 -1       367 4.50923E-01
 -1       368 3.80071E-01
 -1       369 3.06898E-01
 -1       370 2.38638E-01
 -1       371 1.79111E-01
 -1       372 1.29748E-01
 -1       373 9.23519E-02
 -1       374 6.71190E-02
 -1       375 4.84651E-02
 -1       376 3.49118E-02
 -1       377 2.73954E-02
 -1       378 1.99120E-02
 -1       379 1.26856E-02
 -1       380 8.81250E-03
 -1       381 1.13984E+00
 -1       382 8.47125E-01
 -1       383 6.40122E-01
 -1       384 6.12237E-01
 -1       385 5.79324E-01
 -1       386 5.45108E-01
 -1       387 5.10306E-01
 -1       388 5.85350E-01
 -1       389 7.98608E-01
 -1       390 1.01480E+00
 -1       391 1.19748E+00
 -1       392 1.35819E+00
 -1       393 1.41224E+00
 -1       394 1.41224E+00
 -1       395 1.24451E+00
 -1       396 1.22105E+00
 -1       397 1.35682E+00
 -1       398 2.32574E+00
 -1       399 2.80305E+00
 -1       400 3.01774E+00
 -1       401 3.03866E+00
 -1       402 2.82217E+00
 -1       403 1.86937E+00
 -1       404 1.19267E+00
 -1       405 1.19650E+00
 -1       406 1.41255E+00
 -1       407 1.42710E+00
 -1       408 1.40652E+00
 -1       409 1.26991E+00
 -1       410 1.11920E+00
 -1       411 9.39754E-01
 -1       412 7.55045E-01
 -1       413 5.85855E-01
 -1       414 4.41376E-01
 -1       415 3.23696E-01
 -1       416 2.31195E-01
 -1       417 1.71843E-01
 -1       418 1.26124E-01
 -1       419 9.04097E-02
 -1       420 6.29913E-02
 -1       421 4.22763E-02
 -1       422 2.76451E-02
 -1       423 2.03464E-02
 -1       424 1.48782E-02
 -1       425 9.43515E-03
 -1       426 4.14679E-03
 -1       427 5.60805E-03
 -1       428 5.87517E-03
 -1       429 5.87517E-03
 -1       430 4.35297E-03
 -1       431 5.22627E-03
 -1       432 6.34320E-03
 -1       433 6.34320E-03
 -1       434 6.29988E-03
 -1       435 6.29988E-03
 -1       436 5.28760E-03
 -1       437 3.93139E-03
 -1       438 5.29246E-03
 -1       439 5.63361E-03
 -1       440 2.93958E+01
 -1       441 3.03650E+01
 -1       442 2.48957E+01
 -1       443 1.73320E+01
 -1       444 1.00470E+01
 -1       445 9.08198E-01
 -1       446 8.70436E+00
 -1       447 1.04448E+01
 -1       448 1.05752E+01
 -1       449 8.67479E+00
 -1       450 7.87058E+00
 -1       451 1.44547E+01
 -1       452 2.50290E+01
 -1       453 2.28264E+01
 -1       454 3.72832E+01
 -1       455 3.72832E+01
 -1       456 2.50494E+01
 -1       457 2.12886E+01
 -1       458 1.19491E+01
 -1       459 7.34756E+00
 -1       460 8.09683E+00
 -1       461 1.12166E+01
 -1       462 1.13074E+01
 -1       463 9.47589E+00
 -1       464 7.51271E+00
 -1       465 9.18135E+00
 -1       466 1.64672E+01
 -1       467 2.81853E+01
 -1       468 2.89354E+01
 -1       469 7.30400E+00
 -1       470 3.03650E+01
 -1       471 6.54287E+00
 -1       472 8.90092E+00
 -1       473 1.02402E+00
 -1       474 4.74733E-01
 -1       475 5.11274E-01
 -1       476 4.03503E-01
 -1       477 4.36478E-01
 -1       478 4.74558E-01
 -1       479 5.06966E-01
 -1       480 5.10734E-01
 -1       481 6.10826E-01
 -1       482 8.47125E-01
 -1       483 7.50785E-01
 -1       484 5.39343E+00
 -1       485 6.43637E-01
 -1       486 5.00987E-01
 -1       487 3.95015E-01
 -1       488 3.35305E-01
 -1       489 2.57239E-01
 -1       490 2.65306E-01
 -1       491 2.95586E-01
 -1       492 3.82117E-01
 -1       493 4.59527E-01
 -1       494 5.26188E-01
 -1       495 5.96617E-01
 -1       496 6.21842E-01
 -1       497 7.09655E-01
 -1       498 8.43772E-01
 -1       499 9.58147E-01
 -1       500 1.21419E+00
 -1       501 1.38656E+00
 -1       502 1.78778E+00
 -1       503 1.74013E+00
 -1       504 1.82010E+00
 -1       505 1.65480E+00
 -1       506 1.32734E+00
 -1       507 1.18709E+00
 -1       508 8.73695E-01
 -1       509 8.18052E-01
 -1       510 6.77302E-01
 -1       511 6.74868E-01
 -1       512 6.53948E-01
 -1       513 5.94971E-01
 -1       514 5.38779E-01
 -1       515 4.81734E-01
 -1       516 4.14963E-01
 -1       517 3.43653E-01
 -1       518 2.75200E-01
 -1       519 2.13838E-01
 -1       520 1.61496E-01
 -1       521 1.18569E-01
 -1       522 8.45299E-02
 -1       523 5.83693E-02
 -1       524 3.88878E-02
 -1       525 2.48753E-02
 -1       526 1.66790E-02
 -1       527 1.18249E-02
 -1       528 5.21053E-01
 -1       529 4.42967E-01
 -1       530 3.50433E-01
 -1       531 3.83880E-01
 -1       532 4.74167E-01
 -1       533 6.75833E-01
 -1       534 8.88825E-01
 -1       535 1.09688E+00
 -1       536 1.27041E+00
 -1       537 1.39322E+00
 -1       538 1.64489E+00
 -1       539 1.85599E+00
 -1       540 1.91561E+00
 -1       541 2.41271E+00
 -1       542 2.95070E+00
 -1       543 3.28996E+00
 -1       544 3.95203E+00
 -1       545 6.04891E+00
 -1       546 3.81747E+00
 -1       547 2.27475E+00
 -1       548 2.38010E+00
 -1       549 2.02692E+00
 -1       550 1.90199E+00
 -1       551 1.73235E+00
 -1       552 1.49727E+00
 -1       553 1.34629E+00
 -1       554 1.20039E+00
 -1       555 1.01609E+00
 -1       556 8.26939E-01
 -1       557 6.52481E-01
 -1       558 5.01746E-01
 -1       559 3.77137E-01
 -1       560 2.77404E-01
 -1       561 1.99607E-01
 -1       562 1.40253E-01
 -1       563 9.59108E-02
 -1       564 6.34962E-02
 -1       565 4.11749E-02
 -1       566 2.94461E-02
 -1       567 2.07613E-02
 -1       568 1.48782E-02
 -1       569 1.05768E-02
 -1       570 7.64277E-03
 -1       571 9.61319E-03
 -1       572 1.10868E-02
 -1       573 1.10868E-02
 -1       574 9.85077E-03
 -1       575 9.85077E-03
 -1       576 9.72940E-03
 -1       577 9.53423E-03
 -1       578 7.59198E-03
 -1       579 7.75062E-03
 -1       580 7.75062E-03
 -1       581 1.36795E+01
 -1       582 6.32101E-01
 -1       583 2.89354E+01
 -1       584 2.29156E+01
 -1       585 8.40881E-01
 -1       586 2.00363E+01
 -1       587 4.37138E-01
 -1       588 7.73918E+00
 -1       589 5.63607E+00
 -1       590 6.99887E+00
 -1       591 4.06859E+00
 -1       592 6.66785E+00
 -1       593 1.10780E+01
 -1       594 1.81362E+01
 -1       595 2.28264E+01
 -1       596 3.72832E+01
 -1       597 2.50494E+01
 -1       598 1.52707E+01
 -1       599 1.19900E+01
 -1       600 3.80901E+00
 -1       601 6.50231E+00
 -1       602 8.12938E+00
 -1       603 8.21723E+00
 -1       604 3.94614E+00
 -1       605 7.63750E+00
 -1       606 1.27400E+01
 -1       607 4.06346E+00
 -1       608 1.28585E+00
 -1       609 9.55456E+00
 -1       610 7.36186E+00
 -1       611 5.48096E-01
 -1       612 4.26666E+00
 -1       613 6.06969E+00
 -1       614 7.16622E+00
 -1       615 6.04891E+00
 -1       616 8.81250E-03
 -1       617 3.42042E-01
 -1       618 3.13556E-01
 -1       619 3.60099E-01
 -1       620 3.51188E-01
 -1       621 4.96526E-01
 -1       622 5.41710E+00
 -1       623 1.51202E+01
 -1       624 1.12453E+01
 -1       625 3.14990E-01
 -1       626 2.66391E-01
 -1       627 1.92652E-01
 -1       628 1.48699E-01
 -1       629 1.48663E-01
 -1       630 2.43433E-01
 -1       631 3.44723E-01
 -1       632 4.44654E-01
 -1       633 5.32351E-01
 -1       634 6.53670E-01
 -1       635 7.86437E-01
 -1       636 8.91546E-01
 -1       637 1.07662E+00
 -1       638 1.35656E+00
 -1       639 1.37636E+00
 -1       640 1.68579E+00
 -1       641 2.21266E+00
 -1       642 3.45505E+00
 -1       643 2.64227E+00
 -1       644 2.43020E+00
 -1       645 1.65480E+00
 -1       646 1.73508E+00
 -1       647 1.40752E+00
 -1       648 1.30955E+00
 -1       649 1.02078E+00
 -1       650 9.15044E-01
 -1       651 8.13942E-01
 -1       652 6.93578E-01
 -1       653 5.94971E-01
 -1       654 5.24474E-01
 -1       655 4.43108E-01
 -1       656 3.64808E-01
 -1       657 2.92971E-01
 -1       658 2.29921E-01
 -1       659 1.76546E-01
 -1       660 1.32681E-01
 -1       661 9.75604E-02
 -1       662 7.01168E-02
 -1       663 4.91855E-02
 -1       664 3.36116E-02
 -1       665 2.23517E-02
 -1       666 1.28766E-02
 -1       667 2.07659E-01
 -1       668 1.58483E-02
 -1       669 2.67589E-01
 -1       670 3.56059E-01
 -1       671 5.30330E-01
 -1       672 7.32485E-01
 -1       673 9.62703E-01
 -1       674 1.21838E+00
 -1       675 1.48786E+00
 -1       676 1.74347E+00
 -1       677 2.18215E+00
 -1       678 2.78159E+00
 -1       679 3.32105E+00
 -1       680 3.48933E+00
 -1       681 3.95203E+00
 -1       682 4.77359E+00
 -1       683 2.78237E+00
 -1       684 3.40163E+00
 -1       685 2.94871E+00
 -1       686 2.36420E+00
 -1       687 1.83600E+00
 -1       688 1.59716E+00
 -1       689 1.33998E+00
 -1       690 1.09579E+00
 -1       691 8.78732E-01
 -1       692 6.93022E-01
 -1       693 5.38194E-01
 -1       694 4.11694E-01
 -1       695 3.10128E-01
 -1       696 2.29895E-01
 -1       697 1.67508E-01
 -1       698 1.19762E-01
 -1       699 8.38322E-02
 -1       700 5.72905E-02
 -1       701 3.80985E-02
 -1       702 2.41882E-02
 -1       703 1.61345E-02
 -1       704 1.47640E-02
 -1       705 7.75062E-03
 -1       706 1.36890E-02
 -1       707 1.45280E-02
 -1       708 1.47640E-02
 -1       709 3.48957E-01
 -1       710 3.39786E+00
 -1       711 1.45280E-02
 -1       712 1.35107E-02
 -1       713 1.03636E-02
 -1       714 7.11511E+00
 -1       715 1.13467E+01
 -1       716 5.48096E-01
 -1       717 1.54261E+01
 -1       718 3.28996E+00
 -1       719 2.12338E-01
 -1       720 3.62830E-01
 -1       721 6.08354E+00
 -1       722 3.60099E-01
 -1       723 4.38928E-01
 -1       724 1.71244E+01
 -1       725 2.89870E+00
 -1       726 3.57503E-01
 -1       727 2.95070E+00
 -1       728 1.09286E+01
 -1       729 4.42561E+00
 -1       730 1.13416E+01
 -1       731 1.58070E+01
 -1       732 9.64470E+00
 -1       733 3.05590E+00
 -1       734 4.76888E+00
 -1       735 1.62086E+01
 -1       736 5.07390E+00
 -1       737 6.04756E+00
 -1       738 1.57409E+01
 -1       739 4.04594E-01
 -1       740 3.14343E-01
 -1       741 1.10448E+01
 -1       742 1.00161E+01
 -1       743 1.58483E-02
 -1       744 3.63520E+00
 -1       745 3.93579E+00
 -1       746 5.42262E+00
 -1       747 4.73048E+00
 -1       748 2.90611E+00
 -1       749 3.42374E-01
 -1       750 6.45338E+00
 -1       751 5.17225E+00
 -1       752 2.92207E+00
 -1       753 8.60107E-03
 -1       754 2.52459E-01
 -1       755 1.18563E-01
 -1       756 1.18774E-01
 -1       757 1.62840E-01
 -1       758 2.22928E-01
 -1       759 2.96069E-01
 -1       760 4.12576E-01
 -1       761 5.47462E-01
 -1       762 6.91719E-01
 -1       763 8.48677E-01
 -1       764 1.09499E+00
 -1       765 1.35534E+00
 -1       766 1.56306E+00
 -1       767 2.24847E+00
 -1       768 1.71489E+00
 -1       769 2.68860E+00
 -1       770 4.23344E+00
 -1       771 2.54604E+00
 -1       772 2.39227E+00
 -1       773 1.93993E+00
 -1       774 1.63542E+00
 -1       775 1.60197E+00
 -1       776 1.35611E+00
 -1       777 1.10066E+00
 -1       778 8.68400E-01
 -1       779 7.36804E-01
 -1       780 6.09007E-01
 -1       781 4.98563E-01
 -1       782 3.98729E-01
 -1       783 3.12334E-01
 -1       784 2.40166E-01
 -1       785 1.84223E-01
 -1       786 1.39369E-01
 -1       787 1.02947E-01
 -1       788 7.48847E-02
 -1       789 5.34256E-02
 -1       790 3.76688E-02
 -1       791 2.60591E-02
 -1       792 1.47898E-02
 -1       793 1.22019E-01
 -1       794 5.87659E-01
 -1       795 4.18144E-01
 -1       796 1.06089E+00
 -1       797 1.40737E+00
 -1       798 1.91703E+00
 -1       799 2.59243E+00
 -1       800 3.37825E+00
 -1       801 4.32960E+00
 -1       802 3.48933E+00
 -1       803 5.17709E+00
 -1       804 4.90700E+00
 -1       805 2.57783E+00
 -1       806 2.10664E+00
 -1       807 1.56864E+00
 -1       808 1.20381E+00
 -1       809 9.46937E-01
 -1       810 7.48329E-01
 -1       811 5.77359E-01
 -1       812 4.36548E-01
 -1       813 3.23970E-01
 -1       814 2.35943E-01
 -1       815 1.71567E-01
 -1       816 1.26181E-01
 -1       817 9.13312E-02
 -1       818 6.49342E-02
 -1       819 4.52707E-02
 -1       820 3.04386E-02
 -1       821 2.59209E-01
 -1       822 1.61147E-01
 -1       823 2.01783E-02
 -1       824 1.88497E-02
 -1       825 2.11224E-02
 -1       826 5.54910E+00
 -1       827 3.62537E+00
 -1       828 2.11224E-02
 -1       829 9.58464E+00
 -1       830 3.29697E+00
 -1       831 3.82166E+00
 -1       832 8.03605E-01
 -1       833 1.44943E-01
 -1       834 1.03727E+01
 -1       835 1.03727E+01
 -1       836 7.36051E+00
 -1       837 2.50287E-01
 -1       838 2.89870E+00
 -1       839 7.73405E+00
 -1       840 8.57928E+00
 -1       841 2.38269E-01
 -1       842 5.63074E+00
 -1       843 6.84400E+00
 -1       844 1.83687E-02
 -1       845 2.77979E-01
 -1       846 2.77979E-01
 -1       847 2.08539E-02
 -1       848 9.77643E+00
 -1       849 2.85125E-01
 -1       850 2.28642E-02
 -1       851 2.70138E-01
 -1       852 2.08539E-02
 -1       853 2.70138E-01
 -1       854 7.09549E+00
 -1       855 4.93556E+00
 -1       856 2.79781E+00
 -1       857 3.61606E+00
 -1       858 1.80952E-02
 -1       859 7.55926E+00
 -1       860 1.43034E-02
 -1       861 5.33585E+00
 -1       862 1.86009E-01
 -1       863 1.85933E-01
 -1       864 9.77643E+00
 -1       865 2.74577E-01
 -1       866 1.81746E-01
 -1       867 2.36218E-01
 -1       868 3.06661E-01
 -1       869 4.15109E-01
 -1       870 5.42082E-01
 -1       871 6.91896E-01
 -1       872 9.45426E-01
 -1       873 1.23085E+00
 -1       874 1.50308E+00
 -1       875 2.04906E+00
 -1       876 3.20714E+00
 -1       877 6.00911E+00
 -1       878 2.15070E+00
 -1       879 2.11024E+00
 -1       880 1.50506E+00
 -1       881 1.22274E+00
 -1       882 9.53604E-01
 -1       883 7.23053E-01
 -1       884 5.73057E-01
 -1       885 4.59475E-01
 -1       886 3.78622E-01
 -1       887 3.04716E-01
 -1       888 2.39403E-01
 -1       889 1.83921E-01
 -1       890 1.38207E-01
 -1       891 1.01497E-01
 -1       892 7.27154E-02
 -1       893 5.06600E-02
 -1       894 3.48781E-02
 -1       895 6.38151E+00
 -1       896 5.68372E-01
 -1       897 1.86921E+00
 -1       898 1.39952E+00
 -1       899 4.16532E+00
 -1       900 1.54095E-01
 -1       901 1.54610E+00
 -1       902 1.44416E-01
 -1       903 2.01569E+00
 -1       904 3.04491E+00
 -1       905 1.20381E+00
 -1       906 9.29398E-01
 -1       907 7.12538E-01
 -1       908 5.42045E-01
 -1       909 4.08614E-01
 -1       910 3.04630E-01
 -1       911 2.24141E-01
 -1       912 1.62417E-01
 -1       913 1.15596E-01
 -1       914 8.06604E-02
 -1       915 5.61555E-02
 -1       916 4.01512E-02
 -1       917 4.01078E+00
 -1       918 3.02221E-02
 -1       919 4.43558E+00
 -1       920 5.70657E+00
 -1       921 3.55560E+00
 -1       922 2.62307E-01
 -1       923 5.54477E+00
 -1       924 3.55313E+00
 -1       925 2.01493E-01
 -1       926 6.38151E+00
 -1       927 4.93556E+00
 -1       928 1.38264E-01
 -1       929 1.69112E-01
 -1       930 2.79170E+00
 -1       931 5.78055E+00
 -1       932 2.78256E-01
 -1       933 1.54300E-01
 -1       934 2.95745E+00
 -1       935 4.41674E+00
 -1       936 2.88202E+00
 -1       937 6.29855E+00
 -1       938 2.30637E-02
 -1       939 3.92159E-01
 -1       940 1.06089E+00
 -1       941 1.32088E-01
 -1       942 4.32960E+00
 -1       943 2.85615E-02
 -1       944 2.87110E-02
 -1       945 2.65123E-02
 -1       946 4.86181E+00
 -1       947 1.79696E-01
 -1       948 2.98207E-02
 -1       949 1.68224E-01
 -1       950 4.88931E+00
 -1       951 5.37289E+00
 -1       952 3.02221E-02
 -1       953 1.47598E-01
 -1       954 7.88698E-01
 -1       955 4.85780E+00
 -1       956 4.25179E+00
 -1       957 2.32533E-01
 -1       958 1.44589E+00
 -1       959 3.05884E-01
 -1       960 4.15109E-01
 -1       961 5.42082E-01
 -1       962 7.07807E-01
 -1       963 9.42285E-01
 -1       964 1.31406E+00
 -1       965 2.46565E+00
 -1       966 3.81238E+00
 -1       967 4.41674E+00
 -1       968 1.79696E-01
 -1       969 2.27169E+00
 -1       970 1.73293E+00
 -1       971 1.23861E+00
 -1       972 9.08094E-01
 -1       973 7.02203E-01
 -1       974 5.73057E-01
 -1       975 4.59475E-01
 -1       976 3.62868E-01
 -1       977 2.82354E-01
 -1       978 2.16544E-01
 -1       979 1.63547E-01
 -1       980 1.21449E-01
 -1       981 8.84660E-02
 -1       982 6.30536E-02
 -1       983 4.38530E-02
 -1       984 1.24600E-01
 -1       985 1.32088E-01
 -1       986 4.01512E-02
 -1       987 1.54578E-01
 -1       988 1.86253E-01
 -1       989 1.78714E-01
 -1       990 2.01569E+00
 -1       991 2.84756E+00
 -1       992 7.97314E-01
 -1       993 6.02353E-01
 -1       994 4.56240E-01
 -1       995 3.44444E-01
 -1       996 2.58082E-01
 -1       997 1.91365E-01
 -1       998 1.40011E-01
 -1       999 1.00753E-01
 -1      1000 7.11048E-02
 -1      1001 5.01429E-02
 -1      1002 3.55560E+00
 -1      1003 2.98207E-02
 -1      1004 4.39921E+00
 -1      1005 1.16883E-01
 -1      1006 5.22713E+00
 -1      1007 4.85780E+00
 -1      1008 1.06473E+00
 -1      1009 1.86732E+00
 -1      1010 1.54981E-01
 -1      1011 1.53618E-01
 -1      1012 2.42114E-01
 -1      1013 6.79739E-01
 -1      1014 3.55560E+00
 -1      1015 4.14351E+00
 -1      1016 4.36081E+00
 -1      1017 1.30556E+00
 -1      1018 4.05310E-02
 -1      1019 4.00090E-02
 -1      1020 4.86397E-01
 -1      1021 1.06596E-01
 -1      1022 4.39921E+00
 -1      1023 9.76427E-02
 -1      1024 3.70293E-02
 -1      1025 9.41207E-01
 -1      1026 3.25501E+00
 -1      1027 3.86957E-01
 -1      1028 5.28295E-01
 -1      1029 7.07807E-01
 -1      1030 9.42285E-01
 -1      1031 1.25040E+00
 -1      1032 1.98167E+00
 -1      1033 2.92886E+00
 -1      1034 1.40029E+00
 -1      1035 1.18256E+00
 -1      1036 9.08094E-01
 -1      1037 6.94665E-01
 -1      1038 5.33325E-01
 -1      1039 4.07305E-01
 -1      1040 3.09233E-01
 -1      1041 2.33662E-01
 -1      1042 1.75138E-01
 -1      1043 1.29869E-01
 -1      1044 9.50050E-02
 -1      1045 6.75353E-02
 -1      1046 4.87037E-02
 -1      1047 1.14225E-01
 -1      1048 3.41692E-01
 -1      1049 1.54518E+00
 -1      1050 1.99975E+00
 -1      1051 4.46893E-01
 -1      1052 5.85847E-01
 -1      1053 2.60280E-01
 -1      1054 1.96903E-01
 -1      1055 1.47325E-01
 -1      1056 1.08761E-01
 -1      1057 7.87854E-02
 -1      1058 4.00090E-02
 -1      1059 3.01848E+00
 -1      1060 1.06596E-01
 -1      1061 4.36081E+00
 -1      1062 2.75991E-01
 -1      1063 3.38901E-01
 -1      1064 2.00486E-01
 -1      1065 2.78480E+00
 -1      1066 1.84384E+00
 -1      1067 6.91074E-01
 -1      1068 2.28895E+00
 -1      1069 1.06417E+00
 -1      1070 2.88491E+00
 -1      1071 1.39460E+00
 -1      1072 2.20598E-01
 -1      1073 1.34069E-01
 -1      1074 6.26164E-01
 -1      1075 1.53618E-01
 -1      1076 5.70809E-02
 -1      1077 4.89843E-02
 -1      1078 7.78755E-01
 -1      1079 2.03238E-01
 -1      1080 1.73003E-01
 -1      1081 6.51814E-02
 -1      1082 9.55320E-01
 -1      1083 2.49556E+00
 -1      1084 8.26451E-01
 -1      1085 8.26451E-01
 -1      1086 1.73152E+00
 -1      1087 1.73152E+00
 -1      1088 2.00617E+00
 -1      1089 1.52777E+00
 -1      1090 2.87535E-01
 -1      1091 9.32317E-01
 -1      1092 6.79011E-01
 -1      1093 6.00596E-01
 -1      1094 4.46979E-01
 -1      1095 3.24304E-01
 -1      1096 2.35064E-01
 -1      1097 1.75156E-01
 -1      1098 1.34205E-01
 -1      1099 1.00416E-01
 -1      1100 9.06117E-02
 -1      1101 2.07121E-01
 -1      1102 2.71966E-01
 -1      1103 3.56905E-01
 -1      1104 4.73371E-01
 -1      1105 1.57657E-01
 -1      1106 1.18655E-01
 -1      1107 8.82768E-02
 -1      1108 2.03238E-01
 -1      1109 2.88491E+00
 -1      1110 5.92137E-01
 -1      1111 3.37966E-01
 -1      1112 2.78355E-01
 -1      1113 2.78355E-01
 -1      1114 1.67204E+00
 -1      1115 1.73152E+00
 -1      1116 2.47187E+00
 -1      1117 5.19176E-02
 -1      1118 6.26164E-01
 -1      1119 6.28585E-01
 -1      1120 1.21315E+00
 -1      1121 8.26451E-01
 -1      1122 9.06117E-02
 -1      1123 3.92321E-01
 -1      1124 6.26164E-01
 -1      1125 1.44839E+00
 -1      1126 1.44839E+00
 -1      1127 1.36974E+00
 -1      1128 8.95022E-01
 -1      1129 8.46253E-01
 -1      1130 3.31998E-01
 -1      1131 1.92107E-01
 -1      1132 1.30963E+01
 -1      1133 8.34946E+00
 -1      1134 2.69645E+00
 -1      1135 1.53444E+00
 -1      1136 1.15598E+00
 -1      1137 9.56965E-01
 -1      1138 8.30888E-01
 -1      1139 7.48980E-01
 -1      1140 7.18057E-01
 -1      1141 7.52304E-01
 -1      1142 8.32885E-01
 -1      1143 9.59738E-01
 -1      1144 1.16750E+00
 -1      1145 1.54741E+00
 -1      1146 2.62058E+00
 -1      1147 6.00042E+00
 -1      1148 1.12764E+01
 -1      1149 1.30963E+01
 -1      1150 8.71842E+00
 -1      1151 3.84302E+00
 -1      1152 2.72871E+00
 -1      1153 1.77338E+00
 -1      1154 1.27245E+00
 -1      1155 9.95871E-01
 -1      1156 7.93916E-01
 -1      1157 6.32427E-01
 -1      1158 5.45711E-01
 -1      1159 5.38529E-01
 -1      1160 5.58380E-01
 -1      1161 6.53175E-01
 -1      1162 7.97205E-01
 -1      1163 8.84010E-01
 -1      1164 9.07596E-01
 -1      1165 9.18548E-01
 -1      1166 9.60423E-01
 -1      1167 1.14837E+00
 -1      1168 1.67902E+00
 -1      1169 2.44692E+00
 -1      1170 2.94378E+00
 -1      1171 3.05772E+00
 -1      1172 3.06909E+00
 -1      1173 2.90426E+00
 -1      1174 2.31108E+00
 -1      1175 1.57955E+00
 -1      1176 1.11007E+00
 -1      1177 9.43757E-01
 -1      1178 9.15380E-01
 -1      1179 8.87002E-01
 -1      1180 8.56467E-01
 -1      1181 7.63492E-01
 -1      1182 6.29029E-01
 -1      1183 5.00370E-01
 -1      1184 4.06293E-01
 -1      1185 3.41839E-01
 -1      1186 2.86361E-01
 -1      1187 2.30930E-01
 -1      1188 1.80075E-01
 -1      1189 1.36018E-01
 -1      1190 1.02867E-01
 -1      1191 8.22399E-02
 -1      1192 6.71738E-02
 -1      1193 5.28566E-02
 -1      1194 3.96611E-02
 -1      1195 2.75786E-02
 -1      1196 1.84008E-02
 -1      1197 1.10214E-02
 -1      1198 4.65237E-03
 -1      1199 1.39944E+01
 -1      1200 8.71260E+00
 -1      1201 2.93744E+00
 -1      1202 2.07166E+00
 -1      1203 1.47611E+00
 -1      1204 1.16151E+00
 -1      1205 1.00315E+00
 -1      1206 8.87540E-01
 -1      1207 8.03319E-01
 -1      1208 7.41183E-01
 -1      1209 7.54589E-01
 -1      1210 8.40825E-01
 -1      1211 9.19865E-01
 -1      1212 9.61851E-01
 -1      1213 1.08589E+00
 -1      1214 1.35841E+00
 -1      1215 1.59174E+00
 -1      1216 1.84057E+00
 -1      1217 2.02634E+00
 -1      1218 2.28670E+00
 -1      1219 3.07235E+00
 -1      1220 4.19769E+00
 -1      1221 5.10716E+00
 -1      1222 5.42921E+00
 -1      1223 5.04433E+00
 -1      1224 3.60157E+00
 -1      1225 2.06689E+00
 -1      1226 1.69422E+00
 -1      1227 1.86198E+00
 -1      1228 1.92561E+00
 -1      1229 1.84600E+00
 -1      1230 1.62634E+00
 -1      1231 1.36315E+00
 -1      1232 1.11322E+00
 -1      1233 8.70870E-01
 -1      1234 6.57365E-01
 -1      1235 4.83948E-01
 -1      1236 3.61185E-01
 -1      1237 2.74869E-01
 -1      1238 2.04557E-01
 -1      1239 1.48786E-01
 -1      1240 1.05483E-01
 -1      1241 7.24652E-02
 -1      1242 5.19728E-02
 -1      1243 4.10058E-02
 -1      1244 3.18780E-02
 -1      1245 2.33795E-02
 -1      1246 1.70870E-02
 -1      1247 1.13741E-02
 -1      1248 5.03176E-03
 -1      1249 2.98883E-03
 -1      1250 2.91241E-03
 -1      1251 2.06000E-03
 -1      1252 2.11150E-03
 -1      1253 1.78097E-03
 -1      1254 1.13900E-03
 -1      1255 1.12540E-03
 -1      1256 1.52638E-03
 -1      1257 1.62953E-03
 -1      1258 1.54019E-03
 -1      1259 1.16585E-03
 -1      1260 1.10181E-03
 -1      1261 1.67990E-03
 -1      1262 2.03702E-03
 -1      1263 1.88017E-03
 -1      1264 2.50035E-03
 -1      1265 2.77321E-03
 -1      1266 2.61642E+01
 -1      1267 3.72105E+01
 -1      1268 4.82567E+01
 -1      1269 3.53006E+01
 -1      1270 1.73016E+01
 -1      1271 1.29399E+01
 -1      1272 1.36211E+01
 -1      1273 1.33017E+01
 -1      1274 1.29824E+01
 -1      1275 1.46444E+01
 -1      1276 2.85798E+01
 -1      1277 4.08531E+01
 -1      1278 3.25224E+01
 -1      1279 2.41917E+01
 -1      1280 2.42781E+01
 -1      1281 2.56254E+01
 -1      1282 3.00866E+01
 -1      1283 3.31505E+01
 -1      1284 2.30768E+01
 -1      1285 1.32184E+01
 -1      1286 1.32973E+01
 -1      1287 1.27397E+01
 -1      1288 1.21822E+01
 -1      1289 1.20274E+01
 -1      1290 1.54191E+01
 -1      1291 3.28591E+01
 -1      1292 4.67524E+01
 -1      1293 3.58675E+01
 -1      1294 2.55734E+01
 -1      1295 1.30963E+01
 -1      1296 4.79595E+00
 -1      1297 9.54283E+00
 -1      1298 2.02537E+00
 -1      1299 2.93150E+00
 -1      1300 4.12487E+00
 -1      1301 1.38986E+00
 -1      1302 1.64574E+00
 -1      1303 1.88079E+00
 -1      1304 1.09182E+00
 -1      1305 1.21440E+00
 -1      1306 1.32570E+00
 -1      1307 9.19980E-01
 -1      1308 9.96413E-01
 -1      1309 1.05484E+00
 -1      1310 8.11489E-01
 -1      1311 8.61134E-01
 -1      1312 9.00582E-01
 -1      1313 7.40606E-01
 -1      1314 7.72869E-01
 -1      1315 8.03115E-01
 -1      1316 7.18810E-01
 -1      1317 7.17469E-01
 -1      1318 7.41359E-01
 -1      1319 7.76570E-01
 -1      1320 7.43665E-01
 -1      1321 7.43076E-01
 -1      1322 8.62342E-01
 -1      1323 8.14665E-01
 -1      1324 8.06027E-01
 -1      1325 1.00273E+00
 -1      1326 9.23552E-01
 -1      1327 9.05332E-01
 -1      1328 1.23016E+00
 -1      1329 1.10158E+00
 -1      1330 1.06539E+00
 -1      1331 1.65944E+00
 -1      1332 1.40812E+00
 -1      1333 1.34219E+00
 -1      1334 2.84447E+00
 -1      1335 2.02261E+00
 -1      1336 1.88332E+00
 -1      1337 6.21813E+00
 -1      1338 3.66016E+00
 -1      1339 3.06218E+00
 -1      1340 1.39944E+01
 -1      1341 1.12764E+01
 -1      1342 8.93612E+00
 -1      1343 1.39944E+01
 -1      1344 8.71842E+00
 -1      1345 4.34049E+00
 -1      1346 3.84302E+00
 -1      1347 3.34555E+00
 -1      1348 3.84302E+00
 -1      1349 2.72871E+00
 -1      1350 2.11187E+00
 -1      1351 2.72871E+00
 -1      1352 1.77338E+00
 -1      1353 1.43489E+00
 -1      1354 1.77338E+00
 -1      1355 1.27245E+00
 -1      1356 1.11000E+00
 -1      1357 1.27245E+00
 -1      1358 9.95871E-01
 -1      1359 8.81739E-01
 -1      1360 9.95871E-01
 -1      1361 7.93916E-01
 -1      1362 7.06093E-01
 -1      1363 7.93916E-01
 -1      1364 6.32427E-01
 -1      1365 5.58761E-01
 -1      1366 6.32427E-01
 -1      1367 5.32445E-01
 -1      1368 5.19395E-01
 -1      1369 5.32445E-01
 -1      1370 5.32661E-01
 -1      1371 5.38529E-01
 -1      1372 5.19395E-01
 -1      1373 5.44397E-01
 -1      1374 5.58380E-01
 -1      1375 5.38529E-01
 -1      1376 5.72363E-01
 -1      1377 6.53175E-01
 -1      1378 5.58380E-01
 -1      1379 7.33987E-01
 -1      1380 7.97205E-01
 -1      1381 6.53175E-01
 -1      1382 8.60424E-01
 -1      1383 8.84010E-01
 -1      1384 7.97205E-01
 -1      1385 9.07596E-01
 -1      1386 9.07596E-01
 -1      1387 8.84010E-01
 -1      1388 8.91045E-01
 -1      1389 9.01998E-01
 -1      1390 8.91045E-01
 -1      1391 9.29500E-01
 -1      1392 9.60423E-01
 -1      1393 9.01998E-01
 -1      1394 9.91346E-01
 -1      1395 1.14837E+00
 -1      1396 9.60423E-01
 -1      1397 1.31653E+00
 -1      1398 1.69015E+00
 -1      1399 1.15950E+00
 -1      1400 2.05263E+00
 -1      1401 2.44692E+00
 -1      1402 1.69015E+00
 -1      1403 2.84121E+00
 -1      1404 2.94378E+00
 -1      1405 2.44692E+00
 -1      1406 3.04635E+00
 -1      1407 3.05772E+00
 -1      1408 2.94378E+00
 -1      1409 3.06909E+00
 -1      1410 3.06909E+00
 -1      1411 3.05772E+00
 -1      1412 2.90426E+00
 -1      1413 2.73943E+00
 -1      1414 2.90426E+00
 -1      1415 2.31108E+00
 -1      1416 1.88272E+00
 -1      1417 2.31108E+00
 -1      1418 1.57955E+00
 -1      1419 1.27638E+00
 -1      1420 1.57955E+00
 -1      1421 1.10682E+00
 -1      1422 9.40504E-01
 -1      1423 1.10682E+00
 -1      1424 9.43757E-01
 -1      1425 9.43757E-01
 -1      1426 9.40504E-01
 -1      1427 9.05584E-01
 -1      1428 8.77207E-01
 -1      1429 9.05584E-01
 -1      1430 8.87002E-01
 -1      1431 8.87002E-01
 -1      1432 8.77207E-01
 -1      1433 8.56467E-01
 -1      1434 8.25931E-01
 -1      1435 8.56467E-01
 -1      1436 7.63492E-01
 -1      1437 7.01054E-01
 -1      1438 7.63492E-01
 -1      1439 6.40984E-01
 -1      1440 5.68960E-01
 -1      1441 6.40984E-01
 -1      1442 5.26085E-01
 -1      1443 4.69450E-01
 -1      1444 5.38040E-01
 -1      1445 4.29160E-01
 -1      1446 3.91719E-01
 -1      1447 4.54875E-01
 -1      1448 3.49668E-01
 -1      1449 3.22655E-01
 -1      1450 3.72535E-01
 -1      1451 2.86361E-01
 -1      1452 2.57897E-01
 -1      1453 2.94191E-01
 -1      1454 2.30930E-01
 -1      1455 2.03963E-01
 -1      1456 2.30930E-01
 -1      1457 1.81795E-01
 -1      1458 1.57908E-01
 -1      1459 1.81795E-01
 -1      1460 1.39693E-01
 -1      1461 1.19523E-01
 -1      1462 1.41413E-01
 -1      1463 1.04100E-01
 -1      1464 9.11189E-02
 -1      1465 1.07775E-01
 -1      1466 8.22399E-02
 -1      1467 7.45937E-02
 -1      1468 8.34728E-02
 -1      1469 6.71738E-02
 -1      1470 5.97539E-02
 -1      1471 6.71738E-02
 -1      1472 5.28566E-02
 -1      1473 4.59593E-02
 -1      1474 5.28566E-02
 -1      1475 3.96611E-02
 -1      1476 3.33629E-02
 -1      1477 3.96611E-02
 -1      1478 2.81079E-02
 -1      1479 2.23236E-02
 -1      1480 2.81079E-02
 -1      1481 1.84008E-02
 -1      1482 1.50072E-02
 -1      1483 1.89300E-02
 -1      1484 1.11249E-02
 -1      1485 7.13914E-03
 -1      1486 1.11249E-02
 -1      1487 5.15654E-03
 -1      1488 5.25999E-03
 -1      1489 3.43081E+00
 -1      1490 8.71260E+00
 -1      1491 8.71260E+00
 -1      1492 2.44408E+00
 -1      1493 2.93744E+00
 -1      1494 2.93744E+00
 -1      1495 1.69923E+00
 -1      1496 2.07166E+00
 -1      1497 2.07166E+00
 -1      1498 1.25298E+00
 -1      1499 1.47611E+00
 -1      1500 1.47611E+00
 -1      1501 1.07005E+00
 -1      1502 1.16151E+00
 -1      1503 1.16151E+00
 -1      1504 9.36254E-01
 -1      1505 1.00315E+00
 -1      1506 1.00315E+00
 -1      1507 8.38825E-01
 -1      1508 8.87540E-01
 -1      1509 8.87540E-01
 -1      1510 7.67814E-01
 -1      1511 8.03319E-01
 -1      1512 8.03319E-01
 -1      1513 7.14553E-01
 -1      1514 7.41183E-01
 -1      1515 7.41183E-01
 -1      1516 7.46862E-01
 -1      1517 7.06826E-01
 -1      1518 7.06826E-01
 -1      1519 8.40825E-01
 -1      1520 7.94626E-01
 -1      1521 7.46862E-01
 -1      1522 9.19865E-01
 -1      1523 8.87024E-01
 -1      1524 8.40825E-01
 -1      1525 9.61851E-01
 -1      1526 9.52706E-01
 -1      1527 9.19865E-01
 -1      1528 1.11883E+00
 -1      1529 1.00393E+00
 -1      1530 9.94787E-01
 -1      1531 1.37398E+00
 -1      1532 1.21635E+00
 -1      1533 1.13439E+00
 -1      1534 1.59174E+00
 -1      1535 1.51604E+00
 -1      1536 1.37398E+00
 -1      1537 1.84057E+00
 -1      1538 1.66743E+00
 -1      1539 1.59174E+00
 -1      1540 2.02634E+00
 -1      1541 2.01370E+00
 -1      1542 1.84057E+00
 -1      1543 2.28670E+00
 -1      1544 2.03898E+00
 -1      1545 2.02634E+00
 -1      1546 3.07235E+00
 -1      1547 2.53442E+00
 -1      1548 2.28670E+00
 -1      1549 4.19769E+00
 -1      1550 3.61027E+00
 -1      1551 3.07235E+00
 -1      1552 5.10716E+00
 -1      1553 4.78511E+00
 -1      1554 4.19769E+00
 -1      1555 5.42921E+00
 -1      1556 5.42921E+00
 -1      1557 5.10716E+00
 -1      1558 4.65945E+00
 -1      1559 5.04433E+00
 -1      1560 5.04433E+00
 -1      1561 2.54370E+00
 -1      1562 3.60157E+00
 -1      1563 3.60157E+00
 -1      1564 1.59009E+00
 -1      1565 2.06689E+00
 -1      1566 2.06689E+00
 -1      1567 1.69402E+00
 -1      1568 1.58990E+00
 -1      1569 1.58990E+00
 -1      1570 1.86198E+00
 -1      1571 1.79834E+00
 -1      1572 1.69402E+00
 -1      1573 1.92561E+00
 -1      1574 1.92561E+00
 -1      1575 1.86198E+00
 -1      1576 1.76639E+00
 -1      1577 1.84600E+00
 -1      1578 1.84600E+00
 -1      1579 1.48630E+00
 -1      1580 1.62634E+00
 -1      1581 1.62634E+00
 -1      1582 1.24001E+00
 -1      1583 1.36315E+00
 -1      1584 1.36315E+00
 -1      1585 9.99868E-01
 -1      1586 1.12665E+00
 -1      1587 1.12665E+00
 -1      1588 7.76439E-01
 -1      1589 8.92008E-01
 -1      1590 9.05437E-01
 -1      1591 5.83134E-01
 -1      1592 6.81069E-01
 -1      1593 7.02207E-01
 -1      1594 4.28212E-01
 -1      1595 5.03694E-01
 -1      1596 5.27397E-01
 -1      1597 3.18799E-01
 -1      1598 3.66081E-01
 -1      1599 3.85826E-01
 -1      1600 2.35836E-01
 -1      1601 2.74869E-01
 -1      1602 2.79766E-01
 -1      1603 1.73278E-01
 -1      1604 2.04557E-01
 -1      1605 2.04557E-01
 -1      1606 1.25209E-01
 -1      1607 1.49701E-01
 -1      1608 1.49701E-01
 -1      1609 8.85406E-02
 -1      1610 1.07352E-01
 -1      1611 1.08267E-01
 -1      1612 6.06251E-02
 -1      1613 7.48314E-02
 -1      1614 7.67005E-02
 -1      1615 4.56868E-02
 -1      1616 5.19728E-02
 -1      1617 5.43390E-02
 -1      1618 3.63248E-02
 -1      1619 4.10058E-02
 -1      1620 4.10058E-02
 -1      1621 2.74312E-02
 -1      1622 3.18780E-02
 -1      1623 3.18780E-02
 -1      1624 1.93278E-02
 -1      1625 2.33795E-02
 -1      1626 2.33795E-02
 -1      1627 1.48461E-02
 -1      1628 1.70870E-02
 -1      1629 1.70870E-02
 -1      1630 7.90218E-03
 -1      1631 1.13741E-02
 -1      1632 1.13741E-02
 -1      1633 5.85925E-03
 -1      1634 2.77420E-03
 -1      1635 3.67811E-03
 -1      1636 3.08654E-03
 -1      1637 3.03504E-03
 -1      1638 3.80074E-03
 -1      1639 3.08654E-03
 -1      1640 3.08654E-03
 -1      1641 4.06158E-03
 -1      1642 2.50492E-03
 -1      1643 2.83546E-03
 -1      1644 3.81050E-03
 -1      1645 1.46397E-03
 -1      1646 1.77541E-03
 -1      1647 2.82990E-03
 -1      1648 2.32163E-03
 -1      1649 2.02379E-03
 -1      1650 2.66020E-03
 -1      1651 2.71375E-03
 -1      1652 2.61060E-03
 -1      1653 3.50900E-03
 -1      1654 2.71375E-03
 -1      1655 2.71375E-03
 -1      1656 3.79797E-03
 -1      1657 2.62388E-03
 -1      1658 2.71322E-03
 -1      1659 3.79744E-03
 -1      1660 2.06932E-03
 -1      1661 2.35433E-03
 -1      1662 3.52736E-03
 -1      1663 1.67620E-03
 -1      1664 1.45523E-03
 -1      1665 2.64371E-03
 -1      1666 2.70471E-03
 -1      1667 2.34759E-03
 -1      1668 2.70101E-03
 -1      1669 3.20948E-03
 -1      1670 3.20948E-03
 -1      1671 3.87716E-03
 -1      1672 3.05263E-03
 -1      1673 3.20948E-03
 -1      1674 4.38193E-03
 -1      1675 4.15852E-03
 -1      1676 3.38149E-03
 -1      1677 4.71080E-03
 -1      1678 6.14113E-03
 -1      1679 2.82646E+01
 -1      1680 2.82646E+01
 -1      1681 3.88263E+01
 -1      1682 2.77800E+01
 -1      1683 4.82567E+01
 -1      1684 4.82567E+01
 -1      1685 2.30761E+01
 -1      1686 3.60321E+01
 -1      1687 1.18155E+01
 -1      1688 1.68584E+01
 -1      1689 1.29399E+01
 -1      1690 1.22587E+01
 -1      1691 1.36211E+01
 -1      1692 1.36211E+01
 -1      1693 1.27292E+01
 -1      1694 1.30485E+01
 -1      1695 1.29824E+01
 -1      1696 1.29824E+01
 -1      1697 1.40863E+01
 -1      1698 1.24243E+01
 -1      1699 2.85798E+01
 -1      1700 1.63064E+01
 -1      1701 4.08531E+01
 -1      1702 4.08531E+01
 -1      1703 3.03898E+01
 -1      1704 3.87205E+01
 -1      1705 2.57137E+01
 -1      1706 2.57137E+01
 -1      1707 2.58001E+01
 -1      1708 2.57137E+01
 -1      1709 2.64040E+01
 -1      1710 2.51432E+01
 -1      1711 3.32869E+01
 -1      1712 3.00866E+01
 -1      1713 3.31505E+01
 -1      1714 3.32869E+01
 -1      1715 1.31396E+01
 -1      1716 2.30768E+01
 -1      1717 1.26551E+01
 -1      1718 1.25762E+01
 -1      1719 1.32973E+01
 -1      1720 1.32973E+01
 -1      1721 1.19248E+01
 -1      1722 1.24824E+01
 -1      1723 1.21822E+01
 -1      1724 1.21822E+01
 -1      1725 1.18725E+01
 -1      1726 1.20274E+01
 -1      1727 1.48469E+01
 -1      1728 1.13003E+01
 -1      1729 3.35889E+01
 -1      1730 1.96956E+01
 -1      1731 4.67524E+01
 -1      1732 4.67524E+01
 -1      1733 2.65840E+01
 -1      1734 3.74689E+01
 -1      1735 2.75738E+01
 -1      1736 2.69830E+01
 -1      1737 1.75899E+01
 -1      1738 3.60321E+01
 -1      1739 5.85925E-03
 -1      1740 5.72104E-03
 -1      1741 2.98804E+01
 -1      1742 3.88263E+01
 -1      1743 2.96742E+01
 -1      1744 1.18155E+01
 -1      1745 1.29399E+01
 -1      1746 1.30485E+01
 -1      1747 1.27292E+01
 -1      1748 1.24243E+01
 -1      1749 1.40863E+01
 -1      1750 2.85798E+01
 -1      1751 3.87205E+01
 -1      1752 3.19118E+01
 -1      1753 2.72357E+01
 -1      1754 2.65787E+01
 -1      1755 2.96043E+01
 -1      1756 3.32869E+01
 -1      1757 2.32132E+01
 -1      1758 1.25762E+01
 -1      1759 1.26551E+01
 -1      1760 1.24824E+01
 -1      1761 1.19248E+01
 -1      1762 1.20274E+01
 -1      1763 1.13003E+01
 -1      1764 1.55767E+01
 -1      1765 3.35889E+01
 -1      1766 3.74689E+01
 -1      1767 2.85844E+01
 -1      1768 9.54283E+00
 -1      1769 1.26481E+00
 -1      1770 1.64444E+00
 -1      1771 2.34246E+00
 -1      1772 4.20691E+00
 -1      1773 1.72648E+00
 -1      1774 8.74004E-01
 -1      1775 9.69411E-01
 -1      1776 7.62017E-01
 -1      1777 8.20864E-01
 -1      1778 7.35439E-01
 -1      1779 6.88388E-01
 -1      1780 7.27008E-01
 -1      1781 6.47290E-01
 -1      1782 6.39808E-01
 -1      1783 6.62944E-01
 -1      1784 5.86837E-01
 -1      1785 6.66297E-01
 -1      1786 6.41443E-01
 -1      1787 5.63029E-01
 -1      1788 7.29384E-01
 -1      1789 6.91288E-01
 -1      1790 5.89655E-01
 -1      1791 8.27391E-01
 -1      1792 7.66181E-01
 -1      1793 6.51443E-01
 -1      1794 9.76678E-01
 -1      1795 8.77830E-01
 -1      1796 7.38679E-01
 -1      1797 1.22410E+00
 -1      1798 1.04615E+00
 -1      1799 8.58589E-01
 -1      1800 1.69197E+00
 -1      1801 1.32880E+00
 -1      1802 1.03276E+00
 -1      1803 2.58626E+00
 -1      1804 1.77058E+00
 -1      1805 1.21606E+00
 -1      1806 8.07937E+00
 -1      1807 3.02111E+00
 -1      1808 1.72951E+00
 -1      1809 2.79759E+00
 -1      1810 5.16490E+00
 -1      1811 2.15288E+00
 -1      1812 2.64624E+00
 -1      1813 2.01302E+00
 -1      1814 3.38249E+00
 -1      1815 2.53009E+00
 -1      1816 1.91325E+00
 -1      1817 1.67472E+00
 -1      1818 1.33623E+00
 -1      1819 1.47609E+00
 -1      1820 1.14653E+00
 -1      1821 9.84090E-01
 -1      1822 1.04787E+00
 -1      1823 9.00960E-01
 -1      1824 7.86827E-01
 -1      1825 7.75047E-01
 -1      1826 7.30084E-01
 -1      1827 6.42261E-01
 -1      1828 6.35173E-01
 -1      1829 5.86718E-01
 -1      1830 5.13052E-01
 -1      1831 5.22886E-01
 -1      1832 4.64260E-01
 -1      1833 4.37944E-01
 -1      1834 4.18551E-01
 -1      1835 4.55502E-01
 -1      1836 4.68768E-01
 -1      1837 3.87318E-01
 -1      1838 4.78931E-01
 -1      1839 4.84799E-01
 -1      1840 4.15038E-01
 -1      1841 4.91954E-01
 -1      1842 5.05938E-01
 -1      1843 4.32356E-01
 -1      1844 5.59487E-01
 -1      1845 6.40298E-01
 -1      1846 4.93061E-01
 -1      1847 6.81001E-01
 -1      1848 7.44219E-01
 -1      1849 5.87313E-01
 -1      1850 7.51984E-01
 -1      1851 7.75570E-01
 -1      1852 6.35780E-01
 -1      1853 7.31051E-01
 -1      1854 7.14501E-01
 -1      1855 5.99026E-01
 -1      1856 6.68970E-01
 -1      1857 6.96472E-01
 -1      1858 5.08976E-01
 -1      1859 7.48149E-01
 -1      1860 7.79071E-01
 -1      1861 5.15121E-01
 -1      1862 9.81756E-01
 -1      1863 1.14992E+00
 -1      1864 7.69482E-01
 -1      1865 1.34779E+00
 -1      1866 1.71027E+00
 -1      1867 1.17004E+00
 -1      1868 1.91000E+00
 -1      1869 2.30429E+00
 -1      1870 1.56765E+00
 -1      1871 2.40034E+00
 -1      1872 2.50291E+00
 -1      1873 1.86342E+00
 -1      1874 2.45823E+00
 -1      1875 2.46960E+00
 -1      1876 1.91479E+00
 -1      1877 2.51294E+00
 -1      1878 2.34811E+00
 -1      1879 1.91346E+00
 -1      1880 2.22117E+00
 -1      1881 1.79281E+00
 -1      1882 1.82985E+00
 -1      1883 1.59834E+00
 -1      1884 1.29517E+00
 -1      1885 1.50843E+00
 -1      1886 1.07921E+00
 -1      1887 9.09640E-01
 -1      1888 1.09799E+00
 -1      1889 7.11584E-01
 -1      1890 7.14837E-01
 -1      1891 6.83974E-01
 -1      1892 7.08375E-01
 -1      1893 6.70201E-01
 -1      1894 4.79455E-01
 -1      1895 7.24887E-01
 -1      1896 7.34683E-01
 -1      1897 5.27677E-01
 -1      1898 7.72272E-01
 -1      1899 7.41737E-01
 -1      1900 6.19952E-01
 -1      1901 7.33321E-01
 -1      1902 6.70882E-01
 -1      1903 6.49127E-01
 -1      1904 6.35872E-01
 -1      1905 5.75802E-01
 -1      1906 6.05701E-01
 -1      1907 5.44944E-01
 -1      1908 5.02069E-01
 -1      1909 5.39832E-01
 -1      1910 4.73044E-01
 -1      1911 4.32754E-01
 -1      1912 4.79948E-01
 -1      1913 3.97328E-01
 -1      1914 3.55278E-01
 -1      1915 4.15497E-01
 -1      1916 3.18691E-01
 -1      1917 2.82398E-01
 -1      1918 3.43485E-01
 -1      1919 2.48268E-01
 -1      1920 2.21301E-01
 -1      1921 2.72768E-01
 -1      1922 1.91537E-01
 -1      1923 1.69370E-01
 -1      1924 2.08875E-01
 -1      1925 1.44688E-01
 -1      1926 1.26473E-01
 -1      1927 1.54430E-01
 -1      1928 1.07775E-01
 -1      1929 9.23519E-02
 -1      1930 1.11050E-01
 -1      1931 7.97354E-02
 -1      1932 7.08563E-02
 -1      1933 7.97354E-02
 -1      1934 6.15294E-02
 -1      1935 5.41095E-02
 -1      1936 5.77920E-02
 -1      1937 4.73328E-02
 -1      1938 4.04355E-02
 -1      1939 4.16884E-02
 -1      1940 3.66774E-02
 -1      1941 3.03792E-02
 -1      1942 3.11536E-02
 -1      1943 2.66375E-02
 -1      1944 2.13824E-02
 -1      1945 2.36537E-02
 -1      1946 1.77692E-02
 -1      1947 1.38464E-02
 -1      1948 1.62988E-02
 -1      1949 1.19099E-02
 -1      1950 8.02755E-03
 -1      1951 6.92608E-03
 -1      1952 1.07490E-02
 -1      1953 1.41953E+00
 -1      1954 1.79196E+00
 -1      1955 1.50076E+00
 -1      1956 1.05005E+00
 -1      1957 1.27318E+00
 -1      1958 9.93481E-01
 -1      1959 8.55084E-01
 -1      1960 9.46551E-01
 -1      1961 7.43624E-01
 -1      1962 7.74245E-01
 -1      1963 8.41141E-01
 -1      1964 6.26179E-01
 -1      1965 7.09074E-01
 -1      1966 7.57789E-01
 -1      1967 5.95780E-01
 -1      1968 6.56461E-01
 -1      1969 6.91966E-01
 -1      1970 5.62216E-01
 -1      1971 6.12429E-01
 -1      1972 6.39060E-01
 -1      1973 5.27707E-01
 -1      1974 6.42224E-01
 -1      1975 6.49951E-01
 -1      1976 5.47828E-01
 -1      1977 7.96617E-01
 -1      1978 7.48853E-01
 -1      1979 6.91979E-01
 -1      1980 9.50910E-01
 -1      1981 9.04711E-01
 -1      1982 9.06702E-01
 -1      1983 1.07509E+00
 -1      1984 1.04225E+00
 -1      1985 1.10614E+00
 -1      1986 1.19753E+00
 -1      1987 1.15545E+00
 -1      1988 1.27784E+00
 -1      1989 1.32208E+00
 -1      1990 1.22455E+00
 -1      1991 1.38522E+00
 -1      1992 1.46414E+00
 -1      1993 1.32208E+00
 -1      1994 1.41224E+00
 -1      1995 1.45597E+00
 -1      1996 1.38028E+00
 -1      1997 1.32838E+00
 -1      1998 1.61738E+00
 -1      1999 1.44424E+00
 -1      2000 1.23278E+00
 -1      2001 1.69790E+00
 -1      2002 1.68526E+00
 -1      2003 1.28894E+00
 -1      2004 2.43008E+00
 -1      2005 2.18236E+00
 -1      2006 1.84128E+00
 -1      2007 3.20666E+00
 -1      2008 2.66873E+00
 -1      2009 2.56440E+00
 -1      2010 3.90143E+00
 -1      2011 3.31401E+00
 -1      2012 2.91040E+00
 -1      2013 4.23394E+00
 -1      2014 3.91189E+00
 -1      2015 3.02820E+00
 -1      2016 3.74081E+00
 -1      2017 4.12569E+00
 -1      2018 2.93042E+00
 -1      2019 2.20653E+00
 -1      2020 3.26441E+00
 -1      2021 2.34577E+00
 -1      2022 1.39138E+00
 -1      2023 1.86819E+00
 -1      2024 1.53102E+00
 -1      2025 1.39310E+00
 -1      2026 1.39329E+00
 -1      2027 1.19459E+00
 -1      2028 1.60545E+00
 -1      2029 1.50113E+00
 -1      2030 1.30452E+00
 -1      2031 1.67636E+00
 -1      2032 1.61272E+00
 -1      2033 1.41983E+00
 -1      2034 1.58646E+00
 -1      2035 1.66606E+00
 -1      2036 1.41681E+00
 -1      2037 1.37811E+00
 -1      2038 1.51815E+00
 -1      2039 1.33822E+00
 -1      2040 1.17960E+00
 -1      2041 1.30275E+00
 -1      2042 1.19456E+00
 -1      2043 9.76525E-01
 -1      2044 1.08988E+00
 -1      2045 1.02948E+00
 -1      2046 7.76311E-01
 -1      2047 8.84170E-01
 -1      2048 8.47399E-01
 -1      2049 5.96346E-01
 -1      2050 6.91716E-01
 -1      2051 6.70450E-01
 -1      2052 4.44667E-01
 -1      2053 5.24107E-01
 -1      2054 5.13615E-01
 -1      2055 3.23696E-01
 -1      2056 3.85826E-01
 -1      2057 3.82536E-01
 -1      2058 2.33516E-01
 -1      2059 2.77445E-01
 -1      2060 2.77445E-01
 -1      2061 1.72561E-01
 -1      2062 2.03840E-01
 -1      2063 2.01519E-01
 -1      2064 1.26124E-01
 -1      2065 1.49701E-01
 -1      2066 1.48984E-01
 -1      2067 9.04097E-02
 -1      2068 1.08267E-01
 -1      2069 1.08267E-01
 -1      2070 6.29913E-02
 -1      2071 7.67005E-02
 -1      2072 7.67005E-02
 -1      2073 4.39815E-02
 -1      2074 5.26338E-02
 -1      2075 5.26338E-02
 -1      2076 3.19849E-02
 -1      2077 3.66659E-02
 -1      2078 3.49607E-02
 -1      2079 2.38888E-02
 -1      2080 2.83356E-02
 -1      2081 2.39957E-02
 -1      2082 1.71030E-02
 -1      2083 2.11547E-02
 -1      2084 1.76123E-02
 -1      2085 1.21406E-02
 -1      2086 1.43815E-02
 -1      2087 1.21567E-02
 -1      2088 6.02448E-03
 -1      2089 9.49644E-03
 -1      2090 6.79097E-03
 -1      2091 3.84335E-03
 -1      2092 4.58374E-03
 -1      2093 4.83482E-03
 -1      2094 4.96838E-03
 -1      2095 4.96838E-03
 -1      2096 5.74161E-03
 -1      2097 4.96838E-03
 -1      2098 4.70754E-03
 -1      2099 5.01098E-03
 -1      2100 5.87517E-03
 -1      2101 3.22668E-03
 -1      2102 3.95619E-03
 -1      2103 4.98051E-03
 -1      2104 4.22315E-03
 -1      2105 3.66333E-03
 -1      2106 4.78962E-03
 -1      2107 5.07059E-03
 -1      2108 4.78161E-03
 -1      2109 5.78474E-03
 -1      2110 5.07059E-03
 -1      2111 5.07059E-03
 -1      2112 6.34320E-03
 -1      2113 5.04840E-03
 -1      2114 5.04893E-03
 -1      2115 6.32154E-03
 -1      2116 4.77884E-03
 -1      2117 5.04840E-03
 -1      2118 6.29988E-03
 -1      2119 3.65861E-03
 -1      2120 4.27270E-03
 -1      2121 5.79374E-03
 -1      2122 3.65190E-03
 -1      2123 2.98050E-03
 -1      2124 4.60950E-03
 -1      2125 4.83720E-03
 -1      2126 4.33243E-03
 -1      2127 4.61193E-03
 -1      2128 5.00777E-03
 -1      2129 5.00777E-03
 -1      2130 5.46303E-03
 -1      2131 3.88263E+01
 -1      2132 2.93958E+01
 -1      2133 3.03650E+01
 -1      2134 2.96742E+01
 -1      2135 2.71458E+01
 -1      2136 2.76304E+01
 -1      2137 2.05698E+01
 -1      2138 3.27944E+01
 -1      2139 1.07097E+01
 -1      2140 1.69273E+01
 -1      2141 1.02922E+00
 -1      2142 1.20468E+00
 -1      2143 9.68327E-01
 -1      2144 8.48388E-01
 -1      2145 1.11627E+01
 -1      2146 1.04815E+01
 -1      2147 1.14604E+01
 -1      2148 1.20330E+01
 -1      2149 1.17788E+01
 -1      2150 1.15256E+01
 -1      2151 1.02706E+01
 -1      2152 1.08286E+01
 -1      2153 1.20885E+01
 -1      2154 9.86846E+00
 -1      2155 2.76539E+01
 -1      2156 1.53805E+01
 -1      2157 3.08085E+01
 -1      2158 3.29411E+01
 -1      2159 2.50310E+01
 -1      2160 2.97072E+01
 -1      2161 3.22594E+01
 -1      2162 3.22594E+01
 -1      2163 3.16025E+01
 -1      2164 3.22594E+01
 -1      2165 2.91681E+01
 -1      2166 2.54856E+01
 -1      2167 2.72877E+01
 -1      2168 2.72877E+01
 -1      2169 1.25443E+01
 -1      2170 2.26180E+01
 -1      2171 9.68020E+00
 -1      2172 1.02436E+01
 -1      2173 1.06971E+01
 -1      2174 1.00548E+01
 -1      2175 7.72219E+00
 -1      2176 1.14420E+01
 -1      2177 1.22569E+01
 -1      2178 1.17448E+01
 -1      2179 1.14874E+01
 -1      2180 1.12620E+01
 -1      2181 1.06742E+01
 -1      2182 1.08290E+01
 -1      2183 9.12037E+00
 -1      2184 9.69261E+00
 -1      2185 1.48034E+01
 -1      2186 9.95469E+00
 -1      2187 3.16098E+01
 -1      2188 1.84463E+01
 -1      2189 2.81853E+01
 -1      2190 3.74689E+01
 -1      2191 2.89594E+01
 -1      2192 2.85603E+01
 -1      2193 9.78135E+00
 -1      2194 9.33816E+00
 -1      2195 1.36895E+01
 -1      2196 2.88503E+00
 -1      2197 8.67550E+00
 -1      2198 8.00418E+00
 -1      2199 2.06956E+00
 -1      2200 2.71458E+01
 -1      2201 3.03650E+01
 -1      2202 3.03650E+01
 -1      2203 2.76304E+01
 -1      2204 5.33663E-03
 -1      2205 2.33639E+01
 -1      2206 2.96502E+01
 -1      2207 2.85603E+01
 -1      2208 2.23262E+01
 -1      2209 1.28243E+01
 -1      2210 8.34703E+00
 -1      2211 1.03916E+01
 -1      2212 9.65671E+00
 -1      2213 9.84121E+00
 -1      2214 9.24597E+00
 -1      2215 6.94521E+00
 -1      2216 1.66188E+01
 -1      2217 2.31690E+01
 -1      2218 3.11663E+01
 -1      2219 3.72832E+01
 -1      2220 3.00548E+01
 -1      2221 2.39277E+01
 -1      2222 1.97419E+01
 -1      2223 1.11627E+01
 -1      2224 8.27268E+00
 -1      2225 9.62501E+00
 -1      2226 1.12610E+01
 -1      2227 8.80264E+00
 -1      2228 9.67287E+00
 -1      2229 1.05100E+01
 -1      2230 8.49430E+00
 -1      2231 1.08193E+00
 -1      2232 1.44285E+00
 -1      2233 5.43507E-01
 -1      2234 5.78516E-01
 -1      2235 5.96787E-01
 -1      2236 6.49927E-01
 -1      2237 4.93004E-01
 -1      2238 4.84083E-01
 -1      2239 4.82449E-01
 -1      2240 5.25562E-01
 -1      2241 5.00571E-01
 -1      2242 4.19991E-01
 -1      2243 5.81399E-01
 -1      2244 5.44602E-01
 -1      2245 4.55518E-01
 -1      2246 6.48042E-01
 -1      2247 5.97603E-01
 -1      2248 4.90762E-01
 -1      2249 7.19397E-01
 -1      2250 6.49926E-01
 -1      2251 5.08850E-01
 -1      2252 8.74142E-01
 -1      2253 7.69443E-01
 -1      2254 5.60780E-01
 -1      2255 8.47125E-01
 -1      2256 9.93481E-01
 -1      2257 9.35572E-01
 -1      2258 1.23271E+00
 -1      2259 9.94175E-01
 -1      2260 6.34872E+00
 -1      2261 7.72021E+00
 -1      2262 9.40601E-01
 -1      2263 7.50907E-01
 -1      2264 6.97211E-01
 -1      2265 6.79582E-01
 -1      2266 5.96451E-01
 -1      2267 5.72312E-01
 -1      2268 5.43466E-01
 -1      2269 4.86722E-01
 -1      2270 4.48001E-01
 -1      2271 4.56867E-01
 -1      2272 4.01324E-01
 -1      2273 3.65160E-01
 -1      2274 3.62291E-01
 -1      2275 3.13499E-01
 -1      2276 2.96272E-01
 -1      2277 3.17533E-01
 -1      2278 3.35091E-01
 -1      2279 2.61273E-01
 -1      2280 3.50231E-01
 -1      2281 3.60394E-01
 -1      2282 2.80446E-01
 -1      2283 4.03659E-01
 -1      2284 4.10814E-01
 -1      2285 3.38852E-01
 -1      2286 4.49519E-01
 -1      2287 5.03068E-01
 -1      2288 4.20822E-01
 -1      2289 5.36399E-01
 -1      2290 5.77102E-01
 -1      2291 4.92858E-01
 -1      2292 6.12316E-01
 -1      2293 6.20081E-01
 -1      2294 5.61403E-01
 -1      2295 6.32694E-01
 -1      2296 5.88175E-01
 -1      2297 6.09230E-01
 -1      2298 6.32081E-01
 -1      2299 5.86550E-01
 -1      2300 6.65749E-01
 -1      2301 6.53608E-01
 -1      2302 7.05285E-01
 -1      2303 7.76714E-01
 -1      2304 7.62472E-01
 -1      2305 9.65157E-01
 -1      2306 9.00960E-01
 -1      2307 1.09318E+00
 -1      2308 1.29105E+00
 -1      2309 1.08617E+00
 -1      2310 1.37724E+00
 -1      2311 1.57697E+00
 -1      2312 1.30037E+00
 -1      2313 1.77758E+00
 -1      2314 1.87362E+00
 -1      2315 1.58717E+00
 -1      2316 1.84980E+00
 -1      2317 1.80512E+00
 -1      2318 1.76396E+00
 -1      2319 1.84511E+00
 -1      2320 1.88845E+00
 -1      2321 1.78011E+00
 -1      2322 1.80580E+00
 -1      2323 1.67885E+00
 -1      2324 1.73745E+00
 -1      2325 1.51512E+00
 -1      2326 1.32065E+00
 -1      2327 1.49107E+00
 -1      2328 1.25053E+00
 -1      2329 1.03456E+00
 -1      2330 1.25722E+00
 -1      2331 8.77863E-01
 -1      2332 6.79806E-01
 -1      2333 1.03039E+00
 -1      2334 6.51985E-01
 -1      2335 6.45522E-01
 -1      2336 8.45874E-01
 -1      2337 5.75147E-01
 -1      2338 6.29833E-01
 -1      2339 7.47677E-01
 -1      2340 6.28615E-01
 -1      2341 6.66205E-01
 -1      2342 6.76085E-01
 -1      2343 6.55745E-01
 -1      2344 6.47330E-01
 -1      2345 6.64408E-01
 -1      2346 6.17841E-01
 -1      2347 5.82831E-01
 -1      2348 6.24460E-01
 -1      2349 5.54734E-01
 -1      2350 5.23876E-01
 -1      2351 5.66875E-01
 -1      2352 4.95354E-01
 -1      2353 4.66329E-01
 -1      2354 5.10257E-01
 -1      2355 4.32943E-01
 -1      2356 3.97517E-01
 -1      2357 4.48349E-01
 -1      2358 3.61862E-01
 -1      2359 3.25276E-01
 -1      2360 3.79308E-01
 -1      2361 2.91049E-01
 -1      2362 2.56919E-01
 -1      2363 3.09426E-01
 -1      2364 2.26238E-01
 -1      2365 1.96474E-01
 -1      2366 2.44519E-01
 -1      2367 1.70304E-01
 -1      2368 1.45622E-01
 -1      2369 1.87667E-01
 -1      2370 1.24158E-01
 -1      2371 1.05460E-01
 -1      2372 1.40032E-01
 -1      2373 8.84409E-02
 -1      2374 7.58244E-02
 -1      2375 1.01549E-01
 -1      2376 6.27441E-02
 -1      2377 5.34172E-02
 -1      2378 7.14496E-02
 -1      2379 4.36765E-02
 -1      2380 3.68998E-02
 -1      2381 4.86286E-02
 -1      2382 2.98935E-02
 -1      2383 2.61354E-02
 -1      2384 3.18815E-02
 -1      2385 2.20372E-02
 -1      2386 1.82955E-02
 -1      2387 2.07772E-02
 -1      2388 1.58685E-02
 -1      2389 1.22553E-02
 -1      2390 1.42520E-02
 -1      2391 5.66645E-01
 -1      2392 5.80587E-01
 -1      2393 5.11145E-01
 -1      2394 5.27602E-01
 -1      2395 4.82010E-01
 -1      2396 4.47771E-01
 -1      2397 4.64878E-01
 -1      2398 3.96700E-01
 -1      2399 4.47093E-01
 -1      2400 4.64494E-01
 -1      2401 3.67157E-01
 -1      2402 5.29759E-01
 -1      2403 4.92236E-01
 -1      2404 4.29024E-01
 -1      2405 7.37220E-01
 -1      2406 6.30591E-01
 -1      2407 5.75000E-01
 -1      2408 9.51811E-01
 -1      2409 8.43716E-01
 -1      2410 7.82329E-01
 -1      2411 1.14718E+00
 -1      2412 1.05584E+00
 -1      2413 9.92852E-01
 -1      2414 1.31430E+00
 -1      2415 1.23394E+00
 -1      2416 1.18364E+00
 -1      2417 1.40273E+00
 -1      2418 1.37570E+00
 -1      2419 1.33181E+00
 -1      2420 1.52856E+00
 -1      2421 1.52856E+00
 -1      2422 1.51905E+00
 -1      2423 1.55025E+00
 -1      2424 1.63411E+00
 -1      2425 1.75044E+00
 -1      2426 1.56833E+00
 -1      2427 1.58006E+00
 -1      2428 1.88580E+00
 -1      2429 1.88476E+00
 -1      2430 1.81688E+00
 -1      2431 2.16416E+00
 -1      2432 2.63822E+00
 -1      2433 2.15376E+00
 -1      2434 2.68171E+00
 -1      2435 3.04650E+00
 -1      2436 2.80785E+00
 -1      2437 3.12033E+00
 -1      2438 3.48488E+00
 -1      2439 3.37754E+00
 -1      2440 3.62099E+00
 -1      2441 4.54378E+00
 -1      2442 4.53332E+00
 -1      2443 5.00047E+00
 -1      2444 3.31982E+00
 -1      2445 3.42807E+00
 -1      2446 4.93319E+00
 -1      2447 2.07206E+00
 -1      2448 2.54846E+00
 -1      2449 3.04611E+00
 -1      2450 1.78639E+00
 -1      2451 2.12473E+00
 -1      2452 2.32743E+00
 -1      2453 1.61171E+00
 -1      2454 1.60980E+00
 -1      2455 2.20351E+00
 -1      2456 1.65727E+00
 -1      2457 1.54925E+00
 -1      2458 1.96446E+00
 -1      2459 1.57973E+00
 -1      2460 1.57245E+00
 -1      2461 1.81717E+00
 -1      2462 1.45190E+00
 -1      2463 1.46219E+00
 -1      2464 1.61481E+00
 -1      2465 1.30810E+00
 -1      2466 1.37640E+00
 -1      2467 1.42178E+00
 -1      2468 1.15979E+00
 -1      2469 1.23515E+00
 -1      2470 1.27334E+00
 -1      2471 9.77921E-01
 -1      2472 1.06764E+00
 -1      2473 1.10824E+00
 -1      2474 7.90992E-01
 -1      2475 8.83347E-01
 -1      2476 9.21513E-01
 -1      2477 6.19168E-01
 -1      2478 7.03763E-01
 -1      2479 7.39710E-01
 -1      2480 4.71561E-01
 -1      2481 5.43801E-01
 -1      2482 5.77113E-01
 -1      2483 3.50416E-01
 -1      2484 4.09256E-01
 -1      2485 4.39442E-01
 -1      2486 2.54300E-01
 -1      2487 3.00550E-01
 -1      2488 3.27270E-01
 -1      2489 1.85725E-01
 -1      2490 2.15401E-01
 -1      2491 2.38505E-01
 -1      2492 1.33189E-01
 -1      2493 1.56048E-01
 -1      2494 1.69930E-01
 -1      2495 9.31602E-02
 -1      2496 1.11017E-01
 -1      2497 1.18082E-01
 -1      2498 6.32437E-02
 -1      2499 7.69530E-02
 -1      2500 7.97035E-02
 -1      2501 4.17256E-02
 -1      2502 5.20831E-02
 -1      2503 5.23355E-02
 -1      2504 2.85456E-02
 -1      2505 3.58612E-02
 -1      2506 3.53105E-02
 -1      2507 2.05538E-02
 -1      2508 2.42032E-02
 -1      2509 2.51037E-02
 -1      2510 1.48782E-02
 -1      2511 1.76123E-02
 -1      2512 1.78197E-02
 -1      2513 1.00060E-02
 -1      2514 1.27275E-02
 -1      2515 1.27275E-02
 -1      2516 7.65516E-03
 -1      2517 6.43452E-03
 -1      2518 5.99787E-03
 -1      2519 7.97820E-03
 -1      2520 7.41973E-03
 -1      2521 8.62798E-03
 -1      2522 8.34744E-03
 -1      2523 8.48099E-03
 -1      2524 7.71990E-03
 -1      2525 8.34744E-03
 -1      2526 1.10868E-02
 -1      2527 9.36480E-03
 -1      2528 8.09699E-03
 -1      2529 8.09699E-03
 -1      2530 9.73198E-03
 -1      2531 8.07533E-03
 -1      2532 8.09699E-03
 -1      2533 9.85077E-03
 -1      2534 8.01464E-03
 -1      2535 8.01464E-03
 -1      2536 9.79009E-03
 -1      2537 7.41092E-03
 -1      2538 7.91706E-03
 -1      2539 9.63182E-03
 -1      2540 5.76169E-03
 -1      2541 6.43979E-03
 -1      2542 8.56311E-03
 -1      2543 6.52154E-03
 -1      2544 5.84101E-03
 -1      2545 7.67130E-03
 -1      2546 6.69211E-03
 -1      2547 6.52154E-03
 -1      2548 7.75062E-03
 -1      2549 1.55057E+01
 -1      2550 2.15377E+01
 -1      2551 6.36111E-01
 -1      2552 7.39613E-01
 -1      2553 5.76577E-01
 -1      2554 7.22305E-03
 -1      2555 2.96502E+01
 -1      2556 2.89354E+01
 -1      2557 2.61557E+01
 -1      2558 2.39057E+01
 -1      2559 1.63269E+00
 -1      2560 1.27775E+00
 -1      2561 7.95833E-01
 -1      2562 9.34669E-01
 -1      2563 2.44858E+01
 -1      2564 2.41108E+01
 -1      2565 4.99266E-01
 -1      2566 5.24709E-01
 -1      2567 4.55936E-01
 -1      2568 4.20321E-01
 -1      2569 9.15721E+00
 -1      2570 9.09200E+00
 -1      2571 6.57439E+00
 -1      2572 7.55598E+00
 -1      2573 7.83683E+00
 -1      2574 8.78705E+00
 -1      2575 5.96958E+00
 -1      2576 6.37169E+00
 -1      2577 1.05613E+01
 -1      2578 7.26922E+00
 -1      2579 5.36822E+00
 -1      2580 1.80535E+01
 -1      2581 1.27664E+01
 -1      2582 2.04813E+01
 -1      2583 2.15826E+01
 -1      2584 1.46071E+01
 -1      2585 3.00548E+01
 -1      2586 2.28264E+01
 -1      2587 3.72832E+01
 -1      2588 3.72832E+01
 -1      2589 2.50494E+01
 -1      2590 3.11663E+01
 -1      2591 1.82796E+01
 -1      2592 2.01600E+01
 -1      2593 2.01600E+01
 -1      2594 1.19695E+01
 -1      2595 1.66393E+01
 -1      2596 5.95292E+00
 -1      2597 5.57828E+00
 -1      2598 8.85945E+00
 -1      2599 7.29957E+00
 -1      2600 9.71837E+00
 -1      2601 9.67298E+00
 -1      2602 8.84656E+00
 -1      2603 9.76229E+00
 -1      2604 6.56374E+00
 -1      2605 5.72943E+00
 -1      2606 1.20524E+01
 -1      2607 8.40942E+00
 -1      2608 2.04626E+01
 -1      2609 1.46036E+01
 -1      2610 1.01887E+01
 -1      2611 6.38391E+00
 -1      2612 5.68373E+00
 -1      2613 4.72844E+00
 -1      2614 1.57376E+00
 -1      2615 1.72510E+00
 -1      2616 1.29025E+00
 -1      2617 1.15493E+00
 -1      2618 9.80078E+00
 -1      2619 1.34433E+01
 -1      2620 7.55052E+00
 -1      2621 8.90334E+00
 -1      2622 8.13139E+00
 -1      2623 5.29685E-01
 -1      2624 6.68337E-01
 -1      2625 7.28147E-01
 -1      2626 7.39613E-01
 -1      2627 1.21165E+00
 -1      2628 7.47399E+00
 -1      2629 2.44858E+01
 -1      2630 1.63881E+01
 -1      2631 2.66403E+01
 -1      2632 8.22601E-03
 -1      2633 8.22601E-03
 -1      2634 1.82976E+01
 -1      2635 1.16170E+01
 -1      2636 2.96502E+01
 -1      2637 6.72400E+00
 -1      2638 4.10640E+00
 -1      2639 5.95208E+00
 -1      2640 6.92665E+00
 -1      2641 9.48336E-01
 -1      2642 8.17330E+00
 -1      2643 7.31584E+00
 -1      2644 5.15566E+00
 -1      2645 1.36303E+01
 -1      2646 3.11663E+01
 -1      2647 5.17594E+00
 -1      2648 6.30628E+00
 -1      2649 9.00938E+00
 -1      2650 9.02985E+00
 -1      2651 2.04813E+01
 -1      2652 1.08105E+01
 -1      2653 6.91704E+00
 -1      2654 9.12210E+00
 -1      2655 5.53373E+00
 -1      2656 8.74539E-01
 -1      2657 4.79110E+00
 -1      2658 7.36903E+00
 -1      2659 7.47491E+00
 -1      2660 7.37664E+00
 -1      2661 5.05618E+00
 -1      2662 3.00548E+01
 -1      2663 8.81250E-03
 -1      2664 7.22305E-03
 -1      2665 8.28156E-03
 -1      2666 1.07490E-02
 -1      2667 1.08318E-02
 -1      2668 1.03187E-02
 -1      2669 4.08300E-01
 -1      2670 3.89260E-01
 -1      2671 3.75017E-01
 -1      2672 3.58530E-01
 -1      2673 3.27799E-01
 -1      2674 4.35417E-01
 -1      2675 4.33532E-01
 -1      2676 4.81007E-01
 -1      2677 4.30961E-01
 -1      2678 3.55643E-01
 -1      2679 6.71826E-01
 -1      2680 7.60272E-01
 -1      2681 6.81716E+00
 -1      2682 6.77324E+00
 -1      2683 2.20278E+01
 -1      2684 1.75782E+01
 -1      2685 1.56408E+01
 -1      2686 1.19926E+01
 -1      2687 4.79314E-01
 -1      2688 4.07988E-01
 -1      2689 3.83689E-01
 -1      2690 3.30703E-01
 -1      2691 2.90691E-01
 -1      2692 2.93833E-01
 -1      2693 2.63978E-01
 -1      2694 2.29521E-01
 -1      2695 2.42002E-01
 -1      2696 2.02969E-01
 -1      2697 1.70675E-01
 -1      2698 2.02951E-01
 -1      2699 2.06985E-01
 -1      2700 1.48681E-01
 -1      2701 2.54370E-01
 -1      2702 2.69510E-01
 -1      2703 1.96048E-01
 -1      2704 3.20155E-01
 -1      2705 3.63420E-01
 -1      2706 2.94078E-01
 -1      2707 4.13386E-01
 -1      2708 4.52091E-01
 -1      2709 3.94689E-01
 -1      2710 4.95939E-01
 -1      2711 5.29270E-01
 -1      2712 4.88503E-01
 -1      2713 5.89929E-01
 -1      2714 6.25144E-01
 -1      2715 5.93011E-01
 -1      2716 6.91527E-01
 -1      2717 7.04140E-01
 -1      2718 7.20054E-01
 -1      2719 7.56694E-01
 -1      2720 8.00601E-01
 -1      2721 8.38992E-01
 -1      2722 8.93137E-01
 -1      2723 9.60196E-01
 -1      2724 9.84082E-01
 -1      2725 1.10017E+00
 -1      2726 1.15735E+00
 -1      2727 1.21659E+00
 -1      2728 1.16726E+00
 -1      2729 1.29528E+00
 -1      2730 1.36646E+00
 -1      2731 1.44999E+00
 -1      2732 1.53618E+00
 -1      2733 1.53108E+00
 -1      2734 1.79961E+00
 -1      2735 2.00022E+00
 -1      2736 1.94923E+00
 -1      2737 2.62142E+00
 -1      2738 2.59759E+00
 -1      2739 2.83385E+00
 -1      2740 2.19120E+00
 -1      2741 2.23118E+00
 -1      2742 3.04866E+00
 -1      2743 2.12515E+00
 -1      2744 2.04250E+00
 -1      2745 2.53624E+00
 -1      2746 1.65480E+00
 -1      2747 1.49107E+00
 -1      2748 2.04250E+00
 -1      2749 1.53121E+00
 -1      2750 1.46109E+00
 -1      2751 1.69494E+00
 -1      2752 1.29731E+00
 -1      2753 1.14061E+00
 -1      2754 1.57130E+00
 -1      2755 1.09162E+00
 -1      2756 1.06380E+00
 -1      2757 1.35854E+00
 -1      2758 9.19416E-01
 -1      2759 8.49041E-01
 -1      2760 1.16516E+00
 -1      2761 7.96173E-01
 -1      2762 7.94956E-01
 -1      2763 9.67912E-01
 -1      2764 7.44405E-01
 -1      2765 7.33945E-01
 -1      2766 8.64493E-01
 -1      2767 6.73763E-01
 -1      2768 6.44275E-01
 -1      2769 7.53760E-01
 -1      2770 5.94971E-01
 -1      2771 5.66875E-01
 -1      2772 6.44275E-01
 -1      2773 5.31627E-01
 -1      2774 5.03104E-01
 -1      2775 5.59723E-01
 -1      2776 4.62421E-01
 -1      2777 4.29036E-01
 -1      2778 4.83791E-01
 -1      2779 3.89886E-01
 -1      2780 3.54231E-01
 -1      2781 4.03958E-01
 -1      2782 3.18312E-01
 -1      2783 2.84085E-01
 -1      2784 3.28890E-01
 -1      2785 2.52560E-01
 -1      2786 2.21879E-01
 -1      2787 2.61446E-01
 -1      2788 1.95192E-01
 -1      2789 1.69021E-01
 -1      2790 2.03233E-01
 -1      2791 1.47089E-01
 -1      2792 1.25625E-01
 -1      2793 1.54614E-01
 -1      2794 1.08065E-01
 -1      2795 9.10451E-02
 -1      2796 1.15121E-01
 -1      2797 7.73233E-02
 -1      2798 6.42431E-02
 -1      2799 8.38386E-02
 -1      2800 5.37774E-02
 -1      2801 4.40367E-02
 -1      2802 5.96512E-02
 -1      2803 3.62497E-02
 -1      2804 2.92434E-02
 -1      2805 4.13985E-02
 -1      2806 2.36135E-02
 -1      2807 1.95153E-02
 -1      2808 2.79816E-02
 -1      2809 1.47778E-02
 -1      2810 1.23508E-02
 -1      2811 1.76141E-02
 -1      2812 2.79046E-01
 -1      2813 3.25313E-01
 -1      2814 1.34676E-02
 -1      2815 1.32126E-02
 -1      2816 1.53633E-02
 -1      2817 3.55278E-01
 -1      2818 3.94321E-01
 -1      2819 2.37624E-01
 -1      2820 4.15113E-01
 -1      2821 3.69969E-01
 -1      2822 6.03081E-01
 -1      2823 5.02249E-01
 -1      2824 4.43194E-01
 -1      2825 8.10655E-01
 -1      2826 7.04159E-01
 -1      2827 6.31407E-01
 -1      2828 1.02979E+00
 -1      2829 9.25764E-01
 -1      2830 8.47594E-01
 -1      2831 1.24439E+00
 -1      2832 1.15763E+00
 -1      2833 1.09054E+00
 -1      2834 1.44054E+00
 -1      2835 1.37913E+00
 -1      2836 1.35312E+00
 -1      2837 1.69418E+00
 -1      2838 1.56834E+00
 -1      2839 1.61566E+00
 -1      2840 2.01907E+00
 -1      2841 1.91352E+00
 -1      2842 1.96281E+00
 -1      2843 2.34860E+00
 -1      2844 2.31879E+00
 -1      2845 2.48187E+00
 -1      2846 2.86688E+00
 -1      2847 2.61833E+00
 -1      2848 3.05132E+00
 -1      2849 3.22002E+00
 -1      2850 2.95102E+00
 -1      2851 3.40519E+00
 -1      2852 3.95203E+00
 -1      2853 3.62099E+00
 -1      2854 5.41125E+00
 -1      2855 4.36281E+00
 -1      2856 4.93319E+00
 -1      2857 6.04891E+00
 -1      2858 2.58123E+00
 -1      2859 2.52856E+00
 -1      2860 2.71427E+00
 -1      2861 2.89086E+00
 -1      2862 3.09200E+00
 -1      2863 2.42535E+00
 -1      2864 2.48782E+00
 -1      2865 3.17517E+00
 -1      2866 2.04827E+00
 -1      2867 2.13310E+00
 -1      2868 2.65646E+00
 -1      2869 1.66664E+00
 -1      2870 1.78418E+00
 -1      2871 2.10010E+00
 -1      2872 1.47172E+00
 -1      2873 1.54722E+00
 -1      2874 1.71658E+00
 -1      2875 1.27018E+00
 -1      2876 1.34313E+00
 -1      2877 1.46857E+00
 -1      2878 1.05594E+00
 -1      2879 1.14809E+00
 -1      2880 1.21788E+00
 -1      2881 8.52836E-01
 -1      2882 9.47410E-01
 -1      2883 9.87261E-01
 -1      2884 6.72751E-01
 -1      2885 7.59980E-01
 -1      2886 7.85877E-01
 -1      2887 5.19970E-01
 -1      2888 5.95337E-01
 -1      2889 6.15608E-01
 -1      2890 3.94415E-01
 -1      2891 4.56720E-01
 -1      2892 4.74944E-01
 -1      2893 2.93766E-01
 -1      2894 3.43632E-01
 -1      2895 3.60911E-01
 -1      2896 2.14751E-01
 -1      2897 2.53650E-01
 -1      2898 2.70012E-01
 -1      2899 1.53880E-01
 -1      2900 1.83557E-01
 -1      2901 1.98702E-01
 -1      2902 1.07837E-01
 -1      2903 1.30008E-01
 -1      2904 1.43635E-01
 -1      2905 7.36642E-02
 -1      2906 8.98715E-02
 -1      2907 1.01797E-01
 -1      2908 4.92327E-02
 -1      2909 6.03933E-02
 -1      2910 7.05613E-02
 -1      2911 3.37723E-02
 -1      2912 3.96367E-02
 -1      2913 4.76945E-02
 -1      2914 2.24747E-02
 -1      2915 2.68171E-02
 -1      2916 3.11433E-02
 -1      2917 1.55064E-02
 -1      2918 1.84479E-02
 -1      2919 2.01614E-02
 -1      2920 1.59914E-02
 -1      2921 1.23074E-02
 -1      2922 1.23074E-02
 -1      2923 9.78779E-03
 -1      2924 8.28156E-03
 -1      2925 1.03136E-02
 -1      2926 1.16511E-02
 -1      2927 1.06659E-02
 -1      2928 1.21287E-02
 -1      2929 1.21894E-02
 -1      2930 1.46460E-02
 -1      2931 1.23074E-02
 -1      2932 1.21886E-02
 -1      2933 1.42265E-02
 -1      2934 1.47640E-02
 -1      2935 4.35005E-01
 -1      2936 4.90529E-01
 -1      2937 3.08273E-01
 -1      2938 3.73066E+00
 -1      2939 4.39565E+00
 -1      2940 1.20311E-02
 -1      2941 1.21287E-02
 -1      2942 1.45280E-02
 -1      2943 1.05514E-02
 -1      2944 1.15225E-02
 -1      2945 1.40194E-02
 -1      2946 9.05713E-03
 -1      2947 8.97781E-03
 -1      2948 1.19372E-02
 -1      2949 8.33483E+00
 -1      2950 1.03973E+01
 -1      2951 1.25131E+01
 -1      2952 1.71312E+01
 -1      2953 9.23093E+00
 -1      2954 6.94488E-01
 -1      2955 6.49440E-01
 -1      2956 2.02377E+01
 -1      2957 2.63546E+01
 -1      2958 3.67927E+00
 -1      2959 5.14442E+00
 -1      2960 2.98109E-01
 -1      2961 2.81385E-01
 -1      2962 2.09998E-01
 -1      2963 2.84198E-01
 -1      2964 5.56807E-01
 -1      2965 5.03233E-01
 -1      2966 3.38910E-01
 -1      2967 4.55463E-01
 -1      2968 5.73848E+00
 -1      2969 7.81905E+00
 -1      2970 4.74070E+00
 -1      2971 4.33532E-01
 -1      2972 4.17328E-01
 -1      2973 3.51071E-01
 -1      2974 3.60099E-01
 -1      2975 5.35514E-01
 -1      2976 6.43027E-01
 -1      2977 4.67727E-01
 -1      2978 3.93943E-01
 -1      2979 2.00200E+01
 -1      2980 2.37447E+01
 -1      2981 3.42242E+00
 -1      2982 4.26738E+00
 -1      2983 4.16118E-01
 -1      2984 4.34388E-01
 -1      2985 8.17422E-01
 -1      2986 7.28147E-01
 -1      2987 4.80928E+00
 -1      2988 3.50965E+00
 -1      2989 1.45324E+01
 -1      2990 1.10033E+01
 -1      2991 7.75062E-03
 -1      2992 4.11731E+00
 -1      2993 5.48424E+00
 -1      2994 1.33061E+01
 -1      2995 1.81955E+01
 -1      2996 1.93167E+01
 -1      2997 1.69716E+01
 -1      2998 1.08174E+01
 -1      2999 1.24577E+01
 -1      3000 4.77910E+00
 -1      3001 3.43246E+00
 -1      3002 6.44913E+00
 -1      3003 5.63559E+00
 -1      3004 2.32868E+01
 -1      3005 2.25720E+01
 -1      3006 1.56644E+01
 -1      3007 1.66665E+01
 -1      3008 5.88623E+00
 -1      3009 6.25638E+00
 -1      3010 5.35498E+00
 -1      3011 6.64557E+00
 -1      3012 3.98630E+00
 -1      3013 9.39377E+00
 -1      3014 6.84253E+00
 -1      3015 8.64642E+00
 -1      3016 2.65121E+01
 -1      3017 1.92837E+01
 -1      3018 4.57934E-01
 -1      3019 4.76345E-01
 -1      3020 3.81048E-01
 -1      3021 3.13949E-01
 -1      3022 3.58923E-01
 -1      3023 3.75740E-01
 -1      3024 1.69802E+01
 -1      3025 1.40846E+01
 -1      3026 1.11958E+01
 -1      3027 5.09299E+00
 -1      3028 1.25682E+01
 -1      3029 1.50262E+01
 -1      3030 1.06307E+01
 -1      3031 1.57739E+01
 -1      3032 1.47687E-02
 -1      3033 1.17456E-02
 -1      3034 1.34676E-02
 -1      3035 6.06772E+00
 -1      3036 2.95070E+00
 -1      3037 3.22002E+00
 -1      3038 3.28996E+00
 -1      3039 3.12033E+00
 -1      3040 2.95498E+00
 -1      3041 3.72634E+00
 -1      3042 5.24765E+00
 -1      3043 1.34676E-02
 -1      3044 3.84933E+00
 -1      3045 3.51653E+00
 -1      3046 5.21905E+00
 -1      3047 3.49584E+00
 -1      3048 4.35233E+00
 -1      3049 6.59932E+00
 -1      3050 7.75062E-03
 -1      3051 8.70632E+00
 -1      3052 7.53366E+00
 -1      3053 5.74615E+00
 -1      3054 5.53676E-01
 -1      3055 4.23857E-01
 -1      3056 6.18399E+00
 -1      3057 4.49857E+00
 -1      3058 5.38902E+00
 -1      3059 3.12033E+00
 -1      3060 1.33839E+01
 -1      3061 3.58639E+00
 -1      3062 3.42613E+00
 -1      3063 2.90241E+00
 -1      3064 1.55835E+01
 -1      3065 3.89756E-01
 -1      3066 4.08553E-01
 -1      3067 3.49938E-01
 -1      3068 3.28358E-01
 -1      3069 3.62099E+00
 -1      3070 5.47545E+00
 -1      3071 6.70538E+00
 -1      3072 8.76568E+00
 -1      3073 6.80980E+00
 -1      3074 8.69098E+00
 -1      3075 1.04932E+01
 -1      3076 5.48096E-01
 -1      3077 6.70538E+00
 -1      3078 1.33678E+01
 -1      3079 4.84205E+00
 -1      3080 5.92005E+00
 -1      3081 4.06147E+00
 -1      3082 4.33079E+00
 -1      3083 6.16923E+00
 -1      3084 3.36554E+00
 -1      3085 3.67384E+00
 -1      3086 2.98899E+00
 -1      3087 5.24550E+00
 -1      3088 3.20878E+00
 -1      3089 8.17585E-03
 -1      3090 8.17585E-03
 -1      3091 9.48236E-03
 -1      3092 1.07388E-02
 -1      3093 3.01823E-01
 -1      3094 3.06279E-01
 -1      3095 1.92477E-01
 -1      3096 1.55607E-01
 -1      3097 1.55713E-01
 -1      3098 1.33736E-01
 -1      3099 1.18668E-01
 -1      3100 1.55769E-01
 -1      3101 1.55752E-01
 -1      3102 1.40807E-01
 -1      3103 1.85796E-01
 -1      3104 2.33180E-01
 -1      3105 1.92884E-01
 -1      3106 2.69751E-01
 -1      3107 3.20396E-01
 -1      3108 2.59499E-01
 -1      3109 3.78650E-01
 -1      3110 4.28615E-01
 -1      3111 3.54323E-01
 -1      3112 4.96058E-01
 -1      3113 5.39907E-01
 -1      3114 4.80019E-01
 -1      3115 6.12035E-01
 -1      3116 6.72694E-01
 -1      3117 6.19591E-01
 -1      3118 7.51174E-01
 -1      3119 8.17557E-01
 -1      3120 7.70198E-01
 -1      3121 9.40715E-01
 -1      3122 9.93269E-01
 -1      3123 9.71835E-01
 -1      3124 1.12344E+00
 -1      3125 1.21598E+00
 -1      3126 1.22517E+00
 -1      3127 1.31984E+00
 -1      3128 1.45981E+00
 -1      3129 1.45920E+00
 -1      3130 1.80251E+00
 -1      3131 1.81241E+00
 -1      3132 1.90576E+00
 -1      3133 1.54562E+00
 -1      3134 1.70034E+00
 -1      3135 1.98168E+00
 -1      3136 2.18720E+00
 -1      3137 2.45063E+00
 -1      3138 2.20174E+00
 -1      3139 3.07423E+00
 -1      3140 3.69542E+00
 -1      3141 3.43785E+00
 -1      3142 3.33182E+00
 -1      3143 2.48812E+00
 -1      3144 2.10042E+00
 -1      3145 3.38974E+00
 -1      3146 2.02354E+00
 -1      3147 2.06368E+00
 -1      3148 2.46916E+00
 -1      3149 1.83751E+00
 -1      3150 1.67373E+00
 -1      3151 2.16610E+00
 -1      3152 1.52147E+00
 -1      3153 1.47249E+00
 -1      3154 1.78768E+00
 -1      3155 1.45576E+00
 -1      3156 1.31137E+00
 -1      3157 1.61870E+00
 -1      3158 1.18845E+00
 -1      3159 1.13558E+00
 -1      3160 1.47904E+00
 -1      3161 1.00785E+00
 -1      3162 9.57300E-01
 -1      3163 1.22838E+00
 -1      3164 8.41171E-01
 -1      3165 7.80989E-01
 -1      3166 9.84529E-01
 -1      3167 7.15191E-01
 -1      3168 6.65888E-01
 -1      3169 8.02602E-01
 -1      3170 6.01989E-01
 -1      3171 5.66741E-01
 -1      3172 6.72905E-01
 -1      3173 5.11519E-01
 -1      3174 4.70836E-01
 -1      3175 5.53785E-01
 -1      3176 4.20918E-01
 -1      3177 3.81769E-01
 -1      3178 4.48646E-01
 -1      3179 3.38571E-01
 -1      3180 3.02653E-01
 -1      3181 3.55531E-01
 -1      3182 2.66569E-01
 -1      3183 2.35043E-01
 -1      3184 2.76250E-01
 -1      3185 2.07072E-01
 -1      3186 1.80384E-01
 -1      3187 2.12194E-01
 -1      3188 1.57957E-01
 -1      3189 1.36025E-01
 -1      3190 1.61796E-01
 -1      3191 1.17814E-01
 -1      3192 1.00254E-01
 -1      3193 1.21158E-01
 -1      3194 8.62225E-02
 -1      3195 7.25008E-02
 -1      3196 8.89160E-02
 -1      3197 6.17712E-02
 -1      3198 5.13056E-02
 -1      3199 6.41551E-02
 -1      3200 4.34272E-02
 -1      3201 3.56402E-02
 -1      3202 4.55472E-02
 -1      3203 2.98353E-02
 -1      3204 2.42054E-02
 -1      3205 3.18639E-02
 -1      3206 1.85707E-02
 -1      3207 1.38332E-02
 -1      3208 1.16955E-02
 -1      3209 2.04245E-02
 -1      3210 1.64839E-01
 -1      3211 1.94804E-01
 -1      3212 6.60072E-01
 -1      3213 5.58995E-01
 -1      3214 4.74237E-01
 -1      3215 3.87101E-01
 -1      3216 5.02902E-01
 -1      3217 1.13963E+00
 -1      3218 1.01180E+00
 -1      3219 1.44761E+00
 -1      3220 1.31287E+00
 -1      3221 1.23413E+00
 -1      3222 1.83025E+00
 -1      3223 1.70245E+00
 -1      3224 1.66220E+00
 -1      3225 2.38729E+00
 -1      3226 2.16795E+00
 -1      3227 2.25473E+00
 -1      3228 3.07992E+00
 -1      3229 2.78020E+00
 -1      3230 2.98534E+00
 -1      3231 3.82533E+00
 -1      3232 3.55559E+00
 -1      3233 3.85392E+00
 -1      3234 3.48933E+00
 -1      3235 3.40519E+00
 -1      3236 3.90947E+00
 -1      3237 4.33079E+00
 -1      3238 4.36281E+00
 -1      3239 4.80135E+00
 -1      3240 5.62339E+00
 -1      3241 4.15431E+00
 -1      3242 3.84468E+00
 -1      3243 2.20692E+00
 -1      3244 2.47102E+00
 -1      3245 1.85190E+00
 -1      3246 1.97132E+00
 -1      3247 2.34224E+00
 -1      3248 1.45431E+00
 -1      3249 1.58290E+00
 -1      3250 1.83764E+00
 -1      3251 1.14980E+00
 -1      3252 1.27189E+00
 -1      3253 1.38622E+00
 -1      3254 9.12835E-01
 -1      3255 1.02136E+00
 -1      3256 1.07537E+00
 -1      3257 7.20675E-01
 -1      3258 8.13530E-01
 -1      3259 8.47633E-01
 -1      3260 5.57777E-01
 -1      3261 6.35190E-01
 -1      3262 6.62844E-01
 -1      3263 4.24121E-01
 -1      3264 4.87371E-01
 -1      3265 5.06954E-01
 -1      3266 3.17049E-01
 -1      3267 3.67832E-01
 -1      3268 3.80259E-01
 -1      3269 2.32919E-01
 -1      3270 2.73036E-01
 -1      3271 2.79957E-01
 -1      3272 1.69537E-01
 -1      3273 2.00731E-01
 -1      3274 2.03755E-01
 -1      3275 1.22971E-01
 -1      3276 1.46844E-01
 -1      3277 1.48874E-01
 -1      3278 8.75817E-02
 -1      3279 1.05547E-01
 -1      3280 1.08756E-01
 -1      3281 6.11123E-02
 -1      3282 7.43832E-02
 -1      3283 7.81327E-02
 -1      3284 4.16846E-02
 -1      3285 5.12806E-02
 -1      3286 5.51024E-02
 -1      3287 2.73134E-02
 -1      3288 3.42685E-02
 -1      3289 3.78546E-02
 -1      3290 3.00626E-01
 -1      3291 2.86383E-01
 -1      3292 2.14368E-01
 -1      3293 2.55052E-01
 -1      3294 1.41583E-01
 -1      3295 1.73532E-02
 -1      3296 1.74712E-02
 -1      3297 1.46067E-02
 -1      3298 1.61802E-02
 -1      3299 1.78252E-02
 -1      3300 1.78252E-02
 -1      3301 2.06504E-02
 -1      3302 6.33210E+00
 -1      3303 8.44792E+00
 -1      3304 4.52123E+00
 -1      3305 4.19712E+00
 -1      3306 1.73166E-02
 -1      3307 1.78252E-02
 -1      3308 2.11224E-02
 -1      3309 1.99860E-02
 -1      3310 1.04631E+01
 -1      3311 1.25054E+01
 -1      3312 2.83058E+00
 -1      3313 3.12284E+00
 -1      3314 2.93740E+00
 -1      3315 3.38519E+00
 -1      3316 3.61164E+00
 -1      3317 4.36433E+00
 -1      3318 3.55931E+00
 -1      3319 1.58483E-02
 -1      3320 8.83154E-01
 -1      3321 7.68045E-01
 -1      3322 6.95632E-01
 -1      3323 9.32248E-01
 -1      3324 3.09011E+00
 -1      3325 2.29967E-01
 -1      3326 2.05667E-01
 -1      3327 1.31753E-01
 -1      3328 1.28994E+01
 -1      3329 1.30568E+01
 -1      3330 1.30568E+01
 -1      3331 1.30898E+01
 -1      3332 1.03727E+01
 -1      3333 8.50260E+00
 -1      3334 9.35107E+00
 -1      3335 4.76345E-01
 -1      3336 3.73406E-01
 -1      3337 3.00737E-01
 -1      3338 2.51373E-01
 -1      3339 3.44608E-01
 -1      3340 4.65367E+00
 -1      3341 4.82527E+00
 -1      3342 5.49527E+00
 -1      3343 6.01105E+00
 -1      3344 2.89870E+00
 -1      3345 3.98630E+00
 -1      3346 9.48966E+00
 -1      3347 6.89080E+00
 -1      3348 1.21931E+01
 -1      3349 9.75393E+00
 -1      3350 2.75913E-01
 -1      3351 2.76306E-01
 -1      3352 2.48739E-01
 -1      3353 8.48874E+00
 -1      3354 8.33776E+00
 -1      3355 5.58992E+00
 -1      3356 3.31220E+00
 -1      3357 1.09821E+01
 -1      3358 8.43007E+00
 -1      3359 1.60288E-02
 -1      3360 1.71085E-02
 -1      3361 3.92940E+00
 -1      3362 3.17741E-01
 -1      3363 3.41287E-01
 -1      3364 3.20404E-01
 -1      3365 2.96485E-01
 -1      3366 2.11461E-01
 -1      3367 3.54021E+00
 -1      3368 3.13382E+00
 -1      3369 2.05161E-02
 -1      3370 1.78089E-02
 -1      3371 1.78089E-02
 -1      3372 3.83712E-01
 -1      3373 4.43295E+00
 -1      3374 1.34504E+01
 -1      3375 1.29925E+01
 -1      3376 3.51634E-01
 -1      3377 3.20592E-01
 -1      3378 2.48731E-01
 -1      3379 8.47258E+00
 -1      3380 2.35262E-02
 -1      3381 2.66514E-02
 -1      3382 1.94993E-02
 -1      3383 3.06090E-01
 -1      3384 2.64674E-01
 -1      3385 3.15119E-01
 -1      3386 1.78089E-02
 -1      3387 1.72714E-02
 -1      3388 1.96113E-02
 -1      3389 2.08539E-02
 -1      3390 2.61299E-01
 -1      3391 3.15119E-01
 -1      3392 3.15119E-01
 -1      3393 8.87509E+00
 -1      3394 3.78058E+00
 -1      3395 8.34007E+00
 -1      3396 1.12608E+01
 -1      3397 8.73412E+00
 -1      3398 7.29013E+00
 -1      3399 6.14804E+00
 -1      3400 5.17909E+00
 -1      3401 2.87225E+00
 -1      3402 5.46839E+00
 -1      3403 4.68538E+00
 -1      3404 6.23226E+00
 -1      3405 5.29986E+00
 -1      3406 3.61171E+00
 -1      3407 3.98745E+00
 -1      3408 2.85994E+00
 -1      3409 4.17327E+00
 -1      3410 3.94136E+00
 -1      3411 3.26109E+00
 -1      3412 1.69718E-02
 -1      3413 1.69718E-02
 -1      3414 1.71149E-02
 -1      3415 1.82319E-02
 -1      3416 9.30202E+00
 -1      3417 1.23418E+01
 -1      3418 8.66784E+00
 -1      3419 1.14522E-02
 -1      3420 1.23335E-02
 -1      3421 1.65766E-02
 -1      3422 1.45466E-02
 -1      3423 8.13222E+00
 -1      3424 5.89461E+00
 -1      3425 6.95756E+00
 -1      3426 1.99173E-01
 -1      3427 1.96834E-01
 -1      3428 2.35567E-01
 -1      3429 5.81281E+00
 -1      3430 9.47601E+00
 -1      3431 1.54014E-01
 -1      3432 2.90241E+00
 -1      3433 2.67445E-01
 -1      3434 3.12431E-01
 -1      3435 2.18110E-01
 -1      3436 1.73540E-01
 -1      3437 1.29925E+01
 -1      3438 1.24483E+01
 -1      3439 8.31021E+00
 -1      3440 9.77643E+00
 -1      3441 3.08476E-01
 -1      3442 3.16040E-01
 -1      3443 2.76278E-01
 -1      3444 2.77979E-01
 -1      3445 3.41287E-01
 -1      3446 1.50260E-01
 -1      3447 1.72293E-01
 -1      3448 1.99529E-01
 -1      3449 2.29573E-01
 -1      3450 2.08982E-01
 -1      3451 2.64794E-01
 -1      3452 3.01365E-01
 -1      3453 2.71439E-01
 -1      3454 3.55589E-01
 -1      3455 4.13843E-01
 -1      3456 3.60885E-01
 -1      3457 4.77329E-01
 -1      3458 5.44772E-01
 -1      3459 4.78596E-01
 -1      3460 6.19679E-01
 -1      3461 6.91808E-01
 -1      3462 6.16989E-01
 -1      3463 8.18572E-01
 -1      3464 8.97052E-01
 -1      3465 8.18661E-01
 -1      3466 1.03977E+00
 -1      3467 1.16292E+00
 -1      3468 1.08814E+00
 -1      3469 1.29903E+00
 -1      3470 1.42921E+00
 -1      3471 1.36697E+00
 -1      3472 1.70220E+00
 -1      3473 1.80606E+00
 -1      3474 1.77607E+00
 -1      3475 2.38510E+00
 -1      3476 2.72780E+00
 -1      3477 2.62810E+00
 -1      3478 2.25635E+00
 -1      3479 2.74321E+00
 -1      3480 6.42656E+00
 -1      3481 8.01263E+00
 -1      3482 2.72237E+00
 -1      3483 2.64549E+00
 -1      3484 3.00417E+00
 -1      3485 2.77800E+00
 -1      3486 1.89306E+00
 -1      3487 1.87633E+00
 -1      3488 1.85611E+00
 -1      3489 1.73318E+00
 -1      3490 2.13047E+00
 -1      3491 1.43058E+00
 -1      3492 1.30286E+00
 -1      3493 1.80765E+00
 -1      3494 1.16170E+00
 -1      3495 1.04557E+00
 -1      3496 1.36390E+00
 -1      3497 9.11002E-01
 -1      3498 8.45204E-01
 -1      3499 1.08817E+00
 -1      3500 7.29928E-01
 -1      3501 6.66030E-01
 -1      3502 8.38328E-01
 -1      3503 5.91032E-01
 -1      3504 5.35810E-01
 -1      3505 6.48055E-01
 -1      3506 4.79019E-01
 -1      3507 4.29102E-01
 -1      3508 5.16266E-01
 -1      3509 3.88676E-01
 -1      3510 3.45478E-01
 -1      3511 4.19049E-01
 -1      3512 3.08525E-01
 -1      3513 2.72441E-01
 -1      3514 3.41669E-01
 -1      3515 2.39784E-01
 -1      3516 2.11813E-01
 -1      3517 2.72059E-01
 -1      3518 1.84072E-01
 -1      3519 1.61645E-01
 -1      3520 2.11662E-01
 -1      3521 1.38788E-01
 -1      3522 1.20577E-01
 -1      3523 1.61064E-01
 -1      3524 1.02222E-01
 -1      3525 8.81910E-02
 -1      3526 1.19852E-01
 -1      3527 7.38001E-02
 -1      3528 6.30705E-02
 -1      3529 8.71063E-02
 -1      3530 5.20428E-02
 -1      3531 4.41644E-02
 -1      3532 6.16877E-02
 -1      3533 3.62735E-02
 -1      3534 3.04686E-02
 -1      3535 4.27691E-02
 -1      3536 8.37713E+00
 -1      3537 8.37713E+00
 -1      3538 5.78016E-01
 -1      3539 4.93258E-01
 -1      3540 4.97136E+00
 -1      3541 1.89312E+00
 -1      3542 1.63829E+00
 -1      3543 1.40344E+00
 -1      3544 1.23021E+00
 -1      3545 1.63437E+00
 -1      3546 3.77178E+00
 -1      3547 3.37887E+00
 -1      3548 1.38057E-01
 -1      3549 1.57621E-01
 -1      3550 1.37495E+00
 -1      3551 1.55737E+00
 -1      3552 1.31490E-01
 -1      3553 1.31595E-01
 -1      3554 1.63081E-01
 -1      3555 1.79217E+00
 -1      3556 2.06117E+00
 -1      3557 1.78089E+00
 -1      3558 2.57578E+00
 -1      3559 2.81137E+00
 -1      3560 2.53030E+00
 -1      3561 1.07537E+00
 -1      3562 1.20381E+00
 -1      3563 1.37495E+00
 -1      3564 8.38863E-01
 -1      3565 9.38168E-01
 -1      3566 1.06660E+00
 -1      3567 6.44948E-01
 -1      3568 7.30433E-01
 -1      3569 8.20968E-01
 -1      3570 4.89297E-01
 -1      3571 5.59702E-01
 -1      3572 6.27291E-01
 -1      3573 3.66292E-01
 -1      3574 4.22581E-01
 -1      3575 4.75329E-01
 -1      3576 2.70286E-01
 -1      3577 3.14300E-01
 -1      3578 3.56622E-01
 -1      3579 1.97854E-01
 -1      3580 2.30042E-01
 -1      3581 2.64385E-01
 -1      3582 1.44299E-01
 -1      3583 1.66992E-01
 -1      3584 1.93279E-01
 -1      3585 1.03464E-01
 -1      3586 1.20888E-01
 -1      3587 1.39006E-01
 -1      3588 7.27973E-02
 -1      3589 8.59958E-02
 -1      3590 9.81283E-02
 -1      3591 5.07131E-02
 -1      3592 6.05449E-02
 -1      3593 6.84080E-02
 -1      3594 3.52949E-02
 -1      3595 4.27109E-02
 -1      3596 4.81534E-02
 -1      3597 3.91622E+00
 -1      3598 4.77994E+00
 -1      3599 4.82076E+00
 -1      3600 3.65387E+00
 -1      3601 2.56723E-02
 -1      3602 2.52002E-02
 -1      3603 6.08481E+00
 -1      3604 4.58303E+00
 -1      3605 4.02582E+00
 -1      3606 3.80997E+00
 -1      3607 2.64919E+00
 -1      3608 6.53354E+00
 -1      3609 7.64561E+00
 -1      3610 3.06672E+00
 -1      3611 3.42628E+00
 -1      3612 3.78319E+00
 -1      3613 3.30026E+00
 -1      3614 2.88325E-01
 -1      3615 3.02340E-01
 -1      3616 2.68442E-01
 -1      3617 7.78046E+00
 -1      3618 6.63941E+00
 -1      3619 5.77694E+00
 -1      3620 3.07278E+00
 -1      3621 2.73508E+00
 -1      3622 2.71117E+00
 -1      3623 3.85922E+00
 -1      3624 1.93751E-01
 -1      3625 1.61756E-01
 -1      3626 1.77794E-01
 -1      3627 8.37713E+00
 -1      3628 7.48039E+00
 -1      3629 2.80534E+00
 -1      3630 5.05633E+00
 -1      3631 5.17909E+00
 -1      3632 1.41603E-01
 -1      3633 1.28413E-01
 -1      3634 1.41340E-01
 -1      3635 2.10786E-01
 -1      3636 2.19625E-01
 -1      3637 4.16823E+00
 -1      3638 5.26287E+00
 -1      3639 3.61364E+00
 -1      3640 6.66990E+00
 -1      3641 7.77849E+00
 -1      3642 2.81691E-01
 -1      3643 2.32133E-01
 -1      3644 2.39875E-01
 -1      3645 2.16140E-01
 -1      3646 1.49622E-01
 -1      3647 1.46282E-01
 -1      3648 2.16140E-01
 -1      3649 2.33617E+00
 -1      3650 2.87763E+00
 -1      3651 4.06727E+00
 -1      3652 2.60296E+00
 -1      3653 5.88862E+00
 -1      3654 5.06165E+00
 -1      3655 4.67615E+00
 -1      3656 4.83272E+00
 -1      3657 5.39149E+00
 -1      3658 2.70138E-01
 -1      3659 3.24904E+00
 -1      3660 2.41098E+00
 -1      3661 2.25872E+00
 -1      3662 3.65880E+00
 -1      3663 6.38151E+00
 -1      3664 8.33565E+00
 -1      3665 6.34003E+00
 -1      3666 6.69702E+00
 -1      3667 2.45614E-02
 -1      3668 1.89268E-02
 -1      3669 1.86836E-02
 -1      3670 2.89709E-02
 -1      3671 4.80266E-01
 -1      3672 4.05151E-01
 -1      3673 3.38642E-01
 -1      3674 2.09567E-02
 -1      3675 1.23021E+00
 -1      3676 1.06089E+00
 -1      3677 9.32248E-01
 -1      3678 1.43092E-01
 -1      3679 1.46618E-01
 -1      3680 4.32960E+00
 -1      3681 3.85392E+00
 -1      3682 2.58126E-02
 -1      3683 2.37056E-02
 -1      3684 2.48419E-02
 -1      3685 2.94665E-02
 -1      3686 2.44446E-02
 -1      3687 2.47824E-02
 -1      3688 7.77849E+00
 -1      3689 2.84754E-02
 -1      3690 3.33318E-02
 -1      3691 2.46882E-02
 -1      3692 2.50288E-01
 -1      3693 5.24628E+00
 -1      3694 7.95330E+00
 -1      3695 6.21054E+00
 -1      3696 2.51636E+00
 -1      3697 2.24917E-01
 -1      3698 2.19453E-01
 -1      3699 2.53373E-02
 -1      3700 2.40947E-02
 -1      3701 1.73960E-01
 -1      3702 2.13717E-01
 -1      3703 2.03247E-01
 -1      3704 7.23698E+00
 -1      3705 5.99240E+00
 -1      3706 5.29794E+00
 -1      3707 4.93556E+00
 -1      3708 7.57466E+00
 -1      3709 6.10844E+00
 -1      3710 5.57672E+00
 -1      3711 2.04797E-02
 -1      3712 2.56723E-02
 -1      3713 2.56723E-02
 -1      3714 3.02221E-02
 -1      3715 2.93918E-02
 -1      3716 1.59011E-01
 -1      3717 2.11088E-01
 -1      3718 2.12789E-01
 -1      3719 1.50949E-01
 -1      3720 7.96151E-01
 -1      3721 6.88179E-01
 -1      3722 6.78535E-01
 -1      3723 9.24795E-01
 -1      3724 3.08229E+00
 -1      3725 3.94651E+00
 -1      3726 5.85090E+00
 -1      3727 5.43346E+00
 -1      3728 5.11535E+00
 -1      3729 4.24746E+00
 -1      3730 2.81665E-02
 -1      3731 2.24405E-02
 -1      3732 5.90552E+00
 -1      3733 5.01617E+00
 -1      3734 4.55680E+00
 -1      3735 2.07139E-01
 -1      3736 2.34375E-01
 -1      3737 1.32485E+00
 -1      3738 1.49599E+00
 -1      3739 4.07135E+00
 -1      3740 2.19196E-01
 -1      3741 1.77522E-01
 -1      3742 2.71051E-01
 -1      3743 3.06273E-01
 -1      3744 2.69209E-01
 -1      3745 3.60885E-01
 -1      3746 4.15109E-01
 -1      3747 3.60497E-01
 -1      3748 4.78596E-01
 -1      3749 5.42082E-01
 -1      3750 4.78596E-01
 -1      3751 6.24944E-01
 -1      3752 6.99851E-01
 -1      3753 6.24944E-01
 -1      3754 8.17091E-01
 -1      3755 9.43856E-01
 -1      3756 8.25046E-01
 -1      3757 1.12974E+00
 -1      3758 1.27246E+00
 -1      3759 1.12817E+00
 -1      3760 1.84825E+00
 -1      3761 1.98436E+00
 -1      3762 1.88985E+00
 -1      3763 2.65773E+00
 -1      3764 2.93072E+00
 -1      3765 3.13901E+00
 -1      3766 3.23290E+00
 -1      3767 3.81194E+00
 -1      3768 4.11456E+00
 -1      3769 4.83272E+00
 -1      3770 2.24917E-01
 -1      3771 2.24917E-01
 -1      3772 1.79696E-01
 -1      3773 1.74404E-01
 -1      3774 2.83686E+00
 -1      3775 2.19097E+00
 -1      3776 1.88838E+00
 -1      3777 1.61900E+00
 -1      3778 1.47784E+00
 -1      3779 2.00231E+00
 -1      3780 1.23068E+00
 -1      3781 1.09611E+00
 -1      3782 1.48577E+00
 -1      3783 9.30849E-01
 -1      3784 8.15573E-01
 -1      3785 1.07335E+00
 -1      3786 7.12628E-01
 -1      3787 6.37630E-01
 -1      3788 8.05148E-01
 -1      3789 5.73057E-01
 -1      3790 5.16266E-01
 -1      3791 6.37630E-01
 -1      3792 4.59475E-01
 -1      3793 4.19049E-01
 -1      3794 5.16266E-01
 -1      3795 3.70745E-01
 -1      3796 3.33792E-01
 -1      3797 4.11172E-01
 -1      3798 2.93535E-01
 -1      3799 2.60879E-01
 -1      3800 3.22611E-01
 -1      3801 2.27974E-01
 -1      3802 2.00233E-01
 -1      3803 2.49449E-01
 -1      3804 1.73734E-01
 -1      3805 1.50877E-01
 -1      3806 1.90046E-01
 -1      3807 1.29828E-01
 -1      3808 1.11473E-01
 -1      3809 1.42498E-01
 -1      3810 9.49816E-02
 -1      3811 8.05907E-02
 -1      3812 1.04958E-01
 -1      3813 6.78845E-02
 -1      3814 5.68568E-02
 -1      3815 7.57598E-02
 -1      3816 4.72565E-02
 -1      3817 3.93656E-02
 -1      3818 5.34533E-02
 -1      3819 3.17198E-02
 -1      3820 1.39450E-01
 -1      3821 1.31432E-01
 -1      3822 1.36099E-01
 -1      3823 1.43092E-01
 -1      3824 1.32088E-01
 -1      3825 2.23037E-02
 -1      3826 3.49860E-02
 -1      3827 3.33318E-02
 -1      3828 4.01512E-02
 -1      3829 1.50600E-01
 -1      3830 2.08442E-01
 -1      3831 2.14578E-01
 -1      3832 1.51088E-01
 -1      3833 1.93873E-01
 -1      3834 1.70174E-01
 -1      3835 1.59171E-01
 -1      3836 6.45444E+00
 -1      3837 1.61565E-01
 -1      3838 1.80230E-01
 -1      3839 2.05623E-01
 -1      3840 1.78089E+00
 -1      3841 2.01569E+00
 -1      3842 1.73079E+00
 -1      3843 2.43163E+00
 -1      3844 2.94624E+00
 -1      3845 2.43163E+00
 -1      3846 7.54926E-01
 -1      3847 8.63356E-01
 -1      3848 5.72199E-01
 -1      3849 6.57445E-01
 -1      3850 6.99834E-01
 -1      3851 4.32427E-01
 -1      3852 4.99143E-01
 -1      3853 5.29297E-01
 -1      3854 3.24537E-01
 -1      3855 3.76529E-01
 -1      3856 4.00342E-01
 -1      3857 2.41112E-01
 -1      3858 2.81356E-01
 -1      3859 3.01263E-01
 -1      3860 1.76891E-01
 -1      3861 2.07753E-01
 -1      3862 2.24724E-01
 -1      3863 1.27804E-01
 -1      3864 1.51214E-01
 -1      3865 1.65688E-01
 -1      3866 9.07067E-02
 -1      3867 1.08175E-01
 -1      3868 1.20382E-01
 -1      3869 6.36302E-02
 -1      3870 7.58826E-02
 -1      3871 8.59289E-02
 -1      3872 4.51471E-02
 -1      3873 5.31492E-02
 -1      3874 6.06239E-02
 -1      3875 4.51471E-02
 -1      3876 3.78319E+00
 -1      3877 4.59317E+00
 -1      3878 4.20871E+00
 -1      3879 3.55560E+00
 -1      3880 2.53373E-02
 -1      3881 2.53373E-02
 -1      3882 2.98207E-02
 -1      3883 2.92658E-02
 -1      3884 2.47120E+00
 -1      3885 5.08988E+00
 -1      3886 4.88605E+00
 -1      3887 1.24486E-01
 -1      3888 1.42998E-01
 -1      3889 1.48290E-01
 -1      3890 1.24486E-01
 -1      3891 5.80432E+00
 -1      3892 5.80432E+00
 -1      3893 5.43346E+00
 -1      3894 5.20129E+00
 -1      3895 9.97062E-01
 -1      3896 1.13427E+00
 -1      3897 1.25531E+00
 -1      3898 9.31020E-01
 -1      3899 5.35555E+00
 -1      3900 1.86826E+00
 -1      3901 1.63342E+00
 -1      3902 1.96625E-01
 -1      3903 2.08644E-01
 -1      3904 1.54779E-01
 -1      3905 1.61602E-01
 -1      3906 4.67615E+00
 -1      3907 4.67615E+00
 -1      3908 2.45097E+00
 -1      3909 1.45941E-01
 -1      3910 1.49017E-01
 -1      3911 1.66166E-01
 -1      3912 1.39109E-01
 -1      3913 5.27341E+00
 -1      3914 4.69623E+00
 -1      3915 3.62072E-02
 -1      3916 2.60185E-01
 -1      3917 2.21804E-01
 -1      3918 2.14184E-01
 -1      3919 7.34218E-01
 -1      3920 6.24056E-01
 -1      3921 3.20158E+00
 -1      3922 3.30026E+00
 -1      3923 4.85780E+00
 -1      3924 4.28012E+00
 -1      3925 4.92504E+00
 -1      3926 3.95697E+00
 -1      3927 3.11501E+00
 -1      3928 3.11406E+00
 -1      3929 5.76284E+00
 -1      3930 2.53170E+00
 -1      3931 3.35208E-01
 -1      3932 5.59393E+00
 -1      3933 1.35254E+00
 -1      3934 1.18323E+00
 -1      3935 1.58644E+00
 -1      3936 3.51758E-02
 -1      3937 4.03411E-02
 -1      3938 3.51758E-02
 -1      3939 3.51156E-02
 -1      3940 3.43600E-02
 -1      3941 5.83068E-01
 -1      3942 5.27385E-01
 -1      3943 4.39278E-01
 -1      3944 1.43146E-01
 -1      3945 1.37410E-01
 -1      3946 4.32550E+00
 -1      3947 4.51641E+00
 -1      3948 4.39921E+00
 -1      3949 4.88605E+00
 -1      3950 4.62850E+00
 -1      3951 4.41674E+00
 -1      3952 1.38669E-01
 -1      3953 1.38669E-01
 -1      3954 1.02119E-01
 -1      3955 1.07263E-01
 -1      3956 4.39013E+00
 -1      3957 3.36257E-02
 -1      3958 3.36257E-02
 -1      3959 3.85192E-02
 -1      3960 3.55560E+00
 -1      3961 8.64953E-01
 -1      3962 8.10473E-01
 -1      3963 1.00105E+00
 -1      3964 4.05640E+00
 -1      3965 4.05640E+00
 -1      3966 4.11456E+00
 -1      3967 3.97795E+00
 -1      3968 3.46421E-01
 -1      3969 4.01033E-01
 -1      3970 4.71702E-01
 -1      3971 5.35189E-01
 -1      3972 4.57626E-01
 -1      3973 6.24944E-01
 -1      3974 7.07807E-01
 -1      3975 6.18051E-01
 -1      3976 8.25046E-01
 -1      3977 9.42285E-01
 -1      3978 8.25046E-01
 -1      3979 1.09634E+00
 -1      3980 1.28223E+00
 -1      3981 1.09634E+00
 -1      3982 1.64786E+00
 -1      3983 2.22366E+00
 -1      3984 1.61604E+00
 -1      3985 2.69725E+00
 -1      3986 3.37062E+00
 -1      3987 3.53619E+00
 -1      3988 2.45526E+00
 -1      3989 1.56661E+00
 -1      3990 1.31945E+00
 -1      3991 1.21059E+00
 -1      3992 1.04533E+00
 -1      3993 1.29143E+00
 -1      3994 9.08094E-01
 -1      3995 8.05148E-01
 -1      3996 1.04533E+00
 -1      3997 6.98434E-01
 -1      3998 6.33861E-01
 -1      3999 8.01379E-01
 -1      4000 5.53191E-01
 -1      4001 4.96400E-01
 -1      4002 6.13995E-01
 -1      4003 4.33390E-01
 -1      4004 3.85087E-01
 -1      4005 4.70315E-01
 -1      4006 3.36051E-01
 -1      4007 2.95794E-01
 -1      4008 3.58269E-01
 -1      4009 2.58008E-01
 -1      4010 2.25103E-01
 -1      4011 2.71448E-01
 -1      4012 1.95841E-01
 -1      4013 1.69342E-01
 -1      4014 2.04400E-01
 -1      4015 1.46708E-01
 -1      4016 1.25659E-01
 -1      4017 1.52503E-01
 -1      4018 1.08227E-01
 -1      4019 9.17355E-02
 -1      4020 1.12437E-01
 -1      4021 7.80007E-02
 -1      4022 6.52945E-02
 -1      4023 8.12702E-02
 -1      4024 5.58786E-02
 -1      4025 4.62783E-02
 -1      4026 5.81195E-02
 -1      4027 1.30912E-01
 -1      4028 1.19413E-01
 -1      4029 1.34402E-01
 -1      4030 3.43068E-01
 -1      4031 3.98966E-01
 -1      4032 1.49554E+00
 -1      4033 1.78044E+00
 -1      4034 2.00772E+00
 -1      4035 2.42366E+00
 -1      4036 1.77247E+00
 -1      4037 4.51566E-01
 -1      4038 5.24623E-01
 -1      4039 3.94293E-01
 -1      4040 5.94100E-01
 -1      4041 6.91580E-01
 -1      4042 5.16370E-01
 -1      4043 2.59181E-01
 -1      4044 3.02362E-01
 -1      4045 3.00986E-01
 -1      4046 1.94134E-01
 -1      4047 2.27493E-01
 -1      4048 2.28592E-01
 -1      4049 1.43668E-01
 -1      4050 1.69345E-01
 -1      4051 1.72114E-01
 -1      4052 1.04757E-01
 -1      4053 1.24386E-01
 -1      4054 1.28043E-01
 -1      4055 7.49451E-02
 -1      4056 8.97692E-02
 -1      4057 9.37730E-02
 -1      4058 3.43600E-02
 -1      4059 3.49148E-02
 -1      4060 4.02700E-02
 -1      4061 4.00090E-02
 -1      4062 3.58100E+00
 -1      4063 3.95390E+00
 -1      4064 4.79397E+00
 -1      4065 3.56475E+00
 -1      4066 3.90823E+00
 -1      4067 3.70376E-02
 -1      4068 1.06596E-01
 -1      4069 1.37410E-01
 -1      4070 1.30788E-01
 -1      4071 4.62506E+00
 -1      4072 5.32968E+00
 -1      4073 3.68964E+00
 -1      4074 4.79397E+00
 -1      4075 2.54262E-01
 -1      4076 2.90938E-01
 -1      4077 3.31474E-01
 -1      4078 3.65530E-01
 -1      4079 3.08579E-01
 -1      4080 2.90508E-01
 -1      4081 4.12649E-01
 -1      4082 4.20871E+00
 -1      4083 3.90370E+00
 -1      4084 1.89600E-01
 -1      4085 2.16510E-01
 -1      4086 2.38239E-01
 -1      4087 3.17020E+00
 -1      4088 3.51829E+00
 -1      4089 3.59200E+00
 -1      4090 2.81618E+00
 -1      4091 3.35082E+00
 -1      4092 2.05777E+00
 -1      4093 1.78838E+00
 -1      4094 2.54942E+00
 -1      4095 4.04412E-02
 -1      4096 3.55560E+00
 -1      4097 3.82711E+00
 -1      4098 8.16141E-01
 -1      4099 6.85406E-01
 -1      4100 1.62206E+00
 -1      4101 2.97367E+00
 -1      4102 2.53687E+00
 -1      4103 3.34408E+00
 -1      4104 3.34408E+00
 -1      4105 1.25503E+00
 -1      4106 1.30468E+00
 -1      4107 1.06445E+00
 -1      4108 3.62286E+00
 -1      4109 2.37611E+00
 -1      4110 1.63096E+00
 -1      4111 1.35008E+00
 -1      4112 2.13975E+00
 -1      4113 2.31356E-01
 -1      4114 2.03426E-01
 -1      4115 1.24147E-01
 -1      4116 1.29334E-01
 -1      4117 1.43844E-01
 -1      4118 1.34603E-01
 -1      4119 6.52952E-01
 -1      4120 5.56281E-01
 -1      4121 6.58619E-01
 -1      4122 2.39227E+00
 -1      4123 1.53618E-01
 -1      4124 1.66166E-01
 -1      4125 1.77052E-01
 -1      4126 1.43844E-01
 -1      4127 6.40929E-02
 -1      4128 6.79331E-02
 -1      4129 5.36119E-02
 -1      4130 4.44966E-02
 -1      4131 4.44966E-02
 -1      4132 4.53369E-02
 -1      4133 1.14866E-01
 -1      4134 7.88035E-01
 -1      4135 9.21740E-01
 -1      4136 6.82301E-01
 -1      4137 4.36081E+00
 -1      4138 1.54917E-01
 -1      4139 1.54917E-01
 -1      4140 1.52546E-01
 -1      4141 1.35323E-01
 -1      4142 1.39800E-01
 -1      4143 1.79628E-01
 -1      4144 1.12339E+00
 -1      4145 4.28665E-02
 -1      4146 5.11054E-02
 -1      4147 5.25952E-02
 -1      4148 5.70828E-02
 -1      4149 1.96801E-01
 -1      4150 1.88120E-01
 -1      4151 9.48264E-01
 -1      4152 8.23197E-01
 -1      4153 1.13044E+00
 -1      4154 2.16970E+00
 -1      4155 1.94793E+00
 -1      4156 2.87528E+00
 -1      4157 6.77373E-01
 -1      4158 7.67129E-01
 -1      4159 7.67129E-01
 -1      4160 8.84368E-01
 -1      4161 8.26451E-01
 -1      4162 1.33690E+00
 -1      4163 1.49096E+00
 -1      4164 1.27898E+00
 -1      4165 1.49096E+00
 -1      4166 1.85659E+00
 -1      4167 1.73152E+00
 -1      4168 1.99392E+00
 -1      4169 2.46751E+00
 -1      4170 2.51232E+00
 -1      4171 1.86884E+00
 -1      4172 1.46403E+00
 -1      4173 1.35517E+00
 -1      4174 2.01167E+00
 -1      4175 2.64824E-01
 -1      4176 2.54067E-01
 -1      4177 3.13218E-01
 -1      4178 1.05744E+00
 -1      4179 9.20205E-01
 -1      4180 1.23004E+00
 -1      4181 7.93553E-01
 -1      4182 6.86838E-01
 -1      4183 8.05664E-01
 -1      4184 6.47631E-01
 -1      4185 5.66961E-01
 -1      4186 6.39804E-01
 -1      4187 4.90152E-01
 -1      4188 4.27142E-01
 -1      4189 5.23788E-01
 -1      4190 3.65804E-01
 -1      4191 3.16769E-01
 -1      4192 3.85641E-01
 -1      4193 2.72149E-01
 -1      4194 2.34363E-01
 -1      4195 2.79684E-01
 -1      4196 2.04409E-01
 -1      4197 1.75147E-01
 -1      4198 2.05110E-01
 -1      4199 1.54671E-01
 -1      4200 1.32037E-01
 -1      4201 1.54680E-01
 -1      4202 1.15142E-01
 -1      4203 9.77106E-02
 -1      4204 1.17310E-01
 -1      4205 9.28084E-02
 -1      4206 7.90735E-02
 -1      4207 9.55140E-02
 -1      4208 2.02012E-01
 -1      4209 2.33700E-01
 -1      4210 2.66123E-01
 -1      4211 3.06829E-01
 -1      4212 2.39544E-01
 -1      4213 3.49299E-01
 -1      4214 4.01899E-01
 -1      4215 3.14436E-01
 -1      4216 4.60132E-01
 -1      4217 5.29609E-01
 -1      4218 4.15138E-01
 -1      4219 1.52491E-01
 -1      4220 1.77280E-01
 -1      4221 1.82389E-01
 -1      4222 1.13708E-01
 -1      4223 1.32990E-01
 -1      4224 1.38156E-01
 -1      4225 8.35311E-02
 -1      4226 9.85188E-02
 -1      4227 1.03466E-01
 -1      4228 2.11918E-01
 -1      4229 4.88059E-02
 -1      4230 2.14435E+00
 -1      4231 3.44738E+00
 -1      4232 2.03238E-01
 -1      4233 1.54917E-01
 -1      4234 2.95169E+00
 -1      4235 3.62286E+00
 -1      4236 2.44554E+00
 -1      4237 4.89547E-01
 -1      4238 5.60216E-01
 -1      4239 7.09294E-01
 -1      4240 3.06979E-01
 -1      4241 3.62462E-01
 -1      4242 4.65052E-01
 -1      4243 1.10411E-01
 -1      4244 5.69425E-02
 -1      4245 2.39421E-01
 -1      4246 2.77173E-01
 -1      4247 3.08161E-01
 -1      4248 2.49477E-01
 -1      4249 2.40797E-01
 -1      4250 1.58731E-01
 -1      4251 1.68653E-01
 -1      4252 1.60861E+00
 -1      4253 1.83589E+00
 -1      4254 2.30821E+00
 -1      4255 1.56306E+00
 -1      4256 3.43554E+00
 -1      4257 2.48372E+00
 -1      4258 1.99982E+00
 -1      4259 2.38041E+00
 -1      4260 9.21463E-01
 -1      4261 3.62286E+00
 -1      4262 7.78966E-02
 -1      4263 6.63583E-02
 -1      4264 1.17496E+00
 -1      4265 5.44992E-02
 -1      4266 6.53515E-02
 -1      4267 7.00972E-02
 -1      4268 6.58619E-01
 -1      4269 6.26164E-01
 -1      4270 4.85449E-02
 -1      4271 5.30326E-02
 -1      4272 5.50978E-01
 -1      4273 6.07216E-01
 -1      4274 7.03670E-01
 -1      4275 1.13866E+00
 -1      4276 1.37917E+00
 -1      4277 1.44260E+00
 -1      4278 2.40797E-01
 -1      4279 8.90886E-01
 -1      4280 7.58762E-01
 -1      4281 7.26308E-01
 -1      4282 5.04509E-02
 -1      4283 1.98049E+00
 -1      4284 6.97980E-02
 -1      4285 7.12647E-02
 -1      4286 8.94443E-02
 -1      4287 7.78966E-02
 -1      4288 2.88491E+00
 -1      4289 2.82945E-01
 -1      4290 5.09242E-01
 -1      4291 4.39359E-01
 -1      4292 3.65611E-01
 -1      4293 2.30821E+00
 -1      4294 4.82065E-01
 -1      4295 6.09151E-01
 -1      4296 1.58995E+00
 -1      4297 1.42149E+00
 -1      4298 1.20185E+00
 -1      4299 9.06117E-02
 -1      4300 1.13742E+00
 -1      4301 1.58995E+00
 -1      4302 1.73152E+00
 -1      4303 1.73152E+00
 -1      4304 3.39928E-01
 -1      4305 2.07196E+00
 -1      4306 1.44876E+00
 -1      4307 1.15103E+00
 -1      4308 9.13669E-01
 -1      4309 7.87017E-01
 -1      4310 1.13238E+00
 -1      4311 6.53798E-01
 -1      4312 6.14591E-01
 -1      4313 5.36984E-01
 -1      4314 4.60175E-01
 -1      4315 4.01942E-01
 -1      4316 3.40604E-01
 -1      4317 2.98135E-01
 -1      4318 2.53515E-01
 -1      4319 2.21092E-01
 -1      4320 1.91138E-01
 -1      4321 1.66406E-01
 -1      4322 1.45931E-01
 -1      4323 1.26430E-01
 -1      4324 1.09535E-01
 -1      4325 1.78428E-01
 -1      4326 9.43465E-02
 -1      4327 8.12504E-01
 -1      4328 9.55212E-01
 -1      4329 1.02970E+00
 -1      4330 7.37419E-01
 -1      4331 6.09151E-01
 -1      4332 7.26308E-01
 -1      4333 8.26451E-01
 -1      4334 8.26451E-01
 -1      4335 1.86884E+00
 -1      4336 3.09766E-01
 -1      4337 3.05177E-01
 -1      4338 3.05177E-01
 -1      4339 3.34982E-01
 -1      4340 6.26164E-01
 -1      4341 6.26164E-01
 -1      4342 1.96296E-01
 -1      4343 2.35231E-01
 -1      4344 1.72863E-01
 -1      4345 2.78355E-01
 -1      4346 1.13742E+00
 -1      4347 1.58995E+00
 -1      4348 1.92081E+00
 -1      4349 3.62160E-01
 -1      4350 9.55140E-02
 -1      4351 1.97672E-01
 -1      4352 4.79081E-01
 -1      4353 1.29145E+00
 -1      4354 1.52089E+00
 -1      4355 2.35231E-01
 -1      4356 5.09242E-01
 -1      4357 1.13742E+00
 -1      4358 1.05409E+00
 -1      4359 7.61803E-01
 -1      4360 8.70637E-01
 -1      4361 1.44839E+00
 -3
 9999
